
 stresses (elem, integ.pnt.,sxx,syy,szz,sxy,sxz,syz) for set ELALL and time  0.1000000E+01

         1   1 -1.801076E+06 -1.408568E+04 -1.640358E+04 -7.634949E+03 -1.130787E+04  1.394505E-01
         1   2 -1.799391E+06 -1.170410E+03 -7.659432E+03 -2.956542E+03 -7.294504E+03  3.483474E-02
         1   3 -1.801064E+06  4.147956E+02 -4.366365E+03  1.721954E+03 -3.281085E+03 -9.125842E-03
         1   4 -1.801076E+06 -1.408579E+04 -1.640359E+04  1.716448E-08 -1.130787E+04  3.147251E-10
         1   5 -1.799391E+06 -1.170427E+03 -7.659435E+03 -1.256719E-08 -7.294504E+03  1.437504E-09
         1   6 -1.801064E+06  4.147900E+02 -4.366366E+03 -5.545280E-08 -3.281085E+03  2.432902E-09
         1   7 -1.801076E+06 -1.408568E+04 -1.640358E+04  7.634949E+03 -1.130787E+04 -1.394505E-01
         1   8 -1.799391E+06 -1.170410E+03 -7.659432E+03  2.956542E+03 -7.294504E+03 -3.483474E-02
         1   9 -1.801064E+06  4.147956E+02 -4.366365E+03 -1.721954E+03 -3.281085E+03  9.125847E-03
         1  10 -1.801076E+06 -1.408571E+04 -1.640382E+04 -7.634949E+03 -4.484080E-09  2.339435E-10
         1  11 -1.799391E+06 -1.170425E+03 -7.659533E+03 -2.956542E+03  9.275534E-09  9.430785E-10
         1  12 -1.801064E+06  4.147927E+02 -4.366385E+03  1.721954E+03  1.592315E-08  2.041373E-09
         1  13 -1.801077E+06 -1.408582E+04 -1.640384E+04 -3.310253E-09  2.202778E-09  3.665045E-10
         1  14 -1.799391E+06 -1.170441E+03 -7.659535E+03  2.466373E-09 -2.695848E-11  1.320855E-09
         1  15 -1.801064E+06  4.147871E+02 -4.366386E+03 -2.510535E-09 -7.052558E-10  1.858929E-09
         1  16 -1.801076E+06 -1.408571E+04 -1.640382E+04  7.634949E+03  4.535911E-09  5.512936E-10
         1  17 -1.799391E+06 -1.170425E+03 -7.659533E+03  2.956542E+03 -8.459506E-09  1.586088E-09
         1  18 -1.801064E+06  4.147927E+02 -4.366385E+03 -1.721954E+03 -1.765120E-08  1.674849E-09
         1  19 -1.801076E+06 -1.408568E+04 -1.640358E+04 -7.634949E+03  1.130787E+04 -1.394505E-01
         1  20 -1.799391E+06 -1.170410E+03 -7.659432E+03 -2.956542E+03  7.294504E+03 -3.483474E-02
         1  21 -1.801064E+06  4.147956E+02 -4.366365E+03  1.721954E+03  3.281085E+03  9.125846E-03
         1  22 -1.801076E+06 -1.408579E+04 -1.640359E+04 -1.084974E-08  1.130787E+04  4.023666E-10
         1  23 -1.799391E+06 -1.170427E+03 -7.659435E+03  1.425454E-08  7.294504E+03  1.266963E-09
         1  24 -1.801064E+06  4.147900E+02 -4.366366E+03  6.248851E-08  3.281085E+03  1.254235E-09
         1  25 -1.801076E+06 -1.408568E+04 -1.640358E+04  7.634949E+03  1.130787E+04  1.394505E-01
         1  26 -1.799391E+06 -1.170410E+03 -7.659432E+03  2.956542E+03  7.294504E+03  3.483474E-02
         1  27 -1.801064E+06  4.147956E+02 -4.366365E+03 -1.721954E+03  3.281085E+03 -9.125844E-03
         2   1 -1.800374E+06 -5.650921E+02 -3.417495E+03 -1.834055E+02 -2.688532E+03  7.964570E-04
         2   2 -1.800249E+06 -1.385265E+01 -1.894394E+03 -3.336752E+01 -1.743154E+03  9.394874E-05
         2   3 -1.800373E+06  3.193571E+01 -1.114475E+03  1.166703E+02 -7.977753E+02 -1.503409E-04
         2   4 -1.800374E+06 -5.650921E+02 -3.417495E+03  5.349944E-08 -2.688532E+03  1.634523E-09
         2   5 -1.800249E+06 -1.385265E+01 -1.894394E+03  1.309614E-08 -1.743154E+03 -8.534725E-10
         2   6 -1.800373E+06  3.193568E+01 -1.114475E+03 -1.115794E-08 -7.977753E+02 -1.154738E-09
         2   7 -1.800374E+06 -5.650921E+02 -3.417495E+03  1.834055E+02 -2.688532E+03 -7.964536E-04
         2   8 -1.800249E+06 -1.385265E+01 -1.894394E+03  3.336752E+01 -1.743154E+03 -9.395038E-05
         2   9 -1.800373E+06  3.193571E+01 -1.114475E+03 -1.166703E+02 -7.977753E+02  1.503386E-04
         2  10 -1.800374E+06 -5.650940E+02 -3.417508E+03 -1.834055E+02 -1.791900E-08  1.799339E-09
         2  11 -1.800249E+06 -1.385347E+01 -1.894400E+03 -3.336752E+01 -6.465942E-09  3.784576E-10
         2  12 -1.800373E+06  3.193554E+01 -1.114476E+03  1.166703E+02  2.965581E-09 -3.904866E-10
         2  13 -1.800374E+06 -5.650941E+02 -3.417508E+03 -4.951702E-09 -3.154291E-09  1.435367E-09
         2  14 -1.800249E+06 -1.385347E+01 -1.894400E+03 -5.262563E-09 -2.588798E-09  1.401048E-10
         2  15 -1.800373E+06  3.193551E+01 -1.114476E+03 -5.010121E-09  1.592961E-09 -6.068157E-10
         2  16 -1.800374E+06 -5.650940E+02 -3.417508E+03  1.834055E+02  1.679240E-08  1.158634E-09
         2  17 -1.800249E+06 -1.385347E+01 -1.894400E+03  3.336752E+01  8.217496E-09 -1.151857E-10
         2  18 -1.800373E+06  3.193554E+01 -1.114476E+03 -1.166703E+02 -2.249616E-09 -9.090004E-10
         2  19 -1.800374E+06 -5.650921E+02 -3.417495E+03 -1.834055E+02  2.688532E+03 -7.964529E-04
         2  20 -1.800249E+06 -1.385265E+01 -1.894394E+03 -3.336752E+01  1.743154E+03 -9.394769E-05
         2  21 -1.800373E+06  3.193571E+01 -1.114475E+03  1.166703E+02  7.977753E+02  1.503402E-04
         2  22 -1.800374E+06 -5.650921E+02 -3.417495E+03 -4.617745E-08  2.688532E+03  1.249539E-09
         2  23 -1.800249E+06 -1.385265E+01 -1.894394E+03 -2.359606E-08  1.743154E+03  1.102047E-09
         2  24 -1.800373E+06  3.193568E+01 -1.114475E+03  2.442298E-08  7.977753E+02 -6.538960E-11
         2  25 -1.800374E+06 -5.650921E+02 -3.417495E+03  1.834055E+02  2.688532E+03  7.964554E-04
         2  26 -1.800249E+06 -1.385265E+01 -1.894394E+03  3.336752E+01  1.743154E+03  9.394984E-05
         2  27 -1.800373E+06  3.193571E+01 -1.114475E+03 -1.166703E+02  7.977753E+02 -1.503406E-04
         3   1 -1.800327E+06 -1.017346E+01 -8.725354E+02  2.750083E+01 -6.223998E+02 -2.764668E-05
         3   2 -1.800306E+06  1.097816E+01 -5.611339E+02  1.684061E+01 -3.449563E+02 -9.382383E-06
         3   3 -1.800327E+06  8.083603E+00 -4.367612E+02  6.180560E+00 -6.751685E+01 -6.732052E-07
         3   4 -1.800327E+06 -1.017346E+01 -8.725354E+02  3.217539E-09 -6.223998E+02 -3.501173E-10
         3   5 -1.800306E+06  1.097816E+01 -5.611339E+02 -1.788055E-11 -3.449563E+02  7.717686E-10
         3   6 -1.800327E+06  8.083603E+00 -4.367612E+02  5.469830E-10 -6.751685E+01  8.325689E-10
         3   7 -1.800327E+06 -1.017346E+01 -8.725354E+02 -2.750083E+01 -6.223998E+02  2.764637E-05
         3   8 -1.800306E+06  1.097816E+01 -5.611339E+02 -1.684061E+01 -3.449563E+02  9.383872E-06
         3   9 -1.800327E+06  8.083603E+00 -4.367612E+02 -6.180560E+00 -6.751685E+01  6.747862E-07
         3  10 -1.800327E+06 -1.017357E+01 -8.725361E+02  2.750083E+01 -1.802918E-09 -4.093926E-10
         3  11 -1.800306E+06  1.097813E+01 -5.611341E+02  1.684061E+01  1.909235E-10 -2.669710E-10
         3  12 -1.800327E+06  8.083602E+00 -4.367612E+02  6.180560E+00 -1.278520E-09  1.231115E-10
         3  13 -1.800327E+06 -1.017357E+01 -8.725361E+02  6.517532E-09  9.108939E-11 -6.639900E-10
         3  14 -1.800306E+06  1.097813E+01 -5.611341E+02  1.795586E-10 -1.092995E-09 -2.843029E-10
         3  15 -1.800327E+06  8.083602E+00 -4.367612E+02  5.646101E-09  1.143503E-09  4.349985E-10
         3  16 -1.800327E+06 -1.017357E+01 -8.725361E+02 -2.750083E+01  7.156670E-10 -9.061686E-10
         3  17 -1.800306E+06  1.097813E+01 -5.611341E+02 -1.684061E+01  1.910612E-09 -3.148777E-10
         3  18 -1.800327E+06  8.083602E+00 -4.367612E+02 -6.180560E+00  1.368902E-09  6.627486E-10
         3  19 -1.800327E+06 -1.017346E+01 -8.725354E+02  2.750083E+01  6.223998E+02  2.764652E-05
         3  20 -1.800306E+06  1.097816E+01 -5.611339E+02  1.684061E+01  3.449563E+02  9.382253E-06
         3  21 -1.800327E+06  8.083603E+00 -4.367612E+02  6.180560E+00  6.751685E+01  6.737749E-07
         3  22 -1.800327E+06 -1.017346E+01 -8.725354E+02  1.414750E-08  6.223998E+02 -1.014973E-09
         3  23 -1.800306E+06  1.097816E+01 -5.611339E+02  8.963436E-09  3.449563E+02 -1.363472E-09
         3  24 -1.800327E+06  8.083603E+00 -4.367612E+02  8.367894E-09  6.751685E+01  4.713705E-11
         3  25 -1.800327E+06 -1.017346E+01 -8.725354E+02 -2.750083E+01  6.223998E+02 -2.764833E-05
         3  26 -1.800306E+06  1.097816E+01 -5.611339E+02 -1.684061E+01  3.449563E+02 -9.384874E-06
         3  27 -1.800327E+06  8.083603E+00 -4.367612E+02 -6.180560E+00  6.751685E+01 -6.737806E-07
         4   1 -1.800325E+06  6.271398E+00 -4.270917E+02 -2.642517E-01  1.069466E+01 -4.100720E-09
         4   2 -1.800308E+06  1.213877E+01 -5.077635E+02 -1.796535E+01  2.613687E+02 -7.584164E-06
         4   3 -1.800325E+06  1.461769E+01 -7.528367E+02 -3.566672E+01  5.120464E+02 -2.949835E-05
         4   4 -1.800325E+06  6.271398E+00 -4.270917E+02  7.141353E-09  1.069466E+01  4.662117E-10
         4   5 -1.800308E+06  1.213877E+01 -5.077635E+02 -7.178138E-09  2.613687E+02 -1.035804E-10
         4   6 -1.800325E+06  1.461769E+01 -7.528367E+02 -1.002737E-08  5.120464E+02 -1.609476E-10
         4   7 -1.800325E+06  6.271398E+00 -4.270917E+02  2.642517E-01  1.069466E+01  4.874090E-09
         4   8 -1.800308E+06  1.213877E+01 -5.077635E+02  1.796535E+01  2.613687E+02  7.583964E-06
         4   9 -1.800325E+06  1.461769E+01 -7.528367E+02  3.566672E+01  5.120464E+02  2.949818E-05
         4  10 -1.800325E+06  6.271398E+00 -4.270917E+02 -2.642517E-01  5.562347E-10  3.543012E-10
         4  11 -1.800308E+06  1.213875E+01 -5.077636E+02 -1.796535E+01 -9.541844E-10  4.853322E-10
         4  12 -1.800325E+06  1.461762E+01 -7.528372E+02 -3.566672E+01 -4.304612E-09  3.719885E-10
         4  13 -1.800325E+06  6.271398E+00 -4.270917E+02  2.641244E-09 -2.200136E-09  5.510710E-10
         4  14 -1.800308E+06  1.213875E+01 -5.077636E+02 -2.957383E-09 -4.567371E-10  1.745194E-10
         4  15 -1.800325E+06  1.461762E+01 -7.528372E+02  6.000319E-10 -1.959937E-09  9.475187E-11
         4  16 -1.800325E+06  6.271398E+00 -4.270917E+02  2.642517E-01  5.394190E-10  6.376877E-10
         4  17 -1.800308E+06  1.213875E+01 -5.077636E+02  1.796535E+01  4.817388E-10 -1.761736E-10
         4  18 -1.800325E+06  1.461762E+01 -7.528372E+02  3.566672E+01  3.470153E-09 -1.742854E-10
         4  19 -1.800325E+06  6.271398E+00 -4.270917E+02 -2.642517E-01 -1.069466E+01  5.216151E-09
         4  20 -1.800308E+06  1.213877E+01 -5.077635E+02 -1.796535E+01 -2.613687E+02  7.585340E-06
         4  21 -1.800325E+06  1.461769E+01 -7.528367E+02 -3.566672E+01 -5.120464E+02  2.949938E-05
         4  22 -1.800325E+06  6.271398E+00 -4.270917E+02  8.974476E-09 -1.069466E+01  6.602282E-10
         4  23 -1.800308E+06  1.213877E+01 -5.077635E+02  1.275975E-09 -2.613687E+02  4.297942E-10
         4  24 -1.800325E+06  1.461769E+01 -7.528367E+02  1.000622E-08 -5.120464E+02  3.629557E-10
         4  25 -1.800325E+06  6.271398E+00 -4.270917E+02  2.642517E-01 -1.069466E+01 -3.607100E-09
         4  26 -1.800308E+06  1.213877E+01 -5.077635E+02  1.796535E+01 -2.613687E+02 -7.584320E-06
         4  27 -1.800325E+06  1.461769E+01 -7.528367E+02  3.566672E+01 -5.120464E+02 -2.949894E-05
         5   1 -1.800342E+06  1.455505E+01 -9.566892E+02 -4.335719E+01  6.671206E+02 -4.672035E-05
         5   2 -1.800288E+06  3.742441E+01 -1.607749E+03 -9.571643E+01  1.461024E+03 -2.258829E-04
         5   3 -1.800342E+06  4.115041E+01 -2.781583E+03 -1.480757E+02  2.254926E+03 -5.393248E-04
         5   4 -1.800342E+06  1.455505E+01 -9.566892E+02  6.814398E-08  6.671206E+02 -1.136075E-09
         5   5 -1.800288E+06  3.742439E+01 -1.607749E+03  8.870776E-09  1.461024E+03 -2.640792E-09
         5   6 -1.800342E+06  4.115037E+01 -2.781583E+03 -5.474925E-08  2.254926E+03 -9.197550E-10
         5   7 -1.800342E+06  1.455505E+01 -9.566892E+02  4.335719E+01  6.671206E+02  4.671819E-05
         5   8 -1.800288E+06  3.742441E+01 -1.607749E+03  9.571643E+01  1.461024E+03  2.258775E-04
         5   9 -1.800342E+06  4.115041E+01 -2.781583E+03  1.480757E+02  2.254926E+03  5.393231E-04
         5  10 -1.800342E+06  1.455493E+01 -9.566900E+02 -4.335719E+01 -2.001949E-08 -9.007661E-10
         5  11 -1.800288E+06  3.742384E+01 -1.607753E+03 -9.571643E+01  1.714300E-10 -2.636603E-09
         5  12 -1.800342E+06  4.114904E+01 -2.781592E+03 -1.480757E+02  1.984363E-08 -1.022148E-09
         5  13 -1.800342E+06  1.455493E+01 -9.566900E+02 -5.251036E-09  2.281474E-09 -9.128177E-10
         5  14 -1.800288E+06  3.742382E+01 -1.607753E+03 -2.942143E-09  1.678832E-09 -2.424073E-09
         5  15 -1.800342E+06  4.114900E+01 -2.781592E+03 -4.946426E-09 -9.909729E-10 -7.366452E-10
         5  16 -1.800342E+06  1.455493E+01 -9.566900E+02  4.335719E+01  2.002923E-08 -9.210215E-10
         5  17 -1.800288E+06  3.742384E+01 -1.607753E+03  9.571643E+01 -2.303475E-09 -2.163526E-09
         5  18 -1.800342E+06  4.114904E+01 -2.781592E+03  1.480757E+02 -2.030601E-08 -4.558083E-10
         5  19 -1.800342E+06  1.455505E+01 -9.566892E+02 -4.335719E+01 -6.671206E+02  4.671890E-05
         5  20 -1.800288E+06  3.742441E+01 -1.607749E+03 -9.571643E+01 -1.461024E+03  2.258774E-04
         5  21 -1.800342E+06  4.115041E+01 -2.781583E+03 -1.480757E+02 -2.254926E+03  5.393232E-04
         5  22 -1.800342E+06  1.455505E+01 -9.566892E+02 -5.928718E-08 -6.671206E+02 -6.668695E-10
         5  23 -1.800288E+06  3.742439E+01 -1.607749E+03  1.392039E-09 -1.461024E+03 -2.212170E-09
         5  24 -1.800342E+06  4.115037E+01 -2.781583E+03  6.728204E-08 -2.254926E+03 -5.688337E-10
         5  25 -1.800342E+06  1.455505E+01 -9.566892E+02  4.335719E+01 -6.671206E+02 -4.672026E-05
         5  26 -1.800288E+06  3.742441E+01 -1.607749E+03  9.571643E+01 -1.461024E+03 -2.258818E-04
         5  27 -1.800342E+06  4.115041E+01 -2.781583E+03  1.480757E+02 -2.254926E+03 -5.393243E-04
         6   1 -1.800428E+06  6.252769E+01 -3.659979E+03 -2.182947E+02  2.836743E+03 -1.000222E-03
         6   2 -1.800184E+06  1.182419E+02 -6.361784E+03 -3.164240E+02  5.983341E+03 -3.058064E-03
         6   3 -1.800432E+06 -1.505171E+02 -1.119769E+04 -4.145523E+02  9.129877E+03 -6.113327E-03
         6   4 -1.800428E+06  6.252760E+01 -3.659979E+03  1.734099E-08  2.836743E+03  2.912579E-10
         6   5 -1.800184E+06  1.182418E+02 -6.361785E+03  7.341748E-09  5.983341E+03  4.067482E-10
         6   6 -1.800432E+06 -1.505174E+02 -1.119769E+04  6.242115E-09  9.129877E+03  2.563024E-10
         6   7 -1.800428E+06  6.252769E+01 -3.659979E+03  2.182947E+02  2.836743E+03  1.000223E-03
         6   8 -1.800184E+06  1.182419E+02 -6.361784E+03  3.164240E+02  5.983341E+03  3.058064E-03
         6   9 -1.800432E+06 -1.505171E+02 -1.119769E+04  4.145523E+02  9.129877E+03  6.113327E-03
         6  10 -1.800428E+06  6.252552E+01 -3.659994E+03 -2.182947E+02  2.323569E-09  4.134929E-10
         6  11 -1.800184E+06  1.182323E+02 -6.361852E+03 -3.164240E+02  2.197736E-09  5.579622E-10
         6  12 -1.800432E+06 -1.505395E+02 -1.119785E+04 -4.145523E+02  1.536228E-09  4.399565E-10
         6  13 -1.800428E+06  6.252543E+01 -3.659994E+03  8.617011E-11 -2.382195E-09  2.913102E-10
         6  14 -1.800184E+06  1.182321E+02 -6.361852E+03 -2.266299E-09  9.303885E-10  3.467100E-10
         6  15 -1.800432E+06 -1.505398E+02 -1.119785E+04 -2.474783E-09  1.660454E-09  6.431297E-10
         6  16 -1.800428E+06  6.252552E+01 -3.659994E+03  2.182947E+02 -1.639932E-09  3.097252E-10
         6  17 -1.800184E+06  1.182323E+02 -6.361852E+03  3.164240E+02 -7.460574E-10  2.028004E-10
         6  18 -1.800432E+06 -1.505395E+02 -1.119785E+04  4.145523E+02  1.086270E-09  8.925505E-10
         6  19 -1.800428E+06  6.252769E+01 -3.659979E+03 -2.182947E+02 -2.836743E+03  1.000223E-03
         6  20 -1.800184E+06  1.182419E+02 -6.361784E+03 -3.164240E+02 -5.983341E+03  3.058065E-03
         6  21 -1.800432E+06 -1.505171E+02 -1.119769E+04 -4.145523E+02 -9.129877E+03  6.113328E-03
         6  22 -1.800428E+06  6.252760E+01 -3.659979E+03  3.575945E-11 -2.836743E+03  2.913218E-10
         6  23 -1.800184E+06  1.182418E+02 -6.361785E+03 -4.370381E-09 -5.983341E+03  2.206414E-10
         6  24 -1.800432E+06 -1.505174E+02 -1.119769E+04 -1.638334E-09 -9.129877E+03  1.038496E-09
         6  25 -1.800428E+06  6.252769E+01 -3.659979E+03  2.182947E+02 -2.836743E+03 -1.000223E-03
         6  26 -1.800184E+06  1.182419E+02 -6.361784E+03  3.164240E+02 -5.983341E+03 -3.058064E-03
         6  27 -1.800432E+06 -1.505171E+02 -1.119769E+04  4.145523E+02 -9.129877E+03 -6.113326E-03
         7   1 -1.801079E+06  4.257179E+02 -1.469995E+04 -1.632635E+03  1.141238E+04 -3.009532E-02
         7   2 -1.799386E+06 -1.978239E+02 -2.563921E+04  4.358970E+02  2.420965E+04  1.704530E-02
         7   3 -1.801097E+06 -7.748660E+03 -4.665890E+04  2.504479E+03  3.700690E+04  1.497037E-01
         7   4 -1.801079E+06  4.257129E+02 -1.469995E+04  7.260092E-09  1.141238E+04 -2.344954E-10
         7   5 -1.799386E+06 -1.978243E+02 -2.563921E+04  5.404267E-09  2.420965E+04 -3.636650E-10
         7   6 -1.801097E+06 -7.748672E+03 -4.665890E+04  6.680373E-09  3.700690E+04  1.472280E-09
         7   7 -1.801079E+06  4.257179E+02 -1.469995E+04  1.632635E+03  1.141238E+04  3.009532E-02
         7   8 -1.799386E+06 -1.978239E+02 -2.563921E+04 -4.358970E+02  2.420965E+04 -1.704530E-02
         7   9 -1.801097E+06 -7.748660E+03 -4.665890E+04 -2.504479E+03  3.700690E+04 -1.497037E-01
         7  10 -1.801079E+06  4.256828E+02 -1.470019E+04 -1.632635E+03  1.698109E-09 -8.197826E-11
         7  11 -1.799387E+06 -1.979818E+02 -2.564031E+04  4.358970E+02  1.034622E-10 -4.868589E-10
         7  12 -1.801099E+06 -7.749029E+03 -4.666148E+04  2.504479E+03 -2.090451E-09  4.725143E-10
         7  13 -1.801079E+06  4.256778E+02 -1.470019E+04 -6.080681E-09  2.293853E-10  4.234857E-10
         7  14 -1.799387E+06 -1.979822E+02 -2.564031E+04  5.109456E-10 -2.233428E-09 -1.550544E-10
         7  15 -1.801099E+06 -7.749041E+03 -4.666148E+04  3.899204E-09 -1.675866E-10  2.202037E-10
         7  16 -1.801079E+06  4.256828E+02 -1.470019E+04  1.632635E+03 -2.765885E-09  8.709134E-10
         7  17 -1.799387E+06 -1.979818E+02 -2.564031E+04 -4.358970E+02 -1.613881E-10  3.171789E-12
         7  18 -1.801099E+06 -7.749029E+03 -4.666148E+04 -2.504479E+03  7.322403E-10 -1.673262E-11
         7  19 -1.801079E+06  4.257179E+02 -1.469995E+04 -1.632635E+03 -1.141238E+04  3.009532E-02
         7  20 -1.799386E+06 -1.978239E+02 -2.563921E+04  4.358970E+02 -2.420965E+04 -1.704530E-02
         7  21 -1.801097E+06 -7.748660E+03 -4.665890E+04  2.504479E+03 -3.700690E+04 -1.497037E-01
         7  22 -1.801079E+06  4.257129E+02 -1.469995E+04  2.094114E-09 -1.141238E+04  1.105894E-09
         7  23 -1.799386E+06 -1.978243E+02 -2.563921E+04 -3.825377E-09 -2.420965E+04  1.273795E-11
         7  24 -1.801097E+06 -7.748672E+03 -4.665890E+04  4.758706E-09 -3.700690E+04 -1.030495E-09
         7  25 -1.801079E+06  4.257179E+02 -1.469995E+04  1.632635E+03 -1.141238E+04 -3.009532E-02
         7  26 -1.799386E+06 -1.978239E+02 -2.563921E+04 -4.358970E+02 -2.420965E+04  1.704530E-02
         7  27 -1.801097E+06 -7.748660E+03 -4.665890E+04 -2.504479E+03 -3.700690E+04  1.497037E-01
         8   1 -1.810545E+06  5.684501E+03 -5.971125E+04 -2.361240E+04  4.509895E+04 -1.720067E+00
         8   2 -1.787616E+06 -1.604171E+04 -1.049044E+05  4.052099E+04  1.000829E+05  6.550304E+00
         8   3 -1.810706E+06 -1.930490E+05 -2.247822E+05  1.046507E+05  1.550671E+05  2.621139E+01
         8   4 -1.810546E+06  5.683450E+03 -5.971140E+04  1.010797E-08  4.509895E+04  1.941408E-09
         8   5 -1.787617E+06 -1.604481E+04 -1.049048E+05  2.275873E-09  1.000829E+05  8.962840E-10
         8   6 -1.810718E+06 -1.930697E+05 -2.247852E+05  5.737321E-09  1.550671E+05  1.148647E-10
         8   7 -1.810545E+06  5.684501E+03 -5.971125E+04  2.361240E+04  4.509895E+04  1.720067E+00
         8   8 -1.787616E+06 -1.604171E+04 -1.049044E+05 -4.052099E+04  1.000829E+05 -6.550304E+00
         8   9 -1.810706E+06 -1.930490E+05 -2.247822E+05 -1.046507E+05  1.550671E+05 -2.621139E+01
         8  10 -1.810547E+06  5.683953E+03 -5.971508E+04 -2.361240E+04  1.231270E-10  7.046606E-10
         8  11 -1.787627E+06 -1.604441E+04 -1.049233E+05  4.052099E+04  1.146264E-09  3.266309E-10
         8  12 -1.810732E+06 -1.930555E+05 -2.248276E+05  1.046507E+05  1.299141E-09  5.200048E-11
         8  13 -1.810548E+06  5.682902E+03 -5.971523E+04  3.570767E-09  6.721090E-11  4.583090E-10
         8  14 -1.787628E+06 -1.604751E+04 -1.049237E+05  1.662067E-09  2.231917E-09  2.401823E-10
         8  15 -1.810744E+06 -1.930762E+05 -2.248305E+05  2.981899E-09 -9.950946E-10  4.662309E-11
         8  16 -1.810547E+06  5.683953E+03 -5.971508E+04  2.361240E+04 -3.497287E-10  1.322626E-10
         8  17 -1.787627E+06 -1.604441E+04 -1.049233E+05 -4.052099E+04 -2.192407E-09  7.755499E-11
         8  18 -1.810732E+06 -1.930555E+05 -2.248276E+05 -1.046507E+05  8.333972E-10  4.414957E-11
         8  19 -1.810545E+06  5.684501E+03 -5.971125E+04 -2.361240E+04 -4.509895E+04  1.720067E+00
         8  20 -1.787616E+06 -1.604171E+04 -1.049044E+05  4.052099E+04 -1.000829E+05 -6.550304E+00
         8  21 -1.810706E+06 -1.930490E+05 -2.247822E+05  1.046507E+05 -1.550671E+05 -2.621139E+01
         8  22 -1.810546E+06  5.683450E+03 -5.971140E+04  7.821069E-09 -4.509895E+04 -1.036212E-09
         8  23 -1.787617E+06 -1.604481E+04 -1.049048E+05 -1.315817E-11 -1.000829E+05 -4.223292E-10
         8  24 -1.810718E+06 -1.930697E+05 -2.247852E+05  2.248416E-09 -1.550671E+05 -2.821644E-11
         8  25 -1.810545E+06  5.684501E+03 -5.971125E+04  2.361240E+04 -4.509895E+04 -1.720067E+00
         8  26 -1.787616E+06 -1.604171E+04 -1.049044E+05 -4.052099E+04 -1.000829E+05  6.550304E+00
         8  27 -1.810706E+06 -1.930490E+05 -2.247822E+05 -1.046507E+05 -1.550671E+05  2.621139E+01
         9   1  1.524861E+06  4.695361E+06  1.508160E+06 -9.669118E+05  6.625873E+04  3.963471E+05
         9   2  1.067116E+06  3.546125E+06  1.012254E+06 -7.418234E+05  2.019480E+05  1.680169E+05
         9   3  7.784769E+05  2.472310E+06  7.069792E+05 -8.526887E+05  1.909942E+05 -5.997481E+04
         9   4  1.718445E+05 -7.715541E+05  1.980405E+05 -8.643084E+05  6.681993E+04  1.390102E+05
         9   5  1.651082E+04 -7.918250E+05  9.092593E+04 -6.965245E+05  2.022735E+05  9.176488E+04
         9   6 -3.163836E+02 -7.686346E+05  4.967942E+04 -8.647212E+05  1.906613E+05  4.442712E+04
         9   7 -1.183268E+06 -6.211044E+06 -1.113945E+06 -7.625774E+05  6.730034E+04 -1.160867E+05
         9   8 -1.035306E+06 -5.112077E+06 -8.314581E+05 -6.515246E+05  2.025894E+05  1.603380E+04
         9   9 -7.797563E+05 -3.999576E+06 -6.081264E+05 -8.766740E+05  1.903233E+05  1.482954E+05
         9  10  1.524814E+06  4.695192E+06  1.507859E+06 -9.669329E+05  1.942829E-11 -3.194310E-10
         9  11  1.067064E+06  3.546084E+06  1.012125E+06 -7.418506E+05 -8.696977E-10 -1.077835E-09
         9  12  7.784368E+05  2.472296E+06  7.069040E+05 -8.526796E+05 -1.283466E-09 -1.701832E-09
         9  13  1.718345E+05 -7.715761E+05  1.979957E+05 -8.643159E+05 -2.289195E-11  2.524270E-11
         9  14  1.646461E+04 -7.918451E+05  9.083313E+04 -6.965395E+05 -3.133537E-09  6.378174E-11
         9  15 -3.559524E+02 -7.686465E+05  4.960736E+04 -8.647281E+05 -1.830502E-09  9.033712E-11
         9  16 -1.183276E+06 -6.211060E+06 -1.113979E+06 -7.625710E+05  2.030891E-09  2.294936E-10
         9  17 -1.035350E+06 -5.112088E+06 -8.315357E+05 -6.515272E+05 -7.450374E-10  1.106058E-09
         9  18 -7.798012E+05 -3.999609E+06 -6.082362E+05 -8.766968E+05 -8.297211E-10  1.752792E-09
         9  19  1.524861E+06  4.695361E+06  1.508160E+06 -9.669118E+05 -6.625873E+04 -3.963471E+05
         9  20  1.067116E+06  3.546125E+06  1.012254E+06 -7.418234E+05 -2.019480E+05 -1.680169E+05
         9  21  7.784769E+05  2.472310E+06  7.069792E+05 -8.526887E+05 -1.909942E+05  5.997481E+04
         9  22  1.718445E+05 -7.715541E+05  1.980405E+05 -8.643084E+05 -6.681993E+04 -1.390102E+05
         9  23  1.651082E+04 -7.918250E+05  9.092593E+04 -6.965245E+05 -2.022735E+05 -9.176488E+04
         9  24 -3.163836E+02 -7.686346E+05  4.967942E+04 -8.647212E+05 -1.906613E+05 -4.442712E+04
         9  25 -1.183268E+06 -6.211044E+06 -1.113945E+06 -7.625774E+05 -6.730034E+04  1.160867E+05
         9  26 -1.035306E+06 -5.112077E+06 -8.314581E+05 -6.515246E+05 -2.025894E+05 -1.603380E+04
         9  27 -7.797563E+05 -3.999576E+06 -6.081264E+05 -8.766740E+05 -1.903233E+05 -1.482954E+05
        10   1  5.993864E+05  1.665098E+06  5.329341E+05 -8.750101E+05  1.430751E+05 -3.379278E+04
        10   2  3.247533E+05  5.533611E+05  2.810613E+05 -6.988064E+05  8.285448E+04 -4.578818E+04
        10   3  5.681877E+04 -5.562158E+05  3.796662E+04 -8.667887E+05  1.880604E+04 -5.785999E+04
        10   4  1.188758E+04 -7.773108E+05  3.659841E+04 -8.664691E+05  1.428065E+05  3.767911E+04
        10   5  5.301548E+03 -7.769492E+05  1.431468E+04 -6.943757E+05  8.252050E+04  3.035375E+04
        10   6  4.686738E+03 -7.763895E+05 -2.368821E+03 -8.665085E+05  1.839913E+04  2.293135E+04
        10   7 -5.759803E+05 -3.214039E+06 -4.600301E+05 -8.579525E+05  1.425392E+05  1.088754E+05
        10   8 -3.142562E+05 -2.105558E+06 -2.525001E+05 -6.899520E+05  8.218717E+04  1.063358E+05
        10   9 -4.744453E+04 -9.965021E+05 -4.268168E+04 -8.662283E+05  1.799220E+04  1.036948E+05
        10  10  5.993641E+05  1.665091E+06  5.328936E+05 -8.750062E+05  4.232843E-10 -9.052395E-10
        10  11  3.247454E+05  5.533571E+05  2.810445E+05 -6.988033E+05  2.326685E-10 -6.135845E-10
        10  12  5.681749E+04 -5.562195E+05  3.795967E+04 -8.667879E+05 -1.839686E-10 -8.918484E-11
        10  13  1.186529E+04 -7.773178E+05  3.655739E+04 -8.664734E+05 -1.381067E-09  8.139792E-11
        10  14  5.293986E+03 -7.769520E+05  1.430014E+04 -6.943777E+05 -7.209019E-10  4.726990E-11
        10  15  4.686232E+03 -7.763902E+05 -2.370449E+03 -8.665088E+05 -1.725887E-09 -3.144876E-11
        10  16 -5.760054E+05 -3.214057E+06 -4.600908E+05 -8.579651E+05 -3.250703E-09  8.196669E-10
        10  17 -3.142665E+05 -2.105572E+06 -2.525341E+05 -6.899590E+05 -1.773441E-09  5.219182E-10
        10  18 -4.744778E+04 -9.965138E+05 -4.270254E+04 -8.662298E+05 -2.746769E-09  9.837662E-11
        10  19  5.993864E+05  1.665098E+06  5.329341E+05 -8.750101E+05 -1.430751E+05  3.379278E+04
        10  20  3.247533E+05  5.533611E+05  2.810613E+05 -6.988064E+05 -8.285448E+04  4.578818E+04
        10  21  5.681877E+04 -5.562158E+05  3.796662E+04 -8.667887E+05 -1.880604E+04  5.785999E+04
        10  22  1.188758E+04 -7.773108E+05  3.659841E+04 -8.664691E+05 -1.428065E+05 -3.767911E+04
        10  23  5.301548E+03 -7.769492E+05  1.431468E+04 -6.943757E+05 -8.252050E+04 -3.035375E+04
        10  24  4.686738E+03 -7.763895E+05 -2.368821E+03 -8.665085E+05 -1.839913E+04 -2.293135E+04
        10  25 -5.759803E+05 -3.214039E+06 -4.600301E+05 -8.579525E+05 -1.425392E+05 -1.088754E+05
        10  26 -3.142562E+05 -2.105558E+06 -2.525001E+05 -6.899520E+05 -8.218717E+04 -1.063358E+05
        10  27 -4.744453E+04 -9.965021E+05 -4.268168E+04 -8.662283E+05 -1.799220E+04 -1.036948E+05
        11   1 -1.304688E+05 -1.354348E+06 -1.319367E+05 -8.556735E+05 -2.706595E+04 -7.406738E+04
        11   2 -4.101167E+05 -2.447952E+06 -3.962680E+05 -7.037409E+05 -6.727966E+04  3.948927E+04
        11   3 -7.529950E+05 -3.573017E+06 -7.511704E+05 -8.922463E+05 -2.741481E+04  1.530752E+05
        11   4  9.041738E+03 -7.799348E+05 -1.001239E+04 -8.656038E+05 -2.755160E+04  2.329645E+04
        11   5 -1.345771E+03 -7.727747E+05 -3.017076E+04 -6.955283E+05 -6.726376E+04  3.912915E+04
        11   6 -5.778688E+04 -7.811271E+05 -7.279544E+04 -8.658641E+05 -2.698879E+04  5.519805E+04
        11   7  1.485362E+05 -2.051891E+05  1.119288E+05 -8.755430E+05 -2.804008E+04  1.207492E+05
        11   8  4.072382E+05  9.050397E+05  3.357570E+05 -6.872889E+05 -6.724790E+04  3.876797E+04
        11   9  6.368556E+05  2.017933E+06  6.050522E+05 -8.393504E+05 -2.657234E+04 -4.312036E+04
        11  10 -1.304710E+05 -1.354354E+06 -1.319484E+05 -8.556751E+05  1.558601E-10  2.556314E-09
        11  11 -4.101219E+05 -2.447955E+06 -3.962795E+05 -7.037388E+05  8.192103E-10  1.006797E-09
        11  12 -7.530021E+05 -3.573042E+06 -7.512160E+05 -8.922429E+05  7.581655E-10 -8.084797E-10
        11  13  9.040779E+03 -7.799356E+05 -1.001483E+04 -8.656033E+05 -1.027644E-09  1.483191E-10
        11  14 -1.351035E+03 -7.727775E+05 -3.018213E+04 -6.955262E+05 -8.712646E-10  1.799717E-11
        11  15 -5.778847E+04 -7.811306E+05 -7.280253E+04 -8.658629E+05 -2.794656E-10  9.345126E-12
        11  16  1.485315E+05 -2.052050E+05  1.119000E+05 -8.755403E+05 -2.251407E-09 -2.577759E-09
        11  17  4.072330E+05  9.050369E+05  3.357457E+05 -6.872868E+05 -9.910146E-10 -9.254732E-10
        11  18  6.368544E+05  2.017931E+06  6.050474E+05 -8.393513E+05  1.573664E-10  8.622922E-10
        11  19 -1.304688E+05 -1.354348E+06 -1.319367E+05 -8.556735E+05  2.706595E+04  7.406738E+04
        11  20 -4.101167E+05 -2.447952E+06 -3.962680E+05 -7.037409E+05  6.727966E+04 -3.948927E+04
        11  21 -7.529950E+05 -3.573017E+06 -7.511704E+05 -8.922463E+05  2.741481E+04 -1.530752E+05
        11  22  9.041738E+03 -7.799348E+05 -1.001239E+04 -8.656038E+05  2.755160E+04 -2.329645E+04
        11  23 -1.345771E+03 -7.727747E+05 -3.017076E+04 -6.955283E+05  6.726376E+04 -3.912915E+04
        11  24 -5.778688E+04 -7.811271E+05 -7.279544E+04 -8.658641E+05  2.698879E+04 -5.519805E+04
        11  25  1.485362E+05 -2.051891E+05  1.119288E+05 -8.755430E+05  2.804008E+04 -1.207492E+05
        11  26  4.072382E+05  9.050397E+05  3.357570E+05 -6.872889E+05  6.724790E+04 -3.876797E+04
        11  27  6.368556E+05  2.017933E+06  6.050522E+05 -8.393504E+05  2.657234E+04  4.312036E+04
        12   1 -2.242644E+06 -5.201401E+05 -1.819975E+05 -8.800878E+05 -1.205270E+05 -4.621139E+04
        12   2 -2.229995E+06 -3.388320E+05 -7.270115E+04 -8.785851E+05 -7.520492E+04 -3.194299E+04
        12   3 -2.268212E+06 -2.889880E+05 -3.162642E+04 -8.481669E+05 -3.031516E+04 -1.651846E+04
        12   4 -2.345591E+06 -4.801653E+05 -1.939062E+05 -8.270549E+05 -1.237527E+05 -4.744041E+04
        12   5 -2.309303E+06 -3.387214E+05 -8.600057E+04 -8.698138E+05 -7.717870E+04 -3.268782E+04
        12   6 -2.324140E+06 -3.290106E+05 -4.731984E+04 -8.836577E+05 -3.103439E+04 -1.678697E+04
        12   7 -2.448512E+06 -4.401686E+05 -2.058107E+05 -7.740311E+05 -1.269778E+05 -4.867022E+04
        12   8 -2.388604E+06 -3.386090E+05 -9.929956E+04 -8.610443E+05 -7.915219E+04 -3.343278E+04
        12   9 -2.380064E+06 -3.690296E+05 -6.301340E+04 -9.191449E+05 -3.175354E+04 -1.705539E+04
        12  10 -2.242661E+06 -5.201463E+05 -1.820290E+05 -8.800923E+05  2.090218E-10  3.172335E-10
        12  11 -2.230001E+06 -3.388346E+05 -7.271375E+04 -8.785871E+05 -1.108679E-09  4.707334E-10
        12  12 -2.268213E+06 -2.889885E+05 -3.162867E+04 -8.481673E+05  1.156175E-10  6.994123E-10
        12  13 -2.345608E+06 -4.801719E+05 -1.939393E+05 -8.270596E+05  1.659714E-10 -9.000689E-11
        12  14 -2.309310E+06 -3.387242E+05 -8.601383E+04 -8.698158E+05 -3.706901E-09  1.817098E-11
        12  15 -2.324141E+06 -3.290112E+05 -4.732219E+04 -8.836582E+05  6.765924E-10  5.178835E-10
        12  16 -2.448530E+06 -4.401755E+05 -2.058456E+05 -7.740361E+05 -1.733681E-10 -2.703808E-10
        12  17 -2.388611E+06 -3.386119E+05 -9.931349E+04 -8.610465E+05 -1.120040E-09 -4.644035E-10
        12  18 -2.380065E+06 -3.690302E+05 -6.301585E+04 -9.191453E+05 -1.773146E-09  3.868954E-10
        12  19 -2.242644E+06 -5.201401E+05 -1.819975E+05 -8.800878E+05  1.205270E+05  4.621139E+04
        12  20 -2.229995E+06 -3.388320E+05 -7.270115E+04 -8.785851E+05  7.520492E+04  3.194299E+04
        12  21 -2.268212E+06 -2.889880E+05 -3.162642E+04 -8.481669E+05  3.031516E+04  1.651846E+04
        12  22 -2.345591E+06 -4.801653E+05 -1.939062E+05 -8.270549E+05  1.237527E+05  4.744041E+04
        12  23 -2.309303E+06 -3.387214E+05 -8.600057E+04 -8.698138E+05  7.717870E+04  3.268782E+04
        12  24 -2.324140E+06 -3.290106E+05 -4.731984E+04 -8.836577E+05  3.103439E+04  1.678697E+04
        12  25 -2.448512E+06 -4.401686E+05 -2.058107E+05 -7.740311E+05  1.269778E+05  4.867022E+04
        12  26 -2.388604E+06 -3.386090E+05 -9.929956E+04 -8.610443E+05  7.915219E+04  3.343278E+04
        12  27 -2.380064E+06 -3.690296E+05 -6.301340E+04 -9.191449E+05  3.175354E+04  1.705539E+04
        13   1 -2.237587E+06 -3.118488E+05 -1.904351E+04 -8.565509E+05 -2.415026E+04 -1.467879E+04
        13   2 -2.226146E+06 -2.983248E+05  1.085012E+03 -8.518900E+05 -1.413705E+04 -1.194627E+04
        13   3 -2.215211E+06 -2.939373E+05  1.236593E+04 -8.495295E+05 -4.146924E+03 -9.150704E+03
        13   4 -2.318226E+06 -3.394669E+05 -3.687784E+04 -8.764695E+05 -2.516612E+04 -1.505996E+04
        13   5 -2.317493E+06 -3.316012E+05 -1.932663E+04 -8.765492E+05 -1.508514E+04 -1.230198E+04
        13   6 -2.317280E+06 -3.328861E+05 -1.067753E+04 -8.789295E+05 -5.027455E+03 -9.481086E+03
        13   7 -2.398858E+06 -3.670848E+05 -5.471251E+04 -8.963858E+05 -2.618183E+04 -1.544109E+04
        13   8 -2.408831E+06 -3.648768E+05 -3.973862E+04 -9.012050E+05 -1.603306E+04 -1.265762E+04
        13   9 -2.419338E+06 -3.718334E+05 -3.372131E+04 -9.083246E+05 -5.907818E+03 -9.811399E+03
        13  10 -2.237587E+06 -3.118492E+05 -1.904502E+04 -8.565512E+05  2.329698E-09  9.941523E-10
        13  11 -2.226147E+06 -2.983250E+05  1.084366E+03 -8.518901E+05  1.000234E-09 -9.632680E-10
        13  12 -2.215211E+06 -2.939374E+05  1.236574E+04 -8.495295E+05  2.389993E-10 -1.186669E-09
        13  13 -2.318226E+06 -3.394674E+05 -3.687946E+04 -8.764698E+05 -1.416624E-10  1.617002E-10
        13  14 -2.317494E+06 -3.316014E+05 -1.932735E+04 -8.765494E+05 -1.669601E-09 -1.047797E-09
        13  15 -2.317281E+06 -3.328862E+05 -1.067775E+04 -8.789295E+05 -2.088845E-09 -9.898292E-10
        13  16 -2.398858E+06 -3.670852E+05 -5.471426E+04 -8.963861E+05 -2.605984E-09 -5.657649E-10
        13  17 -2.408832E+06 -3.648771E+05 -3.973940E+04 -9.012051E+05  2.204511E-10 -1.114836E-09
        13  18 -2.419338E+06 -3.718335E+05 -3.372156E+04 -9.083247E+05  8.023415E-10 -8.716903E-10
        13  19 -2.237587E+06 -3.118488E+05 -1.904351E+04 -8.565509E+05  2.415026E+04  1.467879E+04
        13  20 -2.226146E+06 -2.983248E+05  1.085012E+03 -8.518900E+05  1.413705E+04  1.194627E+04
        13  21 -2.215211E+06 -2.939373E+05  1.236593E+04 -8.495295E+05  4.146924E+03  9.150704E+03
        13  22 -2.318226E+06 -3.394669E+05 -3.687784E+04 -8.764695E+05  2.516612E+04  1.505996E+04
        13  23 -2.317493E+06 -3.316012E+05 -1.932663E+04 -8.765492E+05  1.508514E+04  1.230198E+04
        13  24 -2.317280E+06 -3.328861E+05 -1.067753E+04 -8.789295E+05  5.027455E+03  9.481086E+03
        13  25 -2.398858E+06 -3.670848E+05 -5.471251E+04 -8.963858E+05  2.618183E+04  1.544109E+04
        13  26 -2.408831E+06 -3.648768E+05 -3.973862E+04 -9.012050E+05  1.603306E+04  1.265762E+04
        13  27 -2.419338E+06 -3.718334E+05 -3.372131E+04 -9.083246E+05  5.907818E+03  9.811399E+03
        14   1 -2.205194E+06 -2.918333E+05  1.702101E+04 -8.475528E+05 -2.460898E+03 -9.051101E+03
        14   2 -2.194760E+06 -2.858398E+05  2.319062E+04 -8.427269E+05  6.138409E+01 -9.021667E+03
        14   3 -2.181794E+06 -2.830934E+05  2.762956E+04 -8.412808E+05  2.579311E+03 -8.980187E+03
        14   4 -2.316847E+06 -3.333082E+05 -8.083251E+03 -8.785193E+05 -3.348811E+03 -9.384303E+03
        14   5 -2.318096E+06 -3.315791E+05 -4.479624E+03 -8.768679E+05 -8.137350E+02 -9.350146E+03
        14   6 -2.316815E+06 -3.330996E+05 -2.616918E+03 -8.785964E+05  1.716932E+03 -9.303959E+03
        14   7 -2.428489E+06 -3.747826E+05 -3.318875E+04 -9.094811E+05 -4.236563E+03 -9.717444E+03
        14   8 -2.441418E+06 -3.773177E+05 -3.215121E+04 -9.110030E+05 -1.688675E+03 -9.678558E+03
        14   9 -2.451819E+06 -3.831049E+05 -3.286485E+04 -9.159049E+05  8.547508E+02 -9.627658E+03
        14  10 -2.205194E+06 -2.918334E+05  1.702084E+04 -8.475528E+05  1.498703E-09 -6.217721E-10
        14  11 -2.194761E+06 -2.858399E+05  2.319046E+04 -8.427269E+05 -1.645629E-09 -2.516991E-10
        14  12 -2.181794E+06 -2.830934E+05  2.762940E+04 -8.412808E+05  6.599348E-10 -2.391044E-10
        14  13 -2.316847E+06 -3.333083E+05 -8.083437E+03 -8.785193E+05  1.216179E-09 -6.786999E-10
        14  14 -2.318096E+06 -3.315792E+05 -4.479790E+03 -8.768679E+05  5.399841E-10 -1.706589E-10
        14  15 -2.316815E+06 -3.330997E+05 -2.617086E+03 -8.785964E+05  1.126177E-09  5.495754E-10
        14  16 -2.428489E+06 -3.747828E+05 -3.318896E+04 -9.094811E+05  7.702609E-10 -9.179816E-10
        14  17 -2.441418E+06 -3.773178E+05 -3.215139E+04 -9.110030E+05 -2.032971E-09 -2.730327E-11
        14  18 -2.451819E+06 -3.831050E+05 -3.286502E+04 -9.159049E+05 -9.929148E-10  1.412595E-09
        14  19 -2.205194E+06 -2.918333E+05  1.702101E+04 -8.475528E+05  2.460898E+03  9.051101E+03
        14  20 -2.194760E+06 -2.858398E+05  2.319062E+04 -8.427269E+05 -6.138409E+01  9.021667E+03
        14  21 -2.181794E+06 -2.830934E+05  2.762956E+04 -8.412808E+05 -2.579311E+03  8.980187E+03
        14  22 -2.316847E+06 -3.333082E+05 -8.083251E+03 -8.785193E+05  3.348811E+03  9.384303E+03
        14  23 -2.318096E+06 -3.315791E+05 -4.479624E+03 -8.768679E+05  8.137350E+02  9.350146E+03
        14  24 -2.316815E+06 -3.330996E+05 -2.616918E+03 -8.785964E+05 -1.716932E+03  9.303959E+03
        14  25 -2.428489E+06 -3.747826E+05 -3.318875E+04 -9.094811E+05  4.236563E+03  9.717444E+03
        14  26 -2.441418E+06 -3.773177E+05 -3.215121E+04 -9.110030E+05  1.688675E+03  9.678558E+03
        14  27 -2.451819E+06 -3.831049E+05 -3.286485E+04 -9.159049E+05 -8.547508E+02  9.627658E+03
        15   1 -2.173200E+06 -2.799592E+05  3.014482E+04 -8.389281E+05  3.130531E+03 -9.292327E+03
        15   2 -2.163288E+06 -2.744188E+05  3.320157E+04 -8.342338E+05  4.159393E+03 -9.787413E+03
        15   3 -2.150652E+06 -2.717278E+05  3.570516E+04 -8.327990E+05  5.184436E+03 -1.027185E+04
        15   4 -2.316785E+06 -3.330884E+05 -2.087081E+03 -8.785412E+05  2.277037E+03 -9.612812E+03
        15   5 -2.318146E+06 -3.316640E+05 -1.508625E+03 -8.769110E+05  3.317362E+03 -1.010368E+04
        15   6 -2.316785E+06 -3.330912E+05 -1.492540E+03 -8.785402E+05  4.353861E+03 -1.058390E+04
        15   7 -2.460347E+06 -3.862153E+05 -3.431982E+04 -9.181454E+05  1.423767E+03 -9.933213E+03
        15   8 -2.472979E+06 -3.889071E+05 -3.622018E+04 -9.195782E+05  2.475562E+03 -1.041985E+04
        15   9 -2.482891E+06 -3.944528E+05 -3.869219E+04 -9.242704E+05  3.523524E+03 -1.089586E+04
        15  10 -2.173200E+06 -2.799593E+05  3.014464E+04 -8.389280E+05  1.390606E-09  3.361424E-10
        15  11 -2.163288E+06 -2.744189E+05  3.320136E+04 -8.342337E+05 -1.813657E-10 -3.457347E-10
        15  12 -2.150652E+06 -2.717279E+05  3.570492E+04 -8.327989E+05  3.551404E-09 -4.298434E-10
        15  13 -2.316785E+06 -3.330885E+05 -2.087264E+03 -8.785412E+05 -4.203140E-11  2.684665E-10
        15  14 -2.318146E+06 -3.316641E+05 -1.508838E+03 -8.769110E+05 -2.323491E-10 -5.166614E-10
        15  15 -2.316785E+06 -3.330914E+05 -1.492786E+03 -8.785402E+05  2.179161E-09  1.963961E-10
        15  16 -2.460347E+06 -3.862154E+05 -3.432001E+04 -9.181454E+05  4.984222E-10  2.060419E-10
        15  17 -2.472979E+06 -3.889073E+05 -3.622039E+04 -9.195782E+05  1.945818E-09 -4.868290E-10
        15  18 -2.482891E+06 -3.944529E+05 -3.869243E+04 -9.242703E+05  3.600526E-09  9.017032E-10
        15  19 -2.173200E+06 -2.799592E+05  3.014482E+04 -8.389281E+05 -3.130531E+03  9.292327E+03
        15  20 -2.163288E+06 -2.744188E+05  3.320157E+04 -8.342338E+05 -4.159393E+03  9.787413E+03
        15  21 -2.150652E+06 -2.717278E+05  3.570516E+04 -8.327990E+05 -5.184436E+03  1.027185E+04
        15  22 -2.316785E+06 -3.330884E+05 -2.087081E+03 -8.785412E+05 -2.277037E+03  9.612812E+03
        15  23 -2.318146E+06 -3.316640E+05 -1.508625E+03 -8.769110E+05 -3.317362E+03  1.010368E+04
        15  24 -2.316785E+06 -3.330912E+05 -1.492540E+03 -8.785402E+05 -4.353861E+03  1.058390E+04
        15  25 -2.460347E+06 -3.862153E+05 -3.431982E+04 -9.181454E+05 -1.423767E+03  9.933213E+03
        15  26 -2.472979E+06 -3.889071E+05 -3.622018E+04 -9.195782E+05 -2.475562E+03  1.041985E+04
        15  27 -2.482891E+06 -3.944528E+05 -3.869219E+04 -9.242704E+05 -3.523524E+03  1.089586E+04
        16   1 -2.142489E+06 -2.686687E+05  3.743275E+04 -8.305282E+05  5.600859E+03 -1.061453E+04
        16   2 -2.132955E+06 -2.633661E+05  3.895014E+04 -8.260573E+05  7.120570E+03 -1.088745E+04
        16   3 -2.120889E+06 -2.608172E+05  3.953519E+04 -8.247235E+05  8.635338E+03 -1.114668E+04
        16   4 -2.316829E+06 -3.330669E+05 -1.674839E+03 -8.785147E+05  4.781770E+03 -1.092232E+04
        16   5 -2.318093E+06 -3.316791E+05 -2.526229E+03 -8.769503E+05  6.316085E+03 -1.118985E+04
        16   6 -2.316828E+06 -3.330479E+05 -4.321755E+03 -8.785229E+05  7.845442E+03 -1.144369E+04
        16   7 -2.491137E+06 -3.974623E+05 -4.078405E+04 -9.264885E+05  3.962936E+03 -1.123002E+04
        16   8 -2.503196E+06 -3.999895E+05 -4.400478E+04 -9.278293E+05  5.511861E+03 -1.149215E+04
        16   9 -2.512731E+06 -4.052761E+05 -4.818148E+04 -9.323070E+05  7.055812E+03 -1.174061E+04
        16  10 -2.142489E+06 -2.686688E+05  3.743248E+04 -8.305282E+05  3.688948E-09  4.562079E-10
        16  11 -2.132955E+06 -2.633663E+05  3.894983E+04 -8.260572E+05 -8.606657E-10 -1.376077E-10
        16  12 -2.120889E+06 -2.608174E+05  3.953482E+04 -8.247234E+05 -1.924564E-09 -2.620771E-10
        16  13 -2.316829E+06 -3.330670E+05 -1.675105E+03 -8.785147E+05  9.863343E-10  3.676407E-10
        16  14 -2.318093E+06 -3.316793E+05 -2.526539E+03 -8.769502E+05  7.015097E-11 -3.092199E-10
        16  15 -2.316829E+06 -3.330481E+05 -4.322116E+03 -8.785228E+05  7.156266E-10 -4.895388E-10
        16  16 -2.491137E+06 -3.974624E+05 -4.078432E+04 -9.264885E+05  1.866232E-09  1.894155E-10
        16  17 -2.503196E+06 -3.999897E+05 -4.400508E+04 -9.278292E+05  8.052115E-10 -7.171001E-10
        16  18 -2.512731E+06 -4.052763E+05 -4.818183E+04 -9.323069E+05  9.158514E-10 -6.413199E-10
        16  19 -2.142489E+06 -2.686687E+05  3.743275E+04 -8.305282E+05 -5.600859E+03  1.061453E+04
        16  20 -2.132955E+06 -2.633661E+05  3.895014E+04 -8.260573E+05 -7.120570E+03  1.088745E+04
        16  21 -2.120889E+06 -2.608172E+05  3.953519E+04 -8.247235E+05 -8.635338E+03  1.114668E+04
        16  22 -2.316829E+06 -3.330669E+05 -1.674839E+03 -8.785147E+05 -4.781770E+03  1.092232E+04
        16  23 -2.318093E+06 -3.316791E+05 -2.526229E+03 -8.769503E+05 -6.316085E+03  1.118985E+04
        16  24 -2.316828E+06 -3.330479E+05 -4.321755E+03 -8.785229E+05 -7.845442E+03  1.144369E+04
        16  25 -2.491137E+06 -3.974623E+05 -4.078405E+04 -9.264885E+05 -3.962936E+03  1.123002E+04
        16  26 -2.503196E+06 -3.999895E+05 -4.400478E+04 -9.278293E+05 -5.511861E+03  1.149215E+04
        16  27 -2.512731E+06 -4.052761E+05 -4.818148E+04 -9.323070E+05 -7.055812E+03  1.174061E+04
        17   1 -2.113177E+06 -2.579576E+05  3.997655E+04 -8.227156E+05  9.611370E+03 -1.125564E+04
        17   2 -2.103815E+06 -2.528684E+05  3.769004E+04 -8.184094E+05  1.493409E+04 -1.004797E+04
        17   3 -2.092803E+06 -2.510803E+05  3.145410E+04 -8.170864E+05  2.024434E+04 -8.806579E+03
        17   4 -2.317001E+06 -3.329917E+05 -5.695403E+03 -8.785565E+05  8.830568E+03 -1.154931E+04
        17   5 -2.317862E+06 -3.315832E+05 -1.022391E+04 -8.769746E+05  1.418854E+04 -1.032848E+04
        17   6 -2.317081E+06 -3.334831E+05 -1.873091E+04 -8.783763E+05  1.953395E+04 -9.073982E+03
        17   7 -2.520784E+06 -4.080228E+05 -5.136998E+04 -9.343805E+05  8.050045E+03 -1.184287E+04
        17   8 -2.531863E+06 -4.102943E+05 -5.814057E+04 -9.355212E+05  1.344328E+04 -1.060890E+04
        17   9 -2.541306E+06 -4.158816E+05 -6.891871E+04 -9.396455E+05  1.882385E+04 -9.341281E+03
        17  10 -2.113177E+06 -2.579577E+05  3.997614E+04 -8.227155E+05  7.548461E-11 -1.652243E-10
        17  11 -2.103815E+06 -2.528686E+05  3.768943E+04 -8.184092E+05  1.236905E-09 -1.398240E-10
        17  12 -2.092803E+06 -2.510805E+05  3.145319E+04 -8.170863E+05  3.541646E-09  7.522958E-10
        17  13 -2.317001E+06 -3.329919E+05 -5.695800E+03 -8.785564E+05  3.283009E-10 -4.818465E-10
        17  14 -2.317863E+06 -3.315834E+05 -1.022449E+04 -8.769745E+05  1.187211E-09 -4.653424E-10
        17  15 -2.317081E+06 -3.334833E+05 -1.873179E+04 -8.783762E+05  1.025313E-09 -3.429824E-10
        17  16 -2.520784E+06 -4.080230E+05 -5.137036E+04 -9.343804E+05 -2.113218E-09 -8.018208E-10
        17  17 -2.531863E+06 -4.102945E+05 -5.814112E+04 -9.355211E+05 -1.272313E-09 -9.264590E-10
        17  18 -2.541307E+06 -4.158818E+05 -6.891954E+04 -9.396454E+05 -2.920987E-09 -1.814827E-09
        17  19 -2.113177E+06 -2.579576E+05  3.997655E+04 -8.227156E+05 -9.611370E+03  1.125564E+04
        17  20 -2.103815E+06 -2.528684E+05  3.769004E+04 -8.184094E+05 -1.493409E+04  1.004797E+04
        17  21 -2.092803E+06 -2.510803E+05  3.145410E+04 -8.170864E+05 -2.024434E+04  8.806579E+03
        17  22 -2.317001E+06 -3.329917E+05 -5.695403E+03 -8.785565E+05 -8.830568E+03  1.154931E+04
        17  23 -2.317862E+06 -3.315832E+05 -1.022391E+04 -8.769746E+05 -1.418854E+04  1.032848E+04
        17  24 -2.317081E+06 -3.334831E+05 -1.873091E+04 -8.783763E+05 -1.953395E+04  9.073982E+03
        17  25 -2.520784E+06 -4.080228E+05 -5.136998E+04 -9.343805E+05 -8.050045E+03  1.184287E+04
        17  26 -2.531863E+06 -4.102943E+05 -5.814057E+04 -9.355212E+05 -1.344328E+04  1.060890E+04
        17  27 -2.541306E+06 -4.158816E+05 -6.891871E+04 -9.396455E+05 -1.882385E+04  9.341281E+03
        18   1 -2.084794E+06 -2.490389E+05  2.706920E+04 -8.179241E+05  2.397334E+04 -7.876198E+03
        18   2 -2.076466E+06 -2.419158E+05  9.042287E+03 -8.090669E+05  4.643779E+04 -2.868881E+01
        18   3 -2.073892E+06 -2.513932E+05 -2.937551E+04 -8.002399E+05  6.875195E+04  8.219461E+03
        18   4 -2.318172E+06 -3.324176E+05 -2.481147E+04 -8.792376E+05  2.317721E+04 -8.175789E+03
        18   5 -2.316359E+06 -3.317475E+05 -4.502701E+04 -8.763483E+05  4.607246E+04 -1.666803E+02
        18   6 -2.320389E+06 -3.477681E+05 -8.598188E+04 -8.734894E+05  6.881707E+04  8.242662E+03
        18   7 -2.551497E+06 -4.157936E+05 -7.669596E+04 -9.405306E+05  2.238140E+04 -8.475269E+03
        18   8 -2.556195E+06 -4.215748E+05 -9.910024E+04 -9.436058E+05  4.570728E+04 -3.046143E+02
        18   9 -2.566824E+06 -4.441364E+05 -1.425923E+05 -9.467114E+05  6.888215E+04  8.265849E+03
        18  10 -2.084794E+06 -2.490391E+05  2.706800E+04 -8.179240E+05  1.974201E-08  8.900965E-09
        18  11 -2.076468E+06 -2.419164E+05  9.038222E+03 -8.090669E+05  2.889788E-09  3.589712E-09
        18  12 -2.073897E+06 -2.513946E+05 -2.938456E+04 -8.002404E+05 -1.541735E-08 -4.440469E-09
        18  13 -2.318173E+06 -3.324178E+05 -2.481261E+04 -8.792374E+05 -8.301383E-12  8.372455E-10
        18  14 -2.316361E+06 -3.317481E+05 -4.503101E+04 -8.763483E+05  5.039950E-09  3.500758E-09
        18  15 -2.320394E+06 -3.477694E+05 -8.599094E+04 -8.734899E+05  6.208027E-09  3.687932E-09
        18  16 -2.551498E+06 -4.157938E+05 -7.669704E+04 -9.405304E+05 -1.880530E-08 -6.935352E-09
        18  17 -2.556197E+06 -4.215753E+05 -9.910418E+04 -9.436058E+05  6.927461E-09  3.045673E-09
        18  18 -2.566829E+06 -4.441378E+05 -1.426014E+05 -9.467119E+05  2.736788E-08  1.217956E-08
        18  19 -2.084794E+06 -2.490389E+05  2.706920E+04 -8.179241E+05 -2.397334E+04  7.876198E+03
        18  20 -2.076466E+06 -2.419158E+05  9.042287E+03 -8.090669E+05 -4.643779E+04  2.868881E+01
        18  21 -2.073892E+06 -2.513932E+05 -2.937551E+04 -8.002399E+05 -6.875195E+04 -8.219461E+03
        18  22 -2.318172E+06 -3.324176E+05 -2.481147E+04 -8.792376E+05 -2.317721E+04  8.175789E+03
        18  23 -2.316359E+06 -3.317475E+05 -4.502701E+04 -8.763483E+05 -4.607246E+04  1.666803E+02
        18  24 -2.320389E+06 -3.477681E+05 -8.598188E+04 -8.734894E+05 -6.881707E+04 -8.242662E+03
        18  25 -2.551497E+06 -4.157936E+05 -7.669596E+04 -9.405306E+05 -2.238140E+04  8.475269E+03
        18  26 -2.556195E+06 -4.215748E+05 -9.910024E+04 -9.436058E+05 -4.570728E+04  3.046143E+02
        18  27 -2.566824E+06 -4.441364E+05 -1.425923E+05 -9.467114E+05 -6.888215E+04 -8.265849E+03
        19   1 -2.043986E+06 -2.610934E+05 -5.243689E+04 -8.568944E+05  8.439688E+04  1.317702E+04
        19   2 -2.082020E+06 -1.996479E+05 -1.386929E+05 -7.303567E+05  1.816414E+05  5.218290E+04
        19   3 -2.242985E+06 -4.381280E+05 -3.795879E+05 -5.301012E+05  2.759579E+05  9.898439E+04
        19   4 -2.334312E+06 -3.232484E+05 -1.103389E+05 -8.901060E+05  8.243149E+04  1.244465E+04
        19   5 -2.297091E+06 -3.485334E+05 -2.005365E+05 -8.608314E+05  1.881588E+05  5.460850E+04
        19   6 -2.384580E+06 -6.755547E+05 -4.521578E+05 -7.578071E+05  2.909692E+05  1.045283E+05
        19   7 -2.624548E+06 -3.854044E+05 -1.682434E+05 -9.233093E+05  8.046711E+04  1.171230E+04
        19   8 -2.512103E+06 -4.973688E+05 -2.623817E+05 -9.912529E+05  1.946738E+05  5.703134E+04
        19   9 -2.526071E+06 -9.127651E+05 -5.247115E+05 -9.854309E+05  3.059770E+05  1.100596E+05
        19  10 -2.043993E+06 -2.610955E+05 -5.245065E+04 -8.568953E+05  7.523144E-09  1.947239E-09
        19  11 -2.082056E+06 -1.996597E+05 -1.387603E+05 -7.303644E+05  3.678794E-10 -1.312694E-09
        19  12 -2.243069E+06 -4.381591E+05 -3.797501E+05 -5.301232E+05 -2.480319E-09 -1.514889E-09
        19  13 -2.334319E+06 -3.232504E+05 -1.103520E+05 -8.901068E+05  3.156398E-09  2.408031E-09
        19  14 -2.297130E+06 -3.485462E+05 -2.006090E+05 -8.608397E+05  6.362025E-10 -8.379935E-10
        19  15 -2.384674E+06 -6.755893E+05 -4.523382E+05 -7.578316E+05  7.142644E-10 -5.288618E-10
        19  16 -2.624555E+06 -3.854063E+05 -1.682559E+05 -9.233101E+05  3.040319E-09  2.088172E-09
        19  17 -2.512144E+06 -4.973825E+05 -2.624594E+05 -9.912618E+05 -6.610920E-10  1.606998E-10
        19  18 -2.526175E+06 -9.128035E+05 -5.249112E+05 -9.854581E+05  1.645377E-09  3.162153E-10
        19  19 -2.043986E+06 -2.610934E+05 -5.243689E+04 -8.568944E+05 -8.439688E+04 -1.317702E+04
        19  20 -2.082020E+06 -1.996479E+05 -1.386929E+05 -7.303567E+05 -1.816414E+05 -5.218290E+04
        19  21 -2.242985E+06 -4.381280E+05 -3.795879E+05 -5.301012E+05 -2.759579E+05 -9.898439E+04
        19  22 -2.334312E+06 -3.232484E+05 -1.103389E+05 -8.901060E+05 -8.243149E+04 -1.244465E+04
        19  23 -2.297091E+06 -3.485334E+05 -2.005365E+05 -8.608314E+05 -1.881588E+05 -5.460850E+04
        19  24 -2.384580E+06 -6.755547E+05 -4.521578E+05 -7.578071E+05 -2.909692E+05 -1.045283E+05
        19  25 -2.624548E+06 -3.854044E+05 -1.682434E+05 -9.233093E+05 -8.046711E+04 -1.171230E+04
        19  26 -2.512103E+06 -4.973688E+05 -2.623817E+05 -9.912529E+05 -1.946738E+05 -5.703134E+04
        19  27 -2.526071E+06 -9.127651E+05 -5.247115E+05 -9.854309E+05 -3.059770E+05 -1.100596E+05
        20   1 -5.573912E+05  3.137691E+04  3.653856E+04  1.702739E+04  2.522658E+04  6.924800E-01
        20   2 -5.611327E+05  2.613547E+03  1.705692E+04  6.593937E+03  1.628572E+04  1.731226E-01
        20   3 -5.574004E+05 -9.217359E+02  9.707242E+03 -3.839261E+03  7.344989E+03 -4.546088E-02
        20   4 -5.573915E+05  3.137637E+04  3.653848E+04 -1.038672E-08  2.522658E+04 -3.802774E-11
        20   5 -5.611327E+05  2.613465E+03  1.705691E+04  1.876724E-08  1.628572E+04 -6.697266E-10
        20   6 -5.574004E+05 -9.217636E+02  9.707238E+03  5.694321E-08  7.344989E+03 -2.113502E-09
        20   7 -5.573912E+05  3.137691E+04  3.653856E+04 -1.702739E+04  2.522658E+04 -6.924800E-01
        20   8 -5.611327E+05  2.613547E+03  1.705692E+04 -6.593937E+03  1.628572E+04 -1.731226E-01
        20   9 -5.574004E+05 -9.217359E+02  9.707242E+03  3.839261E+03  7.344989E+03  4.546088E-02
        20  10 -5.573919E+05  3.137674E+04  3.653736E+04  1.702739E+04  4.291013E-09 -4.609126E-11
        20  11 -5.611330E+05  2.613475E+03  1.705642E+04  6.593937E+03 -8.925127E-09 -6.638590E-10
        20  12 -5.574005E+05 -9.217504E+02  9.707141E+03 -3.839261E+03 -1.690550E-08 -1.987345E-09
        20  13 -5.573922E+05  3.137620E+04  3.653729E+04 -1.454941E-09  5.106216E-11 -7.381324E-11
        20  14 -5.611330E+05  2.613394E+03  1.705641E+04  1.568956E-09  5.383722E-10 -6.010827E-10
        20  15 -5.574005E+05 -9.217781E+02  9.707137E+03  5.137522E-09 -9.418484E-10 -1.578855E-09
        20  16 -5.573919E+05  3.137674E+04  3.653736E+04 -1.702739E+04 -3.589779E-09 -6.691266E-11
        20  17 -5.611330E+05  2.613475E+03  1.705642E+04 -6.593937E+03  8.766623E-09 -5.523649E-10
        20  18 -5.574005E+05 -9.217504E+02  9.707141E+03  3.839261E+03  1.734555E-08 -1.172251E-09
        20  19 -5.573912E+05  3.137691E+04  3.653856E+04  1.702739E+04 -2.522658E+04 -6.924800E-01
        20  20 -5.611327E+05  2.613547E+03  1.705692E+04  6.593937E+03 -1.628572E+04 -1.731226E-01
        20  21 -5.574004E+05 -9.217359E+02  9.707242E+03 -3.839261E+03 -7.344989E+03  4.546088E-02
        20  22 -5.573915E+05  3.137637E+04  3.653848E+04  1.824743E-08 -2.522658E+04 -1.086770E-10
        20  23 -5.611327E+05  2.613465E+03  1.705691E+04 -1.347798E-08 -1.628572E+04 -5.351272E-10
        20  24 -5.574004E+05 -9.217636E+02  9.707238E+03 -4.936525E-08 -7.344989E+03 -1.054212E-09
        20  25 -5.573912E+05  3.137691E+04  3.653856E+04 -1.702739E+04 -2.522658E+04  6.924800E-01
        20  26 -5.611327E+05  2.613547E+03  1.705692E+04 -6.593937E+03 -1.628572E+04  1.731226E-01
        20  27 -5.574004E+05 -9.217359E+02  9.707242E+03  3.839261E+03 -7.344989E+03 -4.546088E-02
        21   1 -5.589374E+05  1.258740E+03  7.583596E+03  4.067707E+02  6.027826E+03  3.952849E-03
        21   2 -5.592140E+05  3.247091E+01  4.163220E+03  7.018067E+01  3.949036E+03  4.467953E-04
        21   3 -5.589384E+05 -6.887749E+01  2.378420E+03 -2.664149E+02  1.870221E+03 -8.032499E-04
        21   4 -5.589374E+05  1.258740E+03  7.583596E+03 -5.115058E-08  6.027826E+03 -2.038802E-09
        21   5 -5.592140E+05  3.247090E+01  4.163220E+03 -1.439410E-08  3.949036E+03 -2.560876E-10
        21   6 -5.589384E+05 -6.887763E+01  2.378420E+03  1.576747E-08  1.870221E+03  7.437187E-10
        21   7 -5.589374E+05  1.258740E+03  7.583596E+03 -4.067707E+02  6.027826E+03 -3.952853E-03
        21   8 -5.592140E+05  3.247091E+01  4.163220E+03 -7.018067E+01  3.949036E+03 -4.467959E-04
        21   9 -5.589384E+05 -6.887749E+01  2.378420E+03  2.664149E+02  1.870221E+03  8.032513E-04
        21  10 -5.589374E+05  1.258730E+03  7.583528E+03  4.067707E+02  1.543134E-08 -1.737576E-09
        21  11 -5.592140E+05  3.246671E+01  4.163191E+03  7.018067E+01  7.728106E-09  2.451164E-10
        21  12 -5.589384E+05 -6.887843E+01  2.378414E+03 -2.664149E+02 -2.571927E-09  1.376474E-09
        21  13 -5.589374E+05  1.258730E+03  7.583528E+03  4.254355E-09  1.186363E-09 -1.376396E-09
        21  14 -5.592140E+05  3.246671E+01  4.163191E+03  2.399454E-09 -2.355901E-09  1.296687E-10
        21  15 -5.589384E+05 -6.887857E+01  2.378414E+03 -5.373262E-09 -5.004846E-10  9.118992E-10
        21  16 -5.589374E+05  1.258730E+03  7.583528E+03 -4.067707E+02 -1.678147E-08 -9.678573E-10
        21  17 -5.592140E+05  3.246671E+01  4.163191E+03 -7.018067E+01 -9.137285E-09  1.566198E-11
        21  18 -5.589384E+05 -6.887843E+01  2.378414E+03  2.664149E+02  2.796961E-09  4.220509E-10
        21  19 -5.589374E+05  1.258740E+03  7.583596E+03  4.067707E+02 -6.027826E+03 -3.952852E-03
        21  20 -5.592140E+05  3.247091E+01  4.163220E+03  7.018067E+01 -3.949036E+03 -4.467948E-04
        21  21 -5.589384E+05 -6.887749E+01  2.378420E+03 -2.664149E+02 -1.870221E+03  8.032528E-04
        21  22 -5.589374E+05  1.258740E+03  7.583596E+03  5.857100E-08 -6.027826E+03 -7.255085E-10
        21  23 -5.592140E+05  3.247090E+01  4.163220E+03  7.340563E-09 -3.949036E+03  5.307102E-10
        21  24 -5.589384E+05 -6.887763E+01  2.378420E+03 -1.198759E-08 -1.870221E+03  1.087517E-09
        21  25 -5.589374E+05  1.258740E+03  7.583596E+03 -4.067707E+02 -6.027826E+03  3.952851E-03
        21  26 -5.592140E+05  3.247091E+01  4.163220E+03 -7.018067E+01 -3.949036E+03  4.467958E-04
        21  27 -5.589384E+05 -6.887749E+01  2.378420E+03  2.664149E+02 -1.870221E+03 -8.032506E-04
        22   1 -5.590438E+05  2.463559E+01  1.804338E+03 -6.847789E+01  1.501273E+03 -1.657325E-04
        22   2 -5.590828E+05 -1.849011E+01  1.004420E+03 -5.358907E+01  1.004238E+03 -8.675905E-05
        22   3 -5.590440E+05 -9.050767E+00  5.414561E+02 -3.870025E+01  5.072027E+02 -3.164406E-05
        22   4 -5.590438E+05  2.463558E+01  1.804338E+03  1.758030E-10  1.501273E+03  3.512635E-10
        22   5 -5.590828E+05 -1.849011E+01  1.004420E+03 -4.267341E-09  1.004238E+03 -3.384447E-10
        22   6 -5.590440E+05 -9.050770E+00  5.414561E+02 -6.413074E-10  5.072027E+02  6.891044E-10
        22   7 -5.590438E+05  2.463559E+01  1.804338E+03  6.847789E+01  1.501273E+03  1.657333E-04
        22   8 -5.590828E+05 -1.849011E+01  1.004420E+03  5.358907E+01  1.004238E+03  8.675828E-05
        22   9 -5.590440E+05 -9.050767E+00  5.414561E+02  3.870025E+01  5.072027E+02  3.164540E-05
        22  10 -5.590438E+05  2.463498E+01  1.804334E+03 -6.847789E+01  1.515077E-09  9.625469E-10
        22  11 -5.590828E+05 -1.849038E+01  1.004419E+03 -5.358907E+01 -2.447541E-10 -2.291739E-10
        22  12 -5.590440E+05 -9.050836E+00  5.414557E+02 -3.870025E+01 -4.705418E-10 -8.177866E-11
        22  13 -5.590438E+05  2.463497E+01  1.804334E+03 -1.370841E-09 -5.803538E-28  5.255688E-10
        22  14 -5.590828E+05 -1.849039E+01  1.004419E+03 -5.113966E-10 -9.251193E-10 -2.014083E-10
        22  15 -5.590440E+05 -9.050839E+00  5.414557E+02 -2.339575E-09 -1.698989E-09  4.782506E-10
        22  16 -5.590438E+05  2.463498E+01  1.804334E+03  6.847789E+01 -1.534038E-09  9.783259E-11
        22  17 -5.590828E+05 -1.849038E+01  1.004419E+03  5.358907E+01  5.139373E-10 -1.398618E-10
        22  18 -5.590440E+05 -9.050836E+00  5.414557E+02  3.870025E+01  1.622908E-09  1.038819E-09
        22  19 -5.590438E+05  2.463559E+01  1.804338E+03 -6.847789E+01 -1.501273E+03  1.657345E-04
        22  20 -5.590828E+05 -1.849011E+01  1.004420E+03 -5.358907E+01 -1.004238E+03  8.675858E-05
        22  21 -5.590440E+05 -9.050767E+00  5.414561E+02 -3.870025E+01 -5.072027E+02  3.164404E-05
        22  22 -5.590438E+05  2.463558E+01  1.804338E+03  3.543952E-09 -1.501273E+03  6.973139E-10
        22  23 -5.590828E+05 -1.849011E+01  1.004420E+03 -3.211635E-09 -1.004238E+03 -6.362774E-11
        22  24 -5.590440E+05 -9.050770E+00  5.414561E+02  1.209120E-09 -5.072027E+02  2.606581E-10
        22  25 -5.590438E+05  2.463559E+01  1.804338E+03  6.847789E+01 -1.501273E+03 -1.657331E-04
        22  26 -5.590828E+05 -1.849011E+01  1.004420E+03  5.358907E+01 -1.004238E+03 -8.675861E-05
        22  27 -5.590440E+05 -9.050767E+00  5.414561E+02  3.870025E+01 -5.072027E+02 -3.164353E-05
        23   1 -5.590592E+05 -5.657945E+00  3.810188E+02 -2.769812E+01  4.238503E+02 -1.892621E-05
        23   2 -5.590639E+05 -3.077571E+00  1.366223E+02 -2.361884E+01  3.563397E+02 -1.356941E-05
        23   3 -5.590593E+05  1.974740E+00 -6.317651E+01 -1.953962E+01  2.888300E+02 -9.097993E-06
        23   4 -5.590592E+05 -5.657946E+00  3.810188E+02  7.021842E-09  4.238503E+02  3.270814E-10
        23   5 -5.590639E+05 -3.077572E+00  1.366223E+02  1.081058E-09  3.563397E+02 -1.089669E-09
        23   6 -5.590593E+05  1.974739E+00 -6.317651E+01  2.665830E-09  2.888300E+02  4.100356E-10
        23   7 -5.590592E+05 -5.657945E+00  3.810188E+02  2.769812E+01  4.238503E+02  1.892694E-05
        23   8 -5.590639E+05 -3.077571E+00  1.366223E+02  2.361884E+01  3.563397E+02  1.356710E-05
        23   9 -5.590593E+05  1.974740E+00 -6.317651E+01  1.953962E+01  2.888300E+02  9.098824E-06
        23  10 -5.590592E+05 -5.657993E+00  3.810185E+02 -2.769812E+01  2.077770E-09 -4.493035E-11
        23  11 -5.590639E+05 -3.077605E+00  1.366220E+02 -2.361884E+01  1.156958E-09 -2.957599E-10
        23  12 -5.590593E+05  1.974718E+00 -6.317666E+01 -1.953962E+01 -1.139242E-09  1.968595E-10
        23  13 -5.590592E+05 -5.657995E+00  3.810185E+02 -4.200667E-09 -1.178621E-10  4.701023E-10
        23  14 -5.590639E+05 -3.077606E+00  1.366220E+02 -5.487571E-10 -4.289146E-10 -2.681425E-10
        23  15 -5.590593E+05  1.974717E+00 -6.317666E+01 -6.633045E-10 -6.940272E-10  3.697791E-10
        23  16 -5.590592E+05 -5.657993E+00  3.810185E+02  2.769812E+01 -1.474105E-09  9.397031E-10
        23  17 -5.590639E+05 -3.077605E+00  1.366220E+02  2.361884E+01 -1.325099E-09 -2.503776E-10
        23  18 -5.590593E+05  1.974718E+00 -6.317666E+01  1.953962E+01 -1.190945E-09  5.539843E-10
        23  19 -5.590592E+05 -5.657945E+00  3.810188E+02 -2.769812E+01 -4.238503E+02  1.892632E-05
        23  20 -5.590639E+05 -3.077571E+00  1.366223E+02 -2.361884E+01 -3.563397E+02  1.356886E-05
        23  21 -5.590593E+05  1.974740E+00 -6.317651E+01 -1.953962E+01 -2.888300E+02  9.098444E-06
        23  22 -5.590592E+05 -5.657946E+00  3.810188E+02  1.790860E-09 -4.238503E+02  6.135856E-10
        23  23 -5.590639E+05 -3.077572E+00  1.366223E+02 -3.254253E-09 -3.563397E+02  5.604257E-10
        23  24 -5.590593E+05  1.974739E+00 -6.317651E+01 -1.967260E-09 -2.888300E+02  3.304752E-10
        23  25 -5.590592E+05 -5.657945E+00  3.810188E+02  2.769812E+01 -4.238503E+02 -1.892512E-05
        23  26 -5.590639E+05 -3.077571E+00  1.366223E+02  2.361884E+01 -3.563397E+02 -1.356765E-05
        23  27 -5.590593E+05  1.974740E+00 -6.317651E+01  1.953962E+01 -2.888300E+02 -9.097765E-06
        24   1 -5.590677E+05  1.946312E+00 -1.665002E+02 -2.057443E+01  3.096878E+02 -1.027151E-05
        24   2 -5.590535E+05  9.734791E+00 -4.207874E+02 -3.407042E+01  5.175709E+02 -2.842864E-05
        24   3 -5.590678E+05  1.203224E+01 -8.118771E+02 -4.756662E+01  7.254570E+02 -5.562994E-05
        24   4 -5.590677E+05  1.946311E+00 -1.665002E+02  3.672451E-09  3.096878E+02  4.934857E-10
        24   5 -5.590535E+05  9.734789E+00 -4.207874E+02  9.731418E-10  5.175709E+02 -7.709835E-10
        24   6 -5.590678E+05  1.203224E+01 -8.118772E+02  1.907803E-09  7.254570E+02  7.070798E-10
        24   7 -5.590677E+05  1.946312E+00 -1.665002E+02  2.057443E+01  3.096878E+02  1.027250E-05
        24   8 -5.590535E+05  9.734791E+00 -4.207874E+02  3.407042E+01  5.175709E+02  2.842705E-05
        24   9 -5.590678E+05  1.203224E+01 -8.118771E+02  4.756662E+01  7.254570E+02  5.563128E-05
        24  10 -5.590677E+05  1.946286E+00 -1.665004E+02 -2.057443E+01  1.687426E-09  2.170424E-10
        24  11 -5.590535E+05  9.734719E+00 -4.207879E+02 -3.407042E+01  1.296629E-09 -2.262192E-10
        24  12 -5.590678E+05  1.203210E+01 -8.118781E+02 -4.756662E+01 -9.955938E-10 -2.390518E-10
        24  13 -5.590677E+05  1.946285E+00 -1.665004E+02 -1.057082E-09 -1.068321E-09  3.890850E-10
        24  14 -5.590535E+05  9.734717E+00 -4.207879E+02 -1.887417E-10  3.625440E-09 -3.825941E-10
        24  15 -5.590678E+05  1.203210E+01 -8.118781E+02 -2.817678E-09 -1.892249E-10 -1.465906E-10
        24  16 -5.590677E+05  1.946286E+00 -1.665004E+02  2.057443E+01 -2.107953E-09  5.271614E-10
        24  17 -5.590535E+05  9.734719E+00 -4.207879E+02  3.407042E+01  6.886700E-10 -5.871643E-10
        24  18 -5.590678E+05  1.203210E+01 -8.118781E+02  4.756662E+01  1.529720E-09 -8.213242E-11
        24  19 -5.590677E+05  1.946312E+00 -1.665002E+02 -2.057443E+01 -3.096878E+02  1.027208E-05
        24  20 -5.590535E+05  9.734791E+00 -4.207874E+02 -3.407042E+01 -5.175709E+02  2.842830E-05
        24  21 -5.590678E+05  1.203224E+01 -8.118771E+02 -4.756662E+01 -7.254570E+02  5.562949E-05
        24  22 -5.590677E+05  1.946311E+00 -1.665002E+02  6.653655E-10 -3.096878E+02  2.769207E-10
        24  23 -5.590535E+05  9.734789E+00 -4.207874E+02  7.965306E-10 -5.175709E+02 -2.060757E-11
        24  24 -5.590678E+05  1.203224E+01 -8.118772E+02  3.222059E-09 -7.254570E+02 -1.003407E-09
        24  25 -5.590677E+05  1.946312E+00 -1.665002E+02  2.057443E+01 -3.096878E+02 -1.027152E-05
        24  26 -5.590535E+05  9.734791E+00 -4.207874E+02  3.407042E+01 -5.175709E+02 -2.842827E-05
        24  27 -5.590678E+05  1.203224E+01 -8.118771E+02  4.756662E+01 -7.254570E+02 -5.563158E-05
        25   1 -5.590947E+05  1.853182E+01 -1.091496E+03 -6.885749E+01  8.975263E+02 -9.963077E-05
        25   2 -5.590201E+05  3.583289E+01 -1.933615E+03 -9.838276E+01  1.854337E+03 -2.941083E-04
        25   3 -5.590951E+05 -4.609519E+01 -3.423881E+03 -1.279081E+02  2.811146E+03 -5.796710E-04
        25   4 -5.590947E+05  1.853182E+01 -1.091496E+03  5.559222E-09  8.975263E+02  1.248688E-09
        25   5 -5.590201E+05  3.583288E+01 -1.933615E+03  5.006948E-09  1.854337E+03  2.392141E-10
        25   6 -5.590951E+05 -4.609522E+01 -3.423881E+03  5.799540E-09  2.811146E+03 -1.469667E-10
        25   7 -5.590947E+05  1.853182E+01 -1.091496E+03  6.885749E+01  8.975263E+02  9.963330E-05
        25   8 -5.590201E+05  3.583289E+01 -1.933615E+03  9.838276E+01  1.854337E+03  2.941088E-04
        25   9 -5.590951E+05 -4.609519E+01 -3.423881E+03  1.279081E+02  2.811146E+03  5.796706E-04
        25  10 -5.590947E+05  1.853161E+01 -1.091497E+03 -6.885749E+01 -1.558952E-09  4.188500E-11
        25  11 -5.590201E+05  3.583197E+01 -1.933621E+03 -9.838276E+01  9.833824E-10  4.455242E-11
        25  12 -5.590951E+05 -4.609732E+01 -3.423896E+03 -1.279081E+02  8.507026E-10 -9.682571E-10
        25  13 -5.590947E+05  1.853160E+01 -1.091497E+03 -1.865419E-09  1.169280E-09  2.522627E-10
        25  14 -5.590201E+05  3.583195E+01 -1.933621E+03  3.248878E-09  4.374054E-10  2.025336E-10
        25  15 -5.590951E+05 -4.609735E+01 -3.423896E+03  1.095231E-09 -2.048334E-09 -6.265064E-10
        25  16 -5.590947E+05  1.853161E+01 -1.091497E+03  6.885749E+01 -4.142616E-11  4.535991E-10
        25  17 -5.590201E+05  3.583197E+01 -1.933621E+03  9.838276E+01 -1.052748E-09  3.924325E-10
        25  18 -5.590951E+05 -4.609732E+01 -3.423896E+03  1.279081E+02 -1.292342E-09 -2.798692E-10
        25  19 -5.590947E+05  1.853182E+01 -1.091496E+03 -6.885749E+01 -8.975263E+02  9.963091E-05
        25  20 -5.590201E+05  3.583289E+01 -1.933615E+03 -9.838276E+01 -1.854337E+03  2.941085E-04
        25  21 -5.590951E+05 -4.609519E+01 -3.423881E+03 -1.279081E+02 -2.811146E+03  5.796691E-04
        25  22 -5.590947E+05  1.853182E+01 -1.091496E+03  2.545585E-09 -8.975263E+02 -7.449990E-10
        25  23 -5.590201E+05  3.583288E+01 -1.933615E+03 -3.358694E-09 -1.854337E+03  1.624147E-10
        25  24 -5.590951E+05 -4.609522E+01 -3.423881E+03  5.601121E-10 -2.811146E+03 -1.101277E-09
        25  25 -5.590947E+05  1.853182E+01 -1.091496E+03  6.885749E+01 -8.975263E+02 -9.963248E-05
        25  26 -5.590201E+05  3.583289E+01 -1.933615E+03  9.838276E+01 -1.854337E+03 -2.941082E-04
        25  27 -5.590951E+05 -4.609519E+01 -3.423881E+03  1.279081E+02 -2.811146E+03 -5.796712E-04
        26   1 -5.592932E+05  1.301888E+02 -4.500153E+03 -5.011015E+02  3.510209E+03 -2.835690E-03
        26   2 -5.587734E+05 -6.095460E+01 -7.856202E+03  1.329490E+02  7.433091E+03  1.593141E-03
        26   3 -5.592950E+05 -2.372335E+03 -1.429792E+04  7.669919E+02  1.135589E+04  1.404144E-02
        26   4 -5.592932E+05  1.301884E+02 -4.500153E+03  4.716684E-09  3.510209E+03  1.268717E-10
        26   5 -5.587734E+05 -6.095463E+01 -7.856202E+03 -1.523072E-10  7.433091E+03  7.822711E-10
        26   6 -5.592950E+05 -2.372336E+03 -1.429792E+04  5.206627E-09  1.135589E+04  8.692366E-10
        26   7 -5.592932E+05  1.301888E+02 -4.500153E+03  5.011015E+02  3.510209E+03  2.835690E-03
        26   8 -5.587734E+05 -6.095460E+01 -7.856202E+03 -1.329490E+02  7.433091E+03 -1.593140E-03
        26   9 -5.592950E+05 -2.372335E+03 -1.429792E+04 -7.669919E+02  1.135589E+04 -1.404144E-02
        26  10 -5.592933E+05  1.301855E+02 -4.500176E+03 -5.011015E+02 -6.751381E-10 -7.466496E-10
        26  11 -5.587735E+05 -6.096945E+01 -7.856306E+03  1.329490E+02 -1.667493E-09  5.663570E-10
        26  12 -5.592952E+05 -2.372369E+03 -1.429816E+04  7.669919E+02  2.062576E-09  3.021765E-10
        26  13 -5.592933E+05  1.301851E+02 -4.500176E+03  1.959550E-09 -2.161865E-09 -5.510095E-10
        26  14 -5.587735E+05 -6.096948E+01 -7.856306E+03  3.749771E-09 -8.837413E-10  3.624675E-10
        26  15 -5.592952E+05 -2.372370E+03 -1.429816E+04 -1.191798E-10 -1.619257E-09  2.636450E-10
        26  16 -5.592933E+05  1.301855E+02 -4.500176E+03  5.011015E+02 -1.209135E-09 -3.263243E-10
        26  17 -5.587735E+05 -6.096945E+01 -7.856306E+03 -1.329490E+02  1.453669E-10  1.936254E-10
        26  18 -5.592952E+05 -2.372369E+03 -1.429816E+04 -7.669919E+02 -8.953904E-10  2.232439E-10
        26  19 -5.592932E+05  1.301888E+02 -4.500153E+03 -5.011015E+02 -3.510209E+03  2.835688E-03
        26  20 -5.587734E+05 -6.095460E+01 -7.856202E+03  1.329490E+02 -7.433091E+03 -1.593140E-03
        26  21 -5.592950E+05 -2.372335E+03 -1.429792E+04  7.669919E+02 -1.135589E+04 -1.404144E-02
        26  22 -5.592932E+05  1.301884E+02 -4.500153E+03  4.591344E-09 -3.510209E+03 -1.244242E-09
        26  23 -5.587734E+05 -6.095463E+01 -7.856202E+03  1.168116E-10 -7.433091E+03 -4.667121E-11
        26  24 -5.592950E+05 -2.372336E+03 -1.429792E+04  8.987185E-10 -1.135589E+04 -3.499637E-10
        26  25 -5.592932E+05  1.301888E+02 -4.500153E+03  5.011015E+02 -3.510209E+03 -2.835691E-03
        26  26 -5.587734E+05 -6.095460E+01 -7.856202E+03 -1.329490E+02 -7.433091E+03  1.593140E-03
        26  27 -5.592950E+05 -2.372335E+03 -1.429792E+04 -7.669919E+02 -1.135589E+04  1.404144E-02
        27   1 -5.621913E+05  1.737569E+03 -1.829846E+04 -7.235787E+03  1.383898E+04 -1.614326E-01
        27   2 -5.551569E+05 -4.925327E+03 -3.214595E+04  1.242827E+04  3.069106E+04  6.149205E-01
        27   3 -5.622066E+05 -5.913290E+04 -6.885732E+04  3.209228E+04  4.754343E+04  2.459741E+00
        27   4 -5.621913E+05  1.737470E+03 -1.829848E+04  5.699327E-09  1.383898E+04  4.154690E-10
        27   5 -5.551571E+05 -4.925617E+03 -3.214599E+04  2.673740E-09  3.069106E+04 -2.990265E-10
        27   6 -5.622077E+05 -5.913484E+04 -6.885760E+04  6.239904E-09  4.754343E+04 -2.279503E-10
        27   7 -5.621913E+05  1.737569E+03 -1.829846E+04  7.235787E+03  1.383898E+04  1.614326E-01
        27   8 -5.551569E+05 -4.925327E+03 -3.214595E+04 -1.242827E+04  3.069106E+04 -6.149205E-01
        27   9 -5.622066E+05 -5.913290E+04 -6.885732E+04 -3.209228E+04  4.754343E+04 -2.459741E+00
        27  10 -5.621915E+05  1.737517E+03 -1.829882E+04 -7.235787E+03 -9.845207E-11  3.378901E-11
        27  11 -5.551579E+05 -4.925580E+03 -3.214772E+04  1.242827E+04 -4.726395E-10  1.556649E-10
        27  12 -5.622091E+05 -5.913351E+04 -6.886157E+04  3.209228E+04  3.192668E-11  6.049726E-11
        27  13 -5.621915E+05  1.737419E+03 -1.829884E+04 -7.506030E-10 -2.232040E-10  6.747969E-11
        27  14 -5.551581E+05 -4.925870E+03 -3.214776E+04  3.206862E-09  2.413922E-10  8.925473E-11
        27  15 -5.622102E+05 -5.913544E+04 -6.886185E+04  2.583944E-09  2.939208E-10  3.375685E-11
        27  16 -5.621915E+05  1.737517E+03 -1.829882E+04  7.235787E+03 -5.442323E-10  1.339153E-10
        27  17 -5.551579E+05 -4.925580E+03 -3.214772E+04 -1.242827E+04 -8.979905E-10  2.360711E-11
        27  18 -5.622091E+05 -5.913351E+04 -6.886157E+04 -3.209228E+04 -6.208394E-10  6.561281E-12
        27  19 -5.621913E+05  1.737569E+03 -1.829846E+04 -7.235787E+03 -1.383898E+04  1.614326E-01
        27  20 -5.551569E+05 -4.925327E+03 -3.214595E+04  1.242827E+04 -3.069106E+04 -6.149205E-01
        27  21 -5.622066E+05 -5.913290E+04 -6.885732E+04  3.209228E+04 -4.754343E+04 -2.459741E+00
        27  22 -5.621913E+05  1.737470E+03 -1.829848E+04  2.495388E-09 -1.383898E+04 -2.778274E-10
        27  23 -5.551571E+05 -4.925617E+03 -3.214599E+04  1.049159E-09 -3.069106E+04  4.855840E-10
        27  24 -5.622077E+05 -5.913484E+04 -6.885760E+04  7.277713E-09 -4.754343E+04  2.889778E-10
        27  25 -5.621913E+05  1.737569E+03 -1.829846E+04  7.235787E+03 -1.383898E+04 -1.614326E-01
        27  26 -5.551569E+05 -4.925327E+03 -3.214595E+04 -1.242827E+04 -3.069106E+04  6.149205E-01
        27  27 -5.622066E+05 -5.913290E+04 -6.885732E+04 -3.209228E+04 -4.754343E+04  2.459741E+00
        28   1  6.614931E+05  2.294528E+06  6.867286E+05 -3.737960E+05  2.153627E+04  2.601487E+05
        28   2  3.613426E+05  1.935415E+06  4.311242E+05 -2.460813E+05  6.596227E+04  1.370789E+05
        28   3  2.559652E+05  1.641297E+06  3.041942E+05 -2.211372E+05  6.352634E+04  1.406889E+04
        28   4  2.296601E+05  5.515064E+05  2.683132E+05 -2.477661E+05  2.163527E+04  1.799655E+05
        28   5  1.900355E+04  5.239457E+05  1.293639E+05 -1.964843E+05  6.600542E+04  1.123178E+05
        28   6 -6.240280E+03  5.518473E+05  8.085724E+04 -2.479419E+05  6.349576E+04  4.465887E+04
        28   7 -2.023308E+05 -1.188694E+06 -1.502853E+05 -1.220895E+05  2.170202E+04  1.000052E+05
        28   8 -3.234561E+05 -8.856471E+05 -1.725084E+05 -1.470007E+05  6.604471E+04  8.761190E+04
        28   9 -2.685169E+05 -5.364738E+05 -1.425390E+05 -2.746983E+05  6.346251E+04  7.519619E+04
        28  10  6.614746E+05  2.294456E+06  6.866010E+05 -3.738005E+05  1.200585E-09  4.162123E-10
        28  11  3.613329E+05  1.935394E+06  4.310808E+05 -2.460886E+05 -4.138020E-10 -3.500177E-10
        28  12  2.559608E+05  1.641295E+06  3.041863E+05 -2.211379E+05 -2.153611E-09 -1.649191E-09
        28  13  2.296510E+05  5.514715E+05  2.682515E+05 -2.477692E+05 -9.581954E-10 -2.422899E-11
        28  14  1.899549E+04  5.239310E+05  1.293320E+05 -1.964903E+05 -1.510992E-09  1.385936E-10
        28  15 -6.245147E+03  5.518440E+05  8.084591E+04 -2.479442E+05  9.745211E-10  1.092191E-10
        28  16 -2.023340E+05 -1.188705E+06 -1.503050E+05 -1.220913E+05 -1.999896E-09 -3.742926E-10
        28  17 -3.234628E+05 -8.856565E+05 -1.725310E+05 -1.470054E+05  1.447838E-09  4.571395E-10
        28  18 -2.685228E+05 -5.364809E+05 -1.425572E+05 -2.747021E+05  2.652718E-09  1.885840E-09
        28  19  6.614931E+05  2.294528E+06  6.867286E+05 -3.737960E+05 -2.153627E+04 -2.601487E+05
        28  20  3.613426E+05  1.935415E+06  4.311242E+05 -2.460813E+05 -6.596227E+04 -1.370789E+05
        28  21  2.559652E+05  1.641297E+06  3.041942E+05 -2.211372E+05 -6.352634E+04 -1.406889E+04
        28  22  2.296601E+05  5.515064E+05  2.683132E+05 -2.477661E+05 -2.163527E+04 -1.799655E+05
        28  23  1.900355E+04  5.239457E+05  1.293639E+05 -1.964843E+05 -6.600542E+04 -1.123178E+05
        28  24 -6.240280E+03  5.518473E+05  8.085724E+04 -2.479419E+05 -6.349576E+04 -4.465887E+04
        28  25 -2.023308E+05 -1.188694E+06 -1.502853E+05 -1.220895E+05 -2.170202E+04 -1.000052E+05
        28  26 -3.234561E+05 -8.856471E+05 -1.725084E+05 -1.470007E+05 -6.604471E+04 -8.761190E+04
        28  27 -2.685169E+05 -5.364738E+05 -1.425390E+05 -2.746983E+05 -6.346251E+04 -7.519619E+04
        29   1  2.144658E+05  1.393032E+06  2.438299E+05 -2.537740E+05  4.920925E+04  1.343690E+04
        29   2  1.273753E+05  1.063573E+06  1.612724E+05 -1.965443E+05  3.195161E+04 -1.544739E+04
        29   3  5.567055E+04  7.415932E+05  1.012776E+05 -2.442700E+05  1.326620E+04 -4.432869E+04
        29   4  9.265202E+03  5.411843E+05  6.880397E+04 -2.483999E+05  4.918709E+04  3.294425E+04
        29   5  9.143503E+02  5.376927E+05  5.437220E+04 -1.959223E+05  3.192182E+04  5.764737E+03
        29   6  7.669075E+03  5.412923E+05  6.134092E+04 -2.484032E+05  1.322830E+04 -2.142635E+04
        29   7 -1.959807E+05 -3.099748E+05 -1.062594E+05 -2.430330E+05  4.916524E+04  5.242534E+04
        29   8 -1.255635E+05  1.207622E+04 -5.254081E+04 -1.953008E+05  3.189205E+04  2.695925E+04
        29   9 -4.033451E+04  3.410308E+05  2.140425E+04 -2.525349E+05  1.319008E+04  1.468761E+03
        29  10  2.144631E+05  1.393031E+06  2.438250E+05 -2.537746E+05 -2.075632E-09  1.760536E-09
        29  11  1.273741E+05  1.063572E+06  1.612701E+05 -1.965439E+05 -3.953064E-10  5.365755E-10
        29  12  5.566984E+04  7.415910E+05  1.012735E+05 -2.442695E+05  3.694644E-10 -1.949195E-09
        29  13  9.262311E+03  5.411824E+05  6.879738E+04 -2.484013E+05 -1.423799E-09 -2.726773E-10
        29  14  9.132468E+02  5.376924E+05  5.437022E+04 -1.959225E+05  2.111551E-10  3.441816E-10
        29  15  7.668765E+03  5.412917E+05  6.133973E+04 -2.484029E+05 -1.829241E-09  2.469915E-10
        29  16 -1.959840E+05 -3.099784E+05 -1.062691E+05 -2.430351E+05  9.173483E-11 -1.434865E-09
        29  17 -1.255648E+05  1.207517E+04 -5.254409E+04 -1.953015E+05 -6.589380E-10 -2.056996E-10
        29  18 -4.033470E+04  3.410307E+05  2.140392E+04 -2.525349E+05 -7.011849E-10  2.334857E-09
        29  19  2.144658E+05  1.393032E+06  2.438299E+05 -2.537740E+05 -4.920925E+04 -1.343690E+04
        29  20  1.273753E+05  1.063573E+06  1.612724E+05 -1.965443E+05 -3.195161E+04  1.544739E+04
        29  21  5.567055E+04  7.415932E+05  1.012776E+05 -2.442700E+05 -1.326620E+04  4.432869E+04
        29  22  9.265202E+03  5.411843E+05  6.880397E+04 -2.483999E+05 -4.918709E+04 -3.294425E+04
        29  23  9.143503E+02  5.376927E+05  5.437220E+04 -1.959223E+05 -3.192182E+04 -5.764737E+03
        29  24  7.669075E+03  5.412923E+05  6.134092E+04 -2.484032E+05 -1.322830E+04  2.142635E+04
        29  25 -1.959807E+05 -3.099748E+05 -1.062594E+05 -2.430330E+05 -4.916524E+04 -5.242534E+04
        29  26 -1.255635E+05  1.207622E+04 -5.254081E+04 -1.953008E+05 -3.189205E+04 -2.695925E+04
        29  27 -4.033451E+04  3.410308E+05  2.140425E+04 -2.525349E+05 -1.319008E+04 -1.468761E+03
        30   1 -1.341493E+04  5.134882E+05  6.056932E+04 -2.702939E+05 -8.861885E+00 -5.896453E+04
        30   2 -7.210872E+04  1.678061E+05  2.651384E+04 -1.563001E+05 -1.297724E+04 -9.075483E+04
        30   3  1.463099E+04 -1.374994E+05  4.945495E+04 -1.462502E+05 -5.733546E+03 -1.225038E+05
        30   4 -4.503012E+03  5.495851E+05  6.948474E+04 -2.482248E+05 -5.707212E+01 -3.177136E+04
        30   5  1.588279E+04  5.273561E+05  1.063473E+05 -1.961364E+05 -1.297621E+04 -8.737600E+04
        30   6  1.857691E+05  5.494664E+05  2.166971E+05 -2.479580E+05 -5.682335E+03 -1.429563E+05
        30   7  4.411036E+03  5.856858E+05  7.840311E+04 -2.261543E+05 -1.033489E+02 -4.576605E+03
        30   8  1.038715E+05  8.870300E+05  1.861736E+05 -2.359959E+05 -1.297561E+04 -8.399522E+04
        30   9  3.569113E+05  1.236886E+06  3.839120E+05 -3.497785E+05 -5.624466E+03 -1.634312E+05
        30  10 -1.341586E+04  5.134845E+05  6.056279E+04 -2.702939E+05  1.188876E-09  1.886729E-10
        30  11 -7.211111E+04  1.677972E+05  2.649805E+04 -1.563010E+05  2.012545E-10  8.889643E-10
        30  12  1.462692E+04 -1.375155E+05  4.942668E+04 -1.462508E+05  3.082090E-10  1.467596E-10
        30  13 -4.503283E+03  5.495840E+05  6.948285E+04 -2.482248E+05 -1.263093E-09 -3.764529E-10
        30  14  1.588056E+04  5.273478E+05  1.063326E+05 -1.961373E+05  5.408743E-10  3.209704E-10
        30  15  1.857636E+05  5.494445E+05  2.166586E+05 -2.479587E+05  4.459567E-10  1.332335E-10
        30  16  4.411030E+03  5.856858E+05  7.840307E+04 -2.261543E+05 -7.757809E-10  1.770637E-10
        30  17  1.038694E+05  8.870223E+05  1.861600E+05 -2.359968E+05 -5.822388E-10 -6.231667E-10
        30  18  3.569041E+05  1.236857E+06  3.838618E+05 -3.497792E+05  6.873203E-10  1.847455E-10
        30  19 -1.341493E+04  5.134882E+05  6.056932E+04 -2.702939E+05  8.861885E+00  5.896453E+04
        30  20 -7.210872E+04  1.678061E+05  2.651384E+04 -1.563001E+05  1.297724E+04  9.075483E+04
        30  21  1.463099E+04 -1.374994E+05  4.945495E+04 -1.462502E+05  5.733546E+03  1.225038E+05
        30  22 -4.503012E+03  5.495851E+05  6.948474E+04 -2.482248E+05  5.707212E+01  3.177136E+04
        30  23  1.588279E+04  5.273561E+05  1.063473E+05 -1.961364E+05  1.297621E+04  8.737600E+04
        30  24  1.857691E+05  5.494664E+05  2.166971E+05 -2.479580E+05  5.682335E+03  1.429563E+05
        30  25  4.411036E+03  5.856858E+05  7.840311E+04 -2.261543E+05  1.033489E+02  4.576605E+03
        30  26  1.038715E+05  8.870300E+05  1.861736E+05 -2.359959E+05  1.297561E+04  8.399522E+04
        30  27  3.569113E+05  1.236886E+06  3.839120E+05 -3.497785E+05  5.624466E+03  1.634312E+05
        31   1 -9.856453E+05 -2.386564E+05 -8.750059E+04 -3.854724E+05 -4.992135E+04 -1.804329E+04
        31   2 -9.721401E+05 -1.638793E+05 -4.122728E+04 -3.809862E+05 -3.110736E+04 -9.783079E+03
        31   3 -9.762476E+05 -1.423136E+05 -2.282958E+04 -3.680650E+05 -1.172959E+04 -3.025877E+03
        31   4 -9.586182E+05 -1.982460E+05 -7.446241E+04 -3.469367E+05 -4.793141E+04 -1.730015E+04
        31   5 -9.458810E+05 -1.427878E+05 -3.304158E+04 -3.620281E+05 -3.077095E+04 -9.657648E+03
        31   6 -9.504275E+05 -1.402126E+05 -1.818411E+04 -3.686851E+05 -1.304654E+04 -3.519494E+03
        31   7 -9.315887E+05 -1.578304E+05 -6.142415E+04 -3.083993E+05 -4.594142E+04 -1.655676E+04
        31   8 -9.196213E+05 -1.216955E+05 -2.485600E+04 -3.430693E+05 -3.043452E+04 -9.532198E+03
        31   9 -9.246068E+05 -1.381115E+05 -1.353863E+04 -3.693053E+05 -1.436355E+04 -4.013093E+03
        31  10 -9.856480E+05 -2.386575E+05 -8.750590E+04 -3.854732E+05  1.425187E-09 -8.989412E-11
        31  11 -9.721412E+05 -1.638796E+05 -4.122928E+04 -3.809864E+05 -6.227220E-10 -4.997573E-11
        31  12 -9.762477E+05 -1.423137E+05 -2.282986E+04 -3.680650E+05 -5.573417E-10  4.443584E-10
        31  13 -9.586207E+05 -1.982469E+05 -7.446730E+04 -3.469373E+05  1.182192E-09  1.480877E-10
        31  14 -9.458821E+05 -1.427882E+05 -3.304354E+04 -3.620283E+05 -3.101963E-09  3.337710E-11
        31  15 -9.504277E+05 -1.402127E+05 -1.818446E+04 -3.686851E+05  5.951803E-10  3.530096E-10
        31  16 -9.315911E+05 -1.578312E+05 -6.142863E+04 -3.083999E+05 -1.125940E-10  2.240953E-10
        31  17 -9.196223E+05 -1.216958E+05 -2.485791E+04 -3.430695E+05 -5.422416E-10  3.125008E-10
        31  18 -9.246070E+05 -1.381116E+05 -1.353905E+04 -3.693054E+05 -2.495351E-10 -3.448658E-11
        31  19 -9.856453E+05 -2.386564E+05 -8.750059E+04 -3.854724E+05  4.992135E+04  1.804329E+04
        31  20 -9.721401E+05 -1.638793E+05 -4.122728E+04 -3.809862E+05  3.110736E+04  9.783079E+03
        31  21 -9.762476E+05 -1.423136E+05 -2.282958E+04 -3.680650E+05  1.172959E+04  3.025877E+03
        31  22 -9.586182E+05 -1.982460E+05 -7.446241E+04 -3.469367E+05  4.793141E+04  1.730015E+04
        31  23 -9.458810E+05 -1.427878E+05 -3.304158E+04 -3.620281E+05  3.077095E+04  9.657648E+03
        31  24 -9.504275E+05 -1.402126E+05 -1.818411E+04 -3.686851E+05  1.304654E+04  3.519494E+03
        31  25 -9.315887E+05 -1.578304E+05 -6.142415E+04 -3.083993E+05  4.594142E+04  1.655676E+04
        31  26 -9.196213E+05 -1.216955E+05 -2.485600E+04 -3.430693E+05  3.043452E+04  9.532198E+03
        31  27 -9.246068E+05 -1.381115E+05 -1.353863E+04 -3.693053E+05  1.436355E+04  4.013093E+03
        32   1 -9.572158E+05 -1.484444E+05 -1.639934E+04 -3.693192E+05 -9.682060E+03 -3.002132E+03
        32   2 -9.443314E+05 -1.384510E+05 -6.423538E+03 -3.634737E+05 -5.524561E+03 -2.440057E+03
        32   3 -9.292373E+05 -1.344083E+05  7.015757E+01 -3.612899E+05 -1.339027E+03 -1.952032E+03
        32   4 -9.481306E+05 -1.442445E+05 -1.417187E+04 -3.659510E+05 -1.060234E+04 -3.347204E+03
        32   5 -9.490641E+05 -1.400143E+05 -7.430296E+03 -3.645929E+05 -6.526293E+03 -2.815660E+03
        32   6 -9.477724E+05 -1.417190E+05 -4.106181E+03 -3.668966E+05 -2.422361E+03 -2.358224E+03
        32   7 -9.390452E+05 -1.400444E+05 -1.194438E+04 -3.625827E+05 -1.152264E+04 -3.692288E+03
        32   8 -9.537968E+05 -1.415776E+05 -8.437046E+03 -3.657120E+05 -7.528014E+03 -3.191260E+03
        32   9 -9.663069E+05 -1.490294E+05 -8.282442E+03 -3.725030E+05 -3.505640E+03 -2.764394E+03
        32  10 -9.572159E+05 -1.484445E+05 -1.639954E+04 -3.693192E+05 -3.863402E-10  3.161748E-10
        32  11 -9.443314E+05 -1.384510E+05 -6.423607E+03 -3.634737E+05  1.198181E-09  8.474844E-11
        32  12 -9.292373E+05 -1.344084E+05  7.014703E+01 -3.612899E+05  9.111083E-10 -1.561192E-10
        32  13 -9.481307E+05 -1.442445E+05 -1.417211E+04 -3.659510E+05  1.052559E-09  1.507026E-10
        32  14 -9.490642E+05 -1.400143E+05 -7.430391E+03 -3.645929E+05  2.189536E-09  2.101459E-10
        32  15 -9.477724E+05 -1.417190E+05 -4.106203E+03 -3.668966E+05  1.702316E-09  2.774696E-10
        32  16 -9.390453E+05 -1.400445E+05 -1.194466E+04 -3.625827E+05  1.770138E-09 -1.551319E-10
        32  17 -9.537969E+05 -1.415776E+05 -8.437172E+03 -3.657120E+05 -2.356323E-10  1.178673E-10
        32  18 -9.663069E+05 -1.490294E+05 -8.282479E+03 -3.725030E+05 -5.061152E-10  7.313710E-10
        32  19 -9.572158E+05 -1.484444E+05 -1.639934E+04 -3.693192E+05  9.682060E+03  3.002132E+03
        32  20 -9.443314E+05 -1.384510E+05 -6.423538E+03 -3.634737E+05  5.524561E+03  2.440057E+03
        32  21 -9.292373E+05 -1.344083E+05  7.015757E+01 -3.612899E+05  1.339027E+03  1.952032E+03
        32  22 -9.481306E+05 -1.442445E+05 -1.417187E+04 -3.659510E+05  1.060234E+04  3.347204E+03
        32  23 -9.490641E+05 -1.400143E+05 -7.430296E+03 -3.645929E+05  6.526293E+03  2.815660E+03
        32  24 -9.477724E+05 -1.417190E+05 -4.106181E+03 -3.668966E+05  2.422361E+03  2.358224E+03
        32  25 -9.390452E+05 -1.400444E+05 -1.194438E+04 -3.625827E+05  1.152264E+04  3.692288E+03
        32  26 -9.537968E+05 -1.415776E+05 -8.437046E+03 -3.657120E+05  7.528014E+03  3.191260E+03
        32  27 -9.663069E+05 -1.490294E+05 -8.282442E+03 -3.725030E+05  3.505640E+03  2.764394E+03
        33   1 -9.181303E+05 -1.309223E+05  3.540064E+03 -3.585455E+05 -5.659951E+02 -2.313537E+03
        33   2 -9.055584E+05 -1.237913E+05  8.073907E+03 -3.525906E+05  6.585882E+02 -2.958325E+03
        33   3 -8.895651E+05 -1.203596E+05  1.193706E+04 -3.507431E+05  1.884030E+03 -3.605172E+03
        33   4 -9.476001E+05 -1.418869E+05 -3.108552E+03 -3.667464E+05 -1.629141E+03 -2.712169E+03
        33   5 -9.493052E+05 -1.399977E+05 -1.722442E+03 -3.647074E+05 -4.068963E+02 -3.357871E+03
        33   6 -9.475884E+05 -1.418074E+05 -1.005109E+03 -3.667760E+05  8.161921E+02 -4.005639E+03
        33   7 -9.770693E+05 -1.528515E+05 -9.757286E+03 -3.749469E+05 -2.692241E+03 -3.110785E+03
        33   8 -9.930507E+05 -1.562042E+05 -1.151908E+04 -3.768236E+05 -1.472315E+03 -3.757392E+03
        33   9 -1.005609E+06 -1.632554E+05 -1.394782E+04 -3.828078E+05 -2.515595E+02 -4.406074E+03
        33  10 -9.181303E+05 -1.309223E+05  3.540053E+03 -3.585455E+05  1.874047E-09  1.216217E-10
        33  11 -9.055584E+05 -1.237913E+05  8.073889E+03 -3.525906E+05  1.705609E-09  9.847365E-11
        33  12 -8.895652E+05 -1.203596E+05  1.193703E+04 -3.507430E+05 -3.504641E-10  8.794883E-11
        33  13 -9.476001E+05 -1.418869E+05 -3.108571E+03 -3.667464E+05 -1.230426E-10  2.622244E-10
        33  14 -9.493052E+05 -1.399977E+05 -1.722464E+03 -3.647074E+05 -1.058450E-09 -6.215274E-11
        33  15 -9.475884E+05 -1.418074E+05 -1.005140E+03 -3.667760E+05  7.885218E-10 -4.616281E-10
        33  16 -9.770693E+05 -1.528515E+05 -9.757318E+03 -3.749470E+05  1.416938E-10  5.614641E-10
        33  17 -9.930507E+05 -1.562042E+05 -1.151911E+04 -3.768236E+05  1.381141E-09 -1.425244E-10
        33  18 -1.005610E+06 -1.632554E+05 -1.394786E+04 -3.828078E+05 -7.397413E-10 -1.323580E-09
        33  19 -9.181303E+05 -1.309223E+05  3.540064E+03 -3.585455E+05  5.659951E+02  2.313537E+03
        33  20 -9.055584E+05 -1.237913E+05  8.073907E+03 -3.525906E+05 -6.585882E+02  2.958325E+03
        33  21 -8.895651E+05 -1.203596E+05  1.193706E+04 -3.507431E+05 -1.884030E+03  3.605172E+03
        33  22 -9.476001E+05 -1.418869E+05 -3.108552E+03 -3.667464E+05  1.629141E+03  2.712169E+03
        33  23 -9.493052E+05 -1.399977E+05 -1.722442E+03 -3.647074E+05  4.068963E+02  3.357871E+03
        33  24 -9.475884E+05 -1.418074E+05 -1.005109E+03 -3.667760E+05 -8.161921E+02  4.005639E+03
        33  25 -9.770693E+05 -1.528515E+05 -9.757286E+03 -3.749469E+05  2.692241E+03  3.110785E+03
        33  26 -9.930507E+05 -1.562042E+05 -1.151908E+04 -3.768236E+05  1.472315E+03  3.757392E+03
        33  27 -1.005609E+06 -1.632554E+05 -1.394782E+04 -3.828078E+05  2.515595E+02  4.406074E+03
        34   1 -8.789508E+05 -1.164555E+05  1.460173E+04 -3.478371E+05  2.242607E+03 -4.114635E+03
        34   2 -8.665120E+05 -1.094596E+05  1.795313E+04 -3.418984E+05  2.889653E+03 -4.975483E+03
        34   3 -8.505571E+05 -1.060310E+05  2.109141E+04 -3.400444E+05  3.536043E+03 -5.834335E+03
        34   4 -9.475727E+05 -1.418078E+05 -8.005753E+02 -3.667602E+05  1.177587E+03 -4.514072E+03
        34   5 -9.493309E+05 -1.400252E+05 -5.753213E+02 -3.647175E+05  1.826772E+03 -5.374167E+03
        34   6 -9.475735E+05 -1.418100E+05 -5.648199E+02 -3.667596E+05  2.475296E+03 -6.232270E+03
        34   7 -1.016189E+06 -1.671593E+05 -1.620282E+04 -3.856810E+05  1.127144E+02 -4.913454E+03
        34   8 -1.032142E+06 -1.705899E+05 -1.910396E+04 -3.875337E+05  7.640555E+02 -5.772789E+03
        34   9 -1.044580E+06 -1.775883E+05 -2.222157E+04 -3.934709E+05  1.414732E+03 -6.630137E+03
        34  10 -8.789508E+05 -1.164555E+05  1.460168E+04 -3.478371E+05 -1.802552E-09 -3.858852E-10
        34  11 -8.665120E+05 -1.094596E+05  1.795307E+04 -3.418984E+05 -1.573866E-09  5.248292E-10
        34  12 -8.505571E+05 -1.060310E+05  2.109133E+04 -3.400444E+05  3.945543E-10  1.052803E-09
        34  13 -9.475727E+05 -1.418078E+05 -8.006162E+02 -3.667602E+05  1.264373E-09 -2.557633E-10
        34  14 -9.493309E+05 -1.400252E+05 -5.753818E+02 -3.647175E+05  1.322287E-09  5.605712E-10
        34  15 -9.475735E+05 -1.418101E+05 -5.649043E+02 -3.667596E+05 -5.321184E-10  6.294580E-10
        34  16 -1.016189E+06 -1.671593E+05 -1.620286E+04 -3.856810E+05 -9.235164E-10 -1.240678E-10
        34  17 -1.032142E+06 -1.705899E+05 -1.910402E+04 -3.875337E+05 -1.530782E-09  6.777719E-10
        34  18 -1.044580E+06 -1.775883E+05 -2.222166E+04 -3.934709E+05 -1.249259E-09 -5.580707E-11
        34  19 -8.789508E+05 -1.164555E+05  1.460173E+04 -3.478371E+05 -2.242607E+03  4.114635E+03
        34  20 -8.665120E+05 -1.094596E+05  1.795313E+04 -3.418984E+05 -2.889653E+03  4.975483E+03
        34  21 -8.505571E+05 -1.060310E+05  2.109141E+04 -3.400444E+05 -3.536043E+03  5.834335E+03
        34  22 -9.475727E+05 -1.418078E+05 -8.005753E+02 -3.667602E+05 -1.177587E+03  4.514072E+03
        34  23 -9.493309E+05 -1.400252E+05 -5.753213E+02 -3.647175E+05 -1.826772E+03  5.374167E+03
        34  24 -9.475735E+05 -1.418100E+05 -5.648199E+02 -3.667596E+05 -2.475296E+03  6.232270E+03
        34  25 -1.016189E+06 -1.671593E+05 -1.620282E+04 -3.856810E+05 -1.127144E+02  4.913454E+03
        34  26 -1.032142E+06 -1.705899E+05 -1.910396E+04 -3.875337E+05 -7.640555E+02  5.772789E+03
        34  27 -1.044580E+06 -1.775883E+05 -2.222157E+04 -3.934709E+05 -1.414732E+03  6.630137E+03
        35   1 -8.400419E+05 -1.021292E+05  2.347197E+04 -3.371490E+05  3.843321E+03 -6.358626E+03
        35   2 -8.276919E+05 -9.519201E+04  2.625379E+04 -3.312675E+05  4.670568E+03 -7.143112E+03
        35   3 -8.118801E+05 -9.179871E+04  2.868582E+04 -3.294399E+05  5.496349E+03 -7.923226E+03
        35   4 -9.475858E+05 -1.418042E+05 -6.313217E+02 -3.667533E+05  2.785373E+03 -6.755554E+03
        35   5 -9.493165E+05 -1.400290E+05 -9.479321E+02 -3.647274E+05  3.617282E+03 -7.538376E+03
        35   6 -9.475866E+05 -1.417989E+05 -1.618149E+03 -3.667559E+05  4.447712E+03 -8.316828E+03
        35   7 -1.055119E+06 -1.814785E+05 -2.473554E+04 -3.963530E+05  1.727616E+03 -7.152410E+03
        35   8 -1.070927E+06 -1.848650E+05 -2.815070E+04 -3.981815E+05  2.564217E+03 -7.933558E+03
        35   9 -1.083275E+06 -1.917977E+05 -3.192328E+04 -4.040645E+05  3.399323E+03 -8.710337E+03
        35  10 -8.400419E+05 -1.021293E+05  2.347187E+04 -3.371490E+05  6.220574E-10  6.897430E-10
        35  11 -8.276920E+05 -9.519207E+04  2.625365E+04 -3.312674E+05  3.844791E-09  4.757735E-10
        35  12 -8.118801E+05 -9.179878E+04  2.868564E+04 -3.294398E+05  2.814262E-09  1.318764E-10
        35  13 -9.475859E+05 -1.418042E+05 -6.314220E+02 -3.667532E+05  2.024310E-09  4.369872E-10
        35  14 -9.493165E+05 -1.400291E+05 -9.480634E+02 -3.647274E+05  2.736709E-09  6.447433E-10
        35  15 -9.475866E+05 -1.417990E+05 -1.618316E+03 -3.667559E+05  1.939077E-09  4.532413E-10
        35  16 -1.055119E+06 -1.814785E+05 -2.473564E+04 -3.963530E+05  3.123625E-09  2.094970E-10
        35  17 -1.070927E+06 -1.848651E+05 -2.815083E+04 -3.981815E+05  3.711574E-09  7.049721E-10
        35  18 -1.083275E+06 -1.917978E+05 -3.192344E+04 -4.040644E+05 -7.671353E-10  7.473109E-10
        35  19 -8.400419E+05 -1.021292E+05  2.347197E+04 -3.371490E+05 -3.843321E+03  6.358626E+03
        35  20 -8.276919E+05 -9.519201E+04  2.625379E+04 -3.312675E+05 -4.670568E+03  7.143112E+03
        35  21 -8.118801E+05 -9.179871E+04  2.868582E+04 -3.294399E+05 -5.496349E+03  7.923226E+03
        35  22 -9.475858E+05 -1.418042E+05 -6.313217E+02 -3.667533E+05 -2.785373E+03  6.755554E+03
        35  23 -9.493165E+05 -1.400290E+05 -9.479321E+02 -3.647274E+05 -3.617282E+03  7.538376E+03
        35  24 -9.475866E+05 -1.417989E+05 -1.618149E+03 -3.667559E+05 -4.447712E+03  8.316828E+03
        35  25 -1.055119E+06 -1.814785E+05 -2.473554E+04 -3.963530E+05 -1.727616E+03  7.152410E+03
        35  26 -1.070927E+06 -1.848650E+05 -2.815070E+04 -3.981815E+05 -2.564217E+03  7.933558E+03
        35  27 -1.083275E+06 -1.917977E+05 -3.192328E+04 -4.040645E+05 -3.399323E+03  8.710337E+03
        36   1 -8.014977E+05 -8.795709E+04  3.059232E+04 -3.266317E+05  6.016128E+03 -8.362098E+03
        36   2 -7.891681E+05 -8.107177E+04  3.196542E+04 -3.207877E+05  8.254164E+03 -8.598015E+03
        36   3 -7.736879E+05 -7.794598E+04  3.187216E+04 -3.189549E+05  1.048425E+04 -8.812124E+03
        36   4 -9.476482E+05 -1.417812E+05 -2.131380E+03 -3.667717E+05  4.966875E+03 -8.755987E+03
        36   5 -9.492352E+05 -1.399919E+05 -3.823622E+03 -3.647317E+05  7.228346E+03 -8.983214E+03
        36   6 -9.476765E+05 -1.419669E+05 -7.001099E+03 -3.667030E+05  9.481830E+03 -9.188645E+03
        36   7 -1.093776E+06 -1.956033E+05 -3.485617E+04 -4.069028E+05  3.917897E+03 -9.149773E+03
        36   8 -1.109276E+06 -1.989101E+05 -3.961428E+04 -4.086653E+05  6.202814E+03 -9.368307E+03
        36   9 -1.121636E+06 -2.059859E+05 -4.587656E+04 -4.144391E+05  8.479711E+03 -9.565055E+03
        36  10 -8.014977E+05 -8.795718E+04  3.059212E+04 -3.266317E+05  1.553611E-09  8.259177E-11
        36  11 -7.891682E+05 -8.107187E+04  3.196516E+04 -3.207876E+05  2.023024E-10 -5.924458E-10
        36  12 -7.736880E+05 -7.794610E+04  3.187180E+04 -3.189548E+05  5.837783E-10 -1.538325E-10
        36  13 -9.476483E+05 -1.417813E+05 -2.131570E+03 -3.667717E+05  2.085551E-10 -1.237791E-10
        36  14 -9.492353E+05 -1.399920E+05 -3.823872E+03 -3.647316E+05  7.289058E-10 -6.343664E-10
        36  15 -9.476766E+05 -1.419670E+05 -7.001427E+03 -3.667029E+05  2.052630E-10  2.694641E-10
        36  16 -1.093776E+06 -1.956034E+05 -3.485636E+04 -4.069027E+05 -7.095837E-10 -2.428504E-10
        36  17 -1.109277E+06 -1.989102E+05 -3.961452E+04 -4.086653E+05 -9.794503E-10 -6.184990E-10
        36  18 -1.121636E+06 -2.059860E+05 -4.587687E+04 -4.144390E+05  3.300959E-09  5.419073E-10
        36  19 -8.014977E+05 -8.795709E+04  3.059232E+04 -3.266317E+05 -6.016128E+03  8.362098E+03
        36  20 -7.891681E+05 -8.107177E+04  3.196542E+04 -3.207877E+05 -8.254164E+03  8.598015E+03
        36  21 -7.736879E+05 -7.794598E+04  3.187216E+04 -3.189549E+05 -1.048425E+04  8.812124E+03
        36  22 -9.476482E+05 -1.417812E+05 -2.131380E+03 -3.667717E+05 -4.966875E+03  8.755987E+03
        36  23 -9.492352E+05 -1.399919E+05 -3.823622E+03 -3.647317E+05 -7.228346E+03  8.983214E+03
        36  24 -9.476765E+05 -1.419669E+05 -7.001099E+03 -3.667030E+05 -9.481830E+03  9.188645E+03
        36  25 -1.093776E+06 -1.956033E+05 -3.485617E+04 -4.069028E+05 -3.917897E+03  9.149773E+03
        36  26 -1.109276E+06 -1.989101E+05 -3.961428E+04 -4.086653E+05 -6.202814E+03  9.368307E+03
        36  27 -1.121636E+06 -2.059859E+05 -4.587656E+04 -4.144391E+05 -8.479711E+03  9.565055E+03
        37   1 -7.631664E+05 -7.439512E+04  3.197441E+04 -3.171943E+05  1.208989E+04 -8.856061E+03
        37   2 -7.512071E+05 -6.673354E+04  2.752863E+04 -3.096467E+05  2.049459E+04 -6.628033E+03
        37   3 -7.388105E+05 -6.774936E+04  1.565474E+04 -3.050114E+05  2.876681E+04 -4.046483E+03
        37   4 -9.480844E+05 -1.415707E+05 -9.272895E+03 -3.670243E+05  1.100061E+04 -9.265243E+03
        37   5 -9.486724E+05 -1.400563E+05 -1.682228E+04 -3.644952E+05  1.979144E+04 -6.892414E+03
        37   6 -9.489007E+05 -1.472973E+05 -3.210789E+04 -3.648786E+05  2.844957E+04 -4.166133E+03
        37   7 -1.132968E+06 -2.087439E+05 -5.052234E+04 -4.168408E+05  9.911685E+03 -9.674299E+03
        37   8 -1.146098E+06 -2.133757E+05 -6.117549E+04 -4.193274E+05  1.908854E+04 -7.156704E+03
        37   9 -1.158945E+06 -2.268407E+05 -7.987303E+04 -4.247266E+05  2.813244E+04 -4.285736E+03
        37  10 -7.631665E+05 -7.439524E+04  3.197399E+04 -3.171942E+05  6.256551E-09  6.665063E-10
        37  11 -7.512076E+05 -6.673370E+04  2.752776E+04 -3.096466E+05 -2.219277E-09 -1.760820E-09
        37  12 -7.388114E+05 -6.774960E+04  1.565315E+04 -3.050113E+05 -3.548347E-09 -1.109460E-09
        37  13 -9.480845E+05 -1.415708E+05 -9.273284E+03 -3.670242E+05  1.353822E-09 -2.791027E-10
        37  14 -9.486728E+05 -1.400565E+05 -1.682310E+04 -3.644951E+05 -3.075669E-09 -1.650612E-09
        37  15 -9.489015E+05 -1.472975E+05 -3.210945E+04 -3.648785E+05 -2.673902E-09 -1.460775E-10
        37  16 -1.132968E+06 -2.087440E+05 -5.052270E+04 -4.168407E+05 -2.372019E-09 -1.109694E-09
        37  17 -1.146098E+06 -2.133758E+05 -6.117627E+04 -4.193273E+05 -3.919754E-09 -1.176454E-09
        37  18 -1.158946E+06 -2.268410E+05 -7.987455E+04 -4.247265E+05  8.307388E-10  4.375319E-10
        37  19 -7.631664E+05 -7.439512E+04  3.197441E+04 -3.171943E+05 -1.208989E+04  8.856061E+03
        37  20 -7.512071E+05 -6.673354E+04  2.752863E+04 -3.096467E+05 -2.049459E+04  6.628033E+03
        37  21 -7.388105E+05 -6.774936E+04  1.565474E+04 -3.050114E+05 -2.876681E+04  4.046483E+03
        37  22 -9.480844E+05 -1.415707E+05 -9.272895E+03 -3.670243E+05 -1.100061E+04  9.265243E+03
        37  23 -9.486724E+05 -1.400563E+05 -1.682228E+04 -3.644952E+05 -1.979144E+04  6.892414E+03
        37  24 -9.489007E+05 -1.472973E+05 -3.210789E+04 -3.648786E+05 -2.844957E+04  4.166133E+03
        37  25 -1.132968E+06 -2.087439E+05 -5.052234E+04 -4.168408E+05 -9.911685E+03  9.674299E+03
        37  26 -1.146098E+06 -2.133757E+05 -6.117549E+04 -4.193274E+05 -1.908854E+04  7.156704E+03
        37  27 -1.158945E+06 -2.268407E+05 -7.987303E+04 -4.247266E+05 -2.813244E+04  4.285736E+03
        38   1 -7.200249E+05 -6.852242E+04  8.642592E+03 -3.239929E+05  3.595422E+04 -2.418337E+03
        38   2 -7.255804E+05 -4.061116E+04 -2.023236E+04 -2.727124E+05  6.742434E+04  1.117726E+04
        38   3 -7.736532E+05 -1.260508E+05 -1.031528E+05 -1.966771E+05  9.625056E+04  3.181649E+04
        38   4 -9.541420E+05 -1.381235E+05 -4.120236E+04 -3.710313E+05  3.378389E+04 -3.232777E+03
        38   5 -9.414145E+05 -1.463951E+05 -7.487479E+04 -3.587376E+05  7.298426E+04  1.326186E+04
        38   6 -9.727591E+05 -2.695846E+05 -1.687384E+05 -3.216839E+05  1.095405E+05  3.679603E+04
        38   7 -1.188205E+06 -2.077250E+05 -9.105066E+04 -4.180559E+05  3.161444E+04 -4.047038E+03
        38   8 -1.157200E+06 -2.521645E+05 -1.295206E+05 -4.447320E+05  7.854210E+04  1.534510E+04
        38   9 -1.171813E+06 -4.130718E+05 -2.343254E+05 -4.466437E+05  1.228259E+05  4.177012E+04
        38  10 -7.200263E+05 -6.852277E+04  8.640150E+03 -3.239928E+05  7.463875E-10  9.408840E-10
        38  11 -7.255853E+05 -4.061252E+04 -2.024115E+04 -2.727130E+05  3.285981E-10  6.036876E-10
        38  12 -7.736635E+05 -1.260544E+05 -1.031721E+05 -1.966795E+05  1.633045E-09  2.969697E-10
        38  13 -9.541432E+05 -1.381238E+05 -4.120453E+04 -3.710312E+05 -1.676943E-10  5.473516E-10
        38  14 -9.414202E+05 -1.463968E+05 -7.488514E+04 -3.587383E+05 -6.740277E-12  7.678748E-10
        38  15 -9.727723E+05 -2.695893E+05 -1.687635E+05 -3.216871E+05  4.488561E-10  4.414540E-11
        38  16 -1.188206E+06 -2.077252E+05 -9.105257E+04 -4.180558E+05 -6.388541E-10  1.768603E-10
        38  17 -1.157207E+06 -2.521665E+05 -1.295327E+05 -4.447330E+05 -4.935910E-10  5.118224E-10
        38  18 -1.171830E+06 -4.130778E+05 -2.343571E+05 -4.466479E+05 -1.333692E-09 -2.726384E-11
        38  19 -7.200249E+05 -6.852242E+04  8.642592E+03 -3.239929E+05 -3.595422E+04  2.418337E+03
        38  20 -7.255804E+05 -4.061116E+04 -2.023236E+04 -2.727124E+05 -6.742434E+04 -1.117726E+04
        38  21 -7.736532E+05 -1.260508E+05 -1.031528E+05 -1.966771E+05 -9.625056E+04 -3.181649E+04
        38  22 -9.541420E+05 -1.381235E+05 -4.120236E+04 -3.710313E+05 -3.378389E+04  3.232777E+03
        38  23 -9.414145E+05 -1.463951E+05 -7.487479E+04 -3.587376E+05 -7.298426E+04 -1.326186E+04
        38  24 -9.727591E+05 -2.695846E+05 -1.687384E+05 -3.216839E+05 -1.095405E+05 -3.679603E+04
        38  25 -1.188205E+06 -2.077250E+05 -9.105066E+04 -4.180559E+05 -3.161444E+04  4.047038E+03
        38  26 -1.157200E+06 -2.521645E+05 -1.295206E+05 -4.447320E+05 -7.854210E+04 -1.534510E+04
        38  27 -1.171813E+06 -4.130718E+05 -2.343254E+05 -4.466437E+05 -1.228259E+05 -4.177012E+04
        39   1 -7.386329E+04  2.823250E+04  3.287683E+04  1.532843E+04  2.270656E+04  5.606932E-01
        39   2 -7.722522E+04  2.353566E+03  1.535047E+04  5.936576E+03  1.465890E+04  1.401893E-01
        39   3 -7.386467E+04 -8.288844E+02  8.738323E+03 -3.455195E+03  6.611234E+03 -3.679847E-02
        39   4 -7.386354E+04  2.823206E+04  3.287677E+04  5.602026E-09  2.270656E+04  3.161632E-10
        39   5 -7.722526E+04  2.353500E+03  1.535046E+04  7.735820E-09  1.465890E+04  9.960409E-10
        39   6 -7.386469E+04 -8.289068E+02  8.738320E+03  7.985071E-09  6.611234E+03  8.494224E-10
        39   7 -7.386329E+04  2.823250E+04  3.287683E+04 -1.532843E+04  2.270656E+04 -5.606931E-01
        39   8 -7.722522E+04  2.353566E+03  1.535047E+04 -5.936576E+03  1.465890E+04 -1.401893E-01
        39   9 -7.386467E+04 -8.288844E+02  8.738323E+03  3.455195E+03  6.611234E+03  3.679847E-02
        39  10 -7.386384E+04  2.823236E+04  3.287586E+04  1.532843E+04  1.317344E-09  6.698418E-11
        39  11 -7.722545E+04  2.353509E+03  1.535007E+04  5.936576E+03  1.874788E-10  3.673474E-10
        39  12 -7.386472E+04 -8.288961E+02  8.738241E+03 -3.455195E+03 -4.568248E-10  7.982234E-10
        39  13 -7.386409E+04  2.823192E+04  3.287580E+04 -3.999582E-09 -1.070648E-09  7.909123E-11
        39  14 -7.722549E+04  2.353442E+03  1.535006E+04  4.623312E-09  1.122841E-09  3.980780E-10
        39  15 -7.386473E+04 -8.289185E+02  8.738238E+03  5.440482E-09 -4.077840E-10  7.979070E-10
        39  16 -7.386384E+04  2.823236E+04  3.287586E+04 -1.532843E+04  5.810047E-10  8.714205E-11
        39  17 -7.722545E+04  2.353509E+03  1.535007E+04 -5.936576E+03 -4.259820E-10  4.116575E-10
        39  18 -7.386472E+04 -8.288961E+02  8.738241E+03  3.455195E+03  3.553769E-10  7.948483E-10
        39  19 -7.386329E+04  2.823250E+04  3.287683E+04  1.532843E+04 -2.270656E+04 -5.606932E-01
        39  20 -7.722522E+04  2.353566E+03  1.535047E+04  5.936576E+03 -1.465890E+04 -1.401893E-01
        39  21 -7.386467E+04 -8.288844E+02  8.738323E+03 -3.455195E+03 -6.611234E+03  3.679847E-02
        39  22 -7.386354E+04  2.823206E+04  3.287677E+04  4.709375E-09 -2.270656E+04 -1.596171E-10
        39  23 -7.722526E+04  2.353500E+03  1.535046E+04  1.511081E-09 -1.465890E+04 -1.990156E-10
        39  24 -7.386469E+04 -8.289068E+02  8.738320E+03  3.968624E-09 -6.611234E+03  7.467280E-10
        39  25 -7.386329E+04  2.823250E+04  3.287683E+04 -1.532843E+04 -2.270656E+04  5.606931E-01
        39  26 -7.722522E+04  2.353566E+03  1.535047E+04 -5.936576E+03 -1.465890E+04  1.401893E-01
        39  27 -7.386467E+04 -8.288844E+02  8.738323E+03  3.455195E+03 -6.611234E+03 -3.679847E-02
        40   1 -7.524795E+04  1.132407E+03  6.828025E+03  3.662010E+02  5.424910E+03  3.200279E-03
        40   2 -7.549653E+04  2.915199E+01  3.752450E+03  6.344357E+01  3.550922E+03  3.629153E-04
        40   3 -7.524809E+04 -6.215653E+01  2.150006E+03 -2.393098E+02  1.676966E+03 -6.464894E-04
        40   4 -7.524795E+04  1.132407E+03  6.828025E+03 -7.133611E-09  5.424910E+03  1.032007E-09
        40   5 -7.549653E+04  2.915198E+01  3.752450E+03  2.015099E-08  3.550922E+03  8.222719E-10
        40   6 -7.524809E+04 -6.215663E+01  2.150006E+03  6.143561E-08  1.676966E+03 -1.646783E-09
        40   7 -7.524795E+04  1.132407E+03  6.828025E+03 -3.662010E+02  5.424910E+03 -3.200277E-03
        40   8 -7.549653E+04  2.915199E+01  3.752450E+03 -6.344357E+01  3.550922E+03 -3.629137E-04
        40   9 -7.524809E+04 -6.215653E+01  2.150006E+03  2.393098E+02  1.676966E+03  6.464861E-04
        40  10 -7.524799E+04  1.132399E+03  6.827969E+03  3.662010E+02  2.617154E-09  1.206573E-09
        40  11 -7.549655E+04  2.914861E+01  3.752426E+03  6.344357E+01 -7.255094E-09  7.610545E-10
        40  12 -7.524809E+04 -6.215728E+01  2.150001E+03 -2.393098E+02 -1.631876E-08 -1.761453E-09
        40  13 -7.524799E+04  1.132399E+03  6.827969E+03  4.246565E-09  1.081154E-09  1.178077E-09
        40  14 -7.549655E+04  2.914860E+01  3.752426E+03 -4.955326E-10 -3.769306E-09  7.720141E-10
        40  15 -7.524809E+04 -6.215739E+01  2.150001E+03  6.338688E-09 -1.592933E-09 -1.599039E-09
        40  16 -7.524799E+04  1.132399E+03  6.827969E+03 -3.662010E+02 -3.424918E-09  1.145976E-09
        40  17 -7.549655E+04  2.914861E+01  3.752426E+03 -6.344357E+01  5.916329E-09  7.782627E-10
        40  18 -7.524809E+04 -6.215728E+01  2.150001E+03  2.393098E+02  1.501963E-08 -1.438354E-09
        40  19 -7.524795E+04  1.132407E+03  6.828025E+03  3.662010E+02 -5.424910E+03 -3.200277E-03
        40  20 -7.549653E+04  2.915199E+01  3.752450E+03  6.344357E+01 -3.550922E+03 -3.629138E-04
        40  21 -7.524809E+04 -6.215653E+01  2.150006E+03 -2.393098E+02 -1.676966E+03  6.464858E-04
        40  22 -7.524795E+04  1.132407E+03  6.828025E+03  2.424252E-08 -5.424910E+03  1.322812E-09
        40  23 -7.549653E+04  2.915198E+01  3.752450E+03 -1.468068E-08 -3.550922E+03  7.188039E-10
        40  24 -7.524809E+04 -6.215663E+01  2.150006E+03 -4.647079E-08 -1.676966E+03 -1.552079E-09
        40  25 -7.524795E+04  1.132407E+03  6.828025E+03 -3.662010E+02 -5.424910E+03  3.200280E-03
        40  26 -7.549653E+04  2.915199E+01  3.752450E+03 -6.344357E+01 -3.550922E+03  3.629153E-04
        40  27 -7.524809E+04 -6.215653E+01  2.150006E+03  2.393098E+02 -1.676966E+03 -6.464889E-04
        41   1 -7.534266E+04  2.196844E+01  1.636135E+03 -6.111012E+01  1.342777E+03 -1.321907E-04
        41   2 -7.537839E+04 -1.714602E+01  9.249087E+02 -4.694913E+01  8.850339E+02 -6.693752E-05
        41   3 -7.534268E+04 -8.896945E+00  5.235677E+02 -3.278792E+01  4.272848E+02 -2.256826E-05
        41   4 -7.534266E+04  2.196843E+01  1.636135E+03 -5.052398E-08  1.342777E+03 -2.495855E-09
        41   5 -7.537839E+04 -1.714603E+01  9.249087E+02 -1.676922E-08  8.850339E+02 -1.298786E-09
        41   6 -7.534268E+04 -8.896947E+00  5.235677E+02  1.846754E-08  4.272848E+02  2.034894E-10
        41   7 -7.534266E+04  2.196844E+01  1.636135E+03  6.111012E+01  1.342777E+03  1.321857E-04
        41   8 -7.537839E+04 -1.714602E+01  9.249087E+02  4.694913E+01  8.850339E+02  6.693490E-05
        41   9 -7.534268E+04 -8.896945E+00  5.235677E+02  3.278792E+01  4.272848E+02  2.256867E-05
        41  10 -7.534266E+04  2.196796E+01  1.636131E+03 -6.111012E+01  1.609894E-08 -2.261600E-09
        41  11 -7.537839E+04 -1.714623E+01  9.249072E+02 -4.694913E+01  7.806079E-09 -6.096572E-10
        41  12 -7.534268E+04 -8.896994E+00  5.235673E+02 -3.278792E+01 -4.143877E-09  2.496360E-10
        41  13 -7.534266E+04  2.196795E+01  1.636131E+03 -1.693055E-09 -2.159144E-09 -2.207106E-09
        41  14 -7.537840E+04 -1.714624E+01  9.249072E+02 -3.753930E-09 -3.244481E-09 -9.084585E-10
        41  15 -7.534268E+04 -8.896996E+00  5.235673E+02 -7.001238E-10  1.330491E-10  7.350077E-12
        41  16 -7.534266E+04  2.196796E+01  1.636131E+03  6.111012E+01 -1.852835E-08 -2.148728E-09
        41  17 -7.537839E+04 -1.714623E+01  9.249072E+02  4.694913E+01 -9.159084E-09 -1.200735E-09
        41  18 -7.534268E+04 -8.896994E+00  5.235673E+02  3.278792E+01  3.567440E-09 -2.387349E-10
        41  19 -7.534266E+04  2.196844E+01  1.636135E+03 -6.111012E+01 -1.342777E+03  1.321862E-04
        41  20 -7.537839E+04 -1.714602E+01  9.249087E+02 -4.694913E+01 -8.850339E+02  6.693629E-05
        41  21 -7.534268E+04 -8.896945E+00  5.235677E+02 -3.278792E+01 -4.272848E+02  2.256877E-05
        41  22 -7.534266E+04  2.196843E+01  1.636135E+03  5.790728E-08 -1.342777E+03 -1.918369E-09
        41  23 -7.537839E+04 -1.714603E+01  9.249087E+02  1.033803E-08 -8.850339E+02 -5.173148E-10
        41  24 -7.534268E+04 -8.896947E+00  5.235677E+02 -1.556029E-08 -4.272848E+02 -1.895487E-10
        41  25 -7.534266E+04  2.196844E+01  1.636135E+03  6.111012E+01 -1.342777E+03 -1.321900E-04
        41  26 -7.537839E+04 -1.714602E+01  9.249087E+02  4.694913E+01 -8.850339E+02 -6.693732E-05
        41  27 -7.534268E+04 -8.896945E+00  5.235677E+02  3.278792E+01 -4.272848E+02 -2.256915E-05
        42   1 -7.535547E+04 -5.791205E+00  3.906569E+02 -2.260163E+01  3.446011E+02 -1.254643E-05
        42   2 -7.536243E+04 -4.767067E+00  2.058664E+02 -1.598012E+01  2.428780E+02 -6.252575E-06
        42   3 -7.535547E+04 -1.097162E+00  8.796967E+01 -9.358620E+00  1.411549E+02 -2.126854E-06
        42   4 -7.535547E+04 -5.791206E+00  3.906569E+02  7.014332E-09  3.446011E+02  3.255076E-10
        42   5 -7.536243E+04 -4.767068E+00  2.058664E+02  3.741951E-09  2.428780E+02 -1.216592E-10
        42   6 -7.535547E+04 -1.097162E+00  8.796967E+01  1.379593E-08  1.411549E+02  7.176817E-10
        42   7 -7.535547E+04 -5.791205E+00  3.906569E+02  2.260163E+01  3.446011E+02  1.254709E-05
        42   8 -7.536243E+04 -4.767067E+00  2.058664E+02  1.598012E+01  2.428780E+02  6.252325E-06
        42   9 -7.535547E+04 -1.097162E+00  8.796967E+01  9.358620E+00  1.411549E+02  2.128281E-06
        42  10 -7.535547E+04 -5.791237E+00  3.906567E+02 -2.260163E+01  1.749533E-09 -1.069367E-10
        42  11 -7.536243E+04 -4.767083E+00  2.058663E+02 -1.598012E+01  1.488612E-10 -4.507891E-10
        42  12 -7.535547E+04 -1.097168E+00  8.796963E+01 -9.358620E+00  8.619999E-11  1.126947E-09
        42  13 -7.535547E+04 -5.791238E+00  3.906567E+02 -8.095219E-10  2.514773E-11 -1.045178E-10
        42  14 -7.536243E+04 -4.767083E+00  2.058663E+02  4.404519E-09 -1.090567E-09 -3.526970E-10
        42  15 -7.535547E+04 -1.097168E+00  8.796963E+01  2.618441E-09 -1.222030E-09  6.461611E-10
        42  16 -7.535547E+04 -5.791237E+00  3.906567E+02  2.260163E+01 -1.501787E-09 -1.021195E-10
        42  17 -7.536243E+04 -4.767083E+00  2.058663E+02  1.598012E+01 -3.083200E-09 -2.556959E-10
        42  18 -7.535547E+04 -1.097168E+00  8.796963E+01  9.358620E+00 -1.647552E-09  1.684282E-10
        42  19 -7.535547E+04 -5.791205E+00  3.906569E+02 -2.260163E+01 -3.446011E+02  1.254623E-05
        42  20 -7.536243E+04 -4.767067E+00  2.058664E+02 -1.598012E+01 -2.428780E+02  6.251689E-06
        42  21 -7.535547E+04 -1.097162E+00  8.796967E+01 -9.358620E+00 -1.411549E+02  2.129111E-06
        42  22 -7.535547E+04 -5.791206E+00  3.906569E+02  4.289394E-09 -3.446011E+02 -5.341663E-10
        42  23 -7.536243E+04 -4.767068E+00  2.058664E+02 -5.702721E-09 -2.428780E+02 -5.820459E-10
        42  24 -7.535547E+04 -1.097162E+00  8.796967E+01 -2.770095E-09 -1.411549E+02  5.744414E-10
        42  25 -7.535547E+04 -5.791205E+00  3.906569E+02  2.260163E+01 -3.446011E+02 -1.254730E-05
        42  26 -7.536243E+04 -4.767067E+00  2.058664E+02  1.598012E+01 -2.428780E+02 -6.252853E-06
        42  27 -7.535547E+04 -1.097162E+00  8.796967E+01  9.358620E+00 -1.411549E+02 -2.127961E-06
        43   1 -7.535928E+04 -1.109593E+00  4.128742E+01 -8.775991E+00  1.294124E+02 -1.827380E-06
        43   2 -7.535768E+04  1.021161E+00 -4.595562E+01 -1.009691E+01  1.521277E+02 -2.472496E-06
        43   3 -7.535928E+04  2.203371E+00 -1.482264E+02 -1.141780E+01  1.748427E+02 -3.215789E-06
        43   4 -7.535928E+04 -1.109593E+00  4.128742E+01 -5.505972E-08  1.294124E+02  1.760418E-09
        43   5 -7.535768E+04  1.021161E+00 -4.595562E+01 -3.979185E-09  1.521277E+02  2.175395E-09
        43   6 -7.535928E+04  2.203371E+00 -1.482264E+02  6.325364E-08  1.748427E+02  2.583621E-10
        43   7 -7.535928E+04 -1.109593E+00  4.128742E+01  8.775991E+00  1.294124E+02  1.830903E-06
        43   8 -7.535768E+04  1.021161E+00 -4.595562E+01  1.009691E+01  1.521277E+02  2.476845E-06
        43   9 -7.535928E+04  2.203371E+00 -1.482264E+02  1.141780E+01  1.748427E+02  3.216314E-06
        43  10 -7.535928E+04 -1.109597E+00  4.128739E+01 -8.775991E+00  2.231239E-08  2.025657E-09
        43  11 -7.535768E+04  1.021155E+00 -4.595566E+01 -1.009691E+01 -1.876418E-10  1.670383E-09
        43  12 -7.535928E+04  2.203363E+00 -1.482265E+02 -1.141780E+01 -2.154898E-08  3.292119E-10
        43  13 -7.535928E+04 -1.109597E+00  4.128739E+01  3.801059E-09 -1.047606E-09  1.603901E-09
        43  14 -7.535768E+04  1.021155E+00 -4.595566E+01 -8.474937E-09 -5.112392E-10  1.931746E-09
        43  15 -7.535928E+04  2.203363E+00 -1.482265E+02  1.863787E-09 -9.831707E-10  4.623883E-10
        43  16 -7.535928E+04 -1.109597E+00  4.128739E+01  8.775991E+00 -2.338407E-08  1.185700E-09
        43  17 -7.535768E+04  1.021155E+00 -4.595566E+01  1.009691E+01 -3.372132E-10  2.193965E-09
        43  18 -7.535928E+04  2.203363E+00 -1.482265E+02  1.141780E+01  2.180014E-08  6.004857E-10
        43  19 -7.535928E+04 -1.109593E+00  4.128742E+01 -8.775991E+00 -1.294124E+02  1.831433E-06
        43  20 -7.535768E+04  1.021161E+00 -4.595562E+01 -1.009691E+01 -1.521277E+02  2.475841E-06
        43  21 -7.535928E+04  2.203371E+00 -1.482264E+02 -1.141780E+01 -1.748427E+02  3.216447E-06
        43  22 -7.535928E+04 -1.109593E+00  4.128742E+01  6.697079E-08 -1.294124E+02  1.446306E-09
        43  23 -7.535768E+04  1.021161E+00 -4.595562E+01 -3.816686E-09 -1.521277E+02  1.688691E-09
        43  24 -7.535928E+04  2.203371E+00 -1.482264E+02 -6.100620E-08 -1.748427E+02  6.669135E-10
        43  25 -7.535928E+04 -1.109593E+00  4.128742E+01  8.775991E+00 -1.294124E+02 -1.828540E-06
        43  26 -7.535768E+04  1.021161E+00 -4.595562E+01  1.009691E+01 -1.521277E+02 -2.472467E-06
        43  27 -7.535928E+04  2.203371E+00 -1.482264E+02  1.141780E+01 -1.748427E+02 -3.215119E-06
        44   1 -7.536550E+04  3.563106E+00 -2.140935E+02 -1.581670E+01  2.075919E+02 -5.290054E-06
        44   2 -7.534991E+04  7.390065E+00 -4.021724E+02 -2.173557E+01  4.066401E+02 -1.423881E-05
        44   3 -7.536551E+04 -9.920105E+00 -7.251344E+02 -2.765454E+01  6.056911E+02 -2.698319E-05
        44   4 -7.536550E+04  3.563105E+00 -2.140935E+02 -3.739799E-09  2.075919E+02 -7.063667E-10
        44   5 -7.534991E+04  7.390064E+00 -4.021724E+02 -3.257048E-10  4.066401E+02 -3.001081E-10
        44   6 -7.536551E+04 -9.920107E+00 -7.251344E+02  1.286411E-10  6.056911E+02  5.773848E-10
        44   7 -7.536550E+04  3.563106E+00 -2.140935E+02  1.581670E+01  2.075919E+02  5.288642E-06
        44   8 -7.534991E+04  7.390065E+00 -4.021724E+02  2.173557E+01  4.066401E+02  1.423821E-05
        44   9 -7.536551E+04 -9.920105E+00 -7.251344E+02  2.765454E+01  6.056911E+02  2.698433E-05
        44  10 -7.536550E+04  3.563094E+00 -2.140936E+02 -1.581670E+01 -1.129693E-09 -4.617647E-10
        44  11 -7.534991E+04  7.390021E+00 -4.021727E+02 -2.173557E+01  3.013407E-10 -8.224139E-10
        44  12 -7.536552E+04 -9.920204E+00 -7.251350E+02 -2.765454E+01 -2.038936E-09 -6.222715E-10
        44  13 -7.536550E+04  3.563094E+00 -2.140936E+02 -1.728811E-09 -1.102041E-09 -4.550439E-10
        44  14 -7.534991E+04  7.390020E+00 -4.021727E+02  2.817819E-10 -1.655165E-09 -5.662424E-10
        44  15 -7.536552E+04 -9.920205E+00 -7.251350E+02  6.599091E-09 -1.067791E-09 -3.992545E-11
        44  16 -7.536550E+04  3.563094E+00 -2.140936E+02  1.581670E+01  2.243268E-09 -4.441137E-10
        44  17 -7.534991E+04  7.390021E+00 -4.021727E+02  2.173557E+01 -7.971146E-11 -3.121059E-10
        44  18 -7.536552E+04 -9.920204E+00 -7.251350E+02  2.765454E+01  7.900589E-11  5.422040E-10
        44  19 -7.536550E+04  3.563106E+00 -2.140935E+02 -1.581670E+01 -2.075919E+02  5.289140E-06
        44  20 -7.534991E+04  7.390065E+00 -4.021724E+02 -2.173557E+01 -4.066401E+02  1.423717E-05
        44  21 -7.536551E+04 -9.920105E+00 -7.251344E+02 -2.765454E+01 -6.056911E+02  2.698195E-05
        44  22 -7.536550E+04  3.563105E+00 -2.140935E+02  9.977017E-09 -2.075919E+02 -2.036128E-10
        44  23 -7.534991E+04  7.390064E+00 -4.021724E+02  1.964896E-09 -4.066401E+02 -8.333944E-10
        44  24 -7.536551E+04 -9.920107E+00 -7.251344E+02  3.778815E-09 -6.056911E+02 -6.580640E-10
        44  25 -7.536550E+04  3.563106E+00 -2.140935E+02  1.581670E+01 -2.075919E+02 -5.289548E-06
        44  26 -7.534991E+04  7.390065E+00 -4.021724E+02  2.173557E+01 -4.066401E+02 -1.423883E-05
        44  27 -7.536551E+04 -9.920105E+00 -7.251344E+02  2.765454E+01 -6.056911E+02 -2.698327E-05
        45   1 -7.540794E+04  2.769436E+01 -9.565469E+02 -1.073138E+02  7.540864E+02 -1.303622E-04
        45   2 -7.529691E+04 -1.310251E+01 -1.675330E+03  2.818636E+01  1.590777E+03  7.223110E-05
        45   3 -7.540799E+04 -5.064572E+02 -3.052021E+03  1.636866E+02  2.427467E+03  6.400914E-04
        45   4 -7.540794E+04  2.769434E+01 -9.565469E+02  2.332412E-10  7.540864E+02  4.632851E-10
        45   5 -7.529691E+04 -1.310251E+01 -1.675330E+03 -5.534525E-09  1.590777E+03 -3.570883E-10
        45   6 -7.540799E+04 -5.064572E+02 -3.052021E+03  2.025528E-09  2.427467E+03 -1.412333E-11
        45   7 -7.540794E+04  2.769436E+01 -9.565469E+02  1.073138E+02  7.540864E+02  1.303631E-04
        45   8 -7.529691E+04 -1.310251E+01 -1.675330E+03 -2.818636E+01  1.590777E+03 -7.223185E-05
        45   9 -7.540799E+04 -5.064572E+02 -3.052021E+03 -1.636866E+02  2.427467E+03 -6.400915E-04
        45  10 -7.540794E+04  2.769421E+01 -9.565480E+02 -1.073138E+02 -5.798607E-10 -2.883822E-10
        45  11 -7.529691E+04 -1.310319E+01 -1.675335E+03  2.818636E+01 -9.205823E-10  4.010861E-11
        45  12 -7.540799E+04 -5.064587E+02 -3.052032E+03  1.636866E+02 -1.860550E-09  9.701509E-12
        45  13 -7.540794E+04  2.769419E+01 -9.565480E+02  1.067116E-09 -1.076941E-09 -4.447073E-12
        45  14 -7.529691E+04 -1.310319E+01 -1.675335E+03 -6.117034E-09 -1.628955E-09 -4.357482E-10
        45  15 -7.540799E+04 -5.064588E+02 -3.052032E+03 -1.993554E-09  5.465252E-10 -2.699102E-10
        45  16 -7.540794E+04  2.769421E+01 -9.565480E+02  1.073138E+02 -7.960350E-10  2.829803E-10
        45  17 -7.529691E+04 -1.310319E+01 -1.675335E+03 -2.818636E+01 -9.640628E-10 -9.134411E-10
        45  18 -7.540799E+04 -5.064587E+02 -3.052032E+03 -1.636866E+02 -7.335796E-10 -5.509097E-10
        45  19 -7.540794E+04  2.769436E+01 -9.565469E+02 -1.073138E+02 -7.540864E+02  1.303616E-04
        45  20 -7.529691E+04 -1.310251E+01 -1.675330E+03  2.818636E+01 -1.590777E+03 -7.223106E-05
        45  21 -7.540799E+04 -5.064572E+02 -3.052021E+03  1.636866E+02 -2.427467E+03 -6.400914E-04
        45  22 -7.540794E+04  2.769434E+01 -9.565469E+02  4.058687E-09 -7.540864E+02 -4.708864E-10
        45  23 -7.529691E+04 -1.310251E+01 -1.675330E+03 -6.160546E-09 -1.590777E+03 -5.128723E-10
        45  24 -7.540799E+04 -5.064572E+02 -3.052021E+03  3.274810E-09 -2.427467E+03 -5.250429E-10
        45  25 -7.540794E+04  2.769436E+01 -9.565469E+02  1.073138E+02 -7.540864E+02 -1.303625E-04
        45  26 -7.529691E+04 -1.310251E+01 -1.675330E+03 -2.818636E+01 -1.590777E+03  7.223003E-05
        45  27 -7.540799E+04 -5.064572E+02 -3.052021E+03 -1.636866E+02 -2.427467E+03  6.400904E-04
        46   1 -7.602662E+04  3.706956E+02 -3.906726E+03 -1.545335E+03  2.957738E+03 -7.363055E-03
        46   2 -7.452371E+04 -1.052527E+03 -6.864158E+03  2.654942E+03  6.556598E+03  2.804196E-02
        46   3 -7.602704E+04 -1.262575E+04 -1.470229E+04  6.855141E+03  1.015541E+04  1.121473E-01
        46   4 -7.602663E+04  3.706911E+02 -3.906726E+03 -2.037414E-09  2.957738E+03  9.916755E-11
        46   5 -7.452372E+04 -1.052540E+03 -6.864160E+03 -2.866576E-09  6.556598E+03 -2.814957E-10
        46   6 -7.602709E+04 -1.262584E+04 -1.470230E+04  4.650292E-09  1.015541E+04 -1.465553E-10
        46   7 -7.602662E+04  3.706956E+02 -3.906726E+03  1.545335E+03  2.957738E+03  7.363055E-03
        46   8 -7.452371E+04 -1.052527E+03 -6.864158E+03 -2.654942E+03  6.556598E+03 -2.804196E-02
        46   9 -7.602704E+04 -1.262575E+04 -1.470229E+04 -6.855141E+03  1.015541E+04 -1.121473E-01
        46  10 -7.602663E+04  3.706933E+02 -3.906742E+03 -1.545335E+03  3.967086E-10 -4.422641E-11
        46  11 -7.452376E+04 -1.052538E+03 -6.864239E+03  2.654942E+03  1.037704E-09 -6.785752E-14
        46  12 -7.602715E+04 -1.262578E+04 -1.470248E+04  6.855141E+03  4.551568E-10  8.958670E-12
        46  13 -7.602664E+04  3.706888E+02 -3.906743E+03 -4.226268E-09 -1.025267E-09 -1.480194E-10
        46  14 -7.452377E+04 -1.052551E+03 -6.864241E+03 -1.237093E-09 -5.384682E-10 -1.807590E-10
        46  15 -7.602720E+04 -1.262587E+04 -1.470249E+04 -2.015883E-09 -6.626726E-10 -6.240602E-11
        46  16 -7.602663E+04  3.706933E+02 -3.906742E+03  1.545335E+03 -3.851058E-10 -2.513566E-10
        46  17 -7.452376E+04 -1.052538E+03 -6.864239E+03 -2.654942E+03  1.135940E-09 -3.615847E-10
        46  18 -7.602715E+04 -1.262578E+04 -1.470248E+04 -6.855141E+03 -1.126345E-09 -1.367214E-10
        46  19 -7.602662E+04  3.706956E+02 -3.906726E+03 -1.545335E+03 -2.957738E+03  7.363055E-03
        46  20 -7.452371E+04 -1.052527E+03 -6.864158E+03  2.654942E+03 -6.556598E+03 -2.804196E-02
        46  21 -7.602704E+04 -1.262575E+04 -1.470229E+04  6.855141E+03 -1.015541E+04 -1.121473E-01
        46  22 -7.602663E+04  3.706911E+02 -3.906726E+03  4.588005E-11 -2.957738E+03 -3.956044E-10
        46  23 -7.452372E+04 -1.052540E+03 -6.864160E+03 -3.376914E-09 -6.556598E+03 -7.992888E-11
        46  24 -7.602709E+04 -1.262584E+04 -1.470230E+04  4.375403E-09 -1.015541E+04  2.107253E-11
        46  25 -7.602662E+04  3.706956E+02 -3.906726E+03  1.545335E+03 -2.957738E+03 -7.363056E-03
        46  26 -7.452371E+04 -1.052527E+03 -6.864158E+03 -2.654942E+03 -6.556598E+03  2.804196E-02
        46  27 -7.602704E+04 -1.262575E+04 -1.470229E+04 -6.855141E+03 -1.015541E+04  1.121473E-01
        47   1  2.883845E+05  1.030874E+06  2.921576E+05 -1.542919E+05  1.144976E+04  9.164215E+04
        47   2  1.863488E+05  8.632222E+05  1.959137E+05 -1.084169E+05  3.520383E+04  4.397088E+04
        47   3  1.407126E+05  7.159687E+05  1.447887E+05 -1.119857E+05  3.465084E+04 -3.690231E+03
        47   4  6.370086E+04  1.245503E+05  7.451645E+04 -1.193384E+05  1.146705E+04  4.934099E+04
        47   5  5.249495E+03  1.168715E+05  3.640267E+04 -9.463016E+04  3.521390E+04  3.031809E+04
        47   6 -1.732611E+03  1.246262E+05  2.355821E+04 -1.193635E+05  3.464375E+04  1.129247E+04
        47   7 -1.610370E+05 -7.810152E+05 -1.431757E+05 -8.443593E+04  1.147961E+04  7.101224E+03
        47   8 -1.758853E+05 -6.289547E+05 -1.231399E+05 -8.086014E+04  3.522338E+04  1.668145E+04
        47   9 -1.441995E+05 -4.663839E+05 -9.769005E+04 -1.267341E+05  3.463630E+04  2.626117E+04
        47  10  2.883821E+05  1.030864E+06  2.921416E+05 -1.542928E+05  3.112417E-10  2.141790E-09
        47  11  1.863469E+05  8.632198E+05  1.959078E+05 -1.084181E+05  1.515159E-09 -8.659782E-11
        47  12  1.407113E+05  7.159684E+05  1.447865E+05 -1.119856E+05 -1.291688E-09 -2.215992E-09
        47  13  6.370006E+04  1.245477E+05  7.451163E+04 -1.193389E+05  6.005752E-10  3.239948E-11
        47  14  5.247917E+03  1.168701E+05  3.639861E+04 -9.463102E+04  9.567463E-10  1.417532E-10
        47  15 -1.733935E+03  1.246257E+05  2.355572E+04 -1.193639E+05  1.884283E-09  8.223148E-11
        47  16 -1.610371E+05 -7.810153E+05 -1.431761E+05 -8.443600E+04  5.323789E-11 -2.115085E-09
        47  17 -1.758867E+05 -6.289553E+05 -1.231427E+05 -8.086061E+04 -1.462125E-09 -1.766902E-11
        47  18 -1.442010E+05 -4.663850E+05 -9.769361E+04 -1.267348E+05 -1.010619E-09  2.041249E-09
        47  19  2.883845E+05  1.030874E+06  2.921576E+05 -1.542919E+05 -1.144976E+04 -9.164215E+04
        47  20  1.863488E+05  8.632222E+05  1.959137E+05 -1.084169E+05 -3.520383E+04 -4.397088E+04
        47  21  1.407126E+05  7.159687E+05  1.447887E+05 -1.119857E+05 -3.465084E+04  3.690231E+03
        47  22  6.370086E+04  1.245503E+05  7.451645E+04 -1.193384E+05 -1.146705E+04 -4.934099E+04
        47  23  5.249495E+03  1.168715E+05  3.640267E+04 -9.463016E+04 -3.521390E+04 -3.031809E+04
        47  24 -1.732611E+03  1.246262E+05  2.355821E+04 -1.193635E+05 -3.464375E+04 -1.129247E+04
        47  25 -1.610370E+05 -7.810152E+05 -1.431757E+05 -8.443593E+04 -1.147961E+04 -7.101224E+03
        47  26 -1.758853E+05 -6.289547E+05 -1.231399E+05 -8.086014E+04 -3.522338E+04 -1.668145E+04
        47  27 -1.441995E+05 -4.663839E+05 -9.769005E+04 -1.267341E+05 -3.463630E+04 -2.626117E+04
        48   1  1.173995E+05  5.984590E+05  1.185676E+05 -1.213184E+05  2.767323E+04 -1.398270E+03
        48   2  7.712143E+04  4.400202E+05  8.283581E+04 -9.444903E+04  1.941670E+04 -1.135446E+04
        48   3  4.197033E+04  2.841303E+05  5.484972E+04 -1.182458E+05  1.028858E+04 -2.131172E+04
        48   4  2.505878E+03  1.217430E+05  2.062669E+04 -1.196310E+05  2.766816E+04  7.810007E+03
        48   5  2.605196E+02  1.205847E+05  1.786277E+04 -9.429720E+04  1.940938E+04 -1.116542E+03
        48   6  2.966531E+03  1.217744E+05  2.213330E+04 -1.196307E+05  1.027876E+04 -1.004658E+04
        48   7 -1.124020E+05 -3.547571E+05 -7.732602E+04 -1.179449E+05  2.766315E+04  1.701134E+04
        48   8 -7.660669E+04 -1.987535E+05 -4.711521E+04 -9.414543E+04  1.940206E+04  9.116208E+03
        48   9 -3.603883E+04 -4.055620E+04 -1.058398E+04 -1.210153E+05  1.026888E+04  1.215662E+03
        48  10  1.173987E+05  5.984587E+05  1.185661E+05 -1.213183E+05  1.303452E-09  3.464125E-10
        48  11  7.712099E+04  4.400199E+05  8.283485E+04 -9.444885E+04  1.528840E-09  6.769611E-11
        48  12  4.197010E+04  2.841298E+05  5.484867E+04 -1.182456E+05 -4.402915E-10  2.187093E-10
        48  13  2.505040E+03  1.217428E+05  2.062513E+04 -1.196311E+05 -8.059830E-10  2.867697E-10
        48  14  2.601147E+02  1.205846E+05  1.786206E+04 -9.429718E+04  2.363901E-09  3.255949E-10
        48  15  2.966390E+03  1.217742E+05  2.213292E+04 -1.196307E+05  3.384283E-10  1.716728E-10
        48  16 -1.124029E+05 -3.547576E+05 -7.732800E+04 -1.179452E+05 -4.369169E-11 -1.853027E-10
        48  17 -7.660712E+04 -1.987537E+05 -4.711607E+04 -9.414557E+04 -1.546321E-09 -2.745596E-10
        48  18 -3.603894E+04 -4.055623E+04 -1.058418E+04 -1.210153E+05 -1.798711E-10 -4.561323E-10
        48  19  1.173995E+05  5.984590E+05  1.185676E+05 -1.213184E+05 -2.767323E+04  1.398270E+03
        48  20  7.712143E+04  4.400202E+05  8.283581E+04 -9.444903E+04 -1.941670E+04  1.135446E+04
        48  21  4.197033E+04  2.841303E+05  5.484972E+04 -1.182458E+05 -1.028858E+04  2.131172E+04
        48  22  2.505878E+03  1.217430E+05  2.062669E+04 -1.196310E+05 -2.766816E+04 -7.810007E+03
        48  23  2.605196E+02  1.205847E+05  1.786277E+04 -9.429720E+04 -1.940938E+04  1.116542E+03
        48  24  2.966531E+03  1.217744E+05  2.213330E+04 -1.196307E+05 -1.027876E+04  1.004658E+04
        48  25 -1.124020E+05 -3.547571E+05 -7.732602E+04 -1.179449E+05 -2.766315E+04 -1.701134E+04
        48  26 -7.660669E+04 -1.987535E+05 -4.711521E+04 -9.414543E+04 -1.940206E+04 -9.116208E+03
        48  27 -3.603883E+04 -4.055620E+04 -1.058398E+04 -1.210153E+05 -1.026888E+04 -1.215662E+03
        49   1  9.607774E+03  1.734163E+05  3.492248E+04 -1.283263E+05  3.932470E+03 -2.672170E+04
        49   2 -2.039331E+04  8.412535E+03  1.636541E+04 -7.890917E+04 -2.992853E+03 -3.867637E+04
        49   3  6.532279E+03 -1.408492E+05  1.980543E+04 -7.977818E+04 -1.820242E+03 -5.062252E+04
        49   4 -1.886080E+03  1.251161E+05  2.583756E+04 -1.195568E+05  3.920344E+03 -1.380376E+04
        49   5  6.177512E+03  1.164289E+05  4.105610E+04 -9.438783E+04 -2.994782E+03 -3.528764E+04
        49   6  7.281314E+04  1.251017E+05  8.488223E+04 -1.194983E+05 -1.811708E+03 -5.676591E+04
        49   7 -1.337969E+04  7.681869E+04  1.675320E+04 -1.107881E+05  3.908582E+03 -8.867982E+02
        49   8  3.274842E+04  2.244566E+05  6.574619E+04 -1.098692E+05 -2.996881E+03 -3.189832E+04
        49   9  1.390947E+05  3.911204E+05  1.499548E+05 -1.592354E+05 -1.802391E+03 -6.291192E+04
        49  10  9.607566E+03  1.734155E+05  3.492111E+04 -1.283262E+05 -5.584554E-10  7.538983E-10
        49  11 -2.039372E+04  8.410926E+03  1.636258E+04 -7.890926E+04  1.109959E-09 -6.489390E-10
        49  12  6.531587E+03 -1.408519E+05  1.980061E+04 -7.977826E+04 -1.526564E-11 -1.677968E-09
        49  13 -1.886148E+03  1.251159E+05  2.583717E+04 -1.195568E+05 -1.932815E-09  4.229636E-10
        49  14  6.177168E+03  1.164275E+05  4.105374E+04 -9.438792E+04  3.464388E-10  4.262183E-10
        49  15  7.281227E+04  1.250982E+05  8.487617E+04 -1.194984E+05  2.159961E-10  1.235286E-10
        49  16 -1.337971E+04  7.681868E+04  1.675317E+04 -1.107881E+05 -3.413298E-10 -5.703642E-10
        49  17  3.274814E+04  2.244555E+05  6.574426E+04 -1.098693E+05 -1.704268E-09  4.759977E-10
        49  18  1.390936E+05  3.911162E+05  1.499474E+05 -1.592355E+05  1.698426E-09  1.455458E-09
        49  19  9.607774E+03  1.734163E+05  3.492248E+04 -1.283263E+05 -3.932470E+03  2.672170E+04
        49  20 -2.039331E+04  8.412535E+03  1.636541E+04 -7.890917E+04  2.992853E+03  3.867637E+04
        49  21  6.532279E+03 -1.408492E+05  1.980543E+04 -7.977818E+04  1.820242E+03  5.062252E+04
        49  22 -1.886080E+03  1.251161E+05  2.583756E+04 -1.195568E+05 -3.920344E+03  1.380376E+04
        49  23  6.177512E+03  1.164289E+05  4.105610E+04 -9.438783E+04  2.994782E+03  3.528764E+04
        49  24  7.281314E+04  1.251017E+05  8.488223E+04 -1.194983E+05  1.811708E+03  5.676591E+04
        49  25 -1.337969E+04  7.681869E+04  1.675320E+04 -1.107881E+05 -3.908582E+03  8.867982E+02
        49  26  3.274842E+04  2.244566E+05  6.574619E+04 -1.098692E+05  2.996881E+03  3.189832E+04
        49  27  1.390947E+05  3.911204E+05  1.499548E+05 -1.592354E+05  1.802391E+03  6.291192E+04
        50   1 -4.212105E+05 -1.253573E+05 -5.709099E+04 -1.660431E+05 -2.723172E+04 -8.986963E+03
        50   2 -4.077617E+05 -8.499226E+04 -3.114806E+04 -1.607784E+05 -1.695261E+04 -2.652488E+03
        50   3 -4.013573E+05 -7.262015E+04 -2.012572E+04 -1.535356E+05 -5.794986E+03  1.339898E+03
        50   4 -3.525886E+05 -8.490771E+04 -3.610973E+04 -1.322186E+05 -2.355109E+04 -7.607630E+03
        50   5 -3.473413E+05 -5.709673E+04 -1.602664E+04 -1.384821E+05 -1.584896E+04 -2.238882E+03
        50   6 -3.486265E+05 -5.676685E+04 -8.820853E+03 -1.427680E+05 -7.268402E+03  7.874866E+02
        50   7 -2.839628E+05 -4.445608E+04 -1.512925E+04 -9.839063E+04 -1.987010E+04 -6.227938E+03
        50   8 -2.869174E+05 -2.920046E+04 -9.055831E+02 -1.161837E+05 -1.474519E+04 -1.825209E+03
        50   9 -2.958925E+05 -4.091338E+04  2.483993E+03 -1.319997E+05 -8.741967E+03  2.350410E+02
        50  10 -4.212113E+05 -1.253576E+05 -5.709253E+04 -1.660433E+05  6.125583E-10  3.494496E-11
        50  11 -4.077620E+05 -8.499234E+04 -3.114862E+04 -1.607785E+05 -4.585402E-09 -1.374014E-09
        50  12 -4.013573E+05 -7.262016E+04 -2.012578E+04 -1.535356E+05 -3.281904E-09 -1.053469E-09
        50  13 -3.525892E+05 -8.490792E+04 -3.611089E+04 -1.322187E+05 -1.954459E-09 -5.941621E-10
        50  14 -3.473416E+05 -5.709681E+04 -1.602713E+04 -1.384822E+05 -2.222946E-09 -1.615841E-09
        50  15 -3.486266E+05 -5.676686E+04 -8.820953E+03 -1.427680E+05 -2.225590E-09 -1.007940E-09
        50  16 -2.839632E+05 -4.445623E+04 -1.513007E+04 -9.839073E+04 -2.856870E-09 -1.189911E-09
        50  17 -2.869176E+05 -2.920052E+04 -9.059981E+02 -1.161838E+05 -2.913776E-09 -1.722987E-09
        50  18 -2.958926E+05 -4.091340E+04  2.483850E+03 -1.319996E+05 -1.161424E-09 -8.965828E-10
        50  19 -4.212105E+05 -1.253573E+05 -5.709099E+04 -1.660431E+05  2.723172E+04  8.986963E+03
        50  20 -4.077617E+05 -8.499226E+04 -3.114806E+04 -1.607784E+05  1.695261E+04  2.652488E+03
        50  21 -4.013573E+05 -7.262015E+04 -2.012572E+04 -1.535356E+05  5.794986E+03 -1.339898E+03
        50  22 -3.525886E+05 -8.490771E+04 -3.610973E+04 -1.322186E+05  2.355109E+04  7.607630E+03
        50  23 -3.473413E+05 -5.709673E+04 -1.602664E+04 -1.384821E+05  1.584896E+04  2.238882E+03
        50  24 -3.486265E+05 -5.676685E+04 -8.820853E+03 -1.427680E+05  7.268402E+03 -7.874866E+02
        50  25 -2.839628E+05 -4.445608E+04 -1.512925E+04 -9.839063E+04  1.987010E+04  6.227938E+03
        50  26 -2.869174E+05 -2.920046E+04 -9.055831E+02 -1.161837E+05  1.474519E+04  1.825209E+03
        50  27 -2.958925E+05 -4.091338E+04  2.483993E+03 -1.319997E+05  8.741967E+03 -2.350410E+02
        51   1 -3.863998E+05 -7.350464E+04 -1.575306E+04 -1.525857E+05 -5.079439E+03  7.986402E+02
        51   2 -3.734711E+05 -6.488184E+04 -9.146414E+03 -1.465610E+05 -2.819662E+03  6.936759E+02
        51   3 -3.575821E+05 -6.106667E+04 -4.297826E+03 -1.444958E+05 -5.163389E+02  4.726397E+02
        51   4 -3.474978E+05 -5.873472E+04 -6.874716E+03 -1.414583E+05 -5.934554E+03  4.780236E+02
        51   5 -3.489039E+05 -5.573110E+04 -3.605179E+03 -1.397080E+05 -3.802398E+03  3.252310E+02
        51   6 -3.473248E+05 -5.750972E+04 -1.992443E+03 -1.419172E+05 -1.626775E+03  5.634678E+01
        51   7 -3.085941E+05 -4.396461E+04  2.003568E+03 -1.303302E+05 -6.789729E+03  1.573825E+02
        51   8 -3.243364E+05 -4.658041E+04  1.935949E+03 -1.328549E+05 -4.785166E+03 -4.322614E+01
        51   9 -3.370676E+05 -5.395285E+04  3.128692E+02 -1.393386E+05 -2.737204E+03 -3.599422E+02
        51  10 -3.863998E+05 -7.350465E+04 -1.575311E+04 -1.525857E+05  2.870810E-10 -1.685016E-10
        51  11 -3.734711E+05 -6.488185E+04 -9.146430E+03 -1.465610E+05  1.132896E-09 -2.980201E-10
        51  12 -3.575821E+05 -6.106667E+04 -4.297827E+03 -1.444958E+05 -6.870759E-10  2.575676E-10
        51  13 -3.474978E+05 -5.873473E+04 -6.874783E+03 -1.414583E+05 -9.161167E-10 -4.383431E-10
        51  14 -3.489039E+05 -5.573111E+04 -3.605206E+03 -1.397080E+05 -4.067710E-10  8.486616E-11
        51  15 -3.473248E+05 -5.750972E+04 -1.992448E+03 -1.419172E+05 -1.095774E-09  3.399504E-10
        51  16 -3.085941E+05 -4.396462E+04  2.003482E+03 -1.303302E+05 -1.092960E-09 -7.596399E-10
        51  17 -3.243364E+05 -4.658042E+04  1.935906E+03 -1.328549E+05 -2.000733E-09  1.014113E-10
        51  18 -3.370676E+05 -5.395285E+04  3.128548E+02 -1.393386E+05 -5.815391E-10  4.616778E-10
        51  19 -3.863998E+05 -7.350464E+04 -1.575306E+04 -1.525857E+05  5.079439E+03 -7.986402E+02
        51  20 -3.734711E+05 -6.488184E+04 -9.146414E+03 -1.465610E+05  2.819662E+03 -6.936759E+02
        51  21 -3.575821E+05 -6.106667E+04 -4.297826E+03 -1.444958E+05  5.163389E+02 -4.726397E+02
        51  22 -3.474978E+05 -5.873472E+04 -6.874716E+03 -1.414583E+05  5.934554E+03 -4.780236E+02
        51  23 -3.489039E+05 -5.573110E+04 -3.605179E+03 -1.397080E+05  3.802398E+03 -3.252310E+02
        51  24 -3.473248E+05 -5.750972E+04 -1.992443E+03 -1.419172E+05  1.626775E+03 -5.634678E+01
        51  25 -3.085941E+05 -4.396461E+04  2.003568E+03 -1.303302E+05  6.789729E+03 -1.573825E+02
        51  26 -3.243364E+05 -4.658041E+04  1.935949E+03 -1.328549E+05  4.785166E+03  4.322614E+01
        51  27 -3.370676E+05 -5.395285E+04  3.128692E+02 -1.393386E+05  2.737204E+03  3.599422E+02
        52   1 -3.465135E+05 -5.727623E+04 -1.299541E+03 -1.416056E+05 -4.677267E+01 -1.718848E+01
        52   2 -3.337333E+05 -5.005065E+04  2.585489E+03 -1.355168E+05  7.451237E+02 -8.425102E+02
        52   3 -3.173830E+05 -4.653156E+04  6.141455E+03 -1.336112E+05  1.539097E+03 -1.673215E+03
        52   4 -3.472400E+05 -5.759259E+04 -1.508417E+03 -1.418462E+05 -1.126679E+03 -4.220334E+02
        52   5 -3.490226E+05 -5.572056E+04 -8.357734E+02 -1.397617E+05 -3.407416E+02 -1.249611E+03
        52   6 -3.472343E+05 -5.755398E+04 -4.874999E+02 -1.418606E+05  4.472605E+02 -2.082574E+03
        52   7 -3.479665E+05 -5.790895E+04 -1.717293E+03 -1.420869E+05 -2.206607E+03 -8.268861E+02
        52   8 -3.643120E+05 -6.139054E+04 -4.257121E+03 -1.440066E+05 -1.426597E+03 -1.656708E+03
        52   9 -3.770852E+05 -6.857650E+04 -7.116627E+03 -1.501098E+05 -6.445350E+02 -2.491917E+03
        52  10 -3.465135E+05 -5.727623E+04 -1.299541E+03 -1.416056E+05 -1.092605E-09  5.599900E-10
        52  11 -3.337333E+05 -5.005065E+04  2.585486E+03 -1.355168E+05  1.413792E-09  1.131496E-10
        52  12 -3.173831E+05 -4.653157E+04  6.141445E+03 -1.336112E+05  1.771555E-10 -5.566957E-11
        52  13 -3.472400E+05 -5.759259E+04 -1.508420E+03 -1.418462E+05 -2.000471E-10  5.060038E-10
        52  14 -3.490226E+05 -5.572056E+04 -8.357765E+02 -1.397617E+05  1.737215E-10  2.558746E-10
        52  15 -3.472343E+05 -5.755399E+04 -4.875085E+02 -1.418606E+05  1.232675E-09 -1.249703E-09
        52  16 -3.479665E+05 -5.790895E+04 -1.717303E+03 -1.420869E+05 -2.577904E-10  5.110474E-10
        52  17 -3.643120E+05 -6.139055E+04 -4.257130E+03 -1.440066E+05 -9.248515E-10 -6.225671E-11
        52  18 -3.770852E+05 -6.857651E+04 -7.116639E+03 -1.501098E+05  1.308327E-09 -2.474055E-09
        52  19 -3.465135E+05 -5.727623E+04 -1.299541E+03 -1.416056E+05  4.677267E+01  1.718848E+01
        52  20 -3.337333E+05 -5.005065E+04  2.585489E+03 -1.355168E+05 -7.451237E+02  8.425102E+02
        52  21 -3.173830E+05 -4.653156E+04  6.141455E+03 -1.336112E+05 -1.539097E+03  1.673215E+03
        52  22 -3.472400E+05 -5.759259E+04 -1.508417E+03 -1.418462E+05  1.126679E+03  4.220334E+02
        52  23 -3.490226E+05 -5.572056E+04 -8.357734E+02 -1.397617E+05  3.407416E+02  1.249611E+03
        52  24 -3.472343E+05 -5.755398E+04 -4.874999E+02 -1.418606E+05 -4.472605E+02  2.082574E+03
        52  25 -3.479665E+05 -5.790895E+04 -1.717293E+03 -1.420869E+05  2.206607E+03  8.268861E+02
        52  26 -3.643120E+05 -6.139054E+04 -4.257121E+03 -1.440066E+05  1.426597E+03  1.656708E+03
        52  27 -3.770852E+05 -6.857650E+04 -7.116627E+03 -1.501098E+05  6.445350E+02  2.491917E+03
        53   1 -3.065412E+05 -4.253354E+04  8.755330E+03 -1.306394E+05  1.826274E+03 -2.223771E+03
        53   2 -2.938057E+05 -3.536285E+04  1.206799E+04 -1.245480E+05  2.335825E+03 -3.162143E+03
        53   3 -2.774476E+05 -3.183999E+04  1.527694E+04 -1.226358E+05  2.845323E+03 -4.100212E+03
        53   4 -3.472255E+05 -5.755550E+04 -3.881068E+02 -1.418545E+05  7.362433E+02 -2.632465E+03
        53   5 -3.490369E+05 -5.573245E+04 -2.783129E+02 -1.397647E+05  1.246090E+03 -3.570756E+03
        53   6 -3.472259E+05 -5.755712E+04 -2.724120E+02 -1.418540E+05  1.755886E+03 -4.508752E+03
        53   7 -3.879072E+05 -7.257695E+04 -9.531365E+03 -1.530687E+05 -3.536832E+02 -3.041120E+03
        53   8 -4.042646E+05 -7.610167E+04 -1.262469E+04 -1.549801E+05  1.564682E+02 -3.979327E+03
        53   9 -4.170000E+05 -8.327414E+04 -1.582226E+04 -1.610704E+05  6.665710E+02 -4.917246E+03
        53  10 -3.065412E+05 -4.253354E+04  8.755314E+03 -1.306394E+05 -3.418615E-09 -1.182538E-09
        53  11 -2.938057E+05 -3.536286E+04  1.206796E+04 -1.245480E+05  2.666302E-09  8.904930E-10
        53  12 -2.774476E+05 -3.184001E+04  1.527689E+04 -1.226358E+05  3.468853E-09  1.148383E-09
        53  13 -3.472255E+05 -5.755551E+04 -3.881208E+02 -1.418545E+05  1.427502E-09 -6.343010E-10
        53  14 -3.490369E+05 -5.573247E+04 -2.783398E+02 -1.397647E+05  2.185117E-09  1.202811E-09
        53  15 -3.472259E+05 -5.755714E+04 -2.724560E+02 -1.418540E+05 -2.251034E-10  1.198265E-09
        53  16 -3.879072E+05 -7.257696E+04 -9.531382E+03 -1.530687E+05  5.253756E-09 -3.632617E-10
        53  17 -4.042646E+05 -7.610169E+04 -1.262472E+04 -1.549801E+05  2.785798E-09  1.843692E-09
        53  18 -4.170000E+05 -8.327417E+04 -1.582231E+04 -1.610704E+05 -3.102362E-10  1.283120E-09
        53  19 -3.065412E+05 -4.253354E+04  8.755330E+03 -1.306394E+05 -1.826274E+03  2.223771E+03
        53  20 -2.938057E+05 -3.536285E+04  1.206799E+04 -1.245480E+05 -2.335825E+03  3.162143E+03
        53  21 -2.774476E+05 -3.183999E+04  1.527694E+04 -1.226358E+05 -2.845323E+03  4.100212E+03
        53  22 -3.472255E+05 -5.755550E+04 -3.881068E+02 -1.418545E+05 -7.362433E+02  2.632465E+03
        53  23 -3.490369E+05 -5.573245E+04 -2.783129E+02 -1.397647E+05 -1.246090E+03  3.570756E+03
        53  24 -3.472259E+05 -5.755712E+04 -2.724120E+02 -1.418540E+05 -1.755886E+03  4.508752E+03
        53  25 -3.879072E+05 -7.257695E+04 -9.531365E+03 -1.530687E+05  3.536832E+02  3.041120E+03
        53  26 -4.042646E+05 -7.610167E+04 -1.262469E+04 -1.549801E+05 -1.564682E+02  3.979327E+03
        53  27 -4.170000E+05 -8.327414E+04 -1.582226E+04 -1.610704E+05 -6.665710E+02  4.917246E+03
        54   1 -2.666401E+05 -2.783800E+04  1.775659E+04 -1.196652E+05  3.108699E+03 -4.658331E+03
        54   2 -2.539263E+05 -2.068242E+04  2.079995E+04 -1.135899E+05  3.704388E+03 -5.562146E+03
        54   3 -2.376093E+05 -1.717084E+04  2.367460E+04 -1.116868E+05  4.299527E+03 -6.464199E+03
        54   4 -3.472307E+05 -5.755601E+04 -3.041615E+02 -1.418528E+05  2.019978E+03 -5.066636E+03
        54   5 -3.490325E+05 -5.573308E+04 -4.557848E+02 -1.397672E+05  2.617546E+03 -5.969812E+03
        54   6 -3.472316E+05 -5.755456E+04 -7.775834E+02 -1.418539E+05  3.214559E+03 -6.871224E+03
        54   7 -4.278147E+05 -8.727351E+04 -1.836532E+04 -1.640378E+05  9.314098E+02 -5.474884E+03
        54   8 -4.441293E+05 -9.078292E+04 -2.171199E+04 -1.659407E+05  1.530889E+03 -6.377408E+03
        54   9 -4.568411E+05 -9.793710E+04 -2.523031E+04 -1.720159E+05  2.129805E+03 -7.278169E+03
        54  10 -2.666401E+05 -2.783803E+04  1.775653E+04 -1.196652E+05  1.347550E-09  3.830252E-10
        54  11 -2.539263E+05 -2.068246E+04  2.079986E+04 -1.135899E+05  1.625410E-09  6.770424E-11
        54  12 -2.376094E+05 -1.717089E+04  2.367448E+04 -1.116867E+05 -4.258425E-09 -1.600933E-09
        54  13 -3.472307E+05 -5.755604E+04 -3.042173E+02 -1.418528E+05  8.178400E-10  7.403197E-10
        54  14 -3.490325E+05 -5.573312E+04 -4.558646E+02 -1.397672E+05 -6.069946E-10  2.488264E-10
        54  15 -3.472317E+05 -5.755462E+04 -7.776915E+02 -1.418539E+05 -3.597997E-09 -9.028464E-10
        54  16 -4.278147E+05 -8.727354E+04 -1.836538E+04 -1.640378E+05  7.022404E-11  1.173102E-09
        54  17 -4.441293E+05 -9.078296E+04 -2.171207E+04 -1.659407E+05 -3.422537E-10  4.344264E-10
        54  18 -4.568412E+05 -9.793715E+04 -2.523042E+04 -1.720159E+05 -3.799015E-09 -2.185219E-10
        54  19 -2.666401E+05 -2.783800E+04  1.775659E+04 -1.196652E+05 -3.108699E+03  4.658331E+03
        54  20 -2.539263E+05 -2.068242E+04  2.079995E+04 -1.135899E+05 -3.704388E+03  5.562146E+03
        54  21 -2.376093E+05 -1.717084E+04  2.367460E+04 -1.116868E+05 -4.299527E+03  6.464199E+03
        54  22 -3.472307E+05 -5.755601E+04 -3.041615E+02 -1.418528E+05 -2.019978E+03  5.066636E+03
        54  23 -3.490325E+05 -5.573308E+04 -4.557848E+02 -1.397672E+05 -2.617546E+03  5.969812E+03
        54  24 -3.472316E+05 -5.755456E+04 -7.775834E+02 -1.418539E+05 -3.214559E+03  6.871224E+03
        54  25 -4.278147E+05 -8.727351E+04 -1.836532E+04 -1.640378E+05 -9.314098E+02  5.474884E+03
        54  26 -4.441293E+05 -9.078292E+04 -2.171199E+04 -1.659407E+05 -1.530889E+03  6.377408E+03
        54  27 -4.568411E+05 -9.793710E+04 -2.523031E+04 -1.720159E+05 -2.129805E+03  7.278169E+03
        55   1 -2.268403E+05 -1.318779E+04  2.593220E+04 -1.087498E+05  4.667576E+03 -6.982098E+03
        55   2 -2.141127E+05 -6.043080E+03  2.830689E+04 -1.026806E+05  5.932700E+03 -7.625032E+03
        55   3 -1.979210E+05 -2.648555E+03  2.998434E+04 -1.007684E+05  7.191537E+03 -8.250630E+03
        55   4 -3.472591E+05 -5.754739E+04 -1.023736E+03 -1.418625E+05  3.579647E+03 -7.390282E+03
        55   5 -3.489962E+05 -5.571560E+04 -1.836422E+03 -1.397672E+05  4.863591E+03 -8.026253E+03
        55   6 -3.472735E+05 -5.763802E+04 -3.361457E+03 -1.418292E+05  6.141220E+03 -8.644892E+03
        55   7 -4.676641E+05 -1.019062E+05 -2.798081E+04 -1.749695E+05  2.491939E+03 -7.798383E+03
        55   8 -4.838620E+05 -1.053869E+05 -3.198101E+04 -1.768465E+05  3.794729E+03 -8.427381E+03
        55   9 -4.966036E+05 -1.126258E+05 -3.670867E+04 -1.828810E+05  5.091177E+03 -9.039052E+03
        55  10 -2.268403E+05 -1.318785E+04  2.593207E+04 -1.087497E+05 -2.364445E-08 -9.868595E-09
        55  11 -2.141127E+05 -6.043152E+03  2.830672E+04 -1.026805E+05 -2.482456E-09 -2.625818E-09
        55  12 -1.979210E+05 -2.648642E+03  2.998412E+04 -1.007683E+05  2.017836E-08  6.952271E-09
        55  13 -3.472591E+05 -5.754745E+04 -1.023863E+03 -1.418624E+05 -1.534320E-09 -1.980799E-09
        55  14 -3.489963E+05 -5.571568E+04 -1.836587E+03 -1.397671E+05 -2.329836E-09 -2.758612E-09
        55  15 -3.472736E+05 -5.763811E+04 -3.361669E+03 -1.418291E+05 -1.804862E-09 -1.167926E-09
        55  16 -4.676641E+05 -1.019063E+05 -2.798093E+04 -1.749695E+05  1.722613E-08  5.899223E-09
        55  17 -4.838620E+05 -1.053870E+05 -3.198117E+04 -1.768465E+05 -6.800986E-10 -2.739586E-09
        55  18 -4.966037E+05 -1.126259E+05 -3.670887E+04 -1.828809E+05 -1.985151E-08 -9.279923E-09
        55  19 -2.268403E+05 -1.318779E+04  2.593220E+04 -1.087498E+05 -4.667576E+03  6.982098E+03
        55  20 -2.141127E+05 -6.043080E+03  2.830689E+04 -1.026806E+05 -5.932700E+03  7.625032E+03
        55  21 -1.979210E+05 -2.648555E+03  2.998434E+04 -1.007684E+05 -7.191537E+03  8.250630E+03
        55  22 -3.472591E+05 -5.754739E+04 -1.023736E+03 -1.418625E+05 -3.579647E+03  7.390282E+03
        55  23 -3.489962E+05 -5.571560E+04 -1.836422E+03 -1.397672E+05 -4.863591E+03  8.026253E+03
        55  24 -3.472735E+05 -5.763802E+04 -3.361457E+03 -1.418292E+05 -6.141220E+03  8.644892E+03
        55  25 -4.676641E+05 -1.019062E+05 -2.798081E+04 -1.749695E+05 -2.491939E+03  7.798383E+03
        55  26 -4.838620E+05 -1.053869E+05 -3.198101E+04 -1.768465E+05 -3.794729E+03  8.427381E+03
        55  27 -4.966036E+05 -1.126258E+05 -3.670867E+04 -1.828810E+05 -5.091177E+03  9.039052E+03
        56   1 -1.870601E+05  1.204564E+03  3.137536E+04 -9.832535E+04  8.123399E+03 -8.573900E+03
        56   2 -1.744895E+05  8.740109E+03  3.100360E+04 -9.143095E+04  1.217081E+04 -8.045632E+03
        56   3 -1.597188E+05  1.019458E+04  2.720196E+04 -8.817039E+04  1.609768E+04 -7.195491E+03
        56   4 -3.474686E+05 -5.744910E+04 -4.451967E+03 -1.419841E+05  6.990084E+03 -8.999361E+03
        56   5 -3.487279E+05 -5.574782E+04 -8.075600E+03 -1.396519E+05  1.139062E+04 -8.338709E+03
        56   6 -3.478580E+05 -6.019805E+04 -1.540970E+04 -1.409536E+05  1.567054E+04 -7.356174E+03
        56   7 -5.078501E+05 -1.161005E+05 -4.028063E+04 -1.856323E+05  5.857094E+03 -9.424703E+03
        56   8 -5.229358E+05 -1.202334E+05 -4.715673E+04 -1.878605E+05  1.061066E+04 -8.631696E+03
        56   9 -5.359627E+05 -1.305882E+05 -5.802399E+04 -1.937224E+05  1.524353E+04 -7.516803E+03
        56  10 -1.870602E+05  1.204467E+03  3.137510E+04 -9.832529E+04  3.436407E-09  1.170077E-09
        56  11 -1.744897E+05  8.740000E+03  3.100320E+04 -9.143087E+04  3.072350E-10  1.406725E-09
        56  12 -1.597191E+05  1.019446E+04  2.720138E+04 -8.817030E+04 -5.459136E-10  6.998521E-10
        56  13 -3.474687E+05 -5.744920E+04 -4.452211E+03 -1.419841E+05  1.002442E-09  1.645334E-10
        56  14 -3.487281E+05 -5.574793E+04 -8.075975E+03 -1.396519E+05  1.290966E-09  9.991102E-10
        56  15 -3.478582E+05 -6.019818E+04 -1.541026E+04 -1.409535E+05 -3.050772E-09  2.556709E-10
        56  16 -5.078502E+05 -1.161006E+05 -4.028086E+04 -1.856323E+05 -1.950359E-09 -7.739918E-10
        56  17 -5.229360E+05 -1.202335E+05 -4.715708E+04 -1.878604E+05 -3.515058E-09  8.068121E-10
        56  18 -5.359629E+05 -1.305883E+05 -5.802454E+04 -1.937223E+05 -4.816499E-09 -1.017075E-10
        56  19 -1.870601E+05  1.204564E+03  3.137536E+04 -9.832535E+04 -8.123399E+03  8.573900E+03
        56  20 -1.744895E+05  8.740109E+03  3.100360E+04 -9.143095E+04 -1.217081E+04  8.045632E+03
        56  21 -1.597188E+05  1.019458E+04  2.720196E+04 -8.817039E+04 -1.609768E+04  7.195491E+03
        56  22 -3.474686E+05 -5.744910E+04 -4.451967E+03 -1.419841E+05 -6.990084E+03  8.999361E+03
        56  23 -3.487279E+05 -5.574782E+04 -8.075600E+03 -1.396519E+05 -1.139062E+04  8.338709E+03
        56  24 -3.478580E+05 -6.019805E+04 -1.540970E+04 -1.409536E+05 -1.567054E+04  7.356174E+03
        56  25 -5.078501E+05 -1.161005E+05 -4.028063E+04 -1.856323E+05 -5.857094E+03  9.424703E+03
        56  26 -5.229358E+05 -1.202334E+05 -4.715673E+04 -1.878605E+05 -1.061066E+04  8.631696E+03
        56  27 -5.359627E+05 -1.305882E+05 -5.802399E+04 -1.937224E+05 -1.524353E+04  7.516803E+03
        57   1 -1.448076E+05  1.201744E+04  2.507369E+04 -9.561103E+04  2.055042E+04 -6.592561E+03
        57   2 -1.407894E+05  2.927929E+04  1.376295E+04 -6.789473E+04  3.204029E+04 -7.966193E+02
        57   3 -1.546301E+05 -9.007967E+03 -2.076978E+04 -3.042535E+04  4.110056E+04  1.147091E+04
        57   4 -3.503995E+05 -5.577608E+04 -1.977427E+04 -1.438778E+05  1.841506E+04 -7.394203E+03
        57   5 -3.452127E+05 -5.882580E+04 -3.593203E+04 -1.369191E+05  3.702335E+04  1.073075E+03
        57   6 -3.593033E+05 -1.188477E+05 -8.095896E+04 -1.202055E+05  5.320123E+04  1.601188E+04
        57   7 -5.559489E+05 -1.235684E+05 -6.462471E+04 -1.921309E+05  1.628047E+04 -8.195629E+03
        57   8 -5.495928E+05 -1.469231E+05 -8.562974E+04 -2.059210E+05  4.200461E+04  2.941843E+03
        57   9 -5.639311E+05 -2.286690E+05 -1.411509E+05 -2.099538E+05  6.529746E+04  2.054956E+04
        57  10 -1.448081E+05  1.201728E+04  2.507282E+04 -9.561092E+04 -2.660041E-09  9.777665E-11
        57  11 -1.407905E+05  2.927902E+04  1.376102E+04 -6.789471E+04 -4.819786E-10  1.881580E-10
        57  12 -1.546319E+05 -9.008562E+03 -2.077321E+04 -3.042573E+04  1.587941E-09  7.032359E-11
        57  13 -3.503999E+05 -5.577623E+04 -1.977501E+04 -1.438777E+05 -3.100648E-09 -2.342994E-10
        57  14 -3.452142E+05 -5.882617E+04 -3.593461E+04 -1.369192E+05  1.561525E-09 -1.826095E-10
        57  15 -3.593064E+05 -1.188488E+05 -8.096476E+04 -1.202062E+05  3.238425E-10  3.470845E-10
        57  16 -5.559492E+05 -1.235685E+05 -6.462534E+04 -1.921308E+05 -2.613134E-09 -1.697736E-10
        57  17 -5.495947E+05 -1.469236E+05 -8.563308E+04 -2.059211E+05  6.957282E-10 -8.742705E-11
        57  18 -5.639358E+05 -2.286706E+05 -1.411597E+05 -2.099549E+05  9.862834E-11  4.734096E-11
        57  19 -1.448076E+05  1.201744E+04  2.507369E+04 -9.561103E+04 -2.055042E+04  6.592561E+03
        57  20 -1.407894E+05  2.927929E+04  1.376295E+04 -6.789473E+04 -3.204029E+04  7.966193E+02
        57  21 -1.546301E+05 -9.007967E+03 -2.076978E+04 -3.042535E+04 -4.110056E+04 -1.147091E+04
        57  22 -3.503995E+05 -5.577608E+04 -1.977427E+04 -1.438778E+05 -1.841506E+04  7.394203E+03
        57  23 -3.452127E+05 -5.882580E+04 -3.593203E+04 -1.369191E+05 -3.702335E+04 -1.073075E+03
        57  24 -3.593033E+05 -1.188477E+05 -8.095896E+04 -1.202055E+05 -5.320123E+04 -1.601188E+04
        57  25 -5.559489E+05 -1.235684E+05 -6.462471E+04 -1.921309E+05 -1.628047E+04  8.195629E+03
        57  26 -5.495928E+05 -1.469231E+05 -8.562974E+04 -2.059210E+05 -4.200461E+04 -2.941843E+03
        57  27 -5.639311E+05 -2.286690E+05 -1.411509E+05 -2.099538E+05 -6.529746E+04 -2.054956E+04
        58   1 -2.510481E+04 -3.518302E+03 -4.097701E+03 -1.910621E+03 -2.825736E+03  8.696563E-03
        58   2 -2.468581E+04 -2.932286E+02 -1.916779E+03 -7.402897E+02 -1.820906E+03  2.171354E-03
        58   3 -2.510477E+04  1.034712E+02 -1.097166E+03  4.300600E+02 -8.160612E+02 -5.653190E-04
        58   4 -2.510481E+04 -3.518309E+03 -4.097702E+03  5.298627E-09 -2.825736E+03 -1.396260E-11
        58   5 -2.468581E+04 -2.932297E+02 -1.916779E+03  4.838503E-09 -1.820906E+03 -5.220158E-11
        58   6 -2.510477E+04  1.034709E+02 -1.097166E+03  6.801535E-09 -8.160612E+02 -4.307255E-11
        58   7 -2.510481E+04 -3.518302E+03 -4.097701E+03  1.910621E+03 -2.825736E+03 -8.696563E-03
        58   8 -2.468581E+04 -2.932286E+02 -1.916779E+03  7.402897E+02 -1.820906E+03 -2.171354E-03
        58   9 -2.510477E+04  1.034712E+02 -1.097166E+03 -4.300600E+02 -8.160612E+02  5.653190E-04
        58  10 -2.510482E+04 -3.518304E+03 -4.097716E+03 -1.910621E+03  8.268355E-10 -6.251741E-11
        58  11 -2.468581E+04 -2.932295E+02 -1.916785E+03 -7.402897E+02 -1.112411E-09 -1.476009E-10
        58  12 -2.510477E+04  1.034711E+02 -1.097167E+03  4.300600E+02 -1.705652E-09 -2.345040E-11
        58  13 -2.510482E+04 -3.518311E+03 -4.097717E+03 -9.033216E-11  1.069711E-09 -5.507166E-12
        58  14 -2.468581E+04 -2.932306E+02 -1.916785E+03  6.999226E-09 -5.472427E-10 -1.637645E-12
        58  15 -2.510477E+04  1.034707E+02 -1.097167E+03  4.934834E-09 -5.282297E-10  3.608713E-11
        58  16 -2.510482E+04 -3.518304E+03 -4.097716E+03  1.910621E+03  2.460737E-10  5.412303E-11
        58  17 -2.468581E+04 -2.932295E+02 -1.916785E+03  7.402897E+02  1.354477E-11  1.445392E-10
        58  18 -2.510477E+04  1.034711E+02 -1.097167E+03 -4.300600E+02 -9.609843E-10  9.514537E-11
        58  19 -2.510481E+04 -3.518302E+03 -4.097701E+03 -1.910621E+03  2.825736E+03 -8.696563E-03
        58  20 -2.468581E+04 -2.932286E+02 -1.916779E+03 -7.402897E+02  1.820906E+03 -2.171354E-03
        58  21 -2.510477E+04  1.034712E+02 -1.097166E+03  4.300600E+02  8.160612E+02  5.653190E-04
        58  22 -2.510481E+04 -3.518309E+03 -4.097702E+03  7.444047E-09  2.825736E+03  3.088573E-12
        58  23 -2.468581E+04 -2.932297E+02 -1.916779E+03  7.006103E-09  1.820906E+03  4.888320E-11
        58  24 -2.510477E+04  1.034709E+02 -1.097166E+03  1.060672E-08  8.160612E+02  1.154843E-10
        58  25 -2.510481E+04 -3.518302E+03 -4.097701E+03  1.910621E+03  2.825736E+03  8.696563E-03
        58  26 -2.468581E+04 -2.932286E+02 -1.916779E+03  7.402897E+02  1.820906E+03  2.171354E-03
        58  27 -2.510477E+04  1.034712E+02 -1.097166E+03 -4.300600E+02  8.160612E+02 -5.653188E-04
        59   1 -2.493262E+04 -1.409609E+02 -8.621346E+02 -4.624550E+01 -6.664539E+02  4.964591E-05
        59   2 -2.490099E+04 -3.143920E+00 -4.877965E+02 -9.244299E+00 -4.229507E+02  6.298929E-06
        59   3 -2.493261E+04  8.491109E+00 -3.035395E+02  2.775690E+01 -1.794474E+02 -8.022303E-06
        59   4 -2.493262E+04 -1.409609E+02 -8.621346E+02  6.510040E-09 -6.664539E+02  1.593374E-10
        59   5 -2.490099E+04 -3.143920E+00 -4.877965E+02 -1.968292E-10 -4.229507E+02  6.628982E-10
        59   6 -2.493261E+04  8.491108E+00 -3.035395E+02  7.635409E-09 -1.794474E+02  9.333360E-10
        59   7 -2.493262E+04 -1.409609E+02 -8.621346E+02  4.624550E+01 -6.664539E+02 -4.964560E-05
        59   8 -2.490099E+04 -3.143920E+00 -4.877965E+02  9.244299E+00 -4.229507E+02 -6.297599E-06
        59   9 -2.493261E+04  8.491109E+00 -3.035395E+02 -2.775690E+01 -1.794474E+02  8.024166E-06
        59  10 -2.493262E+04 -1.409611E+02 -8.621355E+02 -4.624550E+01 -1.638338E-09  2.384944E-10
        59  11 -2.490099E+04 -3.143968E+00 -4.877968E+02 -9.244299E+00 -1.649552E-09  5.074445E-10
        59  12 -2.493261E+04  8.491101E+00 -3.035395E+02  2.775690E+01 -9.674608E-10  1.927426E-10
        59  13 -2.493262E+04 -1.409611E+02 -8.621355E+02  3.369727E-09 -9.489651E-12  1.442613E-10
        59  14 -2.490099E+04 -3.143968E+00 -4.877968E+02  3.580070E-09 -1.629153E-09  2.934319E-10
        59  15 -2.493261E+04  8.491099E+00 -3.035395E+02  4.598397E-09  7.912088E-12  1.908170E-10
        59  16 -2.493262E+04 -1.409611E+02 -8.621355E+02  4.624550E+01  2.943818E-10  4.924453E-11
        59  17 -2.490099E+04 -3.143968E+00 -4.877968E+02  9.244299E+00 -1.325673E-09  7.929333E-11
        59  18 -2.493261E+04  8.491101E+00 -3.035395E+02 -2.775690E+01 -5.775124E-10  1.896784E-10
        59  19 -2.493262E+04 -1.409609E+02 -8.621346E+02 -4.624550E+01  6.664539E+02 -4.964543E-05
        59  20 -2.490099E+04 -3.143920E+00 -4.877965E+02 -9.244299E+00  4.229507E+02 -6.297905E-06
        59  21 -2.493261E+04  8.491109E+00 -3.035395E+02  2.775690E+01  1.794474E+02  8.022692E-06
        59  22 -2.493262E+04 -1.409609E+02 -8.621346E+02  9.922416E-09  6.664539E+02  1.293844E-10
        59  23 -2.490099E+04 -3.143920E+00 -4.877965E+02  1.972447E-09  4.229507E+02 -7.572104E-11
        59  24 -2.493261E+04  8.491108E+00 -3.035395E+02  9.638053E-09  1.794474E+02 -5.515495E-10
        59  25 -2.493262E+04 -1.409609E+02 -8.621346E+02  4.624550E+01  6.664539E+02  4.964569E-05
        59  26 -2.490099E+04 -3.143920E+00 -4.877965E+02  9.244299E+00  4.229507E+02  6.297751E-06
        59  27 -2.493261E+04  8.491109E+00 -3.035395E+02 -2.775690E+01  1.794474E+02 -8.023797E-06
        60   1 -2.492173E+04 -2.053846E+00 -2.509993E+02  5.286669E+00 -1.302810E+02 -1.109202E-06
        60   2 -2.491459E+04  4.127924E+00 -1.974178E+02  5.552104E-01 -3.265469E+01 -2.983301E-08
        60   3 -2.492173E+04  4.089545E+00 -2.089512E+02 -4.176178E+00  6.497013E+01 -4.366459E-07
        60   4 -2.492173E+04 -2.053846E+00 -2.509993E+02  2.648395E-09 -1.302810E+02  2.936249E-10
        60   5 -2.491459E+04  4.127924E+00 -1.974178E+02 -8.665009E-10 -3.265469E+01 -6.927887E-10
        60   6 -2.492173E+04  4.089545E+00 -2.089512E+02  4.772727E-09  6.497013E+01  3.878473E-10
        60   7 -2.492173E+04 -2.053846E+00 -2.509993E+02 -5.286669E+00 -1.302810E+02  1.109791E-06
        60   8 -2.491459E+04  4.127924E+00 -1.974178E+02 -5.552104E-01 -3.265469E+01  2.844700E-08
        60   9 -2.492173E+04  4.089545E+00 -2.089512E+02  4.176178E+00  6.497013E+01  4.374220E-07
        60  10 -2.492173E+04 -2.053851E+00 -2.509994E+02  5.286669E+00 -3.415197E-10 -8.853293E-11
        60  11 -2.491459E+04  4.127923E+00 -1.974178E+02  5.552104E-01 -2.657277E-10 -1.756655E-10
        60  12 -2.492173E+04  4.089544E+00 -2.089512E+02 -4.176178E+00 -5.209260E-10  1.033583E-11
        60  13 -2.492173E+04 -2.053851E+00 -2.509994E+02  1.429977E-09  1.083587E-09 -2.995127E-11
        60  14 -2.491459E+04  4.127923E+00 -1.974178E+02  2.368366E-09  2.153663E-09 -2.386681E-10
        60  15 -2.492173E+04  4.089544E+00 -2.089512E+02 -1.539711E-09 -5.186608E-10 -6.891793E-12
        60  16 -2.492173E+04 -2.053851E+00 -2.509994E+02 -5.286669E+00 -9.910673E-10  2.756420E-11
        60  17 -2.491459E+04  4.127923E+00 -1.974178E+02 -5.552104E-01 -2.435356E-10 -3.038298E-10
        60  18 -2.492173E+04  4.089544E+00 -2.089512E+02  4.176178E+00  1.869378E-09 -2.537350E-11
        60  19 -2.492173E+04 -2.053846E+00 -2.509993E+02  5.286669E+00  1.302810E+02  1.109029E-06
        60  20 -2.491459E+04  4.127924E+00 -1.974178E+02  5.552104E-01  3.265469E+01  2.948597E-08
        60  21 -2.492173E+04  4.089545E+00 -2.089512E+02 -4.176178E+00 -6.497013E+01  4.366701E-07
        60  22 -2.492173E+04 -2.053846E+00 -2.509993E+02  8.826838E-09  1.302810E+02 -3.534593E-10
        60  23 -2.491459E+04  4.127924E+00 -1.974178E+02  2.180546E-10  3.265469E+01  2.147390E-10
        60  24 -2.492173E+04  4.089545E+00 -2.089512E+02  6.148508E-09 -6.497013E+01 -4.021361E-10
        60  25 -2.492173E+04 -2.053846E+00 -2.509993E+02 -5.286669E+00  1.302810E+02 -1.109738E-06
        60  26 -2.491459E+04  4.127924E+00 -1.974178E+02 -5.552104E-01  3.265469E+01 -2.905585E-08
        60  27 -2.492173E+04  4.089545E+00 -2.089512E+02  4.176178E+00 -6.497013E+01 -4.374752E-07
        61   1 -2.492376E+04  3.491793E+00 -2.384280E+02 -6.569405E+00  1.055939E+02 -1.116387E-06
        61   2 -2.491206E+04  8.553131E+00 -3.560354E+02 -1.914745E+01  2.814669E+02 -8.680951E-06
        61   3 -2.492376E+04  1.160273E+01 -5.886489E+02 -3.172568E+01  4.573425E+02 -2.337326E-05
        61   4 -2.492376E+04  3.491793E+00 -2.384280E+02  7.820954E-09  1.055939E+02  8.979403E-10
        61   5 -2.491206E+04  8.553130E+00 -3.560354E+02  4.251281E-09  2.814669E+02  7.666178E-11
        61   6 -2.492376E+04  1.160273E+01 -5.886489E+02  6.335502E-09  4.573425E+02 -9.909176E-10
        61   7 -2.492376E+04  3.491793E+00 -2.384280E+02  6.569405E+00  1.055939E+02  1.118181E-06
        61   8 -2.491206E+04  8.553131E+00 -3.560354E+02  1.914745E+01  2.814669E+02  8.681097E-06
        61   9 -2.492376E+04  1.160273E+01 -5.886489E+02  3.172568E+01  4.573425E+02  2.337129E-05
        61  10 -2.492376E+04  3.491790E+00 -2.384280E+02 -6.569405E+00  1.287055E-09  1.949043E-10
        61  11 -2.491206E+04  8.553110E+00 -3.560356E+02 -1.914745E+01  2.089286E-09  7.931505E-11
        61  12 -2.492376E+04  1.160267E+01 -5.886493E+02 -3.172568E+01  6.642756E-10 -6.399540E-10
        61  13 -2.492376E+04  3.491790E+00 -2.384280E+02  2.371588E-09  1.076963E-09  8.563845E-11
        61  14 -2.491206E+04  8.553109E+00 -3.560356E+02 -1.174405E-10 -1.072474E-09 -1.047370E-10
        61  15 -2.492376E+04  1.160267E+01 -5.886493E+02  2.239998E-09 -1.354726E-09 -2.825372E-10
        61  16 -2.492376E+04  3.491790E+00 -2.384280E+02  6.569405E+00 -7.534572E-10 -2.452778E-11
        61  17 -2.491206E+04  8.553110E+00 -3.560356E+02  1.914745E+01 -2.888031E-09 -2.866639E-10
        61  18 -2.492376E+04  1.160267E+01 -5.886493E+02  3.172568E+01  4.158873E-10  7.451897E-11
        61  19 -2.492376E+04  3.491793E+00 -2.384280E+02 -6.569405E+00 -1.055939E+02  1.116778E-06
        61  20 -2.491206E+04  8.553131E+00 -3.560354E+02 -1.914745E+01 -2.814669E+02  8.681107E-06
        61  21 -2.492376E+04  1.160273E+01 -5.886489E+02 -3.172568E+01 -4.573425E+02  2.337199E-05
        61  22 -2.492376E+04  3.491793E+00 -2.384280E+02  3.383970E-09 -1.055939E+02 -7.264668E-10
        61  23 -2.491206E+04  8.553130E+00 -3.560354E+02 -7.178210E-09 -2.814669E+02 -2.851390E-10
        61  24 -2.492376E+04  1.160273E+01 -5.886489E+02  2.721556E-09 -4.573425E+02  4.252844E-10
        61  25 -2.492376E+04  3.491793E+00 -2.384280E+02  6.569405E+00 -1.055939E+02 -1.118231E-06
        61  26 -2.491206E+04  8.553131E+00 -3.560354E+02  1.914745E+01 -2.814669E+02 -8.681678E-06
        61  27 -2.492376E+04  1.160273E+01 -5.886489E+02  3.172568E+01 -4.573425E+02 -2.337113E-05
        62   1 -2.493834E+04  1.155543E+01 -7.677136E+02 -3.783996E+01  5.805670E+02 -3.538831E-05
        62   2 -2.489384E+04  3.075562E+01 -1.321970E+03 -8.088422E+01  1.233771E+03 -1.607457E-04
        62   3 -2.493835E+04  3.415802E+01 -2.305450E+03 -1.239285E+02  1.886974E+03 -3.766854E-04
        62   4 -2.493834E+04  1.155543E+01 -7.677136E+02  5.320667E-10  5.805670E+02 -9.564132E-10
        62   5 -2.489384E+04  3.075560E+01 -1.321970E+03  6.498857E-09  1.233771E+03 -8.249036E-11
        62   6 -2.493835E+04  3.415799E+01 -2.305450E+03  1.206182E-08  1.886974E+03  5.736427E-11
        62   7 -2.493834E+04  1.155543E+01 -7.677136E+02  3.783996E+01  5.805670E+02  3.538640E-05
        62   8 -2.489384E+04  3.075562E+01 -1.321970E+03  8.088422E+01  1.233771E+03  1.607455E-04
        62   9 -2.493835E+04  3.415802E+01 -2.305450E+03  1.239285E+02  1.886974E+03  3.766855E-04
        62  10 -2.493834E+04  1.155534E+01 -7.677142E+02 -3.783996E+01 -8.712763E-10 -4.206534E-10
        62  11 -2.489384E+04  3.075521E+01 -1.321973E+03 -8.088422E+01  1.186588E-09  5.423166E-10
        62  12 -2.493835E+04  3.415707E+01 -2.305457E+03 -1.239285E+02  7.389482E-10  1.139844E-10
        62  13 -2.493834E+04  1.155534E+01 -7.677142E+02 -4.665415E-09  2.135856E-09 -1.490660E-10
        62  14 -2.489384E+04  3.075519E+01 -1.321973E+03  4.393176E-09  1.597900E-09  2.091323E-10
        62  15 -2.493835E+04  3.415704E+01 -2.305457E+03  2.951108E-09 -5.418194E-10  1.439604E-10
        62  16 -2.493834E+04  1.155534E+01 -7.677142E+02  3.783996E+01 -1.017729E-09  1.230318E-10
        62  17 -2.489384E+04  3.075521E+01 -1.321973E+03  8.088422E+01 -1.190909E-09 -1.236564E-10
        62  18 -2.493835E+04  3.415707E+01 -2.305457E+03  1.239285E+02 -1.956917E-10  1.747717E-10
        62  19 -2.493834E+04  1.155543E+01 -7.677136E+02 -3.783996E+01 -5.805670E+02  3.538747E-05
        62  20 -2.489384E+04  3.075562E+01 -1.321970E+03 -8.088422E+01 -1.233771E+03  1.607468E-04
        62  21 -2.493835E+04  3.415802E+01 -2.305450E+03 -1.239285E+02 -1.886974E+03  3.766857E-04
        62  22 -2.493834E+04  1.155543E+01 -7.677136E+02  9.069035E-10 -5.805670E+02  6.582816E-10
        62  23 -2.489384E+04  3.075560E+01 -1.321970E+03  1.748947E-09 -1.233771E+03  4.995910E-10
        62  24 -2.493835E+04  3.415799E+01 -2.305450E+03  8.244858E-09 -1.886974E+03  2.283681E-10
        62  25 -2.493834E+04  1.155543E+01 -7.677136E+02  3.783996E+01 -5.805670E+02 -3.538617E-05
        62  26 -2.489384E+04  3.075562E+01 -1.321970E+03  8.088422E+01 -1.233771E+03 -1.607458E-04
        62  27 -2.493835E+04  3.415802E+01 -2.305450E+03  1.239285E+02 -1.886974E+03 -3.766852E-04
        63   1 -2.500924E+04  5.188476E+01 -3.038422E+03 -1.822683E+02  2.370376E+03 -6.959375E-04
        63   2 -2.480525E+04  9.824307E+01 -5.287657E+03 -2.640226E+02  4.987351E+03 -2.121058E-03
        63   3 -2.500926E+04 -1.243582E+02 -9.307910E+03 -3.457759E+02  7.604277E+03 -4.235397E-03
        63   4 -2.500924E+04  5.188470E+01 -3.038422E+03  4.258197E-09  2.370376E+03 -2.451114E-10
        63   5 -2.480525E+04  9.824294E+01 -5.287657E+03  1.518174E-09  4.987351E+03 -4.515830E-10
        63   6 -2.500926E+04 -1.243584E+02 -9.307910E+03  6.855370E-09  7.604277E+03  8.646503E-11
        63   7 -2.500924E+04  5.188476E+01 -3.038422E+03  1.822683E+02  2.370376E+03  6.959370E-04
        63   8 -2.480525E+04  9.824307E+01 -5.287657E+03  2.640226E+02  4.987351E+03  2.121057E-03
        63   9 -2.500926E+04 -1.243582E+02 -9.307910E+03  3.457759E+02  7.604277E+03  4.235397E-03
        63  10 -2.500924E+04  5.188325E+01 -3.038432E+03 -1.822683E+02 -3.625869E-10 -4.153872E-10
        63  11 -2.480527E+04  9.823639E+01 -5.287704E+03 -2.640226E+02  1.292695E-09 -5.775191E-10
        63  12 -2.500932E+04 -1.243737E+02 -9.308019E+03 -3.457759E+02  9.827349E-10 -2.311914E-10
        63  13 -2.500924E+04  5.188319E+01 -3.038432E+03 -1.346433E-09 -6.573188E-13 -1.799537E-10
        63  14 -2.480527E+04  9.823626E+01 -5.287704E+03 -5.459095E-09  5.472004E-10 -4.793757E-10
        63  15 -2.500932E+04 -1.243740E+02 -9.308019E+03 -4.725022E-09  1.081513E-09 -4.066318E-11
        63  16 -2.500924E+04  5.188325E+01 -3.038432E+03  1.822683E+02 -7.100789E-10  5.502058E-11
        63  17 -2.480527E+04  9.823639E+01 -5.287704E+03  2.640226E+02 -3.151998E-09 -3.808981E-10
        63  18 -2.500932E+04 -1.243737E+02 -9.308019E+03  3.457759E+02  7.628256E-10  1.524536E-10
        63  19 -2.500924E+04  5.188476E+01 -3.038422E+03 -1.822683E+02 -2.370376E+03  6.959367E-04
        63  20 -2.480525E+04  9.824307E+01 -5.287657E+03 -2.640226E+02 -4.987351E+03  2.121057E-03
        63  21 -2.500926E+04 -1.243582E+02 -9.307910E+03 -3.457759E+02 -7.604277E+03  4.235396E-03
        63  22 -2.500924E+04  5.188470E+01 -3.038422E+03  1.664094E-09 -2.370376E+03 -1.149397E-10
        63  23 -2.480525E+04  9.824294E+01 -5.287657E+03 -8.667083E-09 -4.987351E+03 -5.069719E-10
        63  24 -2.500926E+04 -1.243584E+02 -9.307910E+03 -8.247640E-10 -7.604277E+03 -1.568311E-10
        63  25 -2.500924E+04  5.188476E+01 -3.038422E+03  1.822683E+02 -2.370376E+03 -6.959370E-04
        63  26 -2.480525E+04  9.824307E+01 -5.287657E+03  2.640226E+02 -4.987351E+03 -2.121058E-03
        63  27 -2.500926E+04 -1.243582E+02 -9.307910E+03  3.457759E+02 -7.604277E+03 -4.235396E-03
        64   1 -2.554551E+04  3.531433E+02 -1.221898E+04 -1.357335E+03  9.504556E+03 -2.078073E-02
        64   2 -2.413485E+04 -1.652422E+02 -2.130572E+04  3.607664E+02  2.014528E+04  1.170685E-02
        64   3 -2.554533E+04 -6.427019E+03 -3.875529E+04  2.078907E+03  3.078602E+04  1.030930E-01
        64   4 -2.554551E+04  3.531399E+02 -1.221898E+04  4.869167E-09  9.504556E+03  6.214075E-10
        64   5 -2.413485E+04 -1.652424E+02 -2.130572E+04  1.477161E-10  2.014528E+04  9.251450E-10
        64   6 -2.554533E+04 -6.427027E+03 -3.875529E+04  2.965700E-09  3.078602E+04  3.534439E-10
        64   7 -2.554551E+04  3.531433E+02 -1.221898E+04  1.357335E+03  9.504556E+03  2.078073E-02
        64   8 -2.413485E+04 -1.652422E+02 -2.130572E+04 -3.607664E+02  2.014528E+04 -1.170685E-02
        64   9 -2.554533E+04 -6.427019E+03 -3.875529E+04 -2.078907E+03  3.078602E+04 -1.030930E-01
        64  10 -2.554561E+04  3.531191E+02 -1.221915E+04 -1.357335E+03 -4.395010E-10  1.957430E-10
        64  11 -2.413529E+04 -1.653511E+02 -2.130648E+04  3.607664E+02  9.745653E-10  5.505475E-10
        64  12 -2.554635E+04 -6.427274E+03 -3.875707E+04  2.078907E+03  1.183983E-09  2.119655E-10
        64  13 -2.554561E+04  3.531156E+02 -1.221915E+04 -7.918987E-09 -8.413645E-12  3.684236E-10
        64  14 -2.413529E+04 -1.653514E+02 -2.130648E+04 -4.212316E-09 -5.400502E-10  4.924112E-10
        64  15 -2.554635E+04 -6.427282E+03 -3.875707E+04 -3.198447E-09  8.049028E-10  4.847285E-11
        64  16 -2.554561E+04  3.531191E+02 -1.221915E+04  1.357335E+03 -1.722458E-09  5.395339E-10
        64  17 -2.413529E+04 -1.653511E+02 -2.130648E+04 -3.607664E+02 -7.224662E-10  4.294497E-10
        64  18 -2.554635E+04 -6.427274E+03 -3.875707E+04 -2.078907E+03 -1.460577E-09 -1.165225E-10
        64  19 -2.554551E+04  3.531433E+02 -1.221898E+04 -1.357335E+03 -9.504556E+03  2.078073E-02
        64  20 -2.413485E+04 -1.652422E+02 -2.130572E+04  3.607664E+02 -2.014528E+04 -1.170685E-02
        64  21 -2.554533E+04 -6.427019E+03 -3.875529E+04  2.078907E+03 -3.078602E+04 -1.030930E-01
        64  22 -2.554551E+04  3.531399E+02 -1.221898E+04 -4.552871E-09 -9.504556E+03  1.146743E-10
        64  23 -2.413485E+04 -1.652424E+02 -2.130572E+04 -9.650359E-09 -2.014528E+04  6.004800E-11
        64  24 -2.554533E+04 -6.427027E+03 -3.875529E+04  8.681517E-10 -3.078602E+04 -2.556877E-10
        64  25 -2.554551E+04  3.531433E+02 -1.221898E+04  1.357335E+03 -9.504556E+03 -2.078073E-02
        64  26 -2.413485E+04 -1.652422E+02 -2.130572E+04 -3.607664E+02 -2.014528E+04  1.170685E-02
        64  27 -2.554533E+04 -6.427019E+03 -3.875529E+04 -2.078907E+03 -3.078602E+04  1.030930E-01
        65   1 -3.339427E+04  4.705582E+03 -4.959345E+04 -1.961080E+04  3.751876E+04 -1.185195E+00
        65   2 -1.431986E+04 -1.335638E+04 -8.710487E+04  3.369709E+04  8.319754E+04  4.515798E+00
        65   3 -3.338629E+04 -1.602117E+05 -1.865471E+05  8.700243E+04  1.288765E+05  1.806103E+01
        65   4 -3.339469E+04  4.704859E+03 -4.959355E+04  4.430356E-10  3.751876E+04 -1.562405E-10
        65   5 -1.432107E+04 -1.335852E+04 -8.710518E+04  2.117807E-09  8.319754E+04 -4.117285E-10
        65   6 -3.339442E+04 -1.602259E+05 -1.865492E+05  3.388860E-09  1.288765E+05 -5.897685E-10
        65   7 -3.339427E+04  4.705582E+03 -4.959345E+04  1.961080E+04  3.751876E+04  1.185195E+00
        65   8 -1.431986E+04 -1.335638E+04 -8.710487E+04 -3.369709E+04  8.319754E+04 -4.515798E+00
        65   9 -3.338629E+04 -1.602117E+05 -1.865471E+05 -8.700243E+04  1.288765E+05 -1.806103E+01
        65  10 -3.339578E+04  4.705204E+03 -4.959610E+04 -1.961080E+04 -1.725447E-10 -2.213449E-10
        65  11 -1.432729E+04 -1.335824E+04 -8.711788E+04  3.369709E+04  1.897562E-10 -5.617750E-10
        65  12 -3.340413E+04 -1.602162E+05 -1.865783E+05  8.700243E+04 -3.949917E-10 -2.529949E-10
        65  13 -3.339620E+04  4.704482E+03 -4.959620E+04  4.015299E-10  1.049628E-09 -2.324675E-10
        65  14 -1.432851E+04 -1.336037E+04 -8.711818E+04 -3.244129E-09 -5.216789E-10 -2.531120E-10
        65  15 -3.341226E+04 -1.602304E+05 -1.865804E+05  4.149310E-09 -1.082396E-09 -8.462026E-11
        65  16 -3.339578E+04  4.705204E+03 -4.959610E+04  1.961080E+04 -4.037828E-10 -2.358325E-10
        65  17 -1.432729E+04 -1.335824E+04 -8.711788E+04 -3.369709E+04 -7.313933E-10 -4.589266E-11
        65  18 -3.340413E+04 -1.602162E+05 -1.865783E+05 -8.700243E+04 -4.060906E-10  5.401930E-11
        65  19 -3.339427E+04  4.705582E+03 -4.959345E+04 -1.961080E+04 -3.751876E+04  1.185195E+00
        65  20 -1.431986E+04 -1.335638E+04 -8.710487E+04  3.369709E+04 -8.319754E+04 -4.515798E+00
        65  21 -3.338629E+04 -1.602117E+05 -1.865471E+05  8.700243E+04 -1.288765E+05 -1.806103E+01
        65  22 -3.339469E+04  4.704859E+03 -4.959355E+04  4.669120E-09 -3.751876E+04 -3.036303E-10
        65  23 -1.432107E+04 -1.335852E+04 -8.710518E+04 -3.758528E-09 -8.319754E+04 -9.031258E-11
        65  24 -3.339442E+04 -1.602259E+05 -1.865492E+05  1.949673E-09 -1.288765E+05  2.394507E-10
        65  25 -3.339427E+04  4.705582E+03 -4.959345E+04  1.961080E+04 -3.751876E+04 -1.185195E+00
        65  26 -1.431986E+04 -1.335638E+04 -8.710487E+04 -3.369709E+04 -8.319754E+04  4.515798E+00
        65  27 -3.338629E+04 -1.602117E+05 -1.865471E+05 -8.700243E+04 -1.288765E+05  1.806103E+01
        66   1  1.317154E+05  5.521953E+05  1.308162E+05 -5.543533E+04  6.132537E+03  3.576663E+04
        66   2  9.868407E+04  4.878780E+05  9.509193E+04 -4.035067E+04  1.930031E+04  1.629902E+04
        66   3  8.175569E+04  4.301486E+05  7.606638E+04 -4.426562E+04  2.019813E+04 -3.167131E+03
        66   4  1.683407E+04  8.874198E+04  1.969429E+04 -4.620633E+04  6.135862E+03  1.304901E+04
        66   5  1.379917E+03  8.670850E+04  9.612932E+03 -3.670815E+04  1.930305E+04  8.025223E+03
        66   6 -4.717151E+02  8.875770E+04  6.208760E+03 -4.620964E+04  2.019706E+04  3.000972E+03
        66   7 -9.806225E+04 -3.745134E+05 -9.144084E+04 -3.698423E+04  6.138514E+03 -9.651732E+03
        66   8 -9.593463E+04 -3.143094E+05 -7.587507E+04 -3.306800E+04  1.930570E+04 -2.433087E+02
        66   9 -8.270639E+04 -2.525224E+05 -6.365490E+04 -4.815257E+04  2.019594E+04  9.165746E+03
        66  10  1.317150E+05  5.521939E+05  1.308137E+05 -5.543551E+04  4.016500E-10  3.263682E-10
        66  11  9.868360E+04  4.878776E+05  9.509073E+04 -4.035092E+04  7.139824E-10 -1.074952E-09
        66  12  8.175525E+04  4.301484E+05  7.606560E+04 -4.426557E+04 -3.298621E-10 -2.325618E-09
        66  13  1.683399E+04  8.874178E+04  1.969390E+04 -4.620640E+04  1.334478E-10 -4.120897E-11
        66  14  1.379499E+03  8.670833E+04  9.612111E+03 -3.670827E+04  1.511660E-09  7.266028E-11
        66  15 -4.721556E+02  8.875758E+04  6.207976E+03 -4.620969E+04 -4.557552E-10 -9.713533E-11
        66  16 -9.806231E+04 -3.745135E+05 -9.144109E+04 -3.698419E+04 -4.061610E-10 -3.150972E-10
        66  17 -9.593503E+04 -3.143095E+05 -7.587577E+04 -3.306799E+04 -1.036179E-10  1.028625E-09
        66  18 -8.270685E+04 -2.525226E+05 -6.365582E+04 -4.815272E+04 -2.918592E-09  2.321125E-09
        66  19  1.317154E+05  5.521953E+05  1.308162E+05 -5.543533E+04 -6.132537E+03 -3.576663E+04
        66  20  9.868407E+04  4.878780E+05  9.509193E+04 -4.035067E+04 -1.930031E+04 -1.629902E+04
        66  21  8.175569E+04  4.301486E+05  7.606638E+04 -4.426562E+04 -2.019813E+04  3.167131E+03
        66  22  1.683407E+04  8.874198E+04  1.969429E+04 -4.620633E+04 -6.135862E+03 -1.304901E+04
        66  23  1.379917E+03  8.670850E+04  9.612932E+03 -3.670815E+04 -1.930305E+04 -8.025223E+03
        66  24 -4.717151E+02  8.875770E+04  6.208760E+03 -4.620964E+04 -2.019706E+04 -3.000972E+03
        66  25 -9.806225E+04 -3.745134E+05 -9.144084E+04 -3.698423E+04 -6.138514E+03  9.651732E+03
        66  26 -9.593463E+04 -3.143094E+05 -7.587507E+04 -3.306800E+04 -1.930570E+04  2.433087E+02
        66  27 -8.270639E+04 -2.525224E+05 -6.365490E+04 -4.815257E+04 -2.019594E+04 -9.165746E+03
        67   1  7.219167E+04  3.848962E+05  6.632154E+04 -4.680609E+04  1.738617E+04 -1.122156E+03
        67   2  5.683208E+04  3.236309E+05  5.267320E+04 -3.659862E+04  1.433866E+04 -4.218921E+03
        67   3  4.290011E+04  2.631243E+05  4.139584E+04 -4.602119E+04  1.064637E+04 -7.316465E+03
        67   4  6.488349E+02  8.799479E+04  5.427965E+03 -4.634914E+04  1.738564E+04  2.084772E+03
        67   5  5.576561E+01  8.768748E+04  4.678367E+03 -3.653390E+04  1.433742E+04 -2.526261E+02
        67   6  7.590715E+02  8.800376E+04  5.773201E+03 -4.634912E+04  1.064430E+04 -2.591095E+03
        67   7 -7.089953E+04 -2.088229E+05 -5.547027E+04 -4.589240E+04  1.738512E+04  5.290195E+03
        67   8 -5.672401E+04 -1.482030E+05 -4.331932E+04 -3.646920E+04  1.433619E+04  3.712190E+03
        67   9 -4.138387E+04 -8.708754E+04 -2.985096E+04 -4.667695E+04  1.064223E+04  2.132967E+03
        67  10  7.219135E+04  3.848961E+05  6.632097E+04 -4.680607E+04 -8.799724E-10  5.985935E-09
        67  11  5.683185E+04  3.236308E+05  5.267278E+04 -3.659858E+04  3.764577E-10 -7.539848E-09
        67  12  4.289998E+04  2.631242E+05  4.139553E+04 -4.602113E+04  1.540288E-09 -1.827031E-08
        67  13  6.485091E+02  8.799470E+04  5.427389E+03 -4.634917E+04 -8.426614E-10 -3.145263E-10
        67  14  5.554485E+01  8.768743E+04  4.677980E+03 -3.653390E+04  1.461668E-09  1.810583E-10
        67  15  7.589480E+02  8.800372E+04  5.772975E+03 -4.634910E+04  8.413329E-10 -1.682334E-10
        67  16 -7.089987E+04 -2.088230E+05 -5.547089E+04 -4.589248E+04 -2.222358E-09 -5.814820E-09
        67  17 -5.672423E+04 -1.482030E+05 -4.331973E+04 -3.646924E+04 -7.166914E-10  7.463816E-09
        67  18 -4.138399E+04 -8.708758E+04 -2.985118E+04 -4.667696E+04  8.827121E-10  1.822955E-08
        67  19  7.219167E+04  3.848962E+05  6.632154E+04 -4.680609E+04 -1.738617E+04  1.122156E+03
        67  20  5.683208E+04  3.236309E+05  5.267320E+04 -3.659862E+04 -1.433866E+04  4.218921E+03
        67  21  4.290011E+04  2.631243E+05  4.139584E+04 -4.602119E+04 -1.064637E+04  7.316465E+03
        67  22  6.488349E+02  8.799479E+04  5.427965E+03 -4.634914E+04 -1.738564E+04 -2.084772E+03
        67  23  5.576561E+01  8.768748E+04  4.678367E+03 -3.653390E+04 -1.433742E+04  2.526261E+02
        67  24  7.590715E+02  8.800376E+04  5.773201E+03 -4.634912E+04 -1.064430E+04  2.591095E+03
        67  25 -7.089953E+04 -2.088229E+05 -5.547027E+04 -4.589240E+04 -1.738512E+04 -5.290195E+03
        67  26 -5.672401E+04 -1.482030E+05 -4.331932E+04 -3.646920E+04 -1.433619E+04 -3.712190E+03
        67  27 -4.138387E+04 -8.708754E+04 -2.985096E+04 -4.667695E+04 -1.064223E+04 -2.132967E+03
        68   1  3.098419E+04  2.198957E+05  3.313735E+04 -4.867245E+04  8.290158E+03 -8.213168E+03
        68   2  1.845680E+04  1.568083E+05  2.479189E+04 -3.254704E+04  4.490137E+03 -1.346296E+04
        68   3  2.109532E+04  9.818001E+04  2.365030E+04 -3.606064E+04  9.785695E+02 -1.871235E+04
        68   4 -5.001848E+02  8.887105E+04  6.730501E+03 -4.635292E+04  8.287890E+03 -3.570130E+03
        68   5  1.602604E+03  8.661541E+04  1.067944E+04 -3.652897E+04  4.488016E+03 -9.159089E+03
        68   6  1.893068E+04  8.887294E+04  2.206762E+04 -4.634347E+04  9.767060E+02 -1.474812E+04
        68   7 -3.198559E+04 -4.213720E+04 -1.967714E+04 -4.403389E+04  8.285655E+03  1.071948E+03
        68   8 -1.525182E+04  1.642729E+04 -3.433191E+03 -4.051044E+04  4.485839E+03 -4.855697E+03
        68   9  1.676644E+04  7.956621E+04  2.048505E+04 -5.662614E+04  9.747113E+02 -1.078394E+04
        68  10  3.098410E+04  2.198956E+05  3.313709E+04 -4.867239E+04 -2.010032E-10  1.716205E-08
        68  11  1.845673E+04  1.568081E+05  2.479151E+04 -3.254699E+04  2.006818E-09  8.234709E-09
        68  12  2.109522E+04  9.817963E+04  2.364964E+04 -3.606063E+04  4.755372E-11 -2.407915E-09
        68  13 -5.002620E+02  8.887102E+04  6.730348E+03 -4.635290E+04  1.143752E-09 -4.701004E-10
        68  14  1.602560E+03  8.661531E+04  1.067924E+04 -3.652894E+04  4.156201E-10  2.283223E-10
        68  15  1.893062E+04  8.887270E+04  2.206721E+04 -4.634346E+04  9.595716E-11 -1.974425E-10
        68  16 -3.198567E+04 -4.213722E+04 -1.967728E+04 -4.403390E+04  1.397523E-09 -1.695693E-08
        68  17 -1.525185E+04  1.642726E+04 -3.433273E+03 -4.051042E+04 -4.032276E-10 -8.370737E-09
        68  18  1.676641E+04  7.956609E+04  2.048483E+04 -5.662613E+04  2.160496E-10  2.382941E-09
        68  19  3.098419E+04  2.198957E+05  3.313735E+04 -4.867245E+04 -8.290158E+03  8.213168E+03
        68  20  1.845680E+04  1.568083E+05  2.479189E+04 -3.254704E+04 -4.490137E+03  1.346296E+04
        68  21  2.109532E+04  9.818001E+04  2.365030E+04 -3.606064E+04 -9.785695E+02  1.871235E+04
        68  22 -5.001848E+02  8.887105E+04  6.730501E+03 -4.635292E+04 -8.287890E+03  3.570130E+03
        68  23  1.602604E+03  8.661541E+04  1.067944E+04 -3.652897E+04 -4.488016E+03  9.159089E+03
        68  24  1.893068E+04  8.887294E+04  2.206762E+04 -4.634347E+04 -9.767060E+02  1.474812E+04
        68  25 -3.198559E+04 -4.213720E+04 -1.967714E+04 -4.403389E+04 -8.285655E+03 -1.071948E+03
        68  26 -1.525182E+04  1.642729E+04 -3.433191E+03 -4.051044E+04 -4.485839E+03  4.855697E+03
        68  27  1.676644E+04  7.956621E+04  2.048505E+04 -5.662614E+04 -9.747113E+02  1.078394E+04
        69   1  1.015683E+05  4.377925E+04  2.887613E+04  3.172632E+04  6.309946E+03  4.294003E+02
        69   2  9.549628E+04  4.030875E+04  2.412280E+04  2.924945E+04  4.374665E+03 -4.640931E+03
        69   3  8.852533E+04  3.874119E+04  2.196805E+04  2.852999E+04  1.262004E+03 -6.571593E+03
        69   4 -9.810829E+03  2.139130E+03 -3.931479E+02  1.525582E+03  3.866059E+02 -1.792026E+03
        69   5 -8.997112E+03  1.682646E+03 -1.767188E+02  5.897229E+02  1.909067E+03 -5.565758E+03
        69   6 -9.766974E+03  2.444586E+03 -1.002901E+02  1.411404E+03  2.254047E+03 -6.199581E+03
        69   7 -1.211766E+05 -3.949974E+04 -2.966297E+04 -2.866991E+04 -5.535499E+03 -4.012992E+03
        69   8 -1.134792E+05 -3.694251E+04 -2.447685E+04 -2.806549E+04 -5.560706E+02 -6.490413E+03
        69   9 -1.080500E+05 -3.385143E+04 -2.216935E+04 -2.570336E+04  3.245924E+03 -5.827630E+03
        69  10  1.015683E+05  4.377924E+04  2.887606E+04  3.172632E+04  4.587322E-10  8.635505E-11
        69  11  9.549625E+04  4.030872E+04  2.412272E+04  2.924946E+04 -4.709235E-09 -9.257366E-10
        69  12  8.852532E+04  3.874114E+04  2.196796E+04  2.852999E+04 -3.578928E-09 -1.805384E-10
        69  13 -9.810830E+03  2.139127E+03 -3.931543E+02  1.525583E+03 -9.332332E-10 -4.505550E-10
        69  14 -8.997124E+03  1.682611E+03 -1.767838E+02  5.897314E+02 -2.334951E-09 -1.049383E-09
        69  15 -9.766989E+03  2.444544E+03 -1.003719E+02  1.411416E+03 -3.222412E-09 -1.741601E-10
        69  16 -1.211767E+05 -3.949977E+04 -2.966306E+04 -2.866993E+04 -2.268002E-09 -1.014978E-09
        69  17 -1.134792E+05 -3.694256E+04 -2.447692E+04 -2.806550E+04 -3.704517E-09 -1.226645E-09
        69  18 -1.080500E+05 -3.385147E+04 -2.216944E+04 -2.570335E+04 -3.266055E-11  6.121986E-11
        69  19  1.015683E+05  4.377925E+04  2.887613E+04  3.172632E+04 -6.309946E+03 -4.294003E+02
        69  20  9.549628E+04  4.030875E+04  2.412280E+04  2.924945E+04 -4.374665E+03  4.640931E+03
        69  21  8.852533E+04  3.874119E+04  2.196805E+04  2.852999E+04 -1.262004E+03  6.571593E+03
        69  22 -9.810829E+03  2.139130E+03 -3.931479E+02  1.525582E+03 -3.866059E+02  1.792026E+03
        69  23 -8.997112E+03  1.682646E+03 -1.767188E+02  5.897229E+02 -1.909067E+03  5.565758E+03
        69  24 -9.766974E+03  2.444586E+03 -1.002901E+02  1.411404E+03 -2.254047E+03  6.199581E+03
        69  25 -1.211766E+05 -3.949974E+04 -2.966297E+04 -2.866991E+04  5.535499E+03  4.012992E+03
        69  26 -1.134792E+05 -3.694251E+04 -2.447685E+04 -2.806549E+04  5.560706E+02  6.490413E+03
        69  27 -1.080500E+05 -3.385143E+04 -2.216935E+04 -2.570336E+04 -3.245924E+03  5.827630E+03
        70   1  8.369575E+04  3.694490E+04  2.100289E+04  2.719585E+04  1.942492E+03 -5.824305E+03
        70   2  7.808745E+04  3.377786E+04  1.945125E+04  2.452890E+04  1.712652E+03 -5.653950E+03
        70   3  7.091265E+04  3.222568E+04  1.801305E+04  2.368934E+04  1.424540E+03 -5.328359E+03
        70   4 -9.781302E+03  2.449544E+03 -8.088063E+01  1.455282E+03  2.104742E+03 -5.763529E+03
        70   5 -8.980044E+03  1.666349E+03 -5.057309E+01  5.389164E+02  2.045863E+03 -5.529026E+03
        70   6 -9.779063E+03  2.464128E+03 -4.222583E+01  1.449892E+03  1.928708E+03 -5.139278E+03
        70   7 -1.032494E+05 -3.204507E+04 -2.116516E+04 -2.428169E+04  2.266966E+03 -5.702762E+03
        70   8 -9.603927E+04 -3.044435E+04 -1.955271E+04 -2.344782E+04  2.379021E+03 -5.404122E+03
        70   9 -9.046324E+04 -2.729656E+04 -1.809764E+04 -2.078665E+04  2.432799E+03 -4.950226E+03
        70  10  8.369573E+04  3.694486E+04  2.100282E+04  2.719586E+04 -4.379566E-10  9.424342E-10
        70  11  7.808743E+04  3.377783E+04  1.945119E+04  2.452891E+04 -1.409900E-09  1.052935E-10
        70  12  7.091264E+04  3.222565E+04  1.801299E+04  2.368935E+04 -1.208394E-11 -7.062217E-10
        70  13 -9.781315E+03  2.449507E+03 -8.095138E+01  1.455292E+03 -1.215140E-09  4.636365E-10
        70  14 -8.980057E+03  1.666315E+03 -5.063840E+01  5.389255E+02 -5.305906E-10 -3.072716E-10
        70  15 -9.779074E+03  2.464099E+03 -4.228246E+01  1.449900E+03 -1.365065E-10 -1.615157E-10
        70  16 -1.032494E+05 -3.204510E+04 -2.116523E+04 -2.428168E+04 -1.151726E-09 -3.088112E-10
        70  17 -9.603929E+04 -3.044438E+04 -1.955277E+04 -2.344781E+04 -1.320699E-09  2.597102E-10
        70  18 -9.046325E+04 -2.729658E+04 -1.809770E+04 -2.078664E+04  2.082374E-09  5.823562E-10
        70  19  8.369575E+04  3.694490E+04  2.100289E+04  2.719585E+04 -1.942492E+03  5.824305E+03
        70  20  7.808745E+04  3.377786E+04  1.945125E+04  2.452890E+04 -1.712652E+03  5.653950E+03
        70  21  7.091265E+04  3.222568E+04  1.801305E+04  2.368934E+04 -1.424540E+03  5.328359E+03
        70  22 -9.781302E+03  2.449544E+03 -8.088063E+01  1.455282E+03 -2.104742E+03  5.763529E+03
        70  23 -8.980044E+03  1.666349E+03 -5.057309E+01  5.389164E+02 -2.045863E+03  5.529026E+03
        70  24 -9.779063E+03  2.464128E+03 -4.222583E+01  1.449892E+03 -1.928708E+03  5.139278E+03
        70  25 -1.032494E+05 -3.204507E+04 -2.116516E+04 -2.428169E+04 -2.266966E+03  5.702762E+03
        70  26 -9.603927E+04 -3.044435E+04 -1.955271E+04 -2.344782E+04 -2.379021E+03  5.404122E+03
        70  27 -9.046324E+04 -2.729656E+04 -1.809764E+04 -2.078665E+04 -2.432799E+03  4.950226E+03
        71   1  6.615698E+04  3.046511E+04  1.691387E+04  2.238182E+04  1.374400E+03 -5.048474E+03
        71   2  6.057156E+04  2.731363E+04  1.548392E+04  1.970449E+04  1.236140E+03 -4.616208E+03
        71   3  5.338684E+04  2.576243E+04  1.403929E+04  1.885727E+04  1.094952E+03 -4.176262E+03
        71   4 -9.779030E+03  2.464530E+03 -4.373035E+01  1.452126E+03  1.837550E+03 -4.874767E+03
        71   5 -8.978234E+03  1.666620E+03 -5.902507E+01  5.365948E+02  1.707745E+03 -4.439305E+03
        71   6 -9.778553E+03  2.467277E+03 -9.572806E+01  1.451135E+03  1.575014E+03 -3.996163E+03
        71   7 -8.571033E+04 -2.553602E+04 -1.700199E+04 -1.947552E+04  2.300645E+03 -4.701081E+03
        71   8 -7.852394E+04 -2.398031E+04 -1.560248E+04 -1.862954E+04  2.179299E+03 -4.262421E+03
        71   9 -7.294044E+04 -2.082776E+04 -1.423113E+04 -1.595352E+04  2.055026E+03 -3.816082E+03
        71  10  6.615698E+04  3.046508E+04  1.691382E+04  2.238182E+04 -9.360406E-10 -2.345849E-10
        71  11  6.057155E+04  2.731361E+04  1.548387E+04  1.970449E+04 -1.263990E-09 -5.582951E-10
        71  12  5.338684E+04  2.576241E+04  1.403925E+04  1.885727E+04  5.973075E-10 -1.031664E-09
        71  13 -9.779040E+03  2.464504E+03 -4.378136E+01  1.452133E+03  5.627032E-11 -1.440534E-10
        71  14 -8.978243E+03  1.666598E+03 -5.906759E+01  5.366009E+02 -2.449245E-09 -1.221140E-09
        71  15 -9.778560E+03  2.467259E+03 -9.576274E+01  1.451140E+03 -3.434829E-09 -7.732789E-10
        71  16 -8.571034E+04 -2.553604E+04 -1.700204E+04 -1.947551E+04  7.920522E-10 -4.184845E-11
        71  17 -7.852395E+04 -2.398033E+04 -1.560253E+04 -1.862954E+04  3.456749E-10 -6.828792E-10
        71  18 -7.294044E+04 -2.082778E+04 -1.423117E+04 -1.595351E+04 -8.053289E-10 -9.864329E-10
        71  19  6.615698E+04  3.046511E+04  1.691387E+04  2.238182E+04 -1.374400E+03  5.048474E+03
        71  20  6.057156E+04  2.731363E+04  1.548392E+04  1.970449E+04 -1.236140E+03  4.616208E+03
        71  21  5.338684E+04  2.576243E+04  1.403929E+04  1.885727E+04 -1.094952E+03  4.176262E+03
        71  22 -9.779030E+03  2.464530E+03 -4.373035E+01  1.452126E+03 -1.837550E+03  4.874767E+03
        71  23 -8.978234E+03  1.666620E+03 -5.902507E+01  5.365948E+02 -1.707745E+03  4.439305E+03
        71  24 -9.778553E+03  2.467277E+03 -9.572806E+01  1.451135E+03 -1.575014E+03  3.996163E+03
        71  25 -8.571033E+04 -2.553602E+04 -1.700199E+04 -1.947552E+04 -2.300645E+03  4.701081E+03
        71  26 -7.852394E+04 -2.398031E+04 -1.560248E+04 -1.862954E+04 -2.179299E+03  4.262421E+03
        71  27 -7.294044E+04 -2.082776E+04 -1.423113E+04 -1.595352E+04 -2.055026E+03  3.816082E+03
        72   1  4.863260E+04  2.400273E+04  1.290673E+04  1.754961E+04  1.020323E+03 -3.915089E+03
        72   2  4.305991E+04  2.085021E+04  1.140290E+04  1.486717E+04  9.677435E+02 -3.439371E+03
        72   3  3.587250E+04  1.929488E+04  9.816882E+03  1.401171E+04  9.149964E+02 -2.963277E+03
        72   4 -9.781782E+03  2.466918E+03 -1.252867E+02  1.450410E+03  1.498359E+03 -3.735739E+03
        72   5 -8.973697E+03  1.671392E+03 -2.226008E+02  5.358312E+02  1.446192E+03 -3.259852E+03
        72   6 -9.780454E+03  2.473049E+03 -4.024171E+02  1.448312E+03  1.393857E+03 -2.783588E+03
        72   7 -6.819203E+04 -1.906837E+04 -1.315733E+04 -1.464722E+04  1.976341E+03 -3.556409E+03
        72   8 -6.100438E+04 -1.750714E+04 -1.184822E+04 -1.379435E+04  1.924594E+03 -3.080351E+03
        72   9 -5.543151E+04 -1.434869E+04 -1.062190E+04 -1.111430E+04  1.872682E+03 -2.603911E+03
        72  10  4.863259E+04  2.400271E+04  1.290670E+04  1.754962E+04 -1.436885E-09 -1.154115E-09
        72  11  4.305991E+04  2.085019E+04  1.140288E+04  1.486717E+04 -7.294871E-10  4.898363E-10
        72  12  3.587250E+04  1.929487E+04  9.816864E+03  1.401172E+04 -1.536385E-09  8.063204E-10
        72  13 -9.781789E+03  2.466902E+03 -1.253172E+02  1.450415E+03 -2.976424E-09 -9.150180E-10
        72  14 -8.973702E+03  1.671380E+03 -2.226247E+02  5.358350E+02 -1.062635E-09 -3.808239E-10
        72  15 -9.780459E+03  2.473040E+03 -4.024353E+02  1.448316E+03 -1.286513E-09  2.312048E-10
        72  16 -6.819203E+04 -1.906838E+04 -1.315736E+04 -1.464721E+04  1.375792E-09 -3.698828E-10
        72  17 -6.100439E+04 -1.750715E+04 -1.184824E+04 -1.379435E+04  2.875825E-09 -4.962737E-11
        72  18 -5.543151E+04 -1.434870E+04 -1.062192E+04 -1.111429E+04  1.791040E-09 -1.094049E-10
        72  19  4.863260E+04  2.400273E+04  1.290673E+04  1.754961E+04 -1.020323E+03  3.915089E+03
        72  20  4.305991E+04  2.085021E+04  1.140290E+04  1.486717E+04 -9.677435E+02  3.439371E+03
        72  21  3.587250E+04  1.929488E+04  9.816882E+03  1.401171E+04 -9.149964E+02  2.963277E+03
        72  22 -9.781782E+03  2.466918E+03 -1.252867E+02  1.450410E+03 -1.498359E+03  3.735739E+03
        72  23 -8.973697E+03  1.671392E+03 -2.226008E+02  5.358312E+02 -1.446192E+03  3.259852E+03
        72  24 -9.780454E+03  2.473049E+03 -4.024171E+02  1.448312E+03 -1.393857E+03  2.783588E+03
        72  25 -6.819203E+04 -1.906837E+04 -1.315733E+04 -1.464722E+04 -1.976341E+03  3.556409E+03
        72  26 -6.100438E+04 -1.750714E+04 -1.184822E+04 -1.379435E+04 -1.924594E+03  3.080351E+03
        72  27 -5.543151E+04 -1.434869E+04 -1.062190E+04 -1.111430E+04 -1.872682E+03  2.603911E+03
        73   1  3.111215E+04  1.753086E+04  8.578743E+03  1.269732E+04  8.984948E+02 -2.680736E+03
        73   2  2.558313E+04  1.437552E+04  6.736358E+03  1.000227E+04  1.220052E+03 -2.064039E+03
        73   3  1.838514E+04  1.279669E+04  4.529887E+03  9.119279E+03  1.541611E+03 -1.447403E+03
        73   4 -9.792142E+03  2.471223E+03 -5.371250E+02  1.443932E+03  1.377280E+03 -2.501067E+03
        73   5 -8.956593E+03  1.689303E+03 -9.732991E+02  5.355711E+02  1.698748E+03 -1.884394E+03
        73   6 -9.790098E+03  2.483920E+03 -1.773503E+03  1.439280E+03  2.020224E+03 -1.267777E+03
        73   7 -5.069448E+04 -1.258819E+04 -9.653026E+03 -9.808703E+03  1.856029E+03 -2.321411E+03
        73   8 -4.349512E+04 -1.099683E+04 -8.683031E+03 -8.930648E+03  2.177415E+03 -1.704760E+03
        73   9 -3.796471E+04 -7.828855E+03 -8.076992E+03 -6.240449E+03  2.498817E+03 -1.088159E+03
        73  10  3.111214E+04  1.753085E+04  8.578728E+03  1.269732E+04  5.835815E-10  4.042223E-10
        73  11  2.558313E+04  1.437552E+04  6.736348E+03  1.000227E+04  3.704909E-10 -7.998013E-11
        73  12  1.838513E+04  1.279668E+04  4.529879E+03  9.119280E+03  7.019658E-10 -1.322313E-09
        73  13 -9.792145E+03  2.471216E+03 -5.371403E+02  1.443935E+03 -1.105145E-09  1.530228E-10
        73  14 -8.956597E+03  1.689298E+03 -9.733112E+02  5.355737E+02 -4.757450E-10 -7.956586E-10
        73  15 -9.790103E+03  2.483917E+03 -1.773514E+03  1.439282E+03 -7.680996E-10 -9.350182E-10
        73  16 -5.069449E+04 -1.258819E+04 -9.653042E+03 -9.808700E+03 -6.813311E-10 -6.677324E-10
        73  17 -4.349512E+04 -1.099683E+04 -8.683045E+03 -8.930645E+03 -1.621254E-09 -3.874198E-11
        73  18 -3.796472E+04 -7.828858E+03 -8.077006E+03 -6.240446E+03 -2.702896E-09  3.289251E-11
        73  19  3.111215E+04  1.753086E+04  8.578743E+03  1.269732E+04 -8.984948E+02  2.680736E+03
        73  20  2.558313E+04  1.437552E+04  6.736358E+03  1.000227E+04 -1.220052E+03  2.064039E+03
        73  21  1.838514E+04  1.279669E+04  4.529887E+03  9.119279E+03 -1.541611E+03  1.447403E+03
        73  22 -9.792142E+03  2.471223E+03 -5.371250E+02  1.443932E+03 -1.377280E+03  2.501067E+03
        73  23 -8.956593E+03  1.689303E+03 -9.732991E+02  5.355711E+02 -1.698748E+03  1.884394E+03
        73  24 -9.790098E+03  2.483920E+03 -1.773503E+03  1.439280E+03 -2.020224E+03  1.267777E+03
        73  25 -5.069448E+04 -1.258819E+04 -9.653026E+03 -9.808703E+03 -1.856029E+03  2.321411E+03
        73  26 -4.349512E+04 -1.099683E+04 -8.683031E+03 -8.930648E+03 -2.177415E+03  1.704760E+03
        73  27 -3.796471E+04 -7.828855E+03 -8.076992E+03 -6.240449E+03 -2.498817E+03  1.088159E+03
        74   1  1.361289E+04  1.100797E+04  2.833594E+03  7.737459E+03  1.789360E+03 -1.065574E+03
        74   2  8.236930E+03  7.881900E+03 -4.994570E+02  5.075757E+03  3.770713E+03  1.734622E+02
        74   3  8.759183E+02  6.037266E+03 -5.502042E+03  4.216757E+03  5.752687E+03  1.410710E+03
        74   4 -9.849654E+03  2.493680E+03 -2.366348E+03  1.408941E+03  2.268434E+03 -8.857705E+02
        74   5 -8.871539E+03  1.751419E+03 -4.292724E+03  5.456689E+02  4.247780E+03  3.525187E+02
        74   6 -9.878143E+03  2.290965E+03 -7.887077E+03  1.485065E+03  6.227766E+03  1.589026E+03
        74   7 -3.331164E+04 -6.020574E+03 -7.566322E+03 -4.919357E+03  2.747487E+03 -7.059740E+02
        74   8 -2.597965E+04 -4.379022E+03 -8.085992E+03 -3.984291E+03  4.724832E+03  5.315696E+02
        74   9 -2.063202E+04 -1.455305E+03 -1.027210E+04 -1.246568E+03  6.702833E+03  1.767337E+03
        74  10  1.361289E+04  1.100797E+04  2.833586E+03  7.737460E+03 -6.516070E-10 -1.084721E-09
        74  11  8.236915E+03  7.881896E+03 -4.994838E+02  5.075756E+03 -1.041802E-09  3.568133E-10
        74  12  8.758822E+02  6.037255E+03 -5.502108E+03  4.216750E+03  9.565464E-11 -5.140885E-11
        74  13 -9.849659E+03  2.493678E+03 -2.366359E+03  1.408943E+03 -8.778872E-10 -2.737814E-10
        74  14 -8.871558E+03  1.751414E+03 -4.292758E+03  5.456677E+02 -2.081675E-09 -2.482093E-11
        74  15 -9.878185E+03  2.290951E+03 -7.887155E+03  1.485057E+03 -1.396903E-09 -1.118430E-10
        74  16 -3.331164E+04 -6.020576E+03 -7.566337E+03 -4.919356E+03 -1.735819E-09  1.614491E-10
        74  17 -2.597968E+04 -4.379029E+03 -8.086034E+03 -3.984293E+03  2.629880E-10 -2.394306E-10
        74  18 -2.063207E+04 -1.455321E+03 -1.027219E+04 -1.246578E+03 -1.573252E-09  7.478286E-10
        74  19  1.361289E+04  1.100797E+04  2.833594E+03  7.737459E+03 -1.789360E+03  1.065574E+03
        74  20  8.236930E+03  7.881900E+03 -4.994570E+02  5.075757E+03 -3.770713E+03 -1.734622E+02
        74  21  8.759183E+02  6.037266E+03 -5.502042E+03  4.216757E+03 -5.752687E+03 -1.410710E+03
        74  22 -9.849654E+03  2.493680E+03 -2.366348E+03  1.408941E+03 -2.268434E+03  8.857705E+02
        74  23 -8.871539E+03  1.751419E+03 -4.292724E+03  5.456689E+02 -4.247780E+03 -3.525187E+02
        74  24 -9.878143E+03  2.290965E+03 -7.887077E+03  1.485065E+03 -6.227766E+03 -1.589026E+03
        74  25 -3.331164E+04 -6.020574E+03 -7.566322E+03 -4.919357E+03 -2.747487E+03  7.059740E+02
        74  26 -2.597965E+04 -4.379022E+03 -8.085992E+03 -3.984291E+03 -4.724832E+03 -5.315696E+02
        74  27 -2.063202E+04 -1.455305E+03 -1.027210E+04 -1.246568E+03 -6.702833E+03 -1.767337E+03
        75   1 -3.581519E+03  3.969644E+03 -9.170103E+03  1.683651E+03  7.120557E+03  2.215235E+03
        75   2 -9.126626E+03  1.836042E+03 -1.910143E+04  1.068896E+03  1.657422E+04  6.244973E+03
        75   3 -1.972955E+04 -4.721371E+03 -3.778165E+04  3.404288E+03  2.604160E+04  1.023807E+04
        75   4 -1.032028E+04  2.720760E+03 -1.045292E+04  1.103548E+03  7.605348E+03  2.397213E+03
        75   5 -8.249287E+03  1.706530E+03 -1.896836E+04  8.378929E+02  1.701864E+04  6.411766E+03
        75   6 -1.122793E+04 -3.723460E+03 -3.620058E+04  3.522413E+03  2.644575E+04  1.038965E+04
        75   7 -1.705904E+04  1.471867E+03 -1.173575E+04  5.234431E+02  8.090136E+03  2.579191E+03
        75   8 -7.371942E+03  1.577019E+03 -1.883530E+04  6.068890E+02  1.746306E+04  6.578559E+03
        75   9 -2.726220E+03 -2.725545E+03 -3.461952E+04  3.640531E+03  2.684990E+04  1.054122E+04
        75  10 -3.581575E+03  3.969625E+03 -9.170207E+03  1.683638E+03  9.572822E-10  2.003504E-10
        75  11 -9.126932E+03  1.835926E+03 -1.910202E+04  1.068812E+03 -6.908613E-10  7.344679E-10
        75  12 -1.973030E+04 -4.721665E+03 -3.778312E+04  3.404073E+03  8.473603E-10  1.929326E-10
        75  13 -1.032034E+04  2.720738E+03 -1.045304E+04  1.103533E+03 -1.293894E-09  3.751912E-11
        75  14 -8.249609E+03  1.706408E+03 -1.896899E+04  8.378050E+02 -1.403534E-10 -5.819844E-11
        75  15 -1.122871E+04 -3.723764E+03 -3.620210E+04  3.522191E+03 -1.835628E-10 -5.863272E-10
        75  16 -1.705911E+04  1.471842E+03 -1.173589E+04  5.234263E+02 -2.722645E-09  1.117887E-09
        75  17 -7.372281E+03  1.576891E+03 -1.883595E+04  6.067965E+02 -4.997726E-10  5.840255E-10
        75  18 -2.727024E+03 -2.725858E+03 -3.462108E+04  3.640303E+03 -2.044249E-10 -7.522290E-10
        75  19 -3.581519E+03  3.969644E+03 -9.170103E+03  1.683651E+03 -7.120557E+03 -2.215235E+03
        75  20 -9.126626E+03  1.836042E+03 -1.910143E+04  1.068896E+03 -1.657422E+04 -6.244973E+03
        75  21 -1.972955E+04 -4.721371E+03 -3.778165E+04  3.404288E+03 -2.604160E+04 -1.023807E+04
        75  22 -1.032028E+04  2.720760E+03 -1.045292E+04  1.103548E+03 -7.605348E+03 -2.397213E+03
        75  23 -8.249287E+03  1.706530E+03 -1.896836E+04  8.378929E+02 -1.701864E+04 -6.411766E+03
        75  24 -1.122793E+04 -3.723460E+03 -3.620058E+04  3.522413E+03 -2.644575E+04 -1.038965E+04
        75  25 -1.705904E+04  1.471867E+03 -1.173575E+04  5.234431E+02 -8.090136E+03 -2.579191E+03
        75  26 -7.371942E+03  1.577019E+03 -1.883530E+04  6.068890E+02 -1.746306E+04 -6.578559E+03
        75  27 -2.726220E+03 -2.725545E+03 -3.461952E+04  3.640531E+03 -2.684990E+04 -1.054122E+04
        76   1 -1.486881E+04 -1.170216E+04 -4.911128E+04 -2.264276E+04  3.135872E+04  1.256930E+04
        76   2 -3.936040E+04  9.149288E+03 -8.865969E+04  2.674954E+04  7.697508E+04  2.989381E+04
        76   3 -1.186863E+05 -9.460354E+04 -1.966601E+05  1.097872E+05  1.228679E+05  4.648196E+04
        76   4 -1.705572E+04  6.520933E+03 -4.645452E+04 -3.511569E+03  3.195887E+04  1.279578E+04
        76   5 -1.510215E+02 -5.338230E+03 -8.440171E+04  7.469171E+03  7.675931E+04  2.980825E+04
        76   6 -3.792470E+04 -1.416445E+05 -1.901529E+05  5.209799E+04  1.218394E+05  4.607660E+04
        76   7 -1.924174E+04  2.474590E+04 -4.379753E+04  1.561975E+04  3.255902E+04  1.302231E+04
        76   8  3.906144E+04 -1.982259E+04 -8.014324E+04 -1.181223E+04  7.654352E+04  2.972271E+04
        76   9  4.285569E+04 -1.886610E+05 -1.836419E+05 -5.596729E+03  1.208107E+05  4.567153E+04
        76  10 -1.486991E+04 -1.170259E+04 -4.911342E+04 -2.264308E+04 -8.745053E-10 -1.362461E-10
        76  11 -3.936700E+04  9.146737E+03 -8.867251E+04  2.674769E+04  9.246696E-11  1.440697E-10
        76  12 -1.187031E+05 -9.460992E+04 -1.966925E+05  1.097826E+05  6.132533E-10  5.214244E-11
        76  13 -1.705686E+04  6.520483E+03 -4.645675E+04 -3.511898E+03  1.063933E-10 -3.198963E-10
        76  14 -1.575876E+02 -5.340766E+03 -8.441445E+04  7.467328E+03 -1.159712E-09 -4.287593E-10
        76  15 -3.794122E+04 -1.416507E+05 -1.901847E+05  5.209347E+04 -2.670103E-10  2.798248E-10
        76  16 -1.924292E+04  2.474543E+04 -4.379984E+04  1.561941E+04  8.433667E-10 -2.105704E-10
        76  17  3.905491E+04 -1.982512E+04 -8.015591E+04 -1.181406E+04  1.561098E-09  5.310400E-10
        76  18  4.283945E+04 -1.886672E+05 -1.836732E+05 -5.601174E+03  2.575681E-10  5.921097E-11
        76  19 -1.486881E+04 -1.170216E+04 -4.911128E+04 -2.264276E+04 -3.135872E+04 -1.256930E+04
        76  20 -3.936040E+04  9.149288E+03 -8.865969E+04  2.674954E+04 -7.697508E+04 -2.989381E+04
        76  21 -1.186863E+05 -9.460354E+04 -1.966601E+05  1.097872E+05 -1.228679E+05 -4.648196E+04
        76  22 -1.705572E+04  6.520933E+03 -4.645452E+04 -3.511569E+03 -3.195887E+04 -1.279578E+04
        76  23 -1.510215E+02 -5.338230E+03 -8.440171E+04  7.469171E+03 -7.675931E+04 -2.980825E+04
        76  24 -3.792470E+04 -1.416445E+05 -1.901529E+05  5.209799E+04 -1.218394E+05 -4.607660E+04
        76  25 -1.924174E+04  2.474590E+04 -4.379753E+04  1.561975E+04 -3.255902E+04 -1.302231E+04
        76  26  3.906144E+04 -1.982259E+04 -8.014324E+04 -1.181223E+04 -7.654352E+04 -2.972271E+04
        76  27  4.285569E+04 -1.886610E+05 -1.836419E+05 -5.596729E+03 -1.208107E+05 -4.567153E+04
        77   1  2.218286E+05  1.997699E+06  2.450143E+05 -1.129829E+05  3.512853E+03  1.350904E+05
        77   2  7.118906E+04  1.945439E+06  1.372530E+05 -5.563705E+04  1.119941E+04  8.031362E+04
        77   3  4.391540E+04  1.931118E+06  9.592018E+04 -8.234888E+03  1.192702E+04  2.553940E+04
        77   4  1.561755E+05  1.732356E+06  1.816358E+05 -2.614054E+04  3.532630E+03  1.213845E+05
        77   5  1.527189E+04  1.714189E+06  8.849496E+04 -2.117955E+04  1.120476E+04  7.515283E+04
        77   6 -3.730170E+03  1.732491E+06  5.587665E+04 -2.615797E+04  1.192598E+04  2.892013E+04
        77   7  9.054571E+04  1.467094E+06  1.182571E+05  6.066471E+04  3.548590E+03  1.076844E+05
        77   8 -4.064427E+04  1.482993E+06  3.973463E+04  1.326495E+04  1.120954E+04  6.999393E+04
        77   9 -5.137696E+04  1.533903E+06  1.583132E+04 -4.407523E+04  1.192476E+04  3.229980E+04
        77  10  2.218237E+05  1.997679E+06  2.449801E+05 -1.129833E+05  8.478681E-10 -3.491702E-09
        77  11  7.118720E+04  1.945432E+06  1.372407E+05 -5.563778E+04  2.344790E-09  6.730515E-09
        77  12  4.391507E+04  1.931117E+06  9.591869E+04 -8.235133E+03 -3.649775E-09  1.551669E-08
        77  13  1.561716E+05  1.732340E+06  1.816082E+05 -2.614088E+04  9.252871E-10 -1.065560E-10
        77  14  1.527024E+04  1.714183E+06  8.848414E+04 -2.118023E+04 -6.058928E-10 -4.521047E-11
        77  15 -3.730547E+03  1.732490E+06  5.587482E+04 -2.615825E+04 -1.829488E-09  3.167160E-11
        77  16  9.054259E+04  1.467082E+06  1.182354E+05  6.066440E+04 -2.281649E-10  3.510483E-09
        77  17 -4.064571E+04  1.482987E+06  3.972521E+04  1.326432E+04 -2.894268E-09 -6.898170E-09
        77  18 -5.137739E+04  1.533902E+06  1.582910E+04 -4.407554E+04 -4.106827E-09 -1.570910E-08
        77  19  2.218286E+05  1.997699E+06  2.450143E+05 -1.129829E+05 -3.512853E+03 -1.350904E+05
        77  20  7.118906E+04  1.945439E+06  1.372530E+05 -5.563705E+04 -1.119941E+04 -8.031362E+04
        77  21  4.391540E+04  1.931118E+06  9.592018E+04 -8.234888E+03 -1.192702E+04 -2.553940E+04
        77  22  1.561755E+05  1.732356E+06  1.816358E+05 -2.614054E+04 -3.532630E+03 -1.213845E+05
        77  23  1.527189E+04  1.714189E+06  8.849496E+04 -2.117955E+04 -1.120476E+04 -7.515283E+04
        77  24 -3.730170E+03  1.732491E+06  5.587665E+04 -2.615797E+04 -1.192598E+04 -2.892013E+04
        77  25  9.054571E+04  1.467094E+06  1.182571E+05  6.066471E+04 -3.548590E+03 -1.076844E+05
        77  26 -4.064427E+04  1.482993E+06  3.973463E+04  1.326495E+04 -1.120954E+04 -6.999393E+04
        77  27 -5.137696E+04  1.533903E+06  1.583132E+04 -4.407523E+04 -1.192476E+04 -3.229980E+04
        78   1  4.772649E+04  1.900286E+06  8.335117E+04 -2.944781E+04  1.042649E+04  1.903176E+04
        78   2  3.439843E+04  1.864642E+06  6.803907E+04 -2.114454E+04  8.786229E+03 -1.290407E+03
        78   3  3.153089E+04  1.834250E+06  6.854446E+04 -2.306340E+04  6.744769E+03 -2.161187E+04
        78   4  5.785114E+03  1.725520E+06  4.806169E+04 -2.621746E+04  1.042646E+04  2.079941E+04
        78   5  4.444726E+02  1.722938E+06  3.968694E+04 -2.110650E+04  8.785857E+03  9.736930E+02
        78   6  5.479943E+03  1.725523E+06  4.678836E+04 -2.621766E+04  6.744218E+03 -1.885235E+04
        78   7 -3.615811E+04  1.550783E+06  1.277066E+04 -2.298802E+04  1.042645E+04  2.256657E+04
        78   8 -3.351071E+04  1.581254E+06  1.133382E+04 -2.106847E+04  8.785486E+03  3.237288E+03
        78   9 -2.057168E+04  1.616808E+06  2.503168E+04 -2.937135E+04  6.743639E+03 -1.609331E+04
        78  10  4.772628E+04  1.900285E+06  8.335029E+04 -2.944797E+04 -2.118921E-09 -1.605747E-08
        78  11  3.439835E+04  1.864642E+06  6.803892E+04 -2.114453E+04  5.800848E-10 -8.698718E-09
        78  12  3.153071E+04  1.834249E+06  6.854350E+04 -2.306328E+04  1.149011E-09  2.200754E-09
        78  13  5.784882E+03  1.725519E+06  4.806068E+04 -2.621763E+04 -2.446659E-09 -3.095503E-10
        78  14  4.443894E+02  1.722938E+06  3.968679E+04 -2.110651E+04 -1.863407E-11 -1.473310E-10
        78  15  5.479799E+03  1.725523E+06  4.678760E+04 -2.621755E+04 -1.089806E-09  1.007638E-10
        78  16 -3.615836E+04  1.550782E+06  1.276950E+04 -2.298821E+04 -2.869779E-09  1.606572E-08
        78  17 -3.351080E+04  1.581254E+06  1.133365E+04 -2.106850E+04 -1.576956E-09  8.192445E-09
        78  18 -2.057180E+04  1.616808E+06  2.503111E+04 -2.937126E+04  1.266123E-09 -2.418438E-09
        78  19  4.772649E+04  1.900286E+06  8.335117E+04 -2.944781E+04 -1.042649E+04 -1.903176E+04
        78  20  3.439843E+04  1.864642E+06  6.803907E+04 -2.114454E+04 -8.786229E+03  1.290407E+03
        78  21  3.153089E+04  1.834250E+06  6.854446E+04 -2.306340E+04 -6.744769E+03  2.161187E+04
        78  22  5.785114E+03  1.725520E+06  4.806169E+04 -2.621746E+04 -1.042646E+04 -2.079941E+04
        78  23  4.444726E+02  1.722938E+06  3.968694E+04 -2.110650E+04 -8.785857E+03 -9.736930E+02
        78  24  5.479943E+03  1.725523E+06  4.678836E+04 -2.621766E+04 -6.744218E+03  1.885235E+04
        78  25 -3.615811E+04  1.550783E+06  1.277066E+04 -2.298802E+04 -1.042645E+04 -2.256657E+04
        78  26 -3.351071E+04  1.581254E+06  1.133382E+04 -2.106847E+04 -8.785486E+03 -3.237288E+03
        78  27 -2.057168E+04  1.616808E+06  2.503168E+04 -2.937135E+04 -6.743639E+03  1.609331E+04
        79   1  1.688698E+04  1.817357E+06  7.085850E+04 -4.326433E+04  5.465048E+03 -2.936026E+04
        79   2  2.707308E+04  1.767087E+06  9.504209E+04  1.166745E+04  3.231908E+03 -7.378151E+04
        79   3  1.532653E+05  1.751569E+06  1.770923E+05  5.641288E+04  7.773701E+02 -1.181999E+05
        79   4 -3.526684E+03  1.732104E+06  5.393365E+04 -2.621808E+04  5.463551E+03 -2.674062E+04
        79   5  1.453442E+04  1.714693E+06  8.453442E+04 -2.110446E+04  3.234959E+03 -7.089612E+04
        79   6  1.485505E+05  1.731981E+06  1.728174E+05 -2.617616E+04  7.920663E+02 -1.150509E+05
        79   7 -2.393970E+04  1.646857E+06  3.700861E+04 -9.174203E+03  5.462197E+03 -2.412132E+04
        79   8  1.999629E+03  1.662303E+06  7.402722E+04 -5.387355E+04  3.237706E+03 -6.801097E+04
        79   9  1.438613E+05  1.712407E+06  1.685462E+05 -1.087626E+05  8.059273E+02 -1.119019E+05
        79  10  1.688672E+04  1.817356E+06  7.085683E+04 -4.326421E+04  1.321550E-09  8.581702E-10
        79  11  2.707161E+04  1.767081E+06  9.503187E+04  1.166764E+04  2.643782E-09 -2.304472E-09
        79  12  1.532616E+05  1.751554E+06  1.770661E+05  5.641295E+04  1.460925E-09 -3.087552E-09
        79  13 -3.526908E+03  1.732103E+06  5.393225E+04 -2.621796E+04  2.213243E-10 -3.005750E-10
        79  14  1.453307E+04  1.714687E+06  8.452498E+04 -2.110427E+04  2.397694E-09  3.413084E-11
        79  15  1.485470E+05  1.731966E+06  1.727926E+05 -2.617609E+04  9.130325E-12  4.490317E-11
        79  16 -2.393989E+04  1.646857E+06  3.700747E+04 -9.174097E+03 -4.496443E-10 -7.701179E-10
        79  17  1.998380E+03  1.662298E+06  7.401853E+04 -5.387338E+04 -6.950511E-10  1.879537E-09
        79  18  1.438579E+05  1.712393E+06  1.685227E+05 -1.087625E+05 -2.585322E-10  3.114032E-09
        79  19  1.688698E+04  1.817357E+06  7.085850E+04 -4.326433E+04 -5.465048E+03  2.936026E+04
        79  20  2.707308E+04  1.767087E+06  9.504209E+04  1.166745E+04 -3.231908E+03  7.378151E+04
        79  21  1.532653E+05  1.751569E+06  1.770923E+05  5.641288E+04 -7.773701E+02  1.181999E+05
        79  22 -3.526684E+03  1.732104E+06  5.393365E+04 -2.621808E+04 -5.463551E+03  2.674062E+04
        79  23  1.453442E+04  1.714693E+06  8.453442E+04 -2.110446E+04 -3.234959E+03  7.089612E+04
        79  24  1.485505E+05  1.731981E+06  1.728174E+05 -2.617616E+04 -7.920663E+02  1.150509E+05
        79  25 -2.393970E+04  1.646857E+06  3.700861E+04 -9.174203E+03 -5.462197E+03  2.412132E+04
        79  26  1.999629E+03  1.662303E+06  7.402722E+04 -5.387355E+04 -3.237706E+03  6.801097E+04
        79  27  1.438613E+05  1.712407E+06  1.685462E+05 -1.087626E+05 -8.059273E+02  1.119019E+05
        80   1 -1.279129E+06 -2.900019E+05 -2.398350E+05 -1.624773E+04  5.886923E+04  2.768304E+04
        80   2 -1.135342E+06 -4.232812E+05 -2.756236E+05 -5.714410E+04  6.216185E+04  8.903558E+04
        80   3 -9.531067E+05 -4.050520E+05 -2.755488E+05 -1.479955E+05  6.558080E+04  9.887601E+04
        80   4  6.998661E+05  2.000717E+05  2.338947E+05 -1.220752E+05  1.614908E+05  2.789471E+04
        80   5  6.755831E+05  1.579725E+04  1.091268E+05 -9.692227E+04  1.041754E+05  8.908612E+04
        80   6  7.001109E+05 -6.703122E+03  6.220399E+04 -1.217071E+05  4.699069E+04  9.883416E+04
        80   7  2.682501E+06  6.899104E+05  7.073939E+05 -2.282435E+05  2.644379E+05  2.807105E+04
        80   8  2.489609E+06  4.546700E+05  4.936972E+05 -1.368195E+05  1.463096E+05  8.913121E+04
        80   9  2.355929E+06  3.914773E+05  3.998141E+05 -9.534796E+04  2.835179E+04  9.879079E+04
        80  10 -1.279133E+06 -2.900037E+05 -2.398430E+05 -1.624904E+04  9.237733E-11  1.626535E-10
        80  11 -1.135348E+06 -4.232907E+05 -2.756458E+05 -5.714857E+04  1.064535E-09  4.427839E-10
        80  12 -9.531140E+05 -4.050637E+05 -2.755753E+05 -1.480007E+05 -5.132254E-10  4.532982E-10
        80  13  6.998379E+05  2.000639E+05  2.338443E+05 -1.220788E+05  1.089903E-09  4.687390E-11
        80  14  6.755693E+05  1.578581E+04  1.090915E+05 -9.692974E+04  1.396090E-10  1.820499E-10
        80  15  7.001059E+05 -6.714207E+03  6.218148E+04 -1.217109E+05  3.088840E-10  3.059956E-10
        80  16  2.682426E+06  6.898909E+05  7.072615E+05 -2.282495E+05  9.723239E-10 -4.618469E-11
        80  17  2.489584E+06  4.546558E+05  4.936422E+05 -1.368300E+05  4.434658E-10 -4.718006E-11
        80  18  2.355926E+06  3.914666E+05  3.997942E+05 -9.535022E+04 -5.404733E-10  2.453073E-10
        80  19 -1.279129E+06 -2.900019E+05 -2.398350E+05 -1.624773E+04 -5.886923E+04 -2.768304E+04
        80  20 -1.135342E+06 -4.232812E+05 -2.756236E+05 -5.714410E+04 -6.216185E+04 -8.903558E+04
        80  21 -9.531067E+05 -4.050520E+05 -2.755488E+05 -1.479955E+05 -6.558080E+04 -9.887601E+04
        80  22  6.998661E+05  2.000717E+05  2.338947E+05 -1.220752E+05 -1.614908E+05 -2.789471E+04
        80  23  6.755831E+05  1.579725E+04  1.091268E+05 -9.692227E+04 -1.041754E+05 -8.908612E+04
        80  24  7.001109E+05 -6.703122E+03  6.220399E+04 -1.217071E+05 -4.699069E+04 -9.883416E+04
        80  25  2.682501E+06  6.899104E+05  7.073939E+05 -2.282435E+05 -2.644379E+05 -2.807105E+04
        80  26  2.489609E+06  4.546700E+05  4.936972E+05 -1.368195E+05 -1.463096E+05 -8.913121E+04
        80  27  2.355929E+06  3.914773E+05  3.998141E+05 -9.534796E+04 -2.835179E+04 -9.879079E+04
        81   1 -8.444021E+05 -3.625020E+05 -2.657590E+05 -1.209519E+05  4.470878E+04  9.062086E+04
        81   2 -6.848454E+05 -3.307751E+05 -2.523569E+05 -9.662653E+04  3.466641E+04  8.392744E+04
        81   3 -5.217711E+05 -2.924155E+05 -2.306231E+05 -1.242983E+05  2.461163E+04  7.447299E+04
        81   4  6.902326E+05  7.339995E+03  4.859995E+04 -1.222487E+05  3.854478E+04  9.059674E+04
        81   5  6.882797E+05 -3.220303E+02  2.669884E+04 -9.625126E+04  2.522870E+04  8.390615E+04
        81   6  6.903780E+05 -7.920612E+02  1.538532E+04 -1.222436E+05  1.190279E+04  7.445744E+04
        81   7  2.227105E+06  3.770342E+05  3.628340E+05 -1.235491E+05  3.236572E+04  9.057269E+04
        81   8  2.063199E+06  3.300136E+05  3.056565E+05 -9.587533E+04  1.577044E+04  8.388487E+04
        81   9  1.903926E+06  2.907400E+05  2.613178E+05 -1.201847E+05 -8.304297E+02  7.444182E+04
        81  10 -8.444064E+05 -3.625113E+05 -2.657782E+05 -1.209552E+05  2.061295E-10  4.546837E-10
        81  11 -6.848486E+05 -3.307830E+05 -2.523724E+05 -9.662888E+04  2.073074E-10  6.591468E-10
        81  12 -5.217732E+05 -2.924216E+05 -2.306347E+05 -1.242998E+05 -2.059470E-10  5.188672E-10
        81  13  6.902288E+05  7.330780E+03  4.858173E+04 -1.222515E+05 -1.029959E-09  2.092325E-10
        81  14  6.882771E+05 -3.297636E+02  2.668441E+04 -9.625297E+04 -5.086526E-10  1.582712E-10
        81  15  6.903764E+05 -7.980545E+02  1.537463E+04 -1.222443E+05  1.020374E-10  1.629199E-10
        81  16  2.227102E+06  3.770251E+05  3.628166E+05 -1.235514E+05 -1.030692E-09  1.009120E-10
        81  17  2.063197E+06  3.300060E+05  3.056428E+05 -9.587639E+04 -3.841445E-10 -4.147122E-10
        81  18  1.903924E+06  2.907341E+05  2.613074E+05 -1.201846E+05 -5.907873E-10  2.231569E-11
        81  19 -8.444021E+05 -3.625020E+05 -2.657590E+05 -1.209519E+05 -4.470878E+04 -9.062086E+04
        81  20 -6.848454E+05 -3.307751E+05 -2.523569E+05 -9.662653E+04 -3.466641E+04 -8.392744E+04
        81  21 -5.217711E+05 -2.924155E+05 -2.306231E+05 -1.242983E+05 -2.461163E+04 -7.447299E+04
        81  22  6.902326E+05  7.339995E+03  4.859995E+04 -1.222487E+05 -3.854478E+04 -9.059674E+04
        81  23  6.882797E+05 -3.220303E+02  2.669884E+04 -9.625126E+04 -2.522870E+04 -8.390615E+04
        81  24  6.903780E+05 -7.920612E+02  1.538532E+04 -1.222436E+05 -1.190279E+04 -7.445744E+04
        81  25  2.227105E+06  3.770342E+05  3.628340E+05 -1.235491E+05 -3.236572E+04 -9.057269E+04
        81  26  2.063199E+06  3.300136E+05  3.056565E+05 -9.587533E+04 -1.577044E+04 -8.388487E+04
        81  27  1.903926E+06  2.907400E+05  2.613178E+05 -1.201847E+05  8.304297E+02 -7.444182E+04
        82   1 -4.059898E+05 -2.635901E+05 -2.099159E+05 -1.228527E+05  2.153516E+04  6.822971E+04
        82   2 -2.457881E+05 -2.251780E+05 -1.826687E+05 -9.662525E+04  1.838218E+04  5.792247E+04
        82   3 -8.486512E+04 -1.864403E+05 -1.532355E+05 -1.222758E+05  1.521862E+04  4.747914E+04
        82   4  6.896953E+05 -1.468100E+02  1.173568E+04 -1.222193E+05  9.511778E+03  6.821837E+04
        82   5  6.893799E+05 -3.047886E+02  6.724577E+03 -9.628269E+04  6.192152E+03  5.791644E+04
        82   6  6.897907E+05 -1.071093E+02  4.012765E+03 -1.222195E+05  2.862736E+03  4.747860E+04
        82   7  1.786524E+06  2.632221E+05  2.333257E+05 -1.215846E+05 -2.532439E+03  6.820702E+04
        82   8  1.625381E+06  2.245142E+05  1.960731E+05 -9.593954E+04 -6.015901E+03  5.791040E+04
        82   9  1.465018E+06  1.861889E+05  1.612303E+05 -1.221631E+05 -9.508276E+03  4.747805E+04
        82  10 -4.059916E+05 -2.635952E+05 -2.099256E+05 -1.228539E+05  1.339805E-09 -1.237571E-10
        82  11 -2.457893E+05 -2.251817E+05 -1.826757E+05 -9.662610E+04  1.184471E-09 -7.027962E-10
        82  12 -8.486598E+04 -1.864428E+05 -1.532402E+05 -1.222763E+05 -2.640097E-10 -4.357249E-10
        82  13  6.896939E+05 -1.518334E+02  1.172676E+04 -1.222198E+05  5.062668E-10 -5.749989E-11
        82  14  6.893789E+05 -3.084021E+02  6.718200E+03 -9.628298E+04  1.076996E-09 -3.638381E-10
        82  15  6.897901E+05 -1.095329E+02  4.008512E+03 -1.222196E+05 -2.840701E-10  2.356476E-10
        82  16  1.786523E+06  2.632171E+05  2.333170E+05 -1.215845E+05 -1.884069E-09  9.534797E-11
        82  17  1.625380E+06  2.245106E+05  1.960667E+05 -9.593926E+04  4.417273E-10 -1.475698E-10
        82  18  1.465017E+06  1.861864E+05  1.612259E+05 -1.221627E+05  9.492303E-10  8.105197E-10
        82  19 -4.059898E+05 -2.635901E+05 -2.099159E+05 -1.228527E+05 -2.153516E+04 -6.822971E+04
        82  20 -2.457881E+05 -2.251780E+05 -1.826687E+05 -9.662525E+04 -1.838218E+04 -5.792247E+04
        82  21 -8.486512E+04 -1.864403E+05 -1.532355E+05 -1.222758E+05 -1.521862E+04 -4.747914E+04
        82  22  6.896953E+05 -1.468100E+02  1.173568E+04 -1.222193E+05 -9.511778E+03 -6.821837E+04
        82  23  6.893799E+05 -3.047886E+02  6.724577E+03 -9.628269E+04 -6.192152E+03 -5.791644E+04
        82  24  6.897907E+05 -1.071093E+02  4.012765E+03 -1.222195E+05 -2.862736E+03 -4.747860E+04
        82  25  1.786524E+06  2.632221E+05  2.333257E+05 -1.215846E+05  2.532439E+03 -6.820702E+04
        82  26  1.625381E+06  2.245142E+05  1.960731E+05 -9.593954E+04  6.015901E+03 -5.791040E+04
        82  27  1.465018E+06  1.861889E+05  1.612303E+05 -1.221631E+05  9.508276E+03 -4.747805E+04
        83   1  3.102231E+04 -1.583280E+05 -1.297851E+05 -1.221576E+05  1.452304E+04  4.136831E+04
        83   2  1.910524E+05 -1.198660E+05 -9.883675E+04 -9.622311E+04  1.349311E+04  3.090032E+04
        83   3  3.512695E+05 -8.134070E+04 -6.720044E+04 -1.220268E+05  1.245762E+04  2.043207E+04
        83   4  6.896997E+05 -5.653518E+01  3.143713E+03 -1.221889E+05  2.213293E+03  4.137027E+04
        83   5  6.896448E+05 -9.851858E+00  2.087907E+03 -9.632107E+04  1.180535E+03  3.090514E+04
        83   6  6.897499E+05  1.011961E+02  1.720999E+03 -1.221889E+05  1.424721E+02  2.043982E+04
        83   7  1.348791E+06  1.581882E+05  1.360507E+05 -1.222202E+05 -1.010926E+04  4.137223E+04
        83   8  1.188474E+06  1.198310E+05  1.030003E+05 -9.641906E+04 -1.114174E+04  3.090996E+04
        83   9  1.028340E+06  8.153602E+04  7.063700E+04 -1.223511E+05 -1.217926E+04  2.044758E+04
        83  10  3.102162E+04 -1.583299E+05 -1.297887E+05 -1.221581E+05  7.293008E-10  1.484771E-10
        83  11  1.910520E+05 -1.198671E+05 -9.883889E+04 -9.622344E+04  3.151072E-10  1.314043E-10
        83  12  3.512692E+05 -8.134119E+04 -6.720152E+04 -1.220270E+05  9.522793E-10 -4.886016E-10
        83  13  6.896993E+05 -5.837497E+01  3.140486E+03 -1.221890E+05 -5.158356E-10  5.791801E-10
        83  14  6.896446E+05 -1.087821E+01  2.086109E+03 -9.632110E+04 -3.287131E-09  5.645734E-10
        83  15  6.897498E+05  1.007473E+02  1.720213E+03 -1.221889E+05 -1.550227E-09 -1.868348E-10
        83  16  1.348790E+06  1.581863E+05  1.360473E+05 -1.222198E+05  9.717594E-11  1.090477E-09
        83  17  1.188474E+06  1.198299E+05  1.029982E+05 -9.641878E+04 -1.733435E-09  7.274707E-10
        83  18  1.028339E+06  8.153553E+04  7.063594E+04 -1.223509E+05 -1.720181E-09 -4.045774E-10
        83  19  3.102231E+04 -1.583280E+05 -1.297851E+05 -1.221576E+05 -1.452304E+04 -4.136831E+04
        83  20  1.910524E+05 -1.198660E+05 -9.883675E+04 -9.622311E+04 -1.349311E+04 -3.090032E+04
        83  21  3.512695E+05 -8.134070E+04 -6.720044E+04 -1.220268E+05 -1.245762E+04 -2.043207E+04
        83  22  6.896997E+05 -5.653518E+01  3.143713E+03 -1.221889E+05 -2.213293E+03 -4.137027E+04
        83  23  6.896448E+05 -9.851858E+00  2.087907E+03 -9.632107E+04 -1.180535E+03 -3.090514E+04
        83  24  6.897499E+05  1.011961E+02  1.720999E+03 -1.221889E+05 -1.424721E+02 -2.043982E+04
        83  25  1.348791E+06  1.581882E+05  1.360507E+05 -1.222202E+05  1.010926E+04 -4.137223E+04
        83  26  1.188474E+06  1.198310E+05  1.030003E+05 -9.641906E+04  1.114174E+04 -3.090996E+04
        83  27  1.028340E+06  8.153602E+04  7.063700E+04 -1.223511E+05  1.217926E+04 -2.044758E+04
        84   1  4.670451E+05 -5.333066E+04 -4.292255E+04 -1.220575E+05  1.213504E+04  1.434110E+04
        84   2  6.269673E+05 -1.500356E+04 -1.052937E+04 -9.622654E+04  1.105315E+04  3.882937E+03
        84   3  7.870067E+05  2.339828E+04  2.256688E+04 -1.220678E+05  9.970321E+03 -6.568773E+03
        84   4  6.897483E+05  1.121306E+02  1.730405E+03 -1.221747E+05 -1.761949E+02  1.434984E+04
        84   5  6.897055E+05  7.376243E+01  2.164301E+03 -9.633874E+04 -1.252077E+03  3.891993E+03
        84   6  6.897543E+05  1.104214E+02  3.297347E+03 -1.221747E+05 -2.328623E+03 -6.559319E+03
        84   7  9.124992E+05  5.355195E+04  4.638141E+04 -1.222920E+05 -1.249176E+04  1.435858E+04
        84   8  7.524478E+05  1.515092E+04  1.485834E+04 -9.645095E+04 -1.355852E+04  3.901052E+03
        84   9  5.925113E+05 -2.317793E+04 -1.597209E+04 -1.222815E+05 -1.462568E+04 -6.549860E+03
        84  10  4.670448E+05 -5.333092E+04 -4.292321E+04 -1.220577E+05 -1.630880E-09 -2.841082E-10
        84  11  6.269671E+05 -1.500361E+04 -1.052963E+04 -9.622658E+04 -6.794589E-10  4.469095E-10
        84  12  7.870066E+05  2.339820E+04  2.256661E+04 -1.220678E+05  1.035011E-10  4.201622E-12
        84  13  6.897483E+05  1.119094E+02  1.730018E+03 -1.221747E+05 -1.173315E-09 -3.123819E-11
        84  14  6.897055E+05  7.374574E+01  2.164270E+03 -9.633874E+04 -6.799487E-11  4.381729E-10
        84  15  6.897543E+05  1.103737E+02  3.297256E+03 -1.221747E+05 -5.747985E-11 -3.191327E-10
        84  16  9.124989E+05  5.355169E+04  4.638073E+04 -1.222918E+05 -3.174007E-10 -3.977337E-10
        84  17  7.524476E+05  1.515086E+04  1.485797E+04 -9.645091E+04 -5.406917E-10 -1.278933E-10
        84  18  5.925110E+05 -2.317803E+04 -1.597257E+04 -1.222816E+05 -5.485451E-10 -1.096445E-09
        84  19  4.670451E+05 -5.333066E+04 -4.292255E+04 -1.220575E+05 -1.213504E+04 -1.434110E+04
        84  20  6.269673E+05 -1.500356E+04 -1.052937E+04 -9.622654E+04 -1.105315E+04 -3.882937E+03
        84  21  7.870067E+05  2.339828E+04  2.256688E+04 -1.220678E+05 -9.970321E+03  6.568773E+03
        84  22  6.897483E+05  1.121306E+02  1.730405E+03 -1.221747E+05  1.761949E+02 -1.434984E+04
        84  23  6.897055E+05  7.376243E+01  2.164301E+03 -9.633874E+04  1.252077E+03 -3.891993E+03
        84  24  6.897543E+05  1.104214E+02  3.297347E+03 -1.221747E+05  2.328623E+03  6.559319E+03
        84  25  9.124992E+05  5.355195E+04  4.638141E+04 -1.222920E+05  1.249176E+04 -1.435858E+04
        84  26  7.524478E+05  1.515092E+04  1.485834E+04 -9.645095E+04  1.355852E+04 -3.901052E+03
        84  27  5.925113E+05 -2.317793E+04 -1.597209E+04 -1.222815E+05  1.462568E+04  6.549860E+03
        85   1  9.028950E+05  5.135711E+04  4.774091E+04 -1.220654E+05  9.314312E+03 -1.266013E+04
        85   2  1.062735E+06  8.961168E+04  8.264541E+04 -9.613956E+04  5.665662E+03 -2.307748E+04
        85   3  1.223151E+06  1.282883E+05  1.200166E+05 -1.219138E+05  2.020110E+03 -3.339202E+04
        85   4  6.898451E+05  8.063027E+01  4.214190E+03 -1.221814E+05 -3.014092E+03 -1.265120E+04
        85   5  6.895585E+05 -5.538293E+01  7.111101E+03 -9.633025E+04 -6.541069E+03 -2.307083E+04
        85   6  6.898063E+05  2.119211E+02  1.239272E+04 -1.221811E+05 -1.006404E+04 -3.338754E+04
        85   7  4.768386E+05 -5.119860E+04 -3.931435E+04 -1.222974E+05 -1.533835E+04 -1.264226E+04
        85   8  3.165149E+05 -8.973100E+04 -6.842986E+04 -9.652080E+04 -1.874061E+04 -2.306417E+04
        85   9  1.567320E+05 -1.278820E+05 -9.524524E+04 -1.224480E+05 -2.213803E+04 -3.338305E+04
        85  10  9.028949E+05  5.135691E+04  4.774044E+04 -1.220653E+05 -2.500797E-09 -5.506001E-10
        85  11  1.062735E+06  8.961110E+04  8.264435E+04 -9.613946E+04 -1.616589E-09 -2.029067E-10
        85  12  1.223151E+06  1.282871E+05  1.200145E+05 -1.219137E+05 -5.962551E-10  2.366550E-10
        85  13  6.898451E+05  8.045590E+01  4.213872E+03 -1.221814E+05  1.155987E-09 -8.724899E-10
        85  14  6.895583E+05 -5.596618E+01  7.110020E+03 -9.633037E+04  5.708786E-10  6.986281E-11
        85  15  6.898058E+05  2.106964E+02  1.239044E+04 -1.221813E+05 -7.469278E-10  5.148211E-10
        85  16  4.768383E+05 -5.119884E+04 -3.931510E+04 -1.222975E+05  2.004691E-09 -9.059464E-10
        85  17  3.165143E+05 -8.973167E+04 -6.843152E+04 -9.652115E+04  1.393527E-09  5.117009E-10
        85  18  1.567311E+05 -1.278833E+05 -9.524825E+04 -1.224486E+05 -3.713919E-10  1.054688E-09
        85  19  9.028950E+05  5.135711E+04  4.774091E+04 -1.220654E+05 -9.314312E+03  1.266013E+04
        85  20  1.062735E+06  8.961168E+04  8.264541E+04 -9.613956E+04 -5.665662E+03  2.307748E+04
        85  21  1.223151E+06  1.282883E+05  1.200166E+05 -1.219138E+05 -2.020110E+03  3.339202E+04
        85  22  6.898451E+05  8.063027E+01  4.214190E+03 -1.221814E+05  3.014092E+03  1.265120E+04
        85  23  6.895585E+05 -5.538293E+01  7.111101E+03 -9.633025E+04  6.541069E+03  2.307083E+04
        85  24  6.898063E+05  2.119211E+02  1.239272E+04 -1.221811E+05  1.006404E+04  3.338754E+04
        85  25  4.768386E+05 -5.119860E+04 -3.931435E+04 -1.222974E+05  1.533835E+04  1.264226E+04
        85  26  3.165149E+05 -8.973100E+04 -6.842986E+04 -9.652080E+04  1.874061E+04  2.306417E+04
        85  27  1.567320E+05 -1.278820E+05 -9.524524E+04 -1.224480E+05  2.213803E+04  3.338305E+04
        86   1  1.339958E+06  1.556653E+05  1.481146E+05 -1.205907E+05 -1.955265E+01 -3.956710E+04
        86   2  1.498384E+06  1.947818E+05  1.927214E+05 -9.689452E+04 -1.648178E+04 -4.924930E+04
        86   3  1.661117E+06  2.419333E+05  2.500634E+05 -1.249126E+05 -3.294097E+04 -5.694148E+04
        86   4  6.905207E+05 -4.436507E+02  1.624058E+04 -1.221849E+05 -1.259657E+04 -3.956446E+04
        86   5  6.885374E+05  1.174783E+02  2.822865E+04 -9.632471E+04 -2.669847E+04 -4.925193E+04
        86   6  6.904321E+05  8.312507E+03  5.132717E+04 -1.221823E+05 -4.079315E+04 -5.694819E+04
        86   7  4.148480E+04 -1.565787E+05 -1.156548E+05 -1.237774E+05 -2.516069E+04 -3.956174E+04
        86   8 -1.206863E+05 -1.945876E+05 -1.362979E+05 -9.575558E+04 -3.690209E+04 -4.925457E+04
        86   9 -2.793593E+05 -2.253672E+05 -1.474589E+05 -1.194563E+05 -4.863327E+04 -5.695497E+04
        86  10  1.339957E+06  1.556636E+05  1.481116E+05 -1.205907E+05  6.029400E-10  2.805988E-10
        86  11  1.498383E+06  1.947791E+05  1.927163E+05 -9.689517E+04 -7.784634E-11 -2.113672E-10
        86  12  1.661115E+06  2.419295E+05  2.500553E+05 -1.249141E+05 -5.583566E-10 -6.532885E-10
        86  13  6.905201E+05 -4.453748E+02  1.623734E+04 -1.221853E+05 -1.130521E-09  4.138821E-10
        86  14  6.885360E+05  1.146813E+02  2.822275E+04 -9.632577E+04  3.598902E-11 -4.878546E-10
        86  15  6.904295E+05  8.308577E+03  5.131794E+04 -1.221842E+05  1.583261E-09 -6.390933E-10
        86  16  4.148370E+04 -1.565806E+05 -1.156590E+05 -1.237782E+05 -3.664224E-10  3.341764E-10
        86  17 -1.206885E+05 -1.945905E+05 -1.363050E+05 -9.575704E+04 -8.656580E-11 -6.850007E-10
        86  18 -2.793628E+05 -2.253714E+05 -1.474694E+05 -1.194585E+05 -2.577343E-10 -5.808751E-10
        86  19  1.339958E+06  1.556653E+05  1.481146E+05 -1.205907E+05  1.955265E+01  3.956710E+04
        86  20  1.498384E+06  1.947818E+05  1.927214E+05 -9.689452E+04  1.648178E+04  4.924930E+04
        86  21  1.661117E+06  2.419333E+05  2.500634E+05 -1.249126E+05  3.294097E+04  5.694148E+04
        86  22  6.905207E+05 -4.436507E+02  1.624058E+04 -1.221849E+05  1.259657E+04  3.956446E+04
        86  23  6.885374E+05  1.174783E+02  2.822865E+04 -9.632471E+04  2.669847E+04  4.925193E+04
        86  24  6.904321E+05  8.312507E+03  5.132717E+04 -1.221823E+05  4.079315E+04  5.694819E+04
        86  25  4.148480E+04 -1.565787E+05 -1.156548E+05 -1.237774E+05  2.516069E+04  3.956174E+04
        86  26 -1.206863E+05 -1.945876E+05 -1.362979E+05 -9.575558E+04  3.690209E+04  4.925457E+04
        86  27 -2.793593E+05 -2.253672E+05 -1.474589E+05 -1.194563E+05  4.863327E+04  5.695497E+04
        87   1  1.789186E+06  2.553503E+05  2.879555E+05 -9.565511E+04 -3.290069E+04 -6.454534E+04
        87   2  1.921603E+06  3.191358E+05  3.802101E+05 -1.410211E+05 -1.370913E+05 -6.036439E+04
        87   3  2.112445E+06  5.609815E+05  5.847686E+05 -2.365350E+05 -2.413520E+05 -1.913193E+04
        87   4  7.008475E+05 -6.469923E+03  6.568597E+04 -1.218043E+05 -4.972198E+04 -6.455461E+04
        87   5  6.752889E+05  1.731451E+04  1.152987E+05 -9.679164E+04 -1.101487E+05 -6.037121E+04
        87   6  7.006546E+05  2.117521E+05  2.469807E+05 -1.219092E+05 -1.706118E+05 -1.912629E+04
        87   7 -3.863656E+05 -2.683615E+05 -1.566447E+05 -1.479069E+05 -6.651433E+04 -6.456248E+04
        87   8 -5.695591E+05 -2.845998E+05 -1.496978E+05 -5.265212E+04 -8.325909E+04 -6.037423E+04
        87   9 -7.092750E+05 -1.375693E+05 -9.092197E+04 -7.544579E+03 -1.000310E+05 -1.909463E+04
        87  10  1.789183E+06  2.553455E+05  2.879457E+05 -9.565682E+04  9.928372E-10 -2.936740E-10
        87  11  1.921581E+06  3.191269E+05  3.801680E+05 -1.410277E+05  9.940439E-10  5.263878E-10
        87  12  2.112382E+06  5.609655E+05  5.846588E+05 -2.365387E+05  1.211412E-09  1.781443E-10
        87  13  7.008438E+05 -6.475063E+03  6.567350E+04 -1.218069E+05  4.308243E-12 -2.643031E-10
        87  14  6.752749E+05  1.730734E+04  1.152691E+05 -9.679699E+04  2.707011E-09  2.055460E-10
        87  15  7.006233E+05  2.117439E+05  2.469254E+05 -1.219118E+05 -2.024961E-09  1.905150E-10
        87  16 -3.863715E+05 -2.683671E+05 -1.566609E+05 -1.479104E+05  4.353390E-10 -1.830170E-10
        87  17 -5.695675E+05 -2.846056E+05 -1.497177E+05 -5.265617E+04 -1.750602E-09  3.197550E-10
        87  18 -7.092858E+05 -1.375724E+05 -9.094148E+04 -7.546118E+03  3.255157E-11  1.062260E-10
        87  19  1.789186E+06  2.553503E+05  2.879555E+05 -9.565511E+04  3.290069E+04  6.454534E+04
        87  20  1.921603E+06  3.191358E+05  3.802101E+05 -1.410211E+05  1.370913E+05  6.036439E+04
        87  21  2.112445E+06  5.609815E+05  5.847686E+05 -2.365350E+05  2.413520E+05  1.913193E+04
        87  22  7.008475E+05 -6.469923E+03  6.568597E+04 -1.218043E+05  4.972198E+04  6.455461E+04
        87  23  6.752889E+05  1.731451E+04  1.152987E+05 -9.679164E+04  1.101487E+05  6.037121E+04
        87  24  7.006546E+05  2.117521E+05  2.469807E+05 -1.219092E+05  1.706118E+05  1.912629E+04
        87  25 -3.863656E+05 -2.683615E+05 -1.566447E+05 -1.479069E+05  6.651433E+04  6.456248E+04
        87  26 -5.695591E+05 -2.845998E+05 -1.496978E+05 -5.265212E+04  8.325909E+04  6.037423E+04
        87  27 -7.092750E+05 -1.375693E+05 -9.092197E+04 -7.544579E+03  1.000310E+05  1.909463E+04
        88   1  1.166651E+05  1.332940E+05  1.251768E+05 -2.002886E+05  1.852141E+02  4.912471E+04
        88   2  6.401036E+03 -9.469500E+04  3.487672E+04 -1.445234E+05 -3.458896E+03  2.336555E+04
        88   3 -5.354055E+04 -3.071613E+05 -2.618154E+04 -1.594280E+05 -1.461697E+04 -2.403144E+03
        88   4  6.119219E+04 -8.788246E+04  7.009491E+04 -1.671407E+05  1.879478E+02  4.907490E+04
        88   5  5.751753E+03 -9.486150E+04  3.222209E+04 -1.318935E+05 -3.483283E+03  3.215602E+04
        88   6 -8.947915E+02 -8.788610E+04  1.746332E+04 -1.673091E+05 -1.466688E+04  1.521883E+04
        88   7  5.719706E+03 -3.090122E+05  1.500995E+04 -1.340046E+05  1.906770E+02  4.902512E+04
        88   8  5.103112E+03 -9.502750E+04  2.956784E+04 -1.192637E+05 -3.507312E+03  4.094647E+04
        88   9  5.174842E+04  1.314359E+05  6.110698E+04 -1.751931E+05 -1.471722E+04  3.284690E+04
        88  10  1.166644E+05  1.332914E+05  1.251722E+05 -2.002886E+05 -2.160844E-10 -2.152360E-10
        88  11  6.400876E+03 -9.469559E+04  3.487567E+04 -1.445233E+05  3.689789E-10 -5.278739E-10
        88  12 -5.354078E+04 -3.071614E+05 -2.618196E+04 -1.594280E+05 -7.503162E-10 -6.933875E-10
        88  13  6.119154E+04 -8.788505E+04  7.009038E+04 -1.671407E+05 -9.450838E-10 -1.347955E-11
        88  14  5.751463E+03 -9.486262E+04  3.222012E+04 -1.318934E+05  6.087136E-10  1.725249E-10
        88  15 -8.950845E+02 -8.788640E+04  1.746248E+04 -1.673090E+05 -1.130769E-10  9.641015E-11
        88  16  5.719061E+03 -3.090148E+05  1.500543E+04 -1.340047E+05  5.350885E-11  1.994179E-10
        88  17  5.102648E+03 -9.502931E+04  2.956467E+04 -1.192636E+05 -2.460863E-10  5.748993E-10
        88  18  5.174790E+04  1.314347E+05  6.110455E+04 -1.751927E+05 -1.745195E-09  6.217507E-10
        88  19  1.166651E+05  1.332940E+05  1.251768E+05 -2.002886E+05 -1.852141E+02 -4.912471E+04
        88  20  6.401036E+03 -9.469500E+04  3.487672E+04 -1.445234E+05  3.458896E+03 -2.336555E+04
        88  21 -5.354055E+04 -3.071613E+05 -2.618154E+04 -1.594280E+05  1.461697E+04  2.403144E+03
        88  22  6.119219E+04 -8.788246E+04  7.009491E+04 -1.671407E+05 -1.879478E+02 -4.907490E+04
        88  23  5.751753E+03 -9.486150E+04  3.222209E+04 -1.318935E+05  3.483283E+03 -3.215602E+04
        88  24 -8.947915E+02 -8.788610E+04  1.746332E+04 -1.673091E+05  1.466688E+04 -1.521883E+04
        88  25  5.719706E+03 -3.090122E+05  1.500995E+04 -1.340046E+05 -1.906770E+02 -4.902512E+04
        88  26  5.103112E+03 -9.502750E+04  2.956784E+04 -1.192637E+05  3.507312E+03 -4.094647E+04
        88  27  5.174842E+04  1.314359E+05  6.110698E+04 -1.751931E+05  1.471722E+04 -3.284690E+04
        89   1 -8.786422E+04 -4.699503E+05 -6.392039E+04 -1.671531E+05 -2.339159E+04 -3.367696E+03
        89   2 -1.436191E+05 -6.901952E+05 -1.168866E+05 -1.308760E+05 -3.641458E+04 -3.996579E+03
        89   3 -1.979772E+05 -9.103051E+05 -1.691883E+05 -1.656364E+05 -4.779823E+04 -4.613599E+03
        89   4  3.341968E+03 -9.091221E+04  1.295350E+04 -1.673528E+05 -2.343623E+04  1.290807E+04
        89   5  6.325524E+02 -9.116631E+04  5.052476E+03 -1.318410E+05 -3.644951E+04  1.035011E+04
        89   6 -3.421492E+02 -9.099529E+04 -8.415286E+02 -1.673623E+05 -4.782434E+04  7.803825E+03
        89   7  9.453935E+04  2.882633E+05  8.982091E+04 -1.675525E+05 -2.348087E+04  2.919360E+04
        89   8  1.448619E+05  5.082046E+05  1.269735E+05 -1.328067E+05 -3.648447E+04  2.471039E+04
        89   9  1.972507E+05  7.289528E+05  1.674699E+05 -1.690900E+05 -4.785050E+04  2.023736E+04
        89  10 -8.786481E+04 -4.699505E+05 -6.392144E+04 -1.671532E+05 -2.907780E-10  1.718090E-10
        89  11 -1.436206E+05 -6.901955E+05 -1.168891E+05 -1.308761E+05 -2.352669E-10  2.600795E-10
        89  12 -1.979796E+05 -9.103058E+05 -1.691926E+05 -1.656365E+05 -1.001907E-10  4.088863E-10
        89  13  3.341334E+03 -9.091254E+04  1.295215E+04 -1.673525E+05  1.464647E-09 -9.414416E-11
        89  14  6.310971E+02 -9.116678E+04  5.049779E+03 -1.318407E+05 -5.667857E-10 -2.846595E-11
        89  15 -3.446213E+02 -9.099597E+04 -8.459404E+02 -1.673620E+05  6.769607E-10  1.802079E-11
        89  16  9.453853E+04  2.882622E+05  8.981828E+04 -1.675519E+05 -2.352367E-09 -1.236722E-10
        89  17  1.448604E+05  5.082036E+05  1.269699E+05 -1.328059E+05  7.868592E-10 -3.521690E-10
        89  18  1.972481E+05  7.289517E+05  1.674648E+05 -1.690893E+05 -1.034750E-09 -2.446802E-10
        89  19 -8.786422E+04 -4.699503E+05 -6.392039E+04 -1.671531E+05  2.339159E+04  3.367696E+03
        89  20 -1.436191E+05 -6.901952E+05 -1.168866E+05 -1.308760E+05  3.641458E+04  3.996579E+03
        89  21 -1.979772E+05 -9.103051E+05 -1.691883E+05 -1.656364E+05  4.779823E+04  4.613599E+03
        89  22  3.341968E+03 -9.091221E+04  1.295350E+04 -1.673528E+05  2.343623E+04 -1.290807E+04
        89  23  6.325524E+02 -9.116631E+04  5.052476E+03 -1.318410E+05  3.644951E+04 -1.035011E+04
        89  24 -3.421492E+02 -9.099529E+04 -8.415286E+02 -1.673623E+05  4.782434E+04 -7.803825E+03
        89  25  9.453935E+04  2.882633E+05  8.982091E+04 -1.675525E+05  2.348087E+04 -2.919360E+04
        89  26  1.448619E+05  5.082046E+05  1.269735E+05 -1.328067E+05  3.648447E+04 -2.471039E+04
        89  27  1.972507E+05  7.289528E+05  1.674699E+05 -1.690900E+05  4.785050E+04 -2.023736E+04
        90   1 -2.350360E+05 -1.072084E+06 -2.043967E+05 -1.624461E+05 -5.770926E+04 -1.346658E+04
        90   2 -2.921579E+05 -1.286160E+06 -2.659995E+05 -1.350429E+05 -5.711449E+04  3.661042E+04
        90   3 -3.738887E+05 -1.512876E+06 -3.663958E+05 -1.767093E+05 -1.853234E+04  8.672424E+04
        90   4  1.274046E+03 -9.224314E+04 -3.469778E+03 -1.669136E+05 -5.775283E+04  8.012095E+03
        90   5 -1.589048E+03 -8.986444E+04 -1.035402E+04 -1.324028E+05 -5.705915E+04  1.350611E+04
        90   6 -2.128646E+04 -9.240671E+04 -2.502460E+04 -1.669577E+05 -1.841001E+04  1.905677E+04
        90   7  2.375240E+05  8.885117E+05  1.974078E+05 -1.713877E+05 -5.779667E+04  2.952410E+04
        90   8  2.888866E+05  1.107781E+06  2.452107E+05 -1.297567E+05 -5.700407E+04 -9.642161E+03
        90   9  3.311717E+05  1.329923E+06  3.162204E+05 -1.571826E+05 -1.828997E+04 -4.876525E+04
        90  10 -2.350396E+05 -1.072085E+06 -2.044033E+05 -1.624467E+05 -4.863604E-10  2.546472E-10
        90  11 -2.921617E+05 -1.286162E+06 -2.660082E+05 -1.350412E+05 -2.616040E-10  4.167313E-10
        90  12 -3.738911E+05 -1.512884E+06 -3.664106E+05 -1.767080E+05  5.254782E-11  4.164379E-10
        90  13  1.270448E+03 -9.224410E+04 -3.476165E+03 -1.669133E+05 -8.744060E-10  6.463981E-11
        90  14 -1.592593E+03 -8.986551E+04 -1.036048E+04 -1.324021E+05 -1.860036E-09  7.445250E-11
        90  15 -2.128692E+04 -9.240719E+04 -2.502592E+04 -1.669574E+05  7.904038E-11  1.781244E-11
        90  16  2.375202E+05  8.885099E+05  1.973999E+05 -1.713864E+05 -2.183795E-10 -1.984260E-10
        90  17  2.888831E+05  1.107780E+06  2.452044E+05 -1.297571E+05 -6.549723E-10 -1.773897E-10
        90  18  3.311707E+05  1.329921E+06  3.162153E+05 -1.571833E+05  3.887359E-10 -3.853413E-10
        90  19 -2.350360E+05 -1.072084E+06 -2.043967E+05 -1.624461E+05  5.770926E+04  1.346658E+04
        90  20 -2.921579E+05 -1.286160E+06 -2.659995E+05 -1.350429E+05  5.711449E+04 -3.661042E+04
        90  21 -3.738887E+05 -1.512876E+06 -3.663958E+05 -1.767093E+05  1.853234E+04 -8.672424E+04
        90  22  1.274046E+03 -9.224314E+04 -3.469778E+03 -1.669136E+05  5.775283E+04 -8.012095E+03
        90  23 -1.589048E+03 -8.986444E+04 -1.035402E+04 -1.324028E+05  5.705915E+04 -1.350611E+04
        90  24 -2.128646E+04 -9.240671E+04 -2.502460E+04 -1.669577E+05  1.841001E+04 -1.905677E+04
        90  25  2.375240E+05  8.885117E+05  1.974078E+05 -1.713877E+05  5.779667E+04 -2.952410E+04
        90  26  2.888866E+05  1.107781E+06  2.452107E+05 -1.297567E+05  5.700407E+04  9.642161E+03
        90  27  3.311717E+05  1.329923E+06  3.162204E+05 -1.571826E+05  1.828997E+04  4.876525E+04
        91   1 -2.718845E+06 -1.052440E+06 -6.215848E+05 -9.914142E+05 -2.292669E+05 -6.056585E+04
        91   2 -2.606865E+06 -7.836188E+05 -4.230898E+05 -9.490024E+05 -1.486081E+05  2.731970E+04
        91   3 -2.537854E+06 -6.989649E+05 -3.413342E+05 -9.010580E+05 -5.157566E+04  7.196633E+04
        91   4 -1.272053E+06 -4.156059E+05 -2.218331E+05 -5.023616E+05 -1.506062E+05 -3.090801E+04
        91   5 -1.242952E+06 -2.420058E+05 -9.850795E+04 -5.376137E+05 -1.172663E+05  3.911574E+04
        91   6 -1.247276E+06 -2.429707E+05 -5.415485E+04 -5.673787E+05 -6.759239E+04  6.591850E+04
        91   7  1.767984E+05  2.215816E+05  1.777486E+05 -1.219969E+04 -7.174423E+04 -1.145183E+03
        91   8  1.228292E+05  2.998170E+05  2.259438E+05 -1.253700E+05 -8.584938E+04  5.094451E+04
        91   9  4.498756E+04  2.131166E+05  2.329231E+05 -2.330764E+05 -8.364538E+04  5.985850E+04
        91  10 -2.718902E+06 -1.052458E+06 -6.216910E+05 -9.914254E+05  1.783147E-08  7.361365E-09
        91  11 -2.606889E+06 -7.836256E+05 -4.231329E+05 -9.489991E+05 -2.566966E-09  5.800896E-11
        91  12 -2.537858E+06 -6.989712E+05 -3.413490E+05 -9.010550E+05 -2.505054E-08 -7.848515E-09
        91  13 -1.272078E+06 -4.156130E+05 -2.218776E+05 -5.023653E+05  3.498151E-10  1.480787E-10
        91  14 -1.242967E+06 -2.420112E+05 -9.853670E+04 -5.376100E+05  6.962079E-10  4.984445E-10
        91  15 -1.247282E+06 -2.429765E+05 -5.417160E+04 -5.673752E+05  2.656507E-11  4.779466E-10
        91  16  1.767929E+05  2.215802E+05  1.777389E+05 -1.219976E+04 -2.033333E-08 -7.075293E-09
        91  17  1.228206E+05  2.998122E+05  2.259251E+05 -1.253665E+05  1.490958E-09  9.113146E-10
        91  18  4.497909E+04  2.131108E+05  2.329032E+05 -2.330723E+05  2.077262E-08  8.748994E-09
        91  19 -2.718845E+06 -1.052440E+06 -6.215848E+05 -9.914142E+05  2.292669E+05  6.056585E+04
        91  20 -2.606865E+06 -7.836188E+05 -4.230898E+05 -9.490024E+05  1.486081E+05 -2.731970E+04
        91  21 -2.537854E+06 -6.989649E+05 -3.413342E+05 -9.010580E+05  5.157566E+04 -7.196633E+04
        91  22 -1.272053E+06 -4.156059E+05 -2.218331E+05 -5.023616E+05  1.506062E+05  3.090801E+04
        91  23 -1.242952E+06 -2.420058E+05 -9.850795E+04 -5.376137E+05  1.172663E+05 -3.911574E+04
        91  24 -1.247276E+06 -2.429707E+05 -5.415485E+04 -5.673787E+05  6.759239E+04 -6.591850E+04
        91  25  1.767984E+05  2.215816E+05  1.777486E+05 -1.219969E+04  7.174423E+04  1.145183E+03
        91  26  1.228292E+05  2.998170E+05  2.259438E+05 -1.253700E+05  8.584938E+04 -5.094451E+04
        91  27  4.498756E+04  2.131166E+05  2.329231E+05 -2.330764E+05  8.364538E+04 -5.985850E+04
        92   1 -2.422631E+06 -6.960418E+05 -3.103227E+05 -8.888202E+05 -5.367783E+04  6.295600E+04
        92   2 -2.316420E+06 -6.270643E+05 -2.612663E+05 -8.387868E+05 -3.813189E+04  6.274928E+04
        92   3 -2.184215E+06 -5.956426E+05 -2.242035E+05 -8.217609E+05 -2.177246E+04  6.036161E+04
        92   4 -1.240039E+06 -2.553406E+05 -4.221452E+04 -5.597318E+05 -5.834344E+04  6.118602E+04
        92   5 -1.252673E+06 -2.329211E+05 -2.215698E+04 -5.446660E+05 -4.516835E+04  6.009183E+04
        92   6 -1.238849E+06 -2.475751E+05 -1.219304E+04 -5.626109E+05 -3.118324E+04  5.681751E+04
        92   7 -5.604306E+04  1.854700E+05  2.258007E+05 -2.300676E+05 -6.301865E+04  5.941241E+04
        92   8 -1.877833E+05  1.613106E+05  2.168802E+05 -2.500815E+05 -5.221790E+04  5.742945E+04
        92   9 -2.925743E+05  1.005617E+05  1.997626E+05 -3.030973E+05 -4.060965E+04  5.326761E+04
        92  10 -2.422635E+06 -6.960468E+05 -3.103356E+05 -8.888175E+05 -3.020803E-09 -4.169916E-10
        92  11 -2.316423E+06 -6.270689E+05 -2.612764E+05 -8.387849E+05 -1.404152E-09 -1.040859E-09
        92  12 -2.184216E+06 -5.956466E+05 -2.242113E+05 -8.217599E+05 -1.105658E-09 -9.591578E-10
        92  13 -1.240043E+06 -2.553455E+05 -4.222795E+04 -5.597289E+05  3.213141E-10  1.516249E-11
        92  14 -1.252676E+06 -2.329255E+05 -2.216759E+04 -5.446638E+05  1.000357E-09 -6.484714E-10
        92  15 -1.238851E+06 -2.475789E+05 -1.220093E+04 -5.626095E+05  6.302903E-10 -5.113053E-10
        92  16 -5.604827E+04  1.854651E+05  2.257866E+05 -2.300646E+05  3.344485E-09  5.446387E-10
        92  17 -1.877871E+05  1.613063E+05  2.168689E+05 -2.500791E+05  2.360944E-09 -2.933119E-10
        92  18 -2.925769E+05  1.005582E+05  1.997542E+05 -3.030955E+05  1.417288E-09 -1.026680E-10
        92  19 -2.422631E+06 -6.960418E+05 -3.103227E+05 -8.888202E+05  5.367783E+04 -6.295600E+04
        92  20 -2.316420E+06 -6.270643E+05 -2.612663E+05 -8.387868E+05  3.813189E+04 -6.274928E+04
        92  21 -2.184215E+06 -5.956426E+05 -2.242035E+05 -8.217609E+05  2.177246E+04 -6.036161E+04
        92  22 -1.240039E+06 -2.553406E+05 -4.221452E+04 -5.597318E+05  5.834344E+04 -6.118602E+04
        92  23 -1.252673E+06 -2.329211E+05 -2.215698E+04 -5.446660E+05  4.516835E+04 -6.009183E+04
        92  24 -1.238849E+06 -2.475751E+05 -1.219304E+04 -5.626109E+05  3.118324E+04 -5.681751E+04
        92  25 -5.604306E+04  1.854700E+05  2.258007E+05 -2.300676E+05  6.301865E+04 -5.941241E+04
        92  26 -1.877833E+05  1.613106E+05  2.168802E+05 -2.500815E+05  5.221790E+04 -5.742945E+04
        92  27 -2.925743E+05  1.005617E+05  1.997626E+05 -3.030973E+05  4.060965E+04 -5.326761E+04
        93   1 -2.092609E+06 -5.635504E+05 -2.003168E+05 -7.975409E+05 -1.872930E+04  5.587580E+04
        93   2 -1.985991E+06 -5.029030E+05 -1.691639E+05 -7.465086E+05 -1.298359E+04  4.872943E+04
        93   3 -1.849117E+06 -4.731715E+05 -1.400576E+05 -7.304289E+05 -7.194398E+03  4.144658E+04
        93   4 -1.238240E+06 -2.481515E+05 -9.224699E+03 -5.622926E+05 -2.761211E+04  5.253318E+04
        93   5 -1.253314E+06 -2.324990E+05 -5.082557E+03 -5.448804E+05 -2.201216E+04  4.533627E+04
        93   6 -1.238120E+06 -2.477313E+05 -2.869626E+03 -5.624234E+05 -1.636934E+04  3.800283E+04
        93   7 -3.831339E+05  6.730356E+04  1.818215E+05 -3.267468E+05 -3.650820E+04  4.918559E+04
        93   8 -5.200981E+05  3.794517E+04  1.589643E+05 -3.430343E+05 -3.105227E+04  4.193880E+04
        93   9 -6.267510E+05 -2.226413E+04  1.342938E+05 -3.942672E+05 -2.555404E+04  3.455543E+04
        93  10 -2.092611E+06 -5.635538E+05 -2.003234E+05 -7.975401E+05 -8.038221E-10 -6.576176E-10
        93  11 -1.985992E+06 -5.029056E+05 -1.691686E+05 -7.465081E+05  3.925045E-10 -4.136261E-10
        93  12 -1.849118E+06 -4.731734E+05 -1.400610E+05 -7.304286E+05 -5.938523E-10  9.597674E-11
        93  13 -1.238242E+06 -2.481546E+05 -9.231313E+03 -5.622914E+05 -5.859984E-10 -3.304469E-10
        93  14 -1.253315E+06 -2.325014E+05 -5.087327E+03 -5.448796E+05 -1.047639E-09 -1.223662E-10
        93  15 -1.238121E+06 -2.477329E+05 -2.872841E+03 -5.624229E+05 -1.958310E-09 -1.894680E-10
        93  16 -3.831360E+05  6.730061E+04  1.818145E+05 -3.267453E+05  5.045614E-11 -1.044293E-11
        93  17 -5.200996E+05  3.794302E+04  1.589592E+05 -3.430332E+05  3.836339E-10  9.879167E-11
        93  18 -6.267520E+05 -2.226558E+04  1.342903E+05 -3.942665E+05  9.047134E-11 -2.943571E-10
        93  19 -2.092609E+06 -5.635504E+05 -2.003168E+05 -7.975409E+05  1.872930E+04 -5.587580E+04
        93  20 -1.985991E+06 -5.029030E+05 -1.691639E+05 -7.465086E+05  1.298359E+04 -4.872943E+04
        93  21 -1.849117E+06 -4.731715E+05 -1.400576E+05 -7.304289E+05  7.194398E+03 -4.144658E+04
        93  22 -1.238240E+06 -2.481515E+05 -9.224699E+03 -5.622926E+05  2.761211E+04 -5.253318E+04
        93  23 -1.253314E+06 -2.324990E+05 -5.082557E+03 -5.448804E+05  2.201216E+04 -4.533627E+04
        93  24 -1.238120E+06 -2.477313E+05 -2.869626E+03 -5.624234E+05  1.636934E+04 -3.800283E+04
        93  25 -3.831339E+05  6.730356E+04  1.818215E+05 -3.267468E+05  3.650820E+04 -4.918559E+04
        93  26 -5.200981E+05  3.794517E+04  1.589643E+05 -3.430343E+05  3.105227E+04 -4.193880E+04
        93  27 -6.267510E+05 -2.226413E+04  1.342938E+05 -3.942672E+05  2.555404E+04 -3.455543E+04
        94   1 -1.757870E+06 -4.394788E+05 -1.182128E+05 -7.054774E+05 -4.952769E+03  3.673737E+04
        94   2 -1.650473E+06 -3.788161E+05 -9.033108E+04 -6.540535E+05 -1.076898E+03  2.865655E+04
        94   3 -1.512342E+06 -3.489475E+05 -6.299352E+04 -6.379124E+05  2.802773E+03  2.055390E+04
        94   4 -1.238010E+06 -2.477825E+05 -2.231025E+03 -5.624610E+05 -1.412304E+04  3.329739E+04
        94   5 -1.253345E+06 -2.323410E+05 -1.441415E+03 -5.448271E+05 -1.027075E+04  2.521001E+04
        94   6 -1.237962E+06 -2.476898E+05 -1.178527E+03 -5.624807E+05 -6.414864E+03  1.710085E+04
        94   7 -7.178708E+05 -5.606324E+04  1.137357E+05 -4.193332E+05 -2.330174E+04  2.985425E+04
        94   8 -8.560584E+05 -8.585432E+04  8.743820E+04 -4.355369E+05 -1.947094E+04  2.176109E+04
        94   9 -9.635121E+05 -1.464281E+05  6.063061E+04 -4.870197E+05 -1.563676E+04  1.364621E+04
        94  10 -1.757871E+06 -4.394803E+05 -1.182154E+05 -7.054772E+05 -9.360525E-10  1.235837E-10
        94  11 -1.650473E+06 -3.788170E+05 -9.033263E+04 -6.540535E+05 -7.400452E-10 -3.483980E-10
        94  12 -1.512342E+06 -3.489479E+05 -6.299433E+04 -6.379124E+05 -1.632102E-09 -1.069821E-10
        94  13 -1.238010E+06 -2.477837E+05 -2.233482E+03 -5.624606E+05 -8.855246E-12 -4.536754E-10
        94  14 -1.253345E+06 -2.323417E+05 -1.442806E+03 -5.448269E+05 -4.226660E-10 -5.191934E-10
        94  15 -1.237963E+06 -2.476901E+05 -1.179154E+03 -5.624806E+05  6.499637E-11  3.482383E-10
        94  16 -7.178716E+05 -5.606434E+04  1.137330E+05 -4.193326E+05 -5.421895E-11 -7.384759E-10
        94  17 -8.560590E+05 -8.585493E+04  8.743659E+04 -4.355366E+05 -4.580793E-11 -4.310363E-10
        94  18 -9.635124E+05 -1.464284E+05  6.062980E+04 -4.870195E+05  7.565113E-10  5.653901E-10
        94  19 -1.757870E+06 -4.394788E+05 -1.182128E+05 -7.054774E+05  4.952769E+03 -3.673737E+04
        94  20 -1.650473E+06 -3.788161E+05 -9.033108E+04 -6.540535E+05  1.076898E+03 -2.865655E+04
        94  21 -1.512342E+06 -3.489475E+05 -6.299352E+04 -6.379124E+05 -2.802773E+03 -2.055390E+04
        94  22 -1.238010E+06 -2.477825E+05 -2.231025E+03 -5.624610E+05  1.412304E+04 -3.329739E+04
        94  23 -1.253345E+06 -2.323410E+05 -1.441415E+03 -5.448271E+05  1.027075E+04 -2.521001E+04
        94  24 -1.237962E+06 -2.476898E+05 -1.178527E+03 -5.624807E+05  6.414864E+03 -1.710085E+04
        94  25 -7.178708E+05 -5.606324E+04  1.137357E+05 -4.193332E+05  2.330174E+04 -2.985425E+04
        94  26 -8.560584E+05 -8.585432E+04  8.743820E+04 -4.355369E+05  1.947094E+04 -2.176109E+04
        94  27 -9.635121E+05 -1.464281E+05  6.063061E+04 -4.870197E+05  1.563676E+04 -1.364621E+04
        95   1 -1.420676E+06 -3.150351E+05 -4.170880E+04 -6.128066E+05  4.841073E+03  1.574607E+04
        95   2 -1.312839E+06 -2.542581E+05 -1.494954E+04 -5.612377E+05  8.792206E+03  7.652384E+03
        95   3 -1.174252E+06 -2.243710E+05  1.120124E+04 -5.450843E+05  1.274246E+04 -4.399438E+02
        95   4 -1.237950E+06 -2.477049E+05 -1.215595E+03 -5.625101E+05 -4.386189E+03  1.229026E+04
        95   5 -1.253313E+06 -2.322468E+05 -1.620672E+03 -5.448027E+05 -4.343449E+02  4.197107E+03
        95   6 -1.237940E+06 -2.476799E+05 -2.634320E+03 -5.625169E+05  3.516443E+03 -3.894723E+03
        95   7 -1.055189E+06 -1.803715E+05  3.927632E+04 -5.121996E+05 -1.361647E+04  8.833316E+03
        95   8 -1.193783E+06 -2.102349E+05  1.170857E+04 -5.283659E+05 -9.661987E+03  7.414179E+02
        95   9 -1.301626E+06 -2.709889E+05 -1.647012E+04 -5.799481E+05 -5.708738E+03 -7.349194E+03
        95  10 -1.420676E+06 -3.150354E+05 -4.170931E+04 -6.128067E+05 -8.835388E-11  6.786016E-10
        95  11 -1.312839E+06 -2.542582E+05 -1.494979E+04 -5.612378E+05 -1.241856E-09 -5.278417E-10
        95  12 -1.174252E+06 -2.243710E+05  1.120094E+04 -5.450843E+05 -1.616120E-09 -4.414005E-10
        95  13 -1.237950E+06 -2.477051E+05 -1.215915E+03 -5.625101E+05  9.124646E-10  3.888280E-10
        95  14 -1.253313E+06 -2.322469E+05 -1.620705E+03 -5.448027E+05  2.874152E-10 -1.762514E-11
        95  15 -1.237940E+06 -2.476799E+05 -2.634372E+03 -5.625168E+05  1.110484E-09 -4.940166E-11
        95  16 -1.055189E+06 -1.803716E+05  3.927583E+04 -5.121995E+05 -1.521519E-09 -1.325685E-10
        95  17 -1.193783E+06 -2.102349E+05  1.170839E+04 -5.283659E+05  9.490108E-10  7.123287E-11
        95  18 -1.301626E+06 -2.709890E+05 -1.647029E+04 -5.799481E+05  1.276927E-09  3.162189E-10
        95  19 -1.420676E+06 -3.150351E+05 -4.170880E+04 -6.128066E+05 -4.841073E+03 -1.574607E+04
        95  20 -1.312839E+06 -2.542581E+05 -1.494954E+04 -5.612377E+05 -8.792206E+03 -7.652384E+03
        95  21 -1.174252E+06 -2.243710E+05  1.120124E+04 -5.450843E+05 -1.274246E+04  4.399438E+02
        95  22 -1.237950E+06 -2.477049E+05 -1.215595E+03 -5.625101E+05  4.386189E+03 -1.229026E+04
        95  23 -1.253313E+06 -2.322468E+05 -1.620672E+03 -5.448027E+05  4.343449E+02 -4.197107E+03
        95  24 -1.237940E+06 -2.476799E+05 -2.634320E+03 -5.625169E+05 -3.516443E+03  3.894723E+03
        95  25 -1.055189E+06 -1.803715E+05  3.927632E+04 -5.121996E+05  1.361647E+04 -8.833316E+03
        95  26 -1.193783E+06 -2.102349E+05  1.170857E+04 -5.283659E+05  9.661987E+03 -7.414179E+02
        95  27 -1.301626E+06 -2.709889E+05 -1.647012E+04 -5.799481E+05  5.708738E+03  7.349194E+03
        96   1 -1.082563E+06 -1.904589E+05  3.172696E+04 -5.200158E+05  1.509300E+04 -5.137810E+03
        96   2 -9.746968E+05 -1.297447E+05  5.618523E+04 -4.684363E+05  2.118237E+04 -1.239296E+04
        96   3 -8.365206E+05 -1.002698E+05  7.834281E+04 -4.522152E+05  2.724284E+04 -1.956135E+04
        96   4 -1.238033E+06 -2.476581E+05 -3.434311E+03 -5.625454E+05  5.850479E+03 -8.599163E+03
        96   5 -1.253210E+06 -2.322079E+05 -6.110761E+03 -5.448017E+05  1.203221E+04 -1.582131E+04
        96   6 -1.238109E+06 -2.480164E+05 -1.116124E+04 -5.624224E+05  1.818442E+04 -2.295688E+04
        96   7 -1.393476E+06 -3.048544E+05 -3.859598E+04 -6.050645E+05 -3.389356E+03 -1.205952E+04
        96   8 -1.531642E+06 -3.346640E+05 -6.841049E+04 -6.211348E+05  2.886589E+03 -1.924797E+04
        96   9 -1.639533E+06 -3.957503E+05 -1.006748E+05 -6.725640E+05  9.132366E+03 -2.635004E+04
        96  10 -1.082563E+06 -1.904590E+05  3.172648E+04 -5.200158E+05 -2.480995E-10  6.345643E-11
        96  11 -9.746973E+05 -1.297450E+05  5.618410E+04 -4.684361E+05 -1.024743E-10  5.363578E-10
        96  12 -8.365215E+05 -1.002704E+05  7.834070E+04 -4.522148E+05  1.482537E-10  2.825582E-10
        96  13 -1.238033E+06 -2.476582E+05 -3.434514E+03 -5.625454E+05 -1.122733E-10  2.463416E-10
        96  14 -1.253210E+06 -2.322082E+05 -6.111503E+03 -5.448015E+05 -4.873461E-10  6.491601E-10
        96  15 -1.238109E+06 -2.480171E+05 -1.116285E+04 -5.624221E+05 -1.213090E-10  2.161489E-10
        96  16 -1.393476E+06 -3.048546E+05 -3.859627E+04 -6.050645E+05  2.437060E-10  3.607089E-10
        96  17 -1.531642E+06 -3.346644E+05 -6.841120E+04 -6.211347E+05  6.835884E-10  4.624219E-10
        96  18 -1.639533E+06 -3.957511E+05 -1.006762E+05 -6.725638E+05 -4.333323E-12  8.839450E-11
        96  19 -1.082563E+06 -1.904589E+05  3.172696E+04 -5.200158E+05 -1.509300E+04  5.137810E+03
        96  20 -9.746968E+05 -1.297447E+05  5.618523E+04 -4.684363E+05 -2.118237E+04  1.239296E+04
        96  21 -8.365206E+05 -1.002698E+05  7.834281E+04 -4.522152E+05 -2.724284E+04  1.956135E+04
        96  22 -1.238033E+06 -2.476581E+05 -3.434311E+03 -5.625454E+05 -5.850479E+03  8.599163E+03
        96  23 -1.253210E+06 -2.322079E+05 -6.110761E+03 -5.448017E+05 -1.203221E+04  1.582131E+04
        96  24 -1.238109E+06 -2.480164E+05 -1.116124E+04 -5.624224E+05 -1.818442E+04  2.295688E+04
        96  25 -1.393476E+06 -3.048544E+05 -3.859598E+04 -6.050645E+05  3.389356E+03  1.205952E+04
        96  26 -1.531642E+06 -3.346640E+05 -6.841049E+04 -6.211348E+05 -2.886589E+03  1.924797E+04
        96  27 -1.639533E+06 -3.957503E+05 -1.006748E+05 -6.725640E+05 -9.132366E+03  2.635004E+04
        97   1 -7.446999E+05 -6.679556E+04  9.592895E+04 -4.287421E+05  3.156907E+04 -2.359152E+04
        97   2 -6.379167E+05 -5.015303E+03  1.112361E+05 -3.745902E+05  4.632500E+04 -2.696227E+04
        97   3 -5.049701E+05  1.804910E+04  1.155924E+05 -3.538408E+05  6.050610E+04 -2.877681E+04
        97   4 -1.238784E+06 -2.473650E+05 -1.477029E+04 -5.628907E+05  2.212249E+04 -2.713406E+04
        97   5 -1.252370E+06 -2.324658E+05 -2.680883E+04 -5.444614E+05  3.857412E+04 -2.987269E+04
        97   6 -1.240151E+06 -2.566306E+05 -5.115344E+04 -5.594446E+05  5.444812E+04 -3.105528E+04
        97   7 -1.732624E+06 -4.279181E+05 -1.254855E+05 -6.969427E+05  1.268400E+04 -3.067363E+04
        97   8 -1.866444E+06 -4.598875E+05 -1.648782E+05 -7.141787E+05  3.083152E+04 -3.277998E+04
        97   9 -1.974788E+06 -5.312661E+05 -2.179344E+05 -7.648241E+05  4.839790E+04 -3.333077E+04
        97  10 -7.447011E+05 -6.679642E+04  9.592603E+04 -4.287415E+05 -1.118661E-09  1.515724E-10
        97  11 -6.379192E+05 -5.016659E+03  1.112307E+05 -3.745892E+05  9.267016E-11 -1.183623E-11
        97  12 -5.049742E+05  1.804723E+04  1.155840E+05 -3.538394E+05  4.957434E-11  1.590524E-10
        97  13 -1.238784E+06 -2.473659E+05 -1.477259E+04 -5.628902E+05  6.918973E-10  7.680998E-11
        97  14 -1.252372E+06 -2.324671E+05 -2.681331E+04 -5.444605E+05 -1.343729E-09 -1.098326E-10
        97  15 -1.240154E+06 -2.566325E+05 -5.116083E+04 -5.594433E+05  1.037181E-09 -1.450320E-11
        97  16 -1.732625E+06 -4.279192E+05 -1.254876E+05 -6.969424E+05 -2.026968E-10 -3.409765E-10
        97  17 -1.866446E+06 -4.598890E+05 -1.648820E+05 -7.141779E+05 -1.314788E-10 -2.068117E-10
        97  18 -1.974791E+06 -5.312679E+05 -2.179409E+05 -7.648228E+05  3.150300E-10  1.267264E-11
        97  19 -7.446999E+05 -6.679556E+04  9.592895E+04 -4.287421E+05 -3.156907E+04  2.359152E+04
        97  20 -6.379167E+05 -5.015303E+03  1.112361E+05 -3.745902E+05 -4.632500E+04  2.696227E+04
        97  21 -5.049701E+05  1.804910E+04  1.155924E+05 -3.538408E+05 -6.050610E+04  2.877681E+04
        97  22 -1.238784E+06 -2.473650E+05 -1.477029E+04 -5.628907E+05 -2.212249E+04  2.713406E+04
        97  23 -1.252370E+06 -2.324658E+05 -2.680883E+04 -5.444614E+05 -3.857412E+04  2.987269E+04
        97  24 -1.240151E+06 -2.566306E+05 -5.115344E+04 -5.594446E+05 -5.444812E+04  3.105528E+04
        97  25 -1.732624E+06 -4.279181E+05 -1.254855E+05 -6.969427E+05 -1.268400E+04  3.067363E+04
        97  26 -1.866444E+06 -4.598875E+05 -1.648782E+05 -7.141787E+05 -3.083152E+04  3.277998E+04
        97  27 -1.974788E+06 -5.312661E+05 -2.179344E+05 -7.648241E+05 -4.839790E+04  3.333077E+04
        98   1 -4.000946E+05  4.477379E+04  1.210242E+05 -3.630272E+05  7.907154E+04 -2.932895E+04
        98   2 -3.233417E+05  1.384046E+05  1.020939E+05 -2.407175E+05  1.074884E+05 -1.566646E+04
        98   3 -2.855033E+05  3.185080E+04  1.438261E+04 -1.065665E+05  1.242629E+05  2.897688E+04
        98   4 -1.248709E+06 -2.418248E+05 -6.563313E+04 -5.689853E+05  6.485177E+04 -3.466993E+04
        98   5 -1.240713E+06 -2.430190E+05 -1.193186E+05 -5.355975E+05  1.272816E+05 -8.244784E+03
        98   6 -1.278506E+06 -4.513384E+05 -2.688534E+05 -4.903558E+05  1.780525E+05  4.917386E+04
        98   7 -2.096594E+06 -5.283952E+05 -2.523318E+05 -7.746968E+05  5.065315E+04 -4.000452E+04
        98   8 -2.157235E+06 -6.243180E+05 -3.407905E+05 -8.300567E+05  1.470430E+05 -8.384093E+02
        98   9 -2.270515E+06 -9.342539E+05 -5.521700E+05 -8.735231E+05  2.317479E+05  6.931150E+04
        98  10 -4.001016E+05  4.477119E+04  1.210109E+05 -3.630253E+05  1.413167E-10  1.888827E-10
        98  11 -3.233542E+05  1.384012E+05  1.020717E+05 -2.407161E+05  3.297347E-10  3.354277E-10
        98  12 -2.855201E+05  3.184575E+04  1.435200E+04 -1.065694E+05  1.213339E-09  2.385670E-10
        98  13 -1.248714E+06 -2.418272E+05 -6.564330E+04 -5.689835E+05 -3.004217E-10  4.229109E-10
        98  14 -1.240731E+06 -2.430234E+05 -1.193492E+05 -5.355967E+05  2.152146E-10  2.794482E-10
        98  15 -1.278541E+06 -4.513495E+05 -2.689177E+05 -4.903628E+05 -1.142330E-09  1.236697E-10
        98  16 -2.096598E+06 -5.283976E+05 -2.523397E+05 -7.746951E+05  7.275129E-10  3.167437E-10
        98  17 -2.157258E+06 -6.243238E+05 -3.408313E+05 -8.300566E+05 -1.649858E-09  6.843722E-10
        98  18 -2.270574E+06 -9.342736E+05 -5.522804E+05 -8.735361E+05 -6.871265E-10  1.530989E-10
        98  19 -4.000946E+05  4.477379E+04  1.210242E+05 -3.630272E+05 -7.907154E+04  2.932895E+04
        98  20 -3.233417E+05  1.384046E+05  1.020939E+05 -2.407175E+05 -1.074884E+05  1.566646E+04
        98  21 -2.855033E+05  3.185080E+04  1.438261E+04 -1.065665E+05 -1.242629E+05 -2.897688E+04
        98  22 -1.248709E+06 -2.418248E+05 -6.563313E+04 -5.689853E+05 -6.485177E+04  3.466993E+04
        98  23 -1.240713E+06 -2.430190E+05 -1.193186E+05 -5.355975E+05 -1.272816E+05  8.244784E+03
        98  24 -1.278506E+06 -4.513384E+05 -2.688534E+05 -4.903558E+05 -1.780525E+05 -4.917386E+04
        98  25 -2.096594E+06 -5.283952E+05 -2.523318E+05 -7.746968E+05 -5.065315E+04  4.000452E+04
        98  26 -2.157235E+06 -6.243180E+05 -3.407905E+05 -8.300567E+05 -1.470430E+05  8.384093E+02
        98  27 -2.270515E+06 -9.342539E+05 -5.521700E+05 -8.735231E+05 -2.317479E+05 -6.931150E+04
        99   1 -9.573773E+05 -1.535993E+05 -1.295067E+05 -1.570328E+04  2.441760E+04  1.387147E+04
        99   2 -8.783371E+05 -2.129812E+05 -1.420207E+05 -3.345416E+04  2.818111E+04  4.460531E+04
        99   3 -7.818588E+05 -2.016190E+05 -1.392665E+05 -7.809886E+04  3.197085E+04  4.923890E+04
        99   4  4.249594E+04  9.426042E+04  1.099710E+05 -6.632796E+04  7.592719E+04  1.391298E+04
        99   5  3.115517E+04  7.648012E+03  5.132275E+04 -5.285120E+04  4.900318E+04  4.461297E+04
        99   6  4.254547E+04 -2.950301E+03  2.923692E+04 -6.626426E+04  2.210675E+04  4.923040E+04
        99   7  1.043297E+06  3.420588E+05  3.493893E+05 -1.170348E+05  1.275194E+05  1.394605E+04
        99   8  9.414294E+05  2.282252E+05  2.446207E+05 -7.227720E+04  6.985530E+04  4.461932E+04
        99   9  8.675967E+05  1.956764E+05  1.977048E+05 -5.441368E+04  1.222977E+04  4.922153E+04
        99  10 -9.573780E+05 -1.535997E+05 -1.295082E+05 -1.570356E+04  1.563785E-09  1.901948E-10
        99  11 -8.783385E+05 -2.129836E+05 -1.420259E+05 -3.345517E+04 -1.001724E-09  1.962859E-10
        99  12 -7.818606E+05 -2.016219E+05 -1.392730E+05 -7.810012E+04 -2.525919E-09  1.244648E-09
        99  13  4.248970E+04  9.425867E+04  1.099598E+05 -6.632882E+04 -1.565058E-12 -3.483142E-10
        99  14  3.115206E+04  7.645230E+03  5.131450E+04 -5.285296E+04  4.216601E-11  2.669113E-11
        99  15  4.254430E+04 -2.953034E+03  2.923145E+04 -6.626514E+04  9.408143E-10  8.502739E-10
        99  16  1.043280E+06  3.420543E+05  3.493584E+05 -1.170362E+05  1.249349E-10  1.821500E-10
        99  17  9.414236E+05  2.282217E+05  2.446078E+05 -7.227971E+04 -5.969899E-11 -5.167260E-10
        99  18  8.675959E+05  1.956738E+05  1.977000E+05 -5.441416E+04  3.475701E-09  5.212273E-10
        99  19 -9.573773E+05 -1.535993E+05 -1.295067E+05 -1.570328E+04 -2.441760E+04 -1.387147E+04
        99  20 -8.783371E+05 -2.129812E+05 -1.420207E+05 -3.345416E+04 -2.818111E+04 -4.460531E+04
        99  21 -7.818588E+05 -2.016190E+05 -1.392665E+05 -7.809886E+04 -3.197085E+04 -4.923890E+04
        99  22  4.249594E+04  9.426042E+04  1.099710E+05 -6.632796E+04 -7.592719E+04 -1.391298E+04
        99  23  3.115517E+04  7.648012E+03  5.132275E+04 -5.285120E+04 -4.900318E+04 -4.461297E+04
        99  24  4.254547E+04 -2.950301E+03  2.923692E+04 -6.626426E+04 -2.210675E+04 -4.923040E+04
        99  25  1.043297E+06  3.420588E+05  3.493893E+05 -1.170348E+05 -1.275194E+05 -1.394605E+04
        99  26  9.414294E+05  2.282252E+05  2.446207E+05 -7.227720E+04 -6.985530E+04 -4.461932E+04
        99  27  8.675967E+05  1.956764E+05  1.977048E+05 -5.441368E+04 -1.222977E+04 -4.922153E+04
       100   1 -7.223509E+05 -1.796404E+05 -1.329609E+05 -6.553395E+04  2.170963E+04  4.485391E+04
       100   2 -6.356241E+05 -1.619454E+05 -1.242104E+05 -5.234178E+04  1.710672E+04  4.109483E+04
       100   3 -5.473977E+05 -1.411430E+05 -1.116552E+05 -6.735364E+04  1.250011E+04  3.592719E+04
       100   4  3.790966E+04  3.635819E+03  2.284426E+04 -6.657070E+04  1.813702E+04  4.484856E+04
       100   5  3.703947E+04 -1.044102E+01  1.255377E+04 -5.246954E+04  1.187199E+04  4.109069E+04
       100   6  3.794652E+04 -2.628965E+02  7.218148E+03 -6.657041E+04  5.603870E+03  3.592500E+04
       100   7  7.987197E+05  1.868757E+05  1.786187E+05 -6.760875E+04  1.456011E+04  4.484322E+04
       100   8  7.101338E+05  1.618964E+05  1.492943E+05 -5.259744E+04  6.631685E+03  4.108656E+04
       100   9  6.236170E+05  1.405959E+05  1.260738E+05 -6.578641E+04 -1.298756E+03  3.592280E+04
       100  10 -7.223520E+05 -1.796427E+05 -1.329655E+05 -6.553474E+04  3.941478E-09  1.127729E-09
       100  11 -6.356249E+05 -1.619473E+05 -1.242141E+05 -5.234235E+04 -8.418471E-09 -2.778792E-10
       100  12 -5.473982E+05 -1.411444E+05 -1.116579E+05 -6.735401E+04 -1.831539E-08 -1.282471E-09
       100  13  3.790877E+04  3.633571E+03  2.283986E+04 -6.657135E+04  1.069891E-09  6.207064E-10
       100  14  3.703886E+04 -1.229203E+01  1.255033E+04 -5.246993E+04  5.679926E-10  4.798721E-11
       100  15  3.794614E+04 -2.642909E+02  7.215664E+03 -6.657057E+04  3.370806E-12 -7.601984E-10
       100  16  7.987189E+05  1.868735E+05  1.786145E+05 -6.760928E+04 -2.076405E-09  7.540776E-10
       100  17  7.101333E+05  1.618945E+05  1.492911E+05 -5.259766E+04  7.340752E-09 -1.969583E-10
       100  18  6.236167E+05  1.405945E+05  1.260714E+05 -6.578637E+04  1.939015E-08 -2.927831E-10
       100  19 -7.223509E+05 -1.796404E+05 -1.329609E+05 -6.553395E+04 -2.170963E+04 -4.485391E+04
       100  20 -6.356241E+05 -1.619454E+05 -1.242104E+05 -5.234178E+04 -1.710672E+04 -4.109483E+04
       100  21 -5.473977E+05 -1.411430E+05 -1.116552E+05 -6.735364E+04 -1.250011E+04 -3.592719E+04
       100  22  3.790966E+04  3.635819E+03  2.284426E+04 -6.657070E+04 -1.813702E+04 -4.484856E+04
       100  23  3.703947E+04 -1.044102E+01  1.255377E+04 -5.246954E+04 -1.187199E+04 -4.109069E+04
       100  24  3.794652E+04 -2.628965E+02  7.218148E+03 -6.657041E+04 -5.603870E+03 -3.592500E+04
       100  25  7.987197E+05  1.868757E+05  1.786187E+05 -6.760875E+04 -1.456011E+04 -4.484322E+04
       100  26  7.101338E+05  1.618964E+05  1.492943E+05 -5.259744E+04 -6.631685E+03 -4.108656E+04
       100  27  6.236170E+05  1.405959E+05  1.260738E+05 -6.578641E+04  1.298756E+03 -3.592280E+04
       101   1 -4.843710E+05 -1.255219E+05 -1.001187E+05 -6.674652E+04  1.103793E+04  3.253812E+04
       101   2 -3.970458E+05 -1.046132E+05 -8.490585E+04 -5.253936E+04  9.574326E+03  2.691957E+04
       101   3 -3.094523E+05 -8.354701E+04 -6.869264E+04 -6.659757E+04  8.108019E+03  2.122529E+04
       101   4  3.762765E+04  3.080126E+01  5.502775E+03 -6.658437E+04  4.481192E+03  3.253695E+04
       101   5  3.750141E+04 -7.490180E+01  3.142395E+03 -5.245231E+04  2.926960E+03  2.691977E+04
       101   6  3.765150E+04 -7.152015E+00  1.844664E+03 -6.658444E+04  1.370220E+03  2.122691E+04
       101   7  5.598860E+05  1.255666E+05  1.111103E+05 -6.642206E+04 -2.080954E+03  3.253578E+04
       101   8  4.722286E+05  1.044517E+05  9.118100E+04 -5.236519E+04 -3.724974E+03  2.691997E+04
       101   9  3.848701E+05  8.352522E+04  7.237584E+04 -6.657130E+04 -5.371277E+03  2.122852E+04
       101  10 -4.843714E+05 -1.255230E+05 -1.001209E+05 -6.674680E+04  1.851008E-08 -1.329705E-09
       101  11 -3.970461E+05 -1.046140E+05 -8.490738E+04 -5.253956E+04  7.458521E-09 -6.442698E-10
       101  12 -3.094525E+05 -8.354751E+04 -6.869361E+04 -6.659770E+04 -4.433133E-09  7.268304E-10
       101  13  3.762734E+04  2.965902E+01  5.500748E+03 -6.658449E+04  1.076028E-09 -8.610815E-10
       101  14  3.750121E+04 -7.568230E+01  3.141017E+03 -5.245238E+04 -1.098236E-09 -2.090953E-10
       101  15  3.765137E+04 -7.636378E+00  1.843813E+03 -6.658447E+04 -8.103625E-10  8.294400E-10
       101  16  5.598858E+05  1.255654E+05  1.111083E+05 -6.642200E+04 -1.745917E-08 -3.509423E-10
       101  17  4.722284E+05  1.044509E+05  9.117962E+04 -5.236511E+04 -8.540197E-09 -3.977352E-10
       101  18  3.848699E+05  8.352473E+04  7.237494E+04 -6.657121E+04  4.770122E-09  2.623731E-10
       101  19 -4.843710E+05 -1.255219E+05 -1.001187E+05 -6.674652E+04 -1.103793E+04 -3.253812E+04
       101  20 -3.970458E+05 -1.046132E+05 -8.490585E+04 -5.253936E+04 -9.574326E+03 -2.691957E+04
       101  21 -3.094523E+05 -8.354701E+04 -6.869264E+04 -6.659757E+04 -8.108019E+03 -2.122529E+04
       101  22  3.762765E+04  3.080126E+01  5.502775E+03 -6.658437E+04 -4.481192E+03 -3.253695E+04
       101  23  3.750141E+04 -7.490180E+01  3.142395E+03 -5.245231E+04 -2.926960E+03 -2.691977E+04
       101  24  3.765150E+04 -7.152015E+00  1.844664E+03 -6.658444E+04 -1.370220E+03 -2.122691E+04
       101  25  5.598860E+05  1.255666E+05  1.111103E+05 -6.642206E+04  2.080954E+03 -3.253578E+04
       101  26  4.722286E+05  1.044517E+05  9.118100E+04 -5.236519E+04  3.724974E+03 -2.691997E+04
       101  27  3.848701E+05  8.352522E+04  7.237584E+04 -6.657130E+04  5.371277E+03 -2.122852E+04
       102   1 -2.461908E+05 -6.820898E+04 -5.583241E+04 -6.657317E+04  7.792706E+03  1.789090E+04
       102   2 -1.587573E+05 -4.721086E+04 -3.887308E+04 -5.243145E+04  7.354148E+03  1.217333E+04
       102   3 -7.126970E+04 -2.618386E+04 -2.162581E+04 -6.655310E+04  6.914396E+03  6.451937E+03
       102   4  3.760931E+04  1.013375E+01  1.426342E+03 -6.658414E+04  1.073014E+03  1.789311E+04
       102   5  3.759026E+04  1.519739E+01  8.946071E+02 -5.245272E+04  6.293914E+02  1.217616E+04
       102   6  3.762008E+04  5.072842E+01  6.546222E+02 -6.658414E+04  1.846365E+02  6.455404E+03
       102   7  3.214862E+05  6.822428E+04  5.868112E+04 -6.659510E+04 -5.649693E+03  1.789533E+04
       102   8  2.339746E+05  4.723888E+04  4.066046E+04 -5.247399E+04 -6.097452E+03  1.217899E+04
       102   9  1.465212E+05  2.628459E+04  2.293460E+04 -6.661518E+04 -6.546282E+03  6.458871E+03
       102  10 -2.461909E+05 -6.820934E+04 -5.583313E+04 -6.657328E+04  1.299123E-09  1.114565E-09
       102  11 -1.587574E+05 -4.721103E+04 -3.887346E+04 -5.243152E+04 -1.555694E-10  3.164053E-10
       102  12 -7.126976E+04 -2.618391E+04 -2.162598E+04 -6.655314E+04 -7.558020E-11  1.818018E-11
       102  13  3.760922E+04  9.789633E+00  1.425738E+03 -6.658415E+04  1.081251E-09  4.403703E-10
       102  14  3.759022E+04  1.503808E+01  8.943277E+02 -5.245273E+04  5.073705E-10  2.716762E-10
       102  15  3.762007E+04  5.068366E+01  6.545438E+02 -6.658414E+04  2.298603E-09 -1.665569E-10
       102  16  3.214861E+05  6.822393E+04  5.868046E+04 -6.659502E+04 -5.030907E-10  4.285854E-10
       102  17  2.339745E+05  4.723872E+04  4.066011E+04 -5.247393E+04 -1.079338E-09  3.289594E-12
       102  18  1.465212E+05  2.628454E+04  2.293444E+04 -6.661514E+04  4.147243E-10 -3.255751E-10
       102  19 -2.461908E+05 -6.820898E+04 -5.583241E+04 -6.657317E+04 -7.792706E+03 -1.789090E+04
       102  20 -1.587573E+05 -4.721086E+04 -3.887308E+04 -5.243145E+04 -7.354148E+03 -1.217333E+04
       102  21 -7.126970E+04 -2.618386E+04 -2.162581E+04 -6.655310E+04 -6.914396E+03 -6.451937E+03
       102  22  3.760931E+04  1.013375E+01  1.426342E+03 -6.658414E+04 -1.073014E+03 -1.789311E+04
       102  23  3.759026E+04  1.519739E+01  8.946071E+02 -5.245272E+04 -6.293914E+02 -1.217616E+04
       102  24  3.762008E+04  5.072842E+01  6.546222E+02 -6.658414E+04 -1.846365E+02 -6.455404E+03
       102  25  3.214862E+05  6.822428E+04  5.868112E+04 -6.659510E+04  5.649693E+03 -1.789533E+04
       102  26  2.339746E+05  4.723888E+04  4.066046E+04 -5.247399E+04  6.097452E+03 -1.217899E+04
       102  27  1.465212E+05  2.628459E+04  2.293460E+04 -6.661518E+04  6.546282E+03 -6.458871E+03
       103   1 -7.961044E+03 -1.086332E+04 -8.389890E+03 -6.657397E+04  6.797452E+03  3.120960E+03
       103   2  7.949397E+04  1.010748E+04  9.151938E+03 -5.245064E+04  6.461344E+03 -2.599753E+03
       103   3  1.669807E+05  3.110749E+04  2.691220E+04 -6.659019E+04  6.125430E+03 -8.317210E+03
       103   4  3.761624E+04  5.236945E+01  6.118865E+02 -6.658417E+04  6.756551E+01  3.124575E+03
       103   5  3.760389E+04  3.325925E+01  6.679402E+02 -5.245267E+04 -2.651902E+02 -2.596285E+03
       103   6  3.761394E+04  4.282166E+01  9.398175E+02 -6.658417E+04 -5.977069E+02 -8.313865E+03
       103   7  8.319560E+04  1.096796E+04  9.613732E+03 -6.659438E+04 -6.662805E+03  3.128191E+03
       103   8 -4.284422E+03 -1.004105E+04 -7.815979E+03 -5.245470E+04 -6.991280E+03 -2.592816E+03
       103   9 -9.173673E+04 -3.102285E+04 -2.503325E+04 -6.657815E+04 -7.319471E+03 -8.310519E+03
       103  10 -7.961096E+03 -1.086335E+04 -8.389996E+03 -6.657399E+04  5.254077E-10  2.840949E-10
       103  11  7.949393E+04  1.010746E+04  9.151847E+03 -5.245063E+04  1.553822E-10  4.335924E-10
       103  12  1.669806E+05  3.110740E+04  2.691200E+04 -6.659015E+04 -1.066629E-09 -5.750915E-10
       103  13  3.761623E+04  5.235896E+01  6.118682E+02 -6.658417E+04 -1.077528E-09 -2.855683E-11
       103  14  3.760389E+04  3.325200E+01  6.679274E+02 -5.245267E+04 -1.094822E-09 -5.532595E-10
       103  15  3.761392E+04  4.274734E+01  9.396870E+02 -6.658418E+04 -2.016209E-09  2.696747E-10
       103  16  8.319555E+04  1.096794E+04  9.613630E+03 -6.659436E+04 -2.612290E-10 -1.036881E-10
       103  17 -4.284477E+03 -1.004107E+04 -7.816083E+03 -5.245472E+04 -1.394868E-09 -4.003193E-10
       103  18 -9.173680E+04 -3.102294E+04 -2.503348E+04 -6.657820E+04 -6.459607E-11  6.731572E-10
       103  19 -7.961044E+03 -1.086332E+04 -8.389890E+03 -6.657397E+04 -6.797452E+03 -3.120960E+03
       103  20  7.949397E+04  1.010748E+04  9.151938E+03 -5.245064E+04 -6.461344E+03  2.599753E+03
       103  21  1.669807E+05  3.110749E+04  2.691220E+04 -6.659019E+04 -6.125430E+03  8.317210E+03
       103  22  3.761624E+04  5.236945E+01  6.118865E+02 -6.658417E+04 -6.756551E+01 -3.124575E+03
       103  23  3.760389E+04  3.325925E+01  6.679402E+02 -5.245267E+04  2.651902E+02  2.596285E+03
       103  24  3.761394E+04  4.282166E+01  9.398175E+02 -6.658417E+04  5.977069E+02  8.313865E+03
       103  25  8.319560E+04  1.096796E+04  9.613732E+03 -6.659438E+04  6.662805E+03 -3.128191E+03
       103  26 -4.284422E+03 -1.004105E+04 -7.815979E+03 -5.245470E+04  6.991280E+03  2.592816E+03
       103  27 -9.173673E+04 -3.102285E+04 -2.503325E+04 -6.657815E+04  7.319471E+03  8.310519E+03
       104   1  2.303329E+05  4.641543E+04  4.042611E+04 -6.659153E+04  5.947947E+03 -1.165004E+04
       104   2  3.177384E+05  6.736087E+04  5.869744E+04 -5.243734E+04  4.906880E+03 -1.734601E+04
       104   3  4.053147E+05  8.843482E+04  7.767594E+04 -6.654444E+04  3.867302E+03 -2.297755E+04
       104   4  3.763813E+04  3.288240E+01  1.177346E+03 -6.658397E+04 -7.911637E+02 -1.164700E+04
       104   5  3.755522E+04 -1.423442E+01  1.945508E+03 -5.245291E+04 -1.756452E+03 -1.734390E+04
       104   6  3.762276E+04  5.447646E+01  3.368582E+03 -6.658392E+04 -2.720109E+03 -2.297633E+04
       104   7 -1.550213E+05 -4.635196E+04 -3.807319E+04 -6.657641E+04 -7.528222E+03 -1.164395E+04
       104   8 -2.425532E+05 -6.739420E+04 -5.481033E+04 -5.246847E+04 -8.416835E+03 -1.734179E+04
       104   9 -3.299404E+05 -8.833423E+04 -7.094560E+04 -6.662336E+04 -9.303696E+03 -2.297511E+04
       104  10  2.303329E+05  4.641528E+04  4.042579E+04 -6.659147E+04 -7.193305E-10 -2.681630E-10
       104  11  3.177383E+05  6.736054E+04  5.869683E+04 -5.243727E+04 -9.995617E-11  5.297923E-10
       104  12  4.053146E+05  8.843425E+04  7.767492E+04 -6.654437E+04 -1.579984E-09 -3.421827E-11
       104  13  3.763809E+04  3.273656E+01  1.177090E+03 -6.658398E+04 -1.081538E-09  4.010794E-10
       104  14  3.755514E+04 -1.455827E+01  1.944937E+03 -5.245294E+04  1.063606E-09 -1.766363E-10
       104  15  3.762261E+04  5.390757E+01  3.367576E+03 -6.658397E+04 -3.890446E-10 -1.143883E-10
       104  16 -1.550214E+05 -4.635212E+04 -3.807356E+04 -6.657648E+04 -8.059749E-10  5.821387E-10
       104  17 -2.425533E+05 -6.739454E+04 -5.481103E+04 -5.246859E+04 -3.373409E-10 -1.040067E-10
       104  18 -3.299406E+05 -8.833482E+04 -7.094676E+04 -6.662353E+04 -2.225296E-10  1.427363E-10
       104  19  2.303329E+05  4.641543E+04  4.042611E+04 -6.659153E+04 -5.947947E+03  1.165004E+04
       104  20  3.177384E+05  6.736087E+04  5.869744E+04 -5.243734E+04 -4.906880E+03  1.734601E+04
       104  21  4.053147E+05  8.843482E+04  7.767594E+04 -6.654444E+04 -3.867302E+03  2.297755E+04
       104  22  3.763813E+04  3.288240E+01  1.177346E+03 -6.658397E+04  7.911637E+02  1.164700E+04
       104  23  3.755522E+04 -1.423442E+01  1.945508E+03 -5.245291E+04  1.756452E+03  1.734390E+04
       104  24  3.762276E+04  5.447646E+01  3.368582E+03 -6.658392E+04  2.720109E+03  2.297633E+04
       104  25 -1.550213E+05 -4.635196E+04 -3.807319E+04 -6.657641E+04  7.528222E+03  1.164395E+04
       104  26 -2.425532E+05 -6.739420E+04 -5.481033E+04 -5.246847E+04  8.416835E+03  1.734179E+04
       104  27 -3.299404E+05 -8.833423E+04 -7.094560E+04 -6.662336E+04  9.303696E+03  2.297511E+04
       105   1  4.688967E+05  1.035757E+05  9.196808E+04 -6.616913E+04  3.469474E+03 -2.635582E+04
       105   2  5.557635E+05  1.247544E+05  1.130334E+05 -5.263454E+04 -1.763119E+03 -3.160143E+04
       105   3  6.439514E+05  1.482517E+05  1.380942E+05 -6.730603E+04 -6.993693E+03 -3.565023E+04
       105   4  3.781690E+04 -1.257331E+02  4.408987E+03 -6.657185E+04 -3.407643E+03 -2.635529E+04
       105   5  3.726686E+04  1.532547E+01  7.650935E+03 -5.246791E+04 -7.229072E+03 -3.160274E+04
       105   6  3.778847E+04  2.231971E+03  1.391138E+04 -6.657142E+04 -1.104778E+04 -3.565289E+04
       105   7 -3.930861E+05 -1.038387E+05 -8.315963E+04 -6.697426E+04 -1.028008E+04 -2.635475E+04
       105   8 -4.809741E+05 -1.247405E+05 -9.774549E+04 -5.230140E+04 -1.269055E+04 -3.160405E+04
       105   9 -5.680257E+05 -1.438108E+05 -1.102909E+05 -6.583752E+04 -1.509799E+04 -3.565556E+04
       105  10  4.688965E+05  1.035749E+05  9.196675E+04 -6.616905E+04 -2.346611E-10 -2.136616E-10
       105  11  5.557632E+05  1.247534E+05  1.130315E+05 -5.263459E+04  1.119829E-09 -1.287339E-10
       105  12  6.439510E+05  1.482503E+05  1.380917E+05 -6.730623E+04 -3.250148E-10  2.772564E-10
       105  13  3.781670E+04 -1.264821E+02  4.407660E+03 -6.657192E+04 -1.075679E-09  3.529167E-11
       105  14  3.726653E+04  1.423893E+01  7.648960E+03 -5.246810E+04 -2.168430E-09 -1.751263E-10
       105  15  3.778800E+04  2.230573E+03  1.390876E+04 -6.657174E+04  5.392670E-10 -5.592381E-11
       105  16 -3.930864E+05 -1.038394E+05 -8.316113E+04 -6.697448E+04 -1.748095E-09  2.522493E-10
       105  17 -4.809745E+05 -1.247416E+05 -9.774767E+04 -5.230173E+04 -1.930424E-10 -5.431794E-10
       105  18 -5.680263E+05 -1.438122E+05 -1.102937E+05 -6.583796E+04  8.688699E-10 -3.976140E-10
       105  19  4.688967E+05  1.035757E+05  9.196808E+04 -6.616913E+04 -3.469474E+03  2.635582E+04
       105  20  5.557635E+05  1.247544E+05  1.130334E+05 -5.263454E+04  1.763119E+03  3.160143E+04
       105  21  6.439514E+05  1.482517E+05  1.380942E+05 -6.730603E+04  6.993693E+03  3.565023E+04
       105  22  3.781690E+04 -1.257331E+02  4.408987E+03 -6.657185E+04  3.407643E+03  2.635529E+04
       105  23  3.726686E+04  1.532547E+01  7.650935E+03 -5.246791E+04  7.229072E+03  3.160274E+04
       105  24  3.778847E+04  2.231971E+03  1.391138E+04 -6.657142E+04  1.104778E+04  3.565289E+04
       105  25 -3.930861E+05 -1.038387E+05 -8.315963E+04 -6.697426E+04  1.028008E+04  2.635475E+04
       105  26 -4.809741E+05 -1.247405E+05 -9.774549E+04 -5.230140E+04  1.269055E+04  3.160405E+04
       105  27 -5.680257E+05 -1.438108E+05 -1.102909E+05 -6.583752E+04  1.509799E+04  3.565556E+04
       106   1  7.108786E+05  1.596057E+05  1.547662E+05 -5.920714E+04 -4.055337E+03 -3.987151E+04
       106   2  7.894563E+05  1.878663E+05  1.919297E+05 -6.471941E+04 -4.653908E+04 -3.679734E+04
       106   3  8.864057E+05  2.669191E+05  2.694606E+05 -9.729861E+04 -8.904431E+04 -1.155665E+04
       106   4  4.061191E+04 -1.782162E+03  1.780262E+04 -6.631336E+04 -1.346628E+04 -3.987558E+04
       106   5  3.366515E+04  4.653688E+03  3.124183E+04 -5.278969E+04 -2.983795E+04 -3.679686E+04
       106   6  4.057063E+04  5.738303E+04  6.694393E+04 -6.633105E+04 -4.622343E+04 -1.154201E+04
       106   7 -6.292279E+05 -1.631979E+05 -1.191844E+05 -7.341176E+04 -2.286726E+04 -3.987943E+04
       106   8 -7.215873E+05 -1.785953E+05 -1.294777E+05 -4.087471E+04 -1.315681E+04 -3.679573E+04
       106   9 -8.046035E+05 -1.522003E+05 -1.356159E+05 -3.540585E+04 -3.460548E+03 -1.152310E+04
       106  10  7.108782E+05  1.596040E+05  1.547632E+05 -5.920727E+04 -1.639629E-09  6.259665E-10
       106  11  7.894536E+05  1.878642E+05  1.919231E+05 -6.472079E+04 -1.500299E-09  6.714539E-10
       106  12  8.863972E+05  2.669168E+05  2.694455E+05 -9.729944E+04 -4.869546E-10  1.093878E-10
       106  13  4.061129E+04 -1.783918E+03  1.779929E+04 -6.631379E+04 -1.075477E-09  4.783030E-10
       106  14  3.366383E+04  4.651995E+03  3.123762E+04 -5.279058E+04 -1.041046E-09  1.123954E-09
       106  15  4.056830E+04  5.738231E+04  6.693966E+04 -6.633148E+04 -1.225435E-09  1.487857E-10
       106  16 -6.292289E+05 -1.631997E+05 -1.191883E+05 -7.341249E+04  7.723611E-10  1.164289E-10
       106  17 -7.215878E+05 -1.785968E+05 -1.294805E+05 -4.087511E+04  1.209292E-09  5.391583E-10
       106  18 -8.046036E+05 -1.522004E+05 -1.356162E+05 -3.540588E+04  4.300138E-10  1.786353E-11
       106  19  7.108786E+05  1.596057E+05  1.547662E+05 -5.920714E+04  4.055337E+03  3.987151E+04
       106  20  7.894563E+05  1.878663E+05  1.919297E+05 -6.471941E+04  4.653908E+04  3.679734E+04
       106  21  8.864057E+05  2.669191E+05  2.694606E+05 -9.729861E+04  8.904431E+04  1.155665E+04
       106  22  4.061191E+04 -1.782162E+03  1.780262E+04 -6.631336E+04  1.346628E+04  3.987558E+04
       106  23  3.366515E+04  4.653688E+03  3.124183E+04 -5.278969E+04  2.983795E+04  3.679686E+04
       106  24  4.057063E+04  5.738303E+04  6.694393E+04 -6.633105E+04  4.622343E+04  1.154201E+04
       106  25 -6.292279E+05 -1.631979E+05 -1.191844E+05 -7.341176E+04  2.286726E+04  3.987943E+04
       106  26 -7.215873E+05 -1.785953E+05 -1.294777E+05 -4.087471E+04  1.315681E+04  3.679573E+04
       106  27 -8.046035E+05 -1.522003E+05 -1.356159E+05 -3.540585E+04  3.460548E+03  1.152310E+04
       107   1  7.255218E+05  2.621030E+06  7.259269E+05 -5.729720E+05  2.726397E+04  2.013400E+05
       107   2  4.445259E+05  1.957572E+06  4.484396E+05 -4.337505E+05  7.969698E+04  8.409518E+04
       107   3  2.743759E+05  1.337229E+06  2.747290E+05 -4.897441E+05  6.564425E+04 -3.311833E+04
       107   4  1.237042E+05  1.932553E+05  1.420136E+05 -5.013874E+05  2.750772E+04  9.626796E+04
       107   5  1.308691E+04  1.792522E+05  6.808303E+04 -4.039192E+05  7.977377E+04  6.080501E+04
       107   6 -6.403139E+02  1.939753E+05  4.142846E+04 -5.016561E+05  6.548349E+04  2.524807E+04
       107   7 -4.785181E+05 -2.229107E+06 -4.422755E+05 -4.300782E+05  2.772794E+04 -8.396643E+03
       107   8 -4.185552E+05 -1.596096E+06 -3.124546E+05 -3.741717E+05  7.984848E+04  3.758025E+04
       107   9 -2.757358E+05 -9.480305E+05 -1.919281E+05 -5.135444E+05  6.532031E+04  8.350911E+04
       107  10  7.255101E+05  2.620986E+06  7.258496E+05 -5.729765E+05  4.387111E-12  1.650789E-09
       107  11  4.445172E+05  1.957563E+06  4.484144E+05 -4.337559E+05  1.794855E-09  7.626185E-10
       107  12  2.743710E+05  1.337227E+06  2.747188E+05 -4.897423E+05  2.204884E-09 -4.811015E-10
       107  13  1.237008E+05  1.932451E+05  1.419948E+05 -5.013896E+05  1.318769E-10 -3.283593E-10
       107  14  1.307908E+04  1.792465E+05  6.806411E+04 -4.039231E+05  2.486981E-09 -7.329293E-11
       107  15 -6.450920E+02  1.939735E+05  4.141920E+04 -5.016574E+05  6.424201E-10 -7.267236E-10
       107  16 -4.785190E+05 -2.229107E+06 -4.422771E+05 -4.300780E+05  2.928275E-10 -1.638537E-09
       107  17 -4.185624E+05 -1.596099E+06 -3.124693E+05 -3.741741E+05  5.527863E-11 -7.917262E-10
       107  18 -2.757423E+05 -9.480391E+05 -1.919493E+05 -5.135488E+05 -1.322872E-09  4.074177E-12
       107  19  7.255218E+05  2.621030E+06  7.259269E+05 -5.729720E+05 -2.726397E+04 -2.013400E+05
       107  20  4.445259E+05  1.957572E+06  4.484396E+05 -4.337505E+05 -7.969698E+04 -8.409518E+04
       107  21  2.743759E+05  1.337229E+06  2.747290E+05 -4.897441E+05 -6.564425E+04  3.311833E+04
       107  22  1.237042E+05  1.932553E+05  1.420136E+05 -5.013874E+05 -2.750772E+04 -9.626796E+04
       107  23  1.308691E+04  1.792522E+05  6.808303E+04 -4.039192E+05 -7.977377E+04 -6.080501E+04
       107  24 -6.403139E+02  1.939753E+05  4.142846E+04 -5.016561E+05 -6.548349E+04 -2.524807E+04
       107  25 -4.785181E+05 -2.229107E+06 -4.422755E+05 -4.300782E+05 -2.772794E+04  8.396643E+03
       107  26 -4.185552E+05 -1.596096E+06 -3.124546E+05 -3.741717E+05 -7.984848E+04 -3.758025E+04
       107  27 -2.757358E+05 -9.480305E+05 -1.919281E+05 -5.135444E+05 -6.532031E+04 -8.350911E+04
       108   1  1.718271E+05  8.718392E+05  1.745180E+05 -5.058438E+05  3.854276E+04 -2.452089E+04
       108   2  1.262155E+04  2.296667E+05  3.369187E+04 -4.032458E+05  2.755682E+03 -3.730987E+04
       108   3 -1.391505E+05 -4.096322E+05 -9.726355E+04 -4.992537E+05 -3.315395E+04 -5.008803E+04
       108   4  7.163018E+03  1.883090E+05  3.439563E+04 -5.023580E+05  3.841181E+04  1.927854E+04
       108   5  2.399664E+03  1.870875E+05  2.515430E+04 -4.030594E+05  2.624124E+03  6.628044E+03
       108   6  5.070473E+03  1.883266E+05  2.570260E+04 -5.023645E+05 -3.328725E+04 -6.024236E+03
       108   7 -1.575293E+05 -4.947737E+05 -1.057444E+05 -4.988756E+05  3.828126E+04  6.303067E+04
       108   8 -7.821297E+03  1.445141E+05  1.662390E+04 -4.028730E+05  2.492587E+03  5.056301E+04
       108   9  1.492700E+05  7.866291E+05  1.486569E+05 -5.054779E+05 -3.342092E+04  3.808127E+04
       108  10  1.718253E+05  8.718381E+05  1.745140E+05 -5.058430E+05  1.899683E-09  1.718472E-09
       108  11  1.262117E+04  2.296652E+05  3.368924E+04 -4.032458E+05  1.263421E-09  1.333761E-10
       108  12 -1.391523E+05 -4.096352E+05 -9.727034E+04 -4.992551E+05  1.044904E-09 -1.289040E-09
       108  13  7.161333E+03  1.883083E+05  3.439215E+04 -5.023586E+05  2.065164E-10 -6.097347E-10
       108  14  2.399645E+03  1.870874E+05  2.515421E+04 -4.030594E+05 -1.204554E-10  1.057329E-11
       108  15  5.069273E+03  1.883263E+05  2.570045E+04 -5.023646E+05  5.167485E-10 -8.121956E-10
       108  16 -1.575320E+05 -4.947784E+05 -1.057546E+05 -4.988775E+05 -1.499232E-09 -1.643182E-09
       108  17 -7.821990E+03  1.445114E+05  1.661908E+04 -4.028731E+05  6.905150E-10 -8.200753E-11
       108  18  1.492684E+05  7.866272E+05  1.486521E+05 -5.054769E+05 -1.228718E-09  9.381381E-10
       108  19  1.718271E+05  8.718392E+05  1.745180E+05 -5.058438E+05 -3.854276E+04  2.452089E+04
       108  20  1.262155E+04  2.296667E+05  3.369187E+04 -4.032458E+05 -2.755682E+03  3.730987E+04
       108  21 -1.391505E+05 -4.096322E+05 -9.726355E+04 -4.992537E+05  3.315395E+04  5.008803E+04
       108  22  7.163018E+03  1.883090E+05  3.439563E+04 -5.023580E+05 -3.841181E+04 -1.927854E+04
       108  23  2.399664E+03  1.870875E+05  2.515430E+04 -4.030594E+05 -2.624124E+03 -6.628044E+03
       108  24  5.070473E+03  1.883266E+05  2.570260E+04 -5.023645E+05  3.328725E+04  6.024236E+03
       108  25 -1.575293E+05 -4.947737E+05 -1.057444E+05 -4.988756E+05 -3.828126E+04 -6.303067E+04
       108  26 -7.821297E+03  1.445141E+05  1.662390E+04 -4.028730E+05 -2.492587E+03 -5.056301E+04
       108  27  1.492700E+05  7.866291E+05  1.486569E+05 -5.054779E+05  3.342092E+04 -3.808127E+04
       109   1 -2.539095E+05 -8.655019E+05 -1.880496E+05 -5.074500E+05 -6.013628E+04 -6.847155E+04
       109   2 -4.029669E+05 -1.507817E+06 -3.216819E+05 -3.854803E+05 -7.557784E+04 -1.101012E+04
       109   3 -5.094131E+05 -2.146760E+06 -4.822178E+05 -4.589141E+05 -2.651677E+04  4.648724E+04
       109   4  7.428533E+02  1.913219E+05  2.816557E+04 -5.016704E+05 -6.030120E+04 -1.040958E+04
       109   5  8.046133E+03  1.826619E+05  4.104391E+04 -4.039182E+05 -7.551093E+04 -3.178725E+04
       109   6  7.160941E+04  1.906397E+05  8.178911E+04 -5.015136E+05 -2.630197E+04 -5.306927E+04
       109   7  2.553272E+05  1.249215E+06  2.443342E+05 -4.958797E+05 -6.046487E+04  4.774953E+04
       109   8  4.188732E+05  1.875834E+06  4.036047E+05 -4.224047E+05 -7.544291E+04 -5.262016E+04
       109   9  6.522442E+05  2.533071E+06  6.454433E+05 -5.442700E+05 -2.607400E+04 -1.530000E+05
       109  10 -2.539147E+05 -8.655079E+05 -1.880652E+05 -5.074533E+05 -5.101939E-10  1.375927E-09
       109  11 -4.029731E+05 -1.507819E+06 -3.216928E+05 -3.854809E+05  1.531909E-10  4.987611E-10
       109  12 -5.094144E+05 -2.146762E+06 -4.822232E+05 -4.589131E+05  7.399857E-10 -4.081590E-10
       109  13  7.389185E+02  1.913208E+05  2.815853E+04 -5.016710E+05 -1.468492E-09 -5.867605E-10
       109  14  8.039737E+03  1.826593E+05  4.103129E+04 -4.039201E+05 -8.222358E-10  1.547310E-11
       109  15  7.160791E+04  1.906365E+05  8.178252E+04 -5.015147E+05 -5.130159E-10 -4.754502E-10
       109  16  2.553226E+05  1.249212E+06  2.443231E+05 -4.958774E+05 -1.303099E-09 -1.317579E-09
       109  17  4.188663E+05  1.875829E+06  4.035888E+05 -4.224079E+05  3.801652E-10 -4.776640E-10
       109  18  6.522372E+05  2.533046E+06  6.453982E+05 -5.442732E+05  4.110069E-10  4.907924E-11
       109  19 -2.539095E+05 -8.655019E+05 -1.880496E+05 -5.074500E+05  6.013628E+04  6.847155E+04
       109  20 -4.029669E+05 -1.507817E+06 -3.216819E+05 -3.854803E+05  7.557784E+04  1.101012E+04
       109  21 -5.094131E+05 -2.146760E+06 -4.822178E+05 -4.589141E+05  2.651677E+04 -4.648724E+04
       109  22  7.428533E+02  1.913219E+05  2.816557E+04 -5.016704E+05  6.030120E+04  1.040958E+04
       109  23  8.046133E+03  1.826619E+05  4.104391E+04 -4.039182E+05  7.551093E+04  3.178725E+04
       109  24  7.160941E+04  1.906397E+05  8.178911E+04 -5.015136E+05  2.630197E+04  5.306927E+04
       109  25  2.553272E+05  1.249215E+06  2.443342E+05 -4.958797E+05  6.046487E+04 -4.774953E+04
       109  26  4.188732E+05  1.875834E+06  4.036047E+05 -4.224047E+05  7.544291E+04  5.262016E+04
       109  27  6.522442E+05  2.533071E+06  6.454433E+05 -5.442700E+05  2.607400E+04  1.530000E+05
       110   1 -2.181074E+06 -8.029520E+05 -4.558706E+05 -8.293237E+05 -2.060099E+05 -6.448376E+04
       110   2 -2.113381E+06 -5.335206E+05 -2.742020E+05 -8.061699E+05 -1.314518E+05 -8.140657E+03
       110   3 -2.104576E+06 -4.539499E+05 -2.022544E+05 -7.595908E+05 -4.862204E+04  2.625561E+04
       110   4 -1.491505E+06 -4.400284E+05 -2.538657E+05 -5.349437E+05 -1.668244E+05 -4.979257E+04
       110   5 -1.450422E+06 -2.486391E+05 -1.126475E+05 -5.837690E+05 -1.163155E+05 -2.465709E+03
       110   6 -1.463378E+06 -2.422375E+05 -6.197335E+04 -6.091933E+05 -5.754679E+04  2.290189E+04
       110   7 -8.014382E+05 -7.691898E+04 -5.189771E+04 -2.402201E+05 -1.275911E+05 -3.506689E+04
       110   8 -7.870181E+05  3.631851E+04  4.887512E+04 -3.611355E+05 -1.011616E+05  3.218250E+03
       110   9 -8.217695E+05 -3.051478E+04  7.828237E+04 -4.586631E+05 -6.648149E+04  1.954536E+04
       110  10 -2.181121E+06 -8.029680E+05 -4.559585E+05 -8.293344E+05  9.928932E-10  1.397295E-11
       110  11 -2.113399E+06 -5.335253E+05 -2.742347E+05 -8.061708E+05  4.916495E-10 -1.199949E-10
       110  12 -2.104579E+06 -4.539513E+05 -2.022601E+05 -7.595897E+05  3.801232E-10 -1.538834E-10
       110  13 -1.491536E+06 -4.400386E+05 -2.539229E+05 -5.349504E+05  8.765621E-11 -4.976137E-10
       110  14 -1.450436E+06 -2.486428E+05 -1.126730E+05 -5.837693E+05  3.533443E-10 -2.171484E-10
       110  15 -1.463382E+06 -2.422389E+05 -6.198057E+04 -6.091923E+05  1.625708E-09 -2.071465E-10
       110  16 -8.014560E+05 -7.692468E+04 -5.193066E+04 -2.402237E+05  1.903497E-11 -3.582420E-11
       110  17 -7.870291E+05  3.631575E+04  4.885585E+04 -3.611352E+05 -1.531363E-09 -1.906964E-10
       110  18 -8.217744E+05 -3.051638E+04  7.827334E+04 -4.586621E+05  1.211797E-09 -4.118277E-11
       110  19 -2.181074E+06 -8.029520E+05 -4.558706E+05 -8.293237E+05  2.060099E+05  6.448376E+04
       110  20 -2.113381E+06 -5.335206E+05 -2.742020E+05 -8.061699E+05  1.314518E+05  8.140657E+03
       110  21 -2.104576E+06 -4.539499E+05 -2.022544E+05 -7.595908E+05  4.862204E+04 -2.625561E+04
       110  22 -1.491505E+06 -4.400284E+05 -2.538657E+05 -5.349437E+05  1.668244E+05  4.979257E+04
       110  23 -1.450422E+06 -2.486391E+05 -1.126475E+05 -5.837690E+05  1.163155E+05  2.465709E+03
       110  24 -1.463378E+06 -2.422375E+05 -6.197335E+04 -6.091933E+05  5.754679E+04 -2.290189E+04
       110  25 -8.014382E+05 -7.691898E+04 -5.189771E+04 -2.402201E+05  1.275911E+05  3.506689E+04
       110  26 -7.870181E+05  3.631851E+04  4.887512E+04 -3.611355E+05  1.011616E+05 -3.218250E+03
       110  27 -8.217695E+05 -3.051478E+04  7.828237E+04 -4.586631E+05  6.648149E+04 -1.954536E+04
       111   1 -2.022394E+06 -4.687511E+05 -1.770821E+05 -7.592374E+05 -4.537352E+04  2.283271E+04
       111   2 -1.958451E+06 -4.231082E+05 -1.370644E+05 -7.297565E+05 -3.012213E+04  2.466895E+04
       111   3 -1.881367E+06 -4.036442E+05 -1.096404E+05 -7.192629E+05 -1.445576E+04  2.539864E+04
       111   4 -1.455368E+06 -2.561703E+05 -4.829962E+04 -6.001002E+05 -4.853137E+04  2.164384E+04
       111   5 -1.461425E+06 -2.388626E+05 -2.531461E+04 -5.922256E+05 -3.448369E+04  2.302970E+04
       111   6 -1.454104E+06 -2.474893E+05 -1.395864E+04 -6.033397E+05 -2.002298E+04  2.330871E+04
       111   7 -8.880129E+05 -4.356126E+04  8.046294E+04 -4.408277E+05 -5.169236E+04  2.045375E+04
       111   8 -9.641476E+05 -5.459684E+04  8.641991E+04 -4.545930E+05 -3.884906E+04  2.138902E+04
       111   9 -1.026657E+06 -9.132134E+04  8.171172E+04 -4.873436E+05 -2.559436E+04  2.121726E+04
       111  10 -2.022397E+06 -4.687522E+05 -1.770870E+05 -7.592366E+05  4.045217E-10  3.125746E-11
       111  11 -1.958453E+06 -4.231091E+05 -1.370672E+05 -7.297559E+05  1.308965E-09  3.169202E-10
       111  12 -1.881368E+06 -4.036450E+05 -1.096420E+05 -7.192626E+05  1.627843E-09  7.604388E-10
       111  13 -1.455370E+06 -2.561715E+05 -4.830493E+04 -6.000994E+05  1.005898E-09  1.392030E-11
       111  14 -1.461426E+06 -2.388634E+05 -2.531784E+04 -5.922250E+05  3.925614E-09 -1.094284E-11
       111  15 -1.454105E+06 -2.474900E+05 -1.396041E+04 -6.033393E+05 -8.495589E-10 -5.489470E-11
       111  16 -8.880159E+05 -4.356242E+04  8.045713E+04 -4.408268E+05  1.933580E-09  3.865146E-11
       111  17 -9.641493E+05 -5.459774E+04  8.641621E+04 -4.545923E+05 -7.731004E-10  1.136243E-10
       111  18 -1.026658E+06 -9.132200E+04  8.170964E+04 -4.873432E+05 -1.614960E-09 -7.126068E-10
       111  19 -2.022394E+06 -4.687511E+05 -1.770821E+05 -7.592374E+05  4.537352E+04 -2.283271E+04
       111  20 -1.958451E+06 -4.231082E+05 -1.370644E+05 -7.297565E+05  3.012213E+04 -2.466895E+04
       111  21 -1.881367E+06 -4.036442E+05 -1.096404E+05 -7.192629E+05  1.445576E+04 -2.539864E+04
       111  22 -1.455368E+06 -2.561703E+05 -4.829962E+04 -6.001002E+05  4.853137E+04 -2.164384E+04
       111  23 -1.461425E+06 -2.388626E+05 -2.531461E+04 -5.922256E+05  3.448369E+04 -2.302970E+04
       111  24 -1.454104E+06 -2.474893E+05 -1.395864E+04 -6.033397E+05  2.002298E+04 -2.330871E+04
       111  25 -8.880129E+05 -4.356126E+04  8.046294E+04 -4.408277E+05  5.169236E+04 -2.045375E+04
       111  26 -9.641476E+05 -5.459684E+04  8.641991E+04 -4.545930E+05  3.884906E+04 -2.138902E+04
       111  27 -1.026657E+06 -9.132134E+04  8.171172E+04 -4.873436E+05  2.559436E+04 -2.121726E+04
       112   1 -1.826114E+06 -3.853565E+05 -9.379329E+04 -7.051908E+05 -1.166286E+04  2.311417E+04
       112   2 -1.762552E+06 -3.492781E+05 -7.301167E+04 -6.749552E+05 -6.877951E+03  1.937040E+04
       112   3 -1.681355E+06 -3.317672E+05 -5.453501E+04 -6.655276E+05 -2.069476E+03  1.555943E+04
       112   4 -1.453465E+06 -2.481087E+05 -1.055189E+04 -6.028921E+05 -1.696166E+04  2.112574E+04
       112   5 -1.462257E+06 -2.386730E+05 -5.796548E+03 -5.925435E+05 -1.224891E+04  1.735595E+04
       112   6 -1.453404E+06 -2.477902E+05 -3.287739E+03 -6.030044E+05 -7.512939E+03  1.351883E+04
       112   7 -1.080678E+06 -1.108512E+05  7.268022E+04 -5.005377E+05 -2.226389E+04  1.913604E+04
       112   8 -1.161870E+06 -1.280611E+05  6.141298E+04 -5.100952E+05 -1.762268E+04  1.534044E+04
       112   9 -1.225399E+06 -1.638086E+05  4.795673E+04 -5.404598E+05 -1.295860E+04  1.147740E+04
       112  10 -1.826115E+06 -3.853571E+05 -9.379455E+04 -7.051906E+05 -6.875847E-10  2.740907E-10
       112  11 -1.762552E+06 -3.492786E+05 -7.301246E+04 -6.749551E+05  4.658717E-09  1.385649E-09
       112  12 -1.681355E+06 -3.317675E+05 -5.453547E+04 -6.655276E+05  6.125713E-09  1.167391E-10
       112  13 -1.453466E+06 -2.481092E+05 -1.055327E+04 -6.028918E+05  1.543884E-09  5.337792E-10
       112  14 -1.462257E+06 -2.386734E+05 -5.797396E+03 -5.925433E+05  3.914820E-09  1.328568E-09
       112  15 -1.453404E+06 -2.477904E+05 -3.288188E+03 -6.030043E+05  1.281863E-09 -2.667318E-10
       112  16 -1.080678E+06 -1.108518E+05  7.267860E+04 -5.005374E+05  2.335625E-09  1.044559E-09
       112  17 -1.161871E+06 -1.280614E+05  6.141196E+04 -5.100949E+05  1.664799E-09  1.696797E-09
       112  18 -1.225400E+06 -1.638088E+05  4.795617E+04 -5.404597E+05 -2.066392E-09 -1.130829E-09
       112  19 -1.826114E+06 -3.853565E+05 -9.379329E+04 -7.051908E+05  1.166286E+04 -2.311417E+04
       112  20 -1.762552E+06 -3.492781E+05 -7.301167E+04 -6.749552E+05  6.877951E+03 -1.937040E+04
       112  21 -1.681355E+06 -3.317672E+05 -5.453501E+04 -6.655276E+05  2.069476E+03 -1.555943E+04
       112  22 -1.453465E+06 -2.481087E+05 -1.055189E+04 -6.028921E+05  1.696166E+04 -2.112574E+04
       112  23 -1.462257E+06 -2.386730E+05 -5.796548E+03 -5.925435E+05  1.224891E+04 -1.735595E+04
       112  24 -1.453404E+06 -2.477902E+05 -3.287739E+03 -6.030044E+05  7.512939E+03 -1.351883E+04
       112  25 -1.080678E+06 -1.108512E+05  7.268022E+04 -5.005377E+05  2.226389E+04 -1.913604E+04
       112  26 -1.161870E+06 -1.280611E+05  6.141298E+04 -5.100952E+05  1.762268E+04 -1.534044E+04
       112  27 -1.225399E+06 -1.638086E+05  4.795673E+04 -5.404598E+05  1.295860E+04 -1.147740E+04
       113   1 -1.627159E+06 -3.118268E+05 -4.121822E+04 -6.507368E+05 -5.104185E+02  1.285365E+04
       113   2 -1.563467E+06 -2.759401E+05 -2.426050E+04 -6.202930E+05  2.168317E+03  8.208152E+03
       113   3 -1.481657E+06 -2.583126E+05 -7.919982E+03 -6.107727E+05  4.849219E+03  3.555122E+03
       113   4 -1.453308E+06 -2.478221E+05 -2.547230E+03 -6.029911E+05 -5.948883E+03  1.081534E+04
       113   5 -1.462362E+06 -2.386895E+05 -1.635238E+03 -5.925288E+05 -3.278379E+03  6.167105E+03
       113   6 -1.453302E+06 -2.478146E+05 -1.333897E+03 -6.029917E+05 -6.058441E+02  1.511351E+03
       113   7 -1.279426E+06 -1.838148E+05  3.612217E+04 -5.552330E+05 -1.138902E+04  8.776400E+03
       113   8 -1.361247E+06 -2.014386E+05  2.098921E+04 -5.647608E+05 -8.725980E+03  4.125719E+03
       113   9 -1.424948E+06 -2.373168E+05  5.252063E+03 -5.952105E+05 -6.061043E+03 -5.324699E+02
       113  10 -1.627159E+06 -3.118270E+05 -4.121853E+04 -6.507368E+05 -4.828108E-10 -1.837027E-09
       113  11 -1.563467E+06 -2.759402E+05 -2.426064E+04 -6.202930E+05 -6.752609E-10  3.153846E-10
       113  12 -1.481657E+06 -2.583126E+05 -7.920050E+03 -6.107727E+05  6.879502E-11  3.345675E-10
       113  13 -1.453308E+06 -2.478222E+05 -2.547516E+03 -6.029911E+05  1.451422E-09 -1.057960E-09
       113  14 -1.462362E+06 -2.386896E+05 -1.635329E+03 -5.925288E+05 -2.306443E-09 -2.869100E-11
       113  15 -1.453302E+06 -2.478146E+05 -1.333902E+03 -6.029917E+05 -5.556633E-10  1.055564E-09
       113  16 -1.279426E+06 -1.838150E+05  3.612179E+04 -5.552329E+05  2.163634E-09 -1.808025E-10
       113  17 -1.361247E+06 -2.014387E+05  2.098903E+04 -5.647608E+05  5.750475E-10  1.552001E-10
       113  18 -1.424948E+06 -2.373168E+05  5.251994E+03 -5.952105E+05  9.398624E-10  9.838443E-10
       113  19 -1.627159E+06 -3.118268E+05 -4.121822E+04 -6.507368E+05  5.104185E+02 -1.285365E+04
       113  20 -1.563467E+06 -2.759401E+05 -2.426050E+04 -6.202930E+05 -2.168317E+03 -8.208152E+03
       113  21 -1.481657E+06 -2.583126E+05 -7.919982E+03 -6.107727E+05 -4.849219E+03 -3.555122E+03
       113  22 -1.453308E+06 -2.478221E+05 -2.547230E+03 -6.029911E+05  5.948883E+03 -1.081534E+04
       113  23 -1.462362E+06 -2.386895E+05 -1.635238E+03 -5.925288E+05  3.278379E+03 -6.167105E+03
       113  24 -1.453302E+06 -2.478146E+05 -1.333897E+03 -6.029917E+05  6.058441E+02 -1.511351E+03
       113  25 -1.279426E+06 -1.838148E+05  3.612217E+04 -5.552330E+05  1.138902E+04 -8.776400E+03
       113  26 -1.361247E+06 -2.014386E+05  2.098921E+04 -5.647608E+05  8.725980E+03 -4.125719E+03
       113  27 -1.424948E+06 -2.373168E+05  5.252063E+03 -5.952105E+05  6.061043E+03  5.324699E+02
       114   1 -1.427419E+06 -2.382381E+05  4.667495E+03 -5.959013E+05  6.156799E+03  7.495106E+02
       114   2 -1.363707E+06 -2.023581E+05  2.026653E+04 -5.654537E+05  8.905763E+03 -3.877234E+03
       114   3 -1.281886E+06 -1.847380E+05  3.519778E+04 -5.559322E+05  1.165275E+04 -8.496306E+03
       114   4 -1.453305E+06 -2.478152E+05 -1.364266E+03 -6.029929E+05  7.014816E+02 -1.294348E+03
       114   5 -1.462358E+06 -2.386855E+05 -1.804218E+03 -5.925285E+05  3.458204E+03 -5.918592E+03
       114   6 -1.453309E+06 -2.478186E+05 -2.918335E+03 -6.029934E+05  6.212830E+03 -1.053518E+04
       114   7 -1.479191E+06 -2.573924E+05 -7.396097E+03 -6.100843E+05 -4.753702E+03 -3.338156E+03
       114   8 -1.561000E+06 -2.750128E+05 -2.387595E+04 -6.195999E+05 -1.988512E+03 -7.959636E+03
       114   9 -1.624705E+06 -3.108979E+05 -4.103685E+04 -6.500432E+05  7.744541E+02 -1.257348E+04
       114  10 -1.427419E+06 -2.382381E+05  4.667423E+03 -5.959013E+05  9.359066E-10  2.672714E-10
       114  11 -1.363707E+06 -2.023581E+05  2.026636E+04 -5.654537E+05 -7.800968E-10 -1.185926E-10
       114  12 -1.281886E+06 -1.847381E+05  3.519738E+04 -5.559322E+05 -1.165518E-09  1.915606E-10
       114  13 -1.453305E+06 -2.478152E+05 -1.364270E+03 -6.029929E+05 -6.696999E-10  4.883388E-10
       114  14 -1.462358E+06 -2.386855E+05 -1.804307E+03 -5.925285E+05 -1.994488E-09 -2.322182E-10
       114  15 -1.453309E+06 -2.478187E+05 -2.918616E+03 -6.029933E+05  1.140359E-09  7.617113E-11
       114  16 -1.479191E+06 -2.573924E+05 -7.396160E+03 -6.100843E+05 -8.933998E-10  5.896863E-10
       114  17 -1.561000E+06 -2.750129E+05 -2.387607E+04 -6.195999E+05 -1.078867E-10 -3.239309E-10
       114  18 -1.624705E+06 -3.108980E+05 -4.103715E+04 -6.500432E+05 -2.004646E-10 -6.365443E-10
       114  19 -1.427419E+06 -2.382381E+05  4.667495E+03 -5.959013E+05 -6.156799E+03 -7.495106E+02
       114  20 -1.363707E+06 -2.023581E+05  2.026653E+04 -5.654537E+05 -8.905763E+03  3.877234E+03
       114  21 -1.281886E+06 -1.847380E+05  3.519778E+04 -5.559322E+05 -1.165275E+04  8.496306E+03
       114  22 -1.453305E+06 -2.478152E+05 -1.364266E+03 -6.029929E+05 -7.014816E+02  1.294348E+03
       114  23 -1.462358E+06 -2.386855E+05 -1.804218E+03 -5.925285E+05 -3.458204E+03  5.918592E+03
       114  24 -1.453309E+06 -2.478186E+05 -2.918335E+03 -6.029934E+05 -6.212830E+03  1.053518E+04
       114  25 -1.479191E+06 -2.573924E+05 -7.396097E+03 -6.100843E+05  4.753702E+03  3.338156E+03
       114  26 -1.561000E+06 -2.750128E+05 -2.387595E+04 -6.195999E+05  1.988512E+03  7.959636E+03
       114  27 -1.624705E+06 -3.108979E+05 -4.103685E+04 -6.500432E+05 -7.744541E+02  1.257348E+04
       115   1 -1.227879E+06 -1.647433E+05  4.688837E+04 -5.411807E+05  1.329562E+04 -1.116972E+04
       115   2 -1.164293E+06 -1.289854E+05  5.990485E+04 -5.108097E+05  1.843633E+04 -1.485431E+04
       115   3 -1.083137E+06 -1.118416E+05  7.035808E+04 -5.012555E+05  2.355425E+04 -1.847196E+04
       115   4 -1.453423E+06 -2.477851E+05 -3.799863E+03 -6.030150E+05  7.849946E+03 -1.321116E+04
       115   5 -1.462231E+06 -2.386526E+05 -6.749988E+03 -5.925410E+05  1.306179E+04 -1.687008E+04
       115   6 -1.453489E+06 -2.481486E+05 -1.232042E+04 -6.028855E+05  1.825048E+04 -2.046219E+04
       115   7 -1.678910E+06 -3.308209E+05 -5.448967E+04 -6.648273E+05  2.406549E+03 -1.525175E+04
       115   8 -1.760078E+06 -3.483123E+05 -7.340972E+04 -6.742358E+05  7.690075E+03 -1.888478E+04
       115   9 -1.823707E+06 -3.844467E+05 -9.500850E+04 -7.044611E+05  1.295009E+04 -2.245116E+04
       115  10 -1.227879E+06 -1.647435E+05  4.688780E+04 -5.411806E+05 -8.730076E-10 -4.750456E-11
       115  11 -1.164293E+06 -1.289857E+05  5.990380E+04 -5.108094E+05  7.170683E-10  9.597846E-11
       115  12 -1.083137E+06 -1.118421E+05  7.035639E+04 -5.012551E+05  2.050231E-10 -7.322636E-11
       115  13 -1.453423E+06 -2.477853E+05 -3.800307E+03 -6.030150E+05 -2.400392E-10 -3.761179E-11
       115  14 -1.462232E+06 -2.386530E+05 -6.750843E+03 -5.925408E+05 -6.092549E-11 -9.813875E-11
       115  15 -1.453490E+06 -2.481492E+05 -1.232183E+04 -6.028852E+05  3.639446E-10  2.206746E-10
       115  16 -1.678910E+06 -3.308212E+05 -5.449012E+04 -6.648272E+05  6.785299E-10 -5.422681E-10
       115  17 -1.760078E+06 -3.483127E+05 -7.341051E+04 -6.742357E+05  6.320657E-10  3.465883E-10
       115  18 -1.823707E+06 -3.844473E+05 -9.500976E+04 -7.044608E+05 -7.022996E-10  8.206915E-10
       115  19 -1.227879E+06 -1.647433E+05  4.688837E+04 -5.411807E+05 -1.329562E+04  1.116972E+04
       115  20 -1.164293E+06 -1.289854E+05  5.990485E+04 -5.108097E+05 -1.843633E+04  1.485431E+04
       115  21 -1.083137E+06 -1.118416E+05  7.035808E+04 -5.012555E+05 -2.355425E+04  1.847196E+04
       115  22 -1.453423E+06 -2.477851E+05 -3.799863E+03 -6.030150E+05 -7.849946E+03  1.321116E+04
       115  23 -1.462231E+06 -2.386526E+05 -6.749988E+03 -5.925410E+05 -1.306179E+04  1.687008E+04
       115  24 -1.453489E+06 -2.481486E+05 -1.232042E+04 -6.028855E+05 -1.825048E+04  2.046219E+04
       115  25 -1.678910E+06 -3.308209E+05 -5.448967E+04 -6.648273E+05 -2.406549E+03  1.525175E+04
       115  26 -1.760078E+06 -3.483123E+05 -7.340972E+04 -6.742358E+05 -7.690075E+03  1.888478E+04
       115  27 -1.823707E+06 -3.844467E+05 -9.500850E+04 -7.044611E+05 -1.295009E+04  2.245116E+04
       116   1 -1.029044E+06 -9.237821E+04  7.881205E+04 -4.883360E+05  2.721459E+04 -2.042970E+04
       116   2 -9.665085E+05 -5.541823E+04  8.160422E+04 -4.551163E+05  4.262672E+04 -1.979408E+04
       116   3 -8.911369E+05 -4.550904E+04  7.176144E+04 -4.406342E+05  5.762872E+04 -1.805424E+04
       116   4 -1.454229E+06 -2.474326E+05 -1.630648E+04 -6.034197E+05  2.164216E+04 -2.252148E+04
       116   5 -1.461259E+06 -2.388516E+05 -2.958024E+04 -5.921573E+05  3.825541E+04 -2.143695E+04
       116   6 -1.455700E+06 -2.575672E+05 -5.645046E+04 -5.996360E+05  5.445662E+04 -1.924853E+04
       116   7 -1.879232E+06 -4.024742E+05 -1.114363E+05 -7.184314E+05  1.607388E+04 -2.461175E+04
       116   8 -1.955761E+06 -4.222651E+05 -1.407798E+05 -7.290973E+05  3.388788E+04 -2.307840E+04
       116   9 -2.019938E+06 -4.695970E+05 -1.846821E+05 -7.585030E+05  5.128767E+04 -2.044160E+04
       116  10 -1.029045E+06 -9.237886E+04  7.880988E+04 -4.883355E+05  5.307538E-10  4.391164E-10
       116  11 -9.665106E+05 -5.541914E+04  8.160007E+04 -4.551156E+05 -1.013350E-10  3.634828E-10
       116  12 -8.911405E+05 -4.551029E+04  7.175459E+04 -4.406334E+05  1.196697E-09  3.080962E-10
       116  13 -1.454230E+06 -2.474333E+05 -1.630831E+04 -6.034193E+05  8.860063E-10  3.779818E-10
       116  14 -1.461261E+06 -2.388525E+05 -2.958385E+04 -5.921566E+05  2.031790E-10 -8.449110E-11
       116  15 -1.455703E+06 -2.575684E+05 -5.645673E+04 -5.996351E+05  2.585869E-09  2.367087E-10
       116  16 -1.879233E+06 -4.024750E+05 -1.114379E+05 -7.184311E+05 -4.534697E-10  2.051128E-10
       116  17 -1.955762E+06 -4.222660E+05 -1.407830E+05 -7.290967E+05  3.434803E-09 -4.952753E-10
       116  18 -2.019941E+06 -4.695981E+05 -1.846878E+05 -7.585022E+05  4.537542E-09 -3.047652E-10
       116  19 -1.029044E+06 -9.237821E+04  7.881205E+04 -4.883360E+05 -2.721459E+04  2.042970E+04
       116  20 -9.665085E+05 -5.541823E+04  8.160422E+04 -4.551163E+05 -4.262672E+04  1.979408E+04
       116  21 -8.911369E+05 -4.550904E+04  7.176144E+04 -4.406342E+05 -5.762872E+04  1.805424E+04
       116  22 -1.454229E+06 -2.474326E+05 -1.630648E+04 -6.034197E+05 -2.164216E+04  2.252148E+04
       116  23 -1.461259E+06 -2.388516E+05 -2.958024E+04 -5.921573E+05 -3.825541E+04  2.143695E+04
       116  24 -1.455700E+06 -2.575672E+05 -5.645046E+04 -5.996360E+05 -5.445662E+04  1.924853E+04
       116  25 -1.879232E+06 -4.024742E+05 -1.114363E+05 -7.184314E+05 -1.607388E+04  2.461175E+04
       116  26 -1.955761E+06 -4.222651E+05 -1.407798E+05 -7.290973E+05 -3.388788E+04  2.307840E+04
       116  27 -2.019938E+06 -4.695970E+05 -1.846821E+05 -7.585030E+05 -5.128767E+04  2.044160E+04
       117   1 -8.227110E+05 -3.363064E+04  6.727632E+04 -4.640387E+05  7.366632E+04 -1.667472E+04
       117   2 -7.922078E+05  3.862336E+04  2.930864E+04 -3.547946E+05  1.185313E+05  3.456493E+03
       117   3 -8.228787E+05 -9.760072E+04 -9.536790E+04 -2.149823E+05  1.551704E+05  4.549039E+04
       117   4 -1.465022E+06 -2.413217E+05 -7.243392E+04 -6.103139E+05  6.473500E+04 -2.002900E+04
       117   5 -1.448436E+06 -2.502098E+05 -1.316538E+05 -5.822139E+05  1.336130E+05  9.110424E+03
       117   6 -1.497893E+06 -4.725045E+05 -2.967125E+05 -5.235311E+05  1.942553E+05  6.014863E+04
       117   7 -2.106924E+06 -4.490057E+05 -2.121696E+05 -7.564620E+05  5.581361E+04 -2.338063E+04
       117   8 -2.104223E+06 -5.389573E+05 -2.926465E+05 -8.093945E+05  1.486772E+05  1.475502E+04
       117   9 -2.172409E+06 -8.471838E+05 -4.980882E+05 -8.317168E+05  2.332932E+05  7.476995E+04
       117  10 -8.227169E+05 -3.363240E+04  6.726559E+04 -4.640377E+05  2.404303E-09  1.775158E-10
       117  11 -7.922229E+05  3.861957E+04  2.928218E+04 -3.547950E+05  1.454883E-09 -6.525956E-10
       117  12 -8.229051E+05 -9.760942E+04 -9.541711E+04 -2.149880E+05  1.348732E-10 -1.952204E-10
       117  13 -1.465027E+06 -2.413232E+05 -7.244257E+04 -6.103128E+05  2.519212E-09  6.807743E-10
       117  14 -1.448455E+06 -2.502147E+05 -1.316876E+05 -5.822149E+05  3.884256E-10  7.745593E-10
       117  15 -1.497934E+06 -4.725186E+05 -2.967904E+05 -5.235405E+05  3.269626E-11 -2.309477E-11
       117  16 -2.106928E+06 -4.490071E+05 -2.121765E+05 -7.564609E+05  1.690278E-09  5.158934E-10
       117  17 -2.104247E+06 -5.389635E+05 -2.926886E+05 -8.093963E+05 -3.125870E-09  1.548764E-09
       117  18 -2.172469E+06 -8.472045E+05 -4.982014E+05 -8.317309E+05 -7.257937E-10  3.540140E-10
       117  19 -8.227110E+05 -3.363064E+04  6.727632E+04 -4.640387E+05 -7.366632E+04  1.667472E+04
       117  20 -7.922078E+05  3.862336E+04  2.930864E+04 -3.547946E+05 -1.185313E+05 -3.456493E+03
       117  21 -8.228787E+05 -9.760072E+04 -9.536790E+04 -2.149823E+05 -1.551704E+05 -4.549039E+04
       117  22 -1.465022E+06 -2.413217E+05 -7.243392E+04 -6.103139E+05 -6.473500E+04  2.002900E+04
       117  23 -1.448436E+06 -2.502098E+05 -1.316538E+05 -5.822139E+05 -1.336130E+05 -9.110424E+03
       117  24 -1.497893E+06 -4.725045E+05 -2.967125E+05 -5.235311E+05 -1.942553E+05 -6.014863E+04
       117  25 -2.106924E+06 -4.490057E+05 -2.121696E+05 -7.564620E+05 -5.581361E+04  2.338063E+04
       117  26 -2.104223E+06 -5.389573E+05 -2.926465E+05 -8.093945E+05 -1.486772E+05 -1.475502E+04
       117  27 -2.172409E+06 -8.471838E+05 -4.980882E+05 -8.317168E+05 -2.332932E+05 -7.476995E+04
       118   1 -3.754243E+05 -5.887340E+04 -3.862770E+04  8.149374E+03  4.259636E+04  8.416633E+03
       118   2 -3.298405E+05 -1.260783E+05 -6.724194E+04 -1.386343E+04  3.509943E+04  2.699479E+04
       118   3 -2.655361E+05 -1.226813E+05 -7.330815E+04 -5.273612E+04  2.761085E+04  2.970820E+04
       118   4  2.322688E+05  9.170486E+04  1.068727E+05 -4.144138E+04  7.381420E+04  8.429177E+03
       118   5  2.213138E+05  7.570451E+03  4.989576E+04 -3.299374E+04  4.764863E+04  2.699682E+04
       118   6  2.322970E+05 -2.759019E+03  2.841369E+04 -4.140383E+04  2.149302E+04  2.970535E+04
       118   7  8.403078E+05  2.422661E+05  2.523519E+05 -9.108093E+04  1.050624E+05  8.436728E+03
       118   8  7.727556E+05  1.412009E+05  1.670169E+05 -5.214132E+04  6.020879E+04  2.699807E+04
       118   9  7.303662E+05  1.171483E+05  1.301226E+05 -3.006230E+04  1.537037E+04  2.970227E+04
       118  10 -3.754263E+05 -5.887396E+04 -3.863124E+04  8.149085E+03 -1.174324E-10  2.005978E-10
       118  11 -3.298420E+05 -1.260794E+05 -6.724563E+04 -1.386419E+04 -6.619506E-10 -2.163672E-10
       118  12 -2.655372E+05 -1.226825E+05 -7.331124E+04 -5.273678E+04 -4.090330E-10 -4.127538E-10
       118  13  2.322630E+05  9.170332E+04  1.068623E+05 -4.144188E+04  4.182008E-12  5.684360E-11
       118  14  2.213112E+05  7.569059E+03  4.989012E+04 -3.299478E+04  4.599641E-10 -6.601476E-10
       118  15  2.322963E+05 -2.760091E+03  2.841116E+04 -4.140435E+04 -6.736711E-10 -1.937736E-10
       118  16  8.402960E+05  2.422631E+05  2.523311E+05 -9.108165E+04 -1.465963E-10 -1.021702E-10
       118  17  7.727515E+05  1.411992E+05  1.670087E+05 -5.214263E+04 -3.870296E-10 -2.666877E-10
       118  18  7.303657E+05  1.171473E+05  1.301205E+05 -3.006266E+04 -1.236123E-09 -2.400159E-10
       118  19 -3.754243E+05 -5.887340E+04 -3.862770E+04  8.149374E+03 -4.259636E+04 -8.416633E+03
       118  20 -3.298405E+05 -1.260783E+05 -6.724194E+04 -1.386343E+04 -3.509943E+04 -2.699479E+04
       118  21 -2.655361E+05 -1.226813E+05 -7.330815E+04 -5.273612E+04 -2.761085E+04 -2.970820E+04
       118  22  2.322688E+05  9.170486E+04  1.068727E+05 -4.144138E+04 -7.381420E+04 -8.429177E+03
       118  23  2.213138E+05  7.570451E+03  4.989576E+04 -3.299374E+04 -4.764863E+04 -2.699682E+04
       118  24  2.322970E+05 -2.759019E+03  2.841369E+04 -4.140383E+04 -2.149302E+04 -2.970535E+04
       118  25  8.403078E+05  2.422661E+05  2.523519E+05 -9.108093E+04 -1.050624E+05 -8.436728E+03
       118  26  7.727556E+05  1.412009E+05  1.670169E+05 -5.214132E+04 -6.020879E+04 -2.699807E+04
       118  27  7.303662E+05  1.171483E+05  1.301226E+05 -3.006230E+04 -1.537037E+04 -2.970227E+04
       119   1 -2.299265E+05 -1.066762E+05 -7.156989E+04 -4.046025E+04  1.992262E+04  2.698571E+04
       119   2 -1.759878E+05 -9.691683E+04 -6.969538E+04 -3.259708E+04  1.483665E+04  2.460348E+04
       119   3 -1.205635E+05 -8.403979E+04 -6.371923E+04 -4.235354E+04  9.749226E+03  2.136638E+04
       119   4  2.277965E+05  3.624633E+03  2.220329E+04 -4.158173E+04  1.763420E+04  2.698373E+04
       119   5  2.269753E+05  5.550121E+01  1.220712E+04 -3.277222E+04  1.153904E+04  2.460197E+04
       119   6  2.278113E+05 -2.218848E+02  7.011083E+03 -4.158156E+04  5.442886E+03  2.136561E+04
       119   7  6.857186E+05  1.139123E+05  1.159654E+05 -4.270405E+04  1.534412E+04  2.698175E+04
       119   8  6.300929E+05  9.701771E+04  9.410119E+04 -3.294747E+04  8.239335E+03  2.460047E+04
       119   9  5.763017E+05  8.358847E+04  7.773514E+04 -4.080913E+04  1.134175E+03  2.136484E+04
       119  10 -2.299271E+05 -1.066771E+05 -7.157201E+04 -4.046068E+04 -3.352227E-10 -5.011909E-10
       119  11 -1.759882E+05 -9.691754E+04 -6.969694E+04 -3.259738E+04  1.026506E-10  2.400839E-10
       119  12 -1.205637E+05 -8.404030E+04 -6.372027E+04 -4.235370E+04 -1.066267E-09  7.750269E-10
       119  13  2.277960E+05  3.623768E+03  2.220134E+04 -4.158211E+04 -1.070712E-09 -2.776626E-10
       119  14  2.269750E+05  5.481546E+01  1.220574E+04 -3.277245E+04  9.238338E-12  8.821118E-11
       119  15  2.278112E+05 -2.223830E+02  7.010169E+03 -4.158165E+04 -1.131516E-09  4.144435E-10
       119  16  6.857181E+05  1.139115E+05  1.159635E+05 -4.270439E+04 -8.875289E-10  1.655039E-11
       119  17  6.300927E+05  9.701705E+04  9.409992E+04 -3.294763E+04 -1.296749E-09 -1.275502E-10
       119  18  5.763016E+05  8.358798E+04  7.773428E+04 -4.080915E+04 -5.132409E-10  1.857000E-10
       119  19 -2.299265E+05 -1.066762E+05 -7.156989E+04 -4.046025E+04 -1.992262E+04 -2.698571E+04
       119  20 -1.759878E+05 -9.691683E+04 -6.969538E+04 -3.259708E+04 -1.483665E+04 -2.460348E+04
       119  21 -1.205635E+05 -8.403979E+04 -6.371923E+04 -4.235354E+04 -9.749226E+03 -2.136638E+04
       119  22  2.277965E+05  3.624633E+03  2.220329E+04 -4.158173E+04 -1.763420E+04 -2.698373E+04
       119  23  2.269753E+05  5.550121E+01  1.220712E+04 -3.277222E+04 -1.153904E+04 -2.460197E+04
       119  24  2.278113E+05 -2.218848E+02  7.011083E+03 -4.158156E+04 -5.442886E+03 -2.136561E+04
       119  25  6.857186E+05  1.139123E+05  1.159654E+05 -4.270405E+04 -1.534412E+04 -2.698175E+04
       119  26  6.300929E+05  9.701771E+04  9.410119E+04 -3.294747E+04 -8.239335E+03 -2.460047E+04
       119  27  5.763017E+05  8.358847E+04  7.773514E+04 -4.080913E+04 -1.134175E+03 -2.136484E+04
       120   1 -8.130230E+04 -7.419197E+04 -5.711084E+04 -4.177124E+04  8.450184E+03  1.925122E+04
       120   2 -2.681712E+04 -6.119518E+04 -4.843993E+04 -3.289282E+04  6.994661E+03  1.574237E+04
       120   3  2.790937E+04 -4.804842E+04 -3.878102E+04 -4.165908E+04  5.538080E+03  1.218852E+04
       120   4  2.275033E+05  5.608152E+01  5.345074E+03 -4.158729E+04  4.351937E+03  1.925083E+04
       120   5  2.273844E+05 -6.205825E+01  3.050204E+03 -3.276519E+04  2.842608E+03  1.574248E+04
       120   6  2.275122E+05 -2.107035E+01  1.780044E+03 -4.158734E+04  1.332344E+03  1.218914E+04
       120   7  5.363998E+05  7.429823E+04  6.779612E+04 -4.140324E+04  2.516908E+02  1.925043E+04
       120   8  4.816475E+05  6.106706E+04  5.453705E+04 -3.263750E+04 -1.311113E+03  1.574258E+04
       120   9  4.271530E+05  4.800381E+04  4.233910E+04 -4.151557E+04 -2.874719E+03  1.218976E+04
       120  10 -8.130248E+04 -7.419239E+04 -5.711167E+04 -4.177137E+04 -1.475665E-09  9.748881E-10
       120  11 -2.681724E+04 -6.119546E+04 -4.844049E+04 -3.289291E+04 -4.714397E-10  1.037067E-09
       120  12  2.790930E+04 -4.804859E+04 -3.878136E+04 -4.165914E+04 -1.186923E-09  4.745768E-10
       120  13  2.275032E+05  5.567843E+01  5.344342E+03 -4.158736E+04  6.304722E-12  5.869646E-10
       120  14  2.273843E+05 -6.232657E+01  3.049723E+03 -3.276522E+04 -1.580200E-09  5.743821E-10
       120  15  2.275122E+05 -2.123039E+01  1.779762E+03 -4.158735E+04  2.934049E-11  2.636031E-10
       120  16  5.363997E+05  7.429783E+04  6.779542E+04 -4.140325E+04 -1.490501E-10  2.199340E-10
       120  17  4.816474E+05  6.106679E+04  5.453658E+04 -3.263748E+04  1.090657E-10  1.378588E-10
       120  18  4.271529E+05  4.800365E+04  4.233880E+04 -4.151555E+04  2.015006E-10  3.007827E-10
       120  19 -8.130230E+04 -7.419197E+04 -5.711084E+04 -4.177124E+04 -8.450184E+03 -1.925122E+04
       120  20 -2.681712E+04 -6.119518E+04 -4.843993E+04 -3.289282E+04 -6.994661E+03 -1.574237E+04
       120  21  2.790937E+04 -4.804842E+04 -3.878102E+04 -4.165908E+04 -5.538080E+03 -1.218852E+04
       120  22  2.275033E+05  5.608152E+01  5.345074E+03 -4.158729E+04 -4.351937E+03 -1.925083E+04
       120  23  2.273844E+05 -6.205825E+01  3.050204E+03 -3.276519E+04 -2.842608E+03 -1.574248E+04
       120  24  2.275122E+05 -2.107035E+01  1.780044E+03 -4.158734E+04 -1.332344E+03 -1.218914E+04
       120  25  5.363998E+05  7.429823E+04  6.779612E+04 -4.140324E+04 -2.516908E+02 -1.925043E+04
       120  26  4.816475E+05  6.106706E+04  5.453705E+04 -3.263750E+04  1.311113E+03 -1.574258E+04
       120  27  4.271530E+05  4.800381E+04  4.233910E+04 -4.151557E+04  2.874719E+03 -1.218976E+04
       121   1  6.737596E+04 -3.847802E+04 -3.090606E+04 -4.162701E+04  5.240526E+03  1.010828E+04
       121   2  1.219200E+05 -2.538130E+04 -2.052312E+04 -3.279049E+04  4.825156E+03  6.541450E+03
       121   3  1.765187E+05 -1.226858E+04 -9.867542E+03 -4.158639E+04  4.409369E+03  2.972750E+03
       121   4  2.274720E+05 -8.459892E+00  1.371336E+03 -4.158466E+04  1.046700E+03  1.010911E+04
       121   5  2.274477E+05 -6.322655E+00  8.443925E+02 -3.276855E+04  6.288611E+02  6.542489E+03
       121   6  2.274756E+05  1.237180E+01  5.917539E+02 -4.158467E+04  2.106410E+02  2.974003E+03
       121   7  3.875925E+05  3.845953E+04  3.364748E+04 -4.154231E+04 -3.148188E+03  1.010995E+04
       121   8  3.329860E+05  2.536797E+04  2.221139E+04 -3.274660E+04 -3.568133E+03  6.543527E+03
       121   9  2.784351E+05  1.229317E+04  1.105098E+04 -4.158295E+04 -3.988425E+03  2.975256E+03
       121  10  6.737590E+04 -3.847814E+04 -3.090630E+04 -4.162705E+04  5.005776E-10  5.517810E-11
       121  11  1.219199E+05 -2.538135E+04 -2.052324E+04 -3.279052E+04  1.566786E-09 -1.807563E-10
       121  12  1.765187E+05 -1.226860E+04 -9.867595E+03 -4.158640E+04  9.736822E-10 -4.720902E-10
       121  13  2.274720E+05 -8.569937E+00  1.371141E+03 -4.158467E+04 -8.631781E-11  2.750014E-10
       121  14  2.274477E+05 -6.368730E+00  8.443113E+02 -3.276855E+04 -5.112475E-10 -3.583216E-10
       121  15  2.274756E+05  1.236229E+01  5.917372E+02 -4.158467E+04 -1.171079E-09 -8.532841E-10
       121  16  3.875924E+05  3.845941E+04  3.364727E+04 -4.154228E+04  4.185534E-10 -1.023831E-10
       121  17  3.329860E+05  2.536792E+04  2.221129E+04 -3.274658E+04 -1.649169E-09 -1.047956E-10
       121  18  2.784351E+05  1.229316E+04  1.105093E+04 -4.158294E+04 -1.613873E-09 -9.475534E-10
       121  19  6.737596E+04 -3.847802E+04 -3.090606E+04 -4.162701E+04 -5.240526E+03 -1.010828E+04
       121  20  1.219200E+05 -2.538130E+04 -2.052312E+04 -3.279049E+04 -4.825156E+03 -6.541450E+03
       121  21  1.765187E+05 -1.226858E+04 -9.867542E+03 -4.158639E+04 -4.409369E+03 -2.972750E+03
       121  22  2.274720E+05 -8.459892E+00  1.371336E+03 -4.158466E+04 -1.046700E+03 -1.010911E+04
       121  23  2.274477E+05 -6.322655E+00  8.443925E+02 -3.276855E+04 -6.288611E+02 -6.542489E+03
       121  24  2.274756E+05  1.237180E+01  5.917539E+02 -4.158467E+04 -2.106410E+02 -2.974003E+03
       121  25  3.875925E+05  3.845953E+04  3.364748E+04 -4.154231E+04  3.148188E+03 -1.010995E+04
       121  26  3.329860E+05  2.536797E+04  2.221139E+04 -3.274660E+04  3.568133E+03 -6.543527E+03
       121  27  2.784351E+05  1.229317E+04  1.105098E+04 -4.158295E+04  3.988425E+03 -2.975256E+03
       122   1  2.160080E+05 -2.714989E+03 -1.641515E+03 -4.159047E+04  4.305995E+03  8.952232E+02
       122   2  2.705614E+05  1.036796E+04  9.278318E+03 -3.276716E+04  4.030944E+03 -2.672963E+03
       122   3  3.251467E+05  2.346363E+04  2.037750E+04 -4.157392E+04  3.756030E+03 -6.239271E+03
       122   4  2.274711E+05  1.277346E+01  5.370859E+02 -4.158421E+04  1.073417E+02  8.965139E+02
       122   5  2.274556E+05  3.671822E+00  5.504801E+02 -3.276913E+04 -1.656293E+02 -2.671763E+03
       122   6  2.274696E+05  7.297897E+00  7.420356E+02 -4.158420E+04 -4.384401E+02 -6.238153E+03
       122   7  2.389343E+05  2.740538E+03  2.715747E+03 -4.157794E+04 -4.091387E+03  8.978044E+02
       122   8  1.843516E+05 -1.036072E+04 -8.177387E+03 -3.277110E+04 -4.361917E+03 -2.670563E+03
       122   9  1.298017E+05 -2.344961E+04 -1.889384E+04 -4.159449E+04 -4.632264E+03 -6.237034E+03
       122  10  2.160080E+05 -2.714995E+03 -1.641551E+03 -4.159047E+04 -2.826279E-10 -4.692079E-10
       122  11  2.705614E+05  1.036795E+04  9.278274E+03 -3.276715E+04  9.428639E-10 -1.332707E-10
       122  12  3.251467E+05  2.346358E+04  2.037740E+04 -4.157390E+04  1.022406E-09 -4.862837E-11
       122  13  2.274711E+05  1.277259E+01  5.370844E+02 -4.158421E+04 -1.161437E-09 -3.251823E-10
       122  14  2.274556E+05  3.664148E+00  5.504666E+02 -3.276913E+04 -6.358538E-10  6.547462E-11
       122  15  2.274696E+05  7.256054E+00  7.419621E+02 -4.158421E+04  1.334310E-09 -3.512847E-10
       122  16  2.389343E+05  2.740532E+03  2.715714E+03 -4.157794E+04 -1.328755E-09 -8.382799E-10
       122  17  1.843516E+05 -1.036073E+04 -8.177437E+03 -3.277111E+04 -9.818834E-10 -1.649677E-10
       122  18  1.298016E+05 -2.344966E+04 -1.889396E+04 -4.159451E+04  1.666314E-10 -1.935458E-11
       122  19  2.160080E+05 -2.714989E+03 -1.641515E+03 -4.159047E+04 -4.305995E+03 -8.952232E+02
       122  20  2.705614E+05  1.036796E+04  9.278318E+03 -3.276716E+04 -4.030944E+03  2.672963E+03
       122  21  3.251467E+05  2.346363E+04  2.037750E+04 -4.157392E+04 -3.756030E+03  6.239271E+03
       122  22  2.274711E+05  1.277346E+01  5.370859E+02 -4.158421E+04 -1.073417E+02 -8.965139E+02
       122  23  2.274556E+05  3.671822E+00  5.504801E+02 -3.276913E+04  1.656293E+02  2.671763E+03
       122  24  2.274696E+05  7.297897E+00  7.420356E+02 -4.158420E+04  4.384401E+02  6.238153E+03
       122  25  2.389343E+05  2.740538E+03  2.715747E+03 -4.157794E+04  4.091387E+03 -8.978044E+02
       122  26  1.843516E+05 -1.036072E+04 -8.177387E+03 -3.277110E+04  4.361917E+03  2.670563E+03
       122  27  1.298017E+05 -2.344961E+04 -1.889384E+04 -4.159449E+04  4.632264E+03  6.237034E+03
       123   1  3.646731E+05  3.301187E+04  2.883498E+04 -4.156572E+04  3.615860E+03 -8.318482E+03
       123   2  4.192089E+05  4.608662E+04  4.033988E+04 -3.272411E+04  2.824318E+03 -1.187216E+04
       123   3  4.738752E+05  5.924995E+04  5.238200E+04 -4.151695E+04  2.033392E+03 -1.538512E+04
       123   4  2.274874E+05  7.339747E-01  9.182939E+02 -4.158523E+04 -5.893835E+02 -8.317502E+03
       123   5  2.274249E+05 -2.369436E+01  1.500890E+03 -3.276784E+04 -1.333003E+03 -1.187158E+04
       123   6  2.274808E+05  3.212320E+01  2.587387E+03 -4.158521E+04 -2.075940E+03 -1.538491E+04
       123   7  9.031974E+04 -3.301157E+04 -2.699931E+04 -4.160475E+04 -4.793715E+03 -8.316521E+03
       123   8  3.567581E+04 -4.613629E+04 -3.733994E+04 -3.281154E+04 -5.489065E+03 -1.187099E+04
       123   9 -1.885585E+04 -5.918946E+04 -4.721029E+04 -4.165343E+04 -6.183672E+03 -1.538471E+04
       123  10  3.646730E+05  3.301180E+04  2.883483E+04 -4.156569E+04  1.026177E-09  6.177597E-11
       123  11  4.192089E+05  4.608647E+04  4.033960E+04 -3.272409E+04  6.375691E-10 -1.145254E-10
       123  12  4.738752E+05  5.924970E+04  5.238154E+04 -4.151693E+04 -1.057677E-10  9.173720E-10
       123  13  2.274874E+05  6.595849E-01  9.181632E+02 -4.158524E+04  9.471122E-11 -1.636152E-10
       123  14  2.274248E+05 -2.384619E+01  1.500622E+03 -3.276785E+04  1.111928E-10 -1.130080E-10
       123  15  2.274807E+05  3.186784E+01  2.586934E+03 -4.158523E+04 -2.962906E-10  5.863387E-10
       123  16  9.031970E+04 -3.301165E+04 -2.699949E+04 -4.160478E+04 -6.317577E-11  4.272403E-10
       123  17  3.567574E+04 -4.613645E+04 -3.734026E+04 -3.281159E+04 -1.079677E-09  1.245957E-10
       123  18 -1.885595E+04 -5.918973E+04 -4.721081E+04 -4.165351E+04 -3.260262E-10  1.110415E-10
       123  19  3.646731E+05  3.301187E+04  2.883498E+04 -4.156572E+04 -3.615860E+03  8.318482E+03
       123  20  4.192089E+05  4.608662E+04  4.033988E+04 -3.272411E+04 -2.824318E+03  1.187216E+04
       123  21  4.738752E+05  5.924995E+04  5.238200E+04 -4.151695E+04 -2.033392E+03  1.538512E+04
       123  22  2.274874E+05  7.339747E-01  9.182939E+02 -4.158523E+04  5.893835E+02  8.317502E+03
       123  23  2.274249E+05 -2.369436E+01  1.500890E+03 -3.276784E+04  1.333003E+03  1.187158E+04
       123  24  2.274808E+05  3.212320E+01  2.587387E+03 -4.158521E+04  2.075940E+03  1.538491E+04
       123  25  9.031974E+04 -3.301157E+04 -2.699931E+04 -4.160475E+04  4.793715E+03  8.316521E+03
       123  26  3.567581E+04 -4.613629E+04 -3.733994E+04 -3.281154E+04  5.489065E+03  1.187099E+04
       123  27 -1.885585E+04 -5.918946E+04 -4.721029E+04 -4.165343E+04  6.183672E+03  1.538471E+04
       124   1  5.135908E+05  6.867798E+04  6.144791E+04 -4.123173E+04  1.693654E+03 -1.749506E+04
       124   2  5.677805E+05  8.194370E+04  7.507357E+04 -3.287356E+04 -2.144505E+03 -2.076208E+04
       124   3  6.229335E+05  9.694956E+04  9.163712E+04 -4.212980E+04 -5.981953E+03 -2.325969E+04
       124   4  2.276287E+05 -1.028726E+02  3.382686E+03 -4.158081E+04 -2.603355E+03 -1.749514E+04
       124   5  2.272207E+05  2.225309E+01  5.869238E+03 -3.277328E+04 -5.534662E+03 -2.076287E+04
       124   6  2.276165E+05  1.730962E+03  1.066536E+04 -4.158071E+04 -8.464928E+03 -2.326098E+04
       124   7 -5.825563E+04 -6.888880E+04 -5.468674E+04 -4.192973E+04 -6.898423E+03 -1.749523E+04
       124   8 -1.132288E+05 -8.190641E+04 -6.334111E+04 -3.267305E+04 -8.922995E+03 -2.076366E+04
       124   9 -1.675522E+05 -9.349744E+04 -7.031468E+04 -4.103197E+04 -1.094635E+04 -2.326227E+04
       124  10  5.135907E+05  6.867765E+04  6.144733E+04 -4.123170E+04  4.944159E-11  1.054467E-09
       124  11  5.677804E+05  8.194324E+04  7.507275E+04 -3.287359E+04  8.350311E-10  3.721691E-10
       124  12  6.229333E+05  9.694897E+04  9.163604E+04 -4.212992E+04  3.349473E-10 -7.089801E-10
       124  13  2.276286E+05 -1.032032E+02  3.382098E+03 -4.158085E+04 -2.149932E-09  5.655387E-10
       124  14  2.272205E+05  2.178189E+01  5.868370E+03 -3.277337E+04 -2.111123E-09  8.639627E-11
       124  15  2.276163E+05  1.730362E+03  1.066421E+04 -4.158087E+04  1.854386E-09 -4.569367E-10
       124  16 -5.825577E+04 -6.888914E+04 -5.468740E+04 -4.192983E+04 -1.856470E-09 -1.372232E-11
       124  17 -1.132290E+05 -8.190690E+04 -6.334207E+04 -3.267320E+04 -4.093532E-10 -1.744041E-10
       124  18 -1.675524E+05 -9.349805E+04 -7.031592E+04 -4.103217E+04  2.297305E-10 -1.250489E-10
       124  19  5.135908E+05  6.867798E+04  6.144791E+04 -4.123173E+04 -1.693654E+03  1.749506E+04
       124  20  5.677805E+05  8.194370E+04  7.507357E+04 -3.287356E+04  2.144505E+03  2.076208E+04
       124  21  6.229335E+05  9.694956E+04  9.163712E+04 -4.212980E+04  5.981953E+03  2.325969E+04
       124  22  2.276287E+05 -1.028726E+02  3.382686E+03 -4.158081E+04  2.603355E+03  1.749514E+04
       124  23  2.272207E+05  2.225309E+01  5.869238E+03 -3.277328E+04  5.534662E+03  2.076287E+04
       124  24  2.276165E+05  1.730962E+03  1.066536E+04 -4.158071E+04  8.464928E+03  2.326098E+04
       124  25 -5.825563E+04 -6.888880E+04 -5.468674E+04 -4.192973E+04  6.898423E+03  1.749523E+04
       124  26 -1.132288E+05 -8.190641E+04 -6.334111E+04 -3.267305E+04  8.922995E+03  2.076366E+04
       124  27 -1.675522E+05 -9.349744E+04 -7.031468E+04 -4.103197E+04  1.094635E+04  2.326227E+04
       125   1  6.651665E+05  1.034861E+05  1.025957E+05 -3.597859E+04 -4.384692E+03 -2.591460E+04
       125   2  7.133266E+05  1.221026E+05  1.278579E+05 -4.215173E+04 -3.375048E+04 -2.382792E+04
       125   3  7.749558E+05  1.790703E+05  1.818258E+05 -6.523677E+04 -6.312557E+04 -7.467713E+03
       125   4  2.297784E+05 -1.337891E+03  1.364638E+04 -4.142161E+04 -1.031864E+04 -2.591666E+04
       125   5  2.244877E+05  3.613110E+03  2.395416E+04 -3.297176E+04 -2.287514E+04 -2.382717E+04
       125   6  2.297572E+05  4.401463E+04  5.131092E+04 -4.143310E+04 -3.543797E+04 -7.460449E+03
       125   7 -2.054295E+05 -1.061736E+05 -7.531281E+04 -4.686074E+04 -1.624851E+04 -2.591861E+04
       125   8 -2.641258E+05 -1.148915E+05 -7.996281E+04 -2.379913E+04 -1.200822E+04 -2.382609E+04
       125   9 -3.151664E+05 -9.106002E+04 -7.922174E+04 -1.765042E+04 -7.774549E+03 -7.451062E+03
       125  10  6.651663E+05  1.034853E+05  1.025944E+05 -3.597868E+04  4.433068E-10 -7.610457E-10
       125  11  7.133252E+05  1.221017E+05  1.278547E+05 -4.215238E+04  2.422779E-10 -5.243324E-11
       125  12  7.749515E+05  1.790692E+05  1.818182E+05 -6.523715E+04 -1.361902E-10  2.535749E-10
       125  13  2.297781E+05 -1.338641E+03  1.364491E+04 -4.142182E+04 -1.235134E-09 -8.882741E-10
       125  14  2.244870E+05  3.612360E+03  2.395211E+04 -3.297220E+04 -1.056046E-09 -4.790588E-10
       125  15  2.297558E+05  4.401424E+04  5.130846E+04 -4.143332E+04  7.687734E-10 -3.047535E-10
       125  16 -2.054300E+05 -1.061744E+05 -7.531457E+04 -4.686108E+04 -2.528709E-11 -4.837525E-10
       125  17 -2.641261E+05 -1.148922E+05 -7.996415E+04 -2.379936E+04 -1.254703E-10 -1.143430E-09
       125  18 -3.151665E+05 -9.106009E+04 -7.922196E+04 -1.765047E+04  8.357775E-10 -4.754647E-11
       125  19  6.651665E+05  1.034861E+05  1.025957E+05 -3.597859E+04  4.384692E+03  2.591460E+04
       125  20  7.133266E+05  1.221026E+05  1.278579E+05 -4.215173E+04  3.375048E+04  2.382792E+04
       125  21  7.749558E+05  1.790703E+05  1.818258E+05 -6.523677E+04  6.312557E+04  7.467713E+03
       125  22  2.297784E+05 -1.337891E+03  1.364638E+04 -4.142161E+04  1.031864E+04  2.591666E+04
       125  23  2.244877E+05  3.613110E+03  2.395416E+04 -3.297176E+04  2.287514E+04  2.382717E+04
       125  24  2.297572E+05  4.401463E+04  5.131092E+04 -4.143310E+04  3.543797E+04  7.460449E+03
       125  25 -2.054295E+05 -1.061736E+05 -7.531281E+04 -4.686074E+04  1.624851E+04  2.591861E+04
       125  26 -2.641258E+05 -1.148915E+05 -7.996281E+04 -2.379913E+04  1.200822E+04  2.382609E+04
       125  27 -3.151664E+05 -9.106002E+04 -7.922174E+04 -1.765042E+04  7.774549E+03  7.451062E+03
       126   1  5.468646E+05  2.035651E+06  5.447704E+05 -3.890949E+05  2.225375E+04  1.388067E+05
       126   2  3.575036E+05  1.563365E+06  3.520329E+05 -2.922127E+05  6.574433E+04  5.556599E+04
       126   3  2.382994E+05  1.119647E+06  2.309130E+05 -3.401284E+05  5.699206E+04 -2.766051E+04
       126   4  7.348709E+04  1.263843E+05  8.523259E+04 -3.473703E+05  2.237773E+04  5.679552E+04
       126   5  6.469896E+03  1.177068E+05  4.138309E+04 -2.750260E+05  6.579101E+04  3.522061E+04
       126   6 -9.705286E+02  1.267971E+05  2.648404E+04 -3.474812E+05  5.691300E+04  1.359663E+04
       126   7 -4.001461E+05 -1.779536E+06 -3.745391E+05 -3.057722E+05  2.249097E+04 -2.496522E+04
       126   8 -3.446996E+05 -1.325988E+06 -2.693874E+05 -2.578787E+05  6.583663E+04  1.492178E+04
       126   9 -2.403014E+05 -8.651148E+05 -1.779914E+05 -3.548214E+05  5.683288E+04  5.478902E+04
       126  10  5.468589E+05  2.035630E+06  5.447334E+05 -3.890973E+05  8.488215E-10  1.827885E-09
       126  11  3.574981E+05  1.563360E+06  3.520190E+05 -2.922156E+05  7.418529E-10  2.195324E-10
       126  12  2.382957E+05  1.119645E+06  2.309054E+05 -3.401271E+05  6.061796E-10 -1.207651E-09
       126  13  7.348569E+04  1.263807E+05  8.522558E+04 -3.473713E+05 -7.846038E-10  4.307198E-10
       126  14  6.464913E+03  1.177044E+05  4.137262E+04 -2.750279E+05  1.100665E-09  6.131889E-10
       126  15 -9.740573E+02  1.267960E+05  2.647761E+04 -3.474819E+05  2.000245E-09  2.616790E-10
       126  16 -4.001468E+05 -1.779537E+06 -3.745412E+05 -3.057717E+05  1.166330E-10 -1.713852E-09
       126  17 -3.447043E+05 -1.325990E+06 -2.693960E+05 -2.578795E+05  1.255838E-09 -4.852513E-10
       126  18 -2.403057E+05 -8.651189E+05 -1.780031E+05 -3.548239E+05  8.102061E-10  5.495883E-10
       126  19  5.468646E+05  2.035651E+06  5.447704E+05 -3.890949E+05 -2.225375E+04 -1.388067E+05
       126  20  3.575036E+05  1.563365E+06  3.520329E+05 -2.922127E+05 -6.574433E+04 -5.556599E+04
       126  21  2.382994E+05  1.119647E+06  2.309130E+05 -3.401284E+05 -5.699206E+04  2.766051E+04
       126  22  7.348709E+04  1.263843E+05  8.523259E+04 -3.473703E+05 -2.237773E+04 -5.679552E+04
       126  23  6.469896E+03  1.177068E+05  4.138309E+04 -2.750260E+05 -6.579101E+04 -3.522061E+04
       126  24 -9.705286E+02  1.267971E+05  2.648404E+04 -3.474812E+05 -5.691300E+04 -1.359663E+04
       126  25 -4.001461E+05 -1.779536E+06 -3.745391E+05 -3.057722E+05 -2.249097E+04  2.496522E+04
       126  26 -3.446996E+05 -1.325988E+06 -2.693874E+05 -2.578787E+05 -6.583663E+04 -1.492178E+04
       126  27 -2.403014E+05 -8.651148E+05 -1.779914E+05 -3.548214E+05 -5.683288E+04 -5.478902E+04
       127   1  1.631849E+05  7.832961E+05  1.592057E+05 -3.505882E+05  3.738311E+04 -1.947192E+04
       127   2  4.995450E+04  3.248852E+05  6.034222E+04 -2.746358E+05  1.236840E+04 -2.973073E+04
       127   3 -5.746131E+04 -1.311185E+05 -3.055861E+04 -3.460890E+05 -1.319827E+04 -3.998867E+04
       127   4  4.013913E+03  1.234281E+05  2.291539E+04 -3.480380E+05  3.732136E+04  9.663837E+03
       127   5  1.231677E+03  1.224086E+05  1.915434E+04 -2.743344E+05  1.230269E+04  5.077274E+01
       127   6  4.165028E+03  1.234860E+05  2.291567E+04 -3.480378E+05 -1.326860E+04 -9.568672E+03
       127   7 -1.551841E+05 -5.360255E+05 -1.133953E+05 -3.454901E+05  3.725981E+04  3.876919E+04
       127   8 -4.749323E+04 -8.002701E+04 -2.203236E+04 -2.740331E+05  1.223701E+04  2.982275E+04
       127   9  6.578771E+04  3.781538E+05  7.638980E+04 -3.499875E+05 -1.333911E+04  2.086361E+04
       127  10  1.631833E+05  7.832953E+05  1.592023E+05 -3.505876E+05  1.435567E-09  3.416167E-10
       127  11  4.995410E+04  3.248842E+05  6.034027E+04 -2.746355E+05 -4.070381E-10 -1.802503E-09
       127  12 -5.746192E+04 -1.311203E+05 -3.056194E+04 -3.460894E+05 -1.333508E-09 -3.201058E-09
       127  13  4.012392E+03  1.234277E+05  2.291259E+04 -3.480382E+05  2.503628E-09  8.635013E-10
       127  14  1.231515E+03  1.224086E+05  1.915405E+04 -2.743344E+05  2.136690E-09  9.469205E-10
       127  15  4.164814E+03  1.234859E+05  2.291516E+04 -3.480380E+05  2.730630E-10  3.353693E-10
       127  16 -1.551860E+05 -5.360275E+05 -1.134007E+05 -3.454913E+05  1.565124E-09  7.158291E-11
       127  17 -4.749363E+04 -8.002801E+04 -2.203431E+04 -2.740334E+05 -3.502204E-10  1.348481E-09
       127  18  6.578740E+04  3.781532E+05  7.638865E+04 -3.499873E+05 -8.044360E-10  2.594216E-09
       127  19  1.631849E+05  7.832961E+05  1.592057E+05 -3.505882E+05 -3.738311E+04  1.947192E+04
       127  20  4.995450E+04  3.248852E+05  6.034222E+04 -2.746358E+05 -1.236840E+04  2.973073E+04
       127  21 -5.746131E+04 -1.311185E+05 -3.055861E+04 -3.460890E+05  1.319827E+04  3.998867E+04
       127  22  4.013913E+03  1.234281E+05  2.291539E+04 -3.480380E+05 -3.732136E+04 -9.663837E+03
       127  23  1.231677E+03  1.224086E+05  1.915434E+04 -2.743344E+05 -1.230269E+04 -5.077274E+01
       127  24  4.165028E+03  1.234860E+05  2.291567E+04 -3.480378E+05  1.326860E+04  9.568672E+03
       127  25 -1.551841E+05 -5.360255E+05 -1.133953E+05 -3.454901E+05 -3.725981E+04 -3.876919E+04
       127  26 -4.749323E+04 -8.002701E+04 -2.203236E+04 -2.740331E+05 -1.223701E+04 -2.982275E+04
       127  27  6.578771E+04  3.781538E+05  7.638980E+04 -3.499875E+05  1.333911E+04 -2.086361E+04
       128   1 -1.424786E+05 -4.600245E+05 -9.538100E+04 -3.554274E+05 -3.238038E+04 -5.340220E+04
       128   2 -2.463741E+05 -9.217287E+05 -1.838778E+05 -2.579950E+05 -4.539412E+04 -2.563598E+04
       128   3 -2.993953E+05 -1.374359E+06 -2.778266E+05 -3.059250E+05 -1.636275E+04  2.165167E+03
       128   4 -7.547558E+02  1.268334E+05  2.646659E+04 -3.476031E+05 -3.246912E+04 -1.349979E+04
       128   5  6.795907E+03  1.179748E+05  4.139234E+04 -2.748733E+05 -4.536942E+04 -3.515095E+04
       128   6  7.376134E+04  1.265348E+05  8.517581E+04 -3.474732E+05 -1.625864E+04 -5.674687E+04
       128   7  1.409484E+05  7.140213E+05  1.483014E+05 -3.397710E+05 -3.255681E+04  2.643973E+04
       128   8  2.598955E+05  1.158694E+06  2.665987E+05 -2.917796E+05 -4.534422E+04 -4.468161E+04
       128   9  4.467611E+05  1.629501E+06  4.480304E+05 -3.891209E+05 -1.614680E+04 -1.158010E+05
       128  10 -1.424805E+05 -4.600278E+05 -9.538834E+04 -3.554288E+05 -1.934112E-09  1.234016E-09
       128  11 -2.463765E+05 -9.217299E+05 -1.838829E+05 -2.579959E+05 -9.102225E-10  1.235205E-11
       128  12 -2.993956E+05 -1.374359E+06 -2.778271E+05 -3.059249E+05  1.397649E-10 -3.566488E-10
       128  13 -7.559373E+02  1.268330E+05  2.646427E+04 -3.476034E+05 -6.662902E-10  9.039239E-10
       128  14  6.793364E+03  1.179729E+05  4.138614E+04 -2.748746E+05 -1.924583E-09  6.624130E-10
       128  15  7.376019E+04  1.265312E+05  8.516926E+04 -3.474739E+05 -2.507387E-10  2.450339E-10
       128  16  1.409470E+05  7.140202E+05  1.482981E+05 -3.397703E+05 -1.390203E-09 -8.358611E-10
       128  17  2.598928E+05  1.158692E+06  2.665911E+05 -2.917812E+05 -7.415489E-10 -5.154605E-10
       128  18  4.467572E+05  1.629487E+06  4.480047E+05 -3.891225E+05  7.326013E-10 -2.169178E-10
       128  19 -1.424786E+05 -4.600245E+05 -9.538100E+04 -3.554274E+05  3.238038E+04  5.340220E+04
       128  20 -2.463741E+05 -9.217287E+05 -1.838778E+05 -2.579950E+05  4.539412E+04  2.563598E+04
       128  21 -2.993953E+05 -1.374359E+06 -2.778266E+05 -3.059250E+05  1.636275E+04 -2.165167E+03
       128  22 -7.547558E+02  1.268334E+05  2.646659E+04 -3.476031E+05  3.246912E+04  1.349979E+04
       128  23  6.795907E+03  1.179748E+05  4.139234E+04 -2.748733E+05  4.536942E+04  3.515095E+04
       128  24  7.376134E+04  1.265348E+05  8.517581E+04 -3.474732E+05  1.625864E+04  5.674687E+04
       128  25  1.409484E+05  7.140213E+05  1.483014E+05 -3.397710E+05  3.255681E+04 -2.643973E+04
       128  26  2.598955E+05  1.158694E+06  2.665987E+05 -2.917796E+05  4.534422E+04  4.468161E+04
       128  27  4.467611E+05  1.629501E+06  4.480304E+05 -3.891209E+05  1.614680E+04  1.158010E+05
       129   1 -1.429552E+06 -5.394300E+05 -3.083039E+05 -5.465504E+05 -1.372127E+05 -4.257193E+04
       129   2 -1.377833E+06 -3.578110E+05 -1.858444E+05 -5.279384E+05 -8.731261E+04 -4.395758E+03
       129   3 -1.363119E+06 -3.034261E+05 -1.364413E+05 -4.961955E+05 -3.163189E+04  1.841585E+04
       129   4 -9.447262E+05 -2.890843E+05 -1.672404E+05 -3.443089E+05 -1.100949E+05 -3.240566E+04
       129   5 -9.186880E+05 -1.620040E+05 -7.421899E+04 -3.753147E+05 -7.705885E+04 -5.519988E+02
       129   6 -9.262738E+05 -1.587680E+05 -4.083748E+04 -3.932017E+05 -3.824819E+04  1.593192E+04
       129   7 -4.596599E+05 -3.865487E+04 -2.619613E+04 -1.419041E+05 -8.295403E+04 -2.222321E+04
       129   8 -4.593287E+05  3.383875E+04  3.739148E+04 -2.225805E+05 -6.679684E+04  3.295931E+03
       129   9 -4.892338E+05 -1.410346E+04  5.475585E+04 -2.901448E+05 -4.486959E+04  1.344654E+04
       129  10 -1.429572E+06 -5.394371E+05 -3.083427E+05 -5.465551E+05 -8.052485E-10  8.309906E-11
       129  11 -1.377841E+06 -3.578131E+05 -1.858588E+05 -5.279387E+05 -3.153132E-09 -2.198835E-11
       129  12 -1.363120E+06 -3.034267E+05 -1.364438E+05 -4.961951E+05 -3.451613E-10  7.495723E-10
       129  13 -9.447395E+05 -2.890887E+05 -1.672651E+05 -3.443118E+05 -1.074079E-09 -5.873167E-11
       129  14 -9.186943E+05 -1.620056E+05 -7.423016E+04 -3.753147E+05 -1.090720E-09  1.313888E-10
       129  15 -9.262754E+05 -1.587687E+05 -4.084071E+04 -3.932012E+05  4.204021E-09  4.051182E-10
       129  16 -4.596675E+05 -3.865725E+04 -2.621000E+04 -1.419056E+05  2.051945E-10 -3.771877E-10
       129  17 -4.593335E+05  3.383754E+04  3.738307E+04 -2.225803E+05  3.161366E-09  2.921649E-11
       129  18 -4.892360E+05 -1.410419E+04  5.475173E+04 -2.901444E+05  3.735829E-09  1.677269E-11
       129  19 -1.429552E+06 -5.394300E+05 -3.083039E+05 -5.465504E+05  1.372127E+05  4.257193E+04
       129  20 -1.377833E+06 -3.578110E+05 -1.858444E+05 -5.279384E+05  8.731261E+04  4.395758E+03
       129  21 -1.363119E+06 -3.034261E+05 -1.364413E+05 -4.961955E+05  3.163189E+04 -1.841585E+04
       129  22 -9.447262E+05 -2.890843E+05 -1.672404E+05 -3.443089E+05  1.100949E+05  3.240566E+04
       129  23 -9.186880E+05 -1.620040E+05 -7.421899E+04 -3.753147E+05  7.705885E+04  5.519988E+02
       129  24 -9.262738E+05 -1.587680E+05 -4.083748E+04 -3.932017E+05  3.824819E+04 -1.593192E+04
       129  25 -4.596599E+05 -3.865487E+04 -2.619613E+04 -1.419041E+05  8.295403E+04  2.222321E+04
       129  26 -4.593287E+05  3.383875E+04  3.739148E+04 -2.225805E+05  6.679684E+04 -3.295931E+03
       129  27 -4.892338E+05 -1.410346E+04  5.475585E+04 -2.901448E+05  4.486959E+04 -1.344654E+04
       130   1 -1.303099E+06 -3.110174E+05 -1.185394E+05 -4.943623E+05 -2.959835E+04  1.570711E+04
       130   2 -1.254159E+06 -2.771428E+05 -9.042378E+04 -4.717010E+05 -1.932390E+04  1.646609E+04
       130   3 -1.194653E+06 -2.624534E+05 -7.064149E+04 -4.637727E+05 -8.761521E+03  1.645627E+04
       130   4 -9.209949E+05 -1.679378E+05 -3.182651E+04 -3.872031E+05 -3.216855E+04  1.474130E+04
       130   5 -9.259504E+05 -1.555766E+05 -1.668300E+04 -3.809024E+05 -2.273396E+04  1.518595E+04
       130   6 -9.201731E+05 -1.622310E+05 -9.202174E+03 -3.893352E+05 -1.301242E+04  1.486165E+04
       130   7 -5.387437E+05 -2.484607E+04  5.487683E+04 -2.799831E+05 -3.474045E+04  1.377483E+04
       130   8 -5.976338E+05 -3.400232E+04  5.705065E+04 -2.900600E+05 -2.614597E+04  1.390508E+04
       130   9 -6.456194E+05 -6.200401E+04  5.223194E+04 -3.148681E+05 -1.726533E+04  1.326629E+04
       130  10 -1.303100E+06 -3.110179E+05 -1.185415E+05 -4.943619E+05  2.142603E-09  9.788343E-10
       130  11 -1.254160E+06 -2.771432E+05 -9.042499E+04 -4.717007E+05  2.492781E-09  1.375553E-09
       130  12 -1.194653E+06 -2.624537E+05 -7.064214E+04 -4.637726E+05  3.272788E-09  1.144362E-09
       130  13 -9.209961E+05 -1.679383E+05 -3.182887E+04 -3.872027E+05  5.098842E-09  9.740548E-10
       130  14 -9.259510E+05 -1.555770E+05 -1.668440E+04 -3.809021E+05  5.159603E-09  1.469764E-09
       130  15 -9.201733E+05 -1.622313E+05 -9.202907E+03 -3.893350E+05  6.647208E-10  6.774378E-10
       130  16 -5.387450E+05 -2.484660E+04  5.487421E+04 -2.799827E+05  6.189996E-09  9.435309E-10
       130  17 -5.976346E+05 -3.400271E+04  5.704900E+04 -2.900597E+05  2.447077E-09  1.606758E-09
       130  18 -6.456198E+05 -6.200428E+04  5.223105E+04 -3.148679E+05 -1.463156E-09  3.838468E-10
       130  19 -1.303099E+06 -3.110174E+05 -1.185394E+05 -4.943623E+05  2.959835E+04 -1.570711E+04
       130  20 -1.254159E+06 -2.771428E+05 -9.042378E+04 -4.717010E+05  1.932390E+04 -1.646609E+04
       130  21 -1.194653E+06 -2.624534E+05 -7.064149E+04 -4.637727E+05  8.761521E+03 -1.645627E+04
       130  22 -9.209949E+05 -1.679378E+05 -3.182651E+04 -3.872031E+05  3.216855E+04 -1.474130E+04
       130  23 -9.259504E+05 -1.555766E+05 -1.668300E+04 -3.809024E+05  2.273396E+04 -1.518595E+04
       130  24 -9.201731E+05 -1.622310E+05 -9.202174E+03 -3.893352E+05  1.301242E+04 -1.486165E+04
       130  25 -5.387437E+05 -2.484607E+04  5.487683E+04 -2.799831E+05  3.474045E+04 -1.377483E+04
       130  26 -5.976338E+05 -3.400232E+04  5.705065E+04 -2.900600E+05  2.614597E+04 -1.390508E+04
       130  27 -6.456194E+05 -6.200401E+04  5.223194E+04 -3.148681E+05  1.726533E+04 -1.326629E+04
       131   1 -1.152562E+06 -2.482997E+05 -5.888524E+04 -4.529302E+05 -6.822165E+03  1.464079E+04
       131   2 -1.104060E+06 -2.208208E+05 -4.353454E+04 -4.298447E+05 -3.476821E+03  1.166236E+04
       131   3 -1.042059E+06 -2.074638E+05 -2.970418E+04 -4.226374E+05 -1.161920E+02  8.641384E+03
       131   4 -9.197634E+05 -1.626307E+05 -6.957114E+03 -3.890297E+05 -1.087970E+04  1.311907E+04
       131   5 -9.264968E+05 -1.554740E+05 -3.823470E+03 -3.811257E+05 -7.580536E+03  1.012378E+04
       131   6 -9.197272E+05 -1.624305E+05 -2.173375E+03 -3.891011E+05 -4.266288E+03  7.085879E+03
       131   7 -6.869086E+05 -7.695696E+04  4.496809E+04 -3.251068E+05 -1.493891E+04  1.159672E+04
       131   8 -7.489014E+05 -9.012469E+04  3.588585E+04 -3.323938E+05 -1.168554E+04  8.584708E+03
       131   9 -7.973800E+05 -1.173960E+05  2.535655E+04 -3.555588E+05 -8.417271E+03  5.530043E+03
       131  10 -1.152562E+06 -2.483000E+05 -5.888573E+04 -4.529301E+05  3.390970E-10  1.567154E-10
       131  11 -1.104060E+06 -2.208209E+05 -4.353482E+04 -4.298447E+05  3.254726E-10 -3.670572E-10
       131  12 -1.042059E+06 -2.074638E+05 -2.970432E+04 -4.226374E+05  3.674953E-10  3.985360E-11
       131  13 -9.197636E+05 -1.626309E+05 -6.957660E+03 -3.890295E+05 -5.838011E-10 -8.611441E-12
       131  14 -9.264969E+05 -1.554742E+05 -3.823771E+03 -3.811257E+05 -1.201891E-09 -3.189198E-10
       131  15 -9.197273E+05 -1.624305E+05 -2.173504E+03 -3.891011E+05  2.743203E-09  7.216726E-10
       131  16 -6.869088E+05 -7.695717E+04  4.496742E+04 -3.251066E+05 -2.061802E-09 -3.079383E-10
       131  17 -7.489016E+05 -9.012481E+04  3.588545E+04 -3.323937E+05 -4.362186E-10 -9.800119E-12
       131  18 -7.973800E+05 -1.173961E+05  2.535636E+04 -3.555587E+05  3.816978E-09  1.405071E-09
       131  19 -1.152562E+06 -2.482997E+05 -5.888524E+04 -4.529302E+05  6.822165E+03 -1.464079E+04
       131  20 -1.104060E+06 -2.208208E+05 -4.353454E+04 -4.298447E+05  3.476821E+03 -1.166236E+04
       131  21 -1.042059E+06 -2.074638E+05 -2.970418E+04 -4.226374E+05  1.161920E+02 -8.641384E+03
       131  22 -9.197634E+05 -1.626307E+05 -6.957114E+03 -3.890297E+05  1.087970E+04 -1.311907E+04
       131  23 -9.264968E+05 -1.554740E+05 -3.823470E+03 -3.811257E+05  7.580536E+03 -1.012378E+04
       131  24 -9.197272E+05 -1.624305E+05 -2.173375E+03 -3.891011E+05  4.266288E+03 -7.085879E+03
       131  25 -6.869086E+05 -7.695696E+04  4.496809E+04 -3.251068E+05  1.493891E+04 -1.159672E+04
       131  26 -7.489014E+05 -9.012469E+04  3.588585E+04 -3.323938E+05  1.168554E+04 -8.584708E+03
       131  27 -7.973800E+05 -1.173960E+05  2.535655E+04 -3.555588E+05  8.417271E+03 -5.530043E+03
       132   1 -1.000794E+06 -1.922672E+05 -1.964481E+04 -4.113547E+05  1.019914E+03  6.562138E+03
       132   2 -9.523200E+05 -1.649675E+05 -6.846847E+03 -3.881793E+05  2.978521E+03  2.997438E+03
       132   3 -8.900552E+05 -1.515562E+05  5.541007E+03 -3.809194E+05  4.937997E+03 -5.699061E+02
       132   4 -9.196711E+05 -1.624455E+05 -1.686459E+03 -3.890842E+05 -3.123411E+03  5.009336E+03
       132   5 -9.265647E+05 -1.555023E+05 -1.090507E+03 -3.811254E+05 -1.167820E+03  1.443577E+03
       132   6 -9.196706E+05 -1.624472E+05 -9.023651E+02 -3.890832E+05  7.885774E+02 -2.124826E+03
       132   7 -8.385418E+05 -1.326233E+05  1.627151E+04 -3.668110E+05 -7.267312E+03  3.456319E+03
       132   8 -9.008089E+05 -1.460371E+05  4.665814E+03 -3.740712E+05 -5.314318E+03 -1.103417E+02
       132   9 -9.492847E+05 -1.733380E+05 -7.345615E+03 -3.972466E+05 -3.360578E+03 -3.679646E+03
       132  10 -1.000794E+06 -1.922673E+05 -1.964490E+04 -4.113547E+05  8.138930E-09  2.336730E-09
       132  11 -9.523201E+05 -1.649675E+05 -6.846881E+03 -3.881793E+05 -4.604476E-09 -2.812446E-09
       132  12 -8.900553E+05 -1.515562E+05  5.540960E+03 -3.809194E+05 -1.656878E-08 -7.477773E-09
       132  13 -9.196711E+05 -1.624455E+05 -1.686524E+03 -3.890842E+05  3.830946E-09  1.104440E-09
       132  14 -9.265647E+05 -1.555023E+05 -1.090513E+03 -3.811254E+05  5.318713E-10 -6.043418E-10
       132  15 -9.196706E+05 -1.624472E+05 -9.023747E+02 -3.890832E+05 -2.344824E-09 -1.426766E-09
       132  16 -8.385419E+05 -1.326234E+05  1.627139E+04 -3.668110E+05 -2.674013E-09 -8.572232E-10
       132  17 -9.008090E+05 -1.460371E+05  4.665761E+03 -3.740712E+05  5.848093E-09  2.375376E-09
       132  18 -9.492847E+05 -1.733380E+05 -7.345662E+03 -3.972466E+05  1.348556E-08  5.141647E-09
       132  19 -1.000794E+06 -1.922672E+05 -1.964481E+04 -4.113547E+05 -1.019914E+03 -6.562138E+03
       132  20 -9.523200E+05 -1.649675E+05 -6.846847E+03 -3.881793E+05 -2.978521E+03 -2.997438E+03
       132  21 -8.900552E+05 -1.515562E+05  5.541007E+03 -3.809194E+05 -4.937997E+03  5.699061E+02
       132  22 -9.196711E+05 -1.624455E+05 -1.686459E+03 -3.890842E+05  3.123411E+03 -5.009336E+03
       132  23 -9.265647E+05 -1.555023E+05 -1.090507E+03 -3.811254E+05  1.167820E+03 -1.443577E+03
       132  24 -9.196706E+05 -1.624472E+05 -9.023651E+02 -3.890832E+05 -7.885774E+02  2.124826E+03
       132  25 -8.385418E+05 -1.326233E+05  1.627151E+04 -3.668110E+05  7.267312E+03 -3.456319E+03
       132  26 -9.008089E+05 -1.460371E+05  4.665814E+03 -3.740712E+05  5.314318E+03  1.103417E+02
       132  27 -9.492847E+05 -1.733380E+05 -7.345615E+03 -3.972466E+05  3.360578E+03  3.679646E+03
       133   1 -8.488400E+05 -1.363015E+05  1.509547E+04 -3.696067E+05  5.912148E+03 -2.709049E+03
       133   2 -8.004144E+05 -1.090323E+05  2.696534E+04 -3.464531E+05  7.937544E+03 -6.247871E+03
       133   3 -7.382176E+05 -9.563815E+04  3.837616E+04 -3.391980E+05  9.961409E+03 -9.780650E+03
       133   4 -9.196756E+05 -1.624449E+05 -9.293160E+02 -3.890797E+05  1.764052E+03 -4.263555E+03
       133   5 -9.265622E+05 -1.555096E+05 -1.243750E+03 -3.811295E+05  3.795678E+03 -7.800406E+03
       133   6 -9.196807E+05 -1.624509E+05 -2.021898E+03 -3.890793E+05  5.825707E+03 -1.133122E+04
       133   7 -9.905072E+05 -1.885882E+05 -1.695463E+04 -4.085509E+05 -2.383589E+03 -5.817890E+03
       133   8 -1.052695E+06 -2.019862E+05 -2.945416E+04 -4.157998E+05 -3.453213E+02 -9.352618E+03
       133   9 -1.101112E+06 -2.292616E+05 -4.242234E+04 -4.389477E+05  1.691282E+03 -1.288131E+04
       133  10 -8.488400E+05 -1.363015E+05  1.509539E+04 -3.696067E+05  1.654398E-08  4.960247E-09
       133  11 -8.004145E+05 -1.090324E+05  2.696515E+04 -3.464530E+05  7.643691E-09  2.779554E-09
       133  12 -7.382178E+05 -9.563828E+04  3.837579E+04 -3.391979E+05 -3.936564E-09 -9.606018E-10
       133  13 -9.196756E+05 -1.624449E+05 -9.293560E+02 -3.890797E+05 -7.286332E-10 -1.186757E-09
       133  14 -9.265623E+05 -1.555097E+05 -1.243891E+03 -3.811295E+05  1.521603E-10 -3.940123E-10
       133  15 -9.196808E+05 -1.624510E+05 -2.022203E+03 -3.890793E+05  2.087037E-09  7.087880E-10
       133  16 -9.905072E+05 -1.885883E+05 -1.695470E+04 -4.085509E+05 -1.740851E-08 -7.190573E-09
       133  17 -1.052695E+06 -2.019863E+05 -2.945433E+04 -4.157998E+05 -6.972602E-09 -3.385328E-09
       133  18 -1.101112E+06 -2.292618E+05 -4.242266E+04 -4.389477E+05  3.980715E-09  2.458392E-09
       133  19 -8.488400E+05 -1.363015E+05  1.509547E+04 -3.696067E+05 -5.912148E+03  2.709049E+03
       133  20 -8.004144E+05 -1.090323E+05  2.696534E+04 -3.464531E+05 -7.937544E+03  6.247871E+03
       133  21 -7.382176E+05 -9.563815E+04  3.837616E+04 -3.391980E+05 -9.961409E+03  9.780650E+03
       133  22 -9.196756E+05 -1.624449E+05 -9.293160E+02 -3.890797E+05 -1.764052E+03  4.263555E+03
       133  23 -9.265622E+05 -1.555096E+05 -1.243750E+03 -3.811295E+05 -3.795678E+03  7.800406E+03
       133  24 -9.196807E+05 -1.624509E+05 -2.021898E+03 -3.890793E+05 -5.825707E+03  1.133122E+04
       133  25 -9.905072E+05 -1.885882E+05 -1.695463E+04 -4.085509E+05  2.383589E+03  5.817890E+03
       133  26 -1.052695E+06 -2.019862E+05 -2.945416E+04 -4.157998E+05  3.453213E+02  9.352618E+03
       133  27 -1.101112E+06 -2.292616E+05 -4.242234E+04 -4.389477E+05 -1.691282E+03  1.288131E+04
       134   1 -6.971621E+05 -8.044061E+04  4.731271E+04 -3.279713E+05  1.117504E+04 -1.182518E+04
       134   2 -6.488139E+05 -5.324754E+04  5.740151E+04 -3.048667E+05  1.485912E+04 -1.470824E+04
       134   3 -5.870605E+05 -4.017324E+04  6.571898E+04 -2.975841E+05  1.852519E+04 -1.753894E+04
       134   4 -9.197586E+05 -1.624281E+05 -2.635237E+03 -3.890942E+05  7.033213E+03 -1.337837E+04
       134   5 -9.264766E+05 -1.554889E+05 -4.686093E+03 -3.811375E+05  1.077329E+04 -1.624115E+04
       134   6 -9.198045E+05 -1.626804E+05 -8.553381E+03 -3.890043E+05  1.449516E+04 -1.905162E+04
       134   7 -1.142302E+06 -2.444109E+05 -5.258553E+04 -4.501963E+05  2.893044E+03 -1.493093E+04
       134   8 -1.204060E+06 -2.577241E+05 -6.677820E+04 -4.573767E+05  6.689462E+03 -1.777331E+04
       134   9 -1.252438E+06 -2.851796E+05 -8.283304E+04 -4.803800E+05  1.046746E+04 -2.056345E+04
       134  10 -6.971623E+05 -8.044080E+04  4.731221E+04 -3.279712E+05  1.366014E-09  8.428139E-10
       134  11 -6.488142E+05 -5.324783E+04  5.740068E+04 -3.048665E+05  1.735745E-10  2.679498E-10
       134  12 -5.870609E+05 -4.017366E+04  6.571776E+04 -2.975838E+05  1.112579E-09 -2.221751E-10
       134  13 -9.197587E+05 -1.624284E+05 -2.635666E+03 -3.890941E+05  7.403362E-10  9.189091E-10
       134  14 -9.264768E+05 -1.554893E+05 -4.686807E+03 -3.811373E+05  1.544696E-09  3.019873E-10
       134  15 -9.198048E+05 -1.626808E+05 -8.554458E+03 -3.890040E+05 -7.718815E-10 -3.037989E-10
       134  16 -1.142302E+06 -2.444112E+05 -5.258596E+04 -4.501962E+05 -1.742272E-09  8.478947E-10
       134  17 -1.204061E+06 -2.577244E+05 -6.677888E+04 -4.573766E+05 -2.155670E-09 -1.781949E-10
       134  18 -1.252438E+06 -2.851801E+05 -8.283404E+04 -4.803798E+05 -5.742039E-12 -3.709298E-10
       134  19 -6.971621E+05 -8.044061E+04  4.731271E+04 -3.279713E+05 -1.117504E+04  1.182518E+04
       134  20 -6.488139E+05 -5.324754E+04  5.740151E+04 -3.048667E+05 -1.485912E+04  1.470824E+04
       134  21 -5.870605E+05 -4.017324E+04  6.571898E+04 -2.975841E+05 -1.852519E+04  1.753894E+04
       134  22 -9.197586E+05 -1.624281E+05 -2.635237E+03 -3.890942E+05 -7.033213E+03  1.337837E+04
       134  23 -9.264766E+05 -1.554889E+05 -4.686093E+03 -3.811375E+05 -1.077329E+04  1.624115E+04
       134  24 -9.198045E+05 -1.626804E+05 -8.553381E+03 -3.890043E+05 -1.449516E+04  1.905162E+04
       134  25 -1.142302E+06 -2.444109E+05 -5.258553E+04 -4.501963E+05 -2.893044E+03  1.493093E+04
       134  26 -1.204060E+06 -2.577241E+05 -6.677820E+04 -4.573767E+05 -6.689462E+03  1.777331E+04
       134  27 -1.252438E+06 -2.851796E+05 -8.283304E+04 -4.803800E+05 -1.046746E+04  2.056345E+04
       135   1 -5.459040E+05 -2.533559E+04  7.241243E+04 -2.876238E+05  2.118246E+04 -1.908170E+04
       135   2 -4.982045E+05  2.742009E+03  7.546609E+04 -2.625093E+05  3.183330E+04 -1.897871E+04
       135   3 -4.403356E+05  1.085761E+04  6.987762E+04 -2.517987E+05  4.214651E+04 -1.796914E+04
       135   4 -9.203142E+05 -1.621881E+05 -1.132107E+04 -3.893801E+05  1.692575E+04 -2.067996E+04
       135   5 -9.258038E+05 -1.556204E+05 -2.053498E+04 -3.808636E+05  2.856626E+04 -2.020671E+04
       135   6 -9.213261E+05 -1.692150E+05 -3.918069E+04 -3.867528E+05  3.986821E+04 -1.882694E+04
       135   7 -1.294581E+06 -2.990297E+05 -9.506271E+04 -4.910799E+05  1.267186E+04 -2.227718E+04
       135   8 -1.353219E+06 -3.139685E+05 -1.165477E+05 -4.991432E+05  2.530166E+04 -2.143380E+04
       135   9 -1.402087E+06 -3.492695E+05 -1.482549E+05 -5.216113E+05  3.759180E+04 -1.968401E+04
       135  10 -5.459046E+05 -2.533610E+04  7.241091E+04 -2.876235E+05  2.236063E-09 -4.780543E-10
       135  11 -4.982056E+05  2.741351E+03  7.546351E+04 -2.625088E+05  2.474091E-09 -5.749301E-10
       135  12 -4.403376E+05  1.085678E+04  6.987367E+04 -2.517981E+05 -1.374356E-09 -1.178040E-09
       135  13 -9.203146E+05 -1.621887E+05 -1.132241E+04 -3.893798E+05  1.826454E-10 -5.049414E-10
       135  14 -9.258048E+05 -1.556211E+05 -2.053728E+04 -3.808632E+05 -2.121098E-09 -6.333207E-10
       135  15 -9.213279E+05 -1.692158E+05 -3.918435E+04 -3.867522E+05 -2.611949E-09 -7.639774E-10
       135  16 -1.294581E+06 -2.990303E+05 -9.506394E+04 -4.910796E+05 -1.109016E-09 -5.618455E-10
       135  17 -1.353220E+06 -3.139692E+05 -1.165497E+05 -4.991428E+05 -1.042996E-09 -4.499389E-10
       135  18 -1.402088E+06 -3.492703E+05 -1.482583E+05 -5.216107E+05 -4.641413E-09 -2.834023E-10
       135  19 -5.459040E+05 -2.533559E+04  7.241243E+04 -2.876238E+05 -2.118246E+04  1.908170E+04
       135  20 -4.982045E+05  2.742009E+03  7.546609E+04 -2.625093E+05 -3.183330E+04  1.897871E+04
       135  21 -4.403356E+05  1.085761E+04  6.987762E+04 -2.517987E+05 -4.214651E+04  1.796914E+04
       135  22 -9.203142E+05 -1.621881E+05 -1.132107E+04 -3.893801E+05 -1.692575E+04  2.067996E+04
       135  23 -9.258038E+05 -1.556204E+05 -2.053498E+04 -3.808636E+05 -2.856626E+04  2.020671E+04
       135  24 -9.213261E+05 -1.692150E+05 -3.918069E+04 -3.867528E+05 -3.986821E+04  1.882694E+04
       135  25 -1.294581E+06 -2.990297E+05 -9.506271E+04 -4.910799E+05 -1.267186E+04  2.227718E+04
       135  26 -1.353219E+06 -3.139685E+05 -1.165477E+05 -4.991432E+05 -2.530166E+04  2.143380E+04
       135  27 -1.402087E+06 -3.492695E+05 -1.482549E+05 -5.216113E+05 -3.759180E+04  1.968401E+04
       136   1 -3.890771E+05  2.048529E+04  6.750929E+04 -2.669688E+05  5.418701E+04 -1.708115E+04
       136   2 -3.636222E+05  7.314244E+04  4.304827E+04 -1.891846E+05  8.187553E+04 -3.636720E+03
       136   3 -3.788080E+05 -1.939449E+04 -3.903962E+04 -9.153661E+04  1.027678E+05  2.789611E+04
       136   4 -9.278154E+05 -1.579362E+05 -5.027488E+04 -3.941482E+05  4.714204E+04 -1.972786E+04
       136   5 -9.168737E+05 -1.635215E+05 -9.137016E+04 -3.739729E+05  9.469590E+04  1.173409E+03
       136   6 -9.505686E+05 -3.183299E+05 -2.058877E+05 -3.339253E+05  1.354469E+05  4.016381E+04
       136   7 -1.466264E+06 -3.363498E+05 -1.680767E+05 -5.212331E+05  4.010368E+04 -2.237269E+04
       136   8 -1.469808E+06 -4.001302E+05 -2.258085E+05 -5.585981E+05  1.075037E+05  5.977171E+03
       136   9 -1.521974E+06 -6.171332E+05 -3.727566E+05 -5.760746E+05  1.680923E+05  5.240766E+04
       136  10 -3.890804E+05  2.048419E+04  6.750322E+04 -2.669680E+05 -3.433265E-09 -5.698192E-10
       136  11 -3.636294E+05  7.314062E+04  4.303564E+04 -1.891843E+05 -4.987002E-09  2.093881E-10
       136  12 -3.788195E+05 -1.939816E+04 -3.906094E+04 -9.153892E+04 -2.561320E-09 -6.839562E-12
       136  13 -9.278179E+05 -1.579372E+05 -5.027979E+04 -3.941474E+05 -4.287863E-09 -8.803151E-10
       136  14 -9.168833E+05 -1.635239E+05 -9.138704E+04 -3.739729E+05 -3.930905E-09 -8.335375E-10
       136  15 -9.505887E+05 -3.183365E+05 -2.059253E+05 -3.339297E+05 -2.036968E-09  4.792241E-10
       136  16 -1.466266E+06 -3.363507E+05 -1.680806E+05 -5.212323E+05 -4.939730E-09 -5.865513E-10
       136  17 -1.469821E+06 -4.001333E+05 -2.258303E+05 -5.585986E+05 -3.198800E-09 -1.076731E-09
       136  18 -1.522005E+06 -6.171438E+05 -3.728150E+05 -5.760817E+05 -1.272822E-09 -1.057298E-10
       136  19 -3.890771E+05  2.048529E+04  6.750929E+04 -2.669688E+05 -5.418701E+04  1.708115E+04
       136  20 -3.636222E+05  7.314244E+04  4.304827E+04 -1.891846E+05 -8.187553E+04  3.636720E+03
       136  21 -3.788080E+05 -1.939449E+04 -3.903962E+04 -9.153661E+04 -1.027678E+05 -2.789611E+04
       136  22 -9.278154E+05 -1.579362E+05 -5.027488E+04 -3.941482E+05 -4.714204E+04  1.972786E+04
       136  23 -9.168737E+05 -1.635215E+05 -9.137016E+04 -3.739729E+05 -9.469590E+04 -1.173409E+03
       136  24 -9.505686E+05 -3.183299E+05 -2.058877E+05 -3.339253E+05 -1.354469E+05 -4.016381E+04
       136  25 -1.466264E+06 -3.363498E+05 -1.680767E+05 -5.212331E+05 -4.010368E+04  2.237269E+04
       136  26 -1.469808E+06 -4.001302E+05 -2.258085E+05 -5.585981E+05 -1.075037E+05 -5.977171E+03
       136  27 -1.521974E+06 -6.171332E+05 -3.727566E+05 -5.760746E+05 -1.680923E+05 -5.240766E+04
       137   1 -6.160045E+04 -2.271627E+04 -1.595924E+04  3.666908E+03  1.308264E+04  2.978298E+03
       137   2 -4.789499E+04 -4.490982E+04 -2.519469E+04 -3.760419E+03  1.103237E+04  9.618467E+03
       137   3 -2.815599E+04 -4.409395E+04 -2.734149E+04 -1.627531E+04  8.984524E+03  1.072537E+04
       137   4  1.512002E+05  3.000765E+04  3.495940E+04 -1.256568E+04  2.415101E+04  2.982731E+03
       137   5  1.476219E+05  2.488676E+03  1.631997E+04 -1.001606E+04  1.559193E+04  9.619899E+03
       137   6  1.512043E+05 -8.953572E+02  9.286841E+03 -1.255365E+04  7.035336E+03  1.072453E+04
       137   7  3.640431E+05  8.272935E+04  8.587545E+04 -2.880386E+04  3.522317E+04  2.986584E+03
       137   8  3.431750E+05  4.988485E+04  5.783255E+04 -1.627370E+04  2.015291E+04  9.621239E+03
       137   9  3.305953E+05  4.230127E+04  4.591350E+04 -8.830903E+03  5.085596E+03  1.072366E+04
       137  10 -6.160063E+04 -2.271633E+04 -1.595958E+04  3.666876E+03  1.015705E-09 -4.510383E-10
       137  11 -4.789515E+04 -4.490995E+04 -2.519509E+04 -3.760505E+03  1.544182E-11  7.666404E-11
       137  12 -2.815610E+04 -4.409409E+04 -2.734186E+04 -1.627539E+04 -1.566449E-09 -6.277068E-10
       137  13  1.511995E+05  3.000748E+04  3.495829E+04 -1.256574E+04 -1.022956E-09  2.511953E-10
       137  14  1.476216E+05  2.488511E+03  1.631934E+04 -1.001618E+04  1.157444E-09 -6.716913E-11
       137  15  1.512042E+05 -8.954940E+02  9.286532E+03 -1.255371E+04 -2.016534E-10 -4.541111E-10
       137  16  3.640418E+05  8.272901E+04  8.587310E+04 -2.880394E+04 -6.287569E-10  1.949373E-10
       137  17  3.431745E+05  4.988464E+04  5.783161E+04 -1.627386E+04 -1.533447E-09 -6.155124E-11
       137  18  3.305952E+05  4.230114E+04  4.591324E+04 -8.830946E+03  1.472082E-09  8.776214E-10
       137  19 -6.160045E+04 -2.271627E+04 -1.595924E+04  3.666908E+03 -1.308264E+04 -2.978298E+03
       137  20 -4.789499E+04 -4.490982E+04 -2.519469E+04 -3.760419E+03 -1.103237E+04 -9.618467E+03
       137  21 -2.815599E+04 -4.409395E+04 -2.734149E+04 -1.627531E+04 -8.984524E+03 -1.072537E+04
       137  22  1.512002E+05  3.000765E+04  3.495940E+04 -1.256568E+04 -2.415101E+04 -2.982731E+03
       137  23  1.476219E+05  2.488676E+03  1.631997E+04 -1.001606E+04 -1.559193E+04 -9.619899E+03
       137  24  1.512043E+05 -8.953572E+02  9.286841E+03 -1.255365E+04 -7.035336E+03 -1.072453E+04
       137  25  3.640431E+05  8.272935E+04  8.587545E+04 -2.880386E+04 -3.522317E+04 -2.986584E+03
       137  26  3.431750E+05  4.988485E+04  5.783255E+04 -1.627370E+04 -2.015291E+04 -9.621239E+03
       137  27  3.305953E+05  4.230127E+04  4.591350E+04 -8.830903E+03 -5.085596E+03 -1.072366E+04
       138   1 -1.739786E+04 -3.907774E+04 -2.697276E+04 -1.226853E+04  6.387852E+03  9.868364E+03
       138   2 -9.945696E+02 -3.618285E+04 -2.659686E+04 -9.902765E+03  4.754224E+03  9.196642E+03
       138   3  1.588381E+04 -3.227495E+04 -2.490199E+04 -1.289698E+04  3.120504E+03  8.226529E+03
       138   4  1.497327E+05  1.190982E+03  7.252877E+03 -1.261705E+04  5.775031E+03  9.867963E+03
       138   5  1.494657E+05  2.125591E+01  3.975017E+03 -9.936933E+03  3.790018E+03  9.196202E+03
       138   6  1.497345E+05 -7.463450E+01  2.259840E+03 -1.261671E+04  1.804956E+03  8.226086E+03
       138   7  3.168897E+05  4.145795E+04  4.147703E+04 -1.296566E+04  5.162048E+03  9.867561E+03
       138   8  2.999476E+05  3.622395E+04  3.454572E+04 -9.971111E+03  2.825582E+03  9.195763E+03
       138   9  2.836022E+05  3.212457E+04  2.942074E+04 -1.233639E+04  4.891300E+02  8.225641E+03
       138  10 -1.739793E+04 -3.907786E+04 -2.697302E+04 -1.226858E+04 -2.726553E-10 -4.131930E-10
       138  11 -9.946165E+02 -3.618294E+04 -2.659706E+04 -9.902800E+03 -9.048012E-10  3.669489E-10
       138  12  1.588378E+04 -3.227503E+04 -2.490213E+04 -1.289700E+04  1.619960E-10 -2.709933E-11
       138  13  1.497326E+05  1.190868E+03  7.252632E+03 -1.261709E+04 -2.105722E-09  4.702972E-10
       138  14  1.494657E+05  2.116124E+01  3.974831E+03 -9.936961E+03  6.387476E-10  4.851736E-10
       138  15  1.497344E+05 -7.470805E+01  2.259707E+03 -1.261672E+04 -6.016891E-10 -4.550319E-10
       138  16  3.168897E+05  4.145784E+04  4.147680E+04 -1.296570E+04 -5.394532E-10  6.297819E-10
       138  17  2.999476E+05  3.622386E+04  3.454554E+04 -9.971132E+03  2.874825E-10 -5.384066E-12
       138  18  2.836022E+05  3.212450E+04  2.942061E+04 -1.233639E+04 -8.911658E-10 -3.799763E-10
       138  19 -1.739786E+04 -3.907774E+04 -2.697276E+04 -1.226853E+04 -6.387852E+03 -9.868364E+03
       138  20 -9.945696E+02 -3.618285E+04 -2.659686E+04 -9.902765E+03 -4.754224E+03 -9.196642E+03
       138  21  1.588381E+04 -3.227495E+04 -2.490199E+04 -1.289698E+04 -3.120504E+03 -8.226529E+03
       138  22  1.497327E+05  1.190982E+03  7.252877E+03 -1.261705E+04 -5.775031E+03 -9.867963E+03
       138  23  1.494657E+05  2.125591E+01  3.975017E+03 -9.936933E+03 -3.790018E+03 -9.196202E+03
       138  24  1.497345E+05 -7.463450E+01  2.259840E+03 -1.261671E+04 -1.804956E+03 -8.226086E+03
       138  25  3.168897E+05  4.145795E+04  4.147703E+04 -1.296566E+04 -5.162048E+03 -9.867561E+03
       138  26  2.999476E+05  3.622395E+04  3.454572E+04 -9.971111E+03 -2.825582E+03 -9.195763E+03
       138  27  2.836022E+05  3.212457E+04  2.942074E+04 -1.233639E+04 -4.891300E+02 -8.225641E+03
       139   1  2.782708E+04 -2.927257E+04 -2.294020E+04 -1.270604E+04  2.698351E+03  7.581260E+03
       139   2  4.441030E+04 -2.531867E+04 -2.038370E+04 -1.000415E+04  2.261345E+03  6.516172E+03
       139   3  6.106690E+04 -2.131978E+04 -1.753021E+04 -1.267090E+04  1.824223E+03  5.435280E+03
       139   4  1.496331E+05  1.529800E+01  1.704423E+03 -1.261873E+04  1.455351E+03  7.580879E+03
       139   5  1.495954E+05 -2.284903E+01  9.211789E+02 -9.934441E+03  9.996698E+02  6.515849E+03
       139   6  1.496342E+05 -1.270131E+01  4.479103E+02 -1.261873E+04  5.438845E+02  5.435017E+03
       139   7  2.714532E+05  2.930224E+04  2.634828E+04 -1.253141E+04  2.121115E+02  7.580497E+03
       139   8  2.547910E+05  2.527228E+04  2.222549E+04 -9.864717E+03 -2.622148E+02  6.515525E+03
       139   9  2.382091E+05  2.129389E+04  1.842563E+04 -1.256655E+04 -7.366330E+02  5.434754E+03
       139  10  2.782706E+04 -2.927263E+04 -2.294032E+04 -1.270605E+04  2.410391E-10 -2.857440E-10
       139  11  4.441028E+04 -2.531871E+04 -2.038379E+04 -1.000417E+04 -1.151511E-09 -2.209570E-10
       139  12  6.106688E+04 -2.131981E+04 -1.753027E+04 -1.267091E+04 -3.931654E-10  6.662181E-10
       139  13  1.496331E+05  1.523571E+01  1.704311E+03 -1.261874E+04 -4.974611E-11 -2.908898E-10
       139  14  1.495954E+05 -2.289489E+01  9.210973E+02 -9.934446E+03 -1.599584E-09  2.663572E-10
       139  15  1.496342E+05 -1.273312E+01  4.478542E+02 -1.261873E+04 -6.475076E-10  2.625259E-10
       139  16  2.714532E+05  2.930218E+04  2.634817E+04 -1.253141E+04  4.743208E-10 -2.898283E-10
       139  17  2.547910E+05  2.527224E+04  2.222541E+04 -9.864716E+03  1.792092E-09 -5.484831E-11
       139  18  2.382091E+05  2.129386E+04  1.842557E+04 -1.256655E+04  1.075610E-09  7.209081E-10
       139  19  2.782708E+04 -2.927257E+04 -2.294020E+04 -1.270604E+04 -2.698351E+03 -7.581260E+03
       139  20  4.441030E+04 -2.531867E+04 -2.038370E+04 -1.000415E+04 -2.261345E+03 -6.516172E+03
       139  21  6.106690E+04 -2.131978E+04 -1.753021E+04 -1.267090E+04 -1.824223E+03 -5.435280E+03
       139  22  1.496331E+05  1.529800E+01  1.704423E+03 -1.261873E+04 -1.455351E+03 -7.580879E+03
       139  23  1.495954E+05 -2.284903E+01  9.211789E+02 -9.934441E+03 -9.996698E+02 -6.515849E+03
       139  24  1.496342E+05 -1.270131E+01  4.479103E+02 -1.261873E+04 -5.438845E+02 -5.435017E+03
       139  25  2.714532E+05  2.930224E+04  2.634828E+04 -1.253141E+04 -2.121115E+02 -7.580497E+03
       139  26  2.547910E+05  2.527228E+04  2.222549E+04 -9.864717E+03  2.622148E+02 -6.515525E+03
       139  27  2.382091E+05  2.129389E+04  1.842563E+04 -1.256655E+04  7.366330E+02 -5.434754E+03
       140   1  7.307577E+04 -1.840713E+04 -1.518535E+04 -1.265848E+04  1.755208E+03  4.802049E+03
       140   2  8.968322E+04 -1.441514E+04 -1.216831E+04 -9.974489E+03  1.771982E+03  3.716607E+03
       140   3  1.062918E+05 -1.042323E+04 -9.161457E+03 -1.265720E+04  1.788690E+03  2.630517E+03
       140   4  1.496178E+05 -9.221953E+00  2.714454E+02 -1.261831E+04  4.790377E+02  4.801817E+03
       140   5  1.496177E+05 -2.546258E+00 -3.201469E+01 -9.934975E+03  4.950216E+02  3.716410E+03
       140   6  1.496185E+05  4.131818E+00 -3.451740E+02 -1.261831E+04  5.109398E+02  2.630357E+03
       140   7  2.261654E+05  1.838833E+04  1.572794E+04 -1.257813E+04 -7.972873E+02  4.801585E+03
       140   8  2.095557E+05  1.440983E+04  1.210411E+04 -9.895458E+03 -7.820595E+02  3.716214E+03
       140   9  1.929469E+05  1.043138E+04  8.471016E+03 -1.257942E+04 -7.668977E+02  2.630197E+03
       140  10  7.307576E+04 -1.840716E+04 -1.518540E+04 -1.265849E+04  1.756460E-09  2.593734E-10
       140  11  8.968321E+04 -1.441516E+04 -1.216835E+04 -9.974494E+03  9.746011E-10 -6.841803E-10
       140  12  1.062918E+05 -1.042324E+04 -9.161476E+03 -1.265720E+04 -2.263074E-09  3.284468E-10
       140  13  1.496178E+05 -9.246776E+00  2.714017E+02 -1.261831E+04  4.161456E-12  2.617039E-10
       140  14  1.496177E+05 -2.561156E+00 -3.204111E+01 -9.934977E+03 -5.573565E-10 -8.247766E-10
       140  15  1.496185E+05  4.124318E+00 -3.451875E+02 -1.261831E+04 -6.167106E-10  1.949187E-11
       140  16  2.261654E+05  1.838830E+04  1.572790E+04 -1.257813E+04 -2.521374E-09  3.046066E-10
       140  17  2.095557E+05  1.440981E+04  1.210408E+04 -9.895455E+03 -4.801082E-10 -9.833804E-10
       140  18  1.929469E+05  1.043137E+04  8.471002E+03 -1.257942E+04  2.725179E-09 -4.236611E-10
       140  19  7.307577E+04 -1.840713E+04 -1.518535E+04 -1.265848E+04 -1.755208E+03 -4.802049E+03
       140  20  8.968322E+04 -1.441514E+04 -1.216831E+04 -9.974489E+03 -1.771982E+03 -3.716607E+03
       140  21  1.062918E+05 -1.042323E+04 -9.161457E+03 -1.265720E+04 -1.788690E+03 -2.630517E+03
       140  22  1.496178E+05 -9.221953E+00  2.714454E+02 -1.261831E+04 -4.790377E+02 -4.801817E+03
       140  23  1.496177E+05 -2.546258E+00 -3.201469E+01 -9.934975E+03 -4.950216E+02 -3.716410E+03
       140  24  1.496185E+05  4.131818E+00 -3.451740E+02 -1.261831E+04 -5.109398E+02 -2.630357E+03
       140  25  2.261654E+05  1.838833E+04  1.572794E+04 -1.257813E+04  7.972873E+02 -4.801585E+03
       140  26  2.095557E+05  1.440983E+04  1.210411E+04 -9.895458E+03  7.820595E+02 -3.716214E+03
       140  27  1.929469E+05  1.043138E+04  8.471016E+03 -1.257942E+04  7.668977E+02 -2.630197E+03
       141   1  1.182951E+05 -7.515619E+03 -6.831385E+03 -1.265960E+04  1.868571E+03  1.998251E+03
       141   2  1.349331E+05 -3.513790E+03 -4.034793E+03 -1.001003E+04  2.390625E+03  9.123753E+02
       141   3  1.515016E+05  4.736455E+02 -1.581186E+03 -1.272503E+04  2.912675E+03 -1.729428E+02
       141   4  1.496030E+05  4.233803E+00 -5.353485E+02 -1.261785E+04  5.910134E+02  1.998104E+03
       141   5  1.496380E+05  2.220276E+01 -1.057495E+03 -9.935562E+03  1.113716E+03  9.122376E+02
       141   6  1.496032E+05  2.567614E+01 -1.923080E+03 -1.261785E+04  1.636401E+03 -1.730709E+02
       141   7  1.809118E+05  7.524027E+03  5.760644E+03 -1.257609E+04 -6.866071E+02  1.997958E+03
       141   8  1.643431E+05  3.558183E+03  1.919799E+03 -9.861097E+03 -1.632229E+02  9.120997E+02
       141   9  1.477048E+05 -4.222925E+02 -2.264968E+03 -1.251067E+04  3.601310E+02 -1.731994E+02
       141  10  1.182951E+05 -7.515625E+03 -6.831399E+03 -1.265960E+04 -1.461414E-10  8.055253E-10
       141  11  1.349331E+05 -3.513792E+03 -4.034805E+03 -1.001003E+04  6.833384E-10  4.752565E-10
       141  12  1.515016E+05  4.736432E+02 -1.581202E+03 -1.272503E+04  2.566833E-10 -4.077181E-10
       141  13  1.496030E+05  4.229421E+00 -5.353567E+02 -1.261785E+04  1.061293E-10  6.875225E-10
       141  14  1.496380E+05  2.220153E+01 -1.057498E+03 -9.935563E+03 -4.217477E-10  4.456202E-10
       141  15  1.496032E+05  2.567539E+01 -1.923085E+03 -1.261785E+04 -7.873905E-10 -3.566504E-10
       141  16  1.809117E+05  7.524023E+03  5.760636E+03 -1.257609E+04 -6.183666E-10  7.529283E-11
       141  17  1.643431E+05  3.558182E+03  1.919797E+03 -9.861097E+03 -1.177920E-10 -4.432214E-11
       141  18  1.477048E+05 -4.222925E+02 -2.264968E+03 -1.251067E+04 -5.042662E-10 -3.000985E-10
       141  19  1.182951E+05 -7.515619E+03 -6.831385E+03 -1.265960E+04 -1.868571E+03 -1.998251E+03
       141  20  1.349331E+05 -3.513790E+03 -4.034793E+03 -1.001003E+04 -2.390625E+03 -9.123753E+02
       141  21  1.515016E+05  4.736455E+02 -1.581186E+03 -1.272503E+04 -2.912675E+03  1.729428E+02
       141  22  1.496030E+05  4.233803E+00 -5.353485E+02 -1.261785E+04 -5.910134E+02 -1.998104E+03
       141  23  1.496380E+05  2.220276E+01 -1.057495E+03 -9.935562E+03 -1.113716E+03 -9.122376E+02
       141  24  1.496032E+05  2.567614E+01 -1.923080E+03 -1.261785E+04 -1.636401E+03  1.730709E+02
       141  25  1.809118E+05  7.524027E+03  5.760644E+03 -1.257609E+04  6.866071E+02 -1.997958E+03
       141  26  1.643431E+05  3.558183E+03  1.919799E+03 -9.861097E+03  1.632229E+02 -9.120997E+02
       141  27  1.477048E+05 -4.222925E+02 -2.264968E+03 -1.251067E+04 -3.601310E+02  1.731994E+02
       142   1  1.634586E+05  3.395751E+03  3.053751E+02 -1.277358E+04  3.320564E+03 -8.054496E+02
       142   2  1.802347E+05  7.420135E+03  1.700624E+03 -1.015856E+04  5.527209E+03 -1.887181E+03
       142   3  1.966686E+05  1.121644E+04  1.603011E+03 -1.290809E+04  7.733901E+03 -2.958426E+03
       142   4  1.495421E+05  4.068130E+01 -2.556198E+03 -1.261786E+04  2.041678E+03 -8.055804E+02
       142   5  1.497143E+05  8.059746E+01 -4.482727E+03 -9.935575E+03  4.260547E+03 -1.887328E+03
       142   6  1.495421E+05 -1.096399E+02 -7.910625E+03 -1.261786E+04  6.479407E+03 -2.958588E+03
       142   7  1.356259E+05 -3.314400E+03 -5.417776E+03 -1.246214E+04  7.628189E+02 -8.057120E+02
       142   8  1.191948E+05 -7.258997E+03 -1.066612E+04 -9.712604E+03  2.993946E+03 -1.887476E+03
       142   9  1.024176E+05 -1.143585E+04 -1.742437E+04 -1.232765E+04  5.225006E+03 -2.958751E+03
       142  10  1.634586E+05  3.395748E+03  3.053532E+02 -1.277358E+04 -1.784871E-09 -9.017007E-11
       142  11  1.802346E+05  7.420123E+03  1.700560E+03 -1.015855E+04 -1.365080E-09  2.868377E-10
       142  12  1.966685E+05  1.121641E+04  1.602882E+03 -1.290807E+04  6.590569E-10 -1.571077E-10
       142  13  1.495421E+05  4.067948E+01 -2.556207E+03 -1.261786E+04 -1.681400E-11 -1.188166E-10
       142  14  1.497143E+05  8.058876E+01 -4.482768E+03 -9.935569E+03 -2.738205E-09  2.523512E-10
       142  15  1.495420E+05 -1.096606E+02 -7.910721E+03 -1.261784E+04 -2.115443E-11  4.938140E-11
       142  16  1.356259E+05 -3.314401E+03 -5.417778E+03 -1.246214E+04  2.050410E-09 -1.618958E-10
       142  17  1.191948E+05 -7.259003E+03 -1.066614E+04 -9.712600E+03  1.316197E-09  3.975238E-10
       142  18  1.024176E+05 -1.143587E+04 -1.742444E+04 -1.232764E+04  6.152563E-10  4.316929E-10
       142  19  1.634586E+05  3.395751E+03  3.053751E+02 -1.277358E+04 -3.320564E+03  8.054496E+02
       142  20  1.802347E+05  7.420135E+03  1.700624E+03 -1.015856E+04 -5.527209E+03  1.887181E+03
       142  21  1.966686E+05  1.121644E+04  1.603011E+03 -1.290809E+04 -7.733901E+03  2.958426E+03
       142  22  1.495421E+05  4.068130E+01 -2.556198E+03 -1.261786E+04 -2.041678E+03  8.055804E+02
       142  23  1.497143E+05  8.059746E+01 -4.482727E+03 -9.935575E+03 -4.260547E+03  1.887328E+03
       142  24  1.495421E+05 -1.096399E+02 -7.910625E+03 -1.261786E+04 -6.479407E+03  2.958588E+03
       142  25  1.356259E+05 -3.314400E+03 -5.417776E+03 -1.246214E+04 -7.628189E+02  8.057120E+02
       142  26  1.191948E+05 -7.258997E+03 -1.066612E+04 -9.712604E+03 -2.993946E+03  1.887476E+03
       142  27  1.024176E+05 -1.143585E+04 -1.742437E+04 -1.232765E+04 -5.225006E+03  2.958751E+03
       143   1  2.082408E+05  1.453049E+04  1.639979E+03 -1.376559E+04  9.397484E+03 -3.598397E+03
       143   2  2.260341E+05  1.808281E+04 -2.719251E+03 -9.622280E+03  1.822009E+04 -4.605598E+03
       143   3  2.414719E+05  1.678826E+04 -1.403100E+04 -1.083440E+04  2.704299E+04 -5.416297E+03
       143   4  1.490858E+05  2.962992E+02 -1.038989E+04 -1.261608E+04  8.095164E+03 -3.598570E+03
       143   5  1.502843E+05 -1.450298E+02 -1.812467E+04 -9.937898E+03  1.714783E+04 -4.605809E+03
       143   6  1.490864E+05 -5.473663E+03 -3.297250E+04 -1.261526E+04  2.620057E+04 -5.416576E+03
       143   7  8.993406E+04 -1.393810E+04 -2.241994E+04 -1.146668E+04  6.792965E+03 -3.598748E+03
       143   8  7.454000E+04 -1.837323E+04 -3.353039E+04 -1.025348E+04  1.607570E+04 -4.606020E+03
       143   9  5.670906E+04 -2.773611E+04 -5.191444E+04 -1.439585E+04  2.535827E+04 -5.416851E+03
       143  10  2.082407E+05  1.453045E+04  1.639788E+03 -1.376557E+04 -6.313287E-10 -7.244947E-10
       143  11  2.260337E+05  1.808270E+04 -2.719914E+03 -9.622213E+03 -7.321958E-10 -6.828770E-10
       143  12  2.414711E+05  1.678803E+04 -1.403243E+04 -1.083428E+04 -1.509548E-09  9.038635E-11
       143  13  1.490857E+05  2.962677E+02 -1.039004E+04 -1.261606E+04  1.072886E-09 -4.688395E-10
       143  14  1.502840E+05 -1.451315E+02 -1.812526E+04 -9.937834E+03  1.136255E-11 -6.230447E-10
       143  15  1.490857E+05 -5.473879E+03 -3.297384E+04 -1.261515E+04 -9.734938E-11  1.033877E-10
       143  16  8.993400E+04 -1.393813E+04 -2.242005E+04 -1.146666E+04 -1.570628E-10 -6.828542E-11
       143  17  7.453971E+04 -1.837332E+04 -3.353092E+04 -1.025342E+04 -1.311749E-09 -3.181133E-10
       143  18  5.670836E+04 -2.773631E+04 -5.191571E+04 -1.439574E+04  2.732417E-09  1.718782E-10
       143  19  2.082408E+05  1.453049E+04  1.639979E+03 -1.376559E+04 -9.397484E+03  3.598397E+03
       143  20  2.260341E+05  1.808281E+04 -2.719251E+03 -9.622280E+03 -1.822009E+04  4.605598E+03
       143  21  2.414719E+05  1.678826E+04 -1.403100E+04 -1.083440E+04 -2.704299E+04  5.416297E+03
       143  22  1.490858E+05  2.962992E+02 -1.038989E+04 -1.261608E+04 -8.095164E+03  3.598570E+03
       143  23  1.502843E+05 -1.450298E+02 -1.812467E+04 -9.937898E+03 -1.714783E+04  4.605809E+03
       143  24  1.490864E+05 -5.473663E+03 -3.297250E+04 -1.261526E+04 -2.620057E+04  5.416576E+03
       143  25  8.993406E+04 -1.393810E+04 -2.241994E+04 -1.146668E+04 -6.792965E+03  3.598748E+03
       143  26  7.454000E+04 -1.837323E+04 -3.353039E+04 -1.025348E+04 -1.607570E+04  4.606020E+03
       143  27  5.670906E+04 -2.773611E+04 -5.191444E+04 -1.439585E+04 -2.535827E+04  5.416851E+03
       144   1  2.469521E+05  2.916857E+04 -2.081213E+04 -2.924839E+04  3.365281E+04 -6.194956E+03
       144   2  2.794511E+05  1.794306E+04 -4.838441E+04  1.870963E+04  6.824161E+04 -5.824988E+03
       144   3  2.802600E+05 -1.020965E+05 -1.256654E+05  6.151788E+04  1.028309E+05 -1.808982E+03
       144   4  1.424078E+05  3.995004E+03 -4.219455E+04 -1.257655E+04  3.192987E+04 -6.194444E+03
       144   5  1.586351E+05 -1.137567E+04 -7.411135E+04 -9.986762E+03  7.079560E+04 -5.827679E+03
       144   6  1.424185E+05 -1.363222E+05 -1.587136E+05 -1.254610E+04  1.096605E+05 -1.819609E+03
       144   7  3.787441E+04 -2.117820E+04 -6.357739E+04  4.092430E+03  3.020721E+04 -6.194024E+03
       144   8  3.783453E+04 -4.069226E+04 -9.983866E+04 -3.867749E+04  7.334910E+04 -5.830607E+03
       144   9  4.606196E+03 -1.705287E+05 -1.917599E+05 -8.659357E+04  1.164886E+05 -1.831867E+03
       144  10  2.469509E+05  2.916822E+04 -2.081432E+04 -2.924822E+04  1.205398E-09 -5.463340E-11
       144  11  2.794461E+05  1.794177E+04 -4.839322E+04  1.870995E+04  1.518212E-09 -1.135911E-09
       144  12  2.802487E+05 -1.020994E+05 -1.256853E+05  6.151803E+04 -4.071639E-11 -3.918361E-10
       144  13  1.424066E+05  3.994689E+03 -4.219653E+04 -1.257639E+04 -1.259022E-09 -5.394011E-10
       144  14  1.586297E+05 -1.137706E+04 -7.412083E+04 -9.986430E+03 -8.665862E-10  2.775827E-10
       144  15  1.424056E+05 -1.363255E+05 -1.587362E+05 -1.254594E+04 -6.705306E-10 -1.710341E-10
       144  16  3.787342E+04 -2.117849E+04 -6.357917E+04  4.092581E+03 -1.136567E-09  2.538611E-10
       144  17  3.782875E+04 -4.069374E+04 -9.984884E+04 -3.867714E+04 -9.159988E-10  5.619954E-10
       144  18  4.591622E+03 -1.705323E+05 -1.917854E+05 -8.659340E+04  1.204932E-09 -1.480719E-10
       144  19  2.469521E+05  2.916857E+04 -2.081213E+04 -2.924839E+04 -3.365281E+04  6.194956E+03
       144  20  2.794511E+05  1.794306E+04 -4.838441E+04  1.870963E+04 -6.824161E+04  5.824988E+03
       144  21  2.802600E+05 -1.020965E+05 -1.256654E+05  6.151788E+04 -1.028309E+05  1.808982E+03
       144  22  1.424078E+05  3.995004E+03 -4.219455E+04 -1.257655E+04 -3.192987E+04  6.194444E+03
       144  23  1.586351E+05 -1.137567E+04 -7.411135E+04 -9.986762E+03 -7.079560E+04  5.827679E+03
       144  24  1.424185E+05 -1.363222E+05 -1.587136E+05 -1.254610E+04 -1.096605E+05  1.819609E+03
       144  25  3.787441E+04 -2.117820E+04 -6.357739E+04  4.092430E+03 -3.020721E+04  6.194024E+03
       144  26  3.783453E+04 -4.069226E+04 -9.983866E+04 -3.867749E+04 -7.334910E+04  5.830607E+03
       144  27  4.606196E+03 -1.705287E+05 -1.917599E+05 -8.659357E+04 -1.164886E+05  1.831867E+03
       145   1  3.427662E+05  1.369343E+06  3.330234E+05 -2.322605E+05  1.638831E+04  6.226979E+04
       145   2  2.582436E+05  1.062293E+06  2.299801E+05 -1.833230E+05  4.888249E+04  1.729973E+04
       145   3  1.843152E+05  7.638694E+05  1.588332E+05 -2.299595E+05  4.411568E+04 -2.767339E+04
       145   4  3.425752E+03  7.935377E+02  3.755285E+03 -2.295234E+05  1.644798E+04  2.103091E+03
       145   5  4.314353E+02  4.221768E+02  2.123229E+03 -1.817337E+05  4.890805E+04  1.039652E+03
       145   6  4.329642E+02  9.920053E+02  1.945214E+03 -2.295268E+05  4.407849E+04 -4.871803E+01
       145   7 -3.360491E+05 -1.366036E+06 -3.256327E+05 -2.267917E+05  1.650721E+04 -5.793170E+04
       145   8 -2.574544E+05 -1.060389E+06 -2.257984E+05 -1.801468E+05  4.893355E+04 -1.519304E+04
       145   9 -1.834855E+05 -7.613318E+05 -1.549711E+05 -2.290943E+05  4.404132E+04  2.754265E+04
       145  10  3.427648E+05  1.369338E+06  3.330157E+05 -2.322613E+05  2.812854E-10  1.158614E-09
       145  11  2.582410E+05  1.062292E+06  2.299750E+05 -1.833236E+05 -1.145717E-09 -1.060756E-09
       145  12  1.843129E+05  7.638681E+05  1.588281E+05 -2.299585E+05 -1.208178E-09 -2.712041E-09
       145  13  3.425461E+03  7.934603E+02  3.754768E+03 -2.295235E+05  2.135304E-10 -6.142816E-10
       145  14  4.288664E+02  4.215335E+02  2.118732E+03 -1.817338E+05  1.554363E-10  4.625849E-10
       145  15  4.308779E+02  9.914837E+02  1.941563E+03 -2.295268E+05 -2.422618E-09 -4.758951E-10
       145  16 -3.360503E+05 -1.366040E+06 -3.256395E+05 -2.267910E+05 -2.539998E-10 -8.433614E-10
       145  17 -2.574571E+05 -1.060390E+06 -2.258034E+05 -1.801462E+05  8.586178E-12  8.894407E-10
       145  18 -1.834878E+05 -7.613332E+05 -1.549762E+05 -2.290953E+05 -2.301124E-09  2.609662E-09
       145  19  3.427662E+05  1.369343E+06  3.330234E+05 -2.322605E+05 -1.638831E+04 -6.226979E+04
       145  20  2.582436E+05  1.062293E+06  2.299801E+05 -1.833230E+05 -4.888249E+04 -1.729973E+04
       145  21  1.843152E+05  7.638694E+05  1.588332E+05 -2.299595E+05 -4.411568E+04  2.767339E+04
       145  22  3.425752E+03  7.935377E+02  3.755285E+03 -2.295234E+05 -1.644798E+04 -2.103091E+03
       145  23  4.314353E+02  4.221768E+02  2.123229E+03 -1.817337E+05 -4.890805E+04 -1.039652E+03
       145  24  4.329642E+02  9.920053E+02  1.945214E+03 -2.295268E+05 -4.407849E+04  4.871803E+01
       145  25 -3.360491E+05 -1.366036E+06 -3.256327E+05 -2.267917E+05 -1.650721E+04  5.793170E+04
       145  26 -2.574544E+05 -1.060389E+06 -2.257984E+05 -1.801468E+05 -4.893355E+04  1.519304E+04
       145  27 -1.834855E+05 -7.613318E+05 -1.549711E+05 -2.290943E+05 -4.404132E+04 -2.754265E+04
       146   1  1.315568E+05  5.435833E+05  1.139455E+05 -2.307239E+05  3.104466E+04 -1.933065E+04
       146   2  5.837166E+04  2.411288E+05  5.161670E+04 -1.814467E+05  1.463811E+04 -2.148383E+04
       146   3 -1.369742E+04 -6.096258E+04 -9.110392E+03 -2.296303E+05 -2.425014E+03 -2.364113E+04
       146   4  6.714318E+02  8.740779E+02  2.056943E+03 -2.299440E+05  3.101651E+04 -4.081939E+02
       146   5  5.404801E+02  8.257195E+02  2.729622E+03 -1.812120E+05  1.460661E+04 -1.792646E+03
       146   6  1.397212E+03  9.195031E+02  4.472105E+03 -2.299429E+05 -2.460260E+03 -3.182211E+03
       146   7 -1.302323E+05 -5.415551E+05 -1.098461E+05 -2.291647E+05  3.098838E+04  1.849802E+04
       146   8 -5.729409E+04 -2.394216E+05 -4.615903E+04 -1.809774E+05  1.457512E+04  1.789106E+04
       146   9  1.649181E+04  6.280607E+04  1.805594E+04 -2.302557E+05 -2.495526E+03  1.727872E+04
       146  10  1.315556E+05  5.435826E+05  1.139430E+05 -2.307234E+05 -2.382877E-09 -7.355169E-10
       146  11  5.837131E+04  2.411282E+05  5.161543E+04 -1.814464E+05 -1.682783E-09 -1.857851E-09
       146  12 -1.369757E+04 -6.096318E+04 -9.111454E+03 -2.296303E+05 -1.819536E-09 -2.202507E-09
       146  13  6.703987E+02  8.738195E+02  2.055135E+03 -2.299440E+05 -2.892967E-11 -1.329023E-09
       146  14  5.402501E+02  8.256588E+02  2.729215E+03 -1.812120E+05  2.554260E-09  7.064425E-10
       146  15  1.397203E+03  9.194906E+02  4.472075E+03 -2.299429E+05 -9.386447E-10 -5.003162E-10
       146  16 -1.302334E+05 -5.415557E+05 -1.098486E+05 -2.291652E+05 -1.875769E-09  1.375369E-09
       146  17 -5.729441E+04 -2.394220E+05 -4.616003E+04 -1.809777E+05 -1.095510E-09  1.498166E-09
       146  18  1.649172E+04  6.280574E+04  1.805537E+04 -2.302556E+05 -1.524546E-09  2.149152E-09
       146  19  1.315568E+05  5.435833E+05  1.139455E+05 -2.307239E+05 -3.104466E+04  1.933065E+04
       146  20  5.837166E+04  2.411288E+05  5.161670E+04 -1.814467E+05 -1.463811E+04  2.148383E+04
       146  21 -1.369742E+04 -6.096258E+04 -9.110392E+03 -2.296303E+05  2.425014E+03  2.364113E+04
       146  22  6.714318E+02  8.740779E+02  2.056943E+03 -2.299440E+05 -3.101651E+04  4.081939E+02
       146  23  5.404801E+02  8.257195E+02  2.729622E+03 -1.812120E+05 -1.460661E+04  1.792646E+03
       146  24  1.397212E+03  9.195031E+02  4.472105E+03 -2.299429E+05  2.460260E+03  3.182211E+03
       146  25 -1.302323E+05 -5.415551E+05 -1.098461E+05 -2.291647E+05 -3.098838E+04 -1.849802E+04
       146  26 -5.729409E+04 -2.394216E+05 -4.615903E+04 -1.809774E+05 -1.457512E+04 -1.789106E+04
       146  27  1.649181E+04  6.280607E+04  1.805594E+04 -2.302557E+05  2.495526E+03 -1.727872E+04
       147   1 -6.790350E+04 -2.797269E+05 -5.324869E+04 -2.314731E+05 -1.501499E+04 -3.003100E+04
       147   2 -1.397046E+05 -5.815495E+05 -1.168841E+05 -1.772397E+05 -2.467369E+04 -5.565405E+03
       147   3 -2.022292E+05 -8.843420E+05 -1.941928E+05 -2.192577E+05 -9.239619E+03  1.891584E+04
       147   4  1.686115E+02  1.774309E+03  5.600515E+03 -2.296772E+05 -1.505879E+04 -3.982060E+03
       147   5  1.891326E+03 -3.097721E+02  9.581588E+03 -1.815435E+05 -2.466676E+04 -9.009521E+03
       147   6  1.801113E+04  1.665328E+03  2.037623E+04 -2.296525E+05 -9.193068E+03 -1.400907E+04
       147   7  6.823603E+04  2.833519E+05  6.444788E+04 -2.278803E+05 -1.510243E+04  2.207850E+04
       147   8  1.434649E+05  5.812470E+05  1.360270E+05 -1.858512E+05 -2.465978E+04 -1.245682E+04
       147   9  2.381949E+05  8.883930E+05  2.348929E+05 -2.400619E+05 -9.145453E+03 -4.698086E+04
       147  10 -6.790399E+04 -2.797279E+05 -5.325081E+04 -2.314735E+05 -2.626407E-09 -2.139266E-08
       147  11 -1.397053E+05 -5.815497E+05 -1.168853E+05 -1.772398E+05  5.513314E-10 -1.007913E-09
       147  12 -2.022294E+05 -8.843424E+05 -1.941936E+05 -2.192575E+05 -4.566475E-10  1.999322E-08
       147  13  1.683637E+02  1.774231E+03  5.600059E+03 -2.296772E+05 -1.428834E-10 -1.411148E-09
       147  14  1.890651E+03 -3.100227E+02  9.580292E+03 -1.815436E+05 -6.607219E-10  6.469492E-10
       147  15  1.801098E+04  1.665095E+03  2.037571E+04 -2.296526E+05  5.109050E-10 -3.992900E-10
       147  16  6.823566E+04  2.833514E+05  6.444654E+04 -2.278800E+05 -8.041055E-10  2.216058E-08
       147  17  1.434642E+05  5.812466E+05  1.360256E+05 -1.858514E+05 -1.241224E-09  7.245422E-10
       147  18  2.381942E+05  8.883906E+05  2.348886E+05 -2.400622E+05  1.040502E-09 -2.010171E-08
       147  19 -6.790350E+04 -2.797269E+05 -5.324869E+04 -2.314731E+05  1.501499E+04  3.003100E+04
       147  20 -1.397046E+05 -5.815495E+05 -1.168841E+05 -1.772397E+05  2.467369E+04  5.565405E+03
       147  21 -2.022292E+05 -8.843420E+05 -1.941928E+05 -2.192577E+05  9.239619E+03 -1.891584E+04
       147  22  1.686115E+02  1.774309E+03  5.600515E+03 -2.296772E+05  1.505879E+04  3.982060E+03
       147  23  1.891326E+03 -3.097721E+02  9.581588E+03 -1.815435E+05  2.466676E+04  9.009521E+03
       147  24  1.801113E+04  1.665328E+03  2.037623E+04 -2.296525E+05  9.193068E+03  1.400907E+04
       147  25  6.823603E+04  2.833519E+05  6.444788E+04 -2.278803E+05  1.510243E+04 -2.207850E+04
       147  26  1.434649E+05  5.812470E+05  1.360270E+05 -1.858512E+05  2.465978E+04  1.245682E+04
       147  27  2.381949E+05  8.883930E+05  2.348929E+05 -2.400619E+05  9.145453E+03  4.698086E+04
       148   1 -4.887781E+05 -2.235764E+05 -1.308562E+05 -1.914851E+05 -3.931243E+04 -8.549194E+03
       148   2 -4.386713E+05 -1.678820E+05 -8.994162E+04 -1.697008E+05 -2.443348E+04  1.009555E+04
       148   3 -3.856889E+05 -1.470792E+05 -6.911197E+04 -1.583490E+05 -5.330143E+03  1.749779E+04
       148   4 -1.112045E+05 -6.994506E+04 -2.885111E+04 -7.641201E+04 -2.053865E+04 -1.502343E+03
       148   5 -1.122774E+05 -4.248379E+04 -1.281165E+04 -7.541167E+04 -1.802627E+04  1.249925E+04
       148   6 -1.080226E+05 -4.745728E+04 -7.049620E+03 -8.484638E+04 -1.129282E+04  1.525988E+04
       148   7  2.665107E+05  8.370305E+04  7.314341E+04  3.872764E+04 -1.752216E+03  5.550155E+03
       148   8  2.142240E+05  8.292480E+04  6.431128E+04  1.892379E+04 -1.161537E+04  1.490446E+04
       148   9  1.697212E+05  5.216948E+04  5.500803E+04 -1.131408E+04 -1.725839E+04  1.302096E+04
       148  10 -4.887798E+05 -2.235769E+05 -1.308592E+05 -1.914853E+05 -2.605099E-10  7.597271E-11
       148  11 -4.386719E+05 -1.678823E+05 -8.994294E+04 -1.697006E+05 -7.336588E-10  3.961202E-10
       148  12 -3.856890E+05 -1.470796E+05 -6.911259E+04 -1.583489E+05 -1.318578E-09  9.009999E-10
       148  13 -1.112050E+05 -6.994517E+04 -2.885190E+04 -7.641203E+04 -8.023879E-11  4.939351E-10
       148  14 -1.122778E+05 -4.248404E+04 -1.281255E+04 -7.541149E+04 -3.223845E-09  2.616748E-10
       148  15 -1.080228E+05 -4.745757E+04 -7.050297E+03 -8.484624E+04 -8.128880E-10  1.606904E-10
       148  16  2.665107E+05  8.370302E+04  7.314335E+04  3.872765E+04  1.366816E-10 -1.970492E-10
       148  17  2.142238E+05  8.292452E+04  6.431061E+04  1.892393E+04  5.688030E-10 -3.833572E-10
       148  18  1.697209E+05  5.216922E+04  5.500715E+04 -1.131390E+04  8.447967E-11 -8.124025E-11
       148  19 -4.887781E+05 -2.235764E+05 -1.308562E+05 -1.914851E+05  3.931243E+04  8.549194E+03
       148  20 -4.386713E+05 -1.678820E+05 -8.994162E+04 -1.697008E+05  2.443348E+04 -1.009555E+04
       148  21 -3.856889E+05 -1.470792E+05 -6.911197E+04 -1.583490E+05  5.330143E+03 -1.749779E+04
       148  22 -1.112045E+05 -6.994506E+04 -2.885111E+04 -7.641201E+04  2.053865E+04  1.502343E+03
       148  23 -1.122774E+05 -4.248379E+04 -1.281165E+04 -7.541167E+04  1.802627E+04 -1.249925E+04
       148  24 -1.080226E+05 -4.745728E+04 -7.049620E+03 -8.484638E+04  1.129282E+04 -1.525988E+04
       148  25  2.665107E+05  8.370305E+04  7.314341E+04  3.872764E+04  1.752216E+03 -5.550155E+03
       148  26  2.142240E+05  8.292480E+04  6.431128E+04  1.892379E+04  1.161537E+04 -1.490446E+04
       148  27  1.697212E+05  5.216948E+04  5.500803E+04 -1.131408E+04  1.725839E+04 -1.302096E+04
       149   1 -3.410944E+05 -1.358582E+05 -5.847185E+04 -1.486857E+05 -6.387692E+03  1.388396E+04
       149   2 -2.927300E+05 -1.074277E+05 -4.310892E+04 -1.256998E+05 -3.192954E+03  1.166268E+04
       149   3 -2.312273E+05 -9.379759E+04 -2.955535E+04 -1.183084E+05  2.099982E+02  8.884670E+03
       149   4 -1.070436E+05 -4.910296E+04 -5.496911E+03 -8.389246E+04 -9.381655E+03  1.276028E+04
       149   5 -1.135989E+05 -4.126500E+04 -2.888686E+03 -7.628035E+04 -6.799130E+03  1.030974E+04
       149   6 -1.068974E+05 -4.810590E+04 -1.604183E+03 -8.426383E+04 -4.008606E+03  7.302483E+03
       149   7  1.270608E+05  3.765595E+04  4.747410E+04 -1.907725E+04 -1.237682E+04  1.163614E+04
       149   8  6.556458E+04  2.490022E+04  3.732956E+04 -2.684784E+04 -1.040643E+04  8.956377E+03
       149   9  1.744892E+04 -2.412750E+03  2.634629E+04 -5.021280E+04 -8.228152E+03  5.719946E+03
       149  10 -3.410945E+05 -1.358584E+05 -5.847229E+04 -1.486856E+05 -2.462760E-10  8.155409E-10
       149  11 -2.927300E+05 -1.074279E+05 -4.310920E+04 -1.256998E+05 -5.670294E-10  1.245011E-11
       149  12 -2.312273E+05 -9.379768E+04 -2.955550E+04 -1.183084E+05  1.227352E-09 -3.108252E-10
       149  13 -1.070437E+05 -4.910316E+04 -5.497382E+03 -8.389236E+04 -2.325038E-09  4.649859E-10
       149  14 -1.135989E+05 -4.126513E+04 -2.888973E+03 -7.628029E+04  5.927193E-10 -3.070015E-11
       149  15 -1.068974E+05 -4.810596E+04 -1.604313E+03 -8.426381E+04  1.283895E-09 -5.023841E-10
       149  16  1.270606E+05  3.765576E+04  4.747356E+04 -1.907713E+04 -1.300841E-09 -3.575750E-10
       149  17  6.556444E+04  2.490011E+04  3.732921E+04 -2.684777E+04  1.037243E-09 -1.253956E-10
       149  18  1.744884E+04 -2.412803E+03  2.634610E+04 -5.021276E+04 -7.923774E-10 -6.905402E-10
       149  19 -3.410944E+05 -1.358582E+05 -5.847185E+04 -1.486857E+05  6.387692E+03 -1.388396E+04
       149  20 -2.927300E+05 -1.074277E+05 -4.310892E+04 -1.256998E+05  3.192954E+03 -1.166268E+04
       149  21 -2.312273E+05 -9.379759E+04 -2.955535E+04 -1.183084E+05 -2.099982E+02 -8.884670E+03
       149  22 -1.070436E+05 -4.910296E+04 -5.496911E+03 -8.389246E+04  9.381655E+03 -1.276028E+04
       149  23 -1.135989E+05 -4.126500E+04 -2.888686E+03 -7.628035E+04  6.799130E+03 -1.030974E+04
       149  24 -1.068974E+05 -4.810590E+04 -1.604183E+03 -8.426383E+04  4.008606E+03 -7.302483E+03
       149  25  1.270608E+05  3.765595E+04  4.747410E+04 -1.907725E+04  1.237682E+04 -1.163614E+04
       149  26  6.556458E+04  2.490022E+04  3.732956E+04 -2.684784E+04  1.040643E+04 -8.956377E+03
       149  27  1.744892E+04 -2.412750E+03  2.634629E+04 -5.021280E+04  8.228152E+03 -5.719946E+03
       150   1 -1.900583E+05 -7.881018E+04 -1.967806E+04 -1.071199E+05  1.121064E+03  6.700809E+03
       150   2 -1.418477E+05 -5.159755E+04 -6.997634E+03 -8.404952E+04  2.893503E+03  3.130206E+03
       150   3 -7.990916E+04 -3.823182E+04  5.387116E+03 -7.678210E+04  4.676135E+03 -4.680525E+02
       150   4 -1.068258E+05 -4.817562E+04 -1.222618E+03 -8.421316E+04 -2.951288E+03  5.173630E+03
       150   5 -1.136884E+05 -4.123748E+04 -7.000679E+02 -7.631761E+04 -1.209370E+03  1.591652E+03
       150   6 -1.068199E+05 -4.814026E+04 -4.488613E+02 -8.422604E+04  5.426985E+02 -2.017977E+03
       150   7 -2.358621E+04 -1.754052E+04  1.723246E+04 -6.130361E+04 -7.024230E+03  3.646230E+03
       150   8 -8.552830E+04 -3.087738E+04  5.597494E+03 -6.858539E+04 -5.312431E+03  5.302864E+01
       150   9 -1.337298E+05 -5.804856E+04 -6.284759E+03 -9.166963E+04 -3.590518E+03 -3.567818E+03
       150  10 -1.900583E+05 -7.881023E+04 -1.967815E+04 -1.071199E+05  3.592830E-10 -5.132439E-10
       150  11 -1.418477E+05 -5.159756E+04 -6.997668E+03 -8.404953E+04  2.708935E-09  1.074834E-09
       150  12 -7.990918E+04 -3.823183E+04  5.387075E+03 -7.678210E+04  4.546270E-09  6.304289E-10
       150  13 -1.068258E+05 -4.817565E+04 -1.222685E+03 -8.421315E+04  9.775547E-10  2.115763E-10
       150  14 -1.136884E+05 -4.123748E+04 -7.000754E+02 -7.631761E+04  2.723746E-09  1.256353E-09
       150  15 -1.068199E+05 -4.814026E+04 -4.488695E+02 -8.422604E+04  3.176067E-09  6.671092E-11
       150  16 -2.358626E+04 -1.754055E+04  1.723234E+04 -6.130359E+04  1.665480E-09  9.532819E-10
       150  17 -8.552833E+04 -3.087738E+04  5.597441E+03 -6.858539E+04  4.317051E-09  1.619633E-09
       150  18 -1.337298E+05 -5.804857E+04 -6.284808E+03 -9.166964E+04 -8.012989E-10 -4.838630E-10
       150  19 -1.900583E+05 -7.881018E+04 -1.967806E+04 -1.071199E+05 -1.121064E+03 -6.700809E+03
       150  20 -1.418477E+05 -5.159755E+04 -6.997634E+03 -8.404952E+04 -2.893503E+03 -3.130206E+03
       150  21 -7.990916E+04 -3.823182E+04  5.387116E+03 -7.678210E+04 -4.676135E+03  4.680525E+02
       150  22 -1.068258E+05 -4.817562E+04 -1.222618E+03 -8.421316E+04  2.951288E+03 -5.173630E+03
       150  23 -1.136884E+05 -4.123748E+04 -7.000679E+02 -7.631761E+04  1.209370E+03 -1.591652E+03
       150  24 -1.068199E+05 -4.814026E+04 -4.488613E+02 -8.422604E+04 -5.426985E+02  2.017977E+03
       150  25 -2.358621E+04 -1.754052E+04  1.723246E+04 -6.130361E+04  7.024230E+03 -3.646230E+03
       150  26 -8.552830E+04 -3.087738E+04  5.597494E+03 -6.858539E+04  5.312431E+03 -5.302864E+01
       150  27 -1.337298E+05 -5.804856E+04 -6.284759E+03 -9.166963E+04  3.590518E+03  3.567818E+03
       151   1 -3.891471E+04 -2.307214E+04  1.496299E+04 -6.552208E+04  5.557382E+03 -2.628874E+03
       151   2  9.266623E+03  4.088169E+03  2.710940E+04 -4.244245E+04  7.147501E+03 -6.307378E+03
       151   3  7.122169E+04  1.745202E+04  3.911880E+04 -3.516341E+04  8.738447E+03 -9.986439E+03
       151   4 -1.068136E+05 -4.814266E+04 -3.894956E+02 -8.422145E+04  1.431284E+03 -4.176126E+03
       151   5 -1.137018E+05 -4.124880E+04 -3.687744E+02 -7.631947E+04  3.020427E+03 -7.855331E+03
       151   6 -1.068205E+05 -4.815251E+04 -4.847419E+02 -8.422019E+04  4.610362E+03 -1.153506E+04
       151   7 -1.747085E+05 -7.321309E+04 -1.574240E+04 -1.029191E+05 -2.694369E+03 -5.723210E+03
       151   8 -2.366544E+05 -8.658443E+04 -2.784770E+04 -1.101902E+05 -1.105747E+03 -9.402946E+03
       151   9 -2.848275E+05 -1.137534E+05 -4.008930E+04 -1.332632E+05  4.836325E+02 -1.308318E+04
       151  10 -3.891475E+04 -2.307216E+04  1.496292E+04 -6.552207E+04 -9.973095E-10 -8.122987E-10
       151  11  9.266557E+03  4.088113E+03  2.710923E+04 -4.244242E+04 -1.669781E-09  2.104766E-10
       151  12  7.122158E+04  1.745189E+04  3.911847E+04 -3.516334E+04  1.907240E-09  1.152902E-09
       151  13 -1.068136E+05 -4.814268E+04 -3.895322E+02 -8.422145E+04 -8.004670E-10 -6.475315E-10
       151  14 -1.137018E+05 -4.124887E+04 -3.689075E+02 -7.631945E+04  5.214336E-10  5.220195E-11
       151  15 -1.068206E+05 -4.815266E+04 -4.850318E+02 -8.422015E+04  2.574560E-09  1.558564E-09
       151  16 -1.747085E+05 -7.321313E+04 -1.574248E+04 -1.029192E+05  5.100749E-10 -4.624106E-10
       151  17 -2.366544E+05 -8.658452E+04 -2.784787E+04 -1.101902E+05  1.725599E-09  4.229590E-11
       151  18 -2.848276E+05 -1.137535E+05 -4.008962E+04 -1.332632E+05  2.333679E-09  1.965292E-09
       151  19 -3.891471E+04 -2.307214E+04  1.496299E+04 -6.552208E+04 -5.557382E+03  2.628874E+03
       151  20  9.266623E+03  4.088169E+03  2.710940E+04 -4.244245E+04 -7.147501E+03  6.307378E+03
       151  21  7.122169E+04  1.745202E+04  3.911880E+04 -3.516341E+04 -8.738447E+03  9.986439E+03
       151  22 -1.068136E+05 -4.814266E+04 -3.894956E+02 -8.422145E+04 -1.431284E+03  4.176126E+03
       151  23 -1.137018E+05 -4.124880E+04 -3.687744E+02 -7.631947E+04 -3.020427E+03  7.855331E+03
       151  24 -1.068205E+05 -4.815251E+04 -4.847419E+02 -8.422019E+04 -4.610362E+03  1.153506E+04
       151  25 -1.747085E+05 -7.321309E+04 -1.574240E+04 -1.029191E+05  2.694369E+03  5.723210E+03
       151  26 -2.366544E+05 -8.658443E+04 -2.784770E+04 -1.101902E+05  1.105747E+03  9.402946E+03
       151  27 -2.848275E+05 -1.137534E+05 -4.008930E+04 -1.332632E+05 -4.836325E+02  1.308318E+04
       152   1  1.121805E+05  3.261372E+04  4.851770E+04 -2.390125E+04  9.646768E+03 -1.213439E+04
       152   2  1.603445E+05  5.976281E+04  6.021760E+04 -8.267771E+02  1.155388E+04 -1.569218E+04
       152   3  2.222534E+05  7.310790E+04  7.154790E+04  6.452239E+03  1.346088E+04 -1.924572E+04
       152   4 -1.068292E+05 -4.815456E+04 -5.985171E+02 -8.421991E+04  5.519141E+03 -1.368315E+04
       152   5 -1.137056E+05 -4.126175E+04 -1.015044E+03 -7.631950E+04  7.430233E+03 -1.724019E+04
       152   6 -1.068400E+05 -4.817415E+04 -1.804061E+03 -8.421606E+04  9.341182E+03 -2.079300E+04
       152   7 -3.257924E+05 -1.289199E+05 -4.971821E+04 -1.445196E+05  1.393056E+03 -1.523133E+04
       152   8 -3.876840E+05 -1.422821E+05 -6.225346E+04 -1.517828E+05  3.308501E+03 -1.878749E+04
       152   9 -4.358311E+05 -1.694505E+05 -7.516465E+04 -1.748422E+05  5.223758E+03 -2.233943E+04
       152  10  1.121803E+05  3.261354E+04  4.851725E+04 -2.390115E+04  5.220741E-09  1.823637E-09
       152  11  1.603443E+05  5.976251E+04  6.021689E+04 -8.266311E+02  2.432433E-09 -3.843942E-10
       152  12  2.222531E+05  7.310745E+04  7.154686E+04  6.452447E+03 -2.557465E-09 -1.007213E-09
       152  13 -1.068293E+05 -4.815477E+04 -5.989261E+02 -8.421985E+04  3.753040E-09  1.496040E-09
       152  14 -1.137058E+05 -4.126208E+04 -1.015706E+03 -7.631939E+04  6.339277E-10 -3.907529E-10
       152  15 -1.068402E+05 -4.817463E+04 -1.805037E+03 -8.421590E+04 -3.149768E-09 -8.739866E-10
       152  16 -3.257925E+05 -1.289201E+05 -4.971865E+04 -1.445196E+05 -1.826821E-09  9.589721E-10
       152  17 -3.876841E+05 -1.422824E+05 -6.225414E+04 -1.517828E+05 -1.813607E-09  6.668753E-10
       152  18 -4.358312E+05 -1.694510E+05 -7.516564E+04 -1.748422E+05 -2.022743E-09 -1.777784E-10
       152  19  1.121805E+05  3.261372E+04  4.851770E+04 -2.390125E+04 -9.646768E+03  1.213439E+04
       152  20  1.603445E+05  5.976281E+04  6.021760E+04 -8.267771E+02 -1.155388E+04  1.569218E+04
       152  21  2.222534E+05  7.310790E+04  7.154790E+04  6.452239E+03 -1.346088E+04  1.924572E+04
       152  22 -1.068292E+05 -4.815456E+04 -5.985171E+02 -8.421991E+04 -5.519141E+03  1.368315E+04
       152  23 -1.137056E+05 -4.126175E+04 -1.015044E+03 -7.631950E+04 -7.430233E+03  1.724019E+04
       152  24 -1.068400E+05 -4.817415E+04 -1.804061E+03 -8.421606E+04 -9.341182E+03  2.079300E+04
       152  25 -3.257924E+05 -1.289199E+05 -4.971821E+04 -1.445196E+05 -1.393056E+03  1.523133E+04
       152  26 -3.876840E+05 -1.422821E+05 -6.225346E+04 -1.517828E+05 -3.308501E+03  1.878749E+04
       152  27 -4.358311E+05 -1.694505E+05 -7.516465E+04 -1.748422E+05 -5.223758E+03  2.233943E+04
       153   1  2.631569E+05  8.824672E+04  8.046025E+04  1.765623E+04  1.464177E+04 -2.129215E+04
       153   2  3.113822E+05  1.154185E+05  9.063483E+04  4.076383E+04  1.814423E+04 -2.422538E+04
       153   3  3.730576E+05  1.285108E+05  9.918452E+04  4.810002E+04  2.162757E+04 -2.710175E+04
       153   4 -1.069079E+05 -4.816567E+04 -2.396019E+03 -8.424210E+04  1.050894E+04 -2.284491E+04
       153   5 -1.136505E+05 -4.124560E+04 -4.337296E+03 -7.631174E+04  1.407197E+04 -2.575649E+04
       153   6 -1.069575E+05 -4.841722E+04 -7.951823E+03 -8.415390E+04  1.761569E+04 -2.861125E+04
       153   7 -4.768280E+05 -1.845650E+05 -8.525899E+04 -1.860830E+05  6.378862E+03 -2.439665E+04
       153   8 -5.384968E+05 -1.978942E+05 -9.931950E+04 -1.933128E+05  1.000277E+04 -2.728645E+04
       153   9 -5.867394E+05 -2.253271E+05 -1.151023E+05 -2.163140E+05  1.360718E+04 -3.011949E+04
       153  10  2.631566E+05  8.824618E+04  8.045900E+04  1.765648E+04 -3.430550E-09 -5.430774E-10
       153  11  3.113817E+05  1.154178E+05  9.063310E+04  4.076418E+04 -1.841490E-10  5.435881E-10
       153  12  3.730569E+05  1.285099E+05  9.918227E+04  4.810049E+04 -1.587877E-09 -8.997120E-10
       153  13 -1.069082E+05 -4.816626E+04 -2.397207E+03 -8.424191E+04 -1.121194E-09  3.318059E-10
       153  14 -1.136509E+05 -4.124637E+04 -4.338915E+03 -7.631145E+04  1.857740E-10 -6.876170E-11
       153  15 -1.069581E+05 -4.841818E+04 -7.953944E+03 -8.415349E+04 -5.127199E-09 -2.788411E-09
       153  16 -4.768282E+05 -1.845656E+05 -8.526018E+04 -1.860829E+05 -4.753818E-10  3.736998E-10
       153  17 -5.384971E+05 -1.978950E+05 -9.932109E+04 -1.933126E+05  5.447561E-10 -1.111713E-10
       153  18 -5.867398E+05 -2.253281E+05 -1.151043E+05 -2.163136E+05 -6.715012E-09 -2.209585E-09
       153  19  2.631569E+05  8.824672E+04  8.046025E+04  1.765623E+04 -1.464177E+04  2.129215E+04
       153  20  3.113822E+05  1.154185E+05  9.063483E+04  4.076383E+04 -1.814423E+04  2.422538E+04
       153  21  3.730576E+05  1.285108E+05  9.918452E+04  4.810002E+04 -2.162757E+04  2.710175E+04
       153  22 -1.069079E+05 -4.816567E+04 -2.396019E+03 -8.424210E+04 -1.050894E+04  2.284491E+04
       153  23 -1.136505E+05 -4.124560E+04 -4.337296E+03 -7.631174E+04 -1.407197E+04  2.575649E+04
       153  24 -1.069575E+05 -4.841722E+04 -7.951823E+03 -8.415390E+04 -1.761569E+04  2.861125E+04
       153  25 -4.768280E+05 -1.845650E+05 -8.525899E+04 -1.860830E+05 -6.378862E+03  2.439665E+04
       153  26 -5.384968E+05 -1.978942E+05 -9.931950E+04 -1.933128E+05 -1.000277E+04  2.728645E+04
       153  27 -5.867394E+05 -2.253271E+05 -1.151023E+05 -2.163140E+05 -1.360718E+04  3.011949E+04
       154   1  4.142354E+05  1.433800E+05  1.060539E+05  5.818234E+04  2.424321E+04 -2.867296E+04
       154   2  4.620876E+05  1.715353E+05  1.098325E+05  8.327970E+04  3.394715E+04 -2.884828E+04
       154   3  5.205201E+05  1.801804E+05  1.058098E+05  9.386691E+04  4.323992E+04 -2.792109E+04
       154   4 -1.074139E+05 -4.797515E+04 -1.053260E+04 -8.451678E+04  1.994227E+04 -3.029185E+04
       154   5 -1.130553E+05 -4.137303E+04 -1.912491E+04 -7.603368E+04  3.085127E+04 -3.001566E+04
       154   6 -1.083618E+05 -5.452602E+04 -3.647939E+04 -8.206360E+04  4.134809E+04 -2.863676E+04
       154   7 -6.287928E+05 -2.393115E+05 -1.271372E+05 -2.271075E+05  1.564521E+04 -3.190930E+04
       154   8 -6.878673E+05 -2.542562E+05 -1.481039E+05 -2.352124E+05  2.775848E+04 -3.118187E+04
       154   9 -7.368464E+05 -2.892002E+05 -1.787943E+05 -2.578305E+05  3.945833E+04 -2.935164E+04
       154  10  4.142345E+05  1.433789E+05  1.060513E+05  5.818290E+04 -5.451010E-09 -2.802752E-09
       154  11  4.620861E+05  1.715341E+05  1.098288E+05  8.328049E+04 -1.924367E-09  2.203533E-10
       154  12  5.205179E+05  1.801790E+05  1.058048E+05  9.386789E+04  6.274006E-10  1.100385E-09
       154  13 -1.074145E+05 -4.797624E+04 -1.053507E+04 -8.451629E+04 -4.363827E-09 -3.214882E-09
       154  14 -1.130566E+05 -4.137425E+04 -1.912839E+04 -7.603294E+04 -5.347525E-10 -1.113559E-09
       154  15 -1.083639E+05 -5.452736E+04 -3.648414E+04 -8.206265E+04 -1.694717E-09 -7.054553E-10
       154  16 -6.287933E+05 -2.393126E+05 -1.271396E+05 -2.271071E+05 -3.458000E-09 -5.405967E-10
       154  17 -6.878684E+05 -2.542575E+05 -1.481072E+05 -2.352117E+05  1.179009E-09  1.385917E-09
       154  18 -7.368483E+05 -2.892015E+05 -1.787988E+05 -2.578295E+05 -5.036602E-10 -4.796388E-10
       154  19  4.142354E+05  1.433800E+05  1.060539E+05  5.818234E+04 -2.424321E+04  2.867296E+04
       154  20  4.620876E+05  1.715353E+05  1.098325E+05  8.327970E+04 -3.394715E+04  2.884828E+04
       154  21  5.205201E+05  1.801804E+05  1.058098E+05  9.386691E+04 -4.323992E+04  2.792109E+04
       154  22 -1.074139E+05 -4.797515E+04 -1.053260E+04 -8.451678E+04 -1.994227E+04  3.029185E+04
       154  23 -1.130553E+05 -4.137303E+04 -1.912491E+04 -7.603368E+04 -3.085127E+04  3.001566E+04
       154  24 -1.083618E+05 -5.452602E+04 -3.647939E+04 -8.206360E+04 -4.134809E+04  2.863676E+04
       154  25 -6.287928E+05 -2.393115E+05 -1.271372E+05 -2.271075E+05 -1.564521E+04  3.190930E+04
       154  26 -6.878673E+05 -2.542562E+05 -1.481039E+05 -2.352124E+05 -2.775848E+04  3.118187E+04
       154  27 -7.368464E+05 -2.892002E+05 -1.787943E+05 -2.578305E+05 -3.945833E+04  2.935164E+04
       155   1  5.715283E+05  1.903198E+05  1.041207E+05  8.074983E+04  5.607013E+04 -2.701367E+04
       155   2  5.986457E+05  2.416531E+05  8.374261E+04  1.547355E+05  7.531632E+04 -1.510621E+04
       155   3  5.900982E+05  1.582561E+05  1.447961E+04  2.462509E+05  8.619737E+04  1.900752E+04
       155   4 -1.144168E+05 -4.403036E+04 -4.680846E+04 -8.893078E+04  4.830363E+04 -2.993922E+04
       155   5 -1.047292E+05 -4.877885E+04 -8.507020E+04 -6.962371E+04  9.197698E+04 -8.840255E+03
       155   6 -1.356066E+05 -1.931971E+05 -1.916167E+05 -3.277565E+04  1.272772E+05  3.447239E+04
       155   7 -7.998887E+05 -2.783608E+05 -1.977657E+05 -2.584471E+05  4.054642E+04 -3.286188E+04
       155   8 -8.075986E+05 -3.391373E+05 -2.539156E+05 -2.937366E+05  1.086170E+05 -2.584074E+03
       155   9 -8.607658E+05 -5.444992E+05 -3.977506E+05 -3.114668E+05  1.683037E+05  4.990413E+04
       155  10  5.715247E+05  1.903182E+05  1.041134E+05  8.075105E+04  2.603074E-09  2.151583E-09
       155  11  5.986395E+05  2.416513E+05  8.373153E+04  1.547364E+05 -3.305319E-11  3.787579E-10
       155  12  5.900901E+05  1.582537E+05  1.446498E+04  2.462495E+05 -2.282695E-09 -1.511075E-09
       155  13 -1.144195E+05 -4.403194E+04 -4.681453E+04 -8.892961E+04 -1.946857E-09 -5.461720E-10
       155  14 -1.047383E+05 -4.878121E+04 -8.508625E+04 -6.962305E+04  3.234191E-09 -3.196825E-09
       155  15 -1.356243E+05 -1.932027E+05 -1.916494E+05 -3.277918E+04  2.394288E-10  4.158794E-10
       155  16 -7.998907E+05 -2.783624E+05 -1.977709E+05 -2.584460E+05 -1.966542E-09 -1.798947E-09
       155  17 -8.076113E+05 -3.391404E+05 -2.539378E+05 -2.937364E+05 -1.588414E-09 -3.136915E-10
       155  18 -8.607969E+05 -5.445095E+05 -3.978086E+05 -3.114736E+05  2.011058E-09 -3.233531E-10
       155  19  5.715283E+05  1.903198E+05  1.041207E+05  8.074983E+04 -5.607013E+04  2.701367E+04
       155  20  5.986457E+05  2.416531E+05  8.374261E+04  1.547355E+05 -7.531632E+04  1.510621E+04
       155  21  5.900982E+05  1.582561E+05  1.447961E+04  2.462509E+05 -8.619737E+04 -1.900752E+04
       155  22 -1.144168E+05 -4.403036E+04 -4.680846E+04 -8.893078E+04 -4.830363E+04  2.993922E+04
       155  23 -1.047292E+05 -4.877885E+04 -8.507020E+04 -6.962371E+04 -9.197698E+04  8.840255E+03
       155  24 -1.356066E+05 -1.931971E+05 -1.916167E+05 -3.277565E+04 -1.272772E+05 -3.447239E+04
       155  25 -7.998887E+05 -2.783608E+05 -1.977657E+05 -2.584471E+05 -4.054642E+04  3.286188E+04
       155  26 -8.075986E+05 -3.391373E+05 -2.539156E+05 -2.937366E+05 -1.086170E+05  2.584074E+03
       155  27 -8.607658E+05 -5.444992E+05 -3.977506E+05 -3.114668E+05 -1.683037E+05 -4.990413E+04
       156   1  1.882756E+05  1.891790E+06  2.093591E+05  4.090041E+04  4.729724E+03  1.327941E+05
       156   2  9.255740E+04  2.031454E+06  1.500342E+05  6.560212E+04  1.919012E+04  8.532672E+04
       156   3  1.120657E+05  2.206179E+06  1.503818E+05  1.392389E+05  3.071314E+04  3.785018E+04
       156   4  1.467928E+05  1.722621E+06  1.709275E+05  1.226151E+05  4.748931E+03  1.132468E+05
       156   5  1.427416E+04  1.705463E+06  8.401079E+04  9.813017E+04  1.919835E+04  6.938140E+04
       156   6 -3.624481E+03  1.722710E+06  5.427150E+04  1.225709E+05  3.071710E+04  2.551733E+04
       156   7  1.053332E+05  1.553492E+06  1.324991E+05  2.043073E+05  4.763011E+03  9.370474E+04
       156   8 -6.401157E+04  1.379575E+06  1.798337E+04  1.306409E+05  1.920491E+04  5.344426E+04
       156   9 -1.193278E+05  1.239465E+06 -4.184976E+04  1.059160E+05  3.072172E+04  1.319386E+04
       156  10  1.882709E+05  1.891772E+06  2.093260E+05  4.089990E+04  4.758832E-11  1.041387E-09
       156  11  9.255506E+04  2.031446E+06  1.500199E+05  6.560080E+04  5.949328E-10 -2.695766E-09
       156  12  1.120643E+05  2.206177E+06  1.503774E+05  1.392379E+05 -1.410974E-09 -4.764180E-09
       156  13  1.467893E+05  1.722607E+06  1.709035E+05  1.226146E+05 -6.764242E-10 -3.620814E-10
       156  14  1.427248E+04  1.705457E+06  8.400107E+04  9.812910E+04 -4.506393E-10 -2.275289E-10
       156  15 -3.625669E+03  1.722709E+06  5.426851E+04  1.225702E+05 -3.568353E-09 -2.517379E-10
       156  16  1.053309E+05  1.553483E+06  1.324826E+05  2.043070E+05 -7.199230E-10 -8.889293E-10
       156  17 -6.401273E+04  1.379571E+06  1.797732E+04  1.306401E+05 -1.944898E-09  2.608543E-09
       156  18 -1.193288E+05  1.239464E+06 -4.185186E+04  1.059157E+05 -2.309307E-09  3.966087E-09
       156  19  1.882756E+05  1.891790E+06  2.093591E+05  4.090041E+04 -4.729724E+03 -1.327941E+05
       156  20  9.255740E+04  2.031454E+06  1.500342E+05  6.560212E+04 -1.919012E+04 -8.532672E+04
       156  21  1.120657E+05  2.206179E+06  1.503818E+05  1.392389E+05 -3.071314E+04 -3.785018E+04
       156  22  1.467928E+05  1.722621E+06  1.709275E+05  1.226151E+05 -4.748931E+03 -1.132468E+05
       156  23  1.427416E+04  1.705463E+06  8.401079E+04  9.813017E+04 -1.919835E+04 -6.938140E+04
       156  24 -3.624481E+03  1.722710E+06  5.427150E+04  1.225709E+05 -3.071710E+04 -2.551733E+04
       156  25  1.053332E+05  1.553492E+06  1.324991E+05  2.043073E+05 -4.763011E+03 -9.370474E+04
       156  26 -6.401157E+04  1.379575E+06  1.798337E+04  1.306409E+05 -1.920491E+04 -5.344426E+04
       156  27 -1.193278E+05  1.239465E+06 -4.184976E+04  1.059160E+05 -3.072172E+04 -1.319386E+04
       157   1  1.479162E+05  2.311907E+06  1.667997E+05  1.191076E+05  3.679121E+04  3.099120E+04
       157   2  1.807001E+05  2.466891E+06  1.922582E+05  9.781475E+04  4.669522E+04  7.601970E+03
       157   3  2.247488E+05  2.627951E+06  2.357658E+05  1.254283E+05  5.446859E+04 -1.578775E+04
       157   4  5.209566E+03  1.716268E+06  4.755873E+04  1.225782E+05  3.679858E+04  1.752216E+04
       157   5  2.251258E+02  1.713428E+06  4.155842E+04  9.812345E+04  4.670550E+04 -3.232358E+03
       157   6  6.058573E+03  1.716191E+06  5.179414E+04  1.225780E+05  5.448072E+04 -2.398166E+04
       157   7 -1.375187E+05  1.120967E+06 -7.169949E+04  1.260454E+05  3.680580E+04  4.065744E+03
       157   8 -1.802846E+05  9.605053E+05 -1.091696E+05  9.843180E+04  4.671579E+04 -1.405384E+04
       157   9 -2.126829E+05  8.052195E+05 -1.322201E+05  1.197320E+05  5.449294E+04 -3.216379E+04
       157  10  1.479145E+05  2.311905E+06  1.667954E+05  1.191067E+05 -9.998237E-10  3.303155E-09
       157  11  1.806977E+05  2.466890E+06  1.922540E+05  9.781447E+04 -4.694181E-10 -1.284696E-08
       157  12  2.247455E+05  2.627950E+06  2.357598E+05  1.254290E+05  1.221090E-09 -2.108936E-08
       157  13  5.208029E+03  1.716267E+06  4.755561E+04  1.225777E+05 -4.752740E-10 -1.003241E-09
       157  14  2.227787E+02  1.713428E+06  4.155430E+04  9.812357E+04  4.105736E-10 -2.114253E-10
       157  15  6.055229E+03  1.716190E+06  5.178748E+04  1.225790E+05  1.723902E-09 -9.436694E-11
       157  16 -1.375201E+05  1.120967E+06 -7.170207E+04  1.260453E+05 -1.057143E-09 -3.169728E-09
       157  17 -1.802870E+05  9.605045E+05 -1.091741E+05  9.843233E+04 -8.192778E-10  1.142331E-08
       157  18 -2.126864E+05  8.052176E+05 -1.322276E+05  1.197334E+05  1.712158E-09  1.999785E-08
       157  19  1.479162E+05  2.311907E+06  1.667997E+05  1.191076E+05 -3.679121E+04 -3.099120E+04
       157  20  1.807001E+05  2.466891E+06  1.922582E+05  9.781475E+04 -4.669522E+04 -7.601970E+03
       157  21  2.247488E+05  2.627951E+06  2.357658E+05  1.254283E+05 -5.446859E+04  1.578775E+04
       157  22  5.209566E+03  1.716268E+06  4.755873E+04  1.225782E+05 -3.679858E+04 -1.752216E+04
       157  23  2.251258E+02  1.713428E+06  4.155842E+04  9.812345E+04 -4.670550E+04  3.232358E+03
       157  24  6.058573E+03  1.716191E+06  5.179414E+04  1.225780E+05 -5.448072E+04  2.398166E+04
       157  25 -1.375187E+05  1.120967E+06 -7.169949E+04  1.260454E+05 -3.680580E+04 -4.065744E+03
       157  26 -1.802846E+05  9.605053E+05 -1.091696E+05  9.843180E+04 -4.671579E+04  1.405384E+04
       157  27 -2.126829E+05  8.052195E+05 -1.322201E+05  1.197320E+05 -5.449294E+04  3.216379E+04
       158   1  2.415218E+05  2.749963E+06  2.674411E+05  1.016584E+05  6.170482E+04 -1.636965E+04
       158   2  3.019003E+05  2.885807E+06  3.461528E+05  1.354658E+05  5.759031E+04 -1.103692E+05
       158   3  5.042057E+05  3.069721E+06  5.214431E+05  2.169232E+05  1.833537E+04 -2.044553E+05
       158   4 -4.539324E+03  1.723954E+06  6.075295E+04  1.222485E+05  6.172613E+04 -3.275025E+04
       158   5  1.636660E+04  1.703499E+06  9.717596E+04  9.853384E+04  5.757430E+04 -8.351387E+04
       158   6  1.718517E+05  1.723694E+06  2.003205E+05  1.224566E+05  1.826918E+04 -1.343353E+05
       158   7 -2.506636E+05  6.989443E+05 -1.459880E+05  1.428041E+05  6.174638E+04 -4.910437E+04
       158   8 -2.692512E+05  5.225083E+05 -1.518761E+05  6.167332E+04  5.755510E+04 -5.670859E+04
       158   9 -1.605963E+05  3.793516E+05 -1.209060E+05  2.819528E+04  1.818170E+04 -6.436585E+04
       158  10  2.415176E+05  2.749962E+06  2.674334E+05  1.016592E+05  1.615679E-09  1.804301E-08
       158  11  3.018935E+05  2.885794E+06  3.461238E+05  1.354709E+05  1.122247E-09  1.521787E-09
       158  12  5.041942E+05  3.069676E+06  5.213643E+05  2.169262E+05  9.953707E-10 -7.406039E-09
       158  13 -4.543706E+03  1.723951E+06  6.074377E+04  1.222501E+05  1.566325E-09 -1.111776E-09
       158  14  1.636117E+04  1.703490E+06  9.715665E+04  9.853771E+04  2.133821E-09  8.621947E-11
       158  15  1.718466E+05  1.723675E+06  2.002860E+05  1.224586E+05  2.947619E-10  4.052269E-10
       158  16 -2.506683E+05  6.989407E+05 -1.459997E+05  1.428066E+05  2.241260E-09 -1.780051E-08
       158  17 -2.692557E+05  5.225039E+05 -1.518883E+05  6.167595E+04 -8.294100E-10 -3.654265E-09
       158  18 -1.605978E+05  3.793471E+05 -1.209144E+05  2.819622E+04  5.344418E-10  6.047597E-09
       158  19  2.415218E+05  2.749963E+06  2.674411E+05  1.016584E+05 -6.170482E+04  1.636965E+04
       158  20  3.019003E+05  2.885807E+06  3.461528E+05  1.354658E+05 -5.759031E+04  1.103692E+05
       158  21  5.042057E+05  3.069721E+06  5.214431E+05  2.169232E+05 -1.833537E+04  2.044553E+05
       158  22 -4.539324E+03  1.723954E+06  6.075295E+04  1.222485E+05 -6.172613E+04  3.275025E+04
       158  23  1.636660E+04  1.703499E+06  9.717596E+04  9.853384E+04 -5.757430E+04  8.351387E+04
       158  24  1.718517E+05  1.723694E+06  2.003205E+05  1.224566E+05 -1.826918E+04  1.343353E+05
       158  25 -2.506636E+05  6.989443E+05 -1.459880E+05  1.428041E+05 -6.174638E+04  4.910437E+04
       158  26 -2.692512E+05  5.225083E+05 -1.518761E+05  6.167332E+04 -5.755510E+04  5.670859E+04
       158  27 -1.605963E+05  3.793516E+05 -1.209060E+05  2.819528E+04 -1.818170E+04  6.436585E+04
       159   1 -3.329539E+05 -1.426465E+05 -1.106132E+05 -4.702293E+03  5.207462E+04  1.558044E+04
       159   2 -2.424119E+05 -2.360023E+05 -1.423928E+05 -3.383516E+04  4.774419E+04  4.988606E+04
       159   3 -1.249994E+05 -2.254371E+05 -1.453249E+05 -9.494493E+04  4.344987E+04  5.479067E+04
       159   4  7.933502E+05  1.362566E+05  1.589784E+05 -7.789395E+04  1.098254E+05  1.563891E+04
       159   5  7.770034E+05  1.108719E+04  7.421720E+04 -6.184525E+04  7.088192E+04  4.989852E+04
       159   6  7.934672E+05 -4.256136E+03  4.228431E+04 -7.776581E+04  3.197724E+04  5.477833E+04
       159   7  1.920835E+06  4.150900E+05  4.284959E+05 -1.512192E+05  1.676803E+05  1.568372E+04
       159   8  1.797401E+06  2.581125E+05  2.907702E+05 -8.990220E+04  9.405702E+04  4.990889E+04
       159   9  1.712736E+06  2.168732E+05  2.298496E+05 -6.056088E+04  2.048793E+04  5.476536E+04
       159  10 -3.329569E+05 -1.426475E+05 -1.106188E+05 -4.702946E+03 -2.374117E-10 -6.291426E-11
       159  11 -2.424151E+05 -2.360055E+05 -1.424018E+05 -3.383708E+04 -2.092511E-10 -2.188654E-10
       159  12 -1.250022E+05 -2.254408E+05 -1.453341E+05 -9.494685E+04  3.220608E-10 -5.114838E-10
       159  13  7.933372E+05  1.362531E+05  1.589553E+05 -7.789534E+04 -5.547468E-10 -6.547396E-13
       159  14  7.769974E+05  1.108317E+04  7.420309E+04 -6.184810E+04 -2.447082E-10 -1.792960E-12
       159  15  7.934653E+05 -4.259633E+03  4.227675E+04 -7.776722E+04  4.216374E-10 -2.656708E-10
       159  16  1.920805E+06  4.150822E+05  4.284428E+05 -1.512214E+05 -1.126856E-10  5.397053E-11
       159  17  1.797391E+06  2.581075E+05  2.907490E+05 -8.990597E+04 -5.061829E-11  9.075877E-11
       159  18  1.712735E+06  2.168698E+05  2.298432E+05 -6.056178E+04 -8.960682E-10 -9.486838E-12
       159  19 -3.329539E+05 -1.426465E+05 -1.106132E+05 -4.702293E+03 -5.207462E+04 -1.558044E+04
       159  20 -2.424119E+05 -2.360023E+05 -1.423928E+05 -3.383516E+04 -4.774419E+04 -4.988606E+04
       159  21 -1.249994E+05 -2.254371E+05 -1.453249E+05 -9.494493E+04 -4.344987E+04 -5.479067E+04
       159  22  7.933502E+05  1.362566E+05  1.589784E+05 -7.789395E+04 -1.098254E+05 -1.563891E+04
       159  23  7.770034E+05  1.108719E+04  7.421720E+04 -6.184525E+04 -7.088192E+04 -4.989852E+04
       159  24  7.934672E+05 -4.256136E+03  4.228431E+04 -7.776581E+04 -3.197724E+04 -5.477833E+04
       159  25  1.920835E+06  4.150900E+05  4.284959E+05 -1.512192E+05 -1.676803E+05 -1.568372E+04
       159  26  1.797401E+06  2.581125E+05  2.907702E+05 -8.990220E+04 -9.405702E+04 -4.990889E+04
       159  27  1.712736E+06  2.168732E+05  2.298496E+05 -6.056088E+04 -2.048793E+04 -5.476536E+04
       160   1 -5.607409E+04 -1.977693E+05 -1.395636E+05 -7.664204E+04  3.059975E+04  4.967248E+04
       160   2  4.578180E+04 -1.779537E+05 -1.321169E+05 -6.137318E+04  2.339291E+04  4.514640E+04
       160   3  1.498838E+05 -1.535702E+05 -1.187976E+05 -7.928880E+04  1.618133E+04  3.904426E+04
       160   4  7.867639E+05  5.255052E+03  3.304328E+04 -7.806519E+04  2.623241E+04  4.966498E+04
       160   5  7.855128E+05 -1.375289E+01  1.817301E+04 -6.147353E+04  1.716080E+04  4.514021E+04
       160   6  7.868171E+05 -3.945252E+02  1.046285E+04 -7.806370E+04  8.085615E+03  3.904026E+04
       160   7  1.630276E+06  2.082348E+05  2.056125E+05 -7.949035E+04  2.185923E+04  4.965750E+04
       160   8  1.525764E+06  1.778922E+05  1.684345E+05 -6.157401E+04  1.092139E+04  4.513403E+04
       160   9  1.424136E+06  1.527560E+05  1.397025E+05 -7.683730E+04 -1.824485E+01  3.903624E+04
       160  10 -5.607576E+04 -1.977722E+05 -1.395700E+05 -7.664326E+04 -4.229062E-10 -3.161318E-10
       160  11  4.578066E+04 -1.779560E+05 -1.321218E+05 -6.137403E+04 -2.588810E-10  2.071529E-10
       160  12  1.498831E+05 -1.535719E+05 -1.188010E+05 -7.928931E+04  7.340519E-10 -1.596197E-10
       160  13  7.867625E+05  5.252218E+03  3.303735E+04 -7.806624E+04 -5.394227E-10 -1.415955E-10
       160  14  7.855119E+05 -1.602078E+01  1.816863E+04 -6.147415E+04  1.033102E-09  1.543844E-10
       160  15  7.868167E+05 -3.961800E+02  1.045987E+04 -7.806395E+04 -2.608933E-10 -6.110602E-11
       160  16  1.630275E+06  2.082321E+05  2.056070E+05 -7.949123E+04  2.807905E-10  9.658168E-11
       160  17  1.525763E+06  1.778899E+05  1.684305E+05 -6.157441E+04 -6.617478E-10  1.472366E-10
       160  18  1.424136E+06  1.527544E+05  1.396996E+05 -7.683730E+04 -1.154361E-09 -4.263711E-11
       160  19 -5.607409E+04 -1.977693E+05 -1.395636E+05 -7.664204E+04 -3.059975E+04 -4.967248E+04
       160  20  4.578180E+04 -1.779537E+05 -1.321169E+05 -6.137318E+04 -2.339291E+04 -4.514640E+04
       160  21  1.498838E+05 -1.535702E+05 -1.187976E+05 -7.928880E+04 -1.618133E+04 -3.904426E+04
       160  22  7.867639E+05  5.255052E+03  3.304328E+04 -7.806519E+04 -2.623241E+04 -4.966498E+04
       160  23  7.855128E+05 -1.375289E+01  1.817301E+04 -6.147353E+04 -1.716080E+04 -4.514021E+04
       160  24  7.868171E+05 -3.945252E+02  1.046285E+04 -7.806370E+04 -8.085615E+03 -3.904026E+04
       160  25  1.630276E+06  2.082348E+05  2.056125E+05 -7.949035E+04 -2.185923E+04 -4.965750E+04
       160  26  1.525764E+06  1.778922E+05  1.684345E+05 -6.157401E+04 -1.092139E+04 -4.513403E+04
       160  27  1.424136E+06  1.527560E+05  1.397025E+05 -7.683730E+04  1.824485E+01 -3.903624E+04
       161   1  2.237816E+05 -1.351697E+05 -1.057274E+05 -7.837299E+04  1.415926E+04  3.506949E+04
       161   2  3.261072E+05 -1.107094E+05 -8.854380E+04 -6.170227E+04  1.198020E+04  2.847901E+04
       161   3  4.288289E+05 -8.603208E+04 -6.987587E+04 -7.814470E+04  9.797735E+03  2.181054E+04
       161   4  7.863575E+05  2.763320E+01  7.989048E+03 -7.804861E+04  6.456448E+03  3.506686E+04
       161   5  7.861711E+05 -1.242550E+02  4.596775E+03 -6.149282E+04  4.183228E+03  2.847805E+04
       161   6  7.863881E+05 -4.217541E+01  2.753472E+03 -7.804872E+04  1.906951E+03  2.181130E+04
       161   7  1.349235E+06  1.352054E+05  1.216894E+05 -7.772391E+04 -1.253210E+03  3.506422E+04
       161   8  1.246437E+06  1.104478E+05  9.772661E+04 -6.128320E+04 -3.619411E+03  2.847708E+04
       161   9  1.144069E+06  8.593980E+04  7.537638E+04 -7.795268E+04 -5.988290E+03  2.181207E+04
       161  10  2.237811E+05 -1.351711E+05 -1.057301E+05 -7.837339E+04 -5.611678E-10 -3.138671E-10
       161  11  3.261068E+05 -1.107103E+05 -8.854560E+04 -6.170254E+04 -9.887597E-10  2.910463E-10
       161  12  4.288286E+05 -8.603262E+04 -6.987695E+04 -7.814487E+04 -7.736327E-10  5.342870E-10
       161  13  7.863571E+05  2.630104E+01  7.986658E+03 -7.804879E+04 -7.660032E-11 -3.677103E-10
       161  14  7.861709E+05 -1.251309E+02  4.595217E+03 -6.149291E+04  8.426652E-12 -1.308834E-10
       161  15  7.863880E+05 -4.268744E+01  2.752571E+03 -7.804876E+04 -8.807542E-10  6.059652E-10
       161  16  1.349234E+06  1.352041E+05  1.216871E+05 -7.772388E+04 -5.025604E-11 -4.355811E-10
       161  17  1.246436E+06  1.104469E+05  9.772506E+04 -6.128311E+04  5.377132E-10 -5.381264E-10
       161  18  1.144069E+06  8.593928E+04  7.537541E+04 -7.795257E+04  4.035097E-10  6.963334E-10
       161  19  2.237816E+05 -1.351697E+05 -1.057274E+05 -7.837299E+04 -1.415926E+04 -3.506949E+04
       161  20  3.261072E+05 -1.107094E+05 -8.854380E+04 -6.170227E+04 -1.198020E+04 -2.847901E+04
       161  21  4.288289E+05 -8.603208E+04 -6.987587E+04 -7.814470E+04 -9.797735E+03 -2.181054E+04
       161  22  7.863575E+05  2.763320E+01  7.989048E+03 -7.804861E+04 -6.456448E+03 -3.506686E+04
       161  23  7.861711E+05 -1.242550E+02  4.596775E+03 -6.149282E+04 -4.183228E+03 -2.847805E+04
       161  24  7.863881E+05 -4.217541E+01  2.753472E+03 -7.804872E+04 -1.906951E+03 -2.181130E+04
       161  25  1.349235E+06  1.352054E+05  1.216894E+05 -7.772391E+04  1.253210E+03 -3.506422E+04
       161  26  1.246437E+06  1.104478E+05  9.772661E+04 -6.128320E+04  3.619411E+03 -2.847708E+04
       161  27  1.144069E+06  8.593980E+04  7.537638E+04 -7.795268E+04  5.988290E+03 -2.181207E+04
       162   1  5.028468E+05 -6.809599E+04 -5.492961E+04 -7.808357E+04  9.324445E+03  1.791042E+04
       162   2  6.050884E+05 -4.355626E+04 -3.517879E+04 -6.152505E+04  8.590291E+03  1.122603E+04
       162   3  7.074369E+05 -1.899032E+04 -1.494585E+04 -7.800846E+04  7.854782E+03  4.540336E+03
       162   4  7.863297E+05 -1.882959E+01  2.175655E+03 -7.803309E+04  1.459613E+03  1.791191E+04
       162   5  7.862877E+05 -1.095009E+01  1.488829E+03 -6.151242E+04  7.229868E+02  1.122817E+04
       162   6  7.863415E+05  2.366964E+01  1.285296E+03 -7.803310E+04 -1.487765E+01  4.543163E+03
       162   7  1.069889E+06  6.805340E+04  5.927703E+04 -7.798257E+04 -6.408738E+03  1.791339E+04
       162   8  9.675185E+05  4.353236E+04  3.815498E+04 -6.149977E+04 -7.146568E+03  1.123031E+04
       162   9  8.652521E+05  1.903730E+04  1.751634E+04 -7.805774E+04 -7.885519E+03  4.545991E+03
       162  10  5.028467E+05 -6.809635E+04 -5.493038E+04 -7.808371E+04  1.983083E-10  4.221307E-10
       162  11  6.050883E+05 -4.355642E+04 -3.517916E+04 -6.152513E+04 -5.274788E-10  7.974276E-11
       162  12  7.074368E+05 -1.899035E+04 -1.494601E+04 -7.800849E+04  2.566190E-10 -1.473650E-10
       162  13  7.863296E+05 -1.917481E+01  2.175048E+03 -7.803311E+04 -1.092284E-09  6.347561E-10
       162  14  7.862877E+05 -1.108566E+01  1.488591E+03 -6.151242E+04  2.338387E-10  1.366855E-10
       162  15  7.863415E+05  2.364747E+01  1.285257E+03 -7.803310E+04 -4.277741E-10 -1.504399E-10
       162  16  1.069889E+06  6.805304E+04  5.927635E+04 -7.798248E+04 -4.548975E-10  9.595143E-10
       162  17  9.675184E+05  4.353221E+04  3.815465E+04 -6.149971E+04 -3.054168E-10  1.176813E-11
       162  18  8.652520E+05  1.903726E+04  1.751619E+04 -7.805771E+04 -6.741403E-11 -3.096263E-10
       162  19  5.028468E+05 -6.809599E+04 -5.492961E+04 -7.808357E+04 -9.324445E+03 -1.791042E+04
       162  20  6.050884E+05 -4.355626E+04 -3.517879E+04 -6.152505E+04 -8.590291E+03 -1.122603E+04
       162  21  7.074369E+05 -1.899032E+04 -1.494585E+04 -7.800846E+04 -7.854782E+03 -4.540336E+03
       162  22  7.863297E+05 -1.882959E+01  2.175655E+03 -7.803309E+04 -1.459613E+03 -1.791191E+04
       162  23  7.862877E+05 -1.095009E+01  1.488829E+03 -6.151242E+04 -7.229868E+02 -1.122817E+04
       162  24  7.863415E+05  2.366964E+01  1.285296E+03 -7.803310E+04  1.487765E+01 -4.543163E+03
       162  25  1.069889E+06  6.805340E+04  5.927703E+04 -7.798257E+04  6.408738E+03 -1.791339E+04
       162  26  9.675185E+05  4.353236E+04  3.815498E+04 -6.149977E+04  7.146568E+03 -1.123031E+04
       162  27  8.652521E+05  1.903730E+04  1.751634E+04 -7.805774E+04  7.885519E+03 -4.545991E+03
       163   1  7.814318E+05 -1.102648E+03  6.041268E+02 -7.801669E+04  7.614676E+03  6.492484E+02
       163   2  8.836552E+05  2.338630E+04  2.144370E+04 -6.146316E+04  6.748752E+03 -6.034104E+03
       163   3  9.859950E+05  4.790637E+04  4.284928E+04 -7.793940E+04  5.883349E+03 -1.271506E+04
       163   4  7.863450E+05  2.472404E+01  1.331999E+03 -7.803059E+04 -2.545701E+02  6.521695E+02
       163   5  7.862888E+05 -8.650604E+00  1.743173E+03 -6.151555E+04 -1.118161E+03 -6.031562E+03
       163   6  7.863385E+05 -1.074636E+01  2.718931E+03 -7.803057E+04 -1.981092E+03 -1.271286E+04
       163   7  7.912585E+05  1.152129E+03  2.060103E+03 -7.804450E+04 -8.123876E+03  6.550909E+02
       163   8  6.889316E+05 -2.340416E+04 -1.795761E+04 -6.156792E+04 -8.983864E+03 -6.029019E+03
       163   9  5.867202E+05 -4.793029E+04 -3.741322E+04 -7.812171E+04 -9.843057E+03 -1.271066E+04
       163  10  7.814317E+05 -1.102664E+03  6.040172E+02 -7.801669E+04  6.979578E-10 -4.584975E-10
       163  11  8.836551E+05  2.338625E+04  2.144355E+04 -6.146313E+04 -5.894194E-10 -6.184434E-10
       163  12  9.859949E+05  4.790619E+04  4.284891E+04 -7.793934E+04 -1.172307E-09  3.867775E-10
       163  13  7.863450E+05  2.472357E+01  1.331998E+03 -7.803059E+04  1.014670E-09 -3.434151E-10
       163  14  7.862888E+05 -8.690021E+00  1.743102E+03 -6.151555E+04 -5.658240E-10 -4.881136E-10
       163  15  7.863385E+05 -1.092103E+01  2.718619E+03 -7.803059E+04 -8.184576E-11  2.221815E-10
       163  16  7.912584E+05  1.152110E+03  2.059978E+03 -7.804449E+04 -6.149343E-10 -4.219328E-10
       163  17  6.889315E+05 -2.340422E+04 -1.795783E+04 -6.156796E+04 -4.674519E-10 -5.063186E-10
       163  18  5.867200E+05 -4.793048E+04 -3.741371E+04 -7.812182E+04  6.845372E-10  5.661359E-11
       163  19  7.814318E+05 -1.102648E+03  6.041268E+02 -7.801669E+04 -7.614676E+03 -6.492484E+02
       163  20  8.836552E+05  2.338630E+04  2.144370E+04 -6.146316E+04 -6.748752E+03  6.034104E+03
       163  21  9.859950E+05  4.790637E+04  4.284928E+04 -7.793940E+04 -5.883349E+03  1.271506E+04
       163  22  7.863450E+05  2.472404E+01  1.331999E+03 -7.803059E+04  2.545701E+02 -6.521695E+02
       163  23  7.862888E+05 -8.650604E+00  1.743173E+03 -6.151555E+04  1.118161E+03  6.031562E+03
       163  24  7.863385E+05 -1.074636E+01  2.718931E+03 -7.803057E+04  1.981092E+03  1.271286E+04
       163  25  7.912585E+05  1.152129E+03  2.060103E+03 -7.804450E+04  8.123876E+03 -6.550909E+02
       163  26  6.889316E+05 -2.340416E+04 -1.795761E+04 -6.156792E+04  8.983864E+03  6.029019E+03
       163  27  5.867202E+05 -4.793029E+04 -3.741322E+04 -7.812171E+04  9.843057E+03  1.271066E+04
       164   1  1.060139E+06  6.577915E+04  5.913852E+04 -7.789964E+04  5.343075E+03 -1.661114E+04
       164   2  1.162365E+06  9.025840E+04  8.206339E+04 -6.124316E+04  2.316487E+03 -2.327301E+04
       164   3  1.265099E+06  1.150571E+05  1.070401E+05 -7.767211E+04 -7.080161E+02 -2.986185E+04
       164   4  7.864155E+05 -3.647932E+01  3.496263E+03 -7.804315E+04 -2.545151E+03 -1.660947E+04
       164   5  7.861599E+05 -1.245147E+02  5.935167E+03 -6.149975E+04 -5.484646E+03 -2.327276E+04
       164   6  7.863899E+05  9.304598E+01  1.036711E+04 -7.804299E+04 -8.421574E+03 -2.986298E+04
       164   7  5.127631E+05 -6.585674E+04 -5.214968E+04 -7.818659E+04 -1.042997E+04 -1.660780E+04
       164   8  4.100898E+05 -9.051617E+04 -7.020015E+04 -6.175617E+04 -1.328115E+04 -2.327251E+04
       164   9  3.078992E+05 -1.148852E+05 -8.631743E+04 -7.841357E+04 -1.612931E+04 -2.986409E+04
       164  10  1.060139E+06  6.577885E+04  5.913795E+04 -7.789957E+04  3.527306E-10  5.113904E-10
       164  11  1.162365E+06  9.025782E+04  8.206236E+04 -6.124312E+04  5.406561E-10 -1.711706E-11
       164  12  1.265098E+06  1.150561E+05  1.070384E+05 -7.767212E+04 -2.170345E-10  3.038478E-10
       164  13  7.864154E+05 -3.677742E+01  3.495732E+03 -7.804319E+04 -4.845474E-10  3.565550E-10
       164  14  7.861597E+05 -1.251046E+02  5.934092E+03 -6.149985E+04  1.425984E-09  5.734624E-11
       164  15  7.863896E+05  9.206894E+01  1.036530E+04 -7.804319E+04  6.492345E-10  2.010046E-10
       164  16  5.127629E+05 -6.585707E+04 -5.215040E+04 -7.818673E+04 -2.110842E-10  3.085506E-10
       164  17  4.100895E+05 -9.051680E+04 -7.020150E+04 -6.175641E+04 -2.043775E-10  1.141572E-10
       164  18  3.078987E+05 -1.148862E+05 -8.631960E+04 -7.841395E+04  4.175330E-10  1.967827E-10
       164  19  1.060139E+06  6.577915E+04  5.913852E+04 -7.789964E+04 -5.343075E+03  1.661114E+04
       164  20  1.162365E+06  9.025840E+04  8.206339E+04 -6.124316E+04 -2.316487E+03  2.327301E+04
       164  21  1.265099E+06  1.150571E+05  1.070401E+05 -7.767211E+04  7.080161E+02  2.986185E+04
       164  22  7.864155E+05 -3.647932E+01  3.496263E+03 -7.804315E+04  2.545151E+03  1.660947E+04
       164  23  7.861599E+05 -1.245147E+02  5.935167E+03 -6.149975E+04  5.484646E+03  2.327276E+04
       164  24  7.863899E+05  9.304598E+01  1.036711E+04 -7.804299E+04  8.421574E+03  2.986298E+04
       164  25  5.127631E+05 -6.585674E+04 -5.214968E+04 -7.818659E+04  1.042997E+04  1.660780E+04
       164  26  4.100898E+05 -9.051617E+04 -7.020015E+04 -6.175617E+04  1.328115E+04  2.327251E+04
       164  27  3.078992E+05 -1.148852E+05 -8.631743E+04 -7.841357E+04  1.612931E+04  2.986409E+04
       165   1  1.340037E+06  1.324656E+05  1.257868E+05 -7.653649E+04 -2.460066E+03 -3.382436E+04
       165   2  1.441164E+06  1.576977E+05  1.567933E+05 -6.177365E+04 -1.599723E+04 -3.995790E+04
       165   3  1.545840E+06  1.895888E+05  1.982893E+05 -8.014056E+04 -2.953351E+04 -4.463220E+04
       165   4  7.869868E+05 -4.492529E+02  1.359052E+04 -7.805258E+04 -1.053791E+04 -3.382663E+04
       165   5  7.853406E+05  6.977261E+01  2.364028E+04 -6.148726E+04 -2.234502E+04 -3.996231E+04
       165   6  7.869374E+05  6.952920E+03  4.298752E+04 -7.805351E+04 -3.414903E+04 -4.463808E+04
       165   7  2.342268E+05 -1.333831E+05 -9.862141E+04 -7.956727E+04 -1.860870E+04 -3.382886E+04
       165   8  1.299256E+05 -1.575848E+05 -1.095350E+05 -6.120117E+04 -2.868623E+04 -3.996674E+04
       165   9  2.858063E+04 -1.757190E+05 -1.123447E+05 -7.596907E+04 -3.875900E+04 -4.464400E+04
       165  10  1.340037E+06  1.324644E+05  1.257846E+05 -7.653656E+04  4.653142E-10  3.994321E-10
       165  11  1.441163E+06  1.576959E+05  1.567898E+05 -6.177417E+04  4.415473E-10  2.148554E-10
       165  12  1.545839E+06  1.895864E+05  1.982839E+05 -8.014162E+04 -1.200604E-10  1.258485E-10
       165  13  7.869863E+05 -4.505119E+02  1.358816E+04 -7.805286E+04 -6.211913E-11  1.840777E-10
       165  14  7.853396E+05  6.792317E+01  2.363634E+04 -6.148798E+04 -1.580734E-09 -4.611466E-11
       165  15  7.869356E+05  6.950466E+03  4.298158E+04 -7.805474E+04  5.631956E-10 -9.019212E-11
       165  16  2.342261E+05 -1.333844E+05 -9.862421E+04 -7.956778E+04  1.068899E-10  3.232838E-11
       165  17  1.299243E+05 -1.575868E+05 -1.095396E+05 -6.120209E+04 -5.860388E-10 -3.847304E-10
       165  18  2.857848E+04 -1.757215E+05 -1.123513E+05 -7.597046E+04 -9.209367E-10 -1.329184E-10
       165  19  1.340037E+06  1.324656E+05  1.257868E+05 -7.653649E+04  2.460066E+03  3.382436E+04
       165  20  1.441164E+06  1.576977E+05  1.567933E+05 -6.177365E+04  1.599723E+04  3.995790E+04
       165  21  1.545840E+06  1.895888E+05  1.982893E+05 -8.014056E+04  2.953351E+04  4.463220E+04
       165  22  7.869868E+05 -4.492529E+02  1.359052E+04 -7.805258E+04  1.053791E+04  3.382663E+04
       165  23  7.853406E+05  6.977261E+01  2.364028E+04 -6.148726E+04  2.234502E+04  3.996231E+04
       165  24  7.869374E+05  6.952920E+03  4.298752E+04 -7.805351E+04  3.414903E+04  4.463808E+04
       165  25  2.342268E+05 -1.333831E+05 -9.862141E+04 -7.956727E+04  1.860870E+04  3.382886E+04
       165  26  1.299256E+05 -1.575848E+05 -1.095350E+05 -6.120117E+04  2.868623E+04  3.996674E+04
       165  27  2.858063E+04 -1.757190E+05 -1.123447E+05 -7.596907E+04  3.875900E+04  4.464400E+04
       166   1  1.630093E+06  1.953378E+05  2.253269E+05 -5.569329E+04 -3.041844E+04 -4.964803E+04
       166   2  1.709860E+06  2.410823E+05  2.952355E+05 -9.873841E+04 -1.131740E+05 -4.562513E+04
       166   3  1.837678E+06  4.351299E+05  4.560568E+05 -1.738130E+05 -1.959775E+05 -1.438568E+04
       166   4  7.956545E+05 -5.407283E+03  5.501083E+04 -7.777546E+04 -4.162430E+04 -4.965722E+04
       166   5  7.743225E+05  1.457400E+04  9.658106E+04 -6.183165E+04 -9.225250E+04 -4.562237E+04
       166   6  7.955277E+05  1.773987E+05  2.068533E+05 -7.790669E+04 -1.429107E+05 -1.436815E+04
       166   7 -3.812199E+04 -2.061940E+05 -1.153412E+05 -9.982750E+04 -5.281537E+04 -4.966561E+04
       166   8 -1.603881E+05 -2.119856E+05 -1.021210E+05 -2.498132E+04 -7.136190E+04 -4.561714E+04
       166   9 -2.456040E+05 -8.037481E+04 -4.241130E+04  1.783816E+04 -8.993215E+04 -1.433427E+04
       166  10  1.630091E+06  1.953349E+05  2.253205E+05 -5.569451E+04  4.192152E-10  8.701603E-11
       166  11  1.709846E+06  2.410766E+05  2.952076E+05 -9.874257E+04 -1.009683E-09 -4.241658E-10
       166  12  1.837637E+06  4.351194E+05  4.559844E+05 -1.738152E+05 -1.132431E-09 -1.147415E-10
       166  13  7.956520E+05 -5.410396E+03  5.500294E+04 -7.777712E+04 -8.407087E-12 -2.318469E-11
       166  14  7.743128E+05  1.456948E+04  9.656117E+04 -6.183504E+04  2.355263E-10 -2.700584E-10
       166  15  7.955057E+05  1.773930E+05  2.068145E+05 -7.790834E+04 -4.146209E-10 -1.724325E-11
       166  16 -3.812565E+04 -2.061974E+05 -1.153511E+05 -9.982961E+04  4.070179E-10  9.495387E-12
       166  17 -1.603941E+05 -2.119892E+05 -1.021345E+05 -2.498394E+04  2.330630E-10  4.299107E-10
       166  18 -2.456128E+05 -8.037720E+04 -4.242689E+04  1.783712E+04 -2.512983E-10  4.751650E-11
       166  19  1.630093E+06  1.953378E+05  2.253269E+05 -5.569329E+04  3.041844E+04  4.964803E+04
       166  20  1.709860E+06  2.410823E+05  2.952355E+05 -9.873841E+04  1.131740E+05  4.562513E+04
       166  21  1.837678E+06  4.351299E+05  4.560568E+05 -1.738130E+05  1.959775E+05  1.438568E+04
       166  22  7.956545E+05 -5.407283E+03  5.501083E+04 -7.777546E+04  4.162430E+04  4.965722E+04
       166  23  7.743225E+05  1.457400E+04  9.658106E+04 -6.183165E+04  9.225250E+04  4.562237E+04
       166  24  7.955277E+05  1.773987E+05  2.068533E+05 -7.790669E+04  1.429107E+05  1.436815E+04
       166  25 -3.812199E+04 -2.061940E+05 -1.153412E+05 -9.982750E+04  5.281537E+04  4.966561E+04
       166  26 -1.603881E+05 -2.119856E+05 -1.021210E+05 -2.498132E+04  7.136190E+04  4.561714E+04
       166  27 -2.456040E+05 -8.037481E+04 -4.241130E+04  1.783816E+04  8.993215E+04  1.433427E+04
       167   1  1.667571E+05  7.861038E+05  1.727838E+05 -1.509382E+05  4.451592E+03  6.053035E+04
       167   2  7.473547E+04  6.206740E+05  9.320651E+04 -1.072047E+05  1.197778E+04  2.951686E+04
       167   3  3.026195E+04  4.710173E+05  4.565810E+04 -1.135956E+05  6.860578E+03 -1.507201E+03
       167   4  5.604720E+04  3.406596E+05  6.495787E+04 -1.201093E+05  4.480639E+03  4.427463E+04
       167   5  4.921380E+03  3.340877E+05  3.079925E+04 -9.509386E+04  1.198099E+04  2.815305E+04
       167   6 -1.224692E+03  3.406966E+05  1.834932E+04 -1.201996E+05  6.837170E+03  1.201299E+04
       167   7 -5.467356E+04 -1.046009E+05 -4.288086E+04 -8.930253E+04  4.508084E+03  2.803051E+04
       167   8 -6.489762E+04  4.757847E+04 -3.161286E+04 -8.298868E+04  1.198415E+04  2.678986E+04
       167   9 -3.271215E+04  2.103925E+05 -8.959688E+03 -1.268022E+05  6.813472E+03  2.553039E+04
       167  10  1.667561E+05  7.860999E+05  1.727769E+05 -1.509385E+05  3.104236E-10  9.491412E-11
       167  11  7.473508E+04  6.206731E+05  9.320460E+04 -1.072050E+05 -9.944959E-10 -3.986610E-10
       167  12  3.026190E+04  4.710173E+05  4.565801E+04 -1.135956E+05 -1.277069E-09 -1.163783E-09
       167  13  5.604666E+04  3.406575E+05  6.495415E+04 -1.201095E+05  1.003094E-09  1.227585E-11
       167  14  4.921013E+03  3.340868E+05  3.079749E+04 -9.509413E+04 -6.129492E-11  3.022347E-11
       167  15 -1.224781E+03  3.406965E+05  1.834896E+04 -1.201997E+05 -8.306435E-10 -2.594112E-11
       167  16 -5.467380E+04 -1.046018E+05 -4.288237E+04 -8.930263E+04 -9.418148E-11 -9.476712E-11
       167  17 -6.489797E+04  4.757766E+04 -3.161448E+04 -8.298894E+04  1.546341E-09  4.368214E-10
       167  18 -3.271238E+04  2.103918E+05 -8.960999E+03 -1.268024E+05 -9.253690E-10  1.196080E-09
       167  19  1.667571E+05  7.861038E+05  1.727838E+05 -1.509382E+05 -4.451592E+03 -6.053035E+04
       167  20  7.473547E+04  6.206740E+05  9.320651E+04 -1.072047E+05 -1.197778E+04 -2.951686E+04
       167  21  3.026195E+04  4.710173E+05  4.565810E+04 -1.135956E+05 -6.860578E+03  1.507201E+03
       167  22  5.604720E+04  3.406596E+05  6.495787E+04 -1.201093E+05 -4.480639E+03 -4.427463E+04
       167  23  4.921380E+03  3.340877E+05  3.079925E+04 -9.509386E+04 -1.198099E+04 -2.815305E+04
       167  24 -1.224692E+03  3.406966E+05  1.834932E+04 -1.201996E+05 -6.837170E+03 -1.201299E+04
       167  25 -5.467356E+04 -1.046009E+05 -4.288086E+04 -8.930253E+04 -4.508084E+03 -2.803051E+04
       167  26 -6.489762E+04  4.757847E+04 -3.161286E+04 -8.298868E+04 -1.198415E+04 -2.678986E+04
       167  27 -3.271215E+04  2.103925E+05 -8.959688E+03 -1.268022E+05 -6.813472E+03 -2.553039E+04
       168   1  6.513402E+03  3.539309E+05  1.870940E+04 -1.212428E+05  3.152022E+02 -1.282504E+03
       168   2 -3.366627E+04  1.959186E+05 -1.868057E+04 -9.484208E+04 -8.588411E+03 -5.889193E+03
       168   3 -7.101129E+04  3.905275E+04 -5.241297E+04 -1.192048E+05 -1.710614E+04 -1.049285E+04
       168   4  2.585446E+03  3.380368E+05  1.497649E+04 -1.203220E+05  2.964354E+02  9.428553E+03
       168   5  3.843646E+02  3.374292E+05  1.010329E+04 -9.494204E+04 -8.605639E+03  4.366670E+03
       168   6  1.098213E+03  3.380235E+05  9.204592E+03 -1.203245E+05 -1.712194E+04 -6.933029E+02
       168   7 -1.342463E+03  3.221432E+05  1.124398E+04 -1.194013E+05  2.777001E+02  2.013934E+04
       168   8  3.443380E+04  4.789590E+05  3.888650E+04 -9.504201E+04 -8.622868E+03  1.462483E+04
       168   9  7.320213E+04  6.370792E+05  7.081770E+04 -1.214447E+05 -1.713776E+04  9.110884E+03
       168  10  6.513402E+03  3.539309E+05  1.870940E+04 -1.212428E+05 -1.228546E-09  3.619303E-10
       168  11 -3.366635E+04  1.959186E+05 -1.868078E+04 -9.484213E+04 -7.816295E-10  8.824020E-11
       168  12 -7.101164E+04  3.905255E+04 -5.241373E+04 -1.192049E+05 -5.942163E-10 -7.427212E-11
       168  13  2.585422E+03  3.380367E+05  1.497632E+04 -1.203220E+05 -6.077043E-10 -1.308692E-12
       168  14  3.842799E+02  3.374291E+05  1.010311E+04 -9.494201E+04 -3.525056E-10  5.405513E-12
       168  15  1.097898E+03  3.380234E+05  9.204041E+03 -1.203245E+05 -4.309201E-10  1.466347E-10
       168  16 -1.342572E+03  3.221428E+05  1.124322E+04 -1.194013E+05 -1.083513E-09 -3.828228E-10
       168  17  3.443367E+04  4.789587E+05  3.888596E+04 -9.504191E+04 -8.887805E-10 -3.061738E-11
       168  18  7.320180E+04  6.370791E+05  7.081700E+04 -1.214446E+05  2.153386E-10  7.857519E-11
       168  19  6.513402E+03  3.539309E+05  1.870940E+04 -1.212428E+05 -3.152022E+02  1.282504E+03
       168  20 -3.366627E+04  1.959186E+05 -1.868057E+04 -9.484208E+04  8.588411E+03  5.889193E+03
       168  21 -7.101129E+04  3.905275E+04 -5.241297E+04 -1.192048E+05  1.710614E+04  1.049285E+04
       168  22  2.585446E+03  3.380368E+05  1.497649E+04 -1.203220E+05 -2.964354E+02 -9.428553E+03
       168  23  3.843646E+02  3.374292E+05  1.010329E+04 -9.494204E+04  8.605639E+03 -4.366670E+03
       168  24  1.098213E+03  3.380235E+05  9.204592E+03 -1.203245E+05  1.712194E+04  6.933029E+02
       168  25 -1.342463E+03  3.221432E+05  1.124398E+04 -1.194013E+05 -2.777001E+02 -2.013934E+04
       168  26  3.443380E+04  4.789590E+05  3.888650E+04 -9.504201E+04  8.622868E+03 -1.462483E+04
       168  27  7.320213E+04  6.370792E+05  7.081770E+04 -1.214447E+05  1.713776E+04 -9.110884E+03
       169   1 -9.995049E+04 -7.470750E+04 -7.546620E+04 -1.221126E+05 -2.391665E+04 -1.665598E+04
       169   2 -1.363275E+05 -2.329454E+05 -1.091801E+05 -8.998184E+04 -2.629870E+04 -9.147830E+01
       169   3 -1.592772E+05 -3.900432E+05 -1.503431E+05 -1.076426E+05 -8.836225E+03  1.649207E+04
       169   4 -2.407660E+02  3.388868E+05  9.584253E+03 -1.201139E+05 -2.393891E+04 -2.222181E+03
       169   5  1.963707E+03  3.362769E+05  1.298812E+04 -9.520500E+04 -2.628393E+04 -8.990768E+03
       169   6  2.163972E+04  3.388281E+05  2.514265E+04 -1.200832E+05 -8.793016E+03 -1.573581E+04
       169   7  9.945831E+04  7.526440E+05  9.462632E+04 -1.181137E+05 -2.396108E+04  1.222106E+04
       169   8  1.402339E+05  9.058040E+05  1.351377E+05 -1.004329E+05 -2.626902E+04 -1.789810E+04
       169   9  2.025190E+05  1.068188E+06  2.005945E+05 -1.325384E+05 -8.748544E+03 -4.800139E+04
       169  10 -9.995118E+04 -7.470795E+04 -7.546779E+04 -1.221129E+05 -5.769962E-10  1.650314E-10
       169  11 -1.363283E+05 -2.329456E+05 -1.091814E+05 -8.998185E+04  1.192739E-09  6.321015E-11
       169  12 -1.592774E+05 -3.900435E+05 -1.503438E+05 -1.076424E+05  2.554096E-10 -2.828787E-10
       169  13 -2.413828E+02  3.388867E+05  9.583166E+03 -1.201139E+05  1.235771E-10  1.221355E-11
       169  14  1.962943E+03  3.362766E+05  1.298666E+04 -9.520519E+04  4.642287E-10 -3.344152E-11
       169  15  2.163957E+04  3.388278E+05  2.514204E+04 -1.200834E+05  2.691411E-10  5.245015E-11
       169  16  9.945766E+04  7.526437E+05  9.462496E+04 -1.181134E+05 -4.111868E-10 -6.486439E-11
       169  17  1.402330E+05  9.058035E+05  1.351358E+05 -1.004333E+05  1.642795E-10 -8.781952E-11
       169  18  2.025183E+05  1.068185E+06  2.005900E+05 -1.325387E+05  1.135917E-10  2.146816E-10
       169  19 -9.995049E+04 -7.470750E+04 -7.546620E+04 -1.221126E+05  2.391665E+04  1.665598E+04
       169  20 -1.363275E+05 -2.329454E+05 -1.091801E+05 -8.998184E+04  2.629870E+04  9.147830E+01
       169  21 -1.592772E+05 -3.900432E+05 -1.503431E+05 -1.076426E+05  8.836225E+03 -1.649207E+04
       169  22 -2.407660E+02  3.388868E+05  9.584253E+03 -1.201139E+05  2.393891E+04  2.222181E+03
       169  23  1.963707E+03  3.362769E+05  1.298812E+04 -9.520500E+04  2.628393E+04  8.990768E+03
       169  24  2.163972E+04  3.388281E+05  2.514265E+04 -1.200832E+05  8.793016E+03  1.573581E+04
       169  25  9.945831E+04  7.526440E+05  9.462632E+04 -1.181137E+05  2.396108E+04 -1.222106E+04
       169  26  1.402339E+05  9.058040E+05  1.351377E+05 -1.004329E+05  2.626902E+04  1.789810E+04
       169  27  2.025190E+05  1.068188E+06  2.005945E+05 -1.325384E+05  8.748544E+03  4.800139E+04
       170   1 -1.468196E+06 -6.261421E+05 -3.891596E+05 -5.487482E+05 -1.669329E+05 -5.019447E+04
       170   2 -1.410491E+06 -4.159899E+05 -2.439338E+05 -5.287598E+05 -1.071612E+05  1.272592E+02
       170   3 -1.397386E+06 -3.533805E+05 -1.863901E+05 -4.923675E+05 -3.943801E+04  2.936467E+04
       170   4 -7.872863E+05 -2.905776E+05 -1.942974E+05 -2.813417E+05 -1.286387E+05 -3.580786E+04
       170   5 -7.565591E+05 -1.434807E+05 -8.623949E+04 -3.179765E+05 -9.199893E+04  5.821455E+03
       170   6 -7.657859E+05 -1.392616E+05 -4.744822E+04 -3.382274E+05 -4.741762E+04  2.636211E+04
       170   7 -1.059113E+05  4.512070E+04  5.259024E+02 -1.363823E+04 -9.029883E+04 -2.139171E+04
       170   8 -1.021971E+05  1.290915E+05  7.142414E+04 -1.069792E+05 -7.681927E+04  1.152402E+04
       170   9 -1.337821E+05  7.487341E+04  9.147041E+04 -1.839497E+05 -5.540608E+04  2.335687E+04
       170  10 -1.468227E+06 -6.261523E+05 -3.892169E+05 -5.487550E+05  4.147636E-10 -2.962952E-11
       170  11 -1.410503E+06 -4.159930E+05 -2.439554E+05 -5.287597E+05 -3.953032E-09 -1.527047E-09
       170  12 -1.397388E+06 -3.533819E+05 -1.863946E+05 -4.923666E+05 -3.636776E-09 -5.178059E-10
       170  13 -7.873045E+05 -2.905834E+05 -1.943310E+05 -2.813455E+05 -1.594712E-09 -5.790226E-10
       170  14 -7.565682E+05 -1.434830E+05 -8.625548E+04 -3.179761E+05 -3.063971E-09 -1.290646E-09
       170  15 -7.657885E+05 -1.392630E+05 -4.745376E+04 -3.382264E+05 -9.810972E-10 -4.980379E-10
       170  16 -1.059202E+05  4.511801E+04  5.097167E+02 -1.363979E+04 -3.093628E-09 -1.090722E-09
       170  17 -1.022034E+05  1.290898E+05  7.141280E+04 -1.069785E+05 -3.486608E-09 -1.330203E-09
       170  18 -1.337855E+05  7.487200E+04  9.146362E+04 -1.839486E+05  3.745345E-10 -4.468514E-10
       170  19 -1.468196E+06 -6.261421E+05 -3.891596E+05 -5.487482E+05  1.669329E+05  5.019447E+04
       170  20 -1.410491E+06 -4.159899E+05 -2.439338E+05 -5.287598E+05  1.071612E+05 -1.272592E+02
       170  21 -1.397386E+06 -3.533805E+05 -1.863901E+05 -4.923675E+05  3.943801E+04 -2.936467E+04
       170  22 -7.872863E+05 -2.905776E+05 -1.942974E+05 -2.813417E+05  1.286387E+05  3.580786E+04
       170  23 -7.565591E+05 -1.434807E+05 -8.623949E+04 -3.179765E+05  9.199893E+04 -5.821455E+03
       170  24 -7.657859E+05 -1.392616E+05 -4.744822E+04 -3.382274E+05  4.741762E+04 -2.636211E+04
       170  25 -1.059113E+05  4.512070E+04  5.259024E+02 -1.363823E+04  9.029883E+04  2.139171E+04
       170  26 -1.021971E+05  1.290915E+05  7.142414E+04 -1.069792E+05  7.681927E+04 -1.152402E+04
       170  27 -1.337821E+05  7.487341E+04  9.147041E+04 -1.839497E+05  5.540608E+04 -2.335687E+04
       171   1 -1.329931E+06 -3.630744E+05 -1.662671E+05 -4.908261E+05 -3.790524E+04  2.584184E+04
       171   2 -1.275889E+06 -3.251994E+05 -1.341210E+05 -4.658125E+05 -2.595317E+04  2.723036E+04
       171   3 -1.210353E+06 -3.088527E+05 -1.117864E+05 -4.569714E+05 -1.360575E+04  2.756371E+04
       171   4 -7.596311E+05 -1.499304E+05 -3.697876E+04 -3.312844E+05 -4.033102E+04  2.492691E+04
       171   5 -7.650111E+05 -1.359594E+05 -1.938620E+04 -3.244403E+05 -2.952967E+04  2.588425E+04
       171   6 -7.586684E+05 -1.432841E+05 -1.068526E+04 -3.337698E+05 -1.833419E+04  2.578639E+04
       171   7 -1.890068E+05  6.323891E+04  9.228747E+04 -1.716087E+05 -4.275920E+04  2.401106E+04
       171   8 -2.538695E+05  5.330107E+04  9.533197E+04 -1.829613E+05 -3.310935E+04  2.453693E+04
       171   9 -3.067749E+05  2.230041E+04  9.040381E+04 -2.104856E+05 -2.306640E+04  2.400769E+04
       171  10 -1.329933E+06 -3.630755E+05 -1.662711E+05 -4.908253E+05 -8.445312E-10  9.990616E-10
       171  11 -1.275890E+06 -3.252004E+05 -1.341236E+05 -4.658119E+05  3.190578E-09  1.508875E-09
       171  12 -1.210354E+06 -3.088535E+05 -1.117881E+05 -4.569711E+05  5.579614E-09  8.133745E-10
       171  13 -7.596330E+05 -1.499315E+05 -3.698298E+04 -3.312836E+05  1.140259E-09  5.095611E-10
       171  14 -7.650123E+05 -1.359604E+05 -1.938910E+04 -3.244397E+05  4.777198E-09  1.289178E-09
       171  15 -7.586689E+05 -1.432849E+05 -1.068714E+04 -3.337694E+05  4.626391E-09  1.159204E-09
       171  16 -1.890089E+05  6.323780E+04  9.228295E+04 -1.716078E+05  2.933691E-09  8.717471E-12
       171  17 -2.538709E+05  5.330013E+04  9.532878E+04 -1.829606E+05  4.738235E-09  1.001150E-09
       171  18 -3.067756E+05  2.229964E+04  9.040172E+04 -2.104852E+05  3.212070E-09  1.440314E-09
       171  19 -1.329931E+06 -3.630744E+05 -1.662671E+05 -4.908261E+05  3.790524E+04 -2.584184E+04
       171  20 -1.275889E+06 -3.251994E+05 -1.341210E+05 -4.658125E+05  2.595317E+04 -2.723036E+04
       171  21 -1.210353E+06 -3.088527E+05 -1.117864E+05 -4.569714E+05  1.360575E+04 -2.756371E+04
       171  22 -7.596311E+05 -1.499304E+05 -3.697876E+04 -3.312844E+05  4.033102E+04 -2.492691E+04
       171  23 -7.650111E+05 -1.359594E+05 -1.938620E+04 -3.244403E+05  2.952967E+04 -2.588425E+04
       171  24 -7.586684E+05 -1.432841E+05 -1.068526E+04 -3.337698E+05  1.833419E+04 -2.578639E+04
       171  25 -1.890068E+05  6.323891E+04  9.228747E+04 -1.716087E+05  4.275920E+04 -2.401106E+04
       171  26 -2.538695E+05  5.330107E+04  9.533197E+04 -1.829613E+05  3.310935E+04 -2.453693E+04
       171  27 -3.067749E+05  2.230041E+04  9.040381E+04 -2.104856E+05  2.306640E+04 -2.400769E+04
       172   1 -1.163819E+06 -2.932650E+05 -9.868030E+04 -4.450027E+05 -1.143668E+04  2.555562E+04
       172   2 -1.110224E+06 -2.628323E+05 -8.151333E+04 -4.194650E+05 -7.628324E+03  2.232143E+04
       172   3 -1.041689E+06 -2.480331E+05 -6.610801E+04 -4.114625E+05 -3.799117E+03  1.902702E+04
       172   4 -7.581858E+05 -1.437499E+05 -8.074215E+03 -3.334196E+05 -1.589989E+04  2.387863E+04
       172   5 -7.656349E+05 -1.358143E+05 -4.427104E+03 -3.246956E+05 -1.215617E+04  2.062116E+04
       172   6 -7.581353E+05 -1.434984E+05 -2.489431E+03 -3.335073E+05 -8.391852E+03  1.730343E+04
       172   7 -3.523869E+05  5.777757E+03  8.252155E+04 -2.217698E+05 -2.036626E+04  2.220045E+04
       172   8 -4.209273E+05 -8.787563E+03  7.265137E+04 -2.298784E+05 -1.668672E+04  1.891988E+04
       172   9 -4.745022E+05 -3.895828E+04  6.112360E+04 -2.555201E+05 -1.298683E+04  1.557899E+04
       172  10 -1.163819E+06 -2.932657E+05 -9.868177E+04 -4.450025E+05  3.658678E-09  2.278663E-10
       172  11 -1.110224E+06 -2.628329E+05 -8.151437E+04 -4.194649E+05  1.315527E-09 -1.834145E-11
       172  12 -1.041689E+06 -2.480335E+05 -6.610871E+04 -4.114624E+05 -4.064244E-10  2.644026E-10
       172  13 -7.581863E+05 -1.437506E+05 -8.075761E+03 -3.334193E+05  2.653206E-09  6.155692E-10
       172  14 -7.656351E+05 -1.358148E+05 -4.428180E+03 -3.246954E+05  2.982732E-10  2.546443E-10
       172  15 -7.581355E+05 -1.434987E+05 -2.490125E+03 -3.335072E+05 -3.645441E-10  9.285859E-11
       172  16 -3.523875E+05  5.777116E+03  8.251984E+04 -2.217694E+05  1.075754E-09  1.094926E-09
       172  17 -4.209277E+05 -8.788022E+03  7.265017E+04 -2.298781E+05 -1.098272E-09  2.986081E-10
       172  18 -4.745025E+05 -3.895858E+04  6.112283E+04 -2.555199E+05 -5.627480E-10 -1.318311E-10
       172  19 -1.163819E+06 -2.932650E+05 -9.868030E+04 -4.450027E+05  1.143668E+04 -2.555562E+04
       172  20 -1.110224E+06 -2.628323E+05 -8.151333E+04 -4.194650E+05  7.628324E+03 -2.232143E+04
       172  21 -1.041689E+06 -2.480331E+05 -6.610801E+04 -4.114625E+05  3.799117E+03 -1.902702E+04
       172  22 -7.581858E+05 -1.437499E+05 -8.074215E+03 -3.334196E+05  1.589989E+04 -2.387863E+04
       172  23 -7.656349E+05 -1.358143E+05 -4.427104E+03 -3.246956E+05  1.215617E+04 -2.062116E+04
       172  24 -7.581353E+05 -1.434984E+05 -2.489431E+03 -3.335073E+05  8.391852E+03 -1.730343E+04
       172  25 -3.523869E+05  5.777757E+03  8.252155E+04 -2.217698E+05  2.036626E+04 -2.220045E+04
       172  26 -4.209273E+05 -8.787563E+03  7.265137E+04 -2.298784E+05  1.668672E+04 -1.891988E+04
       172  27 -4.745022E+05 -3.895828E+04  6.112360E+04 -2.555201E+05  1.298683E+04 -1.557899E+04
       173   1 -9.960214E+05 -2.312109E+05 -5.493796E+04 -3.989730E+05 -2.529665E+03  1.672986E+04
       173   2 -9.423424E+05 -2.009429E+05 -4.068833E+04 -3.732899E+05 -3.682347E+02  1.278006E+04
       173   3 -8.733650E+05 -1.860682E+05 -2.688370E+04 -3.652286E+05  1.794788E+03  8.823473E+03
       173   4 -7.580643E+05 -1.435211E+05 -1.913020E+03 -3.334974E+05 -7.115198E+03  1.500943E+04
       173   5 -7.657067E+05 -1.358178E+05 -1.182191E+03 -3.246867E+05 -4.961103E+03  1.105738E+04
       173   6 -7.580545E+05 -1.435069E+05 -8.908822E+02 -3.334993E+05 -2.805488E+03  7.098531E+03
       173   7 -5.200484E+05 -5.582629E+04  5.110889E+04 -2.679983E+05 -1.170267E+04  1.328828E+04
       173   8 -5.890388E+05 -7.069007E+04  3.832223E+04 -2.760706E+05 -9.555402E+03  9.334156E+03
       173   9 -6.427306E+05 -1.009445E+05  2.510118E+04 -3.017646E+05 -7.406692E+03  5.373242E+03
       173  10 -9.960215E+05 -2.312112E+05 -5.493850E+04 -3.989730E+05 -1.231848E-10  3.461576E-10
       173  11 -9.423425E+05 -2.009431E+05 -4.068863E+04 -3.732899E+05 -2.091647E-10  1.839506E-10
       173  12 -8.733650E+05 -1.860683E+05 -2.688385E+04 -3.652286E+05 -8.084192E-10  1.675661E-10
       173  13 -7.580644E+05 -1.435213E+05 -1.913538E+03 -3.334973E+05 -3.583231E-10  1.041464E-10
       173  14 -7.657067E+05 -1.358179E+05 -1.182467E+03 -3.246866E+05 -3.771563E-10  1.885797E-10
       173  15 -7.580546E+05 -1.435069E+05 -8.909916E+02 -3.334993E+05  3.471829E-10  2.276343E-10
       173  16 -5.200486E+05 -5.582652E+04  5.110830E+04 -2.679981E+05 -1.333778E-10 -1.442590E-10
       173  17 -5.890389E+05 -7.069018E+04  3.832189E+04 -2.760705E+05  7.562795E-11  4.940628E-11
       173  18 -6.427307E+05 -1.009446E+05  2.510102E+04 -3.017645E+05  4.908392E-10  2.026096E-10
       173  19 -9.960214E+05 -2.312109E+05 -5.493796E+04 -3.989730E+05  2.529665E+03 -1.672986E+04
       173  20 -9.423424E+05 -2.009429E+05 -4.068833E+04 -3.732899E+05  3.682347E+02 -1.278006E+04
       173  21 -8.733650E+05 -1.860682E+05 -2.688370E+04 -3.652286E+05 -1.794788E+03 -8.823473E+03
       173  22 -7.580643E+05 -1.435211E+05 -1.913020E+03 -3.334974E+05  7.115198E+03 -1.500943E+04
       173  23 -7.657067E+05 -1.358178E+05 -1.182191E+03 -3.246867E+05  4.961103E+03 -1.105738E+04
       173  24 -7.580545E+05 -1.435069E+05 -8.908822E+02 -3.334993E+05  2.805488E+03 -7.098531E+03
       173  25 -5.200484E+05 -5.582629E+04  5.110889E+04 -2.679983E+05  1.170267E+04 -1.328828E+04
       173  26 -5.890388E+05 -7.069007E+04  3.832223E+04 -2.760706E+05  9.555402E+03 -9.334156E+03
       173  27 -6.427306E+05 -1.009445E+05  2.510118E+04 -3.017646E+05  7.406692E+03 -5.373242E+03
       174   1 -8.276586E+05 -1.691549E+05 -1.624005E+04 -3.526888E+05  2.856880E+03  6.443941E+03
       174   2 -7.738828E+05 -1.388515E+05 -2.897371E+03 -3.269671E+05  4.953566E+03  2.457923E+03
       174   3 -7.047897E+05 -1.239596E+05  1.004855E+04 -3.188961E+05  7.049612E+03 -1.526512E+03
       174   4 -7.580484E+05 -1.435105E+05 -8.705027E+02 -3.335052E+05 -1.745745E+03  4.718289E+03
       174   5 -7.657045E+05 -1.358014E+05 -1.063313E+03 -3.246802E+05  3.524619E+02  7.328651E+02
       174   6 -7.580474E+05 -1.435044E+05 -1.654038E+03 -3.335074E+05  2.449977E+03 -3.250995E+03
       174   7 -6.884337E+05 -1.178658E+05  1.449871E+04 -3.143197E+05 -6.348901E+03  2.992437E+03
       174   8 -7.575261E+05 -1.327513E+05  7.708322E+02 -3.223932E+05 -4.248708E+03 -9.922181E+02
       174   9 -8.113026E+05 -1.630492E+05 -1.335680E+04 -3.481176E+05 -2.149261E+03 -4.975329E+03
       174  10 -8.276586E+05 -1.691550E+05 -1.624014E+04 -3.526888E+05  9.847888E-11  1.884244E-10
       174  11 -7.738828E+05 -1.388515E+05 -2.897429E+03 -3.269671E+05 -4.760086E-11 -1.368081E-11
       174  12 -7.047897E+05 -1.239596E+05  1.004845E+04 -3.188961E+05  1.711624E-10 -2.345617E-10
       174  13 -7.580484E+05 -1.435105E+05 -8.705503E+02 -3.335052E+05 -3.802036E-10  2.103270E-10
       174  14 -7.657045E+05 -1.358014E+05 -1.063314E+03 -3.246802E+05  2.370573E-10  8.120406E-12
       174  15 -7.580474E+05 -1.435044E+05 -1.654069E+03 -3.335074E+05  2.464555E-10 -2.957524E-10
       174  16 -6.884337E+05 -1.178658E+05  1.449862E+04 -3.143197E+05 -1.104113E-10  1.749253E-10
       174  17 -7.575261E+05 -1.327513E+05  7.707964E+02 -3.223932E+05  8.676929E-11  7.896790E-11
       174  18 -8.113026E+05 -1.630492E+05 -1.335686E+04 -3.481176E+05 -1.235425E-11 -2.778642E-10
       174  19 -8.276586E+05 -1.691549E+05 -1.624005E+04 -3.526888E+05 -2.856880E+03 -6.443941E+03
       174  20 -7.738828E+05 -1.388515E+05 -2.897371E+03 -3.269671E+05 -4.953566E+03 -2.457923E+03
       174  21 -7.047897E+05 -1.239596E+05  1.004855E+04 -3.188961E+05 -7.049612E+03  1.526512E+03
       174  22 -7.580484E+05 -1.435105E+05 -8.705027E+02 -3.335052E+05  1.745745E+03 -4.718289E+03
       174  23 -7.657045E+05 -1.358014E+05 -1.063313E+03 -3.246802E+05 -3.524619E+02 -7.328651E+02
       174  24 -7.580474E+05 -1.435044E+05 -1.654038E+03 -3.335074E+05 -2.449977E+03  3.250995E+03
       174  25 -6.884337E+05 -1.178658E+05  1.449871E+04 -3.143197E+05  6.348901E+03 -2.992437E+03
       174  26 -7.575261E+05 -1.327513E+05  7.708322E+02 -3.223932E+05  4.248708E+03  9.922181E+02
       174  27 -8.113026E+05 -1.630492E+05 -1.335680E+04 -3.481176E+05  2.149261E+03  4.975329E+03
       175   1 -6.590991E+05 -1.070562E+05  2.019070E+04 -3.063979E+05  8.286044E+03 -3.843001E+03
       175   2 -6.052762E+05 -7.676382E+04  3.209151E+04 -2.806679E+05  1.167821E+04 -7.324212E+03
       175   3 -5.364030E+05 -6.210633E+04  4.256904E+04 -2.725655E+05  1.505523E+04 -1.076232E+04
       175   4 -7.581012E+05 -1.434921E+05 -2.134830E+03 -3.335270E+05  3.677760E+03 -5.570867E+03
       175   5 -7.656378E+05 -1.357683E+05 -3.759687E+03 -3.246771E+05  7.116436E+03 -9.035107E+03
       175   6 -7.581367E+05 -1.436892E+05 -6.844865E+03 -3.334566E+05  1.053976E+04 -1.245630E+04
       175   7 -8.570933E+05 -1.799272E+05 -2.446089E+04 -3.606521E+05 -9.297269E+02 -7.298435E+03
       175   8 -9.259728E+05 -1.947705E+05 -3.961227E+04 -3.686758E+05  2.555956E+03 -1.074552E+04
       175   9 -9.798194E+05 -2.252678E+05 -5.626137E+04 -3.943274E+05  6.026067E+03 -1.414961E+04
       175  10 -6.590992E+05 -1.070563E+05  2.019054E+04 -3.063979E+05 -1.061565E-09 -4.721875E-10
       175  11 -6.052764E+05 -7.676392E+04  3.209115E+04 -2.806679E+05 -3.154499E-10  1.054651E-10
       175  12 -5.364032E+05 -6.210652E+04  4.256839E+04 -2.725654E+05  5.776709E-10  2.571866E-10
       175  13 -7.581012E+05 -1.434921E+05 -2.134913E+03 -3.335270E+05  3.064369E-10 -2.403184E-10
       175  14 -7.656378E+05 -1.357684E+05 -3.759936E+03 -3.246771E+05  2.274214E-10 -1.434498E-11
       175  15 -7.581369E+05 -1.436894E+05 -6.845365E+03 -3.334565E+05  2.830672E-11  4.296330E-11
       175  16 -8.570933E+05 -1.799273E+05 -2.446099E+04 -3.606522E+05  7.937448E-10 -6.878435E-11
       175  17 -9.259728E+05 -1.947707E+05 -3.961250E+04 -3.686758E+05 -4.343952E-10 -8.314876E-11
       175  18 -9.798195E+05 -2.252680E+05 -5.626181E+04 -3.943273E+05 -4.809176E-10 -9.077397E-11
       175  19 -6.590991E+05 -1.070562E+05  2.019070E+04 -3.063979E+05 -8.286044E+03  3.843001E+03
       175  20 -6.052762E+05 -7.676382E+04  3.209151E+04 -2.806679E+05 -1.167821E+04  7.324212E+03
       175  21 -5.364030E+05 -6.210633E+04  4.256904E+04 -2.725655E+05 -1.505523E+04  1.076232E+04
       175  22 -7.581012E+05 -1.434921E+05 -2.134830E+03 -3.335270E+05 -3.677760E+03  5.570867E+03
       175  23 -7.656378E+05 -1.357683E+05 -3.759687E+03 -3.246771E+05 -7.116436E+03  9.035107E+03
       175  24 -7.581367E+05 -1.436892E+05 -6.844865E+03 -3.334566E+05 -1.053976E+04  1.245630E+04
       175  25 -8.570933E+05 -1.799272E+05 -2.446089E+04 -3.606521E+05  9.297269E+02  7.298435E+03
       175  26 -9.259728E+05 -1.947705E+05 -3.961227E+04 -3.686758E+05 -2.555956E+03  1.074552E+04
       175  27 -9.798194E+05 -2.252678E+05 -5.626137E+04 -3.943274E+05 -6.026067E+03  1.414961E+04
       176   1 -4.905484E+05 -4.546016E+04  5.092683E+04 -2.610532E+05  1.746388E+04 -1.268053E+04
       176   2 -4.371652E+05 -1.442209E+04  5.723403E+04 -2.336837E+05  2.632626E+04 -1.378960E+04
       176   3 -3.712794E+05 -3.685934E+03  5.669987E+04 -2.228264E+05  3.489023E+04 -1.409664E+04
       176   4 -7.585379E+05 -1.432993E+05 -9.054451E+03 -3.337602E+05  1.274412E+04 -1.445154E+04
       176   5 -7.651040E+05 -1.358683E+05 -1.641481E+04 -3.244529E+05  2.248385E+04 -1.523243E+04
       176   6 -7.593478E+05 -1.489171E+05 -3.131567E+04 -3.316607E+05  3.192430E+04 -1.521139E+04
       176   7 -1.026457E+06 -2.411340E+05 -6.904067E+04 -4.064391E+05  8.026531E+03 -1.622176E+04
       176   8 -1.092935E+06 -2.573066E+05 -9.007077E+04 -4.151784E+05  1.864362E+04 -1.667444E+04
       176   9 -1.147265E+06 -2.941358E+05 -1.193410E+05 -4.404324E+05  2.896038E+04 -1.632536E+04
       176  10 -4.905488E+05 -4.546042E+04  5.092595E+04 -2.610530E+05  1.116148E-10  8.512813E-11
       176  11 -4.371660E+05 -1.442248E+04  5.723237E+04 -2.336834E+05  6.216712E-11 -9.575160E-11
       176  12 -3.712807E+05 -3.686474E+03  5.669721E+04 -2.228260E+05 -6.234599E-10  2.160256E-11
       176  13 -7.585382E+05 -1.432996E+05 -9.055148E+03 -3.337601E+05  5.052841E-10 -5.467827E-11
       176  14 -7.651046E+05 -1.358687E+05 -1.641620E+04 -3.244526E+05  5.776841E-10 -1.029644E-10
       176  15 -7.593490E+05 -1.489176E+05 -3.131802E+04 -3.316603E+05  4.339810E-10 -5.014778E-11
       176  16 -1.026457E+06 -2.411343E+05 -6.904129E+04 -4.064390E+05  2.136399E-10 -1.753248E-10
       176  17 -1.092936E+06 -2.573070E+05 -9.007195E+04 -4.151782E+05  9.596541E-10 -1.879181E-10
       176  18 -1.147266E+06 -2.941364E+05 -1.193431E+05 -4.404320E+05  1.664136E-10  1.477157E-11
       176  19 -4.905484E+05 -4.546016E+04  5.092683E+04 -2.610532E+05 -1.746388E+04  1.268053E+04
       176  20 -4.371652E+05 -1.442209E+04  5.723403E+04 -2.336837E+05 -2.632626E+04  1.378960E+04
       176  21 -3.712794E+05 -3.685934E+03  5.669987E+04 -2.228264E+05 -3.489023E+04  1.409664E+04
       176  22 -7.585379E+05 -1.432993E+05 -9.054451E+03 -3.337602E+05 -1.274412E+04  1.445154E+04
       176  23 -7.651040E+05 -1.358683E+05 -1.641481E+04 -3.244529E+05 -2.248385E+04  1.523243E+04
       176  24 -7.593478E+05 -1.489171E+05 -3.131567E+04 -3.316607E+05 -3.192430E+04  1.521139E+04
       176  25 -1.026457E+06 -2.411340E+05 -6.904067E+04 -4.064391E+05 -8.026531E+03  1.622176E+04
       176  26 -1.092935E+06 -2.573066E+05 -9.007077E+04 -4.151784E+05 -1.864362E+04  1.667444E+04
       176  27 -1.147265E+06 -2.941358E+05 -1.193410E+05 -4.404324E+05 -2.896038E+04  1.632536E+04
       177   1 -3.172664E+05  8.839415E+03  5.776884E+04 -2.313501E+05  4.523499E+04 -1.401158E+04
       177   2 -2.816893E+05  5.954092E+04  4.250144E+04 -1.619399E+05  6.582678E+04 -4.562787E+03
       177   3 -2.739078E+05 -9.775780E+03 -1.741505E+04 -8.161716E+04  8.038582E+04  2.094893E+04
       177   4 -7.645456E+05 -1.398954E+05 -4.018182E+04 -3.375588E+05  3.803318E+04 -1.671587E+04
       177   5 -7.579570E+05 -1.422059E+05 -7.302492E+04 -3.189567E+05  7.627650E+04 -6.428723E+02
       177   6 -7.827044E+05 -2.680965E+05 -1.645410E+05 -2.894367E+05  1.084823E+05  3.149502E+04
       177   7 -1.211621E+06 -2.886229E+05 -1.381435E+05 -4.437007E+05  3.083704E+04 -1.941852E+04
       177   8 -1.233995E+06 -3.439156E+05 -1.885673E+05 -4.758562E+05  8.671751E+04  3.272696E+03
       177   9 -1.291238E+06 -5.263315E+05 -3.116883E+05 -4.970815E+05  1.365537E+05  4.202404E+04
       177  10 -3.172686E+05  8.838655E+03  5.776462E+04 -2.313496E+05  7.701453E-12  1.656042E-10
       177  11 -2.816939E+05  5.953974E+04  4.249325E+04 -1.619397E+05 -3.357774E-10  3.830149E-10
       177  12 -2.739148E+05 -9.777987E+03 -1.742802E+04 -8.161852E+04  3.647784E-10  2.888624E-10
       177  13 -7.645473E+05 -1.398960E+05 -4.018506E+04 -3.375582E+05  3.686686E-10  3.217113E-10
       177  14 -7.579633E+05 -1.422074E+05 -7.303586E+04 -3.189567E+05  2.218757E-10  2.343625E-10
       177  15 -7.827173E+05 -2.681007E+05 -1.645650E+05 -2.894395E+05 -3.303952E-10  8.175459E-11
       177  16 -1.211622E+06 -2.886236E+05 -1.381460E+05 -4.437002E+05 -3.504522E-10  1.476179E-10
       177  17 -1.234003E+06 -3.439176E+05 -1.885815E+05 -4.758565E+05 -2.114909E-11  3.550679E-10
       177  18 -1.291258E+06 -5.263384E+05 -3.117268E+05 -4.970861E+05 -4.526300E-10 -1.557866E-10
       177  19 -3.172664E+05  8.839415E+03  5.776884E+04 -2.313501E+05 -4.523499E+04  1.401158E+04
       177  20 -2.816893E+05  5.954092E+04  4.250144E+04 -1.619399E+05 -6.582678E+04  4.562787E+03
       177  21 -2.739078E+05 -9.775780E+03 -1.741505E+04 -8.161716E+04 -8.038582E+04 -2.094893E+04
       177  22 -7.645456E+05 -1.398954E+05 -4.018182E+04 -3.375588E+05 -3.803318E+04  1.671587E+04
       177  23 -7.579570E+05 -1.422059E+05 -7.302492E+04 -3.189567E+05 -7.627650E+04  6.428723E+02
       177  24 -7.827044E+05 -2.680965E+05 -1.645410E+05 -2.894367E+05 -1.084823E+05 -3.149502E+04
       177  25 -1.211621E+06 -2.886229E+05 -1.381435E+05 -4.437007E+05 -3.083704E+04  1.941852E+04
       177  26 -1.233995E+06 -3.439156E+05 -1.885673E+05 -4.758562E+05 -8.671751E+04 -3.272696E+03
       177  27 -1.291238E+06 -5.263315E+05 -3.116883E+05 -4.970815E+05 -1.365537E+05 -4.202404E+04
       178   1 -5.013232E+05 -1.371811E+05 -1.006234E+05  1.049442E+03  6.758559E+04  1.657263E+04
       178   2 -4.040928E+05 -2.496932E+05 -1.431925E+05 -3.456143E+04  5.877768E+04  5.299536E+04
       178   3 -2.746815E+05 -2.394603E+05 -1.492822E+05 -1.050476E+05  4.999986E+04  5.806020E+04
       178   4  6.989528E+05  1.601117E+05  1.867479E+05 -8.523417E+04  1.290034E+05  1.661688E+04
       178   5  6.797627E+05  1.307458E+04  8.718016E+04 -6.774633E+04  8.327344E+04  5.300092E+04
       178   6  6.990812E+05 -4.937194E+03  4.966608E+04 -8.512603E+04  3.757881E+04  5.805033E+04
       178   7  1.900573E+06  4.573303E+05  4.740357E+05 -1.716856E+05  1.905394E+05  1.664404E+04
       178   8  1.764729E+06  2.757706E+05  3.174884E+05 -1.009902E+05  1.078112E+05  5.300387E+04
       178   9  1.673746E+06  2.295281E+05  2.485650E+05 -6.517261E+04  2.513859E+04  5.803967E+04
       178  10 -5.013282E+05 -1.371827E+05 -1.006326E+05  1.048540E+03  6.933398E-10  1.975244E-10
       178  11 -4.040972E+05 -2.496971E+05 -1.432043E+05 -3.456394E+04  7.300001E-10 -2.411575E-10
       178  12 -2.746851E+05 -2.394646E+05 -1.492932E+05 -1.050500E+05  5.106368E-10 -1.385518E-10
       178  13  6.989348E+05  1.601069E+05  1.867162E+05 -8.523590E+04  1.017914E-09 -2.711146E-10
       178  14  6.797545E+05  1.306970E+04  8.716187E+04 -6.774989E+04  2.736412E-10 -8.893865E-11
       178  15  6.990788E+05 -4.941193E+03  4.965709E+04 -8.512778E+04  2.093216E-11 -1.535720E-11
       178  16  1.900534E+06  4.573203E+05  4.739672E+05 -1.716881E+05  2.122591E-10  2.644724E-10
       178  17  1.764716E+06  2.757645E+05  3.174614E+05 -1.009948E+05 -2.667796E-10 -4.278241E-10
       178  18  1.673745E+06  2.295243E+05  2.485575E+05 -6.517379E+04  1.377204E-10  1.603871E-10
       178  19 -5.013232E+05 -1.371811E+05 -1.006234E+05  1.049442E+03 -6.758559E+04 -1.657263E+04
       178  20 -4.040928E+05 -2.496932E+05 -1.431925E+05 -3.456143E+04 -5.877768E+04 -5.299536E+04
       178  21 -2.746815E+05 -2.394603E+05 -1.492822E+05 -1.050476E+05 -4.999986E+04 -5.806020E+04
       178  22  6.989528E+05  1.601117E+05  1.867479E+05 -8.523417E+04 -1.290034E+05 -1.661688E+04
       178  23  6.797627E+05  1.307458E+04  8.718016E+04 -6.774633E+04 -8.327344E+04 -5.300092E+04
       178  24  6.990812E+05 -4.937194E+03  4.966608E+04 -8.512603E+04 -3.757881E+04 -5.805033E+04
       178  25  1.900573E+06  4.573303E+05  4.740357E+05 -1.716856E+05 -1.905394E+05 -1.664404E+04
       178  26  1.764729E+06  2.757706E+05  3.174884E+05 -1.009902E+05 -1.078112E+05 -5.300387E+04
       178  27  1.673746E+06  2.295281E+05  2.485650E+05 -6.517261E+04 -2.513859E+04 -5.803967E+04
       179   1 -2.000783E+05 -2.084927E+05 -1.437557E+05 -8.355009E+04  3.567689E+04  5.250939E+04
       179   2 -8.903200E+04 -1.873270E+05 -1.369110E+05 -6.702909E+04  2.701439E+04  4.751783E+04
       179   3  2.465839E+04 -1.607392E+05 -1.230327E+05 -8.672948E+04  1.834560E+04  4.084378E+04
       179   4  6.912079E+05  6.234848E+03  3.881048E+04 -8.545150E+04  3.082929E+04  5.250238E+04
       179   5  6.897526E+05  3.363563E+01  2.134229E+04 -6.734247E+04  2.017437E+04  4.751299E+04
       179   6  6.912683E+05 -4.044966E+02  1.228177E+04 -8.545173E+04  9.514659E+03  4.084211E+04
       179   7  1.583248E+06  2.209126E+05  2.213345E+05 -8.735568E+04  2.597484E+04  5.249540E+04
       179   8  1.469114E+06  1.873565E+05  1.795641E+05 -6.765622E+04  1.332591E+04  4.750817E+04
       179   9  1.358301E+06  1.599026E+05  1.475734E+05 -8.417255E+04  6.744123E+02  4.084041E+04
       179  10 -2.000804E+05 -2.084960E+05 -1.437632E+05 -8.355160E+04 -2.550222E-10 -2.653320E-11
       179  11 -8.903339E+04 -1.873296E+05 -1.369166E+05 -6.703012E+04  6.000080E-10  6.589243E-11
       179  12  2.465758E+04 -1.607411E+05 -1.230365E+05 -8.673008E+04  7.210362E-10  1.106536E-10
       179  13  6.912061E+05  6.231632E+03  3.880352E+04 -8.545280E+04  4.316125E-10 -6.582642E-11
       179  14  6.897516E+05  3.110147E+01  2.133729E+04 -6.734324E+04  7.863011E-10  1.864897E-10
       179  15  6.912678E+05 -4.063127E+02  1.227846E+04 -8.545205E+04 -5.019203E-10 -4.864680E-12
       179  16  1.583247E+06  2.209094E+05  2.213281E+05 -8.735678E+04  5.660845E-10  5.181108E-10
       179  17  1.469113E+06  1.873541E+05  1.795595E+05 -6.765673E+04 -2.859484E-10  3.195351E-10
       179  18  1.358301E+06  1.599008E+05  1.475702E+05 -8.417257E+04 -6.596844E-10 -5.016623E-11
       179  19 -2.000783E+05 -2.084927E+05 -1.437557E+05 -8.355009E+04 -3.567689E+04 -5.250939E+04
       179  20 -8.903200E+04 -1.873270E+05 -1.369110E+05 -6.702909E+04 -2.701439E+04 -4.751783E+04
       179  21  2.465839E+04 -1.607392E+05 -1.230327E+05 -8.672948E+04 -1.834560E+04 -4.084378E+04
       179  22  6.912079E+05  6.234848E+03  3.881048E+04 -8.545150E+04 -3.082929E+04 -5.250238E+04
       179  23  6.897526E+05  3.363563E+01  2.134229E+04 -6.734247E+04 -2.017437E+04 -4.751299E+04
       179  24  6.912683E+05 -4.044966E+02  1.228177E+04 -8.545173E+04 -9.514659E+03 -4.084211E+04
       179  25  1.583248E+06  2.209126E+05  2.213345E+05 -8.735568E+04 -2.597484E+04 -5.249540E+04
       179  26  1.469114E+06  1.873565E+05  1.795641E+05 -6.765622E+04 -1.332591E+04 -4.750817E+04
       179  27  1.358301E+06  1.599026E+05  1.475734E+05 -8.417255E+04 -6.744123E+02 -4.084041E+04
       180   1  1.052945E+05 -1.406146E+05 -1.089675E+05 -8.568215E+04  1.601521E+04  3.650645E+04
       180   2  2.170306E+05 -1.139260E+05 -9.048901E+04 -6.749623E+04  1.345338E+04  2.930732E+04
       180   3  3.292072E+05 -8.695979E+04 -7.026737E+04 -8.547687E+04  1.088761E+04  2.202376E+04
       180   4  6.907283E+05  9.085237E+01  9.373909E+03 -8.543997E+04  7.601396E+03  3.650620E+04
       180   5  6.905227E+05 -9.983038E+01  5.382645E+03 -6.735760E+04  4.937260E+03  2.930898E+04
       180   6  6.907626E+05  5.129497E+00  3.204140E+03 -8.544015E+04  2.269627E+03  2.202739E+04
       180   7  1.276488E+06  1.407752E+05  1.276979E+05 -8.519752E+04 -8.202058E+02  3.650594E+04
       180   8  1.164228E+06  1.137125E+05  1.012430E+05 -6.721883E+04 -3.585233E+03  2.931063E+04
       180   9  1.052442E+06  8.696195E+04  7.666910E+04 -8.540339E+04 -6.353276E+03  2.203102E+04
       180  10  1.052938E+05 -1.406161E+05 -1.089705E+05 -8.568262E+04 -2.015230E-10 -9.765415E-11
       180  11  2.170302E+05 -1.139270E+05 -9.049097E+04 -6.749654E+04 -2.822318E-10 -9.631823E-11
       180  12  3.292070E+05 -8.696034E+04 -7.026850E+04 -8.547707E+04 -1.429515E-09  3.557018E-11
       180  13  6.907279E+05  8.940528E+01  9.371295E+03 -8.544020E+04 -5.639058E-10 -2.275214E-10
       180  14  6.905225E+05 -1.007597E+02  5.380985E+03 -6.735771E+04 -1.802799E-09 -1.395601E-11
       180  15  6.907625E+05  4.606911E+00  3.203218E+03 -8.544019E+04 -1.500997E-09  3.657034E-11
       180  16  1.276488E+06  1.407737E+05  1.276954E+05 -8.519749E+04  4.251315E-10 -3.305739E-10
       180  17  1.164228E+06  1.137116E+05  1.012413E+05 -6.721874E+04 -8.938066E-10 -4.936399E-10
       180  18  1.052442E+06  8.696142E+04  7.666811E+04 -8.540328E+04 -3.587570E-10 -9.230594E-10
       180  19  1.052945E+05 -1.406146E+05 -1.089675E+05 -8.568215E+04 -1.601521E+04 -3.650645E+04
       180  20  2.170306E+05 -1.139260E+05 -9.048901E+04 -6.749623E+04 -1.345338E+04 -2.930732E+04
       180  21  3.292072E+05 -8.695979E+04 -7.026737E+04 -8.547687E+04 -1.088761E+04 -2.202376E+04
       180  22  6.907283E+05  9.085237E+01  9.373909E+03 -8.543997E+04 -7.601396E+03 -3.650620E+04
       180  23  6.905227E+05 -9.983038E+01  5.382645E+03 -6.735760E+04 -4.937260E+03 -2.930898E+04
       180  24  6.907626E+05  5.129497E+00  3.204140E+03 -8.544015E+04 -2.269627E+03 -2.202739E+04
       180  25  1.276488E+06  1.407752E+05  1.276979E+05 -8.519752E+04  8.202058E+02 -3.650594E+04
       180  26  1.164228E+06  1.137125E+05  1.012430E+05 -6.721883E+04  3.585233E+03 -2.931063E+04
       180  27  1.052442E+06  8.696195E+04  7.666910E+04 -8.540339E+04  6.353276E+03 -2.203102E+04
       181   1  4.100540E+05 -6.736429E+04 -5.399591E+04 -8.542895E+04  1.034081E+04  1.776350E+04
       181   2  5.217677E+05 -4.056156E+04 -3.249973E+04 -6.736421E+04  9.510713E+03  1.046062E+04
       181   3  6.335763E+05 -1.370915E+04 -1.046134E+04 -8.539857E+04  8.679232E+03  3.155506E+03
       181   4  6.906934E+05  3.185924E+01  2.516163E+03 -8.542537E+04  1.749247E+03  1.776791E+04
       181   5  6.906569E+05  2.951449E+01  1.680461E+03 -6.737612E+04  9.155406E+02  1.046570E+04
       181   6  6.907055E+05  7.848478E+01  1.389810E+03 -8.542538E+04  8.059624E+01  3.161285E+03
       181   7  9.714081E+05  6.742319E+04  5.902448E+04 -8.542177E+04 -6.846124E+03  1.777231E+04
       181   8  8.595734E+05  4.061886E+04  3.585945E+04 -6.738802E+04 -7.681924E+03  1.047077E+04
       181   9  7.478378E+05  1.386595E+04  1.324106E+04 -8.545218E+04 -8.518817E+03  3.167064E+03
       181  10  4.100538E+05 -6.736466E+04 -5.399671E+04 -8.542910E+04 -6.722080E-10  2.906282E-10
       181  11  5.217676E+05 -4.056170E+04 -3.250011E+04 -6.736429E+04  1.369603E-09 -2.170265E-11
       181  12  6.335762E+05 -1.370918E+04 -1.046150E+04 -8.539859E+04  2.977007E-10  2.599117E-10
       181  13  6.906934E+05  3.151929E+01  2.515564E+03 -8.542539E+04 -9.443025E-10 -6.893428E-10
       181  14  6.906569E+05  2.939661E+01  1.680254E+03 -6.737613E+04 -1.201983E-09  2.115701E-10
       181  15  6.907055E+05  7.847405E+01  1.389791E+03 -8.542538E+04 -1.456951E-10  3.167469E-10
       181  16  9.714079E+05  6.742284E+04  5.902380E+04 -8.542167E+04 -2.398853E-10 -5.948801E-10
       181  17  8.595733E+05  4.061873E+04  3.585914E+04 -6.738796E+04 -1.173918E-09  9.356201E-11
       181  18  7.478378E+05  1.386592E+04  1.324090E+04 -8.545216E+04 -4.114115E-11  3.680902E-10
       181  19  4.100540E+05 -6.736429E+04 -5.399591E+04 -8.542895E+04 -1.034081E+04 -1.776350E+04
       181  20  5.217677E+05 -4.056156E+04 -3.249973E+04 -6.736421E+04 -9.510713E+03 -1.046062E+04
       181  21  6.335763E+05 -1.370915E+04 -1.046134E+04 -8.539857E+04 -8.679232E+03 -3.155506E+03
       181  22  6.906934E+05  3.185924E+01  2.516163E+03 -8.542537E+04 -1.749247E+03 -1.776791E+04
       181  23  6.906569E+05  2.951449E+01  1.680461E+03 -6.737612E+04 -9.155406E+02 -1.046570E+04
       181  24  6.907055E+05  7.848478E+01  1.389810E+03 -8.542538E+04 -8.059624E+01 -3.161285E+03
       181  25  9.714081E+05  6.742319E+04  5.902448E+04 -8.542177E+04  6.846124E+03 -1.777231E+04
       181  26  8.595734E+05  4.061886E+04  3.585945E+04 -6.738802E+04  7.681924E+03 -1.047077E+04
       181  27  7.478378E+05  1.386595E+04  1.324106E+04 -8.545218E+04  8.518817E+03 -3.167064E+03
       182   1  7.144343E+05  5.839129E+03  6.498785E+03 -8.542908E+04  8.421995E+03 -1.096530E+03
       182   2  8.261546E+05  3.259049E+04  2.918981E+04 -6.736669E+04  7.539337E+03 -8.399897E+03
       182   3  9.379772E+05  5.939505E+04  5.245697E+04 -8.539893E+04  6.657516E+03 -1.570072E+04
       182   4  6.907067E+05  7.894316E+01  1.406620E+03 -8.542462E+04 -1.768877E+02 -1.090711E+03
       182   5  6.906578E+05  3.095421E+01  1.772194E+03 -6.737706E+04 -1.057176E+03 -8.394649E+03
       182   6  6.906970E+05  3.598431E+01  2.712033E+03 -8.542461E+04 -1.936474E+03 -1.569600E+04
       182   7  6.669798E+05 -5.681239E+03 -3.685301E+03 -8.542017E+04 -8.775447E+03 -1.084892E+03
       182   8  5.551785E+05 -3.252968E+04 -2.564609E+04 -6.738743E+04 -9.651850E+03 -8.389400E+03
       182   9  4.434752E+05 -5.932681E+04 -4.703575E+04 -8.545027E+04 -1.052711E+04 -1.569129E+04
       182  10  7.144342E+05  5.839108E+03  6.498650E+03 -8.542907E+04  6.707471E-10  5.150455E-10
       182  11  8.261545E+05  3.259040E+04  2.918957E+04 -6.736664E+04 -3.501827E-10  1.900731E-10
       182  12  9.379771E+05  5.939477E+04  5.245642E+04 -8.539885E+04 -5.701113E-11 -7.587206E-10
       182  13  6.907067E+05  7.894187E+01  1.406617E+03 -8.542462E+04 -5.047793E-10  4.284480E-10
       182  14  6.906577E+05  3.087821E+01  1.772059E+03 -6.737707E+04 -9.078964E-11 -5.932284E-10
       182  15  6.906969E+05  3.571866E+01  2.711563E+03 -8.542464E+04 -1.046419E-10 -1.672370E-10
       182  16  6.669797E+05 -5.681261E+03 -3.685448E+03 -8.542018E+04 -8.622573E-10  7.242259E-10
       182  17  5.551784E+05 -3.252978E+04 -2.564640E+04 -6.738749E+04 -3.133830E-10 -1.408380E-10
       182  18  4.434750E+05 -5.932711E+04 -4.703642E+04 -8.545040E+04 -5.005441E-10 -5.958036E-11
       182  19  7.144343E+05  5.839129E+03  6.498785E+03 -8.542908E+04 -8.421995E+03  1.096530E+03
       182  20  8.261546E+05  3.259049E+04  2.918981E+04 -6.736669E+04 -7.539337E+03  8.399897E+03
       182  21  9.379772E+05  5.939505E+04  5.245697E+04 -8.539893E+04 -6.657516E+03  1.570072E+04
       182  22  6.907067E+05  7.894316E+01  1.406620E+03 -8.542462E+04  1.768877E+02  1.090711E+03
       182  23  6.906578E+05  3.095421E+01  1.772194E+03 -6.737706E+04  1.057176E+03  8.394649E+03
       182  24  6.906970E+05  3.598431E+01  2.712033E+03 -8.542461E+04  1.936474E+03  1.569600E+04
       182  25  6.669798E+05 -5.681239E+03 -3.685301E+03 -8.542017E+04  8.775447E+03  1.084892E+03
       182  26  5.551785E+05 -3.252968E+04 -2.564609E+04 -6.738743E+04  9.651850E+03  8.389400E+03
       182  27  4.434752E+05 -5.932681E+04 -4.703575E+04 -8.545027E+04  1.052711E+04  1.569129E+04
       183   1  1.018999E+06  7.892934E+04  7.017026E+04 -8.537705E+04  6.121400E+03 -1.995852E+04
       183   2  1.130735E+06  1.056702E+05  9.495154E+04 -6.719958E+04  3.116477E+03 -2.723710E+04
       183   3  1.242973E+06  1.327488E+05  1.217721E+05 -8.517473E+04  1.142811E+02 -3.443336E+04
       183   4  6.907729E+05  8.549499E+00  3.471885E+03 -8.543777E+04 -2.498968E+03 -1.995449E+04
       183   5  6.905200E+05 -9.809023E+01  5.865268E+03 -6.736057E+04 -5.405774E+03 -2.723492E+04
       183   6  6.907408E+05  1.169335E+02  1.023122E+04 -8.543756E+04 -8.309331E+03 -3.443296E+04
       183   7  3.626489E+05 -7.891891E+04 -6.323184E+04 -8.549843E+04 -1.111487E+04 -1.995047E+04
       183   8  2.504893E+05 -1.058784E+05 -8.323077E+04 -6.752141E+04 -1.392211E+04 -2.723274E+04
       183   9  1.387987E+05 -1.325338E+05 -1.013251E+05 -8.570010E+04 -1.672560E+04 -3.443255E+04
       183  10  1.018999E+06  7.892891E+04  7.016944E+04 -8.537696E+04  6.507654E-10 -7.713772E-10
       183  11  1.130735E+06  1.056694E+05  9.495013E+04 -6.719951E+04  4.087197E-10 -4.399647E-10
       183  12  1.242973E+06  1.327475E+05  1.217698E+05 -8.517473E+04 -1.202475E-09  3.852064E-10
       183  13  6.907727E+05  8.120099E+00  3.471125E+03 -8.543781E+04 -6.465052E-10 -2.651680E-10
       183  14  6.905198E+05 -9.889485E+01  5.863819E+03 -6.736069E+04 -6.835524E-10 -7.417053E-10
       183  15  6.907404E+05  1.156413E+02  1.022886E+04 -8.543779E+04  1.126118E-09  1.197649E-10
       183  16  3.626486E+05 -7.891937E+04 -6.323282E+04 -8.549860E+04 -1.681216E-09 -2.547803E-10
       183  17  2.504889E+05 -1.058792E+05 -8.323253E+04 -6.752172E+04 -3.227971E-11 -1.843946E-10
       183  18  1.387981E+05 -1.325351E+05 -1.013278E+05 -8.570057E+04  6.400608E-10  2.176116E-10
       183  19  1.018999E+06  7.892934E+04  7.017026E+04 -8.537705E+04 -6.121400E+03  1.995852E+04
       183  20  1.130735E+06  1.056702E+05  9.495154E+04 -6.719958E+04 -3.116477E+03  2.723710E+04
       183  21  1.242973E+06  1.327488E+05  1.217721E+05 -8.517473E+04 -1.142811E+02  3.443336E+04
       183  22  6.907729E+05  8.549499E+00  3.471885E+03 -8.543777E+04  2.498968E+03  1.995449E+04
       183  23  6.905200E+05 -9.809023E+01  5.865268E+03 -6.736057E+04  5.405774E+03  2.723492E+04
       183  24  6.907408E+05  1.169335E+02  1.023122E+04 -8.543756E+04  8.309331E+03  3.443296E+04
       183  25  3.626489E+05 -7.891891E+04 -6.323184E+04 -8.549843E+04  1.111487E+04  1.995047E+04
       183  26  2.504893E+05 -1.058784E+05 -8.323077E+04 -6.752141E+04  1.392211E+04  2.723274E+04
       183  27  1.387987E+05 -1.325338E+05 -1.013251E+05 -8.570010E+04  1.672560E+04  3.443255E+04
       184   1  1.324798E+06  1.518252E+05  1.419121E+05 -8.406210E+04 -1.567794E+03 -3.876421E+04
       184   2  1.435434E+06  1.793145E+05  1.747222E+05 -6.772755E+04 -1.515082E+04 -4.544635E+04
       184   3  1.549626E+06  2.134288E+05  2.180447E+05 -8.759298E+04 -2.873155E+04 -5.049380E+04
       184   4  6.913302E+05 -4.215673E+02  1.340924E+04 -8.544826E+04 -1.039820E+04 -3.876516E+04
       184   5  6.896928E+05  6.677758E+01  2.331346E+04 -6.734675E+04 -2.204300E+04 -4.545040E+04
       184   6  6.912717E+05  6.850662E+03  4.239555E+04 -8.544760E+04 -3.368313E+04 -5.050006E+04
       184   7  5.824347E+04 -1.526932E+05 -1.151142E+05 -8.683293E+04 -1.921978E+04 -3.876606E+04
       184   8 -5.551999E+04 -1.792155E+05 -1.281241E+05 -6.696638E+04 -2.892706E+04 -4.545446E+04
       184   9 -1.663845E+05 -1.997736E+05 -1.332926E+05 -8.330522E+04 -3.862797E+04 -5.050635E+04
       184  10  1.324798E+06  1.518235E+05  1.419092E+05 -8.406215E+04  1.035232E-09  7.229222E-10
       184  11  1.435433E+06  1.793122E+05  1.747179E+05 -6.772810E+04  5.892384E-10  3.347428E-10
       184  12  1.549625E+06  2.134259E+05  2.180384E+05 -8.759415E+04  2.239774E-11 -1.050908E-11
       184  13  6.913297E+05 -4.232105E+02  1.340621E+04 -8.544858E+04  5.386674E-10  5.803969E-10
       184  14  6.896918E+05  6.442824E+01  2.330866E+04 -6.734755E+04 -2.475495E-10  1.538456E-10
       184  15  6.912698E+05  6.847618E+03  4.238862E+04 -8.544897E+04  1.108308E-09  1.289935E-11
       184  16  5.824267E+04 -1.526949E+05 -1.151177E+05 -8.683353E+04 -3.288197E-10  5.032409E-10
       184  17 -5.552144E+04 -1.792179E+05 -1.281295E+05 -6.696744E+04 -1.169824E-09  9.031511E-11
       184  18 -1.663868E+05 -1.997768E+05 -1.333002E+05 -8.330679E+04 -7.368518E-10 -4.225155E-11
       184  19  1.324798E+06  1.518252E+05  1.419121E+05 -8.406210E+04  1.567794E+03  3.876421E+04
       184  20  1.435434E+06  1.793145E+05  1.747222E+05 -6.772755E+04  1.515082E+04  4.544635E+04
       184  21  1.549626E+06  2.134288E+05  2.180447E+05 -8.759298E+04  2.873155E+04  5.049380E+04
       184  22  6.913302E+05 -4.215673E+02  1.340924E+04 -8.544826E+04  1.039820E+04  3.876516E+04
       184  23  6.896928E+05  6.677758E+01  2.331346E+04 -6.734675E+04  2.204300E+04  4.545040E+04
       184  24  6.912717E+05  6.850662E+03  4.239555E+04 -8.544760E+04  3.368313E+04  5.050006E+04
       184  25  5.824347E+04 -1.526932E+05 -1.151142E+05 -8.683293E+04  1.921978E+04  3.876606E+04
       184  26 -5.551999E+04 -1.792155E+05 -1.281241E+05 -6.696638E+04  2.892706E+04  4.545446E+04
       184  27 -1.663845E+05 -1.997736E+05 -1.332926E+05 -8.330522E+04  3.862797E+04  5.050635E+04
       185   1  1.640771E+06  2.210020E+05  2.462871E+05 -6.342460E+04 -2.872818E+04 -5.600160E+04
       185   2  1.729996E+06  2.688695E+05  3.184292E+05 -1.041801E+05 -1.146182E+05 -5.129653E+04
       185   3  1.867408E+06  4.637770E+05  4.832149E+05 -1.798380E+05 -2.005608E+05 -1.612338E+04
       185   4  6.998709E+05 -5.348246E+03  5.425418E+04 -8.513167E+04 -4.105653E+04 -5.601067E+04
       185   5  6.787997E+05  1.433556E+04  9.524316E+04 -6.773845E+04 -9.097780E+04 -5.129653E+04
       185   6  6.997400E+05  1.749473E+05  2.040080E+05 -8.523586E+04 -1.409307E+05 -1.610705E+04
       185   7 -2.401878E+05 -2.317519E+05 -1.378246E+05 -1.068053E+05 -5.336653E+04 -5.601889E+04
       185   8 -3.713532E+05 -2.402646E+05 -1.280033E+05 -3.135933E+04 -6.737659E+04 -5.129376E+04
       185   9 -4.666542E+05 -1.139455E+05 -7.527685E+04  9.187932E+03 -8.141175E+04 -1.607259E+04
       185  10  1.640769E+06  2.209984E+05  2.462797E+05 -6.342589E+04  2.032946E-10  8.584214E-11
       185  11  1.729981E+06  2.688632E+05  3.183997E+05 -1.041849E+05 -4.028983E-10 -2.755576E-11
       185  12  1.867365E+06  4.637660E+05  4.831391E+05 -1.798407E+05  3.396522E-10 -1.764921E-10
       185  13  6.998683E+05 -5.352068E+03  5.424512E+04 -8.513352E+04  2.497674E-10  2.938034E-10
       185  14  6.787901E+05  1.433052E+04  9.522267E+04 -6.774221E+04  1.433061E-09  9.240737E-10
       185  15  6.997187E+05  1.749417E+05  2.039703E+05 -8.523769E+04  3.459886E-10 -1.677668E-10
       185  16 -2.401917E+05 -2.317561E+05 -1.378359E+05 -1.068077E+05 -6.062010E-11  5.440669E-11
       185  17 -3.713588E+05 -2.402687E+05 -1.280168E+05 -3.136211E+04 -9.581554E-10 -4.255414E-11
       185  18 -4.666614E+05 -1.139475E+05 -7.528980E+04  9.186878E+03 -2.006864E-10 -4.096403E-10
       185  19  1.640771E+06  2.210020E+05  2.462871E+05 -6.342460E+04  2.872818E+04  5.600160E+04
       185  20  1.729996E+06  2.688695E+05  3.184292E+05 -1.041801E+05  1.146182E+05  5.129653E+04
       185  21  1.867408E+06  4.637770E+05  4.832149E+05 -1.798380E+05  2.005608E+05  1.612338E+04
       185  22  6.998709E+05 -5.348246E+03  5.425418E+04 -8.513167E+04  4.105653E+04  5.601067E+04
       185  23  6.787997E+05  1.433556E+04  9.524316E+04 -6.773845E+04  9.097780E+04  5.129653E+04
       185  24  6.997400E+05  1.749473E+05  2.040080E+05 -8.523586E+04  1.409307E+05  1.610705E+04
       185  25 -2.401878E+05 -2.317519E+05 -1.378246E+05 -1.068053E+05  5.336653E+04  5.601889E+04
       185  26 -3.713532E+05 -2.402646E+05 -1.280033E+05 -3.135933E+04  6.737659E+04  5.129376E+04
       185  27 -4.666542E+05 -1.139455E+05 -7.527685E+04  9.187932E+03  8.141175E+04  1.607259E+04
       186   1  4.470653E+05  1.708343E+06  4.475944E+05 -3.850799E+05  1.637223E+04  1.149521E+05
       186   2  2.635448E+05  1.241451E+06  2.679426E+05 -2.892308E+05  4.619684E+04  4.452246E+04
       186   3  1.457617E+05  8.000307E+05  1.504256E+05 -3.375309E+05  3.375829E+04 -2.591426E+04
       186   4  7.102996E+04  1.929661E+05  8.184873E+04 -3.448605E+05  1.649054E+04  5.499643E+04
       186   5  6.609529E+03  1.847667E+05  3.942541E+04 -2.728529E+05  4.622421E+04  3.442205E+04
       186   6 -6.353604E+02  1.932691E+05  2.463186E+04 -3.449923E+05  3.366753E+04  1.378824E+04
       186   7 -3.051654E+05 -1.320304E+06 -2.840471E+05 -3.047380E+05  1.660127E+04 -4.813857E+03
       186   8 -2.503984E+05 -8.708702E+05 -1.891574E+05 -2.565025E+05  4.625107E+04  2.433853E+04
       186   9 -1.470547E+05 -4.131405E+05 -1.011760E+05 -3.524459E+05  3.357576E+04  5.345264E+04
       186  10  4.470615E+05  1.708329E+06  4.475691E+05 -3.850814E+05  9.243590E-11  4.948100E-10
       186  11  2.635419E+05  1.241448E+06  2.679348E+05 -2.892325E+05 -9.793865E-10  5.280873E-10
       186  12  1.457603E+05  8.000296E+05  1.504222E+05 -3.375302E+05 -1.429831E-09 -1.198450E-09
       186  13  7.102885E+04  1.929628E+05  8.184253E+04 -3.448613E+05  5.676733E-10 -3.814784E-10
       186  14  6.606916E+03  1.847648E+05  3.941916E+04 -2.728542E+05 -7.602628E-10  4.433311E-10
       186  15 -6.366291E+02  1.932686E+05  2.462937E+04 -3.449926E+05 -4.212928E-10  2.733271E-10
       186  16 -3.051657E+05 -1.320304E+06 -2.840477E+05 -3.047379E+05  8.079807E-11 -1.406494E-10
       186  17 -2.504008E+05 -8.708714E+05 -1.891625E+05 -2.565034E+05  9.286780E-10  1.900304E-10
       186  18 -1.470567E+05 -4.131439E+05 -1.011835E+05 -3.524474E+05 -3.817818E-10  1.778798E-09
       186  19  4.470653E+05  1.708343E+06  4.475944E+05 -3.850799E+05 -1.637223E+04 -1.149521E+05
       186  20  2.635448E+05  1.241451E+06  2.679426E+05 -2.892308E+05 -4.619684E+04 -4.452246E+04
       186  21  1.457617E+05  8.000307E+05  1.504256E+05 -3.375309E+05 -3.375829E+04  2.591426E+04
       186  22  7.102996E+04  1.929661E+05  8.184873E+04 -3.448605E+05 -1.649054E+04 -5.499643E+04
       186  23  6.609529E+03  1.847667E+05  3.942541E+04 -2.728529E+05 -4.622421E+04 -3.442205E+04
       186  24 -6.353604E+02  1.932691E+05  2.463186E+04 -3.449923E+05 -3.366753E+04 -1.378824E+04
       186  25 -3.051654E+05 -1.320304E+06 -2.840471E+05 -3.047380E+05 -1.660127E+04  4.813857E+03
       186  26 -2.503984E+05 -8.708702E+05 -1.891574E+05 -2.565025E+05 -4.625107E+04 -2.433853E+04
       186  27 -1.470547E+05 -4.131405E+05 -1.011760E+05 -3.524459E+05 -3.357576E+04 -5.345264E+04
       187   1  7.110491E+04  4.668489E+05  7.891120E+04 -3.472409E+05  1.466924E+04 -1.993894E+04
       187   2 -4.125354E+04  1.247058E+04 -1.953851E+04 -2.720676E+05 -1.067116E+04 -2.760787E+04
       187   3 -1.487340E+05 -4.401134E+05 -1.119566E+05 -3.431323E+05 -3.552918E+04 -3.526585E+04
       187   4  4.147553E+03  1.899945E+05  2.091681E+04 -3.454284E+05  1.459662E+04  1.017498E+04
       187   5  1.260859E+03  1.891204E+05  1.639852E+04 -2.723122E+05 -1.073950E+04  1.929959E+03
       187   6  3.363325E+03  1.899445E+05  1.831724E+04 -3.454300E+05 -3.559392E+04 -6.309468E+03
       187   7 -6.281422E+04 -8.678557E+04 -3.707845E+04 -3.436166E+05  1.452416E+04  4.027569E+04
       187   8  4.377378E+04  3.658017E+05  5.233719E+04 -2.725568E+05 -1.080786E+04  3.147603E+04
       187   9  1.554360E+05  8.203807E+05  1.485727E+05 -3.477298E+05 -3.565883E+04  2.267581E+04
       187  10  7.110458E+04  4.668484E+05  7.891005E+04 -3.472406E+05 -1.873397E-09  1.030007E-09
       187  11 -4.125387E+04  1.246974E+04 -1.954016E+04 -2.720679E+05 -2.705316E-10  9.891867E-10
       187  12 -1.487357E+05 -4.401151E+05 -1.119613E+05 -3.431333E+05 -1.014468E-10 -1.254386E-09
       187  13  4.147297E+03  1.899943E+05  2.091621E+04 -3.454285E+05 -1.035619E-09 -4.612635E-10
       187  14  1.260734E+03  1.891203E+05  1.639829E+04 -2.723122E+05  7.454232E-10  4.739703E-10
       187  15  3.361953E+03  1.899441E+05  1.831478E+04 -3.454302E+05 -7.798225E-10  2.176231E-10
       187  16 -6.281488E+04 -8.678737E+04 -3.708189E+04 -3.436171E+05 -3.824156E-10 -5.108128E-10
       187  17  4.377339E+04  3.658006E+05  5.233511E+04 -2.725565E+05 -5.380421E-10 -2.302067E-10
       187  18  1.554345E+05  8.203798E+05  1.485694E+05 -3.477292E+05  5.612899E-10  1.871652E-09
       187  19  7.110491E+04  4.668489E+05  7.891120E+04 -3.472409E+05 -1.466924E+04  1.993894E+04
       187  20 -4.125354E+04  1.247058E+04 -1.953851E+04 -2.720676E+05  1.067116E+04  2.760787E+04
       187  21 -1.487340E+05 -4.401134E+05 -1.119566E+05 -3.431323E+05  3.552918E+04  3.526585E+04
       187  22  4.147553E+03  1.899945E+05  2.091681E+04 -3.454284E+05 -1.459662E+04 -1.017498E+04
       187  23  1.260859E+03  1.891204E+05  1.639852E+04 -2.723122E+05  1.073950E+04 -1.929959E+03
       187  24  3.363325E+03  1.899445E+05  1.831724E+04 -3.454300E+05  3.559392E+04  6.309468E+03
       187  25 -6.281422E+04 -8.678557E+04 -3.707845E+04 -3.436166E+05 -1.452416E+04 -4.027569E+04
       187  26  4.377378E+04  3.658017E+05  5.233719E+04 -2.725568E+05  1.080786E+04 -3.147603E+04
       187  27  1.554360E+05  8.203807E+05  1.485727E+05 -3.477298E+05  3.565883E+04 -2.267581E+04
       188   1 -2.319524E+05 -7.674443E+05 -1.772091E+05 -3.499572E+05 -5.492358E+04 -5.024498E+04
       188   2 -3.374826E+05 -1.222661E+06 -2.717956E+05 -2.595895E+05 -6.410695E+04 -6.357865E+03
       188   3 -4.085387E+05 -1.674772E+06 -3.863910E+05 -3.129514E+05 -2.196973E+04  3.755188E+04
       188   4 -3.555049E+02  1.924264E+05  2.069775E+04 -3.448848E+05 -5.500781E+04 -9.448603E+03
       188   5  5.030955E+03  1.855492E+05  3.139689E+04 -2.729909E+05 -6.406107E+04 -2.584249E+04
       188   6  5.532661E+04  1.920259E+05  6.395964E+04 -3.447947E+05 -2.184891E+04 -4.218126E+04
       188   7  2.311842E+05  1.153175E+06  2.185613E+05 -3.398036E+05 -5.509129E+04  3.140981E+04
       188   8  3.474149E+05  1.595626E+06  3.344744E+05 -2.864219E+05 -6.401442E+04 -4.537072E+04
       188   9  5.189443E+05  2.062032E+06  5.140854E+05 -3.767322E+05 -2.172013E+04 -1.221536E+05
       188  10 -2.319564E+05 -7.674479E+05 -1.772195E+05 -3.499595E+05 -4.042118E-10  2.964873E-10
       188  11 -3.374870E+05 -1.222662E+06 -2.718034E+05 -2.595899E+05  1.424764E-09  9.707362E-10
       188  12 -4.085396E+05 -1.674774E+06 -3.863946E+05 -3.129508E+05  1.424607E-10 -4.833612E-10
       188  13 -3.587788E+02  1.924254E+05  2.069189E+04 -3.448852E+05  7.796336E-10 -4.806100E-10
       188  14  5.026368E+03  1.855474E+05  3.138792E+04 -2.729922E+05  9.141309E-10  2.195818E-10
       188  15  5.532562E+04  1.920239E+05  6.395540E+04 -3.447954E+05  4.002301E-10  1.224965E-10
       188  16  2.311807E+05  1.153173E+06  2.185537E+05 -3.398022E+05 -6.900198E-10  1.929563E-10
       188  17  3.474099E+05  1.595623E+06  3.344629E+05 -2.864242E+05  1.410120E-09 -6.241783E-10
       188  18  5.189398E+05  2.062016E+06  5.140566E+05 -3.767343E+05  5.519867E-10  6.242128E-10
       188  19 -2.319524E+05 -7.674443E+05 -1.772091E+05 -3.499572E+05  5.492358E+04  5.024498E+04
       188  20 -3.374826E+05 -1.222661E+06 -2.717956E+05 -2.595895E+05  6.410695E+04  6.357865E+03
       188  21 -4.085387E+05 -1.674772E+06 -3.863910E+05 -3.129514E+05  2.196973E+04 -3.755188E+04
       188  22 -3.555049E+02  1.924264E+05  2.069775E+04 -3.448848E+05  5.500781E+04  9.448603E+03
       188  23  5.030955E+03  1.855492E+05  3.139689E+04 -2.729909E+05  6.406107E+04  2.584249E+04
       188  24  5.532661E+04  1.920259E+05  6.395964E+04 -3.447947E+05  2.184891E+04  4.218126E+04
       188  25  2.311842E+05  1.153175E+06  2.185613E+05 -3.398036E+05  5.509129E+04 -3.140981E+04
       188  26  3.474149E+05  1.595626E+06  3.344744E+05 -2.864219E+05  6.401442E+04  4.537072E+04
       188  27  5.189443E+05  2.062032E+06  5.140854E+05 -3.767322E+05  2.172013E+04  1.221536E+05
       189   1 -2.073933E+06 -8.249620E+05 -4.920145E+05 -7.888980E+05 -2.256541E+05 -7.126211E+04
       189   2 -2.006157E+06 -5.307405E+05 -2.941680E+05 -7.665122E+05 -1.441124E+05 -1.083515E+04
       189   3 -2.005255E+06 -4.445739E+05 -2.166043E+05 -7.159371E+05 -5.394873E+04  2.672449E+04
       189   4 -1.359005E+06 -4.413095E+05 -2.812269E+05 -4.760845E+05 -1.845751E+05 -5.586436E+04
       189   5 -1.312523E+06 -2.302776E+05 -1.247938E+05 -5.313013E+05 -1.280918E+05 -4.829073E+03
       189   6 -1.327855E+06 -2.222141E+05 -6.865764E+04 -5.583571E+05 -6.299893E+04  2.332306E+04
       189   7 -6.435382E+05 -5.744111E+04 -7.047844E+04 -1.628896E+05 -1.434441E+05 -4.042790E+04
       189   8 -6.184009E+05  7.027221E+04  4.454570E+04 -2.958321E+05 -1.120517E+05  1.187139E+03
       189   9 -6.499962E+05  1.563534E+02  7.926098E+04 -4.006306E+05 -7.205979E+04  1.991866E+04
       189  10 -2.073989E+06 -8.249812E+05 -4.921201E+05 -7.889110E+05 -5.408893E-10 -1.405513E-10
       189  11 -2.006179E+06 -5.307463E+05 -2.942073E+05 -7.665135E+05 -6.604251E-11 -2.177623E-10
       189  12 -2.005259E+06 -4.445754E+05 -2.166111E+05 -7.159360E+05  7.426854E-10 -4.522012E-10
       189  13 -1.359043E+06 -4.413220E+05 -2.812970E+05 -4.760928E+05 -6.680546E-10 -4.540681E-10
       189  14 -1.312540E+06 -2.302821E+05 -1.248247E+05 -5.313018E+05 -1.472591E-09 -2.881015E-10
       189  15 -1.327859E+06 -2.222157E+05 -6.866613E+04 -5.583559E+05 -3.347053E-11 -5.122692E-10
       189  16 -6.435607E+05 -5.744840E+04 -7.052022E+04 -1.628943E+05 -4.797887E-10  1.004240E-10
       189  17 -6.184144E+05  7.026883E+04  4.452207E+04 -2.958320E+05 -1.554703E-10 -4.342553E-10
       189  18 -6.500019E+05  1.545334E+02  7.925047E+04 -4.006295E+05 -5.325075E-10 -4.044452E-10
       189  19 -2.073933E+06 -8.249620E+05 -4.920145E+05 -7.888980E+05  2.256541E+05  7.126211E+04
       189  20 -2.006157E+06 -5.307405E+05 -2.941680E+05 -7.665122E+05  1.441124E+05  1.083515E+04
       189  21 -2.005255E+06 -4.445739E+05 -2.166043E+05 -7.159371E+05  5.394873E+04 -2.672449E+04
       189  22 -1.359005E+06 -4.413095E+05 -2.812269E+05 -4.760845E+05  1.845751E+05  5.586436E+04
       189  23 -1.312523E+06 -2.302776E+05 -1.247938E+05 -5.313013E+05  1.280918E+05  4.829073E+03
       189  24 -1.327855E+06 -2.222141E+05 -6.865764E+04 -5.583571E+05  6.299893E+04 -2.332306E+04
       189  25 -6.435382E+05 -5.744111E+04 -7.047844E+04 -1.628896E+05  1.434441E+05  4.042790E+04
       189  26 -6.184009E+05  7.027221E+04  4.454570E+04 -2.958321E+05  1.120517E+05 -1.187139E+03
       189  27 -6.499962E+05  1.563534E+02  7.926098E+04 -4.006306E+05  7.205979E+04 -1.991866E+04
       190   1 -1.920290E+06 -4.631889E+05 -1.900646E+05 -7.171861E+05 -5.012425E+04  2.347800E+04
       190   2 -1.856591E+06 -4.166675E+05 -1.476116E+05 -6.879337E+05 -3.348222E+04  2.594135E+04
       190   3 -1.780356E+06 -3.970886E+05 -1.190428E+05 -6.773757E+05 -1.640797E+04  2.725268E+04
       190   4 -1.319001E+06 -2.376260E+05 -5.350822E+04 -5.482581E+05 -5.316132E+04  2.233385E+04
       190   5 -1.324694E+06 -2.194758E+05 -2.804284E+04 -5.407045E+05 -3.777113E+04  2.432879E+04
       190   6 -1.317605E+06 -2.280134E+05 -1.545737E+04 -5.518468E+05 -2.195085E+04  2.517137E+04
       190   7 -7.173438E+05 -1.203110E+04  8.302570E+04 -3.791776E+05 -5.620159E+04  2.118845E+04
       190   8 -7.925105E+05 -2.226120E+04  9.150841E+04 -3.933588E+05 -4.206404E+04  2.271472E+04
       190   9 -8.546373E+05 -5.892288E+04  8.811467E+04 -4.262325E+05 -2.749822E+04  2.308841E+04
       190  10 -1.920293E+06 -4.631902E+05 -1.900704E+05 -7.171852E+05  1.503607E-10 -5.681020E-10
       190  11 -1.856592E+06 -4.166685E+05 -1.476150E+05 -6.879330E+05 -1.709227E-11  3.895216E-10
       190  12 -1.780357E+06 -3.970894E+05 -1.190447E+05 -6.773753E+05 -2.530920E-11  4.618562E-10
       190  13 -1.319004E+06 -2.376273E+05 -5.351448E+04 -5.482571E+05 -5.588925E-10 -1.796902E-10
       190  14 -1.324696E+06 -2.194768E+05 -2.804663E+04 -5.407037E+05  1.144809E-10  1.315128E-10
       190  15 -1.317606E+06 -2.280142E+05 -1.545946E+04 -5.518464E+05 -1.000481E-09  1.530828E-10
       190  16 -7.173473E+05 -1.203243E+04  8.301891E+04 -3.791766E+05  1.430463E-09  7.357528E-11
       190  17 -7.925125E+05 -2.226223E+04  9.150412E+04 -3.933580E+05  5.968188E-10 -6.077382E-12
       190  18 -8.546382E+05 -5.892365E+04  8.811225E+04 -4.262320E+05 -7.755688E-10 -1.699668E-10
       190  19 -1.920290E+06 -4.631889E+05 -1.900646E+05 -7.171861E+05  5.012425E+04 -2.347800E+04
       190  20 -1.856591E+06 -4.166675E+05 -1.476116E+05 -6.879337E+05  3.348222E+04 -2.594135E+04
       190  21 -1.780356E+06 -3.970886E+05 -1.190428E+05 -6.773757E+05  1.640797E+04 -2.725268E+04
       190  22 -1.319001E+06 -2.376260E+05 -5.350822E+04 -5.482581E+05  5.316132E+04 -2.233385E+04
       190  23 -1.324694E+06 -2.194758E+05 -2.804284E+04 -5.407045E+05  3.777113E+04 -2.432879E+04
       190  24 -1.317605E+06 -2.280134E+05 -1.545737E+04 -5.518468E+05  2.195085E+04 -2.517137E+04
       190  25 -7.173438E+05 -1.203110E+04  8.302570E+04 -3.791776E+05  5.620159E+04 -2.118845E+04
       190  26 -7.925105E+05 -2.226120E+04  9.150841E+04 -3.933588E+05  4.206404E+04 -2.271472E+04
       190  27 -8.546373E+05 -5.892288E+04  8.811467E+04 -4.262325E+05  2.749822E+04 -2.308841E+04
       191   1 -1.725267E+06 -3.790889E+05 -1.029053E+05 -6.634560E+05 -1.342215E+04  2.505795E+04
       191   2 -1.662061E+06 -3.431898E+05 -8.169703E+04 -6.334089E+05 -8.345171E+03  2.146196E+04
       191   3 -1.581379E+06 -3.257915E+05 -6.302909E+04 -6.240437E+05 -3.243830E+03  1.779615E+04
       191   4 -1.316902E+06 -2.286939E+05 -1.167966E+04 -5.513444E+05 -1.868415E+04  2.308289E+04
       191   5 -1.325611E+06 -2.192749E+05 -6.401506E+03 -5.410649E+05 -1.368178E+04  1.946005E+04
       191   6 -1.316835E+06 -2.283415E+05 -3.603120E+03 -5.514688E+05 -8.655450E+03  1.576728E+04
       191   7 -9.083710E+05 -7.828728E+04  7.953490E+04 -4.391659E+05 -2.394987E+04  2.110643E+04
       191   8 -9.890475E+05 -9.535144E+04  6.888697E+04 -4.486750E+05 -1.902154E+04  1.745697E+04
       191   9 -1.052219E+06 -1.308856E+05  5.581897E+04 -4.788650E+05 -1.406961E+04  1.373747E+04
       191  10 -1.725267E+06 -3.790896E+05 -1.029069E+05 -6.634558E+05 -4.804971E-10  2.535812E-10
       191  11 -1.662061E+06 -3.431903E+05 -8.169803E+04 -6.334088E+05 -3.102792E-10  2.834206E-10
       191  12 -1.581379E+06 -3.257919E+05 -6.302970E+04 -6.240437E+05  2.277745E-09  4.131900E-10
       191  13 -1.316903E+06 -2.286946E+05 -1.168131E+04 -5.513441E+05  7.831983E-10  2.840944E-10
       191  14 -1.325612E+06 -2.192753E+05 -6.402569E+03 -5.410647E+05  5.578768E-10  7.155872E-11
       191  15 -1.316835E+06 -2.283418E+05 -3.603727E+03 -5.514687E+05  3.396084E-09  7.205439E-10
       191  16 -9.083718E+05 -7.828791E+04  7.953298E+04 -4.391655E+05  1.483910E-10  3.771342E-12
       191  17 -9.890480E+05 -9.535186E+04  6.888572E+04 -4.486747E+05  8.112380E-10  2.872580E-10
       191  18 -1.052219E+06 -1.308859E+05  5.581824E+04 -4.788649E+05  3.604300E-09  6.408010E-10
       191  19 -1.725267E+06 -3.790889E+05 -1.029053E+05 -6.634560E+05  1.342215E+04 -2.505795E+04
       191  20 -1.662061E+06 -3.431898E+05 -8.169703E+04 -6.334089E+05  8.345171E+03 -2.146196E+04
       191  21 -1.581379E+06 -3.257915E+05 -6.302909E+04 -6.240437E+05  3.243830E+03 -1.779615E+04
       191  22 -1.316902E+06 -2.286939E+05 -1.167966E+04 -5.513444E+05  1.868415E+04 -2.308289E+04
       191  23 -1.325611E+06 -2.192749E+05 -6.401506E+03 -5.410649E+05  1.368178E+04 -1.946005E+04
       191  24 -1.316835E+06 -2.283415E+05 -3.603120E+03 -5.514688E+05  8.655450E+03 -1.576728E+04
       191  25 -9.083710E+05 -7.828728E+04  7.953490E+04 -4.391659E+05  2.394987E+04 -2.110643E+04
       191  26 -9.890475E+05 -9.535144E+04  6.888697E+04 -4.486750E+05  1.902154E+04 -1.745697E+04
       191  27 -1.052219E+06 -1.308856E+05  5.581897E+04 -4.788650E+05  1.406961E+04 -1.373747E+04
       192   1 -1.527493E+06 -3.059793E+05 -4.969626E+04 -6.093435E+05 -1.646523E+03  1.512433E+04
       192   2 -1.464154E+06 -2.702965E+05 -3.268792E+04 -5.790715E+05  1.061974E+03  1.052319E+04
       192   3 -1.382807E+06 -2.527703E+05 -1.632690E+04 -5.696046E+05  3.772762E+03  5.913521E+03
       192   4 -1.316728E+06 -2.283758E+05 -2.769117E+03 -5.514530E+05 -7.053292E+03  1.309777E+04
       192   5 -1.325727E+06 -2.192936E+05 -1.714774E+03 -5.410499E+05 -4.354014E+03  8.493651E+03
       192   6 -1.316720E+06 -2.283663E+05 -1.300168E+03 -5.514534E+05 -1.652566E+03  3.880983E+03
       192   7 -1.105919E+06 -1.507688E+05  4.415535E+04 -4.935444E+05 -1.246205E+04  1.107047E+04
       192   8 -1.187281E+06 -1.682895E+05  2.925715E+04 -5.030206E+05 -9.771294E+03  6.463627E+03
       192   9 -1.250630E+06 -2.039622E+05  1.372628E+04 -5.333006E+05 -7.078486E+03  1.848223E+03
       192  10 -1.527493E+06 -3.059796E+05 -4.969669E+04 -6.093435E+05  3.465208E-09  3.490265E-10
       192  11 -1.464154E+06 -2.702966E+05 -3.268813E+04 -5.790715E+05  9.596277E-10 -4.482999E-11
       192  12 -1.382807E+06 -2.527704E+05 -1.632699E+04 -5.696046E+05 -6.426310E-10 -2.925137E-10
       192  13 -1.316728E+06 -2.283760E+05 -2.769533E+03 -5.514529E+05  3.022345E-09  3.409829E-10
       192  14 -1.325727E+06 -2.192937E+05 -1.714945E+03 -5.410498E+05  1.153943E-09  2.241927E-10
       192  15 -1.316720E+06 -2.283664E+05 -1.300202E+03 -5.514534E+05  3.336005E-10  3.869332E-10
       192  16 -1.105919E+06 -1.507690E+05  4.415483E+04 -4.935442E+05  2.056197E-09  4.434032E-10
       192  17 -1.187281E+06 -1.682896E+05  2.925689E+04 -5.030205E+05  6.215532E-11  3.390823E-10
       192  18 -1.250630E+06 -2.039622E+05  1.372618E+04 -5.333006E+05 -1.704806E-10  1.968483E-10
       192  19 -1.527493E+06 -3.059793E+05 -4.969626E+04 -6.093435E+05  1.646523E+03 -1.512433E+04
       192  20 -1.464154E+06 -2.702965E+05 -3.268792E+04 -5.790715E+05 -1.061974E+03 -1.052319E+04
       192  21 -1.382807E+06 -2.527703E+05 -1.632690E+04 -5.696046E+05 -3.772762E+03 -5.913521E+03
       192  22 -1.316728E+06 -2.283758E+05 -2.769117E+03 -5.514530E+05  7.053292E+03 -1.309777E+04
       192  23 -1.325727E+06 -2.192936E+05 -1.714774E+03 -5.410499E+05  4.354014E+03 -8.493651E+03
       192  24 -1.316720E+06 -2.283663E+05 -1.300168E+03 -5.514534E+05  1.652566E+03 -3.880983E+03
       192  25 -1.105919E+06 -1.507688E+05  4.415535E+04 -4.935444E+05  1.246205E+04 -1.107047E+04
       192  26 -1.187281E+06 -1.682895E+05  2.925715E+04 -5.030206E+05  9.771294E+03 -6.463627E+03
       192  27 -1.250630E+06 -2.039622E+05  1.372628E+04 -5.333006E+05  7.078486E+03 -1.848223E+03
       193   1 -1.328869E+06 -2.328147E+05 -3.757271E+03 -5.548207E+05  5.065526E+03  3.120386E+03
       193   2 -1.265465E+06 -1.971077E+05  1.191193E+04 -5.245165E+05  7.689647E+03 -1.524564E+03
       193   3 -1.184030E+06 -1.795669E+05  2.699915E+04 -5.150357E+05  1.031239E+04 -6.164536E+03
       193   4 -1.316715E+06 -2.283693E+05 -1.274282E+03 -5.514574E+05 -3.615637E+02  1.087271E+03
       193   5 -1.325729E+06 -2.192857E+05 -1.566792E+03 -5.410448E+05  2.267502E+03 -3.556059E+03
       193   6 -1.316718E+06 -2.283706E+05 -2.445637E+03 -5.514583E+05  4.895078E+03 -8.194421E+03
       193   7 -1.304561E+06 -2.239238E+05  1.208848E+03 -5.480941E+05 -5.788803E+03 -9.459001E+02
       193   8 -1.385988E+06 -2.414635E+05 -1.504568E+04 -5.575716E+05 -3.154091E+03 -5.587348E+03
       193   9 -1.449389E+06 -2.771730E+05 -3.189141E+04 -5.878737E+05 -5.209781E+02 -1.022384E+04
       193  10 -1.328869E+06 -2.328148E+05 -3.757337E+03 -5.548207E+05 -3.903726E-10 -1.800496E-10
       193  11 -1.265465E+06 -1.971077E+05  1.191182E+04 -5.245165E+05 -1.529087E-09 -7.655348E-10
       193  12 -1.184030E+06 -1.795670E+05  2.699888E+04 -5.150357E+05 -4.831095E-10 -1.680894E-10
       193  13 -1.316715E+06 -2.283693E+05 -1.274284E+03 -5.514574E+05  4.516837E-11 -1.275755E-10
       193  14 -1.325729E+06 -2.192857E+05 -1.566825E+03 -5.410448E+05  9.742359E-11  4.726726E-10
       193  15 -1.316718E+06 -2.283707E+05 -2.445808E+03 -5.514583E+05  4.222823E-10  1.333490E-10
       193  16 -1.304561E+06 -2.239238E+05  1.208783E+03 -5.480941E+05  9.668162E-10 -1.201074E-10
       193  17 -1.385988E+06 -2.414635E+05 -1.504575E+04 -5.575716E+05 -3.134068E-10 -1.591082E-10
       193  18 -1.449389E+06 -2.771731E+05 -3.189160E+04 -5.878737E+05  8.175137E-10 -1.347294E-10
       193  19 -1.328869E+06 -2.328147E+05 -3.757271E+03 -5.548207E+05 -5.065526E+03 -3.120386E+03
       193  20 -1.265465E+06 -1.971077E+05  1.191193E+04 -5.245165E+05 -7.689647E+03  1.524564E+03
       193  21 -1.184030E+06 -1.795669E+05  2.699915E+04 -5.150357E+05 -1.031239E+04  6.164536E+03
       193  22 -1.316715E+06 -2.283693E+05 -1.274282E+03 -5.514574E+05  3.615637E+02 -1.087271E+03
       193  23 -1.325729E+06 -2.192857E+05 -1.566792E+03 -5.410448E+05 -2.267502E+03  3.556059E+03
       193  24 -1.316718E+06 -2.283706E+05 -2.445637E+03 -5.514583E+05 -4.895078E+03  8.194421E+03
       193  25 -1.304561E+06 -2.239238E+05  1.208848E+03 -5.480941E+05  5.788803E+03  9.459001E+02
       193  26 -1.385988E+06 -2.414635E+05 -1.504568E+04 -5.575716E+05  3.154091E+03  5.587348E+03
       193  27 -1.449389E+06 -2.771730E+05 -3.189141E+04 -5.878737E+05  5.209781E+02  1.022384E+04
       194   1 -1.130220E+06 -1.596523E+05  3.880740E+04 -5.003302E+05  1.185991E+04 -8.859960E+03
       194   2 -1.066893E+06 -1.240304E+05  5.230812E+04 -4.700726E+05  1.641005E+04 -1.274651E+04
       194   3 -9.859601E+05 -1.068693E+05  6.370007E+04 -4.605562E+05  2.093911E+04 -1.657150E+04
       194   4 -1.316807E+06 -2.283446E+05 -3.158457E+03 -5.514772E+05  6.435370E+03 -1.089288E+04
       194   5 -1.325628E+06 -2.192578E+05 -5.568610E+03 -5.410519E+05  1.105126E+04 -1.475567E+04
       194   6 -1.316863E+06 -2.286459E+05 -1.014030E+04 -5.513704E+05  1.564576E+04 -1.855701E+04
       194   7 -1.503357E+06 -2.970338E+05 -4.512609E+04 -6.026097E+05  1.012631E+03 -1.292513E+04
       194   8 -1.584296E+06 -3.144801E+05 -6.344946E+04 -6.120041E+05  5.694902E+03 -1.676394E+04
       194   9 -1.647657E+06 -3.504149E+05 -8.398803E+04 -6.421407E+05  1.035543E+04 -2.054140E+04
       194  10 -1.130221E+06 -1.596524E+05  3.880698E+04 -5.003302E+05  2.192667E-10 -2.081668E-10
       194  11 -1.066893E+06 -1.240306E+05  5.230731E+04 -4.700724E+05  9.072855E-11 -3.359632E-10
       194  12 -9.859607E+05 -1.068697E+05  6.369873E+04 -4.605560E+05  4.478309E-10 -1.936745E-10
       194  13 -1.316807E+06 -2.283447E+05 -3.158758E+03 -5.514771E+05 -7.584848E-10 -6.164208E-11
       194  14 -1.325628E+06 -2.192581E+05 -5.569248E+03 -5.410518E+05  9.278035E-11 -5.026160E-10
       194  15 -1.316863E+06 -2.286463E+05 -1.014141E+04 -5.513702E+05 -3.369288E-10 -1.329635E-10
       194  16 -1.503357E+06 -2.970340E+05 -4.512640E+04 -6.026097E+05 -7.383103E-11 -5.617370E-10
       194  17 -1.584296E+06 -3.144805E+05 -6.345005E+04 -6.120040E+05  1.231280E-09  1.858313E-10
       194  18 -1.647657E+06 -3.504154E+05 -8.398902E+04 -6.421406E+05  4.856723E-10  2.007231E-10
       194  19 -1.130220E+06 -1.596523E+05  3.880740E+04 -5.003302E+05 -1.185991E+04  8.859960E+03
       194  20 -1.066893E+06 -1.240304E+05  5.230812E+04 -4.700726E+05 -1.641005E+04  1.274651E+04
       194  21 -9.859601E+05 -1.068693E+05  6.370007E+04 -4.605562E+05 -2.093911E+04  1.657150E+04
       194  22 -1.316807E+06 -2.283446E+05 -3.158457E+03 -5.514772E+05 -6.435370E+03  1.089288E+04
       194  23 -1.325628E+06 -2.192578E+05 -5.568610E+03 -5.410519E+05 -1.105126E+04  1.475567E+04
       194  24 -1.316863E+06 -2.286459E+05 -1.014030E+04 -5.513704E+05 -1.564576E+04  1.855701E+04
       194  25 -1.503357E+06 -2.970338E+05 -4.512609E+04 -6.026097E+05 -1.012631E+03  1.292513E+04
       194  26 -1.584296E+06 -3.144801E+05 -6.344946E+04 -6.120041E+05 -5.694902E+03  1.676394E+04
       194  27 -1.647657E+06 -3.504149E+05 -8.398803E+04 -6.421407E+05 -1.035543E+04  2.054140E+04
       195   1 -9.320792E+05 -8.738784E+04  7.283298E+04 -4.473511E+05  2.417728E+04 -1.867571E+04
       195   2 -8.696244E+05 -5.077555E+04  7.795001E+04 -4.147543E+05  3.700425E+04 -1.902243E+04
       195   3 -7.934278E+05 -3.952806E+04  7.279878E+04 -4.011836E+05  4.944282E+04 -1.832378E+04
       195   4 -1.317472E+06 -2.280569E+05 -1.341483E+04 -5.518078E+05  1.862670E+04 -2.075838E+04
       195   5 -1.324831E+06 -2.194275E+05 -2.432489E+04 -5.407374E+05  3.259327E+04 -2.067926E+04
       195   6 -1.318682E+06 -2.363949E+05 -4.641365E+04 -5.486963E+05  4.616989E+04 -1.955495E+04
       195   7 -1.702715E+06 -3.687154E+05 -9.967190E+04 -6.562054E+05  1.307985E+04 -2.283969E+04
       195   8 -1.779827E+06 -3.880626E+05 -1.266125E+05 -6.666351E+05  2.818580E+04 -2.233475E+04
       195   9 -1.843655E+06 -4.332373E+05 -1.656431E+05 -6.960928E+05  4.289997E+04 -2.078496E+04
       195  10 -9.320799E+05 -8.738837E+04  7.283123E+04 -4.473507E+05  8.984173E-10  4.265342E-10
       195  11 -8.696259E+05 -5.077630E+04  7.794676E+04 -4.147538E+05  4.679100E-10  1.830698E-10
       195  12 -7.934305E+05 -3.952907E+04  7.279355E+04 -4.011829E+05  3.386230E-10 -1.313273E-10
       195  13 -1.317473E+06 -2.280575E+05 -1.341629E+04 -5.518075E+05  9.250464E-11  4.051634E-10
       195  14 -1.324832E+06 -2.194282E+05 -2.432770E+04 -5.407368E+05 -3.666843E-10  2.061810E-10
       195  15 -1.318684E+06 -2.363959E+05 -4.641838E+04 -5.486956E+05  2.920530E-11  1.600009E-10
       195  16 -1.702715E+06 -3.687160E+05 -9.967320E+04 -6.562052E+05 -7.567847E-10  5.008383E-11
       195  17 -1.779828E+06 -3.880633E+05 -1.266150E+05 -6.666346E+05 -8.831943E-10  7.141648E-11
       195  18 -1.843657E+06 -4.332383E+05 -1.656474E+05 -6.960920E+05 -8.857044E-11  1.678143E-10
       195  19 -9.320792E+05 -8.738784E+04  7.283298E+04 -4.473511E+05 -2.417728E+04  1.867571E+04
       195  20 -8.696244E+05 -5.077555E+04  7.795001E+04 -4.147543E+05 -3.700425E+04  1.902243E+04
       195  21 -7.934278E+05 -3.952806E+04  7.279878E+04 -4.011836E+05 -4.944282E+04  1.832378E+04
       195  22 -1.317472E+06 -2.280569E+05 -1.341483E+04 -5.518078E+05 -1.862670E+04  2.075838E+04
       195  23 -1.324831E+06 -2.194275E+05 -2.432489E+04 -5.407374E+05 -3.259327E+04  2.067926E+04
       195  24 -1.318682E+06 -2.363949E+05 -4.641365E+04 -5.486963E+05 -4.616989E+04  1.955495E+04
       195  25 -1.702715E+06 -3.687154E+05 -9.967190E+04 -6.562054E+05 -1.307985E+04  2.283969E+04
       195  26 -1.779827E+06 -3.880626E+05 -1.266125E+05 -6.666351E+05 -2.818580E+04  2.233475E+04
       195  27 -1.843655E+06 -4.332373E+05 -1.656431E+05 -6.960928E+05 -4.289997E+04  2.078496E+04
       196   1 -7.277261E+05 -2.624411E+04  7.118980E+04 -4.177817E+05  6.361057E+04 -1.757314E+04
       196   2 -6.917861E+05  3.934950E+04  4.348026E+04 -3.228521E+05  9.739401E+04 -2.060967E+03
       196   3 -7.024582E+05 -6.889068E+04 -5.308113E+04 -2.062972E+05  1.233731E+05  3.423477E+04
       196   4 -1.326373E+06 -2.230165E+05 -5.955361E+04 -5.574425E+05  5.486917E+04 -2.085544E+04
       196   5 -1.314262E+06 -2.288111E+05 -1.082428E+05 -5.325971E+05  1.114579E+05  3.211979E+03
       196   6 -1.353366E+06 -4.130894E+05 -2.439347E+05 -4.861176E+05  1.602337E+05  4.806336E+04
       196   7 -1.924665E+06 -4.197810E+05 -1.903195E+05 -6.969891E+05  4.613682E+04 -2.413521E+04
       196   8 -1.936342E+06 -4.969023E+05 -2.599930E+05 -7.421353E+05  1.255063E+05  8.477006E+03
       196   9 -2.003823E+06 -7.571147E+05 -4.348183E+05 -7.656261E+05  1.970516E+05  6.186096E+04
       196  10 -7.277306E+05 -2.624553E+04  7.118161E+04 -4.177808E+05  6.508280E-10 -1.654836E-10
       196  11 -6.917963E+05  3.934695E+04  4.346241E+04 -3.228519E+05 -7.683850E-11 -5.475348E-10
       196  12 -7.024749E+05 -6.889603E+04 -5.311198E+04 -2.063006E+05 -8.161103E-10 -3.762137E-10
       196  13 -1.326377E+06 -2.230177E+05 -5.956009E+04 -5.574416E+05  3.521514E-10 -1.228388E-10
       196  14 -1.314275E+06 -2.288145E+05 -1.082662E+05 -5.325974E+05 -1.148931E-09 -6.427033E-11
       196  15 -1.353395E+06 -4.130988E+05 -2.439874E+05 -4.861238E+05 -2.265661E-10 -3.089955E-10
       196  16 -1.924668E+06 -4.197822E+05 -1.903246E+05 -6.969882E+05 -8.384991E-10 -1.944280E-11
       196  17 -1.936359E+06 -4.969066E+05 -2.600228E+05 -7.421361E+05  1.455947E-10 -1.698956E-10
       196  18 -2.003865E+06 -7.571293E+05 -4.348987E+05 -7.656359E+05  4.409529E-10 -2.506605E-10
       196  19 -7.277261E+05 -2.624411E+04  7.118980E+04 -4.177817E+05 -6.361057E+04  1.757314E+04
       196  20 -6.917861E+05  3.934950E+04  4.348026E+04 -3.228521E+05 -9.739401E+04  2.060967E+03
       196  21 -7.024582E+05 -6.889068E+04 -5.308113E+04 -2.062972E+05 -1.233731E+05 -3.423477E+04
       196  22 -1.326373E+06 -2.230165E+05 -5.955361E+04 -5.574425E+05 -5.486917E+04  2.085544E+04
       196  23 -1.314262E+06 -2.288111E+05 -1.082428E+05 -5.325971E+05 -1.114579E+05 -3.211979E+03
       196  24 -1.353366E+06 -4.130894E+05 -2.439347E+05 -4.861176E+05 -1.602337E+05 -4.806336E+04
       196  25 -1.924665E+06 -4.197810E+05 -1.903195E+05 -6.969891E+05 -4.613682E+04  2.413521E+04
       196  26 -1.936342E+06 -4.969023E+05 -2.599930E+05 -7.421353E+05 -1.255063E+05 -8.477006E+03
       196  27 -2.003823E+06 -7.571147E+05 -4.348183E+05 -7.656261E+05 -1.970516E+05 -6.186096E+04
       197   1 -3.477896E+05 -8.570735E+04 -4.733772E+04  2.073468E+04  8.904212E+04  1.474819E+04
       197   2 -2.658769E+05 -2.187742E+05 -1.075886E+05 -2.293097E+04  7.093429E+04  4.709241E+04
       197   3 -1.468167E+05 -2.138200E+05 -1.214930E+05 -9.753460E+04  5.284860E+04  5.159439E+04
       197   4  7.183984E+05  1.783103E+05  2.078967E+05 -7.554409E+04  1.436214E+05  1.477875E+04
       197   5  6.970794E+05  1.465114E+04  9.706438E+04 -6.002194E+04  9.271361E+04  4.709585E+04
       197   6  7.185184E+05 -5.425578E+03  5.528621E+04 -7.543032E+04  4.183415E+04  5.158680E+04
       197   7  1.785654E+06  4.422822E+05  4.630671E+05 -1.719891E+05  1.982939E+05  1.479237E+04
       197   8  1.660913E+06  2.480218E+05  3.016668E+05 -9.717140E+04  1.145261E+05  4.709670E+04
       197   9  1.584566E+06  2.029239E+05  2.320266E+05 -5.329469E+04  3.080460E+04  5.157844E+04
       197  10 -3.477982E+05 -8.570971E+04 -4.735304E+04  2.073362E+04 -5.684878E-10  4.669547E-10
       197  11 -2.658829E+05 -2.187780E+05 -1.076022E+05 -2.293366E+04 -3.609718E-10  6.693220E-11
       197  12 -1.468205E+05 -2.138236E+05 -1.215032E+05 -9.753679E+04 -3.110845E-10  4.202938E-11
       197  13  7.183762E+05  1.783045E+05  2.078576E+05 -7.554580E+04 -5.514904E-10  1.711097E-10
       197  14  6.970696E+05  1.464646E+04  9.704408E+04 -6.002545E+04  9.811062E-10 -6.966056E-10
       197  15  7.185158E+05 -5.428906E+03  5.527792E+04 -7.543206E+04  7.397995E-10  1.393143E-10
       197  16  1.785612E+06  4.422715E+05  4.629930E+05 -1.719915E+05  4.396225E-10 -1.098767E-10
       197  17  1.660899E+06  2.480159E+05  3.016380E+05 -9.717574E+04 -1.730699E-09 -5.958708E-11
       197  18  1.584564E+06  2.029208E+05  2.320198E+05 -5.329597E+04 -5.961526E-11 -9.146814E-12
       197  19 -3.477896E+05 -8.570735E+04 -4.733772E+04  2.073468E+04 -8.904212E+04 -1.474819E+04
       197  20 -2.658769E+05 -2.187742E+05 -1.075886E+05 -2.293097E+04 -7.093429E+04 -4.709241E+04
       197  21 -1.468167E+05 -2.138200E+05 -1.214930E+05 -9.753460E+04 -5.284860E+04 -5.159439E+04
       197  22  7.183984E+05  1.783103E+05  2.078967E+05 -7.554409E+04 -1.436214E+05 -1.477875E+04
       197  23  6.970794E+05  1.465114E+04  9.706438E+04 -6.002194E+04 -9.271361E+04 -4.709585E+04
       197  24  7.185184E+05 -5.425578E+03  5.528621E+04 -7.543032E+04 -4.183415E+04 -5.158680E+04
       197  25  1.785654E+06  4.422822E+05  4.630671E+05 -1.719891E+05 -1.982939E+05 -1.479237E+04
       197  26  1.660913E+06  2.480218E+05  3.016668E+05 -9.717140E+04 -1.145261E+05 -4.709670E+04
       197  27  1.584566E+06  2.029239E+05  2.320266E+05 -5.329469E+04 -3.080460E+04 -5.157844E+04
       198   1 -8.246349E+04 -1.838467E+05 -1.190573E+05 -7.356375E+04  3.860992E+04  4.667190E+04
       198   2  1.566576E+04 -1.665108E+05 -1.169485E+05 -5.932362E+04  2.851786E+04  4.225083E+04
       198   3  1.167624E+05 -1.430707E+05 -1.067131E+05 -7.718074E+04  1.842083E+04  3.633608E+04
       198   4  7.097574E+05  6.998231E+03  4.320267E+04 -7.571565E+04  3.432152E+04  4.666616E+04
       198   5  7.081515E+05  7.573089E+01  2.375739E+04 -5.966824E+04  2.245900E+04  4.224677E+04
       198   6  7.098071E+05 -4.395267E+02  1.365933E+04 -7.571561E+04  1.059314E+04  3.633448E+04
       198   7  1.502574E+06  1.978038E+05  2.054294E+05 -7.787035E+04  3.002772E+04  4.666045E+04
       198   8  1.401093E+06  1.666324E+05  1.644384E+05 -6.001323E+04  1.639351E+04  4.224273E+04
       198   9  1.303186E+06  1.421698E+05  1.340137E+05 -7.424902E+04  2.758117E+03  3.633284E+04
       198  10 -8.246567E+04 -1.838495E+05 -1.190642E+05 -7.356520E+04  3.022205E-10 -3.938474E-10
       198  11  1.566441E+04 -1.665129E+05 -1.169534E+05 -5.932459E+04 -8.537716E-10 -6.383792E-11
       198  12  1.167617E+05 -1.430722E+05 -1.067163E+05 -7.718128E+04 -9.416847E-11  3.482462E-10
       198  13  7.097556E+05  6.995575E+03  4.319636E+04 -7.571694E+04 -5.049342E-10 -6.341700E-11
       198  14  7.081505E+05  7.367838E+01  2.375309E+04 -5.966900E+04  5.386617E-10 -1.629393E-11
       198  15  7.098066E+05 -4.409750E+02  1.365664E+04 -7.571592E+04 -8.360912E-10  2.498690E-10
       198  16  1.502573E+06  1.978013E+05  2.054236E+05 -7.787148E+04  7.205155E-10  2.499538E-10
       198  17  1.401092E+06  1.666304E+05  1.644346E+05 -6.001379E+04 -4.438221E-10 -2.577449E-10
       198  18  1.303186E+06  1.421684E+05  1.340112E+05 -7.424910E+04  6.336264E-10  1.585646E-12
       198  19 -8.246349E+04 -1.838467E+05 -1.190573E+05 -7.356375E+04 -3.860992E+04 -4.667190E+04
       198  20  1.566576E+04 -1.665108E+05 -1.169485E+05 -5.932362E+04 -2.851786E+04 -4.225083E+04
       198  21  1.167624E+05 -1.430707E+05 -1.067131E+05 -7.718074E+04 -1.842083E+04 -3.633608E+04
       198  22  7.097574E+05  6.998231E+03  4.320267E+04 -7.571565E+04 -3.432152E+04 -4.666616E+04
       198  23  7.081515E+05  7.573089E+01  2.375739E+04 -5.966824E+04 -2.245900E+04 -4.224677E+04
       198  24  7.098071E+05 -4.395267E+02  1.365933E+04 -7.571561E+04 -1.059314E+04 -3.633448E+04
       198  25  1.502574E+06  1.978038E+05  2.054294E+05 -7.787035E+04 -3.002772E+04 -4.666045E+04
       198  26  1.401093E+06  1.666324E+05  1.644384E+05 -6.001323E+04 -1.639351E+04 -4.224273E+04
       198  27  1.303186E+06  1.421698E+05  1.340137E+05 -7.424902E+04 -2.758117E+03 -3.633284E+04
       199   1  1.881189E+05 -1.251270E+05 -9.490854E+04 -7.602486E+04  1.592289E+04  3.249166E+04
       199   2  2.871088E+05 -1.015262E+05 -7.944731E+04 -5.988569E+04  1.306035E+04  2.611140E+04
       199   3  3.865813E+05 -7.762262E+04 -6.204117E+04 -7.580353E+04  1.019457E+04  1.965638E+04
       199   4  7.092071E+05  1.061034E+02  1.042026E+04 -7.570710E+04  8.465843E+03  3.249117E+04
       199   5  7.089775E+05 -1.153744E+02  5.967213E+03 -5.967933E+04  5.512487E+03  2.611242E+04
       199   6  7.092346E+05 -1.866710E+01  3.520279E+03 -7.570728E+04  2.556334E+03  1.965895E+04
       199   7  1.230554E+06  1.253224E+05  1.157352E+05 -7.538903E+04  1.002658E+03  3.249068E+04
       199   8  1.131016E+06  1.012844E+05  9.137272E+04 -5.947280E+04 -2.040406E+03  2.611343E+04
       199   9  1.031987E+06  7.757884E+04  6.907651E+04 -7.561096E+04 -5.085798E+03  1.966153E+04
       199  10  1.881183E+05 -1.251282E+05 -9.491100E+04 -7.602527E+04 -1.515115E-10  2.222964E-10
       199  11  2.871084E+05 -1.015269E+05 -7.944891E+04 -5.988596E+04 -1.196662E-09 -9.830281E-11
       199  12  3.865811E+05 -7.762306E+04 -6.204209E+04 -7.580369E+04 -7.620316E-10  7.398590E-10
       199  13  7.092067E+05  1.049501E+02  1.041814E+04 -7.570732E+04 -8.412987E-12  2.257794E-10
       199  14  7.089773E+05 -1.161150E+02  5.965874E+03 -5.967944E+04 -1.414317E-10 -1.394840E-10
       199  15  7.092345E+05 -1.908400E+01  3.519541E+03 -7.570732E+04  3.690764E-10  1.469511E-10
       199  16  1.230554E+06  1.253213E+05  1.157333E+05 -7.538906E+04  7.867468E-10  1.060940E-10
       199  17  1.131016E+06  1.012837E+05  9.137144E+04 -5.947276E+04 -5.625174E-10  2.219468E-10
       199  18  1.031987E+06  7.757842E+04  6.907573E+04 -7.561088E+04  4.094909E-10  1.947752E-10
       199  19  1.881189E+05 -1.251270E+05 -9.490854E+04 -7.602486E+04 -1.592289E+04 -3.249166E+04
       199  20  2.871088E+05 -1.015262E+05 -7.944731E+04 -5.988569E+04 -1.306035E+04 -2.611140E+04
       199  21  3.865813E+05 -7.762262E+04 -6.204117E+04 -7.580353E+04 -1.019457E+04 -1.965638E+04
       199  22  7.092071E+05  1.061034E+02  1.042026E+04 -7.570710E+04 -8.465843E+03 -3.249117E+04
       199  23  7.089775E+05 -1.153744E+02  5.967213E+03 -5.967933E+04 -5.512487E+03 -2.611242E+04
       199  24  7.092346E+05 -1.866710E+01  3.520279E+03 -7.570728E+04 -2.556334E+03 -1.965895E+04
       199  25  1.230554E+06  1.253224E+05  1.157352E+05 -7.538903E+04 -1.002658E+03 -3.249068E+04
       199  26  1.131016E+06  1.012844E+05  9.137272E+04 -5.947280E+04  2.040406E+03 -2.611343E+04
       199  27  1.031987E+06  7.757884E+04  6.907651E+04 -7.561096E+04  5.085798E+03 -1.966153E+04
       200   1  4.582204E+05 -6.025286E+04 -4.779002E+04 -7.574242E+04  9.602215E+03  1.588073E+04
       200   2  5.572168E+05 -3.649710E+04 -2.897267E+04 -5.971621E+04  8.729539E+03  9.408601E+03
       200   3  6.563214E+05 -1.269892E+04 -9.583976E+03 -7.568392E+04  7.855732E+03  2.934594E+03
       200   4  7.091572E+05  8.202312E+00  2.741068E+03 -7.569342E+04  1.987666E+03  1.588392E+04
       200   5  7.091124E+05  8.550635E+00  1.767363E+03 -5.969670E+04  1.111917E+03  9.412319E+03
       200   6  7.091669E+05  5.228999E+01  1.366974E+03 -7.569343E+04  2.351709E+02  2.938874E+03
       200   7  9.601541E+05  6.026541E+04  5.326915E+04 -7.564438E+04 -5.629899E+03  1.588711E+04
       200   8  8.610301E+05  3.651280E+04  3.250642E+04 -5.967718E+04 -6.507533E+03  9.416037E+03
       200   9  7.620151E+05  1.280336E+04  1.231799E+04 -7.570294E+04 -7.386027E+03  2.943155E+03
       200  10  4.582203E+05 -6.025315E+04 -4.779067E+04 -7.574255E+04 -2.919429E-10  7.337287E-10
       200  11  5.572167E+05 -3.649721E+04 -2.897297E+04 -5.971628E+04 -7.784485E-10  4.433929E-10
       200  12  6.563214E+05 -1.269895E+04 -9.584108E+03 -7.568394E+04 -1.798212E-09  1.619971E-10
       200  13  7.091571E+05  7.930232E+00  2.740586E+03 -7.569344E+04 -2.475484E-10  6.586884E-10
       200  14  7.091124E+05  8.455138E+00  1.767194E+03 -5.969671E+04 -4.022094E-10 -2.770876E-10
       200  15  7.091669E+05  5.228070E+01  1.366958E+03 -7.569343E+04 -7.074644E-10 -4.085626E-10
       200  16  9.601539E+05  6.026513E+04  5.326861E+04 -7.564431E+04  1.563578E-09 -6.246804E-10
       200  17  8.610300E+05  3.651269E+04  3.250617E+04 -5.967713E+04 -1.179242E-09 -5.469137E-11
       200  18  7.620150E+05  1.280333E+04  1.231787E+04 -7.570293E+04  2.227289E-09 -6.421460E-10
       200  19  4.582204E+05 -6.025286E+04 -4.779002E+04 -7.574242E+04 -9.602215E+03 -1.588073E+04
       200  20  5.572168E+05 -3.649710E+04 -2.897267E+04 -5.971621E+04 -8.729539E+03 -9.408601E+03
       200  21  6.563214E+05 -1.269892E+04 -9.583976E+03 -7.568392E+04 -7.855732E+03 -2.934594E+03
       200  22  7.091572E+05  8.202312E+00  2.741068E+03 -7.569342E+04 -1.987666E+03 -1.588392E+04
       200  23  7.091124E+05  8.550635E+00  1.767363E+03 -5.969670E+04 -1.111917E+03 -9.412319E+03
       200  24  7.091669E+05  5.228999E+01  1.366974E+03 -7.569343E+04 -2.351709E+02 -2.938874E+03
       200  25  9.601541E+05  6.026541E+04  5.326915E+04 -7.564438E+04  5.629899E+03 -1.588711E+04
       200  26  8.610301E+05  3.651280E+04  3.250642E+04 -5.967718E+04  6.507533E+03 -9.416037E+03
       200  27  7.620151E+05  1.280336E+04  1.231799E+04 -7.570294E+04  7.386027E+03 -2.943155E+03
       201   1  7.279745E+05  4.624623E+03  5.392778E+03 -7.570366E+04  7.608392E+03 -8.336572E+02
       201   2  8.269842E+05  2.833898E+04  2.541182E+04 -5.968870E+04  6.830963E+03 -7.306198E+03
       201   3  9.260846E+05  5.209363E+04  4.593781E+04 -7.566354E+04  6.054199E+03 -1.377658E+04
       201   4  7.091637E+05  5.269050E+01  1.328737E+03 -7.569270E+04 -1.231737E+01 -8.293396E+02
       201   5  7.091187E+05  1.647131E+01  1.562085E+03 -5.969761E+04 -7.876018E+02 -7.302321E+03
       201   6  7.091562E+05  2.107778E+01  2.301466E+03 -7.569269E+04 -1.562102E+03 -1.377312E+04
       201   7  6.903533E+05 -4.519234E+03 -2.735107E+03 -7.568174E+04 -7.632799E+03 -8.250223E+02
       201   8  5.912665E+05 -2.830687E+04 -2.228815E+04 -5.970652E+04 -8.404749E+03 -7.298444E+03
       201   9  4.922727E+05 -5.205435E+04 -4.133706E+04 -7.572183E+04 -9.175796E+03 -1.376965E+04
       201  10  7.279744E+05  4.624607E+03  5.392668E+03 -7.570366E+04 -1.004691E-09 -1.732122E-10
       201  11  8.269841E+05  2.833891E+04  2.541164E+04 -5.968866E+04  7.270141E-11 -5.395061E-10
       201  12  9.260845E+05  5.209342E+04  4.593738E+04 -7.566348E+04  4.691978E-10 -6.554945E-10
       201  13  7.091637E+05  5.268977E+01  1.328735E+03 -7.569270E+04 -2.476789E-10  4.168753E-10
       201  14  7.091186E+05  1.641387E+01  1.561983E+03 -5.969762E+04 -2.560728E-10  4.104588E-10
       201  15  7.091561E+05  2.087335E+01  2.301105E+03 -7.569271E+04  5.397151E-10 -1.020968E-09
       201  16  6.903532E+05 -4.519251E+03 -2.735218E+03 -7.568175E+04  2.580141E-09 -6.152450E-11
       201  17  5.912664E+05 -2.830694E+04 -2.228839E+04 -5.970657E+04 -6.804765E-10  5.584539E-10
       201  18  4.922725E+05 -5.205457E+04 -4.133758E+04 -7.572193E+04  6.135288E-10 -2.159271E-10
       201  19  7.279745E+05  4.624623E+03  5.392778E+03 -7.570366E+04 -7.608392E+03  8.336572E+02
       201  20  8.269842E+05  2.833898E+04  2.541182E+04 -5.968870E+04 -6.830963E+03  7.306198E+03
       201  21  9.260846E+05  5.209363E+04  4.593781E+04 -7.566354E+04 -6.054199E+03  1.377658E+04
       201  22  7.091637E+05  5.269050E+01  1.328737E+03 -7.569270E+04  1.231737E+01  8.293396E+02
       201  23  7.091187E+05  1.647131E+01  1.562085E+03 -5.969761E+04  7.876018E+02  7.302321E+03
       201  24  7.091562E+05  2.107778E+01  2.301466E+03 -7.569269E+04  1.562102E+03  1.377312E+04
       201  25  6.903533E+05 -4.519234E+03 -2.735107E+03 -7.568174E+04  7.632799E+03  8.250223E+02
       201  26  5.912665E+05 -2.830687E+04 -2.228815E+04 -5.970652E+04  8.404749E+03  7.298444E+03
       201  27  4.922727E+05 -5.205435E+04 -4.133706E+04 -7.572183E+04  9.175796E+03  1.376965E+04
       202   1  9.978839E+05  6.940792E+04  6.157967E+04 -7.564212E+04  5.603055E+03 -1.755013E+04
       202   2  1.096921E+06  9.311723E+04  8.338793E+04 -5.953694E+04  3.095961E+03 -2.400127E+04
       202   3  1.196378E+06  1.171046E+05  1.068975E+05 -7.546950E+04  5.909790E+02 -3.037967E+04
       202   4  7.092179E+05 -1.330871E+00  2.918220E+03 -7.570355E+04 -2.036697E+03 -1.754720E+04
       202   5  7.090080E+05 -8.574120E+01  4.885168E+03 -5.968400E+04 -4.457370E+03 -2.399978E+04
       202   6  7.091928E+05  9.329603E+01  8.494114E+03 -7.570340E+04 -6.875542E+03 -3.037957E+04
       202   7  4.206312E+05 -6.941574E+04 -5.574736E+04 -7.576494E+04 -9.672969E+03 -1.754427E+04
       202   8  3.212382E+05 -9.329801E+04 -7.362517E+04 -5.983095E+04 -1.200608E+04 -2.399829E+04
       202   9  2.222331E+05 -1.169327E+05 -8.992133E+04 -7.593709E+04 -1.433632E+04 -3.037946E+04
       202  10  9.978838E+05  6.940758E+04  6.157903E+04 -7.564204E+04 -8.607282E-10 -3.368114E-11
       202  11  1.096921E+06  9.311661E+04  8.338683E+04 -5.953688E+04 -1.380326E-09 -8.397345E-11
       202  12  1.196378E+06  1.171036E+05  1.068958E+05 -7.546948E+04  1.790848E-10 -1.049442E-10
       202  13  7.092178E+05 -1.662734E+00  2.917633E+03 -7.570358E+04 -2.744419E-10 -6.694429E-10
       202  14  7.090078E+05 -8.636526E+01  4.884048E+03 -5.968409E+04 -1.548919E-10 -4.545829E-10
       202  15  7.091925E+05  9.229195E+01  8.492290E+03 -7.570357E+04 -4.869409E-10 -1.858251E-10
       202  16  4.206310E+05 -6.941609E+04 -5.574812E+04 -7.576508E+04  1.569765E-09  9.184666E-11
       202  17  3.212379E+05 -9.329867E+04 -7.362652E+04 -5.983118E+04  1.330173E-11 -4.428466E-10
       202  18  2.222327E+05 -1.169337E+05 -8.992345E+04 -7.593744E+04 -7.124750E-10 -4.321292E-10
       202  19  9.978839E+05  6.940792E+04  6.157967E+04 -7.564212E+04 -5.603055E+03  1.755013E+04
       202  20  1.096921E+06  9.311723E+04  8.338793E+04 -5.953694E+04 -3.095961E+03  2.400127E+04
       202  21  1.196378E+06  1.171046E+05  1.068975E+05 -7.546950E+04 -5.909790E+02  3.037967E+04
       202  22  7.092179E+05 -1.330871E+00  2.918220E+03 -7.570355E+04  2.036697E+03  1.754720E+04
       202  23  7.090080E+05 -8.574120E+01  4.885168E+03 -5.968400E+04  4.457370E+03  2.399978E+04
       202  24  7.091928E+05  9.329603E+01  8.494114E+03 -7.570340E+04  6.875542E+03  3.037957E+04
       202  25  4.206312E+05 -6.941574E+04 -5.574736E+04 -7.576494E+04  9.672969E+03  1.754427E+04
       202  26  3.212382E+05 -9.329801E+04 -7.362517E+04 -5.983095E+04  1.200608E+04  2.399829E+04
       202  27  2.222331E+05 -1.169327E+05 -8.992133E+04 -7.593709E+04  1.433632E+04  3.037946E+04
       203   1  1.268859E+06  1.340432E+05  1.245613E+05 -7.454735E+04 -7.823485E+02 -3.421814E+04
       203   2  1.367010E+06  1.583845E+05  1.530693E+05 -5.997329E+04 -1.215055E+04 -4.014250E+04
       203   3  1.468125E+06  1.882338E+05  1.903662E+05 -7.748035E+04 -2.351705E+04 -4.462073E+04
       203   4  7.096809E+05 -3.523077E+02  1.112496E+04 -7.571313E+04 -8.609055E+03 -3.421910E+04
       203   5  7.083269E+05  5.720953E+01  1.933125E+04 -5.967150E+04 -1.826471E+04 -4.014584E+04
       203   6  7.096346E+05  5.682286E+03  3.514547E+04 -7.571283E+04 -2.791689E+04 -4.462574E+04
       203   7  1.508002E+05 -1.347672E+05 -1.023274E+05 -7.687782E+04 -1.642885E+04 -3.422004E+04
       203   8  5.005567E+04 -1.582971E+05 -1.144293E+05 -5.937001E+04 -2.437251E+04 -4.014918E+04
       203   9 -4.831084E+04 -1.769053E+05 -1.201057E+05 -7.394749E+04 -3.231144E+04 -4.463077E+04
       203  10  1.268859E+06  1.340420E+05  1.245591E+05 -7.454737E+04 -4.085616E-10 -3.805338E-10
       203  11  1.367010E+06  1.583828E+05  1.530660E+05 -5.997369E+04 -1.303859E-09  2.168362E-11
       203  12  1.468124E+06  1.882315E+05  1.903614E+05 -7.748120E+04 -3.872618E-10  1.587256E-10
       203  13  7.096805E+05 -3.535855E+02  1.112262E+04 -7.571337E+04 -1.094127E-09 -4.255232E-10
       203  14  7.083261E+05  5.538878E+01  1.932760E+04 -5.967209E+04 -1.219331E-09 -1.256697E-10
       203  15  7.096332E+05  5.679938E+03  3.514026E+04 -7.571383E+04  1.047911E-09  1.363718E-10
       203  16  1.507996E+05 -1.347686E+05 -1.023302E+05 -7.687827E+04  1.755563E-10 -5.085193E-10
       203  17  5.005460E+04 -1.582990E+05 -1.144334E+05 -5.937080E+04 -8.138221E-10 -2.727728E-10
       203  18 -4.831250E+04 -1.769077E+05 -1.201114E+05 -7.394865E+04 -1.240772E-09  5.113101E-10
       203  19  1.268859E+06  1.340432E+05  1.245613E+05 -7.454735E+04  7.823485E+02  3.421814E+04
       203  20  1.367010E+06  1.583845E+05  1.530693E+05 -5.997329E+04  1.215055E+04  4.014250E+04
       203  21  1.468125E+06  1.882338E+05  1.903662E+05 -7.748035E+04  2.351705E+04  4.462073E+04
       203  22  7.096809E+05 -3.523077E+02  1.112496E+04 -7.571313E+04  8.609055E+03  3.421910E+04
       203  23  7.083269E+05  5.720953E+01  1.933125E+04 -5.967150E+04  1.826471E+04  4.014584E+04
       203  24  7.096346E+05  5.682286E+03  3.514547E+04 -7.571283E+04  2.791689E+04  4.462574E+04
       203  25  1.508002E+05 -1.347672E+05 -1.023274E+05 -7.687782E+04  1.642885E+04  3.422004E+04
       203  26  5.005567E+04 -1.582971E+05 -1.144293E+05 -5.937001E+04  2.437251E+04  4.014918E+04
       203  27 -4.831084E+04 -1.769053E+05 -1.201057E+05 -7.394749E+04  3.231144E+04  4.463077E+04
       204   1  1.548413E+06  1.956486E+05  2.147186E+05 -5.743854E+04 -2.310162E+04 -4.950034E+04
       204   2  1.628713E+06  2.369548E+05  2.762906E+05 -9.021865E+04 -9.629250E+04 -4.534923E+04
       204   3  1.749291E+06  4.004911E+05  4.160403E+05 -1.539362E+05 -1.695225E+05 -1.424497E+04
       204   4  7.167621E+05 -4.427937E+03  4.497365E+04 -7.543775E+04 -3.402850E+04 -4.950787E+04
       204   5  6.993032E+05  1.189252E+04  7.894826E+04 -6.001296E+04 -7.541242E+04 -4.534805E+04
       204   6  7.166551E+05  1.450209E+05  1.690992E+05 -7.551853E+04 -1.168207E+05 -1.422818E+04
       204   7 -1.142322E+05 -2.045465E+05 -1.248072E+05 -9.341248E+04 -4.494102E+04 -4.951478E+04
       204   8 -2.292918E+05 -2.132220E+05 -1.184413E+05 -2.985313E+04 -5.456300E+04 -4.534484E+04
       204   9 -3.149870E+05 -1.105018E+05 -7.790328E+04  2.768300E+03 -6.420576E+04 -1.419810E+04
       204  10  1.548412E+06  1.956459E+05  2.147130E+05 -5.743946E+04  1.978943E-09  3.664975E-11
       204  11  1.628703E+06  2.369501E+05  2.762693E+05 -9.022216E+04  1.324520E-09 -1.278560E-10
       204  12  1.749261E+06  4.004832E+05  4.159861E+05 -1.539381E+05  4.064493E-10  2.851085E-10
       204  13  7.167602E+05 -4.430880E+03  4.496687E+04 -7.543911E+04 -2.116306E-09 -5.013240E-10
       204  14  6.992965E+05  1.188879E+04  7.893372E+04 -6.001571E+04 -5.384703E-10 -3.435623E-10
       204  15  7.166404E+05  1.450170E+05  1.690732E+05 -7.551987E+04  1.979300E-10 -5.054945E-10
       204  16 -1.142350E+05 -2.045496E+05 -1.248156E+05 -9.341427E+04 -2.500775E-09  1.290260E-10
       204  17 -2.292956E+05 -2.132250E+05 -1.184508E+05 -2.985512E+04 -2.727283E-09 -1.002670E-09
       204  18 -3.149915E+05 -1.105031E+05 -7.791141E+04  2.767566E+03 -5.664231E-10  3.772339E-10
       204  19  1.548413E+06  1.956486E+05  2.147186E+05 -5.743854E+04  2.310162E+04  4.950034E+04
       204  20  1.628713E+06  2.369548E+05  2.762906E+05 -9.021865E+04  9.629250E+04  4.534923E+04
       204  21  1.749291E+06  4.004911E+05  4.160403E+05 -1.539362E+05  1.695225E+05  1.424497E+04
       204  22  7.167621E+05 -4.427937E+03  4.497365E+04 -7.543775E+04  3.402850E+04  4.950787E+04
       204  23  6.993032E+05  1.189252E+04  7.894826E+04 -6.001296E+04  7.541242E+04  4.534805E+04
       204  24  7.166551E+05  1.450209E+05  1.690992E+05 -7.551853E+04  1.168207E+05  1.422818E+04
       204  25 -1.142322E+05 -2.045465E+05 -1.248072E+05 -9.341248E+04  4.494102E+04  4.951478E+04
       204  26 -2.292918E+05 -2.132220E+05 -1.184413E+05 -2.985313E+04  5.456300E+04  4.534484E+04
       204  27 -3.149870E+05 -1.105018E+05 -7.790328E+04  2.768300E+03  6.420576E+04  1.419810E+04
       205   1  6.165916E+05  2.301391E+06  6.101675E+05 -5.224276E+05  2.452586E+04  1.447427E+05
       205   2  3.934777E+05  1.669362E+06  3.787039E+05 -4.055973E+05  7.062475E+04  5.014457E+04
       205   3  2.361998E+05  1.066202E+06  2.250744E+05 -4.767870E+05  5.577865E+04 -4.444182E+04
       205   4  6.752345E+04  8.677979E+04  7.705165E+04 -4.823579E+05  2.472693E+04  5.091847E+04
       205   5  7.560549E+03  7.927039E+04  3.796153E+04 -3.884138E+05  7.068320E+04  3.120886E+04
       205   6  5.808722E+02  8.739341E+04  2.489859E+04 -4.824964E+05  5.563066E+04  1.141514E+04
       205   7 -4.818916E+05 -2.123334E+06 -4.563802E+05 -4.424275E+05  2.491640E+04 -4.257345E+04
       205   8 -3.785209E+05 -1.508446E+06 -3.029266E+05 -3.712728E+05  7.074071E+04  1.232078E+04
       205   9 -2.350963E+05 -8.904990E+05 -1.753162E+05 -4.881957E+05  5.548150E+04  6.718575E+04
       205  10  6.165854E+05  2.301369E+06  6.101271E+05 -5.224304E+05  8.690514E-10  1.510188E-09
       205  11  3.934717E+05  1.669358E+06  3.786898E+05 -4.056001E+05  2.957489E-10  1.474424E-10
       205  12  2.361960E+05  1.066199E+06  2.250648E+05 -4.767850E+05  4.545943E-11 -1.747446E-09
       205  13  6.752209E+04  8.677684E+04  7.704563E+04 -4.823589E+05  8.701411E-10  1.515294E-11
       205  14  7.554921E+03  7.926801E+04  3.795031E+04 -3.884155E+05  2.894312E-10 -1.767910E-09
       205  15  5.775131E+02  8.739244E+04  2.489252E+04 -4.824969E+05  3.757335E-10 -3.695586E-10
       205  16 -4.818928E+05 -2.123336E+06 -4.563847E+05 -4.424267E+05  3.451708E-10 -6.957781E-10
       205  17 -3.785263E+05 -1.508448E+06 -3.029363E+05 -3.712735E+05  2.165973E-09 -6.308409E-10
       205  18 -2.351008E+05 -8.905047E+05 -1.753305E+05 -4.881987E+05  6.745099E-10  9.378823E-10
       205  19  6.165916E+05  2.301391E+06  6.101675E+05 -5.224276E+05 -2.452586E+04 -1.447427E+05
       205  20  3.934777E+05  1.669362E+06  3.787039E+05 -4.055973E+05 -7.062475E+04 -5.014457E+04
       205  21  2.361998E+05  1.066202E+06  2.250744E+05 -4.767870E+05 -5.577865E+04  4.444182E+04
       205  22  6.752345E+04  8.677979E+04  7.705165E+04 -4.823579E+05 -2.472693E+04 -5.091847E+04
       205  23  7.560549E+03  7.927039E+04  3.796153E+04 -3.884138E+05 -7.068320E+04 -3.120886E+04
       205  24  5.808722E+02  8.739341E+04  2.489859E+04 -4.824964E+05 -5.563066E+04 -1.141514E+04
       205  25 -4.818916E+05 -2.123334E+06 -4.563802E+05 -4.424275E+05 -2.491640E+04  4.257345E+04
       205  26 -3.785209E+05 -1.508446E+06 -3.029266E+05 -3.712728E+05 -7.074071E+04 -1.232078E+04
       205  27 -2.350963E+05 -8.904990E+05 -1.753162E+05 -4.881957E+05 -5.548150E+04 -6.718575E+04
       206   1  1.341200E+05  6.210781E+05  1.324151E+05 -4.856952E+05  2.978106E+04 -3.494491E+04
       206   2 -1.710360E+04  3.490292E+03  3.566167E+03 -3.874118E+05 -4.847862E+03 -4.452086E+04
       206   3 -1.625109E+05 -6.119525E+05 -1.178695E+05 -4.802589E+05 -3.924617E+04 -5.408443E+04
       206   4  4.739829E+03  8.446369E+04  2.196649E+04 -4.831586E+05  2.965978E+04  7.631138E+03
       206   5  2.114120E+03  8.353219E+04  1.961006E+04 -3.875943E+05 -4.966051E+03 -2.243682E+03
       206   6  5.376854E+03  8.443255E+04  2.488173E+04 -4.831567E+05 -3.936236E+04 -1.211521E+04
       206   7 -1.246575E+05 -4.518738E+05 -8.849079E+04 -4.806240E+05  2.953878E+04  5.017106E+04
       206   8  2.133241E+04  1.635840E+05  3.566035E+04 -3.877768E+05 -5.084255E+03  4.003883E+04
       206   9  1.732351E+05  7.812822E+05  1.676138E+05 -4.860573E+05 -3.947887E+04  2.990028E+04
       206  10  1.341187E+05  6.210765E+05  1.324112E+05 -4.856944E+05 -1.979796E-10  9.335855E-10
       206  11 -1.710416E+04  3.488157E+03  3.562397E+03 -3.874119E+05  7.920962E-10 -2.785845E-10
       206  12 -1.625134E+05 -6.119560E+05 -1.178779E+05 -4.802606E+05 -8.556155E-11 -1.736728E-09
       206  13  4.738868E+03  8.446339E+04  2.196472E+04 -4.831588E+05  1.353493E-10  9.962792E-12
       206  14  2.114092E+03  8.353218E+04  1.961001E+04 -3.875943E+05 -1.369937E-09 -2.263674E-09
       206  15  5.375150E+03  8.443198E+04  2.487854E+04 -4.831571E+05  3.237824E-10 -4.324966E-10
       206  16 -1.246592E+05 -4.518767E+05 -8.849717E+04 -4.806252E+05 -4.724110E-10  8.255803E-10
       206  17  2.133195E+04  1.635823E+05  3.565729E+04 -3.877767E+05 -8.008744E-10 -9.096900E-10
       206  18  1.732332E+05  7.812809E+05  1.676092E+05 -4.860563E+05  3.066039E-10  7.364823E-10
       206  19  1.341200E+05  6.210781E+05  1.324151E+05 -4.856952E+05 -2.978106E+04  3.494491E+04
       206  20 -1.710360E+04  3.490292E+03  3.566167E+03 -3.874118E+05  4.847862E+03  4.452086E+04
       206  21 -1.625109E+05 -6.119525E+05 -1.178695E+05 -4.802589E+05  3.924617E+04  5.408443E+04
       206  22  4.739829E+03  8.446369E+04  2.196649E+04 -4.831586E+05 -2.965978E+04 -7.631138E+03
       206  23  2.114120E+03  8.353219E+04  1.961006E+04 -3.875943E+05  4.966051E+03  2.243682E+03
       206  24  5.376854E+03  8.443255E+04  2.488173E+04 -4.831567E+05  3.936236E+04  1.211521E+04
       206  25 -1.246575E+05 -4.518738E+05 -8.849079E+04 -4.806240E+05 -2.953878E+04 -5.017106E+04
       206  26  2.133241E+04  1.635840E+05  3.566035E+04 -3.877768E+05  5.084255E+03 -4.003883E+04
       206  27  1.732351E+05  7.812822E+05  1.676138E+05 -4.860573E+05  3.947887E+04 -2.990028E+04
       207   1 -2.741516E+05 -1.049748E+06 -2.030968E+05 -4.900079E+05 -6.530624E+04 -7.260788E+04
       207   2 -4.156720E+05 -1.669336E+06 -3.273492E+05 -3.674294E+05 -7.888702E+04 -1.753839E+04
       207   3 -5.042763E+05 -2.282513E+06 -4.743286E+05 -4.327094E+05 -2.732889E+04  3.755693E+04
       207   4  2.363569E+01  8.826547E+04  2.935353E+04 -4.824502E+05 -6.545073E+04 -1.643103E+04
       207   5  9.110932E+03  7.801415E+04  4.702576E+04 -3.884665E+05 -7.881808E+04 -4.096826E+04
       207   6  8.487662E+04  8.759013E+04  9.727213E+04 -4.822828E+05 -2.713452E+04 -6.542510E+04
       207   7  2.741198E+05  1.227518E+06  2.617474E+05 -4.748771E+05 -6.559368E+04  3.984707E+04
       207   8  4.336957E+05  1.828243E+06  4.212253E+05 -4.095613E+05 -7.874768E+04 -6.446315E+04
       207   9  6.736334E+05  2.462870E+06  6.685124E+05 -5.320424E+05 -2.692418E+04 -1.687996E+05
       207  10 -2.741576E+05 -1.049755E+06 -2.031148E+05 -4.900117E+05  5.613557E-10  2.095177E-09
       207  11 -4.156787E+05 -1.669338E+06 -3.273614E+05 -3.674305E+05  1.330895E-09  4.884649E-10
       207  12 -5.042774E+05 -2.282514E+06 -4.743326E+05 -4.327086E+05  6.539583E-10 -1.365803E-09
       207  13  1.896179E+01  8.826403E+04  2.934496E+04 -4.824511E+05  3.188086E-10 -7.238662E-12
       207  14  9.103808E+03  7.801068E+04  4.701092E+04 -3.884691E+05 -9.407139E-10 -1.707209E-09
       207  15  8.487468E+04  8.758534E+04  9.726270E+04 -4.822842E+05  1.124747E-10 -2.354564E-10
       207  16  2.741147E+05  1.227516E+06  2.617364E+05 -4.748750E+05 -5.558344E-10 -2.420018E-10
       207  17  4.336879E+05  1.828237E+06  4.212059E+05 -4.095654E+05  8.833391E-10 -1.529248E-09
       207  18  6.736250E+05  2.462840E+06  6.684576E+05 -5.320461E+05  6.897134E-10  6.872191E-10
       207  19 -2.741516E+05 -1.049748E+06 -2.030968E+05 -4.900079E+05  6.530624E+04  7.260788E+04
       207  20 -4.156720E+05 -1.669336E+06 -3.273492E+05 -3.674294E+05  7.888702E+04  1.753839E+04
       207  21 -5.042763E+05 -2.282513E+06 -4.743286E+05 -4.327094E+05  2.732889E+04 -3.755693E+04
       207  22  2.363569E+01  8.826547E+04  2.935353E+04 -4.824502E+05  6.545073E+04  1.643103E+04
       207  23  9.110932E+03  7.801415E+04  4.702576E+04 -3.884665E+05  7.881808E+04  4.096826E+04
       207  24  8.487662E+04  8.759013E+04  9.727213E+04 -4.822828E+05  2.713452E+04  6.542510E+04
       207  25  2.741198E+05  1.227518E+06  2.617474E+05 -4.748771E+05  6.559368E+04 -3.984707E+04
       207  26  4.336957E+05  1.828243E+06  4.212253E+05 -4.095613E+05  7.874768E+04  6.446315E+04
       207  27  6.736334E+05  2.462870E+06  6.685124E+05 -5.320424E+05  2.692418E+04  1.687996E+05
       208   1 -2.143720E+06 -8.515431E+05 -4.965798E+05 -8.216353E+05 -2.184159E+05 -6.677034E+04
       208   2 -2.058712E+06 -5.693269E+05 -3.029464E+05 -7.896951E+05 -1.389360E+05 -3.420030E+03
       208   3 -2.029237E+06 -4.804744E+05 -2.237934E+05 -7.393352E+05 -4.966341E+04  3.395315E+04
       208   4 -1.315530E+06 -4.324306E+05 -2.576182E+05 -4.851605E+05 -1.701755E+05 -4.868136E+04
       208   5 -1.276470E+06 -2.382573E+05 -1.148019E+05 -5.320727E+05 -1.203228E+05  3.557434E+03
       208   6 -1.286971E+06 -2.314492E+05 -6.284581E+04 -5.605971E+05 -6.069428E+04  2.980814E+04
       208   7 -4.866491E+05 -1.309775E+04 -1.871458E+04 -1.482275E+05 -1.218654E+05 -3.054502E+04
       208   8 -4.936101E+05  9.291098E+04  7.329911E+04 -2.741346E+05 -1.016842E+05  1.054760E+04
       208   9 -5.441414E+05  1.759817E+04  9.807193E+04 -3.816710E+05 -7.173956E+04  2.565884E+04
       208  10 -2.143772E+06 -8.515607E+05 -4.966782E+05 -8.216470E+05  4.117973E-10  1.674491E-10
       208  11 -2.058732E+06 -5.693321E+05 -3.029828E+05 -7.896955E+05  1.005881E-09 -9.577546E-10
       208  12 -2.029240E+06 -4.804763E+05 -2.238002E+05 -7.393339E+05  1.013599E-09 -5.262255E-10
       208  13 -1.315562E+06 -4.324409E+05 -2.576772E+05 -4.851672E+05  2.047216E-10  2.156087E-10
       208  14 -1.276486E+06 -2.382612E+05 -1.148292E+05 -5.320724E+05  2.211104E-11 -1.660536E-09
       208  15 -1.286975E+06 -2.314511E+05 -6.285440E+04 -5.605956E+05  2.033157E-09 -6.439269E-10
       208  16 -4.866653E+05 -1.310275E+04 -1.874427E+04 -1.482305E+05 -5.135590E-10 -3.821911E-10
       208  17 -4.936212E+05  9.290808E+04  7.327946E+04 -2.741337E+05 -3.727236E-10 -9.086280E-10
       208  18 -5.441472E+05  1.759608E+04  9.806101E+04 -3.816695E+05 -2.905575E-10 -8.156078E-10
       208  19 -2.143720E+06 -8.515431E+05 -4.965798E+05 -8.216353E+05  2.184159E+05  6.677034E+04
       208  20 -2.058712E+06 -5.693269E+05 -3.029464E+05 -7.896951E+05  1.389360E+05  3.420030E+03
       208  21 -2.029237E+06 -4.804744E+05 -2.237934E+05 -7.393352E+05  4.966341E+04 -3.395315E+04
       208  22 -1.315530E+06 -4.324306E+05 -2.576182E+05 -4.851605E+05  1.701755E+05  4.868136E+04
       208  23 -1.276470E+06 -2.382573E+05 -1.148019E+05 -5.320727E+05  1.203228E+05 -3.557434E+03
       208  24 -1.286971E+06 -2.314492E+05 -6.284581E+04 -5.605971E+05  6.069428E+04 -2.980814E+04
       208  25 -4.866491E+05 -1.309775E+04 -1.871458E+04 -1.482275E+05  1.218654E+05  3.054502E+04
       208  26 -4.936101E+05  9.291098E+04  7.329911E+04 -2.741346E+05  1.016842E+05 -1.054760E+04
       208  27 -5.441414E+05  1.759817E+04  9.807193E+04 -3.816710E+05  7.173956E+04 -2.565884E+04
       209   1 -1.933383E+06 -4.890421E+05 -1.953288E+05 -7.351104E+05 -4.687639E+04  2.933969E+04
       209   2 -1.851521E+06 -4.342439E+05 -1.506537E+05 -6.977228E+05 -3.070749E+04  3.024160E+04
       209   3 -1.752355E+06 -4.094748E+05 -1.188637E+05 -6.841235E+05 -1.403050E+04  2.978565E+04
       209   4 -1.278846E+06 -2.446049E+05 -4.883104E+04 -5.518632E+05 -5.130200E+04  2.767426E+04
       209   5 -1.287027E+06 -2.254913E+05 -2.565287E+04 -5.415535E+05 -3.667159E+04  2.800100E+04
       209   6 -1.277600E+06 -2.360943E+05 -1.412727E+04 -5.550338E+05 -2.153564E+04  2.696958E+04
       209   7 -6.238770E+05 -1.318519E+02  9.763959E+04 -3.684375E+05 -5.573266E+04  2.600688E+04
       209   8 -7.222113E+05 -1.671409E+04  9.932783E+04 -3.852540E+05 -4.264155E+04  2.575819E+04
       209   9 -8.026194E+05 -6.269850E+04  9.059470E+04 -4.258545E+05 -2.904696E+04  2.415124E+04
       209  10 -1.933385E+06 -4.890436E+05 -1.953345E+05 -7.351093E+05  1.915874E-09 -1.684066E-10
       209  11 -1.851522E+06 -4.342452E+05 -1.506572E+05 -6.977220E+05  9.408056E-10 -2.692234E-10
       209  12 -1.752356E+06 -4.094758E+05 -1.188658E+05 -6.841232E+05  4.418049E-09  2.052653E-09
       209  13 -1.278849E+06 -2.446064E+05 -4.883742E+04 -5.518621E+05  2.109231E-11 -1.100719E-09
       209  14 -1.287028E+06 -2.254925E+05 -2.565688E+04 -5.415527E+05  1.843101E-09 -9.741951E-10
       209  15 -1.277600E+06 -2.360952E+05 -1.412950E+04 -5.550333E+05  1.528490E-09  1.026965E-09
       209  16 -6.238805E+05 -1.334113E+02  9.763248E+04 -3.684363E+05 -7.694251E-10 -1.778913E-09
       209  17 -7.222135E+05 -1.671529E+04  9.932317E+04 -3.852532E+05  5.014611E-12 -1.789573E-09
       209  18 -8.026205E+05 -6.269935E+04  9.059202E+04 -4.258539E+05  1.520842E-09  2.510378E-10
       209  19 -1.933383E+06 -4.890421E+05 -1.953288E+05 -7.351104E+05  4.687639E+04 -2.933969E+04
       209  20 -1.851521E+06 -4.342439E+05 -1.506537E+05 -6.977228E+05  3.070749E+04 -3.024160E+04
       209  21 -1.752355E+06 -4.094748E+05 -1.188637E+05 -6.841235E+05  1.403050E+04 -2.978565E+04
       209  22 -1.278846E+06 -2.446049E+05 -4.883104E+04 -5.518632E+05  5.130200E+04 -2.767426E+04
       209  23 -1.287027E+06 -2.254913E+05 -2.565287E+04 -5.415535E+05  3.667159E+04 -2.800100E+04
       209  24 -1.277600E+06 -2.360943E+05 -1.412727E+04 -5.550338E+05  2.153564E+04 -2.696958E+04
       209  25 -6.238770E+05 -1.318519E+02  9.763959E+04 -3.684375E+05  5.573266E+04 -2.600688E+04
       209  26 -7.222113E+05 -1.671409E+04  9.932783E+04 -3.852540E+05  4.264155E+04 -2.575819E+04
       209  27 -8.026194E+05 -6.269850E+04  9.059470E+04 -4.258545E+05  2.904696E+04 -2.415124E+04
       210   1 -1.683420E+06 -3.860473E+05 -1.000082E+05 -6.662470E+05 -1.094394E+04  2.662003E+04
       210   2 -1.601990E+06 -3.406782E+05 -7.507725E+04 -6.281643E+05 -5.562878E+03  2.143109E+04
       210   3 -1.498821E+06 -3.179510E+05 -5.248037E+04 -6.156023E+05 -1.535871E+02  1.616140E+04
       210   4 -1.276970E+06 -2.366575E+05 -1.066896E+04 -5.546116E+05 -1.812507E+04  2.392663E+04
       210   5 -1.287811E+06 -2.251959E+05 -5.857112E+03 -5.419008E+05 -1.283469E+04  1.870507E+04
       210   6 -1.276906E+06 -2.363586E+05 -3.306744E+03 -5.547136E+05 -7.516591E+03  1.340263E+04
       210   7 -8.703492E+05 -8.725397E+04  7.866124E+04 -4.429082E+05 -2.531134E+04  2.123130E+04
       210   8 -9.735299E+05 -1.097056E+05  6.335752E+04 -4.555969E+05 -2.011051E+04  1.597755E+04
       210   9 -1.054940E+06 -1.547624E+05  4.586408E+04 -4.938050E+05 -1.488245E+04  1.064281E+04
       210  10 -1.683421E+06 -3.860481E+05 -1.000098E+05 -6.662468E+05  4.559622E-08  1.922156E-08
       210  11 -1.601990E+06 -3.406787E+05 -7.507817E+04 -6.281642E+05  2.807299E-09  4.916315E-09
       210  12 -1.498821E+06 -3.179513E+05 -5.248086E+04 -6.156023E+05 -3.935124E-08 -1.285622E-08
       210  13 -1.276970E+06 -2.366582E+05 -1.067065E+04 -5.546112E+05  3.949461E-09  3.335944E-09
       210  14 -1.287811E+06 -2.251964E+05 -5.858079E+03 -5.419006E+05  3.388644E-09  4.810751E-09
       210  15 -1.276906E+06 -2.363588E+05 -3.307187E+03 -5.547136E+05  1.659632E-09  3.248247E-09
       210  16 -8.703500E+05 -8.725462E+04  7.865919E+04 -4.429078E+05 -3.938710E-08 -1.294855E-08
       210  17 -9.735304E+05 -1.097060E+05  6.335628E+04 -4.555966E+05  1.986954E-09  4.695855E-09
       210  18 -1.054940E+06 -1.547625E+05  4.586345E+04 -4.938049E+05  4.502868E-08  1.963886E-08
       210  19 -1.683420E+06 -3.860473E+05 -1.000082E+05 -6.662470E+05  1.094394E+04 -2.662003E+04
       210  20 -1.601990E+06 -3.406782E+05 -7.507725E+04 -6.281643E+05  5.562878E+03 -2.143109E+04
       210  21 -1.498821E+06 -3.179510E+05 -5.248037E+04 -6.156023E+05  1.535871E+02 -1.616140E+04
       210  22 -1.276970E+06 -2.366575E+05 -1.066896E+04 -5.546116E+05  1.812507E+04 -2.392663E+04
       210  23 -1.287811E+06 -2.251959E+05 -5.857112E+03 -5.419008E+05  1.283469E+04 -1.870507E+04
       210  24 -1.276906E+06 -2.363586E+05 -3.306744E+03 -5.547136E+05  7.516591E+03 -1.340263E+04
       210  25 -8.703492E+05 -8.725397E+04  7.866124E+04 -4.429082E+05  2.531134E+04 -2.123130E+04
       210  26 -9.735299E+05 -1.097056E+05  6.335752E+04 -4.555969E+05  2.011051E+04 -1.597755E+04
       210  27 -1.054940E+06 -1.547624E+05  4.586408E+04 -4.938050E+05  1.488245E+04 -1.064281E+04
       211   1 -1.430976E+06 -2.929920E+05 -3.620780E+04 -5.970465E+05  1.725605E+03  1.259199E+04
       211   2 -1.349479E+06 -2.478324E+05 -1.516144E+04 -5.587841E+05  4.940371E+03  6.461984E+03
       211   3 -1.245789E+06 -2.250039E+05  5.279533E+03 -5.461238E+05  8.156799E+03  3.262893E+02
       211   4 -1.276815E+06 -2.363823E+05 -2.549701E+03 -5.546959E+05 -5.627866E+03  9.837328E+03
       211   5 -1.287905E+06 -2.252176E+05 -1.603751E+03 -5.418922E+05 -2.419912E+03  3.705042E+03
       211   6 -1.276811E+06 -2.363834E+05 -1.257594E+03 -5.546938E+05  7.895795E+02 -2.432966E+03
       211   7 -1.122630E+06 -1.797710E+05  3.110692E+04 -5.123359E+05 -1.298327E+04  7.081943E+03
       211   8 -1.226328E+06 -2.026025E+05  1.195394E+04 -5.249987E+05 -9.780984E+03  9.478060E+02
       211   9 -1.307832E+06 -2.477628E+05 -7.794598E+03 -5.632634E+05 -6.577290E+03 -5.192091E+03
       211  10 -1.430976E+06 -2.929922E+05 -3.620810E+04 -5.970465E+05  2.624082E-09  5.903495E-10
       211  11 -1.349479E+06 -2.478324E+05 -1.516156E+04 -5.587841E+05 -9.251921E-10 -3.226261E-09
       211  12 -1.245789E+06 -2.250039E+05  5.279408E+03 -5.461238E+05 -2.258119E-09 -3.132638E-09
       211  13 -1.276815E+06 -2.363824E+05 -2.549942E+03 -5.546959E+05  2.204692E-09  1.266307E-09
       211  14 -1.287905E+06 -2.252177E+05 -1.603788E+03 -5.418922E+05  9.626210E-10 -1.988085E-09
       211  15 -1.276811E+06 -2.363834E+05 -1.257606E+03 -5.546938E+05 -7.356672E-10 -2.259638E-09
       211  16 -1.122630E+06 -1.797711E+05  3.110651E+04 -5.123359E+05  1.600208E-09  1.577165E-09
       211  17 -1.226328E+06 -2.026026E+05  1.195376E+04 -5.249987E+05  5.214344E-10 -1.309820E-09
       211  18 -1.307832E+06 -2.477628E+05 -7.794730E+03 -5.632634E+05  2.744818E-09 -8.753639E-10
       211  19 -1.430976E+06 -2.929920E+05 -3.620780E+04 -5.970465E+05 -1.725605E+03 -1.259199E+04
       211  20 -1.349479E+06 -2.478324E+05 -1.516144E+04 -5.587841E+05 -4.940371E+03 -6.461984E+03
       211  21 -1.245789E+06 -2.250039E+05  5.279533E+03 -5.461238E+05 -8.156799E+03 -3.262893E+02
       211  22 -1.276815E+06 -2.363823E+05 -2.549701E+03 -5.546959E+05  5.627866E+03 -9.837328E+03
       211  23 -1.287905E+06 -2.252176E+05 -1.603751E+03 -5.418922E+05  2.419912E+03 -3.705042E+03
       211  24 -1.276811E+06 -2.363834E+05 -1.257594E+03 -5.546938E+05 -7.895795E+02  2.432966E+03
       211  25 -1.122630E+06 -1.797710E+05  3.110692E+04 -5.123359E+05  1.298327E+04 -7.081943E+03
       211  26 -1.226328E+06 -2.026025E+05  1.195394E+04 -5.249987E+05  9.780984E+03 -9.478060E+02
       211  27 -1.307832E+06 -2.477628E+05 -7.794598E+03 -5.632634E+05  6.577290E+03  5.192091E+03
       212   1 -1.177993E+06 -1.999523E+05  2.081285E+04 -5.275094E+05  9.767708E+03 -3.343900E+03
       212   2 -1.096587E+06 -1.548460E+05  4.053628E+04 -4.892731E+05  1.296312E+04 -9.480722E+03
       212   3 -9.930024E+05 -1.320429E+05  5.967100E+04 -4.766062E+05  1.615593E+04 -1.560630E+04
       212   4 -1.276817E+06 -2.363797E+05 -1.256805E+03 -5.546868E+05  2.402624E+03 -6.102543E+03
       212   5 -1.287909E+06 -2.252377E+05 -1.602596E+03 -5.418988E+05  5.609833E+03 -1.223582E+04
       212   6 -1.276833E+06 -2.364023E+05 -2.546235E+03 -5.546839E+05  8.814300E+03 -1.835786E+04
       212   7 -1.375630E+06 -2.728062E+05 -2.332683E+04 -5.818602E+05 -4.961188E+03 -8.860710E+03
       212   8 -1.479192E+06 -2.956262E+05 -4.374329E+04 -5.945093E+05 -1.740973E+03 -1.499000E+04
       212   9 -1.560579E+06 -3.407546E+05 -6.476757E+04 -6.327283E+05  1.476352E+03 -2.110805E+04
       212  10 -1.177993E+06 -1.999524E+05  2.081265E+04 -5.275094E+05 -3.535480E-09 -2.269199E-09
       212  11 -1.096587E+06 -1.548462E+05  4.053580E+04 -4.892730E+05  9.701334E-09  4.150037E-09
       212  12 -9.930028E+05 -1.320433E+05  5.967005E+04 -4.766060E+05  2.036052E-08  8.046896E-09
       212  13 -1.276817E+06 -2.363797E+05 -1.256886E+03 -5.546868E+05  8.686923E-10 -8.302412E-10
       212  14 -1.287909E+06 -2.252379E+05 -1.602936E+03 -5.418987E+05  3.013504E-09  5.424198E-10
       212  15 -1.276833E+06 -2.364027E+05 -2.547013E+03 -5.546838E+05  5.053676E-09  2.436293E-09
       212  16 -1.375630E+06 -2.728063E+05 -2.332703E+04 -5.818603E+05  6.537575E-09  5.527039E-10
       212  17 -1.479193E+06 -2.956265E+05 -4.374372E+04 -5.945093E+05 -3.307142E-09 -2.132023E-09
       212  18 -1.560579E+06 -3.407551E+05 -6.476842E+04 -6.327282E+05 -1.205734E-08 -3.437281E-09
       212  19 -1.177993E+06 -1.999523E+05  2.081285E+04 -5.275094E+05 -9.767708E+03  3.343900E+03
       212  20 -1.096587E+06 -1.548460E+05  4.053628E+04 -4.892731E+05 -1.296312E+04  9.480722E+03
       212  21 -9.930024E+05 -1.320429E+05  5.967100E+04 -4.766062E+05 -1.615593E+04  1.560630E+04
       212  22 -1.276817E+06 -2.363797E+05 -1.256805E+03 -5.546868E+05 -2.402624E+03  6.102543E+03
       212  23 -1.287909E+06 -2.252377E+05 -1.602596E+03 -5.418988E+05 -5.609833E+03  1.223582E+04
       212  24 -1.276833E+06 -2.364023E+05 -2.546235E+03 -5.546839E+05 -8.814300E+03  1.835786E+04
       212  25 -1.375630E+06 -2.728062E+05 -2.332683E+04 -5.818602E+05  4.961188E+03  8.860710E+03
       212  26 -1.479192E+06 -2.956262E+05 -4.374329E+04 -5.945093E+05  1.740973E+03  1.499000E+04
       212  27 -1.560579E+06 -3.407546E+05 -6.476757E+04 -6.327283E+05 -1.476352E+03  2.110805E+04
       213   1 -9.254645E+05 -1.070677E+05  7.439808E+04 -4.580840E+05  1.804947E+04 -1.916019E+04
       213   2 -8.443509E+05 -6.214845E+04  9.182778E+04 -4.199753E+05  2.324997E+04 -2.447922E+04
       213   3 -7.415095E+05 -3.975068E+04  1.070915E+05 -4.072832E+05  2.841876E+04 -2.970257E+04
       213   4 -1.276934E+06 -2.363700E+05 -3.300185E+03 -5.546861E+05  1.070011E+04 -2.191552E+04
       213   5 -1.287820E+06 -2.252581E+05 -5.848252E+03 -5.419212E+05  1.600656E+04 -2.719687E+04
       213   6 -1.277009E+06 -2.366918E+05 -1.064794E+04 -5.545786E+05  2.128082E+04 -3.238263E+04
       213   7 -1.628280E+06 -3.656636E+05 -8.100651E+04 -6.512386E+05  3.355196E+03 -2.466919E+04
       213   8 -1.731090E+06 -3.883530E+05 -1.035365E+05 -6.637875E+05  8.768721E+03 -2.991244E+04
       213   9 -1.812217E+06 -4.336107E+05 -1.284046E+05 -7.017573E+05  1.414955E+04 -3.506019E+04
       213  10 -9.254649E+05 -1.070682E+05  7.439678E+04 -4.580838E+05 -1.137983E-08 -4.204608E-09
       213  11 -8.443516E+05 -6.214924E+04  9.182564E+04 -4.199748E+05 -6.213044E-09 -2.970414E-09
       213  12 -7.415106E+05 -3.975184E+04  1.070883E+05 -4.072825E+05  3.076489E-09  1.909788E-10
       213  13 -1.276934E+06 -2.363705E+05 -3.301302E+03 -5.546859E+05  2.655221E-09  1.958679E-09
       213  14 -1.287820E+06 -2.252589E+05 -5.850123E+03 -5.419208E+05 -1.139089E-09 -7.555822E-10
       213  15 -1.277009E+06 -2.366931E+05 -1.065076E+04 -5.545780E+05 -7.099705E-10 -8.438619E-10
       213  16 -1.628280E+06 -3.656643E+05 -8.100767E+04 -6.512386E+05  1.665201E-08  7.876451E-09
       213  17 -1.731091E+06 -3.883540E+05 -1.035384E+05 -6.637873E+05  5.326571E-09  1.878861E-09
       213  18 -1.812218E+06 -4.336121E+05 -1.284073E+05 -7.017569E+05 -3.381247E-09 -2.177162E-09
       213  19 -9.254645E+05 -1.070677E+05  7.439808E+04 -4.580840E+05 -1.804947E+04  1.916019E+04
       213  20 -8.443509E+05 -6.214845E+04  9.182778E+04 -4.199753E+05 -2.324997E+04  2.447922E+04
       213  21 -7.415095E+05 -3.975068E+04  1.070915E+05 -4.072832E+05 -2.841876E+04  2.970257E+04
       213  22 -1.276934E+06 -2.363700E+05 -3.300185E+03 -5.546861E+05 -1.070011E+04  2.191552E+04
       213  23 -1.287820E+06 -2.252581E+05 -5.848252E+03 -5.419212E+05 -1.600656E+04  2.719687E+04
       213  24 -1.277009E+06 -2.366918E+05 -1.064794E+04 -5.545786E+05 -2.128082E+04  3.238263E+04
       213  25 -1.628280E+06 -3.656636E+05 -8.100651E+04 -6.512386E+05 -3.355196E+03  2.466919E+04
       213  26 -1.731090E+06 -3.883530E+05 -1.035365E+05 -6.637875E+05 -8.768721E+03  2.991244E+04
       213  27 -1.812217E+06 -4.336107E+05 -1.284046E+05 -7.017573E+05 -1.414955E+04  3.506019E+04
       214   1 -6.740992E+05 -1.527910E+04  1.189569E+05 -3.902701E+05  3.218961E+04 -3.259966E+04
       214   2 -5.941944E+05  3.049097E+04  1.276516E+05 -3.498510E+05  4.551522E+04 -3.419078E+04
       214   3 -4.964037E+05  4.703945E+04  1.261211E+05 -3.330557E+05  5.826842E+04 -3.423987E+04
       214   4 -1.277653E+06 -2.361229E+05 -1.409904E+04 -5.549880E+05  2.468567E+04 -3.541851E+04
       214   5 -1.287042E+06 -2.255906E+05 -2.560368E+04 -5.415877E+05  3.976085E+04 -3.635604E+04
       214   6 -1.278906E+06 -2.446356E+05 -4.873093E+04 -5.518162E+05  5.426161E+04 -3.575134E+04
       214   7 -1.880834E+06 -4.569380E+05 -1.471760E+05 -7.195583E+05  1.718967E+04 -3.823443E+04
       214   8 -1.979404E+06 -4.816341E+05 -1.788885E+05 -7.331278E+05  3.401341E+04 -3.851868E+04
       214   9 -2.060795E+06 -5.362620E+05 -2.236229E+05 -7.703239E+05  5.026023E+04 -3.726074E+04
       214  10 -6.741006E+05 -1.528052E+04  1.189530E+05 -3.902693E+05 -5.115213E-10 -3.721389E-10
       214  11 -5.941969E+05  3.048916E+04  1.276455E+05 -3.498497E+05 -1.813554E-10 -1.178271E-10
       214  12 -4.964076E+05  4.703728E+04  1.261125E+05 -3.330541E+05  3.428942E-10  1.808079E-10
       214  13 -1.277654E+06 -2.361244E+05 -1.410254E+04 -5.549873E+05 -4.677836E-10 -6.257966E-10
       214  14 -1.287044E+06 -2.255925E+05 -2.560913E+04 -5.415866E+05 -1.350930E-09 -9.262720E-11
       214  15 -1.278910E+06 -2.446378E+05 -4.873886E+04 -5.518147E+05  7.311809E-10  1.612546E-11
       214  16 -1.880835E+06 -4.569397E+05 -1.471793E+05 -7.195578E+05  9.315748E-10 -6.794334E-10
       214  17 -1.979406E+06 -4.816360E+05 -1.788934E+05 -7.331267E+05 -3.403805E-10 -3.002741E-10
       214  18 -2.060798E+06 -5.362642E+05 -2.236303E+05 -7.703224E+05 -8.620337E-11 -1.659047E-10
       214  19 -6.740992E+05 -1.527910E+04  1.189569E+05 -3.902701E+05 -3.218961E+04  3.259966E+04
       214  20 -5.941944E+05  3.049097E+04  1.276516E+05 -3.498510E+05 -4.551522E+04  3.419078E+04
       214  21 -4.964037E+05  4.703945E+04  1.261211E+05 -3.330557E+05 -5.826842E+04  3.423987E+04
       214  22 -1.277653E+06 -2.361229E+05 -1.409904E+04 -5.549880E+05 -2.468567E+04  3.541851E+04
       214  23 -1.287042E+06 -2.255906E+05 -2.560368E+04 -5.415877E+05 -3.976085E+04  3.635604E+04
       214  24 -1.278906E+06 -2.446356E+05 -4.873093E+04 -5.518162E+05 -5.426161E+04  3.575134E+04
       214  25 -1.880834E+06 -4.569380E+05 -1.471760E+05 -7.195583E+05 -1.718967E+04  3.823443E+04
       214  26 -1.979404E+06 -4.816341E+05 -1.788885E+05 -7.331278E+05 -3.401341E+04  3.851868E+04
       214  27 -2.060795E+06 -5.362620E+05 -2.236229E+05 -7.703239E+05 -5.026023E+04  3.726074E+04
       215   1 -4.170646E+05  6.468807E+04  1.263696E+05 -3.462066E+05  7.519996E+04 -3.370583E+04
       215   2 -3.674310E+05  1.396854E+05  1.025564E+05 -2.393286E+05  1.005389E+05 -1.878342E+04
       215   3 -3.607043E+05  3.488215E+04  1.486673E+04 -1.137632E+05  1.147969E+05  2.558900E+04
       215   4 -1.287049E+06 -2.314773E+05 -6.271557E+04 -5.604875E+05  6.369447E+04 -3.803402E+04
       215   5 -1.276482E+06 -2.383970E+05 -1.145685E+05 -5.321794E+05  1.226894E+05 -1.046661E+04
       215   6 -1.315611E+06 -4.319687E+05 -2.570787E+05 -4.851666E+05  1.705882E+05  4.656321E+04
       215   7 -2.156270E+06 -5.276113E+05 -2.518449E+05 -7.745048E+05  5.220644E+04 -4.235683E+04
       215   8 -2.184693E+06 -6.163541E+05 -3.317491E+05 -8.246142E+05  1.448045E+05 -2.166814E+03
       215   9 -2.269582E+06 -8.985544E+05 -5.290927E+05 -8.559849E+05  2.262850E+05  6.747748E+04
       215  10 -4.170710E+05  6.468534E+04  1.263568E+05 -3.462046E+05 -1.597029E-09  5.658632E-10
       215  11 -3.674420E+05  1.396823E+05  1.025367E+05 -2.393271E+05 -4.533002E-10  2.330177E-09
       215  12 -3.607186E+05  3.487790E+04  1.484072E+04 -1.137656E+05  9.089118E-10  4.921840E-10
       215  13 -1.287054E+06 -2.314799E+05 -6.272592E+04 -5.604856E+05 -7.049811E-10  1.077679E-09
       215  14 -1.276499E+06 -2.384012E+05 -1.145971E+05 -5.321783E+05 -1.851048E-09  6.190826E-10
       215  15 -1.315643E+06 -4.319789E+05 -2.571376E+05 -4.851730E+05 -8.087187E-10  9.002932E-10
       215  16 -2.156274E+06 -5.276140E+05 -2.518534E+05 -7.745030E+05  8.494783E-10  5.185787E-10
       215  17 -2.184716E+06 -6.163597E+05 -3.317886E+05 -8.246140E+05 -2.037031E-09  1.525136E-09
       215  18 -2.269639E+06 -8.985732E+05 -5.291979E+05 -8.559972E+05 -9.994099E-10 -5.812189E-10
       215  19 -4.170646E+05  6.468807E+04  1.263696E+05 -3.462066E+05 -7.519996E+04  3.370583E+04
       215  20 -3.674310E+05  1.396854E+05  1.025564E+05 -2.393286E+05 -1.005389E+05  1.878342E+04
       215  21 -3.607043E+05  3.488215E+04  1.486673E+04 -1.137632E+05 -1.147969E+05 -2.558900E+04
       215  22 -1.287049E+06 -2.314773E+05 -6.271557E+04 -5.604875E+05 -6.369447E+04  3.803402E+04
       215  23 -1.276482E+06 -2.383970E+05 -1.145685E+05 -5.321794E+05 -1.226894E+05  1.046661E+04
       215  24 -1.315611E+06 -4.319687E+05 -2.570787E+05 -4.851666E+05 -1.705882E+05 -4.656321E+04
       215  25 -2.156270E+06 -5.276113E+05 -2.518449E+05 -7.745048E+05 -5.220644E+04  4.235683E+04
       215  26 -2.184693E+06 -6.163541E+05 -3.317491E+05 -8.246142E+05 -1.448045E+05  2.166814E+03
       215  27 -2.269582E+06 -8.985544E+05 -5.290927E+05 -8.559849E+05 -2.262850E+05 -6.747748E+04
       216   1 -1.313489E+04 -4.193316E+04 -8.506740E+03  1.777175E+04  8.855942E+04  1.141135E+04
       216   2  6.446336E+04 -1.629963E+05 -6.625644E+04 -2.336839E+04  6.837066E+04  3.618119E+04
       216   3  1.759380E+05 -1.597976E+05 -7.976666E+04 -9.264383E+04  4.819626E+04  3.908628E+04
       216   4  8.233656E+05  1.650914E+05  1.914635E+05 -7.315711E+04  1.324073E+05  1.143138E+04
       216   5  8.041872E+05  1.603246E+04  8.977786E+04 -5.904098E+04  8.540256E+04  3.618424E+04
       216   6  8.234742E+05 -4.205878E+03  5.089722E+04 -7.305281E+04  3.841724E+04  3.908056E+04
       216   7  1.660529E+06  3.720975E+05  3.913962E+05 -1.642091E+05  1.763140E+05  1.143856E+04
       216   8  1.544431E+06  1.950310E+05  2.457831E+05 -9.475679E+04  1.024544E+05  3.618534E+04
       216   9  1.471411E+06  1.513614E+05  1.815401E+05 -5.344099E+04  2.862820E+04  3.907423E+04
       216  10 -1.314334E+04 -4.193541E+04 -8.521723E+03  1.777094E+04  8.450213E-10 -7.453234E-10
       216  11  6.445799E+04 -1.629990E+05 -6.626768E+04 -2.337038E+04  3.539230E-10  4.105272E-10
       216  12  1.759351E+05 -1.597998E+05 -7.977389E+04 -9.264534E+04 -2.689509E-09 -4.382559E-10
       216  13  8.233468E+05  1.650865E+05  1.914304E+05 -7.315833E+04  8.542495E-10  6.092234E-10
       216  14  8.041790E+05  1.602910E+04  8.976171E+04 -5.904347E+04  4.566475E-10  1.072512E-10
       216  15  8.234722E+05 -4.207914E+03  5.089158E+04 -7.305402E+04 -1.175529E-09 -2.233799E-10
       216  16  1.660496E+06  3.720891E+05  3.913377E+05 -1.642107E+05 -1.353509E-09  4.680921E-10
       216  17  1.544419E+06  1.950268E+05  2.457609E+05 -9.475977E+04 -2.683704E-10  1.435685E-10
       216  18  1.471409E+06  1.513595E+05  1.815357E+05 -5.344189E+04  1.086084E-09  1.511580E-09
       216  19 -1.313489E+04 -4.193316E+04 -8.506740E+03  1.777175E+04 -8.855942E+04 -1.141135E+04
       216  20  6.446336E+04 -1.629963E+05 -6.625644E+04 -2.336839E+04 -6.837066E+04 -3.618119E+04
       216  21  1.759380E+05 -1.597976E+05 -7.976666E+04 -9.264383E+04 -4.819626E+04 -3.908628E+04
       216  22  8.233656E+05  1.650914E+05  1.914635E+05 -7.315711E+04 -1.324073E+05 -1.143138E+04
       216  23  8.041872E+05  1.603246E+04  8.977786E+04 -5.904098E+04 -8.540256E+04 -3.618424E+04
       216  24  8.234742E+05 -4.205878E+03  5.089722E+04 -7.305281E+04 -3.841724E+04 -3.908056E+04
       216  25  1.660529E+06  3.720975E+05  3.913962E+05 -1.642091E+05 -1.763140E+05 -1.143856E+04
       216  26  1.544431E+06  1.950310E+05  2.457831E+05 -9.475679E+04 -1.024544E+05 -3.618534E+04
       216  27  1.471411E+06  1.513614E+05  1.815401E+05 -5.344099E+04 -2.862820E+04 -3.907423E+04
       217   1  2.357678E+05 -1.330198E+05 -7.752814E+04 -7.138939E+04  3.627727E+04  3.474913E+04
       217   2  3.282828E+05 -1.164196E+05 -7.545596E+04 -5.850272E+04  2.690114E+04  3.024665E+04
       217   3  4.234393E+05 -9.446090E+04 -6.592297E+04 -7.469244E+04  1.752160E+04  2.450889E+04
       217   4  8.155772E+05  6.312137E+03  3.965656E+04 -7.328730E+04  3.154409E+04  3.474493E+04
       217   5  8.141483E+05  1.513080E+02  2.183436E+04 -5.874936E+04  2.064579E+04  3.024344E+04
       217   6  8.156129E+05 -3.898347E+02  1.252318E+04 -7.328617E+04  9.745455E+03  2.450709E+04
       217   7  1.395707E+06  1.456232E+05  1.568240E+05 -7.518701E+04  2.680656E+04  3.474076E+04
       217   8  1.300239E+06  1.167077E+05  1.191129E+05 -5.899620E+04  1.438563E+04  3.024023E+04
       217   9  1.207933E+06  9.367183E+04  9.096179E+04 -7.187899E+04  1.964499E+03  2.450526E+04
       217  10  2.357660E+05 -1.330214E+05 -7.753288E+04 -7.139041E+04 -7.380519E-10 -2.129388E-10
       217  11  3.282818E+05 -1.164208E+05 -7.545904E+04 -5.850337E+04  2.671131E-10  6.428952E-12
       217  12  4.234388E+05 -9.446162E+04 -6.592468E+04 -7.469279E+04 -2.404088E-10 -8.058527E-10
       217  13  8.155758E+05  6.310573E+03  3.965242E+04 -7.328818E+04  8.309714E-10  8.784604E-10
       217  14  8.141476E+05  1.502112E+02  2.183184E+04 -5.874986E+04 -4.128041E-10  1.549845E-10
       217  15  8.156126E+05 -3.905054E+02  1.252187E+04 -7.328636E+04 -1.817386E-09 -8.825192E-10
       217  16  1.395706E+06  1.456218E+05  1.568204E+05 -7.518776E+04 -8.126092E-10  1.001566E-09
       217  17  1.300239E+06  1.167067E+05  1.191108E+05 -5.899655E+04  1.529573E-09 -2.139914E-10
       217  18  1.207933E+06  9.367118E+04  9.096065E+04 -7.187902E+04 -8.955716E-10 -5.021022E-10
       217  19  2.357678E+05 -1.330198E+05 -7.752814E+04 -7.138939E+04 -3.627727E+04 -3.474913E+04
       217  20  3.282828E+05 -1.164196E+05 -7.545596E+04 -5.850272E+04 -2.690114E+04 -3.024665E+04
       217  21  4.234393E+05 -9.446090E+04 -6.592297E+04 -7.469244E+04 -1.752160E+04 -2.450889E+04
       217  22  8.155772E+05  6.312137E+03  3.965656E+04 -7.328730E+04 -3.154409E+04 -3.474493E+04
       217  23  8.141483E+05  1.513080E+02  2.183436E+04 -5.874936E+04 -2.064579E+04 -3.024344E+04
       217  24  8.156129E+05 -3.898347E+02  1.252318E+04 -7.328617E+04 -9.745455E+03 -2.450709E+04
       217  25  1.395707E+06  1.456232E+05  1.568240E+05 -7.518701E+04 -2.680656E+04 -3.474076E+04
       217  26  1.300239E+06  1.167077E+05  1.191129E+05 -5.899620E+04 -1.438563E+04 -3.024023E+04
       217  27  1.207933E+06  9.367183E+04  9.096179E+04 -7.187899E+04 -1.964499E+03 -2.450526E+04
       218   1  4.897042E+05 -7.789923E+04 -5.514939E+04 -7.368440E+04  1.528158E+04  2.083137E+04
       218   2  5.830668E+05 -5.568692E+04 -4.077997E+04 -5.904763E+04  1.268251E+04  1.468495E+04
       218   3  6.768535E+05 -3.323564E+04 -2.465553E+04 -7.346810E+04  1.008172E+04  8.471566E+03
       218   4  8.150756E+05  6.502335E+01  9.534320E+03 -7.328257E+04  7.797315E+03  2.083032E+04
       218   5  8.148676E+05 -1.222606E+02  5.422453E+03 -5.875432E+04  5.114435E+03  1.468468E+04
       218   6  8.150907E+05 -5.551547E+01  3.123202E+03 -7.328269E+04  2.430211E+03  8.472114E+03
       218   7  1.140548E+06  7.802285E+04  7.421297E+04 -7.288052E+04  3.092129E+02  2.082925E+04
       218   8  1.046720E+06  5.543915E+04  5.162240E+04 -5.846090E+04 -2.456406E+03  1.468440E+04
       218   9  9.533461E+05  3.312347E+04  3.090118E+04 -7.309723E+04 -5.222964E+03  8.472658E+03
       218  10  4.897039E+05 -7.789976E+04 -5.515065E+04 -7.368465E+04  6.712220E-10 -9.744368E-10
       218  11  5.830666E+05 -5.568720E+04 -4.078068E+04 -5.904778E+04 -1.339574E-09 -5.366810E-10
       218  12  6.768534E+05 -3.323575E+04 -2.465585E+04 -7.346817E+04  1.875547E-09 -3.632186E-10
       218  13  8.150754E+05  6.454091E+01  9.533390E+03 -7.328270E+04 -1.362857E-09 -6.823072E-10
       218  14  8.148675E+05 -1.224993E+02  5.421998E+03 -5.875438E+04 -1.897778E-09 -3.754165E-10
       218  15  8.150907E+05 -5.559417E+01  3.123056E+03 -7.328270E+04 -1.457012E-11 -3.818544E-10
       218  16  1.140548E+06  7.802238E+04  7.421216E+04 -7.288052E+04 -4.620785E-11 -3.157522E-10
       218  17  1.046720E+06  5.543891E+04  5.162198E+04 -5.846087E+04 -3.254016E-09 -3.844529E-10
       218  18  9.533461E+05  3.312338E+04  3.090099E+04 -7.309719E+04 -2.648774E-09 -6.656369E-10
       218  19  4.897042E+05 -7.789923E+04 -5.514939E+04 -7.368440E+04 -1.528158E+04 -2.083137E+04
       218  20  5.830668E+05 -5.568692E+04 -4.077997E+04 -5.904763E+04 -1.268251E+04 -1.468495E+04
       218  21  6.768535E+05 -3.323564E+04 -2.465553E+04 -7.346810E+04 -1.008172E+04 -8.471566E+03
       218  22  8.150756E+05  6.502335E+01  9.534320E+03 -7.328257E+04 -7.797315E+03 -2.083032E+04
       218  23  8.148676E+05 -1.222606E+02  5.422453E+03 -5.875432E+04 -5.114435E+03 -1.468468E+04
       218  24  8.150907E+05 -5.551547E+01  3.123202E+03 -7.328269E+04 -2.430211E+03 -8.472114E+03
       218  25  1.140548E+06  7.802285E+04  7.421297E+04 -7.288052E+04 -3.092129E+02 -2.082925E+04
       218  26  1.046720E+06  5.543915E+04  5.162240E+04 -5.846090E+04  2.456406E+03 -1.468440E+04
       218  27  9.533461E+05  3.312347E+04  3.090118E+04 -7.309723E+04  5.222964E+03 -8.472658E+03
       219   1  7.434407E+05 -1.714328E+04 -1.164967E+04 -7.341046E+04  9.565766E+03  4.837908E+03
       219   2  8.369006E+05  5.224651E+03  5.736469E+03 -5.884659E+04  8.894128E+03 -1.395107E+03
       219   3  9.304640E+05  2.760381E+04  2.356256E+04 -7.332053E+04  8.222517E+03 -7.632292E+03
       219   4  8.150188E+05 -3.565335E+01  2.372996E+03 -7.327853E+04  1.931920E+03  4.838675E+03
       219   5  8.149711E+05 -3.041694E+01  1.370171E+03 -5.875961E+04  1.254501E+03 -1.394430E+03
       219   6  8.150179E+05 -1.291586E+01  8.108276E+02 -7.327856E+04  5.772058E+02 -7.631678E+03
       219   7  8.866020E+05  1.707169E+04  1.639564E+04 -7.314658E+04 -5.702786E+03  4.839438E+03
       219   8  7.930422E+05 -5.285483E+03 -2.995931E+03 -5.867262E+04 -6.384863E+03 -1.393756E+03
       219   9  6.995846E+05 -2.763042E+04 -2.194134E+04 -7.323659E+04 -7.066716E+03 -7.631066E+03
       219  10  7.434406E+05 -1.714333E+04 -1.164989E+04 -7.341050E+04 -3.576747E-09 -1.263474E-10
       219  11  8.369005E+05  5.224628E+03  5.736317E+03 -5.884658E+04  7.489088E-09  9.265921E-10
       219  12  9.304639E+05  2.760373E+04  2.356233E+04 -7.332047E+04  1.753707E-08  1.559021E-09
       219  13  8.150188E+05 -3.567950E+01  2.372945E+03 -7.327853E+04 -5.386688E-10 -1.446194E-10
       219  14  8.149711E+05 -3.041945E+01  1.370165E+03 -5.875960E+04 -1.506060E-10  8.032792E-10
       219  15  8.150179E+05 -1.297852E+01  8.107175E+02 -7.327855E+04 -8.628729E-10  1.659835E-09
       219  16  8.866019E+05  1.707166E+04  1.639553E+04 -7.314656E+04  2.381467E-09 -5.196866E-10
       219  17  7.930422E+05 -5.285496E+03 -2.996011E+03 -5.867263E+04 -8.055415E-09  6.308371E-10
       219  18  6.995846E+05 -2.763050E+04 -2.194154E+04 -7.323664E+04 -1.740515E-08  2.008165E-09
       219  19  7.434407E+05 -1.714328E+04 -1.164967E+04 -7.341046E+04 -9.565766E+03 -4.837908E+03
       219  20  8.369006E+05  5.224651E+03  5.736469E+03 -5.884659E+04 -8.894128E+03  1.395107E+03
       219  21  9.304640E+05  2.760381E+04  2.356256E+04 -7.332053E+04 -8.222517E+03  7.632292E+03
       219  22  8.150188E+05 -3.565335E+01  2.372996E+03 -7.327853E+04 -1.931920E+03 -4.838675E+03
       219  23  8.149711E+05 -3.041694E+01  1.370171E+03 -5.875961E+04 -1.254501E+03  1.394430E+03
       219  24  8.150179E+05 -1.291586E+01  8.108276E+02 -7.327856E+04 -5.772058E+02  7.631678E+03
       219  25  8.866020E+05  1.707169E+04  1.639564E+04 -7.314658E+04  5.702786E+03 -4.839438E+03
       219  26  7.930422E+05 -5.285483E+03 -2.995931E+03 -5.867262E+04  6.384863E+03  1.393756E+03
       219  27  6.995846E+05 -2.763042E+04 -2.194134E+04 -7.323659E+04  7.066716E+03  7.631066E+03
       220   1  9.971329E+05  4.367402E+04  3.714442E+04 -7.332481E+04  8.094088E+03 -1.126414E+04
       220   2  1.090740E+06  6.604466E+04  5.533059E+04 -5.875430E+04  7.890294E+03 -1.750481E+04
       220   3  1.184406E+06  8.841175E+04  7.365329E+04 -7.325522E+04  7.688151E+03 -2.374501E+04
       220   4  8.150041E+05 -1.626363E+01  6.345454E+02 -7.328619E+04  4.452965E+02 -1.126384E+04
       220   5  8.149706E+05 -3.303882E+01  4.121299E+02 -5.875008E+04  2.415906E+02 -1.750548E+04
       220   6  8.149879E+05 -5.295579E+01  3.262179E+02 -7.328619E+04  3.956503E+01 -2.374663E+04
       220   7  6.329070E+05 -4.370856E+04 -3.587679E+04 -7.324757E+04 -7.201298E+03 -1.126354E+04
       220   8  5.392740E+05 -6.611536E+04 -5.450991E+04 -5.874586E+04 -7.403789E+03 -1.750616E+04
       220   9  4.457001E+05 -8.852594E+04 -7.300741E+04 -7.331714E+04 -7.604571E+03 -2.374826E+04
       220  10  9.971328E+05  4.367387E+04  3.714406E+04 -7.332474E+04 -1.784124E-08  1.564791E-09
       220  11  1.090740E+06  6.604432E+04  5.532990E+04 -5.875419E+04 -7.956044E-09  8.073347E-10
       220  12  1.184406E+06  8.841113E+04  7.365212E+04 -7.325508E+04  4.445677E-09 -5.706795E-10
       220  13  8.150041E+05 -1.639997E+01  6.343065E+02 -7.328618E+04  2.819605E-09  1.657662E-09
       220  14  8.149705E+05 -3.336802E+01  4.115537E+02 -5.875008E+04  3.386217E-11  3.523270E-10
       220  15  8.149877E+05 -5.356155E+01  3.251578E+02 -7.328619E+04 -1.120517E-09 -6.836064E-10
       220  16  6.329069E+05 -4.370871E+04 -3.587713E+04 -7.324763E+04  1.750728E-08  1.657905E-09
       220  17  5.392739E+05 -6.611570E+04 -5.451059E+04 -5.874597E+04  7.949107E-09  2.908258E-12
       220  18  4.456998E+05 -8.852657E+04 -7.300857E+04 -7.331728E+04 -4.448467E-09 -1.007667E-09
       220  19  9.971329E+05  4.367402E+04  3.714442E+04 -7.332481E+04 -8.094088E+03  1.126414E+04
       220  20  1.090740E+06  6.604466E+04  5.533059E+04 -5.875430E+04 -7.890294E+03  1.750481E+04
       220  21  1.184406E+06  8.841175E+04  7.365329E+04 -7.325522E+04 -7.688151E+03  2.374501E+04
       220  22  8.150041E+05 -1.626363E+01  6.345454E+02 -7.328619E+04 -4.452965E+02  1.126384E+04
       220  23  8.149706E+05 -3.303882E+01  4.121299E+02 -5.875008E+04 -2.415906E+02  1.750548E+04
       220  24  8.149879E+05 -5.295579E+01  3.262179E+02 -7.328619E+04 -3.956503E+01  2.374663E+04
       220  25  6.329070E+05 -4.370856E+04 -3.587679E+04 -7.324757E+04  7.201298E+03  1.126354E+04
       220  26  5.392740E+05 -6.611536E+04 -5.450991E+04 -5.874586E+04  7.403789E+03  1.750616E+04
       220  27  4.457001E+05 -8.852594E+04 -7.300741E+04 -7.331714E+04  7.604571E+03  2.374826E+04
       221   1  1.251255E+06  1.045087E+05  8.743675E+04 -7.325146E+04  7.659656E+03 -2.738690E+04
       221   2  1.345136E+06  1.269316E+05  1.059883E+05 -5.858423E+04  7.367874E+03 -3.360681E+04
       221   3  1.439151E+06  1.493737E+05  1.247532E+05 -7.307781E+04  7.079233E+03 -3.974045E+04
       221   4  8.149897E+05 -6.380304E+01  3.238228E+02 -7.330622E+04 -1.878878E+01 -2.738938E+04
       221   5  8.149195E+05 -1.020679E+02  3.801361E+02 -5.872505E+04 -2.051384E+02 -3.361112E+04
       221   6  8.149583E+05 -1.384628E+02  5.772940E+02 -7.330620E+04 -3.883060E+02 -3.974654E+04
       221   7  3.789060E+05 -1.046480E+05 -8.679845E+04 -7.336093E+04 -7.691955E+03 -2.739186E+04
       221   8  2.849714E+05 -1.271528E+05 -1.052418E+05 -5.886575E+04 -7.771826E+03 -3.361543E+04
       221   9  1.911374E+05 -1.496744E+05 -1.236179E+05 -7.353438E+04 -7.848504E+03 -3.975263E+04
       221  10  1.251255E+06  1.045079E+05  8.743523E+04 -7.325129E+04 -8.975394E-10 -8.019819E-10
       221  11  1.345135E+06  1.269303E+05  1.059860E+05 -5.858403E+04 -1.108736E-09 -1.482763E-09
       221  12  1.439150E+06  1.493720E+05  1.247502E+05 -7.307758E+04  6.617243E-11 -8.001850E-11
       221  13  8.149895E+05 -6.460891E+01  3.224125E+02 -7.330622E+04 -2.501298E-11 -8.985187E-10
       221  14  8.149192E+05 -1.032815E+02  3.780122E+02 -5.872505E+04 -3.538891E-10 -7.674838E-10
       221  15  8.149579E+05 -1.401599E+02  5.743238E+02 -7.330621E+04 -1.465295E-10 -6.320703E-10
       221  16  3.789058E+05 -1.046488E+05 -8.679997E+04 -7.336110E+04  6.760590E-10 -1.056757E-09
       221  17  2.849711E+05 -1.271541E+05 -1.052441E+05 -5.886596E+04 -1.121464E-09 -6.013411E-10
       221  18  1.911369E+05 -1.496761E+05 -1.236209E+05 -7.353463E+04  2.034889E-10 -3.720623E-10
       221  19  1.251255E+06  1.045087E+05  8.743675E+04 -7.325146E+04 -7.659656E+03  2.738690E+04
       221  20  1.345136E+06  1.269316E+05  1.059883E+05 -5.858423E+04 -7.367874E+03  3.360681E+04
       221  21  1.439151E+06  1.493737E+05  1.247532E+05 -7.307781E+04 -7.079233E+03  3.974045E+04
       221  22  8.149897E+05 -6.380304E+01  3.238228E+02 -7.330622E+04  1.878878E+01  2.738938E+04
       221  23  8.149195E+05 -1.020679E+02  3.801361E+02 -5.872505E+04  2.051384E+02  3.361112E+04
       221  24  8.149583E+05 -1.384628E+02  5.772940E+02 -7.330620E+04  3.883060E+02  3.974654E+04
       221  25  3.789060E+05 -1.046480E+05 -8.679845E+04 -7.336093E+04  7.691955E+03  2.739186E+04
       221  26  2.849714E+05 -1.271528E+05 -1.052418E+05 -5.886575E+04  7.771826E+03  3.361543E+04
       221  27  1.911374E+05 -1.496744E+05 -1.236179E+05 -7.353438E+04  7.848504E+03  3.975263E+04
       222   1  1.506380E+06  1.655124E+05  1.387287E+05 -7.296957E+04  7.365330E+03 -4.344611E+04
       222   2  1.600494E+06  1.881377E+05  1.582950E+05 -5.828679E+04  4.722091E+03 -4.903112E+04
       222   3  1.695304E+06  2.114097E+05  1.797835E+05 -7.281537E+04  2.081169E+03 -5.295326E+04
       222   4  8.149899E+05 -1.798040E+02  7.356624E+02 -7.331754E+04 -5.017911E+02 -4.345377E+04
       222   5  8.147998E+05 -1.980564E+02  1.218896E+03 -5.871083E+04 -1.105083E+03 -4.904009E+04
       222   6  8.149429E+05  7.728868E+01  2.210301E+03 -7.331774E+04 -1.705636E+03 -5.296251E+04
       222   7  1.240555E+05 -1.659012E+05 -1.372811E+05 -7.366514E+04 -8.360344E+03 -4.346143E+04
       222   8  2.969350E+04 -1.885716E+05 -1.558882E+05 -5.913439E+04 -6.925044E+03 -4.904906E+04
       222   9 -6.468200E+04 -2.113030E+05 -1.754027E+05 -7.381949E+04 -5.487185E+03 -5.297176E+04
       222  10  1.506379E+06  1.655104E+05  1.387250E+05 -7.296932E+04  1.556400E-12 -2.044467E-10
       222  11  1.600493E+06  1.881351E+05  1.582905E+05 -5.828661E+04  1.610918E-09 -1.149645E-09
       222  12  1.695304E+06  2.114067E+05  1.797782E+05 -7.281528E+04  1.836677E-09 -2.088599E-09
       222  13  8.149894E+05 -1.818325E+02  7.321122E+02 -7.331755E+04 -7.561776E-11 -1.759292E-10
       222  14  8.147992E+05 -2.006402E+02  1.214373E+03 -5.871087E+04 -2.262823E-09 -3.648297E-10
       222  15  8.149421E+05  7.427462E+01  2.205022E+03 -7.331781E+04 -8.867743E-10 -1.246134E-09
       222  16  1.240549E+05 -1.659033E+05 -1.372848E+05 -7.366543E+04  6.282922E-10 -1.472582E-10
       222  17  2.969281E+04 -1.885742E+05 -1.558929E+05 -5.913466E+04 -4.250860E-10  2.414034E-09
       222  18 -6.468279E+04 -2.113060E+05 -1.754080E+05 -7.381973E+04 -1.707965E-09  3.652425E-10
       222  19  1.506380E+06  1.655124E+05  1.387287E+05 -7.296957E+04 -7.365330E+03  4.344611E+04
       222  20  1.600494E+06  1.881377E+05  1.582950E+05 -5.828679E+04 -4.722091E+03  4.903112E+04
       222  21  1.695304E+06  2.114097E+05  1.797835E+05 -7.281537E+04 -2.081169E+03  5.295326E+04
       222  22  8.149899E+05 -1.798040E+02  7.356624E+02 -7.331754E+04  5.017911E+02  4.345377E+04
       222  23  8.147998E+05 -1.980564E+02  1.218896E+03 -5.871083E+04  1.105083E+03  4.904009E+04
       222  24  8.149429E+05  7.728868E+01  2.210301E+03 -7.331774E+04  1.705636E+03  5.296251E+04
       222  25  1.240555E+05 -1.659012E+05 -1.372811E+05 -7.366514E+04  8.360344E+03  4.346143E+04
       222  26  2.969350E+04 -1.885716E+05 -1.558882E+05 -5.913439E+04  6.925044E+03  4.904906E+04
       222  27 -6.468200E+04 -2.113030E+05 -1.754027E+05 -7.381949E+04  5.487185E+03  5.297176E+04
       223   1  1.764339E+06  2.271760E+05  1.938605E+05 -7.116379E+04  8.526516E+03 -5.754154E+04
       223   2  1.855377E+06  2.522500E+05  2.238567E+05 -6.009090E+04 -3.022109E+04 -5.150111E+04
       223   3  1.955138E+06  2.908339E+05  2.824701E+05 -7.686406E+04 -6.902665E+04 -1.599485E+04
       223   4  8.153898E+05 -5.395190E+02  2.836222E+03 -7.301125E+04 -2.085648E+03 -5.755921E+04
       223   5  8.141292E+05  5.458919E+02  4.955074E+03 -5.909389E+04 -4.672097E+03 -5.147513E+04
       223   6  8.153255E+05  8.885263E+03  1.063031E+04 -7.302337E+04 -7.309672E+03 -1.590320E+04
       223   7 -1.327026E+05 -2.283105E+05 -1.882337E+05 -7.485600E+04 -1.268194E+04 -5.757684E+04
       223   8 -2.260960E+05 -2.512274E+05 -2.140049E+05 -5.809885E+04  2.083483E+04 -5.144905E+04
       223   9 -3.232902E+05 -2.731550E+05 -2.612864E+05 -6.919012E+04  5.429481E+04 -1.581071E+04
       223  10  1.764338E+06  2.271724E+05  1.938541E+05 -7.116340E+04 -2.940690E-10 -2.723199E-09
       223  11  1.855375E+06  2.522469E+05  2.238500E+05 -6.009215E+04 -1.606711E-09 -4.121546E-09
       223  12  1.955132E+06  2.908323E+05  2.824607E+05 -7.686495E+04 -2.696245E-09 -1.262373E-09
       223  13  8.153889E+05 -5.430792E+02  2.829985E+03 -7.301135E+04  6.982769E-10 -5.920606E-09
       223  14  8.141284E+05  5.430396E+02  4.950052E+03 -5.909408E+04 -3.624494E-09  1.917968E-09
       223  15  8.153254E+05  8.884977E+03  1.062973E+04 -7.302347E+04 -1.314871E-09 -2.562450E-10
       223  16 -1.327036E+05 -2.283141E+05 -1.882403E+05 -7.485659E+04 -1.347434E-09 -1.488817E-09
       223  17 -2.260972E+05 -2.512304E+05 -2.140107E+05 -5.809799E+04 -2.340769E-11  1.194820E-09
       223  18 -3.232934E+05 -2.731560E+05 -2.612924E+05 -6.918943E+04  1.537033E-09 -1.723670E-09
       223  19  1.764339E+06  2.271760E+05  1.938605E+05 -7.116379E+04 -8.526516E+03  5.754154E+04
       223  20  1.855377E+06  2.522500E+05  2.238567E+05 -6.009090E+04  3.022109E+04  5.150111E+04
       223  21  1.955138E+06  2.908339E+05  2.824701E+05 -7.686406E+04  6.902665E+04  1.599485E+04
       223  22  8.153898E+05 -5.395190E+02  2.836222E+03 -7.301125E+04  2.085648E+03  5.755921E+04
       223  23  8.141292E+05  5.458919E+02  4.955074E+03 -5.909389E+04  4.672097E+03  5.147513E+04
       223  24  8.153255E+05  8.885263E+03  1.063031E+04 -7.302337E+04  7.309672E+03  1.590320E+04
       223  25 -1.327026E+05 -2.283105E+05 -1.882337E+05 -7.485600E+04  1.268194E+04  5.757684E+04
       223  26 -2.260960E+05 -2.512274E+05 -2.140049E+05 -5.809885E+04 -2.083483E+04  5.144905E+04
       223  27 -3.232902E+05 -2.731550E+05 -2.612864E+05 -6.919012E+04 -5.429481E+04  1.581071E+04
       224   1  5.477141E+05  2.140024E+06  5.341252E+05 -4.080688E+05  2.488506E+04  1.098212E+05
       224   2  3.942907E+05  1.626210E+06  3.564968E+05 -3.244192E+05  7.384345E+04  3.270915E+04
       224   3  2.696234E+05  1.129799E+06  2.361470E+05 -3.940687E+05  6.499459E+04 -4.441110E+04
       224   4  2.062303E+04  1.309785E+04  2.304724E+04 -3.942627E+05  2.505954E+04  1.443016E+04
       224   5  2.613909E+03  1.089654E+04  1.196209E+04 -3.176234E+05  7.390913E+04  8.305972E+03
       224   6  1.116022E+03  1.360520E+04  8.992603E+03 -3.943004E+05  6.488511E+04  2.110003E+03
       224   7 -5.067915E+05 -2.109677E+06 -4.883182E+05 -3.805010E+05  2.523018E+04 -8.063620E+04
       224   8 -3.892324E+05 -1.601963E+06 -3.327210E+05 -3.108436E+05  7.397439E+04 -1.603479E+04
       224   9 -2.674679E+05 -1.101400E+06 -2.182190E+05 -3.945307E+05  6.477547E+04  4.854914E+04
       224  10  5.477102E+05  2.140011E+06  5.341014E+05 -4.080710E+05  1.177839E-09  4.246162E-09
       224  11  3.942846E+05  1.626207E+06  3.564846E+05 -3.244212E+05  2.207625E-09 -1.100659E-09
       224  12  2.696183E+05  1.129796E+06  2.361354E+05 -3.940664E+05  2.838441E-10 -1.512450E-09
       224  13  2.062230E+04  1.309746E+04  2.304566E+04 -3.942630E+05  1.945461E-09 -1.260047E-11
       224  14  2.608024E+03  1.089499E+04  1.195169E+04 -3.176239E+05  1.604650E-09 -1.667957E-09
       224  15  1.111499E+03  1.360407E+04  8.984682E+03 -3.943005E+05  5.159817E-10 -3.296979E-09
       224  16 -5.067940E+05 -2.109684E+06 -4.883316E+05 -3.804994E+05  1.120076E-10 -4.279723E-09
       224  17 -3.892383E+05 -1.601964E+06 -3.327318E+05 -3.108426E+05  1.312659E-09 -7.883066E-10
       224  18 -2.674730E+05 -1.101404E+06 -2.182313E+05 -3.945332E+05 -1.314964E-09  2.025074E-10
       224  19  5.477141E+05  2.140024E+06  5.341252E+05 -4.080688E+05 -2.488506E+04 -1.098212E+05
       224  20  3.942907E+05  1.626210E+06  3.564968E+05 -3.244192E+05 -7.384345E+04 -3.270915E+04
       224  21  2.696234E+05  1.129799E+06  2.361470E+05 -3.940687E+05 -6.499459E+04  4.441110E+04
       224  22  2.062303E+04  1.309785E+04  2.304724E+04 -3.942627E+05 -2.505954E+04 -1.443016E+04
       224  23  2.613909E+03  1.089654E+04  1.196209E+04 -3.176234E+05 -7.390913E+04 -8.305972E+03
       224  24  1.116022E+03  1.360520E+04  8.992603E+03 -3.943004E+05 -6.488511E+04 -2.110003E+03
       224  25 -5.067915E+05 -2.109677E+06 -4.883182E+05 -3.805010E+05 -2.523018E+04  8.063620E+04
       224  26 -3.892324E+05 -1.601963E+06 -3.327210E+05 -3.108436E+05 -7.397439E+04  1.603479E+04
       224  27 -2.674679E+05 -1.101400E+06 -2.182190E+05 -3.945307E+05 -6.477547E+04 -4.854914E+04
       225   1  1.839718E+05  7.670953E+05  1.625574E+05 -3.970241E+05  4.349336E+04 -3.310707E+04
       225   2  6.159299E+04  2.623358E+05  5.971427E+04 -3.171951E+05  1.562316E+04 -3.884102E+04
       225   3 -5.749412E+04 -2.413725E+05 -3.878906E+04 -3.936579E+05 -1.296005E+04 -4.457927E+04
       225   4  2.395834E+03  1.279890E+04  8.657420E+03 -3.949553E+05  4.340673E+04  6.118189E+02
       225   5  1.619361E+03  1.251020E+04  9.632374E+03 -3.168060E+05  1.553060E+04 -4.259124E+03
       225   6  3.998706E+03  1.287830E+04  1.435251E+04 -3.949512E+05 -1.305940E+04 -9.138801E+03
       225   7 -1.792151E+05 -7.409546E+05 -1.452683E+05 -3.928885E+05  4.332025E+04  3.429053E+04
       225   8 -5.835747E+04 -2.372533E+05 -4.044820E+04 -3.164170E+05  1.543807E+04  3.030914E+04
       225   9  6.548807E+04  2.671930E+05  6.749523E+04 -3.962450E+05 -1.315887E+04  2.631595E+04
       225  10  1.839695E+05  7.670936E+05  1.625518E+05 -3.970230E+05 -1.112481E-09  2.902008E-08
       225  11  6.159232E+04  2.623341E+05  5.971098E+04 -3.171946E+05 -9.916435E-10 -2.202674E-09
       225  12 -5.749483E+04 -2.413747E+05 -3.879312E+04 -3.936583E+05 -8.324905E-10 -2.545496E-08
       225  13  2.393811E+03  1.279839E+04  8.653878E+03 -3.949553E+05 -1.914862E-09  5.281337E-11
       225  14  1.619097E+03  1.251012E+04  9.631886E+03 -3.168060E+05 -2.437607E-09 -2.320166E-09
       225  15  3.998500E+03  1.287816E+04  1.435204E+04 -3.949513E+05 -1.171684E-09 -3.883504E-09
       225  16 -1.792174E+05 -7.409564E+05 -1.452740E+05 -3.928897E+05 -1.103016E-09 -2.908429E-08
       225  17 -5.835797E+04 -2.372544E+05 -4.045037E+04 -3.164174E+05 -1.079827E-09 -1.509044E-09
       225  18  6.548770E+04  2.671922E+05  6.749360E+04 -3.962447E+05 -1.292179E-09  2.378336E-08
       225  19  1.839718E+05  7.670953E+05  1.625574E+05 -3.970241E+05 -4.349336E+04  3.310707E+04
       225  20  6.159299E+04  2.623358E+05  5.971427E+04 -3.171951E+05 -1.562316E+04  3.884102E+04
       225  21 -5.749412E+04 -2.413725E+05 -3.878906E+04 -3.936579E+05  1.296005E+04  4.457927E+04
       225  22  2.395834E+03  1.279890E+04  8.657420E+03 -3.949553E+05 -4.340673E+04 -6.118189E+02
       225  23  1.619361E+03  1.251020E+04  9.632374E+03 -3.168060E+05 -1.553060E+04  4.259124E+03
       225  24  3.998706E+03  1.287830E+04  1.435251E+04 -3.949512E+05  1.305940E+04  9.138801E+03
       225  25 -1.792151E+05 -7.409546E+05 -1.452683E+05 -3.928885E+05 -4.332025E+04 -3.429053E+04
       225  26 -5.835747E+04 -2.372533E+05 -4.044820E+04 -3.164170E+05 -1.543807E+04 -3.030914E+04
       225  27  6.548807E+04  2.671930E+05  6.749523E+04 -3.962450E+05  1.315887E+04 -2.631595E+04
       226   1 -1.478429E+05 -5.998696E+05 -1.089544E+05 -3.995425E+05 -3.404067E+04 -5.680598E+04
       226   2 -2.647472E+05 -1.105460E+06 -2.105078E+05 -3.037507E+05 -4.843755E+04 -1.697438E+04
       226   3 -3.483558E+05 -1.608071E+06 -3.298189E+05 -3.619863E+05 -1.756106E+04  2.290115E+04
       226   4  5.431060E+02  1.540736E+04  1.765552E+04 -3.944650E+05 -3.416284E+04 -1.167214E+04
       226   5  6.415930E+03  9.068074E+03  2.968674E+04 -3.174071E+05 -4.840606E+04 -2.720160E+04
       226   6  5.517703E+04  1.505633E+04  6.241594E+04 -3.943445E+05 -1.741513E+04 -4.265458E+04
       226   7  1.489064E+05  6.310482E+05  1.442529E+05 -3.893821E+05 -3.428419E+04  3.350567E+04
       226   8  2.774979E+05  1.124765E+06  2.698087E+05 -3.310874E+05 -4.837415E+04 -3.744691E+04
       226   9  4.585230E+05  1.640607E+06  4.544784E+05 -4.267857E+05 -1.726259E+04 -1.083813E+05
       226  10 -1.478450E+05 -5.998734E+05 -1.089627E+05 -3.995440E+05  8.182530E-10  3.985092E-09
       226  11 -2.647498E+05 -1.105461E+06 -2.105128E+05 -3.037514E+05  2.017420E-09 -2.137177E-09
       226  12 -3.483563E+05 -1.608071E+06 -3.298204E+05 -3.619859E+05  1.361393E-09 -2.712071E-09
       226  13  5.418157E+02  1.540690E+04  1.765307E+04 -3.944654E+05  5.404319E-10 -4.103813E-11
       226  14  6.413215E+03  9.066649E+03  2.968094E+04 -3.174082E+05  6.360650E-11 -2.049849E-09
       226  15  5.517621E+04  1.505430E+04  6.241194E+04 -3.943451E+05  1.265070E-09 -2.732981E-09
       226  16  1.489049E+05  6.310467E+05  1.442485E+05 -3.893812E+05 -1.442177E-09 -3.821765E-09
       226  17  2.774950E+05  1.124763E+06  2.698016E+05 -3.310889E+05  2.167044E-09 -9.312027E-10
       226  18  4.585195E+05  1.640594E+06  4.544558E+05 -4.267872E+05  1.497214E-09  1.424937E-09
       226  19 -1.478429E+05 -5.998696E+05 -1.089544E+05 -3.995425E+05  3.404067E+04  5.680598E+04
       226  20 -2.647472E+05 -1.105460E+06 -2.105078E+05 -3.037507E+05  4.843755E+04  1.697438E+04
       226  21 -3.483558E+05 -1.608071E+06 -3.298189E+05 -3.619863E+05  1.756106E+04 -2.290115E+04
       226  22  5.431060E+02  1.540736E+04  1.765552E+04 -3.944650E+05  3.416284E+04  1.167214E+04
       226  23  6.415930E+03  9.068074E+03  2.968674E+04 -3.174071E+05  4.840606E+04  2.720160E+04
       226  24  5.517703E+04  1.505633E+04  6.241594E+04 -3.943445E+05  1.741513E+04  4.265458E+04
       226  25  1.489064E+05  6.310482E+05  1.442529E+05 -3.893821E+05  3.428419E+04 -3.350567E+04
       226  26  2.774979E+05  1.124765E+06  2.698087E+05 -3.310874E+05  4.837415E+04  3.744691E+04
       226  27  4.585230E+05  1.640607E+06  4.544784E+05 -4.267857E+05  1.726259E+04  1.083813E+05
       227   1 -1.430870E+06 -6.023609E+05 -3.535890E+05 -5.646024E+05 -1.584515E+05 -4.952190E+04
       227   2 -1.359370E+06 -3.870390E+05 -2.088569E+05 -5.367129E+05 -9.983932E+04 -6.029428E+03
       227   3 -1.326721E+06 -3.183317E+05 -1.481354E+05 -4.977106E+05 -3.459224E+04  1.985525E+04
       227   4 -8.798457E+05 -3.146266E+05 -1.928017E+05 -3.314821E+05 -1.269262E+05 -3.769695E+04
       227   5 -8.517697E+05 -1.681398E+05 -8.592178E+04 -3.652681E+05 -8.842825E+04 -1.749594E+03
       227   6 -8.585111E+05 -1.642230E+05 -4.704516E+04 -3.879591E+05 -4.330515E+04  1.658182E+04
       227   7 -3.285114E+05 -2.678058E+04 -3.203981E+04 -9.814808E+04 -9.537047E+04 -2.585029E+04
       227   8 -3.439090E+05  5.080501E+04  3.699472E+04 -1.936861E+05 -7.700708E+04  2.535472E+03
       227   9 -3.900777E+05 -1.010730E+04  5.403326E+04 -2.781359E+05 -5.202522E+04  1.330637E+04
       227  10 -1.430898E+06 -6.023703E+05 -3.536409E+05 -5.646088E+05  8.471865E-10  3.553119E-14
       227  11 -1.359381E+06 -3.870417E+05 -2.088757E+05 -5.367134E+05 -2.138513E-09 -3.392121E-10
       227  12 -1.326722E+06 -3.183324E+05 -1.481384E+05 -4.977101E+05 -1.983991E-09  2.277231E-10
       227  13 -8.798634E+05 -3.146324E+05 -1.928347E+05 -3.314860E+05  3.420718E-10 -2.643577E-10
       227  14 -8.517781E+05 -1.681419E+05 -8.593650E+04 -3.652682E+05  1.548721E-10 -1.148099E-10
       227  15 -8.585132E+05 -1.642238E+05 -4.704920E+04 -3.879585E+05  7.412199E-10 -2.573194E-10
       227  16 -3.285214E+05 -2.678374E+04 -3.205817E+04 -9.815007E+04 -3.984197E-10 -5.283581E-10
       227  17 -3.439154E+05  5.080341E+04  3.698356E+04 -1.936860E+05  2.965012E-10 -1.038536E-09
       227  18 -3.900807E+05 -1.010822E+04  5.402784E+04 -2.781353E+05  1.290864E-09  6.617918E-10
       227  19 -1.430870E+06 -6.023609E+05 -3.535890E+05 -5.646024E+05  1.584515E+05  4.952190E+04
       227  20 -1.359370E+06 -3.870390E+05 -2.088569E+05 -5.367129E+05  9.983932E+04  6.029428E+03
       227  21 -1.326721E+06 -3.183317E+05 -1.481354E+05 -4.977106E+05  3.459224E+04 -1.985525E+04
       227  22 -8.798457E+05 -3.146266E+05 -1.928017E+05 -3.314821E+05  1.269262E+05  3.769695E+04
       227  23 -8.517697E+05 -1.681398E+05 -8.592178E+04 -3.652681E+05  8.842825E+04  1.749594E+03
       227  24 -8.585111E+05 -1.642230E+05 -4.704516E+04 -3.879591E+05  4.330515E+04 -1.658182E+04
       227  25 -3.285114E+05 -2.678058E+04 -3.203981E+04 -9.814808E+04  9.537047E+04  2.585029E+04
       227  26 -3.439090E+05  5.080501E+04  3.699472E+04 -1.936861E+05  7.700708E+04 -2.535472E+03
       227  27 -3.900777E+05 -1.010730E+04  5.403326E+04 -2.781359E+05  5.202522E+04 -1.330637E+04
       228   1 -1.248377E+06 -3.222802E+05 -1.252513E+05 -4.927028E+05 -3.194029E+04  1.629841E+04
       228   2 -1.179216E+06 -2.769418E+05 -8.999339E+04 -4.610124E+05 -1.966554E+04  1.618266E+04
       228   3 -1.094950E+06 -2.562333E+05 -6.429686E+04 -4.495998E+05 -7.047995E+03  1.515314E+04
       228   4 -8.524637E+05 -1.740327E+05 -3.655394E+04 -3.813781E+05 -3.616631E+04  1.470996E+04
       228   5 -8.596600E+05 -1.586521E+05 -1.920379E+04 -3.724232E+05 -2.493120E+04  1.420496E+04
       228   6 -8.515478E+05 -1.676924E+05 -1.058501E+04 -3.837481E+05 -1.335475E+04  1.278586E+04
       228   7 -4.563944E+05 -2.577296E+04  5.213288E+04 -2.699884E+05 -4.039521E+04  1.312039E+04
       228   8 -5.400005E+05 -4.035416E+04  5.157960E+04 -2.837920E+05 -3.019980E+04  1.222614E+04
       228   9 -6.080843E+05 -7.914675E+04  4.312380E+04 -3.178725E+05 -1.966422E+04  1.041759E+04
       228  10 -1.248378E+06 -3.222807E+05 -1.252538E+05 -4.927024E+05 -3.124041E-10  1.269543E-09
       228  11 -1.179217E+06 -2.769422E+05 -8.999461E+04 -4.610121E+05  4.330391E-10 -3.235029E-10
       228  12 -1.094950E+06 -2.562336E+05 -6.429738E+04 -4.495997E+05 -4.206178E-09 -4.470471E-10
       228  13 -8.524652E+05 -1.740333E+05 -3.655680E+04 -3.813777E+05 -1.310311E-09  8.534084E-10
       228  14 -8.596607E+05 -1.586525E+05 -1.920534E+04 -3.724229E+05 -7.647512E-11 -7.859887E-10
       228  15 -8.515480E+05 -1.676927E+05 -1.058565E+04 -3.837480E+05 -7.990066E-10  1.306221E-10
       228  16 -4.563962E+05 -2.577358E+04  5.212949E+04 -2.699880E+05 -2.052701E-09 -1.510947E-11
       228  17 -5.400015E+05 -4.035456E+04  5.157761E+04 -2.837917E+05 -1.861885E-09  7.878625E-10
       228  18 -6.080848E+05 -7.914697E+04  4.312287E+04 -3.178723E+05  2.665640E-09  1.069789E-09
       228  19 -1.248377E+06 -3.222802E+05 -1.252513E+05 -4.927028E+05  3.194029E+04 -1.629841E+04
       228  20 -1.179216E+06 -2.769418E+05 -8.999339E+04 -4.610124E+05  1.966554E+04 -1.618266E+04
       228  21 -1.094950E+06 -2.562333E+05 -6.429686E+04 -4.495998E+05  7.047995E+03 -1.515314E+04
       228  22 -8.524637E+05 -1.740327E+05 -3.655394E+04 -3.813781E+05  3.616631E+04 -1.470996E+04
       228  23 -8.596600E+05 -1.586521E+05 -1.920379E+04 -3.724232E+05  2.493120E+04 -1.420496E+04
       228  24 -8.515478E+05 -1.676924E+05 -1.058501E+04 -3.837481E+05  1.335475E+04 -1.278586E+04
       228  25 -4.563944E+05 -2.577296E+04  5.213288E+04 -2.699884E+05  4.039521E+04 -1.312039E+04
       228  26 -5.400005E+05 -4.035416E+04  5.157960E+04 -2.837920E+05  3.019980E+04 -1.222614E+04
       228  27 -6.080843E+05 -7.914675E+04  4.312380E+04 -3.178725E+05  1.966422E+04 -1.041759E+04
       229   1 -1.036946E+06 -2.363168E+05 -4.871878E+04 -4.344254E+05 -4.586834E+03  1.244212E+04
       229   2 -9.683729E+05 -1.981395E+05 -2.820108E+04 -4.023259E+05 -3.332602E+02  7.949249E+03
       229   3 -8.814494E+05 -1.790079E+05 -9.430937E+03 -3.917031E+05  3.938305E+03  3.407031E+03
       229   4 -8.510909E+05 -1.680997E+05 -7.996092E+03 -3.834097E+05 -1.066789E+04  1.016002E+04
       229   5 -8.602517E+05 -1.584837E+05 -4.399615E+03 -3.727059E+05 -6.470391E+03  5.646507E+03
       229   6 -8.510564E+05 -1.679022E+05 -2.505511E+03 -3.834808E+05 -2.255222E+03  1.083568E+03
       229   7 -6.652011E+05 -9.987980E+04  3.272466E+04 -3.323799E+05 -1.675091E+04  7.877185E+03
       229   8 -7.521189E+05 -1.188271E+05  1.940119E+04 -3.430813E+05 -1.260866E+04  3.343343E+03
       229   9 -8.206627E+05 -1.567964E+05  4.419961E+03 -3.752581E+05 -8.449036E+03 -1.240000E+03
       229  10 -1.036946E+06 -2.363170E+05 -4.871911E+04 -4.344254E+05 -7.036541E-10  5.046644E-10
       229  11 -9.683729E+05 -1.981396E+05 -2.820120E+04 -4.023259E+05 -7.946829E-10 -4.458570E-10
       229  12 -8.814494E+05 -1.790079E+05 -9.430988E+03 -3.917031E+05 -6.197577E-10 -1.972822E-10
       229  13 -8.510910E+05 -1.680998E+05 -7.996500E+03 -3.834096E+05  1.326236E-10  2.107442E-10
       229  14 -8.602517E+05 -1.584837E+05 -4.399753E+03 -3.727059E+05  7.968108E-10 -6.147104E-10
       229  15 -8.510564E+05 -1.679022E+05 -2.505523E+03 -3.834808E+05  1.880016E-09 -2.962793E-10
       229  16 -6.652014E+05 -9.987994E+04  3.272401E+04 -3.323798E+05 -9.337964E-10 -1.646699E-10
       229  17 -7.521191E+05 -1.188271E+05  1.940087E+04 -3.430813E+05 -1.726053E-10 -1.073861E-09
       229  18 -8.206627E+05 -1.567964E+05  4.419824E+03 -3.752581E+05  1.508218E-09 -5.080926E-10
       229  19 -1.036946E+06 -2.363168E+05 -4.871878E+04 -4.344254E+05  4.586834E+03 -1.244212E+04
       229  20 -9.683729E+05 -1.981395E+05 -2.820108E+04 -4.023259E+05  3.332602E+02 -7.949249E+03
       229  21 -8.814494E+05 -1.790079E+05 -9.430937E+03 -3.917031E+05 -3.938305E+03 -3.407031E+03
       229  22 -8.510909E+05 -1.680997E+05 -7.996092E+03 -3.834097E+05  1.066789E+04 -1.016002E+04
       229  23 -8.602517E+05 -1.584837E+05 -4.399615E+03 -3.727059E+05  6.470391E+03 -5.646507E+03
       229  24 -8.510564E+05 -1.679022E+05 -2.505511E+03 -3.834808E+05  2.255222E+03 -1.083568E+03
       229  25 -6.652011E+05 -9.987980E+04  3.272466E+04 -3.323799E+05  1.675091E+04 -7.877185E+03
       229  26 -7.521189E+05 -1.188271E+05  1.940119E+04 -3.430813E+05  1.260866E+04 -3.343343E+03
       229  27 -8.206627E+05 -1.567964E+05  4.419961E+03 -3.752581E+05  8.449036E+03  1.240000E+03
       230   1 -8.244350E+05 -1.580017E+05  4.164779E+03 -3.760617E+05  5.476714E+03  3.928817E+02
       230   2 -7.560314E+05 -1.200696E+05  2.170665E+04 -3.439055E+05  8.134761E+03 -4.770009E+03
       230   3 -6.689689E+05 -1.008996E+05  3.877493E+04 -3.332177E+05  1.079331E+04 -9.932108E+03
       230   4 -8.510005E+05 -1.679117E+05 -1.946853E+03 -3.834530E+05 -7.052446E+02 -1.926237E+03
       230   5 -8.603304E+05 -1.585418E+05 -1.270004E+03 -3.727138E+05  1.953064E+03 -7.089455E+03
       230   6 -8.510089E+05 -1.679355E+05 -1.067298E+03 -3.834463E+05  4.611778E+03 -1.225188E+04
       230   7 -8.775655E+05 -1.778217E+05 -8.058419E+03 -3.908441E+05 -6.886958E+03 -4.245262E+03
       230   8 -9.646186E+05 -1.970133E+05 -2.424726E+04 -4.015178E+05 -4.227530E+03 -9.408485E+03
       230   9 -1.033015E+06 -2.349688E+05 -4.091137E+04 -4.336613E+05 -1.567795E+03 -1.457092E+04
       230  10 -8.244350E+05 -1.580017E+05  4.164722E+03 -3.760617E+05 -7.778980E-10  2.208784E-10
       230  11 -7.560315E+05 -1.200696E+05  2.170648E+04 -3.439055E+05 -9.688147E-10  3.638522E-11
       230  12 -6.689690E+05 -1.008997E+05  3.877453E+04 -3.332176E+05 -1.741839E-10  6.288463E-11
       230  13 -8.510005E+05 -1.679117E+05 -1.946861E+03 -3.834530E+05  6.386420E-12 -2.087756E-12
       230  14 -8.603304E+05 -1.585418E+05 -1.270105E+03 -3.727138E+05  2.153640E-09 -1.140153E-10
       230  15 -8.510089E+05 -1.679357E+05 -1.067620E+03 -3.834462E+05 -2.312477E-10 -9.935802E-12
       230  16 -8.775655E+05 -1.778218E+05 -8.058542E+03 -3.908441E+05  8.668199E-10 -3.200802E-10
       230  17 -9.646187E+05 -1.970134E+05 -2.424746E+04 -4.015178E+05  9.179892E-10  1.827166E-10
       230  18 -1.033015E+06 -2.349690E+05 -4.091178E+04 -4.336614E+05  1.381927E-09 -1.942032E-10
       230  19 -8.244350E+05 -1.580017E+05  4.164779E+03 -3.760617E+05 -5.476714E+03 -3.928817E+02
       230  20 -7.560314E+05 -1.200696E+05  2.170665E+04 -3.439055E+05 -8.134761E+03  4.770009E+03
       230  21 -6.689689E+05 -1.008996E+05  3.877493E+04 -3.332177E+05 -1.079331E+04  9.932108E+03
       230  22 -8.510005E+05 -1.679117E+05 -1.946853E+03 -3.834530E+05  7.052446E+02  1.926237E+03
       230  23 -8.603304E+05 -1.585418E+05 -1.270004E+03 -3.727138E+05 -1.953064E+03  7.089455E+03
       230  24 -8.510089E+05 -1.679355E+05 -1.067298E+03 -3.834463E+05 -4.611778E+03  1.225188E+04
       230  25 -8.775655E+05 -1.778217E+05 -8.058419E+03 -3.908441E+05  6.886958E+03  4.245262E+03
       230  26 -9.646186E+05 -1.970133E+05 -2.424726E+04 -4.015178E+05  4.227530E+03  9.408485E+03
       230  27 -1.033015E+06 -2.349688E+05 -4.091137E+04 -4.336613E+05  1.567795E+03  1.457092E+04
       231   1 -6.121380E+05 -7.987086E+04  5.175255E+04 -3.175672E+05  1.214856E+04 -1.300708E+04
       231   2 -5.439379E+05 -4.203023E+04  6.816876E+04 -2.854791E+05  1.490700E+04 -1.811886E+04
       231   3 -4.571204E+05 -2.290452E+04  8.403919E+04 -2.747926E+05  1.766303E+04 -2.321820E+04
       231   4 -8.510246E+05 -1.679286E+05 -1.107425E+03 -3.834327E+05  5.971912E+03 -1.532550E+04
       231   5 -8.603392E+05 -1.585869E+05 -1.504168E+03 -3.727273E+05  8.743368E+03 -2.043360E+04
       231   6 -8.510448E+05 -1.679636E+05 -2.456881E+03 -3.834263E+05  1.151232E+04 -2.552929E+04
       231   7 -1.089852E+06 -2.559813E+05 -5.397033E+04 -4.492746E+05 -2.021243E+02 -1.764294E+04
       231   8 -1.176639E+06 -2.751358E+05 -7.118305E+04 -4.599346E+05  2.583136E+03 -2.274707E+04
       231   9 -1.244815E+06 -3.130115E+05 -8.896294E+04 -4.919973E+05  5.365791E+03 -2.783881E+04
       231  10 -6.121382E+05 -7.987108E+04  5.175195E+04 -3.175670E+05 -2.254790E-09  1.072432E-10
       231  11 -5.439382E+05 -4.203065E+04  6.816773E+04 -2.854789E+05 -7.754445E-10  4.178978E-10
       231  12 -4.571209E+05 -2.290518E+04  8.403759E+04 -2.747923E+05  3.569528E-10  8.745038E-10
       231  13 -8.510247E+05 -1.679289E+05 -1.107933E+03 -3.834326E+05  9.545426E-10  1.720972E-10
       231  14 -8.603394E+05 -1.585874E+05 -1.505095E+03 -3.727271E+05  4.421929E-10 -1.626810E-12
       231  15 -8.510452E+05 -1.679644E+05 -2.458354E+03 -3.834260E+05  5.486469E-10 -4.750005E-10
       231  16 -1.089852E+06 -2.559816E+05 -5.397091E+04 -4.492746E+05  1.576722E-09  2.491702E-10
       231  17 -1.176639E+06 -2.751363E+05 -7.118404E+04 -4.599346E+05 -7.285972E-10  4.800104E-10
       231  18 -1.244815E+06 -3.130124E+05 -8.896445E+04 -4.919972E+05 -2.817644E-10 -1.919514E-10
       231  19 -6.121380E+05 -7.987086E+04  5.175255E+04 -3.175672E+05 -1.214856E+04  1.300708E+04
       231  20 -5.439379E+05 -4.203023E+04  6.816876E+04 -2.854791E+05 -1.490700E+04  1.811886E+04
       231  21 -4.571204E+05 -2.290452E+04  8.403919E+04 -2.747926E+05 -1.766303E+04  2.321820E+04
       231  22 -8.510246E+05 -1.679286E+05 -1.107425E+03 -3.834327E+05 -5.971912E+03  1.532550E+04
       231  23 -8.603392E+05 -1.585869E+05 -1.504168E+03 -3.727273E+05 -8.743368E+03  2.043360E+04
       231  24 -8.510448E+05 -1.679636E+05 -2.456881E+03 -3.834263E+05 -1.151232E+04  2.552929E+04
       231  25 -1.089852E+06 -2.559813E+05 -5.397033E+04 -4.492746E+05  2.021243E+02  1.764294E+04
       231  26 -1.176639E+06 -2.751358E+05 -7.118305E+04 -4.599346E+05 -2.583136E+03  2.274707E+04
       231  27 -1.244815E+06 -3.130115E+05 -8.896294E+04 -4.919973E+05 -5.365791E+03  2.783881E+04
       232   1 -4.005761E+05 -1.966707E+03  9.625110E+04 -2.592493E+05  1.931739E+04 -2.616895E+04
       232   2 -3.326354E+05  3.572432E+04  1.104777E+05 -2.272678E+05  2.406959E+04 -3.046769E+04
       232   3 -2.465085E+05  5.446718E+04  1.225916E+05 -2.165548E+05  2.879146E+04 -3.467525E+04
       232   4 -8.511439E+05 -1.679367E+05 -3.204563E+03 -3.834330E+05  1.315806E+04 -2.848425E+04
       232   5 -8.602613E+05 -1.586093E+05 -5.712843E+03 -3.727441E+05  1.801115E+04 -3.274708E+04
       232   6 -8.512178E+05 -1.682520E+05 -1.041486E+04 -3.833276E+05  2.283352E+04 -3.691879E+04
       232   7 -1.301506E+06 -3.338908E+05 -1.026725E+05 -5.075338E+05  7.003570E+03 -3.079774E+04
       232   8 -1.387604E+06 -3.529204E+05 -1.219198E+05 -5.181064E+05  1.195831E+04 -3.502437E+04
       232   9 -1.455553E+06 -3.909409E+05 -1.434423E+05 -5.499502E+05  1.688191E+04 -3.915997E+04
       232  10 -4.005767E+05 -1.967543E+03  9.624911E+04 -2.592489E+05 -3.881835E-11  3.975399E-10
       232  11 -3.326363E+05  3.572316E+04  1.104749E+05 -2.272672E+05 -1.932943E-09  2.223471E-10
       232  12 -2.465097E+05  5.446566E+04  1.225878E+05 -2.165540E+05 -4.819690E-10 -7.051313E-10
       232  13 -8.511443E+05 -1.679376E+05 -3.206412E+03 -3.834327E+05  1.988278E-10  2.785027E-10
       232  14 -8.602620E+05 -1.586105E+05 -5.715467E+03 -3.727436E+05  1.309721E-09  6.440720E-12
       232  15 -8.512188E+05 -1.682536E+05 -1.041840E+04 -3.833269E+05  3.346018E-10 -5.173590E-11
       232  16 -1.301506E+06 -3.338919E+05 -1.026744E+05 -5.075337E+05 -2.936869E-10 -4.674998E-10
       232  17 -1.387604E+06 -3.529217E+05 -1.219223E+05 -5.181061E+05  4.708387E-10 -7.536033E-10
       232  18 -1.455554E+06 -3.909427E+05 -1.434457E+05 -5.499496E+05  9.566594E-10 -2.340664E-10
       232  19 -4.005761E+05 -1.966707E+03  9.625110E+04 -2.592493E+05 -1.931739E+04  2.616895E+04
       232  20 -3.326354E+05  3.572432E+04  1.104777E+05 -2.272678E+05 -2.406959E+04  3.046769E+04
       232  21 -2.465085E+05  5.446718E+04  1.225916E+05 -2.165548E+05 -2.879146E+04  3.467525E+04
       232  22 -8.511439E+05 -1.679367E+05 -3.204563E+03 -3.834330E+05 -1.315806E+04  2.848425E+04
       232  23 -8.602613E+05 -1.586093E+05 -5.712843E+03 -3.727441E+05 -1.801115E+04  3.274708E+04
       232  24 -8.512178E+05 -1.682520E+05 -1.041486E+04 -3.833276E+05 -2.283352E+04  3.691879E+04
       232  25 -1.301506E+06 -3.338908E+05 -1.026725E+05 -5.075338E+05 -7.003570E+03  3.079774E+04
       232  26 -1.387604E+06 -3.529204E+05 -1.219198E+05 -5.181064E+05 -1.195831E+04  3.502437E+04
       232  27 -1.455553E+06 -3.909409E+05 -1.434423E+05 -5.499502E+05 -1.688191E+04  3.915997E+04
       233   1 -1.899828E+05  7.494246E+04  1.320338E+05 -2.024659E+05  3.229638E+04 -3.698303E+04
       233   2 -1.230495E+05  1.135644E+05  1.377724E+05 -1.681548E+05  4.499844E+04 -3.763653E+04
       233   3 -4.164056E+04  1.266587E+05  1.335216E+05 -1.534009E+05  5.713720E+04 -3.677755E+04
       233   4 -8.518333E+05 -1.677040E+05 -1.379329E+04 -3.837372E+05  2.597269E+04 -3.936550E+04
       233   5 -8.595067E+05 -1.589191E+05 -2.505526E+04 -3.724034E+05  4.039142E+04 -3.937589E+04
       233   6 -8.530567E+05 -1.760123E+05 -4.767813E+04 -3.806320E+05  5.424505E+04 -3.787345E+04
       233   7 -1.513245E+06 -4.103191E+05 -1.596483E+05 -5.648329E+05  1.965625E+04 -4.174530E+04
       233   8 -1.595418E+06 -4.313603E+05 -1.879170E+05 -5.764301E+05  3.579029E+04 -4.111303E+04
       233   9 -1.663808E+06 -4.786286E+05 -2.289194E+05 -6.075895E+05  5.135697E+04 -3.896780E+04
       233  10 -1.899843E+05  7.494071E+04  1.320293E+05 -2.024650E+05  2.236527E-09  2.070282E-10
       233  11 -1.230521E+05  1.135624E+05  1.377659E+05 -1.681535E+05 -5.016126E-10 -1.079316E-09
       233  12 -4.164442E+04  1.266563E+05  1.335129E+05 -1.533993E+05 -2.059689E-09 -2.512309E-09
       233  13 -8.518344E+05 -1.677058E+05 -1.379747E+04 -3.837364E+05  1.046006E-11 -2.238012E-09
       233  14 -8.595089E+05 -1.589212E+05 -2.506124E+04 -3.724021E+05  3.416740E-10 -1.554856E-09
       233  15 -8.530603E+05 -1.760146E+05 -4.768636E+04 -3.806303E+05  2.053305E-09 -1.432960E-09
       233  16 -1.513246E+06 -4.103211E+05 -1.596523E+05 -5.648322E+05 -1.459594E-09 -1.430453E-09
       233  17 -1.595420E+06 -4.313624E+05 -1.879225E+05 -5.764290E+05  9.580264E-10  1.530236E-10
       233  18 -1.663812E+06 -4.786309E+05 -2.289272E+05 -6.075878E+05  1.712546E-09 -4.791460E-10
       233  19 -1.899828E+05  7.494246E+04  1.320338E+05 -2.024659E+05 -3.229638E+04  3.698303E+04
       233  20 -1.230495E+05  1.135644E+05  1.377724E+05 -1.681548E+05 -4.499844E+04  3.763653E+04
       233  21 -4.164056E+04  1.266587E+05  1.335216E+05 -1.534009E+05 -5.713720E+04  3.677755E+04
       233  22 -8.518333E+05 -1.677040E+05 -1.379329E+04 -3.837372E+05 -2.597269E+04  3.936550E+04
       233  23 -8.595067E+05 -1.589191E+05 -2.505526E+04 -3.724034E+05 -4.039142E+04  3.937589E+04
       233  24 -8.530567E+05 -1.760123E+05 -4.767813E+04 -3.806320E+05 -5.424505E+04  3.787345E+04
       233  25 -1.513245E+06 -4.103191E+05 -1.596483E+05 -5.648329E+05 -1.965625E+04  4.174530E+04
       233  26 -1.595418E+06 -4.313603E+05 -1.879170E+05 -5.764301E+05 -3.579029E+04  4.111303E+04
       233  27 -1.663808E+06 -4.786286E+05 -2.289194E+05 -6.075895E+05 -5.135697E+04  3.896780E+04
       234   1  2.681538E+04  1.404655E+05  1.316409E+05 -1.687699E+05  7.357932E+04 -3.571601E+04
       234   2  6.435185E+04  2.079690E+05  1.057283E+05 -6.934168E+04  9.777162E+04 -2.024032E+04
       234   3  5.695842E+04  1.026992E+05  1.753397E+04  5.188552E+04  1.110275E+05  2.422935E+04
       234   4 -8.609941E+05 -1.631754E+05 -6.136112E+04 -3.891506E+05  6.329158E+04 -3.959658E+04
       234   5 -8.491881E+05 -1.713997E+05 -1.120860E+05 -3.631491E+05  1.206394E+05 -1.163243E+04
       234   6 -8.889928E+05 -3.591420E+05 -2.514668E+05 -3.153304E+05  1.670369E+05  4.533837E+04
       234   7 -1.748008E+06 -4.667818E+05 -2.544090E+05 -6.092541E+05  5.301977E+04 -4.347218E+04
       234   8 -1.761874E+06 -5.506406E+05 -3.299548E+05 -6.565362E+05  1.434704E+05 -3.042177E+03
       234   9 -1.834017E+06 -8.207199E+05 -5.205312E+05 -6.819700E+05  2.229517E+05  6.638778E+04
       234  10  2.680923E+04  1.404627E+05  1.316283E+05 -1.687677E+05  1.308637E-09  4.158636E-10
       234  11  6.434148E+04  2.079660E+05  1.057096E+05 -6.934009E+04  1.025056E-09 -1.045814E-09
       234  12  5.694503E+04  1.026953E+05  1.750970E+04  5.188336E+04 -1.629772E-09 -2.017792E-09
       234  13 -8.609988E+05 -1.631781E+05 -6.137159E+04 -3.891486E+05 -1.407749E-10 -3.531848E-09
       234  14 -8.492038E+05 -1.714038E+05 -1.121137E+05 -3.631480E+05 -1.428589E-09 -1.248906E-09
       234  15 -8.890234E+05 -3.591518E+05 -2.515231E+05 -3.153365E+05 -1.689618E-11  1.241866E-09
       234  16 -1.748011E+06 -4.667846E+05 -2.544179E+05 -6.092523E+05 -1.620262E-09 -2.504489E-09
       234  17 -1.761896E+06 -5.506462E+05 -3.299936E+05 -6.565358E+05 -2.651938E-09  1.224587E-09
       234  18 -1.834072E+06 -8.207381E+05 -5.206332E+05 -6.819819E+05  5.856459E-10 -3.793534E-10
       234  19  2.681538E+04  1.404655E+05  1.316409E+05 -1.687699E+05 -7.357932E+04  3.571601E+04
       234  20  6.435185E+04  2.079690E+05  1.057283E+05 -6.934168E+04 -9.777162E+04  2.024032E+04
       234  21  5.695842E+04  1.026992E+05  1.753397E+04  5.188552E+04 -1.110275E+05 -2.422935E+04
       234  22 -8.609941E+05 -1.631754E+05 -6.136112E+04 -3.891506E+05 -6.329158E+04  3.959658E+04
       234  23 -8.491881E+05 -1.713997E+05 -1.120860E+05 -3.631491E+05 -1.206394E+05  1.163243E+04
       234  24 -8.889928E+05 -3.591420E+05 -2.514668E+05 -3.153304E+05 -1.670369E+05 -4.533837E+04
       234  25 -1.748008E+06 -4.667818E+05 -2.544090E+05 -6.092541E+05 -5.301977E+04  4.347218E+04
       234  26 -1.761874E+06 -5.506406E+05 -3.299548E+05 -6.565362E+05 -1.434704E+05  3.042177E+03
       234  27 -1.834017E+06 -8.207199E+05 -5.205312E+05 -6.819700E+05 -2.229517E+05 -6.638778E+04
       235   1  1.543855E+06  2.229071E+05  1.993019E+05  2.557837E+04  3.475479E+03 -1.725656E+04
       235   2  1.463316E+06  2.658266E+05  1.946485E+05  3.970671E+04 -1.241245E+04 -5.629798E+04
       235   3  1.371295E+06  2.539456E+05  1.867035E+05  7.875042E+04 -2.835271E+04 -6.386919E+04
       235   4  3.223561E+05 -7.918989E+04 -9.194751E+04  6.768104E+04 -6.357683E+04 -1.738761E+04
       235   5  3.314824E+05 -7.777039E+03 -4.315699E+04  5.513156E+04 -4.089545E+04 -5.636871E+04
       235   6  3.224021E+05  2.088483E+03 -2.443630E+04  6.750138E+04 -1.826799E+04 -6.385223E+04
       235   7 -8.977630E+05 -3.813853E+05 -3.832838E+05  1.097000E+05 -1.304980E+05 -1.752788E+04
       235   8 -7.991412E+05 -2.814615E+05 -2.810311E+05  7.052720E+04 -6.932739E+04 -5.644092E+04
       235   9 -7.254436E+05 -2.498361E+05 -2.356320E+05  5.627099E+04 -8.199928E+03 -6.383561E+04
       235  10  1.543855E+06  2.229068E+05  1.993013E+05  2.557842E+04  2.206302E-08 -4.715271E-10
       235  11  1.463315E+06  2.658232E+05  1.946423E+05  3.970614E+04  4.875117E-10 -3.641258E-09
       235  12  1.371293E+06  2.539411E+05  1.866943E+05  7.874896E+04 -2.043791E-08 -4.349943E-09
       235  13  3.223517E+05 -7.919130E+04 -9.195567E+04  6.768015E+04 -9.448025E-10  1.726538E-09
       235  14  3.314798E+05 -7.780900E+03 -4.316610E+04  5.512970E+04 -2.470161E-10 -1.584819E-09
       235  15  3.224006E+05  2.084014E+03 -2.444459E+04  6.750044E+04 -6.834012E-10 -3.982137E-10
       235  16 -8.977814E+05 -3.813902E+05 -3.833164E+05  1.096981E+05 -2.339565E-08  1.111576E-09
       235  17 -7.991472E+05 -2.814662E+05 -2.810461E+05  7.052405E+04 -2.512492E-09 -4.811071E-09
       235  18 -7.254448E+05 -2.498405E+05 -2.356398E+05  5.627057E+04  2.121590E-08 -6.917706E-09
       235  19  1.543855E+06  2.229071E+05  1.993019E+05  2.557837E+04 -3.475479E+03  1.725656E+04
       235  20  1.463316E+06  2.658266E+05  1.946485E+05  3.970671E+04  1.241245E+04  5.629798E+04
       235  21  1.371295E+06  2.539456E+05  1.867035E+05  7.875042E+04  2.835271E+04  6.386919E+04
       235  22  3.223561E+05 -7.918989E+04 -9.194751E+04  6.768104E+04  6.357683E+04  1.738761E+04
       235  23  3.314824E+05 -7.777039E+03 -4.315699E+04  5.513156E+04  4.089545E+04  5.636871E+04
       235  24  3.224021E+05  2.088483E+03 -2.443630E+04  6.750138E+04  1.826799E+04  6.385223E+04
       235  25 -8.977630E+05 -3.813853E+05 -3.832838E+05  1.097000E+05  1.304980E+05  1.752788E+04
       235  26 -7.991412E+05 -2.814615E+05 -2.810311E+05  7.052720E+04  6.932739E+04  5.644092E+04
       235  27 -7.254436E+05 -2.498361E+05 -2.356320E+05  5.627099E+04  8.199928E+03  6.383561E+04
       236   1  1.312905E+06  2.340448E+05  1.799981E+05  6.883787E+04 -1.778461E+04 -5.953447E+04
       236   2  1.227813E+06  2.160923E+05  1.696541E+05  5.640133E+04 -1.472501E+04 -5.636145E+04
       236   3  1.141772E+06  1.959975E+05  1.567839E+05  7.042768E+04 -1.167479E+04 -5.140483E+04
       236   4  3.261785E+05 -2.918165E+03 -1.904455E+04  6.788491E+04 -1.498110E+04 -5.953459E+04
       236   5  3.268694E+05  3.244998E+01 -1.049954E+04  5.464737E+04 -9.742179E+03 -5.635377E+04
       236   6  3.262255E+05  4.610174E+02 -5.996424E+03  6.787516E+04 -4.512194E+03 -5.138810E+04
       236   7 -6.596213E+05 -2.399414E+05 -2.181372E+05  6.693284E+04 -1.218193E+04 -5.953473E+04
       236   8 -5.733001E+05 -2.160771E+05 -1.906941E+05  5.289543E+04 -4.766417E+03 -5.634612E+04
       236   9 -4.886865E+05 -1.951161E+05 -1.688099E+05  6.532556E+04  2.641198E+03 -5.137143E+04
       236  10  1.312903E+06  2.340409E+05  1.799908E+05  6.883702E+04 -7.133197E-09 -6.029221E-09
       236  11  1.227812E+06  2.160888E+05  1.696477E+05  5.640066E+04 -4.026575E-09  9.673470E-10
       236  12  1.141771E+06  1.959946E+05  1.567786E+05  7.042719E+04 -4.556024E-09  3.082022E-09
       236  13  3.261773E+05 -2.922032E+03 -1.905163E+04  6.788419E+04 -5.280637E-10 -4.237616E-09
       236  14  3.268684E+05  2.901383E+01 -1.050569E+04  5.464693E+04 -9.020654E-10 -7.637675E-10
       236  15  3.262248E+05  4.581759E+02 -6.001425E+03  6.787498E+04 -2.636105E-09 -2.791845E-09
       236  16 -6.596224E+05 -2.399452E+05 -2.181442E+05  6.693226E+04  6.110018E-09 -1.217559E-09
       236  17 -5.733010E+05 -2.160806E+05 -1.907001E+05  5.289522E+04  1.320303E-09  2.891211E-10
       236  18 -4.886873E+05 -1.951190E+05 -1.688149E+05  6.532567E+04  1.802113E-09  9.283789E-10
       236  19  1.312905E+06  2.340448E+05  1.799981E+05  6.883787E+04  1.778461E+04  5.953447E+04
       236  20  1.227813E+06  2.160923E+05  1.696541E+05  5.640133E+04  1.472501E+04  5.636145E+04
       236  21  1.141772E+06  1.959975E+05  1.567839E+05  7.042768E+04  1.167479E+04  5.140483E+04
       236  22  3.261785E+05 -2.918165E+03 -1.904455E+04  6.788491E+04  1.498110E+04  5.953459E+04
       236  23  3.268694E+05  3.244998E+01 -1.049954E+04  5.464737E+04  9.742179E+03  5.635377E+04
       236  24  3.262255E+05  4.610174E+02 -5.996424E+03  6.787516E+04  4.512194E+03  5.138810E+04
       236  25 -6.596213E+05 -2.399414E+05 -2.181372E+05  6.693284E+04  1.218193E+04  5.953473E+04
       236  26 -5.733001E+05 -2.160771E+05 -1.906941E+05  5.289543E+04  4.766417E+03  5.634612E+04
       236  27 -4.886865E+05 -1.951161E+05 -1.688099E+05  6.532556E+04 -2.641198E+03  5.137143E+04
       237   1  1.081056E+06  1.811123E+05  1.456802E+05  6.987238E+04 -1.033122E+04 -4.803001E+04
       237   2  9.958807E+05  1.607442E+05  1.307717E+05  5.646159E+04 -9.182909E+03 -4.247900E+04
       237   3  9.104557E+05  1.404604E+05  1.151057E+05  6.952942E+04 -8.038749E+03 -3.683079E+04
       237   4  3.264803E+05  2.647535E+02 -4.563404E+03  6.788074E+04 -3.588689E+03 -4.801310E+04
       237   5  3.266368E+05  3.195822E+02 -2.586329E+03  5.464033E+04 -2.323061E+03 -4.245963E+04
       237   6  3.265161E+05  4.385606E+02 -1.449057E+03  6.788024E+04 -1.061427E+03 -3.680889E+04
       237   7 -4.275523E+05 -1.806176E+05 -1.548353E+05  6.589112E+04  3.145823E+03 -4.799623E+04
       237   8 -3.421797E+05 -1.601324E+05 -1.359666E+05  5.282071E+04  4.529552E+03 -4.244030E+04
       237   9 -2.570982E+05 -1.396042E+05 -1.180207E+05  6.623234E+04  5.909473E+03 -3.678702E+04
       237  10  1.081056E+06  1.811098E+05  1.456757E+05  6.987198E+04 -3.095170E-09  4.400007E-09
       237  11  9.958801E+05  1.607422E+05  1.307682E+05  5.646127E+04  1.889725E-09  3.777057E-09
       237  12  9.104553E+05  1.404590E+05  1.151030E+05  6.952918E+04  4.116705E-09 -1.301211E-09
       237  13  3.264797E+05  2.622742E+02 -4.567761E+03  6.788060E+04 -1.858153E-09 -4.242625E-09
       237  14  3.266363E+05  3.176445E+02 -2.589727E+03  5.464025E+04 -2.072268E-09  3.428600E-09
       237  15  3.265157E+05  4.371052E+02 -1.451606E+03  6.788020E+04  1.841099E-09  6.808378E-09
       237  16 -4.275530E+05 -1.806200E+05 -1.548397E+05  6.589124E+04  2.677491E-10  3.296789E-09
       237  17 -3.421802E+05 -1.601343E+05 -1.359701E+05  5.282086E+04 -2.399902E-09  3.812591E-09
       237  18 -2.570986E+05 -1.396056E+05 -1.180233E+05  6.623251E+04 -4.741278E-09  1.195149E-09
       237  19  1.081056E+06  1.811123E+05  1.456802E+05  6.987238E+04  1.033122E+04  4.803001E+04
       237  20  9.958807E+05  1.607442E+05  1.307717E+05  5.646159E+04  9.182909E+03  4.247900E+04
       237  21  9.104557E+05  1.404604E+05  1.151057E+05  6.952942E+04  8.038749E+03  3.683079E+04
       237  22  3.264803E+05  2.647535E+02 -4.563404E+03  6.788074E+04  3.588689E+03  4.801310E+04
       237  23  3.266368E+05  3.195822E+02 -2.586329E+03  5.464033E+04  2.323061E+03  4.245963E+04
       237  24  3.265161E+05  4.385606E+02 -1.449057E+03  6.788024E+04  1.061427E+03  3.680889E+04
       237  25 -4.275523E+05 -1.806176E+05 -1.548353E+05  6.589112E+04 -3.145823E+03  4.799623E+04
       237  26 -3.421797E+05 -1.601324E+05 -1.359666E+05  5.282071E+04 -4.529552E+03  4.244030E+04
       237  27 -2.570982E+05 -1.396042E+05 -1.180207E+05  6.623234E+04 -5.909473E+03  3.678702E+04
       238   1  8.497314E+05  1.258176E+05  1.029411E+05  6.935499E+04 -7.792939E+03 -3.351910E+04
       238   2  7.646984E+05  1.053859E+05  8.671838E+04  5.592151E+04 -7.538729E+03 -2.784569E+04
       238   3  6.794859E+05  8.514482E+04  7.032699E+04  6.891869E+04 -7.286996E+03 -2.216963E+04
       238   4  3.265498E+05  4.424441E+02 -1.078463E+03  6.786958E+04 -8.436531E+02 -3.349624E+04
       238   5  3.266556E+05  3.719816E+02 -5.572558E+02  5.465365E+04 -5.869033E+02 -2.782144E+04
       238   6  3.265733E+05  4.916968E+02 -2.069494E+02  6.786949E+04 -3.325945E+02 -2.214397E+04
       238   7 -1.963705E+05 -1.249494E+05 -1.051115E+05  6.638520E+04  6.099903E+03 -3.347341E+04
       238   8 -1.112039E+05 -1.046536E+05 -8.784231E+04  5.338654E+04  6.360122E+03 -2.779721E+04
       238   9 -2.622042E+04 -8.416904E+04 -7.074698E+04  6.682078E+04  6.617937E+03 -2.211833E+04
       238  10  8.497311E+05  1.258164E+05  1.029389E+05  6.935478E+04  3.188638E-09  4.359272E-10
       238  11  7.646981E+05  1.053851E+05  8.671681E+04  5.592134E+04  6.212721E-10  1.056204E-08
       238  12  6.794857E+05  8.514428E+04  7.032596E+04  6.891856E+04 -6.691157E-10  8.567474E-09
       238  13  3.265495E+05  4.412389E+02 -1.080573E+03  6.786956E+04 -1.101854E-09  1.070680E-09
       238  14  3.266554E+05  3.711502E+02 -5.587112E+02  5.465364E+04  8.086393E-10  1.029839E-08
       238  15  3.265732E+05  4.911701E+02 -2.078713E+02  6.786948E+04  2.197415E-10  1.953448E-09
       238  16 -1.963708E+05 -1.249506E+05 -1.051137E+05  6.638536E+04 -4.771217E-09  8.000541E-10
       238  17 -1.112041E+05 -1.046545E+05 -8.784384E+04  5.338668E+04 -2.441865E-09  1.508118E-09
       238  18 -2.622060E+04 -8.416958E+04 -7.074798E+04  6.682090E+04  1.068277E-09 -5.811937E-10
       238  19  8.497314E+05  1.258176E+05  1.029411E+05  6.935499E+04  7.792939E+03  3.351910E+04
       238  20  7.646984E+05  1.053859E+05  8.671838E+04  5.592151E+04  7.538729E+03  2.784569E+04
       238  21  6.794859E+05  8.514482E+04  7.032699E+04  6.891869E+04  7.286996E+03  2.216963E+04
       238  22  3.265498E+05  4.424441E+02 -1.078463E+03  6.786958E+04  8.436531E+02  3.349624E+04
       238  23  3.266556E+05  3.719816E+02 -5.572558E+02  5.465365E+04  5.869033E+02  2.782144E+04
       238  24  3.265733E+05  4.916968E+02 -2.069494E+02  6.786949E+04  3.325945E+02  2.214397E+04
       238  25 -1.963705E+05 -1.249494E+05 -1.051115E+05  6.638520E+04 -6.099903E+03  3.347341E+04
       238  26 -1.112039E+05 -1.046536E+05 -8.784231E+04  5.338654E+04 -6.360122E+03  2.779721E+04
       238  27 -2.622042E+04 -8.416904E+04 -7.074698E+04  6.682078E+04 -6.617937E+03  2.211833E+04
       239   1  6.188452E+05  7.052614E+04  5.794761E+04  6.874326E+04 -7.271123E+03 -1.886621E+04
       239   2  5.339175E+05  5.009459E+04  4.150371E+04  5.530517E+04 -7.390571E+03 -1.319395E+04
       239   3  4.488171E+05  2.986693E+04  2.512576E+04  6.827314E+04 -7.511139E+03 -7.525645E+03
       239   4  3.265837E+05  4.985739E+02 -6.747083E+01  6.786391E+04 -3.202175E+02 -1.883994E+04
       239   5  3.266781E+05  4.051894E+02  2.094462E+02  5.466062E+04 -4.448664E+02 -1.316706E+04
       239   6  3.265948E+05  5.172768E+02  5.562894E+02  6.786389E+04 -5.706498E+02 -7.498106E+03
       239   7  3.440397E+04 -6.953417E+04 -5.808661E+04  6.698491E+04  6.627486E+03 -1.881369E+04
       239   8  1.194798E+05 -4.928681E+04 -4.108678E+04  5.401625E+04  6.498568E+03 -1.314018E+04
       239   9  2.043869E+05 -2.883327E+04 -2.401376E+04  6.745470E+04  6.368501E+03 -7.470574E+03
       239  10  6.188450E+05  7.052574E+04  5.794684E+04  6.874314E+04  1.265137E-08  1.308596E-09
       239  11  5.339174E+05  5.009439E+04  4.150328E+04  5.530509E+04  4.764264E-09 -4.319100E-09
       239  12  4.488170E+05  2.986685E+04  2.512554E+04  6.827309E+04 -6.875533E-09 -2.820929E-09
       239  13  3.265836E+05  4.981927E+02 -6.813813E+01  6.786391E+04  2.183186E-10  1.065173E-08
       239  14  3.266781E+05  4.050031E+02  2.091200E+02  5.466061E+04 -2.546845E-09 -4.228902E-10
       239  15  3.265948E+05  5.172164E+02  5.561831E+02  6.786388E+04 -1.649801E-09 -3.834064E-09
       239  16  3.440383E+04 -6.953456E+04 -5.808736E+04  6.698501E+04 -1.348499E-08  4.270701E-09
       239  17  1.194797E+05 -4.928701E+04 -4.108719E+04  5.401632E+04 -7.118446E-09 -2.381018E-09
       239  18  2.043869E+05 -2.883334E+04 -2.401394E+04  6.745474E+04  6.206591E-09 -4.695913E-09
       239  19  6.188452E+05  7.052614E+04  5.794761E+04  6.874326E+04  7.271123E+03  1.886621E+04
       239  20  5.339175E+05  5.009459E+04  4.150371E+04  5.530517E+04  7.390571E+03  1.319395E+04
       239  21  4.488171E+05  2.986693E+04  2.512576E+04  6.827314E+04  7.511139E+03  7.525645E+03
       239  22  3.265837E+05  4.985739E+02 -6.747083E+01  6.786391E+04  3.202175E+02  1.883994E+04
       239  23  3.266781E+05  4.051894E+02  2.094462E+02  5.466062E+04  4.448664E+02  1.316706E+04
       239  24  3.265948E+05  5.172768E+02  5.562894E+02  6.786389E+04  5.706498E+02  7.498106E+03
       239  25  3.440397E+04 -6.953417E+04 -5.808661E+04  6.698491E+04 -6.627486E+03  1.881369E+04
       239  26  1.194798E+05 -4.928681E+04 -4.108678E+04  5.401625E+04 -6.498568E+03  1.314018E+04
       239  27  2.043869E+05 -2.883327E+04 -2.401376E+04  6.745470E+04 -6.368501E+03  7.470574E+03
       240   1  3.882439E+05  1.524855E+04  1.284374E+04  6.810213E+04 -7.655846E+03 -4.223553E+03
       240   2  3.033167E+05 -5.204451E+03 -3.227471E+03  5.467546E+04 -8.332559E+03  1.425660E+03
       240   3  2.182930E+05 -2.539393E+04 -1.885825E+04  6.764332E+04 -9.008872E+03  7.026107E+03
       240   4  3.266159E+05  5.145925E+02  7.838525E+02  6.786127E+04 -7.052230E+02 -4.195797E+03
       240   5  3.266617E+05  3.967808E+02  1.444019E+03  5.466396E+04 -1.442125E+03  1.453092E+03
       240   6  3.266145E+05  5.532614E+02  2.586347E+03  6.786108E+04 -2.178714E+03  7.053237E+03
       240   7  2.649917E+05 -1.421957E+04 -1.127604E+04  6.762044E+04  6.244726E+03 -4.168045E+03
       240   8  3.500074E+05  5.998005E+03  6.115660E+03  5.465245E+04  5.448563E+03  1.480523E+03
       240   9  4.349473E+05  2.649977E+04  2.403054E+04  6.807887E+04  4.652611E+03  7.080369E+03
       240  10  3.882439E+05  1.524852E+04  1.284360E+04  6.810210E+04 -2.619024E-09  5.530321E-09
       240  11  3.033166E+05 -5.204472E+03 -3.227605E+03  5.467547E+04 -1.448478E-09  1.941816E-09
       240  12  2.182929E+05 -2.539401E+04 -1.885849E+04  6.764337E+04 -5.225602E-09  3.432602E-09
       240  13  3.266159E+05  5.145735E+02  7.838185E+02  6.786127E+04  1.079568E-09  4.577299E-10
       240  14  3.266617E+05  3.967780E+02  1.444011E+03  5.466396E+04 -1.604383E-09  4.060479E-09
       240  15  3.266145E+05  5.532067E+02  2.586245E+03  6.786109E+04  9.340762E-10  7.511059E-09
       240  16  2.649916E+05 -1.421960E+04 -1.127614E+04  6.762046E+04  1.487970E-09  2.286351E-09
       240  17  3.500074E+05  5.997995E+03  6.115600E+03  5.465245E+04  2.971270E-10 -8.729106E-09
       240  18  4.349473E+05  2.649971E+04  2.403040E+04  6.807884E+04  3.217270E-09  7.469032E-10
       240  19  3.882439E+05  1.524855E+04  1.284374E+04  6.810213E+04  7.655846E+03  4.223553E+03
       240  20  3.033167E+05 -5.204451E+03 -3.227471E+03  5.467546E+04  8.332559E+03 -1.425660E+03
       240  21  2.182930E+05 -2.539393E+04 -1.885825E+04  6.764332E+04  9.008872E+03 -7.026107E+03
       240  22  3.266159E+05  5.145925E+02  7.838525E+02  6.786127E+04  7.052230E+02  4.195797E+03
       240  23  3.266617E+05  3.967808E+02  1.444019E+03  5.466396E+04  1.442125E+03 -1.453092E+03
       240  24  3.266145E+05  5.532614E+02  2.586347E+03  6.786108E+04  2.178714E+03 -7.053237E+03
       240  25  2.649917E+05 -1.421957E+04 -1.127604E+04  6.762044E+04 -6.244726E+03  4.168045E+03
       240  26  3.500074E+05  5.998005E+03  6.115660E+03  5.465245E+04 -5.448563E+03 -1.480523E+03
       240  27  4.349473E+05  2.649977E+04  2.403054E+04  6.807887E+04 -4.652611E+03 -7.080369E+03
       241   1  1.578248E+05 -4.013794E+04 -3.053296E+04  6.772613E+04 -9.750285E+03  1.035181E+04
       241   2  7.261104E+04 -6.048481E+04 -4.497203E+04  5.383679E+04 -1.169669E+04  1.565761E+04
       241   3 -1.218915E+04 -7.927076E+04 -5.781412E+04  6.630756E+04 -1.363832E+04  2.010551E+04
       241   4  3.267622E+05  4.279582E+02  3.409810E+03  6.785500E+04 -2.721438E+03  1.037947E+04
       241   5  3.264614E+05  4.659543E+02  5.964082E+03  5.467172E+04 -5.719547E+03  1.568036E+04
       241   6  3.267478E+05  2.246972E+03  1.084439E+04  6.784779E+04 -8.713129E+03  2.012354E+04
       241   7  4.957269E+05  4.099212E+04  3.735131E+04  6.798387E+04  4.309284E+03  1.040713E+04
       241   8  5.803732E+05  6.141277E+04  5.689705E+04  5.550694E+04  2.599901E+02  1.570312E+04
       241   9  6.657942E+05  8.375758E+04  7.949703E+04  6.938878E+04 -3.785295E+03  2.014158E+04
       241  10  1.578247E+05 -4.013808E+04 -3.053334E+04  6.772621E+04 -5.677353E-09  9.365067E-09
       241  11  7.261082E+04 -6.048511E+04 -4.497275E+04  5.383693E+04  4.268515E-09  2.258952E-09
       241  12 -1.218946E+04 -7.927124E+04 -5.781523E+04  6.630778E+04  8.182534E-09  6.725718E-09
       241  13  3.267622E+05  4.278405E+02  3.409594E+03  6.785502E+04 -1.111235E-09  8.924545E-09
       241  14  3.264613E+05  4.656814E+02  5.963558E+03  5.467179E+04  5.555006E-10  5.302150E-09
       241  15  3.267476E+05  2.246517E+03  1.084349E+04  6.784794E+04  2.197615E-10 -1.493741E-09
       241  16  4.957269E+05  4.099200E+04  3.735108E+04  6.798384E+04  4.914021E-09  5.164812E-09
       241  17  5.803732E+05  6.141250E+04  5.689659E+04  5.550694E+04 -2.887527E-09  8.758037E-10
       241  18  6.657941E+05  8.375714E+04  7.949624E+04  6.938884E+04 -8.792875E-09 -1.101961E-08
       241  19  1.578248E+05 -4.013794E+04 -3.053296E+04  6.772613E+04  9.750285E+03 -1.035181E+04
       241  20  7.261104E+04 -6.048481E+04 -4.497203E+04  5.383679E+04  1.169669E+04 -1.565761E+04
       241  21 -1.218915E+04 -7.927076E+04 -5.781412E+04  6.630756E+04  1.363832E+04 -2.010551E+04
       241  22  3.267622E+05  4.279582E+02  3.409810E+03  6.785500E+04  2.721438E+03 -1.037947E+04
       241  23  3.264614E+05  4.659543E+02  5.964082E+03  5.467172E+04  5.719547E+03 -1.568036E+04
       241  24  3.267478E+05  2.246972E+03  1.084439E+04  6.784779E+04  8.713129E+03 -2.012354E+04
       241  25  4.957269E+05  4.099212E+04  3.735131E+04  6.798387E+04 -4.309284E+03 -1.040713E+04
       241  26  5.803732E+05  6.141277E+04  5.689705E+04  5.550694E+04 -2.599901E+02 -1.570312E+04
       241  27  6.657942E+05  8.375758E+04  7.949703E+04  6.938878E+04  3.785295E+03 -2.014158E+04
       242   1 -7.121817E+04 -9.679959E+04 -6.701518E+04  7.185585E+04 -1.901928E+04  2.386182E+04
       242   2 -1.599282E+05 -1.125096E+05 -7.783705E+04  4.367649E+04 -1.335230E+04  2.320010E+04
       242   3 -2.414803E+05 -9.595247E+04 -8.431501E+04  4.099272E+04 -7.633695E+03  7.414163E+03
       242   4  3.289106E+05 -6.392942E+02  1.392193E+04  6.769276E+04 -1.060721E+04  2.389260E+04
       242   5  3.237156E+05  4.782826E+03  2.455698E+04  5.486197E+04 -2.345461E+04  2.316159E+04
       242   6  3.288783E+05  4.567178E+04  5.238557E+04  6.752429E+04 -3.625023E+04  7.311976E+03
       242   7  7.291920E+05  9.551119E+04  9.485104E+04  6.352678E+04 -2.189827E+03  2.392326E+04
       242   8  8.075805E+05  1.220606E+05  1.269382E+05  6.605611E+04 -3.356466E+04  2.312274E+04
       242   9  8.995381E+05  1.872754E+05  1.890665E+05  9.408008E+04 -6.489293E+04  7.207393E+03
       242  10 -7.121871E+04 -9.680030E+04 -6.701693E+04  7.185622E+04 -1.670021E-10  5.039669E-09
       242  11 -1.599285E+05 -1.125102E+05 -7.783840E+04  4.367674E+04 -2.597524E-10 -5.134258E-09
       242  12 -2.414804E+05 -9.595254E+04 -8.431522E+04  4.099276E+04 -1.618794E-09 -3.428898E-09
       242  13  3.289103E+05 -6.399376E+02  1.392065E+04  6.769296E+04  2.050089E-10  4.101651E-09
       242  14  3.237149E+05  4.782102E+03  2.455494E+04  5.486241E+04 -6.865068E-10 -6.116582E-09
       242  15  3.288769E+05  4.567137E+04  5.238300E+04  6.752451E+04  9.248599E-10  4.322267E-09
       242  16  7.291918E+05  9.551058E+04  9.484996E+04  6.352682E+04 -3.300338E-10 -1.408574E-09
       242  17  8.075791E+05  1.220597E+05  1.269350E+05  6.605673E+04 -2.341319E-09  6.414140E-10
       242  18  8.995336E+05  1.872742E+05  1.890585E+05  9.408046E+04 -3.217184E-10 -2.466678E-09
       242  19 -7.121817E+04 -9.679959E+04 -6.701518E+04  7.185585E+04  1.901928E+04 -2.386182E+04
       242  20 -1.599282E+05 -1.125096E+05 -7.783705E+04  4.367649E+04  1.335230E+04 -2.320010E+04
       242  21 -2.414803E+05 -9.595247E+04 -8.431501E+04  4.099272E+04  7.633695E+03 -7.414163E+03
       242  22  3.289106E+05 -6.392942E+02  1.392193E+04  6.769276E+04  1.060721E+04 -2.389260E+04
       242  23  3.237156E+05  4.782826E+03  2.455698E+04  5.486197E+04  2.345461E+04 -2.316159E+04
       242  24  3.288783E+05  4.567178E+04  5.238557E+04  6.752429E+04  3.625023E+04 -7.311976E+03
       242  25  7.291920E+05  9.551119E+04  9.485104E+04  6.352678E+04  2.189827E+03 -2.392326E+04
       242  26  8.075805E+05  1.220606E+05  1.269382E+05  6.605611E+04  3.356466E+04 -2.312274E+04
       242  27  8.995381E+05  1.872754E+05  1.890665E+05  9.408008E+04  6.489293E+04 -7.207393E+03
       243   1  3.136662E+05  2.151355E+06  3.192912E+05 -1.915618E+05  1.137658E+04  1.045381E+05
       243   2  1.903067E+05  1.956660E+06  2.080822E+05 -1.367297E+05  3.511944E+04  4.844171E+04
       243   3  1.359951E+05  1.786364E+06  1.505604E+05 -1.369961E+05  3.375621E+04 -7.683643E+03
       243   4  8.153173E+04  1.214529E+06  9.472858E+04 -1.448535E+05  1.147541E+04  6.009348E+04
       243   5  8.259674E+03  1.205063E+06  4.857697E+04 -1.173949E+05  3.515386E+04  3.484144E+04
       243   6 -1.259571E+03  1.214659E+06  3.477551E+04 -1.450301E+05  3.371742E+04  9.542959E+03
       243   7 -1.506573E+05  2.785123E+05 -1.298876E+05 -9.821538E+04  1.156765E+04  1.571543E+04
       243   8 -1.738225E+05  4.539980E+05 -1.109596E+05 -9.808349E+04  3.518745E+04  2.125733E+04
       243   9 -1.385341E+05  6.432657E+05 -8.102517E+04 -1.530564E+05  3.367817E+04  2.675403E+04
       243  10  3.136631E+05  2.151343E+06  3.192705E+05 -1.915627E+05  8.586261E-11  1.593473E-10
       243  11  1.903048E+05  1.956658E+06  2.080754E+05 -1.367311E+05 -5.830051E-10 -9.618809E-09
       243  12  1.359939E+05  1.786364E+06  1.505581E+05 -1.369959E+05 -2.206719E-10 -5.142869E-09
       243  13  8.153062E+04  1.214525E+06  9.472156E+04 -1.448541E+05  2.363398E-10 -1.909733E-09
       243  14  8.258020E+03  1.205062E+06  4.857236E+04 -1.173959E+05 -4.988794E-10  5.433496E-11
       243  15 -1.260817E+03  1.214659E+06  3.477321E+04 -1.450303E+05  4.344146E-10  4.169992E-10
       243  16 -1.506575E+05  2.785120E+05 -1.298883E+05 -9.821553E+04  7.237291E-10  1.003305E-09
       243  17 -1.738240E+05  4.539972E+05 -1.109628E+05 -9.808409E+04  2.000858E-09  6.690873E-09
       243  18 -1.385355E+05  6.432646E+05 -8.102865E+04 -1.530571E+05  1.281547E-09  3.487998E-09
       243  19  3.136662E+05  2.151355E+06  3.192912E+05 -1.915618E+05 -1.137658E+04 -1.045381E+05
       243  20  1.903067E+05  1.956660E+06  2.080822E+05 -1.367297E+05 -3.511944E+04 -4.844171E+04
       243  21  1.359951E+05  1.786364E+06  1.505604E+05 -1.369961E+05 -3.375621E+04  7.683643E+03
       243  22  8.153173E+04  1.214529E+06  9.472858E+04 -1.448535E+05 -1.147541E+04 -6.009348E+04
       243  23  8.259674E+03  1.205063E+06  4.857697E+04 -1.173949E+05 -3.515386E+04 -3.484144E+04
       243  24 -1.259571E+03  1.214659E+06  3.477551E+04 -1.450301E+05 -3.371742E+04 -9.542959E+03
       243  25 -1.506573E+05  2.785123E+05 -1.298876E+05 -9.821538E+04 -1.156765E+04 -1.571543E+04
       243  26 -1.738225E+05  4.539980E+05 -1.109596E+05 -9.808349E+04 -3.518745E+04 -2.125733E+04
       243  27 -1.385341E+05  6.432657E+05 -8.102517E+04 -1.530564E+05 -3.367817E+04 -2.675403E+04
       244   1  1.093847E+05  1.652403E+06  1.222685E+05 -1.486518E+05  2.589127E+04 -7.460950E+03
       244   2  6.303980E+04  1.468342E+06  8.664903E+04 -1.173786E+05  1.613642E+04 -2.576255E+04
       244   3  2.620350E+04  1.288760E+06  6.522522E+04 -1.424066E+05  5.647454E+03 -4.406358E+04
       244   4  3.418296E+03  1.211398E+06  3.281250E+04 -1.452642E+05  2.586407E+04  4.105110E+03
       244   5  9.298604E+02  1.209264E+06  3.478531E+04 -1.171079E+05  1.610558E+04 -1.329037E+04
       244   6  7.796698E+03  1.211421E+06  5.032936E+04 -1.452533E+05  5.612911E+03 -3.069039E+04
       244   7 -1.025600E+05  7.705776E+05 -5.665315E+04 -1.418788E+05  2.583698E+04  1.566313E+04
       244   8 -6.118412E+04  9.502502E+05 -1.708123E+04 -1.168372E+05  1.607475E+04 -8.232719E+02
       244   9 -1.061033E+04  1.134089E+06  3.543390E+04 -1.480997E+05  5.578244E+03 -1.731883E+04
       244  10  1.093839E+05  1.652403E+06  1.222672E+05 -1.486517E+05 -7.911492E-10 -1.902494E-09
       244  11  6.303935E+04  1.468341E+06  8.664730E+04 -1.173783E+05  1.518849E-09 -1.300746E-08
       244  12  2.620294E+04  1.288757E+06  6.522152E+04 -1.424064E+05 -3.692318E-10 -4.936403E-09
       244  13  3.417572E+03  1.211398E+06  3.281121E+04 -1.452642E+05 -4.561426E-10 -2.436015E-09
       244  14  9.295345E+02  1.209264E+06  3.478449E+04 -1.171077E+05 -2.174734E-09  9.234397E-11
       244  15  7.796412E+03  1.211420E+06  5.032753E+04 -1.452532E+05 -8.130307E-10  3.664495E-10
       244  16 -1.025608E+05  7.705772E+05 -5.665486E+04 -1.418791E+05  9.585574E-10  3.216032E-09
       244  17 -6.118439E+04  9.502501E+05 -1.708172E+04 -1.168372E+05 -3.656076E-10  9.122704E-09
       244  18 -1.061044E+04  1.134088E+06  3.543328E+04 -1.480996E+05  3.056234E-09  3.184903E-09
       244  19  1.093847E+05  1.652403E+06  1.222685E+05 -1.486518E+05 -2.589127E+04  7.460950E+03
       244  20  6.303980E+04  1.468342E+06  8.664903E+04 -1.173786E+05 -1.613642E+04  2.576255E+04
       244  21  2.620350E+04  1.288760E+06  6.522522E+04 -1.424066E+05 -5.647454E+03  4.406358E+04
       244  22  3.418296E+03  1.211398E+06  3.281250E+04 -1.452642E+05 -2.586407E+04 -4.105110E+03
       244  23  9.298604E+02  1.209264E+06  3.478531E+04 -1.171079E+05 -1.610558E+04  1.329037E+04
       244  24  7.796698E+03  1.211421E+06  5.032936E+04 -1.452533E+05 -5.612911E+03  3.069039E+04
       244  25 -1.025600E+05  7.705776E+05 -5.665315E+04 -1.418788E+05 -2.583698E+04 -1.566313E+04
       244  26 -6.118412E+04  9.502502E+05 -1.708123E+04 -1.168372E+05 -1.607475E+04  8.232719E+02
       244  27 -1.061033E+04  1.134089E+06  3.543390E+04 -1.480997E+05 -5.578244E+03  1.731883E+04
       245   1 -1.652248E+04  1.167311E+06  4.989064E+04 -1.666941E+05 -1.792713E+03 -5.514736E+04
       245   2 -3.824139E+04  9.654453E+05  5.189024E+04 -7.598055E+04 -8.613845E+03 -9.432492E+04
       245   3  8.293042E+04  8.041375E+05  1.150304E+05 -4.079205E+04 -3.432184E+03 -1.334622E+05
       245   4 -3.803731E+03  1.220046E+06  6.148402E+04 -1.451763E+05 -1.835840E+03 -3.932164E+04
       245   5  1.878473E+04  1.198461E+06  1.030701E+05 -1.171900E+05 -8.610168E+03 -9.323703E+04
       245   6  1.867705E+05  1.219911E+06  2.159913E+05 -1.447117E+05 -3.375877E+03 -1.471240E+05
       245   7  8.916714E+03  1.272786E+06  7.307842E+04 -1.236566E+05 -1.877869E+03 -2.349460E+04
       245   8  7.581353E+04  1.431531E+06  1.542475E+05 -1.584150E+05 -8.606636E+03 -9.214874E+04
       245   9  2.906382E+05  1.635866E+06  3.169462E+05 -2.487009E+05 -3.315028E+03 -1.607948E+05
       245  10 -1.652330E+04  1.167307E+06  4.988493E+04 -1.666942E+05  7.794932E-10 -1.121516E-09
       245  11 -3.824385E+04  9.654358E+05  5.187340E+04 -7.598120E+04  3.175246E-09 -1.276861E-08
       245  12  8.292563E+04  8.041184E+05  1.149969E+05 -4.079242E+04  3.672710E-10 -5.375352E-09
       245  13 -3.804148E+03  1.220044E+06  6.148111E+04 -1.451763E+05  2.251475E-09 -2.487245E-09
       245  14  1.878232E+04  1.198452E+06  1.030536E+05 -1.171906E+05 -7.877204E-10 -1.143963E-10
       245  15  1.867647E+05  1.219888E+06  2.159507E+05 -1.447121E+05  6.481351E-10  5.032876E-10
       245  16  8.916562E+03  1.272785E+06  7.307738E+04 -1.236566E+05  2.402707E-10  2.362585E-09
       245  17  7.581118E+04  1.431522E+06  1.542314E+05 -1.584157E+05  1.215947E-09  8.316947E-09
       245  18  2.906313E+05  1.635838E+06  3.168977E+05 -2.487013E+05  4.464370E-10  3.432793E-09
       245  19 -1.652248E+04  1.167311E+06  4.989064E+04 -1.666941E+05  1.792713E+03  5.514736E+04
       245  20 -3.824139E+04  9.654453E+05  5.189024E+04 -7.598055E+04  8.613845E+03  9.432492E+04
       245  21  8.293042E+04  8.041375E+05  1.150304E+05 -4.079205E+04  3.432184E+03  1.334622E+05
       245  22 -3.803731E+03  1.220046E+06  6.148402E+04 -1.451763E+05  1.835840E+03  3.932164E+04
       245  23  1.878473E+04  1.198461E+06  1.030701E+05 -1.171900E+05  8.610168E+03  9.323703E+04
       245  24  1.867705E+05  1.219911E+06  2.159913E+05 -1.447117E+05  3.375877E+03  1.471240E+05
       245  25  8.916714E+03  1.272786E+06  7.307842E+04 -1.236566E+05  1.877869E+03  2.349460E+04
       245  26  7.581353E+04  1.431531E+06  1.542475E+05 -1.584150E+05  8.606636E+03  9.214874E+04
       245  27  2.906382E+05  1.635866E+06  3.169462E+05 -2.487009E+05  3.315028E+03  1.607948E+05
       246   1  1.554604E+06  4.807587E+05  2.443385E+05  5.407535E+05  4.820669E+04  8.094311E+02
       246   2  1.485050E+06  4.561021E+05  2.052201E+05  5.119284E+05  3.311222E+04 -4.363253E+04
       246   3  1.400079E+06  4.419145E+05  1.849740E+05  5.053391E+05  7.316019E+03 -5.967358E+04
       246   4  5.423853E+05  1.080991E+05 -1.989389E+04  2.716428E+05 -7.046503E+03 -2.003299E+04
       246   5  5.544499E+05  1.138282E+05 -8.901598E+03  2.576139E+05  1.048305E+04 -5.218165E+04
       246   6  5.446343E+05  1.235668E+05 -4.852899E+03  2.658236E+05  1.729831E+04 -5.590977E+04
       246   7 -4.688138E+05 -2.644964E+05 -2.841926E+05  2.930173E+03 -6.219959E+04 -4.083951E+04
       246   8 -3.752728E+05 -2.283794E+05 -2.230759E+05  3.648600E+03 -1.210904E+04 -6.071708E+04
       246   9 -3.100714E+05 -1.947198E+05 -1.947245E+05  2.661116E+04  2.726573E+04 -5.215166E+04
       246  10  1.554601E+06  4.807581E+05  2.443341E+05  5.407534E+05  1.863259E-09 -3.220045E-10
       246  11  1.485048E+06  4.560998E+05  2.052145E+05  5.119295E+05  1.829347E-09 -5.191523E-09
       246  12  1.400078E+06  4.419107E+05  1.849672E+05  5.053395E+05  3.332694E-11 -4.354117E-09
       246  13  5.423851E+05  1.080987E+05 -1.989473E+04  2.716427E+05  1.219814E-09  1.646144E-09
       246  14  5.544491E+05  1.138253E+05 -8.906922E+03  2.576144E+05 -4.100562E-10 -2.982680E-09
       246  15  5.446332E+05  1.235634E+05 -4.859338E+03  2.658244E+05  1.981505E-09  4.457257E-09
       246  16 -4.688184E+05 -2.644992E+05 -2.842030E+05  2.928126E+03 -2.481019E-09 -5.866628E-10
       246  17 -3.752740E+05 -2.283834E+05 -2.230831E+05  3.648008E+03  1.603219E-09  1.911115E-09
       246  18 -3.100730E+05 -1.947229E+05 -1.947310E+05  2.661231E+04  4.440468E-10  1.602773E-09
       246  19  1.554604E+06  4.807587E+05  2.443385E+05  5.407535E+05 -4.820669E+04 -8.094311E+02
       246  20  1.485050E+06  4.561021E+05  2.052201E+05  5.119284E+05 -3.311222E+04  4.363253E+04
       246  21  1.400079E+06  4.419145E+05  1.849740E+05  5.053391E+05 -7.316019E+03  5.967358E+04
       246  22  5.423853E+05  1.080991E+05 -1.989389E+04  2.716428E+05  7.046503E+03  2.003299E+04
       246  23  5.544499E+05  1.138282E+05 -8.901598E+03  2.576139E+05 -1.048305E+04  5.218165E+04
       246  24  5.446343E+05  1.235668E+05 -4.852899E+03  2.658236E+05 -1.729831E+04  5.590977E+04
       246  25 -4.688138E+05 -2.644964E+05 -2.841926E+05  2.930173E+03  6.219959E+04  4.083951E+04
       246  26 -3.752728E+05 -2.283794E+05 -2.230759E+05  3.648600E+03  1.210904E+04  6.071708E+04
       246  27 -3.100714E+05 -1.947198E+05 -1.947245E+05  2.661116E+04 -2.726573E+04  5.215166E+04
       247   1  1.347343E+06  4.195804E+05  1.746943E+05  4.893383E+05  1.353825E+04 -5.234973E+04
       247   2  1.282803E+06  3.842412E+05  1.588749E+05  4.590736E+05  1.172039E+04 -4.952850E+04
       247   3  1.200710E+06  3.663535E+05  1.435097E+05  4.489839E+05  9.350426E+03 -4.525763E+04
       247   4  5.450215E+05  1.228170E+05 -3.772458E+03  2.667578E+05  1.623519E+04 -5.133688E+04
       247   5  5.540345E+05  1.146287E+05 -1.990885E+03  2.565365E+05  1.608166E+04 -4.788465E+04
       247   6  5.451609E+05  1.235632E+05 -1.073391E+03  2.664899E+05  1.537563E+04 -4.298189E+04
       247   7 -2.566578E+05 -1.738978E+05 -1.822810E+05  4.443862E+04  1.892839E+04 -5.032545E+04
       247   8 -1.742004E+05 -1.549424E+05 -1.628900E+05  5.421618E+04  2.043742E+04 -4.624289E+04
       247   9 -1.099548E+05 -1.191925E+05 -1.456827E+05  8.417227E+04  2.139396E+04 -4.070874E+04
       247  10  1.347342E+06  4.195774E+05  1.746888E+05  4.893389E+05  3.333084E-09 -5.148446E-09
       247  11  1.282802E+06  3.842385E+05  1.588701E+05  4.590740E+05 -9.158104E-09 -9.826053E-09
       247  12  1.200710E+06  3.663513E+05  1.435057E+05  4.489843E+05 -2.487632E-08 -7.941746E-09
       247  13  5.450205E+05  1.228141E+05 -3.777908E+03  2.667584E+05  1.168119E-09 -3.735166E-09
       247  14  5.540337E+05  1.146261E+05 -1.995681E+03  2.565371E+05 -2.828688E-09 -8.483470E-10
       247  15  5.451601E+05  1.235612E+05 -1.077308E+03  2.664904E+05 -4.831883E-09 -2.804881E-09
       247  16 -2.566588E+05 -1.739006E+05 -1.822864E+05  4.443938E+04 -2.277813E-09 -9.423908E-11
       247  17 -1.742014E+05 -1.549448E+05 -1.628948E+05  5.421695E+04  1.184156E-08  8.301637E-09
       247  18 -1.099557E+05 -1.191944E+05 -1.456867E+05  8.417298E+04  1.655389E-08  6.522598E-09
       247  19  1.347343E+06  4.195804E+05  1.746943E+05  4.893383E+05 -1.353825E+04  5.234973E+04
       247  20  1.282803E+06  3.842412E+05  1.588749E+05  4.590736E+05 -1.172039E+04  4.952850E+04
       247  21  1.200710E+06  3.663535E+05  1.435097E+05  4.489839E+05 -9.350426E+03  4.525763E+04
       247  22  5.450215E+05  1.228170E+05 -3.772458E+03  2.667578E+05 -1.623519E+04  5.133688E+04
       247  23  5.540345E+05  1.146287E+05 -1.990885E+03  2.565365E+05 -1.608166E+04  4.788465E+04
       247  24  5.451609E+05  1.235632E+05 -1.073391E+03  2.664899E+05 -1.537563E+04  4.298189E+04
       247  25 -2.566578E+05 -1.738978E+05 -1.822810E+05  4.443862E+04 -1.892839E+04  5.032545E+04
       247  26 -1.742004E+05 -1.549424E+05 -1.628900E+05  5.421618E+04 -2.043742E+04  4.624289E+04
       247  27 -1.099548E+05 -1.191925E+05 -1.456827E+05  8.417227E+04 -2.139396E+04  4.070874E+04
       248   1  1.147449E+06  3.464597E+05  1.316296E+05  4.341370E+05  8.746823E+03 -4.204011E+04
       248   2  1.083544E+06  3.108537E+05  1.161702E+05  4.039420E+05  7.010679E+03 -3.704435E+04
       248   3  1.002051E+06  2.928906E+05  1.006277E+05  3.937184E+05  5.246291E+03 -3.198303E+04
       248   4  5.452144E+05  1.235232E+05 -8.045574E+02  2.665083E+05  1.438624E+04 -3.990902E+04
       248   5  5.540397E+05  1.147556E+05 -4.195904E+02  2.565112E+05  1.272552E+04 -3.488286E+04
       248   6  5.452547E+05  1.236166E+05 -1.780864E+02  2.664849E+05  1.103655E+04 -2.979108E+04
       248   7 -5.665028E+04 -9.938240E+04 -1.332596E+05  9.902967E+04  2.001971E+04 -3.778019E+04
       248   8  2.481815E+04 -8.131979E+04 -1.170264E+05  1.091955E+05  1.843509E+04 -3.272338E+04
       248   9  8.866584E+04 -4.564163E+04 -1.009974E+05  1.393362E+05  1.682224E+04 -2.760087E+04
       248  10  1.147449E+06  3.464578E+05  1.316262E+05  4.341373E+05  6.661375E-09  6.240266E-09
       248  11  1.083544E+06  3.108523E+05  1.161675E+05  4.039422E+05  7.448552E-09  1.637444E-08
       248  12  1.002051E+06  2.928895E+05  1.006257E+05  3.937186E+05  2.129923E-09  2.291390E-10
       248  13  5.452138E+05  1.235215E+05 -8.079405E+02  2.665088E+05 -4.906010E-09  1.422204E-09
       248  14  5.540392E+05  1.147543E+05 -4.221821E+02  2.565115E+05 -3.533141E-09 -6.801319E-09
       248  15  5.452543E+05  1.236156E+05 -1.799837E+02  2.664851E+05 -1.097642E-09 -1.093918E-09
       248  16 -5.665110E+04 -9.938404E+04 -1.332631E+05  9.903028E+04 -1.717778E-08 -2.826291E-09
       248  17  2.481750E+04 -8.132103E+04 -1.170290E+05  1.091960E+05 -1.033723E-08  4.707949E-09
       248  18  8.866533E+04 -4.564253E+04 -1.009993E+05  1.393366E+05 -3.011218E-09 -1.449496E-09
       248  19  1.147449E+06  3.464597E+05  1.316296E+05  4.341370E+05 -8.746823E+03  4.204011E+04
       248  20  1.083544E+06  3.108537E+05  1.161702E+05  4.039420E+05 -7.010679E+03  3.704435E+04
       248  21  1.002051E+06  2.928906E+05  1.006277E+05  3.937184E+05 -5.246291E+03  3.198303E+04
       248  22  5.452144E+05  1.235232E+05 -8.045574E+02  2.665083E+05 -1.438624E+04  3.990902E+04
       248  23  5.540397E+05  1.147556E+05 -4.195904E+02  2.565112E+05 -1.272552E+04  3.488286E+04
       248  24  5.452547E+05  1.236166E+05 -1.780864E+02  2.664849E+05 -1.103655E+04  2.979108E+04
       248  25 -5.665028E+04 -9.938240E+04 -1.332596E+05  9.902967E+04 -2.001971E+04  3.778019E+04
       248  26  2.481815E+04 -8.131979E+04 -1.170264E+05  1.091955E+05 -1.843509E+04  3.272338E+04
       248  27  8.866584E+04 -4.564163E+04 -1.009974E+05  1.393362E+05 -1.682224E+04  2.760087E+04
       249   1  9.490392E+05  2.731755E+05  8.857467E+04  3.789749E+05  4.185636E+03 -2.903227E+04
       249   2  8.854568E+05  2.376559E+05  7.303184E+04  3.488801E+05  2.258605E+03 -2.402121E+04
       249   3  8.043251E+05  2.197228E+05  5.751393E+04  3.386580E+05  3.303534E+02 -1.901241E+04
       249   4  5.452761E+05  1.236080E+05 -9.739186E+01  2.664664E+05  9.948620E+03 -2.684973E+04
       249   5  5.540643E+05  1.148357E+05  5.596423E+01  2.565264E+05  8.019038E+03 -2.183847E+04
       249   6  5.452975E+05  1.236501E+05  2.358485E+02  2.664573E+05  6.088229E+03 -1.682947E+04
       249   7  1.416779E+05 -2.594615E+04 -8.877919E+04  1.540250E+05  1.570755E+04 -2.466872E+04
       249   8  2.227841E+05 -7.975061E+03 -7.292616E+04  1.642182E+05  1.377613E+04 -1.965700E+04
       249   9  2.863395E+05  2.758355E+04 -5.704574E+04  1.942847E+05  1.184347E+04 -1.464753E+04
       249  10  9.490390E+05  2.731746E+05  8.857305E+04  3.789750E+05 -2.240652E-10  3.340767E-09
       249  11  8.854566E+05  2.376553E+05  7.303075E+04  3.488801E+05 -9.247117E-10  4.260478E-09
       249  12  8.043250E+05  2.197224E+05  5.751325E+04  3.386580E+05 -2.116719E-09  3.543172E-09
       249  13  5.452758E+05  1.236072E+05 -9.893306E+01  2.664666E+05  1.094613E-09 -9.756219E-09
       249  14  5.540641E+05  1.148352E+05  5.494685E+01  2.565265E+05  5.111994E-11  7.172648E-09
       249  15  5.452974E+05  1.236498E+05  2.352464E+02  2.664574E+05 -1.465255E-09 -5.643458E-09
       249  16  1.416775E+05 -2.594687E+04 -8.878080E+04  1.540253E+05  1.409242E-09 -1.567786E-09
       249  17  2.227838E+05 -7.975527E+03 -7.292725E+04  1.642184E+05 -2.089680E-09  1.691491E-09
       249  18  2.863393E+05  2.758329E+04 -5.704641E+04  1.942849E+05  7.420353E-10 -3.308444E-09
       249  19  9.490392E+05  2.731755E+05  8.857467E+04  3.789749E+05 -4.185636E+03  2.903227E+04
       249  20  8.854568E+05  2.376559E+05  7.303184E+04  3.488801E+05 -2.258605E+03  2.402121E+04
       249  21  8.043251E+05  2.197228E+05  5.751393E+04  3.386580E+05 -3.303534E+02  1.901241E+04
       249  22  5.452761E+05  1.236080E+05 -9.739186E+01  2.664664E+05 -9.948620E+03  2.684973E+04
       249  23  5.540643E+05  1.148357E+05  5.596423E+01  2.565264E+05 -8.019038E+03  2.183847E+04
       249  24  5.452975E+05  1.236501E+05  2.358485E+02  2.664573E+05 -6.088229E+03  1.682947E+04
       249  25  1.416779E+05 -2.594615E+04 -8.877919E+04  1.540250E+05 -1.570755E+04  2.466872E+04
       249  26  2.227841E+05 -7.975061E+03 -7.292616E+04  1.642182E+05 -1.377613E+04  1.965700E+04
       249  27  2.863395E+05  2.758355E+04 -5.704574E+04  1.942847E+05 -1.184347E+04  1.464753E+04
       250   1  7.514946E+05  2.000602E+05  4.552298E+04  3.239594E+05 -8.205065E+02 -1.610971E+04
       250   2  6.880610E+05  1.645857E+05  3.019593E+04  2.939307E+05 -3.053247E+03 -1.122342E+04
       250   3  6.071303E+05  1.466773E+05  1.511809E+04  2.837329E+05 -5.285088E+03 -6.341614E+03
       250   4  5.453162E+05  1.236478E+05  3.457168E+02  2.664501E+05  4.932402E+03 -1.392815E+04
       250   5  5.540697E+05  1.148679E+05  6.783887E+02  2.565352E+05  2.694450E+03 -9.043368E+03
       250   6  5.453230E+05  1.236555E+05  1.264787E+03  2.664497E+05  4.573531E+02 -4.163062E+03
       250   7  3.391795E+05  4.723827E+04 -4.483436E+04  2.089580E+05  1.068328E+04 -1.174737E+04
       250   8  4.200961E+05  6.515136E+04 -2.884024E+04  2.191469E+05  8.440824E+03 -6.863815E+03
       250   9  4.835196E+05  1.006340E+05 -1.258862E+04  2.491681E+05  6.199176E+03 -1.984746E+03
       250  10  7.514946E+05  2.000599E+05  4.552249E+04  3.239594E+05 -8.125357E-10 -2.042915E-10
       250  11  6.880610E+05  1.645856E+05  3.019567E+04  2.939307E+05  3.141184E-09  5.661525E-09
       250  12  6.071303E+05  1.466773E+05  1.511796E+04  2.837329E+05  5.538647E-09 -6.849050E-09
       250  13  5.453162E+05  1.236475E+05  3.453064E+02  2.664502E+05 -2.301056E-09 -8.904407E-11
       250  14  5.540697E+05  1.148678E+05  6.782213E+02  2.565352E+05  3.176989E-09  1.869060E-09
       250  15  5.453230E+05  1.236555E+05  1.264754E+03  2.664497E+05 -3.761007E-10 -3.337786E-09
       250  16  3.391793E+05  4.723809E+04 -4.483484E+04  2.089581E+05  5.945031E-11  1.882107E-09
       250  17  4.200960E+05  6.515129E+04 -2.884046E+04  2.191470E+05 -3.296523E-09 -1.006775E-09
       250  18  4.835196E+05  1.006340E+05 -1.258870E+04  2.491681E+05 -8.277088E-09 -3.712173E-09
       250  19  7.514946E+05  2.000602E+05  4.552298E+04  3.239594E+05  8.205065E+02  1.610971E+04
       250  20  6.880610E+05  1.645857E+05  3.019593E+04  2.939307E+05  3.053247E+03  1.122342E+04
       250  21  6.071303E+05  1.466773E+05  1.511809E+04  2.837329E+05  5.285088E+03  6.341614E+03
       250  22  5.453162E+05  1.236478E+05  3.457168E+02  2.664501E+05 -4.932402E+03  1.392815E+04
       250  23  5.540697E+05  1.148679E+05  6.783887E+02  2.565352E+05 -2.694450E+03  9.043368E+03
       250  24  5.453230E+05  1.236555E+05  1.264787E+03  2.664497E+05 -4.573531E+02  4.163062E+03
       250  25  3.391795E+05  4.723827E+04 -4.483436E+04  2.089580E+05 -1.068328E+04  1.174737E+04
       250  26  4.200961E+05  6.515136E+04 -2.884024E+04  2.191469E+05 -8.440824E+03  6.863815E+03
       250  27  4.835196E+05  1.006340E+05 -1.258862E+04  2.491681E+05 -6.199176E+03  1.984746E+03
       251   1  5.543906E+05  1.270560E+05  3.464148E+03  2.691046E+05 -6.646928E+03 -3.520884E+03
       251   2  4.908763E+05  9.155848E+04 -1.081651E+04  2.390766E+05 -1.003163E+04  9.090982E+02
       251   3  4.100852E+05  7.380928E+04 -2.394155E+04  2.288813E+05 -1.340058E+04  5.299406E+03
       251   4  5.453674E+05  1.236489E+05  1.694157E+03  2.664688E+05 -8.949868E+02 -1.338658E+03
       251   5  5.540105E+05  1.148289E+05  3.082148E+03  2.565306E+05 -4.325859E+03  3.073567E+03
       251   6  5.453804E+05  1.237657E+05  5.662170E+03  2.664227E+05 -7.741199E+03  7.446079E+03
       251   7  5.363444E+05  1.202418E+05 -7.567953E+01  2.638330E+05  4.856827E+03  8.435178E+02
       251   8  6.171488E+05  1.380997E+05  1.698070E+04  2.739862E+05  1.380536E+03  5.238270E+03
       251   9  6.806952E+05  1.737239E+05  3.526517E+04  3.039719E+05 -2.080443E+03  9.593269E+03
       251  10  5.543906E+05  1.270560E+05  3.464042E+03  2.691046E+05 -9.608263E-09 -1.236348E-08
       251  11  4.908762E+05  9.155845E+04 -1.081670E+04  2.390766E+05 -2.218079E-09  3.147978E-09
       251  12  4.100850E+05  7.380920E+04 -2.394194E+04  2.288814E+05  6.320060E-09 -8.232595E-09
       251  13  5.453674E+05  1.236489E+05  1.694152E+03  2.664688E+05 -2.433170E-09 -1.373174E-08
       251  14  5.540105E+05  1.148289E+05  3.082095E+03  2.565306E+05  3.633118E-09  5.845206E-09
       251  15  5.453804E+05  1.237656E+05  5.661954E+03  2.664228E+05 -2.063423E-09 -1.030967E-08
       251  16  5.363444E+05  1.202418E+05 -7.572515E+01  2.638330E+05  8.024252E-09  1.880105E-09
       251  17  6.171488E+05  1.380996E+05  1.698064E+04  2.739862E+05  1.681913E-09  5.762465E-09
       251  18  6.806952E+05  1.737238E+05  3.526499E+04  3.039719E+05 -9.888895E-09 -4.726063E-09
       251  19  5.543906E+05  1.270560E+05  3.464148E+03  2.691046E+05  6.646928E+03  3.520884E+03
       251  20  4.908763E+05  9.155848E+04 -1.081651E+04  2.390766E+05  1.003163E+04 -9.090982E+02
       251  21  4.100852E+05  7.380928E+04 -2.394155E+04  2.288813E+05  1.340058E+04 -5.299406E+03
       251  22  5.453674E+05  1.236489E+05  1.694157E+03  2.664688E+05  8.949868E+02  1.338658E+03
       251  23  5.540105E+05  1.148289E+05  3.082148E+03  2.565306E+05  4.325859E+03 -3.073567E+03
       251  24  5.453804E+05  1.237657E+05  5.662170E+03  2.664227E+05  7.741199E+03 -7.446079E+03
       251  25  5.363444E+05  1.202418E+05 -7.567953E+01  2.638330E+05 -4.856827E+03 -8.435178E+02
       251  26  6.171488E+05  1.380997E+05  1.698070E+04  2.739862E+05 -1.380536E+03 -5.238270E+03
       251  27  6.806952E+05  1.737239E+05  3.526517E+04  3.039719E+05  2.080443E+03 -9.593269E+03
       252   1  3.570848E+05  5.438310E+04 -3.415815E+04  2.150254E+05 -1.578455E+04  7.776761E+03
       252   2  2.936373E+05  1.816742E+04 -4.394708E+04  1.835892E+05 -2.353840E+04  1.023674E+04
       252   3  2.149013E+05  3.410457E+03 -4.824726E+04  1.712175E+05 -3.099168E+04  1.191031E+04
       252   4  5.456922E+05  1.234865E+05  7.512433E+03  2.666829E+05 -9.920682E+03  1.000068E+04
       252   5  5.535601E+05  1.148766E+05  1.363805E+04  2.563115E+05 -1.858007E+04  1.211630E+04
       252   6  5.463122E+05  1.279022E+05  2.596800E+04  2.650017E+05 -2.693966E+04  1.344541E+04
       252   7  7.343355E+05  1.925926E+05  4.918096E+04  3.183548E+05 -4.054885E+03  1.222530E+04
       252   8  8.135503E+05  2.115910E+05  7.121885E+04  3.290616E+05 -1.361951E+04  1.399671E+04
       252   9  8.778317E+05  2.524025E+05  1.001757E+05  3.588315E+05 -2.288533E+04  1.498140E+04
       252  10  3.570845E+05  5.438296E+04 -3.415873E+04  2.150255E+05 -3.941440E-09  5.022766E-10
       252  11  2.936367E+05  1.816716E+04 -4.394831E+04  1.835894E+05 -1.220480E-09 -3.426968E-09
       252  12  2.149002E+05  3.410047E+03 -4.824933E+04  1.712178E+05  4.710764E-09 -1.316398E-09
       252  13  5.456921E+05  1.234864E+05  7.512060E+03  2.666830E+05 -2.173603E-09 -1.779345E-09
       252  14  5.535597E+05  1.148763E+05  1.363713E+04  2.563117E+05  2.727065E-09 -8.143260E-09
       252  15  5.463114E+05  1.279018E+05  2.596629E+04  2.650020E+05  1.445388E-09 -4.298778E-09
       252  16  7.343355E+05  1.925924E+05  4.918065E+04  3.183548E+05  3.540744E-09  1.742770E-09
       252  17  8.135501E+05  2.115907E+05  7.121813E+04  3.290618E+05  2.278151E-09 -7.810644E-09
       252  18  8.778311E+05  2.524021E+05  1.001743E+05  3.588317E+05 -5.477303E-09 -9.274276E-09
       252  19  3.570848E+05  5.438310E+04 -3.415815E+04  2.150254E+05  1.578455E+04 -7.776761E+03
       252  20  2.936373E+05  1.816742E+04 -4.394708E+04  1.835892E+05  2.353840E+04 -1.023674E+04
       252  21  2.149013E+05  3.410457E+03 -4.824726E+04  1.712175E+05  3.099168E+04 -1.191031E+04
       252  22  5.456922E+05  1.234865E+05  7.512433E+03  2.666829E+05  9.920682E+03 -1.000068E+04
       252  23  5.535601E+05  1.148766E+05  1.363805E+04  2.563115E+05  1.858007E+04 -1.211630E+04
       252  24  5.463122E+05  1.279022E+05  2.596800E+04  2.650017E+05  2.693966E+04 -1.344541E+04
       252  25  7.343355E+05  1.925926E+05  4.918096E+04  3.183548E+05  4.054885E+03 -1.222530E+04
       252  26  8.135503E+05  2.115910E+05  7.121885E+04  3.290616E+05  1.361951E+04 -1.399671E+04
       252  27  8.778317E+05  2.524025E+05  1.001757E+05  3.588315E+05  2.288533E+04 -1.498140E+04
       253   1  1.548946E+05 -1.241466E+04 -5.240981E+04  1.733430E+05 -4.032734E+04  1.257464E+04
       253   2  1.067971E+05 -6.479493E+04 -4.505858E+04  1.061987E+05 -5.476056E+04  6.296892E+03
       253   3  7.585951E+04 -1.517007E+04 -3.380139E+03  3.578330E+04 -6.337386E+04 -1.534314E+04
       253   4  5.505797E+05  1.209667E+05  3.342752E+04  2.697217E+05 -3.234647E+04  1.559925E+04
       253   5  5.478863E+05  1.214881E+05  6.102280E+04  2.511701E+05 -6.440968E+04  2.637088E+03
       253   6  5.658145E+05  2.274614E+05  1.368999E+05  2.293509E+05 -9.065761E+04 -2.568465E+04
       253   7  9.464263E+05  2.543554E+05  1.192570E+05  3.661547E+05 -2.436001E+04  1.862555E+04
       253   8  9.891717E+05  3.078020E+05  1.670904E+05  3.962413E+05 -7.406621E+04 -1.026378E+03
       253   9  1.056007E+06  4.701618E+05  2.771590E+05  4.230719E+05 -1.179645E+05 -3.604128E+04
       253  10  1.548928E+05 -1.241527E+04 -5.241316E+04  1.733434E+05  6.377766E-10 -7.003110E-10
       253  11  1.067939E+05 -6.479578E+04 -4.506429E+04  1.061990E+05 -1.356378E-09 -1.203705E-08
       253  12  7.585513E+04 -1.517140E+04 -3.388127E+03  3.578251E+04 -3.423226E-09 -4.953745E-09
       253  13  5.505785E+05  1.209662E+05  3.342510E+04  2.697221E+05  1.050328E-09 -1.334486E-08
       253  14  5.478819E+05  1.214870E+05  6.101499E+04  2.511703E+05  7.284134E-10  3.778858E-09
       253  15  5.658055E+05  2.274585E+05  1.368832E+05  2.293490E+05  1.411398E-09  1.636283E-09
       253  16  9.464256E+05  2.543549E+05  1.192552E+05  3.661551E+05 -2.564007E-09 -9.918839E-10
       253  17  9.891658E+05  3.078006E+05  1.670801E+05  3.962412E+05  5.526440E-09  5.993018E-09
       253  18  1.055992E+06  4.701567E+05  2.771304E+05  4.230685E+05  5.012101E-09 -1.038035E-10
       253  19  1.548946E+05 -1.241466E+04 -5.240981E+04  1.733430E+05  4.032734E+04 -1.257464E+04
       253  20  1.067971E+05 -6.479493E+04 -4.505858E+04  1.061987E+05  5.476056E+04 -6.296892E+03
       253  21  7.585951E+04 -1.517007E+04 -3.380139E+03  3.578330E+04  6.337386E+04  1.534314E+04
       253  22  5.505797E+05  1.209667E+05  3.342752E+04  2.697217E+05  3.234647E+04 -1.559925E+04
       253  23  5.478863E+05  1.214881E+05  6.102280E+04  2.511701E+05  6.440968E+04 -2.637088E+03
       253  24  5.658145E+05  2.274614E+05  1.368999E+05  2.293509E+05  9.065761E+04  2.568465E+04
       253  25  9.464263E+05  2.543554E+05  1.192570E+05  3.661547E+05  2.436001E+04 -1.862555E+04
       253  26  9.891717E+05  3.078020E+05  1.670904E+05  3.962413E+05  7.406621E+04  1.026378E+03
       253  27  1.056007E+06  4.701618E+05  2.771590E+05  4.230719E+05  1.179645E+05  3.604128E+04
       254   1  6.790937E+04  2.137199E+03 -2.819049E+02  1.377367E+02 -6.884333E+03 -7.628521E+02
       254   2  6.070442E+04  1.072077E+04  3.789591E+03  2.739913E+03 -5.252169E+03 -2.320996E+03
       254   3  5.094528E+04  1.002246E+04  4.477183E+03  8.008400E+03 -3.625187E+03 -2.364696E+03
       254   4  1.104492E+04 -1.191047E+04 -1.392031E+04  6.483324E+03 -9.613300E+03 -7.722342E+02
       254   5  1.247693E+04 -9.619822E+02 -6.499340E+03  5.129116E+03 -6.200287E+03 -2.324275E+03
       254   6  1.104523E+04  3.949875E+02 -3.699169E+03  6.441269E+03 -2.792425E+03 -2.361839E+03
       254   7 -4.581647E+04 -2.595822E+04 -2.755890E+04  1.282833E+04 -1.234202E+04 -7.816726E+02
       254   8 -3.574836E+04 -1.264487E+04 -1.678840E+04  7.518130E+03 -7.148333E+03 -2.327561E+03
       254   9 -2.885330E+04 -9.232571E+03 -1.187560E+04  4.874239E+03 -1.959715E+03 -2.358986E+03
       254  10  6.790932E+04  2.137186E+03 -2.819951E+02  1.377325E+02 -9.758401E-09  2.275915E-09
       254  11  6.070439E+04  1.072076E+04  3.789529E+03  2.739903E+03 -4.004501E-09  1.043176E-08
       254  12  5.094526E+04  1.002245E+04  4.477148E+03  8.008393E+03  4.691180E-09  6.072290E-09
       254  13  1.104482E+04 -1.191050E+04 -1.392049E+04  6.483318E+03 -2.160892E-09 -4.603461E-09
       254  14  1.247689E+04 -9.619983E+02 -6.499422E+03  5.129105E+03  1.594469E-09 -1.478279E-08
       254  15  1.104522E+04  3.949794E+02 -3.699194E+03  6.441264E+03 -6.734596E-10 -1.023184E-09
       254  16 -4.581663E+04 -2.595826E+04 -2.755919E+04  1.282832E+04  1.098781E-08 -1.514961E-09
       254  17 -3.574842E+04 -1.264489E+04 -1.678850E+04  7.518117E+03  1.019607E-09  6.414429E-09
       254  18 -2.885330E+04 -9.232578E+03 -1.187562E+04  4.874236E+03 -4.917208E-09 -1.261141E-09
       254  19  6.790937E+04  2.137199E+03 -2.819049E+02  1.377367E+02  6.884333E+03  7.628521E+02
       254  20  6.070442E+04  1.072077E+04  3.789591E+03  2.739913E+03  5.252169E+03  2.320996E+03
       254  21  5.094528E+04  1.002246E+04  4.477183E+03  8.008400E+03  3.625187E+03  2.364696E+03
       254  22  1.104492E+04 -1.191047E+04 -1.392031E+04  6.483324E+03  9.613300E+03  7.722342E+02
       254  23  1.247693E+04 -9.619822E+02 -6.499340E+03  5.129116E+03  6.200287E+03  2.324275E+03
       254  24  1.104523E+04  3.949875E+02 -3.699169E+03  6.441269E+03  2.792425E+03  2.361839E+03
       254  25 -4.581647E+04 -2.595822E+04 -2.755890E+04  1.282833E+04  1.234202E+04  7.816726E+02
       254  26 -3.574836E+04 -1.264487E+04 -1.678840E+04  7.518130E+03  7.148333E+03  2.327561E+03
       254  27 -2.885330E+04 -9.232571E+03 -1.187560E+04  4.874239E+03  1.959715E+03  2.358986E+03
       255   1  4.538227E+04  7.699737E+03  4.039133E+03  6.396723E+03 -2.758588E+03 -1.979500E+03
       255   2  3.704661E+04  6.113271E+03  3.565454E+03  5.140631E+03 -2.063763E+03 -1.539186E+03
       255   3  2.849900E+04  4.133819E+03  2.535612E+03  6.607721E+03 -1.369250E+03 -1.017079E+03
       255   4  1.163082E+04 -4.352352E+02 -2.889994E+03  6.463704E+03 -2.291583E+03 -1.977902E+03
       255   5  1.174531E+04  2.267029E+01 -1.586722E+03  5.101235E+03 -1.500611E+03 -1.537251E+03
       255   6  1.163095E+04  7.085333E+01 -9.064430E+02  6.461958E+03 -7.099430E+02 -1.014804E+03
       255   7 -2.211956E+04 -8.570278E+03 -9.819182E+03  6.530680E+03 -1.824603E+03 -1.976304E+03
       255   8 -1.355538E+04 -6.067970E+03 -6.738931E+03  5.061840E+03 -9.374810E+02 -1.535315E+03
       255   9 -5.236828E+03 -3.992129E+03 -4.348511E+03  6.316198E+03 -5.065335E+01 -1.012529E+03
       255  10  4.538226E+04  7.699730E+03  4.039112E+03  6.396719E+03  3.767369E-09 -2.419749E-09
       255  11  3.704660E+04  6.113267E+03  3.565441E+03  5.140628E+03  1.838522E-09  2.682683E-09
       255  12  2.849899E+04  4.133817E+03  2.535607E+03  6.607720E+03 -2.624201E-10  7.010721E-09
       255  13  1.163081E+04 -4.352408E+02 -2.890012E+03  6.463700E+03 -1.546923E-11  1.292706E-08
       255  14  1.174531E+04  2.266715E+01 -1.586731E+03  5.101233E+03 -2.142878E-09 -2.198786E-08
       255  15  1.163095E+04  7.085209E+01 -9.064459E+02  6.461957E+03 -6.571576E-10  1.151389E-08
       255  16 -2.211956E+04 -8.570283E+03 -9.819196E+03  6.530678E+03 -4.392347E-09 -1.077159E-08
       255  17 -1.355538E+04 -6.067973E+03 -6.738937E+03  5.061838E+03 -2.023050E-09 -6.962100E-09
       255  18 -5.236828E+03 -3.992131E+03 -4.348513E+03  6.316198E+03 -1.047021E-09  3.039863E-09
       255  19  4.538227E+04  7.699737E+03  4.039133E+03  6.396723E+03  2.758588E+03  1.979500E+03
       255  20  3.704661E+04  6.113271E+03  3.565454E+03  5.140631E+03  2.063763E+03  1.539186E+03
       255  21  2.849900E+04  4.133819E+03  2.535612E+03  6.607721E+03  1.369250E+03  1.017079E+03
       255  22  1.163082E+04 -4.352352E+02 -2.889994E+03  6.463704E+03  2.291583E+03  1.977902E+03
       255  23  1.174531E+04  2.267029E+01 -1.586722E+03  5.101235E+03  1.500611E+03  1.537251E+03
       255  24  1.163095E+04  7.085333E+01 -9.064430E+02  6.461958E+03  7.099430E+02  1.014804E+03
       255  25 -2.211956E+04 -8.570278E+03 -9.819182E+03  6.530680E+03  1.824603E+03  1.976304E+03
       255  26 -1.355538E+04 -6.067970E+03 -6.738931E+03  5.061840E+03  9.374810E+02  1.535315E+03
       255  27 -5.236828E+03 -3.992129E+03 -4.348511E+03  6.316198E+03  5.065335E+01  1.012529E+03
       256   1  2.242745E+04  2.619365E+03  1.475028E+03  6.517535E+03 -1.209920E+03 -6.918694E+02
       256   2  1.401159E+04  5.998985E+02  8.812371E+01  5.126300E+03 -1.027645E+03 -1.452117E+02
       256   3  5.548136E+03 -1.419945E+03 -1.423495E+03  6.461897E+03 -8.453853E+02  4.058568E+02
       256   4  1.167107E+04  3.527919E+01 -6.875765E+02  6.463201E+03 -5.703771E+02 -6.896601E+02
       256   5  1.169530E+04  4.232333E+01 -3.825239E+02  5.099761E+03 -3.829171E+02 -1.429840E+02
       256   6  1.167108E+04  4.812551E+01 -2.057546E+02  6.463154E+03 -1.954707E+02  4.081033E+02
       256   7  9.148140E+02 -2.548813E+03 -2.850185E+03  6.408868E+03  6.915503E+01 -6.874510E+02
       256   8  9.379016E+03 -5.152519E+02 -8.531702E+02  5.073222E+03  2.618081E+02 -1.407563E+02
       256   9  1.779407E+04  1.516194E+03  1.011985E+03  6.464410E+03  4.544503E+02  4.103497E+02
       256  10  2.242744E+04  2.619364E+03  1.475024E+03  6.517535E+03  4.100301E-09 -6.959671E-09
       256  11  1.401159E+04  5.998982E+02  8.812169E+01  5.126300E+03 -1.078143E-09 -3.542024E-09
       256  12  5.548135E+03 -1.419945E+03 -1.423497E+03  6.461898E+03 -4.337258E-09  1.942042E-09
       256  13  1.167107E+04  3.527859E+01 -6.875780E+02  6.463201E+03 -2.152571E-09 -5.558086E-10
       256  14  1.169530E+04  4.232327E+01 -3.825242E+02  5.099761E+03 -2.150206E-09 -5.341875E-09
       256  15  1.167108E+04  4.812532E+01 -2.057550E+02  6.463154E+03 -1.468312E-09 -9.777249E-10
       256  16  9.148139E+02 -2.548814E+03 -2.850186E+03  6.408868E+03 -3.898281E-09 -4.277923E-09
       256  17  9.379016E+03 -5.152520E+02 -8.531703E+02  5.073222E+03 -7.302073E-10  3.470311E-09
       256  18  1.779407E+04  1.516193E+03  1.011985E+03  6.464410E+03  3.915605E-09  9.517049E-09
       256  19  2.242745E+04  2.619365E+03  1.475028E+03  6.517535E+03  1.209920E+03  6.918694E+02
       256  20  1.401159E+04  5.998985E+02  8.812371E+01  5.126300E+03  1.027645E+03  1.452117E+02
       256  21  5.548136E+03 -1.419945E+03 -1.423495E+03  6.461897E+03  8.453853E+02 -4.058568E+02
       256  22  1.167107E+04  3.527919E+01 -6.875765E+02  6.463201E+03  5.703771E+02  6.896601E+02
       256  23  1.169530E+04  4.232333E+01 -3.825239E+02  5.099761E+03  3.829171E+02  1.429840E+02
       256  24  1.167108E+04  4.812551E+01 -2.057546E+02  6.463154E+03  1.954707E+02 -4.081033E+02
       256  25  9.148140E+02 -2.548813E+03 -2.850185E+03  6.408868E+03 -6.915503E+01  6.874510E+02
       256  26  9.379016E+03 -5.152519E+02 -8.531702E+02  5.073222E+03 -2.618081E+02  1.407563E+02
       256  27  1.779407E+04  1.516194E+03  1.011985E+03  6.464410E+03 -4.544503E+02 -4.103497E+02
       257   1 -5.553408E+02 -2.899444E+03 -2.643264E+03  6.441780E+03 -8.137787E+02  7.275190E+02
       257   2 -8.983979E+03 -4.935520E+03 -4.236898E+03  5.054712E+03 -7.909232E+02  1.279465E+03
       257   3 -1.743465E+04 -6.953729E+03 -5.846857E+03  6.394778E+03 -7.680572E+02  1.831627E+03
       257   4  1.167690E+04  4.681480E+01 -1.443684E+02  6.463238E+03 -1.649280E+02  7.297600E+02
       257   5  1.168792E+04  3.627046E+01 -5.057021E+01  5.099678E+03 -1.418225E+02  1.281700E+03
       257   6  1.167679E+04  4.355350E+01  2.673021E+01  6.463245E+03 -1.187062E+02  1.833857E+03
       257   7  2.390929E+04  2.993065E+03  2.354521E+03  6.484696E+03  4.839352E+02  7.320011E+02
       257   8  3.236023E+04  5.008035E+03  4.135737E+03  5.144644E+03  5.072994E+02  1.283936E+03
       257   9  4.078904E+04  7.040784E+03  5.900275E+03  6.531715E+03  5.306747E+02  1.836087E+03
       257  10 -5.553416E+02 -2.899445E+03 -2.643266E+03  6.441780E+03  2.580099E-09 -7.479703E-09
       257  11 -8.983980E+03 -4.935522E+03 -4.236903E+03  5.054713E+03 -4.744859E-09 -2.172294E-09
       257  12 -1.743465E+04 -6.953733E+03 -5.846864E+03  6.394779E+03 -9.649095E-09  1.121459E-10
       257  13  1.167690E+04  4.681423E+01 -1.443694E+02  6.463238E+03 -1.086471E-09  5.255078E-10
       257  14  1.168792E+04  3.626869E+01 -5.057334E+01  5.099678E+03 -2.691318E-09 -5.466436E-09
       257  15  1.167679E+04  4.354989E+01  2.672387E+01  6.463245E+03 -1.190932E-10 -2.408226E-09
       257  16  2.390929E+04  2.993064E+03  2.354519E+03  6.484695E+03 -2.938255E-09 -5.037857E-10
       257  17  3.236023E+04  5.008033E+03  4.135734E+03  5.144644E+03  4.000176E-09  8.594622E-09
       257  18  4.078904E+04  7.040780E+03  5.900268E+03  6.531714E+03  9.199166E-09  7.265402E-09
       257  19 -5.553408E+02 -2.899444E+03 -2.643264E+03  6.441780E+03  8.137787E+02 -7.275190E+02
       257  20 -8.983979E+03 -4.935520E+03 -4.236898E+03  5.054712E+03  7.909232E+02 -1.279465E+03
       257  21 -1.743465E+04 -6.953729E+03 -5.846857E+03  6.394778E+03  7.680572E+02 -1.831627E+03
       257  22  1.167690E+04  4.681480E+01 -1.443684E+02  6.463238E+03  1.649280E+02 -7.297600E+02
       257  23  1.168792E+04  3.627046E+01 -5.057021E+01  5.099678E+03  1.418225E+02 -1.281700E+03
       257  24  1.167679E+04  4.355350E+01  2.673021E+01  6.463245E+03  1.187062E+02 -1.833857E+03
       257  25  2.390929E+04  2.993065E+03  2.354521E+03  6.484696E+03 -4.839352E+02 -7.320011E+02
       257  26  3.236023E+04  5.008035E+03  4.135737E+03  5.144644E+03 -5.072994E+02 -1.283936E+03
       257  27  4.078904E+04  7.040784E+03  5.900275E+03  6.531715E+03 -5.306747E+02 -1.836087E+03
       258   1 -2.354065E+04 -8.431994E+03 -7.087898E+03  6.379442E+03 -7.777379E+02  2.153010E+03
       258   2 -3.197706E+04 -1.047027E+04 -8.675877E+03  4.999451E+03 -8.612743E+02  2.704742E+03
       258   3 -4.042035E+04 -1.248774E+04 -1.021004E+04  6.347015E+03 -9.447824E+02  3.256005E+03
       258   4  1.168008E+04  4.349691E+01  6.698099E+01  6.463339E+03 -1.283194E+02  2.155234E+03
       258   5  1.168344E+04  3.075969E+01  1.663998E+02  5.099573E+03 -2.124221E+02  2.706951E+03
       258   6  1.167984E+04  3.889119E+01  3.199879E+02  6.463350E+03 -2.964975E+02  3.258198E+03
       258   7  4.690199E+04  8.518911E+03  7.221797E+03  6.547240E+03  5.211353E+02  2.157459E+03
       258   8  5.534577E+04  1.053167E+04  9.008580E+03  5.199701E+03  4.364749E+02  2.709160E+03
       258   9  6.378262E+04  1.256536E+04  1.084988E+04  6.579694E+03  3.518407E+02  3.260392E+03
       258  10 -2.354065E+04 -8.431999E+03 -7.087908E+03  6.379444E+03  6.496325E-10  1.824144E-09
       258  11 -3.197707E+04 -1.047028E+04 -8.675892E+03  4.999453E+03 -1.344614E-09 -6.421533E-09
       258  12 -4.042035E+04 -1.248776E+04 -1.021006E+04  6.347017E+03 -4.026567E-09 -4.759617E-09
       258  13  1.168008E+04  4.349192E+01  6.697223E+01  6.463339E+03  1.070621E-09  8.099258E-09
       258  14  1.168344E+04  3.075181E+01  1.663859E+02  5.099573E+03  2.164377E-09 -5.206885E-09
       258  15  1.167984E+04  3.887977E+01  3.199678E+02  6.463351E+03  3.400786E-11 -5.237688E-09
       258  16  4.690198E+04  8.518906E+03  7.221788E+03  6.547239E+03 -7.186117E-10  3.314533E-09
       258  17  5.534577E+04  1.053166E+04  9.008565E+03  5.199700E+03  1.038000E-10 -1.774644E-08
       258  18  6.378262E+04  1.256535E+04  1.084986E+04  6.579693E+03  3.918134E-09 -5.906286E-09
       258  19 -2.354065E+04 -8.431994E+03 -7.087898E+03  6.379442E+03  7.777379E+02 -2.153010E+03
       258  20 -3.197706E+04 -1.047027E+04 -8.675877E+03  4.999451E+03  8.612743E+02 -2.704742E+03
       258  21 -4.042035E+04 -1.248774E+04 -1.021004E+04  6.347015E+03  9.447824E+02 -3.256005E+03
       258  22  1.168008E+04  4.349691E+01  6.698099E+01  6.463339E+03  1.283194E+02 -2.155234E+03
       258  23  1.168344E+04  3.075969E+01  1.663998E+02  5.099573E+03  2.124221E+02 -2.706951E+03
       258  24  1.167984E+04  3.889119E+01  3.199879E+02  6.463350E+03  2.964975E+02 -3.258198E+03
       258  25  4.690199E+04  8.518911E+03  7.221797E+03  6.547240E+03 -5.211353E+02 -2.157459E+03
       258  26  5.534577E+04  1.053167E+04  9.008580E+03  5.199701E+03 -4.364749E+02 -2.709160E+03
       258  27  6.378262E+04  1.256536E+04  1.084988E+04  6.579694E+03 -3.518407E+02 -3.260392E+03
       259   1 -4.651970E+04 -1.396871E+04 -1.138130E+04  6.339694E+03 -1.015923E+03  3.577544E+03
       259   2 -5.498001E+04 -1.601129E+04 -1.274024E+04  4.967199E+03 -1.383574E+03  4.124936E+03
       259   3 -6.340090E+04 -1.799817E+04 -1.385151E+04  6.321270E+03 -1.751158E+03  4.663175E+03
       259   4  1.169043E+04  3.621728E+01  4.299410E+02  6.463165E+03 -3.654152E+02  3.579735E+03
       259   5  1.166958E+04  1.961512E+01  7.609539E+02  5.099846E+03 -7.438659E+02  4.127070E+03
       259   6  1.169007E+04  6.061584E+01  1.347150E+03  6.463075E+03 -1.122254E+03  4.665252E+03
       259   7  6.990380E+04  1.404093E+04  1.224100E+04  6.586644E+03  2.851527E+02  3.581926E+03
       259   8  7.832340E+04  1.605024E+04  1.426192E+04  5.232503E+03 -1.040901E+02  4.129204E+03
       259   9  8.678641E+04  1.811905E+04  1.654552E+04  6.604894E+03 -4.932762E+02  4.667330E+03
       259  10 -4.651971E+04 -1.396872E+04 -1.138132E+04  6.339697E+03 -9.210523E-09 -2.819989E-09
       259  11 -5.498002E+04 -1.601131E+04 -1.274027E+04  4.967204E+03 -7.160624E-09 -7.264870E-09
       259  12 -6.340091E+04 -1.799819E+04 -1.385155E+04  6.321276E+03 -1.008787E-09 -2.336795E-09
       259  13  1.169043E+04  3.620348E+01  4.299167E+02  6.463166E+03 -1.071250E-09  4.301769E-10
       259  14  1.166958E+04  1.959668E+01  7.609208E+02  5.099848E+03 -5.446658E-10 -2.895351E-10
       259  15  1.169006E+04  6.059213E+01  1.347107E+03  6.463080E+03 -9.306466E-10  8.826567E-09
       259  16  6.990380E+04  1.404092E+04  1.224098E+04  6.586643E+03  1.106666E-08  8.821695E-09
       259  17  7.832340E+04  1.605022E+04  1.426188E+04  5.232504E+03  6.040281E-09 -1.652001E-09
       259  18  8.678640E+04  1.811903E+04  1.654548E+04  6.604896E+03  1.104004E-09  6.694190E-09
       259  19 -4.651970E+04 -1.396871E+04 -1.138130E+04  6.339694E+03  1.015923E+03 -3.577544E+03
       259  20 -5.498001E+04 -1.601129E+04 -1.274024E+04  4.967199E+03  1.383574E+03 -4.124936E+03
       259  21 -6.340090E+04 -1.799817E+04 -1.385151E+04  6.321270E+03  1.751158E+03 -4.663175E+03
       259  22  1.169043E+04  3.621728E+01  4.299410E+02  6.463165E+03  3.654152E+02 -3.579735E+03
       259  23  1.166958E+04  1.961512E+01  7.609539E+02  5.099846E+03  7.438659E+02 -4.127070E+03
       259  24  1.169007E+04  6.061584E+01  1.347150E+03  6.463075E+03  1.122254E+03 -4.665252E+03
       259  25  6.990380E+04  1.404093E+04  1.224100E+04  6.586644E+03 -2.851527E+02 -3.581926E+03
       259  26  7.832340E+04  1.605024E+04  1.426192E+04  5.232503E+03  1.040901E+02 -4.129204E+03
       259  27  8.678641E+04  1.811905E+04  1.654552E+04  6.604894E+03  4.932762E+02 -4.667330E+03
       260   1 -6.943929E+04 -1.954540E+04 -1.470577E+04  6.451707E+03 -2.068419E+03  4.990374E+03
       260   2 -7.805955E+04 -2.151407E+04 -1.512138E+04  4.822543E+03 -3.413482E+03  5.470786E+03
       260   3 -8.632137E+04 -2.266550E+04 -1.446206E+04  5.910360E+03 -4.757923E+03  5.781434E+03
       260   4  1.176801E+04 -8.843346E+00  1.770540E+03  6.461762E+03 -1.398525E+03  4.992575E+03
       260   5  1.157127E+04  5.649105E+01  3.090210E+03  5.101640E+03 -2.943413E+03  5.472292E+03
       260   6  1.176753E+04  9.736710E+02  5.623461E+03  6.458471E+03 -4.487696E+03  5.782256E+03
       260   7  9.298159E+04  1.952730E+04  1.824651E+04  6.471814E+03 -7.285456E+02  4.994777E+03
       260   8  1.012097E+05  2.162655E+04  2.130138E+04  5.380772E+03 -2.473277E+03  5.473799E+03
       260   9  1.098656E+05  2.461224E+04  2.570847E+04  7.006663E+03 -4.217428E+03  5.783078E+03
       260  10 -6.943930E+04 -1.954543E+04 -1.470583E+04  6.451716E+03 -1.414973E-08  8.137726E-10
       260  11 -7.805958E+04 -2.151410E+04 -1.512146E+04  4.822558E+03  1.108462E-09  2.172815E-09
       260  12 -8.632140E+04 -2.266555E+04 -1.446216E+04  5.910382E+03  1.569102E-08 -4.435359E-09
       260  13  1.176800E+04 -8.870637E+00  1.770489E+03  6.461768E+03 -1.093255E-09 -9.557661E-09
       260  14  1.157125E+04  5.645657E+01  3.090138E+03  5.101653E+03  1.573065E-09  4.504068E-09
       260  15  1.176750E+04  9.736297E+02  5.623360E+03  6.458492E+03  4.132283E-10  2.695622E-09
       260  16  9.298158E+04  1.952728E+04  1.824646E+04  6.471816E+03  1.238181E-08 -2.694603E-09
       260  17  1.012097E+05  2.162651E+04  2.130131E+04  5.380783E+03 -1.104184E-09 -1.363227E-08
       260  18  1.098655E+05  2.461220E+04  2.570837E+04  7.006683E+03 -1.559246E-08 -8.074579E-10
       260  19 -6.943929E+04 -1.954540E+04 -1.470577E+04  6.451707E+03  2.068419E+03 -4.990374E+03
       260  20 -7.805955E+04 -2.151407E+04 -1.512138E+04  4.822543E+03  3.413482E+03 -5.470786E+03
       260  21 -8.632137E+04 -2.266550E+04 -1.446206E+04  5.910360E+03  4.757923E+03 -5.781434E+03
       260  22  1.176801E+04 -8.843346E+00  1.770540E+03  6.461762E+03  1.398525E+03 -4.992575E+03
       260  23  1.157127E+04  5.649105E+01  3.090210E+03  5.101640E+03  2.943413E+03 -5.472292E+03
       260  24  1.176753E+04  9.736710E+02  5.623461E+03  6.458471E+03  4.487696E+03 -5.782256E+03
       260  25  9.298159E+04  1.952730E+04  1.824651E+04  6.471814E+03  7.285456E+02 -4.994777E+03
       260  26  1.012097E+05  2.162655E+04  2.130138E+04  5.380772E+03  2.473277E+03 -5.473799E+03
       260  27  1.098656E+05  2.461224E+04  2.570847E+04  7.006663E+03  4.217428E+03 -5.783078E+03
       261   1 -9.141653E+04 -2.574559E+04 -1.409953E+04  9.015769E+03 -6.495501E+03  6.223429E+03
       261   2 -1.022779E+05 -2.532901E+04 -1.122559E+04 -3.182962E+01 -9.423308E+03  5.517813E+03
       261   3 -1.082575E+05 -6.842610E+03 -1.929667E+03 -6.566936E+03 -1.234085E+04  1.668391E+03
       261   4  1.290714E+04 -6.420395E+02  7.196838E+03  6.431270E+03 -5.466286E+03  6.226773E+03
       261   5  1.014566E+04  1.969898E+03  1.264193E+04  5.135957E+03 -1.209174E+04  5.508936E+03
       261   6  1.290672E+04  2.329161E+04  2.707602E+04  6.352973E+03 -1.870696E+04  1.647479E+03
       261   7  1.172412E+05  2.446085E+04  2.849264E+04  3.846320E+03 -4.436901E+03  6.230109E+03
       261   8  1.225812E+05  2.926809E+04  3.650876E+04  1.030468E+04 -1.476065E+04  5.500016E+03
       261   9  1.340849E+05  5.342540E+04  5.608091E+04  1.927541E+04 -2.507432E+04  1.626303E+03
       261  10 -9.141659E+04 -2.574564E+04 -1.409968E+04  9.015802E+03 -2.170920E-08 -2.694655E-09
       261  11 -1.022780E+05 -2.532907E+04 -1.122581E+04 -3.178774E+01  3.247610E-09  4.361186E-09
       261  12 -1.082577E+05 -6.842653E+03 -1.929959E+03 -6.566920E+03  2.423702E-08  1.175003E-08
       261  13  1.290710E+04 -6.420892E+02  7.196709E+03  6.431297E+03  1.051886E-09  4.923222E-09
       261  14  1.014550E+04  1.969826E+03  1.264159E+04  5.136011E+03 -1.672397E-09 -2.102201E-09
       261  15  1.290635E+04  2.329151E+04  2.707536E+04  6.352998E+03 -8.106487E-10  4.827837E-09
       261  16  1.172411E+05  2.446081E+04  2.849253E+04  3.846342E+03  2.180996E-08  4.711937E-09
       261  17  1.225810E+05  2.926800E+04  3.650829E+04  1.030475E+04 -4.052375E-09  5.041685E-09
       261  18  1.340842E+05  5.342523E+04  5.607973E+04  1.927544E+04 -2.502513E-08 -5.100667E-10
       261  19 -9.141653E+04 -2.574559E+04 -1.409953E+04  9.015769E+03  6.495501E+03 -6.223429E+03
       261  20 -1.022779E+05 -2.532901E+04 -1.122559E+04 -3.182962E+01  9.423308E+03 -5.517813E+03
       261  21 -1.082575E+05 -6.842610E+03 -1.929667E+03 -6.566936E+03  1.234085E+04 -1.668391E+03
       261  22  1.290714E+04 -6.420395E+02  7.196838E+03  6.431270E+03  5.466286E+03 -6.226773E+03
       261  23  1.014566E+04  1.969898E+03  1.264193E+04  5.135957E+03  1.209174E+04 -5.508936E+03
       261  24  1.290672E+04  2.329161E+04  2.707602E+04  6.352973E+03  1.870696E+04 -1.647479E+03
       261  25  1.172412E+05  2.446085E+04  2.849264E+04  3.846320E+03  4.436901E+03 -6.230109E+03
       261  26  1.225812E+05  2.926809E+04  3.650876E+04  1.030468E+04  1.476065E+04 -5.500016E+03
       261  27  1.340849E+05  5.342540E+04  5.608091E+04  1.927541E+04  2.507432E+04 -1.626303E+03
       262   1 -2.382394E+05 -9.792927E+05 -2.432123E+05  1.539752E+05 -8.055533E+03 -8.185127E+04
       262   2 -1.363981E+05 -8.171892E+05 -1.521993E+05  1.077688E+05 -2.458469E+04 -4.037009E+04
       262   3 -9.167879E+04 -6.743183E+05 -1.024513E+05  1.096702E+05 -2.227032E+04  1.184804E+03
       262   4 -6.659935E+04 -2.893326E+05 -7.689635E+04  1.165248E+05 -8.145804E+03 -5.155053E+04
       262   5 -6.088044E+03 -2.816058E+05 -3.710878E+04  9.257364E+04 -2.460704E+04 -3.218332E+04
       262   6  1.172175E+03 -2.892724E+05 -2.319403E+04  1.167343E+05 -2.222912E+04 -1.275376E+04
       262   7  1.050115E+05  4.010684E+05  8.938973E+04  7.903279E+04 -8.239688E+03 -2.121618E+04
       262   8  1.242041E+05  2.542481E+05  7.796536E+04  7.736537E+04 -2.462978E+04 -2.398958E+04
       262   9  9.401410E+04  9.591491E+04  5.605607E+04  1.238028E+05 -2.218825E+04 -2.670083E+04
       262  10 -2.382413E+05 -9.792999E+05 -2.432250E+05  1.539747E+05 -1.990800E-09  1.840765E-09
       262  11 -1.363992E+05 -8.171911E+05 -1.522035E+05  1.077680E+05 -4.788221E-09 -4.123534E-09
       262  12 -9.167932E+04 -6.743185E+05 -1.024523E+05  1.096703E+05  3.340057E-09 -1.210909E-08
       262  13 -6.660013E+04 -2.893354E+05 -7.690147E+04  1.165244E+05 -3.645651E-10  7.251741E-09
       262  14 -6.088972E+03 -2.816071E+05 -3.711186E+04  9.257300E+04 -6.455997E-09  3.212245E-09
       262  15  1.171601E+03 -2.892727E+05 -2.319526E+04  1.167340E+05  3.397225E-09  3.881929E-09
       262  16  1.050113E+05  4.010679E+05  8.938876E+04  7.903265E+04 -1.728143E-09  2.317073E-09
       262  17  1.242033E+05  2.542473E+05  7.796314E+04  7.736490E+04 -2.186605E-09  3.895920E-09
       262  18  9.401338E+04  9.591401E+04  5.605380E+04  1.238024E+05 -9.289553E-10  4.113086E-09
       262  19 -2.382394E+05 -9.792927E+05 -2.432123E+05  1.539752E+05  8.055533E+03  8.185127E+04
       262  20 -1.363981E+05 -8.171892E+05 -1.521993E+05  1.077688E+05  2.458469E+04  4.037009E+04
       262  21 -9.167879E+04 -6.743183E+05 -1.024513E+05  1.096702E+05  2.227032E+04 -1.184804E+03
       262  22 -6.659935E+04 -2.893326E+05 -7.689635E+04  1.165248E+05  8.145804E+03  5.155053E+04
       262  23 -6.088044E+03 -2.816058E+05 -3.710878E+04  9.257364E+04  2.460704E+04  3.218332E+04
       262  24  1.172175E+03 -2.892724E+05 -2.319403E+04  1.167343E+05  2.222912E+04  1.275376E+04
       262  25  1.050115E+05  4.010684E+05  8.938973E+04  7.903279E+04  8.239688E+03  2.121618E+04
       262  26  1.242041E+05  2.542481E+05  7.796536E+04  7.736537E+04  2.462978E+04  2.398958E+04
       262  27  9.401410E+04  9.591491E+04  5.605607E+04  1.238028E+05  2.218825E+04  2.670083E+04
       263   1 -6.935449E+04 -5.601730E+05 -7.629168E+04  1.188547E+05 -1.566921E+04  1.649983E+02
       263   2 -2.988472E+04 -4.066816E+05 -4.038498E+04  9.261821E+04 -7.402374E+03  8.413796E+03
       263   3  4.925762E+03 -2.550291E+05 -1.092759E+04  1.155934E+05  1.197448E+03  1.666445E+04
       263   4 -3.224417E+03 -2.862363E+05 -1.976711E+04  1.169309E+05 -1.564167E+04 -9.384704E+03
       263   5 -6.645619E+02 -2.853341E+05 -1.568501E+04  9.232588E+04 -7.374277E+03 -1.525989E+03
       263   6 -2.694210E+03 -2.862246E+05 -1.777912E+04  1.169323E+05  1.226043E+03  6.332639E+03
       263   7  6.290097E+04 -1.222820E+04  3.675376E+04  1.150063E+05 -1.561408E+04 -1.893855E+04
       263   8  2.855473E+04 -1.639724E+05  9.014547E+03  9.203350E+04 -7.346173E+03 -1.146768E+04
       263   9 -1.031418E+04 -3.174189E+05 -2.463030E+04  1.182712E+05  1.254595E+03 -3.998662E+03
       263  10 -6.935475E+04 -5.601731E+05 -7.629214E+04  1.188547E+05  2.327250E-09  1.335610E-08
       263  11 -2.988479E+04 -4.066817E+05 -4.038521E+04  9.261826E+04 -3.589620E-09  1.286616E-08
       263  12  4.925686E+03 -2.550294E+05 -1.092812E+04  1.155933E+05  3.823149E-10 -2.795795E-10
       263  13 -3.224703E+03 -2.862365E+05 -1.976774E+04  1.169308E+05  1.727331E-09  6.502893E-09
       263  14 -6.646209E+02 -2.853341E+05 -1.568512E+04  9.232587E+04 -3.931635E-09  9.804224E-10
       263  15 -2.694222E+03 -2.862246E+05 -1.777920E+04  1.169323E+05  9.874657E-10  3.709307E-09
       263  16  6.290061E+04 -1.222865E+04  3.675262E+04  1.150060E+05  1.085457E-09 -1.015701E-08
       263  17  2.855463E+04 -1.639726E+05  9.014199E+03  9.203343E+04 -9.201598E-10 -1.288849E-08
       263  18 -1.031419E+04 -3.174190E+05 -2.463034E+04  1.182712E+05  1.083344E-09 -7.265511E-09
       263  19 -6.935449E+04 -5.601730E+05 -7.629168E+04  1.188547E+05  1.566921E+04 -1.649983E+02
       263  20 -2.988472E+04 -4.066816E+05 -4.038498E+04  9.261821E+04  7.402374E+03 -8.413796E+03
       263  21  4.925762E+03 -2.550291E+05 -1.092759E+04  1.155934E+05 -1.197448E+03 -1.666445E+04
       263  22 -3.224417E+03 -2.862363E+05 -1.976711E+04  1.169309E+05  1.564167E+04  9.384704E+03
       263  23 -6.645619E+02 -2.853341E+05 -1.568501E+04  9.232588E+04  7.374277E+03  1.525989E+03
       263  24 -2.694210E+03 -2.862246E+05 -1.777912E+04  1.169323E+05 -1.226043E+03 -6.332639E+03
       263  25  6.290097E+04 -1.222820E+04  3.675376E+04  1.150063E+05  1.561408E+04  1.893855E+04
       263  26  2.855473E+04 -1.639724E+05  9.014547E+03  9.203350E+04  7.346173E+03  1.146768E+04
       263  27 -1.031418E+04 -3.174189E+05 -2.463030E+04  1.182712E+05 -1.254595E+03  3.998662E+03
       264   1  3.519903E+04 -1.464747E+05  9.540191E+03  1.229611E+05  7.545902E+03  2.249774E+04
       264   2  6.652425E+04  1.114340E+04  3.287959E+04  8.033291E+04  1.239619E+04  2.381440E+04
       264   3  5.665212E+04  1.587098E+05  4.514937E+04  8.620147E+04  4.578006E+03  2.509267E+04
       264   4  8.575146E+02 -2.886439E+05 -2.017738E+04  1.168113E+05  7.582352E+03  9.337718E+03
       264   5 -5.031264E+03 -2.823281E+05 -3.097382E+04  9.247861E+04  1.239209E+04  2.554594E+04
       264   6 -5.471436E+04 -2.886796E+05 -6.318910E+04  1.166479E+05  4.530721E+03  4.171501E+04
       264   7 -3.348506E+04 -4.307936E+05 -4.989539E+04  1.106631E+05  7.619067E+03 -3.819340E+03
       264   8 -7.659197E+04 -5.757186E+05 -9.483231E+04  1.046185E+05  1.238806E+04  2.727667E+04
       264   9 -1.660920E+05 -7.358835E+05 -1.715405E+05  1.470725E+05  4.485051E+03  5.832540E+04
       264  10  3.519884E+04 -1.464752E+05  9.539132E+03  1.229609E+05  2.786091E-09 -3.263876E-09
       264  11  6.652393E+04  1.114275E+04  3.287824E+04  8.033267E+04  6.718540E-10 -2.171465E-10
       264  12  5.665193E+04  1.587091E+05  4.514815E+04  8.620138E+04 -2.576490E-10  1.522624E-09
       264  13  8.574295E+02 -2.886440E+05 -2.017765E+04  1.168113E+05  1.328814E-09  6.437050E-09
       264  14 -5.031604E+03 -2.823289E+05 -3.097534E+04  9.247835E+04 -4.709138E-09  4.199119E-09
       264  15 -5.471485E+04 -2.886814E+05 -6.319241E+04  1.166478E+05 -3.532672E-10  3.861342E-09
       264  16 -3.348512E+04 -4.307936E+05 -4.989553E+04  1.106631E+05 -6.818613E-10  4.790092E-09
       264  17 -7.659233E+04 -5.757194E+05 -9.483400E+04  1.046183E+05 -1.149190E-09  8.613964E-10
       264  18 -1.660929E+05 -7.358872E+05 -1.715469E+05  1.470723E+05  2.755723E-10 -8.260857E-09
       264  19  3.519903E+04 -1.464747E+05  9.540191E+03  1.229611E+05 -7.545902E+03 -2.249774E+04
       264  20  6.652425E+04  1.114340E+04  3.287959E+04  8.033291E+04 -1.239619E+04 -2.381440E+04
       264  21  5.665212E+04  1.587098E+05  4.514937E+04  8.620147E+04 -4.578006E+03 -2.509267E+04
       264  22  8.575146E+02 -2.886439E+05 -2.017738E+04  1.168113E+05 -7.582352E+03 -9.337718E+03
       264  23 -5.031264E+03 -2.823281E+05 -3.097382E+04  9.247861E+04 -1.239209E+04 -2.554594E+04
       264  24 -5.471436E+04 -2.886796E+05 -6.318910E+04  1.166479E+05 -4.530721E+03 -4.171501E+04
       264  25 -3.348506E+04 -4.307936E+05 -4.989539E+04  1.106631E+05 -7.619067E+03  3.819340E+03
       264  26 -7.659197E+04 -5.757186E+05 -9.483231E+04  1.046185E+05 -1.238806E+04 -2.727667E+04
       264  27 -1.660920E+05 -7.358835E+05 -1.715405E+05  1.470725E+05 -4.485051E+03 -5.832540E+04
       265   1  2.297418E+05  8.030621E+04  4.139771E+04  9.391879E+04  2.300448E+04  8.300533E+03
       265   2  2.231120E+05  4.606046E+04  2.008414E+04  9.173921E+04  1.435556E+04  4.231798E+03
       265   3  2.243873E+05  3.608418E+04  1.156457E+04  8.583920E+04  5.378356E+03  1.030150E+03
       265   4  2.110556E+05  5.937742E+04  3.376287E+04  7.464251E+04  2.176452E+04  7.830078E+03
       265   5  2.053156E+05  3.421777E+04  1.498775E+04  8.147457E+04  1.407056E+04  4.123660E+03
       265   6  2.072918E+05  3.313819E+04  8.249821E+03  8.458607E+04  6.048151E+03  1.283972E+03
       265   7  1.923706E+05  3.845043E+04  2.612824E+04  5.536740E+04  2.052463E+04  7.359717E+03
       265   8  1.875198E+05  2.237544E+04  9.891373E+03  7.121033E+04  1.378556E+04  4.015532E+03
       265   9  1.901965E+05  3.019216E+04  4.935028E+03  8.333294E+04  6.717932E+03  1.537798E+03
       265  10  2.297412E+05  8.030599E+04  4.139659E+04  9.391864E+04 -3.147399E-09  5.696237E-09
       265  11  2.231117E+05  4.606039E+04  2.008372E+04  9.173916E+04  7.917232E-10  1.203147E-08
       265  12  2.243873E+05  3.608418E+04  1.156452E+04  8.583919E+04  3.677134E-09  5.385486E-09
       265  13  2.110551E+05  5.937723E+04  3.376186E+04  7.464238E+04  4.967364E-10 -7.734266E-09
       265  14  2.053154E+05  3.421770E+04  1.498734E+04  8.147453E+04  2.245667E-09 -1.905056E-08
       265  15  2.072918E+05  3.313817E+04  8.249749E+03  8.458606E+04 -2.717013E-10 -1.833583E-09
       265  16  1.923701E+05  3.845026E+04  2.612735E+04  5.536728E+04  3.173821E-09  3.734259E-09
       265  17  1.875196E+05  2.237537E+04  9.890986E+03  7.121028E+04  2.367185E-10 -5.565019E-09
       265  18  1.901964E+05  3.019215E+04  4.934939E+03  8.333293E+04 -2.995859E-09 -7.245672E-09
       265  19  2.297418E+05  8.030621E+04  4.139771E+04  9.391879E+04 -2.300448E+04 -8.300533E+03
       265  20  2.231120E+05  4.606046E+04  2.008414E+04  9.173921E+04 -1.435556E+04 -4.231798E+03
       265  21  2.243873E+05  3.608418E+04  1.156457E+04  8.583920E+04 -5.378356E+03 -1.030150E+03
       265  22  2.110556E+05  5.937742E+04  3.376287E+04  7.464251E+04 -2.176452E+04 -7.830078E+03
       265  23  2.053156E+05  3.421777E+04  1.498775E+04  8.147457E+04 -1.407056E+04 -4.123660E+03
       265  24  2.072918E+05  3.313819E+04  8.249821E+03  8.458607E+04 -6.048151E+03 -1.283972E+03
       265  25  1.923706E+05  3.845043E+04  2.612824E+04  5.536740E+04 -2.052463E+04 -7.359717E+03
       265  26  1.875198E+05  2.237544E+04  9.891373E+03  7.121033E+04 -1.378556E+04 -4.015532E+03
       265  27  1.901965E+05  3.019216E+04  4.935028E+03  8.333294E+04 -6.717932E+03 -1.537798E+03
       266   1  2.153233E+05  3.871221E+04  8.558945E+03  8.625159E+04  4.484923E+03  1.067101E+03
       266   2  2.089985E+05  3.387989E+04  3.900214E+03  8.335595E+04  2.578352E+03  8.267944E+02
       266   3  2.015192E+05  3.190110E+04  8.277996E+02  8.226953E+04  6.555742E+02  6.293840E+02
       266   4  2.062565E+05  3.495652E+04  6.429605E+03  8.333766E+04  4.925637E+03  1.234088E+03
       266   5  2.067567E+05  3.296386E+04  3.372004E+03  8.264934E+04  3.066312E+03  1.011686E+03
       266   6  2.060930E+05  3.381536E+04  1.863278E+03  8.377021E+04  1.190766E+03  8.321725E+02
       266   7  1.971898E+05  3.120083E+04  4.300261E+03  8.042378E+04  5.366344E+03  1.401071E+03
       266   8  2.045149E+05  3.204783E+04  2.843796E+03  8.194275E+04  3.554269E+03  1.196577E+03
       266   9  2.106668E+05  3.572961E+04  2.898747E+03  8.527090E+04  1.725958E+03  1.034962E+03
       266  10  2.153233E+05  3.871221E+04  8.558906E+03  8.625159E+04 -4.281707E-09  5.153114E-09
       266  11  2.089985E+05  3.387988E+04  3.900201E+03  8.335595E+04 -3.432274E-09  1.198930E-08
       266  12  2.015192E+05  3.190110E+04  8.277980E+02  8.226953E+04  8.606465E-10  5.674215E-09
       266  13  2.062565E+05  3.495651E+04  6.429557E+03  8.333766E+04 -1.295029E-09  7.165733E-11
       266  14  2.067567E+05  3.296385E+04  3.371984E+03  8.264934E+04 -3.466222E-09 -7.345500E-09
       266  15  2.060930E+05  3.381536E+04  1.863274E+03  8.377021E+04 -1.847495E-09  1.212150E-08
       266  16  1.971897E+05  3.120082E+04  4.300204E+03  8.042377E+04  4.413612E-09 -1.088622E-08
       266  17  2.045149E+05  3.204783E+04  2.843770E+03  8.194274E+04  8.638867E-11  1.053306E-08
       266  18  2.106668E+05  3.572961E+04  2.898740E+03  8.527089E+04 -2.648759E-09  6.355992E-09
       266  19  2.153233E+05  3.871221E+04  8.558945E+03  8.625159E+04 -4.484923E+03 -1.067101E+03
       266  20  2.089985E+05  3.387989E+04  3.900214E+03  8.335595E+04 -2.578352E+03 -8.267944E+02
       266  21  2.015192E+05  3.190110E+04  8.277996E+02  8.226953E+04 -6.555742E+02 -6.293840E+02
       266  22  2.062565E+05  3.495652E+04  6.429605E+03  8.333766E+04 -4.925637E+03 -1.234088E+03
       266  23  2.067567E+05  3.296386E+04  3.372004E+03  8.264934E+04 -3.066312E+03 -1.011686E+03
       266  24  2.060930E+05  3.381536E+04  1.863278E+03  8.377021E+04 -1.190766E+03 -8.321725E+02
       266  25  1.971898E+05  3.120083E+04  4.300261E+03  8.042378E+04 -5.366344E+03 -1.401071E+03
       266  26  2.045149E+05  3.204783E+04  2.843796E+03  8.194275E+04 -3.554269E+03 -1.196577E+03
       266  27  2.106668E+05  3.572961E+04  2.898747E+03  8.527090E+04 -1.725958E+03 -1.034962E+03
       267   1  1.960693E+05  3.015705E+04 -8.421944E+02  8.089655E+04  2.973972E+02  8.156183E+02
       267   2  1.898740E+05  2.661624E+04 -3.027929E+03  7.794141E+04 -2.742987E+02  1.144213E+03
       267   3  1.819687E+05  2.491247E+04 -4.909202E+03  7.700348E+04 -8.468223E+02  1.475023E+03
       267   4  2.060147E+05  3.389175E+04  1.410096E+03  8.370264E+04  8.213119E+02  1.014132E+03
       267   5  2.068672E+05  3.295512E+04  7.796405E+02  8.270096E+04  2.520495E+02  1.343644E+03
       267   6  2.060094E+05  3.385511E+04  4.517634E+02  8.371651E+04 -3.180436E+02  1.675370E+03
       267   7  2.159602E+05  3.762649E+04  3.662399E+03  8.650879E+04  1.345239E+03  1.212651E+03
       267   8  2.238607E+05  3.929405E+04  4.587209E+03  8.746064E+04  7.784152E+02  1.543083E+03
       267   9  2.300506E+05  4.279780E+04  5.812695E+03  9.042978E+04  2.107573E+02  1.875726E+03
       267  10  1.960693E+05  3.015705E+04 -8.421958E+02  8.089655E+04  1.452922E-08  2.728186E-09
       267  11  1.898740E+05  2.661624E+04 -3.027931E+03  7.794142E+04 -9.079960E-10 -1.725127E-08
       267  12  1.819687E+05  2.491247E+04 -4.909207E+03  7.700348E+04 -1.539258E-08 -1.075782E-08
       267  13  2.060147E+05  3.389175E+04  1.410093E+03  8.370264E+04 -5.288531E-10 -1.848130E-09
       267  14  2.068672E+05  3.295512E+04  7.796370E+02  8.270096E+04 -2.037371E-09 -3.005789E-09
       267  15  2.060094E+05  3.385511E+04  4.517579E+02  8.371651E+04 -2.545065E-09 -3.997091E-09
       267  16  2.159601E+05  3.762649E+04  3.662393E+03  8.650878E+04 -1.759037E-08  5.049770E-09
       267  17  2.238607E+05  3.929405E+04  4.587203E+03  8.746064E+04 -5.322692E-09  4.963446E-09
       267  18  2.300506E+05  4.279780E+04  5.812689E+03  9.042978E+04  1.401300E-08  1.113834E-08
       267  19  1.960693E+05  3.015705E+04 -8.421944E+02  8.089655E+04 -2.973972E+02 -8.156183E+02
       267  20  1.898740E+05  2.661624E+04 -3.027929E+03  7.794141E+04  2.742987E+02 -1.144213E+03
       267  21  1.819687E+05  2.491247E+04 -4.909202E+03  7.700348E+04  8.468223E+02 -1.475023E+03
       267  22  2.060147E+05  3.389175E+04  1.410096E+03  8.370264E+04 -8.213119E+02 -1.014132E+03
       267  23  2.068672E+05  3.295512E+04  7.796405E+02  8.270096E+04 -2.520495E+02 -1.343644E+03
       267  24  2.060094E+05  3.385511E+04  4.517634E+02  8.371651E+04  3.180436E+02 -1.675370E+03
       267  25  2.159602E+05  3.762649E+04  3.662399E+03  8.650879E+04 -1.345239E+03 -1.212651E+03
       267  26  2.238607E+05  3.929405E+04  4.587209E+03  8.746064E+04 -7.784152E+02 -1.543083E+03
       267  27  2.300506E+05  4.279780E+04  5.812695E+03  9.042978E+04 -2.107573E+02 -1.875726E+03
       268   1  1.767112E+05  2.296909E+04 -6.222626E+03  7.555259E+04 -1.019354E+03  1.729150E+03
       268   2  1.705380E+05  1.946870E+04 -7.885358E+03  7.258715E+04 -1.325420E+03  2.161994E+03
       268   3  1.626011E+05  1.775582E+04 -9.454659E+03  7.164128E+04 -1.631573E+03  2.595157E+03
       268   4  2.059994E+05  3.385746E+04  3.571379E+02  8.371198E+04 -4.909433E+02  1.929352E+03
       268   5  2.068811E+05  3.296364E+04  2.491497E+02  8.270221E+04 -7.966730E+02  2.362310E+03
       268   6  2.059991E+05  3.385723E+04  2.343254E+02  8.371194E+04 -1.102493E+03  2.795588E+03
       268   7  2.352883E+05  4.474581E+04  6.936797E+03  9.187168E+04  3.749146E+01  2.129562E+03
       268   8  2.432257E+05  4.645868E+04  8.383575E+03  9.281781E+04 -2.678927E+02  2.562639E+03
       268   9  2.493993E+05  4.995889E+04  9.923268E+03  9.578345E+04 -5.733704E+02  2.996035E+03
       268  10  1.767111E+05  2.296909E+04 -6.222633E+03  7.555259E+04  4.695506E-09  3.430375E-09
       268  11  1.705380E+05  1.946869E+04 -7.885370E+03  7.258716E+04 -4.022664E-09 -1.755260E-09
       268  12  1.626011E+05  1.775582E+04 -9.454677E+03  7.164128E+04 -1.444868E-08 -1.531682E-08
       268  13  2.059994E+05  3.385745E+04  3.571305E+02  8.371199E+04 -1.702755E-09  6.329422E-10
       268  14  2.068811E+05  3.296363E+04  2.491380E+02  8.270221E+04 -3.538214E-10 -6.773872E-09
       268  15  2.059991E+05  3.385722E+04  2.343084E+02  8.371194E+04 -4.031597E-09 -8.533488E-09
       268  16  2.352883E+05  4.474581E+04  6.936788E+03  9.187168E+04 -6.169393E-09 -9.804216E-12
       268  17  2.432256E+05  4.645867E+04  8.383562E+03  9.281781E+04  5.594444E-09  7.847206E-10
       268  18  2.493993E+05  4.995888E+04  9.923251E+03  9.578345E+04  9.565354E-09  6.129810E-10
       268  19  1.767112E+05  2.296909E+04 -6.222626E+03  7.555259E+04  1.019354E+03 -1.729150E+03
       268  20  1.705380E+05  1.946870E+04 -7.885358E+03  7.258715E+04  1.325420E+03 -2.161994E+03
       268  21  1.626011E+05  1.775582E+04 -9.454659E+03  7.164128E+04  1.631573E+03 -2.595157E+03
       268  22  2.059994E+05  3.385746E+04  3.571379E+02  8.371198E+04  4.909433E+02 -1.929352E+03
       268  23  2.068811E+05  3.296364E+04  2.491497E+02  8.270221E+04  7.966730E+02 -2.362310E+03
       268  24  2.059991E+05  3.385723E+04  2.343254E+02  8.371194E+04  1.102493E+03 -2.795588E+03
       268  25  2.352883E+05  4.474581E+04  6.936797E+03  9.187168E+04 -3.749146E+01 -2.129562E+03
       268  26  2.432257E+05  4.645868E+04  8.383575E+03  9.281781E+04  2.678927E+02 -2.562639E+03
       268  27  2.493993E+05  4.995889E+04  9.923268E+03  9.578345E+04  5.733704E+02 -2.996035E+03
       269   1  1.573533E+05  1.580296E+04 -1.065237E+04  7.018843E+04 -1.778860E+03  2.859185E+03
       269   2  1.511615E+05  1.229609E+04 -1.209092E+04  6.722100E+04 -2.147899E+03  3.269042E+03
       269   3  1.432130E+05  1.058347E+04 -1.338849E+04  6.627953E+04 -2.516875E+03  3.678866E+03
       269   4  2.060005E+05  3.385822E+04  2.571757E+02  8.371355E+04 -1.249429E+03  3.059740E+03
       269   5  2.068785E+05  3.295902E+04  3.760133E+02  8.270133E+04 -1.618539E+03  3.469551E+03
       269   6  2.059998E+05  3.385409E+04  6.358654E+02  8.371503E+04 -1.987587E+03  3.879327E+03
       269   7  2.546502E+05  5.191365E+04  1.116657E+04  9.723963E+04 -7.199540E+02  3.260311E+03
       269   8  2.625985E+05  5.362213E+04  1.284269E+04  9.818287E+04 -1.089129E+03  3.670078E+03
       269   9  2.687901E+05  5.712487E+04  1.465986E+04  1.011520E+05 -1.458245E+03  4.079809E+03
       269  10  1.573532E+05  1.580295E+04 -1.065239E+04  7.018844E+04  8.694580E-09 -1.613248E-09
       269  11  1.511614E+05  1.229607E+04 -1.209094E+04  6.722101E+04 -9.725565E-10  4.751646E-09
       269  12  1.432130E+05  1.058346E+04 -1.338853E+04  6.627954E+04 -1.506008E-08  1.559814E-08
       269  13  2.060005E+05  3.385821E+04  2.571552E+02  8.371355E+04 -2.332456E-09 -5.548208E-09
       269  14  2.068785E+05  3.295901E+04  3.759858E+02  8.270133E+04  1.402959E-09 -1.839080E-09
       269  15  2.059998E+05  3.385407E+04  6.358296E+02  8.371504E+04 -2.734243E-09 -3.914503E-09
       269  16  2.546502E+05  5.191364E+04  1.116655E+04  9.723963E+04 -1.330723E-08 -7.987273E-09
       269  17  2.625985E+05  5.362212E+04  1.284267E+04  9.818287E+04  1.883809E-09 -5.029041E-09
       269  18  2.687901E+05  5.712485E+04  1.465982E+04  1.011520E+05  1.087247E-08  6.187411E-09
       269  19  1.573533E+05  1.580296E+04 -1.065237E+04  7.018843E+04  1.778860E+03 -2.859185E+03
       269  20  1.511615E+05  1.229609E+04 -1.209092E+04  6.722100E+04  2.147899E+03 -3.269042E+03
       269  21  1.432130E+05  1.058347E+04 -1.338849E+04  6.627953E+04  2.516875E+03 -3.678866E+03
       269  22  2.060005E+05  3.385822E+04  2.571757E+02  8.371355E+04  1.249429E+03 -3.059740E+03
       269  23  2.068785E+05  3.295902E+04  3.760133E+02  8.270133E+04  1.618539E+03 -3.469551E+03
       269  24  2.059998E+05  3.385409E+04  6.358654E+02  8.371503E+04  1.987587E+03 -3.879327E+03
       269  25  2.546502E+05  5.191365E+04  1.116657E+04  9.723963E+04  7.199540E+02 -3.260311E+03
       269  26  2.625985E+05  5.362213E+04  1.284269E+04  9.818287E+04  1.089129E+03 -3.670078E+03
       269  27  2.687901E+05  5.712487E+04  1.465986E+04  1.011520E+05  1.458245E+03 -4.079809E+03
       270   1  1.379586E+05  8.634913E+03 -1.441161E+04  6.484704E+04 -2.747769E+03  3.912427E+03
       270   2  1.316999E+05  5.109191E+03 -1.531536E+04  6.186172E+04 -3.665835E+03  4.112443E+03
       270   3  1.237869E+05  3.480544E+03 -1.564480E+04  6.090901E+04 -4.580857E+03  4.304541E+03
       270   4  2.060188E+05  3.385131E+04  8.357477E+02  8.372622E+04 -2.215858E+03  4.113869E+03
       270   5  2.068498E+05  3.293646E+04  1.495349E+03  8.269671E+04 -3.142740E+03  4.310522E+03
       270   6  2.060284E+05  3.392048E+04  2.736243E+03  8.369985E+04 -4.066584E+03  4.499253E+03
       270   7  2.740842E+05  5.906824E+04  1.608293E+04  1.026074E+05 -1.683880E+03  4.315336E+03
       270   8  2.820058E+05  6.076426E+04  1.830577E+04  1.035341E+05 -2.619574E+03  4.508627E+03
       270   9  2.882767E+05  6.436096E+04  2.111687E+04  1.064935E+05 -3.552238E+03  4.693994E+03
       270  10  1.379586E+05  8.634895E+03 -1.441165E+04  6.484705E+04  5.262511E-10  1.656333E-08
       270  11  1.316998E+05  5.109169E+03 -1.531542E+04  6.186173E+04 -8.745154E-10  9.292301E-09
       270  12  1.237869E+05  3.480518E+03 -1.564488E+04  6.090902E+04  6.353162E-09  4.278902E-09
       270  13  2.060188E+05  3.385129E+04  8.357067E+02  8.372622E+04 -3.119559E-09  9.508492E-09
       270  14  2.068498E+05  3.293643E+04  1.495296E+03  8.269672E+04 -1.981984E-09 -2.665406E-09
       270  15  2.060284E+05  3.392046E+04  2.736174E+03  8.369986E+04 -2.904006E-10 -8.250876E-09
       270  16  2.740842E+05  5.906822E+04  1.608289E+04  1.026074E+05 -6.550613E-09 -1.462929E-09
       270  17  2.820057E+05  6.076424E+04  1.830572E+04  1.035341E+05 -1.853504E-09 -6.004559E-09
       270  18  2.882767E+05  6.436093E+04  2.111680E+04  1.064935E+05 -4.065101E-09 -3.449406E-09
       270  19  1.379586E+05  8.634913E+03 -1.441161E+04  6.484704E+04  2.747769E+03 -3.912427E+03
       270  20  1.316999E+05  5.109191E+03 -1.531536E+04  6.186172E+04  3.665835E+03 -4.112443E+03
       270  21  1.237869E+05  3.480544E+03 -1.564480E+04  6.090901E+04  4.580857E+03 -4.304541E+03
       270  22  2.060188E+05  3.385131E+04  8.357477E+02  8.372622E+04  2.215858E+03 -4.113869E+03
       270  23  2.068498E+05  3.293646E+04  1.495349E+03  8.269671E+04  3.142740E+03 -4.310522E+03
       270  24  2.060284E+05  3.392048E+04  2.736243E+03  8.369985E+04  4.066584E+03 -4.499253E+03
       270  25  2.740842E+05  5.906824E+04  1.608293E+04  1.026074E+05  1.683880E+03 -4.315336E+03
       270  26  2.820058E+05  6.076426E+04  1.830577E+04  1.035341E+05  2.619574E+03 -4.508627E+03
       270  27  2.882767E+05  6.436096E+04  2.111687E+04  1.064935E+05  3.552238E+03 -4.693994E+03
       271   1  1.184034E+05  1.624662E+03 -1.597750E+04  5.986840E+04 -5.246765E+03  4.384722E+03
       271   2  1.121972E+05 -2.259496E+03 -1.464184E+04  5.617771E+04 -8.532467E+03  3.625017E+03
       271   3  1.053670E+05 -2.311925E+03 -1.043412E+04  5.411968E+04 -1.175409E+04  2.696323E+03
       271   4  2.061811E+05  3.377227E+04  3.623683E+03  8.383280E+04 -4.687144E+03  4.596594E+03
       271   5  2.066335E+05  3.295031E+04  6.570236E+03  8.259502E+04 -8.159467E+03  3.766178E+03
       271   6  2.064988E+05  3.599673E+04  1.253645E+04  8.298978E+04 -1.156777E+04  2.766760E+03
       271   7  2.939660E+05  6.592022E+04  2.322423E+04  1.078001E+05 -4.127440E+03  4.808497E+03
       271   8  3.010788E+05  6.816085E+04  2.778174E+04  1.090160E+05 -7.786405E+03  3.907363E+03
       271   9  3.076415E+05  7.430655E+04  3.550654E+04  1.118644E+05 -1.138142E+04  2.837210E+03
       271  10  1.184034E+05  1.624634E+03 -1.597759E+04  5.986842E+04  7.984321E-09  6.566978E-09
       271  11  1.121971E+05 -2.259530E+03 -1.464200E+04  5.617773E+04 -1.333138E-09  1.742819E-09
       271  12  1.053669E+05 -2.311970E+03 -1.043440E+04  5.411971E+04 -5.535958E-09  5.859857E-09
       271  13  2.061811E+05  3.377224E+04  3.623602E+03  8.383282E+04 -4.773782E-10 -7.231456E-09
       271  14  2.066334E+05  3.295028E+04  6.570084E+03  8.259505E+04 -1.012320E-10  6.035084E-09
       271  15  2.064986E+05  3.599669E+04  1.253619E+04  8.298981E+04 -2.508907E-09  1.534291E-08
       271  16  2.939660E+05  6.592019E+04  2.322415E+04  1.078001E+05 -4.876627E-09 -4.679306E-10
       271  17  3.010787E+05  6.816082E+04  2.778160E+04  1.090160E+05 -3.530750E-10  4.694438E-09
       271  18  3.076413E+05  7.430651E+04  3.550628E+04  1.118644E+05  4.949713E-09  1.111977E-08
       271  19  1.184034E+05  1.624662E+03 -1.597750E+04  5.986840E+04  5.246765E+03 -4.384722E+03
       271  20  1.121972E+05 -2.259496E+03 -1.464184E+04  5.617771E+04  8.532467E+03 -3.625017E+03
       271  21  1.053670E+05 -2.311925E+03 -1.043412E+04  5.411968E+04  1.175409E+04 -2.696323E+03
       271  22  2.061811E+05  3.377227E+04  3.623683E+03  8.383280E+04  4.687144E+03 -4.596594E+03
       271  23  2.066335E+05  3.295031E+04  6.570236E+03  8.259502E+04  8.159467E+03 -3.766178E+03
       271  24  2.064988E+05  3.599673E+04  1.253645E+04  8.298978E+04  1.156777E+04 -2.766760E+03
       271  25  2.939660E+05  6.592022E+04  2.322423E+04  1.078001E+05  4.127440E+03 -4.808497E+03
       271  26  3.010788E+05  6.816085E+04  2.778174E+04  1.090160E+05  7.786405E+03 -3.907363E+03
       271  27  3.076415E+05  7.430655E+04  3.550654E+04  1.118644E+05  1.138142E+04 -2.837210E+03
       272   1  9.661596E+04 -2.466988E+03 -7.984020E+03  6.112710E+04 -1.478835E+04  2.092530E+03
       272   2  9.726010E+04 -1.441097E+04  2.680982E+03  4.038285E+04 -2.625200E+04 -3.071583E+03
       272   3  1.139472E+05  1.813523E+04  3.382901E+04  1.042527E+04 -3.641719E+04 -1.166531E+04
       272   4  2.085326E+05  3.243612E+04  1.608739E+04  8.540847E+04 -1.369482E+04  2.506640E+03
       272   5  2.038042E+05  3.541176E+04  2.922906E+04  8.032416E+04 -2.893862E+04 -4.089351E+03
       272   6  2.158638E+05  8.362066E+04  6.584829E+04  6.602806E+04 -4.288393E+04 -1.411532E+04
       272   7  3.204623E+05  6.733951E+04  4.015821E+04  1.096935E+05 -1.260108E+04  2.920804E+03
       272   8  3.103589E+05  8.523691E+04  5.577601E+04  1.202720E+05 -3.162571E+04 -5.107408E+03
       272   9  3.177900E+05  1.491128E+05  9.786613E+04  1.216397E+05 -4.935166E+04 -1.656642E+04
       272  10  9.661572E+04 -2.467052E+03 -7.984439E+03  6.112713E+04  1.176159E-08  1.212926E-08
       272  11  9.725936E+04 -1.441117E+04  2.679669E+03  4.038279E+04  5.867455E-09 -1.005537E-08
       272  12  1.139457E+05  1.813473E+04  3.382626E+04  1.042493E+04 -2.210632E-09 -6.465965E-09
       272  13  2.085324E+05  3.243606E+04  1.608703E+04  8.540850E+04  5.838250E-11  3.999945E-09
       272  14  2.038033E+05  3.541152E+04  2.922746E+04  8.032406E+04 -2.695047E-09  1.512854E-08
       272  15  2.158617E+05  8.361995E+04  6.584446E+04  6.602757E+04  2.959941E-10 -2.643855E-09
       272  16  3.204621E+05  6.733946E+04  4.015790E+04  1.096936E+05 -1.362318E-08  5.011931E-09
       272  17  3.103578E+05  8.523661E+04  5.577409E+04  1.202719E+05 -6.653995E-09 -7.188367E-09
       272  18  3.177873E+05  1.491118E+05  9.786104E+04  1.216391E+05  1.987620E-09  6.209397E-09
       272  19  9.661596E+04 -2.466988E+03 -7.984020E+03  6.112710E+04  1.478835E+04 -2.092530E+03
       272  20  9.726010E+04 -1.441097E+04  2.680982E+03  4.038285E+04  2.625200E+04  3.071583E+03
       272  21  1.139472E+05  1.813523E+04  3.382901E+04  1.042527E+04  3.641719E+04  1.166531E+04
       272  22  2.085326E+05  3.243612E+04  1.608739E+04  8.540847E+04  1.369482E+04 -2.506640E+03
       272  23  2.038042E+05  3.541176E+04  2.922906E+04  8.032416E+04  2.893862E+04  4.089351E+03
       272  24  2.158638E+05  8.362066E+04  6.584829E+04  6.602806E+04  4.288393E+04  1.411532E+04
       272  25  3.204623E+05  6.733951E+04  4.015821E+04  1.096935E+05  1.260108E+04 -2.920804E+03
       272  26  3.103589E+05  8.523691E+04  5.577601E+04  1.202720E+05  3.162571E+04  5.107408E+03
       272  27  3.177900E+05  1.491128E+05  9.786613E+04  1.216397E+05  4.935166E+04  1.656642E+04
       273   1 -5.345306E+04 -3.689700E+05 -5.640075E+04  2.603183E+04 -1.491454E+03 -2.417905E+04
       273   2 -2.692919E+04 -3.499851E+05 -3.558584E+04  1.564964E+04 -4.884913E+03 -1.330729E+04
       273   3 -2.032463E+04 -3.373568E+05 -2.683046E+04  1.016493E+04 -5.132672E+03 -2.424921E+03
       273   4 -2.395418E+04 -2.504764E+05 -2.794654E+04  1.272746E+04 -1.509439E+03 -1.838377E+04
       273   5 -2.041714E+03 -2.476174E+05 -1.374903E+04  1.031749E+04 -4.891395E+03 -1.120864E+04
       273   6  5.950681E+02 -2.504723E+05 -9.041800E+03  1.280535E+04 -5.127606E+03 -4.023299E+03
       273   7  5.544343E+03 -1.319696E+05  5.068882E+02 -5.794604E+02 -1.527670E+03 -1.258738E+04
       273   8  2.284519E+04 -1.452397E+05  8.087207E+03  4.984455E+03 -4.897912E+03 -9.109650E+03
       273   9  2.151432E+04 -1.635806E+05  8.746476E+03  1.544615E+04 -5.122554E+03 -5.621897E+03
       273  10 -5.345322E+04 -3.689706E+05 -5.640186E+04  2.603180E+04 -1.723797E-09 -2.605825E-09
       273  11 -2.692927E+04 -3.499853E+05 -3.558622E+04  1.564958E+04 -3.971178E-09 -6.025207E-12
       273  12 -2.032466E+04 -3.373568E+05 -2.683052E+04  1.016492E+04 -4.107588E-10 -6.197590E-10
       273  13 -2.395427E+04 -2.504768E+05 -2.794718E+04  1.272743E+04 -1.700461E-09 -6.910579E-09
       273  14 -2.041774E+03 -2.476175E+05 -1.374931E+04  1.031744E+04 -2.228270E-09 -1.097764E-09
       273  15  5.950356E+02 -2.504723E+05 -9.041880E+03  1.280533E+04  2.255182E-09 -1.785851E-08
       273  16  5.544298E+03 -1.319697E+05  5.065860E+02 -5.794759E+02 -2.028665E-09  4.373830E-10
       273  17  2.284514E+04 -1.452398E+05  8.087006E+03  4.984419E+03 -9.746618E-10  2.668151E-09
       273  18  2.151428E+04 -1.635807E+05  8.746367E+03  1.544612E+04  1.521601E-09 -9.825809E-10
       273  19 -5.345306E+04 -3.689700E+05 -5.640075E+04  2.603183E+04  1.491454E+03  2.417905E+04
       273  20 -2.692919E+04 -3.499851E+05 -3.558584E+04  1.564964E+04  4.884913E+03  1.330729E+04
       273  21 -2.032463E+04 -3.373568E+05 -2.683046E+04  1.016493E+04  5.132672E+03  2.424921E+03
       273  22 -2.395418E+04 -2.504764E+05 -2.794654E+04  1.272746E+04  1.509439E+03  1.838377E+04
       273  23 -2.041714E+03 -2.476174E+05 -1.374903E+04  1.031749E+04  4.891395E+03  1.120864E+04
       273  24  5.950681E+02 -2.504723E+05 -9.041800E+03  1.280535E+04  5.127606E+03  4.023299E+03
       273  25  5.544343E+03 -1.319696E+05  5.068882E+02 -5.794604E+02  1.527670E+03  1.258738E+04
       273  26  2.284519E+04 -1.452397E+05  8.087207E+03  4.984455E+03  4.897912E+03  9.109650E+03
       273  27  2.151432E+04 -1.635806E+05  8.746476E+03  1.544615E+04  5.122554E+03  5.621897E+03
       274   1 -1.912993E+04 -3.247032E+05 -2.347809E+04  1.359399E+04 -4.404536E+03 -1.833456E+03
       274   2 -1.443218E+04 -3.083775E+05 -1.932259E+04  1.040554E+04 -3.619692E+03  1.969357E+03
       274   3 -1.177732E+04 -2.930166E+05 -1.814468E+04  1.232544E+04 -2.671881E+03  5.772715E+03
       274   4 -9.704655E+02 -2.494097E+05 -8.024009E+03  1.283496E+04 -4.401861E+03 -2.674468E+03
       274   5 -1.218867E+02 -2.489436E+05 -7.225879E+03  1.028030E+04 -3.616449E+03  9.370985E+02
       274   6 -1.282844E+03 -2.494092E+05 -9.272267E+03  1.283398E+04 -2.668070E+03  4.549118E+03
       274   7  1.718864E+04 -1.741107E+05  7.429769E+03  1.207584E+04 -4.399184E+03 -3.515581E+03
       274   8  1.418819E+04 -1.895062E+05  4.870656E+03  1.015505E+04 -3.613205E+03 -9.525649E+01
       274   9  9.211515E+03 -2.057999E+05 -3.999492E+02  1.334255E+04 -2.664261E+03  3.325437E+03
       274  10 -1.912995E+04 -3.247032E+05 -2.347813E+04  1.359398E+04  5.590690E-10 -6.670325E-09
       274  11 -1.443220E+04 -3.083775E+05 -1.932263E+04  1.040555E+04 -7.699083E-10  3.421904E-09
       274  12 -1.177734E+04 -2.930166E+05 -1.814475E+04  1.232545E+04 -3.273310E-10 -3.468192E-09
       274  13 -9.704882E+02 -2.494097E+05 -8.024059E+03  1.283495E+04 -1.513409E-10 -8.928199E-09
       274  14 -1.219009E+02 -2.489436E+05 -7.225905E+03  1.028030E+04 -1.793325E-09 -1.070704E-09
       274  15 -1.282857E+03 -2.494092E+05 -9.272319E+03  1.283399E+04 -9.948633E-10 -2.166732E-08
       274  16  1.718862E+04 -1.741107E+05  7.429709E+03  1.207583E+04  1.022534E-09  9.891734E-09
       274  17  1.418818E+04 -1.895062E+05  4.870631E+03  1.015505E+04 -6.267631E-09  3.116779E-10
       274  18  9.211504E+03 -2.058000E+05 -3.999833E+02  1.334256E+04 -9.769883E-10  4.413878E-09
       274  19 -1.912993E+04 -3.247032E+05 -2.347809E+04  1.359399E+04  4.404536E+03  1.833456E+03
       274  20 -1.443218E+04 -3.083775E+05 -1.932259E+04  1.040554E+04  3.619692E+03 -1.969357E+03
       274  21 -1.177732E+04 -2.930166E+05 -1.814468E+04  1.232544E+04  2.671881E+03 -5.772715E+03
       274  22 -9.704655E+02 -2.494097E+05 -8.024009E+03  1.283496E+04  4.401861E+03  2.674468E+03
       274  23 -1.218867E+02 -2.489436E+05 -7.225879E+03  1.028030E+04  3.616449E+03 -9.370985E+02
       274  24 -1.282844E+03 -2.494092E+05 -9.272267E+03  1.283398E+04  2.668070E+03 -4.549118E+03
       274  25  1.718864E+04 -1.741107E+05  7.429769E+03  1.207584E+04  4.399184E+03  3.515581E+03
       274  26  1.418819E+04 -1.895062E+05  4.870656E+03  1.015505E+04  3.613205E+03  9.525649E+01
       274  27  9.211515E+03 -2.057999E+05 -3.999492E+02  1.334255E+04  2.664261E+03 -3.325437E+03
       275   1 -6.922076E+03 -2.829555E+05 -1.741004E+04  1.669723E+04 -2.060579E+03  7.341387E+03
       275   2 -6.525724E+03 -2.634435E+05 -2.085305E+04  3.672003E+03 -1.117791E+03  1.640650E+04
       275   3 -3.134175E+04 -2.513756E+05 -3.649262E+04 -4.292019E+03 -3.013636E+02  2.547130E+04
       275   4  8.213171E+02 -2.508614E+05 -1.093840E+04  1.284606E+04 -2.056857E+03  6.125865E+03
       275   5 -2.660302E+03 -2.471282E+05 -1.760020E+04  1.026556E+04 -1.114316E+03  1.533936E+04
       275   6 -3.138015E+04 -2.508653E+05 -3.656158E+04  1.274628E+04 -2.978304E+02  2.455231E+04
       275   7  8.564702E+03 -2.187663E+05 -4.466804E+03  8.994686E+03 -2.053120E+03  4.910282E+03
       275   8  1.205268E+03 -2.308126E+05 -1.434733E+04  1.685930E+04 -1.110863E+03  1.427218E+04
       275   9 -3.141745E+04 -2.503544E+05 -3.663039E+04  2.978459E+04 -2.943476E+02  2.363333E+04
       275  10 -6.922095E+03 -2.829556E+05 -1.741015E+04  1.669724E+04  8.390064E-10 -2.593550E-08
       275  11 -6.525798E+03 -2.634438E+05 -2.085356E+04  3.672018E+03  5.099955E-09  4.059692E-09
       275  12 -3.134193E+04 -2.513763E+05 -3.649384E+04 -4.292013E+03  1.669153E-09  2.052177E-08
       275  13  8.213025E+02 -2.508614E+05 -1.093848E+04  1.284607E+04  3.329436E-09 -6.696740E-09
       275  14 -2.660367E+03 -2.471285E+05 -1.760064E+04  1.026558E+04  2.440592E-09 -1.118578E-09
       275  15 -3.138031E+04 -2.508660E+05 -3.656272E+04  1.274628E+04  1.850805E-09 -1.298788E-08
       275  16  8.564691E+03 -2.187663E+05 -4.466857E+03  8.994695E+03 -9.649186E-10  1.833164E-08
       275  17  1.205212E+03 -2.308128E+05 -1.434771E+04  1.685931E+04  1.745930E-10  1.832176E-09
       275  18 -3.141760E+04 -2.503550E+05 -3.663144E+04  2.978459E+04 -1.296493E-09 -1.537314E-08
       275  19 -6.922076E+03 -2.829555E+05 -1.741004E+04  1.669723E+04  2.060579E+03 -7.341387E+03
       275  20 -6.525724E+03 -2.634435E+05 -2.085305E+04  3.672003E+03  1.117791E+03 -1.640650E+04
       275  21 -3.134175E+04 -2.513756E+05 -3.649262E+04 -4.292019E+03  3.013636E+02 -2.547130E+04
       275  22  8.213171E+02 -2.508614E+05 -1.093840E+04  1.284606E+04  2.056857E+03 -6.125865E+03
       275  23 -2.660302E+03 -2.471282E+05 -1.760020E+04  1.026556E+04  1.114316E+03 -1.533936E+04
       275  24 -3.138015E+04 -2.508653E+05 -3.656158E+04  1.274628E+04  2.978304E+02 -2.455231E+04
       275  25  8.564702E+03 -2.187663E+05 -4.466804E+03  8.994686E+03  2.053120E+03 -4.910282E+03
       275  26  1.205268E+03 -2.308126E+05 -1.434733E+04  1.685930E+04  1.110863E+03 -1.427218E+04
       275  27 -3.141745E+04 -2.503544E+05 -3.663039E+04  2.978459E+04  2.943476E+02 -2.363333E+04
       276   1 -3.865946E+05 -1.657910E+05 -1.521035E+05 -3.444168E+04 -1.054814E+04  1.145543E+04
       276   2 -3.152603E+05 -1.795060E+05 -1.383885E+05 -3.624566E+04  3.519189E+03  3.689523E+04
       276   3 -2.386491E+05 -1.654778E+05 -1.268777E+05 -6.071702E+04  1.761120E+04  4.068240E+04
       276   4  4.428964E+05  3.977341E+04  4.647954E+04 -5.556326E+04  3.209342E+04  1.149432E+04
       276   5  4.380775E+05  3.156774E+03  2.168852E+04 -4.421540E+04  2.070314E+04  3.690453E+04
       276   6  4.429390E+05 -1.316453E+03  1.236420E+04 -5.553253E+04  9.335796E+03  4.067460E+04
       276   7  1.273023E+06  2.452906E+05  2.450211E+05 -7.671332E+04  7.479172E+04  1.153028E+04
       276   8  1.191951E+06  1.857831E+05  1.817342E+05 -5.219503E+04  3.790762E+04  3.691339E+04
       276   9  1.124969E+06  1.628160E+05  1.515819E+05 -5.034229E+04  1.051469E+03  4.066666E+04
       276  10 -3.865948E+05 -1.657912E+05 -1.521040E+05 -3.444158E+04  3.625655E-10 -2.607926E-10
       276  11 -3.152606E+05 -1.795074E+05 -1.383910E+05 -3.624577E+04  3.732097E-10 -6.595346E-10
       276  12 -2.386499E+05 -1.654797E+05 -1.268814E+05 -6.071760E+04  8.836967E-10 -9.784422E-11
       276  13  4.428952E+05  3.977299E+04  4.647736E+04 -5.556356E+04 -1.845546E-12 -2.757229E-10
       276  14  4.380766E+05  3.155197E+03  2.168516E+04 -4.421601E+04  4.854286E-10 -6.312697E-10
       276  15  4.429385E+05 -1.318253E+03  1.236093E+04 -5.553284E+04  2.624672E-10 -1.007416E-10
       276  16  1.273017E+06  2.452890E+05  2.450103E+05 -7.671401E+04 -1.252239E-09 -2.789690E-10
       276  17  1.191949E+06  1.857812E+05  1.817289E+05 -5.219615E+04 -6.864811E-10 -6.001750E-10
       276  18  1.124968E+06  1.628142E+05  1.515787E+05 -5.034232E+04 -8.270342E-10 -6.033210E-11
       276  19 -3.865946E+05 -1.657910E+05 -1.521035E+05 -3.444168E+04  1.054814E+04 -1.145543E+04
       276  20 -3.152603E+05 -1.795060E+05 -1.383885E+05 -3.624566E+04 -3.519189E+03 -3.689523E+04
       276  21 -2.386491E+05 -1.654778E+05 -1.268777E+05 -6.071702E+04 -1.761120E+04 -4.068240E+04
       276  22  4.428964E+05  3.977341E+04  4.647954E+04 -5.556326E+04 -3.209342E+04 -1.149432E+04
       276  23  4.380775E+05  3.156774E+03  2.168852E+04 -4.421540E+04 -2.070314E+04 -3.690453E+04
       276  24  4.429390E+05 -1.316453E+03  1.236420E+04 -5.553253E+04 -9.335796E+03 -4.067460E+04
       276  25  1.273023E+06  2.452906E+05  2.450211E+05 -7.671332E+04 -7.479172E+04 -1.153028E+04
       276  26  1.191951E+06  1.857831E+05  1.817342E+05 -5.219503E+04 -3.790762E+04 -3.691339E+04
       276  27  1.124969E+06  1.628160E+05  1.515819E+05 -5.034229E+04 -1.051469E+03 -4.066666E+04
       277   1 -1.866503E+05 -1.497482E+05 -1.188954E+05 -5.547328E+04  1.070216E+04  3.700686E+04
       277   2 -1.134404E+05 -1.333572E+05 -1.072727E+05 -4.397920E+04  9.423020E+03  3.382958E+04
       277   3 -3.967183E+04 -1.157772E+05 -9.449808E+04 -5.616650E+04  8.141862E+03  2.948774E+04
       277   4  4.409769E+05  1.473836E+03  9.662269E+03 -5.576526E+04  7.657198E+03  3.700259E+04
       277   5  4.405948E+05 -5.044898E+01  5.314574E+03 -4.392502E+04  5.006365E+03  3.382586E+04
       277   6  4.410033E+05 -1.481375E+02  3.070033E+03 -5.576482E+04  2.353667E+03  2.948508E+04
       277   7  1.068978E+06  1.526712E+05  1.381991E+05 -5.605757E+04  4.609205E+03  3.699833E+04
       277   8  9.949219E+05  1.332372E+05  1.178859E+05 -4.387081E+04  5.858397E+02  3.382214E+04
       277   9  9.218983E+05  1.154666E+05  1.006262E+05 -5.536283E+04 -3.438925E+03  2.948241E+04
       277  10 -1.866508E+05 -1.497497E+05 -1.188982E+05 -5.547360E+04  2.098004E-08  8.703001E-10
       277  11 -1.134408E+05 -1.333585E+05 -1.072751E+05 -4.397946E+04 -7.444466E-10  1.849131E-09
       277  12 -3.967213E+04 -1.157782E+05 -9.449984E+04 -5.616669E+04 -2.182151E-08  1.018919E-09
       277  13  4.409765E+05  1.472349E+03  9.659585E+03 -5.576549E+04  2.747206E-10  8.336674E-10
       277  14  4.405944E+05 -5.168463E+01  5.312376E+03 -4.392516E+04 -1.799802E-10  1.760769E-09
       277  15  4.410031E+05 -1.490727E+02  3.068388E+03 -5.576488E+04 -6.834940E-10  9.626811E-10
       277  16  1.068978E+06  1.526697E+05  1.381964E+05 -5.605771E+04 -2.161340E-08  8.025974E-10
       277  17  9.949216E+05  1.332360E+05  1.178838E+05 -4.387082E+04 -8.688174E-11  1.704754E-09
       277  18  9.218981E+05  1.154657E+05  1.006246E+05 -5.536275E+04  2.182585E-08  8.632702E-10
       277  19 -1.866503E+05 -1.497482E+05 -1.188954E+05 -5.547328E+04 -1.070216E+04 -3.700686E+04
       277  20 -1.134404E+05 -1.333572E+05 -1.072727E+05 -4.397920E+04 -9.423020E+03 -3.382958E+04
       277  21 -3.967183E+04 -1.157772E+05 -9.449808E+04 -5.616650E+04 -8.141862E+03 -2.948774E+04
       277  22  4.409769E+05  1.473836E+03  9.662269E+03 -5.576526E+04 -7.657198E+03 -3.700259E+04
       277  23  4.405948E+05 -5.044898E+01  5.314574E+03 -4.392502E+04 -5.006365E+03 -3.382586E+04
       277  24  4.410033E+05 -1.481375E+02  3.070033E+03 -5.576482E+04 -2.353667E+03 -2.948508E+04
       277  25  1.068978E+06  1.526712E+05  1.381991E+05 -5.605757E+04 -4.609205E+03 -3.699833E+04
       277  26  9.949219E+05  1.332372E+05  1.178859E+05 -4.387081E+04 -5.858397E+02 -3.382214E+04
       277  27  9.218983E+05  1.154666E+05  1.006262E+05 -5.536283E+04  3.438925E+03 -2.948241E+04
       278   1  1.332417E+04 -1.028012E+05 -8.411035E+04 -5.588843E+04  7.377440E+03  2.664649E+04
       278   2  8.655288E+04 -8.523383E+04 -7.037561E+04 -4.400009E+04  6.773483E+03  2.193758E+04
       278   3  1.599107E+05 -6.761198E+04 -5.622627E+04 -5.578788E+04  6.167764E+03  1.716886E+04
       278   4  4.408682E+05 -2.074911E+01  2.349205E+03 -5.576391E+04  1.875762E+03  2.664459E+04
       278   5  4.408078E+05 -5.427575E+01  1.366989E+03 -4.392626E+04  1.200788E+03  2.193660E+04
       278   6  4.408846E+05 -2.051484E+01  8.487701E+02 -5.576393E+04  5.241215E+02  1.716883E+04
       278   7  8.685862E+05  1.027484E+05  8.879942E+04 -5.563930E+04 -3.629632E+03  2.664269E+04
       278   8  7.951822E+05  8.511750E+04  7.310320E+04 -4.385239E+04 -4.375027E+03  2.193562E+04
       278   9  7.219337E+05  6.756606E+04  5.791981E+04 -5.573997E+04 -5.122027E+03  1.716880E+04
       278  10  1.332392E+04 -1.028020E+05 -8.411178E+04 -5.588859E+04 -1.913854E-09  3.855329E-11
       278  11  8.655270E+04 -8.523436E+04 -7.037660E+04 -4.400021E+04 -1.275305E-09 -5.920189E-10
       278  12  1.599106E+05 -6.761231E+04 -5.622690E+04 -5.578796E+04 -1.101046E-09 -5.797026E-10
       278  13  4.408680E+05 -2.151257E+01  2.347864E+03 -5.576395E+04 -5.906236E-10  2.554808E-11
       278  14  4.408076E+05 -5.479299E+01  1.366082E+03 -4.392628E+04 -3.809957E-10 -5.649600E-10
       278  15  4.408845E+05 -2.083151E+01  8.482155E+02 -5.576394E+04  1.645971E-10 -5.715453E-10
       278  16  8.685860E+05  1.027476E+05  8.879806E+04 -5.563922E+04  1.472453E-09 -2.729409E-11
       278  17  7.951820E+05  8.511698E+04  7.310226E+04 -4.385231E+04  1.313676E-09 -6.497298E-10
       278  18  7.219336E+05  6.756573E+04  5.791921E+04 -5.573990E+04  8.166535E-10 -5.275920E-10
       278  19  1.332417E+04 -1.028012E+05 -8.411035E+04 -5.588843E+04 -7.377440E+03 -2.664649E+04
       278  20  8.655288E+04 -8.523383E+04 -7.037561E+04 -4.400009E+04 -6.773483E+03 -2.193758E+04
       278  21  1.599107E+05 -6.761198E+04 -5.622627E+04 -5.578788E+04 -6.167764E+03 -1.716886E+04
       278  22  4.408682E+05 -2.074911E+01  2.349205E+03 -5.576391E+04 -1.875762E+03 -2.664459E+04
       278  23  4.408078E+05 -5.427575E+01  1.366989E+03 -4.392626E+04 -1.200788E+03 -2.193660E+04
       278  24  4.408846E+05 -2.051484E+01  8.487701E+02 -5.576393E+04 -5.241215E+02 -1.716883E+04
       278  25  8.685862E+05  1.027484E+05  8.879942E+04 -5.563930E+04  3.629632E+03 -2.664269E+04
       278  26  7.951822E+05  8.511750E+04  7.310320E+04 -4.385239E+04  4.375027E+03 -2.193562E+04
       278  27  7.219337E+05  6.756606E+04  5.791981E+04 -5.573997E+04  5.122027E+03 -1.716880E+04
       279   1  2.128909E+05 -5.478346E+04 -4.527188E+04 -5.576570E+04  6.010266E+03  1.437823E+04
       279   2  2.860615E+05 -3.721873E+04 -3.080180E+04 -4.392626E+04  5.748849E+03  9.594528E+03
       279   3  3.592753E+05 -1.964545E+04 -1.615937E+04 -5.573399E+04  5.486647E+03  4.809076E+03
       279   4  4.408681E+05 -1.140808E+01  6.928932E+02 -5.575760E+04  3.842138E+02  1.437861E+04
       279   5  4.408529E+05 -5.768573E+00  5.338355E+02 -4.393419E+04  1.203162E+02  9.595309E+03
       279   6  4.408752E+05  8.838608E+00  5.485449E+02 -5.575760E+04 -1.443361E+02  4.810278E+03
       279   7  6.688948E+05  5.475745E+04  4.665512E+04 -5.574950E+04 -5.243864E+03  1.437899E+04
       279   8  5.956672E+05  3.720573E+04  3.186835E+04 -4.394213E+04 -5.509592E+03  9.596090E+03
       279   9  5.224814E+05  1.966272E+04  1.725623E+04 -5.578122E+04 -5.776045E+03  4.811479E+03
       279  10  2.128908E+05 -5.478369E+04 -4.527234E+04 -5.576577E+04 -3.217718E-10 -4.502055E-10
       279  11  2.860614E+05 -3.721884E+04 -3.080204E+04 -4.392630E+04  1.167851E-10 -2.407637E-10
       279  12  3.592753E+05 -1.964548E+04 -1.615947E+04 -5.573401E+04 -1.278308E-10 -4.655497E-11
       279  13  4.408680E+05 -1.163017E+01  6.925044E+02 -5.575760E+04 -2.451738E-10 -4.271379E-10
       279  14  4.408529E+05 -5.867465E+00  5.336624E+02 -4.393419E+04 -4.427772E-10 -1.452620E-10
       279  15  4.408752E+05  8.813751E+00  5.485014E+02 -5.575760E+04 -5.356636E-10  4.250793E-11
       279  16  6.688947E+05  5.475722E+04  4.665468E+04 -5.574943E+04  3.449535E-10 -3.244721E-10
       279  17  5.956672E+05  3.720562E+04  3.186812E+04 -4.394208E+04  3.405456E-10 -2.045762E-10
       279  18  5.224814E+05  1.966269E+04  1.725612E+04 -5.578119E+04  1.816619E-10  6.023174E-11
       279  19  2.128909E+05 -5.478346E+04 -4.527188E+04 -5.576570E+04 -6.010266E+03 -1.437823E+04
       279  20  2.860615E+05 -3.721873E+04 -3.080180E+04 -4.392626E+04 -5.748849E+03 -9.594528E+03
       279  21  3.592753E+05 -1.964545E+04 -1.615937E+04 -5.573399E+04 -5.486647E+03 -4.809076E+03
       279  22  4.408681E+05 -1.140808E+01  6.928932E+02 -5.575760E+04 -3.842138E+02 -1.437861E+04
       279  23  4.408529E+05 -5.768573E+00  5.338355E+02 -4.393419E+04 -1.203162E+02 -9.595309E+03
       279  24  4.408752E+05  8.838608E+00  5.485449E+02 -5.575760E+04  1.443361E+02 -4.810278E+03
       279  25  6.688948E+05  5.475745E+04  4.665512E+04 -5.574950E+04  5.243864E+03 -1.437899E+04
       279  26  5.956672E+05  3.720573E+04  3.186835E+04 -4.394213E+04  5.509592E+03 -9.596090E+03
       279  27  5.224814E+05  1.966272E+04  1.725623E+04 -5.578122E+04  5.776045E+03 -4.811479E+03
       280   1  4.122362E+05 -6.837747E+03 -4.990383E+03 -5.573668E+04  5.379480E+03  2.023617E+03
       280   2  4.853838E+05  1.069807E+04  9.919597E+03 -4.389655E+04  4.928886E+03 -2.760407E+03
       280   3  5.585928E+05  2.824916E+04  2.512437E+04 -5.569466E+04  4.478456E+03 -7.542062E+03
       280   4  4.408805E+05  9.839639E+00  6.169222E+02 -5.575572E+04 -2.510454E+02  2.024907E+03
       280   5  4.408515E+05 -6.630246E+00  9.049611E+02 -4.393654E+04 -6.991288E+02 -2.759245E+03
       280   6  4.408784E+05 -7.980022E+00  1.486136E+03 -5.575571E+04 -1.146996E+03 -7.541010E+03
       280   7  4.695256E+05  6.857394E+03  6.224307E+03 -5.577475E+04 -5.881825E+03  2.026197E+03
       280   8  3.963211E+05 -1.071144E+04 -8.109659E+03 -4.397652E+04 -6.326748E+03 -2.758082E+03
       280   9  3.231772E+05 -2.826596E+04 -2.215269E+04 -5.581674E+04 -6.771404E+03 -7.539957E+03
       280  10  4.122362E+05 -6.837759E+03 -4.990445E+03 -5.573669E+04 -1.057347E-10  5.900724E-11
       280  11  4.853837E+05  1.069806E+04  9.919537E+03 -4.389654E+04 -8.421493E-11  2.530023E-11
       280  12  5.585928E+05  2.824910E+04  2.512423E+04 -5.569463E+04 -4.651365E-11 -1.638010E-10
       280  13  4.408805E+05  9.835219E+00  6.169144E+02 -5.575572E+04 -3.259311E-10  1.151250E-10
       280  14  4.408515E+05 -6.638555E+00  9.049459E+02 -4.393654E+04 -5.720745E-11  7.832250E-12
       280  15  4.408783E+05 -8.041453E+00  1.486026E+03 -5.575572E+04 -5.875137E-10 -9.751756E-11
       280  16  4.695256E+05  6.857380E+03  6.224234E+03 -5.577474E+04 -4.309023E-10  3.010245E-11
       280  17  3.963211E+05 -1.071146E+04 -8.109748E+03 -4.397654E+04 -1.316985E-10 -1.226567E-10
       280  18  3.231771E+05 -2.826603E+04 -2.215288E+04 -5.581678E+04 -5.578736E-10  5.147069E-12
       280  19  4.122362E+05 -6.837747E+03 -4.990383E+03 -5.573668E+04 -5.379480E+03 -2.023617E+03
       280  20  4.853838E+05  1.069807E+04  9.919597E+03 -4.389655E+04 -4.928886E+03  2.760407E+03
       280  21  5.585928E+05  2.824916E+04  2.512437E+04 -5.569466E+04 -4.478456E+03  7.542062E+03
       280  22  4.408805E+05  9.839639E+00  6.169222E+02 -5.575572E+04  2.510454E+02 -2.024907E+03
       280  23  4.408515E+05 -6.630246E+00  9.049611E+02 -4.393654E+04  6.991288E+02  2.759245E+03
       280  24  4.408784E+05 -7.980022E+00  1.486136E+03 -5.575571E+04  1.146996E+03  7.541010E+03
       280  25  4.695256E+05  6.857394E+03  6.224307E+03 -5.577475E+04  5.881825E+03 -2.026197E+03
       280  26  3.963211E+05 -1.071144E+04 -8.109659E+03 -4.397652E+04  6.326748E+03  2.758082E+03
       280  27  3.231772E+05 -2.826596E+04 -2.215269E+04 -5.581674E+04  6.771404E+03  7.539957E+03
       281   1  6.116179E+05  4.104496E+04  3.667389E+04 -5.566890E+04  4.183176E+03 -1.032986E+04
       281   2  6.847255E+05  5.856762E+04  5.270983E+04 -4.378045E+04  2.476502E+03 -1.509588E+04
       281   3  7.581161E+05  7.627092E+04  6.990280E+04 -5.554834E+04  7.708309E+02 -1.980932E+04
       281   4  4.409224E+05 -2.167234E+01  1.933793E+03 -5.575984E+04 -1.457165E+03 -1.032903E+04
       281   5  4.407823E+05 -6.737445E+01  3.320960E+03 -4.393135E+04 -3.101629E+03 -1.509572E+04
       281   6  4.409107E+05  5.745838E+01  5.822759E+03 -5.575977E+04 -4.744897E+03 -1.980980E+04
       281   7  2.702545E+05 -4.109011E+04 -3.280771E+04 -5.585074E+04 -7.095986E+03 -1.032821E+04
       281   8  1.968958E+05 -5.870604E+04 -4.607088E+04 -4.408218E+04 -8.677613E+03 -1.509555E+04
       281   9  1.238011E+05 -7.616222E+04 -5.826236E+04 -5.597108E+04 -1.025786E+04 -1.981027E+04
       281  10  6.116179E+05  4.104484E+04  3.667366E+04 -5.566887E+04 -1.972328E-10 -1.365748E-10
       281  11  6.847254E+05  5.856737E+04  5.270939E+04 -4.378042E+04 -2.282004E-10  2.412327E-10
       281  12  7.581160E+05  7.627050E+04  6.990206E+04 -5.554833E+04  8.323659E-11  4.512619E-11
       281  13  4.409223E+05 -2.178750E+01  1.933589E+03 -5.575985E+04 -2.777094E-10 -1.519878E-11
       281  14  4.407823E+05 -6.762179E+01  3.320514E+03 -4.393139E+04  2.978243E-10  3.548531E-11
       281  15  4.409106E+05  5.703084E+01  5.821979E+03 -5.575985E+04  7.089599E-10 -4.737158E-11
       281  16  2.702544E+05 -4.109024E+04 -3.280801E+04 -5.585080E+04  3.166920E-10  3.957949E-11
       281  17  1.968957E+05 -5.870631E+04 -4.607145E+04 -4.408229E+04  2.743668E-10 -1.291311E-10
       281  18  1.238009E+05 -7.616267E+04 -5.826329E+04 -5.597125E+04  1.982005E-10 -1.078140E-10
       281  19  6.116179E+05  4.104496E+04  3.667389E+04 -5.566890E+04 -4.183176E+03  1.032986E+04
       281  20  6.847255E+05  5.856762E+04  5.270983E+04 -4.378045E+04 -2.476502E+03  1.509588E+04
       281  21  7.581161E+05  7.627092E+04  6.990280E+04 -5.554834E+04 -7.708309E+02  1.980932E+04
       281  22  4.409224E+05 -2.167234E+01  1.933793E+03 -5.575984E+04  1.457165E+03  1.032903E+04
       281  23  4.407823E+05 -6.737445E+01  3.320960E+03 -4.393135E+04  3.101629E+03  1.509572E+04
       281  24  4.409107E+05  5.745838E+01  5.822759E+03 -5.575977E+04  4.744897E+03  1.980980E+04
       281  25  2.702545E+05 -4.109011E+04 -3.280771E+04 -5.585074E+04  7.095986E+03  1.032821E+04
       281  26  1.968958E+05 -5.870604E+04 -4.607088E+04 -4.408218E+04  8.677613E+03  1.509555E+04
       281  27  1.238011E+05 -7.616222E+04 -5.826236E+04 -5.597108E+04  1.025786E+04  1.981027E+04
       282   1  8.115514E+05  8.879615E+04  8.281477E+04 -5.490449E+04 -1.690050E+02 -2.263949E+04
       282   2  8.839523E+05  1.067322E+05  1.034243E+05 -4.410572E+04 -8.006920E+03 -2.703250E+04
       282   3  9.583790E+05  1.284560E+05  1.300905E+05 -5.695325E+04 -1.584424E+04 -3.041332E+04
       282   4  4.412466E+05 -2.467295E+02  7.639000E+03 -5.575746E+04 -5.933702E+03 -2.264052E+04
       282   5  4.403282E+05  5.012861E+01  1.329991E+04 -4.393404E+04 -1.257587E+04 -2.703456E+04
       282   6  4.412240E+05  3.929204E+03  2.419072E+04 -5.575782E+04 -1.921652E+04 -3.041609E+04
       282   7  7.107224E+04 -8.929812E+04 -6.754380E+04 -5.660990E+04 -1.169503E+04 -2.264153E+04
       282   8 -3.108806E+03 -1.066442E+05 -7.683465E+04 -4.376248E+04 -1.714162E+04 -2.703663E+04
       282   9 -7.567726E+04 -1.206144E+05 -8.172322E+04 -5.456340E+04 -2.258605E+04 -3.041887E+04
       282  10  8.115513E+05  8.879560E+04  8.281381E+04 -5.490449E+04 -1.425410E-10 -6.323034E-11
       282  11  8.839520E+05  1.067314E+05  1.034228E+05 -4.410589E+04  5.816802E-11  1.256993E-10
       282  12  9.583785E+05  1.284550E+05  1.300883E+05 -5.695364E+04 -1.244305E-10  1.386002E-10
       282  13  4.412465E+05 -2.472895E+02  7.637970E+03 -5.575757E+04 -4.373387E-11 -6.327249E-11
       282  14  4.403278E+05  4.930117E+01  1.329824E+04 -4.393431E+04 -5.558638E-11  4.071702E-11
       282  15  4.412234E+05  3.928111E+03  2.418829E+04 -5.575829E+04 -4.207469E-10  1.456133E-11
       282  16  7.107195E+04 -8.929871E+04 -6.754502E+04 -5.661012E+04 -1.505424E-10 -8.460181E-11
       282  17 -3.109318E+03 -1.066451E+05 -7.683658E+04 -4.376285E+04 -3.061810E-11 -1.316374E-10
       282  18 -7.567806E+04 -1.206155E+05 -8.172591E+04 -5.456395E+04 -7.569659E-11  5.651884E-11
       282  19  8.115514E+05  8.879615E+04  8.281477E+04 -5.490449E+04  1.690050E+02  2.263949E+04
       282  20  8.839523E+05  1.067322E+05  1.034243E+05 -4.410572E+04  8.006920E+03  2.703250E+04
       282  21  9.583790E+05  1.284560E+05  1.300905E+05 -5.695325E+04  1.584424E+04  3.041332E+04
       282  22  4.412466E+05 -2.467295E+02  7.639000E+03 -5.575746E+04  5.933702E+03  2.264052E+04
       282  23  4.403282E+05  5.012861E+01  1.329991E+04 -4.393404E+04  1.257587E+04  2.703456E+04
       282  24  4.412240E+05  3.929204E+03  2.419072E+04 -5.575782E+04  1.921652E+04  3.041609E+04
       282  25  7.107224E+04 -8.929812E+04 -6.754380E+04 -5.660990E+04  1.169503E+04  2.264153E+04
       282  26 -3.108806E+03 -1.066442E+05 -7.683465E+04 -4.376248E+04  1.714162E+04  2.703663E+04
       282  27 -7.567726E+04 -1.206144E+05 -8.172322E+04 -5.456340E+04  2.258605E+04  3.041887E+04
       283   1  1.017103E+06  1.344048E+05  1.475790E+05 -4.315851E+04 -1.549837E+04 -3.396528E+04
       283   2  1.077060E+06  1.639927E+05  1.909846E+05 -6.499575E+04 -6.617006E+04 -3.131794E+04
       283   3  1.164769E+06  2.777887E+05  2.884207E+05 -1.096200E+05 -1.168637E+05 -9.856798E+03
       283   4  4.461288E+05 -3.028035E+03  3.095773E+04 -5.555389E+04 -2.342161E+04 -3.396984E+04
       283   5  4.341405E+05  8.220004E+03  5.435777E+04 -4.418767E+04 -5.191688E+04 -3.131575E+04
       283   6  4.460785E+05  9.987346E+04  1.164285E+05 -5.560458E+04 -8.042638E+04 -9.844472E+03
       283   7 -1.245350E+05 -1.404807E+05 -8.568044E+04 -6.793769E+04 -3.133771E+04 -3.397409E+04
       283   8 -2.083889E+05 -1.475777E+05 -8.229177E+04 -2.340145E+04 -3.767819E+04 -3.131261E+04
       283   9 -2.721307E+05 -7.806747E+04 -5.559366E+04 -1.651952E+03 -4.403099E+04 -9.825813E+03
       283  10  1.017102E+06  1.344035E+05  1.475764E+05 -4.315894E+04  1.416074E-10  1.348713E-10
       283  11  1.077055E+06  1.639904E+05  1.909746E+05 -6.499742E+04  3.210976E-11  8.180333E-11
       283  12  1.164755E+06  2.777849E+05  2.883949E+05 -1.096209E+05 -4.254370E-10 -7.649677E-11
       283  13  4.461279E+05 -3.029421E+03  3.095453E+04 -5.555453E+04  2.776819E-10  7.713487E-11
       283  14  4.341374E+05  8.218228E+03  5.435086E+04 -4.418898E+04 -2.524040E-10  5.927016E-10
       283  15  4.460715E+05  9.987162E+04  1.164161E+05 -5.560522E+04 -3.771897E-10  5.644605E-11
       283  16 -1.245364E+05 -1.404822E+05 -8.568446E+04 -6.793854E+04 -3.486313E-11  1.295319E-10
       283  17 -2.083907E+05 -1.475792E+05 -8.229628E+04 -2.340240E+04 -2.014397E-10  3.364134E-10
       283  18 -2.721328E+05 -7.806809E+04 -5.559748E+04 -1.652300E+03 -3.954624E-11  9.178269E-11
       283  19  1.017103E+06  1.344048E+05  1.475790E+05 -4.315851E+04  1.549837E+04  3.396528E+04
       283  20  1.077060E+06  1.639927E+05  1.909846E+05 -6.499575E+04  6.617006E+04  3.131794E+04
       283  21  1.164769E+06  2.777887E+05  2.884207E+05 -1.096200E+05  1.168637E+05  9.856798E+03
       283  22  4.461288E+05 -3.028035E+03  3.095773E+04 -5.555389E+04  2.342161E+04  3.396984E+04
       283  23  4.341405E+05  8.220004E+03  5.435777E+04 -4.418767E+04  5.191688E+04  3.131575E+04
       283  24  4.460785E+05  9.987346E+04  1.164285E+05 -5.560458E+04  8.042638E+04  9.844472E+03
       283  25 -1.245350E+05 -1.404807E+05 -8.568044E+04 -6.793769E+04  3.133771E+04  3.397409E+04
       283  26 -2.083889E+05 -1.475777E+05 -8.229177E+04 -2.340145E+04  3.767819E+04  3.131261E+04
       283  27 -2.721307E+05 -7.806747E+04 -5.559366E+04 -1.651952E+03  4.403099E+04  9.825813E+03
       284   1  2.131654E+05  1.178696E+06  2.193287E+05 -1.644401E+05  6.544855E+03  7.699304E+04
       284   2  1.090345E+05  1.000953E+06  1.267360E+05 -1.159545E+05  1.878595E+04  3.919242E+04
       284   3  6.074436E+04  8.419767E+05  7.265871E+04 -1.208541E+05  1.450653E+04  1.382555E+03
       284   4  6.541452E+04  5.834718E+05  7.574472E+04 -1.284914E+05  6.581767E+03  5.288566E+04
       284   5  5.681789E+03  5.758110E+05  3.496508E+04 -1.018459E+05  1.879435E+04  3.455602E+04
       284   6 -1.562404E+03  5.835348E+05  1.921528E+04 -1.285819E+05  1.448396E+04  1.620659E+04
       284   7 -8.235715E+04 -1.142458E+04 -6.786179E+04 -9.257705E+04  6.615912E+03  2.880125E+04
       284   8 -9.768209E+04  1.508389E+05 -5.681630E+04 -8.774709E+04  1.880255E+04  2.992273E+04
       284   9 -6.387305E+04  3.251568E+05 -3.423092E+04 -1.363065E+05  1.446102E+04  3.102456E+04
       284  10  2.131638E+05  1.178689E+06  2.193175E+05 -1.644405E+05  4.767802E-11  1.286464E-10
       284  11  1.090337E+05  1.000951E+06  1.267324E+05 -1.159551E+05  1.265827E-11 -1.314559E-11
       284  12  6.074414E+04  8.419767E+05  7.265831E+04 -1.208541E+05  8.690965E-10 -2.048101E-10
       284  13  6.541373E+04  5.834688E+05  7.573938E+04 -1.284916E+05  4.958567E-10 -1.377126E-11
       284  14  5.681089E+03  5.758096E+05  3.496218E+04 -1.018465E+05 -1.430442E-09  1.709229E-10
       284  15 -1.562700E+03  5.835345E+05  1.921439E+04 -1.285821E+05  2.225275E-10  1.272897E-11
       284  16 -8.235742E+04 -1.142549E+04 -6.786343E+04 -9.257721E+04 -4.442169E-11 -6.743293E-11
       284  17 -9.768271E+04  1.508378E+05 -5.681865E+04 -8.774754E+04 -6.501917E-10  7.236190E-11
       284  18 -6.387353E+04  3.251557E+05 -3.423312E+04 -1.363068E+05  1.258805E-11  2.416130E-10
       284  19  2.131654E+05  1.178696E+06  2.193287E+05 -1.644401E+05 -6.544855E+03 -7.699304E+04
       284  20  1.090345E+05  1.000953E+06  1.267360E+05 -1.159545E+05 -1.878595E+04 -3.919242E+04
       284  21  6.074436E+04  8.419767E+05  7.265871E+04 -1.208541E+05 -1.450653E+04 -1.382555E+03
       284  22  6.541452E+04  5.834718E+05  7.574472E+04 -1.284914E+05 -6.581767E+03 -5.288566E+04
       284  23  5.681789E+03  5.758110E+05  3.496508E+04 -1.018459E+05 -1.879435E+04 -3.455602E+04
       284  24 -1.562404E+03  5.835348E+05  1.921528E+04 -1.285819E+05 -1.448396E+04 -1.620659E+04
       284  25 -8.235715E+04 -1.142458E+04 -6.786179E+04 -9.257705E+04 -6.615912E+03 -2.880125E+04
       284  26 -9.768209E+04  1.508389E+05 -5.681630E+04 -8.774709E+04 -1.880255E+04 -2.992273E+04
       284  27 -6.387305E+04  3.251568E+05 -3.423092E+04 -1.363065E+05 -1.446102E+04 -3.102456E+04
       285   1  3.590026E+04  7.164175E+05  4.279990E+04 -1.295880E+05  7.402368E+03  2.597574E+03
       285   2 -7.348869E+03  5.479272E+05 -1.833165E+02 -1.017842E+05 -1.943287E+03 -4.733679E+02
       285   3 -4.874501E+04  3.801450E+05 -4.075441E+04 -1.281801E+05 -1.120252E+04 -3.543058E+03
       285   4  3.021821E+03  5.802790E+05  1.446085E+04 -1.287430E+05  7.385002E+03  1.365231E+04
       285   5  3.481322E+02  5.799286E+05  6.323608E+03 -1.016461E+05 -1.960282E+03  1.047949E+04
       285   6 -4.527704E+02  5.802783E+05  6.714990E+02 -1.287485E+05 -1.121923E+04  7.307129E+03
       285   7 -2.985773E+04  4.441583E+05 -1.387876E+04 -1.278982E+05  7.367663E+03  2.470467E+04
       285   8  8.045134E+03  6.119312E+05  1.283093E+04 -1.015080E+05 -1.977272E+03  2.143291E+04
       285   9  4.783699E+04  7.804498E+05  4.209568E+04 -1.293171E+05 -1.123596E+04  1.816075E+04
       285  10  3.590020E+04  7.164175E+05  4.279978E+04 -1.295880E+05  1.635673E-10 -4.703867E-10
       285  11 -7.348873E+03  5.479272E+05 -1.833241E+02 -1.017842E+05  2.847411E-10 -2.856267E-10
       285  12 -4.874515E+04  3.801449E+05 -4.075467E+04 -1.281801E+05 -4.308983E-10 -1.640591E-11
       285  13  3.021713E+03  5.802788E+05  1.446040E+04 -1.287431E+05  8.342125E-11 -1.673714E-11
       285  14  3.480986E+02  5.799285E+05  6.323394E+03 -1.016461E+05  7.019688E-10 -1.227218E-10
       285  15 -4.529199E+02  5.802782E+05  6.711622E+02 -1.287484E+05  9.131792E-10 -1.531044E-10
       285  16 -2.985795E+04  4.441577E+05 -1.388001E+04 -1.278984E+05  7.421457E-11  6.045784E-10
       285  17  8.045006E+03  6.119307E+05  1.283006E+04 -1.015080E+05 -9.187364E-10  2.339800E-10
       285  18  4.783677E+04  7.804494E+05  4.209482E+04 -1.293169E+05 -5.640945E-10  1.020294E-10
       285  19  3.590026E+04  7.164175E+05  4.279990E+04 -1.295880E+05 -7.402368E+03 -2.597574E+03
       285  20 -7.348869E+03  5.479272E+05 -1.833165E+02 -1.017842E+05  1.943287E+03  4.733679E+02
       285  21 -4.874501E+04  3.801450E+05 -4.075441E+04 -1.281801E+05  1.120252E+04  3.543058E+03
       285  22  3.021821E+03  5.802790E+05  1.446085E+04 -1.287430E+05 -7.385002E+03 -1.365231E+04
       285  23  3.481322E+02  5.799286E+05  6.323608E+03 -1.016461E+05  1.960282E+03 -1.047949E+04
       285  24 -4.527704E+02  5.802783E+05  6.714990E+02 -1.287485E+05  1.121923E+04 -7.307129E+03
       285  25 -2.985773E+04  4.441583E+05 -1.387876E+04 -1.278982E+05 -7.367663E+03 -2.470467E+04
       285  26  8.045134E+03  6.119312E+05  1.283093E+04 -1.015080E+05  1.977272E+03 -2.143291E+04
       285  27  4.783699E+04  7.804498E+05  4.209568E+04 -1.293171E+05  1.123596E+04 -1.816075E+04
       286   1 -7.686463E+04  2.568092E+05 -6.823654E+04 -1.259735E+05 -1.836268E+04 -7.757167E+03
       286   2 -1.200252E+05  9.222152E+04 -1.128759E+05 -1.048144E+05 -2.209830E+04  1.762127E+04
       286   3 -1.802045E+05 -8.000156E+04 -1.783157E+05 -1.370092E+05 -7.672514E+03  4.301249E+04
       286   4  8.991944E+02  5.792306E+05 -1.734313E+03 -1.285543E+05 -1.838485E+04  7.276626E+03
       286   5 -1.218839E+03  5.811839E+05 -7.580932E+03 -1.018893E+05 -2.208819E+04  1.129853E+04
       286   6 -1.664062E+04  5.791851E+05 -1.939733E+04 -1.285774E+05 -7.636128E+03  1.534072E+04
       286   7  7.865660E+04  9.017510E+05  6.476317E+04 -1.311365E+05 -1.840715E+04  2.231809E+04
       286   8  1.175719E+05  1.070371E+06  9.770012E+04 -9.896179E+04 -2.207815E+04  4.970886E+03
       286   9  1.468923E+05  1.238771E+06  1.394929E+05 -1.201364E+05 -7.600516E+03 -1.236034E+04
       286  10 -7.686501E+04  2.568090E+05 -6.823729E+04 -1.259737E+05  8.079367E-11  1.549608E-10
       286  11 -1.200258E+05  9.222106E+04 -1.128774E+05 -1.048140E+05  2.322943E-10  2.189104E-10
       286  12 -1.802051E+05 -8.000356E+04 -1.783193E+05 -1.370089E+05 -2.285792E-10  1.196424E-10
       286  13  8.988172E+02  5.792304E+05 -1.735048E+03 -1.285542E+05 -1.042787E-09  1.635855E-10
       286  14 -1.219397E+03  5.811837E+05 -7.582089E+03 -1.018891E+05  5.372862E-10 -5.462836E-11
       286  15 -1.664075E+04  5.791849E+05 -1.939788E+04 -1.285773E+05 -2.438845E-10  2.355797E-11
       286  16  7.865610E+04  9.017503E+05  6.476159E+04 -1.311361E+05  1.471645E-10 -2.523397E-10
       286  17  1.175713E+05  1.070371E+06  9.769916E+04 -9.896170E+04  1.600107E-10 -3.426572E-10
       286  18  1.468922E+05  1.238771E+06  1.394925E+05 -1.201365E+05 -3.381017E-10 -8.327461E-11
       286  19 -7.686463E+04  2.568092E+05 -6.823654E+04 -1.259735E+05  1.836268E+04  7.757167E+03
       286  20 -1.200252E+05  9.222152E+04 -1.128759E+05 -1.048144E+05  2.209830E+04 -1.762127E+04
       286  21 -1.802045E+05 -8.000156E+04 -1.783157E+05 -1.370092E+05  7.672514E+03 -4.301249E+04
       286  22  8.991944E+02  5.792306E+05 -1.734313E+03 -1.285543E+05  1.838485E+04 -7.276626E+03
       286  23 -1.218839E+03  5.811839E+05 -7.580932E+03 -1.018893E+05  2.208819E+04 -1.129853E+04
       286  24 -1.664062E+04  5.791851E+05 -1.939733E+04 -1.285774E+05  7.636128E+03 -1.534072E+04
       286  25  7.865660E+04  9.017510E+05  6.476317E+04 -1.311365E+05  1.840715E+04 -2.231809E+04
       286  26  1.175719E+05  1.070371E+06  9.770012E+04 -9.896179E+04  2.207815E+04 -4.970886E+03
       286  27  1.468923E+05  1.238771E+06  1.394929E+05 -1.201364E+05  7.600516E+03  1.236034E+04
       287   1 -8.903622E+05 -4.251375E+05 -2.807437E+05 -3.300036E+05 -1.225627E+05 -3.719430E+04
       287   2 -8.536191E+05 -2.725327E+05 -1.754032E+05 -3.179346E+05 -7.884745E+04 -1.022374E+03
       287   3 -8.515174E+05 -2.277161E+05 -1.343947E+05 -2.917713E+05 -2.959440E+04  2.044684E+04
       287   4 -4.160663E+05 -1.878529E+05 -1.444450E+05 -1.399327E+05 -9.550607E+04 -2.703233E+04
       287   5 -3.923932E+05 -7.933154E+04 -6.411601E+04 -1.681152E+05 -6.794144E+04  3.072929E+03
       287   6 -4.001302E+05 -7.535734E+04 -3.528154E+04 -1.822140E+05 -3.484357E+04  1.847286E+04
       287   7  5.845456E+04  4.950023E+04 -8.165579E+03  5.028529E+04 -6.842707E+04 -1.685549E+04
       287   8  6.904626E+04  1.139017E+05  4.715581E+04 -1.818847E+04 -5.702666E+04  7.172513E+03
       287   9  5.146364E+04  7.700954E+04  6.381997E+04 -7.258682E+04 -4.009690E+04  1.649763E+04
       287  10 -8.903787E+05 -4.251430E+05 -2.807746E+05 -3.300073E+05  1.005365E-10  5.938462E-11
       287  11 -8.536257E+05 -2.725343E+05 -1.754149E+05 -3.179347E+05 -3.888847E-10  5.231005E-12
       287  12 -8.515184E+05 -2.277168E+05 -1.343971E+05 -2.917708E+05  3.408724E-10 -1.828863E-11
       287  13 -4.160763E+05 -1.878562E+05 -1.444636E+05 -1.399348E+05  2.902192E-10 -1.482661E-11
       287  14 -3.923981E+05 -7.933279E+04 -6.412471E+04 -1.681150E+05  3.200546E-10 -8.003649E-11
       287  15 -4.001316E+05 -7.535803E+04 -3.528447E+04 -1.822134E+05 -7.557425E-10 -1.183838E-10
       287  16  5.844946E+04  4.949867E+04 -8.174910E+03  5.028436E+04 -8.234579E-11 -6.689060E-11
       287  17  6.904275E+04  1.139008E+05  4.714960E+04 -1.818814E+04 -5.670683E-10 -1.431946E-10
       287  18  5.146184E+04  7.700882E+04  6.381644E+04 -7.258629E+04 -4.156107E-10 -1.936151E-10
       287  19 -8.903622E+05 -4.251375E+05 -2.807437E+05 -3.300036E+05  1.225627E+05  3.719430E+04
       287  20 -8.536191E+05 -2.725327E+05 -1.754032E+05 -3.179346E+05  7.884745E+04  1.022374E+03
       287  21 -8.515174E+05 -2.277161E+05 -1.343947E+05 -2.917713E+05  2.959440E+04 -2.044684E+04
       287  22 -4.160663E+05 -1.878529E+05 -1.444450E+05 -1.399327E+05  9.550607E+04  2.703233E+04
       287  23 -3.923932E+05 -7.933154E+04 -6.411601E+04 -1.681152E+05  6.794144E+04 -3.072929E+03
       287  24 -4.001302E+05 -7.535734E+04 -3.528154E+04 -1.822140E+05  3.484357E+04 -1.847286E+04
       287  25  5.845456E+04  4.950023E+04 -8.165579E+03  5.028529E+04  6.842707E+04  1.685549E+04
       287  26  6.904626E+04  1.139017E+05  4.715581E+04 -1.818847E+04  5.702666E+04 -7.172513E+03
       287  27  5.146364E+04  7.700954E+04  6.381997E+04 -7.258682E+04  4.009690E+04 -1.649763E+04
       288   1 -8.066082E+05 -2.368545E+05 -1.206120E+05 -2.920622E+05 -2.832713E+04  1.825654E+04
       288   2 -7.726157E+05 -2.122356E+05 -9.833558E+04 -2.764403E+05 -1.965125E+04  1.968643E+04
       288   3 -7.318637E+05 -2.018314E+05 -8.331131E+04 -2.708135E+05 -1.070082E+04  2.038413E+04
       288   4 -3.955708E+05 -8.327024E+04 -2.749618E+04 -1.770285E+05 -2.969724E+04  1.774006E+04
       288   5 -3.986779E+05 -7.378188E+04 -1.441576E+04 -1.729529E+05 -2.182187E+04  1.886977E+04
       288   6 -3.948660E+05 -7.834742E+04 -7.949086E+03 -1.788727E+05 -1.367250E+04  1.926729E+04
       288   7  1.563406E+04  7.032694E+04  6.560792E+04 -6.192546E+04 -3.106832E+04  1.722321E+04
       288   8 -2.459905E+04  6.468276E+04  6.949517E+04 -6.940817E+04 -2.399390E+04  1.805257E+04
       288   9 -5.775167E+04  4.514562E+04  6.740658E+04 -8.688587E+04 -1.664594E+04  1.814979E+04
       288  10 -8.066092E+05 -2.368551E+05 -1.206141E+05 -2.920618E+05 -1.692897E-10 -5.570758E-11
       288  11 -7.726163E+05 -2.122361E+05 -9.833703E+04 -2.764400E+05 -1.415649E-10 -1.014194E-11
       288  12 -7.318639E+05 -2.018319E+05 -8.331230E+04 -2.708133E+05  2.403187E-10  1.426201E-11
       288  13 -3.955718E+05 -8.327081E+04 -2.749842E+04 -1.770281E+05 -3.499681E-10 -3.168231E-11
       288  14 -3.986785E+05 -7.378239E+04 -1.441732E+04 -1.729525E+05 -3.161430E-10  1.693527E-11
       288  15 -3.948663E+05 -7.834787E+04 -7.950135E+03 -1.788725E+05 -1.637146E-10 -1.718742E-11
       288  16  1.563295E+04  7.032636E+04  6.560555E+04 -6.192503E+04 -1.375961E-10 -9.427445E-11
       288  17 -2.459976E+04  6.468226E+04  6.949348E+04 -6.940782E+04 -3.292739E-10 -3.389325E-11
       288  18 -5.775205E+04  4.514519E+04  6.740544E+04 -8.688562E+04 -1.285564E-10 -1.052128E-10
       288  19 -8.066082E+05 -2.368545E+05 -1.206120E+05 -2.920622E+05  2.832713E+04 -1.825654E+04
       288  20 -7.726157E+05 -2.122356E+05 -9.833558E+04 -2.764403E+05  1.965125E+04 -1.968643E+04
       288  21 -7.318637E+05 -2.018314E+05 -8.331131E+04 -2.708135E+05  1.070082E+04 -2.038413E+04
       288  22 -3.955708E+05 -8.327024E+04 -2.749618E+04 -1.770285E+05  2.969724E+04 -1.774006E+04
       288  23 -3.986779E+05 -7.378188E+04 -1.441576E+04 -1.729529E+05  2.182187E+04 -1.886977E+04
       288  24 -3.948660E+05 -7.834742E+04 -7.949086E+03 -1.788727E+05  1.367250E+04 -1.926729E+04
       288  25  1.563406E+04  7.032694E+04  6.560792E+04 -6.192546E+04  3.106832E+04 -1.722321E+04
       288  26 -2.459905E+04  6.468276E+04  6.949517E+04 -6.940817E+04  2.399390E+04 -1.805257E+04
       288  27 -5.775167E+04  4.514562E+04  6.740658E+04 -8.688587E+04  1.664594E+04 -1.814979E+04
       289   1 -7.026175E+05 -1.922231E+05 -7.481206E+04 -2.633755E+05 -9.186085E+03  1.918328E+04
       289   2 -6.690957E+05 -1.731868E+05 -6.365381E+04 -2.474235E+05 -6.541752E+03  1.726785E+04
       289   3 -6.262896E+05 -1.639550E+05 -5.380305E+04 -2.424287E+05 -3.883426E+03  1.531280E+04
       289   4 -3.945154E+05 -7.868649E+04 -6.006929E+03 -1.786016E+05 -1.196960E+04  1.813743E+04
       289   5 -3.991450E+05 -7.370075E+04 -3.295865E+03 -1.731544E+05 -9.367943E+03  1.620646E+04
       289   6 -3.944832E+05 -7.851044E+04 -1.857926E+03 -1.786644E+05 -6.752412E+03  1.423586E+04
       289   7 -8.631765E+04  3.485730E+04  6.279223E+04 -9.378925E+04 -1.475462E+04  1.709101E+04
       289   8 -1.291216E+05  2.579054E+04  5.705726E+04 -9.885599E+04 -1.219546E+04  1.514458E+04
       289   9 -1.626241E+05  6.937626E+03  5.008340E+04 -1.148788E+05 -9.622541E+03  1.315848E+04
       289  10 -7.026177E+05 -1.922235E+05 -7.481291E+04 -2.633754E+05 -5.552226E-11 -5.542664E-11
       289  11 -6.690959E+05 -1.731872E+05 -6.365445E+04 -2.474234E+05 -2.060204E-10  2.450130E-10
       289  12 -6.262897E+05 -1.639552E+05 -5.380351E+04 -2.424287E+05  2.287502E-10  5.267617E-12
       289  13 -3.945157E+05 -7.868688E+04 -6.007816E+03 -1.786015E+05 -7.976872E-12 -4.696990E-12
       289  14 -3.991451E+05 -7.370106E+04 -3.296523E+03 -1.731543E+05  2.262045E-10  6.363478E-11
       289  15 -3.944833E+05 -7.851067E+04 -1.858392E+03 -1.786643E+05  8.280753E-11 -1.943192E-10
       289  16 -8.631797E+04  3.485693E+04  6.279128E+04 -9.378904E+04  2.691962E-10  1.042927E-10
       289  17 -1.291218E+05  2.579025E+04  5.705655E+04 -9.885584E+04 -6.271805E-11 -1.373359E-10
       289  18 -1.626243E+05  6.937416E+03  5.008290E+04 -1.148787E+05 -2.187192E-10 -2.870695E-10
       289  19 -7.026175E+05 -1.922231E+05 -7.481206E+04 -2.633755E+05  9.186085E+03 -1.918328E+04
       289  20 -6.690957E+05 -1.731868E+05 -6.365381E+04 -2.474235E+05  6.541752E+03 -1.726785E+04
       289  21 -6.262896E+05 -1.639550E+05 -5.380305E+04 -2.424287E+05  3.883426E+03 -1.531280E+04
       289  22 -3.945154E+05 -7.868649E+04 -6.006929E+03 -1.786016E+05  1.196960E+04 -1.813743E+04
       289  23 -3.991450E+05 -7.370075E+04 -3.295865E+03 -1.731544E+05  9.367943E+03 -1.620646E+04
       289  24 -3.944832E+05 -7.851044E+04 -1.857926E+03 -1.786644E+05  6.752412E+03 -1.423586E+04
       289  25 -8.631765E+04  3.485730E+04  6.279223E+04 -9.378925E+04  1.475462E+04 -1.709101E+04
       289  26 -1.291216E+05  2.579054E+04  5.705726E+04 -9.885599E+04  1.219546E+04 -1.514458E+04
       289  27 -1.626241E+05  6.937626E+03  5.008340E+04 -1.148788E+05  9.622541E+03 -1.315848E+04
       290   1 -5.977755E+05 -1.534600E+05 -4.676678E+04 -2.346280E+05 -3.048244E+03  1.389516E+04
       290   2 -5.642700E+05 -1.345761E+05 -3.779658E+04 -2.185994E+05 -1.622855E+03  1.146009E+04
       290   3 -5.212278E+05 -1.252997E+05 -2.916062E+04 -2.135671E+05 -1.965721E+02  9.021130E+03
       290   4 -3.944348E+05 -7.852373E+04 -1.430505E+03 -1.786517E+05 -5.910513E+03  1.282097E+04
       290   5 -3.991995E+05 -7.371667E+04 -8.926783E+02 -1.731535E+05 -4.489268E+03  1.038464E+04
       290   6 -3.944292E+05 -7.851645E+04 -6.860160E+02 -1.786524E+05 -3.067163E+03  7.944415E+03
       290   7 -1.910510E+05 -3.583800E+03  4.390357E+04 -1.226581E+05 -8.773817E+03  1.174640E+04
       290   8 -2.341009E+05 -1.285492E+04  3.600969E+04 -1.276964E+05 -7.356516E+03  9.308876E+03
       290   9 -2.676143E+05 -3.173198E+04  2.778761E+04 -1.437311E+05 -5.938390E+03  6.867461E+03
       290  10 -5.977756E+05 -1.534602E+05 -4.676716E+04 -2.346280E+05 -2.304100E-11 -2.565145E-10
       290  11 -5.642700E+05 -1.345763E+05 -3.779683E+04 -2.185994E+05 -1.238837E-10  5.228014E-11
       290  12 -5.212278E+05 -1.252998E+05 -2.916078E+04 -2.135671E+05 -6.922652E-12  6.247083E-11
       290  13 -3.944349E+05 -7.852391E+04 -1.430879E+03 -1.786516E+05  1.589060E-10 -3.521103E-10
       290  14 -3.991995E+05 -7.371679E+04 -8.929187E+02 -1.731535E+05  3.416658E-10 -8.285393E-11
       290  15 -3.944292E+05 -7.851652E+04 -6.861522E+02 -1.786524E+05 -3.019619E-10  1.072626E-10
       290  16 -1.910511E+05 -3.583969E+03  4.390317E+04 -1.226580E+05  3.373882E-10 -1.386373E-10
       290  17 -2.341010E+05 -1.285502E+04  3.600943E+04 -1.276964E+05  5.599451E-13 -1.867398E-10
       290  18 -2.676144E+05 -3.173204E+04  2.778745E+04 -1.437310E+05 -5.086651E-12  3.306399E-10
       290  19 -5.977755E+05 -1.534600E+05 -4.676678E+04 -2.346280E+05  3.048244E+03 -1.389516E+04
       290  20 -5.642700E+05 -1.345761E+05 -3.779658E+04 -2.185994E+05  1.622855E+03 -1.146009E+04
       290  21 -5.212278E+05 -1.252997E+05 -2.916062E+04 -2.135671E+05  1.965721E+02 -9.021130E+03
       290  22 -3.944348E+05 -7.852373E+04 -1.430505E+03 -1.786517E+05  5.910513E+03 -1.282097E+04
       290  23 -3.991995E+05 -7.371667E+04 -8.926783E+02 -1.731535E+05  4.489268E+03 -1.038464E+04
       290  24 -3.944292E+05 -7.851645E+04 -6.860160E+02 -1.786524E+05  3.067163E+03 -7.944415E+03
       290  25 -1.910510E+05 -3.583800E+03  4.390357E+04 -1.226581E+05  8.773817E+03 -1.174640E+04
       290  26 -2.341009E+05 -1.285492E+04  3.600969E+04 -1.276964E+05  7.356516E+03 -9.308876E+03
       290  27 -2.676143E+05 -3.173198E+04  2.778761E+04 -1.437311E+05  5.938390E+03 -6.867461E+03
       291   1 -4.927179E+05 -1.147508E+05 -2.252942E+04 -2.057424E+05  4.881161E+02  7.545395E+03
       291   2 -4.591484E+05 -9.584230E+04 -1.425372E+04 -1.896925E+05  1.888086E+03  5.093411E+03
       291   3 -4.160339E+05 -8.655344E+04 -6.293753E+03 -1.846583E+05  3.287788E+03  2.641554E+03
       291   4 -3.944257E+05 -7.851859E+04 -6.783283E+02 -1.786562E+05 -2.383829E+03  6.468300E+03
       291   5 -3.991962E+05 -7.370412E+04 -8.461207E+02 -1.731496E+05 -9.837313E+02  4.016476E+03
       291   6 -3.944232E+05 -7.850945E+04 -1.329738E+03 -1.786591E+05  4.160744E+02  1.564765E+03
       291   7 -2.961243E+05 -4.228584E+04  2.117203E+04 -1.515664E+05 -5.256249E+03  5.391027E+03
       291   8 -3.392403E+05 -5.156565E+04  1.256129E+04 -1.566052E+05 -3.855849E+03  2.939427E+03
       291   9 -3.728118E+05 -7.046536E+04  3.634318E+03 -1.726598E+05 -2.455765E+03  4.879283E+02
       291  10 -4.927179E+05 -1.147509E+05 -2.252953E+04 -2.057424E+05  6.258171E-11  1.451741E-10
       291  11 -4.591484E+05 -9.584232E+04 -1.425377E+04 -1.896925E+05  2.419809E-10  1.836926E-10
       291  12 -4.160339E+05 -8.655345E+04 -6.293786E+03 -1.846583E+05  4.447307E-10  1.756482E-11
       291  13 -3.944257E+05 -7.851864E+04 -6.784176E+02 -1.786562E+05 -1.092027E-10  1.878964E-10
       291  14 -3.991962E+05 -7.370413E+04 -8.461528E+02 -1.731496E+05  3.590632E-12  3.242186E-11
       291  15 -3.944232E+05 -7.850945E+04 -1.329743E+03 -1.786591E+05  6.104570E-11 -1.072231E-10
       291  16 -2.961244E+05 -4.228588E+04  2.117192E+04 -1.515663E+05 -3.074377E-10  2.286623E-10
       291  17 -3.392403E+05 -5.156566E+04  1.256124E+04 -1.566052E+05 -1.003428E-10  1.342822E-10
       291  18 -3.728118E+05 -7.046536E+04  3.634306E+03 -1.726598E+05 -4.573546E-10 -1.682330E-10
       291  19 -4.927179E+05 -1.147508E+05 -2.252942E+04 -2.057424E+05 -4.881161E+02 -7.545395E+03
       291  20 -4.591484E+05 -9.584230E+04 -1.425372E+04 -1.896925E+05 -1.888086E+03 -5.093411E+03
       291  21 -4.160339E+05 -8.655344E+04 -6.293753E+03 -1.846583E+05 -3.287788E+03 -2.641554E+03
       291  22 -3.944257E+05 -7.851859E+04 -6.783283E+02 -1.786562E+05  2.383829E+03 -6.468300E+03
       291  23 -3.991962E+05 -7.370412E+04 -8.461207E+02 -1.731496E+05  9.837313E+02 -4.016476E+03
       291  24 -3.944232E+05 -7.850945E+04 -1.329738E+03 -1.786591E+05 -4.160744E+02 -1.564765E+03
       291  25 -2.961243E+05 -4.228584E+04  2.117203E+04 -1.515664E+05  5.256249E+03 -5.391027E+03
       291  26 -3.392403E+05 -5.156565E+04  1.256129E+04 -1.566052E+05  3.855849E+03 -2.939427E+03
       291  27 -3.728118E+05 -7.046536E+04  3.634318E+03 -1.726598E+05  2.455765E+03 -4.879283E+02
       292   1 -3.875154E+05 -7.601143E+04 -5.667909E+01 -1.768711E+05  4.116624E+03  1.217390E+03
       292   2 -3.538420E+05 -5.708139E+04  7.076815E+03 -1.607942E+05  6.584627E+03 -8.270903E+02
       292   3 -3.108332E+05 -4.797071E+04  1.304923E+04 -1.557367E+05  9.044830E+03 -2.850225E+03
       292   4 -3.944631E+05 -7.850223E+04 -1.720719E+03 -1.786797E+05  1.239270E+03  1.384913E+02
       292   5 -3.991390E+05 -7.366342E+04 -3.035593E+03 -1.731425E+05  3.730530E+03 -1.897350E+03
       292   6 -3.944855E+05 -7.864871E+04 -5.530018E+03 -1.786256E+05  6.213883E+03 -3.911875E+03
       292   7 -4.014107E+05 -8.099303E+04 -3.384726E+03 -1.804882E+05 -1.638048E+03 -9.403947E+02
       292   8 -4.444338E+05 -9.024523E+04 -1.314805E+04 -1.854901E+05  8.766679E+02 -2.967523E+03
       292   9 -4.781301E+05 -1.093260E+05 -2.410952E+04 -2.015114E+05  3.383367E+03 -4.973364E+03
       292  10 -3.875154E+05 -7.601143E+04 -5.671374E+01 -1.768711E+05 -1.252939E-10 -1.801867E-10
       292  11 -3.538421E+05 -5.708140E+04  7.076732E+03 -1.607941E+05 -2.312191E-10  1.355265E-10
       292  12 -3.108333E+05 -4.797074E+04  1.304906E+04 -1.557367E+05  7.940176E-11  1.775111E-10
       292  13 -3.944631E+05 -7.850223E+04 -1.720722E+03 -1.786797E+05  1.596750E-11 -8.673064E-11
       292  14 -3.991391E+05 -7.366343E+04 -3.035626E+03 -1.731425E+05 -1.013682E-10  7.060744E-11
       292  15 -3.944855E+05 -7.864874E+04 -5.530119E+03 -1.786255E+05 -1.039092E-10  1.164331E-10
       292  16 -4.014107E+05 -8.099303E+04 -3.384733E+03 -1.804882E+05  2.237478E-10  5.311771E-11
       292  17 -4.444338E+05 -9.024524E+04 -1.314807E+04 -1.854901E+05  1.312730E-10  1.175960E-10
       292  18 -4.781301E+05 -1.093260E+05 -2.410959E+04 -2.015114E+05 -2.149822E-10  1.136173E-10
       292  19 -3.875154E+05 -7.601143E+04 -5.667909E+01 -1.768711E+05 -4.116624E+03 -1.217390E+03
       292  20 -3.538420E+05 -5.708139E+04  7.076815E+03 -1.607942E+05 -6.584627E+03  8.270903E+02
       292  21 -3.108332E+05 -4.797071E+04  1.304923E+04 -1.557367E+05 -9.044830E+03  2.850225E+03
       292  22 -3.944631E+05 -7.850223E+04 -1.720719E+03 -1.786797E+05 -1.239270E+03 -1.384913E+02
       292  23 -3.991390E+05 -7.366342E+04 -3.035593E+03 -1.731425E+05 -3.730530E+03  1.897350E+03
       292  24 -3.944855E+05 -7.864871E+04 -5.530018E+03 -1.786256E+05 -6.213883E+03  3.911875E+03
       292  25 -4.014107E+05 -8.099303E+04 -3.384726E+03 -1.804882E+05  1.638048E+03  9.403947E+02
       292  26 -4.444338E+05 -9.024523E+04 -1.314805E+04 -1.854901E+05 -8.766679E+02  2.967523E+03
       292  27 -4.781301E+05 -1.093260E+05 -2.410952E+04 -2.015114E+05 -3.383367E+03  4.973364E+03
       293   1 -2.821036E+05 -3.761925E+04  1.787161E+04 -1.487423E+05  1.076560E+04 -3.964728E+03
       293   2 -2.486272E+05 -1.802127E+04  2.046864E+04 -1.312776E+05  1.791518E+04 -4.089157E+03
       293   3 -2.078905E+05 -1.210572E+04  1.734058E+04 -1.239915E+05  2.490678E+04 -3.789781E+03
       293   4 -3.948005E+05 -7.834212E+04 -7.316958E+03 -1.788836E+05  7.824276E+03 -5.067867E+03
       293   5 -3.987040E+05 -7.371267E+04 -1.326141E+04 -1.729479E+05  1.543832E+04 -5.018395E+03
       293   6 -3.954422E+05 -8.285930E+04 -2.530058E+04 -1.771921E+05  2.289395E+04 -4.545239E+03
       293   7 -5.074854E+05 -1.190644E+05 -3.250649E+04 -2.090202E+05  4.883509E+03 -6.170807E+03
       293   8 -5.487587E+05 -1.294025E+05 -4.699302E+04 -2.146091E+05  1.296210E+04 -5.947390E+03
       293   9 -5.829585E+05 -1.536098E+05 -6.794402E+04 -2.303778E+05  2.088178E+04 -5.300438E+03
       293  10 -2.821037E+05 -3.761930E+04  1.787136E+04 -1.487423E+05  2.631456E-10  7.285108E-11
       293  11 -2.486275E+05 -1.802138E+04  2.046801E+04 -1.312775E+05 -4.988747E-10 -1.277350E-10
       293  12 -2.078911E+05 -1.210590E+04  1.733938E+04 -1.239914E+05 -4.791014E-10 -1.015032E-10
       293  13 -3.948006E+05 -7.834217E+04 -7.317121E+03 -1.788836E+05  7.508591E-11  2.668665E-12
       293  14 -3.987043E+05 -7.371276E+04 -1.326191E+04 -1.729479E+05 -1.110738E-10 -4.826291E-11
       293  15 -3.954427E+05 -8.285946E+04 -2.530160E+04 -1.771920E+05 -3.576227E-11  9.184358E-11
       293  16 -5.074855E+05 -1.190645E+05 -3.250661E+04 -2.090201E+05 -1.751850E-12  5.468880E-11
       293  17 -5.487589E+05 -1.294025E+05 -4.699340E+04 -2.146091E+05 -3.334518E-12  1.824526E-10
       293  18 -5.829590E+05 -1.536100E+05 -6.794490E+04 -2.303777E+05  3.949730E-10  3.382016E-10
       293  19 -2.821036E+05 -3.761925E+04  1.787161E+04 -1.487423E+05 -1.076560E+04  3.964728E+03
       293  20 -2.486272E+05 -1.802127E+04  2.046864E+04 -1.312776E+05 -1.791518E+04  4.089157E+03
       293  21 -2.078905E+05 -1.210572E+04  1.734058E+04 -1.239915E+05 -2.490678E+04  3.789781E+03
       293  22 -3.948005E+05 -7.834212E+04 -7.316958E+03 -1.788836E+05 -7.824276E+03  5.067867E+03
       293  23 -3.987040E+05 -7.371267E+04 -1.326141E+04 -1.729479E+05 -1.543832E+04  5.018395E+03
       293  24 -3.954422E+05 -8.285930E+04 -2.530058E+04 -1.771921E+05 -2.289395E+04  4.545239E+03
       293  25 -5.074854E+05 -1.190644E+05 -3.250649E+04 -2.090202E+05 -4.883509E+03  6.170807E+03
       293  26 -5.487587E+05 -1.294025E+05 -4.699302E+04 -2.146091E+05 -1.296210E+04  5.947390E+03
       293  27 -5.829585E+05 -1.536098E+05 -6.794402E+04 -2.303778E+05 -2.088178E+04  5.300438E+03
       294   1 -1.725255E+05 -5.091581E+03  1.646590E+04 -1.332549E+05  3.183921E+04 -3.471814E+03
       294   2 -1.529276E+05  3.048970E+04  5.860992E+02 -8.145093E+04  5.366146E+04  5.171097E+03
       294   3 -1.593347E+05 -2.934797E+04 -5.524363E+04 -1.794764E+04  7.228278E+04  2.234859E+04
       294   4 -3.995958E+05 -7.561716E+04 -3.246471E+04 -1.820126E+05  2.757314E+04 -5.072017E+03
       294   5 -3.929622E+05 -7.874993E+04 -5.899001E+04 -1.684364E+05  5.877716E+04  7.088250E+03
       294   6 -4.142112E+05 -1.791887E+05 -1.329129E+05 -1.431597E+05  8.677837E+04  2.778127E+04
       294   7 -6.266140E+05 -1.461421E+05 -8.139809E+04 -2.307556E+05  2.330876E+04 -6.671815E+03
       294   8 -6.329354E+05 -1.879752E+05 -1.185696E+05 -2.553874E+05  6.389066E+04  9.004156E+03
       294   9 -6.690114E+05 -3.289882E+05 -2.105854E+05 -2.683135E+05  1.012672E+05  3.320824E+04
       294  10 -1.725266E+05 -5.091867E+03  1.646397E+04 -1.332548E+05 -4.391505E-11  3.285986E-11
       294  11 -1.529307E+05  3.048889E+04  5.806361E+02 -8.145115E+04 -1.974557E-10  3.256990E-11
       294  12 -1.593405E+05 -2.934991E+04 -5.525439E+04 -1.794894E+04  1.564160E-10  8.551884E-11
       294  13 -3.995967E+05 -7.561739E+04 -3.246619E+04 -1.820125E+05  3.311971E-12  2.713965E-10
       294  14 -3.929659E+05 -7.875091E+04 -5.899660E+04 -1.684368E+05  9.126924E-11  1.796659E-11
       294  15 -4.142195E+05 -1.791916E+05 -1.329285E+05 -1.431616E+05 -1.814019E-10  3.984010E-11
       294  16 -6.266146E+05 -1.461423E+05 -8.139919E+04 -2.307555E+05 -4.824245E-11  3.518502E-10
       294  17 -6.329399E+05 -1.879764E+05 -1.185774E+05 -2.553878E+05 -3.206982E-10  2.355983E-10
       294  18 -6.690227E+05 -3.289921E+05 -2.106068E+05 -2.683162E+05 -1.723064E-10  6.085482E-11
       294  19 -1.725255E+05 -5.091581E+03  1.646590E+04 -1.332549E+05 -3.183921E+04  3.471814E+03
       294  20 -1.529276E+05  3.048970E+04  5.860992E+02 -8.145093E+04 -5.366146E+04 -5.171097E+03
       294  21 -1.593347E+05 -2.934797E+04 -5.524363E+04 -1.794764E+04 -7.228278E+04 -2.234859E+04
       294  22 -3.995958E+05 -7.561716E+04 -3.246471E+04 -1.820126E+05 -2.757314E+04  5.072017E+03
       294  23 -3.929622E+05 -7.874993E+04 -5.899001E+04 -1.684364E+05 -5.877716E+04 -7.088250E+03
       294  24 -4.142112E+05 -1.791887E+05 -1.329129E+05 -1.431597E+05 -8.677837E+04 -2.778127E+04
       294  25 -6.266140E+05 -1.461421E+05 -8.139809E+04 -2.307556E+05 -2.330876E+04  6.671815E+03
       294  26 -6.329354E+05 -1.879752E+05 -1.185696E+05 -2.553874E+05 -6.389066E+04 -9.004156E+03
       294  27 -6.690114E+05 -3.289882E+05 -2.105854E+05 -2.683135E+05 -1.012672E+05 -3.320824E+04
       295   1 -5.564225E+05 -1.424987E+05 -1.209179E+05 -2.195653E+04  2.108757E+04  1.254361E+04
       295   2 -4.749990E+05 -1.925871E+05 -1.291326E+05 -3.607071E+04  2.524057E+04  4.015310E+04
       295   3 -3.782073E+05 -1.798074E+05 -1.243054E+05 -7.761787E+04  2.941111E+04  4.384074E+04
       295   4  3.573885E+05  8.398875E+04  9.795914E+04 -6.723375E+04  6.765562E+04  1.256904E+04
       295   5  3.473076E+05  6.845463E+03  4.572523E+04 -5.350127E+04  4.367182E+04  4.015580E+04
       295   6  3.574476E+05 -2.592901E+03  2.605217E+04 -6.719785E+04  1.970650E+04  4.383542E+04
       295   7  1.271974E+06  3.104246E+05  3.167864E+05 -1.125780E+05  1.142919E+05  1.258766E+04
       295   8  1.170253E+06  2.062355E+05  2.205457E+05 -7.095531E+04  6.212710E+04  4.015747E+04
       295   9  1.093617E+06  1.745881E+05  1.763815E+05 -5.676524E+04  9.990583E+03  4.382977E+04
       295  10 -5.564230E+05 -1.424990E+05 -1.209190E+05 -2.195675E+04 -7.997393E-10  2.027594E-10
       295  11 -4.750001E+05 -1.925890E+05 -1.291368E+05 -3.607153E+04  4.830820E-10 -2.238389E-12
       295  12 -3.782088E+05 -1.798097E+05 -1.243106E+05 -7.761890E+04  6.343518E-11  9.292705E-11
       295  13  3.573835E+05  8.398735E+04  9.795024E+04 -6.723443E+04 -1.886956E-11 -1.150088E-10
       295  14  3.473051E+05  6.843220E+03  4.571861E+04 -5.350268E+04  5.396559E-10  2.020981E-10
       295  15  3.574466E+05 -2.595069E+03  2.604783E+04 -6.719854E+04 -2.096971E-10  5.634336E-11
       295  16  1.271960E+06  3.104209E+05  3.167616E+05 -1.125792E+05 -1.389660E-10  3.651579E-10
       295  17  1.170248E+06  2.062327E+05  2.205355E+05 -7.095732E+04 -2.338893E-10  1.726740E-10
       295  18  1.093617E+06  1.745861E+05  1.763777E+05 -5.676560E+04 -1.286585E-10 -5.117846E-13
       295  19 -5.564225E+05 -1.424987E+05 -1.209179E+05 -2.195653E+04 -2.108757E+04 -1.254361E+04
       295  20 -4.749990E+05 -1.925871E+05 -1.291326E+05 -3.607071E+04 -2.524057E+04 -4.015310E+04
       295  21 -3.782073E+05 -1.798074E+05 -1.243054E+05 -7.761787E+04 -2.941111E+04 -4.384074E+04
       295  22  3.573885E+05  8.398875E+04  9.795914E+04 -6.723375E+04 -6.765562E+04 -1.256904E+04
       295  23  3.473076E+05  6.845463E+03  4.572523E+04 -5.350127E+04 -4.367182E+04 -4.015580E+04
       295  24  3.574476E+05 -2.592901E+03  2.605217E+04 -6.719785E+04 -1.970650E+04 -4.383542E+04
       295  25  1.271974E+06  3.104246E+05  3.167864E+05 -1.125780E+05 -1.142919E+05 -1.258766E+04
       295  26  1.170253E+06  2.062355E+05  2.205457E+05 -7.095531E+04 -6.212710E+04 -4.015747E+04
       295  27  1.093617E+06  1.745881E+05  1.763815E+05 -5.676524E+04 -9.990583E+03 -4.382977E+04
       296   1 -3.173515E+05 -1.583478E+05 -1.170671E+05 -6.642975E+04  2.009721E+04  3.949945E+04
       296   2 -2.293612E+05 -1.400150E+05 -1.070915E+05 -5.297518E+04  1.602693E+04  3.550179E+04
       296   3 -1.400635E+05 -1.189156E+05 -9.375392E+04 -6.809910E+04  1.195312E+04  3.021642E+04
       296   4  3.533175E+05  3.272312E+03  2.035868E+04 -6.746132E+04  1.616686E+04  3.949579E+04
       296   5  3.525543E+05  2.098222E+01  1.119773E+04 -5.317314E+04  1.057708E+04  3.549953E+04
       296   6  3.533513E+05 -2.017720E+02  6.450222E+03 -6.746169E+04  4.984321E+03  3.021614E+04
       296   7  1.024414E+06  1.648642E+05  1.577606E+05 -6.849400E+04  1.223233E+04  3.949215E+04
       296   8  9.347919E+05  1.400359E+05  1.294694E+05 -5.337127E+04  5.122206E+03  3.549728E+04
       296   9  8.469979E+05  1.184969E+05  1.066418E+05 -6.682374E+04 -1.989916E+03  3.021585E+04
       296  10 -3.173523E+05 -1.583496E+05 -1.170708E+05 -6.643039E+04 -8.102503E-10  2.239514E-11
       296  11 -2.293618E+05 -1.400164E+05 -1.070943E+05 -5.297563E+04 -2.349805E-10  3.555518E-10
       296  12 -1.400639E+05 -1.189166E+05 -9.375590E+04 -6.809939E+04  2.959868E-10  1.594345E-10
       296  13  3.533168E+05  3.270567E+03  2.035526E+04 -6.746183E+04 -3.241658E-10 -4.212361E-11
       296  14  3.525538E+05  1.959869E+01  1.119515E+04 -5.317344E+04  4.059931E-10  1.803538E-10
       296  15  3.533511E+05 -2.027593E+02  6.448459E+03 -6.746181E+04 -5.177909E-10  7.680316E-11
       296  16  1.024413E+06  1.648625E+05  1.577574E+05 -6.849439E+04 -2.815005E-10 -1.562881E-10
       296  17  9.347915E+05  1.400345E+05  1.294669E+05 -5.337142E+04 -2.958518E-10 -1.175702E-10
       296  18  8.469976E+05  1.184959E+05  1.066401E+05 -6.682369E+04 -1.446466E-10 -8.086740E-11
       296  19 -3.173515E+05 -1.583478E+05 -1.170671E+05 -6.642975E+04 -2.009721E+04 -3.949945E+04
       296  20 -2.293612E+05 -1.400150E+05 -1.070915E+05 -5.297518E+04 -1.602693E+04 -3.550179E+04
       296  21 -1.400635E+05 -1.189156E+05 -9.375392E+04 -6.809910E+04 -1.195312E+04 -3.021642E+04
       296  22  3.533175E+05  3.272312E+03  2.035868E+04 -6.746132E+04 -1.616686E+04 -3.949579E+04
       296  23  3.525543E+05  2.098222E+01  1.119773E+04 -5.317314E+04 -1.057708E+04 -3.549953E+04
       296  24  3.533513E+05 -2.017720E+02  6.450222E+03 -6.746169E+04 -4.984321E+03 -3.021614E+04
       296  25  1.024414E+06  1.648642E+05  1.577606E+05 -6.849400E+04 -1.223233E+04 -3.949215E+04
       296  26  9.347919E+05  1.400359E+05  1.294694E+05 -5.337127E+04 -5.122206E+03 -3.549728E+04
       296  27  8.469979E+05  1.184969E+05  1.066418E+05 -6.682374E+04  1.989916E+03 -3.021585E+04
       297   1 -7.622620E+04 -1.031463E+05 -8.186513E+04 -6.756285E+04  1.063296E+04  2.679236E+04
       297   2  1.215132E+04 -8.199683E+04 -6.618642E+04 -5.322040E+04  9.305721E+03  2.109896E+04
       297   3  1.007523E+05 -6.070118E+04 -4.960565E+04 -6.746801E+04  7.976297E+03  1.533836E+04
       297   4  3.530679E+05  5.921940E+01  4.927739E+03 -6.746442E+04  3.978965E+03  2.679289E+04
       297   5  3.529628E+05 -4.165890E+01  2.843253E+03 -5.316989E+04  2.571376E+03  2.110058E+04
       297   6  3.530871E+05  1.777076E+01  1.716093E+03 -6.746450E+04  1.161787E+03  1.534112E+04
       297   7  7.825377E+05  1.032534E+05  9.171125E+04 -6.736589E+04 -2.679546E+03  2.679342E+04
       297   8  6.938849E+05  8.190632E+04  7.186708E+04 -5.311934E+04 -4.166596E+03  2.110220E+04
       297   9  6.054827E+05  6.073278E+04  5.303468E+04 -6.746097E+04 -5.655440E+03  1.534388E+04
       297  10 -7.622652E+04 -1.031471E+05 -8.186669E+04 -6.756308E+04  1.590881E-10 -1.081612E-10
       297  11  1.215111E+04 -8.199733E+04 -6.618742E+04 -5.322055E+04 -9.192797E-11  1.431516E-10
       297  12  1.007521E+05 -6.070145E+04 -4.960621E+04 -6.746811E+04 -9.472727E-11 -4.032251E-11
       297  13  3.530677E+05  5.844415E+01  4.926360E+03 -6.746450E+04  1.262021E-11  6.335990E-11
       297  14  3.529627E+05 -4.213887E+01  2.842404E+03 -5.316993E+04  9.631478E-11  2.113555E-10
       297  15  3.530871E+05  1.751763E+01  1.715648E+03 -6.746451E+04 -2.385750E-10  4.680662E-10
       297  16  7.825375E+05  1.032526E+05  9.170989E+04 -6.736584E+04 -5.624175E-10 -3.139264E-11
       297  17  6.938848E+05  8.190583E+04  7.186621E+04 -5.311927E+04  2.202124E-10 -4.555018E-11
       297  18  6.054826E+05  6.073252E+04  5.303418E+04 -6.746090E+04  1.694402E-10  1.431111E-10
       297  19 -7.622620E+04 -1.031463E+05 -8.186513E+04 -6.756285E+04 -1.063296E+04 -2.679236E+04
       297  20  1.215132E+04 -8.199683E+04 -6.618642E+04 -5.322040E+04 -9.305721E+03 -2.109896E+04
       297  21  1.007523E+05 -6.070118E+04 -4.960565E+04 -6.746801E+04 -7.976297E+03 -1.533836E+04
       297  22  3.530679E+05  5.921940E+01  4.927739E+03 -6.746442E+04 -3.978965E+03 -2.679289E+04
       297  23  3.529628E+05 -4.165890E+01  2.843253E+03 -5.316989E+04 -2.571376E+03 -2.110058E+04
       297  24  3.530871E+05  1.777076E+01  1.716093E+03 -6.746450E+04 -1.161787E+03 -1.534112E+04
       297  25  7.825377E+05  1.032534E+05  9.171125E+04 -6.736589E+04  2.679546E+03 -2.679342E+04
       297  26  6.938849E+05  8.190632E+04  7.186708E+04 -5.311934E+04  4.166596E+03 -2.110220E+04
       297  27  6.054827E+05  6.073278E+04  5.303468E+04 -6.746097E+04  5.655440E+03 -1.534388E+04
       298   1  1.647264E+05 -4.520269E+04 -3.653506E+04 -6.745214E+04  7.677314E+03  1.196815E+04
       298   2  2.531282E+05 -2.399350E+04 -1.926317E+04 -5.316567E+04  7.202909E+03  6.188993E+03
       298   3  3.415789E+05 -2.753137E+03 -1.682397E+03 -6.744683E+04  6.727859E+03  4.069853E+02
       298   4  3.530517E+05  3.201617E+01  1.366638E+03 -6.745965E+04  8.809658E+02  1.197133E+04
       298   5  3.530328E+05  2.595593E+01  9.631196E+02 -5.317597E+04  4.026940E+02  6.192482E+03
       298   6  3.530573E+05  5.245332E+01  8.715126E+02 -6.745965E+04 -7.615692E+01  4.108088E+02
       298   7  5.414109E+05  4.526456E+04  3.926670E+04 -6.746715E+04 -5.917403E+03  1.197451E+04
       298   8  4.529470E+05  2.404481E+04  2.118907E+04 -5.318626E+04 -6.398594E+03  6.195971E+03
       298   9  3.645358E+05  2.858059E+03  3.425588E+03 -6.747246E+04 -6.880298E+03  4.146324E+02
       298  10  1.647263E+05 -4.520286E+04 -3.653544E+04 -6.745221E+04  5.039585E-10  1.200574E-10
       298  11  2.531281E+05 -2.399355E+04 -1.926334E+04 -5.316570E+04  3.985779E-10 -5.419470E-11
       298  12  3.415789E+05 -2.753149E+03 -1.682483E+03 -6.744683E+04 -3.935319E-10 -2.190396E-10
       298  13  3.530516E+05  3.186204E+01  1.366367E+03 -6.745965E+04  5.530891E-11 -2.288187E-10
       298  14  3.530328E+05  2.591470E+01  9.630472E+02 -5.317597E+04  7.613949E-10  1.044605E-10
       298  15  3.530573E+05  5.245313E+01  8.715123E+02 -6.745965E+04  6.646421E-11 -3.241112E-10
       298  16  5.414108E+05  4.526439E+04  3.926636E+04 -6.746709E+04 -4.093146E-10  2.445983E-10
       298  17  4.529469E+05  2.404476E+04  2.118892E+04 -5.318623E+04 -1.402024E-10 -4.987447E-11
       298  18  3.645358E+05  2.858047E+03  3.425499E+03 -6.747246E+04 -1.797956E-10 -4.071269E-10
       298  19  1.647264E+05 -4.520269E+04 -3.653506E+04 -6.745214E+04 -7.677314E+03 -1.196815E+04
       298  20  2.531282E+05 -2.399350E+04 -1.926317E+04 -5.316567E+04 -7.202909E+03 -6.188993E+03
       298  21  3.415789E+05 -2.753137E+03 -1.682397E+03 -6.744683E+04 -6.727859E+03 -4.069853E+02
       298  22  3.530517E+05  3.201617E+01  1.366638E+03 -6.745965E+04 -8.809658E+02 -1.197133E+04
       298  23  3.530328E+05  2.595593E+01  9.631196E+02 -5.317597E+04 -4.026940E+02 -6.192482E+03
       298  24  3.530573E+05  5.245332E+01  8.715126E+02 -6.745965E+04  7.615692E+01 -4.108088E+02
       298  25  5.414109E+05  4.526456E+04  3.926670E+04 -6.746715E+04  5.917403E+03 -1.197451E+04
       298  26  4.529470E+05  2.404481E+04  2.118907E+04 -5.318626E+04  6.398594E+03 -6.195971E+03
       298  27  3.645358E+05  2.858059E+03  3.425588E+03 -6.747246E+04  6.880298E+03 -4.146324E+02
       299   1  4.055825E+05  1.272404E+04  1.178804E+04 -6.746787E+04  6.562904E+03 -2.959016E+03
       299   2  4.939917E+05  3.390254E+04  2.979175E+04 -5.316851E+04  5.936269E+03 -8.740410E+03
       299   3  5.824764E+05  5.511779E+04  4.820551E+04 -6.743812E+04  5.310365E+03 -1.451913E+04
       299   4  3.530618E+05  5.202460E+01  9.261043E+02 -6.746009E+04 -2.416597E+02 -2.955233E+03
       299   5  3.530247E+05  1.576133E+01  1.256548E+03 -5.317541E+04 -8.655250E+02 -8.737093E+03
       299   6  3.530539E+05  1.585343E+01  1.994910E+03 -6.746009E+04 -1.488573E+03 -1.451625E+04
       299   7  3.005438E+05 -1.262014E+04 -9.935803E+03 -6.745232E+04 -7.045658E+03 -2.951449E+03
       299   8  2.120768E+05 -3.387222E+04 -2.727951E+04 -5.318230E+04 -7.665805E+03 -8.733775E+03
       299   9  1.236816E+05 -5.508931E+04 -4.421822E+04 -6.748203E+04 -8.285049E+03 -1.451338E+04
       299  10  4.055825E+05  1.272402E+04  1.178794E+04 -6.746785E+04 -8.074557E-11  2.139900E-11
       299  11  4.939916E+05  3.390244E+04  2.979154E+04 -5.316847E+04  3.372450E-10  4.948962E-10
       299  12  5.824763E+05  5.511755E+04  4.820506E+04 -6.743806E+04 -6.605371E-11 -2.922145E-10
       299  13  3.530618E+05  5.201520E+01  9.260878E+02 -6.746009E+04  8.367998E-12 -1.791393E-10
       299  14  3.530247E+05  1.567915E+01  1.256403E+03 -5.317542E+04 -9.653468E-12 -4.498639E-10
       299  15  3.530538E+05  1.562652E+01  1.994509E+03 -6.746010E+04 -2.674090E-10  4.532642E-11
       299  16  3.005437E+05 -1.262016E+04 -9.935912E+03 -6.745233E+04  4.083876E-10 -7.329717E-11
       299  17  2.120767E+05 -3.387232E+04 -2.727976E+04 -5.318236E+04  2.573034E-10 -3.532608E-10
       299  18  1.236815E+05 -5.508955E+04 -4.421874E+04 -6.748213E+04 -4.262725E-10  7.018936E-12
       299  19  4.055825E+05  1.272404E+04  1.178804E+04 -6.746787E+04 -6.562904E+03  2.959016E+03
       299  20  4.939917E+05  3.390254E+04  2.979175E+04 -5.316851E+04 -5.936269E+03  8.740410E+03
       299  21  5.824764E+05  5.511779E+04  4.820551E+04 -6.743812E+04 -5.310365E+03  1.451913E+04
       299  22  3.530618E+05  5.202460E+01  9.261043E+02 -6.746009E+04  2.416597E+02  2.955233E+03
       299  23  3.530247E+05  1.576133E+01  1.256548E+03 -5.317541E+04  8.655250E+02  8.737093E+03
       299  24  3.530539E+05  1.585343E+01  1.994910E+03 -6.746009E+04  1.488573E+03  1.451625E+04
       299  25  3.005438E+05 -1.262014E+04 -9.935803E+03 -6.745232E+04  7.045658E+03  2.951449E+03
       299  26  2.120768E+05 -3.387222E+04 -2.727951E+04 -5.318230E+04  7.665805E+03  8.733775E+03
       299  27  1.236816E+05 -5.508931E+04 -4.421822E+04 -6.748203E+04  8.285049E+03  1.451338E+04
       300   1  6.465833E+05  7.058220E+04  6.220750E+04 -6.741264E+04  4.914908E+03 -1.788903E+04
       300   2  7.349443E+05  9.174404E+04  8.173129E+04 -5.303542E+04  2.657013E+03 -2.364704E+04
       300   3  8.236849E+05  1.131586E+05  1.027891E+05 -6.725294E+04  4.010386E+02 -2.933524E+04
       300   4  3.531117E+05 -4.484097E+00  2.576458E+03 -6.746598E+04 -1.903895E+03 -1.788666E+04
       300   5  3.529219E+05 -8.061247E+01  4.389992E+03 -5.316802E+04 -4.078850E+03 -2.364593E+04
       300   6  3.530901E+05  8.222096E+01  7.680830E+03 -6.746585E+04 -6.251573E+03 -2.933536E+04
       300   7  5.972212E+04 -7.059651E+04 -5.705890E+04 -6.751928E+04 -8.719538E+03 -1.788428E+04
       300   8 -2.896166E+04 -9.191430E+04 -7.295870E+04 -5.330051E+04 -1.081065E+04 -2.364482E+04
       300   9 -1.172940E+05 -1.130079E+05 -8.743867E+04 -6.767858E+04 -1.289924E+04 -2.933546E+04
       300  10  6.465831E+05  7.058185E+04  6.220685E+04 -6.741257E+04  5.044348E-10 -3.925470E-10
       300  11  7.349441E+05  9.174344E+04  8.173022E+04 -5.303537E+04  5.903241E-11 -1.621814E-10
       300  12  8.236846E+05  1.131577E+05  1.027874E+05 -6.725293E+04 -4.277620E-10  5.101708E-11
       300  13  3.531116E+05 -4.828683E+00  2.575850E+03 -6.746601E+04 -6.785405E-11  5.831053E-11
       300  14  3.529217E+05 -8.121745E+01  4.388910E+03 -5.316809E+04  5.649636E-12 -2.537598E-10
       300  15  3.530898E+05  8.128620E+01  7.679139E+03 -6.746600E+04  4.740657E-10  2.053315E-11
       300  16  5.972195E+04 -7.059687E+04 -5.705965E+04 -6.751941E+04 -1.162108E-10  5.933187E-11
       300  17 -2.896193E+04 -9.191493E+04 -7.295997E+04 -5.330071E+04  4.161895E-10  3.042528E-10
       300  18 -1.172944E+05 -1.130088E+05 -8.744060E+04 -6.767889E+04  6.065881E-10  2.413353E-10
       300  19  6.465833E+05  7.058220E+04  6.220750E+04 -6.741264E+04 -4.914908E+03  1.788903E+04
       300  20  7.349443E+05  9.174404E+04  8.173129E+04 -5.303542E+04 -2.657013E+03  2.364704E+04
       300  21  8.236849E+05  1.131586E+05  1.027891E+05 -6.725294E+04 -4.010386E+02  2.933524E+04
       300  22  3.531117E+05 -4.484097E+00  2.576458E+03 -6.746598E+04  1.903895E+03  1.788666E+04
       300  23  3.529219E+05 -8.061247E+01  4.389992E+03 -5.316802E+04  4.078850E+03  2.364593E+04
       300  24  3.530901E+05  8.222096E+01  7.680830E+03 -6.746585E+04  6.251573E+03  2.933536E+04
       300  25  5.972212E+04 -7.059651E+04 -5.705890E+04 -6.751928E+04  8.719538E+03  1.788428E+04
       300  26 -2.896166E+04 -9.191430E+04 -7.295870E+04 -5.330051E+04  1.081065E+04  2.364482E+04
       300  27 -1.172940E+05 -1.130079E+05 -8.743867E+04 -6.767858E+04  1.289924E+04  2.933546E+04
       301   1  8.883296E+05  1.282642E+05  1.185917E+05 -6.640374E+04 -8.376253E+02 -3.276092E+04
       301   2  9.757287E+05  1.499655E+05  1.441468E+05 -5.344342E+04 -1.117790E+04 -3.802247E+04
       301   3  1.065819E+06  1.766715E+05  1.776974E+05 -6.906723E+04 -2.151654E+04 -4.194203E+04
       301   4  3.535333E+05 -3.215214E+02  1.007255E+04 -6.746357E+04 -7.819488E+03 -3.276194E+04
       301   5  3.523083E+05  5.306586E+01  1.752480E+04 -5.317059E+04 -1.657183E+04 -3.802549E+04
       301   6  3.534965E+05  5.161062E+03  3.187688E+04 -6.746334E+04 -2.532111E+04 -4.194643E+04
       301   7 -1.809909E+05 -1.289250E+05 -9.846132E+04 -6.852244E+04 -1.479545E+04 -3.276294E+04
       301   8 -2.707428E+05 -1.498835E+05 -1.091174E+05 -5.289804E+04 -2.196044E+04 -3.802852E+04
       301   9 -3.583449E+05 -1.663812E+05 -1.139706E+05 -6.586132E+04 -2.912138E+04 -4.195085E+04
       301  10  8.883293E+05  1.282631E+05  1.185897E+05 -6.640377E+04 -2.056164E-10  2.533689E-10
       301  11  9.757282E+05  1.499639E+05  1.441439E+05 -5.344376E+04 -3.862248E-10  1.259305E-10
       301  12  1.065818E+06  1.766695E+05  1.776933E+05 -6.906795E+04 -8.882001E-11 -1.168663E-10
       301  13  3.535330E+05 -3.226906E+02  1.007042E+04 -6.746378E+04  2.692840E-10  2.355173E-10
       301  14  3.523076E+05  5.143919E+01  1.752157E+04 -5.317110E+04 -2.319865E-10 -9.681386E-11
       301  15  3.534953E+05  5.159000E+03  3.187237E+04 -6.746420E+04  3.180404E-10 -1.418945E-10
       301  16 -1.809915E+05 -1.289262E+05 -9.846375E+04 -6.852284E+04  3.119097E-10  2.040340E-10
       301  17 -2.707437E+05 -1.498852E+05 -1.091210E+05 -5.289871E+04 -9.654737E-11 -2.565774E-10
       301  18 -3.583463E+05 -1.663833E+05 -1.139755E+05 -6.586231E+04  2.588030E-10 -1.888253E-10
       301  19  8.883296E+05  1.282642E+05  1.185917E+05 -6.640374E+04  8.376253E+02  3.276092E+04
       301  20  9.757287E+05  1.499655E+05  1.441468E+05 -5.344342E+04  1.117790E+04  3.802247E+04
       301  21  1.065819E+06  1.766715E+05  1.776974E+05 -6.906723E+04  2.151654E+04  4.194203E+04
       301  22  3.535333E+05 -3.215214E+02  1.007255E+04 -6.746357E+04  7.819488E+03  3.276194E+04
       301  23  3.523083E+05  5.306586E+01  1.752480E+04 -5.317059E+04  1.657183E+04  3.802549E+04
       301  24  3.534965E+05  5.161062E+03  3.187688E+04 -6.746334E+04  2.532111E+04  4.194643E+04
       301  25 -1.809909E+05 -1.289250E+05 -9.846132E+04 -6.852244E+04  1.479545E+04  3.276294E+04
       301  26 -2.707428E+05 -1.498835E+05 -1.091174E+05 -5.289804E+04  2.196044E+04  3.802852E+04
       301  27 -3.583449E+05 -1.663812E+05 -1.139706E+05 -6.586132E+04  2.912138E+04  4.195085E+04
       302   1  1.137415E+06  1.831010E+05  1.995238E+05 -5.086365E+04 -2.102738E+04 -4.632371E+04
       302   2  1.208344E+06  2.201522E+05  2.551504E+05 -8.091818E+04 -8.797822E+04 -4.225090E+04
       302   3  1.315917E+06  3.682166E+05  3.821092E+05 -1.383966E+05 -1.549643E+05 -1.323998E+04
       302   4  3.599612E+05 -4.012554E+03  4.079440E+04 -6.718746E+04 -3.086290E+04 -4.633031E+04
       302   5  3.441372E+05  1.079518E+04  7.162315E+04 -5.351353E+04 -6.840325E+04 -4.224947E+04
       302   6  3.598924E+05  1.315919E+05  1.534255E+05 -6.725653E+04 -1.059659E+05 -1.322423E+04
       302   7 -4.169181E+05 -1.911628E+05 -1.179664E+05 -8.349051E+04 -4.068634E+04 -4.633640E+04
       302   8 -5.193644E+05 -1.986072E+05 -1.119450E+05 -2.614759E+04 -4.885503E+04 -4.224632E+04
       302   9 -5.952797E+05 -1.050785E+05 -7.531096E+04  3.773603E+03 -5.704230E+04 -1.319727E+04
       302  10  1.137414E+06  1.830985E+05  1.995189E+05 -5.086443E+04 -5.958142E-10  1.667595E-10
       302  11  1.208335E+06  2.201482E+05  2.551325E+05 -8.092117E+04 -1.755408E-10  5.209428E-10
       302  12  1.315891E+06  3.682100E+05  3.820638E+05 -1.383982E+05  4.191915E-10  6.023462E-11
       302  13  3.599596E+05 -4.015115E+03  4.078857E+04 -6.718862E+04 -1.616305E-10  4.112889E-10
       302  14  3.441317E+05  1.079201E+04  7.161101E+04 -5.351585E+04 -1.986696E-10  1.335466E-09
       302  15  3.598803E+05  1.315887E+05  1.534041E+05 -6.725766E+04 -2.453580E-10  1.065200E-10
       302  16 -4.169204E+05 -1.911656E+05 -1.179735E+05 -8.349203E+04  5.911308E-10  1.596440E-10
       302  17 -5.193675E+05 -1.986098E+05 -1.119528E+05 -2.614926E+04 -1.390406E-10  4.647886E-10
       302  18 -5.952832E+05 -1.050795E+05 -7.531741E+04  3.772996E+03  1.007415E-10 -1.483126E-10
       302  19  1.137415E+06  1.831010E+05  1.995238E+05 -5.086365E+04  2.102738E+04  4.632371E+04
       302  20  1.208344E+06  2.201522E+05  2.551504E+05 -8.091818E+04  8.797822E+04  4.225090E+04
       302  21  1.315917E+06  3.682166E+05  3.821092E+05 -1.383966E+05  1.549643E+05  1.323998E+04
       302  22  3.599612E+05 -4.012554E+03  4.079440E+04 -6.718746E+04  3.086290E+04  4.633031E+04
       302  23  3.441372E+05  1.079518E+04  7.162315E+04 -5.351353E+04  6.840325E+04  4.224947E+04
       302  24  3.598924E+05  1.315919E+05  1.534255E+05 -6.725653E+04  1.059659E+05  1.322423E+04
       302  25 -4.169181E+05 -1.911628E+05 -1.179664E+05 -8.349051E+04  4.068634E+04  4.633640E+04
       302  26 -5.193644E+05 -1.986072E+05 -1.119450E+05 -2.614759E+04  4.885503E+04  4.224632E+04
       302  27 -5.952797E+05 -1.050785E+05 -7.531096E+04  3.773603E+03  5.704230E+04  1.319727E+04
       303   1  2.452690E+05  9.616324E+05  2.493916E+05 -2.279091E+05  7.775467E+03  7.374821E+04
       303   2  1.259448E+05  6.942793E+05  1.390147E+05 -1.677223E+05  2.102588E+04  3.226596E+04
       303   3  5.689865E+04  4.448039E+05  6.815184E+04 -1.897377E+05  1.286806E+04 -9.218718E+03
       303   4  5.720015E+04  2.043532E+05  6.620907E+04 -1.963758E+05  7.812402E+03  4.557750E+04
       303   5  5.044519E+03  1.976625E+05  3.105001E+04 -1.553099E+05  2.103144E+04  2.931815E+04
       303   6 -1.178806E+03  2.044382E+05  1.792961E+04 -1.964424E+05  1.283702E+04  1.303897E+04
       303   7 -1.309066E+05 -5.523987E+05 -1.170112E+05 -1.648808E+05  7.846508E+03  1.744097E+04
       303   8 -1.158716E+05 -2.987230E+05 -7.692928E+04 -1.429074E+05  2.103689E+04  2.637265E+04
       303   9 -5.925951E+04 -3.587175E+04 -3.229393E+04 -2.031444E+05  1.280549E+04  3.528818E+04
       303  10  2.452675E+05  9.616265E+05  2.493813E+05 -2.279095E+05 -2.721996E-11  6.010607E-11
       303  11  1.259441E+05  6.942781E+05  1.390119E+05 -1.677229E+05 -2.340161E-10  6.891600E-10
       303  12  5.689845E+04  4.448038E+05  6.815137E+04 -1.897376E+05  7.180600E-10  5.124357E-11
       303  13  5.719952E+04  2.043510E+05  6.620505E+04 -1.963760E+05  5.783488E-10 -2.553374E-10
       303  14  5.043813E+03  1.976614E+05  3.104756E+04 -1.553104E+05 -8.176968E-10  2.052215E-10
       303  15 -1.179028E+03  2.044380E+05  1.792898E+04 -1.964425E+05  2.878695E-10  1.116348E-10
       303  16 -1.309067E+05 -5.523990E+05 -1.170119E+05 -1.648809E+05 -9.891927E-11  1.398399E-10
       303  17 -1.158722E+05 -2.987238E+05 -7.693142E+04 -1.429078E+05  3.218303E-10 -3.669393E-10
       303  18 -5.926002E+04 -3.587313E+04 -3.229658E+04 -2.031448E+05 -2.361590E-10  1.691602E-10
       303  19  2.452690E+05  9.616324E+05  2.493916E+05 -2.279091E+05 -7.775467E+03 -7.374821E+04
       303  20  1.259448E+05  6.942793E+05  1.390147E+05 -1.677223E+05 -2.102588E+04 -3.226596E+04
       303  21  5.689865E+04  4.448039E+05  6.815184E+04 -1.897377E+05 -1.286806E+04  9.218718E+03
       303  22  5.720015E+04  2.043532E+05  6.620907E+04 -1.963758E+05 -7.812402E+03 -4.557750E+04
       303  23  5.044519E+03  1.976625E+05  3.105001E+04 -1.553099E+05 -2.103144E+04 -2.931815E+04
       303  24 -1.178806E+03  2.044382E+05  1.792961E+04 -1.964424E+05 -1.283702E+04 -1.303897E+04
       303  25 -1.309066E+05 -5.523987E+05 -1.170112E+05 -1.648808E+05 -7.846508E+03 -1.744097E+04
       303  26 -1.158716E+05 -2.987230E+05 -7.692928E+04 -1.429074E+05 -2.103689E+04 -2.637265E+04
       303  27 -5.925951E+04 -3.587175E+04 -3.229393E+04 -2.031444E+05 -1.280549E+04 -3.528818E+04
       304   1  1.562026E+04  2.543747E+05  2.576476E+04 -1.974949E+05  2.105475E+03 -6.916736E+03
       304   2 -4.899717E+04 -4.227638E+03 -3.344678E+04 -1.549568E+05 -1.246883E+04 -1.043988E+04
       304   3 -1.112818E+05 -2.619259E+05 -8.984147E+04 -1.956680E+05 -2.648269E+04 -1.395789E+04
       304   4  2.765292E+03  2.016687E+05  1.419579E+04 -1.966610E+05  2.080332E+03  1.056152E+04
       304   5  4.365241E+02  2.011743E+05  8.340819E+03 -1.550389E+05 -1.249124E+04  6.376464E+03
       304   6  5.592799E+02  2.016361E+05  5.764876E+03 -1.966640E+05 -2.650265E+04  2.195137E+03
       304   7 -1.008970E+04  1.489661E+05  2.627803E+03 -1.958272E+05  2.055235E+03  2.803831E+04
       304   8  4.986774E+04  4.066169E+05  5.012727E+04 -1.551209E+05 -1.251365E+04  2.319826E+04
       304   9  1.123870E+05  6.654025E+05  1.013606E+05 -1.976606E+05 -2.652266E+04  1.836001E+04
       304  10  1.562024E+04  2.543746E+05  2.576466E+04 -1.974949E+05 -7.038436E-11 -7.625018E-10
       304  11 -4.899737E+04 -4.227796E+03 -3.344727E+04 -1.549569E+05 -8.556434E-12  2.780553E-10
       304  12 -1.112826E+05 -2.619263E+05 -8.984316E+04 -1.956683E+05 -6.847217E-10 -2.420427E-10
       304  13  2.765257E+03  2.016686E+05  1.419557E+04 -1.966611E+05  5.719810E-10 -2.708800E-10
       304  14  4.363456E+02  2.011742E+05  8.340450E+03 -1.550388E+05  9.258519E-10  2.279503E-10
       304  15  5.585243E+02  2.016359E+05  5.763547E+03 -1.966639E+05  8.679422E-10  7.918292E-11
       304  16 -1.008991E+04  1.489652E+05  2.626318E+03 -1.958273E+05  1.604232E-10  1.026872E-09
       304  17  4.986743E+04  4.066163E+05  5.012596E+04 -1.551207E+05 -3.637261E-10  8.018825E-11
       304  18  1.123861E+05  6.654020E+05  1.013587E+05 -1.976602E+05 -1.781063E-10  4.875002E-10
       304  19  1.562026E+04  2.543747E+05  2.576476E+04 -1.974949E+05 -2.105475E+03  6.916736E+03
       304  20 -4.899717E+04 -4.227638E+03 -3.344678E+04 -1.549568E+05  1.246883E+04  1.043988E+04
       304  21 -1.112818E+05 -2.619259E+05 -8.984147E+04 -1.956680E+05  2.648269E+04  1.395789E+04
       304  22  2.765292E+03  2.016687E+05  1.419579E+04 -1.966610E+05 -2.080332E+03 -1.056152E+04
       304  23  4.365241E+02  2.011743E+05  8.340819E+03 -1.550389E+05  1.249124E+04 -6.376464E+03
       304  24  5.592799E+02  2.016361E+05  5.764876E+03 -1.966640E+05  2.650265E+04 -2.195137E+03
       304  25 -1.008970E+04  1.489661E+05  2.627803E+03 -1.958272E+05 -2.055235E+03 -2.803831E+04
       304  26  4.986774E+04  4.066169E+05  5.012727E+04 -1.551209E+05  1.251365E+04 -2.319826E+04
       304  27  1.123870E+05  6.654025E+05  1.013606E+05 -1.976606E+05  2.652266E+04 -1.836001E+04
       305   1 -1.569073E+05 -4.496514E+05 -1.289206E+05 -1.964490E+05 -3.763260E+04 -2.231794E+04
       305   2 -2.196674E+05 -7.057659E+05 -1.896890E+05 -1.533202E+05 -4.179980E+04  1.254468E+04
       305   3 -2.831497E+05 -9.664946E+05 -2.733476E+05 -1.918751E+05 -1.409131E+04  4.740903E+04
       305   4  2.111902E+02  2.017861E+05  5.130669E+03 -1.963155E+05 -3.765895E+04  1.259257E+03
       305   5  6.527479E+02  2.008000E+05  5.031775E+03 -1.554745E+05 -4.178168E+04 -1.329019E+03
       305   6  6.879234E+03  2.016407E+05  8.062718E+03 -1.963096E+05 -1.404998E+04 -3.900161E+03
       305   7  1.573033E+05  8.536277E+05  1.391612E+05 -1.961817E+05 -3.768528E+04  2.486077E+04
       305   8  2.209191E+05  1.108139E+06  1.997053E+05 -1.576318E+05 -4.176347E+04 -1.522271E+04
       305   9  2.968101E+05  1.371031E+06  2.893856E+05 -2.007521E+05 -1.400796E+04 -5.530565E+04
       305  10 -1.569090E+05 -4.496523E+05 -1.289242E+05 -1.964497E+05 -2.091061E-10  1.557232E-10
       305  11 -2.196693E+05 -7.057665E+05 -1.896926E+05 -1.533198E+05  1.777899E-10  5.774803E-10
       305  12 -2.831505E+05 -9.664971E+05 -2.733522E+05 -1.918746E+05 -7.767286E-12  1.315845E-11
       305  13  2.096668E+02  2.017857E+05  5.128001E+03 -1.963155E+05 -8.210512E-10 -1.459002E-10
       305  14  6.508726E+02  2.007995E+05  5.028490E+03 -1.554746E+05  3.898026E-10  2.150039E-10
       305  15  6.879018E+03  2.016406E+05  8.062318E+03 -1.963097E+05  1.257892E-10  1.798907E-10
       305  16  1.573016E+05  8.536266E+05  1.391574E+05 -1.961810E+05  1.963755E-10 -8.736068E-11
       305  17  2.209172E+05  1.108139E+06  1.997016E+05 -1.576323E+05  1.814686E-10 -5.563375E-10
       305  18  2.968091E+05  1.371028E+06  2.893795E+05 -2.007527E+05 -2.738766E-10  1.925824E-10
       305  19 -1.569073E+05 -4.496514E+05 -1.289206E+05 -1.964490E+05  3.763260E+04  2.231794E+04
       305  20 -2.196674E+05 -7.057659E+05 -1.896890E+05 -1.533202E+05  4.179980E+04 -1.254468E+04
       305  21 -2.831497E+05 -9.664946E+05 -2.733476E+05 -1.918751E+05  1.409131E+04 -4.740903E+04
       305  22  2.111902E+02  2.017861E+05  5.130669E+03 -1.963155E+05  3.765895E+04 -1.259257E+03
       305  23  6.527479E+02  2.008000E+05  5.031775E+03 -1.554745E+05  4.178168E+04  1.329019E+03
       305  24  6.879234E+03  2.016407E+05  8.062718E+03 -1.963096E+05  1.404998E+04  3.900161E+03
       305  25  1.573033E+05  8.536277E+05  1.391612E+05 -1.961817E+05  3.768528E+04 -2.486077E+04
       305  26  2.209191E+05  1.108139E+06  1.997053E+05 -1.576318E+05  4.176347E+04  1.522271E+04
       305  27  2.968101E+05  1.371031E+06  2.893856E+05 -2.007521E+05  1.400796E+04  5.530565E+04
       306   1 -1.269785E+06 -5.034483E+05 -3.021618E+05 -4.798838E+05 -1.393806E+05 -4.403544E+04
       306   2 -1.231989E+06 -3.240050E+05 -1.812186E+05 -4.679158E+05 -8.921704E+04 -6.805884E+03
       306   3 -1.236600E+06 -2.719090E+05 -1.343688E+05 -4.372602E+05 -3.382884E+04  1.654043E+04
       306   4 -8.344222E+05 -2.689885E+05 -1.737750E+05 -2.883172E+05 -1.140858E+05 -3.455002E+04
       306   5 -8.051581E+05 -1.391572E+05 -7.712062E+04 -3.230681E+05 -7.916406E+04 -3.035561E+03
       306   6 -8.152463E+05 -1.336075E+05 -4.243511E+04 -3.391417E+05 -3.902195E+04  1.458974E+04
       306   7 -3.988592E+05 -3.444742E+04 -4.540251E+04 -9.660849E+04 -8.877149E+04 -2.505001E+04
       306   8 -3.781435E+05  4.572330E+04  2.696411E+04 -1.781229E+05 -6.910359E+04  7.386655E+02
       306   9 -3.937171E+05  4.697728E+03  4.948745E+04 -2.409667E+05 -4.421885E+04  1.263799E+04
       306  10 -1.269806E+06 -5.034556E+05 -3.022021E+05 -4.798887E+05 -2.349734E-10 -1.358588E-11
       306  11 -1.231997E+06 -3.240072E+05 -1.812337E+05 -4.679163E+05 -6.488797E-10  3.743741E-10
       306  12 -1.236601E+06 -2.719096E+05 -1.343715E+05 -4.372597E+05 -1.719329E-10  2.878102E-10
       306  13 -8.344365E+05 -2.689933E+05 -1.738017E+05 -2.883204E+05  5.309262E-10 -2.224023E-10
       306  14 -8.051649E+05 -1.391589E+05 -7.713243E+04 -3.230683E+05  2.668505E-12  5.528576E-11
       306  15 -8.152480E+05 -1.336082E+05 -4.243838E+04 -3.391412E+05 -2.016277E-10 -2.599246E-10
       306  16 -3.988678E+05 -3.445022E+04 -4.541851E+04 -9.661028E+04 -3.491081E-11  2.061302E-10
       306  17 -3.781487E+05  4.572201E+04  2.695513E+04 -1.781228E+05  2.717750E-11  3.603763E-11
       306  18 -3.937192E+05  4.697031E+03  4.948347E+04 -2.409663E+05 -2.782042E-10 -2.412667E-10
       306  19 -1.269785E+06 -5.034483E+05 -3.021618E+05 -4.798838E+05  1.393806E+05  4.403544E+04
       306  20 -1.231989E+06 -3.240050E+05 -1.812186E+05 -4.679158E+05  8.921704E+04  6.805884E+03
       306  21 -1.236600E+06 -2.719090E+05 -1.343688E+05 -4.372602E+05  3.382884E+04 -1.654043E+04
       306  22 -8.344222E+05 -2.689885E+05 -1.737750E+05 -2.883172E+05  1.140858E+05  3.455002E+04
       306  23 -8.051581E+05 -1.391572E+05 -7.712062E+04 -3.230681E+05  7.916406E+04  3.035561E+03
       306  24 -8.152463E+05 -1.336075E+05 -4.243511E+04 -3.391417E+05  3.902195E+04 -1.458974E+04
       306  25 -3.988592E+05 -3.444742E+04 -4.540251E+04 -9.660849E+04  8.877149E+04  2.505001E+04
       306  26 -3.781435E+05  4.572330E+04  2.696411E+04 -1.781229E+05  6.910359E+04 -7.386655E+02
       306  27 -3.937171E+05  4.697728E+03  4.948745E+04 -2.409667E+05  4.421885E+04 -1.263799E+04
       307   1 -1.187639E+06 -2.847278E+05 -1.187874E+05 -4.390083E+05 -3.147845E+04  1.476161E+04
       307   2 -1.152503E+06 -2.584128E+05 -9.364539E+04 -4.229707E+05 -2.132481E+04  1.659356E+04
       307   3 -1.110857E+06 -2.475215E+05 -7.707031E+04 -4.170939E+05 -1.091038E+04  1.773068E+04
       307   4 -8.097862E+05 -1.431142E+05 -3.307060E+04 -3.328821E+05 -3.301425E+04  1.418358E+04
       307   5 -8.126920E+05 -1.325199E+05 -1.733218E+04 -3.289085E+05 -2.361930E+04  1.573129E+04
       307   6 -8.089372E+05 -1.371965E+05 -9.554949E+03 -3.350960E+05 -1.396429E+04  1.658407E+04
       307   7 -4.317872E+05 -1.487704E+03  5.263760E+04 -2.266957E+05 -3.455107E+04  1.360516E+04
       307   8 -4.727632E+05 -6.617536E+03  5.897400E+04 -2.347986E+05 -2.591515E+04  1.486851E+04
       307   9 -5.069253E+05 -2.686492E+04  5.795471E+04 -2.530616E+05 -1.701982E+04  1.543686E+04
       307  10 -1.187640E+06 -2.847283E+05 -1.187897E+05 -4.390079E+05 -5.387059E-10 -5.872639E-11
       307  11 -1.152504E+06 -2.584132E+05 -9.364676E+04 -4.229704E+05  1.160353E-10  1.665183E-11
       307  12 -1.110857E+06 -2.475219E+05 -7.707113E+04 -4.170938E+05 -3.127927E-11  1.295435E-10
       307  13 -8.097874E+05 -1.431147E+05 -3.307303E+04 -3.328817E+05 -2.389523E-10 -5.939326E-11
       307  14 -8.126927E+05 -1.325203E+05 -1.733370E+04 -3.289082E+05 -6.009467E-10 -1.951425E-10
       307  15 -8.089375E+05 -1.371968E+05 -9.555832E+03 -3.350958E+05 -2.971621E-11  1.050857E-10
       307  16 -4.317885E+05 -1.488223E+03  5.263501E+04 -2.266953E+05 -6.570909E-11 -9.618291E-11
       307  17 -4.727640E+05 -6.617954E+03  5.897232E+04 -2.347983E+05  2.070308E-10  1.557118E-10
       307  18 -5.069257E+05 -2.686525E+04  5.795372E+04 -2.530614E+05  3.545499E-10  1.787439E-10
       307  19 -1.187639E+06 -2.847278E+05 -1.187874E+05 -4.390083E+05  3.147845E+04 -1.476161E+04
       307  20 -1.152503E+06 -2.584128E+05 -9.364539E+04 -4.229707E+05  2.132481E+04 -1.659356E+04
       307  21 -1.110857E+06 -2.475215E+05 -7.707031E+04 -4.170939E+05  1.091038E+04 -1.773068E+04
       307  22 -8.097862E+05 -1.431142E+05 -3.307060E+04 -3.328821E+05  3.301425E+04 -1.418358E+04
       307  23 -8.126920E+05 -1.325199E+05 -1.733218E+04 -3.289085E+05  2.361930E+04 -1.573129E+04
       307  24 -8.089372E+05 -1.371965E+05 -9.554949E+03 -3.350960E+05  1.396429E+04 -1.658407E+04
       307  25 -4.317872E+05 -1.487704E+03  5.263760E+04 -2.266957E+05  3.455107E+04 -1.360516E+04
       307  26 -4.727632E+05 -6.617536E+03  5.897400E+04 -2.347986E+05  2.591515E+04 -1.486851E+04
       307  27 -5.069253E+05 -2.686492E+04  5.795471E+04 -2.530616E+05  1.701982E+04 -1.543686E+04
       308   1 -1.080514E+06 -2.377675E+05 -6.796063E+04 -4.094949E+05 -9.139130E+03  1.657313E+04
       308   2 -1.045837E+06 -2.180759E+05 -5.596560E+04 -3.930277E+05 -6.134875E+03  1.469117E+04
       308   3 -1.001627E+06 -2.085561E+05 -4.553622E+04 -3.878955E+05 -3.116401E+03  1.276938E+04
       308   4 -8.085112E+05 -1.376095E+05 -7.217743E+03 -3.347742E+05 -1.201885E+04  1.549219E+04
       308   5 -8.132641E+05 -1.324252E+05 -3.951755E+03 -3.291437E+05 -9.057505E+03  1.359456E+04
       308   6 -8.084760E+05 -1.374040E+05 -2.216842E+03 -3.348485E+05 -6.082071E+03  1.165707E+04
       308   7 -5.364360E+05 -3.744656E+04  5.352004E+04 -2.600240E+05 -1.489991E+04  1.441074E+04
       308   8 -5.806365E+05 -4.677032E+04  4.805871E+04 -2.652377E+05 -1.198132E+04  1.249751E+04
       308   9 -6.152862E+05 -6.624862E+04  4.110054E+04 -2.817862E+05 -9.048760E+03  1.054437E+04
       308  10 -1.080514E+06 -2.377679E+05 -6.796130E+04 -4.094948E+05 -3.499393E-10  2.240636E-10
       308  11 -1.045837E+06 -2.180761E+05 -5.596608E+04 -3.930276E+05  1.852858E-10  1.444563E-10
       308  12 -1.001627E+06 -2.085563E+05 -4.553655E+04 -3.878954E+05  3.221449E-10  1.903753E-11
       308  13 -8.085114E+05 -1.376098E+05 -7.218466E+03 -3.347741E+05  2.385883E-10  1.469838E-10
       308  14 -8.132642E+05 -1.324254E+05 -3.952256E+03 -3.291436E+05  4.002848E-10  1.121768E-11
       308  15 -8.084761E+05 -1.374042E+05 -2.217167E+03 -3.348485E+05  8.830387E-11 -1.678351E-10
       308  16 -5.364363E+05 -3.744685E+04  5.351923E+04 -2.600239E+05  4.011632E-10  1.006563E-10
       308  17 -5.806366E+05 -4.677053E+04  4.805814E+04 -2.652375E+05  4.643430E-10  1.622225E-10
       308  18 -6.152863E+05 -6.624876E+04  4.110017E+04 -2.817861E+05 -1.738664E-11 -1.851279E-10
       308  19 -1.080514E+06 -2.377675E+05 -6.796063E+04 -4.094949E+05  9.139130E+03 -1.657313E+04
       308  20 -1.045837E+06 -2.180759E+05 -5.596560E+04 -3.930277E+05  6.134875E+03 -1.469117E+04
       308  21 -1.001627E+06 -2.085561E+05 -4.553622E+04 -3.878955E+05  3.116401E+03 -1.276938E+04
       308  22 -8.085112E+05 -1.376095E+05 -7.217743E+03 -3.347742E+05  1.201885E+04 -1.549219E+04
       308  23 -8.132641E+05 -1.324252E+05 -3.951755E+03 -3.291437E+05  9.057505E+03 -1.359456E+04
       308  24 -8.084760E+05 -1.374040E+05 -2.216842E+03 -3.348485E+05  6.082071E+03 -1.165707E+04
       308  25 -5.364360E+05 -3.744656E+04  5.352004E+04 -2.600240E+05  1.489991E+04 -1.441074E+04
       308  26 -5.806365E+05 -4.677032E+04  4.805871E+04 -2.652377E+05  1.198132E+04 -1.249751E+04
       308  27 -6.152862E+05 -6.624862E+04  4.110054E+04 -2.817862E+05  9.048760E+03 -1.054437E+04
       309   1 -9.721129E+05 -1.977129E+05 -3.817704E+04 -3.798392E+05 -2.208125E+03  1.131936E+04
       309   2 -9.374226E+05 -1.781768E+05 -2.878009E+04 -3.632580E+05 -6.792009E+02  8.818618E+03
       309   3 -8.928776E+05 -1.685840E+05 -1.977108E+04 -3.580657E+05  8.510722E+02  6.313017E+03
       309   4 -8.084131E+05 -1.374222E+05 -1.696416E+03 -3.348340E+05 -5.169322E+03  1.020893E+04
       309   5 -8.133383E+05 -1.324500E+05 -1.030877E+03 -3.291391E+05 -3.645593E+03  7.706469E+03
       309   6 -8.084093E+05 -1.374198E+05 -7.490340E+02 -3.348334E+05 -2.120556E+03  5.199151E+03
       309   7 -6.446863E+05 -7.712950E+04  3.478255E+04 -2.898179E+05 -8.131365E+03  9.098178E+03
       309   8 -6.892389E+05 -8.672213E+04  2.671729E+04 -2.950140E+05 -6.612618E+03  6.594083E+03
       309   9 -7.239344E+05 -1.062553E+05  1.827244E+04 -3.115983E+05 -5.092604E+03  4.085127E+03
       309  10 -9.721129E+05 -1.977130E+05 -3.817729E+04 -3.798392E+05 -6.101264E-10 -2.514230E-10
       309  11 -9.374226E+05 -1.781769E+05 -2.878024E+04 -3.632580E+05 -2.505352E-10  4.013238E-11
       309  12 -8.928776E+05 -1.685840E+05 -1.977116E+04 -3.580657E+05  1.455675E-10  1.100735E-10
       309  13 -8.084131E+05 -1.374223E+05 -1.696662E+03 -3.348340E+05 -4.157194E-11 -1.765543E-10
       309  14 -8.133383E+05 -1.324500E+05 -1.031014E+03 -3.291390E+05 -3.587499E-10  8.654152E-11
       309  15 -8.084093E+05 -1.374198E+05 -7.490932E+02 -3.348334E+05  1.969056E-10  3.682867E-10
       309  16 -6.446863E+05 -7.712961E+04  3.478227E+04 -2.898179E+05  6.434398E-10  4.918365E-11
       309  17 -6.892389E+05 -8.672219E+04  2.671712E+04 -2.950139E+05  1.231153E-10  1.693965E-10
       309  18 -7.239344E+05 -1.062553E+05  1.827236E+04 -3.115983E+05  1.206019E-10 -9.271668E-11
       309  19 -9.721129E+05 -1.977129E+05 -3.817704E+04 -3.798392E+05  2.208125E+03 -1.131936E+04
       309  20 -9.374226E+05 -1.781768E+05 -2.878009E+04 -3.632580E+05  6.792009E+02 -8.818618E+03
       309  21 -8.928776E+05 -1.685840E+05 -1.977108E+04 -3.580657E+05 -8.510722E+02 -6.313017E+03
       309  22 -8.084131E+05 -1.374222E+05 -1.696416E+03 -3.348340E+05  5.169322E+03 -1.020893E+04
       309  23 -8.133383E+05 -1.324500E+05 -1.030877E+03 -3.291391E+05  3.645593E+03 -7.706469E+03
       309  24 -8.084093E+05 -1.374198E+05 -7.490340E+02 -3.348334E+05  2.120556E+03 -5.199151E+03
       309  25 -6.446863E+05 -7.712950E+04  3.478255E+04 -2.898179E+05  8.131365E+03 -9.098178E+03
       309  26 -6.892389E+05 -8.672213E+04  2.671729E+04 -2.950140E+05  6.612618E+03 -6.594083E+03
       309  27 -7.239344E+05 -1.062553E+05  1.827244E+04 -3.115983E+05  5.092604E+03 -4.085127E+03
       310   1 -8.633422E+05 -1.576598E+05 -1.287236E+04 -3.499673E+05  1.564355E+03  4.786065E+03
       310   2 -8.285902E+05 -1.380894E+05 -4.247443E+03 -3.333551E+05  2.991769E+03  2.238229E+03
       310   3 -7.839560E+05 -1.284745E+05  4.066743E+03 -3.281517E+05  4.418844E+03 -3.088058E+02
       310   4 -8.084030E+05 -1.374230E+05 -7.142658E+02 -3.348376E+05 -1.408961E+03  3.671646E+03
       310   5 -8.133423E+05 -1.324428E+05 -8.336539E+02 -3.291334E+05  1.923424E+01  1.124122E+03
       310   6 -8.084019E+05 -1.374188E+05 -1.264642E+03 -3.348390E+05  1.447057E+03 -1.422603E+03
       310   7 -7.534603E+05 -1.171859E+05  1.144378E+04 -3.197066E+05 -4.382581E+03  2.557114E+03
       310   8 -7.980941E+05 -1.267962E+05  2.580173E+03 -3.249117E+05 -2.953390E+03  9.980715E+00
       310   9 -8.328473E+05 -1.463631E+05 -6.596026E+03 -3.415261E+05 -1.524604E+03 -2.536354E+03
       310  10 -8.633422E+05 -1.576598E+05 -1.287241E+04 -3.499673E+05  1.171998E-10  9.379088E-11
       310  11 -8.285903E+05 -1.380894E+05 -4.247469E+03 -3.333551E+05 -3.111469E-10 -4.589817E-10
       310  12 -7.839560E+05 -1.284745E+05  4.066706E+03 -3.281517E+05 -2.653115E-10 -8.522725E-11
       310  13 -8.084030E+05 -1.374230E+05 -7.142949E+02 -3.348376E+05 -4.426646E-10 -2.645269E-11
       310  14 -8.133423E+05 -1.324428E+05 -8.336562E+02 -3.291334E+05  3.896910E-11  1.928235E-10
       310  15 -8.084019E+05 -1.374188E+05 -1.264650E+03 -3.348390E+05  5.479204E-11  1.325998E-10
       310  16 -7.534604E+05 -1.171859E+05  1.144373E+04 -3.197066E+05 -4.004711E-11 -1.919097E-10
       310  17 -7.980941E+05 -1.267963E+05  2.580157E+03 -3.249117E+05 -1.187381E-10  7.079082E-11
       310  18 -8.328473E+05 -1.463631E+05 -6.596043E+03 -3.415261E+05  3.749294E-10 -1.398203E-10
       310  19 -8.633422E+05 -1.576598E+05 -1.287236E+04 -3.499673E+05 -1.564355E+03 -4.786065E+03
       310  20 -8.285902E+05 -1.380894E+05 -4.247443E+03 -3.333551E+05 -2.991769E+03 -2.238229E+03
       310  21 -7.839560E+05 -1.284745E+05  4.066743E+03 -3.281517E+05 -4.418844E+03  3.088058E+02
       310  22 -8.084030E+05 -1.374230E+05 -7.142658E+02 -3.348376E+05  1.408961E+03 -3.671646E+03
       310  23 -8.133423E+05 -1.324428E+05 -8.336539E+02 -3.291334E+05 -1.923424E+01 -1.124122E+03
       310  24 -8.084019E+05 -1.374188E+05 -1.264642E+03 -3.348390E+05 -1.447057E+03  1.422603E+03
       310  25 -7.534603E+05 -1.171859E+05  1.144378E+04 -3.197066E+05  4.382581E+03 -2.557114E+03
       310  26 -7.980941E+05 -1.267962E+05  2.580173E+03 -3.249117E+05  2.953390E+03 -9.980715E+00
       310  27 -8.328473E+05 -1.463631E+05 -6.596026E+03 -3.415261E+05  1.524604E+03  2.536354E+03
       311   1 -7.544347E+05 -1.175575E+05  1.057263E+04 -3.200869E+05  5.254105E+03 -1.791990E+03
       311   2 -7.196281E+05 -9.798421E+04  1.809503E+04 -3.034639E+05  7.651969E+03 -3.964923E+03
       311   3 -6.751389E+05 -8.854077E+04  2.453689E+04 -2.982391E+05  1.004010E+04 -6.110824E+03
       311   4 -8.084413E+05 -1.374100E+05 -1.622837E+03 -3.348552E+05  2.276634E+03 -2.907959E+03
       311   5 -8.132902E+05 -1.324128E+05 -2.841091E+03 -3.291299E+05  4.703823E+03 -5.070075E+03
       311   6 -8.084640E+05 -1.375514E+05 -5.163240E+03 -3.348034E+05  7.121196E+03 -7.205191E+03
       311   7 -8.624445E+05 -1.572621E+05 -1.381836E+04 -3.496221E+05 -7.005362E+02 -4.023817E+03
       311   8 -9.069434E+05 -1.668407E+05 -2.377772E+04 -3.547923E+05  1.756160E+03 -6.175048E+03
       311   9 -9.417720E+05 -1.865611E+05 -3.486468E+04 -3.713608E+05  4.202951E+03 -8.299313E+03
       311  10 -7.544348E+05 -1.175575E+05  1.057257E+04 -3.200869E+05 -2.416463E-10 -6.020701E-11
       311  11 -7.196282E+05 -9.798425E+04  1.809489E+04 -3.034639E+05  1.274560E-11 -8.315099E-11
       311  12 -6.751391E+05 -8.854083E+04  2.453663E+04 -2.982390E+05 -1.570614E-10 -1.341750E-10
       311  13 -8.084413E+05 -1.374100E+05 -1.622863E+03 -3.348552E+05  2.255360E-10  1.840887E-11
       311  14 -8.132902E+05 -1.324128E+05 -2.841181E+03 -3.291299E+05 -1.136233E-10 -2.872327E-10
       311  15 -8.084641E+05 -1.375515E+05 -5.163433E+03 -3.348034E+05 -5.814632E-10 -2.306007E-10
       311  16 -8.624445E+05 -1.572621E+05 -1.381839E+04 -3.496221E+05  1.726036E-10 -2.493433E-10
       311  17 -9.069434E+05 -1.668407E+05 -2.377780E+04 -3.547923E+05  2.582584E-10  2.017842E-10
       311  18 -9.417720E+05 -1.865611E+05 -3.486484E+04 -3.713608E+05 -2.033242E-10 -1.112627E-12
       311  19 -7.544347E+05 -1.175575E+05  1.057263E+04 -3.200869E+05 -5.254105E+03  1.791990E+03
       311  20 -7.196281E+05 -9.798421E+04  1.809503E+04 -3.034639E+05 -7.651969E+03  3.964923E+03
       311  21 -6.751389E+05 -8.854077E+04  2.453689E+04 -2.982391E+05 -1.004010E+04  6.110824E+03
       311  22 -8.084413E+05 -1.374100E+05 -1.622837E+03 -3.348552E+05 -2.276634E+03  2.907959E+03
       311  23 -8.132902E+05 -1.324128E+05 -2.841091E+03 -3.291299E+05 -4.703823E+03  5.070075E+03
       311  24 -8.084640E+05 -1.375514E+05 -5.163240E+03 -3.348034E+05 -7.121196E+03  7.205191E+03
       311  25 -8.624445E+05 -1.572621E+05 -1.381836E+04 -3.496221E+05  7.005362E+02  4.023817E+03
       311  26 -9.069434E+05 -1.668407E+05 -2.377772E+04 -3.547923E+05 -1.756160E+03  6.175048E+03
       311  27 -9.417720E+05 -1.865611E+05 -3.486468E+04 -3.713608E+05 -4.202951E+03  8.299313E+03
       312   1 -6.454826E+05 -7.781678E+04  2.970077E+04 -2.909221E+05  1.173019E+04 -7.299724E+03
       312   2 -6.109668E+05 -5.767035E+04  3.298582E+04 -2.730528E+05  1.836407E+04 -7.683326E+03
       312   3 -5.687107E+05 -5.120896E+04  3.102229E+04 -2.657617E+05  2.480982E+04 -7.562752E+03
       312   4 -8.087653E+05 -1.372593E+05 -6.828527E+03 -3.350367E+05  8.682965E+03 -8.442361E+03
       312   5 -8.128815E+05 -1.324721E+05 -1.237277E+04 -3.289579E+05  1.586921E+04 -8.619243E+03
       312   6 -8.093690E+05 -1.414808E+05 -2.360500E+04 -3.334583E+05  2.286689E+04 -8.292034E+03
       312   7 -9.720211E+05 -1.966999E+05 -4.335946E+04 -3.791407E+05  5.636604E+03 -9.584682E+03
       312   8 -1.014754E+06 -2.072703E+05 -5.773375E+04 -3.848461E+05  1.337523E+04 -9.554825E+03
       312   9 -1.049967E+06 -2.317472E+05 -7.823563E+04 -4.011302E+05  2.092479E+04 -9.020995E+03
       312  10 -6.454828E+05 -7.781687E+04  2.970041E+04 -2.909220E+05  7.605960E-12  9.551785E-11
       312  11 -6.109672E+05 -5.767050E+04  3.298508E+04 -2.730527E+05 -2.864077E-10  1.130850E-10
       312  12 -5.687114E+05 -5.120918E+04  3.102103E+04 -2.657615E+05 -5.363020E-11  1.362410E-10
       312  13 -8.087654E+05 -1.372594E+05 -6.828803E+03 -3.350366E+05 -1.600248E-10  1.823454E-10
       312  14 -8.128818E+05 -1.324722E+05 -1.237338E+04 -3.289578E+05 -4.817326E-11  2.341054E-10
       312  15 -8.093696E+05 -1.414810E+05 -2.360612E+04 -3.334581E+05  1.670246E-10  1.048233E-10
       312  16 -9.720211E+05 -1.967000E+05 -4.335970E+04 -3.791407E+05  5.609203E-11  6.421567E-11
       312  17 -1.014755E+06 -2.072705E+05 -5.773425E+04 -3.848460E+05  4.449447E-10  3.551104E-10
       312  18 -1.049968E+06 -2.317474E+05 -7.823660E+04 -4.011300E+05  8.786130E-11  2.731226E-10
       312  19 -6.454826E+05 -7.781678E+04  2.970077E+04 -2.909221E+05 -1.173019E+04  7.299724E+03
       312  20 -6.109668E+05 -5.767035E+04  3.298582E+04 -2.730528E+05 -1.836407E+04  7.683326E+03
       312  21 -5.687107E+05 -5.120896E+04  3.102229E+04 -2.657617E+05 -2.480982E+04  7.562752E+03
       312  22 -8.087653E+05 -1.372593E+05 -6.828527E+03 -3.350367E+05 -8.682965E+03  8.442361E+03
       312  23 -8.128815E+05 -1.324721E+05 -1.237277E+04 -3.289579E+05 -1.586921E+04  8.619243E+03
       312  24 -8.093690E+05 -1.414808E+05 -2.360500E+04 -3.334583E+05 -2.286689E+04  8.292034E+03
       312  25 -9.720211E+05 -1.966999E+05 -4.335946E+04 -3.791407E+05 -5.636604E+03  9.584682E+03
       312  26 -1.014754E+06 -2.072703E+05 -5.773375E+04 -3.848461E+05 -1.337523E+04  9.554825E+03
       312  27 -1.049967E+06 -2.317472E+05 -7.823563E+04 -4.011302E+05 -2.092479E+04  9.020995E+03
       313   1 -5.329211E+05 -4.359724E+04  3.077053E+04 -2.735878E+05  3.193740E+04 -7.325767E+03
       313   2 -5.116302E+05 -8.635124E+03  1.730399E+04 -2.238927E+05  4.975694E+04  3.558491E+02
       313   3 -5.133162E+05 -6.306075E+04 -3.157881E+04 -1.642149E+05  6.378676E+04  1.814142E+04
       313   4 -8.132693E+05 -1.346929E+05 -3.028815E+04 -3.379227E+05  2.733165E+04 -9.053394E+03
       313   5 -8.075003E+05 -1.372099E+05 -5.504101E+04 -3.247931E+05  5.625451E+04  2.791286E+03
       313   6 -8.269297E+05 -2.313474E+05 -1.240282E+05 -3.016802E+05  8.138552E+04  2.473962E+04
       313   7 -1.093541E+06 -2.257877E+05 -9.135206E+04 -4.022334E+05  2.272811E+04 -1.078042E+04
       313   8 -1.103281E+06 -2.657681E+05 -1.273921E+05 -4.256459E+05  6.274871E+04  5.224954E+03
       313   9 -1.140435E+06 -3.995903E+05 -2.164838E+05 -4.390703E+05  9.897432E+04  3.133047E+04
       313  10 -5.329222E+05 -4.359757E+04  3.076851E+04 -2.735877E+05  4.268482E-11 -3.964845E-11
       313  11 -5.116329E+05 -8.635789E+03  1.729933E+04 -2.238927E+05 -1.485839E-10  5.161265E-11
       313  12 -5.133206E+05 -6.306219E+04 -3.158709E+04 -1.642159E+05 -1.368425E-10  4.541571E-11
       313  13 -8.132701E+05 -1.346932E+05 -3.028971E+04 -3.379225E+05  1.752532E-10  9.932536E-11
       313  14 -8.075037E+05 -1.372107E+05 -5.504698E+04 -3.247932E+05  3.616513E-10  1.524532E-10
       313  15 -8.269370E+05 -2.313499E+05 -1.240418E+05 -3.016818E+05  2.248514E-10  8.206977E-12
       313  16 -1.093542E+06 -2.257880E+05 -9.135325E+04 -4.022332E+05 -4.848256E-12  2.178007E-10
       313  17 -1.103285E+06 -2.657692E+05 -1.273995E+05 -4.256462E+05 -1.811859E-10  2.115279E-10
       313  18 -1.140446E+06 -3.995940E+05 -2.165041E+05 -4.390728E+05 -7.101211E-11 -2.089585E-11
       313  19 -5.329211E+05 -4.359724E+04  3.077053E+04 -2.735878E+05 -3.193740E+04  7.325767E+03
       313  20 -5.116302E+05 -8.635124E+03  1.730399E+04 -2.238927E+05 -4.975694E+04 -3.558491E+02
       313  21 -5.133162E+05 -6.306075E+04 -3.157881E+04 -1.642149E+05 -6.378676E+04 -1.814142E+04
       313  22 -8.132693E+05 -1.346929E+05 -3.028815E+04 -3.379227E+05 -2.733165E+04  9.053394E+03
       313  23 -8.075003E+05 -1.372099E+05 -5.504101E+04 -3.247931E+05 -5.625451E+04 -2.791286E+03
       313  24 -8.269297E+05 -2.313474E+05 -1.240282E+05 -3.016802E+05 -8.138552E+04 -2.473962E+04
       313  25 -1.093541E+06 -2.257877E+05 -9.135206E+04 -4.022334E+05 -2.272811E+04  1.078042E+04
       313  26 -1.103281E+06 -2.657681E+05 -1.273921E+05 -4.256459E+05 -6.274871E+04 -5.224954E+03
       313  27 -1.140435E+06 -3.995903E+05 -2.164838E+05 -4.390703E+05 -9.897432E+04 -3.133047E+04
       314   1 -4.208604E+05 -8.546815E+04 -4.431288E+04  1.595029E+04  9.836208E+04  1.537357E+04
       314   2 -3.239256E+05 -2.273929E+05 -1.084605E+05 -2.988721E+04  7.802590E+04  4.885798E+04
       314   3 -1.867034E+05 -2.199823E+05 -1.219732E+05 -1.119338E+05  5.770713E+04  5.290737E+04
       314   4  7.023483E+05  1.927439E+05  2.247092E+05 -8.827374E+04  1.552354E+05  1.539300E+04
       314   5  6.793111E+05  1.585323E+04  1.049141E+05 -7.013060E+04  1.002192E+05  4.885626E+04
       314   6  7.024842E+05 -5.831939E+03  5.975868E+04 -8.818668E+04  4.522785E+04  5.290181E+04
       314   7  1.826743E+06  4.709072E+05  4.936602E+05 -1.926873E+05  2.122111E+05  1.539334E+04
       314   8  1.683501E+06  2.590403E+05  3.182338E+05 -1.104401E+05  1.224477E+05  4.885167E+04
       314   9  1.592424E+06  2.082711E+05  2.414496E+05 -6.440489E+04  3.273097E+04  5.289530E+04
       314  10 -4.208708E+05 -8.547101E+04 -4.433152E+04  1.594907E+04 -6.253363E-10  9.448560E-11
       314  11 -3.239328E+05 -2.273971E+05 -1.084765E+05 -2.989028E+04 -2.774826E-10 -3.739413E-10
       314  12 -1.867077E+05 -2.199862E+05 -1.219847E+05 -1.119363E+05 -6.845134E-10  3.316440E-10
       314  13  7.023224E+05  1.927372E+05  2.246636E+05 -8.827566E+04 -1.264079E-11  6.083612E-11
       314  14  6.792997E+05  1.584797E+04  1.048908E+05 -7.013454E+04 -7.390360E-10 -7.301948E-10
       314  15  7.024813E+05 -5.835494E+03  5.974957E+04 -8.818861E+04 -1.063311E-10  1.883470E-10
       314  16  1.826695E+06  4.708949E+05  4.935754E+05 -1.926899E+05 -4.418649E-10 -7.817628E-11
       314  17  1.683484E+06  2.590338E+05  3.182012E+05 -1.104449E+05  3.384622E-10 -6.090075E-11
       314  18  1.592423E+06  2.082678E+05  2.414424E+05 -6.440628E+04  1.954279E-10 -1.511010E-10
       314  19 -4.208604E+05 -8.546815E+04 -4.431288E+04  1.595029E+04 -9.836208E+04 -1.537357E+04
       314  20 -3.239256E+05 -2.273929E+05 -1.084605E+05 -2.988721E+04 -7.802590E+04 -4.885798E+04
       314  21 -1.867034E+05 -2.199823E+05 -1.219732E+05 -1.119338E+05 -5.770713E+04 -5.290737E+04
       314  22  7.023483E+05  1.927439E+05  2.247092E+05 -8.827374E+04 -1.552354E+05 -1.539300E+04
       314  23  6.793111E+05  1.585323E+04  1.049141E+05 -7.013060E+04 -1.002192E+05 -4.885626E+04
       314  24  7.024842E+05 -5.831939E+03  5.975868E+04 -8.818668E+04 -4.522785E+04 -5.290181E+04
       314  25  1.826743E+06  4.709072E+05  4.936602E+05 -1.926873E+05 -2.122111E+05 -1.539334E+04
       314  26  1.683501E+06  2.590403E+05  3.182338E+05 -1.104401E+05 -1.224477E+05 -4.885167E+04
       314  27  1.592424E+06  2.082711E+05  2.414496E+05 -6.440489E+04 -3.273097E+04 -5.289530E+04
       315   1 -1.109939E+05 -1.861016E+05 -1.180322E+05 -8.603089E+04  4.247660E+04  4.729184E+04
       315   2  3.625954E+03 -1.653201E+05 -1.140795E+05 -6.928260E+04  3.152570E+04  4.190691E+04
       315   3  1.214411E+05 -1.379234E+05 -1.013165E+05 -8.999224E+04  2.056853E+04  3.494171E+04
       315   4  6.930140E+05  7.599267E+03  4.669780E+04 -8.848635E+04  3.710609E+04  4.728678E+04
       315   5  6.912907E+05  1.163584E+02  2.568274E+04 -6.975963E+04  2.428138E+04  4.190429E+04
       315   6  6.930708E+05 -4.307929E+02  1.476932E+04 -8.848793E+04  1.145242E+04  3.494232E+04
       315   7  1.497636E+06  2.012597E+05  2.113936E+05 -9.094502E+04  3.172873E+04  4.728178E+04
       315   8  1.379405E+06  1.655234E+05  1.654205E+05 -7.023716E+04  1.702916E+04  4.190169E+04
       315   9  1.265011E+06  1.370416E+05  1.308384E+05 -8.698217E+04  2.328067E+03  3.494289E+04
       315  10 -1.109965E+05 -1.861045E+05 -1.180398E+05 -8.603250E+04 -7.801990E-10  3.180270E-10
       315  11  3.624415E+03 -1.653222E+05 -1.140847E+05 -6.928366E+04  6.574103E-11  1.729307E-10
       315  12  1.214403E+05 -1.379249E+05 -1.013196E+05 -8.999282E+04  4.256745E-11 -1.000967E-11
       315  13  6.930119E+05  7.596496E+03  4.669101E+04 -8.848777E+04  2.398213E-10  2.012030E-10
       315  14  6.912896E+05  1.143140E+02  2.567833E+04 -6.976045E+04 -4.062573E-10  9.849034E-11
       315  15  6.930703E+05 -4.321396E+02  1.476678E+04 -8.848826E+04  3.373527E-10 -2.485855E-11
       315  16  1.497634E+06  2.012570E+05  2.113875E+05 -9.094623E+04  7.234050E-10 -2.809146E-11
       315  17  1.379404E+06  1.655214E+05  1.654166E+05 -7.023773E+04  2.248276E-10 -1.769521E-12
       315  18  1.265011E+06  1.370403E+05  1.308361E+05 -8.698224E+04 -3.051109E-10 -1.662670E-10
       315  19 -1.109939E+05 -1.861016E+05 -1.180322E+05 -8.603089E+04 -4.247660E+04 -4.729184E+04
       315  20  3.625954E+03 -1.653201E+05 -1.140795E+05 -6.928260E+04 -3.152570E+04 -4.190691E+04
       315  21  1.214411E+05 -1.379234E+05 -1.013165E+05 -8.999224E+04 -2.056853E+04 -3.494171E+04
       315  22  6.930140E+05  7.599267E+03  4.669780E+04 -8.848635E+04 -3.710609E+04 -4.728678E+04
       315  23  6.912907E+05  1.163584E+02  2.568274E+04 -6.975963E+04 -2.428138E+04 -4.190429E+04
       315  24  6.930708E+05 -4.307929E+02  1.476932E+04 -8.848793E+04 -1.145242E+04 -3.494232E+04
       315  25  1.497636E+06  2.012597E+05  2.113936E+05 -9.094502E+04 -3.172873E+04 -4.728178E+04
       315  26  1.379405E+06  1.655234E+05  1.654205E+05 -7.023716E+04 -1.702916E+04 -4.190169E+04
       315  27  1.265011E+06  1.370416E+05  1.308384E+05 -8.698217E+04 -2.328067E+03 -3.494289E+04
       316   1  2.047768E+05 -1.170270E+05 -8.725334E+04 -8.876575E+04  1.787645E+04  3.046175E+04
       316   2  3.203965E+05 -8.945962E+04 -6.881716E+04 -6.995811E+04  1.477430E+04  2.300110E+04
       316   3  4.365166E+05 -6.155452E+04 -4.827804E+04 -8.858139E+04  1.166871E+04  1.546000E+04
       316   4  6.924223E+05  1.593756E+02  1.126966E+04 -8.848208E+04  9.150796E+03  3.046353E+04
       316   5  6.921855E+05 -8.735561E+01  6.461973E+03 -6.976741E+04  5.950878E+03  2.300444E+04
       316   6  6.924506E+05  2.041040E+01  3.823092E+03 -8.848233E+04  2.748067E+03  1.546497E+04
       316   7  1.180294E+06  1.173310E+05  1.097807E+05 -8.819815E+04  4.184224E+02  3.046530E+04
       316   8  1.064106E+06  8.927637E+04  8.173423E+04 -6.957658E+04 -2.877730E+03  2.300777E+04
       316   9  9.484471E+05  6.159130E+04  5.592109E+04 -8.838322E+04 -6.176184E+03  1.546993E+04
       316  10  2.047762E+05 -1.170281E+05 -8.725569E+04 -8.876619E+04 -4.711052E-10 -5.899966E-10
       316  11  3.203961E+05 -8.946025E+04 -6.881856E+04 -6.995838E+04 -4.340755E-10 -1.368947E-10
       316  12  4.365164E+05 -6.155481E+04 -4.827874E+04 -8.858153E+04 -5.037588E-10  6.688853E-10
       316  13  6.924220E+05  1.583563E+02  1.126775E+04 -8.848231E+04  3.364897E-11 -1.231235E-10
       316  14  6.921854E+05 -8.793358E+01  6.460912E+03 -6.976752E+04  2.961576E-10 -1.340783E-10
       316  15  6.924506E+05  2.015146E+01  3.822628E+03 -8.848237E+04  8.509630E-10  1.138555E-10
       316  16  1.180294E+06  1.173300E+05  1.097789E+05 -8.819816E+04  5.910454E-10  4.904826E-11
       316  17  1.064106E+06  8.927580E+04  8.173322E+04 -6.957652E+04  8.336019E-10  2.825216E-10
       316  18  9.484470E+05  6.159103E+04  5.592057E+04 -8.838315E+04 -5.448650E-11  4.840602E-10
       316  19  2.047768E+05 -1.170270E+05 -8.725334E+04 -8.876575E+04 -1.787645E+04 -3.046175E+04
       316  20  3.203965E+05 -8.945962E+04 -6.881716E+04 -6.995811E+04 -1.477430E+04 -2.300110E+04
       316  21  4.365166E+05 -6.155452E+04 -4.827804E+04 -8.858139E+04 -1.166871E+04 -1.546000E+04
       316  22  6.924223E+05  1.593756E+02  1.126966E+04 -8.848208E+04 -9.150796E+03 -3.046353E+04
       316  23  6.921855E+05 -8.735561E+01  6.461973E+03 -6.976741E+04 -5.950878E+03 -2.300444E+04
       316  24  6.924506E+05  2.041040E+01  3.823092E+03 -8.848233E+04 -2.748067E+03 -1.546497E+04
       316  25  1.180294E+06  1.173310E+05  1.097807E+05 -8.819815E+04 -4.184224E+02 -3.046530E+04
       316  26  1.064106E+06  8.927637E+04  8.173423E+04 -6.957658E+04  2.877730E+03 -2.300777E+04
       316  27  9.484471E+05  6.159130E+04  5.592109E+04 -8.838322E+04  6.176184E+03 -1.546993E+04
       317   1  5.202106E+05 -4.126884E+04 -3.155729E+04 -8.853788E+04  1.102576E+04  1.105030E+04
       317   2  6.359063E+05 -1.352372E+04 -9.466808E+03 -6.983024E+04  1.006278E+04  3.488228E+03
       317   3  7.517088E+05  1.427620E+04  1.325135E+04 -8.850811E+04  9.099205E+03 -4.077468E+03
       317   4  6.923677E+05  4.803017E+01  2.986773E+03 -8.847246E+04  2.128472E+03  1.105580E+04
       317   5  6.923225E+05  3.460708E+01  1.950918E+03 -6.977981E+04  1.160246E+03  3.493941E+03
       317   6  6.923721E+05  7.752677E+01  1.546277E+03 -8.847247E+04  1.915856E+02 -4.071495E+03
       317   7  8.645533E+05  4.136312E+04  3.752963E+04 -8.840701E+04 -6.771230E+03  1.106129E+04
       317   8  7.487420E+05  1.359278E+04  1.336878E+04 -6.972938E+04 -7.743086E+03  3.499652E+03
       317   9  6.330389E+05 -1.412132E+04 -1.015867E+04 -8.843684E+04 -8.715201E+03 -4.065523E+03
       317  10  5.202105E+05 -4.126900E+04 -3.155775E+04 -8.853798E+04  4.188931E-10  3.687145E-10
       317  11  6.359062E+05 -1.352377E+04 -9.467021E+03 -6.983027E+04 -4.407098E-10  4.018311E-10
       317  12  7.517087E+05  1.427616E+04  1.325116E+04 -8.850808E+04 -7.867081E-10  4.967810E-10
       317  13  6.923677E+05  4.789765E+01  2.986535E+03 -8.847247E+04 -2.264774E-11  7.056412E-10
       317  14  6.923225E+05  3.459361E+01  1.950892E+03 -6.977982E+04  5.267988E-10 -5.591092E-10
       317  15  6.923721E+05  7.750895E+01  1.546245E+03 -8.847247E+04 -5.300068E-10 -3.173888E-10
       317  16  8.645532E+05  4.136297E+04  3.752932E+04 -8.840695E+04  5.531790E-11 -7.298127E-10
       317  17  7.487419E+05  1.359275E+04  1.336864E+04 -6.972936E+04  6.992209E-10 -1.902234E-10
       317  18  6.330388E+05 -1.412135E+04 -1.015885E+04 -8.843687E+04  6.718254E-10 -6.900653E-10
       317  19  5.202106E+05 -4.126884E+04 -3.155729E+04 -8.853788E+04 -1.102576E+04 -1.105030E+04
       317  20  6.359063E+05 -1.352372E+04 -9.466808E+03 -6.983024E+04 -1.006278E+04 -3.488228E+03
       317  21  7.517088E+05  1.427620E+04  1.325135E+04 -8.850811E+04 -9.099205E+03  4.077468E+03
       317  22  6.923677E+05  4.803017E+01  2.986773E+03 -8.847246E+04 -2.128472E+03 -1.105580E+04
       317  23  6.923225E+05  3.460708E+01  1.950918E+03 -6.977981E+04 -1.160246E+03 -3.493941E+03
       317  24  6.923721E+05  7.752677E+01  1.546277E+03 -8.847247E+04 -1.915856E+02  4.071495E+03
       317  25  8.645533E+05  4.136312E+04  3.752963E+04 -8.840701E+04  6.771230E+03 -1.106129E+04
       317  26  7.487420E+05  1.359278E+04  1.336878E+04 -6.972938E+04  7.743086E+03 -3.499652E+03
       317  27  6.330389E+05 -1.412132E+04 -1.015867E+04 -8.843684E+04  8.715201E+03  4.065523E+03
       318   1  8.354797E+05  3.452297E+04  3.078438E+04 -8.854339E+04  8.818884E+03 -8.482064E+03
       318   2  9.512604E+05  6.223538E+04  5.423751E+04 -6.980891E+04  7.901978E+03 -1.604908E+04
       318   3  1.067159E+06  8.999912E+04  7.829087E+04 -8.848222E+04  6.986906E+03 -2.361489E+04
       318   4  6.923712E+05  7.467092E+01  1.527716E+03 -8.847768E+04 -9.116783E+01 -8.476348E+03
       318   5  6.923084E+05  1.478482E+01  1.844115E+03 -6.977331E+04 -1.007025E+03 -1.604448E+04
       318   6  6.923522E+05  7.230079E+00  2.760813E+03 -8.847767E+04 -1.920883E+03 -2.361135E+04
       318   7  5.492823E+05 -3.437487E+04 -2.772973E+04 -8.841198E+04 -8.999205E+03 -8.470632E+03
       318   8  4.334203E+05 -6.220992E+04 -5.055245E+04 -6.973771E+04 -9.912387E+03 -1.603987E+04
       318   9  3.176793E+05 -8.999330E+04 -7.277615E+04 -8.847310E+04 -1.082341E+04 -2.360781E+04
       318  10  8.354796E+05  3.452288E+04  3.078409E+04 -8.854333E+04 -4.431401E-10  2.960137E-10
       318  11  9.512602E+05  6.223508E+04  5.423691E+04 -6.980881E+04  4.251589E-10 -2.404659E-11
       318  12  1.067159E+06  8.999851E+04  7.828973E+04 -8.848209E+04  7.013462E-10 -4.420394E-10
       318  13  6.923712E+05  7.459374E+01  1.527581E+03 -8.847768E+04  1.103765E-11  8.551788E-10
       318  14  6.923083E+05  1.450803E+01  1.843629E+03 -6.977332E+04 -5.029474E-10  7.320149E-10
       318  15  6.923521E+05  6.630233E+00  2.759758E+03 -8.847771E+04  9.806129E-10 -9.811492E-10
       318  16  5.492822E+05 -3.437497E+04 -2.773002E+04 -8.841204E+04  9.827147E-10  1.121233E-10
       318  17  4.334201E+05 -6.221023E+04 -5.055312E+04 -6.973784E+04  1.286053E-10  6.754891E-10
       318  18  3.176791E+05 -8.999393E+04 -7.277742E+04 -8.847331E+04 -2.120511E-10 -4.947416E-10
       318  19  8.354797E+05  3.452297E+04  3.078438E+04 -8.854339E+04 -8.818884E+03  8.482064E+03
       318  20  9.512604E+05  6.223538E+04  5.423751E+04 -6.980891E+04 -7.901978E+03  1.604908E+04
       318  21  1.067159E+06  8.999912E+04  7.829087E+04 -8.848222E+04 -6.986906E+03  2.361489E+04
       318  22  6.923712E+05  7.467092E+01  1.527716E+03 -8.847768E+04  9.116783E+01  8.476348E+03
       318  23  6.923084E+05  1.478482E+01  1.844115E+03 -6.977331E+04  1.007025E+03  1.604448E+04
       318  24  6.923522E+05  7.230079E+00  2.760813E+03 -8.847767E+04  1.920883E+03  2.361135E+04
       318  25  5.492823E+05 -3.437487E+04 -2.772973E+04 -8.841198E+04  8.999205E+03  8.470632E+03
       318  26  4.334203E+05 -6.220992E+04 -5.055245E+04 -6.973771E+04  9.912387E+03  1.603987E+04
       318  27  3.176793E+05 -8.999330E+04 -7.277615E+04 -8.847310E+04  1.082341E+04  2.360781E+04
       319   1  1.151163E+06  1.102467E+05  9.662117E+04 -8.845084E+04  6.447970E+03 -2.802898E+04
       319   2  1.267033E+06  1.379683E+05  1.222278E+05 -6.956645E+04  3.412995E+03 -3.557264E+04
       319   3  1.383453E+06  1.660268E+05  1.499029E+05 -8.816839E+04  3.818124E+02 -4.302404E+04
       319   4  6.924286E+05 -2.427467E+01  3.516116E+03 -8.849540E+04 -2.491269E+03 -2.802649E+04
       319   5  6.921489E+05 -1.439701E+02  5.903490E+03 -6.975109E+04 -5.415948E+03 -3.557262E+04
       319   6  6.923856E+05  5.482190E+01  1.028405E+04 -8.849521E+04 -8.336285E+03 -4.302640E+04
       319   7  2.338939E+05 -1.103083E+05 -8.959961E+04 -8.853990E+04 -1.142404E+04 -2.802399E+04
       319   8  1.175787E+05 -1.382766E+05 -1.104377E+05 -6.993551E+04 -1.423688E+04 -3.557259E+04
       319   9  1.772649E+03 -1.659466E+05 -1.293592E+05 -8.882163E+04 -1.704488E+04 -4.302876E+04
       319  10  1.151163E+06  1.102459E+05  9.661962E+04 -8.845069E+04 -1.119411E-09 -2.349739E-11
       319  11  1.267033E+06  1.379669E+05  1.222254E+05 -6.956636E+04 -1.091574E-09  6.352474E-11
       319  12  1.383452E+06  1.660248E+05  1.498995E+05 -8.816837E+04 -9.235670E-10  4.762275E-10
       319  13  6.924284E+05 -2.512009E+01  3.514628E+03 -8.849546E+04 -2.385039E-10 -7.221472E-10
       319  14  6.921485E+05 -1.453373E+02  5.901056E+03 -6.975125E+04  1.417157E-09 -2.092167E-10
       319  15  6.923850E+05  5.281462E+01  1.028044E+04 -8.849550E+04 -7.609913E-11  4.380669E-10
       319  16  2.338935E+05 -1.103092E+05 -8.960133E+04 -8.854016E+04  1.286783E-09 -1.940291E-10
       319  17  1.175781E+05 -1.382781E+05 -1.104404E+05 -6.993592E+04  1.057359E-09 -2.991236E-10
       319  18  1.771840E+03 -1.659487E+05 -1.293632E+05 -8.882222E+04  6.878277E-10  8.288315E-11
       319  19  1.151163E+06  1.102467E+05  9.662117E+04 -8.845084E+04 -6.447970E+03  2.802898E+04
       319  20  1.267033E+06  1.379683E+05  1.222278E+05 -6.956645E+04 -3.412995E+03  3.557264E+04
       319  21  1.383453E+06  1.660268E+05  1.499029E+05 -8.816839E+04 -3.818124E+02  4.302404E+04
       319  22  6.924286E+05 -2.427467E+01  3.516116E+03 -8.849540E+04  2.491269E+03  2.802649E+04
       319  23  6.921489E+05 -1.439701E+02  5.903490E+03 -6.975109E+04  5.415948E+03  3.557262E+04
       319  24  6.923856E+05  5.482190E+01  1.028405E+04 -8.849521E+04  8.336285E+03  4.302640E+04
       319  25  2.338939E+05 -1.103083E+05 -8.959961E+04 -8.853990E+04  1.142404E+04  2.802399E+04
       319  26  1.175787E+05 -1.382766E+05 -1.104377E+05 -6.993551E+04  1.423688E+04  3.557259E+04
       319  27  1.772649E+03 -1.659466E+05 -1.293592E+05 -8.882163E+04  1.704488E+04  4.302876E+04
       320   1  1.468334E+06  1.858292E+05  1.706855E+05 -8.702472E+04 -1.253431E+03 -4.752339E+04
       320   2  1.583162E+06  2.143320E+05  2.044388E+05 -6.995391E+04 -1.514631E+04 -5.439549E+04
       320   3  1.701679E+06  2.495255E+05  2.489388E+05 -9.043633E+04 -2.903662E+04 -5.941242E+04
       320   4  6.929787E+05 -4.907416E+02  1.347504E+04 -8.850985E+04 -1.043438E+04 -4.752758E+04
       320   5  6.912926E+05 -1.294211E+01  2.341234E+04 -6.973224E+04 -2.212633E+04 -5.440300E+04
       320   6  6.929075E+05  6.781077E+03  4.258083E+04 -8.851084E+04 -3.381316E+04 -5.942202E+04
       320   7 -8.180547E+04 -1.868480E+05 -1.437664E+05 -8.999305E+04 -1.960409E+04 -4.753173E+04
       320   8 -1.998213E+05 -2.144073E+05 -1.576554E+05 -6.951089E+04 -2.909652E+04 -5.441052E+04
       320   9 -3.148991E+05 -2.360270E+05 -1.638310E+05 -8.658855E+04 -3.858207E+04 -5.943166E+04
       320  10  1.468333E+06  1.858268E+05  1.706812E+05 -8.702477E+04  5.099746E-10  1.257016E-10
       320  11  1.583161E+06  2.143288E+05  2.044328E+05 -6.995458E+04 -1.155257E-09 -8.437855E-10
       320  12  1.701677E+06  2.495214E+05  2.489306E+05 -9.043772E+04 -2.033879E-09 -2.940104E-10
       320  13  6.929779E+05 -4.931973E+02  1.347059E+04 -8.851025E+04 -1.338158E-09 -2.716013E-10
       320  14  6.912913E+05 -1.625271E+01  2.340586E+04 -6.973321E+04 -2.201837E-09 -6.467168E-10
       320  15  6.929053E+05  6.776978E+03  4.257205E+04 -8.851245E+04 -2.068449E-10 -6.178487E-11
       320  16 -8.180649E+04 -1.868505E+05 -1.437713E+05 -8.999380E+04 -6.236484E-10 -3.997127E-10
       320  17 -1.998230E+05 -2.144107E+05 -1.576626E+05 -6.951216E+04  4.315793E-10 -7.498577E-10
       320  18 -3.149016E+05 -2.360312E+05 -1.638404E+05 -8.659040E+04  1.274950E-09  8.389642E-10
       320  19  1.468334E+06  1.858292E+05  1.706855E+05 -8.702472E+04  1.253431E+03  4.752339E+04
       320  20  1.583162E+06  2.143320E+05  2.044388E+05 -6.995391E+04  1.514631E+04  5.439549E+04
       320  21  1.701679E+06  2.495255E+05  2.489388E+05 -9.043633E+04  2.903662E+04  5.941242E+04
       320  22  6.929787E+05 -4.907416E+02  1.347504E+04 -8.850985E+04  1.043438E+04  4.752758E+04
       320  23  6.912926E+05 -1.294211E+01  2.341234E+04 -6.973224E+04  2.212633E+04  5.440300E+04
       320  24  6.929075E+05  6.781077E+03  4.258083E+04 -8.851084E+04  3.381316E+04  5.942202E+04
       320  25 -8.180547E+04 -1.868480E+05 -1.437664E+05 -8.999305E+04  1.960409E+04  4.753173E+04
       320  26 -1.998213E+05 -2.144073E+05 -1.576554E+05 -6.951089E+04  2.909652E+04  5.441052E+04
       320  27 -3.148991E+05 -2.360270E+05 -1.638310E+05 -8.658855E+04  3.858207E+04  5.943166E+04
       321   1  1.796104E+06  2.578081E+05  2.777894E+05 -6.606303E+04 -2.806078E+04 -6.524870E+04
       321   2  1.889192E+06  3.069142E+05  3.521298E+05 -1.064141E+05 -1.190462E+05 -5.921489E+04
       321   3  2.031596E+06  5.045315E+05  5.228063E+05 -1.828952E+05 -2.101021E+05 -1.858573E+04
       321   4  7.015475E+05 -5.480074E+03  5.449165E+04 -8.815339E+04 -4.121663E+04 -6.526422E+04
       321   5  6.803205E+05  1.428229E+04  9.564592E+04 -7.017555E+04 -9.134814E+04 -5.920581E+04
       321   6  7.014024E+05  1.756197E+05  2.048969E+05 -8.831760E+04 -1.415279E+05 -1.853866E+04
       321   7 -3.918719E+05 -2.688412E+05 -1.688683E+05 -1.102043E+05 -5.434971E+04 -6.527883E+04
       321   8 -5.271727E+05 -2.784388E+05 -1.609178E+05 -3.400870E+04 -6.370293E+04 -5.919350E+04
       321   9 -6.271445E+05 -1.533836E+05 -1.131147E+05  6.056708E+03 -7.309939E+04 -1.847073E+04
       321  10  1.796102E+06  2.578033E+05  2.777799E+05 -6.606450E+04  1.061944E-09  2.822664E-10
       321  11  1.889176E+06  3.069066E+05  3.520967E+05 -1.064197E+05  1.412733E-09  5.457668E-10
       321  12  2.031549E+06  5.045194E+05  5.227229E+05 -1.828984E+05  3.544572E-10  7.441864E-10
       321  13  7.015445E+05 -5.485105E+03  5.448045E+04 -8.815556E+04 -7.402534E-10 -6.207721E-10
       321  14  6.803106E+05  1.427629E+04  9.562367E+04 -7.017990E+04  8.129995E-10  2.607230E-10
       321  15  7.013808E+05  1.756140E+05  2.048586E+05 -8.831971E+04 -1.545614E-10 -4.787119E-10
       321  16 -3.918762E+05 -2.688466E+05 -1.688819E+05 -1.102071E+05 -2.382062E-09  7.399610E-10
       321  17 -5.271780E+05 -2.784437E+05 -1.609320E+05 -3.401174E+04 -1.435228E-09 -8.177673E-10
       321  18 -6.271503E+05 -1.533854E+05 -1.131254E+05  6.055620E+03 -5.970279E-11  8.707451E-10
       321  19  1.796104E+06  2.578081E+05  2.777894E+05 -6.606303E+04  2.806078E+04  6.524870E+04
       321  20  1.889192E+06  3.069142E+05  3.521298E+05 -1.064141E+05  1.190462E+05  5.921489E+04
       321  21  2.031596E+06  5.045315E+05  5.228063E+05 -1.828952E+05  2.101021E+05  1.858573E+04
       321  22  7.015475E+05 -5.480074E+03  5.449165E+04 -8.815339E+04  4.121663E+04  6.526422E+04
       321  23  6.803205E+05  1.428229E+04  9.564592E+04 -7.017555E+04  9.134814E+04  5.920581E+04
       321  24  7.014024E+05  1.756197E+05  2.048969E+05 -8.831760E+04  1.415279E+05  1.853866E+04
       321  25 -3.918719E+05 -2.688412E+05 -1.688683E+05 -1.102043E+05  5.434971E+04  6.527883E+04
       321  26 -5.271727E+05 -2.784388E+05 -1.609178E+05 -3.400870E+04  6.370293E+04  5.919350E+04
       321  27 -6.271445E+05 -1.533836E+05 -1.131147E+05  6.056708E+03  7.309939E+04  1.847073E+04
       322   1  3.591308E+05  1.265683E+06  3.740579E+05 -3.160000E+05  9.395659E+03  1.336027E+05
       322   2  1.583762E+05  9.246314E+05  2.038700E+05 -2.220297E+05  2.543532E+04  6.475097E+04
       322   3  6.582824E+04  6.194535E+05  1.054459E+05 -2.308528E+05  1.511624E+04 -4.092719E+03
       322   4  1.278423E+05  3.346665E+05  1.488323E+05 -2.456435E+05  9.458304E+03  9.923714E+04
       322   5  1.101859E+04  3.195136E+05  7.223792E+04 -1.943422E+05  2.544481E+04  6.147459E+04
       322   6 -2.920846E+03  3.348067E+05  4.590379E+04 -2.458176E+05  1.507033E+04  2.368350E+04
       322   7 -1.034906E+05 -5.955467E+05 -7.644864E+04 -1.753922E+05  9.513235E+03  6.492280E+04
       322   8 -1.363605E+05 -2.852596E+05 -5.941563E+04 -1.666818E+05  2.545401E+04  5.820133E+04
       322   9 -7.167384E+04  5.023871E+04 -1.363982E+04 -2.607755E+05  1.502307E+04  5.144719E+04
       322  10  3.591259E+05  1.265664E+06  3.740243E+05 -3.160010E+05  2.207728E-10  4.661065E-10
       322  11  1.583743E+05  9.246267E+05  2.038609E+05 -2.220311E+05  7.865565E-11 -4.958068E-11
       322  12  6.582799E+04  6.194534E+05  1.054455E+05 -2.308527E+05  7.801668E-10 -1.186161E-10
       322  13  1.278396E+05  3.346559E+05  1.488136E+05 -2.456442E+05  5.421979E-10  4.685048E-10
       322  14  1.101688E+04  3.195094E+05  7.222960E+04 -1.943435E+05 -8.768597E-10  6.701247E-10
       322  15 -2.921240E+03  3.348061E+05  4.590231E+04 -2.458179E+05 -2.689218E-12  2.402919E-10
       322  16 -1.034919E+05 -5.955512E+05 -7.645674E+04 -1.753927E+05 -3.389249E-11 -2.482062E-10
       322  17 -1.363621E+05 -2.852634E+05 -5.942322E+04 -1.666830E+05  3.959510E-10 -2.315560E-10
       322  18 -7.167479E+04  5.023580E+04 -1.364522E+04 -2.607761E+05 -4.638732E-10 -3.429331E-10
       322  19  3.591308E+05  1.265683E+06  3.740579E+05 -3.160000E+05 -9.395659E+03 -1.336027E+05
       322  20  1.583762E+05  9.246314E+05  2.038700E+05 -2.220297E+05 -2.543532E+04 -6.475097E+04
       322  21  6.582824E+04  6.194535E+05  1.054459E+05 -2.308528E+05 -1.511624E+04  4.092719E+03
       322  22  1.278423E+05  3.346665E+05  1.488323E+05 -2.456435E+05 -9.458304E+03 -9.923714E+04
       322  23  1.101859E+04  3.195136E+05  7.223792E+04 -1.943422E+05 -2.544481E+04 -6.147459E+04
       322  24 -2.920846E+03  3.348067E+05  4.590379E+04 -2.458176E+05 -1.507033E+04 -2.368350E+04
       322  25 -1.034906E+05 -5.955467E+05 -7.644864E+04 -1.753922E+05 -9.513235E+03 -6.492280E+04
       322  26 -1.363605E+05 -2.852596E+05 -5.941563E+04 -1.666818E+05 -2.545401E+04 -5.820133E+04
       322  27 -7.167384E+04  5.023871E+04 -1.363982E+04 -2.607755E+05 -1.502307E+04 -5.144719E+04
       323   1  1.782462E+04  3.789557E+05  5.082865E+04 -2.488234E+05  1.682226E+03 -4.953177E+03
       323   2 -6.483666E+04  5.410411E+04 -2.270962E+04 -1.937474E+05 -1.654148E+04 -2.047299E+04
       323   3 -1.384458E+05 -2.666491E+05 -8.396764E+04 -2.427642E+05 -3.402203E+04 -3.597897E+04
       323   4  5.580093E+03  3.289765E+05  3.961921E+04 -2.460731E+05  1.644947E+03  1.695259E+04
       323   5  8.044561E+02  3.268737E+05  3.277761E+04 -1.940290E+05 -1.657431E+04  5.512348E+02
       323   6  5.237938E+03  3.289216E+05  3.882956E+04 -2.460734E+05 -3.405074E+04 -1.584403E+04
       323   7 -6.664318E+03  2.790008E+05  2.841141E+04 -2.433230E+05  1.607860E+03  3.885662E+04
       323   8  6.644117E+04  5.997149E+05  8.826260E+04 -1.943106E+05 -1.660714E+04  2.158453E+04
       323   9  1.488995E+05  9.248295E+05  1.616092E+05 -2.493855E+05 -3.407965E+04  4.309895E+03
       323  10  1.782461E+04  3.789556E+05  5.082860E+04 -2.488234E+05  1.906720E-10 -2.693199E-11
       323  11 -6.483706E+04  5.410359E+04 -2.271092E+04 -1.937477E+05  7.419880E-10 -4.950333E-10
       323  12 -1.384474E+05 -2.666508E+05 -8.397225E+04 -2.427652E+05 -2.309390E-10 -3.540570E-10
       323  13  5.580013E+03  3.289762E+05  3.961866E+04 -2.460731E+05 -3.573682E-11  6.822069E-10
       323  14  8.041610E+02  3.268736E+05  3.277709E+04 -1.940290E+05  1.874370E-09  5.975023E-10
       323  15  5.236625E+03  3.289210E+05  3.882690E+04 -2.460738E+05  1.405791E-09  1.371763E-10
       323  16 -6.664726E+03  2.789992E+05  2.840857E+04 -2.433230E+05 -3.091047E-11  4.036804E-10
       323  17  6.644074E+04  5.997144E+05  8.826121E+04 -1.943103E+05 -2.805305E-10  1.032307E-10
       323  18  1.488983E+05  9.248292E+05  1.616070E+05 -2.493854E+05 -4.405010E-10  7.386464E-12
       323  19  1.782462E+04  3.789557E+05  5.082865E+04 -2.488234E+05 -1.682226E+03  4.953177E+03
       323  20 -6.483666E+04  5.410411E+04 -2.270962E+04 -1.937474E+05  1.654148E+04  2.047299E+04
       323  21 -1.384458E+05 -2.666491E+05 -8.396764E+04 -2.427642E+05  3.402203E+04  3.597897E+04
       323  22  5.580093E+03  3.289765E+05  3.961921E+04 -2.460731E+05 -1.644947E+03 -1.695259E+04
       323  23  8.044561E+02  3.268737E+05  3.277761E+04 -1.940290E+05  1.657431E+04 -5.512348E+02
       323  24  5.237938E+03  3.289216E+05  3.882956E+04 -2.460734E+05  3.405074E+04  1.584403E+04
       323  25 -6.664318E+03  2.790008E+05  2.841141E+04 -2.433230E+05 -1.607860E+03 -3.885662E+04
       323  26  6.644117E+04  5.997149E+05  8.826260E+04 -1.943106E+05  1.660714E+04 -2.158453E+04
       323  27  1.488995E+05  9.248295E+05  1.616092E+05 -2.493855E+05  3.407965E+04 -4.309895E+03
       324   1 -2.032353E+05 -4.959965E+05 -1.261360E+05 -2.595574E+05 -4.796684E+04 -5.194013E+04
       324   2 -2.690988E+05 -8.299194E+05 -1.770660E+05 -1.675977E+05 -5.300092E+04 -4.109753E+04
       324   3 -2.438112E+05 -1.142225E+06 -2.122494E+05 -1.777833E+05 -1.779005E+04 -3.023629E+04
       324   4 -2.984427E+03  3.345258E+05  4.472104E+04 -2.456600E+05 -4.800589E+04 -2.243207E+04
       324   5  1.031461E+04  3.195668E+05  6.979318E+04 -1.945402E+05 -5.297203E+04 -5.891693E+04
       324   6  1.228849E+05  3.342775E+05  1.434384E+05 -2.455353E+05 -1.772831E+04 -9.537879E+04
       324   7  1.972242E+05  1.165705E+06  2.155444E+05 -2.317434E+05 -4.804358E+04  7.114794E+03
       324   8  2.896441E+05  1.470298E+06  3.165767E+05 -2.215328E+05 -5.294164E+04 -7.676881E+04
       324   9  4.894413E+05  1.812795E+06  4.989890E+05 -3.134485E+05 -1.765244E+04 -1.606757E+05
       324  10 -2.032385E+05 -4.960000E+05 -1.261454E+05 -2.595594E+05  3.793426E-10 -6.119911E-11
       324  11 -2.691022E+05 -8.299219E+05 -1.770745E+05 -1.675994E+05  1.122751E-10 -1.850391E-10
       324  12 -2.438118E+05 -1.142226E+06 -2.122517E+05 -1.777838E+05 -2.948453E-10 -1.486082E-10
       324  13 -2.987037E+03  3.345247E+05  4.471576E+04 -2.456609E+05 -7.406015E-10  6.719915E-10
       324  14  1.031067E+04  3.195624E+05  6.978139E+04 -1.945427E+05  9.798014E-11  3.157486E-10
       324  15  1.228821E+05  3.342677E+05  1.434207E+05 -2.455367E+05 -2.765567E-10  7.427963E-11
       324  16  1.972217E+05  1.165705E+06  2.155400E+05 -2.317431E+05  1.801442E-10  2.483298E-10
       324  17  2.896396E+05  1.470291E+06  3.165604E+05 -2.215361E+05  1.139758E-10 -2.574167E-10
       324  18  4.894340E+05  1.812767E+06  4.989400E+05 -3.134508E+05 -9.514776E-11 -2.871353E-11
       324  19 -2.032353E+05 -4.959965E+05 -1.261360E+05 -2.595574E+05  4.796684E+04  5.194013E+04
       324  20 -2.690988E+05 -8.299194E+05 -1.770660E+05 -1.675977E+05  5.300092E+04  4.109753E+04
       324  21 -2.438112E+05 -1.142225E+06 -2.122494E+05 -1.777833E+05  1.779005E+04  3.023629E+04
       324  22 -2.984427E+03  3.345258E+05  4.472104E+04 -2.456600E+05  4.800589E+04  2.243207E+04
       324  23  1.031461E+04  3.195668E+05  6.979318E+04 -1.945402E+05  5.297203E+04  5.891693E+04
       324  24  1.228849E+05  3.342775E+05  1.434384E+05 -2.455353E+05  1.772831E+04  9.537879E+04
       324  25  1.972242E+05  1.165705E+06  2.155444E+05 -2.317434E+05  4.804358E+04 -7.114794E+03
       324  26  2.896441E+05  1.470298E+06  3.165767E+05 -2.215328E+05  5.294164E+04  7.676881E+04
       324  27  4.894413E+05  1.812795E+06  4.989890E+05 -3.134485E+05  1.765244E+04  1.606757E+05
       325   1 -2.434305E+06 -9.396896E+05 -5.418672E+05 -9.482625E+05 -2.691143E+05 -8.911024E+04
       325   2 -2.366559E+06 -5.804495E+05 -3.051494E+05 -9.254028E+05 -1.706839E+05 -2.600427E+04
       325   3 -2.384318E+06 -4.720400E+05 -2.122314E+05 -8.631264E+05 -6.459779E+04  1.679321E+04
       325   4 -1.833734E+06 -5.656955E+05 -3.550741E+05 -6.322782E+05 -2.314613E+05 -7.503926E+04
       325   5 -1.773629E+06 -3.041046E+05 -1.581819E+05 -7.039452E+05 -1.561919E+05 -2.058206E+04
       325   6 -1.794339E+06 -2.886403E+05 -8.660280E+04 -7.362292E+05 -7.327500E+04  1.353595E+04
       325   7 -1.232759E+06 -1.914457E+05 -1.683077E+05 -3.159586E+05 -1.937690E+05 -6.093081E+04
       325   8 -1.180336E+06 -2.767013E+04 -1.123978E+04 -4.822732E+05 -1.416850E+05 -1.515085E+04
       325   9 -1.204001E+06 -1.052346E+05  3.900843E+04 -6.092307E+05 -8.196124E+04  1.027653E+04
       325  10 -2.434385E+06 -9.397177E+05 -5.420189E+05 -9.482819E+05 -2.205849E-11  6.219038E-11
       325  11 -2.366591E+06 -5.804581E+05 -3.052056E+05 -9.254064E+05  4.513472E-10 -2.086280E-10
       325  12 -2.384322E+06 -4.720414E+05 -2.122398E+05 -8.631256E+05  1.587351E-10  3.702487E-11
       325  13 -1.833793E+06 -5.657160E+05 -3.551858E+05 -6.322923E+05  4.669059E-10  4.076939E-10
       325  14 -1.773655E+06 -3.041117E+05 -1.582287E+05 -7.039478E+05  1.216065E-09 -5.874710E-10
       325  15 -1.794344E+06 -2.886420E+05 -8.661325E+04 -7.362284E+05 -4.450681E-10  7.928352E-11
       325  16 -1.232800E+06 -1.914598E+05 -1.683854E+05 -3.159681E+05  9.956735E-11 -2.883286E-10
       325  17 -1.180357E+06 -2.767578E+04 -1.127801E+04 -4.822750E+05 -1.073301E-10 -4.488199E-11
       325  18 -1.204009E+06 -1.052366E+05  3.899559E+04 -6.092300E+05  1.368584E-10 -1.922946E-10
       325  19 -2.434305E+06 -9.396896E+05 -5.418672E+05 -9.482625E+05  2.691143E+05  8.911024E+04
       325  20 -2.366559E+06 -5.804495E+05 -3.051494E+05 -9.254028E+05  1.706839E+05  2.600427E+04
       325  21 -2.384318E+06 -4.720400E+05 -2.122314E+05 -8.631264E+05  6.459779E+04 -1.679321E+04
       325  22 -1.833734E+06 -5.656955E+05 -3.550741E+05 -6.322782E+05  2.314613E+05  7.503926E+04
       325  23 -1.773629E+06 -3.041046E+05 -1.581819E+05 -7.039452E+05  1.561919E+05  2.058206E+04
       325  24 -1.794339E+06 -2.886403E+05 -8.660280E+04 -7.362292E+05  7.327500E+04 -1.353595E+04
       325  25 -1.232759E+06 -1.914457E+05 -1.683077E+05 -3.159586E+05  1.937690E+05  6.093081E+04
       325  26 -1.180336E+06 -2.767013E+04 -1.123978E+04 -4.822732E+05  1.416850E+05  1.515085E+04
       325  27 -1.204001E+06 -1.052346E+05  3.900843E+04 -6.092307E+05  8.196124E+04 -1.027653E+04
       326   1 -2.292161E+06 -4.984168E+05 -1.815170E+05 -8.681737E+05 -5.792416E+04  1.484847E+04
       326   2 -2.226803E+06 -4.494740E+05 -1.326013E+05 -8.389324E+05 -3.756704E+04  1.839708E+04
       326   3 -2.150462E+06 -4.287943E+05 -1.007348E+05 -8.276471E+05 -1.680894E+04  2.087849E+04
       326   4 -1.783293E+06 -3.066525E+05 -6.728595E+04 -7.240085E+05 -6.143973E+04  1.352603E+04
       326   5 -1.788060E+06 -2.868144E+05 -3.533359E+04 -7.172062E+05 -4.228782E+04  1.662389E+04
       326   6 -1.781603E+06 -2.949927E+05 -1.946129E+04 -7.283610E+05 -2.273744E+04  1.865385E+04
       326   7 -1.274163E+06 -1.148653E+05  4.692860E+04 -5.797334E+05 -6.495840E+04  1.220236E+04
       326   8 -1.349123E+06 -1.241397E+05  6.192179E+04 -5.954011E+05 -4.701219E+04  1.484933E+04
       326   9 -1.412608E+06 -1.611825E+05  6.180337E+04 -6.290217E+05 -2.866972E+04  1.642785E+04
       326  10 -2.292164E+06 -4.984180E+05 -1.815237E+05 -8.681730E+05 -2.726673E-10 -2.458471E-10
       326  11 -2.226805E+06 -4.494748E+05 -1.326045E+05 -8.389319E+05 -5.784031E-10 -1.645707E-10
       326  12 -2.150462E+06 -4.287948E+05 -1.007362E+05 -8.276468E+05 -6.712165E-10  3.518148E-10
       326  13 -1.783297E+06 -3.066537E+05 -6.729340E+04 -7.240078E+05  6.486646E-10 -8.553487E-11
       326  14 -1.788062E+06 -2.868151E+05 -3.533748E+04 -7.172057E+05 -3.325448E-11  1.178761E-10
       326  15 -1.781603E+06 -2.949932E+05 -1.946292E+04 -7.283606E+05 -7.485368E-10  3.133289E-10
       326  16 -1.274168E+06 -1.148666E+05  4.692038E+04 -5.797328E+05  2.621929E-10  1.404234E-10
       326  17 -1.349126E+06 -1.241405E+05  6.191722E+04 -5.954005E+05 -4.748881E-10  3.494812E-10
       326  18 -1.412609E+06 -1.611830E+05  6.180132E+04 -6.290213E+05  4.040687E-10  6.066904E-10
       326  19 -2.292161E+06 -4.984168E+05 -1.815170E+05 -8.681737E+05  5.792416E+04 -1.484847E+04
       326  20 -2.226803E+06 -4.494740E+05 -1.326013E+05 -8.389324E+05  3.756704E+04 -1.839708E+04
       326  21 -2.150462E+06 -4.287943E+05 -1.007348E+05 -8.276471E+05  1.680894E+04 -2.087849E+04
       326  22 -1.783293E+06 -3.066525E+05 -6.728595E+04 -7.240085E+05  6.143973E+04 -1.352603E+04
       326  23 -1.788060E+06 -2.868144E+05 -3.533359E+04 -7.172062E+05  4.228782E+04 -1.662389E+04
       326  24 -1.781603E+06 -2.949927E+05 -1.946129E+04 -7.283610E+05  2.273744E+04 -1.865385E+04
       326  25 -1.274163E+06 -1.148653E+05  4.692860E+04 -5.797334E+05  6.495840E+04 -1.220236E+04
       326  26 -1.349123E+06 -1.241397E+05  6.192179E+04 -5.954011E+05  4.701219E+04 -1.484933E+04
       326  27 -1.412608E+06 -1.611825E+05  6.180337E+04 -6.290217E+05  2.866972E+04 -1.642785E+04
       327   1 -2.095050E+06 -4.111398E+05 -8.378417E+04 -8.138761E+05 -1.319538E+04  1.881612E+04
       327   2 -2.030436E+06 -3.750785E+05 -6.122110E+04 -7.837937E+05 -7.229771E+03  1.534992E+04
       327   3 -1.948921E+06 -3.571775E+05 -4.183518E+04 -7.739353E+05 -1.240351E+03  1.181776E+04
       327   4 -1.780750E+06 -2.957580E+05 -1.469169E+04 -7.277524E+05 -1.887495E+04  1.668554E+04
       327   5 -1.789170E+06 -2.865011E+05 -8.055465E+03 -7.177045E+05 -1.298296E+04  1.319256E+04
       327   6 -1.780681E+06 -2.953902E+05 -4.536912E+03 -7.278826E+05 -7.067695E+03  9.633474E+03
       327   7 -1.466348E+06 -1.803677E+05  5.439550E+04 -6.415880E+05 -2.455767E+04  1.455379E+04
       327   8 -1.547844E+06 -1.979190E+05  4.510698E+04 -6.515915E+05 -1.873858E+04  1.103430E+04
       327   9 -1.612412E+06 -2.336008E+05  3.275976E+04 -6.818184E+05 -1.289675E+04  7.448548E+03
       327  10 -2.095050E+06 -4.111403E+05 -8.378516E+04 -8.138759E+05  2.231420E-10  7.103581E-10
       327  11 -2.030436E+06 -3.750787E+05 -6.122164E+04 -7.837936E+05 -1.966702E-11  1.431052E-10
       327  12 -1.948921E+06 -3.571777E+05 -4.183545E+04 -7.739353E+05 -2.472043E-10 -6.417556E-11
       327  13 -1.780750E+06 -2.957584E+05 -1.469288E+04 -7.277522E+05  3.600278E-10  5.664504E-10
       327  14 -1.789170E+06 -2.865014E+05 -8.056109E+03 -7.177044E+05 -4.441047E-10  1.950547E-10
       327  15 -1.780681E+06 -2.953904E+05 -4.537180E+03 -7.278825E+05 -7.159203E-10 -3.211434E-10
       327  16 -1.466348E+06 -1.803681E+05  5.439397E+04 -6.415877E+05 -3.637911E-10  1.472846E-10
       327  17 -1.547844E+06 -1.979192E+05  4.510609E+04 -6.515913E+05 -7.135690E-10  1.308474E-10
       327  18 -1.612412E+06 -2.336009E+05  3.275934E+04 -6.818183E+05 -5.242780E-11  1.991764E-10
       327  19 -2.095050E+06 -4.111398E+05 -8.378417E+04 -8.138761E+05  1.319538E+04 -1.881612E+04
       327  20 -2.030436E+06 -3.750785E+05 -6.122110E+04 -7.837937E+05  7.229771E+03 -1.534992E+04
       327  21 -1.948921E+06 -3.571775E+05 -4.183518E+04 -7.739353E+05  1.240351E+03 -1.181776E+04
       327  22 -1.780750E+06 -2.957580E+05 -1.469169E+04 -7.277524E+05  1.887495E+04 -1.668554E+04
       327  23 -1.789170E+06 -2.865011E+05 -8.055465E+03 -7.177045E+05  1.298296E+04 -1.319256E+04
       327  24 -1.780681E+06 -2.953902E+05 -4.536912E+03 -7.278826E+05  7.067695E+03 -9.633474E+03
       327  25 -1.466348E+06 -1.803677E+05  5.439550E+04 -6.415880E+05  2.455767E+04 -1.455379E+04
       327  26 -1.547844E+06 -1.979190E+05  4.510698E+04 -6.515915E+05  1.873858E+04 -1.103430E+04
       327  27 -1.612412E+06 -2.336008E+05  3.275976E+04 -6.818184E+05  1.289675E+04 -7.448548E+03
       328   1 -1.895118E+06 -3.374415E+05 -2.848916E+04 -7.592538E+05  5.305544E+02  9.096358E+03
       328   2 -1.830540E+06 -3.016752E+05 -1.123576E+04 -7.289626E+05  3.520623E+03  4.406060E+03
       328   3 -1.748439E+06 -2.836243E+05  5.205228E+03 -7.189677E+05  6.512244E+03 -2.889048E+02
       328   4 -1.780560E+06 -2.954204E+05 -3.485745E+03 -7.278499E+05 -5.291122E+03  6.914510E+03
       328   5 -1.789318E+06 -2.865693E+05 -2.159910E+03 -7.176977E+05 -2.306541E+03  2.222302E+03
       328   6 -1.780559E+06 -2.954330E+05 -1.641922E+03 -7.278440E+05  6.794633E+02 -2.474617E+03
       328   7 -1.665989E+06 -2.533986E+05  2.151682E+04 -6.964408E+05 -1.111392E+04  4.732243E+03
       328   8 -1.748095E+06 -2.714633E+05  6.915981E+03 -7.064321E+05 -8.134125E+03  3.838985E+01
       328   9 -1.812677E+06 -3.072416E+05 -8.489044E+03 -7.367198E+05 -5.153029E+03 -4.660222E+03
       328  10 -1.895118E+06 -3.374416E+05 -2.848932E+04 -7.592538E+05 -1.618546E-10 -1.428011E-10
       328  11 -1.830540E+06 -3.016752E+05 -1.123582E+04 -7.289626E+05 -1.096308E-09 -4.903725E-10
       328  12 -1.748439E+06 -2.836243E+05  5.205148E+03 -7.189677E+05 -1.026888E-09 -6.663591E-11
       328  13 -1.780560E+06 -2.954205E+05 -3.485887E+03 -7.278498E+05 -1.582811E-10 -6.014578E-11
       328  14 -1.789318E+06 -2.865693E+05 -2.159929E+03 -7.176977E+05 -2.245683E-11 -1.293541E-10
       328  15 -1.780559E+06 -2.954330E+05 -1.641935E+03 -7.278440E+05 -4.808951E-10  1.495487E-10
       328  16 -1.665989E+06 -2.533986E+05  2.151655E+04 -6.964408E+05 -3.748752E-10 -3.564170E-10
       328  17 -1.748095E+06 -2.714633E+05  6.915856E+03 -7.064321E+05  2.013974E-10 -8.057373E-11
       328  18 -1.812677E+06 -3.072416E+05 -8.489135E+03 -7.367198E+05  5.318673E-10  7.121752E-10
       328  19 -1.895118E+06 -3.374415E+05 -2.848916E+04 -7.592538E+05 -5.305544E+02 -9.096358E+03
       328  20 -1.830540E+06 -3.016752E+05 -1.123576E+04 -7.289626E+05 -3.520623E+03 -4.406060E+03
       328  21 -1.748439E+06 -2.836243E+05  5.205228E+03 -7.189677E+05 -6.512244E+03  2.889048E+02
       328  22 -1.780560E+06 -2.954204E+05 -3.485745E+03 -7.278499E+05  5.291122E+03 -6.914510E+03
       328  23 -1.789318E+06 -2.865693E+05 -2.159910E+03 -7.176977E+05  2.306541E+03 -2.222302E+03
       328  24 -1.780559E+06 -2.954330E+05 -1.641922E+03 -7.278440E+05 -6.794633E+02  2.474617E+03
       328  25 -1.665989E+06 -2.533986E+05  2.151682E+04 -6.964408E+05  1.111392E+04 -4.732243E+03
       328  26 -1.748095E+06 -2.714633E+05  6.915981E+03 -7.064321E+05  8.134125E+03 -3.838985E+01
       328  27 -1.812677E+06 -3.072416E+05 -8.489044E+03 -7.367198E+05  5.153029E+03  4.660222E+03
       329   1 -1.694745E+06 -2.637707E+05  1.754775E+04 -7.042227E+05  7.892645E+03 -3.157600E+03
       329   2 -1.630292E+06 -2.280592E+05  3.306551E+04 -6.739746E+05  1.077661E+04 -7.885283E+03
       329   3 -1.548327E+06 -2.100246E+05  4.785205E+04 -6.639807E+05  1.365744E+04 -1.260168E+04
       329   4 -1.780563E+06 -2.954270E+05 -1.609916E+03 -7.278346E+05  2.062842E+03 -5.342332E+03
       329   5 -1.789321E+06 -2.865917E+05 -1.983617E+03 -7.177064E+05  4.958941E+03 -1.006604E+04
       329   6 -1.780574E+06 -2.954364E+05 -3.098048E+03 -7.278350E+05  7.851763E+03 -1.477849E+04
       329   7 -1.866374E+06 -3.270826E+05 -2.076789E+04 -7.514435E+05 -3.766085E+03 -7.526736E+03
       329   8 -1.948323E+06 -3.451220E+05 -3.703399E+04 -7.614278E+05 -8.570962E+02 -1.224620E+04
       329   9 -2.012764E+06 -3.808434E+05 -5.405084E+04 -7.916668E+05  2.048476E+03 -1.695441E+04
       329  10 -1.694745E+06 -2.637707E+05  1.754761E+04 -7.042227E+05  4.554127E-10  7.210691E-10
       329  11 -1.630292E+06 -2.280593E+05  3.306517E+04 -6.739745E+05  7.267206E-11 -2.298230E-11
       329  12 -1.548327E+06 -2.100248E+05  4.785141E+04 -6.639806E+05 -9.820154E-10 -4.358050E-10
       329  13 -1.780563E+06 -2.954270E+05 -1.609978E+03 -7.278346E+05 -3.124540E-10  3.937373E-10
       329  14 -1.789321E+06 -2.865918E+05 -1.983853E+03 -7.177064E+05 -3.783775E-10 -3.599526E-10
       329  15 -1.780574E+06 -2.954367E+05 -3.098574E+03 -7.278349E+05  3.357624E-10 -5.629812E-11
       329  16 -1.866374E+06 -3.270827E+05 -2.076802E+04 -7.514435E+05 -1.333248E-09 -4.322569E-10
       329  17 -1.948323E+06 -3.451222E+05 -3.703427E+04 -7.614278E+05  6.575821E-10 -8.728235E-11
       329  18 -2.012764E+06 -3.808437E+05 -5.405139E+04 -7.916668E+05  6.552639E-10  3.003088E-11
       329  19 -1.694745E+06 -2.637707E+05  1.754775E+04 -7.042227E+05 -7.892645E+03  3.157600E+03
       329  20 -1.630292E+06 -2.280592E+05  3.306551E+04 -6.739746E+05 -1.077661E+04  7.885283E+03
       329  21 -1.548327E+06 -2.100246E+05  4.785205E+04 -6.639807E+05 -1.365744E+04  1.260168E+04
       329  22 -1.780563E+06 -2.954270E+05 -1.609916E+03 -7.278346E+05 -2.062842E+03  5.342332E+03
       329  23 -1.789321E+06 -2.865917E+05 -1.983617E+03 -7.177064E+05 -4.958941E+03  1.006604E+04
       329  24 -1.780574E+06 -2.954364E+05 -3.098048E+03 -7.278350E+05 -7.851763E+03  1.477849E+04
       329  25 -1.866374E+06 -3.270826E+05 -2.076789E+04 -7.514435E+05  3.766085E+03  7.526736E+03
       329  26 -1.948323E+06 -3.451220E+05 -3.703399E+04 -7.614278E+05  8.570962E+02  1.224620E+04
       329  27 -2.012764E+06 -3.808434E+05 -5.405084E+04 -7.916668E+05 -2.048476E+03  1.695441E+04
       330   1 -1.494933E+06 -1.902654E+05  5.920229E+04 -6.493612E+05  1.535669E+04 -1.533799E+04
       330   2 -1.430767E+06 -1.547658E+05  7.192790E+04 -6.192731E+05  2.067597E+04 -1.908888E+04
       330   3 -1.349655E+06 -1.372275E+05  8.199990E+04 -6.092824E+05  2.596765E+04 -2.275861E+04
       330   4 -1.780693E+06 -2.953961E+05 -4.001421E+03 -7.278430E+05  9.548886E+03 -1.751616E+04
       330   5 -1.789189E+06 -2.865768E+05 -7.058763E+03 -7.177329E+05  1.495794E+04 -2.123468E+04
       330   6 -1.780763E+06 -2.957390E+05 -1.284257E+04 -7.277240E+05  2.033894E+04 -2.487216E+04
       330   7 -2.066373E+06 -4.005213E+05 -6.721057E+04 -8.062920E+05  3.743940E+03 -1.969326E+04
       330   8 -2.147482E+06 -4.183784E+05 -8.605351E+04 -8.161409E+05  9.243468E+03 -2.337916E+04
       330   9 -2.211683E+06 -4.542362E+05 -1.076963E+05 -8.460901E+05  1.471447E+04 -2.698413E+04
       330  10 -1.494933E+06 -1.902657E+05  5.920141E+04 -6.493610E+05 -3.325698E-10 -3.739184E-10
       330  11 -1.430767E+06 -1.547663E+05  7.192642E+04 -6.192728E+05  7.161223E-10  8.432827E-11
       330  12 -1.349656E+06 -1.372283E+05  8.199766E+04 -6.092819E+05 -8.456745E-12 -3.151605E-10
       330  13 -1.780694E+06 -2.953965E+05 -4.002168E+03 -7.278428E+05  1.317389E-10 -5.034358E-11
       330  14 -1.789190E+06 -2.865774E+05 -7.060030E+03 -7.177327E+05 -4.539342E-10 -2.103504E-10
       330  15 -1.780764E+06 -2.957398E+05 -1.284450E+04 -7.277236E+05  7.850134E-10 -2.511647E-10
       330  16 -2.066374E+06 -4.005217E+05 -6.721133E+04 -8.062920E+05  9.911956E-11  2.470348E-10
       330  17 -2.147483E+06 -4.183790E+05 -8.605470E+04 -8.161407E+05 -1.422825E-09 -3.639931E-10
       330  18 -2.211684E+06 -4.542370E+05 -1.076980E+05 -8.460898E+05 -5.511334E-10 -5.205974E-10
       330  19 -1.494933E+06 -1.902654E+05  5.920229E+04 -6.493612E+05 -1.535669E+04  1.533799E+04
       330  20 -1.430767E+06 -1.547658E+05  7.192790E+04 -6.192731E+05 -2.067597E+04  1.908888E+04
       330  21 -1.349655E+06 -1.372275E+05  8.199990E+04 -6.092824E+05 -2.596765E+04  2.275861E+04
       330  22 -1.780693E+06 -2.953961E+05 -4.001421E+03 -7.278430E+05 -9.548886E+03  1.751616E+04
       330  23 -1.789189E+06 -2.865768E+05 -7.058763E+03 -7.177329E+05 -1.495794E+04  2.123468E+04
       330  24 -1.780763E+06 -2.957390E+05 -1.284257E+04 -7.277240E+05 -2.033894E+04  2.487216E+04
       330  25 -2.066373E+06 -4.005213E+05 -6.721057E+04 -8.062920E+05 -3.743940E+03  1.969326E+04
       330  26 -2.147482E+06 -4.183784E+05 -8.605351E+04 -8.161409E+05 -9.243468E+03  2.337916E+04
       330  27 -2.211683E+06 -4.542362E+05 -1.076963E+05 -8.460901E+05 -1.471447E+04  2.698413E+04
       331   1 -1.296372E+06 -1.180838E+05  8.992348E+04 -5.965112E+05  2.976534E+04 -2.473536E+04
       331   2 -1.233490E+06 -8.154075E+04  9.196263E+04 -5.636011E+05  4.562915E+04 -2.396849E+04
       331   3 -1.158438E+06 -7.122683E+04  8.108187E+04 -5.486984E+05  6.103401E+04 -2.196701E+04
       331   4 -1.781531E+06 -2.950548E+05 -1.700443E+04 -7.282331E+05  2.385213E+04 -2.695659E+04
       331   5 -1.788215E+06 -2.868993E+05 -3.086454E+04 -7.173234E+05  4.111310E+04 -2.566724E+04
       331   6 -1.783017E+06 -3.052579E+05 -5.876338E+04 -7.244242E+05  5.791329E+04 -2.314347E+04
       331   7 -2.266448E+06 -4.720076E+05 -1.239457E+05 -8.598600E+05  1.794396E+04 -2.917596E+04
       331   8 -2.342628E+06 -4.922331E+05 -1.537107E+05 -8.709192E+05  3.660142E+04 -2.736435E+04
       331   9 -2.407206E+06 -5.392572E+05 -1.986345E+05 -8.999875E+05  5.479594E+04 -2.431864E+04
       331  10 -1.296373E+06 -1.180846E+05  8.992066E+04 -5.965106E+05 -1.101929E-09 -6.543369E-10
       331  11 -1.233492E+06 -8.154193E+04  9.195764E+04 -5.636002E+05 -8.438290E-10 -2.664701E-10
       331  12 -1.158443E+06 -7.122835E+04  8.107396E+04 -5.486974E+05  4.949007E-10 -1.523623E-10
       331  13 -1.781532E+06 -2.950557E+05 -1.700686E+04 -7.282326E+05  2.476815E-10 -2.010652E-10
       331  14 -1.788217E+06 -2.869004E+05 -3.086896E+04 -7.173226E+05 -1.606498E-09  5.598339E-10
       331  15 -1.783021E+06 -3.052594E+05 -5.877070E+04 -7.244232E+05  3.253445E-10 -7.715153E-11
       331  16 -2.266449E+06 -4.720086E+05 -1.239479E+05 -8.598595E+05  1.310393E-09  1.115893E-11
       331  17 -2.342630E+06 -4.922343E+05 -1.537146E+05 -8.709184E+05  6.383046E-10  4.609129E-10
       331  18 -2.407209E+06 -5.392586E+05 -1.986412E+05 -8.999865E+05  7.580313E-10  2.493849E-10
       331  19 -1.296372E+06 -1.180838E+05  8.992348E+04 -5.965112E+05 -2.976534E+04  2.473536E+04
       331  20 -1.233490E+06 -8.154075E+04  9.196263E+04 -5.636011E+05 -4.562915E+04  2.396849E+04
       331  21 -1.158438E+06 -7.122683E+04  8.108187E+04 -5.486984E+05 -6.103401E+04  2.196701E+04
       331  22 -1.781531E+06 -2.950548E+05 -1.700443E+04 -7.282331E+05 -2.385213E+04  2.695659E+04
       331  23 -1.788215E+06 -2.868993E+05 -3.086454E+04 -7.173234E+05 -4.111310E+04  2.566724E+04
       331  24 -1.783017E+06 -3.052579E+05 -5.876338E+04 -7.244242E+05 -5.791329E+04  2.314347E+04
       331  25 -2.266448E+06 -4.720076E+05 -1.239457E+05 -8.598600E+05 -1.794396E+04  2.917596E+04
       331  26 -2.342628E+06 -4.922331E+05 -1.537107E+05 -8.709192E+05 -3.660142E+04  2.736435E+04
       331  27 -2.407206E+06 -5.392572E+05 -1.986345E+05 -8.999875E+05 -5.479594E+04  2.431864E+04
       332   1 -1.090939E+06 -6.045511E+04  7.538230E+04 -5.725849E+05  7.755988E+04 -2.035419E+04
       332   2 -1.063592E+06  1.134622E+04  3.491286E+04 -4.587248E+05  1.226258E+05  9.687869E+02
       332   3 -1.099634E+06 -1.279737E+05 -9.365412E+04 -3.124249E+05  1.588749E+05  4.574937E+04
       332   4 -1.792727E+06 -2.894706E+05 -7.563099E+04 -7.350191E+05  6.848187E+04 -2.376614E+04
       332   5 -1.775556E+06 -3.021035E+05 -1.381480E+05 -7.058371E+05  1.403055E+05  7.600833E+03
       332   6 -1.827200E+06 -5.313467E+05 -3.100873E+05 -6.441967E+05  2.033008E+05  6.242177E+04
       332   7 -2.494019E+06 -5.184741E+05 -2.266729E+05 -8.972967E+05  5.941495E+04 -2.717504E+04
       332   8 -2.486992E+06 -6.154484E+05 -3.112417E+05 -9.526652E+05  1.579630E+05  1.422093E+04
       332   9 -2.554179E+06 -9.344554E+05 -5.265530E+05 -9.755435E+05  2.476685E+05  7.904887E+04
       332  10 -1.090946E+06 -6.045717E+04  7.537020E+04 -5.725836E+05 -7.125801E-10 -4.561837E-10
       332  11 -1.063608E+06  1.134218E+04  3.488455E+04 -4.587249E+05 -1.005604E-10  7.733249E-10
       332  12 -1.099662E+06 -1.279828E+05 -9.370558E+04 -3.124308E+05  7.686460E-10 -1.945418E-10
       332  13 -1.792732E+06 -2.894725E+05 -7.564088E+04 -7.350177E+05  1.203852E-09 -3.142256E-10
       332  14 -1.775577E+06 -3.021089E+05 -1.381852E+05 -7.058380E+05  6.283435E-10 -1.208069E-09
       332  15 -1.827246E+06 -5.313620E+05 -3.101726E+05 -6.442069E+05 -3.888452E-10  5.548251E-10
       332  16 -2.494023E+06 -5.184758E+05 -2.266809E+05 -8.972954E+05  9.727579E-10  6.454858E-10
       332  17 -2.487019E+06 -6.154554E+05 -3.112892E+05 -9.526670E+05  2.041620E-10  3.493067E-10
       332  18 -2.554247E+06 -9.344787E+05 -5.266806E+05 -9.755594E+05 -8.638743E-10 -1.967179E-10
       332  19 -1.090939E+06 -6.045511E+04  7.538230E+04 -5.725849E+05 -7.755988E+04  2.035419E+04
       332  20 -1.063592E+06  1.134622E+04  3.491286E+04 -4.587248E+05 -1.226258E+05 -9.687869E+02
       332  21 -1.099634E+06 -1.279737E+05 -9.365412E+04 -3.124249E+05 -1.588749E+05 -4.574937E+04
       332  22 -1.792727E+06 -2.894706E+05 -7.563099E+04 -7.350191E+05 -6.848187E+04  2.376614E+04
       332  23 -1.775556E+06 -3.021035E+05 -1.381480E+05 -7.058371E+05 -1.403055E+05 -7.600833E+03
       332  24 -1.827200E+06 -5.313467E+05 -3.100873E+05 -6.441967E+05 -2.033008E+05 -6.242177E+04
       332  25 -2.494019E+06 -5.184741E+05 -2.266729E+05 -8.972967E+05 -5.941495E+04  2.717504E+04
       332  26 -2.486992E+06 -6.154484E+05 -3.112417E+05 -9.526652E+05 -1.579630E+05 -1.422093E+04
       332  27 -2.554179E+06 -9.344554E+05 -5.265530E+05 -9.755435E+05 -2.476685E+05 -7.904887E+04
       333   1 -5.289886E+05 -1.240331E+05 -8.754859E+04 -6.305583E+03  7.263597E+04  1.579606E+04
       333   2 -4.209348E+05 -2.363462E+05 -1.304911E+05 -4.082723E+04  6.195336E+04  5.009313E+04
       333   3 -2.799017E+05 -2.237828E+05 -1.352016E+05 -1.139467E+05  5.130755E+04  5.402361E+04
       333   4  6.279547E+05  1.624981E+05  1.896065E+05 -9.368396E+04  1.309727E+05  1.585376E+04
       333   5  6.084685E+05  1.324301E+04  8.851503E+04 -7.430925E+04  8.453496E+04  5.010487E+04
       333   6  6.280815E+05 -5.055065E+03  5.042119E+04 -9.352150E+04  3.813871E+04  5.401030E+04
       333   7  1.786148E+06  4.489631E+05  4.666838E+05 -1.812262E+05  1.894175E+05  1.589499E+04
       333   8  1.638874E+06  2.627679E+05  3.074629E+05 -1.078478E+05  1.071534E+05  5.011417E+04
       333   9  1.536849E+06  2.136227E+05  2.360012E+05 -7.306593E+04  2.495092E+04  5.399614E+04
       333  10 -5.289943E+05 -1.240348E+05 -8.755899E+04 -6.306507E+03  9.759590E-10 -1.108814E-09
       333  11 -4.209396E+05 -2.363499E+05 -1.305030E+05 -4.082973E+04 -4.401997E-10  8.502094E-10
       333  12 -2.799053E+05 -2.237867E+05 -1.352120E+05 -1.139490E+05 -2.433658E-09 -5.270868E-11
       333  13  6.279362E+05  1.624932E+05  1.895738E+05 -9.368563E+04  4.984659E-10  9.826019E-10
       333  14  6.084601E+05  1.323840E+04  8.849689E+04 -7.431266E+04  7.767545E-10  3.724859E-10
       333  15  6.280792E+05 -5.058588E+03  5.041298E+04 -9.352316E+04  3.830841E-10 -4.051149E-10
       333  16  1.786110E+06  4.489533E+05  4.666161E+05 -1.812286E+05 -1.022277E-09  9.108474E-10
       333  17  1.638861E+06  2.627621E+05  3.074367E+05 -1.078521E+05  1.562465E-09  5.257121E-10
       333  18  1.536848E+06  2.136194E+05  2.359946E+05 -7.306701E+04  3.441285E-09  1.754739E-09
       333  19 -5.289886E+05 -1.240331E+05 -8.754859E+04 -6.305583E+03 -7.263597E+04 -1.579606E+04
       333  20 -4.209348E+05 -2.363462E+05 -1.304911E+05 -4.082723E+04 -6.195336E+04 -5.009313E+04
       333  21 -2.799017E+05 -2.237828E+05 -1.352016E+05 -1.139467E+05 -5.130755E+04 -5.402361E+04
       333  22  6.279547E+05  1.624981E+05  1.896065E+05 -9.368396E+04 -1.309727E+05 -1.585376E+04
       333  23  6.084685E+05  1.324301E+04  8.851503E+04 -7.430925E+04 -8.453496E+04 -5.010487E+04
       333  24  6.280815E+05 -5.055065E+03  5.042119E+04 -9.352150E+04 -3.813871E+04 -5.401030E+04
       333  25  1.786148E+06  4.489631E+05  4.666838E+05 -1.812262E+05 -1.894175E+05 -1.589499E+04
       333  26  1.638874E+06  2.627679E+05  3.074629E+05 -1.078478E+05 -1.071534E+05 -5.011417E+04
       333  27  1.536849E+06  2.136227E+05  2.360012E+05 -7.306593E+04 -2.495092E+04 -5.399614E+04
       334   1 -1.973177E+05 -1.906603E+05 -1.281111E+05 -9.210534E+04  3.712658E+04  4.807920E+04
       334   2 -7.498514E+04 -1.668720E+05 -1.193319E+05 -7.377369E+04  2.824625E+04  4.227087E+04
       334   3  5.004830E+04 -1.376000E+05 -1.033597E+05 -9.531770E+04  1.936020E+04  3.483102E+04
       334   4  6.200882E+05  6.287527E+03  3.939796E+04 -9.384543E+04  3.128978E+04  4.807101E+04
       334   5  6.186094E+05  7.323636E+00  2.166032E+04 -7.390803E+04  2.047767E+04  4.226425E+04
       334   6  6.201470E+05 -4.579025E+02  1.244835E+04 -9.384324E+04  9.661572E+03  3.482685E+04
       334   7  1.438129E+06  2.031935E+05  2.068716E+05 -9.558789E+04  2.544541E+04  4.806285E+04
       334   8  1.312662E+06  1.668567E+05  1.626276E+05 -7.404255E+04  1.270056E+04  4.225764E+04
       334   9  1.190555E+06  1.366641E+05  1.282398E+05 -9.236740E+04 -4.579846E+01  3.482263E+04
       334  10 -1.973198E+05 -1.906632E+05 -1.281180E+05 -9.210678E+04  5.574792E-10 -5.497468E-11
       334  11 -7.498647E+04 -1.668742E+05 -1.193367E+05 -7.377465E+04  1.734998E-10 -9.241919E-11
       334  12  5.004758E+04 -1.376014E+05 -1.033627E+05 -9.531824E+04 -8.663058E-10 -4.652216E-10
       334  13  6.200866E+05  6.284782E+03  3.939178E+04 -9.384664E+04 -3.955918E-11  1.441326E-09
       334  14  6.186085E+05  5.292386E+00  2.165617E+04 -7.390873E+04  1.549467E-09  5.095439E-10
       334  15  6.201466E+05 -4.592304E+02  1.244590E+04 -9.384352E+04 -5.347274E-10 -5.782048E-10
       334  16  1.438127E+06  2.031908E+05  2.068661E+05 -9.558887E+04 -1.179134E-09  1.053306E-09
       334  17  1.312661E+06  1.668548E+05  1.626239E+05 -7.404298E+04  8.765378E-10  3.729316E-10
       334  18  1.190555E+06  1.366628E+05  1.282376E+05 -9.236740E+04  4.704508E-10 -4.107950E-10
       334  19 -1.973177E+05 -1.906603E+05 -1.281111E+05 -9.210534E+04 -3.712658E+04 -4.807920E+04
       334  20 -7.498514E+04 -1.668720E+05 -1.193319E+05 -7.377369E+04 -2.824625E+04 -4.227087E+04
       334  21  5.004830E+04 -1.376000E+05 -1.033597E+05 -9.531770E+04 -1.936020E+04 -3.483102E+04
       334  22  6.200882E+05  6.287527E+03  3.939796E+04 -9.384543E+04 -3.128978E+04 -4.807101E+04
       334  23  6.186094E+05  7.323636E+00  2.166032E+04 -7.390803E+04 -2.047767E+04 -4.226425E+04
       334  24  6.201470E+05 -4.579025E+02  1.244835E+04 -9.384324E+04 -9.661572E+03 -3.482685E+04
       334  25  1.438129E+06  2.031935E+05  2.068716E+05 -9.558789E+04 -2.544541E+04 -4.806285E+04
       334  26  1.312662E+06  1.668567E+05  1.626276E+05 -7.404255E+04 -1.270056E+04 -4.225764E+04
       334  27  1.190555E+06  1.366641E+05  1.282398E+05 -9.236740E+04  4.579846E+01 -3.482263E+04
       335   1  1.389022E+05 -1.154789E+05 -8.761935E+04 -9.425077E+04  1.702186E+04  3.006238E+04
       335   2  2.620517E+05 -8.604312E+04 -6.694143E+04 -7.420484E+04  1.444433E+04  2.211284E+04
       335   3  3.856573E+05 -5.636324E+04 -4.451412E+04 -9.401152E+04  1.186347E+04  1.407926E+04
       335   4  6.195986E+05  4.342357E+01  9.489559E+03 -9.383923E+04  7.724855E+03  3.005966E+04
       335   5  6.193828E+05 -1.392728E+02  5.417849E+03 -7.391368E+04  5.045750E+03  2.211167E+04
       335   6  6.196272E+05 -5.932766E+01  3.165286E+03 -9.383938E+04  2.363811E+03  1.407970E+04
       335   7  1.100515E+06  1.155514E+05  1.065869E+05 -9.342736E+04 -1.579209E+03  3.005692E+04
       335   8  9.768356E+05  8.575670E+04  7.777083E+04 -7.362234E+04 -4.358135E+03  2.211048E+04
       335   9  8.536494E+05  5.624121E+04  5.084215E+04 -9.366716E+04 -7.139358E+03  1.408014E+04
       335  10  1.389016E+05 -1.154799E+05 -8.762159E+04 -9.425118E+04 -3.768103E-10 -2.607622E-10
       335  11  2.620513E+05 -8.604371E+04 -6.694274E+04 -7.420510E+04 -4.362403E-10 -2.971558E-10
       335  12  3.856571E+05 -5.636349E+04 -4.451475E+04 -9.401166E+04 -1.516138E-10 -2.216236E-10
       335  13  6.195983E+05  4.243695E+01  9.487749E+03 -9.383942E+04  6.182645E-10 -3.561412E-10
       335  14  6.193826E+05 -1.398048E+02  5.416882E+03 -7.391377E+04  5.830165E-10 -1.990204E-11
       335  15  6.196272E+05 -5.954210E+01  3.164903E+03 -9.383940E+04 -2.749461E-10  2.775321E-12
       335  16  1.100515E+06  1.155505E+05  1.065852E+05 -9.342732E+04  5.514600E-10 -3.424592E-10
       335  17  9.768354E+05  8.575617E+04  7.776988E+04 -7.362226E+04 -5.589950E-12 -3.282626E-11
       335  18  8.536493E+05  5.624099E+04  5.084168E+04 -9.366708E+04 -5.804699E-10 -1.699251E-10
       335  19  1.389022E+05 -1.154789E+05 -8.761935E+04 -9.425077E+04 -1.702186E+04 -3.006238E+04
       335  20  2.620517E+05 -8.604312E+04 -6.694143E+04 -7.420484E+04 -1.444433E+04 -2.211284E+04
       335  21  3.856573E+05 -5.636324E+04 -4.451412E+04 -9.401152E+04 -1.186347E+04 -1.407926E+04
       335  22  6.195986E+05  4.342357E+01  9.489559E+03 -9.383923E+04 -7.724855E+03 -3.005966E+04
       335  23  6.193828E+05 -1.392728E+02  5.417849E+03 -7.391368E+04 -5.045750E+03 -2.211167E+04
       335  24  6.196272E+05 -5.932766E+01  3.165286E+03 -9.383938E+04 -2.363811E+03 -1.407970E+04
       335  25  1.100515E+06  1.155514E+05  1.065869E+05 -9.342736E+04  1.579209E+03 -3.005692E+04
       335  26  9.768356E+05  8.575670E+04  7.777083E+04 -7.362234E+04  4.358135E+03 -2.211048E+04
       335  27  8.536494E+05  5.624121E+04  5.084215E+04 -9.366716E+04  7.139358E+03 -1.408014E+04
       336   1  4.748134E+05 -3.476202E+04 -2.653926E+04 -9.395144E+04  1.133200E+04  9.382448E+03
       336   2  5.980415E+05 -5.187638E+03 -2.840563E+03 -7.399398E+04  1.059463E+04  1.327069E+03
       336   3  7.213908E+05  2.439640E+04  2.134075E+04 -9.385823E+04  9.856928E+03 -6.732593E+03
       336   4  6.195555E+05 -3.549943E+01  2.439457E+03 -9.383281E+04  1.855575E+03  9.383398E+03
       336   5  6.195037E+05 -2.916692E+01  1.504209E+03 -7.392200E+04  1.112066E+03  1.328090E+03
       336   6  6.195574E+05 -1.187774E+01  1.055267E+03 -9.383284E+04  3.683722E+02 -6.731452E+03
       336   7  7.643178E+05  3.468979E+04  3.141746E+04 -9.371414E+04 -7.623009E+03  9.384344E+03
       336   8  6.409665E+05  5.129324E+03  5.849295E+03 -7.385002E+04 -8.370814E+03  1.329110E+03
       336   9  5.177341E+05 -2.442074E+04 -1.923040E+04 -9.380745E+04 -9.118660E+03 -6.730312E+03
       336  10  4.748132E+05 -3.476215E+04 -2.653967E+04 -9.395153E+04  7.715735E-11 -2.068846E-10
       336  11  5.980414E+05 -5.187670E+03 -2.840777E+03 -7.399399E+04 -1.505135E-10  2.101505E-10
       336  12  7.213907E+05  2.439632E+04  2.134048E+04 -9.385818E+04 -4.443876E-10  9.862242E-12
       336  13  6.195555E+05 -3.559494E+01  2.439285E+03 -9.383282E+04  8.434681E-12 -1.738861E-10
       336  14  6.195037E+05 -2.916915E+01  1.504204E+03 -7.392200E+04 -6.403478E-10  1.142406E-10
       336  15  6.195574E+05 -1.192645E+01  1.055182E+03 -9.383284E+04 -6.184846E-11  2.078648E-10
       336  16  7.643177E+05  3.468968E+04  3.141718E+04 -9.371408E+04  7.018982E-10 -1.040222E-10
       336  17  6.409664E+05  5.129303E+03  5.849160E+03 -7.385001E+04  2.491451E-10  1.839350E-10
       336  18  5.177340E+05 -2.442081E+04 -1.923064E+04 -9.380750E+04  5.702071E-10  4.533892E-10
       336  19  4.748134E+05 -3.476202E+04 -2.653926E+04 -9.395144E+04 -1.133200E+04 -9.382448E+03
       336  20  5.980415E+05 -5.187638E+03 -2.840563E+03 -7.399398E+04 -1.059463E+04 -1.327069E+03
       336  21  7.213908E+05  2.439640E+04  2.134075E+04 -9.385823E+04 -9.856928E+03  6.732593E+03
       336  22  6.195555E+05 -3.549943E+01  2.439457E+03 -9.383281E+04 -1.855575E+03 -9.383398E+03
       336  23  6.195037E+05 -2.916692E+01  1.504209E+03 -7.392200E+04 -1.112066E+03 -1.328090E+03
       336  24  6.195574E+05 -1.187774E+01  1.055267E+03 -9.383284E+04 -3.683722E+02  6.731452E+03
       336  25  7.643178E+05  3.468979E+04  3.141746E+04 -9.371414E+04  7.623009E+03 -9.384344E+03
       336  26  6.409665E+05  5.129324E+03  5.849295E+03 -7.385002E+04  8.370814E+03 -1.329110E+03
       336  27  5.177341E+05 -2.442074E+04 -1.923040E+04 -9.380745E+04  9.118660E+03  6.730312E+03
       337   1  8.106260E+05  4.596447E+04  3.994374E+04 -9.386437E+04  9.675836E+03 -1.142486E+04
       337   2  9.339728E+05  7.551600E+04  6.461176E+04 -7.388033E+04  9.190509E+03 -1.948649E+04
       337   3  1.057434E+06  1.050665E+05  8.960182E+04 -9.374539E+04  8.707658E+03 -2.754674E+04
       337   4  6.195506E+05 -1.630367E+01  9.599236E+02 -9.383921E+04  1.842408E+02 -1.142411E+04
       337   5  6.194887E+05 -5.142313E+01  9.796352E+02 -7.391404E+04 -3.001397E+02 -1.948717E+04
       337   6  6.195263E+05 -8.693860E+01  1.320966E+03 -9.383920E+04 -7.819513E+02 -2.754881E+04
       337   7  4.285101E+05 -4.599931E+04 -3.802548E+04 -9.381406E+04 -9.304490E+03 -1.142337E+04
       337   8  3.050988E+05 -7.562493E+04 -6.265727E+04 -7.394773E+04 -9.786079E+03 -1.948786E+04
       337   9  1.818013E+05 -1.052522E+05 -8.696940E+04 -9.393294E+04 -1.026501E+04 -2.755088E+04
       337  10  8.106259E+05  4.596431E+04  3.994332E+04 -9.386428E+04 -5.155455E-10 -2.420827E-10
       337  11  9.339726E+05  7.551557E+04  6.461089E+04 -7.388018E+04  2.684698E-10 -6.304313E-11
       337  12  1.057434E+06  1.050657E+05  8.960026E+04 -9.374519E+04 -4.970085E-10 -3.413753E-10
       337  13  6.195506E+05 -1.644386E+01  9.596783E+02 -9.383921E+04  4.643513E-10  3.825914E-10
       337  14  6.194886E+05 -5.183106E+01  9.789212E+02 -7.391405E+04  2.148582E-10  6.203924E-11
       337  15  6.195261E+05 -8.775397E+01  1.319538E+03 -9.383922E+04 -3.262688E-10 -7.218620E-11
       337  16  4.285100E+05 -4.599948E+04 -3.802589E+04 -9.381415E+04  4.551009E-10  5.254197E-10
       337  17  3.050986E+05 -7.562537E+04 -6.265817E+04 -7.394789E+04  1.832965E-10  3.070591E-10
       337  18  1.818010E+05 -1.052530E+05 -8.697103E+04 -9.393317E+04 -2.337319E-11  2.377130E-10
       337  19  8.106260E+05  4.596447E+04  3.994374E+04 -9.386437E+04 -9.675836E+03  1.142486E+04
       337  20  9.339728E+05  7.551600E+04  6.461176E+04 -7.388033E+04 -9.190509E+03  1.948649E+04
       337  21  1.057434E+06  1.050665E+05  8.960182E+04 -9.374539E+04 -8.707658E+03  2.754674E+04
       337  22  6.195506E+05 -1.630367E+01  9.599236E+02 -9.383921E+04 -1.842408E+02  1.142411E+04
       337  23  6.194887E+05 -5.142313E+01  9.796352E+02 -7.391404E+04  3.001397E+02  1.948717E+04
       337  24  6.195263E+05 -8.693860E+01  1.320966E+03 -9.383920E+04  7.819513E+02  2.754881E+04
       337  25  4.285101E+05 -4.599931E+04 -3.802548E+04 -9.381406E+04  9.304490E+03  1.142337E+04
       337  26  3.050988E+05 -7.562493E+04 -6.265727E+04 -7.394773E+04  9.786079E+03  1.948786E+04
       337  27  1.818013E+05 -1.052522E+05 -8.696940E+04 -9.393294E+04  1.026501E+04  2.755088E+04
       338   1  1.146880E+06  1.266473E+05  1.086421E+05 -9.370928E+04  8.474650E+03 -3.224939E+04
       338   2  1.270416E+06  1.562245E+05  1.344000E+05 -7.357296E+04  7.040031E+03 -4.028544E+04
       338   3  1.394321E+06  1.859305E+05  1.611531E+05 -9.337664E+04  5.610396E+03 -4.821991E+04
       338   4  6.195609E+05 -1.103807E+02  1.637810E+03 -9.385968E+04 -1.049155E+03 -3.225278E+04
       338   5  6.193673E+05 -1.913935E+02  2.660470E+03 -7.388838E+04 -2.363666E+03 -4.029172E+04
       338   6  6.195100E+05 -1.631033E+02  4.596494E+03 -9.385961E+04 -3.672917E+03 -4.822899E+04
       338   7  9.250595E+04 -1.268853E+05 -1.053806E+05 -9.400995E+04 -1.056504E+04 -3.225616E+04
       338   8 -3.127837E+04 -1.566335E+05 -1.291007E+05 -7.420346E+04 -1.175770E+04 -4.029800E+04
       338   9 -1.547305E+05 -1.862938E+05 -1.519908E+05 -9.434200E+04 -1.294489E+04 -4.823808E+04
       338  10  1.146880E+06  1.266461E+05  1.086400E+05 -9.370906E+04 -1.782598E-09  1.351037E-10
       338  11  1.270416E+06  1.562228E+05  1.343969E+05 -7.357273E+04 -1.204312E-09 -1.093288E-10
       338  12  1.394321E+06  1.859280E+05  1.611487E+05 -9.337642E+04  1.325479E-09 -7.206860E-10
       338  13  6.195606E+05 -1.114984E+02  1.635852E+03 -9.385971E+04 -5.386731E-10  1.962493E-10
       338  14  6.193668E+05 -1.931388E+02  2.657408E+03 -7.388845E+04  4.387999E-10 -5.445788E-11
       338  15  6.195094E+05 -1.656054E+02  4.592097E+03 -9.385976E+04  1.913362E-10 -8.429528E-10
       338  16  9.250555E+04 -1.268864E+05 -1.053828E+05 -9.401022E+04  1.457421E-09 -6.968490E-11
       338  17 -3.127895E+04 -1.566353E+05 -1.291040E+05 -7.420384E+04  4.264681E-10 -2.637334E-10
       338  18 -1.547313E+05 -1.862963E+05 -1.519955E+05 -9.434251E+04 -1.565919E-09 -2.487395E-10
       338  19  1.146880E+06  1.266473E+05  1.086421E+05 -9.370928E+04 -8.474650E+03  3.224939E+04
       338  20  1.270416E+06  1.562245E+05  1.344000E+05 -7.357296E+04 -7.040031E+03  4.028544E+04
       338  21  1.394321E+06  1.859305E+05  1.611531E+05 -9.337664E+04 -5.610396E+03  4.821991E+04
       338  22  6.195609E+05 -1.103807E+02  1.637810E+03 -9.385968E+04  1.049155E+03  3.225278E+04
       338  23  6.193673E+05 -1.913935E+02  2.660470E+03 -7.388838E+04  2.363666E+03  4.029172E+04
       338  24  6.195100E+05 -1.631033E+02  4.596494E+03 -9.385961E+04  3.672917E+03  4.822899E+04
       338  25  9.250595E+04 -1.268853E+05 -1.053806E+05 -9.400995E+04  1.056504E+04  3.225616E+04
       338  26 -3.127837E+04 -1.566335E+05 -1.291007E+05 -7.420346E+04  1.175770E+04  4.029800E+04
       338  27 -1.547305E+05 -1.862938E+05 -1.519908E+05 -9.434200E+04  1.294489E+04  4.823808E+04
       339   1  1.484378E+06  2.073477E+05  1.813096E+05 -9.278788E+04  5.183448E+03 -5.301460E+04
       339   2  1.607583E+06  2.373643E+05  2.110792E+05 -7.335410E+04 -2.407601E+03 -6.031586E+04
       339   3  1.732896E+06  2.705632E+05  2.466495E+05 -9.390200E+04 -9.995359E+03 -6.558570E+04
       339   4  6.197775E+05 -4.219587E+02  6.014855E+03 -9.386841E+04 -4.606301E+03 -5.302620E+04
       339   5  6.188990E+05 -2.521592E+02  1.040669E+04 -7.387696E+04 -9.796409E+03 -6.032979E+04
       339   6  6.196983E+05  2.687294E+03  1.893934E+04 -9.387096E+04 -1.498171E+04 -6.560040E+04
       339   7 -2.441125E+05 -2.082380E+05 -1.693184E+05 -9.494746E+04 -1.438270E+04 -5.303778E+04
       339   8 -3.688570E+05 -2.379293E+05 -1.903166E+05 -7.439912E+04 -1.717369E+04 -6.034372E+04
       339   9 -4.923248E+05 -2.652661E+05 -2.088364E+05 -9.384021E+04 -1.995928E+04 -6.561512E+04
       339  10  1.484377E+06  2.073446E+05  1.813042E+05 -9.278766E+04 -1.391539E-09 -8.528027E-10
       339  11  1.607582E+06  2.373604E+05  2.110724E+05 -7.335422E+04 -3.208619E-10 -7.072741E-10
       339  12  1.732895E+06  2.705585E+05  2.466412E+05 -9.390253E+04  8.788689E-10 -2.188440E-09
       339  13  6.197767E+05 -4.249847E+02  6.009529E+03 -9.386861E+04  2.587131E-11 -7.541632E-10
       339  14  6.188979E+05 -2.560946E+02  1.039966E+04 -7.387744E+04  1.177581E-11 -4.437532E-10
       339  15  6.196969E+05  2.682611E+03  1.893083E+04 -9.387175E+04 -1.316062E-10 -1.350239E-09
       339  16 -2.441135E+05 -2.082410E+05 -1.693241E+05 -9.494808E+04  6.488578E-10 -4.293904E-10
       339  17 -3.688583E+05 -2.379333E+05 -1.903240E+05 -7.439996E+04 -5.957707E-10  1.757516E-09
       339  18 -4.923264E+05 -2.652709E+05 -2.088452E+05 -9.384127E+04 -6.907916E-10  1.665334E-10
       339  19  1.484378E+06  2.073477E+05  1.813096E+05 -9.278788E+04 -5.183448E+03  5.301460E+04
       339  20  1.607583E+06  2.373643E+05  2.110792E+05 -7.335410E+04  2.407601E+03  6.031586E+04
       339  21  1.732896E+06  2.705632E+05  2.466495E+05 -9.390200E+04  9.995359E+03  6.558570E+04
       339  22  6.197775E+05 -4.219587E+02  6.014855E+03 -9.386841E+04  4.606301E+03  5.302620E+04
       339  23  6.188990E+05 -2.521592E+02  1.040669E+04 -7.387696E+04  9.796409E+03  6.032979E+04
       339  24  6.196983E+05  2.687294E+03  1.893934E+04 -9.387096E+04  1.498171E+04  6.560040E+04
       339  25 -2.441125E+05 -2.082380E+05 -1.693184E+05 -9.494746E+04  1.438270E+04  5.303778E+04
       339  26 -3.688570E+05 -2.379293E+05 -1.903166E+05 -7.439912E+04  1.717369E+04  6.034372E+04
       339  27 -4.923248E+05 -2.652661E+05 -2.088364E+05 -9.384021E+04  1.995928E+04  6.561512E+04
       340   1  1.828143E+06  2.869521E+05  2.699688E+05 -8.264167E+04 -4.112601E+03 -7.183228E+04
       340   2  1.940053E+06  3.269942E+05  3.238256E+05 -8.921333E+04 -7.103221E+04 -6.503697E+04
       340   3  2.078866E+06  4.377542E+05  4.389536E+05 -1.341170E+05 -1.380524E+05 -2.040772E+04
       340   4  6.235516E+05 -2.801305E+03  2.424041E+04 -9.347192E+04 -1.826967E+04 -7.186124E+04
       340   5  6.138898E+05  5.953089E+03  4.249931E+04 -7.437378E+04 -4.054149E+04 -6.499938E+04
       340   6  6.234271E+05  7.776548E+04  9.112142E+04 -9.360476E+04 -6.289711E+04 -2.027257E+04
       340   7 -5.796633E+05 -2.926448E+05 -2.215637E+05 -1.042812E+05 -3.239982E+04 -7.188973E+04
       340   8 -7.106173E+05 -3.152005E+05 -2.389238E+05 -5.956690E+04 -1.011469E+04 -6.496029E+04
       340   9 -8.300597E+05 -2.823669E+05 -2.568379E+05 -5.318844E+04  1.208335E+04 -2.012749E+04
       340  10  1.828142E+06  2.869465E+05  2.699591E+05 -8.264191E+04 -6.416939E-10 -3.732902E-09
       340  11  1.940047E+06  3.269883E+05  3.238082E+05 -8.921705E+04 -2.740987E-09 -5.285550E-09
       340  12  2.078846E+06  4.377486E+05  4.389171E+05 -1.341193E+05 -3.741100E-09 -1.669030E-09
       340  13  6.235499E+05 -2.806942E+03  2.423008E+04 -9.347298E+04 -1.201242E-09 -6.867885E-09
       340  14  6.138869E+05  5.948110E+03  4.248828E+04 -7.437591E+04  1.134856E-09  2.752802E-09
       340  15  6.234227E+05  7.776398E+04  9.111322E+04 -9.360579E+04 -9.188129E-10 -4.363583E-10
       340  16 -5.796658E+05 -2.926507E+05 -2.215753E+05 -1.042830E+05 -8.675780E-10 -1.340184E-09
       340  17 -7.106185E+05 -3.152050E+05 -2.389319E+05 -5.956743E+04  1.274144E-09  2.240620E-09
       340  18 -8.300599E+05 -2.823674E+05 -2.568389E+05 -5.318824E+04  3.763014E-09 -2.042110E-09
       340  19  1.828143E+06  2.869521E+05  2.699688E+05 -8.264167E+04  4.112601E+03  7.183228E+04
       340  20  1.940053E+06  3.269942E+05  3.238256E+05 -8.921333E+04  7.103221E+04  6.503697E+04
       340  21  2.078866E+06  4.377542E+05  4.389536E+05 -1.341170E+05  1.380524E+05  2.040772E+04
       340  22  6.235516E+05 -2.801305E+03  2.424041E+04 -9.347192E+04  1.826967E+04  7.186124E+04
       340  23  6.138898E+05  5.953089E+03  4.249931E+04 -7.437378E+04  4.054149E+04  6.499938E+04
       340  24  6.234271E+05  7.776548E+04  9.112142E+04 -9.360476E+04  6.289711E+04  2.027257E+04
       340  25 -5.796633E+05 -2.926448E+05 -2.215637E+05 -1.042812E+05  3.239982E+04  7.188973E+04
       340  26 -7.106173E+05 -3.152005E+05 -2.389238E+05 -5.956690E+04  1.011469E+04  6.496029E+04
       340  27 -8.300597E+05 -2.823669E+05 -2.568379E+05 -5.318844E+04 -1.208335E+04  2.012749E+04
       341   1  6.651011E+05  2.451954E+06  6.527412E+05 -5.573172E+05  2.791027E+04  1.319682E+05
       341   2  4.437486E+05  1.739348E+06  4.135503E+05 -4.321891E+05  8.019468E+04  3.746366E+04
       341   3  2.703552E+05  1.051048E+06  2.476240E+05 -5.290488E+05  6.284592E+04 -5.706280E+04
       341   4  4.154230E+04 -6.269927E+04  4.657680E+04 -5.309570E+05  2.817753E+04  2.947734E+04
       341   5  4.809032E+03 -6.715311E+04  2.385731E+04 -4.200030E+05  8.027073E+04  1.717948E+04
       341   6  1.903190E+03 -6.191843E+04  1.751894E+04 -5.310605E+05  6.264329E+04  4.751980E+03
       341   7 -5.824699E+05 -2.571559E+06 -5.599999E+05 -5.046977E+05  2.843680E+04 -7.260130E+04
       341   8 -4.343447E+05 -1.870593E+06 -3.660266E+05 -4.078497E+05  8.034612E+04 -3.046660E+03
       341   9 -2.666251E+05 -1.173704E+06 -2.126389E+05 -5.330672E+05  6.244003E+04  6.645799E+04
       341  10  6.650957E+05  2.451935E+06  6.527072E+05 -5.573202E+05  2.084305E-10  2.764267E-09
       341  11  4.437413E+05  1.739345E+06  4.135356E+05 -4.321915E+05  5.565289E-11 -7.862839E-09
       341  12  2.703501E+05  1.051043E+06  2.476104E+05 -5.290459E+05  2.211791E-09 -1.467274E-08
       341  13  4.154121E+04 -6.270042E+04  4.657367E+04 -5.309576E+05  6.237268E-10 -1.722807E-09
       341  14  4.802033E+03 -6.715515E+04  2.384464E+04 -4.200041E+05 -8.009523E-10  1.245733E-09
       341  15  1.898970E+03 -6.191951E+04  1.751153E+04 -5.310608E+05  1.321159E-09 -1.031696E-09
       341  16 -5.824722E+05 -2.571565E+06 -5.600114E+05 -5.046961E+05 -5.836726E-10 -1.752896E-09
       341  17 -4.343516E+05 -1.870595E+06 -3.660388E+05 -4.078495E+05  3.210727E-10  7.758114E-09
       341  18 -2.666305E+05 -1.173709E+06 -2.126545E+05 -5.330705E+05  6.355783E-10  1.424938E-08
       341  19  6.651011E+05  2.451954E+06  6.527412E+05 -5.573172E+05 -2.791027E+04 -1.319682E+05
       341  20  4.437486E+05  1.739348E+06  4.135503E+05 -4.321891E+05 -8.019468E+04 -3.746366E+04
       341  21  2.703552E+05  1.051048E+06  2.476240E+05 -5.290488E+05 -6.284592E+04  5.706280E+04
       341  22  4.154230E+04 -6.269927E+04  4.657680E+04 -5.309570E+05 -2.817753E+04 -2.947734E+04
       341  23  4.809032E+03 -6.715311E+04  2.385731E+04 -4.200030E+05 -8.027073E+04 -1.717948E+04
       341  24  1.903190E+03 -6.191843E+04  1.751894E+04 -5.310605E+05 -6.264329E+04 -4.751980E+03
       341  25 -5.824699E+05 -2.571559E+06 -5.599999E+05 -5.046977E+05 -2.843680E+04  7.260130E+04
       341  26 -4.343447E+05 -1.870593E+06 -3.660266E+05 -4.078497E+05 -8.034612E+04  3.046660E+03
       341  27 -2.666251E+05 -1.173704E+06 -2.126389E+05 -5.330672E+05 -6.244003E+04 -6.645799E+04
       342   1  1.505000E+05  5.403577E+05  1.422801E+05 -5.345608E+05  3.321888E+04 -4.400935E+04
       342   2 -2.024979E+04 -1.596640E+05 -1.566858E+03 -4.187239E+05 -5.617076E+03 -5.270540E+04
       342   3 -1.850696E+05 -8.580075E+05 -1.386727E+05 -5.283862E+05 -4.418831E+04 -6.138754E+04
       342   4  4.599331E+03 -6.360876E+04  1.664162E+04 -5.318141E+05  3.305808E+04  1.865121E+03
       342   5  2.717658E+03 -6.426209E+04  1.784294E+04 -4.190630E+05 -5.773748E+03 -7.164860E+03
       342   6  6.849417E+03 -6.365016E+04  2.602452E+04 -5.318060E+05 -4.434234E+04 -1.619027E+04
       342   7 -1.413234E+05 -6.672256E+05 -1.090090E+05 -5.290697E+05  3.289760E+04  4.769574E+04
       342   8  2.568565E+04  3.115299E+04  3.726006E+04 -4.194021E+05 -5.930455E+03  3.838255E+04
       342   9  1.987295E+05  7.313101E+05  1.906951E+05 -5.352295E+05 -4.449674E+04  2.906392E+04
       342  10  1.504983E+05  5.403554E+05  1.422744E+05 -5.345596E+05  1.272856E-09  1.736566E-08
       342  11 -2.025057E+04 -1.596670E+05 -1.572140E+03 -4.187241E+05  1.537259E-09  7.387305E-09
       342  12 -1.850727E+05 -8.580121E+05 -1.386835E+05 -5.283884E+05 -1.456500E-09 -2.462916E-09
       342  13  4.598156E+03 -6.360906E+04  1.663956E+04 -5.318142E+05  1.480505E-09 -2.887168E-09
       342  14  2.717609E+03 -6.426215E+04  1.784278E+04 -4.190630E+05  3.121679E-09  1.550024E-09
       342  15  6.847234E+03 -6.365097E+04  2.602033E+04 -5.318066E+05  2.168949E-09 -9.772587E-10
       342  16 -1.413252E+05 -6.672283E+05 -1.090153E+05 -5.290710E+05  9.967267E-10 -1.592362E-08
       342  17  2.568522E+04  3.115139E+04  3.725723E+04 -4.194019E+05 -1.512950E-09 -8.084152E-09
       342  18  1.987271E+05  7.313086E+05  1.906898E+05 -5.352285E+05 -1.398294E-09  2.430022E-09
       342  19  1.505000E+05  5.403577E+05  1.422801E+05 -5.345608E+05 -3.321888E+04  4.400935E+04
       342  20 -2.024979E+04 -1.596640E+05 -1.566858E+03 -4.187239E+05  5.617076E+03  5.270540E+04
       342  21 -1.850696E+05 -8.580075E+05 -1.386727E+05 -5.283862E+05  4.418831E+04  6.138754E+04
       342  22  4.599331E+03 -6.360876E+04  1.664162E+04 -5.318141E+05 -3.305808E+04 -1.865121E+03
       342  23  2.717658E+03 -6.426209E+04  1.784294E+04 -4.190630E+05  5.773748E+03  7.164860E+03
       342  24  6.849417E+03 -6.365016E+04  2.602452E+04 -5.318060E+05  4.434234E+04  1.619027E+04
       342  25 -1.413234E+05 -6.672256E+05 -1.090090E+05 -5.290697E+05 -3.289760E+04 -4.769574E+04
       342  26  2.568565E+04  3.115299E+04  3.726006E+04 -4.194021E+05  5.930455E+03 -3.838255E+04
       342  27  1.987295E+05  7.313101E+05  1.906951E+05 -5.352295E+05  4.449674E+04 -2.906392E+04
       343   1 -3.144263E+05 -1.361622E+06 -2.373149E+05 -5.396298E+05 -7.390597E+04 -8.307986E+04
       343   2 -4.761552E+05 -2.064602E+06 -3.773778E+05 -3.960880E+05 -8.989125E+04 -2.307182E+04
       343   3 -5.742838E+05 -2.759157E+06 -5.407723E+05 -4.743320E+05 -3.121472E+04  3.699490E+04
       343   4  6.239410E+01 -5.901538E+04  3.178735E+04 -5.310162E+05 -7.410400E+04 -2.079481E+04
       343   5  9.251825E+03 -7.100598E+04  5.280384E+04 -4.200417E+05 -8.979945E+04 -4.842029E+04
       343   6  9.717737E+04 -5.987551E+04  1.113770E+05 -5.307758E+05 -3.094770E+04 -7.592008E+04
       343   7  3.144462E+05  1.245211E+06  3.008125E+05 -5.223823E+05 -7.430004E+04  4.161890E+04
       343   8  4.943990E+05  1.926334E+06  4.827537E+05 -4.440699E+05 -8.970588E+04 -7.384906E+04
       343   9  7.681230E+05  2.646120E+06  7.630533E+05 -5.874602E+05 -3.066084E+04 -1.893254E+05
       343  10 -3.144341E+05 -1.361631E+06 -2.373382E+05 -5.396347E+05 -7.498087E-10  7.007483E-10
       343  11 -4.761640E+05 -2.064604E+06 -3.773940E+05 -3.960897E+05 -4.122705E-10  6.496958E-11
       343  12 -5.742852E+05 -2.759158E+06 -5.407767E+05 -4.743311E+05 -5.211346E-10  1.120037E-09
       343  13  5.637944E+01 -5.901732E+04  3.177621E+04 -5.310175E+05 -2.623662E-09 -2.652458E-09
       343  14  9.242532E+03 -7.101067E+04  5.278426E+04 -4.200452E+05  4.943642E-10  1.100577E-09
       343  15  9.717479E+04 -5.988196E+04  1.113643E+05 -5.307777E+05 -6.449184E-10 -5.397260E-10
       343  16  3.144398E+05  1.245208E+06  3.007989E+05 -5.223798E+05 -3.025434E-11  7.388235E-10
       343  17  4.943889E+05  1.926326E+06  4.827284E+05 -4.440752E+05 -1.222171E-10 -8.503736E-10
       343  18  7.681124E+05  2.646082E+06  7.629845E+05 -5.874649E+05 -7.771216E-10 -1.302724E-09
       343  19 -3.144263E+05 -1.361622E+06 -2.373149E+05 -5.396298E+05  7.390597E+04  8.307986E+04
       343  20 -4.761552E+05 -2.064602E+06 -3.773778E+05 -3.960880E+05  8.989125E+04  2.307182E+04
       343  21 -5.742838E+05 -2.759157E+06 -5.407723E+05 -4.743320E+05  3.121472E+04 -3.699490E+04
       343  22  6.239410E+01 -5.901538E+04  3.178735E+04 -5.310162E+05  7.410400E+04  2.079481E+04
       343  23  9.251825E+03 -7.100598E+04  5.280384E+04 -4.200417E+05  8.979945E+04  4.842029E+04
       343  24  9.717737E+04 -5.987551E+04  1.113770E+05 -5.307758E+05  3.094770E+04  7.592008E+04
       343  25  3.144462E+05  1.245211E+06  3.008125E+05 -5.223823E+05  7.430004E+04 -4.161890E+04
       343  26  4.943990E+05  1.926334E+06  4.827537E+05 -4.440699E+05  8.970588E+04  7.384906E+04
       343  27  7.681230E+05  2.646120E+06  7.630533E+05 -5.874602E+05  3.066084E+04  1.893254E+05
       344   1 -1.790941E+06 -7.004155E+05 -4.031581E+05 -6.907320E+05 -1.806804E+05 -5.614195E+04
       344   2 -1.722608E+06 -4.642510E+05 -2.425187E+05 -6.652017E+05 -1.147549E+05 -5.490490E+03
       344   3 -1.701611E+06 -3.901714E+05 -1.769715E+05 -6.231746E+05 -4.120975E+04  2.497216E+04
       344   4 -1.153048E+06 -3.693373E+05 -2.175410E+05 -4.231254E+05 -1.433409E+05 -4.211868E+04
       344   5 -1.119618E+06 -2.057969E+05 -9.694073E+04 -4.632497E+05 -1.004617E+05 -1.229367E+02
       344   6 -1.128892E+06 -1.996943E+05 -5.307413E+04 -4.868984E+05 -4.997454E+04  2.167423E+04
       344   7 -5.147266E+05 -3.810643E+04 -3.195366E+04 -1.552296E+05 -1.059591E+05 -2.806565E+04
       344   8 -5.162553E+05  5.272164E+04  4.861261E+04 -2.611045E+05 -8.615332E+04  5.252352E+03
       344   9 -5.558412E+05 -9.206421E+03  7.080451E+04 -3.505133E+05 -5.874811E+04  1.837376E+04
       344  10 -1.790977E+06 -7.004277E+05 -4.032256E+05 -6.907401E+05  8.500359E-10 -1.070838E-10
       344  11 -1.722622E+06 -4.642546E+05 -2.425435E+05 -6.652022E+05 -1.494480E-09 -4.709421E-12
       344  12 -1.701613E+06 -3.901725E+05 -1.769759E+05 -6.231738E+05 -3.542981E-09  8.098298E-10
       344  13 -1.153070E+06 -3.693447E+05 -2.175830E+05 -4.231302E+05  6.516626E-10 -1.866592E-10
       344  14 -1.119629E+06 -2.057997E+05 -9.695973E+04 -4.632497E+05  1.278255E-09  3.004150E-10
       344  15 -1.128894E+06 -1.996954E+05 -5.307971E+04 -4.868976E+05  3.477958E-10 -8.037484E-10
       344  16 -5.147389E+05 -3.811029E+04 -3.197625E+04 -1.552320E+05 -7.362119E-10 -2.439793E-10
       344  17 -5.162633E+05  5.271962E+04  4.859860E+04 -2.611042E+05  1.337291E-09 -1.242077E-09
       344  18 -5.558450E+05 -9.207709E+03  7.079739E+04 -3.505125E+05  2.869561E-09  3.503696E-10
       344  19 -1.790941E+06 -7.004155E+05 -4.031581E+05 -6.907320E+05  1.806804E+05  5.614195E+04
       344  20 -1.722608E+06 -4.642510E+05 -2.425187E+05 -6.652017E+05  1.147549E+05  5.490490E+03
       344  21 -1.701611E+06 -3.901714E+05 -1.769715E+05 -6.231746E+05  4.120975E+04 -2.497216E+04
       344  22 -1.153048E+06 -3.693373E+05 -2.175410E+05 -4.231254E+05  1.433409E+05  4.211868E+04
       344  23 -1.119618E+06 -2.057969E+05 -9.694073E+04 -4.632497E+05  1.004617E+05  1.229367E+02
       344  24 -1.128892E+06 -1.996943E+05 -5.307413E+04 -4.868984E+05  4.997454E+04 -2.167423E+04
       344  25 -5.147266E+05 -3.810643E+04 -3.195366E+04 -1.552296E+05  1.059591E+05  2.806565E+04
       344  26 -5.162553E+05  5.272164E+04  4.861261E+04 -2.611045E+05  8.615332E+04 -5.252352E+03
       344  27 -5.558412E+05 -9.206421E+03  7.080451E+04 -3.505133E+05  5.874811E+04 -1.837376E+04
       345   1 -1.623432E+06 -3.984091E+05 -1.535011E+05 -6.203067E+05 -3.850157E+04  2.147899E+04
       345   2 -1.557637E+06 -3.539871E+05 -1.167050E+05 -5.902810E+05 -2.500369E+04  2.234919E+04
       345   3 -1.478119E+06 -3.340251E+05 -9.071158E+04 -5.792907E+05 -1.111073E+04  2.216663E+04
       345   4 -1.122062E+06 -2.107735E+05 -4.123802E+04 -4.794830E+05 -4.212831E+04  2.011287E+04
       345   5 -1.128522E+06 -1.950841E+05 -2.166363E+04 -4.713031E+05 -2.982568E+04  2.053511E+04
       345   6 -1.121021E+06 -2.036135E+05 -1.193595E+04 -4.821603E+05 -1.712957E+04  1.990434E+04
       345   7 -6.204416E+05 -2.311781E+04  7.100826E+04 -3.385551E+05 -4.575820E+04  1.874554E+04
       345   8 -6.992192E+05 -3.616625E+04  7.336647E+04 -3.522495E+05 -3.465129E+04  1.871967E+04
       345   9 -7.637918E+05 -7.319167E+04  6.683265E+04 -3.849783E+05 -2.315219E+04  1.764067E+04
       345  10 -1.623434E+06 -3.984100E+05 -1.535047E+05 -6.203061E+05  4.992062E-10  1.742639E-09
       345  11 -1.557638E+06 -3.539878E+05 -1.167071E+05 -5.902805E+05  4.202676E-09 -3.572011E-10
       345  12 -1.478119E+06 -3.340257E+05 -9.071273E+04 -5.792905E+05  4.718951E-10 -6.564023E-10
       345  13 -1.122064E+06 -2.107744E+05 -4.124212E+04 -4.794824E+05  1.015337E-09  1.371571E-09
       345  14 -1.128523E+06 -1.950848E+05 -2.166609E+04 -4.713026E+05  3.797877E-09  1.266286E-09
       345  15 -1.121021E+06 -2.036140E+05 -1.193724E+04 -4.821601E+05  1.810118E-09  1.274776E-10
       345  16 -6.204439E+05 -2.311875E+04  7.100366E+04 -3.385544E+05  1.604068E-09 -1.969676E-10
       345  17 -6.992206E+05 -3.616695E+04  7.336356E+04 -3.522490E+05  4.107704E-09  2.122323E-09
       345  18 -7.637924E+05 -7.319215E+04  6.683106E+04 -3.849779E+05  2.135949E-09  1.811747E-09
       345  19 -1.623432E+06 -3.984091E+05 -1.535011E+05 -6.203067E+05  3.850157E+04 -2.147899E+04
       345  20 -1.557637E+06 -3.539871E+05 -1.167050E+05 -5.902810E+05  2.500369E+04 -2.234919E+04
       345  21 -1.478119E+06 -3.340251E+05 -9.071158E+04 -5.792907E+05  1.111073E+04 -2.216663E+04
       345  22 -1.122062E+06 -2.107735E+05 -4.123802E+04 -4.794830E+05  4.212831E+04 -2.011287E+04
       345  23 -1.128522E+06 -1.950841E+05 -2.166363E+04 -4.713031E+05  2.982568E+04 -2.053511E+04
       345  24 -1.121021E+06 -2.036135E+05 -1.193595E+04 -4.821603E+05  1.712957E+04 -1.990434E+04
       345  25 -6.204416E+05 -2.311781E+04  7.100826E+04 -3.385551E+05  4.575820E+04 -1.874554E+04
       345  26 -6.992192E+05 -3.616625E+04  7.336647E+04 -3.522495E+05  3.465129E+04 -1.871967E+04
       345  27 -7.637918E+05 -7.319167E+04  6.683265E+04 -3.849783E+05  2.315219E+04 -1.764067E+04
       346   1 -1.422756E+06 -3.152720E+05 -7.543865E+04 -5.649400E+05 -8.542426E+03  1.966386E+04
       346   2 -1.357451E+06 -2.788432E+05 -5.524598E+04 -5.343769E+05 -4.098893E+03  1.554893E+04
       346   3 -1.274715E+06 -2.606166E+05 -3.702270E+04 -5.242612E+05  3.663640E+02  1.137280E+04
       346   4 -1.120495E+06 -2.040819E+05 -9.014623E+03 -4.817906E+05 -1.430722E+04  1.749772E+04
       346   5 -1.129191E+06 -1.948691E+05 -4.953961E+03 -4.716079E+05 -9.932572E+03  1.335773E+04
       346   6 -1.120448E+06 -2.038444E+05 -2.807088E+03 -4.818740E+05 -5.536546E+03  9.156450E+03
       346   7 -8.181408E+05 -9.288460E+04  5.740396E+04 -3.986041E+05 -2.007505E+04  1.533044E+04
       346   8 -9.008791E+05 -1.108913E+05  4.533479E+04 -4.088179E+05 -1.576856E+04  1.116566E+04
       346   9 -9.661586E+05 -1.470708E+05  3.140691E+04 -4.394773E+05 -1.144101E+04  6.939524E+03
       346  10 -1.422757E+06 -3.152725E+05 -7.543951E+04 -5.649398E+05 -6.088293E-10  1.284877E-11
       346  11 -1.357451E+06 -2.788435E+05 -5.524646E+04 -5.343769E+05  1.442548E-09  9.589294E-11
       346  12 -1.274715E+06 -2.606168E+05 -3.702295E+04 -5.242612E+05  1.418570E-09 -5.012558E-11
       346  13 -1.120495E+06 -2.040822E+05 -9.015583E+03 -4.817904E+05 -4.994184E-10  5.795203E-10
       346  14 -1.129191E+06 -1.948693E+05 -4.954481E+03 -4.716078E+05  3.117150E-10  6.646697E-11
       346  15 -1.120448E+06 -2.038445E+05 -2.807303E+03 -4.818739E+05 -5.390624E-11  6.249302E-13
       346  16 -8.181413E+05 -9.288496E+04  5.740276E+04 -3.986038E+05 -7.818307E-10  1.203604E-09
       346  17 -9.008794E+05 -1.108915E+05  4.533409E+04 -4.088178E+05 -4.638179E-10 -6.366196E-10
       346  18 -9.661587E+05 -1.470709E+05  3.140657E+04 -4.394772E+05 -6.362749E-10 -6.862535E-10
       346  19 -1.422756E+06 -3.152720E+05 -7.543865E+04 -5.649400E+05  8.542426E+03 -1.966386E+04
       346  20 -1.357451E+06 -2.788432E+05 -5.524598E+04 -5.343769E+05  4.098893E+03 -1.554893E+04
       346  21 -1.274715E+06 -2.606166E+05 -3.702270E+04 -5.242612E+05 -3.663640E+02 -1.137280E+04
       346  22 -1.120495E+06 -2.040819E+05 -9.014623E+03 -4.817906E+05  1.430722E+04 -1.749772E+04
       346  23 -1.129191E+06 -1.948691E+05 -4.953961E+03 -4.716079E+05  9.932572E+03 -1.335773E+04
       346  24 -1.120448E+06 -2.038444E+05 -2.807088E+03 -4.818740E+05  5.536546E+03 -9.156450E+03
       346  25 -8.181408E+05 -9.288460E+04  5.740396E+04 -3.986041E+05  2.007505E+04 -1.533044E+04
       346  26 -9.008791E+05 -1.108913E+05  4.533479E+04 -4.088179E+05  1.576856E+04 -1.116566E+04
       346  27 -9.661586E+05 -1.470708E+05  3.140691E+04 -4.394773E+05  1.144101E+04 -6.939524E+03
       347   1 -1.220333E+06 -2.405873E+05 -2.394986E+04 -5.093544E+05  1.897108E+03  8.521220E+03
       347   2 -1.155053E+06 -2.043602E+05 -7.060572E+03 -4.786683E+05  4.526190E+03  3.628897E+03
       347   3 -1.071968E+06 -1.860579E+05  9.307304E+03 -4.684754E+05  7.156413E+03 -1.266741E+03
       347   4 -1.120376E+06 -2.038623E+05 -2.171760E+03 -4.818546E+05 -3.996795E+03  6.308535E+03
       347   5 -1.129275E+06 -1.949027E+05 -1.386993E+03 -4.716052E+05 -1.371799E+03  1.414746E+03
       347   6 -1.120375E+06 -2.038683E+05 -1.120768E+03 -4.818515E+05  1.254237E+03 -3.482364E+03
       347   7 -1.020408E+06 -1.671362E+05  1.960608E+04 -4.543505E+05 -9.891766E+03  4.095452E+03
       347   8 -1.103497E+06 -1.854451E+05  4.286719E+03 -4.645417E+05 -7.270075E+03 -7.995104E+02
       347   9 -1.168780E+06 -2.216784E+05 -1.154883E+04 -4.952266E+05 -4.647443E+03 -5.697800E+03
       347  10 -1.220333E+06 -2.405874E+05 -2.395000E+04 -5.093544E+05 -3.580599E-10 -6.913981E-13
       347  11 -1.155053E+06 -2.043602E+05 -7.060635E+03 -4.786684E+05 -7.645036E-10 -1.563315E-11
       347  12 -1.071968E+06 -1.860579E+05  9.307205E+03 -4.684754E+05  5.974090E-10 -2.644753E-10
       347  13 -1.120376E+06 -2.038623E+05 -2.171864E+03 -4.818546E+05  3.441105E-10 -6.468322E-10
       347  14 -1.129275E+06 -1.949027E+05 -1.387001E+03 -4.716052E+05  8.590781E-10  8.924666E-11
       347  15 -1.120375E+06 -2.038683E+05 -1.120794E+03 -4.818515E+05  1.935766E-10 -4.950405E-11
       347  16 -1.020408E+06 -1.671362E+05  1.960587E+04 -4.543505E+05  7.263586E-10 -5.033425E-10
       347  17 -1.103497E+06 -1.854452E+05  4.286619E+03 -4.645417E+05 -4.735420E-11  1.309015E-10
       347  18 -1.168780E+06 -2.216785E+05 -1.154893E+04 -4.952267E+05 -5.726524E-11  2.904153E-11
       347  19 -1.220333E+06 -2.405873E+05 -2.394986E+04 -5.093544E+05 -1.897108E+03 -8.521220E+03
       347  20 -1.155053E+06 -2.043602E+05 -7.060572E+03 -4.786683E+05 -4.526190E+03 -3.628897E+03
       347  21 -1.071968E+06 -1.860579E+05  9.307304E+03 -4.684754E+05 -7.156413E+03  1.266741E+03
       347  22 -1.120376E+06 -2.038623E+05 -2.171760E+03 -4.818546E+05  3.996795E+03 -6.308535E+03
       347  23 -1.129275E+06 -1.949027E+05 -1.386993E+03 -4.716052E+05  1.371799E+03 -1.414746E+03
       347  24 -1.120375E+06 -2.038683E+05 -1.120768E+03 -4.818515E+05 -1.254237E+03  3.482364E+03
       347  25 -1.020408E+06 -1.671362E+05  1.960608E+04 -4.543505E+05  9.891766E+03 -4.095452E+03
       347  26 -1.103497E+06 -1.854451E+05  4.286719E+03 -4.645417E+05  7.270075E+03  7.995104E+02
       347  27 -1.168780E+06 -2.216784E+05 -1.154883E+04 -4.952266E+05  4.647443E+03  5.697800E+03
       348   1 -1.017673E+06 -1.659662E+05  2.173058E+04 -4.535343E+05  8.469369E+03 -4.198504E+03
       348   2 -9.524770E+05 -1.297848E+05  3.745337E+04 -4.228794E+05  1.113713E+04 -9.073838E+03
       348   3 -8.694983E+05 -1.115049E+05  5.262687E+04 -4.126882E+05  1.380263E+04 -1.393992E+04
       348   4 -1.120383E+06 -2.038646E+05 -1.139411E+03 -4.818455E+05  2.569286E+03 -6.413502E+03
       348   5 -1.129276E+06 -1.949193E+05 -1.493813E+03 -4.716117E+05  5.246818E+03 -1.128581E+04
       348   6 -1.120393E+06 -2.038781E+05 -2.405186E+03 -4.818441E+05  7.922004E+03 -1.614889E+04
       348   7 -1.223081E+06 -2.417619E+05 -2.400973E+04 -5.101521E+05 -3.329700E+03 -8.628088E+03
       348   8 -1.306043E+06 -2.600513E+05 -4.044276E+04 -5.203313E+05 -6.416731E+02 -1.349710E+04
       348   9 -1.371226E+06 -2.962470E+05 -5.744136E+04 -5.509748E+05  2.043915E+03 -1.835691E+04
       348  10 -1.017673E+06 -1.659663E+05  2.173041E+04 -4.535343E+05 -8.460856E-10  4.737813E-10
       348  11 -9.524772E+05 -1.297849E+05  3.745298E+04 -4.228793E+05 -4.217094E-09 -9.065361E-10
       348  12 -8.694985E+05 -1.115052E+05  5.262614E+04 -4.126880E+05 -3.456168E-09 -2.841260E-10
       348  13 -1.120383E+06 -2.038647E+05 -1.139501E+03 -4.818455E+05 -1.873635E-09 -2.593462E-10
       348  14 -1.129276E+06 -1.949194E+05 -1.494104E+03 -4.716117E+05 -3.610313E-09 -1.538066E-09
       348  15 -1.120393E+06 -2.038784E+05 -2.405794E+03 -4.818440E+05 -1.121105E-09 -1.200162E-09
       348  16 -1.223081E+06 -2.417620E+05 -2.400989E+04 -5.101522E+05 -2.993477E-09 -4.341257E-10
       348  17 -1.306043E+06 -2.600515E+05 -4.044310E+04 -5.203313E+05 -4.748313E-09  1.198027E-10
       348  18 -1.371226E+06 -2.962473E+05 -5.744200E+04 -5.509748E+05 -1.217523E-09 -1.072148E-10
       348  19 -1.017673E+06 -1.659662E+05  2.173058E+04 -4.535343E+05 -8.469369E+03  4.198504E+03
       348  20 -9.524770E+05 -1.297848E+05  3.745337E+04 -4.228794E+05 -1.113713E+04  9.073838E+03
       348  21 -8.694983E+05 -1.115049E+05  5.262687E+04 -4.126882E+05 -1.380263E+04  1.393992E+04
       348  22 -1.120383E+06 -2.038646E+05 -1.139411E+03 -4.818455E+05 -2.569286E+03  6.413502E+03
       348  23 -1.129276E+06 -1.949193E+05 -1.493813E+03 -4.716117E+05 -5.246818E+03  1.128581E+04
       348  24 -1.120393E+06 -2.038781E+05 -2.405186E+03 -4.818441E+05 -7.922004E+03  1.614889E+04
       348  25 -1.223081E+06 -2.417619E+05 -2.400973E+04 -5.101521E+05  3.329700E+03  8.628088E+03
       348  26 -1.306043E+06 -2.600513E+05 -4.044276E+04 -5.203313E+05  6.416731E+02  1.349710E+04
       348  27 -1.371226E+06 -2.962470E+05 -5.744136E+04 -5.509748E+05 -2.043915E+03  1.835691E+04
       349   1 -8.154211E+05 -9.148466E+04  6.430346E+04 -3.978416E+05  1.539295E+04 -1.675917E+04
       349   2 -7.504097E+05 -5.543802E+04  7.788568E+04 -3.672817E+05  1.999487E+04 -2.085493E+04
       349   3 -6.680426E+05 -3.753334E+04  8.939417E+04 -3.570782E+05  2.457054E+04 -2.487350E+04
       349   4 -1.120487E+06 -2.038518E+05 -3.127847E+03 -4.818548E+05  9.505340E+03 -1.897139E+04
       349   5 -1.129184E+06 -1.949135E+05 -5.554205E+03 -4.716264E+05  1.419305E+04 -2.303629E+04
       349   6 -1.120548E+06 -2.041356E+05 -1.012307E+04 -4.817576E+05  1.885415E+04 -2.702408E+04
       349   7 -1.425458E+06 -3.162116E+05 -7.056473E+04 -5.658300E+05  3.620862E+03 -2.118243E+04
       349   8 -1.507812E+06 -3.343772E+05 -8.900236E+04 -5.759123E+05  8.395077E+03 -2.521621E+04
       349   9 -1.572843E+06 -3.707207E+05 -1.096518E+05 -6.063527E+05  1.314230E+04 -2.917296E+04
       349  10 -8.154214E+05 -9.148503E+04  6.430249E+04 -3.978414E+05  1.924676E-10  1.384563E-10
       349  11 -7.504103E+05 -5.543859E+04  7.788411E+04 -3.672814E+05 -1.062202E-09  7.026006E-10
       349  12 -6.680434E+05 -3.753417E+04  8.939187E+04 -3.570778E+05 -2.318557E-09  6.331105E-10
       349  13 -1.120487E+06 -2.038522E+05 -3.128693E+03 -4.818546E+05 -4.927808E-10  1.426706E-10
       349  14 -1.129185E+06 -1.949141E+05 -5.555580E+03 -4.716262E+05 -2.042479E-10  1.545153E-10
       349  15 -1.120549E+06 -2.041365E+05 -1.012510E+04 -4.817572E+05 -2.180042E-10  1.291425E-09
       349  16 -1.425458E+06 -3.162121E+05 -7.056560E+04 -5.658299E+05  1.668264E-10 -4.511367E-10
       349  17 -1.507812E+06 -3.343779E+05 -8.900368E+04 -5.759121E+05  1.160209E-09  3.681906E-11
       349  18 -1.572843E+06 -3.707217E+05 -1.096537E+05 -6.063524E+05  1.833597E-09  1.118312E-09
       349  19 -8.154211E+05 -9.148466E+04  6.430346E+04 -3.978416E+05 -1.539295E+04  1.675917E+04
       349  20 -7.504097E+05 -5.543802E+04  7.788568E+04 -3.672817E+05 -1.999487E+04  2.085493E+04
       349  21 -6.680426E+05 -3.753334E+04  8.939417E+04 -3.570782E+05 -2.457054E+04  2.487350E+04
       349  22 -1.120487E+06 -2.038518E+05 -3.127847E+03 -4.818548E+05 -9.505340E+03  1.897139E+04
       349  23 -1.129184E+06 -1.949135E+05 -5.554205E+03 -4.716264E+05 -1.419305E+04  2.303629E+04
       349  24 -1.120548E+06 -2.041356E+05 -1.012307E+04 -4.817576E+05 -1.885415E+04  2.702408E+04
       349  25 -1.425458E+06 -3.162116E+05 -7.056473E+04 -5.658300E+05 -3.620862E+03  2.118243E+04
       349  26 -1.507812E+06 -3.343772E+05 -8.900236E+04 -5.759123E+05 -8.395077E+03  2.521621E+04
       349  27 -1.572843E+06 -3.707207E+05 -1.096518E+05 -6.063527E+05 -1.314230E+04  2.917296E+04
       350   1 -6.139660E+05 -1.796394E+04  9.838570E+04 -3.436524E+05  2.790203E+04 -2.708006E+04
       350   2 -5.499033E+05  1.896841E+04  1.036571E+05 -3.108318E+05  4.046822E+04 -2.762727E+04
       350   3 -4.721518E+05  3.130779E+04  9.902185E+04 -2.967216E+05  5.256229E+04 -2.690667E+04
       350   4 -1.121146E+06 -2.036014E+05 -1.340635E+04 -4.821594E+05  2.188241E+04 -2.934563E+04
       350   5 -1.128433E+06 -1.951858E+05 -2.434308E+04 -4.712961E+05  3.588764E+04 -2.935374E+04
       350   6 -1.122326E+06 -2.116567E+05 -4.633636E+04 -4.791477E+05  4.941917E+04 -2.809399E+04
       350   7 -1.628069E+06 -3.892210E+05 -1.252150E+05 -6.205638E+05  1.586806E+04 -3.160926E+04
       350   8 -1.706625E+06 -4.093140E+05 -1.523644E+05 -6.316235E+05  3.131166E+04 -3.107847E+04
       350   9 -1.772074E+06 -4.545857E+05 -1.917213E+05 -6.613974E+05  4.627960E+04 -2.927994E+04
       350  10 -6.139670E+05 -1.796493E+04  9.838286E+04 -3.436518E+05  3.972841E-09  2.903497E-09
       350  11 -5.499053E+05  1.896715E+04  1.036526E+05 -3.108309E+05 -6.504926E-09 -3.644539E-09
       350  12 -4.721549E+05  3.130627E+04  9.901529E+04 -2.967205E+05 -1.675327E-08 -1.114524E-08
       350  13 -1.121147E+06 -2.036024E+05 -1.340887E+04 -4.821589E+05  2.540321E-10 -1.636335E-10
       350  14 -1.128434E+06 -1.951871E+05 -2.434712E+04 -4.712953E+05  1.000946E-09 -7.628372E-10
       350  15 -1.122329E+06 -2.116582E+05 -4.634244E+04 -4.791465E+05 -1.980842E-09 -3.536240E-09
       350  16 -1.628070E+06 -3.892221E+05 -1.252173E+05 -6.205634E+05 -3.597624E-09 -7.117830E-10
       350  17 -1.706626E+06 -4.093153E+05 -1.523681E+05 -6.316227E+05  7.217137E-09  3.457199E-09
       350  18 -1.772076E+06 -4.545872E+05 -1.917269E+05 -6.613963E+05  1.219284E-08  2.958828E-09
       350  19 -6.139660E+05 -1.796394E+04  9.838570E+04 -3.436524E+05 -2.790203E+04  2.708006E+04
       350  20 -5.499033E+05  1.896841E+04  1.036571E+05 -3.108318E+05 -4.046822E+04  2.762727E+04
       350  21 -4.721518E+05  3.130779E+04  9.902185E+04 -2.967216E+05 -5.256229E+04  2.690667E+04
       350  22 -1.121146E+06 -2.036014E+05 -1.340635E+04 -4.821594E+05 -2.188241E+04  2.934563E+04
       350  23 -1.128433E+06 -1.951858E+05 -2.434308E+04 -4.712961E+05 -3.588764E+04  2.935374E+04
       350  24 -1.122326E+06 -2.116567E+05 -4.633636E+04 -4.791477E+05 -4.941917E+04  2.809399E+04
       350  25 -1.628069E+06 -3.892210E+05 -1.252150E+05 -6.205638E+05 -1.586806E+04  3.160926E+04
       350  26 -1.706625E+06 -4.093140E+05 -1.523644E+05 -6.316235E+05 -3.131166E+04  3.107847E+04
       350  27 -1.772074E+06 -4.545857E+05 -1.917213E+05 -6.613974E+05 -4.627960E+04  2.927994E+04
       351   1 -4.066062E+05  4.434396E+04  9.711978E+04 -3.120316E+05  6.744011E+04 -2.601889E+04
       351   2 -3.708690E+05  1.092643E+05  7.052465E+04 -2.156927E+05  9.596835E+04 -1.067609E+04
       351   3 -3.799294E+05  5.386509E+03 -2.022022E+04 -9.804145E+04  1.153569E+05  2.892547E+04
       351   4 -1.130013E+06 -1.991968E+05 -5.963586E+04 -4.874624E+05  5.811807E+04 -2.953088E+04
       351   5 -1.118421E+06 -2.072510E+05 -1.089299E+05 -4.622686E+05  1.143692E+05 -3.755501E+03
       351   6 -1.157214E+06 -3.897430E+05 -2.444334E+05 -4.157493E+05  1.614699E+05  4.628399E+04
       351   7 -1.852892E+06 -4.427178E+05 -2.164216E+05 -6.627148E+05  4.880780E+04 -3.303934E+04
       351   8 -1.865397E+06 -5.236713E+05 -2.884207E+05 -7.085527E+05  1.327457E+05  3.153013E+03
       351   9 -1.933862E+06 -7.846606E+05 -4.686885E+05 -7.330396E+05  2.075188E+05  6.359919E+04
       351  10 -4.066113E+05  4.434201E+04  9.710996E+04 -3.120302E+05  1.222840E-08  1.294363E-09
       351  11 -3.708790E+05  1.092617E+05  7.050712E+04 -2.156919E+05  7.505091E-09  1.294769E-09
       351  12 -3.799439E+05  5.382035E+03 -2.024681E+04 -9.804414E+04 -4.510926E-09 -2.411564E-09
       351  13 -1.130017E+06 -1.991986E+05 -5.964385E+04 -4.874610E+05 -1.537944E-09 -5.720948E-09
       351  14 -1.118435E+06 -2.072545E+05 -1.089545E+05 -4.622683E+05  1.678459E-11 -1.892866E-09
       351  15 -1.157243E+06 -3.897523E+05 -2.444865E+05 -4.157553E+05  1.989623E-11  9.041039E-10
       351  16 -1.852895E+06 -4.427196E+05 -2.164281E+05 -6.627135E+05 -1.790172E-08 -9.222346E-09
       351  17 -1.865416E+06 -5.236760E+05 -2.884540E+05 -7.085530E+05 -7.018027E-09 -1.921227E-09
       351  18 -1.933910E+06 -7.846766E+05 -4.687773E+05 -7.330503E+05  4.177283E-09  1.278960E-09
       351  19 -4.066062E+05  4.434396E+04  9.711978E+04 -3.120316E+05 -6.744011E+04  2.601889E+04
       351  20 -3.708690E+05  1.092643E+05  7.052465E+04 -2.156927E+05 -9.596835E+04  1.067609E+04
       351  21 -3.799294E+05  5.386509E+03 -2.022022E+04 -9.804145E+04 -1.153569E+05 -2.892547E+04
       351  22 -1.130013E+06 -1.991968E+05 -5.963586E+04 -4.874624E+05 -5.811807E+04  2.953088E+04
       351  23 -1.118421E+06 -2.072510E+05 -1.089299E+05 -4.622686E+05 -1.143692E+05  3.755501E+03
       351  24 -1.157214E+06 -3.897430E+05 -2.444334E+05 -4.157493E+05 -1.614699E+05 -4.628399E+04
       351  25 -1.852892E+06 -4.427178E+05 -2.164216E+05 -6.627148E+05 -4.880780E+04  3.303934E+04
       351  26 -1.865397E+06 -5.236713E+05 -2.884207E+05 -7.085527E+05 -1.327457E+05 -3.153013E+03
       351  27 -1.933862E+06 -7.846606E+05 -4.686885E+05 -7.330396E+05 -2.075188E+05 -6.359919E+04
       352   1  2.882058E+05  6.751191E+04  4.351960E+04 -2.029370E+04 -5.046263E+04 -1.015002E+04
       352   2  2.479898E+05  1.509979E+05  8.079229E+04  8.105544E+03 -4.103097E+04 -3.267569E+04
       352   3  1.856035E+05  1.506438E+05  9.100709E+04  5.206766E+04 -3.164284E+04 -3.667378E+04
       352   4 -4.256013E+05 -1.090817E+05 -1.271891E+05  3.774550E+04 -8.781448E+04 -1.024317E+04
       352   5 -4.125887E+05 -9.030959E+03 -5.939829E+04  2.982168E+04 -5.661470E+04 -3.271895E+04
       352   6 -4.255581E+05  3.345689E+03 -3.380933E+04  3.746324E+04 -2.545664E+04 -3.665930E+04
       352   7 -1.138931E+06 -2.856985E+05 -2.979267E+05  9.571743E+04 -1.251235E+05 -1.034336E+04
       352   8 -1.072754E+06 -1.690862E+05 -1.996126E+05  5.151412E+04 -7.218207E+04 -3.276332E+04
       352   9 -1.036364E+06 -1.439750E+05 -1.586452E+05  2.287322E+04 -1.927640E+04 -3.664511E+04
       352  10  2.882030E+05  6.751111E+04  4.351462E+04 -2.029411E+04  2.737352E-10 -5.955510E-10
       352  11  2.479877E+05  1.509963E+05  8.078712E+04  8.104465E+03  1.415603E-09 -4.850374E-09
       352  12  1.856021E+05  1.506421E+05  9.100268E+04  5.206673E+04  2.823690E-09 -4.939759E-09
       352  13 -4.256096E+05 -1.090839E+05 -1.272038E+05  3.774478E+04 -1.461563E-10  2.420495E-09
       352  14 -4.125925E+05 -9.032970E+03 -5.940633E+04  2.982019E+04  3.921381E-10 -3.208354E-09
       352  15 -4.255591E+05  3.344072E+03 -3.381308E+04  3.746249E+04 -4.010632E-10 -2.221846E-10
       352  16 -1.138948E+06 -2.857029E+05 -2.979563E+05  9.571639E+04 -2.821060E-09  8.749871E-10
       352  17 -1.072760E+06 -1.690887E+05 -1.996244E+05  5.151221E+04 -1.971756E-09 -6.920503E-09
       352  18 -1.036365E+06 -1.439766E+05 -1.586485E+05  2.287265E+04 -1.823604E-09 -7.822742E-09
       352  19  2.882058E+05  6.751191E+04  4.351960E+04 -2.029370E+04  5.046263E+04  1.015002E+04
       352  20  2.479898E+05  1.509979E+05  8.079229E+04  8.105544E+03  4.103097E+04  3.267569E+04
       352  21  1.856035E+05  1.506438E+05  9.100709E+04  5.206766E+04  3.164284E+04  3.667378E+04
       352  22 -4.256013E+05 -1.090817E+05 -1.271891E+05  3.774550E+04  8.781448E+04  1.024317E+04
       352  23 -4.125887E+05 -9.030959E+03 -5.939829E+04  2.982168E+04  5.661470E+04  3.271895E+04
       352  24 -4.255581E+05  3.345689E+03 -3.380933E+04  3.746324E+04  2.545664E+04  3.665930E+04
       352  25 -1.138931E+06 -2.856985E+05 -2.979267E+05  9.571743E+04  1.251235E+05  1.034336E+04
       352  26 -1.072754E+06 -1.690862E+05 -1.996126E+05  5.151412E+04  7.218207E+04  3.276332E+04
       352  27 -1.036364E+06 -1.439750E+05 -1.586452E+05  2.287322E+04  1.927640E+04  3.664511E+04
       353   1  1.534253E+05  1.340003E+05  9.105256E+04  3.751478E+04 -2.258868E+04 -3.395978E+04
       353   2  1.031048E+05  1.257199E+05  9.160788E+04  3.037745E+04 -1.650970E+04 -3.199463E+04
       353   3  5.103480E+04  1.138364E+05  8.729294E+04  3.972985E+04 -1.043541E+04 -2.902389E+04
       353   4 -4.202136E+05 -4.231526E+03 -2.642389E+04  3.773487E+04 -2.087524E+04 -3.395752E+04
       353   5 -4.192252E+05  6.600395E+00 -1.453766E+04  2.948270E+04 -1.361952E+04 -3.198836E+04
       353   6 -4.201944E+05  4.352454E+02 -8.342497E+03  3.772120E+04 -6.367968E+03 -2.901321E+04
       353   7 -9.935399E+05 -1.424840E+05 -1.439178E+05  3.795452E+04 -1.916336E+04 -3.395527E+04
       353   8 -9.412955E+05 -1.257238E+05 -1.206974E+05  2.858853E+04 -1.073172E+04 -3.198209E+04
       353   9 -8.912122E+05 -1.129797E+05 -1.039894E+05  3.571394E+04 -2.303555E+03 -2.900255E+04
       353  10  1.534245E+05  1.339989E+05  9.104943E+04  3.751417E+04 -7.838474E-09 -5.852390E-09
       353  11  1.031042E+05  1.257188E+05  9.160544E+04  3.037702E+04 -2.285078E-09  2.627781E-09
       353  12  5.103446E+04  1.138355E+05  8.729116E+04  3.972961E+04 -1.548104E-10  2.315563E-09
       353  13 -4.202144E+05 -4.232881E+03 -2.642688E+04  3.773430E+04 -5.156853E-10 -4.302522E-09
       353  14 -4.192257E+05  5.451992E+00 -1.453993E+04  2.948235E+04 -5.768125E-10  2.853909E-10
       353  15 -4.201947E+05  4.343308E+02 -8.344155E+03  3.772105E+04 -7.041643E-10 -4.231116E-09
       353  16 -9.935406E+05 -1.424853E+05 -1.439207E+05  3.795400E+04  5.203223E-09 -7.617509E-10
       353  17 -9.412959E+05 -1.257249E+05 -1.206996E+05  2.858825E+04  1.597029E-09  2.861316E-09
       353  18 -8.912125E+05 -1.129806E+05 -1.039910E+05  3.571389E+04 -7.017994E-10  5.095201E-10
       353  19  1.534253E+05  1.340003E+05  9.105256E+04  3.751478E+04  2.258868E+04  3.395978E+04
       353  20  1.031048E+05  1.257199E+05  9.160788E+04  3.037745E+04  1.650970E+04  3.199463E+04
       353  21  5.103480E+04  1.138364E+05  8.729294E+04  3.972985E+04  1.043541E+04  2.902389E+04
       353  22 -4.202136E+05 -4.231526E+03 -2.642389E+04  3.773487E+04  2.087524E+04  3.395752E+04
       353  23 -4.192252E+05  6.600395E+00 -1.453766E+04  2.948270E+04  1.361952E+04  3.198836E+04
       353  24 -4.201944E+05  4.352454E+02 -8.342497E+03  3.772120E+04  6.367968E+03  2.901321E+04
       353  25 -9.935399E+05 -1.424840E+05 -1.439178E+05  3.795452E+04  1.916336E+04  3.395527E+04
       353  26 -9.412955E+05 -1.257238E+05 -1.206974E+05  2.858853E+04  1.073172E+04  3.198209E+04
       353  27 -8.912122E+05 -1.129797E+05 -1.039894E+05  3.571394E+04  2.303555E+03  2.900255E+04
       354   1  1.423670E+04  1.045269E+05  8.150484E+04  3.900007E+04 -8.905143E+03 -2.702669E+04
       354   2 -3.695420E+04  9.230056E+04  7.389640E+04  3.055198E+04 -7.177289E+03 -2.373825E+04
       354   3 -8.848335E+04  8.001232E+04  6.512269E+04  3.869712E+04 -5.451041E+03 -2.039220E+04
       354   4 -4.198308E+05  1.156752E+02 -6.365548E+03  3.774749E+04 -5.075655E+03 -2.701624E+04
       354   5 -4.196480E+05  2.303311E+02 -3.644570E+03  2.945032E+04 -3.281325E+03 -2.372690E+04
       354   6 -4.198179E+05  2.714852E+02 -2.135706E+03  3.774698E+04 -1.488464E+03 -2.037992E+04
       354   7 -8.537187E+05 -1.043072E+05 -9.424565E+04  3.649565E+04 -1.248793E+03 -2.700580E+04
       354   8 -8.022023E+05 -9.184899E+04 -8.119309E+04  2.834924E+04  6.122823E+02 -2.371556E+04
       354   9 -7.510479E+05 -7.947617E+04 -6.939976E+04  3.679728E+04  2.472038E+03 -2.036764E+04
       354  10  1.423642E+04  1.045261E+05  8.150332E+04  3.899988E+04 -6.973930E-09  3.845215E-09
       354  11 -3.695441E+04  9.229994E+04  7.389524E+04  3.055185E+04 -3.523345E-10  3.735404E-09
       354  12 -8.848350E+04  8.001186E+04  6.512185E+04  3.869703E+04  6.749887E-09 -1.768453E-09
       354  13 -4.198310E+05  1.148847E+02 -6.366968E+03  3.774737E+04 -7.782055E-10 -4.195606E-09
       354  14 -4.196482E+05  2.297238E+02 -3.645648E+03  2.945026E+04 -2.364944E-10  4.328880E-09
       354  15 -4.198180E+05  2.710387E+02 -2.136490E+03  3.774696E+04 -6.531354E-10  5.456217E-09
       354  16 -8.537189E+05 -1.043080E+05 -9.424702E+04  3.649562E+04  3.587044E-09  1.620486E-09
       354  17 -8.022025E+05 -9.184960E+04 -8.119415E+04  2.834925E+04 -1.835735E-09  6.219541E-09
       354  18 -7.510481E+05 -7.947662E+04 -6.940056E+04  3.679732E+04 -6.382685E-09  1.366567E-09
       354  19  1.423670E+04  1.045269E+05  8.150484E+04  3.900007E+04  8.905143E+03  2.702669E+04
       354  20 -3.695420E+04  9.230056E+04  7.389640E+04  3.055198E+04  7.177289E+03  2.373825E+04
       354  21 -8.848335E+04  8.001232E+04  6.512269E+04  3.869712E+04  5.451041E+03  2.039220E+04
       354  22 -4.198308E+05  1.156752E+02 -6.365548E+03  3.774749E+04  5.075655E+03  2.701624E+04
       354  23 -4.196480E+05  2.303311E+02 -3.644570E+03  2.945032E+04  3.281325E+03  2.372690E+04
       354  24 -4.198179E+05  2.714852E+02 -2.135706E+03  3.774698E+04  1.488464E+03  2.037992E+04
       354  25 -8.537187E+05 -1.043072E+05 -9.424565E+04  3.649565E+04  1.248793E+03  2.700580E+04
       354  26 -8.022023E+05 -9.184899E+04 -8.119309E+04  2.834924E+04 -6.122823E+02  2.371556E+04
       354  27 -7.510479E+05 -7.947617E+04 -6.939976E+04  3.679728E+04 -2.472038E+03  2.036764E+04
       355   1 -1.256792E+05  7.099254E+04  5.778933E+04  3.858153E+04 -5.103951E+03 -1.843038E+04
       355   2 -1.770795E+05  5.858704E+04  4.809399E+04  3.010827E+04 -4.598843E+03 -1.506507E+04
       355   3 -2.286448E+05  4.628470E+04  3.806358E+04  3.827083E+04 -4.094628E+03 -1.169467E+04
       355   4 -4.197723E+05  2.633231E+02 -1.658968E+03  3.775656E+04 -1.151538E+03 -1.841778E+04
       355   5 -4.196836E+05  2.176231E+02 -1.055418E+03  2.943846E+04 -6.408438E+02 -1.505200E+04
       355   6 -4.197643E+05  2.740294E+02 -7.911419E+02  3.775654E+04 -1.310020E+02 -1.168112E+04
       355   7 -7.137829E+05 -7.047125E+04 -6.111168E+04  3.693192E+04  2.799038E+03 -1.840518E+04
       355   8 -6.622317E+05 -5.815544E+04 -5.020782E+04  2.876886E+04  3.315637E+03 -1.503893E+04
       355   9 -6.108491E+05 -4.573892E+04 -3.964772E+04  3.724239E+04  3.831427E+03 -1.166757E+04
       355  10 -1.256793E+05  7.099217E+04  5.778865E+04  3.858145E+04 -1.678905E-10 -1.503752E-09
       355  11 -1.770796E+05  5.858679E+04  4.809352E+04  3.010822E+04 -1.489800E-09  1.041644E-08
       355  12 -2.286448E+05  4.628455E+04  3.806329E+04  3.827079E+04 -1.075772E-10  9.097759E-09
       355  13 -4.197724E+05  2.629586E+02 -1.659608E+03  3.775654E+04 -5.258342E-10  1.104153E-09
       355  14 -4.196837E+05  2.173798E+02 -1.055845E+03  2.943845E+04  5.863099E-10  6.543978E-09
       355  15 -4.197644E+05  2.738829E+02 -7.913983E+02  3.775654E+04  6.275358E-11  4.882583E-10
       355  16 -7.137830E+05 -7.047162E+04 -6.111233E+04  3.693196E+04 -2.195244E-09 -1.561435E-09
       355  17 -6.622318E+05 -5.815569E+04 -5.020827E+04  2.876890E+04 -7.681539E-10  9.975487E-10
       355  18 -6.108491E+05 -4.573907E+04 -3.964800E+04  3.724242E+04  3.415814E-10 -1.662668E-09
       355  19 -1.256792E+05  7.099254E+04  5.778933E+04  3.858153E+04  5.103951E+03  1.843038E+04
       355  20 -1.770795E+05  5.858704E+04  4.809399E+04  3.010827E+04  4.598843E+03  1.506507E+04
       355  21 -2.286448E+05  4.628470E+04  3.806358E+04  3.827083E+04  4.094628E+03  1.169467E+04
       355  22 -4.197723E+05  2.633231E+02 -1.658968E+03  3.775656E+04  1.151538E+03  1.841778E+04
       355  23 -4.196836E+05  2.176231E+02 -1.055418E+03  2.943846E+04  6.408438E+02  1.505200E+04
       355  24 -4.197643E+05  2.740294E+02 -7.911419E+02  3.775654E+04  1.310020E+02  1.168112E+04
       355  25 -7.137829E+05 -7.047125E+04 -6.111168E+04  3.693192E+04 -2.799038E+03  1.840518E+04
       355  26 -6.622317E+05 -5.815544E+04 -5.020782E+04  2.876886E+04 -3.315637E+03  1.503893E+04
       355  27 -6.108491E+05 -4.573892E+04 -3.964772E+04  3.724239E+04 -3.831427E+03  1.166757E+04
       356   1 -2.659505E+05  3.725754E+04  3.027168E+04  3.817286E+04 -3.962158E+03 -9.731565E+03
       356   2 -3.174141E+05  2.483514E+04  1.985614E+04  2.967837E+04 -3.547282E+03 -6.357700E+03
       356   3 -3.690470E+05  1.251921E+04  9.160722E+03  3.784510E+04 -3.132781E+03 -2.984283E+03
       356   4 -4.197620E+05  2.762610E+02 -7.561940E+02  3.776214E+04  2.681950E+00 -9.717813E+03
       356   5 -4.196749E+05  2.300642E+02 -8.618109E+02  2.943144E+04  4.168402E+02 -6.343762E+03
       356   6 -4.197587E+05  2.907938E+02 -1.246600E+03  3.776210E+04  8.306565E+02 -2.970153E+03
       356   7 -5.735509E+05 -3.670647E+04 -3.178522E+04  3.735150E+04  3.966558E+03 -9.704064E+03
       356   8 -5.219257E+05 -2.437565E+04 -2.158025E+04  2.918453E+04  4.380321E+03 -6.329827E+03
       356   9 -4.704680E+05 -1.193777E+04 -1.165400E+04  3.767911E+04  4.793776E+03 -2.956022E+03
       356  10 -2.659505E+05  3.725743E+04  3.027147E+04  3.817283E+04  6.796876E-09  3.374945E-09
       356  11 -3.174141E+05  2.483509E+04  1.985604E+04  2.967836E+04  2.968360E-09  8.348155E-10
       356  12 -3.690470E+05  1.251919E+04  9.160687E+03  3.784510E+04 -2.345469E-09 -3.564036E-09
       356  13 -4.197620E+05  2.761596E+02 -7.563714E+02  3.776214E+04  2.401411E-10  1.011190E-08
       356  14 -4.196749E+05  2.300209E+02 -8.618868E+02  2.943144E+04  1.328036E-09 -6.553567E-10
       356  15 -4.197587E+05  2.907842E+02 -1.246618E+03  3.776211E+04 -1.009282E-09 -6.729361E-09
       356  16 -5.735509E+05 -3.670658E+04 -3.178543E+04  3.735153E+04 -9.453827E-09  2.033823E-09
       356  17 -5.219257E+05 -2.437570E+04 -2.158036E+04  2.918455E+04 -4.416186E-09 -1.078084E-09
       356  18 -4.704680E+05 -1.193779E+04 -1.165406E+04  3.767912E+04  3.014476E-09 -5.400499E-09
       356  19 -2.659505E+05  3.725754E+04  3.027168E+04  3.817286E+04  3.962158E+03  9.731565E+03
       356  20 -3.174141E+05  2.483514E+04  1.985614E+04  2.967837E+04  3.547282E+03  6.357700E+03
       356  21 -3.690470E+05  1.251921E+04  9.160722E+03  3.784510E+04  3.132781E+03  2.984283E+03
       356  22 -4.197620E+05  2.762610E+02 -7.561940E+02  3.776214E+04 -2.681950E+00  9.717813E+03
       356  23 -4.196749E+05  2.300642E+02 -8.618109E+02  2.943144E+04 -4.168402E+02  6.343762E+03
       356  24 -4.197587E+05  2.907938E+02 -1.246600E+03  3.776210E+04 -8.306565E+02  2.970153E+03
       356  25 -5.735509E+05 -3.670647E+04 -3.178522E+04  3.735150E+04 -3.966558E+03  9.704064E+03
       356  26 -5.219257E+05 -2.437565E+04 -2.158025E+04  2.918453E+04 -4.380321E+03  6.329827E+03
       356  27 -4.704680E+05 -1.193777E+04 -1.165400E+04  3.767911E+04 -4.793776E+03  2.956022E+03
       357   1 -4.064123E+05  3.491299E+03  1.001619E+03  3.771481E+04 -2.891905E+03 -1.018053E+03
       357   2 -4.578089E+05 -8.927514E+03 -1.037282E+04  2.920366E+04 -1.569538E+03  2.350253E+03
       357   3 -5.095271E+05 -2.136753E+04 -2.265096E+04  3.735607E+04 -2.470500E+02  5.689544E+03
       357   4 -4.197909E+05  2.999732E+02 -1.572971E+03  3.776245E+04  1.078632E+03 -1.003861E+03
       357   5 -4.196327E+05  2.621023E+02 -2.627374E+03  2.943087E+04  2.366827E+03  2.364248E+03
       357   6 -4.197925E+05  2.091404E+02 -4.561614E+03  3.776279E+04  3.655249E+03  5.703352E+03
       357   7 -4.331694E+05 -2.891354E+03 -4.147510E+03  3.781008E+04  5.049086E+03 -9.896675E+02
       357   8 -3.814550E+05  9.451636E+03  5.118052E+03  2.965810E+04  6.303429E+03  2.378246E+03
       357   9 -3.300502E+05  2.178532E+04  1.352738E+04  3.816956E+04  7.558101E+03  5.717163E+03
       357  10 -4.064123E+05  3.491295E+03  1.001601E+03  3.771481E+04 -9.250618E-09  1.213165E-09
       357  11 -4.578089E+05 -8.927521E+03 -1.037283E+04  2.920366E+04 -4.310031E-09  2.094540E-09
       357  12 -5.095271E+05 -2.136756E+04 -2.265103E+04  3.735607E+04 -1.842047E-09  3.046149E-09
       357  13 -4.197910E+05  2.999718E+02 -1.572975E+03  3.776245E+04  5.378079E-10 -2.004355E-09
       357  14 -4.196327E+05  2.620947E+02 -2.627395E+03  2.943087E+04  9.298710E-10  3.330129E-09
       357  15 -4.197926E+05  2.091019E+02 -4.561700E+03  3.776277E+04 -4.563139E-10  4.489801E-09
       357  16 -4.331694E+05 -2.891362E+03 -4.147559E+03  3.781009E+04  5.229354E-09  3.436821E-09
       357  17 -3.814550E+05  9.451619E+03  5.117967E+03  2.965809E+04  3.839172E-09 -5.490429E-09
       357  18 -3.300503E+05  2.178527E+04  1.352721E+04  3.816953E+04  1.745868E-09 -1.379266E-09
       357  19 -4.064123E+05  3.491299E+03  1.001619E+03  3.771481E+04  2.891905E+03  1.018053E+03
       357  20 -4.578089E+05 -8.927514E+03 -1.037282E+04  2.920366E+04  1.569538E+03 -2.350253E+03
       357  21 -5.095271E+05 -2.136753E+04 -2.265096E+04  3.735607E+04  2.470500E+02 -5.689544E+03
       357  22 -4.197909E+05  2.999732E+02 -1.572971E+03  3.776245E+04 -1.078632E+03  1.003861E+03
       357  23 -4.196327E+05  2.621023E+02 -2.627374E+03  2.943087E+04 -2.366827E+03 -2.364248E+03
       357  24 -4.197925E+05  2.091404E+02 -4.561614E+03  3.776279E+04 -3.655249E+03 -5.703352E+03
       357  25 -4.331694E+05 -2.891354E+03 -4.147510E+03  3.781008E+04 -5.049086E+03  9.896675E+02
       357  26 -3.814550E+05  9.451636E+03  5.118052E+03  2.965810E+04 -6.303429E+03 -2.378246E+03
       357  27 -3.300502E+05  2.178532E+04  1.352738E+04  3.816956E+04 -7.558101E+03 -5.717163E+03
       358   1 -5.471177E+05 -3.017541E+04 -3.187967E+04  3.675296E+04  5.478626E+02  7.677526E+03
       358   2 -5.978439E+05 -4.287651E+04 -4.674811E+04  2.915217E+04  6.349760E+03  1.085951E+04
       358   3 -6.501581E+05 -5.836938E+04 -6.612866E+04  3.817903E+04  1.215344E+04  1.350763E+04
       358   4 -4.200528E+05  4.402897E+02 -5.970959E+03  3.775193E+04  4.577658E+03  7.691663E+03
       358   5 -4.193157E+05  1.224811E+02 -1.038703E+04  2.944400E+04  9.753409E+03  1.087113E+04
       358   6 -4.200603E+05 -2.877747E+03 -1.887919E+04  3.776351E+04  1.493142E+04  1.351679E+04
       358   7 -2.929724E+05  3.105499E+04  1.993696E+04  3.875109E+04  8.608263E+03  7.705811E+03
       358   8 -2.407571E+05  4.311948E+04  2.597243E+04  2.973590E+04  1.315802E+04  1.088275E+04
       358   9 -1.899122E+05  5.261055E+04  2.836749E+04  3.734780E+04  1.771041E+04  1.352595E+04
       358  10 -5.471178E+05 -3.017547E+04 -3.187978E+04  3.675296E+04 -9.863530E-09  8.403526E-09
       358  11 -5.978440E+05 -4.287664E+04 -4.674841E+04  2.915211E+04 -1.925562E-09  2.905237E-09
       358  12 -6.501583E+05 -5.836961E+04 -6.612928E+04  3.817889E+04  4.815055E-09  6.524435E-09
       358  13 -4.200528E+05  4.402206E+02 -5.971109E+03  3.775190E+04 -2.169223E-11  3.856473E-09
       358  14 -4.193158E+05  1.223287E+02 -1.038743E+04  2.944392E+04  3.716594E-10  6.326392E-09
       358  15 -4.200606E+05 -2.878003E+03 -1.887995E+04  3.776335E+04 -2.932943E-10  2.515583E-09
       358  16 -2.929725E+05  3.105491E+04  1.993671E+04  3.875103E+04  5.762058E-09  1.706712E-09
       358  17 -2.407573E+05  4.311931E+04  2.597188E+04  2.973578E+04  5.941653E-10  4.548457E-10
       358  18 -1.899126E+05  5.261027E+04  2.836655E+04  3.734760E+04 -5.352623E-09 -8.574388E-09
       358  19 -5.471177E+05 -3.017541E+04 -3.187967E+04  3.675296E+04 -5.478626E+02 -7.677526E+03
       358  20 -5.978439E+05 -4.287651E+04 -4.674811E+04  2.915217E+04 -6.349760E+03 -1.085951E+04
       358  21 -6.501581E+05 -5.836938E+04 -6.612866E+04  3.817903E+04 -1.215344E+04 -1.350763E+04
       358  22 -4.200528E+05  4.402897E+02 -5.970959E+03  3.775193E+04 -4.577658E+03 -7.691663E+03
       358  23 -4.193157E+05  1.224811E+02 -1.038703E+04  2.944400E+04 -9.753409E+03 -1.087113E+04
       358  24 -4.200603E+05 -2.877747E+03 -1.887919E+04  3.776351E+04 -1.493142E+04 -1.351679E+04
       358  25 -2.929724E+05  3.105499E+04  1.993696E+04  3.875109E+04 -8.608263E+03 -7.705811E+03
       358  26 -2.407571E+05  4.311948E+04  2.597243E+04  2.973590E+04 -1.315802E+04 -1.088275E+04
       358  27 -1.899122E+05  5.261055E+04  2.836749E+04  3.734780E+04 -1.771041E+04 -1.352595E+04
       359   1 -6.914929E+05 -6.206712E+04 -7.900376E+04  2.737610E+04  1.304594E+04  1.586790E+04
       359   2 -7.328317E+05 -8.346781E+04 -1.103247E+05  4.523896E+04  4.686963E+04  1.543603E+04
       359   3 -7.948543E+05 -1.695114E+05 -1.798647E+05  7.930888E+04  8.072182E+04  5.145050E+03
       359   4 -4.238800E+05  2.539612E+03 -2.415495E+04  3.760872E+04  1.820189E+04  1.588514E+04
       359   5 -4.145615E+05 -6.320192E+03 -4.242833E+04  2.963697E+04  4.044895E+04  1.541289E+04
       359   6 -4.239070E+05 -7.779536E+04 -9.086537E+04  3.787416E+04  6.272773E+04  5.080997E+03
       359   7 -1.561987E+05  6.714223E+04  3.069019E+04  4.784579E+04  2.336001E+04  1.590254E+04
       359   8 -9.619518E+04  7.082180E+04  2.546250E+04  1.402677E+04  3.402501E+04  1.539008E+04
       359   9 -5.282903E+04  1.391743E+04 -1.873655E+03 -3.585536E+03  4.472291E+04  5.019369E+03
       359  10 -6.914931E+05 -6.206744E+04 -7.900455E+04  2.737593E+04 -7.089621E-09  5.627744E-09
       359  11 -7.328341E+05 -8.346865E+04 -1.103293E+05  4.523837E+04 -4.757076E-10 -5.235262E-09
       359  12 -7.948613E+05 -1.695132E+05 -1.798770E+05  7.930855E+04  2.828565E-09 -7.591088E-10
       359  13 -4.238804E+05  2.539253E+03 -2.415605E+04  3.760849E+04  2.365791E-10  7.546838E-09
       359  14 -4.145633E+05 -6.320887E+03 -4.243186E+04  2.963646E+04  1.983969E-09 -8.937802E-09
       359  15 -4.239112E+05 -7.779645E+04 -9.087282E+04  3.787390E+04 -5.909682E-10  4.065086E-09
       359  16 -1.561994E+05  6.714181E+04  3.068869E+04  4.784549E+04  3.955238E-09  1.329822E-09
       359  17 -9.619648E+04  7.082123E+04  2.545988E+04  1.402635E+04  5.150034E-10  5.859462E-09
       359  18 -5.283118E+04  1.391686E+04 -1.877461E+03 -3.585717E+03 -2.149512E-09 -1.432949E-09
       359  19 -6.914929E+05 -6.206712E+04 -7.900376E+04  2.737610E+04 -1.304594E+04 -1.586790E+04
       359  20 -7.328317E+05 -8.346781E+04 -1.103247E+05  4.523896E+04 -4.686963E+04 -1.543603E+04
       359  21 -7.948543E+05 -1.695114E+05 -1.798647E+05  7.930888E+04 -8.072182E+04 -5.145050E+03
       359  22 -4.238800E+05  2.539612E+03 -2.415495E+04  3.760872E+04 -1.820189E+04 -1.588514E+04
       359  23 -4.145615E+05 -6.320192E+03 -4.242833E+04  2.963697E+04 -4.044895E+04 -1.541289E+04
       359  24 -4.239070E+05 -7.779536E+04 -9.086537E+04  3.787416E+04 -6.272773E+04 -5.080997E+03
       359  25 -1.561987E+05  6.714223E+04  3.069019E+04  4.784579E+04 -2.336001E+04 -1.590254E+04
       359  26 -9.619518E+04  7.082180E+04  2.546250E+04  1.402677E+04 -3.402501E+04 -1.539008E+04
       359  27 -5.282903E+04  1.391743E+04 -1.873655E+03 -3.585536E+03 -4.472291E+04 -5.019369E+03
       360   1  2.699693E+05  1.397110E+06  2.782468E+05 -2.348648E+05  7.686780E+03  9.119342E+04
       360   2  1.298492E+05  1.139139E+06  1.574577E+05 -1.679816E+05  2.142750E+04  4.102126E+04
       360   3  6.106924E+04  9.051535E+05  8.704310E+04 -1.792358E+05  1.404729E+04 -9.181046E+03
       360   4  8.346258E+04  6.464969E+05  9.683171E+04 -1.882499E+05  7.767789E+03  6.268764E+04
       360   5  7.551332E+03  6.367246E+05  4.845264E+04 -1.492941E+05  2.143962E+04  3.742009E+04
       360   6 -1.299531E+03  6.465980E+05  3.320965E+04 -1.884684E+05  1.398727E+04  1.210225E+04
       360   7 -1.030770E+05 -1.035964E+05 -8.461967E+04 -1.416909E+05  7.844581E+03  3.421611E+04
       360   8 -1.147620E+05  1.345475E+05 -6.056722E+04 -1.306216E+05  2.145154E+04  3.382179E+04
       360   9 -6.367198E+04  3.881068E+05 -2.062573E+04 -1.976970E+05  1.392661E+04  3.337683E+04
       360  10  2.699670E+05  1.397101E+06  2.782311E+05 -2.348654E+05 -1.040441E-10 -3.529738E-10
       360  11  1.298483E+05  1.139137E+06  1.574536E+05 -1.679823E+05  1.895507E-10 -3.237358E-09
       360  12  6.106901E+04  9.051534E+05  8.704257E+04 -1.792357E+05  1.870356E-10 -7.212180E-10
       360  13  8.346146E+04  6.464926E+05  9.682422E+04 -1.882502E+05  1.294102E-09 -2.277476E-09
       360  14  7.550462E+03  6.367230E+05  4.844914E+04 -1.492947E+05 -4.314933E-10 -4.049887E-10
       360  15 -1.299780E+03  6.465978E+05  3.320900E+04 -1.884685E+05 -1.370776E-09 -2.062165E-10
       360  16 -1.030773E+05 -1.035977E+05 -8.462199E+04 -1.416911E+05 -6.665708E-10  1.814139E-09
       360  17 -1.147628E+05  1.345462E+05 -6.057023E+04 -1.306222E+05 -4.670389E-11 -4.324086E-09
       360  18 -6.367249E+04  3.881056E+05 -2.062818E+04 -1.976974E+05 -1.785961E-09 -7.468987E-10
       360  19  2.699693E+05  1.397110E+06  2.782468E+05 -2.348648E+05 -7.686780E+03 -9.119342E+04
       360  20  1.298492E+05  1.139139E+06  1.574577E+05 -1.679816E+05 -2.142750E+04 -4.102126E+04
       360  21  6.106924E+04  9.051535E+05  8.704310E+04 -1.792358E+05 -1.404729E+04  9.181046E+03
       360  22  8.346258E+04  6.464969E+05  9.683171E+04 -1.882499E+05 -7.767789E+03 -6.268764E+04
       360  23  7.551332E+03  6.367246E+05  4.845264E+04 -1.492941E+05 -2.143962E+04 -3.742009E+04
       360  24 -1.299531E+03  6.465980E+05  3.320965E+04 -1.884684E+05 -1.398727E+04 -1.210225E+04
       360  25 -1.030770E+05 -1.035964E+05 -8.461967E+04 -1.416909E+05 -7.844581E+03 -3.421611E+04
       360  26 -1.147620E+05  1.345475E+05 -6.056722E+04 -1.306216E+05 -2.145154E+04 -3.382179E+04
       360  27 -6.367198E+04  3.881068E+05 -2.062573E+04 -1.976970E+05 -1.392661E+04 -3.337683E+04
       361   1  2.341965E+04  7.229113E+05  4.745475E+04 -1.911360E+05  3.783560E+03 -9.536387E+03
       361   2 -3.886432E+04  4.753914E+05 -4.040073E+03 -1.485880E+05 -1.000616E+04 -2.386620E+04
       361   3 -9.273613E+04  2.314118E+05 -4.423393E+04 -1.852574E+05 -2.334383E+04 -3.818712E+04
       361   4  4.024440E+03  6.430355E+05  3.037409E+04 -1.886637E+05  3.736023E+03  7.005946E+03
       361   5  1.030368E+03  6.412349E+05  2.968183E+04 -1.490526E+05 -1.005074E+04 -7.860623E+03
       361   6  6.543372E+03  6.430080E+05  4.066235E+04 -1.886564E+05 -2.338557E+04 -2.272374E+04
       361   7 -1.537102E+04  5.631662E+05  1.329409E+04 -1.861917E+05  3.688613E+03  2.354618E+04
       361   8  4.092348E+04  8.071051E+05  6.340326E+04 -1.495172E+05 -1.009534E+04  8.149144E+03
       361   9  1.058123E+05  1.054765E+06  1.255504E+05 -1.920575E+05 -2.342747E+04 -7.250291E+03
       361  10  2.341961E+04  7.229112E+05  4.745455E+04 -1.911360E+05 -3.828123E-10  9.920058E-10
       361  11 -3.886458E+04  4.753907E+05 -4.041332E+03 -1.485882E+05  2.009688E-09 -4.093898E-09
       361  12 -9.273710E+04  2.314101E+05 -4.423769E+04 -1.852581E+05 -1.178287E-09 -2.376170E-09
       361  13  4.024412E+03  6.430354E+05  3.037397E+04 -1.886637E+05 -8.092120E-10 -2.488419E-09
       361  14  1.030243E+03  6.412348E+05  2.968152E+04 -1.490527E+05  2.523018E-09 -3.453765E-11
       361  15  6.542646E+03  6.430073E+05  4.066035E+04 -1.886568E+05  1.827826E-09 -2.955583E-10
       361  16 -1.537118E+04  5.631656E+05  1.329303E+04 -1.861918E+05 -1.166924E-09  5.539306E-10
       361  17  4.092336E+04  8.071050E+05  6.340294E+04 -1.495172E+05 -1.002093E-09 -4.415635E-09
       361  18  1.058117E+05  1.054765E+06  1.255493E+05 -1.920577E+05 -6.443520E-10  1.173507E-09
       361  19  2.341965E+04  7.229113E+05  4.745475E+04 -1.911360E+05 -3.783560E+03  9.536387E+03
       361  20 -3.886432E+04  4.753914E+05 -4.040073E+03 -1.485880E+05  1.000616E+04  2.386620E+04
       361  21 -9.273613E+04  2.314118E+05 -4.423393E+04 -1.852574E+05  2.334383E+04  3.818712E+04
       361  22  4.024440E+03  6.430355E+05  3.037409E+04 -1.886637E+05 -3.736023E+03 -7.005946E+03
       361  23  1.030368E+03  6.412349E+05  2.968183E+04 -1.490526E+05  1.005074E+04  7.860623E+03
       361  24  6.543372E+03  6.430080E+05  4.066235E+04 -1.886564E+05  2.338557E+04  2.272374E+04
       361  25 -1.537102E+04  5.631662E+05  1.329409E+04 -1.861917E+05 -3.688613E+03 -2.354618E+04
       361  26  4.092348E+04  8.071051E+05  6.340326E+04 -1.495172E+05  1.009534E+04 -8.149144E+03
       361  27  1.058123E+05  1.054765E+06  1.255504E+05 -1.920575E+05  2.342747E+04  7.250291E+03
       362   1 -1.454932E+05  5.926363E+04 -7.264026E+04 -2.046412E+05 -3.389519E+04 -5.203817E+04
       362   2 -1.901123E+05 -2.008953E+05 -9.886734E+04 -1.174488E+05 -3.811755E+04 -5.923137E+04
       362   3 -1.244579E+05 -4.327287E+05 -9.289365E+04 -1.079655E+05 -1.278352E+04 -6.635881E+04
       362   4 -3.240087E+03  6.497925E+05  4.884926E+04 -1.883942E+05 -3.395469E+04 -2.970489E+04
       362   5  1.254254E+04  6.325861E+05  8.019594E+04 -1.493759E+05 -3.808011E+04 -7.169333E+04
       362   6  1.445463E+05  6.496220E+05  1.678529E+05 -1.880436E+05 -1.266594E+04 -1.136203E+05
       362   7  1.389923E+05  1.240654E+06  1.703221E+05 -1.721313E+05 -3.401299E+04 -7.350730E+03
       362   8  2.151556E+05  1.466723E+06  2.592197E+05 -1.813461E+05 -3.804142E+04 -8.417174E+04
       362   9  4.134899E+05  1.733063E+06  4.285275E+05 -2.682612E+05 -1.253628E+04 -1.609638E+05
       362  10 -1.454951E+05  5.926041E+04 -7.264751E+04 -2.046426E+05 -7.736499E-10 -1.487479E-10
       362  11 -1.901148E+05 -2.008994E+05 -9.887667E+04 -1.174506E+05  7.564252E-10 -3.009448E-09
       362  12 -1.244592E+05 -4.327334E+05 -9.290224E+04 -1.079662E+05 -5.090330E-11 -4.259063E-10
       362  13 -3.241562E+03  6.497912E+05  4.884544E+04 -1.883950E+05 -2.385339E-09 -2.735474E-09
       362  14  1.253960E+04  6.325802E+05  8.018356E+04 -1.493781E+05  1.866518E-09 -2.401461E-10
       362  15  1.445427E+05  6.496082E+05  1.678284E+05 -1.880448E+05 -3.989322E-10 -5.395155E-11
       362  16  1.389911E+05  1.240653E+06  1.703199E+05 -1.721315E+05  3.752435E-10  8.583615E-10
       362  17  2.151522E+05  1.466715E+06  2.592037E+05 -1.813487E+05  4.729142E-10 -4.666505E-09
       362  18  4.134828E+05  1.733035E+06  4.284787E+05 -2.682628E+05 -4.985046E-10 -3.741758E-10
       362  19 -1.454932E+05  5.926363E+04 -7.264026E+04 -2.046412E+05  3.389519E+04  5.203817E+04
       362  20 -1.901123E+05 -2.008953E+05 -9.886734E+04 -1.174488E+05  3.811755E+04  5.923137E+04
       362  21 -1.244579E+05 -4.327287E+05 -9.289365E+04 -1.079655E+05  1.278352E+04  6.635881E+04
       362  22 -3.240087E+03  6.497925E+05  4.884926E+04 -1.883942E+05  3.395469E+04  2.970489E+04
       362  23  1.254254E+04  6.325861E+05  8.019594E+04 -1.493759E+05  3.808011E+04  7.169333E+04
       362  24  1.445463E+05  6.496220E+05  1.678529E+05 -1.880436E+05  1.266594E+04  1.136203E+05
       362  25  1.389923E+05  1.240654E+06  1.703221E+05 -1.721313E+05  3.401299E+04  7.350730E+03
       362  26  2.151556E+05  1.466723E+06  2.592197E+05 -1.813461E+05  3.804142E+04  8.417174E+04
       362  27  4.134899E+05  1.733063E+06  4.285275E+05 -2.682612E+05  1.253628E+04  1.609638E+05
       363   1  6.678058E+05  2.418564E+05  1.398633E+05  2.230128E+05  2.504035E+04 -6.084663E+02
       363   2  6.293121E+05  2.305692E+05  1.197595E+05  2.065404E+05  1.750027E+04 -2.582996E+04
       363   3  5.808848E+05  2.234055E+05  1.091430E+05  2.034589E+05  3.710653E+03 -3.449487E+04
       363   4  7.953473E+04  2.582142E+04 -1.401160E+04  6.741281E+04 -5.657580E+03 -1.220271E+04
       363   5  8.709678E+04  3.101179E+04 -6.230647E+03  5.866367E+04  5.051059E+03 -3.053619E+04
       363   6  8.110617E+04  3.670847E+04 -3.420818E+03  6.330667E+04  9.505993E+03 -3.230651E+04
       363   7 -5.083864E+05 -1.901906E+05 -1.679079E+05 -8.805211E+04 -3.632284E+04 -2.378532E+04
       363   8 -4.548183E+05 -1.685226E+05 -1.322384E+05 -8.909406E+04 -7.386182E+03 -3.523802E+04
       363   9 -4.184203E+05 -1.499677E+05 -1.160004E+05 -7.674171E+04  1.529627E+04 -3.012009E+04
       363  10  6.678052E+05  2.418562E+05  1.398622E+05  2.230128E+05 -1.630530E-08 -6.019421E-09
       363  11  6.293116E+05  2.305684E+05  1.197577E+05  2.065408E+05 -8.112931E-11 -4.894446E-09
       363  12  5.808845E+05  2.234043E+05  1.091408E+05  2.034590E+05  2.027087E-08  2.483542E-09
       363  13  7.953466E+04  2.582125E+04 -1.401194E+04  6.741276E+04  1.476066E-09  3.944066E-09
       363  14  8.709650E+04  3.101078E+04 -6.232447E+03  5.866379E+04 -1.423401E-09 -6.607936E-09
       363  15  8.110579E+04  3.670732E+04 -3.422949E+03  6.330691E+04 -4.361684E-10 -7.444400E-10
       363  16 -5.083880E+05 -1.901915E+05 -1.679114E+05 -8.805281E+04  1.542685E-08  3.948644E-09
       363  17 -4.548187E+05 -1.685239E+05 -1.322408E+05 -8.909427E+04 -2.929096E-09 -1.045070E-08
       363  18 -4.184208E+05 -1.499687E+05 -1.160025E+05 -7.674134E+04 -1.968139E-08 -9.581262E-09
       363  19  6.678058E+05  2.418564E+05  1.398633E+05  2.230128E+05 -2.504035E+04  6.084663E+02
       363  20  6.293121E+05  2.305692E+05  1.197595E+05  2.065404E+05 -1.750027E+04  2.582996E+04
       363  21  5.808848E+05  2.234055E+05  1.091430E+05  2.034589E+05 -3.710653E+03  3.449487E+04
       363  22  7.953473E+04  2.582142E+04 -1.401160E+04  6.741281E+04  5.657580E+03  1.220271E+04
       363  23  8.709678E+04  3.101179E+04 -6.230647E+03  5.866367E+04 -5.051059E+03  3.053619E+04
       363  24  8.110617E+04  3.670847E+04 -3.420818E+03  6.330667E+04 -9.505993E+03  3.230651E+04
       363  25 -5.083864E+05 -1.901906E+05 -1.679079E+05 -8.805211E+04  3.632284E+04  2.378532E+04
       363  26 -4.548183E+05 -1.685226E+05 -1.322384E+05 -8.909406E+04  7.386182E+03  3.523802E+04
       363  27 -4.184203E+05 -1.499677E+05 -1.160004E+05 -7.674171E+04 -1.529627E+04  3.012009E+04
       364   1  5.511974E+05  2.102327E+05  1.034135E+05  1.941894E+05  7.533350E+03 -3.011321E+04
       364   2  5.151935E+05  1.902583E+05  9.469775E+04  1.769470E+05  6.700608E+03 -2.849568E+04
       364   3  4.688280E+05  1.803715E+05  8.606724E+04  1.715096E+05  5.557526E+03 -2.606123E+04
       364   4  8.139777E+04  3.610033E+04 -2.665891E+03  6.397673E+04  8.947989E+03 -2.958044E+04
       364   5  8.670990E+04  3.139901E+04 -1.399221E+03  5.798065E+04  9.015310E+03 -2.762193E+04
       364   6  8.148076E+04  3.660725E+04 -7.608129E+02  6.378958E+04  8.772181E+03 -2.484620E+04
       364   7 -3.881832E+05 -1.380161E+05 -1.087603E+05 -6.614674E+04  1.036148E+04 -2.904810E+04
       364   8 -3.415903E+05 -1.274464E+05 -9.750826E+04 -6.091093E+04  1.132829E+04 -2.674883E+04
       364   9 -3.057155E+05 -1.071451E+05 -8.759838E+04 -4.386888E+04  1.198466E+04 -2.363199E+04
       364  10  5.511970E+05  2.102317E+05  1.034116E+05  1.941896E+05  1.284115E-09 -5.034823E-11
       364  11  5.151932E+05  1.902574E+05  9.469614E+04  1.769471E+05  7.260532E-10  3.529113E-09
       364  12  4.688278E+05  1.803708E+05  8.606590E+04  1.715097E+05 -3.007928E-10  1.221431E-09
       364  13  8.139745E+04  3.609937E+04 -2.667686E+03  6.397694E+04  1.721268E-10  1.985437E-09
       364  14  8.670961E+04  3.139817E+04 -1.400808E+03  5.798085E+04 -3.054399E-10  1.608770E-08
       364  15  8.148051E+04  3.660656E+04 -7.621176E+02  6.378976E+04 -1.991594E-09 -5.227363E-10
       364  16 -3.881835E+05 -1.380170E+05 -1.087621E+05 -6.614649E+04 -3.735010E-09 -4.539818E-10
       364  17 -3.415906E+05 -1.274472E+05 -9.750985E+04 -6.091069E+04 -2.345768E-09  1.040757E-09
       364  18 -3.057158E+05 -1.071458E+05 -8.759970E+04 -4.386865E+04 -5.886709E-10 -1.359105E-09
       364  19  5.511974E+05  2.102327E+05  1.034135E+05  1.941894E+05 -7.533350E+03  3.011321E+04
       364  20  5.151935E+05  1.902583E+05  9.469775E+04  1.769470E+05 -6.700608E+03  2.849568E+04
       364  21  4.688280E+05  1.803715E+05  8.606724E+04  1.715096E+05 -5.557526E+03  2.606123E+04
       364  22  8.139777E+04  3.610033E+04 -2.665891E+03  6.397673E+04 -8.947989E+03  2.958044E+04
       364  23  8.670990E+04  3.139901E+04 -1.399221E+03  5.798065E+04 -9.015310E+03  2.762193E+04
       364  24  8.148076E+04  3.660725E+04 -7.608129E+02  6.378958E+04 -8.772181E+03  2.484620E+04
       364  25 -3.881832E+05 -1.380161E+05 -1.087603E+05 -6.614674E+04 -1.036148E+04  2.904810E+04
       364  26 -3.415903E+05 -1.274464E+05 -9.750826E+04 -6.091093E+04 -1.132829E+04  2.674883E+04
       364  27 -3.057155E+05 -1.071451E+05 -8.759838E+04 -4.386888E+04 -1.198466E+04  2.363199E+04
       365   1  4.383326E+05  1.689312E+05  7.918866E+04  1.630129E+05  5.249335E+03 -2.426533E+04
       365   2  4.024755E+05  1.485926E+05  7.037186E+04  1.457488E+05  4.319202E+03 -2.148597E+04
       365   3  3.562677E+05  1.386046E+05  6.147995E+04  1.402113E+05  3.373100E+03 -1.866748E+04
       365   4  8.150798E+04  3.658294E+04 -5.707665E+02  6.381972E+04  8.246109E+03 -2.313232E+04
       365   5  8.669644E+04  3.143188E+04 -2.990106E+02  5.795096E+04  7.359128E+03 -2.033602E+04
       365   6  8.152321E+04  3.662324E+04 -1.367713E+02  6.380864E+04  6.456176E+03 -1.750057E+04
       365   7 -2.751861E+05 -9.575432E+04 -8.033758E+04 -3.532060E+04  1.124100E+04 -2.200002E+04
       365   8 -2.289821E+05 -8.572092E+04 -7.097615E+04 -2.980602E+04  1.039738E+04 -1.918671E+04
       365   9 -1.931470E+05 -6.535283E+04 -6.175874E+04 -1.256352E+04  9.537792E+03 -1.633421E+04
       365  10  4.383324E+05  1.689305E+05  7.918751E+04  1.630130E+05  1.389043E-09  5.665912E-09
       365  11  4.024753E+05  1.485921E+05  7.037095E+04  1.457489E+05  9.818807E-10  3.779346E-09
       365  12  3.562676E+05  1.386043E+05  6.147928E+04  1.402113E+05 -1.176620E-09  2.551856E-09
       365  13  8.150777E+04  3.658235E+04 -5.718999E+02  6.381987E+04 -2.161612E-09 -6.534467E-09
       365  14  8.669627E+04  3.143142E+04 -2.998896E+02  5.795108E+04  5.969604E-11  1.218555E-08
       365  15  8.152309E+04  3.662290E+04 -1.374252E+02  6.380873E+04 -1.676067E-09  1.990592E-09
       365  16 -2.751863E+05 -9.575487E+04 -8.033873E+04 -3.532040E+04 -1.780502E-09 -1.453245E-09
       365  17 -2.289824E+05 -8.572134E+04 -7.097705E+04 -2.980586E+04 -1.191412E-09 -1.223156E-08
       365  18 -1.931472E+05 -6.535314E+04 -6.175941E+04 -1.256340E+04 -2.071682E-09 -6.640623E-09
       365  19  4.383326E+05  1.689312E+05  7.918866E+04  1.630129E+05 -5.249335E+03  2.426533E+04
       365  20  4.024755E+05  1.485926E+05  7.037186E+04  1.457488E+05 -4.319202E+03  2.148597E+04
       365  21  3.562677E+05  1.386046E+05  6.147995E+04  1.402113E+05 -3.373100E+03  1.866748E+04
       365  22  8.150798E+04  3.658294E+04 -5.707665E+02  6.381972E+04 -8.246109E+03  2.313232E+04
       365  23  8.669644E+04  3.143188E+04 -2.990106E+02  5.795096E+04 -7.359128E+03  2.033602E+04
       365  24  8.152321E+04  3.662324E+04 -1.367713E+02  6.380864E+04 -6.456176E+03  1.750057E+04
       365  25 -2.751861E+05 -9.575432E+04 -8.033758E+04 -3.532060E+04 -1.124100E+04  2.200002E+04
       365  26 -2.289821E+05 -8.572092E+04 -7.097615E+04 -2.980602E+04 -1.039738E+04  1.918671E+04
       365  27 -1.931470E+05 -6.535283E+04 -6.175874E+04 -1.256352E+04 -9.537792E+03  1.633421E+04
       366   1  3.257676E+05  1.272453E+05  5.444364E+04  1.317497E+05  2.786760E+03 -1.702911E+04
       366   2  2.899565E+05  1.068962E+05  4.550429E+04  1.144933E+05  1.721710E+03 -1.424401E+04
       366   3  2.438015E+05  9.690372E+04  3.657388E+04  1.089480E+05  6.555243E+02 -1.145780E+04
       366   4  8.152919E+04  3.662334E+04 -8.210228E+01  6.380752E+04  5.858159E+03 -1.586630E+04
       366   5  8.670591E+04  3.145215E+04  1.603137E+01  5.795085E+04  4.794347E+03 -1.308034E+04
       366   6  8.153641E+04  3.663719E+04  1.219670E+02  6.380460E+04  3.729399E+03 -1.029327E+04
       366   7 -1.626490E+05 -5.399382E+04 -5.461155E+04 -4.110195E+03  8.928248E+03 -1.470400E+04
       366   8 -1.165023E+05 -4.398833E+04 -4.547461E+04  1.425507E+03  7.865884E+03 -1.191710E+04
       366   9 -8.070111E+04 -2.362684E+04 -3.633129E+04  1.867232E+04  6.802382E+03 -9.129082E+03
       366  10  3.257675E+05  1.272450E+05  5.444308E+04  1.317498E+05 -2.237247E-09 -4.069550E-09
       366  11  2.899564E+05  1.068960E+05  4.550390E+04  1.144934E+05 -3.198817E-09 -1.034387E-09
       366  12  2.438015E+05  9.690357E+04  3.657363E+04  1.089480E+05 -9.215623E-11 -2.670545E-09
       366  13  8.152909E+04  3.662306E+04 -8.263987E+01  6.380760E+04 -2.432010E-09 -1.218289E-09
       366  14  8.670584E+04  3.145196E+04  1.566664E+01  5.795090E+04 -5.046639E-11  6.179873E-09
       366  15  8.153636E+04  3.663707E+04  1.217417E+02  6.380463E+04 -1.722875E-10  4.055062E-09
       366  16 -1.626491E+05 -5.399407E+04 -5.461210E+04 -4.110089E+03  1.392663E-10  2.378146E-09
       366  17 -1.165024E+05 -4.398850E+04 -4.547500E+04  1.425582E+03  1.586785E-09 -4.682207E-10
       366  18 -8.070118E+04 -2.362694E+04 -3.633153E+04  1.867237E+04 -1.079517E-09  4.877910E-09
       366  19  3.257676E+05  1.272453E+05  5.444364E+04  1.317497E+05 -2.786760E+03  1.702911E+04
       366  20  2.899565E+05  1.068962E+05  4.550429E+04  1.144933E+05 -1.721710E+03  1.424401E+04
       366  21  2.438015E+05  9.690372E+04  3.657388E+04  1.089480E+05 -6.555243E+02  1.145780E+04
       366  22  8.152919E+04  3.662334E+04 -8.210228E+01  6.380752E+04 -5.858159E+03  1.586630E+04
       366  23  8.670591E+04  3.145215E+04  1.603137E+01  5.795085E+04 -4.794347E+03  1.308034E+04
       366  24  8.153641E+04  3.663719E+04  1.219670E+02  6.380460E+04 -3.729399E+03  1.029327E+04
       366  25 -1.626490E+05 -5.399382E+04 -5.461155E+04 -4.110195E+03 -8.928248E+03  1.470400E+04
       366  26 -1.165023E+05 -4.398833E+04 -4.547461E+04  1.425507E+03 -7.865884E+03  1.191710E+04
       366  27 -8.070111E+04 -2.362684E+04 -3.633129E+04  1.867232E+04 -6.802382E+03  9.129082E+03
       367   1  2.133268E+05  8.554903E+04  2.954843E+04  1.004909E+05  1.539740E+01 -9.843274E+03
       367   2  1.775288E+05  6.519792E+04  2.070474E+04  8.324341E+04 -1.225631E+03 -7.123782E+03
       367   3  1.314055E+05  5.520986E+04  1.199952E+04  7.770502E+04 -2.466463E+03 -4.405626E+03
       367   4  8.154339E+04  3.663882E+04  1.854603E+02  6.380534E+04  3.088375E+03 -8.678914E+03
       367   5  8.670765E+04  3.145816E+04  3.733224E+02  5.795100E+04  1.845876E+03 -5.959796E+03
       367   6  8.154582E+04  3.664111E+04  7.010645E+02  6.380540E+04  6.035618E+02 -3.242018E+03
       367   7 -5.022330E+04 -1.227032E+04 -2.917880E+04  2.712670E+04  6.160666E+03 -7.514813E+03
       367   8 -4.105500E+03 -2.281054E+03 -1.995866E+04  3.266189E+04  4.916907E+03 -4.795991E+03
       367   9  3.168869E+04  1.807255E+04 -1.059751E+04  4.990681E+04  3.673320E+03 -2.078512E+03
       367  10  2.133267E+05  8.554893E+04  2.954825E+04  1.004909E+05 -1.558216E-09 -1.749404E-09
       367  11  1.775288E+05  6.519787E+04  2.070464E+04  8.324340E+04 -1.975593E-09 -3.244176E-10
       367  12  1.314054E+05  5.520984E+04  1.199947E+04  7.770501E+04  2.661393E-09 -6.030936E-10
       367  13  8.154336E+04  3.663873E+04  1.853008E+02  6.380536E+04 -3.180916E-10  1.000383E-09
       367  14  8.670763E+04  3.145812E+04  3.732492E+02  5.795100E+04 -4.088443E-09  1.034798E-09
       367  15  8.154582E+04  3.664109E+04  7.010441E+02  6.380540E+04 -1.702802E-09  2.191772E-09
       367  16 -5.022335E+04 -1.227039E+04 -2.917898E+04  2.712674E+04  2.588286E-09  5.625062E-09
       367  17 -4.105532E+03 -2.281086E+03 -1.995875E+04  3.266191E+04  4.264456E-11  4.927422E-09
       367  18  3.168867E+04  1.807254E+04 -1.059755E+04  4.990681E+04 -2.490841E-09  4.801751E-09
       367  19  2.133268E+05  8.554903E+04  2.954843E+04  1.004909E+05 -1.539740E+01  9.843274E+03
       367  20  1.775288E+05  6.519792E+04  2.070474E+04  8.324341E+04  1.225631E+03  7.123782E+03
       367  21  1.314055E+05  5.520986E+04  1.199952E+04  7.770502E+04  2.466463E+03  4.405626E+03
       367  22  8.154339E+04  3.663882E+04  1.854603E+02  6.380534E+04 -3.088375E+03  8.678914E+03
       367  23  8.670765E+04  3.145816E+04  3.733224E+02  5.795100E+04 -1.845876E+03  5.959796E+03
       367  24  8.154582E+04  3.664111E+04  7.010645E+02  6.380540E+04 -6.035618E+02  3.242018E+03
       367  25 -5.022330E+04 -1.227032E+04 -2.917880E+04  2.712670E+04 -6.160666E+03  7.514813E+03
       367  26 -4.105500E+03 -2.281054E+03 -1.995866E+04  3.266189E+04 -4.916907E+03  4.795991E+03
       367  27  3.168869E+04  1.807255E+04 -1.059751E+04  4.990681E+04 -3.673320E+03  2.078512E+03
       368   1  1.009506E+05  4.386573E+04  5.152899E+03  6.927626E+04 -3.223381E+03 -2.834654E+03
       368   2  6.510036E+04  2.349855E+04 -3.110381E+03  5.201965E+04 -5.109183E+03 -3.675534E+02
       368   3  1.904884E+04  1.360659E+04 -1.072602E+04  4.647292E+04 -6.987052E+03  2.079114E+03
       368   4  8.157044E+04  3.663720E+04  9.402680E+02  6.381695E+04 -1.481637E+02 -1.669040E+03
       368   5  8.667503E+04  3.143696E+04  1.713324E+03  5.794726E+04 -2.056647E+03  7.894136E+02
       368   6  8.158109E+04  3.671619E+04  3.151961E+03  6.378668E+04 -3.957268E+03  3.227425E+03
       368   7  6.219076E+04  2.940877E+04 -3.272310E+03  5.835785E+04  2.926930E+03 -5.034735E+02
       368   8  1.082502E+05  3.937542E+04  6.537040E+03  6.387506E+04  9.960034E+02  1.946423E+03
       368   9  1.441177E+05  5.982626E+04  1.702984E+04  8.110215E+04 -9.271335E+02  4.375867E+03
       368  10  1.009506E+05  4.386571E+04  5.152864E+03  6.927625E+04 -2.429484E-09 -1.727595E-09
       368  11  6.510033E+04  2.349854E+04 -3.110431E+03  5.201965E+04 -2.230781E-09  1.682786E-09
       368  12  1.904878E+04  1.360657E+04 -1.072612E+04  4.647294E+04 -1.422443E-09  7.212505E-10
       368  13  8.157044E+04  3.663720E+04  9.402627E+02  6.381695E+04 -4.066884E-09  5.174474E-10
       368  14  8.667502E+04  3.143696E+04  1.713315E+03  5.794726E+04  4.513859E-10  1.262031E-09
       368  15  8.158107E+04  3.671618E+04  3.151912E+03  6.378669E+04 -1.329392E-09  2.534439E-10
       368  16  6.219075E+04  2.940877E+04 -3.272327E+03  5.835785E+04 -8.691693E-10  6.818446E-09
       368  17  1.082502E+05  3.937542E+04  6.537031E+03  6.387506E+04  1.149087E-09  9.755310E-09
       368  18  1.441177E+05  5.982624E+04  1.702981E+04  8.110216E+04  5.879064E-11  1.533514E-09
       368  19  1.009506E+05  4.386573E+04  5.152899E+03  6.927626E+04  3.223381E+03  2.834654E+03
       368  20  6.510036E+04  2.349855E+04 -3.110381E+03  5.201965E+04  5.109183E+03  3.675534E+02
       368  21  1.904884E+04  1.360659E+04 -1.072602E+04  4.647292E+04  6.987052E+03 -2.079114E+03
       368  22  8.157044E+04  3.663720E+04  9.402680E+02  6.381695E+04  1.481637E+02  1.669040E+03
       368  23  8.667503E+04  3.143696E+04  1.713324E+03  5.794726E+04  2.056647E+03 -7.894136E+02
       368  24  8.158109E+04  3.671619E+04  3.151961E+03  6.378668E+04  3.957268E+03 -3.227425E+03
       368  25  6.219076E+04  2.940877E+04 -3.272310E+03  5.835785E+04 -2.926930E+03  5.034735E+02
       368  26  1.082502E+05  3.937542E+04  6.537040E+03  6.387506E+04 -9.960034E+02 -1.946423E+03
       368  27  1.441177E+05  5.982626E+04  1.702984E+04  8.110215E+04  9.271335E+02 -4.375867E+03
       369   1 -1.154378E+04  2.371971E+03 -1.677091E+04  3.849816E+04 -8.309248E+03  3.461680E+03
       369   2 -4.731058E+04 -1.840120E+04 -2.250990E+04  2.045380E+04 -1.267616E+04  4.830985E+03
       369   3 -9.211448E+04 -2.652220E+04 -2.512415E+04  1.364593E+04 -1.688549E+04  5.786462E+03
       369   4  8.176057E+04  3.654193E+04  4.178733E+03  6.393752E+04 -5.169827E+03  4.651461E+03
       369   5  8.641695E+04  3.145040E+04  7.582474E+03  5.783414E+04 -9.993538E+03  5.847383E+03
       369   6  8.212455E+04  3.910076E+04  1.447256E+04  6.296628E+04 -1.465991E+04  6.629434E+03
       369   7  1.750737E+05  7.071252E+04  2.512786E+04  8.938035E+04 -2.029894E+03  5.841428E+03
       369   8  2.201620E+05  8.130328E+04  3.767361E+04  9.522174E+04 -7.310300E+03  6.864016E+03
       369   9  2.563930E+05  1.047259E+05  5.406698E+04  1.122991E+05 -1.243367E+04  7.472665E+03
       369  10 -1.154386E+04  2.371940E+03 -1.677106E+04  3.849818E+04 -3.184014E-09 -2.470550E-09
       369  11 -4.731076E+04 -1.840127E+04 -2.251025E+04  2.045385E+04 -2.744351E-09  6.074131E-09
       369  12 -9.211480E+04 -2.652231E+04 -2.512474E+04  1.364601E+04  1.346324E-09  3.581844E-09
       369  13  8.176054E+04  3.654190E+04  4.178642E+03  6.393754E+04  7.340418E-10 -5.381596E-09
       369  14  8.641683E+04  3.145034E+04  7.582222E+03  5.783418E+04 -2.203869E-09 -8.829856E-10
       369  15  8.212431E+04  3.910065E+04  1.447207E+04  6.296636E+04  3.878455E-10  2.327178E-09
       369  16  1.750737E+05  7.071248E+04  2.512779E+04  8.938036E+04  4.175303E-09  1.063721E-08
       369  17  2.201620E+05  8.130322E+04  3.767342E+04  9.522178E+04  6.032572E-10  7.030130E-09
       369  18  2.563928E+05  1.047258E+05  5.406659E+04  1.122992E+05  2.908977E-10  4.738310E-09
       369  19 -1.154378E+04  2.371971E+03 -1.677091E+04  3.849816E+04  8.309248E+03 -3.461680E+03
       369  20 -4.731058E+04 -1.840120E+04 -2.250990E+04  2.045380E+04  1.267616E+04 -4.830985E+03
       369  21 -9.211448E+04 -2.652220E+04 -2.512415E+04  1.364593E+04  1.688549E+04 -5.786462E+03
       369  22  8.176057E+04  3.654193E+04  4.178733E+03  6.393752E+04  5.169827E+03 -4.651461E+03
       369  23  8.641695E+04  3.145040E+04  7.582474E+03  5.783414E+04  9.993538E+03 -5.847383E+03
       369  24  8.212455E+04  3.910076E+04  1.447256E+04  6.296628E+04  1.465991E+04 -6.629434E+03
       369  25  1.750737E+05  7.071252E+04  2.512786E+04  8.938035E+04  2.029894E+03 -5.841428E+03
       369  26  2.201620E+05  8.130328E+04  3.767361E+04  9.522174E+04  7.310300E+03 -6.864016E+03
       369  27  2.563930E+05  1.047259E+05  5.406698E+04  1.122991E+05  1.243367E+04 -7.472665E+03
       370   1 -1.266827E+05 -3.583476E+04 -2.779622E+04  1.488291E+04 -2.214260E+04  6.196303E+03
       370   2 -1.542821E+05 -6.589627E+04 -2.387268E+04 -2.255799E+04 -3.076203E+04  2.755072E+03
       370   3 -1.724021E+05 -3.743467E+04 -1.529806E+02 -6.147678E+04 -3.620720E+04 -9.067256E+03
       370   4  8.450866E+04  3.495027E+04  1.857327E+04  6.571841E+04 -1.770279E+04  7.878262E+03
       370   5  8.309248E+04  3.432299E+04  3.374508E+04  5.526536E+04 -3.555529E+04  9.383929E+02
       370   6  9.297688E+04  9.403552E+04  7.602949E+04  4.333599E+04 -5.023496E+04 -1.438186E+04
       370   7  2.957468E+05  1.057375E+05  6.494070E+04  1.165693E+05 -1.326131E+04  9.560721E+03
       370   8  3.205236E+05  1.345510E+05  9.135870E+04  1.331174E+05 -4.035052E+04 -8.792632E+02
       370   9  3.584241E+05  2.255252E+05  1.522052E+05  1.481932E+05 -6.426911E+04 -1.970064E+04
       370  10 -1.266832E+05 -3.583494E+04 -2.779721E+04  1.488302E+04 -2.717052E-09  3.481648E-09
       370  11 -1.542832E+05 -6.589653E+04 -2.387447E+04 -2.255792E+04 -3.220248E-09 -8.726210E-10
       370  12 -1.724035E+05 -3.743511E+04 -1.555994E+02 -6.147704E+04  1.753887E-09 -1.769190E-09
       370  13  8.450831E+04  3.495012E+04  1.857257E+04  6.571852E+04 -2.406737E-09  2.150670E-09
       370  14  8.309112E+04  3.432265E+04  3.374270E+04  5.526539E+04  1.269185E-09  1.777979E-09
       370  15  9.297412E+04  9.403462E+04  7.602436E+04  4.333540E+04 -1.017246E-09  3.898187E-09
       370  16  2.957466E+05  1.057374E+05  6.494019E+04  1.165694E+05  1.273152E-09  8.200596E-09
       370  17  3.205219E+05  1.345506E+05  9.135564E+04  1.331174E+05 -1.093001E-09  4.120378E-09
       370  18  3.584196E+05  2.255236E+05  1.521968E+05  1.481922E+05 -5.509399E-09  3.438901E-09
       370  19 -1.266827E+05 -3.583476E+04 -2.779622E+04  1.488291E+04  2.214260E+04 -6.196303E+03
       370  20 -1.542821E+05 -6.589627E+04 -2.387268E+04 -2.255799E+04  3.076203E+04 -2.755072E+03
       370  21 -1.724021E+05 -3.743467E+04 -1.529806E+02 -6.147678E+04  3.620720E+04  9.067256E+03
       370  22  8.450866E+04  3.495027E+04  1.857327E+04  6.571841E+04  1.770279E+04 -7.878262E+03
       370  23  8.309248E+04  3.432299E+04  3.374508E+04  5.526536E+04  3.555529E+04 -9.383929E+02
       370  24  9.297688E+04  9.403552E+04  7.602949E+04  4.333599E+04  5.023496E+04  1.438186E+04
       370  25  2.957468E+05  1.057375E+05  6.494070E+04  1.165693E+05  1.326131E+04 -9.560721E+03
       370  26  3.205236E+05  1.345510E+05  9.135870E+04  1.331174E+05  4.035052E+04  8.792632E+02
       370  27  3.584241E+05  2.255252E+05  1.522052E+05  1.481932E+05  6.426911E+04  1.970064E+04
       371   1  1.105412E+05  3.623324E+04  2.886420E+04  3.523805E+03 -1.104935E+04 -3.744283E+03
       371   2  8.690675E+04  5.650283E+04  3.495810E+04  9.584105E+03 -1.055425E+04 -1.191459E+04
       371   3  5.733218E+04  5.346377E+04  3.490950E+04  2.385951E+04 -1.008169E+04 -1.299597E+04
       371   4 -1.602032E+05 -3.075573E+04 -3.595716E+04  1.963619E+04 -2.482208E+04 -3.788821E+03
       371   5 -1.565044E+05 -2.482200E+03 -1.679091E+04  1.547662E+04 -1.599206E+04 -1.193281E+04
       371   6 -1.601965E+05  1.030115E+03 -9.558175E+03  1.953258E+04 -7.184438E+03 -1.298661E+04
       371   7 -4.308795E+05 -9.774890E+04 -1.007828E+05  3.574147E+04 -3.858882E+04 -3.834083E+03
       371   8 -3.998597E+05 -6.147092E+04 -6.854319E+04  2.136674E+04 -2.142776E+04 -1.195113E+04
       371   9 -3.776803E+05 -5.140644E+04 -5.402831E+04  1.520716E+04 -4.288178E+03 -1.297730E+04
       371  10  1.105411E+05  3.623319E+04  2.886394E+04  3.523772E+03 -1.009853E-08  1.640370E-09
       371  11  8.690659E+04  5.650264E+04  3.495762E+04  9.584004E+03 -2.329885E-09  1.164618E-08
       371  12  5.733203E+04  5.346356E+04  3.490899E+04  2.385941E+04  2.513750E-09  4.194235E-09
       371  13 -1.602039E+05 -3.075591E+04 -3.595835E+04  1.963612E+04  6.502950E-10 -5.604420E-09
       371  14 -1.565048E+05 -2.482421E+03 -1.679166E+04  1.547646E+04 -4.654212E-10 -9.089338E-09
       371  15 -1.601966E+05  1.029920E+03 -9.558589E+03  1.953251E+04 -7.212939E-10 -4.278730E-10
       371  16 -4.308811E+05 -9.774931E+04 -1.007857E+05  3.574135E+04  7.226967E-09 -2.344578E-09
       371  17 -3.998602E+05 -6.147119E+04 -6.854432E+04  2.136653E+04  3.235402E-10  8.440885E-09
       371  18 -3.776803E+05 -5.140662E+04 -5.402866E+04  1.520711E+04 -2.549716E-09 -1.165766E-09
       371  19  1.105412E+05  3.623324E+04  2.886420E+04  3.523805E+03  1.104935E+04  3.744283E+03
       371  20  8.690675E+04  5.650283E+04  3.495810E+04  9.584105E+03  1.055425E+04  1.191459E+04
       371  21  5.733218E+04  5.346377E+04  3.490950E+04  2.385951E+04  1.008169E+04  1.299597E+04
       371  22 -1.602032E+05 -3.075573E+04 -3.595716E+04  1.963619E+04  2.482208E+04  3.788821E+03
       371  23 -1.565044E+05 -2.482200E+03 -1.679091E+04  1.547662E+04  1.599206E+04  1.193281E+04
       371  24 -1.601965E+05  1.030115E+03 -9.558175E+03  1.953258E+04  7.184438E+03  1.298661E+04
       371  25 -4.308795E+05 -9.774890E+04 -1.007828E+05  3.574147E+04  3.858882E+04  3.834083E+03
       371  26 -3.998597E+05 -6.147092E+04 -6.854319E+04  2.136674E+04  2.142776E+04  1.195113E+04
       371  27 -3.776803E+05 -5.140644E+04 -5.402831E+04  1.520716E+04  4.288178E+03  1.297730E+04
       372   1  3.946031E+04  4.663865E+04  3.313560E+04  1.973245E+04 -7.076846E+03 -1.169247E+04
       372   2  1.321040E+04  4.136888E+04  3.077876E+04  1.572763E+04 -5.479421E+03 -1.048834E+04
       372   3 -1.355487E+04  3.512970E+04  2.712431E+04  2.026567E+04 -3.883636E+03 -8.900742E+03
       372   4 -1.586851E+05 -1.112602E+03 -7.469837E+03  1.962952E+04 -5.891245E+03 -1.168878E+04
       372   5 -1.583861E+05  6.844944E+01 -4.108129E+03  1.535577E+04 -3.843471E+03 -1.048300E+04
       372   6 -1.586819E+05  2.016310E+02 -2.357270E+03  1.962504E+04 -1.797279E+03 -8.893703E+03
       372   7 -3.567932E+05 -4.886632E+04 -4.807736E+04  1.952659E+04 -4.706015E+03 -1.168509E+04
       372   8 -3.299545E+05 -4.123381E+04 -3.899655E+04  1.498399E+04 -2.207965E+03 -1.047766E+04
       372   9 -3.037889E+05 -3.472775E+04 -3.183993E+04  1.898455E+04  2.886006E+02 -8.886668E+03
       372  10  3.946022E+04  4.663849E+04  3.313525E+04  1.973238E+04  4.069223E-09 -1.956385E-09
       372  11  1.321034E+04  4.136875E+04  3.077850E+04  1.572758E+04 -1.015960E-08  6.241682E-09
       372  12 -1.355491E+04  3.512962E+04  2.712413E+04  2.026564E+04 -1.921014E-08  5.980483E-09
       372  13 -1.586851E+05 -1.112758E+03 -7.470159E+03  1.962946E+04  4.057700E-10  8.849216E-09
       372  14 -1.583861E+05  6.832748E+01 -4.108364E+03  1.535574E+04 -6.013529E-10 -1.888345E-08
       372  15 -1.586820E+05  2.015452E+02 -2.357424E+03  1.962503E+04 -5.385498E-10  9.700881E-09
       372  16 -3.567932E+05 -4.886647E+04 -4.807766E+04  1.952655E+04 -7.273950E-09 -8.689147E-09
       372  17 -3.299546E+05 -4.123393E+04 -3.899676E+04  1.498397E+04  7.605737E-09 -5.990676E-09
       372  18 -3.037890E+05 -3.472784E+04 -3.184008E+04  1.898455E+04  1.841859E-08  8.743879E-10
       372  19  3.946031E+04  4.663865E+04  3.313560E+04  1.973245E+04  7.076846E+03  1.169247E+04
       372  20  1.321040E+04  4.136888E+04  3.077876E+04  1.572763E+04  5.479421E+03  1.048834E+04
       372  21 -1.355487E+04  3.512970E+04  2.712431E+04  2.026567E+04  3.883636E+03  8.900742E+03
       372  22 -1.586851E+05 -1.112602E+03 -7.469837E+03  1.962952E+04  5.891245E+03  1.168878E+04
       372  23 -1.583861E+05  6.844944E+01 -4.108129E+03  1.535577E+04  3.843471E+03  1.048300E+04
       372  24 -1.586819E+05  2.016310E+02 -2.357270E+03  1.962504E+04  1.797279E+03  8.893703E+03
       372  25 -3.567932E+05 -4.886632E+04 -4.807736E+04  1.952659E+04  4.706015E+03  1.168509E+04
       372  26 -3.299545E+05 -4.123381E+04 -3.899655E+04  1.498399E+04  2.207965E+03  1.047766E+04
       372  27 -3.037889E+05 -3.472775E+04 -3.183993E+04  1.898455E+04 -2.886006E+02  8.886668E+03
       373   1 -3.265817E+04  3.039207E+04  2.366677E+04  2.002912E+04 -3.428350E+03 -7.874187E+03
       373   2 -5.911350E+04  2.403710E+04  1.911324E+04  1.566015E+04 -2.950954E+03 -6.166254E+03
       373   3 -8.570045E+04  1.769404E+04  1.423363E+04  1.986082E+04 -2.473816E+03 -4.437317E+03
       373   4 -1.585789E+05  1.105641E+02 -1.797563E+03  1.963208E+04 -1.434048E+03 -7.867388E+03
       373   5 -1.585100E+05  1.260825E+02 -1.026045E+03  1.534715E+04 -9.320692E+02 -6.159277E+03
       373   6 -1.585772E+05  1.493702E+02 -5.976302E+02  1.963195E+04 -4.303287E+02 -4.430157E+03
       373   7 -2.844846E+05 -3.017192E+04 -2.726270E+04  1.923511E+04  5.598577E+02 -7.860592E+03
       373   8 -2.578970E+05 -2.378554E+04 -2.116583E+04  1.503420E+04  1.086499E+03 -6.152302E+03
       373   9 -2.314489E+05 -1.739563E+04 -1.542915E+04  1.940310E+04  1.612923E+03 -4.422998E+03
       373  10 -3.265820E+04  3.039200E+04  2.366663E+04  2.002910E+04  1.999544E-08 -4.672825E-09
       373  11 -5.911352E+04  2.403705E+04  1.911315E+04  1.566013E+04  7.200450E-09 -5.370640E-09
       373  12 -8.570046E+04  1.769402E+04  1.423358E+04  1.986081E+04 -7.040375E-09 -3.953775E-09
       373  13 -1.585789E+05  1.104971E+02 -1.797683E+03  1.963207E+04 -2.916452E-11 -4.573277E-10
       373  14 -1.585100E+05  1.260415E+02 -1.026118E+03  1.534715E+04 -7.911206E-11 -7.514151E-09
       373  15 -1.585772E+05  1.493491E+02 -5.976674E+02  1.963194E+04 -1.567212E-09 -2.077606E-09
       373  16 -2.844846E+05 -3.017199E+04 -2.726282E+04  1.923512E+04 -2.310127E-08 -3.198483E-09
       373  17 -2.578970E+05 -2.378558E+04 -2.116590E+04  1.503421E+04 -1.010126E-08  9.126686E-09
       373  18 -2.314489E+05 -1.739565E+04 -1.542919E+04  1.940310E+04  6.444444E-09  1.130614E-08
       373  19 -3.265817E+04  3.039207E+04  2.366677E+04  2.002912E+04  3.428350E+03  7.874187E+03
       373  20 -5.911350E+04  2.403710E+04  1.911324E+04  1.566015E+04  2.950954E+03  6.166254E+03
       373  21 -8.570045E+04  1.769404E+04  1.423363E+04  1.986082E+04  2.473816E+03  4.437317E+03
       373  22 -1.585789E+05  1.105641E+02 -1.797563E+03  1.963208E+04  1.434048E+03  7.867388E+03
       373  23 -1.585100E+05  1.260825E+02 -1.026045E+03  1.534715E+04  9.320692E+02  6.159277E+03
       373  24 -1.585772E+05  1.493702E+02 -5.976302E+02  1.963195E+04  4.303287E+02  4.430157E+03
       373  25 -2.844846E+05 -3.017192E+04 -2.726270E+04  1.923511E+04 -5.598577E+02  7.860592E+03
       373  26 -2.578970E+05 -2.378554E+04 -2.116583E+04  1.503420E+04 -1.086499E+03  6.152302E+03
       373  27 -2.314489E+05 -1.739563E+04 -1.542915E+04  1.940310E+04 -1.612923E+03  4.422998E+03
       374   1 -1.048922E+05  1.304379E+04  1.034300E+04  1.979924E+04 -2.376874E+03 -3.425919E+03
       374   2 -1.313829E+05  6.645945E+03  5.214495E+03  1.543243E+04 -2.244195E+03 -1.691043E+03
       374   3 -1.579517E+05  3.050994E+02 -5.126154E+00  1.963897E+04 -2.111573E+03  4.497368E+01
       374   4 -1.585640E+05  1.463562E+02 -4.605673E+02  1.963281E+04 -3.381736E+02 -3.418739E+03
       374   5 -1.585243E+05  1.167912E+02 -2.834192E+02  1.534612E+04 -2.042041E+02 -1.683834E+03
       374   6 -1.585635E+05  1.440372E+02 -1.982917E+02  1.963282E+04 -7.028625E+01  5.221495E+01
       374   7 -2.122330E+05 -1.275126E+04 -1.126426E+04  1.946639E+04  1.700354E+03 -3.411560E+03
       374   8 -1.856649E+05 -6.412406E+03 -5.781356E+03  1.525982E+04  1.835699E+03 -1.676625E+03
       374   9 -1.591753E+05 -1.702273E+01 -3.914416E+02  1.962667E+04  1.970999E+03  5.945618E+01
       374  10 -1.048922E+05  1.304378E+04  1.034296E+04  1.979924E+04  9.385029E-10 -1.107160E-08
       374  11 -1.313829E+05  6.645940E+03  5.214481E+03  1.543242E+04 -8.199078E-09 -8.036775E-10
       374  12 -1.579517E+05  3.050982E+02 -5.134539E+00  1.963897E+04 -1.547682E-08  3.105050E-09
       374  13 -1.585640E+05  1.463436E+02 -4.605894E+02  1.963281E+04 -1.079454E-09 -8.287955E-10
       374  14 -1.585243E+05  1.167881E+02 -2.834246E+02  1.534612E+04  5.329103E-10 -1.138974E-08
       374  15 -1.585635E+05  1.440372E+02 -1.982917E+02  1.963282E+04 -6.235151E-10  1.592013E-09
       374  16 -2.122330E+05 -1.275127E+04 -1.126429E+04  1.946639E+04 -4.048132E-09  6.667489E-09
       374  17 -1.856649E+05 -6.412410E+03 -5.781368E+03  1.525983E+04  6.156662E-09  1.267914E-08
       374  18 -1.591753E+05 -1.702378E+01 -3.914489E+02  1.962667E+04  1.513242E-08  3.807090E-09
       374  19 -1.048922E+05  1.304379E+04  1.034300E+04  1.979924E+04  2.376874E+03  3.425919E+03
       374  20 -1.313829E+05  6.645945E+03  5.214495E+03  1.543243E+04  2.244195E+03  1.691043E+03
       374  21 -1.579517E+05  3.050994E+02 -5.126154E+00  1.963897E+04  2.111573E+03 -4.497368E+01
       374  22 -1.585640E+05  1.463562E+02 -4.605673E+02  1.963281E+04  3.381736E+02  3.418739E+03
       374  23 -1.585243E+05  1.167912E+02 -2.834192E+02  1.534612E+04  2.042041E+02  1.683834E+03
       374  24 -1.585635E+05  1.440372E+02 -1.982917E+02  1.963282E+04  7.028625E+01 -5.221495E+01
       374  25 -2.122330E+05 -1.275126E+04 -1.126426E+04  1.946639E+04 -1.700354E+03  3.411560E+03
       374  26 -1.856649E+05 -6.412406E+03 -5.781356E+03  1.525982E+04 -1.835699E+03  1.676625E+03
       374  27 -1.591753E+05 -1.702273E+01 -3.914416E+02  1.962667E+04 -1.970999E+03 -5.945618E+01
       375   1 -1.771562E+05 -4.342890E+03 -4.015661E+03  1.958545E+04 -2.080766E+03  1.055600E+03
       375   2 -2.036477E+05 -1.074061E+04 -9.325186E+03  1.522221E+04 -1.993922E+03  2.791432E+03
       375   3 -2.302102E+05 -1.708038E+04 -1.469561E+04  1.943218E+04 -1.907000E+03  4.525985E+03
       375   4 -1.585620E+05  1.439829E+02 -1.800232E+02  1.963277E+04 -3.952039E+01  1.062836E+03
       375   5 -1.585265E+05  1.140735E+02 -1.850068E+02  1.534618E+04  4.576927E+01  2.798618E+03
       375   6 -1.585628E+05  1.423278E+02 -2.499159E+02  1.963277E+04  1.311414E+02  4.533123E+03
       375   7 -1.399674E+05  4.630836E+03  3.655612E+03  1.968009E+04  2.001785E+03  1.070072E+03
       375   8 -1.134032E+05  1.096864E+04  8.955082E+03  1.547017E+04  2.085606E+03  2.805804E+03
       375   9 -8.691037E+04  1.736472E+04  1.419553E+04  1.983339E+04  2.169513E+03  4.540261E+03
       375  10 -1.771562E+05 -4.342893E+03 -4.015671E+03  1.958545E+04 -2.543676E-08  8.349061E-10
       375  11 -2.036477E+05 -1.074062E+04 -9.325208E+03  1.522221E+04 -5.410557E-09 -6.263377E-09
       375  12 -2.302102E+05 -1.708040E+04 -1.469566E+04  1.943218E+04  1.156029E-08 -4.465418E-09
       375  13 -1.585620E+05  1.439817E+02 -1.800254E+02  1.963277E+04 -4.251093E-10  1.383486E-08
       375  14 -1.585265E+05  1.140651E+02 -1.850215E+02  1.534618E+04  1.979525E-09 -5.975552E-09
       375  15 -1.585628E+05  1.423058E+02 -2.499546E+02  1.963277E+04  3.944475E-10 -3.109092E-09
       375  16 -1.399674E+05  4.630834E+03  3.655602E+03  1.968009E+04  2.237907E-08  3.636000E-09
       375  17 -1.134032E+05  1.096863E+04  8.955059E+03  1.547017E+04  4.816851E-09 -1.004893E-08
       375  18 -8.691038E+04  1.736469E+04  1.419549E+04  1.983338E+04 -1.225629E-08 -5.995732E-09
       375  19 -1.771562E+05 -4.342890E+03 -4.015661E+03  1.958545E+04  2.080766E+03 -1.055600E+03
       375  20 -2.036477E+05 -1.074061E+04 -9.325186E+03  1.522221E+04  1.993922E+03 -2.791432E+03
       375  21 -2.302102E+05 -1.708038E+04 -1.469561E+04  1.943218E+04  1.907000E+03 -4.525985E+03
       375  22 -1.585620E+05  1.439829E+02 -1.800232E+02  1.963277E+04  3.952039E+01 -1.062836E+03
       375  23 -1.585265E+05  1.140735E+02 -1.850068E+02  1.534618E+04 -4.576927E+01 -2.798618E+03
       375  24 -1.585628E+05  1.423278E+02 -2.499159E+02  1.963277E+04 -1.311414E+02 -4.533123E+03
       375  25 -1.399674E+05  4.630836E+03  3.655612E+03  1.968009E+04 -2.001785E+03 -1.070072E+03
       375  26 -1.134032E+05  1.096864E+04  8.955082E+03  1.547017E+04 -2.085606E+03 -2.805804E+03
       375  27 -8.691037E+04  1.736472E+04  1.419553E+04  1.983339E+04 -2.169513E+03 -4.540261E+03
       376   1 -2.494168E+05 -2.172620E+04 -1.878241E+04  1.937447E+04 -1.864919E+03  5.537228E+03
       376   2 -2.758809E+05 -2.812014E+04 -2.428825E+04  1.501599E+04 -1.593530E+03  7.264898E+03
       376   3 -3.024441E+05 -3.448442E+04 -2.998153E+04  1.922446E+04 -1.321867E+03  8.970149E+03
       376   4 -1.585685E+05  1.434741E+02 -3.092295E+02  1.963135E+04  1.781986E+02  5.544335E+03
       376   5 -1.585221E+05  1.151304E+02 -5.073224E+02  1.534795E+04  4.232500E+02  7.271800E+03
       376   6 -1.585705E+05  1.211717E+02 -8.744155E+02  1.963142E+04  6.685870E+02  8.976850E+03
       376   7 -6.771239E+04  2.201264E+04  1.816353E+04  1.988825E+04  2.221609E+03  5.551444E+03
       376   8 -4.115019E+04  2.834955E+04  2.327291E+04  1.567997E+04  2.440404E+03  7.278703E+03
       376   9 -1.467721E+04  3.472548E+04  2.823164E+04  2.003845E+04  2.659493E+03  8.983552E+03
       376  10 -2.494168E+05 -2.172624E+04 -1.878247E+04  1.937448E+04 -1.190544E-08 -1.190755E-09
       376  11 -2.758809E+05 -2.812020E+04 -2.428835E+04  1.501600E+04  1.159733E-10 -5.174976E-09
       376  12 -3.024441E+05 -3.448451E+04 -2.998169E+04  1.922447E+04  9.894659E-09 -8.603260E-10
       376  13 -1.585685E+05  1.434410E+02 -3.092873E+02  1.963134E+04 -3.391023E-12  3.143573E-09
       376  14 -1.585221E+05  1.150736E+02 -5.074221E+02  1.534795E+04  1.451595E-09  2.002106E-09
       376  15 -1.585705E+05  1.210850E+02 -8.745677E+02  1.963141E+04  6.249121E-11 -2.901445E-10
       376  16 -6.771240E+04  2.201261E+04  1.816347E+04  1.988824E+04  8.507628E-09  9.548213E-09
       376  17 -4.115021E+04  2.834949E+04  2.327280E+04  1.567995E+04 -7.899202E-10 -4.382806E-09
       376  18 -1.467724E+04  3.472539E+04  2.823148E+04  2.003843E+04 -1.034524E-08 -2.404134E-09
       376  19 -2.494168E+05 -2.172620E+04 -1.878241E+04  1.937447E+04  1.864919E+03 -5.537228E+03
       376  20 -2.758809E+05 -2.812014E+04 -2.428825E+04  1.501599E+04  1.593530E+03 -7.264898E+03
       376  21 -3.024441E+05 -3.448442E+04 -2.998153E+04  1.922446E+04  1.321867E+03 -8.970149E+03
       376  22 -1.585685E+05  1.434741E+02 -3.092295E+02  1.963135E+04 -1.781986E+02 -5.544335E+03
       376  23 -1.585221E+05  1.151304E+02 -5.073224E+02  1.534795E+04 -4.232500E+02 -7.271800E+03
       376  24 -1.585705E+05  1.211717E+02 -8.744155E+02  1.963142E+04 -6.685870E+02 -8.976850E+03
       376  25 -6.771239E+04  2.201264E+04  1.816353E+04  1.988825E+04 -2.221609E+03 -5.551444E+03
       376  26 -4.115019E+04  2.834955E+04  2.327291E+04  1.567997E+04 -2.440404E+03 -7.278703E+03
       376  27 -1.467721E+04  3.472548E+04  2.823164E+04  2.003845E+04 -2.659493E+03 -8.983552E+03
       377   1 -3.216914E+05 -3.908620E+04 -3.426579E+04  1.907608E+04 -1.245039E+03  9.996330E+03
       377   2 -3.479878E+05 -4.554136E+04 -4.052056E+04  1.490661E+04  2.210374E+02  1.157363E+04
       377   3 -3.746787E+05 -5.255538E+04 -4.788591E+04  1.927700E+04  1.688704E+03  1.274283E+04
       377   4 -1.586199E+05  1.645132E+02 -1.142694E+03  1.962485E+04  8.431827E+02  1.000328E+04
       377   5 -1.584657E+05  8.270838E+01 -1.986186E+03  1.535607E+04  1.829806E+03  1.157878E+04
       377   6 -1.586232E+05 -4.745252E+02 -3.606976E+03  1.962700E+04  2.818080E+03  1.274624E+04
       377   7  4.476826E+03  3.941357E+04  3.197903E+04  2.017374E+04  2.931943E+03  1.001023E+04
       377   8  3.109056E+04  4.570454E+04  3.654632E+04  1.580565E+04  3.439056E+03  1.158393E+04
       377   9  5.747663E+04  5.160340E+04  4.066948E+04  1.997709E+04  3.947842E+03  1.274965E+04
       377  10 -3.216914E+05 -3.908631E+04 -3.426598E+04  1.907609E+04  2.572289E-08  3.475323E-10
       377  11 -3.479879E+05 -4.554151E+04 -4.052081E+04  1.490661E+04  1.340732E-09  1.116502E-08
       377  12 -3.746788E+05 -5.255556E+04 -4.788622E+04  1.927698E+04 -2.180082E-08 -4.813229E-09
       377  13 -1.586200E+05  1.644056E+02 -1.142883E+03  1.962484E+04 -1.220430E-10 -1.128037E-08
       377  14 -1.584658E+05  8.256352E+01 -1.986444E+03  1.535606E+04  1.839657E-09  9.194029E-09
       377  15 -1.586233E+05 -4.747017E+02 -3.607296E+03  1.962697E+04 -1.285309E-09  2.435515E-09
       377  16  4.476790E+03  3.941346E+04  3.197883E+04  2.017372E+04 -2.856760E-08 -2.345534E-09
       377  17  3.109051E+04  4.570439E+04  3.654604E+04  1.580562E+04 -4.133532E-09 -1.555893E-09
       377  18  5.747657E+04  5.160322E+04  4.066914E+04  1.997705E+04  2.178033E-08  4.555322E-09
       377  19 -3.216914E+05 -3.908620E+04 -3.426579E+04  1.907608E+04  1.245039E+03 -9.996330E+03
       377  20 -3.479878E+05 -4.554136E+04 -4.052056E+04  1.490661E+04 -2.210374E+02 -1.157363E+04
       377  21 -3.746787E+05 -5.255538E+04 -4.788591E+04  1.927700E+04 -1.688704E+03 -1.274283E+04
       377  22 -1.586199E+05  1.645132E+02 -1.142694E+03  1.962485E+04 -8.431827E+02 -1.000328E+04
       377  23 -1.584657E+05  8.270838E+01 -1.986186E+03  1.535607E+04 -1.829806E+03 -1.157878E+04
       377  24 -1.586232E+05 -4.745252E+02 -3.606976E+03  1.962700E+04 -2.818080E+03 -1.274624E+04
       377  25  4.476826E+03  3.941357E+04  3.197903E+04  2.017374E+04 -2.931943E+03 -1.001023E+04
       377  26  3.109056E+04  4.570454E+04  3.654632E+04  1.580565E+04 -3.439056E+03 -1.158393E+04
       377  27  5.747663E+04  5.160340E+04  4.066948E+04  1.997709E+04 -3.947842E+03 -1.274965E+04
       378   1 -3.948063E+05 -5.619069E+04 -5.274433E+04  1.712211E+04  4.905550E+02  1.405042E+04
       378   2 -4.188014E+05 -6.450466E+04 -6.364387E+04  1.797142E+04  1.361151E+04  1.282970E+04
       378   3 -4.479208E+05 -8.627869E+04 -8.646152E+04  2.698068E+04  2.675504E+04  4.064250E+03
       378   4 -1.593520E+05  5.579967E+02 -4.614246E+03  1.953114E+04  3.440185E+03  1.405972E+04
       378   5 -1.575629E+05 -1.153616E+03 -8.105902E+03  1.547575E+04  7.694921E+03  1.281017E+04
       378   6 -1.593575E+05 -1.478255E+04 -1.735461E+04  1.958049E+04  1.197304E+04  4.017106E+03
       378   7  7.615513E+04  5.730323E+04  4.351294E+04  2.194105E+04  6.390915E+03  1.406903E+04
       378   8  1.037400E+05  6.219304E+04  4.742829E+04  1.297897E+04  1.775878E+03  1.279068E+04
       378   9  1.292827E+05  5.670790E+04  5.174727E+04  1.217679E+04 -2.815795E+03  3.970326E+03
       378  10 -3.948064E+05 -5.619090E+04 -5.274471E+04  1.712211E+04 -3.978725E-09 -4.691155E-09
       378  11 -4.188016E+05 -6.450489E+04 -6.364453E+04  1.797127E+04  2.994411E-09 -1.153861E-08
       378  12 -4.479216E+05 -8.627890E+04 -8.646290E+04  2.698059E+04  5.507407E-09  8.062120E-09
       378  13 -1.593520E+05  5.577812E+02 -4.614640E+03  1.953110E+04  2.571643E-10  3.937155E-09
       378  14 -1.575630E+05 -1.153808E+03 -8.106321E+03  1.547567E+04  3.093383E-10  5.691136E-09
       378  15 -1.593577E+05 -1.478260E+04 -1.735491E+04  1.958045E+04 -3.905308E-10  8.415635E-10
       378  16  7.615503E+04  5.730301E+04  4.351249E+04  2.194098E+04  9.118055E-10  6.956953E-09
       378  17  1.037399E+05  6.219287E+04  4.742798E+04  1.297895E+04 -4.307336E-09  1.279949E-08
       378  18  1.292827E+05  5.670788E+04  5.174722E+04  1.217680E+04 -5.831244E-09  1.078997E-09
       378  19 -3.948063E+05 -5.619069E+04 -5.274433E+04  1.712211E+04 -4.905550E+02 -1.405042E+04
       378  20 -4.188014E+05 -6.450466E+04 -6.364387E+04  1.797142E+04 -1.361151E+04 -1.282970E+04
       378  21 -4.479208E+05 -8.627869E+04 -8.646152E+04  2.698068E+04 -2.675504E+04 -4.064250E+03
       378  22 -1.593520E+05  5.579967E+02 -4.614246E+03  1.953114E+04 -3.440185E+03 -1.405972E+04
       378  23 -1.575629E+05 -1.153616E+03 -8.105902E+03  1.547575E+04 -7.694921E+03 -1.281017E+04
       378  24 -1.593575E+05 -1.478255E+04 -1.735461E+04  1.958049E+04 -1.197304E+04 -4.017106E+03
       378  25  7.615513E+04  5.730323E+04  4.351294E+04  2.194105E+04 -6.390915E+03 -1.406903E+04
       378  26  1.037400E+05  6.219304E+04  4.742829E+04  1.297897E+04 -1.775878E+03 -1.279068E+04
       378  27  1.292827E+05  5.670790E+04  5.174727E+04  1.217679E+04  2.815795E+03 -3.970326E+03
       379   1 -2.358043E+05 -9.606159E+05 -2.313002E+05  1.960708E+05 -9.686395E+03 -5.335623E+04
       379   2 -1.558217E+05 -7.216428E+05 -1.448479E+05  1.533558E+05 -2.817557E+04 -1.905586E+04
       379   3 -9.631049E+04 -4.916055E+05 -8.579059E+04  1.820795E+05 -2.279152E+04  1.533069E+04
       379   4 -2.050001E+04 -9.401035E+04 -2.233361E+04  1.835849E+05 -9.788046E+03 -1.628436E+04
       379   5 -2.802715E+03 -9.200886E+04 -9.848519E+03  1.478937E+05 -2.819432E+04 -1.116000E+04
       379   6 -4.925310E+02 -9.391716E+04 -4.468429E+03  1.836398E+05 -2.273756E+04 -5.963358E+03
       379   7  1.947507E+05  7.732861E+05  1.865845E+05  1.710818E+05 -9.891124E+03  2.083915E+04
       379   8  1.501905E+05  5.379984E+05  1.251280E+05  1.424263E+05 -2.821320E+04 -3.256240E+03
       379   9  9.531577E+04  3.039225E+05  7.684707E+04  1.852012E+05 -2.268373E+04 -2.727081E+04
       379  10 -2.358051E+05 -9.606190E+05 -2.313057E+05  1.960704E+05  1.722685E-09  1.895661E-09
       379  11 -1.558227E+05 -7.216434E+05 -1.448501E+05  1.533553E+05  3.013678E-09  1.201834E-08
       379  12 -9.631111E+04 -4.916059E+05 -8.579201E+04  1.820798E+05  2.920795E-09  1.330108E-09
       379  13 -2.050018E+04 -9.401066E+04 -2.233429E+04  1.835848E+05  2.950213E-09  7.787647E-09
       379  14 -2.803602E+03 -9.200921E+04 -9.850247E+03  1.478935E+05  3.440834E-09  1.086660E-09
       379  15 -4.930956E+02 -9.391734E+04 -4.469467E+03  1.836397E+05  8.975995E-10 -1.478737E-09
       379  16  1.947504E+05  7.732856E+05  1.865835E+05  1.710820E+05  1.741801E-09 -4.709945E-09
       379  17  1.501896E+05  5.379982E+05  1.251265E+05  1.424262E+05  4.966602E-09 -4.172156E-09
       379  18  9.531501E+04  3.039216E+05  7.684471E+04  1.852007E+05 -1.789325E-09  7.787523E-11
       379  19 -2.358043E+05 -9.606159E+05 -2.313002E+05  1.960708E+05  9.686395E+03  5.335623E+04
       379  20 -1.558217E+05 -7.216428E+05 -1.448479E+05  1.533558E+05  2.817557E+04  1.905586E+04
       379  21 -9.631049E+04 -4.916055E+05 -8.579059E+04  1.820795E+05  2.279152E+04 -1.533069E+04
       379  22 -2.050001E+04 -9.401035E+04 -2.233361E+04  1.835849E+05  9.788046E+03  1.628436E+04
       379  23 -2.802715E+03 -9.200886E+04 -9.848519E+03  1.478937E+05  2.819432E+04  1.116000E+04
       379  24 -4.925310E+02 -9.391716E+04 -4.468429E+03  1.836398E+05  2.273756E+04  5.963358E+03
       379  25  1.947507E+05  7.732861E+05  1.865845E+05  1.710818E+05  9.891124E+03 -2.083915E+04
       379  26  1.501905E+05  5.379984E+05  1.251280E+05  1.424263E+05  2.821320E+04  3.256240E+03
       379  27  9.531577E+04  3.039225E+05  7.684707E+04  1.852012E+05  2.268373E+04  2.727081E+04
       380   1 -5.716076E+04 -3.225819E+05 -4.981074E+04  1.843618E+05 -1.287629E+04  1.064540E+04
       380   2  3.882332E+02 -8.842618E+04  2.042806E+03  1.476442E+05  2.702160E+02  1.012071E+04
       380   3  5.781824E+04  1.463332E+05  5.432598E+04  1.836174E+05  1.340258E+04  9.595838E+03
       380   4 -1.773960E+03 -9.290473E+04 -2.617330E+03  1.839051E+05 -1.283679E+04 -5.448977E+03
       380   5 -7.526790E+02 -9.317966E+04  1.089505E+03  1.475620E+05  3.097973E+02 -5.958499E+03
       380   6  1.503607E+02 -9.290517E+04  5.217493E+03  1.839098E+05  1.344208E+04 -6.467999E+03
       380   7  5.360966E+04  1.368230E+05  4.457423E+04  1.834483E+05 -1.279728E+04 -2.154920E+04
       380   8 -1.893454E+03 -9.793256E+04  1.371736E+02  1.474798E+05  3.493831E+02 -2.203759E+04
       380   9 -5.752099E+04 -3.320886E+05 -4.389308E+04  1.842022E+05  1.348157E+04 -2.252576E+04
       380  10 -5.716097E+04 -3.225820E+05 -4.981127E+04  1.843619E+05  1.470713E-09  6.332078E-09
       380  11  3.882056E+02 -8.842629E+04  2.042614E+03  1.476442E+05  2.342009E-09  1.003069E-08
       380  12  5.781803E+04  1.463330E+05  5.432547E+04  1.836173E+05 -1.389180E-09  1.456784E-09
       380  13 -1.774145E+03 -9.290481E+04 -2.617696E+03  1.839051E+05 -1.872675E-10  3.765693E-09
       380  14 -7.526886E+02 -9.317969E+04  1.089438E+03  1.475620E+05  2.664688E-09  4.339583E-09
       380  15  1.501555E+02 -9.290527E+04  5.217075E+03  1.839099E+05  3.431074E-10  2.841884E-11
       380  16  5.360936E+04  1.368225E+05  4.457305E+04  1.834481E+05 -2.208107E-09 -9.835788E-09
       380  17 -1.893584E+03 -9.793308E+04  1.362605E+02  1.474798E+05 -8.362593E-10 -6.128959E-09
       380  18 -5.752132E+04 -3.320892E+05 -4.389438E+04  1.842024E+05 -3.698869E-09  3.810764E-10
       380  19 -5.716076E+04 -3.225819E+05 -4.981074E+04  1.843618E+05  1.287629E+04 -1.064540E+04
       380  20  3.882332E+02 -8.842618E+04  2.042806E+03  1.476442E+05 -2.702160E+02 -1.012071E+04
       380  21  5.781824E+04  1.463332E+05  5.432598E+04  1.836174E+05 -1.340258E+04 -9.595838E+03
       380  22 -1.773960E+03 -9.290473E+04 -2.617330E+03  1.839051E+05  1.283679E+04  5.448977E+03
       380  23 -7.526790E+02 -9.317966E+04  1.089505E+03  1.475620E+05 -3.097973E+02  5.958499E+03
       380  24  1.503607E+02 -9.290517E+04  5.217493E+03  1.839098E+05 -1.344208E+04  6.467999E+03
       380  25  5.360966E+04  1.368230E+05  4.457423E+04  1.834483E+05  1.279728E+04  2.154920E+04
       380  26 -1.893454E+03 -9.793256E+04  1.371736E+02  1.474798E+05 -3.493831E+02  2.203759E+04
       380  27 -5.752099E+04 -3.320886E+05 -4.389308E+04  1.842022E+05 -1.348157E+04  2.252576E+04
       381   1  9.643579E+04  3.158100E+05  9.070827E+04  1.795328E+05  2.329883E+04  1.394555E+04
       381   2  1.570553E+05  5.445450E+05  1.514840E+05  1.525670E+05  2.876555E+04 -2.315689E+04
       381   3  2.439772E+05  7.853433E+05  2.431036E+05  1.971051E+05  1.014383E+04 -6.034645E+04
       381   4 -1.685747E+03 -9.151501E+04  7.480428E+03  1.836277E+05  2.335302E+04 -7.380350E+03
       381   5  1.820899E+03 -9.501418E+04  1.452052E+04  1.479143E+05  2.874614E+04 -1.497124E+04
       381   6  2.652764E+04 -9.160689E+04  3.192940E+04  1.837060E+05  1.004065E+04 -2.263514E+04
       381   7 -9.981738E+04 -4.986813E+05 -7.575447E+04  1.877200E+05  2.340694E+04 -2.869252E+04
       381   8 -1.534401E+05 -7.341885E+05 -1.224664E+05  1.432666E+05  2.872660E+04 -6.793880E+03
       381   9 -1.909765E+05 -9.678504E+05 -1.792942E+05  1.703261E+05  9.935780E+03  1.502317E+04
       381  10  9.643516E+04  3.158096E+05  9.070689E+04  1.795326E+05 -1.260784E-09  3.590757E-09
       381  11  1.570542E+05  5.445442E+05  1.514814E+05  1.525675E+05 -5.688226E-10  1.114884E-08
       381  12  2.439762E+05  7.853393E+05  2.430965E+05  1.971056E+05 -8.332848E-10 -5.428072E-10
       381  13 -1.686348E+03 -9.151521E+04  7.479301E+03  1.836279E+05 -4.435300E-09  4.908186E-09
       381  14  1.819952E+03 -9.501464E+04  1.451854E+04  1.479146E+05  4.067162E-10  1.328503E-11
       381  15  2.652739E+04 -9.160747E+04  3.192825E+04  1.837061E+05 -5.407390E-10  4.163293E-09
       381  16 -9.981819E+04 -4.986824E+05 -7.575705E+04  1.877205E+05 -3.051004E-09 -5.528113E-09
       381  17 -1.534410E+05 -7.341888E+05 -1.224681E+05  1.432668E+05  7.321969E-11 -5.005733E-09
       381  18 -1.909767E+05 -9.678507E+05 -1.792948E+05  1.703260E+05 -5.663819E-10 -5.528353E-11
       381  19  9.643579E+04  3.158100E+05  9.070827E+04  1.795328E+05 -2.329883E+04 -1.394555E+04
       381  20  1.570553E+05  5.445450E+05  1.514840E+05  1.525670E+05 -2.876555E+04  2.315689E+04
       381  21  2.439772E+05  7.853433E+05  2.431036E+05  1.971051E+05 -1.014383E+04  6.034645E+04
       381  22 -1.685747E+03 -9.151501E+04  7.480428E+03  1.836277E+05 -2.335302E+04  7.380350E+03
       381  23  1.820899E+03 -9.501418E+04  1.452052E+04  1.479143E+05 -2.874614E+04  1.497124E+04
       381  24  2.652764E+04 -9.160689E+04  3.192940E+04  1.837060E+05 -1.004065E+04  2.263514E+04
       381  25 -9.981738E+04 -4.986813E+05 -7.575447E+04  1.877200E+05 -2.340694E+04  2.869252E+04
       381  26 -1.534401E+05 -7.341885E+05 -1.224664E+05  1.432666E+05 -2.872660E+04  6.793880E+03
       381  27 -1.909765E+05 -9.678504E+05 -1.792942E+05  1.703261E+05 -9.935780E+03 -1.502317E+04
       382   1  4.379454E+05  1.830526E+05  1.105035E+05  1.693928E+05  5.165357E+04  1.668826E+04
       382   2  4.222762E+05  1.146143E+05  6.493524E+04  1.642519E+05  3.291537E+04  3.320943E+03
       382   3  4.221003E+05  9.450437E+04  4.698067E+04  1.525129E+05  1.233120E+04 -5.167754E+03
       382   4  2.869181E+05  9.913644E+04  6.550770E+04  1.004092E+05  4.291720E+04  1.337746E+04
       382   5  2.760567E+05  5.004466E+04  2.907910E+04  1.133519E+05  2.955644E+04  2.048151E+03
       382   6  2.796270E+05  4.822078E+04  1.600597E+04  1.196953E+05  1.434887E+04 -4.403633E+03
       382   7  1.359181E+05  1.523279E+04  2.051108E+04  3.144476E+04  3.418333E+04  1.006856E+04
       382   8  1.298598E+05 -1.452035E+04 -6.778331E+03  6.246399E+04  2.619839E+04  7.758269E+02
       382   9  1.371728E+05  1.937239E+03 -1.497025E+04  8.688379E+04  1.636606E+04 -3.639642E+03
       382  10  4.379425E+05  1.830516E+05  1.104980E+05  1.693921E+05 -3.929719E-09  5.763916E-09
       382  11  4.222750E+05  1.146140E+05  6.493319E+04  1.642519E+05 -9.215510E-09  7.268269E-09
       382  12  4.221001E+05  9.450430E+04  4.698034E+04  1.525130E+05 -7.616150E-09 -3.542851E-09
       382  13  2.869161E+05  9.913576E+04  6.550391E+04  1.004087E+05  1.201443E-09 -3.927765E-09
       382  14  2.760558E+05  5.004443E+04  2.907745E+04  1.133519E+05 -4.591422E-10 -1.611384E-08
       382  15  2.796268E+05  4.822071E+04  1.600555E+04  1.196954E+05 -5.496961E-09 -3.498198E-09
       382  16  1.359168E+05  1.523237E+04  2.050870E+04  3.144448E+04  2.904286E-09  5.279536E-09
       382  17  1.298591E+05 -1.452054E+04 -6.779621E+03  6.246398E+04  5.606688E-09  2.048233E-10
       382  18  1.371725E+05  1.937153E+03 -1.497077E+04  8.688383E+04  1.183662E-09 -1.885676E-09
       382  19  4.379454E+05  1.830526E+05  1.105035E+05  1.693928E+05 -5.165357E+04 -1.668826E+04
       382  20  4.222762E+05  1.146143E+05  6.493524E+04  1.642519E+05 -3.291537E+04 -3.320943E+03
       382  21  4.221003E+05  9.450437E+04  4.698067E+04  1.525129E+05 -1.233120E+04  5.167754E+03
       382  22  2.869181E+05  9.913644E+04  6.550770E+04  1.004092E+05 -4.291720E+04 -1.337746E+04
       382  23  2.760567E+05  5.004466E+04  2.907910E+04  1.133519E+05 -2.955644E+04 -2.048151E+03
       382  24  2.796270E+05  4.822078E+04  1.600597E+04  1.196953E+05 -1.434887E+04  4.403633E+03
       382  25  1.359181E+05  1.523279E+04  2.051108E+04  3.144476E+04 -3.418333E+04 -1.006856E+04
       382  26  1.298598E+05 -1.452035E+04 -6.778331E+03  6.246399E+04 -2.619839E+04 -7.758269E+02
       382  27  1.371728E+05  1.937239E+03 -1.497025E+04  8.688379E+04 -1.636606E+04  3.639642E+03
       383   1  4.024430E+05  9.889348E+04  4.081721E+04  1.527681E+05  1.133543E+04 -4.490298E+03
       383   2  3.878733E+05  8.819835E+04  3.102533E+04  1.460674E+05  7.477672E+03 -5.057894E+03
       383   3  3.704502E+05  8.372309E+04  2.444774E+04  1.436128E+05  3.528911E+03 -5.385184E+03
       383   4  2.775927E+05  5.177392E+04  1.247355E+04  1.173006E+05  1.206282E+04 -4.214947E+03
       383   5  2.788880E+05  4.758487E+04  6.539765E+03  1.155968E+05  8.470430E+03 -4.681949E+03
       383   6  2.772773E+05  4.956333E+04  3.610386E+03  1.181389E+05  4.786942E+03 -4.908666E+03
       383   7  1.527580E+05  4.655734E+03 -1.587111E+04  8.183976E+04  1.279005E+04 -3.939658E+03
       383   8  1.699150E+05  6.972497E+03 -1.794646E+04  8.513115E+04  9.462995E+03 -4.306078E+03
       383   9  1.841137E+05  1.540443E+04 -1.722734E+04  9.266857E+04  6.044760E+03 -4.432227E+03
       383  10  4.024429E+05  9.889343E+04  4.081693E+04  1.527681E+05  2.035842E-08  1.277821E-08
       383  11  3.878733E+05  8.819831E+04  3.102518E+04  1.460674E+05 -2.221003E-10  1.643795E-08
       383  12  3.704502E+05  8.372306E+04  2.444766E+04  1.436128E+05 -2.080671E-08  2.496137E-10
       383  13  2.775925E+05  5.177386E+04  1.247324E+04  1.173007E+05 -3.089132E-09 -1.846360E-09
       383  14  2.788879E+05  4.758483E+04  6.539589E+03  1.155968E+05 -5.791661E-09 -6.700422E-09
       383  15  2.772773E+05  4.956329E+04  3.610297E+03  1.181389E+05 -3.515938E-09  1.100882E-08
       383  16  1.527578E+05  4.655674E+03 -1.587144E+04  8.183981E+04 -3.152660E-08 -1.793109E-08
       383  17  1.699149E+05  6.972453E+03 -1.794666E+04  8.513118E+04 -9.899070E-09  6.889824E-09
       383  18  1.841137E+05  1.540440E+04 -1.722745E+04  9.266859E+04  1.632640E-08  1.400809E-08
       383  19  4.024430E+05  9.889348E+04  4.081721E+04  1.527681E+05 -1.133543E+04  4.490298E+03
       383  20  3.878733E+05  8.819835E+04  3.102533E+04  1.460674E+05 -7.477672E+03  5.057894E+03
       383  21  3.704502E+05  8.372309E+04  2.444774E+04  1.436128E+05 -3.528911E+03  5.385184E+03
       383  22  2.775927E+05  5.177392E+04  1.247355E+04  1.173006E+05 -1.206282E+04  4.214947E+03
       383  23  2.788880E+05  4.758487E+04  6.539765E+03  1.155968E+05 -8.470430E+03  4.681949E+03
       383  24  2.772773E+05  4.956333E+04  3.610386E+03  1.181389E+05 -4.786942E+03  4.908666E+03
       383  25  1.527580E+05  4.655734E+03 -1.587111E+04  8.183976E+04 -1.279005E+04  3.939658E+03
       383  26  1.699150E+05  6.972497E+03 -1.794646E+04  8.513115E+04 -9.462995E+03  4.306078E+03
       383  27  1.841137E+05  1.540443E+04 -1.722734E+04  9.266857E+04 -6.044760E+03  4.432227E+03
       384   1  3.579520E+05  7.962488E+04  2.076598E+04  1.404147E+05  2.835413E+03 -4.896207E+03
       384   2  3.436916E+05  7.148208E+04  1.594657E+04  1.336016E+05  1.662182E+03 -4.095133E+03
       384   3  3.254671E+05  6.755270E+04  1.171963E+04  1.314344E+05  4.845765E+02 -3.282723E+03
       384   4  2.771260E+05  4.971149E+04  2.729324E+03  1.180073E+05  4.028959E+03 -4.444080E+03
       384   5  2.791047E+05  4.757191E+04  1.500568E+03  1.156973E+05  2.868321E+03 -3.638182E+03
       384   6  2.771169E+05  4.964339E+04  8.544611E+02  1.180334E+05  1.703290E+03 -2.820956E+03
       384   7  1.963061E+05  1.979841E+04 -1.530789E+04  9.560230E+04  5.222345E+03 -3.992013E+03
       384   8  2.145218E+05  2.366198E+04 -1.294576E+04  9.779474E+04  4.074328E+03 -3.181282E+03
       384   9  2.287690E+05  3.173426E+04 -1.001085E+04  1.046333E+05  2.921901E+03 -2.359229E+03
       384  10  3.579520E+05  7.962485E+04  2.076592E+04  1.404148E+05  1.050969E-08  1.588068E-09
       384  11  3.436916E+05  7.148206E+04  1.594654E+04  1.336016E+05 -2.319784E-09 -9.246456E-09
       384  12  3.254671E+05  6.755268E+04  1.171961E+04  1.314344E+05 -2.330300E-08 -1.111251E-08
       384  13  2.771260E+05  4.971146E+04  2.729256E+03  1.180073E+05 -1.842395E-09  1.590979E-09
       384  14  2.791047E+05  4.757189E+04  1.500528E+03  1.156973E+05  4.998605E-09  1.445026E-09
       384  15  2.771169E+05  4.964338E+04  8.544407E+02  1.180334E+05 -3.206684E-09 -4.755335E-09
       384  16  1.963061E+05  1.979839E+04 -1.530797E+04  9.560232E+04 -1.040959E-08  3.914121E-09
       384  17  2.145218E+05  2.366196E+04 -1.294581E+04  9.779475E+04  5.227190E-09  6.653922E-09
       384  18  2.287690E+05  3.173425E+04 -1.001088E+04  1.046333E+05  2.192741E-08  8.402524E-09
       384  19  3.579520E+05  7.962488E+04  2.076598E+04  1.404147E+05 -2.835413E+03  4.896207E+03
       384  20  3.436916E+05  7.148208E+04  1.594657E+04  1.336016E+05 -1.662182E+03  4.095133E+03
       384  21  3.254671E+05  6.755270E+04  1.171963E+04  1.314344E+05 -4.845765E+02  3.282723E+03
       384  22  2.771260E+05  4.971149E+04  2.729324E+03  1.180073E+05 -4.028959E+03  4.444080E+03
       384  23  2.791047E+05  4.757191E+04  1.500568E+03  1.156973E+05 -2.868321E+03  3.638182E+03
       384  24  2.771169E+05  4.964339E+04  8.544611E+02  1.180334E+05 -1.703290E+03  2.820956E+03
       384  25  1.963061E+05  1.979841E+04 -1.530789E+04  9.560230E+04 -5.222345E+03  3.992013E+03
       384  26  2.145218E+05  2.366198E+04 -1.294576E+04  9.779474E+04 -4.074328E+03  3.181282E+03
       384  27  2.287690E+05  3.173426E+04 -1.001085E+04  1.046333E+05 -2.921901E+03  2.359229E+03
       385   1  3.133721E+05  6.307453E+04  8.723676E+03  1.280904E+05  1.184976E+02 -2.685661E+03
       385   2  2.991861E+05  5.502418E+04  4.915243E+03  1.212675E+05 -5.136874E+02 -1.663441E+03
       385   3  2.809327E+05  5.108106E+04  1.267454E+03  1.190846E+05 -1.146025E+03 -6.408366E+02
       385   4  2.770983E+05  4.964632E+04  6.631850E+02  1.180223E+05  1.333720E+03 -2.225199E+03
       385   5  2.791326E+05  4.759401E+04  4.297125E+02  1.157019E+05  7.019562E+02 -1.202807E+03
       385   6  2.770990E+05  4.964884E+04  3.565531E+02  1.180214E+05  7.003130E+01 -1.800277E+02
       385   7  2.408262E+05  3.621830E+04 -7.397319E+03  1.079547E+05  2.548857E+03 -1.764769E+03
       385   8  2.590795E+05  4.016387E+04 -4.055837E+03  1.101364E+05  1.917557E+03 -7.421883E+02
       385   9  2.732653E+05  4.821662E+04 -5.543495E+02  1.169583E+05  1.286087E+03  2.807810E+02
       385  10  3.133721E+05  6.307453E+04  8.723663E+03  1.280904E+05  2.069152E-08  1.250269E-08
       385  11  2.991861E+05  5.502418E+04  4.915238E+03  1.212675E+05  1.146583E-08  6.326163E-09
       385  12  2.809327E+05  5.108106E+04  1.267451E+03  1.190846E+05 -1.717414E-09 -4.070880E-09
       385  13  2.770983E+05  4.964631E+04  6.631724E+02  1.180223E+05 -9.069165E-10 -1.326568E-09
       385  14  2.791326E+05  4.759401E+04  4.297089E+02  1.157019E+05  1.375103E-09 -9.875106E-09
       385  15  2.770990E+05  4.964884E+04  3.565530E+02  1.180214E+05  1.297004E-10 -9.336861E-09
       385  16  2.408262E+05  3.621829E+04 -7.397337E+03  1.079547E+05 -1.988283E-08 -9.740766E-09
       385  17  2.590795E+05  4.016387E+04 -4.055845E+03  1.101364E+05 -9.760488E-09 -8.989569E-09
       385  18  2.732653E+05  4.821662E+04 -5.543527E+02  1.169583E+05  2.137318E-09 -2.213015E-09
       385  19  3.133721E+05  6.307453E+04  8.723676E+03  1.280904E+05 -1.184976E+02  2.685661E+03
       385  20  2.991861E+05  5.502418E+04  4.915243E+03  1.212675E+05  5.136874E+02  1.663441E+03
       385  21  2.809327E+05  5.108106E+04  1.267454E+03  1.190846E+05  1.146025E+03  6.408366E+02
       385  22  2.770983E+05  4.964632E+04  6.631850E+02  1.180223E+05 -1.333720E+03  2.225199E+03
       385  23  2.791326E+05  4.759401E+04  4.297125E+02  1.157019E+05 -7.019562E+02  1.202807E+03
       385  24  2.770990E+05  4.964884E+04  3.565531E+02  1.180214E+05 -7.003130E+01  1.800277E+02
       385  25  2.408262E+05  3.621830E+04 -7.397319E+03  1.079547E+05 -2.548857E+03  1.764769E+03
       385  26  2.590795E+05  4.016387E+04 -4.055837E+03  1.101364E+05 -1.917557E+03  7.421883E+02
       385  27  2.732653E+05  4.821662E+04 -5.543495E+02  1.169583E+05 -1.286087E+03 -2.807810E+02
       386   1  2.688751E+05  4.659058E+04 -1.525226E+03  1.157408E+05 -1.449869E+03 -2.120396E+01
       386   2  2.546853E+05  3.853744E+04 -4.975735E+03  1.089201E+05 -2.112351E+03  9.900276E+02
       386   3  2.364329E+05  3.459335E+04 -8.242732E+03  1.067410E+05 -2.774640E+03  2.000931E+03
       386   4  2.771001E+05  4.964906E+04  3.677522E+02  1.180218E+05 -2.338271E+02  4.396001E+02
       386   5  2.791310E+05  4.759243E+04  4.919102E+02  1.157019E+05 -8.967188E+02  1.450656E+03
       386   6  2.770993E+05  4.964485E+04  7.998806E+02  1.180233E+05 -1.559424E+03  2.461380E+03
       386   7  2.853250E+05  5.270755E+04  2.260731E+03  1.203029E+05  9.822326E+02  9.004107E+02
       386   8  3.035773E+05  5.664743E+04  5.959501E+03  1.224839E+05  3.189613E+02  1.911302E+03
       386   9  3.177670E+05  6.469638E+04  9.842323E+03  1.293062E+05 -3.441287E+02  2.921859E+03
       386  10  2.688751E+05  4.659058E+04 -1.525230E+03  1.157408E+05  3.963561E-08  1.841915E-08
       386  11  2.546853E+05  3.853744E+04 -4.975745E+03  1.089201E+05 -5.417030E-09  4.218203E-09
       386  12  2.364329E+05  3.459335E+04 -8.242754E+03  1.067410E+05 -5.020158E-08 -4.155245E-10
       386  13  2.771001E+05  4.964906E+04  3.677518E+02  1.180218E+05  1.487234E-09  3.750422E-09
       386  14  2.791310E+05  4.759243E+04  4.919047E+02  1.157019E+05 -1.722140E-09 -2.019188E-09
       386  15  2.770993E+05  4.964484E+04  7.998647E+02  1.180233E+05 -3.637228E-09  5.453011E-11
       386  16  2.853250E+05  5.270755E+04  2.260728E+03  1.203029E+05 -3.477946E-08 -1.473657E-08
       386  17  3.035773E+05  5.664743E+04  5.959494E+03  1.224838E+05  9.901735E-09  3.521220E-09
       386  18  3.177670E+05  6.469637E+04  9.842307E+03  1.293062E+05  4.798779E-08  2.160788E-08
       386  19  2.688751E+05  4.659058E+04 -1.525226E+03  1.157408E+05  1.449869E+03  2.120396E+01
       386  20  2.546853E+05  3.853744E+04 -4.975735E+03  1.089201E+05  2.112351E+03 -9.900276E+02
       386  21  2.364329E+05  3.459335E+04 -8.242732E+03  1.067410E+05  2.774640E+03 -2.000931E+03
       386  22  2.771001E+05  4.964906E+04  3.677522E+02  1.180218E+05  2.338271E+02 -4.396001E+02
       386  23  2.791310E+05  4.759243E+04  4.919102E+02  1.157019E+05  8.967188E+02 -1.450656E+03
       386  24  2.770993E+05  4.964485E+04  7.998806E+02  1.180233E+05  1.559424E+03 -2.461380E+03
       386  25  2.853250E+05  5.270755E+04  2.260731E+03  1.203029E+05 -9.822326E+02 -9.004107E+02
       386  26  3.035773E+05  5.664743E+04  5.959501E+03  1.224839E+05 -3.189613E+02 -1.911302E+03
       386  27  3.177670E+05  6.469638E+04  9.842323E+03  1.293062E+05  3.441287E+02 -2.921859E+03
       387   1  2.243751E+05  3.011079E+04 -1.080532E+04  1.034251E+05 -3.174789E+03  2.585241E+03
       387   2  2.101078E+05  2.203556E+04 -1.357817E+04  9.658456E+04 -4.501842E+03  3.341211E+03
       387   3  1.919041E+05  1.819480E+04 -1.564204E+04  9.439244E+04 -5.824366E+03  4.085543E+03
       387   4  2.771229E+05  4.964114E+04  1.042734E+03  1.180369E+05 -1.955967E+03  3.047034E+03
       387   5  2.790954E+05  4.756485E+04  1.851455E+03  1.156965E+05 -3.295973E+03  3.798046E+03
       387   6  2.771342E+05  4.972570E+04  3.379464E+03  1.180045E+05 -4.631474E+03  4.537411E+03
       387   7  3.298739E+05  6.917185E+04  1.289071E+04  1.326499E+05 -7.370255E+02  3.508873E+03
       387   8  3.480880E+05  7.309461E+04  1.728085E+04  1.348104E+05 -2.089956E+03  4.254937E+03
       387   9  3.623716E+05  8.125718E+04  2.240052E+04  1.416194E+05 -3.438404E+03  4.989346E+03
       387  10  2.243751E+05  3.011078E+04 -1.080535E+04  1.034251E+05  6.174224E-10  1.801321E-08
       387  11  2.101077E+05  2.203554E+04 -1.357823E+04  9.658457E+04  2.783097E-09  9.074007E-09
       387  12  1.919041E+05  1.819478E+04 -1.564213E+04  9.439246E+04 -2.249342E-09  7.382826E-09
       387  13  2.771229E+05  4.964113E+04  1.042709E+03  1.180369E+05 -2.648461E-09  4.078642E-09
       387  14  2.790954E+05  4.756483E+04  1.851408E+03  1.156965E+05  1.037480E-10 -7.561982E-09
       387  15  2.771342E+05  4.972568E+04  3.379385E+03  1.180045E+05 -9.892950E-10  1.008678E-09
       387  16  3.298738E+05  6.917183E+04  1.289069E+04  1.326499E+05 -5.576006E-09  3.267139E-10
       387  17  3.480880E+05  7.309459E+04  1.728081E+04  1.348104E+05 -1.640610E-09 -6.819846E-09
       387  18  3.623716E+05  8.125715E+04  2.240045E+04  1.416195E+05 -4.299204E-10 -3.957730E-09
       387  19  2.243751E+05  3.011079E+04 -1.080532E+04  1.034251E+05  3.174789E+03 -2.585241E+03
       387  20  2.101078E+05  2.203556E+04 -1.357817E+04  9.658456E+04  4.501842E+03 -3.341211E+03
       387  21  1.919041E+05  1.819480E+04 -1.564204E+04  9.439244E+04  5.824366E+03 -4.085543E+03
       387  22  2.771229E+05  4.964114E+04  1.042734E+03  1.180369E+05  1.955967E+03 -3.047034E+03
       387  23  2.790954E+05  4.756485E+04  1.851455E+03  1.156965E+05  3.295973E+03 -3.798046E+03
       387  24  2.771342E+05  4.972570E+04  3.379464E+03  1.180045E+05  4.631474E+03 -4.537411E+03
       387  25  3.298739E+05  6.917185E+04  1.289071E+04  1.326499E+05  7.370255E+02 -3.508873E+03
       387  26  3.480880E+05  7.309461E+04  1.728085E+04  1.348104E+05  2.089956E+03 -4.254937E+03
       387  27  3.623716E+05  8.125718E+04  2.240052E+04  1.416194E+05  3.438404E+03 -4.989346E+03
       388   1  1.796863E+05  1.382708E+04 -1.734841E+04  9.156039E+04 -6.770067E+03  4.479574E+03
       388   2  1.654799E+05  5.307252E+03 -1.736555E+04  8.385096E+04 -1.097120E+04  4.054770E+03
       388   3  1.486023E+05  3.400531E+03 -1.387189E+04  8.029684E+04 -1.507880E+04  3.383745E+03
       388   4  2.773226E+05  4.954267E+04  4.473571E+03  1.181685E+05 -5.511077E+03  4.956443E+03
       388   5  2.788270E+05  4.758044E+04  8.107513E+03  1.155711E+05 -9.984208E+03  4.428508E+03
       388   6  2.777135E+05  5.228466E+04  1.546735E+04  1.171287E+05 -1.436395E+04  3.654319E+03
       388   7  3.749680E+05  8.525872E+04  2.629479E+04  1.447803E+05 -4.251881E+03  5.433387E+03
       388   8  3.921870E+05  8.985467E+04  3.357976E+04  1.472966E+05 -8.997020E+03  4.802320E+03
       388   9  4.068423E+05  1.011706E+05  4.480573E+04  1.539679E+05 -1.364893E+04  3.924959E+03
       388  10  1.796862E+05  1.382705E+04 -1.734854E+04  9.156041E+04 -3.826779E-10  9.156385E-09
       388  11  1.654797E+05  5.307202E+03 -1.736581E+04  8.385099E+04 -8.759913E-10  4.143470E-09
       388  12  1.486020E+05  3.400458E+03 -1.387234E+04  8.029688E+04 -3.992864E-09  8.208089E-09
       388  13  2.773226E+05  4.954264E+04  4.473467E+03  1.181685E+05 -1.707040E-09 -1.137109E-09
       388  14  2.788268E+05  4.758039E+04  8.107289E+03  1.155711E+05 -3.174053E-09 -6.570471E-10
       388  15  2.777133E+05  5.228459E+04  1.546694E+04  1.171287E+05 -1.073883E-09  4.454899E-09
       388  16  3.749679E+05  8.525868E+04  2.629470E+04  1.447803E+05 -2.037903E-09  9.187701E-10
       388  17  3.921869E+05  8.985463E+04  3.357957E+04  1.472966E+05 -4.231300E-09  3.539826E-09
       388  18  4.068421E+05  1.011705E+05  4.480535E+04  1.539679E+05 -1.174424E-09  6.256264E-09
       388  19  1.796863E+05  1.382708E+04 -1.734841E+04  9.156039E+04  6.770067E+03 -4.479574E+03
       388  20  1.654799E+05  5.307252E+03 -1.736555E+04  8.385096E+04  1.097120E+04 -4.054770E+03
       388  21  1.486023E+05  3.400531E+03 -1.387189E+04  8.029684E+04  1.507880E+04 -3.383745E+03
       388  22  2.773226E+05  4.954267E+04  4.473571E+03  1.181685E+05  5.511077E+03 -4.956443E+03
       388  23  2.788270E+05  4.758044E+04  8.107513E+03  1.155711E+05  9.984208E+03 -4.428508E+03
       388  24  2.777135E+05  5.228466E+04  1.546735E+04  1.171287E+05  1.436395E+04 -3.654319E+03
       388  25  3.749680E+05  8.525872E+04  2.629479E+04  1.447803E+05  4.251881E+03 -5.433387E+03
       388  26  3.921870E+05  8.985467E+04  3.357976E+04  1.472966E+05  8.997020E+03 -4.802320E+03
       388  27  4.068423E+05  1.011706E+05  4.480573E+04  1.539679E+05  1.364893E+04 -3.924959E+03
       389   1  1.322044E+05  1.122831E+03 -1.211845E+04  8.737769E+04 -1.915496E+04  2.902466E+03
       389   2  1.264817E+05 -1.734771E+04 -8.216353E+02  5.867256E+04 -3.254193E+04 -2.907142E+03
       389   3  1.385193E+05  2.077170E+04  3.507468E+04  2.071367E+04 -4.403583E+04 -1.371546E+04
       389   4  2.802281E+05  4.788688E+04  1.984816E+04  1.201070E+05 -1.711773E+04  3.674100E+03
       389   5  2.753270E+05  5.062126E+04  3.606030E+04  1.127764E+05 -3.601514E+04 -4.223319E+03
       389   6  2.892715E+05  1.110271E+05  8.123617E+04  9.619397E+04 -5.301978E+04 -1.711988E+04
       389   7  4.282743E+05  9.465146E+04  5.181368E+04  1.528430E+05 -1.507997E+04  4.445869E+03
       389   8  4.241935E+05  1.185947E+05  7.294019E+04  1.668927E+05 -3.948923E+04 -5.540000E+03
       389   9  4.400452E+05  2.012946E+05  1.273949E+05  1.716925E+05 -6.200589E+04 -2.052633E+04
       389  10  1.322040E+05  1.122724E+03 -1.211915E+04  8.737773E+04  4.247845E-09  2.401901E-09
       389  11  1.264805E+05 -1.734800E+04 -8.236407E+02  5.867249E+04  9.013854E-09 -6.311338E-09
       389  12  1.385172E+05  2.077097E+04  3.507068E+04  2.071319E+04  6.161202E-09 -1.143220E-09
       389  13  2.802277E+05  4.788679E+04  1.984758E+04  1.201071E+05 -1.792621E-10 -3.480601E-09
       389  14  2.753256E+05  5.062089E+04  3.605783E+04  1.127763E+05  4.658706E-09  3.254657E-09
       389  15  2.892684E+05  1.110261E+05  8.123034E+04  9.619324E+04  6.029025E-10 -4.237013E-09
       389  16  4.282740E+05  9.465138E+04  5.181322E+04  1.528431E+05 -7.882007E-09  5.933338E-09
       389  17  4.241918E+05  1.185942E+05  7.293721E+04  1.668925E+05 -3.228371E-09 -5.919240E-09
       389  18  4.400410E+05  2.012931E+05  1.273869E+05  1.716915E+05 -4.768005E-09  6.005563E-09
       389  19  1.322044E+05  1.122831E+03 -1.211845E+04  8.737769E+04  1.915496E+04 -2.902466E+03
       389  20  1.264817E+05 -1.734771E+04 -8.216353E+02  5.867256E+04  3.254193E+04  2.907142E+03
       389  21  1.385193E+05  2.077170E+04  3.507468E+04  2.071367E+04  4.403583E+04  1.371546E+04
       389  22  2.802281E+05  4.788688E+04  1.984816E+04  1.201070E+05  1.711773E+04 -3.674100E+03
       389  23  2.753270E+05  5.062126E+04  3.606030E+04  1.127764E+05  3.601514E+04  4.223319E+03
       389  24  2.892715E+05  1.110271E+05  8.123617E+04  9.619397E+04  5.301978E+04  1.711988E+04
       389  25  4.282743E+05  9.465146E+04  5.181368E+04  1.528430E+05  1.507997E+04 -4.445869E+03
       389  26  4.241935E+05  1.185947E+05  7.294019E+04  1.668927E+05  3.948923E+04  5.540000E+03
       389  27  4.400452E+05  2.012946E+05  1.273949E+05  1.716925E+05  6.200589E+04  2.052633E+04
       390   1 -1.094312E+05 -5.324357E+05 -1.082298E+05  9.076190E+04 -4.309573E+03 -2.508979E+04
       390   2 -6.949158E+04 -4.207166E+05 -6.730867E+04  6.922469E+04 -1.242027E+04 -8.790047E+03
       390   3 -4.158251E+04 -3.138420E+05 -3.997525E+04  8.236502E+04 -9.684891E+03  7.545850E+03
       390   4 -1.245122E+04 -1.421923E+05 -1.397598E+04  8.338673E+04 -4.355703E+03 -9.243208E+03
       390   5 -1.390035E+03 -1.408620E+05 -6.846298E+03  6.606600E+04 -1.242875E+04 -5.687495E+03
       390   6 -1.423134E+02 -1.421725E+05 -4.447149E+03  8.342268E+04 -9.657720E+03 -2.098784E+03
       390   7  8.451798E+04  2.481910E+05  8.026794E+04  7.600699E+04 -4.402196E+03  6.613305E+03
       390   8  6.670638E+04  1.390662E+05  5.361149E+04  6.290592E+04 -1.243727E+04 -2.583563E+03
       390   9  4.129607E+04  2.952520E+04  3.107970E+04  8.448066E+04 -9.630585E+03 -1.174604E+04
       390  10 -1.094314E+05 -5.324363E+05 -1.082311E+05  9.076182E+04 -1.013042E-09  1.023426E-09
       390  11 -6.949176E+04 -4.207167E+05 -6.730911E+04  6.922460E+04 -4.250572E-09  4.942782E-09
       390  12 -4.158262E+04 -3.138420E+05 -3.997553E+04  8.236507E+04 -7.819266E-10  4.255540E-09
       390  13 -1.245126E+04 -1.421924E+05 -1.397617E+04  8.338669E+04 -8.024367E-10 -4.463906E-09
       390  14 -1.390209E+03 -1.408621E+05 -6.846649E+03  6.606595E+04 -7.560933E-09 -4.372581E-09
       390  15 -1.424147E+02 -1.421725E+05 -4.447332E+03  8.342267E+04 -1.607494E-09 -1.794884E-08
       390  16  8.451795E+04  2.481909E+05  8.026782E+04  7.600701E+04 -2.124996E-09  1.130817E-09
       390  17  6.670621E+04  1.390661E+05  5.361118E+04  6.290590E+04 -5.539463E-09 -4.990690E-09
       390  18  4.129593E+04  2.952503E+04  3.107927E+04  8.448057E+04 -2.334772E-09 -5.481756E-09
       390  19 -1.094312E+05 -5.324357E+05 -1.082298E+05  9.076190E+04  4.309573E+03  2.508979E+04
       390  20 -6.949158E+04 -4.207166E+05 -6.730867E+04  6.922469E+04  1.242027E+04  8.790047E+03
       390  21 -4.158251E+04 -3.138420E+05 -3.997525E+04  8.236502E+04  9.684891E+03 -7.545850E+03
       390  22 -1.245122E+04 -1.421923E+05 -1.397598E+04  8.338673E+04  4.355703E+03  9.243208E+03
       390  23 -1.390035E+03 -1.408620E+05 -6.846298E+03  6.606600E+04  1.242875E+04  5.687495E+03
       390  24 -1.423134E+02 -1.421725E+05 -4.447149E+03  8.342268E+04  9.657720E+03  2.098784E+03
       390  25  8.451798E+04  2.481910E+05  8.026794E+04  7.600699E+04  4.402196E+03 -6.613305E+03
       390  26  6.670638E+04  1.390662E+05  5.361149E+04  6.290592E+04  1.243727E+04  2.583563E+03
       390  27  4.129607E+04  2.952520E+04  3.107970E+04  8.448066E+04  9.630585E+03  1.174604E+04
       391   1 -2.321088E+04 -2.338374E+05 -2.310908E+04  8.401691E+04 -5.056165E+03  5.743460E+03
       391   2  3.702699E+03 -1.244579E+05  3.615550E+01  6.587810E+04  1.015996E+03  7.421881E+03
       391   3  2.947813E+04 -1.530848E+04  2.186586E+04  8.297726E+04  7.041495E+03  9.100556E+03
       391   4 -9.249698E+02 -1.416372E+05 -3.912418E+03  8.353926E+04 -5.036215E+03 -1.428702E+03
       391   5 -4.029499E+02 -1.415123E+05 -3.434467E+03  6.592006E+04  1.035875E+03  3.040927E+02
       391   6 -1.027872E+03 -1.416384E+05 -4.309545E+03  8.353897E+04  7.061266E+03  2.036861E+03
       391   7  2.136043E+04 -4.942874E+04  1.528397E+04  8.306154E+04 -5.016257E+03 -8.601911E+03
       391   8 -4.508589E+03 -1.585663E+05 -6.904914E+03  6.596202E+04  1.055752E+03 -6.813504E+03
       391   9 -3.153486E+04 -2.679530E+05 -3.048563E+04  8.410058E+04  7.081027E+03 -5.025423E+03
       391  10 -2.321092E+04 -2.338375E+05 -2.310919E+04  8.401693E+04 -2.779615E-10  9.874356E-10
       391  11  3.702683E+03 -1.244580E+05  3.605003E+01  6.587809E+04  1.881582E-09 -6.567995E-11
       391  12  2.947806E+04 -1.530858E+04  2.186561E+04  8.297721E+04  1.088630E-09 -2.134348E-09
       391  13 -9.249975E+02 -1.416372E+05 -3.912469E+03  8.353925E+04 -5.112322E-11 -8.441282E-09
       391  14 -4.029510E+02 -1.415123E+05 -3.434469E+03  6.592006E+04  2.503471E-09  1.116297E-09
       391  15 -1.027926E+03 -1.416384E+05 -4.309647E+03  8.353896E+04  4.566784E-09 -1.730370E-08
       391  16  2.136038E+04 -4.942883E+04  1.528378E+04  8.306151E+04 -3.164303E-10  8.038346E-11
       391  17 -4.508603E+03 -1.585663E+05 -6.905004E+03  6.596202E+04 -1.949611E-09 -4.736823E-10
       391  18 -3.153492E+04 -2.679530E+05 -3.048577E+04  8.410061E+04  3.425661E-09  5.316220E-09
       391  19 -2.321088E+04 -2.338374E+05 -2.310908E+04  8.401691E+04  5.056165E+03 -5.743460E+03
       391  20  3.702699E+03 -1.244579E+05  3.615550E+01  6.587810E+04 -1.015996E+03 -7.421881E+03
       391  21  2.947813E+04 -1.530848E+04  2.186586E+04  8.297726E+04 -7.041495E+03 -9.100556E+03
       391  22 -9.249698E+02 -1.416372E+05 -3.912418E+03  8.353926E+04  5.036215E+03  1.428702E+03
       391  23 -4.029499E+02 -1.415123E+05 -3.434467E+03  6.592006E+04 -1.035875E+03 -3.040927E+02
       391  24 -1.027872E+03 -1.416384E+05 -4.309545E+03  8.353897E+04 -7.061266E+03 -2.036861E+03
       391  25  2.136043E+04 -4.942874E+04  1.528397E+04  8.306154E+04  5.016257E+03  8.601911E+03
       391  26 -4.508589E+03 -1.585663E+05 -6.904914E+03  6.596202E+04 -1.055752E+03  6.813504E+03
       391  27 -3.153486E+04 -2.679530E+05 -3.048563E+04  8.410058E+04 -7.081027E+03  5.025423E+03
       392   1  4.958317E+04  6.355165E+04  3.743688E+04  8.468894E+04  1.168764E+04  1.253732E+04
       392   2  7.475694E+04  1.732804E+05  5.958473E+04  6.234649E+04  1.415571E+04  2.999359E+03
       392   3  9.061732E+04  2.822192E+05  8.567353E+04  7.462618E+04  4.915970E+03 -6.576040E+03
       392   4 -7.523691E+01 -1.422972E+05 -5.050132E+03  8.341233E+04  1.171531E+04  2.779647E+03
       392   5 -1.594659E+03 -1.407124E+05 -8.071741E+03  6.607867E+04  1.414461E+04  7.011903E+03
       392   6 -1.481987E+04 -1.423196E+05 -1.671540E+04  8.336894E+04  4.863273E+03  1.120815E+04
       392   7 -4.973626E+04 -3.481057E+05 -4.753907E+04  8.213618E+04  1.174302E+04 -6.974845E+03
       392   8 -7.795269E+04 -4.546126E+05 -7.573395E+04  6.980900E+04  1.413355E+04  1.102244E+04
       392   9 -1.202698E+05 -5.666927E+05 -1.191160E+05  9.210582E+04  4.811059E+03  2.898022E+04
       392  10  4.958298E+04  6.355145E+04  3.743633E+04  8.468883E+04  2.313857E-09  9.690359E-10
       392  11  7.475672E+04  1.732804E+05  5.958434E+04  6.234645E+04  1.974247E-09  3.693612E-09
       392  12  9.061728E+04  2.822191E+05  8.567340E+04  7.462620E+04 -1.809056E-10  4.180778E-09
       392  13 -7.538635E+01 -1.422973E+05 -5.050404E+03  8.341231E+04  7.400144E-10 -4.221864E-09
       392  14 -1.594887E+03 -1.407125E+05 -8.072209E+03  6.607859E+04  2.171141E-09 -5.355361E-09
       392  15 -1.481993E+04 -1.423197E+05 -1.671568E+04  8.336890E+04 -6.132406E-10 -1.842067E-08
       392  16 -4.973642E+04 -3.481058E+05 -4.753943E+04  8.213624E+04  3.459396E-09 -9.314072E-10
       392  17 -7.795294E+04 -4.546128E+05 -7.573455E+04  6.980887E+04  7.927823E-10 -2.559486E-09
       392  18 -1.202700E+05 -5.666936E+05 -1.191176E+05  9.210571E+04 -1.141730E-09  1.835315E-09
       392  19  4.958317E+04  6.355165E+04  3.743688E+04  8.468894E+04 -1.168764E+04 -1.253732E+04
       392  20  7.475694E+04  1.732804E+05  5.958473E+04  6.234649E+04 -1.415571E+04 -2.999359E+03
       392  21  9.061732E+04  2.822192E+05  8.567353E+04  7.462618E+04 -4.915970E+03  6.576040E+03
       392  22 -7.523691E+01 -1.422972E+05 -5.050132E+03  8.341233E+04 -1.171531E+04 -2.779647E+03
       392  23 -1.594659E+03 -1.407124E+05 -8.071741E+03  6.607867E+04 -1.414461E+04 -7.011903E+03
       392  24 -1.481987E+04 -1.423196E+05 -1.671540E+04  8.336894E+04 -4.863273E+03 -1.120815E+04
       392  25 -4.973626E+04 -3.481057E+05 -4.753907E+04  8.213618E+04 -1.174302E+04  6.974845E+03
       392  26 -7.795269E+04 -4.546126E+05 -7.573395E+04  6.980900E+04 -1.413355E+04 -1.102244E+04
       392  27 -1.202698E+05 -5.666927E+05 -1.191160E+05  9.210582E+04 -4.811059E+03 -2.898022E+04
       393   1  7.585557E+04 -1.553239E+05 -1.462752E+05 -3.206045E+04 -2.175216E+04  9.740621E+03
       393   2  1.312134E+05 -1.542810E+05 -1.264805E+05 -2.952908E+04 -5.537967E+03  3.155420E+04
       393   3  1.873163E+05 -1.423067E+05 -1.144932E+05 -4.395226E+04  1.069638E+04  3.516953E+04
       393   4  7.757711E+05  1.806024E+04  2.114743E+04 -4.147691E+04  1.459799E+04  9.772774E+03
       393   5  7.735596E+05  1.389310E+03  9.864993E+03 -3.299324E+04  9.409187E+03  3.156276E+04
       393   6  7.757999E+05 -6.427950E+02  5.629593E+03 -4.146311E+04  4.238781E+03  3.516332E+04
       393   7  1.476138E+06  1.914100E+05  1.885406E+05 -5.090411E+04  5.098892E+04  9.803806E+03
       393   8  1.416295E+06  1.570330E+05  1.461878E+05 -3.646109E+04  2.437156E+04  3.157115E+04
       393   9  1.364613E+06  1.409995E+05  1.257343E+05 -3.897158E+04 -2.224829E+03  3.515707E+04
       393  10  7.585504E+04 -1.553241E+05 -1.462763E+05 -3.206028E+04  4.522794E-10 -3.876138E-11
       393  11  1.312131E+05 -1.542821E+05 -1.264824E+05 -2.952894E+04  7.998074E-10 -3.707480E-11
       393  12  1.873159E+05 -1.423080E+05 -1.144957E+05 -4.395257E+04 -2.300190E-10  2.176633E-10
       393  13  7.757709E+05  1.806008E+04  2.114685E+04 -4.147703E+04  5.169354E-10 -1.813190E-11
       393  14  7.735592E+05  1.388216E+03  9.862954E+03 -3.299348E+04  1.864254E-10 -7.734951E-11
       393  15  7.757996E+05 -6.441281E+02  5.627235E+03 -4.146323E+04  8.248745E-10  2.156357E-10
       393  16  1.476136E+06  1.914092E+05  1.885355E+05 -5.090451E+04 -1.815609E-10 -6.871313E-11
       393  17  1.416294E+06  1.570318E+05  1.461848E+05 -3.646171E+04 -2.803544E-10 -2.852196E-11
       393  18  1.364612E+06  1.409981E+05  1.257319E+05 -3.897152E+04  2.971641E-10  1.643209E-10
       393  19  7.585557E+04 -1.553239E+05 -1.462752E+05 -3.206045E+04  2.175216E+04 -9.740621E+03
       393  20  1.312134E+05 -1.542810E+05 -1.264805E+05 -2.952908E+04  5.537967E+03 -3.155420E+04
       393  21  1.873163E+05 -1.423067E+05 -1.144932E+05 -4.395226E+04 -1.069638E+04 -3.516953E+04
       393  22  7.757711E+05  1.806024E+04  2.114743E+04 -4.147691E+04 -1.459799E+04 -9.772774E+03
       393  23  7.735596E+05  1.389310E+03  9.864993E+03 -3.299324E+04 -9.409187E+03 -3.156276E+04
       393  24  7.757999E+05 -6.427950E+02  5.629593E+03 -4.146311E+04 -4.238781E+03 -3.516332E+04
       393  25  1.476138E+06  1.914100E+05  1.885406E+05 -5.090411E+04 -5.098892E+04 -9.803806E+03
       393  26  1.416295E+06  1.570330E+05  1.461878E+05 -3.646109E+04 -2.437156E+04 -3.157115E+04
       393  27  1.364613E+06  1.409995E+05  1.257343E+05 -3.897158E+04  2.224829E+03 -3.515707E+04
       394   1  2.270428E+05 -1.313108E+05 -1.077392E+05 -4.161815E+04  5.528884E+03  3.233087E+04
       394   2  2.820827E+05 -1.185359E+05 -9.762450E+04 -3.286957E+04  5.469228E+03  3.009486E+04
       394   3  3.373162E+05 -1.053129E+05 -8.734172E+04 -4.187689E+04  5.408448E+03  2.688337E+04
       394   4  7.749058E+05  6.304532E+02  4.400769E+03 -4.164443E+04  3.474619E+03  3.232766E+04
       394   5  7.747198E+05 -5.528391E+01  2.423933E+03 -3.276679E+04  2.266563E+03  3.009184E+04
       394   6  7.749235E+05 -9.370064E+01  1.411816E+03 -4.164419E+04  1.057390E+03  2.688092E+04
       394   7  1.323054E+06  1.325529E+05  1.165248E+05 -4.167075E+04  1.418574E+03  3.232445E+04
       394   8  1.267588E+06  1.184103E+05  1.024597E+05 -3.266394E+04 -9.385942E+02  3.008882E+04
       394   9  1.212713E+06  1.051136E+05  9.015546E+04 -4.141132E+04 -3.296675E+03  2.687847E+04
       394  10  2.270425E+05 -1.313120E+05 -1.077412E+05 -4.161829E+04  3.219110E-10  2.196626E-10
       394  11  2.820824E+05 -1.185369E+05 -9.762626E+04 -3.286970E+04  4.826501E-10  4.221328E-11
       394  12  3.373160E+05 -1.053136E+05 -8.734313E+04 -4.187700E+04 -3.149108E-10 -7.599125E-11
       394  13  7.749055E+05  6.293273E+02  4.398782E+03 -4.164452E+04  3.129201E-10  2.547101E-10
       394  14  7.747196E+05 -5.625802E+01  2.422221E+03 -3.276684E+04  4.436003E-11 -8.462155E-11
       394  15  7.749233E+05 -9.447716E+01  1.410456E+03 -4.164421E+04  2.991994E-10  9.832295E-11
       394  16  1.323053E+06  1.325518E+05  1.165229E+05 -4.167079E+04 -1.366971E-10  1.323711E-10
       394  17  1.267587E+06  1.184093E+05  1.024580E+05 -3.266392E+04 -1.616460E-10 -4.390726E-11
       394  18  1.212713E+06  1.051128E+05  9.015408E+04 -4.141125E+04  2.617685E-10  1.649641E-10
       394  19  2.270428E+05 -1.313108E+05 -1.077392E+05 -4.161815E+04 -5.528884E+03 -3.233087E+04
       394  20  2.820827E+05 -1.185359E+05 -9.762450E+04 -3.286957E+04 -5.469228E+03 -3.009486E+04
       394  21  3.373162E+05 -1.053129E+05 -8.734172E+04 -4.187689E+04 -5.408448E+03 -2.688337E+04
       394  22  7.749058E+05  6.304532E+02  4.400769E+03 -4.164443E+04 -3.474619E+03 -3.232766E+04
       394  23  7.747198E+05 -5.528391E+01  2.423933E+03 -3.276679E+04 -2.266563E+03 -3.009184E+04
       394  24  7.749235E+05 -9.370064E+01  1.411816E+03 -4.164419E+04 -1.057390E+03 -2.688092E+04
       394  25  1.323054E+06  1.325529E+05  1.165248E+05 -4.167075E+04 -1.418574E+03 -3.232445E+04
       394  26  1.267588E+06  1.184103E+05  1.024597E+05 -3.266394E+04  9.385942E+02 -3.008882E+04
       394  27  1.212713E+06  1.051136E+05  9.015546E+04 -4.141132E+04  3.296675E+03 -2.687847E+04
       395   1  3.770467E+05 -9.563474E+04 -7.935301E+04 -4.172720E+04  4.943567E+03  2.475182E+04
       395   2  4.318281E+05 -8.248384E+04 -6.877925E+04 -3.283596E+04  4.677602E+03  2.123761E+04
       395   3  4.866830E+05 -6.931308E+04 -5.801972E+04 -4.164745E+04  4.410390E+03  1.767604E+04
       395   4  7.748618E+05 -3.374961E+01  1.087792E+03 -4.163250E+04  8.372904E+02  2.474992E+04
       395   5  7.748273E+05 -4.300333E+01  6.536525E+02 -3.278143E+04  5.152823E+02  2.123637E+04
       395   6  7.748737E+05 -2.232507E+01  4.443275E+02 -4.163251E+04  1.920506E+02  1.767548E+04
       395   7  1.172828E+06  9.555744E+04  8.152048E+04 -4.153775E+04 -3.271566E+03  2.474802E+04
       395   8  1.117938E+06  8.239054E+04  7.008053E+04 -3.272687E+04 -3.649292E+03  2.123513E+04
       395   9  1.063143E+06  6.926327E+04  5.890412E+04 -4.161756E+04 -4.028209E+03  1.767492E+04
       395  10  3.770465E+05 -9.563540E+04 -7.935421E+04 -4.172730E+04  1.392673E-10 -1.176994E-10
       395  11  4.318280E+05 -8.248433E+04 -6.878014E+04 -3.283604E+04  1.563696E-10  1.680557E-12
       395  12  4.866829E+05 -6.931342E+04 -5.802034E+04 -4.164751E+04 -2.687692E-10 -1.904876E-11
       395  13  7.748617E+05 -3.440782E+01  1.086639E+03 -4.163252E+04  6.399874E-11  6.541513E-11
       395  14  7.748271E+05 -4.348786E+01  6.528042E+02 -3.278144E+04  2.097172E-11 -9.492755E-11
       395  15  7.748737E+05 -2.266069E+01  4.437401E+02 -4.163251E+04  4.442982E-12  5.238772E-11
       395  16  1.172827E+06  9.555678E+04  8.151931E+04 -4.153768E+04 -2.065794E-10  8.812075E-11
       395  17  1.117938E+06  8.239006E+04  7.007966E+04 -3.272681E+04  1.712360E-11 -8.835638E-11
       395  18  1.063143E+06  6.926293E+04  5.890350E+04 -4.161750E+04  2.309076E-10  3.229352E-11
       395  19  3.770467E+05 -9.563474E+04 -7.935301E+04 -4.172720E+04 -4.943567E+03 -2.475182E+04
       395  20  4.318281E+05 -8.248384E+04 -6.877925E+04 -3.283596E+04 -4.677602E+03 -2.123761E+04
       395  21  4.866830E+05 -6.931308E+04 -5.801972E+04 -4.164745E+04 -4.410390E+03 -1.767604E+04
       395  22  7.748618E+05 -3.374961E+01  1.087792E+03 -4.163250E+04 -8.372904E+02 -2.474992E+04
       395  23  7.748273E+05 -4.300333E+01  6.536525E+02 -3.278143E+04 -5.152823E+02 -2.123637E+04
       395  24  7.748737E+05 -2.232507E+01  4.443275E+02 -4.163251E+04 -1.920506E+02 -1.767548E+04
       395  25  1.172828E+06  9.555744E+04  8.152048E+04 -4.153775E+04  3.271566E+03 -2.474802E+04
       395  26  1.117938E+06  8.239054E+04  7.008053E+04 -3.272687E+04  3.649292E+03 -2.123513E+04
       395  27  1.063143E+06  6.926327E+04  5.890412E+04 -4.161756E+04  4.028209E+03 -1.767492E+04
       396   1  5.262581E+05 -5.973646E+04 -4.977827E+04 -4.162148E+04  4.317143E+03  1.559190E+04
       396   2  5.808600E+05 -4.663263E+04 -3.888223E+04 -3.278203E+04  4.131807E+03  1.202231E+04
       396   3  6.354977E+05 -3.352340E+04 -2.786255E+04 -4.158612E+04  3.945750E+03  8.453249E+03
       396   4  7.748673E+05 -1.658661E+01  3.913446E+02 -4.161941E+04  1.163608E+02  1.559166E+04
       396   5  7.748546E+05 -1.157414E+01  3.748491E+02 -3.279780E+04 -6.860116E+01  1.202245E+04
       396   6  7.748739E+05 -1.290473E+00  4.815040E+02 -4.161941E+04 -2.542677E+02  8.453779E+03
       396   7  1.023535E+06  5.969947E+04  5.055784E+04 -4.161735E+04 -4.086069E+03  1.559143E+04
       396   8  9.688849E+05  4.660716E+04  3.963004E+04 -3.281359E+04 -4.270295E+03  1.202259E+04
       396   9  9.142685E+05  3.351962E+04  2.882461E+04 -4.165271E+04 -4.455210E+03  8.454310E+03
       396  10  5.262580E+05 -5.973673E+04 -4.977876E+04 -4.162153E+04  9.417991E-11 -5.313389E-11
       396  11  5.808599E+05 -4.663279E+04 -3.888253E+04 -3.278207E+04  9.056281E-11 -9.299616E-11
       396  12  6.354977E+05 -3.352348E+04 -2.786271E+04 -4.158615E+04  1.153040E-10 -4.900492E-11
       396  13  7.748672E+05 -1.684775E+01  3.908876E+02 -4.161942E+04  1.585280E-10  4.938613E-12
       396  14  7.748545E+05 -1.172941E+01  3.745774E+02 -3.279780E+04 -8.781402E-11 -8.381140E-13
       396  15  7.748739E+05 -1.367260E+00  4.813696E+02 -4.161941E+04 -5.540297E-11 -3.868139E-13
       396  16  1.023535E+06  5.969921E+04  5.055735E+04 -4.161729E+04  3.201915E-11  7.863214E-11
       396  17  9.688849E+05  4.660700E+04  3.962974E+04 -3.281354E+04  1.512608E-10  1.183127E-10
       396  18  9.142685E+05  3.351954E+04  2.882444E+04 -4.165268E+04 -1.082503E-10  1.897753E-11
       396  19  5.262581E+05 -5.973646E+04 -4.977827E+04 -4.162148E+04 -4.317143E+03 -1.559190E+04
       396  20  5.808600E+05 -4.663263E+04 -3.888223E+04 -3.278203E+04 -4.131807E+03 -1.202231E+04
       396  21  6.354977E+05 -3.352340E+04 -2.786255E+04 -4.158612E+04 -3.945750E+03 -8.453249E+03
       396  22  7.748673E+05 -1.658661E+01  3.913446E+02 -4.161941E+04 -1.163608E+02 -1.559166E+04
       396  23  7.748546E+05 -1.157414E+01  3.748491E+02 -3.279780E+04  6.860116E+01 -1.202245E+04
       396  24  7.748739E+05 -1.290473E+00  4.815040E+02 -4.161941E+04  2.542677E+02 -8.453779E+03
       396  25  1.023535E+06  5.969947E+04  5.055784E+04 -4.161735E+04  4.086069E+03 -1.559143E+04
       396  26  9.688849E+05  4.660716E+04  3.963004E+04 -3.281359E+04  4.270295E+03 -1.202259E+04
       396  27  9.142685E+05  3.351962E+04  2.882461E+04 -4.165271E+04  4.455210E+03 -8.454310E+03
       397   1  6.749847E+05 -2.397718E+04 -1.948494E+04 -4.157884E+04  3.845996E+03  6.376834E+03
       397   2  7.294882E+05 -1.091320E+04 -8.234628E+03 -3.274730E+04  3.376314E+03  2.811672E+03
       397   3  7.840550E+05  2.165891E+03  3.323554E+03 -4.152879E+04  2.906429E+03 -7.509455E+02
       397   4  7.748820E+05  3.235255E-01  5.862885E+02 -4.161269E+04 -3.517396E+02  6.377508E+03
       397   5  7.748527E+05 -1.224737E+01  9.437445E+02 -3.280620E+04 -8.186212E+02  2.812429E+03
       397   6  7.748834E+05 -1.004450E+01  1.607167E+03 -4.161268E+04 -1.285667E+03 -7.500940E+02
       397   7  8.747889E+05  2.397722E+04  2.065707E+04 -4.164655E+04 -4.550136E+03  6.378182E+03
       397   8  8.202193E+05  1.088858E+04  1.012208E+04 -3.286512E+04 -5.013857E+03  2.813188E+03
       397   9  7.657119E+05 -2.185976E+03 -1.091570E+02 -4.169657E+04 -5.477703E+03 -7.492413E+02
       397  10  6.749847E+05 -2.397723E+04 -1.948504E+04 -4.157886E+04  3.231222E-11 -9.153882E-11
       397  11  7.294882E+05 -1.091321E+04 -8.234664E+03 -3.274730E+04 -4.754613E-11 -5.857290E-11
       397  12  7.840550E+05  2.165888E+03  3.323537E+03 -4.152879E+04 -3.252061E-11  6.179211E-11
       397  13  7.748820E+05  2.798014E-01  5.862118E+02 -4.161269E+04 -5.259864E-11 -2.620563E-11
       397  14  7.748527E+05 -1.225605E+01  9.437283E+02 -3.280620E+04 -1.010187E-10 -8.072183E-11
       397  15  7.748834E+05 -1.004554E+01  1.607163E+03 -4.161268E+04 -1.686256E-10  3.305818E-11
       397  16  8.747889E+05  2.397717E+04  2.065695E+04 -4.164652E+04 -1.646018E-10 -8.529905E-12
       397  17  8.202192E+05  1.088857E+04  1.012201E+04 -3.286511E+04  2.054262E-11 -2.380770E-11
       397  18  7.657119E+05 -2.185984E+03 -1.092143E+02 -4.169657E+04 -6.664229E-11 -7.917977E-11
       397  19  6.749847E+05 -2.397718E+04 -1.948494E+04 -4.157884E+04 -3.845996E+03 -6.376834E+03
       397  20  7.294882E+05 -1.091320E+04 -8.234628E+03 -3.274730E+04 -3.376314E+03 -2.811672E+03
       397  21  7.840550E+05  2.165891E+03  3.323554E+03 -4.152879E+04 -2.906429E+03  7.509455E+02
       397  22  7.748820E+05  3.235255E-01  5.862885E+02 -4.161269E+04  3.517396E+02 -6.377508E+03
       397  23  7.748527E+05 -1.224737E+01  9.437445E+02 -3.280620E+04  8.186212E+02 -2.812429E+03
       397  24  7.748834E+05 -1.004450E+01  1.607167E+03 -4.161268E+04  1.285667E+03  7.500940E+02
       397  25  8.747889E+05  2.397722E+04  2.065707E+04 -4.164655E+04  4.550136E+03 -6.378182E+03
       397  26  8.202193E+05  1.088858E+04  1.012208E+04 -3.286512E+04  5.013857E+03 -2.813188E+03
       397  27  7.657119E+05 -2.185976E+03 -1.091570E+02 -4.169657E+04  5.477703E+03  7.492413E+02
       398   1  8.235639E+05  1.169157E+04  1.209028E+04 -4.149631E+04  2.578752E+03 -2.827053E+03
       398   2  8.779810E+05  2.473590E+04  2.453842E+04 -3.263361E+04  7.324922E+02 -6.378812E+03
       398   3  9.326871E+05  3.797496E+04  3.823484E+04 -4.138942E+04 -1.113529E+03 -9.897119E+03
       398   4  7.749318E+05 -2.263823E+01  2.107281E+03 -4.161396E+04 -1.622427E+03 -2.826235E+03
       398   5  7.747895E+05 -6.108585E+01  3.648394E+03 -3.280458E+04 -3.429159E+03 -6.378208E+03
       398   6  7.749274E+05  8.877445E+01  6.410856E+03 -4.161390E+04 -5.235497E+03 -9.896718E+03
       398   7  7.263020E+05 -1.173699E+04 -7.875774E+03 -4.173160E+04 -5.823283E+03 -2.825415E+03
       398   8  6.716081E+05 -2.485872E+04 -1.724212E+04 -3.297552E+04 -7.590132E+03 -6.377602E+03
       398   9  6.171914E+05 -3.779894E+04 -2.541435E+04 -4.183831E+04 -9.356438E+03 -9.896314E+03
       398  10  8.235639E+05  1.169156E+04  1.209025E+04 -4.149631E+04  5.397753E-11  4.736494E-11
       398  11  8.779810E+05  2.473586E+04  2.453834E+04 -3.263361E+04  2.778338E-11  6.850978E-11
       398  12  9.326871E+05  3.797485E+04  3.823466E+04 -4.138943E+04  1.441185E-10 -1.733721E-10
       398  13  7.749318E+05 -2.264751E+01  2.107261E+03 -4.161396E+04 -7.211274E-12 -1.697164E-11
       398  14  7.747895E+05 -6.113271E+01  3.648295E+03 -3.280460E+04  4.278366E-11 -1.979595E-11
       398  15  7.749273E+05  8.866189E+01  6.410621E+03 -4.161394E+04 -1.515770E-10 -3.841353E-11
       398  16  7.263019E+05 -1.173700E+04 -7.875852E+03 -4.173161E+04 -7.021216E-11 -5.889914E-12
       398  17  6.716080E+05 -2.485878E+04 -1.724231E+04 -3.297556E+04  1.341554E-10  2.042545E-11
       398  18  6.171912E+05 -3.779907E+04 -2.541470E+04 -4.183839E+04 -1.351205E-10 -2.057161E-11
       398  19  8.235639E+05  1.169157E+04  1.209028E+04 -4.149631E+04 -2.578752E+03  2.827053E+03
       398  20  8.779810E+05  2.473590E+04  2.453842E+04 -3.263361E+04 -7.324922E+02  6.378812E+03
       398  21  9.326871E+05  3.797496E+04  3.823484E+04 -4.138942E+04  1.113529E+03  9.897119E+03
       398  22  7.749318E+05 -2.263823E+01  2.107281E+03 -4.161396E+04  1.622427E+03  2.826235E+03
       398  23  7.747895E+05 -6.108585E+01  3.648394E+03 -3.280458E+04  3.429159E+03  6.378208E+03
       398  24  7.749274E+05  8.877445E+01  6.410856E+03 -4.161390E+04  5.235497E+03  9.896718E+03
       398  25  7.263020E+05 -1.173699E+04 -7.875774E+03 -4.173160E+04  5.823283E+03  2.825415E+03
       398  26  6.716081E+05 -2.485872E+04 -1.724212E+04 -3.297552E+04  7.590132E+03  6.377602E+03
       398  27  6.171914E+05 -3.779894E+04 -2.541435E+04 -4.183831E+04  9.356438E+03  9.896314E+03
       399   1  9.725997E+05  4.719731E+04  4.850174E+04 -4.069632E+04 -2.263199E+03 -1.200064E+04
       399   2  1.026259E+06  6.067942E+04  6.585580E+04 -3.305334E+04 -1.034988E+04 -1.531490E+04
       399   3  1.082008E+06  7.824213E+04  8.949148E+04 -4.303561E+04 -1.843664E+04 -1.798294E+04
       399   4  7.752964E+05 -2.417427E+02  8.413317E+03 -4.161545E+04 -6.545347E+03 -1.200043E+04
       399   5  7.743128E+05  1.023777E+02  1.466009E+04 -3.280251E+04 -1.386857E+04 -1.531523E+04
       399   6  7.752833E+05  4.395843E+03  2.666071E+04 -4.161514E+04 -2.119119E+04 -1.798371E+04
       399   7  5.780302E+05 -4.768320E+04 -3.167707E+04 -4.253427E+04 -1.082616E+04 -1.200021E+04
       399   8  5.224266E+05 -6.047861E+04 -3.653889E+04 -3.255178E+04 -1.738587E+04 -1.531556E+04
       399   9  4.686481E+05 -6.945633E+04 -3.617503E+04 -4.019538E+04 -2.394439E+04 -1.798449E+04
       399  10  9.725997E+05  4.719715E+04  4.850146E+04 -4.069635E+04 -9.936742E-12 -1.566236E-10
       399  11  1.026259E+06  6.067914E+04  6.585516E+04 -3.305347E+04  1.591936E-10  3.315072E-11
       399  12  1.082007E+06  7.824169E+04  8.949024E+04 -4.303588E+04 -5.779180E-12  5.395835E-11
       399  13  7.752964E+05 -2.419089E+02  8.412966E+03 -4.161551E+04 -1.034754E-10  1.418312E-11
       399  14  7.743125E+05  1.020742E+02  1.465929E+04 -3.280268E+04 -2.755049E-11 -4.990173E-11
       399  15  7.752827E+05  4.395375E+03  2.665926E+04 -4.161545E+04  1.141380E-10  6.247993E-11
       399  16  5.780300E+05 -4.768339E+04 -3.167756E+04 -4.253438E+04  4.774066E-11 -7.954588E-12
       399  17  5.224263E+05 -6.047894E+04 -3.653990E+04 -3.255199E+04 -1.017911E-10 -8.021055E-11
       399  18  4.686474E+05 -6.945683E+04 -3.617671E+04 -4.019573E+04  1.373859E-10 -7.201653E-11
       399  19  9.725997E+05  4.719731E+04  4.850174E+04 -4.069632E+04  2.263199E+03  1.200064E+04
       399  20  1.026259E+06  6.067942E+04  6.585580E+04 -3.305334E+04  1.034988E+04  1.531490E+04
       399  21  1.082008E+06  7.824213E+04  8.949148E+04 -4.303561E+04  1.843664E+04  1.798294E+04
       399  22  7.752964E+05 -2.417427E+02  8.413317E+03 -4.161545E+04  6.545347E+03  1.200043E+04
       399  23  7.743128E+05  1.023777E+02  1.466009E+04 -3.280251E+04  1.386857E+04  1.531523E+04
       399  24  7.752833E+05  4.395843E+03  2.666071E+04 -4.161514E+04  2.119119E+04  1.798371E+04
       399  25  5.780302E+05 -4.768320E+04 -3.167707E+04 -4.253427E+04  1.082616E+04  1.200021E+04
       399  26  5.224266E+05 -6.047861E+04 -3.653889E+04 -3.255178E+04  1.738587E+04  1.531556E+04
       399  27  4.686481E+05 -6.945633E+04 -3.617503E+04 -4.019538E+04  2.394439E+04  1.798449E+04
       400   1  1.127465E+06  8.019812E+04  1.049838E+05 -2.797727E+04 -2.016061E+04 -2.055080E+04
       400   2  1.168159E+06  1.062303E+05  1.451451E+05 -5.609506E+04 -6.575959E+04 -1.935880E+04
       400   3  1.237563E+06  2.232572E+05  2.377145E+05 -1.013156E+05 -1.113677E+05 -6.132801E+03
       400   4  7.806861E+05 -3.258811E+03  3.411735E+04 -4.149310E+04 -2.582757E+04 -2.055161E+04
       400   5  7.675261E+05  9.155358E+03  5.991587E+04 -3.295405E+04 -5.724219E+04 -1.936072E+04
       400   6  7.806305E+05  1.101320E+05  1.283011E+05 -4.151391E+04 -8.866088E+04 -6.137715E+03
       400   7  4.340214E+05 -8.672256E+04 -3.675522E+04 -5.500125E+04 -3.149142E+04 -2.055218E+04
       400   8  3.670452E+05 -8.792798E+04 -2.532202E+04 -9.828181E+03 -4.873019E+04 -1.936202E+04
       400   9  3.238979E+05 -2.994575E+03  1.887678E+04  1.824363E+04 -6.597064E+04 -6.138267E+03
       400  10  1.127465E+06  8.019756E+04  1.049822E+05 -2.797761E+04  1.186273E-10 -6.537739E-12
       400  11  1.168154E+06  1.062288E+05  1.451363E+05 -5.609608E+04  1.169117E-10 -3.371508E-11
       400  12  1.237549E+06  2.232538E+05  2.376912E+05 -1.013161E+05 -7.166466E-11 -1.048552E-10
       400  13  7.806852E+05 -3.259443E+03  3.411531E+04 -4.149353E+04  1.474189E-10  1.817828E-11
       400  14  7.675225E+05  9.154077E+03  5.990902E+04 -3.295495E+04  4.704119E-10  1.226617E-10
       400  15  7.806220E+05  1.101299E+05  1.282863E+05 -4.151435E+04  1.833766E-10  2.839546E-11
       400  16  4.340202E+05 -8.672328E+04 -3.675787E+04 -5.500177E+04  9.892935E-11 -7.287138E-11
       400  17  3.670425E+05 -8.792902E+04 -2.532719E+04 -9.828940E+03  3.321801E-10  1.470845E-10
       400  18  3.238932E+05 -2.995783E+03  1.886853E+04  1.824330E+04  1.062453E-10  5.172042E-11
       400  19  1.127465E+06  8.019812E+04  1.049838E+05 -2.797727E+04  2.016061E+04  2.055080E+04
       400  20  1.168159E+06  1.062303E+05  1.451451E+05 -5.609506E+04  6.575959E+04  1.935880E+04
       400  21  1.237563E+06  2.232572E+05  2.377145E+05 -1.013156E+05  1.113677E+05  6.132801E+03
       400  22  7.806861E+05 -3.258811E+03  3.411735E+04 -4.149310E+04  2.582757E+04  2.055161E+04
       400  23  7.675261E+05  9.155358E+03  5.991587E+04 -3.295405E+04  5.724219E+04  1.936072E+04
       400  24  7.806305E+05  1.101320E+05  1.283011E+05 -4.151391E+04  8.866088E+04  6.137715E+03
       400  25  4.340214E+05 -8.672256E+04 -3.675522E+04 -5.500125E+04  3.149142E+04  2.055218E+04
       400  26  3.670452E+05 -8.792798E+04 -2.532202E+04 -9.828181E+03  4.873019E+04  1.936202E+04
       400  27  3.238979E+05 -2.994575E+03  1.887678E+04  1.824363E+04  6.597064E+04  6.138267E+03
       401   1 -2.675426E+05 -1.070218E+05 -1.033875E+05 -3.080409E+04 -2.215849E+04  5.922261E+03
       401   2 -2.258135E+05 -9.444841E+04 -8.283014E+04 -2.449767E+04 -8.864002E+03  1.902597E+04
       401   3 -1.863777E+05 -8.428103E+04 -7.152585E+04 -3.064502E+04  4.435324E+03  2.085696E+04
       401   4  1.634077E+05 -1.834954E+02 -1.813033E+02 -3.063463E+04 -1.314069E+02  5.928345E+03
       401   5  1.634089E+05 -5.132201E+01 -8.768661E+01 -2.440789E+04 -8.775811E+01  1.902676E+04
       401   6  1.634173E+05 -2.350940E+01 -4.304864E+01 -3.063466E+04 -4.003345E+01  2.085565E+04
       401   7  5.945293E+05  1.066416E+05  1.030136E+05 -3.046506E+04  2.191091E+04  5.934439E+03
       401   8  5.527743E+05  9.433597E+04  8.264638E+04 -2.431805E+04  8.693907E+03  1.902755E+04
       401   9  5.133287E+05  8.422636E+04  7.143336E+04 -3.062429E+04 -4.517867E+03  2.085434E+04
       401  10 -2.675431E+05 -1.070220E+05 -1.033885E+05 -3.080399E+04  4.612313E-11  9.577060E-11
       401  11 -2.258137E+05 -9.444882E+04 -8.283097E+04 -2.449753E+04  2.053413E-10  5.521860E-11
       401  12 -1.863778E+05 -8.428150E+04 -7.152671E+04 -3.064509E+04  6.261984E-11  1.766540E-11
       401  13  1.634077E+05 -1.835331E+02 -1.813694E+02 -3.063463E+04  3.027387E-11  1.435129E-11
       401  14  1.634088E+05 -5.171078E+01 -8.836698E+01 -2.440789E+04  1.299462E-10  7.830138E-13
       401  15  1.634172E+05 -2.397651E+01 -4.386607E+01 -3.063466E+04  3.772410E-10 -3.388922E-11
       401  16  5.945288E+05  1.066415E+05  1.030126E+05 -3.046516E+04  4.225417E-11 -4.672236E-11
       401  17  5.527741E+05  9.433556E+04  8.264556E+04 -2.431819E+04 -8.663162E-11 -2.909851E-11
       401  18  5.133286E+05  8.422588E+04  7.143251E+04 -3.062422E+04  1.524608E-10  3.066059E-11
       401  19 -2.675426E+05 -1.070218E+05 -1.033875E+05 -3.080409E+04  2.215849E+04 -5.922261E+03
       401  20 -2.258135E+05 -9.444841E+04 -8.283014E+04 -2.449767E+04  8.864002E+03 -1.902597E+04
       401  21 -1.863777E+05 -8.428103E+04 -7.152585E+04 -3.064502E+04 -4.435324E+03 -2.085696E+04
       401  22  1.634077E+05 -1.834954E+02 -1.813033E+02 -3.063463E+04  1.314069E+02 -5.928345E+03
       401  23  1.634089E+05 -5.132201E+01 -8.768661E+01 -2.440789E+04  8.775811E+01 -1.902676E+04
       401  24  1.634173E+05 -2.350940E+01 -4.304864E+01 -3.063466E+04  4.003345E+01 -2.085565E+04
       401  25  5.945293E+05  1.066416E+05  1.030136E+05 -3.046506E+04 -2.191091E+04 -5.934439E+03
       401  26  5.527743E+05  9.433597E+04  8.264638E+04 -2.431805E+04 -8.693907E+03 -1.902755E+04
       401  27  5.133287E+05  8.422636E+04  7.143336E+04 -3.062429E+04  4.517867E+03 -2.085434E+04
       402   1 -1.567257E+05 -7.717869E+04 -6.562716E+04 -3.077846E+04  1.718641E+03  1.886372E+04
       402   2 -1.162426E+05 -6.731629E+04 -5.685703E+04 -2.424499E+04  2.439684E+03  1.706858E+04
       402   3 -7.586549E+04 -5.758016E+04 -4.858360E+04 -3.074355E+04  3.160143E+03  1.466547E+04
       402   4  1.634234E+05 -2.911768E+01 -3.161161E+01 -3.076313E+04 -3.459221E+01  1.886290E+04
       402   5  1.634189E+05 -1.557471E+01 -1.089669E+01 -2.424730E+04 -2.841487E+01  1.706806E+04
       402   6  1.634305E+05 -4.221964E+00  9.488254E+00 -3.076313E+04 -2.287813E+01  1.466538E+04
       402   7  4.836699E+05  7.711402E+04  6.555850E+04 -3.074779E+04 -1.788713E+03  1.886208E+04
       402   8  4.431549E+05  6.728027E+04  5.683117E+04 -2.424960E+04 -2.497605E+03  1.706753E+04
       402   9  4.027809E+05  5.756816E+04  4.859963E+04 -3.078272E+04 -3.207103E+03  1.466528E+04
       402  10 -1.567258E+05 -7.717907E+04 -6.562783E+04 -3.077849E+04 -1.058074E-12  6.470859E-12
       402  11 -1.162427E+05 -6.731661E+04 -5.685759E+04 -2.424503E+04  1.474361E-10  1.422493E-10
       402  12 -7.586556E+04 -5.758040E+04 -4.858403E+04 -3.074358E+04 -8.139211E-11 -4.415136E-11
       402  13  1.634233E+05 -2.949979E+01 -3.228029E+01 -3.076313E+04  7.880392E-12 -4.847747E-11
       402  14  1.634188E+05 -1.588756E+01 -1.144417E+01 -2.424730E+04  1.328666E-10 -3.291682E-11
       402  15  1.634304E+05 -4.452933E+00  9.084058E+00 -3.076313E+04  1.250868E-11  8.038022E-11
       402  16  4.836698E+05  7.711364E+04  6.555782E+04 -3.074776E+04  1.575601E-10  1.103780E-10
       402  17  4.431548E+05  6.727996E+04  5.683061E+04 -2.424957E+04  4.555664E-11  3.180186E-11
       402  18  4.027809E+05  5.756792E+04  4.859921E+04 -3.078268E+04 -1.674702E-11  8.037706E-11
       402  19 -1.567257E+05 -7.717869E+04 -6.562716E+04 -3.077846E+04 -1.718641E+03 -1.886372E+04
       402  20 -1.162426E+05 -6.731629E+04 -5.685703E+04 -2.424499E+04 -2.439684E+03 -1.706858E+04
       402  21 -7.586549E+04 -5.758016E+04 -4.858360E+04 -3.074355E+04 -3.160143E+03 -1.466547E+04
       402  22  1.634234E+05 -2.911768E+01 -3.161161E+01 -3.076313E+04  3.459221E+01 -1.886290E+04
       402  23  1.634189E+05 -1.557471E+01 -1.089669E+01 -2.424730E+04  2.841487E+01 -1.706806E+04
       402  24  1.634305E+05 -4.221964E+00  9.488254E+00 -3.076313E+04  2.287813E+01 -1.466538E+04
       402  25  4.836699E+05  7.711402E+04  6.555850E+04 -3.074779E+04  1.788713E+03 -1.886208E+04
       402  26  4.431549E+05  6.728027E+04  5.683117E+04 -2.424960E+04  2.497605E+03 -1.706753E+04
       402  27  4.027809E+05  5.756816E+04  4.859963E+04 -3.078272E+04  3.207103E+03 -1.466528E+04
       403   1 -4.660039E+04 -5.050083E+04 -4.245477E+04 -3.074635E+04  3.009678E+03  1.310229E+04
       403   2 -6.208486E+03 -4.079663E+04 -3.432094E+04 -2.421844E+04  3.026968E+03  1.050501E+04
       403   3  3.418410E+04 -3.109481E+04 -2.619853E+04 -3.074097E+04  3.043803E+03  7.875442E+03
       403   4  1.634309E+05 -2.342661E+00  1.826963E+01 -3.076726E+04 -2.555357E+01  1.310237E+04
       403   5  1.634302E+05  9.310286E-01  4.194387E+01 -2.424214E+04 -4.631924E+01  1.050534E+04
       403   6  1.634352E+05  8.520965E+00  8.063726E+01 -3.076725E+04 -6.753998E+01  7.876034E+03
       403   7  3.735043E+05  5.049341E+04  4.248906E+04 -3.078817E+04 -3.061792E+03  1.310246E+04
       403   8  3.330963E+05  4.079671E+04  3.440337E+04 -2.426584E+04 -3.120430E+03  1.050567E+04
       403   9  2.927022E+05  3.111082E+04  2.635896E+04 -3.079354E+04 -3.179519E+03  7.876626E+03
       403  10 -4.660044E+04 -5.050101E+04 -4.245511E+04 -3.074638E+04 -2.129437E-10  8.809004E-11
       403  11 -6.208525E+03 -4.079675E+04 -3.432116E+04 -2.421846E+04 -2.461802E-10  1.723573E-10
       403  12  3.418407E+04 -3.109488E+04 -2.619866E+04 -3.074099E+04  1.940098E-10 -1.223783E-10
       403  13  1.634309E+05 -2.527021E+00  1.794700E+01 -3.076725E+04 -4.026766E-11  8.415510E-11
       403  14  1.634302E+05  8.125092E-01  4.173646E+01 -2.424214E+04 -1.622453E-10 -1.348986E-10
       403  15  1.634352E+05  8.454347E+00  8.052067E+01 -3.076725E+04 -3.264348E-10  1.392674E-10
       403  16  3.735042E+05  5.049322E+04  4.248872E+04 -3.078814E+04  3.994295E-10  1.381730E-10
       403  17  3.330963E+05  4.079659E+04  3.440314E+04 -2.426582E+04  2.566383E-10 -1.092402E-10
       403  18  2.927022E+05  3.111075E+04  2.635883E+04 -3.079352E+04 -1.945267E-10 -5.939958E-11
       403  19 -4.660039E+04 -5.050083E+04 -4.245477E+04 -3.074635E+04 -3.009678E+03 -1.310229E+04
       403  20 -6.208486E+03 -4.079663E+04 -3.432094E+04 -2.421844E+04 -3.026968E+03 -1.050501E+04
       403  21  3.418410E+04 -3.109481E+04 -2.619853E+04 -3.074097E+04 -3.043803E+03 -7.875442E+03
       403  22  1.634309E+05 -2.342661E+00  1.826963E+01 -3.076726E+04  2.555357E+01 -1.310237E+04
       403  23  1.634302E+05  9.310286E-01  4.194387E+01 -2.424214E+04  4.631924E+01 -1.050534E+04
       403  24  1.634352E+05  8.520965E+00  8.063726E+01 -3.076725E+04  6.753998E+01 -7.876034E+03
       403  25  3.735043E+05  5.049341E+04  4.248906E+04 -3.078817E+04  3.061792E+03 -1.310246E+04
       403  26  3.330963E+05  4.079671E+04  3.440337E+04 -2.426584E+04  3.120430E+03 -1.050567E+04
       403  27  2.927022E+05  3.111082E+04  2.635896E+04 -3.079354E+04  3.179519E+03 -7.876626E+03
       404   1  6.341473E+04 -2.402235E+04 -2.004305E+04 -3.074364E+04  3.018048E+03  6.336495E+03
       404   2  1.037869E+05 -1.433706E+04 -1.188886E+04 -2.422055E+04  2.925839E+03  3.697371E+03
       404   3  1.441676E+05 -4.646015E+03 -3.674958E+03 -3.074307E+04  2.833465E+03  1.056766E+03
       404   4  1.634371E+05  9.759595E+00  1.074746E+02 -3.076621E+04 -8.502349E+01  6.337187E+03
       404   5  1.634339E+05  6.217507E+00  1.892898E+02 -2.424344E+04 -1.790516E+02  3.698148E+03
       404   6  1.634386E+05  8.978360E+00  3.322557E+02 -3.076621E+04 -2.732382E+02  1.057633E+03
       404   7  2.634690E+05  2.404126E+04  2.025752E+04 -3.078878E+04 -3.188585E+03  6.337878E+03
       404   8  2.230843E+05  1.434928E+04  1.226729E+04 -2.426633E+04 -3.284234E+03  3.698925E+03
       404   9  1.827099E+05  4.663954E+03  4.339485E+03 -3.078934E+04 -3.380036E+03  1.058501E+03
       404  10  6.341471E+04 -2.402240E+04 -2.004314E+04 -3.074366E+04 -7.449801E-11 -1.622082E-11
       404  11  1.037869E+05 -1.433708E+04 -1.188890E+04 -2.422056E+04 -1.022531E-10  3.419997E-11
       404  12  1.441676E+05 -4.646019E+03 -3.674975E+03 -3.074307E+04  2.061364E-10 -1.629242E-10
       404  13  1.634371E+05  9.716465E+00  1.073991E+02 -3.076621E+04 -8.446091E-11 -2.302463E-10
       404  14  1.634339E+05  6.202812E+00  1.892640E+02 -2.424344E+04 -1.558966E-10  1.598509E-10
       404  15  1.634386E+05  8.977139E+00  3.322534E+02 -3.076621E+04 -5.254110E-10 -1.128377E-10
       404  16  2.634690E+05  2.404121E+04  2.025743E+04 -3.078876E+04 -1.771629E-10 -6.796432E-11
       404  17  2.230843E+05  1.434926E+04  1.226724E+04 -2.426632E+04 -2.596926E-10 -2.720208E-11
       404  18  1.827099E+05  4.663949E+03  4.339461E+03 -3.078934E+04 -4.219139E-10 -2.452822E-10
       404  19  6.341473E+04 -2.402235E+04 -2.004305E+04 -3.074364E+04 -3.018048E+03 -6.336495E+03
       404  20  1.037869E+05 -1.433706E+04 -1.188886E+04 -2.422055E+04 -2.925839E+03 -3.697371E+03
       404  21  1.441676E+05 -4.646015E+03 -3.674958E+03 -3.074307E+04 -2.833465E+03 -1.056766E+03
       404  22  1.634371E+05  9.759595E+00  1.074746E+02 -3.076621E+04  8.502349E+01 -6.337187E+03
       404  23  1.634339E+05  6.217507E+00  1.892898E+02 -2.424344E+04  1.790516E+02 -3.698148E+03
       404  24  1.634386E+05  8.978360E+00  3.322557E+02 -3.076621E+04  2.732382E+02 -1.057633E+03
       404  25  2.634690E+05  2.404126E+04  2.025752E+04 -3.078878E+04  3.188585E+03 -6.337878E+03
       404  26  2.230843E+05  1.434928E+04  1.226729E+04 -2.426633E+04  3.284234E+03 -3.698925E+03
       404  27  1.827099E+05  4.663954E+03  4.339485E+03 -3.078934E+04  3.380036E+03 -1.058501E+03
       405   1  1.734011E+05  2.423556E+03  2.559383E+03 -3.074609E+04  2.762966E+03 -4.805366E+02
       405   2  2.137551E+05  1.209579E+04  1.095491E+04 -2.420535E+04  2.383293E+03 -3.120883E+03
       405   3  2.541581E+05  2.178292E+04  1.959959E+04 -3.070989E+04  2.003725E+03 -5.759744E+03
       405   4  1.634472E+05  9.051851E+00  4.387089E+02 -3.076617E+04 -3.437768E+02 -4.796652E+02
       405   5  1.634233E+05 -6.625214E+00  7.636189E+02 -2.424349E+04 -7.217883E+02 -3.120089E+03
       405   6  1.634459E+05 -7.766648E+00  1.336409E+03 -3.076617E+04 -1.099671E+03 -5.759022E+03
       405   7  1.534935E+05 -2.405454E+03 -1.681935E+03 -3.078625E+04 -3.450471E+03 -4.787936E+02
       405   8  1.130940E+05 -1.210920E+04 -9.427764E+03 -2.428163E+04 -3.826622E+03 -3.119294E+03
       405   9  7.274166E+04 -2.179896E+04 -1.692716E+04 -3.082243E+04 -4.202622E+03 -5.758298E+03
       405  10  1.734010E+05  2.423554E+03  2.559368E+03 -3.074609E+04  1.215480E-10  5.671868E-13
       405  11  2.137550E+05  1.209578E+04  1.095488E+04 -2.420534E+04 -7.340692E-11  2.436742E-10
       405  12  2.541580E+05  2.178289E+04  1.959952E+04 -3.070989E+04  1.392697E-10 -2.942610E-10
       405  13  1.634472E+05  9.051572E+00  4.387083E+02 -3.076617E+04 -2.699047E-10 -1.544516E-10
       405  14  1.634233E+05 -6.635808E+00  7.635997E+02 -2.424349E+04 -4.008060E-10  2.152149E-10
       405  15  1.634459E+05 -7.802591E+00  1.336344E+03 -3.076617E+04 -4.066395E-10 -4.493697E-11
       405  16  1.534935E+05 -2.405457E+03 -1.681957E+03 -3.078625E+04 -3.880542E-10 -2.151724E-10
       405  17  1.130940E+05 -1.210921E+04 -9.427810E+03 -2.428164E+04 -1.440249E-10  1.371380E-10
       405  18  7.274164E+04 -2.179900E+04 -1.692725E+04 -3.082245E+04 -3.582956E-10 -1.648534E-10
       405  19  1.734011E+05  2.423556E+03  2.559383E+03 -3.074609E+04 -2.762966E+03  4.805366E+02
       405  20  2.137551E+05  1.209579E+04  1.095491E+04 -2.420535E+04 -2.383293E+03  3.120883E+03
       405  21  2.541581E+05  2.178292E+04  1.959959E+04 -3.070989E+04 -2.003725E+03  5.759744E+03
       405  22  1.634472E+05  9.051851E+00  4.387089E+02 -3.076617E+04  3.437768E+02  4.796652E+02
       405  23  1.634233E+05 -6.625214E+00  7.636189E+02 -2.424349E+04  7.217883E+02  3.120089E+03
       405  24  1.634459E+05 -7.766648E+00  1.336409E+03 -3.076617E+04  1.099671E+03  5.759022E+03
       405  25  1.534935E+05 -2.405454E+03 -1.681935E+03 -3.078625E+04  3.450471E+03  4.787936E+02
       405  26  1.130940E+05 -1.210920E+04 -9.427764E+03 -2.428163E+04  3.826622E+03  3.119294E+03
       405  27  7.274166E+04 -2.179896E+04 -1.692716E+04 -3.082243E+04  4.202622E+03  5.758298E+03
       406   1  2.834332E+05  2.884213E+04  2.615409E+04 -3.068163E+04  1.731094E+03 -7.298354E+03
       406   2  3.237082E+05  3.850022E+04  3.554197E+04 -2.410934E+04  1.745135E+02 -9.927266E+03
       406   3  3.642300E+05  4.832521E+04  4.598446E+04 -3.058639E+04 -1.381738E+03 -1.252459E+04
       406   4  1.634874E+05 -1.909186E+01  1.762835E+03 -3.076710E+04 -1.380465E+03 -7.297723E+03
       406   5  1.633658E+05 -5.394656E+01  3.068258E+03 -2.424231E+04 -2.899611E+03 -9.926880E+03
       406   6  1.634831E+05  7.176436E+01  5.402570E+03 -3.076706E+04 -4.418331E+03 -1.252443E+04
       406   7  4.355517E+04 -2.888121E+04 -2.262914E+04 -3.085256E+04 -4.491434E+03 -7.297091E+03
       406   8  3.047950E+03 -3.860970E+04 -2.940675E+04 -2.437523E+04 -5.972957E+03 -9.926492E+03
       406   9 -3.722528E+04 -4.818417E+04 -3.518137E+04 -3.094766E+04 -7.453960E+03 -1.252428E+04
       406  10  2.834332E+05  2.884208E+04  2.615399E+04 -3.068162E+04 -9.747644E-11 -3.560028E-11
       406  11  3.237082E+05  3.850011E+04  3.554178E+04 -2.410934E+04 -7.651080E-11  3.878489E-12
       406  12  3.642299E+05  4.832504E+04  4.598416E+04 -3.058641E+04  3.390537E-11 -1.199150E-11
       406  13  1.634873E+05 -1.914957E+01  1.762731E+03 -3.076711E+04 -2.660997E-10  6.898712E-11
       406  14  1.633658E+05 -5.405464E+01  3.068057E+03 -2.424233E+04  5.797704E-11 -5.510648E-11
       406  15  1.634831E+05  7.159066E+01  5.402238E+03 -3.076710E+04 -2.386227E-10 -6.271741E-11
       406  16  4.355514E+04 -2.888127E+04 -2.262928E+04 -3.085259E+04 -2.143393E-10  1.104637E-10
       406  17  3.047885E+03 -3.860982E+04 -2.940700E+04 -2.437528E+04  1.274601E-10  1.388875E-10
       406  18 -3.722538E+04 -4.818435E+04 -3.518177E+04 -3.094773E+04 -1.836809E-10  3.927179E-11
       406  19  2.834332E+05  2.884213E+04  2.615409E+04 -3.068163E+04 -1.731094E+03  7.298354E+03
       406  20  3.237082E+05  3.850022E+04  3.554197E+04 -2.410934E+04 -1.745135E+02  9.927266E+03
       406  21  3.642300E+05  4.832521E+04  4.598446E+04 -3.058639E+04  1.381738E+03  1.252459E+04
       406  22  1.634874E+05 -1.909186E+01  1.762835E+03 -3.076710E+04  1.380465E+03  7.297723E+03
       406  23  1.633658E+05 -5.394656E+01  3.068258E+03 -2.424231E+04  2.899611E+03  9.926880E+03
       406  24  1.634831E+05  7.176436E+01  5.402570E+03 -3.076706E+04  4.418331E+03  1.252443E+04
       406  25  4.355517E+04 -2.888121E+04 -2.262914E+04 -3.085256E+04  4.491434E+03  7.297091E+03
       406  26  3.047950E+03 -3.860970E+04 -2.940675E+04 -2.437523E+04  5.972957E+03  9.926492E+03
       406  27 -3.722528E+04 -4.818417E+04 -3.518137E+04 -3.094766E+04  7.453960E+03  1.252428E+04
       407   1  3.938159E+05  5.512190E+04  5.379411E+04 -2.999376E+04 -2.340541E+03 -1.408667E+04
       407   2  4.333675E+05  6.513432E+04  6.731377E+04 -2.446153E+04 -9.217978E+03 -1.649353E+04
       407   3  4.746944E+05  7.860329E+04  8.617623E+04 -3.196030E+04 -1.609517E+04 -1.830597E+04
       407   4  1.637949E+05 -2.074744E+02  7.093076E+03 -3.076303E+04 -5.521616E+03 -1.408669E+04
       407   5  1.629643E+05  8.260062E+01  1.236516E+04 -2.424726E+04 -1.169722E+04 -1.649399E+04
       407   6  1.637874E+05  3.708707E+03  2.249474E+04 -3.076277E+04 -1.787215E+04 -1.830675E+04
       407   7 -6.617572E+04 -5.554013E+04 -3.961068E+04 -3.153201E+04 -8.701535E+03 -1.408670E+04
       407   8 -1.073693E+05 -6.497367E+04 -4.258724E+04 -2.403307E+04 -1.417540E+04 -1.649444E+04
       407   9 -1.470278E+05 -7.119194E+04 -4.119187E+04 -2.956585E+04 -1.964825E+04 -1.830754E+04
       407  10  3.938159E+05  5.512168E+04  5.379373E+04 -2.999378E+04 -1.377630E-10  3.672776E-11
       407  11  4.333673E+05  6.513401E+04  6.731310E+04 -2.446166E+04  2.335537E-10  1.339510E-10
       407  12  4.746940E+05  7.860287E+04  8.617511E+04 -3.196054E+04  1.145039E-10  8.591564E-11
       407  13  1.637948E+05 -2.076956E+02  7.092646E+03 -3.076309E+04 -1.700284E-10 -1.634852E-12
       407  14  1.629641E+05  8.227173E+01  1.236440E+04 -2.424741E+04 -1.272400E-10  1.060156E-10
       407  15  1.637870E+05  3.708261E+03  2.249351E+04 -3.076303E+04  1.679819E-10  4.194066E-11
       407  16 -6.617586E+04 -5.554036E+04 -3.961120E+04 -3.153211E+04  1.702757E-11 -9.056894E-11
       407  17 -1.073696E+05 -6.497402E+04 -4.258813E+04 -2.403326E+04 -2.625161E-11  9.985661E-12
       407  18 -1.470283E+05 -7.119240E+04 -4.119322E+04 -2.956614E+04  1.069798E-11 -9.563487E-12
       407  19  3.938159E+05  5.512190E+04  5.379411E+04 -2.999376E+04  2.340541E+03  1.408667E+04
       407  20  4.333675E+05  6.513432E+04  6.731377E+04 -2.446153E+04  9.217978E+03  1.649353E+04
       407  21  4.746944E+05  7.860329E+04  8.617623E+04 -3.196030E+04  1.609517E+04  1.830597E+04
       407  22  1.637949E+05 -2.074744E+02  7.093076E+03 -3.076303E+04  5.521616E+03  1.408669E+04
       407  23  1.629643E+05  8.260062E+01  1.236516E+04 -2.424726E+04  1.169722E+04  1.649399E+04
       407  24  1.637874E+05  3.708707E+03  2.249474E+04 -3.076277E+04  1.787215E+04  1.830675E+04
       407  25 -6.617572E+04 -5.554013E+04 -3.961068E+04 -3.153201E+04  8.701535E+03  1.408670E+04
       407  26 -1.073693E+05 -6.497367E+04 -4.258724E+04 -2.403307E+04  1.417540E+04  1.649444E+04
       407  27 -1.470278E+05 -7.119194E+04 -4.119187E+04 -2.956585E+04  1.964825E+04  1.830754E+04
       408   1  5.089005E+05  7.924638E+04  9.835898E+04 -1.922938E+04 -1.734168E+04 -2.028906E+04
       408   2  5.372849E+05  9.984083E+04  1.313257E+05 -4.391798E+04 -5.683292E+04 -1.856004E+04
       408   3  5.900908E+05  1.974338E+05  2.092479E+05 -8.109343E+04 -9.633182E+04 -5.804660E+03
       408   4  1.683457E+05 -2.754657E+03  2.878759E+04 -3.063719E+04 -2.178200E+04 -2.028991E+04
       408   5  1.572482E+05  7.719342E+03  5.056206E+04 -2.440364E+04 -4.828729E+04 -1.856122E+04
       408   6  1.683294E+05  9.296043E+04  1.082913E+05 -3.065399E+04 -7.479662E+04 -5.807058E+03
       408   7 -1.720986E+05 -8.476245E+04 -4.078978E+04 -4.203863E+04 -2.621992E+04 -2.029060E+04
       408   8 -2.226515E+05 -8.441005E+04 -3.020941E+04 -4.901409E+03 -3.974681E+04 -1.856187E+04
       408   9 -2.532626E+05 -1.151601E+04  7.325250E+03  1.975106E+04 -5.327596E+04 -5.805962E+03
       408  10  5.089001E+05  7.924585E+04  9.835764E+04 -1.922967E+04 -7.169498E-11 -2.694576E-12
       408  11  5.372814E+05  9.983960E+04  1.313190E+05 -4.391883E+04  3.490151E-10 -1.214173E-10
       408  12  5.900808E+05  1.974313E+05  2.092305E+05 -8.109388E+04 -1.042995E-10 -1.204492E-10
       408  13  1.683451E+05 -2.755226E+03  2.878593E+04 -3.063754E+04 -1.685716E-11  5.727337E-11
       408  14  1.572456E+05  7.718346E+03  5.055703E+04 -2.440436E+04  3.412740E-10  3.351139E-10
       408  15  1.683234E+05  9.295890E+04  1.082808E+05 -3.065434E+04  3.317499E-10 -2.390920E-11
       408  16 -1.720995E+05 -8.476308E+04 -4.079185E+04 -4.203906E+04 -2.002196E-11  4.535891E-11
       408  17 -2.226533E+05 -8.441085E+04 -3.021303E+04 -4.902003E+03  3.205553E-11  1.657885E-10
       408  18 -2.532657E+05 -1.151681E+04  7.319851E+03  1.975081E+04  9.124155E-11 -5.983141E-11
       408  19  5.089005E+05  7.924638E+04  9.835898E+04 -1.922938E+04  1.734168E+04  2.028906E+04
       408  20  5.372849E+05  9.984083E+04  1.313257E+05 -4.391798E+04  5.683292E+04  1.856004E+04
       408  21  5.900908E+05  1.974338E+05  2.092479E+05 -8.109343E+04  9.633182E+04  5.804660E+03
       408  22  1.683457E+05 -2.754657E+03  2.878759E+04 -3.063719E+04  2.178200E+04  2.028991E+04
       408  23  1.572482E+05  7.719342E+03  5.056206E+04 -2.440364E+04  4.828729E+04  1.856122E+04
       408  24  1.683294E+05  9.296043E+04  1.082913E+05 -3.065399E+04  7.479662E+04  5.807058E+03
       408  25 -1.720986E+05 -8.476245E+04 -4.078978E+04 -4.203863E+04  2.621992E+04  2.029060E+04
       408  26 -2.226515E+05 -8.441005E+04 -3.020941E+04 -4.901409E+03  3.974681E+04  1.856187E+04
       408  27 -2.532626E+05 -1.151601E+04  7.325250E+03  1.975106E+04  5.327596E+04  5.805962E+03
       409   1 -1.666363E+06 -2.857042E+05 -2.969711E+05 -1.212769E+05 -1.209057E+05  9.766895E+03
       409   2 -1.567402E+06 -1.641118E+05 -1.935978E+05 -7.309069E+04 -6.836988E+04  3.101522E+04
       409   3 -1.497393E+06 -1.312207E+05 -1.466501E+05 -5.107693E+04 -1.581939E+04  3.308765E+04
       409   4 -9.408787E+05 -1.055289E+05 -1.228119E+05 -6.400948E+04 -8.477652E+04  9.761753E+03
       409   5 -9.283285E+05 -8.861532E+03 -5.734355E+04 -5.092359E+04 -5.471662E+04  3.101079E+04
       409   6 -9.407967E+05  3.060064E+03 -3.263441E+04 -6.401473E+04 -2.465088E+04  3.308693E+04
       409   7 -2.149015E+05  7.462109E+04  5.131654E+04 -6.674684E+03 -4.860520E+04  9.763299E+03
       409   8 -2.888675E+05  1.463640E+05  7.888817E+04 -2.873328E+04 -4.104947E+04  3.100735E+04
       409   9 -3.839053E+05  1.373221E+05  8.136516E+04 -7.696434E+04 -3.349016E+04  3.308657E+04
       409  10 -1.666379E+06 -2.857083E+05 -2.969989E+05 -1.212760E+05  2.809837E-10 -8.234998E-11
       409  11 -1.567408E+06 -1.641141E+05 -1.936085E+05 -7.308898E+04  5.124586E-10 -1.337723E-10
       409  12 -1.497393E+06 -1.312220E+05 -1.466526E+05 -5.107651E+04 -5.071164E-10  3.196628E-10
       409  13 -9.408865E+05 -1.055310E+05 -1.228257E+05 -6.400881E+04  2.821303E-10 -1.459819E-10
       409  14 -9.283320E+05 -8.863370E+03 -5.735099E+04 -5.092223E+04  5.400023E-10 -2.315470E-10
       409  15 -9.407976E+05  3.058725E+03 -3.263761E+04 -6.401407E+04 -2.538910E-10  1.579561E-10
       409  16 -2.149041E+05  7.462036E+04  5.131192E+04 -6.674302E+03 -2.116987E-10 -1.489053E-10
       409  17 -2.888695E+05  1.463625E+05  7.888320E+04 -2.873225E+04  1.656102E-10 -2.666932E-10
       409  18 -3.839068E+05  1.373206E+05  8.136100E+04 -7.696345E+04  4.943432E-10  1.581047E-10
       409  19 -1.666363E+06 -2.857042E+05 -2.969711E+05 -1.212769E+05  1.209057E+05 -9.766895E+03
       409  20 -1.567402E+06 -1.641118E+05 -1.935978E+05 -7.309069E+04  6.836988E+04 -3.101522E+04
       409  21 -1.497393E+06 -1.312207E+05 -1.466501E+05 -5.107693E+04  1.581939E+04 -3.308765E+04
       409  22 -9.408787E+05 -1.055289E+05 -1.228119E+05 -6.400948E+04  8.477652E+04 -9.761753E+03
       409  23 -9.283285E+05 -8.861532E+03 -5.734355E+04 -5.092359E+04  5.471662E+04 -3.101079E+04
       409  24 -9.407967E+05  3.060064E+03 -3.263441E+04 -6.401473E+04  2.465088E+04 -3.308693E+04
       409  25 -2.149015E+05  7.462109E+04  5.131654E+04 -6.674684E+03  4.860520E+04 -9.763299E+03
       409  26 -2.888675E+05  1.463640E+05  7.888817E+04 -2.873328E+04  4.104947E+04 -3.100735E+04
       409  27 -3.839053E+05  1.373221E+05  8.136516E+04 -7.696434E+04  3.349016E+04 -3.308657E+04
       410   1 -1.430383E+06 -1.236553E+05 -1.270897E+05 -6.557428E+04 -1.600877E+04  2.909234E+04
       410   2 -1.344590E+06 -9.889234E+04 -9.750271E+04 -5.075032E+04 -7.786052E+03  2.498584E+04
       410   3 -1.260839E+06 -7.810651E+04 -7.426777E+04 -6.328109E+04  4.354368E+02  1.983626E+04
       410   4 -9.356375E+05 -4.256173E+03 -2.550515E+04 -6.427480E+04 -2.022550E+04  2.909144E+04
       410   5 -9.347078E+05 -1.139172E+02 -1.402551E+04 -5.059714E+04 -1.322235E+04  2.498628E+04
       410   6 -9.356104E+05  2.660478E+02 -8.045434E+03 -6.427322E+04 -6.221507E+03  1.983836E+04
       410   7 -4.406593E+05  1.151275E+05  7.606639E+04 -6.297424E+04 -2.444552E+04  2.909051E+04
       410   8 -5.246649E+05  9.865401E+04  6.944298E+04 -5.044383E+04 -1.866217E+04  2.498671E+04
       410   9 -6.102806E+05  7.863202E+04  5.817151E+04 -6.526587E+04 -1.288188E+04  1.984048E+04
       410  10 -1.430383E+06 -1.236563E+05 -1.270918E+05 -6.557391E+04  2.521342E-10  4.819671E-10
       410  11 -1.344591E+06 -9.889302E+04 -9.750400E+04 -5.075017E+04 -4.848347E-10  5.935126E-11
       410  12 -1.260839E+06 -7.810694E+04 -7.426850E+04 -6.328110E+04  1.581711E-10  1.175341E-10
       410  13 -9.356382E+05 -4.257191E+03 -2.550750E+04 -6.427433E+04 -4.312816E-10  3.222719E-10
       410  14 -9.347081E+05 -1.146343E+02 -1.402701E+04 -5.059687E+04  6.686767E-11  2.238762E-10
       410  15 -9.356105E+05  2.656150E+02 -8.046246E+03 -6.427312E+04 -3.843128E-10  1.881343E-10
       410  16 -4.406602E+05  1.151265E+05  7.606368E+04 -6.297367E+04 -2.952375E-10  1.717869E-10
       410  17 -5.246654E+05  9.865324E+04  6.944115E+04 -5.044345E+04  1.129626E-10  4.265980E-10
       410  18 -6.102809E+05  7.863155E+04  5.817046E+04 -6.526567E+04 -8.038021E-11  8.199800E-12
       410  19 -1.430383E+06 -1.236553E+05 -1.270897E+05 -6.557428E+04  1.600877E+04 -2.909234E+04
       410  20 -1.344590E+06 -9.889234E+04 -9.750271E+04 -5.075032E+04  7.786052E+03 -2.498584E+04
       410  21 -1.260839E+06 -7.810651E+04 -7.426777E+04 -6.328109E+04 -4.354368E+02 -1.983626E+04
       410  22 -9.356375E+05 -4.256173E+03 -2.550515E+04 -6.427480E+04  2.022550E+04 -2.909144E+04
       410  23 -9.347078E+05 -1.139172E+02 -1.402551E+04 -5.059714E+04  1.322235E+04 -2.498628E+04
       410  24 -9.356104E+05  2.660478E+02 -8.045434E+03 -6.427322E+04  6.221507E+03 -1.983836E+04
       410  25 -4.406593E+05  1.151275E+05  7.606639E+04 -6.297424E+04  2.444552E+04 -2.909051E+04
       410  26 -5.246649E+05  9.865401E+04  6.944298E+04 -5.044383E+04  1.866217E+04 -2.498671E+04
       410  27 -6.102806E+05  7.863202E+04  5.817151E+04 -6.526587E+04  1.288188E+04 -1.984048E+04
       411   1 -1.198951E+06 -6.351038E+04 -5.946382E+04 -6.399272E+04  1.441538E+03  1.655591E+04
       411   2 -1.113768E+06 -4.291510E+04 -3.974832E+04 -5.032137E+04  3.243079E+03  1.106484E+04
       411   3 -1.028875E+06 -2.248633E+04 -2.125468E+04 -6.414908E+04  5.043866E+03  5.514374E+03
       411   4 -9.352591E+05 -4.210044E+01 -6.136476E+03 -6.430571E+04 -4.972038E+03  1.655845E+04
       411   5 -9.351110E+05  1.068414E+02 -3.504745E+03 -5.055636E+04 -3.239988E+03  1.106795E+04
       411   6 -9.352485E+05  1.015559E+02 -2.046295E+03 -6.430558E+04 -1.508933E+03  5.518086E+03
       411   7 -6.715003E+05  6.342188E+04  4.718743E+04 -6.461884E+04 -1.138829E+04  1.656100E+04
       411   8 -7.564233E+05  4.312682E+04  3.273733E+04 -5.079142E+04 -9.724889E+03  1.107106E+04
       411   9 -8.416140E+05  2.268892E+04  1.716178E+04 -6.446210E+04 -8.062704E+03  5.521801E+03
       411  10 -1.198952E+06 -6.351068E+04 -5.946434E+04 -6.399274E+04 -8.401406E-10 -5.339170E-10
       411  11 -1.113768E+06 -4.291524E+04 -3.974857E+04 -5.032140E+04 -3.408078E-10 -2.445130E-10
       411  12 -1.028875E+06 -2.248637E+04 -2.125479E+04 -6.414911E+04  7.939712E-10  1.627811E-10
       411  13 -9.352592E+05 -4.240137E+01 -6.137038E+03 -6.430565E+04 -2.505396E-10  1.743760E-11
       411  14 -9.351111E+05  1.067071E+02 -3.504995E+03 -5.055634E+04 -3.571529E-10 -1.787912E-10
       411  15 -9.352485E+05  1.015226E+02 -2.046356E+03 -6.430557E+04 -6.786967E-10 -3.565221E-10
       411  16 -6.715005E+05  6.342155E+04  4.718667E+04 -6.461868E+04  5.545591E-10  3.204015E-10
       411  17 -7.564234E+05  4.312666E+04  3.273692E+04 -5.079133E+04 -8.174725E-11  3.589529E-10
       411  18 -8.416140E+05  2.268887E+04  1.716161E+04 -6.446206E+04 -5.666758E-10  1.948302E-10
       411  19 -1.198951E+06 -6.351038E+04 -5.946382E+04 -6.399272E+04 -1.441538E+03 -1.655591E+04
       411  20 -1.113768E+06 -4.291510E+04 -3.974832E+04 -5.032137E+04 -3.243079E+03 -1.106484E+04
       411  21 -1.028875E+06 -2.248633E+04 -2.125468E+04 -6.414908E+04 -5.043866E+03 -5.514374E+03
       411  22 -9.352591E+05 -4.210044E+01 -6.136476E+03 -6.430571E+04  4.972038E+03 -1.655845E+04
       411  23 -9.351110E+05  1.068414E+02 -3.504745E+03 -5.055636E+04  3.239988E+03 -1.106795E+04
       411  24 -9.352485E+05  1.015559E+02 -2.046295E+03 -6.430558E+04  1.508933E+03 -5.518086E+03
       411  25 -6.715003E+05  6.342188E+04  4.718743E+04 -6.461884E+04  1.138829E+04 -1.656100E+04
       411  26 -7.564233E+05  4.312682E+04  3.273733E+04 -5.079142E+04  9.724889E+03 -1.107106E+04
       411  27 -8.416140E+05  2.268892E+04  1.716178E+04 -6.446210E+04  8.062704E+03 -5.521801E+03
       412   1 -9.671950E+05 -7.567734E+03 -7.849425E+03 -6.422055E+04  5.357945E+03  2.267881E+03
       412   2 -8.820453E+05  1.286184E+04  9.779715E+03 -5.052588E+04  5.844963E+03 -3.301579E+03
       412   3 -7.969794E+05  3.330368E+04  2.708596E+04 -6.435008E+04  6.332346E+03 -8.872698E+03
       412   4 -9.352034E+05  9.113724E+01 -1.581687E+03 -6.431015E+04 -1.183053E+03  2.271704E+03
       412   5 -9.351596E+05  7.479287E+01 -9.872307E+02 -5.055064E+04 -6.983726E+02 -3.297930E+03
       412   6 -9.352061E+05  7.150461E+01 -7.139280E+02 -6.431014E+04 -2.133927E+02 -8.869201E+03
       412   7 -9.032108E+05  7.749970E+03  4.686163E+03 -6.439975E+04 -7.724381E+03  2.275530E+03
       412   8 -9.882711E+05 -1.271241E+04 -1.175416E+04 -5.057540E+04 -7.241159E+03 -3.294280E+03
       412   9 -1.073414E+06 -3.316183E+04 -2.851463E+04 -6.427021E+04 -6.757701E+03 -8.865704E+03
       412  10 -9.671950E+05 -7.567748E+03 -7.849489E+03 -6.422056E+04 -1.764969E-10  1.014710E-10
       412  11 -8.820454E+05  1.286182E+04  9.779630E+03 -5.052586E+04 -1.920010E-10  6.261663E-10
       412  12 -7.969794E+05  3.330358E+04  2.708574E+04 -6.435004E+04  3.443161E-10  4.640523E-10
       412  13 -9.352034E+05  9.113132E+01 -1.581699E+03 -6.431015E+04  7.018739E-12  3.738745E-10
       412  14 -9.351596E+05  7.478107E+01 -9.872520E+02 -5.055064E+04 -3.097627E-10 -1.833605E-10
       412  15 -9.352061E+05  7.142016E+01 -7.140759E+02 -6.431014E+04 -8.997996E-10 -2.804589E-10
       412  16 -9.032109E+05  7.749948E+03  4.686041E+03 -6.439974E+04 -1.594444E-10 -8.853554E-10
       412  17 -9.882712E+05 -1.271244E+04 -1.175428E+04 -5.057542E+04  2.665511E-10  5.148868E-11
       412  18 -1.073414E+06 -3.316193E+04 -2.851486E+04 -6.427025E+04 -5.878046E-10 -4.552870E-10
       412  19 -9.671950E+05 -7.567734E+03 -7.849425E+03 -6.422055E+04 -5.357945E+03 -2.267881E+03
       412  20 -8.820453E+05  1.286184E+04  9.779715E+03 -5.052588E+04 -5.844963E+03  3.301579E+03
       412  21 -7.969794E+05  3.330368E+04  2.708596E+04 -6.435008E+04 -6.332346E+03  8.872698E+03
       412  22 -9.352034E+05  9.113724E+01 -1.581687E+03 -6.431015E+04  1.183053E+03 -2.271704E+03
       412  23 -9.351596E+05  7.479287E+01 -9.872307E+02 -5.055064E+04  6.983726E+02  3.297930E+03
       412  24 -9.352061E+05  7.150461E+01 -7.139280E+02 -6.431014E+04  2.133927E+02  8.869201E+03
       412  25 -9.032108E+05  7.749970E+03  4.686163E+03 -6.439975E+04  7.724381E+03 -2.275530E+03
       412  26 -9.882711E+05 -1.271241E+04 -1.175416E+04 -5.057540E+04  7.241159E+03  3.294280E+03
       412  27 -1.073414E+06 -3.316183E+04 -2.851463E+04 -6.427021E+04  6.757701E+03  8.865704E+03
       413   1 -7.353629E+05  4.821965E+04  4.007029E+04 -6.436957E+04  6.452415E+03 -1.211483E+04
       413   2 -6.503769E+05  6.859960E+04  5.701054E+04 -5.066749E+04  6.795121E+03 -1.767800E+04
       413   3 -5.654319E+05  8.899460E+04  7.372818E+04 -6.443547E+04  7.139477E+03 -2.323119E+04
       413   4 -9.352012E+05  6.797760E+01 -6.632278E+02 -6.429943E+04 -9.027148E+01 -1.211165E+04
       413   5 -9.351845E+05  4.131752E+01 -7.219088E+02 -5.056403E+04  2.636686E+02 -1.767572E+04
       413   6 -9.352164E+05  2.843837E+01 -1.010669E+03 -6.429945E+04  6.192119E+02 -2.322978E+04
       413   7 -1.135001E+06 -4.808617E+04 -4.139868E+04 -6.422931E+04 -6.630888E+03 -1.210847E+04
       413   8 -1.219915E+06 -6.852199E+04 -5.845841E+04 -5.046061E+04 -6.264842E+03 -1.767344E+04
       413   9 -1.304870E+06 -8.894619E+04 -7.575642E+04 -6.416349E+04 -5.897241E+03 -2.322838E+04
       413  10 -7.353630E+05  4.821948E+04  4.006993E+04 -6.436951E+04 -3.818346E-10 -4.059824E-11
       413  11 -6.503771E+05  6.859925E+04  5.700987E+04 -5.066740E+04 -6.936100E-10 -2.116030E-10
       413  12 -5.654321E+05  8.899401E+04  7.372707E+04 -6.443534E+04  3.764075E-10 -4.835091E-10
       413  13 -9.352012E+05  6.782015E+01 -6.635034E+02 -6.429943E+04  1.282698E-10  6.198173E-10
       413  14 -9.351846E+05  4.098215E+01 -7.224958E+02 -5.056403E+04  7.652419E-11  6.048153E-10
       413  15 -9.352166E+05  2.785907E+01 -1.011683E+03 -6.429944E+04 -8.894683E-10 -8.329701E-10
       413  16 -1.135001E+06 -4.808634E+04 -4.139904E+04 -6.422937E+04  3.644878E-10  1.610214E-10
       413  17 -1.219915E+06 -6.852234E+04 -5.845907E+04 -5.046070E+04  6.544160E-10  8.068273E-10
       413  18 -1.304871E+06 -8.894678E+04 -7.575750E+04 -6.416360E+04 -8.248447E-10 -1.316908E-10
       413  19 -7.353629E+05  4.821965E+04  4.007029E+04 -6.436957E+04 -6.452415E+03  1.211483E+04
       413  20 -6.503769E+05  6.859960E+04  5.701054E+04 -5.066749E+04 -6.795121E+03  1.767800E+04
       413  21 -5.654319E+05  8.899460E+04  7.372818E+04 -6.443547E+04 -7.139477E+03  2.323119E+04
       413  22 -9.352012E+05  6.797760E+01 -6.632278E+02 -6.429943E+04  9.027148E+01  1.211165E+04
       413  23 -9.351845E+05  4.131752E+01 -7.219088E+02 -5.056403E+04 -2.636686E+02  1.767572E+04
       413  24 -9.352164E+05  2.843837E+01 -1.010669E+03 -6.429945E+04 -6.192119E+02  2.322978E+04
       413  25 -1.135001E+06 -4.808617E+04 -4.139868E+04 -6.422931E+04  6.630888E+03  1.210847E+04
       413  26 -1.219915E+06 -6.852199E+04 -5.845841E+04 -5.046061E+04  6.264842E+03  1.767344E+04
       413  27 -1.304870E+06 -8.894619E+04 -7.575642E+04 -6.416349E+04  5.897241E+03  2.322838E+04
       414   1 -5.040143E+05  1.038667E+05  8.636908E+04 -6.443187E+04  7.355170E+03 -2.646595E+04
       414   2 -4.193604E+05  1.241586E+05  1.024740E+05 -5.074816E+04  8.287919E+03 -3.197699E+04
       414   3 -3.347856E+05  1.443785E+05  1.179648E+05 -6.440614E+04  9.223681E+03 -3.739711E+04
       414   4 -9.352395E+05  2.705609E+01 -1.261796E+03 -6.427106E+04  8.239106E+02 -2.646529E+04
       414   5 -9.352005E+05 -9.340426E-01 -2.100828E+03 -5.059955E+04  1.862312E+03 -3.197795E+04
       414   6 -9.352675E+05 -1.193163E+02 -3.628112E+03 -6.427112E+04  2.903606E+03 -3.739963E+04
       414   7 -1.366287E+06 -1.038242E+05 -8.890223E+04 -6.411033E+04 -5.702894E+03 -2.646463E+04
       414   8 -1.450787E+06 -1.241770E+05 -1.066893E+05 -5.045106E+04 -4.558053E+03 -3.197891E+04
       414   9 -1.535406E+06 -1.446396E+05 -1.252396E+05 -6.413622E+04 -3.410470E+03 -3.740216E+04
       414  10 -5.040146E+05  1.038660E+05  8.636766E+04 -6.443172E+04 -5.089965E-10 -5.269757E-11
       414  11 -4.193607E+05  1.241575E+05  1.024719E+05 -5.074794E+04 -2.669043E-10  4.851544E-11
       414  12 -3.347861E+05  1.443770E+05  1.179620E+05 -6.440586E+04  6.225167E-10 -1.853855E-10
       414  13 -9.352397E+05  2.630412E+01 -1.263113E+03 -6.427104E+04 -4.184663E-10 -4.083643E-10
       414  14 -9.352008E+05 -2.032570E+00 -2.102756E+03 -5.059951E+04 -5.362050E-10 -5.301001E-11
       414  15 -9.352679E+05 -1.208199E+02 -3.630755E+03 -6.427103E+04  2.282700E-10 -3.688584E-10
       414  16 -1.366288E+06 -1.038249E+05 -8.890361E+04 -6.411045E+04  8.018328E-10  1.790460E-10
       414  17 -1.450787E+06 -1.241781E+05 -1.066913E+05 -5.045118E+04 -5.462614E-10  8.087774E-11
       414  18 -1.535406E+06 -1.446411E+05 -1.252423E+05 -6.413632E+04 -8.692864E-10 -2.176678E-10
       414  19 -5.040143E+05  1.038667E+05  8.636908E+04 -6.443187E+04 -7.355170E+03  2.646595E+04
       414  20 -4.193604E+05  1.241586E+05  1.024740E+05 -5.074816E+04 -8.287919E+03  3.197699E+04
       414  21 -3.347856E+05  1.443785E+05  1.179648E+05 -6.440614E+04 -9.223681E+03  3.739711E+04
       414  22 -9.352395E+05  2.705609E+01 -1.261796E+03 -6.427106E+04 -8.239106E+02  2.646529E+04
       414  23 -9.352005E+05 -9.340425E-01 -2.100828E+03 -5.059955E+04 -1.862312E+03  3.197795E+04
       414  24 -9.352675E+05 -1.193163E+02 -3.628112E+03 -6.427112E+04 -2.903606E+03  3.739963E+04
       414  25 -1.366287E+06 -1.038242E+05 -8.890223E+04 -6.411033E+04  5.702894E+03  2.646463E+04
       414  26 -1.450787E+06 -1.241770E+05 -1.066893E+05 -5.045106E+04  4.558053E+03  3.197891E+04
       414  27 -1.535406E+06 -1.446396E+05 -1.252396E+05 -6.413622E+04  3.410470E+03  3.740216E+04
       415   1 -2.738315E+05  1.593423E+05  1.296382E+05 -6.470011E+04  1.030934E+04 -4.066998E+04
       415   2 -1.894502E+05  1.793194E+05  1.433368E+05 -5.036531E+04  1.267549E+04 -4.558582E+04
       415   3 -1.057043E+05  1.973890E+05  1.550509E+05 -6.311052E+04  1.504496E+04 -4.899904E+04
       415   4 -9.354712E+05  5.200337E+01 -4.742290E+03 -6.421331E+04  3.642996E+03 -4.067368E+04
       415   5 -9.350174E+05 -2.040081E+02 -8.264391E+03 -5.067199E+04  7.771360E+03 -4.559136E+04
       415   6 -9.355136E+05 -2.674983E+03 -1.499807E+04 -6.421279E+04  1.190272E+04 -4.900555E+04
       415   7 -1.596694E+06 -1.592656E+05 -1.391455E+05 -6.372701E+04 -3.016371E+03 -4.067738E+04
       415   8 -1.680055E+06 -1.797621E+05 -1.598946E+05 -5.097832E+04  2.873007E+03 -4.559690E+04
       415   9 -1.764668E+06 -2.027822E+05 -1.850837E+05 -6.531361E+04  8.764599E+03 -4.901205E+04
       415  10 -2.738321E+05  1.593405E+05  1.296349E+05 -6.469977E+04  1.504306E-10 -4.836062E-10
       415  11 -1.894510E+05  1.793171E+05  1.433326E+05 -5.036484E+04 -8.535347E-11 -6.542317E-10
       415  12 -1.057052E+05  1.973863E+05  1.550460E+05 -6.310992E+04 -1.024553E-09  2.577781E-10
       415  13 -9.354716E+05  5.022411E+01 -4.745422E+03 -6.421319E+04  8.186619E-11 -5.039699E-10
       415  14 -9.350180E+05 -2.062554E+02 -8.268409E+03 -5.067171E+04 -1.175495E-10 -2.775028E-10
       415  15 -9.355144E+05 -2.677599E+03 -1.500285E+04 -6.421232E+04  7.575893E-10  3.671494E-10
       415  16 -1.596694E+06 -1.592674E+05 -1.391486E+05 -6.372711E+04 -5.053072E-10 -4.503840E-10
       415  17 -1.680056E+06 -1.797643E+05 -1.598986E+05 -5.097821E+04  1.270763E-10 -1.681260E-10
       415  18 -1.764669E+06 -2.027848E+05 -1.850884E+05 -6.531326E+04  8.128241E-10  9.428533E-10
       415  19 -2.738315E+05  1.593423E+05  1.296382E+05 -6.470011E+04 -1.030934E+04  4.066998E+04
       415  20 -1.894502E+05  1.793194E+05  1.433368E+05 -5.036531E+04 -1.267549E+04  4.558582E+04
       415  21 -1.057043E+05  1.973890E+05  1.550509E+05 -6.311052E+04 -1.504496E+04  4.899904E+04
       415  22 -9.354712E+05  5.200337E+01 -4.742290E+03 -6.421331E+04 -3.642996E+03  4.067368E+04
       415  23 -9.350174E+05 -2.040081E+02 -8.264391E+03 -5.067199E+04 -7.771360E+03  4.559136E+04
       415  24 -9.355136E+05 -2.674983E+03 -1.499807E+04 -6.421279E+04 -1.190272E+04  4.900555E+04
       415  25 -1.596694E+06 -1.592656E+05 -1.391455E+05 -6.372701E+04  3.016371E+03  4.067738E+04
       415  26 -1.680055E+06 -1.797621E+05 -1.598946E+05 -5.097832E+04 -2.873007E+03  4.559690E+04
       415  27 -1.764668E+06 -2.027822E+05 -1.850837E+05 -6.531361E+04 -8.764599E+03  4.901205E+04
       416   1 -4.717508E+04  2.163893E+05  1.629623E+05 -7.101255E+04  2.429128E+04 -5.329073E+04
       416   2  4.073851E+04  2.304123E+05  1.727877E+05 -3.750298E+04  9.580866E+03 -4.782406E+04
       416   3  1.198204E+05  2.003710E+05  1.812322E+05 -2.933830E+04 -5.164860E+03 -1.479770E+04
       416   4 -9.385395E+05  1.605844E+03 -1.918411E+04 -6.383958E+04  1.450693E+04 -5.330194E+04
       416   5 -9.313356E+05 -5.421910E+03 -3.372943E+04 -5.113941E+04  3.219545E+04 -4.781131E+04
       416   6 -9.386178E+05 -6.218116E+04 -7.218272E+04 -6.378706E+04  4.984933E+04 -1.474043E+04
       416   7 -1.829148E+06 -2.132272E+05 -2.013721E+05 -5.667716E+04  4.736375E+03 -5.331339E+04
       416   8 -1.902517E+06 -2.413166E+05 -2.402986E+05 -6.475432E+04  5.477512E+04 -4.779954E+04
       416   9 -1.996020E+06 -3.248086E+05 -3.256649E+05 -9.817704E+04  1.047701E+05 -1.468923E+04
       416  10 -4.717647E+04  2.163861E+05  1.629558E+05 -7.101151E+04  1.178763E-09  7.060341E-10
       416  11  4.073780E+04  2.304098E+05  1.727832E+05 -3.750261E+04  1.505532E-09  4.597496E-10
       416  12  1.198203E+05  2.003707E+05  1.812318E+05 -2.933836E+04  7.066231E-10  6.429691E-10
       416  13 -9.385405E+05  1.602738E+03 -1.918984E+04 -6.383896E+04  1.028508E-09 -3.426349E-10
       416  14 -9.313373E+05 -5.424642E+03 -3.373568E+04 -5.113817E+04  2.140816E-10  5.491628E-10
       416  15 -9.386206E+05 -6.218206E+04 -7.218780E+04 -6.378646E+04  1.624421E-09 -3.996637E-10
       416  16 -1.829149E+06 -2.132303E+05 -2.013775E+05 -5.667696E+04 -9.490261E-10  7.568643E-10
       416  17 -1.902521E+06 -2.413198E+05 -2.403086E+05 -6.475221E+04 -5.500037E-10 -1.810862E-10
       416  18 -1.996032E+06 -3.248118E+05 -3.256860E+05 -9.817580E+04 -1.047619E-09  9.159351E-10
       416  19 -4.717508E+04  2.163893E+05  1.629623E+05 -7.101255E+04 -2.429128E+04  5.329073E+04
       416  20  4.073851E+04  2.304123E+05  1.727877E+05 -3.750298E+04 -9.580866E+03  4.782406E+04
       416  21  1.198204E+05  2.003710E+05  1.812322E+05 -2.933830E+04  5.164860E+03  1.479770E+04
       416  22 -9.385395E+05  1.605844E+03 -1.918411E+04 -6.383958E+04 -1.450693E+04  5.330194E+04
       416  23 -9.313356E+05 -5.421910E+03 -3.372943E+04 -5.113941E+04 -3.219545E+04  4.781131E+04
       416  24 -9.386178E+05 -6.218116E+04 -7.218272E+04 -6.378706E+04 -4.984933E+04  1.474043E+04
       416  25 -1.829148E+06 -2.132272E+05 -2.013721E+05 -5.667716E+04 -4.736375E+03  5.331339E+04
       416  26 -1.902517E+06 -2.413166E+05 -2.402986E+05 -6.475432E+04 -5.477512E+04  4.779954E+04
       416  27 -1.996020E+06 -3.248086E+05 -3.256649E+05 -9.817704E+04 -1.047701E+05  1.468923E+04
       417   1 -2.096329E+04  4.553465E+04  9.331083E+04  6.709510E+04  1.592474E+05  1.135448E+04
       417   2  4.178786E+04 -1.565528E+05 -1.985344E+04 -1.601839E+03  1.135850E+05  3.560343E+04
       417   3  1.597674E+05 -1.623889E+05 -5.418385E+04 -9.837233E+04  6.793734E+04  3.825757E+04
       417   4  8.027630E+05  2.492579E+05  2.905460E+05 -6.771951E+04  2.007294E+05  1.136335E+04
       417   5  7.730536E+05  2.062634E+04  1.356800E+05 -5.356946E+04  1.295798E+05  3.560503E+04
       417   6  8.028972E+05 -7.486319E+03  7.726188E+04 -6.748516E+04  5.845482E+04  3.825121E+04
       417   7  1.627154E+06  4.530015E+05  4.877495E+05 -2.027138E+05  2.422660E+05  1.135423E+04
       417   8  1.504829E+06  1.977812E+05  2.911851E+05 -1.055993E+05  1.455930E+05  3.560395E+04
       417   9  1.446422E+06  1.473939E+05  2.086866E+05 -3.656547E+04  4.896264E+04  3.824391E+04
       417  10 -2.099056E+04  4.552770E+04  9.326293E+04  6.709365E+04  2.126990E-09 -1.184158E-09
       417  11  4.177366E+04 -1.565577E+05 -1.988006E+04 -1.605096E+03  3.398605E-10  4.138212E-10
       417  12  1.597621E+05 -1.623917E+05 -5.419528E+04 -9.837443E+04 -3.388637E-09  2.478803E-11
       417  13  8.027198E+05  2.492469E+05  2.904701E+05 -6.772135E+04  9.148273E-10  6.689891E-10
       417  14  7.730353E+05  2.062048E+04  1.356461E+05 -5.357317E+04  5.050026E-10 -7.502984E-11
       417  15  8.028932E+05 -7.488807E+03  7.725272E+04 -6.748696E+04  7.224974E-10 -2.652329E-10
       417  16  1.627091E+06  4.529856E+05  4.876393E+05 -2.027160E+05 -1.256051E-09  5.530762E-10
       417  17  1.504806E+06  1.977741E+05  2.911430E+05 -1.056034E+05  8.846051E-10  1.134497E-10
       417  18  1.446419E+06  1.473917E+05  2.086793E+05 -3.656698E+04  4.103705E-09  1.961977E-09
       417  19 -2.096329E+04  4.553465E+04  9.331083E+04  6.709510E+04 -1.592474E+05 -1.135448E+04
       417  20  4.178786E+04 -1.565528E+05 -1.985344E+04 -1.601839E+03 -1.135850E+05 -3.560343E+04
       417  21  1.597674E+05 -1.623889E+05 -5.418385E+04 -9.837233E+04 -6.793734E+04 -3.825757E+04
       417  22  8.027630E+05  2.492579E+05  2.905460E+05 -6.771951E+04 -2.007294E+05 -1.136335E+04
       417  23  7.730536E+05  2.062634E+04  1.356800E+05 -5.356946E+04 -1.295798E+05 -3.560503E+04
       417  24  8.028972E+05 -7.486319E+03  7.726188E+04 -6.748516E+04 -5.845482E+04 -3.825121E+04
       417  25  1.627154E+06  4.530015E+05  4.877495E+05 -2.027138E+05 -2.422660E+05 -1.135423E+04
       417  26  1.504829E+06  1.977812E+05  2.911851E+05 -1.055993E+05 -1.455930E+05 -3.560395E+04
       417  27  1.446422E+06  1.473939E+05  2.086866E+05 -3.656547E+04 -4.896264E+04 -3.824391E+04
       418   1  2.131064E+05 -1.292600E+05 -5.794562E+04 -6.476826E+04  5.221924E+04  3.396655E+04
       418   2  3.005459E+05 -1.171987E+05 -6.594227E+04 -5.291988E+04  3.701356E+04  2.972859E+04
       418   3  3.922395E+05 -9.645805E+04 -6.184680E+04 -6.994203E+04  2.180425E+04  2.433141E+04
       418   4  7.906609E+05  9.849229E+03  6.037742E+04 -6.771865E+04  4.795634E+04  3.396124E+04
       418   5  7.884397E+05  1.526108E+02  3.320883E+04 -5.328190E+04  3.137244E+04  2.972396E+04
       418   6  7.906982E+05 -6.305229E+02  1.907929E+04 -6.771389E+04  1.478705E+04  2.432779E+04
       418   7  1.368532E+06  1.489376E+05  1.786828E+05 -7.067186E+04  4.368953E+04  3.395597E+04
       418   8  1.276560E+06  1.174891E+05  1.323476E+05 -5.364423E+04  2.572696E+04  2.971934E+04
       418   9  1.189308E+06  9.518717E+04  9.999728E+04 -6.548430E+04  7.765431E+03  2.432413E+04
       418  10  2.131032E+05 -1.292619E+05 -5.795292E+04 -6.476969E+04  1.407502E-09  1.110708E-10
       418  11  3.005442E+05 -1.172000E+05 -6.594650E+04 -5.292076E+04  9.449172E-10 -4.406670E-11
       418  12  3.922388E+05 -9.645881E+04 -6.184881E+04 -6.994245E+04 -1.084588E-09 -1.383453E-10
       418  13  7.906581E+05  9.847374E+03  6.037094E+04 -6.771996E+04  5.482205E-10  1.561695E-09
       418  14  7.884384E+05  1.513978E+02  3.320532E+04 -5.328265E+04  5.164735E-10  5.013202E-10
       418  15  7.906978E+05 -6.312173E+02  1.907776E+04 -6.771418E+04  2.290348E-10 -6.193075E-10
       418  16  1.368530E+06  1.489358E+05  1.786771E+05 -7.067306E+04 -1.268308E-09  1.334691E-09
       418  17  1.276559E+06  1.174880E+05  1.323447E+05 -5.364485E+04 -2.498222E-10  1.610247E-10
       418  18  1.189308E+06  9.518652E+04  9.999605E+04 -6.548445E+04  9.442694E-10 -2.936922E-10
       418  19  2.131064E+05 -1.292600E+05 -5.794562E+04 -6.476826E+04 -5.221924E+04 -3.396655E+04
       418  20  3.005459E+05 -1.171987E+05 -6.594227E+04 -5.291988E+04 -3.701356E+04 -2.972859E+04
       418  21  3.922395E+05 -9.645805E+04 -6.184680E+04 -6.994203E+04 -2.180425E+04 -2.433141E+04
       418  22  7.906609E+05  9.849229E+03  6.037742E+04 -6.771865E+04 -4.795634E+04 -3.396124E+04
       418  23  7.884397E+05  1.526108E+02  3.320883E+04 -5.328190E+04 -3.137244E+04 -2.972396E+04
       418  24  7.906982E+05 -6.305229E+02  1.907929E+04 -6.771389E+04 -1.478705E+04 -2.432779E+04
       418  25  1.368532E+06  1.489376E+05  1.786828E+05 -7.067186E+04 -4.368953E+04 -3.395597E+04
       418  26  1.276560E+06  1.174891E+05  1.323476E+05 -5.364423E+04 -2.572696E+04 -2.971934E+04
       418  27  1.189308E+06  9.518717E+04  9.999728E+04 -6.548430E+04 -7.765431E+03 -2.432413E+04
       419   1  4.561140E+05 -8.006317E+04 -5.284261E+04 -6.833236E+04  1.854742E+04  2.088083E+04
       419   2  5.450645E+05 -5.895470E+04 -4.116623E+04 -5.375212E+04  1.450036E+04  1.512701E+04
       419   3  6.346845E+05 -3.745939E+04 -2.675036E+04 -6.800620E+04  1.045140E+04  9.314078E+03
       419   4  7.898625E+05  1.205546E+02  1.455356E+04 -6.770749E+04  1.181715E+04  2.087797E+04
       419   5  7.895329E+05 -1.983495E+02  8.326215E+03 -5.329071E+04  7.698052E+03  1.512490E+04
       419   6  7.898782E+05 -1.175937E+02  4.887272E+03 -6.770759E+04  3.577632E+03  9.312742E+03
       419   7  1.123717E+06  8.029741E+04  8.194416E+04 -6.708227E+04  5.083323E+03  2.087510E+04
       419   8  1.034058E+06  5.855432E+04  5.781573E+04 -5.282911E+04  8.931212E+02  1.512277E+04
       419   9  9.450949E+05  3.722272E+04  3.652381E+04 -6.740891E+04 -3.297823E+03  9.311400E+03
       419  10  4.561135E+05 -8.006373E+04 -5.284407E+04 -6.833268E+04 -1.548977E-10 -2.767240E-10
       419  11  5.450642E+05 -5.895500E+04 -4.116705E+04 -5.375230E+04 -3.167523E-10 -8.600967E-10
       419  12  6.346843E+05 -3.745951E+04 -2.675073E+04 -6.800628E+04 -2.074122E-10 -2.211840E-10
       419  13  7.898622E+05  1.200489E+02  1.455248E+04 -6.770769E+04 -1.382160E-10 -1.961112E-10
       419  14  7.895328E+05 -1.986111E+02  8.325674E+03 -5.329080E+04  4.352447E-11 -1.411569E-10
       419  15  7.898782E+05 -1.176903E+02  4.887085E+03 -6.770762E+04 -2.062025E-10 -3.230267E-10
       419  16  1.123717E+06  8.029694E+04  8.194329E+04 -6.708236E+04 -2.391376E-10 -1.143664E-10
       419  17  1.034058E+06  5.855407E+04  5.781530E+04 -5.282912E+04 -4.583480E-10 -3.840016E-10
       419  18  9.450949E+05  3.722263E+04  3.652363E+04 -6.740888E+04  1.062774E-10 -1.063962E-10
       419  19  4.561140E+05 -8.006317E+04 -5.284261E+04 -6.833236E+04 -1.854742E+04 -2.088083E+04
       419  20  5.450645E+05 -5.895470E+04 -4.116623E+04 -5.375212E+04 -1.450036E+04 -1.512701E+04
       419  21  6.346845E+05 -3.745939E+04 -2.675036E+04 -6.800620E+04 -1.045140E+04 -9.314078E+03
       419  22  7.898625E+05  1.205546E+02  1.455356E+04 -6.770749E+04 -1.181715E+04 -2.087797E+04
       419  23  7.895329E+05 -1.983495E+02  8.326215E+03 -5.329071E+04 -7.698052E+03 -1.512490E+04
       419  24  7.898782E+05 -1.175937E+02  4.887272E+03 -6.770759E+04 -3.577632E+03 -9.312742E+03
       419  25  1.123717E+06  8.029741E+04  8.194416E+04 -6.708227E+04 -5.083323E+03 -2.087510E+04
       419  26  1.034058E+06  5.855432E+04  5.781573E+04 -5.282911E+04 -8.931212E+02 -1.512277E+04
       419  27  9.450949E+05  3.722272E+04  3.652381E+04 -6.740891E+04  3.297823E+03 -9.311400E+03
       420   1  6.991341E+05 -2.182176E+04 -1.432036E+04 -6.790075E+04  9.649019E+03  5.916434E+03
       420   2  7.882449E+05 -4.242702E+02  2.109811E+03 -5.340272E+04  8.467776E+03  8.896950E+01
       420   3  8.775412E+05  2.098188E+04  1.931520E+04 -6.771292E+04  7.286345E+03 -5.741749E+03
       420   4  7.897710E+05 -8.709903E+01  3.791116E+03 -6.770197E+04  2.792170E+03  5.915341E+03
       420   5  7.896827E+05 -7.851458E+01  2.401762E+03 -5.329788E+04  1.606437E+03  8.786582E+01
       420   6  7.897715E+05 -6.048632E+01  1.790253E+03 -6.770202E+04  4.206805E+02 -5.742837E+03
       420   7  8.804158E+05  2.164708E+04  2.190236E+04 -6.750317E+04 -4.065659E+03  5.914243E+03
       420   8  7.911206E+05  2.672662E+02  2.693889E+03 -5.319303E+04 -5.254917E+03  8.675982E+01
       420   9  7.020093E+05 -2.110330E+04 -1.573491E+04 -6.769111E+04 -6.444034E+03 -5.743926E+03
       420  10  6.991340E+05 -2.182182E+04 -1.432060E+04 -6.790080E+04 -4.532648E-12 -1.675778E-10
       420  11  7.882449E+05 -4.242894E+02  2.109676E+03 -5.340273E+04  4.507969E-11 -2.178265E-10
       420  12  8.775412E+05  2.098183E+04  1.931504E+04 -6.771289E+04 -2.689238E-10 -5.043403E-10
       420  13  7.897710E+05 -8.713871E+01  3.791036E+03 -6.770199E+04  2.026745E-10  3.352405E-11
       420  14  7.896827E+05 -7.851528E+01  2.401757E+03 -5.329788E+04 -6.233286E-11 -2.538793E-10
       420  15  7.897715E+05 -6.052179E+01  1.790191E+03 -6.770201E+04  6.485678E-10  1.954576E-11
       420  16  8.804158E+05  2.164704E+04  2.190226E+04 -6.750315E+04  1.392934E-10 -9.713389E-12
       420  17  7.911206E+05  2.672588E+02  2.693837E+03 -5.319303E+04 -1.588885E-10 -6.970881E-11
       420  18  7.020092E+05 -2.110334E+04 -1.573505E+04 -6.769114E+04  2.211655E-10  7.019770E-12
       420  19  6.991341E+05 -2.182176E+04 -1.432036E+04 -6.790075E+04 -9.649019E+03 -5.916434E+03
       420  20  7.882449E+05 -4.242702E+02  2.109811E+03 -5.340272E+04 -8.467776E+03 -8.896950E+01
       420  21  8.775412E+05  2.098188E+04  1.931520E+04 -6.771292E+04 -7.286345E+03  5.741749E+03
       420  22  7.897710E+05 -8.709903E+01  3.791116E+03 -6.770197E+04 -2.792170E+03 -5.915341E+03
       420  23  7.896827E+05 -7.851458E+01  2.401762E+03 -5.329788E+04 -1.606437E+03 -8.786582E+01
       420  24  7.897715E+05 -6.048632E+01  1.790253E+03 -6.770202E+04 -4.206805E+02  5.742837E+03
       420  25  8.804158E+05  2.164708E+04  2.190236E+04 -6.750317E+04  4.065659E+03 -5.914243E+03
       420  26  7.911206E+05  2.672662E+02  2.693889E+03 -5.319303E+04  5.254917E+03 -8.675982E+01
       420  27  7.020093E+05 -2.110330E+04 -1.573491E+04 -6.769111E+04  6.444034E+03  5.743926E+03
       421   1  9.421020E+05  3.658464E+04  3.275142E+04 -6.769621E+04  6.972098E+03 -9.136538E+03
       421   2  1.031327E+06  5.796997E+04  5.079871E+04 -5.318148E+04  6.028977E+03 -1.497015E+04
       421   3  1.120722E+06  7.935496E+04  6.946752E+04 -6.750430E+04  5.087153E+03 -2.080378E+04
       421   4  7.897648E+05 -6.311734E+01  1.700457E+03 -6.770868E+04  1.036754E+02 -9.137862E+03
       421   5  7.896773E+05 -8.757053E+01  1.911315E+03 -5.328955E+04 -8.396284E+02 -1.497227E+04
       421   6  7.897511E+05 -1.118872E+02  2.744061E+03 -6.770866E+04 -1.781504E+03 -2.080667E+04
       421   7  6.374498E+05 -3.671230E+04 -2.935155E+04 -6.772115E+04 -6.763095E+03 -9.139186E+03
       421   8  5.480829E+05 -5.814870E+04 -4.697893E+04 -5.339758E+04 -7.705615E+03 -1.497438E+04
       421   9  4.588851E+05 -7.958548E+04 -6.398485E+04 -6.791290E+04 -8.646576E+03 -2.080955E+04
       421  10  9.421019E+05  3.658454E+04  3.275117E+04 -6.769616E+04 -4.005410E-10 -2.361023E-10
       421  11  1.031327E+06  5.796972E+04  5.079822E+04 -5.318141E+04  1.293545E-09  2.146265E-10
       421  12  1.120721E+06  7.935449E+04  6.946666E+04 -6.750421E+04  1.520438E-09 -1.206641E-09
       421  13  7.897648E+05 -6.320704E+01  1.700300E+03 -6.770868E+04  7.065325E-10  6.026467E-10
       421  14  7.896772E+05 -8.781152E+01  1.910892E+03 -5.328956E+04  6.217397E-10  1.816884E-10
       421  15  7.897510E+05 -1.123531E+02  2.743241E+03 -6.770869E+04  4.254784E-10 -9.938184E-10
       421  16  6.374497E+05 -3.671240E+04 -2.935179E+04 -6.772120E+04  4.375661E-10  3.425168E-10
       421  17  5.480828E+05 -5.814896E+04 -4.697946E+04 -5.339767E+04 -9.672901E-10 -4.707382E-10
       421  18  4.588849E+05 -7.958596E+04 -6.398580E+04 -6.791305E+04 -1.821176E-09 -1.359269E-09
       421  19  9.421020E+05  3.658464E+04  3.275142E+04 -6.769621E+04 -6.972098E+03  9.136538E+03
       421  20  1.031327E+06  5.796997E+04  5.079871E+04 -5.318148E+04 -6.028977E+03  1.497015E+04
       421  21  1.120722E+06  7.935496E+04  6.946752E+04 -6.750430E+04 -5.087153E+03  2.080378E+04
       421  22  7.897648E+05 -6.311734E+01  1.700457E+03 -6.770868E+04 -1.036754E+02  9.137862E+03
       421  23  7.896773E+05 -8.757053E+01  1.911315E+03 -5.328955E+04  8.396284E+02  1.497227E+04
       421  24  7.897511E+05 -1.118872E+02  2.744061E+03 -6.770866E+04  1.781504E+03  2.080667E+04
       421  25  6.374498E+05 -3.671230E+04 -2.935155E+04 -6.772115E+04  6.763095E+03  9.139186E+03
       421  26  5.480829E+05 -5.814870E+04 -4.697893E+04 -5.339758E+04  7.705615E+03  1.497438E+04
       421  27  4.588851E+05 -7.958548E+04 -6.398485E+04 -6.791290E+04  8.646576E+03  2.080955E+04
       422   1  1.185513E+06  9.496510E+04  8.373138E+04 -6.743268E+04  4.553345E+03 -2.420827E+04
       422   2  1.274840E+06  1.163711E+05  1.039355E+05 -5.279320E+04  1.624527E+03 -3.002812E+04
       422   3  1.364716E+06  1.380511E+05  1.261333E+05 -6.707946E+04 -1.301855E+03 -3.577541E+04
       422   4  7.898228E+05 -1.389823E+02  3.456132E+03 -6.772837E+04 -2.341705E+03 -2.421188E+04
       422   5  7.895443E+05 -2.117723E+02  5.746137E+03 -5.326478E+04 -5.183433E+03 -3.003328E+04
       422   6  7.897943E+05 -2.455675E+01  9.971076E+03 -6.772832E+04 -8.022319E+03 -3.578205E+04
       422   7  3.942817E+05 -9.525277E+04 -7.682709E+04 -6.802387E+04 -9.232449E+03 -2.421549E+04
       422   8  3.044728E+05 -1.168092E+05 -9.245527E+04 -5.373601E+04 -1.198618E+04 -3.003842E+04
       422   9  2.151870E+05 -1.381206E+05 -1.062080E+05 -6.837659E+04 -1.473669E+04 -3.578868E+04
       422  10  1.185513E+06  9.496447E+04  8.373024E+04 -6.743259E+04 -7.553006E-09 -7.762349E-10
       422  11  1.274839E+06  1.163701E+05  1.039338E+05 -5.279316E+04  1.530901E-08 -2.087563E-10
       422  12  1.364716E+06  1.380497E+05  1.261309E+05 -6.707950E+04  3.476801E-08  2.683245E-09
       422  13  7.898227E+05 -1.396135E+02  3.455020E+03 -6.772841E+04  1.738584E-10 -7.195398E-10
       422  14  7.895440E+05 -2.127485E+02  5.744390E+03 -5.326491E+04 -1.260925E-10  7.359750E-10
       422  15  7.897939E+05 -2.594942E+01  9.968548E+03 -6.772855E+04  5.856096E-10  2.524451E-09
       422  16  3.942814E+05 -9.525342E+04 -7.682836E+04 -6.802405E+04  7.751843E-09 -1.423039E-09
       422  17  3.044724E+05 -1.168102E+05 -9.245724E+04 -5.373630E+04 -1.611281E-08  5.872606E-10
       422  18  2.151864E+05 -1.381220E+05 -1.062109E+05 -6.837702E+04 -3.454821E-08  2.974507E-09
       422  19  1.185513E+06  9.496510E+04  8.373138E+04 -6.743268E+04 -4.553345E+03  2.420827E+04
       422  20  1.274840E+06  1.163711E+05  1.039355E+05 -5.279320E+04 -1.624527E+03  3.002812E+04
       422  21  1.364716E+06  1.380511E+05  1.261333E+05 -6.707946E+04  1.301855E+03  3.577541E+04
       422  22  7.898228E+05 -1.389823E+02  3.456132E+03 -6.772837E+04  2.341705E+03  2.421188E+04
       422  23  7.895443E+05 -2.117723E+02  5.746137E+03 -5.326478E+04  5.183433E+03  3.003328E+04
       422  24  7.897943E+05 -2.455675E+01  9.971076E+03 -6.772832E+04  8.022319E+03  3.578205E+04
       422  25  3.942817E+05 -9.525277E+04 -7.682709E+04 -6.802387E+04  9.232449E+03  2.421549E+04
       422  26  3.044728E+05 -1.168092E+05 -9.245527E+04 -5.373601E+04  1.198618E+04  3.003842E+04
       422  27  2.151870E+05 -1.381206E+05 -1.062080E+05 -6.837659E+04  1.473669E+04  3.578868E+04
       423   1  1.430338E+06  1.532363E+05  1.427908E+05 -6.594822E+04 -2.959900E+03 -3.925171E+04
       423   2  1.518689E+06  1.753910E+05  1.708177E+05 -5.310984E+04 -1.604355E+04 -4.454469E+04
       423   3  1.610526E+06  2.039135E+05  2.089834E+05 -6.926439E+04 -2.912718E+04 -4.835040E+04
       423   4  7.903660E+05 -5.454343E+02  1.305293E+04 -6.774171E+04 -1.005347E+04 -3.925979E+04
       423   5  7.887544E+05 -3.150769E+01  2.267237E+04 -5.324733E+04 -2.137294E+04 -4.455357E+04
       423   6  7.903180E+05  6.549526E+03  4.121523E+04 -6.774772E+04 -3.269051E+04 -4.835929E+04
       423   7  1.507833E+05 -1.543526E+05 -1.167060E+05 -6.953336E+04 -1.713987E+04 -3.926784E+04
       423   8  5.932556E+04 -1.754871E+05 -1.255006E+05 -5.338475E+04 -2.669619E+04 -4.456246E+04
       423   9 -2.925195E+04 -1.908566E+05 -1.265886E+05 -6.623321E+04 -3.624921E+04 -4.836822E+04
       423  10  1.430337E+06  1.532347E+05  1.427879E+05 -6.594831E+04 -3.394753E-08  2.174782E-09
       423  11  1.518688E+06  1.753888E+05  1.708135E+05 -5.311041E+04 -1.400706E-08 -6.780567E-11
       423  12  1.610524E+06  2.039108E+05  2.089774E+05 -6.926553E+04  8.349639E-09 -3.059590E-09
       423  13  7.903655E+05 -5.471171E+02  1.304984E+04 -6.774202E+04  1.641445E-10  2.525959E-09
       423  14  7.887534E+05 -3.376256E+01  2.266778E+04 -5.324810E+04  2.015834E-10 -9.564699E-11
       423  15  7.903162E+05  6.546727E+03  4.120883E+04 -6.774899E+04  1.501194E-09 -2.355692E-09
       423  16  1.507826E+05 -1.543543E+05 -1.167095E+05 -6.953390E+04  3.428774E-08  2.841495E-09
       423  17  5.932426E+04 -1.754894E+05 -1.255057E+05 -5.338571E+04  1.524888E-08  2.461401E-09
       423  18 -2.925399E+04 -1.908594E+05 -1.265954E+05 -6.623462E+04 -7.927862E-09 -1.128215E-09
       423  19  1.430338E+06  1.532363E+05  1.427908E+05 -6.594822E+04  2.959900E+03  3.925171E+04
       423  20  1.518689E+06  1.753910E+05  1.708177E+05 -5.310984E+04  1.604355E+04  4.454469E+04
       423  21  1.610526E+06  2.039135E+05  2.089834E+05 -6.926439E+04  2.912718E+04  4.835040E+04
       423  22  7.903660E+05 -5.454343E+02  1.305293E+04 -6.774171E+04  1.005347E+04  3.925979E+04
       423  23  7.887544E+05 -3.150769E+01  2.267237E+04 -5.324733E+04  2.137294E+04  4.455357E+04
       423  24  7.903180E+05  6.549526E+03  4.121523E+04 -6.774772E+04  3.269051E+04  4.835929E+04
       423  25  1.507833E+05 -1.543526E+05 -1.167060E+05 -6.953336E+04  1.713987E+04  3.926784E+04
       423  26  5.932556E+04 -1.754871E+05 -1.255006E+05 -5.338475E+04  2.669619E+04  4.456246E+04
       423  27 -2.925195E+04 -1.908566E+05 -1.265886E+05 -6.623321E+04  3.624921E+04  4.836822E+04
       424   1  1.685150E+06  2.079734E+05  2.335707E+05 -4.574883E+04 -2.956494E+04 -5.290239E+04
       424   2  1.753029E+06  2.497910E+05  2.993596E+05 -8.839764E+04 -1.108793E+05 -4.788625E+04
       424   3  1.867373E+06  4.340896E+05  4.536770E+05 -1.589899E+05 -1.922620E+05 -1.510348E+04
       424   4  7.986740E+05 -5.299161E+03  5.273848E+04 -6.745212E+04 -3.985391E+04 -5.291964E+04
       424   5  7.781947E+05  1.387656E+04  9.258167E+04 -5.361363E+04 -8.838934E+04 -4.786540E+04
       424   6  7.985552E+05  1.699611E+05  1.982909E+05 -6.770946E+04 -1.369769E+05 -1.503960E+04
       424   7 -8.705516E+04 -2.186190E+05 -1.281345E+05 -8.912411E+04 -5.012845E+04 -5.293618E+04
       424   8 -1.957421E+05 -2.220945E+05 -1.142479E+05 -1.888522E+04 -6.593398E+04 -4.784203E+04
       424   9 -2.691938E+05 -9.421664E+04 -5.715966E+04  2.341320E+04 -8.178625E+04 -1.495946E+04
       424  10  1.685148E+06  2.079701E+05  2.335638E+05 -4.575009E+04 -5.153358E-10 -4.009287E-09
       424  11  1.753015E+06  2.497853E+05  2.993323E+05 -8.840191E+04 -5.148618E-10 -5.247764E-09
       424  12  1.867334E+06  4.340795E+05  4.536073E+05 -1.589923E+05 -2.885566E-09 -1.734311E-09
       424  13  7.986716E+05 -5.302595E+03  5.273024E+04 -6.745382E+04 -1.699644E-10 -7.691169E-09
       424  14  7.781857E+05  1.387200E+04  9.256270E+04 -5.361704E+04  1.075171E-09  2.352087E-09
       424  15  7.985350E+05  1.699559E+05  1.982552E+05 -6.771112E+04  2.333201E-09 -6.559472E-10
       424  16 -8.705861E+04 -2.186227E+05 -1.281445E+05 -8.912625E+04  6.675966E-10 -3.087268E-09
       424  17 -1.957473E+05 -2.220981E+05 -1.142604E+05 -1.888776E+04  8.153532E-10  9.872238E-10
       424  18 -2.692011E+05 -9.421867E+04 -5.717265E+04  2.341222E+04  2.842771E-09 -2.212506E-09
       424  19  1.685150E+06  2.079734E+05  2.335707E+05 -4.574883E+04  2.956494E+04  5.290239E+04
       424  20  1.753029E+06  2.497910E+05  2.993596E+05 -8.839764E+04  1.108793E+05  4.788625E+04
       424  21  1.867373E+06  4.340896E+05  4.536770E+05 -1.589899E+05  1.922620E+05  1.510348E+04
       424  22  7.986740E+05 -5.299161E+03  5.273848E+04 -6.745212E+04  3.985391E+04  5.291964E+04
       424  23  7.781947E+05  1.387656E+04  9.258167E+04 -5.361363E+04  8.838934E+04  4.786540E+04
       424  24  7.985552E+05  1.699611E+05  1.982909E+05 -6.770946E+04  1.369769E+05  1.503960E+04
       424  25 -8.705516E+04 -2.186190E+05 -1.281345E+05 -8.912411E+04  5.012845E+04  5.293618E+04
       424  26 -1.957421E+05 -2.220945E+05 -1.142479E+05 -1.888522E+04  6.593398E+04  4.784203E+04
       424  27 -2.691938E+05 -9.421664E+04 -5.715966E+04  2.341320E+04  8.178625E+04  1.495946E+04
       425   1  2.503321E+05  1.324835E+05  1.109567E+05 -6.992501E+02 -2.016329E+04 -1.254131E+04
       425   2  1.976730E+05  1.897463E+05  1.255633E+05  1.927380E+04 -2.351412E+04 -4.084488E+04
       425   3  1.300514E+05  1.851867E+05  1.269469E+05  5.660936E+04 -2.690837E+04 -4.641594E+04
       425   4 -6.309056E+05 -8.564570E+04 -9.938353E+04  4.535941E+04 -6.865992E+04 -1.264267E+04
       425   5 -6.209663E+05 -8.354818E+03 -4.661417E+04  3.657837E+04 -4.419979E+04 -4.089586E+04
       425   6 -6.308488E+05  2.235884E+03 -2.640723E+04  4.516241E+04 -1.978264E+04 -4.640262E+04
       425   7 -1.511421E+06 -3.038217E+05 -3.097683E+05  9.135204E+04 -1.170880E+05 -1.275131E+04
       425   8 -1.438971E+06 -2.064976E+05 -2.188274E+05  5.385939E+04 -6.485858E+04 -4.094803E+04
       425   9 -1.391197E+06 -1.807503E+05 -1.797909E+05  3.372942E+04 -1.266547E+04 -4.638955E+04
       425  10  2.503316E+05  1.324833E+05  1.109556E+05 -6.994537E+02  2.379730E-09 -6.154060E-10
       425  11  1.976720E+05  1.897444E+05  1.255591E+05  1.927303E+04  3.140517E-09 -5.259260E-09
       425  12  1.300500E+05  1.851842E+05  1.269415E+05  5.660836E+04 -3.528736E-10 -3.846663E-09
       425  13 -6.309107E+05 -8.564714E+04 -9.939269E+04  4.535871E+04 -1.483894E-09  1.347925E-09
       425  14 -6.209689E+05 -8.357138E+03 -4.662098E+04  3.657691E+04 -1.358206E-09 -3.770910E-09
       425  15 -6.308498E+05  2.233468E+03 -2.641202E+04  4.516168E+04 -1.285474E-09  3.649980E-10
       425  16 -1.511436E+06 -3.038255E+05 -3.097945E+05  9.135083E+04 -3.075480E-09  2.335530E-11
       425  17 -1.438976E+06 -2.065006E+05 -2.188385E+05  5.385725E+04 -6.053270E-10 -6.753650E-09
       425  18 -1.391197E+06 -1.807527E+05 -1.797952E+05  3.372895E+04  6.316556E-10 -6.550846E-09
       425  19  2.503321E+05  1.324835E+05  1.109567E+05 -6.992501E+02  2.016329E+04  1.254131E+04
       425  20  1.976730E+05  1.897463E+05  1.255633E+05  1.927380E+04  2.351412E+04  4.084488E+04
       425  21  1.300514E+05  1.851867E+05  1.269469E+05  5.660936E+04  2.690837E+04  4.641594E+04
       425  22 -6.309056E+05 -8.564570E+04 -9.938353E+04  4.535941E+04  6.865992E+04  1.264267E+04
       425  23 -6.209663E+05 -8.354818E+03 -4.661417E+04  3.657837E+04  4.419979E+04  4.089586E+04
       425  24 -6.308488E+05  2.235884E+03 -2.640723E+04  4.516241E+04  1.978264E+04  4.640262E+04
       425  25 -1.511421E+06 -3.038217E+05 -3.097683E+05  9.135204E+04  1.170880E+05  1.275131E+04
       425  26 -1.438971E+06 -2.064976E+05 -2.188274E+05  5.385939E+04  6.485858E+04  4.094803E+04
       425  27 -1.391197E+06 -1.807503E+05 -1.797909E+05  3.372942E+04  1.266547E+04  4.638955E+04
       426   1  9.057375E+04  1.692779E+05  1.242964E+05  4.579272E+04 -1.811786E+04 -4.335026E+04
       426   2  3.094394E+04  1.577326E+05  1.201800E+05  3.731865E+04 -1.404422E+04 -4.115769E+04
       426   3 -2.988351E+04  1.436581E+05  1.127726E+05  4.748706E+04 -9.976410E+03 -3.766551E+04
       426   4 -6.267628E+05 -3.201110E+03 -2.058044E+04  4.549052E+04 -1.622898E+04 -4.334944E+04
       426   5 -6.260102E+05 -6.293148E+00 -1.134395E+04  3.616374E+04 -1.057023E+04 -4.115177E+04
       426   6 -6.267350E+05  3.823021E+02 -6.502805E+03  4.548071E+04 -4.916908E+03 -3.765383E+04
       426   7 -1.343609E+06 -1.757121E+05 -1.654838E+05  4.518836E+04 -1.434223E+04 -4.334863E+04
       426   8 -1.282552E+06 -1.577718E+05 -1.428897E+05  3.500979E+04 -7.099850E+03 -4.114586E+04
       426   9 -1.223246E+06 -1.429153E+05 -1.257961E+05  4.347608E+04  1.378281E+02 -3.764218E+04
       426  10  9.057290E+04  1.692758E+05  1.242922E+05  4.579209E+04 -2.637452E-10 -5.390157E-09
       426  11  3.094327E+04  1.577308E+05  1.201765E+05  3.731818E+04 -7.381803E-09  8.438377E-10
       426  12 -2.988399E+04  1.436565E+05  1.127698E+05  4.748676E+04 -1.901245E-08  1.471985E-09
       426  13 -6.267636E+05 -3.203198E+03 -2.058447E+04  4.548996E+04 -1.462728E-09 -3.002680E-09
       426  14 -6.260108E+05 -8.141116E+00 -1.134735E+04  3.616339E+04 -1.492978E-09 -6.188495E-10
       426  15 -6.267354E+05  3.807736E+02 -6.505514E+03  4.548057E+04 -7.387240E-10 -3.614402E-09
       426  16 -1.343610E+06 -1.757141E+05 -1.654877E+05  4.518786E+04 -9.819943E-10  5.049609E-10
       426  17 -1.282553E+06 -1.577736E+05 -1.428930E+05  3.500956E+04  9.185667E-09  1.433319E-09
       426  18 -1.223246E+06 -1.429168E+05 -1.257988E+05  4.347609E+04  1.899615E-08  1.144618E-10
       426  19  9.057375E+04  1.692779E+05  1.242964E+05  4.579272E+04  1.811786E+04  4.335026E+04
       426  20  3.094394E+04  1.577326E+05  1.201800E+05  3.731865E+04  1.404422E+04  4.115769E+04
       426  21 -2.988351E+04  1.436581E+05  1.127726E+05  4.748706E+04  9.976410E+03  3.766551E+04
       426  22 -6.267628E+05 -3.201110E+03 -2.058044E+04  4.549052E+04  1.622898E+04  4.334944E+04
       426  23 -6.260102E+05 -6.293148E+00 -1.134395E+04  3.616374E+04  1.057023E+04  4.115177E+04
       426  24 -6.267350E+05  3.823021E+02 -6.502805E+03  4.548071E+04  4.916908E+03  3.765383E+04
       426  25 -1.343609E+06 -1.757121E+05 -1.654838E+05  4.518836E+04  1.434223E+04  4.334863E+04
       426  26 -1.282552E+06 -1.577718E+05 -1.428897E+05  3.500979E+04  7.099850E+03  4.114586E+04
       426  27 -1.223246E+06 -1.429153E+05 -1.257961E+05  4.347608E+04 -1.378281E+02  3.764218E+04
       427   1 -7.273004E+04  1.330317E+05  1.054355E+05  4.694825E+04 -8.680667E+03 -3.527489E+04
       427   2 -1.331326E+05  1.185930E+05  9.554630E+04  3.740264E+04 -7.378594E+03 -3.133646E+04
       427   3 -1.937944E+05  1.041584E+05  8.478681E+04  4.666262E+04 -6.078807E+03 -2.731824E+04
       427   4 -6.264586E+05  1.600695E+02 -4.960800E+03  4.551918E+04 -3.911491E+03 -3.526327E+04
       427   5 -6.263090E+05  2.337787E+02 -2.846499E+03  3.611574E+04 -2.513096E+03 -3.132347E+04
       427   6 -6.264391E+05  2.948796E+02 -1.670104E+03  4.551877E+04 -1.116864E+03 -2.730383E+04
       427   7 -1.179894E+06 -1.327304E+05 -1.153723E+05  4.409118E+04  8.535179E+02 -3.525168E+04
       427   8 -1.119253E+06 -1.181403E+05 -1.012514E+05  3.482969E+04  2.348614E+03 -3.131050E+04
       427   9 -1.058905E+06 -1.035801E+05 -8.813635E+04  4.437559E+04  3.841689E+03 -2.728944E+04
       427  10 -7.273045E+04  1.330304E+05  1.054330E+05  4.694801E+04  1.735916E-08  4.300943E-09
       427  11 -1.331329E+05  1.185919E+05  9.554435E+04  3.740246E+04  1.332030E-08  2.376007E-09
       427  12 -1.937946E+05  1.041576E+05  8.478534E+04  4.666248E+04  1.912293E-09 -1.444140E-09
       427  13 -6.264590E+05  1.587305E+02 -4.963164E+03  4.551907E+04 -1.174984E-09 -5.282829E-09
       427  14 -6.263092E+05  2.327237E+02 -2.848354E+03  3.611567E+04 -1.601377E-09  1.748071E-09
       427  15 -6.264393E+05  2.940789E+02 -1.671506E+03  4.551875E+04 -1.126155E-09  5.952295E-09
       427  16 -1.179894E+06 -1.327317E+05 -1.153747E+05  4.409120E+04 -1.811445E-08  1.630324E-09
       427  17 -1.119253E+06 -1.181414E+05 -1.012533E+05  3.482975E+04 -1.078865E-08  4.951344E-09
       427  18 -1.058905E+06 -1.035809E+05 -8.813778E+04  4.437567E+04 -1.608101E-09  2.036248E-09
       427  19 -7.273004E+04  1.330317E+05  1.054355E+05  4.694825E+04  8.680667E+03  3.527489E+04
       427  20 -1.331326E+05  1.185930E+05  9.554630E+04  3.740264E+04  7.378594E+03  3.133646E+04
       427  21 -1.937944E+05  1.041584E+05  8.478681E+04  4.666262E+04  6.078807E+03  2.731824E+04
       427  22 -6.264586E+05  1.600695E+02 -4.960800E+03  4.551918E+04  3.911491E+03  3.526327E+04
       427  23 -6.263090E+05  2.337787E+02 -2.846499E+03  3.611574E+04  2.513096E+03  3.132347E+04
       427  24 -6.264391E+05  2.948796E+02 -1.670104E+03  4.551877E+04  1.116864E+03  2.730383E+04
       427  25 -1.179894E+06 -1.327304E+05 -1.153723E+05  4.409118E+04 -8.535179E+02  3.525168E+04
       427  26 -1.119253E+06 -1.181403E+05 -1.012514E+05  3.482969E+04 -2.348614E+03  3.131050E+04
       427  27 -1.058905E+06 -1.035801E+05 -8.813635E+04  4.437559E+04 -3.841689E+03  2.728944E+04
       428   1 -2.370340E+05  9.371073E+04  7.621525E+04  4.655785E+04 -5.805902E+03 -2.495747E+04
       428   2 -2.977164E+05  7.911266E+04  6.470901E+04  3.695728E+04 -5.413455E+03 -2.090653E+04
       428   3 -3.585496E+05  6.463496E+04  5.294348E+04  4.623647E+04 -5.022381E+03 -1.684723E+04
       428   4 -6.264045E+05  2.924483E+02 -1.301498E+03  4.553530E+04 -8.552013E+02 -2.494253E+04
       428   5 -6.263195E+05  2.455529E+02 -8.389628E+02  3.609510E+04 -4.530055E+02 -2.089082E+04
       428   6 -6.263917E+05  3.172513E+02 -6.428623E+02  4.553524E+04 -5.214448E+01 -1.683074E+04
       428   7 -1.015630E+06 -9.313510E+04 -7.882573E+04  4.451329E+04  4.092457E+03 -2.492761E+04
       428   8 -9.548194E+05 -7.862817E+04 -6.639226E+04  3.523330E+04  4.504870E+03 -2.087513E+04
       428   9 -8.941652E+05 -6.400486E+04 -5.423273E+04  4.483426E+04  4.915989E+03 -1.681425E+04
       428  10 -2.370342E+05  9.371005E+04  7.621402E+04  4.655773E+04  2.953704E-10 -1.898819E-09
       428  11 -2.977166E+05  7.911219E+04  6.470813E+04  3.695719E+04  2.087356E-08  7.496738E-09
       428  12 -3.585497E+05  6.463465E+04  5.294290E+04  4.623640E+04  3.258285E-08  1.167074E-08
       428  13 -6.264046E+05  2.917803E+02 -1.302668E+03  4.553529E+04 -1.676260E-09  1.515305E-09
       428  14 -6.263197E+05  2.450843E+02 -8.397830E+02  3.609509E+04 -2.193854E-09  8.411449E-09
       428  15 -6.263918E+05  3.169472E+02 -6.433945E+02  4.553524E+04 -9.628398E-10  4.487957E-09
       428  16 -1.015630E+06 -9.313577E+04 -7.882693E+04  4.451337E+04 -1.302062E-09  1.523741E-09
       428  17 -9.548195E+05 -7.862864E+04 -6.639311E+04  3.523337E+04 -1.867281E-08 -3.568228E-10
       428  18 -8.941653E+05 -6.400517E+04 -5.423331E+04  4.483433E+04 -3.243714E-08  4.092612E-09
       428  19 -2.370340E+05  9.371073E+04  7.621525E+04  4.655785E+04  5.805902E+03  2.495747E+04
       428  20 -2.977164E+05  7.911266E+04  6.470901E+04  3.695728E+04  5.413455E+03  2.090653E+04
       428  21 -3.585496E+05  6.463496E+04  5.294348E+04  4.623647E+04  5.022381E+03  1.684723E+04
       428  22 -6.264045E+05  2.924483E+02 -1.301498E+03  4.553530E+04  8.552013E+02  2.494253E+04
       428  23 -6.263195E+05  2.455529E+02 -8.389628E+02  3.609510E+04  4.530055E+02  2.089082E+04
       428  24 -6.263917E+05  3.172513E+02 -6.428623E+02  4.553524E+04  5.214448E+01  1.683074E+04
       428  25 -1.015630E+06 -9.313510E+04 -7.882573E+04  4.451329E+04 -4.092457E+03  2.492761E+04
       428  26 -9.548194E+05 -7.862817E+04 -6.639226E+04  3.523330E+04 -4.504870E+03  2.087513E+04
       428  27 -8.941652E+05 -6.400486E+04 -5.423273E+04  4.483426E+04 -4.915989E+03  1.681425E+04
       429   1 -4.019481E+05  5.416113E+04  4.399206E+04  4.613244E+04 -4.918085E+03 -1.448159E+04
       429   2 -4.627531E+05  3.952755E+04  3.189147E+04  3.648821E+04 -4.569410E+03 -1.041515E+04
       429   3 -5.237282E+05  2.501678E+04  1.955399E+04  4.577063E+04 -4.221416E+03 -6.348255E+03
       429   4 -6.263908E+05  3.211918E+02 -6.248686E+02  4.554560E+04  5.495413E+01 -1.446475E+04
       429   5 -6.263012E+05  2.713852E+02 -7.340301E+02  3.608209E+04  4.039090E+02 -1.039794E+04
       429   6 -6.263845E+05  3.447538E+02 -1.080043E+03  4.554553E+04  7.522179E+02 -6.330667E+03
       429   7 -8.507852E+05 -5.352182E+04 -4.524421E+04  4.495893E+04  5.026231E+03 -1.444792E+04
       429   8 -7.898237E+05 -3.898641E+04 -3.336078E+04  3.567606E+04  5.375944E+03 -1.038074E+04
       429   9 -7.290308E+05 -2.432791E+04 -2.171452E+04  4.532046E+04  5.725045E+03 -6.313081E+03
       429  10 -4.019482E+05  5.416090E+04  4.399162E+04  4.613238E+04  1.431403E-10  5.332460E-09
       429  11 -4.627531E+05  3.952743E+04  3.189123E+04  3.648817E+04 -8.289397E-09  4.460442E-10
       429  12 -5.237282E+05  2.501673E+04  1.955388E+04  4.577061E+04 -2.001652E-08 -3.882967E-09
       429  13 -6.263908E+05  3.209672E+02 -6.252617E+02  4.554560E+04 -2.085388E-09  1.445410E-08
       429  14 -6.263012E+05  2.712691E+02 -7.342335E+02  3.608209E+04 -1.960429E-09  5.480702E-09
       429  15 -6.263846E+05  3.447106E+02 -1.080120E+03  4.554553E+04 -1.110347E-09 -2.529929E-09
       429  16 -8.507853E+05 -5.352205E+04 -4.524465E+04  4.495898E+04 -1.159639E-09  9.093132E-09
       429  17 -7.898238E+05 -3.898653E+04 -3.336104E+04  3.567611E+04  1.113449E-08  3.853937E-10
       429  18 -7.290308E+05 -2.432796E+04 -2.171466E+04  4.532049E+04  2.019858E-08 -1.122953E-09
       429  19 -4.019481E+05  5.416113E+04  4.399206E+04  4.613244E+04  4.918085E+03  1.448159E+04
       429  20 -4.627531E+05  3.952755E+04  3.189147E+04  3.648821E+04  4.569410E+03  1.041515E+04
       429  21 -5.237282E+05  2.501678E+04  1.955399E+04  4.577063E+04  4.221416E+03  6.348255E+03
       429  22 -6.263908E+05  3.211918E+02 -6.248686E+02  4.554560E+04 -5.495413E+01  1.446475E+04
       429  23 -6.263012E+05  2.713852E+02 -7.340301E+02  3.608209E+04 -4.039090E+02  1.039794E+04
       429  24 -6.263845E+05  3.447538E+02 -1.080043E+03  4.554553E+04 -7.522179E+02  6.330667E+03
       429  25 -8.507852E+05 -5.352182E+04 -4.524421E+04  4.495893E+04 -5.026231E+03  1.444792E+04
       429  26 -7.898237E+05 -3.898641E+04 -3.336078E+04  3.567606E+04 -5.375944E+03  1.038074E+04
       429  27 -7.290308E+05 -2.432791E+04 -2.171452E+04  4.532046E+04 -5.725045E+03  6.313081E+03
       430   1 -5.672149E+05  1.453114E+04  1.028163E+04  4.563066E+04 -4.017010E+03 -3.977558E+03
       430   2 -6.279899E+05 -1.109531E+02 -2.657195E+03  3.595761E+04 -2.852706E+03  8.328239E+01
       430   3 -6.890753E+05 -1.473734E+04 -1.639316E+04  4.522293E+04 -1.688393E+03  4.110468E+03
       430   4 -6.264128E+05  3.533348E+02 -1.369656E+03  4.554796E+04  9.653304E+02 -3.959827E+03
       430   5 -6.262597E+05  3.080561E+02 -2.298598E+03  3.607891E+04  2.088261E+03  1.008561E+02
       430   6 -6.264134E+05  2.858896E+02 -3.995843E+03  4.554823E+04  3.211312E+03  4.127897E+03
       430   7 -6.856074E+05 -1.382467E+04 -1.302102E+04  4.546527E+04  5.947205E+03 -3.942097E+03
       430   8 -6.245295E+05  7.270784E+02 -1.939909E+03  3.620022E+04  7.029242E+03  1.184316E+02
       430   9 -5.637476E+05  1.530889E+04  8.401374E+03  4.587355E+04  8.111503E+03  4.145330E+03
       430  10 -5.672149E+05  1.453112E+04  1.028157E+04  4.563065E+04 -5.950374E-09  2.817512E-09
       430  11 -6.279899E+05 -1.109553E+02 -2.657211E+03  3.595761E+04 -1.074933E-09  6.580058E-10
       430  12 -6.890753E+05 -1.473736E+04 -1.639320E+04  4.522294E+04 -4.846229E-09  4.582096E-09
       430  13 -6.264128E+05  3.533177E+02 -1.369687E+03  4.554797E+04 -1.950232E-09 -1.222643E-09
       430  14 -6.262597E+05  3.080549E+02 -2.298606E+03  3.607891E+04 -1.906881E-09  1.442571E-09
       430  15 -6.264134E+05  2.858685E+02 -3.995895E+03  4.554822E+04 -1.239534E-09  4.392949E-09
       430  16 -6.856074E+05 -1.382470E+04 -1.302111E+04  4.546529E+04  4.605998E-09  2.555214E-09
       430  17 -6.245296E+05  7.270651E+02 -1.940002E+03  3.620022E+04  4.318575E-09 -9.006358E-09
       430  18 -5.637477E+05  1.530886E+04  8.401218E+03  4.587352E+04  4.905213E-09 -5.282447E-10
       430  19 -5.672149E+05  1.453114E+04  1.028163E+04  4.563066E+04  4.017010E+03  3.977558E+03
       430  20 -6.279899E+05 -1.109531E+02 -2.657195E+03  3.595761E+04  2.852706E+03 -8.328239E+01
       430  21 -6.890753E+05 -1.473734E+04 -1.639316E+04  4.522293E+04  1.688393E+03 -4.110468E+03
       430  22 -6.264128E+05  3.533348E+02 -1.369656E+03  4.554796E+04 -9.653304E+02  3.959827E+03
       430  23 -6.262597E+05  3.080561E+02 -2.298598E+03  3.607891E+04 -2.088261E+03 -1.008561E+02
       430  24 -6.264134E+05  2.858896E+02 -3.995843E+03  4.554823E+04 -3.211312E+03 -4.127897E+03
       430  25 -6.856074E+05 -1.382467E+04 -1.302102E+04  4.546527E+04 -5.947205E+03  3.942097E+03
       430  26 -6.245295E+05  7.270784E+02 -1.939909E+03  3.620022E+04 -7.029242E+03 -1.184316E+02
       430  27 -5.637476E+05  1.530889E+04  8.401374E+03  4.587355E+04 -8.111503E+03 -4.145330E+03
       431   1 -7.327661E+05 -2.505173E+04 -2.660658E+04  4.468083E+04 -1.018207E+03  6.500548E+03
       431   2 -7.929402E+05 -3.996934E+04 -4.266267E+04  3.579823E+04  4.246576E+03  1.033841E+04
       431   3 -8.545413E+05 -5.723463E+04 -6.277650E+04  4.581259E+04  9.513383E+03  1.358022E+04
       431   4 -6.266365E+05  4.708242E+02 -5.235363E+03  4.553660E+04  4.017206E+03  6.518343E+03
       431   5 -6.259888E+05  1.575328E+02 -9.117219E+03  3.609324E+04  8.554043E+03  1.035327E+04
       431   6 -6.266453E+05 -2.376449E+03 -1.655013E+04  4.554660E+04  1.309342E+04  1.359222E+04
       431   7 -5.204962E+05  2.599269E+04  1.613537E+04  4.639251E+04  9.053464E+03  6.536150E+03
       431   8 -4.590108E+05  4.028269E+04  2.442688E+04  3.638831E+04  1.286265E+04  1.036813E+04
       431   9 -3.986998E+05  5.247850E+04  2.967360E+04  4.528046E+04  1.667474E+04  1.360423E+04
       431  10 -7.327661E+05 -2.505177E+04 -2.660666E+04  4.468084E+04 -1.907707E-09  1.048127E-08
       431  11 -7.929402E+05 -3.996946E+04 -4.266290E+04  3.579819E+04  3.817014E-09 -1.329247E-10
       431  12 -8.545414E+05 -5.723485E+04 -6.277702E+04  4.581249E+04  1.742690E-09  6.619095E-09
       431  13 -6.266366E+05  4.707742E+02 -5.235473E+03  4.553658E+04 -1.916418E-09  3.231739E-09
       431  14 -6.259889E+05  1.573981E+02 -9.117558E+03  3.609317E+04 -1.949496E-09  3.383942E-09
       431  15 -6.266455E+05 -2.376694E+03 -1.655080E+04  4.554645E+04 -9.770922E-10  2.771217E-09
       431  16 -5.204963E+05  2.599262E+04  1.613513E+04  4.639247E+04  7.252026E-10  2.690867E-09
       431  17 -4.590110E+05  4.028253E+04  2.442636E+04  3.638820E+04 -6.925836E-10  4.303520E-10
       431  18 -3.987002E+05  5.247823E+04  2.967273E+04  4.528028E+04 -1.851344E-09 -9.477446E-09
       431  19 -7.327661E+05 -2.505173E+04 -2.660658E+04  4.468083E+04  1.018207E+03 -6.500548E+03
       431  20 -7.929402E+05 -3.996934E+04 -4.266267E+04  3.579823E+04 -4.246576E+03 -1.033841E+04
       431  21 -8.545413E+05 -5.723463E+04 -6.277650E+04  4.581259E+04 -9.513383E+03 -1.358022E+04
       431  22 -6.266365E+05  4.708242E+02 -5.235363E+03  4.553660E+04 -4.017206E+03 -6.518343E+03
       431  23 -6.259888E+05  1.575328E+02 -9.117219E+03  3.609324E+04 -8.554043E+03 -1.035327E+04
       431  24 -6.266453E+05 -2.376449E+03 -1.655013E+04  4.554660E+04 -1.309342E+04 -1.359222E+04
       431  25 -5.204962E+05  2.599269E+04  1.613537E+04  4.639251E+04 -9.053464E+03 -6.536150E+03
       431  26 -4.590108E+05  4.028269E+04  2.442688E+04  3.638831E+04 -1.286265E+04 -1.036813E+04
       431  27 -3.986998E+05  5.247850E+04  2.967360E+04  4.528046E+04 -1.667474E+04 -1.360423E+04
       432   1 -9.015108E+05 -6.343128E+04 -7.626374E+04  3.660172E+04  9.959734E+03  1.627474E+04
       432   2 -9.533437E+05 -8.680334E+04 -1.077119E+05  5.048531E+04  4.235945E+04  1.604693E+04
       432   3 -1.023505E+06 -1.660592E+05 -1.742715E+05  8.276891E+04  7.478932E+04  5.355517E+03
       432   4 -6.299345E+05  2.005703E+03 -2.123676E+04  4.538430E+04  1.594799E+04  1.629486E+04
       432   5 -6.219025E+05 -6.525018E+03 -3.747409E+04  3.630090E+04  3.556209E+04  1.602254E+04
       432   6 -6.299691E+05 -6.870243E+04 -7.992576E+04  4.561935E+04  5.520991E+04  5.286756E+03
       432   7 -3.582875E+05  6.743838E+04  3.378655E+04  5.417073E+04  2.193881E+04  1.631514E+04
       432   8 -2.903569E+05  7.374701E+04  3.275775E+04  2.210870E+04  2.876116E+04  1.599847E+04
       432   9 -2.362877E+05  2.864857E+04  1.441127E+04  8.445990E+03  3.561812E+04  5.220365E+03
       432  10 -9.015110E+05 -6.343159E+04 -7.626442E+04  3.660159E+04  1.412550E-09  6.304352E-09
       432  11 -9.533457E+05 -8.680410E+04 -1.077158E+05  5.048477E+04  3.539530E-09 -1.975568E-09
       432  12 -1.023511E+06 -1.660607E+05 -1.742821E+05  8.276859E+04 -2.541740E-09 -1.831273E-10
       432  13 -6.299348E+05  2.005349E+03 -2.123774E+04  4.538409E+04 -2.182289E-09  9.320776E-09
       432  14 -6.219039E+05 -6.525633E+03 -3.747695E+04  3.630044E+04 -1.285280E-09 -7.820134E-09
       432  15 -6.299724E+05 -6.870328E+04 -7.993155E+04  4.561911E+04 -1.392401E-09  4.540422E-09
       432  16 -3.582881E+05  6.743797E+04  3.378515E+04  5.417044E+04 -2.691912E-09  8.559605E-10
       432  17 -2.903579E+05  7.374651E+04  3.275571E+04  2.210833E+04 -8.723998E-10 -5.551550E-10
       432  18 -2.362891E+05  2.864820E+04  1.440883E+04  8.445840E+03  2.570493E-09 -1.666131E-10
       432  19 -9.015108E+05 -6.343128E+04 -7.626374E+04  3.660172E+04 -9.959734E+03 -1.627474E+04
       432  20 -9.533437E+05 -8.680334E+04 -1.077119E+05  5.048531E+04 -4.235945E+04 -1.604693E+04
       432  21 -1.023505E+06 -1.660592E+05 -1.742715E+05  8.276891E+04 -7.478932E+04 -5.355517E+03
       432  22 -6.299345E+05  2.005703E+03 -2.123676E+04  4.538430E+04 -1.594799E+04 -1.629486E+04
       432  23 -6.219025E+05 -6.525018E+03 -3.747409E+04  3.630090E+04 -3.556209E+04 -1.602254E+04
       432  24 -6.299691E+05 -6.870243E+04 -7.992576E+04  4.561935E+04 -5.520991E+04 -5.286756E+03
       432  25 -3.582875E+05  6.743838E+04  3.378655E+04  5.417073E+04 -2.193881E+04 -1.631514E+04
       432  26 -2.903569E+05  7.374701E+04  3.275775E+04  2.210870E+04 -2.876116E+04 -1.599847E+04
       432  27 -2.362877E+05  2.864857E+04  1.441127E+04  8.445990E+03 -3.561812E+04 -5.220365E+03
       433   1 -1.313109E+05  3.767941E+04  3.169020E+04  4.619904E+03 -6.372527E+03 -3.412752E+03
       433   2 -1.529975E+05  5.207514E+04  3.449500E+04  8.705182E+03 -7.223376E+03 -1.089836E+04
       433   3 -1.790178E+05  4.887276E+04  3.346064E+04  2.014702E+04 -8.094769E+03 -1.191479E+04
       433   4 -3.784255E+05 -2.349718E+04 -2.748816E+04  1.683644E+04 -1.896904E+04 -3.453387E+03
       433   5 -3.755930E+05 -1.886378E+03 -1.283644E+04  1.311841E+04 -1.221515E+04 -1.091501E+04
       433   6 -3.784175E+05  8.018850E+02 -7.308391E+03  1.675726E+04 -5.481752E+03 -1.190637E+04
       433   7 -6.254834E+05 -8.467753E+04 -8.667015E+04  2.904804E+04 -3.156056E+04 -3.494526E+03
       433   8 -5.981417E+05 -5.585102E+04 -6.017062E+04  1.752999E+04 -1.720516E+04 -1.093172E+04
       433   9 -5.777794E+05 -4.727144E+04 -4.807949E+04  1.336857E+04 -2.869560E+03 -1.189797E+04
       433  10 -1.313109E+05  3.767938E+04  3.169010E+04  4.619887E+03 -7.355233E-09  1.572729E-09
       433  11 -1.529976E+05  5.207500E+04  3.449468E+04  8.705118E+03  1.392627E-09  1.363222E-08
       433  12 -1.790179E+05  4.887259E+04  3.346025E+04  2.014695E+04  3.399237E-09  4.594373E-09
       433  13 -3.784259E+05 -2.349729E+04 -2.748886E+04  1.683638E+04  1.987811E-09 -6.737638E-09
       433  14 -3.755932E+05 -1.886546E+03 -1.283694E+04  1.311830E+04  1.574471E-09 -1.032993E-08
       433  15 -3.784176E+05  8.017248E+02 -7.308714E+03  1.675721E+04  4.235495E-09  8.109619E-10
       433  16 -6.254845E+05 -8.467781E+04 -8.667204E+04  2.904795E+04  8.047868E-09  1.379394E-09
       433  17 -5.981420E+05 -5.585123E+04 -6.017140E+04  1.752983E+04  4.036435E-10  7.725209E-09
       433  18 -5.777795E+05 -4.727159E+04 -4.807977E+04  1.336855E+04 -2.711695E-09  1.907977E-09
       433  19 -1.313109E+05  3.767941E+04  3.169020E+04  4.619904E+03  6.372527E+03  3.412752E+03
       433  20 -1.529975E+05  5.207514E+04  3.449500E+04  8.705182E+03  7.223376E+03  1.089836E+04
       433  21 -1.790178E+05  4.887276E+04  3.346064E+04  2.014702E+04  8.094769E+03  1.191479E+04
       433  22 -3.784255E+05 -2.349718E+04 -2.748816E+04  1.683644E+04  1.896904E+04  3.453387E+03
       433  23 -3.755930E+05 -1.886378E+03 -1.283644E+04  1.311841E+04  1.221515E+04  1.091501E+04
       433  24 -3.784175E+05  8.018850E+02 -7.308391E+03  1.675726E+04  5.481752E+03  1.190637E+04
       433  25 -6.254834E+05 -8.467753E+04 -8.667015E+04  2.904804E+04  3.156056E+04  3.494526E+03
       433  26 -5.981417E+05 -5.585102E+04 -6.017062E+04  1.752999E+04  1.720516E+04  1.093172E+04
       433  27 -5.777794E+05 -4.727144E+04 -4.807949E+04  1.336857E+04  2.869560E+03  1.189797E+04
       434   1 -1.952735E+05  4.303294E+04  3.158973E+04  1.700173E+04 -5.545967E+03 -1.074051E+04
       434   2 -2.188952E+05  3.813322E+04  2.901151E+04  1.335869E+04 -4.390342E+03 -9.666987E+03
       434   3 -2.429064E+05  3.251175E+04  2.548653E+04  1.739206E+04 -3.236171E+03 -8.242872E+03
       434   4 -3.772624E+05 -8.361700E+02 -5.712907E+03  1.684676E+04 -4.493558E+03 -1.073723E+04
       434   5 -3.770299E+05  6.324895E+01 -3.145664E+03  1.300679E+04 -2.926175E+03 -9.662217E+03
       434   6 -3.772595E+05  1.692094E+02 -1.811583E+03  1.684335E+04 -1.360209E+03 -8.236567E+03
       434   7 -5.592198E+05 -4.470737E+04 -4.301730E+04  1.669182E+04 -3.441452E+03 -1.073395E+04
       434   8 -5.351408E+05 -3.800828E+04 -3.530414E+04  1.265496E+04 -1.462374E+03 -9.657447E+03
       434   9 -5.115954E+05 -3.217446E+04 -2.911062E+04  1.629476E+04  5.153551E+02 -8.230265E+03
       434  10 -1.952736E+05  4.303281E+04  3.158946E+04  1.700168E+04  1.428368E-09 -6.468102E-10
       434  11 -2.188952E+05  3.813311E+04  2.901130E+04  1.335865E+04  4.696064E-09  8.318597E-09
       434  12 -2.429064E+05  3.251168E+04  2.548638E+04  1.739203E+04  2.999399E-09  1.182448E-08
       434  13 -3.772624E+05 -8.362992E+02 -5.713162E+03  1.684673E+04  1.451542E-09  1.174616E-08
       434  14 -3.770299E+05  6.314642E+01 -3.145855E+03  1.300677E+04  1.663135E-09 -1.756376E-08
       434  15 -3.772595E+05  1.691361E+02 -1.811714E+03  1.684334E+04  4.077105E-09  1.317360E-08
       434  16 -5.592198E+05 -4.470749E+04 -4.301754E+04  1.669179E+04  5.164479E-11 -7.325028E-09
       434  17 -5.351408E+05 -3.800838E+04 -3.530432E+04  1.265495E+04 -2.312095E-09 -4.759195E-09
       434  18 -5.115955E+05 -3.217453E+04 -2.911075E+04  1.629476E+04 -2.837613E-09  2.828370E-09
       434  19 -1.952735E+05  4.303294E+04  3.158973E+04  1.700173E+04  5.545967E+03  1.074051E+04
       434  20 -2.188952E+05  3.813322E+04  2.901151E+04  1.335869E+04  4.390342E+03  9.666987E+03
       434  21 -2.429064E+05  3.251175E+04  2.548653E+04  1.739206E+04  3.236171E+03  8.242872E+03
       434  22 -3.772624E+05 -8.361700E+02 -5.712907E+03  1.684676E+04  4.493558E+03  1.073723E+04
       434  23 -3.770299E+05  6.324895E+01 -3.145664E+03  1.300679E+04  2.926175E+03  9.662217E+03
       434  24 -3.772595E+05  1.692094E+02 -1.811583E+03  1.684335E+04  1.360209E+03  8.236567E+03
       434  25 -5.592198E+05 -4.470737E+04 -4.301730E+04  1.669182E+04  3.441452E+03  1.073395E+04
       434  26 -5.351408E+05 -3.800828E+04 -3.530414E+04  1.265496E+04  1.462374E+03  9.657447E+03
       434  27 -5.115954E+05 -3.217446E+04 -2.911062E+04  1.629476E+04 -5.153551E+02  8.230265E+03
       435   1 -2.600983E+05  2.826316E+04  2.229795E+04  1.720767E+04 -2.873661E+03 -7.319648E+03
       435   2 -2.839003E+05  2.253967E+04  1.808605E+04  1.327865E+04 -2.502430E+03 -5.783799E+03
       435   3 -3.078113E+05  1.683374E+04  1.362042E+04  1.705953E+04 -2.131421E+03 -4.228332E+03
       435   4 -3.771810E+05  9.964807E+01 -1.387021E+03  1.685163E+04 -1.081007E+03 -7.313564E+03
       435   5 -3.771237E+05  1.081570E+02 -8.071585E+02  1.299659E+04 -6.867990E+02 -5.777557E+03
       435   6 -3.771795E+05  1.303350E+02 -4.969227E+02  1.685152E+04 -2.927988E+02 -4.221929E+03
       435   7 -4.942507E+05 -2.806471E+04 -2.507269E+04  1.649564E+04  7.113152E+02 -7.307483E+03
       435   8 -4.703389E+05 -2.232390E+04 -1.970080E+04  1.271456E+04  1.128565E+03 -5.771317E+03
       435   9 -4.465432E+05 -1.657337E+04 -1.461450E+04  1.664353E+04  1.545622E+03 -4.215526E+03
       435  10 -2.600983E+05  2.826310E+04  2.229783E+04  1.720765E+04  1.276713E-08 -3.672484E-09
       435  11 -2.839003E+05  2.253963E+04  1.808597E+04  1.327864E+04  7.477347E-09 -8.389904E-09
       435  12 -3.078113E+05  1.683372E+04  1.362038E+04  1.705953E+04 -4.725430E-09 -1.756316E-09
       435  13 -3.771811E+05  9.959033E+01 -1.387124E+03  1.685162E+04  1.872814E-09 -1.056783E-09
       435  14 -3.771237E+05  1.081211E+02 -8.072221E+02  1.299658E+04  9.234668E-10 -4.030516E-09
       435  15 -3.771796E+05  1.303159E+02 -4.969563E+02  1.685152E+04  4.504277E-09 -7.072298E-09
       435  16 -4.942508E+05 -2.806477E+04 -2.507279E+04  1.649565E+04 -1.164803E-08 -2.125025E-09
       435  17 -4.703389E+05 -2.232393E+04 -1.970087E+04  1.271457E+04 -5.357179E-09  5.323779E-09
       435  18 -4.465432E+05 -1.657339E+04 -1.461454E+04  1.664354E+04  5.029334E-09  7.162619E-09
       435  19 -2.600983E+05  2.826316E+04  2.229795E+04  1.720767E+04  2.873661E+03  7.319648E+03
       435  20 -2.839003E+05  2.253967E+04  1.808605E+04  1.327865E+04  2.502430E+03  5.783799E+03
       435  21 -3.078113E+05  1.683374E+04  1.362042E+04  1.705953E+04  2.131421E+03  4.228332E+03
       435  22 -3.771810E+05  9.964807E+01 -1.387021E+03  1.685163E+04  1.081007E+03  7.313564E+03
       435  23 -3.771237E+05  1.081570E+02 -8.071585E+02  1.299659E+04  6.867990E+02  5.777557E+03
       435  24 -3.771795E+05  1.303350E+02 -4.969227E+02  1.685152E+04  2.927988E+02  4.221929E+03
       435  25 -4.942507E+05 -2.806471E+04 -2.507269E+04  1.649564E+04 -7.113152E+02  7.307483E+03
       435  26 -4.703389E+05 -2.232390E+04 -1.970080E+04  1.271456E+04 -1.128565E+03  5.771317E+03
       435  27 -4.465432E+05 -1.657337E+04 -1.461450E+04  1.664353E+04 -1.545622E+03  4.215526E+03
       436   1 -3.250859E+05  1.264804E+04  1.008650E+04  1.700660E+04 -2.048952E+03 -3.318011E+03
       436   2 -3.489271E+05  6.889884E+03  5.405874E+03  1.307403E+04 -1.903045E+03 -1.756243E+03
       436   3 -3.728417E+05  1.182782E+03  6.259900E+02  1.685904E+04 -1.757192E+03 -1.932818E+02
       436   4 -3.771705E+05  1.280209E+02 -4.050810E+02  1.685326E+04 -2.143679E+02 -3.311590E+03
       436   5 -3.771331E+05  1.030377E+02 -3.090910E+02  1.299445E+04 -6.710113E+01 -1.749793E+03
       436   6 -3.771700E+05  1.289041E+02 -3.133042E+02  1.685325E+04  8.011683E+01 -1.868023E+02
       436   7 -4.292524E+05 -1.239217E+04 -1.089679E+04  1.669992E+04  1.620065E+03 -3.305170E+03
       436   8 -4.053384E+05 -6.683856E+03 -6.024085E+03  1.291488E+04  1.768761E+03 -1.743344E+03
       436   9 -3.814983E+05 -9.249732E+02 -1.252587E+03  1.684747E+04  1.917413E+03 -1.803228E+02
       436  10 -3.250860E+05  1.264803E+04  1.008647E+04  1.700660E+04  4.064780E-09 -9.106363E-09
       436  11 -3.489271E+05  6.889879E+03  5.405862E+03  1.307403E+04 -3.181985E-09  5.457540E-10
       436  12 -3.728417E+05  1.182781E+03  6.259841E+02  1.685904E+04 -1.378006E-08  7.629738E-10
       436  13 -3.771705E+05  1.280091E+02 -4.051017E+02  1.685326E+04  1.849143E-09  3.266970E-09
       436  14 -3.771331E+05  1.030344E+02 -3.090968E+02  1.299445E+04  9.994570E-10 -7.812875E-09
       436  15 -3.771700E+05  1.289041E+02 -3.133043E+02  1.685325E+04  4.598109E-09 -3.620447E-09
       436  16 -4.292524E+05 -1.239218E+04 -1.089682E+04  1.669992E+04 -2.916930E-09  4.341142E-09
       436  17 -4.053384E+05 -6.683860E+03 -6.024096E+03  1.291488E+04  5.157878E-09  9.169063E-09
       436  18 -3.814983E+05 -9.249742E+02 -1.252594E+03  1.684747E+04  1.418831E-08  2.428867E-09
       436  19 -3.250859E+05  1.264804E+04  1.008650E+04  1.700660E+04  2.048952E+03  3.318011E+03
       436  20 -3.489271E+05  6.889884E+03  5.405874E+03  1.307403E+04  1.903045E+03  1.756243E+03
       436  21 -3.728417E+05  1.182782E+03  6.259900E+02  1.685904E+04  1.757192E+03  1.932818E+02
       436  22 -3.771705E+05  1.280209E+02 -4.050810E+02  1.685326E+04  2.143679E+02  3.311590E+03
       436  23 -3.771331E+05  1.030377E+02 -3.090910E+02  1.299445E+04  6.710113E+01  1.749793E+03
       436  24 -3.771700E+05  1.289041E+02 -3.133042E+02  1.685325E+04 -8.011683E+01  1.868023E+02
       436  25 -4.292524E+05 -1.239217E+04 -1.089679E+04  1.669992E+04 -1.620065E+03  3.305170E+03
       436  26 -4.053384E+05 -6.683856E+03 -6.024085E+03  1.291488E+04 -1.768761E+03  1.743344E+03
       436  27 -3.814983E+05 -9.249732E+02 -1.252587E+03  1.684747E+04 -1.917413E+03  1.803228E+02
       437   1 -3.901344E+05 -3.002433E+03 -3.039606E+03  1.680964E+04 -1.700018E+03  7.167039E+02
       437   2 -4.139659E+05 -8.756462E+03 -7.977145E+03  1.287096E+04 -1.450356E+03  2.279996E+03
       437   3 -4.378848E+05 -1.446279E+04 -1.308229E+04  1.664955E+04 -1.200646E+03  3.841996E+03
       437   4 -3.771731E+05  1.288678E+02 -3.511438E+02  1.685317E+04  1.372426E+02  7.231810E+02
       437   5 -3.771294E+05  1.075349E+02 -5.132817E+02  1.299454E+04  3.853518E+02  2.286435E+03
       437   6 -3.771737E+05  1.341109E+02 -8.420326E+02  1.685315E+04  6.335200E+02  3.848398E+03
       437   7 -3.642116E+05  3.260160E+03  2.337322E+03  1.689670E+04  1.974541E+03  7.296582E+02
       437   8 -3.402916E+05  8.971449E+03  6.950524E+03  1.311813E+04  2.221167E+03  2.292874E+03
       437   9 -3.164591E+05  1.473079E+04  1.139805E+04  1.705677E+04  2.467861E+03  3.854801E+03
       437  10 -3.901344E+05 -3.002434E+03 -3.039613E+03  1.680964E+04  2.933189E-09  4.611242E-09
       437  11 -4.139659E+05 -8.756468E+03 -7.977158E+03  1.287096E+04  2.119823E-09 -4.490665E-09
       437  12 -4.378848E+05 -1.446281E+04 -1.308232E+04  1.664955E+04 -8.108041E-09 -3.748164E-09
       437  13 -3.771731E+05  1.288672E+02 -3.511449E+02  1.685317E+04  1.566080E-09  8.881878E-09
       437  14 -3.771294E+05  1.075293E+02 -5.132918E+02  1.299454E+04  9.780971E-10 -7.456075E-09
       437  15 -3.771737E+05  1.340949E+02 -8.420612E+02  1.685315E+04  4.618162E-09 -4.651000E-09
       437  16 -3.642116E+05  3.260158E+03  2.337314E+03  1.689670E+04 -2.124080E-09  1.836805E-09
       437  17 -3.402916E+05  8.971442E+03  6.950504E+03  1.311812E+04  6.118745E-10 -1.636106E-08
       437  18 -3.164591E+05  1.473077E+04  1.139801E+04  1.705677E+04  8.956145E-09 -8.121653E-09
       437  19 -3.901344E+05 -3.002433E+03 -3.039606E+03  1.680964E+04  1.700018E+03 -7.167039E+02
       437  20 -4.139659E+05 -8.756462E+03 -7.977145E+03  1.287096E+04  1.450356E+03 -2.279996E+03
       437  21 -4.378848E+05 -1.446279E+04 -1.308229E+04  1.664955E+04  1.200646E+03 -3.841996E+03
       437  22 -3.771731E+05  1.288678E+02 -3.511438E+02  1.685317E+04 -1.372426E+02 -7.231810E+02
       437  23 -3.771294E+05  1.075349E+02 -5.132817E+02  1.299454E+04 -3.853518E+02 -2.286435E+03
       437  24 -3.771737E+05  1.341109E+02 -8.420326E+02  1.685315E+04 -6.335200E+02 -3.848398E+03
       437  25 -3.642116E+05  3.260160E+03  2.337322E+03  1.689670E+04 -1.974541E+03 -7.296582E+02
       437  26 -3.402916E+05  8.971449E+03  6.950524E+03  1.311813E+04 -2.221167E+03 -2.292874E+03
       437  27 -3.164591E+05  1.473079E+04  1.139805E+04  1.705677E+04 -2.467861E+03 -3.854801E+03
       438   1 -4.551889E+05 -1.864004E+04 -1.696077E+04  1.658089E+04 -1.032700E+03  4.752595E+03
       438   2 -4.789380E+05 -2.437988E+04 -2.252428E+04  1.263773E+04 -8.234526E+01  6.309726E+03
       438   3 -5.028871E+05 -3.016599E+04 -2.873479E+04  1.640162E+04  8.682169E+02  7.846506E+03
       438   4 -3.771982E+05  1.399933E+02 -1.095043E+03  1.685078E+04  8.055440E+02  4.758975E+03
       438   5 -3.771011E+05  1.274699E+02 -1.883321E+03  1.299741E+04  1.732102E+03  6.315934E+03
       438   6 -3.772000E+05  7.295241E+01 -3.301876E+03  1.685102E+04  2.658902E+03  7.852546E+03
       438   7 -2.992017E+05  1.891965E+04  1.477038E+04  1.712070E+04  2.644015E+03  4.765356E+03
       438   8 -2.752544E+05  2.463418E+04  1.875711E+04  1.335714E+04  3.546841E+03  6.322144E+03
       438   9 -2.514978E+05  3.031091E+04  2.213024E+04  1.730049E+04  4.449943E+03  7.858588E+03
       438  10 -4.551889E+05 -1.864007E+04 -1.696081E+04  1.658089E+04 -7.374220E-09 -2.114252E-09
       438  11 -4.789380E+05 -2.437992E+04 -2.252435E+04  1.263773E+04  1.119496E-09 -8.217353E-09
       438  12 -5.028871E+05 -3.016606E+04 -2.873491E+04  1.640162E+04  5.801719E-10 -8.140680E-10
       438  13 -3.771982E+05  1.399688E+02 -1.095087E+03  1.685078E+04  2.007394E-09 -4.252335E-09
       438  14 -3.771012E+05  1.274263E+02 -1.883402E+03  1.299740E+04  1.022400E-09 -2.160114E-09
       438  15 -3.772000E+05  7.288431E+01 -3.302005E+03  1.685100E+04  4.420013E-09 -1.345849E-09
       438  16 -2.992018E+05  1.891963E+04  1.477032E+04  1.712069E+04  8.093806E-09  5.363748E-09
       438  17 -2.752544E+05  2.463413E+04  1.875701E+04  1.335713E+04  2.128384E-09 -7.440041E-09
       438  18 -2.514979E+05  3.031084E+04  2.213008E+04  1.730047E+04  1.996094E-10  1.412468E-09
       438  19 -4.551889E+05 -1.864004E+04 -1.696077E+04  1.658089E+04  1.032700E+03 -4.752595E+03
       438  20 -4.789380E+05 -2.437988E+04 -2.252428E+04  1.263773E+04  8.234526E+01 -6.309726E+03
       438  21 -5.028871E+05 -3.016599E+04 -2.873479E+04  1.640162E+04 -8.682169E+02 -7.846506E+03
       438  22 -3.771982E+05  1.399933E+02 -1.095043E+03  1.685078E+04 -8.055440E+02 -4.758975E+03
       438  23 -3.771011E+05  1.274699E+02 -1.883321E+03  1.299741E+04 -1.732102E+03 -6.315934E+03
       438  24 -3.772000E+05  7.295241E+01 -3.301876E+03  1.685102E+04 -2.658902E+03 -7.852546E+03
       438  25 -2.992017E+05  1.891965E+04  1.477038E+04  1.712070E+04 -2.644015E+03 -4.765356E+03
       438  26 -2.752544E+05  2.463418E+04  1.875711E+04  1.335714E+04 -3.546841E+03 -6.322144E+03
       438  27 -2.514978E+05  3.031091E+04  2.213024E+04  1.730049E+04 -4.449943E+03 -7.858588E+03
       439   1 -5.203366E+05 -3.417721E+04 -3.337577E+04  1.599148E+04  1.452578E+03  8.770838E+03
       439   2 -5.435844E+05 -4.011441E+04 -4.145372E+04  1.271035E+04  5.642019E+03  1.020032E+04
       439   3 -5.679507E+05 -4.810767E+04 -5.278955E+04  1.710579E+04  9.832726E+03  1.126721E+04
       439   4 -3.773896E+05  2.412445E+02 -4.330828E+03  1.684222E+04  3.329325E+03  8.777103E+03
       439   5 -3.768690E+05  2.805067E+01 -7.547614E+03  1.300806E+04  7.093552E+03  1.020500E+04
       439   6 -3.773933E+05 -2.166931E+03 -1.372619E+04  1.685036E+04  1.085920E+04  1.127035E+04
       439   7 -2.344231E+05  3.465843E+04  2.471306E+04  1.769314E+04  5.206496E+03  8.783374E+03
       439   8 -2.101272E+05  4.016878E+04  2.635704E+04  1.330582E+04  8.545467E+03  1.020969E+04
       439   9 -1.868013E+05  4.377153E+04  2.533525E+04  1.659482E+04  1.188599E+04  1.127349E+04
       439  10 -5.203366E+05 -3.417730E+04 -3.337592E+04  1.599147E+04  8.857275E-09 -3.086257E-09
       439  11 -5.435844E+05 -4.011453E+04 -4.145397E+04  1.271031E+04  2.836730E-09  4.481704E-09
       439  12 -5.679509E+05 -4.810784E+04 -5.278997E+04  1.710571E+04 -6.799024E-09 -2.129449E-09
       439  13 -3.773896E+05  2.411589E+02 -4.330993E+03  1.684219E+04  2.171046E-09 -1.362003E-08
       439  14 -3.768691E+05  2.792535E+01 -7.547905E+03  1.300800E+04  4.321330E-10  4.132436E-09
       439  15 -3.773934E+05 -2.167099E+03 -1.372665E+04  1.685026E+04  4.170193E-09 -2.110158E-10
       439  16 -2.344231E+05  3.465834E+04  2.471287E+04  1.769310E+04 -7.954976E-09 -8.946544E-09
       439  17 -2.101273E+05  4.016864E+04  2.635671E+04  1.330575E+04 -9.738970E-10 -1.579428E-08
       439  18 -1.868015E+05  4.377136E+04  2.533474E+04  1.659471E+04  7.290648E-09  2.162663E-09
       439  19 -5.203366E+05 -3.417721E+04 -3.337577E+04  1.599148E+04 -1.452578E+03 -8.770838E+03
       439  20 -5.435844E+05 -4.011441E+04 -4.145372E+04  1.271035E+04 -5.642019E+03 -1.020032E+04
       439  21 -5.679507E+05 -4.810767E+04 -5.278955E+04  1.710579E+04 -9.832726E+03 -1.126721E+04
       439  22 -3.773896E+05  2.412445E+02 -4.330828E+03  1.684222E+04 -3.329325E+03 -8.777103E+03
       439  23 -3.768690E+05  2.805067E+01 -7.547614E+03  1.300806E+04 -7.093552E+03 -1.020500E+04
       439  24 -3.773933E+05 -2.166931E+03 -1.372619E+04  1.685036E+04 -1.085920E+04 -1.127035E+04
       439  25 -2.344231E+05  3.465843E+04  2.471306E+04  1.769314E+04 -5.206496E+03 -8.783374E+03
       439  26 -2.101272E+05  4.016878E+04  2.635704E+04  1.330582E+04 -8.545467E+03 -1.020969E+04
       439  27 -1.868013E+05  4.377153E+04  2.533525E+04  1.659482E+04 -1.188599E+04 -1.127349E+04
       440   1 -5.881057E+05 -4.839730E+04 -6.008828E+04  9.282373E+03  1.059953E+04  1.244395E+04
       440   2 -6.045645E+05 -6.064526E+04 -7.999894E+04  2.449873E+04  3.463574E+04  1.142222E+04
       440   3 -6.359414E+05 -1.198353E+05 -1.273106E+05  4.711509E+04  5.869139E+04  3.711847E+03
       440   4 -3.801718E+05  1.774158E+03 -1.756420E+04  1.674504E+04  1.323911E+04  1.245247E+04
       440   5 -3.734045E+05 -4.649066E+03 -3.085361E+04  1.313906E+04  2.941911E+04  1.140432E+04
       440   6 -3.801863E+05 -5.664146E+04 -6.608009E+04  1.693427E+04  4.561991E+04  3.667192E+03
       440   7 -1.721967E+05  5.194311E+04  2.495766E+04  2.421021E+04  1.587956E+04  1.246105E+04
       440   8 -1.421936E+05  5.134418E+04  1.828884E+04  1.775060E+03  2.420057E+04  1.138661E+04
       440   9 -1.243689E+05  6.551223E+03 -4.853052E+03 -1.325910E+04  3.254307E+04  3.623820E+03
       440  10 -5.881059E+05 -4.839750E+04 -6.008879E+04  9.282267E+03  5.792110E-09 -4.722860E-09
       440  11 -6.045659E+05 -6.064572E+04 -8.000144E+04  2.449841E+04  7.842929E-09 -2.513933E-10
       440  12 -6.359451E+05 -1.198362E+05 -1.273171E+05  4.711492E+04  1.414950E-09  7.487194E-09
       440  13 -3.801721E+05  1.773944E+03 -1.756482E+04  1.674490E+04  1.596980E-09  6.627423E-10
       440  14 -3.734054E+05 -4.649438E+03 -3.085548E+04  1.313879E+04  8.199987E-10  1.904760E-09
       440  15 -3.801886E+05 -5.664203E+04 -6.608403E+04  1.693413E+04  3.858205E-09  7.920528E-09
       440  16 -1.721970E+05  5.194287E+04  2.495689E+04  2.421005E+04 -4.978177E-09  2.571080E-09
       440  17 -1.421943E+05  5.134388E+04  1.828750E+04  1.774838E+03 -5.994181E-09  3.087623E-09
       440  18 -1.243701E+05  6.550924E+03 -4.855067E+03 -1.325919E+04 -1.250372E-09  5.983011E-10
       440  19 -5.881057E+05 -4.839730E+04 -6.008828E+04  9.282373E+03 -1.059953E+04 -1.244395E+04
       440  20 -6.045645E+05 -6.064526E+04 -7.999894E+04  2.449873E+04 -3.463574E+04 -1.142222E+04
       440  21 -6.359414E+05 -1.198353E+05 -1.273106E+05  4.711509E+04 -5.869139E+04 -3.711847E+03
       440  22 -3.801718E+05  1.774158E+03 -1.756420E+04  1.674504E+04 -1.323911E+04 -1.245247E+04
       440  23 -3.734045E+05 -4.649066E+03 -3.085361E+04  1.313906E+04 -2.941911E+04 -1.140432E+04
       440  24 -3.801863E+05 -5.664146E+04 -6.608009E+04  1.693427E+04 -4.561991E+04 -3.667192E+03
       440  25 -1.721967E+05  5.194311E+04  2.495766E+04  2.421021E+04 -1.587956E+04 -1.246105E+04
       440  26 -1.421936E+05  5.134418E+04  1.828884E+04  1.775060E+03 -2.420057E+04 -1.138661E+04
       440  27 -1.243689E+05  6.551223E+03 -4.853052E+03 -1.325910E+04 -3.254307E+04 -3.623820E+03
