    1C
    1UUSER                                                              
    1UDATE              11.october.2022                                 
    1UTIME              17:30:33                                        
    1UHOST                                                              
    1UPGM               CalculiX                                        
    1UVERSION           Version 2.20                             
    1UCOMPILETIME       Sun Jul 31 18:08:37 CEST 2022                    
    1UDIR                                                               
    1UDBN                                                               
    1UMAT    1MESH_MATERIAL                                             
    2C                           841                                     1
 -1         1 0.00000E+00 0.00000E+00 0.00000E+00
 -1         2 1.66667E-02 0.00000E+00 0.00000E+00
 -1         3 3.33333E-02 0.00000E+00 0.00000E+00
 -1         4 5.00000E-02 0.00000E+00 0.00000E+00
 -1         5 6.66667E-02 0.00000E+00 0.00000E+00
 -1         8 0.00000E+00 6.25000E-03 0.00000E+00
 -1         9 1.66667E-02 6.25000E-03 0.00000E+00
 -1        10 3.33333E-02 6.25000E-03 0.00000E+00
 -1        11 5.00000E-02 6.25000E-03 0.00000E+00
 -1        12 6.66667E-02 6.25000E-03 0.00000E+00
 -1        15 0.00000E+00 1.25000E-02 0.00000E+00
 -1        16 1.66667E-02 1.25000E-02 0.00000E+00
 -1        17 3.33333E-02 1.25000E-02 0.00000E+00
 -1        18 5.00000E-02 1.25000E-02 0.00000E+00
 -1        19 6.66667E-02 1.25000E-02 0.00000E+00
 -1        20 8.33333E-02 1.25000E-02 0.00000E+00
 -1        21 1.00000E-01 1.25000E-02 0.00000E+00
 -1        22 0.00000E+00 1.87500E-02 0.00000E+00
 -1        23 1.66667E-02 1.87500E-02 0.00000E+00
 -1        24 3.33333E-02 1.87500E-02 0.00000E+00
 -1        25 5.00000E-02 1.87500E-02 0.00000E+00
 -1        26 6.66667E-02 1.87500E-02 0.00000E+00
 -1        27 8.33333E-02 1.87500E-02 0.00000E+00
 -1        28 1.00000E-01 1.87500E-02 0.00000E+00
 -1        29 0.00000E+00 2.50000E-02 0.00000E+00
 -1        30 1.66667E-02 2.50000E-02 0.00000E+00
 -1        31 3.33333E-02 2.50000E-02 0.00000E+00
 -1        32 5.00000E-02 2.50000E-02 0.00000E+00
 -1        33 6.66667E-02 2.50000E-02 0.00000E+00
 -1        34 8.33333E-02 2.50000E-02 0.00000E+00
 -1        35 1.00000E-01 2.50000E-02 0.00000E+00
 -1        36 1.04167E-03 0.00000E+00 0.00000E+00
 -1        37 2.08333E-03 0.00000E+00 0.00000E+00
 -1        38 3.12500E-03 0.00000E+00 0.00000E+00
 -1        39 4.16667E-03 0.00000E+00 0.00000E+00
 -1        40 5.20833E-03 0.00000E+00 0.00000E+00
 -1        41 6.25000E-03 0.00000E+00 0.00000E+00
 -1        42 7.29167E-03 0.00000E+00 0.00000E+00
 -1        43 8.33333E-03 0.00000E+00 0.00000E+00
 -1        44 9.37500E-03 0.00000E+00 0.00000E+00
 -1        45 1.04167E-02 0.00000E+00 0.00000E+00
 -1        46 1.14583E-02 0.00000E+00 0.00000E+00
 -1        47 1.25000E-02 0.00000E+00 0.00000E+00
 -1        48 1.35417E-02 0.00000E+00 0.00000E+00
 -1        49 1.45833E-02 0.00000E+00 0.00000E+00
 -1        50 1.56250E-02 0.00000E+00 0.00000E+00
 -1        51 0.00000E+00 1.04167E-03 0.00000E+00
 -1        52 0.00000E+00 2.08333E-03 0.00000E+00
 -1        53 0.00000E+00 3.12500E-03 0.00000E+00
 -1        54 0.00000E+00 4.16667E-03 0.00000E+00
 -1        55 0.00000E+00 5.20833E-03 0.00000E+00
 -1        56 1.04167E-03 3.90630E-04 0.00000E+00
 -1        57 2.08333E-03 7.81250E-04 0.00000E+00
 -1        58 3.12500E-03 1.17188E-03 0.00000E+00
 -1        59 4.16667E-03 1.56250E-03 0.00000E+00
 -1        60 5.20833E-03 1.95312E-03 0.00000E+00
 -1        61 6.25000E-03 2.34375E-03 0.00000E+00
 -1        62 7.29167E-03 2.73438E-03 0.00000E+00
 -1        63 8.33333E-03 3.12500E-03 0.00000E+00
 -1        64 9.37500E-03 3.51563E-03 0.00000E+00
 -1        65 1.04167E-02 3.90625E-03 0.00000E+00
 -1        66 1.14583E-02 4.29688E-03 0.00000E+00
 -1        67 1.25000E-02 4.68750E-03 0.00000E+00
 -1        68 1.35417E-02 5.07813E-03 0.00000E+00
 -1        69 1.45833E-02 5.46875E-03 0.00000E+00
 -1        70 1.56250E-02 5.85938E-03 0.00000E+00
 -1        71 1.77083E-02 0.00000E+00 0.00000E+00
 -1        72 1.87500E-02 0.00000E+00 0.00000E+00
 -1        73 1.97917E-02 0.00000E+00 0.00000E+00
 -1        74 2.08333E-02 0.00000E+00 0.00000E+00
 -1        75 2.18750E-02 0.00000E+00 0.00000E+00
 -1        76 2.29167E-02 0.00000E+00 0.00000E+00
 -1        77 2.39583E-02 0.00000E+00 0.00000E+00
 -1        78 2.50000E-02 0.00000E+00 0.00000E+00
 -1        79 2.60417E-02 0.00000E+00 0.00000E+00
 -1        80 2.70833E-02 0.00000E+00 0.00000E+00
 -1        81 2.81250E-02 0.00000E+00 0.00000E+00
 -1        82 2.91667E-02 0.00000E+00 0.00000E+00
 -1        83 3.02083E-02 0.00000E+00 0.00000E+00
 -1        84 3.12500E-02 0.00000E+00 0.00000E+00
 -1        85 3.22917E-02 0.00000E+00 0.00000E+00
 -1        86 1.66667E-02 1.04167E-03 0.00000E+00
 -1        87 1.66667E-02 2.08333E-03 0.00000E+00
 -1        88 1.66667E-02 3.12500E-03 0.00000E+00
 -1        89 1.66667E-02 4.16667E-03 0.00000E+00
 -1        90 1.66667E-02 5.20833E-03 0.00000E+00
 -1        91 1.77083E-02 3.90630E-04 0.00000E+00
 -1        92 1.87500E-02 7.81250E-04 0.00000E+00
 -1        93 1.97917E-02 1.17188E-03 0.00000E+00
 -1        94 2.08333E-02 1.56250E-03 0.00000E+00
 -1        95 2.18750E-02 1.95312E-03 0.00000E+00
 -1        96 2.29167E-02 2.34375E-03 0.00000E+00
 -1        97 2.39583E-02 2.73438E-03 0.00000E+00
 -1        98 2.50000E-02 3.12500E-03 0.00000E+00
 -1        99 2.60417E-02 3.51563E-03 0.00000E+00
 -1       100 2.70833E-02 3.90625E-03 0.00000E+00
 -1       101 2.81250E-02 4.29688E-03 0.00000E+00
 -1       102 2.91667E-02 4.68750E-03 0.00000E+00
 -1       103 3.02083E-02 5.07813E-03 0.00000E+00
 -1       104 3.12500E-02 5.46875E-03 0.00000E+00
 -1       105 3.22917E-02 5.85938E-03 0.00000E+00
 -1       106 3.43750E-02 0.00000E+00 0.00000E+00
 -1       107 3.54167E-02 0.00000E+00 0.00000E+00
 -1       108 3.64583E-02 0.00000E+00 0.00000E+00
 -1       109 3.75000E-02 0.00000E+00 0.00000E+00
 -1       110 3.85417E-02 0.00000E+00 0.00000E+00
 -1       111 3.95833E-02 0.00000E+00 0.00000E+00
 -1       112 4.06250E-02 0.00000E+00 0.00000E+00
 -1       113 4.16667E-02 0.00000E+00 0.00000E+00
 -1       114 4.27083E-02 0.00000E+00 0.00000E+00
 -1       115 4.37500E-02 0.00000E+00 0.00000E+00
 -1       116 4.47917E-02 0.00000E+00 0.00000E+00
 -1       117 4.58333E-02 0.00000E+00 0.00000E+00
 -1       118 4.68750E-02 0.00000E+00 0.00000E+00
 -1       119 4.79167E-02 0.00000E+00 0.00000E+00
 -1       120 4.89583E-02 0.00000E+00 0.00000E+00
 -1       121 3.33333E-02 1.04167E-03 0.00000E+00
 -1       122 3.33333E-02 2.08333E-03 0.00000E+00
 -1       123 3.33333E-02 3.12500E-03 0.00000E+00
 -1       124 3.33333E-02 4.16667E-03 0.00000E+00
 -1       125 3.33333E-02 5.20833E-03 0.00000E+00
 -1       126 3.43750E-02 3.90630E-04 0.00000E+00
 -1       127 3.54167E-02 7.81250E-04 0.00000E+00
 -1       128 3.64583E-02 1.17188E-03 0.00000E+00
 -1       129 3.75000E-02 1.56250E-03 0.00000E+00
 -1       130 3.85417E-02 1.95312E-03 0.00000E+00
 -1       131 3.95833E-02 2.34375E-03 0.00000E+00
 -1       132 4.06250E-02 2.73438E-03 0.00000E+00
 -1       133 4.16667E-02 3.12500E-03 0.00000E+00
 -1       134 4.27083E-02 3.51563E-03 0.00000E+00
 -1       135 4.37500E-02 3.90625E-03 0.00000E+00
 -1       136 4.47917E-02 4.29688E-03 0.00000E+00
 -1       137 4.58333E-02 4.68750E-03 0.00000E+00
 -1       138 4.68750E-02 5.07813E-03 0.00000E+00
 -1       139 4.79167E-02 5.46875E-03 0.00000E+00
 -1       140 4.89583E-02 5.85938E-03 0.00000E+00
 -1       141 5.10417E-02 0.00000E+00 0.00000E+00
 -1       142 5.20833E-02 0.00000E+00 0.00000E+00
 -1       143 5.31250E-02 0.00000E+00 0.00000E+00
 -1       144 5.41667E-02 0.00000E+00 0.00000E+00
 -1       145 5.52083E-02 0.00000E+00 0.00000E+00
 -1       146 5.62500E-02 0.00000E+00 0.00000E+00
 -1       147 5.72917E-02 0.00000E+00 0.00000E+00
 -1       148 5.83333E-02 0.00000E+00 0.00000E+00
 -1       149 5.93750E-02 0.00000E+00 0.00000E+00
 -1       150 6.04167E-02 0.00000E+00 0.00000E+00
 -1       151 6.14583E-02 0.00000E+00 0.00000E+00
 -1       152 6.25000E-02 0.00000E+00 0.00000E+00
 -1       153 6.35417E-02 0.00000E+00 0.00000E+00
 -1       154 6.45833E-02 0.00000E+00 0.00000E+00
 -1       155 6.56250E-02 0.00000E+00 0.00000E+00
 -1       156 5.00000E-02 1.04167E-03 0.00000E+00
 -1       157 5.00000E-02 2.08333E-03 0.00000E+00
 -1       158 5.00000E-02 3.12500E-03 0.00000E+00
 -1       159 5.00000E-02 4.16667E-03 0.00000E+00
 -1       160 5.00000E-02 5.20833E-03 0.00000E+00
 -1       161 5.10417E-02 3.90630E-04 0.00000E+00
 -1       162 5.20833E-02 7.81250E-04 0.00000E+00
 -1       163 5.31250E-02 1.17188E-03 0.00000E+00
 -1       164 5.41667E-02 1.56250E-03 0.00000E+00
 -1       165 5.52083E-02 1.95312E-03 0.00000E+00
 -1       166 5.62500E-02 2.34375E-03 0.00000E+00
 -1       167 5.72917E-02 2.73438E-03 0.00000E+00
 -1       168 5.83333E-02 3.12500E-03 0.00000E+00
 -1       169 5.93750E-02 3.51563E-03 0.00000E+00
 -1       170 6.04167E-02 3.90625E-03 0.00000E+00
 -1       171 6.14583E-02 4.29688E-03 0.00000E+00
 -1       172 6.25000E-02 4.68750E-03 0.00000E+00
 -1       173 6.35417E-02 5.07813E-03 0.00000E+00
 -1       174 6.45833E-02 5.46875E-03 0.00000E+00
 -1       175 6.56250E-02 5.85938E-03 0.00000E+00
 -1       191 6.66667E-02 1.04167E-03 0.00000E+00
 -1       192 6.66667E-02 2.08333E-03 0.00000E+00
 -1       193 6.66667E-02 3.12500E-03 0.00000E+00
 -1       194 6.66667E-02 4.16667E-03 0.00000E+00
 -1       195 6.66667E-02 5.20833E-03 0.00000E+00
 -1       251 1.04167E-03 6.25000E-03 0.00000E+00
 -1       252 2.08333E-03 6.25000E-03 0.00000E+00
 -1       253 3.12500E-03 6.25000E-03 0.00000E+00
 -1       254 4.16667E-03 6.25000E-03 0.00000E+00
 -1       255 5.20833E-03 6.25000E-03 0.00000E+00
 -1       256 6.25000E-03 6.25000E-03 0.00000E+00
 -1       257 7.29167E-03 6.25000E-03 0.00000E+00
 -1       258 8.33333E-03 6.25000E-03 0.00000E+00
 -1       259 9.37500E-03 6.25000E-03 0.00000E+00
 -1       260 1.04167E-02 6.25000E-03 0.00000E+00
 -1       261 1.14583E-02 6.25000E-03 0.00000E+00
 -1       262 1.25000E-02 6.25000E-03 0.00000E+00
 -1       263 1.35417E-02 6.25000E-03 0.00000E+00
 -1       264 1.45833E-02 6.25000E-03 0.00000E+00
 -1       265 1.56250E-02 6.25000E-03 0.00000E+00
 -1       266 0.00000E+00 7.29167E-03 0.00000E+00
 -1       267 0.00000E+00 8.33333E-03 0.00000E+00
 -1       268 0.00000E+00 9.37500E-03 0.00000E+00
 -1       269 0.00000E+00 1.04167E-02 0.00000E+00
 -1       270 0.00000E+00 1.14583E-02 0.00000E+00
 -1       271 1.04167E-03 6.64063E-03 0.00000E+00
 -1       272 2.08333E-03 7.03125E-03 0.00000E+00
 -1       273 3.12500E-03 7.42188E-03 0.00000E+00
 -1       274 4.16667E-03 7.81250E-03 0.00000E+00
 -1       275 5.20833E-03 8.20313E-03 0.00000E+00
 -1       276 6.25000E-03 8.59375E-03 0.00000E+00
 -1       277 7.29167E-03 8.98438E-03 0.00000E+00
 -1       278 8.33333E-03 9.37500E-03 0.00000E+00
 -1       279 9.37500E-03 9.76562E-03 0.00000E+00
 -1       280 1.04167E-02 1.01562E-02 0.00000E+00
 -1       281 1.14583E-02 1.05469E-02 0.00000E+00
 -1       282 1.25000E-02 1.09375E-02 0.00000E+00
 -1       283 1.35417E-02 1.13281E-02 0.00000E+00
 -1       284 1.45833E-02 1.17188E-02 0.00000E+00
 -1       285 1.56250E-02 1.21094E-02 0.00000E+00
 -1       286 1.77083E-02 6.25000E-03 0.00000E+00
 -1       287 1.87500E-02 6.25000E-03 0.00000E+00
 -1       288 1.97917E-02 6.25000E-03 0.00000E+00
 -1       289 2.08333E-02 6.25000E-03 0.00000E+00
 -1       290 2.18750E-02 6.25000E-03 0.00000E+00
 -1       291 2.29167E-02 6.25000E-03 0.00000E+00
 -1       292 2.39583E-02 6.25000E-03 0.00000E+00
 -1       293 2.50000E-02 6.25000E-03 0.00000E+00
 -1       294 2.60417E-02 6.25000E-03 0.00000E+00
 -1       295 2.70833E-02 6.25000E-03 0.00000E+00
 -1       296 2.81250E-02 6.25000E-03 0.00000E+00
 -1       297 2.91667E-02 6.25000E-03 0.00000E+00
 -1       298 3.02083E-02 6.25000E-03 0.00000E+00
 -1       299 3.12500E-02 6.25000E-03 0.00000E+00
 -1       300 3.22917E-02 6.25000E-03 0.00000E+00
 -1       301 1.66667E-02 7.29167E-03 0.00000E+00
 -1       302 1.66667E-02 8.33333E-03 0.00000E+00
 -1       303 1.66667E-02 9.37500E-03 0.00000E+00
 -1       304 1.66667E-02 1.04167E-02 0.00000E+00
 -1       305 1.66667E-02 1.14583E-02 0.00000E+00
 -1       306 1.77083E-02 6.64063E-03 0.00000E+00
 -1       307 1.87500E-02 7.03125E-03 0.00000E+00
 -1       308 1.97917E-02 7.42188E-03 0.00000E+00
 -1       309 2.08333E-02 7.81250E-03 0.00000E+00
 -1       310 2.18750E-02 8.20313E-03 0.00000E+00
 -1       311 2.29167E-02 8.59375E-03 0.00000E+00
 -1       312 2.39583E-02 8.98438E-03 0.00000E+00
 -1       313 2.50000E-02 9.37500E-03 0.00000E+00
 -1       314 2.60417E-02 9.76562E-03 0.00000E+00
 -1       315 2.70833E-02 1.01562E-02 0.00000E+00
 -1       316 2.81250E-02 1.05469E-02 0.00000E+00
 -1       317 2.91667E-02 1.09375E-02 0.00000E+00
 -1       318 3.02083E-02 1.13281E-02 0.00000E+00
 -1       319 3.12500E-02 1.17188E-02 0.00000E+00
 -1       320 3.22917E-02 1.21094E-02 0.00000E+00
 -1       321 3.43750E-02 6.25000E-03 0.00000E+00
 -1       322 3.54167E-02 6.25000E-03 0.00000E+00
 -1       323 3.64583E-02 6.25000E-03 0.00000E+00
 -1       324 3.75000E-02 6.25000E-03 0.00000E+00
 -1       325 3.85417E-02 6.25000E-03 0.00000E+00
 -1       326 3.95833E-02 6.25000E-03 0.00000E+00
 -1       327 4.06250E-02 6.25000E-03 0.00000E+00
 -1       328 4.16667E-02 6.25000E-03 0.00000E+00
 -1       329 4.27083E-02 6.25000E-03 0.00000E+00
 -1       330 4.37500E-02 6.25000E-03 0.00000E+00
 -1       331 4.47917E-02 6.25000E-03 0.00000E+00
 -1       332 4.58333E-02 6.25000E-03 0.00000E+00
 -1       333 4.68750E-02 6.25000E-03 0.00000E+00
 -1       334 4.79167E-02 6.25000E-03 0.00000E+00
 -1       335 4.89583E-02 6.25000E-03 0.00000E+00
 -1       336 3.33333E-02 7.29167E-03 0.00000E+00
 -1       337 3.33333E-02 8.33333E-03 0.00000E+00
 -1       338 3.33333E-02 9.37500E-03 0.00000E+00
 -1       339 3.33333E-02 1.04167E-02 0.00000E+00
 -1       340 3.33333E-02 1.14583E-02 0.00000E+00
 -1       341 3.43750E-02 6.64063E-03 0.00000E+00
 -1       342 3.54167E-02 7.03125E-03 0.00000E+00
 -1       343 3.64583E-02 7.42188E-03 0.00000E+00
 -1       344 3.75000E-02 7.81250E-03 0.00000E+00
 -1       345 3.85417E-02 8.20313E-03 0.00000E+00
 -1       346 3.95833E-02 8.59375E-03 0.00000E+00
 -1       347 4.06250E-02 8.98438E-03 0.00000E+00
 -1       348 4.16667E-02 9.37500E-03 0.00000E+00
 -1       349 4.27083E-02 9.76562E-03 0.00000E+00
 -1       350 4.37500E-02 1.01562E-02 0.00000E+00
 -1       351 4.47917E-02 1.05469E-02 0.00000E+00
 -1       352 4.58333E-02 1.09375E-02 0.00000E+00
 -1       353 4.68750E-02 1.13281E-02 0.00000E+00
 -1       354 4.79167E-02 1.17188E-02 0.00000E+00
 -1       355 4.89583E-02 1.21094E-02 0.00000E+00
 -1       356 5.10417E-02 6.25000E-03 0.00000E+00
 -1       357 5.20833E-02 6.25000E-03 0.00000E+00
 -1       358 5.31250E-02 6.25000E-03 0.00000E+00
 -1       359 5.41667E-02 6.25000E-03 0.00000E+00
 -1       360 5.52083E-02 6.25000E-03 0.00000E+00
 -1       361 5.62500E-02 6.25000E-03 0.00000E+00
 -1       362 5.72917E-02 6.25000E-03 0.00000E+00
 -1       363 5.83333E-02 6.25000E-03 0.00000E+00
 -1       364 5.93750E-02 6.25000E-03 0.00000E+00
 -1       365 6.04167E-02 6.25000E-03 0.00000E+00
 -1       366 6.14583E-02 6.25000E-03 0.00000E+00
 -1       367 6.25000E-02 6.25000E-03 0.00000E+00
 -1       368 6.35417E-02 6.25000E-03 0.00000E+00
 -1       369 6.45833E-02 6.25000E-03 0.00000E+00
 -1       370 6.56250E-02 6.25000E-03 0.00000E+00
 -1       371 5.00000E-02 7.29167E-03 0.00000E+00
 -1       372 5.00000E-02 8.33333E-03 0.00000E+00
 -1       373 5.00000E-02 9.37500E-03 0.00000E+00
 -1       374 5.00000E-02 1.04167E-02 0.00000E+00
 -1       375 5.00000E-02 1.14583E-02 0.00000E+00
 -1       376 5.10417E-02 6.64063E-03 0.00000E+00
 -1       377 5.20833E-02 7.03125E-03 0.00000E+00
 -1       378 5.31250E-02 7.42188E-03 0.00000E+00
 -1       379 5.41667E-02 7.81250E-03 0.00000E+00
 -1       380 5.52083E-02 8.20313E-03 0.00000E+00
 -1       381 5.62500E-02 8.59375E-03 0.00000E+00
 -1       382 5.72917E-02 8.98438E-03 0.00000E+00
 -1       383 5.83333E-02 9.37500E-03 0.00000E+00
 -1       384 5.93750E-02 9.76562E-03 0.00000E+00
 -1       385 6.04167E-02 1.01562E-02 0.00000E+00
 -1       386 6.14583E-02 1.05469E-02 0.00000E+00
 -1       387 6.25000E-02 1.09375E-02 0.00000E+00
 -1       388 6.35417E-02 1.13281E-02 0.00000E+00
 -1       389 6.45833E-02 1.17188E-02 0.00000E+00
 -1       390 6.56250E-02 1.21094E-02 0.00000E+00
 -1       406 6.66667E-02 7.29167E-03 0.00000E+00
 -1       407 6.66667E-02 8.33333E-03 0.00000E+00
 -1       408 6.66667E-02 9.37500E-03 0.00000E+00
 -1       409 6.66667E-02 1.04167E-02 0.00000E+00
 -1       410 6.66667E-02 1.14583E-02 0.00000E+00
 -1       466 1.04167E-03 1.25000E-02 0.00000E+00
 -1       467 2.08333E-03 1.25000E-02 0.00000E+00
 -1       468 3.12500E-03 1.25000E-02 0.00000E+00
 -1       469 4.16667E-03 1.25000E-02 0.00000E+00
 -1       470 5.20833E-03 1.25000E-02 0.00000E+00
 -1       471 6.25000E-03 1.25000E-02 0.00000E+00
 -1       472 7.29167E-03 1.25000E-02 0.00000E+00
 -1       473 8.33333E-03 1.25000E-02 0.00000E+00
 -1       474 9.37500E-03 1.25000E-02 0.00000E+00
 -1       475 1.04167E-02 1.25000E-02 0.00000E+00
 -1       476 1.14583E-02 1.25000E-02 0.00000E+00
 -1       477 1.25000E-02 1.25000E-02 0.00000E+00
 -1       478 1.35417E-02 1.25000E-02 0.00000E+00
 -1       479 1.45833E-02 1.25000E-02 0.00000E+00
 -1       480 1.56250E-02 1.25000E-02 0.00000E+00
 -1       481 0.00000E+00 1.35417E-02 0.00000E+00
 -1       482 0.00000E+00 1.45833E-02 0.00000E+00
 -1       483 0.00000E+00 1.56250E-02 0.00000E+00
 -1       484 0.00000E+00 1.66667E-02 0.00000E+00
 -1       485 0.00000E+00 1.77083E-02 0.00000E+00
 -1       486 1.04167E-03 1.28906E-02 0.00000E+00
 -1       487 2.08333E-03 1.32813E-02 0.00000E+00
 -1       488 3.12500E-03 1.36719E-02 0.00000E+00
 -1       489 4.16667E-03 1.40625E-02 0.00000E+00
 -1       490 5.20833E-03 1.44531E-02 0.00000E+00
 -1       491 6.25000E-03 1.48437E-02 0.00000E+00
 -1       492 7.29167E-03 1.52344E-02 0.00000E+00
 -1       493 8.33333E-03 1.56250E-02 0.00000E+00
 -1       494 9.37500E-03 1.60156E-02 0.00000E+00
 -1       495 1.04167E-02 1.64062E-02 0.00000E+00
 -1       496 1.14583E-02 1.67969E-02 0.00000E+00
 -1       497 1.25000E-02 1.71875E-02 0.00000E+00
 -1       498 1.35417E-02 1.75781E-02 0.00000E+00
 -1       499 1.45833E-02 1.79687E-02 0.00000E+00
 -1       500 1.56250E-02 1.83594E-02 0.00000E+00
 -1       501 1.77083E-02 1.25000E-02 0.00000E+00
 -1       502 1.87500E-02 1.25000E-02 0.00000E+00
 -1       503 1.97917E-02 1.25000E-02 0.00000E+00
 -1       504 2.08333E-02 1.25000E-02 0.00000E+00
 -1       505 2.18750E-02 1.25000E-02 0.00000E+00
 -1       506 2.29167E-02 1.25000E-02 0.00000E+00
 -1       507 2.39583E-02 1.25000E-02 0.00000E+00
 -1       508 2.50000E-02 1.25000E-02 0.00000E+00
 -1       509 2.60417E-02 1.25000E-02 0.00000E+00
 -1       510 2.70833E-02 1.25000E-02 0.00000E+00
 -1       511 2.81250E-02 1.25000E-02 0.00000E+00
 -1       512 2.91667E-02 1.25000E-02 0.00000E+00
 -1       513 3.02083E-02 1.25000E-02 0.00000E+00
 -1       514 3.12500E-02 1.25000E-02 0.00000E+00
 -1       515 3.22917E-02 1.25000E-02 0.00000E+00
 -1       516 1.66667E-02 1.35417E-02 0.00000E+00
 -1       517 1.66667E-02 1.45833E-02 0.00000E+00
 -1       518 1.66667E-02 1.56250E-02 0.00000E+00
 -1       519 1.66667E-02 1.66667E-02 0.00000E+00
 -1       520 1.66667E-02 1.77083E-02 0.00000E+00
 -1       521 1.77083E-02 1.28906E-02 0.00000E+00
 -1       522 1.87500E-02 1.32813E-02 0.00000E+00
 -1       523 1.97917E-02 1.36719E-02 0.00000E+00
 -1       524 2.08333E-02 1.40625E-02 0.00000E+00
 -1       525 2.18750E-02 1.44531E-02 0.00000E+00
 -1       526 2.29167E-02 1.48437E-02 0.00000E+00
 -1       527 2.39583E-02 1.52344E-02 0.00000E+00
 -1       528 2.50000E-02 1.56250E-02 0.00000E+00
 -1       529 2.60417E-02 1.60156E-02 0.00000E+00
 -1       530 2.70833E-02 1.64062E-02 0.00000E+00
 -1       531 2.81250E-02 1.67969E-02 0.00000E+00
 -1       532 2.91667E-02 1.71875E-02 0.00000E+00
 -1       533 3.02083E-02 1.75781E-02 0.00000E+00
 -1       534 3.12500E-02 1.79687E-02 0.00000E+00
 -1       535 3.22917E-02 1.83594E-02 0.00000E+00
 -1       536 3.43750E-02 1.25000E-02 0.00000E+00
 -1       537 3.54167E-02 1.25000E-02 0.00000E+00
 -1       538 3.64583E-02 1.25000E-02 0.00000E+00
 -1       539 3.75000E-02 1.25000E-02 0.00000E+00
 -1       540 3.85417E-02 1.25000E-02 0.00000E+00
 -1       541 3.95833E-02 1.25000E-02 0.00000E+00
 -1       542 4.06250E-02 1.25000E-02 0.00000E+00
 -1       543 4.16667E-02 1.25000E-02 0.00000E+00
 -1       544 4.27083E-02 1.25000E-02 0.00000E+00
 -1       545 4.37500E-02 1.25000E-02 0.00000E+00
 -1       546 4.47917E-02 1.25000E-02 0.00000E+00
 -1       547 4.58333E-02 1.25000E-02 0.00000E+00
 -1       548 4.68750E-02 1.25000E-02 0.00000E+00
 -1       549 4.79167E-02 1.25000E-02 0.00000E+00
 -1       550 4.89583E-02 1.25000E-02 0.00000E+00
 -1       551 3.33333E-02 1.35417E-02 0.00000E+00
 -1       552 3.33333E-02 1.45833E-02 0.00000E+00
 -1       553 3.33333E-02 1.56250E-02 0.00000E+00
 -1       554 3.33333E-02 1.66667E-02 0.00000E+00
 -1       555 3.33333E-02 1.77083E-02 0.00000E+00
 -1       556 3.43750E-02 1.28906E-02 0.00000E+00
 -1       557 3.54167E-02 1.32813E-02 0.00000E+00
 -1       558 3.64583E-02 1.36719E-02 0.00000E+00
 -1       559 3.75000E-02 1.40625E-02 0.00000E+00
 -1       560 3.85417E-02 1.44531E-02 0.00000E+00
 -1       561 3.95833E-02 1.48437E-02 0.00000E+00
 -1       562 4.06250E-02 1.52344E-02 0.00000E+00
 -1       563 4.16667E-02 1.56250E-02 0.00000E+00
 -1       564 4.27083E-02 1.60156E-02 0.00000E+00
 -1       565 4.37500E-02 1.64062E-02 0.00000E+00
 -1       566 4.47917E-02 1.67969E-02 0.00000E+00
 -1       567 4.58333E-02 1.71875E-02 0.00000E+00
 -1       568 4.68750E-02 1.75781E-02 0.00000E+00
 -1       569 4.79167E-02 1.79687E-02 0.00000E+00
 -1       570 4.89583E-02 1.83594E-02 0.00000E+00
 -1       571 5.10417E-02 1.25000E-02 0.00000E+00
 -1       572 5.20833E-02 1.25000E-02 0.00000E+00
 -1       573 5.31250E-02 1.25000E-02 0.00000E+00
 -1       574 5.41667E-02 1.25000E-02 0.00000E+00
 -1       575 5.52083E-02 1.25000E-02 0.00000E+00
 -1       576 5.62500E-02 1.25000E-02 0.00000E+00
 -1       577 5.72917E-02 1.25000E-02 0.00000E+00
 -1       578 5.83333E-02 1.25000E-02 0.00000E+00
 -1       579 5.93750E-02 1.25000E-02 0.00000E+00
 -1       580 6.04167E-02 1.25000E-02 0.00000E+00
 -1       581 6.14583E-02 1.25000E-02 0.00000E+00
 -1       582 6.25000E-02 1.25000E-02 0.00000E+00
 -1       583 6.35417E-02 1.25000E-02 0.00000E+00
 -1       584 6.45833E-02 1.25000E-02 0.00000E+00
 -1       585 6.56250E-02 1.25000E-02 0.00000E+00
 -1       586 5.00000E-02 1.35417E-02 0.00000E+00
 -1       587 5.00000E-02 1.45833E-02 0.00000E+00
 -1       588 5.00000E-02 1.56250E-02 0.00000E+00
 -1       589 5.00000E-02 1.66667E-02 0.00000E+00
 -1       590 5.00000E-02 1.77083E-02 0.00000E+00
 -1       591 5.10417E-02 1.28906E-02 0.00000E+00
 -1       592 5.20833E-02 1.32813E-02 0.00000E+00
 -1       593 5.31250E-02 1.36719E-02 0.00000E+00
 -1       594 5.41667E-02 1.40625E-02 0.00000E+00
 -1       595 5.52083E-02 1.44531E-02 0.00000E+00
 -1       596 5.62500E-02 1.48437E-02 0.00000E+00
 -1       597 5.72917E-02 1.52344E-02 0.00000E+00
 -1       598 5.83333E-02 1.56250E-02 0.00000E+00
 -1       599 5.93750E-02 1.60156E-02 0.00000E+00
 -1       600 6.04167E-02 1.64062E-02 0.00000E+00
 -1       601 6.14583E-02 1.67969E-02 0.00000E+00
 -1       602 6.25000E-02 1.71875E-02 0.00000E+00
 -1       603 6.35417E-02 1.75781E-02 0.00000E+00
 -1       604 6.45833E-02 1.79687E-02 0.00000E+00
 -1       605 6.56250E-02 1.83594E-02 0.00000E+00
 -1       606 6.77083E-02 1.25000E-02 0.00000E+00
 -1       607 6.87500E-02 1.25000E-02 0.00000E+00
 -1       608 6.97917E-02 1.25000E-02 0.00000E+00
 -1       609 7.08333E-02 1.25000E-02 0.00000E+00
 -1       610 7.18750E-02 1.25000E-02 0.00000E+00
 -1       611 7.29167E-02 1.25000E-02 0.00000E+00
 -1       612 7.39583E-02 1.25000E-02 0.00000E+00
 -1       613 7.50000E-02 1.25000E-02 0.00000E+00
 -1       614 7.60417E-02 1.25000E-02 0.00000E+00
 -1       615 7.70833E-02 1.25000E-02 0.00000E+00
 -1       616 7.81250E-02 1.25000E-02 0.00000E+00
 -1       617 7.91667E-02 1.25000E-02 0.00000E+00
 -1       618 8.02083E-02 1.25000E-02 0.00000E+00
 -1       619 8.12500E-02 1.25000E-02 0.00000E+00
 -1       620 8.22917E-02 1.25000E-02 0.00000E+00
 -1       621 6.66667E-02 1.35417E-02 0.00000E+00
 -1       622 6.66667E-02 1.45833E-02 0.00000E+00
 -1       623 6.66667E-02 1.56250E-02 0.00000E+00
 -1       624 6.66667E-02 1.66667E-02 0.00000E+00
 -1       625 6.66667E-02 1.77083E-02 0.00000E+00
 -1       626 6.77083E-02 1.28906E-02 0.00000E+00
 -1       627 6.87500E-02 1.32813E-02 0.00000E+00
 -1       628 6.97917E-02 1.36719E-02 0.00000E+00
 -1       629 7.08333E-02 1.40625E-02 0.00000E+00
 -1       630 7.18750E-02 1.44531E-02 0.00000E+00
 -1       631 7.29167E-02 1.48437E-02 0.00000E+00
 -1       632 7.39583E-02 1.52344E-02 0.00000E+00
 -1       633 7.50000E-02 1.56250E-02 0.00000E+00
 -1       634 7.60417E-02 1.60156E-02 0.00000E+00
 -1       635 7.70833E-02 1.64062E-02 0.00000E+00
 -1       636 7.81250E-02 1.67969E-02 0.00000E+00
 -1       637 7.91667E-02 1.71875E-02 0.00000E+00
 -1       638 8.02083E-02 1.75781E-02 0.00000E+00
 -1       639 8.12500E-02 1.79687E-02 0.00000E+00
 -1       640 8.22917E-02 1.83594E-02 0.00000E+00
 -1       641 8.43750E-02 1.25000E-02 0.00000E+00
 -1       642 8.54167E-02 1.25000E-02 0.00000E+00
 -1       643 8.64583E-02 1.25000E-02 0.00000E+00
 -1       644 8.75000E-02 1.25000E-02 0.00000E+00
 -1       645 8.85417E-02 1.25000E-02 0.00000E+00
 -1       646 8.95833E-02 1.25000E-02 0.00000E+00
 -1       647 9.06250E-02 1.25000E-02 0.00000E+00
 -1       648 9.16667E-02 1.25000E-02 0.00000E+00
 -1       649 9.27083E-02 1.25000E-02 0.00000E+00
 -1       650 9.37500E-02 1.25000E-02 0.00000E+00
 -1       651 9.47917E-02 1.25000E-02 0.00000E+00
 -1       652 9.58333E-02 1.25000E-02 0.00000E+00
 -1       653 9.68750E-02 1.25000E-02 0.00000E+00
 -1       654 9.79167E-02 1.25000E-02 0.00000E+00
 -1       655 9.89583E-02 1.25000E-02 0.00000E+00
 -1       656 8.33333E-02 1.35417E-02 0.00000E+00
 -1       657 8.33333E-02 1.45833E-02 0.00000E+00
 -1       658 8.33333E-02 1.56250E-02 0.00000E+00
 -1       659 8.33333E-02 1.66667E-02 0.00000E+00
 -1       660 8.33333E-02 1.77083E-02 0.00000E+00
 -1       661 8.43750E-02 1.28906E-02 0.00000E+00
 -1       662 8.54167E-02 1.32813E-02 0.00000E+00
 -1       663 8.64583E-02 1.36719E-02 0.00000E+00
 -1       664 8.75000E-02 1.40625E-02 0.00000E+00
 -1       665 8.85417E-02 1.44531E-02 0.00000E+00
 -1       666 8.95833E-02 1.48437E-02 0.00000E+00
 -1       667 9.06250E-02 1.52344E-02 0.00000E+00
 -1       668 9.16667E-02 1.56250E-02 0.00000E+00
 -1       669 9.27083E-02 1.60156E-02 0.00000E+00
 -1       670 9.37500E-02 1.64062E-02 0.00000E+00
 -1       671 9.47917E-02 1.67969E-02 0.00000E+00
 -1       672 9.58333E-02 1.71875E-02 0.00000E+00
 -1       673 9.68750E-02 1.75781E-02 0.00000E+00
 -1       674 9.79167E-02 1.79687E-02 0.00000E+00
 -1       675 9.89583E-02 1.83594E-02 0.00000E+00
 -1       676 1.00000E-01 1.35417E-02 0.00000E+00
 -1       677 1.00000E-01 1.45833E-02 0.00000E+00
 -1       678 1.00000E-01 1.56250E-02 0.00000E+00
 -1       679 1.00000E-01 1.66667E-02 0.00000E+00
 -1       680 1.00000E-01 1.77083E-02 0.00000E+00
 -1       681 1.04167E-03 1.87500E-02 0.00000E+00
 -1       682 2.08333E-03 1.87500E-02 0.00000E+00
 -1       683 3.12500E-03 1.87500E-02 0.00000E+00
 -1       684 4.16667E-03 1.87500E-02 0.00000E+00
 -1       685 5.20833E-03 1.87500E-02 0.00000E+00
 -1       686 6.25000E-03 1.87500E-02 0.00000E+00
 -1       687 7.29167E-03 1.87500E-02 0.00000E+00
 -1       688 8.33333E-03 1.87500E-02 0.00000E+00
 -1       689 9.37500E-03 1.87500E-02 0.00000E+00
 -1       690 1.04167E-02 1.87500E-02 0.00000E+00
 -1       691 1.14583E-02 1.87500E-02 0.00000E+00
 -1       692 1.25000E-02 1.87500E-02 0.00000E+00
 -1       693 1.35417E-02 1.87500E-02 0.00000E+00
 -1       694 1.45833E-02 1.87500E-02 0.00000E+00
 -1       695 1.56250E-02 1.87500E-02 0.00000E+00
 -1       696 0.00000E+00 1.97917E-02 0.00000E+00
 -1       697 0.00000E+00 2.08333E-02 0.00000E+00
 -1       698 0.00000E+00 2.18750E-02 0.00000E+00
 -1       699 0.00000E+00 2.29167E-02 0.00000E+00
 -1       700 0.00000E+00 2.39583E-02 0.00000E+00
 -1       701 1.04167E-03 1.91406E-02 0.00000E+00
 -1       702 2.08333E-03 1.95312E-02 0.00000E+00
 -1       703 3.12500E-03 1.99219E-02 0.00000E+00
 -1       704 4.16667E-03 2.03125E-02 0.00000E+00
 -1       705 5.20833E-03 2.07031E-02 0.00000E+00
 -1       706 6.25000E-03 2.10938E-02 0.00000E+00
 -1       707 7.29167E-03 2.14844E-02 0.00000E+00
 -1       708 8.33333E-03 2.18750E-02 0.00000E+00
 -1       709 9.37500E-03 2.22656E-02 0.00000E+00
 -1       710 1.04167E-02 2.26563E-02 0.00000E+00
 -1       711 1.14583E-02 2.30469E-02 0.00000E+00
 -1       712 1.25000E-02 2.34375E-02 0.00000E+00
 -1       713 1.35417E-02 2.38281E-02 0.00000E+00
 -1       714 1.45833E-02 2.42187E-02 0.00000E+00
 -1       715 1.56250E-02 2.46094E-02 0.00000E+00
 -1       716 1.77083E-02 1.87500E-02 0.00000E+00
 -1       717 1.87500E-02 1.87500E-02 0.00000E+00
 -1       718 1.97917E-02 1.87500E-02 0.00000E+00
 -1       719 2.08333E-02 1.87500E-02 0.00000E+00
 -1       720 2.18750E-02 1.87500E-02 0.00000E+00
 -1       721 2.29167E-02 1.87500E-02 0.00000E+00
 -1       722 2.39583E-02 1.87500E-02 0.00000E+00
 -1       723 2.50000E-02 1.87500E-02 0.00000E+00
 -1       724 2.60417E-02 1.87500E-02 0.00000E+00
 -1       725 2.70833E-02 1.87500E-02 0.00000E+00
 -1       726 2.81250E-02 1.87500E-02 0.00000E+00
 -1       727 2.91667E-02 1.87500E-02 0.00000E+00
 -1       728 3.02083E-02 1.87500E-02 0.00000E+00
 -1       729 3.12500E-02 1.87500E-02 0.00000E+00
 -1       730 3.22917E-02 1.87500E-02 0.00000E+00
 -1       731 1.66667E-02 1.97917E-02 0.00000E+00
 -1       732 1.66667E-02 2.08333E-02 0.00000E+00
 -1       733 1.66667E-02 2.18750E-02 0.00000E+00
 -1       734 1.66667E-02 2.29167E-02 0.00000E+00
 -1       735 1.66667E-02 2.39583E-02 0.00000E+00
 -1       736 1.77083E-02 1.91406E-02 0.00000E+00
 -1       737 1.87500E-02 1.95312E-02 0.00000E+00
 -1       738 1.97917E-02 1.99219E-02 0.00000E+00
 -1       739 2.08333E-02 2.03125E-02 0.00000E+00
 -1       740 2.18750E-02 2.07031E-02 0.00000E+00
 -1       741 2.29167E-02 2.10938E-02 0.00000E+00
 -1       742 2.39583E-02 2.14844E-02 0.00000E+00
 -1       743 2.50000E-02 2.18750E-02 0.00000E+00
 -1       744 2.60417E-02 2.22656E-02 0.00000E+00
 -1       745 2.70833E-02 2.26563E-02 0.00000E+00
 -1       746 2.81250E-02 2.30469E-02 0.00000E+00
 -1       747 2.91667E-02 2.34375E-02 0.00000E+00
 -1       748 3.02083E-02 2.38281E-02 0.00000E+00
 -1       749 3.12500E-02 2.42187E-02 0.00000E+00
 -1       750 3.22917E-02 2.46094E-02 0.00000E+00
 -1       751 3.43750E-02 1.87500E-02 0.00000E+00
 -1       752 3.54167E-02 1.87500E-02 0.00000E+00
 -1       753 3.64583E-02 1.87500E-02 0.00000E+00
 -1       754 3.75000E-02 1.87500E-02 0.00000E+00
 -1       755 3.85417E-02 1.87500E-02 0.00000E+00
 -1       756 3.95833E-02 1.87500E-02 0.00000E+00
 -1       757 4.06250E-02 1.87500E-02 0.00000E+00
 -1       758 4.16667E-02 1.87500E-02 0.00000E+00
 -1       759 4.27083E-02 1.87500E-02 0.00000E+00
 -1       760 4.37500E-02 1.87500E-02 0.00000E+00
 -1       761 4.47917E-02 1.87500E-02 0.00000E+00
 -1       762 4.58333E-02 1.87500E-02 0.00000E+00
 -1       763 4.68750E-02 1.87500E-02 0.00000E+00
 -1       764 4.79167E-02 1.87500E-02 0.00000E+00
 -1       765 4.89583E-02 1.87500E-02 0.00000E+00
 -1       766 3.33333E-02 1.97917E-02 0.00000E+00
 -1       767 3.33333E-02 2.08333E-02 0.00000E+00
 -1       768 3.33333E-02 2.18750E-02 0.00000E+00
 -1       769 3.33333E-02 2.29167E-02 0.00000E+00
 -1       770 3.33333E-02 2.39583E-02 0.00000E+00
 -1       771 3.43750E-02 1.91406E-02 0.00000E+00
 -1       772 3.54167E-02 1.95312E-02 0.00000E+00
 -1       773 3.64583E-02 1.99219E-02 0.00000E+00
 -1       774 3.75000E-02 2.03125E-02 0.00000E+00
 -1       775 3.85417E-02 2.07031E-02 0.00000E+00
 -1       776 3.95833E-02 2.10938E-02 0.00000E+00
 -1       777 4.06250E-02 2.14844E-02 0.00000E+00
 -1       778 4.16667E-02 2.18750E-02 0.00000E+00
 -1       779 4.27083E-02 2.22656E-02 0.00000E+00
 -1       780 4.37500E-02 2.26563E-02 0.00000E+00
 -1       781 4.47917E-02 2.30469E-02 0.00000E+00
 -1       782 4.58333E-02 2.34375E-02 0.00000E+00
 -1       783 4.68750E-02 2.38281E-02 0.00000E+00
 -1       784 4.79167E-02 2.42187E-02 0.00000E+00
 -1       785 4.89583E-02 2.46094E-02 0.00000E+00
 -1       786 5.10417E-02 1.87500E-02 0.00000E+00
 -1       787 5.20833E-02 1.87500E-02 0.00000E+00
 -1       788 5.31250E-02 1.87500E-02 0.00000E+00
 -1       789 5.41667E-02 1.87500E-02 0.00000E+00
 -1       790 5.52083E-02 1.87500E-02 0.00000E+00
 -1       791 5.62500E-02 1.87500E-02 0.00000E+00
 -1       792 5.72917E-02 1.87500E-02 0.00000E+00
 -1       793 5.83333E-02 1.87500E-02 0.00000E+00
 -1       794 5.93750E-02 1.87500E-02 0.00000E+00
 -1       795 6.04167E-02 1.87500E-02 0.00000E+00
 -1       796 6.14583E-02 1.87500E-02 0.00000E+00
 -1       797 6.25000E-02 1.87500E-02 0.00000E+00
 -1       798 6.35417E-02 1.87500E-02 0.00000E+00
 -1       799 6.45833E-02 1.87500E-02 0.00000E+00
 -1       800 6.56250E-02 1.87500E-02 0.00000E+00
 -1       801 5.00000E-02 1.97917E-02 0.00000E+00
 -1       802 5.00000E-02 2.08333E-02 0.00000E+00
 -1       803 5.00000E-02 2.18750E-02 0.00000E+00
 -1       804 5.00000E-02 2.29167E-02 0.00000E+00
 -1       805 5.00000E-02 2.39583E-02 0.00000E+00
 -1       806 5.10417E-02 1.91406E-02 0.00000E+00
 -1       807 5.20833E-02 1.95312E-02 0.00000E+00
 -1       808 5.31250E-02 1.99219E-02 0.00000E+00
 -1       809 5.41667E-02 2.03125E-02 0.00000E+00
 -1       810 5.52083E-02 2.07031E-02 0.00000E+00
 -1       811 5.62500E-02 2.10938E-02 0.00000E+00
 -1       812 5.72917E-02 2.14844E-02 0.00000E+00
 -1       813 5.83333E-02 2.18750E-02 0.00000E+00
 -1       814 5.93750E-02 2.22656E-02 0.00000E+00
 -1       815 6.04167E-02 2.26563E-02 0.00000E+00
 -1       816 6.14583E-02 2.30469E-02 0.00000E+00
 -1       817 6.25000E-02 2.34375E-02 0.00000E+00
 -1       818 6.35417E-02 2.38281E-02 0.00000E+00
 -1       819 6.45833E-02 2.42187E-02 0.00000E+00
 -1       820 6.56250E-02 2.46094E-02 0.00000E+00
 -1       821 6.77083E-02 1.87500E-02 0.00000E+00
 -1       822 6.87500E-02 1.87500E-02 0.00000E+00
 -1       823 6.97917E-02 1.87500E-02 0.00000E+00
 -1       824 7.08333E-02 1.87500E-02 0.00000E+00
 -1       825 7.18750E-02 1.87500E-02 0.00000E+00
 -1       826 7.29167E-02 1.87500E-02 0.00000E+00
 -1       827 7.39583E-02 1.87500E-02 0.00000E+00
 -1       828 7.50000E-02 1.87500E-02 0.00000E+00
 -1       829 7.60417E-02 1.87500E-02 0.00000E+00
 -1       830 7.70833E-02 1.87500E-02 0.00000E+00
 -1       831 7.81250E-02 1.87500E-02 0.00000E+00
 -1       832 7.91667E-02 1.87500E-02 0.00000E+00
 -1       833 8.02083E-02 1.87500E-02 0.00000E+00
 -1       834 8.12500E-02 1.87500E-02 0.00000E+00
 -1       835 8.22917E-02 1.87500E-02 0.00000E+00
 -1       836 6.66667E-02 1.97917E-02 0.00000E+00
 -1       837 6.66667E-02 2.08333E-02 0.00000E+00
 -1       838 6.66667E-02 2.18750E-02 0.00000E+00
 -1       839 6.66667E-02 2.29167E-02 0.00000E+00
 -1       840 6.66667E-02 2.39583E-02 0.00000E+00
 -1       841 6.77083E-02 1.91406E-02 0.00000E+00
 -1       842 6.87500E-02 1.95312E-02 0.00000E+00
 -1       843 6.97917E-02 1.99219E-02 0.00000E+00
 -1       844 7.08333E-02 2.03125E-02 0.00000E+00
 -1       845 7.18750E-02 2.07031E-02 0.00000E+00
 -1       846 7.29167E-02 2.10938E-02 0.00000E+00
 -1       847 7.39583E-02 2.14844E-02 0.00000E+00
 -1       848 7.50000E-02 2.18750E-02 0.00000E+00
 -1       849 7.60417E-02 2.22656E-02 0.00000E+00
 -1       850 7.70833E-02 2.26563E-02 0.00000E+00
 -1       851 7.81250E-02 2.30469E-02 0.00000E+00
 -1       852 7.91667E-02 2.34375E-02 0.00000E+00
 -1       853 8.02083E-02 2.38281E-02 0.00000E+00
 -1       854 8.12500E-02 2.42187E-02 0.00000E+00
 -1       855 8.22917E-02 2.46094E-02 0.00000E+00
 -1       856 8.43750E-02 1.87500E-02 0.00000E+00
 -1       857 8.54167E-02 1.87500E-02 0.00000E+00
 -1       858 8.64583E-02 1.87500E-02 0.00000E+00
 -1       859 8.75000E-02 1.87500E-02 0.00000E+00
 -1       860 8.85417E-02 1.87500E-02 0.00000E+00
 -1       861 8.95833E-02 1.87500E-02 0.00000E+00
 -1       862 9.06250E-02 1.87500E-02 0.00000E+00
 -1       863 9.16667E-02 1.87500E-02 0.00000E+00
 -1       864 9.27083E-02 1.87500E-02 0.00000E+00
 -1       865 9.37500E-02 1.87500E-02 0.00000E+00
 -1       866 9.47917E-02 1.87500E-02 0.00000E+00
 -1       867 9.58333E-02 1.87500E-02 0.00000E+00
 -1       868 9.68750E-02 1.87500E-02 0.00000E+00
 -1       869 9.79167E-02 1.87500E-02 0.00000E+00
 -1       870 9.89583E-02 1.87500E-02 0.00000E+00
 -1       871 8.33333E-02 1.97917E-02 0.00000E+00
 -1       872 8.33333E-02 2.08333E-02 0.00000E+00
 -1       873 8.33333E-02 2.18750E-02 0.00000E+00
 -1       874 8.33333E-02 2.29167E-02 0.00000E+00
 -1       875 8.33333E-02 2.39583E-02 0.00000E+00
 -1       876 8.43750E-02 1.91406E-02 0.00000E+00
 -1       877 8.54167E-02 1.95312E-02 0.00000E+00
 -1       878 8.64583E-02 1.99219E-02 0.00000E+00
 -1       879 8.75000E-02 2.03125E-02 0.00000E+00
 -1       880 8.85417E-02 2.07031E-02 0.00000E+00
 -1       881 8.95833E-02 2.10938E-02 0.00000E+00
 -1       882 9.06250E-02 2.14844E-02 0.00000E+00
 -1       883 9.16667E-02 2.18750E-02 0.00000E+00
 -1       884 9.27083E-02 2.22656E-02 0.00000E+00
 -1       885 9.37500E-02 2.26563E-02 0.00000E+00
 -1       886 9.47917E-02 2.30469E-02 0.00000E+00
 -1       887 9.58333E-02 2.34375E-02 0.00000E+00
 -1       888 9.68750E-02 2.38281E-02 0.00000E+00
 -1       889 9.79167E-02 2.42187E-02 0.00000E+00
 -1       890 9.89583E-02 2.46094E-02 0.00000E+00
 -1       891 1.00000E-01 1.97917E-02 0.00000E+00
 -1       892 1.00000E-01 2.08333E-02 0.00000E+00
 -1       893 1.00000E-01 2.18750E-02 0.00000E+00
 -1       894 1.00000E-01 2.29167E-02 0.00000E+00
 -1       895 1.00000E-01 2.39583E-02 0.00000E+00
 -1       896 1.04167E-03 2.50000E-02 0.00000E+00
 -1       897 2.08333E-03 2.50000E-02 0.00000E+00
 -1       898 3.12500E-03 2.50000E-02 0.00000E+00
 -1       899 4.16667E-03 2.50000E-02 0.00000E+00
 -1       900 5.20833E-03 2.50000E-02 0.00000E+00
 -1       901 6.25000E-03 2.50000E-02 0.00000E+00
 -1       902 7.29167E-03 2.50000E-02 0.00000E+00
 -1       903 8.33333E-03 2.50000E-02 0.00000E+00
 -1       904 9.37500E-03 2.50000E-02 0.00000E+00
 -1       905 1.04167E-02 2.50000E-02 0.00000E+00
 -1       906 1.14583E-02 2.50000E-02 0.00000E+00
 -1       907 1.25000E-02 2.50000E-02 0.00000E+00
 -1       908 1.35417E-02 2.50000E-02 0.00000E+00
 -1       909 1.45833E-02 2.50000E-02 0.00000E+00
 -1       910 1.56250E-02 2.50000E-02 0.00000E+00
 -1       911 1.77083E-02 2.50000E-02 0.00000E+00
 -1       912 1.87500E-02 2.50000E-02 0.00000E+00
 -1       913 1.97917E-02 2.50000E-02 0.00000E+00
 -1       914 2.08333E-02 2.50000E-02 0.00000E+00
 -1       915 2.18750E-02 2.50000E-02 0.00000E+00
 -1       916 2.29167E-02 2.50000E-02 0.00000E+00
 -1       917 2.39583E-02 2.50000E-02 0.00000E+00
 -1       918 2.50000E-02 2.50000E-02 0.00000E+00
 -1       919 2.60417E-02 2.50000E-02 0.00000E+00
 -1       920 2.70833E-02 2.50000E-02 0.00000E+00
 -1       921 2.81250E-02 2.50000E-02 0.00000E+00
 -1       922 2.91667E-02 2.50000E-02 0.00000E+00
 -1       923 3.02083E-02 2.50000E-02 0.00000E+00
 -1       924 3.12500E-02 2.50000E-02 0.00000E+00
 -1       925 3.22917E-02 2.50000E-02 0.00000E+00
 -1       926 3.43750E-02 2.50000E-02 0.00000E+00
 -1       927 3.54167E-02 2.50000E-02 0.00000E+00
 -1       928 3.64583E-02 2.50000E-02 0.00000E+00
 -1       929 3.75000E-02 2.50000E-02 0.00000E+00
 -1       930 3.85417E-02 2.50000E-02 0.00000E+00
 -1       931 3.95833E-02 2.50000E-02 0.00000E+00
 -1       932 4.06250E-02 2.50000E-02 0.00000E+00
 -1       933 4.16667E-02 2.50000E-02 0.00000E+00
 -1       934 4.27083E-02 2.50000E-02 0.00000E+00
 -1       935 4.37500E-02 2.50000E-02 0.00000E+00
 -1       936 4.47917E-02 2.50000E-02 0.00000E+00
 -1       937 4.58333E-02 2.50000E-02 0.00000E+00
 -1       938 4.68750E-02 2.50000E-02 0.00000E+00
 -1       939 4.79167E-02 2.50000E-02 0.00000E+00
 -1       940 4.89583E-02 2.50000E-02 0.00000E+00
 -1       941 5.10417E-02 2.50000E-02 0.00000E+00
 -1       942 5.20833E-02 2.50000E-02 0.00000E+00
 -1       943 5.31250E-02 2.50000E-02 0.00000E+00
 -1       944 5.41667E-02 2.50000E-02 0.00000E+00
 -1       945 5.52083E-02 2.50000E-02 0.00000E+00
 -1       946 5.62500E-02 2.50000E-02 0.00000E+00
 -1       947 5.72917E-02 2.50000E-02 0.00000E+00
 -1       948 5.83333E-02 2.50000E-02 0.00000E+00
 -1       949 5.93750E-02 2.50000E-02 0.00000E+00
 -1       950 6.04167E-02 2.50000E-02 0.00000E+00
 -1       951 6.14583E-02 2.50000E-02 0.00000E+00
 -1       952 6.25000E-02 2.50000E-02 0.00000E+00
 -1       953 6.35417E-02 2.50000E-02 0.00000E+00
 -1       954 6.45833E-02 2.50000E-02 0.00000E+00
 -1       955 6.56250E-02 2.50000E-02 0.00000E+00
 -1       956 6.77083E-02 2.50000E-02 0.00000E+00
 -1       957 6.87500E-02 2.50000E-02 0.00000E+00
 -1       958 6.97917E-02 2.50000E-02 0.00000E+00
 -1       959 7.08333E-02 2.50000E-02 0.00000E+00
 -1       960 7.18750E-02 2.50000E-02 0.00000E+00
 -1       961 7.29167E-02 2.50000E-02 0.00000E+00
 -1       962 7.39583E-02 2.50000E-02 0.00000E+00
 -1       963 7.50000E-02 2.50000E-02 0.00000E+00
 -1       964 7.60417E-02 2.50000E-02 0.00000E+00
 -1       965 7.70833E-02 2.50000E-02 0.00000E+00
 -1       966 7.81250E-02 2.50000E-02 0.00000E+00
 -1       967 7.91667E-02 2.50000E-02 0.00000E+00
 -1       968 8.02083E-02 2.50000E-02 0.00000E+00
 -1       969 8.12500E-02 2.50000E-02 0.00000E+00
 -1       970 8.22917E-02 2.50000E-02 0.00000E+00
 -1       971 8.43750E-02 2.50000E-02 0.00000E+00
 -1       972 8.54167E-02 2.50000E-02 0.00000E+00
 -1       973 8.64583E-02 2.50000E-02 0.00000E+00
 -1       974 8.75000E-02 2.50000E-02 0.00000E+00
 -1       975 8.85417E-02 2.50000E-02 0.00000E+00
 -1       976 8.95833E-02 2.50000E-02 0.00000E+00
 -1       977 9.06250E-02 2.50000E-02 0.00000E+00
 -1       978 9.16667E-02 2.50000E-02 0.00000E+00
 -1       979 9.27083E-02 2.50000E-02 0.00000E+00
 -1       980 9.37500E-02 2.50000E-02 0.00000E+00
 -1       981 9.47917E-02 2.50000E-02 0.00000E+00
 -1       982 9.58333E-02 2.50000E-02 0.00000E+00
 -1       983 9.68750E-02 2.50000E-02 0.00000E+00
 -1       984 9.79167E-02 2.50000E-02 0.00000E+00
 -1       985 9.89583E-02 2.50000E-02 0.00000E+00
 -3
    3C                           440                                     1
 -1         1   12    0    1
 -2         1        37        36
 -1         2   12    0    1
 -2        37        39        38
 -1         3   12    0    1
 -2        39        41        40
 -1         4   12    0    1
 -2        41        43        42
 -1         5   12    0    1
 -2        43        45        44
 -1         6   12    0    1
 -2        45        47        46
 -1         7   12    0    1
 -2        47        49        48
 -1         8   12    0    1
 -2        49         2        50
 -1         9   12    0    1
 -2         1        52        51
 -1        10   12    0    1
 -2        52        54        53
 -1        11   12    0    1
 -2        54         8        55
 -1        12   12    0    1
 -2         1        57        56
 -1        13   12    0    1
 -2        57        59        58
 -1        14   12    0    1
 -2        59        61        60
 -1        15   12    0    1
 -2        61        63        62
 -1        16   12    0    1
 -2        63        65        64
 -1        17   12    0    1
 -2        65        67        66
 -1        18   12    0    1
 -2        67        69        68
 -1        19   12    0    1
 -2        69         9        70
 -1        20   12    0    1
 -2         2        72        71
 -1        21   12    0    1
 -2        72        74        73
 -1        22   12    0    1
 -2        74        76        75
 -1        23   12    0    1
 -2        76        78        77
 -1        24   12    0    1
 -2        78        80        79
 -1        25   12    0    1
 -2        80        82        81
 -1        26   12    0    1
 -2        82        84        83
 -1        27   12    0    1
 -2        84         3        85
 -1        28   12    0    1
 -2         2        87        86
 -1        29   12    0    1
 -2        87        89        88
 -1        30   12    0    1
 -2        89         9        90
 -1        31   12    0    1
 -2         2        92        91
 -1        32   12    0    1
 -2        92        94        93
 -1        33   12    0    1
 -2        94        96        95
 -1        34   12    0    1
 -2        96        98        97
 -1        35   12    0    1
 -2        98       100        99
 -1        36   12    0    1
 -2       100       102       101
 -1        37   12    0    1
 -2       102       104       103
 -1        38   12    0    1
 -2       104        10       105
 -1        39   12    0    1
 -2         3       107       106
 -1        40   12    0    1
 -2       107       109       108
 -1        41   12    0    1
 -2       109       111       110
 -1        42   12    0    1
 -2       111       113       112
 -1        43   12    0    1
 -2       113       115       114
 -1        44   12    0    1
 -2       115       117       116
 -1        45   12    0    1
 -2       117       119       118
 -1        46   12    0    1
 -2       119         4       120
 -1        47   12    0    1
 -2         3       122       121
 -1        48   12    0    1
 -2       122       124       123
 -1        49   12    0    1
 -2       124        10       125
 -1        50   12    0    1
 -2         3       127       126
 -1        51   12    0    1
 -2       127       129       128
 -1        52   12    0    1
 -2       129       131       130
 -1        53   12    0    1
 -2       131       133       132
 -1        54   12    0    1
 -2       133       135       134
 -1        55   12    0    1
 -2       135       137       136
 -1        56   12    0    1
 -2       137       139       138
 -1        57   12    0    1
 -2       139        11       140
 -1        58   12    0    1
 -2         4       142       141
 -1        59   12    0    1
 -2       142       144       143
 -1        60   12    0    1
 -2       144       146       145
 -1        61   12    0    1
 -2       146       148       147
 -1        62   12    0    1
 -2       148       150       149
 -1        63   12    0    1
 -2       150       152       151
 -1        64   12    0    1
 -2       152       154       153
 -1        65   12    0    1
 -2       154         5       155
 -1        66   12    0    1
 -2         4       157       156
 -1        67   12    0    1
 -2       157       159       158
 -1        68   12    0    1
 -2       159        11       160
 -1        69   12    0    1
 -2         4       162       161
 -1        70   12    0    1
 -2       162       164       163
 -1        71   12    0    1
 -2       164       166       165
 -1        72   12    0    1
 -2       166       168       167
 -1        73   12    0    1
 -2       168       170       169
 -1        74   12    0    1
 -2       170       172       171
 -1        75   12    0    1
 -2       172       174       173
 -1        76   12    0    1
 -2       174        12       175
 -1        77   12    0    1
 -2         5       192       191
 -1        78   12    0    1
 -2       192       194       193
 -1        79   12    0    1
 -2       194        12       195
 -1        80   12    0    1
 -2         8       252       251
 -1        81   12    0    1
 -2       252       254       253
 -1        82   12    0    1
 -2       254       256       255
 -1        83   12    0    1
 -2       256       258       257
 -1        84   12    0    1
 -2       258       260       259
 -1        85   12    0    1
 -2       260       262       261
 -1        86   12    0    1
 -2       262       264       263
 -1        87   12    0    1
 -2       264         9       265
 -1        88   12    0    1
 -2         8       267       266
 -1        89   12    0    1
 -2       267       269       268
 -1        90   12    0    1
 -2       269        15       270
 -1        91   12    0    1
 -2         8       272       271
 -1        92   12    0    1
 -2       272       274       273
 -1        93   12    0    1
 -2       274       276       275
 -1        94   12    0    1
 -2       276       278       277
 -1        95   12    0    1
 -2       278       280       279
 -1        96   12    0    1
 -2       280       282       281
 -1        97   12    0    1
 -2       282       284       283
 -1        98   12    0    1
 -2       284        16       285
 -1        99   12    0    1
 -2         9       287       286
 -1       100   12    0    1
 -2       287       289       288
 -1       101   12    0    1
 -2       289       291       290
 -1       102   12    0    1
 -2       291       293       292
 -1       103   12    0    1
 -2       293       295       294
 -1       104   12    0    1
 -2       295       297       296
 -1       105   12    0    1
 -2       297       299       298
 -1       106   12    0    1
 -2       299        10       300
 -1       107   12    0    1
 -2         9       302       301
 -1       108   12    0    1
 -2       302       304       303
 -1       109   12    0    1
 -2       304        16       305
 -1       110   12    0    1
 -2         9       307       306
 -1       111   12    0    1
 -2       307       309       308
 -1       112   12    0    1
 -2       309       311       310
 -1       113   12    0    1
 -2       311       313       312
 -1       114   12    0    1
 -2       313       315       314
 -1       115   12    0    1
 -2       315       317       316
 -1       116   12    0    1
 -2       317       319       318
 -1       117   12    0    1
 -2       319        17       320
 -1       118   12    0    1
 -2        10       322       321
 -1       119   12    0    1
 -2       322       324       323
 -1       120   12    0    1
 -2       324       326       325
 -1       121   12    0    1
 -2       326       328       327
 -1       122   12    0    1
 -2       328       330       329
 -1       123   12    0    1
 -2       330       332       331
 -1       124   12    0    1
 -2       332       334       333
 -1       125   12    0    1
 -2       334        11       335
 -1       126   12    0    1
 -2        10       337       336
 -1       127   12    0    1
 -2       337       339       338
 -1       128   12    0    1
 -2       339        17       340
 -1       129   12    0    1
 -2        10       342       341
 -1       130   12    0    1
 -2       342       344       343
 -1       131   12    0    1
 -2       344       346       345
 -1       132   12    0    1
 -2       346       348       347
 -1       133   12    0    1
 -2       348       350       349
 -1       134   12    0    1
 -2       350       352       351
 -1       135   12    0    1
 -2       352       354       353
 -1       136   12    0    1
 -2       354        18       355
 -1       137   12    0    1
 -2        11       357       356
 -1       138   12    0    1
 -2       357       359       358
 -1       139   12    0    1
 -2       359       361       360
 -1       140   12    0    1
 -2       361       363       362
 -1       141   12    0    1
 -2       363       365       364
 -1       142   12    0    1
 -2       365       367       366
 -1       143   12    0    1
 -2       367       369       368
 -1       144   12    0    1
 -2       369        12       370
 -1       145   12    0    1
 -2        11       372       371
 -1       146   12    0    1
 -2       372       374       373
 -1       147   12    0    1
 -2       374        18       375
 -1       148   12    0    1
 -2        11       377       376
 -1       149   12    0    1
 -2       377       379       378
 -1       150   12    0    1
 -2       379       381       380
 -1       151   12    0    1
 -2       381       383       382
 -1       152   12    0    1
 -2       383       385       384
 -1       153   12    0    1
 -2       385       387       386
 -1       154   12    0    1
 -2       387       389       388
 -1       155   12    0    1
 -2       389        19       390
 -1       156   12    0    1
 -2        12       407       406
 -1       157   12    0    1
 -2       407       409       408
 -1       158   12    0    1
 -2       409        19       410
 -1       159   12    0    1
 -2        15       467       466
 -1       160   12    0    1
 -2       467       469       468
 -1       161   12    0    1
 -2       469       471       470
 -1       162   12    0    1
 -2       471       473       472
 -1       163   12    0    1
 -2       473       475       474
 -1       164   12    0    1
 -2       475       477       476
 -1       165   12    0    1
 -2       477       479       478
 -1       166   12    0    1
 -2       479        16       480
 -1       167   12    0    1
 -2        15       482       481
 -1       168   12    0    1
 -2       482       484       483
 -1       169   12    0    1
 -2       484        22       485
 -1       170   12    0    1
 -2        15       487       486
 -1       171   12    0    1
 -2       487       489       488
 -1       172   12    0    1
 -2       489       491       490
 -1       173   12    0    1
 -2       491       493       492
 -1       174   12    0    1
 -2       493       495       494
 -1       175   12    0    1
 -2       495       497       496
 -1       176   12    0    1
 -2       497       499       498
 -1       177   12    0    1
 -2       499        23       500
 -1       178   12    0    1
 -2        16       502       501
 -1       179   12    0    1
 -2       502       504       503
 -1       180   12    0    1
 -2       504       506       505
 -1       181   12    0    1
 -2       506       508       507
 -1       182   12    0    1
 -2       508       510       509
 -1       183   12    0    1
 -2       510       512       511
 -1       184   12    0    1
 -2       512       514       513
 -1       185   12    0    1
 -2       514        17       515
 -1       186   12    0    1
 -2        16       517       516
 -1       187   12    0    1
 -2       517       519       518
 -1       188   12    0    1
 -2       519        23       520
 -1       189   12    0    1
 -2        16       522       521
 -1       190   12    0    1
 -2       522       524       523
 -1       191   12    0    1
 -2       524       526       525
 -1       192   12    0    1
 -2       526       528       527
 -1       193   12    0    1
 -2       528       530       529
 -1       194   12    0    1
 -2       530       532       531
 -1       195   12    0    1
 -2       532       534       533
 -1       196   12    0    1
 -2       534        24       535
 -1       197   12    0    1
 -2        17       537       536
 -1       198   12    0    1
 -2       537       539       538
 -1       199   12    0    1
 -2       539       541       540
 -1       200   12    0    1
 -2       541       543       542
 -1       201   12    0    1
 -2       543       545       544
 -1       202   12    0    1
 -2       545       547       546
 -1       203   12    0    1
 -2       547       549       548
 -1       204   12    0    1
 -2       549        18       550
 -1       205   12    0    1
 -2        17       552       551
 -1       206   12    0    1
 -2       552       554       553
 -1       207   12    0    1
 -2       554        24       555
 -1       208   12    0    1
 -2        17       557       556
 -1       209   12    0    1
 -2       557       559       558
 -1       210   12    0    1
 -2       559       561       560
 -1       211   12    0    1
 -2       561       563       562
 -1       212   12    0    1
 -2       563       565       564
 -1       213   12    0    1
 -2       565       567       566
 -1       214   12    0    1
 -2       567       569       568
 -1       215   12    0    1
 -2       569        25       570
 -1       216   12    0    1
 -2        18       572       571
 -1       217   12    0    1
 -2       572       574       573
 -1       218   12    0    1
 -2       574       576       575
 -1       219   12    0    1
 -2       576       578       577
 -1       220   12    0    1
 -2       578       580       579
 -1       221   12    0    1
 -2       580       582       581
 -1       222   12    0    1
 -2       582       584       583
 -1       223   12    0    1
 -2       584        19       585
 -1       224   12    0    1
 -2        18       587       586
 -1       225   12    0    1
 -2       587       589       588
 -1       226   12    0    1
 -2       589        25       590
 -1       227   12    0    1
 -2        18       592       591
 -1       228   12    0    1
 -2       592       594       593
 -1       229   12    0    1
 -2       594       596       595
 -1       230   12    0    1
 -2       596       598       597
 -1       231   12    0    1
 -2       598       600       599
 -1       232   12    0    1
 -2       600       602       601
 -1       233   12    0    1
 -2       602       604       603
 -1       234   12    0    1
 -2       604        26       605
 -1       235   12    0    1
 -2        19       607       606
 -1       236   12    0    1
 -2       607       609       608
 -1       237   12    0    1
 -2       609       611       610
 -1       238   12    0    1
 -2       611       613       612
 -1       239   12    0    1
 -2       613       615       614
 -1       240   12    0    1
 -2       615       617       616
 -1       241   12    0    1
 -2       617       619       618
 -1       242   12    0    1
 -2       619        20       620
 -1       243   12    0    1
 -2        19       622       621
 -1       244   12    0    1
 -2       622       624       623
 -1       245   12    0    1
 -2       624        26       625
 -1       246   12    0    1
 -2        19       627       626
 -1       247   12    0    1
 -2       627       629       628
 -1       248   12    0    1
 -2       629       631       630
 -1       249   12    0    1
 -2       631       633       632
 -1       250   12    0    1
 -2       633       635       634
 -1       251   12    0    1
 -2       635       637       636
 -1       252   12    0    1
 -2       637       639       638
 -1       253   12    0    1
 -2       639        27       640
 -1       254   12    0    1
 -2        20       642       641
 -1       255   12    0    1
 -2       642       644       643
 -1       256   12    0    1
 -2       644       646       645
 -1       257   12    0    1
 -2       646       648       647
 -1       258   12    0    1
 -2       648       650       649
 -1       259   12    0    1
 -2       650       652       651
 -1       260   12    0    1
 -2       652       654       653
 -1       261   12    0    1
 -2       654        21       655
 -1       262   12    0    1
 -2        20       657       656
 -1       263   12    0    1
 -2       657       659       658
 -1       264   12    0    1
 -2       659        27       660
 -1       265   12    0    1
 -2        20       662       661
 -1       266   12    0    1
 -2       662       664       663
 -1       267   12    0    1
 -2       664       666       665
 -1       268   12    0    1
 -2       666       668       667
 -1       269   12    0    1
 -2       668       670       669
 -1       270   12    0    1
 -2       670       672       671
 -1       271   12    0    1
 -2       672       674       673
 -1       272   12    0    1
 -2       674        28       675
 -1       273   12    0    1
 -2        21       677       676
 -1       274   12    0    1
 -2       677       679       678
 -1       275   12    0    1
 -2       679        28       680
 -1       276   12    0    1
 -2        22       682       681
 -1       277   12    0    1
 -2       682       684       683
 -1       278   12    0    1
 -2       684       686       685
 -1       279   12    0    1
 -2       686       688       687
 -1       280   12    0    1
 -2       688       690       689
 -1       281   12    0    1
 -2       690       692       691
 -1       282   12    0    1
 -2       692       694       693
 -1       283   12    0    1
 -2       694        23       695
 -1       284   12    0    1
 -2        22       697       696
 -1       285   12    0    1
 -2       697       699       698
 -1       286   12    0    1
 -2       699        29       700
 -1       287   12    0    1
 -2        22       702       701
 -1       288   12    0    1
 -2       702       704       703
 -1       289   12    0    1
 -2       704       706       705
 -1       290   12    0    1
 -2       706       708       707
 -1       291   12    0    1
 -2       708       710       709
 -1       292   12    0    1
 -2       710       712       711
 -1       293   12    0    1
 -2       712       714       713
 -1       294   12    0    1
 -2       714        30       715
 -1       295   12    0    1
 -2        23       717       716
 -1       296   12    0    1
 -2       717       719       718
 -1       297   12    0    1
 -2       719       721       720
 -1       298   12    0    1
 -2       721       723       722
 -1       299   12    0    1
 -2       723       725       724
 -1       300   12    0    1
 -2       725       727       726
 -1       301   12    0    1
 -2       727       729       728
 -1       302   12    0    1
 -2       729        24       730
 -1       303   12    0    1
 -2        23       732       731
 -1       304   12    0    1
 -2       732       734       733
 -1       305   12    0    1
 -2       734        30       735
 -1       306   12    0    1
 -2        23       737       736
 -1       307   12    0    1
 -2       737       739       738
 -1       308   12    0    1
 -2       739       741       740
 -1       309   12    0    1
 -2       741       743       742
 -1       310   12    0    1
 -2       743       745       744
 -1       311   12    0    1
 -2       745       747       746
 -1       312   12    0    1
 -2       747       749       748
 -1       313   12    0    1
 -2       749        31       750
 -1       314   12    0    1
 -2        24       752       751
 -1       315   12    0    1
 -2       752       754       753
 -1       316   12    0    1
 -2       754       756       755
 -1       317   12    0    1
 -2       756       758       757
 -1       318   12    0    1
 -2       758       760       759
 -1       319   12    0    1
 -2       760       762       761
 -1       320   12    0    1
 -2       762       764       763
 -1       321   12    0    1
 -2       764        25       765
 -1       322   12    0    1
 -2        24       767       766
 -1       323   12    0    1
 -2       767       769       768
 -1       324   12    0    1
 -2       769        31       770
 -1       325   12    0    1
 -2        24       772       771
 -1       326   12    0    1
 -2       772       774       773
 -1       327   12    0    1
 -2       774       776       775
 -1       328   12    0    1
 -2       776       778       777
 -1       329   12    0    1
 -2       778       780       779
 -1       330   12    0    1
 -2       780       782       781
 -1       331   12    0    1
 -2       782       784       783
 -1       332   12    0    1
 -2       784        32       785
 -1       333   12    0    1
 -2        25       787       786
 -1       334   12    0    1
 -2       787       789       788
 -1       335   12    0    1
 -2       789       791       790
 -1       336   12    0    1
 -2       791       793       792
 -1       337   12    0    1
 -2       793       795       794
 -1       338   12    0    1
 -2       795       797       796
 -1       339   12    0    1
 -2       797       799       798
 -1       340   12    0    1
 -2       799        26       800
 -1       341   12    0    1
 -2        25       802       801
 -1       342   12    0    1
 -2       802       804       803
 -1       343   12    0    1
 -2       804        32       805
 -1       344   12    0    1
 -2        25       807       806
 -1       345   12    0    1
 -2       807       809       808
 -1       346   12    0    1
 -2       809       811       810
 -1       347   12    0    1
 -2       811       813       812
 -1       348   12    0    1
 -2       813       815       814
 -1       349   12    0    1
 -2       815       817       816
 -1       350   12    0    1
 -2       817       819       818
 -1       351   12    0    1
 -2       819        33       820
 -1       352   12    0    1
 -2        26       822       821
 -1       353   12    0    1
 -2       822       824       823
 -1       354   12    0    1
 -2       824       826       825
 -1       355   12    0    1
 -2       826       828       827
 -1       356   12    0    1
 -2       828       830       829
 -1       357   12    0    1
 -2       830       832       831
 -1       358   12    0    1
 -2       832       834       833
 -1       359   12    0    1
 -2       834        27       835
 -1       360   12    0    1
 -2        26       837       836
 -1       361   12    0    1
 -2       837       839       838
 -1       362   12    0    1
 -2       839        33       840
 -1       363   12    0    1
 -2        26       842       841
 -1       364   12    0    1
 -2       842       844       843
 -1       365   12    0    1
 -2       844       846       845
 -1       366   12    0    1
 -2       846       848       847
 -1       367   12    0    1
 -2       848       850       849
 -1       368   12    0    1
 -2       850       852       851
 -1       369   12    0    1
 -2       852       854       853
 -1       370   12    0    1
 -2       854        34       855
 -1       371   12    0    1
 -2        27       857       856
 -1       372   12    0    1
 -2       857       859       858
 -1       373   12    0    1
 -2       859       861       860
 -1       374   12    0    1
 -2       861       863       862
 -1       375   12    0    1
 -2       863       865       864
 -1       376   12    0    1
 -2       865       867       866
 -1       377   12    0    1
 -2       867       869       868
 -1       378   12    0    1
 -2       869        28       870
 -1       379   12    0    1
 -2        27       872       871
 -1       380   12    0    1
 -2       872       874       873
 -1       381   12    0    1
 -2       874        34       875
 -1       382   12    0    1
 -2        27       877       876
 -1       383   12    0    1
 -2       877       879       878
 -1       384   12    0    1
 -2       879       881       880
 -1       385   12    0    1
 -2       881       883       882
 -1       386   12    0    1
 -2       883       885       884
 -1       387   12    0    1
 -2       885       887       886
 -1       388   12    0    1
 -2       887       889       888
 -1       389   12    0    1
 -2       889        35       890
 -1       390   12    0    1
 -2        28       892       891
 -1       391   12    0    1
 -2       892       894       893
 -1       392   12    0    1
 -2       894        35       895
 -1       393   12    0    1
 -2        29       897       896
 -1       394   12    0    1
 -2       897       899       898
 -1       395   12    0    1
 -2       899       901       900
 -1       396   12    0    1
 -2       901       903       902
 -1       397   12    0    1
 -2       903       905       904
 -1       398   12    0    1
 -2       905       907       906
 -1       399   12    0    1
 -2       907       909       908
 -1       400   12    0    1
 -2       909        30       910
 -1       401   12    0    1
 -2        30       912       911
 -1       402   12    0    1
 -2       912       914       913
 -1       403   12    0    1
 -2       914       916       915
 -1       404   12    0    1
 -2       916       918       917
 -1       405   12    0    1
 -2       918       920       919
 -1       406   12    0    1
 -2       920       922       921
 -1       407   12    0    1
 -2       922       924       923
 -1       408   12    0    1
 -2       924        31       925
 -1       409   12    0    1
 -2        31       927       926
 -1       410   12    0    1
 -2       927       929       928
 -1       411   12    0    1
 -2       929       931       930
 -1       412   12    0    1
 -2       931       933       932
 -1       413   12    0    1
 -2       933       935       934
 -1       414   12    0    1
 -2       935       937       936
 -1       415   12    0    1
 -2       937       939       938
 -1       416   12    0    1
 -2       939        32       940
 -1       417   12    0    1
 -2        32       942       941
 -1       418   12    0    1
 -2       942       944       943
 -1       419   12    0    1
 -2       944       946       945
 -1       420   12    0    1
 -2       946       948       947
 -1       421   12    0    1
 -2       948       950       949
 -1       422   12    0    1
 -2       950       952       951
 -1       423   12    0    1
 -2       952       954       953
 -1       424   12    0    1
 -2       954        33       955
 -1       425   12    0    1
 -2        33       957       956
 -1       426   12    0    1
 -2       957       959       958
 -1       427   12    0    1
 -2       959       961       960
 -1       428   12    0    1
 -2       961       963       962
 -1       429   12    0    1
 -2       963       965       964
 -1       430   12    0    1
 -2       965       967       966
 -1       431   12    0    1
 -2       967       969       968
 -1       432   12    0    1
 -2       969        34       970
 -1       433   12    0    1
 -2        34       972       971
 -1       434   12    0    1
 -2       972       974       973
 -1       435   12    0    1
 -2       974       976       975
 -1       436   12    0    1
 -2       976       978       977
 -1       437   12    0    1
 -2       978       980       979
 -1       438   12    0    1
 -2       980       982       981
 -1       439   12    0    1
 -2       982       984       983
 -1       440   12    0    1
 -2       984        35       985
 -3
    1PSTEP                         1           1           1          
  100CL  101 1.000000000         841                     0    1           1
 -4  DISP        4    1
 -5  D1          1    2    1    0
 -5  D2          1    2    2    0
 -5  D3          1    2    3    0
 -5  ALL         1    2    0    0    1ALL
 -1         1 5.40179E-05 0.00000E+00 0.00000E+00
 -1         2 4.39711E-05 0.00000E+00 0.00000E+00
 -1         3 4.08478E-05 0.00000E+00 0.00000E+00
 -1         4 4.04237E-05 0.00000E+00 0.00000E+00
 -1         5 4.03110E-05 0.00000E+00 0.00000E+00
 -1         8 3.30005E-05-1.67855E-06 0.00000E+00
 -1         9 3.67822E-05 1.06152E-06 0.00000E+00
 -1        10 3.69662E-05 2.31374E-07 0.00000E+00
 -1        11 3.82155E-05 1.78165E-07 0.00000E+00
 -1        12 3.90691E-05 3.56373E-06 0.00000E+00
 -1        15 1.80798E-05-1.89252E-06 0.00000E+00
 -1        16 2.24217E-05 1.41062E-06 0.00000E+00
 -1        17 2.62259E-05 4.58156E-07 0.00000E+00
 -1        18 3.01357E-05 1.72143E-07 0.00000E+00
 -1        19 3.46592E-05 7.10312E-06 0.00000E+00
 -1        20 3.63938E-05 6.38252E-05 0.00000E+00
 -1        21 3.63613E-05 1.20420E-04 0.00000E+00
 -1        22 8.55908E-06-1.20325E-06 0.00000E+00
 -1        23 1.09999E-05 1.77936E-06 0.00000E+00
 -1        24 1.29373E-05 5.98567E-07 0.00000E+00
 -1        25 1.67450E-05 1.74736E-07 0.00000E+00
 -1        26 2.01628E-05 9.58141E-06 0.00000E+00
 -1        27 1.77590E-05 6.32155E-05 0.00000E+00
 -1        28 1.67839E-05 1.19875E-04 0.00000E+00
 -1        29 0.00000E+00 0.00000E+00 0.00000E+00
 -1        30 4.30963E-06 2.18854E-06 0.00000E+00
 -1        31 5.20818E-06 1.24238E-06 0.00000E+00
 -1        32 0.00000E+00 0.00000E+00 0.00000E+00
 -1        33 4.34049E-06 1.08732E-05 0.00000E+00
 -1        34 7.79456E-07 6.29939E-05 0.00000E+00
 -1        35-1.41284E-06 1.19555E-04 0.00000E+00
 -1        36 5.33894E-05-3.00432E-21 1.32349E-23
 -1        37 5.27597E-05-6.74979E-21-1.32349E-23
 -1        38 5.21299E-05-7.37183E-21 2.64698E-23
 -1        39 5.15000E-05-8.31813E-21-1.32349E-23
 -1        40 5.08700E-05-1.06938E-20 0.00000E+00
 -1        41 5.02400E-05-1.52863E-20 1.32349E-23
 -1        42 4.96100E-05-1.70465E-20 2.64698E-23
 -1        43 4.89800E-05-2.02163E-20 1.32349E-23
 -1        44 4.83501E-05-2.32802E-20-2.64698E-23
 -1        45 4.77202E-05-2.15067E-20-1.32349E-23
 -1        46 4.70905E-05-1.49422E-20 0.00000E+00
 -1        47 4.64611E-05-1.09254E-20 0.00000E+00
 -1        48 4.58323E-05-8.75488E-21 1.32349E-23
 -1        49 4.52053E-05-6.41892E-21-6.61744E-24
 -1        50 4.45800E-05-3.34181E-21 0.00000E+00
 -1        51 5.24720E-05-2.92415E-07 0.00000E+00
 -1        52 4.94735E-05-5.71835E-07 1.65436E-24
 -1        53 4.55210E-05-8.51638E-07 3.30872E-24
 -1        54 4.11210E-05-1.13063E-06 0.00000E+00
 -1        55 3.67800E-05-1.40828E-06 0.00000E+00
 -1        56 5.31071E-05-3.38843E-07 0.00000E+00
 -1        57 5.21731E-05-6.59216E-07 0.00000E+00
 -1        58 5.12262E-05-9.49197E-07 0.00000E+00
 -1        59 5.02638E-05-1.20210E-06-1.32349E-23
 -1        60 4.92842E-05-1.41074E-06 0.00000E+00
 -1        61 4.82853E-05-1.56839E-06 0.00000E+00
 -1        62 4.72646E-05-1.66843E-06 0.00000E+00
 -1        63 4.62198E-05-1.70440E-06 1.32349E-23
 -1        64 4.51487E-05-1.66995E-06 2.64698E-23
 -1        65 4.40489E-05-1.55890E-06-1.32349E-23
 -1        66 4.29183E-05-1.36516E-06 2.64698E-23
 -1        67 4.17551E-05-1.08275E-06-1.32349E-23
 -1        68 4.05575E-05-7.05848E-07 0.00000E+00
 -1        69 3.93261E-05-2.28046E-07 0.00000E+00
 -1        70 3.80579E-05 3.55663E-07 0.00000E+00
 -1        71 4.37722E-05-9.62838E-22 0.00000E+00
 -1        72 4.35759E-05-9.82691E-22-3.30872E-24
 -1        73 4.33799E-05-9.46295E-22 6.61744E-24
 -1        74 4.31843E-05-5.82335E-22 3.30872E-24
 -1        75 4.29887E-05-8.28835E-22 0.00000E+00
 -1        76 4.27931E-05 2.19037E-21 0.00000E+00
 -1        77 4.25976E-05 4.41384E-21 0.00000E+00
 -1        78 4.24021E-05 1.26559E-21 0.00000E+00
 -1        79 4.22066E-05-1.17460E-21-6.61744E-24
 -1        80 4.20112E-05-2.67014E-21 3.30872E-24
 -1        81 4.18158E-05-2.19203E-21 0.00000E+00
 -1        82 4.16205E-05-8.35452E-22 0.00000E+00
 -1        83 4.14254E-05 6.45201E-23-6.61744E-24
 -1        84 4.12308E-05-1.76189E-21 0.00000E+00
 -1        85 4.10368E-05-1.85785E-21 0.00000E+00
 -1        86 4.34889E-05 1.63098E-07 0.00000E+00
 -1        87 4.25152E-05 3.45118E-07-3.30872E-24
 -1        88 4.12028E-05 5.28287E-07-3.30872E-24
 -1        89 3.97068E-05 7.11678E-07 1.65436E-24
 -1        90 3.81820E-05 8.94144E-07 0.00000E+00
 -1        91 4.36038E-05-1.58479E-07 1.32349E-23
 -1        92 4.32362E-05-3.33236E-07 0.00000E+00
 -1        93 4.28706E-05-5.14355E-07-1.32349E-23
 -1        94 4.25036E-05-6.93789E-07 0.00000E+00
 -1        95 4.21327E-05-8.63293E-07 0.00000E+00
 -1        96 4.17550E-05-1.01476E-06 0.00000E+00
 -1        97 4.13674E-05-1.14008E-06 0.00000E+00
 -1        98 4.09670E-05-1.23123E-06 0.00000E+00
 -1        99 4.05507E-05-1.28016E-06-1.32349E-23
 -1       100 4.01157E-05-1.27889E-06-6.61744E-24
 -1       101 3.96589E-05-1.21945E-06 1.32349E-23
 -1       102 3.91776E-05-1.09391E-06 0.00000E+00
 -1       103 3.86690E-05-8.94356E-07 0.00000E+00
 -1       104 3.81310E-05-6.12693E-07 0.00000E+00
 -1       105 3.75605E-05-2.41309E-07 0.00000E+00
 -1       106 4.08183E-05-1.54621E-21-1.65436E-24
 -1       107 4.07913E-05-3.08394E-21 8.27181E-25
 -1       108 4.07645E-05-5.07082E-21-8.27181E-25
 -1       109 4.07380E-05-7.52941E-21 0.00000E+00
 -1       110 4.07116E-05-1.18955E-20-8.27181E-25
 -1       111 4.06852E-05-1.38284E-20 0.00000E+00
 -1       112 4.06588E-05-1.42389E-20-8.27181E-25
 -1       113 4.06325E-05-1.36677E-20 0.00000E+00
 -1       114 4.06061E-05-1.20928E-20-8.27181E-25
 -1       115 4.05798E-05-9.81677E-21 4.13590E-25
 -1       116 4.05535E-05-7.69630E-21 0.00000E+00
 -1       117 4.05271E-05-5.73195E-21-4.13590E-25
 -1       118 4.05009E-05-3.24338E-21 0.00000E+00
 -1       119 4.04747E-05-1.53814E-21 4.13590E-25
 -1       120 4.04487E-05-1.22175E-21 4.13590E-25
 -1       121 4.06038E-05 3.52945E-08 0.00000E+00
 -1       122 4.00997E-05 7.57891E-08 0.00000E+00
 -1       123 3.94091E-05 1.16530E-07 0.00000E+00
 -1       124 3.86069E-05 1.57119E-07 0.00000E+00
 -1       125 3.77678E-05 1.97253E-07 0.00000E+00
 -1       126 4.07188E-05-7.63181E-08 0.00000E+00
 -1       127 4.05970E-05-1.80133E-07 1.65436E-24
 -1       128 4.04820E-05-3.02416E-07-3.30872E-24
 -1       129 4.03704E-05-4.34959E-07 0.00000E+00
 -1       130 4.02595E-05-5.69454E-07 0.00000E+00
 -1       131 4.01462E-05-6.97651E-07 0.00000E+00
 -1       132 4.00274E-05-8.11308E-07 3.30872E-24
 -1       133 3.99001E-05-9.02191E-07-1.65436E-24
 -1       134 3.97612E-05-9.62074E-07 3.30872E-24
 -1       135 3.96075E-05-9.82740E-07 0.00000E+00
 -1       136 3.94362E-05-9.55979E-07 0.00000E+00
 -1       137 3.92440E-05-8.73585E-07-1.65436E-24
 -1       138 3.90282E-05-7.27360E-07 0.00000E+00
 -1       139 3.87860E-05-5.09005E-07 0.00000E+00
 -1       140 3.85142E-05-2.10443E-07 1.65436E-24
 -1       141 4.04154E-05 1.10842E-22 0.00000E+00
 -1       142 4.04068E-05 9.01627E-22 0.00000E+00
 -1       143 4.03981E-05 1.77327E-22 2.06795E-25
 -1       144 4.03895E-05-3.19085E-22 0.00000E+00
 -1       145 4.03808E-05-2.45476E-21 0.00000E+00
 -1       146 4.03721E-05-3.57414E-21 0.00000E+00
 -1       147 4.03634E-05 1.23250E-22 2.06795E-25
 -1       148 4.03547E-05 3.45772E-21 1.03398E-25
 -1       149 4.03461E-05 2.12306E-21 0.00000E+00
 -1       150 4.03375E-05 3.60082E-21 0.00000E+00
 -1       151 4.03290E-05 1.36257E-21 0.00000E+00
 -1       152 4.03209E-05 1.66884E-21 2.06795E-25
 -1       153 4.03132E-05 2.07374E-21-8.27181E-25
 -1       154 4.03070E-05 1.82735E-21 0.00000E+00
 -1       155 4.03022E-05 5.54935E-22 0.00000E+00
 -1       156 4.03097E-05 2.88410E-08 0.00000E+00
 -1       157 4.00559E-05 5.90550E-08 0.00000E+00
 -1       158 3.96905E-05 8.93296E-08 0.00000E+00
 -1       159 3.92427E-05 1.19557E-07 4.13590E-25
 -1       160 3.87414E-05 1.49650E-07 0.00000E+00
 -1       161 4.04113E-05 2.54116E-08 0.00000E+00
 -1       162 4.03828E-05 9.37496E-08 0.00000E+00
 -1       163 4.03395E-05 2.01577E-07 0.00000E+00
 -1       164 4.02826E-05 3.45277E-07 0.00000E+00
 -1       165 4.02137E-05 5.21249E-07 0.00000E+00
 -1       166 4.01341E-05 7.25884E-07 0.00000E+00
 -1       167 4.00450E-05 9.55572E-07 0.00000E+00
 -1       168 3.99479E-05 1.20670E-06 0.00000E+00
 -1       169 3.98441E-05 1.47567E-06 0.00000E+00
 -1       170 3.97351E-05 1.75888E-06 0.00000E+00
 -1       171 3.96222E-05 2.05273E-06-2.06795E-25
 -1       172 3.95069E-05 2.35368E-06 0.00000E+00
 -1       173 3.93907E-05 2.65817E-06 8.27181E-25
 -1       174 3.92761E-05 2.96300E-06 0.00000E+00
 -1       175 3.91642E-05 3.26442E-06-3.30872E-24
 -1       191 4.02477E-05 5.84869E-07-1.32349E-23
 -1       192 4.01070E-05 1.18261E-06-6.61744E-24
 -1       193 3.99038E-05 1.78136E-06 0.00000E+00
 -1       194 3.96531E-05 2.38017E-06 0.00000E+00
 -1       195 3.93699E-05 2.97806E-06 1.32349E-23
 -1       251 3.32167E-05 5.64642E-07 0.00000E+00
 -1       252 3.34513E-05 2.17626E-06 1.03398E-24
 -1       253 3.36884E-05 3.23107E-06 3.30872E-24
 -1       254 3.39278E-05 3.80591E-06 1.65436E-24
 -1       255 3.41680E-05 3.97741E-06-3.30872E-24
 -1       256 3.44086E-05 3.82205E-06 3.30872E-24
 -1       257 3.46493E-05 3.41621E-06-6.61744E-24
 -1       258 3.48901E-05 2.83614E-06 0.00000E+00
 -1       259 3.51308E-05 2.15802E-06 0.00000E+00
 -1       260 3.53714E-05 1.45798E-06 0.00000E+00
 -1       261 3.56119E-05 8.12150E-07 6.61744E-24
 -1       262 3.58520E-05 2.96662E-07 0.00000E+00
 -1       263 3.60916E-05-1.22817E-08 0.00000E+00
 -1       264 3.63292E-05-3.84616E-08 0.00000E+00
 -1       265 3.65648E-05 2.94526E-07 3.30872E-24
 -1       266 3.01646E-05-1.72052E-06-3.30872E-24
 -1       267 2.73289E-05-1.75732E-06 0.00000E+00
 -1       268 2.45979E-05-1.79326E-06-3.30872E-24
 -1       269 2.20764E-05-1.82793E-06 0.00000E+00
 -1       270 1.98694E-05-1.86158E-06 0.00000E+00
 -1       271 3.16369E-05 4.30601E-07 0.00000E+00
 -1       272 3.04729E-05 1.96095E-06 0.00000E+00
 -1       273 2.94988E-05 2.98311E-06 0.00000E+00
 -1       274 2.86884E-05 3.56488E-06-6.61744E-24
 -1       275 2.80172E-05 3.77495E-06 0.00000E+00
 -1       276 2.74593E-05 3.68225E-06 0.00000E+00
 -1       277 2.69888E-05 3.35598E-06 0.00000E+00
 -1       278 2.65798E-05 2.86568E-06 0.00000E+00
 -1       279 2.62062E-05 2.28098E-06-1.32349E-23
 -1       280 2.58419E-05 1.67171E-06 0.00000E+00
 -1       281 2.54607E-05 1.10769E-06 0.00000E+00
 -1       282 2.50369E-05 6.58731E-07-6.61744E-24
 -1       283 2.45444E-05 3.94551E-07 0.00000E+00
 -1       284 2.39589E-05 3.85001E-07 6.61744E-24
 -1       285 2.32536E-05 6.99056E-07-6.61744E-24
 -1       286 3.67845E-05 1.94012E-06 0.00000E+00
 -1       287 3.67951E-05 2.50136E-06 0.00000E+00
 -1       288 3.68067E-05 2.78565E-06 0.00000E+00
 -1       289 3.68192E-05 2.83467E-06 0.00000E+00
 -1       290 3.68320E-05 2.69003E-06 0.00000E+00
 -1       291 3.68450E-05 2.39339E-06 0.00000E+00
 -1       292 3.68580E-05 1.98642E-06 0.00000E+00
 -1       293 3.68710E-05 1.51078E-06 1.03398E-25
 -1       294 3.68840E-05 1.00812E-06 4.13590E-25
 -1       295 3.68970E-05 5.20118E-07 0.00000E+00
 -1       296 3.69100E-05 8.84203E-08 8.27181E-25
 -1       297 3.69229E-05-2.45308E-07 0.00000E+00
 -1       298 3.69356E-05-4.39401E-07 0.00000E+00
 -1       299 3.69478E-05-4.52253E-07 0.00000E+00
 -1       300 3.69595E-05-2.42193E-07 1.65436E-24
 -1       301 3.49091E-05 1.11219E-06 0.00000E+00
 -1       302 3.24408E-05 1.17218E-06 0.00000E+00
 -1       303 2.96663E-05 1.23251E-06 0.00000E+00
 -1       304 2.68774E-05 1.29330E-06 0.00000E+00
 -1       305 2.43663E-05 1.35436E-06 0.00000E+00
 -1       306 3.58712E-05 1.75021E-06 0.00000E+00
 -1       307 3.50486E-05 2.14689E-06 0.00000E+00
 -1       308 3.43168E-05 2.29697E-06 1.32349E-23
 -1       309 3.36602E-05 2.24076E-06-6.61744E-24
 -1       310 3.30649E-05 2.01939E-06 1.32349E-23
 -1       311 3.25158E-05 1.67388E-06 0.00000E+00
 -1       312 3.19976E-05 1.24537E-06 0.00000E+00
 -1       313 3.14951E-05 7.75088E-07-6.61744E-24
 -1       314 3.09927E-05 3.04293E-07-1.32349E-23
 -1       315 3.04751E-05-1.25738E-07-6.61744E-24
 -1       316 2.99270E-05-4.73788E-07 0.00000E+00
 -1       317 2.93332E-05-6.98700E-07 6.61744E-24
 -1       318 2.86785E-05-7.59442E-07 0.00000E+00
 -1       319 2.79494E-05-6.14773E-07-6.61744E-24
 -1       320 2.71300E-05-2.24408E-07-1.32349E-23
 -1       321 3.70355E-05 7.64284E-07 0.00000E+00
 -1       322 3.71127E-05 1.10496E-06 1.03398E-25
 -1       323 3.71907E-05 1.27871E-06 1.65436E-24
 -1       324 3.72696E-05 1.31157E-06 0.00000E+00
 -1       325 3.73488E-05 1.22955E-06 0.00000E+00
 -1       326 3.74281E-05 1.05865E-06 0.00000E+00
 -1       327 3.75075E-05 8.24859E-07 1.65436E-24
 -1       328 3.75869E-05 5.54174E-07-1.65436E-24
 -1       329 3.76664E-05 2.72581E-07 0.00000E+00
 -1       330 3.77458E-05 6.05427E-09 0.00000E+00
 -1       331 3.78252E-05-2.19418E-07 0.00000E+00
 -1       332 3.79045E-05-3.77847E-07 1.65436E-24
 -1       333 3.79837E-05-4.43236E-07 0.00000E+00
 -1       334 3.80625E-05-3.89604E-07 0.00000E+00
 -1       335 3.81409E-05-1.90925E-07-1.65436E-24
 -1       336 3.57140E-05 2.65618E-07 0.00000E+00
 -1       337 3.39584E-05 3.05378E-07 0.00000E+00
 -1       338 3.19143E-05 3.45137E-07 8.27181E-25
 -1       339 2.97995E-05 3.84781E-07 0.00000E+00
 -1       340 2.78315E-05 4.24248E-07 0.00000E+00
 -1       341 3.64050E-05 6.23224E-07 6.61744E-24
 -1       342 3.59053E-05 8.13686E-07 6.61744E-24
 -1       343 3.54671E-05 8.37114E-07 0.00000E+00
 -1       344 3.50784E-05 7.24457E-07 6.61744E-24
 -1       345 3.47286E-05 5.07168E-07 0.00000E+00
 -1       346 3.44061E-05 2.16548E-07 6.61744E-24
 -1       347 3.40991E-05-1.16064E-07 0.00000E+00
 -1       348 3.37962E-05-4.59310E-07-6.61744E-24
 -1       349 3.34854E-05-7.81825E-07 0.00000E+00
 -1       350 3.31552E-05-1.05227E-06 6.61744E-24
 -1       351 3.27939E-05-1.23934E-06 1.32349E-23
 -1       352 3.23898E-05-1.31178E-06-6.61744E-24
 -1       353 3.19316E-05-1.23838E-06 6.61744E-24
 -1       354 3.14087E-05-9.87792E-07 0.00000E+00
 -1       355 3.08091E-05-5.29275E-07-6.61744E-24
 -1       356 3.82644E-05 6.25894E-07-2.06795E-25
 -1       357 3.83159E-05 1.00543E-06 4.13590E-25
 -1       358 3.83677E-05 1.32444E-06 1.65436E-24
 -1       359 3.84197E-05 1.59084E-06 0.00000E+00
 -1       360 3.84719E-05 1.81255E-06 0.00000E+00
 -1       361 3.85241E-05 1.99748E-06 0.00000E+00
 -1       362 3.85764E-05 2.15355E-06 0.00000E+00
 -1       363 3.86287E-05 2.28865E-06 0.00000E+00
 -1       364 3.86810E-05 2.41071E-06 0.00000E+00
 -1       365 3.87334E-05 2.52763E-06 0.00000E+00
 -1       366 3.87859E-05 2.64731E-06 1.65436E-24
 -1       367 3.88387E-05 2.77766E-06 8.27181E-25
 -1       368 3.88918E-05 2.92659E-06-3.30872E-24
 -1       369 3.89463E-05 3.10200E-06-1.65436E-24
 -1       370 3.90019E-05 3.31180E-06 6.61744E-24
 -1       371 3.73174E-05 1.77738E-07 0.00000E+00
 -1       372 3.60493E-05 1.77257E-07 0.00000E+00
 -1       373 3.45534E-05 1.76508E-07 0.00000E+00
 -1       374 3.29734E-05 1.75518E-07 0.00000E+00
 -1       375 3.14533E-05 1.74460E-07 0.00000E+00
 -1       376 3.80201E-05 5.42298E-07 0.00000E+00
 -1       377 3.78734E-05 7.70116E-07 8.27181E-25
 -1       378 3.77660E-05 8.92884E-07 0.00000E+00
 -1       379 3.76861E-05 9.41721E-07 0.00000E+00
 -1       380 3.76221E-05 9.47793E-07 1.65436E-24
 -1       381 3.75624E-05 9.42253E-07 0.00000E+00
 -1       382 3.74954E-05 9.56251E-07 0.00000E+00
 -1       383 3.74094E-05 1.02093E-06 0.00000E+00
 -1       384 3.72927E-05 1.16744E-06-1.65436E-24
 -1       385 3.71337E-05 1.42690E-06 4.13590E-25
 -1       386 3.69206E-05 1.83044E-06 1.44757E-24
 -1       387 3.66421E-05 2.40919E-06-2.06795E-25
 -1       388 3.62865E-05 3.19428E-06 0.00000E+00
 -1       389 3.58433E-05 4.21706E-06-1.65436E-24
 -1       390 3.53002E-05 5.50845E-06 6.61744E-24
 -1       406 3.88460E-05 4.14631E-06-1.32349E-23
 -1       407 3.85137E-05 4.74090E-06-6.61744E-24
 -1       408 3.80005E-05 5.33623E-06 1.32349E-23
 -1       409 3.72348E-05 5.93113E-06-6.61744E-24
 -1       410 3.61446E-05 6.52452E-06 0.00000E+00
 -1       466 1.83388E-05-7.23336E-07-3.30872E-24
 -1       467 1.86097E-05 9.05147E-08 0.00000E+00
 -1       468 1.88821E-05 5.96881E-07 6.61744E-24
 -1       469 1.91559E-05 8.44806E-07 3.30872E-24
 -1       470 1.94301E-05 8.83171E-07-6.61744E-24
 -1       471 1.97046E-05 7.60796E-07 0.00000E+00
 -1       472 1.99792E-05 5.26436E-07-6.61744E-24
 -1       473 2.02538E-05 2.28778E-07 0.00000E+00
 -1       474 2.05284E-05-8.35234E-08 0.00000E+00
 -1       475 2.08029E-05-3.61815E-07 3.30872E-24
 -1       476 2.10773E-05-5.57431E-07 6.61744E-24
 -1       477 2.13514E-05-6.21662E-07 0.00000E+00
 -1       478 2.16250E-05-5.05735E-07 6.61744E-24
 -1       479 2.18968E-05-1.60841E-07-3.30872E-24
 -1       480 2.21669E-05 4.62000E-07 0.00000E+00
 -1       481 1.64938E-05-1.78170E-06 0.00000E+00
 -1       482 1.48081E-05-1.66633E-06 0.00000E+00
 -1       483 1.30970E-05-1.55058E-06 3.30872E-24
 -1       484 1.14353E-05-1.43443E-06-8.27181E-25
 -1       485 9.89800E-06-1.31812E-06 3.30872E-24
 -1       486 1.73182E-05-7.68472E-07 0.00000E+00
 -1       487 1.66469E-05 7.19552E-08 0.00000E+00
 -1       488 1.60667E-05 6.66685E-07 0.00000E+00
 -1       489 1.55642E-05 1.04985E-06 0.00000E+00
 -1       490 1.51276E-05 1.25616E-06 0.00000E+00
 -1       491 1.47441E-05 1.32020E-06 0.00000E+00
 -1       492 1.44009E-05 1.27663E-06 0.00000E+00
 -1       493 1.40850E-05 1.16017E-06 0.00000E+00
 -1       494 1.37834E-05 1.00555E-06 0.00000E+00
 -1       495 1.34831E-05 8.47556E-07-6.61744E-24
 -1       496 1.31711E-05 7.20980E-07 0.00000E+00
 -1       497 1.28345E-05 6.60606E-07 3.30872E-24
 -1       498 1.24605E-05 7.01194E-07-6.61744E-24
 -1       499 1.20369E-05 8.77663E-07-3.30872E-24
 -1       500 1.15505E-05 1.22446E-06 3.30872E-24
 -1       501 2.26449E-05 2.32629E-06 8.27181E-25
 -1       502 2.28821E-05 2.86410E-06-2.48154E-24
 -1       503 2.31208E-05 3.07626E-06-3.30872E-24
 -1       504 2.33611E-05 3.01629E-06 0.00000E+00
 -1       505 2.36018E-05 2.73755E-06 0.00000E+00
 -1       506 2.38428E-05 2.29335E-06-3.30872E-24
 -1       507 2.40838E-05 1.73695E-06 0.00000E+00
 -1       508 2.43249E-05 1.12154E-06 0.00000E+00
 -1       509 2.45660E-05 5.00299E-07 0.00000E+00
 -1       510 2.48070E-05-7.36066E-08 0.00000E+00
 -1       511 2.50480E-05-5.46996E-07 0.00000E+00
 -1       512 2.52886E-05-8.66624E-07-3.30872E-24
 -1       513 2.55288E-05-9.79194E-07 0.00000E+00
 -1       514 2.57673E-05-8.31371E-07 0.00000E+00
 -1       515 2.60042E-05-3.69656E-07 0.00000E+00
 -1       516 2.07221E-05 1.46799E-06 0.00000E+00
 -1       517 1.86546E-05 1.53068E-06 0.00000E+00
 -1       518 1.64330E-05 1.59356E-06 0.00000E+00
 -1       519 1.42732E-05 1.65668E-06-4.13590E-25
 -1       520 1.23910E-05 1.71998E-06 0.00000E+00
 -1       521 2.15382E-05 2.19978E-06 0.00000E+00
 -1       522 2.07462E-05 2.68233E-06 6.61744E-24
 -1       523 2.00502E-05 2.90408E-06 1.32349E-23
 -1       524 1.94347E-05 2.90507E-06 0.00000E+00
 -1       525 1.88858E-05 2.72624E-06 0.00000E+00
 -1       526 1.83887E-05 2.40835E-06 0.00000E+00
 -1       527 1.79283E-05 1.99231E-06-1.32349E-23
 -1       528 1.74891E-05 1.51907E-06 0.00000E+00
 -1       529 1.70561E-05 1.02968E-06-1.32349E-23
 -1       530 1.66137E-05 5.65192E-07 0.00000E+00
 -1       531 1.61468E-05 1.66622E-07-1.32349E-23
 -1       532 1.56402E-05-1.25041E-07 6.61744E-24
 -1       533 1.50788E-05-2.68910E-07-1.32349E-23
 -1       534 1.44487E-05-2.23938E-07 6.61744E-24
 -1       535 1.37342E-05 5.01468E-08 1.32349E-23
 -1       536 2.64537E-05 1.31042E-06-7.75482E-26
 -1       537 2.66969E-05 1.82699E-06 0.00000E+00
 -1       538 2.69418E-05 2.05416E-06-6.61744E-24
 -1       539 2.71884E-05 2.03937E-06 0.00000E+00
 -1       540 2.74355E-05 1.82992E-06 6.61744E-24
 -1       541 2.76829E-05 1.47307E-06-3.30872E-24
 -1       542 2.79304E-05 1.01600E-06 6.61744E-24
 -1       543 2.81780E-05 5.05858E-07 3.30872E-24
 -1       544 2.84256E-05-1.02229E-08-6.61744E-24
 -1       545 2.86731E-05-4.85134E-07 3.30872E-24
 -1       546 2.89206E-05-8.71735E-07-6.61744E-24
 -1       547 2.91678E-05-1.12284E-06 3.30872E-24
 -1       548 2.94146E-05-1.19123E-06 0.00000E+00
 -1       549 2.96601E-05-1.02961E-06 3.30872E-24
 -1       550 2.99041E-05-5.90584E-07 0.00000E+00
 -1       551 2.44103E-05 4.78841E-07 0.00000E+00
 -1       552 2.20625E-05 5.04180E-07 0.00000E+00
 -1       553 1.94606E-05 5.29422E-07 0.00000E+00
 -1       554 1.68856E-05 5.54553E-07 0.00000E+00
 -1       555 1.46186E-05 5.79641E-07 0.00000E+00
 -1       556 2.53975E-05 1.12845E-06 1.32349E-23
 -1       557 2.46709E-05 1.46982E-06 0.00000E+00
 -1       558 2.40455E-05 1.53657E-06 0.00000E+00
 -1       559 2.35023E-05 1.37818E-06-6.61744E-24
 -1       560 2.30241E-05 1.04486E-06-1.32349E-23
 -1       561 2.25923E-05 5.86677E-07 0.00000E+00
 -1       562 2.21883E-05 5.38075E-08 1.32349E-23
 -1       563 2.17934E-05-5.03523E-07 0.00000E+00
 -1       564 2.13889E-05-1.03507E-06 0.00000E+00
 -1       565 2.09560E-05-1.49063E-06 0.00000E+00
 -1       566 2.04759E-05-1.82006E-06 0.00000E+00
 -1       567 1.99301E-05-1.97334E-06 6.61744E-24
 -1       568 1.93002E-05-1.90059E-06 0.00000E+00
 -1       569 1.85689E-05-1.55186E-06 0.00000E+00
 -1       570 1.77173E-05-8.77998E-07-6.61744E-24
 -1       571 3.04019E-05 9.75561E-07 0.00000E+00
 -1       572 3.06823E-05 1.53119E-06-1.65436E-24
 -1       573 3.09644E-05 1.88087E-06 6.61744E-24
 -1       574 3.12480E-05 2.06735E-06 0.00000E+00
 -1       575 3.15322E-05 2.13332E-06 0.00000E+00
 -1       576 3.18166E-05 2.12142E-06 3.30872E-24
 -1       577 3.21012E-05 2.07429E-06-6.61744E-24
 -1       578 3.23859E-05 2.03452E-06 0.00000E+00
 -1       579 3.26706E-05 2.04472E-06 0.00000E+00
 -1       580 3.29553E-05 2.14754E-06 0.00000E+00
 -1       581 3.32400E-05 2.38564E-06 0.00000E+00
 -1       582 3.35245E-05 2.80178E-06 0.00000E+00
 -1       583 3.38090E-05 3.43879E-06 0.00000E+00
 -1       584 3.40931E-05 4.33953E-06 0.00000E+00
 -1       585 3.43768E-05 5.54706E-06 0.00000E+00
 -1       586 2.84949E-05 1.73208E-07 0.00000E+00
 -1       587 2.63133E-05 1.75081E-07 0.00000E+00
 -1       588 2.38179E-05 1.76413E-07 0.00000E+00
 -1       589 2.12386E-05 1.77255E-07-8.27181E-25
 -1       590 1.88051E-05 1.77935E-07 0.00000E+00
 -1       591 2.94853E-05 8.76041E-07-6.61744E-24
 -1       592 2.88994E-05 1.36480E-06 0.00000E+00
 -1       593 2.83757E-05 1.68416E-06 0.00000E+00
 -1       594 2.78982E-05 1.87601E-06-6.61744E-24
 -1       595 2.74522E-05 1.98272E-06 1.32349E-23
 -1       596 2.70219E-05 2.04649E-06 0.00000E+00
 -1       597 2.65919E-05 2.10949E-06 0.00000E+00
 -1       598 2.61463E-05 2.21388E-06 0.00000E+00
 -1       599 2.56693E-05 2.40179E-06 1.32349E-23
 -1       600 2.51453E-05 2.71527E-06 0.00000E+00
 -1       601 2.45585E-05 3.19631E-06-1.32349E-23
 -1       602 2.38933E-05 3.88679E-06 0.00000E+00
 -1       603 2.31343E-05 4.82847E-06 6.61744E-24
 -1       604 2.22671E-05 6.06323E-06 3.30872E-24
 -1       605 2.12760E-05 7.63228E-06 3.30872E-24
 -1       606 3.47800E-05 9.15600E-06-6.61744E-24
 -1       607 3.48934E-05 1.15880E-05 0.00000E+00
 -1       608 3.50052E-05 1.43616E-05 0.00000E+00
 -1       609 3.51154E-05 1.74378E-05 0.00000E+00
 -1       610 3.52245E-05 2.07778E-05 0.00000E+00
 -1       611 3.53328E-05 2.43427E-05 0.00000E+00
 -1       612 3.54404E-05 2.80936E-05 0.00000E+00
 -1       613 3.55475E-05 3.19918E-05 0.00000E+00
 -1       614 3.56541E-05 3.59983E-05 3.30872E-24
 -1       615 3.57604E-05 4.00745E-05-1.65436E-24
 -1       616 3.58665E-05 4.41816E-05 0.00000E+00
 -1       617 3.59727E-05 4.82808E-05 0.00000E+00
 -1       618 3.60788E-05 5.23334E-05 1.65436E-24
 -1       619 3.61848E-05 5.63008E-05-8.27181E-25
 -1       620 3.62909E-05 6.01441E-05 0.00000E+00
 -1       621 3.25976E-05 7.51499E-06 0.00000E+00
 -1       622 3.02847E-05 7.93281E-06 6.61744E-24
 -1       623 2.78021E-05 8.35045E-06 1.32349E-23
 -1       624 2.52325E-05 8.76691E-06-6.61744E-24
 -1       625 2.26587E-05 9.18185E-06 6.61744E-24
 -1       626 3.41270E-05 9.23239E-06 0.00000E+00
 -1       627 3.34551E-05 1.17276E-05 0.00000E+00
 -1       628 3.26590E-05 1.45509E-05 0.00000E+00
 -1       629 3.17538E-05 1.76626E-05 0.00000E+00
 -1       630 3.07542E-05 2.10233E-05-6.61744E-24
 -1       631 2.96753E-05 2.45938E-05 3.30872E-24
 -1       632 2.85317E-05 2.83347E-05 0.00000E+00
 -1       633 2.73384E-05 3.22069E-05 0.00000E+00
 -1       634 2.61101E-05 3.61712E-05 6.61744E-24
 -1       635 2.48617E-05 4.01885E-05 0.00000E+00
 -1       636 2.36078E-05 4.42200E-05 6.61744E-24
 -1       637 2.23632E-05 4.82264E-05 0.00000E+00
 -1       638 2.11426E-05 5.21686E-05-6.61744E-24
 -1       639 1.99600E-05 5.60074E-05-3.30872E-24
 -1       640 1.88304E-05 5.97037E-05-3.30872E-24
 -1       641 3.63931E-05 6.73765E-05-4.13590E-25
 -1       642 3.63914E-05 7.09446E-05-2.06795E-25
 -1       643 3.63895E-05 7.45256E-05-2.06795E-25
 -1       644 3.63875E-05 7.81154E-05 0.00000E+00
 -1       645 3.63854E-05 8.17100E-05 2.06795E-25
 -1       646 3.63833E-05 8.53054E-05 0.00000E+00
 -1       647 3.63813E-05 8.88977E-05 5.16988E-26
 -1       648 3.63792E-05 9.24827E-05 2.58494E-26
 -1       649 3.63771E-05 9.60564E-05 0.00000E+00
 -1       650 3.63751E-05 9.96149E-05-5.16988E-26
 -1       651 3.63732E-05 1.03154E-04 0.00000E+00
 -1       652 3.63713E-05 1.06670E-04 0.00000E+00
 -1       653 3.63694E-05 1.10159E-04 4.13590E-25
 -1       654 3.63674E-05 1.13616E-04 0.00000E+00
 -1       655 3.63653E-05 1.17038E-04 8.27181E-25
 -1       656 3.30614E-05 6.37269E-05 0.00000E+00
 -1       657 2.99159E-05 6.36238E-05 0.00000E+00
 -1       658 2.68855E-05 6.35206E-05 0.00000E+00
 -1       659 2.38976E-05 6.34174E-05 0.00000E+00
 -1       660 2.08795E-05 6.33144E-05-8.27181E-25
 -1       661 3.51383E-05 6.74002E-05 1.65436E-24
 -1       662 3.38820E-05 7.09849E-05-8.27181E-25
 -1       663 3.26240E-05 7.45747E-05 0.00000E+00
 -1       664 3.13660E-05 7.81655E-05 0.00000E+00
 -1       665 3.01091E-05 8.17533E-05 0.00000E+00
 -1       666 2.88550E-05 8.53341E-05-1.65436E-24
 -1       667 2.76051E-05 8.89039E-05 3.30872E-24
 -1       668 2.63608E-05 9.24587E-05 1.65436E-24
 -1       669 2.51237E-05 9.59946E-05 1.65436E-24
 -1       670 2.38953E-05 9.95075E-05-8.27181E-25
 -1       671 2.26771E-05 1.02993E-04-3.30872E-24
 -1       672 2.14705E-05 1.06448E-04-8.27181E-25
 -1       673 2.02770E-05 1.09868E-04 1.65436E-24
 -1       674 1.90978E-05 1.13249E-04 0.00000E+00
 -1       675 1.79344E-05 1.16587E-04 0.00000E+00
 -1       676 3.30340E-05 1.20330E-04 0.00000E+00
 -1       677 2.97424E-05 1.20239E-04 1.65436E-24
 -1       678 2.64791E-05 1.20147E-04 0.00000E+00
 -1       679 2.32367E-05 1.20056E-04 8.27181E-25
 -1       680 2.00074E-05 1.19964E-04-1.65436E-24
 -1       681 8.70828E-06-2.62481E-07 0.00000E+00
 -1       682 8.86110E-06 4.15591E-07 8.27181E-25
 -1       683 9.01440E-06 8.65015E-07-3.30872E-24
 -1       684 9.16815E-06 1.12079E-06 0.00000E+00
 -1       685 9.32206E-06 1.21783E-06 0.00000E+00
 -1       686 9.47605E-06 1.19103E-06-1.65436E-24
 -1       687 9.63006E-06 1.07528E-06-3.30872E-24
 -1       688 9.78408E-06 9.05436E-07 1.65436E-24
 -1       689 9.93808E-06 7.16320E-07 0.00000E+00
 -1       690 1.00920E-05 5.42768E-07 0.00000E+00
 -1       691 1.02459E-05 4.19613E-07 0.00000E+00
 -1       692 1.03997E-05 3.81704E-07 0.00000E+00
 -1       693 1.05531E-05 4.63911E-07-6.61744E-24
 -1       694 1.07055E-05 7.01098E-07 0.00000E+00
 -1       695 1.08570E-05 1.12821E-06 0.00000E+00
 -1       696 7.23741E-06-1.00841E-06-6.61744E-24
 -1       697 5.76774E-06-8.08178E-07 0.00000E+00
 -1       698 4.22927E-06-6.07408E-07 6.61744E-24
 -1       699 2.70197E-06-4.05844E-07 0.00000E+00
 -1       700 1.26584E-06-2.03813E-07 0.00000E+00
 -1       701 8.03239E-06-2.62563E-07 0.00000E+00
 -1       702 7.56884E-06 4.77676E-07 0.00000E+00
 -1       703 7.17049E-06 1.04179E-06 6.61744E-24
 -1       704 6.82898E-06 1.45115E-06 0.00000E+00
 -1       705 6.53705E-06 1.72752E-06 6.61744E-24
 -1       706 6.28670E-06 1.89251E-06 0.00000E+00
 -1       707 6.06994E-06 1.96777E-06 6.61744E-24
 -1       708 5.87868E-06 1.97494E-06 0.00000E+00
 -1       709 5.70483E-06 1.93570E-06 0.00000E+00
 -1       710 5.54028E-06 1.87174E-06 0.00000E+00
 -1       711 5.37695E-06 1.80476E-06 0.00000E+00
 -1       712 5.20680E-06 1.75649E-06 0.00000E+00
 -1       713 5.02181E-06 1.74865E-06 0.00000E+00
 -1       714 4.81463E-06 1.80317E-06 0.00000E+00
 -1       715 4.57686E-06 1.94161E-06-8.27181E-25
 -1       716 1.11138E-05 2.38809E-06 8.27181E-25
 -1       717 1.12350E-05 2.71004E-06 1.65436E-24
 -1       718 1.13570E-05 2.78634E-06 0.00000E+00
 -1       719 1.14799E-05 2.65922E-06-8.27181E-25
 -1       720 1.16029E-05 2.37081E-06 3.30872E-24
 -1       721 1.17261E-05 1.96326E-06 0.00000E+00
 -1       722 1.18493E-05 1.47868E-06 0.00000E+00
 -1       723 1.19725E-05 9.59175E-07 1.65436E-24
 -1       724 1.20957E-05 4.46843E-07 3.30872E-24
 -1       725 1.22189E-05-1.62133E-08-1.65436E-24
 -1       726 1.23420E-05-3.87897E-07-3.30872E-24
 -1       727 1.24649E-05-6.26071E-07 0.00000E+00
 -1       728 1.25874E-05-6.88581E-07 0.00000E+00
 -1       729 1.27087E-05-5.33285E-07 0.00000E+00
 -1       730 1.28287E-05-1.17937E-07 0.00000E+00
 -1       731 9.90948E-06 1.84306E-06 0.00000E+00
 -1       732 8.64618E-06 1.91142E-06 8.27181E-25
 -1       733 7.33183E-06 1.98021E-06-8.27181E-25
 -1       734 6.08928E-06 2.04954E-06-2.06795E-25
 -1       735 5.04142E-06 2.11917E-06-1.44757E-24
 -1       736 1.04245E-05 2.35572E-06 6.61744E-24
 -1       737 9.90519E-06 2.74353E-06 0.00000E+00
 -1       738 9.44589E-06 2.96847E-06 0.00000E+00
 -1       739 9.03791E-06 3.05253E-06-6.61744E-24
 -1       740 8.67391E-06 3.01823E-06 0.00000E+00
 -1       741 8.34566E-06 2.88789E-06 0.00000E+00
 -1       742 8.04492E-06 2.68392E-06-1.32349E-23
 -1       743 7.76333E-06 2.42874E-06 0.00000E+00
 -1       744 7.49252E-06 2.14479E-06-1.32349E-23
 -1       745 7.22410E-06 1.85455E-06 0.00000E+00
 -1       746 6.94967E-06 1.58050E-06 0.00000E+00
 -1       747 6.66094E-06 1.34512E-06 3.30872E-24
 -1       748 6.34959E-06 1.17090E-06 0.00000E+00
 -1       749 6.00794E-06 1.08042E-06-3.30872E-24
 -1       750 5.62736E-06 1.09596E-06-6.61744E-24
 -1       751 1.31578E-05 1.27063E-06 0.00000E+00
 -1       752 1.33949E-05 1.59296E-06-8.27181E-25
 -1       753 1.36337E-05 1.61966E-06-3.30872E-24
 -1       754 1.38743E-05 1.40608E-06 0.00000E+00
 -1       755 1.41155E-05 1.00743E-06-6.61744E-24
 -1       756 1.43570E-05 4.78866E-07 0.00000E+00
 -1       757 1.45985E-05-1.24490E-07 6.61744E-24
 -1       758 1.48402E-05-7.47556E-07 0.00000E+00
 -1       759 1.50818E-05-1.33525E-06 0.00000E+00
 -1       760 1.53235E-05-1.83250E-06 0.00000E+00
 -1       761 1.55650E-05-2.18416E-06 6.61744E-24
 -1       762 1.58063E-05-2.33504E-06 0.00000E+00
 -1       763 1.60470E-05-2.22985E-06 0.00000E+00
 -1       764 1.62860E-05-1.81326E-06 0.00000E+00
 -1       765 1.65232E-05-1.02976E-06 6.61744E-24
 -1       766 1.16661E-05 6.98529E-07 0.00000E+00
 -1       767 1.01841E-05 8.08827E-07 0.00000E+00
 -1       768 8.64395E-06 9.19781E-07 8.27181E-25
 -1       769 7.19911E-06 1.03089E-06 0.00000E+00
 -1       770 6.00325E-06 1.14158E-06 0.00000E+00
 -1       771 1.19625E-05 1.08767E-06-1.32349E-23
 -1       772 1.10558E-05 1.31548E-06-1.32349E-23
 -1       773 1.02270E-05 1.32863E-06 0.00000E+00
 -1       774 9.46096E-06 1.16610E-06-1.32349E-23
 -1       775 8.74494E-06 8.67893E-07 0.00000E+00
 -1       776 8.06438E-06 4.73693E-07 1.32349E-23
 -1       777 7.40469E-06 2.32781E-08 0.00000E+00
 -1       778 6.75105E-06-4.43530E-07 0.00000E+00
 -1       779 6.08862E-06-8.86898E-07 0.00000E+00
 -1       780 5.40256E-06-1.26705E-06 0.00000E+00
 -1       781 4.67807E-06-1.54427E-06 0.00000E+00
 -1       782 3.90060E-06-1.67897E-06 0.00000E+00
 -1       783 3.05560E-06-1.63171E-06 0.00000E+00
 -1       784 2.13016E-06-1.36292E-06 0.00000E+00
 -1       785 1.10929E-06-8.33970E-07-1.32349E-23
 -1       786 1.69428E-05 1.40513E-06-1.65436E-24
 -1       787 1.71548E-05 2.27665E-06 8.27181E-25
 -1       788 1.73685E-05 2.84689E-06 3.30872E-24
 -1       789 1.75838E-05 3.17476E-06 3.30872E-24
 -1       790 1.77997E-05 3.31901E-06-6.61744E-24
 -1       791 1.80159E-05 3.33839E-06 0.00000E+00
 -1       792 1.82322E-05 3.29160E-06 0.00000E+00
 -1       793 1.84486E-05 3.23731E-06 3.30872E-24
 -1       794 1.86650E-05 3.23420E-06 6.61744E-24
 -1       795 1.88814E-05 3.34095E-06 3.30872E-24
 -1       796 1.90977E-05 3.61628E-06 0.00000E+00
 -1       797 1.93137E-05 4.11903E-06 9.92617E-24
 -1       798 1.95293E-05 4.90807E-06 0.00000E+00
 -1       799 1.97438E-05 6.04232E-06-9.92617E-24
 -1       800 1.99570E-05 7.58093E-06 6.61744E-24
 -1       801 1.44234E-05 1.45738E-07 1.65436E-24
 -1       802 1.14727E-05 1.18694E-07-4.13590E-25
 -1       803 8.22245E-06 9.09884E-08 0.00000E+00
 -1       804 5.00559E-06 6.28381E-08 0.00000E+00
 -1       805 2.15498E-06 3.48174E-08 0.00000E+00
 -1       806 1.58072E-05 1.32551E-06 0.00000E+00
 -1       807 1.49468E-05 2.22137E-06 0.00000E+00
 -1       808 1.41642E-05 2.90632E-06 0.00000E+00
 -1       809 1.34439E-05 3.42008E-06 6.61744E-24
 -1       810 1.27723E-05 3.80298E-06 0.00000E+00
 -1       811 1.21345E-05 4.09518E-06-6.61744E-24
 -1       812 1.15154E-05 4.33691E-06 0.00000E+00
 -1       813 1.09002E-05 4.56839E-06 6.61744E-24
 -1       814 1.02737E-05 4.82987E-06 1.32349E-23
 -1       815 9.62091E-06 5.16156E-06 0.00000E+00
 -1       816 8.92678E-06 5.60362E-06-1.32349E-23
 -1       817 8.17649E-06 6.19612E-06 0.00000E+00
 -1       818 7.35520E-06 6.97904E-06 0.00000E+00
 -1       819 6.44936E-06 7.99247E-06-3.30872E-24
 -1       820 5.44372E-06 9.27583E-06-6.61744E-24
 -1       821 2.00251E-05 1.20540E-05 4.13590E-25
 -1       822 1.98775E-05 1.47571E-05-8.27181E-25
 -1       823 1.97285E-05 1.76673E-05 0.00000E+00
 -1       824 1.95779E-05 2.07601E-05 0.00000E+00
 -1       825 1.94265E-05 2.40114E-05 0.00000E+00
 -1       826 1.92745E-05 2.73965E-05-1.65436E-24
 -1       827 1.91221E-05 3.08910E-05 0.00000E+00
 -1       828 1.89693E-05 3.44704E-05 0.00000E+00
 -1       829 1.88163E-05 3.81102E-05 3.30872E-24
 -1       830 1.86633E-05 4.17858E-05 0.00000E+00
 -1       831 1.85102E-05 4.54726E-05 0.00000E+00
 -1       832 1.83573E-05 4.91460E-05 0.00000E+00
 -1       833 1.82048E-05 5.27815E-05-3.30872E-24
 -1       834 1.80532E-05 5.63545E-05 0.00000E+00
 -1       835 1.79026E-05 5.98405E-05 0.00000E+00
 -1       836 1.75751E-05 9.79370E-06-6.61744E-24
 -1       837 1.48125E-05 1.00123E-05 3.30872E-24
 -1       838 1.19910E-05 1.02310E-05 6.61744E-24
 -1       839 9.22745E-06 1.04493E-05 0.00000E+00
 -1       840 6.63874E-06 1.06669E-05 8.27181E-25
 -1       841 1.92784E-05 1.20604E-05-3.30872E-24
 -1       842 1.83090E-05 1.47612E-05 3.30872E-24
 -1       843 1.72640E-05 1.76619E-05-3.30872E-24
 -1       844 1.61521E-05 2.07390E-05 0.00000E+00
 -1       845 1.49821E-05 2.39695E-05 0.00000E+00
 -1       846 1.37629E-05 2.73302E-05 0.00000E+00
 -1       847 1.25031E-05 3.07978E-05-1.65436E-24
 -1       848 1.12115E-05 3.43493E-05-8.27181E-25
 -1       849 9.89701E-06 3.79613E-05 0.00000E+00
 -1       850 8.56830E-06 4.16108E-05 8.27181E-25
 -1       851 7.23411E-06 4.52746E-05-8.27181E-25
 -1       852 5.90320E-06 4.89294E-05-4.13590E-25
 -1       853 4.58424E-06 5.25521E-05-8.27181E-25
 -1       854 3.28562E-06 5.61195E-05-1.03398E-25
 -1       855 2.01619E-06 5.96083E-05 0.00000E+00
 -1       856 1.77016E-05 6.65596E-05 4.13590E-25
 -1       857 1.76414E-05 6.99886E-05 4.13590E-25
 -1       858 1.75806E-05 7.34902E-05-1.65436E-24
 -1       859 1.75193E-05 7.70519E-05 4.13590E-25
 -1       860 1.74578E-05 8.06609E-05-1.65436E-24
 -1       861 1.73961E-05 8.43047E-05 0.00000E+00
 -1       862 1.73343E-05 8.79707E-05 0.00000E+00
 -1       863 1.72724E-05 9.16461E-05 8.27181E-25
 -1       864 1.72106E-05 9.53184E-05 1.65436E-24
 -1       865 1.71488E-05 9.89749E-05 8.27181E-25
 -1       866 1.70871E-05 1.02603E-04 0.00000E+00
 -1       867 1.70256E-05 1.06190E-04 8.27181E-25
 -1       868 1.69643E-05 1.09723E-04 1.65436E-24
 -1       869 1.69034E-05 1.13190E-04 0.00000E+00
 -1       870 1.68429E-05 1.16578E-04 0.00000E+00
 -1       871 1.47557E-05 6.31804E-05 0.00000E+00
 -1       872 1.19634E-05 6.31442E-05 1.65436E-24
 -1       873 9.27642E-06 6.31080E-05 0.00000E+00
 -1       874 6.58780E-06 6.30714E-05 6.20385E-25
 -1       875 3.79074E-06 6.30341E-05 6.20385E-25
 -1       876 1.66141E-05 6.65813E-05-1.65436E-24
 -1       877 1.54501E-05 7.00121E-05 0.00000E+00
 -1       878 1.42660E-05 7.34972E-05-3.30872E-24
 -1       879 1.30654E-05 7.70274E-05 1.65436E-24
 -1       880 1.18514E-05 8.05935E-05-3.30872E-24
 -1       881 1.06274E-05 8.41862E-05-1.65436E-24
 -1       882 9.39683E-06 8.77963E-05 0.00000E+00
 -1       883 8.16316E-06 9.14148E-05 1.65436E-24
 -1       884 6.92979E-06 9.50322E-05 0.00000E+00
 -1       885 5.70026E-06 9.86397E-05 0.00000E+00
 -1       886 4.47793E-06 1.02228E-04 0.00000E+00
 -1       887 3.26630E-06 1.05788E-04 1.65436E-24
 -1       888 2.06869E-06 1.09310E-04-3.30872E-24
 -1       889 8.88196E-07 1.12785E-04 8.27181E-25
 -1       890-2.71620E-07 1.16204E-04-1.65436E-24
 -1       891 1.36796E-05 1.19823E-04 1.65436E-24
 -1       892 1.06730E-05 1.19769E-04 0.00000E+00
 -1       893 7.71235E-06 1.19715E-04 1.65436E-24
 -1       894 4.74575E-06 1.19662E-04 0.00000E+00
 -1       895 1.72120E-06 1.19608E-04 8.27181E-25
 -1       896 2.68293E-07 9.06444E-07 0.00000E+00
 -1       897 5.38311E-07 1.58901E-06 0.00000E+00
 -1       898 8.08610E-07 2.07322E-06 0.00000E+00
 -1       899 1.07915E-06 2.38534E-06-3.30872E-24
 -1       900 1.34978E-06 2.55151E-06 0.00000E+00
 -1       901 1.62047E-06 2.59784E-06 3.30872E-24
 -1       902 1.89116E-06 2.55040E-06-6.61744E-24
 -1       903 2.16185E-06 2.43519E-06-3.30872E-24
 -1       904 2.43252E-06 2.27819E-06-6.61744E-24
 -1       905 2.70314E-06 2.10533E-06-3.30872E-24
 -1       906 2.97367E-06 1.94258E-06 6.61744E-24
 -1       907 3.24401E-06 1.81586E-06 0.00000E+00
 -1       908 3.51403E-06 1.75116E-06-6.61744E-24
 -1       909 3.78301E-06 1.77443E-06 3.30872E-24
 -1       910 4.05102E-06 1.91172E-06 6.61744E-24
 -1       911 4.36672E-06 2.47775E-06 8.27181E-25
 -1       912 4.42382E-06 2.63119E-06-4.13590E-25
 -1       913 4.48094E-06 2.66761E-06 1.65436E-24
 -1       914 4.53806E-06 2.60625E-06 8.27181E-25
 -1       915 4.59517E-06 2.46633E-06 0.00000E+00
 -1       916 4.65228E-06 2.26710E-06 0.00000E+00
 -1       917 4.70937E-06 2.02778E-06 0.00000E+00
 -1       918 4.76644E-06 1.76761E-06 0.00000E+00
 -1       919 4.82350E-06 1.50580E-06 0.00000E+00
 -1       920 4.88052E-06 1.26160E-06 0.00000E+00
 -1       921 4.93748E-06 1.05422E-06 0.00000E+00
 -1       922 4.99428E-06 9.02898E-07-2.48154E-24
 -1       923 5.05080E-06 8.26873E-07 0.00000E+00
 -1       924 5.10645E-06 8.45361E-07 0.00000E+00
 -1       925 5.16129E-06 9.77619E-07-3.10193E-25
 -1       926 4.89258E-06 1.43003E-06 6.61744E-24
 -1       927 4.56805E-06 1.39440E-06-6.61744E-24
 -1       928 4.24260E-06 1.17483E-06 0.00000E+00
 -1       929 3.91612E-06 8.11702E-07 6.61744E-24
 -1       930 3.58930E-06 3.45447E-07-1.32349E-23
 -1       931 3.26227E-06-1.83377E-07 0.00000E+00
 -1       932 2.93514E-06-7.34204E-07 1.32349E-23
 -1       933 2.60799E-06-1.26643E-06 6.61744E-24
 -1       934 2.28085E-06-1.73946E-06-6.61744E-24
 -1       935 1.95376E-06-2.11275E-06 0.00000E+00
 -1       936 1.62675E-06-2.34581E-06-6.61744E-24
 -1       937 1.29985E-06-2.39826E-06 0.00000E+00
 -1       938 9.73112E-07-2.22978E-06 1.32349E-23
 -1       939 6.46859E-07-1.80032E-06 0.00000E+00
 -1       940 3.20956E-07-1.06987E-06-6.61744E-24
 -1       941 2.47933E-07 1.10746E-06-4.13590E-25
 -1       942 5.17336E-07 1.96010E-06 1.65436E-24
 -1       943 7.89076E-07 2.59966E-06 0.00000E+00
 -1       944 1.06326E-06 3.06880E-06 0.00000E+00
 -1       945 1.33824E-06 3.41003E-06 0.00000E+00
 -1       946 1.61370E-06 3.66585E-06 0.00000E+00
 -1       947 1.88936E-06 3.87874E-06 0.00000E+00
 -1       948 2.16510E-06 4.09113E-06 0.00000E+00
 -1       949 2.44085E-06 4.34545E-06 0.00000E+00
 -1       950 2.71652E-06 4.68417E-06-3.30872E-24
 -1       951 2.99202E-06 5.14979E-06 0.00000E+00
 -1       952 3.26711E-06 5.78489E-06 0.00000E+00
 -1       953 3.54153E-06 6.63212E-06-6.61744E-24
 -1       954 3.81409E-06 7.73417E-06 3.30872E-24
 -1       955 4.08480E-06 9.13396E-06 0.00000E+00
 -1       956 4.12866E-06 1.30279E-05-3.30872E-24
 -1       957 3.90898E-06 1.54572E-05 3.30872E-24
 -1       958 3.68790E-06 1.81350E-05 6.61744E-24
 -1       959 3.46545E-06 2.10337E-05 1.65436E-24
 -1       960 3.24220E-06 2.41261E-05 0.00000E+00
 -1       961 3.01829E-06 2.73845E-05 0.00000E+00
 -1       962 2.79389E-06 3.07811E-05 0.00000E+00
 -1       963 2.56910E-06 3.42884E-05 3.30872E-24
 -1       964 2.34403E-06 3.78785E-05 6.61744E-24
 -1       965 2.11879E-06 4.15237E-05 0.00000E+00
 -1       966 1.89350E-06 4.51961E-05-6.61744E-24
 -1       967 1.66834E-06 4.88679E-05-3.30872E-24
 -1       968 1.44348E-06 5.25113E-05 0.00000E+00
 -1       969 1.21945E-06 5.60985E-05 0.00000E+00
 -1       970 9.96352E-07 5.96018E-05 0.00000E+00
 -1       971 6.44825E-07 6.63417E-05 0.00000E+00
 -1       972 5.07936E-07 6.97672E-05 0.00000E+00
 -1       973 3.70623E-07 7.32593E-05-3.30872E-24
 -1       974 2.32903E-07 7.68068E-05 0.00000E+00
 -1       975 9.49627E-08 8.03982E-05 0.00000E+00
 -1       976-4.31295E-08 8.40223E-05 0.00000E+00
 -1       977-1.81312E-07 8.76676E-05-3.30872E-24
 -1       978-3.19534E-07 9.13228E-05 0.00000E+00
 -1       979-4.57742E-07 9.49765E-05 0.00000E+00
 -1       980-5.95885E-07 9.86173E-05 0.00000E+00
 -1       981-7.33901E-07 1.02234E-04 0.00000E+00
 -1       982-8.71691E-07 1.05815E-04-1.65436E-24
 -1       983-1.00915E-06 1.09349E-04 3.30872E-24
 -1       984-1.14589E-06 1.12824E-04-1.65436E-24
 -1       985-1.28190E-06 1.16230E-04 0.00000E+00
 -3
    1PSTEP                         2           1           1          
  100CL  101 1.000000000         841                     0    1           1
 -4  STRESS      6    1
 -5  SXX         1    4    1    1
 -5  SYY         1    4    2    2
 -5  SZZ         1    4    3    3
 -5  SXY         1    4    1    2
 -5  SYZ         1    4    2    3
 -5  SZX         1    4    3    1
 -1         1-1.30887E+06-4.32807E+05-6.11753E+03-5.95400E+05 9.39811E-11 1.47944E-09
 -1         2-7.55182E+05 2.97455E+04 1.23344E+03-1.55816E+05 2.36469E-11 6.93035E-10
 -1         3-2.25874E+05-2.90052E+03 5.33524E+02-6.64690E+04-1.00044E-11 3.43334E-10
 -1         4-2.22174E+04 1.74717E+04 1.24972E+02-1.26029E+04 1.67120E-11 3.32648E-10
 -1         5 8.70090E+04 7.58691E+05-3.48410E+03-1.47430E+04 4.07454E-10 3.45466E-09
 -1         8-1.40657E+05-2.69361E+05 1.87957E+03-4.49764E+05 5.27507E-11 1.54250E-09
 -1         9-4.56533E+05-2.51657E+04 2.78542E+02-3.82238E+05-1.74926E-10-1.60920E-09
 -1        10-2.42608E+05-3.30829E+04 8.26871E+02-2.15558E+05 1.20538E-09 6.49379E-10
 -1        11-9.67290E+03-5.50255E+03 2.08979E+02-9.46167E+04 7.84439E-11 5.30387E-10
 -1        12 1.22186E+05 7.69905E+05-2.62638E+03 4.16257E+04 8.73570E-10 3.61429E-09
 -1        15 1.27593E+04 2.14947E+04 7.12566E+02-1.70699E+05-1.82808E-10-1.27329E-10
 -1        16-1.59433E+05-3.52194E+04 1.62231E+02-3.45704E+05-3.97449E-10-6.60899E-11
 -1        17-2.02079E+05-6.16038E+04 2.80142E+03-3.48692E+05 6.24520E-10 1.59586E-09
 -1        18-4.04654E+04-5.24497E+04 2.16044E+02-2.52235E+05 1.16476E-09 2.49808E-10
 -1        19 3.12596E+05 4.51183E+05-3.17111E+02 3.84508E+04 1.32210E-09 8.43405E-10
 -1        20 1.15652E+05-4.38791E+04-1.28009E+03 7.19591E+04 1.61565E-08 1.49066E-09
 -1        21-9.59595E+03-1.09675E+05-4.48136E+02 1.07635E+04 1.01636E-08-1.84254E-09
 -1        22 3.53150E+04 1.86819E+05 4.13623E+02-1.18770E+05 1.10958E-10 1.27329E-11
 -1        23-1.11210E+05 1.92647E+03 5.21062E+02-2.18240E+05 3.03165E-12 1.51582E-10
 -1        24-3.08290E+05-4.72368E+04 3.82118E+03-3.45655E+05-4.05028E-10-6.20882E-10
 -1        25-1.68575E+05-8.71069E+04 4.85531E+03-3.55590E+05 1.49885E-09-3.84413E-10
 -1        26-4.25957E+04 2.36795E+05 1.57721E+03-1.10882E+05 6.75451E-10-9.51635E-10
 -1        27 2.82176E+04-2.34856E+04-1.63514E+03 1.20623E+05 1.17657E-08 2.71636E-10
 -1        28 1.19849E+01-7.77813E+04-3.88234E+02 4.79495E+04 1.52313E-08 1.62890E-10
 -1        29 3.76978E+05 3.01920E+05 8.72850E+02-9.67452E+04 1.43700E-10 2.88310E-10
 -1        30 1.34306E+05 3.31557E+04 5.26504E+02-1.09780E+05 2.70028E-10 6.54836E-11
 -1        31-3.58978E+05 1.30712E+04 9.44023E+02-1.70054E+05 6.99458E-10-3.36513E-10
 -1        32-4.59204E+05-1.04784E+05 5.05841E+03-3.43512E+05-6.85247E-10 1.24237E-09
 -1        33-1.99107E+05 7.67392E+04 6.08360E+03-1.59480E+05 1.26013E-09-1.02662E-09
 -1        34-2.19937E+05-2.40281E+04 4.11663E+02 7.95620E+04 1.90513E-08-1.89578E-09
 -1        35-3.62115E+04-2.80367E+04-3.08309E+02 6.79849E+04 1.99159E-08-5.83289E-10
 -1        36-1.79948E+06-1.17053E+03-7.65978E+03-6.05758E-09 1.31337E-09 3.36513E-10
 -1        37-1.80125E+06-1.03617E+03-4.21592E+03-3.50747E-09 1.91092E-09-2.43682E-09
 -1        38-1.80034E+06-1.38577E+01-1.89449E+03-1.02376E-08 1.11322E-10 1.58457E-09
 -1        39-1.80033E+06-3.52593E+01-1.01264E+03 1.93203E-08-6.49418E-10 1.40926E-09
 -1        40-1.80040E+06 1.09785E+01-5.61164E+02 4.30343E-09-2.38710E-10-4.17496E-09
 -1        41-1.80027E+06 3.32577E+00-4.35074E+02 5.73748E-09 7.06596E-10 4.88310E-10
 -1        42-1.80040E+06 1.21394E+01-5.07790E+02-7.90619E-09 2.08767E-10 1.37051E-09
 -1        43-1.80028E+06 9.50256E+00-8.60183E+02-2.60645E-09 1.13170E-10-1.60232E-09
 -1        44-1.80038E+06 3.74266E+01-1.60783E+03-2.47593E-09-2.42651E-09-1.48862E-09
 -1        45-1.80041E+06 1.20021E+01-3.24781E+03 4.06769E-09 3.87290E-10-2.81784E-09
 -1        46-1.80027E+06 1.18253E+02-6.36207E+03-2.75766E-09 3.86306E-10-2.96495E-09
 -1        47-1.80133E+06-4.91800E+02-1.32073E+04-1.77291E-08 8.53852E-10-3.67891E-10
 -1        48-1.79948E+06-1.97763E+02-2.56396E+04-1.01956E-08-2.40999E-10-8.27640E-11
 -1        49-1.81398E+06-1.42052E+04-5.76273E+04-1.29148E-09 4.63798E-10 1.64437E-09
 -1        50-1.78769E+06-1.60345E+04-1.04893E+05 9.93168E-10 2.35576E-11-6.62112E-10
 -1        51 1.54687E+04-7.76757E+05 9.00617E+04-6.96840E+05-8.73115E-11 3.36149E-09
 -1        52 1.75256E+04-7.59637E+05 4.68558E+04-9.78875E+05 4.36557E-11-8.40373E-10
 -1        53 5.19530E+03-7.75177E+05 1.42518E+04-6.94420E+05-2.21917E-10-1.22600E-09
 -1        54 4.56562E+03-7.81058E+05-7.20575E+03-9.80125E+05-4.22006E-10-2.44674E-09
 -1        55-1.53526E+03-7.70241E+05-3.03351E+04-6.95533E+05-5.27507E-11-1.69530E-09
 -1        56-2.30940E+06-3.38732E+05-8.59929E+04-8.69857E+05-1.14596E-10 3.36513E-09
 -1        57-2.32820E+06-3.47187E+05-4.63611E+04-8.79529E+05 6.20275E-10 2.38288E-09
 -1        58-2.31760E+06-3.31617E+05-1.93274E+04-8.76590E+05-9.21318E-10-2.42380E-09
 -1        59-2.31656E+06-3.34686E+05-9.64591E+03-8.79805E+05-7.82165E-10-3.77196E-09
 -1        60-2.31820E+06-3.31595E+05-4.48087E+03-8.76907E+05-2.91493E-10-4.23061E-09
 -1        61-2.31581E+06-3.34081E+05-2.38211E+03-8.79639E+05 5.06589E-10 1.17984E-09
 -1        62-2.31824E+06-3.31679E+05-1.50970E+03-8.76947E+05-5.27507E-10 2.03113E-09
 -1        63-2.31581E+06-3.34000E+05-1.60019E+03-8.79548E+05 7.03949E-10 6.37715E-09
 -1        64-2.31818E+06-3.31693E+05-2.52798E+03-8.76983E+05-5.93900E-10 1.52977E-09
 -1        65-2.31609E+06-3.33978E+05-5.07505E+03-8.79525E+05-5.06589E-10-2.66755E-09
 -1        66-2.31794E+06-3.31597E+05-1.02263E+04-8.77003E+05-8.63565E-10 5.17502E-10
 -1        67-2.31803E+06-3.35186E+05-2.23905E+04-8.79662E+05 1.06411E-10 4.43833E-10
 -1        68-2.31642E+06-3.31760E+05-4.50293E+04-8.76372E+05 4.01613E-09 5.44242E-09
 -1        69-2.34546E+06-3.64061E+05-1.08109E+05-8.78675E+05 3.22780E-09 9.73705E-09
 -1        70-2.29711E+06-3.48481E+05-2.00482E+05-8.60824E+05-1.29876E-09 8.73115E-11
 -1        71-5.61160E+05 2.61418E+03 1.70584E+04-1.84673E-09-6.28737E-10-4.70209E-10
 -1        72-5.56810E+05 2.30722E+03 9.36614E+03-5.43832E-09-1.99255E-09 1.64073E-09
 -1        73-5.59242E+05 3.24875E+01 4.16347E+03-1.44378E-08 1.02700E-10 2.57387E-10
 -1        74-5.58864E+05 7.99848E+01 2.13321E+03 3.25966E-09 9.86118E-10 3.23300E-09
 -1        75-5.59111E+05-1.84903E+01 1.00448E+03-5.68695E-09-2.02028E-10 4.55429E-10
 -1        76-5.59015E+05-1.18743E+00 4.65244E+02-9.80176E-09 9.31059E-10-8.29914E-11
 -1        77-5.59092E+05-3.07768E+00 1.36630E+02-5.79479E-09-2.64491E-10 3.80922E-10
 -1        78-5.59044E+05 1.27876E+00-1.15564E+02-5.39591E-09 8.22285E-10 2.51586E-09
 -1        79-5.59081E+05 9.73528E+00-4.20809E+02-8.65409E-09-4.08163E-10 9.94476E-11
 -1        80-5.59088E+05 3.26379E+00-9.59730E+02 8.98282E-09 6.37424E-11 5.63227E-09
 -1        81-5.59048E+05 3.58345E+01-1.93371E+03 9.34401E-09 1.89213E-10-1.61367E-09
 -1        82-5.59370E+05-1.50493E+02-4.04100E+03-4.43882E-09-1.00881E-09-3.01969E-09
 -1        83-5.58801E+05-6.09657E+01-7.85654E+03-6.60236E-09 3.51718E-10-3.73802E-10
 -1        84-5.63241E+05-4.34845E+03-1.76569E+04 1.24810E-08 5.58094E-11 2.26350E-09
 -1        85-5.55184E+05-4.92515E+03-3.21462E+04-4.11274E-09 3.02785E-11-4.65479E-09
 -1        86 1.89128E+04 5.25583E+05 1.29301E+05-1.96601E+05-1.38243E-10-3.21961E-09
 -1        87 1.78414E+04 5.57634E+05 8.03381E+04-2.82749E+05 6.28916E-10-4.54384E-09
 -1        88 8.99229E+02 5.37974E+05 5.43652E+04-1.95934E+05-6.98492E-10-2.67391E-10
 -1        89 1.50595E+04 5.53961E+05 6.99729E+04-2.83128E+05 9.31323E-10 3.24553E-09
 -1        90 1.58867E+04 5.27529E+05 1.06359E+05-1.96177E+05-7.16682E-10-2.92857E-10
 -1        91-9.45927E+05-1.42794E+05-3.30418E+04-3.62045E+05 2.75577E-10-1.18962E-09
 -1        92-9.51181E+05-1.47987E+05-1.78120E+04-3.68022E+05 1.25056E-10 9.65201E-10
 -1        93-9.49111E+05-1.40021E+05-7.43060E+03-3.64611E+05 4.17685E-10 1.95519E-09
 -1        94-9.46681E+05-1.43225E+05-3.70894E+03-3.68168E+05 3.63116E-10 8.11276E-10
 -1        95-9.49352E+05-1.40005E+05-1.72277E+03-3.64725E+05-1.39380E-10 4.62137E-11
 -1        96-9.46382E+05-1.43007E+05-9.14343E+02-3.68120E+05-4.43492E-10-7.01993E-09
 -1        97-9.49372E+05-1.40031E+05-5.75479E+02-3.64733E+05 6.03222E-10-1.59548E-09
 -1        98-9.46371E+05-1.42987E+05-6.04384E+02-3.68095E+05 1.87129E-10 4.48972E-09
 -1        99-9.49352E+05-1.40035E+05-9.48765E+02-3.64741E+05 5.98902E-10 1.01227E-09
 -1       100-9.46459E+05-1.42987E+05-1.89943E+03-3.68092E+05 2.58296E-10 9.57698E-10
 -1       101-9.49261E+05-1.39997E+05-3.82501E+03-3.64741E+05-7.09861E-10-1.23691E-10
 -1       102-9.47175E+05-1.43445E+05-8.36817E+03-3.68144E+05 8.41965E-10 5.02382E-09
 -1       103-9.48686E+05-1.40060E+05-1.68245E+04-3.64500E+05-1.95814E-09 1.14596E-10
 -1       104-9.57431E+05-1.54170E+05-4.03604E+04-3.67722E+05-3.38787E-10 1.33150E-09
 -1       105-9.41415E+05-1.46387E+05-7.48725E+04-3.58729E+05 1.17461E-09-5.96629E-10
 -1       106-7.72287E+04 2.35412E+03 1.53517E+04 1.37948E-09 3.22839E-10-2.21644E-09
 -1       107-7.33502E+04 2.07559E+03 8.43148E+03 3.91276E-09 9.21261E-10 1.08912E-09
 -1       108-7.55003E+04 2.91666E+01 3.75267E+03-8.98363E-09 7.64839E-10-3.05113E-09
 -1       109-7.51976E+04 7.17911E+01 1.93075E+03 4.37669E-09-2.66093E-09 7.88503E-10
 -1       110-7.53822E+04-1.71462E+01 9.24959E+02-7.46962E-10-9.14985E-10 1.95939E-09
 -1       111-7.53318E+04-1.59604E+00 4.60965E+02-7.00463E-09 2.03970E-10 3.40992E-09
 -1       112-7.53662E+04-4.76727E+00 2.05877E+02-4.11451E-09-3.53187E-10-2.86788E-09
 -1       113-7.53526E+04-7.19969E-01 6.50360E+01 1.94352E-08 1.16867E-09 1.70666E-09
 -1       114-7.53614E+04 1.02121E+00-4.59580E+01-6.80649E-09 1.93110E-09-7.34460E-10
 -1       115-7.53651E+04 4.24194E-01-1.82744E+02-2.24160E-09-3.00988E-10-7.48045E-10
 -1       116-7.53537E+04 7.39026E+00-4.02194E+02-1.70184E-09-5.67546E-10-3.10735E-10
 -1       117-7.54259E+04-3.21802E+01-8.57658E+02-1.85590E-10 2.25931E-10-2.34107E-09
 -1       118-7.53007E+04-1.31071E+01-1.67542E+03 3.37742E-10-4.44188E-10-1.24714E-10
 -1       119-7.62523E+04-9.28263E+02-3.76934E+03-3.10212E-09-1.13853E-10-1.41205E-09
 -1       120-7.45274E+04-1.05264E+03-6.86448E+03-8.30948E-09-1.67720E-10 5.20004E-09
 -1       121 5.22062E+03 1.17323E+05 3.63804E+04-9.46508E+04 3.63798E-10 9.40418E-10
 -1       122 4.98281E+03 1.26362E+05 2.36483E+04-1.36173E+05 1.34878E-09-5.69435E-09
 -1       123 2.55124E+02 1.20680E+05 1.78598E+04-9.43026E+04 9.67702E-10-3.06136E-09
 -1       124 5.72615E+03 1.26726E+05 2.57388E+04-1.36417E+05 1.97542E-09-2.02908E-09
 -1       125 6.17893E+03 1.16454E+05 4.10597E+04-9.43974E+04 1.02591E-09 2.51043E-09
 -1       126-3.47356E+05-5.70990E+04-1.60275E+04-1.38487E+05-1.80705E-09-3.81169E-09
 -1       127-3.48362E+05-6.11674E+04-8.63958E+03-1.43171E+05-5.53712E-10-5.59248E-09
 -1       128-3.48921E+05-5.57339E+04-3.60543E+03-1.39715E+05 2.84786E-11-2.02556E-09
 -1       129-3.46164E+05-5.88772E+04-1.79963E+03-1.43266E+05 3.13321E-10-1.85614E-09
 -1       130-3.49040E+05-5.57234E+04-8.35886E+02-1.39769E+05-1.90852E-10-3.04453E-10
 -1       131-3.46015E+05-5.87749E+04-4.43264E+02-1.43246E+05-1.88942E-09-2.69154E-09
 -1       132-3.49051E+05-5.57350E+04-2.78400E+02-1.39771E+05 1.20576E-09 2.59513E-09
 -1       133-3.46006E+05-5.87697E+04-2.91469E+02-1.43238E+05 6.54268E-10 2.24691E-09
 -1       134-3.49042E+05-5.57352E+04-4.56152E+02-1.39771E+05 3.22871E-10 2.86423E-09
 -1       135-3.46042E+05-5.87742E+04-9.12686E+02-1.43239E+05-1.34423E-09-2.85900E-09
 -1       136-3.48999E+05-5.57174E+04-1.83747E+03-1.39768E+05-2.67346E-09-4.35170E-09
 -1       137-3.46378E+05-5.89971E+04-4.01747E+03-1.43264E+05-5.95719E-10 1.48248E-09
 -1       138-3.48720E+05-5.57486E+04-8.07740E+03-1.39649E+05 9.06311E-10 9.51331E-10
 -1       139-3.51321E+05-6.41160E+04-1.93690E+04-1.43027E+05 9.62473E-10-1.24055E-09
 -1       140-3.45193E+05-5.88217E+04-3.59341E+04-1.36907E+05-5.87875E-10 8.69477E-10
 -1       141-2.46870E+04-2.93268E+02-1.91688E+03-1.43606E-09-9.09024E-12 1.63311E-09
 -1       142-2.51679E+04-2.58535E+02-1.06051E+03 2.07174E-09 4.97844E-11-6.93490E-12
 -1       143-2.49022E+04-3.14529E+00-4.87822E+02-6.87514E-09 2.91616E-10-1.10924E-09
 -1       144-2.49391E+04-8.42183E+00-2.82208E+02 1.35964E-08 1.12809E-10 2.46119E-09
 -1       145-2.49158E+04 4.12807E+00-1.97428E+02-6.80145E-09-2.39235E-10-4.12015E-10
 -1       146-2.49280E+04 2.27535E+00-2.25160E+02-6.49102E-09 1.42331E-10 1.88167E-09
 -1       147-2.49133E+04 8.55356E+00-3.56054E+02-3.07857E-09-1.05163E-10-1.63381E-09
 -1       148-2.49488E+04 7.55587E+00-6.82457E+02-5.14384E-09-3.32600E-10-1.13457E-09
 -1       149-2.48951E+04 3.07574E+01-1.32204E+03 4.67054E-10 2.01131E-10 1.10515E-09
 -1       150-2.50556E+04 1.00268E+01-2.69426E+03-1.43856E-09 3.56132E-11-2.47985E-09
 -1       151-2.48065E+04 9.82511E+01-5.28790E+03-1.15554E-08-4.87654E-10 2.30762E-09
 -1       152-2.58146E+04-4.07196E+02-1.09775E+04-1.97429E-09 2.19676E-10 5.77529E-10
 -1       153-2.41357E+04-1.65211E+02-2.13062E+04-2.91745E-09 6.23798E-10 2.04454E-09
 -1       154-3.62980E+04-1.17799E+04-4.78557E+04 6.38465E-10-2.24235E-10 3.00133E-11
 -1       155-1.43117E+04-1.33517E+04-8.70979E+04 5.00222E-10 1.64602E-10 3.35785E-09
 -1       156 1.37141E+03 8.68403E+04 9.60626E+03-3.67123E+04 3.01043E-10 1.06866E-09
 -1       157 1.29977E+03 8.92368E+04 6.22836E+03-5.27154E+04 1.24237E-09-3.19778E-09
 -1       158 5.29608E+01 8.77372E+04 4.67643E+03-3.65360E+04 1.09299E-09 5.01132E-10
 -1       159 1.47629E+03 8.93074E+04 6.70733E+03-5.28950E+04 1.63345E-09 4.08636E-09
 -1       160 1.60266E+03 8.66251E+04 1.06800E+04-3.65308E+04 1.48611E-09 4.54747E-12
 -1       161-8.98814E+03 1.68354E+03-1.77210E+02 5.93529E+02-1.00681E-09-6.58270E-09
 -1       162-1.02939E+04 2.93524E+03-9.95686E+01 2.02590E+03 5.80030E-10-3.37010E-09
 -1       163-8.97361E+03 1.66715E+03-5.07935E+01 5.41666E+02-2.07137E-10-4.08602E-09
 -1       164-1.03070E+04 2.99542E+03-4.39017E+01 2.06227E+03 2.18279E-10 1.75362E-10
 -1       165-8.97527E+03 1.66680E+03-5.94342E+01 5.38101E+02-1.36765E-09 5.60078E-10
 -1       166-1.03126E+04 2.99970E+03-1.11565E+02 2.06161E+03-2.84558E-10-5.78893E-10
 -1       167-8.97169E+03 1.67174E+03-2.22688E+02 5.36845E+02 3.62206E-10 1.14960E-09
 -1       168-1.03317E+04 3.00065E+03-4.74466E+02 2.05341E+03 3.79885E-10 1.02258E-09
 -1       169-8.95603E+03 1.68949E+03-9.73402E+02 5.36025E+02 6.38465E-10-4.50996E-10
 -1       170-1.04258E+04 2.98077E+03-2.09685E+03 2.02083E+03-1.24444E-09 1.07877E-09
 -1       171-8.87168E+03 1.75156E+03-4.29293E+03 5.45827E+02-1.07795E-09-8.04448E-10
 -1       172-1.12072E+04 2.43755E+03-9.42880E+03 1.91596E+03 1.27756E-09-3.98370E-09
 -1       173-8.24945E+03 1.70668E+03-1.89689E+04 8.38041E+02 6.56883E-10 5.27507E-10
 -1       174-2.26450E+04-9.76782E+03-4.54990E+04 2.23526E+03-1.17598E-09 7.90351E-10
 -1       175-1.40869E+02-5.33155E+03-8.43943E+04 7.47010E+03 1.63709E-11 5.82077E-10
 -1       191 1.52795E+04 1.71433E+06 8.85084E+04-2.11922E+04 7.27596E-12-1.51476E-09
 -1       192 1.14589E+04 1.73591E+06 5.55731E+04-2.95435E+04-4.95675E-11 1.65755E-10
 -1       193 4.43689E+02 1.72304E+06 3.96888E+04-2.11077E+04 1.64050E-10 3.54567E-09
 -1       194 1.09434E+04 1.73540E+06 5.38076E+04-2.96224E+04 6.77574E-11 3.10035E-09
 -1       195 1.45439E+04 1.71479E+06 8.45488E+04-2.11042E+04 2.40107E-10-1.55296E-10
 -1       251 6.78220E+05 1.56362E+04 1.09007E+05-9.70297E+04 3.38332E-10 9.34961E-10
 -1       252 7.05967E+05 1.39032E+04 5.99651E+04-1.38880E+05 2.32831E-10 2.00998E-09
 -1       253 6.89819E+05-4.15454E+02 2.66274E+04-9.62550E+04 2.51021E-10 1.94632E-10
 -1       254 6.91854E+05 1.29654E+02 1.38031E+04-1.39534E+05 8.80391E-10 1.76806E-09
 -1       255 6.90117E+05-3.48029E+02 6.69159E+03-9.62873E+04-1.78261E-10 6.11180E-10
 -1       256 6.90264E+05-4.48023E+01 3.59899E+03-1.39468E+05 1.48248E-10 2.31921E-10
 -1       257 6.89885E+05-2.23944E+01 2.07870E+03-9.63264E+04 6.02085E-10 2.45836E-09
 -1       258 6.89817E+05 1.38372E+02 1.73737E+03-1.39412E+05-5.47516E-10 8.25821E-10
 -1       259 6.89752E+05 7.32024E+01 2.16448E+03-9.63441E+04-4.54747E-11-8.44921E-10
 -1       260 6.89887E+05 1.65127E+02 3.78856E+03-1.39402E+05-7.13499E-10-5.94628E-09
 -1       261 6.89712E+05-6.25680E+01 7.10640E+03-9.63354E+04 5.89353E-10-1.89539E-09
 -1       262 6.91140E+05 5.79863E+02 1.45951E+04-1.39414E+05 6.06633E-10 4.99745E-09
 -1       263 6.89100E+05 8.48890E+01 2.82056E+04-9.63300E+04-7.56700E-10 1.06775E-09
 -1       264 7.05581E+05 1.53439E+04 6.33552E+04-1.38918E+05-7.34872E-10-7.20775E-10
 -1       265 6.76566E+05 1.72479E+04 1.15257E+05-9.68760E+04-1.70985E-10-2.61934E-10
 -1       266 5.75281E+03-9.48493E+04 3.22252E+04-1.31903E+05 2.84672E-10 5.62750E-10
 -1       267 5.39286E+03-8.69442E+04 1.65677E+04-1.90953E+05 3.41061E-12-1.31377E-09
 -1       268 6.13995E+02-9.08702E+04 5.03873E+03-1.31849E+05 2.74667E-10-1.24055E-09
 -1       269-7.14568E+02-9.17366E+04-2.58268E+03-1.90485E+05 4.33829E-10 8.37645E-10
 -1       270-1.66840E+03-8.87305E+04-1.04208E+04-1.32404E+05-7.45786E-11 2.20462E-09
 -1       271-1.24145E+06-2.41836E+05-9.86022E+04-5.36924E+05 6.23913E-10-6.00994E-09
 -1       272-1.24176E+06-2.72349E+05-5.30831E+04-5.72162E+05 2.72848E-10-2.02544E-09
 -1       273-1.25178E+06-2.32856E+05-2.22118E+04-5.44307E+05-7.74889E-10-1.45519E-11
 -1       274-1.22828E+06-2.58592E+05-1.10266E+04-5.73686E+05-1.61890E-10-2.27737E-09
 -1       275-1.25292E+06-2.32475E+05-5.10848E+03-5.44725E+05-1.83718E-10 3.75940E-09
 -1       276-1.22758E+06-2.57981E+05-2.58783E+03-5.74030E+05 8.00355E-11 1.67336E-09
 -1       277-1.25327E+06-2.32342E+05-1.44897E+03-5.44800E+05-4.36557E-10-7.02130E-10
 -1       278-1.22763E+06-2.57961E+05-1.20877E+03-5.74245E+05 1.08093E-09 5.44333E-10
 -1       279-1.25337E+06-2.32258E+05-1.62068E+03-5.44827E+05-4.46562E-10 1.53705E-10
 -1       280-1.22776E+06-2.57989E+05-3.07210E+03-5.74315E+05-2.39652E-10-1.08230E-10
 -1       281-1.25320E+06-2.32213E+05-6.11398E+03-5.44801E+05 6.60293E-10 6.52108E-10
 -1       282-1.22879E+06-2.58742E+05-1.33360E+04-5.74276E+05-4.13365E-10-1.98270E-09
 -1       283-1.25211E+06-2.32452E+05-2.68278E+04-5.44359E+05-4.36557E-10 4.47471E-10
 -1       284-1.24511E+06-2.75662E+05-6.43077E+04-5.73077E+05 1.74623E-10 2.45200E-09
 -1       285-1.24005E+06-2.42916E+05-1.19350E+05-5.35267E+05-3.40151E-10-8.73115E-11
 -1       286 3.18132E+04 7.60745E+03 5.12931E+04-5.28790E+04 8.22183E-10 1.31877E-10
 -1       287 4.48071E+04 6.75777E+03 2.81978E+04-7.55798E+04 1.59707E-09 3.17414E-09
 -1       288 3.74031E+04-3.28995E+01 1.25369E+04-5.24723E+04-2.54659E-10 9.70431E-10
 -1       289 3.83688E+04 1.82825E+02 6.48092E+03-7.59853E+04-1.10958E-09-1.11686E-09
 -1       290 3.76558E+04-8.42817E+01 3.13537E+03-5.24551E+04-1.09139E-10-4.97948E-10
 -1       291 3.77595E+04 2.51045E+01 1.64762E+03-7.60030E+04 1.48066E-09 3.09683E-10
 -1       292 3.76253E+04 1.31967E+01 8.93238E+02-5.24556E+04 7.03494E-10-7.82165E-10
 -1       293 3.76307E+04 6.49787E+01 6.37867E+02-7.60027E+04 7.36350E-10 6.29279E-09
 -1       294 3.76097E+04 3.30636E+01 6.67972E+02-5.24556E+04 1.89516E-10 2.30375E-09
 -1       295 3.76713E+04 5.86177E+01 1.06738E+03-7.60024E+04 1.28966E-09 1.24965E-09
 -1       296 3.76219E+04-1.81968E+01 1.94266E+03-5.24558E+04 3.21961E-10 5.22959E-10
 -1       297 3.80461E+04 1.52072E+02 3.96312E+03-7.59868E+04 6.96673E-10 4.81100E-09
 -1       298 3.74844E+04 1.92718E+00 7.64087E+03-5.24708E+04-1.61890E-10 2.46274E-09
 -1       299 4.20069E+04 4.13369E+03 1.71705E+04-7.56444E+04-1.23691E-10-2.52203E-09
 -1       300 3.41188E+04 4.62453E+03 3.12196E+04-5.28054E+04 3.05590E-10 2.24463E-09
 -1       301 1.29094E+04 1.81863E+05 6.79366E+04-4.04024E+05-1.41881E-09-1.14596E-09
 -1       302 1.17293E+04 1.96864E+05 4.07256E+04-5.67616E+05-1.56433E-10 4.64752E-10
 -1       303 2.39305E+03 1.87232E+05 2.51566E+04-4.03082E+05-2.24645E-09-1.85889E-09
 -1       304 8.19684E+03 1.93413E+05 2.86709E+04-5.67656E+05-2.25555E-10 2.95586E-10
 -1       305 7.88032E+03 1.85037E+05 4.09045E+04-4.03988E+05-2.07001E-09 9.93168E-10
 -1       306-1.45011E+06-2.48579E+05-1.12659E+05-5.83600E+05 6.77574E-11 1.74623E-10
 -1       307-1.46383E+06-2.70582E+05-6.07189E+04-6.08953E+05 1.38243E-10-2.18279E-10
 -1       308-1.46129E+06-2.38857E+05-2.53265E+04-5.92170E+05 2.26464E-10 5.47516E-10
 -1       309-1.44834E+06-2.54586E+05-1.26050E+04-6.09901E+05 3.71074E-10 1.02636E-09
 -1       310-1.46225E+06-2.38679E+05-5.80106E+03-5.92542E+05 1.55069E-09 4.81009E-09
 -1       311-1.44730E+06-2.53906E+05-2.95466E+03-6.09925E+05-1.70985E-09 5.08550E-10
 -1       312-1.46242E+06-2.38701E+05-1.63591E+03-5.92555E+05-4.19277E-10 2.02044E-09
 -1       313-1.44721E+06-2.53891E+05-1.36172E+03-6.09945E+05 4.33033E-10 1.00817E-09
 -1       314-1.46242E+06-2.38697E+05-1.80512E+03-5.92555E+05-3.53793E-10-3.13366E-09
 -1       315-1.44733E+06-2.53911E+05-3.40234E+03-6.09935E+05-1.45519E-11-1.98179E-09
 -1       316-1.46223E+06-2.38658E+05-6.75404E+03-5.92540E+05 4.44743E-10 1.88356E-09
 -1       317-1.44855E+06-2.54715E+05-1.47227E+04-6.09937E+05 9.54969E-10-2.15005E-09
 -1       318-1.46112E+06-2.38846E+05-2.95919E+04-5.92103E+05-1.78261E-10 1.50430E-09
 -1       319-1.46662E+06-2.73466E+05-7.09683E+04-6.08919E+05-5.67525E-10 1.11886E-08
 -1       320-1.44812E+06-2.50138E+05-1.31657E+05-5.82039E+05 7.88077E-10 4.36557E-10
 -1       321 2.21568E+05 7.55800E+03 4.98891E+04-3.30104E+04 1.07320E-10-1.09867E-09
 -1       322 2.34151E+05 6.67793E+03 2.74112E+04-4.72273E+04-1.01136E-09-8.50378E-10
 -1       323 2.27117E+05 4.74862E+01 1.22016E+04-3.27740E+04 2.91038E-11 1.33423E-09
 -1       324 2.28050E+05 2.12807E+02 6.29864E+03-4.74597E+04 6.41194E-10-3.17209E-09
 -1       325 2.27448E+05-6.52708E+01 3.04792E+03-3.27669E+04 7.63066E-10-2.23281E-10
 -1       326 2.27558E+05 5.88851E+00 1.58833E+03-4.74639E+04-4.54747E-11 2.68938E-09
 -1       327 2.27469E+05-6.91179E+00 8.44035E+02-3.27704E+04-3.87899E-10 2.84331E-09
 -1       328 2.27478E+05 1.94046E+01 5.68247E+02-4.74600E+04-8.63338E-10-7.25322E-11
 -1       329 2.27469E+05 3.53771E+00 5.50463E+02-3.27709E+04-1.29376E-10-4.65207E-10
 -1       330 2.27504E+05 1.62396E+01 8.36860E+02-4.74607E+04-2.40561E-10 1.20872E-09
 -1       331 2.27466E+05-2.55415E+01 1.49958E+03-3.27696E+04 2.02817E-10 4.62956E-09
 -1       332 2.27755E+05 1.07418E+02 3.04280E+03-4.74563E+04 7.05768E-10 4.63865E-09
 -1       333 2.27325E+05 1.64909E+01 5.86505E+03-3.27751E+04-2.54659E-11 1.88930E-09
 -1       334 2.30719E+05 3.19427E+03 1.31647E+04-4.72500E+04-5.16593E-10-3.18323E-10
 -1       335 2.24688E+05 3.60136E+03 2.39458E+04-3.29800E+04-1.03864E-09 4.41105E-09
 -1       336 6.35202E+03 1.19411E+05 4.12845E+04-2.75079E+05 1.75714E-09 5.68980E-09
 -1       337 6.95032E+03 1.28893E+05 2.64876E+04-3.96443E+05 4.37649E-09 3.06045E-09
 -1       338 1.22624E+03 1.22515E+05 1.91538E+04-2.74350E+05 2.48656E-09 7.92170E-10
 -1       339 7.14870E+03 1.28481E+05 2.64856E+04-3.96597E+05 4.76575E-09-8.49923E-10
 -1       340 6.73292E+03 1.18891E+05 4.13400E+04-2.74917E+05 1.98816E-09 1.25874E-09
 -1       341-9.18550E+05-1.61979E+05-7.42262E+04-3.75240E+05 1.44792E-09-3.61979E-09
 -1       342-9.25986E+05-1.78086E+05-4.00050E+04-3.93812E+05 2.55113E-10-1.94996E-09
 -1       343-9.25905E+05-1.55577E+05-1.66889E+04-3.80885E+05 1.59889E-09 2.60843E-09
 -1       344-9.15782E+05-1.67541E+05-8.30857E+03-3.94398E+05-3.20142E-10 2.65754E-09
 -1       345-9.26515E+05-1.55480E+05-3.82496E+03-3.81134E+05-8.98581E-10 5.27507E-11
 -1       346-9.15104E+05-1.67083E+05-1.95447E+03-3.94379E+05 6.26642E-10 1.79364E-09
 -1       347-9.26609E+05-1.55510E+05-1.09059E+03-3.81144E+05-8.04448E-10-2.11458E-11
 -1       348-9.15043E+05-1.67067E+05-9.24560E+02-3.94369E+05-2.53425E-09-2.88310E-10
 -1       349-9.26595E+05-1.55517E+05-1.24484E+03-3.81143E+05 1.04365E-10 2.28647E-09
 -1       350-9.15120E+05-1.67080E+05-2.35899E+03-3.94352E+05 9.64064E-10 8.53106E-10
 -1       351-9.26456E+05-1.55491E+05-4.68970E+03-3.81130E+05-1.27329E-11 7.27596E-12
 -1       352-9.15955E+05-1.67642E+05-1.02207E+04-3.94358E+05-6.28006E-10-4.00178E-10
 -1       353-9.25695E+05-1.55616E+05-2.05442E+04-3.80820E+05-5.01132E-10-1.13505E-09
 -1       354-9.28512E+05-1.80637E+05-4.92542E+04-3.93643E+05 1.85082E-10-1.33514E-09
 -1       355-9.16646E+05-1.63478E+05-9.13774E+04-3.73853E+05-1.86742E-09-1.05501E-09
 -1       356 1.47660E+05 2.48729E+03 1.63196E+04-1.00183E+04 1.02773E-10-5.42059E-10
 -1       357 1.51769E+05 2.19146E+03 8.95858E+03-1.43244E+04-9.67702E-10 2.78305E-10
 -1       358 1.49491E+05 2.01474E+01 3.97437E+03-9.93747E+03-4.41105E-11 3.83375E-09
 -1       359 1.49793E+05 6.65182E+01 2.02168E+03-1.44053E+04-2.37378E-10 2.76447E-09
 -1       360 1.49612E+05-2.33961E+01 9.20806E+02-9.93498E+03 7.22139E-10 8.61974E-10
 -1       361 1.49638E+05-6.24634E+00 3.62901E+02-1.44072E+04 1.69643E-09 1.69416E-09
 -1       362 1.49628E+05-2.72640E+00-3.21517E+01-9.93552E+03-4.62933E-10 1.45167E-09
 -1       363 1.49594E+05 1.11820E+00-4.43038E+02-1.44061E+04 7.09406E-10-8.74707E-10
 -1       364 1.49646E+05 2.21894E+01-1.05755E+03-9.93611E+03-2.76088E-10-3.63798E-12
 -1       365 1.49498E+05 4.90390E+00-2.25840E+03-1.44056E+04-8.53788E-11-3.12639E-10
 -1       366 1.49723E+05 8.05537E+01-4.48297E+03-9.93614E+03-1.25397E-10 6.45741E-11
 -1       367 1.48853E+05-3.50848E+02-9.33226E+03-1.44033E+04-1.95996E-10 1.41517E-09
 -1       368 1.50297E+05-1.45305E+02-1.81254E+04-9.93845E+03-4.94992E-10-3.09592E-09
 -1       369 1.39941E+05-1.00283E+04-4.07150E+04-1.43507E+04-3.75167E-10-5.96629E-10
 -1       370 1.58662E+05-1.13718E+04-7.41073E+04-9.98231E+03 7.31234E-10 2.37196E-09
 -1       371 3.67101E+02 1.33158E+03 2.06848E+03-1.81746E+05 2.48201E-09-1.94814E-09
 -1       372 9.28550E+02 1.42271E+03 2.10274E+03-2.61902E+05 4.92582E-09-1.52068E-09
 -1       373 5.36106E+02 9.01189E+02 2.72748E+03-1.81222E+05 4.15639E-09-4.09727E-09
 -1       374 2.10363E+03 2.04091E+03 5.45421E+03-2.62086E+05 5.06043E-09-2.62685E-09
 -1       375 1.87035E+03-1.81327E+01 9.56370E+03-1.81558E+05 4.12138E-09-1.07684E-09
 -1       376-1.12192E+05-4.24773E+04-1.28179E+04-7.53763E+04 1.61435E-10 2.42835E-09
 -1       377-1.04157E+05-5.45638E+04-6.90660E+03-8.92711E+04 3.11047E-10 2.02931E-10
 -1       378-1.13577E+05-4.12650E+04-2.89041E+03-7.62731E+04 7.50333E-11 7.37373E-10
 -1       379-1.02341E+05-5.28215E+04-1.45250E+03-8.94915E+04-7.97627E-10 1.72292E-09
 -1       380-1.13692E+05-4.12395E+04-7.00126E+02-7.63209E+04 1.37584E-09 6.54609E-09
 -1       381-1.02228E+05-5.27429E+04-4.24036E+02-8.94892E+04-6.68933E-10-2.18824E-09
 -1       382-1.13693E+05-4.12496E+04-3.69296E+02-7.63177E+04 7.07132E-11-1.55842E-09
 -1       383-1.02202E+05-5.27485E+04-5.47082E+02-8.94706E+04 1.75805E-09 4.72983E-09
 -1       384-1.13650E+05-4.12601E+04-1.01953E+03-7.62987E+04-2.91038E-11-3.34785E-09
 -1       385-1.02236E+05-5.27926E+04-2.12997E+03-8.94529E+04-1.13687E-09-5.24778E-09
 -1       386-1.13500E+05-4.12343E+04-4.34493E+03-7.62534E+04-2.25464E-09-1.69621E-09
 -1       387-1.02946E+05-5.33616E+04-9.50945E+03-8.94688E+04-2.16824E-09-4.90991E-09
 -1       388-1.12783E+05-4.13534E+04-1.91416E+04-7.59255E+04 9.20409E-10 1.88265E-09
 -1       389-1.14584E+05-6.54556E+04-4.58563E+04-8.87682E+04-3.48518E-09 3.91992E-10
 -1       390-1.04305E+05-4.87150E+04-8.50891E+04-6.94197E+04 9.64064E-11 4.40923E-09
 -1       406 1.42780E+04 1.70565E+06 8.40214E+04 9.81257E+04 7.20320E-10 4.55930E-09
 -1       407 1.06789E+04 1.72632E+06 5.43413E+04 1.38879E+05-2.41926E-10 3.54703E-09
 -1       408 1.97383E+02 1.71397E+06 4.15399E+04 9.81286E+04-2.31012E-10 2.01908E-10
 -1       409 1.21757E+04 1.72846E+06 6.02156E+04 1.38457E+05-2.11571E-09-4.58385E-10
 -1       410 1.63038E+04 1.70470E+06 9.71333E+04 9.86022E+04 7.56700E-10-4.91127E-10
 -1       466 7.77869E+05 1.10390E+04 7.41841E+04-6.18891E+04-1.12777E-10 4.45652E-10
 -1       467 7.96593E+05 9.76841E+03 4.07828E+04-8.87415E+04-3.09228E-10 6.02085E-10
 -1       468 7.85990E+05-4.08493E+01 1.81530E+04-6.14767E+04 1.14596E-10 6.87578E-10
 -1       469 7.87331E+05 2.47009E+02 9.40177E+03-8.91011E+04-3.86535E-10-2.18279E-11
 -1       470 7.86382E+05-1.34775E+02 4.58900E+03-6.14960E+04-1.52795E-10-8.06722E-10
 -1       471 7.86489E+05 5.52645E-02 2.48347E+03-8.90635E+04 1.00044E-09-1.88675E-09
 -1       472 7.86357E+05-1.27089E+01 1.48774E+03-6.15158E+04 9.09495E-12-3.80624E-10
 -1       473 7.86343E+05 3.97518E+01 1.31786E+03-8.90409E+04-1.22554E-10 2.72394E-10
 -1       474 7.86339E+05-9.26629E+00 1.74299E+03-6.15189E+04-5.09090E-10 1.53250E-10
 -1       475 7.86485E+05 1.80914E+01 3.13298E+03-8.90534E+04 8.14453E-10 1.69075E-09
 -1       476 7.86315E+05-1.31592E+02 5.93018E+03-6.15029E+04 2.02817E-10 1.05956E-10
 -1       477 7.87486E+05 3.91718E+02 1.22113E+04-8.90801E+04 4.16549E-10 1.54893E-09
 -1       478 7.85724E+05 4.85495E+01 2.36255E+04-6.14905E+04-1.40062E-10-1.46065E-09
 -1       479 7.99397E+05 1.28475E+04 5.30631E+04-8.87365E+04-3.41970E-10-1.70166E-09
 -1       480 7.75064E+05 1.45395E+04 9.65626E+04-6.18841E+04-9.02219E-10-8.94943E-10
 -1       481 4.91789E+03 3.34177E+05 3.07979E+04-9.51053E+04 5.45697E-11-1.36879E-10
 -1       482 4.60461E+03 3.41747E+05 1.79725E+04-1.37075E+05-4.32919E-10 3.67993E-09
 -1       483 3.83010E+02 3.37470E+05 1.01031E+04-9.49474E+04 1.66892E-10 1.57570E-09
 -1       484 2.12110E+03 3.39595E+05 9.95935E+03-1.36974E+05 1.84627E-10-1.00044E-10
 -1       485 1.94568E+03 3.36555E+05 1.29733E+04-9.52147E+04 1.60526E-10-7.54881E-10
 -1       486-7.56230E+05-1.43430E+05-8.62568E+04-3.17812E+05-1.44598E-09-4.94765E-09
 -1       487-7.65582E+05-1.61416E+05-4.64846E+04-3.38560E+05 2.18279E-10-7.34872E-10
 -1       488-7.64828E+05-1.35949E+05-1.93992E+04-3.24368E+05 1.22600E-09 3.23871E-09
 -1       489-7.53730E+05-1.49186E+05-9.64747E+03-3.39313E+05 7.63976E-10 4.09864E-09
 -1       490-7.65573E+05-1.35814E+05-4.43311E+03-3.24672E+05 1.52795E-10-9.89075E-11
 -1       491-7.52971E+05-1.48651E+05-2.23039E+03-3.39333E+05 1.23691E-10 5.45697E-11
 -1       492-7.65717E+05-1.35822E+05-1.18353E+03-3.24692E+05 2.34650E-10-6.76152E-10
 -1       493-7.52914E+05-1.48636E+05-8.89173E+02-3.39366E+05 2.61934E-10 1.66301E-09
 -1       494-7.65741E+05-1.35808E+05-1.06338E+03-3.24696E+05-4.14957E-11 2.25782E-10
 -1       495-7.52980E+05-1.48654E+05-1.91855E+03-3.39388E+05-3.44357E-10-7.45331E-10
 -1       496-7.65652E+05-1.35773E+05-3.76091E+03-3.24684E+05 2.41016E-11 1.23691E-10
 -1       497-7.53642E+05-1.49111E+05-8.17517E+03-3.39414E+05-1.09139E-11 1.36424E-11
 -1       498-7.65051E+05-1.35868E+05-1.64207E+04-3.24432E+05-1.09139E-10 5.14774E-10
 -1       499-7.63673E+05-1.59488E+05-3.93627E+04-3.38829E+05-2.85127E-10 8.18545E-10
 -1       500-7.57798E+05-1.42178E+05-7.30333E+04-3.18873E+05-4.59067E-10 3.60160E-10
 -1       501 6.80734E+05 1.30217E+04 8.71451E+04-6.78010E+04 8.65839E-10 6.69388E-10
 -1       502 7.02719E+05 1.15456E+04 4.79026E+04-9.71001E+04 1.96451E-10-3.20142E-10
 -1       503 6.90273E+05 3.60000E+00 2.13203E+04-6.73461E+04 1.98270E-10 1.51522E-09
 -1       504 6.91847E+05 3.57379E+02 1.10350E+04-9.75054E+04 4.72937E-11-1.60344E-09
 -1       505 6.90739E+05-1.10995E+02 5.37445E+03-6.73611E+04 4.34738E-10 6.63931E-11
 -1       506 6.90866E+05 6.20057E+01 2.88256E+03-9.74735E+04 5.57066E-10-4.24279E-10
 -1       507 6.90718E+05 2.79390E+01 1.67956E+03-6.73798E+04 7.60792E-10-8.13998E-11
 -1       508 6.90703E+05 1.02961E+02 1.40822E+03-9.74541E+04 1.55114E-09 2.19097E-09
 -1       509 6.90711E+05 2.98766E+01 1.77169E+03-6.73808E+04 2.85127E-10 2.18324E-09
 -1       510 6.90862E+05 7.00124E+01 3.11677E+03-9.74695E+04 8.89031E-10-3.74712E-10
 -1       511 6.90712E+05-1.07755E+02 5.85828E+03-6.73641E+04-1.90994E-10 5.84805E-10
 -1       512 6.91898E+05 4.12561E+02 1.20480E+04-9.74980E+04 1.26965E-09 1.66779E-09
 -1       513 6.90172E+05 3.92937E+01 2.32937E+04-6.73504E+04 4.20187E-10-1.69985E-09
 -1       514 7.03722E+05 1.26600E+04 5.23301E+04-9.71011E+04-5.38421E-10 7.10315E-10
 -1       515 6.79716E+05 1.42884E+04 9.52140E+04-6.77964E+04-4.51109E-10 2.25555E-10
 -1       516 6.54466E+03 1.85711E+05 3.93714E+04-2.72896E+05-4.76575E-10-6.07542E-10
 -1       517 6.95790E+03 1.94780E+05 2.44802E+04-3.93595E+05 1.48430E-09 3.79941E-09
 -1       518 1.25595E+03 1.89221E+05 1.63982E+04-2.72328E+05-1.16233E-09 3.25917E-09
 -1       519 5.68924E+03 1.94123E+05 2.08731E+04-3.93464E+05 1.64437E-09-6.89397E-10
 -1       520 4.91771E+03 1.87175E+05 3.13015E+04-2.73035E+05-4.64297E-10-1.17507E-09
 -1       521-1.31216E+06-2.30205E+05-1.24803E+05-5.31108E+05 5.00222E-11 1.87720E-09
 -1       522-1.32903E+06-2.52939E+05-6.72671E+04-5.57320E+05-2.47383E-10-3.05590E-10
 -1       523-1.32452E+06-2.19467E+05-2.80563E+04-5.40634E+05 1.10958E-10-3.32875E-10
 -1       524-1.31190E+06-2.35189E+05-1.39562E+04-5.58327E+05 2.12822E-10 1.13687E-11
 -1       525-1.32558E+06-2.19278E+05-6.40711E+03-5.41053E+05 4.66571E-10 1.13141E-09
 -1       526-1.31076E+06-2.34428E+05-3.22733E+03-5.58345E+05 7.70797E-10 4.25986E-09
 -1       527-1.32578E+06-2.19303E+05-1.71581E+03-5.41070E+05 3.94721E-10 8.13088E-10
 -1       528-1.31066E+06-2.34412E+05-1.29931E+03-5.58373E+05-3.31056E-10 1.41472E-09
 -1       529-1.32579E+06-2.19296E+05-1.56703E+03-5.41070E+05-5.01075E-10-5.83441E-10
 -1       530-1.31075E+06-2.34432E+05-2.83795E+03-5.58374E+05-1.47338E-10 1.94859E-10
 -1       531-1.32564E+06-2.19264E+05-5.57201E+03-5.41056E+05-5.18412E-11 9.31323E-10
 -1       532-1.31174E+06-2.35096E+05-1.21137E+04-5.58374E+05 4.90672E-10 7.77618E-10
 -1       533-1.32472E+06-2.19424E+05-2.43349E+04-5.40693E+05 1.76442E-10 4.80213E-10
 -1       534-1.32662E+06-2.50483E+05-5.83476E+04-5.57490E+05-6.32099E-10 2.11003E-09
 -1       535-1.31399E+06-2.28756E+05-1.08251E+05-5.32447E+05 1.27329E-10 1.81535E-09
 -1       536 6.97859E+05 1.46140E+04 9.70439E+04-6.00758E+04 4.23825E-10 1.28057E-09
 -1       537 7.22324E+05 1.29236E+04 5.33280E+04-8.60412E+04-9.84983E-10-2.08183E-09
 -1       538 7.08571E+05 5.20519E+01 2.37407E+04-5.96714E+04-3.60160E-10-1.44064E-09
 -1       539 7.10347E+05 4.07264E+02 1.22725E+04-8.63992E+04 1.21872E-10 6.96673E-10
 -1       540 7.09158E+05-1.24233E+02 5.96082E+03-5.96824E+04 2.18279E-10 1.19871E-09
 -1       541 7.09327E+05 3.90033E+01 3.15560E+03-8.63724E+04 3.78350E-10 1.13596E-09
 -1       542 7.09169E+05 7.27995E+00 1.76666E+03-5.97000E+04-2.83308E-10-1.26602E-09
 -1       543 7.09164E+05 7.22985E+01 1.35729E+03-8.63542E+04-2.79584E-10-4.34284E-10
 -1       544 7.09168E+05 1.56503E+01 1.56172E+03-5.97009E+04 1.58707E-10-2.34104E-09
 -1       545 7.09286E+05 4.85579E+01 2.63074E+03-8.63668E+04-1.00181E-09 2.15960E-09
 -1       546 7.09166E+05-9.32488E+01 4.87976E+03-5.96871E+04 1.70985E-10-1.22895E-09
 -1       547 7.10132E+05 3.38432E+02 9.99872E+03-8.63916E+04-2.43745E-10-7.46695E-10
 -1       548 7.08709E+05 3.57586E+01 1.93158E+04-5.96747E+04-1.56433E-10-1.83809E-09
 -1       549 7.19916E+05 1.04991E+04 4.33806E+04-8.60493E+04 6.09361E-10 3.28873E-09
 -1       550 7.00027E+05 1.18548E+04 7.89244E+04-6.00560E+04-1.48066E-09 5.67525E-10
 -1       551 7.41374E+03 8.13673E+04 3.78381E+04-3.88477E+05-1.65164E-09 1.00044E-09
 -1       552 7.54234E+03 8.91704E+04 2.50327E+04-5.46000E+05-2.77578E-09 4.40923E-09
 -1       553 2.10773E+03 8.36655E+04 1.96117E+04-3.87616E+05-1.39698E-09 4.40650E-09
 -1       554 8.64156E+03 9.05039E+04 2.90760E+04-5.45935E+05-1.70257E-09 5.31145E-10
 -1       555 8.93637E+03 8.05310E+04 4.68800E+04-3.88544E+05-9.18590E-10-1.98634E-09
 -1       556-1.27600E+06-2.38177E+05-1.14822E+05-5.31832E+05-8.72660E-10 2.09548E-09
 -1       557-1.28577E+06-2.60180E+05-6.12976E+04-5.62226E+05-1.10595E-09 6.32372E-09
 -1       558-1.28682E+06-2.25481E+05-2.56684E+04-5.41472E+05-8.93124E-10 2.89037E-09
 -1       559-1.27043E+06-2.44481E+05-1.27357E+04-5.63180E+05 1.74714E-09 2.07319E-09
 -1       560-1.28779E+06-2.25200E+05-5.86144E+03-5.41893E+05 4.33192E-09 5.41149E-10
 -1       561-1.26946E+06-2.43830E+05-2.96472E+03-5.63202E+05 3.13048E-09 3.35456E-09
 -1       562-1.28796E+06-2.25229E+05-1.60396E+03-5.41917E+05-1.44246E-09 2.11276E-09
 -1       563-1.26937E+06-2.43810E+05-1.26879E+03-5.63198E+05-1.42236E-09 2.05819E-09
 -1       564-1.28794E+06-2.25246E+05-1.60404E+03-5.41912E+05 2.10548E-10 1.62709E-09
 -1       565-1.26944E+06-2.43824E+05-2.96142E+03-5.63138E+05 3.19233E-09 3.58887E-09
 -1       566-1.28772E+06-2.25256E+05-5.85759E+03-5.41881E+05 1.42791E-10 5.02041E-10
 -1       567-1.27038E+06-2.44468E+05-1.27137E+04-5.63052E+05-1.74623E-10-2.79215E-10
 -1       568-1.28670E+06-2.25569E+05-2.56262E+04-5.41451E+05-1.56433E-10 4.56566E-10
 -1       569-1.28572E+06-2.60096E+05-6.11789E+04-5.62000E+05 4.72937E-10 3.83807E-10
 -1       570-1.27583E+06-2.38294E+05-1.14598E+05-5.31855E+05-1.42609E-09-3.67436E-10
 -1       571 8.04672E+05 1.60146E+04 8.97720E+04-5.90821E+04 1.02591E-09-2.20825E-09
 -1       572 8.26686E+05 1.16112E+04 4.88933E+04-8.26763E+04-2.69210E-10-3.90719E-09
 -1       573 8.14380E+05 1.39846E+02 2.18273E+04-5.87525E+04-3.69255E-10-6.36646E-11
 -1       574 8.15966E+05 3.31798E+02 1.12368E+04-8.29694E+04-4.09273E-10 5.12046E-10
 -1       575 8.14954E+05-1.24965E+02 5.42091E+03-5.87574E+04-4.19277E-10-9.52241E-10
 -1       576 8.15116E+05-1.19040E+01 2.77113E+03-8.29603E+04-8.64475E-10 2.75440E-09
 -1       577 8.15015E+05-3.05614E+01 1.37033E+03-5.87628E+04 7.54824E-10 2.22053E-09
 -1       578 8.15017E+05-9.55941E+00 7.27616E+02-8.29647E+04 1.98338E-09 5.05679E-10
 -1       579 8.15075E+05-3.68135E+01 4.09469E+02-5.87533E+04 2.19188E-10-2.73531E-09
 -1       580 8.15109E+05-6.33653E+01 3.24756E+02-8.29992E+04-6.38465E-10-4.93401E-09
 -1       581 8.15187E+05-1.15705E+02 3.69941E+02-5.87282E+04-2.03181E-09-2.77078E-09
 -1       582 8.15356E+05-1.54484E+02 6.60375E+02-8.30382E+04-1.23873E-09 3.16732E-09
 -1       583 8.15334E+05-2.28145E+02 1.19581E+03-5.87136E+04-1.38243E-10 3.30374E-09
 -1       584 8.16261E+05 3.20278E+02 2.71030E+03-8.26689E+04-5.24597E-09-1.70985E-10
 -1       585 8.15024E+05 4.88237E+02 4.90870E+03-5.90988E+04 8.22183E-10 3.28691E-09
 -1       586 2.46486E+03 1.30159E+04 1.18365E+04-3.17656E+05-2.03545E-09 1.60071E-10
 -1       587 3.46609E+03 1.47441E+04 9.34569E+03-4.46216E+05 8.36735E-11-2.44472E-09
 -1       588 1.61225E+03 1.26434E+04 9.63105E+03-3.16824E+05-2.33922E-09-1.29603E-09
 -1       589 6.08693E+03 1.63748E+04 1.72411E+04-4.46409E+05-8.07631E-10 1.21418E-10
 -1       590 6.34210E+03 1.01193E+04 2.96247E+04-3.17449E+05-1.57161E-09-2.47383E-09
 -1       591-8.51587E+05-1.68105E+05-8.59297E+04-3.65169E+05 4.89308E-10 1.57161E-09
 -1       592-8.57060E+05-1.86469E+05-4.58807E+04-3.90071E+05 6.59384E-11 2.89538E-09
 -1       593-8.59614E+05-1.58653E+05-1.92090E+04-3.72406E+05-1.93722E-10 2.13458E-09
 -1       594-8.45573E+05-1.74682E+05-9.54073E+03-3.90676E+05 4.16549E-10 1.47190E-09
 -1       595-8.60283E+05-1.58491E+05-4.40035E+03-3.72720E+05-7.73980E-10 4.91127E-10
 -1       596-8.44826E+05-1.74184E+05-2.25314E+03-3.90617E+05-1.12209E-10-1.54341E-09
 -1       597-8.60362E+05-1.58549E+05-1.27055E+03-3.72728E+05 1.76442E-10-2.34968E-09
 -1       598-8.44736E+05-1.74168E+05-1.09831E+03-3.90556E+05-2.80124E-10-5.09317E-10
 -1       599-8.60296E+05-1.58588E+05-1.50871E+03-3.72711E+05-6.52108E-10 1.45610E-09
 -1       600-8.44782E+05-1.74193E+05-2.87063E+03-3.90476E+05 6.11180E-10 4.71118E-10
 -1       601-8.60065E+05-1.58598E+05-5.72507E+03-3.72667E+05-2.74304E-09 8.98581E-10
 -1       602-8.45691E+05-1.74838E+05-1.24396E+04-3.90408E+05-8.64020E-10-1.05501E-10
 -1       603-8.59091E+05-1.58890E+05-2.50811E+04-3.72237E+05 8.07631E-10-4.11455E-09
 -1       604-8.60676E+05-1.90140E+05-5.98546E+04-3.89430E+05-4.20914E-09 7.45786E-11
 -1       605-8.48505E+05-1.71292E+05-1.12115E+05-3.62813E+05 4.50200E-10 1.30603E-09
 -1       606 3.32511E+05-7.84402E+03-4.32112E+04 5.51097E+04-1.28239E-08 1.26192E-10
 -1       607 3.21841E+05-5.47471E+03-2.35005E+04 7.62573E+04-5.34055E-09-5.66797E-09
 -1       608 3.27533E+05-7.04824E+00-1.05304E+04 5.46523E+04 1.01281E-08-1.25328E-09
 -1       609 3.26559E+05 1.57088E+02-5.39276E+03 7.67013E+04-7.80437E-09 3.01952E-09
 -1       610 3.27012E+05 2.97957E+02-2.60282E+03 5.46448E+04-2.11421E-08 7.82165E-10
 -1       611 3.26684E+05 4.77418E+02-1.27992E+03 7.66920E+04-3.88072E-08-2.17506E-09
 -1       612 3.26827E+05 3.62678E+02-5.64235E+02 5.46573E+04-1.44810E-08-2.41016E-10
 -1       613 3.26585E+05 5.58484E+02-1.39547E+02 7.66709E+04-1.86283E-08 1.46792E-09
 -1       614 3.26731E+05 4.03047E+02 2.07968E+02 5.46638E+04-2.82125E-09 8.41737E-10
 -1       615 3.26551E+05 5.94223E+02 6.76262E+02 7.66602E+04 1.25966E-08-5.62977E-10
 -1       616 3.26681E+05 3.96677E+02 1.44416E+03 5.46670E+04-1.35798E-08-1.29876E-09
 -1       617 3.26771E+05 6.96572E+02 3.05581E+03 7.66483E+04 3.77622E-09-1.43791E-09
 -1       618 3.26531E+05 4.62738E+02 5.96202E+03 5.46749E+04-1.04137E-09 3.31056E-10
 -1       619 3.29747E+05 3.76201E+03 1.33736E+04 7.64189E+04 7.08951E-10-1.66256E-09
 -1       620 3.23919E+05 4.77139E+03 2.45488E+04 5.48727E+04 1.11140E-09 6.54836E-11
 -1       621 8.23160E+03 1.20558E+06 4.85560E+04-1.17423E+05 2.45927E-09-1.62436E-09
 -1       622 6.91054E+03 1.21707E+06 3.58011E+04-1.63714E+05-2.34741E-09 2.33558E-09
 -1       623 9.26292E+02 1.20939E+06 3.47853E+04-1.17115E+05 2.82853E-09 1.44610E-09
 -1       624 1.42411E+04 1.22357E+06 6.00881E+04-1.63872E+05-3.05590E-09 1.03671E-09
 -1       625 1.87954E+04 1.19859E+06 1.03088E+05-1.17215E+05 2.12822E-09-2.06956E-09
 -1       626 5.55210E+05 1.13889E+05-8.94384E+03 2.57918E+05-9.66065E-09-1.82990E-09
 -1       627 5.38904E+05 1.27829E+05-4.74709E+03 2.73179E+05 5.61158E-09 6.27540E-09
 -1       628 5.54509E+05 1.14671E+05-2.01584E+03 2.56730E+05 8.95125E-09 9.49512E-09
 -1       629 5.39590E+05 1.29406E+05-9.72777E+02 2.73296E+05-2.31848E-08-8.08359E-09
 -1       630 5.54306E+05 1.14782E+05-4.32075E+02 2.56621E+05-8.39282E-09-4.97994E-09
 -1       631 5.39536E+05 1.29493E+05-1.44420E+02 2.73166E+05-2.00598E-08-2.49634E-09
 -1       632 5.54187E+05 1.14850E+05 5.13587E+01 2.56578E+05-1.88038E-08-2.59377E-09
 -1       633 5.39487E+05 1.29509E+05 2.92701E+02 2.73077E+05-3.01543E-09 2.71763E-09
 -1       634 5.54114E+05 1.14875E+05 6.77550E+02 2.56555E+05 1.11372E-08-1.92586E-10
 -1       635 5.39526E+05 1.29527E+05 1.49872E+03 2.73061E+05 2.10472E-08-6.82121E-11
 -1       636 5.54043E+05 1.14835E+05 3.08225E+03 2.56546E+05 9.61126E-09 1.31240E-09
 -1       637 5.40092E+05 1.29876E+05 6.76488E+03 2.73151E+05 1.48964E-08 7.18501E-11
 -1       638 5.53646E+05 1.14887E+05 1.36357E+04 2.56348E+05 2.65654E-08-4.09182E-09
 -1       639 5.48391E+05 1.38187E+05 3.25861E+04 2.72836E+05 6.99470E-09-6.49015E-09
 -1       640 5.48082E+05 1.21525E+05 6.10212E+04 2.51268E+05-6.82121E-11 3.65981E-09
 -1       641 1.24794E+04-9.62207E+02-6.49975E+03 5.12923E+03-1.95591E-08-2.33922E-09
 -1       642 1.08232E+04-8.28575E+02-3.56912E+03 7.34766E+03-7.89419E-09-1.54751E-09
 -1       643 1.17464E+04 2.26349E+01-1.58683E+03 5.10152E+03-1.01912E-08 1.16040E-09
 -1       644 1.16045E+04 2.04498E+01-8.12932E+02 7.37056E+03-8.79936E-11 6.23291E-09
 -1       645 1.16959E+04 4.23242E+01-3.82544E+02 5.10004E+03 5.54188E-09 2.31165E-09
 -1       646 1.16618E+04 5.14025E+01-1.76578E+02 7.37194E+03-6.03802E-09 1.59793E-09
 -1       647 1.16889E+04 3.62505E+01-5.05887E+01 5.09996E+03 1.50077E-08 1.74447E-09
 -1       648 1.16739E+04 5.00221E+01 4.71357E+01 7.37217E+03 4.16983E-08 4.53861E-09
 -1       649 1.16856E+04 3.06670E+01 1.66336E+02 5.09986E+03 1.79889E-08-9.00457E-10
 -1       650 1.16928E+04 4.83742E+01 3.78068E+02 7.37205E+03 2.53387E-08-1.13437E-09
 -1       651 1.16737E+04 1.93979E+01 7.60825E+02 5.10014E+03 3.10934E-09-8.46057E-10
 -1       652 1.18058E+04 1.07454E+02 1.58975E+03 7.36966E+03-8.32279E-09 8.08541E-10
 -1       653 1.15783E+04 5.61062E+01 3.09008E+03 5.10194E+03 3.58841E-09-9.36780E-11
 -1       654 1.33309E+04 1.75570E+03 6.94387E+03 7.32128E+03-1.10473E-08-3.81442E-09
 -1       655 1.01564E+04 1.96969E+03 1.26424E+04 5.13704E+03 8.74206E-09 1.28603E-09
 -1       656-6.10376E+03-2.81387E+05-3.71229E+04 9.25662E+04-1.32331E-08-4.56475E-09
 -1       657-5.77843E+03-2.90528E+05-2.30618E+04 1.33068E+05-1.35697E-08 7.99264E-09
 -1       658-6.65753E+02-2.85329E+05-1.56864E+04 9.23309E+04-1.11963E-08 1.19735E-09
 -1       659-4.90008E+03-2.89834E+05-2.03019E+04 1.33167E+05-1.13669E-08 3.27509E-09
 -1       660-5.03637E+03-2.82267E+05-3.09791E+04 9.24775E+04-1.14087E-08-4.28827E-09
 -1       661 2.05327E+05 3.42203E+04 1.49890E+04 8.14790E+04 1.50312E-08-3.02771E-09
 -1       662 2.07596E+05 3.67072E+04 8.07965E+03 8.43319E+04 1.41093E-08-4.98403E-10
 -1       663 2.06767E+05 3.29655E+04 3.37220E+03 8.26535E+04-8.28214E-09-2.24577E-09
 -1       664 2.05555E+05 3.45520E+04 1.68269E+03 8.44013E+04-1.21159E-08-2.08095E-09
 -1       665 2.06878E+05 3.29568E+04 7.79681E+02 8.27052E+04 8.20529E-09-3.78805E-09
 -1       666 2.05417E+05 3.44563E+04 4.09540E+02 8.43849E+04-7.87122E-09-2.06865E-09
 -1       667 2.06893E+05 3.29654E+04 2.49106E+02 8.27068E+04 1.28412E-08 1.43115E-09
 -1       668 2.05407E+05 3.44538E+04 2.48230E+02 8.43843E+04 2.21230E-08-4.10182E-09
 -1       669 2.06891E+05 3.29608E+04 3.75843E+02 8.27065E+04 1.91289E-08-3.07807E-09
 -1       670 2.05436E+05 3.44618E+04 7.45243E+02 8.43972E+04 2.15641E-09-6.76869E-09
 -1       671 2.06865E+05 3.29386E+04 1.49523E+03 8.27028E+04 1.22850E-09-2.27419E-09
 -1       672 2.05707E+05 3.46498E+04 3.26937E+03 8.44356E+04 7.42921E-09-1.74396E-09
 -1       673 2.06651E+05 3.29526E+04 6.57024E+03 8.26022E+04-2.99519E-09-3.42379E-09
 -1       674 2.09708E+05 3.88368E+04 1.57550E+04 8.42844E+04 1.83857E-08-1.84787E-09
 -1       675 2.03824E+05 3.54166E+04 2.92313E+04 8.03336E+04 1.12642E-08 6.49015E-09
 -1       676-2.04239E+03-2.47621E+05-1.37500E+04 1.03173E+04 5.46152E-09-4.55839E-09
 -1       677-1.92670E+03-2.51033E+05-9.12236E+03 1.44934E+04-4.78917E-09 5.52245E-09
 -1       678-1.22089E+02-2.48953E+05-7.22639E+03 1.02809E+04 1.46807E-08 2.23167E-09
 -1       679-2.45199E+03-2.51524E+05-1.08556E+04 1.45416E+04-4.56930E-09 2.35855E-09
 -1       680-2.66037E+03-2.47140E+05-1.76008E+04 1.02662E+04 5.56429E-09-1.48913E-09
 -1       681 4.38548E+05 3.12714E+03 2.16653E+04-4.42264E+04-6.87578E-10-4.14957E-12
 -1       682 4.44025E+05 2.78148E+03 1.19223E+04-6.33643E+04 1.73713E-10 2.77851E-10
 -1       683 4.40862E+05-6.56976E+01 5.30286E+03-4.39273E+04 1.69894E-09 5.21595E-10
 -1       684 4.41235E+05 3.65947E+01 2.75923E+03-6.36546E+04 2.82853E-10 2.79670E-10
 -1       685 4.40931E+05-6.05080E+01 1.36228E+03-4.39286E+04-6.04814E-10-2.28738E-10
 -1       686 4.40937E+05-7.72394E+00 7.76142E+02-6.36457E+04-5.55701E-10-2.69210E-10
 -1       687 4.40896E+05-7.02022E+00 5.32989E+02-4.39366E+04-3.33330E-10 4.01542E-10
 -1       688 4.40876E+05 1.61275E+01 5.86862E+02-6.36355E+04 5.03633E-11-1.95541E-11
 -1       689 4.40877E+05-6.80541E+00 9.04979E+02-4.39390E+04-1.20394E-10 3.69255E-10
 -1       690 4.40951E+05 8.19940E+00 1.72421E+03-6.36382E+04 6.23004E-11 8.14453E-10
 -1       691 4.40853E+05-7.03686E+01 3.31891E+03-4.39337E+04 1.10958E-10 7.59428E-11
 -1       692 4.41500E+05 2.27145E+02 6.86240E+03-6.36401E+04 9.09495E-12-3.64707E-10
 -1       693 4.40508E+05 4.03862E+01 1.32932E+04-4.39364E+04-3.09228E-11 1.97815E-10
 -1       694 4.48183E+05 7.25105E+03 2.98640E+04-6.33792E+04-5.10227E-10 3.79714E-10
 -1       695 4.34492E+05 8.20221E+03 5.43472E+04-4.42091E+04-7.25777E-10-5.78439E-10
 -1       696 5.67330E+03 5.75991E+05 3.49599E+04-1.01861E+05 2.20098E-10-9.14042E-10
 -1       697 5.16871E+03 5.84587E+05 1.83134E+04-1.46590E+05 3.65389E-10 6.91216E-11
 -1       698 3.47661E+02 5.79968E+05 6.32405E+03-1.01652E+05-1.30512E-10 1.69064E-09
 -1       699-6.60806E+02 5.79234E+05-8.31425E+02-1.46572E+05-2.73758E-10 1.48293E-09
 -1       700-1.23290E+03 5.81408E+05-7.59317E+03-1.01892E+05-9.73159E-11 1.55887E-09
 -1       701-3.92230E+05-7.93064E+04-6.41253E+04-1.68033E+05-5.18412E-11-2.11003E-10
 -1       702-4.00650E+05-9.12453E+04-3.45613E+04-1.81821E+05-6.59384E-11-1.81899E-10
 -1       703-3.98579E+05-7.37762E+04-1.44229E+04-1.72914E+05 3.18323E-11-2.71939E-10
 -1       704-3.91836E+05-8.21363E+04-7.17634E+03-1.82317E+05-1.46883E-10-7.69205E-10
 -1       705-3.99104E+05-7.36999E+04-3.29963E+03-1.73139E+05 7.18501E-11-1.91903E-10
 -1       706-3.91264E+05-8.17324E+04-1.66600E+03-1.82299E+05-1.41426E-10 3.73461E-11
 -1       707-3.99195E+05-7.37184E+04-8.93849E+02-1.73153E+05-1.64619E-10 4.13905E-10
 -1       708-3.91222E+05-8.17184E+04-6.89049E+02-1.82312E+05 3.29237E-10 7.19524E-10
 -1       709-3.99213E+05-7.37076E+04-8.46345E+02-1.73157E+05-4.66116E-11 5.59339E-11
 -1       710-3.91281E+05-8.17321E+04-1.54456E+03-1.82339E+05-2.80920E-10-4.61341E-10
 -1       711-3.99156E+05-7.36670E+04-3.03578E+03-1.73150E+05 3.22501E-10-4.04270E-10
 -1       712-3.91826E+05-8.21072E+04-6.60474E+03-1.82397E+05 2.60115E-10-7.47150E-10
 -1       713-3.98705E+05-7.37150E+04-1.32631E+04-1.72949E+05-9.11768E-11-5.02041E-10
 -1       714-3.99903E+05-9.05426E+04-3.17995E+04-1.82036E+05 9.00400E-11 4.87489E-10
 -1       715-3.92927E+05-7.87396E+04-5.89904E+04-1.68415E+05 8.59472E-11 1.74623E-10
 -1       716 3.47862E+05 6.81225E+03 4.57010E+04-5.35246E+04 7.40329E-10 2.88310E-10
 -1       717 3.59390E+05 6.05802E+03 2.51281E+04-7.66487E+04 1.54614E-11 1.18234E-10
 -1       718 3.52843E+05 4.15437E+00 1.11852E+04-5.31761E+04-2.16460E-10 7.82165E-10
 -1       719 3.53660E+05 2.00287E+02 5.79777E+03-7.69878E+04-2.53749E-10 7.25322E-10
 -1       720 3.53075E+05-4.74685E+01 2.83901E+03-5.31728E+04 4.23825E-10 1.69348E-09
 -1       721 3.53137E+05 5.03818E+01 1.55362E+03-7.69856E+04 7.62157E-10-7.27596E-10
 -1       722 3.53061E+05 2.53548E+01 9.62853E+02-5.31789E+04 6.07315E-10 6.15728E-10
 -1       723 3.53061E+05 6.80444E+01 9.05225E+02-7.69802E+04 4.49688E-10 1.19144E-09
 -1       724 3.53061E+05 1.46756E+01 1.25592E+03-5.31783E+04 2.34195E-10 1.05047E-10
 -1       725 3.53191E+05 3.95098E+01 2.30384E+03-7.69880E+04 8.33097E-10 1.25192E-09
 -1       726 3.53058E+05-8.78763E+01 4.38471E+03-5.31708E+04 1.25510E-10 1.80080E-10
 -1       727 3.53957E+05 3.04384E+02 9.04810E+03-7.69917E+04 7.23048E-10-1.58934E-09
 -1       728 3.52637E+05 3.38464E+01 1.75109E+04-5.31735E+04 4.54747E-11-1.52841E-09
 -1       729 3.62819E+05 9.53350E+03 3.93498E+04-7.66351E+04-4.22006E-10 9.61791E-11
 -1       730 3.44750E+05 1.07623E+04 7.16023E+04-5.35499E+04 1.34605E-10-4.47471E-10
 -1       731 5.03080E+03 1.97886E+05 3.10398E+04-1.55329E+05-4.47471E-10-1.41790E-09
 -1       732 4.77154E+03 2.05445E+05 1.73848E+04-2.24120E+05 7.69433E-10-3.74484E-10
 -1       733 4.33360E+02 2.01239E+05 8.33967E+03-1.55048E+05-7.08496E-10 1.46065E-09
 -1       734 1.09990E+03 2.02393E+05 5.68056E+03-2.23970E+05 9.33142E-10 1.33332E-09
 -1       735 6.05860E+02 2.01474E+05 4.99202E+03-1.55486E+05-3.72893E-10 1.28784E-09
 -1       736-8.05039E+05-1.39133E+05-7.71258E+04-3.23001E+05 1.89175E-10 8.73115E-11
 -1       737-8.16463E+05-1.52192E+05-4.15697E+04-3.38072E+05 1.07775E-10-6.29370E-10
 -1       738-8.12634E+05-1.32518E+05-1.73379E+04-3.28885E+05 1.54614E-11 4.41105E-10
 -1       739-8.05865E+05-1.41216E+05-8.62504E+03-3.38633E+05-1.01409E-10-7.03949E-10
 -1       740-8.13259E+05-1.32428E+05-3.95449E+03-3.29142E+05-1.40062E-10 5.80030E-10
 -1       741-8.05151E+05-1.40741E+05-1.98199E+03-3.38610E+05-2.59206E-10-1.54273E-10
 -1       742-8.13366E+05-1.32456E+05-1.03173E+03-3.29150E+05 3.63798E-10 2.95870E-10
 -1       743-8.05081E+05-1.40732E+05-7.38714E+02-3.38621E+05-3.19801E-10-3.70619E-11
 -1       744-8.13382E+05-1.32449E+05-8.33674E+02-3.29150E+05-3.33216E-10-2.95358E-10
 -1       745-8.05128E+05-1.40747E+05-1.46200E+03-3.38639E+05 3.78776E-10-4.49859E-10
 -1       746-8.13323E+05-1.32419E+05-2.84166E+03-3.29143E+05 1.46656E-10-2.72848E-11
 -1       747-8.05639E+05-1.41091E+05-6.16570E+03-3.38674E+05 3.12866E-10-3.32875E-10
 -1       748-8.12886E+05-1.32476E+05-1.23750E+04-3.28960E+05 2.61480E-10 4.90218E-10
 -1       749-8.13208E+05-1.48925E+05-2.96699E+04-3.38281E+05-1.59162E-10 6.22094E-10
 -1       750-8.07463E+05-1.37201E+05-5.50440E+04-3.24768E+05 4.69640E-10 4.00178E-11
 -1       751 6.80155E+05 1.58136E+04 1.04893E+05-7.01920E+04 1.01863E-10 8.00355E-11
 -1       752 7.06574E+05 1.40081E+04 5.76429E+04-1.00575E+05-3.05590E-10-1.80080E-09
 -1       753 6.91705E+05 9.29614E+01 2.56665E+04-6.97635E+04-2.11003E-10-8.34916E-10
 -1       754 6.93605E+05 4.91907E+02 1.32726E+04-1.00961E+05-9.89530E-10 3.69255E-10
 -1       755 6.92334E+05-9.43179E+01 6.45717E+03-6.97711E+04 2.70120E-10 2.32831E-10
 -1       756 6.92513E+05 8.85792E+01 3.43321E+03-1.00943E+05 2.86491E-10-2.41926E-10
 -1       757 6.92364E+05 3.42590E+01 1.95101E+03-6.97837E+04-5.76165E-10 9.50422E-11
 -1       758 6.92381E+05 1.01143E+02 1.54776E+03-1.00937E+05-3.63798E-11 1.29648E-09
 -1       759 6.92401E+05 1.13108E+01 1.84176E+03-6.97772E+04 4.18368E-10-9.09495E-11
 -1       760 6.92600E+05 3.45135E+01 3.16172E+03-1.00966E+05-1.16233E-09-1.06047E-09
 -1       761 6.92450E+05-1.60339E+02 5.89127E+03-6.97546E+04 2.20098E-10 6.31189E-10
 -1       762 6.93713E+05 3.38684E+02 1.21045E+04-1.01005E+05 8.21274E-10 9.54287E-10
 -1       763 6.91962E+05-5.22348E+01 2.33833E+04-6.97358E+04-3.09228E-10-7.82165E-10
 -1       764 7.05676E+05 1.25978E+04 5.25537E+04-1.00565E+05 1.22964E-09 1.21918E-09
 -1       765 6.81517E+05 1.42161E+04 9.56014E+04-7.02411E+04-1.49885E-09 9.89530E-10
 -1       766 1.10025E+04 3.19853E+05 7.22290E+04-1.94383E+05 1.53159E-09-9.40418E-10
 -1       767 1.05246E+04 3.37633E+05 4.58570E+04-2.80417E+05 3.77668E-09 3.85626E-10
 -1       768 7.99192E+02 3.26983E+05 3.27768E+04-1.94040E+05 1.69894E-09 1.57797E-09
 -1       769 1.00029E+04 3.37718E+05 4.47630E+04-2.80216E+05 2.83762E-09-1.04410E-09
 -1       770 1.02458E+04 3.20655E+05 6.97395E+04-1.94599E+05 8.56744E-10 3.74712E-10
 -1       771-1.77339E+06-3.04026E+05-1.58170E+05-7.03796E+05-4.58385E-10-1.30967E-10
 -1       772-1.79734E+06-3.24018E+05-8.44699E+04-7.33690E+05-5.45697E-12 1.94996E-09
 -1       773-1.78798E+06-2.86816E+05-3.53429E+04-7.17176E+05 3.93811E-10 3.21961E-10
 -1       774-1.77620E+06-3.02229E+05-1.75398E+04-7.34661E+05 3.91083E-10-4.40195E-10
 -1       775-1.78921E+06-2.86511E+05-8.05815E+03-7.17720E+05-6.98492E-10-1.82445E-09
 -1       776-1.77479E+06-3.01342E+05-4.06153E+03-7.34596E+05-3.18323E-11-1.02318E-10
 -1       777-1.78940E+06-2.86584E+05-2.16008E+03-7.17733E+05 9.30640E-10 1.12118E-09
 -1       778-1.77465E+06-3.01318E+05-1.64149E+03-7.34569E+05 5.02524E-10-3.91083E-11
 -1       779-1.78939E+06-2.86604E+05-1.98464E+03-7.17733E+05 5.38421E-10 1.14505E-09
 -1       780-1.77477E+06-3.01320E+05-3.59530E+03-7.34523E+05 1.05865E-09 1.12323E-09
 -1       781-1.78917E+06-2.86583E+05-7.06506E+03-7.17725E+05 3.88354E-10 7.89441E-10
 -1       782-1.77600E+06-3.02070E+05-1.53308E+04-7.34501E+05-4.83851E-10 1.32968E-09
 -1       783-1.78804E+06-2.86892E+05-3.08790E+04-7.17254E+05 1.75532E-10-4.54747E-10
 -1       784-1.79452E+06-3.21013E+05-7.37751E+04-7.33497E+05 9.44056E-10 9.24047E-10
 -1       785-1.77518E+06-3.02016E+05-1.38150E+05-7.05630E+05 4.65207E-10 2.40107E-10
 -1       786 6.09347E+05 1.31964E+04 8.84852E+04-7.43628E+04 1.28603E-09-1.42609E-09
 -1       787 6.31668E+05 1.16753E+04 4.86334E+04-1.06721E+05-1.16415E-09-4.14730E-10
 -1       788 6.19027E+05-1.65751E+01 2.16433E+04-7.39119E+04-4.40195E-10 4.91127E-10
 -1       789 6.20642E+05 3.09377E+02 1.11820E+04-1.07124E+05-4.35648E-10-1.12232E-09
 -1       790 6.19520E+05-1.45752E+02 5.41339E+03-7.39175E+04-5.09317E-11 8.17636E-10
 -1       791 6.19684E+05-1.23243E+01 2.82625E+03-1.07111E+05-1.05501E-10 2.98223E-09
 -1       792 6.19540E+05-2.94117E+01 1.50440E+03-7.39261E+04-8.06608E-11 2.15459E-09
 -1       793 6.19575E+05-6.08658E+00 1.01496E+03-1.07111E+05-2.91038E-11 1.45383E-09
 -1       794 6.19603E+05-5.64861E+01 9.76023E+02-7.39181E+04 1.30058E-10-1.42518E-09
 -1       795 6.19771E+05-9.27589E+01 1.48780E+03-1.07145E+05 5.60249E-10 3.44244E-10
 -1       796 6.19739E+05-2.12371E+02 2.64447E+03-7.38921E+04-1.37152E-09-1.11504E-09
 -1       797 6.20482E+05-7.50784E+01 5.39771E+03-1.07181E+05-1.78898E-09 5.68434E-11
 -1       798 6.19709E+05-3.00604E+02 1.03691E+04-7.38802E+04-7.78527E-10-1.37237E-09
 -1       799 6.26140E+05 5.21406E+03 2.33629E+04-1.06694E+05-6.85577E-09-4.34738E-10
 -1       800 6.15306E+05 5.86135E+03 4.24268E+04-7.44060E+04 1.72804E-09 8.91305E-10
 -1       801 4.61644E+03-6.44611E+04 2.36921E+04-4.20058E+05 5.88807E-09-2.02272E-09
 -1       802 6.82666E+03-6.05080E+04 1.81734E+04-6.06003E+05 1.09394E-08-5.71163E-10
 -1       803 2.70914E+03-6.40993E+04 1.78436E+04-4.19087E+05 8.96398E-09 2.62412E-09
 -1       804 1.06439E+04-5.65491E+04 3.12025E+04-6.05919E+05 9.20045E-09-3.57977E-09
 -1       805 9.02307E+03-6.77435E+04 5.26106E+04-4.20138E+05 7.21047E-09 9.16771E-10
 -1       806-1.11935E+06-2.05746E+05-9.69506E+04-4.63108E+05 5.77984E-10-2.03727E-10
 -1       807-1.12830E+06-2.23675E+05-5.17646E+04-4.87964E+05-4.47471E-10 8.19455E-10
 -1       808-1.12842E+06-1.95081E+05-2.16726E+04-4.71263E+05 1.10049E-09 4.67935E-09
 -1       809-1.11532E+06-2.10397E+05-1.07589E+04-4.88691E+05-3.27873E-10 8.67658E-10
 -1       810-1.12920E+06-1.94876E+05-4.95664E+03-4.71614E+05-3.76531E-10 7.69660E-10
 -1       811-1.11448E+06-2.09846E+05-2.52006E+03-4.88671E+05-6.63931E-11-7.14806E-10
 -1       812-1.12933E+06-1.94912E+05-1.38699E+03-4.71628E+05 7.62157E-10-1.77806E-09
 -1       813-1.11440E+06-2.09829E+05-1.14065E+03-4.88655E+05 3.06443E-10-1.29603E-09
 -1       814-1.12930E+06-1.94927E+05-1.49528E+03-4.71624E+05-2.34559E-09-2.43290E-09
 -1       815-1.11448E+06-2.09843E+05-2.80296E+03-4.88617E+05 7.98536E-10-1.41154E-09
 -1       816-1.12912E+06-1.94913E+05-5.56051E+03-4.71601E+05-1.92813E-09-4.31100E-10
 -1       817-1.11541E+06-2.10455E+05-1.20872E+04-4.88588E+05 5.70253E-10-1.92813E-10
 -1       818-1.12821E+06-1.95173E+05-2.43593E+04-4.71205E+05 1.24055E-09 4.29281E-10
 -1       819-1.12999E+06-2.25349E+05-5.81683E+04-4.87713E+05-8.07540E-09-3.61615E-09
 -1       820-1.11798E+06-2.07173E+05-1.08946E+05-4.62045E+05 6.12090E-10-1.11322E-09
 -1       821-4.12261E+05-9.05179E+03-5.94152E+04 2.98032E+04-1.51285E-08-1.91903E-09
 -1       822-4.27247E+05-7.86713E+03-3.26329E+04 4.29320E+04-5.40058E-09-3.12866E-10
 -1       823-4.19029E+05-6.92967E+00-1.45488E+04 2.94850E+04 1.10285E-08 1.20053E-10
 -1       824-4.20219E+05-5.34650E+01-7.50421E+03 4.32472E+04-4.56112E-09 2.16278E-09
 -1       825-4.19552E+05 2.23118E+02-3.65036E+03 2.94525E+04-1.99771E-08-3.77258E-09
 -1       826-4.19788E+05 2.77998E+02-1.91487E+03 4.32890E+04-3.59905E-08 2.67391E-09
 -1       827-4.19657E+05 2.14709E+02-1.05771E+03 2.94403E+04-1.60944E-08-2.49315E-09
 -1       828-4.19780E+05 3.08312E+02-7.78935E+02 4.33076E+04-2.28792E-08 2.04727E-09
 -1       829-4.19687E+05 2.29525E+02-8.62236E+02 2.94331E+04 1.87629E-09-1.94359E-09
 -1       830-4.19840E+05 3.18370E+02-1.42107E+03 4.33150E+04 1.42506E-08-2.07297E-09
 -1       831-4.19652E+05 2.62006E+02-2.62754E+03 2.94325E+04-9.62075E-09-2.27976E-09
 -1       832-4.20197E+05 1.09424E+02-5.37069E+03 4.33038E+04 3.09160E-09-5.41149E-11
 -1       833-4.19310E+05 1.20855E+02-1.03887E+04 2.94457E+04 3.17868E-10-1.38607E-09
 -1       834-4.25262E+05-5.45157E+03-2.33108E+04 4.31427E+04-1.00272E-09 2.09070E-09
 -1       835-4.14500E+05-6.32468E+03-4.24325E+04 2.96312E+04 6.33827E-09-1.34605E-09
 -1       836 7.53907E+03 6.36974E+05 4.84446E+04-1.49318E+05 7.61611E-09-4.33829E-10
 -1       837 7.60722E+03 6.48666E+05 3.38824E+04-2.14795E+05 1.02245E-08-2.18051E-09
 -1       838 1.02818E+03 6.41309E+05 2.96827E+04-1.49061E+05 7.99992E-09 2.46246E-09
 -1       839 1.18598E+04 6.52859E+05 4.81669E+04-2.14678E+05 9.86620E-09-2.88583E-09
 -1       840 1.25117E+04 6.33188E+05 8.01760E+04-1.49426E+05 6.80666E-09 1.51158E-09
 -1       841 8.73517E+04 3.10327E+04-6.24495E+03 5.87660E+04 4.86671E-09-2.05546E-09
 -1       842 7.75359E+04 3.89105E+04-3.35588E+03 6.76337E+04 5.98357E-09 7.06677E-10
 -1       843 8.68676E+04 3.14128E+04-1.40840E+03 5.80460E+04 4.27644E-09-8.28777E-10
 -1       844 7.81290E+04 4.00130E+04-6.87713E+02 6.77585E+04 2.11239E-08-3.29442E-09
 -1       845 8.67852E+04 3.14405E+04-3.03672E+02 5.79882E+04 1.38652E-08-2.47383E-10
 -1       846 7.81269E+04 4.00778E+04-1.13018E+02 6.77335E+04 1.34560E-09-6.24868E-09
 -1       847 8.67460E+04 3.14570E+04 1.42549E+01 5.79683E+04 1.24146E-09 6.13909E-12
 -1       848 7.81090E+04 4.00922E+04 1.54734E+02 6.77125E+04 8.34393E-09 5.22095E-09
 -1       849 8.67191E+04 3.14604E+04 3.72885E+02 5.79570E+04 2.64799E-09-2.08979E-09
 -1       850 7.81337E+04 4.01061E+04 8.31509E+02 6.77140E+04-3.39014E-09-2.76054E-09
 -1       851 8.66803E+04 3.14388E+04 1.71343E+03 5.79507E+04 3.73609E-09-2.01749E-09
 -1       852 7.84551E+04 4.03179E+04 3.76900E+03 6.77539E+04 1.57020E-08-3.73211E-09
 -1       853 8.64364E+04 3.14533E+04 7.58199E+03 5.78434E+04-4.16094E-10-1.66983E-09
 -1       854 8.31474E+04 4.50926E+04 1.81890E+04 6.75345E+04-2.07028E-08-3.17368E-09
 -1       855 8.31452E+04 3.43337E+04 3.37455E+04 5.52926E+04-1.55205E-09 6.74845E-10
 -1       856-1.56465E+05-2.48547E+03-1.67941E+04 1.54754E+04-1.84209E-08-2.46246E-09
 -1       857-1.60731E+05-2.12782E+03-9.22397E+03 2.23674E+04-8.90759E-09 4.06089E-10
 -1       858-1.58370E+05 6.69766E+01-4.10948E+03 1.53567E+04-1.54796E-08-3.63912E-09
 -1       859-1.58732E+05 7.46604E+01-2.11899E+03 2.24797E+04-4.28804E-09 1.19098E-09
 -1       860-1.58510E+05 1.25594E+02-1.02647E+03 1.53480E+04 6.32349E-09-1.67074E-09
 -1       861-1.58597E+05 1.61437E+02-5.33504E+02 2.24888E+04-1.29211E-08 1.18746E-09
 -1       862-1.58531E+05 1.16751E+02-2.83457E+02 1.53470E+04 1.40891E-08-3.94721E-09
 -1       863-1.58582E+05 1.63135E+02-1.90284E+02 2.24898E+04 3.97470E-08 1.19473E-09
 -1       864-1.58533E+05 1.13970E+02-1.85089E+02 1.53470E+04 2.25374E-08-1.89766E-09
 -1       865-1.58582E+05 1.59519E+02-2.81907E+02 2.24880E+04 1.89638E-08 1.31990E-09
 -1       866-1.58519E+05 1.14450E+02-5.07874E+02 1.53488E+04 3.08455E-09-1.29899E-09
 -1       867-1.58638E+05 1.13070E+02-1.02893E+03 2.24784E+04 4.93606E-09 6.66205E-10
 -1       868-1.58445E+05 8.09187E+01-1.98770E+03 1.53570E+04 9.58471E-09-2.89529E-09
 -1       869-1.59590E+05-9.56537E+02-4.45378E+03 2.23589E+04-1.82154E-08 2.26129E-09
 -1       870-1.57517E+05-1.15742E+03-8.10930E+03 1.54756E+04 2.45782E-08-1.11686E-09
 -1       871-2.82618E+03-9.16861E+04-9.86876E+03 1.47897E+05-2.10366E-09 3.39787E-09
 -1       872-2.40433E+03-9.39065E+04-3.92765E+03 2.07792E+05 5.33873E-09-1.83536E-09
 -1       873-7.53619E+02-9.31663E+04 1.08971E+03 1.47570E+05-3.35513E-09 3.33148E-09
 -1       874 8.30391E+02-9.08983E+04 6.93726E+03 2.07787E+05 2.98041E-09-4.41469E-09
 -1       875 1.79746E+03-9.46817E+04 1.45013E+04 1.47928E+05-8.55289E-09 1.51158E-09
 -1       876 2.76090E+05 5.00523E+04 2.90812E+04 1.13368E+05 6.73776E-09-1.14051E-09
 -1       877 2.80027E+05 5.53575E+04 1.56745E+04 1.19448E+05 8.41681E-09-4.37012E-09
 -1       878 2.78912E+05 4.75883E+04 6.53970E+03 1.15607E+05 3.75280E-09-6.23095E-09
 -1       879 2.76029E+05 5.12098E+04 3.25878E+03 1.19612E+05-1.48983E-08-8.51651E-09
 -1       880 2.79122E+05 4.75745E+04 1.50040E+03 1.15705E+05 1.19962E-09 3.52168E-09
 -1       881 2.75758E+05 5.10243E+04 7.68483E+02 1.19573E+05-5.45219E-09-2.02500E-09
 -1       882 2.79147E+05 4.75965E+04 4.29728E+02 1.15708E+05 2.40032E-08 1.23555E-09
 -1       883 2.75733E+05 5.10168E+04 3.65750E+02 1.19564E+05 3.97129E-08-1.00226E-09
 -1       884 2.79145E+05 4.75949E+04 4.91887E+02 1.15708E+05 1.29114E-08 4.15685E-09
 -1       885 2.75768E+05 5.10258E+04 9.33129E+02 1.19577E+05-7.83211E-09-4.83669E-09
 -1       886 2.79114E+05 4.75677E+04 1.85139E+03 1.15704E+05-7.33075E-09-5.62659E-09
 -1       887 2.76104E+05 5.12565E+04 4.03687E+03 1.19625E+05 1.50976E-09-6.76062E-09
 -1       888 2.78852E+05 4.75838E+04 8.10745E+03 1.15581E+05-9.09949E-10-7.09406E-11
 -1       889 2.81052E+05 5.64128E+04 1.94379E+04 1.19433E+05 2.22050E-08-4.64297E-10
 -1       890 2.75360E+05 5.06291E+04 3.60629E+04 1.12793E+05 2.09566E-08 6.03723E-09
 -1       891-1.39481E+03-1.40804E+05-6.85065E+03 6.60683E+04-1.09840E-08-2.98587E-09
 -1       892-1.45770E+03-1.42371E+05-4.47141E+03 9.51335E+04-4.58567E-09-1.57343E-09
 -1       893-4.03198E+02-1.41515E+05-3.43466E+03 6.59237E+04 1.36042E-08-9.59233E-10
 -1       894-1.62925E+03-1.42518E+05-5.02276E+03 9.51199E+04 1.60207E-09 4.48676E-09
 -1       895-1.60055E+03-1.40639E+05-8.07707E+03 6.60805E+04 1.57120E-08 3.00133E-09
 -1       896 7.73923E+05 1.36744E+03 9.84747E+03-3.29982E+04 1.40062E-10 2.44199E-10
 -1       897 7.76384E+05 1.21788E+03 5.42643E+03-4.73342E+04 3.38332E-10-2.41016E-11
 -1       898 7.74952E+05-6.73106E+01 2.41457E+03-3.27685E+04 1.65528E-10 9.23137E-11
 -1       899 7.75078E+05-1.27968E+01 1.27081E+03-4.75462E+04 5.45697E-11 5.91172E-11
 -1       900 7.74960E+05-4.88100E+01 6.49194E+02-3.27832E+04-2.70120E-10-1.13687E-12
 -1       901 7.74914E+05-1.73069E+01 4.19787E+02-4.75153E+04-4.67480E-10-1.64164E-10
 -1       902 7.74924E+05-1.34594E+01 3.73451E+02-3.27996E+04-9.09495E-12-1.53932E-10
 -1       903 7.74873E+05 4.10981E+00 5.37237E+02-4.74905E+04 2.92857E-10-8.66294E-11
 -1       904 7.74894E+05-1.23916E+01 9.43742E+02-3.28080E+04 2.82398E-10-4.38831E-11
 -1       905 7.74933E+05 8.69042E+00 1.87293E+03-4.74837E+04 7.18501E-11-2.86263E-10
 -1       906 7.74838E+05-6.16495E+01 3.64822E+03-3.28064E+04-3.63798E-11 1.19371E-10
 -1       907 7.75478E+05 2.82368E+02 7.55869E+03-4.74870E+04-3.40833E-10-8.00924E-11
 -1       908 7.74403E+05 9.92793E+01 1.46587E+04-3.28043E+04-3.13776E-10-8.77662E-11
 -1       909 7.82743E+05 8.06910E+03 3.29152E+04-4.73322E+04-1.44155E-10-8.91305E-11
 -1       910 7.67696E+05 9.15208E+03 5.99178E+04-3.29692E+04-1.60071E-10 1.81899E-11
 -1       911 1.63537E+05-5.95216E+01-9.44539E+01-2.44092E+04 3.38332E-10 4.72028E-10
 -1       912 1.63506E+05-3.96263E+01-4.27108E+01-3.49453E+04 4.40195E-10 2.91948E-10
 -1       913 1.63490E+05-1.94727E+01-1.39688E+01-2.42486E+04 3.27418E-10-2.41016E-11
 -1       914 1.63467E+05-4.32654E+00 1.29153E+01-3.51110E+04 3.25144E-10-7.27596E-12
 -1       915 1.63462E+05-5.04428E-01 4.08517E+01-2.42435E+04 4.00178E-11-7.11680E-11
 -1       916 1.63442E+05 1.11601E+01 9.44861E+01-3.51149E+04 7.91260E-11 3.64935E-10
 -1       917 1.63445E+05 6.01976E+00 1.89177E+02-2.42448E+04 1.20963E-10-2.43062E-10
 -1       918 1.63445E+05 1.37004E+01 3.88070E+02-3.51135E+04-3.13584E-10 2.27374E-13
 -1       919 1.63434E+05-6.77319E+00 7.63577E+02-2.42448E+04-1.25056E-12 7.63976E-11
 -1       920 1.63516E+05 7.42430E+00 1.56248E+03-3.51146E+04 1.61435E-10 3.68345E-10
 -1       921 1.63395E+05-5.52304E+01 3.06746E+03-2.42436E+04 1.25965E-10 1.40290E-10
 -1       922 1.63984E+05 2.34375E+02 6.37114E+03-3.51105E+04-2.00089E-11 3.07523E-11
 -1       923 1.63031E+05 7.90270E+01 1.23632E+04-2.42486E+04 1.31877E-10 1.60526E-10
 -1       924 1.70116E+05 6.80979E+03 2.77739E+04-3.49451E+04 1.07320E-10 4.40195E-10
 -1       925 1.57374E+05 7.71560E+03 5.05626E+04-2.44155E+04-8.54925E-11 5.82077E-11
 -1       926-9.28047E+05-8.88136E+03-5.73600E+04-5.09060E+04 5.27507E-10 6.18456E-10
 -1       927-9.42434E+05-7.79132E+03-3.14984E+04-7.30743E+04 4.40195E-10 4.36103E-10
 -1       928-9.34618E+05-1.22390E+02-1.40326E+04-5.06000E+04 4.82032E-11-1.09367E-10
 -1       929-9.35683E+05-2.26250E+02-7.23312E+03-7.34294E+04-1.11686E-09-1.01795E-09
 -1       930-9.35130E+05 1.05170E+02-3.50609E+03-5.05592E+04 1.85537E-10-1.52113E-10
 -1       931-9.35250E+05 8.47089E+01-1.82842E+03-7.34751E+04-2.98769E-10 2.42380E-10
 -1       932-9.35202E+05 7.45523E+01-9.87331E+02-5.05534E+04-2.71712E-10-2.55568E-10
 -1       933-9.35169E+05 7.44626E+01-6.92841E+02-7.34674E+04-1.34378E-10-2.63299E-10
 -1       934-9.35164E+05 3.72280E+01-7.25010E+02-5.05669E+04 4.10182E-10-4.60659E-10
 -1       935-9.35091E+05 1.50755E+01-1.14826E+03-7.34186E+04-8.40828E-10-3.55612E-10
 -1       936-9.35033E+05-1.41215E+01-2.11114E+03-5.06025E+04 2.20098E-10 1.89630E-10
 -1       937-9.35194E+05-2.49444E+02-4.27597E+03-7.33112E+04 4.00178E-11-6.73026E-10
 -1       938-9.34620E+05-2.31685E+02-8.28658E+03-5.06747E+04-2.40107E-10-6.96673E-10
 -1       939-9.38973E+05-4.78568E+03-1.85289E+04-7.27743E+04 1.23055E-09-1.74623E-10
 -1       940-9.30636E+05-5.47232E+03-3.37714E+04-5.11238E+04-1.09321E-09 1.80921E-09
 -1       941 7.73540E+05 2.06214E+04 1.35693E+05-5.36268E+04 1.24419E-09 3.27418E-10
 -1       942 8.07716E+05 1.81495E+04 7.45349E+04-7.70455E+04-4.02906E-10-1.66619E-09
 -1       943 7.88671E+05 1.41038E+02 3.32028E+04-5.32847E+04-3.69255E-10 3.00133E-10
 -1       944 7.91212E+05 5.45759E+02 1.71473E+04-7.73238E+04-4.42014E-10-7.55790E-10
 -1       945 7.89622E+05-2.01386E+02 8.32452E+03-5.32934E+04 2.10093E-10 2.81034E-10
 -1       946 7.89944E+05-5.39324E+01 4.37538E+03-7.73092E+04 1.16052E-09 1.18689E-09
 -1       947 7.89725E+05-7.86335E+01 2.40196E+03-5.33008E+04 7.44564E-10 7.28505E-10
 -1       948 7.89802E+05-5.51953E+01 1.75680E+03-7.73106E+04-1.73713E-10 3.35604E-10
 -1       949 7.89766E+05-9.05464E+01 1.90925E+03-5.32925E+04-1.42973E-09-1.59798E-09
 -1       950 7.89972E+05-1.00169E+02 3.12326E+03-7.73434E+04-3.13776E-11 1.30240E-09
 -1       951 7.89773E+05-2.23414E+02 5.73751E+03-5.32673E+04-1.08594E-09-7.61020E-10
 -1       952 7.90956E+05 2.43890E+02 1.17324E+04-7.73843E+04 2.43836E-09-4.30418E-10
 -1       953 7.89219E+05-5.77538E+01 2.26535E+04-5.32498E+04 6.54836E-11 3.61069E-10
 -1       954 8.02378E+05 1.21834E+04 5.08701E+04-7.70426E+04-8.21819E-09-3.12866E-10
 -1       955 7.78993E+05 1.38372E+04 9.25588E+04-5.36644E+04 3.23780E-10 1.78989E-09
 -1       956-6.20465E+05-8.38909E+03-4.66420E+04 3.65604E+04-1.54723E-08 3.55976E-09
 -1       957-6.31895E+05-5.95997E+03-2.53876E+04 5.13238E+04-3.52247E-09-1.70076E-09
 -1       958-6.25697E+05-2.73506E+01-1.13606E+04 3.61667E+04 9.96806E-09 1.00954E-09
 -1       959-6.26602E+05 3.64622E+01-5.84759E+03 5.17406E+04-4.94219E-09-1.02546E-09
 -1       960-6.26145E+05 2.22009E+02-2.85555E+03 3.61185E+04-1.82135E-08 3.38605E-09
 -1       961-6.26336E+05 3.11283E+02-1.50103E+03 5.18070E+04-3.29655E-08 2.11003E-10
 -1       962-6.26264E+05 2.40310E+02-8.42934E+02 3.60974E+04-1.53050E-08 3.46790E-09
 -1       963-6.26374E+05 3.56779E+02-6.38769E+02 5.18401E+04-1.56360E-08 4.87489E-10
 -1       964-6.26310E+05 2.70059E+02-7.35009E+02 3.60842E+04-4.62478E-10 2.90515E-09
 -1       965-6.26450E+05 3.79823E+02-1.23447E+03 5.18559E+04 1.66780E-08-3.08592E-09
 -1       966-6.26290E+05 3.08021E+02-2.29867E+03 3.60809E+04-9.57655E-09 3.78441E-09
 -1       967-6.26764E+05 2.14100E+02-4.70326E+03 5.18459E+04-5.38876E-10-1.45451E-09
 -1       968-6.25997E+05 1.56110E+02-9.11864E+03 3.60953E+04-7.52152E-10 3.06147E-09
 -1       969-6.31116E+05-4.56222E+03-2.04091E+04 5.16671E+04 5.67525E-10-2.36309E-09
 -1       970-6.21844E+05-6.53029E+03-3.74789E+04 3.62958E+04 1.28784E-09 1.66074E-09
 -1       971-3.75572E+05-1.88917E+03-1.28391E+04 1.31177E+04-1.72927E-08 1.47520E-09
 -1       972-3.78816E+05-1.61012E+03-7.05354E+03 1.93023E+04-7.24276E-09-1.28466E-10
 -1       973-3.77029E+05 6.19982E+01-3.14680E+03 1.30076E+04-4.81850E-09 1.71894E-09
 -1       974-3.77289E+05 7.46178E+01-1.63119E+03 1.94111E+04-3.57795E-09-3.20597E-10
 -1       975-3.77136E+05 1.07728E+02-8.07531E+02 1.29973E+04-2.05046E-09 6.04473E-10
 -1       976-3.77188E+05 1.41930E+02-4.54658E+02 1.94230E+04-6.13352E-09 3.23780E-10
 -1       977-3.77151E+05 1.02996E+02-3.09133E+02 1.29952E+04 1.49718E-08 7.99787E-10
 -1       978-3.77184E+05 1.45039E+02-3.34266E+02 1.94251E+04 3.59897E-08-1.27704E-09
 -1       979-3.77147E+05 1.07466E+02-5.13356E+02 1.29953E+04 2.39396E-08 3.44926E-10
 -1       980-3.77215E+05 1.43072E+02-9.76629E+02 1.94220E+04 2.56882E-08-9.96806E-10
 -1       981-3.77112E+05 1.26959E+02-1.88381E+03 1.29982E+04 8.45193E-09 1.35637E-09
 -1       982-3.77472E+05-1.07370E+01-3.89252E+03 1.94095E+04 6.22322E-10 3.00325E-10
 -1       983-3.76866E+05 2.66581E+01-7.54903E+03 1.30089E+04 1.47170E-08 2.59888E-10
 -1       984-3.81168E+05-4.04860E+03-1.69497E+04 1.92988E+04-6.78119E-09-9.39735E-10
 -1       985-3.73380E+05-4.65158E+03-3.08562E+04 1.31360E+04 1.56879E-08 1.09139E-11
 -3
 9999
