
 stresses (elem, integ.pnt.,sxx,syy,szz,sxy,sxz,syz) for set ELALL and time  0.1000000E+01

         1   1 -2.447680E+06 -1.347499E+05 -1.647021E+05 -5.751474E+04 -1.128073E+05  1.049003E+01
         1   2 -2.427306E+06  7.076989E+03 -7.393776E+04 -1.882308E+04 -7.340458E+04  2.233919E+00
         1   3 -2.447514E+06  7.305689E+03 -4.429642E+04  1.987071E+04 -3.400158E+04 -1.092397E+00
         1   4 -2.447683E+06 -1.347562E+05 -1.647030E+05  5.214316E-09 -1.128073E+05  8.334487E-10
         1   5 -2.427306E+06  7.076321E+03 -7.393786E+04 -9.280414E-10 -7.340458E+04  2.310726E-09
         1   6 -2.447515E+06  7.304944E+03 -4.429653E+04 -1.299667E-08 -3.400158E+04  1.516468E-09
         1   7 -2.447680E+06 -1.347499E+05 -1.647021E+05  5.751474E+04 -1.128073E+05 -1.049003E+01
         1   8 -2.427306E+06  7.076989E+03 -7.393776E+04  1.882308E+04 -7.340458E+04 -2.233919E+00
         1   9 -2.447514E+06  7.305689E+03 -4.429642E+04 -1.987071E+04 -3.400158E+04  1.092397E+00
         1  10 -2.447693E+06 -1.347534E+05 -1.647261E+05 -5.751474E+04 -4.360172E-10  1.769272E-10
         1  11 -2.427312E+06  7.075535E+03 -7.394793E+04 -1.882308E+04 -8.788901E-10  3.742944E-10
         1  12 -2.447515E+06  7.305377E+03 -4.429860E+04  1.987071E+04 -3.880346E-10  4.889300E-10
         1  13 -2.447697E+06 -1.347596E+05 -1.647270E+05 -3.300163E-09  1.679432E-11  1.781180E-10
         1  14 -2.427312E+06  7.074867E+03 -7.394802E+04  1.259702E-09 -4.317050E-09  5.855847E-10
         1  15 -2.447516E+06  7.304632E+03 -4.429871E+04 -1.356399E-08 -2.834010E-09  4.629827E-10
         1  16 -2.447693E+06 -1.347534E+05 -1.647261E+05  5.751474E+04 -2.730015E-11  1.824087E-10
         1  17 -2.427312E+06  7.075535E+03 -7.394793E+04  1.882308E+04  8.393707E-11  6.005757E-10
         1  18 -2.447515E+06  7.305377E+03 -4.429860E+04 -1.987071E+04 -6.433538E-10  4.644462E-10
         1  19 -2.447680E+06 -1.347499E+05 -1.647021E+05 -5.751474E+04  1.128073E+05 -1.049003E+01
         1  20 -2.427306E+06  7.076989E+03 -7.393776E+04 -1.882308E+04  7.340458E+04 -2.233919E+00
         1  21 -2.447514E+06  7.305689E+03 -4.429642E+04  1.987071E+04  3.400158E+04  1.092397E+00
         1  22 -2.447683E+06 -1.347562E+05 -1.647030E+05  5.392791E-09  1.128073E+05 -4.942984E-10
         1  23 -2.427306E+06  7.076321E+03 -7.393786E+04 -9.487359E-09  7.340458E+04 -1.263757E-09
         1  24 -2.447515E+06  7.304944E+03 -4.429653E+04 -1.468823E-08  3.400158E+04 -6.633896E-10
         1  25 -2.447680E+06 -1.347499E+05 -1.647021E+05  5.751474E+04  1.128073E+05  1.049003E+01
         1  26 -2.427306E+06  7.076989E+03 -7.393776E+04  1.882308E+04  7.340458E+04  2.233919E+00
         1  27 -2.447514E+06  7.305689E+03 -4.429642E+04 -1.987071E+04  3.400158E+04 -1.092397E+00
         2   1 -2.439365E+06 -9.321464E+03 -3.555323E+04 -3.207203E+03 -2.754119E+04  1.428142E-01
         2   2 -2.437470E+06  6.474761E+02 -1.890993E+04 -7.900368E+02 -1.800278E+04  2.299581E-02
         2   3 -2.439343E+06  5.378394E+02 -1.101406E+04  1.627118E+03 -8.464275E+03 -2.226753E-02
         2   4 -2.439365E+06 -9.321484E+03 -3.555324E+04 -9.468126E-09 -2.754119E+04  2.181552E-10
         2   5 -2.437470E+06  6.474749E+02 -1.890993E+04 -6.797772E-09 -1.800278E+04 -1.168948E-09
         2   6 -2.439343E+06  5.378344E+02 -1.101406E+04  1.504371E-09 -8.464275E+03 -1.373797E-09
         2   7 -2.439365E+06 -9.321464E+03 -3.555323E+04  3.207203E+03 -2.754119E+04 -1.428142E-01
         2   8 -2.437470E+06  6.474761E+02 -1.890993E+04  7.900368E+02 -1.800278E+04 -2.299581E-02
         2   9 -2.439343E+06  5.378394E+02 -1.101406E+04 -1.627118E+03 -8.464275E+03  2.226753E-02
         2  10 -2.439366E+06 -9.321669E+03 -3.555466E+04 -3.207203E+03  4.478221E-11  3.976680E-10
         2  11 -2.437470E+06  6.473887E+02 -1.891054E+04 -7.900368E+02  1.870929E-09  5.518481E-10
         2  12 -2.439343E+06  5.378201E+02 -1.101419E+04  1.627118E+03 -6.229605E-10  3.952799E-10
         2  13 -2.439366E+06 -9.321688E+03 -3.555467E+04 -2.452893E-08 -6.467502E-09  3.712036E-10
         2  14 -2.437470E+06  6.473875E+02 -1.891054E+04 -1.116027E-08 -9.383879E-10  2.913157E-10
         2  15 -2.439343E+06  5.378151E+02 -1.101419E+04  2.233626E-09  1.502311E-10 -1.029367E-10
         2  16 -2.439366E+06 -9.321669E+03 -3.555466E+04  3.207203E+03 -3.154886E-09  1.587405E-10
         2  17 -2.437470E+06  6.473887E+02 -1.891054E+04  7.900368E+02  1.639445E-10 -5.123559E-11
         2  18 -2.439343E+06  5.378201E+02 -1.101419E+04 -1.627118E+03  7.107762E-10 -2.660076E-10
         2  19 -2.439365E+06 -9.321464E+03 -3.555323E+04 -3.207203E+03  2.754119E+04 -1.428142E-01
         2  20 -2.437470E+06  6.474761E+02 -1.890993E+04 -7.900368E+02  1.800278E+04 -2.299581E-02
         2  21 -2.439343E+06  5.378394E+02 -1.101406E+04  1.627118E+03  8.464275E+03  2.226753E-02
         2  22 -2.439365E+06 -9.321484E+03 -3.555324E+04 -1.165354E-08  2.754119E+04  5.543039E-10
         2  23 -2.437470E+06  6.474749E+02 -1.890993E+04 -1.549963E-08  1.800278E+04  1.637562E-09
         2  24 -2.439343E+06  5.378344E+02 -1.101406E+04  9.958479E-09  8.464275E+03  1.176388E-09
         2  25 -2.439365E+06 -9.321464E+03 -3.555323E+04  3.207203E+03  2.754119E+04  1.428142E-01
         2  26 -2.437470E+06  6.474761E+02 -1.890993E+04  7.900368E+02  1.800278E+04  2.299581E-02
         2  27 -2.439343E+06  5.378394E+02 -1.101406E+04 -1.627118E+03  8.464275E+03 -2.226753E-02
         3   1 -2.438617E+06 -5.988093E+02 -8.510021E+03 -1.137552E+01 -6.750297E+03  1.241519E-04
         3   2 -2.438368E+06  8.311505E+01 -4.847287E+03  7.516800E+01 -4.343633E+03 -5.278974E-04
         3   3 -2.438613E+06  4.460828E+01 -2.936062E+03  1.617101E+02 -1.936998E+03 -5.064415E-04
         3   4 -2.438617E+06 -5.988093E+02 -8.510021E+03  1.060583E-08 -6.750297E+03 -1.039829E-09
         3   5 -2.438368E+06  8.311504E+01 -4.847287E+03  9.931957E-09 -4.343633E+03 -5.678369E-10
         3   6 -2.438613E+06  4.460824E+01 -2.936062E+03  8.970989E-11 -1.936998E+03 -4.205262E-10
         3   7 -2.438617E+06 -5.988093E+02 -8.510021E+03  1.137552E+01 -6.750297E+03 -1.241542E-04
         3   8 -2.438368E+06  8.311505E+01 -4.847287E+03 -7.516800E+01 -4.343633E+03  5.278959E-04
         3   9 -2.438613E+06  4.460828E+01 -2.936062E+03 -1.617101E+02 -1.936998E+03  5.064406E-04
         3  10 -2.438617E+06 -5.988215E+02 -8.510107E+03 -1.137552E+01 -3.190952E-09 -1.943958E-11
         3  11 -2.438368E+06  8.310996E+01 -4.847323E+03  7.516800E+01  1.172685E-09 -2.384634E-10
         3  12 -2.438613E+06  4.460727E+01 -2.936069E+03  1.617101E+02  1.168538E-09 -1.200128E-09
         3  13 -2.438617E+06 -5.988215E+02 -8.510107E+03  2.366379E-08 -1.121589E-09  4.204491E-11
         3  14 -2.438368E+06  8.310995E+01 -4.847323E+03  1.416215E-08 -2.118233E-09  2.602735E-10
         3  15 -2.438613E+06  4.460722E+01 -2.936069E+03  3.609795E-09 -1.748358E-09 -1.004667E-09
         3  16 -2.438617E+06 -5.988215E+02 -8.510107E+03  1.137552E+01  4.023820E-09  1.764484E-10
         3  17 -2.438368E+06  8.310996E+01 -4.847323E+03 -7.516800E+01 -2.569638E-09  8.664232E-10
         3  18 -2.438613E+06  4.460727E+01 -2.936069E+03 -1.617101E+02 -1.805211E-09 -8.793666E-10
         3  19 -2.438617E+06 -5.988093E+02 -8.510021E+03 -1.137552E+01  6.750297E+03 -1.241516E-04
         3  20 -2.438368E+06  8.311505E+01 -4.847287E+03  7.516800E+01  4.343633E+03  5.278978E-04
         3  21 -2.438613E+06  4.460828E+01 -2.936062E+03  1.617101E+02  1.936998E+03  5.064397E-04
         3  22 -2.438617E+06 -5.988093E+02 -8.510021E+03  1.518871E-08  6.750297E+03  1.063508E-09
         3  23 -2.438368E+06  8.311504E+01 -4.847287E+03  3.342096E-09  4.343633E+03  1.009097E-09
         3  24 -2.438613E+06  4.460824E+01 -2.936062E+03 -1.304587E-10  1.936998E+03 -1.543724E-09
         3  25 -2.438617E+06 -5.988093E+02 -8.510021E+03  1.137552E+01  6.750297E+03  1.241537E-04
         3  26 -2.438368E+06  8.311505E+01 -4.847287E+03 -7.516800E+01  4.343633E+03 -5.278953E-04
         3  27 -2.438613E+06  4.460828E+01 -2.936062E+03 -1.617101E+02  1.936998E+03 -5.064430E-04
         4   1 -2.438530E+06 -2.582861E+01 -2.355604E+03  4.473474E+01 -1.461458E+03 -1.057045E-04
         4   2 -2.438469E+06  2.029796E+01 -1.677849E+03  2.016740E+01 -6.323427E+02 -2.061787E-05
         4   3 -2.438530E+06  7.610024E+00 -1.556185E+03 -4.400294E+00  1.967856E+02 -1.398554E-06
         4   4 -2.438530E+06 -2.582861E+01 -2.355604E+03 -4.850118E-10 -1.461458E+03  2.186653E-10
         4   5 -2.438469E+06  2.029796E+01 -1.677849E+03 -6.549024E-09 -6.323427E+02  1.357425E-09
         4   6 -2.438530E+06  7.610024E+00 -1.556185E+03  4.626813E-09  1.967856E+02  7.041482E-10
         4   7 -2.438530E+06 -2.582861E+01 -2.355604E+03 -4.473474E+01 -1.461458E+03  1.057045E-04
         4   8 -2.438469E+06  2.029796E+01 -1.677849E+03 -2.016740E+01 -6.323427E+02  2.061967E-05
         4   9 -2.438530E+06  7.610024E+00 -1.556185E+03  4.400294E+00  1.967856E+02  1.400387E-06
         4  10 -2.438530E+06 -2.582918E+01 -2.355608E+03  4.473474E+01 -1.897432E-09 -1.087603E-09
         4  11 -2.438469E+06  2.029786E+01 -1.677850E+03  2.016740E+01 -2.731135E-09  4.357735E-11
         4  12 -2.438530E+06  7.610014E+00 -1.556185E+03 -4.400294E+00  9.288574E-10  1.248415E-09
         4  13 -2.438530E+06 -2.582919E+01 -2.355608E+03 -2.267936E-10  3.151124E-09 -1.173933E-09
         4  14 -2.438469E+06  2.029785E+01 -1.677850E+03 -3.191116E-09  2.295623E-09  1.012795E-10
         4  15 -2.438530E+06  7.610014E+00 -1.556185E+03 -6.147042E-09 -6.829526E-10  6.920552E-10
         4  16 -2.438530E+06 -2.582918E+01 -2.355608E+03 -4.473474E+01  3.900042E-11 -1.199133E-09
         4  17 -2.438469E+06  2.029786E+01 -1.677850E+03 -2.016740E+01 -1.057894E-09  1.630780E-10
         4  18 -2.438530E+06  7.610014E+00 -1.556185E+03  4.400294E+00  1.476472E-09  7.069736E-11
         4  19 -2.438530E+06 -2.582861E+01 -2.355604E+03  4.473474E+01  1.461458E+03  1.057025E-04
         4  20 -2.438469E+06  2.029796E+01 -1.677849E+03  2.016740E+01  6.323427E+02  2.061775E-05
         4  21 -2.438530E+06  7.610024E+00 -1.556185E+03 -4.400294E+00 -1.967856E+02  1.401223E-06
         4  22 -2.438530E+06 -2.582861E+01 -2.355604E+03  2.166459E-09  1.461458E+03 -2.469641E-09
         4  23 -2.438469E+06  2.029796E+01 -1.677849E+03 -4.138974E-09  6.323427E+02 -1.263140E-09
         4  24 -2.438530E+06  7.610024E+00 -1.556185E+03  4.626813E-09 -1.967856E+02  7.112727E-10
         4  25 -2.438530E+06 -2.582861E+01 -2.355604E+03 -4.473474E+01  1.461458E+03 -1.057074E-04
         4  26 -2.438469E+06  2.029796E+01 -1.677849E+03 -2.016740E+01  6.323427E+02 -2.062049E-05
         4  27 -2.438530E+06  7.610024E+00 -1.556185E+03  4.400294E+00 -1.967856E+02 -1.400255E-06
         5   1 -2.438541E+06  9.170265E+00 -1.674733E+03 -2.659511E+01  4.887643E+02 -2.101624E-05
         5   2 -2.438455E+06  2.861025E+01 -2.319147E+03 -5.698158E+01  1.635052E+03 -1.506377E-04
         5   3 -2.438543E+06 -4.572559E+01 -3.735487E+03 -8.736809E+01  2.781339E+03 -3.928889E-04
         5   4 -2.438541E+06  9.170264E+00 -1.674733E+03 -9.657423E-10  4.887643E+02 -2.534207E-10
         5   5 -2.438455E+06  2.861024E+01 -2.319147E+03 -5.139250E-09  1.635052E+03 -1.062666E-09
         5   6 -2.438543E+06 -4.572560E+01 -3.735487E+03  1.277712E-08  2.781339E+03 -1.056173E-09
         5   7 -2.438541E+06  9.170265E+00 -1.674733E+03  2.659511E+01  4.887643E+02  2.101599E-05
         5   8 -2.438455E+06  2.861025E+01 -2.319147E+03  5.698158E+01  1.635052E+03  1.506354E-04
         5   9 -2.438543E+06 -4.572559E+01 -3.735487E+03  8.736809E+01  2.781339E+03  3.928877E-04
         5  10 -2.438541E+06  9.170201E+00 -1.674733E+03 -2.659511E+01 -3.601447E-10  7.820319E-10
         5  11 -2.438455E+06  2.860953E+01 -2.319152E+03 -5.698158E+01 -3.428212E-10 -7.603112E-10
         5  12 -2.438543E+06 -4.572767E+01 -3.735502E+03 -8.736809E+01 -7.118636E-10  5.183380E-11
         5  13 -2.438541E+06  9.170199E+00 -1.674733E+03 -1.184876E-08 -3.141699E-09  4.988090E-10
         5  14 -2.438455E+06  2.860952E+01 -2.319152E+03  1.272163E-09 -3.083951E-09 -2.608888E-11
         5  15 -2.438543E+06 -4.572769E+01 -3.735502E+03  1.117375E-08  3.747024E-10 -4.289768E-11
         5  16 -2.438541E+06  9.170201E+00 -1.674733E+03  2.659511E+01 -1.863577E-09  1.796543E-10
         5  17 -2.438455E+06  2.860953E+01 -2.319152E+03  5.698158E+01  3.703712E-10  4.316981E-10
         5  18 -2.438543E+06 -4.572767E+01 -3.735502E+03  8.736809E+01 -3.639824E-10 -1.307554E-10
         5  19 -2.438541E+06  9.170265E+00 -1.674733E+03 -2.659511E+01 -4.887643E+02  2.101851E-05
         5  20 -2.438455E+06  2.861025E+01 -2.319147E+03 -5.698158E+01 -1.635052E+03  1.506370E-04
         5  21 -2.438543E+06 -4.572559E+01 -3.735487E+03 -8.736809E+01 -2.781339E+03  3.928895E-04
         5  22 -2.438541E+06  9.170264E+00 -1.674733E+03 -1.167279E-09 -4.887643E+02  1.199650E-09
         5  23 -2.438455E+06  2.861024E+01 -2.319147E+03 -1.167032E-08 -1.635052E+03  9.893353E-10
         5  24 -2.438543E+06 -4.572560E+01 -3.735487E+03  1.740855E-08 -2.781339E+03  9.813448E-10
         5  25 -2.438541E+06  9.170265E+00 -1.674733E+03  2.659511E+01 -4.887643E+02 -2.101637E-05
         5  26 -2.438455E+06  2.861025E+01 -2.319147E+03  5.698158E+01 -1.635052E+03 -1.506347E-04
         5  27 -2.438543E+06 -4.572559E+01 -3.735487E+03  8.736809E+01 -2.781339E+03 -3.928882E-04
         6   1 -2.438692E+06  7.480755E+01 -4.818020E+03 -2.882233E+02  3.549554E+03 -1.654115E-03
         6   2 -2.438273E+06  1.419584E+02 -8.224987E+03 -1.354661E+02  7.633724E+03 -1.671974E-03
         6   3 -2.438699E+06 -1.034013E+03 -1.460947E+04  1.728926E+01  1.171781E+04  3.275570E-04
         6   4 -2.438692E+06  7.480739E+01 -4.818020E+03 -2.118278E-09  3.549554E+03  2.369562E-11
         6   5 -2.438273E+06  1.419583E+02 -8.224987E+03 -1.002650E-08  7.633724E+03  1.211525E-09
         6   6 -2.438699E+06 -1.034013E+03 -1.460947E+04 -6.097525E-09  1.171781E+04  6.401274E-10
         6   7 -2.438692E+06  7.480755E+01 -4.818020E+03  2.882233E+02  3.549554E+03  1.654115E-03
         6   8 -2.438273E+06  1.419584E+02 -8.224987E+03  1.354661E+02  7.633724E+03  1.671976E-03
         6   9 -2.438699E+06 -1.034013E+03 -1.460947E+04 -1.728926E+01  1.171781E+04 -3.275554E-04
         6  10 -2.438692E+06  7.480415E+01 -4.818043E+03 -2.882233E+02 -2.770839E-09  4.643041E-10
         6  11 -2.438273E+06  1.419427E+02 -8.225097E+03 -1.354661E+02 -3.275196E-09  1.277411E-10
         6  12 -2.438699E+06 -1.034050E+03 -1.460973E+04  1.728926E+01 -5.855954E-10  2.081903E-10
         6  13 -2.438692E+06  7.480399E+01 -4.818043E+03  4.358219E-09  8.220427E-10  1.439589E-10
         6  14 -2.438273E+06  1.419426E+02 -8.225097E+03 -1.001811E-08 -3.448001E-09  1.833701E-10
         6  15 -2.438699E+06 -1.034050E+03 -1.460973E+04 -6.129021E-09 -3.762789E-09  7.907903E-11
         6  16 -2.438692E+06  7.480415E+01 -4.818043E+03  2.882233E+02 -1.155373E-09 -4.567968E-11
         6  17 -2.438273E+06  1.419427E+02 -8.225097E+03  1.354661E+02  6.258289E-11  4.433505E-10
         6  18 -2.438699E+06 -1.034050E+03 -1.460973E+04 -1.728926E+01  4.417212E-10 -6.114722E-11
         6  19 -2.438692E+06  7.480755E+01 -4.818020E+03 -2.882233E+02 -3.549554E+03  1.654116E-03
         6  20 -2.438273E+06  1.419584E+02 -8.224987E+03 -1.354661E+02 -7.633724E+03  1.671974E-03
         6  21 -2.438699E+06 -1.034013E+03 -1.460947E+04  1.728926E+01 -1.171781E+04 -3.275566E-04
         6  22 -2.438692E+06  7.480739E+01 -4.818020E+03  1.086621E-08 -3.549554E+03  2.744512E-10
         6  23 -2.438273E+06  1.419583E+02 -8.224987E+03  7.326909E-10 -7.633724E+03 -8.883589E-10
         6  24 -2.438699E+06 -1.034013E+03 -1.460947E+04  1.511202E-08 -1.171781E+04 -4.675054E-10
         6  25 -2.438692E+06  7.480755E+01 -4.818020E+03  2.882233E+02 -3.549554E+03 -1.654115E-03
         6  26 -2.438273E+06  1.419584E+02 -8.224987E+03  1.354661E+02 -7.633724E+03 -1.671975E-03
         6  27 -2.438699E+06 -1.034013E+03 -1.460947E+04 -1.728926E+01 -1.171781E+04  3.275553E-04
         7   1 -2.439954E+06  9.279397E+02 -1.895240E+04 -2.811375E+03  1.466391E+04 -6.665490E-02
         7   2 -2.436721E+06  1.117429E+03 -3.260990E+04  1.362563E+03  3.111361E+04  6.854377E-02
         7   3 -2.439992E+06 -1.609292E+04 -6.135670E+04  5.536598E+03  4.756325E+04  4.257712E-01
         7   4 -2.439954E+06  9.279248E+02 -1.895240E+04 -1.485070E-08  1.466391E+04 -2.419725E-10
         7   5 -2.436721E+06  1.117426E+03 -3.260990E+04 -2.596827E-09  3.111361E+04 -1.038350E-09
         7   6 -2.439992E+06 -1.609297E+04 -6.135671E+04  2.678252E-09  4.756325E+04 -1.040258E-09
         7   7 -2.439954E+06  9.279397E+02 -1.895240E+04  2.811375E+03  1.466391E+04  6.665490E-02
         7   8 -2.436721E+06  1.117429E+03 -3.260990E+04 -1.362563E+03  3.111361E+04 -6.854377E-02
         7   9 -2.439992E+06 -1.609292E+04 -6.135670E+04 -5.536598E+03  4.756325E+04 -4.257712E-01
         7  10 -2.439954E+06  9.278817E+02 -1.895280E+04 -2.811375E+03 -2.591378E-09  6.925290E-11
         7  11 -2.436722E+06  1.117168E+03 -3.261173E+04  1.362563E+03 -8.408599E-10 -1.697454E-10
         7  12 -2.439994E+06 -1.609353E+04 -6.136097E+04  5.536598E+03 -2.996199E-10  1.119359E-10
         7  13 -2.439954E+06  9.278668E+02 -1.895281E+04 -1.493887E-08 -3.041574E-09 -8.309645E-11
         7  14 -2.436722E+06  1.117165E+03 -3.261173E+04  3.841991E-09  1.503977E-09 -2.385690E-10
         7  15 -2.439994E+06 -1.609359E+04 -6.136098E+04 -2.098300E-09  3.129543E-09 -2.911641E-10
         7  16 -2.439954E+06  9.278817E+02 -1.895280E+04  2.811375E+03  3.388143E-10 -4.020568E-10
         7  17 -2.436722E+06  1.117168E+03 -3.261173E+04 -1.362563E+03  1.653439E-09 -6.386073E-10
         7  18 -2.439994E+06 -1.609353E+04 -6.136097E+04 -5.536598E+03  6.648405E-10 -6.364535E-10
         7  19 -2.439954E+06  9.279397E+02 -1.895240E+04 -2.811375E+03 -1.466391E+04  6.665490E-02
         7  20 -2.436721E+06  1.117429E+03 -3.260990E+04  1.362563E+03 -3.111361E+04 -6.854377E-02
         7  21 -2.439992E+06 -1.609292E+04 -6.135670E+04  5.536598E+03 -4.756325E+04 -4.257712E-01
         7  22 -2.439954E+06  9.279248E+02 -1.895240E+04  2.229725E-09 -1.466391E+04  9.158639E-11
         7  23 -2.436721E+06  1.117426E+03 -3.260990E+04  1.028287E-08 -3.111361E+04  4.558682E-10
         7  24 -2.439992E+06 -1.609297E+04 -6.135671E+04  9.211515E-09 -4.756325E+04  4.373054E-10
         7  25 -2.439954E+06  9.279397E+02 -1.895240E+04  2.811375E+03 -1.466391E+04 -6.665490E-02
         7  26 -2.436721E+06  1.117429E+03 -3.260990E+04 -1.362563E+03 -3.111361E+04  6.854377E-02
         7  27 -2.439992E+06 -1.609292E+04 -6.135670E+04 -5.536598E+03 -4.756325E+04  4.257712E-01
         8   1 -2.454059E+06  1.261360E+04 -7.645408E+04 -3.430536E+04  5.871207E+04 -3.256573E+00
         8   2 -2.419172E+06  1.221838E+04 -1.276232E+05  3.249683E+04  1.267354E+05  6.658639E+00
         8   3 -2.454336E+06 -2.326217E+05 -2.843039E+05  9.929434E+04  1.947597E+05  3.126670E+01
         8   4 -2.454060E+06  1.261138E+04 -7.645440E+04  2.519471E-09  5.871207E+04 -6.315717E-10
         8   5 -2.419173E+06  1.221638E+04 -1.276235E+05 -2.641115E-09  1.267354E+05  2.967859E-11
         8   6 -2.454347E+06 -2.326403E+05 -2.843066E+05  3.488737E-09  1.947597E+05 -1.489094E-11
         8   7 -2.454059E+06  1.261360E+04 -7.645408E+04  3.430536E+04  5.871207E+04  3.256573E+00
         8   8 -2.419172E+06  1.221838E+04 -1.276232E+05 -3.249683E+04  1.267354E+05 -6.658639E+00
         8   9 -2.454336E+06 -2.326217E+05 -2.843039E+05 -9.929434E+04  1.947597E+05 -3.126670E+01
         8  10 -2.454063E+06  1.261267E+04 -7.646059E+04 -3.430536E+04 -8.117502E-10 -3.075044E-11
         8  11 -2.419189E+06  1.221404E+04 -1.276535E+05  3.249683E+04  3.582114E-10 -1.783251E-10
         8  12 -2.454377E+06 -2.326320E+05 -2.843755E+05  9.929434E+04  1.077547E-09 -1.030333E-10
         8  13 -2.454064E+06  1.261045E+04 -7.646090E+04  2.565687E-09 -1.042249E-09 -1.810742E-10
         8  14 -2.419190E+06  1.221205E+04 -1.276538E+05 -4.786415E-10  6.461952E-10  6.000531E-12
         8  15 -2.454388E+06 -2.326506E+05 -2.843782E+05  7.886682E-10 -1.741598E-09  1.160289E-11
         8  16 -2.454063E+06  1.261267E+04 -7.646059E+04  3.430536E+04 -4.554988E-10 -5.529426E-10
         8  17 -2.419189E+06  1.221404E+04 -1.276535E+05 -3.249683E+04 -1.221002E-09  3.172229E-10
         8  18 -2.454377E+06 -2.326320E+05 -2.843755E+05 -9.929434E+04  1.784109E-09  7.695700E-11
         8  19 -2.454059E+06  1.261360E+04 -7.645408E+04 -3.430536E+04 -5.871207E+04  3.256573E+00
         8  20 -2.419172E+06  1.221838E+04 -1.276232E+05  3.249683E+04 -1.267354E+05 -6.658639E+00
         8  21 -2.454336E+06 -2.326217E+05 -2.843039E+05  9.929434E+04 -1.947597E+05 -3.126670E+01
         8  22 -2.454060E+06  1.261138E+04 -7.645440E+04  9.069675E-09 -5.871207E+04  2.789642E-10
         8  23 -2.419173E+06  1.221638E+04 -1.276235E+05 -1.533637E-09 -1.267354E+05  5.350550E-12
         8  24 -2.454347E+06 -2.326403E+05 -2.843066E+05 -4.332029E-09 -1.947597E+05  5.425800E-11
         8  25 -2.454059E+06  1.261360E+04 -7.645408E+04  3.430536E+04 -5.871207E+04 -3.256573E+00
         8  26 -2.419172E+06  1.221838E+04 -1.276232E+05 -3.249683E+04 -1.267354E+05  6.658639E+00
         8  27 -2.454336E+06 -2.326217E+05 -2.843039E+05 -9.929434E+04 -1.947597E+05  3.126670E+01
         9   1  1.886127E+06  6.252012E+06  1.834661E+06 -1.144574E+06  8.585221E+04  6.098648E+05
         9   2  1.420373E+06  5.176120E+06  1.251489E+06 -9.608406E+05  2.777769E+05  2.784447E+05
         9   3  1.130446E+06  4.190788E+06  9.273288E+05 -1.006461E+06  3.027962E+05 -5.234290E+04
         9   4  2.042602E+05 -5.714362E+05  2.269260E+05 -1.006593E+06  8.694313E+04  1.574260E+05
         9   5  4.147796E+04 -5.908949E+05  1.097469E+05 -8.922209E+05  2.785374E+05  1.014418E+05
         9   6  7.860626E+03 -5.676998E+05  6.189521E+04 -1.007169E+06  3.025900E+05  4.547867E+04
         9   7 -1.480754E+06 -7.351838E+06 -1.383249E+06 -8.700727E+05  8.784374E+04 -2.901128E+05
         9   8 -1.339408E+06 -6.326180E+06 -1.033522E+06 -8.242044E+05  2.792640E+05 -7.396421E+04
         9   9 -1.115994E+06 -5.304237E+06 -8.044098E+05 -1.007835E+06  3.023825E+05  1.425736E+05
         9  10  1.886020E+06  6.251613E+06  1.833954E+06 -1.144616E+06 -7.295947E-12  2.590165E-09
         9  11  1.420270E+06  5.176016E+06  1.251199E+06 -9.609028E+05 -2.061827E-09 -1.046133E-09
         9  12  1.130347E+06  4.190761E+06  9.271515E+05 -1.006448E+06 -4.037781E-09 -4.763840E-09
         9  13  2.042454E+05 -5.714648E+05  2.268651E+05 -1.006604E+06  1.639450E-09 -1.793267E-11
         9  14  4.139186E+04 -5.909268E+05  1.095816E+05 -8.922436E+05  1.791882E-10  3.199243E-11
         9  15  7.761748E+03 -5.677266E+05  6.171920E+04 -1.007180E+06 -3.296380E-10  7.410207E-11
         9  16 -1.480785E+06 -7.351931E+06 -1.383423E+06 -8.700521E+05  2.182716E-09 -2.588229E-09
         9  17 -1.339493E+06 -6.326206E+06 -1.033679E+06 -8.241877E+05  1.543380E-09  9.040632E-10
         9  18 -1.116098E+06 -5.304284E+06 -8.046205E+05 -1.007869E+06  2.381668E-09  4.832513E-09
         9  19  1.886127E+06  6.252012E+06  1.834661E+06 -1.144574E+06 -8.585221E+04 -6.098648E+05
         9  20  1.420373E+06  5.176120E+06  1.251489E+06 -9.608406E+05 -2.777769E+05 -2.784447E+05
         9  21  1.130446E+06  4.190788E+06  9.273288E+05 -1.006461E+06 -3.027962E+05  5.234290E+04
         9  22  2.042602E+05 -5.714362E+05  2.269260E+05 -1.006593E+06 -8.694313E+04 -1.574260E+05
         9  23  4.147796E+04 -5.908949E+05  1.097469E+05 -8.922209E+05 -2.785374E+05 -1.014418E+05
         9  24  7.860626E+03 -5.676998E+05  6.189521E+04 -1.007169E+06 -3.025900E+05 -4.547867E+04
         9  25 -1.480754E+06 -7.351838E+06 -1.383249E+06 -8.700727E+05 -8.784374E+04  2.901128E+05
         9  26 -1.339408E+06 -6.326180E+06 -1.033522E+06 -8.242044E+05 -2.792640E+05  7.396421E+04
         9  27 -1.115994E+06 -5.304237E+06 -8.044098E+05 -1.007835E+06 -3.023825E+05 -1.425736E+05
        10   1  9.737291E+05  3.497910E+06  7.826998E+05 -1.025448E+06  2.651321E+05 -3.973788E+04
        10   2  7.214942E+05  2.464375E+06  5.620913E+05 -9.004767E+05  2.122443E+05 -7.382012E+04
        10   3  4.817305E+05  1.438522E+06  3.664284E+05 -1.015534E+06  1.471720E+05 -1.080319E+05
        10   4  1.348233E+04 -5.753038E+05  4.775207E+04 -1.009506E+06  2.649254E+05  3.707655E+04
        10   5  7.292646E+03 -5.758928E+05  2.802414E+04 -8.894736E+05  2.118399E+05  2.298846E+04
        10   6  1.019411E+04 -5.732557E+05  1.945593E+04 -1.009538E+06  1.465384E+05  8.716807E+03
        10   7 -9.476880E+05 -4.632401E+06 -6.878238E+05 -9.936408E+05  2.647217E+05  1.134025E+05
        10   8 -7.074081E+05 -3.607115E+06 -5.063431E+05 -8.785088E+05  2.114376E+05  1.193382E+05
        10   9 -4.615522E+05 -2.581035E+06 -3.276040E+05 -1.003553E+06  1.459057E+05  1.250995E+05
        10  10  9.736532E+05  3.497889E+06  7.825648E+05 -1.025439E+06 -3.366769E-09  3.256080E-10
        10  11  7.214444E+05  2.464357E+06  5.619966E+05 -9.004641E+05  4.936969E-10 -1.422911E-09
        10  12  4.817042E+05  1.438503E+06  3.663659E+05 -1.015522E+06 -3.761489E-10 -3.277368E-09
        10  13  1.340660E+04 -5.753241E+05  4.761755E+04 -1.009514E+06 -9.399276E-10  8.122025E-11
        10  14  7.244318E+03 -5.759054E+05  2.793880E+04 -8.894775E+05  1.212917E-09  7.702609E-11
        10  15  1.017104E+04 -5.732615E+05  1.941543E+04 -1.009539E+06  1.441699E-09 -2.929276E-11
        10  16 -9.477668E+05 -4.632434E+06 -6.879800E+05 -9.936650E+05  9.046782E-10 -3.897064E-10
        10  17 -7.074599E+05 -3.607143E+06 -5.064542E+05 -8.785292E+05 -9.824410E-10  1.391411E-09
        10  18 -4.615793E+05 -2.581058E+06 -3.276737E+05 -1.003567E+06 -1.311025E-09  3.306917E-09
        10  19  9.737291E+05  3.497910E+06  7.826998E+05 -1.025448E+06 -2.651321E+05  3.973788E+04
        10  20  7.214942E+05  2.464375E+06  5.620913E+05 -9.004767E+05 -2.122443E+05  7.382012E+04
        10  21  4.817305E+05  1.438522E+06  3.664284E+05 -1.015534E+06 -1.471720E+05  1.080319E+05
        10  22  1.348233E+04 -5.753038E+05  4.775207E+04 -1.009506E+06 -2.649254E+05 -3.707655E+04
        10  23  7.292646E+03 -5.758928E+05  2.802414E+04 -8.894736E+05 -2.118399E+05 -2.298846E+04
        10  24  1.019411E+04 -5.732557E+05  1.945593E+04 -1.009538E+06 -1.465384E+05 -8.716807E+03
        10  25 -9.476880E+05 -4.632401E+06 -6.878238E+05 -9.936408E+05 -2.647217E+05 -1.134025E+05
        10  26 -7.074081E+05 -3.607115E+06 -5.063431E+05 -8.785088E+05 -2.114376E+05 -1.193382E+05
        10  27 -4.615522E+05 -2.581035E+06 -3.276040E+05 -1.003553E+06 -1.459057E+05 -1.250995E+05
        11   1  3.221500E+05  7.611874E+05  2.411586E+05 -1.015560E+06  1.038674E+05 -1.126756E+05
        11   2  8.190384E+04 -2.658732E+05  4.910029E+04 -8.836949E+05  4.328037E+04 -8.293385E+04
        11   3 -1.484059E+05 -1.295667E+06 -1.605554E+05 -9.913347E+05  6.504126E+03 -5.317747E+04
        11   4  1.057409E+04 -5.728712E+05  1.731407E+04 -1.009411E+06  1.031815E+05  5.400663E+03
        11   5  1.395904E+04 -5.742501E+05  1.743578E+04 -8.896096E+05  4.281341E+04 -3.792129E+03
        11   6  3.408693E+04 -5.726528E+05  2.698836E+04 -1.009294E+06  6.259398E+03 -1.292144E+04
        11   7 -3.010875E+05 -1.905145E+06 -2.065338E+05 -1.003272E+06  1.024970E+05  1.232317E+05
        11   8 -5.398547E+04 -8.825135E+05 -1.420373E+04 -8.955211E+05  4.234477E+04  7.531258E+04
        11   9  2.165407E+05  1.508355E+05  2.144968E+05 -1.027273E+06  6.012507E+03  2.738174E+04
        11  10  3.221350E+05  7.611710E+05  2.411146E+05 -1.015551E+06 -3.169300E-10 -2.726746E-08
        11  11  8.189999E+04 -2.658811E+05  4.908387E+04 -8.836920E+05  7.358450E-10 -1.250073E-09
        11  12 -1.484067E+05 -1.295670E+06 -1.605608E+05 -9.913344E+05 -7.823070E-10  2.487228E-08
        11  13  1.056265E+04 -5.728741E+05  1.729401E+04 -1.009412E+06  1.494969E-09  9.882034E-11
        11  14  1.395707E+04 -5.742506E+05  1.743231E+04 -8.896095E+05  2.082713E-09  3.250493E-11
        11  15  3.408684E+04 -5.726530E+05  2.698797E+04 -1.009294E+06  4.715063E-10 -1.302132E-11
        11  16 -3.011029E+05 -1.905165E+06 -2.065823E+05 -1.003283E+06 -1.510575E-09  2.732672E-08
        11  17 -5.398893E+04 -8.825200E+05 -1.421780E+04 -8.955236E+05 -5.069317E-10  1.058232E-09
        11  18  2.165405E+05  1.508347E+05  2.144953E+05 -1.027273E+06 -8.566048E-10 -2.504469E-08
        11  19  3.221500E+05  7.611874E+05  2.411586E+05 -1.015560E+06 -1.038674E+05  1.126756E+05
        11  20  8.190384E+04 -2.658732E+05  4.910029E+04 -8.836949E+05 -4.328037E+04  8.293385E+04
        11  21 -1.484059E+05 -1.295667E+06 -1.605554E+05 -9.913347E+05 -6.504126E+03  5.317747E+04
        11  22  1.057409E+04 -5.728712E+05  1.731407E+04 -1.009411E+06 -1.031815E+05 -5.400663E+03
        11  23  1.395904E+04 -5.742501E+05  1.743578E+04 -8.896096E+05 -4.281341E+04  3.792129E+03
        11  24  3.408693E+04 -5.726528E+05  2.698836E+04 -1.009294E+06 -6.259398E+03  1.292144E+04
        11  25 -3.010875E+05 -1.905145E+06 -2.065338E+05 -1.003272E+06 -1.024970E+05 -1.232317E+05
        11  26 -5.398547E+04 -8.825135E+05 -1.420373E+04 -8.955211E+05 -4.234477E+04 -7.531258E+04
        11  27  2.165407E+05  1.508355E+05  2.144968E+05 -1.027273E+06 -6.012507E+03 -2.738174E+04
        12   1 -3.251344E+06 -8.936415E+05 -4.430464E+05 -1.236143E+06 -2.589022E+05 -9.484644E+04
        12   2 -3.191871E+06 -4.990133E+05 -2.017172E+05 -1.248080E+06 -1.646070E+05 -5.559661E+04
        12   3 -3.253002E+06 -4.434345E+05 -1.207032E+05 -1.192962E+06 -6.853104E+04 -2.107511E+04
        12   4 -3.178572E+06 -7.457154E+05 -3.997231E+05 -1.092320E+06 -2.547464E+05 -9.335179E+04
        12   5 -3.097070E+06 -4.250827E+05 -1.705985E+05 -1.182508E+06 -1.638499E+05 -5.532567E+04
        12   6 -3.135478E+06 -4.428217E+05 -9.907128E+04 -1.205654E+06 -7.116874E+04 -2.205784E+04
        12   7 -3.105758E+06 -5.977004E+05 -3.563928E+05 -9.484682E+05 -2.505901E+05 -9.185492E+04
        12   8 -3.002257E+06 -3.511387E+05 -1.394801E+05 -1.116924E+06 -1.630926E+05 -5.505456E+04
        12   9 -3.017936E+06 -4.422050E+05 -7.743861E+04 -1.218350E+06 -7.380701E+04 -2.304030E+04
        12  10 -3.251419E+06 -8.936693E+05 -4.431901E+05 -1.236163E+06 -5.415262E-10 -1.208864E-10
        12  11 -3.191901E+06 -4.990239E+05 -2.017743E+05 -1.248087E+06  2.786274E-10  8.440463E-11
        12  12 -3.253007E+06 -4.434362E+05 -1.207129E+05 -1.192963E+06 -7.356347E-11  3.520777E-10
        12  13 -3.178644E+06 -7.457423E+05 -3.998622E+05 -1.092339E+06  1.069255E-09  2.179865E-11
        12  14 -3.097100E+06 -4.250933E+05 -1.706550E+05 -1.182515E+06 -3.307658E-09  8.140220E-11
        12  15 -3.135483E+06 -4.428236E+05 -9.908177E+04 -1.205655E+06  4.909997E-10  5.974803E-10
        12  16 -3.105828E+06 -5.977265E+05 -3.565274E+05 -9.484868E+05 -4.307591E-10 -1.654427E-10
        12  17 -3.002287E+06 -3.511492E+05 -1.395361E+05 -1.116931E+06 -1.373644E-10  2.430026E-10
        12  18 -3.017942E+06 -4.422071E+05 -7.744990E+04 -1.218351E+06 -1.237893E-09  1.077591E-09
        12  19 -3.251344E+06 -8.936415E+05 -4.430464E+05 -1.236143E+06  2.589022E+05  9.484644E+04
        12  20 -3.191871E+06 -4.990133E+05 -2.017172E+05 -1.248080E+06  1.646070E+05  5.559661E+04
        12  21 -3.253002E+06 -4.434345E+05 -1.207032E+05 -1.192962E+06  6.853104E+04  2.107511E+04
        12  22 -3.178572E+06 -7.457154E+05 -3.997231E+05 -1.092320E+06  2.547464E+05  9.335179E+04
        12  23 -3.097070E+06 -4.250827E+05 -1.705985E+05 -1.182508E+06  1.638499E+05  5.532567E+04
        12  24 -3.135478E+06 -4.428217E+05 -9.907128E+04 -1.205654E+06  7.116874E+04  2.205784E+04
        12  25 -3.105758E+06 -5.977004E+05 -3.563928E+05 -9.484682E+05  2.505901E+05  9.185492E+04
        12  26 -3.002257E+06 -3.511387E+05 -1.394801E+05 -1.116924E+06  1.630926E+05  5.505456E+04
        12  27 -3.017936E+06 -4.422050E+05 -7.743861E+04 -1.218350E+06  7.380701E+04  2.304030E+04
        13   1 -3.166956E+06 -5.018017E+05 -9.189080E+04 -1.204963E+06 -5.623427E+04 -1.843993E+04
        13   2 -3.132923E+06 -4.525058E+05 -4.291856E+04 -1.188863E+06 -3.503536E+04 -1.250197E+04
        13   3 -3.096576E+06 -4.427123E+05 -1.608610E+04 -1.183507E+06 -1.374561E+04 -6.800519E+03
        13   4 -3.122641E+06 -4.776403E+05 -7.933458E+04 -1.185030E+06 -5.741076E+04 -1.888173E+04
        13   5 -3.122183E+06 -4.465277E+05 -3.984646E+04 -1.183907E+06 -3.638033E+04 -1.300619E+04
        13   6 -3.119377E+06 -4.548834E+05 -2.236183E+04 -1.193529E+06 -1.526034E+04 -7.368075E+03
        13   7 -3.078325E+06 -4.534779E+05 -6.677854E+04 -1.165095E+06 -5.858734E+04 -1.932360E+04
        13   8 -3.111444E+06 -4.405496E+05 -3.677437E+04 -1.178951E+06 -3.772533E+04 -1.351042E+04
        13   9 -3.142177E+06 -4.670542E+05 -2.863752E+04 -1.203551E+06 -1.677499E+04 -7.935581E+03
        13  10 -3.166959E+06 -5.018030E+05 -9.189742E+04 -1.204964E+06  2.902433E-09  8.056065E-10
        13  11 -3.132924E+06 -4.525063E+05 -4.292118E+04 -1.188864E+06  9.084672E-10  3.408828E-11
        13  12 -3.096576E+06 -4.427124E+05 -1.608655E+04 -1.183507E+06  1.107603E-09  7.824745E-10
        13  13 -3.122645E+06 -4.776416E+05 -7.934149E+04 -1.185030E+06 -1.159931E-09  3.855573E-10
        13  14 -3.122185E+06 -4.465283E+05 -3.984928E+04 -1.183908E+06  1.692905E-10 -3.943110E-10
        13  15 -3.119377E+06 -4.548835E+05 -2.236237E+04 -1.193529E+06  5.662980E-09  1.783899E-10
        13  16 -3.078329E+06 -4.534793E+05 -6.678573E+04 -1.165096E+06 -2.113489E-09  1.707933E-10
        13  17 -3.111445E+06 -4.405502E+05 -3.677740E+04 -1.178952E+06  1.391325E-09 -9.489716E-10
        13  18 -3.142178E+06 -4.670543E+05 -2.863818E+04 -1.203551E+06  3.862582E-09  4.326823E-10
        13  19 -3.166956E+06 -5.018017E+05 -9.189080E+04 -1.204963E+06  5.623427E+04  1.843993E+04
        13  20 -3.132923E+06 -4.525058E+05 -4.291856E+04 -1.188863E+06  3.503536E+04  1.250197E+04
        13  21 -3.096576E+06 -4.427123E+05 -1.608610E+04 -1.183507E+06  1.374561E+04  6.800519E+03
        13  22 -3.122641E+06 -4.776403E+05 -7.933458E+04 -1.185030E+06  5.741076E+04  1.888173E+04
        13  23 -3.122183E+06 -4.465277E+05 -3.984646E+04 -1.183907E+06  3.638033E+04  1.300619E+04
        13  24 -3.119377E+06 -4.548834E+05 -2.236183E+04 -1.193529E+06  1.526034E+04  7.368075E+03
        13  25 -3.078325E+06 -4.534779E+05 -6.677854E+04 -1.165095E+06  5.858734E+04  1.932360E+04
        13  26 -3.111444E+06 -4.405496E+05 -3.677437E+04 -1.178951E+06  3.772533E+04  1.351042E+04
        13  27 -3.142177E+06 -4.670542E+05 -2.863752E+04 -1.203551E+06  1.677499E+04  7.935581E+03
        14   1 -3.056253E+06 -4.344313E+05 -1.502625E+03 -1.175174E+06 -1.021667E+04 -6.858380E+03
        14   2 -3.025528E+06 -4.114002E+05  1.564622E+04 -1.157049E+06 -4.829105E+03 -7.126646E+03
        14   3 -2.981899E+06 -4.045612E+05  2.881864E+04 -1.154933E+06  5.568697E+02 -7.388769E+03
        14   4 -3.118115E+06 -4.573727E+05 -1.715569E+04 -1.191831E+06 -1.165378E+04 -7.397000E+03
        14   5 -3.124448E+06 -4.484640E+05 -9.247120E+03 -1.184128E+06 -6.262390E+03 -7.663968E+03
        14   6 -3.117878E+06 -4.557484E+05 -5.317738E+03 -1.192436E+06 -8.728996E+02 -7.924906E+03
        14   7 -3.179974E+06 -4.803141E+05 -3.280920E+04 -1.208485E+06 -1.309075E+04 -7.935567E+03
        14   8 -3.223359E+06 -4.855274E+05 -3.414143E+04 -1.211203E+06 -7.695434E+03 -8.201200E+03
        14   9 -3.253839E+06 -5.069346E+05 -3.945577E+04 -1.229931E+06 -2.302333E+03 -8.460916E+03
        14  10 -3.056253E+06 -4.344314E+05 -1.502911E+03 -1.175174E+06  4.214842E-09  8.560116E-10
        14  11 -3.025528E+06 -4.114003E+05  1.564608E+04 -1.157049E+06  7.273069E-10 -5.147463E-10
        14  12 -2.981899E+06 -4.045613E+05  2.881854E+04 -1.154933E+06  6.532502E-10 -1.312878E-10
        14  13 -3.118115E+06 -4.573728E+05 -1.715605E+04 -1.191831E+06  4.350491E-09  5.135513E-11
        14  14 -3.124448E+06 -4.484641E+05 -9.247305E+03 -1.184128E+06  1.144496E-09 -5.160169E-10
        14  15 -3.117878E+06 -4.557485E+05 -5.317857E+03 -1.192436E+06  3.422337E-09  1.274697E-10
        14  16 -3.179974E+06 -4.803142E+05 -3.280965E+04 -1.208486E+06  2.242639E-09 -3.333852E-10
        14  17 -3.223359E+06 -4.855275E+05 -3.414167E+04 -1.211203E+06  6.202076E-10 -4.339899E-10
        14  18 -3.253839E+06 -5.069346E+05 -3.945591E+04 -1.229931E+06 -2.244062E-09  2.169135E-10
        14  19 -3.056253E+06 -4.344313E+05 -1.502625E+03 -1.175174E+06  1.021667E+04  6.858380E+03
        14  20 -3.025528E+06 -4.114002E+05  1.564622E+04 -1.157049E+06  4.829105E+03  7.126646E+03
        14  21 -2.981899E+06 -4.045612E+05  2.881864E+04 -1.154933E+06 -5.568697E+02  7.388769E+03
        14  22 -3.118115E+06 -4.573727E+05 -1.715569E+04 -1.191831E+06  1.165378E+04  7.397000E+03
        14  23 -3.124448E+06 -4.484640E+05 -9.247120E+03 -1.184128E+06  6.262390E+03  7.663968E+03
        14  24 -3.117878E+06 -4.557484E+05 -5.317738E+03 -1.192436E+06  8.728996E+02  7.924906E+03
        14  25 -3.179974E+06 -4.803141E+05 -3.280920E+04 -1.208485E+06  1.309075E+04  7.935567E+03
        14  26 -3.223359E+06 -4.855274E+05 -3.414143E+04 -1.211203E+06  7.695434E+03  8.201200E+03
        14  27 -3.253839E+06 -5.069346E+05 -3.945577E+04 -1.229931E+06  2.302333E+03  8.460916E+03
        15   1 -2.946304E+06 -3.915631E+05  3.911763E+04 -1.145276E+06  1.749927E+03 -8.259715E+03
        15   2 -2.917096E+06 -3.711557E+05  4.943184E+04 -1.127601E+06  3.836760E+03 -9.706445E+03
        15   3 -2.874378E+06 -3.646423E+05  5.870008E+04 -1.125656E+06  5.912220E+03 -1.112045E+04
        15   4 -3.117827E+06 -4.557981E+05 -4.174110E+03 -1.192166E+06  3.392519E+02 -8.788824E+03
        15   5 -3.124575E+06 -4.488105E+05 -2.762975E+03 -1.184315E+06  2.448964E+03 -1.022724E+04
        15   6 -3.117819E+06 -4.557218E+05 -2.416192E+03 -1.192196E+06  4.547224E+03 -1.163295E+04
        15   7 -3.289319E+06 -5.200307E+05 -4.746783E+04 -1.239043E+06 -1.070984E+03 -9.317767E+03
        15   8 -3.332011E+06 -5.264622E+05 -5.496106E+04 -1.241012E+06  1.061682E+03 -1.074784E+04
        15   9 -3.361202E+06 -5.467976E+05 -6.353733E+04 -1.258712E+06  3.182812E+03 -1.214523E+04
        15  10 -2.946304E+06 -3.915632E+05  3.911750E+04 -1.145276E+06  8.053103E-09  3.578191E-09
        15  11 -2.917096E+06 -3.711558E+05  4.943164E+04 -1.127601E+06 -2.604782E-09  1.636114E-09
        15  12 -2.874378E+06 -3.646424E+05  5.869978E+04 -1.125656E+06 -8.030843E-09 -2.709864E-09
        15  13 -3.117827E+06 -4.557982E+05 -4.174256E+03 -1.192166E+06 -3.319110E-10  1.179613E-09
        15  14 -3.124575E+06 -4.488106E+05 -2.763182E+03 -1.184315E+06 -5.528166E-10  1.340633E-09
        15  15 -3.117819E+06 -4.557219E+05 -2.416484E+03 -1.192196E+06 -1.729077E-09  3.111669E-10
        15  16 -3.289319E+06 -5.200308E+05 -4.746799E+04 -1.239043E+06 -9.103426E-09 -1.299536E-09
        15  17 -3.332011E+06 -5.264624E+05 -5.496128E+04 -1.241012E+06 -4.880630E-09  1.535295E-09
        15  18 -3.361202E+06 -5.467978E+05 -6.353763E+04 -1.258712E+06  7.131839E-09  2.801141E-09
        15  19 -2.946304E+06 -3.915631E+05  3.911763E+04 -1.145276E+06 -1.749927E+03  8.259715E+03
        15  20 -2.917096E+06 -3.711557E+05  4.943184E+04 -1.127601E+06 -3.836760E+03  9.706445E+03
        15  21 -2.874378E+06 -3.646423E+05  5.870008E+04 -1.125656E+06 -5.912220E+03  1.112045E+04
        15  22 -3.117827E+06 -4.557981E+05 -4.174110E+03 -1.192166E+06 -3.392519E+02  8.788824E+03
        15  23 -3.124575E+06 -4.488105E+05 -2.762975E+03 -1.184315E+06 -2.448964E+03  1.022724E+04
        15  24 -3.117819E+06 -4.557218E+05 -2.416192E+03 -1.192196E+06 -4.547224E+03  1.163295E+04
        15  25 -3.289319E+06 -5.200307E+05 -4.746783E+04 -1.239043E+06  1.070984E+03  9.317767E+03
        15  26 -3.332011E+06 -5.264622E+05 -5.496106E+04 -1.241012E+06 -1.061682E+03  1.074784E+04
        15  27 -3.361202E+06 -5.467976E+05 -6.353733E+04 -1.258712E+06 -3.182812E+03  1.214523E+04
        16   1 -2.840892E+06 -3.518474E+05  6.727974E+04 -1.116304E+06  6.709987E+03 -1.207519E+04
        16   2 -2.813492E+06 -3.327574E+05  7.461530E+04 -1.099654E+06  9.145418E+03 -1.326409E+04
        16   3 -2.773459E+06 -3.267907E+05  8.060538E+04 -1.097754E+06  1.156249E+04 -1.440086E+04
        16   4 -3.118017E+06 -4.555307E+05 -2.557416E+03 -1.191988E+06  5.371101E+03 -1.257810E+04
        16   5 -3.124345E+06 -4.490529E+05 -3.571704E+03 -1.184581E+06  7.842813E+03 -1.375376E+04
        16   6 -3.118049E+06 -4.557060E+05 -5.960727E+03 -1.191925E+06  1.029607E+04 -1.487731E+04
        16   7 -3.395065E+06 -5.592085E+05 -7.240038E+04 -1.267640E+06  4.032877E+03 -1.308076E+04
        16   8 -3.435103E+06 -5.653421E+05 -8.176639E+04 -1.269469E+06  6.540923E+03 -1.424316E+04
        16   9 -3.462524E+06 -5.846142E+05 -9.253664E+04 -1.286049E+06  9.030405E+03 -1.535347E+04
        16  10 -2.840892E+06 -3.518475E+05  6.727938E+04 -1.116304E+06 -2.090958E-09 -1.315776E-09
        16  11 -2.813492E+06 -3.327576E+05  7.461482E+04 -1.099654E+06  1.308319E-09 -9.590853E-11
        16  12 -2.773460E+06 -3.267909E+05  8.060474E+04 -1.097754E+06  2.678419E-09 -4.690023E-10
        16  13 -3.118017E+06 -4.555309E+05 -2.557767E+03 -1.191988E+06 -4.803415E-10 -4.843348E-10
        16  14 -3.124345E+06 -4.490531E+05 -3.572174E+03 -1.184581E+06 -2.557556E-09 -2.751960E-11
        16  15 -3.118050E+06 -4.557063E+05 -5.961341E+03 -1.191925E+06  4.320525E-09 -3.875730E-10
        16  16 -3.395065E+06 -5.592087E+05 -7.240073E+04 -1.267640E+06  2.417780E-09  3.895887E-10
        16  17 -3.435103E+06 -5.653423E+05 -8.176685E+04 -1.269469E+06 -1.391996E-09  3.764204E-10
        16  18 -3.462524E+06 -5.846144E+05 -9.253724E+04 -1.286049E+06 -1.283910E-09 -1.372866E-10
        16  19 -2.840892E+06 -3.518474E+05  6.727974E+04 -1.116304E+06 -6.709987E+03  1.207519E+04
        16  20 -2.813492E+06 -3.327574E+05  7.461530E+04 -1.099654E+06 -9.145418E+03  1.326409E+04
        16  21 -2.773459E+06 -3.267907E+05  8.060538E+04 -1.097754E+06 -1.156249E+04  1.440086E+04
        16  22 -3.118017E+06 -4.555307E+05 -2.557416E+03 -1.191988E+06 -5.371101E+03  1.257810E+04
        16  23 -3.124345E+06 -4.490529E+05 -3.571704E+03 -1.184581E+06 -7.842813E+03  1.375376E+04
        16  24 -3.118049E+06 -4.557060E+05 -5.960727E+03 -1.191925E+06 -1.029607E+04  1.487731E+04
        16  25 -3.395065E+06 -5.592085E+05 -7.240038E+04 -1.267640E+06 -4.032877E+03  1.308076E+04
        16  26 -3.435103E+06 -5.653421E+05 -8.176639E+04 -1.269469E+06 -6.540923E+03  1.424316E+04
        16  27 -3.462524E+06 -5.846142E+05 -9.253664E+04 -1.286049E+06 -9.030405E+03  1.535347E+04
        17   1 -2.742567E+06 -3.149086E+05  8.686389E+04 -1.089526E+06  1.304565E+04 -1.500714E+04
        17   2 -2.717382E+06 -2.970053E+05  8.841201E+04 -1.073798E+06  2.052312E+04 -1.411184E+04
        17   3 -2.682347E+06 -2.937529E+05  8.410131E+04 -1.070989E+06  2.796220E+04 -1.311025E+04
        17   4 -3.118555E+06 -4.552004E+05 -7.758351E+03 -1.191840E+06  1.180394E+04 -1.547457E+04
        17   5 -3.123659E+06 -4.491103E+05 -1.379327E+04 -1.184917E+06  1.935286E+04 -1.455287E+04
        17   6 -3.118930E+06 -4.576875E+05 -2.574671E+04 -1.190915E+06  2.686301E+04 -1.352500E+04
        17   7 -3.494404E+06 -5.954832E+05 -1.023918E+05 -1.294097E+06  1.056305E+04 -1.594169E+04
        17   8 -3.529773E+06 -6.012040E+05 -1.160114E+05 -1.295969E+06  1.818345E+04 -1.499358E+04
        17   9 -3.555322E+06 -6.216087E+05 -1.356094E+05 -1.310763E+06  2.576467E+04 -1.393942E+04
        17  10 -2.742567E+06 -3.149089E+05  8.686314E+04 -1.089526E+06  5.386255E-10 -7.425605E-10
        17  11 -2.717382E+06 -2.970056E+05  8.841084E+04 -1.073797E+06  1.801793E-09  9.443042E-10
        17  12 -2.682348E+06 -2.937533E+05  8.409952E+04 -1.070989E+06  1.282936E-09  2.666507E-10
        17  13 -3.118555E+06 -4.552007E+05 -7.759062E+03 -1.191840E+06  1.217876E-09  2.187243E-10
        17  14 -3.123660E+06 -4.491106E+05 -1.379437E+04 -1.184916E+06  3.644684E-10  1.410692E-09
        17  15 -3.118930E+06 -4.576879E+05 -2.574841E+04 -1.190915E+06  2.269127E-09  2.485198E-10
        17  16 -3.494404E+06 -5.954835E+05 -1.023925E+05 -1.294097E+06  1.643516E-09  1.253432E-09
        17  17 -3.529773E+06 -6.012044E+05 -1.160125E+05 -1.295969E+06  5.069586E-11  1.119075E-09
        17  18 -3.555323E+06 -6.216090E+05 -1.356110E+05 -1.310763E+06  6.251118E-10 -4.157418E-10
        17  19 -2.742567E+06 -3.149086E+05  8.686389E+04 -1.089526E+06 -1.304565E+04  1.500714E+04
        17  20 -2.717382E+06 -2.970053E+05  8.841201E+04 -1.073798E+06 -2.052312E+04  1.411184E+04
        17  21 -2.682347E+06 -2.937529E+05  8.410131E+04 -1.070989E+06 -2.796220E+04  1.311025E+04
        17  22 -3.118555E+06 -4.552004E+05 -7.758351E+03 -1.191840E+06 -1.180394E+04  1.547457E+04
        17  23 -3.123659E+06 -4.491103E+05 -1.379327E+04 -1.184917E+06 -1.935286E+04  1.455287E+04
        17  24 -3.118930E+06 -4.576875E+05 -2.574671E+04 -1.190915E+06 -2.686301E+04  1.352500E+04
        17  25 -3.494404E+06 -5.954832E+05 -1.023918E+05 -1.294097E+06 -1.056305E+04  1.594169E+04
        17  26 -3.529773E+06 -6.012040E+05 -1.160114E+05 -1.295969E+06 -1.818345E+04  1.499358E+04
        17  27 -3.555322E+06 -6.216087E+05 -1.356094E+05 -1.310763E+06 -2.576467E+04  1.393942E+04
        18   1 -2.652587E+06 -2.834294E+05  8.340711E+04 -1.070349E+06  3.327123E+04 -1.225225E+04
        18   2 -2.630709E+06 -2.603005E+05  6.372553E+04 -1.047969E+06  6.380787E+04 -2.308365E+03
        18   3 -2.616411E+06 -2.849799E+05  1.148534E+04 -1.028570E+06  9.401394E+04  8.519328E+03
        18   4 -3.121192E+06 -4.535653E+05 -3.359457E+04 -1.193041E+06  3.197073E+04 -1.274274E+04
        18   5 -3.119816E+06 -4.467062E+05 -5.994973E+04 -1.185127E+06  6.311580E+04 -2.570918E+03
        18   6 -3.126155E+06 -4.877983E+05 -1.193678E+05 -1.180195E+06  9.392904E+04  8.483589E+03
        18   7 -3.589584E+06 -6.236909E+05 -1.506140E+05 -1.315650E+06  3.067130E+04 -1.323286E+04
        18   8 -3.608688E+06 -6.330943E+05 -1.836445E+05 -1.322187E+06  6.242432E+04 -2.833246E+03
        18   9 -3.635642E+06 -6.905906E+05 -2.502423E+05 -1.331703E+06  9.384418E+04  8.447871E+03
        18  10 -2.652588E+06 -2.834299E+05  8.340474E+04 -1.070349E+06 -1.085300E-09 -7.195640E-10
        18  11 -2.630713E+06 -2.603016E+05  6.371784E+04 -1.047969E+06  1.198671E-09  4.832789E-10
        18  12 -2.616421E+06 -2.849824E+05  1.146852E+04 -1.028570E+06  3.335935E-09 -7.304217E-10
        18  13 -3.121194E+06 -4.535658E+05 -3.359680E+04 -1.193040E+06  1.524566E-09 -3.815290E-10
        18  14 -3.119820E+06 -4.467073E+05 -5.995727E+04 -1.185127E+06  4.377728E-09  6.486695E-10
        18  15 -3.126165E+06 -4.878008E+05 -1.193846E+05 -1.180195E+06  1.106685E-09 -1.537548E-10
        18  16 -3.589586E+06 -6.236913E+05 -1.506161E+05 -1.315649E+06  3.037340E-09 -5.676116E-12
        18  17 -3.608692E+06 -6.330953E+05 -1.836519E+05 -1.322187E+06  3.863871E-09  7.177973E-10
        18  18 -3.635652E+06 -6.905930E+05 -2.502591E+05 -1.331704E+06 -1.334141E-09  6.569805E-10
        18  19 -2.652587E+06 -2.834294E+05  8.340711E+04 -1.070349E+06 -3.327123E+04  1.225225E+04
        18  20 -2.630709E+06 -2.603005E+05  6.372553E+04 -1.047969E+06 -6.380787E+04  2.308365E+03
        18  21 -2.616411E+06 -2.849799E+05  1.148534E+04 -1.028570E+06 -9.401394E+04 -8.519328E+03
        18  22 -3.121192E+06 -4.535653E+05 -3.359457E+04 -1.193041E+06 -3.197073E+04  1.274274E+04
        18  23 -3.119816E+06 -4.467062E+05 -5.994973E+04 -1.185127E+06 -6.311580E+04  2.570918E+03
        18  24 -3.126155E+06 -4.877983E+05 -1.193678E+05 -1.180195E+06 -9.392904E+04 -8.483589E+03
        18  25 -3.589584E+06 -6.236909E+05 -1.506140E+05 -1.315650E+06 -3.067130E+04  1.323286E+04
        18  26 -3.608688E+06 -6.330943E+05 -1.836445E+05 -1.322187E+06 -6.242432E+04  2.833246E+03
        18  27 -3.635642E+06 -6.905906E+05 -2.502423E+05 -1.331703E+06 -9.384418E+04 -8.447871E+03
        19   1 -2.555976E+06 -2.794633E+05 -1.297668E+04 -1.116412E+06  1.195950E+05  1.512800E+04
        19   2 -2.560581E+06 -1.609142E+05 -1.141077E+05 -9.807272E+05  2.464222E+05  6.434663E+04
        19   3 -2.756515E+06 -5.353199E+05 -4.431127E+05 -7.285500E+05  3.671845E+05  1.296627E+05
        19   4 -3.145716E+06 -4.351508E+05 -1.490667E+05 -1.210944E+06  1.146286E+05  1.326845E+04
        19   5 -3.081597E+06 -4.149040E+05 -2.567015E+05 -1.183528E+06  2.528434E+05  6.673903E+04
        19   6 -3.211290E+06 -8.902025E+05 -6.014215E+05 -1.039555E+06  3.850032E+05  1.362548E+05
        19   7 -3.735105E+06 -5.908457E+05 -2.851765E+05 -1.305412E+06  1.096674E+05  1.140955E+04
        19   8 -3.602333E+06 -6.688150E+05 -3.993183E+05 -1.386155E+06  2.592586E+05  6.912764E+04
        19   9 -3.665778E+06 -1.244783E+06 -7.597386E+05 -1.350287E+06  4.028076E+05  1.428283E+05
        19  10 -2.555992E+06 -2.794674E+05 -1.300411E+04 -1.116414E+06  1.762151E-09 -1.526016E-09
        19  11 -2.560648E+06 -1.609350E+05 -1.142302E+05 -9.807400E+05 -3.936721E-09 -1.140185E-09
        19  12 -2.756665E+06 -5.353744E+05 -4.433990E+05 -7.285885E+05 -1.926772E-09 -9.907777E-10
        19  13 -3.145730E+06 -4.351545E+05 -1.490919E+05 -1.210945E+06 -1.190024E-11 -3.550114E-10
        19  14 -3.081667E+06 -4.149261E+05 -2.568307E+05 -1.183542E+06 -3.515266E-09  9.315276E-11
        19  15 -3.211455E+06 -8.902626E+05 -6.017367E+05 -1.039597E+06  1.086395E-09 -1.082098E-09
        19  16 -3.735118E+06 -5.908491E+05 -2.851995E+05 -1.305413E+06 -4.480808E-09 -1.913274E-10
        19  17 -3.602407E+06 -6.688383E+05 -3.994545E+05 -1.386170E+06 -3.597318E-09 -8.151014E-10
        19  18 -3.665959E+06 -1.244849E+06 -7.600842E+05 -1.350334E+06  5.147673E-10 -1.229150E-10
        19  19 -2.555976E+06 -2.794633E+05 -1.297668E+04 -1.116412E+06 -1.195950E+05 -1.512800E+04
        19  20 -2.560581E+06 -1.609142E+05 -1.141077E+05 -9.807272E+05 -2.464222E+05 -6.434663E+04
        19  21 -2.756515E+06 -5.353199E+05 -4.431127E+05 -7.285500E+05 -3.671845E+05 -1.296627E+05
        19  22 -3.145716E+06 -4.351508E+05 -1.490667E+05 -1.210944E+06 -1.146286E+05 -1.326845E+04
        19  23 -3.081597E+06 -4.149040E+05 -2.567015E+05 -1.183528E+06 -2.528434E+05 -6.673903E+04
        19  24 -3.211290E+06 -8.902025E+05 -6.014215E+05 -1.039555E+06 -3.850032E+05 -1.362548E+05
        19  25 -3.735105E+06 -5.908457E+05 -2.851765E+05 -1.305412E+06 -1.096674E+05 -1.140955E+04
        19  26 -3.602333E+06 -6.688150E+05 -3.993183E+05 -1.386155E+06 -2.592586E+05 -6.912764E+04
        19  27 -3.665778E+06 -1.244783E+06 -7.597386E+05 -1.350287E+06 -4.028076E+05 -1.428283E+05
        20   1 -8.727585E+05  3.532221E+04  4.317948E+04  1.510054E+04  2.960975E+04  7.211741E-01
        20   2 -8.780804E+05 -1.848317E+03  1.939028E+04  4.942564E+03  1.927374E+04  1.536501E-01
        20   3 -8.727751E+05 -1.914406E+03  1.161370E+04 -5.215159E+03  8.937866E+03 -7.518169E-02
        20   4 -8.727588E+05  3.532178E+04  4.317941E+04  5.449915E-09  2.960975E+04  3.652569E-10
        20   5 -8.780805E+05 -1.848363E+03  1.939027E+04 -7.003802E-09  1.927374E+04  9.744167E-10
        20   6 -8.727751E+05 -1.914457E+03  1.161369E+04 -2.773579E-09  8.937866E+03  1.867040E-10
        20   7 -8.727585E+05  3.532221E+04  4.317948E+04 -1.510054E+04  2.960975E+04 -7.211741E-01
        20   8 -8.780804E+05 -1.848317E+03  1.939028E+04 -4.942564E+03  1.927374E+04 -1.536501E-01
        20   9 -8.727751E+05 -1.914406E+03  1.161370E+04  5.215159E+03  8.937866E+03  7.518170E-02
        20  10 -8.727595E+05  3.532197E+04  4.317783E+04  1.510054E+04 -5.743380E-10  3.501627E-10
        20  11 -8.780808E+05 -1.848417E+03  1.938958E+04  4.942564E+03 -2.163535E-09  7.458365E-10
        20  12 -8.727752E+05 -1.914427E+03  1.161355E+04 -5.215159E+03 -8.173345E-10  3.536305E-10
        20  13 -8.727597E+05  3.532154E+04  4.317776E+04  5.557107E-09  1.122657E-09  2.439640E-10
        20  14 -8.780809E+05 -1.848463E+03  1.938957E+04  4.864872E-09  1.614916E-09  7.065013E-10
        20  15 -8.727752E+05 -1.914478E+03  1.161354E+04 -4.431554E-09  4.603778E-10  5.392609E-10
        20  16 -8.727595E+05  3.532197E+04  4.317783E+04 -1.510054E+04  4.402226E-10  1.495622E-10
        20  17 -8.780808E+05 -1.848417E+03  1.938958E+04 -4.942564E+03  1.804488E-09  4.795446E-10
        20  18 -8.727752E+05 -1.914427E+03  1.161355E+04  5.215159E+03 -2.130453E-11  6.953328E-10
        20  19 -8.727585E+05  3.532221E+04  4.317948E+04  1.510054E+04 -2.960975E+04 -7.211741E-01
        20  20 -8.780804E+05 -1.848317E+03  1.939028E+04  4.942564E+03 -1.927374E+04 -1.536501E-01
        20  21 -8.727751E+05 -1.914406E+03  1.161370E+04 -5.215159E+03 -8.937866E+03  7.518170E-02
        20  22 -8.727588E+05  3.532178E+04  4.317941E+04  1.426035E-08 -2.960975E+04  6.769579E-11
        20  23 -8.780805E+05 -1.848363E+03  1.939027E+04  1.242407E-08 -1.927374E+04  4.021004E-10
        20  24 -8.727751E+05 -1.914457E+03  1.161369E+04  6.008427E-09 -8.937866E+03  8.722848E-10
        20  25 -8.727585E+05  3.532221E+04  4.317948E+04 -1.510054E+04 -2.960975E+04  7.211741E-01
        20  26 -8.780804E+05 -1.848317E+03  1.939028E+04 -4.942564E+03 -1.927374E+04  1.536501E-01
        20  27 -8.727751E+05 -1.914406E+03  1.161370E+04  5.215159E+03 -8.937866E+03 -7.518169E-02
        21   1 -8.749147E+05  2.441437E+03  9.318194E+03  8.407673E+02  7.241781E+03  9.820498E-03
        21   2 -8.754086E+05 -1.690695E+02  4.947786E+03  2.064170E+02  4.744742E+03  1.579685E-03
        21   3 -8.749168E+05 -1.406313E+02  2.864580E+03 -4.279436E+02  2.247673E+03 -1.551428E-03
        21   4 -8.749147E+05  2.441436E+03  9.318194E+03 -7.314874E-10  7.241781E+03  8.423334E-11
        21   5 -8.754086E+05 -1.690695E+02  4.947786E+03 -2.868438E-09  4.744742E+03  5.043063E-10
        21   6 -8.749168E+05 -1.406317E+02  2.864580E+03 -4.277760E-10  2.247673E+03 -1.898013E-10
        21   7 -8.749147E+05  2.441437E+03  9.318194E+03 -8.407673E+02  7.241781E+03 -9.820497E-03
        21   8 -8.754086E+05 -1.690695E+02  4.947786E+03 -2.064170E+02  4.744742E+03 -1.579685E-03
        21   9 -8.749168E+05 -1.406313E+02  2.864580E+03  4.279436E+02  2.247673E+03  1.551428E-03
        21  10 -8.749147E+05  2.441423E+03  9.318096E+03  8.407673E+02 -5.350025E-10  1.995855E-10
        21  11 -8.754086E+05 -1.690755E+02  4.947744E+03  2.064170E+02  2.886293E-10  3.879963E-10
        21  12 -8.749168E+05 -1.406327E+02  2.864571E+03 -4.279436E+02 -2.707428E-10 -7.292410E-10
        21  13 -8.749147E+05  2.441422E+03  9.318096E+03 -5.042062E-09 -1.969587E-09  4.035355E-10
        21  14 -8.754086E+05 -1.690756E+02  4.947744E+03 -7.888250E-10 -1.393384E-09  1.648950E-10
        21  15 -8.749168E+05 -1.406330E+02  2.864571E+03  8.315387E-09  9.954534E-10 -5.304045E-10
        21  16 -8.749147E+05  2.441423E+03  9.318096E+03 -8.407673E+02 -2.011442E-11  5.124293E-10
        21  17 -8.754086E+05 -1.690755E+02  4.947744E+03 -2.064170E+02  1.506747E-10 -4.563742E-11
        21  18 -8.749168E+05 -1.406327E+02  2.864571E+03  4.279436E+02  2.303466E-09 -3.159883E-10
        21  19 -8.749147E+05  2.441437E+03  9.318194E+03  8.407673E+02 -7.241781E+03 -9.820497E-03
        21  20 -8.754086E+05 -1.690695E+02  4.947786E+03  2.064170E+02 -4.744742E+03 -1.579684E-03
        21  21 -8.749168E+05 -1.406313E+02  2.864580E+03 -4.279436E+02 -2.247673E+03  1.551427E-03
        21  22 -8.749147E+05  2.441436E+03  9.318194E+03  3.575929E-09 -7.241781E+03  7.212984E-10
        21  23 -8.754086E+05 -1.690695E+02  4.947786E+03 -3.011374E-09 -4.744742E+03 -1.796832E-10
        21  24 -8.749168E+05 -1.406317E+02  2.864580E+03  1.003022E-08 -2.247673E+03 -8.723731E-10
        21  25 -8.749147E+05  2.441437E+03  9.318194E+03 -8.407673E+02 -7.241781E+03  9.820498E-03
        21  26 -8.754086E+05 -1.690695E+02  4.947786E+03 -2.064170E+02 -4.744742E+03  1.579684E-03
        21  27 -8.749168E+05 -1.406313E+02  2.864580E+03  4.279436E+02 -2.247673E+03 -1.551429E-03
        22   1 -8.751078E+05  1.567733E+02  2.198615E+03  1.733938E+00  1.802741E+03  5.040594E-06
        22   2 -8.751708E+05 -2.109805E+01  1.210809E+03 -2.233771E+01  1.201075E+03 -4.327368E-05
        22   3 -8.751082E+05 -1.073157E+01  6.621904E+02 -4.640937E+01  5.994086E+02 -4.486639E-05
        22   4 -8.751078E+05  1.567733E+02  2.198615E+03  2.013581E-09  1.802741E+03 -5.910367E-10
        22   5 -8.751708E+05 -2.109805E+01  1.210809E+03 -9.111213E-09  1.201075E+03 -7.293896E-11
        22   6 -8.751082E+05 -1.073157E+01  6.621904E+02 -3.242739E-10  5.994086E+02  1.329861E-09
        22   7 -8.751078E+05  1.567733E+02  2.198615E+03 -1.733938E+00  1.802741E+03 -5.041790E-06
        22   8 -8.751708E+05 -2.109805E+01  1.210809E+03  2.233771E+01  1.201075E+03  4.327326E-05
        22   9 -8.751082E+05 -1.073157E+01  6.621904E+02  4.640937E+01  5.994086E+02  4.486915E-05
        22  10 -8.751078E+05  1.567724E+02  2.198609E+03  1.733938E+00 -1.895084E-09 -1.083286E-09
        22  11 -8.751708E+05 -2.109844E+01  1.210807E+03 -2.233771E+01 -3.449591E-09 -2.434579E-11
        22  12 -8.751082E+05 -1.073166E+01  6.621897E+02 -4.640937E+01 -6.585430E-10  6.612379E-10
        22  13 -8.751078E+05  1.567724E+02  2.198609E+03  1.079344E-08  1.093412E-09 -4.875495E-10
        22  14 -8.751708E+05 -2.109844E+01  1.210807E+03  1.702021E-09 -3.009686E-10  1.762790E-10
        22  15 -8.751082E+05 -1.073167E+01  6.621897E+02  4.985127E-09 -5.557862E-10  1.089315E-10
        22  16 -8.751078E+05  1.567724E+02  2.198609E+03 -1.733938E+00  1.325639E-09  8.103615E-11
        22  17 -8.751708E+05 -2.109844E+01  1.210807E+03  2.233771E+01  4.889537E-10  3.899444E-10
        22  18 -8.751082E+05 -1.073166E+01  6.621897E+02  4.640937E+01  1.103662E-09 -4.695394E-10
        22  19 -8.751078E+05  1.567733E+02  2.198615E+03  1.733938E+00 -1.802741E+03 -5.042644E-06
        22  20 -8.751708E+05 -2.109805E+01  1.210809E+03 -2.233771E+01 -1.201075E+03  4.327376E-05
        22  21 -8.751082E+05 -1.073157E+01  6.621904E+02 -4.640937E+01 -5.994086E+02  4.486782E-05
        22  22 -8.751078E+05  1.567733E+02  2.198615E+03  1.095739E-08 -1.802741E+03 -3.905697E-10
        22  23 -8.751708E+05 -2.109805E+01  1.210809E+03 -4.091276E-10 -1.201075E+03  4.744580E-10
        22  24 -8.751082E+05 -1.073157E+01  6.621904E+02  8.676485E-09 -5.994086E+02 -1.123468E-09
        22  25 -8.751078E+05  1.567733E+02  2.198615E+03 -1.733938E+00 -1.802741E+03  5.041828E-06
        22  26 -8.751708E+05 -2.109805E+01  1.210809E+03  2.233771E+01 -1.201075E+03 -4.327270E-05
        22  27 -8.751082E+05 -1.073157E+01  6.621904E+02  4.640937E+01 -5.994086E+02 -4.487001E-05
        23   1 -8.751327E+05  7.228301E+00  4.746692E+02 -1.622007E+01  4.972827E+02 -1.300810E-05
        23   2 -8.751404E+05 -2.527496E+00  1.893991E+02 -1.499032E+01  4.035268E+02 -9.757499E-06
        23   3 -8.751329E+05 -2.639310E-01 -3.176519E+01 -1.376060E+01  3.097723E+02 -6.875762E-06
        23   4 -8.751327E+05  7.228300E+00  4.746692E+02  2.798071E-08  4.972827E+02  9.953822E-10
        23   5 -8.751404E+05 -2.527497E+00  1.893991E+02 -3.392132E-09  4.035268E+02 -8.279843E-10
        23   6 -8.751329E+05 -2.639313E-01 -3.176519E+01 -2.078922E-08  3.097723E+02 -8.201223E-10
        23   7 -8.751327E+05  7.228301E+00  4.746692E+02  1.622007E+01  4.972827E+02  1.301021E-05
        23   8 -8.751404E+05 -2.527496E+00  1.893991E+02  1.499032E+01  4.035268E+02  9.755668E-06
        23   9 -8.751329E+05 -2.639310E-01 -3.176519E+01  1.376060E+01  3.097723E+02  6.874328E-06
        23  10 -8.751327E+05  7.228234E+00  4.746687E+02 -1.622007E+01 -9.617615E-09  5.657567E-10
        23  11 -8.751404E+05 -2.527540E+00  1.893988E+02 -1.499032E+01  2.485311E-09 -1.799160E-10
        23  12 -8.751329E+05 -2.639568E-01 -3.176537E+01 -1.376060E+01  9.030913E-09 -1.258039E-09
        23  13 -8.751327E+05  7.228234E+00  4.746687E+02 -1.049368E-08 -1.268405E-09  9.951771E-11
        23  14 -8.751404E+05 -2.527541E+00  1.893988E+02  5.101861E-09  1.581775E-10 -7.520136E-11
        23  15 -8.751329E+05 -2.639571E-01 -3.176537E+01  1.314498E-09  2.182404E-10 -1.431091E-09
        23  16 -8.751327E+05  7.228234E+00  4.746687E+02  1.622007E+01  7.134754E-09 -4.259553E-10
        23  17 -8.751404E+05 -2.527540E+00  1.893988E+02  1.499032E+01  9.100053E-11 -3.852235E-11
        23  18 -8.751329E+05 -2.639568E-01 -3.176537E+01  1.376060E+01 -9.916406E-09 -1.668520E-09
        23  19 -8.751327E+05  7.228301E+00  4.746692E+02 -1.622007E+01 -4.972827E+02  1.300940E-05
        23  20 -8.751404E+05 -2.527496E+00  1.893991E+02 -1.499032E+01 -4.035268E+02  9.757195E-06
        23  21 -8.751329E+05 -2.639310E-01 -3.176519E+01 -1.376060E+01 -3.097723E+02  6.873550E-06
        23  22 -8.751327E+05  7.228300E+00  4.746692E+02 -3.173309E-08 -4.972827E+02 -8.080730E-10
        23  23 -8.751404E+05 -2.527497E+00  1.893991E+02  3.911760E-09 -4.035268E+02  6.143426E-10
        23  24 -8.751329E+05 -2.639313E-01 -3.176519E+01  3.200890E-08 -3.097723E+02 -2.050610E-09
        23  25 -8.751327E+05  7.228301E+00  4.746692E+02  1.622007E+01 -4.972827E+02 -1.301110E-05
        23  26 -8.751404E+05 -2.527496E+00  1.893991E+02  1.499032E+01 -4.035268E+02 -9.755859E-06
        23  27 -8.751329E+05 -2.639310E-01 -3.176519E+01  1.376060E+01 -3.097723E+02 -6.877632E-06
        24   1 -8.751432E+05  1.165959E+00 -1.414140E+02 -1.494710E+01  3.254449E+02 -7.846104E-06
        24   2 -8.751277E+05  5.145996E+00 -4.035890E+02 -1.913183E+01  5.251152E+02 -1.620387E-05
        24   3 -8.751433E+05 -1.102960E+01 -8.009319E+02 -2.331662E+01  7.247883E+02 -2.725602E-05
        24   4 -8.751432E+05  1.165959E+00 -1.414140E+02  5.521207E-09  3.254449E+02 -4.567260E-10
        24   5 -8.751277E+05  5.145995E+00 -4.035890E+02  2.419470E-09  5.251152E+02  5.264719E-11
        24   6 -8.751433E+05 -1.102960E+01 -8.009319E+02  5.775199E-09  7.247883E+02  1.194495E-09
        24   7 -8.751432E+05  1.165959E+00 -1.414140E+02  1.494710E+01  3.254449E+02  7.845233E-06
        24   8 -8.751277E+05  5.145996E+00 -4.035890E+02  1.913183E+01  5.251152E+02  1.620375E-05
        24   9 -8.751433E+05 -1.102960E+01 -8.009319E+02  2.331662E+01  7.247883E+02  2.725853E-05
        24  10 -8.751432E+05  1.165931E+00 -1.414142E+02 -1.494710E+01 -5.298208E-10 -7.286674E-10
        24  11 -8.751277E+05  5.145922E+00 -4.035895E+02 -1.913183E+01  5.413470E-12  9.542838E-10
        24  12 -8.751433E+05 -1.102974E+01 -8.009329E+02 -2.331662E+01  7.529068E-10  9.443797E-10
        24  13 -8.751432E+05  1.165931E+00 -1.414142E+02 -6.949153E-09  2.522378E-11 -1.045785E-09
        24  14 -8.751277E+05  5.145921E+00 -4.035895E+02 -9.308513E-09 -1.852122E-09  8.483401E-10
        24  15 -8.751433E+05 -1.102974E+01 -8.009329E+02  7.712934E-09 -4.283247E-09  5.246709E-10
        24  16 -8.751432E+05  1.165931E+00 -1.414142E+02  1.494710E+01  1.538804E-10 -1.367465E-09
        24  17 -8.751277E+05  5.145922E+00 -4.035895E+02  1.913183E+01  1.527405E-10  7.124467E-10
        24  18 -8.751433E+05 -1.102974E+01 -8.009329E+02  2.331662E+01 -1.736144E-09  1.636231E-10
        24  19 -8.751432E+05  1.165959E+00 -1.414140E+02 -1.494710E+01 -3.254449E+02  7.844764E-06
        24  20 -8.751277E+05  5.145996E+00 -4.035890E+02 -1.913183E+01 -5.251152E+02  1.620595E-05
        24  21 -8.751433E+05 -1.102960E+01 -8.009319E+02 -2.331662E+01 -7.247883E+02  2.725785E-05
        24  22 -8.751432E+05  1.165959E+00 -1.414140E+02 -1.727473E-08 -3.254449E+02 -1.652479E-09
        24  23 -8.751277E+05  5.145995E+00 -4.035890E+02 -5.964172E-09 -5.251152E+02  1.700136E-09
        24  24 -8.751433E+05 -1.102960E+01 -8.009319E+02  3.184796E-09 -7.247883E+02 -1.592697E-10
        24  25 -8.751432E+05  1.165959E+00 -1.414140E+02  1.494710E+01 -3.254449E+02 -7.848051E-06
        24  26 -8.751277E+05  5.145996E+00 -4.035890E+02  1.913183E+01 -5.251152E+02 -1.620261E-05
        24  27 -8.751433E+05 -1.102960E+01 -8.009319E+02  2.331662E+01 -7.247883E+02 -2.725828E-05
        25   1 -8.751802E+05  1.711273E+01 -1.077470E+03 -7.048877E+01  8.936193E+02 -1.015964E-04
        25   2 -8.750820E+05  3.311434E+01 -1.910641E+03 -3.367124E+01  1.842964E+03 -1.000896E-04
        25   3 -8.751808E+05 -2.438499E+02 -3.435766E+03  3.146318E+00  2.792308E+03  1.417005E-05
        25   4 -8.751802E+05  1.711272E+01 -1.077470E+03  4.329327E-09  8.936193E+02  1.033388E-09
        25   5 -8.750820E+05  3.311434E+01 -1.910641E+03  2.888417E-09  1.842964E+03 -2.701156E-10
        25   6 -8.751808E+05 -2.438499E+02 -3.435766E+03  1.355816E-08  2.792308E+03 -2.231447E-10
        25   7 -8.751802E+05  1.711273E+01 -1.077470E+03  7.048877E+01  8.936193E+02  1.015985E-04
        25   8 -8.750820E+05  3.311434E+01 -1.910641E+03  3.367124E+01  1.842964E+03  1.000889E-04
        25   9 -8.751808E+05 -2.438499E+02 -3.435766E+03 -3.146318E+00  2.792308E+03 -1.417052E-05
        25  10 -8.751802E+05  1.711251E+01 -1.077472E+03 -7.048877E+01 -4.823995E-10  5.267075E-10
        25  11 -8.750820E+05  3.311342E+01 -1.910647E+03 -3.367124E+01  3.336792E-09  2.330058E-10
        25  12 -8.751808E+05 -2.438520E+02 -3.435781E+03  3.146318E+00  6.140287E-10 -3.675794E-10
        25  13 -8.751802E+05  1.711250E+01 -1.077472E+03  6.532963E-09 -1.986687E-09  1.234507E-10
        25  14 -8.750820E+05  3.311342E+01 -1.910647E+03  5.019538E-09 -2.849574E-09  2.053347E-10
        25  15 -8.751808E+05 -2.438520E+02 -3.435781E+03  8.146214E-10 -2.553064E-09 -2.653112E-10
        25  16 -8.751802E+05  1.711251E+01 -1.077472E+03  7.048877E+01 -1.231607E-10 -2.255769E-10
        25  17 -8.750820E+05  3.311342E+01 -1.910647E+03  3.367124E+01 -1.674867E-09  1.970966E-10
        25  18 -8.751808E+05 -2.438520E+02 -3.435781E+03 -3.146318E+00 -1.136534E-09 -1.461340E-10
        25  19 -8.751802E+05  1.711273E+01 -1.077470E+03 -7.048877E+01 -8.936193E+02  1.015976E-04
        25  20 -8.750820E+05  3.311434E+01 -1.910641E+03 -3.367124E+01 -1.842964E+03  1.000902E-04
        25  21 -8.751808E+05 -2.438499E+02 -3.435766E+03  3.146318E+00 -2.792308E+03 -1.417066E-05
        25  22 -8.751802E+05  1.711272E+01 -1.077470E+03  1.164850E-10 -8.936193E+02 -7.952248E-10
        25  23 -8.750820E+05  3.311434E+01 -1.910641E+03 -3.907659E-10 -1.842964E+03  6.820187E-10
        25  24 -8.751808E+05 -2.438499E+02 -3.435766E+03  4.752012E-09 -2.792308E+03 -3.043636E-10
        25  25 -8.751802E+05  1.711273E+01 -1.077470E+03  7.048877E+01 -8.936193E+02 -1.015991E-04
        25  26 -8.750820E+05  3.311434E+01 -1.910641E+03  3.367124E+01 -1.842964E+03 -1.000889E-04
        25  27 -8.751808E+05 -2.438499E+02 -3.435766E+03 -3.146318E+00 -2.792308E+03  1.416996E-05
        26   1 -8.754776E+05  2.189061E+02 -4.467976E+03 -6.653167E+02  3.486928E+03 -3.741825E-03
        26   2 -8.747124E+05  2.631015E+02 -7.703528E+03  3.214039E+02  7.374824E+03  3.823090E-03
        26   3 -8.754809E+05 -3.798118E+03 -1.449922E+04  1.308112E+03  1.126265E+04  2.376277E-02
        26   4 -8.754776E+05  2.189052E+02 -4.467976E+03  9.582662E-09  3.486928E+03  3.825543E-10
        26   5 -8.747124E+05  2.631013E+02 -7.703528E+03  5.016315E-09  7.374824E+03  7.253376E-10
        26   6 -8.754809E+05 -3.798121E+03 -1.449922E+04  8.538096E-09  1.126265E+04 -1.302337E-10
        26   7 -8.754776E+05  2.189061E+02 -4.467976E+03  6.653167E+02  3.486928E+03  3.741826E-03
        26   8 -8.747124E+05  2.631015E+02 -7.703528E+03 -3.214039E+02  7.374824E+03 -3.823089E-03
        26   9 -8.754809E+05 -3.798118E+03 -1.449922E+04 -1.308112E+03  1.126265E+04 -2.376277E-02
        26  10 -8.754777E+05  2.189028E+02 -4.467999E+03 -6.653167E+02 -3.578098E-10  4.807395E-11
        26  11 -8.747125E+05  2.630869E+02 -7.703630E+03  3.214039E+02  8.948046E-10  9.204831E-10
        26  12 -8.754810E+05 -3.798152E+03 -1.449946E+04  1.308112E+03  1.858722E-09 -8.768130E-10
        26  13 -8.754777E+05  2.189020E+02 -4.467999E+03  1.192188E-08 -2.060694E-09 -7.037089E-11
        26  14 -8.747125E+05  2.630867E+02 -7.703630E+03  8.231391E-09  8.623482E-10  5.448851E-10
        26  15 -8.754810E+05 -3.798155E+03 -1.449946E+04  1.847294E-09  1.737005E-10 -2.259367E-10
        26  16 -8.754777E+05  2.189028E+02 -4.467999E+03  6.653167E+02  8.540653E-10 -1.736869E-10
        26  17 -8.747125E+05  2.630869E+02 -7.703630E+03 -3.214039E+02 -2.247583E-09  1.882679E-10
        26  18 -8.754810E+05 -3.798152E+03 -1.449946E+04 -1.308112E+03 -1.722859E-09  4.281262E-10
        26  19 -8.754776E+05  2.189061E+02 -4.467976E+03 -6.653167E+02 -3.486928E+03  3.741826E-03
        26  20 -8.747124E+05  2.631015E+02 -7.703528E+03  3.214039E+02 -7.374824E+03 -3.823088E-03
        26  21 -8.754809E+05 -3.798118E+03 -1.449922E+04  1.308112E+03 -1.126265E+04 -2.376277E-02
        26  22 -8.754776E+05  2.189052E+02 -4.467976E+03  1.425900E-08 -3.486928E+03 -5.410914E-10
        26  23 -8.747124E+05  2.631013E+02 -7.703528E+03  6.836412E-10 -7.374824E+03  3.254076E-10
        26  24 -8.754809E+05 -3.798121E+03 -1.449922E+04  3.796599E-09 -1.126265E+04 -3.551653E-10
        26  25 -8.754776E+05  2.189061E+02 -4.467976E+03  6.653167E+02 -3.486928E+03 -3.741827E-03
        26  26 -8.747124E+05  2.631015E+02 -7.703528E+03 -3.214039E+02 -7.374824E+03  3.823089E-03
        26  27 -8.754809E+05 -3.798118E+03 -1.449922E+04 -1.308112E+03 -1.126265E+04  2.376277E-02
        27   1 -8.788090E+05  2.978531E+03 -1.806884E+04 -8.113075E+03  1.390147E+04 -1.819116E-01
        27   2 -8.705555E+05  2.875602E+03 -3.016274E+04  7.689412E+03  2.998175E+04  3.718419E-01
        27   3 -8.788331E+05 -5.494776E+04 -6.716572E+04  2.349187E+04  4.606233E+04  1.745318E+00
        27   4 -8.788091E+05  2.978408E+03 -1.806886E+04  7.180404E-09  1.390147E+04 -5.734006E-10
        27   5 -8.705556E+05  2.875490E+03 -3.016276E+04 -4.097478E-09  2.998175E+04 -3.912168E-10
        27   6 -8.788337E+05 -5.494880E+04 -6.716587E+04  1.208207E-08  4.606233E+04 -1.651956E-10
        27   7 -8.788090E+05  2.978531E+03 -1.806884E+04  8.113075E+03  1.390147E+04  1.819116E-01
        27   8 -8.705555E+05  2.875602E+03 -3.016274E+04 -7.689412E+03  2.998175E+04 -3.718419E-01
        27   9 -8.788331E+05 -5.494776E+04 -6.716572E+04 -2.349187E+04  4.606233E+04 -1.745318E+00
        27  10 -8.788092E+05  2.978479E+03 -1.806921E+04 -8.113075E+03 -1.209090E-09 -1.418292E-09
        27  11 -8.705565E+05  2.875360E+03 -3.016443E+04  7.689412E+03  1.458290E-10 -3.173106E-10
        27  12 -8.788354E+05 -5.494833E+04 -6.716971E+04  2.349187E+04 -7.358771E-10  1.211274E-11
        27  13 -8.788093E+05  2.978356E+03 -1.806923E+04 -1.417701E-09 -3.463325E-10 -6.791928E-10
        27  14 -8.705565E+05  2.875249E+03 -3.016445E+04  2.405295E-09 -2.083906E-09 -5.055396E-10
        27  15 -8.788360E+05 -5.494937E+04 -6.716986E+04  5.689898E-09  4.343891E-10 -1.320330E-10
        27  16 -8.788092E+05  2.978479E+03 -1.806921E+04  8.113075E+03 -1.708459E-09  2.956199E-11
        27  17 -8.705565E+05  2.875360E+03 -3.016443E+04 -7.689412E+03  1.160797E-09 -6.552499E-10
        27  18 -8.788354E+05 -5.494833E+04 -6.716971E+04 -2.349187E+04  7.982488E-10 -2.886975E-10
        27  19 -8.788090E+05  2.978531E+03 -1.806884E+04 -8.113075E+03 -1.390147E+04  1.819116E-01
        27  20 -8.705555E+05  2.875602E+03 -3.016274E+04  7.689412E+03 -2.998175E+04 -3.718419E-01
        27  21 -8.788331E+05 -5.494776E+04 -6.716572E+04  2.349187E+04 -4.606233E+04 -1.745318E+00
        27  22 -8.788091E+05  2.978408E+03 -1.806886E+04  5.069253E-09 -1.390147E+04 -7.871103E-10
        27  23 -8.705556E+05  2.875490E+03 -3.016276E+04  2.909728E-10 -2.998175E+04 -5.923988E-10
        27  24 -8.788337E+05 -5.494880E+04 -6.716587E+04  7.902957E-09 -4.606233E+04 -9.170503E-11
        27  25 -8.788090E+05  2.978531E+03 -1.806884E+04  8.113075E+03 -1.390147E+04 -1.819116E-01
        27  26 -8.705555E+05  2.875602E+03 -3.016274E+04 -7.689412E+03 -2.998175E+04  3.718419E-01
        27  27 -8.788331E+05 -5.494776E+04 -6.716572E+04 -2.349187E+04 -4.606233E+04  1.745318E+00
        28   1  6.172194E+05  1.953910E+06  6.769533E+05 -2.080221E+05  1.575774E+04  2.768360E+05
        28   2  2.717083E+05  1.767445E+06  4.335043E+05 -9.056305E+04  4.853715E+04  1.625380E+05
        28   3  2.380113E+05  1.674275E+06  3.423904E+05 -4.037323E+04  4.758214E+04  4.825775E+04
        28   4  2.912721E+05  6.420687E+05  3.574372E+05 -8.240411E+04  1.582658E+04  2.383603E+05
        28   5 -1.554046E+04  5.976903E+05  1.658027E+05 -4.886147E+04  4.856313E+04  1.501851E+05
        28   6 -1.476808E+04  6.422356E+05  1.085835E+05 -8.257012E+04  4.756777E+04  6.199776E+04
        28   7 -3.474207E+04 -6.681700E+05  3.781008E+04  4.294871E+04  1.588001E+04  1.999651E+05
        28   8 -3.028777E+05 -5.707956E+05 -1.019871E+05 -7.238668E+03  4.858750E+04  1.378551E+05
        28   9 -2.676138E+05 -3.888126E+05 -1.252903E+05 -1.246960E+05  4.755153E+04  7.571512E+04
        28  10  6.171987E+05  1.953828E+06  6.768093E+05 -2.080257E+05 -7.085030E-12  1.259925E-09
        28  11  2.716987E+05  1.767416E+06  4.334503E+05 -9.056940E+04 -2.375372E-09  4.396774E-10
        28  12  2.380082E+05  1.674272E+06  3.423818E+05 -4.037508E+04 -1.446411E-09 -9.578186E-10
        28  13  2.912566E+05  6.420077E+05  3.573300E+05 -8.240715E+04  5.203236E-10  7.036290E-11
        28  14 -1.554904E+04  5.976655E+05  1.657560E+05 -4.886734E+04 -1.090654E-09 -1.988017E-10
        28  15 -1.477154E+04  6.422309E+05  1.085720E+05 -8.257249E+04  6.759014E-10  3.570152E-10
        28  16 -3.475308E+04 -6.682130E+05  3.773439E+04  4.294615E+04  1.000317E-09 -1.290524E-09
        28  17 -3.028854E+05 -5.708167E+05 -1.020273E+05 -7.244064E+03  1.576323E-09 -7.912919E-10
        28  18 -2.676178E+05 -3.888193E+05 -1.253054E+05 -1.246989E+05  1.357990E-09  1.227798E-09
        28  19  6.172194E+05  1.953910E+06  6.769533E+05 -2.080221E+05 -1.575774E+04 -2.768360E+05
        28  20  2.717083E+05  1.767445E+06  4.335043E+05 -9.056305E+04 -4.853715E+04 -1.625380E+05
        28  21  2.380113E+05  1.674275E+06  3.423904E+05 -4.037323E+04 -4.758214E+04 -4.825775E+04
        28  22  2.912721E+05  6.420687E+05  3.574372E+05 -8.240411E+04 -1.582658E+04 -2.383603E+05
        28  23 -1.554046E+04  5.976903E+05  1.658027E+05 -4.886147E+04 -4.856313E+04 -1.501851E+05
        28  24 -1.476808E+04  6.422356E+05  1.085835E+05 -8.257012E+04 -4.756777E+04 -6.199776E+04
        28  25 -3.474207E+04 -6.681700E+05  3.781008E+04  4.294871E+04 -1.588001E+04 -1.999651E+05
        28  26 -3.028777E+05 -5.707956E+05 -1.019871E+05 -7.238668E+03 -4.858750E+04 -1.378551E+05
        28  27 -2.676138E+05 -3.888126E+05 -1.252903E+05 -1.246960E+05 -4.755153E+04 -7.571512E+04
        29   1  2.412361E+05  1.530339E+06  2.999574E+05 -9.324556E+04  3.973465E+04  4.202234E+04
        29   2  1.854599E+05  1.384707E+06  2.451756E+05 -5.005682E+04  3.453977E+04  4.703215E+03
        29   3  1.685405E+05  1.253666E+06  2.243709E+05 -7.472663E+04  2.760199E+04 -3.261778E+04
        29   4  1.930412E+04  6.257049E+05  9.398123E+04 -8.264010E+04  3.973460E+04  4.534729E+04
        29   5 -2.405604E+03  6.185587E+05  7.113896E+04 -4.871189E+04  3.453473E+04  9.412119E+03
        29   6  1.453060E+04  6.257650E+05  8.134576E+04 -8.264534E+04  2.759202E+04 -2.653302E+04
        29   7 -2.026840E+05 -2.781714E+05 -1.120481E+05 -7.204988E+04  3.973467E+04  4.866740E+04
        29   8 -1.903116E+05 -1.470457E+05 -1.029356E+05 -4.736838E+04  3.452971E+04  1.411527E+04
        29   9 -1.395063E+05 -1.771154E+03 -6.170489E+04 -9.055577E+04  2.758189E+04 -2.045433E+04
        29  10  2.412339E+05  1.530337E+06  2.999511E+05 -9.324690E+04 -3.324143E-09 -1.636931E-11
        29  11  1.854586E+05  1.384707E+06  2.451733E+05 -5.005695E+04 -1.300333E-09  5.354030E-10
        29  12  1.685394E+05  1.253665E+06  2.243675E+05 -7.472591E+04 -1.408460E-09  1.207216E-09
        29  13  1.930187E+04  6.257022E+05  9.397440E+04 -8.264155E+04 -5.432416E-10  6.609448E-10
        29  14 -2.406909E+03  6.185583E+05  7.113655E+04 -4.871215E+04  2.010875E-09 -5.475464E-10
        29  15  1.452959E+04  6.257640E+05  8.134300E+04 -8.264475E+04 -2.196592E-09  6.008152E-10
        29  16 -2.026864E+05 -2.781743E+05 -1.120555E+05 -7.205144E+04  4.570485E-10 -2.341165E-11
        29  17 -1.903129E+05 -1.470463E+05 -1.029382E+05 -4.736878E+04 -2.187492E-10 -1.462350E-09
        29  18 -1.395073E+05 -1.771808E+03 -6.170711E+04 -9.055532E+04 -2.486686E-10 -6.920818E-10
        29  19  2.412361E+05  1.530339E+06  2.999574E+05 -9.324556E+04 -3.973465E+04 -4.202234E+04
        29  20  1.854599E+05  1.384707E+06  2.451756E+05 -5.005682E+04 -3.453977E+04 -4.703215E+03
        29  21  1.685405E+05  1.253666E+06  2.243709E+05 -7.472663E+04 -2.760199E+04  3.261778E+04
        29  22  1.930412E+04  6.257049E+05  9.398123E+04 -8.264010E+04 -3.973460E+04 -4.534729E+04
        29  23 -2.405604E+03  6.185587E+05  7.113896E+04 -4.871189E+04 -3.453473E+04 -9.412119E+03
        29  24  1.453060E+04  6.257650E+05  8.134576E+04 -8.264534E+04 -2.759202E+04  2.653302E+04
        29  25 -2.026840E+05 -2.781714E+05 -1.120481E+05 -7.204988E+04 -3.973467E+04 -4.866740E+04
        29  26 -1.903116E+05 -1.470457E+05 -1.029356E+05 -4.736838E+04 -3.452971E+04 -1.411527E+04
        29  27 -1.395063E+05 -1.771154E+03 -6.170489E+04 -9.055577E+04 -2.758189E+04  2.045433E+04
        30   1  1.126673E+05  1.139649E+06  2.036273E+05 -1.164384E+05  2.379563E+04 -4.506791E+04
        30   2  7.766306E+04  9.682524E+05  2.131544E+05 -1.781458E+04  1.626457E+04 -1.173829E+05
        30   3  2.791705E+05  8.651052E+05  3.287883E+05  1.345913E+04  4.641376E+03 -1.896943E+05
        30   4 -1.051260E+04  6.376644E+05  9.007728E+04 -8.268111E+04  2.378516E+04 -4.071277E+04
        30   5 -1.159244E+04  6.038040E+05  1.301624E+05 -4.874409E+04  1.625402E+04 -1.098582E+05
        30   6  2.233420E+05  6.376312E+05  2.741815E+05 -8.214883E+04  4.644581E+03 -1.790147E+05
        30   7 -1.337057E+05  1.359159E+05 -2.348826E+04 -4.895121E+04  2.377516E+04 -3.636111E+04
        30   8 -1.008534E+05  2.394809E+05  4.716247E+04 -7.965525E+04  1.624271E+04 -1.023379E+05
        30   9  1.675443E+05  4.102245E+05  2.195764E+05 -1.777217E+05  4.644504E+03 -1.683389E+05
        30  10  1.126662E+05  1.139647E+06  2.036224E+05 -1.164375E+05 -1.974298E-09  7.138534E-10
        30  11  7.765908E+04  9.682376E+05  2.131281E+05 -1.781304E+04 -1.891747E-10  8.129886E-10
        30  12  2.791608E+05  8.650666E+05  3.287207E+05  1.345984E+04 -7.223355E-10  2.559114E-11
        30  13 -1.051365E+04  6.376624E+05  9.007311E+04 -8.268033E+04  6.263876E-10  1.122717E-09
        30  14 -1.159595E+04  6.037910E+05  1.301392E+05 -4.874266E+04  2.895937E-09 -5.446671E-10
        30  15  2.233334E+05  6.375968E+05  2.741213E+05 -8.214816E+04 -1.331538E-09  7.872236E-10
        30  16 -1.337066E+05  1.359143E+05 -2.349180E+04 -4.895051E+04  1.110322E-09 -8.244634E-10
        30  17 -1.008565E+05  2.394695E+05  4.714231E+04 -7.965391E+04  6.656435E-10 -1.886517E-09
        30  18  1.675367E+05  4.101941E+05  2.195232E+05 -1.777210E+05  1.341829E-09  6.693893E-10
        30  19  1.126673E+05  1.139649E+06  2.036273E+05 -1.164384E+05 -2.379563E+04  4.506791E+04
        30  20  7.766306E+04  9.682524E+05  2.131544E+05 -1.781458E+04 -1.626457E+04  1.173829E+05
        30  21  2.791705E+05  8.651052E+05  3.287883E+05  1.345913E+04 -4.641376E+03  1.896943E+05
        30  22 -1.051260E+04  6.376644E+05  9.007728E+04 -8.268111E+04 -2.378516E+04  4.071277E+04
        30  23 -1.159244E+04  6.038040E+05  1.301624E+05 -4.874409E+04 -1.625402E+04  1.098582E+05
        30  24  2.233420E+05  6.376312E+05  2.741815E+05 -8.214883E+04 -4.644581E+03  1.790147E+05
        30  25 -1.337057E+05  1.359159E+05 -2.348826E+04 -4.895121E+04 -2.377516E+04  3.636111E+04
        30  26 -1.008534E+05  2.394809E+05  4.716247E+04 -7.965525E+04 -1.624271E+04  1.023379E+05
        30  27  1.675443E+05  4.102245E+05  2.195764E+05 -1.777217E+05 -4.644504E+03  1.683389E+05
        31   1 -1.485562E+06 -3.426378E+05 -1.339115E+05 -5.607186E+05 -7.178580E+04 -2.556567E+04
        31   2 -1.463741E+06 -2.319049E+05 -6.606381E+04 -5.605165E+05 -4.571943E+04 -1.320401E+04
        31   3 -1.472035E+06 -2.155539E+05 -4.233753E+04 -5.452221E+05 -1.861262E+04 -3.615858E+03
        31   4 -1.413044E+06 -2.827188E+05 -1.079895E+05 -5.074152E+05 -6.916536E+04 -2.458782E+04
        31   5 -1.392405E+06 -1.948309E+05 -4.611863E+04 -5.302813E+05 -4.508819E+04 -1.296832E+04
        31   6 -1.401481E+06 -2.009250E+05 -2.678664E+04 -5.380568E+05 -1.997056E+04 -4.124525E+03
        31   7 -1.340519E+06 -2.227914E+05 -8.206803E+04 -4.541049E+05 -6.654463E+04 -2.360951E+04
        31   8 -1.321064E+06 -1.577552E+05 -2.617405E+04 -5.000428E+05 -4.445687E+04 -1.273258E+04
        31   9 -1.330922E+06 -1.862963E+05 -1.123597E+04 -5.308912E+05 -2.132866E+04 -4.633189E+03
        31  10 -1.485568E+06 -3.426399E+05 -1.339225E+05 -5.607201E+05 -1.355704E-09  7.613551E-11
        31  11 -1.463743E+06 -2.319057E+05 -6.606808E+04 -5.605170E+05 -2.321451E-09  1.300252E-10
        31  12 -1.472035E+06 -2.155540E+05 -4.233821E+04 -5.452222E+05 -6.790507E-10  1.556779E-10
        31  13 -1.413050E+06 -2.827207E+05 -1.079997E+05 -5.074166E+05  1.211126E-10 -8.380845E-11
        31  14 -1.392407E+06 -1.948316E+05 -4.612277E+04 -5.302818E+05  1.530588E-09 -3.692537E-11
        31  15 -1.401481E+06 -2.009252E+05 -2.678742E+04 -5.380569E+05 -7.424688E-10  1.521073E-10
        31  16 -1.340524E+06 -2.227932E+05 -8.207743E+04 -4.541062E+05  8.725306E-10 -3.816886E-10
        31  17 -1.321066E+06 -1.577560E+05 -2.617807E+04 -5.000432E+05 -1.026032E-09 -5.192303E-10
        31  18 -1.330923E+06 -1.862964E+05 -1.123687E+04 -5.308913E+05 -6.020102E-10  1.350642E-10
        31  19 -1.485562E+06 -3.426378E+05 -1.339115E+05 -5.607186E+05  7.178580E+04  2.556567E+04
        31  20 -1.463741E+06 -2.319049E+05 -6.606381E+04 -5.605165E+05  4.571943E+04  1.320401E+04
        31  21 -1.472035E+06 -2.155539E+05 -4.233753E+04 -5.452221E+05  1.861262E+04  3.615858E+03
        31  22 -1.413044E+06 -2.827188E+05 -1.079895E+05 -5.074152E+05  6.916536E+04  2.458782E+04
        31  23 -1.392405E+06 -1.948309E+05 -4.611863E+04 -5.302813E+05  4.508819E+04  1.296832E+04
        31  24 -1.401481E+06 -2.009250E+05 -2.678664E+04 -5.380568E+05  1.997056E+04  4.124525E+03
        31  25 -1.340519E+06 -2.227914E+05 -8.206803E+04 -4.541049E+05  6.654463E+04  2.360951E+04
        31  26 -1.321064E+06 -1.577552E+05 -2.617405E+04 -5.000428E+05  4.445687E+04  1.273258E+04
        31  27 -1.330922E+06 -1.862963E+05 -1.123597E+04 -5.308912E+05  2.132866E+04  4.633189E+03
        32   1 -1.441971E+06 -2.288167E+05 -3.289450E+04 -5.466326E+05 -1.559169E+04 -3.469422E+03
        32   2 -1.427051E+06 -2.115198E+05 -1.787218E+04 -5.388057E+05 -9.687720E+03 -2.133636E+03
        32   3 -1.408820E+06 -2.075833E+05 -8.870880E+03 -5.369644E+05 -3.730949E+03 -9.377720E+02
        32   4 -1.397992E+06 -2.103346E+05 -2.145140E+04 -5.324988E+05 -1.609421E+04 -3.657873E+03
        32   5 -1.399221E+06 -2.005945E+05 -1.078306E+04 -5.306548E+05 -1.029033E+04 -2.359544E+03
        32   6 -1.397120E+06 -2.041948E+05 -6.055922E+03 -5.347966E+05 -4.433874E+03 -1.201242E+03
        32   7 -1.354010E+06 -1.918521E+05 -1.000838E+04 -5.183639E+05 -1.659677E+04 -3.846345E+03
        32   8 -1.371390E+06 -1.896692E+05 -3.694022E+03 -5.225036E+05 -1.089298E+04 -2.585464E+03
        32   9 -1.385421E+06 -2.008063E+05 -3.241006E+03 -5.326288E+05 -5.136805E+03 -1.464711E+03
        32  10 -1.441971E+06 -2.288167E+05 -3.289498E+04 -5.466326E+05 -1.034496E-10  2.302371E-10
        32  11 -1.427051E+06 -2.115198E+05 -1.787236E+04 -5.388057E+05  2.059409E-10 -8.429500E-10
        32  12 -1.408820E+06 -2.075833E+05 -8.870908E+03 -5.369644E+05 -8.101759E-11 -6.943667E-10
        32  13 -1.397992E+06 -2.103347E+05 -2.145191E+04 -5.324988E+05 -3.982945E-09  2.597850E-10
        32  14 -1.399221E+06 -2.005945E+05 -1.078327E+04 -5.306548E+05 -4.839796E-10 -6.087938E-10
        32  15 -1.397120E+06 -2.041948E+05 -6.055961E+03 -5.347966E+05 -1.980248E-09 -6.016296E-10
        32  16 -1.354011E+06 -1.918522E+05 -1.000893E+04 -5.183639E+05 -1.668877E-09 -6.210385E-11
        32  17 -1.371390E+06 -1.896692E+05 -3.694258E+03 -5.225036E+05 -2.122775E-09 -5.118423E-10
        32  18 -1.385421E+06 -2.008063E+05 -3.241060E+03 -5.326288E+05 -7.820491E-10 -1.083292E-10
        32  19 -1.441971E+06 -2.288167E+05 -3.289450E+04 -5.466326E+05  1.559169E+04  3.469422E+03
        32  20 -1.427051E+06 -2.115198E+05 -1.787218E+04 -5.388057E+05  9.687720E+03  2.133636E+03
        32  21 -1.408820E+06 -2.075833E+05 -8.870880E+03 -5.369644E+05  3.730949E+03  9.377720E+02
        32  22 -1.397992E+06 -2.103346E+05 -2.145140E+04 -5.324988E+05  1.609421E+04  3.657873E+03
        32  23 -1.399221E+06 -2.005945E+05 -1.078306E+04 -5.306548E+05  1.029033E+04  2.359544E+03
        32  24 -1.397120E+06 -2.041948E+05 -6.055922E+03 -5.347966E+05  4.433874E+03  1.201242E+03
        32  25 -1.354010E+06 -1.918521E+05 -1.000838E+04 -5.183639E+05  1.659677E+04  3.846345E+03
        32  26 -1.371390E+06 -1.896692E+05 -3.694022E+03 -5.225036E+05  1.089298E+04  2.585464E+03
        32  27 -1.385421E+06 -2.008063E+05 -3.241006E+03 -5.326288E+05  5.136805E+03  1.464711E+03
        33   1 -1.391080E+06 -2.027990E+05 -3.171892E+03 -5.328593E+05 -2.708170E+03 -1.191423E+03
        33   2 -1.376952E+06 -1.925325E+05  3.237483E+03 -5.244263E+05 -1.097874E+03 -1.640172E+03
        33   3 -1.356606E+06 -1.893756E+05  8.565585E+03 -5.234550E+05  5.141813E+02 -2.093375E+03
        33   4 -1.396769E+06 -2.048765E+05 -4.648329E+03 -5.343503E+05 -3.368742E+03 -1.439023E+03
        33   5 -1.399848E+06 -2.011024E+05 -2.512302E+03 -5.307014E+05 -1.761679E+03 -1.889002E+03
        33   6 -1.396706E+06 -2.044373E+05 -1.454892E+03 -5.345143E+05 -1.528903E+02 -2.343449E+03
        33   7 -1.402459E+06 -2.069541E+05 -6.124775E+03 -5.358413E+05 -4.029311E+03 -1.686622E+03
        33   8 -1.422743E+06 -2.096724E+05 -8.262186E+03 -5.369764E+05 -2.425465E+03 -2.137825E+03
        33   9 -1.436805E+06 -2.194990E+05 -1.147564E+04 -5.455732E+05 -8.199238E+02 -2.593508E+03
        33  10 -1.391080E+06 -2.027990E+05 -3.171908E+03 -5.328593E+05 -2.359261E-09 -3.479405E-10
        33  11 -1.376952E+06 -1.925325E+05  3.237476E+03 -5.244263E+05 -1.255029E-09  1.372303E-10
        33  12 -1.356606E+06 -1.893756E+05  8.565576E+03 -5.234550E+05  7.641469E-10  2.772606E-11
        33  13 -1.396769E+06 -2.048765E+05 -4.648354E+03 -5.343503E+05 -2.386107E-09 -4.422903E-10
        33  14 -1.399848E+06 -2.011024E+05 -2.512315E+03 -5.307014E+05 -1.286078E-09  6.446973E-10
        33  15 -1.396706E+06 -2.044373E+05 -1.454903E+03 -5.345143E+05 -4.360649E-10  3.370373E-10
        33  16 -1.402459E+06 -2.069541E+05 -6.124811E+03 -5.358413E+05 -2.518501E-09 -2.050982E-10
        33  17 -1.422743E+06 -2.096724E+05 -8.262206E+03 -5.369764E+05  3.930111E-10 -1.690490E-10
        33  18 -1.436805E+06 -2.194990E+05 -1.147566E+04 -5.455732E+05 -3.388886E-10  3.877025E-10
        33  19 -1.391080E+06 -2.027990E+05 -3.171892E+03 -5.328593E+05  2.708170E+03  1.191423E+03
        33  20 -1.376952E+06 -1.925325E+05  3.237483E+03 -5.244263E+05  1.097874E+03  1.640172E+03
        33  21 -1.356606E+06 -1.893756E+05  8.565585E+03 -5.234550E+05 -5.141813E+02  2.093375E+03
        33  22 -1.396769E+06 -2.048765E+05 -4.648329E+03 -5.343503E+05  3.368742E+03  1.439023E+03
        33  23 -1.399848E+06 -2.011024E+05 -2.512302E+03 -5.307014E+05  1.761679E+03  1.889002E+03
        33  24 -1.396706E+06 -2.044373E+05 -1.454892E+03 -5.345143E+05  1.528903E+02  2.343449E+03
        33  25 -1.402459E+06 -2.069541E+05 -6.124775E+03 -5.358413E+05  4.029311E+03  1.686622E+03
        33  26 -1.422743E+06 -2.096724E+05 -8.262186E+03 -5.369764E+05  2.425465E+03  2.137825E+03
        33  27 -1.436805E+06 -2.194990E+05 -1.147564E+04 -5.455732E+05  8.199238E+02  2.593508E+03
        34   1 -1.340033E+06 -1.832815E+05  1.313376E+04 -5.189684E+05  9.262359E+02 -2.554260E+03
        34   2 -1.326177E+06 -1.736303E+05  1.772318E+04 -5.105763E+05  1.658331E+03 -3.330355E+03
        34   3 -1.305882E+06 -1.705345E+05  2.201318E+04 -5.096462E+05  2.388855E+03 -4.101928E+03
        34   4 -1.396679E+06 -2.044650E+05 -1.150015E+03 -5.344582E+05  2.635446E+02 -2.802711E+03
        34   5 -1.399898E+06 -2.011757E+05 -7.820382E+02 -5.307316E+05  9.988269E+02 -3.577651E+03
        34   6 -1.396677E+06 -2.044424E+05 -7.159396E+02 -5.344670E+05  1.732528E+03 -4.348074E+03
        34   7 -1.453322E+06 -2.256481E+05 -1.543386E+04 -5.499467E+05 -3.990724E+02 -3.051134E+03
        34   8 -1.473612E+06 -2.287206E+05 -1.928755E+04 -5.508846E+05  3.394128E+02 -3.824913E+03
        34   9 -1.487464E+06 -2.383496E+05 -2.344567E+04 -5.592844E+05  1.076308E+03 -4.594180E+03
        34  10 -1.340033E+06 -1.832815E+05  1.313375E+04 -5.189684E+05  4.796830E-10  4.346013E-10
        34  11 -1.326177E+06 -1.736303E+05  1.772316E+04 -5.105763E+05 -1.238594E-09  6.401270E-10
        34  12 -1.305882E+06 -1.705345E+05  2.201314E+04 -5.096462E+05  8.717777E-10 -9.893007E-10
        34  13 -1.396679E+06 -2.044650E+05 -1.150030E+03 -5.344582E+05 -3.516431E-10  5.239463E-11
        34  14 -1.399898E+06 -2.011757E+05 -7.820641E+02 -5.307316E+05  1.439158E-10 -2.893612E-10
        34  15 -1.396677E+06 -2.044424E+05 -7.159808E+02 -5.344670E+05  9.372344E-12 -9.318831E-10
        34  16 -1.453322E+06 -2.256481E+05 -1.543388E+04 -5.499467E+05 -9.965477E-10  2.582643E-10
        34  17 -1.473612E+06 -2.287206E+05 -1.928758E+04 -5.508846E+05  9.600919E-10 -6.100846E-10
        34  18 -1.487464E+06 -2.383497E+05 -2.344571E+04 -5.592844E+05 -3.976170E-09 -5.660629E-10
        34  19 -1.340033E+06 -1.832815E+05  1.313376E+04 -5.189684E+05 -9.262359E+02  2.554260E+03
        34  20 -1.326177E+06 -1.736303E+05  1.772318E+04 -5.105763E+05 -1.658331E+03  3.330355E+03
        34  21 -1.305882E+06 -1.705345E+05  2.201318E+04 -5.096462E+05 -2.388855E+03  4.101928E+03
        34  22 -1.396679E+06 -2.044650E+05 -1.150015E+03 -5.344582E+05 -2.635446E+02  2.802711E+03
        34  23 -1.399898E+06 -2.011757E+05 -7.820382E+02 -5.307316E+05 -9.988269E+02  3.577651E+03
        34  24 -1.396677E+06 -2.044424E+05 -7.159396E+02 -5.344670E+05 -1.732528E+03  4.348074E+03
        34  25 -1.453322E+06 -2.256481E+05 -1.543386E+04 -5.499467E+05  3.990724E+02  3.051134E+03
        34  26 -1.473612E+06 -2.287206E+05 -1.928755E+04 -5.508846E+05 -3.394128E+02  3.824913E+03
        34  27 -1.487464E+06 -2.383496E+05 -2.344567E+04 -5.592844E+05 -1.076308E+03  4.594180E+03
        35   1 -1.289653E+06 -1.644180E+05  2.615831E+04 -5.051894E+05  2.706930E+03 -4.587826E+03
        35   2 -1.276099E+06 -1.549996E+05  2.994555E+04 -4.969673E+05  3.594185E+03 -5.285307E+03
        35   3 -1.256272E+06 -1.520198E+05  3.330785E+04 -4.960374E+05  4.477944E+03 -5.972816E+03
        35   4 -1.396714E+06 -2.044087E+05 -7.744693E+02 -5.344326E+05  2.055041E+03 -4.832346E+03
        35   5 -1.399853E+06 -2.012146E+05 -1.113846E+03 -5.307769E+05  2.949301E+03 -5.527276E+03
        35   6 -1.396723E+06 -2.044608E+05 -1.883850E+03 -5.344138E+05  3.840046E+03 -6.212237E+03
        35   7 -1.503764E+06 -2.443989E+05 -2.770828E+04 -5.636713E+05  1.403272E+03 -5.076822E+03
        35   8 -1.523593E+06 -2.474287E+05 -3.217453E+04 -5.645805E+05  2.304556E+03 -5.769193E+03
        35   9 -1.537154E+06 -2.569005E+05 -3.707711E+04 -5.727823E+05  3.202307E+03 -6.451598E+03
        35  10 -1.289653E+06 -1.644181E+05  2.615826E+04 -5.051894E+05 -1.321149E-09 -1.512390E-09
        35  11 -1.276099E+06 -1.549997E+05  2.994547E+04 -4.969672E+05 -1.612726E-09  4.264475E-10
        35  12 -1.256272E+06 -1.520199E+05  3.330775E+04 -4.960373E+05 -9.252729E-11  2.924489E-10
        35  13 -1.396714E+06 -2.044088E+05 -7.745210E+02 -5.344326E+05  2.696160E-10 -7.755178E-10
        35  14 -1.399853E+06 -2.012147E+05 -1.113920E+03 -5.307769E+05  1.434272E-09  4.018807E-10
        35  15 -1.396723E+06 -2.044609E+05 -1.883950E+03 -5.344138E+05  3.512323E-10  5.723955E-10
        35  16 -1.503764E+06 -2.443989E+05 -2.770833E+04 -5.636713E+05 -7.212995E-10  2.180981E-10
        35  17 -1.523593E+06 -2.474288E+05 -3.217460E+04 -5.645805E+05  9.217390E-10  7.902664E-11
        35  18 -1.537154E+06 -2.569006E+05 -3.707721E+04 -5.727823E+05  1.097628E-09  4.300969E-10
        35  19 -1.289653E+06 -1.644180E+05  2.615831E+04 -5.051894E+05 -2.706930E+03  4.587826E+03
        35  20 -1.276099E+06 -1.549996E+05  2.994555E+04 -4.969673E+05 -3.594185E+03  5.285307E+03
        35  21 -1.256272E+06 -1.520198E+05  3.330785E+04 -4.960374E+05 -4.477944E+03  5.972816E+03
        35  22 -1.396714E+06 -2.044087E+05 -7.744693E+02 -5.344326E+05 -2.055041E+03  4.832346E+03
        35  23 -1.399853E+06 -2.012146E+05 -1.113846E+03 -5.307769E+05 -2.949301E+03  5.527276E+03
        35  24 -1.396723E+06 -2.044608E+05 -1.883850E+03 -5.344138E+05 -3.840046E+03  6.212237E+03
        35  25 -1.503764E+06 -2.443989E+05 -2.770828E+04 -5.636713E+05 -1.403272E+03  5.076822E+03
        35  26 -1.523593E+06 -2.474287E+05 -3.217453E+04 -5.645805E+05 -2.304556E+03  5.769193E+03
        35  27 -1.537154E+06 -2.569005E+05 -3.707711E+04 -5.727823E+05 -3.202307E+03  6.451598E+03
        36   1 -1.240511E+06 -1.460752E+05  3.681470E+04 -4.918555E+05  5.028093E+03 -6.356807E+03
        36   2 -1.227315E+06 -1.368005E+05  3.888319E+04 -4.837220E+05  7.531038E+03 -6.411892E+03
        36   3 -1.208576E+06 -1.346073E+05  3.909051E+04 -4.824867E+05  1.002256E+04 -6.435604E+03
        36   4 -1.396849E+06 -2.043365E+05 -2.458755E+03 -5.344273E+05  4.390991E+03 -6.595983E+03
        36   5 -1.399675E+06 -2.011856E+05 -4.378132E+03 -5.308318E+05  6.915797E+03 -6.642965E+03
        36   6 -1.396963E+06 -2.051208E+05 -8.176418E+03 -5.341345E+05  9.429123E+03 -6.658590E+03
        36   7 -1.553162E+06 -2.625959E+05 -4.173397E+04 -5.769892E+05  3.754068E+03 -6.835093E+03
        36   8 -1.572006E+06 -2.655687E+05 -4.764181E+04 -5.779296E+05  6.300743E+03 -6.873967E+03
        36   9 -1.585316E+06 -2.756322E+05 -5.544636E+04 -5.857682E+05  8.835884E+03 -6.881502E+03
        36  10 -1.240511E+06 -1.460753E+05  3.681458E+04 -4.918554E+05 -9.266505E-10  9.618449E-11
        36  11 -1.227315E+06 -1.368005E+05  3.888301E+04 -4.837220E+05  1.826262E-09  1.258989E-09
        36  12 -1.208576E+06 -1.346074E+05  3.909024E+04 -4.824866E+05  5.518265E-09  2.892811E-09
        36  13 -1.396849E+06 -2.043365E+05 -2.458873E+03 -5.344272E+05  1.072005E-09  2.593729E-10
        36  14 -1.399675E+06 -2.011856E+05 -4.378305E+03 -5.308317E+05  7.708419E-10 -1.920490E-10
        36  15 -1.396963E+06 -2.051209E+05 -8.176669E+03 -5.341344E+05  2.600243E-09  5.875027E-10
        36  16 -1.553162E+06 -2.625960E+05 -4.173408E+04 -5.769892E+05 -6.450357E-10  3.619634E-10
        36  17 -1.572006E+06 -2.655688E+05 -4.764197E+04 -5.779296E+05 -1.193052E-09 -1.636389E-09
        36  18 -1.585316E+06 -2.756323E+05 -5.544660E+04 -5.857682E+05 -2.676812E-09 -1.878565E-09
        36  19 -1.240511E+06 -1.460752E+05  3.681470E+04 -4.918555E+05 -5.028093E+03  6.356807E+03
        36  20 -1.227315E+06 -1.368005E+05  3.888319E+04 -4.837220E+05 -7.531038E+03  6.411892E+03
        36  21 -1.208576E+06 -1.346073E+05  3.909051E+04 -4.824867E+05 -1.002256E+04  6.435604E+03
        36  22 -1.396849E+06 -2.043365E+05 -2.458755E+03 -5.344273E+05 -4.390991E+03  6.595983E+03
        36  23 -1.399675E+06 -2.011856E+05 -4.378132E+03 -5.308318E+05 -6.915797E+03  6.642965E+03
        36  24 -1.396963E+06 -2.051208E+05 -8.176418E+03 -5.341345E+05 -9.429123E+03  6.658590E+03
        36  25 -1.553162E+06 -2.625959E+05 -4.173397E+04 -5.769892E+05 -3.754068E+03  6.835093E+03
        36  26 -1.572006E+06 -2.655687E+05 -4.764181E+04 -5.779296E+05 -6.300743E+03  6.873967E+03
        36  27 -1.585316E+06 -2.756322E+05 -5.544636E+04 -5.857682E+05 -8.835884E+03  6.881502E+03
        37   1 -1.192751E+06 -1.290040E+05  4.049445E+04 -4.806015E+05  1.183910E+04 -6.368486E+03
        37   2 -1.180220E+06 -1.178153E+05  3.595552E+04 -4.701280E+05  2.158566E+04 -3.596476E+03
        37   3 -1.167472E+06 -1.243769E+05  2.115944E+04 -4.636171E+05  3.118474E+04 -4.307211E+02
        37   4 -1.397644E+06 -2.038552E+05 -1.067003E+04 -5.348523E+05  1.113777E+04 -6.632017E+03
        37   5 -1.398497E+06 -2.003726E+05 -1.903268E+04 -5.308383E+05  2.116354E+04 -3.755346E+03
        37   6 -1.399190E+06 -2.146989E+05 -3.787689E+04 -5.307870E+05  3.104158E+04 -4.850558E+02
        37   7 -1.602496E+06 -2.787041E+05 -6.183778E+04 -5.890870E+05  1.043669E+04 -6.895459E+03
        37   8 -1.616727E+06 -2.829263E+05 -7.402453E+04 -5.915290E+05  2.074159E+04 -3.914154E+03
        37   9 -1.630855E+06 -3.050156E+05 -9.691731E+04 -5.979334E+05  3.089847E+04 -5.393671E+02
        37  10 -1.192751E+06 -1.290041E+05  4.049411E+04 -4.806015E+05 -2.585869E-09 -1.241488E-09
        37  11 -1.180221E+06 -1.178155E+05  3.595461E+04 -4.701280E+05 -3.012626E-09 -1.078817E-09
        37  12 -1.167473E+06 -1.243772E+05  2.115761E+04 -4.636171E+05  8.987572E-10 -3.997518E-10
        37  13 -1.397644E+06 -2.038553E+05 -1.067034E+04 -5.348523E+05  3.253201E-09  3.969023E-10
        37  14 -1.398498E+06 -2.003728E+05 -1.903355E+04 -5.308383E+05 -2.945763E-09 -5.617253E-10
        37  15 -1.399191E+06 -2.146991E+05 -3.787870E+04 -5.307870E+05 -1.548147E-09 -1.867226E-10
        37  16 -1.602496E+06 -2.787042E+05 -6.183807E+04 -5.890870E+05  8.186641E-09  2.451121E-09
        37  17 -1.616727E+06 -2.829265E+05 -7.402537E+04 -5.915289E+05  1.436743E-09  1.003320E-09
        37  18 -1.630856E+06 -3.050159E+05 -9.691911E+04 -5.979334E+05 -4.070045E-09 -4.012213E-10
        37  19 -1.192751E+06 -1.290040E+05  4.049445E+04 -4.806015E+05 -1.183910E+04  6.368486E+03
        37  20 -1.180220E+06 -1.178153E+05  3.595552E+04 -4.701280E+05 -2.158566E+04  3.596476E+03
        37  21 -1.167472E+06 -1.243769E+05  2.115944E+04 -4.636171E+05 -3.118474E+04  4.307211E+02
        37  22 -1.397644E+06 -2.038552E+05 -1.067003E+04 -5.348523E+05 -1.113777E+04  6.632017E+03
        37  23 -1.398497E+06 -2.003726E+05 -1.903268E+04 -5.308383E+05 -2.116354E+04  3.755346E+03
        37  24 -1.399190E+06 -2.146989E+05 -3.787689E+04 -5.307870E+05 -3.104158E+04  4.850558E+02
        37  25 -1.602496E+06 -2.787041E+05 -6.183778E+04 -5.890870E+05 -1.043669E+04  6.895459E+03
        37  26 -1.616727E+06 -2.829263E+05 -7.402453E+04 -5.915290E+05 -2.074159E+04  3.914154E+03
        37  27 -1.630855E+06 -3.050156E+05 -9.691731E+04 -5.979334E+05 -3.089847E+04  5.393671E+02
        38   1 -1.141469E+06 -1.200873E+05  1.501161E+04 -4.896525E+05  4.029805E+04  1.440887E+03
        38   2 -1.136928E+06 -7.846926E+04 -1.507164E+04 -4.429762E+05  7.875066E+04  1.630240E+04
        38   3 -1.189822E+06 -1.955883E+05 -1.159358E+05 -3.626408E+05  1.143523E+05  3.875426E+04
        38   4 -1.405401E+06 -1.980314E+05 -4.730014E+04 -5.405443E+05  3.782204E+04  5.117006E+02
        38   5 -1.386385E+06 -1.902784E+05 -8.144414E+04 -5.302693E+05  8.170401E+04  1.740922E+04
        38   6 -1.425912E+06 -3.423869E+05 -1.907007E+05 -4.863282E+05  1.227348E+05  4.189270E+04
        38   7 -1.669265E+06 -2.759766E+05 -1.096167E+05 -5.914194E+05  3.534717E+04 -4.172653E+02
        38   8 -1.635781E+06 -3.020754E+05 -1.478221E+05 -6.175280E+05  8.465607E+04  1.851533E+04
        38   9 -1.661939E+06 -4.891456E+05 -2.654699E+05 -6.099634E+05  1.311139E+05  4.502786E+04
        38  10 -1.141471E+06 -1.200877E+05  1.500855E+04 -4.896526E+05 -1.060065E-09 -6.040023E-10
        38  11 -1.136934E+06 -7.847121E+04 -1.508382E+04 -4.429772E+05 -1.122360E-09  1.128510E-09
        38  12 -1.189836E+06 -1.955934E+05 -1.159632E+05 -3.626444E+05  9.656104E-10  6.775022E-10
        38  13 -1.405402E+06 -1.980318E+05 -4.730283E+04 -5.405443E+05 -7.478778E-10 -3.706053E-10
        38  14 -1.386392E+06 -1.902805E+05 -8.145729E+04 -5.302705E+05  1.272526E-09  8.600400E-10
        38  15 -1.425929E+06 -3.423928E+05 -1.907324E+05 -4.863324E+05  1.900997E-10  7.040009E-10
        38  16 -1.669266E+06 -2.759769E+05 -1.096191E+05 -5.914194E+05  7.926979E-10  4.482232E-10
        38  17 -1.635788E+06 -3.020777E+05 -1.478362E+05 -6.175293E+05 -2.347342E-09  6.026395E-10
        38  18 -1.661958E+06 -4.891524E+05 -2.655062E+05 -6.099682E+05 -1.139642E-09  1.183972E-11
        38  19 -1.141469E+06 -1.200873E+05  1.501161E+04 -4.896525E+05 -4.029805E+04 -1.440887E+03
        38  20 -1.136928E+06 -7.846926E+04 -1.507164E+04 -4.429762E+05 -7.875066E+04 -1.630240E+04
        38  21 -1.189822E+06 -1.955883E+05 -1.159358E+05 -3.626408E+05 -1.143523E+05 -3.875426E+04
        38  22 -1.405401E+06 -1.980314E+05 -4.730014E+04 -5.405443E+05 -3.782204E+04 -5.117006E+02
        38  23 -1.386385E+06 -1.902784E+05 -8.144414E+04 -5.302693E+05 -8.170401E+04 -1.740922E+04
        38  24 -1.425912E+06 -3.423869E+05 -1.907007E+05 -4.863282E+05 -1.227348E+05 -4.189270E+04
        38  25 -1.669265E+06 -2.759766E+05 -1.096167E+05 -5.914194E+05 -3.534717E+04  4.172653E+02
        38  26 -1.635781E+06 -3.020754E+05 -1.478221E+05 -6.175280E+05 -8.465607E+04 -1.851533E+04
        38  27 -1.661939E+06 -4.891456E+05 -2.654699E+05 -6.099634E+05 -1.311139E+05 -4.502786E+04
        39   1 -1.703631E+05  6.492356E+04  7.936804E+04  2.777575E+04  5.445238E+04  2.436834E+00
        39   2 -1.801293E+05 -3.392286E+03  3.565017E+04  9.092197E+03  3.544569E+04  5.192530E-01
        39   3 -1.703705E+05 -3.518612E+03  2.135781E+04 -9.590987E+03  1.643892E+04 -2.540250E-01
        39   4 -1.703639E+05  6.492211E+04  7.936783E+04 -5.785745E-10  5.445238E+04 -6.439470E-12
        39   5 -1.801294E+05 -3.392441E+03  3.565014E+04 -9.725253E-09  3.544569E+04  4.978598E-12
        39   6 -1.703706E+05 -3.518785E+03  2.135779E+04  7.810430E-10  1.643892E+04 -5.981939E-10
        39   7 -1.703631E+05  6.492356E+04  7.936804E+04 -2.777575E+04  5.445238E+04 -2.436834E+00
        39   8 -1.801293E+05 -3.392286E+03  3.565017E+04 -9.092197E+03  3.544569E+04 -5.192530E-01
        39   9 -1.703705E+05 -3.518612E+03  2.135781E+04  9.590987E+03  1.643892E+04  2.540250E-01
        39  10 -1.703663E+05  6.492277E+04  7.936246E+04  2.777575E+04 -6.425324E-11 -1.606705E-10
        39  11 -1.801306E+05 -3.392623E+03  3.564780E+04  9.092197E+03 -1.959173E-09 -5.307824E-10
        39  12 -1.703708E+05 -3.518684E+03  2.135731E+04 -9.590987E+03 -1.938206E-09 -4.674655E-10
        39  13 -1.703671E+05  6.492132E+04  7.936226E+04  1.009706E-08  2.128644E-09 -2.116626E-10
        39  14 -1.801307E+05 -3.392779E+03  3.564778E+04 -9.693180E-09  1.716547E-09 -4.047061E-10
        39  15 -1.703709E+05 -3.518857E+03  2.135728E+04 -1.441002E-08 -7.950794E-10  2.193248E-10
        39  16 -1.703663E+05  6.492277E+04  7.936246E+04 -2.777575E+04 -1.530125E-09 -2.402408E-10
        39  17 -1.801306E+05 -3.392623E+03  3.564780E+04 -9.092197E+03  1.496573E-09 -3.751499E-10
        39  18 -1.703708E+05 -3.518684E+03  2.135731E+04  9.590987E+03  2.788016E-09  8.899516E-10
        39  19 -1.703631E+05  6.492356E+04  7.936804E+04  2.777575E+04 -5.445238E+04 -2.436834E+00
        39  20 -1.801293E+05 -3.392286E+03  3.565017E+04  9.092197E+03 -3.544569E+04 -5.192530E-01
        39  21 -1.703705E+05 -3.518612E+03  2.135781E+04 -9.590987E+03 -1.643892E+04  2.540250E-01
        39  22 -1.703639E+05  6.492211E+04  7.936783E+04  7.851744E-09 -5.445238E+04 -4.333947E-10
        39  23 -1.801294E+05 -3.392441E+03  3.565014E+04 -2.123992E-09 -3.544569E+04 -8.183467E-10
        39  24 -1.703706E+05 -3.518785E+03  2.135779E+04  9.977681E-09 -1.643892E+04  1.041956E-09
        39  25 -1.703631E+05  6.492356E+04  7.936804E+04 -2.777575E+04 -5.445238E+04  2.436834E+00
        39  26 -1.801293E+05 -3.392286E+03  3.565017E+04 -9.092197E+03 -3.544569E+04  5.192530E-01
        39  27 -1.703705E+05 -3.518612E+03  2.135781E+04  9.590987E+03 -1.643892E+04 -2.540250E-01
        40   1 -1.743058E+05  4.485961E+03  1.713959E+04  1.545947E+03  1.331766E+04  3.317148E-02
        40   2 -1.752118E+05 -3.104750E+02  9.111275E+03  3.798864E+02  8.718460E+03  5.336252E-03
        40   3 -1.743066E+05 -2.586511E+02  5.289969E+03 -7.861592E+02  4.119353E+03 -5.217729E-03
        40   4 -1.743058E+05  4.485956E+03  1.713959E+04 -6.935655E-10  1.331766E+04 -1.443908E-10
        40   5 -1.752118E+05 -3.104753E+02  9.111275E+03 -4.974352E-09  8.718460E+03  9.136415E-10
        40   6 -1.743066E+05 -2.586523E+02  5.289969E+03  1.093610E-08  4.119353E+03  1.889915E-10
        40   7 -1.743058E+05  4.485961E+03  1.713959E+04 -1.545947E+03  1.331766E+04 -3.317148E-02
        40   8 -1.752118E+05 -3.104750E+02  9.111275E+03 -3.798864E+02  8.718460E+03 -5.336250E-03
        40   9 -1.743066E+05 -2.586511E+02  5.289969E+03  7.861592E+02  4.119353E+03  5.217730E-03
        40  10 -1.743060E+05  4.485913E+03  1.713925E+04  1.545947E+03 -6.965951E-10 -1.086095E-10
        40  11 -1.752119E+05 -3.104955E+02  9.111132E+03  3.798864E+02 -4.576552E-10  2.715801E-10
        40  12 -1.743066E+05 -2.586557E+02  5.289937E+03 -7.861592E+02 -2.702087E-10 -2.729270E-10
        40  13 -1.743060E+05  4.485909E+03  1.713925E+04 -9.379969E-09 -2.153823E-09  3.992224E-10
        40  14 -1.752119E+05 -3.104957E+02  9.111132E+03 -5.000648E-09 -1.615359E-09  6.594580E-11
        40  15 -1.743066E+05 -2.586568E+02  5.289937E+03  1.337883E-08 -6.372956E-10  4.979990E-11
        40  16 -1.743060E+05  4.485913E+03  1.713925E+04 -1.545947E+03  1.589731E-10  9.058145E-10
        40  17 -1.752119E+05 -3.104955E+02  9.111132E+03 -3.798864E+02  1.819778E-09 -1.474963E-10
        40  18 -1.743066E+05 -2.586557E+02  5.289937E+03  7.861592E+02  6.259906E-10  3.747489E-10
        40  19 -1.743058E+05  4.485961E+03  1.713959E+04  1.545947E+03 -1.331766E+04 -3.317148E-02
        40  20 -1.752118E+05 -3.104750E+02  9.111275E+03  3.798864E+02 -8.718460E+03 -5.336251E-03
        40  21 -1.743066E+05 -2.586511E+02  5.289969E+03 -7.861592E+02 -4.119353E+03  5.217729E-03
        40  22 -1.743058E+05  4.485956E+03  1.713959E+04  7.777782E-09 -1.331766E+04  9.527070E-10
        40  23 -1.752118E+05 -3.104753E+02  9.111275E+03  2.512114E-09 -8.718460E+03 -7.717157E-10
        40  24 -1.743066E+05 -2.586523E+02  5.289969E+03  1.366883E-08 -4.119353E+03 -9.203568E-11
        40  25 -1.743058E+05  4.485961E+03  1.713959E+04 -1.545947E+03 -1.331766E+04  3.317148E-02
        40  26 -1.752118E+05 -3.104750E+02  9.111275E+03 -3.798864E+02 -8.718460E+03  5.336250E-03
        40  27 -1.743066E+05 -2.586511E+02  5.289969E+03  7.861592E+02 -4.119353E+03 -5.217729E-03
        41   1 -1.746571E+05  2.878584E+02  4.072014E+03  3.815576E+00  3.295946E+03  2.026128E-05
        41   2 -1.747741E+05 -3.928993E+01  2.276381E+03 -3.923544E+01  2.164674E+03 -1.368402E-04
        41   3 -1.746572E+05 -2.047599E+01  1.303921E+03 -8.228714E+01  1.033388E+03 -1.370058E-04
        41   4 -1.746571E+05  2.878584E+02  4.072014E+03  3.479071E-09  3.295946E+03 -2.672773E-10
        41   5 -1.747741E+05 -3.928994E+01  2.276381E+03  1.344864E-09  2.164674E+03 -2.622607E-10
        41   6 -1.746572E+05 -2.047601E+01  1.303921E+03  9.441446E-09  1.033388E+03 -7.552392E-10
        41   7 -1.746571E+05  2.878584E+02  4.072014E+03 -3.815576E+00  3.295946E+03 -2.026181E-05
        41   8 -1.747741E+05 -3.928993E+01  2.276381E+03  3.923544E+01  2.164674E+03  1.368396E-04
        41   9 -1.746572E+05 -2.047599E+01  1.303921E+03  8.228714E+01  1.033388E+03  1.370043E-04
        41  10 -1.746571E+05  2.878555E+02  4.071994E+03  3.815576E+00 -1.046674E-09 -3.389992E-10
        41  11 -1.747741E+05 -3.929119E+01  2.276372E+03 -3.923544E+01 -9.760991E-10  1.882443E-10
        41  12 -1.746572E+05 -2.047628E+01  1.303919E+03 -8.228714E+01 -6.960625E-10  9.878224E-11
        41  13 -1.746571E+05  2.878555E+02  4.071994E+03  3.465270E-09 -1.083211E-09  7.478019E-11
        41  14 -1.747741E+05 -3.929119E+01  2.276372E+03  3.479993E-09 -1.108564E-09 -4.473580E-11
        41  15 -1.746572E+05 -2.047629E+01  1.303919E+03 -1.158501E-08  9.306614E-10 -1.964769E-10
        41  16 -1.746571E+05  2.878555E+02  4.071994E+03 -3.815576E+00 -6.034976E-10  4.968522E-10
        41  17 -1.747741E+05 -3.929119E+01  2.276372E+03  3.923544E+01 -2.001209E-09 -2.768513E-10
        41  18 -1.746572E+05 -2.047628E+01  1.303919E+03  8.228714E+01 -1.251756E-09 -5.015737E-10
        41  19 -1.746571E+05  2.878584E+02  4.072014E+03  3.815576E+00 -3.295946E+03 -2.026194E-05
        41  20 -1.747741E+05 -3.928993E+01  2.276381E+03 -3.923544E+01 -2.164674E+03  1.368406E-04
        41  21 -1.746572E+05 -2.047599E+01  1.303921E+03 -8.228714E+01 -1.033388E+03  1.370060E-04
        41  22 -1.746571E+05  2.878584E+02  4.072014E+03  5.605523E-09 -3.295946E+03  4.149896E-10
        41  23 -1.747741E+05 -3.928994E+01  2.276381E+03  1.305166E-09 -2.164674E+03  1.879112E-10
        41  24 -1.746572E+05 -2.047601E+01  1.303921E+03 -3.262316E-09 -1.033388E+03  3.612819E-10
        41  25 -1.746571E+05  2.878584E+02  4.072014E+03 -3.815576E+00 -3.295946E+03  2.026273E-05
        41  26 -1.747741E+05 -3.928993E+01  2.276381E+03  3.923544E+01 -2.164674E+03 -1.368402E-04
        41  27 -1.746572E+05 -2.047599E+01  1.303921E+03  8.228714E+01 -1.033388E+03 -1.370054E-04
        42   1 -1.747000E+05  1.286935E+01  9.863455E+02 -2.642071E+01  8.273623E+02 -3.522014E-05
        42   2 -1.747207E+05 -6.838803E+00  5.454062E+02 -2.004014E+01  5.575109E+02 -1.800080E-05
        42   3 -1.747001E+05 -1.847244E+00  2.863644E+02 -1.365956E+01  2.876597E+02 -6.328756E-06
        42   4 -1.747000E+05  1.286935E+01  9.863455E+02  9.403791E-09  8.273623E+02 -7.492631E-10
        42   5 -1.747207E+05 -6.838804E+00  5.454062E+02 -7.263788E-09  5.575109E+02  3.073125E-10
        42   6 -1.747001E+05 -1.847244E+00  2.863644E+02 -5.893851E-09  2.876597E+02  1.780568E-09
        42   7 -1.747000E+05  1.286935E+01  9.863455E+02  2.642071E+01  8.273623E+02  3.521861E-05
        42   8 -1.747207E+05 -6.838803E+00  5.454062E+02  2.004014E+01  5.575109E+02  1.800137E-05
        42   9 -1.747001E+05 -1.847244E+00  2.863644E+02  1.365956E+01  2.876597E+02  6.332364E-06
        42  10 -1.747000E+05  1.286917E+01  9.863442E+02 -2.642071E+01 -1.699326E-10 -1.124703E-10
        42  11 -1.747207E+05 -6.838886E+00  5.454056E+02 -2.004014E+01  2.234018E-10 -1.232029E-10
        42  12 -1.747001E+05 -1.847266E+00  2.863643E+02 -1.365956E+01 -1.163486E-09  2.593283E-10
        42  13 -1.747000E+05  1.286917E+01  9.863442E+02  5.133531E-09 -1.013713E-09 -1.715348E-10
        42  14 -1.747207E+05 -6.838887E+00  5.454056E+02 -5.095532E-09 -5.700423E-10  5.348397E-12
        42  15 -1.747001E+05 -1.847266E+00  2.863643E+02 -1.371030E-08 -8.287510E-10  3.517143E-11
        42  16 -1.747000E+05  1.286917E+01  9.863442E+02  2.642071E+01 -9.512012E-10 -2.327500E-10
        42  17 -1.747207E+05 -6.838886E+00  5.454056E+02  2.004014E+01 -1.623192E-10  1.255569E-10
        42  18 -1.747001E+05 -1.847266E+00  2.863643E+02  1.365956E+01  1.611728E-09 -1.825072E-10
        42  19 -1.747000E+05  1.286935E+01  9.863455E+02 -2.642071E+01 -8.273623E+02  3.521995E-05
        42  20 -1.747207E+05 -6.838803E+00  5.454062E+02 -2.004014E+01 -5.575109E+02  1.800063E-05
        42  21 -1.747001E+05 -1.847244E+00  2.863644E+02 -1.365956E+01 -2.876597E+02  6.329317E-06
        42  22 -1.747000E+05  1.286935E+01  9.863455E+02 -5.597198E-09 -8.273623E+02  4.073761E-10
        42  23 -1.747207E+05 -6.838804E+00  5.454062E+02 -7.233949E-09 -5.575109E+02 -2.916099E-10
        42  24 -1.747001E+05 -1.847244E+00  2.863644E+02  5.505818E-10 -2.876597E+02 -1.710347E-09
        42  25 -1.747000E+05  1.286935E+01  9.863455E+02  2.642071E+01 -8.273623E+02 -3.521910E-05
        42  26 -1.747207E+05 -6.838803E+00  5.454062E+02  2.004014E+01 -5.575109E+02 -1.800115E-05
        42  27 -1.747001E+05 -1.847244E+00  2.863644E+02  1.365956E+01 -2.876597E+02 -6.332759E-06
        43   1 -1.747087E+05 -6.562777E-01  1.946474E+02 -1.036836E+01  2.441056E+02 -4.076460E-06
        43   2 -1.747100E+05 -4.252983E-01  4.945227E+01 -8.529004E+00  2.197288E+02 -3.020696E-06
        43   3 -1.747087E+05 -2.349494E+00 -8.040924E+01 -6.689680E+00  1.953524E+02 -2.106235E-06
        43   4 -1.747087E+05 -6.562779E-01  1.946474E+02 -3.504182E-09  2.441056E+02  1.200428E-09
        43   5 -1.747100E+05 -4.252984E-01  4.945227E+01 -3.138379E-09  2.197288E+02 -9.856673E-10
        43   6 -1.747087E+05 -2.349494E+00 -8.040924E+01  4.579897E-10  1.953524E+02 -7.296217E-10
        43   7 -1.747087E+05 -6.562777E-01  1.946474E+02  1.036836E+01  2.441056E+02  4.078845E-06
        43   8 -1.747100E+05 -4.252983E-01  4.945227E+01  8.529004E+00  2.197288E+02  3.018672E-06
        43   9 -1.747087E+05 -2.349494E+00 -8.040924E+01  6.689680E+00  1.953524E+02  2.104800E-06
        43  10 -1.747087E+05 -6.562937E-01  1.946472E+02 -1.036836E+01  5.800619E-10 -1.006161E-10
        43  11 -1.747100E+05 -4.253113E-01  4.945218E+01 -8.529004E+00  1.338370E-09 -7.084977E-10
        43  12 -1.747087E+05 -2.349504E+00 -8.040931E+01 -6.689680E+00  6.078547E-11  5.464585E-10
        43  13 -1.747087E+05 -6.562939E-01  1.946472E+02 -7.924821E-09 -9.969263E-10 -2.607782E-10
        43  14 -1.747100E+05 -4.253114E-01  4.945218E+01 -8.462930E-09  1.140045E-09 -4.521377E-10
        43  15 -1.747087E+05 -2.349504E+00 -8.040931E+01 -4.156573E-09 -1.983497E-09  5.296945E-10
        43  16 -1.747087E+05 -6.562937E-01  1.946472E+02  1.036836E+01 -5.948954E-11 -4.163965E-10
        43  17 -1.747100E+05 -4.253112E-01  4.945218E+01  8.529004E+00 -5.001746E-10 -1.908236E-10
        43  18 -1.747087E+05 -2.349504E+00 -8.040931E+01  6.689680E+00 -2.863964E-10  5.102743E-10
        43  19 -1.747087E+05 -6.562777E-01  1.946474E+02 -1.036836E+01 -2.441056E+02  4.076322E-06
        43  20 -1.747100E+05 -4.252983E-01  4.945227E+01 -8.529004E+00 -2.197288E+02  3.019286E-06
        43  21 -1.747087E+05 -2.349494E+00 -8.040924E+01 -6.689680E+00 -1.953524E+02  2.107373E-06
        43  22 -1.747087E+05 -6.562779E-01  1.946474E+02 -1.577134E-09 -2.441056E+02 -1.722014E-09
        43  23 -1.747100E+05 -4.252984E-01  4.945227E+01 -5.174529E-09 -2.197288E+02  8.415439E-11
        43  24 -1.747087E+05 -2.349494E+00 -8.040924E+01 -3.654291E-09 -1.953524E+02  1.788645E-09
        43  25 -1.747087E+05 -6.562777E-01  1.946474E+02  1.036836E+01 -2.441056E+02 -4.079758E-06
        43  26 -1.747100E+05 -4.252983E-01  4.945227E+01  8.529004E+00 -2.197288E+02 -3.019125E-06
        43  27 -1.747087E+05 -2.349494E+00 -8.040924E+01  6.689680E+00 -1.953524E+02 -2.103801E-06
        44   1 -1.747172E+05  2.783208E+00 -1.508830E+02 -1.545442E+01  2.160557E+02 -5.378806E-06
        44   2 -1.746994E+05  5.980923E+00 -3.336046E+02 -7.700719E+00  3.819476E+02 -4.737297E-06
        44   3 -1.747172E+05 -4.655618E+01 -6.382836E+02  5.309814E-02  5.478420E+02  4.551019E-08
        44   4 -1.747172E+05  2.783207E+00 -1.508830E+02  7.251777E-09  2.160557E+02  5.795280E-10
        44   5 -1.746994E+05  5.980923E+00 -3.336046E+02  1.317549E-09  3.819476E+02  1.174925E-09
        44   6 -1.747172E+05 -4.655618E+01 -6.382836E+02  9.653015E-09  5.478420E+02 -1.441332E-09
        44   7 -1.747172E+05  2.783208E+00 -1.508830E+02  1.545442E+01  2.160557E+02  5.379948E-06
        44   8 -1.746994E+05  5.980923E+00 -3.336046E+02  7.700719E+00  3.819476E+02  4.739602E-06
        44   9 -1.747172E+05 -4.655618E+01 -6.382836E+02 -5.309812E-02  5.478420E+02 -4.838919E-08
        44  10 -1.747172E+05  2.783195E+00 -1.508831E+02 -1.545442E+01  5.563165E-10  1.205521E-09
        44  11 -1.746994E+05  5.980883E+00 -3.336049E+02 -7.700719E+00 -8.308558E-10  4.044410E-10
        44  12 -1.747172E+05 -4.655626E+01 -6.382842E+02  5.309812E-02  1.615564E-09 -1.296346E-09
        44  13 -1.747172E+05  2.783195E+00 -1.508831E+02  4.995188E-09 -2.214808E-09  8.542375E-10
        44  14 -1.746994E+05  5.980883E+00 -3.336049E+02  4.383540E-09 -2.250572E-09 -4.114710E-11
        44  15 -1.747172E+05 -4.655626E+01 -6.382842E+02  4.311393E-09 -6.514959E-10 -1.356954E-09
        44  16 -1.747172E+05  2.783195E+00 -1.508831E+02  1.545442E+01 -1.559579E-09  4.943026E-10
        44  17 -1.746994E+05  5.980883E+00 -3.336049E+02  7.700719E+00 -1.435495E-09 -4.894925E-10
        44  18 -1.747172E+05 -4.655626E+01 -6.382842E+02 -5.309813E-02 -5.110639E-10 -1.428962E-09
        44  19 -1.747172E+05  2.783208E+00 -1.508830E+02 -1.545442E+01 -2.160557E+02  5.381230E-06
        44  20 -1.746994E+05  5.980923E+00 -3.336046E+02 -7.700719E+00 -3.819476E+02  4.738101E-06
        44  21 -1.747172E+05 -4.655618E+01 -6.382836E+02  5.309811E-02 -5.478420E+02 -4.807252E-08
        44  22 -1.747172E+05  2.783207E+00 -1.508830E+02  9.203144E-09 -2.160557E+02  1.133402E-09
        44  23 -1.746994E+05  5.980923E+00 -3.336046E+02  9.605826E-09 -3.819476E+02 -1.257374E-09
        44  24 -1.747172E+05 -4.655618E+01 -6.382836E+02  7.317182E-09 -5.478420E+02 -1.279905E-09
        44  25 -1.747172E+05  2.783208E+00 -1.508830E+02  1.545442E+01 -2.160557E+02 -5.378968E-06
        44  26 -1.746994E+05  5.980923E+00 -3.336046E+02  7.700719E+00 -3.819476E+02 -4.740601E-06
        44  27 -1.747172E+05 -4.655618E+01 -6.382836E+02 -5.309813E-02 -5.478420E+02  4.550047E-08
        45   1 -1.747742E+05  4.163632E+01 -8.398245E+02 -1.275564E+02  6.777393E+02 -1.392873E-04
        45   2 -1.746282E+05  5.007415E+01 -1.463554E+03  6.102519E+01  1.416621E+03  1.392864E-04
        45   3 -1.747743E+05 -7.247306E+02 -2.764237E+03  2.496068E+02  2.155501E+03  8.668563E-04
        45   4 -1.747742E+05  4.163629E+01 -8.398245E+02  1.780077E-08  6.777393E+02 -1.510705E-09
        45   5 -1.746282E+05  5.007414E+01 -1.463554E+03  3.600558E-09  1.416621E+03  1.134554E-09
        45   6 -1.747743E+05 -7.247307E+02 -2.764237E+03  6.628880E-09  2.155501E+03  9.534141E-10
        45   7 -1.747742E+05  4.163632E+01 -8.398245E+02  1.275564E+02  6.777393E+02  1.392843E-04
        45   8 -1.746282E+05  5.007415E+01 -1.463554E+03 -6.102519E+01  1.416621E+03 -1.392843E-04
        45   9 -1.747743E+05 -7.247306E+02 -2.764237E+03 -2.496068E+02  2.155501E+03 -8.668544E-04
        45  10 -1.747742E+05  4.163620E+01 -8.398253E+02 -1.275564E+02 -7.161183E-10 -7.718691E-10
        45  11 -1.746282E+05  5.007361E+01 -1.463558E+03  6.102519E+01  6.318905E-10  1.315518E-09
        45  12 -1.747743E+05 -7.247319E+02 -2.764246E+03  2.496068E+02  1.769108E-10  2.956298E-10
        45  13 -1.747742E+05  4.163617E+01 -8.398253E+02  9.643418E-09 -2.103168E-12 -8.079162E-10
        45  14 -1.746282E+05  5.007360E+01 -1.463558E+03  1.541401E-09 -3.150554E-11  1.070218E-09
        45  15 -1.747743E+05 -7.247320E+02 -2.764246E+03  3.131999E-09  5.662836E-10  4.817738E-10
        45  16 -1.747742E+05  4.163620E+01 -8.398253E+02  1.275564E+02  6.510040E-10 -8.497144E-10
        45  17 -1.746282E+05  5.007361E+01 -1.463558E+03 -6.102519E+01  1.791128E-09  8.458464E-10
        45  18 -1.747743E+05 -7.247319E+02 -2.764246E+03 -2.496068E+02 -8.560124E-10  6.753946E-10
        45  19 -1.747742E+05  4.163632E+01 -8.398245E+02 -1.275564E+02 -6.777393E+02  1.392858E-04
        45  20 -1.746282E+05  5.007415E+01 -1.463554E+03  6.102519E+01 -1.416621E+03 -1.392839E-04
        45  21 -1.747743E+05 -7.247306E+02 -2.764237E+03  2.496068E+02 -2.155501E+03 -8.668557E-04
        45  22 -1.747742E+05  4.163629E+01 -8.398245E+02  1.225531E-08 -6.777393E+02 -1.083528E-10
        45  23 -1.746282E+05  5.007414E+01 -1.463554E+03 -5.176239E-10 -1.416621E+03  1.007683E-09
        45  24 -1.747743E+05 -7.247307E+02 -2.764237E+03 -3.677725E-10 -2.155501E+03  7.628100E-12
        45  25 -1.747742E+05  4.163632E+01 -8.398245E+02  1.275564E+02 -6.777393E+02 -1.392860E-04
        45  26 -1.746282E+05  5.007415E+01 -1.463554E+03 -6.102519E+01 -1.416621E+03  1.392859E-04
        45  27 -1.747743E+05 -7.247306E+02 -2.764237E+03 -2.496068E+02 -2.155501E+03  8.668557E-04
        46   1 -1.754101E+05  5.684604E+02 -3.446893E+03 -1.549632E+03  2.658970E+03 -6.638721E-03
        46   2 -1.738336E+05  5.480589E+02 -5.757254E+03  1.468825E+03  5.728867E+03  1.355752E-02
        46   3 -1.754110E+05 -1.048827E+04 -1.282063E+04  4.487227E+03  8.798721E+03  6.361207E-02
        46   4 -1.754101E+05  5.684559E+02 -3.446893E+03  4.078203E-09  2.658970E+03  3.410645E-10
        46   5 -1.738336E+05  5.480549E+02 -5.757255E+03 -1.621532E-09  5.728867E+03  2.105598E-10
        46   6 -1.754111E+05 -1.048830E+04 -1.282064E+04  6.139189E-09  8.798721E+03  3.840056E-11
        46   7 -1.754101E+05  5.684604E+02 -3.446893E+03  1.549632E+03  2.658970E+03  6.638722E-03
        46   8 -1.738336E+05  5.480589E+02 -5.757254E+03 -1.468825E+03  5.728867E+03 -1.355752E-02
        46   9 -1.754110E+05 -1.048827E+04 -1.282063E+04 -4.487227E+03  8.798721E+03 -6.361206E-02
        46  10 -1.754101E+05  5.684585E+02 -3.446906E+03 -1.549632E+03  9.840172E-11 -6.273894E-10
        46  11 -1.738336E+05  5.480501E+02 -5.757316E+03  1.468825E+03  5.097671E-10 -5.408932E-10
        46  12 -1.754111E+05 -1.048829E+04 -1.282078E+04  4.487227E+03  5.653916E-10 -1.602232E-10
        46  13 -1.754101E+05  5.684540E+02 -3.446907E+03 -2.396869E-09  1.197588E-09 -1.892305E-10
        46  14 -1.738336E+05  5.480461E+02 -5.757316E+03  1.619294E-09  1.615340E-09 -2.085598E-10
        46  15 -1.754111E+05 -1.048832E+04 -1.282078E+04 -2.869503E-10  7.006818E-10 -7.087513E-11
        46  16 -1.754101E+05  5.684585E+02 -3.446906E+03  1.549632E+03  4.649622E-10  2.310967E-10
        46  17 -1.738336E+05  5.480501E+02 -5.757316E+03 -1.468825E+03  3.447392E-10  1.318720E-10
        46  18 -1.754111E+05 -1.048829E+04 -1.282078E+04 -4.487227E+03  6.547291E-10  2.301652E-11
        46  19 -1.754101E+05  5.684604E+02 -3.446893E+03 -1.549632E+03 -2.658970E+03  6.638720E-03
        46  20 -1.738336E+05  5.480589E+02 -5.757254E+03  1.468825E+03 -5.728867E+03 -1.355752E-02
        46  21 -1.754110E+05 -1.048827E+04 -1.282063E+04  4.487227E+03 -8.798721E+03 -6.361207E-02
        46  22 -1.754101E+05  5.684559E+02 -3.446893E+03  1.050885E-08 -2.658970E+03 -7.176397E-10
        46  23 -1.738336E+05  5.480549E+02 -5.757255E+03  5.510710E-10 -5.728867E+03 -6.269693E-10
        46  24 -1.754111E+05 -1.048830E+04 -1.282064E+04  6.207280E-09 -8.798721E+03 -1.787169E-10
        46  25 -1.754101E+05  5.684604E+02 -3.446893E+03  1.549632E+03 -2.658970E+03 -6.638722E-03
        46  26 -1.738336E+05  5.480589E+02 -5.757254E+03 -1.468825E+03 -5.728867E+03  1.355752E-02
        46  27 -1.754110E+05 -1.048827E+04 -1.282063E+04 -4.487227E+03 -8.798721E+03  6.361207E-02
        47   1  2.108051E+05  3.190767E+05  2.103552E+05 -7.937177E+04  9.243586E+03  3.257274E+04
        47   2  1.629086E+05  1.904454E+05  1.611217E+05 -4.520744E+04  2.753868E+04  1.204702E+04
        47   3  1.325325E+05  6.904154E+04  1.296621E+05 -7.157605E+04  2.493531E+04 -8.479463E+03
        47   4  1.367619E+04 -4.730950E+05  1.692799E+04 -7.330811E+04  9.249322E+03  1.048488E+04
        47   5 -7.945708E+02 -4.752904E+05  8.438603E+03 -4.304246E+04  2.754349E+04  6.023279E+03
        47   6 -5.220630E+02 -4.730530E+05  6.576687E+03 -7.331280E+04  2.492946E+04  1.556841E+03
        47   7 -1.834987E+05 -1.264693E+06 -1.765432E+05 -6.725214E+04  9.254632E+03 -1.157489E+04
        47   8 -1.645286E+05 -1.140616E+06 -1.442736E+05 -4.087977E+04  2.754826E+04  5.939279E+00
        47   9 -1.335969E+05 -1.014874E+06 -1.165274E+05 -7.504795E+04  2.492356E+04  1.158446E+04
        47  10  2.108047E+05  3.190756E+05  2.103531E+05 -7.937202E+04  1.363617E-10  1.603912E-09
        47  11  1.629077E+05  1.904450E+05  1.611200E+05 -4.520770E+04  3.091934E-09  1.334388E-11
        47  12  1.325319E+05  6.904130E+04  1.296608E+05 -7.157588E+04 -4.514302E-10 -1.531802E-09
        47  13  1.367607E+04 -4.730952E+05  1.692762E+04 -7.330819E+04  1.798197E-09  1.182079E-10
        47  14 -7.953950E+02 -4.752907E+05  8.437109E+03 -4.304259E+04  1.144503E-10 -1.892451E-10
        47  15 -5.227309E+02 -4.730532E+05  6.575514E+03 -7.331283E+04  1.231037E-09  3.768911E-10
        47  16 -1.834988E+05 -1.264694E+06 -1.765436E+05 -6.725205E+04 -9.563679E-10 -1.589141E-09
        47  17 -1.645294E+05 -1.140616E+06 -1.442750E+05 -4.087977E+04  1.806206E-10  9.195364E-11
        47  18 -1.335976E+05 -1.014875E+06 -1.165288E+05 -7.504819E+04  1.400186E-09  1.040628E-09
        47  19  2.108051E+05  3.190767E+05  2.103552E+05 -7.937177E+04 -9.243586E+03 -3.257274E+04
        47  20  1.629086E+05  1.904454E+05  1.611217E+05 -4.520744E+04 -2.753868E+04 -1.204702E+04
        47  21  1.325325E+05  6.904154E+04  1.296621E+05 -7.157605E+04 -2.493531E+04  8.479463E+03
        47  22  1.367619E+04 -4.730950E+05  1.692799E+04 -7.330811E+04 -9.249322E+03 -1.048488E+04
        47  23 -7.945708E+02 -4.752904E+05  8.438603E+03 -4.304246E+04 -2.754349E+04 -6.023279E+03
        47  24 -5.220630E+02 -4.730530E+05  6.576687E+03 -7.331280E+04 -2.492946E+04 -1.556841E+03
        47  25 -1.834987E+05 -1.264693E+06 -1.765432E+05 -6.725214E+04 -9.254632E+03  1.157489E+04
        47  26 -1.645286E+05 -1.140616E+06 -1.442736E+05 -4.087977E+04 -2.754826E+04 -5.939279E+00
        47  27 -1.335969E+05 -1.014874E+06 -1.165274E+05 -7.504795E+04 -2.492356E+04 -1.158446E+04
        48   1  1.058999E+05 -4.621149E+04  1.038637E+05 -7.455617E+04  1.885985E+04 -3.263359E+03
        48   2  7.402652E+04 -1.722021E+05  7.558757E+04 -4.283872E+04  1.365463E+04 -7.262969E+03
        48   3  4.604709E+04 -2.967673E+05  5.086927E+04 -7.265996E+04  7.746953E+03 -1.126504E+04
        48   4  8.782422E+02 -4.737182E+05  6.386616E+03 -7.353469E+04  1.885759E+04  4.664880E+02
        48   5 -1.758722E+02 -4.743661E+05  6.844406E+03 -4.276368E+04  1.365107E+04 -2.992388E+03
        48   6  2.572072E+03 -4.736968E+05  1.048610E+04 -7.353301E+04  7.741885E+03 -6.454508E+03
        48   7 -1.041561E+05 -9.010554E+05 -9.110236E+04 -7.251387E+04  1.885534E+04  4.193788E+03
        48   8 -7.438457E+04 -7.764453E+05 -6.190462E+04 -4.268864E+04  1.364750E+04  1.276133E+03
        48   9 -4.090510E+04 -6.505972E+05 -2.989902E+04 -7.440580E+04  7.736802E+03 -1.645338E+03
        48  10  1.058996E+05 -4.621160E+04  1.038630E+05 -7.455612E+04  5.635622E-10  5.027851E-10
        48  11  7.402631E+04 -1.722022E+05  7.558712E+04 -4.283864E+04  8.184653E-12 -5.845470E-10
        48  12  4.604699E+04 -2.967674E+05  5.086892E+04 -7.265989E+04 -1.336807E-09 -1.147437E-09
        48  13  8.778604E+02 -4.737183E+05  6.385947E+03 -7.353469E+04  2.852187E-09  8.141959E-10
        48  14 -1.760747E+02 -4.743662E+05  6.844039E+03 -4.276364E+04  5.764476E-09 -4.385468E-10
        48  15  2.571997E+03 -4.736968E+05  1.048591E+04 -7.353297E+04  1.584459E-11  5.789732E-10
        48  16 -1.041565E+05 -9.010555E+05 -9.110306E+04 -7.251393E+04  1.120243E-09 -6.656759E-11
        48  17 -7.438477E+04 -7.764454E+05 -6.190498E+04 -4.268866E+04  1.668250E-09  8.777495E-10
        48  18 -4.090517E+04 -6.505972E+05 -2.989914E+04 -7.440579E+04  2.663775E-12  3.593491E-10
        48  19  1.058999E+05 -4.621149E+04  1.038637E+05 -7.455617E+04 -1.885985E+04  3.263359E+03
        48  20  7.402652E+04 -1.722021E+05  7.558757E+04 -4.283872E+04 -1.365463E+04  7.262969E+03
        48  21  4.604709E+04 -2.967673E+05  5.086927E+04 -7.265996E+04 -7.746953E+03  1.126504E+04
        48  22  8.782422E+02 -4.737182E+05  6.386616E+03 -7.353469E+04 -1.885759E+04 -4.664880E+02
        48  23 -1.758722E+02 -4.743661E+05  6.844406E+03 -4.276368E+04 -1.365107E+04  2.992388E+03
        48  24  2.572072E+03 -4.736968E+05  1.048610E+04 -7.353301E+04 -7.741885E+03  6.454508E+03
        48  25 -1.041561E+05 -9.010554E+05 -9.110236E+04 -7.251387E+04 -1.885534E+04 -4.193788E+03
        48  26 -7.438457E+04 -7.764453E+05 -6.190462E+04 -4.268864E+04 -1.364750E+04 -1.276133E+03
        48  27 -4.090510E+04 -6.505972E+05 -2.989902E+04 -7.440580E+04 -7.736802E+03  1.645338E+03
        49   1  1.355614E+04 -4.092645E+05  2.653556E+04 -7.884715E+04  3.231906E+03 -1.470230E+04
        49   2 -1.727180E+04 -5.396155E+05  5.373640E+03 -3.772260E+04 -2.046105E+03 -2.075059E+04
        49   3 -1.108858E+04 -6.600493E+05 -2.627954E+03 -5.798680E+04 -1.312849E+03 -2.679172E+04
        49   4 -1.730170E+03 -4.716071E+05  1.254718E+04 -7.351049E+04  3.224695E+03 -8.339283E+03
        49   5 -1.791029E+03 -4.769539E+05  2.001617E+04 -4.279822E+04 -2.047788E+03 -1.900308E+04
        49   6  3.595827E+04 -4.716023E+05  4.385016E+04 -7.347212E+04 -1.309097E+03 -2.966088E+04
        49   7 -1.701662E+04 -5.339459E+05 -1.441288E+03 -6.817437E+04  3.217594E+03 -1.976898E+03
        49   8  1.368956E+04 -4.142887E+05  3.465845E+04 -4.787435E+04 -2.049500E+03 -1.725539E+04
        49   9  8.300337E+04 -2.831225E+05  9.032581E+04 -8.896213E+04 -1.305204E+03 -3.253090E+04
        49  10  1.355607E+04 -4.092647E+05  2.653513E+04 -7.884711E+04 -2.386737E-09  1.234921E-09
        49  11 -1.727192E+04 -5.396159E+05  5.372822E+03 -3.772263E+04  1.541965E-09 -5.918417E-11
        49  12 -1.108877E+04 -6.600501E+05 -2.629308E+03 -5.798683E+04  1.476596E-09 -7.146762E-10
        49  13 -1.730200E+03 -4.716072E+05  1.254703E+04 -7.351047E+04  8.838636E-10  1.100955E-09
        49  14 -1.791131E+03 -4.769543E+05  2.001548E+04 -4.279825E+04  1.002909E-09 -4.641276E-10
        49  15  3.595803E+04 -4.716033E+05  4.384851E+04 -7.347215E+04  1.729053E-11  5.667932E-10
        49  16 -1.701663E+04 -5.339459E+05 -1.441314E+03 -6.817437E+04  1.368312E-09 -6.944497E-10
        49  17  1.368948E+04 -4.142890E+05  3.465788E+04 -4.787438E+04  1.331684E-09  3.247752E-10
        49  18  8.300309E+04 -2.831236E+05  9.032382E+04 -8.896217E+04  5.443005E-10 -7.471769E-11
        49  19  1.355614E+04 -4.092645E+05  2.653556E+04 -7.884715E+04 -3.231906E+03  1.470230E+04
        49  20 -1.727180E+04 -5.396155E+05  5.373640E+03 -3.772260E+04  2.046105E+03  2.075059E+04
        49  21 -1.108858E+04 -6.600493E+05 -2.627954E+03 -5.798680E+04  1.312849E+03  2.679172E+04
        49  22 -1.730170E+03 -4.716071E+05  1.254718E+04 -7.351049E+04 -3.224695E+03  8.339283E+03
        49  23 -1.791029E+03 -4.769539E+05  2.001617E+04 -4.279822E+04  2.047788E+03  1.900308E+04
        49  24  3.595827E+04 -4.716023E+05  4.385016E+04 -7.347212E+04  1.309097E+03  2.966088E+04
        49  25 -1.701662E+04 -5.339459E+05 -1.441288E+03 -6.817437E+04 -3.217594E+03  1.976898E+03
        49  26  1.368956E+04 -4.142887E+05  3.465845E+04 -4.787435E+04  2.049500E+03  1.725539E+04
        49  27  8.300337E+04 -2.831225E+05  9.032581E+04 -8.896213E+04  1.305204E+03  3.253090E+04
        50   1 -6.901891E+05 -1.530999E+05 -5.341267E+04 -2.591358E+05 -2.067564E+04 -6.389308E+03
        50   2 -6.757767E+05 -1.185596E+05 -3.216203E+04 -2.539033E+05 -1.321655E+04 -9.229001E+02
        50   3 -6.653282E+05 -1.124148E+05 -2.333148E+04 -2.494091E+05 -4.730637E+03  1.805705E+03
        50   4 -6.002503E+05 -1.109113E+05 -2.758215E+04 -2.260804E+05 -1.801235E+04 -5.391006E+03
        50   5 -5.969919E+05 -8.646443E+04 -1.178363E+04 -2.296258E+05 -1.251934E+04 -6.616025E+02
        50   6 -5.973062E+05 -9.002172E+04 -6.845258E+03 -2.339099E+05 -5.999696E+03  1.329951E+03
        50   7 -5.103046E+05 -6.872127E+04 -1.752698E+03 -1.930206E+05 -1.534868E+04 -4.392468E+03
        50   8 -5.182011E+05 -5.436859E+04  8.594188E+03 -2.053454E+05 -1.182204E+04 -4.002620E+02
        50   9 -5.292793E+05 -6.762840E+04  9.640745E+03 -2.184092E+05 -7.268915E+03  8.541521E+02
        50  10 -6.901896E+05 -1.531001E+05 -5.341355E+04 -2.591359E+05  2.200837E-09 -7.290013E-11
        50  11 -6.757769E+05 -1.185597E+05 -3.216236E+04 -2.539033E+05  2.054126E-09 -4.683963E-10
        50  12 -6.653282E+05 -1.124149E+05 -2.333153E+04 -2.494091E+05 -4.241579E-10  1.479522E-10
        50  13 -6.002506E+05 -1.109114E+05 -2.758281E+04 -2.260805E+05 -2.576493E-11 -3.444871E-10
        50  14 -5.969920E+05 -8.646447E+04 -1.178392E+04 -2.296258E+05  2.621512E-09 -2.131715E-10
        50  15 -5.973062E+05 -9.002174E+04 -6.845329E+03 -2.339099E+05  1.585240E-09  5.516647E-10
        50  16 -5.103048E+05 -6.872135E+04 -1.753177E+03 -1.930207E+05 -3.298602E-10 -4.654040E-10
        50  17 -5.182013E+05 -5.436863E+04  8.593925E+03 -2.053454E+05  1.617262E-09 -2.674869E-10
        50  18 -5.292794E+05 -6.762841E+04  9.640644E+03 -2.184092E+05  5.887165E-10  1.240605E-09
        50  19 -6.901891E+05 -1.530999E+05 -5.341267E+04 -2.591358E+05  2.067564E+04  6.389308E+03
        50  20 -6.757767E+05 -1.185596E+05 -3.216203E+04 -2.539033E+05  1.321655E+04  9.229001E+02
        50  21 -6.653282E+05 -1.124148E+05 -2.333148E+04 -2.494091E+05  4.730637E+03 -1.805705E+03
        50  22 -6.002503E+05 -1.109113E+05 -2.758215E+04 -2.260804E+05  1.801235E+04  5.391006E+03
        50  23 -5.969919E+05 -8.646443E+04 -1.178363E+04 -2.296258E+05  1.251934E+04  6.616025E+02
        50  24 -5.973062E+05 -9.002172E+04 -6.845258E+03 -2.339099E+05  5.999696E+03 -1.329951E+03
        50  25 -5.103046E+05 -6.872127E+04 -1.752698E+03 -1.930206E+05  1.534868E+04  4.392468E+03
        50  26 -5.182011E+05 -5.436859E+04  8.594188E+03 -2.053454E+05  1.182204E+04  4.002620E+02
        50  27 -5.292793E+05 -6.762840E+04  9.640745E+03 -2.184092E+05  7.268915E+03 -8.541521E+02
        51   1 -6.473420E+05 -1.119860E+05 -1.838866E+04 -2.469719E+05 -4.370763E+03  1.034012E+03
        51   2 -6.348470E+05 -1.015243E+05 -1.184180E+04 -2.397062E+05 -2.614331E+03  9.438644E+02
        51   3 -6.174429E+05 -9.856413E+04 -6.891110E+03 -2.386420E+05 -8.063485E+02  7.161473E+02
        51   4 -5.963988E+05 -9.243946E+04 -5.482766E+03 -2.325078E+05 -4.793115E+03  8.756652E+02
        51   5 -5.987522E+05 -8.791440E+04 -2.759221E+03 -2.297008E+05 -3.135396E+03  7.485348E+02
        51   6 -5.961772E+05 -9.087106E+04 -1.553450E+03 -2.330952E+05 -1.426180E+03  4.838218E+02
        51   7 -5.454530E+05 -7.289269E+04  7.422954E+03 -2.180426E+05 -5.215507E+03  7.173034E+02
        51   8 -5.626564E+05 -7.430449E+04  6.323187E+03 -2.196949E+05 -3.656490E+03  5.531939E+02
        51   9 -5.749114E+05 -8.317810E+04  3.784082E+03 -2.275483E+05 -2.046026E+03  2.514919E+02
        51  10 -6.473420E+05 -1.119860E+05 -1.838870E+04 -2.469719E+05  6.276475E-11  8.775390E-10
        51  11 -6.348470E+05 -1.015243E+05 -1.184181E+04 -2.397062E+05 -1.214115E-09 -5.824768E-10
        51  12 -6.174429E+05 -9.856413E+04 -6.891112E+03 -2.386420E+05 -1.638223E-09 -8.183847E-10
        51  13 -5.963989E+05 -9.243947E+04 -5.482810E+03 -2.325078E+05 -1.039180E-09  6.764039E-10
        51  14 -5.987522E+05 -8.791440E+04 -2.759240E+03 -2.297008E+05 -1.496356E-09 -5.343038E-10
        51  15 -5.961772E+05 -9.087107E+04 -1.553454E+03 -2.330952E+05  2.161757E-10 -8.434617E-10
        51  16 -5.454531E+05 -7.289270E+04  7.422902E+03 -2.180426E+05 -2.091488E-09 -8.566676E-12
        51  17 -5.626564E+05 -7.430449E+04  6.323161E+03 -2.196949E+05  1.068998E-10 -1.324761E-09
        51  18 -5.749114E+05 -8.317810E+04  3.784074E+03 -2.275483E+05  1.745398E-09 -6.411164E-10
        51  19 -6.473420E+05 -1.119860E+05 -1.838866E+04 -2.469719E+05  4.370763E+03 -1.034012E+03
        51  20 -6.348470E+05 -1.015243E+05 -1.184180E+04 -2.397062E+05  2.614331E+03 -9.438644E+02
        51  21 -6.174429E+05 -9.856413E+04 -6.891110E+03 -2.386420E+05  8.063485E+02 -7.161473E+02
        51  22 -5.963988E+05 -9.243946E+04 -5.482766E+03 -2.325078E+05  4.793115E+03 -8.756652E+02
        51  23 -5.987522E+05 -8.791440E+04 -2.759221E+03 -2.297008E+05  3.135396E+03 -7.485348E+02
        51  24 -5.961772E+05 -9.087106E+04 -1.553450E+03 -2.330952E+05  1.426180E+03 -4.838218E+02
        51  25 -5.454530E+05 -7.289269E+04  7.422954E+03 -2.180426E+05  5.215507E+03 -7.173034E+02
        51  26 -5.626564E+05 -7.430449E+04  6.323187E+03 -2.196949E+05  3.656490E+03 -5.531939E+02
        51  27 -5.749114E+05 -8.317810E+04  3.784082E+03 -2.275483E+05  2.046026E+03 -2.514919E+02
        52   1 -6.026032E+05 -9.348634E+04 -2.781761E+03 -2.347843E+05 -4.443261E+02  2.922567E+02
        52   2 -5.903027E+05 -8.482181E+04  1.504213E+03 -2.273513E+05  1.919264E+02 -3.901140E+02
        52   3 -5.723293E+05 -8.205967E+04  5.506194E+03 -2.265086E+05  8.305207E+02 -1.078613E+03
        52   4 -5.960858E+05 -9.104739E+04 -1.195604E+03 -2.329839E+05 -1.022250E+03  7.564406E+01
        52   5 -5.989146E+05 -8.804056E+04 -6.556843E+02 -2.297097E+05 -3.904142E+02 -6.083931E+02
        52   6 -5.960698E+05 -9.093539E+04 -3.962766E+02 -2.330258E+05  2.437531E+02 -1.298561E+03
        52   7 -5.895684E+05 -8.860841E+04  3.905761E+02 -2.311836E+05 -1.600188E+03 -1.409741E+02
        52   8 -6.075265E+05 -9.125934E+04 -2.815614E+03 -2.320680E+05 -9.727527E+02 -8.266714E+02
        52   9 -6.198100E+05 -9.981115E+04 -6.298852E+03 -2.395429E+05 -3.429955E+02 -1.518501E+03
        52  10 -6.026032E+05 -9.348634E+04 -2.781761E+03 -2.347843E+05  2.189578E-10 -3.677881E-10
        52  11 -5.903027E+05 -8.482181E+04  1.504213E+03 -2.273513E+05  3.646711E-09  9.166870E-10
        52  12 -5.723293E+05 -8.205967E+04  5.506190E+03 -2.265086E+05  1.337999E-09  1.170769E-09
        52  13 -5.960858E+05 -9.104739E+04 -1.195606E+03 -2.329839E+05  2.427178E-09  1.382306E-10
        52  14 -5.989146E+05 -8.804056E+04 -6.556853E+02 -2.297097E+05  2.731756E-09  6.327418E-10
        52  15 -5.960698E+05 -9.093539E+04 -3.962799E+02 -2.330258E+05  1.009700E-10  9.233902E-10
        52  16 -5.895684E+05 -8.860841E+04  3.905713E+02 -2.311836E+05  3.216459E-09  2.522786E-10
        52  17 -6.075265E+05 -9.125934E+04 -2.815617E+03 -2.320680E+05  4.694997E-09  5.676017E-10
        52  18 -6.198100E+05 -9.981115E+04 -6.298856E+03 -2.395429E+05  1.369374E-09  9.004229E-10
        52  19 -6.026032E+05 -9.348634E+04 -2.781761E+03 -2.347843E+05  4.443261E+02 -2.922567E+02
        52  20 -5.903027E+05 -8.482181E+04  1.504213E+03 -2.273513E+05 -1.919264E+02  3.901140E+02
        52  21 -5.723293E+05 -8.205967E+04  5.506194E+03 -2.265086E+05 -8.305207E+02  1.078613E+03
        52  22 -5.960858E+05 -9.104739E+04 -1.195604E+03 -2.329839E+05  1.022250E+03 -7.564406E+01
        52  23 -5.989146E+05 -8.804056E+04 -6.556843E+02 -2.297097E+05  3.904142E+02  6.083931E+02
        52  24 -5.960698E+05 -9.093539E+04 -3.962766E+02 -2.330258E+05 -2.437531E+02  1.298561E+03
        52  25 -5.895684E+05 -8.860841E+04  3.905761E+02 -2.311836E+05  1.600188E+03  1.409741E+02
        52  26 -6.075265E+05 -9.125934E+04 -2.815614E+03 -2.320680E+05  9.727527E+02  8.266714E+02
        52  27 -6.198100E+05 -9.981115E+04 -6.298852E+03 -2.395429E+05  3.429955E+02  1.518501E+03
        53   1 -5.577980E+05 -7.664735E+04  9.324070E+03 -2.225536E+05  1.065328E+03 -1.531806E+03
        53   2 -5.455656E+05 -6.814016E+04  1.312146E+04 -2.151303E+05  1.498082E+03 -2.296178E+03
        53   3 -5.276062E+05 -6.539544E+04  1.682022E+04 -2.142979E+05  1.930457E+03 -3.059335E+03
        53   4 -5.960639E+05 -9.094255E+04 -3.264397E+02 -2.330118E+05  4.811400E+02 -1.750796E+03
        53   5 -5.989270E+05 -8.805917E+04 -2.587922E+02 -2.297173E+05  9.147395E+02 -2.514875E+03
        53   6 -5.960635E+05 -9.093830E+04 -2.904069E+02 -2.330135E+05  1.347960E+03 -3.277743E+03
        53   7 -6.343277E+05 -1.052374E+05 -9.976894E+03 -2.434694E+05 -1.029992E+02 -1.969767E+03
        53   8 -6.522853E+05 -1.079779E+05 -1.363920E+04 -2.443030E+05  3.314549E+02 -2.733550E+03
        53   9 -6.645166E+05 -1.164810E+05 -1.740153E+04 -2.517274E+05  7.655290E+02 -3.496126E+03
        53  10 -5.577980E+05 -7.664736E+04  9.324063E+03 -2.225536E+05 -4.456466E-10  5.981097E-10
        53  11 -5.455656E+05 -6.814017E+04  1.312145E+04 -2.151303E+05 -1.823838E-10 -9.902423E-10
        53  12 -5.276062E+05 -6.539545E+04  1.682020E+04 -2.142979E+05 -8.213212E-10 -1.125397E-09
        53  13 -5.960639E+05 -9.094256E+04 -3.264459E+02 -2.330118E+05 -2.301982E-09  4.768080E-10
        53  14 -5.989270E+05 -8.805918E+04 -2.588057E+02 -2.297173E+05 -6.265635E-10 -9.386080E-10
        53  15 -5.960635E+05 -9.093831E+04 -2.904305E+02 -2.330135E+05  1.867112E-09 -1.110330E-09
        53  16 -6.343277E+05 -1.052374E+05 -9.976902E+03 -2.434694E+05 -9.668463E-10  1.472004E-10
        53  17 -6.522853E+05 -1.079779E+05 -1.363921E+04 -2.443030E+05  3.774539E-09 -1.008549E-09
        53  18 -6.645166E+05 -1.164810E+05 -1.740155E+04 -2.517274E+05  2.127526E-09 -8.825279E-10
        53  19 -5.577980E+05 -7.664735E+04  9.324070E+03 -2.225536E+05 -1.065328E+03  1.531806E+03
        53  20 -5.455656E+05 -6.814016E+04  1.312146E+04 -2.151303E+05 -1.498082E+03  2.296178E+03
        53  21 -5.276062E+05 -6.539544E+04  1.682022E+04 -2.142979E+05 -1.930457E+03  3.059335E+03
        53  22 -5.960639E+05 -9.094255E+04 -3.264397E+02 -2.330118E+05 -4.811400E+02  1.750796E+03
        53  23 -5.989270E+05 -8.805917E+04 -2.587922E+02 -2.297173E+05 -9.147395E+02  2.514875E+03
        53  24 -5.960635E+05 -9.093830E+04 -2.904069E+02 -2.330135E+05 -1.347960E+03  3.277743E+03
        53  25 -6.343277E+05 -1.052374E+05 -9.976894E+03 -2.434694E+05  1.029992E+02  1.969767E+03
        53  26 -6.522853E+05 -1.079779E+05 -1.363920E+04 -2.443030E+05 -3.314549E+02  2.733550E+03
        53  27 -6.645166E+05 -1.164810E+05 -1.740153E+04 -2.517274E+05 -7.655290E+02  3.496126E+03
        54   1 -5.131798E+05 -5.998017E+04  2.049918E+04 -2.103539E+05  2.158115E+03 -3.511514E+03
        54   2 -5.010421E+05 -5.154471E+04  2.399379E+04 -2.029846E+05  2.729631E+03 -4.217355E+03
        54   3 -4.832482E+05 -4.885004E+04  2.727957E+04 -2.021502E+05  3.299882E+03 -4.919433E+03
        54   4 -5.960789E+05 -9.092677E+04 -3.410811E+02 -2.330040E+05  1.577067E+03 -3.729406E+03
        54   5 -5.989093E+05 -8.807006E+04 -5.444015E+02 -2.297315E+05  2.151224E+03 -4.434308E+03
        54   6 -5.960839E+05 -9.095474E+04 -9.586237E+02 -2.329939E+05  2.724109E+03 -5.135447E+03
        54   7 -6.789713E+05 -1.218729E+05 -2.118188E+04 -2.556513E+05  9.961041E+02 -3.947266E+03
        54   8 -6.967668E+05 -1.245947E+05 -2.508328E+04 -2.564744E+05  1.572919E+03 -4.651223E+03
        54   9 -7.089067E+05 -1.330584E+05 -2.919768E+04 -2.638325E+05  2.148452E+03 -5.351418E+03
        54  10 -5.131798E+05 -5.998019E+04  2.049915E+04 -2.103539E+05 -2.216483E-09 -5.451104E-10
        54  11 -5.010421E+05 -5.154473E+04  2.399374E+04 -2.029846E+05 -2.883085E-09 -1.408556E-10
        54  12 -4.832482E+05 -4.885007E+04  2.727950E+04 -2.021502E+05 -1.468339E-09 -1.712470E-10
        54  13 -5.960789E+05 -9.092679E+04 -3.411119E+02 -2.330040E+05  1.296805E-09 -6.225481E-10
        54  14 -5.989093E+05 -8.807009E+04 -5.444471E+02 -2.297314E+05  1.796840E-09 -1.904091E-10
        54  15 -5.960839E+05 -9.095477E+04 -9.586872E+02 -2.329939E+05  1.234494E-09  2.940933E-10
        54  16 -6.789713E+05 -1.218729E+05 -2.118191E+04 -2.556513E+05  1.650284E-09 -7.380158E-10
        54  17 -6.967668E+05 -1.245947E+05 -2.508333E+04 -2.564744E+05  3.179750E-09 -3.575408E-11
        54  18 -7.089067E+05 -1.330585E+05 -2.919774E+04 -2.638325E+05  1.259076E-09  6.702995E-10
        54  19 -5.131798E+05 -5.998017E+04  2.049918E+04 -2.103539E+05 -2.158115E+03  3.511514E+03
        54  20 -5.010421E+05 -5.154471E+04  2.399379E+04 -2.029846E+05 -2.729631E+03  4.217355E+03
        54  21 -4.832482E+05 -4.885004E+04  2.727957E+04 -2.021502E+05 -3.299882E+03  4.919433E+03
        54  22 -5.960789E+05 -9.092677E+04 -3.410811E+02 -2.330040E+05 -1.577067E+03  3.729406E+03
        54  23 -5.989093E+05 -8.807006E+04 -5.444015E+02 -2.297315E+05 -2.151224E+03  4.434308E+03
        54  24 -5.960839E+05 -9.095474E+04 -9.586237E+02 -2.329939E+05 -2.724109E+03  5.135447E+03
        54  25 -6.789713E+05 -1.218729E+05 -2.118188E+04 -2.556513E+05 -9.961041E+02  3.947266E+03
        54  26 -6.967668E+05 -1.245947E+05 -2.508328E+04 -2.564744E+05 -1.572919E+03  4.651223E+03
        54  27 -7.089067E+05 -1.330584E+05 -2.919768E+04 -2.638325E+05 -2.148452E+03  5.351418E+03
        55   1 -4.689663E+05 -4.349121E+04  3.066739E+04 -1.983238E+05  3.660700E+03 -5.318003E+03
        55   2 -4.569384E+05 -3.507701E+04  3.331609E+04 -1.909544E+05  5.079990E+03 -5.691857E+03
        55   3 -4.395938E+05 -3.276870E+04  3.500726E+04 -1.899533E+05  6.491692E+03 -6.044758E+03
        55   4 -5.961411E+05 -9.089788E+04 -1.260953E+03 -2.330092E+05  3.082185E+03 -5.535087E+03
        55   5 -5.988273E+05 -8.804685E+04 -2.262292E+03 -2.297490E+05  4.516227E+03 -5.903483E+03
        55   6 -5.962002E+05 -9.130500E+04 -4.233097E+03 -2.328573E+05  5.942648E+03 -6.250935E+03
        55   7 -7.233006E+05 -1.383037E+05 -3.319072E+04 -2.676883E+05  2.503797E+03 -5.752123E+03
        55   8 -7.406968E+05 -1.410155E+05 -3.784235E+04 -2.685356E+05  3.952603E+03 -6.115056E+03
        55   9 -7.527826E+05 -1.498397E+05 -4.347539E+04 -2.757514E+05  5.393754E+03 -6.457054E+03
        55  10 -4.689663E+05 -4.349124E+04  3.066731E+04 -1.983237E+05 -5.507889E-10 -7.039520E-11
        55  11 -4.569384E+05 -3.507705E+04  3.331598E+04 -1.909544E+05 -2.486567E-09 -1.913943E-09
        55  12 -4.395938E+05 -3.276875E+04  3.500711E+04 -1.899532E+05 -1.226502E-09 -2.676621E-10
        55  13 -5.961411E+05 -9.089792E+04 -1.261029E+03 -2.330092E+05 -9.853356E-10 -3.962652E-10
        55  14 -5.988274E+05 -8.804689E+04 -2.262396E+03 -2.297489E+05 -4.024459E-09 -1.793272E-09
        55  15 -5.962002E+05 -9.130505E+04 -4.233237E+03 -2.328572E+05 -2.537392E-09 -1.017036E-09
        55  16 -7.233006E+05 -1.383038E+05 -3.319079E+04 -2.676883E+05 -3.395723E-09 -7.037653E-10
        55  17 -7.406969E+05 -1.410155E+05 -3.784245E+04 -2.685355E+05 -4.158099E-09 -1.925428E-09
        55  18 -7.527827E+05 -1.498397E+05 -4.347552E+04 -2.757514E+05 -2.262289E-09 -1.342768E-09
        55  19 -4.689663E+05 -4.349121E+04  3.066739E+04 -1.983238E+05 -3.660700E+03  5.318003E+03
        55  20 -4.569384E+05 -3.507701E+04  3.331609E+04 -1.909544E+05 -5.079990E+03  5.691857E+03
        55  21 -4.395938E+05 -3.276870E+04  3.500726E+04 -1.899533E+05 -6.491692E+03  6.044758E+03
        55  22 -5.961411E+05 -9.089788E+04 -1.260953E+03 -2.330092E+05 -3.082185E+03  5.535087E+03
        55  23 -5.988273E+05 -8.804685E+04 -2.262292E+03 -2.297490E+05 -4.516227E+03  5.903483E+03
        55  24 -5.962002E+05 -9.130500E+04 -4.233097E+03 -2.328573E+05 -5.942648E+03  6.250935E+03
        55  25 -7.233006E+05 -1.383037E+05 -3.319072E+04 -2.676883E+05 -2.503797E+03  5.752123E+03
        55  26 -7.406968E+05 -1.410155E+05 -3.784235E+04 -2.685356E+05 -3.952603E+03  6.115056E+03
        55  27 -7.527826E+05 -1.498397E+05 -4.347539E+04 -2.757514E+05 -5.393754E+03  6.457054E+03
        56   1 -4.251768E+05 -2.755223E+04  3.732722E+04 -1.872904E+05  7.557992E+03 -6.212084E+03
        56   2 -4.133998E+05 -1.807844E+04  3.659742E+04 -1.786499E+05  1.263809E+04 -5.141850E+03
        56   3 -3.989963E+05 -2.025794E+04  3.063512E+04 -1.749085E+05  1.759273E+04 -3.736510E+03
        56   4 -5.965432E+05 -9.065985E+04 -5.526047E+03 -2.332398E+05  6.910062E+03 -6.455414E+03
        56   5 -5.982298E+05 -8.761584E+04 -9.860108E+03 -2.297375E+05  1.222944E+04 -5.295481E+03
        56   6 -5.973386E+05 -9.627380E+04 -1.961758E+04 -2.311342E+05  1.742326E+04 -3.800455E+03
        56   7 -7.678801E+05 -1.537655E+05 -4.838143E+04 -2.791777E+05  6.262330E+03 -6.698671E+03
        56   8 -7.830264E+05 -1.571509E+05 -5.632035E+04 -2.808113E+05  1.182092E+04 -5.449061E+03
        56   9 -7.956431E+05 -1.722869E+05 -6.987369E+04 -2.873437E+05  1.725383E+04 -3.864376E+03
        56  10 -4.251768E+05 -2.755228E+04  3.732704E+04 -1.872903E+05  7.950951E-09  3.795087E-09
        56  11 -4.134000E+05 -1.807852E+04  3.659707E+04 -1.786499E+05  9.530952E-10  1.942022E-09
        56  12 -3.989966E+05 -2.025803E+04  3.063452E+04 -1.749084E+05 -7.394904E-09 -2.454292E-09
        56  13 -5.965432E+05 -9.065991E+04 -5.526215E+03 -2.332398E+05 -1.166397E-10  5.226031E-10
        56  14 -5.982300E+05 -8.761591E+04 -9.860442E+03 -2.297375E+05  9.233514E-10  1.994878E-09
        56  15 -5.973389E+05 -9.627389E+04 -1.961818E+04 -2.311342E+05  2.566851E-09  3.567002E-10
        56  16 -7.678802E+05 -1.537656E+05 -4.838158E+04 -2.791777E+05 -7.188221E-09 -2.562415E-09
        56  17 -7.830266E+05 -1.571509E+05 -5.632067E+04 -2.808113E+05  1.639677E-09  1.597560E-09
        56  18 -7.956434E+05 -1.722870E+05 -6.987427E+04 -2.873437E+05  7.035464E-09  3.417678E-09
        56  19 -4.251768E+05 -2.755223E+04  3.732722E+04 -1.872904E+05 -7.557992E+03  6.212084E+03
        56  20 -4.133998E+05 -1.807844E+04  3.659742E+04 -1.786499E+05 -1.263809E+04  5.141850E+03
        56  21 -3.989963E+05 -2.025794E+04  3.063512E+04 -1.749085E+05 -1.759273E+04  3.736510E+03
        56  22 -5.965432E+05 -9.065985E+04 -5.526047E+03 -2.332398E+05 -6.910062E+03  6.455414E+03
        56  23 -5.982298E+05 -8.761584E+04 -9.860108E+03 -2.297375E+05 -1.222944E+04  5.295481E+03
        56  24 -5.973386E+05 -9.627380E+04 -1.961758E+04 -2.311342E+05 -1.742326E+04  3.800455E+03
        56  25 -7.678801E+05 -1.537655E+05 -4.838143E+04 -2.791777E+05 -6.262330E+03  6.698671E+03
        56  26 -7.830264E+05 -1.571509E+05 -5.632035E+04 -2.808113E+05 -1.182092E+04  5.449061E+03
        56  27 -7.956431E+05 -1.722869E+05 -6.987369E+04 -2.873437E+05 -1.725383E+04  3.864376E+03
        57   1 -3.791723E+05 -1.567817E+04  2.892704E+04 -1.866370E+05  2.334634E+04 -2.976028E+03
        57   2 -3.715194E+05  9.580215E+03  1.517474E+04 -1.592518E+05  4.131892E+04  4.040414E+03
        57   3 -3.907193E+05 -4.942422E+04 -3.368148E+04 -1.172789E+05  5.680885E+04  1.766582E+04
        57   4 -6.005640E+05 -8.764308E+04 -2.449810E+04 -2.361807E+05  2.113442E+04 -3.806552E+03
        57   5 -5.919492E+05 -8.240139E+04 -4.217974E+04 -2.294423E+05  4.384893E+04  4.989757E+03
        57   6 -6.111393E+05 -1.623818E+05 -9.873447E+04 -2.081134E+05  6.408004E+04  2.039460E+04
        57   7 -8.219076E+05 -1.596074E+05 -7.792671E+04 -2.857096E+05  1.892336E+04 -4.636848E+03
        57   8 -8.123304E+05 -1.743762E+05 -9.953812E+04 -2.996089E+05  4.637795E+04  5.938630E+03
        57   9 -8.315087E+05 -2.753222E+05 -1.637916E+05 -2.989141E+05  7.134838E+04  2.312142E+04
        57  10 -3.791729E+05 -1.567833E+04  2.892600E+04 -1.866370E+05 -7.327991E-10 -1.103350E-09
        57  11 -3.715212E+05  9.579739E+03  1.517150E+04 -1.592520E+05 -2.575507E-09 -4.725388E-10
        57  12 -3.907229E+05 -4.942542E+04 -3.368813E+04 -1.172797E+05  1.778861E-10 -4.247180E-10
        57  13 -6.005645E+05 -8.764321E+04 -2.449896E+04 -2.361806E+05 -2.790106E-09 -8.783953E-10
        57  14 -5.919512E+05 -8.240193E+04 -4.218340E+04 -2.294425E+05  9.955799E-10 -1.274290E-09
        57  15 -6.111439E+05 -1.623834E+05 -9.874298E+04 -2.081144E+05 -9.994170E-10  1.067964E-10
        57  16 -8.219080E+05 -1.596076E+05 -7.792742E+04 -2.857095E+05  1.228520E-09 -9.204615E-11
        57  17 -8.123327E+05 -1.743768E+05 -9.954223E+04 -2.996091E+05  2.597530E-10 -1.518233E-09
        57  18 -8.315144E+05 -2.753242E+05 -1.638021E+05 -2.989154E+05  1.136365E-09 -7.025292E-10
        57  19 -3.791723E+05 -1.567817E+04  2.892704E+04 -1.866370E+05 -2.334634E+04  2.976028E+03
        57  20 -3.715194E+05  9.580215E+03  1.517474E+04 -1.592518E+05 -4.131892E+04 -4.040414E+03
        57  21 -3.907193E+05 -4.942422E+04 -3.368148E+04 -1.172789E+05 -5.680885E+04 -1.766582E+04
        57  22 -6.005640E+05 -8.764308E+04 -2.449810E+04 -2.361807E+05 -2.113442E+04  3.806552E+03
        57  23 -5.919492E+05 -8.240139E+04 -4.217974E+04 -2.294423E+05 -4.384893E+04 -4.989757E+03
        57  24 -6.111393E+05 -1.623818E+05 -9.873447E+04 -2.081134E+05 -6.408004E+04 -2.039460E+04
        57  25 -8.219076E+05 -1.596074E+05 -7.792671E+04 -2.857096E+05 -1.892336E+04  4.636848E+03
        57  26 -8.123304E+05 -1.743762E+05 -9.953812E+04 -2.996089E+05 -4.637795E+04 -5.938630E+03
        57  27 -8.315087E+05 -2.753222E+05 -1.637916E+05 -2.989141E+05 -7.134838E+04 -2.312142E+04
        58   1  6.331375E+03  2.024717E+04  2.475011E+04  8.663881E+03  1.698939E+04  2.370896E-01
        58   2  3.287329E+03 -1.057541E+03  1.111358E+04  2.835953E+03  1.106336E+04  5.053696E-02
        58   3  6.331286E+03 -1.097299E+03  6.651584E+03 -2.992028E+03  5.137231E+03 -2.475801E-02
        58   4  6.331295E+03  2.024703E+04  2.475009E+04 -6.022373E-09  1.698939E+04 -8.223908E-11
        58   5  3.287321E+03 -1.057556E+03  1.111358E+04 -1.404584E-08  1.106336E+04 -1.937722E-10
        58   6  6.331276E+03 -1.097316E+03  6.651581E+03  5.393670E-09  5.137231E+03 -3.692129E-10
        58   7  6.331375E+03  2.024717E+04  2.475011E+04 -8.663881E+03  1.698939E+04 -2.370896E-01
        58   8  3.287329E+03 -1.057541E+03  1.111358E+04 -2.835953E+03  1.106336E+04 -5.053696E-02
        58   9  6.331286E+03 -1.097299E+03  6.651584E+03  2.992028E+03  5.137231E+03  2.475800E-02
        58  10  6.331065E+03  2.024710E+04  2.474957E+04  8.663881E+03 -3.458582E-10 -2.809142E-11
        58  11  3.287198E+03 -1.057574E+03  1.111335E+04  2.835953E+03 -1.229450E-09 -2.222967E-10
        58  12  6.331257E+03 -1.097306E+03  6.651534E+03 -2.992028E+03 -1.371681E-09 -6.259432E-10
        58  13  6.330985E+03  2.024695E+04  2.474955E+04 -6.061418E-09  4.611700E-13 -8.049503E-11
        58  14  3.287189E+03 -1.057589E+03  1.111335E+04  1.008602E-09  3.231418E-09 -2.905254E-10
        58  15  6.331248E+03 -1.097323E+03  6.651532E+03  4.308942E-09  1.478230E-09 -3.948696E-10
        58  16  6.331065E+03  2.024710E+04  2.474957E+04 -8.663881E+03 -1.934570E-10 -1.446123E-10
        58  17  3.287198E+03 -1.057574E+03  1.111335E+04 -2.835953E+03  2.307063E-09 -3.595950E-10
        58  18  6.331257E+03 -1.097306E+03  6.651534E+03  2.992028E+03  5.701615E-10 -1.588626E-10
        58  19  6.331375E+03  2.024717E+04  2.475011E+04  8.663881E+03 -1.698939E+04 -2.370896E-01
        58  20  3.287329E+03 -1.057541E+03  1.111358E+04  2.835953E+03 -1.106336E+04 -5.053696E-02
        58  21  6.331286E+03 -1.097299E+03  6.651584E+03 -2.992028E+03 -5.137231E+03  2.475800E-02
        58  22  6.331295E+03  2.024703E+04  2.475009E+04  6.823737E-09 -1.698939E+04 -7.897221E-11
        58  23  3.287321E+03 -1.057556E+03  1.111358E+04  1.390884E-08 -1.106336E+04 -3.878888E-10
        58  24  6.331276E+03 -1.097316E+03  6.651581E+03  1.830236E-08 -5.137231E+03 -4.205763E-10
        58  25  6.331375E+03  2.024717E+04  2.475011E+04 -8.663881E+03 -1.698939E+04  2.370896E-01
        58  26  3.287329E+03 -1.057541E+03  1.111358E+04 -2.835953E+03 -1.106336E+04  5.053696E-02
        58  27  6.331286E+03 -1.097299E+03  6.651584E+03  2.992028E+03 -5.137231E+03 -2.475801E-02
        59   1  5.103549E+03  1.398932E+03  5.332505E+03  4.817421E+02  4.165707E+03  3.232399E-03
        59   2  4.821935E+03 -9.655152E+01  2.818163E+03  1.174885E+02  2.742792E+03  5.190508E-04
        59   3  5.103549E+03 -8.023413E+01  1.608155E+03 -2.467654E+02  1.319880E+03 -5.246137E-04
        59   4  5.103549E+03  1.398931E+03  5.332505E+03  1.303057E-08  4.165707E+03 -4.741579E-10
        59   5  4.821935E+03 -9.655155E+01  2.818163E+03 -5.535283E-09  2.742792E+03 -2.605008E-10
        59   6  5.103549E+03 -8.023424E+01  1.608155E+03  1.063135E-08  1.319880E+03  4.661841E-10
        59   7  5.103549E+03  1.398932E+03  5.332505E+03 -4.817421E+02  4.165707E+03 -3.232400E-03
        59   8  4.821935E+03 -9.655152E+01  2.818163E+03 -1.174885E+02  2.742792E+03 -5.190514E-04
        59   9  5.103549E+03 -8.023413E+01  1.608155E+03  2.467654E+02  1.319880E+03  5.246146E-04
        59  10  5.103531E+03  1.398927E+03  5.332473E+03  4.817421E+02 -1.162851E-09 -3.334842E-10
        59  11  4.821927E+03 -9.655354E+01  2.818148E+03  1.174885E+02 -4.161632E-10  3.837350E-10
        59  12  5.103547E+03 -8.023459E+01  1.608152E+03 -2.467654E+02 -1.443608E-10 -1.974834E-10
        59  13  5.103530E+03  1.398926E+03  5.332473E+03  1.100149E-08  1.283001E-12 -1.174342E-10
        59  14  4.821927E+03 -9.655357E+01  2.818148E+03 -3.405415E-09  1.079035E-09  2.232979E-10
        59  15  5.103547E+03 -8.023471E+01  1.608152E+03  7.496457E-09 -4.056755E-10 -4.447429E-10
        59  16  5.103531E+03  1.398927E+03  5.332473E+03 -4.817421E+02  1.162735E-09  9.779797E-11
        59  17  4.821927E+03 -9.655354E+01  2.818148E+03 -1.174885E+02  1.226216E-09  6.189500E-11
        59  18  5.103547E+03 -8.023459E+01  1.608152E+03  2.467654E+02 -2.612071E-10 -6.918660E-10
        59  19  5.103549E+03  1.398932E+03  5.332505E+03  4.817421E+02 -4.165707E+03 -3.232399E-03
        59  20  4.821935E+03 -9.655152E+01  2.818163E+03  1.174885E+02 -2.742792E+03 -5.190501E-04
        59  21  5.103549E+03 -8.023413E+01  1.608155E+03 -2.467654E+02 -1.319880E+03  5.246132E-04
        59  22  5.103549E+03  1.398931E+03  5.332505E+03  1.974220E-08 -4.165707E+03  2.393247E-10
        59  23  4.821935E+03 -9.655155E+01  2.818163E+03 -1.986729E-10 -2.742792E+03  7.069507E-10
        59  24  5.103549E+03 -8.023424E+01  1.608155E+03  2.132403E-08 -1.319880E+03 -1.355671E-09
        59  25  5.103549E+03  1.398932E+03  5.332505E+03 -4.817421E+02 -4.165707E+03  3.232400E-03
        59  26  4.821935E+03 -9.655152E+01  2.818163E+03 -1.174885E+02 -2.742792E+03  5.190516E-04
        59  27  5.103549E+03 -8.023413E+01  1.608155E+03  2.467654E+02 -1.319880E+03 -5.246160E-04
        60   1  4.993182E+03  8.990291E+01  1.214703E+03 -4.230617E-01  1.071854E+03 -7.298993E-07
        60   2  4.959893E+03 -1.121183E+01  6.132561E+02 -1.610971E+01  7.667743E+02 -1.989675E-05
        60   3  4.993183E+03 -4.896400E+00  2.372802E+02 -3.179613E+01  4.616990E+02 -2.364556E-05
        60   4  4.993182E+03  8.990291E+01  1.214703E+03  1.008493E-08  1.071854E+03  6.346409E-10
        60   5  4.959893E+03 -1.121183E+01  6.132561E+02  1.849206E-09  7.667743E+02  2.668197E-10
        60   6  4.993183E+03 -4.896402E+00  2.372802E+02  9.768130E-09  4.616990E+02  8.730640E-11
        60   7  4.993182E+03  8.990291E+01  1.214703E+03  4.230618E-01  1.071854E+03  7.311737E-07
        60   8  4.959893E+03 -1.121183E+01  6.132561E+02  1.610971E+01  7.667743E+02  1.989729E-05
        60   9  4.993183E+03 -4.896400E+00  2.372802E+02  3.179613E+01  4.616990E+02  2.364574E-05
        60  10  4.993181E+03  8.990261E+01  1.214701E+03 -4.230618E-01 -1.678433E-09 -4.252661E-10
        60  11  4.959893E+03 -1.121199E+01  6.132550E+02 -1.610971E+01 -1.937954E-09 -2.110377E-11
        60  12  4.993183E+03 -4.896457E+00  2.372798E+02 -3.179613E+01  1.779316E-09  2.083397E-11
        60  13  4.993181E+03  8.990261E+01  1.214701E+03  3.850900E-09 -2.155769E-09 -3.173918E-10
        60  14  4.959893E+03 -1.121199E+01  6.132550E+02  9.398095E-09 -1.076977E-09  4.879371E-10
        60  15  4.993183E+03 -4.896459E+00  2.372798E+02  9.021907E-09 -1.381529E-10 -1.813757E-10
        60  16  4.993181E+03  8.990261E+01  1.214701E+03  4.230618E-01  2.214298E-09 -2.092442E-10
        60  17  4.959893E+03 -1.121199E+01  6.132550E+02  1.610971E+01 -2.216754E-10  9.968681E-10
        60  18  4.993183E+03 -4.896457E+00  2.372798E+02  3.179613E+01 -1.173962E-09 -3.829249E-10
        60  19  4.993182E+03  8.990291E+01  1.214703E+03 -4.230618E-01 -1.071854E+03  7.290586E-07
        60  20  4.959893E+03 -1.121183E+01  6.132561E+02 -1.610971E+01 -7.667743E+02  1.989671E-05
        60  21  4.993183E+03 -4.896400E+00  2.372802E+02 -3.179613E+01 -4.616990E+02  2.364561E-05
        60  22  4.993182E+03  8.990291E+01  1.214703E+03  8.386690E-09 -1.071854E+03 -1.269490E-09
        60  23  4.959893E+03 -1.121183E+01  6.132561E+02  9.408152E-09 -7.667743E+02  7.088965E-10
        60  24  4.993183E+03 -4.896402E+00  2.372802E+02  1.204510E-08 -4.616990E+02 -4.500274E-10
        60  25  4.993182E+03  8.990291E+01  1.214703E+03  4.230618E-01 -1.071854E+03 -7.315647E-07
        60  26  4.959893E+03 -1.121183E+01  6.132561E+02  1.610971E+01 -7.667743E+02 -1.989531E-05
        60  27  4.993183E+03 -4.896400E+00  2.372802E+02  3.179613E+01 -4.616990E+02 -2.364650E-05
        61   1  4.975386E+03  4.779194E+00  8.386249E+01 -1.511220E+01  4.331002E+02 -1.054202E-05
        61   2  4.982141E+03  2.206442E+00 -2.199107E+02 -2.125989E+01  5.416547E+02 -1.854841E-05
        61   3  4.975387E+03  2.134006E+00 -5.937293E+02 -2.740768E+01  6.502109E+02 -2.870353E-05
        61   4  4.975386E+03  4.779194E+00  8.386249E+01  7.460490E-09  4.331002E+02 -8.561277E-11
        61   5  4.982141E+03  2.206441E+00 -2.199107E+02 -4.610319E-09  5.416547E+02  2.088949E-11
        61   6  4.975387E+03  2.134004E+00 -5.937293E+02  5.127570E-09  6.502109E+02  1.120299E-09
        61   7  4.975386E+03  4.779194E+00  8.386249E+01  1.511220E+01  4.331002E+02  1.054185E-05
        61   8  4.982141E+03  2.206442E+00 -2.199107E+02  2.125989E+01  5.416547E+02  1.854845E-05
        61   9  4.975387E+03  2.134006E+00 -5.937293E+02  2.740768E+01  6.502109E+02  2.870578E-05
        61  10  4.975386E+03  4.779144E+00  8.386214E+01 -1.511220E+01 -4.493216E-10 -5.058797E-11
        61  11  4.982140E+03  2.206364E+00 -2.199112E+02 -2.125989E+01 -2.814220E-10 -4.964824E-11
        61  12  4.975387E+03  2.133892E+00 -5.937301E+02 -2.740768E+01 -5.833505E-10  3.213560E-11
        61  13  4.975386E+03  4.779143E+00  8.386214E+01  5.396313E-09 -1.697274E-26 -4.663262E-10
        61  14  4.982140E+03  2.206363E+00 -2.199112E+02  8.305556E-10 -4.308813E-09  2.733617E-11
        61  15  4.975387E+03  2.133891E+00 -5.937301E+02  4.880461E-09  1.078822E-09  2.922397E-10
        61  16  4.975386E+03  4.779144E+00  8.386214E+01  1.511220E+01 -8.866929E-11 -8.822614E-10
        61  17  4.982140E+03  2.206364E+00 -2.199112E+02  2.125989E+01  8.180938E-10  1.046906E-10
        61  18  4.975387E+03  2.133892E+00 -5.937301E+02  2.740768E+01  1.795086E-10  5.525702E-10
        61  19  4.975386E+03  4.779194E+00  8.386249E+01 -1.511220E+01 -4.331002E+02  1.054192E-05
        61  20  4.982141E+03  2.206442E+00 -2.199107E+02 -2.125989E+01 -5.416547E+02  1.854832E-05
        61  21  4.975387E+03  2.134006E+00 -5.937293E+02 -2.740768E+01 -6.502109E+02  2.870360E-05
        61  22  4.975386E+03  4.779194E+00  8.386249E+01  7.640112E-09 -4.331002E+02 -8.468500E-10
        61  23  4.982141E+03  2.206441E+00 -2.199107E+02 -2.344369E-09 -5.416547E+02  3.413890E-11
        61  24  4.975387E+03  2.134004E+00 -5.937293E+02  8.639968E-10 -6.502109E+02 -5.358408E-10
        61  25  4.975386E+03  4.779194E+00  8.386249E+01  1.511220E+01 -4.331002E+02 -1.054362E-05
        61  26  4.982141E+03  2.206442E+00 -2.199107E+02  2.125989E+01 -5.416547E+02 -1.854825E-05
        61  27  4.975387E+03  2.134006E+00 -5.937293E+02  2.740768E+01 -6.502109E+02 -2.870466E-05
        62   1  4.952276E+03  5.334029E+00 -8.403703E+02 -3.721796E+01  7.800843E+02 -4.676390E-05
        62   2  5.011033E+03  1.945023E+01 -1.553561E+03 -5.558488E+01  1.548782E+03 -1.386665E-04
        62   3  4.952281E+03 -3.611345E+01 -2.784620E+03 -7.395183E+01  2.317478E+03 -2.760493E-04
        62   4  4.952276E+03  5.334027E+00 -8.403703E+02  7.078840E-09  7.800843E+02  8.292951E-10
        62   5  5.011033E+03  1.945023E+01 -1.553561E+03 -6.419508E-09  1.548782E+03 -7.076481E-10
        62   6  4.952281E+03 -3.611346E+01 -2.784620E+03  9.429784E-09  2.317478E+03 -3.974663E-10
        62   7  4.952276E+03  5.334029E+00 -8.403703E+02  3.721796E+01  7.800843E+02  4.676556E-05
        62   8  5.011033E+03  1.945023E+01 -1.553561E+03  5.558488E+01  1.548782E+03  1.386650E-04
        62   9  4.952281E+03 -3.611345E+01 -2.784620E+03  7.395183E+01  2.317478E+03  2.760485E-04
        62  10  4.952275E+03  5.333866E+00 -8.403714E+02 -3.721796E+01 -1.355272E-09 -6.872641E-11
        62  11  5.011030E+03  1.944959E+01 -1.553565E+03 -5.558488E+01  9.155220E-10 -2.745967E-10
        62  12  4.952275E+03 -3.611489E+01 -2.784630E+03 -7.395183E+01 -1.663804E-09 -6.051547E-11
        62  13  4.952275E+03  5.333863E+00 -8.403714E+02  5.645442E-10  2.158189E-09  2.142082E-10
        62  14  5.011030E+03  1.944958E+01 -1.553565E+03 -3.210079E-09 -1.073131E-09 -3.568079E-11
        62  15  4.952275E+03 -3.611490E+01 -2.784630E+03 -2.676853E-09 -1.479855E-09 -7.637499E-11
        62  16  4.952275E+03  5.333866E+00 -8.403714E+02  3.721796E+01  2.793236E-10  4.960327E-10
        62  17  5.011030E+03  1.944959E+01 -1.553565E+03  5.558488E+01  1.625125E-10  2.035906E-10
        62  18  4.952275E+03 -3.611489E+01 -2.784630E+03  7.395183E+01 -4.243300E-10 -9.151137E-11
        62  19  4.952276E+03  5.334029E+00 -8.403703E+02 -3.721796E+01 -7.800843E+02  4.676375E-05
        62  20  5.011033E+03  1.945023E+01 -1.553561E+03 -5.558488E+01 -1.548782E+03  1.386659E-04
        62  21  4.952281E+03 -3.611345E+01 -2.784620E+03 -7.395183E+01 -2.317478E+03  2.760492E-04
        62  22  4.952276E+03  5.334027E+00 -8.403703E+02  6.974085E-09 -7.800843E+02 -4.009209E-10
        62  23  5.011033E+03  1.945023E+01 -1.553561E+03  4.307309E-09 -1.548782E+03  6.364732E-10
        62  24  4.952281E+03 -3.611346E+01 -2.784620E+03  5.409947E-09 -2.317478E+03  2.396942E-10
        62  25  4.952276E+03  5.334029E+00 -8.403703E+02  3.721796E+01 -7.800843E+02 -4.676459E-05
        62  26  5.011033E+03  1.945023E+01 -1.553561E+03  5.558488E+01 -1.548782E+03 -1.386647E-04
        62  27  4.952281E+03 -3.611345E+01 -2.784620E+03  7.395183E+01 -2.317478E+03 -2.760488E-04
        63   1  4.832276E+03  5.763480E+01 -3.674628E+03 -2.310267E+02  2.898640E+03 -1.078644E-03
        63   2  5.161066E+03  1.104848E+02 -6.404589E+03 -1.101604E+02  6.081756E+03 -1.079135E-03
        63   3  4.832324E+03 -8.089550E+02 -1.144990E+04  1.070438E+01  9.264809E+03  1.597425E-04
        63   4  4.832276E+03  5.763470E+01 -3.674628E+03 -4.371289E-09  2.898640E+03  6.533159E-12
        63   5  5.161066E+03  1.104848E+02 -6.404589E+03 -2.810175E-09  6.081756E+03  9.102700E-11
        63   6  4.832324E+03 -8.089550E+02 -1.144990E+04  7.905297E-09  9.264809E+03  4.401658E-10
        63   7  4.832276E+03  5.763480E+01 -3.674628E+03  2.310267E+02  2.898640E+03  1.078644E-03
        63   8  5.161066E+03  1.104848E+02 -6.404589E+03  1.101604E+02  6.081756E+03  1.079136E-03
        63   9  4.832324E+03 -8.089550E+02 -1.144990E+04 -1.070438E+01  9.264809E+03 -1.597417E-04
        63  10  4.832267E+03  5.763255E+01 -3.674644E+03 -2.310267E+02 -1.809706E-09  9.116209E-11
        63  11  5.161026E+03  1.104749E+02 -6.404659E+03 -1.101604E+02 -2.119955E-09  8.856599E-11
        63  12  4.832232E+03 -8.089780E+02 -1.145006E+04  1.070438E+01 -1.407399E-09  2.415186E-11
        63  13  4.832267E+03  5.763245E+01 -3.674644E+03 -2.178438E-09  1.075921E-09  4.121921E-11
        63  14  5.161026E+03  1.104749E+02 -6.404659E+03  6.874789E-09  5.361653E-10  1.468501E-10
        63  15  4.832232E+03 -8.089780E+02 -1.145006E+04  1.054319E-08  4.037542E-10 -6.601903E-11
        63  16  4.832267E+03  5.763255E+01 -3.674644E+03  2.310267E+02  1.268088E-09 -7.942609E-12
        63  17  5.161026E+03  1.104749E+02 -6.404659E+03  1.101604E+02  1.305398E-09  2.026661E-10
        63  18  4.832232E+03 -8.089780E+02 -1.145006E+04 -1.070438E+01  1.075951E-09 -1.587524E-10
        63  19  4.832276E+03  5.763480E+01 -3.674628E+03 -2.310267E+02 -2.898640E+03  1.078644E-03
        63  20  5.161066E+03  1.104848E+02 -6.404589E+03 -1.101604E+02 -6.081756E+03  1.079136E-03
        63  21  4.832324E+03 -8.089550E+02 -1.144990E+04  1.070438E+01 -9.264809E+03 -1.597425E-04
        63  22  4.832276E+03  5.763470E+01 -3.674628E+03  2.168337E-09 -2.898640E+03  7.619824E-11
        63  23  5.161066E+03  1.104848E+02 -6.404589E+03  1.440578E-08 -6.081756E+03  2.001568E-10
        63  24  4.832324E+03 -8.089550E+02 -1.144990E+04  1.210406E-08 -9.264809E+03 -5.512179E-10
        63  25  4.832276E+03  5.763480E+01 -3.674628E+03  2.310267E+02 -2.898640E+03 -1.078644E-03
        63  26  5.161066E+03  1.104848E+02 -6.404589E+03  1.101604E+02 -6.081756E+03 -1.079135E-03
        63  27  4.832324E+03 -8.089550E+02 -1.144990E+04 -1.070438E+01 -9.264809E+03  1.597414E-04
        64   1  3.847399E+03  7.270624E+02 -1.487278E+04 -2.209951E+03  1.158030E+04 -4.122157E-02
        64   2  6.392556E+03  8.725110E+02 -2.561197E+04  1.067904E+03  2.451032E+04  4.216004E-02
        64   3  3.848059E+03 -1.260811E+04 -4.817451E+04  4.345828E+03  3.744034E+04  2.620795E-01
        64   4  3.847394E+03  7.270532E+02 -1.487278E+04  7.746914E-09  1.158030E+04  3.462778E-11
        64   5  6.392554E+03  8.725089E+02 -2.561197E+04 -2.090223E-09  2.451032E+04 -5.978872E-10
        64   6  3.848038E+03 -1.260815E+04 -4.817452E+04  7.189323E-09  3.744034E+04  6.736278E-10
        64   7  3.847399E+03  7.270624E+02 -1.487278E+04  2.209951E+03  1.158030E+04  4.122157E-02
        64   8  6.392556E+03  8.725110E+02 -2.561197E+04 -1.067904E+03  2.451032E+04 -4.216005E-02
        64   9  3.848059E+03 -1.260811E+04 -4.817451E+04 -4.345828E+03  3.744034E+04 -2.620795E-01
        64  10  3.847255E+03  7.270264E+02 -1.487303E+04 -2.209951E+03 -7.091092E-10 -3.818343E-10
        64  11  6.391911E+03  8.723498E+02 -2.561310E+04  1.067904E+03 -1.496871E-09 -7.540873E-10
        64  12  3.846553E+03 -1.260849E+04 -4.817715E+04  4.345828E+03 -2.723881E-10  3.126457E-10
        64  13  3.847250E+03  7.270172E+02 -1.487303E+04  1.211591E-09 -1.064342E-09 -3.621686E-10
        64  14  6.391909E+03  8.723476E+02 -2.561310E+04  9.392821E-11 -2.153909E-09 -5.077061E-10
        64  15  3.846533E+03 -1.260852E+04 -4.817715E+04 -1.023723E-09  5.384154E-10  5.541986E-11
        64  16  3.847255E+03  7.270264E+02 -1.487303E+04  2.209951E+03 -1.447500E-09 -3.394851E-10
        64  17  6.391911E+03  8.723498E+02 -2.561310E+04 -1.067904E+03  1.777407E-09 -2.579467E-10
        64  18  3.846553E+03 -1.260849E+04 -4.817715E+04 -4.345828E+03 -1.062102E-09 -2.163392E-10
        64  19  3.847399E+03  7.270624E+02 -1.487278E+04 -2.209951E+03 -1.158030E+04  4.122157E-02
        64  20  6.392556E+03  8.725110E+02 -2.561197E+04  1.067904E+03 -2.451032E+04 -4.216005E-02
        64  21  3.848059E+03 -1.260811E+04 -4.817451E+04  4.345828E+03 -3.744034E+04 -2.620795E-01
        64  22  3.847394E+03  7.270532E+02 -1.487278E+04  3.292907E-09 -1.158030E+04 -7.565723E-10
        64  23  6.392554E+03  8.725089E+02 -2.561197E+04  1.201535E-09 -2.451032E+04 -4.205986E-10
        64  24  3.848038E+03 -1.260815E+04 -4.817452E+04  9.879970E-09 -3.744034E+04 -5.600317E-10
        64  25  3.847399E+03  7.270624E+02 -1.487278E+04  2.209951E+03 -1.158030E+04 -4.122157E-02
        64  26  6.392556E+03  8.725110E+02 -2.561197E+04 -1.067904E+03 -2.451032E+04  4.216005E-02
        64  27  3.848059E+03 -1.260811E+04 -4.817451E+04 -4.345828E+03 -3.744034E+04  2.620795E-01
        65   1 -7.212065E+03  9.892595E+03 -6.002708E+04 -2.696244E+04  4.621277E+04 -2.007010E+00
        65   2  2.022364E+04  9.532954E+03 -1.001763E+05  2.556395E+04  9.964502E+04  4.102914E+00
        65   3 -7.200024E+03 -1.824625E+05 -2.230108E+05  7.808748E+04  1.530779E+05  1.925359E+01
        65   4 -7.212846E+03  9.891229E+03 -6.002728E+04  5.346295E-09  4.621277E+04  6.642848E-10
        65   5  2.022294E+04  9.531726E+03 -1.001765E+05  6.737868E-09  9.964502E+04 -6.913045E-10
        65   6 -7.206573E+03 -1.824740E+05 -2.230124E+05  1.889944E-08  1.530779E+05 -1.114634E-09
        65   7 -7.212065E+03  9.892595E+03 -6.002708E+04  2.696244E+04  4.621277E+04  2.007010E+00
        65   8  2.022364E+04  9.532954E+03 -1.001763E+05 -2.556395E+04  9.964502E+04 -4.102914E+00
        65   9 -7.200024E+03 -1.824625E+05 -2.230108E+05 -7.808748E+04  1.530779E+05 -1.925359E+01
        65  10 -7.214359E+03  9.892021E+03 -6.003109E+04 -2.696244E+04  1.416448E-09  6.258641E-10
        65  11  2.021298E+04  9.530288E+03 -1.001950E+05  2.556395E+04  2.511756E-09 -1.549085E-11
        65  12 -7.225191E+03 -1.824688E+05 -2.230548E+05  7.808748E+04  5.852759E-10 -2.174023E-11
        65  13 -7.215139E+03  9.890655E+03 -6.003129E+04  9.624883E-10  1.077410E-09  1.858061E-10
        65  14  2.021228E+04  9.529060E+03 -1.001951E+05 -5.129704E-09  1.114256E-09 -1.295807E-10
        65  15 -7.231740E+03 -1.824803E+05 -2.230565E+05  5.472260E-09  1.313896E-10 -8.172598E-11
        65  16 -7.214359E+03  9.892021E+03 -6.003109E+04  2.696244E+04 -1.955357E-09 -2.340348E-10
        65  17  2.021298E+04  9.530288E+03 -1.001950E+05 -2.556395E+04 -3.571628E-09 -3.645478E-10
        65  18 -7.225191E+03 -1.824688E+05 -2.230548E+05 -7.808748E+04 -1.654274E-09 -3.751463E-11
        65  19 -7.212065E+03  9.892595E+03 -6.002708E+04 -2.696244E+04 -4.621277E+04  2.007010E+00
        65  20  2.022364E+04  9.532954E+03 -1.001763E+05  2.556395E+04 -9.964502E+04 -4.102914E+00
        65  21 -7.200024E+03 -1.824625E+05 -2.230108E+05  7.808748E+04 -1.530779E+05 -1.925359E+01
        65  22 -7.212846E+03  9.891229E+03 -6.002728E+04  5.194762E-09 -4.621277E+04 -2.903103E-10
        65  23  2.022294E+04  9.531726E+03 -1.001765E+05 -1.053440E-08 -9.964502E+04  4.336499E-10
        65  24 -7.206573E+03 -1.824740E+05 -2.230124E+05  4.698254E-09 -1.530779E+05  6.386005E-10
        65  25 -7.212065E+03  9.892595E+03 -6.002708E+04  2.696244E+04 -4.621277E+04 -2.007010E+00
        65  26  2.022364E+04  9.532954E+03 -1.001763E+05 -2.556395E+04 -9.964502E+04  4.102914E+00
        65  27 -7.200024E+03 -1.824625E+05 -2.230108E+05 -7.808748E+04 -1.530779E+05  1.925359E+01
        66   1  1.197379E+05  3.655251E+05  1.172196E+05 -3.726152E+04  5.791821E+03  1.233825E+04
        66   2  1.036387E+05  3.005101E+05  9.628521E+04 -2.213671E+04  1.750131E+04  2.765652E+03
        66   3  8.799954E+04  2.369290E+05  8.171102E+04 -3.805620E+04  1.651091E+04 -6.807617E+03
        66   4 -1.319817E+03 -1.211011E+05 -1.521246E+03 -3.774582E+04  5.793736E+03 -1.535453E+03
        66   5  3.345168E+01 -1.209624E+05 -3.192957E+02 -2.222290E+04  1.750325E+04 -1.349220E+03
        66   6  1.535057E+02 -1.210863E+05  4.682726E+02 -3.774550E+04  1.650903E+04 -1.164526E+03
        66   7 -1.223949E+05 -6.075110E+05 -1.202786E+05 -3.822973E+04  5.795673E+03 -1.539831E+04
        66   8 -1.035841E+05 -5.422703E+05 -9.693543E+04 -2.230901E+04  1.750520E+04 -5.461321E+03
        66   9 -8.770136E+04 -4.789825E+05 -8.078264E+04 -3.743497E+04  1.650716E+04  4.475343E+03
        66  10  1.197378E+05  3.655249E+05  1.172192E+05 -3.726157E+04 -2.335217E-10 -3.388669E-10
        66  11  1.036383E+05  3.005100E+05  9.628462E+04 -2.213674E+04  8.606105E-10  1.026173E-09
        66  12  8.799924E+04  2.369288E+05  8.171042E+04 -3.805611E+04  2.257264E-09  8.483719E-10
        66  13 -1.319853E+03 -1.211011E+05 -1.521313E+03 -3.774581E+04 -2.349372E-10 -6.207437E-15
        66  14  3.312223E+01 -1.209625E+05 -3.198748E+02 -2.222288E+04 -2.470382E-10 -1.186853E-10
        66  15  1.532127E+02 -1.210864E+05  4.677579E+02 -3.774549E+04  1.951194E-09  5.397341E-11
        66  16 -1.223950E+05 -6.075112E+05 -1.202791E+05 -3.822966E+04  1.919087E-09  3.188543E-10
        66  17 -1.035845E+05 -5.422705E+05 -9.693606E+04 -2.230894E+04  5.584484E-10 -9.018645E-10
        66  18 -8.770166E+04 -4.789826E+05 -8.078319E+04 -3.743503E+04  1.478565E-09 -6.245624E-10
        66  19  1.197379E+05  3.655251E+05  1.172196E+05 -3.726152E+04 -5.791821E+03 -1.233825E+04
        66  20  1.036387E+05  3.005101E+05  9.628521E+04 -2.213671E+04 -1.750131E+04 -2.765652E+03
        66  21  8.799954E+04  2.369290E+05  8.171102E+04 -3.805620E+04 -1.651091E+04  6.807617E+03
        66  22 -1.319817E+03 -1.211011E+05 -1.521246E+03 -3.774582E+04 -5.793736E+03  1.535453E+03
        66  23  3.345168E+01 -1.209624E+05 -3.192957E+02 -2.222290E+04 -1.750325E+04  1.349220E+03
        66  24  1.535057E+02 -1.210863E+05  4.682726E+02 -3.774550E+04 -1.650903E+04  1.164526E+03
        66  25 -1.223949E+05 -6.075110E+05 -1.202786E+05 -3.822973E+04 -5.795673E+03  1.539831E+04
        66  26 -1.035841E+05 -5.422703E+05 -9.693543E+04 -2.230901E+04 -1.750520E+04  5.461321E+03
        66  27 -8.770136E+04 -4.789825E+05 -8.078264E+04 -3.743497E+04 -1.650716E+04 -4.475343E+03
        67   1  7.334008E+04  1.782475E+05  6.905828E+04 -3.813060E+04  1.318599E+04 -3.060527E+03
        67   2  5.760776E+04  1.137639E+05  5.537362E+04 -2.208647E+04  1.060832E+04 -4.467466E+03
        67   3  4.304238E+04  4.974262E+04  4.289270E+04 -3.759815E+04  7.486048E+03 -5.875622E+03
        67   4 -1.334494E+02 -1.209330E+05  8.587493E+02 -3.785938E+04  1.318551E+04 -1.288686E+03
        67   5 -5.261578E+01 -1.211217E+05  1.955465E+03 -2.208073E+04  1.060727E+04 -2.277065E+03
        67   6  1.122961E+03 -1.209246E+05  3.965603E+03 -3.785860E+04  7.484336E+03 -3.266802E+03
        67   7 -7.361318E+04 -4.200304E+05 -6.734661E+04 -3.758827E+04  1.318502E+04  4.823084E+02
        67   8 -5.771680E+04 -3.559561E+05 -5.146626E+04 -2.207499E+04  1.060622E+04 -8.748546E+01
        67   9 -4.079848E+04 -2.915648E+05 -3.496337E+04 -3.811898E+04  7.482622E+03 -6.586937E+02
        67  10  7.333989E+04  1.782474E+05  6.905794E+04 -3.813057E+04  2.607339E-09 -2.697158E-09
        67  11  5.760763E+04  1.137638E+05  5.537338E+04 -2.208643E+04  2.105979E-09  4.341167E-09
        67  12  4.304231E+04  4.974256E+04  4.289253E+04 -3.759811E+04 -7.235521E-10  6.403449E-09
        67  13 -1.336365E+02 -1.209330E+05  8.584195E+02 -3.785936E+04  3.651199E-09 -4.755964E-12
        67  14 -5.273798E+01 -1.211217E+05  1.955244E+03 -2.208071E+04 -5.788232E-10 -3.115558E-10
        67  15  1.122898E+03 -1.209246E+05  3.965478E+03 -3.785858E+04 -2.211515E-10  7.792834E-11
        67  16 -7.361336E+04 -4.200305E+05 -6.734693E+04 -3.758828E+04  3.147795E-09  2.446798E-09
        67  17 -5.771692E+04 -3.559561E+05 -5.146647E+04 -2.207498E+04 -1.781718E-09 -4.035702E-09
        67  18 -4.079854E+04 -2.915648E+05 -3.496347E+04 -3.811897E+04 -2.497627E-09 -6.057685E-09
        67  19  7.334008E+04  1.782475E+05  6.905828E+04 -3.813060E+04 -1.318599E+04  3.060527E+03
        67  20  5.760776E+04  1.137639E+05  5.537362E+04 -2.208647E+04 -1.060832E+04  4.467466E+03
        67  21  4.304238E+04  4.974262E+04  4.289270E+04 -3.759815E+04 -7.486048E+03  5.875622E+03
        67  22 -1.334494E+02 -1.209330E+05  8.587493E+02 -3.785938E+04 -1.318551E+04  1.288686E+03
        67  23 -5.261578E+01 -1.211217E+05  1.955465E+03 -2.208073E+04 -1.060727E+04  2.277065E+03
        67  24  1.122961E+03 -1.209246E+05  3.965603E+03 -3.785860E+04 -7.484336E+03  3.266802E+03
        67  25 -7.361318E+04 -4.200304E+05 -6.734661E+04 -3.758827E+04 -1.318502E+04 -4.823084E+02
        67  26 -5.771680E+04 -3.559561E+05 -5.146626E+04 -2.207499E+04 -1.060622E+04  8.748546E+01
        67  27 -4.079848E+04 -2.915648E+05 -3.496337E+04 -3.811898E+04 -7.482622E+03  6.586937E+02
        68   1  2.666866E+04 -8.005154E+03  3.030996E+04 -4.020534E+04  5.378284E+03 -6.766900E+03
        68   2  1.093300E+04 -7.451467E+04  1.923641E+04 -1.994237E+04  2.322923E+03 -1.042837E+04
        68   3  1.132733E+04 -1.365632E+05  1.456729E+04 -3.122530E+04  3.720701E+02 -1.408890E+04
        68   4 -7.947578E+02 -1.199836E+05  4.999320E+03 -3.785988E+04  5.376261E+03 -3.993983E+03
        68   5 -7.750626E+02 -1.222838E+05  8.451167E+03 -2.208111E+04  2.321526E+03 -8.503608E+03
        68   6  1.552226E+04 -1.199809E+05  1.889635E+04 -3.784788E+04  3.713767E+02 -1.301263E+04
        68   7 -2.825901E+04 -2.319504E+05 -2.031209E+04 -3.551484E+04  5.374259E+03 -1.221562E+03
        68   8 -1.248326E+04 -1.700508E+05 -2.334208E+03 -2.421969E+04  2.320115E+03 -6.578988E+03
        68   9  1.971734E+04 -1.033983E+05  2.322542E+04 -4.447064E+04  3.706604E+02 -1.193634E+04
        68  10  2.666861E+04 -8.005211E+03  3.030982E+04 -4.020531E+04 -1.253281E-09 -4.186529E-09
        68  11  1.093296E+04 -7.451479E+04  1.923620E+04 -1.994235E+04  1.912730E-09 -4.795689E-10
        68  12  1.132727E+04 -1.365634E+05  1.456691E+04 -3.122530E+04  1.302816E-09  2.571104E-10
        68  13 -7.947931E+02 -1.199837E+05  4.999236E+03 -3.785986E+04 -1.972332E-10 -4.180983E-12
        68  14 -7.750878E+02 -1.222839E+05  8.451021E+03 -2.208109E+04 -5.736307E-10 -3.554661E-10
        68  15  1.552222E+04 -1.199811E+05  1.889603E+04 -3.784788E+04  1.857965E-09  9.229696E-11
        68  16 -2.825904E+04 -2.319504E+05 -2.031215E+04 -3.551483E+04 -1.361332E-09  3.787870E-09
        68  17 -1.248328E+04 -1.700508E+05 -2.334300E+03 -2.421967E+04  2.144791E-09  8.731838E-10
        68  18  1.971731E+04 -1.033984E+05  2.322516E+04 -4.447064E+04 -2.537487E-10  1.194450E-10
        68  19  2.666866E+04 -8.005154E+03  3.030996E+04 -4.020534E+04 -5.378284E+03  6.766900E+03
        68  20  1.093300E+04 -7.451467E+04  1.923641E+04 -1.994237E+04 -2.322923E+03  1.042837E+04
        68  21  1.132733E+04 -1.365632E+05  1.456729E+04 -3.122530E+04 -3.720701E+02  1.408890E+04
        68  22 -7.947578E+02 -1.199836E+05  4.999320E+03 -3.785988E+04 -5.376261E+03  3.993983E+03
        68  23 -7.750626E+02 -1.222838E+05  8.451167E+03 -2.208111E+04 -2.321526E+03  8.503608E+03
        68  24  1.552226E+04 -1.199809E+05  1.889635E+04 -3.784788E+04 -3.713767E+02  1.301263E+04
        68  25 -2.825901E+04 -2.319504E+05 -2.031209E+04 -3.551484E+04 -5.374259E+03  1.221562E+03
        68  26 -1.248326E+04 -1.700508E+05 -2.334208E+03 -2.421969E+04 -2.320115E+03  6.578988E+03
        68  27  1.971734E+04 -1.033983E+05  2.322542E+04 -4.447064E+04 -3.706604E+02  1.193634E+04
        69   1 -1.516546E+05 -3.793465E+04 -1.381242E+04 -6.061245E+04 -6.553409E+03 -2.302837E+03
        69   2 -1.444899E+05 -2.429519E+04 -5.946948E+03 -5.745978E+04 -3.993337E+03 -1.177235E+03
        69   3 -1.376567E+05 -2.164790E+04 -2.210478E+03 -5.572091E+04 -1.246934E+03 -5.483153E+02
        69   4 -1.388557E+05 -3.016153E+04 -9.766872E+03 -5.408908E+04 -6.270522E+03 -2.196796E+03
        69   5 -1.382050E+05 -2.100297E+04 -4.175159E+03 -5.476869E+04 -4.067525E+03 -1.205062E+03
        69   6 -1.378152E+05 -2.276586E+04 -2.429510E+03 -5.686219E+04 -1.678221E+03 -7.100373E+02
        69   7 -1.260568E+05 -2.238836E+04 -5.721371E+03 -4.756563E+04 -5.987630E+03 -2.090749E+03
        69   8 -1.319202E+05 -1.771075E+04 -2.403377E+03 -5.207757E+04 -4.141713E+03 -1.232889E+03
        69   9 -1.379736E+05 -2.388382E+04 -2.648541E+03 -5.800347E+04 -2.109510E+03 -8.717578E+02
        69  10 -1.516546E+05 -3.793467E+04 -1.381251E+04 -6.061246E+04 -2.823809E-09  2.236790E-11
        69  11 -1.444899E+05 -2.429520E+04 -5.946981E+03 -5.745979E+04 -3.345061E-09 -7.730387E-10
        69  12 -1.376567E+05 -2.164790E+04 -2.210482E+03 -5.572092E+04 -3.411700E-09 -7.562121E-10
        69  13 -1.388558E+05 -3.016155E+04 -9.766955E+03 -5.408910E+04 -9.407029E-10 -3.826746E-10
        69  14 -1.382051E+05 -2.100298E+04 -4.175192E+03 -5.476869E+04 -2.838669E-09 -9.981880E-10
        69  15 -1.378152E+05 -2.276586E+04 -2.429516E+03 -5.686219E+04 -2.137378E-09 -5.358641E-10
        69  16 -1.260569E+05 -2.238837E+04 -5.721447E+03 -4.756564E+04 -3.368788E-09 -7.867892E-10
        69  17 -1.319202E+05 -1.771075E+04 -2.403412E+03 -5.207758E+04 -5.272651E-09 -1.203732E-09
        69  18 -1.379736E+05 -2.388382E+04 -2.648551E+03 -5.800347E+04 -1.579957E-09 -4.422551E-10
        69  19 -1.516546E+05 -3.793465E+04 -1.381242E+04 -6.061245E+04  6.553409E+03  2.302837E+03
        69  20 -1.444899E+05 -2.429519E+04 -5.946948E+03 -5.745978E+04  3.993337E+03  1.177235E+03
        69  21 -1.376567E+05 -2.164790E+04 -2.210478E+03 -5.572091E+04  1.246934E+03  5.483153E+02
        69  22 -1.388557E+05 -3.016153E+04 -9.766872E+03 -5.408908E+04  6.270522E+03  2.196796E+03
        69  23 -1.382050E+05 -2.100297E+04 -4.175159E+03 -5.476869E+04  4.067525E+03  1.205062E+03
        69  24 -1.378152E+05 -2.276586E+04 -2.429510E+03 -5.686219E+04  1.678221E+03  7.100373E+02
        69  25 -1.260568E+05 -2.238836E+04 -5.721371E+03 -4.756563E+04  5.987630E+03  2.090749E+03
        69  26 -1.319202E+05 -1.771075E+04 -2.403377E+03 -5.207757E+04  4.141713E+03  1.232889E+03
        69  27 -1.379736E+05 -2.388382E+04 -2.648541E+03 -5.800347E+04  2.109510E+03  8.717578E+02
        70   1 -1.288186E+05 -2.055979E+04  2.053746E+02 -5.417781E+04 -9.629350E+02 -7.917213E+02
        70   2 -1.223124E+05 -1.541045E+04  3.137382E+03 -5.033831E+04 -2.893984E+02 -9.930995E+02
        70   3 -1.130857E+05 -1.389438E+04  5.512979E+03 -4.981734E+04  3.933968E+02 -1.219111E+03
        70   4 -1.374994E+05 -2.361609E+04 -1.948831E+03 -5.635904E+04 -1.240194E+03 -8.956897E+02
        70   5 -1.388224E+05 -2.152391E+04 -9.903615E+02 -5.480375E+04 -5.843787E+02 -1.103717E+03
        70   6 -1.374215E+05 -2.306153E+04 -5.742757E+02 -5.656703E+04  8.068613E+01 -1.336380E+03
        70   7 -1.461802E+05 -2.667238E+04 -4.103038E+03 -5.854024E+04 -1.517448E+03 -9.996566E+02
        70   8 -1.553321E+05 -2.763732E+04 -5.118105E+03 -5.926906E+04 -8.793490E+02 -1.214330E+03
        70   9 -1.617566E+05 -3.222855E+04 -6.661524E+03 -6.331643E+04 -2.320087E+02 -1.453643E+03
        70  10 -1.288186E+05 -2.055979E+04  2.053717E+02 -5.417781E+04  7.495989E-11 -2.435996E-10
        70  11 -1.223124E+05 -1.541045E+04  3.137380E+03 -5.033831E+04 -1.058216E-09 -5.296711E-10
        70  12 -1.130857E+05 -1.389439E+04  5.512976E+03 -4.981734E+04 -1.209133E-09 -2.678332E-10
        70  13 -1.374994E+05 -2.361609E+04 -1.948835E+03 -5.635904E+04  1.242154E-09 -4.819569E-10
        70  14 -1.388224E+05 -2.152391E+04 -9.903644E+02 -5.480375E+04  8.411358E-10 -5.998358E-10
        70  15 -1.374215E+05 -2.306153E+04 -5.742790E+02 -5.656703E+04  2.246240E-09  6.184207E-11
        70  16 -1.461802E+05 -2.667238E+04 -4.103045E+03 -5.854025E+04  9.039071E-10 -6.634291E-10
        70  17 -1.553321E+05 -2.763732E+04 -5.118109E+03 -5.926906E+04 -1.439787E-10 -7.710505E-10
        70  18 -1.617566E+05 -3.222855E+04 -6.661528E+03 -6.331643E+04  9.843726E-10  4.170363E-10
        70  19 -1.288186E+05 -2.055979E+04  2.053746E+02 -5.417781E+04  9.629350E+02  7.917213E+02
        70  20 -1.223124E+05 -1.541045E+04  3.137382E+03 -5.033831E+04  2.893984E+02  9.930995E+02
        70  21 -1.130857E+05 -1.389438E+04  5.512979E+03 -4.981734E+04 -3.933968E+02  1.219111E+03
        70  22 -1.374994E+05 -2.361609E+04 -1.948831E+03 -5.635904E+04  1.240194E+03  8.956897E+02
        70  23 -1.388224E+05 -2.152391E+04 -9.903615E+02 -5.480375E+04  5.843787E+02  1.103717E+03
        70  24 -1.374215E+05 -2.306153E+04 -5.742757E+02 -5.656703E+04 -8.068613E+01  1.336380E+03
        70  25 -1.461802E+05 -2.667238E+04 -4.103038E+03 -5.854024E+04  1.517448E+03  9.996566E+02
        70  26 -1.553321E+05 -2.763732E+04 -5.118105E+03 -5.926906E+04  8.793490E+02  1.214330E+03
        70  27 -1.617566E+05 -3.222855E+04 -6.661524E+03 -6.331643E+04  2.320087E+02  1.453643E+03
        71   1 -1.053822E+05 -1.117686E+04  7.593699E+03 -4.777948E+04  5.623452E+02 -1.442030E+03
        71   2 -9.895795E+04 -6.671177E+03  9.714315E+03 -4.389077E+04  8.677944E+02 -1.811716E+03
        71   3 -8.955449E+04 -5.228762E+03  1.171386E+04 -4.344973E+04  1.173609E+03 -2.182276E+03
        71   4 -1.373910E+05 -2.312240E+04 -4.554123E+02 -5.652567E+04  2.574392E+02 -1.556377E+03
        71   5 -1.388780E+05 -2.157102E+04 -2.905010E+02 -5.480927E+04  5.622478E+02 -1.926316E+03
        71   6 -1.373856E+05 -2.308279E+04 -2.461168E+02 -5.654059E+04  8.674193E+02 -2.297131E+03
        71   7 -1.693991E+05 -3.506799E+04 -8.504686E+03 -6.527154E+04 -4.745239E+01 -1.670719E+03
        71   8 -1.787968E+05 -3.647087E+04 -1.029552E+04 -6.572722E+04  2.567205E+02 -2.040910E+03
        71   9 -1.852146E+05 -4.093677E+04 -1.220634E+04 -6.963060E+04  5.612538E+02 -2.411976E+03
        71  10 -1.053822E+05 -1.117686E+04  7.593695E+03 -4.777948E+04  1.672167E-09  2.950926E-10
        71  11 -9.895796E+04 -6.671181E+03  9.714307E+03 -4.389077E+04 -6.997851E-10 -3.124122E-10
        71  12 -8.955449E+04 -5.228767E+03  1.171384E+04 -4.344972E+04 -1.575905E-09 -3.179550E-10
        71  13 -1.373910E+05 -2.312241E+04 -4.554169E+02 -5.652567E+04 -1.126429E-09  1.451863E-10
        71  14 -1.388780E+05 -2.157103E+04 -2.905086E+02 -5.480927E+04  1.119712E-09 -4.181775E-10
        71  15 -1.373856E+05 -2.308280E+04 -2.461281E+02 -5.654058E+04 -1.093348E-09 -3.594186E-10
        71  16 -1.693991E+05 -3.506799E+04 -8.504692E+03 -6.527154E+04 -1.803025E-09 -1.533940E-11
        71  17 -1.787968E+05 -3.647088E+04 -1.029553E+04 -6.572722E+04  2.194273E-10 -5.909997E-10
        71  18 -1.852146E+05 -4.093677E+04 -1.220635E+04 -6.963060E+04  9.374528E-10 -3.845521E-10
        71  19 -1.053822E+05 -1.117686E+04  7.593699E+03 -4.777948E+04 -5.623452E+02  1.442030E+03
        71  20 -9.895795E+04 -6.671177E+03  9.714315E+03 -4.389077E+04 -8.677944E+02  1.811716E+03
        71  21 -8.955449E+04 -5.228762E+03  1.171386E+04 -4.344973E+04 -1.173609E+03  2.182276E+03
        71  22 -1.373910E+05 -2.312240E+04 -4.554123E+02 -5.652567E+04 -2.574392E+02  1.556377E+03
        71  23 -1.388780E+05 -2.157102E+04 -2.905010E+02 -5.480927E+04 -5.622478E+02  1.926316E+03
        71  24 -1.373856E+05 -2.308279E+04 -2.461168E+02 -5.654059E+04 -8.674193E+02  2.297131E+03
        71  25 -1.693991E+05 -3.506799E+04 -8.504686E+03 -6.527154E+04  4.745239E+01  1.670719E+03
        71  26 -1.787968E+05 -3.647087E+04 -1.029552E+04 -6.572722E+04 -2.567205E+02  2.040910E+03
        71  27 -1.852146E+05 -4.093677E+04 -1.220634E+04 -6.963060E+04 -5.612538E+02  2.411976E+03
        72   1 -8.196503E+04 -2.396138E+03  1.366158E+04 -4.138095E+04  1.307573E+03 -2.414530E+03
        72   2 -7.555715E+04  2.053212E+03  1.552024E+04 -3.749790E+04  1.640196E+03 -2.774364E+03
        72   3 -6.616712E+04  3.483095E+03  1.724791E+04 -3.706359E+04  1.972712E+03 -3.133769E+03
        72   4 -1.373872E+05 -2.308565E+04 -2.569296E+02 -5.653628E+04  1.001970E+03 -2.529173E+03
        72   5 -1.388782E+05 -2.157588E+04 -3.483424E+02 -5.481194E+04  1.334872E+03 -2.888918E+03
        72   6 -1.373873E+05 -2.308563E+04 -5.709957E+02 -5.653635E+04  1.667666E+03 -3.248237E+03
        72   7 -1.928059E+05 -4.377481E+04 -1.417556E+04 -7.169026E+04  6.964000E+02 -2.643804E+03
        72   8 -2.021952E+05 -4.520465E+04 -1.621719E+04 -7.212434E+04  1.029583E+03 -3.003460E+03
        72   9 -2.086028E+05 -4.965409E+04 -1.839035E+04 -7.600714E+04  1.362658E+03 -3.362691E+03
        72  10 -8.196504E+04 -2.396144E+03  1.366156E+04 -4.138095E+04 -1.549581E-09 -3.376355E-10
        72  11 -7.555716E+04  2.053203E+03  1.552022E+04 -3.749789E+04 -3.378807E-09 -1.102569E-09
        72  12 -6.616713E+04  3.483083E+03  1.724788E+04 -3.706359E+04 -1.922176E-09 -3.880413E-10
        72  13 -1.373872E+05 -2.308566E+04 -2.569435E+02 -5.653628E+04 -1.926811E-09 -5.093877E-10
        72  14 -1.388782E+05 -2.157589E+04 -3.483614E+02 -5.481194E+04 -4.997867E-09 -9.917060E-10
        72  15 -1.373873E+05 -2.308564E+04 -5.710207E+02 -5.653635E+04 -1.761312E-09 -6.778095E-10
        72  16 -1.928059E+05 -4.377482E+04 -1.417557E+04 -7.169026E+04 -1.381089E-09 -5.703112E-10
        72  17 -2.021952E+05 -4.520466E+04 -1.621721E+04 -7.212434E+04 -4.653325E-09 -6.250938E-10
        72  18 -2.086028E+05 -4.965410E+04 -1.839038E+04 -7.600714E+04 -3.916653E-10 -9.676087E-10
        72  19 -8.196503E+04 -2.396138E+03  1.366158E+04 -4.138095E+04 -1.307573E+03  2.414530E+03
        72  20 -7.555715E+04  2.053212E+03  1.552024E+04 -3.749790E+04 -1.640196E+03  2.774364E+03
        72  21 -6.616712E+04  3.483095E+03  1.724791E+04 -3.706359E+04 -1.972712E+03  3.133769E+03
        72  22 -1.373872E+05 -2.308565E+04 -2.569296E+02 -5.653628E+04 -1.001970E+03  2.529173E+03
        72  23 -1.388782E+05 -2.157588E+04 -3.483424E+02 -5.481194E+04 -1.334872E+03  2.888918E+03
        72  24 -1.373873E+05 -2.308563E+04 -5.709957E+02 -5.653635E+04 -1.667666E+03  3.248237E+03
        72  25 -1.928059E+05 -4.377481E+04 -1.417556E+04 -7.169026E+04 -6.964000E+02  2.643804E+03
        72  26 -2.021952E+05 -4.520465E+04 -1.621719E+04 -7.212434E+04 -1.029583E+03  3.003460E+03
        72  27 -2.086028E+05 -4.965409E+04 -1.839035E+04 -7.600714E+04 -1.362658E+03  3.362691E+03
        73   1 -5.861467E+04  6.312058E+03  1.902647E+04 -3.501548E+04  2.174397E+03 -3.339681E+03
        73   2 -5.218829E+04  1.075809E+04  2.038972E+04 -3.113359E+04  2.993797E+03 -3.515191E+03
        73   3 -4.288190E+04  1.210581E+04  2.123839E+04 -3.068967E+04  3.812814E+03 -3.689475E+03
        73   4 -1.374072E+05 -2.308033E+04 -7.452248E+02 -5.654271E+04  1.869533E+03 -3.454094E+03
        73   5 -1.388517E+05 -2.156322E+04 -1.325000E+03 -5.481173E+04  2.689709E+03 -3.629336E+03
        73   6 -1.374165E+05 -2.314456E+04 -2.420024E+03 -5.651872E+04  3.509496E+03 -3.803356E+03
        73   7 -2.161934E+05 -5.247220E+04 -2.051732E+04 -7.806738E+04  1.564714E+03 -3.568491E+03
        73   8 -2.255079E+05 -5.388404E+04 -2.304032E+04 -7.848689E+04  2.385668E+03 -3.743464E+03
        73   9 -2.319428E+05 -5.839449E+04 -2.607925E+04 -8.234432E+04  3.206227E+03 -3.917218E+03
        73  10 -5.861468E+04  6.312045E+03  1.902644E+04 -3.501547E+04 -1.560448E-09  5.244101E-11
        73  11 -5.218830E+04  1.075807E+04  2.038968E+04 -3.113358E+04 -2.802799E-09 -1.995021E-10
        73  12 -4.288192E+04  1.210579E+04  2.123834E+04 -3.068966E+04 -2.651505E-09 -3.232220E-10
        73  13 -1.374073E+05 -2.308035E+04 -7.452538E+02 -5.654270E+04 -1.052529E-09 -8.407981E-11
        73  14 -1.388518E+05 -2.156324E+04 -1.325039E+03 -5.481173E+04  1.108491E-09 -1.343261E-10
        73  15 -1.374166E+05 -2.314458E+04 -2.420074E+03 -5.651871E+04 -2.930912E-09 -8.537875E-10
        73  16 -2.161934E+05 -5.247221E+04 -2.051735E+04 -7.806737E+04  2.315070E-09 -4.544383E-10
        73  17 -2.255079E+05 -5.388406E+04 -2.304035E+04 -7.848689E+04 -5.218589E-10  5.909916E-10
        73  18 -2.319428E+05 -5.839451E+04 -2.607930E+04 -8.234431E+04 -1.594658E-09 -1.285830E-09
        73  19 -5.861467E+04  6.312058E+03  1.902647E+04 -3.501548E+04 -2.174397E+03  3.339681E+03
        73  20 -5.218829E+04  1.075809E+04  2.038972E+04 -3.113359E+04 -2.993797E+03  3.515191E+03
        73  21 -4.288190E+04  1.210581E+04  2.123839E+04 -3.068967E+04 -3.812814E+03  3.689475E+03
        73  22 -1.374072E+05 -2.308033E+04 -7.452248E+02 -5.654271E+04 -1.869533E+03  3.454094E+03
        73  23 -1.388517E+05 -2.156322E+04 -1.325000E+03 -5.481173E+04 -2.689709E+03  3.629336E+03
        73  24 -1.374165E+05 -2.314456E+04 -2.420024E+03 -5.651872E+04 -3.509496E+03  3.803356E+03
        73  25 -2.161934E+05 -5.247220E+04 -2.051732E+04 -7.806738E+04 -1.564714E+03  3.568491E+03
        73  26 -2.255079E+05 -5.388404E+04 -2.304032E+04 -7.848689E+04 -2.385668E+03  3.743464E+03
        73  27 -2.319428E+05 -5.839449E+04 -2.607925E+04 -8.234432E+04 -3.206227E+03  3.917218E+03
        74   1 -3.532785E+04  1.489853E+04  2.239547E+04 -2.887202E+04  4.371372E+03 -3.761626E+03
        74   2 -2.878641E+04  1.954942E+04  2.175143E+04 -2.476497E+04  7.426458E+03 -3.093802E+03
        74   3 -2.008343E+04  1.997473E+04  1.862878E+04 -2.388839E+04  1.047712E+04 -2.413935E+03
        74   4 -1.375270E+05 -2.304047E+04 -3.207019E+03 -5.660607E+04  4.065044E+03 -3.876653E+03
        74   5 -1.386800E+05 -2.144234E+04 -5.785322E+03 -5.479746E+04  7.128279E+03 -3.205801E+03
        74   6 -1.376732E+05 -2.407164E+04 -1.084903E+04 -5.621942E+04  1.018704E+04 -2.522924E+03
        74   7 -2.397159E+05 -6.097882E+04 -2.881032E+04 -8.433600E+04  3.758772E+03 -3.991659E+03
        74   8 -2.485615E+05 -6.243322E+04 -3.332296E+04 -8.482508E+04  6.830159E+03 -3.317779E+03
        74   9 -2.552489E+05 -6.811689E+04 -4.032779E+04 -8.854477E+04  9.897027E+03 -2.631889E+03
        74  10 -3.532787E+04  1.489851E+04  2.239540E+04 -2.887201E+04 -1.988953E-09 -6.376711E-10
        74  11 -2.878647E+04  1.954940E+04  2.175131E+04 -2.476495E+04  5.663091E-09  9.725206E-10
        74  12 -2.008355E+04  1.997469E+04  1.862856E+04 -2.388837E+04  1.298306E-09 -4.151415E-10
        74  13 -1.375270E+05 -2.304050E+04 -3.207078E+03 -5.660606E+04 -2.097348E-09 -1.042277E-10
        74  14 -1.386800E+05 -2.144236E+04 -5.785437E+03 -5.479744E+04  2.810200E-09  1.212610E-09
        74  15 -1.376733E+05 -2.407168E+04 -1.084924E+04 -5.621940E+04  6.063092E-10 -3.884997E-10
        74  16 -2.397159E+05 -6.097884E+04 -2.881038E+04 -8.433599E+04  1.661123E-09 -7.208977E-11
        74  17 -2.485615E+05 -6.243324E+04 -3.332307E+04 -8.482507E+04  3.614083E-09  2.912380E-10
        74  18 -2.552490E+05 -6.811692E+04 -4.032799E+04 -8.854475E+04 -4.028353E-09 -7.208840E-10
        74  19 -3.532785E+04  1.489853E+04  2.239547E+04 -2.887202E+04 -4.371372E+03  3.761626E+03
        74  20 -2.878641E+04  1.954942E+04  2.175143E+04 -2.476497E+04 -7.426458E+03  3.093802E+03
        74  21 -2.008343E+04  1.997473E+04  1.862878E+04 -2.388839E+04 -1.047712E+04  2.413935E+03
        74  22 -1.375270E+05 -2.304047E+04 -3.207019E+03 -5.660607E+04 -4.065044E+03  3.876653E+03
        74  23 -1.386800E+05 -2.144234E+04 -5.785322E+03 -5.479746E+04 -7.128279E+03  3.205801E+03
        74  24 -1.376732E+05 -2.407164E+04 -1.084903E+04 -5.621942E+04 -1.018704E+04  2.522924E+03
        74  25 -2.397159E+05 -6.097882E+04 -2.881032E+04 -8.433600E+04 -3.758772E+03  3.991659E+03
        74  26 -2.485615E+05 -6.243322E+04 -3.332296E+04 -8.482508E+04 -6.830159E+03  3.317779E+03
        74  27 -2.552489E+05 -6.811689E+04 -4.032779E+04 -8.854477E+04 -9.897027E+03  2.631889E+03
        75   1 -1.162175E+04  2.258633E+04  1.723102E+04 -2.493402E+04  1.264949E+04 -1.906796E+03
        75   2 -5.162891E+03  3.031283E+04  8.056474E+03 -1.724458E+04  2.557037E+04  2.505599E+03
        75   3 -3.286342E+03  1.925989E+04 -1.489884E+04 -9.319084E+03  3.840758E+04  7.141777E+03
        75   4 -1.384968E+05 -2.247584E+04 -1.416841E+04 -5.726541E+04  1.229106E+04 -2.041415E+03
        75   5 -1.372036E+05 -2.025525E+04 -2.527951E+04 -5.468527E+04  2.536997E+04  2.430173E+03
        75   6 -1.405257E+05 -3.684801E+04 -5.029892E+04 -5.186911E+04  3.836507E+04  7.125330E+03
        75   7 -2.653566E+05 -6.753752E+04 -4.556923E+04 -8.959112E+04  1.193272E+04 -2.176007E+03
        75   8 -2.692274E+05 -7.082205E+04 -5.861698E+04 -9.211874E+04  2.516963E+04  2.354765E+03
        75   9 -2.777465E+05 -9.295364E+04 -8.570056E+04 -9.441024E+04  3.832257E+04  7.108888E+03
        75  10 -1.162192E+04  2.258628E+04  1.723071E+04 -2.493400E+04 -4.778158E-09 -8.188099E-10
        75  11 -5.163595E+03  3.031264E+04  8.055234E+03 -1.724463E+04  3.411419E-10  1.649160E-09
        75  12 -3.287939E+03  1.925944E+04 -1.490171E+04 -9.319305E+03  2.313004E-09  2.829236E-10
        75  13 -1.384969E+05 -2.247588E+04 -1.416871E+04 -5.726539E+04 -4.161296E-09 -4.614435E-10
        75  14 -1.372042E+05 -2.025543E+04 -2.528074E+04 -5.468532E+04  1.161122E-10  8.117584E-10
        75  15 -1.405273E+05 -3.684846E+04 -5.030178E+04 -5.186933E+04 -1.357509E-09 -5.021981E-10
        75  16 -2.653568E+05 -6.753757E+04 -4.556951E+04 -8.959110E+04 -1.461272E-09  1.437557E-10
        75  17 -2.692281E+05 -7.082223E+04 -5.861818E+04 -9.211879E+04 -5.290652E-10  1.140714E-09
        75  18 -2.777481E+05 -9.295409E+04 -8.570342E+04 -9.441046E+04  3.244432E-10 -4.211712E-10
        75  19 -1.162175E+04  2.258633E+04  1.723102E+04 -2.493402E+04 -1.264949E+04  1.906796E+03
        75  20 -5.162891E+03  3.031283E+04  8.056474E+03 -1.724458E+04 -2.557037E+04 -2.505599E+03
        75  21 -3.286342E+03  1.925989E+04 -1.489884E+04 -9.319084E+03 -3.840758E+04 -7.141777E+03
        75  22 -1.384968E+05 -2.247584E+04 -1.416841E+04 -5.726541E+04 -1.229106E+04  2.041415E+03
        75  23 -1.372036E+05 -2.025525E+04 -2.527951E+04 -5.468527E+04 -2.536997E+04 -2.430173E+03
        75  24 -1.405257E+05 -3.684801E+04 -5.029892E+04 -5.186911E+04 -3.836507E+04 -7.125330E+03
        75  25 -2.653566E+05 -6.753752E+04 -4.556923E+04 -8.959112E+04 -1.193272E+04  2.176007E+03
        75  26 -2.692274E+05 -7.082205E+04 -5.861698E+04 -9.211874E+04 -2.516963E+04 -2.354765E+03
        75  27 -2.777465E+05 -9.295364E+04 -8.570056E+04 -9.441024E+04 -3.832257E+04 -7.108888E+03
        76   1  1.965851E+04  2.044594E+04 -2.574783E+04 -4.729267E+04  4.841267E+04  1.002321E+04
        76   2  1.667627E+04  6.934528E+04 -6.885956E+04  9.298826E+03  1.035940E+05  3.105538E+04
        76   3 -6.752076E+04 -8.900360E+04 -2.090680E+05  1.153437E+05  1.571016E+05  5.654851E+04
        76   4 -1.486582E+05 -1.486881E+04 -6.281219E+04 -6.497403E+04  4.699045E+04  9.491400E+03
        76   5 -1.212489E+05 -6.700507E+03 -1.081207E+05 -5.371513E+04  1.053608E+05  3.171399E+04
        76   6 -1.757139E+05 -2.064524E+05 -2.530700E+05  7.005005E+03  1.620595E+05  5.838723E+04
        76   7 -3.169458E+05 -5.018409E+04 -9.987773E+04 -8.265319E+04  4.556865E+04  8.959591E+03
        76   8 -2.591529E+05 -8.273667E+04 -1.473831E+05 -1.167137E+05  1.071271E+05  3.237225E+04
        76   9 -2.838795E+05 -3.238565E+05 -2.970699E+05 -1.013070E+05  1.670164E+05  6.022403E+04
        76  10  1.965596E+04  2.044520E+04 -2.575243E+04 -4.729306E+04 -5.659944E-10 -6.090892E-10
        76  11  1.666449E+04  6.934137E+04 -6.888154E+04  9.296235E+03 -3.402637E-10 -1.509322E-10
        76  12 -6.754812E+04 -8.901366E+04 -2.091203E+05  1.153365E+05  9.199100E-10 -4.803774E-10
        76  13 -1.486606E+05 -1.486950E+04 -6.281651E+04 -6.497439E+04  2.243710E-10 -1.096893E-09
        76  14 -1.212611E+05 -6.704569E+03 -1.081434E+05 -5.371782E+04 -2.655050E-09 -2.450977E-10
        76  15 -1.757430E+05 -2.064631E+05 -2.531257E+05  6.997381E+03  6.254439E-10  1.337150E-09
        76  16 -3.169481E+05 -5.018474E+04 -9.988178E+04 -8.265352E+04  8.847610E-10  2.462317E-10
        76  17 -2.591655E+05 -8.274088E+04 -1.474066E+05 -1.167165E+05  7.169226E-10  1.350584E-09
        76  18 -2.839104E+05 -3.238679E+05 -2.971291E+05 -1.013151E+05 -2.468827E-10 -3.780202E-10
        76  19  1.965851E+04  2.044594E+04 -2.574783E+04 -4.729267E+04 -4.841267E+04 -1.002321E+04
        76  20  1.667627E+04  6.934528E+04 -6.885956E+04  9.298826E+03 -1.035940E+05 -3.105538E+04
        76  21 -6.752076E+04 -8.900360E+04 -2.090680E+05  1.153437E+05 -1.571016E+05 -5.654851E+04
        76  22 -1.486582E+05 -1.486881E+04 -6.281219E+04 -6.497403E+04 -4.699045E+04 -9.491400E+03
        76  23 -1.212489E+05 -6.700507E+03 -1.081207E+05 -5.371513E+04 -1.053608E+05 -3.171399E+04
        76  24 -1.757139E+05 -2.064524E+05 -2.530700E+05  7.005005E+03 -1.620595E+05 -5.838723E+04
        76  25 -3.169458E+05 -5.018409E+04 -9.987773E+04 -8.265319E+04 -4.556865E+04 -8.959591E+03
        76  26 -2.591529E+05 -8.273667E+04 -1.473831E+05 -1.167137E+05 -1.071271E+05 -3.237225E+04
        76  27 -2.838795E+05 -3.238565E+05 -2.970699E+05 -1.013070E+05 -1.670164E+05 -6.022403E+04
        77   1  2.021590E+05  1.997771E+06  2.056408E+05 -4.876198E+04  7.468365E+03  1.015095E+05
        77   2  1.330385E+05  1.990959E+06  1.404528E+05 -2.123515E+04  2.579601E+04  5.879210E+04
        77   3  1.174091E+05  2.003082E+06  1.163966E+05  7.706192E+03  3.270533E+04  1.607637E+04
        77   4  8.266733E+04  1.512503E+06  9.250296E+04  2.671463E+03  7.478002E+03  6.216860E+04
        77   5  1.718682E+04  1.504678E+06  4.654019E+04  1.956997E+03  2.580219E+04  3.814330E+04
        77   6  1.978278E+03  1.512561E+06  2.876784E+04  2.657571E+03  3.270785E+04  1.411862E+04
        77   7 -3.683018E+04  1.027461E+06 -2.064359E+04  5.406455E+04  7.481145E+03  2.285817E+04
        77   8 -9.867664E+04  1.018625E+06 -4.738155E+04  2.513063E+04  2.580684E+04  1.751026E+04
        77   9 -1.134657E+05  1.022273E+06 -5.887001E+04 -2.386948E+03  3.271040E+04  1.216237E+04
        77  10  2.021562E+05  1.997760E+06  2.056214E+05 -4.876259E+04  1.308975E-09  3.337016E-09
        77  11  1.330369E+05  1.990955E+06  1.404451E+05 -2.123637E+04  2.919967E-09 -1.197359E-09
        77  12  1.174078E+05  2.003082E+06  1.163941E+05  7.705769E+03  1.996048E-11 -5.029037E-09
        77  13  8.266624E+04  1.512499E+06  9.249561E+04  2.671089E+03  8.076911E-10 -2.014114E-11
        77  14  1.718572E+04  1.504676E+06  4.653621E+04  1.956204E+03  1.753965E-09 -1.561086E-10
        77  15  1.977075E+03  1.512560E+06  2.876546E+04  2.657200E+03  7.508206E-10 -9.548243E-11
        77  16 -3.683038E+04  1.027461E+06 -2.064467E+04  5.406441E+04  2.344866E-09 -3.322534E-09
        77  17 -9.867744E+04  1.018625E+06 -4.738337E+04  2.513026E+04  2.253056E-09  7.936440E-10
        77  18 -1.134669E+05  1.022272E+06 -5.887230E+04 -2.387269E+03 -2.587189E-09  4.620272E-09
        77  19  2.021590E+05  1.997771E+06  2.056408E+05 -4.876198E+04 -7.468365E+03 -1.015095E+05
        77  20  1.330385E+05  1.990959E+06  1.404528E+05 -2.123515E+04 -2.579601E+04 -5.879210E+04
        77  21  1.174091E+05  2.003082E+06  1.163966E+05  7.706192E+03 -3.270533E+04 -1.607637E+04
        77  22  8.266733E+04  1.512503E+06  9.250296E+04  2.671463E+03 -7.478002E+03 -6.216860E+04
        77  23  1.718682E+04  1.504678E+06  4.654019E+04  1.956997E+03 -2.580219E+04 -3.814330E+04
        77  24  1.978278E+03  1.512561E+06  2.876784E+04  2.657571E+03 -3.270785E+04 -1.411862E+04
        77  25 -3.683018E+04  1.027461E+06 -2.064359E+04  5.406455E+04 -7.481145E+03 -2.285817E+04
        77  26 -9.867664E+04  1.018625E+06 -4.738155E+04  2.513063E+04 -2.580684E+04 -1.751026E+04
        77  27 -1.134657E+05  1.022273E+06 -5.887001E+04 -2.386948E+03 -3.271040E+04 -1.216237E+04
        78   1  1.191416E+05  2.001573E+06  1.118336E+05  3.596227E+02  3.328070E+04  1.357700E+04
        78   2  1.170693E+05  2.003055E+06  1.074802E+05  2.020188E+03  3.445216E+04  2.274199E+01
        78   3  1.207044E+05  2.007749E+06  1.133657E+05  4.401486E+03  3.364506E+04 -1.353222E+04
        78   4  3.480537E+03  1.509654E+06  2.446663E+04  2.504486E+03  3.328396E+04  1.004223E+04
        78   5  9.570533E+02  1.508327E+06  2.065374E+04  2.143883E+03  3.445468E+04 -2.673819E+02
        78   6  3.581451E+03  1.509653E+06  2.483568E+04  2.504037E+03  3.364615E+04 -1.057763E+04
        78   7 -1.121938E+05  1.017971E+06 -6.290932E+04  4.647621E+03  3.328720E+04  6.510171E+03
        78   8 -1.151685E+05  1.013838E+06 -6.618157E+04  2.267496E+03  3.445720E+04 -5.572820E+02
        78   9 -1.135551E+05  1.011798E+06 -6.370358E+04  6.081749E+02  3.364722E+04 -7.625339E+03
        78  10  1.191403E+05  2.001572E+06  1.118312E+05  3.592591E+02  3.400670E-11  6.259684E-09
        78  11  1.170681E+05  2.003054E+06  1.074780E+05  2.020188E+03  1.479250E-09 -1.094385E-08
        78  12  1.207031E+05  2.007749E+06  1.133632E+05  4.401853E+03  8.480083E-10 -2.479214E-08
        78  13  3.479320E+03  1.509654E+06  2.446436E+04  2.504217E+03  1.178605E-09 -2.828634E-10
        78  14  9.557777E+02  1.508326E+06  2.065151E+04  2.143890E+03  2.439443E-09 -5.016464E-10
        78  15  3.580205E+03  1.509653E+06  2.483334E+04  2.504324E+03  2.638200E-09 -7.611208E-12
        78  16 -1.121950E+05  1.017971E+06 -6.291149E+04  4.647446E+03 -1.126879E-09 -6.294291E-09
        78  17 -1.151698E+05  1.013837E+06 -6.618380E+04  2.267511E+03  7.456814E-10  9.639060E-09
        78  18 -1.135563E+05  1.011798E+06 -6.370581E+04  6.083815E+02  2.230279E-10  2.387096E-08
        78  19  1.191416E+05  2.001573E+06  1.118336E+05  3.596227E+02 -3.328070E+04 -1.357700E+04
        78  20  1.170693E+05  2.003055E+06  1.074802E+05  2.020188E+03 -3.445216E+04 -2.274199E+01
        78  21  1.207044E+05  2.007749E+06  1.133657E+05  4.401486E+03 -3.364506E+04  1.353222E+04
        78  22  3.480537E+03  1.509654E+06  2.446663E+04  2.504486E+03 -3.328396E+04 -1.004223E+04
        78  23  9.570533E+02  1.508327E+06  2.065374E+04  2.143883E+03 -3.445468E+04  2.673819E+02
        78  24  3.581451E+03  1.509653E+06  2.483568E+04  2.504037E+03 -3.364615E+04  1.057763E+04
        78  25 -1.121938E+05  1.017971E+06 -6.290932E+04  4.647621E+03 -3.328720E+04 -6.510171E+03
        78  26 -1.151685E+05  1.013838E+06 -6.618157E+04  2.267496E+03 -3.445720E+04  5.572820E+02
        78  27 -1.135551E+05  1.011798E+06 -6.370358E+04  6.081749E+02 -3.364722E+04  7.625339E+03
        79   1  1.198990E+05  2.013426E+06  1.188966E+05 -3.136846E+03  3.331418E+04 -1.603135E+04
        79   2  1.374193E+05  2.007227E+06  1.449874E+05  2.591680E+04  2.654511E+04 -6.031468E+04
        79   3  2.100070E+05  2.020561E+06  2.136191E+05  5.498942E+04  7.784665E+03 -1.046088E+05
        79   4  2.029798E+03  1.512656E+06  2.934497E+04  2.340677E+03  3.331572E+04 -1.472077E+04
        79   5  1.767071E+04  1.504553E+06  4.774534E+04  2.353852E+03  2.653677E+04 -3.937442E+04
        79   6  8.499875E+04  1.512595E+06  9.509592E+04  2.385227E+03  7.766121E+03 -6.403729E+04
        79   7 -1.158532E+05  1.012130E+06 -6.021625E+04  7.813698E+03  3.331729E+04 -1.341122E+04
        79   8 -1.020906E+05  1.002123E+06 -4.950656E+04 -2.118961E+04  2.652683E+04 -1.845068E+04
        79   9 -4.001648E+04  1.004875E+06 -2.343705E+04 -5.017574E+04  7.740716E+03 -2.349868E+04
        79  10  1.198978E+05  2.013425E+06  1.188941E+05 -3.136416E+03  4.125878E-10  2.599622E-08
        79  11  1.374176E+05  2.007223E+06  1.449792E+05  2.591809E+04  1.185851E-10  9.390186E-09
        79  12  2.100041E+05  2.020550E+06  2.135985E+05  5.499008E+04  1.676925E-09 -6.868441E-09
        79  13  2.028547E+03  1.512655E+06  2.934248E+04  2.341072E+03  4.442023E-10 -6.314342E-10
        79  14  1.766954E+04  1.504551E+06  4.774111E+04  2.354693E+03  4.313851E-09 -5.761139E-10
        79  15  8.499758E+04  1.512590E+06  9.508812E+04  2.385627E+03  1.521662E-09 -3.308733E-11
        79  16 -1.158544E+05  1.012129E+06 -6.021867E+04  7.814057E+03 -2.243603E-10 -2.633456E-08
        79  17 -1.020914E+05  1.002123E+06 -4.950852E+04 -2.118922E+04  1.848306E-09 -1.113414E-08
        79  18 -4.001669E+04  1.004874E+06 -2.343820E+04 -5.017559E+04 -2.200389E-10  5.576675E-09
        79  19  1.198990E+05  2.013426E+06  1.188966E+05 -3.136846E+03 -3.331418E+04  1.603135E+04
        79  20  1.374193E+05  2.007227E+06  1.449874E+05  2.591680E+04 -2.654511E+04  6.031468E+04
        79  21  2.100070E+05  2.020561E+06  2.136191E+05  5.498942E+04 -7.784665E+03  1.046088E+05
        79  22  2.029798E+03  1.512656E+06  2.934497E+04  2.340677E+03 -3.331572E+04  1.472077E+04
        79  23  1.767071E+04  1.504553E+06  4.774534E+04  2.353852E+03 -2.653677E+04  3.937442E+04
        79  24  8.499875E+04  1.512595E+06  9.509592E+04  2.385227E+03 -7.766121E+03  6.403729E+04
        79  25 -1.158532E+05  1.012130E+06 -6.021625E+04  7.813698E+03 -3.331729E+04  1.341122E+04
        79  26 -1.020906E+05  1.002123E+06 -4.950656E+04 -2.118961E+04 -2.652683E+04  1.845068E+04
        79  27 -4.001648E+04  1.004875E+06 -2.343705E+04 -5.017574E+04 -7.740716E+03  2.349868E+04
        80   1 -2.179943E+06 -4.523156E+05 -4.016231E+05 -5.314320E+04  6.724820E+04  3.111616E+04
        80   2 -2.000568E+06 -5.729189E+05 -4.318073E+05 -5.095308E+04  6.658238E+04  9.591191E+04
        80   3 -1.775157E+06 -5.234350E+05 -4.184603E+05 -1.460329E+05  6.616798E+04  9.702404E+04
        80   4  3.130603E+05  1.678407E+05  2.067612E+05 -1.182115E+05  1.416589E+05  3.139347E+04
        80   5  2.860340E+05 -1.039122E+04  9.254688E+04 -6.928875E+04  9.206961E+04  9.596308E+04
        80   6  3.133288E+05 -1.037863E+04  5.570785E+04 -1.176042E+05  4.273529E+04  9.695375E+04
        80   7  2.811766E+06  7.875586E+05  8.147168E+05 -1.835475E+05  2.163675E+05  3.165462E+04
        80   8  2.577489E+06  5.517739E+05  6.165597E+05 -8.769614E+04  1.176497E+05  9.601268E+04
        80   9  2.405873E+06  5.023796E+05  5.295962E+05 -8.908053E+04  1.922413E+04  9.688144E+04
        80  10 -2.179948E+06 -4.523178E+05 -4.016334E+05 -5.314488E+04 -5.957828E-10  1.265506E-10
        80  11 -2.000575E+06 -5.729300E+05 -4.318330E+05 -5.095823E+04  9.189248E-10  4.993279E-10
        80  12 -1.775164E+06 -5.234463E+05 -4.184862E+05 -1.460381E+05 -1.510978E-09  6.512032E-10
        80  13  3.130385E+05  1.678342E+05  2.067217E+05 -1.182151E+05 -1.085769E-09 -4.163362E-13
        80  14  2.860225E+05 -1.040339E+04  9.251364E+04 -6.929586E+04  6.317109E-13  3.661235E-10
        80  15  3.133244E+05 -1.038921E+04  5.568675E+04 -1.176075E+05  7.727504E-10  6.114042E-10
        80  16  2.811715E+06  7.875450E+05  8.146273E+05 -1.835530E+05  3.804497E-10 -4.763393E-11
        80  17  2.577472E+06  5.517603E+05  6.165164E+05 -8.770522E+04 -6.326942E-11  1.942537E-10
        80  18  2.405870E+06  5.023694E+05  5.295779E+05 -8.908203E+04  3.576906E-11  7.199962E-10
        80  19 -2.179943E+06 -4.523156E+05 -4.016231E+05 -5.314320E+04 -6.724820E+04 -3.111616E+04
        80  20 -2.000568E+06 -5.729189E+05 -4.318073E+05 -5.095308E+04 -6.658238E+04 -9.591191E+04
        80  21 -1.775157E+06 -5.234350E+05 -4.184603E+05 -1.460329E+05 -6.616798E+04 -9.702404E+04
        80  22  3.130603E+05  1.678407E+05  2.067612E+05 -1.182115E+05 -1.416589E+05 -3.139347E+04
        80  23  2.860340E+05 -1.039122E+04  9.254688E+04 -6.928875E+04 -9.206961E+04 -9.596308E+04
        80  24  3.133288E+05 -1.037863E+04  5.570785E+04 -1.176042E+05 -4.273529E+04 -9.695375E+04
        80  25  2.811766E+06  7.875586E+05  8.147168E+05 -1.835475E+05 -2.163675E+05 -3.165462E+04
        80  26  2.577489E+06  5.517739E+05  6.165597E+05 -8.769614E+04 -1.176497E+05 -9.601268E+04
        80  27  2.405873E+06  5.023796E+05  5.295962E+05 -8.908053E+04 -1.922413E+04 -9.688144E+04
        81   1 -1.601607E+06 -4.575295E+05 -3.899008E+05 -1.165513E+05  3.857950E+04  8.392985E+04
        81   2 -1.404338E+06 -4.201672E+05 -3.641233E+05 -6.927114E+04  2.897492E+04  7.714462E+04
        81   3 -1.200995E+06 -3.705736E+05 -3.286384E+05 -1.204550E+05  1.934790E+04  6.739284E+04
        81   4  3.028561E+05  1.057405E+04  4.465731E+04 -1.180443E+05  3.459956E+04  8.390488E+04
        81   5  2.997389E+05 -1.563054E+03  2.362954E+04 -6.881348E+04  2.268772E+04  7.712315E+04
        81   6  3.030458E+05 -1.085186E+03  1.389067E+04 -1.180294E+05  1.075651E+04  6.737865E+04
        81   7  2.210687E+06  4.784260E+05  4.789788E+05 -1.195431E+05  3.060737E+04  8.387998E+04
        81   8  2.006514E+06  4.168402E+05  4.111939E+05 -6.835511E+04  1.638331E+04  7.710171E+04
        81   9  1.809187E+06  3.682467E+05  3.562729E+05 -1.155977E+05  2.144430E+03  6.736441E+04
        81  10 -1.601610E+06 -4.575375E+05 -3.899169E+05 -1.165539E+05 -7.778762E-10  4.139372E-10
        81  11 -1.404341E+06 -4.201738E+05 -3.641361E+05 -6.927294E+04  1.772804E-10  2.240597E-10
        81  12 -1.200996E+06 -3.705786E+05 -3.286476E+05 -1.204560E+05  7.188758E-12 -1.003025E-09
        81  13  3.028530E+05  1.056617E+04  4.464183E+04 -1.180467E+05 -1.097140E-09  5.819509E-10
        81  14  2.997367E+05 -1.569581E+03  2.361739E+04 -6.881489E+04  1.603165E-09 -1.660441E-10
        81  15  3.030445E+05 -1.090093E+03  1.388192E+04 -1.180299E+05 -1.874315E-09 -5.846272E-10
        81  16  2.210684E+06  4.784182E+05  4.789639E+05 -1.195452E+05  8.098624E-10  8.584102E-10
        81  17  2.006512E+06  4.168337E+05  4.111823E+05 -6.835612E+04  2.206270E-10 -1.521036E-11
        81  18  1.809186E+06  3.682418E+05  3.562643E+05 -1.155979E+05  9.549105E-10 -2.434033E-10
        81  19 -1.601607E+06 -4.575295E+05 -3.899008E+05 -1.165513E+05 -3.857950E+04 -8.392985E+04
        81  20 -1.404338E+06 -4.201672E+05 -3.641233E+05 -6.927114E+04 -2.897492E+04 -7.714462E+04
        81  21 -1.200995E+06 -3.705736E+05 -3.286384E+05 -1.204550E+05 -1.934790E+04 -6.739284E+04
        81  22  3.028561E+05  1.057405E+04  4.465731E+04 -1.180443E+05 -3.459956E+04 -8.390488E+04
        81  23  2.997389E+05 -1.563054E+03  2.362954E+04 -6.881348E+04 -2.268772E+04 -7.712315E+04
        81  24  3.030458E+05 -1.085186E+03  1.389067E+04 -1.180294E+05 -1.075651E+04 -6.737865E+04
        81  25  2.210687E+06  4.784260E+05  4.789788E+05 -1.195431E+05 -3.060737E+04 -8.387998E+04
        81  26  2.006514E+06  4.168402E+05  4.111939E+05 -6.835511E+04 -1.638331E+04 -7.710171E+04
        81  27  1.809187E+06  3.682467E+05  3.562729E+05 -1.155977E+05 -2.144430E+03 -6.736441E+04
        82   1 -1.019773E+06 -3.241497E+05 -2.893754E+05 -1.180396E+05  1.626295E+04  6.108918E+04
        82   2 -8.209288E+05 -2.759087E+05 -2.491889E+05 -6.874526E+04  1.339224E+04  5.101093E+04
        82   3 -6.208705E+05 -2.266868E+05 -2.067623E+05 -1.175489E+05  1.050360E+04  4.080572E+04
        82   4  3.020077E+05  3.390795E+02  1.067564E+04 -1.179534E+05  8.593011E+03  6.108002E+04
        82   5  3.014708E+05 -3.143991E+02  5.997648E+03 -6.890991E+04  5.618070E+03  5.100760E+04
        82   6  3.021309E+05  3.315686E+01  3.630763E+03 -1.179536E+05  2.626104E+03  4.080847E+04
        82   7  1.625411E+06  3.247073E+05  3.106139E+05 -1.178669E+05  9.068620E+02  6.107087E+04
        82   8  1.425040E+06  2.751928E+05  2.611027E+05 -6.907469E+04 -2.170050E+03  5.100427E+04
        82   9  1.225923E+06  2.266941E+05  2.139686E+05 -1.183587E+05 -5.263010E+03  4.081124E+04
        82  10 -1.019774E+06 -3.241538E+05 -2.893829E+05 -1.180404E+05 -1.359353E-09 -1.257929E-09
        82  11 -8.209297E+05 -2.759115E+05 -2.491941E+05 -6.874581E+04 -1.974644E-09  1.033671E-10
        82  12 -6.208710E+05 -2.266886E+05 -2.067657E+05 -1.175492E+05 -2.453699E-09  1.089165E-10
        82  13  3.020067E+05  3.350528E+02  1.066849E+04 -1.179539E+05 -6.642243E-12 -4.735061E-10
        82  14  3.014701E+05 -3.172019E+02  5.992698E+03 -6.891014E+04 -1.072827E-09  2.285050E-10
        82  15  3.021304E+05  3.136645E+01  3.627620E+03 -1.179537E+05 -1.314234E-10  4.222823E-10
        82  16  1.625410E+06  3.247033E+05  3.106069E+05 -1.178669E+05  8.252585E-10 -2.634517E-10
        82  17  1.425040E+06  2.751900E+05  2.610978E+05 -6.907460E+04  2.443290E-09  9.261248E-10
        82  18  1.225922E+06  2.266923E+05  2.139654E+05 -1.183585E+05  2.796336E-09  4.988546E-10
        82  19 -1.019773E+06 -3.241497E+05 -2.893754E+05 -1.180396E+05 -1.626295E+04 -6.108918E+04
        82  20 -8.209288E+05 -2.759087E+05 -2.491889E+05 -6.874526E+04 -1.339224E+04 -5.101093E+04
        82  21 -6.208705E+05 -2.266868E+05 -2.067623E+05 -1.175489E+05 -1.050360E+04 -4.080572E+04
        82  22  3.020077E+05  3.390795E+02  1.067564E+04 -1.179534E+05 -8.593011E+03 -6.108002E+04
        82  23  3.014708E+05 -3.143991E+02  5.997648E+03 -6.890991E+04 -5.618070E+03 -5.100760E+04
        82  24  3.021309E+05  3.315686E+01  3.630763E+03 -1.179536E+05 -2.626104E+03 -4.080847E+04
        82  25  1.625411E+06  3.247073E+05  3.106139E+05 -1.178669E+05 -9.068620E+02 -6.107087E+04
        82  26  1.425040E+06  2.751928E+05  2.611027E+05 -6.907469E+04  2.170050E+03 -5.100427E+04
        82  27  1.225923E+06  2.266941E+05  2.139686E+05 -1.183587E+05  5.263010E+03 -4.081124E+04
        83   1 -4.393849E+05 -1.817530E+05 -1.650995E+05 -1.174129E+05  9.865681E+03  3.484325E+04
        83   2 -2.404489E+05 -1.330491E+05 -1.214144E+05 -6.853824E+04  8.942531E+03  2.464242E+04
        83   3 -4.140762E+04 -8.408029E+04 -7.709254E+04 -1.175147E+05  8.010814E+03  1.444135E+04
        83   4  3.019520E+05  1.168126E+02  2.827931E+03 -1.178999E+05  2.036141E+03  3.484878E+04
        83   5  3.019489E+05  8.429481E+01  1.856807E+03 -6.897691E+04  1.110665E+03  2.465074E+04
        83   6  3.020111E+05  3.186230E+02  1.524252E+03 -1.178998E+05  1.769123E+02  1.445263E+04
        83   7  1.043800E+06  1.819489E+05  1.707202E+05 -1.183874E+05 -5.802667E+03  3.485432E+04
        83   8  8.446198E+05  1.331974E+05  1.251092E+05 -6.941587E+04 -6.727984E+03  2.465908E+04
        83   9  6.455392E+05  8.470937E+04  8.013354E+04 -1.182850E+05 -7.661286E+03  1.446391E+04
        83  10 -4.393854E+05 -1.817544E+05 -1.651020E+05 -1.174132E+05 -2.653553E-09  4.727631E-10
        83  11 -2.404492E+05 -1.330497E+05 -1.214157E+05 -6.853842E+04 -2.256625E-10  3.656781E-10
        83  12 -4.140775E+04 -8.408053E+04 -7.709306E+04 -1.175148E+05  2.362422E-10 -9.125597E-10
        83  13  3.019517E+05  1.155072E+02  2.825641E+03 -1.179000E+05 -1.054765E-09  4.629568E-10
        83  14  3.019487E+05  8.364186E+01  1.855663E+03 -6.897694E+04 -5.515696E-10  5.025749E-10
        83  15  3.020111E+05  3.183987E+02  1.523859E+03 -1.178998E+05 -1.874379E-09  4.866522E-11
        83  16  1.043799E+06  1.819475E+05  1.707178E+05 -1.183872E+05  2.129035E-09  3.203468E-10
        83  17  8.446196E+05  1.331967E+05  1.251079E+05 -6.941574E+04 -1.154348E-10  2.046327E-10
        83  18  6.455391E+05  8.470913E+04  8.013303E+04 -1.182849E+05 -5.181521E-10  3.297819E-10
        83  19 -4.393849E+05 -1.817530E+05 -1.650995E+05 -1.174129E+05 -9.865681E+03 -3.484325E+04
        83  20 -2.404489E+05 -1.330491E+05 -1.214144E+05 -6.853824E+04 -8.942531E+03 -2.464242E+04
        83  21 -4.140762E+04 -8.408029E+04 -7.709254E+04 -1.175147E+05 -8.010814E+03 -1.444135E+04
        83  22  3.019520E+05  1.168126E+02  2.827931E+03 -1.178999E+05 -2.036141E+03 -3.484878E+04
        83  23  3.019489E+05  8.429481E+01  1.856807E+03 -6.897691E+04 -1.110665E+03 -2.465074E+04
        83  24  3.020111E+05  3.186230E+02  1.524252E+03 -1.178998E+05 -1.769123E+02 -1.445263E+04
        83  25  1.043800E+06  1.819489E+05  1.707202E+05 -1.183874E+05  5.802667E+03 -3.485432E+04
        83  26  8.446198E+05  1.331974E+05  1.251092E+05 -6.941587E+04  6.727984E+03 -2.465908E+04
        83  27  6.455392E+05  8.470937E+04  8.013354E+04 -1.182850E+05  7.661286E+03 -1.446391E+04
        84   1  1.400104E+05 -3.931628E+04 -3.471361E+04 -1.177027E+05  7.722800E+03  8.505648E+03
        84   2  3.389619E+05  9.236801E+03  1.025028E+04 -6.900428E+04  6.784080E+03 -1.686719E+03
        84   3  5.378183E+05  5.808483E+04  5.581824E+04 -1.180672E+05  5.845635E+03 -1.187452E+04
        84   4  3.019892E+05  3.172499E+02  1.512430E+03 -1.178811E+05 -1.098472E+02  8.517778E+03
        84   5  3.020533E+05  1.806773E+02  1.864615E+03 -6.900027E+04 -1.046177E+03 -1.674864E+03
        84   6  3.019851E+05  3.411705E+02  2.820959E+03 -1.178810E+05 -1.981940E+03 -1.186279E+04
        84   7  4.639925E+05  3.994902E+04  3.773704E+04 -1.180596E+05 -7.944516E+03  8.529910E+03
        84   8  2.651461E+05 -8.875507E+03 -6.520906E+03 -6.899625E+04 -8.875972E+03 -1.663009E+03
        84   9  6.620361E+04 -5.740626E+04 -5.017963E+04 -1.176949E+05 -9.806573E+03 -1.185106E+04
        84  10  1.400103E+05 -3.931637E+04 -3.471386E+04 -1.177027E+05 -2.157390E-09 -6.407898E-10
        84  11  3.389619E+05  9.236785E+03  1.025019E+04 -6.900428E+04 -2.229797E-10  3.068426E-10
        84  12  5.378183E+05  5.808467E+04  5.581791E+04 -1.180671E+05  1.265769E-09 -5.258420E-10
        84  13  3.019892E+05  3.171720E+02  1.512293E+03 -1.178811E+05 -2.177179E-09  4.198616E-10
        84  14  3.020533E+05  1.806740E+02  1.864608E+03 -6.900027E+04  5.254091E-10  4.630117E-10
        84  15  3.019850E+05  3.410183E+02  2.820687E+03 -1.178810E+05  4.492603E-12 -3.480478E-10
        84  16  4.639924E+05  3.994893E+04  3.773679E+04 -1.180595E+05  5.403979E-10  3.015187E-10
        84  17  2.651460E+05 -8.875532E+03 -6.521060E+03 -6.899627E+04 -5.013172E-10  3.667057E-10
        84  18  6.620347E+04 -5.740644E+04 -5.018007E+04 -1.176950E+05 -1.577596E-09 -9.757220E-10
        84  19  1.400104E+05 -3.931628E+04 -3.471361E+04 -1.177027E+05 -7.722800E+03 -8.505648E+03
        84  20  3.389619E+05  9.236801E+03  1.025028E+04 -6.900428E+04 -6.784080E+03  1.686719E+03
        84  21  5.378183E+05  5.808483E+04  5.581824E+04 -1.180672E+05 -5.845635E+03  1.187452E+04
        84  22  3.019892E+05  3.172499E+02  1.512430E+03 -1.178811E+05  1.098472E+02 -8.517778E+03
        84  23  3.020533E+05  1.806773E+02  1.864615E+03 -6.900027E+04  1.046177E+03  1.674864E+03
        84  24  3.019851E+05  3.411705E+02  2.820959E+03 -1.178810E+05  1.981940E+03  1.186279E+04
        84  25  4.639925E+05  3.994902E+04  3.773704E+04 -1.180596E+05  7.944516E+03 -8.529910E+03
        84  26  2.651461E+05 -8.875507E+03 -6.520906E+03 -6.899625E+04  8.875972E+03  1.663009E+03
        84  27  6.620361E+04 -5.740626E+04 -5.017963E+04 -1.176949E+05  9.806573E+03  1.185106E+04
        85   1  7.195134E+05  1.027615E+05  9.897840E+04 -1.181607E+05  5.294022E+03 -1.781986E+04
        85   2  9.183769E+05  1.512154E+05  1.460486E+05 -6.937862E+04  2.211057E+03 -2.799568E+04
        85   3  1.117887E+06  2.007662E+05  1.953734E+05 -1.184561E+05 -8.633901E+02 -3.806628E+04
        85   4  3.021193E+05  2.555038E+02  3.597490E+03 -1.179044E+05 -2.571390E+03 -1.780918E+04
        85   5  3.017857E+05 -2.423348E+01  6.006997E+03 -6.897123E+04 -5.571805E+03 -2.798844E+04
        85   6  3.020516E+05  7.826422E+02  1.061819E+04 -1.179036E+05 -8.562737E+03 -3.806228E+04
        85   7 -1.151135E+05 -1.022625E+05 -9.179459E+04 -1.176482E+05 -1.043156E+04 -1.779850E+04
        85   8 -3.144530E+05 -1.512901E+05 -1.340590E+05 -6.856412E+04 -1.334701E+04 -2.798121E+04
        85   9 -5.131665E+05 -1.992467E+05 -1.741796E+05 -1.173516E+05 -1.625207E+04 -3.805830E+04
        85  10  7.195133E+05  1.027611E+05  9.897775E+04 -1.181606E+05 -1.063796E-09 -1.312765E-09
        85  11  9.183767E+05  1.512145E+05  1.460471E+05 -6.937857E+04  3.999579E-11 -3.003645E-10
        85  12  1.117887E+06  2.007646E+05  1.953706E+05 -1.184561E+05 -1.037422E-09  4.275154E-10
        85  13  3.021192E+05  2.551614E+02  3.596881E+03 -1.179044E+05 -1.047082E-09 -1.438996E-09
        85  14  3.017854E+05 -2.508313E+01  6.005466E+03 -6.897135E+04  3.091388E-11 -6.111724E-10
        85  15  3.020511E+05  7.810666E+02  1.061533E+04 -1.179038E+05  1.764699E-10  3.994547E-10
        85  16 -1.151137E+05 -1.022629E+05 -9.179539E+04 -1.176483E+05  2.136447E-09 -1.053836E-09
        85  17 -3.144534E+05 -1.512910E+05 -1.340608E+05 -6.856442E+04  7.005507E-10 -6.200589E-10
        85  18 -5.131672E+05 -1.992483E+05 -1.741828E+05 -1.173521E+05 -1.641501E-11  7.811621E-10
        85  19  7.195134E+05  1.027615E+05  9.897840E+04 -1.181607E+05 -5.294022E+03  1.781986E+04
        85  20  9.183769E+05  1.512154E+05  1.460486E+05 -6.937862E+04 -2.211057E+03  2.799568E+04
        85  21  1.117887E+06  2.007662E+05  1.953734E+05 -1.184561E+05  8.633901E+02  3.806628E+04
        85  22  3.021193E+05  2.555038E+02  3.597490E+03 -1.179044E+05  2.571390E+03  1.780918E+04
        85  23  3.017857E+05 -2.423348E+01  6.006997E+03 -6.897123E+04  5.571805E+03  2.798844E+04
        85  24  3.020516E+05  7.826422E+02  1.061819E+04 -1.179036E+05  8.562737E+03  3.806228E+04
        85  25 -1.151135E+05 -1.022625E+05 -9.179459E+04 -1.176482E+05  1.043156E+04  1.779850E+04
        85  26 -3.144530E+05 -1.512901E+05 -1.340590E+05 -6.856412E+04  1.334701E+04  2.798121E+04
        85  27 -5.131665E+05 -1.992467E+05 -1.741796E+05 -1.173516E+05  1.625207E+04  3.805830E+04
        86   1  1.300935E+06  2.441759E+05  2.408931E+05 -1.164742E+05 -2.279100E+03 -4.427449E+04
        86   2  1.497927E+06  2.926180E+05  2.956266E+05 -7.005677E+04 -1.603581E+04 -5.406357E+04
        86   3  1.700663E+06  3.540360E+05  3.626828E+05 -1.216763E+05 -2.978054E+04 -6.147577E+04
        86   4  3.030386E+05 -6.328725E+02  1.379401E+04 -1.179450E+05 -1.071923E+04 -4.427299E+04
        86   5  3.002739E+05 -1.072515E+03  2.356754E+04 -6.892047E+04 -2.262695E+04 -5.406924E+04
        86   6  3.029051E+05  1.115958E+04  4.439930E+04 -1.179437E+05 -3.451832E+04 -6.148649E+04
        86   7 -6.939350E+05 -2.455104E+05 -2.133695E+05 -1.194132E+05 -1.914592E+04 -4.427144E+04
        86   8 -8.960498E+05 -2.948620E+05 -2.485843E+05 -6.778622E+04 -2.920549E+04 -5.407493E+04
        86   9 -1.093044E+06 -3.318519E+05 -2.740112E+05 -1.142195E+05 -3.924548E+04 -6.149729E+04
        86  10  1.300934E+06  2.441738E+05  2.408894E+05 -1.164743E+05  1.538477E-10  2.453323E-10
        86  11  1.497925E+06  2.926148E+05  2.956206E+05 -7.005747E+04  1.122113E-09 -2.412287E-10
        86  12  1.700661E+06  3.540317E+05  3.626741E+05 -1.216778E+05 -1.522601E-09  2.675699E-10
        86  13  3.030379E+05 -6.350086E+02  1.379011E+04 -1.179454E+05 -1.811618E-11  6.912017E-10
        86  14  3.002726E+05 -1.075792E+03  2.356108E+04 -6.892145E+04 -1.067981E-09 -6.903294E-11
        86  15  3.029028E+05  1.115520E+04  4.438996E+04 -1.179455E+05 -2.927026E-10  1.393610E-10
        86  16 -6.939359E+05 -2.455126E+05 -2.133739E+05 -1.194139E+05 -1.517927E-10  6.754563E-10
        86  17 -8.960515E+05 -2.948654E+05 -2.485914E+05 -6.778749E+04 -1.788874E-10 -3.437853E-11
        86  18 -1.093047E+06 -3.318563E+05 -2.740212E+05 -1.142215E+05 -1.417896E-09  1.754142E-10
        86  19  1.300935E+06  2.441759E+05  2.408931E+05 -1.164742E+05  2.279100E+03  4.427449E+04
        86  20  1.497927E+06  2.926180E+05  2.956266E+05 -7.005677E+04  1.603581E+04  5.406357E+04
        86  21  1.700663E+06  3.540360E+05  3.626828E+05 -1.216763E+05  2.978054E+04  6.147577E+04
        86  22  3.030386E+05 -6.328725E+02  1.379401E+04 -1.179450E+05  1.071923E+04  4.427299E+04
        86  23  3.002739E+05 -1.072515E+03  2.356754E+04 -6.892047E+04  2.262695E+04  5.406924E+04
        86  24  3.029051E+05  1.115958E+04  4.439930E+04 -1.179437E+05  3.451832E+04  6.148649E+04
        86  25 -6.939350E+05 -2.455104E+05 -2.133695E+05 -1.194132E+05  1.914592E+04  4.427144E+04
        86  26 -8.960498E+05 -2.948620E+05 -2.485843E+05 -6.778622E+04  2.920549E+04  5.407493E+04
        86  27 -1.093044E+06 -3.318519E+05 -2.740112E+05 -1.142195E+05  3.924548E+04  6.149729E+04
        87   1  1.894632E+06  3.779274E+05  4.136633E+05 -9.203257E+04 -2.224380E+04 -7.307402E+04
        87   2  2.066474E+06  4.271593E+05  4.993315E+05 -9.116957E+04 -1.106916E+05 -7.424164E+04
        87   3  2.297557E+06  6.600024E+05  6.887465E+05 -1.872047E+05 -1.992719E+05 -2.449230E+04
        87   4  3.132576E+05 -9.632704E+03  5.536944E+04 -1.176182E+05 -4.262034E+04 -7.309684E+04
        87   5  2.868778E+05 -9.639317E+03  9.213400E+04 -6.930569E+04 -9.173463E+04 -7.423669E+04
        87   6  3.130435E+05  1.674240E+05  2.055327E+05 -1.178892E+05 -1.409482E+05 -2.440803E+04
        87   7 -1.265797E+06 -3.973623E+05 -3.030838E+05 -1.431382E+05 -6.294547E+04 -7.311801E+04
        87   8 -1.489789E+06 -4.466559E+05 -3.152696E+05 -4.750559E+04 -7.283113E+04 -7.423042E+04
        87   9 -1.667868E+06 -3.254237E+05 -2.779514E+05 -4.879651E+04 -8.280943E+04 -2.431067E+04
        87  10  1.894630E+06  3.779215E+05  4.136523E+05 -9.203388E+04  3.186761E-10  5.493299E-10
        87  11  2.066459E+06  4.271501E+05  4.992982E+05 -9.117618E+04 -6.362187E-10  7.197679E-11
        87  12  2.297514E+06  6.599911E+05  6.886710E+05 -1.872086E+05  4.543247E-10 -3.818705E-10
        87  13  3.132543E+05 -9.638930E+03  5.535599E+04 -1.176207E+05 -1.075323E-09  3.290488E-10
        87  14  2.868673E+05 -9.647494E+03  9.210783E+04 -6.931117E+04 -1.630053E-09 -1.577729E-10
        87  15  3.130220E+05  1.674180E+05  2.054942E+05 -1.178919E+05 -1.520520E-09  5.266615E-11
        87  16 -1.265803E+06 -3.973691E+05 -3.031013E+05 -1.431419E+05  2.073174E-10  2.890697E-10
        87  17 -1.489796E+06 -4.466632E+05 -3.152900E+05 -4.750995E+04 -8.581965E-11  6.143489E-10
        87  18 -1.667876E+06 -3.254262E+05 -2.779655E+05 -4.879814E+04 -9.388538E-10  6.326134E-11
        87  19  1.894632E+06  3.779274E+05  4.136633E+05 -9.203257E+04  2.224380E+04  7.307402E+04
        87  20  2.066474E+06  4.271593E+05  4.993315E+05 -9.116957E+04  1.106916E+05  7.424164E+04
        87  21  2.297557E+06  6.600024E+05  6.887465E+05 -1.872047E+05  1.992719E+05  2.449230E+04
        87  22  3.132576E+05 -9.632704E+03  5.536944E+04 -1.176182E+05  4.262034E+04  7.309684E+04
        87  23  2.868778E+05 -9.639317E+03  9.213400E+04 -6.930569E+04  9.173463E+04  7.423669E+04
        87  24  3.130435E+05  1.674240E+05  2.055327E+05 -1.178892E+05  1.409482E+05  2.440803E+04
        87  25 -1.265797E+06 -3.973623E+05 -3.030838E+05 -1.431382E+05  6.294547E+04  7.311801E+04
        87  26 -1.489789E+06 -4.466559E+05 -3.152696E+05 -4.750559E+04  7.283113E+04  7.423042E+04
        87  27 -1.667868E+06 -3.254237E+05 -2.779514E+05 -4.879651E+04  8.280943E+04  2.431067E+04
        88   1  5.429951E+04 -3.157107E+05  7.315058E+04 -1.446728E+05 -3.685172E+03  6.369087E+04
        88   2 -8.162283E+04 -5.137906E+05 -2.611252E+04 -7.415349E+04 -1.442411E+04  4.002019E+04
        88   3 -1.274122E+05 -6.871556E+05 -8.765029E+04 -9.483886E+04 -2.395128E+04  1.636537E+04
        88   4  8.638022E+04 -1.844076E+05  1.042117E+05 -1.086643E+05 -3.721792E+03  7.250283E+04
        88   5 -3.906246E+03 -1.968531E+05  4.600602E+04 -6.326573E+04 -1.445767E+04  4.789664E+04
        88   6 -3.916101E+03 -1.844517E+05  2.617618E+04 -1.090612E+05 -2.398030E+04  2.329973E+04
        88   7  1.184647E+05 -5.308563E+04  1.352727E+05 -7.264819E+04 -3.757385E+03  8.131664E+04
        88   8  7.380390E+04  1.201780E+05  1.181183E+05 -5.237225E+04 -1.449094E+04  5.577708E+04
        88   9  1.195632E+05  3.184876E+05  1.399866E+05 -1.232949E+05 -2.400963E+04  3.023966E+04
        88  10  5.429841E+04 -3.157151E+05  7.314293E+04 -1.446727E+05  1.125508E-10 -5.383969E-09
        88  11 -8.162348E+04 -5.137924E+05 -2.611592E+04 -7.415302E+04  1.235905E-09  2.585536E-10
        88  12 -1.274128E+05 -6.871560E+05 -8.765187E+04 -9.483854E+04  9.044922E-10  6.464126E-09
        88  13  8.637879E+04 -1.844132E+05  1.042018E+05 -1.086641E+05 -7.549390E-10 -3.868749E-12
        88  14 -3.907086E+03 -1.968557E+05  4.600131E+04 -6.326517E+04  3.551706E-09 -5.659886E-12
        88  15 -3.916864E+03 -1.844524E+05  2.617408E+04 -1.090608E+05  1.711732E-09 -2.093476E-11
        88  16  1.184629E+05 -5.309274E+04  1.352602E+05 -7.264794E+04  3.117186E-11  5.338176E-09
        88  17  7.380284E+04  1.201746E+05  1.181121E+05 -5.237160E+04  3.436852E-09 -3.929046E-10
        88  18  1.195624E+05  3.184865E+05  1.399838E+05 -1.232943E+05  2.191839E-09 -6.698515E-09
        88  19  5.429951E+04 -3.157107E+05  7.315058E+04 -1.446728E+05  3.685172E+03 -6.369087E+04
        88  20 -8.162283E+04 -5.137906E+05 -2.611252E+04 -7.415349E+04  1.442411E+04 -4.002019E+04
        88  21 -1.274122E+05 -6.871556E+05 -8.765029E+04 -9.483886E+04  2.395128E+04 -1.636537E+04
        88  22  8.638022E+04 -1.844076E+05  1.042117E+05 -1.086643E+05  3.721792E+03 -7.250283E+04
        88  23 -3.906246E+03 -1.968531E+05  4.600602E+04 -6.326573E+04  1.445767E+04 -4.789664E+04
        88  24 -3.916101E+03 -1.844517E+05  2.617618E+04 -1.090612E+05  2.398030E+04 -2.329973E+04
        88  25  1.184647E+05 -5.308563E+04  1.352727E+05 -7.264819E+04  3.757385E+03 -8.131664E+04
        88  26  7.380390E+04  1.201780E+05  1.181183E+05 -5.237225E+04  1.449094E+04 -5.577708E+04
        88  27  1.195632E+05  3.184876E+05  1.399866E+05 -1.232949E+05  2.400963E+04 -3.023966E+04
        89   1 -1.583711E+05 -8.621681E+05 -1.334558E+05 -1.084626E+05 -2.956850E+04  1.169266E+04
        89   2 -2.106886E+05 -1.048303E+06 -1.878818E+05 -6.159650E+04 -3.879985E+04  9.460312E+03
        89   3 -2.585583E+05 -1.233484E+06 -2.398616E+05 -1.059809E+05 -4.604123E+04  7.247069E+03
        89   4  6.877801E+03 -1.897551E+05  1.998952E+04 -1.089452E+05 -2.959926E+04  1.956085E+04
        89   5  7.408211E+01 -1.903938E+05  7.371122E+03 -6.334102E+04 -3.882030E+04  1.579895E+04
        89   6 -2.015513E+03 -1.898442E+05 -1.736307E+03 -1.089792E+05 -4.605272E+04  1.205554E+04
        89   7  1.720953E+05  4.830778E+05  1.734056E+05 -1.094278E+05 -2.963002E+04  2.743748E+04
        89   8  2.107859E+05  6.681992E+05  2.025763E+05 -6.508730E+04 -3.884077E+04  2.214627E+04
        89   9  2.544517E+05  8.548074E+05  2.363179E+05 -1.119817E+05 -4.606425E+04  1.687202E+04
        89  10 -1.583720E+05 -8.621685E+05 -1.334577E+05 -1.084623E+05  1.565431E-10  2.876697E-10
        89  11 -2.106903E+05 -1.048304E+06 -1.878848E+05 -6.159620E+04 -3.083685E-10  3.087108E-11
        89  12 -2.585606E+05 -1.233485E+06 -2.398656E+05 -1.059806E+05  2.928951E-12  2.973302E-10
        89  13  6.876757E+03 -1.897557E+05  1.998716E+04 -1.089447E+05  1.446018E-09 -5.491374E-11
        89  14  7.239706E+01 -1.903945E+05  7.367821E+03 -6.334053E+04  8.779210E-10 -1.088563E-10
        89  15 -2.017830E+03 -1.898450E+05 -1.740565E+03 -1.089788E+05  1.097101E-09 -8.200292E-12
        89  16  1.720942E+05  4.830767E+05  1.734025E+05 -1.094271E+05 -8.937299E-10 -2.397111E-10
        89  17  2.107841E+05  6.681982E+05  2.025726E+05 -6.508661E+04  2.239809E-09 -2.715601E-12
        89  18  2.544494E+05  8.548065E+05  2.363134E+05 -1.119811E+05 -5.465898E-10 -2.559664E-10
        89  19 -1.583711E+05 -8.621681E+05 -1.334558E+05 -1.084626E+05  2.956850E+04 -1.169266E+04
        89  20 -2.106886E+05 -1.048303E+06 -1.878818E+05 -6.159650E+04  3.879985E+04 -9.460312E+03
        89  21 -2.585583E+05 -1.233484E+06 -2.398616E+05 -1.059809E+05  4.604123E+04 -7.247069E+03
        89  22  6.877801E+03 -1.897551E+05  1.998952E+04 -1.089452E+05  2.959926E+04 -1.956085E+04
        89  23  7.408211E+01 -1.903938E+05  7.371122E+03 -6.334102E+04  3.882030E+04 -1.579895E+04
        89  24 -2.015513E+03 -1.898442E+05 -1.736307E+03 -1.089792E+05  4.605272E+04 -1.205554E+04
        89  25  1.720953E+05  4.830778E+05  1.734056E+05 -1.094278E+05  2.963002E+04 -2.743748E+04
        89  26  2.107859E+05  6.681992E+05  2.025763E+05 -6.508730E+04  3.884077E+04 -2.214627E+04
        89  27  2.544517E+05  8.548074E+05  2.363179E+05 -1.119817E+05  4.606425E+04 -1.687202E+04
        90   1 -2.955253E+05 -1.405651E+06 -2.811168E+05 -1.009327E+05 -5.607547E+04 -4.877481E+03
        90   2 -3.420732E+05 -1.584168E+06 -3.356953E+05 -6.542925E+04 -5.827175E+04  3.493677E+04
        90   3 -4.262102E+05 -1.776869E+06 -4.255538E+05 -1.194812E+05 -1.926477E+04  7.482612E+04
        90   4  2.582379E+03 -1.921328E+05 -5.484409E+03 -1.085660E+05 -5.612439E+04  1.251990E+04
        90   5  1.535481E+03 -1.878545E+05 -1.534038E+04 -6.383440E+04 -5.822454E+04  2.077738E+04
        90   6 -3.156755E+04 -1.922767E+05 -3.850606E+04 -1.086499E+05 -1.916155E+04  2.912327E+04
        90   7  3.005886E+05  1.022756E+06  2.700538E+05 -1.162132E+05 -5.617369E+04  2.995102E+04
        90   8  3.450083E+05  1.210269E+06  3.048869E+05 -6.223465E+04 -5.817746E+04  6.586307E+03
        90   9  3.628911E+05  1.394614E+06  3.483665E+05 -9.778946E+04 -1.906007E+04 -1.669629E+04
        90  10 -2.955286E+05 -1.405652E+06 -2.811228E+05 -1.009329E+05 -1.061417E-09 -1.927443E-10
        90  11 -3.420772E+05 -1.584170E+06 -3.357040E+05 -6.542761E+04 -3.247896E-11  1.881524E-10
        90  12 -4.262121E+05 -1.776875E+06 -4.255651E+05 -1.194801E+05 -3.945078E-10  5.667889E-10
        90  13  2.578955E+03 -1.921339E+05 -5.490622E+03 -1.085654E+05 -5.077146E-10 -1.651537E-11
        90  14  1.531725E+03 -1.878558E+05 -1.534756E+04 -6.383343E+04 -1.239362E-09 -5.257090E-11
        90  15 -3.156818E+04 -1.922777E+05 -3.850835E+04 -1.086495E+05 -2.570163E-10  2.848534E-11
        90  16  3.005849E+05  1.022754E+06  2.700462E+05 -1.162118E+05 -7.854902E-10  1.325173E-10
        90  17  3.450047E+05  1.210268E+06  3.048804E+05 -6.223434E+04 -1.330437E-09 -2.957866E-10
        90  18  3.628906E+05  1.394613E+06  3.483653E+05 -9.778972E+04 -5.747723E-11 -5.372836E-10
        90  19 -2.955253E+05 -1.405651E+06 -2.811168E+05 -1.009327E+05  5.607547E+04  4.877481E+03
        90  20 -3.420732E+05 -1.584168E+06 -3.356953E+05 -6.542925E+04  5.827175E+04 -3.493677E+04
        90  21 -4.262102E+05 -1.776869E+06 -4.255538E+05 -1.194812E+05  1.926477E+04 -7.482612E+04
        90  22  2.582379E+03 -1.921328E+05 -5.484409E+03 -1.085660E+05  5.612439E+04 -1.251990E+04
        90  23  1.535481E+03 -1.878545E+05 -1.534038E+04 -6.383440E+04  5.822454E+04 -2.077738E+04
        90  24 -3.156755E+04 -1.922767E+05 -3.850606E+04 -1.086499E+05  1.916155E+04 -2.912327E+04
        90  25  3.005886E+05  1.022756E+06  2.700538E+05 -1.162132E+05  5.617369E+04 -2.995102E+04
        90  26  3.450083E+05  1.210269E+06  3.048869E+05 -6.223465E+04  5.817746E+04 -6.586307E+03
        90  27  3.628911E+05  1.394614E+06  3.483665E+05 -9.778946E+04  1.906007E+04  1.669629E+04
        91   1 -3.927466E+06 -1.419200E+06 -8.707624E+05 -1.384579E+06 -2.949509E+05 -8.326335E+04
        91   2 -3.788483E+06 -9.987246E+05 -5.972921E+05 -1.347757E+06 -1.943942E+05  1.503325E+04
        91   3 -3.726284E+06 -9.280265E+05 -4.955508E+05 -1.291554E+06 -7.398352E+04  6.114704E+04
        91   4 -2.121539E+06 -6.226306E+05 -3.614297E+05 -7.763081E+05 -2.391499E+05 -6.215087E+04
        91   5 -2.067162E+06 -3.151245E+05 -1.545774E+05 -8.376178E+05 -1.756773E+05  2.209008E+04
        91   6 -2.081856E+06 -3.495170E+05 -8.958233E+04 -8.796439E+05 -9.240358E+04  5.417464E+04
        91   7 -3.124157E+05  1.744770E+05  1.476027E+05 -1.663158E+05 -1.831688E+05 -4.094500E+04
        91   8 -3.429204E+05  3.687672E+05  2.878926E+05 -3.261545E+05 -1.569029E+05  2.917145E+04
        91   9 -4.347630E+05  2.290953E+05  3.161828E+05 -4.667730E+05 -1.108772E+05  4.718499E+04
        91  10 -3.927562E+06 -1.419232E+06 -8.709401E+05 -1.384599E+06  1.532278E-09  8.580777E-12
        91  11 -3.788524E+06 -9.987351E+05 -5.973639E+05 -1.347754E+06  1.631350E-09  1.584360E-10
        91  12 -3.726291E+06 -9.280320E+05 -4.955681E+05 -1.291550E+06 -2.236251E-09 -5.304250E-10
        91  13 -2.121601E+06 -6.226502E+05 -3.615449E+05 -7.763201E+05  2.522956E-09  2.209864E-10
        91  14 -2.067196E+06 -3.151333E+05 -1.546365E+05 -8.376147E+05 -7.006618E-10  2.443639E-10
        91  15 -2.081866E+06 -3.495224E+05 -8.960391E+04 -8.796399E+05 -3.633991E-09 -1.218601E-09
        91  16 -3.124521E+05  1.744661E+05  1.475365E+05 -1.663219E+05  3.882336E-10  5.421237E-10
        91  17 -3.429470E+05  3.687596E+05  2.878447E+05 -3.261508E+05 -2.137806E-09  1.812974E-10
        91  18 -4.347768E+05  2.290896E+05  3.161555E+05 -4.667688E+05 -7.790499E-09 -1.913559E-09
        91  19 -3.927466E+06 -1.419200E+06 -8.707624E+05 -1.384579E+06  2.949509E+05  8.326335E+04
        91  20 -3.788483E+06 -9.987246E+05 -5.972921E+05 -1.347757E+06  1.943942E+05 -1.503325E+04
        91  21 -3.726284E+06 -9.280265E+05 -4.955508E+05 -1.291554E+06  7.398352E+04 -6.114704E+04
        91  22 -2.121539E+06 -6.226306E+05 -3.614297E+05 -7.763081E+05  2.391499E+05  6.215087E+04
        91  23 -2.067162E+06 -3.151245E+05 -1.545774E+05 -8.376178E+05  1.756773E+05 -2.209008E+04
        91  24 -2.081856E+06 -3.495170E+05 -8.958233E+04 -8.796439E+05  9.240358E+04 -5.417464E+04
        91  25 -3.124157E+05  1.744770E+05  1.476027E+05 -1.663158E+05  1.831688E+05  4.094500E+04
        91  26 -3.429204E+05  3.687672E+05  2.878926E+05 -3.261545E+05  1.569029E+05 -2.917145E+04
        91  27 -4.347630E+05  2.290953E+05  3.161828E+05 -4.667730E+05  1.108772E+05 -4.718499E+04
        92   1 -3.545531E+06 -9.433370E+05 -4.459069E+05 -1.274604E+06 -7.413283E+04  4.909500E+04
        92   2 -3.426828E+06 -8.357065E+05 -3.729245E+05 -1.205775E+06 -5.194815E+04  5.209101E+04
        92   3 -3.263183E+06 -8.058849E+05 -3.211208E+05 -1.194089E+06 -2.873783E+04  5.233284E+04
        92   4 -2.069451E+06 -3.818718E+05 -7.177799E+04 -8.621054E+05 -7.659875E+04  4.814971E+04
        92   5 -2.090554E+06 -3.326832E+05 -3.617766E+04 -8.374545E+05 -5.633943E+04  5.042524E+04
        92   6 -2.066328E+06 -3.608802E+05 -2.018425E+04 -8.699514E+05 -3.506055E+04  4.994729E+04
        92   7 -5.912326E+05  1.797521E+05  3.021737E+05 -4.487081E+05 -7.907099E+04  4.720199E+04
        92   8 -7.525215E+05  1.704629E+05  3.004269E+05 -4.684102E+05 -6.074103E+04  4.875557E+04
        92   9 -8.680591E+05  8.421556E+04  2.806401E+05 -5.452458E+05 -4.139667E+04  4.755681E+04
        92  10 -3.545538E+06 -9.433410E+05 -4.459217E+05 -1.274601E+06 -6.520151E-09 -1.823801E-09
        92  11 -3.426832E+06 -8.357101E+05 -3.729347E+05 -1.205773E+06 -2.268003E-09 -5.875089E-10
        92  12 -3.263184E+06 -8.058880E+05 -3.211275E+05 -1.194088E+06 -7.798999E-10 -6.346073E-10
        92  13 -2.069458E+06 -3.818758E+05 -7.179338E+04 -8.621025E+05 -4.817827E-09 -1.504550E-09
        92  14 -2.090558E+06 -3.326868E+05 -3.618840E+04 -8.374522E+05 -1.353087E-09 -2.860648E-10
        92  15 -2.066330E+06 -3.608832E+05 -2.019124E+04 -8.699500E+05  1.241122E-09 -9.083346E-11
        92  16 -5.912399E+05  1.797480E+05  3.021577E+05 -4.487051E+05 -4.420549E-09 -1.259480E-09
        92  17 -7.525261E+05  1.704593E+05  3.004155E+05 -4.684078E+05  1.221230E-09 -5.305564E-10
        92  18 -8.680616E+05  8.421268E+04  2.806327E+05 -5.452442E+05  2.174429E-09 -8.603024E-11
        92  19 -3.545531E+06 -9.433370E+05 -4.459069E+05 -1.274604E+06  7.413283E+04 -4.909500E+04
        92  20 -3.426828E+06 -8.357065E+05 -3.729245E+05 -1.205775E+06  5.194815E+04 -5.209101E+04
        92  21 -3.263183E+06 -8.058849E+05 -3.211208E+05 -1.194089E+06  2.873783E+04 -5.233284E+04
        92  22 -2.069451E+06 -3.818718E+05 -7.177799E+04 -8.621054E+05  7.659875E+04 -4.814971E+04
        92  23 -2.090554E+06 -3.326832E+05 -3.617766E+04 -8.374545E+05  5.633943E+04 -5.042524E+04
        92  24 -2.066328E+06 -3.608802E+05 -2.018425E+04 -8.699514E+05  3.506055E+04 -4.994729E+04
        92  25 -5.912326E+05  1.797521E+05  3.021737E+05 -4.487081E+05  7.907099E+04 -4.720199E+04
        92  26 -7.525215E+05  1.704629E+05  3.004269E+05 -4.684102E+05  6.074103E+04 -4.875557E+04
        92  27 -8.680591E+05  8.421556E+04  2.806401E+05 -5.452458E+05  4.139667E+04 -4.755681E+04
        93   1 -3.117317E+06 -7.578946E+05 -2.798355E+05 -1.157300E+06 -2.476032E+04  4.818946E+04
        93   2 -2.995516E+06 -6.708156E+05 -2.353074E+05 -1.083364E+06 -1.741840E+04  4.191144E+04
        93   3 -2.816969E+06 -6.428636E+05 -1.943765E+05 -1.074753E+06 -1.000235E+04  3.540015E+04
        93   4 -2.064692E+06 -3.637457E+05 -1.551539E+04 -8.691242E+05 -3.035906E+04  4.607974E+04
        93   5 -2.092899E+06 -3.332888E+05 -8.388187E+03 -8.367858E+05 -2.317605E+04  3.974675E+04
        93   6 -2.064353E+06 -3.619198E+05 -4.726209E+03 -8.697730E+05 -1.592014E+04  3.318033E+04
        93   7 -1.010976E+06  3.047691E+04  2.487171E+05 -5.805033E+05 -3.596822E+04  4.396612E+04
        93   8 -1.189483E+06  4.290829E+03  2.184659E+05 -5.898814E+05 -2.894286E+04  3.757864E+04
        93   9 -1.311183E+06 -8.094060E+04  1.848782E+05 -6.645683E+05 -2.184578E+04  3.095758E+04
        93  10 -3.117319E+06 -7.578972E+05 -2.798410E+05 -1.157299E+06 -1.494564E-10 -9.616780E-10
        93  11 -2.995517E+06 -6.708176E+05 -2.353112E+05 -1.083364E+06 -1.566763E-09 -2.405030E-10
        93  12 -2.816969E+06 -6.428650E+05 -1.943790E+05 -1.074752E+06 -9.530155E-10  6.334580E-10
        93  13 -2.064693E+06 -3.637482E+05 -1.552110E+04 -8.691231E+05  7.034519E-11 -1.222945E-10
        93  14 -2.092900E+06 -3.332906E+05 -8.392161E+03 -8.367851E+05 -6.243210E-10 -2.971712E-10
        93  15 -2.064353E+06 -3.619210E+05 -4.728751E+03 -8.697726E+05 -4.192196E-10 -1.556146E-11
        93  16 -1.010978E+06  3.047449E+04  2.487110E+05 -5.805020E+05  1.341973E-09  5.567306E-11
        93  17 -1.189484E+06  4.289090E+03  2.184617E+05 -5.898806E+05 -5.768072E-11 -1.312644E-10
        93  18 -1.311184E+06 -8.094175E+04  1.848755E+05 -6.645678E+05 -1.648267E-10 -1.402387E-10
        93  19 -3.117317E+06 -7.578946E+05 -2.798355E+05 -1.157300E+06  2.476032E+04 -4.818946E+04
        93  20 -2.995516E+06 -6.708156E+05 -2.353074E+05 -1.083364E+06  1.741840E+04 -4.191144E+04
        93  21 -2.816969E+06 -6.428636E+05 -1.943765E+05 -1.074753E+06  1.000235E+04 -3.540015E+04
        93  22 -2.064692E+06 -3.637457E+05 -1.551539E+04 -8.691242E+05  3.035906E+04 -4.607974E+04
        93  23 -2.092899E+06 -3.332888E+05 -8.388187E+03 -8.367858E+05  2.317605E+04 -3.974675E+04
        93  24 -2.064353E+06 -3.619198E+05 -4.726209E+03 -8.697730E+05  1.592014E+04 -3.318033E+04
        93  25 -1.010976E+06  3.047691E+04  2.487171E+05 -5.805033E+05  3.596822E+04 -4.396612E+04
        93  26 -1.189483E+06  4.290829E+03  2.184659E+05 -5.898814E+05  2.894286E+04 -3.757864E+04
        93  27 -1.311183E+06 -8.094060E+04  1.848782E+05 -6.645683E+05  2.184578E+04 -3.095758E+04
        94   1 -2.669423E+06 -5.884175E+05 -1.552918E+05 -1.035200E+06 -7.501387E+03  3.084316E+04
        94   2 -2.544337E+06 -5.011593E+05 -1.156805E+05 -9.592630E+05 -3.172605E+03  2.300277E+04
        94   3 -2.360488E+06 -4.728882E+05 -7.699338E+04 -9.508761E+05  1.170658E+03  1.510461E+04
        94   4 -2.063935E+06 -3.624193E+05 -3.704783E+03 -8.700506E+05 -1.342728E+04  2.862268E+04
        94   5 -2.093265E+06 -3.327949E+05 -2.367915E+03 -8.363137E+05 -9.138679E+03  2.076964E+04
        94   6 -2.063855E+06 -3.621492E+05 -1.923119E+03 -8.701331E+05 -4.835996E+03  1.285886E+04
        94   7 -1.458083E+06 -1.363954E+05  1.478546E+05 -7.047535E+05 -1.935956E+04  2.639982E+04
        94   8 -1.641995E+06 -1.644178E+05  1.109284E+05 -7.132834E+05 -1.510949E+04  1.853474E+04
        94   9 -1.767140E+06 -2.514059E+05  7.313926E+04 -7.893560E+05 -1.084573E+04  1.061196E+04
        94  10 -2.669423E+06 -5.884186E+05 -1.552937E+05 -1.035200E+06  4.376200E-10  4.974936E-10
        94  11 -2.544337E+06 -5.011598E+05 -1.156815E+05 -9.592629E+05  1.367413E-09  1.972233E-10
        94  12 -2.360488E+06 -4.728885E+05 -7.699381E+04 -9.508761E+05 -8.149434E-10 -9.337758E-10
        94  13 -2.063936E+06 -3.624202E+05 -3.706659E+03 -8.700503E+05 -1.960875E-10  1.185904E-10
        94  14 -2.093265E+06 -3.327954E+05 -2.368881E+03 -8.363135E+05 -1.262268E-09 -5.230721E-10
        94  15 -2.063855E+06 -3.621494E+05 -1.923474E+03 -8.701331E+05 -3.416635E-09 -8.878905E-10
        94  16 -1.458083E+06 -1.363963E+05  1.478526E+05 -7.047531E+05 -4.296135E-10  2.228507E-10
        94  17 -1.641995E+06 -1.644183E+05  1.109273E+05 -7.132832E+05 -1.101153E-09 -5.108970E-11
        94  18 -1.767140E+06 -2.514061E+05  7.313883E+04 -7.893559E+05 -4.148870E-09 -1.289259E-09
        94  19 -2.669423E+06 -5.884175E+05 -1.552918E+05 -1.035200E+06  7.501387E+03 -3.084316E+04
        94  20 -2.544337E+06 -5.011593E+05 -1.156805E+05 -9.592630E+05  3.172605E+03 -2.300277E+04
        94  21 -2.360488E+06 -4.728882E+05 -7.699338E+04 -9.508761E+05 -1.170658E+03 -1.510461E+04
        94  22 -2.063935E+06 -3.624193E+05 -3.704783E+03 -8.700506E+05  1.342728E+04 -2.862268E+04
        94  23 -2.093265E+06 -3.327949E+05 -2.367915E+03 -8.363137E+05  9.138679E+03 -2.076964E+04
        94  24 -2.063855E+06 -3.621492E+05 -1.923119E+03 -8.701331E+05  4.835996E+03 -1.285886E+04
        94  25 -1.458083E+06 -1.363954E+05  1.478546E+05 -7.047535E+05  1.935956E+04 -2.639982E+04
        94  26 -1.641995E+06 -1.644178E+05  1.109284E+05 -7.132834E+05  1.510949E+04 -1.853474E+04
        94  27 -1.767140E+06 -2.514059E+05  7.313926E+04 -7.893560E+05  1.084573E+04 -1.061196E+04
        95   1 -2.210754E+06 -4.170330E+05 -3.833343E+04 -9.103863E+05  3.334731E+03  1.034416E+04
        95   2 -2.084419E+06 -3.293040E+05 -4.056793E+02 -8.337803E+05  7.781905E+03  2.435094E+03
        95   3 -1.899028E+06 -3.010656E+05  3.649070E+04 -8.253549E+05  1.222722E+04 -5.467223E+03
        95   4 -2.063774E+06 -3.622622E+05 -1.982646E+03 -8.702677E+05 -2.688321E+03  8.093086E+03
        95   5 -2.093298E+06 -3.325705E+05 -2.627315E+03 -8.361519E+05  1.762859E+03  1.853706E+02
        95   6 -2.063790E+06 -3.623721E+05 -4.305001E+03 -8.702266E+05  6.211793E+03 -7.715636E+03
        95   7 -1.916772E+06 -3.074896E+05  3.436684E+04 -8.301403E+05 -8.712966E+03  5.841412E+03
        95   8 -2.102177E+06 -3.358370E+05 -4.848824E+03 -8.385234E+05 -4.256149E+03 -2.064340E+03
        95   9 -2.228526E+06 -4.236776E+05 -4.510326E+04 -9.150882E+05  1.980362E+02 -9.963427E+03
        95  10 -2.210754E+06 -4.170331E+05 -3.833365E+04 -9.103863E+05 -4.235218E-09 -1.669111E-09
        95  11 -2.084419E+06 -3.293040E+05 -4.058048E+02 -8.337803E+05 -4.980323E-09 -8.870251E-10
        95  12 -1.899028E+06 -3.010656E+05  3.649036E+04 -8.253548E+05 -2.332000E-09 -6.144232E-10
        95  13 -2.063774E+06 -3.622623E+05 -1.982783E+03 -8.702677E+05 -2.338604E-09 -1.085714E-09
        95  14 -2.093298E+06 -3.325705E+05 -2.627321E+03 -8.361519E+05 -5.314491E-09 -6.410107E-10
        95  15 -2.063790E+06 -3.623722E+05 -4.305185E+03 -8.702266E+05 -1.817878E-09 -8.660857E-10
        95  16 -1.916773E+06 -3.074896E+05  3.436663E+04 -8.301403E+05 -2.545029E-09 -1.374100E-09
        95  17 -2.102177E+06 -3.358370E+05 -4.848866E+03 -8.385234E+05 -2.949673E-09 -1.452438E-09
        95  18 -2.228526E+06 -4.236777E+05 -4.510344E+04 -9.150882E+05 -3.526633E-10 -2.753253E-11
        95  19 -2.210754E+06 -4.170330E+05 -3.833343E+04 -9.103863E+05 -3.334731E+03 -1.034416E+04
        95  20 -2.084419E+06 -3.293040E+05 -4.056793E+02 -8.337803E+05 -7.781905E+03 -2.435094E+03
        95  21 -1.899028E+06 -3.010656E+05  3.649070E+04 -8.253549E+05 -1.222722E+04  5.467223E+03
        95  22 -2.063774E+06 -3.622622E+05 -1.982646E+03 -8.702677E+05  2.688321E+03 -8.093086E+03
        95  23 -2.093298E+06 -3.325705E+05 -2.627315E+03 -8.361519E+05 -1.762859E+03 -1.853706E+02
        95  24 -2.063790E+06 -3.623721E+05 -4.305001E+03 -8.702266E+05 -6.211793E+03  7.715636E+03
        95  25 -1.916772E+06 -3.074896E+05  3.436684E+04 -8.301403E+05  8.712966E+03 -5.841412E+03
        95  26 -2.102177E+06 -3.358370E+05 -4.848824E+03 -8.385234E+05  4.256149E+03  2.064340E+03
        95  27 -2.228526E+06 -4.236776E+05 -4.510326E+04 -9.150882E+05 -1.980362E+02  9.963427E+03
        96   1 -1.749516E+06 -2.450408E+05  7.389831E+04 -7.849745E+05  1.488207E+04 -1.005159E+04
        96   2 -1.624209E+06 -1.577260E+05  1.077971E+05 -7.085325E+05  2.285422E+04 -1.656357E+04
        96   3 -1.441376E+06 -1.312868E+05  1.375496E+05 -6.992561E+05  3.077661E+04 -2.291874E+04
        96   4 -2.064068E+06 -3.620752E+05 -5.572380E+03 -8.702384E+05  8.850318E+03 -1.230695E+04
        96   5 -2.092971E+06 -3.325956E+05 -9.888107E+03 -8.362972E+05  1.692927E+04 -1.878157E+04
        96   6 -2.064389E+06 -3.640176E+05 -1.843576E+04 -8.695333E+05  2.495712E+04 -2.509972E+04
        96   7 -2.378520E+06 -4.791019E+05 -8.504977E+04 -9.554622E+05  2.821988E+03 -1.456105E+04
        96   8 -2.561513E+06 -5.074497E+05 -1.275897E+05 -9.639734E+05  1.100925E+04 -2.099772E+04
        96   9 -2.687020E+06 -5.967223E+05 -1.744513E+05 -1.039655E+06  1.914403E+04 -2.727831E+04
        96  10 -1.749516E+06 -2.450409E+05  7.389770E+04 -7.849743E+05 -1.170100E-09 -4.379065E-10
        96  11 -1.624210E+06 -1.577264E+05  1.077956E+05 -7.085322E+05 -3.007246E-09 -1.114473E-09
        96  12 -1.441377E+06 -1.312876E+05  1.375468E+05 -6.992555E+05 -1.919065E-09 -8.690962E-10
        96  13 -2.064069E+06 -3.620753E+05 -5.572812E+03 -8.702383E+05 -1.766372E-09 -4.835781E-10
        96  14 -2.092971E+06 -3.325961E+05 -9.889307E+03 -8.362969E+05 -4.846442E-09 -1.847287E-09
        96  15 -2.064390E+06 -3.640184E+05 -1.843811E+04 -8.695328E+05 -4.566587E-10 -1.171459E-09
        96  16 -2.378520E+06 -4.791021E+05 -8.505019E+04 -9.554621E+05 -2.954102E-09 -5.785601E-10
        96  17 -2.561514E+06 -5.074502E+05 -1.275908E+05 -9.639732E+05 -3.951682E-09 -1.316624E-09
        96  18 -2.687021E+06 -5.967232E+05 -1.744534E+05 -1.039654E+06  8.532593E-10 -6.199804E-10
        96  19 -1.749516E+06 -2.450408E+05  7.389831E+04 -7.849745E+05 -1.488207E+04  1.005159E+04
        96  20 -1.624209E+06 -1.577260E+05  1.077971E+05 -7.085325E+05 -2.285422E+04  1.656357E+04
        96  21 -1.441376E+06 -1.312868E+05  1.375496E+05 -6.992561E+05 -3.077661E+04  2.291874E+04
        96  22 -2.064068E+06 -3.620752E+05 -5.572380E+03 -8.702384E+05 -8.850318E+03  1.230695E+04
        96  23 -2.092971E+06 -3.325956E+05 -9.888107E+03 -8.362972E+05 -1.692927E+04  1.878157E+04
        96  24 -2.064389E+06 -3.640176E+05 -1.843576E+04 -8.695333E+05 -2.495712E+04  2.509972E+04
        96  25 -2.378520E+06 -4.791019E+05 -8.504977E+04 -9.554622E+05 -2.821988E+03  1.456105E+04
        96  26 -2.561513E+06 -5.074497E+05 -1.275897E+05 -9.639734E+05 -1.100925E+04  2.099772E+04
        96  27 -2.687020E+06 -5.967223E+05 -1.744513E+05 -1.039655E+06 -1.914403E+04  2.727831E+04
        97   1 -1.293018E+06 -7.614937E+04  1.698586E+05 -6.639809E+05  3.665196E+04 -2.646262E+04
        97   2 -1.171562E+06  1.426417E+04  1.882673E+05 -5.832610E+05  6.000146E+04 -2.663681E+04
        97   3 -1.004859E+06  2.089126E+04  1.843965E+05 -5.618040E+05  8.254651E+04 -2.461564E+04
        97   4 -2.066074E+06 -3.609374E+05 -2.402165E+04 -8.708901E+05  3.023353E+04 -2.887016E+04
        97   5 -2.090332E+06 -3.312644E+05 -4.293894E+04 -8.366278E+05  5.512318E+04 -2.847233E+04
        97   6 -2.069689E+06 -3.857225E+05 -8.538646E+04 -8.616451E+05  7.920253E+04 -2.587989E+04
        97   7 -2.838546E+06 -6.456919E+05 -2.179498E+05 -1.077568E+06  2.382382E+04 -3.127455E+04
        97   8 -3.008274E+06 -6.767355E+05 -2.742128E+05 -1.089654E+06  5.025276E+04 -3.030487E+04
        97   9 -3.133406E+06 -7.922492E+05 -3.552608E+05 -1.161014E+06  7.586475E+04 -2.714171E+04
        97  10 -1.293019E+06 -7.615048E+04  1.698548E+05 -6.639801E+05 -1.470206E-09 -9.307081E-10
        97  11 -1.171566E+06  1.426244E+04  1.882592E+05 -5.832597E+05  1.901530E-09  1.325708E-09
        97  12 -1.004867E+06  2.088878E+04  1.843826E+05 -5.618024E+05  6.377580E-09  3.096872E-09
        97  13 -2.066075E+06 -3.609385E+05 -2.402493E+04 -8.708894E+05  1.264348E-10 -4.895255E-10
        97  14 -2.090335E+06 -3.312660E+05 -4.294618E+04 -8.366266E+05 -4.514820E-10  1.993565E-10
        97  15 -2.069696E+06 -3.857249E+05 -8.539953E+04 -8.616435E+05  1.010361E-09  1.367822E-09
        97  16 -2.838547E+06 -6.456931E+05 -2.179527E+05 -1.077567E+06  2.723478E-09 -2.979652E-10
        97  17 -3.008277E+06 -6.767372E+05 -2.742193E+05 -1.089652E+06 -3.344928E-09 -8.262629E-10
        97  18 -3.133413E+06 -7.922516E+05 -3.552730E+05 -1.161013E+06 -2.959240E-09 -5.248110E-10
        97  19 -1.293018E+06 -7.614937E+04  1.698586E+05 -6.639809E+05 -3.665196E+04  2.646262E+04
        97  20 -1.171562E+06  1.426417E+04  1.882673E+05 -5.832610E+05 -6.000146E+04  2.663681E+04
        97  21 -1.004859E+06  2.089126E+04  1.843965E+05 -5.618040E+05 -8.254651E+04  2.461564E+04
        97  22 -2.066074E+06 -3.609374E+05 -2.402165E+04 -8.708901E+05 -3.023353E+04  2.887016E+04
        97  23 -2.090332E+06 -3.312644E+05 -4.293894E+04 -8.366278E+05 -5.512318E+04  2.847233E+04
        97  24 -2.069689E+06 -3.857225E+05 -8.538646E+04 -8.616451E+05 -7.920253E+04  2.587989E+04
        97  25 -2.838546E+06 -6.456919E+05 -2.179498E+05 -1.077568E+06 -2.382382E+04  3.127455E+04
        97  26 -3.008274E+06 -6.767355E+05 -2.742128E+05 -1.089654E+06 -5.025276E+04  3.030487E+04
        97  27 -3.133406E+06 -7.922492E+05 -3.552608E+05 -1.161014E+06 -7.586475E+04  2.714171E+04
        98   1 -8.368749E+05  7.222000E+04  1.974719E+05 -5.895187E+05  1.131063E+05 -2.401904E+04
        98   2 -7.388536E+05  2.284813E+05  1.585469E+05 -4.301235E+05  1.830316E+05  6.331136E+02
        98   3 -7.238501E+05 -1.038363E+04 -2.547622E+04 -2.419873E+05  2.371700E+05  6.720662E+04
        98   4 -2.084108E+06 -3.476107E+05 -1.065882E+05 -8.829945E+05  9.689124E+04 -3.011527E+04
        98   5 -2.062823E+06 -3.095538E+05 -1.837243E+05 -8.361551E+05  1.967266E+05  5.765872E+03
        98   6 -2.130822E+06 -6.730796E+05 -4.299680E+05 -7.605234E+05  2.807423E+05  8.358256E+04
        98   7 -3.329810E+06 -7.674064E+05 -4.107607E+05 -1.175965E+06  8.071181E+04 -3.620118E+04
        98   8 -3.385062E+06 -8.473864E+05 -5.261405E+05 -1.241368E+06  2.103892E+05  1.088409E+04
        98   9 -3.535830E+06 -1.335315E+06 -8.346425E+05 -1.277887E+06  3.242057E+05  9.989417E+04
        98  10 -8.368888E+05  7.221595E+04  1.974468E+05 -5.895165E+05 -3.292450E-09 -8.032931E-10
        98  11 -7.388896E+05  2.284723E+05  1.584839E+05 -4.301236E+05 -1.570379E-09 -1.499054E-09
        98  12 -7.239118E+05 -1.040361E+04 -2.559057E+04 -2.420002E+05  6.225679E-10 -4.460343E-10
        98  13 -2.084119E+06 -3.476142E+05 -1.066076E+05 -8.829922E+05  2.695361E-09  1.315729E-09
        98  14 -2.062864E+06 -3.095643E+05 -1.837973E+05 -8.361560E+05  4.060618E-11  8.386524E-10
        98  15 -2.130909E+06 -6.731084E+05 -4.301298E+05 -7.605423E+05  6.570067E-10 -7.923866E-10
        98  16 -3.329817E+06 -7.674095E+05 -4.107754E+05 -1.175963E+06  7.144703E-09  2.924267E-09
        98  17 -3.385110E+06 -8.473985E+05 -5.262244E+05 -1.241370E+06  2.260501E-09  1.369066E-09
        98  18 -3.535946E+06 -1.335354E+06 -8.348602E+05 -1.277913E+06 -7.373088E-10 -3.122018E-11
        98  19 -8.368749E+05  7.222000E+04  1.974719E+05 -5.895187E+05 -1.131063E+05  2.401904E+04
        98  20 -7.388536E+05  2.284813E+05  1.585469E+05 -4.301235E+05 -1.830316E+05 -6.331136E+02
        98  21 -7.238501E+05 -1.038363E+04 -2.547622E+04 -2.419873E+05 -2.371700E+05 -6.720662E+04
        98  22 -2.084108E+06 -3.476107E+05 -1.065882E+05 -8.829945E+05 -9.689124E+04  3.011527E+04
        98  23 -2.062823E+06 -3.095538E+05 -1.837243E+05 -8.361551E+05 -1.967266E+05 -5.765872E+03
        98  24 -2.130822E+06 -6.730796E+05 -4.299680E+05 -7.605234E+05 -2.807423E+05 -8.358256E+04
        98  25 -3.329810E+06 -7.674064E+05 -4.107607E+05 -1.175965E+06 -8.071181E+04  3.620118E+04
        98  26 -3.385062E+06 -8.473864E+05 -5.261405E+05 -1.241368E+06 -2.103892E+05 -1.088409E+04
        98  27 -3.535830E+06 -1.335315E+06 -8.346425E+05 -1.277887E+06 -3.242057E+05 -9.989417E+04
        99   1 -1.423023E+06 -2.369852E+05 -2.052794E+05 -1.912439E+04  5.097667E+04  1.741084E+04
        99   2 -1.328534E+06 -3.220836E+05 -2.337301E+05 -2.407685E+04  4.593274E+04  5.383201E+04
        99   3 -1.204390E+06 -2.954228E+05 -2.307718E+05 -8.138126E+04  4.096211E+04  5.464434E+04
        99   4 -2.741588E+04  1.102299E+05  1.352175E+05 -6.428023E+04  9.270129E+04  1.749128E+04
        99   5 -4.454628E+04 -6.255802E+03  6.063412E+04 -3.800540E+04  6.030154E+04  5.384600E+04
        99   6 -2.734493E+04 -6.357131E+03  3.641002E+04 -6.407314E+04  2.797799E+04  5.462427E+04
        99   7  1.369979E+06  4.573101E+05  4.755804E+05 -1.095388E+05  1.345195E+05  1.756556E+04
        99   8  1.240971E+06  3.094580E+05  3.548907E+05 -5.196361E+04  7.469975E+04  5.385933E+04
        99   9  1.150989E+06  2.826140E+05  3.035030E+05 -4.673213E+04  1.496941E+04  5.460350E+04
        99  10 -1.423026E+06 -2.369862E+05 -2.052849E+05 -1.912511E+04 -1.981414E-10  6.131229E-10
        99  11 -1.328537E+06 -3.220873E+05 -2.337395E+05 -2.407884E+04  1.431980E-09  2.082745E-11
        99  12 -1.204392E+06 -2.954264E+05 -2.307806E+05 -8.138307E+04  7.833100E-11 -9.369998E-10
        99  13 -2.742519E+04  1.102272E+05  1.352008E+05 -6.428153E+04  1.048110E-09 -2.382498E-10
        99  14 -4.455096E+04 -6.259892E+03  6.062184E+04 -3.800801E+04 -5.477796E-10  4.773978E-10
        99  15 -2.734657E+04 -6.360546E+03  3.640294E+04 -6.407437E+04 -1.101901E-09 -9.508432E-10
        99  16  1.369959E+06  4.573049E+05  4.755458E+05 -1.095407E+05  2.667113E-10  1.189986E-09
        99  17  1.240964E+06  3.094534E+05  3.548748E+05 -5.196685E+04 -1.371031E-09  2.096302E-10
        99  18  1.150988E+06  2.826107E+05  3.034970E+05 -4.673279E+04 -4.165050E-10 -4.982227E-10
        99  19 -1.423023E+06 -2.369852E+05 -2.052794E+05 -1.912439E+04 -5.097667E+04 -1.741084E+04
        99  20 -1.328534E+06 -3.220836E+05 -2.337301E+05 -2.407685E+04 -4.593274E+04 -5.383201E+04
        99  21 -1.204390E+06 -2.954228E+05 -2.307718E+05 -8.138126E+04 -4.096211E+04 -5.464434E+04
        99  22 -2.741588E+04  1.102299E+05  1.352175E+05 -6.428023E+04 -9.270129E+04 -1.749128E+04
        99  23 -4.454628E+04 -6.255802E+03  6.063412E+04 -3.800540E+04 -6.030154E+04 -5.384600E+04
        99  24 -2.734493E+04 -6.357131E+03  3.641002E+04 -6.407314E+04 -2.797799E+04 -5.462427E+04
        99  25  1.369979E+06  4.573101E+05  4.755804E+05 -1.095388E+05 -1.345195E+05 -1.756556E+04
        99  26  1.240971E+06  3.094580E+05  3.548907E+05 -5.196361E+04 -7.469975E+04 -5.385933E+04
        99  27  1.150989E+06  2.826140E+05  3.035030E+05 -4.673213E+04 -1.496941E+04 -5.460350E+04
       100   1 -1.111242E+06 -2.574078E+05 -2.165450E+05 -6.246277E+04  2.476621E+04  4.744237E+04
       100   2 -1.003966E+06 -2.385471E+05 -2.047667E+05 -3.733268E+04  1.824364E+04  4.381718E+04
       100   3 -8.932790E+05 -2.116288E+05 -1.866024E+05 -6.576303E+04  1.171368E+04  3.852022E+04
       100   4 -3.411612E+04  7.311739E+03  2.920620E+04 -6.440040E+04  2.265747E+04  4.743478E+04
       100   5 -3.589644E+04 -7.596606E+02  1.549540E+04 -3.762069E+04  1.484035E+04  4.381083E+04
       100   6 -3.405892E+04 -5.556955E+02  9.061467E+03 -6.439595E+04  7.016968E+03  3.851631E+04
       100   7  1.044087E+06  2.719508E+05  2.748817E+05 -6.634159E+04  2.054508E+04  4.742722E+04
       100   8  9.330436E+05  2.369630E+05  2.356967E+05 -3.790922E+04  1.143179E+04  4.380450E+04
       100   9  8.258467E+05  2.104663E+05  2.046774E+05 -6.302693E+04  2.313798E+03  3.851238E+04
       100  10 -1.111243E+06 -2.574104E+05 -2.165504E+05 -6.246371E+04 -3.157239E-09 -6.737606E-10
       100  11 -1.003967E+06 -2.385493E+05 -2.047709E+05 -3.733332E+04 -2.688098E-09  7.661299E-10
       100  12 -8.932795E+05 -2.116304E+05 -1.866055E+05 -6.576339E+04 -3.116824E-10 -5.801188E-10
       100  13 -3.411727E+04  7.309185E+03  2.920100E+04 -6.440127E+04 -2.148275E-09 -1.228745E-09
       100  14 -3.589719E+04 -7.617808E+02  1.549138E+04 -3.762121E+04 -1.629684E-09  5.755228E-10
       100  15 -3.405937E+04 -5.573017E+02  9.058586E+03 -6.439617E+04 -1.751783E-09 -1.278223E-10
       100  16  1.044086E+06  2.719483E+05  2.748767E+05 -6.634238E+04  1.009593E-09 -7.309755E-10
       100  17  9.330429E+05  2.369609E+05  2.356928E+05 -3.790962E+04  2.310603E-09 -4.871735E-10
       100  18  8.258463E+05  2.104647E+05  2.046746E+05 -6.302700E+04  2.715921E-11 -2.671681E-11
       100  19 -1.111242E+06 -2.574078E+05 -2.165450E+05 -6.246277E+04 -2.476621E+04 -4.744237E+04
       100  20 -1.003966E+06 -2.385471E+05 -2.047667E+05 -3.733268E+04 -1.824364E+04 -4.381718E+04
       100  21 -8.932790E+05 -2.116288E+05 -1.866024E+05 -6.576303E+04 -1.171368E+04 -3.852022E+04
       100  22 -3.411612E+04  7.311739E+03  2.920620E+04 -6.440040E+04 -2.265747E+04 -4.743478E+04
       100  23 -3.589644E+04 -7.596606E+02  1.549540E+04 -3.762069E+04 -1.484035E+04 -4.381083E+04
       100  24 -3.405892E+04 -5.556955E+02  9.061467E+03 -6.439595E+04 -7.016968E+03 -3.851631E+04
       100  25  1.044087E+06  2.719508E+05  2.748817E+05 -6.634159E+04 -2.054508E+04 -4.742722E+04
       100  26  9.330436E+05  2.369630E+05  2.356967E+05 -3.790922E+04 -1.143179E+04 -4.380450E+04
       100  27  8.258467E+05  2.104663E+05  2.046774E+05 -6.302693E+04 -2.313798E+03 -3.851238E+04
       101   1 -7.944248E+05 -1.861434E+05 -1.655079E+05 -6.435381E+04  9.792343E+03  3.507841E+04
       101   2 -6.856654E+05 -1.599156E+05 -1.440217E+05 -3.749969E+04  7.901718E+03  2.957572E+04
       101   3 -5.763222E+05 -1.330588E+05 -1.211087E+05 -6.428199E+04  6.005344E+03  2.399405E+04
       101   4 -3.469465E+04  3.757796E+02  6.978606E+03 -6.441438E+04  5.604948E+03  3.507599E+04
       101   5 -3.496672E+04 -1.284150E+02  3.933561E+03 -3.759797E+04  3.651219E+03  2.957516E+04
       101   6 -3.465586E+04  7.534920E+00  2.358199E+03 -6.441454E+04  1.692068E+03  2.399544E+04
       101   7  7.255718E+05  1.868551E+05  1.794278E+05 -6.447499E+04  1.412468E+03  3.507358E+04
       101   8  6.161252E+05  1.596295E+05  1.518614E+05 -3.769631E+04 -6.037000E+02  2.957461E+04
       101   9  5.072828E+05  1.330536E+05  1.258061E+05 -6.454715E+04 -2.624941E+03  2.399683E+04
       101  10 -7.944252E+05 -1.861447E+05 -1.655104E+05 -6.435408E+04 -3.692498E-09 -5.892753E-10
       101  11 -6.856657E+05 -1.599165E+05 -1.440234E+05 -3.749988E+04 -7.481836E-10  5.302889E-10
       101  12 -5.763224E+05 -1.330595E+05 -1.211099E+05 -6.428211E+04 -1.974946E-10 -6.042700E-10
       101  13 -3.469502E+04  3.744501E+02  6.976235E+03 -6.441454E+04 -3.230894E-09 -1.439534E-10
       101  14 -3.496697E+04 -1.293579E+02  3.931892E+03 -3.759806E+04 -2.145136E-09  1.151196E-09
       101  15 -3.465602E+04  6.915868E+00  2.357112E+03 -6.441457E+04  6.966150E-10  2.911882E-10
       101  16  7.255715E+05  1.868538E+05  1.794255E+05 -6.447503E+04  2.045607E-09  2.697825E-10
       101  17  6.161249E+05  1.596285E+05  1.518597E+05 -3.769630E+04 -1.546319E-10  2.831943E-10
       101  18  5.072827E+05  1.330530E+05  1.258050E+05 -6.454710E+04  5.671256E-11 -4.015302E-10
       101  19 -7.944248E+05 -1.861434E+05 -1.655079E+05 -6.435381E+04 -9.792343E+03 -3.507841E+04
       101  20 -6.856654E+05 -1.599156E+05 -1.440217E+05 -3.749969E+04 -7.901718E+03 -2.957572E+04
       101  21 -5.763222E+05 -1.330588E+05 -1.211087E+05 -6.428199E+04 -6.005344E+03 -2.399405E+04
       101  22 -3.469465E+04  3.757796E+02  6.978606E+03 -6.441438E+04 -5.604948E+03 -3.507599E+04
       101  23 -3.496672E+04 -1.284150E+02  3.933561E+03 -3.759797E+04 -3.651219E+03 -2.957516E+04
       101  24 -3.465586E+04  7.534920E+00  2.358199E+03 -6.441454E+04 -1.692068E+03 -2.399544E+04
       101  25  7.255718E+05  1.868551E+05  1.794278E+05 -6.447499E+04 -1.412468E+03 -3.507358E+04
       101  26  6.161252E+05  1.596295E+05  1.518614E+05 -3.769631E+04  6.037000E+02 -2.957461E+04
       101  27  5.072828E+05  1.330536E+05  1.258061E+05 -6.454715E+04  2.624941E+03 -2.399683E+04
       102   1 -4.768816E+05 -1.084302E+05 -9.835553E+04 -6.421783E+04  5.600959E+03  2.072829E+04
       102   2 -3.678049E+05 -8.173790E+04 -7.449733E+04 -3.740739E+04  5.002505E+03  1.513655E+04
       102   3 -2.586610E+05 -5.491963E+04 -5.023104E+04 -6.424863E+04  4.401172E+03  9.540834E+03
       102   4 -3.474896E+04  6.366033E+01  1.845017E+03 -6.441825E+04  1.310617E+03  2.073058E+04
       102   5 -3.476810E+04  2.735609E+01  1.211296E+03 -3.759328E+04  7.084226E+02  1.513979E+04
       102   6 -3.472907E+04  1.187617E+02  9.889572E+02 -6.441823E+04  1.034522E+02  9.545061E+03
       102   7  4.075654E+05  1.085441E+05  1.020330E+05 -6.461878E+04 -2.982754E+03  2.073286E+04
       102   8  2.983717E+05  8.178495E+04  7.691280E+04 -3.777926E+04 -3.587943E+03  1.514302E+04
       102   9  1.892494E+05  5.515367E+04  5.220574E+04 -6.458788E+04 -4.195805E+03  9.549290E+03
       102  10 -4.768818E+05 -1.084307E+05 -9.835640E+04 -6.421792E+04  2.950415E-11 -4.441800E-10
       102  11 -3.678050E+05 -8.173815E+04 -7.449781E+04 -3.740745E+04 -1.457923E-09  3.762364E-10
       102  12 -2.586610E+05 -5.491973E+04 -5.023125E+04 -6.424866E+04  8.105697E-10  5.869005E-11
       102  13 -3.474908E+04  6.319839E+01  1.844207E+03 -6.441828E+04 -1.085839E-09 -1.070707E-09
       102  14 -3.476816E+04  2.710982E+01  1.210864E+03 -3.759329E+04 -1.069933E-09  1.861334E-10
       102  15 -3.472909E+04  1.186639E+02  9.887859E+02 -6.441823E+04  5.499807E-10 -3.614642E-10
       102  16  4.075653E+05  1.085436E+05  1.020322E+05 -6.461873E+04  1.050313E-09 -2.135635E-10
       102  17  2.983716E+05  8.178470E+04  7.691235E+04 -3.777921E+04  1.441437E-09 -1.686681E-10
       102  18  1.892493E+05  5.515357E+04  5.220553E+04 -6.458785E+04  4.650224E-10 -4.516541E-10
       102  19 -4.768816E+05 -1.084302E+05 -9.835553E+04 -6.421783E+04 -5.600959E+03 -2.072829E+04
       102  20 -3.678049E+05 -8.173790E+04 -7.449733E+04 -3.740739E+04 -5.002505E+03 -1.513655E+04
       102  21 -2.586610E+05 -5.491963E+04 -5.023104E+04 -6.424863E+04 -4.401172E+03 -9.540834E+03
       102  22 -3.474896E+04  6.366033E+01  1.845017E+03 -6.441825E+04 -1.310617E+03 -2.073058E+04
       102  23 -3.476810E+04  2.735609E+01  1.211296E+03 -3.759328E+04 -7.084226E+02 -1.513979E+04
       102  24 -3.472907E+04  1.187617E+02  9.889572E+02 -6.441823E+04 -1.034522E+02 -9.545061E+03
       102  25  4.075654E+05  1.085441E+05  1.020330E+05 -6.461878E+04  2.982754E+03 -2.073286E+04
       102  26  2.983717E+05  8.178495E+04  7.691280E+04 -3.777926E+04  3.587943E+03 -1.514302E+04
       102  27  1.892494E+05  5.515367E+04  5.220574E+04 -6.458788E+04  4.195805E+03 -9.549290E+03
       103   1 -1.590826E+05 -3.034298E+04 -2.696079E+04 -6.432030E+04  4.218394E+03  6.282912E+03
       103   2 -4.993600E+04 -3.669197E+03 -2.237418E+03 -3.755552E+04  3.608558E+03  6.877576E+02
       103   3  5.920728E+04  2.314392E+04  2.288687E+04 -6.445037E+04  2.998483E+03 -4.904743E+03
       103   4 -3.473730E+04  1.182790E+02  9.853308E+02 -6.442038E+04 -7.956074E+01  6.287462E+03
       103   5 -3.472866E+04  6.373753E+01  1.218794E+03 -3.759059E+04 -6.877575E+02  6.923281E+02
       103   6 -3.473638E+04  1.485946E+02  1.852128E+03 -6.442034E+04 -1.296088E+03 -4.900108E+03
       103   7  8.962244E+04  3.057849E+04  2.893053E+04 -6.452048E+04 -4.378368E+03  6.292014E+03
       103   8 -1.952106E+04  3.796666E+03  4.675060E+03 -3.762566E+04 -4.984177E+03  6.968989E+02
       103   9 -1.286718E+05 -2.284732E+04 -1.918311E+04 -6.439031E+04 -5.590017E+03 -4.895473E+03
       103  10 -1.590826E+05 -3.034302E+04 -2.696089E+04 -6.432032E+04 -2.564332E-10  9.468383E-10
       103  11 -4.993602E+04 -3.669201E+03 -2.237443E+03 -3.755552E+04 -6.247347E-10  2.056195E-09
       103  12  5.920726E+04  2.314389E+04  2.288681E+04 -6.445035E+04 -4.259312E-09 -1.677145E-09
       103  13 -3.473731E+04  1.182365E+02  9.852565E+02 -6.442038E+04 -3.135427E-13  2.293895E-10
       103  14 -3.472866E+04  6.373689E+01  1.218792E+03 -3.759059E+04  5.292684E-10 -1.295523E-10
       103  15 -3.473639E+04  1.485684E+02  1.852080E+03 -6.442034E+04  4.307975E-10 -8.219342E-10
       103  16  8.962241E+04  3.057844E+04  2.893042E+04 -6.452045E+04  2.599975E-10  4.067777E-10
       103  17 -1.952108E+04  3.796659E+03  4.675013E+03 -3.762565E+04  3.276158E-09 -7.181691E-11
       103  18 -1.286718E+05 -2.284735E+04 -1.918321E+04 -6.439033E+04  3.401717E-09 -8.955269E-10
       103  19 -1.590826E+05 -3.034298E+04 -2.696079E+04 -6.432030E+04 -4.218394E+03 -6.282912E+03
       103  20 -4.993600E+04 -3.669197E+03 -2.237418E+03 -3.755552E+04 -3.608558E+03 -6.877576E+02
       103  21  5.920728E+04  2.314392E+04  2.288687E+04 -6.445037E+04 -2.998483E+03  4.904743E+03
       103  22 -3.473730E+04  1.182790E+02  9.853308E+02 -6.442038E+04  7.956074E+01 -6.287462E+03
       103  23 -3.472866E+04  6.373753E+01  1.218794E+03 -3.759059E+04  6.877575E+02 -6.923281E+02
       103  24 -3.473638E+04  1.485946E+02  1.852128E+03 -6.442034E+04  1.296088E+03  4.900108E+03
       103  25  8.962244E+04  3.057849E+04  2.893053E+04 -6.452048E+04  4.378368E+03 -6.292014E+03
       103  26 -1.952106E+04  3.796666E+03  4.675060E+03 -3.762566E+04  4.984177E+03 -6.968989E+02
       103  27 -1.286718E+05 -2.284732E+04 -1.918311E+04 -6.439031E+04  5.590017E+03  4.895473E+03
       104   1  1.589002E+05  4.766093E+04  4.666253E+04 -6.443826E+04  2.633406E+03 -8.167811E+03
       104   2  2.678686E+05  7.427408E+04  7.275416E+04 -3.772566E+04  6.126612E+02 -1.375055E+04
       104   3  3.772158E+05  1.015702E+05  1.003139E+05 -6.466378E+04 -1.405871E+03 -1.927336E+04
       104   4 -3.465964E+04  9.141376E+01  2.358947E+03 -6.441888E+04 -1.679449E+03 -8.163423E+03
       104   5 -3.484860E+04 -1.939892E+01  3.960885E+03 -3.759249E+04 -3.653601E+03 -1.374711E+04
       104   6 -3.467766E+04  5.457452E+02  6.999758E+03 -6.441841E+04 -5.625194E+03 -1.927080E+04
       104   7 -2.281847E+05 -4.748070E+04 -4.194702E+04 -6.439950E+04 -5.990970E+03 -8.159036E+03
       104   8 -3.374808E+05 -7.431920E+04 -6.483826E+04 -3.745936E+04 -7.917803E+03 -1.374367E+04
       104   9 -4.464136E+05 -1.004904E+05 -8.632526E+04 -6.417317E+04 -9.841745E+03 -1.926825E+04
       104  10  1.589002E+05  4.766085E+04  4.666239E+04 -6.443824E+04  5.140036E-09 -2.069808E-09
       104  11  2.678686E+05  7.427388E+04  7.275380E+04 -3.772565E+04  3.741222E-09 -7.222451E-11
       104  12  3.772157E+05  1.015698E+05  1.003132E+05 -6.466380E+04 -1.465273E-09 -3.430582E-11
       104  13 -3.465966E+04  9.134144E+01  2.358816E+03 -6.441889E+04  1.090116E-09 -9.362726E-10
       104  14 -3.484867E+04 -1.960544E+01  3.960504E+03 -3.759253E+04  5.319168E-10 -4.330265E-10
       104  15 -3.467779E+04  5.453379E+02  6.999001E+03 -6.441850E+04 -1.071712E-09  1.089638E-10
       104  16 -2.281848E+05 -4.748078E+04 -4.194722E+04 -6.439954E+04 -5.569811E-09 -8.630125E-10
       104  17 -3.374809E+05 -7.431942E+04 -6.483873E+04 -3.745945E+04 -1.725234E-09  1.163858E-09
       104  18 -4.464138E+05 -1.004909E+05 -8.632614E+04 -6.417332E+04  1.632788E-09  1.166942E-09
       104  19  1.589002E+05  4.766093E+04  4.666253E+04 -6.443826E+04 -2.633406E+03  8.167811E+03
       104  20  2.678686E+05  7.427408E+04  7.275416E+04 -3.772566E+04 -6.126612E+02  1.375055E+04
       104  21  3.772158E+05  1.015702E+05  1.003139E+05 -6.466378E+04  1.405871E+03  1.927336E+04
       104  22 -3.465964E+04  9.141376E+01  2.358947E+03 -6.441888E+04  1.679449E+03  8.163423E+03
       104  23 -3.484860E+04 -1.939892E+01  3.960885E+03 -3.759249E+04  3.653601E+03  1.374711E+04
       104  24 -3.467766E+04  5.457452E+02  6.999758E+03 -6.441841E+04  5.625194E+03  1.927080E+04
       104  25 -2.281847E+05 -4.748070E+04 -4.194702E+04 -6.439950E+04  5.990970E+03  8.159036E+03
       104  26 -3.374808E+05 -7.431920E+04 -6.483826E+04 -3.745936E+04  7.917803E+03  1.374367E+04
       104  27 -4.464136E+05 -1.004904E+05 -8.632526E+04 -6.417317E+04  9.841745E+03  1.926825E+04
       105   1  4.774847E+05  1.251935E+05  1.255954E+05 -6.333522E+04 -2.435867E+03 -2.266879E+04
       105   2  5.849250E+05  1.517231E+05  1.566542E+05 -3.844405E+04 -1.128090E+04 -2.802917E+04
       105   3  6.957922E+05  1.867638E+05  1.956225E+05 -6.714341E+04 -2.012226E+04 -3.212088E+04
       105   4 -3.405719E+04 -3.882177E+02  9.080809E+03 -6.440650E+04 -7.043199E+03 -2.266682E+04
       105   5 -3.570116E+04 -5.789264E+02  1.556791E+04 -3.760824E+04 -1.490622E+04 -2.802954E+04
       105   6 -3.409373E+04  7.577512E+03  2.928956E+04 -6.440352E+04 -2.276405E+04 -3.212302E+04
       105   7 -5.453564E+05 -1.259880E+05 -1.074507E+05 -6.547683E+04 -1.164677E+04 -2.266482E+04
       105   8 -6.559700E+05 -1.529075E+05 -1.255433E+05 -3.677323E+04 -1.852794E+04 -2.802992E+04
       105   9 -7.634859E+05 -1.716457E+05 -1.370780E+05 -6.166683E+04 -2.540275E+04 -3.212520E+04
       105  10  4.774846E+05  1.251929E+05  1.255944E+05 -6.333527E+04 -3.349626E-10  1.617849E-10
       105  11  5.849246E+05  1.517222E+05  1.566525E+05 -3.844430E+04  2.079086E-09 -1.720722E-10
       105  12  6.957915E+05  1.867626E+05  1.956198E+05 -6.714393E+04 -2.271210E-09  5.552054E-10
       105  13 -3.405738E+04 -3.887828E+02  9.079750E+03 -6.440663E+04  1.392554E-11  5.098930E-10
       105  14 -3.570161E+04 -5.798298E+02  1.556602E+04 -3.760858E+04  1.402980E-11  3.735507E-10
       105  15 -3.409456E+04  7.576265E+03  2.928665E+04 -6.440411E+04  1.386650E-10  4.718101E-10
       105  16 -5.453567E+05 -1.259886E+05 -1.074519E+05 -6.547704E+04 -3.042819E-10  8.142367E-10
       105  17 -6.559706E+05 -1.529084E+05 -1.255455E+05 -3.677364E+04  3.416733E-10 -3.664461E-10
       105  18 -7.634869E+05 -1.716470E+05 -1.370812E+05 -6.166749E+04  1.189064E-09  2.714477E-10
       105  19  4.774847E+05  1.251935E+05  1.255954E+05 -6.333522E+04  2.435867E+03  2.266879E+04
       105  20  5.849250E+05  1.517231E+05  1.566542E+05 -3.844405E+04  1.128090E+04  2.802917E+04
       105  21  6.957922E+05  1.867638E+05  1.956225E+05 -6.714341E+04  2.012226E+04  3.212088E+04
       105  22 -3.405719E+04 -3.882177E+02  9.080809E+03 -6.440650E+04  7.043199E+03  2.266682E+04
       105  23 -3.570116E+04 -5.789264E+02  1.556791E+04 -3.760824E+04  1.490622E+04  2.802954E+04
       105  24 -3.409373E+04  7.577512E+03  2.928956E+04 -6.440352E+04  2.276405E+04  3.212302E+04
       105  25 -5.453564E+05 -1.259880E+05 -1.074507E+05 -6.547683E+04  1.164677E+04  2.266482E+04
       105  26 -6.559700E+05 -1.529075E+05 -1.255433E+05 -3.677323E+04  1.852794E+04  2.802992E+04
       105  27 -7.634859E+05 -1.716457E+05 -1.370780E+05 -6.166683E+04  2.540275E+04  3.212520E+04
       106   1  8.026279E+05  1.974392E+05  2.247144E+05 -4.777710E+04 -1.719133E+04 -3.835976E+04
       106   2  8.933055E+05  2.243466E+05  2.755896E+05 -5.318577E+04 -7.043657E+04 -3.909021E+04
       106   3  1.021428E+06  3.714286E+05  3.912409E+05 -1.112077E+05 -1.237126E+05 -1.281794E+04
       106   4 -2.732546E+04 -6.115598E+03  3.650777E+04 -6.417274E+04 -2.810455E+04 -3.836246E+04
       106   5 -4.428964E+04 -6.011401E+03  6.085347E+04 -3.789609E+04 -6.054536E+04 -3.909263E+04
       106   6 -2.737664E+04  1.107523E+05  1.355906E+05 -6.423011E+04 -9.300570E+04 -1.280731E+04
       106   7 -8.566389E+05 -2.097168E+05 -1.517428E+05 -8.054623E+04 -3.900330E+04 -3.836459E+04
       106   8 -9.810704E+05 -2.364296E+05 -1.539399E+05 -2.262972E+04 -5.066889E+04 -3.909456E+04
       106   9 -1.075172E+06 -1.499962E+05 -1.201350E+05 -1.733211E+04 -6.235039E+04 -1.279203E+04
       106  10  8.026272E+05  1.974375E+05  2.247111E+05 -4.777763E+04  1.327616E-09  3.576430E-10
       106  11  8.932997E+05  2.243436E+05  2.755774E+05 -5.318798E+04  9.177226E-10 -5.297006E-10
       106  12  1.021412E+06  3.714243E+05  3.912119E+05 -1.112090E+05  1.666694E-10 -4.569194E-10
       106  13 -2.732670E+04 -6.117390E+03  3.650352E+04 -6.417360E+04 -2.429481E-11  2.770549E-10
       106  14 -4.429399E+04 -6.014026E+03  6.084371E+04 -3.789800E+04 -5.682758E-10 -2.259897E-10
       106  15 -2.738597E+04  1.107498E+05  1.355740E+05 -6.423107E+04  1.363420E-10 -5.134278E-10
       106  16 -8.566410E+05 -2.097188E+05 -1.517484E+05 -8.054744E+04 -8.614379E-10  1.084009E-10
       106  17 -9.810736E+05 -2.364319E+05 -1.539476E+05 -2.263132E+04 -6.960955E-10 -1.083198E-09
       106  18 -1.075176E+06 -1.499974E+05 -1.201426E+05 -1.733275E+04 -2.020185E-11 -7.584014E-10
       106  19  8.026279E+05  1.974392E+05  2.247144E+05 -4.777710E+04  1.719133E+04  3.835976E+04
       106  20  8.933055E+05  2.243466E+05  2.755896E+05 -5.318577E+04  7.043657E+04  3.909021E+04
       106  21  1.021428E+06  3.714286E+05  3.912409E+05 -1.112077E+05  1.237126E+05  1.281794E+04
       106  22 -2.732546E+04 -6.115598E+03  3.650777E+04 -6.417274E+04  2.810455E+04  3.836246E+04
       106  23 -4.428964E+04 -6.011401E+03  6.085347E+04 -3.789609E+04  6.054536E+04  3.909263E+04
       106  24 -2.737664E+04  1.107523E+05  1.355906E+05 -6.423011E+04  9.300570E+04  1.280731E+04
       106  25 -8.566389E+05 -2.097168E+05 -1.517428E+05 -8.054623E+04  3.900330E+04  3.836459E+04
       106  26 -9.810704E+05 -2.364296E+05 -1.539399E+05 -2.262972E+04  5.066889E+04  3.909456E+04
       106  27 -1.075172E+06 -1.499962E+05 -1.201350E+05 -1.733211E+04  6.235039E+04  1.279203E+04
       107   1  4.402692E+05  1.283469E+06  4.456620E+05 -3.998145E+05  1.188364E+04  1.806417E+05
       107   2  2.347907E+05  9.579894E+05  2.553813E+05 -3.117498E+05  3.611229E+04  8.905932E+04
       107   3  1.317585E+05  6.697352E+05  1.502092E+05 -2.934965E+05  3.126822E+04 -2.544447E+03
       107   4  1.559335E+05  1.372926E+05  1.724441E+05 -3.016224E+05  1.209542E+04  1.176396E+05
       107   5  3.356246E+04  1.229013E+05  8.535290E+04 -2.669454E+05  3.616892E+04  7.363579E+04
       107   6  5.469331E+03  1.374663E+05  5.043708E+04 -3.020581E+05  3.116747E+04  2.956255E+04
       107   7 -1.284596E+05 -1.007652E+06 -1.008463E+05 -2.036111E+05  1.228753E+04  5.475303E+04
       107   8 -1.677019E+05 -7.115197E+05 -8.471026E+04 -2.222018E+05  3.622338E+04  5.823256E+04
       107   9 -1.208354E+05 -3.945264E+05 -4.934339E+04 -3.106119E+05  3.106579E+04  6.164273E+04
       107  10  4.402603E+05  1.283434E+06  4.456005E+05 -3.998162E+05 -7.683603E-10 -2.681053E-10
       107  11  2.347871E+05  9.579805E+05  2.553640E+05 -3.117524E+05 -1.773542E-09  4.830967E-10
       107  12  1.317575E+05  6.697349E+05  1.502074E+05 -2.934964E+05 -1.000190E-09 -3.608086E-10
       107  13  1.559296E+05  1.372777E+05  1.724178E+05 -3.016236E+05 -4.453415E-10 -1.385294E-09
       107  14  3.355960E+04  1.228951E+05  8.534025E+04 -2.669476E+05 -1.904991E-09 -2.919281E-11
       107  15  5.468052E+03  1.374651E+05  5.043361E+04 -3.020588E+05  1.149444E-09 -1.601743E-09
       107  16 -1.284606E+05 -1.007656E+06 -1.008523E+05 -2.036116E+05 -2.314929E-10 -1.552827E-10
       107  17 -1.677042E+05 -7.115237E+05 -8.471911E+04 -2.222035E+05  3.005846E-10 -9.271323E-11
       107  18 -1.208375E+05 -3.945307E+05 -4.935235E+04 -3.106134E+05 -1.343323E-10 -7.967547E-10
       107  19  4.402692E+05  1.283469E+06  4.456620E+05 -3.998145E+05 -1.188364E+04 -1.806417E+05
       107  20  2.347907E+05  9.579894E+05  2.553813E+05 -3.117498E+05 -3.611229E+04 -8.905932E+04
       107  21  1.317585E+05  6.697352E+05  1.502092E+05 -2.934965E+05 -3.126822E+04  2.544447E+03
       107  22  1.559335E+05  1.372926E+05  1.724441E+05 -3.016224E+05 -1.209542E+04 -1.176396E+05
       107  23  3.356246E+04  1.229013E+05  8.535290E+04 -2.669454E+05 -3.616892E+04 -7.363579E+04
       107  24  5.469331E+03  1.374663E+05  5.043708E+04 -3.020581E+05 -3.116747E+04 -2.956255E+04
       107  25 -1.284596E+05 -1.007652E+06 -1.008463E+05 -2.036111E+05 -1.228753E+04 -5.475303E+04
       107  26 -1.677019E+05 -7.115197E+05 -8.471026E+04 -2.222018E+05 -3.622338E+04 -5.823256E+04
       107  27 -1.208354E+05 -3.945264E+05 -4.934339E+04 -3.106119E+05 -3.106579E+04 -6.164273E+04
       108   1  8.666300E+04  4.611252E+05  1.031048E+05 -3.064570E+05  1.921337E+04 -6.110273E+03
       108   2  8.355073E+03  1.525331E+05  3.439971E+04 -2.669119E+05  1.634569E+03 -2.150613E+04
       108   3 -6.194869E+04 -1.524432E+05 -2.242027E+04 -2.989974E+05 -1.603521E+04 -3.689529E+04
       108   4  8.420859E+03  1.318418E+05  4.120323E+04 -3.024077E+05  1.912070E+04  2.259217E+04
       108   5  3.076466E+03  1.300938E+05  3.045268E+04 -2.665976E+05  1.541303E+03  7.343212E+03
       108   6  5.716491E+03  1.318465E+05  3.148944E+04 -3.024165E+05 -1.612911E+04 -7.906225E+03
       108   7 -6.982708E+04 -1.973350E+05 -2.070001E+04 -2.983606E+05  1.902838E+04  5.127977E+04
       108   8 -2.201722E+03  1.076567E+05  2.650875E+04 -2.662834E+05  1.448065E+03  3.619154E+04
       108   9  7.337743E+04  4.162160E+05  8.539872E+04 -3.058370E+05 -1.622329E+04  2.109580E+04
       108  10  8.666259E+04  4.611251E+05  1.031041E+05 -3.064569E+05 -9.016820E-10 -9.768475E-11
       108  11  8.354946E+03  1.525326E+05  3.439883E+04 -2.669119E+05 -1.502948E-09  5.489070E-10
       108  12 -6.194934E+04 -1.524447E+05 -2.242331E+04 -2.989979E+05 -6.275671E-10 -1.013330E-09
       108  13  8.420329E+03  1.318412E+05  4.120159E+04 -3.024081E+05  1.799883E-09 -1.389549E-09
       108  14  3.076449E+03  1.300937E+05  3.045257E+04 -2.665976E+05 -4.207454E-10 -1.088395E-10
       108  15  5.716195E+03  1.318464E+05  3.148884E+04 -3.024166E+05  1.598120E-09 -1.533059E-09
       108  16 -6.982817E+04 -1.973379E+05 -2.070563E+04 -2.983614E+05 -1.374111E-09 -3.790467E-10
       108  17 -2.202076E+03  1.076553E+05  2.650629E+04 -2.662834E+05  6.196014E-10  3.830443E-11
       108  18  7.337703E+04  4.162155E+05  8.539739E+04 -3.058368E+05  1.342197E-10  7.224320E-11
       108  19  8.666300E+04  4.611252E+05  1.031048E+05 -3.064570E+05 -1.921337E+04  6.110273E+03
       108  20  8.355073E+03  1.525331E+05  3.439971E+04 -2.669119E+05 -1.634569E+03  2.150613E+04
       108  21 -6.194869E+04 -1.524432E+05 -2.242027E+04 -2.989974E+05  1.603521E+04  3.689529E+04
       108  22  8.420859E+03  1.318418E+05  4.120323E+04 -3.024077E+05 -1.912070E+04 -2.259217E+04
       108  23  3.076466E+03  1.300938E+05  3.045268E+04 -2.665976E+05 -1.541303E+03 -7.343212E+03
       108  24  5.716491E+03  1.318465E+05  3.148944E+04 -3.024165E+05  1.612911E+04  7.906225E+03
       108  25 -6.982708E+04 -1.973350E+05 -2.070001E+04 -2.983606E+05 -1.902838E+04 -5.127977E+04
       108  26 -2.201722E+03  1.076567E+05  2.650875E+04 -2.662834E+05 -1.448065E+03 -3.619154E+04
       108  27  7.337743E+04  4.162160E+05  8.539872E+04 -3.058370E+05  1.622329E+04 -2.109580E+04
       109   1 -1.116792E+05 -3.521160E+05 -5.648070E+04 -3.065135E+05 -2.812133E+04 -4.537366E+04
       109   2 -1.697477E+05 -6.636441E+05 -1.077602E+05 -2.391268E+05 -3.394015E+04 -2.727753E+04
       109   3 -1.786609E+05 -9.654938E+05 -1.586249E+05 -2.416790E+05 -1.172193E+04 -9.122394E+03
       109   4  4.052672E+03  1.349280E+05  3.525041E+04 -3.020700E+05 -2.822380E+04 -1.313107E+04
       109   5  2.072137E+04  1.260972E+05  5.362458E+04 -2.669793E+05 -3.389448E+04 -4.077684E+04
       109   6  9.445091E+04  1.347662E+05  1.041678E+05 -3.018069E+05 -1.154633E+04 -6.835501E+04
       109   7  1.197714E+05  6.222035E+05  1.269751E+05 -2.976228E+05 -2.832575E+04  1.913621E+04
       109   8  2.111542E+05  9.164335E+05  2.149775E+05 -2.948674E+05 -3.384764E+04 -5.429299E+04
       109   9  3.674901E+05  1.236152E+06  3.668903E+05 -3.620410E+05 -1.135942E+04 -1.276922E+05
       109  10 -1.116806E+05 -3.521184E+05 -5.648606E+04 -3.065146E+05 -1.210843E-09  7.524191E-10
       109  11 -1.697491E+05 -6.636453E+05 -1.077638E+05 -2.391276E+05 -5.049576E-10  1.332408E-09
       109  12 -1.786611E+05 -9.654939E+05 -1.586253E+05 -2.416791E+05 -6.027312E-10 -2.440601E-10
       109  13  4.051770E+03  1.349276E+05  3.524858E+04 -3.020703E+05 -1.236817E-09 -1.346369E-09
       109  14  2.071969E+04  1.260951E+05  5.361930E+04 -2.669804E+05 -9.481609E-10  7.694685E-11
       109  15  9.444951E+04  1.347611E+05  1.041588E+05 -3.018076E+05 -1.276678E-09 -1.525715E-09
       109  16  1.197704E+05  6.222028E+05  1.269729E+05 -2.976223E+05 -1.207841E-09 -1.045857E-09
       109  17  2.111522E+05  9.164300E+05  2.149698E+05 -2.948689E+05 -8.333090E-11 -6.815665E-10
       109  18  3.674856E+05  1.236134E+06  3.668595E+05 -3.620421E+05  7.116971E-10 -6.441034E-10
       109  19 -1.116792E+05 -3.521160E+05 -5.648070E+04 -3.065135E+05  2.812133E+04  4.537366E+04
       109  20 -1.697477E+05 -6.636441E+05 -1.077602E+05 -2.391268E+05  3.394015E+04  2.727753E+04
       109  21 -1.786609E+05 -9.654938E+05 -1.586249E+05 -2.416790E+05  1.172193E+04  9.122394E+03
       109  22  4.052672E+03  1.349280E+05  3.525041E+04 -3.020700E+05  2.822380E+04  1.313107E+04
       109  23  2.072137E+04  1.260972E+05  5.362458E+04 -2.669793E+05  3.389448E+04  4.077684E+04
       109  24  9.445091E+04  1.347662E+05  1.041678E+05 -3.018069E+05  1.154633E+04  6.835501E+04
       109  25  1.197714E+05  6.222035E+05  1.269751E+05 -2.976228E+05  2.832575E+04 -1.913621E+04
       109  26  2.111542E+05  9.164335E+05  2.149775E+05 -2.948674E+05  3.384764E+04  5.429299E+04
       109  27  3.674901E+05  1.236152E+06  3.668903E+05 -3.620410E+05  1.135942E+04  1.276922E+05
       110   1 -3.379208E+06 -1.175588E+06 -7.117051E+05 -1.220064E+06 -2.984808E+05 -9.558337E+04
       110   2 -3.279003E+06 -7.428040E+05 -4.370527E+05 -1.211066E+06 -1.938390E+05 -2.052418E+04
       110   3 -3.288597E+06 -6.767488E+05 -3.410610E+05 -1.152044E+06 -7.743260E+04  2.342826E+04
       110   4 -2.345624E+06 -6.603432E+05 -4.086267E+05 -8.107483E+05 -2.653366E+05 -8.315040E+04
       110   5 -2.270834E+06 -3.247414E+05 -1.745435E+05 -8.939294E+05 -1.828265E+05 -1.639492E+04
       110   6 -2.301224E+06 -3.511567E+05 -1.013038E+05 -9.271503E+05 -8.857126E+04  1.923594E+04
       110   7 -1.310957E+06 -1.447748E+05 -1.056461E+05 -4.007328E+05 -2.321313E+05 -7.067756E+04
       110   8 -1.261658E+06  9.345235E+04  8.788009E+04 -5.763004E+05 -1.717943E+05 -1.225639E+04
       110   9 -1.312895E+06 -2.555200E+04  1.383818E+05 -7.019553E+05 -9.972928E+04  1.503836E+04
       110  10 -3.379306E+06 -1.175622E+06 -7.118909E+05 -1.220088E+06 -2.829850E-10 -2.660617E-10
       110  11 -3.279044E+06 -7.428147E+05 -4.371245E+05 -1.211069E+06 -1.802846E-09 -8.075310E-10
       110  12 -3.288604E+06 -6.767510E+05 -3.410733E+05 -1.152042E+06 -3.947556E-09 -1.944188E-10
       110  13 -2.345702E+06 -6.603697E+05 -4.087726E+05 -8.107661E+05  8.487602E-10 -6.381829E-10
       110  14 -2.270870E+06 -3.247507E+05 -1.746071E+05 -8.939318E+05  1.153889E-10 -1.327628E-09
       110  15 -2.301233E+06 -3.511592E+05 -1.013193E+05 -9.271489E+05 -2.036999E-10 -3.445463E-10
       110  16 -1.311016E+06 -1.447947E+05 -1.057570E+05 -4.007461E+05 -1.361891E-09 -1.050510E-10
       110  17 -1.261690E+06  9.344424E+04  8.782422E+04 -5.763021E+05 -7.987608E-10 -4.409561E-10
       110  18 -1.312906E+06 -2.555491E+04  1.383627E+05 -7.019541E+05  1.586085E-09  2.513578E-10
       110  19 -3.379208E+06 -1.175588E+06 -7.117051E+05 -1.220064E+06  2.984808E+05  9.558337E+04
       110  20 -3.279003E+06 -7.428040E+05 -4.370527E+05 -1.211066E+06  1.938390E+05  2.052418E+04
       110  21 -3.288597E+06 -6.767488E+05 -3.410610E+05 -1.152044E+06  7.743260E+04 -2.342826E+04
       110  22 -2.345624E+06 -6.603432E+05 -4.086267E+05 -8.107483E+05  2.653366E+05  8.315040E+04
       110  23 -2.270834E+06 -3.247414E+05 -1.745435E+05 -8.939294E+05  1.828265E+05  1.639492E+04
       110  24 -2.301224E+06 -3.511567E+05 -1.013038E+05 -9.271503E+05  8.857126E+04 -1.923594E+04
       110  25 -1.310957E+06 -1.447748E+05 -1.056461E+05 -4.007328E+05  2.321313E+05  7.067756E+04
       110  26 -1.261658E+06  9.345235E+04  8.788009E+04 -5.763004E+05  1.717943E+05  1.225639E+04
       110  27 -1.312895E+06 -2.555200E+04  1.383818E+05 -7.019553E+05  9.972928E+04 -1.503836E+04
       111   1 -3.152912E+06 -7.194065E+05 -3.009805E+05 -1.151669E+06 -7.114408E+04  1.852054E+04
       111   2 -3.076956E+06 -6.397171E+05 -2.373962E+05 -1.109974E+06 -4.800838E+04  2.378325E+04
       111   3 -2.978884E+06 -6.200499E+05 -1.971414E+05 -1.101432E+06 -2.425601E+04  2.740021E+04
       111   4 -2.287591E+06 -3.872791E+05 -8.113861E+04 -9.067185E+05 -7.276783E+04  1.790414E+04
       111   5 -2.297070E+06 -3.456941E+05 -4.079823E+04 -8.945178E+05 -5.078164E+04  2.273731E+04
       111   6 -2.284197E+06 -3.638784E+05 -2.284751E+04 -9.154721E+05 -2.818255E+04  2.592398E+04
       111   7 -1.421529E+06 -5.509109E+04  1.386438E+05 -6.614523E+05 -7.439402E+04  1.728678E+04
       111   8 -1.516583E+06 -5.162806E+04  1.557517E+05 -6.788134E+05 -5.355872E+04  2.168991E+04
       111   9 -1.589036E+06 -1.076788E+05  1.514084E+05 -7.293242E+05 -3.211391E+04  2.444602E+04
       111  10 -3.152918E+06 -7.194082E+05 -3.009907E+05 -1.151668E+06 -1.294027E-09  4.090305E-11
       111  11 -3.076958E+06 -6.397183E+05 -2.374016E+05 -1.109973E+06 -2.314305E-10 -1.242620E-09
       111  12 -2.978885E+06 -6.200508E+05 -1.971439E+05 -1.101431E+06  6.769770E-10 -4.528132E-10
       111  13 -2.287597E+06 -3.872809E+05 -8.114919E+04 -9.067175E+05  3.406515E-10 -7.895442E-10
       111  14 -2.297073E+06 -3.456954E+05 -4.080406E+04 -8.945168E+05 -1.169292E-10 -1.464151E-09
       111  15 -2.284198E+06 -3.638793E+05 -2.285027E+04 -9.154715E+05 -9.958535E-10 -6.117346E-10
       111  16 -1.421535E+06 -5.509290E+04  1.386328E+05 -6.614513E+05  4.200693E-10 -7.618823E-10
       111  17 -1.516587E+06 -5.162933E+04  1.557454E+05 -6.788125E+05  4.292732E-10 -1.022167E-09
       111  18 -1.589038E+06 -1.076797E+05  1.514053E+05 -7.293236E+05  1.608019E-09 -9.678514E-10
       111  19 -3.152912E+06 -7.194065E+05 -3.009805E+05 -1.151669E+06  7.114408E+04 -1.852054E+04
       111  20 -3.076956E+06 -6.397171E+05 -2.373962E+05 -1.109974E+06  4.800838E+04 -2.378325E+04
       111  21 -2.978884E+06 -6.200499E+05 -1.971414E+05 -1.101432E+06  2.425601E+04 -2.740021E+04
       111  22 -2.287591E+06 -3.872791E+05 -8.113861E+04 -9.067185E+05  7.276783E+04 -1.790414E+04
       111  23 -2.297070E+06 -3.456941E+05 -4.079823E+04 -8.945178E+05  5.078164E+04 -2.273731E+04
       111  24 -2.284197E+06 -3.638784E+05 -2.284751E+04 -9.154721E+05  2.818255E+04 -2.592398E+04
       111  25 -1.421529E+06 -5.509109E+04  1.386438E+05 -6.614523E+05  7.439402E+04 -1.728678E+04
       111  26 -1.516583E+06 -5.162806E+04  1.557517E+05 -6.788134E+05  5.355872E+04 -2.168991E+04
       111  27 -1.589036E+06 -1.076788E+05  1.514084E+05 -7.293242E+05  3.211391E+04 -2.444602E+04
       112   1 -2.885929E+06 -5.926341E+05 -1.689916E+05 -1.079277E+06 -2.031112E+04  2.537660E+04
       112   2 -2.809555E+06 -5.375478E+05 -1.375790E+05 -1.033316E+06 -1.362997E+04  2.224679E+04
       112   3 -2.698595E+06 -5.202409E+05 -1.102589E+05 -1.028024E+06 -6.900759E+03  1.897743E+04
       112   4 -2.282555E+06 -3.668167E+05 -1.753140E+04 -9.141906E+05 -2.380815E+04  2.406280E+04
       112   5 -2.299711E+06 -3.470412E+05 -9.431383E+03 -8.941835E+05 -1.722216E+04  2.089897E+04
       112   6 -2.282269E+06 -3.650237E+05 -5.344696E+03 -9.148477E+05 -1.058890E+04  1.759537E+04
       112   7 -1.678826E+06 -1.409761E+05  1.338994E+05 -7.489591E+05 -2.730889E+04  2.274760E+04
       112   8 -1.789611E+06 -1.565176E+05  1.186957E+05 -7.549475E+05 -2.081758E+04  1.954993E+04
       112   9 -1.865772E+06 -2.097947E+05  9.955621E+04 -8.016018E+05 -1.427977E+04  1.621230E+04
       112  10 -2.885929E+06 -5.926349E+05 -1.689936E+05 -1.079276E+06 -7.063977E-11  3.236873E-10
       112  11 -2.809556E+06 -5.375483E+05 -1.375803E+05 -1.033315E+06 -3.872732E-10  2.921034E-11
       112  12 -2.698595E+06 -5.202413E+05 -1.102597E+05 -1.028024E+06  3.887378E-10 -2.324895E-10
       112  13 -2.282556E+06 -3.668175E+05 -1.753355E+04 -9.141901E+05  7.474999E-10 -8.932943E-11
       112  14 -2.299711E+06 -3.470417E+05 -9.432761E+03 -8.941832E+05  2.413708E-10  1.237698E-09
       112  15 -2.282270E+06 -3.650240E+05 -5.345487E+03 -9.148475E+05  1.784878E-10  2.434679E-10
       112  16 -1.678827E+06 -1.409768E+05  1.338970E+05 -7.489586E+05  7.193968E-10 -6.014972E-10
       112  17 -1.789612E+06 -1.565181E+05  1.186941E+05 -7.549472E+05  2.163124E-09  8.766948E-11
       112  18 -1.865772E+06 -2.097951E+05  9.955534E+04 -8.016016E+05  2.660690E-10 -3.741302E-10
       112  19 -2.885929E+06 -5.926341E+05 -1.689916E+05 -1.079277E+06  2.031112E+04 -2.537660E+04
       112  20 -2.809555E+06 -5.375478E+05 -1.375790E+05 -1.033316E+06  1.362997E+04 -2.224679E+04
       112  21 -2.698595E+06 -5.202409E+05 -1.102589E+05 -1.028024E+06  6.900759E+03 -1.897743E+04
       112  22 -2.282555E+06 -3.668167E+05 -1.753140E+04 -9.141906E+05  2.380815E+04 -2.406280E+04
       112  23 -2.299711E+06 -3.470412E+05 -9.431383E+03 -8.941835E+05  1.722216E+04 -2.089897E+04
       112  24 -2.282269E+06 -3.650237E+05 -5.344696E+03 -9.148477E+05  1.058890E+04 -1.759537E+04
       112  25 -1.678826E+06 -1.409761E+05  1.338994E+05 -7.489591E+05  2.730889E+04 -2.274760E+04
       112  26 -1.789611E+06 -1.565176E+05  1.186957E+05 -7.549475E+05  2.081758E+04 -1.954993E+04
       112  27 -1.865772E+06 -2.097947E+05  9.955621E+04 -8.016018E+05  1.427977E+04 -1.621230E+04
       113   1 -2.606443E+06 -4.864827E+05 -8.535195E+04 -1.003417E+06 -4.994130E+03  1.626916E+04
       113   2 -2.528463E+06 -4.321350E+05 -5.997748E+04 -9.561510E+05 -1.733762E+03  1.159752E+04
       113   3 -2.414044E+06 -4.146015E+05 -3.562866E+04 -9.509615E+05  1.536468E+03  6.893646E+03
       113   4 -2.281925E+06 -3.653922E+05 -4.156062E+03 -9.149354E+05 -8.686452E+03  1.488634E+04
       113   5 -2.300123E+06 -3.469089E+05 -2.612548E+03 -8.939224E+05 -5.448517E+03  1.020706E+04
       113   6 -2.281888E+06 -3.652345E+05 -2.076108E+03 -9.149881E+05 -2.200982E+03  5.495531E+03
       113   7 -1.957302E+06 -2.442945E+05  7.703182E+04 -8.264112E+05 -1.238090E+04  1.350273E+04
       113   8 -2.071733E+06 -2.616801E+05  5.474787E+04 -8.316735E+05 -9.164745E+03  8.816053E+03
       113   9 -2.149718E+06 -3.158672E+05  3.147450E+04 -8.790083E+05 -5.939245E+03  4.097112E+03
       113  10 -2.606443E+06 -4.864830E+05 -8.535250E+04 -1.003417E+06 -2.324390E-11 -1.843933E-10
       113  11 -2.528463E+06 -4.321351E+05 -5.997774E+04 -9.561510E+05  8.445007E-10  1.224305E-09
       113  12 -2.414044E+06 -4.146016E+05 -3.562875E+04 -9.509616E+05  2.178553E-09 -2.931316E-10
       113  13 -2.281925E+06 -3.653925E+05 -4.156619E+03 -9.149353E+05  6.560134E-10 -8.192924E-10
       113  14 -2.300123E+06 -3.469091E+05 -2.612799E+03 -8.939224E+05  1.583954E-09 -8.533790E-10
       113  15 -2.281888E+06 -3.652346E+05 -2.076174E+03 -9.149881E+05  2.534475E-09 -4.738785E-10
       113  16 -1.957302E+06 -2.442947E+05  7.703119E+04 -8.264111E+05  1.864971E-09 -1.754694E-10
       113  17 -2.071733E+06 -2.616802E+05  5.474757E+04 -8.316734E+05  1.115993E-09  1.692516E-10
       113  18 -2.149718E+06 -3.158672E+05  3.147440E+04 -8.790083E+05  8.793436E-10 -1.292048E-11
       113  19 -2.606443E+06 -4.864827E+05 -8.535195E+04 -1.003417E+06  4.994130E+03 -1.626916E+04
       113  20 -2.528463E+06 -4.321350E+05 -5.997748E+04 -9.561510E+05  1.733762E+03 -1.159752E+04
       113  21 -2.414044E+06 -4.146015E+05 -3.562866E+04 -9.509615E+05 -1.536468E+03 -6.893646E+03
       113  22 -2.281925E+06 -3.653922E+05 -4.156062E+03 -9.149354E+05  8.686452E+03 -1.488634E+04
       113  23 -2.300123E+06 -3.469089E+05 -2.612548E+03 -8.939224E+05  5.448517E+03 -1.020706E+04
       113  24 -2.281888E+06 -3.652345E+05 -2.076108E+03 -9.149881E+05  2.200982E+03 -5.495531E+03
       113  25 -1.957302E+06 -2.442945E+05  7.703182E+04 -8.264112E+05  1.238090E+04 -1.350273E+04
       113  26 -2.071733E+06 -2.616801E+05  5.474787E+04 -8.316735E+05  9.164745E+03 -8.816053E+03
       113  27 -2.149718E+06 -3.158672E+05  3.147450E+04 -8.790083E+05  5.939245E+03 -4.097112E+03
       114   1 -2.320876E+06 -3.798173E+05 -1.155044E+04 -9.257367E+05  3.024883E+03  3.985607E+03
       114   2 -2.242417E+06 -3.253205E+05  1.179356E+04 -8.781590E+05  6.316994E+03 -7.308966E+02
       114   3 -2.127360E+06 -3.078462E+05  3.409099E+04 -8.729107E+05  9.605752E+03 -5.435832E+03
       114   4 -2.281851E+06 -3.652815E+05 -2.095517E+03 -9.150440E+05 -7.193830E+02  2.585135E+03
       114   5 -2.300154E+06 -3.468292E+05 -2.701908E+03 -8.938548E+05  2.580471E+03 -2.128729E+03
       114   6 -2.281871E+06 -3.654027E+05 -4.360903E+03 -9.150000E+05  5.876725E+03 -6.831064E+03
       114   7 -2.242823E+06 -3.507454E+05  7.359500E+03 -9.043504E+05 -4.463957E+03  1.184548E+03
       114   8 -2.357889E+06 -3.683380E+05 -1.719776E+04 -9.095495E+05 -1.155715E+03 -3.526436E+03
       114   9 -2.436360E+06 -4.229583E+05 -4.281501E+04 -9.570802E+05  2.148679E+03 -8.225931E+03
       114  10 -2.320876E+06 -3.798173E+05 -1.155048E+04 -9.257367E+05 -1.824750E-10 -2.285520E-09
       114  11 -2.242417E+06 -3.253205E+05  1.179348E+04 -8.781590E+05 -2.611303E-09 -2.426549E-09
       114  12 -2.127360E+06 -3.078462E+05  3.409076E+04 -8.729107E+05 -3.135450E-09 -2.457132E-10
       114  13 -2.281851E+06 -3.652815E+05 -2.095530E+03 -9.150440E+05  1.483845E-09 -1.026415E-09
       114  14 -2.300154E+06 -3.468292E+05 -2.701929E+03 -8.938548E+05 -2.830259E-09 -6.259931E-10
       114  15 -2.281871E+06 -3.654028E+05 -4.361055E+03 -9.150000E+05 -1.535542E-09 -4.096510E-11
       114  16 -2.242823E+06 -3.507454E+05  7.359459E+03 -9.043504E+05 -1.116770E-09  3.537573E-11
       114  17 -2.357889E+06 -3.683380E+05 -1.719779E+04 -9.095495E+05 -2.749869E-09 -1.199705E-09
       114  18 -2.436360E+06 -4.229583E+05 -4.281514E+04 -9.570801E+05  2.340876E-10 -1.951788E-09
       114  19 -2.320876E+06 -3.798173E+05 -1.155044E+04 -9.257367E+05 -3.024883E+03 -3.985607E+03
       114  20 -2.242417E+06 -3.253205E+05  1.179356E+04 -8.781590E+05 -6.316994E+03  7.308966E+02
       114  21 -2.127360E+06 -3.078462E+05  3.409099E+04 -8.729107E+05 -9.605752E+03  5.435832E+03
       114  22 -2.281851E+06 -3.652815E+05 -2.095517E+03 -9.150440E+05  7.193830E+02 -2.585135E+03
       114  23 -2.300154E+06 -3.468292E+05 -2.701908E+03 -8.938548E+05 -2.580471E+03  2.128729E+03
       114  24 -2.281871E+06 -3.654027E+05 -4.360903E+03 -9.150000E+05 -5.876725E+03  6.831064E+03
       114  25 -2.242823E+06 -3.507454E+05  7.359500E+03 -9.043504E+05  4.463957E+03 -1.184548E+03
       114  26 -2.357889E+06 -3.683380E+05 -1.719776E+04 -9.095495E+05  1.155715E+03  3.526436E+03
       114  27 -2.436360E+06 -4.229583E+05 -4.281501E+04 -9.570802E+05 -2.148679E+03  8.225931E+03
       115   1 -2.034748E+06 -2.730915E+05  5.679307E+04 -8.479910E+05  1.156678E+04 -8.159485E+03
       115   2 -1.957149E+06 -2.189171E+05  7.611106E+04 -8.005685E+05  1.841318E+04 -1.147275E+04
       115   3 -1.844521E+06 -2.032162E+05  9.122370E+04 -7.945538E+05  2.522304E+04 -1.467704E+04
       115   4 -2.282148E+06 -3.651182E+05 -5.631233E+03 -9.150284E+05  7.831286E+03 -9.557567E+03
       115   5 -2.299793E+06 -3.467977E+05 -9.945102E+03 -8.939819E+05  1.475216E+04 -1.284411E+04
       115   6 -2.282434E+06 -3.669676E+05 -1.852480E+04 -9.143475E+05  2.163572E+04 -1.602194E+04
       115   7 -2.529485E+06 -4.571396E+05 -6.805926E+04 -9.820405E+05  4.097487E+03 -1.095502E+04
       115   8 -2.642321E+06 -4.746701E+05 -9.601006E+04 -9.873481E+05  1.109337E+04 -1.421464E+04
       115   9 -2.720161E+06 -5.307074E+05 -1.282892E+05 -1.034065E+06  1.805114E+04 -1.736580E+04
       115  10 -2.034748E+06 -2.730916E+05  5.679269E+04 -8.479909E+05 -1.020887E-09  1.509973E-09
       115  11 -1.957149E+06 -2.189173E+05  7.611017E+04 -8.005683E+05 -2.447344E-09  5.171973E-11
       115  12 -1.844522E+06 -2.032166E+05  9.122210E+04 -7.945535E+05  1.144594E-09  3.703398E-10
       115  13 -2.282149E+06 -3.651183E+05 -5.631520E+03 -9.150283E+05 -6.680509E-10  4.584671E-10
       115  14 -2.299794E+06 -3.467979E+05 -9.945821E+03 -8.939818E+05 -7.373711E-10  3.481007E-10
       115  15 -2.282434E+06 -3.669680E+05 -1.852616E+04 -9.143472E+05  1.171917E-09  3.759664E-10
       115  16 -2.529485E+06 -4.571397E+05 -6.805952E+04 -9.820405E+05  9.396824E-10 -5.004958E-10
       115  17 -2.642321E+06 -4.746703E+05 -9.601067E+04 -9.873480E+05  1.463413E-09  1.895267E-09
       115  18 -2.720161E+06 -5.307078E+05 -1.282904E+05 -1.034065E+06 -3.893756E-10  3.579328E-10
       115  19 -2.034748E+06 -2.730915E+05  5.679307E+04 -8.479910E+05 -1.156678E+04  8.159485E+03
       115  20 -1.957149E+06 -2.189171E+05  7.611106E+04 -8.005685E+05 -1.841318E+04  1.147275E+04
       115  21 -1.844521E+06 -2.032162E+05  9.122370E+04 -7.945538E+05 -2.522304E+04  1.467704E+04
       115  22 -2.282148E+06 -3.651182E+05 -5.631233E+03 -9.150284E+05 -7.831286E+03  9.557567E+03
       115  23 -2.299793E+06 -3.467977E+05 -9.945102E+03 -8.939819E+05 -1.475216E+04  1.284411E+04
       115  24 -2.282434E+06 -3.669676E+05 -1.852480E+04 -9.143475E+05 -2.163572E+04  1.602194E+04
       115  25 -2.529485E+06 -4.571396E+05 -6.805926E+04 -9.820405E+05 -4.097487E+03  1.095502E+04
       115  26 -2.642321E+06 -4.746701E+05 -9.601006E+04 -9.873481E+05 -1.109337E+04  1.421464E+04
       115  27 -2.720161E+06 -5.307074E+05 -1.282892E+05 -1.034065E+06 -1.805114E+04  1.736580E+04
       116   1 -1.752489E+06 -1.692958E+05  1.089660E+05 -7.748054E+05  3.018034E+04 -1.637154E+04
       116   2 -1.677674E+06 -1.115107E+05  1.129597E+05 -7.226913E+05  5.301874E+04 -1.329099E+04
       116   3 -1.580172E+06 -1.157652E+05  9.405742E+04 -7.046474E+05  7.532839E+04 -8.778142E+03
       116   4 -2.284074E+06 -3.639731E+05 -2.415157E+04 -9.158293E+05  2.621012E+04 -1.786077E+04
       116   5 -2.297089E+06 -3.451957E+05 -4.310324E+04 -8.941757E+05  5.005250E+04 -1.440621E+04
       116   6 -2.287637E+06 -3.886801E+05 -8.576718E+04 -9.065980E+05  7.336257E+04 -9.520376E+03
       116   7 -2.815382E+06 -5.586348E+05 -1.572913E+05 -1.056745E+06  2.224362E+04 -1.934867E+04
       116   8 -2.916126E+06 -5.788531E+05 -1.991964E+05 -1.065503E+06  4.708949E+04 -1.552020E+04
       116   9 -2.994607E+06 -6.615525E+05 -2.656315E+05 -1.108335E+06  7.139917E+04 -1.026164E+04
       116  10 -1.752490E+06 -1.692963E+05  1.089638E+05 -7.748050E+05 -1.104678E-10  5.189730E-10
       116  11 -1.677677E+06 -1.115116E+05  1.129541E+05 -7.226908E+05 -7.070741E-10  1.627995E-10
       116  12 -1.580178E+06 -1.157668E+05  9.404659E+04 -7.046468E+05  1.017660E-09  3.880411E-11
       116  13 -2.284075E+06 -3.639736E+05 -2.415346E+04 -9.158289E+05  2.370590E-09  8.101065E-10
       116  14 -2.297092E+06 -3.451966E+05 -4.310835E+04 -8.941752E+05  2.476295E-09  9.121699E-10
       116  15 -2.287643E+06 -3.886816E+05 -8.577750E+04 -9.065975E+05 -1.660630E-10 -4.204412E-10
       116  16 -2.815382E+06 -5.586353E+05 -1.572929E+05 -1.056744E+06  6.088043E-10  3.073451E-10
       116  17 -2.916128E+06 -5.788539E+05 -1.992010E+05 -1.065503E+06 -5.608661E-10  1.119128E-09
       116  18 -2.994613E+06 -6.615539E+05 -2.656413E+05 -1.108335E+06 -6.314703E-10 -1.182337E-09
       116  19 -1.752489E+06 -1.692958E+05  1.089660E+05 -7.748054E+05 -3.018034E+04  1.637154E+04
       116  20 -1.677674E+06 -1.115107E+05  1.129597E+05 -7.226913E+05 -5.301874E+04  1.329099E+04
       116  21 -1.580172E+06 -1.157652E+05  9.405742E+04 -7.046474E+05 -7.532839E+04  8.778142E+03
       116  22 -2.284074E+06 -3.639731E+05 -2.415157E+04 -9.158293E+05 -2.621012E+04  1.786077E+04
       116  23 -2.297089E+06 -3.451957E+05 -4.310324E+04 -8.941757E+05 -5.005250E+04  1.440621E+04
       116  24 -2.287637E+06 -3.886801E+05 -8.576718E+04 -9.065980E+05 -7.336257E+04  9.520376E+03
       116  25 -2.815382E+06 -5.586348E+05 -1.572913E+05 -1.056745E+06 -2.224362E+04  1.934867E+04
       116  26 -2.916126E+06 -5.788531E+05 -1.991964E+05 -1.065503E+06 -4.708949E+04  1.552020E+04
       116  27 -2.994607E+06 -6.615525E+05 -2.656315E+05 -1.108335E+06 -7.139917E+04  1.026164E+04
       117   1 -1.467078E+06 -8.530105E+04  9.365138E+04 -7.482642E+05  1.001035E+05 -6.348444E+03
       117   2 -1.413213E+06  3.975582E+04  3.967068E+04 -6.158251E+05  1.806407E+05  2.319102E+04
       117   3 -1.466928E+06 -2.135962E+05 -1.688191E+05 -4.305609E+05  2.509482E+05  7.996149E+04
       117   4 -2.301941E+06 -3.506143E+05 -1.070873E+05 -9.283388E+05  8.979799E+04 -1.021525E+04
       117   5 -2.269489E+06 -3.228216E+05 -1.844653E+05 -8.933448E+05  1.897339E+05  2.659169E+04
       117   6 -2.348693E+06 -6.776420E+05 -4.319363E+05 -8.054870E+05  2.794252E+05  9.061679E+04
       117   7 -3.136124E+06 -6.159262E+05 -3.078762E+05 -1.108215E+06  7.950752E+04 -1.407835E+04
       117   8 -3.125037E+06 -6.852908E+05 -4.086625E+05 -1.170495E+06  1.988131E+05  2.998556E+04
       117   9 -3.229647E+06 -1.141387E+06 -6.951214E+05 -1.179853E+06  3.078573E+05  1.012400E+05
       117  10 -1.467088E+06 -8.530379E+04  9.363243E+04 -7.482637E+05 -2.647878E-10 -8.075439E-10
       117  11 -1.413248E+06  3.974645E+04  3.960819E+04 -6.158285E+05  1.929728E-10 -1.037669E-09
       117  12 -1.466997E+06 -2.136200E+05 -1.689498E+05 -4.305771E+05 -6.949178E-10 -1.685265E-11
       117  13 -2.301950E+06 -3.506166E+05 -1.071027E+05 -9.283381E+05 -6.399502E-10 -9.783234E-10
       117  14 -2.269528E+06 -3.228320E+05 -1.845346E+05 -8.933489E+05 -1.018069E-09 -2.357777E-10
       117  15 -2.348779E+06 -6.776719E+05 -4.320992E+05 -8.055074E+05  3.758997E-10  4.813940E-10
       117  16 -3.136130E+06 -6.159281E+05 -3.078885E+05 -1.108214E+06 -3.282400E-10 -9.776280E-10
       117  17 -3.125080E+06 -6.853025E+05 -4.087389E+05 -1.170500E+06 -2.143437E-09  1.664762E-10
       117  18 -3.229752E+06 -1.141424E+06 -6.953199E+05 -1.179878E+06 -3.921086E-10  2.521967E-10
       117  19 -1.467078E+06 -8.530105E+04  9.365138E+04 -7.482642E+05 -1.001035E+05  6.348444E+03
       117  20 -1.413213E+06  3.975582E+04  3.967068E+04 -6.158251E+05 -1.806407E+05 -2.319102E+04
       117  21 -1.466928E+06 -2.135962E+05 -1.688191E+05 -4.305609E+05 -2.509482E+05 -7.996149E+04
       117  22 -2.301941E+06 -3.506143E+05 -1.070873E+05 -9.283388E+05 -8.979799E+04  1.021525E+04
       117  23 -2.269489E+06 -3.228216E+05 -1.844653E+05 -8.933448E+05 -1.897339E+05 -2.659169E+04
       117  24 -2.348693E+06 -6.776420E+05 -4.319363E+05 -8.054870E+05 -2.794252E+05 -9.061679E+04
       117  25 -3.136124E+06 -6.159262E+05 -3.078762E+05 -1.108215E+06 -7.950752E+04  1.407835E+04
       117  26 -3.125037E+06 -6.852908E+05 -4.086625E+05 -1.170495E+06 -1.988131E+05 -2.998556E+04
       117  27 -3.229647E+06 -1.141387E+06 -6.951214E+05 -1.179853E+06 -3.078573E+05 -1.012400E+05
       118   1 -4.329966E+05 -2.456047E+03  3.087714E+04  3.016282E+04  9.858234E+04  7.021645E+03
       118   2 -4.045163E+05 -1.334575E+05 -4.215417E+04  2.342657E+03  6.939836E+04  2.150443E+04
       118   3 -3.364098E+05 -1.219031E+05 -6.049939E+04 -4.866159E+04  4.022278E+04  2.160942E+04
       118   4  1.296396E+05  1.374036E+05  1.680689E+05 -2.830733E+04  1.153122E+05  7.025507E+03
       118   5  1.088949E+05 -7.256492E+03  7.548370E+04 -1.666625E+04  7.505785E+04  2.150455E+04
       118   6  1.296582E+05 -7.508680E+03  4.523773E+04 -2.820689E+04  3.481509E+04  2.160739E+04
       118   7  6.925726E+05  2.772529E+05  3.052405E+05 -8.683069E+04  1.320572E+05  7.026220E+03
       118   8  6.225512E+05  1.189276E+05  1.931046E+05 -3.569105E+04  8.072197E+04  2.150432E+04
       118   9  5.959289E+05  1.068724E+05  1.509611E+05 -7.736710E+03  2.940336E+04  2.160500E+04
       118  10 -4.330071E+05 -2.458711E+03  3.085877E+04  3.016227E+04  3.935613E-10  2.758137E-10
       118  11 -4.045216E+05 -1.334593E+05 -4.216410E+04  2.341455E+03  4.120832E-09 -1.577477E-10
       118  12 -3.364116E+05 -1.219041E+05 -6.050331E+04 -4.866229E+04  9.876178E-10 -1.030949E-11
       118  13  1.296253E+05  1.373999E+05  1.680438E+05 -2.830799E+04 -5.383731E-14  6.102996E-11
       118  14  1.088888E+05 -7.258501E+03  7.547225E+04 -1.666755E+04 -1.667040E-09 -8.396804E-10
       118  15  1.296568E+05 -7.509507E+03  4.523457E+04 -2.820750E+04  1.206034E-09  1.887009E-10
       118  16  6.925539E+05  2.772482E+05  3.052076E+05 -8.683144E+04 -9.240579E-10 -1.951289E-10
       118  17  6.225441E+05  1.189253E+05  1.930915E+05 -3.569244E+04 -1.283457E-09 -2.743282E-10
       118  18  5.959278E+05  1.068716E+05  1.509586E+05 -7.737221E+03 -6.456499E-10  1.687730E-10
       118  19 -4.329966E+05 -2.456047E+03  3.087714E+04  3.016282E+04 -9.858234E+04 -7.021645E+03
       118  20 -4.045163E+05 -1.334575E+05 -4.215417E+04  2.342657E+03 -6.939836E+04 -2.150443E+04
       118  21 -3.364098E+05 -1.219031E+05 -6.049939E+04 -4.866159E+04 -4.022278E+04 -2.160942E+04
       118  22  1.296396E+05  1.374036E+05  1.680689E+05 -2.830733E+04 -1.153122E+05 -7.025507E+03
       118  23  1.088949E+05 -7.256492E+03  7.548370E+04 -1.666625E+04 -7.505785E+04 -2.150455E+04
       118  24  1.296582E+05 -7.508680E+03  4.523773E+04 -2.820689E+04 -3.481509E+04 -2.160739E+04
       118  25  6.925726E+05  2.772529E+05  3.052405E+05 -8.683069E+04 -1.320572E+05 -7.026220E+03
       118  26  6.225512E+05  1.189276E+05  1.931046E+05 -3.569105E+04 -8.072197E+04 -2.150432E+04
       118  27  5.959289E+05  1.068724E+05  1.509611E+05 -7.736710E+03 -2.940336E+04 -2.160500E+04
       119   1 -3.007076E+05 -9.421286E+04 -5.992544E+04 -2.515262E+04  2.920925E+04  1.858292E+04
       119   2 -2.546202E+05 -9.250430E+04 -6.574566E+04 -1.578351E+04  1.998936E+04  1.691481E+04
       119   3 -2.047038E+05 -8.061824E+04 -6.299828E+04 -2.998639E+04  1.076793E+04  1.457369E+04
       119   4  1.213118E+05  9.444330E+03  3.630272E+04 -2.832143E+04  2.820193E+04  1.858158E+04
       119   5  1.193595E+05 -6.921631E+02  1.930116E+04 -1.653491E+04  1.845926E+04  1.691381E+04
       119   6  1.213224E+05 -5.639308E+02  1.122602E+04 -2.831933E+04  8.715754E+03  1.457316E+04
       119   7  5.434964E+05  1.130892E+05  1.325193E+05 -3.149242E+04  2.719393E+04  1.858024E+04
       119   8  4.934689E+05  9.111031E+04  1.043389E+05 -1.728676E+04  1.692824E+04  1.691282E+04
       119   9  4.474472E+05  7.948303E+04  8.544343E+04 -2.665140E+04  6.662511E+03  1.457262E+04
       119  10 -3.007086E+05 -9.421346E+04 -5.992769E+04 -2.515306E+04 -8.419793E-10  1.458173E-10
       119  11 -2.546207E+05 -9.250472E+04 -6.574695E+04 -1.578378E+04  8.410428E-10  6.777450E-10
       119  12 -2.047040E+05 -8.061850E+04 -6.299890E+04 -2.998651E+04 -5.106518E-10 -1.547314E-09
       119  13  1.213108E+05  9.443745E+03  3.630058E+04 -2.832185E+04 -2.214184E-12  3.034464E-10
       119  14  1.193590E+05 -6.925618E+02  1.929998E+04 -1.653516E+04 -1.077096E-09  2.458374E-10
       119  15  1.213223E+05 -5.641792E+02  1.122548E+04 -2.831944E+04 -1.606622E-10 -7.782917E-10
       119  16  5.434955E+05  1.130886E+05  1.325172E+05 -3.149282E+04 -1.323034E-10  5.332884E-10
       119  17  4.934685E+05  9.110993E+04  1.043378E+05 -1.728699E+04  1.697903E-09 -2.095233E-10
       119  18  4.474471E+05  7.948279E+04  8.544295E+04 -2.665147E+04 -5.019842E-10  6.299453E-11
       119  19 -3.007076E+05 -9.421286E+04 -5.992544E+04 -2.515262E+04 -2.920925E+04 -1.858292E+04
       119  20 -2.546202E+05 -9.250430E+04 -6.574566E+04 -1.578351E+04 -1.998936E+04 -1.691481E+04
       119  21 -2.047038E+05 -8.061824E+04 -6.299828E+04 -2.998639E+04 -1.076793E+04 -1.457369E+04
       119  22  1.213118E+05  9.444330E+03  3.630272E+04 -2.832143E+04 -2.820193E+04 -1.858158E+04
       119  23  1.193595E+05 -6.921631E+02  1.930116E+04 -1.653491E+04 -1.845926E+04 -1.691381E+04
       119  24  1.213224E+05 -5.639308E+02  1.122602E+04 -2.831933E+04 -8.715754E+03 -1.457316E+04
       119  25  5.434964E+05  1.130892E+05  1.325193E+05 -3.149242E+04 -2.719393E+04 -1.858024E+04
       119  26  4.934689E+05  9.111031E+04  1.043389E+05 -1.728676E+04 -1.692824E+04 -1.691282E+04
       119  27  4.474472E+05  7.948303E+04  8.544343E+04 -2.665140E+04 -6.662511E+03 -1.457262E+04
       120   1 -1.616898E+05 -6.866857E+04 -5.538469E+04 -2.830129E+04  8.811772E+03  1.306746E+04
       120   2 -1.140289E+05 -5.761276E+04 -4.839973E+04 -1.659723E+04  6.419588E+03  1.064699E+04
       120   3 -6.584882E+04 -4.582167E+04 -3.966841E+04 -2.845517E+04  4.026338E+03  8.195994E+03
       120   4  1.205743E+05  5.931644E+02  8.649526E+03 -2.831775E+04  6.966873E+03  1.306715E+04
       120   5  1.203173E+05 -9.059070E+01  4.863117E+03 -1.653707E+04  4.550156E+03  1.064698E+04
       120   6  1.205806E+05 -3.512299E+01  2.839338E+03 -2.831785E+04  2.132552E+03  8.196288E+03
       120   7  4.029123E+05  6.984941E+04  7.267860E+04 -2.833421E+04  5.121143E+03  1.306684E+04
       120   8  3.547145E+05  5.742779E+04  5.812242E+04 -1.647689E+04  2.680024E+03  1.064697E+04
       120   9  3.070423E+05  4.574902E+04  4.534483E+04 -2.818049E+04  2.382028E+02  8.196581E+03
       120  10 -1.616899E+05 -6.866878E+04 -5.538515E+04 -2.830138E+04 -2.147925E-09 -1.536992E-09
       120  11 -1.140290E+05 -5.761289E+04 -4.840002E+04 -1.659728E+04  3.909170E-10  5.139513E-10
       120  12 -6.584886E+04 -4.582175E+04 -3.966856E+04 -2.845520E+04 -1.559627E-09  2.886814E-10
       120  13  1.205742E+05  5.929680E+02  8.649114E+03 -2.831782E+04 -2.151958E-09 -7.168517E-10
       120  14  1.203172E+05 -9.071799E+01  4.862865E+03 -1.653711E+04 -1.593953E-09  1.852543E-10
       120  15  1.205806E+05 -3.519635E+01  2.839204E+03 -2.831787E+04 -7.925998E-10  3.715675E-10
       120  16  4.029122E+05  6.984922E+04  7.267823E+04 -2.833426E+04 -1.690817E-11  5.604777E-11
       120  17  3.547145E+05  5.742766E+04  5.812219E+04 -1.647691E+04 -2.819162E-09  1.034934E-12
       120  18  3.070423E+05  4.574895E+04  4.534470E+04 -2.818049E+04 -5.877571E-10  7.866414E-10
       120  19 -1.616898E+05 -6.866857E+04 -5.538469E+04 -2.830129E+04 -8.811772E+03 -1.306746E+04
       120  20 -1.140289E+05 -5.761276E+04 -4.839973E+04 -1.659723E+04 -6.419588E+03 -1.064699E+04
       120  21 -6.584882E+04 -4.582167E+04 -3.966841E+04 -2.845517E+04 -4.026338E+03 -8.195994E+03
       120  22  1.205743E+05  5.931644E+02  8.649526E+03 -2.831775E+04 -6.966873E+03 -1.306715E+04
       120  23  1.203173E+05 -9.059070E+01  4.863117E+03 -1.653707E+04 -4.550156E+03 -1.064698E+04
       120  24  1.205806E+05 -3.512299E+01  2.839338E+03 -2.831785E+04 -2.132552E+03 -8.196288E+03
       120  25  4.029123E+05  6.984941E+04  7.267860E+04 -2.833421E+04 -5.121143E+03 -1.306684E+04
       120  26  3.547145E+05  5.742779E+04  5.812242E+04 -1.647689E+04 -2.680024E+03 -1.064697E+04
       120  27  3.070423E+05  4.574902E+04  4.534483E+04 -2.818049E+04 -2.382028E+02 -8.196581E+03
       121   1 -2.223822E+04 -3.496793E+04 -3.010886E+04 -2.833815E+04  3.563172E+03  6.763182E+03
       121   2  2.559891E+04 -2.328674E+04 -2.022592E+04 -1.655831E+04  2.906500E+03  4.309764E+03
       121   3  7.352861E+04 -1.153997E+04 -9.901883E+03 -2.831856E+04  2.249432E+03  1.855341E+03
       121   4  1.204886E+05  3.559414E+01  2.188953E+03 -2.831302E+04  1.679450E+03  6.763607E+03
       121   5  1.204446E+05 -8.246381E+00  1.328299E+03 -1.654310E+04  1.021802E+03  4.310306E+03
       121   6  1.204911E+05  1.378579E+01  9.094049E+02 -2.831304E+04  3.638078E+02  1.856008E+03
       121   7  2.632343E+05  3.503772E+04  3.448547E+04 -2.828789E+04 -2.047015E+02  6.764031E+03
       121   8  2.152986E+05  2.326963E+04  2.288195E+04 -1.652788E+04 -8.631809E+02  4.310847E+03
       121   9  1.674556E+05  1.156739E+04  1.172056E+04 -2.830752E+04 -1.521958E+03  1.856675E+03
       121  10 -2.223824E+04 -3.496798E+04 -3.010897E+04 -2.833817E+04  6.629544E-10 -9.708672E-11
       121  11  2.559889E+04 -2.328676E+04 -2.022597E+04 -1.655832E+04  1.305845E-09  5.037917E-10
       121  12  7.352860E+04 -1.153997E+04 -9.901899E+03 -2.831857E+04 -2.295685E-09  3.585132E-10
       121  13  1.204886E+05  3.554425E+01  2.188861E+03 -2.831303E+04 -1.117216E-09  5.206330E-10
       121  14  1.204446E+05 -8.266613E+00  1.328262E+03 -1.654310E+04 -5.168148E-10 -1.641680E-10
       121  15  1.204911E+05  1.378206E+01  9.093982E+02 -2.831304E+04 -1.587719E-09 -5.162051E-10
       121  16  2.632343E+05  3.503767E+04  3.448538E+04 -2.828789E+04  4.770792E-10  3.887069E-10
       121  17  2.152986E+05  2.326961E+04  2.288191E+04 -1.652788E+04 -6.322549E-10 -1.589682E-10
       121  18  1.674556E+05  1.156738E+04  1.172055E+04 -2.830752E+04  2.383999E-10 -1.153271E-09
       121  19 -2.223822E+04 -3.496793E+04 -3.010886E+04 -2.833815E+04 -3.563172E+03 -6.763182E+03
       121  20  2.559891E+04 -2.328674E+04 -2.022592E+04 -1.655831E+04 -2.906500E+03 -4.309764E+03
       121  21  7.352861E+04 -1.153997E+04 -9.901883E+03 -2.831856E+04 -2.249432E+03 -1.855341E+03
       121  22  1.204886E+05  3.559414E+01  2.188953E+03 -2.831302E+04 -1.679450E+03 -6.763607E+03
       121  23  1.204446E+05 -8.246381E+00  1.328299E+03 -1.654310E+04 -1.021802E+03 -4.310306E+03
       121  24  1.204911E+05  1.378579E+01  9.094049E+02 -2.831304E+04 -3.638078E+02 -1.856008E+03
       121  25  2.632343E+05  3.503772E+04  3.448547E+04 -2.828789E+04  2.047015E+02 -6.764031E+03
       121  26  2.152986E+05  2.326963E+04  2.288195E+04 -1.652788E+04  8.631809E+02 -4.310847E+03
       121  27  1.674556E+05  1.156739E+04  1.172056E+04 -2.830752E+04  1.521958E+03 -1.856675E+03
       122   1  1.172041E+05 -7.614497E+02  2.053712E+02 -2.831945E+04  2.092926E+03  4.265533E+02
       122   2  1.650622E+05  1.094732E+04  1.093311E+04 -1.654924E+04  1.696924E+03 -2.027524E+03
       122   3  2.129662E+05  2.269377E+04  2.192375E+04 -2.831586E+04  1.301061E+03 -4.480526E+03
       122   4  1.204814E+05  1.502721E+01  8.109196E+02 -2.831239E+04  2.073339E+02  4.272406E+02
       122   5  1.204586E+05  9.228007E-01  7.974897E+02 -1.654391E+04 -1.878787E+02 -2.026898E+03
       122   6  1.204802E+05  2.468887E+01  1.046711E+03 -2.831238E+04 -5.829216E+02 -4.479953E+03
       122   7  1.237587E+05  7.915054E+02  1.416481E+03 -2.830532E+04 -1.678268E+03  4.279279E+02
       122   8  7.585685E+04 -1.094561E+04 -9.338245E+03 -1.653859E+04 -2.072547E+03 -2.026272E+03
       122   9  2.800214E+04 -2.264498E+04 -1.983086E+04 -2.830890E+04 -2.466627E+03 -4.479380E+03
       122  10  1.172041E+05 -7.614510E+02  2.053627E+02 -2.831946E+04  2.243850E-10  1.638170E-10
       122  11  1.650621E+05  1.094732E+04  1.093310E+04 -1.654924E+04  1.775353E-09 -8.213374E-11
       122  12  2.129662E+05  2.269375E+04  2.192371E+04 -2.831586E+04 -1.577850E-09 -8.949494E-10
       122  13  1.204814E+05  1.502700E+01  8.109192E+02 -2.831239E+04  1.035678E-09  2.981311E-10
       122  14  1.204586E+05  9.183794E-01  7.974819E+02 -1.654391E+04 -4.331672E-11  7.146177E-10
       122  15  1.204802E+05  2.466722E+01  1.046673E+03 -2.831239E+04  3.389481E-10 -9.997764E-10
       122  16  1.237587E+05  7.915044E+02  1.416475E+03 -2.830532E+04  8.384678E-10 -3.247510E-10
       122  17  7.585685E+04 -1.094562E+04 -9.338261E+03 -1.653859E+04 -5.503607E-10  1.011407E-09
       122  18  2.800212E+04 -2.264500E+04 -1.983091E+04 -2.830891E+04  1.034723E-10 -2.896731E-10
       122  19  1.172041E+05 -7.614497E+02  2.053712E+02 -2.831945E+04 -2.092926E+03 -4.265533E+02
       122  20  1.650622E+05  1.094732E+04  1.093311E+04 -1.654924E+04 -1.696924E+03  2.027524E+03
       122  21  2.129662E+05  2.269377E+04  2.192375E+04 -2.831586E+04 -1.301061E+03  4.480526E+03
       122  22  1.204814E+05  1.502721E+01  8.109196E+02 -2.831239E+04 -2.073339E+02 -4.272406E+02
       122  23  1.204586E+05  9.228008E-01  7.974897E+02 -1.654391E+04  1.878787E+02  2.026898E+03
       122  24  1.204802E+05  2.468887E+01  1.046711E+03 -2.831238E+04  5.829216E+02  4.479953E+03
       122  25  1.237587E+05  7.915054E+02  1.416481E+03 -2.830532E+04  1.678268E+03 -4.279279E+02
       122  26  7.585685E+04 -1.094561E+04 -9.338245E+03 -1.653859E+04  2.072547E+03  2.026272E+03
       122  27  2.800214E+04 -2.264498E+04 -1.983086E+04 -2.830890E+04  2.466627E+03  4.479380E+03
       123   1  2.567047E+05  3.344355E+04  3.236467E+04 -2.827893E+04  1.100031E+03 -5.912453E+03
       123   2  3.045080E+05  4.514295E+04  4.390236E+04 -1.653709E+04  4.921917E+01 -8.362587E+03
       123   3  3.525355E+05  5.715763E+04  5.620358E+04 -2.834282E+04 -1.001013E+03 -1.078456E+04
       123   4  1.205163E+05 -4.917808E+00  1.281040E+03 -2.831486E+04 -7.932324E+02 -5.911970E+03
       123   5  1.204050E+05 -3.522332E+01  2.069254E+03 -1.654083E+04 -1.822211E+03 -8.362349E+03
       123   6  1.205114E+05  2.460087E+02  3.605952E+03 -2.831479E+04 -2.850529E+03 -1.078455E+04
       123   7 -1.565486E+04 -3.345467E+04 -2.980379E+04 -2.835077E+04 -2.686084E+03 -5.911487E+03
       123   8 -6.366654E+04 -4.521574E+04 -3.976603E+04 -1.654456E+04 -3.693091E+03 -8.362110E+03
       123   9 -1.114627E+05 -5.666932E+04 -4.899514E+04 -2.828678E+04 -4.699361E+03 -1.078455E+04
       123  10  2.567047E+05  3.344351E+04  3.236460E+04 -2.827893E+04 -8.254500E-10 -5.279125E-10
       123  11  3.045079E+05  4.514288E+04  4.390222E+04 -1.653709E+04  1.236423E-09  1.433030E-10
       123  12  3.525355E+05  5.715751E+04  5.620336E+04 -2.834283E+04 -1.103177E-09  3.788657E-10
       123  13  1.205163E+05 -4.955511E+00  1.280973E+03 -2.831486E+04  1.122330E-09 -9.832655E-10
       123  14  1.204050E+05 -3.529931E+01  2.069117E+03 -1.654084E+04  6.025066E-10 -2.280104E-10
       123  15  1.205114E+05  2.458816E+02  3.605718E+03 -2.831482E+04 -8.125445E-12  5.543847E-10
       123  16 -1.565488E+04 -3.345471E+04 -2.980387E+04 -2.835078E+04  2.365902E-09 -5.085260E-10
       123  17 -6.366658E+04 -4.521581E+04 -3.976619E+04 -1.654459E+04 -9.963090E-10 -2.498274E-10
       123  18 -1.114628E+05 -5.666946E+04 -4.899540E+04 -2.828682E+04  2.421857E-09  5.808692E-10
       123  19  2.567047E+05  3.344355E+04  3.236467E+04 -2.827893E+04 -1.100031E+03  5.912453E+03
       123  20  3.045080E+05  4.514295E+04  4.390236E+04 -1.653709E+04 -4.921917E+01  8.362587E+03
       123  21  3.525355E+05  5.715763E+04  5.620358E+04 -2.834282E+04  1.001013E+03  1.078456E+04
       123  22  1.205163E+05 -4.917808E+00  1.281040E+03 -2.831486E+04  7.932324E+02  5.911970E+03
       123  23  1.204050E+05 -3.522332E+01  2.069254E+03 -1.654083E+04  1.822211E+03  8.362349E+03
       123  24  1.205114E+05  2.460087E+02  3.605952E+03 -2.831479E+04  2.850529E+03  1.078455E+04
       123  25 -1.565486E+04 -3.345467E+04 -2.980379E+04 -2.835077E+04  2.686084E+03  5.911487E+03
       123  26 -6.366654E+04 -4.521574E+04 -3.976603E+04 -1.654456E+04  3.693091E+03  8.362110E+03
       123  27 -1.114627E+05 -5.666932E+04 -4.899514E+04 -2.828678E+04  4.699361E+03  1.078455E+04
       124   1  3.966062E+05  6.746492E+04  6.744555E+04 -2.765085E+04 -1.539098E+03 -1.228285E+04
       124   2  4.437341E+05  7.914956E+04  8.157236E+04 -1.685600E+04 -6.043041E+03 -1.463009E+04
       124   3  4.925860E+05  9.515613E+04  9.972205E+04 -2.961985E+04 -1.054633E+04 -1.636148E+04
       124   4  1.208223E+05 -2.318359E+02  4.662036E+03 -2.831727E+04 -3.578434E+03 -1.228303E+04
       124   5  1.199976E+05 -2.948969E+02  7.980175E+03 -1.653774E+04 -7.607286E+03 -1.463069E+04
       124   6  1.208134E+05  3.883037E+03  1.499300E+04 -2.831759E+04 -1.163514E+04 -1.636236E+04
       124   7 -1.548911E+05 -6.793385E+04 -5.812641E+04 -2.898340E+04 -5.616873E+03 -1.228321E+04
       124   8 -2.036418E+05 -7.974660E+04 -6.561880E+04 -1.621965E+04 -9.170722E+03 -1.463129E+04
       124   9 -2.508311E+05 -8.739962E+04 -6.974504E+04 -2.701611E+04 -1.272330E+04 -1.636325E+04
       124  10  3.966062E+05  6.746476E+04  6.744526E+04 -2.765086E+04 -1.507445E-09 -2.692198E-11
       124  11  4.437340E+05  7.914932E+04  8.157189E+04 -1.685608E+04  9.944281E-10 -1.716991E-10
       124  12  4.925858E+05  9.515581E+04  9.972134E+04 -2.961999E+04 -7.701401E-10 -3.126781E-11
       124  13  1.208222E+05 -2.320013E+02  4.661729E+03 -2.831731E+04  2.112166E-12  2.776398E-10
       124  14  1.199974E+05 -2.951423E+02  7.979664E+03 -1.653783E+04 -2.130551E-09 -1.333188E-10
       124  15  1.208132E+05  3.882713E+03  1.499225E+04 -2.831774E+04  1.732657E-09  1.613160E-10
       124  16 -1.548912E+05 -6.793402E+04 -5.812675E+04 -2.898345E+04 -6.747278E-11  5.413384E-10
       124  17 -2.036419E+05 -7.974685E+04 -6.561936E+04 -1.621975E+04  2.728116E-10  1.406399E-12
       124  18 -2.508313E+05 -8.739996E+04 -6.974585E+04 -2.701627E+04  1.542825E-09  6.257383E-10
       124  19  3.966062E+05  6.746492E+04  6.744555E+04 -2.765085E+04  1.539098E+03  1.228285E+04
       124  20  4.437341E+05  7.914956E+04  8.157236E+04 -1.685600E+04  6.043041E+03  1.463009E+04
       124  21  4.925860E+05  9.515613E+04  9.972205E+04 -2.961985E+04  1.054633E+04  1.636148E+04
       124  22  1.208223E+05 -2.318359E+02  4.662036E+03 -2.831727E+04  3.578434E+03  1.228303E+04
       124  23  1.199976E+05 -2.948969E+02  7.980175E+03 -1.653774E+04  7.607286E+03  1.463069E+04
       124  24  1.208134E+05  3.883037E+03  1.499300E+04 -2.831759E+04  1.163514E+04  1.636236E+04
       124  25 -1.548911E+05 -6.793385E+04 -5.812641E+04 -2.898340E+04  5.616873E+03  1.228321E+04
       124  26 -2.036418E+05 -7.974660E+04 -6.561880E+04 -1.621965E+04  9.170722E+03  1.463129E+04
       124  27 -2.508311E+05 -8.739962E+04 -6.974504E+04 -2.701611E+04  1.272330E+04  1.636325E+04
       125   1  5.400887E+05  9.887969E+04  1.129748E+05 -1.974732E+04 -9.251773E+03 -1.924503E+04
       125   2  5.788486E+05  1.107847E+05  1.372340E+05 -2.445642E+04 -3.597158E+04 -1.934618E+04
       125   3  6.365519E+05  1.840466E+05  1.942445E+05 -5.231532E+04 -6.270162E+04 -6.306728E+03
       125   4  1.242637E+05 -3.117441E+03  1.868028E+04 -2.821829E+04 -1.436636E+04 -1.924708E+04
       125   5  1.156556E+05 -3.024655E+03  3.115149E+04 -1.665874E+04 -3.097603E+04 -1.934544E+04
       125   6  1.242487E+05  5.669472E+04  6.937014E+04 -2.824866E+04 -4.759360E+04 -6.300238E+03
       125   7 -2.914006E+05 -1.051262E+05 -7.562527E+04 -3.668354E+04 -1.947756E+04 -1.924900E+04
       125   8 -3.473386E+05 -1.168487E+05 -7.494499E+04 -8.866945E+03 -2.598416E+04 -1.934459E+04
       125   9 -3.878136E+05 -7.067422E+04 -5.552214E+04 -4.201924E+03 -3.249800E+04 -6.292576E+03
       125  10  5.400885E+05  9.887926E+04  1.129739E+05 -1.974746E+04  1.360174E-09 -1.579452E-10
       125  11  5.788471E+05  1.107839E+05  1.372309E+05 -2.445698E+04  2.504008E-09 -5.921781E-10
       125  12  6.365477E+05  1.840455E+05  1.942371E+05 -5.231564E+04 -4.112212E-10  4.225513E-11
       125  13  1.242634E+05 -3.117895E+03  1.867919E+04 -2.821851E+04 -2.233421E-09 -4.238333E-10
       125  14  1.156545E+05 -3.025314E+03  3.114898E+04 -1.665922E+04  3.946853E-12 -5.849228E-10
       125  15  1.242462E+05  5.669407E+04  6.936581E+04 -2.824890E+04  1.995715E-09 -5.396104E-10
       125  16 -2.914011E+05 -1.051267E+05 -7.562668E+04 -3.668385E+04 -1.457644E-09  3.159992E-10
       125  17 -3.473394E+05 -1.168492E+05 -7.494696E+04 -8.867350E+03 -4.478603E-10 -9.588550E-10
       125  18 -3.878147E+05 -7.067455E+04 -5.552420E+04 -4.202089E+03  8.381478E-10  1.568385E-10
       125  19  5.400887E+05  9.887969E+04  1.129748E+05 -1.974732E+04  9.251773E+03  1.924503E+04
       125  20  5.788486E+05  1.107847E+05  1.372340E+05 -2.445642E+04  3.597158E+04  1.934618E+04
       125  21  6.365519E+05  1.840466E+05  1.942445E+05 -5.231532E+04  6.270162E+04  6.306728E+03
       125  22  1.242637E+05 -3.117441E+03  1.868028E+04 -2.821829E+04  1.436636E+04  1.924708E+04
       125  23  1.156556E+05 -3.024655E+03  3.115149E+04 -1.665874E+04  3.097603E+04  1.934544E+04
       125  24  1.242487E+05  5.669472E+04  6.937014E+04 -2.824866E+04  4.759360E+04  6.300238E+03
       125  25 -2.914006E+05 -1.051262E+05 -7.562527E+04 -3.668354E+04  1.947756E+04  1.924900E+04
       125  26 -3.473386E+05 -1.168487E+05 -7.494499E+04 -8.866945E+03  2.598416E+04  1.934459E+04
       125  27 -3.878136E+05 -7.067422E+04 -5.552214E+04 -4.201924E+03  3.249800E+04  6.292576E+03
       126   1  5.409557E+05  1.550069E+06  5.386240E+05 -2.909283E+05  2.239678E+04  8.013766E+04
       126   2  3.845059E+05  1.072666E+06  3.783161E+05 -1.677085E+05  6.408244E+04  2.799101E+04
       126   3  2.709398E+05  6.131649E+05  2.626737E+05 -2.721550E+05  5.036587E+04 -2.420913E+04
       126   4  3.277801E+04 -4.928501E+05  3.949857E+04 -2.745935E+05  2.248924E+04  2.677165E+04
       126   5 -1.579291E+03 -4.978295E+05  1.791497E+04 -1.607764E+05  6.411682E+04  1.729833E+04
       126   6 -3.782258E+02 -4.924585E+05  1.145411E+04 -2.746537E+05  5.028126E+04  7.731755E+03
       126   7 -4.757058E+05 -2.531963E+06 -4.599207E+05 -2.583101E+05  2.257908E+04 -2.641958E+04
       126   8 -3.878363E+05 -2.066043E+06 -3.426484E+05 -1.538605E+05  6.415101E+04  6.632410E+03
       126   9 -2.717802E+05 -1.596945E+06 -2.398409E+05 -2.771468E+05  5.019631E+04  3.961630E+04
       126  10  5.409535E+05  1.550062E+06  5.386110E+05 -2.909298E+05  4.906142E-10 -5.323383E-10
       126  11  3.845012E+05  1.072664E+06  3.783069E+05 -1.677099E+05 -1.694355E-09 -1.139440E-09
       126  12  2.709370E+05  6.131636E+05  2.626678E+05 -2.721540E+05  2.943097E-10 -3.198910E-10
       126  13  3.277728E+04 -4.928510E+05  3.949627E+04 -2.745940E+05 -3.862509E-10  1.184053E-09
       126  14 -1.583785E+03 -4.978309E+05  1.790669E+04 -1.607773E+05 -4.511493E-10 -9.918633E-10
       126  15 -3.809563E+02 -4.924592E+05  1.144925E+04 -2.746540E+05 -7.409601E-10  1.553937E-09
       126  16 -4.757065E+05 -2.531964E+06 -4.599230E+05 -2.583096E+05 -8.015456E-10  1.115387E-09
       126  17 -3.878407E+05 -2.066044E+06 -3.426562E+05 -1.538608E+05  9.675357E-11  1.502545E-09
       126  18 -2.717833E+05 -1.596948E+06 -2.398486E+05 -2.771484E+05 -2.023769E-09 -1.666221E-09
       126  19  5.409557E+05  1.550069E+06  5.386240E+05 -2.909283E+05 -2.239678E+04 -8.013766E+04
       126  20  3.845059E+05  1.072666E+06  3.783161E+05 -1.677085E+05 -6.408244E+04 -2.799101E+04
       126  21  2.709398E+05  6.131649E+05  2.626737E+05 -2.721550E+05 -5.036587E+04  2.420913E+04
       126  22  3.277801E+04 -4.928501E+05  3.949857E+04 -2.745935E+05 -2.248924E+04 -2.677165E+04
       126  23 -1.579291E+03 -4.978295E+05  1.791497E+04 -1.607764E+05 -6.411682E+04 -1.729833E+04
       126  24 -3.782258E+02 -4.924585E+05  1.145411E+04 -2.746537E+05 -5.028126E+04 -7.731755E+03
       126  25 -4.757058E+05 -2.531963E+06 -4.599207E+05 -2.583101E+05 -2.257908E+04  2.641958E+04
       126  26 -3.878363E+05 -2.066043E+06 -3.426484E+05 -1.538605E+05 -6.415101E+04 -6.632410E+03
       126  27 -2.717802E+05 -1.596945E+06 -2.398409E+05 -2.771468E+05 -5.019631E+04 -3.961630E+04
       127   1  1.698387E+05  1.823020E+05  1.637988E+05 -2.775354E+05  2.998976E+04 -9.662362E+03
       127   2  5.186244E+04 -2.863494E+05  5.368526E+04 -1.606613E+05  9.445447E+03 -1.327002E+04
       127   3 -6.156999E+04 -7.546896E+05 -5.331178E+04 -2.739403E+05 -1.158332E+04 -1.688316E+04
       127   4  3.582457E+03 -4.945645E+05  9.536639E+03 -2.751800E+05  2.994433E+04  5.934976E+03
       127   5  7.256829E+02 -4.945601E+05  6.312304E+03 -1.601035E+05  9.396988E+03  2.696791E+03
       127   6  2.364069E+03 -4.945118E+05  5.960614E+03 -2.751838E+05 -1.163562E+04 -5.495029E+02
       127   7 -1.627054E+05 -1.171005E+06 -1.447545E+05 -2.728267E+05  2.989900E+04  2.151546E+04
       127   8 -5.041394E+04 -7.027301E+05 -4.106251E+04 -1.595458E+05  9.348548E+03  1.865829E+04
       127   9  6.629359E+04 -2.342705E+05  6.522961E+04 -2.764277E+05 -1.168797E+04  1.579094E+04
       127  10  1.698377E+05  1.823017E+05  1.637969E+05 -2.775352E+05 -9.957189E-11  2.191384E-09
       127  11  5.186230E+04 -2.863496E+05  5.368476E+04 -1.606612E+05 -2.046792E-09 -5.613186E-11
       127  12 -6.157021E+04 -7.546900E+05 -5.331257E+04 -2.739405E+05 -4.264417E-10  1.312033E-10
       127  13  3.581484E+03 -4.945648E+05  9.534887E+03 -2.751801E+05  1.216233E-09  2.942817E-09
       127  14  7.255862E+02 -4.945602E+05  6.312124E+03 -1.601035E+05  1.321833E-09 -1.360608E-09
       127  15  2.363924E+03 -4.945118E+05  5.960359E+03 -2.751838E+05 -3.123893E-09  1.869551E-09
       127  16 -1.627065E+05 -1.171006E+06 -1.447570E+05 -2.728272E+05 -2.492380E-09 -6.811180E-10
       127  17 -5.041412E+04 -7.027305E+05 -4.106333E+04 -1.595460E+05  5.417078E-10  9.184601E-10
       127  18  6.629337E+04 -2.342708E+05  6.522888E+04 -2.764275E+05 -6.783713E-10 -2.407461E-09
       127  19  1.698387E+05  1.823020E+05  1.637988E+05 -2.775354E+05 -2.998976E+04  9.662362E+03
       127  20  5.186244E+04 -2.863494E+05  5.368526E+04 -1.606613E+05 -9.445447E+03  1.327002E+04
       127  21 -6.156999E+04 -7.546896E+05 -5.331178E+04 -2.739403E+05  1.158332E+04  1.688316E+04
       127  22  3.582457E+03 -4.945645E+05  9.536639E+03 -2.751800E+05 -2.994433E+04 -5.934976E+03
       127  23  7.256829E+02 -4.945601E+05  6.312304E+03 -1.601035E+05 -9.396988E+03 -2.696791E+03
       127  24  2.364069E+03 -4.945118E+05  5.960614E+03 -2.751838E+05  1.163562E+04  5.495029E+02
       127  25 -1.627054E+05 -1.171005E+06 -1.447545E+05 -2.728267E+05 -2.989900E+04 -2.151546E+04
       127  26 -5.041394E+04 -7.027301E+05 -4.106251E+04 -1.595458E+05 -9.348548E+03 -1.865829E+04
       127  27  6.629359E+04 -2.342705E+05  6.522961E+04 -2.764277E+05  1.168797E+04 -1.579094E+04
       128   1 -1.681790E+05 -1.182196E+06 -1.506228E+05 -2.751071E+05 -3.081509E+04 -3.102030E+04
       128   2 -2.842443E+05 -1.649148E+06 -2.575475E+05 -1.566591E+05 -4.660430E+04 -5.291155E+02
       128   3 -3.912136E+05 -2.118176E+06 -3.822530E+05 -2.665544E+05 -1.715034E+04  3.003944E+04
       128   4  9.900370E+02 -4.937875E+05  6.186522E+03 -2.747826E+05 -3.090425E+04 -1.644704E+03
       128   5 -1.903228E+02 -4.958052E+05  7.848545E+03 -1.606108E+05 -4.658465E+04 -5.836171E+03
       128   6  1.375822E+04 -4.940791E+05  1.585304E+04 -2.747531E+05 -1.705978E+04 -9.926777E+03
       128   7  1.701266E+05  1.950633E+05  1.629682E+05 -2.744572E+05 -3.099332E+04  2.776323E+04
       128   8  2.837706E+05  6.587713E+05  2.731566E+05 -1.645690E+05 -4.656495E+04 -1.115302E+04
       128   9  4.185353E+05  1.132430E+06  4.137717E+05 -2.829716E+05 -1.696831E+04 -4.999759E+04
       128  10 -1.681802E+05 -1.182197E+06 -1.506264E+05 -2.751079E+05 -1.672163E-09  9.440842E-09
       128  11 -2.842466E+05 -1.649149E+06 -2.575516E+05 -1.566591E+05 -1.477271E-09  8.817959E-12
       128  12 -3.912141E+05 -2.118177E+06 -3.822553E+05 -2.665540E+05 -9.264156E-10 -7.525970E-09
       128  13  9.890109E+02 -4.937878E+05  6.184722E+03 -2.747826E+05 -2.914164E-09  3.038828E-09
       128  14 -1.926619E+02 -4.958058E+05  7.844403E+03 -1.606110E+05 -1.007362E-09 -1.227901E-09
       128  15  1.375788E+04 -4.940793E+05  1.585231E+04 -2.747533E+05 -6.743501E-10  1.014719E-09
       128  16  1.701254E+05  1.950622E+05  1.629650E+05 -2.744566E+05 -4.965778E-10 -7.905367E-09
       128  17  2.837683E+05  6.587706E+05  2.731523E+05 -1.645694E+05 -1.527280E-10  7.066426E-10
       128  18  4.185343E+05  1.132427E+06  4.137664E+05 -2.829723E+05 -4.216005E-10  5.989960E-09
       128  19 -1.681790E+05 -1.182196E+06 -1.506228E+05 -2.751071E+05  3.081509E+04  3.102030E+04
       128  20 -2.842443E+05 -1.649148E+06 -2.575475E+05 -1.566591E+05  4.660430E+04  5.291155E+02
       128  21 -3.912136E+05 -2.118176E+06 -3.822530E+05 -2.665544E+05  1.715034E+04 -3.003944E+04
       128  22  9.900370E+02 -4.937875E+05  6.186522E+03 -2.747826E+05  3.090425E+04  1.644704E+03
       128  23 -1.903228E+02 -4.958052E+05  7.848545E+03 -1.606108E+05  4.658465E+04  5.836171E+03
       128  24  1.375822E+04 -4.940791E+05  1.585304E+04 -2.747531E+05  1.705978E+04  9.926777E+03
       128  25  1.701266E+05  1.950633E+05  1.629682E+05 -2.744572E+05  3.099332E+04 -2.776323E+04
       128  26  2.837706E+05  6.587713E+05  2.731566E+05 -1.645690E+05  4.656495E+04  1.115302E+04
       128  27  4.185353E+05  1.132430E+06  4.137717E+05 -2.829716E+05  1.696831E+04  4.999759E+04
       129   1 -1.807886E+06 -5.579219E+05 -3.076119E+05 -6.633005E+05 -1.356514E+05 -4.443442E+04
       129   2 -1.761886E+06 -3.576735E+05 -1.817148E+05 -6.590744E+05 -8.765172E+04 -1.282768E+04
       129   3 -1.766691E+06 -3.272434E+05 -1.374352E+05 -6.317473E+05 -3.507788E+04  6.625216E+03
       129   4 -1.411330E+06 -3.509288E+05 -1.896387E+05 -4.962570E+05 -1.228155E+05 -3.962474E+04
       129   5 -1.376612E+06 -1.951244E+05 -8.100066E+04 -5.347545E+05 -8.351158E+04 -1.127610E+04
       129   6 -1.390935E+06 -2.073593E+05 -4.703894E+04 -5.501633E+05 -3.963661E+04  4.913636E+03
       129   7 -1.014614E+06 -1.438782E+05 -7.168027E+04 -3.291029E+05 -1.099706E+05 -3.480869E+04
       129   8 -9.911917E+05 -3.255391E+04  1.970101E+04 -4.103602E+05 -7.936862E+04 -9.723142E+03
       129   9 -1.015039E+06 -8.747398E+04  4.334779E+04 -4.685381E+05 -4.419837E+04  3.201297E+03
       129  10 -1.807906E+06 -5.579290E+05 -3.076503E+05 -6.633054E+05  8.994725E-10 -4.857472E-12
       129  11 -1.761894E+06 -3.576758E+05 -1.817295E+05 -6.590753E+05 -7.398047E-10 -7.597290E-10
       129  12 -1.766692E+06 -3.272438E+05 -1.374376E+05 -6.317472E+05  4.101305E-10 -5.507811E-10
       129  13 -1.411347E+06 -3.509345E+05 -1.896701E+05 -4.962609E+05 -8.694237E-12  1.906320E-11
       129  14 -1.376620E+06 -1.951264E+05 -8.101403E+04 -5.347552E+05  7.547549E-10 -5.524926E-10
       129  15 -1.390937E+06 -2.073598E+05 -4.704194E+04 -5.501631E+05  1.055268E-09 -3.407628E-11
       129  16 -1.014627E+06 -1.438827E+05 -7.170532E+04 -3.291059E+05 -2.662171E-09 -9.485534E-10
       129  17 -9.911985E+05 -3.255571E+04  1.968898E+04 -4.103609E+05  3.480062E-10 -1.203165E-09
       129  18 -1.015041E+06 -8.747451E+04  4.334410E+04 -4.685380E+05  4.577998E-10  1.997251E-10
       129  19 -1.807886E+06 -5.579219E+05 -3.076119E+05 -6.633005E+05  1.356514E+05  4.443442E+04
       129  20 -1.761886E+06 -3.576735E+05 -1.817148E+05 -6.590744E+05  8.765172E+04  1.282768E+04
       129  21 -1.766691E+06 -3.272434E+05 -1.374352E+05 -6.317473E+05  3.507788E+04 -6.625216E+03
       129  22 -1.411330E+06 -3.509288E+05 -1.896387E+05 -4.962570E+05  1.228155E+05  3.962474E+04
       129  23 -1.376612E+06 -1.951244E+05 -8.100066E+04 -5.347545E+05  8.351158E+04  1.127610E+04
       129  24 -1.390935E+06 -2.073593E+05 -4.703894E+04 -5.501633E+05  3.963661E+04 -4.913636E+03
       129  25 -1.014614E+06 -1.438782E+05 -7.168027E+04 -3.291029E+05  1.099706E+05  3.480869E+04
       129  26 -9.911917E+05 -3.255391E+04  1.970101E+04 -4.103602E+05  7.936862E+04  9.723142E+03
       129  27 -1.015039E+06 -8.747398E+04  4.334779E+04 -4.685381E+05  4.419837E+04 -3.201297E+03
       130   1 -1.704962E+06 -3.473996E+05 -1.190175E+05 -6.318605E+05 -3.158492E+04  4.904003E+03
       130   2 -1.671043E+06 -3.115487E+05 -9.003798E+04 -6.134177E+05 -2.091307E+04  7.267217E+03
       130   3 -1.627667E+06 -3.028457E+05 -7.183531E+04 -6.096184E+05 -1.000658E+04  9.004558E+03
       130   4 -1.384702E+06 -2.239952E+05 -3.767245E+04 -5.405331E+05 -3.240338E+04  4.595875E+03
       130   5 -1.388703E+06 -2.050652E+05 -1.894214E+04 -5.352344E+05 -2.217558E+04  6.792866E+03
       130   6 -1.383159E+06 -2.131906E+05 -1.063153E+04 -5.445793E+05 -1.171389E+04  8.363768E+03
       130   7 -1.064341E+06 -1.005824E+05  4.366433E+04 -4.491624E+05 -3.322230E+04  4.287562E+03
       130   8 -1.106286E+06 -9.857635E+04  5.214719E+04 -4.570188E+05 -2.343871E+04  6.318276E+03
       130   9 -1.138594E+06 -1.235326E+05  5.056728E+04 -4.795176E+05 -1.342192E+04  7.722717E+03
       130  10 -1.704964E+06 -3.473999E+05 -1.190195E+05 -6.318603E+05  2.669278E-10  5.558333E-11
       130  11 -1.671043E+06 -3.115489E+05 -9.003890E+04 -6.134176E+05 -8.318961E-10  5.450476E-10
       130  12 -1.627668E+06 -3.028458E+05 -7.183565E+04 -6.096183E+05  1.201224E-09  2.912605E-11
       130  13 -1.384703E+06 -2.239955E+05 -3.767447E+04 -5.405330E+05  3.704075E-10  2.556808E-10
       130  14 -1.388704E+06 -2.050654E+05 -1.894315E+04 -5.352343E+05  1.335022E-10  2.970225E-10
       130  15 -1.383160E+06 -2.131907E+05 -1.063192E+04 -5.445793E+05  7.966814E-10 -7.186573E-10
       130  16 -1.064342E+06 -1.005827E+05  4.366222E+04 -4.491623E+05 -5.959827E-10  6.720957E-10
       130  17 -1.106287E+06 -9.857654E+04  5.214608E+04 -4.570187E+05 -1.640045E-09  1.780908E-10
       130  18 -1.138594E+06 -1.235327E+05  5.056683E+04 -4.795175E+05 -1.119381E-09 -1.324128E-09
       130  19 -1.704962E+06 -3.473996E+05 -1.190175E+05 -6.318605E+05  3.158492E+04 -4.904003E+03
       130  20 -1.671043E+06 -3.115487E+05 -9.003798E+04 -6.134177E+05  2.091307E+04 -7.267217E+03
       130  21 -1.627667E+06 -3.028457E+05 -7.183531E+04 -6.096184E+05  1.000658E+04 -9.004558E+03
       130  22 -1.384702E+06 -2.239952E+05 -3.767245E+04 -5.405331E+05  3.240338E+04 -4.595875E+03
       130  23 -1.388703E+06 -2.050652E+05 -1.894214E+04 -5.352344E+05  2.217558E+04 -6.792866E+03
       130  24 -1.383159E+06 -2.131906E+05 -1.063153E+04 -5.445793E+05  1.171389E+04 -8.363768E+03
       130  25 -1.064341E+06 -1.005824E+05  4.366433E+04 -4.491624E+05  3.322230E+04 -4.287562E+03
       130  26 -1.106286E+06 -9.857635E+04  5.214719E+04 -4.570188E+05  2.343871E+04 -6.318276E+03
       130  27 -1.138594E+06 -1.235326E+05  5.056728E+04 -4.795176E+05  1.342192E+04 -7.722717E+03
       131   1 -1.586882E+06 -2.909221E+05 -5.937346E+04 -5.998713E+05 -8.180273E+03  8.165265E+03
       131   2 -1.553685E+06 -2.670155E+05 -4.553064E+04 -5.799506E+05 -5.130108E+03  6.854834E+03
       131   3 -1.505587E+06 -2.595602E+05 -3.360077E+04 -5.776629E+05 -2.064744E+03  5.502563E+03
       131   4 -1.382477E+06 -2.144621E+05 -8.162004E+03 -5.438806E+05 -9.710492E+03  7.591088E+03
       131   5 -1.389870E+06 -2.058441E+05 -4.410242E+03 -5.352108E+05 -6.689634E+03  6.269890E+03
       131   6 -1.382360E+06 -2.136714E+05 -2.547775E+03 -5.441743E+05 -3.653745E+03  4.906806E+03
       131   7 -1.178030E+06 -1.379989E+05  4.304641E+04 -4.878730E+05 -1.124127E+04  7.016700E+03
       131   8 -1.226029E+06 -1.446707E+05  3.670814E+04 -4.904602E+05 -8.249613E+03  5.684777E+03
       131   9 -1.259117E+06 -1.677817E+05  2.850402E+04 -5.106798E+05 -5.243093E+03  4.310920E+03
       131  10 -1.586882E+06 -2.909222E+05 -5.937371E+04 -5.998712E+05 -1.940804E-10 -6.168541E-10
       131  11 -1.553685E+06 -2.670156E+05 -4.553078E+04 -5.799506E+05  4.464718E-09  9.954250E-10
       131  12 -1.505587E+06 -2.595602E+05 -3.360083E+04 -5.776628E+05  2.489311E-09  5.728053E-10
       131  13 -1.382477E+06 -2.144622E+05 -8.162289E+03 -5.438806E+05  1.691899E-09 -2.961417E-10
       131  14 -1.389870E+06 -2.058441E+05 -4.410400E+03 -5.352108E+05  1.219596E-09  7.191639E-10
       131  15 -1.382360E+06 -2.136714E+05 -2.547845E+03 -5.441743E+05  1.642884E-09 -9.785567E-11
       131  16 -1.178030E+06 -1.379990E+05  4.304608E+04 -4.878730E+05  2.973893E-09 -1.350206E-10
       131  17 -1.226029E+06 -1.446708E+05  3.670796E+04 -4.904601E+05 -9.452319E-10  6.246326E-10
       131  18 -1.259117E+06 -1.677817E+05  2.850394E+04 -5.106798E+05 -4.500596E-10  4.434706E-11
       131  19 -1.586882E+06 -2.909221E+05 -5.937346E+04 -5.998713E+05  8.180273E+03 -8.165265E+03
       131  20 -1.553685E+06 -2.670155E+05 -4.553064E+04 -5.799506E+05  5.130108E+03 -6.854834E+03
       131  21 -1.505587E+06 -2.595602E+05 -3.360077E+04 -5.776629E+05  2.064744E+03 -5.502563E+03
       131  22 -1.382477E+06 -2.144621E+05 -8.162004E+03 -5.438806E+05  9.710492E+03 -7.591088E+03
       131  23 -1.389870E+06 -2.058441E+05 -4.410242E+03 -5.352108E+05  6.689634E+03 -6.269890E+03
       131  24 -1.382360E+06 -2.136714E+05 -2.547775E+03 -5.441743E+05  3.653745E+03 -4.906806E+03
       131  25 -1.178030E+06 -1.379989E+05  4.304641E+04 -4.878730E+05  1.124127E+04 -7.016700E+03
       131  26 -1.226029E+06 -1.446707E+05  3.670814E+04 -4.904602E+05  8.249613E+03 -5.684777E+03
       131  27 -1.259117E+06 -1.677817E+05  2.850402E+04 -5.106798E+05  5.243093E+03 -4.310920E+03
       132   1 -1.466027E+06 -2.450233E+05 -2.288828E+04 -5.670211E+05 -1.211612E+03  4.353017E+03
       132   2 -1.432688E+06 -2.218052E+05 -1.206618E+04 -5.468180E+05  2.979390E+02  2.398083E+03
       132   3 -1.383804E+06 -2.143372E+05 -1.772138E+03 -5.445779E+05  1.809141E+03  4.383211E+02
       132   4 -1.382253E+06 -2.137827E+05 -2.011823E+03 -5.441471E+05 -2.796136E+03  3.759036E+03
       132   5 -1.390020E+06 -2.058827E+05 -1.358756E+03 -5.351745E+05 -1.290004E+03  1.802881E+03
       132   6 -1.382244E+06 -2.137323E+05 -1.230994E+03 -5.441655E+05  2.177249E+02 -1.581084E+02
       132   7 -1.298471E+06 -1.825416E+05  1.886406E+04 -5.212703E+05 -4.380893E+03  3.164967E+03
       132   8 -1.347351E+06 -1.899602E+05  9.348479E+03 -5.235303E+05 -2.878058E+03  1.207637E+03
       132   9 -1.380685E+06 -2.131275E+05 -6.898430E+02 -5.437531E+05 -1.373683E+03 -7.545350E+02
       132  10 -1.466027E+06 -2.450234E+05 -2.288832E+04 -5.670211E+05  8.482033E-10 -6.880845E-11
       132  11 -1.432688E+06 -2.218052E+05 -1.206619E+04 -5.468180E+05  3.070006E-09  1.066108E-09
       132  12 -1.383804E+06 -2.143372E+05 -1.772145E+03 -5.445779E+05  1.249987E-09  1.014877E-09
       132  13 -1.382253E+06 -2.137827E+05 -2.011864E+03 -5.441471E+05  2.249527E-09 -1.046464E-10
       132  14 -1.390020E+06 -2.058827E+05 -1.358765E+03 -5.351745E+05 -5.204208E-10  6.882682E-10
       132  15 -1.382244E+06 -2.137323E+05 -1.230994E+03 -5.441655E+05 -3.990019E-10  2.544654E-11
       132  16 -1.298471E+06 -1.825416E+05  1.886401E+04 -5.212703E+05  9.012917E-10  2.414023E-10
       132  17 -1.347351E+06 -1.899602E+05  9.348461E+03 -5.235303E+05 -8.701331E-10  3.912733E-11
       132  18 -1.380685E+06 -2.131275E+05 -6.898477E+02 -5.437531E+05 -5.598228E-10 -9.840961E-10
       132  19 -1.466027E+06 -2.450233E+05 -2.288828E+04 -5.670211E+05  1.211612E+03 -4.353017E+03
       132  20 -1.432688E+06 -2.218052E+05 -1.206618E+04 -5.468180E+05 -2.979390E+02 -2.398083E+03
       132  21 -1.383804E+06 -2.143372E+05 -1.772138E+03 -5.445779E+05 -1.809141E+03 -4.383211E+02
       132  22 -1.382253E+06 -2.137827E+05 -2.011823E+03 -5.441471E+05  2.796136E+03 -3.759036E+03
       132  23 -1.390020E+06 -2.058827E+05 -1.358756E+03 -5.351745E+05  1.290004E+03 -1.802881E+03
       132  24 -1.382244E+06 -2.137323E+05 -1.230994E+03 -5.441655E+05 -2.177249E+02  1.581084E+02
       132  25 -1.298471E+06 -1.825416E+05  1.886406E+04 -5.212703E+05  4.380893E+03 -3.164967E+03
       132  26 -1.347351E+06 -1.899602E+05  9.348479E+03 -5.235303E+05  2.878058E+03 -1.207637E+03
       132  27 -1.380685E+06 -2.131275E+05 -6.898430E+02 -5.437531E+05  1.373683E+03  7.545350E+02
       133   1 -1.344259E+06 -1.995332E+05  8.357629E+03 -5.338188E+05  2.503871E+03 -7.732079E+02
       133   2 -1.310965E+06 -1.764011E+05  1.793697E+04 -5.136240E+05  4.272220E+03 -2.633317E+03
       133   3 -1.262200E+06 -1.690383E+05  2.678512E+04 -5.113596E+05  6.038070E+03 -4.485623E+03
       133   4 -1.382260E+06 -2.137244E+05 -1.326159E+03 -5.441631E+05  9.132562E+02 -1.369355E+03
       133   5 -1.390001E+06 -2.058831E+05 -1.893607E+03 -5.351815E+05  2.686996E+03 -3.227572E+03
       133   6 -1.382274E+06 -2.138124E+05 -3.196307E+03 -5.441311E+05  4.458163E+03 -5.078002E+03
       133   7 -1.420259E+06 -2.279157E+05 -1.101015E+04 -5.545070E+05 -6.772662E+02 -1.965467E+03
       133   8 -1.469032E+06 -2.353650E+05 -2.172482E+04 -5.567367E+05  1.101981E+03 -3.821749E+03
       133   9 -1.502335E+06 -2.585858E+05 -3.317902E+04 -5.768971E+05  2.878582E+03 -5.670259E+03
       133  10 -1.344259E+06 -1.995332E+05  8.357616E+03 -5.338187E+05 -9.693472E-10  1.902019E-10
       133  11 -1.310965E+06 -1.764011E+05  1.793692E+04 -5.136240E+05  3.004734E-09 -2.532197E-10
       133  12 -1.262200E+06 -1.690383E+05  2.678501E+04 -5.113596E+05  2.384806E-09  1.145313E-09
       133  13 -1.382260E+06 -2.137244E+05 -1.326164E+03 -5.441631E+05  7.895639E-11 -3.198148E-10
       133  14 -1.390001E+06 -2.058832E+05 -1.893640E+03 -5.351815E+05  8.949002E-10 -5.901726E-11
       133  15 -1.382274E+06 -2.138124E+05 -3.196393E+03 -5.441311E+05  3.778866E-10  1.209950E-09
       133  16 -1.420259E+06 -2.279157E+05 -1.101016E+04 -5.545070E+05 -1.173047E-09 -8.830123E-10
       133  17 -1.469032E+06 -2.353650E+05 -2.172485E+04 -5.567367E+05  9.266637E-10  5.410234E-11
       133  18 -1.502335E+06 -2.585858E+05 -3.317910E+04 -5.768971E+05  4.142056E-09  1.050455E-09
       133  19 -1.344259E+06 -1.995332E+05  8.357629E+03 -5.338188E+05 -2.503871E+03  7.732079E+02
       133  20 -1.310965E+06 -1.764011E+05  1.793697E+04 -5.136240E+05 -4.272220E+03  2.633317E+03
       133  21 -1.262200E+06 -1.690383E+05  2.678512E+04 -5.113596E+05 -6.038070E+03  4.485623E+03
       133  22 -1.382260E+06 -2.137244E+05 -1.326159E+03 -5.441631E+05 -9.132562E+02  1.369355E+03
       133  23 -1.390001E+06 -2.058831E+05 -1.893607E+03 -5.351815E+05 -2.686996E+03  3.227572E+03
       133  24 -1.382274E+06 -2.138124E+05 -3.196307E+03 -5.441311E+05 -4.458163E+03  5.078002E+03
       133  25 -1.420259E+06 -2.279157E+05 -1.101015E+04 -5.545070E+05  6.772662E+02  1.965467E+03
       133  26 -1.469032E+06 -2.353650E+05 -2.172482E+04 -5.567367E+05 -1.101981E+03  3.821749E+03
       133  27 -1.502335E+06 -2.585858E+05 -3.317902E+04 -5.768971E+05 -2.878582E+03  5.670259E+03
       134   1 -1.222993E+06 -1.543365E+05  3.595010E+04 -5.009220E+05  7.128374E+03 -5.541054E+03
       134   2 -1.189970E+06 -1.312137E+05  4.271366E+04 -4.806680E+05  1.163952E+04 -6.338432E+03
       134   3 -1.142544E+06 -1.251053E+05  4.631773E+04 -4.778516E+05  1.613421E+04 -7.088804E+03
       134   4 -1.382453E+06 -2.136361E+05 -4.169165E+03 -5.441935E+05  5.544580E+03 -6.135016E+03
       134   5 -1.389747E+06 -2.057942E+05 -7.420396E+03 -5.352251E+05  1.008804E+04 -6.920565E+03
       134   6 -1.382649E+06 -2.149742E+05 -1.385768E+04 -5.436952E+05  1.461479E+04 -7.659191E+03
       134   7 -1.541886E+06 -2.729335E+05 -4.429010E+04 -5.874546E+05  3.961244E+03 -6.728809E+03
       134   8 -1.589485E+06 -2.803720E+05 -5.755746E+04 -5.897662E+05  8.537099E+03 -7.502491E+03
       134   9 -1.622698E+06 -3.048394E+05 -7.403780E+04 -6.095160E+05  1.309600E+04 -8.229338E+03
       134  10 -1.222993E+06 -1.543366E+05  3.594995E+04 -5.009220E+05  5.283712E-09  2.254762E-09
       134  11 -1.189970E+06 -1.312138E+05  4.271333E+04 -4.806679E+05  1.062974E-09  1.968886E-10
       134  12 -1.142545E+06 -1.251054E+05  4.631714E+04 -4.778515E+05 -2.376793E-09 -1.444696E-09
       134  13 -1.382453E+06 -2.136361E+05 -4.169293E+03 -5.441935E+05  1.566230E-09  1.502053E-09
       134  14 -1.389747E+06 -2.057943E+05 -7.420677E+03 -5.352250E+05 -3.079586E-09 -2.176681E-10
       134  15 -1.382649E+06 -2.149743E+05 -1.385819E+04 -5.436951E+05 -4.850912E-09 -1.184372E-09
       134  16 -1.541886E+06 -2.729336E+05 -4.429022E+04 -5.874546E+05  1.652347E-09  4.398869E-10
       134  17 -1.589485E+06 -2.803720E+05 -5.755771E+04 -5.897661E+05 -1.361601E-10  3.597626E-10
       134  18 -1.622698E+06 -3.048395E+05 -7.403825E+04 -6.095159E+05 -4.069968E-09 -7.191325E-10
       134  19 -1.222993E+06 -1.543365E+05  3.595010E+04 -5.009220E+05 -7.128374E+03  5.541054E+03
       134  20 -1.189970E+06 -1.312137E+05  4.271366E+04 -4.806680E+05 -1.163952E+04  6.338432E+03
       134  21 -1.142544E+06 -1.251053E+05  4.631773E+04 -4.778516E+05 -1.613421E+04  7.088804E+03
       134  22 -1.382453E+06 -2.136361E+05 -4.169165E+03 -5.441935E+05 -5.544580E+03  6.135016E+03
       134  23 -1.389747E+06 -2.057942E+05 -7.420396E+03 -5.352251E+05 -1.008804E+04  6.920565E+03
       134  24 -1.382649E+06 -2.149742E+05 -1.385768E+04 -5.436952E+05 -1.461479E+04  7.659191E+03
       134  25 -1.541886E+06 -2.729335E+05 -4.429010E+04 -5.874546E+05 -3.961244E+03  6.728809E+03
       134  26 -1.589485E+06 -2.803720E+05 -5.755746E+04 -5.897662E+05 -8.537099E+03  7.502491E+03
       134  27 -1.622698E+06 -3.048394E+05 -7.403780E+04 -6.095160E+05 -1.309600E+04  8.229338E+03
       135   1 -1.102886E+06 -1.108335E+05  5.200980E+04 -4.711922E+05  1.937675E+04 -7.391939E+03
       135   2 -1.070772E+06 -8.429636E+04  4.764427E+04 -4.468163E+05  3.616383E+04 -3.416867E+03
       135   3 -1.033144E+06 -9.296061E+04  2.590435E+04 -4.350202E+05  5.269966E+04  1.232999E+03
       135   4 -1.383776E+06 -2.128524E+05 -1.808183E+04 -5.449386E+05  1.766746E+04 -8.033713E+03
       135   5 -1.387795E+06 -2.043985E+05 -3.225630E+04 -5.352016E+05  3.493013E+04 -3.880766E+03
       135   6 -1.386400E+06 -2.312483E+05 -6.418982E+04 -5.380450E+05  5.194055E+04  9.464957E+02
       135   7 -1.664588E+06 -3.148669E+05 -8.817929E+04 -6.186550E+05  1.595902E+04 -8.675187E+03
       135   8 -1.704719E+06 -3.244934E+05 -1.121649E+05 -6.235457E+05  3.369712E+04 -4.344400E+03
       135   9 -1.739534E+06 -3.695252E+05 -1.542946E+05 -6.410157E+05  5.118189E+04  6.601845E+02
       135  10 -1.102887E+06 -1.108336E+05  5.200899E+04 -4.711921E+05 -3.843855E-09 -1.733657E-09
       135  11 -1.070774E+06 -8.429673E+04  4.764178E+04 -4.468162E+05 -4.535996E-09 -1.090274E-09
       135  12 -1.033146E+06 -9.296136E+04  2.589912E+04 -4.350203E+05 -4.197554E-09 -8.505873E-10
       135  13 -1.383777E+06 -2.128526E+05 -1.808254E+04 -5.449385E+05 -4.019662E-09 -1.348700E-09
       135  14 -1.387796E+06 -2.043989E+05 -3.225863E+04 -5.352015E+05 -6.089415E-09 -9.375113E-10
       135  15 -1.386403E+06 -2.312491E+05 -6.419490E+04 -5.380450E+05 -3.081694E-09 -1.111669E-09
       135  16 -1.664588E+06 -3.148670E+05 -8.817991E+04 -6.186549E+05 -3.684627E-09 -1.045133E-09
       135  17 -1.704720E+06 -3.244937E+05 -1.121671E+05 -6.235455E+05 -4.007053E-09 -1.219211E-09
       135  18 -1.739537E+06 -3.695259E+05 -1.542995E+05 -6.410158E+05 -4.289255E-09 -8.737212E-10
       135  19 -1.102886E+06 -1.108335E+05  5.200980E+04 -4.711922E+05 -1.937675E+04  7.391939E+03
       135  20 -1.070772E+06 -8.429636E+04  4.764427E+04 -4.468163E+05 -3.616383E+04  3.416867E+03
       135  21 -1.033144E+06 -9.296061E+04  2.590435E+04 -4.350202E+05 -5.269966E+04 -1.232999E+03
       135  22 -1.383776E+06 -2.128524E+05 -1.808183E+04 -5.449386E+05 -1.766746E+04  8.033713E+03
       135  23 -1.387795E+06 -2.043985E+05 -3.225630E+04 -5.352016E+05 -3.493013E+04  3.880766E+03
       135  24 -1.386400E+06 -2.312483E+05 -6.418982E+04 -5.380450E+05 -5.194055E+04 -9.464957E+02
       135  25 -1.664588E+06 -3.148669E+05 -8.817929E+04 -6.186550E+05 -1.595902E+04  8.675187E+03
       135  26 -1.704719E+06 -3.244934E+05 -1.121649E+05 -6.235457E+05 -3.369712E+04  4.344400E+03
       135  27 -1.739534E+06 -3.695252E+05 -1.542946E+05 -6.410157E+05 -5.118189E+04 -6.601845E+02
       136   1 -9.760642E+05 -8.082019E+04  1.883893E+04 -4.755988E+05  6.837531E+04  3.979769E+03
       136   2 -9.574469E+05 -2.626586E+03 -2.877033E+04 -3.897963E+05  1.336809E+05  2.843074E+04
       136   3 -1.030897E+06 -1.985166E+05 -1.961884E+05 -2.528445E+05  1.940779E+05  6.595269E+04
       136   4 -1.396913E+06 -2.030108E+05 -8.015605E+04 -5.545899E+05  6.359651E+04  2.187804E+03
       136   5 -1.367300E+06 -1.872978E+05 -1.380133E+05 -5.342245E+05  1.382327E+05  3.013260E+04
       136   6 -1.431690E+06 -4.476496E+05 -3.231474E+05 -4.626915E+05  2.079578E+05  7.113474E+04
       136   7 -1.817588E+06 -3.252041E+05 -1.791627E+05 -6.335401E+05  5.882123E+04  3.964842E+02
       136   8 -1.776981E+06 -3.719335E+05 -2.472697E+05 -6.785573E+05  1.427811E+05  3.183262E+04
       136   9 -1.832295E+06 -6.966639E+05 -4.501169E+05 -6.723848E+05  2.218275E+05  7.630746E+04
       136  10 -9.760693E+05 -8.082147E+04  1.883011E+04 -4.755991E+05 -4.253195E-09 -4.266138E-10
       136  11 -9.574663E+05 -2.632265E+03 -2.880549E+04 -3.897994E+05  2.077031E-10  6.597916E-10
       136  12 -1.030939E+06 -1.985314E+05 -1.962675E+05 -2.528548E+05  7.485216E-10  1.276016E-09
       136  13 -1.396917E+06 -2.030119E+05 -8.016368E+04 -5.545900E+05 -6.471173E-10 -7.388696E-10
       136  14 -1.367321E+06 -1.873039E+05 -1.380510E+05 -5.342279E+05  2.064300E-09 -1.308998E-10
       136  15 -1.431738E+06 -4.476667E+05 -3.232384E+05 -4.627035E+05  6.749405E-10  6.845233E-10
       136  16 -1.817591E+06 -3.252050E+05 -1.791692E+05 -6.335401E+05 -1.886990E-09 -2.725474E-10
       136  17 -1.777004E+06 -3.719401E+05 -2.473101E+05 -6.785609E+05  8.414539E-10 -2.660530E-10
       136  18 -1.832349E+06 -6.966835E+05 -4.502207E+05 -6.723985E+05 -2.566156E-10 -4.888802E-10
       136  19 -9.760642E+05 -8.082019E+04  1.883893E+04 -4.755988E+05 -6.837531E+04 -3.979769E+03
       136  20 -9.574469E+05 -2.626586E+03 -2.877033E+04 -3.897963E+05 -1.336809E+05 -2.843074E+04
       136  21 -1.030897E+06 -1.985166E+05 -1.961884E+05 -2.528445E+05 -1.940779E+05 -6.595269E+04
       136  22 -1.396913E+06 -2.030108E+05 -8.015605E+04 -5.545899E+05 -6.359651E+04 -2.187804E+03
       136  23 -1.367300E+06 -1.872978E+05 -1.380133E+05 -5.342245E+05 -1.382327E+05 -3.013260E+04
       136  24 -1.431690E+06 -4.476496E+05 -3.231474E+05 -4.626915E+05 -2.079578E+05 -7.113474E+04
       136  25 -1.817588E+06 -3.252041E+05 -1.791627E+05 -6.335401E+05 -5.882123E+04 -3.964842E+02
       136  26 -1.776981E+06 -3.719335E+05 -2.472697E+05 -6.785573E+05 -1.427811E+05 -3.183262E+04
       136  27 -1.832295E+06 -6.966639E+05 -4.501169E+05 -6.723848E+05 -2.218275E+05 -7.630746E+04
       137   1 -1.535124E+05 -1.863474E+04 -1.289729E+03  1.108388E+04  4.826783E+04  4.416400E+03
       137   2 -1.313804E+05 -8.336508E+04 -3.576486E+04 -1.330228E+03  3.476397E+04  1.355899E+04
       137   3 -8.929899E+04 -7.564384E+04 -4.331940E+04 -2.915542E+04  2.126483E+04  1.356115E+04
       137   4  2.033438E+05  7.008736E+04  8.572065E+04 -1.874883E+04  5.882816E+04  4.420740E+03
       137   5  1.927718E+05 -3.695522E+03  3.849781E+04 -1.102281E+04  3.829519E+04  1.355980E+04
       137   6  2.033559E+05 -3.828852E+03  2.306517E+04 -1.870655E+04  1.776783E+04  1.355969E+04
       137   7  5.603184E+05  1.588035E+05  1.727227E+05 -4.859876E+04  6.939455E+04  4.424063E+03
       137   8  5.170215E+05  7.596708E+04  1.127537E+05 -2.072050E+04  4.182825E+04  1.356050E+04
       137   9  4.960905E+05  6.798065E+04  8.944431E+04 -8.252715E+03  1.426920E+04  1.355811E+04
       137  10 -1.535149E+05 -1.863539E+04 -1.294145E+03  1.108371E+04  1.976665E-09 -8.630783E-10
       137  11 -1.313818E+05 -8.336560E+04 -3.576747E+04 -1.330608E+03  1.428277E-09 -1.195996E-10
       137  12 -8.929952E+04 -7.564416E+04 -4.332059E+04 -2.915565E+04 -2.801598E-09  3.551439E-10
       137  13  2.033401E+05  7.008641E+04  8.571411E+04 -1.874904E+04  6.515844E-11  2.814149E-10
       137  14  1.927702E+05 -3.696113E+03  3.849471E+04 -1.102322E+04  1.678829E-09 -1.953393E-10
       137  15  2.033555E+05 -3.829134E+03  2.306423E+04 -1.870674E+04  1.261497E-09  6.795104E-11
       137  16  5.603132E+05  1.588022E+05  1.727136E+05 -4.859900E+04 -1.748408E-10  3.586245E-10
       137  17  5.170196E+05  7.596641E+04  1.127500E+05 -2.072096E+04  1.835466E-09  1.746126E-11
       137  18  4.960902E+05  6.798039E+04  8.944358E+04 -8.252870E+03  3.208033E-09  1.196760E-09
       137  19 -1.535124E+05 -1.863474E+04 -1.289729E+03  1.108388E+04 -4.826783E+04 -4.416400E+03
       137  20 -1.313804E+05 -8.336508E+04 -3.576486E+04 -1.330228E+03 -3.476397E+04 -1.355899E+04
       137  21 -8.929899E+04 -7.564384E+04 -4.331940E+04 -2.915542E+04 -2.126483E+04 -1.356115E+04
       137  22  2.033438E+05  7.008736E+04  8.572065E+04 -1.874883E+04 -5.882816E+04 -4.420740E+03
       137  23  1.927718E+05 -3.695522E+03  3.849781E+04 -1.102281E+04 -3.829519E+04 -1.355980E+04
       137  24  2.033559E+05 -3.828852E+03  2.306517E+04 -1.870655E+04 -1.776783E+04 -1.355969E+04
       137  25  5.603184E+05  1.588035E+05  1.727227E+05 -4.859876E+04 -6.939455E+04 -4.424063E+03
       137  26  5.170215E+05  7.596708E+04  1.127537E+05 -2.072050E+04 -4.182825E+04 -1.356050E+04
       137  27  4.960905E+05  6.798065E+04  8.944431E+04 -8.252715E+03 -1.426920E+04 -1.355811E+04
       138   1 -6.427945E+04 -5.986200E+04 -4.153900E+04 -1.717204E+04  1.509515E+04  1.159682E+04
       138   2 -3.336439E+04 -5.716795E+04 -4.280745E+04 -1.058006E+04  1.046668E+04  1.046689E+04
       138   3 -5.148750E+02 -4.929936E+04 -3.976029E+04 -1.964457E+04  5.837611E+03  8.909342E+03
       138   4  1.990992E+05  4.817837E+03  1.850470E+04 -1.877353E+04  1.439685E+04  1.159621E+04
       138   5  1.981067E+05 -3.515493E+02  9.823080E+03 -1.094481E+04  9.438059E+03  1.046636E+04
       138   6  1.991041E+05 -2.902153E+02  5.685032E+03 -1.877216E+04  4.478902E+03  8.908954E+03
       138   7  4.625421E+05  6.949288E+04  7.854388E+04 -2.037571E+04  1.369826E+04  1.159560E+04
       138   8  4.296274E+05  5.646115E+04  6.245014E+04 -1.130971E+04  8.409059E+03  1.046583E+04
       138   9  3.987600E+05  4.871617E+04  5.112777E+04 -1.789947E+04  3.119760E+03  8.908561E+03
       138  10 -6.427973E+04 -5.986221E+04 -4.153968E+04 -1.717218E+04  8.139079E-10  7.328393E-10
       138  11 -3.336454E+04 -5.716810E+04 -4.280786E+04 -1.058015E+04  1.948254E-09  3.644037E-10
       138  12 -5.149329E+02 -4.929945E+04 -3.976050E+04 -1.964462E+04 -1.545797E-09 -4.088859E-10
       138  13  1.990989E+05  4.817637E+03  1.850406E+04 -1.877367E+04  6.738235E-11  1.238402E-09
       138  14  1.981065E+05 -3.516909E+02  9.822707E+03 -1.094489E+04  1.083769E-10  4.913567E-10
       138  15  1.991040E+05 -2.903059E+02  5.684845E+03 -1.877220E+04 -6.081867E-10 -2.503104E-10
       138  16  4.625419E+05  6.949269E+04  7.854328E+04 -2.037584E+04  2.526467E-10  9.093809E-10
       138  17  4.296273E+05  5.646101E+04  6.244980E+04 -1.130978E+04 -9.816207E-10  2.686085E-10
       138  18  3.987599E+05  4.871608E+04  5.112760E+04 -1.789949E+04  7.171814E-10  2.349723E-10
       138  19 -6.427945E+04 -5.986200E+04 -4.153900E+04 -1.717204E+04 -1.509515E+04 -1.159682E+04
       138  20 -3.336439E+04 -5.716795E+04 -4.280745E+04 -1.058006E+04 -1.046668E+04 -1.046689E+04
       138  21 -5.148750E+02 -4.929936E+04 -3.976029E+04 -1.964457E+04 -5.837611E+03 -8.909342E+03
       138  22  1.990992E+05  4.817837E+03  1.850470E+04 -1.877353E+04 -1.439685E+04 -1.159621E+04
       138  23  1.981067E+05 -3.515493E+02  9.823080E+03 -1.094481E+04 -9.438059E+03 -1.046636E+04
       138  24  1.991041E+05 -2.902153E+02  5.685032E+03 -1.877216E+04 -4.478902E+03 -8.908954E+03
       138  25  4.625421E+05  6.949288E+04  7.854388E+04 -2.037571E+04 -1.369826E+04 -1.159560E+04
       138  26  4.296274E+05  5.646115E+04  6.245014E+04 -1.130971E+04 -8.409059E+03 -1.046583E+04
       138  27  3.987600E+05  4.871617E+04  5.112777E+04 -1.789947E+04 -3.119760E+03 -8.908561E+03
       139   1  2.815280E+04 -4.154644E+04 -3.432379E+04 -1.877926E+04  4.822086E+03  7.911751E+03
       139   2  5.982564E+04 -3.410370E+04 -2.914912E+04 -1.100396E+04  3.651303E+03  6.304387E+03
       139   3  9.175618E+04 -2.629251E+04 -2.311744E+04 -1.885998E+04  2.480147E+03  4.677882E+03
       139   4  1.987221E+05  2.996897E+02  4.357733E+03 -1.876701E+04  3.595643E+03  7.911474E+03
       139   5  1.985935E+05 -4.691873E+01  2.385925E+03 -1.095146E+04  2.409839E+03  6.304223E+03
       139   6  1.987247E+05 -2.237129E+01  1.281507E+03 -1.876700E+04  1.223720E+03  4.677837E+03
       139   7  3.693184E+05  4.214381E+04  4.303738E+04 -1.875477E+04  2.368867E+03  7.911196E+03
       139   8  3.373793E+05  3.400853E+04  3.391973E+04 -1.089894E+04  1.168100E+03  6.304058E+03
       139   9  3.057038E+05  2.624697E+04  2.567972E+04 -1.867401E+04 -3.292128E+01  4.677791E+03
       139  10  2.815276E+04 -4.154651E+04 -3.432395E+04 -1.877929E+04  1.057271E-09 -3.787518E-10
       139  11  5.982562E+04 -3.410374E+04 -2.914922E+04 -1.100398E+04  9.707230E-10 -8.790714E-11
       139  12  9.175616E+04 -2.629253E+04 -2.311750E+04 -1.885999E+04  6.273792E-10 -9.082003E-11
       139  13  1.987221E+05  2.996190E+02  4.357591E+03 -1.876704E+04  9.928434E-10 -1.489672E-10
       139  14  1.985935E+05 -4.696297E+01  2.385839E+03 -1.095147E+04  1.077058E-09  7.019590E-11
       139  15  1.987247E+05 -2.239519E+01  1.281463E+03 -1.876701E+04 -4.213157E-10  1.756345E-10
       139  16  3.693184E+05  4.214375E+04  4.303725E+04 -1.875478E+04 -9.567937E-11  2.779748E-10
       139  17  3.373793E+05  3.400849E+04  3.391965E+04 -1.089895E+04  7.199803E-10 -2.306908E-11
       139  18  3.057038E+05  2.624695E+04  2.567968E+04 -1.867401E+04  1.199299E-09  4.707533E-10
       139  19  2.815280E+04 -4.154644E+04 -3.432379E+04 -1.877926E+04 -4.822086E+03 -7.911751E+03
       139  20  5.982564E+04 -3.410370E+04 -2.914912E+04 -1.100396E+04 -3.651303E+03 -6.304387E+03
       139  21  9.175618E+04 -2.629251E+04 -2.311744E+04 -1.885998E+04 -2.480147E+03 -4.677882E+03
       139  22  1.987221E+05  2.996897E+02  4.357733E+03 -1.876701E+04 -3.595643E+03 -7.911474E+03
       139  23  1.985935E+05 -4.691873E+01  2.385925E+03 -1.095146E+04 -2.409839E+03 -6.304223E+03
       139  24  1.987247E+05 -2.237129E+01  1.281507E+03 -1.876700E+04 -1.223720E+03 -4.677837E+03
       139  25  3.693184E+05  4.214381E+04  4.303738E+04 -1.875477E+04 -2.368867E+03 -7.911196E+03
       139  26  3.373793E+05  3.400853E+04  3.391973E+04 -1.089894E+04 -1.168100E+03 -6.304058E+03
       139  27  3.057038E+05  2.624697E+04  2.567972E+04 -1.867401E+04  3.292128E+01 -4.677791E+03
       140   1  1.206983E+05 -1.910470E+04 -1.673019E+04 -1.879638E+04  2.277678E+03  3.727495E+03
       140   2  1.524491E+05 -1.134466E+04 -1.020688E+04 -1.098822E+04  2.132552E+03  2.099992E+03
       140   3  1.842263E+05 -3.562230E+03 -3.583387E+03 -1.879461E+04  1.987304E+03  4.719068E+02
       140   4  1.986738E+05  1.301436E+01  8.964854E+02 -1.876331E+04  1.027859E+03  3.727500E+03
       140   5  1.986617E+05 -3.749070E+00  2.939968E+02 -1.095608E+04  8.822199E+02  2.100033E+03
       140   6  1.986747E+05  1.901694E+00 -2.080711E+02 -1.876332E+04  7.364667E+02  4.719891E+02
       140   7  2.766550E+05  1.913031E+04  1.852278E+04 -1.873024E+04 -2.221162E+02  3.727504E+03
       140   8  2.448764E+05  1.133702E+04  1.079474E+04 -1.092393E+04 -3.682043E+02  2.100075E+03
       140   9  2.131233E+05  3.566020E+03  3.167236E+03 -1.873203E+04 -5.143994E+02  4.720713E+02
       140  10  1.206983E+05 -1.910472E+04 -1.673023E+04 -1.879639E+04  5.901646E-10 -4.008991E-10
       140  11  1.524491E+05 -1.134467E+04 -1.020690E+04 -1.098823E+04 -8.229943E-10 -3.744101E-10
       140  12  1.842263E+05 -3.562232E+03 -3.583395E+03 -1.879461E+04 -1.452586E-09  5.869203E-10
       140  13  1.986738E+05  1.299915E+01  8.964573E+02 -1.876332E+04 -1.060229E-09 -1.011419E-10
       140  14  1.986617E+05 -3.754015E+00  2.939871E+02 -1.095608E+04 -5.765241E-10 -3.446865E-10
       140  15  1.986747E+05  1.901310E+00 -2.080726E+02 -1.876332E+04 -6.175261E-11  4.333953E-10
       140  16  2.766550E+05  1.913030E+04  1.852275E+04 -1.873024E+04 -2.171909E-09  2.544910E-10
       140  17  2.448764E+05  1.133701E+04  1.079473E+04 -1.092393E+04 -5.359081E-11 -3.186007E-10
       140  18  2.131233E+05  3.566020E+03  3.167235E+03 -1.873203E+04  7.299734E-10  5.993786E-10
       140  19  1.206983E+05 -1.910470E+04 -1.673019E+04 -1.879638E+04 -2.277678E+03 -3.727495E+03
       140  20  1.524491E+05 -1.134466E+04 -1.020688E+04 -1.098822E+04 -2.132552E+03 -2.099992E+03
       140  21  1.842263E+05 -3.562230E+03 -3.583387E+03 -1.879461E+04 -1.987304E+03 -4.719068E+02
       140  22  1.986738E+05  1.301436E+01  8.964854E+02 -1.876331E+04 -1.027859E+03 -3.727500E+03
       140  23  1.986617E+05 -3.749070E+00  2.939968E+02 -1.095608E+04 -8.822199E+02 -2.100033E+03
       140  24  1.986747E+05  1.901694E+00 -2.080711E+02 -1.876332E+04 -7.364667E+02 -4.719891E+02
       140  25  2.766550E+05  1.913031E+04  1.852278E+04 -1.873024E+04  2.221162E+02 -3.727504E+03
       140  26  2.448764E+05  1.133702E+04  1.079474E+04 -1.092393E+04  3.682043E+02 -2.100075E+03
       140  27  2.131233E+05  3.566020E+03  3.167236E+03 -1.873203E+04  5.143994E+02 -4.720713E+02
       141   1  2.131785E+05  3.589073E+03  2.920860E+03 -1.880130E+04  2.048864E+03 -4.758088E+02
       141   2  2.449874E+05  1.137513E+04  9.382501E+03 -1.100647E+04  2.610854E+03 -2.103823E+03
       141   3  2.767109E+05  1.910624E+04  1.546458E+04 -1.882575E+04  3.172985E+03 -3.731296E+03
       141   4  1.986499E+05  5.330022E+00 -4.726160E+02 -1.876325E+04  7.979934E+02 -4.757264E+02
       141   5  1.986928E+05  1.474008E+01 -1.136417E+03 -1.095617E+04  1.360326E+03 -2.103782E+03
       141   6  1.986492E+05 -3.080805E+01 -2.180024E+03 -1.876326E+04  1.922770E+03 -3.731292E+03
       141   7  1.841216E+05 -3.578427E+03 -3.866100E+03 -1.872521E+04 -4.528486E+02 -4.756443E+02
       141   8  1.524002E+05 -1.134580E+04 -1.165547E+04 -1.090587E+04  1.098895E+02 -2.103740E+03
       141   9  1.205932E+05 -1.916828E+04 -1.982501E+04 -1.870078E+04  6.727113E+02 -3.731288E+03
       141  10  2.131785E+05  3.589072E+03  2.920851E+03 -1.880130E+04 -1.187211E-09  7.574263E-10
       141  11  2.449874E+05  1.137513E+04  9.382479E+03 -1.100647E+04 -1.473008E-09 -2.249002E-10
       141  12  2.767109E+05  1.910623E+04  1.546453E+04 -1.882574E+04 -1.068765E-09 -1.354867E-09
       141  13  1.986499E+05  5.329608E+00 -4.726176E+02 -1.876325E+04  2.300012E-09  7.656781E-10
       141  14  1.986928E+05  1.473484E+01 -1.136429E+03 -1.095617E+04 -1.473920E-09 -8.938147E-11
       141  15  1.986492E+05 -3.082399E+01 -2.180058E+03 -1.876325E+04 -1.862167E-09 -9.598060E-10
       141  16  1.841216E+05 -3.578427E+03 -3.866101E+03 -1.872521E+04  9.668623E-11  9.212885E-10
       141  17  1.524002E+05 -1.134580E+04 -1.165548E+04 -1.090587E+04  1.580305E-10  3.450730E-10
       141  18  1.205932E+05 -1.916829E+04 -1.982504E+04 -1.870078E+04  5.390851E-10 -4.466776E-10
       141  19  2.131785E+05  3.589073E+03  2.920860E+03 -1.880130E+04 -2.048864E+03  4.758088E+02
       141  20  2.449874E+05  1.137513E+04  9.382501E+03 -1.100647E+04 -2.610854E+03  2.103823E+03
       141  21  2.767109E+05  1.910624E+04  1.546458E+04 -1.882575E+04 -3.172985E+03  3.731296E+03
       141  22  1.986499E+05  5.330022E+00 -4.726160E+02 -1.876325E+04 -7.979934E+02  4.757264E+02
       141  23  1.986928E+05  1.474008E+01 -1.136417E+03 -1.095617E+04 -1.360326E+03  2.103782E+03
       141  24  1.986492E+05 -3.080805E+01 -2.180024E+03 -1.876326E+04 -1.922770E+03  3.731292E+03
       141  25  1.841216E+05 -3.578427E+03 -3.866100E+03 -1.872521E+04  4.528486E+02  4.756443E+02
       141  26  1.524002E+05 -1.134580E+04 -1.165547E+04 -1.090587E+04 -1.098895E+02  2.103740E+03
       141  27  1.205932E+05 -1.916828E+04 -1.982501E+04 -1.870078E+04 -6.727113E+02  3.731288E+03
       142   1  3.056119E+05  2.633375E+04  2.150244E+04 -1.895652E+04  3.637987E+03 -4.681542E+03
       142   2  3.376758E+05  3.415867E+04  2.641154E+04 -1.103372E+04  6.178802E+03 -6.307470E+03
       142   3  3.692263E+05  4.119978E+04  2.947372E+04 -1.874448E+04  8.720030E+03 -7.914089E+03
       142   4  1.985524E+05  4.466752E+01 -2.914080E+03 -1.876763E+04  2.381011E+03 -4.681587E+03
       142   5  1.988096E+05  8.354115E+01 -5.140586E+03 -1.095073E+04  4.936122E+03 -6.307634E+03
       142   6  1.985503E+05 -6.638552E+02 -9.224138E+03 -1.876760E+04  7.491519E+03 -7.914367E+03
       142   7  9.150342E+04 -2.624521E+04 -2.733134E+04 -1.857877E+04  1.124250E+03 -4.681633E+03
       142   8  5.996137E+04 -3.399292E+04 -3.669396E+04 -1.086776E+04  3.693717E+03 -6.307798E+03
       142   9  2.790145E+04 -4.252950E+04 -4.792387E+04 -1.879072E+04  6.263341E+03 -7.914645E+03
       142  10  3.056119E+05  2.633372E+04  2.150238E+04 -1.895651E+04 -2.628645E-09 -8.123816E-10
       142  11  3.376757E+05  3.415862E+04  2.641140E+04 -1.103369E+04  1.507255E-10  6.562560E-10
       142  12  3.692262E+05  4.119970E+04  2.947346E+04 -1.874442E+04 -1.432905E-09  1.214144E-10
       142  13  1.985523E+05  4.464246E+01 -2.914132E+03 -1.876762E+04 -2.151984E-09 -7.803339E-10
       142  14  1.988096E+05  8.349188E+01 -5.140707E+03 -1.095071E+04  4.663049E-10  1.772176E-10
       142  15  1.985503E+05 -6.639375E+02 -9.224361E+03 -1.876756E+04  1.025278E-10  5.463607E-11
       142  16  9.150341E+04 -2.624523E+04 -2.733139E+04 -1.857877E+04  1.577086E-09 -7.690063E-10
       142  17  5.996135E+04 -3.399296E+04 -3.669406E+04 -1.086774E+04 -7.002378E-10 -4.628024E-10
       142  18  2.790140E+04 -4.252958E+04 -4.792406E+04 -1.879068E+04 -4.028484E-10  2.863567E-10
       142  19  3.056119E+05  2.633375E+04  2.150244E+04 -1.895652E+04 -3.637987E+03  4.681542E+03
       142  20  3.376758E+05  3.415867E+04  2.641154E+04 -1.103372E+04 -6.178802E+03  6.307470E+03
       142  21  3.692263E+05  4.119978E+04  2.947372E+04 -1.874448E+04 -8.720030E+03  7.914089E+03
       142  22  1.985524E+05  4.466752E+01 -2.914080E+03 -1.876763E+04 -2.381011E+03  4.681587E+03
       142  23  1.988096E+05  8.354115E+01 -5.140586E+03 -1.095073E+04 -4.936122E+03  6.307634E+03
       142  24  1.985503E+05 -6.638552E+02 -9.224138E+03 -1.876760E+04 -7.491519E+03  7.914367E+03
       142  25  9.150342E+04 -2.624521E+04 -2.733134E+04 -1.857877E+04 -1.124250E+03  4.681633E+03
       142  26  5.996137E+04 -3.399292E+04 -3.669396E+04 -1.086776E+04 -3.693717E+03  6.307798E+03
       142  27  2.790145E+04 -4.252950E+04 -4.792387E+04 -1.879072E+04 -6.263341E+03  7.914645E+03
       143   1  3.974961E+05  4.960087E+04  3.347206E+04 -2.053412E+04  1.071955E+04 -8.910814E+03
       143   2  4.313941E+05  5.752019E+04  3.198067E+04 -1.003935E+04  2.082633E+04 -1.046349E+04
       143   3  4.612818E+05  5.450095E+04  2.118704E+04 -1.519385E+04  3.093403E+04 -1.158635E+04
       143   4  1.977579E+05  5.752741E+02 -1.198946E+04 -1.877201E+04  9.357885E+03 -8.911181E+03
       143   5  1.997922E+05  6.870758E+02 -2.066526E+04 -1.094566E+04  1.979132E+04 -1.046405E+04
       143   6  1.977563E+05 -1.019896E+04 -3.887286E+04 -1.876912E+04  3.022518E+04 -1.158710E+04
       143   7 -1.943294E+03 -4.845307E+04 -5.745357E+04 -1.701047E+04  7.996649E+03 -8.911555E+03
       143   8 -3.175986E+04 -5.614974E+04 -7.331466E+04 -1.185163E+04  1.875670E+04 -1.046460E+04
       143   9 -6.570493E+04 -7.490364E+04 -9.893727E+04 -2.234287E+04  2.951663E+04 -1.158785E+04
       143  10  3.974960E+05  4.960076E+04  3.347169E+04 -2.053404E+04 -6.084801E-10 -2.465571E-10
       143  11  4.313936E+05  5.751996E+04  3.197965E+04 -1.003918E+04  1.473575E-09 -1.824651E-11
       143  12  4.612808E+05  5.450055E+04  2.118499E+04 -1.519356E+04 -5.861461E-10 -9.212893E-10
       143  13  1.977578E+05  5.751653E+02 -1.198978E+04 -1.877194E+04  1.068618E-09  5.430224E-11
       143  14  1.997918E+05  6.868531E+02 -2.066620E+04 -1.094549E+04  5.343203E-10 -7.323397E-11
       143  15  1.977552E+05 -1.019935E+04 -3.887483E+04 -1.876884E+04  4.432781E-10 -5.669136E-10
       143  16 -1.943384E+03 -4.845317E+04 -5.745384E+04 -1.701041E+04  1.403127E-10  4.762208E-10
       143  17 -3.176026E+04 -5.614995E+04 -7.331553E+04 -1.185147E+04 -4.663663E-10  6.686478E-10
       143  18 -6.570590E+04 -7.490401E+04 -9.893916E+04 -2.234260E+04 -8.971141E-10 -1.210153E-11
       143  19  3.974961E+05  4.960087E+04  3.347206E+04 -2.053412E+04 -1.071955E+04  8.910814E+03
       143  20  4.313941E+05  5.752019E+04  3.198067E+04 -1.003935E+04 -2.082633E+04  1.046349E+04
       143  21  4.612818E+05  5.450095E+04  2.118704E+04 -1.519385E+04 -3.093403E+04  1.158635E+04
       143  22  1.977579E+05  5.752741E+02 -1.198946E+04 -1.877201E+04 -9.357885E+03  8.911181E+03
       143  23  1.997922E+05  6.870758E+02 -2.066526E+04 -1.094566E+04 -1.979132E+04  1.046405E+04
       143  24  1.977563E+05 -1.019896E+04 -3.887286E+04 -1.876912E+04 -3.022518E+04  1.158710E+04
       143  25 -1.943294E+03 -4.845307E+04 -5.745357E+04 -1.701047E+04 -7.996649E+03  8.911555E+03
       143  26 -3.175986E+04 -5.614974E+04 -7.331466E+04 -1.185163E+04 -1.875670E+04  1.046460E+04
       143  27 -6.570493E+04 -7.490364E+04 -9.893727E+04 -2.234287E+04 -2.951663E+04  1.158785E+04
       144   1  4.816945E+05  7.976233E+04  1.796684E+04 -4.039097E+04  4.082101E+04 -1.354561E+04
       144   2  5.352388E+05  8.736709E+04 -6.572175E+03  9.741749E+03  7.692379E+04 -1.350494E+04
       144   3  5.458379E+05 -5.838525E+04 -9.291668E+04  4.458344E+04  1.130235E+05 -4.299830E+03
       144   4  1.888340E+05  7.952635E+03 -4.843747E+04 -1.871527E+04  3.730548E+04 -1.354601E+04
       144   5  2.109365E+05  7.653479E+03 -8.084670E+04 -1.102502E+04  8.042815E+04 -1.350614E+04
       144   6  1.888474E+05 -1.472712E+05 -1.799579E+05 -1.862646E+04  1.235452E+05 -4.304645E+03
       144   7 -1.039460E+05 -6.386119E+04 -1.148470E+05  2.950106E+03  3.379159E+04 -1.354665E+04
       144   8 -1.132674E+05 -7.206583E+04 -1.551279E+05 -3.178087E+04  8.393069E+04 -1.350759E+04
       144   9 -1.680183E+05 -2.361515E+05 -2.670058E+05 -8.179996E+04  1.340609E+05 -4.311605E+03
       144  10  4.816927E+05  7.976168E+04  1.796336E+04 -4.039053E+04 -1.085595E-09 -1.548945E-09
       144  11  5.352324E+05  8.736531E+04 -6.583629E+03  9.742586E+03 -5.702966E-10 -2.123205E-09
       144  12  5.458242E+05 -5.838869E+04 -9.294070E+04  4.458383E+04 -1.241746E-09 -6.436216E-10
       144  13  1.888324E+05  7.952065E+03 -4.844043E+04 -1.871487E+04  8.251035E-10 -2.578092E-09
       144  14  2.109295E+05  7.651547E+03 -8.085920E+04 -1.102414E+04  1.860304E-09  3.904203E-10
       144  15  1.888310E+05 -1.472753E+05 -1.799866E+05 -1.862603E+04 -3.508468E-10 -1.393425E-10
       144  16 -1.039472E+05 -6.386169E+04 -1.148495E+05  2.950474E+03  1.069940E-09 -7.153531E-10
       144  17 -1.132750E+05 -7.206792E+04 -1.551414E+05 -3.177995E+04  1.818498E-09 -1.308732E-10
       144  18 -1.680376E+05 -2.361564E+05 -2.670397E+05 -8.179950E+04  2.889451E-10 -8.430076E-10
       144  19  4.816945E+05  7.976233E+04  1.796684E+04 -4.039097E+04 -4.082101E+04  1.354561E+04
       144  20  5.352388E+05  8.736709E+04 -6.572175E+03  9.741749E+03 -7.692379E+04  1.350494E+04
       144  21  5.458379E+05 -5.838525E+04 -9.291668E+04  4.458344E+04 -1.130235E+05  4.299830E+03
       144  22  1.888340E+05  7.952635E+03 -4.843747E+04 -1.871527E+04 -3.730548E+04  1.354601E+04
       144  23  2.109365E+05  7.653479E+03 -8.084670E+04 -1.102502E+04 -8.042815E+04  1.350614E+04
       144  24  1.888474E+05 -1.472712E+05 -1.799579E+05 -1.862646E+04 -1.235452E+05  4.304645E+03
       144  25 -1.039460E+05 -6.386119E+04 -1.148470E+05  2.950106E+03 -3.379159E+04  1.354665E+04
       144  26 -1.132674E+05 -7.206583E+04 -1.551279E+05 -3.178087E+04 -8.393069E+04  1.350759E+04
       144  27 -1.680183E+05 -2.361515E+05 -2.670058E+05 -8.179996E+04 -1.340609E+05  4.311605E+03
       145   1  3.620059E+05  1.268108E+06  3.584638E+05 -1.988611E+05  1.532974E+04  4.820322E+04
       145   2  2.626370E+05  9.370379E+05  2.526799E+05 -1.155906E+05  4.367961E+04  1.526639E+04
       145   3  1.831764E+05  6.153738E+05  1.733028E+05 -1.909758E+05  3.400015E+04 -1.770043E+04
       145   4  1.376723E+04 -1.319144E+05  1.639248E+04 -1.918519E+05  1.537589E+04  1.179117E+04
       145   5 -6.148139E+02 -1.339462E+05  6.917640E+03 -1.125260E+05  4.369600E+04  8.120948E+03
       145   6 -1.379369E+02 -1.317254E+05  3.567930E+03 -1.918705E+05  3.395798E+04  4.403463E+03
       145   7 -3.346154E+05 -1.530150E+06 -3.258169E+05 -1.848577E+05  1.542129E+04 -2.453910E+04
       145   8 -2.639466E+05 -1.203869E+06 -2.389201E+05 -1.094663E+05  4.371234E+04  9.877052E+02
       145   9 -1.834905E+05 -8.783058E+05 -1.662012E+05 -1.927637E+05  3.391571E+04  2.648102E+04
       145  10  3.620050E+05  1.268106E+06  3.584590E+05 -1.988616E+05 -6.981546E-10  6.363641E-10
       145  11  2.626349E+05  9.370372E+05  2.526759E+05 -1.155911E+05 -2.602000E-10  4.497295E-09
       145  12  1.831751E+05  6.153732E+05  1.733000E+05 -1.909753E+05  3.596693E-10 -7.015662E-10
       145  13  1.376693E+04 -1.319146E+05  1.639177E+04 -1.918520E+05 -2.353367E-10 -4.128861E-12
       145  14 -6.168818E+02 -1.339468E+05  6.913928E+03 -1.125263E+05 -2.217477E-09 -7.468685E-10
       145  15 -1.391804E+02 -1.317257E+05  3.565726E+03 -1.918706E+05 -5.006088E-10  2.497179E-10
       145  16 -3.346158E+05 -1.530151E+06 -3.258185E+05 -1.848574E+05 -2.807727E-10 -1.019175E-09
       145  17 -2.639486E+05 -1.203870E+06 -2.389237E+05 -1.094663E+05 -7.367107E-10 -3.800712E-09
       145  18 -1.834920E+05 -8.783069E+05 -1.662047E+05 -1.927644E+05 -1.521566E-10  1.626263E-09
       145  19  3.620059E+05  1.268108E+06  3.584638E+05 -1.988611E+05 -1.532974E+04 -4.820322E+04
       145  20  2.626370E+05  9.370379E+05  2.526799E+05 -1.155906E+05 -4.367961E+04 -1.526639E+04
       145  21  1.831764E+05  6.153738E+05  1.733028E+05 -1.909758E+05 -3.400015E+04  1.770043E+04
       145  22  1.376723E+04 -1.319144E+05  1.639248E+04 -1.918519E+05 -1.537589E+04 -1.179117E+04
       145  23 -6.148139E+02 -1.339462E+05  6.917640E+03 -1.125260E+05 -4.369600E+04 -8.120948E+03
       145  24 -1.379369E+02 -1.317254E+05  3.567930E+03 -1.918705E+05 -3.395798E+04 -4.403463E+03
       145  25 -3.346154E+05 -1.530150E+06 -3.258169E+05 -1.848577E+05 -1.542129E+04  2.453910E+04
       145  26 -2.639466E+05 -1.203869E+06 -2.389201E+05 -1.094663E+05 -4.371234E+04 -9.877052E+02
       145  27 -1.834905E+05 -8.783058E+05 -1.662012E+05 -1.927637E+05 -3.391571E+04 -2.648102E+04
       146   1  1.119032E+05  3.160750E+05  1.045957E+05 -1.929885E+05  1.988221E+04 -6.995695E+03
       146   2  3.061109E+04 -9.656756E+03  2.762730E+04 -1.124825E+05  5.557448E+03 -7.093387E+03
       146   3 -5.026812E+04 -3.359197E+05 -4.935772E+04 -1.920975E+05 -9.052548E+03 -7.194375E+03
       146   4  1.699420E+03 -1.327331E+05  2.340604E+03 -1.921859E+05  1.985948E+04  3.897699E+03
       146   5  4.786396E+02 -1.323890E+05 -2.872773E+02 -1.121268E+05  5.533489E+03  4.017135E+03
       146   6 -3.596664E+02 -1.327115E+05 -3.076465E+03 -1.921903E+05 -9.078127E+03  4.133234E+03
       146   7 -1.085182E+05 -5.813543E+05 -9.992718E+04 -1.913837E+05  1.983677E+04  1.478329E+04
       146   8 -2.965479E+04 -2.551069E+05 -2.820237E+04 -1.117711E+05  5.509540E+03  1.512548E+04
       146   9  4.954600E+04  7.053517E+04  4.320259E+04 -1.922832E+05 -9.103705E+03  1.546452E+04
       146  10  1.119028E+05  3.160749E+05  1.045949E+05 -1.929884E+05 -7.879561E-10 -4.884006E-10
       146  11  3.061105E+04 -9.656818E+03  2.762714E+04 -1.124825E+05  1.680472E-09  6.645722E-09
       146  12 -5.026822E+04 -3.359197E+05 -4.935797E+04 -1.920975E+05  1.306668E-09 -1.634623E-10
       146  13  1.698993E+03 -1.327333E+05  2.339835E+03 -1.921859E+05  1.377787E-09  2.021414E-11
       146  14  4.786024E+02 -1.323890E+05 -2.873652E+02 -1.121268E+05  3.363116E-10 -1.020978E-09
       146  15 -3.597594E+02 -1.327116E+05 -3.076652E+03 -1.921903E+05  2.422926E-10  2.662505E-10
       146  16 -1.085187E+05 -5.813546E+05 -9.992833E+04 -1.913839E+05 -1.296614E-10 -5.266441E-10
       146  17 -2.965488E+04 -2.551072E+05 -2.820285E+04 -1.117711E+05  2.015320E-09 -5.587015E-09
       146  18  4.954585E+04  7.053489E+04  4.320198E+04 -1.922831E+05 -8.481483E-10  1.257478E-09
       146  19  1.119032E+05  3.160750E+05  1.045957E+05 -1.929885E+05 -1.988221E+04  6.995695E+03
       146  20  3.061109E+04 -9.656756E+03  2.762730E+04 -1.124825E+05 -5.557448E+03  7.093387E+03
       146  21 -5.026812E+04 -3.359197E+05 -4.935772E+04 -1.920975E+05  9.052548E+03  7.194375E+03
       146  22  1.699420E+03 -1.327331E+05  2.340604E+03 -1.921859E+05 -1.985948E+04 -3.897699E+03
       146  23  4.786396E+02 -1.323890E+05 -2.872773E+02 -1.121268E+05 -5.533489E+03 -4.017135E+03
       146  24 -3.596664E+02 -1.327115E+05 -3.076465E+03 -1.921903E+05  9.078127E+03 -4.133234E+03
       146  25 -1.085182E+05 -5.813543E+05 -9.992718E+04 -1.913837E+05 -1.983677E+04 -1.478329E+04
       146  26 -2.965479E+04 -2.551069E+05 -2.820237E+04 -1.117711E+05 -5.509540E+03 -1.512548E+04
       146  27  4.954600E+04  7.053517E+04  4.320259E+04 -1.922832E+05  9.103705E+03 -1.546452E+04
       147   1 -1.214309E+05 -6.348355E+05 -1.184423E+05 -1.887784E+05 -2.250033E+04 -1.590601E+04
       147   2 -2.019814E+05 -9.563541E+05 -1.980618E+05 -1.135885E+05 -3.338162E+04  1.310359E+04
       147   3 -3.026492E+05 -1.286861E+06 -3.016982E+05 -1.973699E+05 -1.224111E+04  4.214739E+04
       147   4  1.674981E+03 -1.336825E+05 -4.362565E+03 -1.919226E+05 -2.254418E+04  4.683610E+03
       147   5  1.059151E+03 -1.313508E+05 -8.357479E+03 -1.124558E+05 -3.337132E+04  9.134844E+03
       147   6 -1.538606E+04 -1.338303E+05 -1.928856E+04 -1.919498E+05 -1.219523E+04  1.363611E+04
       147   7  1.247637E+05  3.677046E+05  1.097025E+05 -1.950691E+05 -2.258822E+04  2.528971E+04
       147   8  2.040522E+05  6.942832E+05  1.813018E+05 -1.113213E+05 -3.336105E+04  5.160850E+03
       147   9  2.717791E+05  1.020415E+06  2.630268E+05 -1.865189E+05 -1.214990E+04 -1.492812E+04
       147  10 -1.214315E+05 -6.348359E+05 -1.184438E+05 -1.887787E+05  1.559898E-10 -3.368774E-10
       147  11 -2.019827E+05 -9.563546E+05 -1.980642E+05 -1.135881E+05 -7.250733E-11  5.373721E-09
       147  12 -3.026499E+05 -1.286863E+06 -3.017018E+05 -1.973695E+05 -3.761114E-10  2.997106E-10
       147  13  1.674430E+03 -1.336827E+05 -4.363561E+03 -1.919225E+05  8.195629E-10 -1.330541E-11
       147  14  1.057933E+03 -1.313512E+05 -8.359729E+03 -1.124556E+05  1.862082E-09 -9.182492E-10
       147  15 -1.538627E+04 -1.338305E+05 -1.928919E+04 -1.919497E+05  2.187184E-10  1.392934E-10
       147  16  1.247630E+05  3.677038E+05  1.097003E+05 -1.950687E+05  4.476372E-10 -6.635189E-10
       147  17  2.040510E+05  6.942828E+05  1.812997E+05 -1.113212E+05  1.696959E-09 -4.520389E-09
       147  18  2.717789E+05  1.020415E+06  2.630261E+05 -1.865191E+05  2.041960E-09  3.620185E-10
       147  19 -1.214309E+05 -6.348355E+05 -1.184423E+05 -1.887784E+05  2.250033E+04  1.590601E+04
       147  20 -2.019814E+05 -9.563541E+05 -1.980618E+05 -1.135885E+05  3.338162E+04 -1.310359E+04
       147  21 -3.026492E+05 -1.286861E+06 -3.016982E+05 -1.973699E+05  1.224111E+04 -4.214739E+04
       147  22  1.674981E+03 -1.336825E+05 -4.362565E+03 -1.919226E+05  2.254418E+04 -4.683610E+03
       147  23  1.059151E+03 -1.313508E+05 -8.357479E+03 -1.124558E+05  3.337132E+04 -9.134844E+03
       147  24 -1.538606E+04 -1.338303E+05 -1.928856E+04 -1.919498E+05  1.219523E+04 -1.363611E+04
       147  25  1.247637E+05  3.677046E+05  1.097025E+05 -1.950691E+05  2.258822E+04 -2.528971E+04
       147  26  2.040522E+05  6.942832E+05  1.813018E+05 -1.113213E+05  3.336105E+04 -5.160850E+03
       147  27  2.717791E+05  1.020415E+06  2.630268E+05 -1.865189E+05  1.214990E+04  1.492812E+04
       148   1 -8.946061E+05 -3.146580E+05 -1.849359E+05 -3.275243E+05 -6.874229E+04 -2.061672E+04
       148   2 -8.541380E+05 -2.070713E+05 -1.173819E+05 -3.144500E+05 -4.446276E+04 -9.316466E+02
       148   3 -8.295691E+05 -1.885396E+05 -9.063293E+04 -3.003143E+05 -1.643639E+04  8.789436E+03
       148   4 -5.584958E+05 -1.609679E+05 -8.923926E+04 -2.081447E+05 -5.853568E+04 -1.678583E+04
       148   5 -5.464810E+05 -8.337705E+04 -3.813127E+04 -2.213564E+05 -4.140235E+04  2.164178E+02
       148   6 -5.489346E+05 -9.340363E+04 -2.214588E+04 -2.335117E+05 -2.052498E+04  7.254353E+03
       148   7 -2.222725E+05 -7.253989E+03  6.447541E+03 -8.870084E+04 -4.832294E+04 -1.295152E+04
       148   8 -2.387301E+05  4.032777E+04  4.111175E+04 -1.282193E+05 -3.834028E+04  1.365217E+03
       148   9 -2.682229E+05  1.734283E+03  4.633543E+04 -1.666831E+05 -2.461560E+04  5.718672E+03
       148  10 -8.946113E+05 -3.146597E+05 -1.849456E+05 -3.275254E+05 -1.033425E-09 -4.049972E-10
       148  11 -8.541401E+05 -2.070718E+05 -1.173856E+05 -3.144501E+05 -3.492587E-09 -1.237799E-09
       148  12 -8.295694E+05 -1.885398E+05 -9.063359E+04 -3.003142E+05 -3.990002E-09 -5.093357E-10
       148  13 -5.584996E+05 -1.609691E+05 -8.924623E+04 -2.081455E+05 -1.081639E-09 -2.300853E-10
       148  14 -5.464828E+05 -8.337751E+04 -3.813449E+04 -2.213564E+05 -2.169518E-09 -9.510539E-10
       148  15 -5.489351E+05 -9.340380E+04 -2.214677E+04 -2.335116E+05 -1.993778E-09 -1.267076E-09
       148  16 -2.222751E+05 -7.254796E+03  6.442836E+03 -8.870134E+04 -2.101855E-09  2.427987E-10
       148  17 -2.387317E+05  4.032738E+04  4.110898E+04 -1.282193E+05 -2.287154E-09 -1.146304E-09
       148  18 -2.682235E+05  1.734085E+03  4.633423E+04 -1.666830E+05 -3.230403E-09 -9.091886E-10
       148  19 -8.946061E+05 -3.146580E+05 -1.849359E+05 -3.275243E+05  6.874229E+04  2.061672E+04
       148  20 -8.541380E+05 -2.070713E+05 -1.173819E+05 -3.144500E+05  4.446276E+04  9.316466E+02
       148  21 -8.295691E+05 -1.885396E+05 -9.063293E+04 -3.003143E+05  1.643639E+04 -8.789436E+03
       148  22 -5.584958E+05 -1.609679E+05 -8.923926E+04 -2.081447E+05  5.853568E+04  1.678583E+04
       148  23 -5.464810E+05 -8.337705E+04 -3.813127E+04 -2.213564E+05  4.140235E+04 -2.164178E+02
       148  24 -5.489346E+05 -9.340363E+04 -2.214588E+04 -2.335117E+05  2.052498E+04 -7.254353E+03
       148  25 -2.222725E+05 -7.253989E+03  6.447541E+03 -8.870084E+04  4.832294E+04  1.295152E+04
       148  26 -2.387301E+05  4.032777E+04  4.111175E+04 -1.282193E+05  3.834028E+04 -1.365217E+03
       148  27 -2.682229E+05  1.734283E+03  4.633543E+04 -1.666831E+05  2.461560E+04 -5.718672E+03
       149   1 -7.787066E+05 -1.899051E+05 -7.660124E+04 -2.944086E+05 -1.565421E+04  6.274476E+03
       149   2 -7.444613E+05 -1.603019E+05 -5.726106E+04 -2.746373E+05 -1.010941E+04  6.473204E+03
       149   3 -6.972036E+05 -1.520898E+05 -4.311199E+04 -2.715925E+05 -4.376675E+03  6.170116E+03
       149   4 -5.459934E+05 -1.012353E+05 -1.773897E+04 -2.289888E+05 -1.666236E+04  5.895719E+03
       149   5 -5.521734E+05 -8.803201E+04 -8.927117E+03 -2.215785E+05 -1.147633E+04  5.960070E+03
       149   6 -5.452703E+05 -9.614727E+04 -5.020237E+03 -2.308952E+05 -6.102709E+03  5.522537E+03
       149   7 -3.132282E+05 -1.256186E+04  4.111869E+04 -1.635469E+05 -1.767092E+04  5.516800E+03
       149   8 -3.598491E+05 -1.575954E+04  3.940391E+04 -1.685047E+05 -1.284370E+04  5.446759E+03
       149   9 -3.933138E+05 -4.020318E+04  3.306988E+04 -1.901888E+05 -7.829212E+03  4.874788E+03
       149  10 -7.787068E+05 -1.899052E+05 -7.660177E+04 -2.944085E+05 -3.052923E-09 -1.154909E-10
       149  11 -7.444615E+05 -1.603020E+05 -5.726133E+04 -2.746372E+05 -1.138102E-09 -2.264849E-10
       149  12 -6.972036E+05 -1.520898E+05 -4.311210E+04 -2.715924E+05  4.798795E-10 -3.899777E-10
       149  13 -5.459937E+05 -1.012355E+05 -1.773956E+04 -2.289887E+05 -3.999574E-09 -5.501928E-10
       149  14 -5.521735E+05 -8.803208E+04 -8.927431E+03 -2.215784E+05 -9.471200E-10  2.226613E-10
       149  15 -5.452704E+05 -9.614731E+04 -5.020364E+03 -2.308952E+05  3.470364E-10 -1.012876E-10
       149  16 -3.132285E+05 -1.256198E+04  4.111804E+04 -1.635468E+05 -3.036921E-09 -1.243243E-09
       149  17 -3.598493E+05 -1.575962E+04  3.940354E+04 -1.685046E+05 -2.341357E-09 -3.915781E-11
       149  18 -3.933139E+05 -4.020322E+04  3.306972E+04 -1.901888E+05  1.948713E-09  1.615436E-10
       149  19 -7.787066E+05 -1.899051E+05 -7.660124E+04 -2.944086E+05  1.565421E+04 -6.274476E+03
       149  20 -7.444613E+05 -1.603019E+05 -5.726106E+04 -2.746373E+05  1.010941E+04 -6.473204E+03
       149  21 -6.972036E+05 -1.520898E+05 -4.311199E+04 -2.715925E+05  4.376675E+03 -6.170116E+03
       149  22 -5.459934E+05 -1.012353E+05 -1.773897E+04 -2.289888E+05  1.666236E+04 -5.895719E+03
       149  23 -5.521734E+05 -8.803201E+04 -8.927117E+03 -2.215785E+05  1.147633E+04 -5.960070E+03
       149  24 -5.452703E+05 -9.614727E+04 -5.020237E+03 -2.308952E+05  6.102709E+03 -5.522537E+03
       149  25 -3.132282E+05 -1.256186E+04  4.111869E+04 -1.635469E+05  1.767092E+04 -5.516800E+03
       149  26 -3.598491E+05 -1.575954E+04  3.940391E+04 -1.685047E+05  1.284370E+04 -5.446759E+03
       149  27 -3.933138E+05 -4.020318E+04  3.306988E+04 -1.901888E+05  7.829212E+03 -4.874788E+03
       150   1 -6.564878E+05 -1.384004E+05 -3.170482E+04 -2.611075E+05 -3.308528E+03  5.023209E+03
       150   2 -6.227538E+05 -1.145604E+05 -1.967604E+04 -2.407347E+05 -1.403313E+03  3.222859E+03
       150   3 -5.735003E+05 -1.069798E+05 -8.565189E+03 -2.384130E+05  5.116944E+02  1.395677E+03
       150   4 -5.449660E+05 -9.672922E+04 -3.861954E+03 -2.305478E+05 -4.883238E+03  4.432510E+03
       150   5 -5.526998E+05 -8.841568E+04 -2.109470E+03 -2.215913E+05 -2.997117E+03  2.625097E+03
       150   6 -5.449117E+05 -9.635766E+04 -1.259459E+03 -2.306863E+05 -1.101287E+03  7.908340E+02
       150   7 -4.334320E+05 -5.505720E+04  2.397995E+04 -1.999831E+05 -6.458258E+03  3.841695E+03
       150   8 -4.826411E+05 -6.227074E+04  1.545668E+04 -2.024460E+05 -4.591114E+03  2.027264E+03
       150   9 -5.163225E+05 -8.573548E+04  6.046183E+03 -2.229592E+05 -2.714343E+03  1.859637E+02
       150  10 -6.564879E+05 -1.384004E+05 -3.170489E+04 -2.611075E+05 -6.983783E-10 -4.407539E-10
       150  11 -6.227538E+05 -1.145604E+05 -1.967606E+04 -2.407347E+05 -2.447776E-09  2.155113E-10
       150  12 -5.735003E+05 -1.069798E+05 -8.565193E+03 -2.384130E+05 -1.652381E-09 -2.454371E-10
       150  13 -5.449660E+05 -9.672924E+04 -3.862036E+03 -2.305478E+05  5.707546E-11 -9.680409E-11
       150  14 -5.526998E+05 -8.841569E+04 -2.109500E+03 -2.215913E+05 -1.223774E-09  2.743803E-11
       150  15 -5.449117E+05 -9.635766E+04 -1.259462E+03 -2.306863E+05 -3.188817E-09 -3.314090E-10
       150  16 -4.334320E+05 -5.505723E+04  2.397984E+04 -1.999831E+05  1.054604E-09  2.516377E-10
       150  17 -4.826411E+05 -6.227075E+04  1.545663E+04 -2.024459E+05 -6.766682E-10  6.033375E-11
       150  18 -5.163225E+05 -8.573548E+04  6.046169E+03 -2.229592E+05  8.726370E-11 -3.566644E-10
       150  19 -6.564878E+05 -1.384004E+05 -3.170482E+04 -2.611075E+05  3.308528E+03 -5.023209E+03
       150  20 -6.227538E+05 -1.145604E+05 -1.967604E+04 -2.407347E+05  1.403313E+03 -3.222859E+03
       150  21 -5.735003E+05 -1.069798E+05 -8.565189E+03 -2.384130E+05 -5.116944E+02 -1.395677E+03
       150  22 -5.449660E+05 -9.672922E+04 -3.861954E+03 -2.305478E+05  4.883238E+03 -4.432510E+03
       150  23 -5.526998E+05 -8.841568E+04 -2.109470E+03 -2.215913E+05  2.997117E+03 -2.625097E+03
       150  24 -5.449117E+05 -9.635766E+04 -1.259459E+03 -2.306863E+05  1.101287E+03 -7.908340E+02
       150  25 -4.334320E+05 -5.505720E+04  2.397995E+04 -1.999831E+05  6.458258E+03 -3.841695E+03
       150  26 -4.826411E+05 -6.227074E+04  1.545668E+04 -2.024460E+05  4.591114E+03 -2.027264E+03
       150  27 -5.163225E+05 -8.573548E+04  6.046183E+03 -2.229592E+05  2.714343E+03 -1.859637E+02
       151   1 -5.335277E+05 -9.212371E+04  1.971871E+03 -2.275549E+05  1.181533E+03  1.588338E+02
       151   2 -4.998693E+05 -6.870638E+04  1.247782E+04 -2.071306E+05  2.409990E+03 -1.928854E+03
       151   3 -4.504536E+05 -6.115582E+04  2.268251E+04 -2.048353E+05  3.638558E+03 -4.016146E+03
       151   4 -5.448773E+05 -9.639572E+04 -1.026479E+03 -2.306571E+05 -4.239822E+02 -4.432023E+02
       151   5 -5.527542E+05 -8.845429E+04 -7.836238E+02 -2.215951E+05  8.046452E+02 -2.530910E+03
       151   6 -5.448767E+05 -9.638037E+04 -8.423790E+02 -2.306635E+05  2.033345E+03 -4.618217E+03
       151   7 -5.562268E+05 -1.006678E+05 -4.024850E+03 -2.337592E+05 -2.029476E+03 -1.045230E+03
       151   8 -6.056363E+05 -1.082020E+05 -1.404524E+04 -2.360586E+05 -8.005460E+02 -3.132909E+03
       151   9 -6.392899E+05 -1.316039E+05 -2.436764E+04 -2.564878E+05  4.284172E+02 -5.220180E+03
       151  10 -5.335277E+05 -9.212371E+04  1.971868E+03 -2.275549E+05 -1.977302E-09 -5.262539E-10
       151  11 -4.998693E+05 -6.870638E+04  1.247780E+04 -2.071305E+05  7.588743E-11  1.438449E-10
       151  12 -4.504536E+05 -6.115584E+04  2.268246E+04 -2.048353E+05  2.149646E-10  2.710320E-10
       151  13 -5.448773E+05 -9.639572E+04 -1.026479E+03 -2.306571E+05 -1.763514E-09 -3.570004E-10
       151  14 -5.527542E+05 -8.845430E+04 -7.836370E+02 -2.215951E+05  1.644068E-09 -2.019949E-10
       151  15 -5.448767E+05 -9.638040E+04 -8.424268E+02 -2.306635E+05  3.403807E-10  6.938752E-11
       151  16 -5.562268E+05 -1.006678E+05 -4.024860E+03 -2.337592E+05  6.038108E-10 -3.648210E-10
       151  17 -6.056363E+05 -1.082020E+05 -1.404526E+04 -2.360586E+05 -1.266985E-09 -4.900332E-10
       151  18 -6.392899E+05 -1.316039E+05 -2.436770E+04 -2.564878E+05  5.598583E-11 -6.613088E-11
       151  19 -5.335277E+05 -9.212371E+04  1.971871E+03 -2.275549E+05 -1.181533E+03 -1.588338E+02
       151  20 -4.998693E+05 -6.870638E+04  1.247782E+04 -2.071306E+05 -2.409990E+03  1.928854E+03
       151  21 -4.504536E+05 -6.115582E+04  2.268251E+04 -2.048353E+05 -3.638558E+03  4.016146E+03
       151  22 -5.448773E+05 -9.639572E+04 -1.026479E+03 -2.306571E+05  4.239822E+02  4.432023E+02
       151  23 -5.527542E+05 -8.845429E+04 -7.836238E+02 -2.215951E+05 -8.046452E+02  2.530910E+03
       151  24 -5.448767E+05 -9.638037E+04 -8.423790E+02 -2.306635E+05 -2.033345E+03  4.618217E+03
       151  25 -5.562268E+05 -1.006678E+05 -4.024850E+03 -2.337592E+05  2.029476E+03  1.045230E+03
       151  26 -6.056363E+05 -1.082020E+05 -1.404524E+04 -2.360586E+05  8.005460E+02  3.132909E+03
       151  27 -6.392899E+05 -1.316039E+05 -2.436764E+04 -2.564878E+05 -4.284172E+02  5.220180E+03
       152   1 -4.106454E+05 -4.623440E+04  3.283764E+04 -1.939718E+05  4.274631E+03 -5.259854E+03
       152   2 -3.771188E+05 -2.292180E+04  4.250130E+04 -1.736042E+05  5.867364E+03 -7.203168E+03
       152   3 -3.279456E+05 -1.547702E+04  5.158030E+04 -1.712824E+05  7.458152E+03 -9.138993E+03
       152   4 -5.449006E+05 -9.636259E+04 -9.731280E+02 -2.306526E+05  2.671179E+03 -5.861368E+03
       152   5 -5.527307E+05 -8.847147E+04 -1.527781E+03 -2.216137E+05  4.268917E+03 -7.803074E+03
       152   6 -5.449162E+05 -9.644949E+04 -2.670956E+03 -2.306215E+05  5.864656E+03 -9.737305E+03
       152   7 -6.791388E+05 -1.464899E+05 -3.478551E+04 -2.673264E+05  1.068099E+03 -6.462743E+03
       152   8 -7.283140E+05 -1.540197E+05 -4.555975E+04 -2.696114E+05  2.670950E+03 -8.402800E+03
       152   9 -7.618436E+05 -1.774200E+05 -5.692671E+04 -2.899427E+05  4.271748E+03 -1.033540E+04
       152  10 -4.106455E+05 -4.623443E+04  3.283755E+04 -1.939718E+05 -4.109515E-10  2.741516E-10
       152  11 -3.771189E+05 -2.292186E+04  4.250114E+04 -1.736042E+05 -3.566316E-11  5.216762E-10
       152  12 -3.279457E+05 -1.547712E+04  5.158004E+04 -1.712823E+05  2.073026E-09 -3.758948E-10
       152  13 -5.449006E+05 -9.636263E+04 -9.732059E+02 -2.306526E+05 -4.112794E-10  4.079322E-10
       152  14 -5.527307E+05 -8.847154E+04 -1.527930E+03 -2.216137E+05 -1.153581E-09  5.103407E-10
       152  15 -5.449163E+05 -9.644960E+04 -2.671199E+03 -2.306215E+05  1.066336E-10 -4.943275E-10
       152  16 -6.791388E+05 -1.464899E+05 -3.478559E+04 -2.673264E+05 -2.639951E-10  6.240179E-10
       152  17 -7.283140E+05 -1.540198E+05 -4.555989E+04 -2.696113E+05 -8.370634E-10  8.066899E-10
       152  18 -7.618437E+05 -1.774201E+05 -5.692694E+04 -2.899427E+05 -4.091371E-10 -5.748467E-10
       152  19 -4.106454E+05 -4.623440E+04  3.283764E+04 -1.939718E+05 -4.274631E+03  5.259854E+03
       152  20 -3.771188E+05 -2.292180E+04  4.250130E+04 -1.736042E+05 -5.867364E+03  7.203168E+03
       152  21 -3.279456E+05 -1.547702E+04  5.158030E+04 -1.712824E+05 -7.458152E+03  9.138993E+03
       152  22 -5.449006E+05 -9.636259E+04 -9.731280E+02 -2.306526E+05 -2.671179E+03  5.861368E+03
       152  23 -5.527307E+05 -8.847147E+04 -1.527781E+03 -2.216137E+05 -4.268917E+03  7.803074E+03
       152  24 -5.449162E+05 -9.644949E+04 -2.670956E+03 -2.306215E+05 -5.864656E+03  9.737305E+03
       152  25 -6.791388E+05 -1.464899E+05 -3.478551E+04 -2.673264E+05 -1.068099E+03  6.462743E+03
       152  26 -7.283140E+05 -1.540197E+05 -4.555975E+04 -2.696114E+05 -2.670950E+03  8.402800E+03
       152  27 -7.618436E+05 -1.774200E+05 -5.692671E+04 -2.899427E+05 -4.271748E+03  1.033540E+04
       153   1 -2.884044E+05 -6.559488E+02  6.095515E+04 -1.607044E+05  8.460044E+03 -1.024005E+04
       153   2 -2.550527E+05  2.271152E+04  6.830264E+04 -1.402348E+05  1.241260E+04 -1.126966E+04
       153   3 -2.069147E+05  2.911432E+04  7.298556E+04 -1.374271E+05  1.634839E+04 -1.225078E+04
       153   4 -5.450606E+05 -9.630773E+04 -3.508707E+03 -2.306842E+05  6.858584E+03 -1.084157E+04
       153   5 -5.525344E+05 -8.839557E+04 -6.290752E+03 -2.216391E+05  1.084427E+04 -1.185917E+04
       153   6 -5.452301E+05 -9.745522E+04 -1.176436E+04 -2.302566E+05  1.481297E+04 -1.282834E+04
       153   7 -8.016493E+05 -1.919541E+05 -6.797691E+04 -3.006370E+05  5.257868E+03 -1.144281E+04
       153   8 -8.499274E+05 -1.994961E+05 -8.089055E+04 -3.030076E+05  9.276766E+03 -1.244837E+04
       153   9 -8.834328E+05 -2.240169E+05 -9.652313E+04 -3.230402E+05  1.327847E+04 -1.340556E+04
       153  10 -2.884045E+05 -6.560805E+02  6.095482E+04 -1.607043E+05 -7.243269E-10 -9.453867E-10
       153  11 -2.550529E+05  2.271134E+04  6.830211E+04 -1.402347E+05 -1.544774E-10  1.303001E-09
       153  12 -2.069150E+05  2.911409E+04  7.298478E+04 -1.374269E+05  8.193273E-10  1.108613E-09
       153  13 -5.450607E+05 -9.630787E+04 -3.509016E+03 -2.306841E+05 -2.163262E-10  1.476790E-10
       153  14 -5.525346E+05 -8.839575E+04 -6.291238E+03 -2.216390E+05 -2.180089E-09  1.814507E-09
       153  15 -5.452304E+05 -9.745546E+04 -1.176508E+04 -2.302565E+05 -1.370322E-10  2.349508E-10
       153  16 -8.016493E+05 -1.919543E+05 -6.797721E+04 -3.006370E+05  1.218936E-09  7.896226E-10
       153  17 -8.499275E+05 -1.994963E+05 -8.089100E+04 -3.030075E+05 -5.058147E-10  1.393489E-09
       153  18 -8.834331E+05 -2.240172E+05 -9.652380E+04 -3.230401E+05 -1.591484E-09  6.622493E-10
       153  19 -2.884044E+05 -6.559488E+02  6.095515E+04 -1.607044E+05 -8.460044E+03  1.024005E+04
       153  20 -2.550527E+05  2.271152E+04  6.830264E+04 -1.402348E+05 -1.241260E+04  1.126966E+04
       153  21 -2.069147E+05  2.911432E+04  7.298556E+04 -1.374271E+05 -1.634839E+04  1.225078E+04
       153  22 -5.450606E+05 -9.630773E+04 -3.508707E+03 -2.306842E+05 -6.858584E+03  1.084157E+04
       153  23 -5.525344E+05 -8.839557E+04 -6.290752E+03 -2.216391E+05 -1.084427E+04  1.185917E+04
       153  24 -5.452301E+05 -9.745522E+04 -1.176436E+04 -2.302566E+05 -1.481297E+04  1.282834E+04
       153  25 -8.016493E+05 -1.919541E+05 -6.797691E+04 -3.006370E+05 -5.257868E+03  1.144281E+04
       153  26 -8.499274E+05 -1.994961E+05 -8.089055E+04 -3.030076E+05 -9.276766E+03  1.244837E+04
       153  27 -8.834328E+05 -2.240169E+05 -9.652313E+04 -3.230402E+05 -1.327847E+04  1.340556E+04
       154   1 -1.667858E+05  4.362821E+04  7.945556E+04 -1.300082E+05  1.927025E+04 -1.271422E+04
       154   2 -1.340091E+05  7.006379E+04  7.744849E+04 -1.058995E+05  3.349240E+04 -9.719190E+03
       154   3 -9.382406E+04  6.405347E+04  6.084527E+04 -9.542399E+04  4.741485E+04 -5.919979E+03
       154   4 -5.461591E+05 -9.567718E+04 -1.535347E+04 -2.313357E+05  1.749633E+04 -1.338166E+04
       154   5 -5.509160E+05 -8.719971E+04 -2.740274E+04 -2.215863E+05  3.228679E+04 -1.017373E+04
       154   6 -5.483847E+05 -1.112904E+05 -5.450678E+04 -2.254716E+05  4.677653E+04 -6.161899E+03
       154   7 -9.253931E+05 -2.349750E+05 -1.101742E+05 -3.326080E+05  1.572359E+04 -1.404868E+04
       154   8 -9.676535E+05 -2.444513E+05 -1.322680E+05 -3.372027E+05  3.108205E+04 -1.062794E+04
       154   9 -1.002743E+06 -2.866171E+05 -1.698755E+05 -3.554317E+05  4.613872E+04 -6.403617E+03
       154  10 -1.667862E+05  4.362793E+04  7.945455E+04 -1.300080E+05 -6.322396E-10 -1.286289E-10
       154  11 -1.340103E+05  7.006339E+04  7.744621E+04 -1.058992E+05  4.272881E-09  1.337846E-09
       154  12 -9.382649E+04  6.405283E+04  6.084098E+04 -9.542377E+04  1.553143E-09 -7.251310E-10
       154  13 -5.461594E+05 -9.567745E+04 -1.535438E+04 -2.313355E+05 -2.830337E-10  1.896503E-10
       154  14 -5.509171E+05 -8.720010E+04 -2.740490E+04 -2.215861E+05  9.784119E-11  8.677042E-10
       154  15 -5.483870E+05 -1.112910E+05 -5.451097E+04 -2.254714E+05 -1.388468E-10 -1.112494E-09
       154  16 -9.253934E+05 -2.349753E+05 -1.101750E+05 -3.326078E+05  2.348907E-10  7.480895E-10
       154  17 -9.676545E+05 -2.444516E+05 -1.322701E+05 -3.372024E+05 -1.526978E-09  2.109449E-09
       154  18 -1.002745E+06 -2.866177E+05 -1.698796E+05 -3.554315E+05  3.311617E-10  1.856338E-10
       154  19 -1.667858E+05  4.362821E+04  7.945556E+04 -1.300082E+05 -1.927025E+04  1.271422E+04
       154  20 -1.340091E+05  7.006379E+04  7.744849E+04 -1.058995E+05 -3.349240E+04  9.719190E+03
       154  21 -9.382406E+04  6.405347E+04  6.084527E+04 -9.542399E+04 -4.741485E+04  5.919979E+03
       154  22 -5.461591E+05 -9.567718E+04 -1.535347E+04 -2.313357E+05 -1.749633E+04  1.338166E+04
       154  23 -5.509160E+05 -8.719971E+04 -2.740274E+04 -2.215863E+05 -3.228679E+04  1.017373E+04
       154  24 -5.483847E+05 -1.112904E+05 -5.450678E+04 -2.254716E+05 -4.677653E+04  6.161899E+03
       154  25 -9.253931E+05 -2.349750E+05 -1.101742E+05 -3.326080E+05 -1.572359E+04  1.404868E+04
       154  26 -9.676535E+05 -2.444513E+05 -1.322680E+05 -3.372027E+05 -3.108205E+04  1.062794E+04
       154  27 -1.002743E+06 -2.866171E+05 -1.698755E+05 -3.554317E+05 -4.613872E+04  6.403617E+03
       155   1 -3.843120E+04  7.681610E+04  5.631886E+04 -1.279523E+05  6.251483E+04 -3.798519E+03
       155   2 -1.700187E+04  1.473798E+05  1.802366E+04 -5.159605E+04  1.144215E+05  1.604687E+04
       155   3 -7.027452E+04 -1.652213E+04 -1.191812E+05  6.523824E+04  1.603604E+05  5.174444E+04
       155   4 -5.572868E+05 -8.736267E+04 -6.806255E+04 -2.395486E+05  5.697636E+04 -5.881416E+03
       155   5 -5.335337E+05 -7.269903E+04 -1.171914E+05 -2.207206E+05  1.202266E+05  1.822586E+04
       155   6 -5.868135E+05 -2.948807E+05 -2.742887E+05 -1.613966E+05  1.775049E+05  5.817938E+04
       155   7 -1.075878E+06 -2.515403E+05 -1.924626E+05 -3.510685E+05  5.144294E+04 -7.963081E+03
       155   8 -1.049798E+06 -2.927359E+05 -2.524279E+05 -3.897084E+05  1.260263E+05  2.040221E+04
       155   9 -1.103069E+06 -5.731240E+05 -4.294181E+05 -3.878305E+05  1.946335E+05  6.460253E+04
       155  10 -3.843540E+04  7.681503E+04  5.631148E+04 -1.279521E+05  1.440271E-09 -9.702609E-10
       155  11 -1.701600E+04  1.473760E+05  1.799857E+04 -5.159753E+04  2.530080E-09 -2.312334E-09
       155  12 -7.030286E+04 -1.653190E+04 -1.192346E+05  6.523156E+04 -1.952722E-10 -2.645585E-09
       155  13 -5.572903E+05 -8.736358E+04 -6.806872E+04 -2.395483E+05 -6.197453E-10 -2.591178E-09
       155  14 -5.335493E+05 -7.270327E+04 -1.172192E+05 -2.207223E+05 -5.252765E-10 -2.722512E-09
       155  15 -5.868483E+05 -2.948928E+05 -2.743543E+05 -1.614049E+05  7.773866E-10  1.789784E-09
       155  16 -1.075881E+06 -2.515411E+05 -1.924677E+05 -3.510682E+05 -3.204681E-10 -7.680253E-10
       155  17 -1.049815E+06 -2.927406E+05 -2.524586E+05 -3.897105E+05  1.721465E-09  1.957453E-10
       155  18 -1.103110E+06 -5.731387E+05 -4.294972E+05 -3.878406E+05  2.208144E-09 -1.392794E-09
       155  19 -3.843120E+04  7.681610E+04  5.631886E+04 -1.279523E+05 -6.251483E+04  3.798519E+03
       155  20 -1.700187E+04  1.473798E+05  1.802366E+04 -5.159605E+04 -1.144215E+05 -1.604687E+04
       155  21 -7.027452E+04 -1.652213E+04 -1.191812E+05  6.523824E+04 -1.603604E+05 -5.174444E+04
       155  22 -5.572868E+05 -8.736267E+04 -6.806255E+04 -2.395486E+05 -5.697636E+04  5.881416E+03
       155  23 -5.335337E+05 -7.269903E+04 -1.171914E+05 -2.207206E+05 -1.202266E+05 -1.822586E+04
       155  24 -5.868135E+05 -2.948807E+05 -2.742887E+05 -1.613966E+05 -1.775049E+05 -5.817938E+04
       155  25 -1.075878E+06 -2.515403E+05 -1.924626E+05 -3.510685E+05 -5.144294E+04  7.963081E+03
       155  26 -1.049798E+06 -2.927359E+05 -2.524279E+05 -3.897084E+05 -1.260263E+05 -2.040221E+04
       155  27 -1.103069E+06 -5.731240E+05 -4.294181E+05 -3.878305E+05 -1.946335E+05 -6.460253E+04
       156   1  2.362465E+05  2.118688E+06  2.370840E+05 -2.164323E+04  1.023217E+04  1.116118E+05
       156   2  1.753591E+05  2.138056E+06  1.741218E+05  1.075022E+03  3.607931E+04  6.363512E+04
       156   3  1.663927E+05  2.176695E+06  1.553357E+05  3.163857E+04  4.699109E+04  1.564911E+04
       156   4  7.821763E+04  1.476847E+06  8.788633E+04  2.760115E+04  1.028022E+04  5.713063E+04
       156   5  1.615693E+04  1.469343E+06  4.567045E+04  2.364256E+04  3.610987E+04  3.360951E+04
       156   6  1.806786E+03  1.476886E+06  3.069921E+04  2.752956E+04  4.700093E+04  1.007956E+04
       156   7 -7.982959E+04  8.353966E+05 -6.132668E+04  7.679447E+04  1.031967E+04  2.705176E+03
       156   8 -1.430693E+05  8.010628E+05 -8.279783E+04  4.618538E+04  3.613828E+04  3.615383E+03
       156   9 -1.628061E+05  7.775544E+05 -9.395563E+04  2.342540E+04  4.701085E+04  4.516083E+03
       156  10  2.362430E+05  2.118674E+06  2.370605E+05 -2.164415E+04 -7.013198E-10 -1.364980E-09
       156  11  1.753566E+05  2.138051E+06  1.741118E+05  1.073175E+03 -1.552927E-10 -2.913123E-09
       156  12  1.663903E+05  2.176694E+06  1.553311E+05  3.163798E+04 -1.626142E-10 -9.590862E-10
       156  13  7.821664E+04  1.476843E+06  8.788001E+04  2.760068E+04  9.042845E-10 -5.972794E-10
       156  14  1.615523E+04  1.469342E+06  4.566588E+04  2.364158E+04  8.306062E-10 -9.820784E-10
       156  15  1.804385E+03  1.476886E+06  3.069486E+04  2.752918E+04 -1.225091E-09 -1.680567E-10
       156  16 -7.982971E+04  8.353966E+05 -6.132689E+04  7.679444E+04 -1.851411E-10  9.422574E-10
       156  17 -1.430707E+05  8.010625E+05 -8.280031E+04  4.618528E+04  8.292391E-10  8.899981E-11
       156  18 -1.628084E+05  7.775538E+05 -9.395982E+04  2.342523E+04 -1.674629E-09 -7.678835E-10
       156  19  2.362465E+05  2.118688E+06  2.370840E+05 -2.164323E+04 -1.023217E+04 -1.116118E+05
       156  20  1.753591E+05  2.138056E+06  1.741218E+05  1.075022E+03 -3.607931E+04 -6.363512E+04
       156  21  1.663927E+05  2.176695E+06  1.553357E+05  3.163857E+04 -4.699109E+04 -1.564911E+04
       156  22  7.821763E+04  1.476847E+06  8.788633E+04  2.760115E+04 -1.028022E+04 -5.713063E+04
       156  23  1.615693E+04  1.469343E+06  4.567045E+04  2.364256E+04 -3.610987E+04 -3.360951E+04
       156  24  1.806786E+03  1.476886E+06  3.069921E+04  2.752956E+04 -4.700093E+04 -1.007956E+04
       156  25 -7.982959E+04  8.353966E+05 -6.132668E+04  7.679447E+04 -1.031967E+04 -2.705176E+03
       156  26 -1.430693E+05  8.010628E+05 -8.279783E+04  4.618538E+04 -3.613828E+04 -3.615383E+03
       156  27 -1.628061E+05  7.775544E+05 -9.395563E+04  2.342540E+04 -4.701085E+04 -4.516083E+03
       157   1  1.719778E+05  2.192732E+06  1.552061E+05  2.425433E+04  4.884167E+04  1.318750E+04
       157   2  1.766354E+05  2.220068E+06  1.593100E+05  2.349978E+04  5.205830E+04 -5.752238E+03
       157   3  1.891392E+05  2.251906E+06  1.776987E+05  2.964745E+04  5.228669E+04 -2.469561E+04
       157   4  3.133833E+03  1.474345E+06  2.789735E+04  2.732866E+04  4.885463E+04  5.506331E+03
       157   5  1.202558E+03  1.472507E+06  2.812406E+04  2.387871E+04  5.206709E+04 -8.527579E+03
       157   6  6.273399E+03  1.474325E+06  3.924554E+04  2.733139E+04  5.228971E+04 -2.256424E+04
       157   7 -1.657384E+05  7.564611E+05 -9.943042E+04  3.039945E+04  4.886752E+04 -2.166231E+03
       157   8 -1.742606E+05  7.254908E+05 -1.030821E+05  2.425733E+04  5.207589E+04 -1.129968E+04
       157   9 -1.766256E+05  6.973330E+05 -9.923038E+04  2.501849E+04  5.229272E+04 -2.043545E+04
       157  10  1.719752E+05  2.192731E+06  1.552013E+05  2.425381E+04  3.608729E-10  5.269856E-10
       157  11  1.766324E+05  2.220067E+06  1.593049E+05  2.350002E+04  1.703126E-09 -3.249358E-09
       157  12  1.891361E+05  2.251905E+06  1.776924E+05  2.964849E+04  8.393193E-10 -2.183103E-09
       157  13  3.131261E+03  1.474345E+06  2.789281E+04  2.732844E+04 -1.142599E-10 -1.084271E-09
       157  14  1.199625E+03  1.472506E+06  2.811882E+04  2.387907E+04  2.269221E-09 -1.385571E-09
       157  15  6.270325E+03  1.474324E+06  3.923945E+04  2.733234E+04 -1.034518E-10 -2.510585E-10
       157  16 -1.657410E+05  7.564605E+05 -9.943492E+04  3.039954E+04 -1.223417E-09 -1.346795E-09
       157  17 -1.742636E+05  7.254900E+05 -1.030874E+05  2.425780E+04 -3.097741E-11 -8.536130E-10
       157  18 -1.766287E+05  6.973318E+05 -9.923631E+04  2.501935E+04  1.892928E-09 -3.890792E-10
       157  19  1.719778E+05  2.192732E+06  1.552061E+05  2.425433E+04 -4.884167E+04 -1.318750E+04
       157  20  1.766354E+05  2.220068E+06  1.593100E+05  2.349978E+04 -5.205830E+04  5.752238E+03
       157  21  1.891392E+05  2.251906E+06  1.776987E+05  2.964745E+04 -5.228669E+04  2.469561E+04
       157  22  3.133833E+03  1.474345E+06  2.789735E+04  2.732866E+04 -4.885463E+04 -5.506331E+03
       157  23  1.202558E+03  1.472507E+06  2.812406E+04  2.387871E+04 -5.206709E+04  8.527579E+03
       157  24  6.273399E+03  1.474325E+06  3.924554E+04  2.733139E+04 -5.228971E+04  2.256424E+04
       157  25 -1.657384E+05  7.564611E+05 -9.943042E+04  3.039945E+04 -4.886752E+04  2.166231E+03
       157  26 -1.742606E+05  7.254908E+05 -1.030821E+05  2.425733E+04 -5.207589E+04  1.129968E+04
       157  27 -1.766256E+05  6.973330E+05 -9.923038E+04  2.501849E+04 -5.229272E+04  2.043545E+04
       158   1  1.913547E+05  2.277896E+06  1.915052E+05  1.662779E+04  5.276978E+04 -2.856240E+04
       158   2  2.278179E+05  2.291229E+06  2.430880E+05  6.510137E+04  4.306105E+04 -1.047716E+05
       158   3  3.611875E+05  2.338756E+06  3.684137E+05  1.193613E+05  1.292852E+04 -1.810269E+05
       158   4  3.439481E+03  1.479834E+06  4.844346E+04  2.704786E+04  5.277609E+04 -2.918160E+04
       158   5  3.112214E+04  1.465558E+06  8.273175E+04  2.426581E+04  4.302151E+04 -7.193328E+04
       158   6  1.499750E+05  1.479715E+06  1.676170E+05  2.726589E+04  1.284327E+04 -1.147234E+05
       158   7 -1.845107E+05  6.823907E+05 -9.464275E+04  3.745441E+04  5.278238E+04 -2.980002E+04
       158   8 -1.656074E+05  6.405457E+05 -7.765175E+04 -1.651418E+04  4.297764E+04 -3.913749E+04
       158   9 -6.125521E+04  6.213781E+05 -3.320880E+04 -6.470143E+04  1.273836E+04 -4.851070E+04
       158  10  1.913515E+05  2.277894E+06  1.914985E+05  1.662900E+04 -6.949669E-10 -5.440591E-10
       158  11  2.278130E+05  2.291217E+06  2.430640E+05  6.510500E+04 -4.342428E-11 -4.066861E-09
       158  12  3.611785E+05  2.338721E+06  3.683521E+05  1.193632E+05 -1.276921E-10 -2.261437E-09
       158  13  3.436260E+03  1.479832E+06  4.843663E+04  2.704910E+04  1.007438E-09 -1.366618E-09
       158  14  3.111877E+04  1.465552E+06  8.271857E+04  2.426831E+04 -1.002172E-09 -1.600530E-09
       158  15  1.499713E+05  1.479700E+06  1.675920E+05  2.726708E+04  7.879669E-10 -1.226465E-10
       158  16 -1.845139E+05  6.823890E+05 -9.464965E+04  3.745568E+04  4.158533E-10 -3.363989E-10
       158  17 -1.656097E+05  6.405435E+05 -7.765809E+04 -1.651282E+04 -2.284977E-09 -6.938766E-10
       158  18 -6.125601E+04  6.213755E+05 -3.321352E+04 -6.470093E+04  2.114880E-11 -1.073217E-09
       158  19  1.913547E+05  2.277896E+06  1.915052E+05  1.662779E+04 -5.276978E+04  2.856240E+04
       158  20  2.278179E+05  2.291229E+06  2.430880E+05  6.510137E+04 -4.306105E+04  1.047716E+05
       158  21  3.611875E+05  2.338756E+06  3.684137E+05  1.193613E+05 -1.292852E+04  1.810269E+05
       158  22  3.439481E+03  1.479834E+06  4.844346E+04  2.704786E+04 -5.277609E+04  2.918160E+04
       158  23  3.112214E+04  1.465558E+06  8.273175E+04  2.426581E+04 -4.302151E+04  7.193328E+04
       158  24  1.499750E+05  1.479715E+06  1.676170E+05  2.726589E+04 -1.284327E+04  1.147234E+05
       158  25 -1.845107E+05  6.823907E+05 -9.464275E+04  3.745441E+04 -5.278238E+04  2.980002E+04
       158  26 -1.656074E+05  6.405457E+05 -7.765175E+04 -1.651418E+04 -4.297764E+04  3.913749E+04
       158  27 -6.125521E+04  6.213781E+05 -3.320880E+04 -6.470143E+04 -1.273836E+04  4.851070E+04
       159   1 -1.473603E+05 -1.234770E+05 -7.592482E+04  8.631005E+03  1.194574E+05  1.539972E+04
       159   2 -5.316927E+04 -2.857797E+05 -1.548999E+05 -1.536507E+04  8.954487E+04  4.690774E+04
       159   3  9.361622E+04 -2.566135E+05 -1.663715E+05 -9.737252E+04  5.967270E+04  4.649740E+04
       159   4  1.097574E+06  1.857512E+05  2.274863E+05 -6.960689E+04  1.561596E+05  1.543874E+04
       159   5  1.069292E+06 -1.006122E+04  1.021437E+05 -4.048238E+04  1.016442E+05  4.691158E+04
       159   6  1.097746E+06 -1.033590E+04  6.127585E+04 -6.935578E+04  4.717710E+04  4.648664E+04
       159   7  2.343938E+06  4.948895E+05  5.307934E+05 -1.480025E+05  1.929350E+05  1.546849E+04
       159   8  2.192920E+06  2.655722E+05  3.591055E+05 -6.564577E+04  1.137650E+05  4.691443E+04
       159   9  2.102814E+06  2.358753E+05  2.888592E+05 -4.129343E+04  3.466143E+04  4.647477E+04
       159  10 -1.473757E+05 -1.234811E+05 -7.595209E+04  8.629523E+03 -2.962178E-10 -8.468398E-11
       159  11 -5.317848E+04 -2.857842E+05 -1.549192E+05 -1.536845E+04  1.436359E-09 -3.310196E-10
       159  12  9.361182E+04 -2.566168E+05 -1.663823E+05 -9.737476E+04  2.047004E-11 -9.905982E-11
       159  13  1.097548E+06  1.857444E+05  2.274401E+05 -6.960883E+04 -5.623278E-10 -8.253652E-11
       159  14  1.069280E+06 -1.006635E+04  1.021201E+05 -4.048622E+04 -1.302068E-10 -1.597428E-10
       159  15  1.097743E+06 -1.033882E+04  6.126761E+04 -6.935755E+04  2.168502E-10  6.265577E-12
       159  16  2.343898E+06  4.948793E+05  5.307233E+05 -1.480049E+05 -9.369752E-10 -6.581051E-11
       159  17  2.192906E+06  2.655664E+05  3.590771E+05 -6.565006E+04 -2.969093E-10 -9.613914E-11
       159  18  2.102812E+06  2.358726E+05  2.888528E+05 -4.129472E+04 -4.028847E-10  9.970954E-11
       159  19 -1.473603E+05 -1.234770E+05 -7.592482E+04  8.631005E+03 -1.194574E+05 -1.539972E+04
       159  20 -5.316927E+04 -2.857797E+05 -1.548999E+05 -1.536507E+04 -8.954487E+04 -4.690774E+04
       159  21  9.361622E+04 -2.566135E+05 -1.663715E+05 -9.737252E+04 -5.967270E+04 -4.649740E+04
       159  22  1.097574E+06  1.857512E+05  2.274863E+05 -6.960689E+04 -1.561596E+05 -1.543874E+04
       159  23  1.069292E+06 -1.006122E+04  1.021437E+05 -4.048238E+04 -1.016442E+05 -4.691158E+04
       159  24  1.097746E+06 -1.033590E+04  6.127585E+04 -6.935578E+04 -4.717710E+04 -4.648664E+04
       159  25  2.343938E+06  4.948895E+05  5.307934E+05 -1.480025E+05 -1.929350E+05 -1.546849E+04
       159  26  2.192920E+06  2.655722E+05  3.591055E+05 -6.564577E+04 -1.137650E+05 -4.691443E+04
       159  27  2.102814E+06  2.358753E+05  2.888592E+05 -4.129343E+04 -3.466143E+04 -4.647477E+04
       160   1  1.910475E+05 -2.071189E+05 -1.548147E+05 -6.529275E+04  4.090406E+04  3.941167E+04
       160   2  3.062591E+05 -1.917240E+05 -1.504990E+05 -3.948543E+04  2.884848E+04  3.511882E+04
       160   3  4.268149E+05 -1.626188E+05 -1.348333E+05 -7.155916E+04  1.678490E+04  2.935876E+04
       160   4  1.086394E+06  1.262246E+04  4.916853E+04 -6.939711E+04  3.821043E+04  3.940624E+04
       160   5  1.083665E+06 -1.027863E+03  2.614868E+04 -4.045753E+04  2.501011E+04  3.511512E+04
       160   6  1.086457E+06 -7.792610E+02  1.526071E+04 -6.939391E+04  1.180406E+04  2.935755E+04
       160   7  1.982484E+06  2.323084E+05  2.530996E+05 -7.350748E+04  3.551291E+04  3.940085E+04
       160   8  1.861632E+06  1.896266E+05  2.027573E+05 -4.143085E+04  2.116696E+04  3.511143E+04
       160   9  1.746503E+06  1.610302E+05  1.653266E+05 -6.722631E+04  6.817961E+03  2.935630E+04
       160  10  1.910453E+05 -2.071210E+05 -1.548207E+05 -6.529405E+04  7.859652E-10 -5.379743E-12
       160  11  3.062579E+05 -1.917255E+05 -1.505029E+05 -3.948625E+04  1.013244E-09 -1.158176E-10
       160  12  4.268144E+05 -1.626198E+05 -1.348355E+05 -7.155955E+04  4.425656E-10  7.715063E-11
       160  13  1.086392E+06  1.262040E+04  4.916287E+04 -6.939832E+04 -5.210661E-10  1.287295E-10
       160  14  1.083664E+06 -1.029356E+03  2.614519E+04 -4.045823E+04 -1.087676E-09  5.831685E-11
       160  15  1.086457E+06 -7.802243E+02  1.525883E+04 -6.939419E+04 -2.783015E-10 -2.232465E-11
       160  16  1.982482E+06  2.323064E+05  2.530943E+05 -7.350860E+04 -1.421611E-09  3.142898E-10
       160  17  1.861631E+06  1.896251E+05  2.027541E+05 -4.143145E+04 -1.650420E-09  2.016984E-10
       160  18  1.746503E+06  1.610293E+05  1.653249E+05 -6.722647E+04 -3.203529E-10 -6.062056E-11
       160  19  1.910475E+05 -2.071189E+05 -1.548147E+05 -6.529275E+04 -4.090406E+04 -3.941167E+04
       160  20  3.062591E+05 -1.917240E+05 -1.504990E+05 -3.948543E+04 -2.884848E+04 -3.511882E+04
       160  21  4.268149E+05 -1.626188E+05 -1.348333E+05 -7.155916E+04 -1.678490E+04 -2.935876E+04
       160  22  1.086394E+06  1.262246E+04  4.916853E+04 -6.939711E+04 -3.821043E+04 -3.940624E+04
       160  23  1.083665E+06 -1.027863E+03  2.614868E+04 -4.045753E+04 -2.501011E+04 -3.511512E+04
       160  24  1.086457E+06 -7.792610E+02  1.526071E+04 -6.939391E+04 -1.180406E+04 -2.935755E+04
       160  25  1.982484E+06  2.323084E+05  2.530996E+05 -7.350748E+04 -3.551291E+04 -3.940085E+04
       160  26  1.861632E+06  1.896266E+05  2.027573E+05 -4.143085E+04 -2.116696E+04 -3.511143E+04
       160  27  1.746503E+06  1.610302E+05  1.653266E+05 -6.722631E+04 -6.817961E+03 -2.935630E+04
       161   1  5.325147E+05 -1.347493E+05 -1.134785E+05 -6.912960E+04  1.392721E+04  2.570129E+04
       161   2  6.486453E+05 -1.071397E+05 -9.241487E+04 -4.060489E+04  1.064852E+04  1.980623E+04
       161   3  7.655109E+05 -7.850334E+04 -6.895347E+04 -6.931916E+04  7.365403E+03  1.385844E+04
       161   4  1.085423E+06  7.859688E+02  1.177348E+04 -6.925245E+04  9.421504E+03  2.570113E+04
       161   5  1.085073E+06 -1.172725E+02  6.682632E+03 -4.063442E+04  6.099224E+03  1.980739E+04
       161   6  1.085453E+06  1.436802E+01  4.018859E+03 -6.925289E+04  2.773122E+03  1.386100E+04
       161   7  1.638615E+06  1.363002E+05  1.370059E+05 -6.937538E+04  4.911820E+03  2.570097E+04
       161   8  1.521677E+06  1.068921E+05  1.057679E+05 -4.066394E+04  1.546760E+03  1.980856E+04
       161   9  1.405491E+06  7.852500E+04  7.698459E+04 -6.918656E+04 -1.821503E+03  1.386356E+04
       161  10  5.325144E+05 -1.347501E+05 -1.134801E+05 -6.912989E+04 -2.640869E-10  1.459161E-10
       161  11  6.486451E+05 -1.071402E+05 -9.241582E+04 -4.060506E+04 -7.259439E-11 -2.420201E-10
       161  12  7.655108E+05 -7.850356E+04 -6.895393E+04 -6.931924E+04 -3.941184E-10  1.350919E-10
       161  13  1.085423E+06  7.852353E+02  1.177207E+04 -6.925265E+04 -4.130110E-11  3.272832E-11
       161  14  1.085073E+06 -1.177040E+02  6.681824E+03 -4.063452E+04  1.027914E-09  8.694885E-11
       161  15  1.085453E+06  1.415954E+01  4.018483E+03 -6.925292E+04  3.380309E-10 -1.339310E-10
       161  16  1.638615E+06  1.362995E+05  1.370046E+05 -6.937548E+04  9.589750E-11  4.059579E-11
       161  17  1.521677E+06  1.068916E+05  1.057671E+05 -4.066397E+04  3.909912E-10  2.218879E-10
       161  18  1.405490E+06  7.852480E+04  7.698423E+04 -6.918654E+04  5.263817E-10 -3.705321E-10
       161  19  5.325147E+05 -1.347493E+05 -1.134785E+05 -6.912960E+04 -1.392721E+04 -2.570129E+04
       161  20  6.486453E+05 -1.071397E+05 -9.241487E+04 -4.060489E+04 -1.064852E+04 -1.980623E+04
       161  21  7.655109E+05 -7.850334E+04 -6.895347E+04 -6.931916E+04 -7.365403E+03 -1.385844E+04
       161  22  1.085423E+06  7.859688E+02  1.177348E+04 -6.925245E+04 -9.421504E+03 -2.570113E+04
       161  23  1.085073E+06 -1.172725E+02  6.682632E+03 -4.063442E+04 -6.099224E+03 -1.980739E+04
       161  24  1.085453E+06  1.436802E+01  4.018859E+03 -6.925289E+04 -2.773122E+03 -1.386100E+04
       161  25  1.638615E+06  1.363002E+05  1.370059E+05 -6.937538E+04 -4.911820E+03 -2.570097E+04
       161  26  1.521677E+06  1.068921E+05  1.057679E+05 -4.066394E+04 -1.546760E+03 -1.980856E+04
       161  27  1.405491E+06  7.852500E+04  7.698459E+04 -6.918656E+04  1.821503E+03 -1.386356E+04
       162   1  8.712141E+05 -5.232005E+04 -4.508712E+04 -6.914673E+04  6.684255E+03  1.039014E+04
       162   2  9.870694E+05 -2.404928E+04 -2.011765E+04 -4.069973E+04  5.603426E+03  4.454995E+03
       162   3  1.103028E+06  4.361727E+03  5.568744E+03 -6.919569E+04  4.521515E+03 -1.479401E+03
       162   4  1.085324E+06  1.100727E+02  3.184883E+03 -6.918741E+04  2.120591E+03  1.039320E+04
       162   5  1.085283E+06  2.998975E+01  2.177902E+03 -4.071623E+04  1.039610E+03  4.458338E+03
       162   6  1.085331E+06  9.050726E+01  1.887804E+03 -6.918745E+04 -4.225549E+01 -1.475730E+03
       162   7  1.299477E+06  5.253707E+04  5.145404E+04 -6.922809E+04 -2.444630E+03  1.039627E+04
       162   8  1.183506E+06  2.410861E+04  2.447291E+04 -4.073272E+04 -3.524921E+03  4.461681E+03
       162   9  1.067634E+06 -4.180721E+03 -1.793074E+03 -6.917922E+04 -4.605899E+03 -1.472060E+03
       162  10  8.712140E+05 -5.232018E+04 -4.508741E+04 -6.914679E+04 -1.522678E-09  3.875141E-10
       162  11  9.870694E+05 -2.404931E+04 -2.011774E+04 -4.069975E+04 -3.410245E-10  1.613840E-10
       162  12  1.103028E+06  4.361719E+03  5.568701E+03 -6.919568E+04  1.248683E-10 -1.027676E-10
       162  13  1.085324E+06  1.099555E+02  3.184671E+03 -6.918743E+04  6.583728E-11 -5.045306E-11
       162  14  1.085283E+06  2.996810E+01  2.177863E+03 -4.071623E+04 -9.599563E-10  4.678581E-10
       162  15  1.085331E+06  9.050492E+01  1.887800E+03 -6.918745E+04  3.717668E-10  2.405612E-11
       162  16  1.299477E+06  5.253695E+04  5.145382E+04 -6.922807E+04  6.314375E-10 -3.996793E-10
       162  17  1.183506E+06  2.410858E+04  2.447285E+04 -4.073271E+04  3.746038E-10  3.156452E-10
       162  18  1.067634E+06 -4.180729E+03 -1.793118E+03 -6.917922E+04  8.672712E-10 -1.173397E-10
       162  19  8.712141E+05 -5.232005E+04 -4.508712E+04 -6.914673E+04 -6.684255E+03 -1.039014E+04
       162  20  9.870694E+05 -2.404928E+04 -2.011765E+04 -4.069973E+04 -5.603426E+03 -4.454995E+03
       162  21  1.103028E+06  4.361727E+03  5.568744E+03 -6.919569E+04 -4.521515E+03  1.479401E+03
       162  22  1.085324E+06  1.100727E+02  3.184883E+03 -6.918741E+04 -2.120591E+03 -1.039320E+04
       162  23  1.085283E+06  2.998975E+01  2.177902E+03 -4.071623E+04 -1.039610E+03 -4.458338E+03
       162  24  1.085331E+06  9.050726E+01  1.887804E+03 -6.918745E+04  4.225549E+01  1.475730E+03
       162  25  1.299477E+06  5.253707E+04  5.145404E+04 -6.922809E+04  2.444630E+03 -1.039627E+04
       162  26  1.183506E+06  2.410861E+04  2.447291E+04 -4.073272E+04  3.524921E+03 -4.461681E+03
       162  27  1.067634E+06 -4.180721E+03 -1.793074E+03 -6.917922E+04  4.605899E+03  1.472060E+03
       163   1  1.208695E+06  3.039559E+04  3.029700E+04 -6.925855E+04  4.171290E+03 -4.933336E+03
       163   2  1.324708E+06  5.870367E+04  5.692056E+04 -4.074786E+04  2.897737E+03 -1.087208E+04
       163   3  1.440884E+06  8.716712E+04  8.439580E+04 -6.925752E+04  1.626070E+03 -1.681703E+04
       163   4  1.085341E+06  8.981359E+01  1.963259E+03 -6.920507E+04 -3.949478E+02 -4.929802E+03
       163   5  1.085258E+06  9.165879E+00  2.574164E+03 -4.069420E+04 -1.673242E+03 -1.086931E+04
       163   6  1.085325E+06  8.564045E+01  4.040874E+03 -6.920502E+04 -2.949417E+03 -1.681496E+04
       163   7  9.620021E+05 -3.021702E+04 -2.637140E+04 -6.915160E+04 -4.960288E+03 -4.926269E+03
       163   8  8.458604E+05 -5.868928E+04 -5.177586E+04 -4.064055E+04 -6.242477E+03 -1.086653E+04
       163   9  7.298837E+05 -8.700451E+04 -7.632208E+04 -6.915253E+04 -7.522314E+03 -1.681290E+04
       163  10  1.208695E+06  3.039556E+04  3.029692E+04 -6.925853E+04 -9.395361E-10 -3.594109E-10
       163  11  1.324708E+06  5.870354E+04  5.692032E+04 -4.074784E+04  1.195896E-09 -3.478206E-10
       163  12  1.440884E+06  8.716682E+04  8.439526E+04 -6.925750E+04  4.748630E-10  5.016933E-10
       163  13  1.085341E+06  8.978744E+01  1.963213E+03 -6.920507E+04 -6.873701E-10 -7.667666E-11
       163  14  1.085258E+06  9.038199E+00  2.573937E+03 -4.069422E+04 -6.474494E-10  2.435851E-10
       163  15  1.085325E+06  8.533434E+01  4.040327E+03 -6.920506E+04  7.996848E-10  3.870038E-10
       163  16  9.620021E+05 -3.021705E+04 -2.637149E+04 -6.915162E+04 -1.967819E-10 -2.934887E-10
       163  17  8.458603E+05 -5.868941E+04 -5.177616E+04 -4.064061E+04 -6.241818E-10  4.747297E-10
       163  18  7.298836E+05 -8.700482E+04 -7.632272E+04 -6.915263E+04  2.659050E-10 -5.541401E-11
       163  19  1.208695E+06  3.039559E+04  3.029700E+04 -6.925855E+04 -4.171290E+03  4.933336E+03
       163  20  1.324708E+06  5.870367E+04  5.692056E+04 -4.074786E+04 -2.897737E+03  1.087208E+04
       163  21  1.440884E+06  8.716712E+04  8.439580E+04 -6.925752E+04 -1.626070E+03  1.681703E+04
       163  22  1.085341E+06  8.981359E+01  1.963259E+03 -6.920507E+04  3.949478E+02  4.929802E+03
       163  23  1.085258E+06  9.165879E+00  2.574164E+03 -4.069420E+04  1.673242E+03  1.086931E+04
       163  24  1.085325E+06  8.564045E+01  4.040874E+03 -6.920502E+04  2.949417E+03  1.681496E+04
       163  25  9.620021E+05 -3.021702E+04 -2.637140E+04 -6.915160E+04  4.960288E+03  4.926269E+03
       163  26  8.458604E+05 -5.868928E+04 -5.177586E+04 -4.064055E+04  6.242477E+03  1.086653E+04
       163  27  7.298837E+05 -8.700451E+04 -7.632208E+04 -6.915253E+04  7.522314E+03  1.681290E+04
       164   1  1.547256E+06  1.131964E+05  1.103091E+05 -6.917740E+04  8.273363E+02 -2.029471E+04
       164   2  1.663783E+06  1.416530E+05  1.401208E+05 -4.050671E+04 -3.582238E+03 -2.626057E+04
       164   3  1.781372E+06  1.714567E+05  1.731614E+05 -6.931868E+04 -7.987432E+03 -3.217208E+04
       164   4  1.085503E+06 -4.040042E+01  5.190070E+03 -6.930828E+04 -3.783880E+03 -2.029343E+04
       164   5  1.084961E+06 -2.009326E+02  8.772018E+03 -4.056514E+04 -8.148309E+03 -2.626112E+04
       164   6  1.085463E+06  9.801296E+02  1.555517E+04 -6.930795E+04 -1.250755E+04 -3.217439E+04
       164   7  6.239470E+05 -1.132920E+05 -9.994275E+04 -6.943902E+04 -8.391704E+03 -2.029215E+04
       164   8  5.064487E+05 -1.420780E+05 -1.225983E+05 -4.062349E+04 -1.271017E+04 -2.626168E+04
       164   9  3.900018E+05 -1.695297E+05 -1.420822E+05 -6.929720E+04 -1.702264E+04 -3.217670E+04
       164  10  1.547256E+06  1.131960E+05  1.103083E+05 -6.917739E+04  8.530649E-11  5.785431E-10
       164  11  1.663783E+06  1.416523E+05  1.401194E+05 -4.050678E+04 -1.087434E-10 -1.202743E-10
       164  12  1.781372E+06  1.714556E+05  1.731594E+05 -6.931889E+04  3.560518E-11  7.820460E-11
       164  13  1.085503E+06 -4.084672E+01  5.189268E+03 -6.930834E+04  6.366332E-10  1.230817E-10
       164  14  1.084961E+06 -2.016914E+02  8.770597E+03 -4.056531E+04 -1.750812E-10 -1.138188E-10
       164  15  1.085462E+06  9.789755E+02  1.555293E+04 -6.930827E+04  3.233105E-10 -1.225368E-10
       164  16  6.239468E+05 -1.132924E+05 -9.994366E+04 -6.943915E+04 -5.649881E-10 -1.948714E-10
       164  17  5.064483E+05 -1.420787E+05 -1.225999E+05 -4.062376E+04  7.316377E-10 -1.226511E-10
       164  18  3.900013E+05 -1.695309E+05 -1.420847E+05 -6.929764E+04 -1.161767E-11 -1.874420E-10
       164  19  1.547256E+06  1.131964E+05  1.103091E+05 -6.917740E+04 -8.273363E+02  2.029471E+04
       164  20  1.663783E+06  1.416530E+05  1.401208E+05 -4.050671E+04  3.582238E+03  2.626057E+04
       164  21  1.781372E+06  1.714567E+05  1.731614E+05 -6.931868E+04  7.987432E+03  3.217208E+04
       164  22  1.085503E+06 -4.040042E+01  5.190070E+03 -6.930828E+04  3.783880E+03  2.029343E+04
       164  23  1.084961E+06 -2.009326E+02  8.772018E+03 -4.056514E+04  8.148309E+03  2.626112E+04
       164  24  1.085463E+06  9.801296E+02  1.555517E+04 -6.930795E+04  1.250755E+04  3.217439E+04
       164  25  6.239470E+05 -1.132920E+05 -9.994275E+04 -6.943902E+04  8.391704E+03  2.029215E+04
       164  26  5.064487E+05 -1.420780E+05 -1.225983E+05 -4.062349E+04  1.271017E+04  2.626168E+04
       164  27  3.900018E+05 -1.695297E+05 -1.420822E+05 -6.929720E+04  1.702264E+04  3.217670E+04
       165   1  1.890207E+06  1.958243E+05  2.027544E+05 -6.641165E+04 -1.060333E+04 -3.586677E+04
       165   2  2.005231E+06  2.245642E+05  2.439342E+05 -4.140382E+04 -2.936469E+04 -4.163808E+04
       165   3  2.127849E+06  2.718971E+05  3.020553E+05 -7.465930E+04 -4.812377E+04 -4.578134E+04
       165   4  1.086832E+06 -1.093682E+03  2.018557E+04 -6.947882E+04 -1.565577E+04 -3.587059E+04
       165   5  1.083107E+06 -1.396595E+03  3.462572E+04 -4.035039E+04 -3.314058E+04 -4.164440E+04
       165   6  1.086755E+06  1.668923E+04  6.514091E+04 -6.948980E+04 -5.061956E+04 -4.578927E+04
       165   7  2.840537E+05 -1.980561E+05 -1.624250E+05 -7.254198E+04 -2.070175E+04 -3.587436E+04
       165   8  1.617706E+05 -2.274160E+05 -1.747377E+05 -3.929862E+04 -3.691090E+04 -4.165074E+04
       165   9  4.666217E+04 -2.385933E+05 -1.718439E+05 -6.432917E+04 -5.311115E+04 -4.579725E+04
       165  10  1.890206E+06  1.958229E+05  2.027518E+05 -6.641196E+04 -2.173387E-10 -2.285979E-11
       165  11  2.005229E+06  2.245621E+05  2.439293E+05 -4.140480E+04  6.651292E-10 -2.023370E-10
       165  12  2.127846E+06  2.718942E+05  3.020471E+05 -7.466107E+04 -5.132968E-10  2.657523E-10
       165  13  1.086831E+06 -1.095130E+03  2.018269E+04 -6.947927E+04 -6.022158E-10 -8.327134E-11
       165  14  1.083105E+06 -1.398753E+03  3.462040E+04 -4.035150E+04 -6.766664E-10 -7.392265E-11
       165  15  1.086751E+06  1.668629E+04  6.513216E+04 -6.949166E+04 -5.147746E-10  3.154920E-11
       165  16  2.840529E+05 -1.980576E+05 -1.624282E+05 -7.254258E+04 -3.967629E-10 -3.930687E-10
       165  17  1.617687E+05 -2.274182E+05 -1.747435E+05 -3.929985E+04 -4.692885E-10 -5.325675E-10
       165  18  4.665858E+04 -2.385963E+05 -1.718531E+05 -6.433113E+04 -1.237666E-10  3.548591E-11
       165  19  1.890207E+06  1.958243E+05  2.027544E+05 -6.641165E+04  1.060333E+04  3.586677E+04
       165  20  2.005231E+06  2.245642E+05  2.439342E+05 -4.140382E+04  2.936469E+04  4.163808E+04
       165  21  2.127849E+06  2.718971E+05  3.020553E+05 -7.465930E+04  4.812377E+04  4.578134E+04
       165  22  1.086832E+06 -1.093682E+03  2.018557E+04 -6.947882E+04  1.565577E+04  3.587059E+04
       165  23  1.083107E+06 -1.396595E+03  3.462572E+04 -4.035039E+04  3.314058E+04  4.164440E+04
       165  24  1.086755E+06  1.668923E+04  6.514091E+04 -6.948980E+04  5.061956E+04  4.578927E+04
       165  25  2.840537E+05 -1.980561E+05 -1.624250E+05 -7.254198E+04  2.070175E+04  3.587436E+04
       165  26  1.617706E+05 -2.274160E+05 -1.747377E+05 -3.929862E+04  3.691090E+04  4.165074E+04
       165  27  4.666217E+04 -2.385933E+05 -1.718439E+05 -6.432917E+04  5.311115E+04  4.579725E+04
       166   1  2.252759E+06  2.682455E+05  3.417652E+05 -3.194375E+04 -4.906429E+04 -5.329234E+04
       166   2  2.334721E+06  2.982734E+05  4.258622E+05 -7.341275E+04 -1.487061E+05 -5.320317E+04
       166   3  2.496462E+06  5.918462E+05  6.407655E+05 -1.734893E+05 -2.484471E+05 -1.760174E+04
       166   4  1.101788E+06 -1.372867E+04  8.118430E+04 -6.943037E+04 -6.249699E+04 -5.331118E+04
       166   5  1.064102E+06 -1.333014E+04  1.353545E+05 -4.036750E+04 -1.346671E+05 -5.319615E+04
       166   6  1.101577E+06  2.461269E+05  3.014504E+05 -6.990009E+04 -2.069123E+05 -1.755907E+04
       166   7 -4.795359E+04 -2.957886E+05 -1.794805E+05 -1.068473E+05 -7.590501E+04 -5.332842E+04
       166   8 -2.050230E+05 -3.250413E+05 -1.552576E+05 -7.390799E+03 -1.206563E+05 -5.318765E+04
       166   9 -2.915122E+05 -9.969342E+04 -3.799302E+04  3.345577E+04 -1.654700E+05 -1.750258E+04
       166  10  2.252756E+06  2.682418E+05  3.417553E+05 -3.194585E+04  1.116072E-10  7.793138E-10
       166  11  2.334696E+06  2.982645E+05  4.258154E+05 -7.341911E+04  3.443227E-10  1.724315E-10
       166  12  2.496396E+06  5.918294E+05  6.406494E+05 -1.734928E+05  4.710421E-10 -3.197786E-10
       166  13  1.101783E+06 -1.373277E+04  8.117163E+04 -6.943305E+04  1.093913E-09  3.605882E-10
       166  14  1.064082E+06 -1.333804E+04  1.353151E+05 -4.037327E+04  4.556032E-10 -1.243333E-10
       166  15  1.101531E+06  2.461151E+05  3.013696E+05 -6.990301E+04 -6.613254E-10  8.114203E-11
       166  16 -4.796054E+04 -2.957932E+05 -1.794967E+05 -1.068506E+05 -1.422665E-09  1.977313E-10
       166  17 -2.050394E+05 -3.250482E+05 -1.552902E+05 -7.395969E+03 -1.565730E-09  8.481859E-10
       166  18 -2.915417E+05 -9.970111E+04 -3.804507E+04  3.345344E+04 -8.305722E-10  5.017561E-11
       166  19  2.252759E+06  2.682455E+05  3.417652E+05 -3.194375E+04  4.906429E+04  5.329234E+04
       166  20  2.334721E+06  2.982734E+05  4.258622E+05 -7.341275E+04  1.487061E+05  5.320317E+04
       166  21  2.496462E+06  5.918462E+05  6.407655E+05 -1.734893E+05  2.484471E+05  1.760174E+04
       166  22  1.101788E+06 -1.372867E+04  8.118430E+04 -6.943037E+04  6.249699E+04  5.331118E+04
       166  23  1.064102E+06 -1.333014E+04  1.353545E+05 -4.036750E+04  1.346671E+05  5.319615E+04
       166  24  1.101577E+06  2.461269E+05  3.014504E+05 -6.990009E+04  2.069123E+05  1.755907E+04
       166  25 -4.795359E+04 -2.957886E+05 -1.794805E+05 -1.068473E+05  7.590501E+04  5.332842E+04
       166  26 -2.050230E+05 -3.250413E+05 -1.552576E+05 -7.390799E+03  1.206563E+05  5.318765E+04
       166  27 -2.915122E+05 -9.969342E+04 -3.799302E+04  3.345577E+04  1.654700E+05  1.750258E+04
       167   1  1.325959E+05  6.292507E+05  1.431056E+05 -9.907169E+04  2.876412E+03  5.146929E+04
       167   2  4.342053E+04  4.933762E+05  7.316062E+04 -5.239045E+04  7.254365E+03  2.843918E+04
       167   3  1.230333E+04  3.747432E+05  3.265805E+04 -6.780218E+04  2.488023E+03  5.395846E+03
       167   4  5.406980E+04  3.142311E+05  6.586227E+04 -7.554641E+04  2.891803E+03  4.461421E+04
       167   5 -2.651257E+03  3.062329E+05  3.004511E+04 -4.455578E+04  7.254503E+03  2.861915E+04
       167   6 -2.522802E+03  3.142520E+05  1.879891E+04 -7.565610E+04  2.472827E+03  1.260615E+04
       167   7 -2.446155E+04 -6.969225E+02 -1.138792E+04 -5.203303E+04  2.906680E+03  3.776259E+04
       167   8 -4.872527E+04  1.191220E+05 -1.307270E+04 -3.672348E+04  7.254645E+03  2.879905E+04
       167   9 -1.734892E+04  2.537644E+05  4.939750E+03 -8.350925E+04  2.457448E+03  1.981576E+04
       167  10  1.325951E+05  6.292478E+05  1.431007E+05 -9.907181E+04  1.636268E-10  6.816120E-10
       167  11  4.342025E+04  4.933753E+05  7.315900E+04 -5.239061E+04 -2.277895E-10 -1.857248E-10
       167  12  1.230331E+04  3.747432E+05  3.265798E+04 -6.780219E+04 -7.002805E-10 -1.438707E-09
       167  13  5.406925E+04  3.142290E+05  6.585852E+04 -7.554651E+04  1.365283E-09  4.157348E-11
       167  14 -2.651533E+03  3.062320E+05  3.004347E+04 -4.455595E+04  5.664615E-10  1.512312E-11
       167  15 -2.522851E+03  3.142518E+05  1.879860E+04 -7.565613E+04 -2.168704E-10 -7.479927E-11
       167  16 -2.446194E+04 -6.984561E+02 -1.139061E+04 -5.203312E+04  1.649267E-10 -6.669378E-10
       167  17 -4.872555E+04  1.191211E+05 -1.307435E+04 -3.672365E+04  1.473038E-09  2.473137E-10
       167  18 -1.734904E+04  2.537640E+05  4.939001E+03 -8.350929E+04  3.879569E-10  1.315313E-09
       167  19  1.325959E+05  6.292507E+05  1.431056E+05 -9.907169E+04 -2.876412E+03 -5.146929E+04
       167  20  4.342053E+04  4.933762E+05  7.316062E+04 -5.239045E+04 -7.254365E+03 -2.843918E+04
       167  21  1.230333E+04  3.747432E+05  3.265805E+04 -6.780218E+04 -2.488023E+03 -5.395846E+03
       167  22  5.406980E+04  3.142311E+05  6.586227E+04 -7.554641E+04 -2.891803E+03 -4.461421E+04
       167  23 -2.651257E+03  3.062329E+05  3.004511E+04 -4.455578E+04 -7.254503E+03 -2.861915E+04
       167  24 -2.522802E+03  3.142520E+05  1.879891E+04 -7.565610E+04 -2.472827E+03 -1.260615E+04
       167  25 -2.446155E+04 -6.969225E+02 -1.138792E+04 -5.203303E+04 -2.906680E+03 -3.776259E+04
       167  26 -4.872527E+04  1.191220E+05 -1.307270E+04 -3.672348E+04 -7.254645E+03 -2.879905E+04
       167  27 -1.734892E+04  2.537644E+05  4.939750E+03 -8.350925E+04 -2.457448E+03 -1.981576E+04
       168   1 -9.736944E+03  2.553511E+05  2.949974E+03 -7.713327E+04 -2.412857E+03  5.120410E+03
       168   2 -4.507488E+04  1.272597E+05 -3.142958E+04 -4.440224E+04 -8.257879E+03  3.016501E+02
       168   3 -7.475530E+04  9.442618E+02 -6.132456E+04 -7.414065E+04 -1.368138E+04 -4.513712E+03
       168   4  3.946786E+03  3.110950E+05  1.567909E+04 -7.570543E+04 -2.422621E+03  9.781245E+03
       168   5 -1.815490E+02  3.101803E+05  1.016091E+04 -4.447400E+04 -8.266396E+03  4.637751E+03
       168   6  1.404400E+03  3.110830E+05  9.353482E+03 -7.571058E+04 -1.368874E+04 -5.033021E+02
       168   7  1.763032E+04  3.668418E+05  2.840809E+04 -7.427745E+04 -2.432364E+03  1.444250E+04
       168   8  4.470948E+04  4.931321E+05  5.174931E+04 -4.454576E+04 -8.274912E+03  8.975118E+03
       168   9  7.755746E+04  6.213109E+05  8.002532E+04 -7.728125E+04 -1.369611E+04  3.509093E+03
       168  10 -9.736957E+03  2.553511E+05  2.949914E+03 -7.713326E+04 -1.027141E-09  1.009725E-10
       168  11 -4.507495E+04  1.272597E+05 -3.142971E+04 -4.440224E+04 -9.193656E-11 -1.707804E-10
       168  12 -7.475551E+04  9.441896E+02 -6.132495E+04 -7.414069E+04 -1.205597E-10 -4.029893E-10
       168  13  3.946754E+03  3.110949E+05  1.567890E+04 -7.570541E+04 -3.771256E-10 -2.439715E-11
       168  14 -1.816282E+02  3.101803E+05  1.016074E+04 -4.447397E+04 -2.311875E-10  2.729623E-12
       168  15  1.404199E+03  3.110829E+05  9.353129E+03 -7.571058E+04 -5.591657E-10  2.420080E-11
       168  16  1.763026E+04  3.668416E+05  2.840769E+04 -7.427742E+04 -6.381003E-10 -1.199370E-10
       168  17  4.470938E+04  4.931320E+05  5.174903E+04 -4.454570E+04 -6.841764E-10  2.039357E-10
       168  18  7.755725E+04  6.213108E+05  8.002495E+04 -7.728121E+04  2.433306E-10  3.372966E-10
       168  19 -9.736944E+03  2.553511E+05  2.949974E+03 -7.713327E+04  2.412857E+03 -5.120410E+03
       168  20 -4.507488E+04  1.272597E+05 -3.142958E+04 -4.440224E+04  8.257879E+03 -3.016501E+02
       168  21 -7.475530E+04  9.442618E+02 -6.132456E+04 -7.414065E+04  1.368138E+04  4.513712E+03
       168  22  3.946786E+03  3.110950E+05  1.567909E+04 -7.570543E+04  2.422621E+03 -9.781245E+03
       168  23 -1.815490E+02  3.101803E+05  1.016091E+04 -4.447400E+04  8.266396E+03 -4.637751E+03
       168  24  1.404400E+03  3.110830E+05  9.353482E+03 -7.571058E+04  1.368874E+04  5.033021E+02
       168  25  1.763032E+04  3.668418E+05  2.840809E+04 -7.427745E+04  2.432364E+03 -1.444250E+04
       168  26  4.470948E+04  4.931321E+05  5.174931E+04 -4.454576E+04  8.274912E+03 -8.975118E+03
       168  27  7.755746E+04  6.213109E+05  8.002532E+04 -7.728125E+04  1.369611E+04 -3.509093E+03
       169   1 -1.052415E+05 -1.145689E+05 -8.728771E+04 -7.790371E+04 -1.952389E+04 -1.155610E+04
       169   2 -1.369439E+05 -2.439673E+05 -1.146616E+05 -4.115561E+04 -2.275424E+04 -4.033336E+03
       169   3 -1.498761E+05 -3.697202E+05 -1.422615E+05 -6.632578E+04 -7.783280E+03  3.514330E+03
       169   4 -5.746053E+02  3.120036E+05  9.569961E+03 -7.559565E+04 -1.954069E+04 -2.100085E+03
       169   5 -9.774393E+02  3.089580E+05  1.218954E+04 -4.462323E+04 -2.274545E+04 -8.555293E+03
       169   6  1.980772E+04  3.119625E+05  2.428568E+04 -7.556462E+04 -7.756244E+03 -1.498392E+04
       169   7  1.040798E+05  7.387451E+05  1.064162E+05 -7.328590E+04 -1.955742E+04  7.362365E+03
       169   8  1.349678E+05  8.621664E+05  1.390206E+05 -4.809384E+04 -2.273661E+04 -1.308124E+04
       169   9  1.894577E+05  9.940696E+05  1.908003E+05 -8.481345E+04 -7.728673E+03 -3.350244E+04
       169  10 -1.052419E+05 -1.145691E+05 -8.728868E+04 -7.790389E+04 -5.232433E-11  3.603656E-10
       169  11 -1.369444E+05 -2.439674E+05 -1.146626E+05 -4.115569E+04  1.004547E-09  1.585244E-10
       169  12 -1.498762E+05 -3.697202E+05 -1.422617E+05 -6.632576E+04  1.527187E-10 -3.597113E-10
       169  13 -5.750166E+02  3.120035E+05  9.569235E+03 -7.559568E+04  4.463162E-10 -2.738032E-11
       169  14 -9.780146E+02  3.089578E+05  1.218843E+04 -4.462339E+04  6.647850E-10  1.742212E-11
       169  15  1.980759E+04  3.119622E+05  2.428515E+04 -7.556471E+04  2.258350E-10  2.439812E-11
       169  16  1.040793E+05  7.387450E+05  1.064154E+05 -7.328578E+04 -5.980453E-10 -2.088051E-10
       169  17  1.349672E+05  8.621661E+05  1.390194E+05 -4.809408E+04  1.100752E-09 -2.341795E-10
       169  18  1.894574E+05  9.940684E+05  1.907981E+05 -8.481365E+04  5.744225E-10  2.330803E-10
       169  19 -1.052415E+05 -1.145689E+05 -8.728771E+04 -7.790371E+04  1.952389E+04  1.155610E+04
       169  20 -1.369439E+05 -2.439673E+05 -1.146616E+05 -4.115561E+04  2.275424E+04  4.033336E+03
       169  21 -1.498761E+05 -3.697202E+05 -1.422615E+05 -6.632578E+04  7.783280E+03 -3.514330E+03
       169  22 -5.746053E+02  3.120036E+05  9.569961E+03 -7.559565E+04  1.954069E+04  2.100085E+03
       169  23 -9.774393E+02  3.089580E+05  1.218954E+04 -4.462323E+04  2.274545E+04  8.555293E+03
       169  24  1.980772E+04  3.119625E+05  2.428568E+04 -7.556462E+04  7.756244E+03  1.498392E+04
       169  25  1.040798E+05  7.387451E+05  1.064162E+05 -7.328590E+04  1.955742E+04 -7.362365E+03
       169  26  1.349678E+05  8.621664E+05  1.390206E+05 -4.809384E+04  2.273661E+04  1.308124E+04
       169  27  1.894577E+05  9.940696E+05  1.908003E+05 -8.481345E+04  7.728673E+03  3.350244E+04
       170   1 -1.663369E+06 -6.479992E+05 -4.230115E+05 -5.945353E+05 -1.802035E+05 -5.804605E+04
       170   2 -1.606414E+06 -3.883838E+05 -2.582596E+05 -5.911896E+05 -1.170249E+05 -1.357492E+04
       170   3 -1.617666E+06 -3.492270E+05 -2.012629E+05 -5.556947E+05 -4.708216E+04  1.297439E+04
       170   4 -1.066739E+06 -3.474264E+05 -2.477303E+05 -3.544973E+05 -1.608900E+05 -5.079460E+04
       170   5 -1.020586E+06 -1.448032E+05 -1.058377E+05 -4.058391E+05 -1.105239E+05 -1.113428E+04
       170   6 -1.040021E+06 -1.599889E+05 -6.145604E+04 -4.250561E+05 -5.339960E+04  1.059733E+04
       170   7 -4.697516E+05 -4.674253E+04 -7.248273E+04 -1.142241E+05 -1.415563E+05 -4.352958E+04
       170   8 -4.344191E+05  9.882234E+04  4.655519E+04 -2.203220E+05 -1.040162E+05 -8.690452E+03
       170   9 -4.620472E+05  2.925403E+04  7.832733E+04 -2.943151E+05 -5.972350E+04  8.218534E+03
       170  10 -1.663405E+06 -6.480116E+05 -4.230791E+05 -5.945437E+05 -6.762572E-10 -1.538874E-10
       170  11 -1.606429E+06 -3.883877E+05 -2.582857E+05 -5.911909E+05 -3.487403E-09 -9.790673E-10
       170  12 -1.617669E+06 -3.492278E+05 -2.012674E+05 -5.556942E+05 -2.176255E-09 -7.743841E-10
       170  13 -1.066767E+06 -3.474361E+05 -2.477839E+05 -3.545039E+05  9.083401E-11 -2.471205E-10
       170  14 -1.020599E+06 -1.448066E+05 -1.058609E+05 -4.058401E+05 -3.343165E-09 -8.497695E-10
       170  15 -1.040025E+06 -1.599898E+05 -6.146161E+04 -4.250556E+05 -3.155494E-10 -7.924410E-10
       170  16 -4.697736E+05 -4.674995E+04 -7.252398E+04 -1.142291E+05 -2.219452E-09 -4.953827E-10
       170  17 -4.344307E+05  9.881935E+04  4.653470E+04 -2.203227E+05 -2.930952E-09 -8.475750E-10
       170  18 -4.620511E+05  2.925300E+04  7.832049E+04 -2.943147E+05  2.598847E-10 -9.058379E-10
       170  19 -1.663369E+06 -6.479992E+05 -4.230115E+05 -5.945353E+05  1.802035E+05  5.804605E+04
       170  20 -1.606414E+06 -3.883838E+05 -2.582596E+05 -5.911896E+05  1.170249E+05  1.357492E+04
       170  21 -1.617666E+06 -3.492270E+05 -2.012629E+05 -5.556947E+05  4.708216E+04 -1.297439E+04
       170  22 -1.066739E+06 -3.474264E+05 -2.477303E+05 -3.544973E+05  1.608900E+05  5.079460E+04
       170  23 -1.020586E+06 -1.448032E+05 -1.058377E+05 -4.058391E+05  1.105239E+05  1.113428E+04
       170  24 -1.040021E+06 -1.599889E+05 -6.145604E+04 -4.250561E+05  5.339960E+04 -1.059733E+04
       170  25 -4.697516E+05 -4.674253E+04 -7.248273E+04 -1.142241E+05  1.415563E+05  4.352958E+04
       170  26 -4.344191E+05  9.882234E+04  4.655519E+04 -2.203220E+05  1.040162E+05  8.690452E+03
       170  27 -4.620472E+05  2.925403E+04  7.832733E+04 -2.943151E+05  5.972350E+04 -8.218534E+03
       171   1 -1.540967E+06 -3.770376E+05 -1.783458E+05 -5.568215E+05 -4.311126E+04  1.037977E+04
       171   2 -1.500106E+06 -3.324942E+05 -1.414565E+05 -5.347650E+05 -2.922725E+04  1.384523E+04
       171   3 -1.448411E+06 -3.218339E+05 -1.186817E+05 -5.299691E+05 -1.499822E+04  1.639119E+04
       171   4 -1.031896E+06 -1.817011E+05 -4.921844E+04 -4.124571E+05 -4.390583E+04  1.007892E+04
       171   5 -1.036368E+06 -1.577660E+05 -2.474929E+04 -4.064756E+05 -3.067135E+04  1.330097E+04
       171   6 -1.029875E+06 -1.675767E+05 -1.387001E+04 -4.177560E+05 -1.709300E+04  1.560331E+04
       171   7 -5.225719E+05  1.365510E+04  7.988748E+04 -2.679844E+05 -4.470109E+04  9.777780E+03
       171   8 -5.724194E+05  1.697718E+04  9.194083E+04 -2.780989E+05 -3.211663E+04  1.275626E+04
       171   9 -6.111646E+05 -1.330869E+04  9.092843E+04 -3.054742E+05 -1.918933E+04  1.481486E+04
       171  10 -1.540969E+06 -3.770382E+05 -1.783495E+05 -5.568212E+05 -6.559708E-10 -3.758912E-10
       171  11 -1.500107E+06 -3.324946E+05 -1.414585E+05 -5.347647E+05  6.225602E-10 -8.233604E-11
       171  12 -1.448412E+06 -3.218342E+05 -1.186827E+05 -5.299689E+05 -4.773181E-10 -1.776349E-11
       171  13 -1.031898E+06 -1.817018E+05 -4.922226E+04 -4.124567E+05  6.375233E-10 -4.542090E-10
       171  14 -1.036369E+06 -1.577665E+05 -2.475139E+04 -4.064753E+05 -3.709559E-10 -2.146342E-11
       171  15 -1.029875E+06 -1.675771E+05 -1.387101E+04 -4.177557E+05 -2.590402E-10 -1.077850E-10
       171  16 -5.225740E+05  1.365446E+04  7.988354E+04 -2.679841E+05  9.012375E-10 -5.355809E-10
       171  17 -5.724206E+05  1.697673E+04  9.193859E+04 -2.780985E+05 -7.727869E-11  8.960243E-11
       171  18 -6.111650E+05 -1.330902E+04  9.092732E+04 -3.054740E+05  5.805567E-10 -1.912551E-11
       171  19 -1.540967E+06 -3.770376E+05 -1.783458E+05 -5.568215E+05  4.311126E+04 -1.037977E+04
       171  20 -1.500106E+06 -3.324942E+05 -1.414565E+05 -5.347650E+05  2.922725E+04 -1.384523E+04
       171  21 -1.448411E+06 -3.218339E+05 -1.186817E+05 -5.299691E+05  1.499822E+04 -1.639119E+04
       171  22 -1.031896E+06 -1.817011E+05 -4.921844E+04 -4.124571E+05  4.390583E+04 -1.007892E+04
       171  23 -1.036368E+06 -1.577660E+05 -2.474929E+04 -4.064756E+05  3.067135E+04 -1.330097E+04
       171  24 -1.029875E+06 -1.675767E+05 -1.387001E+04 -4.177560E+05  1.709300E+04 -1.560331E+04
       171  25 -5.225719E+05  1.365510E+04  7.988748E+04 -2.679844E+05  4.470109E+04 -9.777780E+03
       171  26 -5.724194E+05  1.697718E+04  9.194083E+04 -2.780989E+05  3.211663E+04 -1.275626E+04
       171  27 -6.111646E+05 -1.330869E+04  9.092843E+04 -3.054742E+05  1.918933E+04 -1.481486E+04
       172   1 -1.399215E+06 -3.077657E+05 -1.034550E+05 -5.183176E+05 -1.269232E+04  1.540293E+04
       172   2 -1.359269E+06 -2.788491E+05 -8.637783E+04 -4.943283E+05 -8.812865E+03  1.391708E+04
       172   3 -1.301388E+06 -2.698319E+05 -7.177188E+04 -4.915219E+05 -4.911388E+03  1.236870E+04
       172   4 -1.028985E+06 -1.692372E+05 -1.063634E+04 -4.168422E+05 -1.452400E+04  1.471426E+04
       172   5 -1.037877E+06 -1.587674E+05 -5.713278E+03 -4.064454E+05 -1.068761E+04  1.321279E+04
       172   6 -1.028826E+06 -1.681872E+05 -3.225903E+03 -4.172314E+05 -6.829464E+03  1.164871E+04
       172   7 -6.586212E+05 -3.069949E+04  8.217150E+04 -3.153119E+05 -1.635688E+04  1.402514E+04
       172   8 -7.163836E+05 -3.867923E+04  7.494293E+04 -3.185214E+05 -1.256341E+04  1.250809E+04
       172   9 -7.561928E+05 -6.653817E+04  6.531387E+04 -3.429116E+05 -8.748453E+03  1.092838E+04
       172  10 -1.399215E+06 -3.077660E+05 -1.034558E+05 -5.183174E+05 -1.913206E-10  1.616604E-11
       172  11 -1.359269E+06 -2.788493E+05 -8.637834E+04 -4.943282E+05  4.812344E-10 -4.490351E-11
       172  12 -1.301388E+06 -2.698321E+05 -7.177221E+04 -4.915218E+05  1.708035E-10  1.083618E-10
       172  13 -1.028985E+06 -1.692375E+05 -1.063715E+04 -4.168421E+05 -3.203032E-10 -1.702985E-10
       172  14 -1.037877E+06 -1.587676E+05 -5.713820E+03 -4.064453E+05  3.509773E-10  1.390416E-10
       172  15 -1.028826E+06 -1.681874E+05 -3.226245E+03 -4.172313E+05 -1.699782E-10  2.673926E-10
       172  16 -6.586215E+05 -3.069977E+04  8.217063E+04 -3.153117E+05  4.867956E-10 -1.711808E-10
       172  17 -7.163838E+05 -3.867944E+04  7.494234E+04 -3.185213E+05 -9.649384E-10  1.277131E-10
       172  18 -7.561929E+05 -6.653831E+04  6.531351E+04 -3.429116E+05  3.482674E-10  3.342940E-10
       172  19 -1.399215E+06 -3.077657E+05 -1.034550E+05 -5.183176E+05  1.269232E+04 -1.540293E+04
       172  20 -1.359269E+06 -2.788491E+05 -8.637783E+04 -4.943283E+05  8.812865E+03 -1.391708E+04
       172  21 -1.301388E+06 -2.698319E+05 -7.177188E+04 -4.915219E+05  4.911388E+03 -1.236870E+04
       172  22 -1.028985E+06 -1.692372E+05 -1.063634E+04 -4.168422E+05  1.452400E+04 -1.471426E+04
       172  23 -1.037877E+06 -1.587674E+05 -5.713278E+03 -4.064454E+05  1.068761E+04 -1.321279E+04
       172  24 -1.028826E+06 -1.681872E+05 -3.225903E+03 -4.172314E+05  6.829464E+03 -1.164871E+04
       172  25 -6.586212E+05 -3.069949E+04  8.217150E+04 -3.153119E+05  1.635688E+04 -1.402514E+04
       172  26 -7.163836E+05 -3.867923E+04  7.494293E+04 -3.185214E+05  1.256341E+04 -1.250809E+04
       172  27 -7.561928E+05 -6.653817E+04  6.531387E+04 -3.429116E+05  8.748453E+03 -1.092838E+04
       173   1 -1.253641E+06 -2.523265E+05 -5.876648E+04 -4.786995E+05 -3.863647E+03  1.098810E+04
       173   2 -1.213337E+06 -2.242178E+05 -4.550291E+04 -4.542550E+05 -2.091391E+03  8.607201E+03
       173   3 -1.154198E+06 -2.151636E+05 -3.283404E+04 -4.515236E+05 -3.156280E+02  6.214643E+03
       173   4 -1.028672E+06 -1.683504E+05 -2.493164E+03 -4.172160E+05 -5.776528E+03  1.027034E+04
       173   5 -1.038079E+06 -1.587824E+05 -1.528933E+03 -4.063734E+05 -4.012358E+03  7.886703E+03
       173   6 -1.028655E+06 -1.682673E+05 -1.153031E+03 -4.172447E+05 -2.244756E+03  5.491396E+03
       173   7 -8.036522E+05 -8.437054E+04  5.377645E+04 -3.557120E+05 -7.690175E+03  9.552295E+03
       173   8 -8.627914E+05 -9.334477E+04  4.244274E+04 -3.584794E+05 -5.933923E+03  7.165981E+03
       173   9 -9.030951E+05 -1.213700E+05  3.052674E+04 -3.829595E+05 -4.174311E+03  4.767990E+03
       173  10 -1.253641E+06 -2.523266E+05 -5.876674E+04 -4.786995E+05 -3.337965E-10  2.165577E-10
       173  11 -1.213337E+06 -2.242179E+05 -4.550306E+04 -4.542550E+05 -6.514061E-10  1.631320E-10
       173  12 -1.154199E+06 -2.151636E+05 -3.283411E+04 -4.515236E+05 -3.144639E-10  6.929886E-11
       173  13 -1.028672E+06 -1.683505E+05 -2.493425E+03 -4.172159E+05 -6.288657E-10  3.044293E-11
       173  14 -1.038079E+06 -1.587824E+05 -1.529080E+03 -4.063734E+05 -8.980424E-11 -1.310790E-10
       173  15 -1.028655E+06 -1.682673E+05 -1.153097E+03 -4.172447E+05 -2.200258E-10 -9.823184E-11
       173  16 -8.036523E+05 -8.437066E+04  5.377617E+04 -3.557119E+05 -2.921240E-10  4.617139E-11
       173  17 -8.627915E+05 -9.334484E+04  4.244258E+04 -3.584794E+05  2.951179E-10  8.332889E-12
       173  18 -9.030951E+05 -1.213701E+05  3.052667E+04 -3.829595E+05  1.574145E-10 -9.560295E-11
       173  19 -1.253641E+06 -2.523265E+05 -5.876648E+04 -4.786995E+05  3.863647E+03 -1.098810E+04
       173  20 -1.213337E+06 -2.242178E+05 -4.550291E+04 -4.542550E+05  2.091391E+03 -8.607201E+03
       173  21 -1.154198E+06 -2.151636E+05 -3.283404E+04 -4.515236E+05  3.156280E+02 -6.214643E+03
       173  22 -1.028672E+06 -1.683504E+05 -2.493164E+03 -4.172160E+05  5.776528E+03 -1.027034E+04
       173  23 -1.038079E+06 -1.587824E+05 -1.528933E+03 -4.063734E+05  4.012358E+03 -7.886703E+03
       173  24 -1.028655E+06 -1.682673E+05 -1.153031E+03 -4.172447E+05  2.244756E+03 -5.491396E+03
       173  25 -8.036522E+05 -8.437054E+04  5.377645E+04 -3.557120E+05  7.690175E+03 -9.552295E+03
       173  26 -8.627914E+05 -9.334477E+04  4.244274E+04 -3.584794E+05  5.933923E+03 -7.165981E+03
       173  27 -9.030951E+05 -1.213700E+05  3.052674E+04 -3.829595E+05  4.174311E+03 -4.767990E+03
       174   1 -1.106209E+06 -1.972414E+05 -2.041261E+04 -4.384957E+05  4.636017E+02  4.721031E+03
       174   2 -1.065654E+06 -1.690511E+05 -8.290506E+03 -4.138886E+05  2.157938E+03  2.286215E+03
       174   3 -1.006165E+06 -1.600101E+05  3.298582E+03 -4.111318E+05  3.852181E+03 -1.486684E+02
       174   4 -1.028630E+06 -1.682933E+05 -1.127278E+03 -4.172724E+05 -1.469039E+03  3.996585E+03
       174   5 -1.038100E+06 -1.587422E+05 -1.373568E+03 -4.063378E+05  2.252184E+02  1.561785E+03
       174   6 -1.028637E+06 -1.683403E+05 -2.152708E+03 -4.172546E+05  1.919322E+03 -8.730985E+02
       174   7 -9.510461E+05 -1.393450E+05  1.815751E+04 -3.960467E+05 -3.401935E+03  3.272044E+03
       174   8 -1.010544E+06 -1.484331E+05  5.543326E+03 -3.987868E+05 -1.707595E+03  8.373202E+02
       174   9 -1.051108E+06 -1.766705E+05 -7.604045E+03 -4.233773E+05 -1.346732E+01 -1.597503E+03
       174  10 -1.106209E+06 -1.972414E+05 -2.041265E+04 -4.384957E+05 -1.260507E-10  2.407923E-11
       174  11 -1.065654E+06 -1.690511E+05 -8.290524E+03 -4.138886E+05 -2.852224E-10  7.966662E-11
       174  12 -1.006165E+06 -1.600101E+05  3.298554E+03 -4.111318E+05 -2.078234E-10 -3.444260E-11
       174  13 -1.028630E+06 -1.682934E+05 -1.127312E+03 -4.172724E+05  2.976250E-10 -4.122199E-11
       174  14 -1.038100E+06 -1.587422E+05 -1.373573E+03 -4.063378E+05 -1.196268E-10 -1.899061E-11
       174  15 -1.028637E+06 -1.683403E+05 -2.152717E+03 -4.172546E+05 -1.167580E-10  1.591368E-10
       174  16 -9.510461E+05 -1.393451E+05  1.815747E+04 -3.960467E+05  2.400844E-10 -2.137832E-10
       174  17 -1.010544E+06 -1.484331E+05  5.543319E+03 -3.987868E+05 -3.960616E-11 -4.710187E-11
       174  18 -1.051108E+06 -1.766705E+05 -7.604050E+03 -4.233773E+05  1.791831E-10  2.272889E-10
       174  19 -1.106209E+06 -1.972414E+05 -2.041261E+04 -4.384957E+05 -4.636017E+02 -4.721031E+03
       174  20 -1.065654E+06 -1.690511E+05 -8.290506E+03 -4.138886E+05 -2.157938E+03 -2.286215E+03
       174  21 -1.006165E+06 -1.600101E+05  3.298582E+03 -4.111318E+05 -3.852181E+03  1.486684E+02
       174  22 -1.028630E+06 -1.682933E+05 -1.127278E+03 -4.172724E+05  1.469039E+03 -3.996585E+03
       174  23 -1.038100E+06 -1.587422E+05 -1.373568E+03 -4.063378E+05 -2.252184E+02 -1.561785E+03
       174  24 -1.028637E+06 -1.683403E+05 -2.152708E+03 -4.172546E+05 -1.919322E+03  8.730985E+02
       174  25 -9.510461E+05 -1.393450E+05  1.815751E+04 -3.960467E+05  3.401935E+03 -3.272044E+03
       174  26 -1.010544E+06 -1.484331E+05  5.543326E+03 -3.987868E+05  1.707595E+03 -8.373202E+02
       174  27 -1.051108E+06 -1.766705E+05 -7.604045E+03 -4.233773E+05  1.346732E+01  1.597503E+03
       175   1 -9.581170E+05 -1.420332E+05  1.510043E+04 -3.982231E+05  4.853521E+03 -1.565459E+03
       175   2 -9.175672E+05 -1.137409E+05  2.535415E+04 -3.734724E+05  8.264698E+03 -3.347391E+03
       175   3 -8.586923E+05 -1.054795E+05  3.354917E+04 -3.703470E+05  1.166227E+04 -5.090904E+03
       175   4 -1.028733E+06 -1.682442E+05 -2.763823E+03 -4.173151E+05  2.912391E+03 -2.293043E+03
       175   5 -1.037956E+06 -1.586603E+05 -4.843882E+03 -4.063402E+05  6.350506E+03 -4.065094E+03
       175   6 -1.028861E+06 -1.691132E+05 -9.004172E+03 -4.169918E+05  9.774792E+03 -5.798790E+03
       175   7 -1.099344E+06 -1.944549E+05 -2.062846E+04 -4.364051E+05  9.715035E+02 -3.020538E+03
       175   8 -1.158330E+06 -2.035787E+05 -3.504297E+04 -4.392021E+05  4.436724E+03 -4.782643E+03
       175   9 -1.199000E+06 -2.327446E+05 -5.155958E+04 -4.636247E+05  7.887892E+03 -6.506459E+03
       175  10 -9.581170E+05 -1.420332E+05  1.510038E+04 -3.982231E+05  1.048656E-10  1.568782E-10
       175  11 -9.175673E+05 -1.137410E+05  2.535400E+04 -3.734724E+05 -1.015934E-09 -4.299147E-10
       175  12 -8.586924E+05 -1.054796E+05  3.354887E+04 -3.703469E+05 -9.749085E-10 -5.063513E-13
       175  13 -1.028733E+06 -1.682442E+05 -2.763848E+03 -4.173151E+05 -2.410991E-10 -2.709173E-11
       175  14 -1.037956E+06 -1.586604E+05 -4.843989E+03 -4.063402E+05  2.465093E-10 -4.603331E-10
       175  15 -1.028861E+06 -1.691132E+05 -9.004415E+03 -4.169917E+05 -6.653048E-10 -6.323531E-11
       175  16 -1.099344E+06 -1.944549E+05 -2.062848E+04 -4.364051E+05 -1.066589E-10  6.360051E-11
       175  17 -1.158330E+06 -2.035787E+05 -3.504305E+04 -4.392021E+05 -3.091440E-10 -1.970871E-10
       175  18 -1.199000E+06 -2.327447E+05 -5.155977E+04 -4.636247E+05  4.639760E-10  1.078980E-10
       175  19 -9.581170E+05 -1.420332E+05  1.510043E+04 -3.982231E+05 -4.853521E+03  1.565459E+03
       175  20 -9.175672E+05 -1.137409E+05  2.535415E+04 -3.734724E+05 -8.264698E+03  3.347391E+03
       175  21 -8.586923E+05 -1.054795E+05  3.354917E+04 -3.703470E+05 -1.166227E+04  5.090904E+03
       175  22 -1.028733E+06 -1.682442E+05 -2.763823E+03 -4.173151E+05 -2.912391E+03  2.293043E+03
       175  23 -1.037956E+06 -1.586603E+05 -4.843882E+03 -4.063402E+05 -6.350506E+03  4.065094E+03
       175  24 -1.028861E+06 -1.691132E+05 -9.004172E+03 -4.169918E+05 -9.774792E+03  5.798790E+03
       175  25 -1.099344E+06 -1.944549E+05 -2.062846E+04 -4.364051E+05 -9.715035E+02  3.020538E+03
       175  26 -1.158330E+06 -2.035787E+05 -3.504297E+04 -4.392021E+05 -4.436724E+03  4.782643E+03
       175  27 -1.199000E+06 -2.327446E+05 -5.155958E+04 -4.636247E+05 -7.887892E+03  6.506459E+03
       176   1 -8.102141E+05 -8.771268E+04  4.310981E+04 -3.598275E+05  1.412511E+04 -6.028756E+03
       176   2 -7.702044E+05 -5.716634E+04  4.615839E+04 -3.323648E+05  2.532337E+04 -4.753743E+03
       176   3 -7.175551E+05 -5.842749E+04  3.806906E+04 -3.233980E+05  3.627771E+04 -2.822384E+03
       176   4 -1.029584E+06 -1.677427E+05 -1.173771E+04 -4.178016E+05  1.204552E+04 -6.808864E+03
       176   5 -1.036704E+06 -1.577575E+05 -2.092297E+04 -4.063177E+05  2.371013E+04 -5.359477E+03
       176   6 -1.031283E+06 -1.796779E+05 -4.162035E+04 -4.133318E+05  3.512992E+04 -3.254033E+03
       176   7 -1.248907E+06 -2.477704E+05 -6.658923E+04 -4.757576E+05  9.966714E+03 -7.588691E+03
       176   8 -1.303134E+06 -2.583439E+05 -8.801012E+04 -4.802418E+05  2.209764E+04 -5.964922E+03
       176   9 -1.344914E+06 -3.009200E+05 -1.213177E+05 -5.032237E+05  3.398276E+04 -3.685428E+03
       176  10 -8.102143E+05 -8.771277E+04  4.310936E+04 -3.598275E+05 -6.469472E-10  2.676998E-10
       176  11 -7.702051E+05 -5.716653E+04  4.615714E+04 -3.323647E+05  4.646555E-11  8.584891E-11
       176  12 -7.175565E+05 -5.842785E+04  3.806657E+04 -3.233979E+05 -4.977605E-10  3.089963E-11
       176  13 -1.029584E+06 -1.677428E+05 -1.173807E+04 -4.178016E+05  3.187184E-10  9.669006E-11
       176  14 -1.036704E+06 -1.577577E+05 -2.092408E+04 -4.063176E+05  3.193025E-10 -4.335711E-11
       176  15 -1.031284E+06 -1.796782E+05 -4.162269E+04 -4.133317E+05  2.073203E-11 -2.099233E-11
       176  16 -1.248907E+06 -2.477705E+05 -6.658953E+04 -4.757576E+05  3.282478E-11 -1.468243E-10
       176  17 -1.303135E+06 -2.583440E+05 -8.801111E+04 -4.802417E+05  7.928393E-10  2.321041E-11
       176  18 -1.344915E+06 -3.009204E+05 -1.213199E+05 -5.032236E+05  1.352819E-10 -4.813420E-11
       176  19 -8.102141E+05 -8.771268E+04  4.310981E+04 -3.598275E+05 -1.412511E+04  6.028756E+03
       176  20 -7.702044E+05 -5.716634E+04  4.615839E+04 -3.323648E+05 -2.532337E+04  4.753743E+03
       176  21 -7.175551E+05 -5.842749E+04  3.806906E+04 -3.233980E+05 -3.627771E+04  2.822384E+03
       176  22 -1.029584E+06 -1.677427E+05 -1.173771E+04 -4.178016E+05 -1.204552E+04  6.808864E+03
       176  23 -1.036704E+06 -1.577575E+05 -2.092297E+04 -4.063177E+05 -2.371013E+04  5.359477E+03
       176  24 -1.031283E+06 -1.796779E+05 -4.162035E+04 -4.133318E+05 -3.512992E+04  3.254033E+03
       176  25 -1.248907E+06 -2.477704E+05 -6.658923E+04 -4.757576E+05 -9.966714E+03  7.588691E+03
       176  26 -1.303134E+06 -2.583439E+05 -8.801012E+04 -4.802418E+05 -2.209764E+04  5.964922E+03
       176  27 -1.344914E+06 -3.009200E+05 -1.213177E+05 -5.032237E+05 -3.398276E+04  3.685428E+03
       177   1 -6.577620E+05 -4.201060E+04  3.911384E+04 -3.434198E+05  4.828457E+04 -1.791414E+03
       177   2 -6.267038E+05  2.190849E+04  1.438267E+04 -2.762680E+05  8.768946E+04  1.224805E+04
       177   3 -6.457257E+05 -1.000963E+05 -8.547878E+04 -1.861668E+05  1.222599E+05  3.916595E+04
       177   4 -1.038132E+06 -1.613438E+05 -5.196905E+04 -4.240163E+05  4.316452E+04 -3.712402E+03
       177   5 -1.023396E+06 -1.467323E+05 -8.948435E+04 -4.057215E+05  9.178920E+04  1.378360E+04
       177   6 -1.060620E+06 -3.199522E+05 -2.094821E+05 -3.644681E+05  1.355759E+05  4.415469E+04
       177   7 -1.418358E+06 -2.806764E+05 -1.430615E+05 -5.045723E+05  3.804792E+04 -5.632568E+03
       177   8 -1.419932E+06 -3.153494E+05 -1.933646E+05 -5.350951E+05  9.588606E+04  1.531773E+04
       177   9 -1.475337E+06 -5.397411E+05 -3.335013E+05 -5.426455E+05  1.488823E+05  4.913633E+04
       177  10 -6.577645E+05 -4.201123E+04  3.910945E+04 -3.434198E+05  6.506228E-11  2.148932E-10
       177  11 -6.267121E+05  2.190626E+04  1.436792E+04 -2.762689E+05  1.636135E-10  5.049019E-11
       177  12 -6.457422E+05 -1.001020E+05 -8.550979E+04 -1.861706E+05  1.085025E-10 -2.868712E-10
       177  13 -1.038134E+06 -1.613443E+05 -5.197258E+04 -4.240162E+05 -1.170734E-10  2.867804E-11
       177  14 -1.023405E+06 -1.467348E+05 -8.950057E+04 -4.057225E+05 -1.509037E-10 -5.909092E-11
       177  15 -1.060640E+06 -3.199593E+05 -2.095203E+05 -3.644730E+05 -8.224965E-10  8.879460E-11
       177  16 -1.418359E+06 -2.806768E+05 -1.430643E+05 -5.045721E+05  4.595100E-11 -1.762250E-10
       177  17 -1.419942E+06 -3.153521E+05 -1.933823E+05 -5.350963E+05 -2.372024E-10  1.443469E-10
       177  18 -1.475362E+06 -5.397497E+05 -3.335476E+05 -5.426514E+05 -4.240581E-10  5.199092E-11
       177  19 -6.577620E+05 -4.201060E+04  3.911384E+04 -3.434198E+05 -4.828457E+04  1.791414E+03
       177  20 -6.267038E+05  2.190849E+04  1.438267E+04 -2.762680E+05 -8.768946E+04 -1.224805E+04
       177  21 -6.457257E+05 -1.000963E+05 -8.547878E+04 -1.861668E+05 -1.222599E+05 -3.916595E+04
       177  22 -1.038132E+06 -1.613438E+05 -5.196905E+04 -4.240163E+05 -4.316452E+04  3.712402E+03
       177  23 -1.023396E+06 -1.467323E+05 -8.948435E+04 -4.057215E+05 -9.178920E+04 -1.378360E+04
       177  24 -1.060620E+06 -3.199522E+05 -2.094821E+05 -3.644681E+05 -1.355759E+05 -4.415469E+04
       177  25 -1.418358E+06 -2.806764E+05 -1.430615E+05 -5.045723E+05 -3.804792E+04  5.632568E+03
       177  26 -1.419932E+06 -3.153494E+05 -1.933646E+05 -5.350951E+05 -9.588606E+04 -1.531773E+04
       177  27 -1.475337E+06 -5.397411E+05 -3.335013E+05 -5.426455E+05 -1.488823E+05 -4.913633E+04
       178   1 -1.149953E+06 -2.628101E+05 -2.238338E+05 -2.305333E+04  6.812398E+04  2.001594E+04
       178   2 -1.031765E+06 -3.697255E+05 -2.614374E+05 -2.913404E+04  5.925626E+04  6.162798E+04
       178   3 -8.759662E+05 -3.362921E+05 -2.579309E+05 -1.009598E+05  5.047102E+04  6.204347E+04
       178   4  4.615377E+05  1.379313E+05  1.692139E+05 -7.981694E+04  1.160557E+05  2.010495E+04
       178   5  4.401071E+05 -7.834279E+03  7.588432E+04 -4.682619E+04  7.551144E+04  6.164044E+04
       178   6  4.616753E+05 -7.934856E+03  4.557859E+04 -7.956615E+04  3.505448E+04  6.202185E+04
       178   7  2.075411E+06  5.384949E+05  5.620833E+05 -1.367295E+05  1.641113E+05  2.018509E+04
       178   8  1.913989E+06  3.539075E+05  4.130648E+05 -6.456137E+04  9.180472E+04  6.165196E+04
       178   9  1.800980E+06  3.203008E+05  3.489736E+05 -5.812622E+04  1.960492E+04  6.199919E+04
       178  10 -1.149958E+06 -2.628118E+05 -2.238432E+05 -2.305443E+04 -3.246844E-10  2.113254E-10
       178  11 -1.031770E+06 -3.697305E+05 -2.614511E+05 -2.913699E+04  1.854093E-10 -1.007233E-09
       178  12 -8.759699E+05 -3.362969E+05 -2.579429E+05 -1.009623E+05 -4.831816E-10 -7.933055E-10
       178  13  4.615232E+05  1.379272E+05  1.691879E+05 -7.981882E+04 -5.681221E-10 -6.952990E-10
       178  14  4.401000E+05 -7.839889E+03  7.586646E+04 -4.682994E+04 -5.838092E-10 -4.156992E-10
       178  15  4.616730E+05 -7.939318E+03  4.556906E+04 -7.956790E+04  4.935160E-10 -9.854003E-10
       178  16  2.075382E+06  5.384873E+05  5.620321E+05 -1.367322E+05 -1.151511E-09  8.033136E-10
       178  17  1.913978E+06  3.539012E+05  4.130418E+05 -6.456593E+04  4.606046E-10 -8.585309E-10
       178  18  1.800979E+06  3.202965E+05  3.489656E+05 -5.812720E+04 -6.473242E-10 -9.866787E-10
       178  19 -1.149953E+06 -2.628101E+05 -2.238338E+05 -2.305333E+04 -6.812398E+04 -2.001594E+04
       178  20 -1.031765E+06 -3.697255E+05 -2.614374E+05 -2.913404E+04 -5.925626E+04 -6.162798E+04
       178  21 -8.759662E+05 -3.362921E+05 -2.579309E+05 -1.009598E+05 -5.047102E+04 -6.204347E+04
       178  22  4.615377E+05  1.379313E+05  1.692139E+05 -7.981694E+04 -1.160557E+05 -2.010495E+04
       178  23  4.401071E+05 -7.834279E+03  7.588432E+04 -4.682619E+04 -7.551144E+04 -6.164044E+04
       178  24  4.616753E+05 -7.934856E+03  4.557859E+04 -7.956615E+04 -3.505448E+04 -6.202185E+04
       178  25  2.075411E+06  5.384949E+05  5.620833E+05 -1.367295E+05 -1.641113E+05 -2.018509E+04
       178  26  1.913989E+06  3.539075E+05  4.130648E+05 -6.456137E+04 -9.180472E+04 -6.165196E+04
       178  27  1.800980E+06  3.203008E+05  3.489736E+05 -5.812622E+04 -1.960492E+04 -6.199919E+04
       179   1 -7.599796E+05 -2.888440E+05 -2.400941E+05 -7.711256E+04  3.119760E+04  5.342045E+04
       179   2 -6.268274E+05 -2.655436E+05 -2.257125E+05 -4.596981E+04  2.289305E+04  4.874853E+04
       179   3 -4.894155E+05 -2.321124E+05 -2.032464E+05 -8.129940E+04  1.457740E+04  4.216162E+04
       179   4  4.531876E+05  9.171020E+03  3.655965E+04 -7.979754E+04  2.838861E+04  5.341126E+04
       179   5  4.509841E+05 -9.254700E+02  1.940535E+04 -4.656349E+04  1.859714E+04  4.874166E+04
       179   6  4.532713E+05 -6.430135E+02  1.135602E+04 -7.979421E+04  8.796338E+03  4.215859E+04
       179   7  1.667720E+06  3.070841E+05  3.131175E+05 -8.248793E+04  2.557413E+04  5.340211E+04
       179   8  1.529874E+06  2.636124E+05  2.644479E+05 -4.715824E+04  1.429381E+04  4.873480E+04
       179   9  1.396783E+06  2.307649E+05  2.259008E+05 -7.828661E+04  3.006566E+03  4.215553E+04
       179  10 -7.599814E+05 -2.888473E+05 -2.401013E+05 -7.711390E+04 -7.636465E-10 -5.718113E-10
       179  11 -6.268286E+05 -2.655463E+05 -2.257180E+05 -4.597071E+04 -4.099296E-10  1.233808E-10
       179  12 -4.894162E+05 -2.321144E+05 -2.032501E+05 -8.129989E+04  1.414693E-10  7.708256E-10
       179  13  4.531860E+05  9.167740E+03  3.655277E+04 -7.979876E+04 -6.273828E-10 -1.030782E-09
       179  14  4.509831E+05 -9.281145E+02  1.940023E+04 -4.656422E+04 -6.025082E-10  3.084574E-10
       179  15  4.532707E+05 -6.449432E+02  1.135253E+04 -7.979451E+04 -1.286914E-10  3.899581E-10
       179  16  1.667719E+06  3.070808E+05  3.131109E+05 -8.248903E+04  8.316103E-10 -4.110521E-10
       179  17  1.529873E+06  2.636098E+05  2.644431E+05 -4.715880E+04  2.802136E-10  2.596511E-10
       179  18  1.396782E+06  2.307630E+05  2.258975E+05 -7.828671E+04 -3.413699E-10  5.505831E-10
       179  19 -7.599796E+05 -2.888440E+05 -2.400941E+05 -7.711256E+04 -3.119760E+04 -5.342045E+04
       179  20 -6.268274E+05 -2.655436E+05 -2.257125E+05 -4.596981E+04 -2.289305E+04 -4.874853E+04
       179  21 -4.894155E+05 -2.321124E+05 -2.032464E+05 -8.129940E+04 -1.457740E+04 -4.216162E+04
       179  22  4.531876E+05  9.171020E+03  3.655965E+04 -7.979754E+04 -2.838861E+04 -5.341126E+04
       179  23  4.509841E+05 -9.254700E+02  1.940535E+04 -4.656349E+04 -1.859714E+04 -4.874166E+04
       179  24  4.532713E+05 -6.430135E+02  1.135602E+04 -7.979421E+04 -8.796338E+03 -4.215859E+04
       179  25  1.667720E+06  3.070841E+05  3.131175E+05 -8.248793E+04 -2.557413E+04 -5.340211E+04
       179  26  1.529874E+06  2.636124E+05  2.644479E+05 -4.715824E+04 -1.429381E+04 -4.873480E+04
       179  27  1.396783E+06  2.307649E+05  2.259008E+05 -7.828661E+04 -3.006566E+03 -4.215553E+04
       180   1 -3.672405E+05 -2.006113E+05 -1.772115E+05 -7.946896E+04  1.220445E+04  3.792268E+04
       180   2 -2.331186E+05 -1.683126E+05 -1.507878E+05 -4.641678E+04  9.807816E+03  3.112825E+04
       180   3 -9.832794E+04 -1.351943E+05 -1.225688E+05 -7.947516E+04  7.403617E+03  2.425491E+04
       180   4  4.524722E+05  5.220926E+02  8.749529E+03 -7.971512E+04  7.024112E+03  3.792147E+04
       180   5  4.521667E+05 -1.202033E+02  4.949963E+03 -4.666227E+04  4.563422E+03  3.112947E+04
       180   6  4.525233E+05  6.867698E+01  2.988854E+03 -7.971549E+04  2.095679E+03  2.425866E+04
       180   7  1.272809E+06  2.016092E+05  1.946673E+05 -7.996151E+04  1.836989E+03  3.792028E+04
       180   8  1.137888E+06  1.680398E+05  1.606574E+05 -4.690794E+04 -6.867120E+02  3.113070E+04
       180   9  1.003656E+06  1.353106E+05  1.285269E+05 -7.995596E+04 -3.216929E+03  2.426242E+04
       180  10 -3.672410E+05 -2.006129E+05 -1.772145E+05 -7.946933E+04  2.754360E-10  6.878540E-10
       180  11 -2.331190E+05 -1.683137E+05 -1.507898E+05 -4.641703E+04  1.299893E-09  3.243060E-10
       180  12 -9.832816E+04 -1.351949E+05 -1.225701E+05 -7.947530E+04  1.355460E-09 -1.248479E-09
       180  13  4.524718E+05  5.205348E+02  8.746734E+03 -7.971534E+04  5.471331E-10  4.943592E-10
       180  14  4.521664E+05 -1.212497E+02  4.948103E+03 -4.666238E+04 -1.007446E-09  4.224368E-10
       180  15  4.525232E+05  6.804374E+01  2.987740E+03 -7.971554E+04 -3.967669E-10 -2.497145E-10
       180  16  1.272808E+06  2.016077E+05  1.946645E+05 -7.996157E+04  6.046833E-10  5.239027E-10
       180  17  1.137888E+06  1.680388E+05  1.606555E+05 -4.690792E+04 -3.195251E-10 -9.363407E-11
       180  18  1.003656E+06  1.353100E+05  1.285258E+05 -7.995590E+04  2.512254E-10 -1.097245E-09
       180  19 -3.672405E+05 -2.006113E+05 -1.772115E+05 -7.946896E+04 -1.220445E+04 -3.792268E+04
       180  20 -2.331186E+05 -1.683126E+05 -1.507878E+05 -4.641678E+04 -9.807816E+03 -3.112825E+04
       180  21 -9.832794E+04 -1.351943E+05 -1.225688E+05 -7.947516E+04 -7.403617E+03 -2.425491E+04
       180  22  4.524722E+05  5.220926E+02  8.749529E+03 -7.971512E+04 -7.024112E+03 -3.792147E+04
       180  23  4.521667E+05 -1.202033E+02  4.949963E+03 -4.666227E+04 -4.563422E+03 -3.112947E+04
       180  24  4.525233E+05  6.867698E+01  2.988854E+03 -7.971549E+04 -2.095679E+03 -2.425866E+04
       180  25  1.272809E+06  2.016092E+05  1.946673E+05 -7.996151E+04 -1.836989E+03 -3.792028E+04
       180  26  1.137888E+06  1.680398E+05  1.606574E+05 -4.690794E+04  6.867120E+02 -3.113070E+04
       180  27  1.003656E+06  1.353106E+05  1.285269E+05 -7.995596E+04  3.216929E+03 -2.426242E+04
       181   1  2.394184E+04 -1.049269E+05 -9.460843E+04 -7.937851E+04  6.883957E+03  2.024087E+04
       181   2  1.579467E+05 -7.218303E+04 -6.530200E+04 -4.650216E+04  6.086934E+03  1.337310E+04
       181   3  2.919822E+05 -3.925066E+04 -3.546253E+04 -7.950255E+04  5.286736E+03  6.506145E+03
       181   4  4.524085E+05  1.388613E+02  2.357456E+03 -7.966398E+04  1.608805E+03  2.024571E+04
       181   5  4.524115E+05  7.130454E+01  1.599854E+03 -4.672657E+04  8.114730E+02  1.337895E+04
       181   6  4.524302E+05  1.939189E+02  1.376479E+03 -7.966397E+04  1.113476E+01  6.513079E+03
       181   7  8.810456E+05  1.051920E+05  9.931164E+04 -7.994960E+04 -3.669954E+03  2.025054E+04
       181   8  7.469567E+05  7.231967E+04  6.849620E+04 -4.695105E+04 -4.466467E+03  1.338480E+04
       181   9  6.129020E+05  3.963672E+04  3.821389E+04 -7.982541E+04 -5.265819E+03  6.520015E+03
       181  10  2.394168E+04 -1.049273E+05 -9.460929E+04 -7.937863E+04 -1.269137E-09 -5.368559E-10
       181  11  1.579467E+05 -7.218324E+04 -6.530241E+04 -4.650223E+04 -6.871153E-12  4.775634E-10
       181  12  2.919822E+05 -3.925071E+04 -3.546266E+04 -7.950258E+04  7.543295E-10 -1.635763E-10
       181  13  4.524084E+05  1.384203E+02  2.356680E+03 -7.966401E+04  5.543463E-11 -1.245333E-09
       181  14  4.524114E+05  7.111211E+01  1.599517E+03 -4.672658E+04  4.346814E-11  8.664690E-10
       181  15  4.524302E+05  1.938733E+02  1.376399E+03 -7.966397E+04 -3.755726E-10 -4.611716E-10
       181  16  8.810455E+05  1.051915E+05  9.931084E+04 -7.994954E+04  2.493388E-09 -3.884352E-10
       181  17  7.469566E+05  7.231947E+04  6.849582E+04 -4.695100E+04 -1.776176E-09  7.736640E-10
       181  18  6.129019E+05  3.963666E+04  3.821376E+04 -7.982539E+04 -9.873491E-10 -7.237176E-10
       181  19  2.394184E+04 -1.049269E+05 -9.460843E+04 -7.937851E+04 -6.883957E+03 -2.024087E+04
       181  20  1.579467E+05 -7.218303E+04 -6.530200E+04 -4.650216E+04 -6.086934E+03 -1.337310E+04
       181  21  2.919822E+05 -3.925066E+04 -3.546253E+04 -7.950255E+04 -5.286736E+03 -6.506145E+03
       181  22  4.524085E+05  1.388613E+02  2.357456E+03 -7.966398E+04 -1.608805E+03 -2.024571E+04
       181  23  4.524115E+05  7.130454E+01  1.599854E+03 -4.672657E+04 -8.114730E+02 -1.337895E+04
       181  24  4.524302E+05  1.939189E+02  1.376479E+03 -7.966397E+04 -1.113476E+01 -6.513079E+03
       181  25  8.810456E+05  1.051920E+05  9.931164E+04 -7.994960E+04  3.669954E+03 -2.025054E+04
       181  26  7.469567E+05  7.231967E+04  6.849620E+04 -4.695105E+04  4.466467E+03 -1.338480E+04
       181  27  6.129020E+05  3.963672E+04  3.821389E+04 -7.982541E+04  5.265819E+03 -6.520015E+03
       182   1  4.141529E+05 -9.119674E+03 -6.887755E+03 -7.960787E+04  5.026190E+03  2.510533E+03
       182   2  5.481107E+05  2.356486E+04  2.357499E+04 -4.678780E+04  4.105073E+03 -4.351572E+03
       182   3  6.820696E+05  5.646006E+04  5.464396E+04 -7.979693E+04  3.184730E+03 -1.121171E+04
       182   4  4.524285E+05  1.929638E+02  1.417817E+03 -7.965398E+04 -2.485768E+02  2.517692E+03
       182   5  4.524339E+05  9.372507E+01  1.842354E+03 -4.673905E+04 -1.168622E+03 -4.344789E+03
       182   6  4.524213E+05  2.056273E+02  2.872713E+03 -7.965393E+04 -2.087700E+03 -1.120523E+04
       182   7  4.907056E+05  9.505520E+03  9.723407E+03 -7.970010E+04 -5.523664E+03  2.524852E+03
       182   8  3.567656E+05 -2.337803E+04 -1.989077E+04 -4.669030E+04 -6.441513E+03 -4.338007E+03
       182   9  2.228222E+05 -5.605240E+04 -4.890180E+04 -7.951095E+04 -7.358201E+03 -1.119876E+04
       182  10  4.141528E+05 -9.119688E+03 -6.887815E+03 -7.960788E+04 -9.584964E-10  5.171880E-10
       182  11  5.481107E+05  2.356484E+04  2.357492E+04 -4.678778E+04 -7.403606E-10  1.771304E-09
       182  12  6.820695E+05  5.645992E+04  5.464370E+04 -7.979690E+04  1.099842E-09 -9.212259E-10
       182  13  4.524285E+05  1.929570E+02  1.417805E+03 -7.965398E+04 -8.691281E-12 -2.347992E-10
       182  14  4.524339E+05  9.370443E+01  1.842316E+03 -4.673905E+04 -1.113411E-09 -7.815035E-10
       182  15  4.524213E+05  2.054913E+02  2.872469E+03 -7.965395E+04 -1.309114E-09 -1.274873E-10
       182  16  4.907056E+05  9.505505E+03  9.723338E+03 -7.970009E+04  1.159594E-09 -2.084367E-10
       182  17  3.567655E+05 -2.337806E+04 -1.989088E+04 -4.669033E+04 -6.547031E-10 -7.042410E-10
       182  18  2.228221E+05 -5.605255E+04 -4.890213E+04 -7.951102E+04 -1.390206E-09 -5.723272E-10
       182  19  4.141529E+05 -9.119674E+03 -6.887755E+03 -7.960787E+04 -5.026190E+03 -2.510533E+03
       182  20  5.481107E+05  2.356486E+04  2.357499E+04 -4.678780E+04 -4.105073E+03  4.351572E+03
       182  21  6.820696E+05  5.646006E+04  5.464396E+04 -7.979693E+04 -3.184730E+03  1.121171E+04
       182  22  4.524285E+05  1.929638E+02  1.417817E+03 -7.965398E+04  2.485768E+02 -2.517692E+03
       182  23  4.524339E+05  9.372507E+01  1.842354E+03 -4.673905E+04  1.168622E+03  4.344789E+03
       182  24  4.524213E+05  2.056273E+02  2.872713E+03 -7.965393E+04  2.087700E+03  1.120523E+04
       182  25  4.907056E+05  9.505520E+03  9.723407E+03 -7.970010E+04  5.523664E+03 -2.524852E+03
       182  26  3.567656E+05 -2.337803E+04 -1.989077E+04 -4.669030E+04  6.441513E+03  4.338007E+03
       182  27  2.228222E+05 -5.605240E+04 -4.890180E+04 -7.951095E+04  7.358201E+03  1.119876E+04
       183   1  8.044965E+05  8.651847E+04  8.400196E+04 -7.979114E+04  2.616115E+03 -1.521685E+04
       183   2  9.384384E+05  1.191867E+05  1.166393E+05 -4.694143E+04 -5.391905E+02 -2.207341E+04
       183   3  1.073040E+06  1.529112E+05  1.515808E+05 -8.005401E+04 -3.690148E+03 -2.885870E+04
       183   4  4.525492E+05  1.162571E+02  3.685233E+03 -7.968431E+04 -2.684408E+03 -1.521101E+04
       183   5  4.522138E+05 -6.518025E+01  6.217485E+03 -4.670120E+04 -5.783222E+03 -2.206939E+04
       183   6  4.525126E+05  8.015737E+02  1.101701E+04 -7.968353E+04 -8.877021E+03 -2.885642E+04
       183   7  1.007166E+05 -8.629452E+04 -7.663948E+04 -7.957751E+04 -7.981955E+03 -1.520516E+04
       183   8 -3.379167E+04 -1.193334E+05 -1.042195E+05 -4.646111E+04 -1.102319E+04 -2.206537E+04
       183   9 -1.676578E+05 -1.513345E+05 -1.295715E+05 -7.931333E+04 -1.405876E+04 -2.885414E+04
       183  10  8.044965E+05  8.651822E+04  8.400152E+04 -7.979111E+04 -2.488275E-09 -6.800520E-10
       183  11  9.384382E+05  1.191862E+05  1.166384E+05 -4.694144E+04 -1.860337E-09  8.126112E-10
       183  12  1.073040E+06  1.529103E+05  1.515792E+05 -8.005409E+04 -7.737360E-10  1.867520E-10
       183  13  4.525491E+05  1.160066E+02  3.684785E+03 -7.968435E+04 -1.129434E-09  1.681435E-10
       183  14  4.522136E+05 -6.571236E+01  6.216507E+03 -4.670131E+04 -1.113689E-09  2.831955E-10
       183  15  4.525123E+05  8.006581E+02  1.101530E+04 -7.968373E+04 -4.336021E-10 -3.180661E-10
       183  16  1.007165E+05 -8.629479E+04 -7.664003E+04 -7.957760E+04  1.602318E-09 -1.113092E-10
       183  17 -3.379193E+04 -1.193339E+05 -1.042207E+05 -4.646130E+04 -1.977400E-10  1.872387E-09
       183  18 -1.676583E+05 -1.513355E+05 -1.295734E+05 -7.931366E+04  7.521559E-10  1.110009E-10
       183  19  8.044965E+05  8.651847E+04  8.400196E+04 -7.979114E+04 -2.616115E+03  1.521685E+04
       183  20  9.384384E+05  1.191867E+05  1.166393E+05 -4.694143E+04  5.391905E+02  2.207341E+04
       183  21  1.073040E+06  1.529112E+05  1.515808E+05 -8.005401E+04  3.690148E+03  2.885870E+04
       183  22  4.525492E+05  1.162571E+02  3.685233E+03 -7.968431E+04  2.684408E+03  1.521101E+04
       183  23  4.522138E+05 -6.518025E+01  6.217485E+03 -4.670120E+04  5.783222E+03  2.206939E+04
       183  24  4.525126E+05  8.015737E+02  1.101701E+04 -7.968353E+04  8.877021E+03  2.885642E+04
       183  25  1.007166E+05 -8.629452E+04 -7.663948E+04 -7.957751E+04  7.981955E+03  1.520516E+04
       183  26 -3.379167E+04 -1.193334E+05 -1.042195E+05 -4.646111E+04  1.102319E+04  2.206537E+04
       183  27 -1.676578E+05 -1.513345E+05 -1.295715E+05 -7.931333E+04  1.405876E+04  2.885414E+04
       184   1  1.196823E+06  1.816771E+05  1.834237E+05 -7.800132E+04 -5.394711E+03 -3.305616E+04
       184   2  1.329056E+06  2.143925E+05  2.240095E+05 -4.781043E+04 -1.908481E+04 -3.964945E+04
       184   3  1.466758E+06  2.604418E+05  2.768978E+05 -8.384789E+04 -3.276935E+04 -4.456207E+04
       184   4  4.534954E+05 -6.684298E+02  1.430091E+04 -7.974435E+04 -1.110955E+04 -3.305505E+04
       184   5  4.508428E+05 -9.695454E+02  2.451319E+04 -4.662633E+04 -2.349117E+04 -3.965209E+04
       184   6  4.534258E+05  1.184944E+04  4.613445E+04 -7.974184E+04 -3.586433E+04 -4.456743E+04
       184   7 -2.893205E+05 -1.830521E+05 -1.548576E+05 -8.148516E+04 -1.681761E+04 -3.305392E+04
       184   8 -4.266561E+05 -2.163848E+05 -1.750330E+05 -4.544383E+04 -2.789134E+04 -3.965475E+04
       184   9 -5.589552E+05 -2.368139E+05 -1.846957E+05 -7.564249E+04 -3.895427E+04 -4.457285E+04
       184  10  1.196823E+06  1.816759E+05  1.834216E+05 -7.800146E+04 -9.783818E-10 -2.046796E-11
       184  11  1.329055E+06  2.143907E+05  2.240058E+05 -4.781104E+04  1.093634E-09 -2.965877E-10
       184  12  1.466756E+06  2.604394E+05  2.768921E+05 -8.384906E+04 -2.093309E-10  2.528546E-10
       184  13  4.534949E+05 -6.696365E+02  1.429862E+04 -7.974464E+04 -5.301881E-10 -1.036778E-10
       184  14  4.508418E+05 -9.713822E+02  2.450920E+04 -4.662708E+04 -1.816967E-10  1.968140E-10
       184  15  4.534239E+05  1.184696E+04  4.612830E+04 -7.974313E+04 -1.346150E-09  9.728028E-11
       184  16 -2.893211E+05 -1.830534E+05 -1.548602E+05 -8.148561E+04  1.265095E-09 -6.229829E-11
       184  17 -4.266573E+05 -2.163867E+05 -1.750374E+05 -4.544472E+04 -6.254223E-10  3.530439E-11
       184  18 -5.589574E+05 -2.368164E+05 -1.847023E+05 -7.564389E+04 -7.723453E-10 -3.178445E-10
       184  19  1.196823E+06  1.816771E+05  1.834237E+05 -7.800132E+04  5.394711E+03  3.305616E+04
       184  20  1.329056E+06  2.143925E+05  2.240095E+05 -4.781043E+04  1.908481E+04  3.964945E+04
       184  21  1.466758E+06  2.604418E+05  2.768978E+05 -8.384789E+04  3.276935E+04  4.456207E+04
       184  22  4.534954E+05 -6.684298E+02  1.430091E+04 -7.974435E+04  1.110955E+04  3.305505E+04
       184  23  4.508428E+05 -9.695454E+02  2.451319E+04 -4.662633E+04  2.349117E+04  3.965209E+04
       184  24  4.534258E+05  1.184944E+04  4.613445E+04 -7.974184E+04  3.586433E+04  4.456743E+04
       184  25 -2.893205E+05 -1.830521E+05 -1.548576E+05 -8.148516E+04  1.681761E+04  3.305392E+04
       184  26 -4.266561E+05 -2.163848E+05 -1.750330E+05 -4.544383E+04  2.789134E+04  3.965475E+04
       184  27 -5.589552E+05 -2.368139E+05 -1.846957E+05 -7.564249E+04  3.895427E+04  4.457285E+04
       185   1  1.601587E+06  2.690773E+05  3.152393E+05 -5.343690E+04 -3.008901E+04 -5.259548E+04
       185   2  1.708896E+06  3.026202E+05  3.868270E+05 -7.058740E+04 -1.090760E+05 -5.307521E+04
       185   3  1.874451E+06  5.245061E+05  5.570220E+05 -1.533014E+05 -1.881311E+05 -1.742941E+04
       185   4  4.640968E+05 -9.715532E+03  5.750668E+04 -7.954658E+04 -4.427866E+04 -5.260478E+04
       185   5  4.372796E+05 -9.539486E+03  9.583854E+04 -4.685844E+04 -9.537243E+04 -5.307619E+04
       185   6  4.639675E+05  1.743431E+05  2.135484E+05 -7.972713E+04 -1.465133E+05 -1.740175E+04
       185   7 -6.721928E+05 -2.885948E+05 -2.003083E+05 -1.056081E+05 -5.844255E+04 -5.261289E+04
       185   8 -8.328401E+05 -3.218092E+05 -1.952550E+05 -2.317862E+04 -8.169653E+04 -5.307613E+04
       185   9 -9.446892E+05 -1.759447E+05 -1.300601E+05 -6.320452E+03 -1.049894E+05 -1.736423E+04
       185  10  1.601586E+06  2.690741E+05  3.152324E+05 -5.343817E+04 -1.686244E-11  5.785225E-10
       185  11  1.708882E+06  3.026140E+05  3.867994E+05 -7.059206E+04  1.023022E-09  1.382256E-10
       185  12  1.874413E+06  5.244963E+05  5.569551E+05 -1.533041E+05 -1.953410E-10 -3.027660E-10
       185  13  4.640939E+05 -9.719031E+03  5.749779E+04 -7.954846E+04 -9.384902E-10  2.855663E-10
       185  14  4.372691E+05 -9.544952E+03  9.581616E+04 -4.686252E+04  3.478541E-10  1.375244E-09
       185  15  4.639444E+05  1.743370E+05  2.135075E+05 -7.972919E+04 -4.116885E-10 -1.129927E-10
       185  16 -6.721972E+05 -2.885987E+05 -2.003199E+05 -1.056106E+05 -3.533890E-10 -1.576814E-10
       185  17 -8.328481E+05 -3.218140E+05 -1.952728E+05 -2.318212E+04 -9.139824E-10  1.973998E-10
       185  18 -9.447011E+05 -1.759480E+05 -1.300814E+05 -6.321921E+03 -1.183582E-09 -3.433311E-10
       185  19  1.601587E+06  2.690773E+05  3.152393E+05 -5.343690E+04  3.008901E+04  5.259548E+04
       185  20  1.708896E+06  3.026202E+05  3.868270E+05 -7.058740E+04  1.090760E+05  5.307521E+04
       185  21  1.874451E+06  5.245061E+05  5.570220E+05 -1.533014E+05  1.881311E+05  1.742941E+04
       185  22  4.640968E+05 -9.715532E+03  5.750668E+04 -7.954658E+04  4.427866E+04  5.260478E+04
       185  23  4.372796E+05 -9.539486E+03  9.583854E+04 -4.685844E+04  9.537243E+04  5.307619E+04
       185  24  4.639675E+05  1.743431E+05  2.135484E+05 -7.972713E+04  1.465133E+05  1.740175E+04
       185  25 -6.721928E+05 -2.885948E+05 -2.003083E+05 -1.056081E+05  5.844255E+04  5.261289E+04
       185  26 -8.328401E+05 -3.218092E+05 -1.952550E+05 -2.317862E+04  8.169653E+04  5.307613E+04
       185  27 -9.446892E+05 -1.759447E+05 -1.300601E+05 -6.320452E+03  1.049894E+05  1.736423E+04
       186   1  2.627816E+05  8.729286E+05  2.807183E+05 -2.192018E+05  5.808652E+03  9.174303E+04
       186   2  8.627461E+04  5.578096E+05  1.388593E+05 -1.181679E+05  1.402612E+04  4.788867E+04
       186   3  1.327240E+04  2.734553E+05  5.121383E+04 -1.634661E+05  2.495975E+03  4.002356E+03
       186   4  9.585736E+04  2.034830E+05  1.164486E+05 -1.770576E+05  5.853122E+03  7.788754E+04
       186   5 -4.449599E+03  1.894745E+05  5.388106E+04 -1.040298E+05  1.402390E+04  4.924143E+04
       186   6 -3.844762E+03  2.035506E+05  3.501651E+04 -1.773259E+05  2.445678E+03  2.054219E+04
       186   7 -7.109360E+04 -4.655509E+05 -4.785230E+04 -1.349585E+05  5.895742E+03  6.404692E+04
       186   8 -9.518259E+04 -1.787349E+05 -3.110608E+04 -8.990004E+04  1.402174E+04  5.059340E+04
       186   9 -2.096139E+04  1.336515E+05  1.882000E+04 -1.911841E+05  2.394640E+03  3.708017E+04
       186  10  2.627793E+05  8.729196E+05  2.807024E+05 -2.192022E+05 -2.541143E-10  6.992078E-10
       186  11  8.627378E+04  5.578071E+05  1.388546E+05 -1.181684E+05 -1.480525E-09  7.620115E-10
       186  12  1.327238E+04  2.734553E+05  5.121379E+04 -1.634661E+05 -7.184977E-10 -6.277016E-10
       186  13  9.585569E+04  2.034765E+05  1.164372E+05 -1.770579E+05  2.115514E-09  1.327211E-09
       186  14 -4.450462E+03  1.894718E+05  5.387614E+04 -1.040303E+05  1.062599E-09 -7.157236E-10
       186  15 -3.844881E+03  2.035502E+05  3.501571E+04 -1.773259E+05  1.343703E-09  9.073868E-10
       186  16 -7.109474E+04 -4.655553E+05 -4.786008E+04 -1.349588E+05 -5.030183E-10 -6.674843E-10
       186  17 -9.518349E+04 -1.787377E+05 -3.111126E+04 -8.990061E+04  2.313938E-09 -1.841979E-09
       186  18 -2.096176E+04  1.336501E+05  1.881741E+04 -1.911842E+05  4.532710E-10  1.412451E-09
       186  19  2.627816E+05  8.729286E+05  2.807183E+05 -2.192018E+05 -5.808652E+03 -9.174303E+04
       186  20  8.627461E+04  5.578096E+05  1.388593E+05 -1.181679E+05 -1.402612E+04 -4.788867E+04
       186  21  1.327240E+04  2.734553E+05  5.121383E+04 -1.634661E+05 -2.495975E+03 -4.002356E+03
       186  22  9.585736E+04  2.034830E+05  1.164486E+05 -1.770576E+05 -5.853122E+03 -7.788754E+04
       186  23 -4.449599E+03  1.894745E+05  5.388106E+04 -1.040298E+05 -1.402390E+04 -4.924143E+04
       186  24 -3.844762E+03  2.035506E+05  3.501651E+04 -1.773259E+05 -2.445678E+03 -2.054219E+04
       186  25 -7.109360E+04 -4.655509E+05 -4.785230E+04 -1.349585E+05 -5.895742E+03 -6.404692E+04
       186  26 -9.518259E+04 -1.787349E+05 -3.110608E+04 -8.990004E+04 -1.402174E+04 -5.059340E+04
       186  27 -2.096139E+04  1.336515E+05  1.882000E+04 -1.911841E+05 -2.394640E+03 -3.708017E+04
       187   1 -4.273792E+04 -5.737597E+03 -1.640081E+04 -1.800131E+05 -8.863274E+03  4.050112E+03
       187   2 -1.238453E+05 -3.071997E+05 -9.222897E+04 -1.030238E+05 -2.271228E+04 -6.335474E+03
       187   3 -1.923820E+05 -6.048823E+05 -1.583498E+05 -1.731996E+05 -3.540140E+04 -1.670271E+04
       187   4  7.324002E+03  1.981546E+05  3.013752E+04 -1.774288E+05 -8.896615E+03  1.515857E+04
       187   5 -2.583490E+02  1.961886E+05  2.226294E+04 -1.038543E+05 -2.273920E+04  3.875296E+03
       187   6  4.886962E+03  1.980724E+05  2.472069E+04 -1.774359E+05 -3.542252E+04 -7.394492E+03
       187   7  5.738314E+04  4.020856E+05  7.667361E+04 -1.748437E+05 -8.929857E+03  2.627064E+04
       187   8  1.233111E+05  6.998123E+05  1.367388E+05 -1.046852E+05 -2.276614E+04  1.409427E+04
       187   9  2.021113E+05  1.001625E+06  2.077495E+05 -1.816772E+05 -3.544377E+04  1.925674E+03
       187  10 -4.273801E+04 -5.737636E+03 -1.640099E+04 -1.800131E+05 -1.370168E-09 -5.621280E-10
       187  11 -1.238459E+05 -3.071999E+05 -9.223002E+04 -1.030239E+05 -1.114602E-09  2.706001E-10
       187  12 -1.923834E+05 -6.048830E+05 -1.583527E+05 -1.732001E+05 -1.913596E-10  2.563413E-11
       187  13  7.323856E+03  1.981543E+05  3.013694E+04 -1.774287E+05 -4.780533E-10  1.411834E-09
       187  14 -2.589083E+02  1.961885E+05  2.226194E+04 -1.038542E+05  4.655333E-10 -7.998098E-10
       187  15  4.885600E+03  1.980720E+05  2.471822E+04 -1.774361E+05 -6.792859E-10  7.332386E-10
       187  16  5.738287E+04  4.020848E+05  7.667216E+04 -1.748435E+05 -2.915977E-10  6.281409E-10
       187  17  1.233105E+05  6.998120E+05  1.367374E+05 -1.046850E+05 -1.378282E-09 -1.386154E-09
       187  18  2.021100E+05  1.001625E+06  2.077471E+05 -1.816772E+05 -4.740300E-10  5.741040E-10
       187  19 -4.273792E+04 -5.737597E+03 -1.640081E+04 -1.800131E+05  8.863274E+03 -4.050112E+03
       187  20 -1.238453E+05 -3.071997E+05 -9.222897E+04 -1.030238E+05  2.271228E+04  6.335474E+03
       187  21 -1.923820E+05 -6.048823E+05 -1.583498E+05 -1.731996E+05  3.540140E+04  1.670271E+04
       187  22  7.324002E+03  1.981546E+05  3.013752E+04 -1.774288E+05  8.896615E+03 -1.515857E+04
       187  23 -2.583490E+02  1.961886E+05  2.226294E+04 -1.038543E+05  2.273920E+04 -3.875296E+03
       187  24  4.886962E+03  1.980724E+05  2.472069E+04 -1.774359E+05  3.542252E+04  7.394492E+03
       187  25  5.738314E+04  4.020856E+05  7.667361E+04 -1.748437E+05  8.929857E+03 -2.627064E+04
       187  26  1.233111E+05  6.998123E+05  1.367388E+05 -1.046852E+05  2.276614E+04 -1.409427E+04
       187  27  2.021113E+05  1.001625E+06  2.077495E+05 -1.816772E+05  3.544377E+04 -1.925674E+03
       188   1 -2.668845E+05 -8.753975E+05 -2.174872E+05 -1.849867E+05 -4.934136E+04 -3.442489E+04
       188   2 -3.416860E+05 -1.183000E+06 -2.768779E+05 -9.313751E+04 -5.664068E+04 -2.061669E+04
       188   3 -3.516863E+05 -1.475735E+06 -3.289974E+05 -1.470140E+05 -1.926571E+04 -6.753443E+03
       188   4 -2.491228E+03  2.016934E+05  2.717316E+04 -1.771451E+05 -4.939045E+04 -1.173622E+04
       188   5 -3.538158E+03  1.912314E+05  3.855638E+04 -1.042430E+05 -5.661069E+04 -3.221890E+04
       188   6  6.609727E+04  2.014633E+05  8.100241E+04 -1.770388E+05 -1.920150E+04 -5.264018E+04
       188   7  2.618225E+05  1.279863E+06  2.717603E+05 -1.692889E+05 -4.943892E+04  1.099150E+04
       188   8  3.344784E+05  1.567214E+06  3.538667E+05 -1.153724E+05 -5.658032E+04 -4.384655E+04
       188   9  4.836771E+05  1.881235E+06  4.908052E+05 -2.071440E+05 -1.913295E+04 -9.865067E+04
       188  10 -2.668874E+05 -8.753995E+05 -2.174940E+05 -1.849881E+05 -2.721925E-10 -1.199516E-10
       188  11 -3.416896E+05 -1.183002E+06 -2.768847E+05 -9.313845E+04  8.285500E-10  4.511984E-10
       188  12 -3.516867E+05 -1.475735E+06 -3.289981E+05 -1.470141E+05  2.455993E-10 -2.432483E-10
       188  13 -2.493885E+03  2.016926E+05  2.716831E+04 -1.771455E+05  1.091447E-09  1.103253E-09
       188  14 -3.541878E+03  1.912294E+05  3.854841E+04 -1.042445E+05  9.260906E-10 -4.104862E-10
       188  15  6.609613E+04  2.014602E+05  8.099651E+04 -1.770397E+05  6.562925E-10  3.480796E-10
       188  16  2.618198E+05  1.279862E+06  2.717555E+05 -1.692884E+05 -1.132408E-09  2.001040E-10
       188  17  3.344745E+05  1.567211E+06  3.538570E+05 -1.153744E+05  6.458418E-10 -1.283202E-09
       188  18  4.836741E+05  1.881225E+06  4.907863E+05 -2.071455E+05  5.640035E-10  4.109343E-10
       188  19 -2.668845E+05 -8.753975E+05 -2.174872E+05 -1.849867E+05  4.934136E+04  3.442489E+04
       188  20 -3.416860E+05 -1.183000E+06 -2.768779E+05 -9.313751E+04  5.664068E+04  2.061669E+04
       188  21 -3.516863E+05 -1.475735E+06 -3.289974E+05 -1.470140E+05  1.926571E+04  6.753443E+03
       188  22 -2.491228E+03  2.016934E+05  2.717316E+04 -1.771451E+05  4.939045E+04  1.173622E+04
       188  23 -3.538158E+03  1.912314E+05  3.855638E+04 -1.042430E+05  5.661069E+04  3.221890E+04
       188  24  6.609727E+04  2.014633E+05  8.100241E+04 -1.770388E+05  1.920150E+04  5.264018E+04
       188  25  2.618225E+05  1.279863E+06  2.717603E+05 -1.692889E+05  4.943892E+04 -1.099150E+04
       188  26  3.344784E+05  1.567214E+06  3.538667E+05 -1.153724E+05  5.658032E+04  4.384655E+04
       188  27  4.836771E+05  1.881235E+06  4.908052E+05 -2.071440E+05  1.913295E+04  9.865067E+04
       189   1 -3.096782E+06 -1.140664E+06 -7.148426E+05 -1.110091E+06 -2.896991E+05 -9.110879E+04
       189   2 -2.991326E+06 -7.200303E+05 -4.472566E+05 -1.095785E+06 -1.884400E+05 -1.491440E+04
       189   3 -2.986744E+06 -6.546282E+05 -3.523673E+05 -1.038649E+06 -7.458351E+04  2.797230E+04
       189   4 -1.979794E+06 -5.994074E+05 -3.904497E+05 -6.835083E+05 -2.542560E+05 -7.780246E+04
       189   5 -1.910637E+06 -2.765958E+05 -1.668175E+05 -7.605120E+05 -1.767050E+05 -1.051288E+04
       189   6 -1.937419E+06 -3.039806E+05 -9.681030E+04 -7.947502E+05 -8.657961E+04  2.345660E+04
       189   7 -8.615520E+05 -5.781786E+04 -6.617099E+04 -2.561477E+05 -2.187422E+05 -6.445229E+04
       189   8 -8.287945E+05  1.669805E+05  1.135238E+05 -4.246842E+05 -1.649474E+05 -6.101002E+03
       189   9 -8.870157E+05  4.668613E+04  1.586652E+05 -5.505013E+05 -9.859786E+04  1.893465E+04
       189  10 -3.096874E+06 -1.140695E+06 -7.150169E+05 -1.110112E+06 -9.179799E-10 -1.697328E-10
       189  11 -2.991365E+06 -7.200402E+05 -4.473241E+05 -1.095787E+06 -4.932876E-10 -3.257908E-10
       189  12 -2.986750E+06 -6.546305E+05 -3.523792E+05 -1.038647E+06 -1.030467E-09  4.770365E-10
       189  13 -1.979865E+06 -5.994314E+05 -3.905830E+05 -6.835243E+05  1.221586E-09 -4.828416E-10
       189  14 -1.910671E+06 -2.766043E+05 -1.668766E+05 -7.605135E+05  1.927774E-09 -8.640386E-10
       189  15 -1.937427E+06 -3.039832E+05 -9.682545E+04 -7.947486E+05 -1.193574E-09  5.104534E-10
       189  16 -8.616046E+05 -5.783520E+04 -6.626886E+04 -2.561591E+05 -9.395671E-10  2.174501E-10
       189  17 -8.288238E+05  1.669732E+05  1.134725E+05 -4.246851E+05 -9.878053E-10  3.305098E-10
       189  18 -8.870263E+05  4.668314E+04  1.586463E+05 -5.504998E+05  7.415004E-11  8.506437E-10
       189  19 -3.096782E+06 -1.140664E+06 -7.148426E+05 -1.110091E+06  2.896991E+05  9.110879E+04
       189  20 -2.991326E+06 -7.200303E+05 -4.472566E+05 -1.095785E+06  1.884400E+05  1.491440E+04
       189  21 -2.986744E+06 -6.546282E+05 -3.523673E+05 -1.038649E+06  7.458351E+04 -2.797230E+04
       189  22 -1.979794E+06 -5.994074E+05 -3.904497E+05 -6.835083E+05  2.542560E+05  7.780246E+04
       189  23 -1.910637E+06 -2.765958E+05 -1.668175E+05 -7.605120E+05  1.767050E+05  1.051288E+04
       189  24 -1.937419E+06 -3.039806E+05 -9.681030E+04 -7.947502E+05  8.657961E+04 -2.345660E+04
       189  25 -8.615520E+05 -5.781786E+04 -6.617099E+04 -2.561477E+05  2.187422E+05  6.445229E+04
       189  26 -8.287945E+05  1.669805E+05  1.135238E+05 -4.246842E+05  1.649474E+05  6.101002E+03
       189  27 -8.870157E+05  4.668613E+04  1.586652E+05 -5.505013E+05  9.859786E+04 -1.893465E+04
       190   1 -2.845956E+06 -6.912109E+05 -3.114076E+05 -1.035214E+06 -6.938915E+04  2.207999E+04
       190   2 -2.764163E+06 -6.085731E+05 -2.477152E+05 -9.897344E+05 -4.699352E+04  2.674475E+04
       190   3 -2.656837E+06 -5.876413E+05 -2.063938E+05 -9.809012E+05 -2.394438E+04  2.966285E+04
       190   4 -1.924400E+06 -3.384854E+05 -7.754280E+04 -7.752281E+05 -7.117797E+04  2.140110E+04
       190   5 -1.935667E+06 -2.965722E+05 -3.899898E+04 -7.610896E+05 -5.000396E+04  2.560952E+04
       190   6 -1.921154E+06 -3.160971E+05 -2.182890E+04 -7.836008E+05 -2.818040E+04  2.807067E+04
       190   7 -1.002004E+06  1.430761E+04  1.562545E+05 -5.148855E+05 -7.296967E+04  2.072108E+04
       190   8 -1.106495E+06  1.547701E+04  1.696630E+05 -5.321657E+05 -5.301878E+04  2.447262E+04
       190   9 -1.184939E+06 -4.452115E+04  1.626933E+05 -5.860892E+05 -3.242192E+04  2.647650E+04
       190  10 -2.845961E+06 -6.912127E+05 -3.114176E+05 -1.035213E+06 -8.258799E-10  6.151056E-10
       190  11 -2.764165E+06 -6.085745E+05 -2.477207E+05 -9.897334E+05  9.364608E-10 -2.553847E-10
       190  12 -2.656838E+06 -5.876424E+05 -2.063965E+05 -9.809006E+05  1.329538E-10 -4.461620E-10
       190  13 -1.924405E+06 -3.384873E+05 -7.755320E+04 -7.752269E+05 -1.089244E-09  4.634916E-11
       190  14 -1.935670E+06 -2.965736E+05 -3.900492E+04 -7.610886E+05 -9.273635E-10 -2.595246E-10
       190  15 -1.921155E+06 -3.160982E+05 -2.183187E+04 -7.836002E+05 -2.920804E-10 -7.177812E-10
       190  16 -1.002010E+06  1.430572E+04  1.562437E+05 -5.148843E+05 -5.080843E-10  1.121428E-10
       190  17 -1.106498E+06  1.547561E+04  1.696566E+05 -5.321647E+05 -1.027749E-09 -2.768711E-10
       190  18 -1.184941E+06 -4.452218E+04  1.626900E+05 -5.860885E+05 -6.917467E-10 -4.319256E-10
       190  19 -2.845956E+06 -6.912109E+05 -3.114076E+05 -1.035214E+06  6.938915E+04 -2.207999E+04
       190  20 -2.764163E+06 -6.085731E+05 -2.477152E+05 -9.897344E+05  4.699352E+04 -2.674475E+04
       190  21 -2.656837E+06 -5.876413E+05 -2.063938E+05 -9.809012E+05  2.394438E+04 -2.966285E+04
       190  22 -1.924400E+06 -3.384854E+05 -7.754280E+04 -7.752281E+05  7.117797E+04 -2.140110E+04
       190  23 -1.935667E+06 -2.965722E+05 -3.899898E+04 -7.610896E+05  5.000396E+04 -2.560952E+04
       190  24 -1.921154E+06 -3.160971E+05 -2.182890E+04 -7.836008E+05  2.818040E+04 -2.807067E+04
       190  25 -1.002004E+06  1.430761E+04  1.562545E+05 -5.148855E+05  7.296967E+04 -2.072108E+04
       190  26 -1.106495E+06  1.547701E+04  1.696630E+05 -5.321657E+05  5.301878E+04 -2.447262E+04
       190  27 -1.184939E+06 -4.452115E+04  1.626933E+05 -5.860892E+05  3.242192E+04 -2.647650E+04
       191   1 -2.557208E+06 -5.573666E+05 -1.767073E+05 -9.567508E+05 -2.009266E+04  2.733217E+04
       191   2 -2.475179E+06 -4.984271E+05 -1.439153E+05 -9.073292E+05 -1.348901E+04  2.374610E+04
       191   3 -2.355827E+06 -4.798288E+05 -1.150238E+05 -9.016509E+05 -6.838351E+03  2.002150E+04
       191   4 -1.919611E+06 -3.188851E+05 -1.674765E+04 -7.823554E+05 -2.385984E+04  2.591731E+04
       191   5 -1.938138E+06 -2.978580E+05 -8.998345E+03 -7.607997E+05 -1.735058E+04  2.229774E+04
       191   6 -1.919332E+06 -3.171507E+05 -5.071010E+03 -7.829894E+05 -1.079514E+04  1.853941E+04
       191   7 -1.281618E+06 -8.037767E+04  1.431792E+05 -6.077976E+05 -2.763124E+04  2.450087E+04
       191   8 -1.400813E+06 -9.727011E+04  1.258958E+05 -6.141550E+05 -2.121581E+04  2.084800E+04
       191   9 -1.482648E+06 -1.544597E+05  1.048672E+05 -6.642517E+05 -1.475499E+04  1.705619E+04
       191  10 -2.557208E+06 -5.573675E+05 -1.767095E+05 -9.567504E+05  4.285052E-10 -3.432771E-10
       191  11 -2.475180E+06 -4.984277E+05 -1.439167E+05 -9.073289E+05  1.299805E-09 -5.010622E-10
       191  12 -2.355828E+06 -4.798292E+05 -1.150247E+05 -9.016508E+05 -4.461725E-10  2.626364E-10
       191  13 -1.919612E+06 -3.188860E+05 -1.674998E+04 -7.823549E+05 -7.185488E-11 -3.877957E-10
       191  14 -1.938138E+06 -2.978586E+05 -8.999844E+03 -7.607994E+05  2.068537E-09  9.952500E-10
       191  15 -1.919332E+06 -3.171511E+05 -5.071874E+03 -7.829893E+05 -3.314725E-10  4.967491E-10
       191  16 -1.281619E+06 -8.037852E+04  1.431767E+05 -6.077971E+05 -7.069248E-10 -4.810715E-10
       191  17 -1.400813E+06 -9.727070E+04  1.258941E+05 -6.141547E+05 -2.299074E-10 -3.599476E-10
       191  18 -1.482648E+06 -1.544601E+05  1.048662E+05 -6.642515E+05 -4.133290E-10 -3.318897E-10
       191  19 -2.557208E+06 -5.573666E+05 -1.767073E+05 -9.567508E+05  2.009266E+04 -2.733217E+04
       191  20 -2.475179E+06 -4.984271E+05 -1.439153E+05 -9.073292E+05  1.348901E+04 -2.374610E+04
       191  21 -2.355827E+06 -4.798288E+05 -1.150238E+05 -9.016509E+05  6.838351E+03 -2.002150E+04
       191  22 -1.919611E+06 -3.188851E+05 -1.674765E+04 -7.823554E+05  2.385984E+04 -2.591731E+04
       191  23 -1.938138E+06 -2.978580E+05 -8.998345E+03 -7.607997E+05  1.735058E+04 -2.229774E+04
       191  24 -1.919332E+06 -3.171507E+05 -5.071010E+03 -7.829894E+05  1.079514E+04 -1.853941E+04
       191  25 -1.281618E+06 -8.037767E+04  1.431792E+05 -6.077976E+05  2.763124E+04 -2.450087E+04
       191  26 -1.400813E+06 -9.727011E+04  1.258958E+05 -6.141550E+05  2.121581E+04 -2.084800E+04
       191  27 -1.482648E+06 -1.544597E+05  1.048672E+05 -6.642517E+05  1.475499E+04 -1.705619E+04
       192   1 -2.257150E+06 -4.435887E+05 -8.847083E+04 -8.752312E+05 -4.897933E+03  1.708089E+04
       192   2 -2.173695E+06 -3.854704E+05 -6.146358E+04 -8.246505E+05 -1.606747E+03  1.200616E+04
       192   3 -2.051235E+06 -3.667037E+05 -3.540162E+04 -8.190941E+05  1.692615E+03  6.902990E+03
       192   4 -1.919019E+06 -3.174896E+05 -3.923953E+03 -7.830575E+05 -8.854201E+03  1.559991E+04
       192   5 -1.938500E+06 -2.977364E+05 -2.407708E+03 -7.605705E+05 -5.582772E+03  1.051861E+04
       192   6 -1.918982E+06 -3.173303E+05 -1.820057E+03 -7.831106E+05 -2.303409E+03  5.408850E+03
       192   7 -1.580777E+06 -1.913830E+05  8.061399E+04 -6.908382E+05 -1.281283E+04  1.411803E+04
       192   8 -1.703251E+06 -2.099991E+05  5.664371E+04 -6.964687E+05 -9.560438E+03  9.030448E+03
       192   9 -1.786714E+06 -2.679559E+05  3.176001E+04 -7.471202E+05 -6.300349E+03  3.914369E+03
       192  10 -2.257150E+06 -4.435890E+05 -8.847142E+04 -8.752311E+05 -2.706941E-10  8.130745E-10
       192  11 -2.173695E+06 -3.854705E+05 -6.146386E+04 -8.246505E+05 -1.130202E-09  1.248368E-09
       192  12 -2.051235E+06 -3.667037E+05 -3.540171E+04 -8.190941E+05 -5.357538E-10 -5.718736E-10
       192  13 -1.919020E+06 -3.174898E+05 -3.924557E+03 -7.830574E+05 -9.406057E-10 -3.760743E-10
       192  14 -1.938500E+06 -2.977366E+05 -2.407974E+03 -7.605705E+05 -2.146533E-09 -5.378480E-10
       192  15 -1.918982E+06 -3.173303E+05 -1.820121E+03 -7.831106E+05  1.522316E-10 -1.841677E-10
       192  16 -1.580777E+06 -1.913833E+05  8.061331E+04 -6.908381E+05  3.568416E-10 -2.410137E-10
       192  17 -1.703251E+06 -2.099992E+05  5.664338E+04 -6.964686E+05  5.066890E-10  4.533407E-10
       192  18 -1.786714E+06 -2.679560E+05  3.175990E+04 -7.471202E+05 -1.957707E-10 -9.396827E-11
       192  19 -2.257150E+06 -4.435887E+05 -8.847083E+04 -8.752312E+05  4.897933E+03 -1.708089E+04
       192  20 -2.173695E+06 -3.854704E+05 -6.146358E+04 -8.246505E+05  1.606747E+03 -1.200616E+04
       192  21 -2.051235E+06 -3.667037E+05 -3.540162E+04 -8.190941E+05 -1.692615E+03 -6.902990E+03
       192  22 -1.919019E+06 -3.174896E+05 -3.923953E+03 -7.830575E+05  8.854201E+03 -1.559991E+04
       192  23 -1.938500E+06 -2.977364E+05 -2.407708E+03 -7.605705E+05  5.582772E+03 -1.051861E+04
       192  24 -1.918982E+06 -3.173303E+05 -1.820057E+03 -7.831106E+05  2.303409E+03 -5.408850E+03
       192  25 -1.580777E+06 -1.913830E+05  8.061399E+04 -6.908382E+05  1.281283E+04 -1.411803E+04
       192  26 -1.703251E+06 -2.099991E+05  5.664371E+04 -6.964687E+05  9.560438E+03 -9.030448E+03
       192  27 -1.786714E+06 -2.679559E+05  3.176001E+04 -7.471202E+05  6.300349E+03 -3.914369E+03
       193   1 -1.951727E+06 -3.295545E+05 -9.640006E+03 -7.921337E+05  3.209807E+03  3.769216E+03
       193   2 -1.867884E+06 -2.713487E+05  1.554470E+04 -7.412932E+05  6.377412E+03 -1.399972E+03
       193   3 -1.744887E+06 -2.526357E+05  3.988343E+04 -7.356866E+05  9.541919E+03 -6.558264E+03
       193   4 -1.918948E+06 -3.173702E+05 -1.784040E+03 -7.831534E+05 -7.917247E+02  2.273212E+03
       193   5 -1.938527E+06 -2.976724E+05 -2.185366E+03 -7.605160E+05  2.383106E+03 -2.893568E+03
       193   6 -1.918966E+06 -3.174709E+05 -3.438517E+03 -7.831179E+05  5.554621E+03 -8.049473E+03
       193   7 -1.886167E+06 -3.051858E+05  6.071956E+03 -7.741726E+05 -4.793504E+03  7.771156E+02
       193   8 -2.009165E+06 -3.239959E+05 -1.991580E+04 -7.797369E+05 -1.610711E+03 -4.386981E+03
       193   9 -2.093016E+06 -3.823041E+05 -4.676277E+04 -8.305370E+05  1.568547E+03 -9.540225E+03
       193  10 -1.951727E+06 -3.295546E+05 -9.640052E+03 -7.921337E+05 -4.421324E-10 -8.004921E-10
       193  11 -1.867884E+06 -2.713487E+05  1.554462E+04 -7.412932E+05 -3.464515E-10  2.790846E-10
       193  12 -1.744887E+06 -2.526358E+05  3.988318E+04 -7.356866E+05 -9.330502E-10  9.926632E-10
       193  13 -1.918948E+06 -3.173703E+05 -1.784050E+03 -7.831534E+05  5.382029E-11 -2.000081E-10
       193  14 -1.938527E+06 -2.976724E+05 -2.185393E+03 -7.605160E+05  8.322741E-11  1.237354E-09
       193  15 -1.918967E+06 -3.174710E+05 -3.438697E+03 -7.831178E+05 -9.600605E-10  3.975482E-10
       193  16 -1.886167E+06 -3.051858E+05  6.071912E+03 -7.741726E+05  5.739013E-10  3.328552E-10
       193  17 -2.009165E+06 -3.239959E+05 -1.991584E+04 -7.797369E+05  1.025347E-09 -3.752326E-10
       193  18 -2.093016E+06 -3.823042E+05 -4.676294E+04 -8.305370E+05 -8.749129E-10 -9.454793E-12
       193  19 -1.951727E+06 -3.295545E+05 -9.640006E+03 -7.921337E+05 -3.209807E+03 -3.769216E+03
       193  20 -1.867884E+06 -2.713487E+05  1.554470E+04 -7.412932E+05 -6.377412E+03  1.399972E+03
       193  21 -1.744887E+06 -2.526357E+05  3.988343E+04 -7.356866E+05 -9.541919E+03  6.558264E+03
       193  22 -1.918948E+06 -3.173702E+05 -1.784040E+03 -7.831534E+05  7.917247E+02 -2.273212E+03
       193  23 -1.938527E+06 -2.976724E+05 -2.185366E+03 -7.605160E+05 -2.383106E+03  2.893568E+03
       193  24 -1.918966E+06 -3.174709E+05 -3.438517E+03 -7.831179E+05 -5.554621E+03  8.049473E+03
       193  25 -1.886167E+06 -3.051858E+05  6.071956E+03 -7.741726E+05  4.793504E+03 -7.771156E+02
       193  26 -2.009165E+06 -3.239959E+05 -1.991580E+04 -7.797369E+05  1.610711E+03  4.386981E+03
       193  27 -2.093016E+06 -3.823041E+05 -4.676277E+04 -8.305370E+05 -1.568547E+03  9.540225E+03
       194   1 -1.645851E+06 -2.154894E+05  6.452983E+04 -7.089367E+05  1.140744E+04 -9.555945E+03
       194   2 -1.562879E+06 -1.576465E+05  8.647167E+04 -6.582978E+05  1.728702E+04 -1.364078E+04
       194   3 -1.442006E+06 -1.403377E+05  1.051580E+05 -6.520677E+05  2.312941E+04 -1.761353E+04
       194   4 -1.919193E+06 -3.172310E+05 -4.412500E+03 -7.831174E+05  7.411363E+03 -1.105096E+04
       194   5 -1.938247E+06 -2.976901E+05 -7.757093E+03 -7.606408E+05  1.336803E+04 -1.510833E+04
       194   6 -1.919426E+06 -3.187017E+05 -1.441949E+04 -7.825787E+05  1.928682E+04 -1.905379E+04
       194   7 -2.192461E+06 -4.189676E+05 -7.336041E+04 -8.572683E+05  3.417231E+03 -1.254524E+04
       194   8 -2.313477E+06 -4.377246E+05 -1.019969E+05 -8.629276E+05  9.451640E+03 -1.657491E+04
       194   9 -2.396624E+06 -4.970514E+05 -1.340154E+05 -9.129991E+05  1.544745E+04 -2.049285E+04
       194  10 -1.645851E+06 -2.154895E+05  6.452941E+04 -7.089366E+05  7.943431E-10  1.140988E-09
       194  11 -1.562879E+06 -1.576468E+05  8.647076E+04 -6.582976E+05 -2.283083E-10 -5.598778E-10
       194  12 -1.442006E+06 -1.403382E+05  1.051564E+05 -6.520674E+05 -2.961048E-10 -6.709073E-10
       194  13 -1.919193E+06 -3.172312E+05 -4.412832E+03 -7.831174E+05 -7.118058E-10  1.213390E-09
       194  14 -1.938247E+06 -2.976904E+05 -7.757857E+03 -7.606406E+05 -4.166425E-10 -7.554567E-10
       194  15 -1.919426E+06 -3.187022E+05 -1.442087E+04 -7.825784E+05  1.027150E-09 -1.184276E-11
       194  16 -2.192461E+06 -4.189677E+05 -7.336073E+04 -8.572683E+05 -2.027648E-09  2.364529E-10
       194  17 -2.313477E+06 -4.377249E+05 -1.019976E+05 -8.629274E+05 -1.947196E-10  3.795524E-10
       194  18 -2.396624E+06 -4.970519E+05 -1.340167E+05 -9.129988E+05 -3.477541E-10  4.922262E-10
       194  19 -1.645851E+06 -2.154894E+05  6.452983E+04 -7.089367E+05 -1.140744E+04  9.555945E+03
       194  20 -1.562879E+06 -1.576465E+05  8.647167E+04 -6.582978E+05 -1.728702E+04  1.364078E+04
       194  21 -1.442006E+06 -1.403377E+05  1.051580E+05 -6.520677E+05 -2.312941E+04  1.761353E+04
       194  22 -1.919193E+06 -3.172310E+05 -4.412500E+03 -7.831174E+05 -7.411363E+03  1.105096E+04
       194  23 -1.938247E+06 -2.976901E+05 -7.757093E+03 -7.606408E+05 -1.336803E+04  1.510833E+04
       194  24 -1.919426E+06 -3.187017E+05 -1.441949E+04 -7.825787E+05 -1.928682E+04  1.905379E+04
       194  25 -2.192461E+06 -4.189676E+05 -7.336041E+04 -8.572683E+05 -3.417231E+03  1.254524E+04
       194  26 -2.313477E+06 -4.377246E+05 -1.019969E+05 -8.629276E+05 -9.451640E+03  1.657491E+04
       194  27 -2.396624E+06 -4.970514E+05 -1.340154E+05 -9.129991E+05 -1.544745E+04  2.049285E+04
       195   1 -1.343780E+06 -1.039282E+05  1.258291E+05 -6.293776E+05  2.745356E+04 -1.980317E+04
       195   2 -1.263413E+06 -4.350142E+04  1.357496E+05 -5.752825E+05  4.545576E+04 -1.894179E+04
       195   3 -1.154773E+06 -4.169236E+04  1.281312E+05 -5.596568E+05  6.289068E+04 -1.654377E+04
       195   4 -1.920730E+06 -3.163331E+05 -1.878849E+04 -7.836822E+05  2.319054E+04 -2.140203E+04
       195   5 -1.936141E+06 -2.965358E+05 -3.353763E+04 -7.608485E+05  4.227573E+04 -2.013732E+04
       195   6 -1.923513E+06 -3.355913E+05 -6.670070E+04 -7.764909E+05  6.079057E+04 -1.733645E+04
       195   7 -2.497354E+06 -5.287188E+05 -1.634322E+05 -9.378575E+05  1.893185E+04 -2.299931E+04
       195   8 -2.608423E+06 -5.495384E+05 -2.028604E+05 -9.462307E+05  3.909946E+04 -2.133142E+04
       195   9 -2.691669E+06 -6.294432E+05 -2.615793E+05 -9.930774E+05  5.869329E+04 -1.812802E+04
       195  10 -1.343781E+06 -1.039288E+05  1.258270E+05 -6.293772E+05  4.490031E-10  1.372794E-10
       195  11 -1.263415E+06 -4.350236E+04  1.357450E+05 -5.752818E+05 -1.384991E-10 -1.339170E-10
       195  12 -1.154777E+06 -4.169372E+04  1.281233E+05 -5.596559E+05  1.474206E-10 -2.971875E-10
       195  13 -1.920731E+06 -3.163338E+05 -1.879036E+04 -7.836818E+05  1.317617E-10  8.911337E-10
       195  14 -1.936143E+06 -2.965367E+05 -3.354175E+04 -7.608478E+05 -6.770289E-10  4.608450E-10
       195  15 -1.923517E+06 -3.355926E+05 -6.670823E+04 -7.764900E+05 -4.322789E-10 -1.995299E-10
       195  16 -2.497355E+06 -5.287194E+05 -1.634339E+05 -9.378572E+05 -9.406471E-10  3.388469E-10
       195  17 -2.608425E+06 -5.495393E+05 -2.028641E+05 -9.462301E+05 -9.406219E-10  6.459003E-10
       195  18 -2.691673E+06 -6.294444E+05 -2.615864E+05 -9.930765E+05 -7.476155E-10 -2.835493E-10
       195  19 -1.343780E+06 -1.039282E+05  1.258291E+05 -6.293776E+05 -2.745356E+04  1.980317E+04
       195  20 -1.263413E+06 -4.350142E+04  1.357496E+05 -5.752825E+05 -4.545576E+04  1.894179E+04
       195  21 -1.154773E+06 -4.169236E+04  1.281312E+05 -5.596568E+05 -6.289068E+04  1.654377E+04
       195  22 -1.920730E+06 -3.163331E+05 -1.878849E+04 -7.836822E+05 -2.319054E+04  2.140203E+04
       195  23 -1.936141E+06 -2.965358E+05 -3.353763E+04 -7.608485E+05 -4.227573E+04  2.013732E+04
       195  24 -1.923513E+06 -3.355913E+05 -6.670070E+04 -7.764909E+05 -6.079057E+04  1.733645E+04
       195  25 -2.497354E+06 -5.287188E+05 -1.634322E+05 -9.378575E+05 -1.893185E+04  2.299931E+04
       195  26 -2.608423E+06 -5.495384E+05 -2.028604E+05 -9.462307E+05 -3.909946E+04  2.133142E+04
       195  27 -2.691669E+06 -6.294432E+05 -2.615793E+05 -9.930774E+05 -5.869329E+04  1.812802E+04
       196   1 -1.040663E+06 -8.116730E+03  1.340963E+05 -5.861919E+05  8.540149E+04 -1.551908E+04
       196   2 -9.775413E+05  1.041270E+05  9.926344E+04 -4.701916E+05  1.421819E+05  5.016272E+03
       196   3 -9.866122E+05 -8.652206E+04 -5.090166E+04 -3.245138E+05  1.878940E+05  5.499179E+04
       196   4 -1.934729E+06 -3.058976E+05 -8.327315E+04 -7.932635E+05  7.426130E+04 -1.970273E+04
       196   5 -1.914616E+06 -2.793486E+05 -1.434760E+05 -7.603489E+05  1.520684E+05  8.720239E+03
       196   6 -1.971052E+06 -5.601565E+05 -3.358500E+05 -6.977297E+05  2.187907E+05  6.658683E+04
       196   7 -2.828016E+06 -6.036661E+05 -3.007020E+05 -1.000083E+06  6.313858E+04 -2.388147E+04
       196   8 -2.850823E+06 -6.627177E+05 -3.862879E+05 -1.050090E+06  1.619383E+05  1.241668E+04
       196   9 -2.954513E+06 -1.033535E+06 -6.208844E+05 -1.070345E+06  2.496329E+05  7.814858E+04
       196  10 -1.040671E+06 -8.118948E+03  1.340821E+05 -5.861909E+05 -4.593868E-11 -5.898082E-10
       196  11 -9.775630E+05  1.041215E+05  9.922534E+04 -4.701922E+05 -9.933466E-10  3.343434E-10
       196  12 -9.866509E+05 -8.653481E+04 -5.097381E+04 -3.245221E+05  6.456887E-10 -1.182203E-10
       196  13 -1.934735E+06 -3.058995E+05 -8.328427E+04 -7.932623E+05  4.091134E-10 -2.477619E-10
       196  14 -1.914641E+06 -2.793549E+05 -1.435197E+05 -7.603499E+05  2.267300E-09 -1.389279E-09
       196  15 -1.971105E+06 -5.601742E+05 -3.359486E+05 -6.977415E+05  3.544008E-10  6.883124E-10
       196  16 -2.828020E+06 -6.036678E+05 -3.007106E+05 -1.000082E+06  7.361674E-10  2.902644E-11
       196  17 -2.850851E+06 -6.627250E+05 -3.863377E+05 -1.050092E+06 -5.486761E-10  2.088456E-10
       196  18 -2.954582E+06 -1.033559E+06 -6.210137E+05 -1.070361E+06 -8.881655E-10  8.392719E-11
       196  19 -1.040663E+06 -8.116730E+03  1.340963E+05 -5.861919E+05 -8.540149E+04  1.551908E+04
       196  20 -9.775413E+05  1.041270E+05  9.926344E+04 -4.701916E+05 -1.421819E+05 -5.016272E+03
       196  21 -9.866122E+05 -8.652206E+04 -5.090166E+04 -3.245138E+05 -1.878940E+05 -5.499179E+04
       196  22 -1.934729E+06 -3.058976E+05 -8.327315E+04 -7.932635E+05 -7.426130E+04  1.970273E+04
       196  23 -1.914616E+06 -2.793486E+05 -1.434760E+05 -7.603489E+05 -1.520684E+05 -8.720239E+03
       196  24 -1.971052E+06 -5.601565E+05 -3.358500E+05 -6.977297E+05 -2.187907E+05 -6.658683E+04
       196  25 -2.828016E+06 -6.036661E+05 -3.007020E+05 -1.000083E+06 -6.313858E+04  2.388147E+04
       196  26 -2.850823E+06 -6.627177E+05 -3.862879E+05 -1.050090E+06 -1.619383E+05 -1.241668E+04
       196  27 -2.954513E+06 -1.033535E+06 -6.208844E+05 -1.070345E+06 -2.496329E+05 -7.814858E+04
       197   1  1.314147E+04  2.556611E+04  8.643776E+04  6.207538E+04  1.855401E+05  1.158823E+04
       197   2  5.539174E+04 -2.191743E+05 -5.249711E+04  8.483004E+03  1.293062E+05  3.512463E+04
       197   3  1.713272E+05 -2.004021E+05 -8.883884E+04 -8.315510E+04  7.309418E+04  3.525769E+04
       197   4  9.314204E+05  2.534770E+05  3.101583E+05 -4.556155E+04  2.128966E+05  1.159246E+04
       197   5  8.931440E+05 -1.343212E+04  1.393190E+05 -2.638338E+04  1.385840E+05  3.512382E+04
       197   6  9.315657E+05 -1.390566E+04  8.351083E+04 -4.524482E+04  6.430332E+04  3.525274E+04
       197   7  1.850495E+06  4.813701E+05  5.338267E+05 -1.533583E+05  2.402932E+05  1.158723E+04
       197   8  1.731549E+06  1.922660E+05  3.310901E+05 -6.129736E+04  1.478742E+05  3.512197E+04
       197   9  1.692344E+06  1.725563E+05  2.558243E+05 -7.287772E+03  5.550176E+04  3.524672E+04
       197  10  1.310447E+04  2.555672E+04  8.637282E+04  6.207365E+04 -2.255290E-10  3.726471E-10
       197  11  5.537346E+04 -2.191801E+05 -5.253084E+04  8.479346E+03  6.920954E-11 -6.749740E-10
       197  12  1.713211E+05 -2.004048E+05 -8.885122E+04 -8.315717E+04 -1.850084E-10 -9.701899E-11
       197  13  9.313717E+05  2.534647E+05  3.100730E+05 -4.556354E+04  5.134872E-10  1.350347E-11
       197  14  8.931230E+05 -1.343859E+04  1.392807E+05 -2.638730E+04 -3.250486E-10 -1.792940E-09
       197  15  9.315609E+05 -1.390811E+04  8.350074E+04 -4.524664E+04 -8.238149E-10 -1.604824E-10
       197  16  1.850433E+06  4.813546E+05  5.337182E+05 -1.533605E+05 -4.470804E-10 -3.507951E-10
       197  17  1.731525E+06  1.922588E+05  3.310468E+05 -6.130154E+04 -1.333732E-09 -6.562997E-10
       197  18  1.692340E+06  1.725542E+05  2.558162E+05 -7.289346E+03 -2.098172E-09 -6.341981E-10
       197  19  1.314147E+04  2.556611E+04  8.643776E+04  6.207538E+04 -1.855401E+05 -1.158823E+04
       197  20  5.539174E+04 -2.191743E+05 -5.249711E+04  8.483004E+03 -1.293062E+05 -3.512463E+04
       197  21  1.713272E+05 -2.004021E+05 -8.883884E+04 -8.315510E+04 -7.309418E+04 -3.525769E+04
       197  22  9.314204E+05  2.534770E+05  3.101583E+05 -4.556155E+04 -2.128966E+05 -1.159246E+04
       197  23  8.931440E+05 -1.343212E+04  1.393190E+05 -2.638338E+04 -1.385840E+05 -3.512382E+04
       197  24  9.315657E+05 -1.390566E+04  8.351083E+04 -4.524482E+04 -6.430332E+04 -3.525274E+04
       197  25  1.850495E+06  4.813701E+05  5.338267E+05 -1.533583E+05 -2.402932E+05 -1.158723E+04
       197  26  1.731549E+06  1.922660E+05  3.310901E+05 -6.129736E+04 -1.478742E+05 -3.512197E+04
       197  27  1.692344E+06  1.725563E+05  2.558243E+05 -7.287772E+03 -5.550176E+04 -3.524672E+04
       198   1  2.272342E+05 -1.517112E+05 -8.994821E+04 -3.957821E+04  5.368799E+04  3.033118E+04
       198   2  3.009536E+05 -1.513343E+05 -1.033311E+05 -2.501990E+04  3.654018E+04  2.764729E+04
       198   3  3.818300E+05 -1.321661E+05 -1.008042E+05 -4.840575E+04  1.938810E+04  2.388667E+04
       198   4  9.161431E+05  1.737217E+04  6.701691E+04 -4.531202E+04  5.208577E+04  3.032742E+04
       198   5  9.125183E+05 -1.306858E+03  3.564009E+04 -2.633770E+04  3.409240E+04  2.764449E+04
       198   6  9.161837E+05 -1.058892E+03  2.074685E+04 -4.530472E+04  1.609688E+04  2.388509E+04
       198   7  1.605492E+06  1.864228E+05  2.239512E+05 -5.105229E+04  5.048175E+04  3.032369E+04
       198   8  1.524430E+06  1.486948E+05  1.745871E+05 -2.765684E+04  3.164221E+04  2.764170E+04
       198   9  1.450802E+06  1.300286E+05  1.422794E+05 -4.220099E+04  1.280284E+04  2.388348E+04
       198  10  2.272308E+05 -1.517129E+05 -8.995535E+04 -3.957952E+04  7.264036E-11 -4.032200E-10
       198  11  3.009519E+05 -1.513355E+05 -1.033351E+05 -2.502071E+04  6.783684E-10  3.181227E-10
       198  12  3.818294E+05 -1.321668E+05 -1.008059E+05 -4.840613E+04  1.478116E-09 -1.315612E-10
       198  13  9.161399E+05  1.737046E+04  6.701009E+04 -4.531329E+04 -1.052054E-09 -1.727712E-10
       198  14  9.125169E+05 -1.307991E+03  3.563647E+04 -2.633846E+04  3.140904E-10  2.726568E-11
       198  15  9.161832E+05 -1.059574E+03  2.074529E+04 -4.530503E+04  3.206954E-10 -3.220563E-10
       198  16  1.605489E+06  1.864212E+05  2.239447E+05 -5.105352E+04 -6.034737E-10  1.702231E-10
       198  17  1.524429E+06  1.486937E+05  1.745838E+05 -2.765754E+04 -5.968962E-11 -3.628725E-10
       198  18  1.450802E+06  1.300280E+05  1.422780E+05 -4.220124E+04 -2.227881E-10 -4.606990E-10
       198  19  2.272342E+05 -1.517112E+05 -8.994821E+04 -3.957821E+04 -5.368799E+04 -3.033118E+04
       198  20  3.009536E+05 -1.513343E+05 -1.033311E+05 -2.501990E+04 -3.654018E+04 -2.764729E+04
       198  21  3.818300E+05 -1.321661E+05 -1.008042E+05 -4.840575E+04 -1.938810E+04 -2.388667E+04
       198  22  9.161431E+05  1.737217E+04  6.701691E+04 -4.531202E+04 -5.208577E+04 -3.032742E+04
       198  23  9.125183E+05 -1.306858E+03  3.564009E+04 -2.633770E+04 -3.409240E+04 -2.764449E+04
       198  24  9.161837E+05 -1.058892E+03  2.074685E+04 -4.530472E+04 -1.609688E+04 -2.388509E+04
       198  25  1.605492E+06  1.864228E+05  2.239512E+05 -5.105229E+04 -5.048175E+04 -3.032369E+04
       198  26  1.524430E+06  1.486948E+05  1.745871E+05 -2.765684E+04 -3.164221E+04 -2.764170E+04
       198  27  1.450802E+06  1.300286E+05  1.422794E+05 -4.220099E+04 -1.280284E+04 -2.388348E+04
       199   1  4.504241E+05 -1.127851E+05 -8.927713E+04 -4.519242E+04  1.580532E+04  2.147501E+04
       199   2  5.262521E+05 -9.535440E+04 -7.911617E+04 -2.656326E+04  1.135802E+04  1.761749E+04
       199   3  6.030685E+05 -7.656375E+04 -6.570708E+04 -4.544377E+04  6.907885E+03  1.372196E+04
       199   4  9.147986E+05  1.074948E+03  1.599168E+04 -4.521037E+04  1.286178E+04  2.147401E+04
       199   5  9.143149E+05 -1.769156E+02  9.013001E+03 -2.645639E+04  8.382018E+03  1.761726E+04
       199   6  9.148176E+05 -6.397985E+01  5.302871E+03 -4.521062E+04  3.899960E+03  1.372253E+04
       199   7  1.379373E+06  1.149202E+05  1.212466E+05 -4.522832E+04  9.916056E+03  2.147301E+04
       199   8  1.302517E+06  9.499019E+04  9.713246E+04 -2.634944E+04  5.404173E+03  1.761704E+04
       199   9  1.226657E+06  7.642908E+04  7.630654E+04 -4.497735E+04  8.905387E+02  1.372311E+04
       199  10  4.504237E+05 -1.127857E+05 -8.927846E+04 -4.519269E+04  2.600980E-11 -2.974041E-10
       199  11  5.262519E+05 -9.535477E+04 -7.911700E+04 -2.656342E+04  5.409467E-10 -2.145303E-10
       199  12  6.030684E+05 -7.656397E+04 -6.570753E+04 -4.544384E+04 -1.097499E-09  3.140637E-10
       199  13  9.147983E+05  1.074408E+03  1.599050E+04 -4.521059E+04  1.127917E-09 -1.683143E-10
       199  14  9.143148E+05 -1.772679E+02  9.012286E+03 -2.645651E+04 -9.364413E-10  1.941445E-10
       199  15  9.148175E+05 -6.418623E+01  5.302488E+03 -4.521066E+04 -7.670119E-10  1.409344E-10
       199  16  1.379373E+06  1.149197E+05  1.212456E+05 -4.522850E+04 -2.714434E-10 -1.597859E-10
       199  17  1.302517E+06  9.498985E+04  9.713183E+04 -2.634952E+04 -1.766075E-09  6.583513E-10
       199  18  1.226657E+06  7.642888E+04  7.630618E+04 -4.497736E+04 -5.423149E-12  5.033879E-10
       199  19  4.504241E+05 -1.127851E+05 -8.927713E+04 -4.519242E+04 -1.580532E+04 -2.147501E+04
       199  20  5.262521E+05 -9.535440E+04 -7.911617E+04 -2.656326E+04 -1.135802E+04 -1.761749E+04
       199  21  6.030685E+05 -7.656375E+04 -6.570708E+04 -4.544377E+04 -6.907885E+03 -1.372196E+04
       199  22  9.147986E+05  1.074948E+03  1.599168E+04 -4.521037E+04 -1.286178E+04 -2.147401E+04
       199  23  9.143149E+05 -1.769156E+02  9.013001E+03 -2.645639E+04 -8.382018E+03 -1.761726E+04
       199  24  9.148176E+05 -6.397985E+01  5.302871E+03 -4.521062E+04 -3.899960E+03 -1.372253E+04
       199  25  1.379373E+06  1.149202E+05  1.212466E+05 -4.522832E+04 -9.916056E+03 -2.147301E+04
       199  26  1.302517E+06  9.499019E+04  9.713246E+04 -2.634944E+04 -5.404173E+03 -1.761704E+04
       199  27  1.226657E+06  7.642908E+04  7.630654E+04 -4.497735E+04 -8.905387E+02 -1.372311E+04
       200   1  6.721895E+05 -5.934954E+04 -5.071676E+04 -4.517863E+04  6.035973E+03  1.145030E+04
       200   2  7.478953E+05 -4.088525E+04 -3.526142E+04 -2.653780E+04  4.755021E+03  7.566950E+03
       200   3  8.237817E+05 -2.229209E+04 -1.894652E+04 -4.514011E+04  3.472952E+03  3.686944E+03
       200   4  9.146465E+05  6.638464E+01  4.117934E+03 -4.515151E+04  3.050113E+03  1.145122E+04
       200   5  9.145629E+05 -1.362095E+01  2.582488E+03 -2.653027E+04  1.771119E+03  7.568197E+03
       200   6  9.146540E+05  3.518064E+01  1.905178E+03 -4.515156E+04  4.911620E+02  3.688536E+03
       200   7  1.157158E+06  5.947827E+04  5.894888E+04 -4.512438E+04  6.309924E+01  1.145214E+04
       200   8  1.081256E+06  4.085610E+04  4.042464E+04 -2.652274E+04 -1.213576E+03  7.569443E+03
       200   9  1.005534E+06  2.236188E+04  2.275637E+04 -4.516300E+04 -2.491061E+03  3.690127E+03
       200  10  6.721895E+05 -5.934969E+04 -5.071707E+04 -4.517868E+04 -6.446630E-10  2.786811E-10
       200  11  7.478953E+05 -4.088532E+04 -3.526157E+04 -2.653783E+04 -1.558551E-09  4.725538E-10
       200  12  8.237817E+05 -2.229211E+04 -1.894657E+04 -4.514012E+04 -7.491359E-10  4.717617E-10
       200  13  9.146465E+05  6.624127E+01  4.117670E+03 -4.515154E+04 -8.688630E-10  4.273645E-10
       200  14  9.145629E+05 -1.368332E+01  2.582375E+03 -2.653028E+04 -1.504672E-09 -3.786837E-10
       200  15  9.146540E+05  3.516596E+01  1.905152E+03 -4.515156E+04 -1.376462E-09 -3.871178E-10
       200  16  1.157158E+06  5.947813E+04  5.894863E+04 -4.512438E+04 -2.730858E-11 -5.928472E-10
       200  17  1.081256E+06  4.085604E+04  4.042453E+04 -2.652273E+04  5.818893E-10 -3.185968E-10
       200  18  1.005534E+06  2.236186E+04  2.275633E+04 -4.516300E+04  5.454540E-10 -9.393197E-10
       200  19  6.721895E+05 -5.934954E+04 -5.071676E+04 -4.517863E+04 -6.035973E+03 -1.145030E+04
       200  20  7.478953E+05 -4.088525E+04 -3.526142E+04 -2.653780E+04 -4.755021E+03 -7.566950E+03
       200  21  8.237817E+05 -2.229209E+04 -1.894652E+04 -4.514011E+04 -3.472952E+03 -3.686944E+03
       200  22  9.146465E+05  6.638464E+01  4.117934E+03 -4.515151E+04 -3.050113E+03 -1.145122E+04
       200  23  9.145629E+05 -1.362095E+01  2.582488E+03 -2.653027E+04 -1.771119E+03 -7.568197E+03
       200  24  9.146540E+05  3.518064E+01  1.905178E+03 -4.515156E+04 -4.911620E+02 -3.688536E+03
       200  25  1.157158E+06  5.947827E+04  5.894888E+04 -4.512438E+04 -6.309924E+01 -1.145214E+04
       200  26  1.081256E+06  4.085610E+04  4.042464E+04 -2.652274E+04  1.213576E+03 -7.569443E+03
       200  27  1.005534E+06  2.236188E+04  2.275637E+04 -4.516300E+04  2.491061E+03 -3.690127E+03
       201   1  8.927795E+05 -5.280371E+03 -2.950008E+03 -4.513500E+04  3.134838E+03  1.430443E+03
       201   2  9.684185E+05  1.320208E+04  1.420924E+04 -2.653789E+04  2.149714E+03 -2.445477E+03
       201   3  1.044173E+06  3.178308E+04  3.202321E+04 -4.512959E+04  1.164798E+03 -6.321220E+03
       201   4  9.146419E+05  3.647332E+01  1.793937E+03 -4.513966E+04  1.542945E+02  1.432106E+03
       201   5  9.145848E+05  2.267967E+00  1.987165E+03 -2.654514E+04 -8.307857E+02 -2.443934E+03
       201   6  9.146394E+05  6.727120E+01  2.835663E+03 -4.513963E+04 -1.815540E+03 -6.319774E+03
       201   7  9.365047E+05  5.353291E+03  6.537888E+03 -4.514433E+04 -2.826353E+03  1.433769E+03
       201   8  8.607538E+05 -1.319773E+04 -1.023507E+04 -2.655240E+04 -3.811030E+03 -2.442390E+03
       201   9  7.851210E+05 -3.164968E+04 -2.635292E+04 -4.514967E+04 -4.795263E+03 -6.318327E+03
       201  10  8.927795E+05 -5.280376E+03 -2.950030E+03 -4.513500E+04 -1.792751E-09  1.391924E-10
       201  11  9.684185E+05  1.320207E+04  1.420922E+04 -2.653788E+04 -3.985848E-10 -1.435241E-10
       201  12  1.044173E+06  3.178303E+04  3.202313E+04 -4.512958E+04  7.048876E-10  6.218895E-11
       201  13  9.146419E+05  3.647111E+01  1.793934E+03 -4.513966E+04 -1.424398E-09  6.410304E-10
       201  14  9.145848E+05  2.261366E+00  1.987153E+03 -2.654514E+04  1.471918E-10  8.103513E-10
       201  15  9.146393E+05  6.722741E+01  2.835582E+03 -4.513964E+04  3.247325E-10 -8.940379E-10
       201  16  9.365047E+05  5.353287E+03  6.537869E+03 -4.514433E+04  7.047205E-10 -9.620787E-12
       201  17  8.607538E+05 -1.319774E+04 -1.023511E+04 -2.655241E+04 -5.435672E-10  1.018830E-09
       201  18  7.851210E+05 -3.164973E+04 -2.635304E+04 -4.514970E+04 -3.450002E-10 -6.276871E-10
       201  19  8.927795E+05 -5.280371E+03 -2.950008E+03 -4.513500E+04 -3.134838E+03 -1.430443E+03
       201  20  9.684185E+05  1.320208E+04  1.420924E+04 -2.653789E+04 -2.149714E+03  2.445477E+03
       201  21  1.044173E+06  3.178308E+04  3.202321E+04 -4.512959E+04 -1.164798E+03  6.321220E+03
       201  22  9.146419E+05  3.647332E+01  1.793937E+03 -4.513966E+04 -1.542945E+02 -1.432106E+03
       201  23  9.145848E+05  2.267967E+00  1.987165E+03 -2.654514E+04  8.307857E+02  2.443934E+03
       201  24  9.146394E+05  6.727120E+01  2.835663E+03 -4.513963E+04  1.815540E+03  6.319774E+03
       201  25  9.365047E+05  5.353291E+03  6.537888E+03 -4.514433E+04  2.826353E+03 -1.433769E+03
       201  26  8.607538E+05 -1.319773E+04 -1.023507E+04 -2.655240E+04  3.811030E+03  2.442390E+03
       201  27  7.851210E+05 -3.164968E+04 -2.635292E+04 -4.514967E+04  4.795263E+03  6.318327E+03
       202   1  1.113400E+06  4.873129E+04  4.886685E+04 -4.504761E+04  6.055076E+02 -8.585049E+03
       202   2  1.189115E+06  6.724467E+04  6.823475E+04 -2.647608E+04 -2.347095E+03 -1.246507E+04
       202   3  1.265453E+06  8.665346E+04  8.974682E+04 -4.524399E+04 -5.298509E+03 -1.630920E+04
       202   4  9.147452E+05 -1.720663E+01  3.552193E+03 -4.517337E+04 -2.392722E+03 -8.583805E+03
       202   5  9.144323E+05 -9.788939E+01  5.878728E+03 -2.650300E+04 -5.316740E+03 -1.246440E+04
       202   6  9.147319E+05  7.123183E+02  1.033039E+04 -4.517307E+04 -8.239215E+03 -1.630908E+04
       202   7  7.161267E+05 -4.876843E+04 -4.176501E+04 -4.529908E+04 -5.390002E+03 -8.582559E+03
       202   8  6.398199E+05 -6.744565E+04 -5.648214E+04 -2.652990E+04 -8.285085E+03 -1.246373E+04
       202   9  5.641252E+05 -8.523728E+04 -6.909392E+04 -4.510218E+04 -1.117828E+04 -1.630896E+04
       202  10  1.113400E+06  4.873121E+04  4.886671E+04 -4.504761E+04 -6.574595E-10  4.844603E-10
       202  11  1.189115E+06  6.724451E+04  6.823444E+04 -2.647610E+04 -6.233710E-10 -4.838398E-10
       202  12  1.265453E+06  8.665317E+04  8.974627E+04 -4.524406E+04 -3.513830E-11  1.030847E-10
       202  13  9.147451E+05 -1.728732E+01  3.552043E+03 -4.517339E+04  3.635694E-10 -6.636227E-10
       202  14  9.144323E+05 -9.806388E+01  5.878383E+03 -2.650305E+04  9.864015E-10 -3.145536E-10
       202  15  9.147318E+05  7.120144E+02  1.032977E+04 -4.517318E+04 -9.238947E-11  2.308698E-10
       202  16  7.161267E+05 -4.876852E+04 -4.176520E+04 -4.529912E+04  8.552128E-10 -2.283371E-10
       202  17  6.398198E+05 -6.744583E+04 -5.648256E+04 -2.652998E+04  1.556641E-09  2.503263E-10
       202  18  5.641250E+05 -8.523760E+04 -6.909466E+04 -4.510233E+04 -4.374811E-10  1.248365E-12
       202  19  1.113400E+06  4.873129E+04  4.886685E+04 -4.504761E+04 -6.055076E+02  8.585049E+03
       202  20  1.189115E+06  6.724467E+04  6.823475E+04 -2.647608E+04  2.347095E+03  1.246507E+04
       202  21  1.265453E+06  8.665346E+04  8.974682E+04 -4.524399E+04  5.298509E+03  1.630920E+04
       202  22  9.147452E+05 -1.720663E+01  3.552193E+03 -4.517337E+04  2.392722E+03  8.583805E+03
       202  23  9.144323E+05 -9.788939E+01  5.878728E+03 -2.650300E+04  5.316740E+03  1.246440E+04
       202  24  9.147319E+05  7.123183E+02  1.033039E+04 -4.517307E+04  8.239215E+03  1.630908E+04
       202  25  7.161267E+05 -4.876843E+04 -4.176501E+04 -4.529908E+04  5.390002E+03  8.582559E+03
       202  26  6.398199E+05 -6.744565E+04 -5.648214E+04 -2.652990E+04  8.285085E+03  1.246373E+04
       202  27  5.641252E+05 -8.523728E+04 -6.909392E+04 -4.510218E+04  1.117828E+04  1.630896E+04
       203   1  1.335979E+06  1.024248E+05  1.089859E+05 -4.332595E+04 -7.082309E+03 -1.869064E+04
       203   2  1.410363E+06  1.210327E+05  1.358267E+05 -2.733903E+04 -1.940245E+04 -2.244070E+04
       203   3  1.489556E+06  1.519446E+05  1.737783E+05 -4.902778E+04 -3.172170E+04 -2.524370E+04
       203   4  9.156239E+05 -6.601258E+02  1.337780E+04 -4.524776E+04 -1.032765E+04 -1.869094E+04
       203   5  9.132681E+05 -8.331510E+02  2.293841E+04 -2.640972E+04 -2.191096E+04 -2.244208E+04
       203   6  9.155933E+05  1.117653E+04  4.310572E+04 -4.524888E+04 -3.349189E+04 -2.524592E+04
       203   7  4.954325E+05 -1.037572E+05 -8.224171E+04 -4.716825E+04 -1.357082E+04 -1.869122E+04
       203   8  4.164024E+05 -1.227160E+05 -8.996587E+04 -2.548116E+04 -2.441748E+04 -2.244347E+04
       203   9  3.419359E+05 -1.296142E+05 -8.758821E+04 -4.147350E+04 -3.526045E+04 -2.524816E+04
       203  10  1.335979E+06  1.024244E+05  1.089851E+05 -4.332606E+04  2.359650E-10 -1.271244E-10
       203  11  1.410362E+06  1.210320E+05  1.358251E+05 -2.733938E+04 -1.321747E-09 -4.527645E-10
       203  12  1.489554E+06  1.519436E+05  1.737752E+05 -4.902843E+04  1.873838E-10 -1.011437E-11
       203  13  9.156237E+05 -6.605297E+02  1.337694E+04 -4.524792E+04 -1.616084E-09 -2.045927E-10
       203  14  9.132674E+05 -8.338208E+02  2.293656E+04 -2.641012E+04 -3.518514E-10 -4.371454E-10
       203  15  9.155919E+05  1.117555E+04  4.310242E+04 -4.524956E+04  7.504827E-10 -3.670809E-11
       203  16  4.954322E+05 -1.037577E+05 -8.224271E+04 -4.716845E+04 -2.403310E-09 -5.466361E-10
       203  17  4.164016E+05 -1.227167E+05 -8.996793E+04 -2.548160E+04 -8.680153E-10 -5.127119E-10
       203  18  3.419344E+05 -1.296152E+05 -8.759175E+04 -4.147421E+04  6.491610E-10  2.207131E-10
       203  19  1.335979E+06  1.024248E+05  1.089859E+05 -4.332595E+04  7.082309E+03  1.869064E+04
       203  20  1.410363E+06  1.210327E+05  1.358267E+05 -2.733903E+04  1.940245E+04  2.244070E+04
       203  21  1.489556E+06  1.519446E+05  1.737783E+05 -4.902778E+04  3.172170E+04  2.524370E+04
       203  22  9.156239E+05 -6.601258E+02  1.337780E+04 -4.524776E+04  1.032765E+04  1.869094E+04
       203  23  9.132681E+05 -8.331510E+02  2.293841E+04 -2.640972E+04  2.191096E+04  2.244208E+04
       203  24  9.155933E+05  1.117653E+04  4.310572E+04 -4.524888E+04  3.349189E+04  2.524592E+04
       203  25  4.954325E+05 -1.037572E+05 -8.224171E+04 -4.716825E+04  1.357082E+04  1.869122E+04
       203  26  4.164024E+05 -1.227160E+05 -8.996587E+04 -2.548116E+04  2.441748E+04  2.244347E+04
       203  27  3.419359E+05 -1.296142E+05 -8.758821E+04 -4.147350E+04  3.526045E+04  2.524816E+04
       204   1  1.570310E+06  1.490734E+05  1.997759E+05 -2.088206E+04 -3.326771E+04 -2.982051E+04
       204   2  1.622481E+06  1.684700E+05  2.546988E+05 -4.898029E+04 -9.687821E+04 -3.012541E+04
       204   3  1.726703E+06  3.618657E+05  3.945265E+05 -1.147032E+05 -1.605164E+05 -9.900045E+03
       204   4  9.255158E+05 -8.939490E+03  5.371006E+04 -4.520078E+04 -4.135055E+04 -2.982430E+04
       204   5  9.007848E+05 -8.651656E+03  8.958024E+04 -2.645662E+04 -8.911847E+04 -3.012629E+04
       204   6  9.254122E+05  1.629910E+05  1.994299E+05 -4.533219E+04 -1.369046E+05 -9.896986E+03
       204   7  2.811084E+05 -1.669787E+05 -9.238203E+04 -6.949409E+04 -4.942507E+04 -2.982745E+04
       204   8  1.795712E+05 -1.858075E+05 -7.557197E+04 -3.959360E+03 -8.136761E+04 -3.012662E+04
       204   9  1.247173E+05 -3.591245E+04  4.291525E+03  2.394915E+04 -1.133230E+05 -9.888669E+03
       204  10  1.570308E+06  1.490722E+05  1.997722E+05 -2.088286E+04  1.557524E-09  8.528135E-11
       204  11  1.622471E+06  1.684666E+05  2.546795E+05 -4.898264E+04  8.177821E-12 -2.935260E-10
       204  12  1.726675E+06  3.618587E+05  3.944780E+05 -1.147045E+05 -3.148382E-10  3.066993E-10
       204  13  9.255138E+05 -8.940904E+03  5.370518E+04 -4.520178E+04  4.469637E-10 -4.649526E-10
       204  14  9.007760E+05 -8.654759E+03  8.956363E+04 -2.645878E+04  1.714052E-09  1.153344E-11
       204  15  9.253920E+05  1.629859E+05  1.993946E+05 -4.533329E+04  1.324066E-10 -4.051630E-10
       204  16  2.811056E+05 -1.669804E+05 -9.238829E+04 -6.949527E+04 -8.934061E-11  3.236234E-10
       204  17  1.795638E+05 -1.858103E+05 -7.558612E+04 -3.961334E+03 -1.718510E-09 -2.723273E-10
       204  18  1.247034E+05 -3.591600E+04  4.267213E+03  2.394825E+04  7.673070E-10  8.388259E-10
       204  19  1.570310E+06  1.490734E+05  1.997759E+05 -2.088206E+04  3.326771E+04  2.982051E+04
       204  20  1.622481E+06  1.684700E+05  2.546988E+05 -4.898029E+04  9.687821E+04  3.012541E+04
       204  21  1.726703E+06  3.618657E+05  3.945265E+05 -1.147032E+05  1.605164E+05  9.900045E+03
       204  22  9.255158E+05 -8.939490E+03  5.371006E+04 -4.520078E+04  4.135055E+04  2.982430E+04
       204  23  9.007848E+05 -8.651656E+03  8.958024E+04 -2.645662E+04  8.911847E+04  3.012629E+04
       204  24  9.254122E+05  1.629910E+05  1.994299E+05 -4.533219E+04  1.369046E+05  9.896986E+03
       204  25  2.811084E+05 -1.669787E+05 -9.238203E+04 -6.949409E+04  4.942507E+04  2.982745E+04
       204  26  1.795712E+05 -1.858075E+05 -7.557197E+04 -3.959360E+03  8.136761E+04  3.012662E+04
       204  27  1.247173E+05 -3.591245E+04  4.291525E+03  2.394915E+04  1.133230E+05  9.888669E+03
       205   1  5.316093E+05  1.662079E+06  5.212615E+05 -5.326177E+05  1.961228E+04  1.562082E+05
       205   2  3.403100E+05  1.155283E+06  3.148541E+05 -4.507579E+05  5.840601E+04  5.846630E+04
       205   3  2.075481E+05  6.757379E+05  1.865550E+05 -4.811539E+05  5.046989E+04 -3.927026E+04
       205   4  7.513194E+04 -1.814752E+05  8.198994E+04 -4.837765E+05  1.987530E+04  5.489772E+04
       205   5  1.695520E+04 -1.881816E+05  4.139401E+04 -4.277384E+05  5.848369E+04  3.364356E+04
       205   6  4.144247E+03 -1.810537E+05  2.593063E+04 -4.839504E+05  5.032395E+04  1.231471E+04
       205   7 -3.815769E+05 -2.021890E+06 -3.574806E+05 -4.350777E+05  2.012290E+04 -4.611411E+04
       205   8 -3.065101E+05 -1.529929E+06 -2.321583E+05 -4.047678E+05  5.855965E+04  8.873420E+03
       205   9 -1.993006E+05 -1.037130E+06 -1.347156E+05 -4.867422E+05  5.017741E+04  6.383031E+04
       205  10  5.316024E+05  1.662053E+06  5.212151E+05 -5.326201E+05  1.131956E-09 -8.925249E-10
       205  11  3.403054E+05  1.155278E+06  3.148413E+05 -4.507607E+05  4.336512E-11 -2.504419E-09
       205  12  2.075450E+05  6.757355E+05  1.865474E+05 -4.811523E+05  3.676967E-10 -1.980236E-09
       205  13  7.513071E+04 -1.814785E+05  8.198352E+04 -4.837773E+05  1.281003E-09  1.863214E-09
       205  14  1.695122E+04 -1.881838E+05  4.138545E+04 -4.277399E+05  5.345565E-11  9.730745E-10
       205  15  4.141486E+03 -1.810546E+05  2.592558E+04 -4.839509E+05  1.084676E-09  1.351883E-09
       205  16 -3.815779E+05 -2.021892E+06 -3.574853E+05 -4.350769E+05 -1.765595E-10 -8.089970E-11
       205  17 -3.065138E+05 -1.529930E+06 -2.321649E+05 -4.047682E+05  2.203640E-09  7.242643E-10
       205  18 -1.993044E+05 -1.037135E+06 -1.347280E+05 -4.867448E+05 -5.843896E-10 -3.309299E-10
       205  19  5.316093E+05  1.662079E+06  5.212615E+05 -5.326177E+05 -1.961228E+04 -1.562082E+05
       205  20  3.403100E+05  1.155283E+06  3.148541E+05 -4.507579E+05 -5.840601E+04 -5.846630E+04
       205  21  2.075481E+05  6.757379E+05  1.865550E+05 -4.811539E+05 -5.046989E+04  3.927026E+04
       205  22  7.513194E+04 -1.814752E+05  8.198994E+04 -4.837765E+05 -1.987530E+04 -5.489772E+04
       205  23  1.695520E+04 -1.881816E+05  4.139401E+04 -4.277384E+05 -5.848369E+04 -3.364356E+04
       205  24  4.144247E+03 -1.810537E+05  2.593063E+04 -4.839504E+05 -5.032395E+04 -1.231471E+04
       205  25 -3.815769E+05 -2.021890E+06 -3.574806E+05 -4.350777E+05 -2.012290E+04  4.611411E+04
       205  26 -3.065101E+05 -1.529929E+06 -2.321583E+05 -4.047678E+05 -5.855965E+04 -8.873420E+03
       205  27 -1.993006E+05 -1.037130E+06 -1.347156E+05 -4.867422E+05 -5.017741E+04 -6.383031E+04
       206   1  1.317286E+05  3.472386E+05  1.220414E+05 -4.875002E+05  3.108467E+04 -3.754785E+04
       206   2  1.211388E+04 -1.465365E+05  2.598544E+04 -4.270594E+05  2.797530E+03 -4.748082E+04
       206   3 -1.021406E+05 -6.380350E+05 -6.244286E+04 -4.816754E+05 -2.564185E+04 -5.740756E+04
       206   4  5.599731E+03 -1.835966E+05  2.225111E+04 -4.845524E+05  3.094733E+04  8.546362E+03
       206   5  3.163227E+03 -1.845897E+05  1.928857E+04 -4.270242E+05  2.659181E+03 -1.151489E+03
       206   6  6.057769E+03 -1.835841E+05  2.379099E+04 -4.845511E+05 -2.578164E+04 -1.085053E+04
       206   7 -1.205443E+05 -7.141549E+05 -7.754351E+04 -4.816068E+05  3.081035E+04  5.460215E+04
       206   8 -5.786353E+03 -2.226368E+05  1.259973E+04 -4.269889E+05  2.520832E+03  4.517509E+04
       206   9  1.142453E+05  2.710708E+05  1.100238E+05 -4.874287E+05 -2.592181E+04  3.573978E+04
       206  10  1.317272E+05  3.472368E+05  1.220370E+05 -4.874992E+05 -7.687670E-10 -1.258691E-09
       206  11  1.211327E+04 -1.465390E+05  2.598118E+04 -4.270593E+05 -1.203127E-10 -2.494318E-09
       206  12 -1.021422E+05 -6.380387E+05 -6.245030E+04 -4.816766E+05 -6.247534E-10 -6.952204E-10
       206  13  5.598682E+03 -1.835969E+05  2.224917E+04 -4.845526E+05 -1.117260E-09  2.433354E-09
       206  14  3.163219E+03 -1.845897E+05  1.928856E+04 -4.270242E+05 -3.786928E-09  1.099937E-09
       206  15  6.057023E+03 -1.835844E+05  2.378951E+04 -4.845513E+05 -7.308068E-10  1.468767E-09
       206  16 -1.205462E+05 -7.141584E+05 -7.755091E+04 -4.816082E+05 -1.217441E-09  2.997613E-11
       206  17 -5.786908E+03 -2.226390E+05  1.259588E+04 -4.269890E+05 -2.375004E-09 -1.924878E-11
       206  18  1.142442E+05  2.710692E+05  1.100201E+05 -4.874280E+05 -3.926343E-10 -1.504797E-09
       206  19  1.317286E+05  3.472386E+05  1.220414E+05 -4.875002E+05 -3.108467E+04  3.754785E+04
       206  20  1.211388E+04 -1.465365E+05  2.598544E+04 -4.270594E+05 -2.797530E+03  4.748082E+04
       206  21 -1.021406E+05 -6.380350E+05 -6.244286E+04 -4.816754E+05  2.564185E+04  5.740756E+04
       206  22  5.599731E+03 -1.835966E+05  2.225111E+04 -4.845524E+05 -3.094733E+04 -8.546362E+03
       206  23  3.163227E+03 -1.845897E+05  1.928857E+04 -4.270242E+05 -2.659181E+03  1.151489E+03
       206  24  6.057769E+03 -1.835841E+05  2.379099E+04 -4.845511E+05  2.578164E+04  1.085053E+04
       206  25 -1.205443E+05 -7.141549E+05 -7.754351E+04 -4.816068E+05 -3.081035E+04 -5.460215E+04
       206  26 -5.786353E+03 -2.226368E+05  1.259973E+04 -4.269889E+05 -2.520832E+03 -4.517509E+04
       206  27  1.142453E+05  2.710708E+05  1.100238E+05 -4.874287E+05  2.592181E+04 -3.573978E+04
       207   1 -1.810466E+05 -9.605565E+05 -1.186541E+05 -4.875753E+05 -4.507837E+04 -6.666540E+04
       207   2 -2.862800E+05 -1.454496E+06 -2.124087E+05 -4.021723E+05 -5.450449E+04 -1.725357E+04
       207   3 -3.529775E+05 -1.945304E+06 -3.288341E+05 -4.291730E+05 -1.891978E+04  3.219330E+04
       207   4  4.412278E+03 -1.806370E+05  2.833585E+04 -4.839788E+05 -4.522801E+04 -1.489549E+04
       207   5  1.905371E+04 -1.886406E+05  4.642438E+04 -4.276954E+05 -5.443708E+04 -3.883614E+04
       207   6  8.493719E+04 -1.810333E+05  9.280758E+04 -4.837793E+05 -1.868195E+04 -6.270250E+04
       207   7  1.898372E+05  5.998767E+05  1.753092E+05 -4.803771E+05 -4.537692E+04  3.693795E+04
       207   8  3.242894E+05  1.078742E+06  3.051747E+05 -4.532700E+05 -5.436798E+04 -6.046193E+04
       207   9  5.226418E+05  1.586122E+06  5.142652E+05 -5.385392E+05 -1.842782E+04 -1.578672E+05
       207  10 -1.810499E+05 -9.605619E+05 -1.186663E+05 -4.875778E+05  4.139245E-10  7.546845E-10
       207  11 -2.862833E+05 -1.454497E+06 -2.124148E+05 -4.021731E+05  1.169375E-09 -1.522613E-09
       207  12 -3.529782E+05 -1.945305E+06 -3.288367E+05 -4.291725E+05  7.067827E-10 -2.096272E-09
       207  13  4.410021E+03 -1.806377E+05  2.833158E+04 -4.839794E+05  6.634666E-10  2.471890E-09
       207  14  1.905012E+04 -1.886430E+05  4.641597E+04 -4.276971E+05 -2.424372E-09  1.164692E-09
       207  15  8.493576E+04 -1.810377E+05  9.279953E+04 -4.837803E+05  2.139345E-10  9.766266E-10
       207  16  1.898346E+05  5.998747E+05  1.753028E+05 -4.803757E+05 -6.642613E-10 -1.543885E-09
       207  17  3.242852E+05  1.078738E+06  3.051622E+05 -4.532727E+05  1.195356E-09 -7.207973E-10
       207  18  5.226348E+05  1.586095E+06  5.142178E+05 -5.385416E+05  8.529618E-10  2.045478E-10
       207  19 -1.810466E+05 -9.605565E+05 -1.186541E+05 -4.875753E+05  4.507837E+04  6.666540E+04
       207  20 -2.862800E+05 -1.454496E+06 -2.124087E+05 -4.021723E+05  5.450449E+04  1.725357E+04
       207  21 -3.529775E+05 -1.945304E+06 -3.288341E+05 -4.291730E+05  1.891978E+04 -3.219330E+04
       207  22  4.412278E+03 -1.806370E+05  2.833585E+04 -4.839788E+05  4.522801E+04  1.489549E+04
       207  23  1.905371E+04 -1.886406E+05  4.642438E+04 -4.276954E+05  5.443708E+04  3.883614E+04
       207  24  8.493719E+04 -1.810333E+05  9.280758E+04 -4.837793E+05  1.868195E+04  6.270250E+04
       207  25  1.898372E+05  5.998767E+05  1.753092E+05 -4.803771E+05  4.537692E+04 -3.693795E+04
       207  26  3.242894E+05  1.078742E+06  3.051747E+05 -4.532700E+05  5.436798E+04  6.046193E+04
       207  27  5.226418E+05  1.586122E+06  5.142652E+05 -5.385392E+05  1.842782E+04  1.578672E+05
       208   1 -2.314503E+06 -9.049264E+05 -4.905438E+05 -8.829913E+05 -1.889598E+05 -4.670333E+04
       208   2 -2.190849E+06 -7.296330E+05 -3.325310E+05 -8.345096E+05 -1.200407E+05  3.490329E+04
       208   3 -2.084077E+06 -6.515240E+05 -2.597483E+05 -7.953944E+05 -3.664513E+04  7.817633E+04
       208   4 -9.284342E+05 -3.252914E+05 -1.200244E+05 -4.435931E+05 -8.558595E+04 -7.815603E+03
       208   5 -9.191490E+05 -2.359083E+05 -5.525606E+04 -4.564001E+05 -7.499301E+04  5.182649E+04
       208   6 -9.150964E+05 -2.320372E+05 -2.930572E+04 -4.785983E+05 -4.996078E+04  7.315605E+04
       208   7  4.595091E+05  2.545900E+05  2.503620E+05 -3.263022E+03  1.803888E+04  3.119125E+04
       208   8  3.542022E+05  2.579964E+05  2.219292E+05 -7.755830E+04 -2.984570E+04  6.879185E+04
       208   9  2.553159E+05  1.875632E+05  2.010784E+05 -1.612494E+05 -6.330358E+04  6.812601E+04
       208  10 -2.314542E+06 -9.049384E+05 -4.906153E+05 -8.829985E+05 -5.020539E-09 -9.024850E-10
       208  11 -2.190865E+06 -7.296382E+05 -3.325604E+05 -8.345063E+05  8.417972E-09  3.822838E-09
       208  12 -2.084080E+06 -6.515309E+05 -2.597623E+05 -7.953921E+05  2.282467E-08  8.895216E-09
       208  13 -9.284421E+05 -3.252934E+05 -1.200383E+05 -4.435936E+05 -5.278567E-10 -1.402848E-13
       208  14 -9.191558E+05 -2.359127E+05 -5.527168E+04 -4.563969E+05 -1.156922E-09 -4.509625E-10
       208  15 -9.151005E+05 -2.320436E+05 -2.932046E+04 -4.785954E+05  2.391395E-09  2.620852E-09
       208  16  4.595085E+05  2.545889E+05  2.503596E+05 -3.263475E+03  3.620789E-09  1.711789E-09
       208  17  3.542000E+05  2.579911E+05  2.219186E+05 -7.755665E+04 -9.278566E-09 -3.639449E-09
       208  18  2.553103E+05  1.875571E+05  2.010622E+05 -1.612459E+05 -1.578053E-08 -3.954178E-09
       208  19 -2.314503E+06 -9.049264E+05 -4.905438E+05 -8.829913E+05  1.889598E+05  4.670333E+04
       208  20 -2.190849E+06 -7.296330E+05 -3.325310E+05 -8.345096E+05  1.200407E+05 -3.490329E+04
       208  21 -2.084077E+06 -6.515240E+05 -2.597483E+05 -7.953944E+05  3.664513E+04 -7.817633E+04
       208  22 -9.284342E+05 -3.252914E+05 -1.200244E+05 -4.435931E+05  8.558595E+04  7.815603E+03
       208  23 -9.191490E+05 -2.359083E+05 -5.525606E+04 -4.564001E+05  7.499301E+04 -5.182649E+04
       208  24 -9.150964E+05 -2.320372E+05 -2.930572E+04 -4.785983E+05  4.996078E+04 -7.315605E+04
       208  25  4.595091E+05  2.545900E+05  2.503620E+05 -3.263022E+03 -1.803888E+04 -3.119125E+04
       208  26  3.542022E+05  2.579964E+05  2.219292E+05 -7.755830E+04  2.984570E+04 -6.879185E+04
       208  27  2.553159E+05  1.875632E+05  2.010784E+05 -1.612494E+05  6.330358E+04 -6.812601E+04
       209   1 -1.983968E+06 -6.277628E+05 -2.339608E+05 -7.760087E+05 -3.775430E+04  7.165876E+04
       209   2 -1.863048E+06 -5.623195E+05 -1.935190E+05 -7.257944E+05 -2.521728E+04  6.960210E+04
       209   3 -1.720741E+06 -5.246987E+05 -1.617288E+05 -7.024341E+05 -1.160224E+04  6.466144E+04
       209   4 -9.111666E+05 -2.346748E+05 -2.226532E+04 -4.765726E+05 -4.460777E+04  6.907008E+04
       209   5 -9.219533E+05 -2.191570E+05 -1.176931E+04 -4.638909E+05 -3.645379E+04  6.537227E+04
       209   6 -9.104986E+05 -2.305859E+05 -6.436854E+03 -4.780668E+05 -2.722506E+04  5.879200E+04
       209   7  1.628295E+05  1.585172E+05  1.893770E+05 -1.766552E+05 -5.147397E+04  6.647659E+04
       209   8  2.005962E+04  1.240840E+05  1.699411E+05 -2.016191E+05 -4.770853E+04  6.113558E+04
       209   9 -9.957893E+04  6.358268E+04  1.488262E+05 -2.534292E+05 -4.286962E+04  5.291445E+04
       209  10 -1.983971E+06 -6.277687E+05 -2.339731E+05 -7.760065E+05 -1.322181E-08 -4.636620E-09
       209  11 -1.863050E+06 -5.623249E+05 -1.935292E+05 -7.257930E+05 -6.920092E-09 -2.661255E-09
       209  12 -1.720742E+06 -5.247032E+05 -1.617369E+05 -7.024335E+05  4.501379E-09  9.961429E-10
       209  13 -9.111700E+05 -2.346804E+05 -2.227802E+04 -4.765702E+05  3.344039E-09  2.619777E-09
       209  14 -9.219559E+05 -2.191620E+05 -1.177984E+04 -4.638890E+05 -8.029731E-10  5.215627E-10
       209  15 -9.105003E+05 -2.305898E+05 -6.444738E+03 -4.780655E+05 -1.700394E-09 -5.812029E-10
       209  16  1.628255E+05  1.585118E+05  1.893637E+05 -1.766524E+05  2.029690E-08  9.826511E-09
       209  17  2.005617E+04  1.240794E+05  1.699298E+05 -2.016167E+05  6.816509E-09  3.669913E-09
       209  18 -9.958165E+04  6.357918E+04  1.488174E+05 -2.534274E+05 -5.046538E-09 -2.128264E-09
       209  19 -1.983968E+06 -6.277628E+05 -2.339608E+05 -7.760087E+05  3.775430E+04 -7.165876E+04
       209  20 -1.863048E+06 -5.623195E+05 -1.935190E+05 -7.257944E+05  2.521728E+04 -6.960210E+04
       209  21 -1.720741E+06 -5.246987E+05 -1.617288E+05 -7.024341E+05  1.160224E+04 -6.466144E+04
       209  22 -9.111666E+05 -2.346748E+05 -2.226532E+04 -4.765726E+05  4.460777E+04 -6.907008E+04
       209  23 -9.219533E+05 -2.191570E+05 -1.176931E+04 -4.638909E+05  3.645379E+04 -6.537227E+04
       209  24 -9.104986E+05 -2.305859E+05 -6.436854E+03 -4.780668E+05  2.722506E+04 -5.879200E+04
       209  25  1.628295E+05  1.585172E+05  1.893770E+05 -1.766552E+05  5.147397E+04 -6.647659E+04
       209  26  2.005962E+04  1.240840E+05  1.699411E+05 -2.016191E+05  4.770853E+04 -6.113558E+04
       209  27 -9.957893E+04  6.358268E+04  1.488262E+05 -2.534292E+05  4.286962E+04 -5.291445E+04
       210   1 -1.631643E+06 -4.928189E+05 -1.424607E+05 -6.781790E+05 -8.920356E+03  5.883640E+04
       210   2 -1.510926E+06 -4.323117E+05 -1.149957E+05 -6.275110E+05 -3.466341E+03  4.941251E+04
       210   3 -1.366245E+06 -3.961867E+05 -8.881549E+04 -6.045372E+05  2.067029E+03  3.976206E+04
       210   4 -9.101816E+05 -2.307111E+05 -4.849004E+03 -4.779768E+05 -2.407802E+04  5.314491E+04
       210   5 -9.221423E+05 -2.184437E+05 -2.679758E+03 -4.641553E+05 -1.896831E+04  4.359634E+04
       210   6 -9.100939E+05 -2.304916E+05 -1.523610E+03 -4.780342E+05 -1.377970E+04  3.382121E+04
       210   7 -1.881692E+05  3.144629E+04  1.327437E+05 -2.775563E+05 -3.925472E+04  4.744630E+04
       210   8 -3.329934E+05 -4.543211E+03  1.096235E+05 -3.006546E+05 -3.448612E+04  3.777423E+04
       210   9 -4.537253E+05 -6.477750E+04  8.576059E+04 -3.514445E+05 -2.963892E+04  2.787568E+04
       210  10 -1.631644E+06 -4.928226E+05 -1.424674E+05 -6.781786E+05 -4.442605E-10 -9.193408E-10
       210  11 -1.510927E+06 -4.323143E+05 -1.150003E+05 -6.275109E+05 -9.042771E-10 -7.236145E-10
       210  12 -1.366245E+06 -3.961884E+05 -8.881847E+04 -6.045373E+05 -1.850420E-09 -1.317712E-10
       210  13 -9.101829E+05 -2.307143E+05 -4.855397E+03 -4.779758E+05 -7.511067E-10 -7.219013E-10
       210  14 -9.221432E+05 -2.184458E+05 -2.684003E+03 -4.641546E+05  6.196407E-10 -4.927676E-10
       210  15 -9.100944E+05 -2.304929E+05 -1.526115E+03 -4.780338E+05 -1.078108E-09 -1.086758E-10
       210  16 -1.881714E+05  3.144346E+04  1.327366E+05 -2.775548E+05  7.808629E-10 -5.057103E-10
       210  17 -3.329951E+05 -4.545061E+03  1.096186E+05 -3.006535E+05  1.620457E-09 -5.083368E-10
       210  18 -4.537264E+05 -6.477857E+04  8.575748E+04 -3.514439E+05  9.633735E-10 -5.875605E-11
       210  19 -1.631643E+06 -4.928189E+05 -1.424607E+05 -6.781790E+05  8.920356E+03 -5.883640E+04
       210  20 -1.510926E+06 -4.323117E+05 -1.149957E+05 -6.275110E+05  3.466341E+03 -4.941251E+04
       210  21 -1.366245E+06 -3.961867E+05 -8.881549E+04 -6.045372E+05 -2.067029E+03 -3.976206E+04
       210  22 -9.101816E+05 -2.307111E+05 -4.849004E+03 -4.779768E+05  2.407802E+04 -5.314491E+04
       210  23 -9.221423E+05 -2.184437E+05 -2.679758E+03 -4.641553E+05  1.896831E+04 -4.359634E+04
       210  24 -9.100939E+05 -2.304916E+05 -1.523610E+03 -4.780342E+05  1.377970E+04 -3.382121E+04
       210  25 -1.881692E+05  3.144629E+04  1.327437E+05 -2.775563E+05  3.925472E+04 -4.744630E+04
       210  26 -3.329934E+05 -4.543211E+03  1.096235E+05 -3.006546E+05  3.448612E+04 -3.777423E+04
       210  27 -4.537253E+05 -6.477750E+04  8.576059E+04 -3.514445E+05  2.963892E+04 -2.787568E+04
       211   1 -1.277530E+06 -3.638688E+05 -7.084046E+04 -5.800099E+05  4.535268E+03  3.378556E+04
       211   2 -1.156595E+06 -3.034922E+05 -4.545025E+04 -5.292066E+05  8.851969E+03  2.356194E+04
       211   3 -1.011466E+06 -2.673512E+05 -2.037549E+04 -5.061770E+05  1.317368E+04  1.331831E+04
       211   4 -9.100426E+05 -2.304911E+05 -1.190121E+03 -4.780383E+05 -1.128718E+04  2.785574E+04
       211   5 -9.221197E+05 -2.183525E+05 -7.907088E+02 -4.641522E+05 -7.001950E+03  1.762216E+04
       211   6 -9.100155E+05 -2.304447E+05 -6.826643E+02 -4.780467E+05 -2.711793E+03  7.368532E+03
       211   7 -5.424170E+05 -9.710222E+04  6.845485E+04 -3.760113E+05 -2.711953E+04  2.192220E+04
       211   8 -6.875866E+05 -1.332077E+05  4.386762E+04 -3.990749E+05 -2.286229E+04  1.167998E+04
       211   9 -8.085529E+05 -1.935368E+05  1.901103E+04 -4.499116E+05 -1.860019E+04  1.417656E+03
       211  10 -1.277530E+06 -3.638701E+05 -7.084265E+04 -5.800100E+05 -4.464031E-11  2.485162E-11
       211  11 -1.156595E+06 -3.034928E+05 -4.545144E+04 -5.292068E+05  9.714701E-10 -3.761021E-10
       211  12 -1.011466E+06 -2.673514E+05 -2.037615E+04 -5.061772E+05 -8.908410E-10 -9.293034E-11
       211  13 -9.100429E+05 -2.304920E+05 -1.191817E+03 -4.780380E+05 -5.019830E-10 -9.032575E-11
       211  14 -9.221198E+05 -2.183528E+05 -7.913842E+02 -4.641521E+05  3.198753E-10 -1.521651E-10
       211  15 -9.100156E+05 -2.304448E+05 -6.827801E+02 -4.780467E+05 -1.097488E-09 -7.095879E-11
       211  16 -5.424180E+05 -9.710293E+04  6.845257E+04 -3.760108E+05  3.005021E-11 -3.190578E-10
       211  17 -6.875872E+05 -1.332080E+05  4.386638E+04 -3.990747E+05  7.591226E-11 -1.078769E-10
       211  18 -8.085533E+05 -1.935369E+05  1.901038E+04 -4.499116E+05  1.554087E-09  5.175725E-10
       211  19 -1.277530E+06 -3.638688E+05 -7.084046E+04 -5.800099E+05 -4.535268E+03 -3.378556E+04
       211  20 -1.156595E+06 -3.034922E+05 -4.545025E+04 -5.292066E+05 -8.851969E+03 -2.356194E+04
       211  21 -1.011466E+06 -2.673512E+05 -2.037549E+04 -5.061770E+05 -1.317368E+04 -1.331831E+04
       211  22 -9.100426E+05 -2.304911E+05 -1.190121E+03 -4.780383E+05  1.128718E+04 -2.785574E+04
       211  23 -9.221197E+05 -2.183525E+05 -7.907088E+02 -4.641522E+05  7.001950E+03 -1.762216E+04
       211  24 -9.100155E+05 -2.304447E+05 -6.826643E+02 -4.780467E+05  2.711793E+03 -7.368532E+03
       211  25 -5.424170E+05 -9.710222E+04  6.845485E+04 -3.760113E+05  2.711953E+04 -2.192220E+04
       211  26 -6.875866E+05 -1.332077E+05  4.386762E+04 -3.990749E+05  2.286229E+04 -1.167998E+04
       211  27 -8.085529E+05 -1.935368E+05  1.901103E+04 -4.499116E+05  1.860019E+04 -1.417656E+03
       212   1 -9.226723E+05 -2.349947E+05 -2.759192E+03 -4.816091E+05  1.556320E+04  7.302100E+03
       212   2 -8.016527E+05 -1.746412E+05  2.193005E+04 -4.307828E+05  1.993896E+04 -2.921281E+03
       212   3 -6.564486E+05 -1.385243E+05  4.626299E+04 -4.077458E+05  2.430990E+04 -1.312867E+04
       212   4 -9.100166E+05 -2.304435E+05 -7.218470E+02 -4.780506E+05 -3.247511E+02  1.351641E+03
       212   5 -9.221039E+05 -2.183247E+05 -1.005554E+03 -4.641538E+05  4.073347E+03 -8.864313E+03
       212   6 -9.100296E+05 -2.304489E+05 -1.663716E+03 -4.780540E+05  8.466481E+03 -1.906427E+04
       212   7 -8.973601E+05 -2.258921E+05  1.316578E+03 -4.744918E+05 -1.621304E+04 -4.598945E+03
       212   8 -1.042539E+06 -2.620064E+05 -2.394053E+04 -4.975186E+05 -1.178890E+04 -1.480608E+04
       212   9 -1.163540E+06 -3.223665E+05 -4.959132E+04 -5.483346E+05 -7.369863E+03 -2.499722E+04
       212  10 -9.226726E+05 -2.349948E+05 -2.759749E+03 -4.816092E+05 -8.913475E-10  5.927316E-10
       212  11 -8.016531E+05 -1.746413E+05  2.192929E+04 -4.307827E+05  4.586122E-10  6.369546E-10
       212  12 -6.564493E+05 -1.385247E+05  4.626155E+04 -4.077456E+05  5.110551E-10  2.991618E-10
       212  13 -9.100166E+05 -2.304435E+05 -7.218506E+02 -4.780506E+05 -9.415975E-10 -7.363782E-11
       212  14 -9.221040E+05 -2.183248E+05 -1.005733E+03 -4.641538E+05 -2.184299E-10  6.051262E-10
       212  15 -9.100297E+05 -2.304493E+05 -1.664533E+03 -4.780538E+05  2.394216E-11  9.864381E-11
       212  16 -8.973603E+05 -2.258922E+05  1.316043E+03 -4.744919E+05  7.751088E-10  3.698729E-10
       212  17 -1.042539E+06 -2.620067E+05 -2.394120E+04 -4.975187E+05  2.578439E-11  5.925677E-11
       212  18 -1.163541E+06 -3.223672E+05 -4.959259E+04 -5.483348E+05 -1.045213E-09 -1.487875E-09
       212  19 -9.226723E+05 -2.349947E+05 -2.759192E+03 -4.816091E+05 -1.556320E+04 -7.302100E+03
       212  20 -8.016527E+05 -1.746412E+05  2.193005E+04 -4.307828E+05 -1.993896E+04  2.921281E+03
       212  21 -6.564486E+05 -1.385243E+05  4.626299E+04 -4.077458E+05 -2.430990E+04  1.312867E+04
       212  22 -9.100166E+05 -2.304435E+05 -7.218470E+02 -4.780506E+05  3.247511E+02 -1.351641E+03
       212  23 -9.221039E+05 -2.183247E+05 -1.005554E+03 -4.641538E+05 -4.073347E+03  8.864313E+03
       212  24 -9.100296E+05 -2.304489E+05 -1.663716E+03 -4.780540E+05 -8.466481E+03  1.906427E+04
       212  25 -8.973601E+05 -2.258921E+05  1.316578E+03 -4.744918E+05  1.621304E+04  4.598945E+03
       212  26 -1.042539E+06 -2.620064E+05 -2.394053E+04 -4.975186E+05  1.178890E+04  1.480608E+04
       212  27 -1.163540E+06 -3.223665E+05 -4.959132E+04 -5.483346E+05  7.369863E+03  2.499722E+04
       213   1 -5.677074E+05 -1.061951E+05  6.339944E+04 -3.832031E+05  2.692361E+04 -1.905183E+04
       213   2 -4.467708E+05 -4.592095E+04  8.671358E+04 -3.324091E+05  3.241135E+04 -2.873073E+04
       213   3 -3.018564E+05 -9.986534E+03  1.087893E+05 -3.093497E+05  3.782638E+04 -3.820185E+04
       213   4 -9.100926E+05 -2.304437E+05 -2.177009E+03 -4.780621E+05  1.105332E+04 -2.499887E+04
       213   5 -9.220785E+05 -2.183530E+05 -3.895266E+03 -4.641575E+05  1.685361E+04 -3.456438E+04
       213   6 -9.101693E+05 -2.306688E+05 -7.101647E+03 -4.779976E+05  2.258078E+04 -4.392211E+04
       213   7 -1.252358E+06 -3.546828E+05 -6.775822E+04 -5.728733E+05 -4.807741E+03 -3.094247E+04
       213   8 -1.397152E+06 -3.907655E+05 -9.451315E+04 -5.958128E+05  1.308560E+03 -4.039329E+04
       213   9 -1.518096E+06 -4.513178E+05 -1.230071E+05 -6.464921E+05  7.351176E+03 -4.963639E+04
       213  10 -5.677083E+05 -1.061957E+05  6.339740E+04 -3.832027E+05 -1.196625E-09 -9.147412E-10
       213  11 -4.467721E+05 -4.592212E+04  8.671005E+04 -3.324083E+05  7.922624E-10  5.010591E-10
       213  12 -3.018584E+05 -9.988483E+03  1.087838E+05 -3.093486E+05  1.520973E-09  3.791031E-10
       213  13 -9.100929E+05 -2.304444E+05 -2.178412E+03 -4.780619E+05  8.856340E-11 -4.449026E-10
       213  14 -9.220791E+05 -2.183544E+05 -3.898043E+03 -4.641571E+05  4.050799E-10  1.017825E-10
       213  15 -9.101704E+05 -2.306710E+05 -7.106227E+03 -4.779968E+05  1.064814E-09  3.338123E-10
       213  16 -1.252359E+06 -3.546838E+05 -6.776007E+04 -5.728734E+05  3.089766E-09  2.041635E-10
       213  17 -1.397153E+06 -3.907673E+05 -9.451622E+04 -5.958128E+05 -9.470595E-10  4.699894E-10
       213  18 -1.518097E+06 -4.513205E+05 -1.230118E+05 -6.464918E+05 -1.733833E-09  7.002156E-11
       213  19 -5.677074E+05 -1.061951E+05  6.339944E+04 -3.832031E+05 -2.692361E+04  1.905183E+04
       213  20 -4.467708E+05 -4.592095E+04  8.671358E+04 -3.324091E+05 -3.241135E+04  2.873073E+04
       213  21 -3.018564E+05 -9.986534E+03  1.087893E+05 -3.093497E+05 -3.782638E+04  3.820185E+04
       213  22 -9.100926E+05 -2.304437E+05 -2.177009E+03 -4.780621E+05 -1.105332E+04  2.499887E+04
       213  23 -9.220785E+05 -2.183530E+05 -3.895266E+03 -4.641575E+05 -1.685361E+04  3.456438E+04
       213  24 -9.101693E+05 -2.306688E+05 -7.101647E+03 -4.779976E+05 -2.258078E+04  4.392211E+04
       213  25 -1.252358E+06 -3.546828E+05 -6.775822E+04 -5.728733E+05  4.807741E+03  3.094247E+04
       213  26 -1.397152E+06 -3.907655E+05 -9.451315E+04 -5.958128E+05 -1.308560E+03  4.039329E+04
       213  27 -1.518096E+06 -4.513178E+05 -1.230071E+05 -6.464921E+05 -7.351176E+03  4.963639E+04
       214   1 -2.131255E+05  2.205159E+04  1.241310E+05 -2.854941E+05  4.182981E+04 -4.353743E+04
       214   2 -9.328618E+04  8.277963E+04  1.426700E+05 -2.329889E+05  4.982199E+04 -5.072820E+04
       214   3  4.872787E+04  1.158895E+05  1.568122E+05 -2.071694E+05  5.682353E+04 -5.525916E+04
       214   4 -9.106103E+05 -2.304958E+05 -9.444779E+03 -4.781761E+05  2.614993E+04 -4.942343E+04
       214   5 -9.217392E+05 -2.192217E+05 -1.726392E+04 -4.637431E+05  3.819156E+04 -5.510104E+04
       214   6 -9.115166E+05 -2.363760E+05 -3.269651E+04 -4.760050E+05  4.924081E+04 -5.811729E+04
       214   7 -1.607582E+06 -4.829979E+05 -1.430385E+05 -6.706558E+05  1.048905E+04 -5.530237E+04
       214   8 -1.749478E+06 -5.211608E+05 -1.772271E+05 -6.942112E+05  2.657776E+04 -5.946762E+04
       214   9 -1.870814E+06 -5.885606E+05 -2.222500E+05 -7.444566E+05  4.167058E+04 -6.097067E+04
       214  10 -2.131279E+05  2.204909E+04  1.241242E+05 -2.854926E+05  3.036433E-10 -5.276186E-11
       214  11 -9.328953E+04  8.277621E+04  1.426605E+05 -2.329869E+05 -4.668570E-10 -3.502828E-10
       214  12  4.872359E+04  1.158854E+05  1.568004E+05 -2.071669E+05 -1.744994E-09 -5.941847E-10
       214  13 -9.106116E+05 -2.304986E+05 -9.450651E+03 -4.781751E+05  4.924965E-10 -4.083217E-11
       214  14 -9.217416E+05 -2.192253E+05 -1.727237E+04 -4.637414E+05  1.054925E-09 -2.021693E-10
       214  15 -9.115201E+05 -2.363803E+05 -3.270741E+04 -4.760027E+05 -1.062339E-10  8.832194E-11
       214  16 -1.607583E+06 -4.830012E+05 -1.430444E+05 -6.706553E+05 -9.094341E-10 -2.108016E-10
       214  17 -1.749480E+06 -5.211648E+05 -1.772351E+05 -6.942099E+05  1.467816E-09 -1.153148E-10
       214  18 -1.870817E+06 -5.885650E+05 -2.222602E+05 -7.444546E+05  5.502689E-10  9.353909E-10
       214  19 -2.131255E+05  2.205159E+04  1.241310E+05 -2.854941E+05 -4.182981E+04  4.353743E+04
       214  20 -9.328618E+04  8.277963E+04  1.426700E+05 -2.329889E+05 -4.982199E+04  5.072820E+04
       214  21  4.872787E+04  1.158895E+05  1.568122E+05 -2.071694E+05 -5.682353E+04  5.525916E+04
       214  22 -9.106103E+05 -2.304958E+05 -9.444779E+03 -4.781761E+05 -2.614993E+04  4.942343E+04
       214  23 -9.217392E+05 -2.192217E+05 -1.726392E+04 -4.637431E+05 -3.819156E+04  5.510104E+04
       214  24 -9.115166E+05 -2.363760E+05 -3.269651E+04 -4.760050E+05 -4.924081E+04  5.811729E+04
       214  25 -1.607582E+06 -4.829979E+05 -1.430385E+05 -6.706558E+05 -1.048905E+04  5.530237E+04
       214  26 -1.749478E+06 -5.211608E+05 -1.772271E+05 -6.942112E+05 -2.657776E+04  5.946762E+04
       214  27 -1.870814E+06 -5.885606E+05 -2.222500E+05 -7.444566E+05 -4.167058E+04  6.097067E+04
       215   1  1.427508E+05  1.428374E+05  1.651440E+05 -1.965716E+05  6.975539E+04 -5.656831E+04
       215   2  2.343191E+05  2.176211E+05  1.722202E+05 -9.508379E+04  5.492973E+04 -5.205261E+04
       215   3  3.185846E+05  1.876132E+05  1.650849E+05  4.168480E+03  2.679188E+04 -1.217957E+04
       215   4 -9.170527E+05 -2.326943E+05 -4.304203E+04 -4.792517E+05  5.618558E+04 -6.167693E+04
       215   5 -9.177746E+05 -2.433949E+05 -8.112404E+04 -4.524286E+05  9.536531E+04 -3.686950E+04
       215   6 -9.365860E+05 -3.697115E+05 -1.762814E+05 -4.278383E+05  1.212180E+05  2.333064E+04
       215   7 -1.975695E+06 -6.081441E+05 -2.512789E+05 -7.614917E+05  4.264062E+04 -6.677685E+04
       215   8 -2.068499E+06 -7.042304E+05 -3.345392E+05 -8.091352E+05  1.357197E+05 -2.172306E+04
       215   9 -2.190166E+06 -9.267348E+05 -5.177462E+05 -8.589814E+05  2.154342E+05  5.872888E+04
       215  10  1.427447E+05  1.428327E+05  1.651289E+05 -1.965685E+05 -1.920085E-10  4.157574E-10
       215  11  2.343151E+05  2.176174E+05  1.722094E+05 -9.508149E+04  6.510026E-11  1.161830E-09
       215  12  3.185838E+05  1.876129E+05  1.650833E+05  4.168742E+03  8.070161E-10  1.540166E-09
       215  13 -9.170571E+05 -2.326993E+05 -4.305511E+04 -4.792489E+05 -3.402768E-10  6.750514E-11
       215  14 -9.177848E+05 -2.433988E+05 -8.114370E+04 -4.524258E+05 -1.644141E-09  2.015685E-09
       215  15 -9.366019E+05 -3.697160E+05 -1.763101E+05 -4.278406E+05 -7.510960E-10  8.250207E-10
       215  16 -1.975698E+06 -6.081493E+05 -2.512907E+05 -7.614894E+05  1.143447E-10  5.318280E-10
       215  17 -2.068519E+06 -7.042358E+05 -3.345748E+05 -8.091329E+05 -4.060950E-10 -5.049125E-10
       215  18 -2.190216E+06 -9.267510E+05 -5.178403E+05 -8.589916E+05 -1.575189E-09 -6.025810E-10
       215  19  1.427508E+05  1.428374E+05  1.651440E+05 -1.965716E+05 -6.975539E+04  5.656831E+04
       215  20  2.343191E+05  2.176211E+05  1.722202E+05 -9.508379E+04 -5.492973E+04  5.205261E+04
       215  21  3.185846E+05  1.876132E+05  1.650849E+05  4.168480E+03 -2.679188E+04  1.217957E+04
       215  22 -9.170527E+05 -2.326943E+05 -4.304203E+04 -4.792517E+05 -5.618558E+04  6.167693E+04
       215  23 -9.177746E+05 -2.433949E+05 -8.112404E+04 -4.524286E+05 -9.536531E+04  3.686950E+04
       215  24 -9.365860E+05 -3.697115E+05 -1.762814E+05 -4.278383E+05 -1.212180E+05 -2.333064E+04
       215  25 -1.975695E+06 -6.081441E+05 -2.512789E+05 -7.614917E+05 -4.264062E+04  6.677685E+04
       215  26 -2.068499E+06 -7.042304E+05 -3.345392E+05 -8.091352E+05 -1.357197E+05  2.172306E+04
       215  27 -2.190166E+06 -9.267348E+05 -5.177462E+05 -8.589814E+05 -2.154342E+05 -5.872888E+04
       216   1 -4.216633E+05 -1.448304E+05 -1.122101E+05 -3.645160E+04  3.831641E+04  1.667679E+04
       216   2 -2.944153E+05 -2.283814E+05 -1.287830E+05 -7.585363E+04  4.263160E+04  5.444672E+04
       216   3 -1.452475E+05 -2.229424E+05 -1.258932E+05 -1.456158E+05  4.697906E+04  6.216504E+04
       216   4  8.135942E+05  1.601537E+05  1.788260E+05 -1.348946E+05  1.245945E+05  1.673822E+04
       216   5  7.984928E+05  3.313858E+04  8.653808E+04 -1.196734E+05  7.983402E+04  5.445885E+04
       216   6  8.137520E+05  3.530894E+03  4.773784E+04 -1.348018E+05  3.510762E+04  6.215279E+04
       216   7  2.050292E+06  4.650695E+05  4.697903E+05 -2.335349E+05  2.110431E+05  1.677225E+04
       216   8  1.892551E+06  2.945943E+05  3.018071E+05 -1.635721E+05  1.171005E+05  5.446572E+04
       216   9  1.773647E+06  2.299532E+05  2.213331E+05 -1.239707E+05  2.321831E+04  6.214015E+04
       216  10 -4.216650E+05 -1.448311E+05 -1.122134E+05 -3.645211E+04  6.374646E-10 -7.205371E-10
       216  11 -2.944181E+05 -2.283851E+05 -1.287919E+05 -7.585550E+04 -2.209258E-09  8.783191E-10
       216  12 -1.452509E+05 -2.229472E+05 -1.259046E+05 -1.456181E+05 -3.913804E-09  6.690327E-11
       216  13  8.135775E+05  1.601492E+05  1.787963E+05 -1.348963E+05  5.305348E-10  8.153068E-10
       216  14  7.984852E+05  3.313369E+04  8.652054E+04 -1.196769E+05 -3.908095E-11  4.482437E-10
       216  15  8.137497E+05  3.526413E+03  4.772826E+04 -1.348036E+05 -1.136840E-09 -2.890988E-10
       216  16  2.050244E+06  4.650573E+05  4.697063E+05 -2.335377E+05  3.843285E-11  7.095394E-10
       216  17  1.892536E+06  2.945875E+05  3.017758E+05 -1.635772E+05  3.185399E-09  4.567244E-10
       216  18  1.773645E+06  2.299489E+05  2.213249E+05 -1.239718E+05  3.905884E-09  1.080880E-09
       216  19 -4.216633E+05 -1.448304E+05 -1.122101E+05 -3.645160E+04 -3.831641E+04 -1.667679E+04
       216  20 -2.944153E+05 -2.283814E+05 -1.287830E+05 -7.585363E+04 -4.263160E+04 -5.444672E+04
       216  21 -1.452475E+05 -2.229424E+05 -1.258932E+05 -1.456158E+05 -4.697906E+04 -6.216504E+04
       216  22  8.135942E+05  1.601537E+05  1.788260E+05 -1.348946E+05 -1.245945E+05 -1.673822E+04
       216  23  7.984928E+05  3.313858E+04  8.653808E+04 -1.196734E+05 -7.983402E+04 -5.445885E+04
       216  24  8.137520E+05  3.530894E+03  4.773784E+04 -1.348018E+05 -3.510762E+04 -6.215279E+04
       216  25  2.050292E+06  4.650695E+05  4.697903E+05 -2.335349E+05 -2.110431E+05 -1.677225E+04
       216  26  1.892551E+06  2.945943E+05  3.018071E+05 -1.635721E+05 -1.171005E+05 -5.446572E+04
       216  27  1.773647E+06  2.299532E+05  2.213331E+05 -1.239707E+05 -2.321831E+04 -6.214015E+04
       217   1 -5.965525E+04 -1.978190E+05 -1.192941E+05 -1.327996E+05  3.693817E+04  5.743137E+04
       217   2  7.693637E+04 -1.706105E+05 -1.078224E+05 -1.185956E+05  3.113234E+04  5.118867E+04
       217   3  2.154469E+05 -1.392141E+05 -9.149759E+04 -1.364880E+05  2.532191E+04  4.238309E+04
       217   4  8.076147E+05  6.709529E+03  3.642325E+04 -1.352076E+05  2.887255E+04  5.742183E+04
       217   5  8.063390E+05  7.770075E+02  2.005582E+04 -1.191605E+05  1.887089E+04  5.118119E+04
       217   6  8.076871E+05 -2.428645E+02  1.144611E+04 -1.352070E+05  8.865894E+03  4.237915E+04
       217   7  1.675617E+06  2.111963E+05  1.921119E+05 -1.376191E+05  2.079597E+04  5.741236E+04
       217   8  1.536262E+06  1.721356E+05  1.479155E+05 -1.197260E+05  6.595457E+03  5.117373E+04
       217   9  1.400272E+06  1.387096E+05  1.143785E+05 -1.339247E+05 -7.605337E+03  4.237515E+04
       217  10 -5.965760E+04 -1.978229E+05 -1.193029E+05 -1.328013E+05  1.108923E-09 -3.463537E-10
       217  11  7.693463E+04 -1.706136E+05 -1.078292E+05 -1.185969E+05 -1.601874E-10 -8.571343E-10
       217  12  2.154457E+05 -1.392162E+05 -9.150217E+04 -1.364889E+05 -1.541646E-09 -4.137525E-10
       217  13  8.076129E+05  6.705763E+03  3.641549E+04 -1.352090E+05 -6.630324E-10  5.468889E-10
       217  14  8.063379E+05  7.740978E+02  2.005023E+04 -1.191613E+05  9.103219E-12 -3.148140E-10
       217  15  8.076866E+05 -2.448150E+02  1.144259E+04 -1.352073E+05 -7.694520E-10 -3.906913E-10
       217  16  1.675616E+06  2.111926E+05  1.921048E+05 -1.376201E+05 -1.122457E-09  4.141241E-10
       217  17  1.536262E+06  1.721328E+05  1.479105E+05 -1.197263E+05  8.139751E-10 -1.246012E-10
       217  18  1.400271E+06  1.387076E+05  1.143750E+05 -1.339244E+05  1.096462E-09 -6.018963E-12
       217  19 -5.965525E+04 -1.978190E+05 -1.192941E+05 -1.327996E+05 -3.693817E+04 -5.743137E+04
       217  20  7.693637E+04 -1.706105E+05 -1.078224E+05 -1.185956E+05 -3.113234E+04 -5.118867E+04
       217  21  2.154469E+05 -1.392141E+05 -9.149759E+04 -1.364880E+05 -2.532191E+04 -4.238309E+04
       217  22  8.076147E+05  6.709529E+03  3.642325E+04 -1.352076E+05 -2.887255E+04 -5.742183E+04
       217  23  8.063390E+05  7.770075E+02  2.005582E+04 -1.191605E+05 -1.887089E+04 -5.118119E+04
       217  24  8.076871E+05 -2.428645E+02  1.144611E+04 -1.352070E+05 -8.865894E+03 -4.237915E+04
       217  25  1.675617E+06  2.111963E+05  1.921119E+05 -1.376191E+05 -2.079597E+04 -5.741236E+04
       217  26  1.536262E+06  1.721356E+05  1.479155E+05 -1.197260E+05 -6.595457E+03 -5.117373E+04
       217  27  1.400272E+06  1.387096E+05  1.143785E+05 -1.339247E+05  7.605337E+03 -4.237515E+04
       218   1  3.052297E+05 -1.176825E+05 -7.797281E+04 -1.357103E+05  2.322798E+04  3.647382E+04
       218   2  4.423802E+05 -8.563986E+04 -5.800726E+04 -1.194797E+05  2.113792E+04  2.648686E+04
       218   3  5.798936E+05 -5.341864E+04 -3.662935E+04 -1.354503E+05  1.904473E+04  1.628395E+04
       218   4  8.072138E+05 -1.427950E+01  8.690197E+03 -1.352310E+05  7.102746E+03  3.647179E+04
       218   5  8.070273E+05 -1.705000E+02  4.945570E+03 -1.191311E+05  4.656695E+03  2.648700E+04
       218   6  8.072481E+05 -8.544695E+01  2.859015E+03 -1.352312E+05  2.207974E+03  1.628636E+04
       218   7  1.309446E+06  1.176405E+05  9.534553E+04 -1.347513E+05 -9.035123E+03  3.646974E+04
       218   8  1.171805E+06  8.529187E+04  6.789486E+04 -1.187823E+05 -1.183390E+04  2.648712E+04
       218   9  1.034654E+06  5.324510E+04  4.234663E+04 -1.350121E+05 -1.463476E+04  1.628875E+04
       218  10  3.052288E+05 -1.176840E+05 -7.797633E+04 -1.357110E+05  3.926138E-09  3.405682E-10
       218  11  4.423795E+05 -8.564074E+04 -5.800942E+04 -1.194802E+05 -1.008595E-08  2.045275E-10
       218  12  5.798931E+05 -5.341902E+04 -3.663053E+04 -1.354505E+05 -2.274582E-08 -1.065379E-09
       218  13  8.072134E+05 -1.572203E+01  8.687601E+03 -1.352312E+05  8.121288E-10  3.394512E-10
       218  14  8.070271E+05 -1.712595E+02  4.944211E+03 -1.191312E+05 -1.053156E-09  3.733790E-10
       218  15  8.072480E+05 -8.573321E+01  2.858507E+03 -1.352313E+05 -8.096875E-11 -5.792834E-10
       218  16  1.309445E+06  1.176391E+05  9.534288E+04 -1.347511E+05 -4.430819E-09  4.749346E-10
       218  17  1.171805E+06  8.529108E+04  6.789327E+04 -1.187820E+05  9.913357E-09  5.263685E-10
       218  18  1.034654E+06  5.324476E+04  4.234573E+04 -1.350119E+05  2.145706E-08 -2.953572E-10
       218  19  3.052297E+05 -1.176825E+05 -7.797281E+04 -1.357103E+05 -2.322798E+04 -3.647382E+04
       218  20  4.423802E+05 -8.563986E+04 -5.800726E+04 -1.194797E+05 -2.113792E+04 -2.648686E+04
       218  21  5.798936E+05 -5.341864E+04 -3.662935E+04 -1.354503E+05 -1.904473E+04 -1.628395E+04
       218  22  8.072138E+05 -1.427950E+01  8.690197E+03 -1.352310E+05 -7.102746E+03 -3.647179E+04
       218  23  8.070273E+05 -1.705000E+02  4.945570E+03 -1.191311E+05 -4.656695E+03 -2.648700E+04
       218  24  8.072481E+05 -8.544695E+01  2.859015E+03 -1.352312E+05 -2.207974E+03 -1.628636E+04
       218  25  1.309446E+06  1.176405E+05  9.534553E+04 -1.347513E+05  9.035123E+03 -3.646974E+04
       218  26  1.171805E+06  8.529187E+04  6.789486E+04 -1.187823E+05  1.183390E+04 -2.648712E+04
       218  27  1.034654E+06  5.324510E+04  4.234663E+04 -1.350121E+05  1.463476E+04 -1.628875E+04
       219   1  6.699077E+05 -3.216080E+04 -2.118282E+04 -1.353914E+05  1.855868E+04  1.028074E+04
       219   2  8.071400E+05 -4.200683E+01  1.264712E+03 -1.192407E+05  1.795519E+04 -1.765232E+01
       219   3  9.444793E+05  3.208086E+04  2.410709E+04 -1.352879E+05  1.735157E+04 -1.033286E+04
       219   4  8.071843E+05 -5.581054E+01  2.179935E+03 -1.352308E+05  1.750853E+03  1.028380E+04
       219   5  8.071389E+05 -3.924900E+01  1.279234E+03 -1.191319E+05  1.117873E+03 -1.460407E+01
       219   6  8.071846E+05 -1.341322E+01  7.924187E+02 -1.352308E+05  4.848871E+02 -1.032980E+04
       219   7  9.444801E+05  3.204834E+04  2.554313E+04 -1.350700E+05 -1.506057E+04  1.028685E+04
       219   8  8.071384E+05 -3.633915E+01  1.294821E+03 -1.190230E+05 -1.571945E+04 -1.156171E+01
       219   9  6.699091E+05 -3.210853E+04 -2.252180E+04 -1.351738E+05 -1.637819E+04 -1.032673E+04
       219  10  6.699073E+05 -3.216101E+04 -2.118366E+04 -1.353916E+05  2.151857E-08 -1.450702E-09
       219  11  8.071396E+05 -4.209324E+01  1.264107E+03 -1.192407E+05  7.258654E-09 -5.534469E-10
       219  12  9.444789E+05  3.208067E+04  2.410632E+04 -1.352877E+05 -5.824365E-09  6.423964E-10
       219  13  8.071843E+05 -5.592498E+01  2.179730E+03 -1.352308E+05  1.111225E-09 -1.077547E-09
       219  14  8.071389E+05 -3.924934E+01  1.279232E+03 -1.191319E+05 -6.756517E-10 -5.460476E-10
       219  15  8.071846E+05 -1.352790E+01  7.922177E+02 -1.352308E+05 -2.101165E-09  4.949924E-10
       219  16  9.444798E+05  3.204816E+04  2.554250E+04 -1.350699E+05 -2.141971E-08 -7.791814E-10
       219  17  8.071382E+05 -3.640539E+01  1.294357E+03 -1.190230E+05 -8.744635E-09 -4.242997E-10
       219  18  6.699088E+05 -3.210872E+04 -2.252250E+04 -1.351739E+05  6.139441E-09  5.642752E-10
       219  19  6.699077E+05 -3.216080E+04 -2.118282E+04 -1.353914E+05 -1.855868E+04 -1.028074E+04
       219  20  8.071400E+05 -4.200683E+01  1.264712E+03 -1.192407E+05 -1.795519E+04  1.765232E+01
       219  21  9.444793E+05  3.208086E+04  2.410709E+04 -1.352879E+05 -1.735157E+04  1.033286E+04
       219  22  8.071843E+05 -5.581054E+01  2.179935E+03 -1.352308E+05 -1.750853E+03 -1.028380E+04
       219  23  8.071389E+05 -3.924900E+01  1.279234E+03 -1.191319E+05 -1.117873E+03  1.460407E+01
       219  24  8.071846E+05 -1.341322E+01  7.924187E+02 -1.352308E+05 -4.848871E+02  1.032980E+04
       219  25  9.444801E+05  3.204834E+04  2.554313E+04 -1.350700E+05  1.506057E+04 -1.028685E+04
       219  26  8.071384E+05 -3.633915E+01  1.294821E+03 -1.190230E+05  1.571945E+04  1.156171E+01
       219  27  6.699091E+05 -3.210853E+04 -2.252180E+04 -1.351738E+05  1.637819E+04  1.032673E+04
       220   1  1.034565E+06  5.329774E+04  4.007582E+04 -1.352893E+05  1.722390E+04 -1.634256E+04
       220   2  1.171919E+06  8.537735E+04  6.326579E+04 -1.191365E+05  1.695176E+04 -2.665690E+04
       220   3  1.309356E+06  1.174585E+05  8.663901E+04 -1.351985E+05  1.668235E+04 -3.695279E+04
       220   4  8.071712E+05 -1.846057E+01  6.477725E+02 -1.352348E+05  3.526234E+02 -1.634017E+04
       220   5  8.071249E+05 -5.298696E+01  4.919474E+02 -1.191269E+05  1.089483E+02 -2.665675E+04
       220   6  8.071382E+05 -9.028081E+01  4.990302E+02 -1.352348E+05 -1.319276E+02 -3.695486E+04
       220   7  5.798291E+05 -5.333729E+04 -3.878100E+04 -1.351803E+05 -1.651268E+04 -1.633777E+04
       220   8  4.424621E+05 -8.549029E+04 -6.228536E+04 -1.191172E+05 -1.672429E+04 -2.665660E+04
       220   9  3.051680E+05 -1.176523E+05 -8.564839E+04 -1.352711E+05 -1.693305E+04 -3.695693E+04
       220  10  1.034564E+06  5.329737E+04  4.007476E+04 -1.352891E+05  1.492260E-09  8.370298E-10
       220  11  1.171918E+06  8.537651E+04  6.326391E+04 -1.191362E+05  8.982269E-10  2.883385E-11
       220  12  1.309356E+06  1.174569E+05  8.663593E+04 -1.351980E+05 -4.741752E-10 -4.367327E-10
       220  13  8.071712E+05 -1.874742E+01  6.472703E+02 -1.352348E+05 -4.716656E-10  5.455827E-10
       220  14  8.071247E+05 -5.375030E+01  4.906115E+02 -1.191269E+05  2.231883E-09 -1.750006E-10
       220  15  8.071378E+05 -9.174786E+01  4.964628E+02 -1.352348E+05 -5.193986E-10 -4.739239E-10
       220  16  5.798287E+05 -5.333765E+04 -3.878202E+04 -1.351805E+05 -1.690725E-09  4.714483E-10
       220  17  4.424616E+05 -8.549113E+04 -6.228722E+04 -1.191176E+05  9.291463E-10 -4.466824E-10
       220  18  3.051673E+05 -1.176539E+05 -8.565149E+04 -1.352716E+05 -1.437847E-09 -5.531817E-10
       220  19  1.034565E+06  5.329774E+04  4.007582E+04 -1.352893E+05 -1.722390E+04  1.634256E+04
       220  20  1.171919E+06  8.537735E+04  6.326579E+04 -1.191365E+05 -1.695176E+04  2.665690E+04
       220  21  1.309356E+06  1.174585E+05  8.663901E+04 -1.351985E+05 -1.668235E+04  3.695279E+04
       220  22  8.071712E+05 -1.846057E+01  6.477725E+02 -1.352348E+05 -3.526234E+02  1.634017E+04
       220  23  8.071249E+05 -5.298696E+01  4.919474E+02 -1.191269E+05 -1.089483E+02  2.665675E+04
       220  24  8.071382E+05 -9.028081E+01  4.990302E+02 -1.352348E+05  1.319276E+02  3.695486E+04
       220  25  5.798291E+05 -5.333729E+04 -3.878100E+04 -1.351803E+05  1.651268E+04  1.633777E+04
       220  26  4.424621E+05 -8.549029E+04 -6.228536E+04 -1.191172E+05  1.672429E+04  2.665660E+04
       220  27  3.051680E+05 -1.176523E+05 -8.564839E+04 -1.352711E+05  1.693305E+04  3.695693E+04
       221   1  1.399602E+06  1.386803E+05  1.028448E+05 -1.351713E+05  1.663235E+04 -4.295746E+04
       221   2  1.537138E+06  1.707909E+05  1.266273E+05 -1.189168E+05  1.579011E+04 -5.313145E+04
       221   3  1.674922E+06  2.030025E+05  1.510053E+05 -1.349154E+05  1.495310E+04 -6.303096E+04
       221   4  8.071397E+05 -1.176358E+02  5.603732E+02 -1.352436E+05 -2.270409E+02 -4.296152E+04
       221   5  8.070302E+05 -1.969845E+02  8.028367E+02 -1.191159E+05 -6.215676E+02 -5.313990E+04
       221   6  8.070733E+05 -2.517324E+02  1.330652E+03 -1.352436E+05 -1.010694E+03 -6.304360E+04
       221   7  2.150221E+05 -1.389342E+05 -1.017350E+05 -1.353158E+05 -1.707087E+04 -4.296558E+04
       221   8  7.744478E+04 -1.712133E+05 -1.250389E+05 -1.193147E+05 -1.701458E+04 -5.314834E+04
       221   9 -6.003705E+04 -2.035462E+05 -1.483689E+05 -1.355712E+05 -1.695292E+04 -6.305624E+04
       221  10  1.399601E+06  1.386782E+05  1.028408E+05 -1.351707E+05 -6.849609E-10 -2.033310E-10
       221  11  1.537137E+06  1.707878E+05  1.266215E+05 -1.189161E+05 -9.853491E-10 -5.726431E-10
       221  12  1.674920E+06  2.029982E+05  1.509975E+05 -1.349147E+05  1.660414E-09 -8.665400E-11
       221  13  8.071392E+05 -1.196185E+02  5.569034E+02 -1.352436E+05 -1.035136E-09 -1.732454E-10
       221  14  8.070294E+05 -2.000180E+02  7.975274E+02 -1.191159E+05 -7.425717E-10 -7.323525E-11
       221  15  8.070723E+05 -2.560022E+02  1.323178E+03 -1.352436E+05  2.692276E-10 -1.607610E-10
       221  16  2.150213E+05 -1.389363E+05 -1.017390E+05 -1.353164E+05 -1.256523E-09 -3.008544E-10
       221  17  7.744371E+04 -1.712164E+05 -1.250447E+05 -1.193154E+05 -8.464380E-10  2.157655E-10
       221  18 -6.003843E+04 -2.035505E+05 -1.483769E+05 -1.355720E+05 -2.051984E-09  4.760991E-10
       221  19  1.399602E+06  1.386803E+05  1.028448E+05 -1.351713E+05 -1.663235E+04  4.295746E+04
       221  20  1.537138E+06  1.707909E+05  1.266273E+05 -1.189168E+05 -1.579011E+04  5.313145E+04
       221  21  1.674922E+06  2.030025E+05  1.510053E+05 -1.349154E+05 -1.495310E+04  6.303096E+04
       221  22  8.071397E+05 -1.176358E+02  5.603732E+02 -1.352436E+05  2.270409E+02  4.296152E+04
       221  23  8.070302E+05 -1.969845E+02  8.028367E+02 -1.191159E+05  6.215676E+02  5.313990E+04
       221  24  8.070733E+05 -2.517324E+02  1.330652E+03 -1.352436E+05  1.010694E+03  6.304360E+04
       221  25  2.150221E+05 -1.389342E+05 -1.017350E+05 -1.353158E+05  1.707087E+04  4.296558E+04
       221  26  7.744478E+04 -1.712133E+05 -1.250389E+05 -1.193147E+05  1.701458E+04  5.314834E+04
       221  27 -6.003705E+04 -2.035462E+05 -1.483689E+05 -1.355712E+05  1.695292E+04  6.305624E+04
       222   1  1.765610E+06  2.242903E+05  1.677629E+05 -1.346790E+05  1.512350E+04 -6.891674E+04
       222   2  1.902946E+06  2.569115E+05  1.944446E+05 -1.186607E+05  8.257605E+03 -7.729726E+04
       222   3  2.041812E+06  2.911809E+05  2.260499E+05 -1.347642E+05  1.393842E+03 -8.238297E+04
       222   4  8.071354E+05 -3.238931E+02  1.732599E+03 -1.352145E+05 -1.274681E+03 -6.893276E+04
       222   5  8.067972E+05 -2.665569E+02  2.973373E+03 -1.191521E+05 -2.748291E+03 -7.731614E+04
       222   6  8.070353E+05  5.062647E+02  5.401833E+03 -1.352150E+05 -4.218220E+03 -8.240179E+04
       222   7 -1.504401E+05 -2.249874E+05 -1.643286E+05 -1.357492E+05 -1.764837E+04 -6.894877E+04
       222   8 -2.881781E+05 -2.575097E+05 -1.885402E+05 -1.196426E+05 -1.373538E+04 -7.733503E+04
       222   9 -4.262583E+05 -2.902527E+05 -2.153042E+05 -1.356650E+05 -9.819460E+03 -8.242063E+04
       222  10  1.765609E+06  2.242852E+05  1.677536E+05 -1.346782E+05  8.425153E-10 -4.159230E-10
       222  11  1.902945E+06  2.569051E+05  1.944332E+05 -1.186602E+05  7.707972E-10 -1.209506E-09
       222  12  2.041810E+06  2.911736E+05  2.260371E+05 -1.347641E+05  1.404430E-09 -1.737225E-09
       222  13  8.071341E+05 -3.289980E+02  1.723663E+03 -1.352146E+05  1.181786E-10 -1.661306E-10
       222  14  8.067956E+05 -2.729805E+02  2.962121E+03 -1.191522E+05  7.550175E-10 -6.814701E-10
       222  15  8.070335E+05  4.989658E+02  5.389035E+03 -1.352153E+05 -4.049356E-10 -7.190578E-10
       222  16 -1.504417E+05 -2.249926E+05 -1.643382E+05 -1.357501E+05 -2.171494E-09  2.943967E-10
       222  17 -2.881799E+05 -2.575162E+05 -1.885518E+05 -1.196435E+05 -1.567388E-09  1.674188E-09
       222  18 -4.262603E+05 -2.902600E+05 -2.153172E+05 -1.356656E+05 -1.699780E-09  6.916576E-10
       222  19  1.765610E+06  2.242903E+05  1.677629E+05 -1.346790E+05 -1.512350E+04  6.891674E+04
       222  20  1.902946E+06  2.569115E+05  1.944446E+05 -1.186607E+05 -8.257605E+03  7.729726E+04
       222  21  2.041812E+06  2.911809E+05  2.260499E+05 -1.347642E+05 -1.393842E+03  8.238297E+04
       222  22  8.071354E+05 -3.238931E+02  1.732599E+03 -1.352145E+05  1.274681E+03  6.893276E+04
       222  23  8.067972E+05 -2.665569E+02  2.973373E+03 -1.191521E+05  2.748291E+03  7.731614E+04
       222  24  8.070353E+05  5.062647E+02  5.401833E+03 -1.352150E+05  4.218220E+03  8.240179E+04
       222  25 -1.504401E+05 -2.249874E+05 -1.643286E+05 -1.357492E+05  1.764837E+04  6.894877E+04
       222  26 -2.881781E+05 -2.575097E+05 -1.885402E+05 -1.196426E+05  1.373538E+04  7.733503E+04
       222  27 -4.262583E+05 -2.902527E+05 -2.153042E+05 -1.356650E+05  9.819460E+03  8.242063E+04
       223   1  2.135381E+06  3.128369E+05  2.461927E+05 -1.320770E+05  5.400128E+03 -8.675192E+04
       223   2  2.266429E+06  3.531832E+05  2.988986E+05 -1.250198E+05 -6.447765E+04 -7.394041E+04
       223   3  2.413284E+06  4.190625E+05  4.034466E+05 -1.477697E+05 -1.344488E+05 -2.247679E+04
       223   4  8.079408E+05 -2.245447E+01  7.081264E+03 -1.346945E+05 -5.140405E+03 -8.677803E+04
       223   5  8.054475E+05  4.306245E+03  1.278368E+04 -1.198055E+05 -1.172778E+04 -7.388986E+04
       223   6  8.078039E+05  2.323199E+04  2.648309E+04 -1.347219E+05 -1.838942E+04 -2.230982E+04
       223   7 -5.177883E+05 -3.129799E+05 -2.320985E+05 -1.373064E+05 -1.565908E+04 -8.680409E+04
       223   8 -6.534878E+05 -3.446974E+05 -2.734236E+05 -1.146042E+05  4.090101E+04 -7.383838E+04
       223   9 -7.952815E+05 -3.727738E+05 -3.506063E+05 -1.217086E+05  9.737257E+04 -2.213778E+04
       223  10  2.135379E+06  3.128288E+05  2.461785E+05 -1.320766E+05  3.528604E-09 -2.348325E-09
       223  11  2.266423E+06  3.531762E+05  2.988806E+05 -1.250237E+05 -8.661887E-10 -3.966872E-09
       223  12  2.413265E+06  4.190571E+05  4.034118E+05 -1.477721E+05 -3.831978E-09 -1.120853E-09
       223  13  8.079387E+05 -3.055107E+01  7.067057E+03 -1.346948E+05 -1.581559E-09 -5.135668E-09
       223  14  8.054459E+05  4.300343E+03  1.277316E+04 -1.198062E+05  1.259525E-09  2.407690E-09
       223  15  8.078034E+05  2.323136E+04  2.648152E+04 -1.347223E+05 -5.075118E-10 -2.329599E-10
       223  16 -5.177906E+05 -3.129881E+05 -2.321131E+05 -1.373075E+05 -3.085762E-09 -5.507331E-10
       223  17 -6.534911E+05 -3.447037E+05 -2.734370E+05 -1.146017E+05  1.870917E-09  1.647298E-09
       223  18 -7.952919E+05 -3.727769E+05 -3.506251E+05 -1.217069E+05  3.442584E-09 -1.766034E-09
       223  19  2.135381E+06  3.128369E+05  2.461927E+05 -1.320770E+05 -5.400128E+03  8.675192E+04
       223  20  2.266429E+06  3.531832E+05  2.988986E+05 -1.250198E+05  6.447765E+04  7.394041E+04
       223  21  2.413284E+06  4.190625E+05  4.034466E+05 -1.477697E+05  1.344488E+05  2.247679E+04
       223  22  8.079408E+05 -2.245447E+01  7.081264E+03 -1.346945E+05  5.140405E+03  8.677803E+04
       223  23  8.054475E+05  4.306245E+03  1.278368E+04 -1.198055E+05  1.172778E+04  7.388986E+04
       223  24  8.078039E+05  2.323199E+04  2.648309E+04 -1.347219E+05  1.838942E+04  2.230982E+04
       223  25 -5.177883E+05 -3.129799E+05 -2.320985E+05 -1.373064E+05  1.565908E+04  8.680409E+04
       223  26 -6.534878E+05 -3.446974E+05 -2.734236E+05 -1.146042E+05 -4.090101E+04  7.383838E+04
       223  27 -7.952815E+05 -3.727738E+05 -3.506063E+05 -1.217086E+05 -9.737257E+04  2.213778E+04
       224   1  5.290860E+05  2.130152E+06  5.123683E+05 -5.234919E+05  2.200677E+04  1.344421E+05
       224   2  3.665969E+05  1.608905E+06  3.208003E+05 -4.546322E+05  6.594085E+04  4.215252E+04
       224   3  2.374798E+05  1.108085E+06  1.974989E+05 -5.018897E+05  5.908329E+04 -5.011691E+04
       224   4  3.134750E+04  1.179042E+05  3.362311E+04 -5.018292E+05  2.224354E+04  2.129896E+04
       224   5  7.549274E+03  1.152401E+05  1.792561E+04 -4.437962E+05  6.602132E+04  1.217119E+04
       224   6  2.773498E+03  1.183982E+05  1.289592E+04 -5.018882E+05  5.895469E+04  2.986103E+03
       224   7 -4.666743E+05 -1.890608E+06 -4.453573E+05 -4.802335E+05  2.247294E+04 -9.148025E+04
       224   8 -3.516362E+05 -1.376303E+06 -2.850618E+05 -4.329849E+05  6.610088E+04 -1.773954E+04
       224   9 -2.319877E+05 -8.703357E+05 -1.717383E+05 -5.018857E+05  5.882596E+04  5.600673E+04
       224  10  5.290806E+05  2.130132E+06  5.123335E+05 -5.234943E+05 -2.288793E-10  2.073610E-09
       224  11  3.665917E+05  1.608902E+06  3.207888E+05 -4.546344E+05  2.010887E-09  2.541153E-09
       224  12  2.374754E+05  1.108081E+06  1.974876E+05 -5.018873E+05  1.449733E-09 -1.368348E-09
       224  13  3.134685E+04  1.179036E+05  3.362133E+04 -5.018295E+05  2.435360E-09  8.174078E-12
       224  14  7.544553E+03  1.152388E+05  1.791714E+04 -4.437968E+05  6.169689E-10  8.140899E-10
       224  15  2.769763E+03  1.183973E+05  1.288937E+04 -5.018883E+05  1.571778E-09  1.762690E-10
       224  16 -4.666771E+05 -1.890617E+06 -4.453740E+05 -4.802319E+05  5.855486E-10 -2.761404E-09
       224  17 -3.516409E+05 -1.376305E+06 -2.850706E+05 -4.329839E+05  2.805934E-09 -8.073207E-10
       224  18 -2.319923E+05 -8.703400E+05 -1.717508E+05 -5.018883E+05  7.492327E-10  2.919182E-09
       224  19  5.290860E+05  2.130152E+06  5.123683E+05 -5.234919E+05 -2.200677E+04 -1.344421E+05
       224  20  3.665969E+05  1.608905E+06  3.208003E+05 -4.546322E+05 -6.594085E+04 -4.215252E+04
       224  21  2.374798E+05  1.108085E+06  1.974989E+05 -5.018897E+05 -5.908329E+04  5.011691E+04
       224  22  3.134750E+04  1.179042E+05  3.362311E+04 -5.018292E+05 -2.224354E+04 -2.129896E+04
       224  23  7.549274E+03  1.152401E+05  1.792561E+04 -4.437962E+05 -6.602132E+04 -1.217119E+04
       224  24  2.773498E+03  1.183982E+05  1.289592E+04 -5.018882E+05 -5.895469E+04 -2.986103E+03
       224  25 -4.666743E+05 -1.890608E+06 -4.453573E+05 -4.802335E+05 -2.247294E+04  9.148025E+04
       224  26 -3.516362E+05 -1.376303E+06 -2.850618E+05 -4.329849E+05 -6.610088E+04  1.773954E+04
       224  27 -2.319877E+05 -8.703357E+05 -1.717383E+05 -5.018857E+05 -5.882596E+04 -5.600673E+04
       225   1  1.580457E+05  7.694882E+05  1.337139E+05 -5.048208E+05  3.910403E+04 -4.614584E+04
       225   2  3.591324E+04  2.583575E+05  3.840169E+04 -4.430153E+05  1.001420E+04 -5.386582E+04
       225   3 -8.224758E+04 -2.510192E+05 -5.104714E+04 -5.003468E+05 -1.964208E+04 -6.158415E+04
       225   4  3.410356E+03  1.175084E+05  1.221832E+04 -5.025511E+05  3.898194E+04  9.322463E+02
       225   5  2.645558E+03  1.168620E+05  1.352010E+04 -4.429798E+05  9.887529E+03 -5.878583E+03
       225   6  5.706398E+03  1.175556E+05  2.005224E+04 -5.025454E+05 -1.977391E+04 -1.269374E+04
       225   7 -1.512482E+05 -5.340555E+05 -1.092871E+05 -5.002835E+05  3.886012E+04  4.796219E+04
       225   8 -3.062198E+04 -2.460891E+04 -1.135358E+04 -4.429442E+05  9.760846E+03  4.209804E+04
       225   9  9.365360E+04  4.862662E+05  9.115430E+04 -5.047452E+05 -1.990603E+04  3.622504E+04
       225  10  1.580434E+05  7.694855E+05  1.337071E+05 -5.048194E+05  1.027183E-09 -3.803165E-10
       225  11  3.591235E+04  2.583544E+05  3.839606E+04 -4.430149E+05  1.055820E-09  1.865483E-09
       225  12 -8.224901E+04 -2.510234E+05 -5.105500E+04 -5.003478E+05  1.137527E-09 -1.833479E-09
       225  13  3.408724E+03  1.175080E+05  1.221546E+04 -5.025512E+05  1.058699E-09  1.999573E-11
       225  14  2.645444E+03  1.168620E+05  1.351985E+04 -4.429797E+05  1.039771E-09  9.252832E-10
       225  15  5.705935E+03  1.175553E+05  2.005120E+04 -5.025456E+05  1.512555E-10  2.420857E-10
       225  16 -1.512504E+05 -5.340584E+05 -1.092943E+05 -5.002850E+05  1.379292E-09 -6.374028E-10
       225  17 -3.062255E+04 -2.461084E+04 -1.135709E+04 -4.429445E+05 -1.863157E-09  2.924630E-10
       225  18  9.365282E+04  4.862647E+05  9.115110E+04 -5.047446E+05 -3.396925E-10  3.451058E-09
       225  19  1.580457E+05  7.694882E+05  1.337139E+05 -5.048208E+05 -3.910403E+04  4.614584E+04
       225  20  3.591324E+04  2.583575E+05  3.840169E+04 -4.430153E+05 -1.001420E+04  5.386582E+04
       225  21 -8.224758E+04 -2.510192E+05 -5.104714E+04 -5.003468E+05  1.964208E+04  6.158415E+04
       225  22  3.410356E+03  1.175084E+05  1.221832E+04 -5.025511E+05 -3.898194E+04 -9.322463E+02
       225  23  2.645558E+03  1.168620E+05  1.352010E+04 -4.429798E+05 -9.887529E+03  5.878583E+03
       225  24  5.706398E+03  1.175556E+05  2.005224E+04 -5.025454E+05  1.977391E+04  1.269374E+04
       225  25 -1.512482E+05 -5.340555E+05 -1.092871E+05 -5.002835E+05 -3.886012E+04 -4.796219E+04
       225  26 -3.062198E+04 -2.460891E+04 -1.135358E+04 -4.429442E+05 -9.760846E+03 -4.209804E+04
       225  27  9.365360E+04  4.862662E+05  9.115430E+04 -5.047452E+05  1.990603E+04 -3.622504E+04
       226   1 -1.638124E+05 -5.850489E+05 -1.087351E+05 -5.058154E+05 -3.986420E+04 -7.011393E+04
       226   2 -2.736283E+05 -1.096451E+06 -2.047469E+05 -4.196021E+05 -5.101998E+04 -2.055028E+04
       226   3 -3.469801E+05 -1.605175E+06 -3.240215E+05 -4.499784E+05 -1.799786E+04  2.903142E+04
       226   4  4.086865E+03  1.205008E+05  2.513476E+04 -5.019922E+05 -4.000448E+04 -1.615510E+04
       226   5  1.815315E+04  1.128469E+05  4.351471E+04 -4.436325E+05 -5.096837E+04 -3.861827E+04
       226   6  8.115918E+04  1.200970E+05  8.865656E+04 -5.018260E+05 -1.779817E+04 -6.102267E+04
       226   7  1.719587E+05  8.265372E+05  1.589934E+05 -4.981640E+05 -4.014400E+04  3.786362E+04
       226   8  3.098447E+05  1.323536E+06  2.916998E+05 -4.677093E+05 -5.091543E+04 -5.672082E+04
       226   9  5.090966E+05  1.848124E+06  5.011564E+05 -5.538161E+05 -1.758378E+04 -1.513262E+05
       226  10 -1.638155E+05 -5.850546E+05 -1.087473E+05 -5.058177E+05  1.477660E-09  1.623517E-11
       226  11 -2.736312E+05 -1.096452E+06 -2.047526E+05 -4.196029E+05  4.711972E-10  3.556279E-09
       226  12 -3.469807E+05 -1.605176E+06 -3.240237E+05 -4.499780E+05 -3.780206E-10  1.154873E-09
       226  13  4.085076E+03  1.205000E+05  2.513126E+04 -5.019927E+05  6.741884E-10 -5.074709E-11
       226  14  1.814996E+04  1.128446E+05  4.350702E+04 -4.436340E+05 -1.014158E-09  9.092925E-10
       226  15  8.115784E+04  1.200929E+05  8.864896E+04 -5.018269E+05  2.989400E-10  1.501525E-10
       226  16  1.719565E+05  8.265352E+05  1.589877E+05 -4.981628E+05 -1.772728E-09 -8.477227E-10
       226  17  3.098410E+05  1.323532E+06  2.916889E+05 -4.677116E+05 -3.070820E-09 -1.229656E-09
       226  18  5.090902E+05  1.848099E+06  5.011129E+05 -5.538183E+05 -7.123052E-10  1.692943E-10
       226  19 -1.638124E+05 -5.850489E+05 -1.087351E+05 -5.058154E+05  3.986420E+04  7.011393E+04
       226  20 -2.736283E+05 -1.096451E+06 -2.047469E+05 -4.196021E+05  5.101998E+04  2.055028E+04
       226  21 -3.469801E+05 -1.605175E+06 -3.240215E+05 -4.499784E+05  1.799786E+04 -2.903142E+04
       226  22  4.086865E+03  1.205008E+05  2.513476E+04 -5.019922E+05  4.000448E+04  1.615510E+04
       226  23  1.815315E+04  1.128469E+05  4.351471E+04 -4.436325E+05  5.096837E+04  3.861827E+04
       226  24  8.115918E+04  1.200970E+05  8.865656E+04 -5.018260E+05  1.779817E+04  6.102267E+04
       226  25  1.719587E+05  8.265372E+05  1.589934E+05 -4.981640E+05  4.014400E+04 -3.786362E+04
       226  26  3.098447E+05  1.323536E+06  2.916998E+05 -4.677093E+05  5.091543E+04  5.672082E+04
       226  27  5.090966E+05  1.848124E+06  5.011564E+05 -5.538161E+05  1.758378E+04  1.513262E+05
       227   1 -1.338773E+06 -6.111113E+05 -3.489218E+05 -5.427929E+05 -1.549507E+05 -4.541796E+04
       227   2 -1.260816E+06 -4.374077E+05 -2.150652E+05 -5.094052E+05 -9.685891E+04  5.227659E+03
       227   3 -1.208803E+06 -3.638376E+05 -1.546949E+05 -4.731032E+05 -3.094553E+04  3.513021E+04
       227   4 -6.224028E+05 -2.692030E+05 -1.492895E+05 -2.719652E+05 -1.006894E+05 -2.503734E+04
       227   5 -6.043518E+05 -1.642800E+05 -6.869638E+04 -2.952034E+05 -7.421060E+04  1.373098E+04
       227   6 -6.059344E+05 -1.531716E+05 -3.646319E+04 -3.155436E+05 -3.992445E+04  3.175292E+04
       227   7  9.447937E+04  7.283539E+04  5.030591E+04 -8.244967E+02 -4.636036E+04 -4.615157E+03
       227   8  5.255468E+04  1.089167E+05  7.764740E+04 -8.078128E+04 -5.153654E+04  2.224690E+04
       227   9 -2.686825E+03  5.751968E+04  8.175314E+04 -1.578445E+05 -4.891280E+04  2.837244E+04
       227  10 -1.338799E+06 -6.111200E+05 -3.489709E+05 -5.427986E+05  6.196053E-10 -2.004423E-10
       227  11 -1.260827E+06 -4.374103E+05 -2.150829E+05 -5.094048E+05 -9.309298E-11 -2.193659E-11
       227  12 -1.208804E+06 -3.638392E+05 -1.546990E+05 -4.731024E+05  1.060258E-09 -5.061559E-11
       227  13 -6.224138E+05 -2.692064E+05 -1.493098E+05 -2.719672E+05 -1.021279E-09  1.187476E-09
       227  14 -6.043578E+05 -1.642817E+05 -6.870709E+04 -2.952026E+05  1.038951E-09 -9.963057E-11
       227  15 -6.059364E+05 -1.531732E+05 -3.646808E+04 -3.155426E+05 -4.769340E-10  1.161303E-09
       227  16  9.447705E+04  7.283479E+04  5.030184E+04 -8.246690E+02 -5.992559E-10  6.178335E-10
       227  17  5.255170E+04  1.089155E+05  7.764148E+04 -8.078036E+04  1.319075E-09 -6.706339E-10
       227  18 -2.689609E+03  5.751818E+04  8.174713E+04 -1.578434E+05  6.125359E-10  1.295227E-09
       227  19 -1.338773E+06 -6.111113E+05 -3.489218E+05 -5.427929E+05  1.549507E+05  4.541796E+04
       227  20 -1.260816E+06 -4.374077E+05 -2.150652E+05 -5.094052E+05  9.685891E+04 -5.227659E+03
       227  21 -1.208803E+06 -3.638376E+05 -1.546949E+05 -4.731032E+05  3.094553E+04 -3.513021E+04
       227  22 -6.224028E+05 -2.692030E+05 -1.492895E+05 -2.719652E+05  1.006894E+05  2.503734E+04
       227  23 -6.043518E+05 -1.642800E+05 -6.869638E+04 -2.952034E+05  7.421060E+04 -1.373098E+04
       227  24 -6.059344E+05 -1.531716E+05 -3.646319E+04 -3.155436E+05  3.992445E+04 -3.175292E+04
       227  25  9.447937E+04  7.283539E+04  5.030591E+04 -8.244967E+02  4.636036E+04  4.615157E+03
       227  26  5.255468E+04  1.089167E+05  7.764740E+04 -8.078128E+04  5.153654E+04 -2.224690E+04
       227  27 -2.686825E+03  5.751968E+04  8.175314E+04 -1.578445E+05  4.891280E+04 -2.837244E+04
       228   1 -1.137597E+06 -3.536763E+05 -1.338264E+05 -4.634396E+05 -2.894839E+04  3.181403E+04
       228   2 -1.058399E+06 -3.086498E+05 -1.017932E+05 -4.307101E+05 -1.758367E+04  3.111058E+04
       228   3 -9.663078E+05 -2.835140E+05 -7.810624E+04 -4.152348E+05 -5.635105E+03  2.885054E+04
       228   4 -6.013575E+05 -1.562046E+05 -2.769759E+04 -3.126614E+05 -3.441985E+04  2.975531E+04
       228   5 -6.076773E+05 -1.440521E+05 -1.462502E+04 -3.049441E+05 -2.542382E+04  2.816393E+04
       228   6 -6.006399E+05 -1.513182E+05 -8.014713E+03 -3.144834E+05 -1.584553E+04  2.501603E+04
       228   7 -6.482423E+04  4.129197E+04  7.841663E+04 -1.617632E+05 -3.989634E+04  2.769466E+04
       228   8 -1.567445E+05  2.056411E+04  7.253454E+04 -1.790931E+05 -3.327008E+04  2.521498E+04
       228   9 -2.348294E+05 -1.910954E+04  6.207246E+04 -2.136761E+05 -2.606249E+04  2.117910E+04
       228  10 -1.137598E+06 -3.536776E+05 -1.338299E+05 -4.634388E+05  2.403527E-09  5.886336E-10
       228  11 -1.058399E+06 -3.086509E+05 -1.017956E+05 -4.307097E+05 -5.663965E-10 -7.326108E-11
       228  12 -9.663080E+05 -2.835149E+05 -7.810787E+04 -4.152346E+05 -8.121254E-10 -4.197229E-10
       228  13 -6.013590E+05 -1.562059E+05 -2.770148E+04 -3.126606E+05 -4.917482E-11  3.056981E-10
       228  14 -6.076782E+05 -1.440532E+05 -1.462772E+04 -3.049435E+05 -1.694037E-10 -9.637400E-10
       228  15 -6.006404E+05 -1.513190E+05 -8.016361E+03 -3.144831E+05 -4.562270E-10 -3.869209E-10
       228  16 -6.482615E+04  4.129072E+04  7.841220E+04 -1.617624E+05 -1.520390E-09  6.777966E-11
       228  17 -1.567458E+05  2.056313E+04  7.253127E+04 -1.790925E+05 -4.434139E-10  2.684009E-10
       228  18 -2.348302E+05 -1.911020E+04  6.207035E+04 -2.136757E+05  8.780792E-10  1.267157E-10
       228  19 -1.137597E+06 -3.536763E+05 -1.338264E+05 -4.634396E+05  2.894839E+04 -3.181403E+04
       228  20 -1.058399E+06 -3.086498E+05 -1.017932E+05 -4.307101E+05  1.758367E+04 -3.111058E+04
       228  21 -9.663078E+05 -2.835140E+05 -7.810624E+04 -4.152348E+05  5.635105E+03 -2.885054E+04
       228  22 -6.013575E+05 -1.562046E+05 -2.769759E+04 -3.126614E+05  3.441985E+04 -2.975531E+04
       228  23 -6.076773E+05 -1.440521E+05 -1.462502E+04 -3.049441E+05  2.542382E+04 -2.816393E+04
       228  24 -6.006399E+05 -1.513182E+05 -8.014713E+03 -3.144834E+05  1.584553E+04 -2.501603E+04
       228  25 -6.482423E+04  4.129197E+04  7.841663E+04 -1.617632E+05  3.989634E+04 -2.769466E+04
       228  26 -1.567445E+05  2.056411E+04  7.253454E+04 -1.790931E+05  3.327008E+04 -2.521498E+04
       228  27 -2.348294E+05 -1.910954E+04  6.207246E+04 -2.136761E+05  2.606249E+04 -2.117910E+04
       229   1 -9.078845E+05 -2.630334E+05 -6.462083E+04 -3.995532E+05 -3.305863E+03  2.526913E+04
       229   2 -8.291520E+05 -2.236379E+05 -4.549705E+04 -3.665781E+05  1.003751E+03  1.937894E+04
       229   3 -7.349688E+05 -2.002157E+05 -2.779190E+04 -3.516475E+05  5.356706E+03  1.336983E+04
       229   4 -6.002891E+05 -1.514648E+05 -6.031346E+03 -3.143094E+05 -1.325923E+04  2.153210E+04
       229   5 -6.080125E+05 -1.434317E+05 -3.325404E+03 -3.053070E+05 -9.130635E+03  1.557506E+04
       229   6 -6.002571E+05 -1.513361E+05 -1.894265E+03 -3.143515E+05 -4.958991E+03  9.499061E+03
       229   7 -2.925949E+05 -3.988773E+04  5.255459E+04 -2.290263E+05 -2.321788E+04  1.779309E+04
       229   8 -3.868228E+05 -6.322151E+04  3.884435E+04 -2.440159E+05 -1.926884E+04  1.176976E+04
       229   9 -4.655275E+05 -1.024553E+05  2.400271E+04 -2.770483E+05 -1.527700E+04  5.627430E+03
       229  10 -9.078847E+05 -2.630341E+05 -6.462205E+04 -3.995531E+05 -3.053537E-10 -3.546112E-10
       229  11 -8.291521E+05 -2.236383E+05 -4.549776E+04 -3.665781E+05  2.587582E-09 -1.489027E-10
       229  12 -7.349689E+05 -2.002159E+05 -2.779229E+04 -3.516475E+05  9.668151E-10 -1.222343E-09
       229  13 -6.002894E+05 -1.514654E+05 -6.032548E+03 -3.143091E+05  1.670243E-09  2.002478E-10
       229  14 -6.080126E+05 -1.434320E+05 -3.326016E+03 -3.053069E+05  2.315808E-10 -1.343196E-10
       229  15 -6.002572E+05 -1.513362E+05 -1.894481E+03 -3.143514E+05 -4.638102E-09 -2.679627E-09
       229  16 -2.925956E+05 -3.988821E+04  5.255298E+04 -2.290260E+05  2.199739E-09  7.063151E-10
       229  17 -3.868232E+05 -6.322176E+04  3.884339E+04 -2.440157E+05 -1.464602E-09 -2.716693E-10
       229  18 -4.655277E+05 -1.024554E+05  2.400221E+04 -2.770482E+05 -9.899404E-09 -3.969304E-09
       229  19 -9.078845E+05 -2.630334E+05 -6.462083E+04 -3.995532E+05  3.305863E+03 -2.526913E+04
       229  20 -8.291520E+05 -2.236379E+05 -4.549705E+04 -3.665781E+05 -1.003751E+03 -1.937894E+04
       229  21 -7.349688E+05 -2.002157E+05 -2.779190E+04 -3.516475E+05 -5.356706E+03 -1.336983E+04
       229  22 -6.002891E+05 -1.514648E+05 -6.031346E+03 -3.143094E+05  1.325923E+04 -2.153210E+04
       229  23 -6.080125E+05 -1.434317E+05 -3.325404E+03 -3.053070E+05  9.130635E+03 -1.557506E+04
       229  24 -6.002571E+05 -1.513361E+05 -1.894265E+03 -3.143515E+05  4.958991E+03 -9.499061E+03
       229  25 -2.925949E+05 -3.988773E+04  5.255459E+04 -2.290263E+05  2.321788E+04 -1.779309E+04
       229  26 -3.868228E+05 -6.322151E+04  3.884435E+04 -2.440159E+05  1.926884E+04 -1.176976E+04
       229  27 -4.655275E+05 -1.024553E+05  2.400271E+04 -2.770483E+05  1.527700E+04 -5.627430E+03
       230   1 -6.772220E+05 -1.792106E+05 -1.590153E+04 -3.356711E+05  7.094972E+03  9.533746E+03
       230   2 -5.985812E+05 -1.399779E+05  8.385280E+02 -3.026252E+05  1.012106E+04  2.969243E+03
       230   3 -5.042389E+05 -1.165193E+05  1.721029E+04 -2.876287E+05  1.315008E+04 -3.602837E+03
       230   4 -6.002134E+05 -1.513434E+05 -1.473585E+03 -3.143356E+05 -3.203360E+03  5.669811E+03
       230   5 -6.080616E+05 -1.434651E+05 -9.659969E+02 -3.053058E+05 -1.896581E+02 -8.994188E+02
       230   6 -6.002158E+05 -1.513601E+05 -8.177462E+02 -3.143293E+05  2.826901E+03 -7.476227E+03
       230   7 -5.231976E+05 -1.234754E+05  1.295478E+04 -2.929973E+05 -1.350315E+04  1.805331E+03
       230   8 -6.175417E+05 -1.469523E+05 -2.770082E+03 -3.079864E+05 -1.050025E+04 -4.768033E+03
       230   9 -6.961828E+05 -1.862000E+05 -1.884570E+04 -3.410260E+05 -7.494577E+03 -1.134898E+04
       230  10 -6.772221E+05 -1.792107E+05 -1.590180E+04 -3.356712E+05 -7.924308E-09 -4.077802E-09
       230  11 -5.985813E+05 -1.399779E+05  8.383187E+02 -3.026252E+05 -1.858624E-09 -3.339077E-11
       230  12 -5.042391E+05 -1.165194E+05  1.720994E+04 -2.876287E+05  1.221606E-09  1.239833E-09
       230  13 -6.002134E+05 -1.513435E+05 -1.473665E+03 -3.143356E+05 -4.046174E-09 -3.067368E-09
       230  14 -6.080616E+05 -1.434651E+05 -9.659985E+02 -3.053058E+05  6.162483E-10 -6.997274E-10
       230  15 -6.002158E+05 -1.513602E+05 -8.178662E+02 -3.143293E+05 -1.174051E-09  7.536443E-10
       230  16 -5.231978E+05 -1.234754E+05  1.295443E+04 -2.929973E+05 -1.313849E-09 -1.469132E-09
       230  17 -6.175418E+05 -1.469523E+05 -2.770332E+03 -3.079864E+05  2.485172E-09 -6.251375E-10
       230  18 -6.961829E+05 -1.862002E+05 -1.884604E+04 -3.410261E+05 -4.870377E-11  6.777535E-10
       230  19 -6.772220E+05 -1.792106E+05 -1.590153E+04 -3.356711E+05 -7.094972E+03 -9.533746E+03
       230  20 -5.985812E+05 -1.399779E+05  8.385280E+02 -3.026252E+05 -1.012106E+04 -2.969243E+03
       230  21 -5.042389E+05 -1.165193E+05  1.721029E+04 -2.876287E+05 -1.315008E+04  3.602837E+03
       230  22 -6.002134E+05 -1.513434E+05 -1.473585E+03 -3.143356E+05  3.203360E+03 -5.669811E+03
       230  23 -6.080616E+05 -1.434651E+05 -9.659969E+02 -3.053058E+05  1.896581E+02  8.994188E+02
       230  24 -6.002158E+05 -1.513601E+05 -8.177462E+02 -3.143293E+05 -2.826901E+03  7.476227E+03
       230  25 -5.231976E+05 -1.234754E+05  1.295478E+04 -2.929973E+05  1.350315E+04 -1.805331E+03
       230  26 -6.175417E+05 -1.469523E+05 -2.770082E+03 -3.079864E+05  1.050025E+04  4.768033E+03
       230  27 -6.961828E+05 -1.862000E+05 -1.884570E+04 -3.410260E+05  7.494577E+03  1.134898E+04
       231   1 -4.465643E+05 -9.548948E+04  2.863964E+04 -2.716379E+05  1.476528E+04 -7.486031E+03
       231   2 -3.679629E+05 -5.627284E+04  4.454138E+04 -2.386035E+05  1.785819E+04 -1.402851E+04
       231   3 -2.736710E+05 -3.281927E+04  6.002847E+04 -2.236074E+05  2.094739E+04 -2.055682E+04
       231   4 -6.002231E+05 -1.513618E+05 -8.525131E+02 -3.143272E+05  4.443147E+03 -1.135939E+04
       231   5 -6.080701E+05 -1.434835E+05 -1.162534E+03 -3.053073E+05  7.556298E+03 -1.789548E+04
       231   6 -6.002381E+05 -1.513732E+05 -1.903298E+03 -3.143288E+05  1.066567E+04 -2.441744E+04
       231   7 -7.538558E+05 -2.072313E+05 -3.034484E+04 -3.570063E+05 -5.876157E+03 -1.523169E+04
       231   8 -8.481171E+05 -2.306889E+05 -4.686839E+04 -3.719870E+05 -2.741324E+03 -2.176085E+04
       231   9 -9.266966E+05 -2.699185E+05 -6.383980E+04 -4.050066E+05  3.896528E+02 -2.827592E+04
       231  10 -4.465645E+05 -9.548960E+04  2.863913E+04 -2.716378E+05 -5.632797E-10  1.084904E-09
       231  11 -3.679633E+05 -5.627314E+04  4.454041E+04 -2.386033E+05 -1.630106E-10  7.625453E-10
       231  12 -2.736716E+05 -3.281984E+04  6.002685E+04 -2.236071E+05 -2.074374E-09  4.900701E-10
       231  13 -6.002232E+05 -1.513619E+05 -8.527926E+02 -3.143272E+05 -7.170582E-10  8.776751E-10
       231  14 -6.080703E+05 -1.434839E+05 -1.163243E+03 -3.053071E+05  5.774341E-10  8.664362E-10
       231  15 -6.002384E+05 -1.513739E+05 -1.904632E+03 -3.143286E+05  4.458696E-10  7.713492E-10
       231  16 -7.538559E+05 -2.072316E+05 -3.034534E+04 -3.570064E+05 -3.325119E-11  8.780531E-10
       231  17 -8.481172E+05 -2.306894E+05 -4.686929E+04 -3.719870E+05  6.073411E-10  1.114183E-09
       231  18 -9.266968E+05 -2.699194E+05 -6.384130E+04 -4.050066E+05  3.013983E-10  1.704337E-09
       231  19 -4.465643E+05 -9.548948E+04  2.863964E+04 -2.716379E+05 -1.476528E+04  7.486031E+03
       231  20 -3.679629E+05 -5.627284E+04  4.454138E+04 -2.386035E+05 -1.785819E+04  1.402851E+04
       231  21 -2.736710E+05 -3.281927E+04  6.002847E+04 -2.236074E+05 -2.094739E+04  2.055682E+04
       231  22 -6.002231E+05 -1.513618E+05 -8.525131E+02 -3.143272E+05 -4.443147E+03  1.135939E+04
       231  23 -6.080701E+05 -1.434835E+05 -1.162534E+03 -3.053073E+05 -7.556298E+03  1.789548E+04
       231  24 -6.002381E+05 -1.513732E+05 -1.903298E+03 -3.143288E+05 -1.066567E+04  2.441744E+04
       231  25 -7.538558E+05 -2.072313E+05 -3.034484E+04 -3.570063E+05  5.876157E+03  1.523169E+04
       231  26 -8.481171E+05 -2.306889E+05 -4.686839E+04 -3.719870E+05  2.741324E+03  2.176085E+04
       231  27 -9.266966E+05 -2.699185E+05 -6.383980E+04 -4.050066E+05 -3.896528E+02  2.827592E+04
       232   1 -2.160871E+05 -1.182401E+04  7.090012E+04 -2.076716E+05  2.280698E+04 -2.433936E+04
       232   2 -1.375078E+05  2.735177E+04  8.521487E+04 -1.746713E+05  2.728095E+04 -3.026371E+04
       232   3 -4.349448E+04  5.060039E+04  9.802501E+04 -1.596780E+05  3.169868E+04 -3.602957E+04
       232   4 -6.003063E+05 -1.513671E+05 -2.485530E+03 -3.143457E+05  1.250492E+04 -2.820870E+04
       232   5 -6.080252E+05 -1.434782E+05 -4.430665E+03 -3.053096E+05  1.721781E+04 -3.404568E+04
       232   6 -6.003647E+05 -1.515656E+05 -8.070543E+03 -3.142846E+05  2.187412E+04 -3.972421E+04
       232   7 -9.843714E+05 -2.908969E+05 -7.587690E+04 -4.209584E+05  2.209694E+03 -3.207548E+04
       232   8 -1.078310E+06 -3.142874E+05 -9.408439E+04 -4.358553E+05  7.162877E+03 -3.782459E+04
       232   9 -1.156906E+06 -3.537018E+05 -1.141772E+05 -4.687611E+05  1.205908E+04 -4.341529E+04
       232  10 -2.160878E+05 -1.182479E+04  7.089803E+04 -2.076711E+05  9.720244E-09  3.624586E-09
       232  11 -1.375088E+05  2.735058E+04  8.521175E+04 -1.746706E+05 -1.677746E-08 -7.788443E-09
       232  12 -4.349591E+04  5.059872E+04  9.802069E+04 -1.596771E+05 -4.107220E-08 -1.669966E-08
       232  13 -6.003067E+05 -1.513680E+05 -2.487319E+03 -3.143454E+05  1.605208E-10  7.977429E-10
       232  14 -6.080259E+05 -1.434796E+05 -4.433399E+03 -3.053091E+05  1.769108E-09 -1.326582E-09
       232  15 -6.003656E+05 -1.515675E+05 -8.074406E+03 -3.142839E+05 -5.843276E-10 -2.787824E-09
       232  16 -9.843717E+05 -2.908980E+05 -7.587884E+04 -4.209584E+05 -1.006225E-08 -2.533243E-09
       232  17 -1.078310E+06 -3.142890E+05 -9.408718E+04 -4.358551E+05  1.809757E-08  5.346289E-09
       232  18 -1.156907E+06 -3.537039E+05 -1.141810E+05 -4.687607E+05  3.783649E-08  1.392728E-08
       232  19 -2.160871E+05 -1.182401E+04  7.090012E+04 -2.076716E+05 -2.280698E+04  2.433936E+04
       232  20 -1.375078E+05  2.735177E+04  8.521487E+04 -1.746713E+05 -2.728095E+04  3.026371E+04
       232  21 -4.349448E+04  5.060039E+04  9.802501E+04 -1.596780E+05 -3.169868E+04  3.602957E+04
       232  22 -6.003063E+05 -1.513671E+05 -2.485530E+03 -3.143457E+05 -1.250492E+04  2.820870E+04
       232  23 -6.080252E+05 -1.434782E+05 -4.430665E+03 -3.053096E+05 -1.721781E+04  3.404568E+04
       232  24 -6.003647E+05 -1.515656E+05 -8.070543E+03 -3.142846E+05 -2.187412E+04  3.972421E+04
       232  25 -9.843714E+05 -2.908969E+05 -7.587690E+04 -4.209584E+05 -2.209694E+03  3.207548E+04
       232  26 -1.078310E+06 -3.142874E+05 -9.408439E+04 -4.358553E+05 -7.162877E+03  3.782459E+04
       232  27 -1.156906E+06 -3.537018E+05 -1.141772E+05 -4.687611E+05 -1.205908E+04  4.341529E+04
       233   1  1.415923E+04  7.126302E+04  1.068500E+05 -1.445489E+05  3.499610E+04 -3.922327E+04
       233   2  9.183742E+04  1.110116E+05  1.152774E+05 -1.094883E+05  4.386695E+04 -4.231024E+04
       233   3  1.826755E+05  1.307618E+05  1.175226E+05 -9.135257E+04  5.197495E+04 -4.335574E+04
       233   4 -6.008349E+05 -1.513695E+05 -1.073138E+04 -3.145112E+05  2.483515E+04 -4.304598E+04
       233   5 -6.075880E+05 -1.443386E+05 -1.960004E+04 -3.048238E+05  3.681324E+04 -4.496834E+04
       233   6 -6.018093E+05 -1.579294E+05 -3.712117E+04 -3.120669E+05  4.802701E+04 -4.484835E+04
       233   7 -1.215441E+06 -3.739708E+05 -1.283299E+05 -4.843191E+05  1.468488E+04 -4.686473E+04
       233   8 -1.306508E+06 -3.996453E+05 -1.544994E+05 -4.999558E+05  2.976801E+04 -4.762324E+04
       233   9 -1.385657E+06 -4.465634E+05 -1.917933E+05 -5.325218E+05  4.408440E+04 -4.633891E+04
       233  10  1.415750E+04  7.126104E+04  1.068448E+05 -1.445478E+05  3.882050E-08  1.457841E-08
       233  11  9.183487E+04  1.110091E+05  1.152704E+05 -1.094868E+05  1.737592E-08  8.832354E-09
       233  12  1.826721E+05  1.307590E+05  1.175140E+05 -9.135076E+04 -6.514382E-09 -8.430116E-10
       233  13 -6.008360E+05 -1.513716E+05 -1.073602E+04 -3.145103E+05 -1.767868E-09 -2.506557E-09
       233  14 -6.075900E+05 -1.443412E+05 -1.960639E+04 -3.048224E+05 -5.997095E-10  4.073452E-09
       233  15 -6.018123E+05 -1.579322E+05 -3.712928E+04 -3.120651E+05  4.655221E-10  1.954935E-10
       233  16 -1.215442E+06 -3.739732E+05 -1.283344E+05 -4.843186E+05 -4.295723E-08 -1.595197E-08
       233  17 -1.306510E+06 -3.996480E+05 -1.545053E+05 -4.999546E+05 -1.847606E-08 -5.289623E-09
       233  18 -1.385659E+06 -4.465662E+05 -1.918010E+05 -5.325202E+05  5.480504E-09  3.346786E-09
       233  19  1.415923E+04  7.126302E+04  1.068500E+05 -1.445489E+05 -3.499610E+04  3.922327E+04
       233  20  9.183742E+04  1.110116E+05  1.152774E+05 -1.094883E+05 -4.386695E+04  4.231024E+04
       233  21  1.826755E+05  1.307618E+05  1.175226E+05 -9.135257E+04 -5.197495E+04  4.335574E+04
       233  22 -6.008349E+05 -1.513695E+05 -1.073138E+04 -3.145112E+05 -2.483515E+04  4.304598E+04
       233  23 -6.075880E+05 -1.443386E+05 -1.960004E+04 -3.048238E+05 -3.681324E+04  4.496834E+04
       233  24 -6.018093E+05 -1.579294E+05 -3.712117E+04 -3.120669E+05 -4.802701E+04  4.484835E+04
       233  25 -1.215441E+06 -3.739708E+05 -1.283299E+05 -4.843191E+05 -1.468488E+04  4.686473E+04
       233  26 -1.306508E+06 -3.996453E+05 -1.544994E+05 -4.999558E+05 -2.976801E+04  4.762324E+04
       233  27 -1.385657E+06 -4.465634E+05 -1.917933E+05 -5.325218E+05 -4.408440E+04  4.633891E+04
       234   1  2.461450E+05  1.452868E+05  1.180414E+05 -9.156178E+04  6.345684E+04 -4.295821E+04
       234   2  2.931830E+05  2.007902E+05  1.066183E+05  4.507863E+02  6.715929E+04 -3.240451E+04
       234   3  3.168305E+05  1.443210E+05  6.333358E+04  1.025403E+05  6.062217E+04  5.327518E+03
       234   4 -6.079338E+05 -1.538735E+05 -4.886915E+04 -3.159373E+05  5.490270E+04 -4.618397E+04
       234   5 -6.031575E+05 -1.714333E+05 -9.207327E+04 -2.917548E+05  1.001029E+05 -2.001520E+04
       234   6 -6.300670E+05 -3.093011E+05 -2.000824E+05 -2.574875E+05  1.350516E+05  3.334892E+04
       234   7 -1.461258E+06 -4.529839E+05 -2.158121E+05 -5.400329E+05  4.636119E+04 -4.940543E+04
       234   8 -1.498656E+06 -5.435209E+05 -2.908051E+05 -5.835449E+05  1.329948E+05 -7.651046E+03
       234   9 -1.576025E+06 -7.626711E+05 -4.635479E+05 -6.169491E+05  2.093551E+05  6.129333E+04
       234  10  2.461401E+05  1.452837E+05  1.180304E+05 -9.155959E+04  1.296598E-10  1.757346E-09
       234  11  2.931779E+05  2.007878E+05  1.066079E+05  4.525385E+02 -9.520566E-10 -3.734721E-10
       234  12  3.168265E+05  1.443200E+05  6.332662E+04  1.025400E+05  1.574643E-09  9.466776E-10
       234  13 -6.079376E+05 -1.538766E+05 -4.887882E+04 -3.159353E+05  1.924227E-09 -5.746530E-10
       234  14 -6.031683E+05 -1.714365E+05 -9.209287E+04 -2.917532E+05 -6.828731E-10  4.308041E-09
       234  15 -6.300869E+05 -3.093072E+05 -2.001188E+05 -2.574911E+05  8.252715E-11  2.662471E-09
       234  16 -1.461261E+06 -4.529871E+05 -2.158207E+05 -5.400311E+05 -4.327263E-11 -1.068855E-09
       234  17 -1.498675E+06 -5.435258E+05 -2.908385E+05 -5.835441E+05 -1.326554E-09  4.292264E-10
       234  18 -1.576073E+06 -7.626869E+05 -4.636376E+05 -6.169594E+05  3.406966E-11 -6.492832E-10
       234  19  2.461450E+05  1.452868E+05  1.180414E+05 -9.156178E+04 -6.345684E+04  4.295821E+04
       234  20  2.931830E+05  2.007902E+05  1.066183E+05  4.507863E+02 -6.715929E+04  3.240451E+04
       234  21  3.168305E+05  1.443210E+05  6.333358E+04  1.025403E+05 -6.062217E+04 -5.327518E+03
       234  22 -6.079338E+05 -1.538735E+05 -4.886915E+04 -3.159373E+05 -5.490270E+04  4.618397E+04
       234  23 -6.031575E+05 -1.714333E+05 -9.207327E+04 -2.917548E+05 -1.001029E+05  2.001520E+04
       234  24 -6.300670E+05 -3.093011E+05 -2.000824E+05 -2.574875E+05 -1.350516E+05 -3.334892E+04
       234  25 -1.461258E+06 -4.529839E+05 -2.158121E+05 -5.400329E+05 -4.636119E+04  4.940543E+04
       234  26 -1.498656E+06 -5.435209E+05 -2.908051E+05 -5.835449E+05 -1.329948E+05  7.651046E+03
       234  27 -1.576025E+06 -7.626711E+05 -4.635479E+05 -6.169491E+05 -2.093551E+05 -6.129333E+04
       235   1  1.261184E+06  1.695475E+05  1.472866E+05  6.641384E+03  1.169859E+04 -1.481280E+04
       235   2  1.207207E+06  2.136231E+05  1.432247E+05  2.951733E+04 -4.832735E+03 -4.993062E+04
       235   3  1.144407E+06  2.135469E+05  1.389308E+05  6.434039E+04 -2.140536E+04 -6.042906E+04
       235   4  2.306752E+05 -8.446446E+04 -9.430732E+04  5.741068E+04 -6.570083E+04 -1.496472E+04
       235   5  2.385991E+05 -1.759639E+04 -4.565951E+04  5.134580E+04 -4.200859E+04 -5.001637E+04
       235   6  2.307007E+05 -1.899235E+03 -2.516803E+04  5.722909E+04 -1.835859E+04 -6.042954E+04
       235   7 -7.988389E+05 -3.385388E+05 -3.359498E+05  1.080948E+05 -1.429727E+05 -1.512940E+04
       235   8 -7.291061E+05 -2.488695E+05 -2.345830E+05  7.313903E+04 -7.912777E+04 -5.010480E+04
       235   9 -6.821935E+05 -2.173917E+05 -1.892990E+05  5.012806E+04 -1.531617E+04 -6.043009E+04
       235  10  1.261184E+06  1.695473E+05  1.472859E+05  6.641523E+03  4.861761E-09 -9.040373E-10
       235  11  1.207207E+06  2.136204E+05  1.432200E+05  2.951714E+04  6.036437E-10 -5.077141E-09
       235  12  1.144406E+06  2.135429E+05  1.389230E+05  6.433935E+04 -1.854781E-09 -3.123768E-09
       235  13  2.306705E+05 -8.446586E+04 -9.431585E+04  5.740989E+04 -4.696972E-10  1.132376E-09
       235  14  2.385966E+05 -1.759955E+04 -4.566752E+04  5.134411E+04 -5.226554E-10 -3.178484E-09
       235  15  2.306993E+05 -1.903247E+03 -2.517552E+04  5.722820E+04  2.402732E-10 -2.118968E-10
       235  16 -7.988609E+05 -3.385445E+05 -3.359887E+05  1.080931E+05 -4.407912E-09  2.209681E-10
       235  17 -7.291135E+05 -2.488739E+05 -2.345995E+05  7.313584E+04  1.550296E-09 -6.972793E-09
       235  18 -6.821948E+05 -2.173957E+05 -1.893063E+05  5.012731E+04 -5.787862E-10 -6.346005E-09
       235  19  1.261184E+06  1.695475E+05  1.472866E+05  6.641384E+03 -1.169859E+04  1.481280E+04
       235  20  1.207207E+06  2.136231E+05  1.432247E+05  2.951733E+04  4.832735E+03  4.993062E+04
       235  21  1.144407E+06  2.135469E+05  1.389308E+05  6.434039E+04  2.140536E+04  6.042906E+04
       235  22  2.306752E+05 -8.446446E+04 -9.430732E+04  5.741068E+04  6.570083E+04  1.496472E+04
       235  23  2.385991E+05 -1.759639E+04 -4.565951E+04  5.134580E+04  4.200859E+04  5.001637E+04
       235  24  2.307007E+05 -1.899235E+03 -2.516803E+04  5.722909E+04  1.835859E+04  6.042954E+04
       235  25 -7.988389E+05 -3.385388E+05 -3.359498E+05  1.080948E+05  1.429727E+05  1.512940E+04
       235  26 -7.291061E+05 -2.488695E+05 -2.345830E+05  7.313903E+04  7.912777E+04  5.010480E+04
       235  27 -6.821935E+05 -2.173917E+05 -1.892990E+05  5.012806E+04  1.531617E+04  6.043009E+04
       236   1  1.108417E+06  2.023921E+05  1.366576E+05  5.777397E+04 -1.498676E+04 -5.893952E+04
       236   2  1.050824E+06  1.912193E+05  1.317827E+05  5.205945E+04 -1.313313E+04 -5.794810E+04
       236   3  9.925084E+05  1.781365E+05  1.252274E+05  5.978932E+04 -1.128662E+04 -5.485453E+04
       236   4  2.339366E+05 -3.533616E+03 -1.920613E+04  5.758760E+04 -1.507630E+04 -5.894702E+04
       236   5  2.346126E+05 -3.739564E+02 -1.058338E+04  5.085978E+04 -9.793345E+03 -5.794631E+04
       236   6  2.339664E+05  2.791143E+02 -6.023535E+03  5.757751E+04 -4.517274E+03 -5.484206E+04
       236   7 -6.397988E+05 -2.095016E+05 -1.750988E+05  5.740103E+04 -1.516571E+04 -5.895454E+04
       236   8 -5.809475E+05 -1.920033E+05 -1.529731E+05  4.966130E+04 -6.457808E+03 -5.794453E+04
       236   9 -5.240117E+05 -1.776091E+05 -1.372942E+05  5.536808E+04  2.244065E+03 -5.482963E+04
       236  10  1.108416E+06  2.023884E+05  1.366507E+05  5.777326E+04 -5.796467E-09 -3.415304E-09
       236  11  1.050823E+06  1.912157E+05  1.317761E+05  5.205884E+04 -3.426698E-09  3.069412E-09
       236  12  9.925074E+05  1.781332E+05  1.252215E+05  5.978882E+04  5.742541E-10  2.895443E-09
       236  13  2.339354E+05 -3.537409E+03 -1.921308E+04  5.758688E+04 -4.735581E-10 -2.572207E-09
       236  14  2.346116E+05 -3.775882E+02 -1.058987E+04  5.085932E+04  1.194279E-09  3.009961E-10
       236  15  2.339656E+05  2.758788E+02 -6.029226E+03  5.757731E+04  1.339262E-10 -2.585127E-09
       236  16 -6.398000E+05 -2.095054E+05 -1.751058E+05  5.740031E+04  3.806366E-09 -1.231701E-10
       236  17 -5.809484E+05 -1.920070E+05 -1.529795E+05  4.966100E+04  5.053668E-09  2.704126E-09
       236  18 -5.240125E+05 -1.776124E+05 -1.372999E+05  5.536818E+04 -4.457886E-10  5.012093E-11
       236  19  1.108417E+06  2.023921E+05  1.366576E+05  5.777397E+04  1.498676E+04  5.893952E+04
       236  20  1.050824E+06  1.912193E+05  1.317827E+05  5.205945E+04  1.313313E+04  5.794810E+04
       236  21  9.925084E+05  1.781365E+05  1.252274E+05  5.978932E+04  1.128662E+04  5.485453E+04
       236  22  2.339366E+05 -3.533616E+03 -1.920613E+04  5.758760E+04  1.507630E+04  5.894702E+04
       236  23  2.346126E+05 -3.739564E+02 -1.058338E+04  5.085978E+04  9.793345E+03  5.794631E+04
       236  24  2.339664E+05  2.791143E+02 -6.023535E+03  5.757751E+04  4.517274E+03  5.484206E+04
       236  25 -6.397988E+05 -2.095016E+05 -1.750988E+05  5.740103E+04  1.516571E+04  5.895454E+04
       236  26 -5.809475E+05 -1.920033E+05 -1.529731E+05  4.966130E+04  6.457808E+03  5.794453E+04
       236  27 -5.240117E+05 -1.776091E+05 -1.372942E+05  5.536808E+04 -2.244065E+03  5.482963E+04
       237   1  9.546737E+05  1.690488E+05  1.197639E+05  5.936745E+04 -1.009234E+04 -5.240851E+04
       237   2  8.969233E+05  1.555504E+05  1.116055E+05  5.247219E+04 -9.105138E+03 -4.834214E+04
       237   3  8.390027E+05  1.420602E+05  1.027948E+05  5.912768E+04 -8.120616E+03 -4.409807E+04
       237   4  2.342214E+05  1.863138E+02 -4.571138E+03  5.760271E+04 -3.594652E+03 -5.239571E+04
       237   5  2.343459E+05  2.772483E+02 -2.595099E+03  5.082671E+04 -2.318659E+03 -4.832691E+04
       237   6  2.342465E+05  3.262990E+02 -1.472600E+03  5.760232E+04 -1.045254E+03 -4.408029E+04
       237   7 -4.857220E+05 -1.687040E+05 -1.289238E+05  5.583970E+04  2.895736E+03 -5.238295E+04
       237   8 -4.278009E+05 -1.550194E+05 -1.168105E+05  4.918273E+04  4.460812E+03 -4.831171E+04
       237   9 -3.701509E+05 -1.414272E+05 -1.057523E+05  5.607821E+04  6.023438E+03 -4.406255E+04
       237  10  9.546729E+05  1.690459E+05  1.197586E+05  5.936703E+04  1.133000E-09  3.683582E-09
       237  11  8.969226E+05  1.555479E+05  1.116010E+05  5.247183E+04 -9.566207E-09  2.314699E-09
       237  12  8.390021E+05  1.420581E+05  1.027910E+05  5.912739E+04 -1.823551E-08 -3.492449E-10
       237  13  2.342206E+05  1.833620E+02 -4.576321E+03  5.760256E+04  5.708197E-10 -3.944486E-09
       237  14  2.343453E+05  2.747387E+02 -2.599499E+03  5.082662E+04  1.298355E-09  1.904789E-09
       237  15  2.342460E+05  3.242120E+02 -1.476253E+03  5.760228E+04  1.693487E-09  5.989352E-09
       237  16 -4.857228E+05 -1.687070E+05 -1.289290E+05  5.583983E+04 -4.409640E-10  1.720884E-09
       237  17 -4.278016E+05 -1.550219E+05 -1.168150E+05  4.918290E+04  1.154657E-08  4.017343E-09
       237  18 -3.701515E+05 -1.414293E+05 -1.057560E+05  5.607842E+04  1.895774E-08  3.841784E-10
       237  19  9.546737E+05  1.690488E+05  1.197639E+05  5.936745E+04  1.009234E+04  5.240851E+04
       237  20  8.969233E+05  1.555504E+05  1.116055E+05  5.247219E+04  9.105138E+03  4.834214E+04
       237  21  8.390027E+05  1.420602E+05  1.027948E+05  5.912768E+04  8.120616E+03  4.409807E+04
       237  22  2.342214E+05  1.863138E+02 -4.571138E+03  5.760271E+04  3.594652E+03  5.239571E+04
       237  23  2.343459E+05  2.772483E+02 -2.595099E+03  5.082671E+04  2.318659E+03  4.832691E+04
       237  24  2.342465E+05  3.262990E+02 -1.472600E+03  5.760232E+04  1.045254E+03  4.408029E+04
       237  25 -4.857220E+05 -1.687040E+05 -1.289238E+05  5.583970E+04 -2.895736E+03  5.238295E+04
       237  26 -4.278009E+05 -1.550194E+05 -1.168105E+05  4.918273E+04 -4.460812E+03  4.831171E+04
       237  27 -3.701509E+05 -1.414272E+05 -1.057523E+05  5.607821E+04 -6.023438E+03  4.406255E+04
       238   1  8.011020E+05  1.331206E+05  9.636595E+04  5.902821E+04 -7.868107E+03 -4.157478E+04
       238   2  7.433887E+05  1.195778E+05  8.702976E+04  5.212701E+04 -7.601737E+03 -3.725237E+04
       238   3  6.855896E+05  1.061236E+05  7.752136E+04  5.876867E+04 -7.337082E+03 -3.291646E+04
       238   4  2.342841E+05  3.261740E+02 -1.106698E+03  5.760063E+04 -8.185032E+02 -4.155619E+04
       238   5  2.343406E+05  2.945679E+02 -6.058789E+02  5.082887E+04 -5.306836E+02 -3.723241E+04
       238   6  2.343035E+05  3.476958E+02 -2.926670E+02  5.760061E+04 -2.445545E+02 -3.289512E+04
       238   7 -3.322186E+05 -1.324854E+05 -9.859006E+04  5.617413E+04  6.224872E+03 -4.153762E+04
       238   8 -2.744531E+05 -1.190025E+05 -8.825015E+04  4.953162E+04  6.534758E+03 -3.721247E+04
       238   9 -2.167828E+05 -1.054391E+05 -7.811348E+04  5.643326E+04  6.842982E+03 -3.287379E+04
       238  10  8.011015E+05  1.331187E+05  9.636259E+04  5.902795E+04  3.601643E-08 -1.830229E-10
       238  11  7.433882E+05  1.195763E+05  8.702704E+04  5.212679E+04 -9.026542E-09  7.275401E-09
       238  12  6.855892E+05  1.061224E+05  7.751923E+04  5.876848E+04 -5.141544E-08  4.750206E-09
       238  13  2.342836E+05  3.243192E+02 -1.109945E+03  5.760060E+04  2.929002E-09  1.556604E-09
       238  14  2.343403E+05  2.930790E+02 -6.084847E+02  5.082885E+04  1.541394E-09  7.852712E-09
       238  15  2.343032E+05  3.465337E+02 -2.947008E+02  5.760060E+04 -2.306634E-09  1.220563E-09
       238  16 -3.322191E+05 -1.324872E+05 -9.859338E+04  5.617434E+04 -3.480797E-08 -3.134944E-10
       238  17 -2.744535E+05 -1.190040E+05 -8.825284E+04  4.953181E+04  1.172558E-08  1.509543E-09
       238  18 -2.167831E+05 -1.054403E+05 -7.811560E+04  5.643344E+04  5.184263E-08 -6.117634E-10
       238  19  8.011020E+05  1.331206E+05  9.636595E+04  5.902821E+04  7.868107E+03  4.157478E+04
       238  20  7.433887E+05  1.195778E+05  8.702976E+04  5.212701E+04  7.601737E+03  3.725237E+04
       238  21  6.855896E+05  1.061236E+05  7.752136E+04  5.876867E+04  7.337082E+03  3.291646E+04
       238  22  2.342841E+05  3.261740E+02 -1.106698E+03  5.760063E+04  8.185032E+02  4.155619E+04
       238  23  2.343406E+05  2.945679E+02 -6.058789E+02  5.082887E+04  5.306836E+02  3.723241E+04
       238  24  2.343035E+05  3.476958E+02 -2.926670E+02  5.760061E+04  2.445545E+02  3.289512E+04
       238  25 -3.322186E+05 -1.324854E+05 -9.859006E+04  5.617413E+04 -6.224872E+03  4.153762E+04
       238  26 -2.744531E+05 -1.190025E+05 -8.825015E+04  4.953162E+04 -6.534758E+03  3.721247E+04
       238  27 -2.167828E+05 -1.054391E+05 -7.811348E+04  5.643326E+04 -6.842982E+03  3.287379E+04
       239   1  6.477153E+05  9.720225E+04  7.085705E+04  5.868127E+04 -7.298129E+03 -3.038931E+04
       239   2  5.900543E+05  8.367021E+04  6.124782E+04  5.178283E+04 -7.315885E+03 -2.605060E+04
       239   3  5.323218E+05  7.023178E+04  5.164572E+04  5.842024E+04 -7.334782E+03 -2.171443E+04
       239   4  2.343144E+05  3.534164E+02 -1.783961E+02  5.759902E+04 -2.093881E+02 -3.036731E+04
       239   5  2.343577E+05  3.152679E+02  1.762603E+01  5.083087E+04 -2.315556E+02 -2.602770E+04
       239   6  2.343280E+05  3.718324E+02  2.239588E+02  5.759901E+04 -2.548653E+02 -2.169063E+04
       239   7 -1.789186E+05 -9.650453E+04 -7.121943E+04  5.651738E+04  6.874784E+03 -3.034533E+04
       239   8 -1.212145E+05 -8.304642E+04 -6.121669E+04  4.987936E+04  6.848844E+03 -2.600482E+04
       239   9 -6.357866E+04 -6.949285E+04 -5.120066E+04  5.677810E+04  6.821761E+03 -2.166685E+04
       239  10  6.477150E+05  9.720125E+04  7.085521E+04  5.868109E+04  5.860864E-08  2.910971E-11
       239  11  5.900540E+05  8.366947E+04  6.124644E+04  5.178268E+04  2.129889E-08 -2.537337E-09
       239  12  5.323217E+05  7.023125E+04  5.164473E+04  5.842012E+04 -1.818958E-08 -1.913033E-09
       239  13  2.343142E+05  3.524261E+02 -1.801293E+02  5.759902E+04  9.705536E-10  7.865329E-09
       239  14  2.343576E+05  3.145404E+02  1.635274E+01  5.083086E+04  4.470967E-10 -1.913872E-09
       239  15  2.343279E+05  3.713271E+02  2.230745E+02  5.759900E+04 -3.440670E-09 -3.256815E-09
       239  16 -1.789189E+05 -9.650553E+04 -7.122125E+04  5.651755E+04 -5.936812E-08  1.333809E-09
       239  17 -1.212148E+05 -8.304716E+04 -6.121805E+04  4.987950E+04 -2.043304E-08 -3.111647E-09
       239  18 -6.357883E+04 -6.949337E+04 -5.120162E+04  5.677822E+04  1.596424E-08 -5.509095E-09
       239  19  6.477153E+05  9.720225E+04  7.085705E+04  5.868127E+04  7.298129E+03  3.038931E+04
       239  20  5.900543E+05  8.367021E+04  6.124782E+04  5.178283E+04  7.315885E+03  2.605060E+04
       239  21  5.323218E+05  7.023178E+04  5.164572E+04  5.842024E+04  7.334782E+03  2.171443E+04
       239  22  2.343144E+05  3.534164E+02 -1.783961E+02  5.759902E+04  2.093881E+02  3.036731E+04
       239  23  2.343577E+05  3.152679E+02  1.762603E+01  5.083087E+04  2.315556E+02  2.602770E+04
       239  24  2.343280E+05  3.718324E+02  2.239588E+02  5.759901E+04  2.548653E+02  2.169063E+04
       239  25 -1.789186E+05 -9.650453E+04 -7.121943E+04  5.651738E+04 -6.874784E+03  3.034533E+04
       239  26 -1.212145E+05 -8.304642E+04 -6.121669E+04  4.987936E+04 -6.848844E+03  2.600482E+04
       239  27 -6.357866E+04 -6.949285E+04 -5.120066E+04  5.677810E+04 -6.821761E+03  2.166685E+04
       240   1  4.944838E+05  6.131281E+04  4.499403E+04  5.833112E+04 -7.397155E+03 -1.918994E+04
       240   2  4.368467E+05  4.777786E+04  3.551728E+04  5.143363E+04 -7.699151E+03 -1.486981E+04
       240   3  3.791689E+05  3.436471E+04  2.623581E+04  5.806059E+04 -8.001667E+03 -1.058124E+04
       240   4  2.343406E+05  3.735712E+02  3.465655E+02  5.759646E+04 -3.149176E+02 -1.916571E+04
       240   5  2.343619E+05  3.275332E+02  6.851361E+02  5.083406E+04 -6.686904E+02 -1.484524E+04
       240   6  2.343482E+05  4.124062E+02  1.254832E+03  5.759635E+04 -1.023008E+03 -1.055634E+04
       240   7 -2.573611E+04 -6.056925E+04 -4.430299E+04  5.686207E+04  6.764447E+03 -1.914148E+04
       240   8  3.191752E+04 -4.712496E+04 -3.414822E+04  5.023465E+04  6.359550E+03 -1.482067E+04
       240   9  8.954827E+04 -3.354100E+04 -2.372668E+04  5.713219E+04  5.954074E+03 -1.053144E+04
       240  10  4.944836E+05  6.131240E+04  4.499324E+04  5.833100E+04 -5.980542E-09  4.594214E-09
       240  11  4.368465E+05  4.777761E+04  3.551676E+04  5.143354E+04  6.572724E-09  2.119687E-09
       240  12  3.791688E+05  3.436457E+04  2.623548E+04  5.806052E+04  1.664344E-08  3.582623E-09
       240  13  2.343405E+05  3.731767E+02  3.458750E+02  5.759646E+04 -3.400870E-09  2.182364E-09
       240  14  2.343619E+05  3.272964E+02  6.847211E+02  5.083405E+04  3.897367E-10  1.054221E-09
       240  15  2.343482E+05  4.122862E+02  1.254621E+03  5.759634E+04 -8.418594E-10  3.465515E-09
       240  16 -2.573626E+04 -6.056966E+04 -4.430377E+04  5.686217E+04  3.086422E-09  1.940334E-09
       240  17  3.191741E+04 -4.712521E+04 -3.414871E+04  5.023473E+04 -4.584106E-09 -8.833104E-09
       240  18  8.954820E+04 -3.354113E+04 -2.372695E+04  5.713225E+04 -1.752519E-08 -8.155383E-10
       240  19  4.944838E+05  6.131281E+04  4.499403E+04  5.833112E+04  7.397155E+03  1.918994E+04
       240  20  4.368467E+05  4.777786E+04  3.551728E+04  5.143363E+04  7.699151E+03  1.486981E+04
       240  21  3.791689E+05  3.436471E+04  2.623581E+04  5.806059E+04  8.001667E+03  1.058124E+04
       240  22  2.343406E+05  3.735712E+02  3.465655E+02  5.759646E+04  3.149176E+02  1.916571E+04
       240  23  2.343619E+05  3.275332E+02  6.851361E+02  5.083406E+04  6.686904E+02  1.484524E+04
       240  24  2.343482E+05  4.124062E+02  1.254832E+03  5.759635E+04  1.023008E+03  1.055634E+04
       240  25 -2.573611E+04 -6.056925E+04 -4.430299E+04  5.686207E+04 -6.764447E+03  1.914148E+04
       240  26  3.191752E+04 -4.712496E+04 -3.414822E+04  5.023465E+04 -6.359550E+03  1.482067E+04
       240  27  8.954827E+04 -3.354100E+04 -2.372668E+04  5.713219E+04 -5.954074E+03  1.053144E+04
       241   1  3.413952E+05  2.541359E+04  1.985578E+04  5.806607E+04 -8.311413E+03 -8.072796E+03
       241   2  2.836688E+05  1.200915E+04  1.111785E+04  5.087167E+04 -9.201500E+03 -3.955241E+03
       241   3  2.261218E+05 -6.787988E+02  3.105469E+03  5.717349E+04 -1.009039E+04 -2.003478E+02
       241   4  2.344196E+05  3.847180E+02  1.665481E+03  5.759067E+04 -1.287539E+03 -8.047534E+03
       241   5  2.342815E+05  4.997400E+02  2.941709E+03  5.084067E+04 -2.769981E+03 -3.932003E+03
       241   6  2.344212E+05  1.433959E+03  5.354310E+03  5.758689E+04 -4.251298E+03 -1.791423E+02
       241   7  1.274554E+05 -2.464474E+04 -1.652501E+04  5.711534E+04  5.735164E+03 -8.022281E+03
       241   8  1.848967E+05 -1.100977E+04 -5.234354E+03  5.080967E+04  3.661044E+03 -3.908764E+03
       241   9  2.427208E+05  3.546730E+03  7.603274E+03  5.800030E+04  1.587877E+03 -1.579291E+02
       241  10  3.413951E+05  2.541351E+04  1.985553E+04  5.806601E+04 -2.980901E-08  9.306247E-09
       241  11  2.836687E+05  1.200911E+04  1.111767E+04  5.087164E+04 -8.799287E-09  3.512476E-09
       241  12  2.261216E+05 -6.788261E+02  3.105278E+03  5.717349E+04  1.512584E-08  7.880635E-09
       241  13  2.344196E+05  3.846480E+02  1.665357E+03  5.759066E+04 -1.160190E-10  4.243143E-09
       241  14  2.342815E+05  4.997213E+02  2.941665E+03  5.084066E+04  2.549332E-09  6.313473E-09
       241  15  2.344212E+05  1.433954E+03  5.354276E+03  5.758689E+04  4.769516E-11 -3.984787E-10
       241  16  1.274553E+05 -2.464482E+04 -1.652519E+04  5.711538E+04  2.855032E-08  4.860477E-09
       241  17  1.848967E+05 -1.100979E+04 -5.234408E+03  5.080968E+04  1.158753E-08  1.137692E-09
       241  18  2.427208E+05  3.546729E+03  7.603269E+03  5.800030E+04 -1.432038E-08 -1.140123E-08
       241  19  3.413952E+05  2.541359E+04  1.985578E+04  5.806607E+04  8.311413E+03  8.072796E+03
       241  20  2.836688E+05  1.200915E+04  1.111785E+04  5.087167E+04  9.201500E+03  3.955241E+03
       241  21  2.261218E+05 -6.787988E+02  3.105469E+03  5.717349E+04  1.009039E+04  2.003478E+02
       241  22  2.344196E+05  3.847180E+02  1.665481E+03  5.759067E+04  1.287539E+03  8.047534E+03
       241  23  2.342815E+05  4.997400E+02  2.941709E+03  5.084067E+04  2.769981E+03  3.932003E+03
       241  24  2.344212E+05  1.433959E+03  5.354310E+03  5.758689E+04  4.251298E+03  1.791423E+02
       241  25  1.274554E+05 -2.464474E+04 -1.652501E+04  5.711534E+04 -5.735164E+03  8.022281E+03
       241  26  1.848967E+05 -1.100977E+04 -5.234354E+03  5.080967E+04 -3.661044E+03  3.908764E+03
       241  27  2.427208E+05  3.546730E+03  7.603274E+03  5.800030E+04 -1.587877E+03  1.579291E+02
       242   1  1.889891E+05 -1.013415E+04 -2.244236E+03  5.894519E+04 -1.155257E+04  2.136150E+03
       242   2  1.298021E+05 -1.976220E+04 -8.895951E+03  4.408577E+04 -1.122061E+04  3.924155E+03
       242   3  7.376437E+04 -1.617162E+04 -1.248622E+04  4.242006E+04 -1.087383E+04  1.471801E+03
       242   4  2.353253E+05  9.709584E+02  7.020003E+03  5.753184E+04 -5.176043E+03  2.159310E+03
       242   5  2.331487E+05  5.286553E+03  1.273491E+04  5.089414E+04 -1.176639E+04  3.922019E+03
       242   6  2.353191E+05  2.402101E+04  2.631668E+04  5.744941E+04 -1.834203E+04  1.444702E+03
       242   7  2.816636E+05  1.207596E+04  1.628429E+04  5.611839E+04  1.200950E+03  2.182441E+03
       242   8  3.365054E+05  3.033479E+04  3.436521E+04  5.770365E+04 -1.231226E+04  3.919871E+03
       242   9  3.968983E+05  6.421260E+04  6.511806E+04  7.248267E+04 -2.581217E+04  1.417244E+03
       242  10  1.889889E+05 -1.013419E+04 -2.244495E+03  5.894521E+04 -4.959267E-09  4.240459E-09
       242  11  1.298019E+05 -1.976225E+04 -8.896216E+03  4.408580E+04 -2.941206E-09 -1.998603E-09
       242  12  7.376424E+04 -1.617166E+04 -1.248645E+04  4.242007E+04 -1.327458E-09 -1.005107E-09
       242  13  2.353252E+05  9.709462E+02  7.019944E+03  5.753185E+04  4.215147E-11  7.016982E-09
       242  14  2.331485E+05  5.286499E+03  1.273462E+04  5.089417E+04  2.556260E-10 -3.980379E-09
       242  15  2.353187E+05  2.402092E+04  2.631605E+04  5.744943E+04 -8.217217E-11  5.525442E-09
       242  16  2.816636E+05  1.207596E+04  1.628428E+04  5.611839E+04  2.431795E-09 -2.199479E-09
       242  17  3.365053E+05  3.033473E+04  3.436489E+04  5.770369E+04  4.331906E-09  1.855171E-09
       242  18  3.968976E+05  6.421242E+04  6.511680E+04  7.248270E+04 -3.913463E-10 -8.523617E-10
       242  19  1.889891E+05 -1.013415E+04 -2.244236E+03  5.894519E+04  1.155257E+04 -2.136150E+03
       242  20  1.298021E+05 -1.976220E+04 -8.895951E+03  4.408577E+04  1.122061E+04 -3.924155E+03
       242  21  7.376437E+04 -1.617162E+04 -1.248622E+04  4.242006E+04  1.087383E+04 -1.471801E+03
       242  22  2.353253E+05  9.709584E+02  7.020003E+03  5.753184E+04  5.176043E+03 -2.159310E+03
       242  23  2.331487E+05  5.286553E+03  1.273491E+04  5.089414E+04  1.176639E+04 -3.922019E+03
       242  24  2.353191E+05  2.402101E+04  2.631668E+04  5.744941E+04  1.834203E+04 -1.444702E+03
       242  25  2.816636E+05  1.207596E+04  1.628429E+04  5.611839E+04 -1.200950E+03 -2.182441E+03
       242  26  3.365054E+05  3.033479E+04  3.436521E+04  5.770365E+04  1.231226E+04 -3.919871E+03
       242  27  3.968983E+05  6.421260E+04  6.511806E+04  7.248267E+04  2.581217E+04 -1.417244E+03
       243   1  1.590151E+05  1.379116E+06  1.604649E+05 -1.787251E+05  4.303872E+03  5.468391E+04
       243   2  8.271259E+04  1.223233E+06  9.041059E+04 -1.456131E+05  1.204158E+04  2.116465E+04
       243   3  3.815114E+04  1.079508E+06  5.005573E+04 -1.467617E+05  8.130888E+03 -1.236788E+04
       243   4  4.689488E+04  9.268804E+05  5.222131E+04 -1.490137E+05  4.352281E+03  3.261991E+04
       243   5  1.011507E+04  9.224811E+05  2.814435E+04 -1.319307E+05  1.204884E+04  1.814980E+04
       243   6  1.785015E+03  9.269285E+05  2.056740E+04 -1.491054E+05  8.096146E+03  3.658365E+03
       243   7 -6.523669E+04  4.748346E+05 -5.603448E+04 -1.193239E+05  4.398601E+03  1.057188E+04
       243   8 -6.248749E+04  6.218154E+05 -3.412667E+04 -1.182549E+05  1.205598E+04  1.513638E+04
       243   9 -3.458233E+04  7.743721E+05 -8.921041E+03 -1.514486E+05  8.061279E+03  1.968076E+04
       243  10  1.590143E+05  1.379113E+06  1.604593E+05 -1.787253E+05 -3.155907E-10 -1.570528E-09
       243  11  8.271231E+04  1.223232E+06  9.040948E+04 -1.456133E+05 -1.354540E-09 -5.032370E-09
       243  12  3.815102E+04  1.079508E+06  5.005532E+04 -1.467616E+05 -1.104983E-09 -2.289698E-09
       243  13  4.689457E+04  9.268792E+05  5.221928E+04 -1.490138E+05  1.596251E-09 -2.231274E-09
       243  14  1.011483E+04  9.224807E+05  2.814346E+04 -1.319308E+05 -1.007968E-09 -2.261240E-09
       243  15  1.784941E+03  9.269284E+05  2.056726E+04 -1.491055E+05 -1.620194E-09 -1.188283E-10
       243  16 -6.523674E+04  4.748345E+05 -5.603472E+04 -1.193239E+05 -3.439353E-10  5.963630E-10
       243  17 -6.248770E+04  6.218151E+05 -3.412738E+04 -1.182550E+05  2.209830E-09 -8.924170E-10
       243  18 -3.458250E+04  7.743717E+05 -8.921890E+03 -1.514487E+05 -2.275347E-09 -1.358309E-09
       243  19  1.590151E+05  1.379116E+06  1.604649E+05 -1.787251E+05 -4.303872E+03 -5.468391E+04
       243  20  8.271259E+04  1.223233E+06  9.041059E+04 -1.456131E+05 -1.204158E+04 -2.116465E+04
       243  21  3.815114E+04  1.079508E+06  5.005573E+04 -1.467617E+05 -8.130888E+03  1.236788E+04
       243  22  4.689488E+04  9.268804E+05  5.222131E+04 -1.490137E+05 -4.352281E+03 -3.261991E+04
       243  23  1.011507E+04  9.224811E+05  2.814435E+04 -1.319307E+05 -1.204884E+04 -1.814980E+04
       243  24  1.785015E+03  9.269285E+05  2.056740E+04 -1.491054E+05 -8.096146E+03 -3.658365E+03
       243  25 -6.523669E+04  4.748346E+05 -5.603448E+04 -1.193239E+05 -4.398601E+03 -1.057188E+04
       243  26 -6.248749E+04  6.218154E+05 -3.412667E+04 -1.182549E+05 -1.205598E+04 -1.513638E+04
       243  27 -3.458233E+04  7.743721E+05 -8.921041E+03 -1.514486E+05 -8.061279E+03 -1.968076E+04
       244   1  1.549021E+04  9.792769E+05  3.094705E+04 -1.511866E+05  2.152138E+03 -1.426733E+04
       244   2 -2.091405E+04  8.282400E+05  5.724871E+03 -1.312339E+05 -6.635026E+03 -2.492541E+04
       244   3 -5.167053E+04  6.798589E+05 -1.119797E+04 -1.462186E+05 -1.503698E+04 -3.557975E+04
       244   4  2.519392E+03  9.255741E+05  1.978705E+04 -1.492451E+05  2.119858E+03  4.413368E+02
       244   5  1.632269E+03  9.241962E+05  2.258252E+04 -1.317725E+05 -6.665333E+03 -1.084895E+04
       244   6  6.502705E+03  9.255603E+05  3.411426E+04 -1.492364E+05 -1.506531E+04 -2.213792E+04
       244   7 -1.045148E+04  8.718744E+05  8.627699E+03 -1.473037E+05  2.087668E+03  1.514876E+04
       244   8  2.417819E+04  1.020162E+06  3.944058E+04 -1.323111E+05 -6.695662E+03  3.229626E+03
       244   9  6.467263E+04  1.171321E+06  7.942467E+04 -1.522553E+05 -1.509376E+04 -8.690920E+03
       244  10  1.549015E+04  9.792767E+05  3.094666E+04 -1.511866E+05 -9.730768E-10 -3.023909E-09
       244  11 -2.091426E+04  8.282393E+05  5.723622E+03 -1.312341E+05  1.410496E-09 -6.481591E-09
       244  12 -5.167111E+04  6.798575E+05 -1.120077E+04 -1.462191E+05  1.065442E-09 -2.334336E-09
       244  13  2.519387E+03  9.255741E+05  1.978704E+04 -1.492451E+05 -2.553677E-09 -1.912100E-09
       244  14  1.632189E+03  9.241961E+05  2.258222E+04 -1.317725E+05 -1.892746E-09 -2.186817E-09
       244  15  6.502329E+03  9.255597E+05  3.411292E+04 -1.492366E+05 -2.401753E-09 -3.693142E-11
       244  16 -1.045155E+04  8.718742E+05  8.627260E+03 -1.473037E+05 -1.785927E-09  1.667234E-09
       244  17  2.417814E+04  1.020162E+06  3.944048E+04 -1.323111E+05 -2.213166E-09  5.260564E-10
       244  18  6.467236E+04  1.171320E+06  7.942410E+04 -1.522554E+05 -4.068478E-10 -1.356750E-09
       244  19  1.549021E+04  9.792769E+05  3.094705E+04 -1.511866E+05 -2.152138E+03  1.426733E+04
       244  20 -2.091405E+04  8.282400E+05  5.724871E+03 -1.312339E+05  6.635026E+03  2.492541E+04
       244  21 -5.167053E+04  6.798589E+05 -1.119797E+04 -1.462186E+05  1.503698E+04  3.557975E+04
       244  22  2.519392E+03  9.255741E+05  1.978705E+04 -1.492451E+05 -2.119858E+03 -4.413368E+02
       244  23  1.632269E+03  9.241962E+05  2.258252E+04 -1.317725E+05  6.665333E+03  1.084895E+04
       244  24  6.502705E+03  9.255603E+05  3.411426E+04 -1.492364E+05  1.506531E+04  2.213792E+04
       244  25 -1.045148E+04  8.718744E+05  8.627699E+03 -1.473037E+05 -2.087668E+03 -1.514876E+04
       244  26  2.417819E+04  1.020162E+06  3.944058E+04 -1.323111E+05  6.695662E+03 -3.229626E+03
       244  27  6.467263E+04  1.171321E+06  7.942467E+04 -1.522553E+05  1.509376E+04  8.690920E+03
       245   1 -7.776524E+04  5.858715E+05 -2.091915E+04 -1.573028E+05 -2.082652E+04 -4.330672E+04
       245   2 -8.938073E+04  4.254989E+05 -2.443446E+04 -9.320750E+04 -2.213319E+04 -5.556520E+04
       245   3 -2.222622E+04  2.863282E+05 -3.016212E+02 -6.303312E+04 -7.248228E+03 -6.779206E+04
       245   4  3.870377E+03  9.306644E+05  4.296768E+04 -1.490449E+05 -2.085880E+04 -2.793148E+04
       245   5  2.904937E+04  9.177422E+05  7.493631E+04 -1.319587E+05 -2.210602E+04 -6.665458E+04
       245   6  1.375442E+05  9.305570E+05  1.528939E+05 -1.487822E+05 -7.165614E+03 -1.053500E+05
       245   7  8.549959E+04  1.275573E+06  1.068504E+05 -1.407822E+05 -2.089067E+04 -1.254793E+04
       245   8  1.474701E+05  1.410220E+06  1.742958E+05 -1.707412E+05 -2.207747E+04 -7.775256E+04
       245   9  2.973128E+05  1.575185E+06  3.060697E+05 -2.346204E+05 -7.072684E+03 -1.429467E+05
       245  10 -7.776621E+04  5.858693E+05 -2.092349E+04 -1.573035E+05  8.351624E-10 -1.177383E-09
       245  11 -8.938209E+04  4.254954E+05 -2.444118E+04 -9.320849E+04  1.915820E-09 -5.997949E-09
       245  12 -2.222751E+04  2.863232E+05 -3.103525E+02 -6.303351E+04 -2.595741E-11 -2.884749E-09
       245  13  3.869700E+03  9.306634E+05  4.296539E+04 -1.490453E+05  1.685323E-09 -1.699870E-09
       245  14  2.904765E+04  9.177373E+05  7.492705E+04 -1.319599E+05  1.367257E-09 -2.200860E-09
       245  15  1.375412E+05  9.305451E+05  1.528730E+05 -1.487828E+05  5.555520E-10 -4.953246E-10
       245  16  8.549908E+04  1.275573E+06  1.068493E+05 -1.407824E+05 -1.005227E-09 -2.823928E-11
       245  17  1.474679E+05  1.410213E+06  1.742836E+05 -1.707425E+05 -2.235728E-09 -1.978547E-10
       245  18  2.973073E+05  1.575163E+06  3.060313E+05 -2.346212E+05 -2.687147E-10 -3.139289E-10
       245  19 -7.776524E+04  5.858715E+05 -2.091915E+04 -1.573028E+05  2.082652E+04  4.330672E+04
       245  20 -8.938073E+04  4.254989E+05 -2.443446E+04 -9.320750E+04  2.213319E+04  5.556520E+04
       245  21 -2.222622E+04  2.863282E+05 -3.016212E+02 -6.303312E+04  7.248228E+03  6.779206E+04
       245  22  3.870377E+03  9.306644E+05  4.296768E+04 -1.490449E+05  2.085880E+04  2.793148E+04
       245  23  2.904937E+04  9.177422E+05  7.493631E+04 -1.319587E+05  2.210602E+04  6.665458E+04
       245  24  1.375442E+05  9.305570E+05  1.528939E+05 -1.487822E+05  7.165614E+03  1.053500E+05
       245  25  8.549959E+04  1.275573E+06  1.068504E+05 -1.407822E+05  2.089067E+04  1.254793E+04
       245  26  1.474701E+05  1.410220E+06  1.742958E+05 -1.707412E+05  2.207747E+04  7.775256E+04
       245  27  2.973128E+05  1.575185E+06  3.060697E+05 -2.346204E+05  7.072684E+03  1.429467E+05
       246   1  1.396360E+06  4.459434E+05  2.205194E+05  4.947052E+05  5.663657E+04  4.264701E+03
       246   2  1.322421E+06  4.324064E+05  1.780775E+05  4.697109E+05  3.783471E+04 -4.230984E+04
       246   3  1.236539E+06  4.211843E+05  1.563877E+05  4.630619E+05  9.182890E+03 -6.274112E+04
       246   4  3.994794E+05  8.794988E+04 -3.387457E+04  2.379289E+05 -1.626639E+04 -2.324070E+04
       246   5  4.113120E+05  1.038869E+05 -1.560817E+04  2.238078E+05  4.960244E+03 -5.472697E+04
       246   6  4.032685E+05  1.142082E+05 -8.274599E+03  2.280348E+05  1.632413E+04 -6.005221E+04
       246   7 -5.963939E+05 -2.699853E+05 -2.883172E+05 -1.847372E+04 -8.903876E+04 -5.070171E+04
       246   8 -4.989361E+05 -2.245665E+05 -2.093317E+05 -2.176305E+04 -2.786161E+04 -6.712521E+04
       246   9 -4.292820E+05 -1.927025E+05 -1.729685E+05 -6.699354E+03  2.345510E+04 -5.736725E+04
       246  10  1.396356E+06  4.459426E+05  2.205134E+05  4.947050E+05  1.246988E-10  2.552199E-09
       246  11  1.322419E+06  4.324041E+05  1.780715E+05  4.697122E+05 -8.090036E-10 -1.991617E-09
       246  12  1.236537E+06  4.211800E+05  1.563802E+05  4.630624E+05  2.176705E-09  5.763541E-10
       246  13  3.994790E+05  8.794922E+04 -3.387608E+04  2.379286E+05  2.902019E-09  4.314706E-09
       246  14  4.113112E+05  1.038837E+05 -1.561384E+04  2.238080E+05  4.564984E-09 -6.179997E-09
       246  15  4.032672E+05  1.142042E+05 -8.281878E+03  2.280356E+05  2.108424E-09 -8.331415E-10
       246  16 -5.964031E+05 -2.699902E+05 -2.883369E+05 -1.847736E+04 -7.702549E-10 -2.346579E-09
       246  17 -4.989382E+05 -2.245716E+05 -2.093416E+05 -2.176455E+04  1.679604E-09 -7.480483E-09
       246  18 -4.292835E+05 -1.927061E+05 -1.729757E+05 -6.698270E+03 -6.710752E-11 -6.517001E-09
       246  19  1.396360E+06  4.459434E+05  2.205194E+05  4.947052E+05 -5.663657E+04 -4.264701E+03
       246  20  1.322421E+06  4.324064E+05  1.780775E+05  4.697109E+05 -3.783471E+04  4.230984E+04
       246  21  1.236539E+06  4.211843E+05  1.563877E+05  4.630619E+05 -9.182890E+03  6.274112E+04
       246  22  3.994794E+05  8.794988E+04 -3.387457E+04  2.379289E+05  1.626639E+04  2.324070E+04
       246  23  4.113120E+05  1.038869E+05 -1.560817E+04  2.238078E+05 -4.960244E+03  5.472697E+04
       246  24  4.032685E+05  1.142082E+05 -8.274599E+03  2.280348E+05 -1.632413E+04  6.005221E+04
       246  25 -5.963939E+05 -2.699853E+05 -2.883172E+05 -1.847372E+04  8.903876E+04  5.070171E+04
       246  26 -4.989361E+05 -2.245665E+05 -2.093317E+05 -2.176305E+04  2.786161E+04  6.712521E+04
       246  27 -4.292820E+05 -1.927025E+05 -1.729685E+05 -6.699354E+03 -2.345510E+04  5.736725E+04
       247   1  1.188674E+06  4.004447E+05  1.477518E+05  4.479449E+05  1.347836E+04 -5.781378E+04
       247   2  1.121421E+06  3.675119E+05  1.334192E+05  4.198861E+05  1.113707E+04 -5.557455E+04
       247   3  1.040919E+06  3.477308E+05  1.200038E+05  4.071766E+05  8.056115E+03 -5.138584E+04
       247   4  4.040020E+05  1.138539E+05 -6.285876E+03  2.290350E+05  1.617737E+04 -5.680167E+04
       247   5  4.110251E+05  1.081632E+05 -3.322310E+03  2.211449E+05  1.681926E+04 -5.343327E+04
       247   6  4.042037E+05  1.150340E+05 -1.804745E+03  2.286033E+05  1.672092E+04 -4.811419E+04
       247   7 -3.800405E+05 -1.726847E+05 -1.603537E+05  1.037859E+04  1.887275E+04 -5.579092E+04
       247   8 -2.988497E+05 -1.511405E+05 -1.400864E+05  2.261327E+04  2.249452E+04 -5.129461E+04
       247   9 -2.320897E+05 -1.176252E+05 -1.236302E+05  5.019975E+04  2.537622E+04 -4.484615E+04
       247  10  1.188673E+06  4.004410E+05  1.477452E+05  4.479455E+05  2.121329E-09 -1.201984E-09
       247  11  1.121420E+06  3.675085E+05  1.334132E+05  4.198866E+05 -6.239783E-10  1.222779E-09
       247  12  1.040918E+06  3.477279E+05  1.199987E+05  4.071769E+05 -8.003956E-09 -2.207793E-09
       247  13  4.040008E+05  1.138504E+05 -6.292432E+03  2.290357E+05  1.943569E-09 -5.990202E-09
       247  14  4.110241E+05  1.081601E+05 -3.328208E+03  2.211456E+05 -1.491508E-09 -3.006165E-09
       247  15  4.042027E+05  1.150314E+05 -1.809622E+03  2.286039E+05 -1.304233E-09 -2.099986E-09
       247  16 -3.800417E+05 -1.726881E+05 -1.603602E+05  1.037943E+04 -2.103148E-10 -2.242432E-09
       247  17 -2.988510E+05 -1.511435E+05 -1.400923E+05  2.261420E+04  2.710916E-09  6.201309E-10
       247  18 -2.320910E+05 -1.176275E+05 -1.236351E+05  5.020067E+04  7.574362E-09  2.590249E-09
       247  19  1.188674E+06  4.004447E+05  1.477518E+05  4.479449E+05 -1.347836E+04  5.781378E+04
       247  20  1.121421E+06  3.675119E+05  1.334192E+05  4.198861E+05 -1.113707E+04  5.557455E+04
       247  21  1.040919E+06  3.477308E+05  1.200038E+05  4.071766E+05 -8.056115E+03  5.138584E+04
       247  22  4.040020E+05  1.138539E+05 -6.285876E+03  2.290350E+05 -1.617737E+04  5.680167E+04
       247  23  4.110251E+05  1.081632E+05 -3.322310E+03  2.211449E+05 -1.681926E+04  5.343327E+04
       247  24  4.042037E+05  1.150340E+05 -1.804745E+03  2.286033E+05 -1.672092E+04  4.811419E+04
       247  25 -3.800405E+05 -1.726847E+05 -1.603537E+05  1.037859E+04 -1.887275E+04  5.579092E+04
       247  26 -2.988497E+05 -1.511405E+05 -1.400864E+05  2.261327E+04 -2.249452E+04  5.129461E+04
       247  27 -2.320897E+05 -1.176252E+05 -1.236302E+05  5.019975E+04 -2.537622E+04  4.484615E+04
       248   1  9.919579E+05  3.296597E+05  1.106595E+05  3.934190E+05  7.397569E+03 -4.785592E+04
       248   2  9.252554E+05  2.962001E+05  9.726833E+04  3.652283E+05  5.459493E+03 -4.229073E+04
       248   3  8.451259E+05  2.762026E+05  8.378219E+04  3.522775E+05  3.465219E+03 -3.658450E+04
       248   4  4.042689E+05  1.150311E+05 -1.351474E+03  2.286571E+05  1.572310E+04 -4.471108E+04
       248   5  4.110279E+05  1.083655E+05 -7.227695E+02  2.210271E+05  1.400077E+04 -3.906214E+04
       248   6  4.043098E+05  1.151197E+05 -3.609876E+02  2.286360E+05  1.222223E+04 -3.327205E+04
       248   7 -1.830553E+05 -9.956342E+04 -1.133752E+05  6.404117E+04  2.404013E+04 -4.156946E+04
       248   8 -1.029242E+05 -7.944432E+04 -9.872460E+04  7.693670E+04  2.253448E+04 -3.583642E+04
       248   9 -3.630776E+04 -4.594662E+04 -8.451307E+04  1.050748E+05  2.097266E+04 -2.996210E+04
       248  10  9.919572E+05  3.296572E+05  1.106551E+05  3.934193E+05  2.456048E-09  8.245651E-10
       248  11  9.252549E+05  2.961981E+05  9.726491E+04  3.652285E+05 -1.214784E-09  3.050009E-09
       248  12  8.451255E+05  2.762011E+05  8.377965E+04  3.522776E+05 -5.299710E-09  2.118404E-09
       248  13  4.042681E+05  1.150289E+05 -1.355696E+03  2.286576E+05 -1.531581E-09  5.557869E-10
       248  14  4.110273E+05  1.083639E+05 -7.260060E+02  2.210276E+05  1.233429E-09 -4.937711E-09
       248  15  4.043094E+05  1.151184E+05 -3.633493E+02  2.286363E+05  8.710609E-11 -9.696569E-10
       248  16 -1.830564E+05 -9.956543E+04 -1.133795E+05  6.404198E+04 -4.649075E-09 -2.450437E-09
       248  17 -1.029251E+05 -7.944584E+04 -9.872797E+04  7.693735E+04 -3.535708E-09  6.477933E-09
       248  18 -3.630847E+04 -4.594771E+04 -8.451559E+04  1.050753E+05  3.054737E-09 -1.191568E-09
       248  19  9.919579E+05  3.296597E+05  1.106595E+05  3.934190E+05 -7.397569E+03  4.785592E+04
       248  20  9.252554E+05  2.962001E+05  9.726833E+04  3.652283E+05 -5.459493E+03  4.229073E+04
       248  21  8.451259E+05  2.762026E+05  8.378219E+04  3.522775E+05 -3.465219E+03  3.658450E+04
       248  22  4.042689E+05  1.150311E+05 -1.351474E+03  2.286571E+05 -1.572310E+04  4.471108E+04
       248  23  4.110279E+05  1.083655E+05 -7.227695E+02  2.210271E+05 -1.400077E+04  3.906214E+04
       248  24  4.043098E+05  1.151197E+05 -3.609876E+02  2.286360E+05 -1.222223E+04  3.327205E+04
       248  25 -1.830553E+05 -9.956342E+04 -1.133752E+05  6.404117E+04 -2.404013E+04  4.156946E+04
       248  26 -1.029242E+05 -7.944432E+04 -9.872460E+04  7.693670E+04 -2.253448E+04  3.583642E+04
       248  27 -3.630776E+04 -4.594662E+04 -8.451307E+04  1.050748E+05 -2.097266E+04  2.996210E+04
       249   1  7.962487E+05  2.582874E+05  7.418170E+04  3.385970E+05  2.284953E+03 -3.322338E+04
       249   2  7.297075E+05  2.248654E+05  6.061691E+04  3.104369E+05  1.411826E+02 -2.750915E+04
       249   3  6.497420E+05  2.048880E+05  4.704407E+04  2.974901E+05 -2.007054E+03 -2.178765E+04
       249   4  4.043268E+05  1.151245E+05 -2.440336E+02  2.286331E+05  1.101191E+04 -2.992124E+04
       249   5  4.110533E+05  1.084194E+05 -5.490240E+01  2.210249E+05  8.879079E+03 -2.420151E+04
       249   6  4.043470E+05  1.151563E+05  1.168066E+02  2.286280E+05  6.741788E+03 -1.847451E+04
       249   7  1.256517E+04 -2.802389E+04 -7.467574E+04  1.187336E+05  1.973296E+04 -2.662133E+04
       249   8  9.250655E+04 -8.016352E+03 -6.073020E+04  1.316559E+05  1.761213E+04 -2.089571E+04
       249   9  1.590171E+05  2.543108E+04 -4.681205E+04  1.597917E+05  1.548685E+04 -1.516281E+04
       249  10  7.962484E+05  2.582862E+05  7.417961E+04  3.385970E+05  3.605688E-10  1.232330E-09
       249  11  7.297073E+05  2.248645E+05  6.061549E+04  3.104369E+05  1.930916E-09  1.549933E-09
       249  12  6.497419E+05  2.048875E+05  4.704317E+04  2.974901E+05  2.022750E-09 -7.006729E-09
       249  13  4.043264E+05  1.151235E+05 -2.459444E+02  2.286333E+05  1.982906E-09 -7.103481E-09
       249  14  4.110531E+05  1.084188E+05 -5.615152E+01  2.210250E+05 -1.205884E-09 -1.072422E-09
       249  15  4.043468E+05  1.151559E+05  1.160796E+02  2.286281E+05 -2.563320E-10 -7.709994E-09
       249  16  1.256456E+04 -2.802475E+04 -7.467781E+04  1.187341E+05 -5.688085E-10 -1.948208E-09
       249  17  9.250610E+04 -8.016905E+03 -6.073160E+04  1.316562E+05 -1.604234E-09 -5.416990E-09
       249  18  1.590168E+05  2.543077E+04 -4.681293E+04  1.597919E+05 -8.305492E-10 -3.215318E-09
       249  19  7.962487E+05  2.582874E+05  7.418170E+04  3.385970E+05 -2.284953E+03  3.322338E+04
       249  20  7.297075E+05  2.248654E+05  6.061691E+04  3.104369E+05 -1.411826E+02  2.750915E+04
       249  21  6.497420E+05  2.048880E+05  4.704407E+04  2.974901E+05  2.007054E+03  2.178765E+04
       249  22  4.043268E+05  1.151245E+05 -2.440336E+02  2.286331E+05 -1.101191E+04  2.992124E+04
       249  23  4.110533E+05  1.084194E+05 -5.490240E+01  2.210249E+05 -8.879079E+03  2.420151E+04
       249  24  4.043470E+05  1.151563E+05  1.168066E+02  2.286280E+05 -6.741788E+03  1.847451E+04
       249  25  1.256517E+04 -2.802389E+04 -7.467574E+04  1.187336E+05 -1.973296E+04  2.662133E+04
       249  26  9.250655E+04 -8.016352E+03 -6.073020E+04  1.316559E+05 -1.761213E+04  2.089571E+04
       249  27  1.590171E+05  2.543108E+04 -4.681205E+04  1.597917E+05 -1.548685E+04  1.516281E+04
       250   1  6.009411E+05  1.869902E+05  3.743426E+04  2.838275E+05 -3.291380E+03 -1.846789E+04
       250   2  5.344613E+05  1.535808E+05  2.396338E+04  2.557015E+05 -5.677067E+03 -1.283713E+04
       250   3  4.545845E+05  1.336122E+05  1.065796E+04  2.427807E+05 -8.060873E+03 -7.212998E+03
       250   4  4.043604E+05  1.151594E+05  2.095819E+02  2.286276E+05  5.453543E+03 -1.515567E+04
       250   5  4.110625E+05  1.084365E+05  4.661731E+02  2.210276E+05  3.057433E+03 -9.528313E+03
       250   6  4.043655E+05  1.151566E+05  8.966471E+02  2.286311E+05  6.631787E+02 -3.907599E+03
       250   7  2.078184E+05  4.333164E+04 -3.701685E+04  1.734435E+05  1.419558E+04 -1.184455E+04
       250   8  2.876792E+05  6.329339E+04 -2.303151E+04  1.863599E+05  1.179011E+04 -6.220188E+03
       250   9  3.541493E+05  9.670124E+04 -8.864453E+03  2.144826E+05  9.386477E+03 -6.024872E+02
       250  10  6.009410E+05  1.869899E+05  3.743360E+04  2.838274E+05 -1.611440E-09 -3.006483E-09
       250  11  5.344612E+05  1.535806E+05  2.396301E+04  2.557015E+05 -8.937241E-10 -6.379887E-10
       250  12  4.545844E+05  1.336121E+05  1.065774E+04  2.427806E+05 -4.375879E-10 -4.949730E-09
       250  13  4.043603E+05  1.151592E+05  2.090943E+02  2.286277E+05  1.626266E-09 -8.399109E-10
       250  14  4.110625E+05  1.084364E+05  4.659849E+02  2.210276E+05 -8.789617E-10  3.479045E-09
       250  15  4.043655E+05  1.151566E+05  8.966176E+02  2.286311E+05 -1.742065E-09  1.310473E-09
       250  16  2.078181E+05  4.333143E+04 -3.701749E+04  1.734436E+05  2.209794E-09  6.960817E-09
       250  17  2.876791E+05  6.329331E+04 -2.303184E+04  1.863600E+05  7.600306E-10  6.693891E-09
       250  18  3.541492E+05  9.670122E+04 -8.864619E+03  2.144826E+05 -3.587995E-10  3.017924E-09
       250  19  6.009411E+05  1.869902E+05  3.743426E+04  2.838275E+05  3.291380E+03  1.846789E+04
       250  20  5.344613E+05  1.535808E+05  2.396338E+04  2.557015E+05  5.677067E+03  1.283713E+04
       250  21  4.545845E+05  1.336122E+05  1.065796E+04  2.427807E+05  8.060873E+03  7.212998E+03
       250  22  4.043604E+05  1.151594E+05  2.095819E+02  2.286276E+05 -5.453543E+03  1.515567E+04
       250  23  4.110625E+05  1.084365E+05  4.661731E+02  2.210276E+05 -3.057433E+03  9.528313E+03
       250  24  4.043655E+05  1.151566E+05  8.966471E+02  2.286311E+05 -6.631787E+02  3.907599E+03
       250  25  2.078184E+05  4.333164E+04 -3.701685E+04  1.734435E+05 -1.419558E+04  1.184455E+04
       250  26  2.876792E+05  6.329339E+04 -2.303151E+04  1.863599E+05 -1.179011E+04  6.220188E+03
       250  27  3.541493E+05  9.670124E+04 -8.864453E+03  2.144826E+05 -9.386477E+03  6.024872E+02
       251   1  4.058253E+05  1.157308E+05  1.271109E+03  2.291595E+05 -9.508791E+03 -3.958069E+03
       251   2  3.392758E+05  8.230647E+04 -1.149826E+04  2.010519E+05 -1.263467E+04  1.345957E+03
       251   3  2.594671E+05  6.241968E+04 -2.351658E+04  1.881568E+05 -1.572930E+04  6.569103E+03
       251   4  4.043970E+05  1.151514E+05  1.208488E+03  2.286448E+05 -7.717139E+02 -6.476778E+02
       251   5  4.110187E+05  1.083963E+05  2.209816E+03  2.210291E+05 -4.022103E+03  4.608853E+03
       251   6  4.044001E+05  1.152025E+05  4.060473E+03  2.286235E+05 -7.241381E+03  9.784493E+03
       251   7  4.029688E+05  1.145721E+05  1.146200E+03  2.281301E+05  7.965267E+03  2.662674E+03
       251   8  4.827672E+05  1.344867E+05  1.591799E+04  2.410085E+05  4.591531E+03  7.872149E+03
       251   9  5.493563E+05  1.679878E+05  3.163732E+04  2.690993E+05  1.248731E+03  1.300071E+04
       251  10  4.058252E+05  1.157307E+05  1.270910E+03  2.291595E+05  9.901979E-09  5.061046E-09
       251  11  3.392757E+05  8.230643E+04 -1.149856E+04  2.010519E+05 -1.373389E-08 -4.295148E-09
       251  12  2.594669E+05  6.241957E+04 -2.351713E+04  1.881569E+05 -3.876581E-08 -1.693749E-08
       251  13  4.043970E+05  1.151514E+05  1.208486E+03  2.286448E+05 -1.240406E-09 -9.877348E-09
       251  14  4.110187E+05  1.083963E+05  2.209746E+03  2.210291E+05  1.539086E-09 -1.922533E-09
       251  15  4.044000E+05  1.152024E+05  4.060194E+03  2.286235E+05  1.014950E-10 -1.509830E-08
       251  16  4.029687E+05  1.145721E+05  1.146067E+03  2.281301E+05 -8.749614E-09  2.777655E-09
       251  17  4.827671E+05  1.344866E+05  1.591784E+04  2.410085E+05  1.516637E-08  3.970019E-09
       251  18  5.493563E+05  1.679876E+05  3.163700E+04  2.690993E+05  3.564439E-08  1.139163E-08
       251  19  4.058253E+05  1.157308E+05  1.271109E+03  2.291595E+05  9.508791E+03  3.958069E+03
       251  20  3.392758E+05  8.230647E+04 -1.149826E+04  2.010519E+05  1.263467E+04 -1.345957E+03
       251  21  2.594671E+05  6.241968E+04 -2.351658E+04  1.881568E+05  1.572930E+04 -6.569103E+03
       251  22  4.043970E+05  1.151514E+05  1.208488E+03  2.286448E+05  7.717139E+02  6.476778E+02
       251  23  4.110187E+05  1.083963E+05  2.209816E+03  2.210291E+05  4.022103E+03 -4.608853E+03
       251  24  4.044001E+05  1.152025E+05  4.060473E+03  2.286235E+05  7.241381E+03 -9.784493E+03
       251  25  4.029688E+05  1.145721E+05  1.146200E+03  2.281301E+05 -7.965267E+03 -2.662674E+03
       251  26  4.827672E+05  1.344867E+05  1.591799E+04  2.410085E+05 -4.591531E+03 -7.872149E+03
       251  27  5.493563E+05  1.679878E+05  3.163732E+04  2.690993E+05 -1.248731E+03 -1.300071E+04
       252   1  2.105764E+05  4.468847E+04 -3.190267E+04  1.749496E+05 -1.792441E+04  9.522284E+03
       252   2  1.442814E+05  1.089841E+04 -4.180008E+04  1.457858E+05 -2.316904E+04  1.340298E+04
       252   3  6.587133E+04 -7.278434E+03 -4.864267E+04  1.313426E+05 -2.800004E+04  1.619599E+04
       252   4  4.046281E+05  1.150988E+05  5.409759E+03  2.287521E+05 -9.250675E+03  1.280767E+04
       252   5  4.107473E+05  1.087357E+05  9.880146E+03  2.207812E+05 -1.616093E+04  1.605637E+04
       252   6  4.050750E+05  1.183138E+05  1.872416E+04  2.275280E+05 -2.265803E+04  1.821749E+04
       252   7  5.987190E+05  1.855125E+05  4.272087E+04  2.825702E+05 -5.740322E+02  1.609413E+04
       252   8  6.772858E+05  2.065791E+05  6.155711E+04  2.958062E+05 -9.149615E+03  1.871098E+04
       252   9  7.443947E+05  2.439158E+05  8.608482E+04  3.237614E+05 -1.731293E+04  2.024019E+04
       252  10  2.105760E+05  4.468829E+04 -3.190344E+04  1.749498E+05  3.743512E-08  8.901643E-09
       252  11  1.442808E+05  1.089808E+04 -4.180143E+04  1.457861E+05  1.198961E-08  9.356670E-09
       252  12  6.587042E+04 -7.278927E+03 -4.864463E+04  1.313429E+05 -1.469535E-08 -2.988569E-09
       252  13  4.046279E+05  1.150986E+05  5.409290E+03  2.287522E+05 -6.139165E-10  1.046223E-09
       252  14  4.107470E+05  1.087353E+05  9.879171E+03  2.207814E+05  7.882568E-10 -8.262365E-09
       252  15  4.050744E+05  1.183133E+05  1.872257E+04  2.275283E+05 -1.729014E-09 -3.157161E-09
       252  16  5.987189E+05  1.855122E+05  4.272038E+04  2.825702E+05 -3.794112E-08 -1.709384E-08
       252  17  6.772856E+05  2.065787E+05  6.155630E+04  2.958063E+05 -1.152961E-08 -3.824646E-11
       252  18  7.443942E+05  2.439153E+05  8.608349E+04  3.237617E+05  1.372353E-08  2.622122E-09
       252  19  2.105764E+05  4.468847E+04 -3.190267E+04  1.749496E+05  1.792441E+04 -9.522284E+03
       252  20  1.442814E+05  1.089841E+04 -4.180008E+04  1.457858E+05  2.316904E+04 -1.340298E+04
       252  21  6.587133E+04 -7.278434E+03 -4.864267E+04  1.313426E+05  2.800004E+04 -1.619599E+04
       252  22  4.046281E+05  1.150988E+05  5.409759E+03  2.287521E+05  9.250675E+03 -1.280767E+04
       252  23  4.107473E+05  1.087357E+05  9.880146E+03  2.207812E+05  1.616093E+04 -1.605637E+04
       252  24  4.050750E+05  1.183138E+05  1.872416E+04  2.275280E+05  2.265803E+04 -1.821749E+04
       252  25  5.987190E+05  1.855125E+05  4.272087E+04  2.825702E+05  5.740322E+02 -1.609413E+04
       252  26  6.772858E+05  2.065791E+05  6.155711E+04  2.958062E+05  9.149615E+03 -1.871098E+04
       252  27  7.443947E+05  2.439158E+05  8.608482E+04  3.237614E+05  1.731293E+04 -2.024019E+04
       253   1  1.381785E+04 -2.193279E+04 -5.290127E+04  1.258420E+05 -3.445094E+04  1.727099E+04
       253   2 -3.718256E+04 -6.390008E+04 -5.334828E+04  6.799289E+04 -3.564234E+04  1.434304E+04
       253   3 -8.199110E+04 -4.402920E+04 -3.875379E+04  1.123266E+04 -3.132275E+04 -3.152646E+03
       253   4  4.081462E+05  1.162629E+05  2.465439E+04  2.295008E+05 -2.664347E+04  2.022567E+04
       253   5  4.084374E+05  1.222613E+05  4.642714E+04  2.141439E+05 -5.010689E+04  8.865017E+03
       253   6  4.193142E+05  1.944837E+05  1.008863E+05  1.998772E+05 -6.806294E+04 -1.705857E+04
       253   7  8.026401E+05  2.544709E+05  1.022045E+05  3.332205E+05 -1.883057E+04  2.318221E+04
       253   8  8.542610E+05  3.084550E+05  1.461909E+05  3.603969E+05 -6.458260E+04  3.381512E+03
       253   9  9.208660E+05  4.330572E+05  2.405068E+05  3.886723E+05 -1.048349E+05 -3.098389E+04
       253  10  1.381650E+04 -2.193343E+04 -5.290407E+04  1.258425E+05  6.418792E-09  7.901925E-09
       253  11 -3.718397E+04 -6.390065E+04 -5.335105E+04  6.799330E+04  3.681597E-09  5.658791E-09
       253  12 -8.199216E+04 -4.402948E+04 -3.875565E+04  1.123258E+04 -3.971412E-10 -6.449490E-10
       253  13  4.081453E+05  1.162622E+05  2.465228E+04  2.295013E+05  1.316058E-09 -3.874604E-09
       253  14  4.084347E+05  1.222605E+05  4.642227E+04  2.141443E+05 -1.233588E-09 -1.705840E-09
       253  15  4.193092E+05  1.944822E+05  1.008770E+05  1.998763E+05  5.414961E-11 -9.358613E-10
       253  16  8.026396E+05  2.544702E+05  1.022029E+05  3.332208E+05 -9.441109E-09  1.517840E-09
       253  17  8.542565E+05  3.084538E+05  1.461831E+05  3.603971E+05 -4.984954E-09 -3.900878E-09
       253  18  9.208539E+05  4.330532E+05  2.404844E+05  3.886697E+05 -4.905619E-10 -3.610203E-09
       253  19  1.381785E+04 -2.193279E+04 -5.290127E+04  1.258420E+05  3.445094E+04 -1.727099E+04
       253  20 -3.718256E+04 -6.390008E+04 -5.334828E+04  6.799289E+04  3.564234E+04 -1.434304E+04
       253  21 -8.199110E+04 -4.402920E+04 -3.875379E+04  1.123266E+04  3.132275E+04  3.152646E+03
       253  22  4.081462E+05  1.162629E+05  2.465439E+04  2.295008E+05  2.664347E+04 -2.022567E+04
       253  23  4.084374E+05  1.222613E+05  4.642714E+04  2.141439E+05  5.010689E+04 -8.865017E+03
       253  24  4.193142E+05  1.944837E+05  1.008863E+05  1.998772E+05  6.806294E+04  1.705857E+04
       253  25  8.026401E+05  2.544709E+05  1.022045E+05  3.332205E+05  1.883057E+04 -2.318221E+04
       253  26  8.542610E+05  3.084550E+05  1.461909E+05  3.603969E+05  6.458260E+04 -3.381512E+03
       253  27  9.208660E+05  4.330572E+05  2.405068E+05  3.886723E+05  1.048349E+05  3.098389E+04
       254   1  9.038962E+04  3.084479E+03 -1.077274E+03 -8.235796E+02 -1.196058E+04 -1.005771E+03
       254   2  8.232098E+04  1.815356E+04  6.749017E+03  1.467369E+03 -8.590976E+03 -2.946569E+03
       254   3  6.938566E+04  1.567456E+04  7.990941E+03  8.854917E+03 -5.228846E+03 -2.779775E+03
       254   4  9.535132E+03 -1.696886E+04 -2.079525E+04  6.243428E+03 -1.426842E+04 -1.014019E+03
       254   5  1.210958E+04  9.135474E+02 -9.340763E+03  3.663487E+03 -9.280609E+03 -2.949063E+03
       254   6  9.535639E+03  9.657464E+02 -5.594984E+03  6.180234E+03 -4.300204E+03 -2.776461E+03
       254   7 -7.131327E+04 -3.702248E+04 -4.051365E+04  1.330951E+04 -1.657596E+04 -1.022321E+03
       254   8 -5.809723E+04 -1.632679E+04 -2.543086E+04  5.859351E+03 -9.970165E+03 -2.951562E+03
       254   9 -5.031104E+04 -1.374328E+04 -1.918113E+04  3.505809E+03 -3.371650E+03 -2.773156E+03
       254  10  9.038946E+04  3.084439E+03 -1.077544E+03 -8.235892E+02 -5.423790E-09  3.215056E-09
       254  11  8.232090E+04  1.815353E+04  6.748862E+03  1.467349E+03 -2.396295E-09  1.317614E-08
       254  12  6.938563E+04  1.567454E+04  7.990875E+03  8.854905E+03  1.847006E-09  4.943379E-09
       254  13  9.534913E+03 -1.696892E+04 -2.079563E+04  6.243417E+03 -1.083141E-09 -3.788650E-09
       254  14  1.210949E+04  9.135150E+02 -9.340942E+03  3.663465E+03  2.070153E-09 -1.253494E-08
       254  15  9.535617E+03  9.657331E+02 -5.595033E+03  6.180224E+03 -8.154153E-10  1.476063E-09
       254  16 -7.131356E+04 -3.702256E+04 -4.051417E+04  1.330950E+04  6.325327E-09  7.169604E-11
       254  17 -5.809734E+04 -1.632683E+04 -2.543107E+04  5.859327E+03 -1.223760E-10  9.259186E-09
       254  18 -5.031105E+04 -1.374330E+04 -1.918117E+04  3.505801E+03 -3.210322E-09  1.850929E-09
       254  19  9.038962E+04  3.084479E+03 -1.077274E+03 -8.235796E+02  1.196058E+04  1.005771E+03
       254  20  8.232098E+04  1.815356E+04  6.749017E+03  1.467369E+03  8.590976E+03  2.946569E+03
       254  21  6.938566E+04  1.567456E+04  7.990941E+03  8.854917E+03  5.228846E+03  2.779775E+03
       254  22  9.535132E+03 -1.696886E+04 -2.079525E+04  6.243428E+03  1.426842E+04  1.014019E+03
       254  23  1.210958E+04  9.135474E+02 -9.340763E+03  3.663487E+03  9.280609E+03  2.949063E+03
       254  24  9.535639E+03  9.657464E+02 -5.594984E+03  6.180234E+03  4.300204E+03  2.776461E+03
       254  25 -7.131327E+04 -3.702248E+04 -4.051365E+04  1.330951E+04  1.657596E+04  1.022321E+03
       254  26 -5.809723E+04 -1.632679E+04 -2.543086E+04  5.859351E+03  9.970165E+03  2.951562E+03
       254  27 -5.031104E+04 -1.374328E+04 -1.918113E+04  3.505809E+03  3.371650E+03  2.773156E+03
       255   1  6.086884E+04  1.121887E+04  6.976819E+03  5.939264E+03 -3.768139E+03 -2.230393E+03
       255   2  5.066970E+04  9.888601E+03  6.678657E+03  3.648528E+03 -2.642187E+03 -1.807814E+03
       255   3  3.997384E+04  7.338183E+03  5.332532E+03  6.490614E+03 -1.516653E+03 -1.286179E+03
       255   4  1.056653E+04 -1.131478E+03 -4.489205E+03  6.208720E+03 -3.484529E+03 -2.229393E+03
       255   5  1.082176E+04  1.072162E+02 -2.383745E+03  3.640061E+03 -2.282593E+03 -1.806531E+03
       255   6  1.056676E+04  1.124795E+02 -1.379122E+03  6.204253E+03 -1.081057E+03 -1.284611E+03
       255   7 -3.973343E+04 -1.348200E+04 -1.595539E+04  6.478153E+03 -3.200943E+03 -2.228393E+03
       255   8 -2.902471E+04 -9.674279E+03 -1.144625E+04  3.631593E+03 -1.923022E+03 -1.805248E+03
       255   9 -1.883951E+04 -7.113284E+03 -8.090832E+03  5.917905E+03 -6.454819E+02 -1.283042E+03
       255  10  6.086883E+04  1.121886E+04  6.976783E+03  5.939257E+03  2.890325E-09 -6.580918E-10
       255  11  5.066969E+04  9.888596E+03  6.678638E+03  3.648524E+03  1.255173E-09  1.262751E-09
       255  12  3.997384E+04  7.338181E+03  5.332525E+03  6.490613E+03  1.504391E-09  1.105866E-08
       255  13  1.056652E+04 -1.131486E+03 -4.489237E+03  6.208714E+03  1.058745E-09  1.371054E-08
       255  14  1.082175E+04  1.072113E+02 -2.383761E+03  3.640057E+03 -5.783153E-10 -1.977612E-08
       255  15  1.056676E+04  1.124774E+02 -1.379127E+03  6.204252E+03  1.400418E-10  1.002219E-08
       255  16 -3.973345E+04 -1.348201E+04 -1.595542E+04  6.478147E+03 -3.858336E-09 -6.392292E-09
       255  17 -2.902472E+04 -9.674283E+03 -1.144626E+04  3.631590E+03  6.721135E-10 -2.876281E-09
       255  18 -1.883951E+04 -7.113286E+03 -8.090836E+03  5.917905E+03 -1.841195E-09  5.682312E-09
       255  19  6.086884E+04  1.121887E+04  6.976819E+03  5.939264E+03  3.768139E+03  2.230393E+03
       255  20  5.066970E+04  9.888601E+03  6.678657E+03  3.648528E+03  2.642187E+03  1.807814E+03
       255  21  3.997384E+04  7.338183E+03  5.332532E+03  6.490614E+03  1.516653E+03  1.286179E+03
       255  22  1.056653E+04 -1.131478E+03 -4.489205E+03  6.208720E+03  3.484529E+03  2.229393E+03
       255  23  1.082176E+04  1.072162E+02 -2.383745E+03  3.640061E+03  2.282593E+03  1.806531E+03
       255  24  1.056676E+04  1.124795E+02 -1.379122E+03  6.204253E+03  1.081057E+03  1.284611E+03
       255  25 -3.973343E+04 -1.348200E+04 -1.595539E+04  6.478153E+03  3.200943E+03  2.228393E+03
       255  26 -2.902471E+04 -9.674279E+03 -1.144625E+04  3.631593E+03  1.923022E+03  1.805248E+03
       255  27 -1.883951E+04 -7.113284E+03 -8.090832E+03  5.917905E+03  6.454819E+02  1.283042E+03
       256   1  3.053503E+04  4.842750E+03  3.432306E+03  6.259398E+03 -1.273177E+03 -9.627331E+02
       256   2  2.013987E+04  2.352041E+03  1.564092E+03  3.675465E+03 -9.903288E+02 -4.317321E+02
       256   3  9.648079E+03 -1.916973E+02 -5.120604E+02  6.225544E+03 -7.075053E+02  1.039147E+02
       256   4  1.065865E+04 -3.064998E+01 -1.057658E+03  6.205966E+03 -8.679171E+02 -9.612702E+02
       256   5  1.070728E+04  3.653567E+01 -5.799839E+02  3.638807E+03 -5.815104E+02 -4.302539E+02
       256   6  1.065871E+04  5.011682E+01 -3.126835E+02  6.205667E+03 -2.951235E+02  1.054086E+02
       256   7 -9.217352E+03 -4.904077E+03 -5.547647E+03  6.152534E+03 -4.626701E+02 -9.598073E+02
       256   8  1.274779E+03 -2.278976E+03 -2.724065E+03  3.602150E+03 -1.726980E+02 -4.287757E+02
       256   9  1.166934E+04  2.919310E+02 -1.133061E+02  6.185789E+03  1.172591E+02  1.069025E+02
       256  10  3.053503E+04  4.842749E+03  3.432301E+03  6.259397E+03  1.014983E-08 -4.272665E-09
       256  11  2.013987E+04  2.352041E+03  1.564090E+03  3.675465E+03  7.381138E-10 -2.262308E-09
       256  12  9.648078E+03 -1.916975E+02 -5.120613E+02  6.225544E+03 -5.851272E-09 -1.900084E-09
       256  13  1.065865E+04 -3.065118E+01 -1.057661E+03  6.205965E+03 -2.150563E-09 -9.424201E-10
       256  14  1.070728E+04  3.653538E+01 -5.799848E+02  3.638807E+03  1.044366E-09 -9.709880E-09
       256  15  1.065871E+04  5.011678E+01 -3.126837E+02  6.205667E+03  2.832503E-10 -6.797565E-09
       256  16 -9.217352E+03 -4.904078E+03 -5.547649E+03  6.152534E+03 -1.137725E-08 -2.704902E-09
       256  17  1.274779E+03 -2.278976E+03 -2.724066E+03  3.602150E+03 -6.805725E-10  9.784061E-10
       256  18  1.166934E+04  2.919310E+02 -1.133062E+02  6.185789E+03  3.589616E-09  4.416954E-09
       256  19  3.053503E+04  4.842750E+03  3.432306E+03  6.259398E+03  1.273177E+03  9.627331E+02
       256  20  2.013987E+04  2.352041E+03  1.564092E+03  3.675465E+03  9.903288E+02  4.317321E+02
       256  21  9.648079E+03 -1.916973E+02 -5.120604E+02  6.225544E+03  7.075053E+02 -1.039147E+02
       256  22  1.065865E+04 -3.064998E+01 -1.057658E+03  6.205966E+03  8.679171E+02  9.612702E+02
       256  23  1.070728E+04  3.653567E+01 -5.799839E+02  3.638807E+03  5.815104E+02  4.302539E+02
       256  24  1.065871E+04  5.011682E+01 -3.126835E+02  6.205667E+03  2.951235E+02 -1.054086E+02
       256  25 -9.217352E+03 -4.904077E+03 -5.547647E+03  6.152534E+03  4.626701E+02  9.598073E+02
       256  26  1.274779E+03 -2.278976E+03 -2.724065E+03  3.602150E+03  1.726980E+02  4.287757E+02
       256  27  1.166934E+04  2.919310E+02 -1.133061E+02  6.185789E+03 -1.172591E+02 -1.069025E+02
       257   1  1.302966E+02 -2.551775E+03 -2.645921E+03  6.185077E+03 -6.593247E+02  4.162424E+02
       257   2 -1.029152E+04 -5.123383E+03 -4.845217E+03  3.589458E+03 -6.236656E+02  9.515934E+02
       257   3 -2.075629E+04 -7.663633E+03 -7.070363E+03  6.127930E+03 -5.879911E+02  1.487150E+03
       257   4  1.067070E+04  4.150646E+01 -2.201366E+02  6.205778E+03 -2.483674E+02  4.177301E+02
       257   5  1.069219E+04  2.735013E+01 -7.616974E+01  3.638729E+03 -2.125535E+02  9.530756E+02
       257   6  1.067058E+04  4.453033E+01  4.184239E+01  6.205759E+03 -1.767236E+02  1.488628E+03
       257   7  2.121122E+04  2.634781E+03  2.205641E+03  6.226479E+03  1.625969E+02  4.192179E+02
       257   8  3.167631E+04  5.178053E+03  4.692850E+03  3.688001E+03  1.985724E+02  9.545580E+02
       257   9  4.209837E+04  7.752626E+03  7.153985E+03  6.283592E+03  2.345646E+02  1.490105E+03
       257  10  1.302961E+02 -2.551776E+03 -2.645923E+03  6.185077E+03  7.799428E-09 -2.468131E-09
       257  11 -1.029152E+04 -5.123384E+03 -4.845220E+03  3.589459E+03  1.430028E-09  1.019137E-09
       257  12 -2.075630E+04 -7.663636E+03 -7.070368E+03  6.127930E+03 -4.540641E-09  3.615755E-09
       257  13  1.067070E+04  4.150626E+01 -2.201371E+02  6.205778E+03 -1.085503E-09  4.629935E-09
       257  14  1.069219E+04  2.734915E+01 -7.617154E+01  3.638729E+03 -3.191014E-11 -4.518535E-09
       257  15  1.067058E+04  4.452794E+01  4.183817E+01  6.205760E+03 -1.828346E-09 -1.570853E-09
       257  16  2.121122E+04  2.634780E+03  2.205641E+03  6.226479E+03 -9.320460E-09  3.955069E-09
       257  17  3.167630E+04  5.178052E+03  4.692848E+03  3.688001E+03 -1.920250E-09  1.444960E-08
       257  18  4.209837E+04  7.752624E+03  7.153981E+03  6.283592E+03  2.569705E-09  5.129273E-09
       257  19  1.302966E+02 -2.551775E+03 -2.645921E+03  6.185077E+03  6.593247E+02 -4.162424E+02
       257  20 -1.029152E+04 -5.123383E+03 -4.845217E+03  3.589458E+03  6.236656E+02 -9.515934E+02
       257  21 -2.075629E+04 -7.663633E+03 -7.070363E+03  6.127930E+03  5.879911E+02 -1.487150E+03
       257  22  1.067070E+04  4.150646E+01 -2.201366E+02  6.205778E+03  2.483674E+02 -4.177301E+02
       257  23  1.069219E+04  2.735013E+01 -7.616974E+01  3.638729E+03  2.125535E+02 -9.530756E+02
       257  24  1.067058E+04  4.453033E+01  4.184239E+01  6.205759E+03  1.767236E+02 -1.488628E+03
       257  25  2.121122E+04  2.634781E+03  2.205641E+03  6.226479E+03 -1.625969E+02 -4.192179E+02
       257  26  3.167631E+04  5.178053E+03  4.692850E+03  3.688001E+03 -1.985724E+02 -9.545580E+02
       257  27  4.209837E+04  7.752626E+03  7.153985E+03  6.283592E+03 -2.345646E+02 -1.490105E+03
       258   1 -3.028045E+04 -1.001595E+04 -9.235704E+03  6.103393E+03 -6.023161E+02  1.798825E+03
       258   2 -4.071641E+04 -1.259495E+04 -1.142694E+04  3.511350E+03 -7.302985E+02  2.333804E+03
       258   3 -5.116792E+04 -1.512492E+04 -1.353269E+04  6.054284E+03 -8.582346E+02  2.868411E+03
       258   4  1.067649E+04  4.374327E+01  1.032546E+02  6.205967E+03 -1.909865E+02  1.800296E+03
       258   5  1.068421E+04  2.232520E+01  2.553627E+02  3.638477E+03 -3.192707E+02  2.335259E+03
       258   6  1.067618E+04  4.996797E+01  4.931198E+02  6.205937E+03 -4.475107E+02  2.869851E+03
       258   7  5.163498E+04  1.010332E+04  9.442105E+03  6.308547E+03  2.203700E+02  1.801767E+03
       258   8  6.208729E+04  1.263942E+04  1.193750E+04  3.765613E+03  9.179082E+01  2.336715E+03
       258   9  7.252384E+04  1.522459E+04  1.451869E+04  6.357602E+03 -3.674622E+01  2.871292E+03
       258  10 -3.028045E+04 -1.001595E+04 -9.235711E+03  6.103394E+03 -1.619245E-08  2.187596E-09
       258  11 -4.071642E+04 -1.259496E+04 -1.142695E+04  3.511352E+03 -1.005878E-08 -5.403527E-09
       258  12 -5.116793E+04 -1.512493E+04 -1.353271E+04  6.054286E+03 -5.227188E-09 -7.239466E-09
       258  13  1.067649E+04  4.373978E+01  1.032484E+02  6.205968E+03  1.106968E-09  1.044074E-08
       258  14  1.068421E+04  2.231932E+01  2.553522E+02  3.638478E+03 -4.267292E-11 -7.697291E-09
       258  15  1.067618E+04  4.995907E+01  4.931039E+02  6.205938E+03 -9.167429E-10 -7.025890E-09
       258  16  5.163498E+04  1.010331E+04  9.442098E+03  6.308547E+03  1.208364E-08  3.382913E-09
       258  17  6.208729E+04  1.263942E+04  1.193749E+04  3.765613E+03  7.975600E-09 -1.560885E-08
       258  18  7.252384E+04  1.522458E+04  1.451867E+04  6.357602E+03  3.824733E-09 -1.025704E-08
       258  19 -3.028045E+04 -1.001595E+04 -9.235704E+03  6.103393E+03  6.023161E+02 -1.798825E+03
       258  20 -4.071641E+04 -1.259495E+04 -1.142694E+04  3.511350E+03  7.302985E+02 -2.333804E+03
       258  21 -5.116792E+04 -1.512492E+04 -1.353269E+04  6.054284E+03  8.582346E+02 -2.868411E+03
       258  22  1.067649E+04  4.374327E+01  1.032546E+02  6.205967E+03  1.909865E+02 -1.800296E+03
       258  23  1.068421E+04  2.232520E+01  2.553627E+02  3.638477E+03  3.192707E+02 -2.335259E+03
       258  24  1.067618E+04  4.996797E+01  4.931198E+02  6.205937E+03  4.475107E+02 -2.869851E+03
       258  25  5.163498E+04  1.010332E+04  9.442105E+03  6.308547E+03 -2.203700E+02 -1.801767E+03
       258  26  6.208729E+04  1.263942E+04  1.193750E+04  3.765613E+03 -9.179082E+01 -2.336715E+03
       258  27  7.252384E+04  1.522459E+04  1.451869E+04  6.357602E+03  3.674622E+01 -2.871292E+03
       259   1 -6.067654E+04 -1.749357E+04 -1.559222E+04  6.057991E+03 -9.657431E+02  3.180682E+03
       259   2 -7.116486E+04 -2.008059E+04 -1.743194E+04  3.442995E+03 -1.539931E+03  3.712734E+03
       259   3 -8.156705E+04 -2.245459E+04 -1.885408E+04  5.961890E+03 -2.114024E+03  4.236239E+03
       259   4  1.069878E+04  3.287425E+01  6.602058E+02  6.205878E+03 -5.523752E+02  3.182120E+03
       259   5  1.065488E+04  4.069639E+00  1.164848E+03  3.638676E+03 -1.133196E+03  3.714126E+03
       259   6  1.069829E+04  1.894603E+02  2.091675E+03  6.205322E+03 -1.713930E+03  4.237585E+03
       259   7  8.207882E+04  1.755896E+04  1.691230E+04  6.353779E+03 -1.389603E+02  3.183558E+03
       259   8  9.248083E+04  2.008826E+04  1.976120E+04  3.834377E+03 -7.264072E+02  3.715517E+03
       259   9  1.029715E+05  2.283292E+04  2.303688E+04  6.448783E+03 -1.313778E+03  4.238931E+03
       259  10 -6.067654E+04 -1.749358E+04 -1.559224E+04  6.057993E+03 -8.257083E-09 -2.780511E-09
       259  11 -7.116487E+04 -2.008060E+04 -1.743197E+04  3.443000E+03  1.559141E-09 -1.297263E-08
       259  12 -8.156706E+04 -2.245461E+04 -1.885412E+04  5.961897E+03  9.498251E-09  1.633768E-09
       259  13  1.069877E+04  3.286329E+01  6.601862E+02  6.205880E+03 -1.074996E-09 -7.070931E-09
       259  14  1.065487E+04  4.054482E+00  1.164820E+03  3.638679E+03 -2.228170E-09 -3.080002E-10
       259  15  1.069828E+04  1.894402E+02  2.091635E+03  6.205327E+03 -1.051660E-09  2.358475E-09
       259  16  8.207881E+04  1.755895E+04  1.691229E+04  6.353779E+03  5.205944E-09  1.565284E-09
       259  17  9.248082E+04  2.008825E+04  1.976117E+04  3.834379E+03 -5.012620E-09 -8.931632E-09
       259  18  1.029715E+05  2.283291E+04  2.303684E+04  6.448788E+03 -1.264648E-08  4.561088E-09
       259  19 -6.067654E+04 -1.749357E+04 -1.559222E+04  6.057991E+03  9.657431E+02 -3.180682E+03
       259  20 -7.116486E+04 -2.008059E+04 -1.743194E+04  3.442995E+03  1.539931E+03 -3.712734E+03
       259  21 -8.156705E+04 -2.245459E+04 -1.885408E+04  5.961890E+03  2.114024E+03 -4.236239E+03
       259  22  1.069878E+04  3.287425E+01  6.602058E+02  6.205878E+03  5.523752E+02 -3.182120E+03
       259  23  1.065488E+04  4.069639E+00  1.164848E+03  3.638676E+03  1.133196E+03 -3.714126E+03
       259  24  1.069829E+04  1.894603E+02  2.091675E+03  6.205322E+03  1.713930E+03 -4.237585E+03
       259  25  8.207882E+04  1.755896E+04  1.691230E+04  6.353779E+03  1.389603E+02 -3.183558E+03
       259  26  9.248083E+04  2.008826E+04  1.976120E+04  3.834377E+03  7.264072E+02 -3.715517E+03
       259  27  1.029715E+05  2.283292E+04  2.303688E+04  6.448783E+03  1.313778E+03 -4.238931E+03
       260   1 -9.092407E+04 -2.508381E+04 -2.044440E+04  6.345165E+03 -2.594294E+03  4.566543E+03
       260   2 -1.018084E+05 -2.769299E+04 -2.083617E+04  3.156274E+03 -4.820766E+03  5.061705E+03
       260   3 -1.118137E+05 -2.779660E+04 -1.916028E+04  5.091355E+03 -7.046508E+03  5.374112E+03
       260   4  1.087911E+04 -9.165001E+01  2.719410E+03  6.205823E+03 -2.138249E+03  4.568067E+03
       260   5  1.042727E+04 -1.374209E+02  4.685776E+03  3.639729E+03 -4.505446E+03  5.062713E+03
       260   6  1.087847E+04  2.346540E+03  8.817251E+03  6.197539E+03 -6.871950E+03  5.374616E+03
       260   7  1.126919E+05  2.489979E+04  2.588254E+04  6.066449E+03 -1.682131E+03  4.569590E+03
       260   8  1.226746E+05  2.741727E+04  3.020690E+04  4.123263E+03 -4.190070E+03  5.063721E+03
       260   9  1.335846E+05  3.248864E+04  3.679380E+04  7.303932E+03 -6.697358E+03  5.375120E+03
       260  10 -9.092409E+04 -2.508383E+04 -2.044445E+04  6.345175E+03  7.868864E-09 -4.206584E-10
       260  11 -1.018084E+05 -2.769302E+04 -2.083626E+04  3.156294E+03 -4.705917E-09  4.665104E-09
       260  12 -1.118138E+05 -2.779665E+04 -1.916043E+04  5.091385E+03 -8.548620E-09 -4.727854E-09
       260  13  1.087910E+04 -9.167364E+01  2.719362E+03  6.205831E+03 -1.046827E-09 -1.207952E-08
       260  14  1.042724E+04 -1.374538E+02  4.685690E+03  3.639748E+03 -2.211521E-09  1.662332E-09
       260  15  1.087841E+04  2.346496E+03  8.817108E+03  6.197569E+03  2.663056E-11 -4.956644E-10
       260  16  1.126919E+05  2.489977E+04  2.588250E+04  6.066455E+03 -1.067175E-08 -3.049772E-09
       260  17  1.226746E+05  2.741724E+04  3.020682E+04  4.123280E+03  2.203849E-09 -1.741576E-08
       260  18  1.335846E+05  3.248860E+04  3.679366E+04  7.303961E+03  7.387136E-09  7.465844E-10
       260  19 -9.092407E+04 -2.508381E+04 -2.044440E+04  6.345165E+03  2.594294E+03 -4.566543E+03
       260  20 -1.018084E+05 -2.769299E+04 -2.083617E+04  3.156274E+03  4.820766E+03 -5.061705E+03
       260  21 -1.118137E+05 -2.779660E+04 -1.916028E+04  5.091355E+03  7.046508E+03 -5.374112E+03
       260  22  1.087911E+04 -9.165001E+01  2.719410E+03  6.205823E+03  2.138249E+03 -4.568067E+03
       260  23  1.042727E+04 -1.374209E+02  4.685776E+03  3.639729E+03  4.505446E+03 -5.062713E+03
       260  24  1.087847E+04  2.346540E+03  8.817251E+03  6.197539E+03  6.871950E+03 -5.374616E+03
       260  25  1.126919E+05  2.489979E+04  2.588254E+04  6.066449E+03  1.682131E+03 -4.569590E+03
       260  26  1.226746E+05  2.741727E+04  3.020690E+04  4.123263E+03  4.190070E+03 -5.063721E+03
       260  27  1.335846E+05  3.248864E+04  3.679380E+04  7.303932E+03  6.697358E+03 -5.375120E+03
       261   1 -1.194280E+05 -3.420338E+04 -1.901983E+04  1.078812E+04 -9.845722E+03  6.106054E+03
       261   2 -1.346061E+05 -3.679488E+04 -1.431057E+04 -1.354074E+03 -1.663328E+04  5.917550E+03
       261   3 -1.402791E+05 -4.786059E+03  3.463475E+03 -8.590052E+03 -2.340803E+04  1.837605E+03
       261   4  1.290415E+04 -1.771829E+03  1.098775E+04  6.186414E+03 -8.480416E+03  6.110593E+03
       261   5  7.893134E+03 -1.724771E+03  1.833876E+04  3.676083E+03 -1.825813E+04  5.912005E+03
       261   6  1.290369E+04  3.343710E+04  4.082893E+04  6.071718E+03 -2.802317E+04  1.822164E+03
       261   7  1.452526E+05  3.065861E+04  4.099422E+04  1.583703E+03 -7.114821E+03  6.115112E+03
       261   8  1.504112E+05  3.334402E+04  5.098677E+04  8.707389E+03 -1.988335E+04  5.906434E+03
       261   9  1.661083E+05  7.165933E+04  7.819287E+04  2.073710E+04 -3.263945E+04  1.806507E+03
       261  10 -1.194281E+05 -3.420345E+04 -1.902008E+04  1.078817E+04  3.052582E-09 -5.458723E-09
       261  11 -1.346064E+05 -3.679499E+04 -1.431116E+04 -1.353995E+03  4.090110E-09  4.874719E-11
       261  12 -1.402797E+05 -4.786210E+03  3.462438E+03 -8.590017E+03  3.685435E-09  4.289191E-09
       261  13  1.290407E+04 -1.771888E+03  1.098755E+04  6.186456E+03  1.070695E-09  1.005729E-09
       261  14  7.892767E+03 -1.724898E+03  1.833806E+04  3.676170E+03  2.045909E-09  5.971392E-09
       261  15  1.290285E+04  3.343689E+04  4.082745E+04  6.071760E+03 -6.570045E-10  4.435031E-09
       261  16  1.452525E+05  3.065855E+04  4.099406E+04  1.583738E+03 -4.014656E-09  8.242401E-09
       261  17  1.504108E+05  3.334387E+04  5.098596E+04  8.707484E+03 -3.770345E-09  1.473843E-08
       261  18  1.661072E+05  7.165904E+04  7.819086E+04  2.073715E+04 -3.886220E-09 -4.381664E-10
       261  19 -1.194280E+05 -3.420338E+04 -1.901983E+04  1.078812E+04  9.845722E+03 -6.106054E+03
       261  20 -1.346061E+05 -3.679488E+04 -1.431057E+04 -1.354074E+03  1.663328E+04 -5.917550E+03
       261  21 -1.402791E+05 -4.786059E+03  3.463475E+03 -8.590052E+03  2.340803E+04 -1.837605E+03
       261  22  1.290415E+04 -1.771829E+03  1.098775E+04  6.186414E+03  8.480416E+03 -6.110593E+03
       261  23  7.893134E+03 -1.724771E+03  1.833876E+04  3.676083E+03  1.825813E+04 -5.912005E+03
       261  24  1.290369E+04  3.343710E+04  4.082893E+04  6.071718E+03  2.802317E+04 -1.822164E+03
       261  25  1.452526E+05  3.065861E+04  4.099422E+04  1.583703E+03  7.114821E+03 -6.115112E+03
       261  26  1.504112E+05  3.334402E+04  5.098677E+04  8.707389E+03  1.988335E+04 -5.906434E+03
       261  27  1.661083E+05  7.165933E+04  7.819287E+04  2.073710E+04  3.263945E+04 -1.806507E+03
       262   1 -3.146907E+05 -1.326458E+06 -3.309894E+05  1.434219E+05 -9.725587E+03 -1.002408E+05
       262   2 -1.706626E+05 -1.141376E+06 -2.170119E+05  7.489080E+04 -2.913085E+04 -5.364920E+04
       262   3 -1.291919E+05 -9.871239E+05 -1.589219E+05  8.861625E+04 -2.486455E+04 -6.967776E+03
       262   4 -9.452135E+04 -4.440388E+05 -1.151056E+05  1.010462E+05 -9.794847E+03 -7.646286E+04
       262   5  4.478348E+03 -4.301618E+05 -5.366584E+04  6.006982E+04 -2.914423E+04 -4.798423E+04
       262   6  4.134532E+03 -4.439527E+05 -3.547451E+04  1.013531E+05 -2.482999E+04 -1.942971E+04
       262   7  1.255971E+05  4.390964E+05  1.007242E+05  5.861052E+04 -9.867314E+03 -5.265111E+04
       262   8  1.795848E+05  2.815220E+05  1.096470E+05  4.523202E+04 -2.915787E+04 -4.231278E+04
       262   9  1.374413E+05  9.949349E+04  8.795442E+04  1.141014E+05 -2.479596E+04 -3.190246E+04
       262  10 -3.146935E+05 -1.326469E+06 -3.310085E+05  1.434212E+05  1.073353E-10 -1.231266E-08
       262  11 -1.706643E+05 -1.141379E+06 -2.170189E+05  7.488954E+04 -3.342961E-09 -2.603023E-09
       262  12 -1.291926E+05 -9.871241E+05 -1.589231E+05  8.861611E+04 -3.450841E-10  3.271136E-10
       262  13 -9.452302E+04 -4.440451E+05 -1.151168E+05  1.010456E+05 -2.036270E-10  7.357039E-09
       262  14  4.476818E+03 -4.301645E+05 -5.367177E+04  6.006870E+04 -1.527967E-09  2.130338E-09
       262  15  4.133769E+03 -4.439533E+05 -3.547638E+04  1.013528E+05 -3.369256E-09  3.416893E-09
       262  16  1.255963E+05  4.390934E+05  1.007188E+05  5.861010E+04 -2.133601E-10  8.644084E-09
       262  17  1.795834E+05  2.815198E+05  1.096421E+05  4.523103E+04 -1.907861E-11 -5.711818E-11
       262  18  1.374404E+05  9.949223E+04  8.795135E+04  1.141008E+05 -4.265650E-09  1.427822E-09
       262  19 -3.146907E+05 -1.326458E+06 -3.309894E+05  1.434219E+05  9.725587E+03  1.002408E+05
       262  20 -1.706626E+05 -1.141376E+06 -2.170119E+05  7.489080E+04  2.913085E+04  5.364920E+04
       262  21 -1.291919E+05 -9.871239E+05 -1.589219E+05  8.861625E+04  2.486455E+04  6.967776E+03
       262  22 -9.452135E+04 -4.440388E+05 -1.151056E+05  1.010462E+05  9.794847E+03  7.646286E+04
       262  23  4.478348E+03 -4.301618E+05 -5.366584E+04  6.006982E+04  2.914423E+04  4.798423E+04
       262  24  4.134532E+03 -4.439527E+05 -3.547451E+04  1.013531E+05  2.482999E+04  1.942971E+04
       262  25  1.255971E+05  4.390964E+05  1.007242E+05  5.861052E+04  9.867314E+03  5.265111E+04
       262  26  1.795848E+05  2.815220E+05  1.096470E+05  4.523202E+04  2.915787E+04  4.231278E+04
       262  27  1.374413E+05  9.949349E+04  8.795442E+04  1.141014E+05  2.479596E+04  3.190246E+04
       263   1 -1.020124E+05 -8.263298E+05 -1.193946E+05  1.055453E+05 -1.710678E+04 -8.542527E+03
       263   2 -5.290540E+04 -6.540493E+05 -7.371648E+04  6.026912E+04 -9.838045E+03  4.091613E+03
       263   3 -1.741106E+04 -4.862127E+05 -3.954926E+04  9.854518E+04 -2.060935E+03  1.672789E+04
       263   4 -6.736950E+03 -4.387520E+05 -3.098768E+04  1.015489E+05 -1.709215E+04 -1.395448E+04
       263   5  5.244217E+02 -4.365408E+05 -2.421858E+04  5.977458E+04 -9.823298E+03 -1.705605E+03
       263   6 -5.755088E+03 -4.387314E+05 -2.868728E+04  1.015516E+05 -2.046106E+03  1.054204E+04
       263   7  8.852817E+04 -5.103460E+04  5.740956E+04  9.755010E+04 -1.707747E+04 -1.936979E+04
       263   8  5.395099E+04 -2.189883E+05  2.527637E+04  5.927989E+04 -9.808545E+03 -7.504838E+03
       263   9  5.900787E+03 -3.912480E+05 -1.782530E+04  1.045583E+05 -2.031337E+03  4.355718E+03
       263  10 -1.020128E+05 -8.263300E+05 -1.193953E+05  1.055452E+05  2.670189E-10 -1.703959E-08
       263  11 -5.290551E+04 -6.540494E+05 -7.371670E+04  6.026915E+04  1.735846E-09 -9.795283E-09
       263  12 -1.741114E+04 -4.862130E+05 -3.954980E+04  9.854521E+04  6.682571E-10 -9.061353E-09
       263  13 -6.737316E+03 -4.387523E+05 -3.098860E+04  1.015487E+05 -2.401879E-09  6.978417E-09
       263  14  5.243173E+02 -4.365409E+05 -2.421877E+04  5.977456E+04 -3.082970E-09 -1.215618E-09
       263  15 -5.755122E+03 -4.387315E+05 -2.868750E+04  1.015517E+05 -1.202554E-09  2.788157E-09
       263  16  8.852775E+04 -5.103508E+04  5.740830E+04  9.754983E+04 -3.581679E-09  1.308284E-08
       263  17  5.395087E+04 -2.189884E+05  2.527608E+04  5.927983E+04 -6.104529E-10  1.114150E-08
       263  18  5.900778E+03 -3.912480E+05 -1.782534E+04  1.045583E+05  1.412806E-09  8.312945E-09
       263  19 -1.020124E+05 -8.263298E+05 -1.193946E+05  1.055453E+05  1.710678E+04  8.542527E+03
       263  20 -5.290540E+04 -6.540493E+05 -7.371648E+04  6.026912E+04  9.838045E+03 -4.091613E+03
       263  21 -1.741106E+04 -4.862127E+05 -3.954926E+04  9.854518E+04  2.060935E+03 -1.672789E+04
       263  22 -6.736950E+03 -4.387520E+05 -3.098768E+04  1.015489E+05  1.709215E+04  1.395448E+04
       263  23  5.244217E+02 -4.365408E+05 -2.421858E+04  5.977458E+04  9.823298E+03  1.705605E+03
       263  24 -5.755088E+03 -4.387314E+05 -2.868728E+04  1.015516E+05  2.046106E+03 -1.054204E+04
       263  25  8.852817E+04 -5.103460E+04  5.740956E+04  9.755010E+04  1.707747E+04  1.936979E+04
       263  26  5.395099E+04 -2.189883E+05  2.527637E+04  5.927989E+04  9.808545E+03  7.504838E+03
       263  27  5.900787E+03 -3.912480E+05 -1.782530E+04  1.045583E+05  2.031337E+03 -4.355718E+03
       264   1  3.001257E+04 -3.349852E+05 -7.399492E+03  1.133143E+05  4.552443E+03  2.538332E+04
       264   2  7.233462E+04 -1.536345E+05  1.675211E+04  4.786999E+04  1.083366E+04  4.055429E+04
       264   3  2.995927E+04  5.196131E+03  9.980865E+03  6.536463E+04  4.195784E+03  5.569556E+04
       264   4  3.493387E+03 -4.431486E+05 -3.213152E+04  1.014841E+05  4.575459E+03  1.556845E+04
       264   5  3.983146E+03 -4.310278E+05 -4.716641E+04  5.989867E+04  1.083451E+04  4.064819E+04
       264   6 -8.196780E+04 -4.431919E+05 -1.000205E+05  1.012601E+05  4.173043E+03  6.569373E+04
       264   7 -2.302603E+04 -5.513007E+05 -5.686388E+04  8.965589E+04  4.598850E+03  5.755286E+03
       264   8 -6.437319E+04 -7.083496E+05 -1.110900E+05  7.192196E+04  1.083537E+04  4.074205E+04
       264   9 -1.939050E+05 -8.913939E+05 -2.100355E+05  1.371297E+05  4.151452E+03  7.568467E+04
       264  10  3.001238E+04 -3.349859E+05 -7.400742E+03  1.133142E+05  1.727547E-09 -9.967142E-09
       264  11  7.233405E+04 -1.536363E+05  1.674879E+04  4.786964E+04  3.091250E-09 -6.279438E-09
       264  12  2.995842E+04  5.192795E+03  9.975003E+03  6.536444E+04  4.730594E-10 -6.477684E-09
       264  13  3.493299E+03 -4.431489E+05 -3.213202E+04  1.014840E+05  1.215013E-09  4.505478E-09
       264  14  3.982576E+03 -4.310296E+05 -4.716974E+04  5.989831E+04 -9.662615E-10 -3.381192E-09
       264  15 -8.196898E+04 -4.431965E+05 -1.000286E+05  1.012599E+05  1.423908E-09  2.917599E-09
       264  16 -2.302606E+04 -5.513007E+05 -5.686398E+04  8.965587E+04  5.747919E-10  5.507727E-09
       264  17 -6.437376E+04 -7.083514E+05 -1.110933E+05  7.192161E+04  1.970897E-09  5.563782E-09
       264  18 -1.939066E+05 -8.914001E+05 -2.100463E+05  1.371295E+05  1.353934E-09  7.550564E-09
       264  19  3.001257E+04 -3.349852E+05 -7.399492E+03  1.133143E+05 -4.552443E+03 -2.538332E+04
       264  20  7.233462E+04 -1.536345E+05  1.675211E+04  4.786999E+04 -1.083366E+04 -4.055429E+04
       264  21  2.995927E+04  5.196131E+03  9.980865E+03  6.536463E+04 -4.195784E+03 -5.569556E+04
       264  22  3.493387E+03 -4.431486E+05 -3.213152E+04  1.014841E+05 -4.575459E+03 -1.556845E+04
       264  23  3.983146E+03 -4.310278E+05 -4.716641E+04  5.989867E+04 -1.083451E+04 -4.064819E+04
       264  24 -8.196780E+04 -4.431919E+05 -1.000205E+05  1.012601E+05 -4.173043E+03 -6.569373E+04
       264  25 -2.302603E+04 -5.513007E+05 -5.686388E+04  8.965589E+04 -4.598850E+03 -5.755286E+03
       264  26 -6.437319E+04 -7.083496E+05 -1.110900E+05  7.192196E+04 -1.083537E+04 -4.074205E+04
       264  27 -1.939050E+05 -8.913939E+05 -2.100355E+05  1.371297E+05 -4.151452E+03 -7.568467E+04
       265   1  4.214373E+05  1.408492E+05  8.072246E+04  1.618931E+05  4.441157E+04  1.613746E+04
       265   2  4.091599E+05  7.277446E+04  3.903637E+04  1.626894E+05  2.829282E+04  8.693348E+03
       265   3  4.162268E+05  6.277650E+04  2.465083E+04  1.532894E+05  1.162971E+04  2.686527E+03
       265   4  3.864364E+05  1.070383E+05  6.727891E+04  1.313329E+05  4.305399E+04  1.562109E+04
       265   5  3.732224E+05  5.269961E+04  2.875004E+04  1.460616E+05  2.796958E+04  8.570455E+03
       265   6  3.791489E+05  5.623376E+04  1.670306E+04  1.505936E+05  1.234065E+04  2.956166E+03
       265   7  3.514382E+05  7.323097E+04  5.383559E+04  1.007753E+05  4.169651E+04  1.510487E+04
       265   8  3.372864E+05  3.262548E+04  1.846365E+04  1.294349E+05  2.764636E+04  8.447580E+03
       265   9  3.420722E+05  4.969097E+04  8.755196E+03  1.478979E+05  1.305155E+04  3.225811E+03
       265  10  4.214351E+05  1.408484E+05  8.071827E+04  1.618926E+05 -2.849263E-09  3.447429E-09
       265  11  4.091591E+05  7.277416E+04  3.903472E+04  1.626892E+05 -4.653325E-09  1.481402E-11
       265  12  4.162267E+05  6.277646E+04  2.465056E+04  1.532894E+05 -7.087164E-09  1.029017E-09
       265  13  3.864344E+05  1.070375E+05  6.727497E+04  1.313324E+05 -7.682172E-10  1.629692E-09
       265  14  3.732215E+05  5.269932E+04  2.874844E+04  1.460614E+05 -4.403411E-09 -6.422644E-09
       265  15  3.791487E+05  5.623371E+04  1.670276E+04  1.505936E+05 -2.527867E-09  1.551973E-08
       265  16  3.514363E+05  7.323025E+04  5.383189E+04  1.007748E+05  2.925772E-09  6.673529E-09
       265  17  3.372855E+05  3.262520E+04  1.846208E+04  1.294347E+05 -4.299668E-10  1.525670E-09
       265  18  3.420721E+05  4.969091E+04  8.754856E+03  1.478978E+05 -2.696345E-09  1.318694E-08
       265  19  4.214373E+05  1.408492E+05  8.072246E+04  1.618931E+05 -4.441157E+04 -1.613746E+04
       265  20  4.091599E+05  7.277446E+04  3.903637E+04  1.626894E+05 -2.829282E+04 -8.693348E+03
       265  21  4.162268E+05  6.277650E+04  2.465083E+04  1.532894E+05 -1.162971E+04 -2.686527E+03
       265  22  3.864364E+05  1.070383E+05  6.727891E+04  1.313329E+05 -4.305399E+04 -1.562109E+04
       265  23  3.732224E+05  5.269961E+04  2.875004E+04  1.460616E+05 -2.796958E+04 -8.570455E+03
       265  24  3.791489E+05  5.623376E+04  1.670306E+04  1.505936E+05 -1.234065E+04 -2.956166E+03
       265  25  3.514382E+05  7.323097E+04  5.383559E+04  1.007753E+05 -4.169651E+04 -1.510487E+04
       265  26  3.372864E+05  3.262548E+04  1.846365E+04  1.294349E+05 -2.764636E+04 -8.447580E+03
       265  27  3.420722E+05  4.969097E+04  8.755196E+03  1.478979E+05 -1.305155E+04 -3.225811E+03
       266   1  3.990776E+05  7.163644E+04  1.916484E+04  1.544995E+05  9.687419E+03  2.468316E+03
       266   2  3.911793E+05  6.179401E+04  1.023566E+04  1.504579E+05  6.043641E+03  1.549310E+03
       266   3  3.818381E+05  5.964234E+04  5.046459E+03  1.493727E+05  2.372905E+03  7.016832E+02
       266   4  3.770084E+05  6.205033E+04  1.337668E+04  1.470834E+05  9.952330E+03  2.568705E+03
       266   5  3.774621E+05  5.630570E+04  6.728955E+03  1.463274E+05  6.359994E+03  1.669222E+03
       266   6  3.764626E+05  5.824168E+04  3.780544E+03  1.485277E+05  2.740656E+03  8.410892E+02
       266   7  3.549397E+05  5.246430E+04  7.588486E+03  1.396675E+05  1.021723E+04  2.669089E+03
       266   8  3.637450E+05  5.081743E+04  3.222243E+03  1.421969E+05  6.676339E+03  1.789131E+03
       266   9  3.710872E+05  5.684102E+04  2.514634E+03  1.476827E+05  3.108402E+03  9.804943E+02
       266  10  3.990775E+05  7.163641E+04  1.916465E+04  1.544995E+05  7.397425E-09  5.432166E-10
       266  11  3.911793E+05  6.179400E+04  1.023559E+04  1.504579E+05  5.153555E-09  2.245517E-09
       266  12  3.818381E+05  5.964234E+04  5.046448E+03  1.493727E+05 -2.041075E-09 -7.903075E-09
       266  13  3.770083E+05  6.205030E+04  1.337648E+04  1.470834E+05 -3.879577E-09  9.523153E-09
       266  14  3.774620E+05  5.630569E+04  6.728873E+03  1.463274E+05 -2.799329E-10 -7.084932E-09
       266  15  3.764626E+05  5.824167E+04  3.780529E+03  1.485277E+05 -8.827430E-10 -6.694190E-10
       266  16  3.549396E+05  5.246427E+04  7.588276E+03  1.396675E+05 -1.391415E-08 -3.000112E-10
       266  17  3.637450E+05  5.081741E+04  3.222153E+03  1.421969E+05 -2.998290E-09  4.058722E-09
       266  18  3.710872E+05  5.684101E+04  2.514614E+03  1.476827E+05  5.699435E-09 -3.157015E-09
       266  19  3.990776E+05  7.163644E+04  1.916484E+04  1.544995E+05 -9.687419E+03 -2.468316E+03
       266  20  3.911793E+05  6.179401E+04  1.023566E+04  1.504579E+05 -6.043641E+03 -1.549310E+03
       266  21  3.818381E+05  5.964234E+04  5.046459E+03  1.493727E+05 -2.372905E+03 -7.016832E+02
       266  22  3.770084E+05  6.205033E+04  1.337668E+04  1.470834E+05 -9.952330E+03 -2.568705E+03
       266  23  3.774621E+05  5.630570E+04  6.728955E+03  1.463274E+05 -6.359994E+03 -1.669222E+03
       266  24  3.764626E+05  5.824168E+04  3.780544E+03  1.485277E+05 -2.740656E+03 -8.410892E+02
       266  25  3.549397E+05  5.246430E+04  7.588486E+03  1.396675E+05 -1.021723E+04 -2.669089E+03
       266  26  3.637450E+05  5.081743E+04  3.222243E+03  1.421969E+05 -6.676339E+03 -1.789131E+03
       266  27  3.710872E+05  5.684102E+04  2.514634E+03  1.476827E+05 -3.108402E+03 -9.804943E+02
       267   1  3.724725E+05  5.727504E+04  1.930711E+03  1.472422E+05  1.749946E+03  7.987802E+02
       267   2  3.650728E+05  5.180850E+04 -1.640456E+03  1.428157E+05  7.774293E+02  9.815911E+02
       267   3  3.544208E+05  5.014873E+04 -4.537314E+03  1.422670E+05 -1.965066E+02  1.168183E+03
       267   4  3.762468E+05  5.866281E+04  2.901943E+03  1.482465E+05  2.095518E+03  9.297761E+02
       267   5  3.778536E+05  5.662302E+04  1.568959E+03  1.463594E+05  1.125718E+03  1.113613E+03
       267   6  3.762076E+05  5.838953E+04  9.081959E+02  1.483501E+05  1.544870E+02  1.301227E+03
       267   7  3.800211E+05  6.005058E+04  3.873178E+03  1.492508E+05  2.441095E+03  1.060773E+03
       267   8  3.906346E+05  6.143756E+04  4.778370E+03  1.499031E+05  1.474014E+03  1.245639E+03
       267   9  3.979950E+05  6.663037E+04  6.353670E+03  1.544334E+05  5.054941E+02  1.434277E+03
       267  10  3.724724E+05  5.727504E+04  1.930704E+03  1.472422E+05  5.165199E-09 -4.866671E-09
       267  11  3.650728E+05  5.180850E+04 -1.640459E+03  1.428157E+05 -1.397798E-09 -5.325832E-09
       267  12  3.544208E+05  5.014873E+04 -4.537317E+03  1.422670E+05 -1.459429E-09  4.719034E-09
       267  13  3.762467E+05  5.866281E+04  2.901933E+03  1.482465E+05  2.532963E-09 -4.240028E-09
       267  14  3.778536E+05  5.662302E+04  1.568955E+03  1.463594E+05  3.933392E-09 -1.282329E-08
       267  15  3.762076E+05  5.838953E+04  9.081927E+02  1.483501E+05 -3.131895E-10 -3.133931E-09
       267  16  3.800211E+05  6.005058E+04  3.873165E+03  1.492508E+05 -1.539639E-09 -6.076397E-09
       267  17  3.906346E+05  6.143755E+04  4.778363E+03  1.499031E+05  4.565522E-10 -2.847078E-09
       267  18  3.979950E+05  6.663037E+04  6.353666E+03  1.544334E+05  3.546544E-09 -9.479915E-09
       267  19  3.724725E+05  5.727504E+04  1.930711E+03  1.472422E+05 -1.749946E+03 -7.987802E+02
       267  20  3.650728E+05  5.180850E+04 -1.640456E+03  1.428157E+05 -7.774293E+02 -9.815911E+02
       267  21  3.544208E+05  5.014873E+04 -4.537314E+03  1.422670E+05  1.965066E+02 -1.168183E+03
       267  22  3.762468E+05  5.866281E+04  2.901943E+03  1.482465E+05 -2.095518E+03 -9.297761E+02
       267  23  3.778536E+05  5.662302E+04  1.568959E+03  1.463594E+05 -1.125718E+03 -1.113613E+03
       267  24  3.762076E+05  5.838953E+04  9.081959E+02  1.483501E+05 -1.544870E+02 -1.301227E+03
       267  25  3.800211E+05  6.005058E+04  3.873178E+03  1.492508E+05 -2.441095E+03 -1.060773E+03
       267  26  3.906346E+05  6.143756E+04  4.778370E+03  1.499031E+05 -1.474014E+03 -1.245639E+03
       267  27  3.979950E+05  6.663037E+04  6.353670E+03  1.544334E+05 -5.054941E+02 -1.434277E+03
       268   1  3.456776E+05  4.694259E+04 -6.971578E+03  1.398940E+05 -4.370808E+02  1.401502E+03
       268   2  3.383250E+05  4.177644E+04 -9.446596E+03  1.354214E+05 -8.644409E+02  1.796809E+03
       268   3  3.275296E+05  4.012851E+04 -1.173341E+04  1.348925E+05 -1.292105E+03  2.193049E+03
       268   4  3.761788E+05  5.841908E+04  7.174060E+02  1.483292E+05 -8.682007E+01  1.534263E+03
       268   5  3.778989E+05  5.665156E+04  4.856536E+02  1.463606E+05 -5.135287E+02  1.929803E+03
       268   6  3.761761E+05  5.840209E+04  4.415966E+02  1.483355E+05 -9.405468E+02  2.326276E+03
       268   7  4.066807E+05  6.989559E+04  8.406281E+03  1.567647E+05  2.634581E+02  1.667030E+03
       268   8  4.174743E+05  7.152680E+04  1.041778E+04  1.573003E+05 -1.625921E+02  2.062806E+03
       268   9  4.248251E+05  7.667592E+04  1.261647E+04  1.617795E+05 -5.889569E+02  2.459516E+03
       268  10  3.456776E+05  4.694259E+04 -6.971582E+03  1.398940E+05  1.150968E-08  1.150420E-08
       268  11  3.383250E+05  4.177643E+04 -9.446603E+03  1.354214E+05  6.519345E-09  5.544560E-09
       268  12  3.275296E+05  4.012850E+04 -1.173342E+04  1.348925E+05 -4.162828E-09 -8.132502E-09
       268  13  3.761788E+05  5.841908E+04  7.174016E+02  1.483292E+05  2.227704E-09  3.230897E-09
       268  14  3.778989E+05  5.665156E+04  4.856461E+02  1.463606E+05  5.052312E-09 -8.221086E-09
       268  15  3.761761E+05  5.840209E+04  4.415847E+02  1.483355E+05  3.091762E-09 -1.557024E-09
       268  16  4.066807E+05  6.989558E+04  8.406276E+03  1.567647E+05 -5.714097E-09 -6.205441E-09
       268  17  4.174743E+05  7.152679E+04  1.041777E+04  1.573003E+05  1.895559E-09 -7.201177E-09
       268  18  4.248251E+05  7.667591E+04  1.261646E+04  1.617795E+05  9.246781E-09 -2.931077E-10
       268  19  3.456776E+05  4.694259E+04 -6.971578E+03  1.398940E+05  4.370808E+02 -1.401502E+03
       268  20  3.383250E+05  4.177644E+04 -9.446596E+03  1.354214E+05  8.644409E+02 -1.796809E+03
       268  21  3.275296E+05  4.012851E+04 -1.173341E+04  1.348925E+05  1.292105E+03 -2.193049E+03
       268  22  3.761788E+05  5.841908E+04  7.174060E+02  1.483292E+05  8.682007E+01 -1.534263E+03
       268  23  3.778989E+05  5.665156E+04  4.856536E+02  1.463606E+05  5.135287E+02 -1.929803E+03
       268  24  3.761761E+05  5.840209E+04  4.415966E+02  1.483355E+05  9.405468E+02 -2.326276E+03
       268  25  4.066807E+05  6.989559E+04  8.406281E+03  1.567647E+05 -2.634581E+02 -1.667030E+03
       268  26  4.174743E+05  7.152680E+04  1.041778E+04  1.573003E+05  1.625921E+02 -2.062806E+03
       268  27  4.248251E+05  7.667592E+04  1.261647E+04  1.617795E+05  5.889569E+02 -2.459516E+03
       269   1  3.188045E+05  3.685335E+04 -1.395225E+04  1.325043E+05 -1.476920E+03  2.448595E+03
       269   2  3.113998E+05  3.167090E+04 -1.600515E+04  1.279978E+05 -2.002332E+03  2.809942E+03
       269   3  3.005533E+05  3.004556E+04 -1.779256E+04  1.274603E+05 -2.527976E+03  3.172121E+03
       269   4  3.761755E+05  5.840635E+04  4.766064E+02  1.483427E+05 -1.124639E+03  2.582086E+03
       269   5  3.778982E+05  5.664110E+04  6.802686E+02  1.463532E+05 -1.649505E+03  2.943618E+03
       269   6  3.761790E+05  5.843281E+04  1.148952E+03  1.483325E+05 -2.174608E+03  3.305980E+03
       269   7  4.335497E+05  7.995957E+04  1.490520E+04  1.641824E+05 -7.723217E+02  2.715590E+03
       269   8  4.444008E+05  8.161154E+04  1.736529E+04  1.647103E+05 -1.296637E+03  3.077309E+03
       269   9  4.518099E+05  8.682032E+04  2.008993E+04  1.692070E+05 -1.821194E+03  3.439856E+03
       269  10  3.188045E+05  3.685334E+04 -1.395226E+04  1.325043E+05 -3.935624E-09 -4.109529E-09
       269  11  3.113998E+05  3.167089E+04 -1.600517E+04  1.279978E+05 -7.479110E-09 -6.269417E-09
       269  12  3.005533E+05  3.004555E+04 -1.779259E+04  1.274603E+05 -4.280668E-09  4.625282E-09
       269  13  3.761755E+05  5.840634E+04  4.765915E+02  1.483427E+05 -6.549511E-11  1.610572E-08
       269  14  3.778982E+05  5.664109E+04  6.802472E+02  1.463532E+05 -2.702802E-09 -1.934686E-09
       269  15  3.761790E+05  5.843279E+04  1.148923E+03  1.483325E+05 -9.010991E-10  8.525326E-09
       269  16  4.335497E+05  7.995956E+04  1.490518E+04  1.641824E+05  5.409024E-09  7.695735E-09
       269  17  4.444008E+05  8.161153E+04  1.736527E+04  1.647103E+05  3.373034E-09 -5.926051E-09
       269  18  4.518099E+05  8.682031E+04  2.008990E+04  1.692070E+05  1.447121E-09 -2.542655E-10
       269  19  3.188045E+05  3.685335E+04 -1.395225E+04  1.325043E+05  1.476920E+03 -2.448595E+03
       269  20  3.113998E+05  3.167090E+04 -1.600515E+04  1.279978E+05  2.002332E+03 -2.809942E+03
       269  21  3.005533E+05  3.004556E+04 -1.779256E+04  1.274603E+05  2.527976E+03 -3.172121E+03
       269  22  3.761755E+05  5.840635E+04  4.766064E+02  1.483427E+05  1.124639E+03 -2.582086E+03
       269  23  3.778982E+05  5.664110E+04  6.802686E+02  1.463532E+05  1.649505E+03 -2.943618E+03
       269  24  3.761790E+05  5.843281E+04  1.148952E+03  1.483325E+05  2.174608E+03 -3.305980E+03
       269  25  4.335497E+05  7.995957E+04  1.490520E+04  1.641824E+05  7.723217E+02 -2.715590E+03
       269  26  4.444008E+05  8.161154E+04  1.736529E+04  1.647103E+05  1.296637E+03 -3.077309E+03
       269  27  4.518099E+05  8.682032E+04  2.008993E+04  1.692070E+05  1.821194E+03 -3.439856E+03
       270   1  2.917456E+05  2.675699E+04 -1.971336E+04  1.251582E+05 -2.859244E+03  3.376057E+03
       270   2  2.842058E+05  2.142692E+04 -2.082599E+04  1.205018E+05 -4.376275E+03  3.364916E+03
       270   3  2.735150E+05  2.020226E+04 -2.079844E+04  1.197616E+05 -5.889863E+03  3.344920E+03
       270   4  3.762203E+05  5.839364E+04  1.499233E+03  1.483817E+05 -2.501570E+03  3.511531E+03
       270   5  3.778282E+05  5.657385E+04  2.664503E+03  1.463349E+05 -4.025179E+03  3.497868E+03
       270   6  3.762865E+05  5.886077E+04  4.975109E+03  1.482044E+05 -5.545365E+03  3.475342E+03
       270   7  4.607022E+05  9.003091E+04  2.271136E+04  1.716081E+05 -2.143841E+03  3.647025E+03
       270   8  4.714593E+05  9.172145E+04  2.615437E+04  1.721716E+05 -3.674026E+03  3.630842E+03
       270   9  4.790683E+05  9.752002E+04  3.074783E+04  1.766514E+05 -5.200806E+03  3.605789E+03
       270  10  2.917456E+05  2.675697E+04 -1.971339E+04  1.251582E+05 -2.402230E-09  9.935010E-09
       270  11  2.842057E+05  2.142690E+04 -2.082605E+04  1.205018E+05 -6.206287E-09 -4.520835E-09
       270  12  2.735150E+05  2.020224E+04 -2.079852E+04  1.197616E+05 -3.460546E-10 -8.995271E-10
       270  13  3.762202E+05  5.839363E+04  1.499198E+03  1.483817E+05 -8.425128E-11  8.943026E-10
       270  14  3.778281E+05  5.657383E+04  2.664449E+03  1.463349E+05 -2.210558E-09  7.450568E-09
       270  15  3.762865E+05  5.886075E+04  4.975028E+03  1.482044E+05 -1.077234E-09 -1.443151E-10
       270  16  4.607022E+05  9.003090E+04  2.271133E+04  1.716081E+05 -3.709247E-10 -2.766433E-09
       270  17  4.714593E+05  9.172144E+04  2.615432E+04  1.721716E+05  1.439813E-09 -1.301327E-08
       270  18  4.790683E+05  9.752000E+04  3.074775E+04  1.766514E+05 -1.519257E-09 -2.486096E-09
       270  19  2.917456E+05  2.675699E+04 -1.971336E+04  1.251582E+05  2.859244E+03 -3.376057E+03
       270  20  2.842058E+05  2.142692E+04 -2.082599E+04  1.205018E+05  4.376275E+03 -3.364916E+03
       270  21  2.735150E+05  2.020226E+04 -2.079844E+04  1.197616E+05  5.889863E+03 -3.344920E+03
       270  22  3.762203E+05  5.839364E+04  1.499233E+03  1.483817E+05  2.501570E+03 -3.511531E+03
       270  23  3.778282E+05  5.657385E+04  2.664503E+03  1.463349E+05  4.025179E+03 -3.497868E+03
       270  24  3.762865E+05  5.886077E+04  4.975109E+03  1.482044E+05  5.545365E+03 -3.475342E+03
       270  25  4.607022E+05  9.003091E+04  2.271136E+04  1.716081E+05  2.143841E+03 -3.647025E+03
       270  26  4.714593E+05  9.172145E+04  2.615437E+04  1.721716E+05  3.674026E+03 -3.630842E+03
       270  27  4.790683E+05  9.752002E+04  3.074783E+04  1.766514E+05  5.200806E+03 -3.605789E+03
       271   1  2.641735E+05  1.696927E+04 -2.156313E+04  1.187432E+05 -6.994794E+03  3.286879E+03
       271   2  2.565706E+05  1.015136E+04 -1.880286E+04  1.123911E+05 -1.293352E+04  1.572883E+03
       271   3  2.488525E+05  1.412205E+04 -9.796569E+03  1.084202E+05 -1.879172E+04 -3.533066E+02
       271   4  3.766508E+05  5.814526E+04  6.492598E+03  1.486989E+05 -6.582313E+03  3.443040E+03
       271   5  3.771618E+05  5.601344E+04  1.157216E+04  1.462667E+05 -1.267485E+04  1.670730E+03
       271   6  3.775874E+05  6.469957E+04  2.301871E+04  1.462155E+05 -1.868697E+04 -3.138296E+02
       271   7  4.891399E+05  9.932178E+04  3.454721E+04  1.786594E+05 -6.169751E+03  3.599229E+03
       271   8  4.977672E+05  1.018766E+05  4.194603E+04  1.801483E+05 -1.241612E+04  1.768599E+03
       271   9  5.063392E+05  1.152789E+05  5.583279E+04  1.840183E+05 -1.858220E+04 -2.743423E+02
       271  10  2.641735E+05  1.696925E+04 -2.156324E+04  1.187432E+05 -1.038094E-09 -2.507181E-09
       271  11  2.565704E+05  1.015132E+04 -1.880318E+04  1.123911E+05  8.038484E-09  2.183872E-09
       271  12  2.488521E+05  1.412196E+04 -9.797233E+03  1.084202E+05  1.617609E-08 -5.530448E-09
       271  13  3.766507E+05  5.814524E+04  6.492494E+03  1.486989E+05 -4.668974E-09 -8.667126E-10
       271  14  3.771616E+05  5.601340E+04  1.157186E+04  1.462667E+05  1.156468E-09  2.512466E-09
       271  15  3.775871E+05  6.469948E+04  2.301806E+04  1.462155E+05  3.705710E-09  6.461855E-09
       271  16  4.891399E+05  9.932176E+04  3.454712E+04  1.786594E+05 -2.364976E-09  7.148138E-09
       271  17  4.977670E+05  1.018766E+05  4.194573E+04  1.801483E+05 -9.481795E-09  7.020434E-10
       271  18  5.063388E+05  1.152788E+05  5.583215E+04  1.840183E+05 -1.271746E-08 -1.764886E-08
       271  19  2.641735E+05  1.696927E+04 -2.156313E+04  1.187432E+05  6.994794E+03 -3.286879E+03
       271  20  2.565706E+05  1.015136E+04 -1.880286E+04  1.123911E+05  1.293352E+04 -1.572883E+03
       271  21  2.488525E+05  1.412205E+04 -9.796569E+03  1.084202E+05  1.879172E+04  3.533066E+02
       271  22  3.766508E+05  5.814526E+04  6.492598E+03  1.486989E+05  6.582313E+03 -3.443040E+03
       271  23  3.771618E+05  5.601344E+04  1.157216E+04  1.462667E+05  1.267485E+04 -1.670730E+03
       271  24  3.775874E+05  6.469957E+04  2.301871E+04  1.462155E+05  1.868697E+04  3.138296E+02
       271  25  4.891399E+05  9.932178E+04  3.454721E+04  1.786594E+05  6.169751E+03 -3.599229E+03
       271  26  4.977672E+05  1.018766E+05  4.194603E+04  1.801483E+05  1.241612E+04 -1.768599E+03
       271  27  5.063392E+05  1.152789E+05  5.583279E+04  1.840183E+05  1.858220E+04  2.743423E+02
       272   1  2.326412E+05  1.158502E+04 -6.141444E+03  1.242121E+05 -2.425180E+04 -1.502913E+03
       272   2  2.294045E+05 -1.423127E+04  1.196751E+04  9.553631E+04 -4.781414E+04 -1.058435E+04
       272   3  2.609196E+05  5.657007E+04  7.320375E+04  4.661276E+04 -6.974447E+04 -2.397652E+04
       272   4  3.812804E+05  5.468130E+04  2.874554E+04  1.522485E+05 -2.280660E+04 -9.553461E+02
       272   5  3.698580E+05  4.980869E+04  4.948051E+04  1.458142E+05 -4.947696E+04 -1.121491E+04
       272   6  3.937926E+05  1.421533E+05  1.157988E+05  1.191354E+05 -7.451511E+04 -2.578681E+04
       272   7  5.299418E+05  9.777740E+04  6.363120E+04  1.802901E+05 -2.136102E+04 -4.077082E+02
       272   8  5.103303E+05  1.138524E+05  8.699156E+04  1.961030E+05 -5.114018E+04 -1.184571E+04
       272   9  5.266838E+05  2.277492E+05  1.583918E+05  1.916743E+05 -7.928679E+04 -2.759816E+04
       272  10  2.326406E+05  1.158486E+04 -6.142553E+03  1.242121E+05 -3.564732E-09 -1.832079E-09
       272  11  2.294020E+05 -1.423201E+04  1.196300E+04  9.553590E+04 -3.933843E-09 -2.771288E-09
       272  12  2.609142E+05  5.656815E+04  7.319353E+04  4.661141E+04  9.774342E-10  4.231991E-09
       272  13  3.812799E+05  5.468116E+04  2.874456E+04  1.522485E+05  4.838344E-09  2.176912E-10
       272  14  3.698553E+05  4.980790E+04  4.947568E+04  1.458137E+05  4.747445E-09 -3.763624E-10
       272  15  3.937864E+05  1.421511E+05  1.157871E+05  1.191339E+05  1.108979E-09  6.749579E-09
       272  16  5.299413E+05  9.777728E+04  6.363035E+04  1.802901E+05  9.574486E-09  8.852141E-09
       272  17  5.103275E+05  1.138516E+05  8.698639E+04  1.961025E+05  2.701234E-09  1.175308E-08
       272  18  5.266769E+05  2.277467E+05  1.583786E+05  1.916725E+05 -2.194168E-09  1.589258E-09
       272  19  2.326412E+05  1.158502E+04 -6.141444E+03  1.242121E+05  2.425180E+04  1.502913E+03
       272  20  2.294045E+05 -1.423127E+04  1.196751E+04  9.553631E+04  4.781414E+04  1.058435E+04
       272  21  2.609196E+05  5.657007E+04  7.320375E+04  4.661276E+04  6.974447E+04  2.397652E+04
       272  22  3.812804E+05  5.468130E+04  2.874554E+04  1.522485E+05  2.280660E+04  9.553461E+02
       272  23  3.698580E+05  4.980869E+04  4.948051E+04  1.458142E+05  4.947696E+04  1.121491E+04
       272  24  3.937926E+05  1.421533E+05  1.157988E+05  1.191354E+05  7.451511E+04  2.578681E+04
       272  25  5.299418E+05  9.777740E+04  6.363120E+04  1.802901E+05  2.136102E+04  4.077082E+02
       272  26  5.103303E+05  1.138524E+05  8.699156E+04  1.961030E+05  5.114018E+04  1.184571E+04
       272  27  5.266838E+05  2.277492E+05  1.583918E+05  1.916743E+05  7.928679E+04  2.759816E+04
       273   1 -7.165225E+04 -5.368024E+05 -7.865536E+04  2.785576E+04 -1.675505E+03 -3.183680E+04
       273   2 -3.000022E+04 -5.116315E+05 -4.964857E+04  1.319975E+04 -5.305315E+03 -1.820903E+04
       273   3 -2.527416E+04 -4.973888E+05 -3.874203E+04  8.009542E+03 -5.038720E+03 -4.568281E+03
       273   4 -3.444956E+04 -3.878329E+05 -4.225724E+04  1.271883E+04 -1.688125E+03 -2.759239E+04
       273   5  1.770398E+03 -3.826251E+05 -2.005352E+04  8.042125E+03 -5.309002E+03 -1.695300E+04
       273   6  1.587365E+03 -3.878247E+05 -1.387106E+04  1.283169E+04 -5.033397E+03 -6.301172E+03
       273   7  2.752330E+03 -2.388426E+05 -5.860547E+03 -2.421729E+03 -1.700952E+03 -2.334696E+04
       273   8  3.353995E+04 -2.536033E+05  9.540447E+03  2.883435E+03 -5.312711E+03 -1.569671E+04
       273   9  2.844815E+04 -2.782493E+05  1.099917E+04  1.765472E+04 -5.028102E+03 -8.034366E+03
       273  10 -7.165252E+04 -5.368035E+05 -7.865727E+04  2.785572E+04  1.241922E-10  1.676814E-08
       273  11 -3.000034E+04 -5.116319E+05 -4.964924E+04  1.319967E+04  1.391253E-09  1.700672E-08
       273  12 -2.527419E+04 -4.973889E+05 -3.874212E+04  8.009523E+03  4.534830E-10 -6.710066E-09
       273  13 -3.444977E+04 -3.878337E+05 -4.225867E+04  1.271879E+04  4.210829E-09 -4.640659E-09
       273  14  1.770291E+03 -3.826254E+05 -2.005411E+04  8.042053E+03  1.598883E-09  1.090540E-09
       273  15  1.587327E+03 -3.878247E+05 -1.387118E+04  1.283167E+04 -2.142528E-09 -2.033875E-08
       273  16  2.752180E+03 -2.388432E+05 -5.861577E+03 -2.421761E+03  1.533143E-09 -1.224830E-08
       273  17  3.353985E+04 -2.536035E+05  9.539930E+03  2.883367E+03  2.880388E-09 -1.863607E-08
       273  18  2.844811E+04 -2.782494E+05  1.099900E+04  1.765468E+04 -5.507730E-09  2.653487E-09
       273  19 -7.165225E+04 -5.368024E+05 -7.865536E+04  2.785576E+04  1.675505E+03  3.183680E+04
       273  20 -3.000022E+04 -5.116315E+05 -4.964857E+04  1.319975E+04  5.305315E+03  1.820903E+04
       273  21 -2.527416E+04 -4.973888E+05 -3.874203E+04  8.009542E+03  5.038720E+03  4.568281E+03
       273  22 -3.444956E+04 -3.878329E+05 -4.225724E+04  1.271883E+04  1.688125E+03  2.759239E+04
       273  23  1.770398E+03 -3.826251E+05 -2.005352E+04  8.042125E+03  5.309002E+03  1.695300E+04
       273  24  1.587365E+03 -3.878247E+05 -1.387106E+04  1.283169E+04  5.033397E+03  6.301172E+03
       273  25  2.752330E+03 -2.388426E+05 -5.860547E+03 -2.421729E+03  1.700952E+03  2.334696E+04
       273  26  3.353995E+04 -2.536033E+05  9.540447E+03  2.883435E+03  5.312711E+03  1.569671E+04
       273  27  2.844815E+04 -2.782493E+05  1.099917E+04  1.765472E+04  5.028102E+03  8.034366E+03
       274   1 -2.474608E+04 -4.773929E+05 -3.337032E+04  1.443083E+04 -4.019748E+03 -3.571317E+03
       274   2 -1.725209E+04 -4.565119E+05 -2.723544E+04  8.096175E+03 -3.240512E+03  2.085290E+03
       274   3 -1.575268E+04 -4.377901E+05 -2.626701E+04  1.148354E+04 -2.294370E+03  7.742474E+03
       274   4 -2.275452E+03 -3.859873E+05 -1.252071E+04  1.285537E+04 -4.018037E+03 -4.118925E+03
       274   5  3.314680E+02 -3.849185E+05 -1.094560E+04  7.993252E+03 -3.238454E+03  1.410185E+03
       274   6 -3.033625E+03 -3.859868E+05 -1.444792E+04  1.285313E+04 -2.291949E+03  6.939695E+03
       274   7  2.019461E+04 -2.945740E+05  8.328356E+03  1.127969E+04 -4.016324E+03 -4.666612E+03
       274   8  1.791467E+04 -3.133204E+05  5.343902E+03  7.890319E+03 -3.236396E+03  7.350021E+02
       274   9  9.685250E+03 -3.341811E+05 -2.629004E+03  1.422283E+04 -2.289531E+03  6.136850E+03
       274  10 -2.474610E+04 -4.773929E+05 -3.337037E+04  1.443082E+04 -9.275229E-10  1.107746E-08
       274  11 -1.725211E+04 -4.565119E+05 -2.723547E+04  8.096181E+03  7.000367E-10  8.706782E-09
       274  12 -1.575270E+04 -4.377902E+05 -2.626714E+04  1.148355E+04  9.714498E-10  2.905234E-09
       274  13 -2.275474E+03 -3.859874E+05 -1.252077E+04  1.285536E+04 -3.554865E-09 -6.571035E-09
       274  14  3.314562E+02 -3.849185E+05 -1.094563E+04  7.993255E+03  3.295701E-09  2.015009E-11
       274  15 -3.033644E+03 -3.859869E+05 -1.444802E+04  1.285314E+04 -1.011219E-09 -2.555962E-08
       274  16  2.019458E+04 -2.945741E+05  8.328285E+03  1.127967E+04 -4.957646E-09 -1.106259E-08
       274  17  1.791466E+04 -3.133204E+05  5.343881E+03  7.890321E+03  5.912713E-10 -1.252238E-08
       274  18  9.685235E+03 -3.341811E+05 -2.629085E+03  1.422284E+04 -8.767817E-11 -5.405402E-09
       274  19 -2.474608E+04 -4.773929E+05 -3.337032E+04  1.443083E+04  4.019748E+03  3.571317E+03
       274  20 -1.725209E+04 -4.565119E+05 -2.723544E+04  8.096175E+03  3.240512E+03 -2.085290E+03
       274  21 -1.575268E+04 -4.377901E+05 -2.626701E+04  1.148354E+04  2.294370E+03 -7.742474E+03
       274  22 -2.275452E+03 -3.859873E+05 -1.252071E+04  1.285537E+04  4.018037E+03  4.118925E+03
       274  23  3.314680E+02 -3.849185E+05 -1.094560E+04  7.993252E+03  3.238454E+03 -1.410185E+03
       274  24 -3.033625E+03 -3.859868E+05 -1.444792E+04  1.285313E+04  2.291949E+03 -6.939695E+03
       274  25  2.019461E+04 -2.945740E+05  8.328356E+03  1.127969E+04  4.016324E+03  4.666612E+03
       274  26  1.791467E+04 -3.133204E+05  5.343902E+03  7.890319E+03  3.236396E+03 -7.350021E+02
       274  27  9.685250E+03 -3.341811E+05 -2.629004E+03  1.422283E+04  2.289531E+03 -6.136850E+03
       275   1 -6.100355E+03 -4.221554E+05 -2.430170E+04  1.956987E+04 -1.648574E+03  1.035655E+04
       275   2 -1.045203E+03 -3.956535E+05 -2.861797E+04  1.714582E+03 -7.477812E+02  2.364092E+04
       275   3 -4.323498E+04 -3.826220E+05 -5.338133E+04 -6.497632E+03 -2.101671E+02  3.692443E+04
       275   4  2.201335E+03 -3.885141E+05 -1.668655E+04  1.287853E+04 -1.646124E+03  9.495563E+03
       275   5  2.315537E+03 -3.817588E+05 -2.549085E+04  7.987089E+03 -7.458130E+02  2.305852E+04
       275   6 -4.486374E+04 -3.885229E+05 -5.493581E+04  1.273875E+04 -2.081240E+02  3.662021E+04
       275   7  1.050311E+04 -3.548717E+05 -9.071448E+03  6.186823E+03 -1.643655E+03  8.634527E+03
       275   8  5.676411E+03 -3.678637E+05 -2.236372E+04  1.425974E+04 -7.438567E+02  2.247611E+04
       275   9 -4.649110E+04 -3.944230E+05 -5.649009E+04  3.197495E+04 -2.060997E+02  3.631599E+04
       275  10 -6.100387E+03 -4.221555E+05 -2.430191E+04  1.956988E+04  1.710031E-09  9.601679E-09
       275  11 -1.045353E+03 -3.956541E+05 -2.861902E+04  1.714596E+03  1.890293E-09  1.061636E-08
       275  12 -4.323535E+04 -3.826234E+05 -5.338389E+04 -6.497626E+03  8.131104E-10  5.104382E-09
       275  13  2.201308E+03 -3.885142E+05 -1.668673E+04  1.287854E+04  4.271538E-10 -6.409583E-09
       275  14  2.315393E+03 -3.817593E+05 -2.549185E+04  7.987103E+03  1.263692E-09 -3.222383E-09
       275  15 -4.486410E+04 -3.885243E+05 -5.493833E+04  1.273876E+04  1.187453E-09 -1.357658E-08
       275  16  1.050309E+04 -3.548717E+05 -9.071594E+03  6.186835E+03 -2.595910E-09 -8.611314E-09
       275  17  5.676275E+03 -3.678643E+05 -2.236467E+04  1.425975E+04  2.793854E-10 -8.364360E-09
       275  18 -4.649146E+04 -3.944244E+05 -5.649257E+04  3.197496E+04  1.620176E-10 -8.977806E-09
       275  19 -6.100355E+03 -4.221554E+05 -2.430170E+04  1.956987E+04  1.648574E+03 -1.035655E+04
       275  20 -1.045203E+03 -3.956535E+05 -2.861797E+04  1.714582E+03  7.477812E+02 -2.364092E+04
       275  21 -4.323498E+04 -3.826220E+05 -5.338133E+04 -6.497632E+03  2.101671E+02 -3.692443E+04
       275  22  2.201335E+03 -3.885141E+05 -1.668655E+04  1.287853E+04  1.646124E+03 -9.495563E+03
       275  23  2.315537E+03 -3.817588E+05 -2.549085E+04  7.987089E+03  7.458130E+02 -2.305852E+04
       275  24 -4.486374E+04 -3.885229E+05 -5.493581E+04  1.273875E+04  2.081240E+02 -3.662021E+04
       275  25  1.050311E+04 -3.548717E+05 -9.071448E+03  6.186823E+03  1.643655E+03 -8.634527E+03
       275  26  5.676411E+03 -3.678637E+05 -2.236372E+04  1.425974E+04  7.438567E+02 -2.247611E+04
       275  27 -4.649110E+04 -3.944230E+05 -5.649009E+04  3.197495E+04  2.060997E+02 -3.631599E+04
       276   1 -1.710884E+05 -1.135436E+05 -9.982377E+04 -1.171842E+04  2.033672E+04  7.988910E+03
       276   2 -1.230194E+05 -1.477086E+05 -1.094094E+05 -1.216101E+04  1.920551E+04  2.470392E+04
       276   3 -6.272775E+04 -1.345145E+05 -1.063794E+05 -3.854726E+04  1.809243E+04  2.491814E+04
       276   4  4.747607E+05  4.704075E+04  5.762020E+04 -3.136374E+04  3.953505E+04  8.008965E+03
       276   5  4.675716E+05 -2.568027E+03  2.586638E+04 -1.836907E+04  2.572334E+04  2.470784E+04
       276   6  4.747892E+05 -2.641886E+03  1.552001E+04 -3.131563E+04  1.192999E+04  2.491287E+04
       276   7  1.120992E+06  2.075961E+05  2.150355E+05 -5.102965E+04  5.875329E+04  8.027795E+03
       276   8  1.058486E+06  1.425485E+05  1.611194E+05 -2.458315E+04  3.224732E+04  2.471162E+04
       276   9  1.012574E+06  1.292110E+05  1.374009E+05 -2.407772E+04  5.762267E+03  2.490747E+04
       276  10 -1.710889E+05 -1.135438E+05 -9.982466E+04 -1.171855E+04 -7.687222E-10 -4.699109E-11
       276  11 -1.230200E+05 -1.477094E+05 -1.094112E+05 -1.216139E+04  2.118602E-10  4.252466E-12
       276  12 -6.272827E+04 -1.345152E+05 -1.063811E+05 -3.854763E+04  9.983676E-11  2.428251E-11
       276  13  4.747590E+05  4.704026E+04  5.761715E+04 -3.136399E+04  6.275537E-10  1.403859E-11
       276  14  4.675707E+05 -2.568860E+03  2.586399E+04 -1.836958E+04 -6.418097E-10  4.548947E-11
       276  15  4.747888E+05 -2.642591E+03  1.551857E+04 -3.131587E+04 -1.321370E-10 -8.954419E-11
       276  16  1.120988E+06  2.075951E+05  2.150289E+05 -5.103003E+04  1.226849E-10  8.838524E-12
       276  17  1.058484E+06  1.425475E+05  1.611163E+05 -2.458379E+04 -2.453376E-10 -1.646750E-11
       276  18  1.012574E+06  1.292103E+05  1.373997E+05 -2.407783E+04 -2.815290E-10 -1.717818E-10
       276  19 -1.710884E+05 -1.135436E+05 -9.982377E+04 -1.171842E+04 -2.033672E+04 -7.988910E+03
       276  20 -1.230194E+05 -1.477086E+05 -1.094094E+05 -1.216101E+04 -1.920551E+04 -2.470392E+04
       276  21 -6.272775E+04 -1.345145E+05 -1.063794E+05 -3.854726E+04 -1.809243E+04 -2.491814E+04
       276  22  4.747607E+05  4.704075E+04  5.762020E+04 -3.136374E+04 -3.953505E+04 -8.008965E+03
       276  23  4.675716E+05 -2.568027E+03  2.586638E+04 -1.836907E+04 -2.572334E+04 -2.470784E+04
       276  24  4.747892E+05 -2.641886E+03  1.552001E+04 -3.131563E+04 -1.192999E+04 -2.491287E+04
       276  25  1.120992E+06  2.075961E+05  2.150355E+05 -5.102965E+04 -5.875329E+04 -8.027795E+03
       276  26  1.058486E+06  1.425485E+05  1.611194E+05 -2.458315E+04 -3.224732E+04 -2.471162E+04
       276  27  1.012574E+06  1.292110E+05  1.374009E+05 -2.407772E+04 -5.762267E+03 -2.490747E+04
       277   1 -1.634060E+04 -1.167103E+05 -9.883792E+04 -3.047916E+04  1.076712E+04  2.148916E+04
       277   2  3.648077E+04 -1.069657E+05 -9.220015E+04 -1.811916E+04  8.015664E+03  1.965715E+04
       277   3  9.063524E+04 -9.381074E+04 -8.289184E+04 -3.202137E+04  5.262725E+03  1.705741E+04
       277   4  4.719158E+05  3.175702E+03  1.245512E+04 -3.140048E+04  9.661178E+03  2.148738E+04
       277   5  4.712068E+05 -2.783638E+02  6.625197E+03 -1.826928E+04  6.317719E+03  1.965557E+04
       277   6  4.719300E+05 -2.206606E+02  3.875206E+03 -3.139908E+04  2.973008E+03  1.705627E+04
       277   7  9.603932E+05  1.230452E+05  1.237326E+05 -3.232257E+04  8.554375E+03  2.148560E+04
       277   8  9.061082E+05  1.063959E+05  1.054383E+05 -1.841952E+04  4.618595E+03  1.965398E+04
       277   9  8.533595E+05  9.335937E+04  9.063283E+04 -3.077642E+04  6.818973E+02  1.705513E+04
       277  10 -1.634085E+04 -1.167108E+05 -9.883901E+04 -3.047934E+04 -7.974234E-10  2.160614E-11
       277  11  3.648060E+04 -1.069661E+05 -9.220099E+04 -1.811928E+04  1.253701E-10  1.157771E-10
       277  12  9.063513E+04 -9.381106E+04 -8.289244E+04 -3.202144E+04  3.151855E-10  3.943574E-11
       277  13  4.719156E+05  3.175181E+03  1.245408E+04 -3.140065E+04  2.415866E-11  1.849713E-11
       277  14  4.712067E+05 -2.787895E+02  6.624396E+03 -1.826938E+04 -5.404788E-10  1.169710E-10
       277  15  4.719299E+05 -2.209754E+02  3.874643E+03 -3.139912E+04  5.013508E-10 -9.006842E-11
       277  16  9.603930E+05  1.230447E+05  1.237316E+05 -3.232272E+04  2.393342E-10 -1.599561E-11
       277  17  9.061081E+05  1.063955E+05  1.054375E+05 -1.841959E+04  1.200328E-10  1.338058E-10
       277  18  8.533594E+05  9.335906E+04  9.063228E+04 -3.077643E+04 -1.816824E-10 -1.384286E-10
       277  19 -1.634060E+04 -1.167103E+05 -9.883792E+04 -3.047916E+04 -1.076712E+04 -2.148916E+04
       277  20  3.648077E+04 -1.069657E+05 -9.220015E+04 -1.811916E+04 -8.015664E+03 -1.965715E+04
       277  21  9.063524E+04 -9.381074E+04 -8.289184E+04 -3.202137E+04 -5.262725E+03 -1.705741E+04
       277  22  4.719158E+05  3.175702E+03  1.245512E+04 -3.140048E+04 -9.661178E+03 -2.148738E+04
       277  23  4.712068E+05 -2.783638E+02  6.625197E+03 -1.826928E+04 -6.317719E+03 -1.965557E+04
       277  24  4.719300E+05 -2.206606E+02  3.875206E+03 -3.139908E+04 -2.973008E+03 -1.705627E+04
       277  25  9.603932E+05  1.230452E+05  1.237326E+05 -3.232257E+04 -8.554375E+03 -2.148560E+04
       277  26  9.061082E+05  1.063959E+05  1.054383E+05 -1.841952E+04 -4.618595E+03 -1.965398E+04
       277  27  8.533595E+05  9.335937E+04  9.063283E+04 -3.077642E+04 -6.818973E+02 -1.705513E+04
       278   1  1.389818E+05 -8.143010E+04 -7.245771E+04 -3.139315E+04  4.416406E+03  1.538181E+04
       278   2  1.920039E+05 -6.864099E+04 -6.179897E+04 -1.834152E+04  3.588524E+03  1.269847E+04
       278   3  2.452386E+05 -5.560433E+04 -5.053052E+04 -3.140086E+04  2.759456E+03  9.983631E+03
       278   4  4.716677E+05  1.761774E+02  2.995864E+03 -3.136597E+04  2.368224E+03  1.538103E+04
       278   5  4.715644E+05 -4.567131E+01  1.716870E+03 -1.831085E+04  1.515666E+03  1.269808E+04
       278   6  4.716761E+05 -1.541170E+01  1.064775E+03 -3.136598E+04  6.619921E+02  9.983637E+03
       278   7  8.044564E+05  8.177483E+04  7.844231E+04 -3.133878E+04  3.189547E+02  1.538025E+04
       278   8  7.511975E+05  6.854425E+04  6.522766E+04 -1.828017E+04 -5.581169E+02  1.269768E+04
       278   9  6.981611E+05  5.556996E+04  5.265675E+04 -3.133108E+04 -1.436230E+03  9.983642E+03
       278  10  1.389817E+05 -8.143036E+04 -7.245819E+04 -3.139321E+04  4.967063E-11 -1.256295E-10
       278  11  1.920038E+05 -6.864116E+04 -6.179930E+04 -1.834156E+04 -2.466430E-10 -2.779338E-10
       278  12  2.452386E+05 -5.560444E+04 -5.053072E+04 -3.140088E+04  1.925364E-10 -1.366277E-10
       278  13  4.716677E+05  1.759218E+02  2.995409E+03 -3.136600E+04  3.374995E-10 -2.143223E-10
       278  14  4.715644E+05 -4.584511E+01  1.716563E+03 -1.831087E+04 -1.463786E-10 -1.453407E-10
       278  15  4.716761E+05 -1.551887E+01  1.064587E+03 -3.136598E+04  3.904363E-12 -1.410771E-10
       278  16  8.044563E+05  8.177457E+04  7.844186E+04 -3.133878E+04 -3.421022E-10 -2.716983E-10
       278  17  7.511974E+05  6.854408E+04  6.522736E+04 -1.828016E+04 -3.986654E-10 -8.876250E-11
       278  18  6.981611E+05  5.556985E+04  5.265655E+04 -3.133107E+04 -3.683911E-11 -1.315386E-10
       278  19  1.389818E+05 -8.143010E+04 -7.245771E+04 -3.139315E+04 -4.416406E+03 -1.538181E+04
       278  20  1.920039E+05 -6.864099E+04 -6.179897E+04 -1.834152E+04 -3.588524E+03 -1.269847E+04
       278  21  2.452386E+05 -5.560433E+04 -5.053052E+04 -3.140086E+04 -2.759456E+03 -9.983631E+03
       278  22  4.716677E+05  1.761774E+02  2.995864E+03 -3.136597E+04 -2.368224E+03 -1.538103E+04
       278  23  4.715644E+05 -4.567131E+01  1.716870E+03 -1.831085E+04 -1.515666E+03 -1.269808E+04
       278  24  4.716761E+05 -1.541170E+01  1.064775E+03 -3.136598E+04 -6.619921E+02 -9.983637E+03
       278  25  8.044564E+05  8.177483E+04  7.844231E+04 -3.133878E+04 -3.189547E+02 -1.538025E+04
       278  26  7.511975E+05  6.854425E+04  6.522766E+04 -1.828017E+04  5.581169E+02 -1.269768E+04
       278  27  6.981611E+05  5.556996E+04  5.265675E+04 -3.133108E+04  1.436230E+03 -9.983642E+03
       279   1  2.935557E+05 -4.365438E+04 -3.943550E+04 -3.134036E+04  2.571266E+03  8.398340E+03
       279   2  3.464607E+05 -3.071136E+04 -2.777318E+04 -1.832413E+04  2.244515E+03  5.686140E+03
       279   3  3.994157E+05 -1.773975E+04 -1.589187E+04 -3.132426E+04  1.917225E+03  2.974502E+03
       279   4  4.716434E+05  9.005689E+00  8.683446E+02 -3.134504E+04  4.873729E+02  8.398526E+03
       279   5  4.716219E+05 -3.809367E+00  6.597061E+02 -1.833702E+04  1.608814E+02  5.686497E+03
       279   6  4.716470E+05  1.188526E+01  6.697338E+02 -3.134505E+04 -1.661217E+02  2.975040E+03
       279   7  6.497605E+05  4.367021E+04  4.117017E+04 -3.134973E+04 -1.597112E+03  8.398712E+03
       279   8  5.967977E+05  3.070266E+04  2.909159E+04 -1.834992E+04 -1.923168E+03  5.686854E+03
       279   9  5.438832E+05  1.776316E+04  1.723101E+04 -3.136584E+04 -2.249708E+03  2.975578E+03
       279  10  2.935557E+05 -4.365446E+04 -3.943565E+04 -3.134038E+04 -3.435144E-10  8.167081E-13
       279  11  3.464606E+05 -3.071140E+04 -2.777325E+04 -1.832414E+04 -2.561777E-10  1.269660E-10
       279  12  3.994157E+05 -1.773976E+04 -1.589190E+04 -3.132426E+04  3.711722E-10 -1.087529E-10
       279  13  4.716434E+05  8.929866E+00  8.682115E+02 -3.134505E+04 -4.827539E-11  3.381852E-12
       279  14  4.716219E+05 -3.844105E+00  6.596452E+02 -1.833702E+04 -1.035978E-10  1.320615E-10
       279  15  4.716470E+05  1.187575E+01  6.697171E+02 -3.134504E+04  4.167153E-11  8.299486E-11
       279  16  6.497605E+05  4.367014E+04  4.117003E+04 -3.134972E+04  1.393451E-10 -9.568148E-11
       279  17  5.967977E+05  3.070263E+04  2.909153E+04 -1.834991E+04 -2.331430E-10  3.501573E-11
       279  18  5.438832E+05  1.776315E+04  1.723099E+04 -3.136583E+04 -5.779132E-11  6.532592E-11
       279  19  2.935557E+05 -4.365438E+04 -3.943550E+04 -3.134036E+04 -2.571266E+03 -8.398340E+03
       279  20  3.464607E+05 -3.071136E+04 -2.777318E+04 -1.832413E+04 -2.244515E+03 -5.686140E+03
       279  21  3.994157E+05 -1.773975E+04 -1.589187E+04 -3.132426E+04 -1.917225E+03 -2.974502E+03
       279  22  4.716434E+05  9.005689E+00  8.683446E+02 -3.134504E+04 -4.873729E+02 -8.398526E+03
       279  23  4.716219E+05 -3.809367E+00  6.597061E+02 -1.833702E+04 -1.608814E+02 -5.686497E+03
       279  24  4.716470E+05  1.188526E+01  6.697338E+02 -3.134505E+04  1.661217E+02 -2.975040E+03
       279  25  6.497605E+05  4.367021E+04  4.117017E+04 -3.134973E+04  1.597112E+03 -8.398712E+03
       279  26  5.967977E+05  3.070266E+04  2.909159E+04 -1.834992E+04  1.923168E+03 -5.686854E+03
       279  27  5.438832E+05  1.776316E+04  1.723101E+04 -3.136584E+04  2.249708E+03 -2.975578E+03
       280   1  4.476634E+05 -5.843923E+03 -4.546621E+03 -3.132059E+04  1.787457E+03  1.396805E+03
       280   2  5.005145E+05  7.084455E+03  7.656611E+03 -1.831955E+04  1.245543E+03 -1.312977E+03
       280   3  5.534386E+05  2.006618E+04  2.022225E+04 -3.130982E+04  7.037009E+02 -4.021870E+03
       280   4  4.716534E+05  1.077917E+01  7.491419E+02 -3.133957E+04 -2.952821E+02  1.397386E+03
       280   5  4.716178E+05 -4.524205E+00  1.092682E+03 -1.834387E+04 -8.365709E+02 -1.312442E+03
       280   6  4.716524E+05  3.359559E+01  1.798341E+03 -3.133956E+04 -1.377743E+03 -4.021371E+03
       280   7  4.956439E+05  5.865445E+03  6.044885E+03 -3.135855E+04 -2.378101E+03  1.397967E+03
       280   8  4.427218E+05 -7.093559E+03 -5.471285E+03 -1.836818E+04 -2.918589E+03 -1.311907E+03
       280   9  3.898725E+05 -1.999944E+04 -1.662598E+04 -3.136929E+04 -3.458916E+03 -4.020871E+03
       280  10  4.476634E+05 -5.843925E+03 -4.546630E+03 -3.132060E+04  7.682067E-11 -2.174633E-10
       280  11  5.005145E+05  7.084453E+03  7.656605E+03 -1.831955E+04 -2.851616E-11 -4.207861E-11
       280  12  5.534386E+05  2.006616E+04  2.022222E+04 -3.130982E+04 -1.058839E-11  4.083929E-11
       280  13  4.716534E+05  1.077705E+01  7.491380E+02 -3.133957E+04 -1.546130E-10  1.705393E-11
       280  14  4.716178E+05 -4.526243E+00  1.092678E+03 -1.834387E+04 -2.292288E-10  7.493012E-11
       280  15  4.716524E+05  3.357771E+01  1.798307E+03 -3.133956E+04 -3.774332E-10  2.550037E-11
       280  16  4.956439E+05  5.865441E+03  6.044871E+03 -3.135854E+04 -2.205137E-10 -1.912725E-11
       280  17  4.427218E+05 -7.093563E+03 -5.471304E+03 -1.836819E+04 -2.544378E-11  3.350210E-11
       280  18  3.898724E+05 -1.999946E+04 -1.662603E+04 -3.136930E+04 -1.866629E-10 -1.474418E-10
       280  19  4.476634E+05 -5.843923E+03 -4.546621E+03 -3.132059E+04 -1.787457E+03 -1.396805E+03
       280  20  5.005145E+05  7.084455E+03  7.656611E+03 -1.831955E+04 -1.245543E+03  1.312977E+03
       280  21  5.534386E+05  2.006618E+04  2.022225E+04 -3.130982E+04 -7.037009E+02  4.021870E+03
       280  22  4.716534E+05  1.077917E+01  7.491419E+02 -3.133957E+04  2.952821E+02 -1.397386E+03
       280  23  4.716178E+05 -4.524205E+00  1.092682E+03 -1.834387E+04  8.365709E+02  1.312442E+03
       280  24  4.716524E+05  3.359559E+01  1.798341E+03 -3.133956E+04  1.377743E+03  4.021371E+03
       280  25  4.956439E+05  5.865445E+03  6.044885E+03 -3.135855E+04  2.378101E+03 -1.397967E+03
       280  26  4.427218E+05 -7.093559E+03 -5.471285E+03 -1.836818E+04  2.918589E+03  1.311907E+03
       280  27  3.898725E+05 -1.999944E+04 -1.662598E+04 -3.136929E+04  3.458916E+03  4.020871E+03
       281   1  6.017890E+05  3.191088E+04  3.202585E+04 -3.123332E+04  3.421085E+02 -5.603357E+03
       281   2  6.545747E+05  4.483422E+04  4.557306E+04 -1.827960E+04 -1.665226E+03 -8.311631E+03
       281   3  7.077853E+05  5.836702E+04  6.057970E+04 -3.136929E+04 -3.671962E+03 -1.099212E+04
       281   4  4.717275E+05 -2.442097E+01  2.331839E+03 -3.135124E+04 -1.750170E+03 -5.602950E+03
       281   5  4.715149E+05 -7.040490E+01  3.993270E+03 -1.832926E+04 -3.735680E+03 -8.311491E+03
       281   6  4.717216E+05  4.898310E+02  7.099703E+03 -3.135115E+04 -5.720424E+03 -1.099223E+04
       281   7  3.416818E+05 -3.196089E+04 -2.736326E+04 -3.146914E+04 -3.842014E+03 -5.602542E+03
       281   8  2.884861E+05 -4.497734E+04 -3.758867E+04 -1.837890E+04 -5.805529E+03 -8.311350E+03
       281   9  2.357096E+05 -5.739120E+04 -4.638387E+04 -3.133301E+04 -7.768115E+03 -1.099235E+04
       281  10  6.017889E+05  3.191084E+04  3.202579E+04 -3.123332E+04 -9.575747E-10 -1.447322E-11
       281  11  6.545747E+05  4.483415E+04  4.557292E+04 -1.827961E+04 -2.860511E-10 -1.294678E-12
       281  12  7.077852E+05  5.836689E+04  6.057945E+04 -3.136932E+04 -5.378674E-11 -5.426844E-11
       281  13  4.717275E+05 -2.445551E+01  2.331774E+03 -3.135125E+04 -3.217668E-10 -1.023831E-10
       281  14  4.715148E+05 -7.048284E+01  3.993114E+03 -1.832928E+04 -4.680612E-10 -3.299866E-11
       281  15  4.717215E+05  4.896924E+02  7.099414E+03 -3.135120E+04 -1.006757E-10 -4.839981E-11
       281  16  3.416818E+05 -3.196093E+04 -2.736334E+04 -3.146916E+04  1.832070E-10 -1.151028E-10
       281  17  2.884860E+05 -4.497743E+04 -3.758886E+04 -1.837894E+04 -1.712923E-10 -7.423701E-11
       281  18  2.357095E+05 -5.739134E+04 -4.638421E+04 -3.133308E+04 -1.990610E-10 -4.752982E-11
       281  19  6.017890E+05  3.191088E+04  3.202585E+04 -3.123332E+04 -3.421085E+02  5.603357E+03
       281  20  6.545747E+05  4.483422E+04  4.557306E+04 -1.827960E+04  1.665226E+03  8.311631E+03
       281  21  7.077853E+05  5.836702E+04  6.057970E+04 -3.136929E+04  3.671962E+03  1.099212E+04
       281  22  4.717275E+05 -2.442097E+01  2.331839E+03 -3.135124E+04  1.750170E+03  5.602950E+03
       281  23  4.715149E+05 -7.040490E+01  3.993270E+03 -1.832926E+04  3.735680E+03  8.311491E+03
       281  24  4.717216E+05  4.898310E+02  7.099703E+03 -3.135115E+04  5.720424E+03  1.099223E+04
       281  25  3.416818E+05 -3.196089E+04 -2.736326E+04 -3.146914E+04  3.842014E+03  5.602542E+03
       281  26  2.884861E+05 -4.497734E+04 -3.758867E+04 -1.837890E+04  5.805529E+03  8.311350E+03
       281  27  2.357096E+05 -5.739120E+04 -4.638387E+04 -3.133301E+04  7.768115E+03  1.099235E+04
       282   1  7.568599E+05  6.935700E+04  7.397098E+04 -3.001219E+04 -4.902566E+03 -1.264876E+04
       282   2  8.084796E+05  8.228446E+04  9.258968E+04 -1.892694E+04 -1.340719E+04 -1.525668E+04
       282   3  8.633995E+05  1.037162E+05  1.188800E+05 -3.398472E+04 -2.191160E+04 -1.721019E+04
       282   4  4.723362E+05 -4.592921E+02  9.214530E+03 -3.137302E+04 -7.156519E+03 -1.264909E+04
       282   5  4.707240E+05 -5.672061E+02  1.584067E+04 -1.830180E+04 -1.515420E+04 -1.525748E+04
       282   6  4.723229E+05  7.744026E+03  2.978974E+04 -3.137428E+04 -2.315095E+04 -1.721134E+04
       282   7  1.878875E+05 -7.028117E+04 -5.554716E+04 -3.273323E+04 -9.409449E+03 -1.264941E+04
       282   8  1.330741E+05 -8.342675E+04 -6.091572E+04 -1.767700E+04 -1.690027E+04 -1.525828E+04
       282   9  8.138805E+04 -8.823870E+04 -5.931047E+04 -2.876551E+04 -2.438952E+04 -1.721250E+04
       282  10  7.568598E+05  6.935683E+04  7.397063E+04 -3.001224E+04  1.734296E-10 -1.503492E-10
       282  11  8.084793E+05  8.228416E+04  9.258891E+04 -1.892711E+04 -2.313348E-10 -1.254270E-11
       282  12  8.633989E+05  1.037157E+05  1.188786E+05 -3.398502E+04  1.804579E-10  9.255356E-11
       282  13  4.723361E+05 -4.594777E+02  9.214133E+03 -3.137310E+04 -2.962955E-10 -4.585167E-11
       282  14  4.707236E+05 -5.675178E+02  1.583980E+04 -1.830199E+04 -1.824209E-11 -5.775505E-11
       282  15  4.723223E+05  7.743564E+03  2.978818E+04 -3.137460E+04 -7.385368E-11 -9.617857E-12
       282  16  1.878874E+05 -7.028137E+04 -5.554762E+04 -3.273332E+04 -3.699212E-10 -6.587161E-11
       282  17  1.330737E+05 -8.342707E+04 -6.091669E+04 -1.767721E+04 -3.594530E-10 -1.552251E-10
       282  18  8.138733E+04 -8.823917E+04 -5.931215E+04 -2.876585E+04 -6.043179E-11 -9.278036E-11
       282  19  7.568599E+05  6.935700E+04  7.397098E+04 -3.001219E+04  4.902566E+03  1.264876E+04
       282  20  8.084796E+05  8.228446E+04  9.258968E+04 -1.892694E+04  1.340719E+04  1.525668E+04
       282  21  8.633995E+05  1.037162E+05  1.188800E+05 -3.398472E+04  2.191160E+04  1.721019E+04
       282  22  4.723362E+05 -4.592921E+02  9.214530E+03 -3.137302E+04  7.156519E+03  1.264909E+04
       282  23  4.707240E+05 -5.672061E+02  1.584067E+04 -1.830180E+04  1.515420E+04  1.525748E+04
       282  24  4.723229E+05  7.744026E+03  2.978974E+04 -3.137428E+04  2.315095E+04  1.721134E+04
       282  25  1.878875E+05 -7.028117E+04 -5.554716E+04 -3.273323E+04  9.409449E+03  1.264941E+04
       282  26  1.330741E+05 -8.342675E+04 -6.091572E+04 -1.767700E+04  1.690027E+04  1.525828E+04
       282  27  8.138805E+04 -8.823870E+04 -5.931047E+04 -2.876551E+04  2.438952E+04  1.721250E+04
       283   1  9.192373E+05  1.017427E+05  1.368747E+05 -1.450414E+04 -2.302626E+04 -2.035886E+04
       283   2  9.551217E+05  1.151159E+05  1.748011E+05 -3.400035E+04 -6.688213E+04 -2.058588E+04
       283   3  1.026927E+06  2.487945E+05  2.713583E+05 -7.939010E+04 -1.107527E+05 -6.752114E+03
       283   4  4.791754E+05 -6.164773E+03  3.712179E+04 -3.129799E+04 -2.857938E+04 -2.036111E+04
       283   5  4.621219E+05 -5.958080E+03  6.193406E+04 -1.838889E+04 -6.160322E+04 -2.058588E+04
       283   6  4.791356E+05  1.127232E+05  1.378895E+05 -3.137063E+04 -9.463714E+04 -6.749454E+03
       283   7  3.929379E+04 -1.140845E+05 -6.264334E+04 -4.807984E+04 -3.412859E+04 -2.036306E+04
       283   8 -3.065250E+04 -1.270480E+05 -5.094865E+04 -2.789943E+03 -5.632844E+04 -2.058561E+04
       283   9 -6.837745E+04 -2.336146E+04  4.401108E+03  1.660638E+04 -7.853573E+04 -6.744306E+03
       283  10  9.192367E+05  1.017421E+05  1.368729E+05 -1.450452E+04  1.975959E-10  1.180002E-10
       283  11  9.551168E+05  1.151143E+05  1.747919E+05 -3.400146E+04  3.385914E-10 -1.943621E-10
       283  12  1.026914E+06  2.487912E+05  2.713352E+05 -7.939070E+04  1.555551E-10 -1.773510E-10
       283  13  4.791745E+05 -6.165438E+03  3.711948E+04 -3.129846E+04  2.063307E-10  3.731488E-11
       283  14  4.621177E+05 -5.959553E+03  6.192614E+04 -1.838991E+04 -1.864768E-10 -1.646615E-10
       283  15  4.791260E+05  1.127207E+05  1.378726E+05 -3.137115E+04 -3.378948E-10  2.553769E-12
       283  16  3.929242E+04 -1.140853E+05 -6.264631E+04 -4.808040E+04 -3.913599E-11 -8.750029E-12
       283  17 -3.065602E+04 -1.270493E+05 -5.095541E+04 -2.790877E+03 -7.020403E-10  2.589349E-10
       283  18 -6.838409E+04 -2.336316E+04  4.389431E+03  1.660595E+04 -2.327133E-10  2.981926E-11
       283  19  9.192373E+05  1.017427E+05  1.368747E+05 -1.450414E+04  2.302626E+04  2.035886E+04
       283  20  9.551217E+05  1.151159E+05  1.748011E+05 -3.400035E+04  6.688213E+04  2.058588E+04
       283  21  1.026927E+06  2.487945E+05  2.713583E+05 -7.939010E+04  1.107527E+05  6.752114E+03
       283  22  4.791754E+05 -6.164773E+03  3.712179E+04 -3.129799E+04  2.857938E+04  2.036111E+04
       283  23  4.621219E+05 -5.958080E+03  6.193406E+04 -1.838889E+04  6.160322E+04  2.058588E+04
       283  24  4.791356E+05  1.127232E+05  1.378895E+05 -3.137063E+04  9.463714E+04  6.749454E+03
       283  25  3.929379E+04 -1.140845E+05 -6.264334E+04 -4.807984E+04  3.412859E+04  2.036306E+04
       283  26 -3.065250E+04 -1.270480E+05 -5.094865E+04 -2.789943E+03  5.632844E+04  2.058561E+04
       283  27 -6.837745E+04 -2.336146E+04  4.401108E+03  1.660638E+04  7.853573E+04  6.744306E+03
       284   1  1.440727E+05  8.830979E+05  1.551169E+05 -8.662857E+04  3.523157E+03  5.740378E+04
       284   2  5.671776E+04  7.704420E+05  8.679319E+04 -4.480684E+04  9.704650E+03  3.337688E+04
       284   3  3.120513E+04  6.762297E+05  4.953000E+04 -5.335509E+04  6.227729E+03  9.340434E+03
       284   4  5.778256E+04  5.365487E+05  7.033652E+04 -6.163048E+04  3.537165E+03  4.894994E+04
       284   5 -2.906197E+03  5.279850E+05  3.109528E+04 -3.648847E+04  9.706824E+03  3.235676E+04
       284   6 -3.027338E+03  5.365779E+05  1.776873E+04 -6.171487E+04  6.217673E+03  1.574998E+04
       284   7 -2.851414E+04  1.901103E+05 -1.445201E+04 -3.664633E+04  3.550499E+03  4.050079E+04
       284   8 -6.253400E+04  2.855825E+05 -2.460648E+04 -2.817336E+04  9.708972E+03  3.133703E+04
       284   9 -3.726086E+04  3.969444E+05 -1.399361E+04 -7.007274E+04  6.207445E+03  2.215810E+04
       284  10  1.440718E+05  8.830943E+05  1.551107E+05 -8.662873E+04 -7.646336E-11 -1.977087E-10
       284  11  5.671736E+04  7.704408E+05  8.679093E+04 -4.480710E+04 -3.761872E-10  2.152302E-10
       284  12  3.120506E+04  6.762296E+05  4.952976E+04 -5.335514E+04  7.811147E-10  5.143340E-10
       284  13  5.778190E+04  5.365462E+05  7.033200E+04 -6.163062E+04  6.771327E-10 -7.717510E-11
       284  14 -2.906579E+03  5.279839E+05  3.109314E+04 -3.648873E+04 -1.633661E-09  2.591551E-10
       284  15 -3.027446E+03  5.365776E+05  1.776819E+04 -6.171494E+04  4.374421E-10  1.183932E-11
       284  16 -2.851459E+04  1.901086E+05 -1.445511E+04 -3.664644E+04 -1.609608E-10  2.046625E-10
       284  17 -6.253437E+04  2.855814E+05 -2.460850E+04 -2.817360E+04 -3.328408E-10 -1.246493E-10
       284  18 -3.726103E+04  3.969438E+05 -1.399460E+04 -7.007285E+04 -4.123048E-11 -5.519174E-10
       284  19  1.440727E+05  8.830979E+05  1.551169E+05 -8.662857E+04 -3.523157E+03 -5.740378E+04
       284  20  5.671776E+04  7.704420E+05  8.679319E+04 -4.480684E+04 -9.704650E+03 -3.337688E+04
       284  21  3.120513E+04  6.762297E+05  4.953000E+04 -5.335509E+04 -6.227729E+03 -9.340434E+03
       284  22  5.778256E+04  5.365487E+05  7.033652E+04 -6.163048E+04 -3.537165E+03 -4.894994E+04
       284  23 -2.906197E+03  5.279850E+05  3.109528E+04 -3.648847E+04 -9.706824E+03 -3.235676E+04
       284  24 -3.027338E+03  5.365779E+05  1.776873E+04 -6.171487E+04 -6.217673E+03 -1.574998E+04
       284  25 -2.851414E+04  1.901103E+05 -1.445201E+04 -3.664633E+04 -3.550499E+03 -4.050079E+04
       284  26 -6.253400E+04  2.855825E+05 -2.460648E+04 -2.817336E+04 -9.708972E+03 -3.133703E+04
       284  27 -3.726086E+04  3.969444E+05 -1.399361E+04 -7.007274E+04 -6.207445E+03 -2.215810E+04
       285   1  1.534915E+04  5.782032E+05  2.389660E+04 -6.293912E+04  2.013227E+03  9.593625E+03
       285   2 -1.430791E+04  4.744804E+05 -7.964567E+03 -3.679374E+04 -2.629886E+03  7.048922E+03
       285   3 -4.102279E+04  3.716501E+05 -3.747807E+04 -6.135676E+04 -7.140031E+03  4.505257E+03
       285   4  4.245427E+03  5.329667E+05  1.360809E+04 -6.176214E+04  2.007511E+03  1.321608E+04
       285   5 -7.063310E+01  5.325159E+05  5.226450E+03 -3.641252E+04 -2.635293E+03  1.056949E+04
       285   6 -1.425880E+03  5.329662E+05 -7.353404E+02 -6.177087E+04 -7.145166E+03  7.923524E+03
       285   7 -6.858425E+03  4.877322E+05  3.319498E+03 -6.058525E+04  2.001809E+03  1.683827E+04
       285   8  1.416642E+04  5.905545E+05  1.841730E+04 -3.603126E+04 -2.640695E+03  1.409038E+04
       285   9  3.816923E+04  6.943065E+05  3.600575E+04 -6.218507E+04 -7.150304E+03  1.134267E+04
       285  10  1.534912E+04  5.782031E+05  2.389642E+04 -6.293913E+04  2.320203E-10 -5.690465E-10
       285  11 -1.430793E+04  4.744803E+05 -7.964673E+03 -3.679373E+04  6.391306E-11 -3.037928E-10
       285  12 -4.102285E+04  3.716501E+05 -3.747821E+04 -6.135673E+04 -6.645264E-10  1.818512E-10
       285  13  4.245376E+03  5.329665E+05  1.360775E+04 -6.176217E+04  2.370714E-10  3.820918E-11
       285  14 -7.067052E+01  5.325158E+05  5.226227E+03 -3.641250E+04  8.039148E-10 -1.521124E-10
       285  15 -1.425952E+03  5.329661E+05 -7.355542E+02 -6.177082E+04  9.205174E-10 -1.422425E-10
       285  16 -6.858505E+03  4.877319E+05  3.318958E+03 -6.058528E+04  8.065358E-11  6.376461E-10
       285  17  1.416636E+04  5.905543E+05  1.841691E+04 -3.603123E+04 -7.697583E-10  2.325657E-10
       285  18  3.816914E+04  6.943063E+05  3.600541E+04 -6.218500E+04 -3.256016E-10 -1.034944E-10
       285  19  1.534915E+04  5.782032E+05  2.389660E+04 -6.293912E+04 -2.013227E+03 -9.593625E+03
       285  20 -1.430791E+04  4.744804E+05 -7.964567E+03 -3.679374E+04  2.629886E+03 -7.048922E+03
       285  21 -4.102279E+04  3.716501E+05 -3.747807E+04 -6.135676E+04  7.140031E+03 -4.505257E+03
       285  22  4.245427E+03  5.329667E+05  1.360809E+04 -6.176214E+04 -2.007511E+03 -1.321608E+04
       285  23 -7.063310E+01  5.325159E+05  5.226450E+03 -3.641252E+04  2.635293E+03 -1.056949E+04
       285  24 -1.425880E+03  5.329662E+05 -7.353404E+02 -6.177087E+04  7.145166E+03 -7.923524E+03
       285  25 -6.858425E+03  4.877322E+05  3.319498E+03 -6.058525E+04 -2.001809E+03 -1.683827E+04
       285  26  1.416642E+04  5.905545E+05  1.841730E+04 -3.603126E+04  2.640695E+03 -1.409038E+04
       285  27  3.816923E+04  6.943065E+05  3.600575E+04 -6.218507E+04  7.150304E+03 -1.134267E+04
       286   1 -6.126080E+04  2.756744E+05 -6.127333E+04 -5.846508E+04 -1.165308E+04  1.052263E+03
       286   2 -8.705995E+04  1.758063E+05 -9.165640E+04 -3.888430E+04 -1.467931E+04  1.573513E+04
       286   3 -1.349354E+05  6.842393E+04 -1.371382E+05 -6.969613E+04 -5.165236E+03  3.043055E+04
       286   4  1.502572E+03  5.314555E+05 -3.179497E+03 -6.168985E+04 -1.166337E+04  8.180210E+03
       286   5  1.073485E+03  5.343733E+05 -9.379161E+03 -3.650726E+04 -1.467533E+04  1.323308E+04
       286   6 -1.975324E+04  5.314414E+05 -2.398808E+04 -6.171657E+04 -5.149920E+03  1.830122E+04
       286   7  6.426149E+04  7.872974E+05  5.491030E+04 -6.491594E+04 -1.167375E+04  1.531106E+04
       286   8  8.919799E+04  8.930592E+05  7.288963E+04 -3.412880E+04 -1.467136E+04  1.072960E+04
       286   9  9.541339E+04  9.946546E+05  8.914695E+04 -5.373098E+04 -5.134923E+03  6.162868E+03
       286  10 -6.126094E+04  2.756743E+05 -6.127359E+04 -5.846507E+04  1.700020E-10 -1.113923E-10
       286  11 -8.706024E+04  1.758060E+05 -9.165727E+04 -3.888411E+04  3.691933E-10 -2.985490E-11
       286  12 -1.349357E+05  6.842293E+04 -1.371399E+05 -6.969600E+04 -2.014269E-10  1.258472E-10
       286  13  1.502408E+03  5.314554E+05 -3.179879E+03 -6.168978E+04 -8.897640E-10  1.298585E-10
       286  14  1.073207E+03  5.343730E+05 -9.379895E+03 -3.650710E+04  4.650774E-10 -1.008481E-10
       286  15 -1.975336E+04  5.314410E+05 -2.398876E+04 -6.171650E+04 -3.071575E-10  3.190496E-11
       286  16  6.426128E+04  7.872971E+05  5.490960E+04 -6.491580E+04  2.364486E-10  4.279185E-11
       286  17  8.919772E+04  8.930591E+05  7.288901E+04 -3.412867E+04 -3.887426E-11 -1.042962E-10
       286  18  9.541335E+04  9.946545E+05  8.914683E+04 -5.373095E+04 -3.670341E-10 -4.422761E-11
       286  19 -6.126080E+04  2.756744E+05 -6.127333E+04 -5.846508E+04  1.165308E+04 -1.052263E+03
       286  20 -8.705995E+04  1.758063E+05 -9.165640E+04 -3.888430E+04  1.467931E+04 -1.573513E+04
       286  21 -1.349354E+05  6.842393E+04 -1.371382E+05 -6.969613E+04  5.165236E+03 -3.043055E+04
       286  22  1.502572E+03  5.314555E+05 -3.179497E+03 -6.168985E+04  1.166337E+04 -8.180210E+03
       286  23  1.073485E+03  5.343733E+05 -9.379161E+03 -3.650726E+04  1.467533E+04 -1.323308E+04
       286  24 -1.975324E+04  5.314414E+05 -2.398808E+04 -6.171657E+04  5.149920E+03 -1.830122E+04
       286  25  6.426149E+04  7.872974E+05  5.491030E+04 -6.491594E+04  1.167375E+04 -1.531106E+04
       286  26  8.919799E+04  8.930592E+05  7.288963E+04 -3.412880E+04  1.467136E+04 -1.072960E+04
       286  27  9.541339E+04  9.946546E+05  8.914695E+04 -5.373098E+04  5.134923E+03 -6.162868E+03
       287   1 -8.419169E+05 -3.700185E+05 -2.581743E+05 -2.957957E+05 -1.088879E+05 -3.480850E+04
       287   2 -8.080260E+05 -2.143188E+05 -1.590975E+05 -2.939466E+05 -7.080623E+04 -7.520218E+03
       287   3 -8.153256E+05 -1.908995E+05 -1.249480E+05 -2.726527E+05 -2.852322E+04  8.613512E+03
       287   4 -4.677618E+05 -1.837732E+05 -1.487810E+05 -1.473633E+05 -9.676510E+04 -3.025657E+04
       287   5 -4.399902E+05 -6.215008E+04 -6.357070E+04 -1.782525E+05 -6.667809E+04 -5.970338E+03
       287   6 -4.517959E+05 -7.118220E+04 -3.692033E+04 -1.897065E+05 -3.239193E+04  7.159100E+03
       287   7 -9.346794E+04  2.513221E+03 -3.940140E+04  1.159408E+03 -8.463440E+04 -2.569942E+04
       287   8 -7.182164E+04  9.003569E+04  3.194462E+04 -6.249343E+04 -6.254727E+04 -4.419208E+03
       287   9 -8.813571E+04  4.853732E+04  5.109815E+04 -1.067193E+05 -3.626313E+04  5.704009E+03
       287  10 -8.419299E+05 -3.700230E+05 -2.581989E+05 -2.957988E+05 -1.295189E-10 -2.036759E-11
       287  11 -8.080314E+05 -2.143202E+05 -1.591070E+05 -2.939470E+05 -3.517141E-10 -1.159426E-10
       287  12 -8.153265E+05 -1.908998E+05 -1.249497E+05 -2.726525E+05  1.633734E-10 -2.814991E-11
       287  13 -4.677721E+05 -1.837767E+05 -1.488004E+05 -1.473656E+05  3.687859E-10  6.251346E-11
       287  14 -4.399950E+05 -6.215131E+04 -6.357912E+04 -1.782528E+05 -5.458460E-10  1.388321E-11
       287  15 -4.517971E+05 -7.118254E+04 -3.692240E+04 -1.897064E+05 -3.829849E-10 -1.008597E-10
       287  16 -9.347581E+04  2.510589E+03 -3.941610E+04  1.157656E+03 -4.479650E-10  8.379303E-11
       287  17 -7.182585E+04  9.003462E+04  3.193723E+04 -6.249365E+04 -6.138719E-10  7.678730E-11
       287  18 -8.813713E+04  4.853694E+04  5.109562E+04 -1.067191E+05 -7.761467E-10 -1.743252E-10
       287  19 -8.419169E+05 -3.700185E+05 -2.581743E+05 -2.957957E+05  1.088879E+05  3.480850E+04
       287  20 -8.080260E+05 -2.143188E+05 -1.590975E+05 -2.939466E+05  7.080623E+04  7.520218E+03
       287  21 -8.153256E+05 -1.908995E+05 -1.249480E+05 -2.726527E+05  2.852322E+04 -8.613512E+03
       287  22 -4.677618E+05 -1.837732E+05 -1.487810E+05 -1.473633E+05  9.676510E+04  3.025657E+04
       287  23 -4.399902E+05 -6.215008E+04 -6.357070E+04 -1.782525E+05  6.667809E+04  5.970338E+03
       287  24 -4.517959E+05 -7.118220E+04 -3.692033E+04 -1.897065E+05  3.239193E+04 -7.159100E+03
       287  25 -9.346794E+04  2.513221E+03 -3.940140E+04  1.159408E+03  8.463440E+04  2.569942E+04
       287  26 -7.182164E+04  9.003569E+04  3.194462E+04 -6.249343E+04  6.254727E+04  4.419208E+03
       287  27 -8.813571E+04  4.853732E+04  5.109815E+04 -1.067193E+05  3.626313E+04 -5.704009E+03
       288   1 -7.699547E+05 -2.078384E+05 -1.113897E+05 -2.734988E+05 -2.625559E+04  6.981190E+03
       288   2 -7.461316E+05 -1.816356E+05 -8.945642E+04 -2.607114E+05 -1.792758E+04  9.135400E+03
       288   3 -7.161879E+05 -1.754234E+05 -7.601101E+04 -2.578960E+05 -9.388152E+03  1.072620E+04
       288   4 -4.469433E+05 -8.418242E+04 -2.956781E+04 -1.820966E+05 -2.667508E+04  6.822740E+03
       288   5 -4.494427E+05 -6.999437E+04 -1.486969E+04 -1.786994E+05 -1.874787E+04  8.826646E+03
       288   6 -4.457406E+05 -7.571450E+04 -8.338168E+03 -1.852748E+05 -1.060964E+04  1.026708E+04
       288   7 -1.238310E+05  3.948122E+04  5.224530E+04 -9.065121E+04 -2.709481E+04  6.664198E+03
       288   8 -1.526676E+05  4.165293E+04  5.971007E+04 -9.665183E+04 -1.956859E+04  8.517728E+03
       288   9 -1.752205E+05  2.399917E+04  5.932924E+04 -1.126249E+05 -1.183171E+04  9.807749E+03
       288  10 -7.699554E+05 -2.078386E+05 -1.113911E+05 -2.734987E+05 -1.991340E-10 -1.255935E-10
       288  11 -7.461319E+05 -1.816357E+05 -8.945719E+04 -2.607113E+05 -3.403147E-10 -1.626866E-10
       288  12 -7.161881E+05 -1.754236E+05 -7.601140E+04 -2.578959E+05  1.359977E-10 -7.007077E-11
       288  13 -4.469441E+05 -8.418266E+04 -2.956924E+04 -1.820965E+05 -2.521342E-10 -8.879450E-11
       288  14 -4.494431E+05 -6.999455E+04 -1.487050E+04 -1.786993E+05 -4.185008E-10 -5.417055E-11
       288  15 -4.457407E+05 -7.571464E+04 -8.338578E+03 -1.852748E+05 -4.626978E-10 -3.599310E-12
       288  16 -1.238318E+05  3.948098E+04  5.224384E+04 -9.065106E+04 -1.492442E-10 -6.878128E-11
       288  17 -1.526681E+05  4.165275E+04  5.970921E+04 -9.665170E+04 -2.486229E-10  1.452757E-10
       288  18 -1.752206E+05  2.399903E+04  5.932880E+04 -1.126248E+05 -1.139346E-10  6.572413E-11
       288  19 -7.699547E+05 -2.078384E+05 -1.113897E+05 -2.734988E+05  2.625559E+04 -6.981190E+03
       288  20 -7.461316E+05 -1.816356E+05 -8.945642E+04 -2.607114E+05  1.792758E+04 -9.135400E+03
       288  21 -7.161879E+05 -1.754234E+05 -7.601101E+04 -2.578960E+05  9.388152E+03 -1.072620E+04
       288  22 -4.469433E+05 -8.418242E+04 -2.956781E+04 -1.820966E+05  2.667508E+04 -6.822740E+03
       288  23 -4.494427E+05 -6.999437E+04 -1.486969E+04 -1.786994E+05  1.874787E+04 -8.826646E+03
       288  24 -4.457406E+05 -7.571450E+04 -8.338168E+03 -1.852748E+05  1.060964E+04 -1.026708E+04
       288  25 -1.238310E+05  3.948122E+04  5.224530E+04 -9.065121E+04  2.709481E+04 -6.664198E+03
       288  26 -1.526676E+05  4.165293E+04  5.971007E+04 -9.665183E+04  1.956859E+04 -8.517728E+03
       288  27 -1.752205E+05  2.399917E+04  5.932924E+04 -1.126249E+05  1.183171E+04 -9.807749E+03
       289   1 -6.877548E+05 -1.673623E+05 -6.715424E+04 -2.511637E+05 -8.024196E+03  1.016295E+04
       289   2 -6.647865E+05 -1.507336E+05 -5.722093E+04 -2.373876E+05 -5.719353E+03  9.338997E+03
       289   3 -6.315493E+05 -1.455629E+05 -4.877306E+04 -2.357734E+05 -3.402690E+03  8.482002E+03
       289   4 -4.452337E+05 -7.668049E+04 -6.394316E+03 -1.846911E+05 -9.077250E+03  9.767217E+03
       289   5 -4.503243E+05 -7.064337E+04 -3.437554E+03 -1.787259E+05 -6.795424E+03  8.934837E+03
       289   6 -4.451421E+05 -7.605926E+04 -1.947446E+03 -1.849225E+05 -4.501869E+03  8.069387E+03
       289   7 -2.026551E+05  1.400526E+04  5.436097E+04 -1.181949E+05 -1.013075E+04  9.371319E+03
       289   8 -2.358176E+05  9.449647E+03  5.034207E+04 -1.200460E+05 -7.871899E+03  8.530525E+03
       289   9 -2.587017E+05 -6.553644E+03  4.487520E+04 -1.340579E+05 -5.601406E+03  7.656639E+03
       289  10 -6.877549E+05 -1.673625E+05 -6.715456E+04 -2.511636E+05 -2.923469E-10 -8.271948E-11
       289  11 -6.647865E+05 -1.507337E+05 -5.722116E+04 -2.373876E+05 -3.185969E-10  7.186981E-11
       289  12 -6.315494E+05 -1.455630E+05 -4.877322E+04 -2.357733E+05  5.902992E-11  7.925174E-11
       289  13 -4.452339E+05 -7.668061E+04 -6.394650E+03 -1.846910E+05  2.806007E-10  5.435653E-11
       289  14 -4.503244E+05 -7.064347E+04 -3.437791E+03 -1.787259E+05  1.315946E-10  9.260661E-11
       289  15 -4.451422E+05 -7.605933E+04 -1.947606E+03 -1.849224E+05  1.766382E-10  1.516271E-10
       289  16 -2.026553E+05  1.400514E+04  5.436061E+04 -1.181948E+05  3.958029E-10 -1.053718E-11
       289  17 -2.358176E+05  9.449553E+03  5.034181E+04 -1.200460E+05  8.209068E-10 -4.720879E-11
       289  18 -2.587018E+05 -6.553716E+03  4.487503E+04 -1.340579E+05 -1.889072E-11 -2.711859E-11
       289  19 -6.877548E+05 -1.673623E+05 -6.715424E+04 -2.511637E+05  8.024196E+03 -1.016295E+04
       289  20 -6.647865E+05 -1.507336E+05 -5.722093E+04 -2.373876E+05  5.719353E+03 -9.338997E+03
       289  21 -6.315493E+05 -1.455629E+05 -4.877306E+04 -2.357734E+05  3.402690E+03 -8.482002E+03
       289  22 -4.452337E+05 -7.668049E+04 -6.394316E+03 -1.846911E+05  9.077250E+03 -9.767217E+03
       289  23 -4.503243E+05 -7.064337E+04 -3.437554E+03 -1.787259E+05  6.795424E+03 -8.934837E+03
       289  24 -4.451421E+05 -7.605926E+04 -1.947446E+03 -1.849225E+05  4.501869E+03 -8.069387E+03
       289  25 -2.026551E+05  1.400526E+04  5.436097E+04 -1.181949E+05  1.013075E+04 -9.371319E+03
       289  26 -2.358176E+05  9.449647E+03  5.034207E+04 -1.200460E+05  7.871899E+03 -8.530525E+03
       289  27 -2.587017E+05 -6.553644E+03  4.487520E+04 -1.340579E+05  5.601406E+03 -7.656639E+03
       290   1 -6.042576E+05 -1.355486E+05 -4.132322E+04 -2.284219E+05 -2.791007E+03  7.697335E+03
       290   2 -5.812570E+05 -1.195157E+05 -3.373992E+04 -2.144741E+05 -1.748888E+03  6.350373E+03
       290   3 -5.475179E+05 -1.143545E+05 -2.651903E+04 -2.129094E+05 -7.054706E+02  4.998952E+03
       290   4 -4.450663E+05 -7.613894E+04 -1.508674E+03 -1.848924E+05 -3.884195E+03  7.287079E+03
       290   5 -4.504306E+05 -7.068043E+04 -9.371049E+02 -1.787088E+05 -2.845151E+03  5.939088E+03
       290   6 -4.450575E+05 -7.609318E+04 -7.255828E+02 -1.849086E+05 -1.804835E+03  4.586636E+03
       290   7 -2.858494E+05 -1.672732E+04  3.830407E+04 -1.413526E+05 -4.977695E+03  6.876706E+03
       290   8 -3.195872E+05 -2.184396E+04  3.186444E+04 -1.429366E+05 -3.941669E+03  5.527709E+03
       290   9 -3.425867E+05 -3.783116E+04  2.506704E+04 -1.569035E+05 -2.904398E+03  4.174246E+03
       290  10 -6.042576E+05 -1.355487E+05 -4.132335E+04 -2.284219E+05 -2.636041E-10  2.209782E-11
       290  11 -5.812570E+05 -1.195157E+05 -3.374000E+04 -2.144741E+05 -2.429533E-10 -1.991449E-11
       290  12 -5.475180E+05 -1.143545E+05 -2.651907E+04 -2.129094E+05 -6.407761E-11 -4.504192E-11
       290  13 -4.450663E+05 -7.613900E+04 -1.508802E+03 -1.848924E+05 -1.651080E-10  1.578049E-10
       290  14 -4.504306E+05 -7.068047E+04 -9.371864E+02 -1.787088E+05  2.576471E-10 -7.146560E-11
       290  15 -4.450575E+05 -7.609320E+04 -7.256285E+02 -1.849086E+05  2.680195E-10 -7.815403E-12
       290  16 -2.858494E+05 -1.672738E+04  3.830394E+04 -1.413526E+05  3.726927E-10  7.322530E-11
       290  17 -3.195872E+05 -2.184399E+04  3.186436E+04 -1.429365E+05  3.707280E-10  7.405401E-11
       290  18 -3.425867E+05 -3.783118E+04  2.506699E+04 -1.569035E+05  3.172891E-10 -7.595439E-11
       290  19 -6.042576E+05 -1.355486E+05 -4.132322E+04 -2.284219E+05  2.791007E+03 -7.697335E+03
       290  20 -5.812570E+05 -1.195157E+05 -3.373992E+04 -2.144741E+05  1.748888E+03 -6.350373E+03
       290  21 -5.475179E+05 -1.143545E+05 -2.651903E+04 -2.129094E+05  7.054706E+02 -4.998952E+03
       290  22 -4.450663E+05 -7.613894E+04 -1.508674E+03 -1.848924E+05  3.884195E+03 -7.287079E+03
       290  23 -4.504306E+05 -7.068043E+04 -9.371049E+02 -1.787088E+05  2.845151E+03 -5.939088E+03
       290  24 -4.450575E+05 -7.609318E+04 -7.255828E+02 -1.849086E+05  1.804835E+03 -4.586636E+03
       290  25 -2.858494E+05 -1.672732E+04  3.830407E+04 -1.413526E+05  4.977695E+03 -6.876706E+03
       290  26 -3.195872E+05 -2.184396E+04  3.186444E+04 -1.429366E+05  3.941669E+03 -5.527709E+03
       290  27 -3.425867E+05 -3.783116E+04  2.506704E+04 -1.569035E+05  2.904398E+03 -4.174246E+03
       291   1 -5.202047E+05 -1.041502E+05 -1.946266E+04 -2.054842E+05 -2.502019E+02  4.153264E+03
       291   2 -4.971059E+05 -8.809978E+04 -1.260696E+04 -1.914705E+05  7.749860E+02  2.790463E+03
       291   3 -4.632364E+05 -8.295917E+04 -6.100903E+03 -1.898931E+05  1.800185E+03  1.427260E+03
       291   4 -4.450492E+05 -7.610306E+04 -7.204609E+02 -1.849193E+05 -1.350807E+03  3.740542E+03
       291   5 -4.504360E+05 -7.066340E+04 -9.029491E+02 -1.786952E+05 -3.258826E+02  2.377688E+03
       291   6 -4.450529E+05 -7.613352E+04 -1.434841E+03 -1.849077E+05  6.990322E+02  1.014425E+03
       291   7 -3.698884E+05 -4.805569E+04  1.802121E+04 -1.643523E+05 -2.451553E+03  3.327766E+03
       291   8 -4.037639E+05 -5.322688E+04  1.080089E+04 -1.659190E+05 -1.426842E+03  1.964879E+03
       291   9 -4.268690E+05 -6.930782E+04  3.231219E+03 -1.799221E+05 -4.021605E+02  6.015756E+02
       291  10 -5.202047E+05 -1.041502E+05 -1.946269E+04 -2.054842E+05 -3.575602E-10 -1.280394E-10
       291  11 -4.971059E+05 -8.809979E+04 -1.260697E+04 -1.914705E+05 -1.127951E-10  6.913332E-12
       291  12 -4.632364E+05 -8.295917E+04 -6.100913E+03 -1.898931E+05 -2.148740E-10  4.768376E-11
       291  13 -4.450492E+05 -7.610308E+04 -7.204906E+02 -1.849193E+05 -2.059612E-10 -5.014985E-11
       291  14 -4.504360E+05 -7.066341E+04 -9.029599E+02 -1.786952E+05  1.201186E-10  8.257253E-11
       291  15 -4.450529E+05 -7.613352E+04 -1.434844E+03 -1.849077E+05 -2.650502E-11  2.669913E-11
       291  16 -3.698884E+05 -4.805570E+04  1.802118E+04 -1.643523E+05  1.179405E-10 -1.173013E-10
       291  17 -4.037639E+05 -5.322688E+04  1.080088E+04 -1.659190E+05 -4.412404E-10 -4.516036E-11
       291  18 -4.268690E+05 -6.930782E+04  3.231218E+03 -1.799221E+05 -3.180687E-11  1.659520E-10
       291  19 -5.202047E+05 -1.041502E+05 -1.946266E+04 -2.054842E+05  2.502019E+02 -4.153264E+03
       291  20 -4.971059E+05 -8.809978E+04 -1.260696E+04 -1.914705E+05 -7.749860E+02 -2.790463E+03
       291  21 -4.632364E+05 -8.295917E+04 -6.100903E+03 -1.898931E+05 -1.800185E+03 -1.427260E+03
       291  22 -4.450492E+05 -7.610306E+04 -7.204609E+02 -1.849193E+05  1.350807E+03 -3.740542E+03
       291  23 -4.504360E+05 -7.066340E+04 -9.029491E+02 -1.786952E+05  3.258826E+02 -2.377688E+03
       291  24 -4.450529E+05 -7.613352E+04 -1.434841E+03 -1.849077E+05 -6.990322E+02 -1.014425E+03
       291  25 -3.698884E+05 -4.805569E+04  1.802121E+04 -1.643523E+05  2.451553E+03 -3.327766E+03
       291  26 -4.037639E+05 -5.322688E+04  1.080089E+04 -1.659190E+05  1.426842E+03 -1.964879E+03
       291  27 -4.268690E+05 -6.930782E+04  3.231219E+03 -1.799221E+05  4.021605E+02 -6.015756E+02
       292   1 -4.358656E+05 -7.273372E+04  5.500383E+02 -1.825664E+05  2.410745E+03  6.358621E+02
       292   2 -4.126852E+05 -5.656145E+04  6.190118E+03 -1.684139E+05  4.603576E+03 -2.878615E+02
       292   3 -3.791165E+05 -5.192790E+04  1.044510E+04 -1.665921E+05  6.790146E+03 -1.194465E+03
       292   4 -4.451106E+05 -7.607747E+04 -1.848445E+03 -1.849578E+05  1.304492E+03  2.211175E+02
       292   5 -4.503443E+05 -7.059423E+04 -3.247760E+03 -1.786848E+05  3.509483E+03 -6.980858E+02
       292   6 -4.451927E+05 -7.665221E+04 -6.041832E+03 -1.847429E+05  5.708129E+03 -1.600195E+03
       292   7 -4.543555E+05 -7.942121E+04 -4.246930E+03 -1.873492E+05  1.982567E+02 -1.936208E+02
       292   8 -4.880019E+05 -8.462689E+04 -1.268572E+04 -1.889551E+05  2.415465E+03 -1.108282E+03
       292   9 -5.112644E+05 -1.013761E+05 -2.252902E+04 -2.028918E+05  4.626241E+03 -2.005876E+03
       292  10 -4.358656E+05 -7.273372E+04  5.500267E+02 -1.825664E+05 -1.203241E-10 -1.036510E-10
       292  11 -4.126852E+05 -5.656146E+04  6.190078E+03 -1.684139E+05  1.144271E-10 -2.059810E-10
       292  12 -3.791165E+05 -5.192791E+04  1.044501E+04 -1.665921E+05 -2.327612E-10 -1.122784E-10
       292  13 -4.451106E+05 -7.607747E+04 -1.848448E+03 -1.849578E+05 -5.257900E-12  7.311745E-11
       292  14 -4.503443E+05 -7.059424E+04 -3.247784E+03 -1.786848E+05  8.490057E-11 -1.735539E-10
       292  15 -4.451927E+05 -7.665223E+04 -6.041898E+03 -1.847429E+05 -3.083177E-10  6.444253E-11
       292  16 -4.543555E+05 -7.942121E+04 -4.246930E+03 -1.873492E+05  1.780440E-10  1.138192E-10
       292  17 -4.880019E+05 -8.462689E+04 -1.268573E+04 -1.889551E+05 -2.107686E-10  3.745449E-11
       292  18 -5.112644E+05 -1.013761E+05 -2.252907E+04 -2.028917E+05  1.066617E-10  1.041915E-10
       292  19 -4.358656E+05 -7.273372E+04  5.500383E+02 -1.825664E+05 -2.410745E+03 -6.358621E+02
       292  20 -4.126852E+05 -5.656145E+04  6.190118E+03 -1.684139E+05 -4.603576E+03  2.878615E+02
       292  21 -3.791165E+05 -5.192790E+04  1.044510E+04 -1.665921E+05 -6.790146E+03  1.194465E+03
       292  22 -4.451106E+05 -7.607747E+04 -1.848445E+03 -1.849578E+05 -1.304492E+03 -2.211175E+02
       292  23 -4.503443E+05 -7.059423E+04 -3.247760E+03 -1.786848E+05 -3.509483E+03  6.980858E+02
       292  24 -4.451927E+05 -7.665221E+04 -6.041832E+03 -1.847429E+05 -5.708129E+03  1.600195E+03
       292  25 -4.543555E+05 -7.942121E+04 -4.246930E+03 -1.873492E+05 -1.982567E+02  1.936208E+02
       292  26 -4.880019E+05 -8.462689E+04 -1.268572E+04 -1.889551E+05 -2.415465E+03  1.108282E+03
       292  27 -5.112644E+05 -1.013761E+05 -2.252902E+04 -2.028918E+05 -4.626241E+03  2.005876E+03
       293   1 -3.512681E+05 -4.179833E+04  1.564420E+04 -1.608457E+05  8.353165E+03 -1.668739E+03
       293   2 -3.282066E+05 -2.396439E+04  1.651719E+04 -1.447429E+05  1.585548E+04 -5.422893E+02
       293   3 -2.984965E+05 -2.569011E+04  9.853145E+03 -1.390050E+05  2.323464E+04  9.146692E+02
       293   4 -4.456566E+05 -7.575780E+04 -7.878487E+03 -1.853142E+05  7.170804E+03 -2.112128E+03
       293   5 -4.495211E+05 -6.994892E+04 -1.404003E+04 -1.786340E+05  1.490906E+04 -8.973575E+02
       293   6 -4.467860E+05 -8.374833E+04 -2.792708E+04 -1.823195E+05  2.252382E+04  6.477780E+02
       293   7 -5.400367E+05 -1.097170E+05 -3.140197E+04 -2.097795E+05  5.988634E+03 -2.555452E+03
       293   8 -5.708215E+05 -1.159325E+05 -4.459850E+04 -2.125191E+05  1.396285E+04 -1.252348E+03
       293   9 -5.950539E+05 -1.418045E+05 -6.570910E+04 -2.256243E+05  2.181318E+04  3.809639E+02
       293  10 -3.512682E+05 -4.179835E+04  1.564406E+04 -1.608457E+05 -2.311915E-10  1.872801E-11
       293  11 -3.282069E+05 -2.396446E+04  1.651672E+04 -1.447429E+05  4.618754E-11 -7.700595E-11
       293  12 -2.984971E+05 -2.569025E+04  9.852129E+03 -1.390051E+05  8.270120E-11 -1.515367E-10
       293  13 -4.456566E+05 -7.575782E+04 -7.878592E+03 -1.853142E+05  5.085181E-11  2.374464E-11
       293  14 -4.495214E+05 -6.994898E+04 -1.404045E+04 -1.786340E+05 -1.621615E-10 -9.826980E-11
       293  15 -4.467865E+05 -8.374847E+04 -2.792804E+04 -1.823195E+05  1.644909E-10 -4.195869E-11
       293  16 -5.400368E+05 -1.097170E+05 -3.140205E+04 -2.097794E+05 -1.852237E-10 -4.842328E-11
       293  17 -5.708217E+05 -1.159325E+05 -4.459887E+04 -2.125191E+05 -2.858412E-10 -3.506220E-11
       293  18 -5.950544E+05 -1.418047E+05 -6.571000E+04 -2.256243E+05 -1.041744E-10 -1.057396E-10
       293  19 -3.512681E+05 -4.179833E+04  1.564420E+04 -1.608457E+05 -8.353165E+03  1.668739E+03
       293  20 -3.282066E+05 -2.396439E+04  1.651719E+04 -1.447429E+05 -1.585548E+04  5.422893E+02
       293  21 -2.984965E+05 -2.569011E+04  9.853145E+03 -1.390050E+05 -2.323464E+04 -9.146692E+02
       293  22 -4.456566E+05 -7.575780E+04 -7.878487E+03 -1.853142E+05 -7.170804E+03  2.112128E+03
       293  23 -4.495211E+05 -6.994892E+04 -1.404003E+04 -1.786340E+05 -1.490906E+04  8.973575E+02
       293  24 -4.467860E+05 -8.374833E+04 -2.792708E+04 -1.823195E+05 -2.252382E+04 -6.477780E+02
       293  25 -5.400367E+05 -1.097170E+05 -3.140197E+04 -2.097795E+05 -5.988634E+03  2.555452E+03
       293  26 -5.708215E+05 -1.159325E+05 -4.459850E+04 -2.125191E+05 -1.396285E+04  1.252348E+03
       293  27 -5.950539E+05 -1.418045E+05 -6.570910E+04 -2.256243E+05 -2.181318E+04 -3.809639E+02
       294   1 -2.627217E+05 -1.636056E+04  9.541565E+03 -1.537177E+05  3.051996E+04  1.753596E+03
       294   2 -2.451821E+05  2.413664E+04 -8.228825E+03 -1.106836E+05  5.846283E+04  1.164126E+04
       294   3 -2.631292E+05 -5.885456E+04 -7.757744E+04 -5.050358E+04  8.394017E+04  2.810395E+04
       294   4 -4.513413E+05 -7.150016E+04 -3.487244E+04 -1.895431E+05  2.777492E+04  7.244121E+02
       294   5 -4.406307E+05 -6.247920E+04 -6.003406E+04 -1.781556E+05  6.043265E+04  1.237869E+04
       294   6 -4.663588E+05 -1.779082E+05 -1.405241E+05 -1.496200E+05  9.062371E+04  3.060547E+04
       294   7 -6.399257E+05 -1.266402E+05 -7.928871E+04 -2.253601E+05  2.503079E+04 -3.045986E+02
       294   8 -6.360399E+05 -1.490873E+05 -1.118422E+05 -2.456064E+05  6.240178E+04  1.311575E+04
       294   9 -6.695410E+05 -2.969366E+05 -2.034735E+05 -2.487000E+05  9.730478E+04  3.310491E+04
       294  10 -2.627227E+05 -1.636081E+04  9.539808E+03 -1.537178E+05 -1.602784E-12 -9.033634E-11
       294  11 -2.451858E+05  2.413558E+04 -8.235506E+03 -1.106841E+05  3.143752E-10  1.687595E-11
       294  12 -2.631370E+05 -5.885730E+04 -7.759217E+04 -5.050548E+04 -1.214834E-10 -5.023859E-11
       294  13 -4.513421E+05 -7.150037E+04 -3.487390E+04 -1.895431E+05  2.645336E-10 -1.343379E-10
       294  14 -4.406346E+05 -6.248035E+04 -6.004122E+04 -1.781562E+05 -5.419304E-11 -6.752756E-11
       294  15 -4.663678E+05 -1.779114E+05 -1.405413E+05 -1.496222E+05  1.521714E-10  8.066702E-11
       294  16 -6.399263E+05 -1.266403E+05 -7.928989E+04 -2.253601E+05  3.112627E-10 -1.422435E-10
       294  17 -6.360442E+05 -1.490886E+05 -1.118498E+05 -2.456070E+05 -4.534965E-11 -9.793271E-11
       294  18 -6.695515E+05 -2.969403E+05 -2.034934E+05 -2.487026E+05 -6.043197E-11 -9.645451E-13
       294  19 -2.627217E+05 -1.636056E+04  9.541565E+03 -1.537177E+05 -3.051996E+04 -1.753596E+03
       294  20 -2.451821E+05  2.413664E+04 -8.228825E+03 -1.106836E+05 -5.846283E+04 -1.164126E+04
       294  21 -2.631292E+05 -5.885456E+04 -7.757744E+04 -5.050358E+04 -8.394017E+04 -2.810395E+04
       294  22 -4.513413E+05 -7.150016E+04 -3.487244E+04 -1.895431E+05 -2.777492E+04 -7.244121E+02
       294  23 -4.406307E+05 -6.247920E+04 -6.003406E+04 -1.781556E+05 -6.043265E+04 -1.237869E+04
       294  24 -4.663588E+05 -1.779082E+05 -1.405241E+05 -1.496200E+05 -9.062371E+04 -3.060547E+04
       294  25 -6.399257E+05 -1.266402E+05 -7.928871E+04 -2.253601E+05 -2.503079E+04  3.045986E+02
       294  26 -6.360399E+05 -1.490873E+05 -1.118422E+05 -2.456064E+05 -6.240178E+04 -1.311575E+04
       294  27 -6.695410E+05 -2.969366E+05 -2.034735E+05 -2.487000E+05 -9.730478E+04 -3.310491E+04
       295   1 -5.276048E+05 -1.317482E+05 -1.048714E+05 -1.184045E+04  5.659235E+04  1.140391E+04
       295   2 -4.487059E+05 -2.112743E+05 -1.369819E+05 -1.815133E+04  4.571814E+04  3.495361E+04
       295   3 -3.424522E+05 -1.886821E+05 -1.363990E+05 -6.897031E+04  3.485703E+04  3.454126E+04
       295   4  4.039878E+05  9.995798E+04  1.223508E+05 -5.422849E+04  8.395471E+04  1.141644E+04
       295   5  3.887659E+05 -5.396513E+03  5.492563E+04 -3.195364E+04  5.465334E+04  3.495222E+04
       295   6  4.040487E+05 -5.511209E+03  3.295133E+04 -5.418078E+04  2.536797E+04  3.453936E+04
       295   7  1.336377E+06  3.316073E+05  3.495137E+05 -9.668043E+04  1.113580E+05  1.142524E+04
       295   8  1.226888E+06  2.004332E+05  2.467875E+05 -4.577477E+04  6.360045E+04  3.495044E+04
       295   9  1.151068E+06  1.776221E+05  2.022661E+05 -3.937328E+04  1.586760E+04  3.453700E+04
       295  10 -5.276082E+05 -1.317492E+05 -1.048777E+05 -1.184097E+04 -7.341375E-10  9.701316E-11
       295  11 -4.487084E+05 -2.112761E+05 -1.369881E+05 -1.815262E+04 -4.914236E-11 -1.849508E-10
       295  12 -3.424538E+05 -1.886837E+05 -1.364035E+05 -6.897128E+04 -5.826302E-10 -9.684320E-11
       295  13  4.039802E+05  9.995595E+04  1.223373E+05 -5.422927E+04  1.039301E-10 -2.149224E-10
       295  14  3.887624E+05 -5.398627E+03  5.491773E+04 -3.195518E+04  2.957033E-10  2.158604E-11
       295  15  4.040477E+05 -5.512663E+03  3.294788E+04 -5.418149E+04 -1.822214E-10 -1.526860E-10
       295  16  1.336364E+06  3.316039E+05  3.494902E+05 -9.668145E+04  1.671663E-10  2.061668E-10
       295  17  1.226883E+06  2.004308E+05  2.467776E+05 -4.577656E+04 -5.130491E-10 -1.912693E-10
       295  18  1.151067E+06  1.776208E+05  2.022634E+05 -3.937372E+04  5.745573E-10 -7.218648E-11
       295  19 -5.276048E+05 -1.317482E+05 -1.048714E+05 -1.184045E+04 -5.659235E+04 -1.140391E+04
       295  20 -4.487059E+05 -2.112743E+05 -1.369819E+05 -1.815133E+04 -4.571814E+04 -3.495361E+04
       295  21 -3.424522E+05 -1.886821E+05 -1.363990E+05 -6.897031E+04 -3.485703E+04 -3.454126E+04
       295  22  4.039878E+05  9.995798E+04  1.223508E+05 -5.422849E+04 -8.395471E+04 -1.141644E+04
       295  23  3.887659E+05 -5.396513E+03  5.492563E+04 -3.195364E+04 -5.465334E+04 -3.495222E+04
       295  24  4.040487E+05 -5.511209E+03  3.295133E+04 -5.418078E+04 -2.536797E+04 -3.453936E+04
       295  25  1.336377E+06  3.316073E+05  3.495137E+05 -9.668043E+04 -1.113580E+05 -1.142524E+04
       295  26  1.226888E+06  2.004332E+05  2.467875E+05 -4.577477E+04 -6.360045E+04 -3.495044E+04
       295  27  1.151068E+06  1.776221E+05  2.022661E+05 -3.937328E+04 -1.586760E+04 -3.453700E+04
       296   1 -2.642536E+05 -1.557864E+05 -1.245226E+05 -5.186108E+04  2.269782E+04  2.914990E+04
       296   2 -1.739087E+05 -1.405329E+05 -1.156347E+05 -3.104903E+04  1.646335E+04  2.577113E+04
       296   3 -8.077272E+04 -1.179024E+05 -1.008136E+05 -5.530223E+04  1.022397E+04  2.127540E+04
       296   4  3.979450E+05  6.841226E+03  2.644074E+04 -5.431570E+04  2.054613E+04  2.914803E+04
       296   5  3.964964E+05 -5.226873E+02  1.406282E+04 -3.178566E+04  1.344703E+04  2.577062E+04
       296   6  3.979762E+05 -3.635671E+02  8.213240E+03 -5.431804E+04  6.343916E+03  2.127672E+04
       296   7  1.060550E+06  1.694385E+05  1.773756E+05 -5.677293E+04  1.839216E+04  2.914617E+04
       296   8  9.672034E+05  1.394651E+05  1.437393E+05 -3.252294E+04  1.042796E+04  2.577013E+04
       296   9  8.769376E+05  1.171594E+05  1.172252E+05 -5.333304E+04  2.460897E+03  2.127804E+04
       296  10 -2.642544E+05 -1.557874E+05 -1.245252E+05 -5.186161E+04 -5.497360E-10 -2.749205E-11
       296  11 -1.739092E+05 -1.405337E+05 -1.156365E+05 -3.104937E+04  3.288907E-10 -2.404154E-11
       296  12 -8.077295E+04 -1.179029E+05 -1.008146E+05 -5.530240E+04 -2.138283E-10  1.940114E-10
       296  13  3.979443E+05  6.840200E+03  2.643835E+04 -5.431618E+04 -4.106160E-10 -3.907987E-11
       296  14  3.964960E+05 -5.234491E+02  1.406123E+04 -3.178594E+04  7.683305E-10 -3.349777E-10
       296  15  3.979760E+05 -3.640642E+02  8.212313E+03 -5.431815E+04  9.399202E-11  1.024679E-10
       296  16  1.060550E+06  1.694375E+05  1.773733E+05 -5.677336E+04  4.618499E-10 -6.084430E-11
       296  17  9.672031E+05  1.394643E+05  1.437378E+05 -3.252316E+04 -7.773482E-10  3.754164E-11
       296  18  8.769375E+05  1.171589E+05  1.172244E+05 -5.333308E+04  2.990141E-11 -1.354469E-10
       296  19 -2.642536E+05 -1.557864E+05 -1.245226E+05 -5.186108E+04 -2.269782E+04 -2.914990E+04
       296  20 -1.739087E+05 -1.405329E+05 -1.156347E+05 -3.104903E+04 -1.646335E+04 -2.577113E+04
       296  21 -8.077272E+04 -1.179024E+05 -1.008136E+05 -5.530223E+04 -1.022397E+04 -2.127540E+04
       296  22  3.979450E+05  6.841226E+03  2.644074E+04 -5.431570E+04 -2.054613E+04 -2.914803E+04
       296  23  3.964964E+05 -5.226873E+02  1.406282E+04 -3.178566E+04 -1.344703E+04 -2.577062E+04
       296  24  3.979762E+05 -3.635671E+02  8.213240E+03 -5.431804E+04 -6.343916E+03 -2.127672E+04
       296  25  1.060550E+06  1.694385E+05  1.773756E+05 -5.677293E+04 -1.839216E+04 -2.914617E+04
       296  26  9.672034E+05  1.394651E+05  1.437393E+05 -3.252294E+04 -1.042796E+04 -2.577013E+04
       296  27  8.769376E+05  1.171594E+05  1.172252E+05 -5.333304E+04 -2.460897E+03 -2.127804E+04
       297   1  2.172480E+03 -9.647001E+04 -8.323630E+04 -5.407212E+04  8.592050E+03  1.842050E+04
       297   2  9.338006E+04 -7.459775E+04 -6.543304E+04 -3.170099E+04  6.831648E+03  1.379660E+04
       297   3  1.849334E+05 -5.213148E+04 -4.634486E+04 -5.424955E+04  5.068845E+03  9.124335E+03
       297   4  3.974192E+05  4.789134E+02  6.341384E+03 -5.428511E+04  5.060426E+03  1.842226E+04
       297   5  3.972550E+05 -2.892938E+01  3.614605E+03 -3.182613E+04  3.261594E+03  1.379911E+04
       297   6  3.974349E+05  6.412810E+01  2.199029E+03 -5.428549E+04  1.460616E+03  9.127634E+03
       297   7  7.928110E+05  9.741708E+04  9.590903E+04 -5.449820E+04  1.526574E+03  1.842403E+04
       297   8  7.012155E+05  7.453352E+04  7.265632E+04 -3.195131E+04 -3.101905E+02  1.380162E+04
       297   9  6.099782E+05  5.225661E+04  5.074001E+04 -5.432143E+04 -2.148836E+03  9.130932E+03
       297  10  2.172309E+03 -9.647040E+04 -8.323707E+04 -5.407225E+04  5.498392E-10 -1.127809E-10
       297  11  9.337996E+04 -7.459796E+04 -6.543349E+04 -3.170106E+04  7.989297E-10  5.341943E-11
       297  12  1.849333E+05 -5.213158E+04 -4.634506E+04 -5.424959E+04 -1.444532E-10 -2.828946E-10
       297  13  3.974191E+05  4.785420E+02  6.340698E+03 -5.428518E+04 -6.409879E-10 -4.775983E-11
       297  14  3.972549E+05 -2.913675E+01  3.614227E+03 -3.182617E+04 -3.859100E-11  4.332397E-10
       297  15  3.974348E+05  6.403805E+01  2.198869E+03 -5.428550E+04 -2.556708E-10  8.196533E-10
       297  16  7.928109E+05  9.741672E+04  9.590839E+04 -5.449822E+04 -9.614293E-10 -3.046414E-10
       297  17  7.012155E+05  7.453331E+04  7.265596E+04 -3.195131E+04 -2.228327E-10 -5.486004E-10
       297  18  6.099782E+05  5.225652E+04  5.073985E+04 -5.432142E+04  4.592394E-11 -1.471359E-10
       297  19  2.172480E+03 -9.647001E+04 -8.323630E+04 -5.407212E+04 -8.592050E+03 -1.842050E+04
       297  20  9.338006E+04 -7.459775E+04 -6.543304E+04 -3.170099E+04 -6.831648E+03 -1.379660E+04
       297  21  1.849334E+05 -5.213148E+04 -4.634486E+04 -5.424955E+04 -5.068845E+03 -9.124335E+03
       297  22  3.974192E+05  4.789134E+02  6.341384E+03 -5.428511E+04 -5.060426E+03 -1.842226E+04
       297  23  3.972550E+05 -2.892938E+01  3.614605E+03 -3.182613E+04 -3.261594E+03 -1.379911E+04
       297  24  3.974349E+05  6.412810E+01  2.199029E+03 -5.428549E+04 -1.460616E+03 -9.127634E+03
       297  25  7.928110E+05  9.741708E+04  9.590903E+04 -5.449820E+04 -1.526574E+03 -1.842403E+04
       297  26  7.012155E+05  7.453352E+04  7.265632E+04 -3.195131E+04  3.101905E+02 -1.380162E+04
       297  27  6.099782E+05  5.225661E+04  5.074001E+04 -5.432143E+04  2.148836E+03 -9.130932E+03
       298   1  2.681336E+05 -3.154060E+04 -2.733263E+04 -5.421068E+04  4.691034E+03  6.395575E+03
       298   2  3.593784E+05 -9.272379E+03 -7.368610E+03 -3.183281E+04  4.064821E+03  1.721565E+03
       298   3  4.506369E+05  1.311454E+04  1.300764E+04 -5.430395E+04  3.438262E+03 -2.954299E+03
       298   4  3.973669E+05  1.158943E+02  1.763651E+03 -5.426992E+04  1.100396E+03  6.399121E+03
       298   5  3.973641E+05  4.748152E+01  1.260953E+03 -3.184552E+04  4.724486E+02  1.725189E+03
       298   6  3.973688E+05  9.891273E+01  1.172315E+03 -5.426995E+04 -1.557560E+02 -2.950565E+03
       298   7  5.266157E+05  3.177125E+04  3.085891E+04 -5.432917E+04 -2.490982E+03  6.402667E+03
       298   8  4.353512E+05  9.367250E+03  9.890471E+03 -3.185823E+04 -3.120142E+03  1.728813E+03
       298   9  3.441035E+05 -1.291690E+04 -1.066314E+04 -5.423595E+04 -3.749469E+03 -2.946832E+03
       298  10  2.681336E+05 -3.154065E+04 -2.733274E+04 -5.421071E+04  7.604368E-10  3.025688E-11
       298  11  3.593784E+05 -9.272387E+03 -7.368647E+03 -3.183282E+04  7.844984E-10 -6.262077E-11
       298  12  4.506369E+05  1.311452E+04  1.300760E+04 -5.430394E+04  2.037223E-10 -6.000954E-11
       298  13  3.973669E+05  1.158500E+02  1.763572E+03 -5.426993E+04 -7.032960E-10 -6.288464E-10
       298  14  3.973641E+05  4.747826E+01  1.260947E+03 -3.184552E+04 -3.599444E-10  1.399083E-10
       298  15  3.973688E+05  9.890337E+01  1.172298E+03 -5.426995E+04  3.963043E-10 -5.638802E-10
       298  16  5.266157E+05  3.177120E+04  3.085882E+04 -5.432916E+04 -3.279354E-10  2.963127E-10
       298  17  4.353512E+05  9.367244E+03  9.890447E+03 -3.185822E+04 -6.860662E-10 -6.893294E-11
       298  18  3.441035E+05 -1.291691E+04 -1.066318E+04 -5.423596E+04 -4.960021E-10 -9.007817E-10
       298  19  2.681336E+05 -3.154060E+04 -2.733263E+04 -5.421068E+04 -4.691034E+03 -6.395575E+03
       298  20  3.593784E+05 -9.272379E+03 -7.368610E+03 -3.183281E+04 -4.064821E+03 -1.721565E+03
       298  21  4.506369E+05  1.311454E+04  1.300764E+04 -5.430395E+04 -3.438262E+03  2.954299E+03
       298  22  3.973669E+05  1.158943E+02  1.763651E+03 -5.426992E+04 -1.100396E+03 -6.399121E+03
       298  23  3.973641E+05  4.748152E+01  1.260953E+03 -3.184552E+04 -4.724486E+02 -1.725189E+03
       298  24  3.973688E+05  9.891273E+01  1.172315E+03 -5.426995E+04  1.557560E+02  2.950565E+03
       298  25  5.266157E+05  3.177125E+04  3.085891E+04 -5.432917E+04  2.490982E+03 -6.402667E+03
       298  26  4.353512E+05  9.367250E+03  9.890471E+03 -3.185823E+04  3.120142E+03 -1.728813E+03
       298  27  3.441035E+05 -1.291690E+04 -1.066314E+04 -5.423595E+04  3.749469E+03  2.946832E+03
       299   1  5.339092E+05  3.364486E+04  3.254167E+04 -5.436461E+04  3.215546E+03 -5.676571E+03
       299   2  6.252129E+05  5.592569E+04  5.350553E+04 -3.194152E+04  2.347722E+03 -1.035428E+04
       299   3  7.166050E+05  7.834714E+04  7.505196E+04 -5.440376E+04  1.481351E+03 -1.503254E+04
       299   4  3.973810E+05  9.799578E+01  1.264195E+03 -5.427829E+04 -3.798461E+02 -5.672983E+03
       299   5  3.973356E+05  2.459392E+01  1.745376E+03 -3.183510E+04 -1.248083E+03 -1.035126E+04
       299   6  3.973695E+05  9.210804E+01  2.809589E+03 -5.427826E+04 -2.114742E+03 -1.503006E+04
       299   7  2.608701E+05 -3.345016E+04 -3.001446E+04 -5.419198E+04 -3.974455E+03 -5.669396E+03
       299   8  1.695064E+05 -5.588008E+04 -5.001810E+04 -3.172871E+04 -4.842581E+03 -1.034824E+04
       299   9  7.822853E+04 -7.816993E+04 -6.943929E+04 -5.415280E+04 -5.709006E+03 -1.502758E+04
       299  10  5.339092E+05  3.364482E+04  3.254159E+04 -5.436459E+04  1.351874E-11  6.071352E-10
       299  11  6.252129E+05  5.592558E+04  5.350532E+04 -3.194150E+04  2.404316E-10  1.089695E-09
       299  12  7.166050E+05  7.834690E+04  7.505153E+04 -5.440375E+04  4.621315E-10 -5.394921E-10
       299  13  3.973810E+05  9.796117E+01  1.264134E+03 -5.427829E+04 -7.540094E-10 -3.213287E-11
       299  14  3.973355E+05  2.447842E+01  1.745171E+03 -3.183511E+04 -2.068349E-10 -6.731599E-10
       299  15  3.973694E+05  9.186421E+01  2.809156E+03 -5.427828E+04 -3.934973E-10  2.112926E-10
       299  16  2.608701E+05 -3.345020E+04 -3.001455E+04 -5.419200E+04 -2.824830E-10 -2.500003E-10
       299  17  1.695063E+05 -5.588020E+04 -5.001834E+04 -3.172875E+04 -1.585461E-10 -3.085763E-10
       299  18  7.822844E+04 -7.817018E+04 -6.943978E+04 -5.415286E+04 -3.457624E-10  4.036060E-10
       299  19  5.339092E+05  3.364486E+04  3.254167E+04 -5.436461E+04 -3.215546E+03  5.676571E+03
       299  20  6.252129E+05  5.592569E+04  5.350553E+04 -3.194152E+04 -2.347722E+03  1.035428E+04
       299  21  7.166050E+05  7.834714E+04  7.505196E+04 -5.440376E+04 -1.481351E+03  1.503254E+04
       299  22  3.973810E+05  9.799578E+01  1.264195E+03 -5.427829E+04  3.798461E+02  5.672983E+03
       299  23  3.973356E+05  2.459392E+01  1.745376E+03 -3.183510E+04  1.248083E+03  1.035126E+04
       299  24  3.973695E+05  9.210804E+01  2.809589E+03 -5.427826E+04  2.114742E+03  1.503006E+04
       299  25  2.608701E+05 -3.345016E+04 -3.001446E+04 -5.419198E+04  3.974455E+03  5.669396E+03
       299  26  1.695064E+05 -5.588008E+04 -5.001810E+04 -3.172871E+04  4.842581E+03  1.034824E+04
       299  27  7.822853E+04 -7.816993E+04 -6.943929E+04 -5.415280E+04  5.709006E+03  1.502758E+04
       300   1  8.001858E+05  9.882985E+04  9.534996E+04 -5.432440E+04  9.220091E+02 -1.776644E+04
       300   2  8.914908E+05  1.211313E+05  1.184442E+05 -3.187766E+04 -2.192629E+03 -2.244573E+04
       300   3  9.835212E+05  1.444184E+05  1.438227E+05 -5.446487E+04 -5.304259E+03 -2.706953E+04
       300   4  3.974953E+05  3.090727E+00  3.629516E+03 -5.431169E+04 -2.697207E+03 -1.776451E+04
       300   5  3.971272E+05 -1.232542E+02  6.168808E+03 -3.179340E+04 -5.767223E+03 -2.244503E+04
       300   6  3.974697E+05  7.294212E+02  1.096315E+04 -5.431125E+04 -8.833782E+03 -2.707003E+04
       300   7 -5.044962E+03 -9.883488E+04 -8.810143E+04 -5.429894E+04 -6.314098E+03 -1.776257E+04
       300   8 -9.700982E+04 -1.213947E+05 -1.061224E+05 -3.170917E+04 -9.338999E+03 -2.244434E+04
       300   9 -1.882633E+05 -1.429832E+05 -1.219185E+05 -5.415774E+04 -1.236001E+04 -2.707053E+04
       300  10  8.001857E+05  9.882951E+04  9.534936E+04 -5.432439E+04  9.213326E-10 -6.670326E-10
       300  11  8.914907E+05  1.211308E+05  1.184433E+05 -3.187770E+04 -6.081170E-10  6.475566E-11
       300  12  9.835210E+05  1.444176E+05  1.438213E+05 -5.446498E+04 -8.527790E-10  2.278029E-11
       300  13  3.974952E+05  2.749832E+00  3.628909E+03 -5.431173E+04 -6.752877E-10  3.094790E-10
       300  14  3.971270E+05 -1.238042E+02  6.167799E+03 -3.179350E+04 -3.421092E-10 -6.296756E-10
       300  15  3.974694E+05  7.286132E+02  1.096163E+04 -5.431144E+04 -5.709584E-10 -2.658705E-10
       300  16 -5.045089E+03 -9.883523E+04 -8.810210E+04 -5.429903E+04 -4.424849E-10  2.817889E-10
       300  17 -9.701005E+04 -1.213952E+05 -1.061235E+05 -3.170934E+04 -2.898784E-10  4.909804E-10
       300  18 -1.882636E+05 -1.429840E+05 -1.219202E+05 -5.415801E+04  4.020079E-10  1.258831E-10
       300  19  8.001858E+05  9.882985E+04  9.534996E+04 -5.432440E+04 -9.220091E+02  1.776644E+04
       300  20  8.914908E+05  1.211313E+05  1.184442E+05 -3.187766E+04  2.192629E+03  2.244573E+04
       300  21  9.835212E+05  1.444184E+05  1.438227E+05 -5.446487E+04  5.304259E+03  2.706953E+04
       300  22  3.974953E+05  3.090727E+00  3.629516E+03 -5.431169E+04  2.697207E+03  1.776451E+04
       300  23  3.971272E+05 -1.232542E+02  6.168808E+03 -3.179340E+04  5.767223E+03  2.244503E+04
       300  24  3.974697E+05  7.294212E+02  1.096315E+04 -5.431125E+04  8.833782E+03  2.707003E+04
       300  25 -5.044962E+03 -9.883488E+04 -8.810143E+04 -5.429894E+04  6.314098E+03  1.776257E+04
       300  26 -9.700982E+04 -1.213947E+05 -1.061224E+05 -3.170917E+04  9.338999E+03  2.244434E+04
       300  27 -1.882633E+05 -1.429832E+05 -1.219185E+05 -5.415774E+04  1.236001E+04  2.707053E+04
       301   1  1.068365E+06  1.636083E+05  1.665908E+05 -5.236171E+04 -7.103953E+03 -2.995822E+04
       301   2  1.157914E+06  1.859457E+05  1.975566E+05 -3.267381E+04 -2.047694E+04 -3.443404E+04
       301   3  1.252805E+06  2.214741E+05  2.405789E+05 -5.824012E+04 -3.384734E+04 -3.757620E+04
       301   4  3.984342E+05 -7.353178E+02  1.423148E+04 -5.436006E+04 -1.105231E+04 -2.995958E+04
       301   5  3.958314E+05 -9.598055E+02  2.442627E+04 -3.173258E+04 -2.338601E+04 -3.443732E+04
       301   6  3.983917E+05  1.183702E+04  4.596790E+04 -5.436236E+04 -3.571518E+04 -3.758075E+04
       301   7 -2.710809E+05 -1.651099E+05 -1.381569E+05 -5.635619E+04 -1.499645E+04 -2.996092E+04
       301   8 -3.657128E+05 -1.879054E+05 -1.487417E+05 -3.079252E+04 -2.629153E+04 -3.444062E+04
       301   9 -4.553455E+05 -1.978505E+05 -1.486906E+05 -5.049001E+04 -3.758044E+04 -3.758533E+04
       301  10  1.068365E+06  1.636073E+05  1.665890E+05 -5.236188E+04 -2.640465E-10  2.372400E-10
       301  11  1.157913E+06  1.859443E+05  1.975536E+05 -3.267438E+04  2.812858E-10  2.061855E-10
       301  12  1.252803E+06  2.214723E+05  2.405741E+05 -5.824114E+04 -5.472677E-10 -5.547772E-11
       301  13  3.984338E+05 -7.363146E+02  1.422957E+04 -5.436033E+04 -6.266682E-10  9.460853E-11
       301  14  3.958305E+05 -9.612260E+02  2.442301E+04 -3.173323E+04 -7.316893E-10 -3.930925E-10
       301  15  3.983899E+05  1.183516E+04  4.596285E+04 -5.436344E+04  1.586183E-11 -1.252353E-10
       301  16 -2.710814E+05 -1.651110E+05 -1.381590E+05 -5.635656E+04 -6.305141E-10  1.354750E-10
       301  17 -3.657139E+05 -1.879069E+05 -1.487452E+05 -3.079325E+04 -8.805983E-10 -9.803842E-11
       301  18 -4.553474E+05 -1.978524E+05 -1.486959E+05 -5.049115E+04 -2.575685E-10 -1.713116E-10
       301  19  1.068365E+06  1.636083E+05  1.665908E+05 -5.236171E+04  7.103953E+03  2.995822E+04
       301  20  1.157914E+06  1.859457E+05  1.975566E+05 -3.267381E+04  2.047694E+04  3.443404E+04
       301  21  1.252805E+06  2.214741E+05  2.405789E+05 -5.824012E+04  3.384734E+04  3.757620E+04
       301  22  3.984342E+05 -7.353178E+02  1.423148E+04 -5.436006E+04  1.105231E+04  2.995958E+04
       301  23  3.958314E+05 -9.598055E+02  2.442627E+04 -3.173258E+04  2.338601E+04  3.443732E+04
       301  24  3.983917E+05  1.183702E+04  4.596790E+04 -5.436236E+04  3.571518E+04  3.758075E+04
       301  25 -2.710809E+05 -1.651099E+05 -1.381569E+05 -5.635619E+04  1.499645E+04  2.996092E+04
       301  26 -3.657128E+05 -1.879054E+05 -1.487417E+05 -3.079252E+04  2.629153E+04  3.444062E+04
       301  27 -4.553455E+05 -1.978505E+05 -1.486906E+05 -5.049001E+04  3.758044E+04  3.758533E+04
       302   1  1.348303E+06  2.206407E+05  2.701341E+05 -2.800782E+04 -3.342342E+04 -4.350915E+04
       302   2  1.413270E+06  2.436930E+05  3.314213E+05 -5.554884E+04 -1.064868E+05 -4.315017E+04
       302   3  1.534991E+06  4.533594E+05  4.869902E+05 -1.278311E+05 -1.796057E+05 -1.411419E+04
       302   4  4.089918E+05 -9.639021E+03  5.728996E+04 -5.418900E+04 -4.409374E+04 -4.351864E+04
       302   5  3.824531E+05 -9.377201E+03  9.553141E+04 -3.192767E+04 -9.502434E+04 -4.314776E+04
       302   6  4.089094E+05  1.738184E+05  2.127920E+05 -5.440097E+04 -1.459964E+05 -1.409034E+04
       302   7 -5.294994E+05 -2.399769E+05 -1.556103E+05 -8.033035E+04 -5.474806E+04 -4.352724E+04
       302   8 -6.473793E+05 -2.625190E+05 -1.404274E+05 -8.346205E+03 -8.358057E+04 -4.314448E+04
       302   9 -7.160036E+05 -1.057948E+05 -6.149107E+04  1.889557E+04 -1.124476E+05 -1.405855E+04
       302  10  1.348301E+06  2.206384E+05  2.701285E+05 -2.800899E+04 -1.631078E-10  2.230051E-10
       302  11  1.413257E+06  2.436880E+05  3.313965E+05 -5.555253E+04 -9.248680E-10  1.500473E-10
       302  12  1.534957E+06  4.533506E+05  4.869293E+05 -1.278331E+05 -1.066156E-10 -3.111933E-10
       302  13  4.089892E+05 -9.641577E+03  5.728275E+04 -5.419054E+04  5.146315E-10  7.825768E-10
       302  14  3.824429E+05 -9.381622E+03  9.551095E+04 -3.193097E+04 -2.295245E-10  1.739153E-09
       302  15  4.088865E+05  1.738125E+05  2.127515E+05 -5.440263E+04 -2.522099E-10 -8.814209E-11
       302  16 -5.295031E+05 -2.399797E+05 -1.556195E+05 -8.033227E+04 -3.776685E-10  2.012190E-10
       302  17 -6.473873E+05 -2.625229E+05 -1.404440E+05 -8.349110E+03 -3.155586E-10  2.051118E-10
       302  18 -7.160172E+05 -1.057984E+05 -6.151523E+04  1.889429E+04  4.985715E-11 -5.111964E-10
       302  19  1.348303E+06  2.206407E+05  2.701341E+05 -2.800782E+04  3.342342E+04  4.350915E+04
       302  20  1.413270E+06  2.436930E+05  3.314213E+05 -5.554884E+04  1.064868E+05  4.315017E+04
       302  21  1.534991E+06  4.533594E+05  4.869902E+05 -1.278311E+05  1.796057E+05  1.411419E+04
       302  22  4.089918E+05 -9.639021E+03  5.728996E+04 -5.418900E+04  4.409374E+04  4.351864E+04
       302  23  3.824531E+05 -9.377201E+03  9.553141E+04 -3.192767E+04  9.502434E+04  4.314776E+04
       302  24  4.089094E+05  1.738184E+05  2.127920E+05 -5.440097E+04  1.459964E+05  1.409034E+04
       302  25 -5.294994E+05 -2.399769E+05 -1.556103E+05 -8.033035E+04  5.474806E+04  4.352724E+04
       302  26 -6.473793E+05 -2.625190E+05 -1.404274E+05 -8.346205E+03  8.358057E+04  4.314448E+04
       302  27 -7.160036E+05 -1.057948E+05 -6.149107E+04  1.889557E+04  1.124476E+05  1.405855E+04
       303   1  2.289962E+05  8.555848E+05  2.406922E+05 -1.496477E+05  6.644486E+03  7.077226E+04
       303   2  1.070079E+05  6.395231E+05  1.393735E+05 -8.064888E+04  1.793960E+04  3.731883E+04
       303   3  5.684371E+04  4.456235E+05  7.773182E+04 -1.115491E+05  1.087985E+04  3.855767E+03
       303   4  6.599302E+04  2.007696E+05  8.044170E+04 -1.209301E+05  6.665620E+03  5.503151E+04
       303   5 -3.312071E+03  1.909480E+05  3.627373E+04 -7.102059E+04  1.794307E+04  3.570794E+04
       303   6 -3.210490E+03  2.008256E+05  2.200499E+04 -1.210083E+05  1.086177E+04  1.636358E+04
       303   7 -9.703875E+04 -4.536531E+05 -7.983877E+04 -9.224267E+04  6.685314E+03  3.930728E+04
       303   8 -1.136458E+05 -2.574409E+05 -6.683929E+04 -6.139924E+04  1.794648E+04  3.409821E+04
       303   9 -6.326841E+04 -4.391620E+04 -3.372510E+04 -1.304637E+05  1.084331E+04  2.886650E+04
       303  10  2.289949E+05  8.555794E+05  2.406827E+05 -1.496481E+05 -1.416392E-10 -5.069653E-11
       303  11  1.070072E+05  6.395216E+05  1.393703E+05 -8.064942E+04 -1.007375E-09  3.176925E-10
       303  12  5.684358E+04  4.456234E+05  7.773157E+04 -1.115491E+05  5.711187E-10  2.270409E-10
       303  13  6.599216E+04  2.007664E+05  8.043593E+04 -1.209304E+05  6.420631E-10  4.792955E-10
       303  14 -3.312759E+03  1.909465E+05  3.627073E+04 -7.102111E+04 -1.105690E-09 -2.567849E-10
       303  15 -3.210689E+03  2.008253E+05  2.200426E+04 -1.210084E+05  3.904298E-10  4.166680E-10
       303  16 -9.703921E+04 -4.536548E+05 -7.984176E+04 -9.224288E+04  2.706451E-10  4.855237E-11
       303  17 -1.136464E+05 -2.574422E+05 -6.684208E+04 -6.139973E+04 -3.182528E-10 -9.002675E-10
       303  18 -6.326876E+04 -4.391712E+04 -3.372689E+04 -1.304639E+05 -4.523799E-10  8.804302E-12
       303  19  2.289962E+05  8.555848E+05  2.406922E+05 -1.496477E+05 -6.644486E+03 -7.077226E+04
       303  20  1.070079E+05  6.395231E+05  1.393735E+05 -8.064888E+04 -1.793960E+04 -3.731883E+04
       303  21  5.684371E+04  4.456235E+05  7.773182E+04 -1.115491E+05 -1.087985E+04 -3.855767E+03
       303  22  6.599302E+04  2.007696E+05  8.044170E+04 -1.209301E+05 -6.665620E+03 -5.503151E+04
       303  23 -3.312071E+03  1.909480E+05  3.627373E+04 -7.102059E+04 -1.794307E+04 -3.570794E+04
       303  24 -3.210490E+03  2.008256E+05  2.200499E+04 -1.210083E+05 -1.086177E+04 -1.636358E+04
       303  25 -9.703875E+04 -4.536531E+05 -7.983877E+04 -9.224267E+04 -6.685314E+03 -3.930728E+04
       303  26 -1.136458E+05 -2.574409E+05 -6.683929E+04 -6.139924E+04 -1.794648E+04 -3.409821E+04
       303  27 -6.326841E+04 -4.391620E+04 -3.372510E+04 -1.304637E+05 -1.084331E+04 -2.886650E+04
       304   1  1.899626E+04  2.544732E+05  3.093867E+04 -1.228260E+05  2.604479E+03  5.871844E+03
       304   2 -3.626177E+04  4.886405E+04 -2.338500E+04 -7.105084E+04 -6.642163E+03  1.038087E+03
       304   3 -8.591333E+04 -1.549735E+05 -7.323586E+04 -1.198247E+05 -1.555006E+04 -3.791576E+03
       304   4  4.850780E+03  1.968555E+05  1.784382E+04 -1.211271E+05  2.593656E+03  1.311075E+04
       304   5 -1.580028E+02  1.959582E+05  1.006317E+04 -7.085663E+04 -6.651828E+03  8.016340E+03
       304   6  4.876155E+02  1.968398E+05  6.939554E+03 -1.211332E+05 -1.555873E+04  2.924481E+03
       304   7 -9.294894E+03  1.392411E+05  4.748956E+03 -1.194284E+05  2.582872E+03  2.034898E+04
       304   8  3.594430E+04  3.430726E+05  4.351011E+04 -7.066237E+04 -6.661488E+03  1.499623E+04
       304   9  8.688001E+04  5.487680E+05  8.710708E+04 -1.224424E+05 -1.556742E+04  9.644311E+03
       304  10  1.899625E+04  2.544731E+05  3.093859E+04 -1.228260E+05  4.574499E-11 -8.833734E-10
       304  11 -3.626182E+04  4.886404E+04 -2.338508E+04 -7.105083E+04 -2.082884E-10  3.520647E-11
       304  12 -8.591359E+04 -1.549736E+05 -7.323634E+04 -1.198248E+05 -7.920461E-10  4.284753E-10
       304  13  4.850727E+03  1.968553E+05  1.784349E+04 -1.211271E+05 -5.070845E-11  6.513823E-10
       304  14 -1.580675E+02  1.959582E+05  1.006297E+04 -7.085659E+04  4.146295E-10 -3.305926E-10
       304  15  4.873533E+02  1.968397E+05  6.939083E+03 -1.211332E+05  8.430522E-10  3.920253E-10
       304  16 -9.295012E+03  1.392406E+05  4.748166E+03 -1.194284E+05 -3.179318E-10  8.085354E-10
       304  17  3.594419E+04  3.430724E+05  4.350961E+04 -7.066229E+04 -1.034311E-09 -7.112913E-10
       304  18  8.687973E+04  5.487678E+05  8.710645E+04 -1.224423E+05 -5.121665E-10 -1.055807E-10
       304  19  1.899626E+04  2.544732E+05  3.093867E+04 -1.228260E+05 -2.604479E+03 -5.871844E+03
       304  20 -3.626177E+04  4.886405E+04 -2.338500E+04 -7.105084E+04  6.642163E+03 -1.038087E+03
       304  21 -8.591333E+04 -1.549735E+05 -7.323586E+04 -1.198247E+05  1.555006E+04  3.791576E+03
       304  22  4.850780E+03  1.968555E+05  1.784382E+04 -1.211271E+05 -2.593656E+03 -1.311075E+04
       304  23 -1.580028E+02  1.959582E+05  1.006317E+04 -7.085663E+04  6.651828E+03 -8.016340E+03
       304  24  4.876155E+02  1.968398E+05  6.939554E+03 -1.211332E+05  1.555873E+04 -2.924481E+03
       304  25 -9.294894E+03  1.392411E+05  4.748956E+03 -1.194284E+05 -2.582872E+03 -2.034898E+04
       304  26  3.594430E+04  3.430726E+05  4.351011E+04 -7.066237E+04  6.661488E+03 -1.499623E+04
       304  27  8.688001E+04  5.487680E+05  8.710708E+04 -1.224424E+05  1.556742E+04 -9.644311E+03
       305   1 -1.321421E+05 -3.421037E+05 -1.163864E+05 -1.214639E+05 -2.457864E+04 -1.251916E+04
       305   2 -1.829881E+05 -5.467007E+05 -1.649382E+05 -6.955958E+04 -3.041543E+04  4.294587E+03
       305   3 -2.293460E+05 -7.522472E+05 -2.233113E+05 -1.173805E+05 -1.060042E+04  2.112108E+04
       305   4  1.722221E+02  1.969440E+05  6.091377E+03 -1.209490E+05 -2.459548E+04  1.791054E+03
       305   5 -3.861274E+02  1.956888E+05  5.496231E+03 -7.108760E+04 -3.040781E+04 -1.083335E+03
       305   6  6.961426E+03  1.968607E+05  8.756280E+03 -1.209437E+05 -1.058210E+04 -3.939082E+03
       305   7  1.324666E+05  7.362620E+05  1.285511E+05 -1.204335E+05 -2.461229E+04  1.611358E+04
       305   8  1.821774E+05  9.385888E+05  1.758944E+05 -7.261731E+04 -3.040017E+04 -6.467638E+03
       305   9  2.432026E+05  1.146791E+06  2.407605E+05 -1.245121E+05 -1.056351E+04 -2.903750E+04
       305  10 -1.321428E+05 -3.421041E+05 -1.163878E+05 -1.214641E+05  1.682020E-10 -2.320388E-10
       305  11 -1.829891E+05 -5.467009E+05 -1.649400E+05 -6.955947E+04  2.920194E-10  2.469306E-10
       305  12 -2.293462E+05 -7.522477E+05 -2.233124E+05 -1.173803E+05 -6.690633E-11  2.032002E-10
       305  13  1.715716E+02  1.969439E+05  6.090234E+03 -1.209489E+05 -7.532273E-10  6.137841E-10
       305  14 -3.871207E+02  1.956885E+05  5.494491E+03 -7.108762E+04  2.887543E-10 -3.086021E-10
       305  15  6.961301E+03  1.968607E+05  8.756040E+03 -1.209437E+05 -5.345994E-11  2.309169E-10
       305  16  1.324659E+05  7.362615E+05  1.285495E+05 -1.204331E+05  4.462467E-10  1.957672E-10
       305  17  1.821764E+05  9.385885E+05  1.758926E+05 -7.261747E+04 -1.326087E-11 -7.629362E-10
       305  18  2.432022E+05  1.146791E+06  2.407587E+05 -1.245123E+05 -2.563833E-10  4.091799E-11
       305  19 -1.321421E+05 -3.421037E+05 -1.163864E+05 -1.214639E+05  2.457864E+04  1.251916E+04
       305  20 -1.829881E+05 -5.467007E+05 -1.649382E+05 -6.955958E+04  3.041543E+04 -4.294587E+03
       305  21 -2.293460E+05 -7.522472E+05 -2.233113E+05 -1.173805E+05  1.060042E+04 -2.112108E+04
       305  22  1.722221E+02  1.969440E+05  6.091377E+03 -1.209490E+05  2.459548E+04 -1.791054E+03
       305  23 -3.861274E+02  1.956888E+05  5.496231E+03 -7.108760E+04  3.040781E+04  1.083335E+03
       305  24  6.961426E+03  1.968607E+05  8.756280E+03 -1.209437E+05  1.058210E+04  3.939082E+03
       305  25  1.324666E+05  7.362620E+05  1.285511E+05 -1.204335E+05  2.461229E+04 -1.611358E+04
       305  26  1.821774E+05  9.385888E+05  1.758944E+05 -7.261731E+04  3.040017E+04  6.467638E+03
       305  27  2.432026E+05  1.146791E+06  2.407605E+05 -1.245121E+05  1.056351E+04  2.903750E+04
       306   1 -1.417087E+06 -5.081059E+05 -3.166446E+05 -5.135260E+05 -1.435908E+05 -4.755510E+04
       306   2 -1.376196E+06 -3.000394E+05 -1.854954E+05 -5.138581E+05 -9.288320E+04 -1.510176E+04
       306   3 -1.393147E+06 -2.693655E+05 -1.407589E+05 -4.852105E+05 -3.778226E+04  5.673598E+03
       306   4 -1.037390E+06 -3.036296E+05 -2.025313E+05 -3.470373E+05 -1.310239E+05 -4.284968E+04
       306   5 -9.984492E+05 -1.391252E+05 -8.651680E+04 -3.903072E+05 -8.867522E+04 -1.352543E+04
       306   6 -1.015653E+06 -1.502997E+05 -5.024433E+04 -4.046093E+05 -4.193565E+04  4.114774E+03
       306   7 -6.575428E+05 -9.909258E+04 -8.843088E+04 -1.804413E+05 -1.184484E+05 -3.813794E+04
       306   8 -6.205614E+05  2.181037E+04  1.244964E+04 -2.666840E+05 -8.446443E+04 -1.194770E+04
       306   9 -6.380200E+05 -3.123402E+04  4.025995E+04 -3.239685E+05 -4.609179E+04  2.555291E+03
       306  10 -1.417110E+06 -5.081139E+05 -3.166877E+05 -5.135315E+05 -4.013926E-10  1.684027E-10
       306  11 -1.376205E+06 -3.000420E+05 -1.855121E+05 -5.138592E+05 -1.932889E-10 -8.451740E-11
       306  12 -1.393149E+06 -2.693659E+05 -1.407617E+05 -4.852103E+05 -8.272549E-11 -1.314972E-11
       306  13 -1.037409E+06 -3.036362E+05 -2.025671E+05 -3.470418E+05  1.077995E-09 -9.211024E-11
       306  14 -9.984577E+05 -1.391275E+05 -8.653195E+04 -3.903082E+05  1.729270E-10 -2.597736E-10
       306  15 -1.015655E+06 -1.503002E+05 -5.024767E+04 -4.046092E+05 -1.893122E-10 -1.545709E-10
       306  16 -6.575583E+05 -9.909792E+04 -8.846002E+04 -1.804449E+05 -6.061520E-10  1.993567E-10
       306  17 -6.205691E+05  2.180830E+04  1.243595E+04 -2.666848E+05 -1.929250E-10 -2.042942E-10
       306  18 -6.380223E+05 -3.123459E+04  4.025595E+04 -3.239684E+05 -6.259710E-11 -2.797234E-10
       306  19 -1.417087E+06 -5.081059E+05 -3.166446E+05 -5.135260E+05  1.435908E+05  4.755510E+04
       306  20 -1.376196E+06 -3.000394E+05 -1.854954E+05 -5.138581E+05  9.288320E+04  1.510176E+04
       306  21 -1.393147E+06 -2.693655E+05 -1.407589E+05 -4.852105E+05  3.778226E+04 -5.673598E+03
       306  22 -1.037390E+06 -3.036296E+05 -2.025313E+05 -3.470373E+05  1.310239E+05  4.284968E+04
       306  23 -9.984492E+05 -1.391252E+05 -8.651680E+04 -3.903072E+05  8.867522E+04  1.352543E+04
       306  24 -1.015653E+06 -1.502997E+05 -5.024433E+04 -4.046093E+05  4.193565E+04 -4.114774E+03
       306  25 -6.575428E+05 -9.909258E+04 -8.843088E+04 -1.804413E+05  1.184484E+05  3.813794E+04
       306  26 -6.205614E+05  2.181037E+04  1.244964E+04 -2.666840E+05  8.446443E+04  1.194770E+04
       306  27 -6.380200E+05 -3.123402E+04  4.025995E+04 -3.239685E+05  4.609179E+04 -2.555291E+03
       307   1 -1.337088E+06 -2.945346E+05 -1.235536E+05 -4.879861E+05 -3.383139E+04  4.458576E+03
       307   2 -1.309292E+06 -2.621332E+05 -9.521888E+04 -4.734028E+05 -2.266596E+04  7.446660E+03
       307   3 -1.275355E+06 -2.547438E+05 -7.834908E+04 -4.699213E+05 -1.127610E+04  9.837012E+03
       307   4 -1.009033E+06 -1.680239E+05 -4.023746E+04 -3.942777E+05 -3.438426E+04  4.250138E+03
       307   5 -1.011326E+06 -1.497967E+05 -2.022711E+04 -3.908861E+05 -2.364258E+04  7.079623E+03
       307   6 -1.007393E+06 -1.564931E+05 -1.134074E+04 -3.985971E+05 -1.267711E+04  9.311173E+03
       307   7 -6.808711E+05 -4.150374E+04  4.307035E+04 -3.005232E+05 -3.493745E+04  4.041572E+03
       307   8 -7.132728E+05 -3.745367E+04  5.475779E+04 -3.083332E+05 -2.461971E+04  6.712389E+03
       307   9 -7.393606E+05 -5.823840E+04  5.566197E+04 -3.272452E+05 -1.407879E+04  8.785096E+03
       307  10 -1.337089E+06 -2.945349E+05 -1.235558E+05 -4.879860E+05 -7.192468E-11 -2.554804E-10
       307  11 -1.309292E+06 -2.621334E+05 -9.521995E+04 -4.734026E+05 -1.539554E-10 -3.235571E-10
       307  12 -1.275355E+06 -2.547439E+05 -7.834950E+04 -4.699212E+05 -4.252924E-10 -8.500040E-11
       307  13 -1.009034E+06 -1.680242E+05 -4.023972E+04 -3.942776E+05  4.345358E-10 -2.212599E-10
       307  14 -1.011327E+06 -1.497969E+05 -2.022826E+04 -3.908860E+05 -4.327875E-10 -2.028122E-10
       307  15 -1.007393E+06 -1.564932E+05 -1.134121E+04 -3.985970E+05 -8.469273E-10 -2.344959E-10
       307  16 -6.808724E+05 -4.150409E+04  4.306802E+04 -3.005231E+05  2.296394E-10 -2.722318E-10
       307  17 -7.132735E+05 -3.745388E+04  5.475656E+04 -3.083331E+05  1.764370E-11  7.865606E-11
       307  18 -7.393608E+05 -5.823853E+04  5.566146E+04 -3.272451E+05 -1.300422E-10  5.197779E-11
       307  19 -1.337088E+06 -2.945346E+05 -1.235536E+05 -4.879861E+05  3.383139E+04 -4.458576E+03
       307  20 -1.309292E+06 -2.621332E+05 -9.521888E+04 -4.734028E+05  2.266596E+04 -7.446660E+03
       307  21 -1.275355E+06 -2.547438E+05 -7.834908E+04 -4.699213E+05  1.127610E+04 -9.837012E+03
       307  22 -1.009033E+06 -1.680239E+05 -4.023746E+04 -3.942777E+05  3.438426E+04 -4.250138E+03
       307  23 -1.011326E+06 -1.497967E+05 -2.022711E+04 -3.908861E+05  2.364258E+04 -7.079623E+03
       307  24 -1.007393E+06 -1.564931E+05 -1.134074E+04 -3.985971E+05  1.267711E+04 -9.311173E+03
       307  25 -6.808711E+05 -4.150374E+04  4.307035E+04 -3.005232E+05  3.493745E+04 -4.041572E+03
       307  26 -7.132728E+05 -3.745367E+04  5.475779E+04 -3.083332E+05  2.461971E+04 -6.712389E+03
       307  27 -7.393606E+05 -5.823840E+04  5.566197E+04 -3.272452E+05  1.407879E+04 -8.785096E+03
       308   1 -1.241969E+06 -2.458002E+05 -6.765874E+04 -4.622585E+05 -9.437768E+03  9.285233E+03
       308   2 -1.215112E+06 -2.262601E+05 -5.548538E+04 -4.462048E+05 -6.418705E+03  8.443990E+03
       308   3 -1.176384E+06 -2.202302E+05 -4.533216E+04 -4.443406E+05 -3.385295E+03  7.562959E+03
       308   4 -1.006680E+06 -1.578307E+05 -8.694590E+03 -3.978279E+05 -1.066706E+04  8.823951E+03
       308   5 -1.012556E+06 -1.506572E+05 -4.665903E+03 -3.908898E+05 -7.675654E+03  7.972571E+03
       308   6 -1.006556E+06 -1.569880E+05 -2.634780E+03 -3.981416E+05 -4.670029E+03  7.081362E+03
       308   7 -7.713370E+05 -6.985798E+04  5.026494E+04 -3.333754E+05 -1.189686E+04  8.362480E+03
       308   8 -8.099592E+05 -7.505164E+04  4.615033E+04 -3.355585E+05 -8.933053E+03  7.500984E+03
       308   9 -8.366996E+05 -9.374375E+04  4.006052E+04 -3.519309E+05 -5.955152E+03  6.599620E+03
       308  10 -1.241969E+06 -2.458003E+05 -6.765907E+04 -4.622584E+05 -3.244736E-10  1.038242E-10
       308  11 -1.215112E+06 -2.262602E+05 -5.548559E+04 -4.462047E+05  7.983714E-11  1.936929E-10
       308  12 -1.176384E+06 -2.202303E+05 -4.533229E+04 -4.443406E+05 -3.957802E-10 -8.382231E-12
       308  13 -1.006680E+06 -1.578309E+05 -8.694950E+03 -3.978278E+05 -1.023796E-10 -1.237057E-10
       308  14 -1.012556E+06 -1.506573E+05 -4.666133E+03 -3.908898E+05  2.038843E-10  5.163786E-10
       308  15 -1.006556E+06 -1.569881E+05 -2.634915E+03 -3.981415E+05  9.742551E-11  3.071027E-10
       308  16 -7.713372E+05 -6.985810E+04  5.026454E+04 -3.333753E+05 -2.145978E-10 -7.979527E-11
       308  17 -8.099593E+05 -7.505172E+04  4.615008E+04 -3.355584E+05 -2.586156E-10  3.036157E-10
       308  18 -8.366996E+05 -9.374381E+04  4.006037E+04 -3.519308E+05  2.410183E-10  2.822480E-10
       308  19 -1.241969E+06 -2.458002E+05 -6.765874E+04 -4.622585E+05  9.437768E+03 -9.285233E+03
       308  20 -1.215112E+06 -2.262601E+05 -5.548538E+04 -4.462048E+05  6.418705E+03 -8.443990E+03
       308  21 -1.176384E+06 -2.202302E+05 -4.533216E+04 -4.443406E+05  3.385295E+03 -7.562959E+03
       308  22 -1.006680E+06 -1.578307E+05 -8.694590E+03 -3.978279E+05  1.066706E+04 -8.823951E+03
       308  23 -1.012556E+06 -1.506572E+05 -4.665903E+03 -3.908898E+05  7.675654E+03 -7.972571E+03
       308  24 -1.006556E+06 -1.569880E+05 -2.634780E+03 -3.981416E+05  4.670029E+03 -7.081362E+03
       308  25 -7.713370E+05 -6.985798E+04  5.026494E+04 -3.333754E+05  1.189686E+04 -8.362480E+03
       308  26 -8.099592E+05 -7.505164E+04  4.615033E+04 -3.355585E+05  8.933053E+03 -7.500984E+03
       308  27 -8.366996E+05 -9.374375E+04  4.006052E+04 -3.519309E+05  5.955152E+03 -6.599620E+03
       309   1 -1.144377E+06 -2.085479E+05 -3.651467E+04 -4.357671E+05 -2.615614E+03  6.664135E+03
       309   2 -1.117377E+06 -1.897434E+05 -2.749121E+04 -4.194148E+05 -1.322975E+03  5.110373E+03
       309   3 -1.077809E+06 -1.836947E+05 -1.895031E+04 -4.176021E+05 -2.806767E+01  3.549563E+03
       309   4 -1.006440E+06 -1.571063E+05 -2.032426E+03 -3.981113E+05 -3.896437E+03  6.184118E+03
       309   5 -1.012718E+06 -1.506997E+05 -1.238915E+03 -3.908520E+05 -2.608706E+03  4.628638E+03
       309   6 -1.006429E+06 -1.570477E+05 -9.238833E+02 -3.981323E+05 -1.318745E+03  3.066103E+03
       309   7 -8.684838E+05 -1.056635E+05  3.244832E+04 -3.604480E+05 -5.177572E+03  5.703984E+03
       309   8 -9.080490E+05 -1.116553E+05  2.501246E+04 -3.622848E+05 -3.894671E+03  4.146816E+03
       309   9 -9.350441E+05 -1.304005E+05  1.710206E+04 -3.786605E+05 -2.609580E+03  2.582585E+03
       309  10 -1.144377E+06 -2.085480E+05 -3.651476E+04 -4.357670E+05 -5.733245E-10  2.471510E-10
       309  11 -1.117377E+06 -1.897434E+05 -2.749126E+04 -4.194148E+05  1.883614E-11  4.313785E-10
       309  12 -1.077809E+06 -1.836948E+05 -1.895033E+04 -4.176021E+05 -3.776678E-10 -1.003129E-10
       309  13 -1.006440E+06 -1.571064E+05 -2.032527E+03 -3.981113E+05 -2.562230E-10 -1.972047E-10
       309  14 -1.012718E+06 -1.506997E+05 -1.238968E+03 -3.908520E+05 -2.663235E-10 -3.270377E-10
       309  15 -1.006429E+06 -1.570477E+05 -9.239042E+02 -3.981323E+05 -3.455390E-10 -2.175552E-10
       309  16 -8.684839E+05 -1.056635E+05  3.244821E+04 -3.604480E+05  2.133542E-10  1.494946E-10
       309  17 -9.080490E+05 -1.116554E+05  2.501240E+04 -3.622848E+05  1.981351E-10  1.122361E-10
       309  18 -9.350441E+05 -1.304005E+05  1.710203E+04 -3.786605E+05 -1.761566E-10  7.725807E-11
       309  19 -1.144377E+06 -2.085479E+05 -3.651467E+04 -4.357671E+05  2.615614E+03 -6.664135E+03
       309  20 -1.117377E+06 -1.897434E+05 -2.749121E+04 -4.194148E+05  1.322975E+03 -5.110373E+03
       309  21 -1.077809E+06 -1.836947E+05 -1.895031E+04 -4.176021E+05  2.806767E+01 -3.549563E+03
       309  22 -1.006440E+06 -1.571063E+05 -2.032426E+03 -3.981113E+05  3.896437E+03 -6.184118E+03
       309  23 -1.012718E+06 -1.506997E+05 -1.238915E+03 -3.908520E+05  2.608706E+03 -4.628638E+03
       309  24 -1.006429E+06 -1.570477E+05 -9.238833E+02 -3.981323E+05  1.318745E+03 -3.066103E+03
       309  25 -8.684838E+05 -1.056635E+05  3.244832E+04 -3.604480E+05  5.177572E+03 -5.703984E+03
       309  26 -9.080490E+05 -1.116553E+05  2.501246E+04 -3.622848E+05  3.894671E+03 -4.146816E+03
       309  27 -9.350441E+05 -1.304005E+05  1.710206E+04 -3.786605E+05  2.609580E+03 -2.582585E+03
       310   1 -1.045702E+06 -1.717101E+05 -1.063080E+04 -4.088904E+05  5.167130E+02  2.559513E+03
       310   2 -1.018583E+06 -1.528794E+05 -2.545677E+03 -3.924462E+05  1.726796E+03  9.607993E+02
       310   3 -9.788298E+05 -1.468477E+05  5.123203E+03 -3.906129E+05  2.936579E+03 -6.370874E+02
       310   4 -1.006415E+06 -1.570618E+05 -8.956320E+02 -3.981463E+05 -7.757351E+02  2.075432E+03
       310   5 -1.012733E+06 -1.506815E+05 -1.075660E+03 -3.908333E+05  4.349033E+02  4.769274E+02
       310   6 -1.006420E+06 -1.571005E+05 -1.672514E+03 -3.981319E+05  1.645207E+03 -1.120756E+03
       310   7 -9.671256E+05 -1.424133E+05  8.839470E+03 -3.874016E+05 -2.068278E+03  1.591316E+03
       310   8 -1.006884E+06 -1.484835E+05  3.943657E+02 -3.892204E+05 -8.570056E+02 -6.950573E+00
       310   9 -1.034010E+06 -1.673533E+05 -8.468284E+03 -4.056505E+05  3.538972E+02 -1.604401E+03
       310  10 -1.045702E+06 -1.717102E+05 -1.063081E+04 -4.088904E+05 -2.451154E-10 -4.466991E-10
       310  11 -1.018583E+06 -1.528794E+05 -2.545684E+03 -3.924462E+05  2.465169E-10  1.184104E-10
       310  12 -9.788298E+05 -1.468477E+05  5.123186E+03 -3.906129E+05  1.662804E-12  4.603640E-10
       310  13 -1.006415E+06 -1.570618E+05 -8.956412E+02 -3.981463E+05 -2.101231E-10 -1.362946E-10
       310  14 -1.012733E+06 -1.506815E+05 -1.075660E+03 -3.908333E+05 -2.014667E-10  3.983484E-10
       310  15 -1.006420E+06 -1.571005E+05 -1.672521E+03 -3.981319E+05  7.683247E-11  5.686021E-11
       310  16 -9.671256E+05 -1.424133E+05  8.839457E+03 -3.874016E+05  1.577940E-10  1.488111E-10
       310  17 -1.006884E+06 -1.484835E+05  3.943643E+02 -3.892204E+05 -1.947444E-10 -4.798541E-10
       310  18 -1.034010E+06 -1.673533E+05 -8.468289E+03 -4.056505E+05  4.367501E-11 -1.403086E-10
       310  19 -1.045702E+06 -1.717101E+05 -1.063080E+04 -4.088904E+05 -5.167130E+02 -2.559513E+03
       310  20 -1.018583E+06 -1.528794E+05 -2.545677E+03 -3.924462E+05 -1.726796E+03 -9.607993E+02
       310  21 -9.788298E+05 -1.468477E+05  5.123203E+03 -3.906129E+05 -2.936579E+03  6.370874E+02
       310  22 -1.006415E+06 -1.570618E+05 -8.956320E+02 -3.981463E+05  7.757351E+02 -2.075432E+03
       310  23 -1.012733E+06 -1.506815E+05 -1.075660E+03 -3.908333E+05 -4.349033E+02 -4.769274E+02
       310  24 -1.006420E+06 -1.571005E+05 -1.672514E+03 -3.981319E+05 -1.645207E+03  1.120756E+03
       310  25 -9.671256E+05 -1.424133E+05  8.839470E+03 -3.874016E+05  2.068278E+03 -1.591316E+03
       310  26 -1.006884E+06 -1.484835E+05  3.943657E+02 -3.892204E+05  8.570056E+02  6.950573E+00
       310  27 -1.034010E+06 -1.673533E+05 -8.468284E+03 -4.056505E+05 -3.538972E+02  1.604401E+03
       311   1 -9.467308E+05 -1.348438E+05  1.294357E+04 -3.820131E+05  3.649097E+03 -1.567333E+03
       311   2 -9.196243E+05 -1.159386E+05  1.957351E+04 -3.654659E+05  6.184176E+03 -2.661464E+03
       311   3 -8.803622E+05 -1.105098E+05  2.460887E+04 -3.633505E+05  8.709534E+03 -3.728520E+03
       311   4 -1.006496E+06 -1.570249E+05 -2.143407E+03 -3.981774E+05  2.352180E+03 -2.053109E+03
       311   5 -1.012620E+06 -1.506189E+05 -3.749462E+03 -3.908367E+05  4.906316E+03 -3.140212E+03
       311   6 -1.006593E+06 -1.576933E+05 -6.965384E+03 -3.979283E+05  7.450631E+03 -4.200275E+03
       311   7 -1.066257E+06 -1.792057E+05 -1.723059E+04 -4.143403E+05  1.055404E+03 -2.538833E+03
       311   8 -1.105607E+06 -1.852986E+05 -2.707311E+04 -4.162041E+05  3.628666E+03 -3.618881E+03
       311   9 -1.132808E+06 -2.048759E+05 -3.854102E+04 -4.324999E+05  6.192002E+03 -4.671926E+03
       311  10 -9.467309E+05 -1.348438E+05  1.294354E+04 -3.820131E+05 -3.070464E-10  5.296486E-10
       311  11 -9.196244E+05 -1.159387E+05  1.957342E+04 -3.654659E+05 -1.880702E-10  2.536925E-10
       311  12 -8.803623E+05 -1.105099E+05  2.460870E+04 -3.633505E+05 -6.774390E-11 -2.663374E-10
       311  13 -1.006496E+06 -1.570249E+05 -2.143425E+03 -3.981774E+05 -1.813281E-11  6.726773E-10
       311  14 -1.012620E+06 -1.506189E+05 -3.749526E+03 -3.908367E+05 -2.472204E-10  2.266554E-11
       311  15 -1.006593E+06 -1.576933E+05 -6.965522E+03 -3.979283E+05  1.781177E-10  1.208519E-10
       311  16 -1.066257E+06 -1.792057E+05 -1.723061E+04 -4.143403E+05 -8.564575E-11  2.907560E-10
       311  17 -1.105607E+06 -1.852986E+05 -2.707316E+04 -4.162041E+05 -3.292626E-10  4.359663E-10
       311  18 -1.132808E+06 -2.048759E+05 -3.854114E+04 -4.324999E+05 -2.586420E-10  1.505198E-10
       311  19 -9.467308E+05 -1.348438E+05  1.294357E+04 -3.820131E+05 -3.649097E+03  1.567333E+03
       311  20 -9.196243E+05 -1.159386E+05  1.957351E+04 -3.654659E+05 -6.184176E+03  2.661464E+03
       311  21 -8.803622E+05 -1.105098E+05  2.460887E+04 -3.633505E+05 -8.709534E+03  3.728520E+03
       311  22 -1.006496E+06 -1.570249E+05 -2.143407E+03 -3.981774E+05 -2.352180E+03  2.053109E+03
       311  23 -1.012620E+06 -1.506189E+05 -3.749462E+03 -3.908367E+05 -4.906316E+03  3.140212E+03
       311  24 -1.006593E+06 -1.576933E+05 -6.965384E+03 -3.979283E+05 -7.450631E+03  4.200275E+03
       311  25 -1.066257E+06 -1.792057E+05 -1.723059E+04 -4.143403E+05 -1.055404E+03  2.538833E+03
       311  26 -1.105607E+06 -1.852986E+05 -2.707311E+04 -4.162041E+05 -3.628666E+03  3.618881E+03
       311  27 -1.132808E+06 -2.048759E+05 -3.854102E+04 -4.324999E+05 -6.192002E+03  4.671926E+03
       312   1 -8.479293E+05 -9.867412E+04  3.069682E+04 -3.566078E+05  1.053469E+04 -4.289073E+03
       312   2 -8.212016E+05 -7.800996E+04  3.175950E+04 -3.379503E+05  1.912952E+04 -3.017200E+03
       312   3 -7.867221E+05 -7.995745E+04  2.417435E+04 -3.313316E+05  2.755495E+04 -1.290839E+03
       312   4 -1.007151E+06 -1.566372E+05 -9.080034E+03 -3.985592E+05  9.142868E+03 -4.810715E+03
       312   5 -1.011648E+06 -1.499092E+05 -1.618078E+04 -3.908138E+05  1.806143E+04 -3.417790E+03
       312   6 -1.008460E+06 -1.658596E+05 -3.218828E+04 -3.951079E+05  2.681011E+04 -1.570546E+03
       312   7 -1.166348E+06 -2.145990E+05 -4.885885E+04 -4.405010E+05  7.751438E+03 -5.332218E+03
       312   8 -1.202059E+06 -2.218057E+05 -6.412383E+04 -4.436624E+05  1.699370E+04 -3.818241E+03
       312   9 -1.230148E+06 -2.517572E+05 -8.855463E+04 -4.588628E+05  2.606557E+04 -1.850135E+03
       312  10 -8.479294E+05 -9.867417E+04  3.069657E+04 -3.566078E+05 -5.722041E-10 -2.860925E-10
       312  11 -8.212020E+05 -7.801007E+04  3.175880E+04 -3.379502E+05 -5.818340E-10 -2.019114E-10
       312  12 -7.867230E+05 -7.995766E+04  2.417291E+04 -3.313316E+05 -1.541182E-10 -2.392903E-10
       312  13 -1.007151E+06 -1.566373E+05 -9.080234E+03 -3.985592E+05  1.551767E-10  3.889128E-10
       312  14 -1.011648E+06 -1.499093E+05 -1.618142E+04 -3.908137E+05 -1.656972E-10  4.887614E-10
       312  15 -1.008460E+06 -1.658598E+05 -3.218964E+04 -3.951078E+05 -1.477342E-10 -3.324550E-10
       312  16 -1.166348E+06 -2.145990E+05 -4.885902E+04 -4.405010E+05  1.053245E-10  4.555516E-10
       312  17 -1.202059E+06 -2.218058E+05 -6.412440E+04 -4.436623E+05  3.205042E-10  4.818185E-10
       312  18 -1.230149E+06 -2.517574E+05 -8.855591E+04 -4.588628E+05 -1.409335E-10 -2.825395E-10
       312  19 -8.479293E+05 -9.867412E+04  3.069682E+04 -3.566078E+05 -1.053469E+04  4.289073E+03
       312  20 -8.212016E+05 -7.800996E+04  3.175950E+04 -3.379503E+05 -1.912952E+04  3.017200E+03
       312  21 -7.867221E+05 -7.995745E+04  2.417435E+04 -3.313316E+05 -2.755495E+04  1.290839E+03
       312  22 -1.007151E+06 -1.566372E+05 -9.080034E+03 -3.985592E+05 -9.142868E+03  4.810715E+03
       312  23 -1.011648E+06 -1.499092E+05 -1.618078E+04 -3.908138E+05 -1.806143E+04  3.417790E+03
       312  24 -1.008460E+06 -1.658596E+05 -3.218828E+04 -3.951079E+05 -2.681011E+04  1.570546E+03
       312  25 -1.166348E+06 -2.145990E+05 -4.885885E+04 -4.405010E+05 -7.751438E+03  5.332218E+03
       312  26 -1.202059E+06 -2.218057E+05 -6.412383E+04 -4.436624E+05 -1.699370E+04  3.818241E+03
       312  27 -1.230148E+06 -2.517572E+05 -8.855463E+04 -4.588628E+05 -2.606557E+04  1.850135E+03
       313   1 -7.454904E+05 -6.913086E+04  2.375070E+04 -3.482171E+05  3.641654E+04 -3.318813E+02
       313   2 -7.255272E+05 -2.262457E+04  3.289071E+03 -2.987868E+05  6.758335E+04  1.090867E+04
       313   3 -7.463982E+05 -1.181637E+05 -7.587545E+04 -2.294452E+05  9.540392E+04  3.107624E+04
       313   4 -1.013751E+06 -1.516874E+05 -4.019275E+04 -4.033781E+05  3.291847E+04 -1.642846E+03
       313   5 -1.001359E+06 -1.413562E+05 -6.920282E+04 -3.903348E+05  7.048009E+04  1.199281E+04
       313   6 -1.031096E+06 -2.743824E+05 -1.620089E+05 -3.573765E+05  1.046937E+05  3.455289E+04
       313   7 -1.281943E+06 -2.342447E+05 -1.041415E+05 -4.585204E+05  2.942203E+04 -2.953449E+03
       313   8 -1.277115E+06 -2.600753E+05 -1.417010E+05 -4.818431E+05  7.337541E+04  1.307623E+04
       313   9 -1.315707E+06 -4.305630E+05 -2.481487E+05 -4.852445E+05  1.139787E+05  3.802591E+04
       313  10 -7.454918E+05 -6.913121E+04  2.374821E+04 -3.482171E+05 -4.790644E-10 -4.838688E-10
       313  11 -7.255321E+05 -2.262593E+04  3.280253E+03 -2.987874E+05 -4.675762E-10 -2.088358E-10
       313  12 -7.464083E+05 -1.181672E+05 -7.589439E+04 -2.294476E+05 -3.439680E-10  6.475116E-11
       313  13 -1.013752E+06 -1.516877E+05 -4.019480E+04 -4.033781E+05  7.999141E-11 -3.338282E-10
       313  14 -1.001364E+06 -1.413577E+05 -6.921244E+04 -3.903354E+05 -6.188863E-11 -2.023685E-10
       313  15 -1.031108E+06 -2.743866E+05 -1.620318E+05 -3.573794E+05 -9.161313E-10 -1.326110E-11
       313  16 -1.281944E+06 -2.342450E+05 -1.041432E+05 -4.585203E+05  4.396596E-10 -1.634220E-10
       313  17 -1.277120E+06 -2.600770E+05 -1.417115E+05 -4.818439E+05  1.323877E-10 -1.523313E-10
       313  18 -1.315721E+06 -4.305681E+05 -2.481759E+05 -4.852480E+05 -5.118298E-11 -5.850506E-11
       313  19 -7.454904E+05 -6.913086E+04  2.375070E+04 -3.482171E+05 -3.641654E+04  3.318813E+02
       313  20 -7.255272E+05 -2.262457E+04  3.289071E+03 -2.987868E+05 -6.758335E+04 -1.090867E+04
       313  21 -7.463982E+05 -1.181637E+05 -7.587545E+04 -2.294452E+05 -9.540392E+04 -3.107624E+04
       313  22 -1.013751E+06 -1.516874E+05 -4.019275E+04 -4.033781E+05 -3.291847E+04  1.642846E+03
       313  23 -1.001359E+06 -1.413562E+05 -6.920282E+04 -3.903348E+05 -7.048009E+04 -1.199281E+04
       313  24 -1.031096E+06 -2.743824E+05 -1.620089E+05 -3.573765E+05 -1.046937E+05 -3.455289E+04
       313  25 -1.281943E+06 -2.342447E+05 -1.041415E+05 -4.585204E+05 -2.942203E+04  2.953449E+03
       313  26 -1.277115E+06 -2.600753E+05 -1.417010E+05 -4.818431E+05 -7.337541E+04 -1.307623E+04
       313  27 -1.315707E+06 -4.305630E+05 -2.481487E+05 -4.852445E+05 -1.139787E+05 -3.802591E+04
       314   1  3.808005E+05  9.272958E+04  1.713157E+05  9.217480E+04  2.503868E+05  1.226967E+04
       314   2  4.181481E+05 -2.332149E+05 -1.843982E+04  1.763063E+04  1.720181E+05  3.685142E+04
       314   3  5.527739E+05 -2.129904E+05 -7.052307E+04 -9.834096E+04  9.366841E+04  3.683058E+04
       314   4  1.346882E+06  3.322698E+05  4.065669E+05 -4.917044E+04  2.791433E+05  1.225204E+04
       314   5  1.296803E+06 -1.754640E+04  1.826577E+05 -2.824610E+04  1.817209E+05  3.684552E+04
       314   6  1.347133E+06 -1.819089E+04  1.094853E+05 -4.874281E+04  8.433221E+04  3.682786E+04
       314   7  2.313858E+06  5.718173E+05  6.417644E+05 -1.907363E+05  3.079440E+05  1.222137E+04
       314   8  2.176178E+06  1.980766E+05  3.837061E+05 -7.418844E+04  1.914371E+05  3.683820E+04
       314   9  2.142082E+06  1.765744E+05  2.894547E+05  9.192583E+02  7.498413E+04  3.682365E+04
       314  10  3.807332E+05  9.271260E+04  1.711977E+05  9.217233E+04 -1.556092E-09  4.185998E-10
       314  11  4.181159E+05 -2.332243E+05 -1.849794E+04  1.762553E+04 -1.454484E-09 -6.952486E-10
       314  12  5.527641E+05 -2.129942E+05 -7.054209E+04 -9.834374E+04  1.907673E-10  6.486761E-11
       314  13  1.346798E+06  3.322487E+05  4.064205E+05 -4.917319E+04  8.252718E-10  1.999091E-10
       314  14  1.296768E+06 -1.755670E+04  1.825932E+05 -2.825149E+04 -7.214183E-10 -1.533093E-09
       314  15  1.347125E+06 -1.819425E+04  1.094694E+05 -4.874531E+04  1.681061E-10  1.244477E-11
       314  16  2.313757E+06  5.717918E+05  6.415865E+05 -1.907393E+05  4.009567E-10 -5.238009E-11
       314  17  2.176138E+06  1.980653E+05  3.836350E+05 -7.419412E+04 -2.854289E-10 -8.546588E-11
       314  18  2.142076E+06  1.765714E+05  2.894416E+05  9.170370E+02 -5.332692E-10 -3.950866E-10
       314  19  3.808005E+05  9.272958E+04  1.713157E+05  9.217480E+04 -2.503868E+05 -1.226967E+04
       314  20  4.181481E+05 -2.332149E+05 -1.843982E+04  1.763063E+04 -1.720181E+05 -3.685142E+04
       314  21  5.527739E+05 -2.129904E+05 -7.052307E+04 -9.834096E+04 -9.366841E+04 -3.683058E+04
       314  22  1.346882E+06  3.322698E+05  4.065669E+05 -4.917044E+04 -2.791433E+05 -1.225204E+04
       314  23  1.296803E+06 -1.754640E+04  1.826577E+05 -2.824610E+04 -1.817209E+05 -3.684552E+04
       314  24  1.347133E+06 -1.819089E+04  1.094853E+05 -4.874281E+04 -8.433221E+04 -3.682786E+04
       314  25  2.313858E+06  5.718173E+05  6.417644E+05 -1.907363E+05 -3.079440E+05 -1.222137E+04
       314  26  2.176178E+06  1.980766E+05  3.837061E+05 -7.418844E+04 -1.914371E+05 -3.683820E+04
       314  27  2.142082E+06  1.765744E+05  2.894547E+05  9.192583E+02 -7.498413E+04 -3.682365E+04
       315   1  6.096735E+05 -1.531595E+05 -7.547950E+04 -4.115629E+04  7.006943E+04  3.157674E+04
       315   2  6.883714E+05 -1.571074E+05 -9.722192E+04 -2.651462E+04  4.735523E+04  2.864140E+04
       315   3  7.764344E+05 -1.363937E+05 -9.796543E+04 -5.279282E+04  2.463585E+04  2.458374E+04
       315   4  1.326915E+06  2.279703E+04  8.786501E+04 -4.875070E+04  6.830730E+04  3.157231E+04
       315   5  1.322193E+06 -1.688956E+03  4.674328E+04 -2.828765E+04  4.470530E+04  2.863835E+04
       315   6  1.326972E+06 -1.374558E+03  2.721812E+04 -4.874113E+04  2.110112E+04  2.458217E+04
       315   7  2.044633E+06  1.987182E+05  2.511761E+05 -5.635400E+04  6.654312E+04  3.156794E+04
       315   8  1.956387E+06  1.537018E+05  1.906825E+05 -3.006253E+04  4.205266E+04  2.863531E+04
       315   9  1.877791E+06  1.336237E+05  1.523821E+05 -4.468581E+04  1.756328E+04  2.458055E+04
       315  10  6.096679E+05 -1.531619E+05 -7.549059E+04 -4.115807E+04 -1.135842E-09 -2.878407E-10
       315  11  6.883688E+05 -1.571089E+05 -9.722767E+04 -2.651571E+04 -6.227723E-10  4.507823E-10
       315  12  7.764336E+05 -1.363945E+05 -9.796771E+04 -5.279331E+04 -3.256403E-10 -9.858787E-11
       315  13  1.326910E+06  2.279471E+04  8.785439E+04 -4.875244E+04 -1.557361E-10 -2.250457E-10
       315  14  1.322191E+06 -1.690372E+03  4.673799E+04 -2.828868E+04 -3.764463E-10 -2.157697E-10
       315  15  1.326972E+06 -1.375327E+03  2.721615E+04 -4.874155E+04 -2.023774E-10 -5.723660E-11
       315  16  2.044628E+06  1.987160E+05  2.511660E+05 -5.635569E+04  6.606276E-10 -9.976542E-11
       315  17  1.956385E+06  1.537005E+05  1.906776E+05 -3.006350E+04 -4.231074E-10 -8.796160E-10
       315  18  1.877790E+06  1.336230E+05  1.523804E+05 -4.468616E+04  1.778465E-10 -5.387291E-11
       315  19  6.096735E+05 -1.531595E+05 -7.547950E+04 -4.115629E+04 -7.006943E+04 -3.157674E+04
       315  20  6.883714E+05 -1.571074E+05 -9.722192E+04 -2.651462E+04 -4.735523E+04 -2.864140E+04
       315  21  7.764344E+05 -1.363937E+05 -9.796543E+04 -5.279282E+04 -2.463585E+04 -2.458374E+04
       315  22  1.326915E+06  2.279703E+04  8.786501E+04 -4.875070E+04 -6.830730E+04 -3.157231E+04
       315  23  1.322193E+06 -1.688956E+03  4.674328E+04 -2.828765E+04 -4.470530E+04 -2.863835E+04
       315  24  1.326972E+06 -1.374558E+03  2.721812E+04 -4.874113E+04 -2.110112E+04 -2.458217E+04
       315  25  2.044633E+06  1.987182E+05  2.511761E+05 -5.635400E+04 -6.654312E+04 -3.156794E+04
       315  26  1.956387E+06  1.537018E+05  1.906825E+05 -3.006253E+04 -4.205266E+04 -2.863531E+04
       315  27  1.877791E+06  1.336237E+05  1.523821E+05 -4.468581E+04 -1.756328E+04 -2.458055E+04
       316   1  8.498684E+05 -1.150606E+05 -8.669325E+04 -4.856844E+04  2.001843E+04  2.199340E+04
       316   2  9.311582E+05 -9.666151E+04 -7.743865E+04 -2.861813E+04  1.415530E+04  1.785024E+04
       316   3  1.013726E+06 -7.648191E+04 -6.391120E+04 -4.892071E+04  8.288922E+03  1.367269E+04
       316   4  1.325161E+06  1.421466E+03  2.098965E+04 -4.859578E+04  1.685443E+04  2.199240E+04
       316   5  1.324535E+06 -2.245784E+02  1.185641E+04 -2.847031E+04  1.096051E+04  1.785009E+04
       316   6  1.325184E+06 -8.579263E+01  7.014538E+03 -4.859614E+04  5.064105E+03  1.367341E+04
       316   7  1.800662E+06  1.178880E+05  1.286580E+05 -4.862313E+04  1.368803E+04  2.199141E+04
       316   8  1.718055E+06  9.620170E+04  1.011415E+05 -2.832239E+04  7.763721E+03  1.784993E+04
       316   9  1.636731E+06  7.630362E+04  7.793401E+04 -4.827140E+04  1.837686E+03  1.367412E+04
       316  10  8.498678E+05 -1.150612E+05 -8.669491E+04 -4.856879E+04  2.459957E-10 -2.137469E-10
       316  11  9.311579E+05 -9.666191E+04 -7.743963E+04 -2.861833E+04  2.643294E-10 -1.738828E-10
       316  12  1.013726E+06 -7.648213E+04 -6.391168E+04 -4.892080E+04 -6.550776E-10  1.316413E-11
       316  13  1.325160E+06  1.420870E+03  2.098821E+04 -4.859608E+04  4.934341E-11  1.417719E-10
       316  14  1.324535E+06 -2.249529E+02  1.185559E+04 -2.847047E+04 -1.074052E-09 -7.450094E-11
       316  15  1.325184E+06 -8.600039E+01  7.014138E+03 -4.859620E+04 -1.184266E-10 -1.053362E-10
       316  16  1.800662E+06  1.178874E+05  1.286568E+05 -4.862338E+04 -6.390397E-10  3.620393E-10
       316  17  1.718055E+06  9.620134E+04  1.011408E+05 -2.832250E+04 -2.792086E-12  3.269083E-10
       316  18  1.636731E+06  7.630342E+04  7.793365E+04 -4.827143E+04  9.163119E-11  3.579543E-10
       316  19  8.498684E+05 -1.150606E+05 -8.669325E+04 -4.856844E+04 -2.001843E+04 -2.199340E+04
       316  20  9.311582E+05 -9.666151E+04 -7.743865E+04 -2.861813E+04 -1.415530E+04 -1.785024E+04
       316  21  1.013726E+06 -7.648191E+04 -6.391120E+04 -4.892071E+04 -8.288922E+03 -1.367269E+04
       316  22  1.325161E+06  1.421466E+03  2.098965E+04 -4.859578E+04 -1.685443E+04 -2.199240E+04
       316  23  1.324535E+06 -2.245784E+02  1.185641E+04 -2.847031E+04 -1.096051E+04 -1.785009E+04
       316  24  1.325184E+06 -8.579263E+01  7.014538E+03 -4.859614E+04 -5.064105E+03 -1.367341E+04
       316  25  1.800662E+06  1.178880E+05  1.286580E+05 -4.862313E+04 -1.368803E+04 -2.199141E+04
       316  26  1.718055E+06  9.620170E+04  1.011415E+05 -2.832239E+04 -7.763721E+03 -1.784993E+04
       316  27  1.636731E+06  7.630362E+04  7.793401E+04 -4.827140E+04 -1.837686E+03 -1.367412E+04
       317   1  1.087746E+06 -5.801553E+04 -4.812262E+04 -4.856504E+04  7.135749E+03  1.123933E+04
       317   2  1.168794E+06 -3.827299E+04 -3.189005E+04 -2.859955E+04  5.385615E+03  7.081552E+03
       317   3  1.250087E+06 -1.836606E+04 -1.448566E+04 -4.850591E+04  3.634295E+03  2.929007E+03
       317   4  1.324963E+06  8.535087E+01  5.481156E+03 -4.851159E+04  3.936611E+03  1.124041E+04
       317   5  1.324848E+06 -2.184054E+01  3.527393E+03 -2.857600E+04  2.189725E+03  7.082957E+03
       317   6  1.324971E+06  3.510588E+01  2.743061E+03 -4.851165E+04  4.418771E+02  2.930758E+03
       317   7  1.562233E+06  5.818237E+04  5.908136E+04 -4.845811E+04  7.362638E+02  1.124149E+04
       317   8  1.480925E+06  3.822764E+04  3.894330E+04 -2.855244E+04 -1.006959E+03  7.084361E+03
       317   9  1.399861E+06  1.843589E+04  1.997145E+04 -4.851740E+04 -2.750922E+03  2.932508E+03
       317  10  1.087746E+06 -5.801567E+04 -4.812295E+04 -4.856511E+04 -4.137854E-10  6.053708E-11
       317  11  1.168794E+06 -3.827306E+04 -3.189020E+04 -2.859958E+04 -1.592710E-10  5.509465E-10
       317  12  1.250087E+06 -1.836607E+04 -1.448570E+04 -4.850592E+04 -2.556918E-10  4.603468E-10
       317  13  1.324963E+06  8.521096E+01  5.480890E+03 -4.851163E+04 -6.473452E-10  4.387077E-10
       317  14  1.324848E+06 -2.189573E+01  3.527289E+03 -2.857601E+04  3.486836E-10 -3.163883E-10
       317  15  1.324971E+06  3.509659E+01  2.743044E+03 -4.851166E+04 -2.470249E-10 -3.294150E-10
       317  16  1.562233E+06  5.818224E+04  5.908112E+04 -4.845812E+04  1.152632E-09 -5.877000E-10
       317  17  1.480925E+06  3.822759E+04  3.894320E+04 -2.855243E+04 -2.221618E-10 -2.811769E-10
       317  18  1.399861E+06  1.843587E+04  1.997142E+04 -4.851739E+04  2.310853E-10 -7.544179E-10
       317  19  1.087746E+06 -5.801553E+04 -4.812262E+04 -4.856504E+04 -7.135749E+03 -1.123933E+04
       317  20  1.168794E+06 -3.827299E+04 -3.189005E+04 -2.859955E+04 -5.385615E+03 -7.081552E+03
       317  21  1.250087E+06 -1.836606E+04 -1.448566E+04 -4.850591E+04 -3.634295E+03 -2.929007E+03
       317  22  1.324963E+06  8.535087E+01  5.481156E+03 -4.851159E+04 -3.936611E+03 -1.124041E+04
       317  23  1.324848E+06 -2.184054E+01  3.527393E+03 -2.857600E+04 -2.189725E+03 -7.082957E+03
       317  24  1.324971E+06  3.510588E+01  2.743061E+03 -4.851165E+04 -4.418771E+02 -2.930758E+03
       317  25  1.562233E+06  5.818237E+04  5.908136E+04 -4.845811E+04 -7.362638E+02 -1.124149E+04
       317  26  1.480925E+06  3.822764E+04  3.894330E+04 -2.855244E+04  1.006959E+03 -7.084361E+03
       317  27  1.399861E+06  1.843589E+04  1.997145E+04 -4.851740E+04  2.750922E+03 -2.932508E+03
       318   1  1.323935E+06 -1.693139E+02  2.677102E+03 -4.849267E+04  3.140079E+03  5.145367E+02
       318   2  1.404908E+06  1.960638E+04  2.133224E+04 -2.856485E+04  1.571713E+03 -3.633890E+03
       318   3  1.486085E+06  3.952767E+04  4.103232E+04 -4.845604E+04  3.662417E+00 -7.784023E+03
       318   4  1.324964E+06  3.586452E+01  2.675732E+03 -4.850011E+04 -5.117449E+01  5.163385E+02
       318   5  1.324862E+06 -1.128048E+01  3.167800E+03 -2.859043E+04 -1.620872E+03 -3.632272E+03
       318   6  1.324960E+06  8.815725E+01  4.706447E+03 -4.850006E+04 -3.190053E+03 -7.782564E+03
       318   7  1.325993E+06  2.410484E+02  2.674400E+03 -4.850756E+04 -3.242433E+03  5.181404E+02
       318   8  1.244822E+06 -1.962938E+04 -1.499702E+04 -2.861600E+04 -4.813050E+03 -3.630654E+03
       318   9  1.163858E+06 -3.935312E+04 -3.162104E+04 -4.854406E+04 -6.382950E+03 -7.781104E+03
       318  10  1.323935E+06 -1.693168E+02  2.677083E+03 -4.849267E+04  2.380456E-10 -1.336034E-10
       318  11  1.404908E+06  1.960636E+04  2.133221E+04 -2.856485E+04  4.041114E-10 -3.580469E-10
       318  12  1.486085E+06  3.952760E+04  4.103220E+04 -4.845604E+04  2.243543E-10  1.901668E-10
       318  13  1.324964E+06  3.586423E+01  2.675731E+03 -4.850011E+04 -4.322887E-10  5.553199E-10
       318  14  1.324862E+06 -1.129536E+01  3.167770E+03 -2.859043E+04 -1.688432E-09  5.712561E-10
       318  15  1.324960E+06  8.808944E+01  4.706314E+03 -4.850008E+04  6.669316E-11 -6.298586E-10
       318  16  1.325993E+06  2.410453E+02  2.674380E+03 -4.850756E+04 -2.604657E-10 -4.564830E-11
       318  17  1.244822E+06 -1.962940E+04 -1.499709E+04 -2.861601E+04 -8.673901E-10  5.032973E-10
       318  18  1.163858E+06 -3.935320E+04 -3.162123E+04 -4.854410E+04 -1.475348E-10 -1.991635E-10
       318  19  1.323935E+06 -1.693139E+02  2.677102E+03 -4.849267E+04 -3.140079E+03 -5.145367E+02
       318  20  1.404908E+06  1.960638E+04  2.133224E+04 -2.856485E+04 -1.571713E+03  3.633890E+03
       318  21  1.486085E+06  3.952767E+04  4.103232E+04 -4.845604E+04 -3.662417E+00  7.784023E+03
       318  22  1.324964E+06  3.586452E+01  2.675732E+03 -4.850011E+04  5.117449E+01 -5.163385E+02
       318  23  1.324862E+06 -1.128048E+01  3.167800E+03 -2.859043E+04  1.620872E+03  3.632272E+03
       318  24  1.324960E+06  8.815725E+01  4.706447E+03 -4.850006E+04  3.190053E+03  7.782564E+03
       318  25  1.325993E+06  2.410484E+02  2.674400E+03 -4.850756E+04  3.242433E+03 -5.181404E+02
       318  26  1.244822E+06 -1.962938E+04 -1.499702E+04 -2.861600E+04  4.813050E+03  3.630654E+03
       318  27  1.163858E+06 -3.935312E+04 -3.162104E+04 -4.854406E+04  6.382950E+03  7.781104E+03
       319   1  1.560344E+06  5.762917E+04  5.955709E+04 -4.830046E+04 -9.368853E+02 -1.020983E+04
       319   2  1.641460E+06  7.746932E+04  8.185673E+04 -2.842100E+04 -5.920397E+03 -1.437155E+04
       319   3  1.723630E+06  9.881331E+04  1.077742E+05 -4.862722E+04 -1.090268E+04 -1.849915E+04
       319   4  1.325140E+06 -5.533383E+01  5.956613E+03 -4.855966E+04 -4.152806E+03 -1.020864E+04
       319   5  1.324609E+06 -1.739076E+02  9.963250E+03 -2.851596E+04 -9.107981E+03 -1.437106E+04
       319   6  1.325121E+06  1.207270E+03  1.756968E+04 -4.855919E+04 -1.406129E+04 -1.849933E+04
       319   7  1.089987E+06 -5.774365E+04 -4.764743E+04 -4.881875E+04 -7.367521E+03 -1.020743E+04
       319   8  1.007851E+06 -7.782404E+04 -6.193668E+04 -2.861087E+04 -1.229396E+04 -1.437057E+04
       319   9  9.267594E+05 -9.640968E+04 -7.264507E+04 -4.849119E+04 -1.721789E+04 -1.849952E+04
       319  10  1.560344E+06  5.762905E+04  5.955689E+04 -4.830047E+04 -6.005103E-10  6.888703E-10
       319  11  1.641460E+06  7.746909E+04  8.185628E+04 -2.842106E+04 -9.922780E-11 -4.896630E-11
       319  12  1.723630E+06  9.881291E+04  1.077734E+05 -4.862738E+04 -6.712178E-10  3.169742E-10
       319  13  1.325140E+06 -5.545043E+01  5.956385E+03 -4.855969E+04  2.458261E-10 -1.866751E-10
       319  14  1.324609E+06 -1.741518E+02  9.962706E+03 -2.851607E+04  5.128492E-10 -5.427568E-10
       319  15  1.325121E+06  1.206849E+03  1.756867E+04 -4.855940E+04  3.853553E-10  3.833446E-11
       319  16  1.089987E+06 -5.774378E+04 -4.764772E+04 -4.881881E+04  2.439242E-10  6.490349E-11
       319  17  1.007851E+06 -7.782430E+04 -6.193735E+04 -2.861102E+04  2.740134E-10 -4.836746E-10
       319  18  9.267590E+05 -9.641013E+04 -7.264627E+04 -4.849145E+04  1.030035E-09 -2.509946E-10
       319  19  1.560344E+06  5.762917E+04  5.955709E+04 -4.830046E+04  9.368853E+02  1.020983E+04
       319  20  1.641460E+06  7.746932E+04  8.185673E+04 -2.842100E+04  5.920397E+03  1.437155E+04
       319  21  1.723630E+06  9.881331E+04  1.077742E+05 -4.862722E+04  1.090268E+04  1.849915E+04
       319  22  1.325140E+06 -5.533383E+01  5.956613E+03 -4.855966E+04  4.152806E+03  1.020864E+04
       319  23  1.324609E+06 -1.739076E+02  9.963250E+03 -2.851596E+04  9.107981E+03  1.437106E+04
       319  24  1.325121E+06  1.207270E+03  1.756968E+04 -4.855919E+04  1.406129E+04  1.849933E+04
       319  25  1.089987E+06 -5.774365E+04 -4.764743E+04 -4.881875E+04  7.367521E+03  1.020743E+04
       319  26  1.007851E+06 -7.782404E+04 -6.193668E+04 -2.861087E+04  1.229396E+04  1.437057E+04
       319  27  9.267594E+05 -9.640968E+04 -7.264507E+04 -4.849119E+04  1.721789E+04  1.849952E+04
       320   1  1.800063E+06  1.149120E+05  1.303802E+05 -4.535561E+04 -1.411564E+04 -2.106431E+04
       320   2  1.878914E+06  1.349055E+05  1.653323E+05 -2.991648E+04 -3.465907E+04 -2.510440E+04
       320   3  1.965819E+06  1.757587E+05  2.188808E+05 -5.513353E+04 -5.520269E+04 -2.810961E+04
       320   4  1.326634E+06 -1.129135E+03  2.276624E+04 -4.868522E+04 -1.761492E+04 -2.106499E+04
       320   5  1.322652E+06 -1.398002E+03  3.907134E+04 -2.835826E+04 -3.734607E+04 -2.510641E+04
       320   6  1.326585E+06  1.906382E+04  7.342289E+04 -4.868911E+04 -5.707470E+04 -2.811284E+04
       320   7  8.534138E+05 -1.171856E+05 -8.486220E+04 -5.201226E+04 -2.111155E+04 -2.106563E+04
       320   8  7.666767E+05 -1.377228E+05 -8.720955E+04 -2.680144E+04 -4.003067E+04 -2.510844E+04
       320   9  6.877298E+05 -1.376591E+05 -7.206155E+04 -4.225138E+04 -5.894479E+04 -2.811610E+04
       320  10  1.800062E+06  1.149114E+05  1.303790E+05 -4.535585E+04  1.618741E-10 -1.185885E-10
       320  11  1.878913E+06  1.349045E+05  1.653288E+05 -2.991718E+04 -1.730137E-09 -5.237157E-10
       320  12  1.965816E+06  1.757570E+05  2.188736E+05 -5.513477E+04 -9.918479E-10 -3.533316E-11
       320  13  1.326634E+06 -1.129694E+03  2.276483E+04 -4.868552E+04  5.967396E-10 -1.794020E-10
       320  14  1.322651E+06 -1.399053E+03  3.906754E+04 -2.835901E+04 -1.163777E-09 -5.710297E-10
       320  15  1.326582E+06  1.906210E+04  7.341529E+04 -4.869040E+04 -2.172391E-10  1.499430E-10
       320  16  8.534133E+05 -1.171862E+05 -8.486387E+04 -5.201262E+04 -3.023207E-10 -3.430750E-10
       320  17  7.666748E+05 -1.377239E+05 -8.721374E+04 -2.680225E+04  5.232304E-10 -3.651782E-10
       320  18  6.877259E+05 -1.376609E+05 -7.206955E+04 -4.225271E+04  1.199781E-09  7.650162E-10
       320  19  1.800063E+06  1.149120E+05  1.303802E+05 -4.535561E+04  1.411564E+04  2.106431E+04
       320  20  1.878914E+06  1.349055E+05  1.653323E+05 -2.991648E+04  3.465907E+04  2.510440E+04
       320  21  1.965819E+06  1.757587E+05  2.188808E+05 -5.513353E+04  5.520269E+04  2.810961E+04
       320  22  1.326634E+06 -1.129135E+03  2.276624E+04 -4.868522E+04  1.761492E+04  2.106499E+04
       320  23  1.322652E+06 -1.398002E+03  3.907134E+04 -2.835826E+04  3.734607E+04  2.510641E+04
       320  24  1.326585E+06  1.906382E+04  7.342289E+04 -4.868911E+04  5.707470E+04  2.811284E+04
       320  25  8.534138E+05 -1.171856E+05 -8.486220E+04 -5.201226E+04  2.111155E+04  2.106563E+04
       320  26  7.666767E+05 -1.377228E+05 -8.720955E+04 -2.680144E+04  4.003067E+04  2.510844E+04
       320  27  6.877298E+05 -1.376591E+05 -7.206155E+04 -4.225138E+04  5.894479E+04  2.811610E+04
       321   1  2.059368E+06  1.601892E+05  2.535709E+05 -7.299671E+03 -6.161768E+04 -3.312044E+04
       321   2  2.101001E+06  1.814471E+05  3.354490E+05 -6.682363E+04 -1.605148E+05 -3.341234E+04
       321   3  2.229458E+06  4.973196E+05  5.553056E+05 -1.673647E+05 -2.594514E+05 -1.104854E+04
       321   4  1.343480E+06 -1.518480E+04  9.148540E+04 -4.869103E+04 -7.046556E+04 -3.312336E+04
       321   5  1.301429E+06 -1.465456E+04  1.526143E+05 -2.832605E+04 -1.518428E+05 -3.341827E+04
       321   6  1.343264E+06  2.776373E+05  3.396892E+05 -4.896504E+04 -2.332432E+05 -1.106987E+04
       321   7  6.280700E+05 -1.905876E+05 -7.063186E+04 -9.003438E+04 -7.930331E+04 -3.312511E+04
       321   8  5.024507E+05 -2.107949E+05 -3.026120E+04  1.012157E+04 -1.431818E+05 -3.342314E+04
       321   9  4.578163E+05  5.795058E+04  1.240261E+05  6.926559E+04 -2.070720E+05 -1.108128E+04
       321  10  2.059363E+06  1.601870E+05  2.535617E+05 -7.301313E+03  5.740031E-10  1.616257E-10
       321  11  2.100974E+06  1.814390E+05  3.353987E+05 -6.682795E+04  7.365821E-10 -1.201073E-10
       321  12  2.229386E+06  4.973015E+05  5.551793E+05 -1.673670E+05  1.238527E-09  3.884987E-10
       321  13  1.343474E+06 -1.518731E+04  9.147403E+04 -4.869290E+04 -1.694792E-09 -6.028232E-10
       321  14  1.301404E+06 -1.466193E+04  1.525690E+05 -2.833013E+04  2.045835E-11 -1.208222E-10
       321  15  1.343206E+06  2.776227E+05  3.395870E+05 -4.896711E+04  8.858144E-10 -6.024117E-10
       321  16  6.280630E+05 -1.905904E+05 -7.064573E+04 -9.003650E+04 -1.836645E-09  4.286758E-10
       321  17  5.024284E+05 -2.108016E+05 -3.030179E+04  1.011772E+04 -1.918820E-09 -9.062949E-10
       321  18  4.577703E+05  5.793895E+04  1.239454E+05  6.926374E+04  2.620387E-10  7.497621E-10
       321  19  2.059368E+06  1.601892E+05  2.535709E+05 -7.299671E+03  6.161768E+04  3.312044E+04
       321  20  2.101001E+06  1.814471E+05  3.354490E+05 -6.682363E+04  1.605148E+05  3.341234E+04
       321  21  2.229458E+06  4.973196E+05  5.553056E+05 -1.673647E+05  2.594514E+05  1.104854E+04
       321  22  1.343480E+06 -1.518480E+04  9.148540E+04 -4.869103E+04  7.046556E+04  3.312336E+04
       321  23  1.301429E+06 -1.465456E+04  1.526143E+05 -2.832605E+04  1.518428E+05  3.341827E+04
       321  24  1.343264E+06  2.776373E+05  3.396892E+05 -4.896504E+04  2.332432E+05  1.106987E+04
       321  25  6.280700E+05 -1.905876E+05 -7.063186E+04 -9.003438E+04  7.930331E+04  3.312511E+04
       321  26  5.024507E+05 -2.107949E+05 -3.026120E+04  1.012157E+04  1.431818E+05  3.342314E+04
       321  27  4.578163E+05  5.795058E+04  1.240261E+05  6.926559E+04  2.070720E+05  1.108128E+04
       322   1  2.077496E+05  5.518948E+05  2.478132E+05 -1.584456E+05 -5.511122E+01  1.469166E+05
       322   2 -1.554939E+04  3.878224E+05  9.655804E+04 -7.318106E+04 -1.894927E+03  8.928389E+04
       322   3 -4.882517E+04  2.784859E+05  3.024885E+04 -5.479783E+04 -7.967295E+03  3.165575E+04
       322   4  1.797515E+05  4.411219E+05  2.201858E+05 -8.120556E+04 -3.665544E+01  1.467888E+05
       322   5 -9.277008E+03  4.140546E+05  1.022242E+05 -4.793037E+04 -1.896682E+03  9.241136E+04
       322   6 -8.852509E+03  4.411534E+05  6.696373E+04 -8.152270E+04 -7.979593E+03  3.802609E+04
       322   7  1.517749E+05  3.303729E+05  1.925607E+05 -3.979347E+03 -1.822856E+01  1.466611E+05
       322   8 -3.002269E+03  4.402888E+05  1.078908E+05 -2.267861E+04 -1.898182E+03  9.553896E+04
       322   9  3.112103E+04  6.038472E+05  1.036775E+05 -1.082546E+05 -7.992438E+03  4.439808E+04
       322  10  2.077439E+05  5.518717E+05  2.477727E+05 -1.584456E+05 -3.405148E-10 -1.053356E-11
       322  11 -1.555153E+04  3.878139E+05  9.654306E+04 -7.318093E+04 -9.735856E-10 -1.958697E-10
       322  12 -4.882551E+04  2.784848E+05  3.024684E+04 -5.479763E+04  7.074910E-10  3.891302E-10
       322  13  1.797457E+05  4.410988E+05  2.201454E+05 -8.120556E+04  6.179523E-10  1.735436E-09
       322  14 -9.279303E+03  4.140454E+05  1.022082E+05 -4.793023E+04 -2.202266E-10 -9.649682E-10
       322  15 -8.852965E+03  4.411519E+05  6.696090E+04 -8.152245E+04  5.825760E-10  9.652702E-10
       322  16  1.517691E+05  3.303498E+05  1.925203E+05 -3.979344E+03 -2.043277E-11  9.471533E-10
       322  17 -3.004721E+03  4.402790E+05  1.078736E+05 -2.267846E+04  1.397176E-09  6.803364E-10
       322  18  3.112043E+04  6.038450E+05  1.036736E+05 -1.082543E+05 -3.688829E-10 -1.659173E-09
       322  19  2.077496E+05  5.518948E+05  2.478132E+05 -1.584456E+05  5.511122E+01 -1.469166E+05
       322  20 -1.554939E+04  3.878224E+05  9.655804E+04 -7.318106E+04  1.894927E+03 -8.928389E+04
       322  21 -4.882517E+04  2.784859E+05  3.024885E+04 -5.479783E+04  7.967295E+03 -3.165575E+04
       322  22  1.797515E+05  4.411219E+05  2.201858E+05 -8.120556E+04  3.665544E+01 -1.467888E+05
       322  23 -9.277008E+03  4.140546E+05  1.022242E+05 -4.793037E+04  1.896682E+03 -9.241136E+04
       322  24 -8.852509E+03  4.411534E+05  6.696373E+04 -8.152270E+04  7.979593E+03 -3.802609E+04
       322  25  1.517749E+05  3.303729E+05  1.925607E+05 -3.979347E+03  1.822856E+01 -1.466611E+05
       322  26 -3.002269E+03  4.402888E+05  1.078908E+05 -2.267861E+04  1.898182E+03 -9.553896E+04
       322  27  3.112103E+04  6.038472E+05  1.036775E+05 -1.082546E+05  7.992438E+03 -4.439808E+04
       323   1 -5.851624E+04  1.433078E+05 -7.585074E+03 -8.712328E+04 -1.263703E+04  2.232505E+04
       323   2 -1.056420E+05  1.972000E+03 -5.252381E+04 -4.765595E+04 -1.917003E+04  8.316562E+02
       323   3 -1.289355E+05 -1.307333E+05 -7.754884E+04 -7.547823E+04 -2.473091E+04 -2.065164E+04
       323   4  1.210981E+04  4.310377E+05  5.801980E+04 -8.152100E+04 -1.264558E+04  2.775464E+04
       323   5 -1.412028E+03  4.266524E+05  4.403637E+04 -4.788103E+04 -1.917609E+04  5.503162E+03
       323   6  9.022466E+03  4.310068E+05  5.048700E+04 -8.152656E+04 -2.473445E+04 -1.674283E+04
       323   7  8.273027E+04  7.188444E+05  1.236194E+05 -7.591607E+04 -1.265403E+04  3.318672E+04
       323   8  1.028055E+05  8.515001E+05  1.405849E+05 -4.810620E+04 -1.918215E+04  1.017783E+04
       323   9  1.469587E+05  9.930397E+05  1.785024E+05 -8.758029E+04 -2.473806E+04 -1.283051E+04
       323  10 -5.851654E+04  1.433072E+05 -7.586311E+03 -8.712305E+04  4.806870E-11 -3.989179E-11
       323  11 -1.056424E+05  1.971900E+03 -5.252450E+04 -4.765593E+04 -1.522540E-10 -6.443138E-10
       323  12 -1.289362E+05 -1.307339E+05 -7.755079E+04 -7.547864E+04 -4.794129E-10 -5.882497E-11
       323  13  1.210943E+04  4.310368E+05  5.801805E+04 -8.152072E+04  8.077669E-11  1.721680E-09
       323  14 -1.412431E+03  4.266523E+05  4.403562E+04 -4.788095E+04  5.803385E-10 -8.189461E-10
       323  15  9.021734E+03  4.310064E+05  5.048533E+04 -8.152689E+04  5.468336E-10  6.367137E-10
       323  16  8.272980E+04  7.188432E+05  1.236170E+05 -7.591574E+04 -1.675443E-10  9.678175E-10
       323  17  1.028050E+05  8.514999E+05  1.405840E+05 -4.810605E+04 -9.737243E-10  9.982135E-10
       323  18  1.469580E+05  9.930393E+05  1.785009E+05 -8.758055E+04 -4.602145E-10 -9.154516E-10
       323  19 -5.851624E+04  1.433078E+05 -7.585074E+03 -8.712328E+04  1.263703E+04 -2.232505E+04
       323  20 -1.056420E+05  1.972000E+03 -5.252381E+04 -4.765595E+04  1.917003E+04 -8.316562E+02
       323  21 -1.289355E+05 -1.307333E+05 -7.754884E+04 -7.547823E+04  2.473091E+04  2.065164E+04
       323  22  1.210981E+04  4.310377E+05  5.801980E+04 -8.152100E+04  1.264558E+04 -2.775464E+04
       323  23 -1.412028E+03  4.266524E+05  4.403637E+04 -4.788103E+04  1.917609E+04 -5.503162E+03
       323  24  9.022466E+03  4.310068E+05  5.048700E+04 -8.152656E+04  2.473445E+04  1.674283E+04
       323  25  8.273027E+04  7.188444E+05  1.236194E+05 -7.591607E+04  1.265403E+04 -3.318672E+04
       323  26  1.028055E+05  8.515001E+05  1.405849E+05 -4.810620E+04  1.918215E+04 -1.017783E+04
       323  27  1.469587E+05  9.930397E+05  1.785024E+05 -8.758029E+04  2.473806E+04  1.283051E+04
       324   1 -1.752158E+05 -2.489017E+05 -1.000016E+05 -1.013122E+05 -3.161419E+04 -3.712613E+04
       324   2 -2.099047E+05 -4.062863E+05 -1.078556E+05 -2.792110E+04 -3.408194E+04 -6.071510E+04
       324   3 -1.007877E+05 -5.243924E+05 -6.433849E+04 -2.115971E+04 -1.132817E+04 -8.428229E+04
       324   4 -6.606249E+03  4.384917E+05  5.598695E+04 -8.141229E+04 -3.162695E+04 -2.555327E+04
       324   5 -7.406533E+03  4.171651E+05  8.094915E+04 -4.805141E+04 -3.407014E+04 -6.855140E+04
       324   6  1.388584E+05  4.384033E+05  1.707048E+05 -8.130769E+04 -1.130368E+04 -1.115340E+05
       324   7  1.619723E+05  1.126325E+06  2.119457E+05 -6.148999E+04 -3.163897E+04 -1.396770E+04
       324   8  1.950459E+05  1.241245E+06  2.697098E+05 -6.820850E+04 -3.405785E+04 -7.639796E+04
       324   9  3.784501E+05  1.402054E+06  4.056853E+05 -1.415491E+05 -1.127393E+04 -1.388278E+05
       324  10 -1.752172E+05 -2.489034E+05 -1.000061E+05 -1.013131E+05  1.505206E-11  1.810072E-10
       324  11 -2.099069E+05 -4.062905E+05 -1.078648E+05 -2.792277E+04  2.345126E-10 -2.063732E-10
       324  12 -1.007898E+05 -5.244001E+05 -6.435209E+04 -2.116048E+04  1.478146E-10 -1.048965E-10
       324  13 -6.607498E+03  4.384907E+05  5.598385E+04 -8.141294E+04 -9.307608E-10  1.231069E-09
       324  14 -7.409041E+03  4.171598E+05  8.093814E+04 -4.805329E+04  2.732512E-11 -5.113084E-10
       324  15  1.388549E+05  4.383900E+05  1.706812E+05 -8.130871E+04 -1.976556E-10  3.539711E-10
       324  16  1.619712E+05  1.126324E+06  2.119435E+05 -6.149035E+04  8.772805E-11  3.832163E-10
       324  17  1.950431E+05  1.241239E+06  2.696966E+05 -6.821059E+04  1.260084E-10  2.721692E-10
       324  18  3.784448E+05  1.402033E+06  4.056489E+05 -1.415503E+05 -2.768550E-10 -2.366127E-10
       324  19 -1.752158E+05 -2.489017E+05 -1.000016E+05 -1.013122E+05  3.161419E+04  3.712613E+04
       324  20 -2.099047E+05 -4.062863E+05 -1.078556E+05 -2.792110E+04  3.408194E+04  6.071510E+04
       324  21 -1.007877E+05 -5.243924E+05 -6.433849E+04 -2.115971E+04  1.132817E+04  8.428229E+04
       324  22 -6.606249E+03  4.384917E+05  5.598695E+04 -8.141229E+04  3.162695E+04  2.555327E+04
       324  23 -7.406533E+03  4.171651E+05  8.094915E+04 -4.805141E+04  3.407014E+04  6.855140E+04
       324  24  1.388584E+05  4.384033E+05  1.707048E+05 -8.130769E+04  1.130368E+04  1.115340E+05
       324  25  1.619723E+05  1.126325E+06  2.119457E+05 -6.148999E+04  3.163897E+04  1.396770E+04
       324  26  1.950459E+05  1.241245E+06  2.697098E+05 -6.820850E+04  3.405785E+04  7.639796E+04
       324  27  3.784501E+05  1.402054E+06  4.056853E+05 -1.415491E+05  1.127393E+04  1.388278E+05
       325   1 -2.707140E+06 -1.038549E+06 -5.673568E+05 -1.051496E+06 -2.718455E+05 -8.363057E+04
       325   2 -2.634613E+06 -7.441066E+05 -3.443844E+05 -1.017879E+06 -1.728280E+05 -3.310900E+03
       325   3 -2.623672E+06 -6.254481E+05 -2.498841E+05 -9.617337E+05 -6.296588E+04  4.831377E+04
       325   4 -1.736239E+06 -5.322168E+05 -2.890567E+05 -6.408898E+05 -1.927398E+05 -5.391678E+04
       325   5 -1.693799E+06 -3.364204E+05 -1.329642E+05 -6.943414E+05 -1.373504E+05  1.001382E+04
       325   6 -1.704172E+06 -3.076120E+05 -7.056204E+04 -7.253004E+05 -7.113717E+04  4.523174E+04
       325   7 -7.643679E+05 -2.553600E+04 -1.082081E+04 -2.296175E+05 -1.135003E+05 -2.410714E+04
       325   8 -7.520671E+05  7.143978E+04  7.840603E+04 -3.703165E+05 -1.018148E+05  2.336924E+04
       325   9 -7.837838E+05  1.028026E+04  1.087254E+05 -4.885480E+05 -7.932157E+04  4.214540E+04
       325  10 -2.707222E+06 -1.038576E+06 -5.675096E+05 -1.051515E+06  5.026326E-11  7.428985E-10
       325  11 -2.634646E+06 -7.441147E+05 -3.444408E+05 -1.017879E+06 -7.470597E-09 -2.437602E-09
       325  12 -2.623677E+06 -6.254517E+05 -2.498959E+05 -9.617313E+05 -7.016587E-09 -1.628770E-09
       325  13 -1.736280E+06 -5.322299E+05 -2.891322E+05 -6.408982E+05 -2.294845E-09 -8.001041E-10
       325  14 -1.693820E+06 -3.364256E+05 -1.329999E+05 -6.943403E+05 -8.270349E-09 -9.131469E-10
       325  15 -1.704178E+06 -3.076155E+05 -7.057540E+04 -7.252978E+05 -3.317018E-09 -2.793410E-10
       325  16 -7.643819E+05 -2.554009E+04 -1.084615E+04 -2.296197E+05 -6.303775E-09 -1.562455E-09
       325  17 -7.520784E+05  7.143641E+04  7.838551E+04 -3.703146E+05 -7.645476E-09 -2.826716E-09
       325  18 -7.837910E+05  1.027667E+04  1.087103E+05 -4.885453E+05  8.654065E-10  6.106502E-10
       325  19 -2.707140E+06 -1.038549E+06 -5.673568E+05 -1.051496E+06  2.718455E+05  8.363057E+04
       325  20 -2.634613E+06 -7.441066E+05 -3.443844E+05 -1.017879E+06  1.728280E+05  3.310900E+03
       325  21 -2.623672E+06 -6.254481E+05 -2.498841E+05 -9.617337E+05  6.296588E+04 -4.831377E+04
       325  22 -1.736239E+06 -5.322168E+05 -2.890567E+05 -6.408898E+05  1.927398E+05  5.391678E+04
       325  23 -1.693799E+06 -3.364204E+05 -1.329642E+05 -6.943414E+05  1.373504E+05 -1.001382E+04
       325  24 -1.704172E+06 -3.076120E+05 -7.056204E+04 -7.253004E+05  7.113717E+04 -4.523174E+04
       325  25 -7.643679E+05 -2.553600E+04 -1.082081E+04 -2.296175E+05  1.135003E+05  2.410714E+04
       325  26 -7.520671E+05  7.143978E+04  7.840603E+04 -3.703165E+05  1.018148E+05 -2.336924E+04
       325  27 -7.837838E+05  1.028026E+04  1.087254E+05 -4.885480E+05  7.932157E+04 -4.214540E+04
       326   1 -2.542125E+06 -6.262463E+05 -2.209183E+05 -9.584579E+05 -5.850988E+04  4.621673E+04
       326   2 -2.464656E+06 -5.771275E+05 -1.760300E+05 -9.268208E+05 -3.977468E+04  4.954997E+04
       326   3 -2.377074E+06 -5.511340E+05 -1.462690E+05 -9.112816E+05 -2.022485E+04  5.071418E+04
       326   4 -1.695415E+06 -3.134138E+05 -5.359611E+04 -7.196006E+05 -6.184536E+04  4.495330E+04
       326   5 -1.700099E+06 -2.974629E+05 -2.829145E+04 -7.133093E+05 -4.639319E+04  4.705488E+04
       326   6 -1.694016E+06 -3.039760E+05 -1.549016E+04 -7.231169E+05 -3.012953E+04  4.698777E+04
       326   7 -8.479596E+05 -5.133827E+02  1.136929E+05 -4.804386E+05 -6.518572E+04  4.368801E+04
       326   8 -9.349343E+05 -1.774581E+04  1.194208E+05 -4.995534E+05 -5.302043E+04  4.455649E+04
       326   9 -1.010477E+06 -5.677975E+04  1.152676E+05 -5.347616E+05 -4.004583E+04  4.325708E+04
       326  10 -2.542129E+06 -6.262496E+05 -2.209288E+05 -9.584557E+05  4.776378E-11  1.622134E-09
       326  11 -2.464659E+06 -5.771305E+05 -1.760376E+05 -9.268192E+05 -4.069821E-10  7.785776E-10
       326  12 -2.377075E+06 -5.511369E+05 -1.462746E+05 -9.112807E+05 -6.460040E-10  2.993509E-10
       326  13 -1.695420E+06 -3.134170E+05 -5.360710E+04 -7.195984E+05 -2.667671E-10  6.759042E-10
       326  14 -1.700102E+06 -2.974658E+05 -2.829965E+04 -7.133075E+05 -1.297748E-10  4.683353E-10
       326  15 -1.694017E+06 -3.039787E+05 -1.549601E+04 -7.231157E+05 -3.984539E-10  4.348055E-10
       326  16 -8.479646E+05 -5.165700E+02  1.136813E+05 -4.804363E+05  1.126148E-10 -3.476075E-10
       326  17 -9.349379E+05 -1.774869E+04  1.194118E+05 -4.995515E+05  8.575609E-10  1.619106E-10
       326  18 -1.010479E+06 -5.678218E+04  1.152610E+05 -5.347602E+05  1.660982E-10  4.560721E-10
       326  19 -2.542125E+06 -6.262463E+05 -2.209183E+05 -9.584579E+05  5.850988E+04 -4.621673E+04
       326  20 -2.464656E+06 -5.771275E+05 -1.760300E+05 -9.268208E+05  3.977468E+04 -4.954997E+04
       326  21 -2.377074E+06 -5.511340E+05 -1.462690E+05 -9.112816E+05  2.022485E+04 -5.071418E+04
       326  22 -1.695415E+06 -3.134138E+05 -5.359611E+04 -7.196006E+05  6.184536E+04 -4.495330E+04
       326  23 -1.700099E+06 -2.974629E+05 -2.829145E+04 -7.133093E+05  4.639319E+04 -4.705488E+04
       326  24 -1.694016E+06 -3.039760E+05 -1.549016E+04 -7.231169E+05  3.012953E+04 -4.698777E+04
       326  25 -8.479596E+05 -5.133827E+02  1.136929E+05 -4.804386E+05  6.518572E+04 -4.368801E+04
       326  26 -9.349343E+05 -1.774581E+04  1.194208E+05 -4.995534E+05  5.302043E+04 -4.455649E+04
       326  27 -1.010477E+06 -5.677975E+04  1.152676E+05 -5.347616E+05  4.004583E+04 -4.325708E+04
       327   1 -2.319332E+06 -5.316620E+05 -1.311676E+05 -8.962780E+05 -1.696982E+04  4.759748E+04
       327   2 -2.242179E+06 -4.929286E+05 -1.097427E+05 -8.640647E+05 -1.111669E+04  4.252927E+04
       327   3 -2.150138E+06 -4.700338E+05 -9.098159E+04 -8.495425E+05 -5.199480E+03  3.728263E+04
       327   4 -1.693330E+06 -3.042741E+05 -1.165067E+04 -7.227961E+05 -2.653812E+04  4.399929E+04
       327   5 -1.700759E+06 -2.962493E+05 -6.404060E+03 -7.139908E+05 -2.095366E+04  3.883278E+04
       327   6 -1.693256E+06 -3.040098E+05 -3.606958E+03 -7.228789E+05 -1.530567E+04  3.348777E+04
       327   7 -1.066913E+06 -7.684884E+04  1.078518E+05 -5.491496E+05 -3.611687E+04  4.039719E+04
       327   8 -1.159030E+06 -9.954272E+04  9.692341E+04 -5.637943E+05 -3.079989E+04  3.513284E+04
       327   9 -1.236156E+06 -1.379669E+05  8.375935E+04 -5.961284E+05 -2.541985E+04  2.968992E+04
       327  10 -2.319333E+06 -5.316645E+05 -1.311724E+05 -8.962774E+05  3.062252E-10  1.195726E-10
       327  11 -2.242179E+06 -4.929306E+05 -1.097463E+05 -8.640643E+05 -1.361685E-09  2.182743E-11
       327  12 -2.150138E+06 -4.700353E+05 -9.098425E+04 -8.495423E+05  3.950071E-10 -1.181986E-10
       327  13 -1.693332E+06 -3.042764E+05 -1.165563E+04 -7.227951E+05 -8.447969E-11  2.053498E-10
       327  14 -1.700760E+06 -2.962511E+05 -6.407716E+03 -7.139902E+05  6.492710E-10 -6.786908E-11
       327  15 -1.693257E+06 -3.040111E+05 -3.609503E+03 -7.228784E+05 -3.633788E-11 -4.141888E-10
       327  16 -1.066915E+06 -7.685094E+04  1.078463E+05 -5.491484E+05  1.781668E-10  1.163981E-10
       327  17 -1.159031E+06 -9.954430E+04  9.691931E+04 -5.637935E+05  8.854678E-11 -2.963028E-11
       327  18 -1.236157E+06 -1.379681E+05  8.375648E+04 -5.961278E+05  3.837152E-10 -6.603204E-10
       327  19 -2.319332E+06 -5.316620E+05 -1.311676E+05 -8.962780E+05  1.696982E+04 -4.759748E+04
       327  20 -2.242179E+06 -4.929286E+05 -1.097427E+05 -8.640647E+05  1.111669E+04 -4.252927E+04
       327  21 -2.150138E+06 -4.700338E+05 -9.098159E+04 -8.495425E+05  5.199480E+03 -3.728263E+04
       327  22 -1.693330E+06 -3.042741E+05 -1.165067E+04 -7.227961E+05  2.653812E+04 -4.399929E+04
       327  23 -1.700759E+06 -2.962493E+05 -6.404060E+03 -7.139908E+05  2.095366E+04 -3.883278E+04
       327  24 -1.693256E+06 -3.040098E+05 -3.606958E+03 -7.228789E+05  1.530567E+04 -3.348777E+04
       327  25 -1.066913E+06 -7.684884E+04  1.078518E+05 -5.491496E+05  3.611687E+04 -4.039719E+04
       327  26 -1.159030E+06 -9.954272E+04  9.692341E+04 -5.637943E+05  3.079989E+04 -3.513284E+04
       327  27 -1.236156E+06 -1.379669E+05  8.375935E+04 -5.961284E+05  2.541985E+04 -2.968992E+04
       328   1 -2.093388E+06 -4.494319E+05 -7.887089E+04 -8.338991E+05 -3.227939E+03  3.361235E+04
       328   2 -2.016006E+06 -4.108036E+05 -6.182062E+04 -8.014197E+05  1.583473E+02  2.730966E+04
       328   3 -1.923210E+06 -3.877163E+05 -4.543615E+04 -7.867293E+05  3.550940E+03  2.098468E+04
       328   4 -1.693149E+06 -3.040325E+05 -2.774523E+03 -7.228665E+05 -1.332605E+04  2.982180E+04
       328   5 -1.700846E+06 -2.962583E+05 -1.731119E+03 -7.139694E+05 -9.973415E+03  2.350807E+04
       328   6 -1.693130E+06 -3.040189E+05 -1.326992E+03 -7.228639E+05 -6.614593E+03  1.717200E+04
       328   7 -1.292747E+06 -1.586199E+05  7.331467E+04 -6.117682E+05 -2.343105E+04  2.602868E+04
       328   8 -1.385582E+06 -1.817040E+05  5.835468E+04 -6.264777E+05 -2.011070E+04  1.970442E+04
       328   9 -1.462992E+06 -2.203159E+05  4.278092E+04 -6.589758E+05 -1.678426E+04  1.335776E+04
       328  10 -2.093388E+06 -4.494331E+05 -7.887303E+04 -8.338990E+05 -1.602236E-09 -4.249594E-10
       328  11 -2.016006E+06 -4.108044E+05 -6.182203E+04 -8.014197E+05 -5.513177E-10  4.033373E-11
       328  12 -1.923210E+06 -3.877168E+05 -4.543700E+04 -7.867293E+05  1.088628E-09 -6.122270E-11
       328  13 -1.693150E+06 -3.040335E+05 -2.776526E+03 -7.228662E+05 -8.754865E-11 -2.091145E-10
       328  14 -1.700846E+06 -2.962589E+05 -1.732344E+03 -7.139692E+05 -1.029470E-09 -3.210628E-11
       328  15 -1.693130E+06 -3.040193E+05 -1.327627E+03 -7.228638E+05 -2.261471E-10 -2.505188E-10
       328  16 -1.292747E+06 -1.586208E+05  7.331236E+04 -6.117677E+05  1.808428E-09  6.731792E-11
       328  17 -1.385583E+06 -1.817045E+05  5.835319E+04 -6.264774E+05  1.262564E-11  4.634559E-10
       328  18 -1.462992E+06 -2.203162E+05  4.278006E+04 -6.589756E+05 -1.465663E-09 -4.525229E-11
       328  19 -2.093388E+06 -4.494319E+05 -7.887089E+04 -8.338991E+05  3.227939E+03 -3.361235E+04
       328  20 -2.016006E+06 -4.108036E+05 -6.182062E+04 -8.014197E+05 -1.583473E+02 -2.730966E+04
       328  21 -1.923210E+06 -3.877163E+05 -4.543615E+04 -7.867293E+05 -3.550940E+03 -2.098468E+04
       328  22 -1.693149E+06 -3.040325E+05 -2.774523E+03 -7.228665E+05  1.332605E+04 -2.982180E+04
       328  23 -1.700846E+06 -2.962583E+05 -1.731119E+03 -7.139694E+05  9.973415E+03 -2.350807E+04
       328  24 -1.693130E+06 -3.040189E+05 -1.326992E+03 -7.228639E+05  6.614593E+03 -1.717200E+04
       328  25 -1.292747E+06 -1.586199E+05  7.331467E+04 -6.117682E+05  2.343105E+04 -2.602868E+04
       328  26 -1.385582E+06 -1.817040E+05  5.835468E+04 -6.264777E+05  2.011070E+04 -1.970442E+04
       328  27 -1.462992E+06 -2.203159E+05  4.278092E+04 -6.589758E+05  1.678426E+04 -1.335776E+04
       329   1 -1.866327E+06 -3.669751E+05 -3.409602E+04 -7.710020E+05  5.236120E+03  1.718539E+04
       329   2 -1.788699E+06 -3.282426E+05 -1.838558E+04 -7.384465E+05  8.544606E+03  1.081403E+04
       329   3 -1.695620E+06 -3.050847E+05 -3.276959E+03 -7.237345E+05  1.185118E+04  4.446176E+03
       329   4 -1.693116E+06 -3.040225E+05 -1.309932E+03 -7.228757E+05 -4.937807E+03  1.337015E+04
       329   5 -1.700833E+06 -2.962124E+05 -1.629329E+03 -7.139599E+05 -1.624399E+03  7.001084E+03
       329   6 -1.693106E+06 -3.039783E+05 -2.554735E+03 -7.228903E+05  1.686972E+03  6.354991E+02
       329   7 -1.519874E+06 -2.410670E+05  3.147536E+04 -6.747367E+05 -1.511477E+04  9.553765E+03
       329   8 -1.612958E+06 -2.641815E+05  1.512693E+04 -6.894701E+05 -1.179490E+04  3.187572E+03
       329   9 -1.690592E+06 -3.028718E+05 -1.832075E+03 -7.220461E+05 -8.477193E+03 -3.175167E+03
       329  10 -1.866327E+06 -3.669755E+05 -3.409662E+04 -7.710021E+05 -2.586625E-10 -5.626481E-10
       329  11 -1.788699E+06 -3.282428E+05 -1.838594E+04 -7.384466E+05 -1.585226E-10  1.534489E-10
       329  12 -1.695620E+06 -3.050848E+05 -3.277261E+03 -7.237346E+05  1.701070E-11 -1.277201E-10
       329  13 -1.693116E+06 -3.040227E+05 -1.310314E+03 -7.228756E+05 -6.957654E-10 -4.595623E-10
       329  14 -1.700833E+06 -2.962124E+05 -1.629426E+03 -7.139599E+05 -1.541499E-10  3.519655E-10
       329  15 -1.693106E+06 -3.039783E+05 -2.554742E+03 -7.228903E+05  5.104081E-10  5.315043E-10
       329  16 -1.519875E+06 -2.410672E+05  3.147475E+04 -6.747366E+05  4.310631E-10  2.779789E-10
       329  17 -1.612959E+06 -2.641815E+05  1.512665E+04 -6.894701E+05  6.402587E-11  2.517200E-10
       329  18 -1.690592E+06 -3.028719E+05 -1.832230E+03 -7.220461E+05 -5.451045E-10  2.314730E-10
       329  19 -1.866327E+06 -3.669751E+05 -3.409602E+04 -7.710020E+05 -5.236120E+03 -1.718539E+04
       329  20 -1.788699E+06 -3.282426E+05 -1.838558E+04 -7.384465E+05 -8.544606E+03 -1.081403E+04
       329  21 -1.695620E+06 -3.050847E+05 -3.276959E+03 -7.237345E+05 -1.185118E+04 -4.446176E+03
       329  22 -1.693116E+06 -3.040225E+05 -1.309932E+03 -7.228757E+05  4.937807E+03 -1.337015E+04
       329  23 -1.700833E+06 -2.962124E+05 -1.629329E+03 -7.139599E+05  1.624399E+03 -7.001084E+03
       329  24 -1.693106E+06 -3.039783E+05 -2.554735E+03 -7.228903E+05 -1.686972E+03 -6.354991E+02
       329  25 -1.519874E+06 -2.410670E+05  3.147536E+04 -6.747367E+05  1.511477E+04 -9.553765E+03
       329  26 -1.612958E+06 -2.641815E+05  1.512693E+04 -6.894701E+05  1.179490E+04 -3.187572E+03
       329  27 -1.690592E+06 -3.028718E+05 -1.832075E+03 -7.220461E+05  8.477193E+03  3.175167E+03
       330   1 -1.638684E+06 -2.843387E+05  7.313116E+03 -7.080526E+05  1.381136E+04  7.466947E+02
       330   2 -1.560870E+06 -2.456123E+05  2.085500E+04 -6.755027E+05  1.904269E+04 -4.847085E+03
       330   3 -1.467960E+06 -2.227352E+05  3.228188E+04 -6.608094E+05  2.423511E+04 -1.033350E+04
       330   4 -1.693181E+06 -3.039645E+05 -3.306394E+03 -7.229246E+05  3.630524E+03 -3.070288E+03
       330   5 -1.700727E+06 -2.961158E+05 -5.836293E+03 -7.139620E+05  9.023635E+03 -8.604133E+03
       330   6 -1.693219E+06 -3.041507E+05 -1.061107E+04 -7.228600E+05  1.437741E+04 -1.403072E+04
       330   7 -1.747676E+06 -3.235901E+05 -1.392573E+04 -7.377955E+05 -6.549440E+03 -6.886955E+03
       330   8 -1.840564E+06 -3.466178E+05 -3.252816E+04 -7.524134E+05 -9.930482E+02 -1.236030E+04
       330   9 -1.918425E+06 -3.855616E+05 -5.350573E+04 -7.848897E+05  4.523539E+03 -1.772653E+04
       330  10 -1.638684E+06 -2.843388E+05  7.312755E+03 -7.080526E+05 -4.774051E-10 -4.537467E-10
       330  11 -1.560870E+06 -2.456124E+05  2.085428E+04 -6.755026E+05  3.065562E-10  1.360104E-10
       330  12 -1.467961E+06 -2.227355E+05  3.228057E+04 -6.608092E+05 -5.304513E-10 -2.446437E-10
       330  13 -1.693181E+06 -3.039645E+05 -3.306437E+03 -7.229246E+05 -8.253752E-11  3.807601E-11
       330  14 -1.700727E+06 -2.961159E+05 -5.836585E+03 -7.139620E+05  1.535912E-09  6.378693E-10
       330  15 -1.693219E+06 -3.041509E+05 -1.061183E+04 -7.228598E+05  5.182142E-10  1.190078E-10
       330  16 -1.747676E+06 -3.235902E+05 -1.392590E+04 -7.377955E+05  5.399614E-10  7.117879E-10
       330  17 -1.840564E+06 -3.466179E+05 -3.252845E+04 -7.524134E+05 -5.343170E-11  2.031714E-10
       330  18 -1.918425E+06 -3.855620E+05 -5.350636E+04 -7.848896E+05  5.008256E-11  1.970143E-11
       330  19 -1.638684E+06 -2.843387E+05  7.313116E+03 -7.080526E+05 -1.381136E+04 -7.466947E+02
       330  20 -1.560870E+06 -2.456123E+05  2.085500E+04 -6.755027E+05 -1.904269E+04  4.847085E+03
       330  21 -1.467960E+06 -2.227352E+05  3.228188E+04 -6.608094E+05 -2.423511E+04  1.033350E+04
       330  22 -1.693181E+06 -3.039645E+05 -3.306394E+03 -7.229246E+05 -3.630524E+03  3.070288E+03
       330  23 -1.700727E+06 -2.961158E+05 -5.836293E+03 -7.139620E+05 -9.023635E+03  8.604133E+03
       330  24 -1.693219E+06 -3.041507E+05 -1.061107E+04 -7.228600E+05 -1.437741E+04  1.403072E+04
       330  25 -1.747676E+06 -3.235901E+05 -1.392573E+04 -7.377955E+05  6.549440E+03  6.886955E+03
       330  26 -1.840564E+06 -3.466178E+05 -3.252816E+04 -7.524134E+05  9.930482E+02  1.236030E+04
       330  27 -1.918425E+06 -3.855616E+05 -5.350573E+04 -7.848897E+05 -4.523539E+03  1.772653E+04
       331   1 -1.410902E+06 -2.024565E+05  4.014328E+04 -6.462262E+05  2.787574E+04 -1.336867E+04
       331   2 -1.334062E+06 -1.630346E+05  4.524726E+04 -6.108669E+05  4.094117E+04 -1.521514E+04
       331   3 -1.245463E+06 -1.452703E+05  4.062479E+04 -5.920481E+05  5.348942E+04 -1.567435E+04
       331   4 -1.693823E+06 -3.038934E+05 -1.410789E+04 -7.231837E+05  1.779417E+04 -1.715053E+04
       331   5 -1.700109E+06 -2.971283E+05 -2.574997E+04 -7.133166E+05  3.296590E+04 -1.820873E+04
       331   6 -1.695066E+06 -3.124435E+05 -4.879614E+04 -7.199940E+05  4.761884E+04 -1.787987E+04
       331   7 -1.976658E+06 -4.053228E+05 -6.836136E+04 -8.001080E+05  7.717621E+03 -2.093058E+04
       331   8 -2.066018E+06 -4.312096E+05 -9.675281E+04 -8.157100E+05  2.499568E+04 -2.120040E+04
       331   9 -2.144463E+06 -4.795982E+05 -1.382276E+05 -8.478541E+05  4.175276E+04 -2.008362E+04
       331  10 -1.410903E+06 -2.024569E+05  4.014148E+04 -6.462259E+05  3.998773E-10 -1.270120E-10
       331  11 -1.334063E+06 -1.630353E+05  4.524367E+04 -6.108664E+05 -8.386329E-10 -7.763113E-10
       331  12 -1.245466E+06 -1.452714E+05  4.061895E+04 -5.920474E+05 -4.989155E-10 -4.544182E-10
       331  13 -1.693824E+06 -3.038938E+05 -1.410904E+04 -7.231834E+05  4.286852E-10 -2.940322E-10
       331  14 -1.700111E+06 -2.971290E+05 -2.575263E+04 -7.133162E+05  3.078247E-10 -5.852236E-10
       331  15 -1.695068E+06 -3.124444E+05 -4.880101E+04 -7.199933E+05  1.087864E-10  1.198786E-10
       331  16 -1.976659E+06 -4.053233E+05 -6.836229E+04 -8.001079E+05 -1.465099E-10 -5.422975E-10
       331  17 -2.066018E+06 -4.312102E+05 -9.675483E+04 -8.157096E+05  1.430969E-09 -5.065051E-10
       331  18 -2.144465E+06 -4.795991E+05 -1.382316E+05 -8.478535E+05  3.726768E-10  6.507263E-10
       331  19 -1.410902E+06 -2.024565E+05  4.014328E+04 -6.462262E+05 -2.787574E+04  1.336867E+04
       331  20 -1.334062E+06 -1.630346E+05  4.524726E+04 -6.108669E+05 -4.094117E+04  1.521514E+04
       331  21 -1.245463E+06 -1.452703E+05  4.062479E+04 -5.920481E+05 -5.348942E+04  1.567435E+04
       331  22 -1.693823E+06 -3.038934E+05 -1.410789E+04 -7.231837E+05 -1.779417E+04  1.715053E+04
       331  23 -1.700109E+06 -2.971283E+05 -2.574997E+04 -7.133166E+05 -3.296590E+04  1.820873E+04
       331  24 -1.695066E+06 -3.124435E+05 -4.879614E+04 -7.199940E+05 -4.761884E+04  1.787987E+04
       331  25 -1.976658E+06 -4.053228E+05 -6.836136E+04 -8.001080E+05 -7.717621E+03  2.093058E+04
       331  26 -2.066018E+06 -4.312096E+05 -9.675281E+04 -8.157100E+05 -2.499568E+04  2.120040E+04
       331  27 -2.144463E+06 -4.795982E+05 -1.382276E+05 -8.478541E+05 -4.175276E+04  2.008362E+04
       332   1 -1.181378E+06 -1.335479E+05  3.703023E+04 -5.980656E+05  6.526401E+04 -1.530363E+04
       332   2 -1.143308E+06 -7.420515E+04  6.707974E+03 -4.861954E+05  9.931649E+04  1.307180E+03
       332   3 -1.145711E+06 -1.633890E+05 -8.662207E+04 -3.562839E+05  1.264506E+05  3.635537E+04
       332   4 -1.702948E+06 -3.072361E+05 -6.424385E+04 -7.252852E+05  5.628022E+04 -1.867650E+04
       332   5 -1.694431E+06 -3.324614E+05 -1.210458E+05 -6.959426E+05  1.184010E+05  8.459379E+03
       332   6 -1.732032E+06 -5.118941E+05 -2.631824E+05 -6.485552E+05  1.735938E+05  5.402829E+04
       332   7 -2.224240E+06 -4.809127E+05 -1.655304E+05 -8.524111E+05  4.730449E+04 -2.204696E+04
       332   8 -2.245224E+06 -5.906282E+05 -2.488139E+05 -9.054951E+05  1.374670E+05  1.560027E+04
       332   9 -2.317946E+06 -8.601713E+05 -4.397546E+05 -9.405122E+05  2.206867E+05  7.165770E+04
       332  10 -1.181383E+06 -1.335493E+05  3.702178E+04 -5.980648E+05  1.560774E-09  7.884859E-10
       332  11 -1.143319E+06 -7.420781E+04  6.689401E+03 -4.861955E+05  2.341014E-10  4.219932E-10
       332  12 -1.145728E+06 -1.633948E+05 -8.665467E+04 -3.562876E+05 -5.394600E-10  4.218407E-10
       332  13 -1.702952E+06 -3.072374E+05 -6.425047E+04 -7.252843E+05  7.526469E-10  3.579607E-10
       332  14 -1.694447E+06 -3.324653E+05 -1.210723E+05 -6.959434E+05 -4.087487E-10  4.826728E-10
       332  15 -1.732066E+06 -5.119054E+05 -2.632447E+05 -6.485628E+05 -4.269765E-10  2.328374E-10
       332  16 -2.224243E+06 -4.809139E+05 -1.655355E+05 -8.524103E+05 -1.615200E-09  4.786027E-11
       332  17 -2.245245E+06 -5.906335E+05 -2.488500E+05 -9.054968E+05  9.888345E-11 -3.112056E-10
       332  18 -2.318000E+06 -8.601899E+05 -4.398562E+05 -9.405250E+05 -3.323062E-10  1.384168E-10
       332  19 -1.181378E+06 -1.335479E+05  3.703023E+04 -5.980656E+05 -6.526401E+04  1.530363E+04
       332  20 -1.143308E+06 -7.420515E+04  6.707974E+03 -4.861954E+05 -9.931649E+04 -1.307180E+03
       332  21 -1.145711E+06 -1.633890E+05 -8.662207E+04 -3.562839E+05 -1.264506E+05 -3.635537E+04
       332  22 -1.702948E+06 -3.072361E+05 -6.424385E+04 -7.252852E+05 -5.628022E+04  1.867650E+04
       332  23 -1.694431E+06 -3.324614E+05 -1.210458E+05 -6.959426E+05 -1.184010E+05 -8.459379E+03
       332  24 -1.732032E+06 -5.118941E+05 -2.631824E+05 -6.485552E+05 -1.735938E+05 -5.402829E+04
       332  25 -2.224240E+06 -4.809127E+05 -1.655304E+05 -8.524111E+05 -4.730449E+04  2.204696E+04
       332  26 -2.245224E+06 -5.906282E+05 -2.488139E+05 -9.054951E+05 -1.374670E+05 -1.560027E+04
       332  27 -2.317946E+06 -8.601713E+05 -4.397546E+05 -9.405122E+05 -2.206867E+05 -7.165770E+04
       333   1  2.751892E+05  4.699203E+04  9.554826E+04  5.143609E+04  1.530534E+05  7.945226E+03
       333   2  3.073649E+05 -1.511807E+05 -1.851115E+04  7.695809E+03  1.056551E+05  2.394113E+04
       333   3  3.991734E+05 -1.365077E+05 -4.845350E+04 -6.592717E+04  5.826821E+04  2.367298E+04
       333   4  9.099591E+05  2.045280E+05  2.502094E+05 -3.562171E+04  1.717647E+05  7.944986E+03
       333   5  8.791435E+05 -1.077945E+04  1.124054E+05 -2.057054E+04  1.118114E+05  2.394060E+04
       333   6  9.100666E+05 -1.118363E+04  6.736887E+04 -3.539760E+04  5.187557E+04  2.366986E+04
       333   7  1.545113E+06  3.620631E+05  4.048467E+05 -1.227688E+05  1.904950E+05  7.939511E+03
       333   8  1.451227E+06  1.296022E+05  2.433011E+05 -4.886318E+04  1.179732E+05  2.393951E+04
       333   9  1.421204E+06  1.141260E+05  1.831750E+05 -4.842735E+03  4.547771E+04  2.366612E+04
       333  10  2.751640E+05  4.698568E+04  9.550414E+04  5.143511E+04  3.321726E-10 -1.239435E-09
       333  11  3.073528E+05 -1.511843E+05 -1.853320E+04  7.693772E+03 -9.470760E-10  2.924736E-10
       333  12  3.991696E+05 -1.365092E+05 -4.846093E+04 -6.592828E+04 -1.709429E-09 -4.676657E-10
       333  13  9.099275E+05  2.045200E+05  2.501539E+05 -3.562281E+04  9.462712E-10  7.784438E-10
       333  14  8.791300E+05 -1.078342E+04  1.123809E+05 -2.057269E+04 -2.303104E-10 -4.061963E-11
       333  15  9.100636E+05 -1.118495E+04  6.736277E+04 -3.539859E+04  2.429148E-10 -8.221743E-10
       333  16  1.545074E+06  3.620533E+05  4.047785E+05 -1.227700E+05 -2.564824E-10  7.758378E-10
       333  17  1.451211E+06  1.295978E+05  2.432739E+05 -4.886546E+04  1.229466E-09  1.645102E-10
       333  18  1.421202E+06  1.141248E+05  1.831701E+05 -4.843601E+03  2.995035E-09  1.411856E-09
       333  19  2.751892E+05  4.699203E+04  9.554826E+04  5.143609E+04 -1.530534E+05 -7.945226E+03
       333  20  3.073649E+05 -1.511807E+05 -1.851115E+04  7.695809E+03 -1.056551E+05 -2.394113E+04
       333  21  3.991734E+05 -1.365077E+05 -4.845350E+04 -6.592717E+04 -5.826821E+04 -2.367298E+04
       333  22  9.099591E+05  2.045280E+05  2.502094E+05 -3.562171E+04 -1.717647E+05 -7.944986E+03
       333  23  8.791435E+05 -1.077945E+04  1.124054E+05 -2.057054E+04 -1.118114E+05 -2.394060E+04
       333  24  9.100666E+05 -1.118363E+04  6.736887E+04 -3.539760E+04 -5.187557E+04 -2.366986E+04
       333  25  1.545113E+06  3.620631E+05  4.048467E+05 -1.227688E+05 -1.904950E+05 -7.939511E+03
       333  26  1.451227E+06  1.296022E+05  2.433011E+05 -4.886318E+04 -1.179732E+05 -2.393951E+04
       333  27  1.421204E+06  1.141260E+05  1.831750E+05 -4.842735E+03 -4.547771E+04 -2.366612E+04
       334   1  4.427338E+05 -9.758714E+04 -4.956596E+04 -3.079964E+04  4.341717E+04  2.003982E+04
       334   2  5.006656E+05 -9.769132E+04 -6.078450E+04 -1.947721E+04  2.948480E+04  1.781222E+04
       334   3  5.643185E+05 -8.263975E+04 -5.912122E+04 -3.800114E+04  1.555006E+04  1.483415E+04
       334   4  8.976335E+05  1.404595E+04  5.406528E+04 -3.545543E+04  4.202075E+04  2.003761E+04
       334   5  8.947389E+05 -1.028993E+03  2.875785E+04 -2.052925E+04  2.750180E+04  1.781045E+04
       334   6  8.976585E+05 -8.524149E+02  1.673196E+04 -3.544786E+04  1.298183E+04  1.483290E+04
       334   7  1.352725E+06  1.256648E+05  1.576831E+05 -4.011469E+04  4.062331E+04  2.003542E+04
       334   8  1.288956E+06  9.562263E+04  1.182902E+05 -2.158197E+04  2.551755E+04  1.780870E+04
       334   9  1.231101E+06  8.092727E+04  9.257796E+04 -3.289321E+04  1.041223E+04  1.483162E+04
       334  10  4.427316E+05 -9.758807E+04 -4.957025E+04 -3.080034E+04 -7.888690E-11 -4.263821E-10
       334  11  5.006646E+05 -9.769190E+04 -6.078673E+04 -1.947764E+04  4.999830E-10 -1.607421E-10
       334  12  5.643182E+05 -8.264005E+04 -5.912208E+04 -3.800132E+04 -1.353558E-09 -4.617535E-10
       334  13  8.976315E+05  1.404504E+04  5.406121E+04 -3.545611E+04  6.913897E-10  1.024451E-09
       334  14  8.947380E+05 -1.029537E+03  2.875584E+04 -2.052964E+04 -4.567418E-10  2.898044E-10
       334  15  8.976582E+05 -8.526964E+02  1.673123E+04 -3.544802E+04 -1.264773E-09 -5.805923E-10
       334  16  1.352723E+06  1.256639E+05  1.576792E+05 -4.011534E+04 -9.124619E-10  6.440242E-10
       334  17  1.288955E+06  9.562211E+04  1.182883E+05 -2.158234E+04 -1.605333E-10  8.047408E-12
       334  18  1.231101E+06  8.092700E+04  9.257734E+04 -3.289333E+04 -3.897858E-10 -1.863309E-10
       334  19  4.427338E+05 -9.758714E+04 -4.956596E+04 -3.079964E+04 -4.341717E+04 -2.003982E+04
       334  20  5.006656E+05 -9.769132E+04 -6.078450E+04 -1.947721E+04 -2.948480E+04 -1.781222E+04
       334  21  5.643185E+05 -8.263975E+04 -5.912122E+04 -3.800114E+04 -1.555006E+04 -1.483415E+04
       334  22  8.976335E+05  1.404595E+04  5.406528E+04 -3.545543E+04 -4.202075E+04 -2.003761E+04
       334  23  8.947389E+05 -1.028993E+03  2.875785E+04 -2.052925E+04 -2.750180E+04 -1.781045E+04
       334  24  8.976585E+05 -8.524149E+02  1.673196E+04 -3.544786E+04 -1.298183E+04 -1.483290E+04
       334  25  1.352725E+06  1.256648E+05  1.576831E+05 -4.011469E+04 -4.062331E+04 -2.003542E+04
       334  26  1.288956E+06  9.562263E+04  1.182902E+05 -2.158197E+04 -2.551755E+04 -1.780870E+04
       334  27  1.231101E+06  8.092727E+04  9.257796E+04 -3.289321E+04 -1.041223E+04 -1.483162E+04
       335   1  6.183249E+05 -6.733407E+04 -5.012811E+04 -3.543195E+04  1.270108E+04  1.294598E+04
       335   2  6.781416E+05 -5.360942E+04 -4.224172E+04 -2.075207E+04  9.113110E+03  9.898761E+03
       335   3  7.387347E+05 -3.881104E+04 -3.174437E+04 -3.565174E+04  5.523875E+03  6.822961E+03
       335   4  8.965464E+05  8.691135E+02  1.289732E+04 -3.539102E+04  1.037354E+04  1.294505E+04
       335   5  8.961625E+05 -1.411948E+02  7.267247E+03 -2.060152E+04  6.762022E+03  9.898164E+03
       335   6  8.965559E+05 -7.366062E+01  4.263797E+03 -3.539091E+04  3.149582E+03  6.822717E+03
       335   7  1.174840E+06  6.906697E+04  7.591778E+04 -3.535008E+04  8.044966E+03  1.294412E+04
       335   8  1.114227E+06  5.332376E+04  5.677316E+04 -2.045091E+04  4.410115E+03  9.897567E+03
       335   9  1.054400E+06  3.866200E+04  4.027037E+04 -3.513002E+04  7.746908E+02  6.822471E+03
       335  10  6.183247E+05 -6.733429E+04 -5.012873E+04 -3.543208E+04 -4.435605E-10 -3.184408E-10
       335  11  6.781415E+05 -5.360955E+04 -4.224206E+04 -2.075214E+04  3.611410E-10 -1.634731E-10
       335  12  7.387347E+05 -3.881110E+04 -3.174452E+04 -3.565177E+04  7.068369E-10  4.551174E-10
       335  13  8.965463E+05  8.689046E+02  1.289680E+04 -3.539113E+04 -7.057521E-10 -9.505637E-11
       335  14  8.961624E+05 -1.413123E+02  7.266977E+03 -2.060157E+04  1.291739E-09  1.099371E-10
       335  15  8.965558E+05 -7.371328E+01  4.263691E+03 -3.539093E+04 -1.025830E-09  4.936116E-11
       335  16  1.174840E+06  6.906678E+04  7.591734E+04 -3.535016E+04 -2.194561E-10  2.546101E-10
       335  17  1.114227E+06  5.332365E+04  5.677294E+04 -2.045095E+04 -1.072581E-09  2.396616E-11
       335  18  1.054400E+06  3.866195E+04  4.027028E+04 -3.513002E+04  8.429295E-10  2.055125E-10
       335  19  6.183249E+05 -6.733407E+04 -5.012811E+04 -3.543195E+04 -1.270108E+04 -1.294598E+04
       335  20  6.781416E+05 -5.360942E+04 -4.224172E+04 -2.075207E+04 -9.113110E+03 -9.898761E+03
       335  21  7.387347E+05 -3.881104E+04 -3.174437E+04 -3.565174E+04 -5.523875E+03 -6.822961E+03
       335  22  8.965464E+05  8.691135E+02  1.289732E+04 -3.539102E+04 -1.037354E+04 -1.294505E+04
       335  23  8.961625E+05 -1.411948E+02  7.267247E+03 -2.060152E+04 -6.762022E+03 -9.898164E+03
       335  24  8.965559E+05 -7.366062E+01  4.263797E+03 -3.539091E+04 -3.149582E+03 -6.822717E+03
       335  25  1.174840E+06  6.906697E+04  7.591778E+04 -3.535008E+04 -8.044966E+03 -1.294412E+04
       335  26  1.114227E+06  5.332376E+04  5.677316E+04 -2.045091E+04 -4.410115E+03 -9.897567E+03
       335  27  1.054400E+06  3.866200E+04  4.027037E+04 -3.513002E+04 -7.746908E+02 -6.822471E+03
       336   1  7.933416E+05 -2.521118E+04 -1.992547E+04 -3.544721E+04  4.827975E+03  5.029028E+03
       336   2  8.532231E+05 -1.060071E+04 -7.735260E+03 -2.068649E+04  3.811637E+03  1.958139E+03
       336   3  9.132660E+05  4.084706E+03  5.135862E+03 -3.538670E+04  2.794992E+03 -1.112966E+03
       336   4  8.964215E+05  3.173212E+01  3.305801E+03 -3.536472E+04  2.467538E+03  5.028916E+03
       336   5  8.963439E+05 -2.681792E+01  2.055370E+03 -2.063432E+04  1.450762E+03  1.958088E+03
       336   6  8.964233E+05 -1.038968E+01  1.485931E+03 -3.536474E+04  4.337738E+02 -1.112942E+03
       336   7  9.995113E+05  2.527392E+04  2.653642E+04 -3.528222E+04  1.067144E+02  5.028803E+03
       336   8  9.394664E+05  1.054695E+04  1.184590E+04 -2.058215E+04 -9.102757E+02  1.958037E+03
       336   9  8.795810E+05 -4.105501E+03 -2.163996E+03 -3.534277E+04 -1.927381E+03 -1.112917E+03
       336  10  7.933416E+05 -2.521121E+04 -1.992556E+04 -3.544723E+04 -1.246890E-11  1.581153E-10
       336  11  8.532231E+05 -1.060072E+04 -7.735295E+03 -2.068650E+04 -4.227313E-10 -1.991576E-10
       336  12  9.132660E+05  4.084703E+03  5.135845E+03 -3.538670E+04 -8.326987E-10 -4.373694E-11
       336  13  8.964215E+05  3.170332E+01  3.305742E+03 -3.536473E+04 -5.420072E-10  1.810417E-10
       336  14  8.963439E+05 -2.682260E+01  2.055359E+03 -2.063433E+04 -9.889005E-10 -7.150346E-11
       336  15  8.964233E+05 -1.039106E+01  1.485928E+03 -3.536474E+04 -1.203820E-10 -1.282780E-10
       336  16  9.995112E+05  2.527389E+04  2.653637E+04 -3.528222E+04 -6.579385E-10  8.258577E-11
       336  17  9.394664E+05  1.054694E+04  1.184589E+04 -2.058215E+04 -9.998363E-10 -1.894828E-10
       336  18  8.795810E+05 -4.105504E+03 -2.164005E+03 -3.534277E+04 -3.700560E-10 -1.775636E-10
       336  19  7.933416E+05 -2.521118E+04 -1.992547E+04 -3.544721E+04 -4.827975E+03 -5.029028E+03
       336  20  8.532231E+05 -1.060071E+04 -7.735260E+03 -2.068649E+04 -3.811637E+03 -1.958139E+03
       336  21  9.132660E+05  4.084706E+03  5.135862E+03 -3.538670E+04 -2.794992E+03  1.112966E+03
       336  22  8.964215E+05  3.173212E+01  3.305801E+03 -3.536472E+04 -2.467538E+03 -5.028916E+03
       336  23  8.963439E+05 -2.681792E+01  2.055370E+03 -2.063432E+04 -1.450762E+03 -1.958088E+03
       336  24  8.964233E+05 -1.038968E+01  1.485931E+03 -3.536474E+04 -4.337738E+02  1.112942E+03
       336  25  9.995113E+05  2.527392E+04  2.653642E+04 -3.528222E+04 -1.067144E+02 -5.028803E+03
       336  26  9.394664E+05  1.054695E+04  1.184590E+04 -2.058215E+04  9.102757E+02 -1.958037E+03
       336  27  8.795810E+05 -4.105501E+03 -2.163996E+03 -3.534277E+04  1.927381E+03  1.112917E+03
       337   1  9.679314E+05  1.756152E+04  1.779187E+04 -3.537859E+04  2.536071E+03 -2.900593E+03
       337   2  1.027921E+06  3.223515E+04  3.135762E+04 -2.059584E+04  1.802079E+03 -5.974233E+03
       337   3  1.088038E+06  4.695093E+04  4.541425E+04 -3.531461E+04  1.068620E+03 -9.050453E+03
       337   4  8.964147E+05 -8.961638E+00  1.381625E+03 -3.537387E+04  1.736454E+02 -2.900613E+03
       337   5  8.963508E+05 -2.455578E+01  1.487669E+03 -2.062291E+04 -5.623154E+02 -5.974470E+03
       337   6  8.964102E+05  2.580530E+00  2.086180E+03 -3.537387E+04 -1.297672E+03 -9.050894E+03
       337   7  8.249028E+05 -1.757979E+04 -1.502893E+04 -3.536915E+04 -2.188511E+03 -2.900634E+03
       337   8  7.647964E+05 -3.228545E+04 -2.838338E+04 -2.064998E+04 -2.926213E+03 -5.974707E+03
       337   9  7.048170E+05 -4.694829E+04 -4.124422E+04 -3.543310E+04 -3.663242E+03 -9.051334E+03
       337  10  9.679313E+05  1.756151E+04  1.779184E+04 -3.537858E+04 -1.542448E-10  1.837103E-10
       337  11  1.027921E+06  3.223511E+04  3.135754E+04 -2.059583E+04  2.442758E-10  1.152143E-10
       337  12  1.088037E+06  4.695084E+04  4.541409E+04 -3.531461E+04  6.719223E-10  1.079473E-10
       337  13  8.964147E+05 -8.970684E+00  1.381609E+03 -3.537387E+04  5.055600E-11  1.893401E-10
       337  14  8.963508E+05 -2.459421E+01  1.487602E+03 -2.062292E+04  1.424373E-09  1.945927E-10
       337  15  8.964102E+05  2.492075E+00  2.086023E+03 -3.537387E+04 -2.726170E-11  1.207929E-10
       337  16  8.249028E+05 -1.757980E+04 -1.502896E+04 -3.536916E+04  1.449163E-10 -1.678834E-10
       337  17  7.647963E+05 -3.228549E+04 -2.838346E+04 -2.065000E+04 -6.635748E-10 -1.121599E-10
       337  18  7.048170E+05 -4.694838E+04 -4.124440E+04 -3.543312E+04  2.082376E-10  4.223500E-10
       337  19  9.679314E+05  1.756152E+04  1.779187E+04 -3.537859E+04 -2.536071E+03  2.900593E+03
       337  20  1.027921E+06  3.223515E+04  3.135762E+04 -2.059584E+04 -1.802079E+03  5.974233E+03
       337  21  1.088038E+06  4.695093E+04  4.541425E+04 -3.531461E+04 -1.068620E+03  9.050453E+03
       337  22  8.964147E+05 -8.961638E+00  1.381625E+03 -3.537387E+04 -1.736454E+02  2.900613E+03
       337  23  8.963508E+05 -2.455578E+01  1.487669E+03 -2.062291E+04  5.623154E+02  5.974470E+03
       337  24  8.964102E+05  2.580530E+00  2.086180E+03 -3.537387E+04  1.297672E+03  9.050894E+03
       337  25  8.249028E+05 -1.757979E+04 -1.502893E+04 -3.536915E+04  2.188511E+03  2.900634E+03
       337  26  7.647964E+05 -3.228545E+04 -2.838338E+04 -2.064998E+04  2.926213E+03  5.974707E+03
       337  27  7.048170E+05 -4.694829E+04 -4.124422E+04 -3.543310E+04  3.663242E+03  9.051334E+03
       338   1  1.143028E+06  6.042036E+04  5.874100E+04 -3.524769E+04  6.638685E+02 -1.084961E+04
       338   2  1.203249E+06  7.516513E+04  7.397834E+04 -2.042546E+04 -1.488823E+03 -1.393510E+04
       338   3  1.263978E+06  9.052846E+04  9.078452E+04 -3.531015E+04 -3.640293E+03 -1.699004E+04
       338   4  8.964885E+05 -5.883302E+01  2.601817E+03 -3.541957E+04 -1.720156E+03 -1.085027E+04
       338   5  8.962320E+05 -1.048525E+02  4.282464E+03 -2.056573E+04 -3.848489E+03 -1.393626E+04
       338   6  8.964771E+05  4.641939E+02  7.516074E+03 -3.541971E+04 -5.975396E+03 -1.699167E+04
       338   7  6.500054E+05 -6.054223E+04 -5.354130E+04 -3.559138E+04 -4.103243E+03 -1.085094E+04
       338   8  5.893022E+05 -7.538133E+04 -6.541949E+04 -2.070594E+04 -6.207000E+03 -1.393742E+04
       338   9  5.291011E+05 -8.960936E+04 -7.576106E+04 -3.552921E+04 -8.309131E+03 -1.699330E+04
       338  10  1.143028E+06  6.042023E+04  5.874078E+04 -3.524768E+04 -6.774065E-10  1.850557E-10
       338  11  1.203249E+06  7.516492E+04  7.397797E+04 -2.042548E+04  1.015779E-10 -5.288977E-10
       338  12  1.263978E+06  9.052815E+04  9.078395E+04 -3.531020E+04  2.378156E-10  1.795881E-10
       338  13  8.964885E+05 -5.896028E+01  2.601590E+03 -3.541959E+04  6.308540E-10  4.233539E-10
       338  14  8.962319E+05 -1.050652E+02  4.282071E+03 -2.056577E+04 -1.457014E-10 -1.088265E-10
       338  15  8.964770E+05  4.638742E+02  7.515464E+03 -3.541979E+04  3.827818E-10 -4.224373E-10
       338  16  6.500053E+05 -6.054236E+04 -5.354155E+04 -3.559142E+04  5.945802E-10  4.767695E-10
       338  17  5.893021E+05 -7.538155E+04 -6.541993E+04 -2.070600E+04 -4.631913E-10  1.652555E-10
       338  18  5.291010E+05 -8.960969E+04 -7.576173E+04 -3.552933E+04 -8.299661E-10 -1.445264E-10
       338  19  1.143028E+06  6.042036E+04  5.874100E+04 -3.524769E+04 -6.638685E+02  1.084961E+04
       338  20  1.203249E+06  7.516513E+04  7.397834E+04 -2.042546E+04  1.488823E+03  1.393510E+04
       338  21  1.263978E+06  9.052846E+04  9.078452E+04 -3.531015E+04  3.640293E+03  1.699004E+04
       338  22  8.964885E+05 -5.883302E+01  2.601817E+03 -3.541957E+04  1.720156E+03  1.085027E+04
       338  23  8.962320E+05 -1.048525E+02  4.282464E+03 -2.056573E+04  3.848489E+03  1.393626E+04
       338  24  8.964771E+05  4.641939E+02  7.516074E+03 -3.541971E+04  5.975396E+03  1.699167E+04
       338  25  6.500054E+05 -6.054223E+04 -5.354130E+04 -3.559138E+04  4.103243E+03  1.085094E+04
       338  26  5.893022E+05 -7.538133E+04 -6.541949E+04 -2.070594E+04  6.207000E+03  1.393742E+04
       338  27  5.291011E+05 -8.960936E+04 -7.576106E+04 -3.552921E+04  8.309131E+03  1.699330E+04
       339   1  1.320093E+06  1.031875E+05  1.058911E+05 -3.389987E+04 -4.882048E+03 -1.889907E+04
       339   2  1.379543E+06  1.180528E+05  1.266259E+05 -2.090789E+04 -1.396440E+04 -2.187581E+04
       339   3  1.442579E+06  1.418520E+05  1.555343E+05 -3.795643E+04 -2.304647E+04 -2.399771E+04
       339   4  8.971267E+05 -5.337330E+02  9.730550E+03 -3.549200E+04 -7.493485E+03 -1.890123E+04
       339   5  8.953802E+05 -6.442180E+02  1.667568E+04 -2.047433E+04 -1.591236E+04 -2.187837E+04
       339   6  8.971035E+05  8.068338E+03  3.133883E+04 -3.549841E+04 -2.433007E+04 -2.400040E+04
       339   7  4.743256E+05 -1.042673E+05 -8.644155E+04 -3.708306E+04 -1.010316E+04 -1.890337E+04
       339   8  4.114344E+05 -1.193574E+05 -9.328969E+04 -2.004115E+04 -1.785882E+04 -2.188092E+04
       339   9  3.519039E+05 -1.257358E+05 -9.287597E+04 -3.304262E+04 -2.561255E+04 -2.400311E+04
       339  10  1.320093E+06  1.031871E+05  1.058904E+05 -3.389994E+04 -7.446806E-10 -9.396239E-11
       339  11  1.379543E+06  1.180522E+05  1.266246E+05 -2.090813E+04 -5.605127E-10 -8.004676E-10
       339  12  1.442578E+06  1.418512E+05  1.555322E+05 -3.795688E+04  1.193337E-09 -1.226278E-09
       339  13  8.971265E+05 -5.341319E+02  9.729773E+03 -3.549212E+04 -7.800014E-10 -1.842994E-10
       339  14  8.953798E+05 -6.448000E+02  1.667431E+04 -2.047461E+04  6.082220E-10 -4.119041E-10
       339  15  8.971027E+05  8.067560E+03  3.133664E+04 -3.549888E+04  1.555293E-09 -1.289367E-09
       339  16  4.743253E+05 -1.042677E+05 -8.644241E+04 -3.708321E+04  4.546194E-10 -2.985574E-10
       339  17  4.114339E+05 -1.193580E+05 -9.329119E+04 -2.004147E+04  7.688972E-10  1.381463E-09
       339  18  3.519030E+05 -1.257366E+05 -9.287828E+04 -3.304311E+04 -1.059506E-09 -8.742504E-10
       339  19  1.320093E+06  1.031875E+05  1.058911E+05 -3.389987E+04  4.882048E+03  1.889907E+04
       339  20  1.379543E+06  1.180528E+05  1.266259E+05 -2.090789E+04  1.396440E+04  2.187581E+04
       339  21  1.442579E+06  1.418520E+05  1.555343E+05 -3.795643E+04  2.304647E+04  2.399771E+04
       339  22  8.971267E+05 -5.337330E+02  9.730550E+03 -3.549200E+04  7.493485E+03  1.890123E+04
       339  23  8.953802E+05 -6.442180E+02  1.667568E+04 -2.047433E+04  1.591236E+04  2.187837E+04
       339  24  8.971035E+05  8.068338E+03  3.133883E+04 -3.549841E+04  2.433007E+04  2.400040E+04
       339  25  4.743256E+05 -1.042673E+05 -8.644155E+04 -3.708306E+04  1.010316E+04  1.890337E+04
       339  26  4.114344E+05 -1.193574E+05 -9.328969E+04 -2.004115E+04  1.785882E+04  2.188092E+04
       339  27  3.519039E+05 -1.257358E+05 -9.287597E+04 -3.304262E+04  2.561255E+04  2.400311E+04
       340   1  1.506362E+06  1.410064E+05  1.754256E+05 -1.743735E+04 -2.305433E+04 -2.788863E+04
       340   2  1.549733E+06  1.564768E+05  2.168899E+05 -3.651566E+04 -7.207976E+04 -2.777472E+04
       340   3  1.631505E+06  2.989075E+05  3.220210E+05 -8.562231E+04 -1.211397E+05 -9.116895E+03
       340   4  9.043177E+05 -6.557508E+03  3.904754E+04 -3.544449E+04 -3.004068E+04 -2.789686E+04
       340   5  8.863018E+05 -6.331190E+03  6.511868E+04 -2.051725E+04 -6.476680E+04 -2.776940E+04
       340   6  9.042425E+05  1.184457E+05  1.449810E+05 -3.561555E+04 -9.952134E+04 -9.094538E+03
       340   7  3.026105E+05 -1.541452E+05 -9.735351E+04 -5.343411E+04 -3.702031E+04 -2.790470E+04
       340   8  2.232778E+05 -1.691687E+05 -8.668102E+04 -4.536165E+03 -5.746155E+04 -2.776369E+04
       340   9  1.774680E+05 -6.204528E+04 -3.209414E+04  1.433245E+04 -7.792814E+04 -9.068698E+03
       340  10  1.506361E+06  1.410055E+05  1.754231E+05 -1.743787E+04  1.482444E-10 -2.566568E-09
       340  11  1.549728E+06  1.564746E+05  2.168787E+05 -3.651727E+04 -6.578032E-10 -5.145072E-09
       340  12  1.631489E+06  2.989035E+05  3.219933E+05 -8.562320E+04 -6.244449E-10 -1.582512E-09
       340  13  9.043166E+05 -6.558586E+03  3.904439E+04 -3.544516E+04 -3.934835E-10 -5.775684E-09
       340  14  8.862971E+05 -6.333143E+03  6.510936E+04 -2.051870E+04  1.937416E-09  1.392854E-09
       340  15  9.042319E+05  1.184429E+05  1.449623E+05 -3.561628E+04  1.928704E-10 -4.397709E-11
       340  16  3.026088E+05 -1.541464E+05 -9.735755E+04 -5.343494E+04 -1.668889E-09 -1.796112E-09
       340  17  2.232740E+05 -1.691704E+05 -8.668867E+04 -4.537450E+03 -1.818347E-10  1.574789E-09
       340  18  1.774614E+05 -6.204700E+04 -3.210570E+04  1.433188E+04  7.542333E-10 -1.596613E-09
       340  19  1.506362E+06  1.410064E+05  1.754256E+05 -1.743735E+04  2.305433E+04  2.788863E+04
       340  20  1.549733E+06  1.564768E+05  2.168899E+05 -3.651566E+04  7.207976E+04  2.777472E+04
       340  21  1.631505E+06  2.989075E+05  3.220210E+05 -8.562231E+04  1.211397E+05  9.116895E+03
       340  22  9.043177E+05 -6.557508E+03  3.904754E+04 -3.544449E+04  3.004068E+04  2.789686E+04
       340  23  8.863018E+05 -6.331190E+03  6.511868E+04 -2.051725E+04  6.476680E+04  2.776940E+04
       340  24  9.042425E+05  1.184457E+05  1.449810E+05 -3.561555E+04  9.952134E+04  9.094538E+03
       340  25  3.026105E+05 -1.541452E+05 -9.735351E+04 -5.343411E+04  3.702031E+04  2.790470E+04
       340  26  2.232778E+05 -1.691687E+05 -8.668102E+04 -4.536165E+03  5.746155E+04  2.776369E+04
       340  27  1.774680E+05 -6.204528E+04 -3.209414E+04  1.433245E+04  7.792814E+04  9.068698E+03
       341   1  9.207295E+05  3.556488E+06  9.241284E+05 -5.783229E+05  3.536996E+04  1.505626E+05
       341   2  5.967152E+05  2.626586E+06  6.108342E+05 -3.321780E+05  9.871364E+04  5.275809E+04
       341   3  3.780484E+05  1.736470E+06  3.872650E+05 -5.284733E+05  6.962327E+04 -4.514670E+04
       341   4  8.539804E+04  1.941640E+05  1.032842E+05 -5.356439E+05  3.560750E+04  6.607631E+04
       341   5 -3.800398E+03  1.813481E+05  4.998663E+04 -3.145064E+05  9.878526E+04  3.972855E+04
       341   6  2.679112E+02  1.953783E+05  3.716730E+04 -5.358805E+05  6.937444E+04  1.313531E+04
       341   7 -7.507574E+05 -3.157875E+06 -7.183563E+05 -4.931849E+05  3.583430E+04 -1.795616E+04
       341   8 -6.047313E+05 -2.258369E+06 -5.112542E+05 -2.968989E+05  9.885633E+04  2.674950E+04
       341   9 -3.776742E+05 -1.343505E+06 -3.130715E+05 -5.432659E+05  6.912385E+04  7.127423E+04
       341  10  9.207221E+05  3.556464E+06  9.240837E+05 -5.783271E+05 -1.180301E-09 -1.367476E-09
       341  11  5.967040E+05  2.626581E+06  6.108107E+05 -3.321822E+05 -3.747730E-09  1.031766E-08
       341  12  3.780426E+05  1.736466E+06  3.872521E+05 -5.284708E+05  5.623590E-10  3.375324E-09
       341  13  8.539551E+04  1.941590E+05  1.032736E+05 -5.356458E+05  3.696180E-10 -1.865644E-11
       341  14 -3.811304E+03  1.813438E+05  4.996532E+04 -3.145096E+05 -2.847548E-09 -1.555882E-09
       341  15  2.626953E+02  1.953769E+05  3.715793E+04 -5.358812E+05  1.554421E-10  4.895435E-10
       341  16 -7.507589E+05 -3.157876E+06 -7.183593E+05 -4.931844E+05 -1.708226E-09  4.130021E-10
       341  17 -6.047420E+05 -2.258372E+06 -5.112739E+05 -2.969011E+05 -2.674905E-09 -8.345388E-09
       341  18 -3.776808E+05 -1.343512E+06 -3.130900E+05 -5.432698E+05 -9.259279E-10 -1.720842E-09
       341  19  9.207295E+05  3.556488E+06  9.241284E+05 -5.783229E+05 -3.536996E+04 -1.505626E+05
       341  20  5.967152E+05  2.626586E+06  6.108342E+05 -3.321780E+05 -9.871364E+04 -5.275809E+04
       341  21  3.780484E+05  1.736470E+06  3.872650E+05 -5.284733E+05 -6.962327E+04  4.514670E+04
       341  22  8.539804E+04  1.941640E+05  1.032842E+05 -5.356439E+05 -3.560750E+04 -6.607631E+04
       341  23 -3.800398E+03  1.813481E+05  4.998663E+04 -3.145064E+05 -9.878526E+04 -3.972855E+04
       341  24  2.679112E+02  1.953783E+05  3.716730E+04 -5.358805E+05 -6.937444E+04 -1.313531E+04
       341  25 -7.507574E+05 -3.157875E+06 -7.183563E+05 -4.931849E+05 -3.583430E+04  1.795616E+04
       341  26 -6.047313E+05 -2.258369E+06 -5.112542E+05 -2.968989E+05 -9.885633E+04 -2.674950E+04
       341  27 -3.776742E+05 -1.343505E+06 -3.130715E+05 -5.432659E+05 -6.912385E+04 -7.127423E+04
       342   1  1.839192E+05  9.010964E+05  1.964440E+05 -5.426209E+05  3.170110E+04 -2.438416E+04
       342   2 -4.686122E+04 -8.267442E+03 -1.087693E+04 -3.126393E+05 -8.713439E+03 -4.131257E+04
       342   3 -2.566339E+05 -9.135069E+05 -2.029779E+05 -5.282822E+05 -4.866630E+04 -5.820293E+04
       342   4  9.516735E+03  1.906163E+05  3.472315E+04 -5.364980E+05  3.155477E+04  6.906052E+03
       342   5  1.534026E+03  1.888602E+05  3.394891E+04 -3.136832E+05 -8.852222E+03 -1.039515E+04
       342   6  1.467237E+04  1.905179E+05  4.868819E+04 -5.364749E+05 -4.880011E+04 -2.768224E+04
       342   7 -1.649200E+05 -5.193940E+05 -1.270269E+05 -5.303814E+05  3.140895E+04  3.816081E+04
       342   8  4.992710E+04  3.860260E+05  7.877582E+04 -3.147275E+05 -8.991084E+03  2.053199E+04
       342   9  2.858948E+05  1.295676E+06  3.002784E+05 -5.446806E+05 -4.893458E+04  2.892331E+03
       342  10  1.839179E+05  9.010955E+05  1.964410E+05 -5.426203E+05  1.033316E-10 -4.957824E-09
       342  11 -4.686176E+04 -8.269295E+03 -1.088028E+04 -3.126396E+05  9.505243E-10  1.182687E-08
       342  12 -2.566373E+05 -9.135112E+05 -2.029887E+05 -5.282845E+05 -1.623122E-09  8.092210E-10
       342  13  9.515653E+03  1.906159E+05  3.472119E+04 -5.364981E+05  9.307875E-10  6.554126E-11
       342  14  1.533912E+03  1.888601E+05  3.394856E+04 -3.136833E+05  2.534823E-09 -2.124491E-09
       342  15  1.466960E+04  1.905164E+05  4.868227E+04 -5.364760E+05  3.366074E-09  4.669986E-10
       342  16 -1.649214E+05 -5.193958E+05 -1.270315E+05 -5.303823E+05  6.516593E-10  2.991779E-09
       342  17  4.992690E+04  3.860255E+05  7.877488E+04 -3.147273E+05 -2.234696E-09 -9.665680E-09
       342  18  2.858922E+05  1.295675E+06  3.002739E+05 -5.446805E+05 -7.196491E-10  1.195609E-09
       342  19  1.839192E+05  9.010964E+05  1.964440E+05 -5.426209E+05 -3.170110E+04  2.438416E+04
       342  20 -4.686122E+04 -8.267442E+03 -1.087693E+04 -3.126393E+05  8.713439E+03  4.131257E+04
       342  21 -2.566339E+05 -9.135069E+05 -2.029779E+05 -5.282822E+05  4.866630E+04  5.820293E+04
       342  22  9.516735E+03  1.906163E+05  3.472315E+04 -5.364980E+05 -3.155477E+04 -6.906052E+03
       342  23  1.534026E+03  1.888602E+05  3.394891E+04 -3.136832E+05  8.852222E+03  1.039515E+04
       342  24  1.467237E+04  1.905179E+05  4.868819E+04 -5.364749E+05  4.880011E+04  2.768224E+04
       342  25 -1.649200E+05 -5.193940E+05 -1.270269E+05 -5.303814E+05 -3.140895E+04 -3.816081E+04
       342  26  4.992710E+04  3.860260E+05  7.877582E+04 -3.147275E+05  8.991084E+03 -2.053199E+04
       342  27  2.858948E+05  1.295676E+06  3.002784E+05 -5.446806E+05  4.893458E+04 -2.892331E+03
       343   1 -4.792656E+05 -1.732401E+06 -3.820576E+05 -5.535366E+05 -8.739376E+04 -9.712274E+04
       343   2 -7.063424E+05 -2.658590E+06 -5.621645E+05 -2.863830E+05 -1.153895E+05 -6.613022E+04
       343   3 -7.741876E+05 -3.546561E+06 -7.224638E+05 -4.616152E+05 -4.089403E+04 -3.496135E+04
       343   4 -4.585572E+03  2.004626E+05  5.764770E+04 -5.358519E+05 -8.763511E+04 -3.663926E+04
       343   5 -8.415233E+03  1.743228E+05  8.935367E+04 -3.145601E+05 -1.152969E+05 -8.427373E+04
       343   6  1.602957E+05  1.990495E+05  1.953699E+05 -5.354680E+05 -4.068037E+04 -1.316899E+05
       343   7  4.698395E+05  2.136808E+06  4.971245E+05 -5.181066E+05 -8.787256E+04  2.403135E+04
       343   8  6.889533E+05  3.014684E+06  7.403426E+05 -3.428601E+05 -1.152029E+05 -1.024989E+05
       343   9  1.093762E+06  3.957517E+06  1.112214E+06 -6.097577E+05 -4.044450E+04 -2.290015E+05
       343  10 -4.792764E+05 -1.732413E+06 -3.820897E+05 -5.535435E+05  7.011348E-10 -2.916526E-09
       343  11 -7.063578E+05 -2.658598E+06 -5.621978E+05 -2.863891E+05  2.725002E-09  7.915325E-09
       343  12 -7.741897E+05 -3.546563E+06 -7.224692E+05 -4.616164E+05  7.920517E-10  6.809264E-10
       343  13 -4.594184E+03  2.004591E+05  5.763073E+04 -5.358545E+05 -1.463215E-09  6.092692E-11
       343  14 -8.431421E+03  1.743116E+05  8.931532E+04 -3.145679E+05  3.275544E-09 -1.306116E-09
       343  15  1.602893E+05  1.990304E+05  1.953342E+05 -5.354723E+05  4.032365E-10  1.590045E-10
       343  16  4.698311E+05  2.136805E+06  4.971089E+05 -5.181049E+05  2.340479E-09  1.004957E-09
       343  17  6.889363E+05  3.014670E+06  7.402979E+05 -3.428696E+05  2.349981E-09 -6.752803E-09
       343  18  1.093747E+06  3.957461E+06  1.112112E+06 -6.097652E+05  5.460375E-11 -1.326385E-10
       343  19 -4.792656E+05 -1.732401E+06 -3.820576E+05 -5.535366E+05  8.739376E+04  9.712274E+04
       343  20 -7.063424E+05 -2.658590E+06 -5.621645E+05 -2.863830E+05  1.153895E+05  6.613022E+04
       343  21 -7.741876E+05 -3.546561E+06 -7.224638E+05 -4.616152E+05  4.089403E+04  3.496135E+04
       343  22 -4.585572E+03  2.004626E+05  5.764770E+04 -5.358519E+05  8.763511E+04  3.663926E+04
       343  23 -8.415233E+03  1.743228E+05  8.935367E+04 -3.145601E+05  1.152969E+05  8.427373E+04
       343  24  1.602957E+05  1.990495E+05  1.953699E+05 -5.354680E+05  4.068037E+04  1.316899E+05
       343  25  4.698395E+05  2.136808E+06  4.971245E+05 -5.181066E+05  8.787256E+04 -2.403135E+04
       343  26  6.889533E+05  3.014684E+06  7.403426E+05 -3.428601E+05  1.152029E+05  1.024989E+05
       343  27  1.093762E+06  3.957517E+06  1.112214E+06 -6.097577E+05  4.044450E+04  2.290015E+05
       344   1 -1.719594E+06 -7.090702E+05 -3.871699E+05 -6.926015E+05 -1.798766E+05 -5.481913E+04
       344   2 -1.644229E+06 -5.030032E+05 -2.327935E+05 -6.591770E+05 -1.125975E+05 -6.631582E+02
       344   3 -1.604013E+06 -4.173325E+05 -1.644027E+05 -6.174028E+05 -3.750807E+04  3.280245E+04
       344   4 -1.019007E+06 -3.540019E+05 -1.879805E+05 -4.066332E+05 -1.256415E+05 -3.444624E+04
       344   5 -9.941889E+05 -2.239144E+05 -8.648507E+04 -4.382427E+05 -8.987783E+04  7.869726E+03
       344   6 -9.982189E+05 -2.079124E+05 -4.590324E+04 -4.615212E+05 -4.631931E+04  2.948625E+04
       344   7 -3.179015E+05  1.237397E+03  1.117959E+04 -1.203266E+05 -7.133880E+04 -1.402765E+04
       344   8 -3.437067E+05  5.525633E+04  5.980070E+04 -2.170778E+05 -6.713232E+04  1.641602E+04
       344   9 -3.920455E+05  1.530351E+03  7.257994E+04 -3.055025E+05 -5.513981E+04  2.616702E+04
       344  10 -1.719629E+06 -7.090822E+05 -3.872365E+05 -6.926094E+05 -2.841771E-10  2.495760E-10
       344  11 -1.644242E+06 -5.030067E+05 -2.328174E+05 -6.591771E+05  6.684074E-09  3.212326E-09
       344  12 -1.604014E+06 -4.173341E+05 -1.644074E+05 -6.174019E+05  6.896713E-09  1.599458E-09
       344  13 -1.019024E+06 -3.540075E+05 -1.880125E+05 -4.066367E+05  3.367652E-09  1.993749E-09
       344  14 -9.941976E+05 -2.239167E+05 -8.650039E+04 -4.382421E+05  6.298708E-09  1.721288E-09
       344  15 -9.982215E+05 -2.079139E+05 -4.590891E+04 -4.615201E+05  2.503305E-09  1.855405E-09
       344  16 -3.179070E+05  1.235819E+03  1.116965E+04 -1.203275E+05  4.974692E-09  1.988242E-09
       344  17 -3.437116E+05  5.525483E+04  5.979172E+04 -2.170769E+05  7.278828E-09  1.021196E-09
       344  18 -3.920490E+05  1.528800E+03  7.257294E+04 -3.055013E+05 -1.222687E-09  6.860380E-10
       344  19 -1.719594E+06 -7.090702E+05 -3.871699E+05 -6.926015E+05  1.798766E+05  5.481913E+04
       344  20 -1.644229E+06 -5.030032E+05 -2.327935E+05 -6.591770E+05  1.125975E+05  6.631582E+02
       344  21 -1.604013E+06 -4.173325E+05 -1.644027E+05 -6.174028E+05  3.750807E+04 -3.280245E+04
       344  22 -1.019007E+06 -3.540019E+05 -1.879805E+05 -4.066332E+05  1.256415E+05  3.444624E+04
       344  23 -9.941889E+05 -2.239144E+05 -8.648507E+04 -4.382427E+05  8.987783E+04 -7.869726E+03
       344  24 -9.982189E+05 -2.079124E+05 -4.590324E+04 -4.615212E+05  4.631931E+04 -2.948625E+04
       344  25 -3.179015E+05  1.237397E+03  1.117959E+04 -1.203266E+05  7.133880E+04  1.402765E+04
       344  26 -3.437067E+05  5.525633E+04  5.980070E+04 -2.170778E+05  6.713232E+04 -1.641602E+04
       344  27 -3.920455E+05  1.530351E+03  7.257994E+04 -3.055025E+05  5.513981E+04 -2.616702E+04
       345   1 -1.530528E+06 -4.104048E+05 -1.414566E+05 -6.096370E+05 -3.444746E+04  2.995904E+04
       345   2 -1.452495E+06 -3.646386E+05 -1.063003E+05 -5.774764E+05 -2.122499E+04  3.007367E+04
       345   3 -1.362424E+06 -3.394940E+05 -8.116571E+04 -5.621086E+05 -7.418430E+03  2.863303E+04
       345   4 -9.925124E+05 -2.116885E+05 -3.486727E+04 -4.578287E+05 -3.976261E+04  2.795769E+04
       345   5 -9.983153E+05 -1.985471E+05 -1.840655E+04 -4.505761E+05 -2.890401E+04  2.718565E+04
       345   6 -9.916140E+05 -2.055552E+05 -1.008484E+04 -4.601185E+05 -1.746315E+04  2.485829E+04
       345   7 -4.542014E+05 -1.294667E+04  7.170734E+04 -3.058990E+05 -4.508266E+04  2.595444E+04
       345   8 -5.439207E+05 -3.243663E+04  6.947845E+04 -3.235893E+05 -3.658907E+04  2.429535E+04
       345   9 -6.206576E+05 -7.160320E+04  6.099151E+04 -3.580711E+05 -2.751440E+04  2.108115E+04
       345  10 -1.530529E+06 -4.104061E+05 -1.414605E+05 -6.096361E+05  1.090152E-09 -2.223086E-10
       345  11 -1.452496E+06 -3.646397E+05 -1.063029E+05 -5.774759E+05  1.465419E-09  1.047941E-09
       345  12 -1.362424E+06 -3.394949E+05 -8.116735E+04 -5.621084E+05  2.948332E-10  6.493150E-10
       345  13 -9.925144E+05 -2.116898E+05 -3.487171E+04 -4.578278E+05 -1.819694E-10  3.749483E-10
       345  14 -9.983164E+05 -1.985481E+05 -1.840951E+04 -4.505754E+05  1.042043E-09 -3.762146E-10
       345  15 -9.916145E+05 -2.055559E+05 -1.008658E+04 -4.601182E+05  7.512964E-10  1.861308E-10
       345  16 -4.542038E+05 -1.294794E+04  7.170225E+04 -3.058981E+05 -2.186939E-09  1.024025E-09
       345  17 -5.439223E+05 -3.243763E+04  6.947482E+04 -3.235885E+05 -7.678905E-10  1.301328E-09
       345  18 -6.206585E+05 -7.160388E+04  6.098925E+04 -3.580707E+05 -5.699854E-10  1.985177E-10
       345  19 -1.530528E+06 -4.104048E+05 -1.414566E+05 -6.096370E+05  3.444746E+04 -2.995904E+04
       345  20 -1.452495E+06 -3.646386E+05 -1.063003E+05 -5.774764E+05  2.122499E+04 -3.007367E+04
       345  21 -1.362424E+06 -3.394940E+05 -8.116571E+04 -5.621086E+05  7.418430E+03 -2.863303E+04
       345  22 -9.925124E+05 -2.116885E+05 -3.486727E+04 -4.578287E+05  3.976261E+04 -2.795769E+04
       345  23 -9.983153E+05 -1.985471E+05 -1.840655E+04 -4.505761E+05  2.890401E+04 -2.718565E+04
       345  24 -9.916140E+05 -2.055552E+05 -1.008484E+04 -4.601185E+05  1.746315E+04 -2.485829E+04
       345  25 -4.542014E+05 -1.294667E+04  7.170734E+04 -3.058990E+05  4.508266E+04 -2.595444E+04
       345  26 -5.439207E+05 -3.243663E+04  6.947845E+04 -3.235893E+05  3.658907E+04 -2.429535E+04
       345  27 -6.206576E+05 -7.160320E+04  6.099151E+04 -3.580711E+05  2.751440E+04 -2.108115E+04
       346   1 -1.304714E+06 -3.194811E+05 -6.733963E+04 -5.467522E+05 -4.818823E+03  2.522234E+04
       346   2 -1.227156E+06 -2.806416E+05 -4.775272E+04 -5.142956E+05 -1.203920E+02  1.959461E+04
       346   3 -1.134451E+06 -2.575956E+05 -2.991376E+04 -4.996140E+05  4.621953E+03  1.384663E+04
       346   4 -9.911750E+05 -2.057405E+05 -7.586816E+03 -4.598963E+05 -1.461027E+04  2.154372E+04
       346   5 -9.987452E+05 -1.977854E+05 -4.176655E+03 -4.510331E+05 -1.009457E+04  1.584849E+04
       346   6 -9.911386E+05 -2.055874E+05 -2.368972E+03 -4.599471E+05 -5.535303E+03  1.003293E+04
       346   7 -6.775338E+05 -9.199114E+04  5.216227E+04 -3.729996E+05 -2.440702E+04  1.786313E+04
       346   8 -7.702807E+05 -1.149248E+05  3.939735E+04 -3.877492E+05 -2.007263E+04  1.210092E+04
       346   9 -8.478062E+05 -1.535777E+05  2.517501E+04 -4.202721E+05 -1.569498E+04  6.218332E+03
       346  10 -1.304714E+06 -3.194818E+05 -6.734087E+04 -5.467521E+05  1.709324E-10  1.703078E-10
       346  11 -1.227156E+06 -2.806420E+05 -4.775344E+04 -5.142956E+05  1.181628E-09 -4.209800E-10
       346  12 -1.134451E+06 -2.575958E+05 -2.991416E+04 -4.996140E+05  1.151123E-09  7.273415E-11
       346  13 -9.911754E+05 -2.057411E+05 -7.588089E+03 -4.598960E+05  9.886692E-10  2.673584E-10
       346  14 -9.987453E+05 -1.977857E+05 -4.177318E+03 -4.510330E+05  1.059344E-09  8.407253E-11
       346  15 -9.911386E+05 -2.055875E+05 -2.369219E+03 -4.599471E+05 -5.462704E-10 -1.340358E-10
       346  16 -6.775346E+05 -9.199165E+04  5.216055E+04 -3.729993E+05 -5.120938E-10 -1.071063E-11
       346  17 -7.702812E+05 -1.149251E+05  3.939632E+04 -3.877490E+05 -5.707085E-10 -2.812402E-10
       346  18 -8.478065E+05 -1.535778E+05  2.517448E+04 -4.202720E+05 -9.616455E-10 -3.299157E-10
       346  19 -1.304714E+06 -3.194811E+05 -6.733963E+04 -5.467522E+05  4.818823E+03 -2.522234E+04
       346  20 -1.227156E+06 -2.806416E+05 -4.775272E+04 -5.142956E+05  1.203920E+02 -1.959461E+04
       346  21 -1.134451E+06 -2.575956E+05 -2.991376E+04 -4.996140E+05 -4.621953E+03 -1.384663E+04
       346  22 -9.911750E+05 -2.057405E+05 -7.586816E+03 -4.598963E+05  1.461027E+04 -2.154372E+04
       346  23 -9.987452E+05 -1.977854E+05 -4.176655E+03 -4.510331E+05  1.009457E+04 -1.584849E+04
       346  24 -9.911386E+05 -2.055874E+05 -2.368972E+03 -4.599471E+05  5.535303E+03 -1.003293E+04
       346  25 -6.775338E+05 -9.199114E+04  5.216227E+04 -3.729996E+05  2.440702E+04 -1.786313E+04
       346  26 -7.702807E+05 -1.149248E+05  3.939735E+04 -3.877492E+05  2.007263E+04 -1.210092E+04
       346  27 -8.478062E+05 -1.535777E+05  2.517501E+04 -4.202721E+05  1.569498E+04 -6.218332E+03
       347   1 -1.077552E+06 -2.369028E+05 -1.807406E+04 -4.838773E+05  6.409748E+03  1.009503E+04
       347   2 -1.000092E+06 -1.982422E+05 -1.420649E+03 -4.513267E+05  9.505759E+03  3.669546E+03
       347   3 -9.071706E+05 -1.751349E+05  1.478515E+04 -4.365592E+05  1.260470E+04 -2.763640E+03
       347   4 -9.910824E+05 -2.055976E+05 -1.834188E+03 -4.599273E+05 -3.731401E+03  6.287725E+03
       347   5 -9.988109E+05 -1.978318E+05 -1.178326E+03 -4.510299E+05 -6.478988E+02 -1.424845E+02
       347   6 -9.910846E+05 -2.056184E+05 -9.609812E+02 -4.599192E+05  2.438441E+03 -6.580400E+03
       347   7 -9.046041E+05 -1.742914E+05  1.440605E+04 -4.359740E+05 -1.387415E+04  2.479817E+03
       347   8 -9.975294E+05 -1.974213E+05 -9.355582E+02 -4.507330E+05 -1.080163E+04 -3.954539E+03
       347   9 -1.074991E+06 -2.361011E+05 -1.670695E+04 -4.832762E+05 -7.726355E+03 -1.039661E+04
       347  10 -1.077552E+06 -2.369030E+05 -1.807433E+04 -4.838773E+05 -3.857351E-09 -1.822366E-09
       347  11 -1.000092E+06 -1.982423E+05 -1.420844E+03 -4.513267E+05  6.840125E-09  3.613490E-09
       347  12 -9.071708E+05 -1.751349E+05  1.478484E+04 -4.365592E+05  2.031235E-08  9.248213E-09
       347  13 -9.910824E+05 -2.055977E+05 -1.834288E+03 -4.599273E+05 -3.602765E-10 -1.141220E-09
       347  14 -9.988109E+05 -1.978318E+05 -1.178327E+03 -4.510299E+05  1.806604E-09 -8.788649E-10
       347  15 -9.910846E+05 -2.056184E+05 -9.610737E+02 -4.599192E+05  3.409196E-09  2.257710E-09
       347  16 -9.046043E+05 -1.742915E+05  1.440568E+04 -4.359740E+05  3.056871E-09  3.332363E-10
       347  17 -9.975295E+05 -1.974214E+05 -9.358073E+02 -4.507331E+05 -6.239548E-09 -3.721724E-09
       347  18 -1.074991E+06 -2.361013E+05 -1.670727E+04 -4.832763E+05 -1.419649E-08 -4.377923E-09
       347  19 -1.077552E+06 -2.369028E+05 -1.807406E+04 -4.838773E+05 -6.409748E+03 -1.009503E+04
       347  20 -1.000092E+06 -1.982422E+05 -1.420649E+03 -4.513267E+05 -9.505759E+03 -3.669546E+03
       347  21 -9.071706E+05 -1.751349E+05  1.478515E+04 -4.365592E+05 -1.260470E+04  2.763640E+03
       347  22 -9.910824E+05 -2.055976E+05 -1.834188E+03 -4.599273E+05  3.731401E+03 -6.287725E+03
       347  23 -9.988109E+05 -1.978318E+05 -1.178326E+03 -4.510299E+05  6.478988E+02  1.424845E+02
       347  24 -9.910846E+05 -2.056184E+05 -9.609812E+02 -4.599192E+05 -2.438441E+03  6.580400E+03
       347  25 -9.046041E+05 -1.742914E+05  1.440605E+04 -4.359740E+05  1.387415E+04 -2.479817E+03
       347  26 -9.975294E+05 -1.974213E+05 -9.355582E+02 -4.507330E+05  1.080163E+04  3.954539E+03
       347  27 -1.074991E+06 -2.361011E+05 -1.670695E+04 -4.832762E+05  7.726355E+03  1.039661E+04
       348   1 -8.503609E+05 -1.544066E+05  2.606386E+04 -4.208033E+05  1.422090E+04 -6.580854E+03
       348   2 -7.729655E+05 -1.157686E+05  4.172026E+04 -3.882740E+05  1.734261E+04 -1.299864E+04
       348   3 -6.801188E+05 -9.266640E+04  5.691304E+04 -3.735106E+05  2.046008E+04 -1.940114E+04
       348   4 -9.910916E+05 -2.056187E+05 -9.818351E+02 -4.599156E+05  4.056563E+03 -1.039721E+04
       348   5 -9.988183E+05 -1.978519E+05 -1.296892E+03 -4.510324E+05  7.200251E+03 -1.680787E+04
       348   6 -9.911051E+05 -2.056262E+05 -2.093074E+03 -4.599183E+05  1.033962E+04 -2.320327E+04
       348   7 -1.131800E+06 -2.568284E+05 -2.802760E+04 -4.990193E+05 -6.105210E+03 -1.421261E+04
       348   8 -1.224618E+06 -2.799306E+05 -4.431573E+04 -5.137696E+05 -2.938151E+03 -2.061560E+04
       348   9 -1.301993E+06 -3.185783E+05 -6.110349E+04 -5.462864E+05  2.245047E+02 -2.700341E+04
       348  10 -8.503611E+05 -1.544067E+05  2.606340E+04 -4.208032E+05 -1.750173E-08 -5.356259E-09
       348  11 -7.729659E+05 -1.157689E+05  4.171938E+04 -3.882739E+05 -2.674422E-10  3.416453E-10
       348  12 -6.801194E+05 -9.266691E+04  5.691154E+04 -3.735103E+05  2.344455E-08  9.906218E-09
       348  13 -9.910916E+05 -2.056188E+05 -9.820691E+02 -4.599156E+05  3.358758E-09  2.735833E-09
       348  14 -9.988184E+05 -1.978523E+05 -1.297519E+03 -4.510323E+05 -6.828440E-10  5.617289E-10
       348  15 -9.911054E+05 -2.056269E+05 -2.094286E+03 -4.599181E+05  3.178423E-09  1.859012E-09
       348  16 -1.131800E+06 -2.568286E+05 -2.802805E+04 -4.990193E+05  2.381677E-08  1.031422E-08
       348  17 -1.224618E+06 -2.799311E+05 -4.431654E+04 -5.137696E+05  4.250812E-10  5.794865E-10
       348  18 -1.301993E+06 -3.185791E+05 -6.110486E+04 -5.462864E+05 -1.780214E-08 -5.724471E-09
       348  19 -8.503609E+05 -1.544066E+05  2.606386E+04 -4.208033E+05 -1.422090E+04  6.580854E+03
       348  20 -7.729655E+05 -1.157686E+05  4.172026E+04 -3.882740E+05 -1.734261E+04  1.299864E+04
       348  21 -6.801188E+05 -9.266640E+04  5.691304E+04 -3.735106E+05 -2.046008E+04  1.940114E+04
       348  22 -9.910916E+05 -2.056187E+05 -9.818351E+02 -4.599156E+05 -4.056563E+03  1.039721E+04
       348  23 -9.988183E+05 -1.978519E+05 -1.296892E+03 -4.510324E+05 -7.200251E+03  1.680787E+04
       348  24 -9.911051E+05 -2.056262E+05 -2.093074E+03 -4.599183E+05 -1.033962E+04  2.320327E+04
       348  25 -1.131800E+06 -2.568284E+05 -2.802760E+04 -4.990193E+05  6.105210E+03  1.421261E+04
       348  26 -1.224618E+06 -2.799306E+05 -4.431573E+04 -5.137696E+05  2.938151E+03  2.061560E+04
       348  27 -1.301993E+06 -3.185783E+05 -6.110349E+04 -5.462864E+05 -2.245047E+02  2.700341E+04
       349   1 -6.234412E+05 -7.198571E+04  6.756323E+04 -3.578240E+05  2.232963E+04 -2.311161E+04
       349   2 -5.461275E+05 -3.342595E+04  8.144620E+04 -3.253620E+05  2.697275E+04 -2.885418E+04
       349   3 -4.536621E+05 -1.057381E+04  9.366355E+04 -3.106196E+05  3.155990E+04 -3.443944E+04
       349   4 -9.911814E+05 -2.056153E+05 -2.724973E+03 -4.599340E+05  1.219250E+04 -2.692102E+04
       349   5 -9.987596E+05 -1.978403E+05 -4.842619E+03 -4.510400E+05  1.707258E+04 -3.257680E+04
       349   6 -9.912401E+05 -2.058217E+05 -8.814677E+03 -4.598696E+05  2.189632E+04 -3.807530E+04
       349   7 -1.358780E+06 -3.392326E+05 -7.301840E+04 -5.619878E+05  2.061821E+03 -3.072802E+04
       349   8 -1.451176E+06 -3.622354E+05 -9.113899E+04 -5.766323E+05  7.180183E+03 -3.629650E+04
       349   9 -1.528512E+06 -4.010416E+05 -1.113032E+05 -6.089982E+05  1.224179E+04 -4.170778E+04
       349  10 -6.234419E+05 -7.198642E+04  6.756129E+04 -3.578236E+05 -1.540609E-08 -5.734335E-09
       349  11 -5.461285E+05 -3.342704E+04  8.144327E+04 -3.253613E+05 -8.546645E-09 -4.699881E-09
       349  12 -4.536635E+05 -1.057535E+04  9.365945E+04 -3.106187E+05  2.224580E-09  1.691132E-09
       349  13 -9.911818E+05 -2.056161E+05 -2.726613E+03 -4.599337E+05  2.564777E-09  2.276887E-09
       349  14 -9.987602E+05 -1.978415E+05 -4.845160E+03 -4.510395E+05 -8.891752E-10  3.763562E-10
       349  15 -9.912410E+05 -2.058234E+05 -8.818300E+03 -4.598689E+05  2.118238E-10 -1.737099E-09
       349  16 -1.358780E+06 -3.392337E+05 -7.302018E+04 -5.619877E+05  2.179113E-08  9.580180E-09
       349  17 -1.451176E+06 -3.622368E+05 -9.114156E+04 -5.766321E+05  8.431291E-09  3.298922E-09
       349  18 -1.528512E+06 -4.010435E+05 -1.113068E+05 -6.089978E+05 -4.411013E-09 -1.650056E-09
       349  19 -6.234412E+05 -7.198571E+04  6.756323E+04 -3.578240E+05 -2.232963E+04  2.311161E+04
       349  20 -5.461275E+05 -3.342595E+04  8.144620E+04 -3.253620E+05 -2.697275E+04  2.885418E+04
       349  21 -4.536621E+05 -1.057381E+04  9.366355E+04 -3.106196E+05 -3.155990E+04  3.443944E+04
       349  22 -9.911814E+05 -2.056153E+05 -2.724973E+03 -4.599340E+05 -1.219250E+04  2.692102E+04
       349  23 -9.987596E+05 -1.978403E+05 -4.842619E+03 -4.510400E+05 -1.707258E+04  3.257680E+04
       349  24 -9.912401E+05 -2.058217E+05 -8.814677E+03 -4.598696E+05 -2.189632E+04  3.807530E+04
       349  25 -1.358780E+06 -3.392326E+05 -7.301840E+04 -5.619878E+05 -2.061821E+03  3.072802E+04
       349  26 -1.451176E+06 -3.622354E+05 -9.113899E+04 -5.766323E+05 -7.180183E+03  3.629650E+04
       349  27 -1.528512E+06 -4.010416E+05 -1.113032E+05 -6.089982E+05 -1.224179E+04  4.170778E+04
       350   1 -3.969769E+05  9.713802E+03  1.020564E+05 -2.958388E+05  3.495705E+04 -3.752240E+04
       350   2 -3.207263E+05  4.883422E+04  1.093536E+05 -2.611569E+05  4.478014E+04 -4.015227E+04
       350   3 -2.318940E+05  6.774102E+04  1.096051E+05 -2.430042E+05  5.385890E+04 -4.079105E+04
       350   4 -9.917555E+05 -2.056028E+05 -1.171970E+04 -4.601158E+05  2.497128E+04 -4.128097E+04
       350   5 -9.982706E+05 -1.987668E+05 -2.140205E+04 -4.505152E+05  3.782217E+04 -4.277536E+04
       350   6 -9.928166E+05 -2.127526E+05 -4.053935E+04 -4.574493E+05  4.992716E+04 -4.227790E+04
       350   7 -1.586171E+06 -4.208903E+05 -1.255119E+05 -6.242484E+05  1.499567E+04 -4.503578E+04
       350   8 -1.675340E+06 -4.463269E+05 -1.521783E+05 -6.396821E+05  3.087230E+04 -4.539538E+04
       350   9 -1.753139E+06 -4.931920E+05 -1.907105E+05 -6.716497E+05  4.600057E+04 -4.376277E+04
       350  10 -3.969785E+05  9.711963E+03  1.020515E+05 -2.958378E+05 -1.800999E-09  6.270838E-10
       350  11 -3.207289E+05  4.883196E+04  1.093468E+05 -2.611554E+05  1.884100E-09  1.621600E-09
       350  12 -2.318976E+05  6.773846E+04  1.095965E+05 -2.430025E+05 -1.058057E-09  1.161909E-09
       350  13 -9.917566E+05 -2.056047E+05 -1.172407E+04 -4.601150E+05  2.081071E-09 -1.681996E-09
       350  14 -9.982726E+05 -1.987692E+05 -2.140817E+04 -4.505139E+05 -2.972228E-09  4.230812E-09
       350  15 -9.928197E+05 -2.127552E+05 -4.054739E+04 -4.574476E+05 -4.741798E-09 -1.894164E-09
       350  16 -1.586172E+06 -4.208925E+05 -1.255161E+05 -6.242479E+05  3.294026E-09  6.488046E-10
       350  17 -1.675342E+06 -4.463294E+05 -1.521839E+05 -6.396810E+05 -2.672951E-09  1.500957E-09
       350  18 -1.753142E+06 -4.931946E+05 -1.907181E+05 -6.716481E+05 -9.113293E-09 -2.185489E-09
       350  19 -3.969769E+05  9.713802E+03  1.020564E+05 -2.958388E+05 -3.495705E+04  3.752240E+04
       350  20 -3.207263E+05  4.883422E+04  1.093536E+05 -2.611569E+05 -4.478014E+04  4.015227E+04
       350  21 -2.318940E+05  6.774102E+04  1.096051E+05 -2.430042E+05 -5.385890E+04  4.079105E+04
       350  22 -9.917555E+05 -2.056028E+05 -1.171970E+04 -4.601158E+05 -2.497128E+04  4.128097E+04
       350  23 -9.982706E+05 -1.987668E+05 -2.140205E+04 -4.505152E+05 -3.782217E+04  4.277536E+04
       350  24 -9.928166E+05 -2.127526E+05 -4.053935E+04 -4.574493E+05 -4.992716E+04  4.227790E+04
       350  25 -1.586171E+06 -4.208903E+05 -1.255119E+05 -6.242484E+05 -1.499567E+04  4.503578E+04
       350  26 -1.675340E+06 -4.463269E+05 -1.521783E+05 -6.396821E+05 -3.087230E+04  4.539538E+04
       350  27 -1.753139E+06 -4.931920E+05 -1.907105E+05 -6.716497E+05 -4.600057E+04  4.376277E+04
       351   1 -1.690548E+05  8.119128E+04  1.088065E+05 -2.450789E+05  6.570138E+04 -4.018962E+04
       351   2 -1.261621E+05  1.373470E+05  9.265101E+04 -1.479702E+05  7.506199E+04 -2.780748E+04
       351   3 -1.114369E+05  7.177125E+04  3.775843E+04 -3.801818E+04  7.445067E+04  1.103511E+04
       351   4 -9.994767E+05 -2.083412E+05 -5.337008E+04 -4.617118E+05  5.729193E+04 -4.336186E+04
       351   5 -9.934652E+05 -2.282993E+05 -1.005575E+05 -4.362063E+05  1.070225E+05 -1.578322E+04
       351   6 -1.023705E+06 -3.781147E+05 -2.185551E+05 -3.978487E+05  1.467689E+05  3.826998E+04
       351   7 -1.829185E+06 -4.978281E+05 -2.155772E+05 -6.780824E+05  4.889456E+04 -4.653002E+04
       351   8 -1.859977E+06 -5.938087E+05 -2.938037E+05 -7.240428E+05  1.389344E+05 -3.783309E+03
       351   9 -1.935092E+06 -8.277361E+05 -4.749138E+05 -7.571272E+05  2.189690E+05  6.542900E+04
       351  10 -1.690599E+05  8.118838E+04  1.087954E+05 -2.450768E+05 -8.719639E-09  2.150787E-10
       351  11 -1.261684E+05  1.373446E+05  9.263897E+04 -1.479686E+05 -3.004630E-09 -5.053619E-10
       351  12 -1.114429E+05  7.176963E+04  3.774779E+04 -3.801884E+04  4.067051E-10  1.480720E-09
       351  13 -9.994808E+05 -2.083441E+05 -5.337978E+04 -4.617098E+05 -4.368122E-09 -2.514442E-09
       351  14 -9.934776E+05 -2.283026E+05 -1.005795E+05 -4.362050E+05  5.623498E-10 -1.178662E-09
       351  15 -1.023728E+06 -3.781221E+05 -2.185984E+05 -3.978533E+05 -2.791545E-10  2.893551E-09
       351  16 -1.829188E+06 -4.978311E+05 -2.155858E+05 -6.780806E+05 -1.607809E-09 -2.678021E-09
       351  17 -1.859998E+06 -5.938140E+05 -2.938401E+05 -7.240424E+05  3.393162E-09  8.609958E-10
       351  18 -1.935145E+06 -8.277536E+05 -4.750123E+05 -7.571388E+05 -3.023915E-10 -8.799846E-10
       351  19 -1.690548E+05  8.119128E+04  1.088065E+05 -2.450789E+05 -6.570138E+04  4.018962E+04
       351  20 -1.261621E+05  1.373470E+05  9.265101E+04 -1.479702E+05 -7.506199E+04  2.780748E+04
       351  21 -1.114369E+05  7.177125E+04  3.775843E+04 -3.801818E+04 -7.445067E+04 -1.103511E+04
       351  22 -9.994767E+05 -2.083412E+05 -5.337008E+04 -4.617118E+05 -5.729193E+04  4.336186E+04
       351  23 -9.934652E+05 -2.282993E+05 -1.005575E+05 -4.362063E+05 -1.070225E+05  1.578322E+04
       351  24 -1.023705E+06 -3.781147E+05 -2.185551E+05 -3.978487E+05 -1.467689E+05 -3.826998E+04
       351  25 -1.829185E+06 -4.978281E+05 -2.155772E+05 -6.780824E+05 -4.889456E+04  4.653002E+04
       351  26 -1.859977E+06 -5.938087E+05 -2.938037E+05 -7.240428E+05 -1.389344E+05  3.783309E+03
       351  27 -1.935092E+06 -8.277361E+05 -4.749138E+05 -7.571272E+05 -2.189690E+05 -6.542900E+04
       352   1  1.353850E+04  1.605616E+04 -1.665160E+04 -3.384144E+04 -9.433087E+04 -7.709531E+03
       352   2 -7.983670E+03  1.452864E+05  5.524841E+04 -5.023232E+03 -6.678236E+04 -2.372582E+04
       352   3 -6.768138E+04  1.358538E+05  7.459054E+04  4.317062E+04 -3.926419E+04 -2.437590E+04
       352   4 -5.909115E+05 -1.341067E+05 -1.639869E+05  2.274800E+04 -1.124899E+05 -7.750953E+03
       352   5 -5.707557E+05  7.002155E+03 -7.367440E+04  1.292373E+04 -7.317480E+04 -2.374205E+04
       352   6 -5.908610E+05  7.330434E+03 -4.413124E+04  2.247744E+04 -3.388742E+04 -2.436416E+04
       352   7 -1.195020E+06 -2.842842E+05 -3.113458E+05  7.928206E+04 -1.306313E+05 -7.795710E+03
       352   8 -1.133233E+06 -1.313029E+05 -2.026177E+05  3.085413E+04 -7.956147E+04 -2.375867E+04
       352   9 -1.113785E+06 -1.212103E+05 -1.628704E+05  1.801728E+03 -2.851513E+04 -2.435277E+04
       352  10  1.352893E+04  1.605371E+04 -1.666843E+04 -3.384202E+04 -1.868426E-09 -2.185429E-10
       352  11 -7.988610E+03  1.452846E+05  5.523897E+04 -5.024508E+03  4.393183E-09 -2.804322E-09
       352  12 -6.768320E+04  1.358528E+05  7.458653E+04  4.316985E+04  9.536414E-09 -3.347779E-09
       352  13 -5.909251E+05 -1.341102E+05 -1.640109E+05  2.274730E+04 -3.703802E-10  1.780683E-09
       352  14 -5.707616E+05  7.000111E+03 -7.368553E+04  1.292233E+04  1.088500E-09 -5.299856E-10
       352  15 -5.908624E+05  7.329488E+03 -4.413451E+04  2.247678E+04  9.783111E-10  6.922079E-10
       352  16 -1.195039E+06 -2.842888E+05 -3.113781E+05  7.928124E+04  1.719278E-10  9.324043E-10
       352  17 -1.133240E+06 -1.313052E+05 -2.026307E+05  3.085261E+04 -4.074620E-09 -4.489895E-09
       352  18 -1.113786E+06 -1.212112E+05 -1.628731E+05  1.801168E+03 -7.967838E-09 -5.393300E-09
       352  19  1.353850E+04  1.605616E+04 -1.665160E+04 -3.384144E+04  9.433087E+04  7.709531E+03
       352  20 -7.983670E+03  1.452864E+05  5.524841E+04 -5.023232E+03  6.678236E+04  2.372582E+04
       352  21 -6.768138E+04  1.358538E+05  7.459054E+04  4.317062E+04  3.926419E+04  2.437590E+04
       352  22 -5.909115E+05 -1.341067E+05 -1.639869E+05  2.274800E+04  1.124899E+05  7.750953E+03
       352  23 -5.707557E+05  7.002155E+03 -7.367440E+04  1.292373E+04  7.317480E+04  2.374205E+04
       352  24 -5.908610E+05  7.330434E+03 -4.413124E+04  2.247744E+04  3.388742E+04  2.436416E+04
       352  25 -1.195020E+06 -2.842842E+05 -3.113458E+05  7.928206E+04  1.306313E+05  7.795710E+03
       352  26 -1.133233E+06 -1.313029E+05 -2.026177E+05  3.085413E+04  7.956147E+04  2.375867E+04
       352  27 -1.113785E+06 -1.212103E+05 -1.628704E+05  1.801728E+03  2.851513E+04  2.435277E+04
       353   1 -9.685616E+04  1.101539E+05  7.540216E+04  2.038611E+04 -2.813350E+04 -2.144572E+04
       353   2 -1.359785E+05  1.099160E+05  8.234720E+04  1.271300E+04 -1.917864E+04 -2.018429E+04
       353   3 -1.787447E+05  9.987146E+04  8.100521E+04  2.515167E+04 -1.022715E+04 -1.818974E+04
       353   4 -5.827453E+05 -9.207956E+03 -3.542226E+04  2.273292E+04 -2.744779E+04 -2.144544E+04
       353   5 -5.808654E+05  6.680296E+02 -1.884929E+04  1.266445E+04 -1.793674E+04 -2.018222E+04
       353   6 -5.827302E+05  6.366245E+02 -1.095445E+04  2.270878E+04 -8.428461E+03 -1.818571E+04
       353   7 -1.068415E+06 -1.285862E+05 -1.462621E+05  2.507775E+04 -2.676260E+04 -2.144516E+04
       353   8 -1.025568E+06 -1.085936E+05 -1.200586E+05  1.261582E+04 -1.669571E+04 -2.018015E+04
       353   9 -9.865641E+05 -9.860949E+04 -1.029247E+05  2.026740E+04 -6.630930E+03 -1.818169E+04
       353  10 -9.685713E+04  1.101532E+05  7.539980E+04  2.038562E+04 -9.474078E-09 -4.880758E-09
       353  11 -1.359790E+05  1.099155E+05  8.234574E+04  1.271269E+04 -5.437341E-09  2.289802E-09
       353  12 -1.787449E+05  9.987107E+04  8.100439E+04  2.515152E+04  8.739552E-11  3.800361E-09
       353  13 -5.827462E+05 -9.208652E+03 -3.542454E+04  2.273245E+04  2.326184E-09 -2.844637E-09
       353  14 -5.808658E+05  6.675059E+02 -1.885066E+04  1.266416E+04  4.121679E-10 -1.251970E-10
       353  15 -5.827303E+05  6.362504E+02 -1.095520E+04  2.270866E+04  1.511549E-10 -1.347625E-09
       353  16 -1.068416E+06 -1.285869E+05 -1.462643E+05  2.507729E+04  8.537900E-09 -5.331138E-10
       353  17 -1.025569E+06 -1.085942E+05 -1.200599E+05  1.261555E+04  4.477779E-09  6.939858E-10
       353  18 -9.865643E+05 -9.860986E+04 -1.029254E+05  2.026731E+04 -1.202444E-10  8.740345E-10
       353  19 -9.685616E+04  1.101539E+05  7.540216E+04  2.038611E+04  2.813350E+04  2.144572E+04
       353  20 -1.359785E+05  1.099160E+05  8.234720E+04  1.271300E+04  1.917864E+04  2.018429E+04
       353  21 -1.787447E+05  9.987146E+04  8.100521E+04  2.515167E+04  1.022715E+04  1.818974E+04
       353  22 -5.827453E+05 -9.207956E+03 -3.542226E+04  2.273292E+04  2.744779E+04  2.144544E+04
       353  23 -5.808654E+05  6.680296E+02 -1.884929E+04  1.266445E+04  1.793674E+04  2.018222E+04
       353  24 -5.827302E+05  6.366245E+02 -1.095445E+04  2.270878E+04  8.428461E+03  1.818571E+04
       353  25 -1.068415E+06 -1.285862E+05 -1.462621E+05  2.507775E+04  2.676260E+04  2.144516E+04
       353  26 -1.025568E+06 -1.085936E+05 -1.200586E+05  1.261582E+04  1.669571E+04  2.018015E+04
       353  27 -9.865641E+05 -9.860949E+04 -1.029247E+05  2.026740E+04  6.630930E+03  1.818169E+04
       354   1 -2.156400E+05  8.945708E+04  7.475605E+04  2.352356E+04 -8.309168E+03 -1.687613E+04
       354   2 -2.567679E+05  7.994193E+04  6.911752E+04  1.337590E+04 -5.972454E+03 -1.479041E+04
       354   3 -2.984402E+05  6.983921E+04  6.178903E+04  2.358361E+04 -3.637028E+03 -1.266342E+04
       354   4 -5.820140E+05 -4.929656E+02 -8.451149E+03  2.277092E+04 -6.725953E+03 -1.687243E+04
       354   5 -5.817340E+05  1.377812E+02 -4.775155E+03  1.259195E+04 -4.358854E+03 -1.478628E+04
       354   6 -5.820057E+05  1.754313E+02 -2.810967E+03  2.276900E+04 -1.992888E+03 -1.265883E+04
       354   7 -9.482633E+05 -9.045228E+04 -9.166703E+04  2.201865E+04 -5.143663E+03 -1.686874E+04
       354   8 -9.066021E+05 -7.967368E+04 -7.867468E+04  1.180834E+04 -2.746090E+03 -1.478215E+04
       354   9 -8.654965E+05 -6.949392E+04 -6.741619E+04  2.195471E+04 -3.494938E+02 -1.265425E+04
       354  10 -2.156401E+05  8.945675E+04  7.475539E+04  2.352345E+04 -3.004128E-09  5.584876E-09
       354  11 -2.567680E+05  7.994169E+04  6.911704E+04  1.337583E+04 -1.804096E-09  3.804993E-09
       354  12 -2.984402E+05  6.983903E+04  6.178870E+04  2.358357E+04  3.197649E-09 -6.091388E-10
       354  13 -5.820141E+05 -4.932834E+02 -8.451769E+03  2.277083E+04  1.881929E-09 -1.772982E-09
       354  14 -5.817341E+05  1.375414E+02 -4.775601E+03  1.259190E+04 -1.591295E-09  4.660604E-09
       354  15 -5.820057E+05  1.752582E+02 -2.811276E+03  2.276898E+04 -5.037874E-10  7.022321E-09
       354  16 -9.482634E+05 -9.045259E+04 -9.166762E+04  2.201858E+04  1.041147E-09  3.273943E-09
       354  17 -9.066021E+05 -7.967391E+04 -7.867510E+04  1.180831E+04 -8.899489E-10  5.985789E-09
       354  18 -8.654965E+05 -6.949409E+04 -6.741649E+04  2.195470E+04 -2.506828E-09  4.017978E-09
       354  19 -2.156400E+05  8.945708E+04  7.475605E+04  2.352356E+04  8.309168E+03  1.687613E+04
       354  20 -2.567679E+05  7.994193E+04  6.911752E+04  1.337590E+04  5.972454E+03  1.479041E+04
       354  21 -2.984402E+05  6.983921E+04  6.178903E+04  2.358361E+04  3.637028E+03  1.266342E+04
       354  22 -5.820140E+05 -4.929656E+02 -8.451149E+03  2.277092E+04  6.725953E+03  1.687243E+04
       354  23 -5.817340E+05  1.377812E+02 -4.775155E+03  1.259195E+04  4.358854E+03  1.478628E+04
       354  24 -5.820057E+05  1.754313E+02 -2.810967E+03  2.276900E+04  1.992888E+03  1.265883E+04
       354  25 -9.482633E+05 -9.045228E+04 -9.166703E+04  2.201865E+04  5.143663E+03  1.686874E+04
       354  26 -9.066021E+05 -7.967368E+04 -7.867468E+04  1.180834E+04  2.746090E+03  1.478215E+04
       354  27 -8.654965E+05 -6.949392E+04 -6.741619E+04  2.195471E+04  3.494938E+02  1.265425E+04
       355   1 -3.363270E+05  6.039820E+04  5.353145E+04  2.342455E+04 -3.184040E+03 -1.141704E+04
       355   2 -3.779454E+05  5.016362E+04  4.495471E+04  1.306239E+04 -2.499914E+03 -9.279139E+03
       355   3 -4.197729E+05  4.000496E+04  3.591950E+04  2.321476E+04 -1.816514E+03 -7.135205E+03
       355   4 -5.819254E+05  1.059574E+02 -2.195967E+03  2.280495E+04 -1.546335E+03 -1.141229E+04
       355   5 -5.818169E+05  9.388567E+01 -1.404886E+03  1.254740E+04 -8.578827E+02 -9.274149E+03
       355   6 -5.819205E+05  1.568910E+02 -1.075524E+03  2.280478E+04 -1.701104E+02 -7.129972E+03
       355   7 -8.274677E+05 -6.019045E+04 -5.792728E+04  2.218556E+04  9.072778E+01 -1.140754E+04
       355   8 -7.856497E+05 -4.997873E+04 -4.776717E+04  1.203254E+04  7.836143E+02 -9.269162E+03
       355   9 -7.440437E+05 -3.969300E+04 -3.807225E+04  2.239488E+04  1.475867E+03 -7.124739E+03
       355  10 -3.363271E+05  6.039806E+04  5.353119E+04  2.342452E+04  2.791456E-09 -1.373918E-09
       355  11 -3.779455E+05  5.016353E+04  4.495454E+04  1.306237E+04 -7.340103E-10  8.969572E-09
       355  12 -4.197729E+05  4.000490E+04  3.591940E+04  2.321475E+04 -2.349530E-09  8.000120E-09
       355  13 -5.819254E+05  1.058170E+02 -2.196216E+03  2.280494E+04  1.611769E-09  1.387490E-09
       355  14 -5.818169E+05  9.379313E+01 -1.405049E+03  1.254739E+04 -1.814280E-09  6.826120E-09
       355  15 -5.819205E+05  1.568365E+02 -1.075619E+03  2.280478E+04 -4.985673E-10  3.923757E-09
       355  16 -8.274677E+05 -6.019059E+04 -5.792752E+04  2.218556E+04 -4.010162E-09  1.902008E-09
       355  17 -7.856497E+05 -4.997882E+04 -4.776733E+04  1.203255E+04 -4.619183E-10 -1.458714E-09
       355  18 -7.440438E+05 -3.969306E+04 -3.807235E+04  2.239489E+04  2.576245E-09  1.020885E-10
       355  19 -3.363270E+05  6.039820E+04  5.353145E+04  2.342455E+04  3.184040E+03  1.141704E+04
       355  20 -3.779454E+05  5.016362E+04  4.495471E+04  1.306239E+04  2.499914E+03  9.279139E+03
       355  21 -4.197729E+05  4.000496E+04  3.591950E+04  2.321476E+04  1.816514E+03  7.135205E+03
       355  22 -5.819254E+05  1.059574E+02 -2.195967E+03  2.280495E+04  1.546335E+03  1.141229E+04
       355  23 -5.818169E+05  9.388567E+01 -1.404886E+03  1.254740E+04  8.578827E+02  9.274149E+03
       355  24 -5.819205E+05  1.568910E+02 -1.075524E+03  2.280478E+04  1.701104E+02  7.129972E+03
       355  25 -8.274677E+05 -6.019045E+04 -5.792728E+04  2.218556E+04 -9.072778E+01  1.140754E+04
       355  26 -7.856497E+05 -4.997873E+04 -4.776717E+04  1.203254E+04 -7.836143E+02  9.269162E+03
       355  27 -7.440437E+05 -3.969300E+04 -3.807225E+04  2.239488E+04 -1.475867E+03  7.124739E+03
       356   1 -4.579662E+05  3.057594E+04  2.702397E+04  2.312769E+04 -1.630874E+03 -5.885386E+03
       356   2 -4.997514E+05  2.025683E+04  1.744249E+04  1.270639E+04 -1.036020E+03 -3.735462E+03
       356   3 -5.417572E+05  1.002684E+04  7.457824E+03  2.288945E+04 -4.414643E+02 -1.584528E+03
       356   4 -5.819200E+05  1.564379E+02 -1.042577E+03  2.282470E+04  1.742554E+01 -5.880044E+03
       356   5 -5.818082E+05  1.028212E+02 -1.218190E+03  1.252246E+04  6.129397E+02 -3.730030E+03
       356   6 -5.819182E+05  1.384842E+02 -1.797232E+03  2.282475E+04  1.208196E+03 -1.578999E+03
       356   7 -7.058595E+05 -3.026412E+04 -2.911010E+04  2.252176E+04  1.665399E+03 -5.874703E+03
       356   8 -6.638588E+05 -2.005165E+04 -1.987929E+04  1.233856E+04  2.261683E+03 -3.724598E+03
       356   9 -6.220778E+05 -9.749984E+03 -1.105238E+04  2.276005E+04  2.857750E+03 -1.573469E+03
       356  10 -4.579663E+05  3.057590E+04  2.702390E+04  2.312768E+04  4.913460E-09  3.174950E-09
       356  11 -4.997514E+05  2.025681E+04  1.744246E+04  1.270639E+04  2.831865E-09  1.410575E-09
       356  12 -5.417572E+05  1.002684E+04  7.457818E+03  2.288945E+04 -2.615613E-10 -3.166650E-09
       356  13 -5.819200E+05  1.564008E+02 -1.042642E+03  2.282470E+04  2.389167E-09  1.066904E-08
       356  14 -5.818082E+05  1.028062E+02 -1.218217E+03  1.252247E+04 -3.249527E-09  1.201474E-09
       356  15 -5.819183E+05  1.384812E+02 -1.797239E+03  2.282475E+04 -1.700604E-10 -4.685719E-09
       356  16 -7.058595E+05 -3.026416E+04 -2.911017E+04  2.252176E+04 -6.154760E-09  5.228738E-09
       356  17 -6.638589E+05 -2.005166E+04 -1.987933E+04  1.233856E+04 -4.269659E-09 -2.872241E-09
       356  18 -6.220778E+05 -9.749989E+03 -1.105240E+04  2.276006E+04 -5.715190E-10 -3.790732E-09
       356  19 -4.579662E+05  3.057594E+04  2.702397E+04  2.312769E+04  1.630874E+03  5.885386E+03
       356  20 -4.997514E+05  2.025683E+04  1.744249E+04  1.270639E+04  1.036020E+03  3.735462E+03
       356  21 -5.417572E+05  1.002684E+04  7.457824E+03  2.288945E+04  4.414643E+02  1.584528E+03
       356  22 -5.819200E+05  1.564379E+02 -1.042577E+03  2.282470E+04 -1.742554E+01  5.880044E+03
       356  23 -5.818082E+05  1.028212E+02 -1.218190E+03  1.252246E+04 -6.129397E+02  3.730030E+03
       356  24 -5.819182E+05  1.384842E+02 -1.797232E+03  2.282475E+04 -1.208196E+03  1.578999E+03
       356  25 -7.058595E+05 -3.026412E+04 -2.911010E+04  2.252176E+04 -1.665399E+03  5.874703E+03
       356  26 -6.638588E+05 -2.005165E+04 -1.987929E+04  1.233856E+04 -2.261683E+03  3.724598E+03
       356  27 -6.220778E+05 -9.749984E+03 -1.105238E+04  2.276005E+04 -2.857750E+03  1.573469E+03
       357   1 -5.801050E+05  6.298673E+02 -1.964393E+03  2.270184E+04 -8.578729E+01 -3.292061E+02
       357   2 -6.217625E+05 -9.680664E+03 -1.290363E+04  1.235851E+04  1.808197E+03  1.824707E+03
       357   3 -6.639440E+05 -2.042488E+04 -2.522411E+04  2.263194E+04  3.702243E+03  3.959071E+03
       357   4 -5.819848E+05  1.935672E+02 -2.269980E+03  2.282688E+04  1.569870E+03 -3.236413E+02
       357   5 -5.817242E+05  1.547263E+02 -3.796414E+03  1.251940E+04  3.448920E+03  1.830174E+03
       357   6 -5.819865E+05 -3.150334E+02 -6.693494E+03  2.282859E+04  5.328158E+03  3.964448E+03
       357   7 -5.838646E+05 -2.427315E+02 -2.575558E+03  2.295193E+04  3.225523E+03 -3.180757E+02
       357   8 -5.416843E+05  9.990007E+03  5.310712E+03  1.268030E+04  5.089749E+03  1.835642E+03
       357   9 -5.000227E+05  1.979435E+04  1.183670E+04  2.302526E+04  6.954286E+03  3.969825E+03
       357  10 -5.801050E+05  6.298671E+02 -1.964393E+03  2.270184E+04 -5.094058E-09  1.741293E-09
       357  11 -6.217625E+05 -9.680669E+03 -1.290365E+04  1.235851E+04 -4.266489E-09  7.522188E-10
       357  12 -6.639441E+05 -2.042490E+04 -2.522417E+04  2.263193E+04 -7.749573E-10  2.119637E-09
       357  13 -5.819848E+05  1.935664E+02 -2.269985E+03  2.282688E+04  1.242275E-09 -3.372405E-09
       357  14 -5.817242E+05  1.547195E+02 -3.796443E+03  1.251939E+04 -1.431353E-09  1.432410E-09
       357  15 -5.819865E+05 -3.150579E+02 -6.693577E+03  2.282857E+04 -1.676996E-10  3.924401E-09
       357  16 -5.838646E+05 -2.427344E+02 -2.575577E+03  2.295193E+04  3.447827E-09  1.842461E-09
       357  17 -5.416844E+05  9.989997E+03  5.310657E+03  1.268029E+04  1.668459E-09 -8.888881E-09
       357  18 -5.000227E+05  1.979432E+04  1.183658E+04  2.302524E+04  9.278567E-10 -2.013198E-09
       357  19 -5.801050E+05  6.298673E+02 -1.964393E+03  2.270184E+04  8.578729E+01  3.292061E+02
       357  20 -6.217625E+05 -9.680664E+03 -1.290363E+04  1.235851E+04 -1.808197E+03 -1.824707E+03
       357  21 -6.639440E+05 -2.042488E+04 -2.522411E+04  2.263194E+04 -3.702243E+03 -3.959071E+03
       357  22 -5.819848E+05  1.935672E+02 -2.269980E+03  2.282688E+04 -1.569870E+03  3.236413E+02
       357  23 -5.817242E+05  1.547263E+02 -3.796414E+03  1.251940E+04 -3.448920E+03 -1.830174E+03
       357  24 -5.819865E+05 -3.150334E+02 -6.693494E+03  2.282859E+04 -5.328158E+03 -3.964448E+03
       357  25 -5.838646E+05 -2.427315E+02 -2.575558E+03  2.295193E+04 -3.225523E+03  3.180757E+02
       357  26 -5.416843E+05  9.990007E+03  5.310712E+03  1.268030E+04 -5.089749E+03 -1.835642E+03
       357  27 -5.000227E+05  1.979435E+04  1.183670E+04  2.302526E+04 -6.954286E+03 -3.969825E+03
       358   1 -7.027446E+05 -2.897870E+04 -3.612032E+04  2.122549E+04  4.928071E+03  5.257695E+03
       358   2 -7.429880E+05 -3.919776E+04 -5.175939E+04  1.276964E+04  1.274655E+04  7.356829E+03
       358   3 -7.863623E+05 -5.725906E+04 -7.448835E+04  2.487071E+04  2.056609E+04  9.053265E+03
       358   4 -5.825560E+05  5.778643E+02 -8.669611E+03  2.280712E+04  6.674586E+03  5.263409E+03
       358   5 -5.810206E+05  5.893413E+02 -1.489540E+04  1.254122E+04  1.418579E+04  7.361336E+03
       358   6 -5.825638E+05 -7.186746E+03 -2.799604E+04  2.283206E+04  2.169858E+04  9.056572E+03
       358   7 -4.623539E+05  3.013344E+04  1.878017E+04  2.438904E+04  8.421436E+03  5.269130E+03
       358   8 -4.190288E+05  4.037463E+04  2.196690E+04  1.231273E+04  1.562540E+04  7.365840E+03
       358   9 -3.787267E+05  4.288271E+04  1.849356E+04  2.079271E+04  2.283144E+04  9.059871E+03
       358  10 -7.027447E+05 -2.897874E+04 -3.612042E+04  2.122547E+04  3.645397E-09  8.886475E-09
       358  11 -7.429882E+05 -3.919786E+04 -5.175980E+04  1.276957E+04  2.758021E-09  3.245119E-09
       358  12 -7.863628E+05 -5.725927E+04 -7.448930E+04  2.487056E+04  6.664828E-10  6.069801E-09
       358  13 -5.825560E+05  5.778226E+02 -8.669747E+03  2.280709E+04  1.212476E-09  6.841459E-09
       358  14 -5.810208E+05  5.892290E+02 -1.489588E+04  1.254114E+04 -5.782111E-10  8.879188E-09
       358  15 -5.825643E+05 -7.186961E+03 -2.799708E+04  2.283190E+04  6.428930E-11 -4.432356E-10
       358  16 -4.623539E+05  3.013339E+04  1.877998E+04  2.438900E+04 -4.590886E-09  2.550615E-09
       358  17 -4.190291E+05  4.037450E+04  2.196634E+04  1.231263E+04 -4.401902E-09  1.047549E-09
       358  18 -3.787273E+05  4.288248E+04  1.849243E+04  2.079254E+04 -7.785517E-10 -5.940702E-09
       358  19 -7.027446E+05 -2.897870E+04 -3.612032E+04  2.122549E+04 -4.928071E+03 -5.257695E+03
       358  20 -7.429880E+05 -3.919776E+04 -5.175939E+04  1.276964E+04 -1.274655E+04 -7.356829E+03
       358  21 -7.863623E+05 -5.725906E+04 -7.448835E+04  2.487071E+04 -2.056609E+04 -9.053265E+03
       358  22 -5.825560E+05  5.778643E+02 -8.669611E+03  2.280712E+04 -6.674586E+03 -5.263409E+03
       358  23 -5.810206E+05  5.893413E+02 -1.489540E+04  1.254122E+04 -1.418579E+04 -7.361336E+03
       358  24 -5.825638E+05 -7.186746E+03 -2.799604E+04  2.283206E+04 -2.169858E+04 -9.056572E+03
       358  25 -4.623539E+05  3.013344E+04  1.878017E+04  2.438904E+04 -8.421436E+03 -5.269130E+03
       358  26 -4.190288E+05  4.037463E+04  2.196690E+04  1.231273E+04 -1.562540E+04 -7.365840E+03
       358  27 -3.787267E+05  4.288271E+04  1.849356E+04  2.079271E+04 -2.283144E+04 -9.059871E+03
       359   1 -8.308669E+05 -5.364105E+04 -8.983994E+04  6.445659E+03  2.306204E+04  1.124074E+04
       359   2 -8.561123E+05 -6.393565E+04 -1.231385E+05  2.687922E+04  6.060512E+04  1.195659E+04
       359   3 -9.144709E+05 -1.866163E+05 -2.090218E+05  6.762064E+04  9.817068E+04  4.180309E+03
       359   4 -5.889815E+05  5.885763E+03 -3.487856E+04  2.266878E+04  2.678708E+04  1.125266E+04
       359   5 -5.730159E+05  5.609078E+03 -5.821362E+04  1.267929E+04  5.782509E+04  1.194641E+04
       359   6 -5.890192E+05 -1.058983E+05 -1.295968E+05  2.299963E+04  8.888843E+04  4.146061E+03
       359   7 -3.470412E+05  6.540949E+04  2.007921E+04  3.889825E+04  3.051356E+04  1.126477E+04
       359   8 -2.898446E+05  7.514901E+04  6.706080E+03 -1.527223E+03  5.504379E+04  1.193635E+04
       359   9 -2.634663E+05 -2.518059E+04 -5.017808E+04 -2.164491E+04  7.960130E+04  4.113160E+03
       359  10 -8.308675E+05 -5.364133E+04 -8.984117E+04  6.445451E+03 -9.914960E-09  5.146301E-09
       359  11 -8.561163E+05 -6.393679E+04 -1.231456E+05  2.687863E+04 -5.517730E-09 -1.736350E-09
       359  12 -9.144812E+05 -1.866189E+05 -2.090400E+05  6.762031E+04  1.501002E-09  5.076245E-10
       359  13 -5.889823E+05  5.885434E+03 -3.488015E+04  2.266854E+04  1.806840E-09  7.288192E-09
       359  14 -5.730195E+05  5.608026E+03 -5.822018E+04  1.267874E+04 -9.218653E-10 -7.392924E-09
       359  15 -5.890277E+05 -1.059005E+05 -1.296117E+05  2.299934E+04  6.461807E-11  4.802815E-09
       359  16 -3.470422E+05  6.540911E+04  2.007722E+04  3.889797E+04  8.572208E-09  1.388278E-09
       359  17 -2.898479E+05  7.514805E+04  6.700116E+03 -1.527753E+03  3.203087E-09  3.630554E-09
       359  18 -2.634731E+05 -2.518231E+04 -5.019002E+04 -2.164517E+04 -1.543766E-09 -1.175770E-09
       359  19 -8.308669E+05 -5.364105E+04 -8.983994E+04  6.445659E+03 -2.306204E+04 -1.124074E+04
       359  20 -8.561123E+05 -6.393565E+04 -1.231385E+05  2.687922E+04 -6.060512E+04 -1.195659E+04
       359  21 -9.144709E+05 -1.866163E+05 -2.090218E+05  6.762064E+04 -9.817068E+04 -4.180309E+03
       359  22 -5.889815E+05  5.885763E+03 -3.487856E+04  2.266878E+04 -2.678708E+04 -1.125266E+04
       359  23 -5.730159E+05  5.609078E+03 -5.821362E+04  1.267929E+04 -5.782509E+04 -1.194641E+04
       359  24 -5.890192E+05 -1.058983E+05 -1.295968E+05  2.299963E+04 -8.888843E+04 -4.146061E+03
       359  25 -3.470412E+05  6.540949E+04  2.007921E+04  3.889825E+04 -3.051356E+04 -1.126477E+04
       359  26 -2.898446E+05  7.514901E+04  6.706080E+03 -1.527223E+03 -5.504379E+04 -1.193635E+04
       359  27 -2.634663E+05 -2.518059E+04 -5.017808E+04 -2.164491E+04 -7.960130E+04 -4.113160E+03
       360   1  5.284558E+05  2.648811E+06  5.604296E+05 -2.876846E+05  1.517385E+04  1.738754E+05
       360   2  2.561517E+05  2.265007E+06  3.469740E+05 -1.517872E+05  4.356030E+04  9.066527E+04
       360   3  1.705000E+05  1.938303E+06  2.341182E+05 -1.884765E+05  3.282598E+04  7.416153E+03
       360   4  1.713614E+05  1.212548E+06  2.098857E+05 -2.117058E+05  1.527705E+04  1.369034E+05
       360   5 -8.657733E+03  1.186761E+06  9.982183E+04 -1.256228E+05  4.358608E+04  8.394345E+04
       360   6 -7.073893E+03  1.212853E+06  6.954471E+04 -2.121145E+05  3.275738E+04  3.089523E+04
       360   7 -1.858632E+05 -2.218264E+05 -1.408004E+05 -1.359012E+05  1.537139E+04  1.000162E+05
       360   8 -2.735456E+05  1.095888E+05 -1.474063E+05 -9.950337E+04  4.361132E+04  7.723307E+04
       360   9 -1.846815E+05  4.878939E+05 -9.506037E+04 -2.357244E+05  3.268695E+04  5.434717E+04
       360  10  5.284474E+05  2.648779E+06  5.603726E+05 -2.876867E+05 -5.568193E-10  1.512474E-09
       360  11  2.561475E+05  2.264998E+06  3.469551E+05 -1.517904E+05 -2.176383E-09 -4.364973E-09
       360  12  1.704989E+05  1.938302E+06  2.341161E+05 -1.884767E+05  1.695882E-09 -3.592990E-09
       360  13  1.713561E+05  1.212528E+06  2.098501E+05 -2.117074E+05 -2.817873E-10 -2.282132E-09
       360  14 -8.661663E+03  1.186753E+06  9.980503E+04 -1.256258E+05 -1.249119E-09 -4.487660E-12
       360  15 -7.075302E+03  1.212852E+06  6.954090E+04 -2.121153E+05 -1.253834E-09 -6.528613E-10
       360  16 -1.858661E+05 -2.218372E+05 -1.408196E+05 -1.359024E+05 -2.662164E-10  1.450221E-09
       360  17 -2.735492E+05  1.095818E+05 -1.474211E+05 -9.950608E+04  1.381457E-09  2.720498E-09
       360  18 -1.846835E+05  4.878904E+05 -9.506793E+04 -2.357258E+05 -2.686528E-09  1.612963E-09
       360  19  5.284558E+05  2.648811E+06  5.604296E+05 -2.876846E+05 -1.517385E+04 -1.738754E+05
       360  20  2.561517E+05  2.265007E+06  3.469740E+05 -1.517872E+05 -4.356030E+04 -9.066527E+04
       360  21  1.705000E+05  1.938303E+06  2.341182E+05 -1.884765E+05 -3.282598E+04 -7.416153E+03
       360  22  1.713614E+05  1.212548E+06  2.098857E+05 -2.117058E+05 -1.527705E+04 -1.369034E+05
       360  23 -8.657733E+03  1.186761E+06  9.982183E+04 -1.256228E+05 -4.358608E+04 -8.394345E+04
       360  24 -7.073893E+03  1.212853E+06  6.954471E+04 -2.121145E+05 -3.275738E+04 -3.089523E+04
       360  25 -1.858632E+05 -2.218264E+05 -1.408004E+05 -1.359012E+05 -1.537139E+04 -1.000162E+05
       360  26 -2.735456E+05  1.095888E+05 -1.474063E+05 -9.950337E+04 -4.361132E+04 -7.723307E+04
       360  27 -1.846815E+05  4.878939E+05 -9.506037E+04 -2.357244E+05 -3.268695E+04 -5.434717E+04
       361   1  1.106444E+05  1.605515E+06  1.544148E+05 -2.199773E+05  1.776039E+04  7.908147E+03
       361   2  1.067334E+04  1.246856E+06  6.672774E+04 -1.252114E+05  2.240491E+03 -2.039071E+04
       361   3 -5.834502E+04  8.985148E+05  4.885943E+03 -2.038891E+05 -1.338728E+04 -4.867556E+04
       361   4  1.206121E+04  1.203656E+06  6.299501E+04 -2.121835E+05  1.772357E+04  1.986832E+04
       361   5 -1.162747E+03  1.198566E+06  5.576045E+04 -1.254566E+05  2.203134E+03 -8.342935E+03
       361   6  1.656026E+04  1.203661E+06  7.432019E+04 -2.121695E+05 -1.342490E+04 -3.655582E+04
       361   7 -8.653281E+04  8.019473E+05 -2.843469E+04 -2.043946E+05  1.768703E+04  3.182083E+04
       361   8 -1.299891E+04  1.150278E+06  4.479356E+04 -1.257017E+05  2.165765E+03  3.703919E+03
       361   9  9.145942E+04  1.508894E+06  1.437490E+05 -2.204540E+05 -1.346284E+04 -2.443018E+04
       361  10  1.106440E+05  1.605515E+06  1.544141E+05 -2.199774E+05  6.323136E-10  1.722091E-09
       361  11  1.067322E+04  1.246855E+06  6.672695E+04 -1.252114E+05  2.105966E-11 -6.490419E-09
       361  12 -5.834585E+04  8.985122E+05  4.881159E+03 -2.038896E+05 -8.707652E-10 -6.047280E-09
       361  13  1.206076E+04  1.203656E+06  6.299368E+04 -2.121838E+05 -6.346591E-10 -2.977774E-09
       361  14 -1.162771E+03  1.198566E+06  5.576031E+04 -1.254566E+05  2.966438E-09 -3.171552E-10
       361  15  1.655971E+04  1.203659E+06  7.431735E+04 -2.121699E+05  8.328096E-10 -5.510028E-10
       361  16 -8.653342E+04  8.019462E+05 -2.843718E+04 -2.043951E+05 -1.051666E-09  2.903586E-09
       361  17 -1.299892E+04  1.150278E+06  4.479352E+04 -1.257017E+05 -2.704933E-10  4.478346E-09
       361  18  9.145907E+04  1.508893E+06  1.437475E+05 -2.204543E+05 -2.362745E-09  4.126043E-09
       361  19  1.106444E+05  1.605515E+06  1.544148E+05 -2.199773E+05 -1.776039E+04 -7.908147E+03
       361  20  1.067334E+04  1.246856E+06  6.672774E+04 -1.252114E+05 -2.240491E+03  2.039071E+04
       361  21 -5.834502E+04  8.985148E+05  4.885943E+03 -2.038891E+05  1.338728E+04  4.867556E+04
       361  22  1.206121E+04  1.203656E+06  6.299501E+04 -2.121835E+05 -1.772357E+04 -1.986832E+04
       361  23 -1.162747E+03  1.198566E+06  5.576045E+04 -1.254566E+05 -2.203134E+03  8.342935E+03
       361  24  1.656026E+04  1.203661E+06  7.432019E+04 -2.121695E+05  1.342490E+04  3.655582E+04
       361  25 -8.653281E+04  8.019473E+05 -2.843469E+04 -2.043946E+05 -1.768703E+04 -3.182083E+04
       361  26 -1.299891E+04  1.150278E+06  4.479356E+04 -1.257017E+05 -2.165765E+03 -3.703919E+03
       361  27  9.145942E+04  1.508894E+06  1.437490E+05 -2.204540E+05  1.346284E+04  2.443018E+04
       362   1 -1.644564E+05  5.885690E+05 -5.661338E+04 -2.449722E+05 -2.812300E+04 -7.263011E+04
       362   2 -2.529026E+05  2.014054E+05 -9.329066E+04 -9.109314E+04 -3.942141E+04 -1.144480E+05
       362   3 -1.005649E+05 -1.204662E+05 -4.265172E+04 -1.097052E+05 -1.397109E+04 -1.561516E+05
       362   4 -1.061905E+04  1.216891E+06  8.608073E+04 -2.121317E+05 -2.819545E+04 -4.978745E+04
       362   5 -1.174473E+04  1.181767E+06  1.317913E+05 -1.256195E+05 -3.939664E+04 -1.199388E+05
       362   6  2.326004E+05  1.216569E+06  2.843528E+05 -2.115476E+05 -1.386588E+04 -1.900018E+05
       362   7  1.431956E+05  1.845582E+06  2.287519E+05 -1.792574E+05 -2.826544E+04 -2.692189E+04
       362   8  2.293504E+05  2.163020E+06  3.568107E+05 -1.602001E+05 -3.937127E+04 -1.254381E+05
       362   9  5.656724E+05  2.555257E+06  6.112365E+05 -3.136086E+05 -1.374972E+04 -2.239243E+05
       362  10 -1.644587E+05  5.885631E+05 -5.662478E+04 -2.449738E+05  3.913387E-10  1.575067E-09
       362  11 -2.529077E+05  2.013910E+05 -9.331819E+04 -9.109677E+04  1.599020E-09 -4.378460E-09
       362  12 -1.005716E+05 -1.204924E+05 -4.269792E+04 -1.097069E+05  2.778482E-10 -2.191018E-09
       362  13 -1.062057E+04  1.216888E+06  8.607458E+04 -2.121328E+05 -2.328585E-09 -2.966672E-09
       362  14 -1.175025E+04  1.181751E+06  1.317614E+05 -1.256233E+05  2.944694E-09 -7.431616E-10
       362  15  2.325905E+05  1.216531E+06  2.842847E+05 -2.115497E+05  2.444607E-10  8.065485E-11
       362  16  1.431946E+05  1.845581E+06  2.287490E+05 -1.792580E+05 -7.263498E-10  2.044804E-09
       362  17  2.293445E+05  2.163003E+06  3.567783E+05 -1.602041E+05  2.858047E-09  1.585118E-09
       362  18  5.656588E+05  2.555203E+06  6.111423E+05 -3.136111E+05  5.529761E-10  1.066305E-09
       362  19 -1.644564E+05  5.885690E+05 -5.661338E+04 -2.449722E+05  2.812300E+04  7.263011E+04
       362  20 -2.529026E+05  2.014054E+05 -9.329066E+04 -9.109314E+04  3.942141E+04  1.144480E+05
       362  21 -1.005649E+05 -1.204662E+05 -4.265172E+04 -1.097052E+05  1.397109E+04  1.561516E+05
       362  22 -1.061905E+04  1.216891E+06  8.608073E+04 -2.121317E+05  2.819545E+04  4.978745E+04
       362  23 -1.174473E+04  1.181767E+06  1.317913E+05 -1.256195E+05  3.939664E+04  1.199388E+05
       362  24  2.326004E+05  1.216569E+06  2.843528E+05 -2.115476E+05  1.386588E+04  1.900018E+05
       362  25  1.431956E+05  1.845582E+06  2.287519E+05 -1.792574E+05  2.826544E+04  2.692189E+04
       362  26  2.293504E+05  2.163020E+06  3.568107E+05 -1.602001E+05  3.937127E+04  1.254381E+05
       362  27  5.656724E+05  2.555257E+06  6.112365E+05 -3.136086E+05  1.374972E+04  2.239243E+05
       363   1  4.542171E+05  1.523999E+05  8.535227E+04  1.377906E+05 -1.871338E+04 -1.515044E+04
       363   2  4.266025E+05  1.842918E+05  1.003918E+05  1.155478E+05 -1.009627E+04 -2.890916E+04
       363   3  3.677617E+05  1.847136E+05  1.007550E+05  1.213002E+05 -7.013145E+03 -2.799156E+04
       363   4 -9.475263E+04 -3.700016E+04 -5.865580E+04  5.843938E+03 -3.468337E+04 -2.117302E+04
       363   5 -7.492348E+04  1.966812E+03 -2.508015E+04 -1.651777E+04 -1.551511E+04 -3.095538E+04
       363   6 -8.842869E+04  7.352007E+03 -1.455394E+04 -1.087925E+04 -1.882496E+03 -2.605572E+04
       363   7 -6.434241E+05 -2.263909E+05 -2.026857E+05 -1.260010E+05 -5.063756E+04 -2.719079E+04
       363   8 -5.761997E+05 -1.803437E+05 -1.505706E+05 -1.484874E+05 -2.092911E+04 -3.299989E+04
       363   9 -5.444143E+05 -1.699910E+05 -1.298794E+05 -1.429689E+05  3.244033E+03 -2.412157E+04
       363  10  4.542167E+05  1.523996E+05  8.535118E+04  1.377903E+05 -1.192893E-09  8.794560E-10
       363  11  4.266022E+05  1.842909E+05  1.003901E+05  1.155476E+05 -9.097319E-10  1.514042E-09
       363  12  3.677615E+05  1.847127E+05  1.007535E+05  1.213001E+05  7.986817E-10  3.678542E-09
       363  13 -9.475404E+04 -3.700097E+04 -5.865890E+04  5.843346E+03  1.743142E-09  2.519338E-09
       363  14 -7.492400E+04  1.965719E+03 -2.508241E+04 -1.651816E+04 -9.760411E-10  9.052277E-10
       363  15 -8.842888E+04  7.351277E+03 -1.455522E+04 -1.087929E+04 -1.092770E-09  5.460378E-10
       363  16 -6.434271E+05 -2.263924E+05 -2.026919E+05 -1.260021E+05  4.518801E-10  9.267675E-10
       363  17 -5.762005E+05 -1.803450E+05 -1.505735E+05 -1.484879E+05 -1.049809E-09 -3.662931E-09
       363  18 -5.444145E+05 -1.699916E+05 -1.298805E+05 -1.429689E+05 -2.254784E-09  1.358412E-10
       363  19  4.542171E+05  1.523999E+05  8.535227E+04  1.377906E+05  1.871338E+04  1.515044E+04
       363  20  4.266025E+05  1.842918E+05  1.003918E+05  1.155478E+05  1.009627E+04  2.890916E+04
       363  21  3.677617E+05  1.847136E+05  1.007550E+05  1.213002E+05  7.013145E+03  2.799156E+04
       363  22 -9.475263E+04 -3.700016E+04 -5.865580E+04  5.843938E+03  3.468337E+04  2.117302E+04
       363  23 -7.492348E+04  1.966812E+03 -2.508015E+04 -1.651777E+04  1.551511E+04  3.095538E+04
       363  24 -8.842869E+04  7.352007E+03 -1.455394E+04 -1.087925E+04  1.882496E+03  2.605572E+04
       363  25 -6.434241E+05 -2.263909E+05 -2.026857E+05 -1.260010E+05  5.063756E+04  2.719079E+04
       363  26 -5.761997E+05 -1.803437E+05 -1.505706E+05 -1.484874E+05  2.092911E+04  3.299989E+04
       363  27 -5.444143E+05 -1.699910E+05 -1.298794E+05 -1.429689E+05 -3.244033E+03  2.412157E+04
       364   1  3.389990E+05  1.609030E+05  9.526980E+04  1.083119E+05 -1.624410E+03 -2.264863E+04
       364   2  3.092007E+05  1.438429E+05  9.137381E+04  8.960365E+04  4.099120E+02 -2.054997E+04
       364   3  2.635558E+05  1.375255E+05  8.469450E+04  8.796600E+04  2.166146E+03 -1.771917E+04
       364   4 -8.666534E+04  2.376220E+03 -1.165629E+04 -7.719040E+03 -1.045712E+03 -2.243125E+04
       364   5 -7.844528E+04 -1.263352E+03 -5.865809E+03 -1.688731E+04  1.513561E+03 -2.013392E+04
       364   6 -8.617822E+04  5.734867E+03 -3.276260E+03 -8.984617E+03  3.794826E+03 -1.710415E+04
       364   7 -5.121543E+05 -1.561397E+05 -1.185972E+05 -1.236787E+05 -4.674437E+02 -2.221403E+04
       364   8 -4.659450E+05 -1.463599E+05 -1.031175E+05 -1.233184E+05  2.616460E+03 -1.971815E+04
       364   9 -4.357925E+05 -1.260473E+05 -9.125674E+04 -1.058857E+05  5.422504E+03 -1.648952E+04
       364  10  3.389989E+05  1.609024E+05  9.526883E+04  1.083118E+05  3.185971E-09  9.510900E-10
       364  11  3.092006E+05  1.438424E+05  9.137302E+04  8.960366E+04  1.161182E-09 -5.947583E-09
       364  12  2.635557E+05  1.375252E+05  8.469391E+04  8.796603E+04 -7.129495E-10 -2.686586E-09
       364  13 -8.666547E+04  2.375680E+03 -1.165723E+04 -7.719059E+03  2.160926E-10 -4.688911E-09
       364  14 -7.844539E+04 -1.263788E+03 -5.866575E+03 -1.688729E+04  2.897690E-10 -5.246877E-09
       364  15 -8.617831E+04  5.734549E+03 -3.276837E+03 -8.984565E+03  4.557814E-10 -5.147105E-09
       364  16 -5.121545E+05 -1.561403E+05 -1.185981E+05 -1.236787E+05 -3.027979E-09 -2.313770E-09
       364  17 -4.659451E+05 -1.463603E+05 -1.031183E+05 -1.233183E+05  1.580386E-09 -4.277862E-09
       364  18 -4.357926E+05 -1.260476E+05 -9.125731E+04 -1.058856E+05  3.393367E-09 -1.424780E-09
       364  19  3.389990E+05  1.609030E+05  9.526980E+04  1.083119E+05  1.624410E+03  2.264863E+04
       364  20  3.092007E+05  1.438429E+05  9.137381E+04  8.960365E+04 -4.099120E+02  2.054997E+04
       364  21  2.635558E+05  1.375255E+05  8.469450E+04  8.796600E+04 -2.166146E+03  1.771917E+04
       364  22 -8.666534E+04  2.376220E+03 -1.165629E+04 -7.719040E+03  1.045712E+03  2.243125E+04
       364  23 -7.844528E+04 -1.263352E+03 -5.865809E+03 -1.688731E+04 -1.513561E+03  2.013392E+04
       364  24 -8.617822E+04  5.734867E+03 -3.276260E+03 -8.984617E+03 -3.794826E+03  1.710415E+04
       364  25 -5.121543E+05 -1.561397E+05 -1.185972E+05 -1.236787E+05  4.674437E+02  2.221403E+04
       364  26 -4.659450E+05 -1.463599E+05 -1.031175E+05 -1.233184E+05 -2.616460E+03  1.971815E+04
       364  27 -4.357925E+05 -1.260473E+05 -9.125674E+04 -1.058857E+05 -5.422504E+03  1.648952E+04
       365   1  2.283023E+05  1.232789E+05  7.624587E+04  7.789808E+04  2.380203E+03 -1.620417E+04
       365   2  1.981535E+05  1.024295E+05  6.815906E+04  5.944867E+04  2.279793E+03 -1.399358E+04
       365   3  1.535263E+05  9.564357E+04  5.953084E+04  5.729238E+04  2.164241E+03 -1.174592E+04
       365   4 -8.600633E+04  5.375014E+03 -2.509189E+03 -8.731596E+03  3.782718E+03 -1.567440E+04
       365   5 -7.874131E+04 -1.522134E+03 -1.334940E+03 -1.692682E+04  3.708741E+03 -1.345345E+04
       365   6 -8.596213E+04  5.639248E+03 -7.233225E+02 -8.828743E+03  3.619660E+03 -1.119541E+04
       365   7 -4.002169E+05 -1.125216E+05 -8.127168E+04 -9.532119E+04  5.184451E+03 -1.514492E+04
       365   8 -3.555610E+05 -1.054686E+05 -7.083499E+04 -9.327145E+04  5.136992E+03 -1.291359E+04
       365   9 -3.253954E+05 -8.436153E+04 -6.098230E+04 -7.492703E+04  5.074471E+03 -1.064513E+04
       365  10  2.283022E+05  1.232786E+05  7.624537E+04  7.789811E+04  2.863169E-10  3.969750E-09
       365  11  1.981534E+05  1.024293E+05  6.815868E+04  5.944870E+04 -1.058865E-10  5.317688E-10
       365  12  1.535262E+05  9.564342E+04  5.953057E+04  5.729240E+04 -6.065947E-10 -3.524084E-09
       365  13 -8.600641E+04  5.374747E+03 -2.509677E+03 -8.731548E+03  1.320458E-09 -7.205664E-11
       365  14 -7.874137E+04 -1.522332E+03 -1.335306E+03 -1.692678E+04  1.347203E-09 -8.879432E-09
       365  15 -8.596218E+04  5.639110E+03 -7.235827E+02 -8.828710E+03 -2.385080E-09  2.661825E-09
       365  16 -4.002170E+05 -1.125219E+05 -8.127216E+04 -9.532113E+04 -1.527830E-09 -2.688057E-09
       365  17 -3.555611E+05 -1.054688E+05 -7.083536E+04 -9.327140E+04 -2.741241E-09 -1.693196E-09
       365  18 -3.253954E+05 -8.436166E+04 -6.098256E+04 -7.492698E+04 -2.798636E-09  2.600938E-09
       365  19  2.283023E+05  1.232789E+05  7.624587E+04  7.789808E+04 -2.380203E+03  1.620417E+04
       365  20  1.981535E+05  1.024295E+05  6.815906E+04  5.944867E+04 -2.279793E+03  1.399358E+04
       365  21  1.535263E+05  9.564357E+04  5.953084E+04  5.729238E+04 -2.164241E+03  1.174592E+04
       365  22 -8.600633E+04  5.375014E+03 -2.509189E+03 -8.731596E+03 -3.782718E+03  1.567440E+04
       365  23 -7.874131E+04 -1.522134E+03 -1.334940E+03 -1.692682E+04 -3.708741E+03  1.345345E+04
       365  24 -8.596213E+04  5.639248E+03 -7.233225E+02 -8.828743E+03 -3.619660E+03  1.119541E+04
       365  25 -4.002169E+05 -1.125216E+05 -8.127168E+04 -9.532119E+04 -5.184451E+03  1.514492E+04
       365  26 -3.555610E+05 -1.054686E+05 -7.083499E+04 -9.327145E+04 -5.136992E+03  1.291359E+04
       365  27 -3.253954E+05 -8.436153E+04 -6.098230E+04 -7.492703E+04 -5.074471E+03  1.064513E+04
       366   1  1.177098E+05  8.208712E+04  5.044739E+04  4.741177E+04  1.833925E+03 -1.052814E+04
       366   2  8.750202E+04  6.091871E+04  4.146985E+04  2.895925E+04  1.204191E+03 -8.469187E+03
       366   3  4.292288E+04  5.409100E+04  3.239266E+04  2.675768E+04  5.730093E+02 -6.408093E+03
       366   4 -8.594535E+04  5.618411E+03 -5.374846E+02 -8.805010E+03  3.278478E+03 -9.981555E+03
       366   5 -7.875469E+04 -1.536400E+03 -2.652748E+02 -1.693533E+04  2.650269E+03 -7.921807E+03
       366   6 -8.593755E+04  5.649132E+03 -9.401507E+01 -8.815144E+03  2.020619E+03 -5.859914E+03
       366   7 -2.895598E+05 -7.084744E+04 -5.152561E+04 -6.500507E+04  4.722512E+03 -9.435162E+03
       366   8 -2.449840E+05 -6.398948E+04 -4.200248E+04 -6.281867E+04  4.095919E+03 -7.374589E+03
       366   9 -2.147812E+05 -4.279140E+04 -3.258185E+04 -4.438113E+04  3.467893E+03 -5.311863E+03
       366  10  1.177097E+05  8.208700E+04  5.044717E+04  4.741179E+04 -2.167612E-09 -6.534197E-10
       366  11  8.750200E+04  6.091863E+04  4.146971E+04  2.895926E+04 -5.570524E-09  4.172272E-09
       366  12  4.292287E+04  5.409096E+04  3.239258E+04  2.675769E+04 -2.197740E-09  3.026521E-09
       366  13 -8.594539E+04  5.618301E+03 -5.376921E+02 -8.804984E+03 -1.735608E-09  2.628123E-09
       366  14 -7.875471E+04 -1.536469E+03 -2.654060E+02 -1.693531E+04  3.611792E-10  1.174856E-08
       366  15 -8.593756E+04  5.649094E+03 -9.408727E+01 -8.815134E+03 -1.214114E-09  3.357674E-09
       366  16 -2.895598E+05 -7.084754E+04 -5.152582E+04 -6.500503E+04  1.721490E-09  7.595685E-09
       366  17 -2.449840E+05 -6.398954E+04 -4.200261E+04 -6.281865E+04 -7.135347E-10  1.114884E-08
       366  18 -2.147812E+05 -4.279143E+04 -3.258193E+04 -4.438112E+04  1.970675E-10  1.716072E-09
       366  19  1.177098E+05  8.208712E+04  5.044739E+04  4.741177E+04 -1.833925E+03  1.052814E+04
       366  20  8.750202E+04  6.091871E+04  4.146985E+04  2.895925E+04 -1.204191E+03  8.469187E+03
       366  21  4.292288E+04  5.409100E+04  3.239266E+04  2.675768E+04 -5.730093E+02  6.408093E+03
       366  22 -8.594535E+04  5.618411E+03 -5.374846E+02 -8.805010E+03 -3.278478E+03  9.981555E+03
       366  23 -7.875469E+04 -1.536400E+03 -2.652748E+02 -1.693533E+04 -2.650269E+03  7.921807E+03
       366  24 -8.593755E+04  5.649132E+03 -9.401507E+01 -8.815144E+03 -2.020619E+03  5.859914E+03
       366  25 -2.895598E+05 -7.084744E+04 -5.152561E+04 -6.500507E+04 -4.722512E+03  9.435162E+03
       366  26 -2.449840E+05 -6.398948E+04 -4.200248E+04 -6.281867E+04 -4.095919E+03  7.374589E+03
       366  27 -2.147812E+05 -4.279140E+04 -3.258185E+04 -4.438113E+04 -3.467893E+03  5.311863E+03
       367   1  7.044021E+03  4.056567E+04  2.317809E+04  1.687629E+04  1.393853E+02 -5.232679E+03
       367   2 -2.317843E+04  1.935076E+04  1.405969E+04 -1.589220E+03 -6.754210E+02 -3.240052E+03
       367   3 -6.776366E+04  1.252048E+04  4.982674E+03 -3.800402E+03 -1.490096E+03 -1.248304E+03
       367   4 -8.593434E+04  5.649655E+03 -2.883253E+01 -8.809770E+03  1.586920E+03 -4.684434E+03
       367   5 -7.875115E+04 -1.535860E+03  1.067053E+02 -1.693924E+04  7.714761E+02 -2.691975E+03
       367   6 -8.593133E+04  5.663652E+03  2.843874E+02 -8.814634E+03 -4.384137E+01 -7.003926E+02
       367   7 -1.789046E+05 -2.926591E+04 -2.323653E+04 -3.449245E+04  3.034223E+03 -4.136277E+03
       367   8 -1.343210E+05 -2.242231E+04 -1.384655E+04 -3.228805E+04  2.218234E+03 -2.143951E+03
       367   9 -1.040987E+05 -1.193150E+03 -4.413919E+03 -1.382873E+04  1.402367E+03 -1.524987E+02
       367  10  7.044014E+03  4.056564E+04  2.317804E+04  1.687630E+04  1.752561E-10  2.964343E-09
       367  11 -2.317844E+04  1.935074E+04  1.405967E+04 -1.589221E+03 -7.023502E-10  6.601730E-10
       367  12 -6.776366E+04  1.252047E+04  4.982667E+03 -3.800403E+03  1.917447E-09 -4.355219E-10
       367  13 -8.593435E+04  5.649631E+03 -2.887850E+01 -8.809764E+03 -2.032999E-09  1.701192E-10
       367  14 -7.875115E+04 -1.535868E+03  1.066906E+02 -1.693924E+04  5.661816E-09 -1.639695E-08
       367  15 -8.593133E+04  5.663651E+03  2.843864E+02 -8.814634E+03  1.604805E-09 -9.593460E-10
       367  16 -1.789046E+05 -2.926593E+04 -2.323658E+04 -3.449244E+04 -5.898301E-10  2.421437E-09
       367  17 -1.343210E+05 -2.242232E+04 -1.384657E+04 -3.228805E+04  1.868045E-09 -5.369318E-09
       367  18 -1.040987E+05 -1.193150E+03 -4.413922E+03 -1.382873E+04  4.766448E-09 -1.689270E-09
       367  19  7.044021E+03  4.056567E+04  2.317809E+04  1.687629E+04 -1.393853E+02  5.232679E+03
       367  20 -2.317843E+04  1.935076E+04  1.405969E+04 -1.589220E+03  6.754210E+02  3.240052E+03
       367  21 -6.776366E+04  1.252048E+04  4.982674E+03 -3.800402E+03  1.490096E+03  1.248304E+03
       367  22 -8.593434E+04  5.649655E+03 -2.883253E+01 -8.809770E+03 -1.586920E+03  4.684434E+03
       367  23 -7.875115E+04 -1.535860E+03  1.067053E+02 -1.693924E+04 -7.714761E+02  2.691975E+03
       367  24 -8.593133E+04  5.663652E+03  2.843874E+02 -8.814634E+03  4.384137E+01  7.003926E+02
       367  25 -1.789046E+05 -2.926591E+04 -2.323653E+04 -3.449245E+04 -3.034223E+03  4.136277E+03
       367  26 -1.343210E+05 -2.242231E+04 -1.384655E+04 -3.228805E+04 -2.218234E+03  2.143951E+03
       367  27 -1.040987E+05 -1.193150E+03 -4.413919E+03 -1.382873E+04 -1.402367E+03  1.524987E+02
       368   1 -1.036521E+05 -1.006053E+03 -4.184139E+03 -1.365804E+04 -1.997827E+03 -9.792009E+01
       368   2 -1.338954E+05 -2.225654E+04 -1.308394E+04 -3.215170E+04 -3.122034E+03  1.774432E+03
       368   3 -1.784027E+05 -2.897165E+04 -2.167095E+04 -3.441593E+04 -4.237649E+03  3.624830E+03
       368   4 -8.591553E+04  5.650343E+03  3.990527E+02 -8.802294E+03 -5.448947E+02  4.525199E+02
       368   5 -7.877572E+04 -1.553237E+03  7.548268E+02 -1.694177E+04 -1.685001E+03  2.318771E+03
       368   6 -8.589795E+04  5.781468E+03  1.436067E+03 -8.852522E+03 -2.816543E+03  4.163069E+03
       368   7 -6.817876E+04  1.230673E+04  4.982208E+03 -3.946444E+03  9.080774E+02  1.002975E+03
       368   8 -2.365304E+04  1.915027E+04  1.459337E+04 -1.730607E+03 -2.478272E+02  2.863163E+03
       368   9  6.615596E+03  4.053532E+04  2.454253E+04  1.671445E+04 -1.395200E+03  4.701398E+03
       368  10 -1.036521E+05 -1.006054E+03 -4.184147E+03 -1.365804E+04  5.786161E-09  7.330127E-09
       368  11 -1.338954E+05 -2.225654E+04 -1.308397E+04 -3.215169E+04  1.228526E-09  6.718542E-09
       368  12 -1.784027E+05 -2.897167E+04 -2.167101E+04 -3.441592E+04 -9.122079E-10  2.875633E-09
       368  13 -8.591553E+04  5.650343E+03  3.990518E+02 -8.802294E+03  3.418551E-09 -1.573196E-09
       368  14 -7.877572E+04 -1.553244E+03  7.548113E+02 -1.694176E+04 -1.005953E-10  4.097898E-09
       368  15 -8.589797E+04  5.781447E+03  1.436019E+03 -8.852513E+03  8.116766E-10 -1.515602E-09
       368  16 -6.817876E+04  1.230673E+04  4.982204E+03 -3.946445E+03  3.395869E-10 -5.460120E-09
       368  17 -2.365304E+04  1.915026E+04  1.459335E+04 -1.730607E+03 -1.437191E-09 -1.526338E-08
       368  18  6.615588E+03  4.053530E+04  2.454248E+04  1.671446E+04 -1.408528E-09 -2.396806E-09
       368  19 -1.036521E+05 -1.006053E+03 -4.184139E+03 -1.365804E+04  1.997827E+03  9.792009E+01
       368  20 -1.338954E+05 -2.225654E+04 -1.308394E+04 -3.215170E+04  3.122034E+03 -1.774432E+03
       368  21 -1.784027E+05 -2.897165E+04 -2.167095E+04 -3.441593E+04  4.237649E+03 -3.624830E+03
       368  22 -8.591553E+04  5.650343E+03  3.990527E+02 -8.802294E+03  5.448947E+02 -4.525199E+02
       368  23 -7.877572E+04 -1.553237E+03  7.548268E+02 -1.694177E+04  1.685001E+03 -2.318771E+03
       368  24 -8.589795E+04  5.781468E+03  1.436067E+03 -8.852522E+03  2.816543E+03 -4.163069E+03
       368  25 -6.817876E+04  1.230673E+04  4.982208E+03 -3.946444E+03 -9.080774E+02 -1.002975E+03
       368  26 -2.365304E+04  1.915027E+04  1.459337E+04 -1.730607E+03  2.478272E+02 -2.863163E+03
       368  27  6.615596E+03  4.053532E+04  2.454253E+04  1.671445E+04  1.395200E+03 -4.701398E+03
       369   1 -2.144082E+05 -4.246789E+04 -3.048019E+04 -4.389345E+04 -5.101929E+03  4.696039E+03
       369   2 -2.446305E+05 -6.411055E+04 -3.827957E+04 -6.283275E+04 -7.240781E+03  6.111492E+03
       369   3 -2.882315E+05 -6.935097E+04 -4.447357E+04 -6.601426E+04 -9.212804E+03  7.088309E+03
       369   4 -8.578214E+04  5.567443E+03  1.881639E+03 -8.715175E+03 -3.545215E+03  5.285550E+03
       369   5 -7.898909E+04 -1.717791E+03  3.360319E+03 -1.695278E+04 -5.999989E+03  6.581141E+03
       369   6 -8.551372E+04  7.461020E+03  6.694619E+03 -9.433465E+03 -8.288044E+03  7.438125E+03
       369   7  4.286009E+04  5.360384E+04  3.424216E+04  2.646968E+04 -1.988148E+03  5.875193E+03
       369   8  8.667886E+04  6.067674E+04  4.499794E+04  2.893821E+04 -4.758837E+03  7.050928E+03
       369   9  1.172434E+05  8.427565E+04  5.785929E+04  4.716390E+04 -7.362956E+03  7.788067E+03
       369  10 -2.144082E+05 -4.246792E+04 -3.048028E+04 -4.389343E+04  3.575308E-09  8.038684E-09
       369  11 -2.446306E+05 -6.411060E+04 -3.827974E+04 -6.283272E+04  3.543145E-10  1.176373E-08
       369  12 -2.882316E+05 -6.935105E+04 -4.447383E+04 -6.601421E+04 -1.706812E-09  9.543438E-09
       369  13 -8.578216E+04  5.567409E+03  1.881563E+03 -8.715160E+03  9.382207E-10 -1.049270E-09
       369  14 -7.898914E+04 -1.717848E+03  3.360170E+03 -1.695274E+04 -1.668279E-09  1.071081E-08
       369  15 -8.551380E+04  7.460942E+03  6.694386E+03 -9.433416E+03  1.035089E-09 -2.372912E-09
       369  16  4.286007E+04  5.360380E+04  3.424209E+04  2.646969E+04 -3.734541E-09 -2.238422E-09
       369  17  8.667882E+04  6.067668E+04  4.499781E+04  2.893824E+04  1.618490E-09 -5.511457E-09
       369  18  1.172434E+05  8.427557E+04  5.785908E+04  4.716395E+04  1.645623E-09 -1.985166E-10
       369  19 -2.144082E+05 -4.246789E+04 -3.048019E+04 -4.389345E+04  5.101929E+03 -4.696039E+03
       369  20 -2.446305E+05 -6.411055E+04 -3.827957E+04 -6.283275E+04  7.240781E+03 -6.111492E+03
       369  21 -2.882315E+05 -6.935097E+04 -4.447357E+04 -6.601426E+04  9.212804E+03 -7.088309E+03
       369  22 -8.578214E+04  5.567443E+03  1.881639E+03 -8.715175E+03  3.545215E+03 -5.285550E+03
       369  23 -7.898909E+04 -1.717791E+03  3.360319E+03 -1.695278E+04  5.999989E+03 -6.581141E+03
       369  24 -8.551372E+04  7.461020E+03  6.694619E+03 -9.433465E+03  8.288044E+03 -7.438125E+03
       369  25  4.286009E+04  5.360384E+04  3.424216E+04  2.646968E+04  1.988148E+03 -5.875193E+03
       369  26  8.667886E+04  6.067674E+04  4.499794E+04  2.893821E+04  4.758837E+03 -7.050928E+03
       369  27  1.172434E+05  8.427565E+04  5.785929E+04  4.716390E+04  7.362956E+03 -7.788067E+03
       370   1 -3.262296E+05 -8.262340E+04 -5.156092E+04 -7.068209E+04 -1.388640E+04  7.843830E+03
       370   2 -3.548815E+05 -1.095882E+05 -5.535434E+04 -9.580365E+04 -1.558603E+04  7.981174E+03
       370   3 -3.875105E+05 -9.640837E+04 -5.088458E+04 -1.120050E+05 -1.395561E+04 -6.854823E+02
       370   4 -8.438312E+04  4.492059E+03  8.363359E+03 -7.735488E+03 -1.023376E+04  9.226059E+03
       370   5 -8.120054E+04 -3.478883E+03  1.438967E+04 -1.701049E+04 -1.826379E+04  6.967488E+03
       370   6 -8.074462E+04  2.994266E+04  3.369700E+04 -1.736458E+04 -2.296478E+04 -4.093277E+03
       370   7  1.575221E+05  9.161088E+04  6.828360E+04  5.523324E+04 -6.579543E+03  1.060883E+04
       370   8  1.925535E+05  1.026367E+05  8.412753E+04  6.181457E+04 -2.094284E+04  5.953278E+03
       370   9  2.261099E+05  1.563033E+05  1.182695E+05  7.731905E+04 -3.197877E+04 -7.503268E+03
       370  10 -3.262298E+05 -8.262351E+04 -5.156140E+04 -7.068200E+04  4.518663E-09  7.891465E-09
       370  11 -3.548818E+05 -1.095883E+05 -5.535492E+04 -9.580355E+04  3.565068E-09  7.562548E-09
       370  12 -3.875107E+05 -9.640842E+04 -5.088495E+04 -1.120050E+05 -9.161515E-10 -2.451553E-09
       370  13 -8.438325E+04  4.491940E+03  8.363002E+03 -7.735412E+03 -1.719355E-09  2.587688E-10
       370  14 -8.120091E+04 -3.479025E+03  1.438895E+04 -1.701039E+04  9.087399E-10  9.323650E-09
       370  15 -8.074519E+04  2.994250E+04  3.369598E+04 -1.736465E+04 -3.164716E-09 -6.991129E-09
       370  16  1.575220E+05  9.161075E+04  6.828331E+04  5.523330E+04 -4.849605E-09 -4.820064E-10
       370  17  1.925531E+05  1.026365E+05  8.412664E+04  6.181467E+04 -1.442981E-09 -8.426996E-10
       370  18  2.261088E+05  1.563030E+05  1.182675E+05  7.731885E+04 -1.292372E-10 -7.481748E-10
       370  19 -3.262296E+05 -8.262340E+04 -5.156092E+04 -7.068209E+04  1.388640E+04 -7.843830E+03
       370  20 -3.548815E+05 -1.095882E+05 -5.535434E+04 -9.580365E+04  1.558603E+04 -7.981174E+03
       370  21 -3.875105E+05 -9.640837E+04 -5.088458E+04 -1.120050E+05  1.395561E+04  6.854823E+02
       370  22 -8.438312E+04  4.492059E+03  8.363359E+03 -7.735488E+03  1.023376E+04 -9.226059E+03
       370  23 -8.120054E+04 -3.478883E+03  1.438967E+04 -1.701049E+04  1.826379E+04 -6.967488E+03
       370  24 -8.074462E+04  2.994266E+04  3.369700E+04 -1.736458E+04  2.296478E+04  4.093277E+03
       370  25  1.575221E+05  9.161088E+04  6.828360E+04  5.523324E+04  6.579543E+03 -1.060883E+04
       370  26  1.925535E+05  1.026367E+05  8.412753E+04  6.181457E+04  2.094284E+04 -5.953278E+03
       370  27  2.261099E+05  1.563033E+05  1.182695E+05  7.731905E+04  3.197877E+04  7.503268E+03
       371   1  9.423656E+04  4.487961E+04  2.813636E+04 -5.837930E+03 -4.186173E+04 -5.599831E+03
       371   2  6.544860E+04  1.031887E+05  5.693278E+04  3.803999E+03 -3.133296E+04 -1.706649E+04
       371   3  1.842898E+04  9.424353E+04  6.207600E+04  3.165845E+04 -2.083823E+04 -1.715534E+04
       371   4 -3.503067E+05 -6.552531E+04 -8.023471E+04  2.127218E+04 -5.503444E+04 -5.640337E+03
       371   5 -3.404155E+05  3.472909E+03 -3.604948E+04  1.206119E+04 -3.577837E+04 -1.708136E+04
       371   6 -3.502866E+05  3.676048E+03 -2.159211E+04  2.106412E+04 -1.655536E+04 -1.714188E+04
       371   7 -7.946676E+05 -1.759419E+05 -1.886191E+05  4.836270E+04 -6.819773E+04 -5.682008E+03
       371   8 -7.461267E+05 -9.625407E+04 -1.290424E+05  2.031283E+04 -4.022089E+04 -1.709634E+04
       371   9 -7.188756E+05 -8.690042E+04 -1.052689E+05  1.047605E+04 -1.227501E+04 -1.712857E+04
       371  10  9.423467E+04  4.487911E+04  2.813301E+04 -5.838119E+03 -8.190291E-09  1.346869E-09
       371  11  6.544746E+04  1.031881E+05  5.693039E+04  3.803568E+03 -1.857991E-09  8.557281E-09
       371  12  1.842843E+04  9.424310E+04  6.207463E+04  3.165816E+04  4.234856E-09  6.716973E-09
       371  13 -3.503099E+05 -6.552616E+04 -8.024047E+04  2.127193E+04  1.800043E-09 -3.540925E-09
       371  14 -3.404169E+05  3.472252E+03 -3.605243E+04  1.206070E+04 -1.559114E-09 -6.744429E-09
       371  15 -3.502870E+05  3.675659E+03 -2.159318E+04  2.106389E+04 -6.945515E-10  5.171241E-09
       371  16 -7.946726E+05 -1.759432E+05 -1.886279E+05  4.836238E+04  7.263616E-09  1.980706E-09
       371  17 -7.461285E+05 -9.625481E+04 -1.290460E+05  2.031228E+04 -1.153612E-09  8.761480E-09
       371  18 -7.188759E+05 -8.690077E+04 -1.052697E+05  1.047588E+04 -4.306112E-09  2.306753E-09
       371  19  9.423656E+04  4.487961E+04  2.813636E+04 -5.837930E+03  4.186173E+04  5.599831E+03
       371  20  6.544860E+04  1.031887E+05  5.693278E+04  3.803999E+03  3.133296E+04  1.706649E+04
       371  21  1.842898E+04  9.424353E+04  6.207600E+04  3.165845E+04  2.083823E+04  1.715534E+04
       371  22 -3.503067E+05 -6.552531E+04 -8.023471E+04  2.127218E+04  5.503444E+04  5.640337E+03
       371  23 -3.404155E+05  3.472909E+03 -3.604948E+04  1.206119E+04  3.577837E+04  1.708136E+04
       371  24 -3.502866E+05  3.676048E+03 -2.159211E+04  2.106412E+04  1.655536E+04  1.714188E+04
       371  25 -7.946676E+05 -1.759419E+05 -1.886191E+05  4.836270E+04  6.819773E+04  5.682008E+03
       371  26 -7.461267E+05 -9.625407E+04 -1.290424E+05  2.031283E+04  4.022089E+04  1.709634E+04
       371  27 -7.188756E+05 -8.690042E+04 -1.052689E+05  1.047605E+04  1.227501E+04  1.712857E+04
       372   1 -1.225244E+04  7.763807E+04  5.884719E+04  2.049358E+04 -1.421375E+04 -1.475114E+04
       372   2 -4.927586E+04  7.307751E+04  5.811889E+04  1.227784E+04 -9.975020E+03 -1.342570E+04
       372   3 -8.813865E+04  6.382052E+04  5.343234E+04  2.269492E+04 -5.739175E+03 -1.156135E+04
       372   4 -3.463169E+05 -4.413703E+03 -1.733117E+04  2.122613E+04 -1.340872E+04 -1.474906E+04
       372   5 -3.453561E+05  3.813636E+02 -9.221091E+03  1.190125E+04 -8.758412E+03 -1.342199E+04
       372   6 -3.463092E+05  4.070133E+02 -5.356920E+03  2.120981E+04 -4.110747E+03 -1.155590E+04
       372   7 -6.802779E+05 -8.647321E+04 -9.351680E+04  2.195821E+04 -1.260411E+04 -1.474698E+04
       372   8 -6.413549E+05 -7.232085E+04 -7.656676E+04  1.152476E+04 -7.542378E+03 -1.341828E+04
       372   9 -6.044178E+05 -6.301110E+04 -6.415051E+04  1.972526E+04 -2.482990E+03 -1.155046E+04
       372  10 -1.225272E+04  7.763778E+04  5.884640E+04  2.049341E+04 -3.473712E-10 -1.664446E-09
       372  11 -4.927602E+04  7.307729E+04  5.811836E+04  1.227774E+04  6.705767E-10  3.163794E-09
       372  12 -8.813872E+04  6.382037E+04  5.343203E+04  2.269486E+04  2.257617E-09  8.422243E-09
       372  13 -3.463172E+05 -4.413985E+03 -1.733191E+04  2.122597E+04  9.349345E-10  1.302885E-08
       372  14 -3.453562E+05  3.811496E+02 -9.221574E+03  1.190115E+04 -1.329360E-10 -2.131292E-08
       372  15 -3.463092E+05  4.068654E+02 -5.357202E+03  2.120977E+04 -6.002018E-10  7.966180E-09
       372  16 -6.802781E+05 -8.647348E+04 -9.351750E+04  2.195806E+04 -1.707432E-09 -7.303974E-09
       372  17 -6.413550E+05 -7.232105E+04 -7.656720E+04  1.152468E+04 -2.355153E-09 -8.316186E-09
       372  18 -6.044179E+05 -6.301125E+04 -6.415077E+04  1.972524E+04 -2.548692E-09  1.206565E-09
       372  19 -1.225244E+04  7.763807E+04  5.884719E+04  2.049358E+04  1.421375E+04  1.475114E+04
       372  20 -4.927586E+04  7.307751E+04  5.811889E+04  1.227784E+04  9.975020E+03  1.342570E+04
       372  21 -8.813865E+04  6.382052E+04  5.343234E+04  2.269492E+04  5.739175E+03  1.156135E+04
       372  22 -3.463169E+05 -4.413703E+03 -1.733117E+04  2.122613E+04  1.340872E+04  1.474906E+04
       372  23 -3.453561E+05  3.813636E+02 -9.221091E+03  1.190125E+04  8.758412E+03  1.342199E+04
       372  24 -3.463092E+05  4.070133E+02 -5.356920E+03  2.120981E+04  4.110747E+03  1.155590E+04
       372  25 -6.802779E+05 -8.647321E+04 -9.351680E+04  2.195821E+04  1.260411E+04  1.474698E+04
       372  26 -6.413549E+05 -7.232085E+04 -7.656676E+04  1.152476E+04  7.542378E+03  1.341828E+04
       372  27 -6.044178E+05 -6.301110E+04 -6.415051E+04  1.972526E+04  2.482990E+03  1.155046E+04
       373   1 -1.225081E+05  5.469938E+04  4.657293E+04  2.183801E+04 -4.747451E+03 -1.036404E+04
       373   2 -1.604345E+05  4.563378E+04  3.980931E+04  1.241878E+04 -3.618058E+03 -8.436994E+03
       373   3 -1.987138E+05  3.635914E+04  3.222301E+04  2.173454E+04 -2.489352E+03 -6.482378E+03
       373   4 -3.459594E+05 -1.454693E+02 -4.131172E+03  2.123782E+04 -3.280673E+03 -1.035901E+04
       373   5 -3.457786E+05  1.247406E+02 -2.328190E+03  1.186956E+04 -2.130517E+03 -8.431712E+03
       373   6 -3.459552E+05  1.824433E+02 -1.362350E+03  2.123662E+04 -9.809808E+02 -6.476828E+03
       373   7 -5.693643E+05 -5.499377E+04 -5.483849E+04  2.063782E+04 -1.814418E+03 -1.035399E+04
       373   8 -5.310908E+05 -4.538667E+04 -4.446791E+04  1.132047E+04 -6.434170E+02 -8.426431E+03
       373   9 -4.931765E+05 -3.599576E+04 -3.494912E+04  2.073880E+04  5.270359E+02 -6.471279E+03
       373  10 -1.225081E+05  5.469926E+04  4.657268E+04  2.183797E+04  4.664274E-09 -4.775950E-09
       373  11 -1.604345E+05  4.563370E+04  3.980915E+04  1.241876E+04  2.038955E-09 -1.118353E-08
       373  12 -1.987138E+05  3.635910E+04  3.222292E+04  2.173453E+04  5.162949E-10 -4.925142E-09
       373  13 -3.459594E+05 -1.455874E+02 -4.131394E+03  2.123780E+04  8.506559E-10 -3.552051E-09
       373  14 -3.457786E+05  1.246631E+02 -2.328332E+03  1.186955E+04 -1.367927E-09 -6.579467E-09
       373  15 -3.459552E+05  1.823980E+02 -1.362431E+03  2.123661E+04 -9.319858E-10 -5.278425E-09
       373  16 -5.693644E+05 -5.499388E+04 -5.483870E+04  2.063780E+04 -6.107362E-09 -6.954140E-09
       373  17 -5.310908E+05 -4.538675E+04 -4.446804E+04  1.132047E+04 -4.812953E-09  3.640998E-09
       373  18 -4.931765E+05 -3.599580E+04 -3.494920E+04  2.073880E+04 -2.627571E-09  8.712519E-09
       373  19 -1.225081E+05  5.469938E+04  4.657293E+04  2.183801E+04  4.747451E+03  1.036404E+04
       373  20 -1.604345E+05  4.563378E+04  3.980931E+04  1.241878E+04  3.618058E+03  8.436994E+03
       373  21 -1.987138E+05  3.635914E+04  3.222301E+04  2.173454E+04  2.489352E+03  6.482378E+03
       373  22 -3.459594E+05 -1.454693E+02 -4.131172E+03  2.123782E+04  3.280673E+03  1.035901E+04
       373  23 -3.457786E+05  1.247406E+02 -2.328190E+03  1.186956E+04  2.130517E+03  8.431712E+03
       373  24 -3.459552E+05  1.824433E+02 -1.362350E+03  2.123662E+04  9.809808E+02  6.476828E+03
       373  25 -5.693643E+05 -5.499377E+04 -5.483849E+04  2.063782E+04  1.814418E+03  1.035399E+04
       373  26 -5.310908E+05 -4.538667E+04 -4.446791E+04  1.132047E+04  6.434170E+02  8.426431E+03
       373  27 -4.931765E+05 -3.599576E+04 -3.494912E+04  2.073880E+04 -5.270359E+02  6.471279E+03
       374   1 -2.335095E+05  2.772754E+04  2.438814E+04  2.159099E+04 -2.269482E+03 -5.339734E+03
       374   2 -2.716116E+05  1.832458E+04  1.621545E+04  1.208470E+04 -1.953581E+03 -3.381526E+03
       374   3 -3.099000E+05  9.036090E+03  7.825901E+03  2.135916E+04 -1.637925E+03 -1.421244E+03
       374   4 -3.459154E+05  1.485074E+02 -1.057082E+03  2.124714E+04 -7.676736E+02 -5.334125E+03
       374   5 -3.458205E+05  1.022578E+02 -6.563367E+02  1.185665E+04 -4.502743E+02 -3.375838E+03
       374   6 -3.459137E+05  1.702946E+02 -4.734624E+02  2.124705E+04 -1.330996E+02 -1.415471E+03
       374   7 -4.583095E+05 -2.743140E+04 -2.650311E+04  2.090334E+04  7.338655E+02 -5.328516E+03
       374   8 -4.200244E+05 -1.812045E+04 -1.752847E+04  1.162863E+04  1.052855E+03 -3.370150E+03
       374   9 -3.819263E+05 -8.695590E+03 -8.772903E+03  2.113494E+04  1.371639E+03 -1.409699E+03
       374  10 -2.335095E+05  2.772751E+04  2.438808E+04  2.159098E+04  2.065259E-09 -9.270355E-09
       374  11 -2.716116E+05  1.832457E+04  1.621542E+04  1.208469E+04 -8.529162E-09 -1.206038E-09
       374  12 -3.099000E+05  9.036087E+03  7.825892E+03  2.135916E+04 -1.246202E-08 -1.841423E-09
       374  13 -3.459154E+05  1.484767E+02 -1.057137E+03  2.124714E+04  1.481904E-09  3.422415E-09
       374  14 -3.458205E+05  1.022455E+02 -6.563585E+02  1.185665E+04 -2.068749E-09 -7.684129E-09
       374  15 -3.459137E+05  1.702924E+02 -4.734662E+02  2.124705E+04 -1.849535E-10 -1.788645E-09
       374  16 -4.583095E+05 -2.743143E+04 -2.650317E+04  2.090334E+04 -3.638645E-09  7.403443E-09
       374  17 -4.200244E+05 -1.812046E+04 -1.752849E+04  1.162863E+04  5.722071E-09  1.227012E-08
       374  18 -3.819263E+05 -8.695593E+03 -8.772910E+03  2.113495E+04  1.260837E-08  6.303162E-09
       374  19 -2.335095E+05  2.772754E+04  2.438814E+04  2.159099E+04  2.269482E+03  5.339734E+03
       374  20 -2.716116E+05  1.832458E+04  1.621545E+04  1.208470E+04  1.953581E+03  3.381526E+03
       374  21 -3.099000E+05  9.036090E+03  7.825901E+03  2.135916E+04  1.637925E+03  1.421244E+03
       374  22 -3.459154E+05  1.485074E+02 -1.057082E+03  2.124714E+04  7.676736E+02  5.334125E+03
       374  23 -3.458205E+05  1.022578E+02 -6.563367E+02  1.185665E+04  4.502743E+02  3.375838E+03
       374  24 -3.459137E+05  1.702946E+02 -4.734624E+02  2.124705E+04  1.330996E+02  1.415471E+03
       374  25 -4.583095E+05 -2.743140E+04 -2.650311E+04  2.090334E+04 -7.338655E+02  5.328516E+03
       374  26 -4.200244E+05 -1.812045E+04 -1.752847E+04  1.162863E+04 -1.052855E+03  3.370150E+03
       374  27 -3.819263E+05 -8.695590E+03 -8.772903E+03  2.113494E+04 -1.371639E+03  1.409699E+03
       375   1 -3.447783E+05  4.257425E+02 -2.937063E+02  2.125262E+04 -1.559803E+03 -2.799394E+02
       375   2 -3.828967E+05 -9.002957E+03 -8.903896E+03  1.174263E+04 -1.331453E+03  1.680599E+03
       375   3 -4.211901E+05 -1.830720E+04 -1.767212E+04  2.102050E+04 -1.103007E+03  3.639629E+03
       375   4 -3.459109E+05  1.698534E+02 -4.400049E+02  2.124859E+04 -5.487170E+01 -2.741545E+02
       375   5 -3.458230E+05  1.012585E+02 -4.744000E+02  1.185472E+04  1.722758E+02  1.686339E+03
       375   6 -3.459117E+05  1.572765E+02 -6.660796E+02  2.124864E+04  3.995339E+02  3.645330E+03
       375   7 -3.470435E+05 -8.603460E+01 -5.862949E+02  2.124457E+04  1.450057E+03 -2.683697E+02
       375   8 -3.087479E+05  9.205380E+03  7.955015E+03  1.196682E+04  1.676093E+03  1.692079E+03
       375   9 -2.706281E+05  1.862137E+04  1.633961E+04  2.147679E+04  1.902255E+03  3.651031E+03
       375  10 -3.447783E+05  4.257418E+02 -2.937110E+02  2.125262E+04 -4.401449E-10 -1.317035E-09
       375  11 -3.828967E+05 -9.002960E+03 -8.903905E+03  1.174263E+04 -9.436223E-09 -6.473717E-09
       375  12 -4.211901E+05 -1.830722E+04 -1.767215E+04  2.102051E+04 -1.900141E-08 -1.873189E-09
       375  13 -3.459109E+05  1.698533E+02 -4.400050E+02  2.124859E+04  1.803825E-09  1.221873E-08
       375  14 -3.458230E+05  1.012555E+02 -4.744054E+02  1.185472E+04 -4.535974E-10 -1.944666E-09
       375  15 -3.459117E+05  1.572622E+02 -6.661048E+02  2.124864E+04  4.028906E-10 -6.752786E-09
       375  16 -3.470435E+05 -8.603524E+01 -5.862990E+02  2.124457E+04 -1.711070E-09  4.885267E-09
       375  17 -3.087479E+05  9.205376E+03  7.955005E+03  1.196682E+04  6.619001E-09 -1.348451E-08
       375  18 -2.706281E+05  1.862135E+04  1.633958E+04  2.147679E+04  1.943181E-08 -5.963054E-09
       375  19 -3.447783E+05  4.257425E+02 -2.937063E+02  2.125262E+04  1.559803E+03  2.799394E+02
       375  20 -3.828967E+05 -9.002957E+03 -8.903896E+03  1.174263E+04  1.331453E+03 -1.680599E+03
       375  21 -4.211901E+05 -1.830720E+04 -1.767212E+04  2.102050E+04  1.103007E+03 -3.639629E+03
       375  22 -3.459109E+05  1.698534E+02 -4.400049E+02  2.124859E+04  5.487170E+01  2.741545E+02
       375  23 -3.458230E+05  1.012585E+02 -4.744000E+02  1.185472E+04 -1.722758E+02 -1.686339E+03
       375  24 -3.459117E+05  1.572765E+02 -6.660796E+02  2.124864E+04 -3.995339E+02 -3.645330E+03
       375  25 -3.470435E+05 -8.603460E+01 -5.862949E+02  2.124457E+04 -1.450057E+03  2.683697E+02
       375  26 -3.087479E+05  9.205380E+03  7.955015E+03  1.196682E+04 -1.676093E+03 -1.692079E+03
       375  27 -2.706281E+05  1.862137E+04  1.633961E+04  2.147679E+04 -1.902255E+03 -3.651031E+03
       376   1 -4.560652E+05 -2.689161E+04 -2.598208E+04  2.087976E+04 -9.789953E+02  4.782674E+03
       376   2 -4.940665E+05 -3.629989E+04 -3.508582E+04  1.142859E+04 -2.860265E+02  6.738340E+03
       376   3 -5.323375E+05 -4.577562E+04 -4.469527E+04  2.072973E+04  4.074334E+02  8.668923E+03
       376   4 -3.459334E+05  1.770919E+02 -8.294484E+02  2.124046E+04  5.297431E+02  4.788337E+03
       376   5 -3.458015E+05  1.121932E+02 -1.371154E+03  1.186480E+04  1.203577E+03  6.743778E+03
       376   6 -3.459367E+05 -1.655724E+01 -2.404954E+03  2.124118E+04  1.877943E+03  8.674145E+03
       376   7 -2.357903E+05  2.724495E+04  2.432240E+04  2.160121E+04  2.038747E+03  4.794002E+03
       376   8 -1.975160E+05  3.652276E+04  3.234209E+04  1.230110E+04  2.693533E+03  6.749218E+03
       376   9 -1.595035E+05  4.574011E+04  3.988312E+04  2.175275E+04  3.348891E+03  8.679368E+03
       376  10 -4.560652E+05 -2.689164E+04 -2.598212E+04  2.087976E+04 -8.173587E-09  2.513391E-09
       376  11 -4.940665E+05 -3.629994E+04 -3.508590E+04  1.142860E+04 -4.644372E-10 -5.895404E-09
       376  12 -5.323375E+05 -4.577570E+04 -4.469541E+04  2.072973E+04  4.035044E-09 -1.872239E-09
       376  13 -3.459334E+05  1.770672E+02 -8.294920E+02  2.124045E+04  1.456049E-09 -3.972659E-09
       376  14 -3.458015E+05  1.121440E+02 -1.371242E+03  1.186480E+04  6.141071E-11  3.571783E-09
       376  15 -3.459367E+05 -1.663897E+01 -2.405102E+03  2.124116E+04 -4.658724E-11  2.126193E-09
       376  16 -2.357903E+05  2.724493E+04  2.432235E+04  2.160120E+04  5.607865E-09  7.272963E-09
       376  17 -1.975160E+05  3.652270E+04  3.234199E+04  1.230109E+04 -1.796100E-09 -7.137129E-09
       376  18 -1.595035E+05  4.574003E+04  3.988296E+04  2.175272E+04 -3.936984E-09  7.401680E-09
       376  19 -4.560652E+05 -2.689161E+04 -2.598208E+04  2.087976E+04  9.789953E+02 -4.782674E+03
       376  20 -4.940665E+05 -3.629989E+04 -3.508582E+04  1.142859E+04  2.860265E+02 -6.738340E+03
       376  21 -5.323375E+05 -4.577562E+04 -4.469527E+04  2.072973E+04 -4.074334E+02 -8.668923E+03
       376  22 -3.459334E+05  1.770919E+02 -8.294484E+02  2.124046E+04 -5.297431E+02 -4.788337E+03
       376  23 -3.458015E+05  1.121932E+02 -1.371154E+03  1.186480E+04 -1.203577E+03 -6.743778E+03
       376  24 -3.459367E+05 -1.655724E+01 -2.404954E+03  2.124118E+04 -1.877943E+03 -8.674145E+03
       376  25 -2.357903E+05  2.724495E+04  2.432240E+04  2.160121E+04 -2.038747E+03 -4.794002E+03
       376  26 -1.975160E+05  3.652276E+04  3.234209E+04  1.230110E+04 -2.693533E+03 -6.749218E+03
       376  27 -1.595035E+05  4.574011E+04  3.988312E+04  2.175275E+04 -3.348891E+03 -8.679368E+03
       377   1 -5.672935E+05 -5.403547E+04 -5.350071E+04  2.015497E+04  7.393962E+02  9.861200E+03
       377   2 -6.046763E+05 -6.338678E+04 -6.429868E+04  1.142854E+04  3.809755E+03  1.173348E+04
       377   3 -6.432813E+05 -7.550779E+04 -7.781942E+04  2.137007E+04  6.882325E+03  1.310991E+04
       377   4 -3.461378E+05  3.032865E+02 -3.110775E+03  2.121919E+04  2.358620E+03  9.866829E+03
       377   5 -3.455624E+05  2.558684E+02 -5.344679E+03  1.189031E+04  5.049451E+03  1.173750E+04
       377   6 -3.461441E+05 -2.494480E+03 -1.003675E+04  2.122894E+04  7.742678E+03  1.311241E+04
       377   7 -1.249366E+05  5.463865E+04  4.727599E+04  2.228376E+04  3.978417E+03  9.872463E+03
       377   8 -8.638620E+04  6.389387E+04  5.360497E+04  1.235222E+04  6.289660E+03  1.174151E+04
       377   9 -4.892503E+04  7.051271E+04  5.774017E+04  2.108767E+04  8.603439E+03  1.311490E+04
       377  10 -5.672936E+05 -5.403557E+04 -5.350090E+04  2.015497E+04  6.215203E-09  2.898422E-10
       377  11 -6.046763E+05 -6.338693E+04 -6.429897E+04  1.142851E+04  5.503838E-10  7.168470E-09
       377  12 -6.432814E+05 -7.550799E+04 -7.781984E+04  2.137000E+04 -2.909509E-09 -4.104085E-09
       377  13 -3.461378E+05  3.031805E+02 -3.110968E+03  2.121918E+04  1.645770E-09 -1.373859E-08
       377  14 -3.455625E+05  2.557137E+02 -5.344986E+03  1.189026E+04 -1.322084E-09  1.176929E-08
       377  15 -3.461442E+05 -2.494681E+03 -1.003718E+04  2.122886E+04  2.320250E-10  7.600368E-10
       377  16 -1.249367E+05  5.463854E+04  4.727577E+04  2.228373E+04 -7.344411E-09 -5.665678E-09
       377  17 -8.638628E+04  6.389371E+04  5.360464E+04  1.235216E+04 -1.679964E-09 -1.977013E-08
       377  18 -4.892516E+04  7.051250E+04  5.773971E+04  2.108758E+04  2.520909E-09 -2.129744E-09
       377  19 -5.672935E+05 -5.403547E+04 -5.350071E+04  2.015497E+04 -7.393962E+02 -9.861200E+03
       377  20 -6.046763E+05 -6.338678E+04 -6.429868E+04  1.142854E+04 -3.809755E+03 -1.173348E+04
       377  21 -6.432813E+05 -7.550779E+04 -7.781942E+04  2.137007E+04 -6.882325E+03 -1.310991E+04
       377  22 -3.461378E+05  3.032865E+02 -3.110775E+03  2.121919E+04 -2.358620E+03 -9.866829E+03
       377  23 -3.455624E+05  2.558684E+02 -5.344679E+03  1.189031E+04 -5.049451E+03 -1.173750E+04
       377  24 -3.461441E+05 -2.494480E+03 -1.003675E+04  2.122894E+04 -7.742678E+03 -1.311241E+04
       377  25 -1.249366E+05  5.463865E+04  4.727599E+04  2.228376E+04 -3.978417E+03 -9.872463E+03
       377  26 -8.638620E+04  6.389387E+04  5.360497E+04  1.235222E+04 -6.289660E+03 -1.174151E+04
       377  27 -4.892503E+04  7.051271E+04  5.774017E+04  2.108767E+04 -8.603439E+03 -1.311490E+04
       378   1 -6.802930E+05 -7.933767E+04 -8.783845E+04  1.464657E+04  5.501352E+03  1.539129E+04
       378   2 -7.117891E+05 -8.870631E+04 -1.054806E+05  1.646483E+04  2.466555E+04  1.550230E+04
       378   3 -7.561567E+05 -1.392481E+05 -1.459178E+05  3.652756E+04  4.386005E+04  5.135386E+03
       378   4 -3.484397E+05  2.187580E+03 -1.250200E+04  2.109353E+04  9.561436E+03  1.540437E+04
       378   5 -3.427120E+05  2.037494E+03 -2.087410E+04  1.203408E+04  2.069156E+04  1.548874E+04
       378   6 -3.484544E+05 -3.787727E+04 -4.645107E+04  2.121943E+04  3.185349E+04  5.097300E+03
       378   7 -1.648404E+04  8.370537E+04  6.282740E+04  2.754388E+04  1.362367E+04  1.541752E+04
       378   8  2.649152E+04  9.277190E+04  6.372349E+04  7.600570E+03  1.671522E+04  1.547524E+04
       378   9  5.940063E+04  6.348234E+04  5.300420E+04  5.901103E+03  1.983905E+04  5.059819E+03
       378  10 -6.802931E+05 -7.933793E+04 -8.783895E+04  1.464650E+04 -2.280798E-10 -3.071023E-09
       378  11 -7.117898E+05 -8.870673E+04 -1.054822E+05  1.646453E+04  1.513671E-09  8.433436E-10
       378  12 -7.561588E+05 -1.392487E+05 -1.459214E+05  3.652738E+04  3.143158E-09  4.410160E-09
       378  13 -3.484399E+05  2.187301E+03 -1.250262E+04  2.109341E+04  1.241093E-09  5.536330E-09
       378  14 -3.427125E+05  2.037122E+03 -2.087536E+04  1.203382E+04 -8.646996E-10  8.366630E-10
       378  15 -3.484555E+05 -3.787757E+04 -4.645303E+04  2.121930E+04  3.671042E-10  2.728966E-09
       378  16 -1.648430E+04  8.370506E+04  6.282661E+04  2.754371E+04 -1.526365E-09  4.256703E-09
       378  17  2.649115E+04  9.277157E+04  6.372251E+04  7.600362E+03 -3.495816E-09  1.277452E-08
       378  18  5.940020E+04  6.348220E+04  5.300341E+04  5.901022E+03 -4.554296E-09 -8.866387E-10
       378  19 -6.802930E+05 -7.933767E+04 -8.783845E+04  1.464657E+04 -5.501352E+03 -1.539129E+04
       378  20 -7.117891E+05 -8.870631E+04 -1.054806E+05  1.646483E+04 -2.466555E+04 -1.550230E+04
       378  21 -7.561567E+05 -1.392481E+05 -1.459178E+05  3.652756E+04 -4.386005E+04 -5.135386E+03
       378  22 -3.484397E+05  2.187580E+03 -1.250200E+04  2.109353E+04 -9.561436E+03 -1.540437E+04
       378  23 -3.427120E+05  2.037494E+03 -2.087410E+04  1.203408E+04 -2.069156E+04 -1.548874E+04
       378  24 -3.484544E+05 -3.787727E+04 -4.645107E+04  2.121943E+04 -3.185349E+04 -5.097300E+03
       378  25 -1.648404E+04  8.370537E+04  6.282740E+04  2.754388E+04 -1.362367E+04 -1.541752E+04
       378  26  2.649152E+04  9.277190E+04  6.372349E+04  7.600570E+03 -1.671522E+04 -1.547524E+04
       378  27  5.940063E+04  6.348234E+04  5.300420E+04  5.901103E+03 -1.983905E+04 -5.059819E+03
       379   1 -1.911544E+05 -7.493274E+05 -1.851861E+05  1.831496E+05 -7.716267E+03 -5.327689E+04
       379   2 -1.305523E+05 -5.706507E+05 -1.143281E+05  1.574191E+05 -2.331473E+04 -2.028106E+04
       379   3 -8.491226E+04 -3.996887E+05 -6.868116E+04  1.714289E+05 -2.115603E+04  1.277504E+04
       379   4 -1.712000E+04 -4.712829E+04 -1.788041E+04  1.719126E+05 -7.814589E+03 -1.350666E+04
       379   5 -4.211386E+03 -4.574325E+04 -7.870313E+03  1.520622E+05 -2.333929E+04 -9.456120E+03
       379   6 -1.227927E+03 -4.706850E+04 -2.950558E+03  1.719520E+05 -2.111308E+04 -5.355550E+03
       379   7  1.568801E+05  6.555272E+05  1.493967E+05  1.606630E+05 -7.914299E+03  2.630839E+04
       379   8  1.221125E+05  4.794270E+05  9.857363E+04  1.467009E+05 -2.336402E+04  1.377807E+03
       379   9  8.244943E+04  3.056728E+05  6.277598E+04  1.724755E+05 -2.107016E+04 -2.349618E+04
       379  10 -1.911552E+05 -7.493305E+05 -1.851915E+05  1.831493E+05 -1.906682E-10  4.240149E-09
       379  11 -1.305529E+05 -5.706513E+05 -1.143299E+05  1.574187E+05 -3.244680E-10  4.406456E-09
       379  12 -8.491279E+04 -3.996890E+05 -6.868231E+04  1.714291E+05  4.136989E-10 -2.707244E-09
       379  13 -1.712011E+04 -4.712850E+04 -1.788086E+04  1.719125E+05  1.725290E-09 -1.066419E-09
       379  14 -4.211995E+03 -4.574349E+04 -7.871504E+03  1.520620E+05 -1.551307E-09 -2.907051E-09
       379  15 -1.228413E+03 -4.706865E+04 -2.951449E+03  1.719520E+05  4.114966E-10 -6.645093E-09
       379  16  1.568798E+05  6.555264E+05  1.493953E+05  1.606632E+05  7.154261E-11  7.911911E-09
       379  17  1.221119E+05  4.794268E+05  9.857260E+04  1.467009E+05  1.224222E-09 -1.598093E-09
       379  18  8.244880E+04  3.056721E+05  6.277411E+04  1.724751E+05 -8.836373E-10 -4.801731E-09
       379  19 -1.911544E+05 -7.493274E+05 -1.851861E+05  1.831496E+05  7.716267E+03  5.327689E+04
       379  20 -1.305523E+05 -5.706507E+05 -1.143281E+05  1.574191E+05  2.331473E+04  2.028106E+04
       379  21 -8.491226E+04 -3.996887E+05 -6.868116E+04  1.714289E+05  2.115603E+04 -1.277504E+04
       379  22 -1.712000E+04 -4.712829E+04 -1.788041E+04  1.719126E+05  7.814589E+03  1.350666E+04
       379  23 -4.211386E+03 -4.574325E+04 -7.870313E+03  1.520622E+05  2.333929E+04  9.456120E+03
       379  24 -1.227927E+03 -4.706850E+04 -2.950558E+03  1.719520E+05  2.111308E+04  5.355550E+03
       379  25  1.568801E+05  6.555272E+05  1.493967E+05  1.606630E+05  7.914299E+03 -2.630839E+04
       379  26  1.221125E+05  4.794270E+05  9.857363E+04  1.467009E+05  2.336402E+04 -1.377807E+03
       379  27  8.244943E+04  3.056728E+05  6.277598E+04  1.724755E+05  2.107016E+04  2.349618E+04
       380   1 -5.781137E+04 -2.833741E+05 -4.521762E+04  1.725913E+05 -1.431792E+04  1.092930E+04
       380   2 -1.525238E+04 -1.088523E+05 -8.373658E+03  1.521201E+05 -4.367853E+03  1.007849E+04
       380   3  2.766851E+04  6.617097E+04  2.918158E+04  1.724672E+05  5.832104E+03  9.227596E+03
       380   4 -1.575373E+03 -4.633237E+04 -1.131728E+03  1.721846E+05 -1.428093E+04 -5.098361E+03
       380   5 -6.096147E+02 -4.660049E+04  2.574565E+03  1.517783E+05 -4.330280E+03 -6.358713E+03
       380   6  7.908455E+02 -4.632505E+04  7.277242E+03  1.721901E+05  5.870183E+03 -7.618923E+03
       380   7  5.465754E+04  1.907643E+05  4.295275E+04  1.717778E+05 -1.424392E+04 -2.113199E+04
       380   8  1.403309E+04  1.565568E+04  1.352366E+04  1.514365E+05 -4.292690E+03 -2.279752E+04
       380   9 -2.608742E+04 -1.588083E+05 -1.462663E+04  1.719129E+05  5.908280E+03 -2.446246E+04
       380  10 -5.781163E+04 -2.833742E+05 -4.521823E+04  1.725915E+05  1.348032E-09  2.935696E-08
       380  11 -1.525243E+04 -1.088524E+05 -8.373885E+03  1.521201E+05  5.657083E-10  3.679422E-09
       380  12  2.766845E+04  6.617087E+04  2.918136E+04  1.724672E+05  4.344870E-10 -3.215290E-08
       380  13 -1.575599E+03 -4.633245E+04 -1.132160E+03  1.721846E+05  1.055813E-09 -4.291203E-09
       380  14 -6.096457E+02 -4.660053E+04  2.574453E+03  1.517783E+05  1.160006E-09 -2.162741E-09
       380  15  7.907929E+02 -4.632513E+04  7.277068E+03  1.721901E+05  1.434016E-09 -3.493936E-09
       380  16  5.465720E+04  1.907638E+05  4.295153E+04  1.717775E+05  8.459189E-10 -2.020258E-08
       380  17  1.403293E+04  1.565511E+04  1.352265E+04  1.514364E+05 -2.448752E-10  1.028316E-09
       380  18 -2.608762E+04 -1.588090E+05 -1.462782E+04  1.719131E+05 -8.603807E-10  2.701301E-08
       380  19 -5.781137E+04 -2.833741E+05 -4.521762E+04  1.725913E+05  1.431792E+04 -1.092930E+04
       380  20 -1.525238E+04 -1.088523E+05 -8.373658E+03  1.521201E+05  4.367853E+03 -1.007849E+04
       380  21  2.766851E+04  6.617097E+04  2.918158E+04  1.724672E+05 -5.832104E+03 -9.227596E+03
       380  22 -1.575373E+03 -4.633237E+04 -1.131728E+03  1.721846E+05  1.428093E+04  5.098361E+03
       380  23 -6.096147E+02 -4.660049E+04  2.574565E+03  1.517783E+05  4.330280E+03  6.358713E+03
       380  24  7.908455E+02 -4.632505E+04  7.277242E+03  1.721901E+05 -5.870183E+03  7.618923E+03
       380  25  5.465754E+04  1.907643E+05  4.295275E+04  1.717778E+05  1.424392E+04  2.113199E+04
       380  26  1.403309E+04  1.565568E+04  1.352366E+04  1.514365E+05  4.292690E+03  2.279752E+04
       380  27 -2.608742E+04 -1.588083E+05 -1.462663E+04  1.719129E+05 -5.908280E+03  2.446246E+04
       381   1  5.431894E+04  1.831174E+05  5.358547E+04  1.691112E+05  1.277854E+04  9.675385E+03
       381   2  1.035365E+05  3.524042E+05  1.019667E+05  1.614899E+05  1.682311E+04 -2.460764E+04
       381   3  1.792115E+05  5.330780E+05  1.793351E+05  1.938763E+05  6.072897E+03 -5.894060E+04
       381   4  3.432084E+01 -4.485877E+04  1.019384E+04  1.719952E+05  1.282116E+04 -8.871907E+03
       381   5  6.958974E+03 -4.846894E+04  1.959359E+04  1.520366E+05  1.681108E+04 -1.899544E+04
       381   6  3.615952E+04 -4.490300E+04  4.121411E+04  1.720838E+05  6.003218E+03 -2.915918E+04
       381   7 -5.425313E+04 -2.727840E+05 -3.319884E+04  1.748782E+05  1.286361E+04 -2.741255E+04
       381   8 -8.962834E+04 -4.491893E+05 -6.278799E+04  1.425895E+05  1.679887E+04 -1.338679E+04
       381   9 -1.069143E+05 -6.225749E+05 -9.692681E+04  1.503118E+05  5.931420E+03  5.946665E+02
       381  10  5.431873E+04  1.831172E+05  5.358499E+04  1.691111E+05  1.457944E-09  3.048346E-08
       381  11  1.035361E+05  3.524035E+05  1.019651E+05  1.614902E+05  7.413521E-11  5.548426E-09
       381  12  1.792105E+05  5.330743E+05  1.793285E+05  1.938766E+05 -8.141220E-10 -3.020203E-08
       381  13  3.412315E+01 -4.485890E+04  1.019338E+04  1.719953E+05 -1.433355E-09 -1.088889E-09
       381  14  6.958573E+03 -4.846941E+04  1.959238E+04  1.520368E+05  1.676976E-09 -3.330520E-09
       381  15  3.615925E+04 -4.490393E+04  4.121245E+04  1.720839E+05 -5.853859E-10 -7.693069E-10
       381  16 -5.425351E+04 -2.727849E+05 -3.320057E+04  1.748785E+05 -4.329762E-10 -2.237545E-08
       381  17 -8.962869E+04 -4.491896E+05 -6.278885E+04  1.425897E+05  1.016181E-09 -2.588676E-09
       381  18 -1.069143E+05 -6.225750E+05 -9.692688E+04  1.503118E+05 -3.471655E-10  2.431350E-08
       381  19  5.431894E+04  1.831174E+05  5.358547E+04  1.691112E+05 -1.277854E+04 -9.675385E+03
       381  20  1.035365E+05  3.524042E+05  1.019667E+05  1.614899E+05 -1.682311E+04  2.460764E+04
       381  21  1.792115E+05  5.330780E+05  1.793351E+05  1.938763E+05 -6.072897E+03  5.894060E+04
       381  22  3.432084E+01 -4.485877E+04  1.019384E+04  1.719952E+05 -1.282116E+04  8.871907E+03
       381  23  6.958974E+03 -4.846894E+04  1.959359E+04  1.520366E+05 -1.681108E+04  1.899544E+04
       381  24  3.615952E+04 -4.490300E+04  4.121411E+04  1.720838E+05 -6.003218E+03  2.915918E+04
       381  25 -5.425313E+04 -2.727840E+05 -3.319884E+04  1.748782E+05 -1.286361E+04  2.741255E+04
       381  26 -8.962834E+04 -4.491893E+05 -6.278799E+04  1.425895E+05 -1.679887E+04  1.338679E+04
       381  27 -1.069143E+05 -6.225749E+05 -9.692681E+04  1.503118E+05 -5.931420E+03 -5.946665E+02
       382   1  7.401498E+05  2.843820E+05  1.813625E+05  2.665091E+05  7.382938E+04  2.336494E+04
       382   2  7.121331E+05  1.765904E+05  1.129678E+05  2.622558E+05  4.799025E+04  4.077492E+03
       382   3  7.094157E+05  1.597259E+05  8.848831E+04  2.477313E+05  1.898248E+04 -6.829003E+03
       382   4  4.572087E+05  1.470508E+05  9.941351E+04  1.578765E+05  6.480466E+04  1.994624E+04
       382   5  4.397861E+05  6.462626E+04  4.247647E+04  1.772274E+05  4.500748E+04  2.947347E+03
       382   6  4.464795E+05  7.195231E+04  2.468138E+04  1.863034E+05  2.203991E+04 -5.671597E+03
       382   7  1.743512E+05  9.742956E+03  1.745831E+04  4.929518E+04  5.578456E+04  1.653040E+04
       382   8  1.675129E+05 -4.732831E+04 -2.802068E+04  9.223449E+04  4.202614E+04  1.817862E+03
       382   9  1.836093E+05 -1.582042E+04 -3.913097E+04  1.248970E+05  2.509593E+04 -4.514586E+03
       382  10  7.401438E+05  2.843800E+05  1.813512E+05  2.665077E+05 -4.474158E-09  2.031451E-09
       382  11  7.121307E+05  1.765898E+05  1.129634E+05  2.622557E+05 -4.456910E-09  4.910989E-10
       382  12  7.094153E+05  1.597257E+05  8.848755E+04  2.477314E+05 -3.206091E-09 -3.935435E-09
       382  13  4.572040E+05  1.470493E+05  9.940487E+04  1.578755E+05 -4.117612E-10  1.167842E-09
       382  14  4.397839E+05  6.462571E+04  4.247265E+04  1.772273E+05 -3.705477E-09 -8.013919E-09
       382  15  4.464790E+05  7.195215E+04  2.468041E+04  1.863035E+05 -7.695598E-09  9.963766E-09
       382  16  1.743478E+05  9.741828E+03  1.745195E+04  4.929444E+04  5.294423E-09  5.804903E-09
       382  17  1.675110E+05 -4.732879E+04 -2.802400E+04  9.223443E+04 -2.858918E-09  3.806595E-09
       382  18  1.836087E+05 -1.582061E+04 -3.913219E+04  1.248971E+05 -7.255056E-09  2.215440E-09
       382  19  7.401498E+05  2.843820E+05  1.813625E+05  2.665091E+05 -7.382938E+04 -2.336494E+04
       382  20  7.121331E+05  1.765904E+05  1.129678E+05  2.622558E+05 -4.799025E+04 -4.077492E+03
       382  21  7.094157E+05  1.597259E+05  8.848831E+04  2.477313E+05 -1.898248E+04  6.829003E+03
       382  22  4.572087E+05  1.470508E+05  9.941351E+04  1.578765E+05 -6.480466E+04 -1.994624E+04
       382  23  4.397861E+05  6.462626E+04  4.247647E+04  1.772274E+05 -4.500748E+04 -2.947347E+03
       382  24  4.464795E+05  7.195231E+04  2.468138E+04  1.863034E+05 -2.203991E+04  5.671597E+03
       382  25  1.743512E+05  9.742956E+03  1.745831E+04  4.929518E+04 -5.578456E+04 -1.653040E+04
       382  26  1.675129E+05 -4.732831E+04 -2.802068E+04  9.223449E+04 -4.202614E+04 -1.817862E+03
       382  27  1.836093E+05 -1.582042E+04 -3.913097E+04  1.248970E+05 -2.509593E+04  4.514586E+03
       383   1  6.731780E+05  1.688142E+05  7.796392E+04  2.465369E+05  1.764553E+04 -5.322900E+03
       383   2  6.524649E+05  1.479469E+05  6.182149E+04  2.350930E+05  1.194925E+04 -6.521045E+03
       383   3  6.254257E+05  1.427513E+05  5.138431E+04  2.328471E+05  6.096683E+03 -7.306885E+03
       383   4  4.432937E+05  8.056588E+04  1.976427E+04  1.811350E+05  1.809709E+04 -5.152302E+03
       383   5  4.460858E+05  6.995041E+04  9.938134E+03  1.776009E+05  1.269943E+04 -6.237186E+03
       383   6  4.424931E+05  7.494898E+04  5.582251E+03  1.832646E+05  7.145240E+03 -6.909807E+03
       383   7  2.134613E+05 -7.678217E+03 -3.843962E+04  1.157553E+05  1.854847E+04 -4.981776E+03
       383   8  2.397489E+05 -8.042825E+03 -4.194847E+04  1.201264E+05  1.344933E+04 -5.953433E+03
       383   9  2.595940E+05  7.148986E+03 -4.022222E+04  1.336954E+05  8.193454E+03 -6.512856E+03
       383  10  6.731777E+05  1.688141E+05  7.796328E+04  2.465370E+05  6.639734E-10 -6.640483E-09
       383  11  6.524647E+05  1.479468E+05  6.182114E+04  2.350930E+05  1.747621E-09  1.153381E-09
       383  12  6.254256E+05  1.427512E+05  5.138414E+04  2.328471E+05 -4.667664E-09 -5.107212E-09
       383  13  4.432934E+05  8.056576E+04  1.976360E+04  1.811351E+05 -4.600447E-09  2.218286E-09
       383  14  4.460857E+05  6.995033E+04  9.937758E+03  1.776010E+05  1.617633E-09 -1.286760E-08
       383  15  4.424930E+05  7.494891E+04  5.582066E+03  1.832646E+05  1.158136E-10  4.468465E-10
       383  16  2.134609E+05 -7.678336E+03 -3.844031E+04  1.157554E+05 -1.003254E-08 -2.798681E-09
       383  17  2.397487E+05 -8.042912E+03 -4.194888E+04  1.201264E+05 -2.919925E-11  6.022261E-09
       383  18  2.595939E+05  7.148923E+03 -4.022243E+04  1.336955E+05  5.529590E-09 -1.769714E-09
       383  19  6.731780E+05  1.688142E+05  7.796392E+04  2.465369E+05 -1.764553E+04  5.322900E+03
       383  20  6.524649E+05  1.479469E+05  6.182149E+04  2.350930E+05 -1.194925E+04  6.521045E+03
       383  21  6.254257E+05  1.427513E+05  5.138431E+04  2.328471E+05 -6.096683E+03  7.306885E+03
       383  22  4.432937E+05  8.056588E+04  1.976427E+04  1.811350E+05 -1.809709E+04  5.152302E+03
       383  23  4.460858E+05  6.995041E+04  9.938134E+03  1.776009E+05 -1.269943E+04  6.237186E+03
       383  24  4.424931E+05  7.494898E+04  5.582251E+03  1.832646E+05 -7.145240E+03  6.909807E+03
       383  25  2.134613E+05 -7.678217E+03 -3.843962E+04  1.157553E+05 -1.854847E+04  4.981776E+03
       383  26  2.397489E+05 -8.042825E+03 -4.194847E+04  1.201264E+05 -1.344933E+04  5.953433E+03
       383  27  2.595940E+05  7.148986E+03 -4.022222E+04  1.336954E+05 -8.193454E+03  6.512856E+03
       384   1  6.010353E+05  1.352655E+05  4.406865E+04  2.267728E+05  5.131746E+03 -6.744148E+03
       384   2  5.812780E+05  1.210073E+05  3.607995E+04  2.148482E+05  3.476293E+03 -5.904212E+03
       384   3  5.525326E+05  1.165703E+05  2.909191E+04  2.133949E+05  1.813910E+03 -5.046794E+03
       384   4  4.421879E+05  7.555524E+04  4.281202E+03  1.828311E+05  6.048289E+03 -6.397000E+03
       384   5  4.466560E+05  7.044847E+04  2.305095E+03  1.776708E+05  4.405740E+03 -5.552060E+03
       384   6  4.421333E+05  7.516065E+04  1.319782E+03  1.829816E+05  2.756213E+03 -4.689653E+03
       384   7  2.833647E+05  1.584646E+04 -3.550842E+04  1.388995E+05  6.964580E+03 -6.049949E+03
       384   8  3.120514E+05  1.989074E+04 -3.147127E+04  1.405005E+05  5.334969E+03 -5.199991E+03
       384   9  3.317458E+05  3.375180E+04 -2.645331E+04  1.525732E+05  3.698333E+03 -4.332580E+03
       384  10  6.010352E+05  1.352654E+05  4.406851E+04  2.267728E+05  5.575373E-09 -6.994499E-10
       384  11  5.812780E+05  1.210073E+05  3.607986E+04  2.148483E+05 -7.869584E-10 -7.479113E-09
       384  12  5.525326E+05  1.165703E+05  2.909186E+04  2.133949E+05 -9.439078E-09  4.269736E-09
       384  13  4.421879E+05  7.555518E+04  4.281057E+03  1.828312E+05  1.348463E-09 -5.714010E-09
       384  14  4.466560E+05  7.044843E+04  2.305001E+03  1.776708E+05  4.464656E-09 -9.328884E-09
       384  15  4.421333E+05  7.516062E+04  1.319727E+03  1.829816E+05 -6.264631E-11 -3.853538E-09
       384  16  2.833646E+05  1.584641E+04 -3.550858E+04  1.388995E+05 -2.303176E-09 -5.677898E-09
       384  17  3.120514E+05  1.989070E+04 -3.147138E+04  1.405005E+05  1.017626E-08 -2.744518E-09
       384  18  3.317458E+05  3.375178E+04 -2.645338E+04  1.525732E+05  1.067757E-08 -6.242885E-09
       384  19  6.010353E+05  1.352655E+05  4.406865E+04  2.267728E+05 -5.131746E+03  6.744148E+03
       384  20  5.812780E+05  1.210073E+05  3.607995E+04  2.148482E+05 -3.476293E+03  5.904212E+03
       384  21  5.525326E+05  1.165703E+05  2.909191E+04  2.133949E+05 -1.813910E+03  5.046794E+03
       384  22  4.421879E+05  7.555524E+04  4.281202E+03  1.828311E+05 -6.048289E+03  6.397000E+03
       384  23  4.466560E+05  7.044847E+04  2.305095E+03  1.776708E+05 -4.405740E+03  5.552060E+03
       384  24  4.421333E+05  7.516065E+04  1.319782E+03  1.829816E+05 -2.756213E+03  4.689653E+03
       384  25  2.833647E+05  1.584646E+04 -3.550842E+04  1.388995E+05 -6.964580E+03  6.049949E+03
       384  26  3.120514E+05  1.989074E+04 -3.147127E+04  1.405005E+05 -5.334969E+03  5.199991E+03
       384  27  3.317458E+05  3.375180E+04 -2.645331E+04  1.525732E+05 -3.698333E+03  4.332580E+03
       385   1  5.292474E+05  1.079069E+05  2.280566E+04  2.070095E+05  1.340472E+03 -4.357404E+03
       385   2  5.097063E+05  9.417835E+04  1.646716E+04  1.950935E+05  5.187148E+02 -3.183985E+03
       385   3  4.809404E+05  8.977805E+04  1.038426E+04  1.936682E+05 -3.029785E+02 -2.011073E+03
       385   4  4.421021E+05  7.518968E+04  1.029200E+03  1.829341E+05  2.274919E+03 -4.003187E+03
       385   5  4.467139E+05  7.051546E+04  6.620254E+02  1.776928E+05  1.452840E+03 -2.829840E+03
       385   6  4.421002E+05  7.516965E+04  5.507524E+02  1.829421E+05  6.308065E+02 -1.657001E+03
       385   7  3.549645E+05  4.247309E+04 -2.074775E+04  1.588618E+05  3.209219E+03 -3.649026E+03
       385   8  3.837253E+05  4.685283E+04 -1.514342E+04  1.602937E+05  2.386861E+03 -2.475734E+03
       385   9  4.032614E+05  6.056130E+04 -9.282912E+03  1.722166E+05  1.564531E+03 -1.302951E+03
       385  10  5.292474E+05  1.079069E+05  2.280562E+04  2.070095E+05 -5.393978E-10  5.416491E-09
       385  11  5.097063E+05  9.417834E+04  1.646714E+04  1.950935E+05  3.551342E-09  9.625415E-09
       385  12  4.809404E+05  8.977805E+04  1.038425E+04  1.936682E+05  5.882296E-09  4.361750E-10
       385  13  4.421021E+05  7.518966E+04  1.029161E+03  1.829341E+05  4.189949E-10  1.700976E-09
       385  14  4.467139E+05  7.051545E+04  6.620064E+02  1.776928E+05 -1.909868E-09 -7.912710E-09
       385  15  4.421002E+05  7.516965E+04  5.507465E+02  1.829421E+05  8.051647E-10 -3.013309E-10
       385  16  3.549645E+05  4.247307E+04 -2.074779E+04  1.588618E+05  1.577195E-10 -7.029275E-09
       385  17  3.837253E+05  4.685282E+04 -1.514344E+04  1.602937E+05 -6.282805E-09 -6.034250E-09
       385  18  4.032614E+05  6.056130E+04 -9.282920E+03  1.722166E+05 -8.728651E-09 -2.844410E-09
       385  19  5.292474E+05  1.079069E+05  2.280566E+04  2.070095E+05 -1.340472E+03  4.357404E+03
       385  20  5.097063E+05  9.417835E+04  1.646716E+04  1.950935E+05 -5.187148E+02  3.183985E+03
       385  21  4.809404E+05  8.977805E+04  1.038426E+04  1.936682E+05  3.029785E+02  2.011073E+03
       385  22  4.421021E+05  7.518968E+04  1.029200E+03  1.829341E+05 -2.274919E+03  4.003187E+03
       385  23  4.467139E+05  7.051546E+04  6.620254E+02  1.776928E+05 -1.452840E+03  2.829840E+03
       385  24  4.421002E+05  7.516965E+04  5.507524E+02  1.829421E+05 -6.308065E+02  1.657001E+03
       385  25  3.549645E+05  4.247309E+04 -2.074775E+04  1.588618E+05 -3.209219E+03  3.649026E+03
       385  26  3.837253E+05  4.685283E+04 -1.514342E+04  1.602937E+05 -2.386861E+03  2.475734E+03
       385  27  4.032614E+05  6.056130E+04 -9.282912E+03  1.722166E+05 -1.564531E+03  1.302951E+03
       386   1  4.578144E+05  8.106373E+04  4.423798E+03  1.872963E+05 -6.815916E+02 -1.291053E+03
       386   2  4.383040E+05  6.737405E+04 -1.347777E+03  1.753877E+05 -1.551103E+03 -1.376073E+02
       386   3  4.095899E+05  6.300828E+04 -6.825996E+03  1.739537E+05 -2.420338E+03  1.015292E+03
       386   4  4.421048E+05  7.516640E+04  5.679127E+02  1.829395E+05  2.516693E+02 -9.371631E+02
       386   5  4.467091E+05  7.051909E+04  7.589596E+02  1.776968E+05 -6.182742E+02  2.161092E+02
       386   6  4.421089E+05  7.519565E+04  1.243685E+03  1.829283E+05 -1.487957E+03  1.368831E+03
       386   7  4.263956E+05  6.926910E+04 -3.287987E+03  1.785828E+05  1.184904E+03 -5.832831E+02
       386   8  4.551142E+05  7.366414E+04  2.865689E+03  1.800059E+05  3.145662E+02  5.698302E+02
       386   9  4.746288E+05  8.738304E+04  9.313250E+03  1.919034E+05 -5.555269E+02  1.722388E+03
       386  10  4.578144E+05  8.106372E+04  4.423794E+03  1.872963E+05 -3.630162E-09  2.840249E-09
       386  11  4.383040E+05  6.737405E+04 -1.347782E+03  1.753877E+05 -4.448223E-09  7.450266E-09
       386  12  4.095899E+05  6.300828E+04 -6.826009E+03  1.739537E+05  2.465322E-09  1.072590E-08
       386  13  4.421048E+05  7.516640E+04  5.679109E+02  1.829395E+05 -2.741424E-09  2.120688E-08
       386  14  4.467091E+05  7.051909E+04  7.589588E+02  1.776968E+05  3.509316E-09  8.533573E-09
       386  15  4.421089E+05  7.519565E+04  1.243678E+03  1.829283E+05 -1.025005E-09  4.512587E-09
       386  16  4.263956E+05  6.926910E+04 -3.287990E+03  1.785828E+05  2.101148E-09  7.715908E-09
       386  17  4.551142E+05  7.366414E+04  2.865688E+03  1.800059E+05 -3.120291E-10 -4.498066E-09
       386  18  4.746288E+05  8.738304E+04  9.313244E+03  1.919034E+05 -2.077003E-09 -2.476178E-09
       386  19  4.578144E+05  8.106373E+04  4.423798E+03  1.872963E+05  6.815916E+02  1.291053E+03
       386  20  4.383040E+05  6.737405E+04 -1.347777E+03  1.753877E+05  1.551103E+03  1.376073E+02
       386  21  4.095899E+05  6.300828E+04 -6.825996E+03  1.739537E+05  2.420338E+03 -1.015292E+03
       386  22  4.421048E+05  7.516640E+04  5.679127E+02  1.829395E+05 -2.516693E+02  9.371631E+02
       386  23  4.467091E+05  7.051909E+04  7.589596E+02  1.776968E+05  6.182742E+02 -2.161092E+02
       386  24  4.421089E+05  7.519565E+04  1.243685E+03  1.829283E+05  1.487957E+03 -1.368831E+03
       386  25  4.263956E+05  6.926910E+04 -3.287987E+03  1.785828E+05 -1.184904E+03  5.832831E+02
       386  26  4.551142E+05  7.366414E+04  2.865689E+03  1.800059E+05 -3.145662E+02 -5.698302E+02
       386  27  4.746288E+05  8.738304E+04  9.313250E+03  1.919034E+05  5.555269E+02 -1.722388E+03
       387   1  3.864358E+05  5.430547E+04 -1.243721E+04  1.676958E+05 -2.948384E+03  1.681187E+03
       387   2  3.668095E+05  4.047643E+04 -1.717781E+04  1.556453E+05 -4.858603E+03  2.439911E+03
       387   3  3.383021E+05  3.654207E+04 -2.070363E+04  1.539992E+05 -6.762797E+03  3.183404E+03
       387   4  4.421559E+05  7.515113E+04  1.612981E+03  1.829777E+05 -2.010089E+03  2.036944E+03
       387   5  4.466302E+05  7.045044E+04  2.850019E+03  1.776812E+05 -3.931497E+03  2.791359E+03
       387   6  4.422256E+05  7.564668E+04  5.310741E+03  1.827891E+05 -5.846938E+03  3.530523E+03
       387   7  4.978793E+05  9.599709E+04  1.566300E+04  1.982609E+05 -1.071698E+03  2.392738E+03
       387   8  5.264574E+05  1.004250E+05  2.287740E+04  1.997198E+05 -3.004259E+03  3.142857E+03
       387   9  5.461597E+05  1.147520E+05  3.132427E+04  2.115834E+05 -4.930911E+03  3.877705E+03
       387  10  3.864358E+05  5.430546E+04 -1.243723E+04  1.676958E+05 -1.421138E-08  1.825800E-09
       387  11  3.668094E+05  4.047642E+04 -1.717787E+04  1.556453E+05 -7.484552E-09 -4.765742E-09
       387  12  3.383021E+05  3.654204E+04 -2.070373E+04  1.539992E+05  3.484011E-09  2.539155E-09
       387  13  4.421559E+05  7.515113E+04  1.612965E+03  1.829777E+05 -1.958547E-09  6.578915E-09
       387  14  4.466302E+05  7.045043E+04  2.849975E+03  1.776812E+05 -8.759127E-09 -1.233533E-09
       387  15  4.422256E+05  7.564665E+04  5.310654E+03  1.827891E+05 -2.094496E-09 -8.827644E-10
       387  16  4.978793E+05  9.599708E+04  1.566298E+04  1.982609E+05  1.468420E-08  5.918906E-10
       387  17  5.264574E+05  1.004249E+05  2.287736E+04  1.997198E+05  2.018327E-09 -1.426780E-08
       387  18  5.461596E+05  1.147520E+05  3.132419E+04  2.115834E+05 -9.802471E-09 -3.245341E-09
       387  19  3.864358E+05  5.430547E+04 -1.243721E+04  1.676958E+05  2.948384E+03 -1.681187E+03
       387  20  3.668095E+05  4.047643E+04 -1.717781E+04  1.556453E+05  4.858603E+03 -2.439911E+03
       387  21  3.383021E+05  3.654207E+04 -2.070363E+04  1.539992E+05  6.762797E+03 -3.183404E+03
       387  22  4.421559E+05  7.515113E+04  1.612981E+03  1.829777E+05  2.010089E+03 -2.036944E+03
       387  23  4.466302E+05  7.045044E+04  2.850019E+03  1.776812E+05  3.931497E+03 -2.791359E+03
       387  24  4.422256E+05  7.564668E+04  5.310741E+03  1.827891E+05  5.846938E+03 -3.530523E+03
       387  25  4.978793E+05  9.599709E+04  1.566300E+04  1.982609E+05  1.071698E+03 -2.392738E+03
       387  26  5.264574E+05  1.004250E+05  2.287740E+04  1.997198E+05  3.004259E+03 -3.142857E+03
       387  27  5.461597E+05  1.147520E+05  3.132427E+04  2.115834E+05  4.930911E+03 -3.877705E+03
       388   1  3.145790E+05  2.790777E+04 -2.507015E+04  1.491178E+05 -8.153153E+03  3.570040E+03
       388   2  2.948631E+05  1.248132E+04 -2.569003E+04  1.352546E+05 -1.469246E+04  2.526462E+03
       388   3  2.694920E+05  1.406794E+04 -1.971114E+04  1.301686E+05 -2.110254E+04  1.143489E+03
       388   4  4.426137E+05  7.488549E+04  6.928843E+03  1.833187E+05 -7.129115E+03  3.958114E+03
       388   5  4.459162E+05  6.984687E+04  1.234436E+04  1.776061E+05 -1.391423E+04  2.821217E+03
       388   6  4.436110E+05  8.186833E+04  2.455215E+04  1.806703E+05 -2.057041E+04  1.344825E+03
       388   7  5.706638E+05  1.218639E+05  3.892641E+04  2.175257E+05 -6.104851E+03  4.346269E+03
       388   8  5.969917E+05  1.272141E+05  5.037692E+04  2.199671E+05 -1.313579E+04  3.116052E+03
       388   9  6.177605E+05  1.496717E+05  6.881319E+04  2.311852E+05 -2.003810E+04  1.546229E+03
       388  10  3.145790E+05  2.790774E+04 -2.507029E+04  1.491178E+05 -4.150175E-09 -4.032006E-09
       388  11  2.948629E+05  1.248125E+04 -2.569044E+04  1.352546E+05  1.461836E-09 -1.455413E-10
       388  12  2.694915E+05  1.406782E+04 -1.971198E+04  1.301686E+05  1.634906E-08 -1.080902E-08
       388  13  4.426136E+05  7.488546E+04  6.928718E+03  1.833187E+05 -5.216257E-09 -5.090226E-09
       388  14  4.459160E+05  6.984681E+04  1.234398E+04  1.776062E+05 -9.053421E-09  1.202135E-09
       388  15  4.436106E+05  8.186822E+04  2.455135E+04  1.806703E+05  1.679000E-09  2.578395E-09
       388  16  5.706637E+05  1.218639E+05  3.892630E+04  2.175258E+05  1.223712E-09  5.353850E-09
       388  17  5.969916E+05  1.272141E+05  5.037658E+04  2.199671E+05 -1.004801E-08  9.054913E-11
       388  18  6.177601E+05  1.496716E+05  6.881243E+04  2.311853E+05 -1.417326E-08 -1.289742E-08
       388  19  3.145790E+05  2.790777E+04 -2.507015E+04  1.491178E+05  8.153153E+03 -3.570040E+03
       388  20  2.948631E+05  1.248132E+04 -2.569003E+04  1.352546E+05  1.469246E+04 -2.526462E+03
       388  21  2.694920E+05  1.406794E+04 -1.971114E+04  1.301686E+05  2.110254E+04 -1.143489E+03
       388  22  4.426137E+05  7.488549E+04  6.928843E+03  1.833187E+05  7.129115E+03 -3.958114E+03
       388  23  4.459162E+05  6.984687E+04  1.234436E+04  1.776061E+05  1.391423E+04 -2.821217E+03
       388  24  4.436110E+05  8.186833E+04  2.455215E+04  1.806703E+05  2.057041E+04 -1.344825E+03
       388  25  5.706638E+05  1.218639E+05  3.892641E+04  2.175257E+05  6.104851E+03 -4.346269E+03
       388  26  5.969917E+05  1.272141E+05  5.037692E+04  2.199671E+05  1.313579E+04 -3.116052E+03
       388  27  6.177605E+05  1.496717E+05  6.881319E+04  2.311852E+05  2.003810E+04 -1.546229E+03
       389   1  2.383607E+05  6.171994E+03 -1.924749E+04  1.431791E+05 -2.791195E+04  3.673483E+02
       389   2  2.233105E+05 -2.952567E+04 -3.663808E+03  1.055518E+05 -5.155240E+04 -8.266653E+03
       389   3  2.395378E+05  4.299649E+04  5.661651E+04  5.253243E+04 -7.258330E+04 -2.378917E+04
       389   4  4.475562E+05  7.118012E+04  3.066089E+04  1.871016E+05 -2.523819E+04  1.380656E+03
       389   5  4.381087E+05  6.322908E+04  5.277241E+04  1.771310E+05 -5.384456E+04 -9.136192E+03
       389   6  4.609058E+05  1.644562E+05  1.235045E+05  1.517721E+05 -7.984214E+04 -2.654281E+04
       389   7  6.567953E+05  1.361884E+05  8.056642E+04  2.310360E+05 -2.256344E+04  2.394194E+03
       389   8  6.529511E+05  1.559907E+05  1.092043E+05  2.487336E+05 -5.613758E+04 -1.000616E+04
       389   9  6.823217E+05  2.859358E+05  1.903871E+05  2.510477E+05 -8.710370E+04 -2.929857E+04
       389  10  2.383599E+05  6.171785E+03 -1.924895E+04  1.431792E+05 -1.021442E-08 -1.595310E-08
       389  11  2.233077E+05 -2.952645E+04 -3.668929E+03  1.055514E+05 -4.409932E-09 -1.731934E-09
       389  12  2.395320E+05  4.299447E+04  5.660555E+04  5.253104E+04  6.331880E-09 -9.265471E-10
       389  13  4.475556E+05  7.117995E+04  3.065969E+04  1.871016E+05 -8.669271E-10  1.941973E-09
       389  14  4.381056E+05  6.322822E+04  5.276681E+04  1.771306E+05 -2.486439E-09  7.356636E-09
       389  15  4.608988E+05  1.644537E+05  1.234912E+05  1.517704E+05 -5.377705E-09  4.166357E-09
       389  16  6.567947E+05  1.361883E+05  8.056545E+04  2.310361E+05  1.379469E-08  1.381368E-08
       389  17  6.529477E+05  1.559897E+05  1.091982E+05  2.487332E+05 -5.994051E-10  1.758296E-08
       389  18  6.823134E+05  2.859329E+05  1.903712E+05  2.510456E+05 -9.389917E-09  7.384285E-09
       389  19  2.383607E+05  6.171994E+03 -1.924749E+04  1.431791E+05  2.791195E+04 -3.673483E+02
       389  20  2.233105E+05 -2.952567E+04 -3.663808E+03  1.055518E+05  5.155240E+04  8.266653E+03
       389  21  2.395378E+05  4.299649E+04  5.661651E+04  5.253243E+04  7.258330E+04  2.378917E+04
       389  22  4.475562E+05  7.118012E+04  3.066089E+04  1.871016E+05  2.523819E+04 -1.380656E+03
       389  23  4.381087E+05  6.322908E+04  5.277241E+04  1.771310E+05  5.384456E+04  9.136192E+03
       389  24  4.609058E+05  1.644562E+05  1.235045E+05  1.517721E+05  7.984214E+04  2.654281E+04
       389  25  6.567953E+05  1.361884E+05  8.056642E+04  2.310360E+05  2.256344E+04 -2.394194E+03
       389  26  6.529511E+05  1.559907E+05  1.092043E+05  2.487336E+05  5.613758E+04  1.000616E+04
       389  27  6.823217E+05  2.859358E+05  1.903871E+05  2.510477E+05  8.710370E+04  2.929857E+04
       390   1 -1.459555E+05 -7.351813E+05 -1.466087E+05  9.257055E+04 -5.508537E+03 -2.491378E+04
       390   2 -9.298638E+04 -5.887075E+05 -9.605517E+04  5.302861E+04 -1.536141E+04 -9.173625E+03
       390   3 -5.799837E+04 -4.482094E+05 -6.016317E+04  8.339136E+04 -1.071176E+04  6.610575E+03
       390   4 -1.533308E+04 -2.109468E+05 -1.825628E+04  8.508988E+04 -5.544315E+03 -1.182815E+04
       390   5  4.870900E+02 -2.089015E+05 -8.748813E+03  5.015965E+04 -1.536593E+04 -7.211638E+03
       390   6  2.657816E+02 -2.109154E+05 -6.167283E+03  8.513263E+04 -1.068875E+04 -2.554986E+03
       390   7  1.152693E+05  3.135388E+05  1.100767E+05  7.760304E+04 -5.580393E+03  1.268530E+03
       390   8  9.395051E+04  1.710382E+05  7.854802E+04  4.728900E+04 -1.537047E+04 -5.248459E+03
       390   9  5.852610E+04  2.643104E+04  4.782526E+04  8.687459E+04 -1.066579E+04 -1.172402E+04
       390  10 -1.459557E+05 -7.351819E+05 -1.466100E+05  9.257044E+04 -8.340772E-10  1.162636E-08
       390  11 -9.298666E+04 -5.887076E+05 -9.605577E+04  5.302849E+04 -1.874589E-09  7.892885E-09
       390  12 -5.799851E+04 -4.482095E+05 -6.016347E+04  8.339142E+04  9.237696E-10 -1.392431E-08
       390  13 -1.533315E+04 -2.109469E+05 -1.825660E+04  8.508983E+04  8.980101E-10 -8.411039E-09
       390  14  4.868225E+02 -2.089016E+05 -8.749354E+03  5.015956E+04 -3.166576E-09  5.324581E-09
       390  15  2.656572E+02 -2.109155E+05 -6.167509E+03  8.513260E+04 -1.534259E-09 -1.782580E-08
       390  16  1.152693E+05  3.135388E+05  1.100767E+05  7.760305E+04  9.602659E-10 -7.385989E-09
       390  17  9.395025E+04  1.710381E+05  7.854753E+04  4.728894E+04  6.996794E-10 -9.383553E-09
       390  18  5.852594E+04  2.643086E+04  4.782479E+04  8.687449E+04 -2.608202E-09  5.166631E-09
       390  19 -1.459555E+05 -7.351813E+05 -1.466087E+05  9.257055E+04  5.508537E+03  2.491378E+04
       390  20 -9.298638E+04 -5.887075E+05 -9.605517E+04  5.302861E+04  1.536141E+04  9.173625E+03
       390  21 -5.799837E+04 -4.482094E+05 -6.016317E+04  8.339136E+04  1.071176E+04 -6.610575E+03
       390  22 -1.533308E+04 -2.109468E+05 -1.825628E+04  8.508988E+04  5.544315E+03  1.182815E+04
       390  23  4.870900E+02 -2.089015E+05 -8.748813E+03  5.015965E+04  1.536593E+04  7.211638E+03
       390  24  2.657816E+02 -2.109154E+05 -6.167283E+03  8.513263E+04  1.068875E+04  2.554986E+03
       390  25  1.152693E+05  3.135388E+05  1.100767E+05  7.760304E+04  5.580393E+03 -1.268530E+03
       390  26  9.395051E+04  1.710382E+05  7.854802E+04  4.728900E+04  1.537047E+04  5.248459E+03
       390  27  5.852610E+04  2.643104E+04  4.782526E+04  8.687459E+04  1.066579E+04  1.172402E+04
       391   1 -2.743180E+04 -3.162466E+05 -2.982370E+04  8.608283E+04 -4.733001E+03  3.393028E+03
       391   2  9.106660E+03 -1.724393E+05  3.330438E+03  4.989066E+04  1.673354E+03  5.955058E+03
       391   3  4.248196E+04 -2.927471E+04  3.412483E+04  8.417968E+04  7.992979E+03  8.517809E+03
       391   4 -1.368298E+03 -2.101526E+05 -5.653629E+03  8.524887E+04 -4.720870E+03 -1.563735E+03
       391   5 -7.153255E+01 -2.098173E+05 -5.172183E+03  5.000731E+04  1.685489E+03  1.064446E+03
       391   6 -1.948193E+03 -2.101557E+05 -7.095513E+03  8.524742E+04  8.005053E+03  3.692774E+03
       391   7  2.469444E+04 -1.040481E+05  1.851580E+04  8.441476E+04 -4.708727E+03 -6.521337E+03
       391   8 -9.249809E+03 -2.471941E+05 -1.367480E+04  5.012395E+04  1.697623E+03 -3.825874E+03
       391   9 -4.638059E+04 -3.910062E+05 -4.831790E+04  8.631486E+04  8.017112E+03 -1.130867E+03
       391  10 -2.743183E+04 -3.162466E+05 -2.982376E+04  8.608284E+04  1.523274E-09  5.210886E-09
       391  11  9.106648E+03 -1.724393E+05  3.330366E+03  4.989065E+04  2.425786E-09  1.345097E-08
       391  12  4.248187E+04 -2.927481E+04  3.412457E+04  8.417962E+04  6.839815E-10 -7.100437E-09
       391  13 -1.368322E+03 -2.101526E+05 -5.653676E+03  8.524886E+04  3.434784E-10 -5.583828E-09
       391  14 -7.153590E+01 -2.098173E+05 -5.172191E+03  5.000731E+04  4.523108E-09 -6.395832E-09
       391  15 -1.948265E+03 -2.101557E+05 -7.095659E+03  8.524739E+04  1.691286E-09 -1.557079E-08
       391  16  2.469441E+04 -1.040482E+05  1.851568E+04  8.441474E+04 -8.330135E-10 -3.516089E-09
       391  17 -9.249816E+03 -2.471941E+05 -1.367484E+04  5.012396E+04  3.203424E-09 -7.842288E-09
       391  18 -4.638066E+04 -3.910062E+05 -4.831802E+04  8.631487E+04 -1.673217E-09  1.982888E-10
       391  19 -2.743180E+04 -3.162466E+05 -2.982370E+04  8.608283E+04  4.733001E+03 -3.393028E+03
       391  20  9.106660E+03 -1.724393E+05  3.330438E+03  4.989066E+04 -1.673354E+03 -5.955058E+03
       391  21  4.248196E+04 -2.927471E+04  3.412483E+04  8.417968E+04 -7.992979E+03 -8.517809E+03
       391  22 -1.368298E+03 -2.101526E+05 -5.653629E+03  8.524887E+04  4.720870E+03  1.563735E+03
       391  23 -7.153255E+01 -2.098173E+05 -5.172183E+03  5.000731E+04 -1.685489E+03 -1.064446E+03
       391  24 -1.948193E+03 -2.101557E+05 -7.095513E+03  8.524742E+04 -8.005053E+03 -3.692774E+03
       391  25  2.469444E+04 -1.040481E+05  1.851580E+04  8.441476E+04  4.708727E+03  6.521337E+03
       391  26 -9.249809E+03 -2.471941E+05 -1.367480E+04  5.012395E+04 -1.697623E+03  3.825874E+03
       391  27 -4.638059E+04 -3.910062E+05 -4.831790E+04  8.631486E+04 -8.017112E+03  1.130867E+03
       392   1  7.731545E+04  1.007272E+05  6.267969E+04  8.785518E+04  1.414051E+04  1.459135E+04
       392   2  1.126870E+05  2.463259E+05  9.156509E+04  4.605207E+04  1.851376E+04  8.875768E+03
       392   3  1.260727E+05  3.877933E+05  1.188006E+05  7.404066E+04  6.547114E+03  3.112264E+03
       392   4  7.099961E+02 -2.114282E+05 -8.270853E+03  8.511559E+04  1.416523E+04  4.964720E+03
       392   5  8.687798E+02 -2.082809E+05 -1.281859E+04  5.018379E+04  1.850677E+04  1.179833E+04
       392   6 -2.314433E+04 -2.114662E+05 -2.773394E+04  8.504820E+04  6.502964E+03  1.858504E+04
       392   7 -7.590211E+04 -5.234929E+05 -7.922736E+04  8.237744E+04  1.419004E+04 -4.657110E+03
       392   8 -1.109638E+05 -6.626963E+05 -1.172159E+05  5.431258E+04  1.849982E+04  1.471877E+04
       392   9 -1.723874E+05 -8.103978E+05 -1.742938E+05  9.604531E+04  6.459341E+03  3.404292E+04
       392  10  7.731518E+04  1.007269E+05  6.267892E+04  8.785501E+04  1.076523E-09  7.338923E-09
       392  11  1.126866E+05  2.463257E+05  9.156429E+04  4.605194E+04  2.481597E-10  1.727088E-08
       392  12  1.260727E+05  3.877933E+05  1.188005E+05  7.404065E+04 -7.947203E-10 -1.578685E-10
       392  13  7.097740E+02 -2.114283E+05 -8.271276E+03  8.511553E+04 -2.536558E-09 -1.011244E-08
       392  14  8.683747E+02 -2.082811E+05 -1.281949E+04  5.018361E+04  3.072209E-09  2.195162E-09
       392  15 -2.314447E+04 -2.114666E+05 -2.773467E+04  8.504810E+04  2.466512E-10 -1.691085E-08
       392  16 -7.590233E+04 -5.234930E+05 -7.922778E+04  8.237749E+04 -2.157671E-09 -1.193997E-09
       392  17 -1.109642E+05 -6.626966E+05 -1.172169E+05  5.431236E+04  4.210955E-09 -1.548676E-08
       392  18 -1.723878E+05 -8.103991E+05 -1.742960E+05  9.604513E+04  1.350264E-09 -5.343760E-09
       392  19  7.731545E+04  1.007272E+05  6.267969E+04  8.785518E+04 -1.414051E+04 -1.459135E+04
       392  20  1.126870E+05  2.463259E+05  9.156509E+04  4.605207E+04 -1.851376E+04 -8.875768E+03
       392  21  1.260727E+05  3.877933E+05  1.188006E+05  7.404066E+04 -6.547114E+03 -3.112264E+03
       392  22  7.099961E+02 -2.114282E+05 -8.270853E+03  8.511559E+04 -1.416523E+04 -4.964720E+03
       392  23  8.687798E+02 -2.082809E+05 -1.281859E+04  5.018379E+04 -1.850677E+04 -1.179833E+04
       392  24 -2.314433E+04 -2.114662E+05 -2.773394E+04  8.504820E+04 -6.502964E+03 -1.858504E+04
       392  25 -7.590211E+04 -5.234929E+05 -7.922736E+04  8.237744E+04 -1.419004E+04  4.657110E+03
       392  26 -1.109638E+05 -6.626963E+05 -1.172159E+05  5.431258E+04 -1.849982E+04 -1.471877E+04
       392  27 -1.723874E+05 -8.103978E+05 -1.742938E+05  9.604531E+04 -6.459341E+03 -3.404292E+04
       393   1  2.810809E+05 -1.014769E+05 -9.429655E+04 -1.281394E+04  2.980853E+03  6.112448E+03
       393   2  3.164356E+05 -1.127928E+05 -9.243817E+04 -9.799101E+03  6.431038E+03  1.900990E+04
       393   3  3.566135E+05 -1.035734E+05 -8.766942E+04 -2.480544E+04  9.893705E+03  1.935829E+04
       393   4  7.740678E+05  2.106711E+04  2.582107E+04 -2.150811E+04  1.771683E+04  6.126273E+03
       393   5  7.708316E+05 -1.166323E+03  1.159034E+04 -1.248855E+04  1.152317E+04  1.901293E+04
       393   6  7.740854E+05 -1.199522E+03  6.959093E+03 -2.148909E+04  5.341729E+03  1.935467E+04
       393   7  1.267277E+06  1.435936E+05  1.459219E+05 -3.020924E+04  3.246448E+04  6.139681E+03
       393   8  1.225419E+06  1.104459E+05  1.156054E+05 -1.518001E+04  1.661899E+04  1.901591E+04
       393   9  1.191719E+06  1.011624E+05  1.015764E+05 -1.817052E+04  7.867213E+02  1.935101E+04
       393  10  2.810809E+05 -1.014769E+05 -9.429663E+04 -1.281395E+04 -5.080884E-10 -2.333936E-12
       393  11  3.164355E+05 -1.127932E+05 -9.243893E+04 -9.799199E+03 -2.392100E-10  7.599134E-11
       393  12  3.566133E+05 -1.035738E+05 -8.767031E+04 -2.480559E+04 -2.664593E-10  4.950964E-11
       393  13  7.740674E+05  2.106699E+04  2.582041E+04 -2.150819E+04 -5.683594E-11  1.982110E-12
       393  14  7.708314E+05 -1.166747E+03  1.158941E+04 -1.248872E+04 -2.511291E-10  1.453294E-11
       393  15  7.740853E+05 -1.199932E+03  6.958335E+03 -2.148918E+04 -8.671424E-11  9.412832E-12
       393  16  1.267276E+06  1.435933E+05  1.459198E+05 -3.020940E+04  4.189645E-10  2.490954E-11
       393  17  1.225418E+06  1.104454E+05  1.156042E+05 -1.518027E+04  3.877835E-10  3.160223E-12
       393  18  1.191719E+06  1.011620E+05  1.015757E+05 -1.817053E+04  2.048121E-10 -3.992740E-11
       393  19  2.810809E+05 -1.014769E+05 -9.429655E+04 -1.281394E+04 -2.980853E+03 -6.112448E+03
       393  20  3.164356E+05 -1.127928E+05 -9.243817E+04 -9.799101E+03 -6.431038E+03 -1.900990E+04
       393  21  3.566135E+05 -1.035734E+05 -8.766942E+04 -2.480544E+04 -9.893705E+03 -1.935829E+04
       393  22  7.740678E+05  2.106711E+04  2.582107E+04 -2.150811E+04 -1.771683E+04 -6.126273E+03
       393  23  7.708316E+05 -1.166323E+03  1.159034E+04 -1.248855E+04 -1.152317E+04 -1.901293E+04
       393  24  7.740854E+05 -1.199522E+03  6.959093E+03 -2.148909E+04 -5.341729E+03 -1.935467E+04
       393  25  1.267277E+06  1.435936E+05  1.459219E+05 -3.020924E+04 -3.246448E+04 -6.139681E+03
       393  26  1.225419E+06  1.104459E+05  1.156054E+05 -1.518001E+04 -1.661899E+04 -1.901591E+04
       393  27  1.191719E+06  1.011624E+05  1.015764E+05 -1.817052E+04 -7.867213E+02 -1.935101E+04
       394   1  3.895272E+05 -9.266233E+04 -8.174235E+04 -2.117281E+04  5.024357E+03  1.685818E+04
       394   2  4.262127E+05 -8.507758E+04 -7.570557E+04 -1.242860E+04  3.969646E+03  1.565412E+04
       394   3  4.634877E+05 -7.599905E+04 -6.859181E+04 -2.183351E+04  2.914258E+03  1.386992E+04
       394   4  7.727960E+05  1.408308E+03  5.586275E+03 -2.152315E+04  4.324315E+03  1.685709E+04
       394   5  7.724674E+05 -1.357165E+02  2.975157E+03 -1.244859E+04  2.823022E+03  1.565307E+04
       394   6  7.728041E+05 -1.089094E+02  1.750411E+03 -2.152251E+04  1.321112E+03  1.386906E+04
       394   7  1.156201E+06  9.546878E+04  9.290534E+04 -2.187372E+04  3.623845E+03  1.685600E+04
       394   8  1.118833E+06  8.479787E+04  8.164812E+04 -1.246860E+04  1.675764E+03  1.565201E+04
       394   9  1.082209E+06  7.577462E+04  7.208644E+04 -2.121136E+04 -2.728194E+02  1.386820E+04
       394  10  3.895271E+05 -9.266264E+04 -8.174293E+04 -2.117288E+04 -2.939670E-10  9.776080E-11
       394  11  4.262126E+05 -8.507784E+04 -7.570606E+04 -1.242865E+04 -1.909723E-10  9.486856E-11
       394  12  4.634876E+05 -7.599926E+04 -6.859219E+04 -2.183354E+04 -4.902806E-11 -5.489641E-11
       394  13  7.727959E+05  1.407998E+03  5.585706E+03 -2.152321E+04 -7.833508E-12  8.186595E-11
       394  14  7.724674E+05 -1.359819E+02  2.974682E+03 -1.244863E+04 -1.553418E-10  2.424767E-10
       394  15  7.728040E+05 -1.091165E+02  1.750046E+03 -2.152252E+04  1.340166E-11  3.833164E-11
       394  16  1.156201E+06  9.546847E+04  9.290478E+04 -2.187377E+04  3.025189E-10 -4.249877E-11
       394  17  1.118833E+06  8.479761E+04  8.164765E+04 -1.246862E+04  1.786784E-10 -9.188944E-12
       394  18  1.082209E+06  7.577442E+04  7.208608E+04 -2.121135E+04  4.825403E-11  1.748142E-11
       394  19  3.895272E+05 -9.266233E+04 -8.174235E+04 -2.117281E+04 -5.024357E+03 -1.685818E+04
       394  20  4.262127E+05 -8.507758E+04 -7.570557E+04 -1.242860E+04 -3.969646E+03 -1.565412E+04
       394  21  4.634877E+05 -7.599905E+04 -6.859181E+04 -2.183351E+04 -2.914258E+03 -1.386992E+04
       394  22  7.727960E+05  1.408308E+03  5.586275E+03 -2.152315E+04 -4.324315E+03 -1.685709E+04
       394  23  7.724674E+05 -1.357165E+02  2.975157E+03 -1.244859E+04 -2.823022E+03 -1.565307E+04
       394  24  7.728041E+05 -1.089094E+02  1.750411E+03 -2.152251E+04 -1.321112E+03 -1.386906E+04
       394  25  1.156201E+06  9.546878E+04  9.290534E+04 -2.187372E+04 -3.623845E+03 -1.685600E+04
       394  26  1.118833E+06  8.479787E+04  8.164812E+04 -1.246860E+04 -1.675764E+03 -1.565201E+04
       394  27  1.082209E+06  7.577462E+04  7.208644E+04 -2.121136E+04  2.728194E+02 -1.386820E+04
       395   1  4.968532E+05 -6.757029E+04 -6.119548E+04 -2.151197E+04  2.453957E+03  1.270984E+04
       395   2  5.332955E+05 -5.873192E+04 -5.355867E+04 -1.253739E+04  2.073989E+03  1.086849E+04
       395   3  5.698483E+05 -4.978517E+04 -4.564023E+04 -2.149517E+04  1.693343E+03  9.006288E+03
       395   4  7.726859E+05  6.898977E+01  1.359972E+03 -2.147457E+04  1.047315E+03  1.270921E+04
       395   5  7.726321E+05 -2.752269E+01  7.983681E+02 -1.250860E+04  6.511382E+02  1.086808E+04
       395   6  7.726908E+05 -1.264851E+01  5.297400E+02 -2.147457E+04  2.543061E+02  9.006107E+03
       395   7  1.048589E+06  6.770303E+04  6.391052E+04 -2.143717E+04 -3.599468E+02  1.270857E+04
       395   8  1.012022E+06  5.867293E+04  5.515170E+04 -1.247981E+04 -7.722558E+02  1.086766E+04
       395   9  9.755715E+05  4.975703E+04  4.669705E+04 -2.145396E+04 -1.185197E+03  9.005927E+03
       395  10  4.968531E+05 -6.757047E+04 -6.119579E+04 -2.151199E+04 -1.696514E-10 -1.753672E-10
       395  11  5.332954E+05 -5.873205E+04 -5.355890E+04 -1.253741E+04  3.614357E-11 -9.948491E-11
       395  12  5.698482E+05 -4.978525E+04 -4.564039E+04 -2.149518E+04 -5.910905E-12 -5.573633E-11
       395  13  7.726858E+05  6.881596E+01  1.359666E+03 -2.147458E+04  7.809647E-12 -5.603358E-11
       395  14  7.726320E+05 -2.764968E+01  7.981452E+02 -1.250861E+04  6.973173E-11  2.278527E-10
       395  15  7.726908E+05 -1.273566E+01  5.295874E+02 -2.147457E+04  4.866809E-12  1.553790E-11
       395  16  1.048589E+06  6.770286E+04  6.391021E+04 -2.143716E+04  1.354919E-10  6.081766E-11
       395  17  1.012022E+06  5.867280E+04  5.515148E+04 -1.247980E+04  1.687276E-11  1.442921E-10
       395  18  9.755715E+05  4.975694E+04  4.669689E+04 -2.145395E+04 -4.686916E-11  6.428507E-11
       395  19  4.968532E+05 -6.757029E+04 -6.119548E+04 -2.151197E+04 -2.453957E+03 -1.270984E+04
       395  20  5.332955E+05 -5.873192E+04 -5.355867E+04 -1.253739E+04 -2.073989E+03 -1.086849E+04
       395  21  5.698483E+05 -4.978517E+04 -4.564023E+04 -2.149517E+04 -1.693343E+03 -9.006288E+03
       395  22  7.726859E+05  6.898977E+01  1.359972E+03 -2.147457E+04 -1.047315E+03 -1.270921E+04
       395  23  7.726321E+05 -2.752269E+01  7.983681E+02 -1.250860E+04 -6.511382E+02 -1.086808E+04
       395  24  7.726908E+05 -1.264851E+01  5.297400E+02 -2.147457E+04 -2.543061E+02 -9.006107E+03
       395  25  1.048589E+06  6.770303E+04  6.391052E+04 -2.143717E+04  3.599468E+02 -1.270857E+04
       395  26  1.012022E+06  5.867293E+04  5.515170E+04 -1.247981E+04  7.722558E+02 -1.086766E+04
       395  27  9.755715E+05  4.975703E+04  4.669705E+04 -2.145396E+04  1.185197E+03 -9.005927E+03
       396   1  6.029551E+05 -4.160769E+04 -3.798010E+04 -2.144126E+04  1.591850E+03  7.920141E+03
       396   2  6.391298E+05 -3.275607E+04 -2.990902E+04 -1.253746E+04  1.384795E+03  6.064973E+03
       396   3  6.753421E+05 -2.389020E+04 -2.169847E+04 -2.142045E+04  1.177357E+03  4.212384E+03
       396   4  7.726767E+05 -1.548193E+00  4.579337E+02 -2.144226E+04  1.650753E+02  7.920075E+03
       396   5  7.726602E+05 -6.053674E+00  4.149398E+02 -1.254898E+04 -4.008803E+01  6.065033E+03
       396   6  7.726793E+05  3.316073E+00  5.099995E+02 -2.144226E+04 -2.456239E+02  4.212575E+03
       396   7  9.424250E+05  4.160261E+04  3.889412E+04 -2.144327E+04 -1.262085E+03  7.920009E+03
       396   8  9.062072E+05  3.274274E+04  3.073775E+04 -1.256051E+04 -1.465275E+03  6.065092E+03
       396   9  8.700252E+05  2.389617E+04  2.271786E+04 -2.146408E+04 -1.668825E+03  4.212765E+03
       396  10  6.029551E+05 -4.160776E+04 -3.798022E+04 -2.144127E+04 -2.041453E-10 -1.841290E-11
       396  11  6.391297E+05 -3.275611E+04 -2.990909E+04 -1.253747E+04  6.623121E-11 -9.088756E-11
       396  12  6.753421E+05 -2.389022E+04 -2.169850E+04 -2.142046E+04  7.636276E-11 -2.331774E-10
       396  13  7.726766E+05 -1.615583E+00  4.578157E+02 -2.144227E+04  2.647575E-11  3.191289E-11
       396  14  7.726602E+05 -6.093189E+00  4.148707E+02 -1.254898E+04 -1.327158E-10  4.677998E-12
       396  15  7.726793E+05  3.296994E+00  5.099660E+02 -2.144226E+04  7.694728E-11 -1.100596E-10
       396  16  9.424249E+05  4.160254E+04  3.889399E+04 -2.144326E+04  1.506894E-10  4.314376E-11
       396  17  9.062072E+05  3.274270E+04  3.073768E+04 -1.256050E+04  1.669569E-11  7.684236E-11
       396  18  8.700252E+05  2.389615E+04  2.271782E+04 -2.146407E+04 -1.642952E-10 -1.058267E-10
       396  19  6.029551E+05 -4.160769E+04 -3.798010E+04 -2.144126E+04 -1.591850E+03 -7.920141E+03
       396  20  6.391298E+05 -3.275607E+04 -2.990902E+04 -1.253746E+04 -1.384795E+03 -6.064973E+03
       396  21  6.753421E+05 -2.389020E+04 -2.169847E+04 -2.142045E+04 -1.177357E+03 -4.212384E+03
       396  22  7.726767E+05 -1.548193E+00  4.579337E+02 -2.144226E+04 -1.650753E+02 -7.920075E+03
       396  23  7.726602E+05 -6.053674E+00  4.149398E+02 -1.254898E+04  4.008803E+01 -6.065033E+03
       396  24  7.726793E+05  3.316073E+00  5.099995E+02 -2.144226E+04  2.456239E+02 -4.212575E+03
       396  25  9.424250E+05  4.160261E+04  3.889412E+04 -2.144327E+04  1.262085E+03 -7.920009E+03
       396  26  9.062072E+05  3.274274E+04  3.073775E+04 -1.256051E+04  1.465275E+03 -6.065092E+03
       396  27  8.700252E+05  2.389617E+04  2.271786E+04 -2.146408E+04  1.668825E+03 -4.212765E+03
       397   1  7.082744E+05 -1.577456E+04 -1.391004E+04 -2.140237E+04  1.073653E+03  3.135682E+03
       397   2  7.443038E+05 -6.960465E+03 -5.466833E+03 -1.253430E+04  5.917244E+02  1.287658E+03
       397   3  7.804020E+05  1.899391E+03  3.299610E+03 -2.138658E+04  1.096902E+02 -5.587113E+02
       397   4  7.726876E+05  1.901518E+00  6.120533E+02 -2.142754E+04 -3.475763E+02  3.135922E+03
       397   5  7.726541E+05 -7.645251E+00  9.708647E+02 -1.256738E+04 -8.282878E+02  1.287922E+03
       397   6  7.726879E+05  2.844375E+01  1.652125E+03 -2.142753E+04 -1.309077E+03 -5.584180E+02
       397   7  8.371047E+05  1.577808E+04  1.513389E+04 -2.145271E+04 -1.768951E+03  3.136161E+03
       397   8  8.010051E+05  6.945120E+03  7.408518E+03 -1.260047E+04 -2.248364E+03  1.288186E+03
       397   9  7.649739E+05 -1.842507E+03  4.643872E+00 -2.146848E+04 -2.727828E+03 -5.581245E+02
       397  10  7.082744E+05 -1.577457E+04 -1.391006E+04 -2.140237E+04 -2.174963E-10 -2.259144E-10
       397  11  7.443038E+05 -6.960467E+03 -5.466836E+03 -1.253430E+04 -1.136106E-10 -5.744607E-11
       397  12  7.804020E+05  1.899391E+03  3.299609E+03 -2.138658E+04 -8.579171E-11  3.196935E-11
       397  13  7.726876E+05  1.890922E+00  6.120345E+02 -2.142754E+04 -7.820335E-11 -8.669433E-11
       397  14  7.726541E+05 -7.647216E+00  9.708603E+02 -1.256738E+04 -2.628307E-11  4.657735E-11
       397  15  7.726879E+05  2.844295E+01  1.652121E+03 -2.142753E+04 -3.901189E-11  1.349875E-10
       397  16  8.371047E+05  1.577807E+04  1.513387E+04 -2.145271E+04  2.228512E-10 -3.229028E-11
       397  17  8.010051E+05  6.945117E+03  7.408505E+03 -1.260047E+04 -6.379017E-11  1.266049E-10
       397  18  7.649739E+05 -1.842509E+03  4.629320E+00 -2.146848E+04 -8.547626E-11  9.716506E-11
       397  19  7.082744E+05 -1.577456E+04 -1.391004E+04 -2.140237E+04 -1.073653E+03 -3.135682E+03
       397  20  7.443038E+05 -6.960465E+03 -5.466833E+03 -1.253430E+04 -5.917244E+02 -1.287658E+03
       397  21  7.804020E+05  1.899391E+03  3.299610E+03 -2.138658E+04 -1.096902E+02  5.587113E+02
       397  22  7.726876E+05  1.901518E+00  6.120533E+02 -2.142754E+04  3.475763E+02 -3.135922E+03
       397  23  7.726541E+05 -7.645251E+00  9.708647E+02 -1.256738E+04  8.282878E+02 -1.287922E+03
       397  24  7.726879E+05  2.844375E+01  1.652125E+03 -2.142753E+04  1.309077E+03  5.584180E+02
       397  25  8.371047E+05  1.577808E+04  1.513389E+04 -2.145271E+04  1.768951E+03 -3.136161E+03
       397  26  8.010051E+05  6.945120E+03  7.408518E+03 -1.260047E+04  2.248364E+03 -1.288186E+03
       397  27  7.649739E+05 -1.842507E+03  4.643872E+00 -2.146848E+04  2.727828E+03  5.581245E+02
       398   1  8.133558E+05  9.951370E+03  1.147975E+04 -2.130584E+04 -2.274284E+02 -1.635740E+03
       398   2  8.492702E+05  1.874923E+04  2.113907E+04 -1.250734E+04 -2.090358E+03 -3.480856E+03
       398   3  8.855662E+05  2.811420E+04  3.215066E+04 -2.144833E+04 -3.953158E+03 -5.309583E+03
       398   4  7.727568E+05 -2.576137E+01  2.156900E+03 -2.143185E+04 -1.652378E+03 -1.635460E+03
       398   5  7.725661E+05 -6.125409E+01  3.721088E+03 -1.256199E+04 -3.502521E+03 -3.480654E+03
       398   6  7.727542E+05  4.684393E+02  6.629070E+03 -2.143175E+04 -5.352429E+03 -5.309454E+03
       398   7  7.321592E+05 -1.000301E+04 -7.166056E+03 -2.155785E+04 -3.077234E+03 -1.635180E+03
       398   8  6.958674E+05 -1.887214E+04 -1.369726E+04 -1.261663E+04 -4.914511E+03 -3.480452E+03
       398   9  6.599540E+05 -2.717819E+04 -1.889333E+04 -2.141518E+04 -6.751448E+03 -5.309324E+03
       398  10  8.133558E+05  9.951367E+03  1.147975E+04 -2.130584E+04 -4.092578E-11  1.719465E-11
       398  11  8.492702E+05  1.874922E+04  2.113903E+04 -1.250735E+04  2.712356E-12  2.273532E-11
       398  12  8.855662E+05  2.811416E+04  3.215058E+04 -2.144835E+04  3.726291E-11 -1.251928E-10
       398  13  7.727568E+05 -2.576497E+01  2.156889E+03 -2.143185E+04  4.447673E-11  4.324940E-11
       398  14  7.725661E+05 -6.127039E+01  3.721043E+03 -1.256200E+04 -2.932655E-11  7.994128E-11
       398  15  7.727542E+05  4.684013E+02  6.628964E+03 -2.143178E+04 -1.428544E-10  1.516176E-11
       398  16  7.321592E+05 -1.000301E+04 -7.166079E+03 -2.155785E+04 -1.051425E-10  6.198930E-11
       398  17  6.958674E+05 -1.887216E+04 -1.369733E+04 -1.261665E+04 -1.390706E-10  1.127335E-10
       398  18  6.599540E+05 -2.717823E+04 -1.889347E+04 -2.141521E+04 -1.045500E-10  1.444852E-10
       398  19  8.133558E+05  9.951370E+03  1.147975E+04 -2.130584E+04  2.274284E+02  1.635740E+03
       398  20  8.492702E+05  1.874923E+04  2.113907E+04 -1.250734E+04  2.090358E+03  3.480856E+03
       398  21  8.855662E+05  2.811420E+04  3.215066E+04 -2.144833E+04  3.953158E+03  5.309583E+03
       398  22  7.727568E+05 -2.576137E+01  2.156900E+03 -2.143185E+04  1.652378E+03  1.635460E+03
       398  23  7.725661E+05 -6.125409E+01  3.721088E+03 -1.256199E+04  3.502521E+03  3.480654E+03
       398  24  7.727542E+05  4.684393E+02  6.629070E+03 -2.143175E+04  5.352429E+03  5.309454E+03
       398  25  7.321592E+05 -1.000301E+04 -7.166056E+03 -2.155785E+04  3.077234E+03  1.635180E+03
       398  26  6.958674E+05 -1.887214E+04 -1.369726E+04 -1.261663E+04  4.914511E+03  3.480452E+03
       398  27  6.599540E+05 -2.717819E+04 -1.889333E+04 -2.141518E+04  6.751448E+03  5.309324E+03
       399   1  9.191467E+05  3.535900E+04  4.181014E+04 -2.018626E+04 -5.170912E+03 -6.431927E+03
       399   2  9.539642E+05  4.415476E+04  5.618221E+04 -1.315689E+04 -1.294866E+04 -8.218464E+03
       399   3  9.917893E+05  6.086924E+04  7.759519E+04 -2.395416E+04 -2.072658E+04 -9.615109E+03
       399   4  7.733250E+05 -4.182092E+02  8.605827E+03 -2.145120E+04 -6.693794E+03 -6.431853E+03
       399   5  7.718431E+05 -5.094941E+02  1.480594E+04 -1.253774E+04 -1.416983E+04 -8.218607E+03
       399   6  7.733160E+05  7.267023E+03  2.783923E+04 -2.145112E+04 -2.164558E+04 -9.615460E+03
       399   7  6.275230E+05 -3.619689E+04 -2.459986E+04 -2.271585E+04 -8.216322E+03 -6.431772E+03
       399   8  5.897527E+05 -4.517603E+04 -2.657247E+04 -1.191878E+04 -1.539064E+04 -8.218752E+03
       399   9  5.548869E+05 -4.633847E+04 -2.191983E+04 -1.894896E+04 -2.256426E+04 -9.615818E+03
       399  10  9.191466E+05  3.535895E+04  4.181001E+04 -2.018628E+04 -1.925152E-10 -2.014138E-11
       399  11  9.539640E+05  4.415464E+04  5.618177E+04 -1.315697E+04 -2.223893E-11 -3.655544E-11
       399  12  9.917888E+05  6.086903E+04  7.759421E+04 -2.395432E+04 -2.011121E-10  1.023007E-10
       399  13  7.733249E+05 -4.182656E+02  8.605665E+03 -2.145124E+04 -3.303747E-10  6.586016E-11
       399  14  7.718429E+05 -5.096205E+02  1.480544E+04 -1.253784E+04 -1.251407E-10  2.434113E-11
       399  15  7.733154E+05  7.266798E+03  2.783818E+04 -2.145129E+04 -2.586769E-10  6.649515E-11
       399  16  6.275229E+05 -3.619695E+04 -2.460006E+04 -2.271589E+04  2.837083E-11  9.192801E-11
       399  17  5.897525E+05 -4.517617E+04 -2.657304E+04 -1.191889E+04 -1.285460E-10  1.838969E-11
       399  18  5.548863E+05 -4.633871E+04 -2.192096E+04 -1.894914E+04  3.328473E-11  1.658676E-11
       399  19  9.191467E+05  3.535900E+04  4.181014E+04 -2.018626E+04  5.170912E+03  6.431927E+03
       399  20  9.539642E+05  4.415476E+04  5.618221E+04 -1.315689E+04  1.294866E+04  8.218464E+03
       399  21  9.917893E+05  6.086924E+04  7.759519E+04 -2.395416E+04  2.072658E+04  9.615109E+03
       399  22  7.733250E+05 -4.182092E+02  8.605827E+03 -2.145120E+04  6.693794E+03  6.431853E+03
       399  23  7.718431E+05 -5.094941E+02  1.480594E+04 -1.253774E+04  1.416983E+04  8.218607E+03
       399  24  7.733160E+05  7.267023E+03  2.783923E+04 -2.145112E+04  2.164558E+04  9.615460E+03
       399  25  6.275230E+05 -3.619689E+04 -2.459986E+04 -2.271585E+04  8.216322E+03  6.431772E+03
       399  26  5.897527E+05 -4.517603E+04 -2.657247E+04 -1.191878E+04  1.539064E+04  8.218752E+03
       399  27  5.548869E+05 -4.633847E+04 -2.191983E+04 -1.894896E+04  2.256426E+04  9.615818E+03
       400   1  1.031603E+06  5.602324E+04  9.178189E+04 -5.819012E+03 -2.321924E+04 -1.163276E+04
       400   2  1.051967E+06  6.523630E+04  1.238527E+05 -2.730459E+04 -6.056459E+04 -1.199517E+04
       400   3  1.105169E+06  1.862310E+05  2.081644E+05 -6.652380E+04 -9.791504E+04 -3.949311E+03
       400   4  7.797145E+05 -5.725814E+03  3.468949E+04 -2.142264E+04 -2.671989E+04 -1.163281E+04
       400   5  7.638269E+05 -5.519217E+03  5.788660E+04 -1.257092E+04 -5.758924E+04 -1.199638E+04
       400   6  7.796682E+05  1.053709E+05  1.288475E+05 -2.145059E+04 -8.846103E+04 -3.953584E+03
       400   7  5.278850E+05 -6.747832E+04 -2.240682E+04 -3.701989E+04 -3.021915E+04 -1.163269E+04
       400   8  4.757640E+05 -7.627968E+04 -8.084761E+03  2.155852E+03 -5.461525E+04 -1.199745E+04
       400   9  4.542681E+05  2.451065E+04  4.952428E+04  2.359897E+04 -7.901196E+04 -3.956489E+03
       400  10  1.031603E+06  5.602295E+04  9.178062E+04 -5.819230E+03 -3.424782E-10  7.138196E-11
       400  11  1.051963E+06  6.523516E+04  1.238455E+05 -2.730517E+04 -1.298244E-10 -2.159511E-11
       400  12  1.105159E+06  1.862285E+05  2.081464E+05 -6.652411E+04 -2.377135E-12  1.090210E-11
       400  13  7.797137E+05 -5.726151E+03  3.468790E+04 -2.142289E+04 -2.609279E-10  2.031776E-11
       400  14  7.638233E+05 -5.520260E+03  5.788010E+04 -1.257148E+04  2.388732E-12  3.388022E-11
       400  15  7.796598E+05  1.053688E+05  1.288328E+05 -2.145087E+04 -4.897766E-11 -1.847076E-11
       400  16  5.278840E+05 -6.747871E+04 -2.240878E+04 -3.702017E+04  1.915975E-10  1.329723E-10
       400  17  4.757608E+05 -7.628064E+04 -8.090633E+03  2.155324E+03  1.093204E-10  1.296186E-10
       400  18  4.542614E+05  2.450896E+04  4.951252E+04  2.359872E+04 -1.060378E-10  8.028757E-11
       400  19  1.031603E+06  5.602324E+04  9.178189E+04 -5.819012E+03  2.321924E+04  1.163276E+04
       400  20  1.051967E+06  6.523630E+04  1.238527E+05 -2.730459E+04  6.056459E+04  1.199517E+04
       400  21  1.105169E+06  1.862310E+05  2.081644E+05 -6.652380E+04  9.791504E+04  3.949311E+03
       400  22  7.797145E+05 -5.725814E+03  3.468949E+04 -2.142264E+04  2.671989E+04  1.163281E+04
       400  23  7.638269E+05 -5.519217E+03  5.788660E+04 -1.257092E+04  5.758924E+04  1.199638E+04
       400  24  7.796682E+05  1.053709E+05  1.288475E+05 -2.145059E+04  8.846103E+04  3.953584E+03
       400  25  5.278850E+05 -6.747832E+04 -2.240682E+04 -3.701989E+04  3.021915E+04  1.163269E+04
       400  26  4.757640E+05 -7.627968E+04 -8.084761E+03  2.155852E+03  5.461525E+04  1.199745E+04
       400  27  4.542681E+05  2.451065E+04  4.952428E+04  2.359897E+04  7.901196E+04  3.956489E+03
       401   1 -2.201347E+05 -9.641644E+04 -9.304828E+04 -1.874312E+04 -7.194779E+03  5.058059E+03
       401   2 -1.841554E+05 -9.239949E+04 -8.253565E+04 -1.174477E+04 -8.448627E+02  1.564880E+04
       401   3 -1.477082E+05 -8.351188E+04 -7.492601E+04 -2.208190E+04  5.508654E+03  1.570186E+04
       401   4  1.912495E+05  5.925106E+03  7.270585E+03 -2.119914E+04  4.983076E+03  5.061582E+03
       401   5  1.903178E+05 -3.450994E+02  3.259277E+03 -1.253104E+04  3.242043E+03  1.564881E+04
       401   6  1.912574E+05 -3.413447E+02  1.963629E+03 -2.119778E+04  1.504366E+03  1.570123E+04
       401   7  6.027884E+05  1.082543E+05  1.075777E+05 -2.365681E+04  1.716898E+04  5.065008E+03
       401   8  5.649210E+05  9.169954E+04  8.904505E+04 -1.331778E+04  7.331394E+03  1.564881E+04
       401   9  5.303298E+05  8.282128E+04  7.884591E+04 -2.031317E+04 -2.502089E+03  1.570059E+04
       401  10 -2.201347E+05 -9.641648E+04 -9.304843E+04 -1.874309E+04 -1.582386E-10  4.464398E-11
       401  11 -1.841555E+05 -9.239976E+04 -8.253612E+04 -1.174476E+04  1.124637E-10  1.522701E-10
       401  12 -1.477083E+05 -8.351215E+04 -7.492653E+04 -2.208197E+04 -4.686837E-11  7.920654E-12
       401  13  1.912495E+05  5.925072E+03  7.270490E+03 -2.119916E+04  5.648133E-11 -8.370242E-11
       401  14  1.903177E+05 -3.453652E+02  3.258797E+03 -1.253108E+04 -2.546131E-10  2.642497E-10
       401  15  1.912574E+05 -3.416101E+02  1.963162E+03 -2.119779E+04 -2.368531E-10 -3.590393E-11
       401  16  6.027881E+05  1.082542E+05  1.075771E+05 -2.365688E+04  9.907448E-11  8.851298E-11
       401  17  5.649208E+05  9.169927E+04  8.904449E+04 -1.331787E+04 -1.717155E-11 -8.539807E-11
       401  18  5.303297E+05  8.282101E+04  7.884543E+04 -2.031313E+04 -5.089102E-11  2.437461E-11
       401  19 -2.201347E+05 -9.641644E+04 -9.304828E+04 -1.874312E+04  7.194779E+03 -5.058059E+03
       401  20 -1.841554E+05 -9.239949E+04 -8.253565E+04 -1.174477E+04  8.448627E+02 -1.564880E+04
       401  21 -1.477082E+05 -8.351188E+04 -7.492601E+04 -2.208190E+04 -5.508654E+03 -1.570186E+04
       401  22  1.912495E+05  5.925106E+03  7.270585E+03 -2.119914E+04 -4.983076E+03 -5.061582E+03
       401  23  1.903178E+05 -3.450994E+02  3.259277E+03 -1.253104E+04 -3.242043E+03 -1.564881E+04
       401  24  1.912574E+05 -3.413447E+02  1.963629E+03 -2.119778E+04 -1.504366E+03 -1.570123E+04
       401  25  6.027884E+05  1.082543E+05  1.075777E+05 -2.365681E+04 -1.716898E+04 -5.065008E+03
       401  26  5.649210E+05  9.169954E+04  8.904505E+04 -1.331778E+04 -7.331394E+03 -1.564881E+04
       401  27  5.303298E+05  8.282128E+04  7.884591E+04 -2.031317E+04  2.502089E+03 -1.570059E+04
       402   1 -1.150165E+05 -7.473340E+04 -6.816531E+04 -2.111919E+04  1.994984E+03  1.346385E+04
       402   2 -7.910410E+04 -6.629071E+04 -6.052493E+04 -1.237183E+04  1.947895E+03  1.220276E+04
       402   3 -4.305688E+04 -5.745921E+04 -5.274995E+04 -2.129503E+04  1.900074E+03  1.044826E+04
       402   4  1.908907E+05  3.948641E+02  1.577289E+03 -2.127258E+04  1.216466E+03  1.346344E+04
       402   5  1.907940E+05 -3.983150E+01  8.446521E+02 -1.243756E+04  7.902879E+02  1.220258E+04
       402   6  1.908961E+05 -2.006930E+01  5.096736E+02 -2.127263E+04  3.633750E+02  1.044841E+04
       402   7  4.968847E+05  7.551665E+04  7.131379E+04 -2.142604E+04  4.375665E+02  1.346302E+04
       402   8  4.607597E+05  6.620601E+04  6.220952E+04 -1.250332E+04 -3.678185E+02  1.220240E+04
       402   9  4.248998E+05  5.741528E+04  5.376575E+04 -2.125022E+04 -1.173898E+03  1.044856E+04
       402  10 -1.150166E+05 -7.473360E+04 -6.816566E+04 -2.111922E+04 -2.401003E-10  3.878785E-11
       402  11 -7.910414E+04 -6.629087E+04 -6.052522E+04 -1.237185E+04  5.186166E-11  1.283122E-10
       402  12 -4.305691E+04 -5.745933E+04 -5.275016E+04 -2.129505E+04  9.298351E-11  1.453245E-10
       402  13  1.908907E+05  3.946691E+02  1.576946E+03 -2.127259E+04 -2.602504E-11  2.278702E-11
       402  14  1.907940E+05 -3.999158E+01  8.443710E+02 -1.243757E+04  3.751150E-11 -1.179482E-10
       402  15  1.908961E+05 -2.018657E+01  5.094682E+02 -2.127264E+04  2.706316E-10  3.639039E-11
       402  16  4.968847E+05  7.551645E+04  7.131345E+04 -2.142604E+04  3.188938E-11 -2.166133E-11
       402  17  4.607597E+05  6.620585E+04  6.220924E+04 -1.250332E+04 -7.065304E-11  2.407445E-12
       402  18  4.248998E+05  5.741516E+04  5.376554E+04 -2.125021E+04 -2.235774E-11 -9.888839E-11
       402  19 -1.150165E+05 -7.473340E+04 -6.816531E+04 -2.111919E+04 -1.994984E+03 -1.346385E+04
       402  20 -7.910410E+04 -6.629071E+04 -6.052493E+04 -1.237183E+04 -1.947895E+03 -1.220276E+04
       402  21 -4.305688E+04 -5.745921E+04 -5.274995E+04 -2.129503E+04 -1.900074E+03 -1.044826E+04
       402  22  1.908907E+05  3.948641E+02  1.577289E+03 -2.127258E+04 -1.216466E+03 -1.346344E+04
       402  23  1.907940E+05 -3.983150E+01  8.446521E+02 -1.243756E+04 -7.902879E+02 -1.220258E+04
       402  24  1.908961E+05 -2.006930E+01  5.096736E+02 -2.127263E+04 -3.633750E+02 -1.044841E+04
       402  25  4.968847E+05  7.551665E+04  7.131379E+04 -2.142604E+04 -4.375665E+02 -1.346302E+04
       402  26  4.607597E+05  6.620601E+04  6.220952E+04 -1.250332E+04  3.678185E+02 -1.220240E+04
       402  27  4.248998E+05  5.741528E+04  5.376575E+04 -2.125022E+04  1.173898E+03 -1.044856E+04
       403   1 -1.030533E+04 -4.932465E+04 -4.522191E+04 -2.121804E+04  1.666516E+03  9.321557E+03
       403   2  2.557279E+04 -4.056411E+04 -3.729856E+04 -1.240044E+04  1.553274E+03  7.508221E+03
       403   3  6.147505E+04 -3.176127E+04 -2.929156E+04 -2.122598E+04  1.439567E+03  5.672793E+03
       403   4  1.908611E+05  3.016123E+01  4.040304E+02 -2.126656E+04  2.824098E+02  9.321799E+03
       403   5  1.908498E+05 -3.984016E-01  2.615873E+02 -1.244514E+04  1.521288E+02  7.508623E+03
       403   6  1.908643E+05  1.436599E+01  2.146688E+02 -2.126656E+04  2.138823E+01  5.673362E+03
       403   7  3.920651E+05  4.938218E+04  4.602736E+04 -2.131508E+04 -1.102140E+03  9.322042E+03
       403   8  3.561521E+05  4.056142E+04  3.781998E+04 -1.248984E+04 -1.249386E+03  7.509026E+03
       403   9  3.202692E+05  3.178884E+04  2.971982E+04 -2.130716E+04 -1.397084E+03  5.673931E+03
       403  10 -1.030536E+04 -4.932474E+04 -4.522207E+04 -2.121805E+04  7.419665E-11  2.820988E-11
       403  11  2.557278E+04 -4.056417E+04 -3.729867E+04 -1.240045E+04  1.355829E-10 -1.391344E-11
       403  12  6.147504E+04 -3.176131E+04 -2.929163E+04 -2.122598E+04  1.604354E-10 -2.875795E-10
       403  13  1.908611E+05  3.006789E+01  4.038669E+02 -2.126656E+04  1.409609E-10 -8.983346E-12
       403  14  1.908498E+05 -4.589549E-01  2.614813E+02 -1.244514E+04 -2.320648E-11  2.442392E-10
       403  15  1.908643E+05  1.433142E+01  2.146083E+02 -2.126656E+04 -5.090895E-11  2.916014E-10
       403  16  3.920651E+05  4.938209E+04  4.602719E+04 -2.131508E+04 -1.838432E-10  2.711311E-11
       403  17  3.561521E+05  4.056136E+04  3.781987E+04 -1.248983E+04 -1.522319E-11 -3.663018E-11
       403  18  3.202692E+05  3.178881E+04  2.971975E+04 -2.130715E+04 -7.595964E-12 -1.428854E-10
       403  19 -1.030533E+04 -4.932465E+04 -4.522191E+04 -2.121804E+04 -1.666516E+03 -9.321557E+03
       403  20  2.557279E+04 -4.056411E+04 -3.729856E+04 -1.240044E+04 -1.553274E+03 -7.508221E+03
       403  21  6.147505E+04 -3.176127E+04 -2.929156E+04 -2.122598E+04 -1.439567E+03 -5.672793E+03
       403  22  1.908611E+05  3.016123E+01  4.040304E+02 -2.126656E+04 -2.824098E+02 -9.321799E+03
       403  23  1.908498E+05 -3.984016E-01  2.615873E+02 -1.244514E+04 -1.521288E+02 -7.508623E+03
       403  24  1.908643E+05  1.436599E+01  2.146688E+02 -2.126656E+04 -2.138823E+01 -5.673362E+03
       403  25  3.920651E+05  4.938218E+04  4.602736E+04 -2.131508E+04  1.102140E+03 -9.322042E+03
       403  26  3.561521E+05  4.056142E+04  3.781998E+04 -1.248984E+04  1.249386E+03 -7.509026E+03
       403  27  3.202692E+05  3.178884E+04  2.971982E+04 -2.130716E+04  1.397084E+03 -5.673931E+03
       404   1  9.419136E+04 -2.368591E+04 -2.164846E+04 -2.122617E+04  1.392541E+03  4.600185E+03
       404   2  1.300360E+05 -1.491841E+04 -1.355472E+04 -1.242260E+04  1.260532E+03  2.763528E+03
       404   3  1.658847E+05 -6.130324E+03 -5.374479E+03 -2.123962E+04  1.128349E+03  9.262549E+02
       404   4  1.908611E+05  1.772373E+01  2.148124E+02 -2.126159E+04 -1.801248E+01  4.600820E+03
       404   5  1.908600E+05  8.517650E+00  2.665147E+02 -1.245135E+04 -1.505339E+02  2.764219E+03
       404   6  1.908623E+05  2.018866E+01  4.052697E+02 -2.126159E+04 -2.832205E+02  9.270061E+02
       404   7  2.875396E+05  2.372072E+04  2.207749E+04 -2.129701E+04 -1.428784E+03  4.601455E+03
       404   8  2.516874E+05  1.493519E+04  1.408752E+04 -1.248010E+04 -1.561736E+03  2.764909E+03
       404   9  2.158405E+05  6.170659E+03  6.184984E+03 -2.128356E+04 -1.694846E+03  9.277575E+02
       404  10  9.419135E+04 -2.368594E+04 -2.164850E+04 -2.122617E+04  1.465517E-10 -7.820027E-11
       404  11  1.300360E+05 -1.491841E+04 -1.355474E+04 -1.242261E+04  1.812884E-10  3.178702E-11
       404  12  1.658847E+05 -6.130325E+03 -5.374483E+03 -2.123962E+04  2.475101E-10 -9.251899E-11
       404  13  1.908611E+05  1.770100E+01  2.147727E+02 -2.126159E+04  1.710861E-10 -3.887409E-10
       404  14  1.908600E+05  8.509438E+00  2.665003E+02 -1.245135E+04  9.237442E-11  1.120601E-10
       404  15  1.908623E+05  2.018771E+01  4.052679E+02 -2.126159E+04 -2.191214E-12 -2.125055E-10
       404  16  2.875396E+05  2.372070E+04  2.207745E+04 -2.129701E+04 -2.842063E-10 -5.436027E-11
       404  17  2.516874E+05  1.493518E+04  1.408750E+04 -1.248010E+04 -3.179535E-10 -1.232863E-10
       404  18  2.158405E+05  6.170657E+03  6.184977E+03 -2.128356E+04 -3.048991E-10 -3.555075E-10
       404  19  9.419136E+04 -2.368591E+04 -2.164846E+04 -2.122617E+04 -1.392541E+03 -4.600185E+03
       404  20  1.300360E+05 -1.491841E+04 -1.355472E+04 -1.242260E+04 -1.260532E+03 -2.763528E+03
       404  21  1.658847E+05 -6.130324E+03 -5.374479E+03 -2.123962E+04 -1.128349E+03 -9.262549E+02
       404  22  1.908611E+05  1.772373E+01  2.148124E+02 -2.126159E+04  1.801248E+01 -4.600820E+03
       404  23  1.908600E+05  8.517650E+00  2.665147E+02 -1.245135E+04  1.505339E+02 -2.764219E+03
       404  24  1.908623E+05  2.018866E+01  4.052697E+02 -2.126159E+04  2.832205E+02 -9.270061E+02
       404  25  2.875396E+05  2.372072E+04  2.207749E+04 -2.129701E+04  1.428784E+03 -4.601455E+03
       404  26  2.516874E+05  1.493519E+04  1.408752E+04 -1.248010E+04  1.561736E+03 -2.764909E+03
       404  27  2.158405E+05  6.170659E+03  6.184984E+03 -2.128356E+04  1.694846E+03 -9.277575E+02
       405   1  1.985956E+05  1.934755E+03  2.376475E+03 -2.124697E+04  1.044083E+03 -1.432016E+02
       405   2  2.344155E+05  1.069265E+04  1.077319E+04 -1.243950E+04  6.103200E+02 -1.980115E+03
       405   3  2.702867E+05  1.950459E+04  1.946100E+04 -2.125089E+04  1.766451E+02 -3.816328E+03
       405   4  1.908727E+05  1.872527E+01  5.174844E+02 -2.126125E+04 -3.674598E+02 -1.424451E+02
       405   5  1.908475E+05  1.263005E+00  8.737048E+02 -1.245178E+04 -8.007027E+02 -1.979403E+03
       405   6  1.908718E+05  3.770139E+01  1.520592E+03 -2.126123E+04 -1.233833E+03 -3.815655E+03
       405   7  1.831498E+05 -1.897307E+03 -1.341503E+03 -2.127552E+04 -1.778985E+03 -1.416885E+02
       405   8  1.472812E+05 -1.069026E+04 -9.025898E+03 -1.246405E+04 -2.211627E+03 -1.978691E+03
       405   9  1.114627E+05 -1.942962E+04 -1.642021E+04 -2.127158E+04 -2.644132E+03 -3.814982E+03
       405  10  1.985956E+05  1.934754E+03  2.376473E+03 -2.124697E+04 -1.512833E-10  3.178804E-10
       405  11  2.344155E+05  1.069265E+04  1.077318E+04 -1.243950E+04  2.253830E-10  6.614848E-10
       405  12  2.702867E+05  1.950458E+04  1.946097E+04 -2.125089E+04  8.480864E-10 -8.377956E-10
       405  13  1.908727E+05  1.872521E+01  5.174841E+02 -2.126125E+04 -1.304080E-10  5.154936E-11
       405  14  1.908475E+05  1.258625E+00  8.736963E+02 -1.245178E+04  4.622395E-11 -3.402616E-10
       405  15  1.908718E+05  3.768534E+01  1.520562E+03 -2.126124E+04 -6.629930E-11 -3.535336E-10
       405  16  1.831498E+05 -1.897308E+03 -1.341509E+03 -2.127552E+04 -7.029454E-11  3.857771E-11
       405  17  1.472812E+05 -1.069026E+04 -9.025914E+03 -1.246405E+04 -5.981312E-10 -2.726080E-10
       405  18  1.114627E+05 -1.942964E+04 -1.642025E+04 -2.127159E+04 -9.891295E-10 -3.382545E-10
       405  19  1.985956E+05  1.934755E+03  2.376475E+03 -2.124697E+04 -1.044083E+03  1.432016E+02
       405  20  2.344155E+05  1.069265E+04  1.077319E+04 -1.243950E+04 -6.103200E+02  1.980115E+03
       405  21  2.702867E+05  1.950459E+04  1.946100E+04 -2.125089E+04 -1.766451E+02  3.816328E+03
       405  22  1.908727E+05  1.872527E+01  5.174844E+02 -2.126125E+04  3.674598E+02  1.424451E+02
       405  23  1.908475E+05  1.263005E+00  8.737048E+02 -1.245178E+04  8.007027E+02  1.979403E+03
       405  24  1.908718E+05  3.770139E+01  1.520592E+03 -2.126123E+04  1.233833E+03  3.815655E+03
       405  25  1.831498E+05 -1.897307E+03 -1.341503E+03 -2.127552E+04  1.778985E+03  1.416885E+02
       405  26  1.472812E+05 -1.069026E+04 -9.025898E+03 -1.246405E+04  2.211627E+03  1.978691E+03
       405  27  1.114627E+05 -1.942962E+04 -1.642021E+04 -2.127158E+04  2.644132E+03  3.814982E+03
       406   1  3.030719E+05  2.752405E+04  2.757674E+04 -2.118214E+04 -1.331056E+02 -4.888387E+03
       406   2  3.387808E+05  3.626766E+04  3.708857E+04 -1.243184E+04 -1.868461E+03 -6.722587E+03
       406   3  3.748454E+05  4.555105E+04  4.786289E+04 -2.131895E+04 -3.603507E+03 -8.535612E+03
       406   4  1.909374E+05 -1.272037E+01  1.995282E+03 -2.126546E+04 -1.550859E+03 -4.887769E+03
       406   5  1.907600E+05 -5.398738E+01  3.456311E+03 -1.244653E+04 -3.269609E+03 -6.722120E+03
       406   6  1.909343E+05  4.418409E+02  6.168614E+03 -2.126527E+04 -4.987951E+03 -8.535288E+03
       406   7  7.881464E+04 -2.755036E+04 -2.358699E+04 -2.134877E+04 -2.968359E+03 -4.887151E+03
       406   8  4.275950E+04 -3.637715E+04 -3.017736E+04 -1.246121E+04 -4.670426E+03 -6.721653E+03
       406   9  7.054554E+03 -4.466969E+04 -3.552784E+04 -2.121159E+04 -6.371989E+03 -8.534965E+03
       406  10  3.030719E+05  2.752403E+04  2.757670E+04 -2.118214E+04 -9.662591E-10 -9.547856E-10
       406  11  3.387808E+05  3.626761E+04  3.708848E+04 -1.243185E+04  3.140173E-09  4.844086E-11
       406  12  3.748454E+05  4.555097E+04  4.786273E+04 -2.131898E+04  5.706967E-09  8.656008E-10
       406  13  1.909374E+05 -1.274667E+01  1.995232E+03 -2.126547E+04 -3.035421E-10 -4.286895E-10
       406  14  1.907600E+05 -5.403878E+01  3.456206E+03 -1.244654E+04  6.988862E-11 -2.296619E-10
       406  15  1.909343E+05  4.417560E+02  6.168430E+03 -2.126530E+04  2.556579E-11  6.965721E-10
       406  16  7.881463E+04 -2.755039E+04 -2.358706E+04 -2.134878E+04  7.926048E-10 -3.880966E-10
       406  17  4.275947E+04 -3.637720E+04 -3.017749E+04 -1.246123E+04 -3.502003E-09  4.069081E-10
       406  18  7.054491E+03 -4.466978E+04 -3.552805E+04 -2.121163E+04 -5.567304E-09  9.553025E-10
       406  19  3.030719E+05  2.752405E+04  2.757674E+04 -2.118214E+04  1.331056E+02  4.888387E+03
       406  20  3.387808E+05  3.626766E+04  3.708857E+04 -1.243184E+04  1.868461E+03  6.722587E+03
       406  21  3.748454E+05  4.555105E+04  4.786289E+04 -2.131895E+04  3.603507E+03  8.535612E+03
       406  22  1.909374E+05 -1.272037E+01  1.995282E+03 -2.126546E+04  1.550859E+03  4.887769E+03
       406  23  1.907600E+05 -5.398738E+01  3.456311E+03 -1.244653E+04  3.269609E+03  6.722120E+03
       406  24  1.909343E+05  4.418409E+02  6.168614E+03 -2.126527E+04  4.987951E+03  8.535288E+03
       406  25  7.881464E+04 -2.755036E+04 -2.358699E+04 -2.134877E+04  2.968359E+03  4.887151E+03
       406  26  4.275950E+04 -3.637715E+04 -3.017736E+04 -1.246121E+04  4.670426E+03  6.721653E+03
       406  27  7.054554E+03 -4.466969E+04 -3.552784E+04 -2.121159E+04  6.371989E+03  8.534965E+03
       407   1  4.081650E+05  5.280411E+04  5.733612E+04 -2.013292E+04 -4.705346E+03 -9.659274E+03
       407   2  4.427237E+05  6.151831E+04  7.121396E+04 -1.305122E+04 -1.203091E+04 -1.141489E+04
       407   3  4.801099E+05  7.763663E+04  9.171432E+04 -2.363102E+04 -1.935613E+04 -1.269828E+04
       407   4  1.914675E+05 -3.846264E+02  8.011195E+03 -2.127114E+04 -6.235913E+03 -9.659017E+03
       407   5  1.900820E+05 -4.776520E+02  1.378570E+04 -1.243955E+04 -1.319608E+04 -1.141498E+04
       407   6  1.914614E+05  6.772084E+03  2.593129E+04 -2.126984E+04 -2.015548E+04 -1.269867E+04
       407   7 -2.518642E+04 -5.357660E+04 -4.131677E+04 -2.240895E+04 -7.765950E+03 -9.658755E+03
       407   8 -6.250046E+04 -6.247802E+04 -4.364670E+04 -1.182813E+04 -1.436077E+04 -1.141508E+04
       407   9 -9.710983E+04 -6.409821E+04 -3.985717E+04 -1.890976E+04 -2.095446E+04 -1.269907E+04
       407  10  4.081649E+05  5.280400E+04  5.733590E+04 -2.013296E+04 -5.771938E-09  9.873407E-10
       407  11  4.427235E+05  6.151813E+04  7.121345E+04 -1.305133E+04 -2.766794E-09 -2.850690E-10
       407  12  4.801094E+05  7.763636E+04  9.171332E+04 -2.363122E+04  8.071266E-10 -4.143253E-10
       407  13  1.914674E+05 -3.847370E+02  8.010947E+03 -2.127119E+04 -3.385400E-12  9.706630E-10
       407  14  1.900818E+05 -4.778386E+02  1.378512E+04 -1.243967E+04 -1.545269E-10  1.425798E-10
       407  15  1.914609E+05  6.771802E+03  2.593022E+04 -2.127005E+04 -1.924579E-10 -4.168184E-10
       407  16 -2.518651E+04 -5.357672E+04 -4.131706E+04 -2.240901E+04  5.553666E-09  1.035204E-09
       407  17 -6.250072E+04 -6.247822E+04 -4.364734E+04 -1.182826E+04  2.885419E-09  1.037630E-10
       407  18 -9.711034E+04 -6.409850E+04 -3.985830E+04 -1.890998E+04 -8.743484E-10 -2.627244E-10
       407  19  4.081650E+05  5.280411E+04  5.733612E+04 -2.013292E+04  4.705346E+03  9.659274E+03
       407  20  4.427237E+05  6.151831E+04  7.121396E+04 -1.305122E+04  1.203091E+04  1.141489E+04
       407  21  4.801099E+05  7.763663E+04  9.171432E+04 -2.363102E+04  1.935613E+04  1.269828E+04
       407  22  1.914675E+05 -3.846264E+02  8.011195E+03 -2.127114E+04  6.235913E+03  9.659017E+03
       407  23  1.900820E+05 -4.776520E+02  1.378570E+04 -1.243955E+04  1.319608E+04  1.141498E+04
       407  24  1.914614E+05  6.772084E+03  2.593129E+04 -2.126984E+04  2.015548E+04  1.269867E+04
       407  25 -2.518642E+04 -5.357660E+04 -4.131677E+04 -2.240895E+04  7.765950E+03  9.658755E+03
       407  26 -6.250046E+04 -6.247802E+04 -4.364670E+04 -1.182813E+04  1.436077E+04  1.141508E+04
       407  27 -9.710983E+04 -6.409821E+04 -3.985717E+04 -1.890976E+04  2.095446E+04  1.269907E+04
       408   1  5.191160E+05  7.356336E+04  1.052580E+05 -6.692758E+03 -2.098801E+04 -1.488871E+04
       408   2  5.398480E+05  8.261932E+04  1.357367E+05 -2.626198E+04 -5.751089E+04 -1.491654E+04
       408   3  5.915128E+05  1.961534E+05  2.161138E+05 -6.319387E+04 -9.403926E+04 -4.847546E+03
       408   4  1.974216E+05 -5.337047E+03  3.231402E+04 -2.119985E+04 -2.488053E+04 -1.488858E+04
       408   5  1.826147E+05 -5.157233E+03  5.392428E+04 -1.252761E+04 -5.363130E+04 -1.491802E+04
       408   6  1.974066E+05  9.818146E+04  1.200552E+05 -2.121573E+04 -8.238480E+04 -4.851356E+03
       408   7 -1.241762E+05 -8.424378E+04 -4.063647E+04 -3.569935E+04 -2.877104E+04 -1.488827E+04
       408   8 -1.745001E+05 -9.294195E+04 -2.789640E+04  1.198795E+03 -4.975391E+04 -1.491932E+04
       408   9 -1.965540E+05  2.048079E+02  2.398680E+04  2.073571E+04 -7.073771E+04 -4.853594E+03
       408  10  5.191154E+05  7.356300E+04  1.052568E+05 -6.693010E+03 -3.278184E-10 -2.918917E-10
       408  11  5.398444E+05  8.261820E+04  1.357301E+05 -2.626267E+04 -7.454461E-11 -5.342167E-11
       408  12  5.915033E+05  1.961510E+05  2.160972E+05 -6.319424E+04 -1.961912E-10 -4.018838E-11
       408  13  1.974209E+05 -5.337451E+03  3.231245E+04 -2.120015E+04 -6.901433E-11 -3.963322E-10
       408  14  1.826115E+05 -5.158244E+03  5.391846E+04 -1.252825E+04 -4.878953E-12  9.873812E-11
       408  15  1.973993E+05  9.817962E+04  1.200424E+05 -2.121606E+04 -1.798845E-10 -1.318903E-11
       408  16 -1.241771E+05 -8.424424E+04 -4.063845E+04 -3.569970E+04  3.297695E-11 -3.140962E-10
       408  17 -1.745028E+05 -9.294285E+04 -2.790147E+04  1.198197E+03  9.254127E-11 -5.867700E-11
       408  18 -1.965594E+05  2.034389E+02  2.397735E+04  2.073543E+04 -4.739439E-11 -1.232016E-10
       408  19  5.191160E+05  7.356336E+04  1.052580E+05 -6.692758E+03  2.098801E+04  1.488871E+04
       408  20  5.398480E+05  8.261932E+04  1.357367E+05 -2.626198E+04  5.751089E+04  1.491654E+04
       408  21  5.915128E+05  1.961534E+05  2.161138E+05 -6.319387E+04  9.403926E+04  4.847546E+03
       408  22  1.974216E+05 -5.337047E+03  3.231402E+04 -2.119985E+04  2.488053E+04  1.488858E+04
       408  23  1.826147E+05 -5.157233E+03  5.392428E+04 -1.252761E+04  5.363130E+04  1.491802E+04
       408  24  1.974066E+05  9.818146E+04  1.200552E+05 -2.121573E+04  8.238480E+04  4.851356E+03
       408  25 -1.241762E+05 -8.424378E+04 -4.063647E+04 -3.569935E+04  2.877104E+04  1.488827E+04
       408  26 -1.745001E+05 -9.294195E+04 -2.789640E+04  1.198795E+03  4.975391E+04  1.491932E+04
       408  27 -1.965540E+05  2.048079E+02  2.398680E+04  2.073571E+04  7.073771E+04  4.853594E+03
       409   1 -1.200658E+06 -1.571023E+05 -1.778493E+05 -5.693736E+04 -8.949090E+04  2.836130E+03
       409   2 -1.160589E+06 -4.639993E+04 -1.021821E+05 -2.262004E+04 -5.598140E+04  8.734055E+03
       409   3 -1.150980E+06 -4.011133E+04 -7.445900E+04 -2.233596E+02 -2.246882E+04  8.558823E+03
       409   4 -9.660156E+05 -9.862786E+04 -1.205373E+05 -1.474296E+04 -8.266161E+04  2.831785E+03
       409   5 -9.511691E+05  5.149140E+03 -5.413407E+04 -8.793135E+03 -5.380164E+04  8.733010E+03
       409   6 -9.659650E+05  5.337158E+03 -3.243088E+04 -1.476568E+04 -2.494021E+04  8.558925E+03
       409   7 -7.313190E+05 -4.015080E+04 -6.322815E+04  2.746745E+04 -7.582973E+04  2.828372E+03
       409   8 -7.417080E+05  5.669587E+04 -6.088848E+03  5.038479E+03 -5.162114E+04  8.732063E+03
       409   9 -7.809178E+05  5.078408E+04  9.595162E+03 -2.931238E+04 -2.741233E+04  8.559143E+03
       409  10 -1.200667E+06 -1.571044E+05 -1.778644E+05 -5.693716E+04 -1.679991E-10  5.333849E-11
       409  11 -1.160592E+06 -4.640086E+04 -1.021881E+05 -2.261965E+04  7.133357E-11 -2.681725E-10
       409  12 -1.150980E+06 -4.011155E+04 -7.446009E+04 -2.232046E+02 -2.399046E-10  2.592208E-11
       409  13 -9.660229E+05 -9.862971E+04 -1.205502E+05 -1.474277E+04 -5.883368E-11 -5.657404E-11
       409  14 -9.511722E+05  5.148280E+03 -5.413966E+04 -8.792756E+03  3.869376E-10 -4.176540E-10
       409  15 -9.659657E+05  5.336912E+03 -3.243219E+04 -1.476551E+04 -2.134166E-11  5.317900E-11
       409  16 -7.313251E+05 -4.015235E+04 -6.323899E+04  2.746762E+04 -2.284786E-12 -1.480044E-10
       409  17 -7.417109E+05  5.669507E+04 -6.094005E+03  5.038843E+03  3.330291E-10 -2.997494E-10
       409  18 -7.809186E+05  5.078380E+04  9.593610E+03 -2.931219E+04  3.485416E-10  4.534441E-11
       409  19 -1.200658E+06 -1.571023E+05 -1.778493E+05 -5.693736E+04  8.949090E+04 -2.836130E+03
       409  20 -1.160589E+06 -4.639993E+04 -1.021821E+05 -2.262004E+04  5.598140E+04 -8.734055E+03
       409  21 -1.150980E+06 -4.011133E+04 -7.445900E+04 -2.233596E+02  2.246882E+04 -8.558823E+03
       409  22 -9.660156E+05 -9.862786E+04 -1.205373E+05 -1.474296E+04  8.266161E+04 -2.831785E+03
       409  23 -9.511691E+05  5.149140E+03 -5.413407E+04 -8.793135E+03  5.380164E+04 -8.733010E+03
       409  24 -9.659650E+05  5.337158E+03 -3.243088E+04 -1.476568E+04  2.494021E+04 -8.558925E+03
       409  25 -7.313190E+05 -4.015080E+04 -6.322815E+04  2.746745E+04  7.582973E+04 -2.828372E+03
       409  26 -7.417080E+05  5.669587E+04 -6.088848E+03  5.038479E+03  5.162114E+04 -8.732063E+03
       409  27 -7.809178E+05  5.078408E+04  9.595162E+03 -2.931238E+04  2.741233E+04 -8.559143E+03
       410   1 -1.122102E+06 -4.668439E+04 -6.302951E+04 -1.720939E+04 -1.958390E+04  7.144977E+03
       410   2 -1.095588E+06 -3.319397E+04 -4.502266E+04 -9.260853E+03 -1.237885E+04  6.195525E+03
       410   3 -1.071856E+06 -2.711115E+04 -3.356251E+04 -1.365644E+04 -5.173791E+03  4.955653E+03
       410   4 -9.599948E+05 -6.824346E+03 -2.602775E+04 -1.485326E+04 -2.020440E+04  7.144735E+03
       410   5 -9.586191E+05  4.682065E+02 -1.383848E+04 -8.681350E+03 -1.322044E+04  6.195409E+03
       410   6 -9.599866E+05  3.927838E+02 -8.040715E+03 -1.485344E+04 -6.236763E+03  4.955652E+03
       410   7 -7.978635E+05  3.303389E+04  1.097230E+04 -1.249650E+04 -2.082507E+04  7.144488E+03
       410   8 -8.216329E+05  3.412908E+04  1.734448E+04 -8.101718E+03 -1.406222E+04  6.195291E+03
       410   9 -8.481052E+05  2.789586E+04  1.748026E+04 -1.605066E+04 -7.299925E+03  4.955656E+03
       410  10 -1.122102E+06 -4.668455E+04 -6.303033E+04 -1.720928E+04  9.951096E-11  1.404643E-10
       410  11 -1.095588E+06 -3.319405E+04 -4.502303E+04 -9.260791E+03 -2.045218E-10  1.709573E-10
       410  12 -1.071856E+06 -2.711119E+04 -3.356260E+04 -1.365642E+04  7.647790E-11  2.035880E-11
       410  13 -9.599953E+05 -6.824510E+03 -2.602861E+04 -1.485314E+04  1.681855E-10  1.151478E-10
       410  14 -9.586193E+05  4.681183E+02 -1.383889E+04 -8.681284E+03 -7.587841E-11  9.835438E-11
       410  15 -9.599867E+05  3.927470E+02 -8.040834E+03 -1.485342E+04  1.838295E-10 -1.076715E-10
       410  16 -7.978640E+05  3.303372E+04  1.097139E+04 -1.249638E+04 -2.238061E-10  1.704458E-10
       410  17 -8.216332E+05  3.412899E+04  1.734403E+04 -8.101648E+03  1.999100E-10 -7.079838E-11
       410  18 -8.481053E+05  2.789582E+04  1.748012E+04 -1.605063E+04  1.397670E-11 -2.053781E-11
       410  19 -1.122102E+06 -4.668439E+04 -6.302951E+04 -1.720939E+04  1.958390E+04 -7.144977E+03
       410  20 -1.095588E+06 -3.319397E+04 -4.502266E+04 -9.260853E+03  1.237885E+04 -6.195525E+03
       410  21 -1.071856E+06 -2.711115E+04 -3.356251E+04 -1.365644E+04  5.173791E+03 -4.955653E+03
       410  22 -9.599948E+05 -6.824346E+03 -2.602775E+04 -1.485326E+04  2.020440E+04 -7.144735E+03
       410  23 -9.586191E+05  4.682065E+02 -1.383848E+04 -8.681350E+03  1.322044E+04 -6.195409E+03
       410  24 -9.599866E+05  3.927838E+02 -8.040715E+03 -1.485344E+04  6.236763E+03 -4.955652E+03
       410  25 -7.978635E+05  3.303389E+04  1.097230E+04 -1.249650E+04  2.082507E+04 -7.144488E+03
       410  26 -8.216329E+05  3.412908E+04  1.734448E+04 -8.101718E+03  1.406222E+04 -6.195291E+03
       410  27 -8.481052E+05  2.789586E+04  1.748026E+04 -1.605066E+04  7.299925E+03 -4.955656E+03
       411   1 -1.048268E+06 -2.224918E+04 -2.633981E+04 -1.488122E+04 -4.007291E+03  4.170062E+03
       411   2 -1.022767E+06 -1.554100E+04 -1.792943E+04 -8.587699E+03 -2.265347E+03  2.887367E+03
       411   3 -9.976242E+05 -9.359464E+03 -1.078632E+04 -1.475192E+04 -5.234273E+02  1.588992E+03
       411   4 -9.594557E+05 -4.379325E+02 -6.196399E+03 -1.487867E+04 -4.985472E+03  4.170091E+03
       411   5 -9.592761E+05  6.071312E+01 -3.482556E+03 -8.649814E+03 -3.255348E+03  2.887438E+03
       411   6 -9.594536E+05  3.478622E+01 -2.027656E+03 -1.487862E+04 -1.525318E+03  1.589108E+03
       411   7 -8.706355E+05  2.137277E+04  1.394651E+04 -1.487613E+04 -5.963792E+03  4.170120E+03
       411   8 -8.957812E+05  1.566215E+04  1.096406E+04 -8.711936E+03 -4.245449E+03  2.887510E+03
       411   9 -9.212816E+05  9.428936E+03  6.730913E+03 -1.500533E+04 -2.527269E+03  1.589225E+03
       411  10 -1.048268E+06 -2.224920E+04 -2.633988E+04 -1.488120E+04 -4.447054E-10 -1.521393E-10
       411  11 -1.022767E+06 -1.554101E+04 -1.792946E+04 -8.587693E+03 -2.113458E-10 -1.025368E-10
       411  12 -9.976242E+05 -9.359467E+03 -1.078632E+04 -1.475192E+04  3.770227E-10 -8.459425E-11
       411  13 -9.594557E+05 -4.379578E+02 -6.196479E+03 -1.487866E+04 -8.435760E-12 -1.148835E-10
       411  14 -9.592761E+05  6.070132E+01 -3.482592E+03 -8.649806E+03 -3.561163E-10 -1.611296E-10
       411  15 -9.594536E+05  3.478288E+01 -2.027665E+03 -1.487862E+04 -1.292979E-11 -1.277677E-10
       411  16 -8.706356E+05  2.137274E+04  1.394641E+04 -1.487611E+04  2.779160E-10 -6.049613E-12
       411  17 -8.957813E+05  1.566213E+04  1.096401E+04 -8.711926E+03  6.995974E-11 -7.576579E-12
       411  18 -9.212816E+05  9.428931E+03  6.730896E+03 -1.500532E+04 -2.751749E-11  6.254910E-11
       411  19 -1.048268E+06 -2.224918E+04 -2.633981E+04 -1.488122E+04  4.007291E+03 -4.170062E+03
       411  20 -1.022767E+06 -1.554100E+04 -1.792943E+04 -8.587699E+03  2.265347E+03 -2.887367E+03
       411  21 -9.976242E+05 -9.359464E+03 -1.078632E+04 -1.475192E+04  5.234273E+02 -1.588992E+03
       411  22 -9.594557E+05 -4.379325E+02 -6.196399E+03 -1.487867E+04  4.985472E+03 -4.170091E+03
       411  23 -9.592761E+05  6.071312E+01 -3.482556E+03 -8.649814E+03  3.255348E+03 -2.887438E+03
       411  24 -9.594536E+05  3.478622E+01 -2.027656E+03 -1.487862E+04  1.525318E+03 -1.589108E+03
       411  25 -8.706355E+05  2.137277E+04  1.394651E+04 -1.487613E+04  5.963792E+03 -4.170120E+03
       411  26 -8.957812E+05  1.566215E+04  1.096406E+04 -8.711936E+03  4.245449E+03 -2.887510E+03
       411  27 -9.212816E+05  9.428936E+03  6.730913E+03 -1.500533E+04  2.527269E+03 -1.589225E+03
       412   1 -9.743892E+05 -3.687026E+03 -4.901005E+03 -1.484543E+04 -2.042085E+02  8.294903E+02
       412   2 -9.489759E+05  2.563623E+03  1.419343E+03 -8.617294E+03  2.615576E+02 -4.722789E+02
       412   3 -9.236350E+05  8.776993E+03  7.425981E+03 -1.487344E+04  7.273630E+02 -1.774252E+03
       412   4 -9.593902E+05 -1.613955E+01 -1.561909E+03 -1.488455E+04 -1.202681E+03  8.296180E+02
       412   5 -9.593536E+05  1.365263E+01 -9.417348E+02 -8.642402E+03 -7.370776E+02 -4.721594E+02
       412   6 -9.593901E+05  6.241044E+00 -6.351119E+02 -1.488454E+04 -2.714535E+02 -1.774138E+03
       412   7 -9.443909E+05  3.654732E+03  1.777177E+03 -1.492367E+04 -2.201178E+03  8.297458E+02
       412   8 -9.697312E+05 -2.536325E+03 -3.302816E+03 -8.667510E+03 -1.735696E+03 -4.720398E+02
       412   9 -9.951440E+05 -8.764598E+03 -8.696283E+03 -1.489565E+04 -1.270213E+03 -1.774024E+03
       412  10 -9.743892E+05 -3.687027E+03 -4.901006E+03 -1.484543E+04  1.526886E-10 -7.376298E-11
       412  11 -9.489759E+05  2.563623E+03  1.419343E+03 -8.617294E+03  4.124456E-10  1.289851E-10
       412  12 -9.236350E+05  8.776989E+03  7.425974E+03 -1.487343E+04  2.264377E-10  1.122498E-10
       412  13 -9.593902E+05 -1.614068E+01 -1.561913E+03 -1.488455E+04  3.466906E-10 -5.865994E-11
       412  14 -9.593536E+05  1.365224E+01 -9.417362E+02 -8.642402E+03 -1.470675E-10 -1.015013E-10
       412  15 -9.593901E+05  6.237645E+00 -6.351180E+02 -1.488455E+04 -1.586716E-10  3.918258E-11
       412  16 -9.443909E+05  3.654730E+03  1.777167E+03 -1.492367E+04 -5.263565E-10 -2.103751E-10
       412  17 -9.697312E+05 -2.536326E+03 -3.302822E+03 -8.667510E+03 -1.461711E-10 -1.569141E-10
       412  18 -9.951440E+05 -8.764602E+03 -8.696292E+03 -1.489566E+04 -3.672001E-10 -4.012524E-12
       412  19 -9.743892E+05 -3.687026E+03 -4.901005E+03 -1.484543E+04  2.042085E+02 -8.294903E+02
       412  20 -9.489759E+05  2.563623E+03  1.419343E+03 -8.617294E+03 -2.615576E+02  4.722789E+02
       412  21 -9.236350E+05  8.776993E+03  7.425981E+03 -1.487344E+04 -7.273630E+02  1.774252E+03
       412  22 -9.593902E+05 -1.613955E+01 -1.561909E+03 -1.488455E+04  1.202681E+03 -8.296180E+02
       412  23 -9.593536E+05  1.365263E+01 -9.417348E+02 -8.642402E+03  7.370776E+02  4.721594E+02
       412  24 -9.593901E+05  6.241044E+00 -6.351119E+02 -1.488454E+04  2.714535E+02  1.774138E+03
       412  25 -9.443909E+05  3.654732E+03  1.777177E+03 -1.492367E+04  2.201178E+03 -8.297458E+02
       412  26 -9.697312E+05 -2.536325E+03 -3.302816E+03 -8.667510E+03  1.735696E+03  4.720398E+02
       412  27 -9.951440E+05 -8.764598E+03 -8.696283E+03 -1.489565E+04  1.270213E+03  1.774024E+03
       413   1 -9.004737E+05  1.449458E+04  1.291667E+04 -1.487336E+04  8.342592E+02 -2.531749E+03
       413   2 -8.751743E+05  2.069221E+04  1.861694E+04 -8.661808E+03  1.096702E+03 -3.830338E+03
       413   3 -8.499108E+05  2.687427E+04  2.414246E+04 -1.488770E+04  1.359314E+03 -5.125079E+03
       413   4 -9.593825E+05  5.290894E+00 -5.599694E+02 -1.487416E+04 -1.634441E+02 -2.531656E+03
       413   5 -9.593648E+05  6.120478E+00 -5.370595E+02 -8.655386E+03  1.019109E+02 -3.830303E+03
       413   6 -9.593837E+05 -8.994492E+00 -6.908034E+02 -1.487416E+04  3.674253E+02 -5.125100E+03
       413   7 -1.018288E+06 -1.448424E+04 -1.403683E+04 -1.487496E+04 -1.161053E+03 -2.531563E+03
       413   8 -1.043549E+06 -2.068046E+04 -1.969151E+04 -8.648964E+03 -8.927459E+02 -3.830268E+03
       413   9 -1.068845E+06 -2.689309E+04 -2.552484E+04 -1.486062E+04 -6.242897E+02 -5.125121E+03
       413  10 -9.004737E+05  1.449458E+04  1.291665E+04 -1.487336E+04 -6.277613E-11 -3.438011E-11
       413  11 -8.751743E+05  2.069220E+04  1.861691E+04 -8.661805E+03 -4.028758E-10  9.292629E-11
       413  12 -8.499108E+05  2.687424E+04  2.414241E+04 -1.488770E+04 -5.217976E-11 -2.291149E-10
       413  13 -9.593825E+05  5.284008E+00 -5.599815E+02 -1.487416E+04  4.476722E-10  1.436522E-10
       413  14 -9.593648E+05  6.104728E+00 -5.370871E+02 -8.655385E+03  3.936862E-10  5.342947E-11
       413  15 -9.593837E+05 -9.022721E+00 -6.908529E+02 -1.487416E+04 -5.274553E-10 -1.236793E-10
       413  16 -1.018288E+06 -1.448425E+04 -1.403684E+04 -1.487496E+04  2.374674E-11  6.438263E-11
       413  17 -1.043549E+06 -2.068048E+04 -1.969154E+04 -8.648966E+03  4.518228E-10 -6.673904E-11
       413  18 -1.068845E+06 -2.689311E+04 -2.552489E+04 -1.486062E+04 -1.426808E-10  6.524810E-11
       413  19 -9.004737E+05  1.449458E+04  1.291667E+04 -1.487336E+04 -8.342592E+02  2.531749E+03
       413  20 -8.751743E+05  2.069221E+04  1.861694E+04 -8.661808E+03 -1.096702E+03  3.830338E+03
       413  21 -8.499108E+05  2.687427E+04  2.414246E+04 -1.488770E+04 -1.359314E+03  5.125079E+03
       413  22 -9.593825E+05  5.290894E+00 -5.599694E+02 -1.487416E+04  1.634441E+02  2.531656E+03
       413  23 -9.593648E+05  6.120478E+00 -5.370595E+02 -8.655386E+03 -1.019109E+02  3.830303E+03
       413  24 -9.593837E+05 -8.994492E+00 -6.908034E+02 -1.487416E+04 -3.674253E+02  5.125100E+03
       413  25 -1.018288E+06 -1.448424E+04 -1.403683E+04 -1.487496E+04  1.161053E+03  2.531563E+03
       413  26 -1.043549E+06 -2.068046E+04 -1.969151E+04 -8.648964E+03  8.927459E+02  3.830268E+03
       413  27 -1.068845E+06 -2.689309E+04 -2.552484E+04 -1.486062E+04  6.242897E+02  5.125121E+03
       414   1 -8.269322E+05  3.257340E+04  2.937214E+04 -1.489117E+04  1.499533E+03 -5.879265E+03
       414   2 -8.018363E+05  3.871595E+04  3.448224E+04 -8.702308E+03  2.152550E+03 -7.163287E+03
       414   3 -7.768587E+05  4.466387E+04  3.912123E+04 -1.482649E+04  2.805899E+03 -8.423312E+03
       414   4 -9.594041E+05  1.048768E+01 -8.390888E+02 -1.484654E+04  5.050809E+02 -5.879338E+03
       414   5 -9.593441E+05  1.685408E+01 -1.351538E+03 -8.689918E+03  1.176333E+03 -7.163466E+03
       414   6 -9.594067E+05 -1.746890E+02 -2.347932E+03 -1.484653E+04  1.847893E+03 -8.423593E+03
       414   7 -1.091860E+06 -3.255364E+04 -3.105146E+04 -1.480192E+04 -4.891608E+02 -5.879411E+03
       414   8 -1.116829E+06 -3.868396E+04 -3.718692E+04 -8.677531E+03  2.003618E+02 -7.163646E+03
       414   9 -1.141924E+06 -4.501555E+04 -4.381925E+04 -1.486657E+04  8.901653E+02 -8.423873E+03
       414  10 -8.269323E+05  3.257336E+04  2.937207E+04 -1.489116E+04  2.165997E-10 -1.403859E-10
       414  11 -8.018363E+05  3.871590E+04  3.448213E+04 -8.702296E+03 -1.476150E-10  7.652712E-11
       414  12 -7.768587E+05  4.466379E+04  3.912108E+04 -1.482647E+04  1.176837E-10 -1.551995E-10
       414  13 -9.594041E+05  1.045051E+01 -8.391542E+02 -1.484653E+04 -3.635172E-10  6.280385E-11
       414  14 -9.593441E+05  1.679863E+01 -1.351637E+03 -8.689911E+03 -5.400102E-10  1.769547E-10
       414  15 -9.594067E+05 -1.747661E+02 -2.348072E+03 -1.484652E+04  1.460713E-10 -2.028438E-10
       414  16 -1.091860E+06 -3.255368E+04 -3.105153E+04 -1.480192E+04  1.786209E-10  1.269278E-10
       414  17 -1.116829E+06 -3.868402E+04 -3.718702E+04 -8.677530E+03 -5.676613E-10  1.665351E-10
       414  18 -1.141924E+06 -4.501563E+04 -4.381939E+04 -1.486656E+04 -4.712116E-10 -6.400261E-11
       414  19 -8.269322E+05  3.257340E+04  2.937214E+04 -1.489117E+04 -1.499533E+03  5.879265E+03
       414  20 -8.018363E+05  3.871595E+04  3.448224E+04 -8.702308E+03 -2.152550E+03  7.163287E+03
       414  21 -7.768587E+05  4.466387E+04  3.912123E+04 -1.482649E+04 -2.805899E+03  8.423312E+03
       414  22 -9.594041E+05  1.048768E+01 -8.390888E+02 -1.484654E+04 -5.050809E+02  5.879338E+03
       414  23 -9.593441E+05  1.685408E+01 -1.351538E+03 -8.689918E+03 -1.176333E+03  7.163466E+03
       414  24 -9.594067E+05 -1.746890E+02 -2.347932E+03 -1.484653E+04 -1.847893E+03  8.423593E+03
       414  25 -1.091860E+06 -3.255364E+04 -3.105146E+04 -1.480192E+04  4.891608E+02  5.879411E+03
       414  26 -1.116829E+06 -3.868396E+04 -3.718692E+04 -8.677531E+03 -2.003618E+02  7.163646E+03
       414  27 -1.141924E+06 -4.501555E+04 -4.381925E+04 -1.486657E+04 -8.901653E+02  8.423873E+03
       415   1 -7.543422E+05  5.057958E+04  4.372760E+04 -1.522278E+04  3.393278E+03 -9.208716E+03
       415   2 -7.292244E+05  5.664529E+04  4.712191E+04 -8.485379E+03  5.712187E+03 -1.040605E+04
       415   3 -7.050518E+05  6.000129E+04  4.833522E+04 -1.385291E+04  8.031452E+03 -1.120520E+04
       415   4 -9.596034E+05  1.366921E+02 -3.031819E+03 -1.480052E+04  2.320916E+03 -9.209094E+03
       415   5 -9.591066E+05  1.617103E+02 -5.198720E+03 -8.747531E+03  4.944478E+03 -1.040651E+04
       415   6 -9.596089E+05 -2.576498E+03 -9.759029E+03 -1.479978E+04  7.568305E+03 -1.120569E+04
       415   7 -1.164826E+06 -5.030911E+04 -4.979398E+04 -1.437841E+04  1.248906E+03 -9.209473E+03
       415   8 -1.188940E+06 -5.632553E+04 -5.752279E+04 -9.009588E+03  4.177051E+03 -1.040698E+04
       415   9 -1.214106E+06 -6.515879E+04 -6.785751E+04 -1.574626E+04  7.105346E+03 -1.120618E+04
       415  10 -7.543422E+05  5.057948E+04  4.372742E+04 -1.522276E+04 -2.810412E-10 -1.037264E-10
       415  11 -7.292245E+05  5.664516E+04  4.712165E+04 -8.485331E+03 -2.524424E-10 -1.569761E-10
       415  12 -7.050519E+05  6.000114E+04  4.833486E+04 -1.385284E+04 -5.061698E-10  1.704893E-10
       415  13 -9.596035E+05  1.365996E+02 -3.031988E+03 -1.480051E+04 -1.008616E-10 -2.765714E-10
       415  14 -9.591067E+05  1.615875E+02 -5.198969E+03 -8.747490E+03 -2.968641E-10 -7.265583E-11
       415  15 -9.596090E+05 -2.576648E+03 -9.759372E+03 -1.479971E+04  8.007188E-11  2.388008E-10
       415  16 -1.164826E+06 -5.030921E+04 -4.979414E+04 -1.437840E+04 -2.586369E-10 -2.060167E-10
       415  17 -1.188940E+06 -5.632565E+04 -5.752302E+04 -9.009553E+03  2.054195E-10 -2.499148E-10
       415  18 -1.214106E+06 -6.515894E+04 -6.785784E+04 -1.574620E+04  3.780135E-10  5.633285E-10
       415  19 -7.543422E+05  5.057958E+04  4.372760E+04 -1.522278E+04 -3.393278E+03  9.208716E+03
       415  20 -7.292244E+05  5.664529E+04  4.712191E+04 -8.485379E+03 -5.712187E+03  1.040605E+04
       415  21 -7.050518E+05  6.000129E+04  4.833522E+04 -1.385291E+04 -8.031452E+03  1.120520E+04
       415  22 -9.596034E+05  1.366921E+02 -3.031819E+03 -1.480052E+04 -2.320916E+03  9.209094E+03
       415  23 -9.591066E+05  1.617103E+02 -5.198720E+03 -8.747531E+03 -4.944478E+03  1.040651E+04
       415  24 -9.596089E+05 -2.576498E+03 -9.759029E+03 -1.479978E+04 -7.568305E+03  1.120569E+04
       415  25 -1.164826E+06 -5.030911E+04 -4.979398E+04 -1.437841E+04 -1.248906E+03  9.209473E+03
       415  26 -1.188940E+06 -5.632553E+04 -5.752279E+04 -9.009588E+03 -4.177051E+03  1.040698E+04
       415  27 -1.214106E+06 -6.515879E+04 -6.785751E+04 -1.574626E+04 -7.105346E+03  1.120618E+04
       416   1 -6.848531E+05  6.999868E+04  5.072805E+04 -2.004578E+04  1.233653E+04 -1.284675E+04
       416   2 -6.557130E+05  7.587245E+04  4.863036E+04 -3.616904E+03  1.678875E+04 -1.259004E+04
       416   3 -6.365171E+05  4.405564E+04  3.422247E+04  1.299192E+03  2.123585E+04 -4.033123E+03
       416   4 -9.618433E+05  1.978880E+03 -1.215598E+04 -1.467459E+04  9.344158E+03 -1.284824E+04
       416   5 -9.563262E+05  1.905572E+03 -2.029203E+04 -8.907030E+03  2.016175E+04 -1.258885E+04
       416   6 -9.618655E+05 -3.697470E+04 -4.516785E+04 -1.465265E+04  3.097382E+04 -4.027602E+03
       416   7 -1.238762E+06 -6.604611E+04 -7.504493E+04 -9.305820E+03  6.353112E+03 -1.284978E+04
       416   8 -1.256856E+06 -7.206750E+04 -8.922032E+04 -1.419458E+04  2.353313E+04 -1.258771E+04
       416   9 -1.287117E+06 -1.180119E+05 -1.245654E+05 -3.059612E+04  4.070669E+04 -4.022581E+03
       416  10 -6.848533E+05  6.999846E+04  5.072745E+04 -2.004565E+04  1.535527E-10  3.889870E-10
       416  11 -6.557133E+05  7.587220E+04  4.862953E+04 -3.616734E+03 -7.386661E-11  3.165921E-10
       416  12 -6.365176E+05  4.405550E+04  3.422160E+04  1.299261E+03 -1.716786E-10  4.113591E-10
       416  13 -9.618434E+05  1.978680E+03 -1.215645E+04 -1.467449E+04  6.215207E-10 -2.400769E-10
       416  14 -9.563267E+05  1.905292E+03 -2.029310E+04 -8.906825E+03 -1.464413E-10  4.004016E-10
       416  15 -9.618666E+05 -3.697498E+04 -4.516969E+04 -1.465255E+04  8.036461E-11 -1.782594E-10
       416  16 -1.238762E+06 -6.604630E+04 -7.504531E+04 -9.305754E+03 -3.516196E-11  6.760800E-10
       416  17 -1.256856E+06 -7.206782E+04 -8.922166E+04 -1.419434E+04  4.211301E-10 -2.958599E-11
       416  18 -1.287118E+06 -1.180123E+05 -1.245685E+05 -3.059599E+04 -2.434649E-10  4.905444E-10
       416  19 -6.848531E+05  6.999868E+04  5.072805E+04 -2.004578E+04 -1.233653E+04  1.284675E+04
       416  20 -6.557130E+05  7.587245E+04  4.863036E+04 -3.616904E+03 -1.678875E+04  1.259004E+04
       416  21 -6.365171E+05  4.405564E+04  3.422247E+04  1.299192E+03 -2.123585E+04  4.033123E+03
       416  22 -9.618433E+05  1.978880E+03 -1.215598E+04 -1.467459E+04 -9.344158E+03  1.284824E+04
       416  23 -9.563262E+05  1.905572E+03 -2.029203E+04 -8.907030E+03 -2.016175E+04  1.258885E+04
       416  24 -9.618655E+05 -3.697470E+04 -4.516785E+04 -1.465265E+04 -3.097382E+04  4.027602E+03
       416  25 -1.238762E+06 -6.604611E+04 -7.504493E+04 -9.305820E+03 -6.353112E+03  1.284978E+04
       416  26 -1.256856E+06 -7.206750E+04 -8.922032E+04 -1.419458E+04 -2.353313E+04  1.258771E+04
       416  27 -1.287117E+06 -1.180119E+05 -1.245654E+05 -3.059612E+04 -4.070669E+04  4.022581E+03
       417   1  1.413956E+06  3.416046E+05  4.350984E+05  1.551990E+05  3.393994E+05  3.787447E+03
       417   2  1.391306E+06 -8.376402E+04  1.695668E+05  4.547223E+04  2.239409E+05  1.064553E+04
       417   3  1.492177E+06 -7.524679E+04  8.762160E+04 -8.320224E+04  1.084737E+05  9.947743E+03
       417   4  1.707062E+06  4.140644E+05  5.064458E+05 -2.212832E+04  3.478192E+05  3.695801E+03
       417   5  1.645005E+06 -2.157906E+04  2.276114E+05 -1.252638E+04  2.264621E+05  1.062566E+04
       417   6  1.707401E+06 -2.246663E+04  1.363854E+05 -2.187740E+04  1.051048E+05  9.956744E+03
       417   7  2.000313E+06  4.866358E+05  5.778042E+05 -1.995393E+05  3.562430E+05  3.599394E+03
       417   8  1.898771E+06  4.061408E+04  2.856536E+05 -7.054883E+04  2.289843E+05  1.060533E+04
       417   9  1.922675E+06  3.032445E+04  1.851483E+05  3.946885E+04  1.017347E+05  9.965079E+03
       417  10  1.413833E+06  3.415738E+05  4.348824E+05  1.551979E+05  3.031905E-10 -8.597587E-10
       417  11  1.391253E+06 -8.377757E+04  1.694726E+05  4.547031E+04  1.012698E-10 -2.573153E-11
       417  12  1.492164E+06 -7.525005E+04  8.759936E+04 -8.320311E+04 -2.169693E-09 -2.929732E-10
       417  13  1.706932E+06  4.140320E+05  5.062191E+05 -2.212935E+04  5.838547E-10  3.160382E-10
       417  14  1.644950E+06 -2.159290E+04  2.275151E+05 -1.252831E+04  4.046789E-10 -2.564683E-10
       417  15  1.707389E+06 -2.246969E+04  1.363645E+05 -2.187824E+04 -7.202172E-10 -2.052397E-10
       417  16  2.000177E+06  4.866019E+05  5.775664E+05 -1.995404E+05  1.352875E-10  1.999089E-10
       417  17  1.898715E+06  4.059993E+04  2.855551E+05 -7.055079E+04  1.338402E-09  1.224576E-11
       417  18  1.922664E+06  3.032158E+04  1.851287E+05  3.946803E+04  2.710656E-09  1.448403E-09
       417  19  1.413956E+06  3.416046E+05  4.350984E+05  1.551990E+05 -3.393994E+05 -3.787447E+03
       417  20  1.391306E+06 -8.376402E+04  1.695668E+05  4.547223E+04 -2.239409E+05 -1.064553E+04
       417  21  1.492177E+06 -7.524679E+04  8.762160E+04 -8.320224E+04 -1.084737E+05 -9.947743E+03
       417  22  1.707062E+06  4.140644E+05  5.064458E+05 -2.212832E+04 -3.478192E+05 -3.695801E+03
       417  23  1.645005E+06 -2.157906E+04  2.276114E+05 -1.252638E+04 -2.264621E+05 -1.062566E+04
       417  24  1.707401E+06 -2.246663E+04  1.363854E+05 -2.187740E+04 -1.051048E+05 -9.956744E+03
       417  25  2.000313E+06  4.866358E+05  5.778042E+05 -1.995393E+05 -3.562430E+05 -3.599394E+03
       417  26  1.898771E+06  4.061408E+04  2.856536E+05 -7.054883E+04 -2.289843E+05 -1.060533E+04
       417  27  1.922675E+06  3.032445E+04  1.851483E+05  3.946885E+04 -1.017347E+05 -9.965079E+03
       418   1  1.502023E+06 -1.561252E+04  6.845499E+04 -1.208314E+04  8.616304E+04  7.964322E+03
       418   2  1.534359E+06 -3.681453E+04  2.598979E+04 -1.015776E+04  5.701820E+04  6.421062E+03
       418   3  1.578214E+06 -2.718759E+04  1.018374E+04 -2.692114E+04  2.787233E+04  4.530057E+03
       418   4  1.682248E+06  2.856102E+04  1.094621E+05 -2.189368E+04  8.513467E+04  7.962404E+03
       418   5  1.676491E+06 -1.987008E+03  5.825689E+04 -1.254443E+04  5.571376E+04  6.420304E+03
       418   6  1.682295E+06 -1.663277E+03  3.389569E+04 -2.188311E+04  2.629356E+04  4.529804E+03
       418   7  1.862503E+06  7.273269E+04  1.504671E+05 -3.170709E+04  8.410601E+04  7.960519E+03
       418   8  1.818641E+06  3.283915E+04  9.052271E+04 -1.493165E+04  5.440903E+04  6.419556E+03
       418   9  1.786386E+06  2.386038E+04  5.760696E+04 -1.684423E+04  2.471453E+04  4.529526E+03
       418  10  1.502015E+06 -1.561458E+04  6.844095E+04 -1.208369E+04 -3.016555E-11  2.078629E-10
       418  11  1.534355E+06 -3.681545E+04  2.598361E+04 -1.015805E+04  5.065571E-10  3.554060E-10
       418  12  1.578214E+06 -2.718782E+04  1.018224E+04 -2.692124E+04 -3.331594E-10 -2.741804E-10
       418  13  1.682240E+06  2.855902E+04  1.094484E+05 -2.189423E+04  6.181962E-10  1.043750E-09
       418  14  1.676487E+06 -1.987883E+03  5.825100E+04 -1.254472E+04  8.037954E-10  3.628522E-10
       418  15  1.682295E+06 -1.663484E+03  3.389436E+04 -2.188320E+04 -6.391456E-10 -5.706740E-10
       418  16  1.862495E+06  7.273073E+04  1.504538E+05 -3.170763E+04 -1.805863E-10  8.378113E-10
       418  17  1.818638E+06  3.283831E+04  9.051708E+04 -1.493193E+04  4.514073E-10 -1.585247E-10
       418  18  1.786386E+06  2.386020E+04  5.760578E+04 -1.684432E+04  2.478673E-10 -1.876074E-10
       418  19  1.502023E+06 -1.561252E+04  6.845499E+04 -1.208314E+04 -8.616304E+04 -7.964322E+03
       418  20  1.534359E+06 -3.681453E+04  2.598979E+04 -1.015776E+04 -5.701820E+04 -6.421062E+03
       418  21  1.578214E+06 -2.718759E+04  1.018374E+04 -2.692114E+04 -2.787233E+04 -4.530057E+03
       418  22  1.682248E+06  2.856102E+04  1.094621E+05 -2.189368E+04 -8.513467E+04 -7.962404E+03
       418  23  1.676491E+06 -1.987008E+03  5.825689E+04 -1.254443E+04 -5.571376E+04 -6.420304E+03
       418  24  1.682295E+06 -1.663277E+03  3.389569E+04 -2.188311E+04 -2.629356E+04 -4.529804E+03
       418  25  1.862503E+06  7.273269E+04  1.504671E+05 -3.170709E+04 -8.410601E+04 -7.960519E+03
       418  26  1.818641E+06  3.283915E+04  9.052271E+04 -1.493165E+04 -5.440903E+04 -6.419556E+03
       418  27  1.786386E+06  2.386038E+04  5.760696E+04 -1.684423E+04 -2.471453E+04 -4.529526E+03
       419   1  1.610477E+06 -1.521026E+04  1.045709E+04 -2.184343E+04  2.247014E+04  3.361491E+03
       419   2  1.647485E+06 -8.056201E+03  7.542876E+03 -1.283351E+04  1.514260E+04  1.445491E+03
       419   3  1.686007E+06  1.287553E+03  9.940556E+03 -2.236472E+04  7.814733E+03 -4.856362E+02
       419   4  1.680061E+06  1.818253E+03  2.614294E+04 -2.185384E+04  2.100421E+04  3.361099E+03
       419   5  1.679308E+06 -2.591666E+02  1.476294E+04 -1.258310E+04  1.366419E+04  1.445131E+03
       419   6  1.680070E+06 -1.447699E+02  8.702929E+03 -2.185342E+04  6.324271E+03 -4.859638E+02
       419   7  1.749649E+06  1.884643E+04  4.182849E+04 -2.186425E+04  1.953812E+04  3.360706E+03
       419   8  1.711132E+06  7.537800E+03  2.198295E+04 -1.233268E+04  1.218570E+04  1.444770E+03
       419   9  1.674134E+06 -1.577093E+03  7.465309E+03 -2.134213E+04  4.833823E+03 -4.862939E+02
       419  10  1.610477E+06 -1.521041E+04  1.045612E+04 -2.184349E+04 -7.859453E-10 -4.740905E-10
       419  11  1.647485E+06 -8.056265E+03  7.542442E+03 -1.283353E+04 -1.675442E-09 -5.655422E-10
       419  12  1.686007E+06  1.287537E+03  9.940441E+03 -2.236472E+04 -4.202804E-10  7.752610E-11
       419  13  1.680060E+06  1.818123E+03  2.614209E+04 -2.185389E+04 -6.224419E-10 -2.777829E-10
       419  14  1.679308E+06 -2.592188E+02  1.476259E+04 -1.258312E+04 -1.420947E-10  8.164122E-11
       419  15  1.680070E+06 -1.447808E+02  8.702854E+03 -2.185342E+04 -1.085862E-09 -3.160595E-10
       419  16  1.749649E+06  1.884632E+04  4.182775E+04 -2.186430E+04 -1.192024E-10  3.854986E-11
       419  17  1.711132E+06  7.537758E+03  2.198267E+04 -1.233269E+04 -3.622740E-10 -1.430472E-10
       419  18  1.674133E+06 -1.577100E+03  7.465265E+03 -2.134213E+04 -3.272893E-11  2.561861E-10
       419  19  1.610477E+06 -1.521026E+04  1.045709E+04 -2.184343E+04 -2.247014E+04 -3.361491E+03
       419  20  1.647485E+06 -8.056201E+03  7.542876E+03 -1.283351E+04 -1.514260E+04 -1.445491E+03
       419  21  1.686007E+06  1.287553E+03  9.940556E+03 -2.236472E+04 -7.814733E+03  4.856362E+02
       419  22  1.680061E+06  1.818253E+03  2.614294E+04 -2.185384E+04 -2.100421E+04 -3.361099E+03
       419  23  1.679308E+06 -2.591666E+02  1.476294E+04 -1.258310E+04 -1.366419E+04 -1.445131E+03
       419  24  1.680070E+06 -1.447699E+02  8.702929E+03 -2.185342E+04 -6.324271E+03  4.859638E+02
       419  25  1.749649E+06  1.884643E+04  4.182849E+04 -2.186425E+04 -1.953812E+04 -3.360706E+03
       419  26  1.711132E+06  7.537800E+03  2.198295E+04 -1.233268E+04 -1.218570E+04 -1.444770E+03
       419  27  1.674134E+06 -1.577093E+03  7.465309E+03 -2.134213E+04 -4.833823E+03  4.862939E+02
       420   1  1.720140E+06  9.971622E+03  1.604557E+04 -2.201088E+04  6.414374E+03 -1.611892E+03
       420   2  1.757819E+06  1.909114E+04  2.205587E+04 -1.265150E+04  4.279756E+03 -3.546313E+03
       420   3  1.795833E+06  2.836613E+04  2.949567E+04 -2.187347E+04  2.145211E+03 -5.486509E+03
       420   4  1.679808E+06  6.896586E+01  6.788189E+03 -2.186258E+04  4.927909E+03 -1.612239E+03
       420   5  1.679641E+06 -6.122450E+01  4.322471E+03 -1.257183E+04  2.788914E+03 -3.546742E+03
       420   6  1.679808E+06 -3.525028E+01  3.289173E+03 -2.186257E+04  6.501207E+02 -5.487016E+03
       420   7  1.639476E+06 -9.833802E+03 -2.469287E+03 -2.171429E+04  3.441540E+03 -1.612586E+03
       420   8  1.601468E+06 -1.921401E+04 -1.341132E+04 -1.249217E+04  1.298258E+03 -3.547172E+03
       420   9  1.563794E+06 -2.843755E+04 -2.291818E+04 -2.185168E+04 -8.446939E+02 -5.487523E+03
       420  10  1.720140E+06  9.971609E+03  1.604548E+04 -2.201087E+04  6.213205E-11 -8.477573E-11
       420  11  1.757819E+06  1.909112E+04  2.205582E+04 -1.265149E+04 -2.145277E-10 -2.551705E-10
       420  12  1.795833E+06  2.836610E+04  2.949561E+04 -2.187346E+04 -1.158999E-09 -2.873890E-10
       420  13  1.679808E+06  6.895656E+01  6.788139E+03 -2.186257E+04  6.744019E-11 -3.754226E-11
       420  14  1.679641E+06 -6.124010E+01  4.322433E+03 -1.257182E+04 -5.189163E-10 -4.378260E-10
       420  15  1.679808E+06 -3.528275E+01  3.289115E+03 -2.186257E+04  3.314926E-10  2.212152E-10
       420  16  1.639476E+06 -9.833808E+03 -2.469314E+03 -2.171429E+04 -1.592441E-11  1.592765E-10
       420  17  1.601468E+06 -1.921402E+04 -1.341134E+04 -1.249217E+04 -1.619608E-10 -4.319262E-10
       420  18  1.563794E+06 -2.843758E+04 -2.291824E+04 -2.185169E+04  7.854409E-10  1.684123E-10
       420  19  1.720140E+06  9.971622E+03  1.604557E+04 -2.201088E+04 -6.414374E+03  1.611892E+03
       420  20  1.757819E+06  1.909114E+04  2.205587E+04 -1.265150E+04 -4.279756E+03  3.546313E+03
       420  21  1.795833E+06  2.836613E+04  2.949567E+04 -2.187347E+04 -2.145211E+03  5.486509E+03
       420  22  1.679808E+06  6.896586E+01  6.788189E+03 -2.186258E+04 -4.927909E+03  1.612239E+03
       420  23  1.679641E+06 -6.122450E+01  4.322471E+03 -1.257183E+04 -2.788914E+03  3.546742E+03
       420  24  1.679808E+06 -3.525028E+01  3.289173E+03 -2.186257E+04 -6.501207E+02  5.487016E+03
       420  25  1.639476E+06 -9.833802E+03 -2.469287E+03 -2.171429E+04 -3.441540E+03  1.612586E+03
       420  26  1.601468E+06 -1.921401E+04 -1.341132E+04 -1.249217E+04 -1.298258E+03  3.547172E+03
       420  27  1.563794E+06 -2.843755E+04 -2.291818E+04 -2.185168E+04  8.446939E+02  5.487523E+03
       421   1  1.830476E+06  3.690010E+04  3.745308E+04 -2.187196E+04  1.566038E+03 -6.619243E+03
       421   2  1.868648E+06  4.623728E+04  4.652627E+04 -1.238842E+04 -2.356572E+02 -8.575377E+03
       421   3  1.907122E+06  5.569004E+04  5.680687E+04 -2.172003E+04 -2.036906E+03 -1.054196E+04
       421   4  1.679798E+06 -3.354604E+01  3.167406E+03 -2.191458E+04  6.482604E+01 -6.619838E+03
       421   5  1.679645E+06 -6.226559E+01  3.656997E+03 -1.250683E+04 -1.744489E+03 -8.576168E+03
       421   6  1.679793E+06  2.607028E+01  5.359600E+03 -2.191460E+04 -3.553249E+03 -1.054294E+04
       421   7  1.529141E+06 -3.696875E+04 -3.111974E+04 -2.195719E+04 -1.436026E+03 -6.620432E+03
       421   8  1.490675E+06 -4.636427E+04 -3.921457E+04 -1.262521E+04 -3.252867E+03 -8.576959E+03
       421   9  1.452513E+06 -5.564145E+04 -4.609099E+04 -2.210909E+04 -5.069043E+03 -1.054392E+04
       421  10  1.830476E+06  3.690005E+04  3.745299E+04 -2.187195E+04 -9.431385E-10 -1.946739E-10
       421  11  1.868648E+06  4.623720E+04  4.652613E+04 -1.238842E+04  2.762269E-10  6.873026E-10
       421  12  1.907121E+06  5.568992E+04  5.680666E+04 -2.172005E+04 -4.423252E-10 -2.184933E-10
       421  13  1.679798E+06 -3.359313E+01  3.167323E+03 -2.191458E+04  1.078035E-09  1.088691E-09
       421  14  1.679645E+06 -6.234545E+01  3.656853E+03 -1.250684E+04  6.403166E-10  1.183773E-09
       421  15  1.679793E+06  2.594745E+01  5.359367E+03 -2.191463E+04 -1.437935E-10  2.736971E-10
       421  16  1.529141E+06 -3.696880E+04 -3.111982E+04 -2.195720E+04  1.049525E-09  7.112432E-10
       421  17  1.490675E+06 -4.636435E+04 -3.921473E+04 -1.262523E+04 -2.258947E-10  4.197295E-10
       421  18  1.452513E+06 -5.564158E+04 -4.609125E+04 -2.210913E+04 -3.853342E-10 -3.006374E-10
       421  19  1.830476E+06  3.690010E+04  3.745308E+04 -2.187196E+04 -1.566038E+03  6.619243E+03
       421  20  1.868648E+06  4.623728E+04  4.652627E+04 -1.238842E+04  2.356572E+02  8.575377E+03
       421  21  1.907122E+06  5.569004E+04  5.680687E+04 -2.172003E+04  2.036906E+03  1.054196E+04
       421  22  1.679798E+06 -3.354604E+01  3.167406E+03 -2.191458E+04 -6.482604E+01  6.619838E+03
       421  23  1.679645E+06 -6.226559E+01  3.656997E+03 -1.250683E+04  1.744489E+03  8.576168E+03
       421  24  1.679793E+06  2.607028E+01  5.359600E+03 -2.191460E+04  3.553249E+03  1.054294E+04
       421  25  1.529141E+06 -3.696875E+04 -3.111974E+04 -2.195719E+04  1.436026E+03  6.620432E+03
       421  26  1.490675E+06 -4.636427E+04 -3.921457E+04 -1.262521E+04  3.252867E+03  8.576959E+03
       421  27  1.452513E+06 -5.564145E+04 -4.609099E+04 -2.210909E+04  5.069043E+03  1.054392E+04
       422   1  1.942590E+06  6.421091E+04  6.642486E+04 -2.152305E+04 -3.108349E+03 -1.169852E+04
       422   2  1.981175E+06  7.369814E+04  7.971640E+04 -1.205343E+04 -8.721398E+03 -1.369340E+04
       422   3  2.020978E+06  8.483315E+04  9.708241E+04 -2.182905E+04 -1.433387E+04 -1.567533E+04
       422   4  1.679992E+06 -1.362174E+02  6.757173E+03 -2.200989E+04 -4.645283E+03 -1.169968E+04
       422   5  1.679378E+06 -2.279793E+02  1.126616E+04 -1.238746E+04 -1.024597E+04 -1.369486E+04
       422   6  1.679980E+06  1.326810E+03  1.984278E+04 -2.201084E+04 -1.584573E+04 -1.567709E+04
       422   7  1.417458E+06 -6.448809E+04 -5.291497E+04 -2.249653E+04 -6.181575E+03 -1.170083E+04
       422   8  1.377665E+06 -7.416036E+04 -5.718995E+04 -1.272135E+04 -1.176981E+04 -1.369632E+04
       422   9  1.339089E+06 -8.218751E+04 -5.740433E+04 -2.219255E+04 -1.735678E+04 -1.567885E+04
       422  10  1.942590E+06  6.421076E+04  6.642458E+04 -2.152308E+04 -1.291300E-09  5.191167E-10
       422  11  1.981175E+06  7.369791E+04  7.971590E+04 -1.205353E+04 -1.457501E-09 -8.407596E-10
       422  12  2.020978E+06  8.483283E+04  9.708157E+04 -2.182923E+04  3.780371E-10  2.702770E-10
       422  13  1.679992E+06 -1.363703E+02  6.756875E+03 -2.200994E+04 -4.378018E-10  2.180113E-10
       422  14  1.679378E+06 -2.282090E+02  1.126561E+04 -1.238758E+04 -1.010213E-09 -3.273691E-11
       422  15  1.679979E+06  1.326479E+03  1.984185E+04 -2.201104E+04 -1.383379E-10 -1.251712E-10
       422  16  1.417458E+06 -6.448825E+04 -5.291530E+04 -2.249659E+04  6.644120E-10 -7.260553E-10
       422  17  1.377665E+06 -7.416060E+04 -5.719056E+04 -1.272148E+04 -4.315423E-10 -1.489334E-11
       422  18  1.339088E+06 -8.218786E+04 -5.740536E+04 -2.219277E+04 -5.382865E-10  4.786847E-10
       422  19  1.942590E+06  6.421091E+04  6.642486E+04 -2.152305E+04  3.108349E+03  1.169852E+04
       422  20  1.981175E+06  7.369814E+04  7.971640E+04 -1.205343E+04  8.721398E+03  1.369340E+04
       422  21  2.020978E+06  8.483315E+04  9.708241E+04 -2.182905E+04  1.433387E+04  1.567533E+04
       422  22  1.679992E+06 -1.362174E+02  6.757173E+03 -2.200989E+04  4.645283E+03  1.169968E+04
       422  23  1.679378E+06 -2.279793E+02  1.126616E+04 -1.238746E+04  1.024597E+04  1.369486E+04
       422  24  1.679980E+06  1.326810E+03  1.984278E+04 -2.201084E+04  1.584573E+04  1.567709E+04
       422  25  1.417458E+06 -6.448809E+04 -5.291497E+04 -2.249653E+04  6.181575E+03  1.170083E+04
       422  26  1.377665E+06 -7.416036E+04 -5.718995E+04 -1.272135E+04  1.176981E+04  1.369632E+04
       422  27  1.339089E+06 -8.218751E+04 -5.740433E+04 -2.219255E+04  1.735678E+04  1.567885E+04
       423   1  2.058929E+06  9.112240E+04  1.113534E+05 -1.810090E+04 -1.811914E+04 -1.694007E+04
       423   2  2.094932E+06  1.007593E+05  1.388851E+05 -1.373247E+04 -4.091687E+04 -1.889831E+04
       423   3  2.139886E+06  1.338269E+05  1.871118E+05 -2.922217E+04 -6.371653E+04 -2.019495E+04
       423   4  1.681675E+06 -1.308987E+03  2.569987E+04 -2.213954E+04 -1.985776E+04 -1.694215E+04
       423   5  1.677221E+06 -1.557327E+03  4.411025E+04 -1.222242E+04 -4.213294E+04 -1.890055E+04
       423   6  1.681632E+06  2.154386E+04  8.286363E+04 -2.216388E+04 -6.440857E+04 -2.019756E+04
       423   7  1.304553E+06 -9.375011E+04 -5.996288E+04 -2.617573E+04 -2.159534E+04 -1.694421E+04
       423   8  1.259672E+06 -1.038859E+05 -5.067587E+04 -1.071343E+04 -4.334819E+04 -1.890281E+04
       423   9  1.223572E+06 -9.075348E+04 -2.139816E+04 -1.511088E+04 -6.510009E+04 -2.020019E+04
       423  10  2.058929E+06  9.112200E+04  1.113523E+05 -1.810115E+04 -5.551101E-10 -2.496745E-10
       423  11  2.094930E+06  1.007584E+05  1.388813E+05 -1.373309E+04  1.721957E-10 -1.192758E-09
       423  12  2.139881E+06  1.338254E+05  1.871035E+05 -2.922320E+04  2.738311E-10 -1.944149E-09
       423  13  1.681675E+06 -1.309401E+03  2.569859E+04 -2.213981E+04 -2.524575E-10 -1.040991E-10
       423  14  1.677219E+06 -1.558186E+03  4.410625E+04 -1.222306E+04 -1.377645E-11 -6.226874E-10
       423  15  1.681627E+06  2.154231E+04  8.285509E+04 -2.216492E+04 -1.997373E-10 -1.079931E-09
       423  16  1.304553E+06 -9.375054E+04 -5.996429E+04 -2.617602E+04  2.681973E-10 -6.995261E-11
       423  17  1.259670E+06 -1.038868E+05 -5.068006E+04 -1.071409E+04  1.424679E-09  2.594057E-09
       423  18  1.223568E+06 -9.075505E+04 -2.140687E+04 -1.511193E+04  2.331610E-10  1.070086E-10
       423  19  2.058929E+06  9.112240E+04  1.113534E+05 -1.810090E+04  1.811914E+04  1.694007E+04
       423  20  2.094932E+06  1.007593E+05  1.388851E+05 -1.373247E+04  4.091687E+04  1.889831E+04
       423  21  2.139886E+06  1.338269E+05  1.871118E+05 -2.922217E+04  6.371653E+04  2.019495E+04
       423  22  1.681675E+06 -1.308987E+03  2.569987E+04 -2.213954E+04  1.985776E+04  1.694215E+04
       423  23  1.677221E+06 -1.557327E+03  4.411025E+04 -1.222242E+04  4.213294E+04  1.890055E+04
       423  24  1.681632E+06  2.154386E+04  8.286363E+04 -2.216388E+04  6.440857E+04  2.019756E+04
       423  25  1.304553E+06 -9.375011E+04 -5.996288E+04 -2.617573E+04  2.159534E+04  1.694421E+04
       423  26  1.259672E+06 -1.038859E+05 -5.067587E+04 -1.071343E+04  4.334819E+04  1.890281E+04
       423  27  1.223572E+06 -9.075348E+04 -2.139816E+04 -1.511088E+04  6.510009E+04  2.020019E+04
       424   1  2.196629E+06  1.044877E+05  2.154921E+05  2.471859E+04 -7.430013E+04 -2.307208E+04
       424   2  2.190951E+06  1.152882E+05  2.950987E+05 -5.554591E+04 -1.775224E+05 -2.269586E+04
       424   3  2.281549E+06  4.570186E+05  5.245332E+05 -1.563699E+05 -2.807778E+05 -7.620065E+03
       424   4  1.700677E+06 -1.708610E+04  1.032385E+05 -2.215920E+04 -7.952265E+04 -2.307454E+04
       424   5  1.653356E+06 -1.641497E+04  1.722523E+05 -1.214692E+04 -1.713777E+05 -2.270051E+04
       424   6  1.700407E+06  3.133409E+05  3.832964E+05 -2.268072E+04 -2.632565E+05 -7.651177E+03
       424   7  1.204958E+06 -1.386686E+05 -9.029685E+03 -6.899937E+04 -8.474103E+04 -2.307621E+04
       424   8  1.116032E+06 -1.481310E+05  4.938824E+04  3.121420E+04 -1.652383E+05 -2.270431E+04
       424   9  1.119612E+06  1.697060E+05  2.420460E+05  1.108833E+05 -2.457514E+05 -7.674802E+03
       424  10  2.196623E+06  1.044856E+05  2.154808E+05  2.471721E+04 -1.128805E-09 -2.701869E-09
       424  11  2.190917E+06  1.152792E+05  2.950387E+05 -5.554915E+04 -2.592555E-09 -4.595892E-09
       424  12  2.281465E+06  4.569974E+05  5.243855E+05 -1.563716E+05 -2.194713E-09 -1.253904E-09
       424  13  1.700670E+06 -1.708837E+04  1.032257E+05 -2.216067E+04 -2.155514E-09 -6.437320E-09
       424  14  1.653324E+06 -1.642338E+04  1.721963E+05 -1.215005E+04  1.325615E-09  2.152479E-09
       424  15  1.700333E+06  3.133223E+05  3.831664E+05 -2.268234E+04 -2.345392E-10 -2.845507E-10
       424  16  1.204950E+06 -1.386711E+05 -9.044156E+03 -6.900094E+04  8.929050E-10 -1.681276E-09
       424  17  1.116003E+06 -1.481389E+05  4.933606E+04  3.121118E+04  2.278324E-09  1.990662E-09
       424  18  1.119547E+06  1.696897E+05  2.419326E+05  1.108818E+05  1.833112E-09 -2.161341E-09
       424  19  2.196629E+06  1.044877E+05  2.154921E+05  2.471859E+04  7.430013E+04  2.307208E+04
       424  20  2.190951E+06  1.152882E+05  2.950987E+05 -5.554591E+04  1.775224E+05  2.269586E+04
       424  21  2.281549E+06  4.570186E+05  5.245332E+05 -1.563699E+05  2.807778E+05  7.620065E+03
       424  22  1.700677E+06 -1.708610E+04  1.032385E+05 -2.215920E+04  7.952265E+04  2.307454E+04
       424  23  1.653356E+06 -1.641497E+04  1.722523E+05 -1.214692E+04  1.713777E+05  2.270051E+04
       424  24  1.700407E+06  3.133409E+05  3.832964E+05 -2.268072E+04  2.632565E+05  7.651177E+03
       424  25  1.204958E+06 -1.386686E+05 -9.029685E+03 -6.899937E+04  8.474103E+04  2.307621E+04
       424  26  1.116032E+06 -1.481310E+05  4.938824E+04  3.121420E+04  1.652383E+05  2.270431E+04
       424  27  1.119612E+06  1.697060E+05  2.420460E+05  1.108833E+05  2.457514E+05  7.674802E+03
       425   1  5.171915E+05  1.796644E+05  1.637594E+05  3.692320E+04  3.295476E+04 -1.271031E+04
       425   2  4.536067E+05  1.906077E+05  1.399565E+05  4.481930E+04  9.676163E+03 -4.264972E+04
       425   3  3.880941E+05  1.816249E+05  1.263627E+05  6.631514E+04 -1.363753E+04 -5.090662E+04
       425   4 -3.850388E+05 -4.303089E+04 -4.817983E+04  6.226623E+04 -3.353748E+04 -1.284083E+04
       425   5 -3.809747E+05 -8.896258E+03 -2.332691E+04  5.542024E+04 -2.141015E+04 -4.272001E+04
       425   6 -3.849970E+05 -8.503014E+02 -1.285470E+04  6.217498E+04 -9.320701E+03 -5.090224E+04
       425   7 -1.286509E+06 -2.657793E+05 -2.601579E+05  8.757184E+04 -9.993369E+04 -1.297688E+04
       425   8 -1.214886E+06 -2.084411E+05 -1.866401E+05  6.600626E+04 -5.245559E+04 -4.279141E+04
       425   9 -1.157506E+06 -1.833588E+05 -1.520952E+05  5.803978E+04 -5.009088E+03 -5.089790E+04
       425  10  5.171903E+05  1.796639E+05  1.637571E+05  3.692354E+04 -2.740692E-10 -3.870433E-10
       425  11  4.536061E+05  1.906057E+05  1.399529E+05  4.481963E+04  1.328587E-08 -3.916841E-09
       425  12  3.880932E+05  1.816221E+05  1.263574E+05  6.631458E+04  2.284872E-08 -2.881674E-09
       425  13 -3.850400E+05 -4.303137E+04 -4.818225E+04  6.226588E+04  1.222520E-10  1.436712E-09
       425  14 -3.809756E+05 -8.898341E+03 -2.333120E+04  5.541950E+04  4.445375E-12 -2.519563E-09
       425  15 -3.849978E+05 -8.531066E+02 -1.285973E+04  6.217460E+04 -3.888963E-10  1.186415E-09
       425  16 -1.286520E+06 -2.657822E+05 -2.601770E+05  8.757080E+04  2.180386E-09  1.860341E-10
       425  17 -1.214889E+06 -2.084439E+05 -1.866487E+05  6.600445E+04 -1.260401E-08 -7.130771E-09
       425  18 -1.157507E+06 -1.833616E+05 -1.521001E+05  5.803957E+04 -2.213669E-08 -5.597237E-09
       425  19  5.171915E+05  1.796644E+05  1.637594E+05  3.692320E+04 -3.295476E+04  1.271031E+04
       425  20  4.536067E+05  1.906077E+05  1.399565E+05  4.481930E+04 -9.676163E+03  4.264972E+04
       425  21  3.880941E+05  1.816249E+05  1.263627E+05  6.631514E+04  1.363753E+04  5.090662E+04
       425  22 -3.850388E+05 -4.303089E+04 -4.817983E+04  6.226623E+04  3.353748E+04  1.284083E+04
       425  23 -3.809747E+05 -8.896258E+03 -2.332691E+04  5.542024E+04  2.141015E+04  4.272001E+04
       425  24 -3.849970E+05 -8.503014E+02 -1.285470E+04  6.217498E+04  9.320701E+03  5.090224E+04
       425  25 -1.286509E+06 -2.657793E+05 -2.601579E+05  8.757184E+04  9.993369E+04  1.297688E+04
       425  26 -1.214886E+06 -2.084411E+05 -1.866401E+05  6.600626E+04  5.245559E+04  4.279141E+04
       425  27 -1.157506E+06 -1.833588E+05 -1.520952E+05  5.803978E+04  5.009088E+03  5.089790E+04
       426   1  3.464483E+05  1.703581E+05  1.205860E+05  6.307640E+04 -9.212728E+03 -4.901102E+04
       426   2  2.820707E+05  1.561896E+05  1.108097E+05  5.604413E+04 -9.542498E+03 -4.712964E+04
       426   3  2.175220E+05  1.413078E+05  1.010626E+05  6.400806E+04 -9.878414E+03 -4.339264E+04
       426   4 -3.833441E+05 -1.678033E+03 -9.811079E+03  6.249832E+04 -7.647907E+03 -4.901237E+04
       426   5 -3.829793E+05 -7.077320E+01 -5.409652E+03  5.499721E+04 -4.950464E+03 -4.712274E+04
       426   6 -3.833151E+05  2.973374E+02 -3.082198E+03  6.249333E+04 -2.259149E+03 -4.337647E+04
       426   7 -1.112617E+06 -1.737437E+05 -1.402284E+05  6.192062E+04 -6.084869E+03 -4.901373E+04
       426   8 -1.047596E+06 -1.563552E+05 -1.216447E+05  5.395118E+04 -3.631980E+02 -4.711584E+04
       426   9 -9.837979E+05 -1.407326E+05 -1.072393E+05  6.097988E+04  5.352971E+03 -4.336034E+04
       426  10  3.464475E+05  1.703555E+05  1.205814E+05  6.307603E+04 -2.754449E-08 -3.641174E-09
       426  11  2.820700E+05  1.561872E+05  1.108054E+05  5.604377E+04 -8.935742E-09  2.593662E-09
       426  12  2.175214E+05  1.413058E+05  1.010589E+05  6.400771E+04  6.447078E-09  2.259620E-09
       426  13 -3.833448E+05 -1.680627E+03 -9.815702E+03  6.249802E+04  2.958804E-11 -1.576666E-09
       426  14 -3.829799E+05 -7.316382E+01 -5.413871E+03  5.499703E+04 -4.051006E-10  3.023075E-09
       426  15 -3.833156E+05  2.953160E+02 -3.085743E+03  6.249325E+04  3.414309E-10 -2.140830E-09
       426  16 -1.112618E+06 -1.737463E+05 -1.402330E+05  6.192038E+04  2.933826E-08  9.524793E-10
       426  17 -1.047597E+06 -1.563576E+05 -1.216489E+05  5.395117E+04  8.601617E-09  2.018104E-09
       426  18 -9.837984E+05 -1.407346E+05 -1.072429E+05  6.098006E+04 -5.799195E-09 -4.969142E-10
       426  19  3.464483E+05  1.703581E+05  1.205860E+05  6.307640E+04  9.212728E+03  4.901102E+04
       426  20  2.820707E+05  1.561896E+05  1.108097E+05  5.604413E+04  9.542498E+03  4.712964E+04
       426  21  2.175220E+05  1.413078E+05  1.010626E+05  6.400806E+04  9.878414E+03  4.339264E+04
       426  22 -3.833441E+05 -1.678033E+03 -9.811079E+03  6.249832E+04  7.647907E+03  4.901237E+04
       426  23 -3.829793E+05 -7.077320E+01 -5.409652E+03  5.499721E+04  4.950464E+03  4.712274E+04
       426  24 -3.833151E+05  2.973374E+02 -3.082198E+03  6.249333E+04  2.259149E+03  4.337647E+04
       426  25 -1.112617E+06 -1.737437E+05 -1.402284E+05  6.192062E+04  6.084869E+03  4.901373E+04
       426  26 -1.047596E+06 -1.563552E+05 -1.216447E+05  5.395118E+04  3.631980E+02  4.711584E+04
       426  27 -9.837979E+05 -1.407326E+05 -1.072393E+05  6.097988E+04 -5.352971E+03  4.336034E+04
       427   1  1.752205E+05  1.312427E+05  9.411378E+04  6.377181E+04 -9.177935E+03 -4.064465E+04
       427   2  1.107174E+05  1.161125E+05  8.386406E+04  5.607491E+04 -8.785612E+03 -3.603844E+04
       427   3  4.610988E+04  1.010481E+05  7.335545E+04  6.351517E+04 -8.395501E+03 -3.127144E+04
       427   4 -3.831840E+05  2.552783E+02 -2.343705E+03  6.252538E+04 -1.790490E+03 -4.062814E+04
       427   5 -3.830964E+05  2.910863E+02 -1.342531E+03  5.495634E+04 -1.136568E+03 -3.601986E+04
       427   6 -3.831628E+05  3.474796E+02 -7.823612E+02  6.252516E+04 -4.848180E+02 -3.125072E+04
       427   7 -9.412825E+05 -1.307489E+05 -9.881171E+04  6.127990E+04  5.590516E+03 -4.061166E+04
       427   8 -8.766706E+05 -1.155434E+05 -8.655726E+04  5.383852E+04  6.506581E+03 -3.600131E+04
       427   9 -8.122544E+05 -1.003630E+05 -7.492627E+04  6.153572E+04  7.420564E+03 -3.123002E+04
       427  10  1.752200E+05  1.312409E+05  9.411052E+04  6.377151E+04 -1.750705E-09  3.646244E-09
       427  11  1.107169E+05  1.161110E+05  8.386148E+04  5.607466E+04  3.140394E-09  2.769925E-09
       427  12  4.610954E+04  1.010471E+05  7.335348E+04  6.351496E+04  5.216609E-09 -1.276412E-09
       427  13 -3.831845E+05  2.535053E+02 -2.346812E+03  6.252532E+04 -8.878700E-11 -4.193342E-09
       427  14 -3.830967E+05  2.896930E+02 -1.344971E+03  5.495631E+04  1.292132E-10  1.775566E-09
       427  15 -3.831631E+05  3.464310E+02 -7.841965E+02  6.252514E+04 -7.356926E-11  3.862666E-09
       427  16 -9.412829E+05 -1.307507E+05 -9.881486E+04  6.128008E+04  4.668570E-09  4.433918E-10
       427  17 -8.766710E+05 -1.155448E+05 -8.655978E+04  5.383871E+04 -2.360072E-09  2.998350E-09
       427  18 -8.122548E+05 -1.003641E+05 -7.492821E+04  6.153590E+04 -4.424889E-09 -2.801372E-10
       427  19  1.752205E+05  1.312427E+05  9.411378E+04  6.377181E+04  9.177935E+03  4.064465E+04
       427  20  1.107174E+05  1.161125E+05  8.386406E+04  5.607491E+04  8.785612E+03  3.603844E+04
       427  21  4.610988E+04  1.010481E+05  7.335545E+04  6.351517E+04  8.395501E+03  3.127144E+04
       427  22 -3.831840E+05  2.552783E+02 -2.343705E+03  6.252538E+04  1.790490E+03  4.062814E+04
       427  23 -3.830964E+05  2.910863E+02 -1.342531E+03  5.495634E+04  1.136568E+03  3.601986E+04
       427  24 -3.831628E+05  3.474796E+02 -7.823612E+02  6.252516E+04  4.848180E+02  3.125072E+04
       427  25 -9.412825E+05 -1.307489E+05 -9.881171E+04  6.127990E+04 -5.590516E+03  4.061166E+04
       427  26 -8.766706E+05 -1.155434E+05 -8.655726E+04  5.383852E+04 -6.506581E+03  3.600131E+04
       427  27 -8.122544E+05 -1.003630E+05 -7.492627E+04  6.153572E+04 -7.420564E+03  3.123002E+04
       428   1  3.720350E+03  9.104963E+04  6.593068E+04  6.342247E+04 -8.260087E+03 -2.844729E+04
       428   2 -6.086312E+04  7.588736E+04  5.514211E+04  5.569309E+04 -8.108158E+03 -2.360320E+04
       428   3 -1.255364E+05  6.081541E+04  4.425030E+04  6.312854E+04 -7.957454E+03 -1.874442E+04
       428   4 -3.831438E+05  3.507142E+02 -6.061459E+02  6.253130E+04 -3.668097E+02 -2.842593E+04
       428   5 -3.830874E+05  3.196810E+02 -3.813180E+02  5.494864E+04 -1.914546E+02 -2.358084E+04
       428   6 -3.831300E+05  3.747901E+02 -2.764906E+02  6.253126E+04 -1.731015E+01 -1.872105E+04
       428   7 -7.698608E+05 -9.035619E+04 -6.714782E+04  6.164058E+04  7.521703E+03 -2.840458E+04
       428   8 -7.052095E+05 -7.525353E+04 -5.590806E+04  5.420451E+04  7.721267E+03 -2.355849E+04
       428   9 -6.406583E+05 -6.006937E+04 -4.480533E+04  6.193418E+04  7.919640E+03 -1.869769E+04
       428  10  3.720060E+03  9.104874E+04  6.592904E+04  6.342228E+04 -6.084916E-09  2.671080E-10
       428  11 -6.086334E+04  7.588674E+04  5.514094E+04  5.569294E+04  2.174379E-08  9.220840E-09
       428  12 -1.255365E+05  6.081502E+04  4.424953E+04  6.312842E+04  4.247321E-08  1.049475E-08
       428  13 -3.831440E+05  3.498467E+02 -6.076644E+02  6.253129E+04 -2.950000E-10  1.064452E-09
       428  14 -3.830875E+05  3.190840E+02 -3.823628E+02  5.494863E+04 -1.103117E-09  7.782998E-09
       428  15 -3.831301E+05  3.744138E+02 -2.771491E+02  6.253126E+04  1.187174E-10  4.445907E-09
       428  16 -7.698611E+05 -9.035707E+04 -6.714944E+04  6.164076E+04  8.703643E-09  7.929343E-10
       428  17 -7.052097E+05 -7.525415E+04 -5.590921E+04  5.420465E+04 -2.123194E-08  2.320226E-09
       428  18 -6.406585E+05 -6.006976E+04 -4.480611E+04  6.193430E+04 -4.143916E-08  2.897841E-09
       428  19  3.720350E+03  9.104963E+04  6.593068E+04  6.342247E+04  8.260087E+03  2.844729E+04
       428  20 -6.086312E+04  7.588736E+04  5.514211E+04  5.569309E+04  8.108158E+03  2.360320E+04
       428  21 -1.255364E+05  6.081541E+04  4.425030E+04  6.312854E+04  7.957454E+03  1.874442E+04
       428  22 -3.831438E+05  3.507142E+02 -6.061459E+02  6.253130E+04  3.668097E+02  2.842593E+04
       428  23 -3.830874E+05  3.196810E+02 -3.813180E+02  5.494864E+04  1.914546E+02  2.358084E+04
       428  24 -3.831300E+05  3.747901E+02 -2.764906E+02  6.253126E+04  1.731015E+01  1.872105E+04
       428  25 -7.698608E+05 -9.035619E+04 -6.714782E+04  6.164058E+04 -7.521703E+03  2.840458E+04
       428  26 -7.052095E+05 -7.525353E+04 -5.590806E+04  5.420451E+04 -7.721267E+03  2.355849E+04
       428  27 -6.406583E+05 -6.006937E+04 -4.480533E+04  6.193418E+04 -7.919640E+03  1.869769E+04
       429   1 -1.679724E+05  5.081059E+04  3.666633E+04  6.303293E+04 -7.917661E+03 -1.591142E+04
       429   2 -2.325885E+05  3.563720E+04  2.563826E+04  5.528300E+04 -7.783598E+03 -1.104667E+04
       429   3 -2.973085E+05  2.055089E+04  1.451327E+04  6.271206E+04 -7.650081E+03 -6.186595E+03
       429   4 -3.831276E+05  3.795181E+02 -2.593139E+02  6.253435E+04  2.301434E+01 -1.588765E+04
       429   5 -3.830715E+05  3.445602E+02 -2.842558E+02  5.494473E+04  1.490775E+02 -1.102249E+04
       429   6 -3.831211E+05  3.984917E+02 -4.004363E+02  6.253431E+04  2.746105E+02 -6.161999E+03
       429   7 -5.982370E+05 -5.005400E+04 -3.718628E+04  6.203591E+04  7.961023E+03 -1.586388E+04
       429   8 -5.335321E+05 -3.494926E+04 -2.620731E+04  5.460653E+04  8.079890E+03 -1.099831E+04
       429   9 -4.689264E+05 -1.975427E+04 -1.531416E+04  6.235658E+04  8.198239E+03 -6.137406E+03
       429  10 -1.679726E+05  5.081030E+04  3.666573E+04  6.303283E+04 -3.266380E-08  4.743360E-09
       429  11 -2.325886E+05  3.563705E+04  2.563792E+04  5.528293E+04 -1.261156E-08  6.119091E-12
       429  12 -2.973085E+05  2.055084E+04  1.451308E+04  6.271202E+04  6.588917E-09 -2.342587E-09
       429  13 -3.831276E+05  3.792471E+02 -2.597882E+02  6.253435E+04 -1.279276E-10  1.085681E-08
       429  14 -3.830715E+05  3.444298E+02 -2.844841E+02  5.494473E+04 -7.479654E-12  4.005908E-09
       429  15 -3.831211E+05  3.984509E+02 -4.005078E+02  6.253431E+04  1.958695E-10 -1.931881E-09
       429  16 -5.982372E+05 -5.005428E+04 -3.718687E+04  6.203601E+04  3.580088E-08  4.719394E-09
       429  17 -5.335322E+05 -3.494940E+04 -2.620766E+04  5.460660E+04  1.331557E-08 -9.375075E-10
       429  18 -4.689265E+05 -1.975433E+04 -1.531436E+04  6.235662E+04 -5.202658E-09 -3.268600E-09
       429  19 -1.679724E+05  5.081059E+04  3.666633E+04  6.303293E+04  7.917661E+03  1.591142E+04
       429  20 -2.325885E+05  3.563720E+04  2.563826E+04  5.528300E+04  7.783598E+03  1.104667E+04
       429  21 -2.973085E+05  2.055089E+04  1.451327E+04  6.271206E+04  7.650081E+03  6.186595E+03
       429  22 -3.831276E+05  3.795181E+02 -2.593139E+02  6.253435E+04 -2.301434E+01  1.588765E+04
       429  23 -3.830715E+05  3.445602E+02 -2.842558E+02  5.494473E+04 -1.490775E+02  1.102249E+04
       429  24 -3.831211E+05  3.984917E+02 -4.004363E+02  6.253431E+04 -2.746105E+02  6.161999E+03
       429  25 -5.982370E+05 -5.005400E+04 -3.718628E+04  6.203591E+04 -7.961023E+03  1.586388E+04
       429  26 -5.335321E+05 -3.494926E+04 -2.620731E+04  5.460653E+04 -8.079890E+03  1.099831E+04
       429  27 -4.689264E+05 -1.975427E+04 -1.531416E+04  6.235658E+04 -8.198239E+03  6.137406E+03
       430   1 -3.397709E+05  1.053995E+04  6.803297E+03  6.259909E+04 -7.587127E+03 -3.354448E+03
       430   2 -4.043595E+05 -4.647945E+03 -4.575449E+03  5.484019E+04 -7.062322E+03  1.472567E+03
       430   3 -4.691203E+05 -1.980733E+04 -1.632126E+04  6.225805E+04 -6.537267E+03  6.222187E+03
       430   4 -3.831309E+05  4.031873E+02 -5.023385E+02  6.253372E+04  3.474342E+02 -3.329711E+03
       430   5 -3.830542E+05  3.637940E+02 -8.346287E+02  5.494541E+04  7.456200E+02  1.496846E+03
       430   6 -3.831319E+05  3.750753E+02 -1.446114E+03  6.253382E+04  1.144110E+03  6.246016E+03
       430   7 -4.264889E+05 -9.733643E+03 -7.807797E+03  6.246836E+04  8.281459E+03 -3.304974E+03
       430   8 -3.617483E+05  5.375541E+03  2.906404E+03  5.505064E+04  8.553823E+03  1.521128E+03
       430   9 -2.971361E+05  2.055711E+04  1.342900E+04  6.280961E+04  8.826518E+03  6.269850E+03
       430  10 -3.397710E+05  1.053992E+04  6.803168E+03  6.259907E+04 -2.965355E-09  3.376568E-09
       430  11 -4.043595E+05 -4.647961E+03 -4.575546E+03  5.484020E+04  2.230525E-10  1.909864E-09
       430  12 -4.691203E+05 -1.980738E+04 -1.632141E+04  6.225809E+04 -2.043947E-09  3.047951E-09
       430  13 -3.831309E+05  4.031753E+02 -5.023596E+02  6.253372E+04  3.824142E-10  1.214840E-10
       430  14 -3.830542E+05  3.637915E+02 -8.346340E+02  5.494541E+04 -1.396887E-10  2.256953E-09
       430  15 -3.831319E+05  3.750330E+02 -1.446190E+03  6.253381E+04  5.687683E-10  3.073440E-09
       430  16 -4.264890E+05 -9.733673E+03 -7.807946E+03  6.246838E+04  6.318127E-09  3.150481E-09
       430  17 -3.617484E+05  5.375519E+03  2.906262E+03  5.505062E+04  1.132529E-09 -1.012397E-08
       430  18 -2.971362E+05  2.055705E+04  1.342878E+04  6.280957E+04  3.232689E-09 -1.526424E-09
       430  19 -3.397709E+05  1.053995E+04  6.803297E+03  6.259909E+04  7.587127E+03  3.354448E+03
       430  20 -4.043595E+05 -4.647945E+03 -4.575449E+03  5.484019E+04  7.062322E+03 -1.472567E+03
       430  21 -4.691203E+05 -1.980733E+04 -1.632126E+04  6.225805E+04  6.537267E+03 -6.222187E+03
       430  22 -3.831309E+05  4.031873E+02 -5.023385E+02  6.253372E+04 -3.474342E+02  3.329711E+03
       430  23 -3.830542E+05  3.637940E+02 -8.346287E+02  5.494541E+04 -7.456200E+02 -1.496846E+03
       430  24 -3.831319E+05  3.750753E+02 -1.446114E+03  6.253382E+04 -1.144110E+03 -6.246016E+03
       430  25 -4.264889E+05 -9.733643E+03 -7.807797E+03  6.246836E+04 -8.281459E+03  3.304974E+03
       430  26 -3.617483E+05  5.375541E+03  2.906404E+03  5.505064E+04 -8.553823E+03 -1.521128E+03
       430  27 -2.971361E+05  2.055711E+04  1.342900E+04  6.280961E+04 -8.826518E+03 -6.269850E+03
       431   1 -5.116817E+05 -2.980976E+04 -2.442985E+04  6.201549E+04 -6.367304E+03  9.019094E+03
       431   2 -5.759592E+05 -4.526553E+04 -3.739968E+04  5.463784E+04 -3.242762E+03  1.335484E+04
       431   3 -6.409926E+05 -6.170189E+04 -5.267999E+04  6.237643E+04 -1.153371E+02  1.678337E+04
       431   4 -3.832113E+05  4.063193E+02 -1.898954E+03  6.251970E+04  1.428157E+03  9.043096E+03
       431   5 -3.829638E+05  1.707359E+02 -3.323946E+03  5.496355E+04  3.073281E+03  1.337379E+04
       431   6 -3.832201E+05 -7.882825E+02 -6.031357E+03  6.252335E+04  4.721625E+03  1.679740E+04
       431   7 -2.547245E+05  3.062154E+04  2.063158E+04  6.302402E+04  9.225185E+03  9.067109E+03
       431   8 -1.899320E+05  4.560498E+04  3.075057E+04  5.528933E+04  9.391233E+03  1.339274E+04
       431   9 -1.253828E+05  6.012161E+04  4.061474E+04  6.267029E+04  9.560541E+03  1.681144E+04
       431  10 -5.116818E+05 -2.980986E+04 -2.443008E+04  6.201553E+04 -1.650666E-09  6.201288E-09
       431  11 -5.759592E+05 -4.526573E+04 -3.740004E+04  5.463788E+04  3.277645E-09  2.175058E-10
       431  12 -6.409926E+05 -6.170219E+04 -5.268052E+04  6.237643E+04  2.905623E-09  3.441432E-09
       431  13 -3.832113E+05  4.062310E+02 -1.899111E+03  6.251969E+04  1.227612E-11  2.970177E-09
       431  14 -3.829639E+05  1.705414E+02 -3.324299E+03  5.496351E+04 -7.838724E-11  5.088286E-09
       431  15 -3.832202E+05 -7.885914E+02 -6.031930E+03  6.252329E+04  2.589659E-10 -2.649641E-09
       431  16 -2.547247E+05  3.062143E+04  2.063126E+04  6.302395E+04  4.829873E-09  2.954323E-09
       431  17 -1.899321E+05  4.560476E+04  3.075007E+04  5.528923E+04 -2.073943E-09 -1.926250E-09
       431  18 -1.253830E+05  6.012128E+04  4.061404E+04  6.267016E+04 -2.390088E-09 -7.317426E-09
       431  19 -5.116817E+05 -2.980976E+04 -2.442985E+04  6.201549E+04  6.367304E+03 -9.019094E+03
       431  20 -5.759592E+05 -4.526553E+04 -3.739968E+04  5.463784E+04  3.242762E+03 -1.335484E+04
       431  21 -6.409926E+05 -6.170189E+04 -5.267999E+04  6.237643E+04  1.153371E+02 -1.678337E+04
       431  22 -3.832113E+05  4.063193E+02 -1.898954E+03  6.251970E+04 -1.428157E+03 -9.043096E+03
       431  23 -3.829638E+05  1.707359E+02 -3.323946E+03  5.496355E+04 -3.073281E+03 -1.337379E+04
       431  24 -3.832201E+05 -7.882825E+02 -6.031357E+03  6.252335E+04 -4.721625E+03 -1.679740E+04
       431  25 -2.547245E+05  3.062154E+04  2.063158E+04  6.302402E+04 -9.225185E+03 -9.067109E+03
       431  26 -1.899320E+05  4.560498E+04  3.075057E+04  5.528933E+04 -9.391233E+03 -1.339274E+04
       431  27 -1.253828E+05  6.012161E+04  4.061474E+04  6.267029E+04 -9.560541E+03 -1.681144E+04
       432   1 -6.849169E+05 -7.143520E+04 -6.276489E+04  5.995382E+04 -4.364169E+02  1.915900E+04
       432   2 -7.456172E+05 -9.247726E+04 -8.661174E+04  6.171337E+04  2.428029E+04  1.771656E+04
       432   3 -8.143836E+05 -1.325553E+05 -1.313363E+05  7.792467E+04  4.902331E+04  5.662331E+03
       432   4 -3.842365E+05 -2.747835E+02 -7.902687E+03  6.236470E+04  5.745195E+03  1.917672E+04
       432   5 -3.817172E+05 -5.242948E+03 -1.433547E+04  5.517640E+04  1.316316E+04  1.768294E+04
       432   6 -3.842567E+05 -2.623541E+04 -2.962048E+04  6.244035E+04  2.061015E+04  5.579512E+03
       432   7 -8.346811E+04  7.088056E+04  4.695602E+04  6.477671E+04  1.192972E+04  1.919449E+04
       432   8 -1.768997E+04  8.198352E+04  5.793471E+04  4.863541E+04  2.039635E+03  1.764958E+04
       432   9  4.604267E+04  8.007264E+04  7.208573E+04  4.694512E+04 -7.822609E+03  5.498143E+03
       432  10 -6.849170E+05 -7.143560E+04 -6.276558E+04  5.995383E+04 -2.802505E-09  2.718906E-09
       432  11 -7.456179E+05 -9.247775E+04 -8.661344E+04  6.171303E+04  1.454910E-09 -4.135907E-10
       432  12 -8.143861E+05 -1.325560E+05 -1.313409E+05  7.792444E+04  1.216495E-09  1.243889E-09
       432  13 -3.842366E+05 -2.751872E+02 -7.903440E+03  6.236461E+04 -2.760730E-10  6.891495E-09
       432  14 -3.817174E+05 -5.243331E+03 -1.433638E+04  5.517621E+04  7.844653E-11 -8.533772E-09
       432  15 -3.842572E+05 -2.623555E+04 -2.962134E+04  6.244026E+04 -1.004671E-10  4.352254E-09
       432  16 -8.346837E+04  7.088013E+04  4.695506E+04  6.477653E+04  5.658269E-09  6.208269E-12
       432  17 -1.769006E+04  8.198318E+04  5.793412E+04  4.863538E+04 -7.119316E-10  1.381073E-09
       432  18  4.604260E+04  8.007259E+04  7.208556E+04  4.694515E+04 -4.853080E-10 -1.505761E-09
       432  19 -6.849169E+05 -7.143520E+04 -6.276489E+04  5.995382E+04  4.364169E+02 -1.915900E+04
       432  20 -7.456172E+05 -9.247726E+04 -8.661174E+04  6.171337E+04 -2.428029E+04 -1.771656E+04
       432  21 -8.143836E+05 -1.325553E+05 -1.313363E+05  7.792467E+04 -4.902331E+04 -5.662331E+03
       432  22 -3.842365E+05 -2.747835E+02 -7.902687E+03  6.236470E+04 -5.745195E+03 -1.917672E+04
       432  23 -3.817172E+05 -5.242948E+03 -1.433547E+04  5.517640E+04 -1.316316E+04 -1.768294E+04
       432  24 -3.842567E+05 -2.623541E+04 -2.962048E+04  6.244035E+04 -2.061015E+04 -5.579512E+03
       432  25 -8.346811E+04  7.088056E+04  4.695602E+04  6.477671E+04 -1.192972E+04 -1.919449E+04
       432  26 -1.768997E+04  8.198352E+04  5.793471E+04  4.863541E+04 -2.039635E+03 -1.764958E+04
       432  27  4.604267E+04  8.007264E+04  7.208573E+04  4.694512E+04  7.822609E+03 -5.498143E+03
       433   1 -1.058042E+05  5.871356E+04  4.487283E+04 -2.148820E+03 -3.060925E+04 -5.615229E+03
       433   2 -1.342754E+05  1.036131E+05  6.524101E+04  4.284702E+03 -2.398621E+04 -1.724400E+04
       433   3 -1.769811E+05  9.516678E+04  6.797630E+04  2.777606E+04 -1.739585E+04 -1.746481E+04
       433   4 -5.524611E+05 -5.228491E+04 -6.403545E+04  1.931117E+04 -4.391137E+04 -5.654093E+03
       433   5 -5.445663E+05  2.771852E+03 -2.877309E+04  1.070113E+04 -2.853724E+04 -1.725862E+04
       433   6 -5.524382E+05  2.942718E+03 -1.723342E+04  1.915013E+04 -1.319515E+04 -1.745213E+04
       433   7 -9.989346E+05 -1.632962E+05 -1.729573E+05  4.075554E+04 -5.720393E+04 -5.693893E+03
       433   8 -9.547011E+05 -9.808094E+04 -1.227982E+05  1.711317E+04 -3.308528E+04 -1.727333E+04
       433   9 -9.277641E+05 -8.929081E+04 -1.024522E+05  1.052937E+04 -8.996974E+03 -1.743957E+04
       433  10 -1.058052E+05  5.871328E+04  4.487101E+04 -2.148958E+03 -8.509217E-09  2.489273E-09
       433  11 -1.342761E+05  1.036126E+05  6.523937E+04  4.284369E+03 -3.187806E-09  1.288038E-08
       433  12 -1.769815E+05  9.516637E+04  6.797516E+04  2.777582E+04  1.530520E-09  6.176014E-09
       433  13 -5.524632E+05 -5.228546E+04 -6.403914E+04  1.931097E+04 -1.706854E-11 -3.390706E-09
       433  14 -5.445673E+05  2.771313E+03 -2.877518E+04  1.070074E+04  3.101733E-10 -6.068914E-09
       433  15 -5.524384E+05  2.942344E+03 -1.723432E+04  1.914995E+04  1.717265E-11  1.552792E-09
       433  16 -9.989381E+05 -1.632971E+05 -1.729635E+05  4.075528E+04  8.479783E-09  1.913702E-09
       433  17 -9.547024E+05 -9.808156E+04 -1.228008E+05  1.711271E+04  2.425644E-09  9.823649E-09
       433  18 -9.277643E+05 -8.929116E+04 -1.024529E+05  1.052924E+04 -1.396892E-09  2.776469E-09
       433  19 -1.058042E+05  5.871356E+04  4.487283E+04 -2.148820E+03  3.060925E+04  5.615229E+03
       433  20 -1.342754E+05  1.036131E+05  6.524101E+04  4.284702E+03  2.398621E+04  1.724400E+04
       433  21 -1.769811E+05  9.516678E+04  6.797630E+04  2.777606E+04  1.739585E+04  1.746481E+04
       433  22 -5.524611E+05 -5.228491E+04 -6.403545E+04  1.931117E+04  4.391137E+04  5.654093E+03
       433  23 -5.445663E+05  2.771852E+03 -2.877309E+04  1.070113E+04  2.853724E+04  1.725862E+04
       433  24 -5.524382E+05  2.942718E+03 -1.723342E+04  1.915013E+04  1.319515E+04  1.745213E+04
       433  25 -9.989346E+05 -1.632962E+05 -1.729573E+05  4.075554E+04  5.720393E+04  5.693893E+03
       433  26 -9.547011E+05 -9.808094E+04 -1.227982E+05  1.711317E+04  3.308528E+04  1.727333E+04
       433  27 -9.277641E+05 -8.929081E+04 -1.024522E+05  1.052937E+04  8.996974E+03  1.743957E+04
       434   1 -2.064781E+05  8.070487E+04  6.435401E+04  1.890342E+04 -1.140220E+04 -1.512540E+04
       434   2 -2.415642E+05  7.568680E+04  6.245797E+04  1.098360E+04 -8.102923E+03 -1.391483E+04
       434   3 -2.781072E+05  6.695270E+04  5.746334E+04  2.065121E+04 -4.806411E+03 -1.216163E+04
       434   4 -5.492722E+05 -3.512993E+03 -1.383427E+04  1.932101E+04 -1.068521E+04 -1.512370E+04
       434   5 -5.485024E+05  3.076204E+02 -7.365937E+03  1.052063E+04 -6.971191E+03 -1.391153E+04
       434   6 -5.492641E+05  3.389154E+02 -4.285801E+03  1.930828E+04 -3.259750E+03 -1.215664E+04
       434   7 -8.919572E+05 -8.773900E+04 -9.203022E+04  1.973827E+04 -9.968619E+03 -1.512199E+04
       434   8 -8.553531E+05 -7.507807E+04 -7.719596E+04  1.005782E+04 -5.840013E+03 -1.390824E+04
       434   9 -8.203529E+05 -6.627995E+04 -6.603972E+04  1.796589E+04 -1.713758E+03 -1.215164E+04
       434  10 -2.064783E+05  8.070459E+04  6.435334E+04  1.890328E+04  1.564930E-09  2.198561E-10
       434  11 -2.415644E+05  7.568657E+04  6.245749E+04  1.098351E+04  7.721183E-10  3.649229E-09
       434  12 -2.781072E+05  6.695253E+04  5.746302E+04  2.065116E+04  7.559641E-10  7.678292E-09
       434  13 -5.492724E+05 -3.513269E+03 -1.383491E+04  1.932088E+04 -2.875496E-10  1.077911E-08
       434  14 -5.485025E+05  3.073996E+02 -7.366392E+03  1.052055E+04  2.594031E-10 -2.348675E-08
       434  15 -5.492642E+05  3.387539E+02 -4.286099E+03  1.930825E+04 -5.672615E-10  9.334872E-09
       434  16 -8.919574E+05 -8.773928E+04 -9.203083E+04  1.973815E+04 -5.133405E-10 -5.417060E-09
       434  17 -8.553532E+05 -7.507829E+04 -7.719639E+04  1.005775E+04 -3.330213E-10 -2.605944E-09
       434  18 -8.203529E+05 -6.628011E+04 -6.604000E+04  1.796587E+04 -1.694109E-09  2.513391E-09
       434  19 -2.064781E+05  8.070487E+04  6.435401E+04  1.890342E+04  1.140220E+04  1.512540E+04
       434  20 -2.415642E+05  7.568680E+04  6.245797E+04  1.098360E+04  8.102923E+03  1.391483E+04
       434  21 -2.781072E+05  6.695270E+04  5.746334E+04  2.065121E+04  4.806411E+03  1.216163E+04
       434  22 -5.492722E+05 -3.512993E+03 -1.383427E+04  1.932101E+04  1.068521E+04  1.512370E+04
       434  23 -5.485024E+05  3.076204E+02 -7.365937E+03  1.052063E+04  6.971191E+03  1.391153E+04
       434  24 -5.492641E+05  3.389154E+02 -4.285801E+03  1.930828E+04  3.259750E+03  1.215664E+04
       434  25 -8.919572E+05 -8.773900E+04 -9.203022E+04  1.973827E+04  9.968619E+03  1.512199E+04
       434  26 -8.553531E+05 -7.507807E+04 -7.719596E+04  1.005782E+04  5.840013E+03  1.390824E+04
       434  27 -8.203529E+05 -6.627995E+04 -6.603972E+04  1.796589E+04  1.713758E+03  1.215164E+04
       435   1 -3.106746E+05  5.840539E+04  5.078868E+04  1.997614E+04 -3.981820E+03 -1.102606E+04
       435   2 -3.466243E+05  4.976732E+04  4.409664E+04  1.104913E+04 -3.073597E+03 -9.203417E+03
       435   3 -3.828677E+05  4.098203E+04  3.674469E+04  1.987317E+04 -2.166073E+03 -7.351388E+03
       435   4 -5.489862E+05 -1.020136E+02 -3.311868E+03  1.934878E+04 -2.595657E+03 -1.102147E+04
       435   5 -5.488349E+05  1.063767E+02 -1.885277E+03  1.047260E+04 -1.665229E+03 -9.198555E+03
       435   6 -5.489818E+05  1.638268E+02 -1.134033E+03  1.934782E+04 -7.354465E+02 -7.346248E+03
       435   7 -7.872451E+05 -5.861334E+04 -5.741608E+04  1.872163E+04 -1.210021E+03 -1.101688E+04
       435   8 -7.510075E+05 -4.955739E+04 -4.786984E+04  9.896226E+03 -2.573152E+02 -9.193695E+03
       435   9 -7.150704E+05 -4.065629E+04 -3.901455E+04  1.882259E+04  6.947999E+02 -7.341110E+03
       435  10 -3.106746E+05  5.840526E+04  5.078842E+04  1.997610E+04  3.563392E-09 -3.846972E-09
       435  11 -3.466243E+05  4.976723E+04  4.409646E+04  1.104910E+04 -1.305132E-09 -2.880675E-09
       435  12 -3.828677E+05  4.098197E+04  3.674458E+04  1.987315E+04 -3.801769E-09 -3.009229E-09
       435  13 -5.489863E+05 -1.021458E+02 -3.312109E+03  1.934876E+04  1.383545E-10  6.017038E-14
       435  14 -5.488349E+05  1.062851E+02 -1.885441E+03  1.047259E+04 -8.745079E-10 -3.827746E-09
       435  15 -5.489818E+05  1.637687E+02 -1.134136E+03  1.934782E+04 -2.554317E-10 -2.271802E-09
       435  16 -7.872451E+05 -5.861347E+04 -5.741631E+04  1.872162E+04 -3.197141E-09 -5.497556E-09
       435  17 -7.510075E+05 -4.955748E+04 -4.787000E+04  9.896224E+03  1.124274E-09  4.115341E-09
       435  18 -7.150704E+05 -4.065635E+04 -3.901466E+04  1.882259E+04  2.843829E-09  1.034788E-08
       435  19 -3.106746E+05  5.840539E+04  5.078868E+04  1.997614E+04  3.981820E+03  1.102606E+04
       435  20 -3.466243E+05  4.976732E+04  4.409664E+04  1.104913E+04  3.073597E+03  9.203417E+03
       435  21 -3.828677E+05  4.098203E+04  3.674469E+04  1.987317E+04  2.166073E+03  7.351388E+03
       435  22 -5.489862E+05 -1.020136E+02 -3.311868E+03  1.934878E+04  2.595657E+03  1.102147E+04
       435  23 -5.488349E+05  1.063767E+02 -1.885277E+03  1.047260E+04  1.665229E+03  9.198555E+03
       435  24 -5.489818E+05  1.638268E+02 -1.134033E+03  1.934782E+04  7.354465E+02  7.346248E+03
       435  25 -7.872451E+05 -5.861334E+04 -5.741608E+04  1.872163E+04  1.210021E+03  1.101688E+04
       435  26 -7.510075E+05 -4.955739E+04 -4.786984E+04  9.896226E+03  2.573152E+02  9.193695E+03
       435  27 -7.150704E+05 -4.065629E+04 -3.901455E+04  1.882259E+04 -6.947999E+02  7.341110E+03
       436   1 -4.158898E+05  3.279578E+04  2.924783E+04  1.975679E+04 -1.980979E+03 -6.267163E+03
       436   2 -4.520715E+05  2.386469E+04  2.137797E+04  1.073057E+04 -1.677076E+03 -4.408074E+03
       436   3 -4.884264E+05  1.504370E+04  1.330087E+04  1.953991E+04 -1.373472E+03 -2.545871E+03
       436   4 -5.489520E+05  1.365856E+02 -9.059746E+02  1.936687E+04 -5.559371E+02 -6.261951E+03
       436   5 -5.488636E+05  9.207013E+01 -6.328841E+02  1.044896E+04 -2.497382E+02 -4.402762E+03
       436   6 -5.489500E+05  1.573322E+02 -5.686001E+02  1.936678E+04  5.618039E+01 -2.540454E+03
       436   7 -6.819977E+05 -3.252383E+04 -3.106092E+04  1.897701E+04  8.688016E+02 -6.256741E+03
       436   8 -6.456470E+05 -2.368120E+04 -2.264433E+04  1.016738E+04  1.177379E+03 -4.397452E+03
       436   9 -6.094702E+05 -1.472929E+04 -1.443830E+04  1.919366E+04  1.485694E+03 -2.535039E+03
       436  10 -4.158898E+05  3.279574E+04  2.924775E+04  1.975678E+04  1.410399E-09 -6.219049E-09
       436  11 -4.520715E+05  2.386467E+04  2.137792E+04  1.073056E+04 -6.223271E-09  3.637250E-09
       436  12 -4.884264E+05  1.504369E+04  1.330085E+04  1.953991E+04 -1.127634E-08  3.538562E-09
       436  13 -5.489520E+05  1.365434E+02 -9.060488E+02  1.936686E+04 -5.565291E-10  2.655460E-09
       436  14 -5.488636E+05  9.204931E+01 -6.329206E+02  1.044896E+04 -1.007694E-09 -5.642584E-09
       436  15 -5.489500E+05  1.573253E+02 -5.686122E+02  1.936678E+04 -1.043786E-10 -5.904396E-10
       436  16 -6.819977E+05 -3.252387E+04 -3.106099E+04  1.897702E+04 -1.215513E-09  2.335817E-09
       436  17 -6.456470E+05 -2.368122E+04 -2.264437E+04  1.016739E+04  5.894347E-09  8.469987E-09
       436  18 -6.094702E+05 -1.472930E+04 -1.443832E+04  1.919366E+04  1.046769E-08  4.236490E-09
       436  19 -4.158898E+05  3.279578E+04  2.924783E+04  1.975679E+04  1.980979E+03  6.267163E+03
       436  20 -4.520715E+05  2.386469E+04  2.137797E+04  1.073057E+04  1.677076E+03  4.408074E+03
       436  21 -4.884264E+05  1.504370E+04  1.330087E+04  1.953991E+04  1.373472E+03  2.545871E+03
       436  22 -5.489520E+05  1.365856E+02 -9.059746E+02  1.936687E+04  5.559371E+02  6.261951E+03
       436  23 -5.488636E+05  9.207013E+01 -6.328841E+02  1.044896E+04  2.497382E+02  4.402762E+03
       436  24 -5.489500E+05  1.573322E+02 -5.686001E+02  1.936678E+04 -5.618039E+01  2.540454E+03
       436  25 -6.819977E+05 -3.252383E+04 -3.106092E+04  1.897701E+04 -8.688016E+02  6.256741E+03
       436  26 -6.456470E+05 -2.368120E+04 -2.264433E+04  1.016738E+04 -1.177379E+03  4.397452E+03
       436  27 -6.094702E+05 -1.472929E+04 -1.443830E+04  1.919366E+04 -1.485694E+03  2.535039E+03
       437   1 -5.215813E+05  6.859702E+03  5.516079E+03  1.944184E+04 -1.272158E+03 -1.461045E+03
       437   2 -5.578011E+05 -2.099753E+03 -2.851701E+03  1.039709E+04 -8.740230E+02  4.033816E+02
       437   3 -5.942150E+05 -1.095841E+04 -1.149198E+04  1.921316E+04 -4.758884E+02  2.266731E+03
       437   4 -5.489539E+05  1.577847E+02 -6.031388E+02  1.937234E+04  1.580374E+02 -1.455600E+03
       437   5 -5.488562E+05  9.748325E+01 -8.173877E+02  1.044198E+04  5.553010E+02  4.088125E+02
       437   6 -5.489542E+05  1.380802E+02 -1.303612E+03  1.937241E+04  9.525872E+02  2.272152E+03
       437   7 -5.763259E+05 -6.544182E+03 -6.722396E+03  1.930283E+04  1.588170E+03 -1.450155E+03
       437   8 -5.399113E+05  2.294715E+03  1.216928E+03  1.048687E+04  1.984645E+03  4.142436E+02
       437   9 -5.036915E+05  1.123443E+04  8.884637E+03  1.953168E+04  2.381166E+03  2.277574E+03
       437  10 -5.215813E+05  6.859699E+03  5.516072E+03  1.944184E+04 -1.044936E-08  1.551139E-09
       437  11 -5.578011E+05 -2.099753E+03 -2.851702E+03  1.039710E+04 -1.457844E-09 -5.702744E-09
       437  12 -5.942150E+05 -1.095842E+04 -1.149199E+04  1.921316E+04  2.077455E-09 -4.154932E-09
       437  13 -5.489539E+05  1.577824E+02 -6.031428E+02  1.937234E+04 -3.922621E-10  1.188252E-08
       437  14 -5.488562E+05  9.748299E+01 -8.173886E+02  1.044198E+04 -1.095396E-09  4.397918E-10
       437  15 -5.489542E+05  1.380744E+02 -1.303623E+03  1.937241E+04 -2.255088E-10 -5.508486E-09
       437  16 -5.763259E+05 -6.544185E+03 -6.722404E+03  1.930283E+04  9.915152E-09 -8.289652E-10
       437  17 -5.399113E+05  2.294714E+03  1.216920E+03  1.048687E+04  2.319647E-09 -1.645500E-08
       437  18 -5.036915E+05  1.123442E+04  8.884617E+03  1.953167E+04 -2.285707E-09 -9.565521E-09
       437  19 -5.215813E+05  6.859702E+03  5.516079E+03  1.944184E+04  1.272158E+03  1.461045E+03
       437  20 -5.578011E+05 -2.099753E+03 -2.851701E+03  1.039709E+04  8.740230E+02 -4.033816E+02
       437  21 -5.942150E+05 -1.095841E+04 -1.149198E+04  1.921316E+04  4.758884E+02 -2.266731E+03
       437  22 -5.489539E+05  1.577847E+02 -6.031388E+02  1.937234E+04 -1.580374E+02  1.455600E+03
       437  23 -5.488562E+05  9.748325E+01 -8.173877E+02  1.044198E+04 -5.553010E+02 -4.088125E+02
       437  24 -5.489542E+05  1.380802E+02 -1.303612E+03  1.937241E+04 -9.525872E+02 -2.272152E+03
       437  25 -5.763259E+05 -6.544182E+03 -6.722396E+03  1.930283E+04 -1.588170E+03  1.450155E+03
       437  26 -5.399113E+05  2.294715E+03  1.216928E+03  1.048687E+04 -1.984645E+03 -4.142436E+02
       437  27 -5.036915E+05  1.123443E+04  8.884637E+03  1.953168E+04 -2.381166E+03 -2.277574E+03
       438   1 -6.274040E+05 -1.909962E+04 -1.961292E+04  1.903990E+04 -2.172809E+02  3.353936E+03
       438   2 -6.634374E+05 -2.802813E+04 -2.893171E+04  1.008366E+04  1.212807E+03  5.216192E+03
       438   3 -6.998913E+05 -3.725752E+04 -3.929401E+04  1.895167E+04  2.643232E+03  7.055534E+03
       438   4 -5.490046E+05  1.797004E+02 -1.677077E+03  1.936376E+04  1.216559E+03  3.359340E+03
       438   5 -5.487970E+05  1.322984E+02 -2.857429E+03  1.045248E+04  2.629276E+03  5.221417E+03
       438   6 -5.490075E+05 -2.126603E+02 -5.068841E+03  1.936524E+04  4.042412E+03  7.060587E+03
       438   7 -4.705995E+05  1.945860E+04  1.625837E+04  1.968765E+04  2.650579E+03  3.364745E+03
       438   8 -4.341444E+05  2.829182E+04  2.321601E+04  1.082135E+04  4.046004E+03  5.226644E+03
       438   9 -3.981025E+05  3.683063E+04  2.915487E+04  1.977888E+04  5.441928E+03  7.065642E+03
       438  10 -6.274040E+05 -1.909964E+04 -1.961294E+04  1.903990E+04 -1.309337E-08 -1.042051E-09
       438  11 -6.634374E+05 -2.802816E+04 -2.893176E+04  1.008366E+04 -4.960723E-09 -9.527326E-09
       438  12 -6.998914E+05 -3.725757E+04 -3.929412E+04  1.895165E+04  3.277543E-09 -2.044306E-09
       438  13 -5.490046E+05  1.796878E+02 -1.677101E+03  1.936376E+04 -1.269121E-10 -6.381582E-09
       438  14 -5.487970E+05  1.322673E+02 -2.857493E+03  1.045246E+04 -1.217201E-09  1.640312E-09
       438  15 -5.490075E+05 -2.127182E+02 -5.068965E+03  1.936521E+04 -1.736476E-10  3.030524E-09
       438  16 -4.705995E+05  1.945858E+04  1.625833E+04  1.968765E+04  1.277225E-08  1.642023E-09
       438  17 -4.341444E+05  2.829179E+04  2.321592E+04  1.082133E+04  6.132471E-09 -6.384535E-09
       438  18 -3.981025E+05  3.683056E+04  2.915472E+04  1.977885E+04 -3.541838E-09  8.474057E-09
       438  19 -6.274040E+05 -1.909962E+04 -1.961292E+04  1.903990E+04  2.172809E+02 -3.353936E+03
       438  20 -6.634374E+05 -2.802813E+04 -2.893171E+04  1.008366E+04 -1.212807E+03 -5.216192E+03
       438  21 -6.998913E+05 -3.725752E+04 -3.929401E+04  1.895167E+04 -2.643232E+03 -7.055534E+03
       438  22 -5.490046E+05  1.797004E+02 -1.677077E+03  1.936376E+04 -1.216559E+03 -3.359340E+03
       438  23 -5.487970E+05  1.322984E+02 -2.857429E+03  1.045248E+04 -2.629276E+03 -5.221417E+03
       438  24 -5.490075E+05 -2.126603E+02 -5.068841E+03  1.936524E+04 -4.042412E+03 -7.060587E+03
       438  25 -4.705995E+05  1.945860E+04  1.625837E+04  1.968765E+04 -2.650579E+03 -3.364745E+03
       438  26 -4.341444E+05  2.829182E+04  2.321601E+04  1.082135E+04 -4.046004E+03 -5.226644E+03
       438  27 -3.981025E+05  3.683063E+04  2.915487E+04  1.977888E+04 -5.441928E+03 -7.065642E+03
       439   1 -7.333364E+05 -4.473620E+04 -4.849606E+04  1.785510E+04  3.531302E+03  8.186894E+03
       439   2 -7.681949E+05 -5.356913E+04 -6.135770E+04  1.036683E+04  9.569692E+03  9.981199E+03
       439   3 -8.054605E+05 -6.834866E+04 -7.967139E+04  2.060445E+04  1.560981E+04  1.133369E+04
       439   4 -5.494390E+05  4.653035E+02 -6.572934E+03  1.933650E+04  5.061777E+03  8.192330E+03
       439   5 -5.482683E+05  4.572070E+02 -1.130855E+04  1.048416E+04  1.076297E+04  9.985198E+03
       439   6 -5.494463E+05 -5.437496E+03 -2.126032E+04  1.935739E+04  1.646624E+04  1.133630E+04
       439   7 -3.655101E+05  4.566447E+04  3.534800E+04  2.081832E+04  6.592701E+03  8.197773E+03
       439   8 -3.282968E+05  5.448020E+04  3.873747E+04  1.060149E+04  1.195667E+04  9.989196E+03
       439   9 -2.933713E+05  5.746913E+04  3.714648E+04  1.810976E+04  1.732302E+04  1.133891E+04
       439  10 -7.333364E+05 -4.473628E+04 -4.849621E+04  1.785508E+04  4.979134E-09  1.924259E-09
       439  11 -7.681950E+05 -5.356926E+04 -6.135806E+04  1.036676E+04 -1.774254E-11  1.182335E-08
       439  12 -8.054608E+05 -6.834887E+04 -7.967209E+04  2.060431E+04 -5.091607E-10 -5.762566E-09
       439  13 -5.494390E+05  4.652246E+02 -6.573109E+03  1.933647E+04  4.143300E-10 -4.699387E-09
       439  14 -5.482685E+05  4.570688E+02 -1.130895E+04  1.048408E+04 -2.102270E-09  8.348191E-09
       439  15 -5.494467E+05 -5.437707E+03 -2.126107E+04  1.935724E+04 -4.361885E-10  2.852019E-09
       439  16 -3.655102E+05  4.566439E+04  3.534779E+04  2.081828E+04 -4.775097E-09 -9.036239E-10
       439  17 -3.282970E+05  5.448005E+04  3.873701E+04  1.060140E+04  2.504296E-10 -9.496721E-09
       439  18 -2.933717E+05  5.746891E+04  3.714567E+04  1.810960E+04 -1.239950E-10  2.985565E-09
       439  19 -7.333364E+05 -4.473620E+04 -4.849606E+04  1.785510E+04 -3.531302E+03 -8.186894E+03
       439  20 -7.681949E+05 -5.356913E+04 -6.135770E+04  1.036683E+04 -9.569692E+03 -9.981199E+03
       439  21 -8.054605E+05 -6.834866E+04 -7.967139E+04  2.060445E+04 -1.560981E+04 -1.133369E+04
       439  22 -5.494390E+05  4.653035E+02 -6.572934E+03  1.933650E+04 -5.061777E+03 -8.192330E+03
       439  23 -5.482683E+05  4.572070E+02 -1.130855E+04  1.048416E+04 -1.076297E+04 -9.985198E+03
       439  24 -5.494463E+05 -5.437496E+03 -2.126032E+04  1.935739E+04 -1.646624E+04 -1.133630E+04
       439  25 -3.655101E+05  4.566447E+04  3.534800E+04  2.081832E+04 -6.592701E+03 -8.197773E+03
       439  26 -3.282968E+05  5.448020E+04  3.873747E+04  1.060149E+04 -1.195667E+04 -9.989196E+03
       439  27 -2.933713E+05  5.746913E+04  3.714648E+04  1.810976E+04 -1.732302E+04 -1.133891E+04
       440   1 -8.431836E+05 -6.655018E+04 -9.209511E+04  6.561143E+03  1.663336E+04  1.343387E+04
       440   2 -8.664066E+05 -7.540989E+04 -1.185489E+05  2.110077E+04  4.733530E+04  1.369496E+04
       440   3 -9.151575E+05 -1.699788E+05 -1.864556E+05  5.303802E+04  7.806415E+04  4.655223E+03
       440   4 -5.543193E+05  4.489910E+03 -2.648829E+04  1.919462E+04  2.032822E+04  1.344640E+04
       440   5 -5.421946E+05  4.264645E+03 -4.421673E+04  1.063243E+04  4.390426E+04  1.368233E+04
       440   6 -5.543485E+05 -8.040926E+04 -9.843223E+04  1.946953E+04  6.750945E+04  4.617308E+03
       440   7 -2.653770E+05  7.552481E+04  3.911325E+04  3.183398E+04  2.402479E+04  1.345907E+04
       440   8 -2.178848E+05  8.393230E+04  3.010866E+04  1.584803E+02  4.047143E+04  1.366981E+04
       440   9 -1.934178E+05  9.155028E+03 -1.041727E+04 -1.411862E+04  5.694861E+04  4.580547E+03
       440  10 -8.431840E+05 -6.655045E+04 -9.209597E+04  6.560963E+03 -2.924604E-10 -7.720021E-09
       440  11 -8.664090E+05 -7.541069E+04 -1.185535E+05  2.110025E+04  3.273741E-09 -3.074550E-09
       440  12 -9.151641E+05 -1.699804E+05 -1.864671E+05  5.303773E+04  3.491881E-09  9.135809E-09
       440  13 -5.543198E+05  4.489605E+03 -2.648941E+04  1.919440E+04 -2.878101E-10  5.196351E-09
       440  14 -5.421967E+05  4.263926E+03 -4.422070E+04  1.063194E+04 -1.233311E-09  5.003523E-09
       440  15 -5.543534E+05 -8.041050E+04 -9.844084E+04  1.946928E+04 -6.455111E-10  1.085906E-08
       440  16 -2.653777E+05  7.552446E+04  3.911183E+04  3.183372E+04  1.235715E-10  7.047744E-09
       440  17 -2.178866E+05  8.393166E+04  3.010523E+04  1.580347E+02 -3.018799E-09  7.840329E-09
       440  18 -1.934213E+05  9.154134E+03 -1.042341E+04 -1.411883E+04 -4.303978E-09 -3.434353E-09
       440  19 -8.431836E+05 -6.655018E+04 -9.209511E+04  6.561143E+03 -1.663336E+04 -1.343387E+04
       440  20 -8.664066E+05 -7.540989E+04 -1.185489E+05  2.110077E+04 -4.733530E+04 -1.369496E+04
       440  21 -9.151575E+05 -1.699788E+05 -1.864556E+05  5.303802E+04 -7.806415E+04 -4.655223E+03
       440  22 -5.543193E+05  4.489910E+03 -2.648829E+04  1.919462E+04 -2.032822E+04 -1.344640E+04
       440  23 -5.421946E+05  4.264645E+03 -4.421673E+04  1.063243E+04 -4.390426E+04 -1.368233E+04
       440  24 -5.543485E+05 -8.040926E+04 -9.843223E+04  1.946953E+04 -6.750945E+04 -4.617308E+03
       440  25 -2.653770E+05  7.552481E+04  3.911325E+04  3.183398E+04 -2.402479E+04 -1.345907E+04
       440  26 -2.178848E+05  8.393230E+04  3.010866E+04  1.584803E+02 -4.047143E+04 -1.366981E+04
       440  27 -1.934178E+05  9.155028E+03 -1.041727E+04 -1.411862E+04 -5.694861E+04 -4.580547E+03
