    1C
    1UUSER                                                              
    1UDATE              11.october.2022                                 
    1UTIME              17:32:48                                        
    1UHOST                                                              
    1UPGM               CalculiX                                        
    1UVERSION           Version 2.20                             
    1UCOMPILETIME       Sun Jul 31 18:08:37 CEST 2022                    
    1UDIR                                                               
    1UDBN                                                               
    1UMAT    1MESH_MATERIAL                                             
    2C                           841                                     1
 -1         1 0.00000E+00 0.00000E+00 0.00000E+00
 -1         2 1.66667E-02 0.00000E+00 0.00000E+00
 -1         3 3.33333E-02 0.00000E+00 0.00000E+00
 -1         4 5.00000E-02 0.00000E+00 0.00000E+00
 -1         5 6.66667E-02 0.00000E+00 0.00000E+00
 -1         8 0.00000E+00 6.25000E-03 0.00000E+00
 -1         9 1.66667E-02 6.25000E-03 0.00000E+00
 -1        10 3.33333E-02 6.25000E-03 0.00000E+00
 -1        11 5.00000E-02 6.25000E-03 0.00000E+00
 -1        12 6.66667E-02 6.25000E-03 0.00000E+00
 -1        15 0.00000E+00 1.25000E-02 0.00000E+00
 -1        16 1.66667E-02 1.25000E-02 0.00000E+00
 -1        17 3.33333E-02 1.25000E-02 0.00000E+00
 -1        18 5.00000E-02 1.25000E-02 0.00000E+00
 -1        19 6.66667E-02 1.25000E-02 0.00000E+00
 -1        20 8.33333E-02 1.25000E-02 0.00000E+00
 -1        21 1.00000E-01 1.25000E-02 0.00000E+00
 -1        22 0.00000E+00 1.87500E-02 0.00000E+00
 -1        23 1.66667E-02 1.87500E-02 0.00000E+00
 -1        24 3.33333E-02 1.87500E-02 0.00000E+00
 -1        25 5.00000E-02 1.87500E-02 0.00000E+00
 -1        26 6.66667E-02 1.87500E-02 0.00000E+00
 -1        27 8.33333E-02 1.87500E-02 0.00000E+00
 -1        28 1.00000E-01 1.87500E-02 0.00000E+00
 -1        29 0.00000E+00 2.50000E-02 0.00000E+00
 -1        30 1.66667E-02 2.50000E-02 0.00000E+00
 -1        31 3.33333E-02 2.50000E-02 0.00000E+00
 -1        32 5.00000E-02 2.50000E-02 0.00000E+00
 -1        33 6.66667E-02 2.50000E-02 0.00000E+00
 -1        34 8.33333E-02 2.50000E-02 0.00000E+00
 -1        35 1.00000E-01 2.50000E-02 0.00000E+00
 -1        36 1.04167E-03 0.00000E+00 0.00000E+00
 -1        37 2.08333E-03 0.00000E+00 0.00000E+00
 -1        38 3.12500E-03 0.00000E+00 0.00000E+00
 -1        39 4.16667E-03 0.00000E+00 0.00000E+00
 -1        40 5.20833E-03 0.00000E+00 0.00000E+00
 -1        41 6.25000E-03 0.00000E+00 0.00000E+00
 -1        42 7.29167E-03 0.00000E+00 0.00000E+00
 -1        43 8.33333E-03 0.00000E+00 0.00000E+00
 -1        44 9.37500E-03 0.00000E+00 0.00000E+00
 -1        45 1.04167E-02 0.00000E+00 0.00000E+00
 -1        46 1.14583E-02 0.00000E+00 0.00000E+00
 -1        47 1.25000E-02 0.00000E+00 0.00000E+00
 -1        48 1.35417E-02 0.00000E+00 0.00000E+00
 -1        49 1.45833E-02 0.00000E+00 0.00000E+00
 -1        50 1.56250E-02 0.00000E+00 0.00000E+00
 -1        51 0.00000E+00 1.04167E-03 0.00000E+00
 -1        52 0.00000E+00 2.08333E-03 0.00000E+00
 -1        53 0.00000E+00 3.12500E-03 0.00000E+00
 -1        54 0.00000E+00 4.16667E-03 0.00000E+00
 -1        55 0.00000E+00 5.20833E-03 0.00000E+00
 -1        56 1.04167E-03 3.90630E-04 0.00000E+00
 -1        57 2.08333E-03 7.81250E-04 0.00000E+00
 -1        58 3.12500E-03 1.17188E-03 0.00000E+00
 -1        59 4.16667E-03 1.56250E-03 0.00000E+00
 -1        60 5.20833E-03 1.95312E-03 0.00000E+00
 -1        61 6.25000E-03 2.34375E-03 0.00000E+00
 -1        62 7.29167E-03 2.73438E-03 0.00000E+00
 -1        63 8.33333E-03 3.12500E-03 0.00000E+00
 -1        64 9.37500E-03 3.51563E-03 0.00000E+00
 -1        65 1.04167E-02 3.90625E-03 0.00000E+00
 -1        66 1.14583E-02 4.29688E-03 0.00000E+00
 -1        67 1.25000E-02 4.68750E-03 0.00000E+00
 -1        68 1.35417E-02 5.07813E-03 0.00000E+00
 -1        69 1.45833E-02 5.46875E-03 0.00000E+00
 -1        70 1.56250E-02 5.85938E-03 0.00000E+00
 -1        71 1.77083E-02 0.00000E+00 0.00000E+00
 -1        72 1.87500E-02 0.00000E+00 0.00000E+00
 -1        73 1.97917E-02 0.00000E+00 0.00000E+00
 -1        74 2.08333E-02 0.00000E+00 0.00000E+00
 -1        75 2.18750E-02 0.00000E+00 0.00000E+00
 -1        76 2.29167E-02 0.00000E+00 0.00000E+00
 -1        77 2.39583E-02 0.00000E+00 0.00000E+00
 -1        78 2.50000E-02 0.00000E+00 0.00000E+00
 -1        79 2.60417E-02 0.00000E+00 0.00000E+00
 -1        80 2.70833E-02 0.00000E+00 0.00000E+00
 -1        81 2.81250E-02 0.00000E+00 0.00000E+00
 -1        82 2.91667E-02 0.00000E+00 0.00000E+00
 -1        83 3.02083E-02 0.00000E+00 0.00000E+00
 -1        84 3.12500E-02 0.00000E+00 0.00000E+00
 -1        85 3.22917E-02 0.00000E+00 0.00000E+00
 -1        86 1.66667E-02 1.04167E-03 0.00000E+00
 -1        87 1.66667E-02 2.08333E-03 0.00000E+00
 -1        88 1.66667E-02 3.12500E-03 0.00000E+00
 -1        89 1.66667E-02 4.16667E-03 0.00000E+00
 -1        90 1.66667E-02 5.20833E-03 0.00000E+00
 -1        91 1.77083E-02 3.90630E-04 0.00000E+00
 -1        92 1.87500E-02 7.81250E-04 0.00000E+00
 -1        93 1.97917E-02 1.17188E-03 0.00000E+00
 -1        94 2.08333E-02 1.56250E-03 0.00000E+00
 -1        95 2.18750E-02 1.95312E-03 0.00000E+00
 -1        96 2.29167E-02 2.34375E-03 0.00000E+00
 -1        97 2.39583E-02 2.73438E-03 0.00000E+00
 -1        98 2.50000E-02 3.12500E-03 0.00000E+00
 -1        99 2.60417E-02 3.51563E-03 0.00000E+00
 -1       100 2.70833E-02 3.90625E-03 0.00000E+00
 -1       101 2.81250E-02 4.29688E-03 0.00000E+00
 -1       102 2.91667E-02 4.68750E-03 0.00000E+00
 -1       103 3.02083E-02 5.07813E-03 0.00000E+00
 -1       104 3.12500E-02 5.46875E-03 0.00000E+00
 -1       105 3.22917E-02 5.85938E-03 0.00000E+00
 -1       106 3.43750E-02 0.00000E+00 0.00000E+00
 -1       107 3.54167E-02 0.00000E+00 0.00000E+00
 -1       108 3.64583E-02 0.00000E+00 0.00000E+00
 -1       109 3.75000E-02 0.00000E+00 0.00000E+00
 -1       110 3.85417E-02 0.00000E+00 0.00000E+00
 -1       111 3.95833E-02 0.00000E+00 0.00000E+00
 -1       112 4.06250E-02 0.00000E+00 0.00000E+00
 -1       113 4.16667E-02 0.00000E+00 0.00000E+00
 -1       114 4.27083E-02 0.00000E+00 0.00000E+00
 -1       115 4.37500E-02 0.00000E+00 0.00000E+00
 -1       116 4.47917E-02 0.00000E+00 0.00000E+00
 -1       117 4.58333E-02 0.00000E+00 0.00000E+00
 -1       118 4.68750E-02 0.00000E+00 0.00000E+00
 -1       119 4.79167E-02 0.00000E+00 0.00000E+00
 -1       120 4.89583E-02 0.00000E+00 0.00000E+00
 -1       121 3.33333E-02 1.04167E-03 0.00000E+00
 -1       122 3.33333E-02 2.08333E-03 0.00000E+00
 -1       123 3.33333E-02 3.12500E-03 0.00000E+00
 -1       124 3.33333E-02 4.16667E-03 0.00000E+00
 -1       125 3.33333E-02 5.20833E-03 0.00000E+00
 -1       126 3.43750E-02 3.90630E-04 0.00000E+00
 -1       127 3.54167E-02 7.81250E-04 0.00000E+00
 -1       128 3.64583E-02 1.17188E-03 0.00000E+00
 -1       129 3.75000E-02 1.56250E-03 0.00000E+00
 -1       130 3.85417E-02 1.95312E-03 0.00000E+00
 -1       131 3.95833E-02 2.34375E-03 0.00000E+00
 -1       132 4.06250E-02 2.73438E-03 0.00000E+00
 -1       133 4.16667E-02 3.12500E-03 0.00000E+00
 -1       134 4.27083E-02 3.51563E-03 0.00000E+00
 -1       135 4.37500E-02 3.90625E-03 0.00000E+00
 -1       136 4.47917E-02 4.29688E-03 0.00000E+00
 -1       137 4.58333E-02 4.68750E-03 0.00000E+00
 -1       138 4.68750E-02 5.07813E-03 0.00000E+00
 -1       139 4.79167E-02 5.46875E-03 0.00000E+00
 -1       140 4.89583E-02 5.85938E-03 0.00000E+00
 -1       141 5.10417E-02 0.00000E+00 0.00000E+00
 -1       142 5.20833E-02 0.00000E+00 0.00000E+00
 -1       143 5.31250E-02 0.00000E+00 0.00000E+00
 -1       144 5.41667E-02 0.00000E+00 0.00000E+00
 -1       145 5.52083E-02 0.00000E+00 0.00000E+00
 -1       146 5.62500E-02 0.00000E+00 0.00000E+00
 -1       147 5.72917E-02 0.00000E+00 0.00000E+00
 -1       148 5.83333E-02 0.00000E+00 0.00000E+00
 -1       149 5.93750E-02 0.00000E+00 0.00000E+00
 -1       150 6.04167E-02 0.00000E+00 0.00000E+00
 -1       151 6.14583E-02 0.00000E+00 0.00000E+00
 -1       152 6.25000E-02 0.00000E+00 0.00000E+00
 -1       153 6.35417E-02 0.00000E+00 0.00000E+00
 -1       154 6.45833E-02 0.00000E+00 0.00000E+00
 -1       155 6.56250E-02 0.00000E+00 0.00000E+00
 -1       156 5.00000E-02 1.04167E-03 0.00000E+00
 -1       157 5.00000E-02 2.08333E-03 0.00000E+00
 -1       158 5.00000E-02 3.12500E-03 0.00000E+00
 -1       159 5.00000E-02 4.16667E-03 0.00000E+00
 -1       160 5.00000E-02 5.20833E-03 0.00000E+00
 -1       161 5.10417E-02 3.90630E-04 0.00000E+00
 -1       162 5.20833E-02 7.81250E-04 0.00000E+00
 -1       163 5.31250E-02 1.17188E-03 0.00000E+00
 -1       164 5.41667E-02 1.56250E-03 0.00000E+00
 -1       165 5.52083E-02 1.95312E-03 0.00000E+00
 -1       166 5.62500E-02 2.34375E-03 0.00000E+00
 -1       167 5.72917E-02 2.73438E-03 0.00000E+00
 -1       168 5.83333E-02 3.12500E-03 0.00000E+00
 -1       169 5.93750E-02 3.51563E-03 0.00000E+00
 -1       170 6.04167E-02 3.90625E-03 0.00000E+00
 -1       171 6.14583E-02 4.29688E-03 0.00000E+00
 -1       172 6.25000E-02 4.68750E-03 0.00000E+00
 -1       173 6.35417E-02 5.07813E-03 0.00000E+00
 -1       174 6.45833E-02 5.46875E-03 0.00000E+00
 -1       175 6.56250E-02 5.85938E-03 0.00000E+00
 -1       191 6.66667E-02 1.04167E-03 0.00000E+00
 -1       192 6.66667E-02 2.08333E-03 0.00000E+00
 -1       193 6.66667E-02 3.12500E-03 0.00000E+00
 -1       194 6.66667E-02 4.16667E-03 0.00000E+00
 -1       195 6.66667E-02 5.20833E-03 0.00000E+00
 -1       251 1.04167E-03 6.25000E-03 0.00000E+00
 -1       252 2.08333E-03 6.25000E-03 0.00000E+00
 -1       253 3.12500E-03 6.25000E-03 0.00000E+00
 -1       254 4.16667E-03 6.25000E-03 0.00000E+00
 -1       255 5.20833E-03 6.25000E-03 0.00000E+00
 -1       256 6.25000E-03 6.25000E-03 0.00000E+00
 -1       257 7.29167E-03 6.25000E-03 0.00000E+00
 -1       258 8.33333E-03 6.25000E-03 0.00000E+00
 -1       259 9.37500E-03 6.25000E-03 0.00000E+00
 -1       260 1.04167E-02 6.25000E-03 0.00000E+00
 -1       261 1.14583E-02 6.25000E-03 0.00000E+00
 -1       262 1.25000E-02 6.25000E-03 0.00000E+00
 -1       263 1.35417E-02 6.25000E-03 0.00000E+00
 -1       264 1.45833E-02 6.25000E-03 0.00000E+00
 -1       265 1.56250E-02 6.25000E-03 0.00000E+00
 -1       266 0.00000E+00 7.29167E-03 0.00000E+00
 -1       267 0.00000E+00 8.33333E-03 0.00000E+00
 -1       268 0.00000E+00 9.37500E-03 0.00000E+00
 -1       269 0.00000E+00 1.04167E-02 0.00000E+00
 -1       270 0.00000E+00 1.14583E-02 0.00000E+00
 -1       271 1.04167E-03 6.64063E-03 0.00000E+00
 -1       272 2.08333E-03 7.03125E-03 0.00000E+00
 -1       273 3.12500E-03 7.42188E-03 0.00000E+00
 -1       274 4.16667E-03 7.81250E-03 0.00000E+00
 -1       275 5.20833E-03 8.20313E-03 0.00000E+00
 -1       276 6.25000E-03 8.59375E-03 0.00000E+00
 -1       277 7.29167E-03 8.98438E-03 0.00000E+00
 -1       278 8.33333E-03 9.37500E-03 0.00000E+00
 -1       279 9.37500E-03 9.76562E-03 0.00000E+00
 -1       280 1.04167E-02 1.01562E-02 0.00000E+00
 -1       281 1.14583E-02 1.05469E-02 0.00000E+00
 -1       282 1.25000E-02 1.09375E-02 0.00000E+00
 -1       283 1.35417E-02 1.13281E-02 0.00000E+00
 -1       284 1.45833E-02 1.17188E-02 0.00000E+00
 -1       285 1.56250E-02 1.21094E-02 0.00000E+00
 -1       286 1.77083E-02 6.25000E-03 0.00000E+00
 -1       287 1.87500E-02 6.25000E-03 0.00000E+00
 -1       288 1.97917E-02 6.25000E-03 0.00000E+00
 -1       289 2.08333E-02 6.25000E-03 0.00000E+00
 -1       290 2.18750E-02 6.25000E-03 0.00000E+00
 -1       291 2.29167E-02 6.25000E-03 0.00000E+00
 -1       292 2.39583E-02 6.25000E-03 0.00000E+00
 -1       293 2.50000E-02 6.25000E-03 0.00000E+00
 -1       294 2.60417E-02 6.25000E-03 0.00000E+00
 -1       295 2.70833E-02 6.25000E-03 0.00000E+00
 -1       296 2.81250E-02 6.25000E-03 0.00000E+00
 -1       297 2.91667E-02 6.25000E-03 0.00000E+00
 -1       298 3.02083E-02 6.25000E-03 0.00000E+00
 -1       299 3.12500E-02 6.25000E-03 0.00000E+00
 -1       300 3.22917E-02 6.25000E-03 0.00000E+00
 -1       301 1.66667E-02 7.29167E-03 0.00000E+00
 -1       302 1.66667E-02 8.33333E-03 0.00000E+00
 -1       303 1.66667E-02 9.37500E-03 0.00000E+00
 -1       304 1.66667E-02 1.04167E-02 0.00000E+00
 -1       305 1.66667E-02 1.14583E-02 0.00000E+00
 -1       306 1.77083E-02 6.64063E-03 0.00000E+00
 -1       307 1.87500E-02 7.03125E-03 0.00000E+00
 -1       308 1.97917E-02 7.42188E-03 0.00000E+00
 -1       309 2.08333E-02 7.81250E-03 0.00000E+00
 -1       310 2.18750E-02 8.20313E-03 0.00000E+00
 -1       311 2.29167E-02 8.59375E-03 0.00000E+00
 -1       312 2.39583E-02 8.98438E-03 0.00000E+00
 -1       313 2.50000E-02 9.37500E-03 0.00000E+00
 -1       314 2.60417E-02 9.76562E-03 0.00000E+00
 -1       315 2.70833E-02 1.01562E-02 0.00000E+00
 -1       316 2.81250E-02 1.05469E-02 0.00000E+00
 -1       317 2.91667E-02 1.09375E-02 0.00000E+00
 -1       318 3.02083E-02 1.13281E-02 0.00000E+00
 -1       319 3.12500E-02 1.17188E-02 0.00000E+00
 -1       320 3.22917E-02 1.21094E-02 0.00000E+00
 -1       321 3.43750E-02 6.25000E-03 0.00000E+00
 -1       322 3.54167E-02 6.25000E-03 0.00000E+00
 -1       323 3.64583E-02 6.25000E-03 0.00000E+00
 -1       324 3.75000E-02 6.25000E-03 0.00000E+00
 -1       325 3.85417E-02 6.25000E-03 0.00000E+00
 -1       326 3.95833E-02 6.25000E-03 0.00000E+00
 -1       327 4.06250E-02 6.25000E-03 0.00000E+00
 -1       328 4.16667E-02 6.25000E-03 0.00000E+00
 -1       329 4.27083E-02 6.25000E-03 0.00000E+00
 -1       330 4.37500E-02 6.25000E-03 0.00000E+00
 -1       331 4.47917E-02 6.25000E-03 0.00000E+00
 -1       332 4.58333E-02 6.25000E-03 0.00000E+00
 -1       333 4.68750E-02 6.25000E-03 0.00000E+00
 -1       334 4.79167E-02 6.25000E-03 0.00000E+00
 -1       335 4.89583E-02 6.25000E-03 0.00000E+00
 -1       336 3.33333E-02 7.29167E-03 0.00000E+00
 -1       337 3.33333E-02 8.33333E-03 0.00000E+00
 -1       338 3.33333E-02 9.37500E-03 0.00000E+00
 -1       339 3.33333E-02 1.04167E-02 0.00000E+00
 -1       340 3.33333E-02 1.14583E-02 0.00000E+00
 -1       341 3.43750E-02 6.64063E-03 0.00000E+00
 -1       342 3.54167E-02 7.03125E-03 0.00000E+00
 -1       343 3.64583E-02 7.42188E-03 0.00000E+00
 -1       344 3.75000E-02 7.81250E-03 0.00000E+00
 -1       345 3.85417E-02 8.20313E-03 0.00000E+00
 -1       346 3.95833E-02 8.59375E-03 0.00000E+00
 -1       347 4.06250E-02 8.98438E-03 0.00000E+00
 -1       348 4.16667E-02 9.37500E-03 0.00000E+00
 -1       349 4.27083E-02 9.76562E-03 0.00000E+00
 -1       350 4.37500E-02 1.01562E-02 0.00000E+00
 -1       351 4.47917E-02 1.05469E-02 0.00000E+00
 -1       352 4.58333E-02 1.09375E-02 0.00000E+00
 -1       353 4.68750E-02 1.13281E-02 0.00000E+00
 -1       354 4.79167E-02 1.17188E-02 0.00000E+00
 -1       355 4.89583E-02 1.21094E-02 0.00000E+00
 -1       356 5.10417E-02 6.25000E-03 0.00000E+00
 -1       357 5.20833E-02 6.25000E-03 0.00000E+00
 -1       358 5.31250E-02 6.25000E-03 0.00000E+00
 -1       359 5.41667E-02 6.25000E-03 0.00000E+00
 -1       360 5.52083E-02 6.25000E-03 0.00000E+00
 -1       361 5.62500E-02 6.25000E-03 0.00000E+00
 -1       362 5.72917E-02 6.25000E-03 0.00000E+00
 -1       363 5.83333E-02 6.25000E-03 0.00000E+00
 -1       364 5.93750E-02 6.25000E-03 0.00000E+00
 -1       365 6.04167E-02 6.25000E-03 0.00000E+00
 -1       366 6.14583E-02 6.25000E-03 0.00000E+00
 -1       367 6.25000E-02 6.25000E-03 0.00000E+00
 -1       368 6.35417E-02 6.25000E-03 0.00000E+00
 -1       369 6.45833E-02 6.25000E-03 0.00000E+00
 -1       370 6.56250E-02 6.25000E-03 0.00000E+00
 -1       371 5.00000E-02 7.29167E-03 0.00000E+00
 -1       372 5.00000E-02 8.33333E-03 0.00000E+00
 -1       373 5.00000E-02 9.37500E-03 0.00000E+00
 -1       374 5.00000E-02 1.04167E-02 0.00000E+00
 -1       375 5.00000E-02 1.14583E-02 0.00000E+00
 -1       376 5.10417E-02 6.64063E-03 0.00000E+00
 -1       377 5.20833E-02 7.03125E-03 0.00000E+00
 -1       378 5.31250E-02 7.42188E-03 0.00000E+00
 -1       379 5.41667E-02 7.81250E-03 0.00000E+00
 -1       380 5.52083E-02 8.20313E-03 0.00000E+00
 -1       381 5.62500E-02 8.59375E-03 0.00000E+00
 -1       382 5.72917E-02 8.98438E-03 0.00000E+00
 -1       383 5.83333E-02 9.37500E-03 0.00000E+00
 -1       384 5.93750E-02 9.76562E-03 0.00000E+00
 -1       385 6.04167E-02 1.01562E-02 0.00000E+00
 -1       386 6.14583E-02 1.05469E-02 0.00000E+00
 -1       387 6.25000E-02 1.09375E-02 0.00000E+00
 -1       388 6.35417E-02 1.13281E-02 0.00000E+00
 -1       389 6.45833E-02 1.17188E-02 0.00000E+00
 -1       390 6.56250E-02 1.21094E-02 0.00000E+00
 -1       406 6.66667E-02 7.29167E-03 0.00000E+00
 -1       407 6.66667E-02 8.33333E-03 0.00000E+00
 -1       408 6.66667E-02 9.37500E-03 0.00000E+00
 -1       409 6.66667E-02 1.04167E-02 0.00000E+00
 -1       410 6.66667E-02 1.14583E-02 0.00000E+00
 -1       466 1.04167E-03 1.25000E-02 0.00000E+00
 -1       467 2.08333E-03 1.25000E-02 0.00000E+00
 -1       468 3.12500E-03 1.25000E-02 0.00000E+00
 -1       469 4.16667E-03 1.25000E-02 0.00000E+00
 -1       470 5.20833E-03 1.25000E-02 0.00000E+00
 -1       471 6.25000E-03 1.25000E-02 0.00000E+00
 -1       472 7.29167E-03 1.25000E-02 0.00000E+00
 -1       473 8.33333E-03 1.25000E-02 0.00000E+00
 -1       474 9.37500E-03 1.25000E-02 0.00000E+00
 -1       475 1.04167E-02 1.25000E-02 0.00000E+00
 -1       476 1.14583E-02 1.25000E-02 0.00000E+00
 -1       477 1.25000E-02 1.25000E-02 0.00000E+00
 -1       478 1.35417E-02 1.25000E-02 0.00000E+00
 -1       479 1.45833E-02 1.25000E-02 0.00000E+00
 -1       480 1.56250E-02 1.25000E-02 0.00000E+00
 -1       481 0.00000E+00 1.35417E-02 0.00000E+00
 -1       482 0.00000E+00 1.45833E-02 0.00000E+00
 -1       483 0.00000E+00 1.56250E-02 0.00000E+00
 -1       484 0.00000E+00 1.66667E-02 0.00000E+00
 -1       485 0.00000E+00 1.77083E-02 0.00000E+00
 -1       486 1.04167E-03 1.28906E-02 0.00000E+00
 -1       487 2.08333E-03 1.32813E-02 0.00000E+00
 -1       488 3.12500E-03 1.36719E-02 0.00000E+00
 -1       489 4.16667E-03 1.40625E-02 0.00000E+00
 -1       490 5.20833E-03 1.44531E-02 0.00000E+00
 -1       491 6.25000E-03 1.48437E-02 0.00000E+00
 -1       492 7.29167E-03 1.52344E-02 0.00000E+00
 -1       493 8.33333E-03 1.56250E-02 0.00000E+00
 -1       494 9.37500E-03 1.60156E-02 0.00000E+00
 -1       495 1.04167E-02 1.64062E-02 0.00000E+00
 -1       496 1.14583E-02 1.67969E-02 0.00000E+00
 -1       497 1.25000E-02 1.71875E-02 0.00000E+00
 -1       498 1.35417E-02 1.75781E-02 0.00000E+00
 -1       499 1.45833E-02 1.79687E-02 0.00000E+00
 -1       500 1.56250E-02 1.83594E-02 0.00000E+00
 -1       501 1.77083E-02 1.25000E-02 0.00000E+00
 -1       502 1.87500E-02 1.25000E-02 0.00000E+00
 -1       503 1.97917E-02 1.25000E-02 0.00000E+00
 -1       504 2.08333E-02 1.25000E-02 0.00000E+00
 -1       505 2.18750E-02 1.25000E-02 0.00000E+00
 -1       506 2.29167E-02 1.25000E-02 0.00000E+00
 -1       507 2.39583E-02 1.25000E-02 0.00000E+00
 -1       508 2.50000E-02 1.25000E-02 0.00000E+00
 -1       509 2.60417E-02 1.25000E-02 0.00000E+00
 -1       510 2.70833E-02 1.25000E-02 0.00000E+00
 -1       511 2.81250E-02 1.25000E-02 0.00000E+00
 -1       512 2.91667E-02 1.25000E-02 0.00000E+00
 -1       513 3.02083E-02 1.25000E-02 0.00000E+00
 -1       514 3.12500E-02 1.25000E-02 0.00000E+00
 -1       515 3.22917E-02 1.25000E-02 0.00000E+00
 -1       516 1.66667E-02 1.35417E-02 0.00000E+00
 -1       517 1.66667E-02 1.45833E-02 0.00000E+00
 -1       518 1.66667E-02 1.56250E-02 0.00000E+00
 -1       519 1.66667E-02 1.66667E-02 0.00000E+00
 -1       520 1.66667E-02 1.77083E-02 0.00000E+00
 -1       521 1.77083E-02 1.28906E-02 0.00000E+00
 -1       522 1.87500E-02 1.32813E-02 0.00000E+00
 -1       523 1.97917E-02 1.36719E-02 0.00000E+00
 -1       524 2.08333E-02 1.40625E-02 0.00000E+00
 -1       525 2.18750E-02 1.44531E-02 0.00000E+00
 -1       526 2.29167E-02 1.48437E-02 0.00000E+00
 -1       527 2.39583E-02 1.52344E-02 0.00000E+00
 -1       528 2.50000E-02 1.56250E-02 0.00000E+00
 -1       529 2.60417E-02 1.60156E-02 0.00000E+00
 -1       530 2.70833E-02 1.64062E-02 0.00000E+00
 -1       531 2.81250E-02 1.67969E-02 0.00000E+00
 -1       532 2.91667E-02 1.71875E-02 0.00000E+00
 -1       533 3.02083E-02 1.75781E-02 0.00000E+00
 -1       534 3.12500E-02 1.79687E-02 0.00000E+00
 -1       535 3.22917E-02 1.83594E-02 0.00000E+00
 -1       536 3.43750E-02 1.25000E-02 0.00000E+00
 -1       537 3.54167E-02 1.25000E-02 0.00000E+00
 -1       538 3.64583E-02 1.25000E-02 0.00000E+00
 -1       539 3.75000E-02 1.25000E-02 0.00000E+00
 -1       540 3.85417E-02 1.25000E-02 0.00000E+00
 -1       541 3.95833E-02 1.25000E-02 0.00000E+00
 -1       542 4.06250E-02 1.25000E-02 0.00000E+00
 -1       543 4.16667E-02 1.25000E-02 0.00000E+00
 -1       544 4.27083E-02 1.25000E-02 0.00000E+00
 -1       545 4.37500E-02 1.25000E-02 0.00000E+00
 -1       546 4.47917E-02 1.25000E-02 0.00000E+00
 -1       547 4.58333E-02 1.25000E-02 0.00000E+00
 -1       548 4.68750E-02 1.25000E-02 0.00000E+00
 -1       549 4.79167E-02 1.25000E-02 0.00000E+00
 -1       550 4.89583E-02 1.25000E-02 0.00000E+00
 -1       551 3.33333E-02 1.35417E-02 0.00000E+00
 -1       552 3.33333E-02 1.45833E-02 0.00000E+00
 -1       553 3.33333E-02 1.56250E-02 0.00000E+00
 -1       554 3.33333E-02 1.66667E-02 0.00000E+00
 -1       555 3.33333E-02 1.77083E-02 0.00000E+00
 -1       556 3.43750E-02 1.28906E-02 0.00000E+00
 -1       557 3.54167E-02 1.32813E-02 0.00000E+00
 -1       558 3.64583E-02 1.36719E-02 0.00000E+00
 -1       559 3.75000E-02 1.40625E-02 0.00000E+00
 -1       560 3.85417E-02 1.44531E-02 0.00000E+00
 -1       561 3.95833E-02 1.48437E-02 0.00000E+00
 -1       562 4.06250E-02 1.52344E-02 0.00000E+00
 -1       563 4.16667E-02 1.56250E-02 0.00000E+00
 -1       564 4.27083E-02 1.60156E-02 0.00000E+00
 -1       565 4.37500E-02 1.64062E-02 0.00000E+00
 -1       566 4.47917E-02 1.67969E-02 0.00000E+00
 -1       567 4.58333E-02 1.71875E-02 0.00000E+00
 -1       568 4.68750E-02 1.75781E-02 0.00000E+00
 -1       569 4.79167E-02 1.79687E-02 0.00000E+00
 -1       570 4.89583E-02 1.83594E-02 0.00000E+00
 -1       571 5.10417E-02 1.25000E-02 0.00000E+00
 -1       572 5.20833E-02 1.25000E-02 0.00000E+00
 -1       573 5.31250E-02 1.25000E-02 0.00000E+00
 -1       574 5.41667E-02 1.25000E-02 0.00000E+00
 -1       575 5.52083E-02 1.25000E-02 0.00000E+00
 -1       576 5.62500E-02 1.25000E-02 0.00000E+00
 -1       577 5.72917E-02 1.25000E-02 0.00000E+00
 -1       578 5.83333E-02 1.25000E-02 0.00000E+00
 -1       579 5.93750E-02 1.25000E-02 0.00000E+00
 -1       580 6.04167E-02 1.25000E-02 0.00000E+00
 -1       581 6.14583E-02 1.25000E-02 0.00000E+00
 -1       582 6.25000E-02 1.25000E-02 0.00000E+00
 -1       583 6.35417E-02 1.25000E-02 0.00000E+00
 -1       584 6.45833E-02 1.25000E-02 0.00000E+00
 -1       585 6.56250E-02 1.25000E-02 0.00000E+00
 -1       586 5.00000E-02 1.35417E-02 0.00000E+00
 -1       587 5.00000E-02 1.45833E-02 0.00000E+00
 -1       588 5.00000E-02 1.56250E-02 0.00000E+00
 -1       589 5.00000E-02 1.66667E-02 0.00000E+00
 -1       590 5.00000E-02 1.77083E-02 0.00000E+00
 -1       591 5.10417E-02 1.28906E-02 0.00000E+00
 -1       592 5.20833E-02 1.32813E-02 0.00000E+00
 -1       593 5.31250E-02 1.36719E-02 0.00000E+00
 -1       594 5.41667E-02 1.40625E-02 0.00000E+00
 -1       595 5.52083E-02 1.44531E-02 0.00000E+00
 -1       596 5.62500E-02 1.48437E-02 0.00000E+00
 -1       597 5.72917E-02 1.52344E-02 0.00000E+00
 -1       598 5.83333E-02 1.56250E-02 0.00000E+00
 -1       599 5.93750E-02 1.60156E-02 0.00000E+00
 -1       600 6.04167E-02 1.64062E-02 0.00000E+00
 -1       601 6.14583E-02 1.67969E-02 0.00000E+00
 -1       602 6.25000E-02 1.71875E-02 0.00000E+00
 -1       603 6.35417E-02 1.75781E-02 0.00000E+00
 -1       604 6.45833E-02 1.79687E-02 0.00000E+00
 -1       605 6.56250E-02 1.83594E-02 0.00000E+00
 -1       606 6.77083E-02 1.25000E-02 0.00000E+00
 -1       607 6.87500E-02 1.25000E-02 0.00000E+00
 -1       608 6.97917E-02 1.25000E-02 0.00000E+00
 -1       609 7.08333E-02 1.25000E-02 0.00000E+00
 -1       610 7.18750E-02 1.25000E-02 0.00000E+00
 -1       611 7.29167E-02 1.25000E-02 0.00000E+00
 -1       612 7.39583E-02 1.25000E-02 0.00000E+00
 -1       613 7.50000E-02 1.25000E-02 0.00000E+00
 -1       614 7.60417E-02 1.25000E-02 0.00000E+00
 -1       615 7.70833E-02 1.25000E-02 0.00000E+00
 -1       616 7.81250E-02 1.25000E-02 0.00000E+00
 -1       617 7.91667E-02 1.25000E-02 0.00000E+00
 -1       618 8.02083E-02 1.25000E-02 0.00000E+00
 -1       619 8.12500E-02 1.25000E-02 0.00000E+00
 -1       620 8.22917E-02 1.25000E-02 0.00000E+00
 -1       621 6.66667E-02 1.35417E-02 0.00000E+00
 -1       622 6.66667E-02 1.45833E-02 0.00000E+00
 -1       623 6.66667E-02 1.56250E-02 0.00000E+00
 -1       624 6.66667E-02 1.66667E-02 0.00000E+00
 -1       625 6.66667E-02 1.77083E-02 0.00000E+00
 -1       626 6.77083E-02 1.28906E-02 0.00000E+00
 -1       627 6.87500E-02 1.32813E-02 0.00000E+00
 -1       628 6.97917E-02 1.36719E-02 0.00000E+00
 -1       629 7.08333E-02 1.40625E-02 0.00000E+00
 -1       630 7.18750E-02 1.44531E-02 0.00000E+00
 -1       631 7.29167E-02 1.48437E-02 0.00000E+00
 -1       632 7.39583E-02 1.52344E-02 0.00000E+00
 -1       633 7.50000E-02 1.56250E-02 0.00000E+00
 -1       634 7.60417E-02 1.60156E-02 0.00000E+00
 -1       635 7.70833E-02 1.64062E-02 0.00000E+00
 -1       636 7.81250E-02 1.67969E-02 0.00000E+00
 -1       637 7.91667E-02 1.71875E-02 0.00000E+00
 -1       638 8.02083E-02 1.75781E-02 0.00000E+00
 -1       639 8.12500E-02 1.79687E-02 0.00000E+00
 -1       640 8.22917E-02 1.83594E-02 0.00000E+00
 -1       641 8.43750E-02 1.25000E-02 0.00000E+00
 -1       642 8.54167E-02 1.25000E-02 0.00000E+00
 -1       643 8.64583E-02 1.25000E-02 0.00000E+00
 -1       644 8.75000E-02 1.25000E-02 0.00000E+00
 -1       645 8.85417E-02 1.25000E-02 0.00000E+00
 -1       646 8.95833E-02 1.25000E-02 0.00000E+00
 -1       647 9.06250E-02 1.25000E-02 0.00000E+00
 -1       648 9.16667E-02 1.25000E-02 0.00000E+00
 -1       649 9.27083E-02 1.25000E-02 0.00000E+00
 -1       650 9.37500E-02 1.25000E-02 0.00000E+00
 -1       651 9.47917E-02 1.25000E-02 0.00000E+00
 -1       652 9.58333E-02 1.25000E-02 0.00000E+00
 -1       653 9.68750E-02 1.25000E-02 0.00000E+00
 -1       654 9.79167E-02 1.25000E-02 0.00000E+00
 -1       655 9.89583E-02 1.25000E-02 0.00000E+00
 -1       656 8.33333E-02 1.35417E-02 0.00000E+00
 -1       657 8.33333E-02 1.45833E-02 0.00000E+00
 -1       658 8.33333E-02 1.56250E-02 0.00000E+00
 -1       659 8.33333E-02 1.66667E-02 0.00000E+00
 -1       660 8.33333E-02 1.77083E-02 0.00000E+00
 -1       661 8.43750E-02 1.28906E-02 0.00000E+00
 -1       662 8.54167E-02 1.32813E-02 0.00000E+00
 -1       663 8.64583E-02 1.36719E-02 0.00000E+00
 -1       664 8.75000E-02 1.40625E-02 0.00000E+00
 -1       665 8.85417E-02 1.44531E-02 0.00000E+00
 -1       666 8.95833E-02 1.48437E-02 0.00000E+00
 -1       667 9.06250E-02 1.52344E-02 0.00000E+00
 -1       668 9.16667E-02 1.56250E-02 0.00000E+00
 -1       669 9.27083E-02 1.60156E-02 0.00000E+00
 -1       670 9.37500E-02 1.64062E-02 0.00000E+00
 -1       671 9.47917E-02 1.67969E-02 0.00000E+00
 -1       672 9.58333E-02 1.71875E-02 0.00000E+00
 -1       673 9.68750E-02 1.75781E-02 0.00000E+00
 -1       674 9.79167E-02 1.79687E-02 0.00000E+00
 -1       675 9.89583E-02 1.83594E-02 0.00000E+00
 -1       676 1.00000E-01 1.35417E-02 0.00000E+00
 -1       677 1.00000E-01 1.45833E-02 0.00000E+00
 -1       678 1.00000E-01 1.56250E-02 0.00000E+00
 -1       679 1.00000E-01 1.66667E-02 0.00000E+00
 -1       680 1.00000E-01 1.77083E-02 0.00000E+00
 -1       681 1.04167E-03 1.87500E-02 0.00000E+00
 -1       682 2.08333E-03 1.87500E-02 0.00000E+00
 -1       683 3.12500E-03 1.87500E-02 0.00000E+00
 -1       684 4.16667E-03 1.87500E-02 0.00000E+00
 -1       685 5.20833E-03 1.87500E-02 0.00000E+00
 -1       686 6.25000E-03 1.87500E-02 0.00000E+00
 -1       687 7.29167E-03 1.87500E-02 0.00000E+00
 -1       688 8.33333E-03 1.87500E-02 0.00000E+00
 -1       689 9.37500E-03 1.87500E-02 0.00000E+00
 -1       690 1.04167E-02 1.87500E-02 0.00000E+00
 -1       691 1.14583E-02 1.87500E-02 0.00000E+00
 -1       692 1.25000E-02 1.87500E-02 0.00000E+00
 -1       693 1.35417E-02 1.87500E-02 0.00000E+00
 -1       694 1.45833E-02 1.87500E-02 0.00000E+00
 -1       695 1.56250E-02 1.87500E-02 0.00000E+00
 -1       696 0.00000E+00 1.97917E-02 0.00000E+00
 -1       697 0.00000E+00 2.08333E-02 0.00000E+00
 -1       698 0.00000E+00 2.18750E-02 0.00000E+00
 -1       699 0.00000E+00 2.29167E-02 0.00000E+00
 -1       700 0.00000E+00 2.39583E-02 0.00000E+00
 -1       701 1.04167E-03 1.91406E-02 0.00000E+00
 -1       702 2.08333E-03 1.95312E-02 0.00000E+00
 -1       703 3.12500E-03 1.99219E-02 0.00000E+00
 -1       704 4.16667E-03 2.03125E-02 0.00000E+00
 -1       705 5.20833E-03 2.07031E-02 0.00000E+00
 -1       706 6.25000E-03 2.10938E-02 0.00000E+00
 -1       707 7.29167E-03 2.14844E-02 0.00000E+00
 -1       708 8.33333E-03 2.18750E-02 0.00000E+00
 -1       709 9.37500E-03 2.22656E-02 0.00000E+00
 -1       710 1.04167E-02 2.26563E-02 0.00000E+00
 -1       711 1.14583E-02 2.30469E-02 0.00000E+00
 -1       712 1.25000E-02 2.34375E-02 0.00000E+00
 -1       713 1.35417E-02 2.38281E-02 0.00000E+00
 -1       714 1.45833E-02 2.42187E-02 0.00000E+00
 -1       715 1.56250E-02 2.46094E-02 0.00000E+00
 -1       716 1.77083E-02 1.87500E-02 0.00000E+00
 -1       717 1.87500E-02 1.87500E-02 0.00000E+00
 -1       718 1.97917E-02 1.87500E-02 0.00000E+00
 -1       719 2.08333E-02 1.87500E-02 0.00000E+00
 -1       720 2.18750E-02 1.87500E-02 0.00000E+00
 -1       721 2.29167E-02 1.87500E-02 0.00000E+00
 -1       722 2.39583E-02 1.87500E-02 0.00000E+00
 -1       723 2.50000E-02 1.87500E-02 0.00000E+00
 -1       724 2.60417E-02 1.87500E-02 0.00000E+00
 -1       725 2.70833E-02 1.87500E-02 0.00000E+00
 -1       726 2.81250E-02 1.87500E-02 0.00000E+00
 -1       727 2.91667E-02 1.87500E-02 0.00000E+00
 -1       728 3.02083E-02 1.87500E-02 0.00000E+00
 -1       729 3.12500E-02 1.87500E-02 0.00000E+00
 -1       730 3.22917E-02 1.87500E-02 0.00000E+00
 -1       731 1.66667E-02 1.97917E-02 0.00000E+00
 -1       732 1.66667E-02 2.08333E-02 0.00000E+00
 -1       733 1.66667E-02 2.18750E-02 0.00000E+00
 -1       734 1.66667E-02 2.29167E-02 0.00000E+00
 -1       735 1.66667E-02 2.39583E-02 0.00000E+00
 -1       736 1.77083E-02 1.91406E-02 0.00000E+00
 -1       737 1.87500E-02 1.95312E-02 0.00000E+00
 -1       738 1.97917E-02 1.99219E-02 0.00000E+00
 -1       739 2.08333E-02 2.03125E-02 0.00000E+00
 -1       740 2.18750E-02 2.07031E-02 0.00000E+00
 -1       741 2.29167E-02 2.10938E-02 0.00000E+00
 -1       742 2.39583E-02 2.14844E-02 0.00000E+00
 -1       743 2.50000E-02 2.18750E-02 0.00000E+00
 -1       744 2.60417E-02 2.22656E-02 0.00000E+00
 -1       745 2.70833E-02 2.26563E-02 0.00000E+00
 -1       746 2.81250E-02 2.30469E-02 0.00000E+00
 -1       747 2.91667E-02 2.34375E-02 0.00000E+00
 -1       748 3.02083E-02 2.38281E-02 0.00000E+00
 -1       749 3.12500E-02 2.42187E-02 0.00000E+00
 -1       750 3.22917E-02 2.46094E-02 0.00000E+00
 -1       751 3.43750E-02 1.87500E-02 0.00000E+00
 -1       752 3.54167E-02 1.87500E-02 0.00000E+00
 -1       753 3.64583E-02 1.87500E-02 0.00000E+00
 -1       754 3.75000E-02 1.87500E-02 0.00000E+00
 -1       755 3.85417E-02 1.87500E-02 0.00000E+00
 -1       756 3.95833E-02 1.87500E-02 0.00000E+00
 -1       757 4.06250E-02 1.87500E-02 0.00000E+00
 -1       758 4.16667E-02 1.87500E-02 0.00000E+00
 -1       759 4.27083E-02 1.87500E-02 0.00000E+00
 -1       760 4.37500E-02 1.87500E-02 0.00000E+00
 -1       761 4.47917E-02 1.87500E-02 0.00000E+00
 -1       762 4.58333E-02 1.87500E-02 0.00000E+00
 -1       763 4.68750E-02 1.87500E-02 0.00000E+00
 -1       764 4.79167E-02 1.87500E-02 0.00000E+00
 -1       765 4.89583E-02 1.87500E-02 0.00000E+00
 -1       766 3.33333E-02 1.97917E-02 0.00000E+00
 -1       767 3.33333E-02 2.08333E-02 0.00000E+00
 -1       768 3.33333E-02 2.18750E-02 0.00000E+00
 -1       769 3.33333E-02 2.29167E-02 0.00000E+00
 -1       770 3.33333E-02 2.39583E-02 0.00000E+00
 -1       771 3.43750E-02 1.91406E-02 0.00000E+00
 -1       772 3.54167E-02 1.95312E-02 0.00000E+00
 -1       773 3.64583E-02 1.99219E-02 0.00000E+00
 -1       774 3.75000E-02 2.03125E-02 0.00000E+00
 -1       775 3.85417E-02 2.07031E-02 0.00000E+00
 -1       776 3.95833E-02 2.10938E-02 0.00000E+00
 -1       777 4.06250E-02 2.14844E-02 0.00000E+00
 -1       778 4.16667E-02 2.18750E-02 0.00000E+00
 -1       779 4.27083E-02 2.22656E-02 0.00000E+00
 -1       780 4.37500E-02 2.26563E-02 0.00000E+00
 -1       781 4.47917E-02 2.30469E-02 0.00000E+00
 -1       782 4.58333E-02 2.34375E-02 0.00000E+00
 -1       783 4.68750E-02 2.38281E-02 0.00000E+00
 -1       784 4.79167E-02 2.42187E-02 0.00000E+00
 -1       785 4.89583E-02 2.46094E-02 0.00000E+00
 -1       786 5.10417E-02 1.87500E-02 0.00000E+00
 -1       787 5.20833E-02 1.87500E-02 0.00000E+00
 -1       788 5.31250E-02 1.87500E-02 0.00000E+00
 -1       789 5.41667E-02 1.87500E-02 0.00000E+00
 -1       790 5.52083E-02 1.87500E-02 0.00000E+00
 -1       791 5.62500E-02 1.87500E-02 0.00000E+00
 -1       792 5.72917E-02 1.87500E-02 0.00000E+00
 -1       793 5.83333E-02 1.87500E-02 0.00000E+00
 -1       794 5.93750E-02 1.87500E-02 0.00000E+00
 -1       795 6.04167E-02 1.87500E-02 0.00000E+00
 -1       796 6.14583E-02 1.87500E-02 0.00000E+00
 -1       797 6.25000E-02 1.87500E-02 0.00000E+00
 -1       798 6.35417E-02 1.87500E-02 0.00000E+00
 -1       799 6.45833E-02 1.87500E-02 0.00000E+00
 -1       800 6.56250E-02 1.87500E-02 0.00000E+00
 -1       801 5.00000E-02 1.97917E-02 0.00000E+00
 -1       802 5.00000E-02 2.08333E-02 0.00000E+00
 -1       803 5.00000E-02 2.18750E-02 0.00000E+00
 -1       804 5.00000E-02 2.29167E-02 0.00000E+00
 -1       805 5.00000E-02 2.39583E-02 0.00000E+00
 -1       806 5.10417E-02 1.91406E-02 0.00000E+00
 -1       807 5.20833E-02 1.95312E-02 0.00000E+00
 -1       808 5.31250E-02 1.99219E-02 0.00000E+00
 -1       809 5.41667E-02 2.03125E-02 0.00000E+00
 -1       810 5.52083E-02 2.07031E-02 0.00000E+00
 -1       811 5.62500E-02 2.10938E-02 0.00000E+00
 -1       812 5.72917E-02 2.14844E-02 0.00000E+00
 -1       813 5.83333E-02 2.18750E-02 0.00000E+00
 -1       814 5.93750E-02 2.22656E-02 0.00000E+00
 -1       815 6.04167E-02 2.26563E-02 0.00000E+00
 -1       816 6.14583E-02 2.30469E-02 0.00000E+00
 -1       817 6.25000E-02 2.34375E-02 0.00000E+00
 -1       818 6.35417E-02 2.38281E-02 0.00000E+00
 -1       819 6.45833E-02 2.42187E-02 0.00000E+00
 -1       820 6.56250E-02 2.46094E-02 0.00000E+00
 -1       821 6.77083E-02 1.87500E-02 0.00000E+00
 -1       822 6.87500E-02 1.87500E-02 0.00000E+00
 -1       823 6.97917E-02 1.87500E-02 0.00000E+00
 -1       824 7.08333E-02 1.87500E-02 0.00000E+00
 -1       825 7.18750E-02 1.87500E-02 0.00000E+00
 -1       826 7.29167E-02 1.87500E-02 0.00000E+00
 -1       827 7.39583E-02 1.87500E-02 0.00000E+00
 -1       828 7.50000E-02 1.87500E-02 0.00000E+00
 -1       829 7.60417E-02 1.87500E-02 0.00000E+00
 -1       830 7.70833E-02 1.87500E-02 0.00000E+00
 -1       831 7.81250E-02 1.87500E-02 0.00000E+00
 -1       832 7.91667E-02 1.87500E-02 0.00000E+00
 -1       833 8.02083E-02 1.87500E-02 0.00000E+00
 -1       834 8.12500E-02 1.87500E-02 0.00000E+00
 -1       835 8.22917E-02 1.87500E-02 0.00000E+00
 -1       836 6.66667E-02 1.97917E-02 0.00000E+00
 -1       837 6.66667E-02 2.08333E-02 0.00000E+00
 -1       838 6.66667E-02 2.18750E-02 0.00000E+00
 -1       839 6.66667E-02 2.29167E-02 0.00000E+00
 -1       840 6.66667E-02 2.39583E-02 0.00000E+00
 -1       841 6.77083E-02 1.91406E-02 0.00000E+00
 -1       842 6.87500E-02 1.95312E-02 0.00000E+00
 -1       843 6.97917E-02 1.99219E-02 0.00000E+00
 -1       844 7.08333E-02 2.03125E-02 0.00000E+00
 -1       845 7.18750E-02 2.07031E-02 0.00000E+00
 -1       846 7.29167E-02 2.10938E-02 0.00000E+00
 -1       847 7.39583E-02 2.14844E-02 0.00000E+00
 -1       848 7.50000E-02 2.18750E-02 0.00000E+00
 -1       849 7.60417E-02 2.22656E-02 0.00000E+00
 -1       850 7.70833E-02 2.26563E-02 0.00000E+00
 -1       851 7.81250E-02 2.30469E-02 0.00000E+00
 -1       852 7.91667E-02 2.34375E-02 0.00000E+00
 -1       853 8.02083E-02 2.38281E-02 0.00000E+00
 -1       854 8.12500E-02 2.42187E-02 0.00000E+00
 -1       855 8.22917E-02 2.46094E-02 0.00000E+00
 -1       856 8.43750E-02 1.87500E-02 0.00000E+00
 -1       857 8.54167E-02 1.87500E-02 0.00000E+00
 -1       858 8.64583E-02 1.87500E-02 0.00000E+00
 -1       859 8.75000E-02 1.87500E-02 0.00000E+00
 -1       860 8.85417E-02 1.87500E-02 0.00000E+00
 -1       861 8.95833E-02 1.87500E-02 0.00000E+00
 -1       862 9.06250E-02 1.87500E-02 0.00000E+00
 -1       863 9.16667E-02 1.87500E-02 0.00000E+00
 -1       864 9.27083E-02 1.87500E-02 0.00000E+00
 -1       865 9.37500E-02 1.87500E-02 0.00000E+00
 -1       866 9.47917E-02 1.87500E-02 0.00000E+00
 -1       867 9.58333E-02 1.87500E-02 0.00000E+00
 -1       868 9.68750E-02 1.87500E-02 0.00000E+00
 -1       869 9.79167E-02 1.87500E-02 0.00000E+00
 -1       870 9.89583E-02 1.87500E-02 0.00000E+00
 -1       871 8.33333E-02 1.97917E-02 0.00000E+00
 -1       872 8.33333E-02 2.08333E-02 0.00000E+00
 -1       873 8.33333E-02 2.18750E-02 0.00000E+00
 -1       874 8.33333E-02 2.29167E-02 0.00000E+00
 -1       875 8.33333E-02 2.39583E-02 0.00000E+00
 -1       876 8.43750E-02 1.91406E-02 0.00000E+00
 -1       877 8.54167E-02 1.95312E-02 0.00000E+00
 -1       878 8.64583E-02 1.99219E-02 0.00000E+00
 -1       879 8.75000E-02 2.03125E-02 0.00000E+00
 -1       880 8.85417E-02 2.07031E-02 0.00000E+00
 -1       881 8.95833E-02 2.10938E-02 0.00000E+00
 -1       882 9.06250E-02 2.14844E-02 0.00000E+00
 -1       883 9.16667E-02 2.18750E-02 0.00000E+00
 -1       884 9.27083E-02 2.22656E-02 0.00000E+00
 -1       885 9.37500E-02 2.26563E-02 0.00000E+00
 -1       886 9.47917E-02 2.30469E-02 0.00000E+00
 -1       887 9.58333E-02 2.34375E-02 0.00000E+00
 -1       888 9.68750E-02 2.38281E-02 0.00000E+00
 -1       889 9.79167E-02 2.42187E-02 0.00000E+00
 -1       890 9.89583E-02 2.46094E-02 0.00000E+00
 -1       891 1.00000E-01 1.97917E-02 0.00000E+00
 -1       892 1.00000E-01 2.08333E-02 0.00000E+00
 -1       893 1.00000E-01 2.18750E-02 0.00000E+00
 -1       894 1.00000E-01 2.29167E-02 0.00000E+00
 -1       895 1.00000E-01 2.39583E-02 0.00000E+00
 -1       896 1.04167E-03 2.50000E-02 0.00000E+00
 -1       897 2.08333E-03 2.50000E-02 0.00000E+00
 -1       898 3.12500E-03 2.50000E-02 0.00000E+00
 -1       899 4.16667E-03 2.50000E-02 0.00000E+00
 -1       900 5.20833E-03 2.50000E-02 0.00000E+00
 -1       901 6.25000E-03 2.50000E-02 0.00000E+00
 -1       902 7.29167E-03 2.50000E-02 0.00000E+00
 -1       903 8.33333E-03 2.50000E-02 0.00000E+00
 -1       904 9.37500E-03 2.50000E-02 0.00000E+00
 -1       905 1.04167E-02 2.50000E-02 0.00000E+00
 -1       906 1.14583E-02 2.50000E-02 0.00000E+00
 -1       907 1.25000E-02 2.50000E-02 0.00000E+00
 -1       908 1.35417E-02 2.50000E-02 0.00000E+00
 -1       909 1.45833E-02 2.50000E-02 0.00000E+00
 -1       910 1.56250E-02 2.50000E-02 0.00000E+00
 -1       911 1.77083E-02 2.50000E-02 0.00000E+00
 -1       912 1.87500E-02 2.50000E-02 0.00000E+00
 -1       913 1.97917E-02 2.50000E-02 0.00000E+00
 -1       914 2.08333E-02 2.50000E-02 0.00000E+00
 -1       915 2.18750E-02 2.50000E-02 0.00000E+00
 -1       916 2.29167E-02 2.50000E-02 0.00000E+00
 -1       917 2.39583E-02 2.50000E-02 0.00000E+00
 -1       918 2.50000E-02 2.50000E-02 0.00000E+00
 -1       919 2.60417E-02 2.50000E-02 0.00000E+00
 -1       920 2.70833E-02 2.50000E-02 0.00000E+00
 -1       921 2.81250E-02 2.50000E-02 0.00000E+00
 -1       922 2.91667E-02 2.50000E-02 0.00000E+00
 -1       923 3.02083E-02 2.50000E-02 0.00000E+00
 -1       924 3.12500E-02 2.50000E-02 0.00000E+00
 -1       925 3.22917E-02 2.50000E-02 0.00000E+00
 -1       926 3.43750E-02 2.50000E-02 0.00000E+00
 -1       927 3.54167E-02 2.50000E-02 0.00000E+00
 -1       928 3.64583E-02 2.50000E-02 0.00000E+00
 -1       929 3.75000E-02 2.50000E-02 0.00000E+00
 -1       930 3.85417E-02 2.50000E-02 0.00000E+00
 -1       931 3.95833E-02 2.50000E-02 0.00000E+00
 -1       932 4.06250E-02 2.50000E-02 0.00000E+00
 -1       933 4.16667E-02 2.50000E-02 0.00000E+00
 -1       934 4.27083E-02 2.50000E-02 0.00000E+00
 -1       935 4.37500E-02 2.50000E-02 0.00000E+00
 -1       936 4.47917E-02 2.50000E-02 0.00000E+00
 -1       937 4.58333E-02 2.50000E-02 0.00000E+00
 -1       938 4.68750E-02 2.50000E-02 0.00000E+00
 -1       939 4.79167E-02 2.50000E-02 0.00000E+00
 -1       940 4.89583E-02 2.50000E-02 0.00000E+00
 -1       941 5.10417E-02 2.50000E-02 0.00000E+00
 -1       942 5.20833E-02 2.50000E-02 0.00000E+00
 -1       943 5.31250E-02 2.50000E-02 0.00000E+00
 -1       944 5.41667E-02 2.50000E-02 0.00000E+00
 -1       945 5.52083E-02 2.50000E-02 0.00000E+00
 -1       946 5.62500E-02 2.50000E-02 0.00000E+00
 -1       947 5.72917E-02 2.50000E-02 0.00000E+00
 -1       948 5.83333E-02 2.50000E-02 0.00000E+00
 -1       949 5.93750E-02 2.50000E-02 0.00000E+00
 -1       950 6.04167E-02 2.50000E-02 0.00000E+00
 -1       951 6.14583E-02 2.50000E-02 0.00000E+00
 -1       952 6.25000E-02 2.50000E-02 0.00000E+00
 -1       953 6.35417E-02 2.50000E-02 0.00000E+00
 -1       954 6.45833E-02 2.50000E-02 0.00000E+00
 -1       955 6.56250E-02 2.50000E-02 0.00000E+00
 -1       956 6.77083E-02 2.50000E-02 0.00000E+00
 -1       957 6.87500E-02 2.50000E-02 0.00000E+00
 -1       958 6.97917E-02 2.50000E-02 0.00000E+00
 -1       959 7.08333E-02 2.50000E-02 0.00000E+00
 -1       960 7.18750E-02 2.50000E-02 0.00000E+00
 -1       961 7.29167E-02 2.50000E-02 0.00000E+00
 -1       962 7.39583E-02 2.50000E-02 0.00000E+00
 -1       963 7.50000E-02 2.50000E-02 0.00000E+00
 -1       964 7.60417E-02 2.50000E-02 0.00000E+00
 -1       965 7.70833E-02 2.50000E-02 0.00000E+00
 -1       966 7.81250E-02 2.50000E-02 0.00000E+00
 -1       967 7.91667E-02 2.50000E-02 0.00000E+00
 -1       968 8.02083E-02 2.50000E-02 0.00000E+00
 -1       969 8.12500E-02 2.50000E-02 0.00000E+00
 -1       970 8.22917E-02 2.50000E-02 0.00000E+00
 -1       971 8.43750E-02 2.50000E-02 0.00000E+00
 -1       972 8.54167E-02 2.50000E-02 0.00000E+00
 -1       973 8.64583E-02 2.50000E-02 0.00000E+00
 -1       974 8.75000E-02 2.50000E-02 0.00000E+00
 -1       975 8.85417E-02 2.50000E-02 0.00000E+00
 -1       976 8.95833E-02 2.50000E-02 0.00000E+00
 -1       977 9.06250E-02 2.50000E-02 0.00000E+00
 -1       978 9.16667E-02 2.50000E-02 0.00000E+00
 -1       979 9.27083E-02 2.50000E-02 0.00000E+00
 -1       980 9.37500E-02 2.50000E-02 0.00000E+00
 -1       981 9.47917E-02 2.50000E-02 0.00000E+00
 -1       982 9.58333E-02 2.50000E-02 0.00000E+00
 -1       983 9.68750E-02 2.50000E-02 0.00000E+00
 -1       984 9.79167E-02 2.50000E-02 0.00000E+00
 -1       985 9.89583E-02 2.50000E-02 0.00000E+00
 -3
    3C                           440                                     1
 -1         1   12    0    1
 -2         1        37        36
 -1         2   12    0    1
 -2        37        39        38
 -1         3   12    0    1
 -2        39        41        40
 -1         4   12    0    1
 -2        41        43        42
 -1         5   12    0    1
 -2        43        45        44
 -1         6   12    0    1
 -2        45        47        46
 -1         7   12    0    1
 -2        47        49        48
 -1         8   12    0    1
 -2        49         2        50
 -1         9   12    0    1
 -2         1        52        51
 -1        10   12    0    1
 -2        52        54        53
 -1        11   12    0    1
 -2        54         8        55
 -1        12   12    0    1
 -2         1        57        56
 -1        13   12    0    1
 -2        57        59        58
 -1        14   12    0    1
 -2        59        61        60
 -1        15   12    0    1
 -2        61        63        62
 -1        16   12    0    1
 -2        63        65        64
 -1        17   12    0    1
 -2        65        67        66
 -1        18   12    0    1
 -2        67        69        68
 -1        19   12    0    1
 -2        69         9        70
 -1        20   12    0    1
 -2         2        72        71
 -1        21   12    0    1
 -2        72        74        73
 -1        22   12    0    1
 -2        74        76        75
 -1        23   12    0    1
 -2        76        78        77
 -1        24   12    0    1
 -2        78        80        79
 -1        25   12    0    1
 -2        80        82        81
 -1        26   12    0    1
 -2        82        84        83
 -1        27   12    0    1
 -2        84         3        85
 -1        28   12    0    1
 -2         2        87        86
 -1        29   12    0    1
 -2        87        89        88
 -1        30   12    0    1
 -2        89         9        90
 -1        31   12    0    1
 -2         2        92        91
 -1        32   12    0    1
 -2        92        94        93
 -1        33   12    0    1
 -2        94        96        95
 -1        34   12    0    1
 -2        96        98        97
 -1        35   12    0    1
 -2        98       100        99
 -1        36   12    0    1
 -2       100       102       101
 -1        37   12    0    1
 -2       102       104       103
 -1        38   12    0    1
 -2       104        10       105
 -1        39   12    0    1
 -2         3       107       106
 -1        40   12    0    1
 -2       107       109       108
 -1        41   12    0    1
 -2       109       111       110
 -1        42   12    0    1
 -2       111       113       112
 -1        43   12    0    1
 -2       113       115       114
 -1        44   12    0    1
 -2       115       117       116
 -1        45   12    0    1
 -2       117       119       118
 -1        46   12    0    1
 -2       119         4       120
 -1        47   12    0    1
 -2         3       122       121
 -1        48   12    0    1
 -2       122       124       123
 -1        49   12    0    1
 -2       124        10       125
 -1        50   12    0    1
 -2         3       127       126
 -1        51   12    0    1
 -2       127       129       128
 -1        52   12    0    1
 -2       129       131       130
 -1        53   12    0    1
 -2       131       133       132
 -1        54   12    0    1
 -2       133       135       134
 -1        55   12    0    1
 -2       135       137       136
 -1        56   12    0    1
 -2       137       139       138
 -1        57   12    0    1
 -2       139        11       140
 -1        58   12    0    1
 -2         4       142       141
 -1        59   12    0    1
 -2       142       144       143
 -1        60   12    0    1
 -2       144       146       145
 -1        61   12    0    1
 -2       146       148       147
 -1        62   12    0    1
 -2       148       150       149
 -1        63   12    0    1
 -2       150       152       151
 -1        64   12    0    1
 -2       152       154       153
 -1        65   12    0    1
 -2       154         5       155
 -1        66   12    0    1
 -2         4       157       156
 -1        67   12    0    1
 -2       157       159       158
 -1        68   12    0    1
 -2       159        11       160
 -1        69   12    0    1
 -2         4       162       161
 -1        70   12    0    1
 -2       162       164       163
 -1        71   12    0    1
 -2       164       166       165
 -1        72   12    0    1
 -2       166       168       167
 -1        73   12    0    1
 -2       168       170       169
 -1        74   12    0    1
 -2       170       172       171
 -1        75   12    0    1
 -2       172       174       173
 -1        76   12    0    1
 -2       174        12       175
 -1        77   12    0    1
 -2         5       192       191
 -1        78   12    0    1
 -2       192       194       193
 -1        79   12    0    1
 -2       194        12       195
 -1        80   12    0    1
 -2         8       252       251
 -1        81   12    0    1
 -2       252       254       253
 -1        82   12    0    1
 -2       254       256       255
 -1        83   12    0    1
 -2       256       258       257
 -1        84   12    0    1
 -2       258       260       259
 -1        85   12    0    1
 -2       260       262       261
 -1        86   12    0    1
 -2       262       264       263
 -1        87   12    0    1
 -2       264         9       265
 -1        88   12    0    1
 -2         8       267       266
 -1        89   12    0    1
 -2       267       269       268
 -1        90   12    0    1
 -2       269        15       270
 -1        91   12    0    1
 -2         8       272       271
 -1        92   12    0    1
 -2       272       274       273
 -1        93   12    0    1
 -2       274       276       275
 -1        94   12    0    1
 -2       276       278       277
 -1        95   12    0    1
 -2       278       280       279
 -1        96   12    0    1
 -2       280       282       281
 -1        97   12    0    1
 -2       282       284       283
 -1        98   12    0    1
 -2       284        16       285
 -1        99   12    0    1
 -2         9       287       286
 -1       100   12    0    1
 -2       287       289       288
 -1       101   12    0    1
 -2       289       291       290
 -1       102   12    0    1
 -2       291       293       292
 -1       103   12    0    1
 -2       293       295       294
 -1       104   12    0    1
 -2       295       297       296
 -1       105   12    0    1
 -2       297       299       298
 -1       106   12    0    1
 -2       299        10       300
 -1       107   12    0    1
 -2         9       302       301
 -1       108   12    0    1
 -2       302       304       303
 -1       109   12    0    1
 -2       304        16       305
 -1       110   12    0    1
 -2         9       307       306
 -1       111   12    0    1
 -2       307       309       308
 -1       112   12    0    1
 -2       309       311       310
 -1       113   12    0    1
 -2       311       313       312
 -1       114   12    0    1
 -2       313       315       314
 -1       115   12    0    1
 -2       315       317       316
 -1       116   12    0    1
 -2       317       319       318
 -1       117   12    0    1
 -2       319        17       320
 -1       118   12    0    1
 -2        10       322       321
 -1       119   12    0    1
 -2       322       324       323
 -1       120   12    0    1
 -2       324       326       325
 -1       121   12    0    1
 -2       326       328       327
 -1       122   12    0    1
 -2       328       330       329
 -1       123   12    0    1
 -2       330       332       331
 -1       124   12    0    1
 -2       332       334       333
 -1       125   12    0    1
 -2       334        11       335
 -1       126   12    0    1
 -2        10       337       336
 -1       127   12    0    1
 -2       337       339       338
 -1       128   12    0    1
 -2       339        17       340
 -1       129   12    0    1
 -2        10       342       341
 -1       130   12    0    1
 -2       342       344       343
 -1       131   12    0    1
 -2       344       346       345
 -1       132   12    0    1
 -2       346       348       347
 -1       133   12    0    1
 -2       348       350       349
 -1       134   12    0    1
 -2       350       352       351
 -1       135   12    0    1
 -2       352       354       353
 -1       136   12    0    1
 -2       354        18       355
 -1       137   12    0    1
 -2        11       357       356
 -1       138   12    0    1
 -2       357       359       358
 -1       139   12    0    1
 -2       359       361       360
 -1       140   12    0    1
 -2       361       363       362
 -1       141   12    0    1
 -2       363       365       364
 -1       142   12    0    1
 -2       365       367       366
 -1       143   12    0    1
 -2       367       369       368
 -1       144   12    0    1
 -2       369        12       370
 -1       145   12    0    1
 -2        11       372       371
 -1       146   12    0    1
 -2       372       374       373
 -1       147   12    0    1
 -2       374        18       375
 -1       148   12    0    1
 -2        11       377       376
 -1       149   12    0    1
 -2       377       379       378
 -1       150   12    0    1
 -2       379       381       380
 -1       151   12    0    1
 -2       381       383       382
 -1       152   12    0    1
 -2       383       385       384
 -1       153   12    0    1
 -2       385       387       386
 -1       154   12    0    1
 -2       387       389       388
 -1       155   12    0    1
 -2       389        19       390
 -1       156   12    0    1
 -2        12       407       406
 -1       157   12    0    1
 -2       407       409       408
 -1       158   12    0    1
 -2       409        19       410
 -1       159   12    0    1
 -2        15       467       466
 -1       160   12    0    1
 -2       467       469       468
 -1       161   12    0    1
 -2       469       471       470
 -1       162   12    0    1
 -2       471       473       472
 -1       163   12    0    1
 -2       473       475       474
 -1       164   12    0    1
 -2       475       477       476
 -1       165   12    0    1
 -2       477       479       478
 -1       166   12    0    1
 -2       479        16       480
 -1       167   12    0    1
 -2        15       482       481
 -1       168   12    0    1
 -2       482       484       483
 -1       169   12    0    1
 -2       484        22       485
 -1       170   12    0    1
 -2        15       487       486
 -1       171   12    0    1
 -2       487       489       488
 -1       172   12    0    1
 -2       489       491       490
 -1       173   12    0    1
 -2       491       493       492
 -1       174   12    0    1
 -2       493       495       494
 -1       175   12    0    1
 -2       495       497       496
 -1       176   12    0    1
 -2       497       499       498
 -1       177   12    0    1
 -2       499        23       500
 -1       178   12    0    1
 -2        16       502       501
 -1       179   12    0    1
 -2       502       504       503
 -1       180   12    0    1
 -2       504       506       505
 -1       181   12    0    1
 -2       506       508       507
 -1       182   12    0    1
 -2       508       510       509
 -1       183   12    0    1
 -2       510       512       511
 -1       184   12    0    1
 -2       512       514       513
 -1       185   12    0    1
 -2       514        17       515
 -1       186   12    0    1
 -2        16       517       516
 -1       187   12    0    1
 -2       517       519       518
 -1       188   12    0    1
 -2       519        23       520
 -1       189   12    0    1
 -2        16       522       521
 -1       190   12    0    1
 -2       522       524       523
 -1       191   12    0    1
 -2       524       526       525
 -1       192   12    0    1
 -2       526       528       527
 -1       193   12    0    1
 -2       528       530       529
 -1       194   12    0    1
 -2       530       532       531
 -1       195   12    0    1
 -2       532       534       533
 -1       196   12    0    1
 -2       534        24       535
 -1       197   12    0    1
 -2        17       537       536
 -1       198   12    0    1
 -2       537       539       538
 -1       199   12    0    1
 -2       539       541       540
 -1       200   12    0    1
 -2       541       543       542
 -1       201   12    0    1
 -2       543       545       544
 -1       202   12    0    1
 -2       545       547       546
 -1       203   12    0    1
 -2       547       549       548
 -1       204   12    0    1
 -2       549        18       550
 -1       205   12    0    1
 -2        17       552       551
 -1       206   12    0    1
 -2       552       554       553
 -1       207   12    0    1
 -2       554        24       555
 -1       208   12    0    1
 -2        17       557       556
 -1       209   12    0    1
 -2       557       559       558
 -1       210   12    0    1
 -2       559       561       560
 -1       211   12    0    1
 -2       561       563       562
 -1       212   12    0    1
 -2       563       565       564
 -1       213   12    0    1
 -2       565       567       566
 -1       214   12    0    1
 -2       567       569       568
 -1       215   12    0    1
 -2       569        25       570
 -1       216   12    0    1
 -2        18       572       571
 -1       217   12    0    1
 -2       572       574       573
 -1       218   12    0    1
 -2       574       576       575
 -1       219   12    0    1
 -2       576       578       577
 -1       220   12    0    1
 -2       578       580       579
 -1       221   12    0    1
 -2       580       582       581
 -1       222   12    0    1
 -2       582       584       583
 -1       223   12    0    1
 -2       584        19       585
 -1       224   12    0    1
 -2        18       587       586
 -1       225   12    0    1
 -2       587       589       588
 -1       226   12    0    1
 -2       589        25       590
 -1       227   12    0    1
 -2        18       592       591
 -1       228   12    0    1
 -2       592       594       593
 -1       229   12    0    1
 -2       594       596       595
 -1       230   12    0    1
 -2       596       598       597
 -1       231   12    0    1
 -2       598       600       599
 -1       232   12    0    1
 -2       600       602       601
 -1       233   12    0    1
 -2       602       604       603
 -1       234   12    0    1
 -2       604        26       605
 -1       235   12    0    1
 -2        19       607       606
 -1       236   12    0    1
 -2       607       609       608
 -1       237   12    0    1
 -2       609       611       610
 -1       238   12    0    1
 -2       611       613       612
 -1       239   12    0    1
 -2       613       615       614
 -1       240   12    0    1
 -2       615       617       616
 -1       241   12    0    1
 -2       617       619       618
 -1       242   12    0    1
 -2       619        20       620
 -1       243   12    0    1
 -2        19       622       621
 -1       244   12    0    1
 -2       622       624       623
 -1       245   12    0    1
 -2       624        26       625
 -1       246   12    0    1
 -2        19       627       626
 -1       247   12    0    1
 -2       627       629       628
 -1       248   12    0    1
 -2       629       631       630
 -1       249   12    0    1
 -2       631       633       632
 -1       250   12    0    1
 -2       633       635       634
 -1       251   12    0    1
 -2       635       637       636
 -1       252   12    0    1
 -2       637       639       638
 -1       253   12    0    1
 -2       639        27       640
 -1       254   12    0    1
 -2        20       642       641
 -1       255   12    0    1
 -2       642       644       643
 -1       256   12    0    1
 -2       644       646       645
 -1       257   12    0    1
 -2       646       648       647
 -1       258   12    0    1
 -2       648       650       649
 -1       259   12    0    1
 -2       650       652       651
 -1       260   12    0    1
 -2       652       654       653
 -1       261   12    0    1
 -2       654        21       655
 -1       262   12    0    1
 -2        20       657       656
 -1       263   12    0    1
 -2       657       659       658
 -1       264   12    0    1
 -2       659        27       660
 -1       265   12    0    1
 -2        20       662       661
 -1       266   12    0    1
 -2       662       664       663
 -1       267   12    0    1
 -2       664       666       665
 -1       268   12    0    1
 -2       666       668       667
 -1       269   12    0    1
 -2       668       670       669
 -1       270   12    0    1
 -2       670       672       671
 -1       271   12    0    1
 -2       672       674       673
 -1       272   12    0    1
 -2       674        28       675
 -1       273   12    0    1
 -2        21       677       676
 -1       274   12    0    1
 -2       677       679       678
 -1       275   12    0    1
 -2       679        28       680
 -1       276   12    0    1
 -2        22       682       681
 -1       277   12    0    1
 -2       682       684       683
 -1       278   12    0    1
 -2       684       686       685
 -1       279   12    0    1
 -2       686       688       687
 -1       280   12    0    1
 -2       688       690       689
 -1       281   12    0    1
 -2       690       692       691
 -1       282   12    0    1
 -2       692       694       693
 -1       283   12    0    1
 -2       694        23       695
 -1       284   12    0    1
 -2        22       697       696
 -1       285   12    0    1
 -2       697       699       698
 -1       286   12    0    1
 -2       699        29       700
 -1       287   12    0    1
 -2        22       702       701
 -1       288   12    0    1
 -2       702       704       703
 -1       289   12    0    1
 -2       704       706       705
 -1       290   12    0    1
 -2       706       708       707
 -1       291   12    0    1
 -2       708       710       709
 -1       292   12    0    1
 -2       710       712       711
 -1       293   12    0    1
 -2       712       714       713
 -1       294   12    0    1
 -2       714        30       715
 -1       295   12    0    1
 -2        23       717       716
 -1       296   12    0    1
 -2       717       719       718
 -1       297   12    0    1
 -2       719       721       720
 -1       298   12    0    1
 -2       721       723       722
 -1       299   12    0    1
 -2       723       725       724
 -1       300   12    0    1
 -2       725       727       726
 -1       301   12    0    1
 -2       727       729       728
 -1       302   12    0    1
 -2       729        24       730
 -1       303   12    0    1
 -2        23       732       731
 -1       304   12    0    1
 -2       732       734       733
 -1       305   12    0    1
 -2       734        30       735
 -1       306   12    0    1
 -2        23       737       736
 -1       307   12    0    1
 -2       737       739       738
 -1       308   12    0    1
 -2       739       741       740
 -1       309   12    0    1
 -2       741       743       742
 -1       310   12    0    1
 -2       743       745       744
 -1       311   12    0    1
 -2       745       747       746
 -1       312   12    0    1
 -2       747       749       748
 -1       313   12    0    1
 -2       749        31       750
 -1       314   12    0    1
 -2        24       752       751
 -1       315   12    0    1
 -2       752       754       753
 -1       316   12    0    1
 -2       754       756       755
 -1       317   12    0    1
 -2       756       758       757
 -1       318   12    0    1
 -2       758       760       759
 -1       319   12    0    1
 -2       760       762       761
 -1       320   12    0    1
 -2       762       764       763
 -1       321   12    0    1
 -2       764        25       765
 -1       322   12    0    1
 -2        24       767       766
 -1       323   12    0    1
 -2       767       769       768
 -1       324   12    0    1
 -2       769        31       770
 -1       325   12    0    1
 -2        24       772       771
 -1       326   12    0    1
 -2       772       774       773
 -1       327   12    0    1
 -2       774       776       775
 -1       328   12    0    1
 -2       776       778       777
 -1       329   12    0    1
 -2       778       780       779
 -1       330   12    0    1
 -2       780       782       781
 -1       331   12    0    1
 -2       782       784       783
 -1       332   12    0    1
 -2       784        32       785
 -1       333   12    0    1
 -2        25       787       786
 -1       334   12    0    1
 -2       787       789       788
 -1       335   12    0    1
 -2       789       791       790
 -1       336   12    0    1
 -2       791       793       792
 -1       337   12    0    1
 -2       793       795       794
 -1       338   12    0    1
 -2       795       797       796
 -1       339   12    0    1
 -2       797       799       798
 -1       340   12    0    1
 -2       799        26       800
 -1       341   12    0    1
 -2        25       802       801
 -1       342   12    0    1
 -2       802       804       803
 -1       343   12    0    1
 -2       804        32       805
 -1       344   12    0    1
 -2        25       807       806
 -1       345   12    0    1
 -2       807       809       808
 -1       346   12    0    1
 -2       809       811       810
 -1       347   12    0    1
 -2       811       813       812
 -1       348   12    0    1
 -2       813       815       814
 -1       349   12    0    1
 -2       815       817       816
 -1       350   12    0    1
 -2       817       819       818
 -1       351   12    0    1
 -2       819        33       820
 -1       352   12    0    1
 -2        26       822       821
 -1       353   12    0    1
 -2       822       824       823
 -1       354   12    0    1
 -2       824       826       825
 -1       355   12    0    1
 -2       826       828       827
 -1       356   12    0    1
 -2       828       830       829
 -1       357   12    0    1
 -2       830       832       831
 -1       358   12    0    1
 -2       832       834       833
 -1       359   12    0    1
 -2       834        27       835
 -1       360   12    0    1
 -2        26       837       836
 -1       361   12    0    1
 -2       837       839       838
 -1       362   12    0    1
 -2       839        33       840
 -1       363   12    0    1
 -2        26       842       841
 -1       364   12    0    1
 -2       842       844       843
 -1       365   12    0    1
 -2       844       846       845
 -1       366   12    0    1
 -2       846       848       847
 -1       367   12    0    1
 -2       848       850       849
 -1       368   12    0    1
 -2       850       852       851
 -1       369   12    0    1
 -2       852       854       853
 -1       370   12    0    1
 -2       854        34       855
 -1       371   12    0    1
 -2        27       857       856
 -1       372   12    0    1
 -2       857       859       858
 -1       373   12    0    1
 -2       859       861       860
 -1       374   12    0    1
 -2       861       863       862
 -1       375   12    0    1
 -2       863       865       864
 -1       376   12    0    1
 -2       865       867       866
 -1       377   12    0    1
 -2       867       869       868
 -1       378   12    0    1
 -2       869        28       870
 -1       379   12    0    1
 -2        27       872       871
 -1       380   12    0    1
 -2       872       874       873
 -1       381   12    0    1
 -2       874        34       875
 -1       382   12    0    1
 -2        27       877       876
 -1       383   12    0    1
 -2       877       879       878
 -1       384   12    0    1
 -2       879       881       880
 -1       385   12    0    1
 -2       881       883       882
 -1       386   12    0    1
 -2       883       885       884
 -1       387   12    0    1
 -2       885       887       886
 -1       388   12    0    1
 -2       887       889       888
 -1       389   12    0    1
 -2       889        35       890
 -1       390   12    0    1
 -2        28       892       891
 -1       391   12    0    1
 -2       892       894       893
 -1       392   12    0    1
 -2       894        35       895
 -1       393   12    0    1
 -2        29       897       896
 -1       394   12    0    1
 -2       897       899       898
 -1       395   12    0    1
 -2       899       901       900
 -1       396   12    0    1
 -2       901       903       902
 -1       397   12    0    1
 -2       903       905       904
 -1       398   12    0    1
 -2       905       907       906
 -1       399   12    0    1
 -2       907       909       908
 -1       400   12    0    1
 -2       909        30       910
 -1       401   12    0    1
 -2        30       912       911
 -1       402   12    0    1
 -2       912       914       913
 -1       403   12    0    1
 -2       914       916       915
 -1       404   12    0    1
 -2       916       918       917
 -1       405   12    0    1
 -2       918       920       919
 -1       406   12    0    1
 -2       920       922       921
 -1       407   12    0    1
 -2       922       924       923
 -1       408   12    0    1
 -2       924        31       925
 -1       409   12    0    1
 -2        31       927       926
 -1       410   12    0    1
 -2       927       929       928
 -1       411   12    0    1
 -2       929       931       930
 -1       412   12    0    1
 -2       931       933       932
 -1       413   12    0    1
 -2       933       935       934
 -1       414   12    0    1
 -2       935       937       936
 -1       415   12    0    1
 -2       937       939       938
 -1       416   12    0    1
 -2       939        32       940
 -1       417   12    0    1
 -2        32       942       941
 -1       418   12    0    1
 -2       942       944       943
 -1       419   12    0    1
 -2       944       946       945
 -1       420   12    0    1
 -2       946       948       947
 -1       421   12    0    1
 -2       948       950       949
 -1       422   12    0    1
 -2       950       952       951
 -1       423   12    0    1
 -2       952       954       953
 -1       424   12    0    1
 -2       954        33       955
 -1       425   12    0    1
 -2        33       957       956
 -1       426   12    0    1
 -2       957       959       958
 -1       427   12    0    1
 -2       959       961       960
 -1       428   12    0    1
 -2       961       963       962
 -1       429   12    0    1
 -2       963       965       964
 -1       430   12    0    1
 -2       965       967       966
 -1       431   12    0    1
 -2       967       969       968
 -1       432   12    0    1
 -2       969        34       970
 -1       433   12    0    1
 -2        34       972       971
 -1       434   12    0    1
 -2       972       974       973
 -1       435   12    0    1
 -2       974       976       975
 -1       436   12    0    1
 -2       976       978       977
 -1       437   12    0    1
 -2       978       980       979
 -1       438   12    0    1
 -2       980       982       981
 -1       439   12    0    1
 -2       982       984       983
 -1       440   12    0    1
 -2       984        35       985
 -3
    1PSTEP                         1           1           1          
  100CL  101 1.000000000         841                     0    1           1
 -4  DISP        4    1
 -5  D1          1    2    1    0
 -5  D2          1    2    2    0
 -5  D3          1    2    3    0
 -5  ALL         1    2    0    0    1ALL
 -1         1 6.75416E-05 0.00000E+00 0.00000E+00
 -1         2 5.39408E-05 0.00000E+00 0.00000E+00
 -1         3 4.90467E-05 0.00000E+00 0.00000E+00
 -1         4 4.80608E-05 0.00000E+00 0.00000E+00
 -1         5 4.81145E-05 0.00000E+00 0.00000E+00
 -1         8 4.27572E-05-1.28699E-06 0.00000E+00
 -1         9 4.43707E-05 1.21649E-06 0.00000E+00
 -1        10 4.41342E-05-1.00420E-06 0.00000E+00
 -1        11 4.47759E-05-2.56983E-07 0.00000E+00
 -1        12 4.58983E-05 3.13368E-06 0.00000E+00
 -1        15 2.03373E-05-1.73483E-06 0.00000E+00
 -1        16 2.63272E-05 1.42735E-06 0.00000E+00
 -1        17 2.87980E-05-2.06662E-06 0.00000E+00
 -1        18 3.38409E-05-5.43732E-07 0.00000E+00
 -1        19 3.83174E-05 6.17842E-06 0.00000E+00
 -1        20 3.95581E-05 5.76528E-05 0.00000E+00
 -1        21 3.95125E-05 1.16185E-04 0.00000E+00
 -1        22 8.82214E-06-1.10511E-06 0.00000E+00
 -1        23 1.14319E-05 1.79850E-06 0.00000E+00
 -1        24 1.36054E-05-2.49353E-06 0.00000E+00
 -1        25 2.09085E-05-3.26546E-07 0.00000E+00
 -1        26 2.58634E-05 8.07550E-06 0.00000E+00
 -1        27 2.25740E-05 5.67375E-05 0.00000E+00
 -1        28 2.05527E-05 1.15360E-04 0.00000E+00
 -1        29 0.00000E+00 0.00000E+00 0.00000E+00
 -1        30 4.29805E-06 2.19525E-06 0.00000E+00
 -1        31 5.34777E-06-1.64917E-06 0.00000E+00
 -1        32 0.00000E+00 0.00000E+00 0.00000E+00
 -1        33 9.26337E-06 1.05097E-05 0.00000E+00
 -1        34 7.06897E-06 5.66155E-05 0.00000E+00
 -1        35 3.91715E-06 1.14902E-04 0.00000E+00
 -1        36 6.67025E-05-3.99032E-21 0.00000E+00
 -1        37 6.58514E-05-1.23812E-20 1.32349E-23
 -1        38 6.50001E-05-9.85999E-21 2.64698E-23
 -1        39 6.41473E-05-2.16390E-21 0.00000E+00
 -1        40 6.32941E-05 8.92693E-21 2.64698E-23
 -1        41 6.24406E-05 1.43929E-20-1.32349E-23
 -1        42 6.15871E-05 2.31147E-20 0.00000E+00
 -1        43 6.07335E-05 3.79709E-20-1.32349E-23
 -1        44 5.98799E-05 4.25568E-20-2.64698E-23
 -1        45 5.90264E-05 4.73677E-20 0.00000E+00
 -1        46 5.81731E-05 4.93132E-20-2.64698E-23
 -1        47 5.73203E-05 4.49920E-20 1.32349E-23
 -1        48 5.64680E-05 2.69462E-20 2.64698E-23
 -1        49 5.56185E-05 1.52731E-20 0.00000E+00
 -1        50 5.47694E-05 6.95493E-21 0.00000E+00
 -1        51 6.59064E-05-2.26163E-07 1.32349E-23
 -1        52 6.28187E-05-4.37259E-07 0.00000E+00
 -1        53 5.86142E-05-6.47931E-07 0.00000E+00
 -1        54 5.36386E-05-8.59486E-07-1.65436E-24
 -1        55 4.82378E-05-1.07234E-06-3.30872E-24
 -1        56 6.63486E-05-5.20480E-07 0.00000E+00
 -1        57 6.51553E-05-1.12918E-06 0.00000E+00
 -1        58 6.39778E-05-1.78070E-06 2.64698E-23
 -1        59 6.27995E-05-2.44129E-06-1.32349E-23
 -1        60 6.16102E-05-3.07468E-06 2.64698E-23
 -1        61 6.03969E-05-3.64599E-06-1.32349E-23
 -1        62 5.91471E-05-4.12050E-06 0.00000E+00
 -1        63 5.78482E-05-4.46436E-06 1.32349E-23
 -1        64 5.64878E-05-4.64440E-06 2.64698E-23
 -1        65 5.50542E-05-4.62865E-06 0.00000E+00
 -1        66 5.35357E-05-4.38617E-06-2.64698E-23
 -1        67 5.19219E-05-3.88752E-06 0.00000E+00
 -1        68 5.02024E-05-3.10481E-06-2.64698E-23
 -1        69 4.83721E-05-2.01060E-06 0.00000E+00
 -1        70 4.64164E-05-5.82655E-07-2.64698E-23
 -1        71 5.36309E-05-4.46678E-22 1.32349E-23
 -1        72 5.33242E-05-6.30312E-21 6.61744E-24
 -1        73 5.30174E-05-8.21059E-21-1.32349E-23
 -1        74 5.27111E-05-1.48479E-20 3.30872E-24
 -1        75 5.24049E-05-1.91128E-20-6.61744E-24
 -1        76 5.20988E-05-1.92336E-20 3.30872E-24
 -1        77 5.17927E-05-2.95651E-20 6.61744E-24
 -1        78 5.14866E-05-3.23361E-20-3.30872E-24
 -1        79 5.11806E-05-3.63083E-20 0.00000E+00
 -1        80 5.08745E-05-3.34992E-20-3.30872E-24
 -1        81 5.05685E-05-2.84798E-20 6.61744E-24
 -1        82 5.02627E-05-2.50967E-20 0.00000E+00
 -1        83 4.99569E-05-1.85156E-20 0.00000E+00
 -1        84 4.96519E-05-1.12645E-20 0.00000E+00
 -1        85 4.93469E-05-5.36840E-21-6.61744E-24
 -1        86 5.35423E-05 1.85794E-07 0.00000E+00
 -1        87 5.25226E-05 3.96262E-07 0.00000E+00
 -1        88 5.09885E-05 6.06141E-07 0.00000E+00
 -1        89 4.90472E-05 8.16165E-07 0.00000E+00
 -1        90 4.68058E-05 1.02596E-06 0.00000E+00
 -1        91 5.34037E-05-2.43022E-07-1.32349E-23
 -1        92 5.28772E-05-5.38532E-07-6.61744E-24
 -1        93 5.23634E-05-8.67799E-07 0.00000E+00
 -1        94 5.18551E-05-1.21516E-06 0.00000E+00
 -1        95 5.13473E-05-1.56426E-06-1.32349E-23
 -1        96 5.08340E-05-1.89904E-06-6.61744E-24
 -1        97 5.03092E-05-2.20345E-06 0.00000E+00
 -1        98 4.97670E-05-2.46156E-06 0.00000E+00
 -1        99 4.92015E-05-2.65757E-06-1.32349E-23
 -1       100 4.86070E-05-2.77586E-06 6.61744E-24
 -1       101 4.79776E-05-2.80100E-06-1.32349E-23
 -1       102 4.73079E-05-2.71781E-06-6.61744E-24
 -1       103 4.65923E-05-2.51144E-06 0.00000E+00
 -1       104 4.58269E-05-2.16689E-06 0.00000E+00
 -1       105 4.50046E-05-1.67066E-06-1.32349E-23
 -1       106 4.89786E-05 1.76272E-21 3.30872E-24
 -1       107 4.89163E-05 5.41721E-21 0.00000E+00
 -1       108 4.88540E-05 9.69249E-21 1.65436E-24
 -1       109 4.87925E-05 1.87121E-20-8.27181E-25
 -1       110 4.87312E-05 1.80090E-20 0.00000E+00
 -1       111 4.86700E-05 1.73203E-20 0.00000E+00
 -1       112 4.86089E-05 2.34820E-20 1.65436E-24
 -1       113 4.85478E-05 2.32293E-20-8.27181E-25
 -1       114 4.84867E-05 2.23653E-20 1.65436E-24
 -1       115 4.84256E-05 1.62516E-20 0.00000E+00
 -1       116 4.83646E-05 6.44663E-21 0.00000E+00
 -1       117 4.83035E-05-1.68745E-21 0.00000E+00
 -1       118 4.82425E-05-4.28604E-21-1.65436E-24
 -1       119 4.81816E-05-6.32876E-21-8.27181E-25
 -1       120 4.81208E-05-4.17313E-21 0.00000E+00
 -1       121 4.87912E-05-1.67297E-07 0.00000E+00
 -1       122 4.81815E-05-3.33599E-07 0.00000E+00
 -1       123 4.73139E-05-5.00135E-07 0.00000E+00
 -1       124 4.62853E-05-6.67065E-07-3.30872E-24
 -1       125 4.51931E-05-8.34088E-07 0.00000E+00
 -1       126 4.88223E-05-1.24829E-07 0.00000E+00
 -1       127 4.86147E-05-3.01015E-07-3.30872E-24
 -1       128 4.84210E-05-5.13930E-07 6.61744E-24
 -1       129 4.82355E-05-7.49641E-07 0.00000E+00
 -1       130 4.80531E-05-9.94026E-07 6.61744E-24
 -1       131 4.78688E-05-1.23302E-06 0.00000E+00
 -1       132 4.76771E-05-1.45258E-06 6.61744E-24
 -1       133 4.74728E-05-1.63867E-06 0.00000E+00
 -1       134 4.72508E-05-1.77731E-06 6.61744E-24
 -1       135 4.70058E-05-1.85457E-06-3.30872E-24
 -1       136 4.67327E-05-1.85659E-06 6.61744E-24
 -1       137 4.64263E-05-1.76958E-06-3.30872E-24
 -1       138 4.60816E-05-1.57988E-06-6.61744E-24
 -1       139 4.56942E-05-1.27371E-06 0.00000E+00
 -1       140 4.52582E-05-8.37966E-07 3.30872E-24
 -1       141 4.80604E-05-4.26344E-21-4.13590E-25
 -1       142 4.80617E-05-5.53553E-21-1.03398E-25
 -1       143 4.80631E-05 3.89328E-21 0.00000E+00
 -1       144 4.80647E-05 1.40485E-20 0.00000E+00
 -1       145 4.80664E-05 1.76476E-20 0.00000E+00
 -1       146 4.80681E-05 2.25890E-20 0.00000E+00
 -1       147 4.80698E-05 2.51177E-20 0.00000E+00
 -1       148 4.80716E-05 2.03686E-20 0.00000E+00
 -1       149 4.80734E-05 1.80274E-20 1.03398E-25
 -1       150 4.80753E-05 1.85967E-20 0.00000E+00
 -1       151 4.80774E-05 1.26447E-20 0.00000E+00
 -1       152 4.80798E-05 4.83350E-21 0.00000E+00
 -1       153 4.80827E-05-3.40209E-21 1.65436E-24
 -1       154 4.80877E-05-5.84972E-21 0.00000E+00
 -1       155 4.80931E-05-4.29183E-21 0.00000E+00
 -1       156 4.79084E-05-4.21937E-08-8.27181E-25
 -1       157 4.75319E-05-8.45900E-08-8.27181E-25
 -1       158 4.69806E-05-1.27103E-07-8.27181E-25
 -1       159 4.63043E-05-1.69880E-07 0.00000E+00
 -1       160 4.55528E-05-2.12741E-07 0.00000E+00
 -1       161 4.80084E-05-2.83860E-08 0.00000E+00
 -1       162 4.79570E-05-6.14029E-08 0.00000E+00
 -1       163 4.79044E-05-9.14513E-08 1.65436E-24
 -1       164 4.78479E-05-1.11210E-07-8.27181E-25
 -1       165 4.77847E-05-1.13302E-07 0.00000E+00
 -1       166 4.77122E-05-9.03824E-08-8.27181E-25
 -1       167 4.76275E-05-3.51115E-08 0.00000E+00
 -1       168 4.75279E-05 5.98390E-08 0.00000E+00
 -1       169 4.74108E-05 2.01792E-07 1.65436E-24
 -1       170 4.72733E-05 3.98066E-07 0.00000E+00
 -1       171 4.71129E-05 6.55962E-07 0.00000E+00
 -1       172 4.69270E-05 9.82852E-07 4.13590E-25
 -1       173 4.67130E-05 1.38599E-06 2.06795E-25
 -1       174 4.64701E-05 1.87333E-06 8.27181E-25
 -1       175 4.61933E-05 2.45126E-06 3.30872E-24
 -1       191 4.80559E-05 5.17761E-07 1.32349E-23
 -1       192 4.78747E-05 1.04202E-06 0.00000E+00
 -1       193 4.75694E-05 1.56721E-06 1.32349E-23
 -1       194 4.71387E-05 2.09234E-06-6.61744E-24
 -1       195 4.65819E-05 2.61640E-06 0.00000E+00
 -1       251 4.28367E-05 2.58340E-06 0.00000E+00
 -1       252 4.29350E-05 5.23711E-06 0.00000E+00
 -1       253 4.30360E-05 6.82826E-06 8.27181E-25
 -1       254 4.31401E-05 7.51249E-06-2.06795E-25
 -1       255 4.32449E-05 7.44482E-06 0.00000E+00
 -1       256 4.33499E-05 6.77995E-06 8.27181E-25
 -1       257 4.34547E-05 5.67235E-06-3.30872E-24
 -1       258 4.35593E-05 4.27624E-06 1.65436E-24
 -1       259 4.36637E-05 2.74571E-06 0.00000E+00
 -1       260 4.37681E-05 1.23481E-06 0.00000E+00
 -1       261 4.38726E-05-1.02414E-07 0.00000E+00
 -1       262 4.39770E-05-1.11184E-06-1.65436E-24
 -1       263 4.40813E-05-1.63919E-06 0.00000E+00
 -1       264 4.41837E-05-1.53000E-06 0.00000E+00
 -1       265 4.42853E-05-6.29322E-07 4.13590E-25
 -1       266 3.81190E-05-1.37263E-06 0.00000E+00
 -1       267 3.36494E-05-1.44996E-06-1.65436E-24
 -1       268 2.94927E-05-1.52578E-06 0.00000E+00
 -1       269 2.57926E-05-1.59855E-06 0.00000E+00
 -1       270 2.26934E-05-1.66913E-06 0.00000E+00
 -1       271 4.04462E-05 2.36370E-06 0.00000E+00
 -1       272 3.85254E-05 4.90508E-06 0.00000E+00
 -1       273 3.69723E-05 6.47236E-06 0.00000E+00
 -1       274 3.57328E-05 7.19664E-06 1.32349E-23
 -1       275 3.47584E-05 7.21411E-06 0.00000E+00
 -1       276 3.39964E-05 6.66361E-06-1.32349E-23
 -1       277 3.33941E-05 5.68628E-06 0.00000E+00
 -1       278 3.28979E-05 4.42530E-06 1.32349E-23
 -1       279 3.24538E-05 3.02493E-06 0.00000E+00
 -1       280 3.20077E-05 1.63016E-06 0.00000E+00
 -1       281 3.15056E-05 3.85943E-07 0.00000E+00
 -1       282 3.08939E-05-5.63445E-07-1.32349E-23
 -1       283 3.01189E-05-1.07492E-06 0.00000E+00
 -1       284 2.91310E-05-1.00652E-06-1.32349E-23
 -1       285 2.78737E-05-2.20831E-07-1.32349E-23
 -1       286 4.43445E-05 3.25090E-06 0.00000E+00
 -1       287 4.43291E-05 4.60211E-06-3.30872E-24
 -1       288 4.43147E-05 5.35342E-06 0.00000E+00
 -1       289 4.43017E-05 5.58943E-06 0.00000E+00
 -1       290 4.42891E-05 5.39459E-06 0.00000E+00
 -1       291 4.42766E-05 4.85343E-06 0.00000E+00
 -1       292 4.42641E-05 4.05050E-06 0.00000E+00
 -1       293 4.42514E-05 3.07033E-06 4.13590E-25
 -1       294 4.42387E-05 1.99750E-06-4.13590E-25
 -1       295 4.42259E-05 9.16595E-07-2.06795E-25
 -1       296 4.42131E-05-8.78453E-08 0.00000E+00
 -1       297 4.42003E-05-9.31242E-07-3.61892E-25
 -1       298 4.41872E-05-1.52903E-06 6.20385E-25
 -1       299 4.41730E-05-1.79671E-06 4.13590E-25
 -1       300 4.41586E-05-1.64965E-06-3.30872E-24
 -1       301 4.15485E-05 1.24171E-06 4.13590E-25
 -1       302 3.85160E-05 1.27873E-06 4.13590E-25
 -1       303 3.53746E-05 1.31747E-06-1.03398E-25
 -1       304 3.22275E-05 1.35676E-06 0.00000E+00
 -1       305 2.91778E-05 1.39541E-06-3.30872E-24
 -1       306 4.27050E-05 2.94093E-06 0.00000E+00
 -1       307 4.12554E-05 4.00181E-06 0.00000E+00
 -1       308 4.00216E-05 4.48838E-06 2.64698E-23
 -1       309 3.89688E-05 4.48187E-06-1.32349E-23
 -1       310 3.80680E-05 4.06776E-06-2.64698E-23
 -1       311 3.72868E-05 3.33270E-06 1.32349E-23
 -1       312 3.65927E-05 2.36479E-06 2.64698E-23
 -1       313 3.59522E-05 1.25323E-06 0.00000E+00
 -1       314 3.53318E-05 8.78683E-08-2.64698E-23
 -1       315 3.46979E-05-1.04115E-06 1.32349E-23
 -1       316 3.40170E-05-2.04390E-06 0.00000E+00
 -1       317 3.32562E-05-2.83099E-06-1.32349E-23
 -1       318 3.23822E-05-3.31400E-06 0.00000E+00
 -1       319 3.13658E-05-3.40508E-06-1.32349E-23
 -1       320 3.01709E-05-3.02038E-06 0.00000E+00
 -1       321 4.41612E-05-2.07721E-07 0.00000E+00
 -1       322 4.42004E-05 3.15723E-07 0.00000E+00
 -1       323 4.42400E-05 6.02945E-07 0.00000E+00
 -1       324 4.42812E-05 6.91206E-07 0.00000E+00
 -1       325 4.43228E-05 6.17655E-07 0.00000E+00
 -1       326 4.43646E-05 4.19433E-07 4.13590E-25
 -1       327 4.44065E-05 1.33656E-07 1.65436E-24
 -1       328 4.44485E-05-2.02576E-07 0.00000E+00
 -1       329 4.44905E-05-5.52168E-07 0.00000E+00
 -1       330 4.45325E-05-8.78037E-07-8.27181E-25
 -1       331 4.45745E-05-1.14309E-06-1.65436E-24
 -1       332 4.46164E-05-1.31021E-06 0.00000E+00
 -1       333 4.46581E-05-1.34229E-06 0.00000E+00
 -1       334 4.46992E-05-1.20220E-06 0.00000E+00
 -1       335 4.47401E-05-8.52699E-07 4.13590E-25
 -1       336 4.24591E-05-1.18194E-06 0.00000E+00
 -1       337 3.99489E-05-1.35832E-06 1.65436E-24
 -1       338 3.69646E-05-1.53576E-06 0.00000E+00
 -1       339 3.38694E-05-1.71327E-06 3.30872E-24
 -1       340 3.10267E-05-1.89008E-06 0.00000E+00
 -1       341 4.32878E-05-3.96248E-07 1.32349E-23
 -1       342 4.25215E-05-4.37698E-08 0.00000E+00
 -1       343 4.18357E-05 9.40613E-08 0.00000E+00
 -1       344 4.12149E-05 5.34723E-08 0.00000E+00
 -1       345 4.06465E-05-1.27791E-07 0.00000E+00
 -1       346 4.01163E-05-4.12027E-07 0.00000E+00
 -1       347 3.96104E-05-7.61234E-07 0.00000E+00
 -1       348 3.91146E-05-1.13724E-06 0.00000E+00
 -1       349 3.86144E-05-1.50181E-06 1.32349E-23
 -1       350 3.80957E-05-1.81673E-06-6.61744E-24
 -1       351 3.75444E-05-2.04394E-06 1.32349E-23
 -1       352 3.69465E-05-2.14553E-06 0.00000E+00
 -1       353 3.62880E-05-2.08404E-06 0.00000E+00
 -1       354 3.55575E-05-1.82163E-06 0.00000E+00
 -1       355 3.47385E-05-1.32286E-06-6.61744E-24
 -1       356 4.48375E-05 3.85782E-07 0.00000E+00
 -1       357 4.49054E-05 8.56197E-07-4.13590E-25
 -1       358 4.49736E-05 1.17875E-06 0.00000E+00
 -1       359 4.50425E-05 1.37818E-06-8.27181E-25
 -1       360 4.51117E-05 1.47914E-06 0.00000E+00
 -1       361 4.51810E-05 1.50630E-06 8.27181E-25
 -1       362 4.52504E-05 1.48427E-06 0.00000E+00
 -1       363 4.53198E-05 1.43766E-06 8.27181E-25
 -1       364 4.53893E-05 1.39107E-06 0.00000E+00
 -1       365 4.54589E-05 1.36911E-06 0.00000E+00
 -1       366 4.55286E-05 1.39637E-06 0.00000E+00
 -1       367 4.55986E-05 1.49749E-06 0.00000E+00
 -1       368 4.56689E-05 1.69711E-06 3.30872E-24
 -1       369 4.57409E-05 2.01989E-06 0.00000E+00
 -1       370 4.58132E-05 2.49059E-06 0.00000E+00
 -1       371 4.35368E-05-3.05485E-07 8.27181E-25
 -1       372 4.17285E-05-3.53481E-07 0.00000E+00
 -1       373 3.96022E-05-4.01934E-07 1.65436E-24
 -1       374 3.74106E-05-4.50169E-07-8.27181E-25
 -1       375 3.54063E-05-4.97998E-07 1.65436E-24
 -1       376 4.43258E-05 2.84085E-07 0.00000E+00
 -1       377 4.39432E-05 6.25884E-07-3.30872E-24
 -1       378 4.36203E-05 8.08563E-07 0.00000E+00
 -1       379 4.33419E-05 8.70134E-07 3.30872E-24
 -1       380 4.30942E-05 8.49225E-07 6.61744E-24
 -1       381 4.28629E-05 7.84340E-07 0.00000E+00
 -1       382 4.26336E-05 7.14056E-07 0.00000E+00
 -1       383 4.23918E-05 6.76933E-07 3.30872E-24
 -1       384 4.21231E-05 7.11499E-07 0.00000E+00
 -1       385 4.18132E-05 8.56198E-07-3.30872E-24
 -1       386 4.14478E-05 1.14935E-06 0.00000E+00
 -1       387 4.10127E-05 1.62919E-06 0.00000E+00
 -1       388 4.04937E-05 2.33363E-06-6.61744E-24
 -1       389 3.98788E-05 3.30106E-06 0.00000E+00
 -1       390 3.91514E-05 4.56804E-06 0.00000E+00
 -1       406 4.50905E-05 3.63916E-06-1.32349E-23
 -1       407 4.41141E-05 4.15052E-06 0.00000E+00
 -1       408 4.29584E-05 4.66238E-06 0.00000E+00
 -1       409 4.16135E-05 5.17335E-06 0.00000E+00
 -1       410 4.00694E-05 5.68204E-06 0.00000E+00
 -1       466 2.06951E-05-2.39982E-07 0.00000E+00
 -1       467 2.10700E-05 6.58640E-07 0.00000E+00
 -1       468 2.14457E-05 1.05259E-06-6.61744E-24
 -1       469 2.18235E-05 1.03346E-06 6.61744E-24
 -1       470 2.22019E-05 6.92171E-07 0.00000E+00
 -1       471 2.25805E-05 1.19014E-07 0.00000E+00
 -1       472 2.29592E-05-5.96018E-07 1.32349E-23
 -1       473 2.33379E-05-1.36321E-06 0.00000E+00
 -1       474 2.37166E-05-2.09295E-06 0.00000E+00
 -1       475 2.40954E-05-2.69552E-06 6.61744E-24
 -1       476 2.44740E-05-3.08102E-06 1.32349E-23
 -1       477 2.48521E-05-3.15916E-06 0.00000E+00
 -1       478 2.52295E-05-2.83920E-06 0.00000E+00
 -1       479 2.56038E-05-2.02966E-06 0.00000E+00
 -1       480 2.59769E-05-6.38226E-07 0.00000E+00
 -1       481 1.83389E-05-1.63390E-06-1.65436E-24
 -1       482 1.62410E-05-1.52849E-06 1.65436E-24
 -1       483 1.41419E-05-1.42302E-06 0.00000E+00
 -1       484 1.21401E-05-1.31697E-06 0.00000E+00
 -1       485 1.03341E-05-1.21047E-06 0.00000E+00
 -1       486 1.93214E-05-2.37692E-07 6.61744E-24
 -1       487 1.84300E-05 8.73987E-07 0.00000E+00
 -1       488 1.76649E-05 1.64968E-06-1.32349E-23
 -1       489 1.70071E-05 2.13280E-06-6.61744E-24
 -1       490 1.64417E-05 2.36873E-06 0.00000E+00
 -1       491 1.59517E-05 2.40279E-06-6.61744E-24
 -1       492 1.55200E-05 2.28074E-06 0.00000E+00
 -1       493 1.51296E-05 2.04869E-06-6.61744E-24
 -1       494 1.47630E-05 1.75290E-06-1.32349E-23
 -1       495 1.44029E-05 1.43983E-06 0.00000E+00
 -1       496 1.40321E-05 1.15595E-06 0.00000E+00
 -1       497 1.36332E-05 9.47730E-07 6.61744E-24
 -1       498 1.31890E-05 8.61422E-07 1.32349E-23
 -1       499 1.26839E-05 9.43551E-07 0.00000E+00
 -1       500 1.20987E-05 1.23913E-06 6.61744E-24
 -1       501 2.64682E-05 3.42880E-06 0.00000E+00
 -1       502 2.66227E-05 4.64756E-06-8.27181E-25
 -1       503 2.67780E-05 5.18790E-06 3.30872E-24
 -1       504 2.69352E-05 5.15492E-06 0.00000E+00
 -1       505 2.70926E-05 4.65321E-06 3.30872E-24
 -1       506 2.72501E-05 3.78703E-06-1.65436E-24
 -1       507 2.74075E-05 2.66045E-06 3.30872E-24
 -1       508 2.75648E-05 1.37728E-06 0.00000E+00
 -1       509 2.77220E-05 4.12683E-08 0.00000E+00
 -1       510 2.78792E-05-1.24386E-06 3.30872E-24
 -1       511 2.80364E-05-2.37440E-06-6.61744E-24
 -1       512 2.81935E-05-3.24649E-06 0.00000E+00
 -1       513 2.83503E-05-3.75611E-06-6.61744E-24
 -1       514 2.85052E-05-3.79901E-06-1.65436E-24
 -1       515 2.86596E-05-3.27049E-06 0.00000E+00
 -1       516 2.35615E-05 1.48258E-06-4.13590E-25
 -1       517 2.06002E-05 1.54548E-06 1.03398E-25
 -1       518 1.76745E-05 1.60849E-06 4.13590E-25
 -1       519 1.50166E-05 1.67252E-06-2.06795E-25
 -1       520 1.28587E-05 1.73772E-06 0.00000E+00
 -1       521 2.48015E-05 3.21164E-06 0.00000E+00
 -1       522 2.35099E-05 4.28844E-06 1.32349E-23
 -1       523 2.24482E-05 4.75373E-06 0.00000E+00
 -1       524 2.15789E-05 4.69576E-06 1.32349E-23
 -1       525 2.08704E-05 4.20675E-06 2.64698E-23
 -1       526 2.02879E-05 3.37991E-06 0.00000E+00
 -1       527 1.97962E-05 2.30972E-06 0.00000E+00
 -1       528 1.93598E-05 1.09168E-06 1.32349E-23
 -1       529 1.89427E-05-1.78206E-07 0.00000E+00
 -1       530 1.85091E-05-1.40367E-06 1.32349E-23
 -1       531 1.80231E-05-2.48864E-06 0.00000E+00
 -1       532 1.74494E-05-3.33757E-06 0.00000E+00
 -1       533 1.67524E-05-3.85582E-06 0.00000E+00
 -1       534 1.58998E-05-3.94944E-06 0.00000E+00
 -1       535 1.48538E-05-3.52778E-06 0.00000E+00
 -1       536 2.90892E-05-7.11457E-07 8.27181E-25
 -1       537 2.94032E-05 1.98675E-07 3.30872E-24
 -1       538 2.97180E-05 7.23706E-07 0.00000E+00
 -1       539 3.00358E-05 9.23732E-07 0.00000E+00
 -1       540 3.03544E-05 8.58348E-07 0.00000E+00
 -1       541 3.06734E-05 5.86752E-07 3.30872E-24
 -1       542 3.09926E-05 1.67888E-07 1.32349E-23
 -1       543 3.13119E-05-3.39533E-07 0.00000E+00
 -1       544 3.16311E-05-8.76903E-07 0.00000E+00
 -1       545 3.19504E-05-1.38568E-06 0.00000E+00
 -1       546 3.22695E-05-1.80726E-06 0.00000E+00
 -1       547 3.25884E-05-2.08292E-06 0.00000E+00
 -1       548 3.29068E-05-2.15376E-06 6.61744E-24
 -1       549 3.32234E-05-1.96056E-06-3.30872E-24
 -1       550 3.35395E-05-1.44371E-06 0.00000E+00
 -1       551 2.65644E-05-2.14112E-06 7.23783E-25
 -1       552 2.39924E-05-2.21045E-06 2.06795E-25
 -1       553 2.12451E-05-2.27928E-06 3.30872E-24
 -1       554 1.84881E-05-2.34823E-06 0.00000E+00
 -1       555 1.58872E-05-2.41788E-06 0.00000E+00
 -1       556 2.79179E-05-9.00687E-07 0.00000E+00
 -1       557 2.71738E-05-1.23061E-07 6.61744E-24
 -1       558 2.65543E-05 3.18973E-07-1.32349E-23
 -1       559 2.60400E-05 4.78221E-07 0.00000E+00
 -1       560 2.56117E-05 4.07634E-07 0.00000E+00
 -1       561 2.52495E-05 1.60310E-07 0.00000E+00
 -1       562 2.49336E-05-2.10604E-07-1.32349E-23
 -1       563 2.46440E-05-6.51882E-07 6.61744E-24
 -1       564 2.43608E-05-1.11027E-06 0.00000E+00
 -1       565 2.40642E-05-1.53253E-06 0.00000E+00
 -1       566 2.37341E-05-1.86540E-06-6.61744E-24
 -1       567 2.33508E-05-2.05565E-06-6.61744E-24
 -1       568 2.28945E-05-2.05012E-06 1.32349E-23
 -1       569 2.23463E-05-1.79565E-06 3.30872E-24
 -1       570 2.16870E-05-1.23924E-06-3.30872E-24
 -1       571 3.41046E-05 3.36970E-07-2.89513E-24
 -1       572 3.43815E-05 9.42028E-07 3.30872E-24
 -1       573 3.46609E-05 1.31595E-06 0.00000E+00
 -1       574 3.49419E-05 1.50489E-06-3.30872E-24
 -1       575 3.52233E-05 1.55504E-06-6.61744E-24
 -1       576 3.55051E-05 1.51268E-06 3.30872E-24
 -1       577 3.57870E-05 1.42406E-06-6.61744E-24
 -1       578 3.60689E-05 1.33544E-06-6.61744E-24
 -1       579 3.63508E-05 1.29308E-06 0.00000E+00
 -1       580 3.66328E-05 1.34325E-06 6.61744E-24
 -1       581 3.69147E-05 1.53225E-06-1.32349E-23
 -1       582 3.71965E-05 1.90640E-06 0.00000E+00
 -1       583 3.74780E-05 2.51206E-06 1.32349E-23
 -1       584 3.77591E-05 3.39547E-06 6.61744E-24
 -1       585 3.80395E-05 4.60290E-06 0.00000E+00
 -1       586 3.20591E-05-5.07391E-07 0.00000E+00
 -1       587 2.99013E-05-4.69273E-07 0.00000E+00
 -1       588 2.75360E-05-4.31286E-07 0.00000E+00
 -1       589 2.51349E-05-3.93813E-07 0.00000E+00
 -1       590 2.28693E-05-3.57210E-07 0.00000E+00
 -1       591 3.32327E-05 3.21632E-07-6.61744E-24
 -1       592 3.26896E-05 9.80317E-07 0.00000E+00
 -1       593 3.22085E-05 1.46878E-06 1.32349E-23
 -1       594 3.17771E-05 1.82159E-06-6.61744E-24
 -1       595 3.13831E-05 2.07346E-06 0.00000E+00
 -1       596 3.10139E-05 2.25898E-06-3.30872E-24
 -1       597 3.06564E-05 2.41275E-06 0.00000E+00
 -1       598 3.02979E-05 2.56936E-06 0.00000E+00
 -1       599 2.99254E-05 2.76340E-06 0.00000E+00
 -1       600 2.95258E-05 3.02945E-06 0.00000E+00
 -1       601 2.90864E-05 3.40206E-06 6.61744E-24
 -1       602 2.85942E-05 3.91579E-06 1.65436E-24
 -1       603 2.80365E-05 4.60516E-06-6.61744E-24
 -1       604 2.74015E-05 5.50481E-06-1.65436E-24
 -1       605 2.66771E-05 6.64925E-06-8.27181E-25
 -1       606 3.84067E-05 8.23325E-06 6.61744E-24
 -1       607 3.84887E-05 1.05324E-05-6.61744E-24
 -1       608 3.85688E-05 1.30580E-05 6.61744E-24
 -1       609 3.86478E-05 1.57906E-05 0.00000E+00
 -1       610 3.87259E-05 1.87109E-05 0.00000E+00
 -1       611 3.88035E-05 2.17994E-05 0.00000E+00
 -1       612 3.88805E-05 2.50366E-05 0.00000E+00
 -1       613 3.89571E-05 2.84030E-05 0.00000E+00
 -1       614 3.90334E-05 3.18792E-05 3.30872E-24
 -1       615 3.91093E-05 3.54457E-05 0.00000E+00
 -1       616 3.91849E-05 3.90831E-05 0.00000E+00
 -1       617 3.92604E-05 4.27719E-05-1.65436E-24
 -1       618 3.93356E-05 4.64926E-05 0.00000E+00
 -1       619 3.94106E-05 5.02259E-05 8.27181E-25
 -1       620 3.94853E-05 5.39523E-05 0.00000E+00
 -1       621 3.62643E-05 6.49446E-06 0.00000E+00
 -1       622 3.41357E-05 6.81383E-06 0.00000E+00
 -1       623 3.19811E-05 7.13341E-06 0.00000E+00
 -1       624 2.98508E-05 7.45221E-06 0.00000E+00
 -1       625 2.77951E-05 7.76925E-06 3.30872E-24
 -1       626 3.77180E-05 8.33236E-06 0.00000E+00
 -1       627 3.70144E-05 1.07548E-05 0.00000E+00
 -1       628 3.62191E-05 1.34190E-05 0.00000E+00
 -1       629 3.53433E-05 1.62955E-05 0.00000E+00
 -1       630 3.43981E-05 1.93554E-05 6.61744E-24
 -1       631 3.33946E-05 2.25692E-05-3.30872E-24
 -1       632 3.23438E-05 2.59076E-05 0.00000E+00
 -1       633 3.12570E-05 2.93415E-05 0.00000E+00
 -1       634 3.01450E-05 3.28416E-05 0.00000E+00
 -1       635 2.90191E-05 3.63786E-05 0.00000E+00
 -1       636 2.78901E-05 3.99234E-05-6.61744E-24
 -1       637 2.67692E-05 4.34467E-05 1.65436E-24
 -1       638 2.56671E-05 4.69192E-05 6.61744E-24
 -1       639 2.45946E-05 5.03116E-05 1.65436E-24
 -1       640 2.35621E-05 5.35946E-05 0.00000E+00
 -1       641 3.95573E-05 6.13139E-05-8.27181E-25
 -1       642 3.95548E-05 6.50124E-05 0.00000E+00
 -1       643 3.95522E-05 6.87402E-05 0.00000E+00
 -1       644 3.95493E-05 7.24892E-05-1.03398E-25
 -1       645 3.95463E-05 7.62512E-05 0.00000E+00
 -1       646 3.95433E-05 8.00183E-05 0.00000E+00
 -1       647 3.95402E-05 8.37824E-05 0.00000E+00
 -1       648 3.95372E-05 8.75352E-05 2.58494E-26
 -1       649 3.95342E-05 9.12688E-05-5.16988E-26
 -1       650 3.95314E-05 9.49751E-05 3.23117E-26
 -1       651 3.95286E-05 9.86459E-05 5.16988E-26
 -1       652 3.95259E-05 1.02273E-04 0.00000E+00
 -1       653 3.95233E-05 1.05849E-04-4.13590E-25
 -1       654 3.95205E-05 1.09365E-04 0.00000E+00
 -1       655 3.95179E-05 1.12813E-04 8.27181E-25
 -1       656 3.62189E-05 5.75043E-05-3.30872E-24
 -1       657 3.32582E-05 5.73490E-05 1.65436E-24
 -1       658 3.05453E-05 5.71944E-05 3.30872E-24
 -1       659 2.79481E-05 5.70400E-05 0.00000E+00
 -1       660 2.53349E-05 5.68855E-05-1.65436E-24
 -1       661 3.83269E-05 6.13606E-05 0.00000E+00
 -1       662 3.70909E-05 6.50957E-05 1.65436E-24
 -1       663 3.58485E-05 6.88480E-05 0.00000E+00
 -1       664 3.46034E-05 7.26093E-05 0.00000E+00
 -1       665 3.33582E-05 7.63710E-05 0.00000E+00
 -1       666 3.21163E-05 8.01247E-05-1.65436E-24
 -1       667 3.08805E-05 8.38620E-05 0.00000E+00
 -1       668 2.96542E-05 8.75745E-05 1.65436E-24
 -1       669 2.84404E-05 9.12538E-05-3.30872E-24
 -1       670 2.72424E-05 9.48915E-05-1.65436E-24
 -1       671 2.60633E-05 9.84790E-05-3.30872E-24
 -1       672 2.49063E-05 1.02008E-04 0.00000E+00
 -1       673 2.37745E-05 1.05469E-04 0.00000E+00
 -1       674 2.26703E-05 1.08855E-04 0.00000E+00
 -1       675 2.15981E-05 1.12155E-04 0.00000E+00
 -1       676 3.62318E-05 1.16049E-04-3.30872E-24
 -1       677 3.30198E-05 1.15910E-04 0.00000E+00
 -1       678 2.98612E-05 1.15771E-04 0.00000E+00
 -1       679 2.67407E-05 1.15633E-04 0.00000E+00
 -1       680 2.36430E-05 1.15494E-04 0.00000E+00
 -1       681 8.98125E-06-1.13558E-08 0.00000E+00
 -1       682 9.14480E-06 7.68471E-07 1.65436E-24
 -1       683 9.30862E-06 1.27559E-06 0.00000E+00
 -1       684 9.47307E-06 1.55155E-06-1.65436E-24
 -1       685 9.63769E-06 1.63766E-06 0.00000E+00
 -1       686 9.80241E-06 1.57513E-06-1.65436E-24
 -1       687 9.96716E-06 1.40504E-06 0.00000E+00
 -1       688 1.01319E-05 1.16841E-06 0.00000E+00
 -1       689 1.02966E-05 9.06195E-07 0.00000E+00
 -1       690 1.04613E-05 6.59344E-07 0.00000E+00
 -1       691 1.06259E-05 4.68810E-07 6.61744E-24
 -1       692 1.07903E-05 3.75592E-07 0.00000E+00
 -1       693 1.09544E-05 4.20752E-07-3.30872E-24
 -1       694 1.11171E-05 6.45448E-07 1.65436E-24
 -1       695 1.12796E-05 1.09102E-06-1.65436E-24
 -1       696 7.40773E-06-9.26062E-07 0.00000E+00
 -1       697 5.86453E-06-7.42072E-07-3.30872E-24
 -1       698 4.27220E-06-5.57975E-07-6.61744E-24
 -1       699 2.71072E-06-3.72930E-07 0.00000E+00
 -1       700 1.26010E-06-1.87532E-07-6.61744E-24
 -1       701 8.22215E-06-2.19326E-08 0.00000E+00
 -1       702 7.70058E-06 8.19861E-07 0.00000E+00
 -1       703 7.25868E-06 1.44945E-06-6.61744E-24
 -1       704 6.88541E-06 1.89213E-06 3.30872E-24
 -1       705 6.57216E-06 2.17418E-06 6.61744E-24
 -1       706 6.30916E-06 2.32167E-06-3.30872E-24
 -1       707 6.08671E-06 2.36083E-06 6.61744E-24
 -1       708 5.89501E-06 2.31795E-06 3.30872E-24
 -1       709 5.72417E-06 2.21940E-06 6.61744E-24
 -1       710 5.56435E-06 2.09158E-06-3.30872E-24
 -1       711 5.40566E-06 1.96096E-06 0.00000E+00
 -1       712 5.23834E-06 1.85402E-06 0.00000E+00
 -1       713 5.05249E-06 1.79719E-06 0.00000E+00
 -1       714 4.83932E-06 1.81721E-06 0.00000E+00
 -1       715 4.58770E-06 1.93997E-06 1.65436E-24
 -1       716 1.15598E-05 2.38995E-06 7.30245E-25
 -1       717 1.16966E-05 2.53615E-06-1.65436E-24
 -1       718 1.18336E-05 2.30776E-06 0.00000E+00
 -1       719 1.19717E-05 1.77601E-06 1.65436E-24
 -1       720 1.21099E-05 1.01184E-06 3.30872E-24
 -1       721 1.22482E-05 8.60644E-08 0.00000E+00
 -1       722 1.23865E-05-9.30564E-07 0.00000E+00
 -1       723 1.25248E-05-1.96740E-06 0.00000E+00
 -1       724 1.26631E-05-2.95378E-06 3.30872E-24
 -1       725 1.28015E-05-3.81899E-06 0.00000E+00
 -1       726 1.29398E-05-4.49231E-06 3.30872E-24
 -1       727 1.30779E-05-4.90282E-06 1.65436E-24
 -1       728 1.32156E-05-4.97950E-06 0.00000E+00
 -1       729 1.33513E-05-4.65111E-06 3.30872E-24
 -1       730 1.34863E-05-3.84610E-06 8.27181E-25
 -1       731 1.03113E-05 1.85951E-06 0.00000E+00
 -1       732 8.95229E-06 1.92603E-06 8.27181E-25
 -1       733 7.51291E-06 1.99257E-06-1.65436E-24
 -1       734 6.15177E-06 2.05990E-06-8.27181E-25
 -1       735 5.02753E-06 2.12764E-06-8.27181E-25
 -1       736 1.07695E-05 2.37997E-06-6.61744E-24
 -1       737 1.01847E-05 2.70993E-06-6.61744E-24
 -1       738 9.68130E-06 2.82264E-06 0.00000E+00
 -1       739 9.24637E-06 2.74716E-06 0.00000E+00
 -1       740 8.87016E-06 2.51406E-06 1.32349E-23
 -1       741 8.54128E-06 2.15372E-06-6.61744E-24
 -1       742 8.24847E-06 1.69685E-06-1.32349E-23
 -1       743 7.98021E-06 1.17428E-06 6.61744E-24
 -1       744 7.72496E-06 6.16991E-07 0.00000E+00
 -1       745 7.47111E-06 5.60446E-08 6.61744E-24
 -1       746 7.20709E-06-4.77514E-07 0.00000E+00
 -1       747 6.92147E-06-9.52635E-07-6.61744E-24
 -1       748 6.60269E-06-1.33843E-06 0.00000E+00
 -1       749 6.24049E-06-1.60380E-06 0.00000E+00
 -1       750 5.82201E-06-1.71877E-06 0.00000E+00
 -1       751 1.40312E-05-1.09556E-06 0.00000E+00
 -1       752 1.44868E-05-1.64065E-07 0.00000E+00
 -1       753 1.49434E-05 3.65949E-07 0.00000E+00
 -1       754 1.54040E-05 5.59335E-07-6.61744E-24
 -1       755 1.58654E-05 4.80259E-07-1.32349E-23
 -1       756 1.63275E-05 1.92276E-07 6.61744E-24
 -1       757 1.67899E-05-2.41423E-07 1.32349E-23
 -1       758 1.72523E-05-7.57988E-07-6.61744E-24
 -1       759 1.77147E-05-1.29471E-06 0.00000E+00
 -1       760 1.81770E-05-1.78893E-06 0.00000E+00
 -1       761 1.86392E-05-2.17792E-06 0.00000E+00
 -1       762 1.91009E-05-2.39870E-06 0.00000E+00
 -1       763 1.95618E-05-2.38799E-06 1.32349E-23
 -1       764 2.00195E-05-2.08201E-06 0.00000E+00
 -1       765 2.04764E-05-1.41636E-06 6.61744E-24
 -1       766 1.18411E-05-2.36447E-06 0.00000E+00
 -1       767 1.00907E-05-2.21996E-06-4.13590E-25
 -1       768 8.46006E-06-2.07528E-06 1.65436E-24
 -1       769 7.05529E-06-1.92982E-06 0.00000E+00
 -1       770 5.98263E-06-1.78378E-06 0.00000E+00
 -1       771 1.23862E-05-1.28578E-06 1.32349E-23
 -1       772 1.12564E-05-3.80468E-07 0.00000E+00
 -1       773 1.02223E-05 2.60359E-07 2.64698E-23
 -1       774 9.27247E-06 6.70471E-07 1.32349E-23
 -1       775 8.39572E-06 8.83891E-07-2.64698E-23
 -1       776 7.57969E-06 9.34535E-07-1.32349E-23
 -1       777 6.81184E-06 8.56389E-07 0.00000E+00
 -1       778 6.07946E-06 6.83528E-07 1.32349E-23
 -1       779 5.36981E-06 4.50081E-07 0.00000E+00
 -1       780 4.67012E-06 1.90233E-07-1.32349E-23
 -1       781 3.96765E-06-6.18039E-08 2.64698E-23
 -1       782 3.24979E-06-2.71779E-07 0.00000E+00
 -1       783 2.50400E-06-4.05450E-07-1.32349E-23
 -1       784 1.71891E-06-4.28319E-07 0.00000E+00
 -1       785 8.82844E-07-3.06074E-07 1.32349E-23
 -1       786 2.11989E-05 8.37974E-07 0.00000E+00
 -1       787 2.15076E-05 1.69879E-06 0.00000E+00
 -1       788 2.18169E-05 2.30298E-06 6.61744E-24
 -1       789 2.21286E-05 2.69777E-06 3.30872E-24
 -1       790 2.24409E-05 2.93004E-06 6.61744E-24
 -1       791 2.27537E-05 3.04647E-06-3.30872E-24
 -1       792 2.30667E-05 3.09357E-06 0.00000E+00
 -1       793 2.33797E-05 3.11776E-06-6.61744E-24
 -1       794 2.36928E-05 3.16543E-06-1.32349E-23
 -1       795 2.40058E-05 3.28300E-06 0.00000E+00
 -1       796 2.43187E-05 3.51697E-06 0.00000E+00
 -1       797 2.46313E-05 3.91405E-06 0.00000E+00
 -1       798 2.49435E-05 4.52110E-06-6.61744E-24
 -1       799 2.52541E-05 5.38533E-06 0.00000E+00
 -1       800 2.55642E-05 6.55432E-06 6.61744E-24
 -1       801 1.83314E-05-2.72443E-07 0.00000E+00
 -1       802 1.44560E-05-2.14704E-07 0.00000E+00
 -1       803 9.98235E-06-1.59255E-07-2.06795E-25
 -1       804 5.61360E-06-1.04290E-07 0.00000E+00
 -1       805 2.05281E-06-4.68655E-08 0.00000E+00
 -1       806 2.00672E-05 6.97548E-07-1.32349E-23
 -1       807 1.92881E-05 1.51388E-06 0.00000E+00
 -1       808 1.85708E-05 2.15921E-06-1.32349E-23
 -1       809 1.79034E-05 2.66763E-06 0.00000E+00
 -1       810 1.72741E-05 3.07336E-06 0.00000E+00
 -1       811 1.66702E-05 3.41052E-06 0.00000E+00
 -1       812 1.60792E-05 3.71318E-06 0.00000E+00
 -1       813 1.54883E-05 4.01546E-06 6.61744E-24
 -1       814 1.48847E-05 4.35145E-06-1.32349E-23
 -1       815 1.42558E-05 4.75522E-06-6.61744E-24
 -1       816 1.35887E-05 5.26081E-06 0.00000E+00
 -1       817 1.28708E-05 5.90226E-06 3.30872E-24
 -1       818 1.20896E-05 6.71355E-06 0.00000E+00
 -1       819 1.12337E-05 7.72877E-06 0.00000E+00
 -1       820 1.02910E-05 8.98186E-06 3.30872E-24
 -1       821 2.56727E-05 9.98607E-06 0.00000E+00
 -1       822 2.54695E-05 1.21960E-05 0.00000E+00
 -1       823 2.52656E-05 1.46746E-05 3.30872E-24
 -1       824 2.50594E-05 1.73899E-05 3.30872E-24
 -1       825 2.48524E-05 2.03103E-05 0.00000E+00
 -1       826 2.46446E-05 2.34038E-05 0.00000E+00
 -1       827 2.44363E-05 2.66380E-05 0.00000E+00
 -1       828 2.42276E-05 2.99809E-05 0.00000E+00
 -1       829 2.40186E-05 3.33999E-05 6.61744E-24
 -1       830 2.38096E-05 3.68626E-05 0.00000E+00
 -1       831 2.36005E-05 4.03365E-05-6.61744E-24
 -1       832 2.33918E-05 4.37891E-05 3.30872E-24
 -1       833 2.31835E-05 4.71878E-05-6.61744E-24
 -1       834 2.29767E-05 5.05004E-05 0.00000E+00
 -1       835 2.27705E-05 5.36942E-05-3.30872E-24
 -1       836 2.36164E-05 8.47426E-06 6.61744E-24
 -1       837 2.07972E-05 8.88615E-06 6.61744E-24
 -1       838 1.76789E-05 9.29698E-06-1.32349E-23
 -1       839 1.45349E-05 9.70702E-06 3.30872E-24
 -1       840 1.16388E-05 1.01177E-05 0.00000E+00
 -1       841 2.51196E-05 9.98368E-06 0.00000E+00
 -1       842 2.42540E-05 1.22018E-05 0.00000E+00
 -1       843 2.32836E-05 1.46974E-05 3.10193E-25
 -1       844 2.22209E-05 1.74356E-05 2.06795E-25
 -1       845 2.10793E-05 2.03820E-05 0.00000E+00
 -1       846 1.98721E-05 2.35019E-05-2.06795E-25
 -1       847 1.86122E-05 2.67607E-05 0.00000E+00
 -1       848 1.73128E-05 3.01237E-05-4.13590E-25
 -1       849 1.59871E-05 3.35563E-05 0.00000E+00
 -1       850 1.46481E-05 3.70237E-05 4.13590E-25
 -1       851 1.33091E-05 4.04912E-05-8.27181E-25
 -1       852 1.19832E-05 4.39242E-05 0.00000E+00
 -1       853 1.06834E-05 4.72878E-05 0.00000E+00
 -1       854 9.42260E-06 5.05475E-05 0.00000E+00
 -1       855 8.21427E-06 5.36685E-05-1.65436E-24
 -1       856 2.24557E-05 5.98110E-05 1.65436E-24
 -1       857 2.23309E-05 6.31005E-05-1.65436E-24
 -1       858 2.22054E-05 6.65769E-05 0.00000E+00
 -1       859 2.20786E-05 7.02109E-05-1.65436E-24
 -1       860 2.19512E-05 7.39731E-05 0.00000E+00
 -1       861 2.18232E-05 7.78339E-05 0.00000E+00
 -1       862 2.16950E-05 8.17638E-05 0.00000E+00
 -1       863 2.15666E-05 8.57333E-05-1.65436E-24
 -1       864 2.14382E-05 8.97126E-05-3.30872E-24
 -1       865 2.13098E-05 9.36721E-05 1.65436E-24
 -1       866 2.11816E-05 9.75824E-05 0.00000E+00
 -1       867 2.10539E-05 1.01414E-04 1.65436E-24
 -1       868 2.09266E-05 1.05136E-04 0.00000E+00
 -1       869 2.08002E-05 1.08721E-04 1.65436E-24
 -1       870 2.06744E-05 1.12139E-04 0.00000E+00
 -1       871 1.98531E-05 5.67191E-05 0.00000E+00
 -1       872 1.72645E-05 5.66997E-05 0.00000E+00
 -1       873 1.47505E-05 5.66802E-05-8.27181E-25
 -1       874 1.22523E-05 5.66602E-05 4.13590E-25
 -1       875 9.71109E-06 5.66395E-05 4.13590E-25
 -1       876 2.15988E-05 5.98479E-05 0.00000E+00
 -1       877 2.05647E-05 6.31359E-05 0.00000E+00
 -1       878 1.94729E-05 6.65762E-05-6.61744E-24
 -1       879 1.83331E-05 7.01464E-05-3.30872E-24
 -1       880 1.71529E-05 7.38234E-05 0.00000E+00
 -1       881 1.59409E-05 7.75848E-05 0.00000E+00
 -1       882 1.47055E-05 8.14082E-05-6.61744E-24
 -1       883 1.34552E-05 8.52709E-05 0.00000E+00
 -1       884 1.21984E-05 8.91508E-05 6.61744E-24
 -1       885 1.09436E-05 9.30254E-05-3.30872E-24
 -1       886 9.69916E-06 9.68723E-05 0.00000E+00
 -1       887 8.47352E-06 1.00669E-04 0.00000E+00
 -1       888 7.27508E-06 1.04394E-04 3.30872E-24
 -1       889 6.11148E-06 1.08023E-04 0.00000E+00
 -1       890 4.99229E-06 1.11534E-04-1.65436E-24
 -1       891 1.76448E-05 1.15284E-04 0.00000E+00
 -1       892 1.49389E-05 1.15207E-04 0.00000E+00
 -1       893 1.23244E-05 1.15131E-04 0.00000E+00
 -1       894 9.68996E-06 1.15054E-04-8.27181E-25
 -1       895 6.92445E-06 1.14978E-04-8.27181E-25
 -1       896 2.67216E-07 9.55146E-07 6.61744E-24
 -1       897 5.36486E-07 1.66888E-06 0.00000E+00
 -1       898 8.05930E-07 2.16983E-06 0.00000E+00
 -1       899 1.07569E-06 2.48675E-06 0.00000E+00
 -1       900 1.34555E-06 2.64816E-06-6.61744E-24
 -1       901 1.61546E-06 2.68237E-06 0.00000E+00
 -1       902 1.88538E-06 2.61756E-06 6.61744E-24
 -1       903 2.15530E-06 2.48179E-06 3.30872E-24
 -1       904 2.42519E-06 2.30303E-06-6.61744E-24
 -1       905 2.69503E-06 2.10921E-06 3.30872E-24
 -1       906 2.96480E-06 1.92823E-06 0.00000E+00
 -1       907 3.23434E-06 1.78800E-06 3.30872E-24
 -1       908 3.50362E-06 1.71650E-06 0.00000E+00
 -1       909 3.77168E-06 1.74177E-06 3.30872E-24
 -1       910 4.03951E-06 1.89200E-06 6.61744E-24
 -1       911 4.36406E-06 2.47584E-06 1.65436E-24
 -1       912 4.43064E-06 2.55731E-06-8.27181E-25
 -1       913 4.49723E-06 2.46730E-06-1.65436E-24
 -1       914 4.56387E-06 2.23371E-06-8.27181E-25
 -1       915 4.63050E-06 1.88440E-06-1.65436E-24
 -1       916 4.69710E-06 1.44717E-06 0.00000E+00
 -1       917 4.76368E-06 9.49815E-07-1.65436E-24
 -1       918 4.83024E-06 4.20108E-07 8.27181E-25
 -1       919 4.89677E-06-1.14188E-07 1.65436E-24
 -1       920 4.96327E-06-6.25307E-07 0.00000E+00
 -1       921 5.02971E-06-1.08549E-06-1.65436E-24
 -1       922 5.09598E-06-1.46695E-06-8.27181E-25
 -1       923 5.16202E-06-1.74187E-06-1.65436E-24
 -1       924 5.22695E-06-1.88244E-06 0.00000E+00
 -1       925 5.29169E-06-1.86075E-06 4.13590E-25
 -1       926 5.02281E-06-1.39135E-06 0.00000E+00
 -1       927 4.68921E-06-1.24507E-06 3.30872E-24
 -1       928 4.35543E-06-1.19124E-06-1.32349E-23
 -1       929 4.02050E-06-1.21039E-06 0.00000E+00
 -1       930 3.68532E-06-1.28300E-06 0.00000E+00
 -1       931 3.34993E-06-1.38944E-06 0.00000E+00
 -1       932 3.01446E-06-1.51004E-06 0.00000E+00
 -1       933 2.67895E-06-1.62511E-06 0.00000E+00
 -1       934 2.34342E-06-1.71496E-06 1.32349E-23
 -1       935 2.00791E-06-1.75996E-06 6.61744E-24
 -1       936 1.67242E-06-1.74052E-06 1.32349E-23
 -1       937 1.33700E-06-1.63716E-06-6.61744E-24
 -1       938 1.00166E-06-1.43051E-06 1.32349E-23
 -1       939 6.66704E-07-1.10139E-06-6.61744E-24
 -1       940 3.31773E-07-6.30735E-07 0.00000E+00
 -1       941 5.41650E-07 6.34555E-07 0.00000E+00
 -1       942 1.11976E-06 1.13456E-06 0.00000E+00
 -1       943 1.69877E-06 1.52961E-06 1.32349E-23
 -1       944 2.28258E-06 1.84923E-06 0.00000E+00
 -1       945 2.86746E-06 2.12275E-06 0.00000E+00
 -1       946 3.45324E-06 2.37939E-06 0.00000E+00
 -1       947 4.03932E-06 2.64831E-06 0.00000E+00
 -1       948 4.62555E-06 2.95871E-06 0.00000E+00
 -1       949 5.21177E-06 3.33990E-06 0.00000E+00
 -1       950 5.79785E-06 3.82138E-06 0.00000E+00
 -1       951 6.38363E-06 4.43287E-06 0.00000E+00
 -1       952 6.96865E-06 5.20450E-06 0.00000E+00
 -1       953 7.55269E-06 6.16673E-06 1.32349E-23
 -1       954 8.13288E-06 7.35058E-06 0.00000E+00
 -1       955 8.71212E-06 8.78762E-06-6.61744E-24
 -1       956 9.13224E-06 1.25616E-05 2.99853E-24
 -1       957 8.99720E-06 1.48244E-05-7.23783E-25
 -1       958 8.86109E-06 1.72775E-05-1.65436E-24
 -1       959 8.72420E-06 1.98996E-05-8.27181E-25
 -1       960 8.58680E-06 2.26688E-05 0.00000E+00
 -1       961 8.44900E-06 2.55636E-05 1.65436E-24
 -1       962 8.31089E-06 2.85620E-05-3.30872E-24
 -1       963 8.17253E-06 3.16424E-05-1.65436E-24
 -1       964 8.03399E-06 3.47828E-05 0.00000E+00
 -1       965 7.89534E-06 3.79614E-05 1.65436E-24
 -1       966 7.75666E-06 4.11565E-05 0.00000E+00
 -1       967 7.61804E-06 4.43462E-05-1.65436E-24
 -1       968 7.47959E-06 4.75086E-05 0.00000E+00
 -1       969 7.34151E-06 5.06220E-05 0.00000E+00
 -1       970 7.20404E-06 5.36647E-05 3.30872E-24
 -1       971 6.87844E-06 5.95942E-05-3.30872E-24
 -1       972 6.68267E-06 6.27912E-05-3.30872E-24
 -1       973 6.48619E-06 6.61794E-05-6.61744E-24
 -1       974 6.28856E-06 6.97310E-05 0.00000E+00
 -1       975 6.09034E-06 7.34181E-05 6.61744E-24
 -1       976 5.89162E-06 7.72130E-05 0.00000E+00
 -1       977 5.69257E-06 8.10875E-05 0.00000E+00
 -1       978 5.49331E-06 8.50135E-05 0.00000E+00
 -1       979 5.29397E-06 8.89629E-05 6.61744E-24
 -1       980 5.09468E-06 9.29076E-05 0.00000E+00
 -1       981 4.89558E-06 9.68193E-05 0.00000E+00
 -1       982 4.69687E-06 1.00670E-04 0.00000E+00
 -1       983 4.49869E-06 1.04432E-04 0.00000E+00
 -1       984 4.30186E-06 1.08076E-04 0.00000E+00
 -1       985 4.10568E-06 1.11575E-04 0.00000E+00
 -3
    1PSTEP                         2           1           1          
  100CL  101 1.000000000         841                     0    1           1
 -4  STRESS      6    1
 -5  SXX         1    4    1    1
 -5  SYY         1    4    2    2
 -5  SZZ         1    4    3    3
 -5  SXY         1    4    1    2
 -5  SYZ         1    4    2    3
 -5  SZX         1    4    3    1
 -1         1-1.80422E+06-5.41434E+05-1.42195E+05-7.12566E+05 8.00355E-11-1.38243E-09
 -1         2-1.08326E+06 1.26318E+04 1.97326E+03-1.50738E+05-1.05047E-10-4.65297E-09
 -1         3-4.07345E+05-1.44843E+05 3.48860E+02-7.96663E+04-7.71934E-11-2.67505E-09
 -1         4-7.72860E+04-3.52996E+04 1.48312E+02-2.55618E+04-1.19741E-10-3.29067E-09
 -1         5 4.28481E+04 6.21772E+05-8.15408E+04 1.55328E+03 8.22183E-10 1.03120E-09
 -1         8-4.09681E+05-3.17606E+05-8.60045E+03-5.33082E+05 5.38421E-10 1.91358E-09
 -1         9-8.01084E+05-1.20125E+05-4.84680E+04-4.02280E+05 2.29253E-09-5.62674E-10
 -1        10-4.41162E+05-2.37517E+05 6.37306E+02-2.51691E+05-1.13232E-10-4.08363E-10
 -1        11-1.33642E+05-7.63810E+04 1.60902E+02-1.26027E+05 1.24472E-09-2.48663E-09
 -1        12 4.67144E+04 6.18816E+05-7.89110E+04 1.07345E+04 1.90710E-09 2.89549E-09
 -1        15 1.48565E+04-1.03275E+04 1.35874E+03-1.64283E+05-2.99224E-10-1.60071E-10
 -1        16-3.84281E+05-1.13330E+05-2.85500E+04-3.54493E+05 1.01409E-09-1.20114E-09
 -1        17-2.93408E+05-2.06786E+05 1.32557E+04-3.73763E+05-4.01997E-10 5.82077E-11
 -1        18-5.21785E+04-7.38300E+04-1.76062E+04-2.80857E+05 1.11565E-09 2.05182E-09
 -1        19 1.79826E+05 3.35972E+05-3.32223E+04-1.74958E+04-1.19417E-09 1.37031E-10
 -1        20 1.24109E+05-7.80551E+04-1.28779E+04 8.08189E+04 1.11120E-08-1.20508E-09
 -1        21-1.77821E+04-1.70502E+05-7.55564E+02 1.17738E+04 4.12565E-08-9.56278E-09
 -1        22 2.83391E+04 1.70947E+05 6.14612E+02-8.73239E+04 4.45652E-11-9.29504E-10
 -1        23-1.72652E+05-8.63492E+03 1.13691E+03-1.94332E+05 4.04725E-10-6.66508E-10
 -1        24-2.60984E+05-4.54043E+04 6.24296E+04-3.41891E+05-8.64626E-10-4.12304E-10
 -1        25 9.40183E+04 3.73605E+04 8.56924E+04-3.58078E+05 1.40669E-09-9.58001E-11
 -1        26 9.30330E+02 2.86845E+05 1.68583E+04-1.12230E+05-2.44427E-09 9.19651E-10
 -1        27-3.51240E+04-5.67628E+04-2.60270E+04 1.19591E+05 8.00689E-09-2.31194E-09
 -1        28-8.79294E+03-1.18687E+05-7.97380E+02 6.47990E+04 2.68574E-09-2.15506E-09
 -1        29 3.73366E+05 2.80670E+05 9.59453E+02-5.30167E+04 1.37163E-10 1.48674E-09
 -1        30 1.28050E+05 3.27273E+04 8.63053E+02-8.66505E+04 5.49974E-10 3.63798E-12
 -1        31-4.01739E+05 2.81770E+04 1.84425E+03-1.23321E+05 2.24944E-10 8.89486E-10
 -1        32-1.81776E+05 5.04757E+04 1.21544E+05-3.40328E+05-1.04023E-11 1.92267E-09
 -1        33 1.64068E+05 3.02191E+05 1.23966E+05-1.53964E+05-4.40600E-09 1.21508E-09
 -1        34-2.43884E+05-2.71908E+04-5.72870E+03 6.54883E+04 2.89621E-09 1.81581E-09
 -1        35-4.11286E+04-3.99158E+04-6.27949E+02 9.17031E+04 1.52271E-08 5.09317E-11
 -1        36-2.42742E+06 7.07950E+03-7.39330E+04-2.13895E-08 3.73061E-10 3.44153E-09
 -1        37-2.45072E+06-1.66701E+04-4.45941E+04-3.27509E-08 1.43898E-10-2.39925E-09
 -1        38-2.43759E+06 6.47490E+02-1.89104E+04-1.15912E-08 1.39579E-10 9.12223E-10
 -1        39-2.43959E+06-1.15981E+03-1.01316E+04 3.43533E-08-3.71935E-10 1.25169E-09
 -1        40-2.43849E+06 8.31165E+01-4.84752E+03-3.09160E-09 2.10062E-10 8.25366E-11
 -1        41-2.43858E+06-7.61058E+01-2.68294E+03-8.04835E-09-1.76489E-09 2.49292E-09
 -1        42-2.43859E+06 2.02986E+01-1.67794E+03 6.36738E-09-2.35114E-10 3.52338E-09
 -1        43-2.43849E+06-1.06155E+01-1.62863E+03-1.85815E-09 7.26379E-10 5.76074E-09
 -1        44-2.43858E+06 2.86115E+01-2.31927E+03-8.93021E-10-1.19100E-11 5.02121E-09
 -1        45-2.43869E+06-1.31598E+02-4.33902E+03-7.76113E-09 4.99695E-11-3.69050E-09
 -1        46-2.43839E+06 1.41967E+02-8.22533E+03-2.58865E-09 6.86254E-11 3.05545E-09
 -1        47-2.44045E+06-2.00252E+03-1.74187E+04 3.73234E-09-4.70945E-11-5.97538E-10
 -1        48-2.43684E+06 1.11756E+03-3.26101E+04 1.47880E-08-4.22836E-10-2.53203E-09
 -1        49-2.45967E+06-2.87790E+04-7.69677E+04 1.11122E-08-4.67696E-10 3.47063E-09
 -1        50-2.41927E+06 1.22272E+04-1.27604E+05-1.31986E-08-2.83812E-10 3.64525E-09
 -1        51 3.97935E+04-5.64186E+05 1.08555E+05-8.92798E+05 3.20142E-10-2.24099E-09
 -1        52 1.88825E+04-5.48337E+05 5.78260E+04-1.08649E+06 5.31145E-10-3.63798E-09
 -1        53 6.88782E+03-5.68037E+05 2.78168E+04-8.89552E+05 6.03904E-10-1.93540E-09
 -1        54 1.26616E+04-5.70060E+05 1.90642E+04-1.08938E+06 3.41970E-10-1.82990E-09
 -1        55 1.39434E+04-5.73843E+05 1.74515E+04-8.89660E+05 3.12866E-10 3.53248E-09
 -1        56-3.09718E+06-4.25076E+05-1.70558E+05-1.18255E+06 9.82254E-11-9.50968E-09
 -1        57-3.14563E+06-5.02808E+05-1.01409E+05-1.19354E+06 1.07184E-09 2.67391E-10
 -1        58-3.12234E+06-4.46550E+05-3.98462E+04-1.18397E+06-7.63976E-11 9.02219E-10
 -1        59-3.11586E+06-4.63849E+05-2.08049E+04-1.19767E+06 1.06797E-09 4.96402E-09
 -1        60-3.12460E+06-4.48486E+05-9.24830E+03-1.18418E+06-3.99723E-10-4.94902E-09
 -1        61-3.11329E+06-4.60656E+05-4.85428E+03-1.19758E+06 8.04903E-10-3.66185E-10
 -1        62-3.12469E+06-4.48830E+05-2.76575E+03-1.18436E+06 8.06722E-10 2.59570E-09
 -1        63-3.11338E+06-4.60091E+05-2.52188E+03-1.19711E+06-1.14073E-09 4.39286E-09
 -1        64-3.12442E+06-4.49070E+05-3.57801E+03-1.18461E+06-5.91172E-11-2.83080E-09
 -1        65-3.11430E+06-4.59893E+05-7.02205E+03-1.19647E+06-8.52651E-10 2.87173E-10
 -1        66-3.12368E+06-4.49123E+05-1.38040E+04-1.18492E+06 6.63931E-10 3.66344E-09
 -1        67-3.11908E+06-4.63726E+05-3.12479E+04-1.19538E+06-1.10504E-09-4.80941E-09
 -1        68-3.11977E+06-4.46713E+05-5.99630E+04-1.18510E+06 4.41446E-10-3.71074E-10
 -1        69-3.16473E+06-5.21433E+05-1.52594E+05-1.18807E+06-1.29512E-09 3.25417E-09
 -1        70-3.08145E+06-4.14820E+05-2.56619E+05-1.18343E+06-2.94676E-10-2.76486E-09
 -1        71-8.78124E+05-1.84779E+03 1.93920E+04 9.50513E-09 5.96684E-10 2.88583E-09
 -1        72-8.71876E+05 4.36601E+03 1.16883E+04-1.70862E-08 3.53368E-10 4.29668E-09
 -1        73-8.75452E+05-1.69046E+02 4.94809E+03-1.38231E-08 1.63269E-10 1.23441E-09
 -1        74-8.74792E+05 3.03593E+02 2.62813E+03 5.50946E-09-8.08852E-10 8.26890E-09
 -1        75-8.75215E+05-2.10969E+01 1.21088E+03-8.32311E-09 1.75812E-10-1.00852E-09
 -1        76-8.75062E+05 1.99828E+01 5.77349E+02-7.49623E-09-3.39638E-11 1.34787E-09
 -1        77-8.75184E+05-2.52747E+00 1.89409E+02 7.18754E-09-9.28841E-11 7.52891E-11
 -1        78-8.75106E+05-5.62855E-01-8.72916E+01-1.39141E-08-1.97390E-09-1.36058E-09
 -1        79-8.75171E+05 5.14611E+00-4.03610E+02 1.21681E-08 8.10682E-10-3.17840E-10
 -1        80-8.75165E+05-3.10463E+01-9.53417E+02 6.00937E-09 3.28669E-11-6.20901E-10
 -1        81-8.75126E+05 3.31138E+01-1.91074E+03-2.68011E-09 1.68435E-10-1.93916E-09
 -1        82-8.75582E+05-4.72260E+02-4.10213E+03 1.31215E-08-4.58524E-10 1.38715E-09
 -1        83-8.74756E+05 2.63087E+02-7.70386E+03-3.06822E-09 5.37497E-10 1.50430E-09
 -1        84-8.80119E+05-6.79200E+03-1.81861E+04 2.86173E-09-6.92755E-10 2.76759E-09
 -1        85-8.70598E+05 2.87576E+03-3.01630E+04-1.49794E-09-6.12197E-10 2.88856E-09
 -1        86-1.55983E+04 5.98810E+05 1.65778E+05-4.89345E+04 2.76486E-10 1.42973E-09
 -1        87 3.80029E+04 6.51880E+05 1.11951E+05-1.05089E+05 1.44701E-09 5.35692E-10
 -1        88-2.43835E+03 6.19050E+05 7.11140E+04-4.87166E+04 2.11458E-10 3.77258E-09
 -1        89 3.04065E+04 6.45606E+05 9.42040E+04-1.05245E+05 2.54659E-09-2.92175E-09
 -1        90-1.15872E+04 6.03960E+05 1.30185E+05-4.87372E+04 1.30967E-10 3.91083E-11
 -1        91-1.39247E+06-1.94839E+05-4.61181E+04-5.30304E+05-3.09228E-10-5.78621E-09
 -1        92-1.40330E+06-2.18005E+05-2.74106E+04-5.35801E+05 3.30829E-10 5.24960E-09
 -1        93-1.39929E+06-2.00605E+05-1.07835E+04-5.30681E+05-4.47926E-11 3.20460E-09
 -1        94-1.39524E+06-2.07521E+05-5.63411E+03-5.36949E+05 1.80222E-10 1.19690E-09
 -1        95-1.39992E+06-2.01113E+05-2.51252E+03-5.30728E+05 3.86535E-10-9.70090E-10
 -1        96-1.39452E+06-2.06690E+05-1.33184E+03-5.36963E+05-1.58479E-10-9.76684E-10
 -1        97-1.39996E+06-2.01185E+05-7.82317E+02-5.30756E+05 2.45336E-10-2.75236E-09
 -1        98-1.39451E+06-2.06578E+05-7.55617E+02-5.36886E+05-3.08319E-10 3.65708E-09
 -1        99-1.39991E+06-2.01224E+05-1.11493E+03-5.30798E+05 1.36197E-10 2.15709E-09
 -1       100-1.39474E+06-2.06590E+05-2.22212E+03-5.36777E+05 3.71074E-10 3.03316E-10
 -1       101-1.39972E+06-2.01194E+05-4.38022E+03-5.30848E+05-2.68301E-11 1.21872E-09
 -1       102-1.39616E+06-2.07895E+05-9.92200E+03-5.36544E+05 1.10413E-09 4.32738E-09
 -1       103-1.39853E+06-2.00380E+05-1.90361E+04-5.30848E+05-1.45747E-10-1.27329E-11
 -1       104-1.41054E+06-2.26256E+05-4.84033E+04-5.34328E+05-6.94762E-10-1.45428E-09
 -1       105-1.38640E+06-1.90275E+05-8.14417E+04-5.30265E+05 7.56700E-10-2.26282E-09
 -1       106-1.80137E+05-3.39094E+03 3.56543E+04 1.30331E-08-6.57564E-10 5.56611E-10
 -1       107-1.68776E+05 8.02202E+03 2.14946E+04 8.22183E-10 5.45825E-10 5.42195E-09
 -1       108-1.75220E+05-3.10423E+02 9.11189E+03-2.96779E-09 3.56298E-11 1.63755E-09
 -1       109-1.74134E+05 5.57539E+02 4.85840E+03 1.10589E-08 9.17547E-11 7.06223E-10
 -1       110-1.74783E+05-3.92874E+01 2.27651E+03 1.79033E-09-6.19459E-11 1.11709E-09
 -1       111-1.74626E+05 3.66114E+01 1.16213E+03-1.91940E-09-2.47781E-10 5.48613E-09
 -1       112-1.74729E+05-6.83883E+00 5.45436E+02 8.90732E-09 1.29327E-11 7.31461E-10
 -1       113-1.74690E+05 1.55821E+00 2.42451E+02-6.54592E-09 1.84894E-11 1.36191E-09
 -1       114-1.74719E+05-4.25332E-01 4.94550E+01-1.48528E-08-4.63083E-10-2.86974E-09
 -1       115-1.74711E+05-5.96494E+00-1.17962E+02-1.70419E-08 1.03594E-09-1.48633E-09
 -1       116-1.74708E+05 5.98070E+00-3.33622E+02-7.80188E-09-5.07879E-11 2.96581E-10
 -1       117-1.74793E+05-9.01213E+01-7.67622E+02 5.42880E-09-1.82044E-09 2.99735E-10
 -1       118-1.74637E+05 5.00693E+01-1.46363E+03 5.84948E-09 1.05314E-09 5.64967E-10
 -1       119-1.75660E+05-1.29598E+03-3.46845E+03 2.10230E-08-1.52735E-10 2.21064E-10
 -1       120-1.73842E+05 5.47998E+02-5.75753E+03 1.18831E-09-1.93338E-10-1.80398E-09
 -1       121-8.20651E+02-4.74968E+05 8.41476E+03-4.30473E+04 3.33785E-10 4.76575E-10
 -1       122 2.10034E+03-4.72231E+05 7.05414E+03-9.37668E+04 1.05547E-09 8.22183E-09
 -1       123-1.81315E+02-4.74314E+05 6.83983E+03-4.27665E+04 7.28505E-10-2.23554E-09
 -1       124 4.73720E+03-4.70625E+05 1.27949E+04-9.40095E+04 1.64800E-09-3.45835E-09
 -1       125-1.79106E+03-4.76969E+05 2.00174E+04-4.28021E+04 9.42237E-10 3.65003E-09
 -1       126-5.97017E+05-8.64684E+04-1.17846E+04-2.29635E+05-4.51962E-10-2.06455E-09
 -1       127-5.96401E+05-9.57354E+04-7.00400E+03-2.34882E+05 1.24260E-09 1.70758E-09
 -1       128-5.98781E+05-8.79188E+04-2.75949E+03-2.29712E+05-5.70253E-10-4.18891E-09
 -1       129-5.94326E+05-9.30803E+04-1.44649E+03-2.35202E+05-4.22204E-10-3.76509E-10
 -1       130-5.98944E+05-8.80450E+04-6.55748E+02-2.29721E+05 2.44157E-10 2.33385E-09
 -1       131-5.94141E+05-9.28714E+04-3.69099E+02-2.35209E+05 2.14385E-10-3.02768E-09
 -1       132-5.98954E+05-8.80634E+04-2.58946E+02-2.29728E+05-1.41313E-09-1.50806E-09
 -1       133-5.94146E+05-9.28437E+04-3.20301E+02-2.35186E+05-4.49177E-10-2.54659E-10
 -1       134-5.98931E+05-8.80739E+04-5.44981E+02-2.29740E+05-2.47610E-10-1.51567E-09
 -1       135-5.94245E+05-9.28694E+04-1.13606E+03-2.35148E+05 5.55133E-10 2.52703E-09
 -1       136-5.98841E+05-8.80503E+04-2.26374E+03-2.29754E+05-1.95359E-09-2.91652E-09
 -1       137-5.94957E+05-9.35670E+04-5.13740E+03-2.35050E+05-1.24828E-10 3.36695E-09
 -1       138-5.98232E+05-8.76183E+04-9.86267E+03-2.29738E+05 1.22191E-09 3.54248E-09
 -1       139-6.02384E+05-1.03079E+05-2.50668E+04-2.33910E+05-1.50089E-09 6.05723E-10
 -1       140-5.91937E+05-8.23994E+04-4.21823E+04-2.29433E+05-4.60432E-10 3.01588E-09
 -1       141 3.28770E+03-1.05730E+03 1.11144E+04-2.01624E-09-2.35422E-10-6.97037E-09
 -1       142 6.82572E+03 2.50159E+03 6.69244E+03-4.50996E-09-3.62725E-10-7.30051E-09
 -1       143 4.82219E+03-9.65393E+01 2.81833E+03-2.54692E-08 2.36644E-10-5.80485E-10
 -1       144 5.15313E+03 1.73985E+02 1.46648E+03 9.03800E-09-8.29984E-10 1.02025E-09
 -1       145 4.96014E+03-1.12112E+01 6.13290E+02 7.84275E-09 4.91792E-10-9.51445E-10
 -1       146 4.99293E+03 1.15584E+01 1.64654E+02-2.89665E-09-6.53639E-10 6.72337E-10
 -1       147 4.98239E+03 2.20663E+00-2.19922E+02 5.61337E-10 2.61547E-11 1.02486E-09
 -1       148 4.94180E+03-4.63971E+00-7.22847E+02-1.03554E-08 3.25685E-10 1.07453E-09
 -1       149 5.01128E+03 1.94510E+01-1.55364E+03-1.21398E-08-5.04141E-11-3.31397E-10
 -1       150 4.76290E+03-1.02868E+02-3.27745E+03-1.63969E-08-6.97613E-11-2.13390E-09
 -1       151 5.16135E+03 1.10489E+02-6.40487E+03-2.25025E-09 1.27894E-10 4.73165E-10
 -1       152 3.38172E+03-1.56685E+03-1.36601E+04-8.67789E-09-2.02044E-10 2.06796E-09
 -1       153 6.39338E+03 8.72571E+02-2.56124E+04-8.33586E-09-2.44306E-10 2.10002E-09
 -1       154-1.16760E+04-2.25449E+04-6.04161E+04 2.38206E-08 3.49932E-10-4.20187E-09
 -1       155 2.02357E+04 9.53808E+03-1.00166E+05 1.03864E-09 5.04637E-10-2.62662E-09
 -1       156 2.30082E+01-1.20830E+05-3.29006E+02-2.22242E+04 9.64292E-10 1.50976E-09
 -1       157-3.07432E+00-1.20902E+05 6.60140E+02-4.82350E+04 6.81894E-10 2.88583E-09
 -1       158-5.57996E+01-1.21084E+05 1.95266E+03-2.20822E+04 2.36491E-09 1.88356E-09
 -1       159 1.96275E+03-1.19604E+05 5.01412E+03-4.83759E+04 1.04183E-09 1.65778E-09
 -1       160-7.75096E+02-1.22287E+05 8.45160E+03-2.20826E+04 2.95768E-09 4.65775E-09
 -1       161-1.38212E+05-2.10041E+04-4.17539E+03-5.47714E+04-1.06490E-09-4.86602E-09
 -1       162-1.37171E+05-2.51175E+04-2.48665E+03-5.75838E+04-2.63029E-10 4.42881E-10
 -1       163-1.38829E+05-2.15250E+04-9.90413E+02-5.48064E+04-6.58588E-10-3.38909E-09
 -1       164-1.36444E+05-2.41691E+04-5.40583E+02-5.76856E+04 5.14319E-10-4.60905E-09
 -1       165-1.38884E+05-2.15721E+04-2.90682E+02-5.48116E+04-5.11591E-10-5.19810E-09
 -1       166-1.36385E+05-2.40940E+04-2.55528E+02-5.76858E+04-2.88082E-10 1.25306E-09
 -1       167-1.38882E+05-2.15767E+04-3.48580E+02-5.48133E+04-8.16044E-10-3.77599E-09
 -1       168-1.36410E+05-2.40967E+04-6.67162E+02-5.76850E+04-3.52884E-10-9.69919E-10
 -1       169-1.38853E+05-2.15639E+04-1.32554E+03-5.48120E+04 9.01082E-10-1.68711E-10
 -1       170-1.36609E+05-2.42418E+04-2.88002E+03-5.76949E+04-4.08249E-10 4.95129E-09
 -1       171-1.38677E+05-2.14427E+04-5.78628E+03-5.47962E+04 2.14868E-10 1.41017E-09
 -1       172-1.38340E+05-2.61417E+04-1.31688E+04-5.75992E+04-5.61613E-11-1.28734E-08
 -1       173-1.37196E+05-2.02552E+04-2.52811E+04-5.46819E+04 9.44283E-10-1.07866E-09
 -1       174-1.57161E+05-5.07553E+04-6.42676E+04-5.49780E+04-2.14914E-09-3.13503E-09
 -1       175-1.21225E+05-6.68696E+03-1.08108E+05-5.37022E+04 2.80124E-09-2.72121E-09
 -1       191 1.71799E+04 1.50495E+06 4.65387E+04 1.94206E+03 1.16415E-10-1.76442E-10
 -1       192 6.07725E+03 1.51431E+06 2.79763E+04 2.93977E+03 3.90855E-10-2.87400E-09
 -1       193 9.46835E+02 1.50860E+06 2.06489E+04 2.14393E+03 6.34600E-10 2.66482E-09
 -1       194 6.23776E+03 1.51443E+06 2.84828E+04 2.53786E+03-2.00544E-10 6.01176E-10
 -1       195 1.76632E+04 1.50483E+06 4.77435E+04 2.36990E+03 9.53150E-10-2.01908E-10
 -1       251 2.90112E+05-1.06881E+04 9.22848E+04-6.93555E+04 2.76486E-10 3.86717E-09
 -1       252 3.21284E+05 1.95702E+04 5.60060E+04-1.50330E+05 1.06229E-09 3.27418E-10
 -1       253 3.02016E+05-1.72722E+03 2.34808E+04-6.88165E+04 7.27596E-10 1.42609E-09
 -1       254 3.05318E+05 9.59620E+02 1.27221E+04-1.50738E+05-3.31056E-10 2.39834E-09
 -1       255 3.02474E+05-3.85912E+02 5.93266E+03-6.89142E+04 1.89175E-10-3.55067E-09
 -1       256 3.02763E+05 2.11723E+02 3.26870E+03-1.50579E+05 4.44743E-10 8.02629E-10
 -1       257 3.02204E+05 6.70037E+01 1.84128E+03-6.89816E+04-6.09361E-11 3.89036E-09
 -1       258 3.02013E+05 4.22475E+02 1.53325E+03-1.50488E+05-1.95541E-10 1.19962E-09
 -1       259 3.02082E+05 1.79817E+02 1.86415E+03-6.90047E+04 5.86624E-11 1.62208E-09
 -1       260 3.02188E+05 4.87555E+02 3.25685E+03-1.50493E+05-8.84484E-10 5.36966E-09
 -1       261 3.02107E+05-4.63235E+01 5.98732E+03-6.89758E+04 8.07631E-10 1.82240E-09
 -1       262 3.04155E+05 1.50357E+03 1.26587E+04-1.50571E+05 6.58474E-10 3.29686E-09
 -1       263 3.01410E+05-1.15372E+03 2.34950E+04-6.89262E+04-6.14818E-10 1.20781E-09
 -1       264 3.19430E+05 2.02422E+04 5.56886E+04-1.50205E+05-2.96495E-10-3.72438E-09
 -1       265 2.89353E+05-9.81594E+03 9.19827E+04-6.93665E+04-1.17143E-09 4.07454E-10
 -1       266-3.91018E+03-1.96771E+05 4.60069E+04-6.32678E+04 2.72848E-10 7.66704E-10
 -1       267 1.13718E+04-1.82501E+05 2.59494E+04-1.39438E+05 2.18733E-10-9.61336E-10
 -1       268 3.19712E+01-1.89822E+05 7.33318E+03-6.33470E+04 2.51021E-10 2.92857E-10
 -1       269-2.50514E+03-1.91255E+05-4.48388E+03-1.38908E+05 2.83762E-10 2.50930E-09
 -1       270 1.42114E+03-1.86347E+05-1.54467E+04-6.38338E+04-3.49246E-10 4.47835E-09
 -1       271-2.06480E+06-3.14883E+05-1.54746E+05-8.36547E+05 2.71029E-10-4.05271E-09
 -1       272-2.07485E+06-4.17128E+05-9.17143E+04-8.83354E+05-1.90630E-09-8.52924E-09
 -1       273-2.08918E+06-3.32595E+05-3.62916E+04-8.36892E+05-4.43833E-10-4.47471E-10
 -1       274-2.04718E+06-3.83581E+05-1.88037E+04-8.90024E+05-5.31145E-10 3.22052E-09
 -1       275-2.09233E+06-3.33260E+05-8.44068E+03-8.36554E+05-1.14596E-10 1.91721E-09
 -1       276-2.04442E+06-3.81695E+05-4.31421E+03-8.91916E+05 1.56888E-09 2.95040E-09
 -1       277-2.09320E+06-3.32800E+05-2.38134E+03-8.36286E+05-8.73115E-11 2.28965E-10
 -1       278-2.04407E+06-3.81908E+05-1.97769E+03-8.92788E+05-1.68393E-09-3.59341E-09
 -1       279-2.09339E+06-3.32587E+05-2.62792E+03-8.36191E+05-1.31627E-09-1.81808E-09
 -1       280-2.04437E+06-3.82139E+05-5.05164E+03-8.92793E+05 3.29237E-10 2.00907E-09
 -1       281-2.09288E+06-3.32599E+05-9.90203E+03-8.36263E+05-1.36151E-09-4.25644E-09
 -1       282-2.04746E+06-3.84950E+05-2.23562E+04-8.91721E+05-4.14730E-10 7.91260E-10
 -1       283-2.08974E+06-3.31232E+05-4.29929E+04-8.36383E+05 2.47383E-10-1.60071E-10
 -1       284-2.07997E+06-4.25699E+05-1.09111E+05-8.85227E+05 1.58980E-09 2.38651E-09
 -1       285-2.06145E+06-3.09379E+05-1.83796E+05-8.35502E+05 4.43833E-10-2.35741E-09
 -1       286-4.32666E+04-6.34811E+03 6.05550E+04-3.80335E+04 3.17232E-09 4.82032E-10
 -1       287-2.34232E+04 1.32739E+04 3.66255E+04-8.18483E+04 2.00998E-10 3.68527E-09
 -1       288-3.51686E+04-8.12583E+02 1.54479E+04-3.76233E+04 1.10958E-10-7.08496E-10
 -1       289-3.31717E+04 8.13972E+02 8.31465E+03-8.22661E+04-1.40244E-09-1.20963E-09
 -1       290-3.46369E+04-1.52429E+02 3.91184E+03-3.76004E+04 1.06047E-09 4.87944E-09
 -1       291-3.44107E+04 1.19552E+02 2.12905E+03-8.22947E+04 8.59472E-11-2.05500E-09
 -1       292-3.46802E+04 2.08935E+01 1.20550E+03-3.75958E+04 9.97716E-10-1.21577E-09
 -1       293-3.47053E+04 1.63498E+02 9.95760E+02-8.23020E+04 1.20235E-09 2.03181E-09
 -1       294-3.47265E+04 6.34893E+01 1.21870E+03-3.75930E+04 1.28941E-09 4.89763E-10
 -1       295-3.46273E+04 2.24246E+02 2.13629E+03-8.23027E+04 9.25411E-11-5.89944E-09
 -1       296-3.47757E+04-2.47725E+01 3.95625E+03-3.75949E+04 8.36735E-10 2.82239E-09
 -1       297-3.36032E+04 1.02454E+03 8.34194E+03-8.22841E+04 2.21007E-09 8.33609E-10
 -1       298-3.54012E+04-6.00733E+02 1.55490E+04-3.76112E+04 4.29281E-10-3.10683E-09
 -1       299-2.40533E+04 1.36089E+04 3.67326E+04-8.19678E+04 5.70253E-10-8.71296E-10
 -1       300-4.36059E+04-6.05896E+03 6.08157E+04-3.79191E+04-9.11314E-10-5.69344E-09
 -1       301 3.35367E+04 1.23499E+05 8.53378E+04-2.67018E+05 1.82990E-09-4.39650E-09
 -1       302 1.32317E+04 1.40178E+05 4.83073E+04-3.25808E+05 4.39832E-09-3.78350E-10
 -1       303 3.07554E+03 1.30133E+05 3.04565E+04-2.66612E+05 1.80444E-09-1.98349E-09
 -1       304 8.94781E+03 1.36972E+05 3.49741E+04-3.25835E+05 4.30737E-09-1.83172E-09
 -1       305 2.06915E+04 1.26630E+05 5.36034E+04-2.67028E+05 1.58252E-09 2.98496E-09
 -1       306-2.27008E+06-3.24630E+05-1.74571E+05-8.93555E+05 1.97360E-10-5.15138E-09
 -1       307-2.30442E+06-4.18695E+05-1.03694E+05-9.21692E+05 1.10231E-09-1.87720E-09
 -1       308-2.29668E+06-3.45675E+05-4.08363E+04-8.94355E+05-9.14042E-10-2.62844E-09
 -1       309-2.27323E+06-3.79995E+05-2.12615E+04-9.27553E+05-4.82032E-11-2.02272E-09
 -1       310-2.29961E+06-3.47044E+05-9.44832E+03-8.94141E+05 2.71939E-10 1.15506E-10
 -1       311-2.27004E+06-3.77495E+05-4.85950E+03-9.28647E+05 8.74934E-10 4.15025E-09
 -1       312-2.30019E+06-3.46924E+05-2.61639E+03-8.93949E+05 1.97406E-09 1.67759E-09
 -1       313-2.26960E+06-3.77529E+05-2.11318E+03-9.29055E+05 6.53472E-10-3.18323E-12
 -1       314-2.30026E+06-3.46847E+05-2.70254E+03-8.93898E+05-2.00751E-09-2.70484E-09
 -1       315-2.26994E+06-3.77704E+05-5.11085E+03-9.28970E+05-2.97405E-10 1.50385E-09
 -1       316-2.29981E+06-3.46808E+05-9.95276E+03-8.93987E+05 1.27147E-09 2.93221E-09
 -1       317-2.27316E+06-3.80575E+05-2.24706E+04-9.28182E+05 2.11458E-10 7.15772E-10
 -1       318-2.29688E+06-3.45189E+05-4.31270E+04-8.94089E+05-2.84672E-10 1.14596E-09
 -1       319-2.30593E+06-4.21782E+05-1.09614E+05-9.22414E+05-1.27307E-09-4.43833E-10
 -1       320-2.26896E+06-3.22726E+05-1.84467E+05-8.93071E+05-8.27640E-11-8.22183E-10
 -1       321 1.09112E+05-7.26635E+03 7.54834E+04-1.66811E+04 7.00311E-11-2.86673E-09
 -1       322 1.33203E+05 1.69207E+04 4.55233E+04-3.60382E+04-7.61702E-10-1.24783E-09
 -1       323 1.19475E+05-6.99925E+02 1.92955E+04-1.65362E+04 1.61890E-10-2.70211E-09
 -1       324 1.21754E+05 1.16104E+03 1.03124E+04-3.61722E+04-1.04228E-09 5.07339E-09
 -1       325 1.20367E+05-9.37110E+01 4.86056E+03-1.65381E+04 3.59250E-10 2.69711E-09
 -1       326 1.20652E+05 8.88438E+01 2.55048E+03-3.61647E+04 2.53522E-10 4.10296E-10
 -1       327 1.20458E+05-8.79664E+00 1.32788E+03-1.65442E+04-1.45292E-10-9.54969E-12
 -1       328 1.20504E+05 2.94411E+01 8.67312E+02-3.61579E+04-5.96600E-10-3.26111E-09
 -1       329 1.20467E+05 7.65518E-01 7.97401E+02-1.65450E+04 5.27848E-10-1.39084E-09
 -1       330 1.20546E+05 4.99032E+01 1.17975E+03-3.61601E+04-1.28910E-09-2.45814E-09
 -1       331 1.20438E+05-3.71687E+01 2.06760E+03-1.65419E+04 2.26009E-10 2.01908E-10
 -1       332 1.21021E+05 4.81178E+02 4.28861E+03-3.61661E+04 7.03722E-10-2.96218E-10
 -1       333 1.20085E+05-3.00797E+02 7.97525E+03-1.65389E+04 4.18368E-11-2.19848E-09
 -1       334 1.25794E+05 6.96658E+03 1.87988E+04-3.60459E+04 7.56245E-10 2.08070E-09
 -1       335 1.15829E+05-3.03595E+03 3.11433E+04-1.66650E+04-1.48975E-09 1.58434E-09
 -1       336-1.72865E+03-4.95888E+05 1.77765E+04-1.60802E+05 1.48248E-09-5.67525E-10
 -1       337 5.91858E+03-4.91212E+05 1.16843E+04-3.51215E+05 3.77077E-09-2.08092E-09
 -1       338 7.18686E+02-4.94483E+05 6.30705E+03-1.60114E+05 2.38651E-09 9.11314E-10
 -1       339 3.92586E+03-4.93393E+05 6.64411E+03-3.51386E+05 4.34375E-09 3.83807E-09
 -1       340-2.74031E+02-4.94737E+05 7.77050E+03-1.60627E+05 2.03909E-09 3.50519E-09
 -1       341-1.37655E+06-1.95113E+05-8.10042E+04-5.34717E+05-1.36697E-09 3.33603E-09
 -1       342-1.39287E+06-2.38524E+05-4.81369E+04-5.47515E+05-2.53749E-10 1.52249E-09
 -1       343-1.38871E+06-2.05071E+05-1.89479E+04-5.35234E+05 7.23048E-11-3.51247E-09
 -1       344-1.37854E+06-2.20337E+05-9.89208E+03-5.49845E+05-1.42245E-09-1.63141E-09
 -1       345-1.38992E+06-2.05853E+05-4.41208E+03-5.35228E+05 3.86990E-10-1.90676E-09
 -1       346-1.37716E+06-2.19030E+05-2.33111E+03-5.50089E+05-1.31945E-09-1.97429E-09
 -1       347-1.39009E+06-2.05893E+05-1.35900E+03-5.35201E+05 7.01903E-10-2.52862E-09
 -1       348-1.37703E+06-2.18963E+05-1.29573E+03-5.50129E+05-1.91600E-10 7.22139E-10
 -1       349-1.39007E+06-2.05893E+05-1.89425E+03-5.35206E+05-8.65612E-10-5.28644E-10
 -1       350-1.37730E+06-2.19089E+05-3.76837E+03-5.50063E+05 2.22190E-09-6.42103E-10
 -1       351-1.38978E+06-2.05802E+05-7.42315E+03-5.35238E+05 4.71800E-10-1.46110E-09
 -1       352-1.37962E+06-2.21382E+05-1.68144E+04-5.49742E+05-1.14051E-09-4.59522E-09
 -1       353-1.38778E+06-2.04403E+05-3.22629E+04-5.35194E+05-1.78306E-09-1.89175E-09
 -1       354-1.40390E+06-2.52559E+05-8.20305E+04-5.46016E+05-2.77623E-09 8.73115E-10
 -1       355-1.36721E+06-1.87267E+05-1.37999E+05-5.34167E+05-4.05635E-10 2.93949E-09
 -1       356 1.92865E+05-3.69994E+03 3.84969E+04-1.10280E+04 2.99224E-10-1.94086E-09
 -1       357 2.05137E+05 8.63074E+03 2.32098E+04-2.39108E+04 1.84627E-10-3.04362E-09
 -1       358 1.98158E+05-3.54527E+02 9.82097E+03-1.09456E+04 1.35969E-10 3.08182E-09
 -1       359 1.99306E+05 5.88286E+02 5.21236E+03-2.39832E+04 2.61480E-11 4.60659E-10
 -1       360 1.98619E+05-4.80167E+01 2.38506E+03-1.09521E+04 5.29781E-11-1.48407E-09
 -1       361 1.98745E+05 3.78447E+01 1.10639E+03-2.39721E+04 2.10321E-10-8.30596E-10
 -1       362 1.98674E+05-3.88896E+00 2.93891E+02-1.09568E+04-4.35989E-10 4.23756E-09
 -1       363 1.98644E+05 4.30961E-02-3.43001E+02-2.39674E+04 9.45994E-10 4.21960E-09
 -1       364 1.98705E+05 1.46002E+01-1.13660E+03-1.09569E+04 2.33626E-10 1.02773E-09
 -1       365 1.98499E+05-8.48051E+01-2.58529E+03-2.39728E+04-1.25249E-09 2.62708E-09
 -1       366 1.98835E+05 8.24412E+01-5.14183E+03-1.09515E+04-1.66438E-10 4.05498E-09
 -1       367 1.97408E+05-1.27786E+03-1.10094E+04-2.39837E+04 3.72893E-11-3.02862E-10
 -1       368 1.99844E+05 6.84064E+02-2.06685E+04-1.09462E+04 2.62389E-10 1.46065E-09
 -1       369 1.85302E+05-1.82216E+04-4.87505E+04-2.39114E+04-2.25168E-09-4.60022E-09
 -1       370 2.11036E+05 7.65128E+03-8.08461E+04-1.10162E+04 3.63798E-10 1.45519E-09
 -1       371-6.84458E+02-1.33037E+05 6.85294E+03-1.12538E+05 5.41331E-09-5.92991E-10
 -1       372 2.44345E+03-1.31383E+05 3.39620E+03-2.45153E+05 2.83035E-09 2.53203E-09
 -1       373 4.75577E+02-1.32351E+05-2.89685E+02-1.12134E+05 8.15362E-09 3.10388E-09
 -1       374-8.28200E+02-1.34042E+05-4.21191E+03-2.45231E+05 3.09410E-09-1.83809E-09
 -1       375 1.01638E+03-1.30800E+05-8.39782E+03-1.12461E+05 6.58292E-09 4.18004E-09
 -1       376-5.46428E+05-8.33721E+04-3.81373E+04-2.21330E+05-1.48361E-10-2.44108E-09
 -1       377-5.46976E+05-1.10925E+05-2.26610E+04-2.35541E+05-1.32513E-09-6.06815E-09
 -1       378-5.52170E+05-8.80344E+04-8.92988E+03-2.21577E+05-3.38787E-10-1.49294E-09
 -1       379-5.40266E+05-1.02353E+05-4.67372E+03-2.36632E+05-4.03929E-10 2.87616E-09
 -1       380-5.52723E+05-8.84200E+04-2.10994E+03-2.21601E+05 3.57204E-10-2.10150E-09
 -1       381-5.39657E+05-1.01701E+05-1.16763E+03-2.36703E+05-4.18140E-10-1.52323E-09
 -1       382-5.52779E+05-8.84586E+04-7.83802E+02-2.21605E+05-4.11092E-10-1.89732E-09
 -1       383-5.39622E+05-1.01649E+05-9.19800E+02-2.36677E+05 8.50378E-11-1.64005E-09
 -1       384-5.52734E+05-8.84748E+04-1.53022E+03-2.21615E+05 6.58929E-10-1.12436E-09
 -1       385-5.39840E+05-1.01768E+05-3.16269E+03-2.36606E+05-2.08956E-10-9.16316E-10
 -1       386-5.52487E+05-8.83945E+04-6.29615E+03-2.21620E+05-9.45874E-11-4.24734E-10
 -1       387-5.41741E+05-1.03760E+05-1.42763E+04-2.36358E+05 1.14687E-09-3.51247E-09
 -1       388-5.50801E+05-8.71940E+04-2.74143E+04-2.21539E+05 4.74756E-10-3.02498E-09
 -1       389-5.62254E+05-1.30262E+05-6.96467E+04-2.33222E+05-3.68527E-09 1.09139E-10
 -1       390-5.33323E+05-7.26603E+04-1.17192E+05-2.20614E+05 4.85579E-09-1.30967E-10
 -1       406 1.61398E+04 1.46978E+06 4.56629E+04 2.36240E+04 2.22644E-09-7.31234E-10
 -1       407 5.77963E+03 1.47909E+06 3.06540E+04 2.98847E+04-1.20963E-10 1.26511E-09
 -1       408 1.17913E+03 1.47304E+06 2.81121E+04 2.38795E+04 2.34377E-09 2.96131E-09
 -1       409 1.07576E+04 1.48288E+06 4.62289E+04 2.92734E+04-7.99901E-10-1.29512E-09
 -1       410 3.11014E+04 1.46619E+06 8.27252E+04 2.43131E+04 3.35422E-09 9.33142E-10
 -1       466 1.07033E+06-1.01251E+04 1.02099E+05-4.05255E+04-2.38288E-10-2.68119E-09
 -1       467 1.10310E+06 2.27087E+04 6.16493E+04-8.86387E+04 3.91083E-10-6.85759E-10
 -1       468 1.08419E+06-1.06184E+03 2.61197E+04-4.04609E+04 1.69166E-10-2.98314E-10
 -1       469 1.08722E+06 1.55330E+03 1.40218E+04-8.85044E+04 1.42791E-10-3.04590E-09
 -1       470 1.08528E+06-1.28195E+02 6.67310E+03-4.06369E+04 1.51886E-10-1.43245E-09
 -1       471 1.08553E+06 1.99840E+02 3.65263E+03-8.82476E+04 1.57115E-10 2.09275E-09
 -1       472 1.08535E+06 2.91836E+01 2.17736E+03-4.07188E+04 4.40423E-10 5.16320E-09
 -1       473 1.08533E+06 1.38787E+02 1.94218E+03-8.81879E+04-2.87173E-10 1.35742E-09
 -1       474 1.08536E+06 5.69124E+00 2.57120E+03-4.06968E+04-4.29736E-10 2.37378E-10
 -1       475 1.08569E+06 1.88932E+02 4.68032E+03-8.83388E+04-4.36557E-11-2.24600E-09
 -1       476 1.08528E+06-2.19926E+02 8.75524E+03-4.05676E+04-4.72937E-11-6.83031E-10
 -1       477 1.08794E+06 1.98112E+03 1.85373E+04-8.86799E+04 2.18279E-10 7.02016E-10
 -1       478 1.08382E+06-1.44416E+03 3.45854E+04-4.03539E+04-8.89486E-10 1.51886E-09
 -1       479 1.10891E+06 3.00437E+04 8.16763E+04-8.88566E+04-2.30739E-09-1.16415E-09
 -1       480 1.06542E+06-1.34078E+04 1.35306E+05-4.04298E+04-1.55342E-09-2.24099E-09
 -1       481-2.65261E+03 3.06281E+05 3.00459E+04-4.45616E+04 6.91216E-11-3.48791E-10
 -1       482 7.20735E+03 3.15629E+05 1.91551E+04-9.64445E+04-1.37732E-10 4.40518E-09
 -1       483-1.83714E+02 3.10227E+05 1.01595E+04-4.44770E+04-1.55751E-11 2.15687E-09
 -1       484 3.22383E+03 3.12942E+05 1.02889E+04-9.63824E+04 6.63931E-11 4.67480E-10
 -1       485-9.95437E+02 3.09214E+05 1.21734E+04-4.46289E+04 5.90035E-11-1.75896E-09
 -1       486-1.02034E+06-1.44767E+05-1.05848E+05-4.05717E+05-9.96806E-10-4.78758E-09
 -1       487-1.04298E+06-2.00150E+05-6.28904E+04-4.20930E+05-5.82077E-10-2.28283E-10
 -1       488-1.03624E+06-1.57761E+05-2.47634E+04-4.06423E+05-9.00400E-11 5.11136E-10
 -1       489-1.02431E+06-1.76380E+05-1.29003E+04-4.23997E+05 1.55978E-10 1.65983E-10
 -1       490-1.03784E+06-1.58770E+05-5.72022E+03-4.06431E+05 2.77396E-10 7.43967E-10
 -1       491-1.02252E+06-1.74679E+05-2.92558E+03-4.24363E+05 3.60160E-10 1.87265E-09
 -1       492-1.03810E+06-1.58789E+05-1.53088E+03-4.06383E+05 1.24146E-10-5.00904E-10
 -1       493-1.02230E+06-1.74631E+05-1.15547E+03-4.24503E+05 2.43745E-10 2.80551E-10
 -1       494-1.03815E+06-1.58750E+05-1.37375E+03-4.06358E+05-1.05729E-10-2.61593E-10
 -1       495-1.02243E+06-1.74757E+05-2.51432E+03-4.24537E+05 5.19478E-10 5.80030E-10
 -1       496-1.03799E+06-1.58668E+05-4.84499E+03-4.06356E+05-3.09228E-10-1.70076E-10
 -1       497-1.02389E+06-1.76272E+05-1.09181E+04-4.24358E+05 1.02773E-10 4.67935E-10
 -1       498-1.03670E+06-1.57761E+05-2.09281E+04-4.06314E+05 3.29692E-11-8.98581E-10
 -1       499-1.03962E+06-1.96456E+05-5.31807E+04-4.21891E+05-3.13207E-11-7.93079E-10
 -1       500-1.02331E+06-1.46716E+05-8.94865E+04-4.05673E+05 2.39652E-10 7.63976E-11
 -1       501 4.41815E+05-7.95492E+03 7.57816E+04-4.68666E+04 1.90266E-09-1.30967E-09
 -1       502 4.66584E+05 1.66375E+04 4.58456E+04-1.01664E+05 5.65706E-10 2.56478E-10
 -1       503 4.51912E+05-9.91054E+02 1.93466E+04-4.65670E+04 3.91083E-10 9.21318E-10
 -1       504 4.54308E+05 1.08394E+03 1.04224E+04-1.01845E+05 3.99268E-10-2.34695E-09
 -1       505 4.52558E+05-1.46899E+02 4.92588E+03-4.66653E+04 1.00772E-09 9.29504E-10
 -1       506 4.52740E+05 2.24107E+02 2.70896E+03-1.01684E+05 4.82487E-10 6.04496E-09
 -1       507 4.52507E+05 6.60884E+01 1.59526E+03-4.67296E+04 1.94632E-09 1.82217E-09
 -1       508 4.52413E+05 2.63396E+02 1.40990E+03-1.01607E+05 6.79393E-10-1.49157E-10
 -1       509 4.52469E+05 9.28584E+01 1.84176E+03-4.67420E+04 7.26004E-10 5.37739E-10
 -1       510 4.52629E+05 3.17696E+02 3.32630E+03-1.01632E+05 1.61890E-09 3.03680E-09
 -1       511 4.52425E+05-7.87742E+01 6.20549E+03-4.67042E+04 1.55887E-09 3.17419E-09
 -1       512 4.54318E+05 1.54162E+03 1.31318E+04-1.01743E+05 9.92259E-10 3.19761E-09
 -1       513 4.51467E+05-1.01302E+03 2.44753E+04-4.66303E+04 2.63753E-10-1.18598E-09
 -1       514 4.69424E+05 2.13277E+04 5.78543E+04-1.01562E+05-6.98492E-10-2.96222E-09
 -1       515 4.38564E+05-9.62512E+03 9.57723E+04-4.69046E+04-5.49335E-10-2.69210E-09
 -1       516-4.45696E+03 1.89619E+05 5.38788E+04-1.04048E+05 1.63709E-10 4.39286E-10
 -1       517 1.36057E+04 2.06142E+05 3.60537E+04-2.26300E+05 3.76394E-09 7.56199E-09
 -1       518-2.74357E+02 1.96423E+05 2.22498E+04-1.03862E+05-1.18234E-10 3.53884E-09
 -1       519 9.88664E+03 2.04623E+05 2.84941E+04-2.26092E+05 3.87445E-09-1.86719E-09
 -1       520-3.64913E+03 1.92727E+05 3.84557E+04-1.04272E+05-4.42924E-10-2.00816E-09
 -1       521-1.90974E+06-2.76475E+05-1.66859E+05-7.60079E+05 5.87534E-10-2.41562E-09
 -1       522-1.93887E+06-3.69942E+05-9.90917E+04-7.91149E+05 9.14952E-10-2.06455E-09
 -1       523-1.93519E+06-2.96546E+05-3.90421E+04-7.60894E+05-2.18279E-10 8.56744E-10
 -1       524-1.90919E+06-3.32912E+05-2.03126E+04-7.96757E+05 2.57387E-10 7.74889E-10
 -1       525-1.93799E+06-2.97857E+05-9.01707E+03-7.60741E+05-4.47471E-10 3.94721E-10
 -1       526-1.90624E+06-3.30463E+05-4.60137E+03-7.97782E+05 1.99634E-10-9.30186E-10
 -1       527-1.93855E+06-2.97749E+05-2.41158E+03-7.60589E+05 1.00272E-09-2.07677E-09
 -1       528-1.90586E+06-3.30460E+05-1.82536E+03-7.98152E+05 1.78261E-10-6.88487E-10
 -1       529-1.93862E+06-2.97687E+05-2.18598E+03-7.60551E+05-7.69887E-10 6.37101E-10
 -1       530-1.90611E+06-3.30578E+05-4.01518E+03-7.98051E+05 1.87606E-09 9.34051E-10
 -1       531-1.93822E+06-2.97697E+05-7.76649E+03-7.60631E+05-8.55835E-10 1.09503E-09
 -1       532-1.90861E+06-3.32765E+05-1.74849E+04-7.97310E+05-1.53523E-09 5.36602E-10
 -1       533-1.93586E+06-2.96524E+05-3.35663E+04-7.60733E+05-6.06633E-10 3.96540E-10
 -1       534-1.93412E+06-3.64657E+05-8.52356E+04-7.92543E+05-3.71074E-10 4.36557E-10
 -1       535-1.91397E+06-2.79261E+05-1.43508E+05-7.60033E+05 8.48331E-10 1.81899E-10
 -1       536 8.93756E+05-1.34559E+04 1.39322E+05-2.64264E+04-2.54659E-10 1.16415E-10
 -1       537 9.38226E+05 3.11523E+04 8.40278E+04-5.78877E+04-1.57343E-09 1.74623E-10
 -1       538 9.12856E+05-1.32757E+03 3.56245E+04-2.63402E+04 4.91127E-11 1.51340E-09
 -1       539 9.17025E+05 2.11813E+03 1.90590E+04-5.78286E+04-7.27596E-12 2.79215E-10
 -1       540 9.14479E+05-1.85445E+02 9.00579E+03-2.64579E+04 4.73847E-10-1.95587E-09
 -1       541 9.14947E+05 1.65422E+02 4.77752E+03-5.76379E+04-9.79981E-11 1.37425E-09
 -1       542 9.14632E+05-1.52899E+01 2.58113E+03-2.65320E+04-4.01087E-10-9.05402E-10
 -1       543 9.14660E+05 6.93134E+01 1.86493E+03-5.75493E+04-2.85979E-10 6.68479E-10
 -1       544 9.14635E+05 1.99206E+00 1.98705E+03-2.65468E+04 3.76303E-10 9.89871E-10
 -1       545 9.14795E+05 1.37880E+02 3.23861E+03-5.75765E+04-1.32945E-09 2.92516E-10
 -1       546 9.14538E+05-1.02218E+02 5.87514E+03-2.65046E+04 1.53250E-10-1.65466E-09
 -1       547 9.16137E+05 1.38880E+03 1.22983E+04-5.77108E+04 2.31012E-10-1.11493E-09
 -1       548 9.13507E+05-8.46937E+02 2.29276E+04-2.64119E+04-5.27507E-10-1.05319E-09
 -1       549 9.29814E+05 2.00401E+04 5.40451E+04-5.77468E+04 3.69255E-10-2.78305E-10
 -1       550 9.01243E+05-8.67446E+03 8.95708E+04-2.64815E+04-1.57524E-09-2.76486E-10
 -1       551 1.68575E+04-1.86687E+05 4.13198E+04-4.27808E+05 8.69477E-10-2.14641E-10
 -1       552 8.11131E+03-1.79367E+05 2.53324E+04-5.22120E+05-3.26327E-09 3.67891E-09
 -1       553 3.16029E+03-1.84515E+05 1.92943E+04-4.27047E+05 7.16682E-10 2.64754E-09
 -1       554 8.83054E+03-1.78937E+05 2.74467E+04-5.22154E+05-3.91810E-09 1.27329E-09
 -1       555 1.89670E+04-1.87303E+05 4.63586E+04-4.27768E+05-5.04770E-11-1.56797E-09
 -1       556-9.17813E+05-2.35768E+05-5.53243E+04-4.55810E+05-1.73168E-09 5.02041E-10
 -1       557-9.08237E+05-2.45513E+05-2.77008E+04-4.85628E+05 2.94131E-09 6.26369E-09
 -1       558-9.21226E+05-2.19099E+05-1.17963E+04-4.63606E+05-4.54747E-10 1.68347E-09
 -1       559-9.02050E+05-2.38856E+05-5.77690E+03-4.87002E+05-8.00355E-10-1.18257E-09
 -1       560-9.21877E+05-2.18426E+05-2.68767E+03-4.64056E+05-6.33008E-10-1.92586E-10
 -1       561-9.01858E+05-2.38549E+05-1.37314E+03-4.87213E+05-8.25821E-10 1.58252E-09
 -1       562-9.22111E+05-2.18359E+05-7.91442E+02-4.64154E+05-1.40062E-10 1.16961E-09
 -1       563-9.01925E+05-2.38511E+05-7.06622E+02-4.87295E+05 1.85764E-10 1.32241E-09
 -1       564-9.22130E+05-2.18334E+05-1.00493E+03-4.64170E+05-4.76632E-10-6.46651E-10
 -1       565-9.01942E+05-2.38523E+05-1.94229E+03-4.87274E+05-2.28783E-09-9.67702E-10
 -1       566-9.21923E+05-2.18346E+05-3.90116E+03-4.64101E+05-6.34827E-10-2.64117E-09
 -1       567-9.02386E+05-2.38934E+05-8.46550E+03-4.87151E+05-5.37511E-10-1.93177E-09
 -1       568-9.21183E+05-2.19178E+05-1.72843E+04-4.63527E+05 1.54614E-10-3.10320E-09
 -1       569-9.11468E+05-2.48932E+05-4.06793E+04-4.85687E+05 3.33421E-09 1.63709E-10
 -1       570-9.16670E+05-2.43251E+05-8.11733E+04-4.51915E+05 6.51198E-10-5.69344E-10
 -1       571 7.99505E+05 3.30924E+04 8.65134E+04-1.19748E+05 1.25874E-09-6.07542E-10
 -1       572 8.16824E+05 1.12476E+04 4.45439E+04-1.45380E+05-8.44011E-10-2.38288E-09
 -1       573 8.06820E+05 7.54475E+02 2.00447E+04-1.19167E+05-1.01500E-09-2.20098E-10
 -1       574 8.08162E+05 2.18121E+02 1.02386E+04-1.45928E+05 4.09273E-11-2.87946E-09
 -1       575 8.07183E+05-1.76086E+02 4.94375E+03-1.19137E+05 2.45564E-10 1.82445E-09
 -1       576 8.07288E+05-3.79610E+01 2.54173E+03-1.45959E+05-1.47020E-09 2.95313E-09
 -1       577 8.07186E+05-3.93718E+01 1.28018E+03-1.19138E+05-7.47775E-10 3.05590E-10
 -1       578 8.07192E+05-7.37649E+00 7.26406E+02-1.45963E+05 8.94943E-10-7.74889E-10
 -1       579 8.07281E+05-5.85347E+01 4.89963E+02-1.19133E+05-3.27418E-11-7.69433E-10
 -1       580 8.07381E+05-1.07456E+02 5.32117E+02-1.45979E+05 1.46429E-10 5.30599E-09
 -1       581 8.07513E+05-2.18919E+02 7.91999E+02-1.19122E+05-7.74889E-10 1.37516E-09
 -1       582 8.07868E+05-2.67985E+02 1.54922E+03-1.45953E+05-4.80213E-10 2.26191E-09
 -1       583 8.07823E+05-3.17221E+02 2.94481E+03-1.19158E+05-8.58563E-10-1.25647E-09
 -1       584 8.09689E+05 1.09458E+03 6.58594E+03-1.45264E+05-4.65297E-09-1.56615E-09
 -1       585 8.07197E+05 4.20089E+03 1.27134E+04-1.19823E+05 1.77170E-09 1.34241E-09
 -1       586 7.42645E+03 1.17091E+05 1.78317E+04-4.43843E+05 4.10364E-09-2.14641E-10
 -1       587 4.63503E+03 1.19606E+05 1.31247E+04-5.41412E+05 3.52156E-09-8.14907E-10
 -1       588 2.64156E+03 1.16973E+05 1.35254E+04-4.43004E+05 4.46744E-09 1.62345E-09
 -1       589 8.24709E+03 1.21881E+05 2.38800E+04-5.41533E+05 4.50018E-09-2.47383E-10
 -1       590 1.80728E+04 1.14092E+05 4.34532E+04-4.43702E+05 3.92174E-09-3.72893E-09
 -1       591-6.04008E+05-1.64227E+05-6.87125E+04-2.95032E+05 8.11269E-10 7.49424E-10
 -1       592-6.03240E+05-1.65451E+05-3.44496E+04-3.19421E+05 1.89539E-09 2.79169E-09
 -1       593-6.07528E+05-1.44043E+05-1.46314E+04-3.04888E+05 2.16460E-10 5.66615E-10
 -1       594-5.95488E+05-1.56923E+05-7.18319E+03-3.20360E+05-1.21508E-09 9.18874E-10
 -1       595-6.07998E+05-1.43435E+05-3.32674E+03-3.05305E+05-8.25821E-10-3.81306E-10
 -1       596-5.95007E+05-1.56608E+05-1.70282E+03-3.20349E+05-3.80987E-09-9.51968E-09
 -1       597-6.08089E+05-1.43472E+05-9.65654E+02-3.05320E+05 4.30191E-10 1.56797E-09
 -1       598-5.94955E+05-1.56611E+05-8.42353E+02-3.20327E+05 1.08037E-09 3.27418E-10
 -1       599-6.08048E+05-1.43486E+05-1.16382E+03-3.05302E+05-5.00222E-11 4.04725E-10
 -1       600-5.94964E+05-1.56632E+05-2.22203E+03-3.20296E+05 1.49294E-09-8.36735E-10
 -1       601-6.07858E+05-1.43467E+05-4.43590E+03-3.05247E+05-2.96495E-09 1.10595E-09
 -1       602-5.95562E+05-1.57072E+05-9.62008E+03-3.20266E+05-2.45927E-09-3.98359E-09
 -1       603-6.07193E+05-1.44308E+05-1.96154E+04-3.04669E+05-2.47019E-09 8.22183E-10
 -1       604-6.05915E+05-1.68517E+05-4.61762E+04-3.18994E+05-5.99994E-09-1.67347E-10
 -1       605-6.02476E+05-1.71322E+05-9.20959E+04-2.91420E+05-3.44153E-09 7.27596E-11
 -1       606 2.39366E+05-1.76408E+04-4.56889E+04 5.13189E+04-1.42318E-08-1.08002E-09
 -1       607 2.30101E+05-5.96651E+03-2.35054E+04 6.16365E+04-3.05590E-09-7.37145E-10
 -1       608 2.35169E+05-4.01899E+02-1.05996E+04 5.08637E+04 1.08448E-08-1.95541E-09
 -1       609 2.34273E+05 5.29767E+01-5.39452E+03 6.20887E+04-6.06269E-09 1.97133E-09
 -1       610 2.34718E+05 2.59287E+02-2.60470E+03 5.08307E+04-1.77552E-08-2.06046E-09
 -1       611 2.34483E+05 3.28084E+02-1.30415E+03 6.21161E+04-3.27091E-08-2.44245E-09
 -1       612 2.34566E+05 2.83990E+02-6.11375E+02 5.08323E+04-1.61544E-08-1.94177E-10
 -1       613 2.34424E+05 3.73145E+02-2.38979E+02 6.21114E+04-2.51266E-08-5.23187E-09
 -1       614 2.34474E+05 3.10103E+02 1.50421E+01 5.08339E+04-6.72480E-09 1.88265E-10
 -1       615 2.34370E+05 4.05721E+02 2.87181E+02 6.21059E+04 1.36633E-08 1.12277E-09
 -1       616 2.34408E+05 3.25859E+02 6.84442E+02 5.08369E+04-1.07193E-08-2.85991E-09
 -1       617 2.34427E+05 4.82833E+02 1.48556E+03 6.20951E+04 1.94791E-09-2.38879E-09
 -1       618 2.34296E+05 4.99653E+02 2.94196E+03 5.08434E+04-1.20895E-09-5.54792E-09
 -1       619 2.35634E+05 2.14140E+03 6.55200E+03 6.20108E+04-5.67468E-09-1.00135E-09
 -1       620 2.33170E+05 5.28655E+03 1.27353E+04 5.08980E+04 2.57160E-09-1.54569E-09
 -1       621 1.01114E+04 9.22606E+05 2.81424E+04-1.31944E+05 4.36739E-09 3.62888E-10
 -1       622 4.28161E+03 9.28148E+05 2.10377E+04-1.60708E+05-1.55342E-09 5.13444E-09
 -1       623 1.63178E+03 9.24258E+05 2.25842E+04-1.31780E+05 4.78030E-09 3.22962E-09
 -1       624 1.05917E+04 9.32888E+05 4.07025E+04-1.60620E+05-1.96633E-09 1.01682E-09
 -1       625 2.90469E+04 9.17996E+05 7.49390E+04-1.31995E+05 4.88944E-09 3.32875E-10
 -1       626 4.12052E+05 1.03947E+05-1.56374E+04 2.24096E+05-8.11633E-09 3.06864E-09
 -1       627 3.98818E+05 1.17062E+05-7.82725E+03 2.33681E+05-2.05273E-08 6.09020E-10
 -1       628 4.11482E+05 1.08208E+05-3.33778E+03 2.21331E+05-4.23461E-09-2.19416E-09
 -1       629 4.00004E+05 1.19469E+05-1.61825E+03 2.33819E+05 2.20734E-09-8.89486E-10
 -1       630 4.11280E+05 1.08393E+05-7.29564E+02 2.21131E+05 5.72800E-09-4.42242E-09
 -1       631 3.99964E+05 1.19612E+05-3.08953E+02 2.33758E+05-1.23546E-08-4.50228E-10
 -1       632 4.11165E+05 1.08434E+05-5.70104E+01 2.21073E+05-2.91402E-09 1.56547E-09
 -1       633 3.99907E+05 1.19641E+05 1.64616E+02 2.33703E+05 1.25929E-08-3.11400E-09
 -1       634 4.11098E+05 1.08443E+05 4.65897E+02 2.21045E+05 2.03909E-09-2.49202E-10
 -1       635 3.99923E+05 1.19646E+05 1.06587E+03 2.33699E+05 1.09430E-08 4.73528E-09
 -1       636 4.11046E+05 1.08403E+05 2.21012E+03 2.21043E+05 9.83073E-09 3.60251E-09
 -1       637 4.00317E+05 1.19835E+05 4.84399E+03 2.33763E+05 1.43411E-08-3.62661E-09
 -1       638 4.10830E+05 1.08747E+05 9.87850E+03 2.20818E+05 1.61608E-08 4.13911E-09
 -1       639 4.05731E+05 1.25528E+05 2.32835E+04 2.33248E+05-1.56615E-09-1.57161E-09
 -1       640 4.08631E+05 1.22297E+05 4.64239E+04 2.14241E+05-2.12985E-08 2.18461E-09
 -1       641 1.21141E+04 9.13192E+02-9.34143E+03 3.66349E+03-1.45689E-08-1.53341E-09
 -1       642 9.10988E+03-2.04595E+03-5.63066E+03 7.89509E+03-1.15830E-08-3.70085E-09
 -1       643 1.08236E+04 1.07119E+02-2.38395E+03 3.64029E+03-1.35146E-08-4.57499E-09
 -1       644 1.05115E+04-8.89939E+01-1.26482E+03 7.91575E+03 6.97753E-09-1.92304E-09
 -1       645 1.07079E+04 3.65298E+01-5.80020E+02 3.63904E+03 2.48400E-09-6.49976E-09
 -1       646 1.06409E+04 4.77564E+01-2.70644E+02 7.91684E+03-1.94120E-08-7.76852E-09
 -1       647 1.06931E+04 2.73249E+01-7.61978E+01 3.63896E+03 1.84164E-08-3.66654E-09
 -1       648 1.06643E+04 5.72318E+01 7.31258E+01 7.91716E+03 4.72529E-08 9.54600E-10
 -1       649 1.06868E+04 2.21764E+01 2.55239E+02 3.63872E+03 1.97416E-08-3.22274E-09
 -1       650 1.07024E+04 7.41105E+01 5.85268E+02 7.91721E+03 2.28692E-08-4.93162E-09
 -1       651 1.06606E+04 3.69442E+00 1.16457E+03 3.63892E+03 1.38925E-10-4.23699E-09
 -1       652 1.09606E+04 3.39699E+02 2.49666E+03 7.91553E+03 1.24747E-08-2.68074E-09
 -1       653 1.04376E+04-1.38108E+02 4.68541E+03 3.64002E+03 1.06568E-08-5.13273E-09
 -1       654 1.37242E+04 4.17626E+03 1.10578E+04 7.87052E+03-1.89334E-09-3.66140E-09
 -1       655 7.90974E+03-1.72542E+03 1.83393E+04 3.67730E+03 1.35362E-08-3.25144E-09
 -1       656 4.44937E+03-4.29781E+05-5.36931E+04 6.00575E+04-3.62706E-09-3.35785E-09
 -1       657-1.30197E+04-4.46519E+05-3.66945E+04 1.29113E+05-1.92615E-08 1.07593E-09
 -1       658 5.21075E+02-4.36517E+05-2.42226E+04 5.97780E+04-1.73486E-10 1.56479E-09
 -1       659-1.15042E+04-4.45711E+05-3.34769E+04 1.29283E+05-2.18170E-08 2.75422E-09
 -1       660 3.97875E+03-4.30979E+05-4.71711E+04 5.98959E+04-1.42063E-09-1.74168E-09
 -1       661 3.73243E+05 5.27041E+04 2.87532E+04 1.46070E+05 8.07677E-09-2.59934E-09
 -1       662 3.80522E+05 6.66458E+04 1.70877E+04 1.48922E+05-5.92308E-10 3.01043E-10
 -1       663 3.77481E+05 5.63086E+04 6.72939E+03 1.46335E+05 1.89459E-09-3.30147E-10
 -1       664 3.75518E+05 6.01072E+04 3.51656E+03 1.49618E+05 1.13744E-09-3.60671E-09
 -1       665 3.77873E+05 5.66259E+04 1.56904E+03 1.46367E+05 1.29614E-08 4.93932E-09
 -1       666 3.75060E+05 5.96041E+04 8.31033E+02 1.49645E+05 7.43739E-10 6.11504E-09
 -1       667 3.77919E+05 5.66545E+04 4.85584E+02 1.46368E+05 1.73079E-08 2.33865E-09
 -1       668 3.75015E+05 5.95781E+04 4.65409E+02 1.49654E+05-2.19304E-08-8.21956E-10
 -1       669 3.77921E+05 5.66442E+04 6.79992E+02 1.46362E+05-1.67573E-08-4.39036E-09
 -1       670 3.75087E+05 5.96565E+04 1.35472E+03 1.49680E+05 1.64532E-08 2.44995E-11
 -1       671 3.77854E+05 5.65773E+04 2.66415E+03 1.46345E+05-6.81734E-09 3.00270E-09
 -1       672 3.75860E+05 6.05457E+04 6.03536E+03 1.49667E+05-1.50985E-08-6.56996E-09
 -1       673 3.77193E+05 5.60173E+04 1.15721E+04 1.46279E+05-2.17834E-08-7.82802E-09
 -1       674 3.84472E+05 7.18066E+04 2.94067E+04 1.48482E+05 3.65588E-08 5.00950E-09
 -1       675 3.69895E+05 4.98169E+04 4.94861E+04 1.45831E+05 9.06311E-09 2.07365E-09
 -1       676 1.76942E+03-3.82631E+05-2.00551E+04 8.04165E+03 8.34007E-09-1.02204E-09
 -1       677-4.73001E+03-3.88973E+05-1.45069E+04 1.60500E+04-2.20200E-09 2.18392E-10
 -1       678 3.31136E+02-3.84934E+05-1.09464E+04 7.99373E+03 1.51020E-08 4.49336E-09
 -1       679-5.92469E+03-3.89843E+05-1.72105E+04 1.61028E+04 1.72172E-08-6.76550E-10
 -1       680 2.31562E+03-3.81777E+05-2.54914E+04 7.98756E+03 1.13332E-08-2.79809E-09
 -1       681 4.67866E+05-2.58742E+03 2.58502E+04-1.83755E+04-7.45786E-11-5.40240E-10
 -1       682 4.76177E+05 5.72597E+03 1.56162E+04-4.00499E+04-4.22915E-11-1.05501E-10
 -1       683 4.71378E+05-2.89016E+02 6.61582E+03-1.82705E+04 1.03682E-10-2.46928E-10
 -1       684 4.72152E+05 3.64861E+02 3.56300E+03-4.01096E+04-3.81988E-10-2.80465E-10
 -1       685 4.71649E+05-5.01088E+01 1.71291E+03-1.83120E+04-2.00089E-10-3.11957E-10
 -1       686 4.71715E+05 2.72117E+01 9.79380E+02-4.00421E+04-1.17552E-10-1.34651E-09
 -1       687 4.71658E+05-4.74352E+00 6.58901E+02-1.83382E+04 2.02817E-10-3.75280E-10
 -1       688 4.71652E+05 2.34921E+01 7.15384E+02-4.00091E+04-6.66205E-11 9.22114E-10
 -1       689 4.71643E+05-4.62677E+00 1.09266E+03-1.83450E+04-8.10587E-11 4.50655E-10
 -1       690 4.71761E+05 7.82295E+01 2.09514E+03-4.00169E+04-9.01537E-11-1.30512E-10
 -1       691 4.71565E+05-7.23337E+01 3.99175E+03-1.83304E+04 1.67802E-10-6.75186E-10
 -1       692 4.72667E+05 9.56368E+02 8.46460E+03-4.00584E+04-3.09228E-11 8.42590E-10
 -1       693 4.70837E+05-5.73561E+02 1.58360E+04-1.83032E+04-1.59162E-10 4.40195E-10
 -1       694 4.82078E+05 1.38762E+04 3.73552E+04-3.99945E+04-6.12999E-10 5.91626E-10
 -1       695 4.62338E+05-5.96838E+03 6.19310E+04-1.84011E+04-4.18368E-10 4.03816E-10
 -1       696-2.90867E+03 5.28061E+05 3.10953E+04-3.64944E+04 6.36646E-11-4.04270E-10
 -1       697 7.18536E+03 5.37765E+05 1.76291E+04-7.85862E+04 4.05862E-11-6.87010E-10
 -1       698-7.09989E+01 5.32549E+05 5.22655E+03-3.64149E+04-2.90584E-10 1.52102E-09
 -1       699-1.73589E+03 5.31395E+05-2.48684E+03-7.85780E+04-3.02123E-10 1.93972E-09
 -1       700 1.06564E+03 5.34502E+05-9.38672E+03-3.65081E+04-2.69210E-10 1.68711E-09
 -1       701-4.39898E+05-6.21375E+04-6.35768E+04-1.78206E+05-1.26420E-10-8.33097E-10
 -1       702-4.53742E+05-9.51957E+04-3.77775E+04-1.87134E+05-7.84439E-11-1.36424E-10
 -1       703-4.49393E+05-6.99928E+04-1.48758E+04-1.78679E+05 7.82165E-11-5.07498E-10
 -1       704-4.42589E+05-8.08469E+04-7.75434E+03-1.88858E+05 4.36557E-11-8.42419E-10
 -1       705-4.50309E+05-7.06446E+04-3.44072E+03-1.78720E+05-2.13731E-11 1.35515E-10
 -1       706-4.41555E+05-7.97734E+04-1.76773E+03-1.88997E+05 5.18412E-11 8.82665E-10
 -1       707-4.50439E+05-7.06830E+04-9.38167E+02-1.78712E+05 9.54969E-11 3.51406E-10
 -1       708-4.41444E+05-7.97194E+04-7.32799E+02-1.89043E+05 8.04903E-11-1.07342E-10
 -1       709-4.50456E+05-7.06669E+04-9.03157E+02-1.78703E+05-5.37739E-11-5.73550E-11
 -1       710-4.41533E+05-7.98048E+04-1.67911E+03-1.89068E+05-1.86446E-11-4.77485E-11
 -1       711-4.50365E+05-7.05977E+04-3.24800E+03-1.78693E+05 5.58487E-12 1.55751E-10
 -1       712-4.42495E+05-8.08539E+04-7.32674E+03-1.89004E+05 1.46429E-10-1.33241E-10
 -1       713-4.49531E+05-6.99517E+04-1.40415E+04-1.78638E+05 1.19087E-11-3.51974E-10
 -1       714-4.52985E+05-9.44713E+04-3.56815E+04-1.87474E+05-1.92244E-10-1.55524E-10
 -1       715-4.40616E+05-6.24744E+04-6.00337E+04-1.78146E+05 1.56433E-10-1.16415E-10
 -1       716 3.89333E+05-5.43430E+03 5.48960E+04-3.19723E+04 3.18323E-10-1.27329E-11
 -1       717 4.06936E+05 1.22824E+04 3.31549E+04-6.91585E+04-3.27418E-11-2.97405E-10
 -1       718 3.96771E+05-5.41069E+02 1.40469E+04-3.17881E+04-4.54747E-11 4.23825E-10
 -1       719 3.98372E+05 9.07217E+02 7.54926E+03-6.92961E+04-5.03860E-10 1.88220E-09
 -1       720 3.97349E+05-3.42689E+01 3.60996E+03-3.18282E+04 8.04903E-10-3.18323E-11
 -1       721 3.97463E+05 1.79807E+02 2.00919E+03-6.92371E+04 1.45542E-09 3.07409E-10
 -1       722 3.97388E+05 4.72368E+01 1.26084E+03-3.18476E+04 1.10060E-09-2.10093E-10
 -1       723 3.97378E+05 1.40852E+02 1.22871E+03-6.92281E+04 7.43057E-10-1.05251E-09
 -1       724 3.97398E+05 2.15194E+01 1.74270E+03-3.18372E+04 7.17137E-10 4.70891E-10
 -1       725 3.97646E+05 1.73937E+02 3.26485E+03-6.92802E+04 1.31831E-09 1.41654E-09
 -1       726 3.97339E+05-1.37106E+02 6.15653E+03-3.17954E+04 3.31966E-10 1.08923E-09
 -1       727 3.99217E+05 1.44677E+03 1.30683E+04-6.93810E+04 1.20781E-09-3.02862E-10
 -1       728 3.96303E+05-9.92378E+02 2.43984E+04-3.17353E+04-2.54659E-10-9.29504E-10
 -1       729 4.13990E+05 2.12812E+04 5.76419E+04-6.92316E+04-7.42148E-10-2.10321E-09
 -1       730 3.83305E+05-9.43051E+03 9.54951E+04-3.19641E+04-1.61890E-10 8.51287E-10
 -1       731-3.32341E+03 1.91127E+05 3.62659E+04-7.10329E+04 5.27507E-11-3.71983E-10
 -1       732 8.61305E+03 2.02417E+05 2.22252E+04-1.54473E+05 2.00009E-09-6.47447E-10
 -1       733-1.60038E+02 1.95998E+05 1.00621E+04-7.08613E+04 8.56630E-11 1.58025E-09
 -1       734 1.76924E+03 1.97726E+05 6.93865E+03-1.54415E+05 1.68984E-09 1.22736E-09
 -1       735-4.19362E+02 1.96136E+05 5.46547E+03-7.10938E+04-3.83125E-10 1.10231E-09
 -1       736-9.98374E+05-1.39111E+05-8.65188E+04-3.90264E+05-2.80124E-10 2.36469E-10
 -1       737-1.01906E+06-1.82272E+05-5.14145E+04-4.00292E+05-2.72848E-11-7.71252E-10
 -1       738-1.01130E+06-1.49799E+05-2.02331E+04-3.90875E+05 1.15961E-10 2.70120E-10
 -1       739-1.00382E+06-1.62780E+05-1.05468E+04-4.02683E+05 2.91038E-10 1.52477E-09
 -1       740-1.01257E+06-1.50663E+05-4.66873E+03-3.90896E+05 3.69710E-10 6.94854E-10
 -1       741-1.00236E+06-1.61359E+05-2.38728E+03-4.02912E+05 7.75344E-11 6.01176E-10
 -1       742-1.01276E+06-1.50707E+05-1.23973E+03-3.90868E+05 6.42103E-10-5.44446E-10
 -1       743-1.00218E+06-1.61300E+05-9.21928E+02-4.02984E+05-2.13731E-10-3.33756E-10
 -1       744-1.01278E+06-1.50689E+05-1.07573E+03-3.90853E+05-6.49436E-10-6.04814E-10
 -1       745-1.00228E+06-1.61391E+05-1.95140E+03-4.02996E+05 1.23140E-09 1.07684E-09
 -1       746-1.01266E+06-1.50626E+05-3.75022E+03-3.90853E+05 2.20894E-10 4.71118E-10
 -1       747-1.00342E+06-1.62562E+05-8.44604E+03-4.02867E+05-1.11788E-09-1.00044E-09
 -1       748-1.01167E+06-1.49914E+05-1.61835E+04-3.90821E+05-1.45064E-10-3.11957E-10
 -1       749-1.01559E+06-1.78185E+05-4.11289E+04-4.00996E+05-1.46315E-10 2.80124E-10
 -1       750-1.00134E+06-1.41351E+05-6.92037E+04-3.90320E+05-1.58252E-10-1.78261E-10
 -1       751 1.29751E+06-1.75629E+04 1.82683E+05-2.83051E+04-3.69255E-10 4.58385E-10
 -1       752 1.35574E+06 4.08612E+04 1.10159E+05-6.23963E+04-1.84355E-09-1.01863E-10
 -1       753 1.32257E+06-1.71096E+03 4.67282E+04-2.82906E+04-2.63753E-10 6.16637E-10
 -1       754 1.32801E+06 2.79087E+03 2.50084E+04-6.21916E+04 3.96994E-10 1.12595E-09
 -1       755 1.32472E+06-2.33335E+02 1.18492E+04-2.84719E+04 1.56433E-10 1.79170E-10
 -1       756 1.32533E+06 2.14596E+02 6.33647E+03-6.19059E+04-2.02590E-10-1.71440E-10
 -1       757 1.32494E+06-2.33325E+01 3.52626E+03-2.85778E+04-2.27828E-10 6.60293E-10
 -1       758 1.32499E+06 7.99288E+01 2.73177E+03-6.17860E+04-2.56932E-10-1.38698E-10
 -1       759 1.32494E+06-1.17688E+01 3.16756E+03-2.85922E+04 3.06954E-10-7.56472E-10
 -1       760 1.32523E+06 2.00749E+02 5.40669E+03-6.18459E+04-5.82986E-10 1.60256E-09
 -1       761 1.32476E+06-1.79629E+02 9.95869E+03-2.85177E+04 2.51930E-10-3.58341E-10
 -1       762 1.32746E+06 2.35644E+03 2.09245E+04-6.20760E+04 5.39785E-10 9.71340E-10
 -1       763 1.32296E+06-1.41499E+03 3.90597E+04-2.83609E+04 1.00044E-10 5.67525E-10
 -1       764 1.35064E+06 3.41612E+04 9.20512E+04-6.22479E+04 1.43700E-09 1.90084E-10
 -1       765 1.30202E+06-1.46715E+04 1.52628E+05-2.83717E+04-1.84446E-09 8.80391E-10
 -1       766-9.26860E+03 4.14093E+05 1.02245E+05-4.79365E+04 1.55342E-09-1.30012E-09
 -1       767 2.36970E+04 4.46597E+05 6.90743E+04-1.03902E+05 2.69210E-09-2.20052E-09
 -1       768-1.42227E+03 4.26820E+05 4.40298E+04-4.78846E+04 1.25721E-09 1.24055E-09
 -1       769 1.88827E+04 4.43580E+05 5.85244E+04-1.03778E+05 1.61344E-09 2.13186E-09
 -1       770-7.44094E+03 4.17722E+05 8.09254E+04-4.80791E+04 3.20142E-10 1.36788E-09
 -1       771-1.69310E+06-3.36279E+05-1.32982E+05-6.93966E+05-6.14000E-09-7.31234E-09
 -1       772-1.70381E+06-3.26384E+05-6.66758E+04-7.26999E+05-3.74712E-10 2.31466E-09
 -1       773-1.69967E+06-2.97432E+05-2.83095E+04-7.13142E+05-8.33097E-10 8.93124E-10
 -1       774-1.68886E+06-3.09788E+05-1.38858E+04-7.28664E+05 4.36557E-10-1.30967E-10
 -1       775-1.70058E+06-2.96240E+05-6.41126E+03-7.13924E+05 1.29148E-10 1.27329E-11
 -1       776-1.68792E+06-3.09197E+05-3.23051E+03-7.28703E+05-4.03816E-10-1.43189E-09
 -1       777-1.70084E+06-2.96265E+05-1.73357E+03-7.13970E+05 3.98359E-10 9.84869E-10
 -1       778-1.68788E+06-3.09193E+05-1.33039E+03-7.28766E+05-8.18545E-10 2.51021E-10
 -1       779-1.70091E+06-2.96226E+05-1.62932E+03-7.13992E+05 1.41426E-10-4.78849E-10
 -1       780-1.68799E+06-3.09186E+05-2.96432E+03-7.28837E+05-3.68573E-10-3.25144E-10
 -1       781-1.70079E+06-2.96129E+05-5.83686E+03-7.13990E+05-5.30235E-10-8.14907E-10
 -1       782-1.68891E+06-3.09724E+05-1.26424E+04-7.28934E+05-4.14047E-10-1.40244E-09
 -1       783-1.70007E+06-2.97132E+05-2.57543E+04-7.13305E+05-7.40329E-10-2.43926E-09
 -1       784-1.70251E+06-3.24940E+05-6.07016E+04-7.27648E+05 7.07587E-10-3.56158E-09
 -1       785-1.69422E+06-3.32391E+05-1.21041E+05-6.95810E+05-5.07725E-10 1.78261E-09
 -1       786 8.79457E+05-1.07871E+04 1.12415E+05-2.05950E+04 9.86802E-10 3.41970E-10
 -1       787 9.15257E+05 2.51672E+04 6.77898E+04-4.53469E+04-1.24737E-09-2.28465E-09
 -1       788 8.94906E+05-1.03750E+03 2.87526E+04-2.05310E+04-7.26686E-10-1.06775E-09
 -1       789 8.98237E+05 1.70944E+03 1.53725E+04-4.53207E+04-1.07775E-10-2.45973E-09
 -1       790 8.96245E+05-1.43915E+02 7.26522E+03-2.06028E+04 7.77618E-10 1.05047E-10
 -1       791 8.96621E+05 1.04803E+02 3.83940E+03-4.52165E+04 9.59517E-10 2.01044E-09
 -1       792 8.96391E+05-2.69943E+01 2.05534E+03-2.06356E+04-8.77662E-11 9.06539E-10
 -1       793 8.96430E+05 6.03833E+00 1.44563E+03-4.51952E+04-4.91980E-10-7.04404E-10
 -1       794 8.96410E+05-2.55977E+01 1.48682E+03-2.06242E+04-2.12367E-10-2.06637E-09
 -1       795 8.96554E+05 4.17199E+01 2.37617E+03-4.52637E+04 1.23873E-09 1.87038E-09
 -1       796 8.96351E+05-1.10197E+02 4.27783E+03-2.05670E+04-1.05956E-09-1.91972E-09
 -1       797 8.97548E+05 9.41840E+02 8.94561E+03-4.54117E+04-9.34961E-10-1.14773E-09
 -1       798 8.95607E+05-6.57327E+02 1.66649E+04-2.04758E+04-2.21917E-10-4.13820E-10
 -1       799 9.07502E+05 1.44974E+04 3.92912E+04-4.54582E+04-5.61522E-09-4.36557E-10
 -1       800 8.86692E+05-6.35255E+03 6.51059E+04-2.05336E+04 8.31278E-10-1.84446E-09
 -1       801-4.16871E+03 1.86204E+05 4.96455E+04-3.14591E+05 1.09067E-08-3.91083E-09
 -1       802 1.73492E+04 1.98755E+05 3.94221E+04-6.84188E+05 6.50471E-09-1.68166E-09
 -1       803 1.51485E+03 1.89157E+05 3.39366E+04-3.13706E+05 1.61181E-08 3.39060E-09
 -1       804 2.56032E+04 2.06061E+05 5.90531E+04-6.84089E+05 5.72618E-09-2.67937E-09
 -1       805-8.89976E+03 1.80789E+05 8.89113E+04-3.14702E+05 9.74978E-09 3.12866E-09
 -1       806-9.93861E+05-2.23851E+05-8.64958E+04-4.38069E+05 3.12650E-09 4.92582E-09
 -1       807-9.96320E+05-2.21969E+05-4.33702E+04-4.64796E+05-1.57343E-10 2.07774E-09
 -1       808-9.98183E+05-1.98541E+05-1.84131E+04-4.50526E+05 2.02272E-09-7.55790E-10
 -1       809-9.86578E+05-2.11180E+05-9.03771E+03-4.65875E+05 1.52795E-10-2.39936E-10
 -1       810-9.98748E+05-1.97791E+05-4.17813E+03-4.51037E+05-1.07138E-09 6.45969E-10
 -1       811-9.85955E+05-2.10789E+05-2.12552E+03-4.65848E+05-6.64386E-10 1.63345E-09
 -1       812-9.98858E+05-1.97841E+05-1.17799E+03-4.51052E+05 9.80435E-10 1.45155E-09
 -1       813-9.85890E+05-2.10793E+05-9.79959E+02-4.65821E+05 3.83534E-09 2.78214E-09
 -1       814-9.98821E+05-1.97858E+05-1.29803E+03-4.51037E+05-2.28738E-10 1.11413E-09
 -1       815-9.85916E+05-2.10806E+05-2.43902E+03-4.65790E+05 4.47608E-09 4.75120E-09
 -1       816-9.98626E+05-1.97833E+05-4.84747E+03-4.50991E+05-4.40195E-09 3.79623E-09
 -1       817-9.86598E+05-2.11271E+05-1.05060E+04-4.65765E+05-3.72711E-09 3.26690E-09
 -1       818-9.97921E+05-1.98741E+05-2.14165E+04-4.50378E+05-1.70621E-09 1.20963E-09
 -1       819-9.97915E+05-2.23788E+05-5.04297E+04-4.64431E+05-7.54881E-09-3.97267E-09
 -1       820-9.92844E+05-2.28188E+05-1.00576E+05-4.35892E+05-4.30191E-09 1.22964E-09
 -1       821-5.70533E+05 6.98687E+03-7.36866E+04 1.29104E+04-1.07138E-08 2.17551E-09
 -1       822-5.93915E+05-1.64932E+04-4.44230E+04 2.91795E+04-5.53382E-09-2.42653E-09
 -1       823-5.80740E+05 6.56867E+02-1.88601E+04 1.26654E+04 9.95351E-09-1.58889E-09
 -1       824-5.82950E+05-1.01890E+03-1.00718E+04 2.94833E+04-4.61478E-09-2.08183E-09
 -1       825-5.81681E+05 1.31820E+02-4.78084E+03 1.25931E+04-1.59480E-08 2.24782E-09
 -1       826-5.82016E+05 9.53964E+01-2.54033E+03 2.95981E+04-2.86291E-08 3.30738E-09
 -1       827-5.81813E+05 9.15215E+01-1.40712E+03 1.25484E+04-1.65069E-08-1.88072E-09
 -1       828-5.81954E+05 1.87967E+02-1.06777E+03 2.96672E+04-1.84500E-08 2.33638E-09
 -1       829-5.81832E+05 1.02414E+02-1.21862E+03 1.25233E+04-1.94177E-10-1.46088E-11
 -1       830-5.82053E+05 1.44806E+02-2.06223E+03 2.96951E+04 1.29353E-08 3.52770E-10
 -1       831-5.81752E+05 1.54607E+02-3.79670E+03 1.25202E+04-9.84551E-09 1.19053E-09
 -1       832-5.82841E+05-7.10936E+02-7.97168E+03 2.96778E+04 4.07988E-09 3.09228E-10
 -1       833-5.81029E+05 5.87828E+02-1.48973E+04 1.25420E+04 2.99769E-09 1.70348E-09
 -1       834-5.91551E+05-1.29214E+04-3.51074E+04 2.95427E+04-1.90971E-09 3.07409E-10
 -1       835-5.72978E+05 5.60613E+03-5.82157E+04 1.26741E+04 2.03181E-09-2.02272E-09
 -1       836-8.72059E+03 1.18776E+06 9.97742E+04-1.25677E+05-1.57888E-08 1.17871E-09
 -1       837 2.45960E+04 1.21876E+06 7.28164E+04-2.69820E+05-1.39371E-08-7.91260E-10
 -1       838-1.16503E+03 1.19867E+06 5.57626E+04-1.25466E+05-1.94250E-08 3.01338E-09
 -1       839 3.16643E+04 1.22372E+06 8.86942E+04-2.69804E+05-1.48138E-08-4.61250E-09
 -1       840-1.17897E+04 1.18262E+06 1.31769E+05-1.25684E+05-1.60653E-08 4.24916E-09
 -1       841-7.47182E+04 1.97898E+03-2.50957E+04-1.64382E+04-1.15633E-08-2.93676E-09
 -1       842-9.51774E+04 4.03599E+03-1.48930E+04-2.84375E+03-1.95582E-08 7.23276E-10
 -1       843-7.83270E+04-1.25496E+03-5.87577E+03-1.68379E+04 9.45420E-09-1.18584E-09
 -1       844-9.10397E+04 9.90283E+03-3.04674E+03-3.34488E+03 1.24442E-08-1.02739E-09
 -1       845-7.86822E+04-1.51754E+03-1.33983E+03-1.69016E+04 7.86895E-09-7.76367E-10
 -1       846-9.07188E+04 1.03815E+04-6.46492E+02-3.38273E+03-1.94261E-08-2.60565E-09
 -1       847-7.87354E+04-1.53457E+03-2.66969E+02-1.69265E+04-2.35950E-08-6.01059E-09
 -1       848-9.07123E+04 1.04387E+04-6.24500E+01-3.39106E+03 1.04501E-09 4.11684E-09
 -1       849-7.87524E+04-1.53562E+03 1.06460E+02-1.69387E+04 2.04623E-08 2.25776E-09
 -1       850-9.06927E+04 1.04688E+04 3.50353E+02-3.39118E+03 1.03429E-08-2.28363E-09
 -1       851-7.87768E+04-1.55294E+03 7.54670E+02-1.69412E+04-1.07493E-08-3.14162E-09
 -1       852-9.04420E+04 1.07139E+04 1.74692E+03-3.39999E+03 6.11828E-09-2.96848E-09
 -1       853-7.89706E+04-1.71617E+03 3.35867E+03-1.69441E+04-5.28235E-09 2.89219E-10
 -1       854-8.78237E+04 1.39075E+04 8.55560E+03-3.80732E+03-2.29895E-08 4.27644E-09
 -1       855-8.11433E+04-3.47327E+03 1.43857E+04-1.69844E+04-6.04859E-09 3.22598E-09
 -1       856-3.40304E+05 3.46379E+03-3.60583E+04 1.20571E+04-1.60462E-08 6.78483E-10
 -1       857-3.51805E+05-7.95223E+03-2.17340E+04 2.72758E+04-7.78709E-09-1.60071E-10
 -1       858-3.45305E+05 3.76390E+02-9.22603E+03 1.19022E+04-1.85009E-08 1.73259E-09
 -1       859-3.46454E+05-3.75880E+02-4.92420E+03 2.74505E+04-2.54022E-09 7.57609E-10
 -1       860-3.45769E+05 1.22788E+02-2.33010E+03 1.18705E+04-1.96633E-09-1.52636E-09
 -1       861-3.46000E+05 1.70470E+02-1.22734E+03 2.74938E+04-7.76026E-09-5.28530E-10
 -1       862-3.45833E+05 1.01926E+02-6.56673E+02 1.18575E+04 1.91239E-08-2.15346E-09
 -1       863-3.45959E+05 2.12410E+02-4.60303E+02 2.75085E+04 3.25189E-08-3.14753E-09
 -1       864-3.45839E+05 1.01158E+02-4.74514E+02 1.18555E+04 2.18694E-08-1.68598E-09
 -1       865-3.45976E+05 1.90041E+02-7.58180E+02 2.75004E+04 2.39033E-08-2.36975E-09
 -1       866-3.45801E+05 1.10934E+02-1.37238E+03 1.18657E+04-2.34559E-09-1.53761E-09
 -1       867-3.46229E+05-1.30588E+02-2.86226E+03 2.74656E+04 7.73980E-10-4.85981E-09
 -1       868-3.45527E+05 2.52048E+02-5.34843E+03 1.18912E+04 1.32814E-08-3.71483E-09
 -1       869-3.49306E+05-4.52538E+03-1.25849E+04 2.73063E+04 2.87810E-09-2.06120E-09
 -1       870-3.42623E+05 2.02958E+03-2.08820E+04 1.20324E+04 8.28459E-09 7.82165E-11
 -1       871-4.22682E+03-4.55176E+04-7.88232E+03 1.52066E+05 6.17638E-09-2.28465E-09
 -1       872-2.00177E+03-4.69987E+04-2.24956E+03 1.85491E+05-5.47516E-09-1.64482E-09
 -1       873-6.10189E+02-4.65892E+04 2.57524E+03 1.51786E+05 6.47924E-09-1.92858E-09
 -1       874 1.74126E+03-4.42899E+04 9.29386E+03 1.85549E+05-1.25056E-08 8.10360E-10
 -1       875 6.95075E+03-4.83344E+04 1.95879E+04 1.52051E+05 6.22094E-09 1.79898E-09
 -1       876 4.39872E+05 6.46398E+04 4.24773E+04 1.77266E+05-1.43018E-09-6.04814E-09
 -1       877 4.47151E+05 8.87626E+04 2.52476E+04 1.85462E+05-1.22752E-08-9.90804E-09
 -1       878 4.46144E+05 6.99568E+04 9.93624E+03 1.77625E+05 3.85126E-09 2.64390E-09
 -1       879 4.39730E+05 7.91096E+04 5.19018E+03 1.86472E+05 9.82641E-09-2.12322E-09
 -1       880 4.46693E+05 7.04531E+04 2.30401E+03 1.77686E+05 1.16959E-08 5.57679E-09
 -1       881 4.39068E+05 7.83368E+04 1.20104E+03 1.86458E+05-4.30646E-09-8.77662E-10
 -1       882 4.46740E+05 7.05193E+04 6.61812E+02 1.77703E+05 1.60101E-08-4.32675E-09
 -1       883 4.39013E+05 7.82702E+04 5.66877E+02 1.86429E+05-3.58542E-08 9.10532E-10
 -1       884 4.46732E+05 7.05227E+04 7.58979E+02 1.77706E+05-1.49405E-08-1.08491E-09
 -1       885 4.39097E+05 7.83401E+04 1.46120E+03 1.86439E+05 1.41699E-08 1.55205E-09
 -1       886 4.46658E+05 7.04545E+04 2.84981E+03 1.77692E+05-3.09501E-09-2.22371E-09
 -1       887 4.39930E+05 7.92845E+04 6.44143E+03 1.86427E+05-1.19126E-08-7.40101E-10
 -1       888 4.45958E+05 6.98520E+04 1.23438E+04 1.77623E+05-2.53191E-08-2.24645E-09
 -1       889 4.49138E+05 9.12828E+04 3.13657E+04 1.85164E+05 2.76755E-08 7.29824E-09
 -1       890 4.38171E+05 6.32410E+04 5.27769E+04 1.77160E+05 1.16183E-08-5.82440E-09
 -1       891 4.78014E+02-2.08794E+05-8.75764E+03 5.01611E+04 7.16545E-09 5.32054E-10
 -1       892-2.57747E+03-2.11298E+05-6.48144E+03 1.08589E+05 1.66619E-09-3.29055E-09
 -1       893-7.20793E+01-2.09820E+05-5.17284E+03 5.00104E+04 8.23366E-09 8.73001E-10
 -1       894-3.48584E+03-2.11910E+05-8.50255E+03 1.08564E+05 9.15679E-09-1.01500E-09
 -1       895 8.56084E+02-2.08126E+05-1.28309E+04 5.01841E+04 1.35651E-08 3.97995E-09
 -1       896 7.71030E+05-1.17803E+03 1.15801E+04-1.24911E+04 4.54747E-12 1.10072E-09
 -1       897 7.74726E+05 2.54778E+03 7.00213E+03-2.75307E+04-8.04903E-11 9.15406E-10
 -1       898 7.72599E+05-1.42467E+02 2.96912E+03-1.24494E+04 1.21872E-10 5.30008E-10
 -1       899 7.72910E+05 1.51220E+02 1.61199E+03-2.75111E+04 1.09139E-10 2.93653E-10
 -1       900 7.72715E+05-3.07581E+01 7.95452E+02-1.25094E+04 2.25100E-10 1.29603E-10
 -1       901 7.72704E+05 5.58340E+00 4.99720E+02-2.74108E+04 1.73031E-10 1.54614E-11
 -1       902 7.72713E+05-7.07860E+00 4.14030E+02-1.25498E+04 1.21872E-10-4.05862E-11
 -1       903 7.72674E+05 1.06236E+01 5.65572E+02-2.73520E+04 1.41881E-10-3.99837E-10
 -1       904 7.72694E+05-7.71615E+00 9.70860E+02-1.25682E+04 2.75577E-10-2.51305E-10
 -1       905 7.72766E+05 6.91267E+01 1.93244E+03-2.73389E+04 3.48678E-10-4.74984E-10
 -1       906 7.72610E+05-6.16045E+01 3.72099E+03-1.25628E+04 1.69848E-10-4.44743E-10
 -1       907 7.73577E+05 9.06526E+02 7.90514E+03-2.73683E+04 4.85443E-11-1.11186E-10
 -1       908 7.71908E+05-5.11280E+02 1.48053E+04-1.25387E+04 1.90084E-10 3.09228E-11
 -1       909 7.82310E+05 1.30023E+04 3.49082E+04-2.73563E+04 1.61208E-10 7.63976E-11
 -1       910 7.63934E+05-5.52063E+03 5.78911E+04-1.25779E+04-8.18545E-11-6.03904E-10
 -1       911 1.90436E+05-3.53207E+02 3.25192E+03-1.25323E+04 5.40240E-10 9.05629E-10
 -1       912 1.91492E+05 7.16722E+02 1.97566E+03-2.70682E+04 8.86757E-11 3.81306E-10
 -1       913 1.90860E+05-4.39534E+01 8.40913E+02-1.24384E+04 9.41327E-11 3.75167E-12
 -1       914 1.90945E+05 5.66924E+01 4.72744E+02-2.71543E+04-1.13687E-11-5.45469E-10
 -1       915 1.90881E+05-1.95634E+00 2.60179E+02-1.24459E+04 3.84262E-10-6.10385E-10
 -1       916 1.90869E+05 2.50721E+01 2.16909E+02-2.71406E+04 5.67525E-10-6.52449E-10
 -1       917 1.90873E+05 8.28495E+00 2.66322E+02-1.24522E+04 5.41263E-10-5.45015E-10
 -1       918 1.90868E+05 3.07528E+01 4.65220E+02-2.71339E+04 3.84262E-10-7.30950E-10
 -1       919 1.90859E+05 1.13145E+00 8.73639E+02-1.24526E+04 3.15367E-10-5.71617E-10
 -1       920 1.90971E+05 7.88229E+01 1.78376E+03-2.71387E+04 3.10820E-10-5.31827E-10
 -1       921 1.90787E+05-5.52370E+01 3.45537E+03-1.24473E+04 4.86580E-10-2.66709E-10
 -1       922 1.91743E+05 8.52086E+02 7.35779E+03-2.71505E+04 2.03772E-09-9.70658E-10
 -1       923 1.90141E+05-4.81174E+02 1.37834E+04-1.24405E+04 2.79670E-10-3.18778E-10
 -1       924 1.99900E+05 1.21184E+04 3.25185E+04-2.70650E+04-1.50976E-10 4.10637E-10
 -1       925 1.82726E+05-5.16163E+03 5.39254E+04-1.25354E+04 1.50976E-10 7.60338E-10
 -1       926-9.51179E+05 5.14807E+03-5.41347E+04-8.78952E+03 2.05091E-10 2.58296E-10
 -1       927-9.68313E+05-1.21990E+04-3.26435E+04-1.88579E+04-2.80124E-10 1.61435E-10
 -1       928-9.58652E+05 4.67129E+02-1.38399E+04-8.68182E+03-1.07093E-10 3.54703E-11
 -1       929-9.60192E+05-8.47848E+02-7.38847E+03-1.89993E+04-3.33557E-10-4.92150E-10
 -1       930-9.59321E+05 6.04735E+01-3.48294E+03-8.65038E+03 2.60343E-11-1.60071E-10
 -1       931-9.59455E+05-5.15620E+01-1.82093E+03-1.90381E+04-8.39009E-11-5.71738E-11
 -1       932-9.59401E+05 1.36340E+01-9.41798E+02-8.64296E+03-2.53863E-10-3.43675E-10
 -1       933-9.59365E+05-5.31274E-01-6.02362E+02-1.90325E+04-3.17755E-11-1.55296E-10
 -1       934-9.59407E+05 5.70905E+00-5.37462E+02-8.65594E+03-4.38831E-11-1.62061E-10
 -1       935-9.59371E+05-2.32667E+01-7.75490E+02-1.89850E+04-4.59522E-10-3.96255E-10
 -1       936-9.59373E+05 1.54450E+01-1.35290E+03-8.69048E+03 6.32099E-11 1.02091E-10
 -1       937-9.59625E+05-3.30686E+02-2.79157E+03-1.88929E+04 4.65661E-10-5.53712E-10
 -1       938-9.59113E+05 1.58705E+02-5.20171E+03-8.74803E+03 2.21007E-10-3.49246E-10
 -1       939-9.62641E+05-4.59435E+03-1.22371E+04-1.86762E+04 7.23276E-10 5.29326E-10
 -1       940-9.56304E+05 1.90034E+03-2.02974E+04-8.90538E+03-4.27917E-10 1.29967E-09
 -1       941 1.64520E+06-2.15394E+04 2.27708E+05-1.25489E+04 1.28784E-09 2.24099E-09
 -1       942 1.71747E+06 5.10886E+04 1.37226E+05-2.81264E+04 5.94810E-10-1.38243E-09
 -1       943 1.67659E+06-1.98717E+03 5.82640E+04-1.25456E+04 6.59384E-11 4.32919E-10
 -1       944 1.68330E+06 3.53151E+03 3.11489E+04-2.80712E+04-2.43176E-10-7.01675E-10
 -1       945 1.67939E+06-2.59200E+02 1.47640E+04-1.25839E+04 1.00846E-09 1.54068E-09
 -1       946 1.68018E+06 2.18201E+02 7.85632E+03-2.80443E+04 1.36882E-09 2.91539E-09
 -1       947 1.67973E+06-6.15938E+01 4.32239E+03-1.25727E+04 7.62157E-10 1.90084E-09
 -1       948 1.67986E+06-1.72890E+00 3.25411E+03-2.81207E+04 5.75710E-10 1.97326E-09
 -1       949 1.67976E+06-6.42907E+01 3.65535E+03-1.25076E+04-1.21508E-09-2.00669E-09
 -1       950 1.68012E+06 1.33453E+02 6.14263E+03-2.83048E+04 2.07979E-09 3.43096E-09
 -1       951 1.67953E+06-2.33067E+02 1.12622E+04-1.23881E+04-1.58980E-09-1.37288E-09
 -1       952 1.68254E+06 2.61154E+03 2.36251E+04-2.85885E+04-8.54925E-10 4.81577E-10
 -1       953 1.67744E+06-1.56652E+03 4.41065E+04-1.22238E+04-4.04725E-10 2.53203E-09
 -1       954 1.70848E+06 3.85777E+04 1.03878E+05-2.88347E+04-5.93172E-09 1.44792E-09
 -1       955 1.65370E+06-1.64063E+04 1.72296E+05-1.21802E+04 9.54060E-10 2.33558E-09
 -1       956-3.80434E+05-8.93064E+03-2.33502E+04 5.54105E+04-1.39680E-08 2.50657E-09
 -1       957-3.85160E+05-2.91715E+03-1.20087E+04 6.70993E+04-1.81262E-09-1.39289E-09
 -1       958-3.82636E+05-8.94221E+01-5.42049E+03 5.50010E+04 1.00263E-08-7.87622E-10
 -1       959-3.83103E+05 1.96613E+02-2.76309E+03 6.75302E+04-7.04313E-09-2.18461E-09
 -1       960-3.82914E+05 2.81074E+02-1.34778E+03 5.49599E+04-1.73659E-08 1.26875E-10
 -1       961-3.83045E+05 3.65139E+02-7.01489E+02 6.75768E+04-2.99924E-08-1.05047E-09
 -1       962-3.83020E+05 3.15425E+02-3.83402E+02 5.49518E+04-1.10704E-08 1.31649E-09
 -1       963-3.83103E+05 4.04514E+02-2.69823E+02 6.75880E+04-1.29185E-08-1.03910E-09
 -1       964-3.83071E+05 3.43626E+02-2.84567E+02 5.49477E+04-2.26419E-09 5.00222E-10
 -1       965-3.83152E+05 4.27456E+02-4.54562E+02 6.75909E+04 1.38972E-08-1.22327E-09
 -1       966-3.83071E+05 3.63765E+02-8.34498E+02 5.49483E+04-8.93300E-09 1.37379E-09
 -1       967-3.83258E+05 3.63081E+02-1.70074E+03 6.75729E+04-3.77440E-09-1.65028E-09
 -1       968-3.82951E+05 1.69096E+02-3.32496E+03 5.49665E+04-6.47560E-10 1.70712E-09
 -1       969-3.84578E+05-1.52405E+03-7.37826E+03 6.73657E+04 5.30508E-09-6.62226E-10
 -1       970-3.81629E+05-5.24991E+03-1.43408E+04 5.51757E+04 5.27598E-09 6.56655E-10
 -1       971-5.44462E+05 2.76227E+03-2.87825E+04 1.06980E+04-1.12859E-08 4.40468E-09
 -1       972-5.53616E+05-6.33351E+03-1.73478E+04 2.50020E+04-1.68293E-08 5.02678E-09
 -1       973-5.48456E+05 3.02278E+02-7.37116E+03 1.05215E+04-6.72026E-09 4.50882E-09
 -1       974-5.49358E+05-2.80954E+02-3.94297E+03 2.52173E+04 3.45972E-09 5.96810E-09
 -1       975-5.48830E+05 1.04058E+02-1.88750E+03 1.04734E+04-5.10681E-10 4.08158E-09
 -1       976-5.49007E+05 1.59955E+02-1.03453E+03 2.52879E+04-1.80726E-08 6.98901E-09
 -1       977-5.48883E+05 9.15231E+01-6.33417E+02 1.04497E+04 1.40540E-08 3.69369E-09
 -1       978-5.48991E+05 1.95540E+02-5.90524E+02 2.53183E+04 4.29657E-08 4.03656E-09
 -1       979-5.48883E+05 9.74581E+01-8.17452E+02 1.04427E+04 1.81743E-08 3.24695E-09
 -1       980-5.49057E+05 1.53047E+02-1.51180E+03 2.53148E+04 2.75465E-08 5.00867E-09
 -1       981-5.48814E+05 1.31539E+02-2.85827E+03 1.04532E+04 7.45104E-10 5.44424E-09
 -1       982-5.49641E+05-5.04989E+02-6.04142E+03 2.52740E+04-8.40578E-09 6.77858E-09
 -1       983-5.48258E+05 4.54447E+02-1.13115E+04 1.04849E+04 4.42105E-09 3.52566E-09
 -1       984-5.56240E+05-9.78620E+03-2.66619E+04 2.51149E+04-1.05133E-08 5.46288E-09
 -1       985-5.42138E+05 4.25936E+03-4.42217E+04 1.06282E+04 9.03856E-09 3.49428E-09
 -3
 9999
