    1C
    1UUSER                                                              
    1UDATE              11.october.2022                                 
    1UTIME              17:35:00                                        
    1UHOST                                                              
    1UPGM               CalculiX                                        
    1UVERSION           Version 2.20                             
    1UCOMPILETIME       Sun Jul 31 18:08:37 CEST 2022                    
    1UDIR                                                               
    1UDBN                                                               
    1UMAT    1MESH_MATERIAL                                             
    2C                           841                                     1
 -1         1 0.00000E+00 0.00000E+00 0.00000E+00
 -1         2 1.66667E-02 0.00000E+00 0.00000E+00
 -1         3 3.33333E-02 0.00000E+00 0.00000E+00
 -1         4 5.00000E-02 0.00000E+00 0.00000E+00
 -1         5 6.66667E-02 0.00000E+00 0.00000E+00
 -1         8 0.00000E+00 6.25000E-03 0.00000E+00
 -1         9 1.66667E-02 6.25000E-03 0.00000E+00
 -1        10 3.33333E-02 6.25000E-03 0.00000E+00
 -1        11 5.00000E-02 6.25000E-03 0.00000E+00
 -1        12 6.66667E-02 6.25000E-03 0.00000E+00
 -1        15 0.00000E+00 1.25000E-02 0.00000E+00
 -1        16 1.66667E-02 1.25000E-02 0.00000E+00
 -1        17 3.33333E-02 1.25000E-02 0.00000E+00
 -1        18 5.00000E-02 1.25000E-02 0.00000E+00
 -1        19 6.66667E-02 1.25000E-02 0.00000E+00
 -1        20 8.33333E-02 1.25000E-02 0.00000E+00
 -1        21 1.00000E-01 1.25000E-02 0.00000E+00
 -1        22 0.00000E+00 1.87500E-02 0.00000E+00
 -1        23 1.66667E-02 1.87500E-02 0.00000E+00
 -1        24 3.33333E-02 1.87500E-02 0.00000E+00
 -1        25 5.00000E-02 1.87500E-02 0.00000E+00
 -1        26 6.66667E-02 1.87500E-02 0.00000E+00
 -1        27 8.33333E-02 1.87500E-02 0.00000E+00
 -1        28 1.00000E-01 1.87500E-02 0.00000E+00
 -1        29 0.00000E+00 2.50000E-02 0.00000E+00
 -1        30 1.66667E-02 2.50000E-02 0.00000E+00
 -1        31 3.33333E-02 2.50000E-02 0.00000E+00
 -1        32 5.00000E-02 2.50000E-02 0.00000E+00
 -1        33 6.66667E-02 2.50000E-02 0.00000E+00
 -1        34 8.33333E-02 2.50000E-02 0.00000E+00
 -1        35 1.00000E-01 2.50000E-02 0.00000E+00
 -1        36 1.04167E-03 0.00000E+00 0.00000E+00
 -1        37 2.08333E-03 0.00000E+00 0.00000E+00
 -1        38 3.12500E-03 0.00000E+00 0.00000E+00
 -1        39 4.16667E-03 0.00000E+00 0.00000E+00
 -1        40 5.20833E-03 0.00000E+00 0.00000E+00
 -1        41 6.25000E-03 0.00000E+00 0.00000E+00
 -1        42 7.29167E-03 0.00000E+00 0.00000E+00
 -1        43 8.33333E-03 0.00000E+00 0.00000E+00
 -1        44 9.37500E-03 0.00000E+00 0.00000E+00
 -1        45 1.04167E-02 0.00000E+00 0.00000E+00
 -1        46 1.14583E-02 0.00000E+00 0.00000E+00
 -1        47 1.25000E-02 0.00000E+00 0.00000E+00
 -1        48 1.35417E-02 0.00000E+00 0.00000E+00
 -1        49 1.45833E-02 0.00000E+00 0.00000E+00
 -1        50 1.56250E-02 0.00000E+00 0.00000E+00
 -1        51 0.00000E+00 1.04167E-03 0.00000E+00
 -1        52 0.00000E+00 2.08333E-03 0.00000E+00
 -1        53 0.00000E+00 3.12500E-03 0.00000E+00
 -1        54 0.00000E+00 4.16667E-03 0.00000E+00
 -1        55 0.00000E+00 5.20833E-03 0.00000E+00
 -1        56 1.04167E-03 3.90630E-04 0.00000E+00
 -1        57 2.08333E-03 7.81250E-04 0.00000E+00
 -1        58 3.12500E-03 1.17188E-03 0.00000E+00
 -1        59 4.16667E-03 1.56250E-03 0.00000E+00
 -1        60 5.20833E-03 1.95312E-03 0.00000E+00
 -1        61 6.25000E-03 2.34375E-03 0.00000E+00
 -1        62 7.29167E-03 2.73438E-03 0.00000E+00
 -1        63 8.33333E-03 3.12500E-03 0.00000E+00
 -1        64 9.37500E-03 3.51563E-03 0.00000E+00
 -1        65 1.04167E-02 3.90625E-03 0.00000E+00
 -1        66 1.14583E-02 4.29688E-03 0.00000E+00
 -1        67 1.25000E-02 4.68750E-03 0.00000E+00
 -1        68 1.35417E-02 5.07813E-03 0.00000E+00
 -1        69 1.45833E-02 5.46875E-03 0.00000E+00
 -1        70 1.56250E-02 5.85938E-03 0.00000E+00
 -1        71 1.77083E-02 0.00000E+00 0.00000E+00
 -1        72 1.87500E-02 0.00000E+00 0.00000E+00
 -1        73 1.97917E-02 0.00000E+00 0.00000E+00
 -1        74 2.08333E-02 0.00000E+00 0.00000E+00
 -1        75 2.18750E-02 0.00000E+00 0.00000E+00
 -1        76 2.29167E-02 0.00000E+00 0.00000E+00
 -1        77 2.39583E-02 0.00000E+00 0.00000E+00
 -1        78 2.50000E-02 0.00000E+00 0.00000E+00
 -1        79 2.60417E-02 0.00000E+00 0.00000E+00
 -1        80 2.70833E-02 0.00000E+00 0.00000E+00
 -1        81 2.81250E-02 0.00000E+00 0.00000E+00
 -1        82 2.91667E-02 0.00000E+00 0.00000E+00
 -1        83 3.02083E-02 0.00000E+00 0.00000E+00
 -1        84 3.12500E-02 0.00000E+00 0.00000E+00
 -1        85 3.22917E-02 0.00000E+00 0.00000E+00
 -1        86 1.66667E-02 1.04167E-03 0.00000E+00
 -1        87 1.66667E-02 2.08333E-03 0.00000E+00
 -1        88 1.66667E-02 3.12500E-03 0.00000E+00
 -1        89 1.66667E-02 4.16667E-03 0.00000E+00
 -1        90 1.66667E-02 5.20833E-03 0.00000E+00
 -1        91 1.77083E-02 3.90630E-04 0.00000E+00
 -1        92 1.87500E-02 7.81250E-04 0.00000E+00
 -1        93 1.97917E-02 1.17188E-03 0.00000E+00
 -1        94 2.08333E-02 1.56250E-03 0.00000E+00
 -1        95 2.18750E-02 1.95312E-03 0.00000E+00
 -1        96 2.29167E-02 2.34375E-03 0.00000E+00
 -1        97 2.39583E-02 2.73438E-03 0.00000E+00
 -1        98 2.50000E-02 3.12500E-03 0.00000E+00
 -1        99 2.60417E-02 3.51563E-03 0.00000E+00
 -1       100 2.70833E-02 3.90625E-03 0.00000E+00
 -1       101 2.81250E-02 4.29688E-03 0.00000E+00
 -1       102 2.91667E-02 4.68750E-03 0.00000E+00
 -1       103 3.02083E-02 5.07813E-03 0.00000E+00
 -1       104 3.12500E-02 5.46875E-03 0.00000E+00
 -1       105 3.22917E-02 5.85938E-03 0.00000E+00
 -1       106 3.43750E-02 0.00000E+00 0.00000E+00
 -1       107 3.54167E-02 0.00000E+00 0.00000E+00
 -1       108 3.64583E-02 0.00000E+00 0.00000E+00
 -1       109 3.75000E-02 0.00000E+00 0.00000E+00
 -1       110 3.85417E-02 0.00000E+00 0.00000E+00
 -1       111 3.95833E-02 0.00000E+00 0.00000E+00
 -1       112 4.06250E-02 0.00000E+00 0.00000E+00
 -1       113 4.16667E-02 0.00000E+00 0.00000E+00
 -1       114 4.27083E-02 0.00000E+00 0.00000E+00
 -1       115 4.37500E-02 0.00000E+00 0.00000E+00
 -1       116 4.47917E-02 0.00000E+00 0.00000E+00
 -1       117 4.58333E-02 0.00000E+00 0.00000E+00
 -1       118 4.68750E-02 0.00000E+00 0.00000E+00
 -1       119 4.79167E-02 0.00000E+00 0.00000E+00
 -1       120 4.89583E-02 0.00000E+00 0.00000E+00
 -1       121 3.33333E-02 1.04167E-03 0.00000E+00
 -1       122 3.33333E-02 2.08333E-03 0.00000E+00
 -1       123 3.33333E-02 3.12500E-03 0.00000E+00
 -1       124 3.33333E-02 4.16667E-03 0.00000E+00
 -1       125 3.33333E-02 5.20833E-03 0.00000E+00
 -1       126 3.43750E-02 3.90630E-04 0.00000E+00
 -1       127 3.54167E-02 7.81250E-04 0.00000E+00
 -1       128 3.64583E-02 1.17188E-03 0.00000E+00
 -1       129 3.75000E-02 1.56250E-03 0.00000E+00
 -1       130 3.85417E-02 1.95312E-03 0.00000E+00
 -1       131 3.95833E-02 2.34375E-03 0.00000E+00
 -1       132 4.06250E-02 2.73438E-03 0.00000E+00
 -1       133 4.16667E-02 3.12500E-03 0.00000E+00
 -1       134 4.27083E-02 3.51563E-03 0.00000E+00
 -1       135 4.37500E-02 3.90625E-03 0.00000E+00
 -1       136 4.47917E-02 4.29688E-03 0.00000E+00
 -1       137 4.58333E-02 4.68750E-03 0.00000E+00
 -1       138 4.68750E-02 5.07813E-03 0.00000E+00
 -1       139 4.79167E-02 5.46875E-03 0.00000E+00
 -1       140 4.89583E-02 5.85938E-03 0.00000E+00
 -1       141 5.10417E-02 0.00000E+00 0.00000E+00
 -1       142 5.20833E-02 0.00000E+00 0.00000E+00
 -1       143 5.31250E-02 0.00000E+00 0.00000E+00
 -1       144 5.41667E-02 0.00000E+00 0.00000E+00
 -1       145 5.52083E-02 0.00000E+00 0.00000E+00
 -1       146 5.62500E-02 0.00000E+00 0.00000E+00
 -1       147 5.72917E-02 0.00000E+00 0.00000E+00
 -1       148 5.83333E-02 0.00000E+00 0.00000E+00
 -1       149 5.93750E-02 0.00000E+00 0.00000E+00
 -1       150 6.04167E-02 0.00000E+00 0.00000E+00
 -1       151 6.14583E-02 0.00000E+00 0.00000E+00
 -1       152 6.25000E-02 0.00000E+00 0.00000E+00
 -1       153 6.35417E-02 0.00000E+00 0.00000E+00
 -1       154 6.45833E-02 0.00000E+00 0.00000E+00
 -1       155 6.56250E-02 0.00000E+00 0.00000E+00
 -1       156 5.00000E-02 1.04167E-03 0.00000E+00
 -1       157 5.00000E-02 2.08333E-03 0.00000E+00
 -1       158 5.00000E-02 3.12500E-03 0.00000E+00
 -1       159 5.00000E-02 4.16667E-03 0.00000E+00
 -1       160 5.00000E-02 5.20833E-03 0.00000E+00
 -1       161 5.10417E-02 3.90630E-04 0.00000E+00
 -1       162 5.20833E-02 7.81250E-04 0.00000E+00
 -1       163 5.31250E-02 1.17188E-03 0.00000E+00
 -1       164 5.41667E-02 1.56250E-03 0.00000E+00
 -1       165 5.52083E-02 1.95312E-03 0.00000E+00
 -1       166 5.62500E-02 2.34375E-03 0.00000E+00
 -1       167 5.72917E-02 2.73438E-03 0.00000E+00
 -1       168 5.83333E-02 3.12500E-03 0.00000E+00
 -1       169 5.93750E-02 3.51563E-03 0.00000E+00
 -1       170 6.04167E-02 3.90625E-03 0.00000E+00
 -1       171 6.14583E-02 4.29688E-03 0.00000E+00
 -1       172 6.25000E-02 4.68750E-03 0.00000E+00
 -1       173 6.35417E-02 5.07813E-03 0.00000E+00
 -1       174 6.45833E-02 5.46875E-03 0.00000E+00
 -1       175 6.56250E-02 5.85938E-03 0.00000E+00
 -1       191 6.66667E-02 1.04167E-03 0.00000E+00
 -1       192 6.66667E-02 2.08333E-03 0.00000E+00
 -1       193 6.66667E-02 3.12500E-03 0.00000E+00
 -1       194 6.66667E-02 4.16667E-03 0.00000E+00
 -1       195 6.66667E-02 5.20833E-03 0.00000E+00
 -1       251 1.04167E-03 6.25000E-03 0.00000E+00
 -1       252 2.08333E-03 6.25000E-03 0.00000E+00
 -1       253 3.12500E-03 6.25000E-03 0.00000E+00
 -1       254 4.16667E-03 6.25000E-03 0.00000E+00
 -1       255 5.20833E-03 6.25000E-03 0.00000E+00
 -1       256 6.25000E-03 6.25000E-03 0.00000E+00
 -1       257 7.29167E-03 6.25000E-03 0.00000E+00
 -1       258 8.33333E-03 6.25000E-03 0.00000E+00
 -1       259 9.37500E-03 6.25000E-03 0.00000E+00
 -1       260 1.04167E-02 6.25000E-03 0.00000E+00
 -1       261 1.14583E-02 6.25000E-03 0.00000E+00
 -1       262 1.25000E-02 6.25000E-03 0.00000E+00
 -1       263 1.35417E-02 6.25000E-03 0.00000E+00
 -1       264 1.45833E-02 6.25000E-03 0.00000E+00
 -1       265 1.56250E-02 6.25000E-03 0.00000E+00
 -1       266 0.00000E+00 7.29167E-03 0.00000E+00
 -1       267 0.00000E+00 8.33333E-03 0.00000E+00
 -1       268 0.00000E+00 9.37500E-03 0.00000E+00
 -1       269 0.00000E+00 1.04167E-02 0.00000E+00
 -1       270 0.00000E+00 1.14583E-02 0.00000E+00
 -1       271 1.04167E-03 6.64063E-03 0.00000E+00
 -1       272 2.08333E-03 7.03125E-03 0.00000E+00
 -1       273 3.12500E-03 7.42188E-03 0.00000E+00
 -1       274 4.16667E-03 7.81250E-03 0.00000E+00
 -1       275 5.20833E-03 8.20313E-03 0.00000E+00
 -1       276 6.25000E-03 8.59375E-03 0.00000E+00
 -1       277 7.29167E-03 8.98438E-03 0.00000E+00
 -1       278 8.33333E-03 9.37500E-03 0.00000E+00
 -1       279 9.37500E-03 9.76562E-03 0.00000E+00
 -1       280 1.04167E-02 1.01562E-02 0.00000E+00
 -1       281 1.14583E-02 1.05469E-02 0.00000E+00
 -1       282 1.25000E-02 1.09375E-02 0.00000E+00
 -1       283 1.35417E-02 1.13281E-02 0.00000E+00
 -1       284 1.45833E-02 1.17188E-02 0.00000E+00
 -1       285 1.56250E-02 1.21094E-02 0.00000E+00
 -1       286 1.77083E-02 6.25000E-03 0.00000E+00
 -1       287 1.87500E-02 6.25000E-03 0.00000E+00
 -1       288 1.97917E-02 6.25000E-03 0.00000E+00
 -1       289 2.08333E-02 6.25000E-03 0.00000E+00
 -1       290 2.18750E-02 6.25000E-03 0.00000E+00
 -1       291 2.29167E-02 6.25000E-03 0.00000E+00
 -1       292 2.39583E-02 6.25000E-03 0.00000E+00
 -1       293 2.50000E-02 6.25000E-03 0.00000E+00
 -1       294 2.60417E-02 6.25000E-03 0.00000E+00
 -1       295 2.70833E-02 6.25000E-03 0.00000E+00
 -1       296 2.81250E-02 6.25000E-03 0.00000E+00
 -1       297 2.91667E-02 6.25000E-03 0.00000E+00
 -1       298 3.02083E-02 6.25000E-03 0.00000E+00
 -1       299 3.12500E-02 6.25000E-03 0.00000E+00
 -1       300 3.22917E-02 6.25000E-03 0.00000E+00
 -1       301 1.66667E-02 7.29167E-03 0.00000E+00
 -1       302 1.66667E-02 8.33333E-03 0.00000E+00
 -1       303 1.66667E-02 9.37500E-03 0.00000E+00
 -1       304 1.66667E-02 1.04167E-02 0.00000E+00
 -1       305 1.66667E-02 1.14583E-02 0.00000E+00
 -1       306 1.77083E-02 6.64063E-03 0.00000E+00
 -1       307 1.87500E-02 7.03125E-03 0.00000E+00
 -1       308 1.97917E-02 7.42188E-03 0.00000E+00
 -1       309 2.08333E-02 7.81250E-03 0.00000E+00
 -1       310 2.18750E-02 8.20313E-03 0.00000E+00
 -1       311 2.29167E-02 8.59375E-03 0.00000E+00
 -1       312 2.39583E-02 8.98438E-03 0.00000E+00
 -1       313 2.50000E-02 9.37500E-03 0.00000E+00
 -1       314 2.60417E-02 9.76562E-03 0.00000E+00
 -1       315 2.70833E-02 1.01562E-02 0.00000E+00
 -1       316 2.81250E-02 1.05469E-02 0.00000E+00
 -1       317 2.91667E-02 1.09375E-02 0.00000E+00
 -1       318 3.02083E-02 1.13281E-02 0.00000E+00
 -1       319 3.12500E-02 1.17188E-02 0.00000E+00
 -1       320 3.22917E-02 1.21094E-02 0.00000E+00
 -1       321 3.43750E-02 6.25000E-03 0.00000E+00
 -1       322 3.54167E-02 6.25000E-03 0.00000E+00
 -1       323 3.64583E-02 6.25000E-03 0.00000E+00
 -1       324 3.75000E-02 6.25000E-03 0.00000E+00
 -1       325 3.85417E-02 6.25000E-03 0.00000E+00
 -1       326 3.95833E-02 6.25000E-03 0.00000E+00
 -1       327 4.06250E-02 6.25000E-03 0.00000E+00
 -1       328 4.16667E-02 6.25000E-03 0.00000E+00
 -1       329 4.27083E-02 6.25000E-03 0.00000E+00
 -1       330 4.37500E-02 6.25000E-03 0.00000E+00
 -1       331 4.47917E-02 6.25000E-03 0.00000E+00
 -1       332 4.58333E-02 6.25000E-03 0.00000E+00
 -1       333 4.68750E-02 6.25000E-03 0.00000E+00
 -1       334 4.79167E-02 6.25000E-03 0.00000E+00
 -1       335 4.89583E-02 6.25000E-03 0.00000E+00
 -1       336 3.33333E-02 7.29167E-03 0.00000E+00
 -1       337 3.33333E-02 8.33333E-03 0.00000E+00
 -1       338 3.33333E-02 9.37500E-03 0.00000E+00
 -1       339 3.33333E-02 1.04167E-02 0.00000E+00
 -1       340 3.33333E-02 1.14583E-02 0.00000E+00
 -1       341 3.43750E-02 6.64063E-03 0.00000E+00
 -1       342 3.54167E-02 7.03125E-03 0.00000E+00
 -1       343 3.64583E-02 7.42188E-03 0.00000E+00
 -1       344 3.75000E-02 7.81250E-03 0.00000E+00
 -1       345 3.85417E-02 8.20313E-03 0.00000E+00
 -1       346 3.95833E-02 8.59375E-03 0.00000E+00
 -1       347 4.06250E-02 8.98438E-03 0.00000E+00
 -1       348 4.16667E-02 9.37500E-03 0.00000E+00
 -1       349 4.27083E-02 9.76562E-03 0.00000E+00
 -1       350 4.37500E-02 1.01562E-02 0.00000E+00
 -1       351 4.47917E-02 1.05469E-02 0.00000E+00
 -1       352 4.58333E-02 1.09375E-02 0.00000E+00
 -1       353 4.68750E-02 1.13281E-02 0.00000E+00
 -1       354 4.79167E-02 1.17188E-02 0.00000E+00
 -1       355 4.89583E-02 1.21094E-02 0.00000E+00
 -1       356 5.10417E-02 6.25000E-03 0.00000E+00
 -1       357 5.20833E-02 6.25000E-03 0.00000E+00
 -1       358 5.31250E-02 6.25000E-03 0.00000E+00
 -1       359 5.41667E-02 6.25000E-03 0.00000E+00
 -1       360 5.52083E-02 6.25000E-03 0.00000E+00
 -1       361 5.62500E-02 6.25000E-03 0.00000E+00
 -1       362 5.72917E-02 6.25000E-03 0.00000E+00
 -1       363 5.83333E-02 6.25000E-03 0.00000E+00
 -1       364 5.93750E-02 6.25000E-03 0.00000E+00
 -1       365 6.04167E-02 6.25000E-03 0.00000E+00
 -1       366 6.14583E-02 6.25000E-03 0.00000E+00
 -1       367 6.25000E-02 6.25000E-03 0.00000E+00
 -1       368 6.35417E-02 6.25000E-03 0.00000E+00
 -1       369 6.45833E-02 6.25000E-03 0.00000E+00
 -1       370 6.56250E-02 6.25000E-03 0.00000E+00
 -1       371 5.00000E-02 7.29167E-03 0.00000E+00
 -1       372 5.00000E-02 8.33333E-03 0.00000E+00
 -1       373 5.00000E-02 9.37500E-03 0.00000E+00
 -1       374 5.00000E-02 1.04167E-02 0.00000E+00
 -1       375 5.00000E-02 1.14583E-02 0.00000E+00
 -1       376 5.10417E-02 6.64063E-03 0.00000E+00
 -1       377 5.20833E-02 7.03125E-03 0.00000E+00
 -1       378 5.31250E-02 7.42188E-03 0.00000E+00
 -1       379 5.41667E-02 7.81250E-03 0.00000E+00
 -1       380 5.52083E-02 8.20313E-03 0.00000E+00
 -1       381 5.62500E-02 8.59375E-03 0.00000E+00
 -1       382 5.72917E-02 8.98438E-03 0.00000E+00
 -1       383 5.83333E-02 9.37500E-03 0.00000E+00
 -1       384 5.93750E-02 9.76562E-03 0.00000E+00
 -1       385 6.04167E-02 1.01562E-02 0.00000E+00
 -1       386 6.14583E-02 1.05469E-02 0.00000E+00
 -1       387 6.25000E-02 1.09375E-02 0.00000E+00
 -1       388 6.35417E-02 1.13281E-02 0.00000E+00
 -1       389 6.45833E-02 1.17188E-02 0.00000E+00
 -1       390 6.56250E-02 1.21094E-02 0.00000E+00
 -1       406 6.66667E-02 7.29167E-03 0.00000E+00
 -1       407 6.66667E-02 8.33333E-03 0.00000E+00
 -1       408 6.66667E-02 9.37500E-03 0.00000E+00
 -1       409 6.66667E-02 1.04167E-02 0.00000E+00
 -1       410 6.66667E-02 1.14583E-02 0.00000E+00
 -1       466 1.04167E-03 1.25000E-02 0.00000E+00
 -1       467 2.08333E-03 1.25000E-02 0.00000E+00
 -1       468 3.12500E-03 1.25000E-02 0.00000E+00
 -1       469 4.16667E-03 1.25000E-02 0.00000E+00
 -1       470 5.20833E-03 1.25000E-02 0.00000E+00
 -1       471 6.25000E-03 1.25000E-02 0.00000E+00
 -1       472 7.29167E-03 1.25000E-02 0.00000E+00
 -1       473 8.33333E-03 1.25000E-02 0.00000E+00
 -1       474 9.37500E-03 1.25000E-02 0.00000E+00
 -1       475 1.04167E-02 1.25000E-02 0.00000E+00
 -1       476 1.14583E-02 1.25000E-02 0.00000E+00
 -1       477 1.25000E-02 1.25000E-02 0.00000E+00
 -1       478 1.35417E-02 1.25000E-02 0.00000E+00
 -1       479 1.45833E-02 1.25000E-02 0.00000E+00
 -1       480 1.56250E-02 1.25000E-02 0.00000E+00
 -1       481 0.00000E+00 1.35417E-02 0.00000E+00
 -1       482 0.00000E+00 1.45833E-02 0.00000E+00
 -1       483 0.00000E+00 1.56250E-02 0.00000E+00
 -1       484 0.00000E+00 1.66667E-02 0.00000E+00
 -1       485 0.00000E+00 1.77083E-02 0.00000E+00
 -1       486 1.04167E-03 1.28906E-02 0.00000E+00
 -1       487 2.08333E-03 1.32813E-02 0.00000E+00
 -1       488 3.12500E-03 1.36719E-02 0.00000E+00
 -1       489 4.16667E-03 1.40625E-02 0.00000E+00
 -1       490 5.20833E-03 1.44531E-02 0.00000E+00
 -1       491 6.25000E-03 1.48437E-02 0.00000E+00
 -1       492 7.29167E-03 1.52344E-02 0.00000E+00
 -1       493 8.33333E-03 1.56250E-02 0.00000E+00
 -1       494 9.37500E-03 1.60156E-02 0.00000E+00
 -1       495 1.04167E-02 1.64062E-02 0.00000E+00
 -1       496 1.14583E-02 1.67969E-02 0.00000E+00
 -1       497 1.25000E-02 1.71875E-02 0.00000E+00
 -1       498 1.35417E-02 1.75781E-02 0.00000E+00
 -1       499 1.45833E-02 1.79687E-02 0.00000E+00
 -1       500 1.56250E-02 1.83594E-02 0.00000E+00
 -1       501 1.77083E-02 1.25000E-02 0.00000E+00
 -1       502 1.87500E-02 1.25000E-02 0.00000E+00
 -1       503 1.97917E-02 1.25000E-02 0.00000E+00
 -1       504 2.08333E-02 1.25000E-02 0.00000E+00
 -1       505 2.18750E-02 1.25000E-02 0.00000E+00
 -1       506 2.29167E-02 1.25000E-02 0.00000E+00
 -1       507 2.39583E-02 1.25000E-02 0.00000E+00
 -1       508 2.50000E-02 1.25000E-02 0.00000E+00
 -1       509 2.60417E-02 1.25000E-02 0.00000E+00
 -1       510 2.70833E-02 1.25000E-02 0.00000E+00
 -1       511 2.81250E-02 1.25000E-02 0.00000E+00
 -1       512 2.91667E-02 1.25000E-02 0.00000E+00
 -1       513 3.02083E-02 1.25000E-02 0.00000E+00
 -1       514 3.12500E-02 1.25000E-02 0.00000E+00
 -1       515 3.22917E-02 1.25000E-02 0.00000E+00
 -1       516 1.66667E-02 1.35417E-02 0.00000E+00
 -1       517 1.66667E-02 1.45833E-02 0.00000E+00
 -1       518 1.66667E-02 1.56250E-02 0.00000E+00
 -1       519 1.66667E-02 1.66667E-02 0.00000E+00
 -1       520 1.66667E-02 1.77083E-02 0.00000E+00
 -1       521 1.77083E-02 1.28906E-02 0.00000E+00
 -1       522 1.87500E-02 1.32813E-02 0.00000E+00
 -1       523 1.97917E-02 1.36719E-02 0.00000E+00
 -1       524 2.08333E-02 1.40625E-02 0.00000E+00
 -1       525 2.18750E-02 1.44531E-02 0.00000E+00
 -1       526 2.29167E-02 1.48437E-02 0.00000E+00
 -1       527 2.39583E-02 1.52344E-02 0.00000E+00
 -1       528 2.50000E-02 1.56250E-02 0.00000E+00
 -1       529 2.60417E-02 1.60156E-02 0.00000E+00
 -1       530 2.70833E-02 1.64062E-02 0.00000E+00
 -1       531 2.81250E-02 1.67969E-02 0.00000E+00
 -1       532 2.91667E-02 1.71875E-02 0.00000E+00
 -1       533 3.02083E-02 1.75781E-02 0.00000E+00
 -1       534 3.12500E-02 1.79687E-02 0.00000E+00
 -1       535 3.22917E-02 1.83594E-02 0.00000E+00
 -1       536 3.43750E-02 1.25000E-02 0.00000E+00
 -1       537 3.54167E-02 1.25000E-02 0.00000E+00
 -1       538 3.64583E-02 1.25000E-02 0.00000E+00
 -1       539 3.75000E-02 1.25000E-02 0.00000E+00
 -1       540 3.85417E-02 1.25000E-02 0.00000E+00
 -1       541 3.95833E-02 1.25000E-02 0.00000E+00
 -1       542 4.06250E-02 1.25000E-02 0.00000E+00
 -1       543 4.16667E-02 1.25000E-02 0.00000E+00
 -1       544 4.27083E-02 1.25000E-02 0.00000E+00
 -1       545 4.37500E-02 1.25000E-02 0.00000E+00
 -1       546 4.47917E-02 1.25000E-02 0.00000E+00
 -1       547 4.58333E-02 1.25000E-02 0.00000E+00
 -1       548 4.68750E-02 1.25000E-02 0.00000E+00
 -1       549 4.79167E-02 1.25000E-02 0.00000E+00
 -1       550 4.89583E-02 1.25000E-02 0.00000E+00
 -1       551 3.33333E-02 1.35417E-02 0.00000E+00
 -1       552 3.33333E-02 1.45833E-02 0.00000E+00
 -1       553 3.33333E-02 1.56250E-02 0.00000E+00
 -1       554 3.33333E-02 1.66667E-02 0.00000E+00
 -1       555 3.33333E-02 1.77083E-02 0.00000E+00
 -1       556 3.43750E-02 1.28906E-02 0.00000E+00
 -1       557 3.54167E-02 1.32813E-02 0.00000E+00
 -1       558 3.64583E-02 1.36719E-02 0.00000E+00
 -1       559 3.75000E-02 1.40625E-02 0.00000E+00
 -1       560 3.85417E-02 1.44531E-02 0.00000E+00
 -1       561 3.95833E-02 1.48437E-02 0.00000E+00
 -1       562 4.06250E-02 1.52344E-02 0.00000E+00
 -1       563 4.16667E-02 1.56250E-02 0.00000E+00
 -1       564 4.27083E-02 1.60156E-02 0.00000E+00
 -1       565 4.37500E-02 1.64062E-02 0.00000E+00
 -1       566 4.47917E-02 1.67969E-02 0.00000E+00
 -1       567 4.58333E-02 1.71875E-02 0.00000E+00
 -1       568 4.68750E-02 1.75781E-02 0.00000E+00
 -1       569 4.79167E-02 1.79687E-02 0.00000E+00
 -1       570 4.89583E-02 1.83594E-02 0.00000E+00
 -1       571 5.10417E-02 1.25000E-02 0.00000E+00
 -1       572 5.20833E-02 1.25000E-02 0.00000E+00
 -1       573 5.31250E-02 1.25000E-02 0.00000E+00
 -1       574 5.41667E-02 1.25000E-02 0.00000E+00
 -1       575 5.52083E-02 1.25000E-02 0.00000E+00
 -1       576 5.62500E-02 1.25000E-02 0.00000E+00
 -1       577 5.72917E-02 1.25000E-02 0.00000E+00
 -1       578 5.83333E-02 1.25000E-02 0.00000E+00
 -1       579 5.93750E-02 1.25000E-02 0.00000E+00
 -1       580 6.04167E-02 1.25000E-02 0.00000E+00
 -1       581 6.14583E-02 1.25000E-02 0.00000E+00
 -1       582 6.25000E-02 1.25000E-02 0.00000E+00
 -1       583 6.35417E-02 1.25000E-02 0.00000E+00
 -1       584 6.45833E-02 1.25000E-02 0.00000E+00
 -1       585 6.56250E-02 1.25000E-02 0.00000E+00
 -1       586 5.00000E-02 1.35417E-02 0.00000E+00
 -1       587 5.00000E-02 1.45833E-02 0.00000E+00
 -1       588 5.00000E-02 1.56250E-02 0.00000E+00
 -1       589 5.00000E-02 1.66667E-02 0.00000E+00
 -1       590 5.00000E-02 1.77083E-02 0.00000E+00
 -1       591 5.10417E-02 1.28906E-02 0.00000E+00
 -1       592 5.20833E-02 1.32813E-02 0.00000E+00
 -1       593 5.31250E-02 1.36719E-02 0.00000E+00
 -1       594 5.41667E-02 1.40625E-02 0.00000E+00
 -1       595 5.52083E-02 1.44531E-02 0.00000E+00
 -1       596 5.62500E-02 1.48437E-02 0.00000E+00
 -1       597 5.72917E-02 1.52344E-02 0.00000E+00
 -1       598 5.83333E-02 1.56250E-02 0.00000E+00
 -1       599 5.93750E-02 1.60156E-02 0.00000E+00
 -1       600 6.04167E-02 1.64062E-02 0.00000E+00
 -1       601 6.14583E-02 1.67969E-02 0.00000E+00
 -1       602 6.25000E-02 1.71875E-02 0.00000E+00
 -1       603 6.35417E-02 1.75781E-02 0.00000E+00
 -1       604 6.45833E-02 1.79687E-02 0.00000E+00
 -1       605 6.56250E-02 1.83594E-02 0.00000E+00
 -1       606 6.77083E-02 1.25000E-02 0.00000E+00
 -1       607 6.87500E-02 1.25000E-02 0.00000E+00
 -1       608 6.97917E-02 1.25000E-02 0.00000E+00
 -1       609 7.08333E-02 1.25000E-02 0.00000E+00
 -1       610 7.18750E-02 1.25000E-02 0.00000E+00
 -1       611 7.29167E-02 1.25000E-02 0.00000E+00
 -1       612 7.39583E-02 1.25000E-02 0.00000E+00
 -1       613 7.50000E-02 1.25000E-02 0.00000E+00
 -1       614 7.60417E-02 1.25000E-02 0.00000E+00
 -1       615 7.70833E-02 1.25000E-02 0.00000E+00
 -1       616 7.81250E-02 1.25000E-02 0.00000E+00
 -1       617 7.91667E-02 1.25000E-02 0.00000E+00
 -1       618 8.02083E-02 1.25000E-02 0.00000E+00
 -1       619 8.12500E-02 1.25000E-02 0.00000E+00
 -1       620 8.22917E-02 1.25000E-02 0.00000E+00
 -1       621 6.66667E-02 1.35417E-02 0.00000E+00
 -1       622 6.66667E-02 1.45833E-02 0.00000E+00
 -1       623 6.66667E-02 1.56250E-02 0.00000E+00
 -1       624 6.66667E-02 1.66667E-02 0.00000E+00
 -1       625 6.66667E-02 1.77083E-02 0.00000E+00
 -1       626 6.77083E-02 1.28906E-02 0.00000E+00
 -1       627 6.87500E-02 1.32813E-02 0.00000E+00
 -1       628 6.97917E-02 1.36719E-02 0.00000E+00
 -1       629 7.08333E-02 1.40625E-02 0.00000E+00
 -1       630 7.18750E-02 1.44531E-02 0.00000E+00
 -1       631 7.29167E-02 1.48437E-02 0.00000E+00
 -1       632 7.39583E-02 1.52344E-02 0.00000E+00
 -1       633 7.50000E-02 1.56250E-02 0.00000E+00
 -1       634 7.60417E-02 1.60156E-02 0.00000E+00
 -1       635 7.70833E-02 1.64062E-02 0.00000E+00
 -1       636 7.81250E-02 1.67969E-02 0.00000E+00
 -1       637 7.91667E-02 1.71875E-02 0.00000E+00
 -1       638 8.02083E-02 1.75781E-02 0.00000E+00
 -1       639 8.12500E-02 1.79687E-02 0.00000E+00
 -1       640 8.22917E-02 1.83594E-02 0.00000E+00
 -1       641 8.43750E-02 1.25000E-02 0.00000E+00
 -1       642 8.54167E-02 1.25000E-02 0.00000E+00
 -1       643 8.64583E-02 1.25000E-02 0.00000E+00
 -1       644 8.75000E-02 1.25000E-02 0.00000E+00
 -1       645 8.85417E-02 1.25000E-02 0.00000E+00
 -1       646 8.95833E-02 1.25000E-02 0.00000E+00
 -1       647 9.06250E-02 1.25000E-02 0.00000E+00
 -1       648 9.16667E-02 1.25000E-02 0.00000E+00
 -1       649 9.27083E-02 1.25000E-02 0.00000E+00
 -1       650 9.37500E-02 1.25000E-02 0.00000E+00
 -1       651 9.47917E-02 1.25000E-02 0.00000E+00
 -1       652 9.58333E-02 1.25000E-02 0.00000E+00
 -1       653 9.68750E-02 1.25000E-02 0.00000E+00
 -1       654 9.79167E-02 1.25000E-02 0.00000E+00
 -1       655 9.89583E-02 1.25000E-02 0.00000E+00
 -1       656 8.33333E-02 1.35417E-02 0.00000E+00
 -1       657 8.33333E-02 1.45833E-02 0.00000E+00
 -1       658 8.33333E-02 1.56250E-02 0.00000E+00
 -1       659 8.33333E-02 1.66667E-02 0.00000E+00
 -1       660 8.33333E-02 1.77083E-02 0.00000E+00
 -1       661 8.43750E-02 1.28906E-02 0.00000E+00
 -1       662 8.54167E-02 1.32813E-02 0.00000E+00
 -1       663 8.64583E-02 1.36719E-02 0.00000E+00
 -1       664 8.75000E-02 1.40625E-02 0.00000E+00
 -1       665 8.85417E-02 1.44531E-02 0.00000E+00
 -1       666 8.95833E-02 1.48437E-02 0.00000E+00
 -1       667 9.06250E-02 1.52344E-02 0.00000E+00
 -1       668 9.16667E-02 1.56250E-02 0.00000E+00
 -1       669 9.27083E-02 1.60156E-02 0.00000E+00
 -1       670 9.37500E-02 1.64062E-02 0.00000E+00
 -1       671 9.47917E-02 1.67969E-02 0.00000E+00
 -1       672 9.58333E-02 1.71875E-02 0.00000E+00
 -1       673 9.68750E-02 1.75781E-02 0.00000E+00
 -1       674 9.79167E-02 1.79687E-02 0.00000E+00
 -1       675 9.89583E-02 1.83594E-02 0.00000E+00
 -1       676 1.00000E-01 1.35417E-02 0.00000E+00
 -1       677 1.00000E-01 1.45833E-02 0.00000E+00
 -1       678 1.00000E-01 1.56250E-02 0.00000E+00
 -1       679 1.00000E-01 1.66667E-02 0.00000E+00
 -1       680 1.00000E-01 1.77083E-02 0.00000E+00
 -1       681 1.04167E-03 1.87500E-02 0.00000E+00
 -1       682 2.08333E-03 1.87500E-02 0.00000E+00
 -1       683 3.12500E-03 1.87500E-02 0.00000E+00
 -1       684 4.16667E-03 1.87500E-02 0.00000E+00
 -1       685 5.20833E-03 1.87500E-02 0.00000E+00
 -1       686 6.25000E-03 1.87500E-02 0.00000E+00
 -1       687 7.29167E-03 1.87500E-02 0.00000E+00
 -1       688 8.33333E-03 1.87500E-02 0.00000E+00
 -1       689 9.37500E-03 1.87500E-02 0.00000E+00
 -1       690 1.04167E-02 1.87500E-02 0.00000E+00
 -1       691 1.14583E-02 1.87500E-02 0.00000E+00
 -1       692 1.25000E-02 1.87500E-02 0.00000E+00
 -1       693 1.35417E-02 1.87500E-02 0.00000E+00
 -1       694 1.45833E-02 1.87500E-02 0.00000E+00
 -1       695 1.56250E-02 1.87500E-02 0.00000E+00
 -1       696 0.00000E+00 1.97917E-02 0.00000E+00
 -1       697 0.00000E+00 2.08333E-02 0.00000E+00
 -1       698 0.00000E+00 2.18750E-02 0.00000E+00
 -1       699 0.00000E+00 2.29167E-02 0.00000E+00
 -1       700 0.00000E+00 2.39583E-02 0.00000E+00
 -1       701 1.04167E-03 1.91406E-02 0.00000E+00
 -1       702 2.08333E-03 1.95312E-02 0.00000E+00
 -1       703 3.12500E-03 1.99219E-02 0.00000E+00
 -1       704 4.16667E-03 2.03125E-02 0.00000E+00
 -1       705 5.20833E-03 2.07031E-02 0.00000E+00
 -1       706 6.25000E-03 2.10938E-02 0.00000E+00
 -1       707 7.29167E-03 2.14844E-02 0.00000E+00
 -1       708 8.33333E-03 2.18750E-02 0.00000E+00
 -1       709 9.37500E-03 2.22656E-02 0.00000E+00
 -1       710 1.04167E-02 2.26563E-02 0.00000E+00
 -1       711 1.14583E-02 2.30469E-02 0.00000E+00
 -1       712 1.25000E-02 2.34375E-02 0.00000E+00
 -1       713 1.35417E-02 2.38281E-02 0.00000E+00
 -1       714 1.45833E-02 2.42187E-02 0.00000E+00
 -1       715 1.56250E-02 2.46094E-02 0.00000E+00
 -1       716 1.77083E-02 1.87500E-02 0.00000E+00
 -1       717 1.87500E-02 1.87500E-02 0.00000E+00
 -1       718 1.97917E-02 1.87500E-02 0.00000E+00
 -1       719 2.08333E-02 1.87500E-02 0.00000E+00
 -1       720 2.18750E-02 1.87500E-02 0.00000E+00
 -1       721 2.29167E-02 1.87500E-02 0.00000E+00
 -1       722 2.39583E-02 1.87500E-02 0.00000E+00
 -1       723 2.50000E-02 1.87500E-02 0.00000E+00
 -1       724 2.60417E-02 1.87500E-02 0.00000E+00
 -1       725 2.70833E-02 1.87500E-02 0.00000E+00
 -1       726 2.81250E-02 1.87500E-02 0.00000E+00
 -1       727 2.91667E-02 1.87500E-02 0.00000E+00
 -1       728 3.02083E-02 1.87500E-02 0.00000E+00
 -1       729 3.12500E-02 1.87500E-02 0.00000E+00
 -1       730 3.22917E-02 1.87500E-02 0.00000E+00
 -1       731 1.66667E-02 1.97917E-02 0.00000E+00
 -1       732 1.66667E-02 2.08333E-02 0.00000E+00
 -1       733 1.66667E-02 2.18750E-02 0.00000E+00
 -1       734 1.66667E-02 2.29167E-02 0.00000E+00
 -1       735 1.66667E-02 2.39583E-02 0.00000E+00
 -1       736 1.77083E-02 1.91406E-02 0.00000E+00
 -1       737 1.87500E-02 1.95312E-02 0.00000E+00
 -1       738 1.97917E-02 1.99219E-02 0.00000E+00
 -1       739 2.08333E-02 2.03125E-02 0.00000E+00
 -1       740 2.18750E-02 2.07031E-02 0.00000E+00
 -1       741 2.29167E-02 2.10938E-02 0.00000E+00
 -1       742 2.39583E-02 2.14844E-02 0.00000E+00
 -1       743 2.50000E-02 2.18750E-02 0.00000E+00
 -1       744 2.60417E-02 2.22656E-02 0.00000E+00
 -1       745 2.70833E-02 2.26563E-02 0.00000E+00
 -1       746 2.81250E-02 2.30469E-02 0.00000E+00
 -1       747 2.91667E-02 2.34375E-02 0.00000E+00
 -1       748 3.02083E-02 2.38281E-02 0.00000E+00
 -1       749 3.12500E-02 2.42187E-02 0.00000E+00
 -1       750 3.22917E-02 2.46094E-02 0.00000E+00
 -1       751 3.43750E-02 1.87500E-02 0.00000E+00
 -1       752 3.54167E-02 1.87500E-02 0.00000E+00
 -1       753 3.64583E-02 1.87500E-02 0.00000E+00
 -1       754 3.75000E-02 1.87500E-02 0.00000E+00
 -1       755 3.85417E-02 1.87500E-02 0.00000E+00
 -1       756 3.95833E-02 1.87500E-02 0.00000E+00
 -1       757 4.06250E-02 1.87500E-02 0.00000E+00
 -1       758 4.16667E-02 1.87500E-02 0.00000E+00
 -1       759 4.27083E-02 1.87500E-02 0.00000E+00
 -1       760 4.37500E-02 1.87500E-02 0.00000E+00
 -1       761 4.47917E-02 1.87500E-02 0.00000E+00
 -1       762 4.58333E-02 1.87500E-02 0.00000E+00
 -1       763 4.68750E-02 1.87500E-02 0.00000E+00
 -1       764 4.79167E-02 1.87500E-02 0.00000E+00
 -1       765 4.89583E-02 1.87500E-02 0.00000E+00
 -1       766 3.33333E-02 1.97917E-02 0.00000E+00
 -1       767 3.33333E-02 2.08333E-02 0.00000E+00
 -1       768 3.33333E-02 2.18750E-02 0.00000E+00
 -1       769 3.33333E-02 2.29167E-02 0.00000E+00
 -1       770 3.33333E-02 2.39583E-02 0.00000E+00
 -1       771 3.43750E-02 1.91406E-02 0.00000E+00
 -1       772 3.54167E-02 1.95312E-02 0.00000E+00
 -1       773 3.64583E-02 1.99219E-02 0.00000E+00
 -1       774 3.75000E-02 2.03125E-02 0.00000E+00
 -1       775 3.85417E-02 2.07031E-02 0.00000E+00
 -1       776 3.95833E-02 2.10938E-02 0.00000E+00
 -1       777 4.06250E-02 2.14844E-02 0.00000E+00
 -1       778 4.16667E-02 2.18750E-02 0.00000E+00
 -1       779 4.27083E-02 2.22656E-02 0.00000E+00
 -1       780 4.37500E-02 2.26563E-02 0.00000E+00
 -1       781 4.47917E-02 2.30469E-02 0.00000E+00
 -1       782 4.58333E-02 2.34375E-02 0.00000E+00
 -1       783 4.68750E-02 2.38281E-02 0.00000E+00
 -1       784 4.79167E-02 2.42187E-02 0.00000E+00
 -1       785 4.89583E-02 2.46094E-02 0.00000E+00
 -1       786 5.10417E-02 1.87500E-02 0.00000E+00
 -1       787 5.20833E-02 1.87500E-02 0.00000E+00
 -1       788 5.31250E-02 1.87500E-02 0.00000E+00
 -1       789 5.41667E-02 1.87500E-02 0.00000E+00
 -1       790 5.52083E-02 1.87500E-02 0.00000E+00
 -1       791 5.62500E-02 1.87500E-02 0.00000E+00
 -1       792 5.72917E-02 1.87500E-02 0.00000E+00
 -1       793 5.83333E-02 1.87500E-02 0.00000E+00
 -1       794 5.93750E-02 1.87500E-02 0.00000E+00
 -1       795 6.04167E-02 1.87500E-02 0.00000E+00
 -1       796 6.14583E-02 1.87500E-02 0.00000E+00
 -1       797 6.25000E-02 1.87500E-02 0.00000E+00
 -1       798 6.35417E-02 1.87500E-02 0.00000E+00
 -1       799 6.45833E-02 1.87500E-02 0.00000E+00
 -1       800 6.56250E-02 1.87500E-02 0.00000E+00
 -1       801 5.00000E-02 1.97917E-02 0.00000E+00
 -1       802 5.00000E-02 2.08333E-02 0.00000E+00
 -1       803 5.00000E-02 2.18750E-02 0.00000E+00
 -1       804 5.00000E-02 2.29167E-02 0.00000E+00
 -1       805 5.00000E-02 2.39583E-02 0.00000E+00
 -1       806 5.10417E-02 1.91406E-02 0.00000E+00
 -1       807 5.20833E-02 1.95312E-02 0.00000E+00
 -1       808 5.31250E-02 1.99219E-02 0.00000E+00
 -1       809 5.41667E-02 2.03125E-02 0.00000E+00
 -1       810 5.52083E-02 2.07031E-02 0.00000E+00
 -1       811 5.62500E-02 2.10938E-02 0.00000E+00
 -1       812 5.72917E-02 2.14844E-02 0.00000E+00
 -1       813 5.83333E-02 2.18750E-02 0.00000E+00
 -1       814 5.93750E-02 2.22656E-02 0.00000E+00
 -1       815 6.04167E-02 2.26563E-02 0.00000E+00
 -1       816 6.14583E-02 2.30469E-02 0.00000E+00
 -1       817 6.25000E-02 2.34375E-02 0.00000E+00
 -1       818 6.35417E-02 2.38281E-02 0.00000E+00
 -1       819 6.45833E-02 2.42187E-02 0.00000E+00
 -1       820 6.56250E-02 2.46094E-02 0.00000E+00
 -1       821 6.77083E-02 1.87500E-02 0.00000E+00
 -1       822 6.87500E-02 1.87500E-02 0.00000E+00
 -1       823 6.97917E-02 1.87500E-02 0.00000E+00
 -1       824 7.08333E-02 1.87500E-02 0.00000E+00
 -1       825 7.18750E-02 1.87500E-02 0.00000E+00
 -1       826 7.29167E-02 1.87500E-02 0.00000E+00
 -1       827 7.39583E-02 1.87500E-02 0.00000E+00
 -1       828 7.50000E-02 1.87500E-02 0.00000E+00
 -1       829 7.60417E-02 1.87500E-02 0.00000E+00
 -1       830 7.70833E-02 1.87500E-02 0.00000E+00
 -1       831 7.81250E-02 1.87500E-02 0.00000E+00
 -1       832 7.91667E-02 1.87500E-02 0.00000E+00
 -1       833 8.02083E-02 1.87500E-02 0.00000E+00
 -1       834 8.12500E-02 1.87500E-02 0.00000E+00
 -1       835 8.22917E-02 1.87500E-02 0.00000E+00
 -1       836 6.66667E-02 1.97917E-02 0.00000E+00
 -1       837 6.66667E-02 2.08333E-02 0.00000E+00
 -1       838 6.66667E-02 2.18750E-02 0.00000E+00
 -1       839 6.66667E-02 2.29167E-02 0.00000E+00
 -1       840 6.66667E-02 2.39583E-02 0.00000E+00
 -1       841 6.77083E-02 1.91406E-02 0.00000E+00
 -1       842 6.87500E-02 1.95312E-02 0.00000E+00
 -1       843 6.97917E-02 1.99219E-02 0.00000E+00
 -1       844 7.08333E-02 2.03125E-02 0.00000E+00
 -1       845 7.18750E-02 2.07031E-02 0.00000E+00
 -1       846 7.29167E-02 2.10938E-02 0.00000E+00
 -1       847 7.39583E-02 2.14844E-02 0.00000E+00
 -1       848 7.50000E-02 2.18750E-02 0.00000E+00
 -1       849 7.60417E-02 2.22656E-02 0.00000E+00
 -1       850 7.70833E-02 2.26563E-02 0.00000E+00
 -1       851 7.81250E-02 2.30469E-02 0.00000E+00
 -1       852 7.91667E-02 2.34375E-02 0.00000E+00
 -1       853 8.02083E-02 2.38281E-02 0.00000E+00
 -1       854 8.12500E-02 2.42187E-02 0.00000E+00
 -1       855 8.22917E-02 2.46094E-02 0.00000E+00
 -1       856 8.43750E-02 1.87500E-02 0.00000E+00
 -1       857 8.54167E-02 1.87500E-02 0.00000E+00
 -1       858 8.64583E-02 1.87500E-02 0.00000E+00
 -1       859 8.75000E-02 1.87500E-02 0.00000E+00
 -1       860 8.85417E-02 1.87500E-02 0.00000E+00
 -1       861 8.95833E-02 1.87500E-02 0.00000E+00
 -1       862 9.06250E-02 1.87500E-02 0.00000E+00
 -1       863 9.16667E-02 1.87500E-02 0.00000E+00
 -1       864 9.27083E-02 1.87500E-02 0.00000E+00
 -1       865 9.37500E-02 1.87500E-02 0.00000E+00
 -1       866 9.47917E-02 1.87500E-02 0.00000E+00
 -1       867 9.58333E-02 1.87500E-02 0.00000E+00
 -1       868 9.68750E-02 1.87500E-02 0.00000E+00
 -1       869 9.79167E-02 1.87500E-02 0.00000E+00
 -1       870 9.89583E-02 1.87500E-02 0.00000E+00
 -1       871 8.33333E-02 1.97917E-02 0.00000E+00
 -1       872 8.33333E-02 2.08333E-02 0.00000E+00
 -1       873 8.33333E-02 2.18750E-02 0.00000E+00
 -1       874 8.33333E-02 2.29167E-02 0.00000E+00
 -1       875 8.33333E-02 2.39583E-02 0.00000E+00
 -1       876 8.43750E-02 1.91406E-02 0.00000E+00
 -1       877 8.54167E-02 1.95312E-02 0.00000E+00
 -1       878 8.64583E-02 1.99219E-02 0.00000E+00
 -1       879 8.75000E-02 2.03125E-02 0.00000E+00
 -1       880 8.85417E-02 2.07031E-02 0.00000E+00
 -1       881 8.95833E-02 2.10938E-02 0.00000E+00
 -1       882 9.06250E-02 2.14844E-02 0.00000E+00
 -1       883 9.16667E-02 2.18750E-02 0.00000E+00
 -1       884 9.27083E-02 2.22656E-02 0.00000E+00
 -1       885 9.37500E-02 2.26563E-02 0.00000E+00
 -1       886 9.47917E-02 2.30469E-02 0.00000E+00
 -1       887 9.58333E-02 2.34375E-02 0.00000E+00
 -1       888 9.68750E-02 2.38281E-02 0.00000E+00
 -1       889 9.79167E-02 2.42187E-02 0.00000E+00
 -1       890 9.89583E-02 2.46094E-02 0.00000E+00
 -1       891 1.00000E-01 1.97917E-02 0.00000E+00
 -1       892 1.00000E-01 2.08333E-02 0.00000E+00
 -1       893 1.00000E-01 2.18750E-02 0.00000E+00
 -1       894 1.00000E-01 2.29167E-02 0.00000E+00
 -1       895 1.00000E-01 2.39583E-02 0.00000E+00
 -1       896 1.04167E-03 2.50000E-02 0.00000E+00
 -1       897 2.08333E-03 2.50000E-02 0.00000E+00
 -1       898 3.12500E-03 2.50000E-02 0.00000E+00
 -1       899 4.16667E-03 2.50000E-02 0.00000E+00
 -1       900 5.20833E-03 2.50000E-02 0.00000E+00
 -1       901 6.25000E-03 2.50000E-02 0.00000E+00
 -1       902 7.29167E-03 2.50000E-02 0.00000E+00
 -1       903 8.33333E-03 2.50000E-02 0.00000E+00
 -1       904 9.37500E-03 2.50000E-02 0.00000E+00
 -1       905 1.04167E-02 2.50000E-02 0.00000E+00
 -1       906 1.14583E-02 2.50000E-02 0.00000E+00
 -1       907 1.25000E-02 2.50000E-02 0.00000E+00
 -1       908 1.35417E-02 2.50000E-02 0.00000E+00
 -1       909 1.45833E-02 2.50000E-02 0.00000E+00
 -1       910 1.56250E-02 2.50000E-02 0.00000E+00
 -1       911 1.77083E-02 2.50000E-02 0.00000E+00
 -1       912 1.87500E-02 2.50000E-02 0.00000E+00
 -1       913 1.97917E-02 2.50000E-02 0.00000E+00
 -1       914 2.08333E-02 2.50000E-02 0.00000E+00
 -1       915 2.18750E-02 2.50000E-02 0.00000E+00
 -1       916 2.29167E-02 2.50000E-02 0.00000E+00
 -1       917 2.39583E-02 2.50000E-02 0.00000E+00
 -1       918 2.50000E-02 2.50000E-02 0.00000E+00
 -1       919 2.60417E-02 2.50000E-02 0.00000E+00
 -1       920 2.70833E-02 2.50000E-02 0.00000E+00
 -1       921 2.81250E-02 2.50000E-02 0.00000E+00
 -1       922 2.91667E-02 2.50000E-02 0.00000E+00
 -1       923 3.02083E-02 2.50000E-02 0.00000E+00
 -1       924 3.12500E-02 2.50000E-02 0.00000E+00
 -1       925 3.22917E-02 2.50000E-02 0.00000E+00
 -1       926 3.43750E-02 2.50000E-02 0.00000E+00
 -1       927 3.54167E-02 2.50000E-02 0.00000E+00
 -1       928 3.64583E-02 2.50000E-02 0.00000E+00
 -1       929 3.75000E-02 2.50000E-02 0.00000E+00
 -1       930 3.85417E-02 2.50000E-02 0.00000E+00
 -1       931 3.95833E-02 2.50000E-02 0.00000E+00
 -1       932 4.06250E-02 2.50000E-02 0.00000E+00
 -1       933 4.16667E-02 2.50000E-02 0.00000E+00
 -1       934 4.27083E-02 2.50000E-02 0.00000E+00
 -1       935 4.37500E-02 2.50000E-02 0.00000E+00
 -1       936 4.47917E-02 2.50000E-02 0.00000E+00
 -1       937 4.58333E-02 2.50000E-02 0.00000E+00
 -1       938 4.68750E-02 2.50000E-02 0.00000E+00
 -1       939 4.79167E-02 2.50000E-02 0.00000E+00
 -1       940 4.89583E-02 2.50000E-02 0.00000E+00
 -1       941 5.10417E-02 2.50000E-02 0.00000E+00
 -1       942 5.20833E-02 2.50000E-02 0.00000E+00
 -1       943 5.31250E-02 2.50000E-02 0.00000E+00
 -1       944 5.41667E-02 2.50000E-02 0.00000E+00
 -1       945 5.52083E-02 2.50000E-02 0.00000E+00
 -1       946 5.62500E-02 2.50000E-02 0.00000E+00
 -1       947 5.72917E-02 2.50000E-02 0.00000E+00
 -1       948 5.83333E-02 2.50000E-02 0.00000E+00
 -1       949 5.93750E-02 2.50000E-02 0.00000E+00
 -1       950 6.04167E-02 2.50000E-02 0.00000E+00
 -1       951 6.14583E-02 2.50000E-02 0.00000E+00
 -1       952 6.25000E-02 2.50000E-02 0.00000E+00
 -1       953 6.35417E-02 2.50000E-02 0.00000E+00
 -1       954 6.45833E-02 2.50000E-02 0.00000E+00
 -1       955 6.56250E-02 2.50000E-02 0.00000E+00
 -1       956 6.77083E-02 2.50000E-02 0.00000E+00
 -1       957 6.87500E-02 2.50000E-02 0.00000E+00
 -1       958 6.97917E-02 2.50000E-02 0.00000E+00
 -1       959 7.08333E-02 2.50000E-02 0.00000E+00
 -1       960 7.18750E-02 2.50000E-02 0.00000E+00
 -1       961 7.29167E-02 2.50000E-02 0.00000E+00
 -1       962 7.39583E-02 2.50000E-02 0.00000E+00
 -1       963 7.50000E-02 2.50000E-02 0.00000E+00
 -1       964 7.60417E-02 2.50000E-02 0.00000E+00
 -1       965 7.70833E-02 2.50000E-02 0.00000E+00
 -1       966 7.81250E-02 2.50000E-02 0.00000E+00
 -1       967 7.91667E-02 2.50000E-02 0.00000E+00
 -1       968 8.02083E-02 2.50000E-02 0.00000E+00
 -1       969 8.12500E-02 2.50000E-02 0.00000E+00
 -1       970 8.22917E-02 2.50000E-02 0.00000E+00
 -1       971 8.43750E-02 2.50000E-02 0.00000E+00
 -1       972 8.54167E-02 2.50000E-02 0.00000E+00
 -1       973 8.64583E-02 2.50000E-02 0.00000E+00
 -1       974 8.75000E-02 2.50000E-02 0.00000E+00
 -1       975 8.85417E-02 2.50000E-02 0.00000E+00
 -1       976 8.95833E-02 2.50000E-02 0.00000E+00
 -1       977 9.06250E-02 2.50000E-02 0.00000E+00
 -1       978 9.16667E-02 2.50000E-02 0.00000E+00
 -1       979 9.27083E-02 2.50000E-02 0.00000E+00
 -1       980 9.37500E-02 2.50000E-02 0.00000E+00
 -1       981 9.47917E-02 2.50000E-02 0.00000E+00
 -1       982 9.58333E-02 2.50000E-02 0.00000E+00
 -1       983 9.68750E-02 2.50000E-02 0.00000E+00
 -1       984 9.79167E-02 2.50000E-02 0.00000E+00
 -1       985 9.89583E-02 2.50000E-02 0.00000E+00
 -3
    3C                           440                                     1
 -1         1   12    0    1
 -2         1        37        36
 -1         2   12    0    1
 -2        37        39        38
 -1         3   12    0    1
 -2        39        41        40
 -1         4   12    0    1
 -2        41        43        42
 -1         5   12    0    1
 -2        43        45        44
 -1         6   12    0    1
 -2        45        47        46
 -1         7   12    0    1
 -2        47        49        48
 -1         8   12    0    1
 -2        49         2        50
 -1         9   12    0    1
 -2         1        52        51
 -1        10   12    0    1
 -2        52        54        53
 -1        11   12    0    1
 -2        54         8        55
 -1        12   12    0    1
 -2         1        57        56
 -1        13   12    0    1
 -2        57        59        58
 -1        14   12    0    1
 -2        59        61        60
 -1        15   12    0    1
 -2        61        63        62
 -1        16   12    0    1
 -2        63        65        64
 -1        17   12    0    1
 -2        65        67        66
 -1        18   12    0    1
 -2        67        69        68
 -1        19   12    0    1
 -2        69         9        70
 -1        20   12    0    1
 -2         2        72        71
 -1        21   12    0    1
 -2        72        74        73
 -1        22   12    0    1
 -2        74        76        75
 -1        23   12    0    1
 -2        76        78        77
 -1        24   12    0    1
 -2        78        80        79
 -1        25   12    0    1
 -2        80        82        81
 -1        26   12    0    1
 -2        82        84        83
 -1        27   12    0    1
 -2        84         3        85
 -1        28   12    0    1
 -2         2        87        86
 -1        29   12    0    1
 -2        87        89        88
 -1        30   12    0    1
 -2        89         9        90
 -1        31   12    0    1
 -2         2        92        91
 -1        32   12    0    1
 -2        92        94        93
 -1        33   12    0    1
 -2        94        96        95
 -1        34   12    0    1
 -2        96        98        97
 -1        35   12    0    1
 -2        98       100        99
 -1        36   12    0    1
 -2       100       102       101
 -1        37   12    0    1
 -2       102       104       103
 -1        38   12    0    1
 -2       104        10       105
 -1        39   12    0    1
 -2         3       107       106
 -1        40   12    0    1
 -2       107       109       108
 -1        41   12    0    1
 -2       109       111       110
 -1        42   12    0    1
 -2       111       113       112
 -1        43   12    0    1
 -2       113       115       114
 -1        44   12    0    1
 -2       115       117       116
 -1        45   12    0    1
 -2       117       119       118
 -1        46   12    0    1
 -2       119         4       120
 -1        47   12    0    1
 -2         3       122       121
 -1        48   12    0    1
 -2       122       124       123
 -1        49   12    0    1
 -2       124        10       125
 -1        50   12    0    1
 -2         3       127       126
 -1        51   12    0    1
 -2       127       129       128
 -1        52   12    0    1
 -2       129       131       130
 -1        53   12    0    1
 -2       131       133       132
 -1        54   12    0    1
 -2       133       135       134
 -1        55   12    0    1
 -2       135       137       136
 -1        56   12    0    1
 -2       137       139       138
 -1        57   12    0    1
 -2       139        11       140
 -1        58   12    0    1
 -2         4       142       141
 -1        59   12    0    1
 -2       142       144       143
 -1        60   12    0    1
 -2       144       146       145
 -1        61   12    0    1
 -2       146       148       147
 -1        62   12    0    1
 -2       148       150       149
 -1        63   12    0    1
 -2       150       152       151
 -1        64   12    0    1
 -2       152       154       153
 -1        65   12    0    1
 -2       154         5       155
 -1        66   12    0    1
 -2         4       157       156
 -1        67   12    0    1
 -2       157       159       158
 -1        68   12    0    1
 -2       159        11       160
 -1        69   12    0    1
 -2         4       162       161
 -1        70   12    0    1
 -2       162       164       163
 -1        71   12    0    1
 -2       164       166       165
 -1        72   12    0    1
 -2       166       168       167
 -1        73   12    0    1
 -2       168       170       169
 -1        74   12    0    1
 -2       170       172       171
 -1        75   12    0    1
 -2       172       174       173
 -1        76   12    0    1
 -2       174        12       175
 -1        77   12    0    1
 -2         5       192       191
 -1        78   12    0    1
 -2       192       194       193
 -1        79   12    0    1
 -2       194        12       195
 -1        80   12    0    1
 -2         8       252       251
 -1        81   12    0    1
 -2       252       254       253
 -1        82   12    0    1
 -2       254       256       255
 -1        83   12    0    1
 -2       256       258       257
 -1        84   12    0    1
 -2       258       260       259
 -1        85   12    0    1
 -2       260       262       261
 -1        86   12    0    1
 -2       262       264       263
 -1        87   12    0    1
 -2       264         9       265
 -1        88   12    0    1
 -2         8       267       266
 -1        89   12    0    1
 -2       267       269       268
 -1        90   12    0    1
 -2       269        15       270
 -1        91   12    0    1
 -2         8       272       271
 -1        92   12    0    1
 -2       272       274       273
 -1        93   12    0    1
 -2       274       276       275
 -1        94   12    0    1
 -2       276       278       277
 -1        95   12    0    1
 -2       278       280       279
 -1        96   12    0    1
 -2       280       282       281
 -1        97   12    0    1
 -2       282       284       283
 -1        98   12    0    1
 -2       284        16       285
 -1        99   12    0    1
 -2         9       287       286
 -1       100   12    0    1
 -2       287       289       288
 -1       101   12    0    1
 -2       289       291       290
 -1       102   12    0    1
 -2       291       293       292
 -1       103   12    0    1
 -2       293       295       294
 -1       104   12    0    1
 -2       295       297       296
 -1       105   12    0    1
 -2       297       299       298
 -1       106   12    0    1
 -2       299        10       300
 -1       107   12    0    1
 -2         9       302       301
 -1       108   12    0    1
 -2       302       304       303
 -1       109   12    0    1
 -2       304        16       305
 -1       110   12    0    1
 -2         9       307       306
 -1       111   12    0    1
 -2       307       309       308
 -1       112   12    0    1
 -2       309       311       310
 -1       113   12    0    1
 -2       311       313       312
 -1       114   12    0    1
 -2       313       315       314
 -1       115   12    0    1
 -2       315       317       316
 -1       116   12    0    1
 -2       317       319       318
 -1       117   12    0    1
 -2       319        17       320
 -1       118   12    0    1
 -2        10       322       321
 -1       119   12    0    1
 -2       322       324       323
 -1       120   12    0    1
 -2       324       326       325
 -1       121   12    0    1
 -2       326       328       327
 -1       122   12    0    1
 -2       328       330       329
 -1       123   12    0    1
 -2       330       332       331
 -1       124   12    0    1
 -2       332       334       333
 -1       125   12    0    1
 -2       334        11       335
 -1       126   12    0    1
 -2        10       337       336
 -1       127   12    0    1
 -2       337       339       338
 -1       128   12    0    1
 -2       339        17       340
 -1       129   12    0    1
 -2        10       342       341
 -1       130   12    0    1
 -2       342       344       343
 -1       131   12    0    1
 -2       344       346       345
 -1       132   12    0    1
 -2       346       348       347
 -1       133   12    0    1
 -2       348       350       349
 -1       134   12    0    1
 -2       350       352       351
 -1       135   12    0    1
 -2       352       354       353
 -1       136   12    0    1
 -2       354        18       355
 -1       137   12    0    1
 -2        11       357       356
 -1       138   12    0    1
 -2       357       359       358
 -1       139   12    0    1
 -2       359       361       360
 -1       140   12    0    1
 -2       361       363       362
 -1       141   12    0    1
 -2       363       365       364
 -1       142   12    0    1
 -2       365       367       366
 -1       143   12    0    1
 -2       367       369       368
 -1       144   12    0    1
 -2       369        12       370
 -1       145   12    0    1
 -2        11       372       371
 -1       146   12    0    1
 -2       372       374       373
 -1       147   12    0    1
 -2       374        18       375
 -1       148   12    0    1
 -2        11       377       376
 -1       149   12    0    1
 -2       377       379       378
 -1       150   12    0    1
 -2       379       381       380
 -1       151   12    0    1
 -2       381       383       382
 -1       152   12    0    1
 -2       383       385       384
 -1       153   12    0    1
 -2       385       387       386
 -1       154   12    0    1
 -2       387       389       388
 -1       155   12    0    1
 -2       389        19       390
 -1       156   12    0    1
 -2        12       407       406
 -1       157   12    0    1
 -2       407       409       408
 -1       158   12    0    1
 -2       409        19       410
 -1       159   12    0    1
 -2        15       467       466
 -1       160   12    0    1
 -2       467       469       468
 -1       161   12    0    1
 -2       469       471       470
 -1       162   12    0    1
 -2       471       473       472
 -1       163   12    0    1
 -2       473       475       474
 -1       164   12    0    1
 -2       475       477       476
 -1       165   12    0    1
 -2       477       479       478
 -1       166   12    0    1
 -2       479        16       480
 -1       167   12    0    1
 -2        15       482       481
 -1       168   12    0    1
 -2       482       484       483
 -1       169   12    0    1
 -2       484        22       485
 -1       170   12    0    1
 -2        15       487       486
 -1       171   12    0    1
 -2       487       489       488
 -1       172   12    0    1
 -2       489       491       490
 -1       173   12    0    1
 -2       491       493       492
 -1       174   12    0    1
 -2       493       495       494
 -1       175   12    0    1
 -2       495       497       496
 -1       176   12    0    1
 -2       497       499       498
 -1       177   12    0    1
 -2       499        23       500
 -1       178   12    0    1
 -2        16       502       501
 -1       179   12    0    1
 -2       502       504       503
 -1       180   12    0    1
 -2       504       506       505
 -1       181   12    0    1
 -2       506       508       507
 -1       182   12    0    1
 -2       508       510       509
 -1       183   12    0    1
 -2       510       512       511
 -1       184   12    0    1
 -2       512       514       513
 -1       185   12    0    1
 -2       514        17       515
 -1       186   12    0    1
 -2        16       517       516
 -1       187   12    0    1
 -2       517       519       518
 -1       188   12    0    1
 -2       519        23       520
 -1       189   12    0    1
 -2        16       522       521
 -1       190   12    0    1
 -2       522       524       523
 -1       191   12    0    1
 -2       524       526       525
 -1       192   12    0    1
 -2       526       528       527
 -1       193   12    0    1
 -2       528       530       529
 -1       194   12    0    1
 -2       530       532       531
 -1       195   12    0    1
 -2       532       534       533
 -1       196   12    0    1
 -2       534        24       535
 -1       197   12    0    1
 -2        17       537       536
 -1       198   12    0    1
 -2       537       539       538
 -1       199   12    0    1
 -2       539       541       540
 -1       200   12    0    1
 -2       541       543       542
 -1       201   12    0    1
 -2       543       545       544
 -1       202   12    0    1
 -2       545       547       546
 -1       203   12    0    1
 -2       547       549       548
 -1       204   12    0    1
 -2       549        18       550
 -1       205   12    0    1
 -2        17       552       551
 -1       206   12    0    1
 -2       552       554       553
 -1       207   12    0    1
 -2       554        24       555
 -1       208   12    0    1
 -2        17       557       556
 -1       209   12    0    1
 -2       557       559       558
 -1       210   12    0    1
 -2       559       561       560
 -1       211   12    0    1
 -2       561       563       562
 -1       212   12    0    1
 -2       563       565       564
 -1       213   12    0    1
 -2       565       567       566
 -1       214   12    0    1
 -2       567       569       568
 -1       215   12    0    1
 -2       569        25       570
 -1       216   12    0    1
 -2        18       572       571
 -1       217   12    0    1
 -2       572       574       573
 -1       218   12    0    1
 -2       574       576       575
 -1       219   12    0    1
 -2       576       578       577
 -1       220   12    0    1
 -2       578       580       579
 -1       221   12    0    1
 -2       580       582       581
 -1       222   12    0    1
 -2       582       584       583
 -1       223   12    0    1
 -2       584        19       585
 -1       224   12    0    1
 -2        18       587       586
 -1       225   12    0    1
 -2       587       589       588
 -1       226   12    0    1
 -2       589        25       590
 -1       227   12    0    1
 -2        18       592       591
 -1       228   12    0    1
 -2       592       594       593
 -1       229   12    0    1
 -2       594       596       595
 -1       230   12    0    1
 -2       596       598       597
 -1       231   12    0    1
 -2       598       600       599
 -1       232   12    0    1
 -2       600       602       601
 -1       233   12    0    1
 -2       602       604       603
 -1       234   12    0    1
 -2       604        26       605
 -1       235   12    0    1
 -2        19       607       606
 -1       236   12    0    1
 -2       607       609       608
 -1       237   12    0    1
 -2       609       611       610
 -1       238   12    0    1
 -2       611       613       612
 -1       239   12    0    1
 -2       613       615       614
 -1       240   12    0    1
 -2       615       617       616
 -1       241   12    0    1
 -2       617       619       618
 -1       242   12    0    1
 -2       619        20       620
 -1       243   12    0    1
 -2        19       622       621
 -1       244   12    0    1
 -2       622       624       623
 -1       245   12    0    1
 -2       624        26       625
 -1       246   12    0    1
 -2        19       627       626
 -1       247   12    0    1
 -2       627       629       628
 -1       248   12    0    1
 -2       629       631       630
 -1       249   12    0    1
 -2       631       633       632
 -1       250   12    0    1
 -2       633       635       634
 -1       251   12    0    1
 -2       635       637       636
 -1       252   12    0    1
 -2       637       639       638
 -1       253   12    0    1
 -2       639        27       640
 -1       254   12    0    1
 -2        20       642       641
 -1       255   12    0    1
 -2       642       644       643
 -1       256   12    0    1
 -2       644       646       645
 -1       257   12    0    1
 -2       646       648       647
 -1       258   12    0    1
 -2       648       650       649
 -1       259   12    0    1
 -2       650       652       651
 -1       260   12    0    1
 -2       652       654       653
 -1       261   12    0    1
 -2       654        21       655
 -1       262   12    0    1
 -2        20       657       656
 -1       263   12    0    1
 -2       657       659       658
 -1       264   12    0    1
 -2       659        27       660
 -1       265   12    0    1
 -2        20       662       661
 -1       266   12    0    1
 -2       662       664       663
 -1       267   12    0    1
 -2       664       666       665
 -1       268   12    0    1
 -2       666       668       667
 -1       269   12    0    1
 -2       668       670       669
 -1       270   12    0    1
 -2       670       672       671
 -1       271   12    0    1
 -2       672       674       673
 -1       272   12    0    1
 -2       674        28       675
 -1       273   12    0    1
 -2        21       677       676
 -1       274   12    0    1
 -2       677       679       678
 -1       275   12    0    1
 -2       679        28       680
 -1       276   12    0    1
 -2        22       682       681
 -1       277   12    0    1
 -2       682       684       683
 -1       278   12    0    1
 -2       684       686       685
 -1       279   12    0    1
 -2       686       688       687
 -1       280   12    0    1
 -2       688       690       689
 -1       281   12    0    1
 -2       690       692       691
 -1       282   12    0    1
 -2       692       694       693
 -1       283   12    0    1
 -2       694        23       695
 -1       284   12    0    1
 -2        22       697       696
 -1       285   12    0    1
 -2       697       699       698
 -1       286   12    0    1
 -2       699        29       700
 -1       287   12    0    1
 -2        22       702       701
 -1       288   12    0    1
 -2       702       704       703
 -1       289   12    0    1
 -2       704       706       705
 -1       290   12    0    1
 -2       706       708       707
 -1       291   12    0    1
 -2       708       710       709
 -1       292   12    0    1
 -2       710       712       711
 -1       293   12    0    1
 -2       712       714       713
 -1       294   12    0    1
 -2       714        30       715
 -1       295   12    0    1
 -2        23       717       716
 -1       296   12    0    1
 -2       717       719       718
 -1       297   12    0    1
 -2       719       721       720
 -1       298   12    0    1
 -2       721       723       722
 -1       299   12    0    1
 -2       723       725       724
 -1       300   12    0    1
 -2       725       727       726
 -1       301   12    0    1
 -2       727       729       728
 -1       302   12    0    1
 -2       729        24       730
 -1       303   12    0    1
 -2        23       732       731
 -1       304   12    0    1
 -2       732       734       733
 -1       305   12    0    1
 -2       734        30       735
 -1       306   12    0    1
 -2        23       737       736
 -1       307   12    0    1
 -2       737       739       738
 -1       308   12    0    1
 -2       739       741       740
 -1       309   12    0    1
 -2       741       743       742
 -1       310   12    0    1
 -2       743       745       744
 -1       311   12    0    1
 -2       745       747       746
 -1       312   12    0    1
 -2       747       749       748
 -1       313   12    0    1
 -2       749        31       750
 -1       314   12    0    1
 -2        24       752       751
 -1       315   12    0    1
 -2       752       754       753
 -1       316   12    0    1
 -2       754       756       755
 -1       317   12    0    1
 -2       756       758       757
 -1       318   12    0    1
 -2       758       760       759
 -1       319   12    0    1
 -2       760       762       761
 -1       320   12    0    1
 -2       762       764       763
 -1       321   12    0    1
 -2       764        25       765
 -1       322   12    0    1
 -2        24       767       766
 -1       323   12    0    1
 -2       767       769       768
 -1       324   12    0    1
 -2       769        31       770
 -1       325   12    0    1
 -2        24       772       771
 -1       326   12    0    1
 -2       772       774       773
 -1       327   12    0    1
 -2       774       776       775
 -1       328   12    0    1
 -2       776       778       777
 -1       329   12    0    1
 -2       778       780       779
 -1       330   12    0    1
 -2       780       782       781
 -1       331   12    0    1
 -2       782       784       783
 -1       332   12    0    1
 -2       784        32       785
 -1       333   12    0    1
 -2        25       787       786
 -1       334   12    0    1
 -2       787       789       788
 -1       335   12    0    1
 -2       789       791       790
 -1       336   12    0    1
 -2       791       793       792
 -1       337   12    0    1
 -2       793       795       794
 -1       338   12    0    1
 -2       795       797       796
 -1       339   12    0    1
 -2       797       799       798
 -1       340   12    0    1
 -2       799        26       800
 -1       341   12    0    1
 -2        25       802       801
 -1       342   12    0    1
 -2       802       804       803
 -1       343   12    0    1
 -2       804        32       805
 -1       344   12    0    1
 -2        25       807       806
 -1       345   12    0    1
 -2       807       809       808
 -1       346   12    0    1
 -2       809       811       810
 -1       347   12    0    1
 -2       811       813       812
 -1       348   12    0    1
 -2       813       815       814
 -1       349   12    0    1
 -2       815       817       816
 -1       350   12    0    1
 -2       817       819       818
 -1       351   12    0    1
 -2       819        33       820
 -1       352   12    0    1
 -2        26       822       821
 -1       353   12    0    1
 -2       822       824       823
 -1       354   12    0    1
 -2       824       826       825
 -1       355   12    0    1
 -2       826       828       827
 -1       356   12    0    1
 -2       828       830       829
 -1       357   12    0    1
 -2       830       832       831
 -1       358   12    0    1
 -2       832       834       833
 -1       359   12    0    1
 -2       834        27       835
 -1       360   12    0    1
 -2        26       837       836
 -1       361   12    0    1
 -2       837       839       838
 -1       362   12    0    1
 -2       839        33       840
 -1       363   12    0    1
 -2        26       842       841
 -1       364   12    0    1
 -2       842       844       843
 -1       365   12    0    1
 -2       844       846       845
 -1       366   12    0    1
 -2       846       848       847
 -1       367   12    0    1
 -2       848       850       849
 -1       368   12    0    1
 -2       850       852       851
 -1       369   12    0    1
 -2       852       854       853
 -1       370   12    0    1
 -2       854        34       855
 -1       371   12    0    1
 -2        27       857       856
 -1       372   12    0    1
 -2       857       859       858
 -1       373   12    0    1
 -2       859       861       860
 -1       374   12    0    1
 -2       861       863       862
 -1       375   12    0    1
 -2       863       865       864
 -1       376   12    0    1
 -2       865       867       866
 -1       377   12    0    1
 -2       867       869       868
 -1       378   12    0    1
 -2       869        28       870
 -1       379   12    0    1
 -2        27       872       871
 -1       380   12    0    1
 -2       872       874       873
 -1       381   12    0    1
 -2       874        34       875
 -1       382   12    0    1
 -2        27       877       876
 -1       383   12    0    1
 -2       877       879       878
 -1       384   12    0    1
 -2       879       881       880
 -1       385   12    0    1
 -2       881       883       882
 -1       386   12    0    1
 -2       883       885       884
 -1       387   12    0    1
 -2       885       887       886
 -1       388   12    0    1
 -2       887       889       888
 -1       389   12    0    1
 -2       889        35       890
 -1       390   12    0    1
 -2        28       892       891
 -1       391   12    0    1
 -2       892       894       893
 -1       392   12    0    1
 -2       894        35       895
 -1       393   12    0    1
 -2        29       897       896
 -1       394   12    0    1
 -2       897       899       898
 -1       395   12    0    1
 -2       899       901       900
 -1       396   12    0    1
 -2       901       903       902
 -1       397   12    0    1
 -2       903       905       904
 -1       398   12    0    1
 -2       905       907       906
 -1       399   12    0    1
 -2       907       909       908
 -1       400   12    0    1
 -2       909        30       910
 -1       401   12    0    1
 -2        30       912       911
 -1       402   12    0    1
 -2       912       914       913
 -1       403   12    0    1
 -2       914       916       915
 -1       404   12    0    1
 -2       916       918       917
 -1       405   12    0    1
 -2       918       920       919
 -1       406   12    0    1
 -2       920       922       921
 -1       407   12    0    1
 -2       922       924       923
 -1       408   12    0    1
 -2       924        31       925
 -1       409   12    0    1
 -2        31       927       926
 -1       410   12    0    1
 -2       927       929       928
 -1       411   12    0    1
 -2       929       931       930
 -1       412   12    0    1
 -2       931       933       932
 -1       413   12    0    1
 -2       933       935       934
 -1       414   12    0    1
 -2       935       937       936
 -1       415   12    0    1
 -2       937       939       938
 -1       416   12    0    1
 -2       939        32       940
 -1       417   12    0    1
 -2        32       942       941
 -1       418   12    0    1
 -2       942       944       943
 -1       419   12    0    1
 -2       944       946       945
 -1       420   12    0    1
 -2       946       948       947
 -1       421   12    0    1
 -2       948       950       949
 -1       422   12    0    1
 -2       950       952       951
 -1       423   12    0    1
 -2       952       954       953
 -1       424   12    0    1
 -2       954        33       955
 -1       425   12    0    1
 -2        33       957       956
 -1       426   12    0    1
 -2       957       959       958
 -1       427   12    0    1
 -2       959       961       960
 -1       428   12    0    1
 -2       961       963       962
 -1       429   12    0    1
 -2       963       965       964
 -1       430   12    0    1
 -2       965       967       966
 -1       431   12    0    1
 -2       967       969       968
 -1       432   12    0    1
 -2       969        34       970
 -1       433   12    0    1
 -2        34       972       971
 -1       434   12    0    1
 -2       972       974       973
 -1       435   12    0    1
 -2       974       976       975
 -1       436   12    0    1
 -2       976       978       977
 -1       437   12    0    1
 -2       978       980       979
 -1       438   12    0    1
 -2       980       982       981
 -1       439   12    0    1
 -2       982       984       983
 -1       440   12    0    1
 -2       984        35       985
 -3
    1PSTEP                         1           1           1          
  100CL  101 1.000000000         841                     0    1           1
 -4  DISP        4    1
 -5  D1          1    2    1    0
 -5  D2          1    2    2    0
 -5  D3          1    2    3    0
 -5  ALL         1    2    0    0    1ALL
 -1         1 1.02287E-04 0.00000E+00 0.00000E+00
 -1         2 7.89655E-05 0.00000E+00 0.00000E+00
 -1         3 6.90110E-05 0.00000E+00 0.00000E+00
 -1         4 6.54615E-05 0.00000E+00 0.00000E+00
 -1         5 6.49310E-05 0.00000E+00 0.00000E+00
 -1         8 7.48674E-05-1.07903E-06 0.00000E+00
 -1         9 6.83604E-05 1.52288E-06 0.00000E+00
 -1        10 6.41906E-05-4.92358E-06 0.00000E+00
 -1        11 6.16130E-05-1.13066E-06 0.00000E+00
 -1        12 6.08523E-05 2.74606E-06 0.00000E+00
 -1        15 2.87001E-05-2.03837E-06 0.00000E+00
 -1        16 3.82334E-05 1.71462E-06 0.00000E+00
 -1        17 3.87825E-05-9.77421E-06 0.00000E+00
 -1        18 4.53398E-05-2.07929E-06 0.00000E+00
 -1        19 4.97761E-05 5.38607E-06 0.00000E+00
 -1        20 5.07515E-05 5.53574E-05 0.00000E+00
 -1        21 5.06387E-05 1.31947E-04 0.00000E+00
 -1        22 1.09627E-05-1.27984E-06 0.00000E+00
 -1        23 1.43454E-05 2.25265E-06 0.00000E+00
 -1        24 1.64576E-05-1.06286E-05 0.00000E+00
 -1        25 3.15075E-05-1.74905E-06 0.00000E+00
 -1        26 3.89721E-05 6.87189E-06 0.00000E+00
 -1        27 3.39905E-05 5.35880E-05 0.00000E+00
 -1        28 2.88023E-05 1.30306E-04 0.00000E+00
 -1        29 0.00000E+00 0.00000E+00 0.00000E+00
 -1        30 5.45605E-06 2.70321E-06 0.00000E+00
 -1        31 7.37342E-06-9.36045E-06 0.00000E+00
 -1        32 0.00000E+00 0.00000E+00 0.00000E+00
 -1        33 1.98910E-05 1.21317E-05 0.00000E+00
 -1        34 1.84402E-05 5.35020E-05 0.00000E+00
 -1        35 1.23098E-05 1.29445E-04 0.00000E+00
 -1        36 1.00870E-04 1.32878E-20 2.64698E-23
 -1        37 9.94119E-05 3.10689E-20 0.00000E+00
 -1        38 9.79557E-05 4.81684E-20 0.00000E+00
 -1        39 9.64927E-05 6.63333E-20 0.00000E+00
 -1        40 9.50290E-05 8.27545E-20 5.29396E-23
 -1        41 9.35641E-05 7.72057E-20 2.64698E-23
 -1        42 9.20989E-05 9.20453E-20-5.29396E-23
 -1        43 9.06335E-05 9.16516E-20 0.00000E+00
 -1        44 8.91681E-05 6.97346E-20 5.29396E-23
 -1        45 8.77028E-05 6.26209E-20 2.64698E-23
 -1        46 8.62377E-05 4.64909E-20 0.00000E+00
 -1        47 8.47737E-05 3.28722E-20 0.00000E+00
 -1        48 8.33101E-05 2.25853E-20 0.00000E+00
 -1        49 8.18520E-05 2.75319E-20 0.00000E+00
 -1        50 8.03926E-05 2.12288E-20-2.64698E-23
 -1        51 1.00419E-04-1.86661E-07 0.00000E+00
 -1        52 9.70850E-05-3.60589E-07 0.00000E+00
 -1        53 9.25670E-05-5.34052E-07 0.00000E+00
 -1        54 8.71604E-05-7.09786E-07 0.00000E+00
 -1        55 8.11615E-05-8.89423E-07 4.96308E-24
 -1        56 1.00603E-04-9.00028E-07 0.00000E+00
 -1        57 9.90132E-05-2.22377E-06 2.64698E-23
 -1        58 9.75326E-05-3.83112E-06-5.29396E-23
 -1        59 9.61016E-05-5.59933E-06 0.00000E+00
 -1        60 9.46790E-05-7.39123E-06-5.29396E-23
 -1        61 9.32131E-05-9.07263E-06 0.00000E+00
 -1        62 9.16570E-05-1.05133E-05-5.29396E-23
 -1        63 8.99647E-05-1.15910E-05-2.64698E-23
 -1        64 8.80962E-05-1.21988E-05 5.29396E-23
 -1        65 8.60171E-05-1.22446E-05 0.00000E+00
 -1        66 8.37012E-05-1.16600E-05 0.00000E+00
 -1        67 8.11314E-05-1.03958E-05 0.00000E+00
 -1        68 7.82984E-05-8.43284E-06 0.00000E+00
 -1        69 7.52123E-05-5.76929E-06 0.00000E+00
 -1        70 7.18709E-05-2.44165E-06-2.64698E-23
 -1        71 7.83401E-05-2.12056E-20 0.00000E+00
 -1        72 7.77172E-05-4.50284E-20-1.32349E-23
 -1        73 7.70943E-05-4.39365E-20 0.00000E+00
 -1        74 7.64718E-05-6.04239E-20 1.32349E-23
 -1        75 7.58493E-05-7.82960E-20 2.64698E-23
 -1        76 7.52270E-05-8.67696E-20 0.00000E+00
 -1        77 7.46046E-05-1.01758E-19 2.64698E-23
 -1        78 7.39823E-05-1.17031E-19 0.00000E+00
 -1        79 7.33600E-05-1.16341E-19 0.00000E+00
 -1        80 7.27377E-05-1.04534E-19-6.61744E-24
 -1        81 7.21154E-05-8.50788E-20 0.00000E+00
 -1        82 7.14933E-05-8.01124E-20 0.00000E+00
 -1        83 7.08713E-05-5.98432E-20 0.00000E+00
 -1        84 7.02499E-05-2.83905E-20 0.00000E+00
 -1        85 6.96284E-05-1.73344E-20 0.00000E+00
 -1        86 7.88622E-05 2.27358E-07-6.61744E-24
 -1        87 7.83957E-05 4.93381E-07 0.00000E+00
 -1        88 7.73413E-05 7.56957E-07-3.30872E-24
 -1        89 7.54723E-05 1.02195E-06 0.00000E+00
 -1        90 7.25571E-05 1.28611E-06 8.27181E-25
 -1        91 7.80982E-05-4.29709E-07 0.00000E+00
 -1        92 7.72819E-05-1.02423E-06-1.32349E-23
 -1        93 7.65128E-05-1.74334E-06 0.00000E+00
 -1        94 7.57744E-05-2.54926E-06-1.32349E-23
 -1        95 7.50531E-05-3.40114E-06-2.64698E-23
 -1        96 7.43333E-05-4.25796E-06-1.32349E-23
 -1        97 7.36000E-05-5.07856E-06-2.64698E-23
 -1        98 7.28379E-05-5.82248E-06-1.32349E-23
 -1        99 7.20324E-05-6.45075E-06 0.00000E+00
 -1       100 7.11698E-05-6.92620E-06 0.00000E+00
 -1       101 7.02371E-05-7.21494E-06 2.64698E-23
 -1       102 6.92232E-05-7.28587E-06 1.32349E-23
 -1       103 6.81176E-05-7.11265E-06 0.00000E+00
 -1       104 6.69137E-05-6.67207E-06 0.00000E+00
 -1       105 6.56025E-05-5.94796E-06 0.00000E+00
 -1       106 6.87753E-05 4.84149E-21-1.32349E-23
 -1       107 6.85521E-05 6.95576E-21-3.30872E-24
 -1       108 6.83285E-05-6.45118E-21 0.00000E+00
 -1       109 6.81069E-05-2.08309E-20 3.30872E-24
 -1       110 6.78856E-05-4.79252E-20 0.00000E+00
 -1       111 6.76646E-05-6.23496E-20 3.30872E-24
 -1       112 6.74437E-05-6.88644E-20 6.61744E-24
 -1       113 6.72230E-05-7.64067E-20 0.00000E+00
 -1       114 6.70022E-05-8.84215E-20-6.61744E-24
 -1       115 6.67815E-05-8.95299E-20 0.00000E+00
 -1       116 6.65608E-05-8.40184E-20 6.61744E-24
 -1       117 6.63402E-05-6.61066E-20-3.30872E-24
 -1       118 6.61197E-05-5.99160E-20 6.61744E-24
 -1       119 6.58995E-05-2.62117E-20 3.30872E-24
 -1       120 6.56793E-05-1.33077E-20 6.61744E-24
 -1       121 6.88681E-05-8.10869E-07 0.00000E+00
 -1       122 6.84440E-05-1.63407E-06 0.00000E+00
 -1       123 6.77486E-05-2.45682E-06-2.64698E-23
 -1       124 6.67955E-05-3.28069E-06 1.32349E-23
 -1       125 6.56026E-05-4.10530E-06 0.00000E+00
 -1       126 6.85996E-05-2.21460E-07 0.00000E+00
 -1       127 6.82302E-05-5.43059E-07 0.00000E+00
 -1       128 6.78891E-05-9.40620E-07 0.00000E+00
 -1       129 6.75672E-05-1.38755E-06 6.61744E-24
 -1       130 6.72540E-05-1.85725E-06 0.00000E+00
 -1       131 6.69392E-05-2.32272E-06-6.61744E-24
 -1       132 6.66128E-05-2.75709E-06-1.32349E-23
 -1       133 6.62649E-05-3.13372E-06 0.00000E+00
 -1       134 6.58855E-05-3.42648E-06 0.00000E+00
 -1       135 6.54651E-05-3.60989E-06 0.00000E+00
 -1       136 6.49946E-05-3.65952E-06 1.32349E-23
 -1       137 6.44654E-05-3.55187E-06 6.61744E-24
 -1       138 6.38690E-05-3.26514E-06-1.32349E-23
 -1       139 6.31989E-05-2.77833E-06 0.00000E+00
 -1       140 6.24464E-05-2.07346E-06 0.00000E+00
 -1       141 6.54207E-05-1.08346E-20 3.30872E-24
 -1       142 6.53851E-05-4.04548E-20 8.27181E-25
 -1       143 6.53493E-05-4.09565E-20 0.00000E+00
 -1       144 6.53144E-05-2.79164E-20 0.00000E+00
 -1       145 6.52796E-05-3.47584E-20 0.00000E+00
 -1       146 6.52449E-05-1.57293E-20-4.13590E-25
 -1       147 6.52103E-05 1.13280E-20-8.27181E-25
 -1       148 6.51758E-05 2.33249E-20 4.13590E-25
 -1       149 6.51413E-05 3.43774E-20-8.27181E-25
 -1       150 6.51069E-05 3.76677E-20 0.00000E+00
 -1       151 6.50727E-05 3.69705E-20-8.27181E-25
 -1       152 6.50391E-05 3.10456E-20-1.03398E-25
 -1       153 6.50057E-05 1.88210E-20-4.13590E-25
 -1       154 6.49753E-05 1.88324E-20 0.00000E+00
 -1       155 6.49442E-05 1.10983E-20 0.00000E+00
 -1       156 6.53470E-05-1.86466E-07 0.00000E+00
 -1       157 6.50093E-05-3.74188E-07 0.00000E+00
 -1       158 6.44572E-05-5.62005E-07-6.61744E-24
 -1       159 6.37001E-05-7.50574E-07-3.30872E-24
 -1       160 6.27484E-05-9.39221E-07-6.61744E-24
 -1       161 6.52775E-05-1.08095E-07 6.61744E-24
 -1       162 6.51128E-05-2.72396E-07 0.00000E+00
 -1       163 6.49614E-05-4.72227E-07-6.61744E-24
 -1       164 6.48156E-05-6.87504E-07 0.00000E+00
 -1       165 6.46679E-05-8.97852E-07-6.61744E-24
 -1       166 6.45107E-05-1.08302E-06 3.30872E-24
 -1       167 6.43366E-05-1.22285E-06-6.61744E-24
 -1       168 6.41379E-05-1.29738E-06 0.00000E+00
 -1       169 6.39074E-05-1.28690E-06 0.00000E+00
 -1       170 6.36379E-05-1.17199E-06-3.30872E-24
 -1       171 6.33222E-05-9.33742E-07 6.61744E-24
 -1       172 6.29540E-05-5.53443E-07 0.00000E+00
 -1       173 6.25261E-05-1.34256E-08 0.00000E+00
 -1       174 6.20356E-05 7.04986E-07-8.27181E-25
 -1       175 6.14713E-05 1.61640E-06-1.65436E-24
 -1       191 6.48022E-05 4.56275E-07 0.00000E+00
 -1       192 6.44483E-05 9.15146E-07 0.00000E+00
 -1       193 6.38720E-05 1.37444E-06 0.00000E+00
 -1       194 6.30775E-05 1.83349E-06 0.00000E+00
 -1       195 6.20690E-05 2.29162E-06-1.32349E-23
 -1       251 7.44548E-05 3.33874E-06 1.32349E-23
 -1       252 7.40464E-05 6.13542E-06 6.61744E-24
 -1       253 7.36409E-05 7.51688E-06 1.32349E-23
 -1       254 7.32360E-05 7.69838E-06 6.61744E-24
 -1       255 7.28310E-05 6.90461E-06 0.00000E+00
 -1       256 7.24251E-05 5.36645E-06 0.00000E+00
 -1       257 7.20183E-05 3.32071E-06 0.00000E+00
 -1       258 7.16111E-05 1.00738E-06 0.00000E+00
 -1       259 7.12037E-05-1.33144E-06-1.32349E-23
 -1       260 7.07968E-05-3.45347E-06 6.61744E-24
 -1       261 7.03908E-05-5.11812E-06 1.32349E-23
 -1       262 6.99857E-05-6.08777E-06-6.61744E-24
 -1       263 6.95810E-05-6.13023E-06 0.00000E+00
 -1       264 6.91763E-05-5.01924E-06 0.00000E+00
 -1       265 6.87691E-05-2.53756E-06 0.00000E+00
 -1       266 6.83639E-05-1.24036E-06 0.00000E+00
 -1       267 6.01156E-05-1.40382E-06 3.30872E-24
 -1       268 5.10729E-05-1.57390E-06 0.00000E+00
 -1       269 4.21883E-05-1.74026E-06 1.65436E-24
 -1       270 3.44144E-05-1.89812E-06 0.00000E+00
 -1       271 7.12301E-05 2.85679E-06-2.64698E-23
 -1       272 6.80084E-05 5.49670E-06 0.00000E+00
 -1       273 6.52451E-05 6.93362E-06 5.29396E-23
 -1       274 6.28842E-05 7.26947E-06-2.64698E-23
 -1       275 6.08759E-05 6.66497E-06 5.29396E-23
 -1       276 5.91476E-05 5.30782E-06 2.64698E-23
 -1       277 5.76170E-05 3.42115E-06-5.29396E-23
 -1       278 5.61941E-05 1.24513E-06 0.00000E+00
 -1       279 5.47847E-05-9.66706E-07 0.00000E+00
 -1       280 5.32938E-05-2.95955E-06-2.64698E-23
 -1       281 5.16301E-05-4.48896E-06 5.29396E-23
 -1       282 4.97091E-05-5.32531E-06-2.64698E-23
 -1       283 4.74547E-05-5.27158E-06 5.29396E-23
 -1       284 4.48142E-05-4.15565E-06 2.64698E-23
 -1       285 4.17254E-05-1.86333E-06 0.00000E+00
 -1       286 6.80921E-05 5.70353E-06-6.61744E-24
 -1       287 6.78310E-05 8.50825E-06-3.30872E-24
 -1       288 6.75725E-05 1.00887E-05-6.61744E-24
 -1       289 6.73155E-05 1.06019E-05-3.30872E-24
 -1       290 6.70586E-05 1.02101E-05 0.00000E+00
 -1       291 6.68012E-05 9.07935E-06 3.30872E-24
 -1       292 6.65432E-05 7.37927E-06-6.61744E-24
 -1       293 6.62844E-05 5.28181E-06-3.30872E-24
 -1       294 6.60251E-05 2.96093E-06 0.00000E+00
 -1       295 6.57656E-05 5.91509E-07 0.00000E+00
 -1       296 6.55063E-05-1.65141E-06 6.61744E-24
 -1       297 6.52470E-05-3.59323E-06 3.30872E-24
 -1       298 6.49883E-05-5.06085E-06 6.61744E-24
 -1       299 6.47274E-05-5.88315E-06 6.61744E-24
 -1       300 6.44675E-05-5.89220E-06 1.32349E-23
 -1       301 6.33686E-05 1.54159E-06 0.00000E+00
 -1       302 5.83463E-05 1.57596E-06 4.13590E-25
 -1       303 5.33072E-05 1.61370E-06-4.13590E-25
 -1       304 4.82659E-05 1.65207E-06 0.00000E+00
 -1       305 4.32366E-05 1.68853E-06 0.00000E+00
 -1       306 6.49410E-05 5.17135E-06-2.64698E-23
 -1       307 6.19063E-05 7.61058E-06 0.00000E+00
 -1       308 5.93107E-05 8.89659E-06 0.00000E+00
 -1       309 5.71139E-05 9.09183E-06 0.00000E+00
 -1       310 5.52817E-05 8.31423E-06 0.00000E+00
 -1       311 5.37575E-05 6.70838E-06-2.64698E-23
 -1       312 5.24748E-05 4.45576E-06 5.29396E-23
 -1       313 5.13579E-05 1.75764E-06 0.00000E+00
 -1       314 5.03247E-05-1.16504E-06 0.00000E+00
 -1       315 4.92906E-05-4.08423E-06 2.64698E-23
 -1       316 4.81707E-05-6.77248E-06-5.29396E-23
 -1       317 4.68845E-05-9.00895E-06-2.64698E-23
 -1       318 4.53552E-05-1.05933E-05 0.00000E+00
 -1       319 4.35253E-05-1.13417E-05-2.64698E-23
 -1       320 4.13256E-05-1.11150E-05-2.64698E-23
 -1       321 6.40070E-05-3.62026E-06 0.00000E+00
 -1       322 6.38443E-05-2.70346E-06-3.30872E-24
 -1       323 6.36811E-05-2.12275E-06 0.00000E+00
 -1       324 6.35215E-05-1.82677E-06-3.30872E-24
 -1       325 6.33622E-05-1.76328E-06-6.61744E-24
 -1       326 6.32036E-05-1.87947E-06-3.30872E-24
 -1       327 6.30450E-05-2.12197E-06 0.00000E+00
 -1       328 6.28866E-05-2.43709E-06 0.00000E+00
 -1       329 6.27283E-05-2.77092E-06 0.00000E+00
 -1       330 6.25699E-05-3.06950E-06 0.00000E+00
 -1       331 6.24116E-05-3.27899E-06 0.00000E+00
 -1       332 6.22532E-05-3.34575E-06-3.30872E-24
 -1       333 6.20946E-05-3.21661E-06-6.61744E-24
 -1       334 6.19354E-05-2.83887E-06 3.30872E-24
 -1       335 6.17762E-05-2.16058E-06 0.00000E+00
 -1       336 6.16174E-05-5.72700E-06 0.00000E+00
 -1       337 5.74141E-05-6.54100E-06-1.32349E-23
 -1       338 5.22984E-05-7.35821E-06 0.00000E+00
 -1       339 4.70006E-05-8.17358E-06 0.00000E+00
 -1       340 4.22536E-05-8.98742E-06 0.00000E+00
 -1       341 6.27115E-05-3.91473E-06 0.00000E+00
 -1       342 6.13209E-05-3.18230E-06 1.32349E-23
 -1       343 6.00238E-05-2.69662E-06 2.64698E-23
 -1       344 5.88067E-05-2.43022E-06 0.00000E+00
 -1       345 5.76588E-05-2.34882E-06 2.64698E-23
 -1       346 5.65663E-05-2.41596E-06-1.32349E-23
 -1       347 5.55144E-05-2.59159E-06 0.00000E+00
 -1       348 5.44876E-05-2.83395E-06 1.32349E-23
 -1       349 5.34696E-05-3.09971E-06 0.00000E+00
 -1       350 5.24441E-05-3.34512E-06 0.00000E+00
 -1       351 5.13951E-05-3.52703E-06 0.00000E+00
 -1       352 5.03077E-05-3.60300E-06 0.00000E+00
 -1       353 4.91662E-05-3.53360E-06-2.64698E-23
 -1       354 4.79629E-05-3.27912E-06 0.00000E+00
 -1       355 4.66766E-05-2.80965E-06 0.00000E+00
 -1       356 6.15540E-05-8.83011E-08-3.30872E-24
 -1       357 6.15037E-05 6.24739E-07 1.65436E-24
 -1       358 6.14532E-05 1.05566E-06-1.65436E-24
 -1       359 6.14042E-05 1.25194E-06 0.00000E+00
 -1       360 6.13553E-05 1.26130E-06-1.65436E-24
 -1       361 6.13067E-05 1.13157E-06 0.00000E+00
 -1       362 6.12582E-05 9.10743E-07 0.00000E+00
 -1       363 6.12097E-05 6.46874E-07 0.00000E+00
 -1       364 6.11613E-05 3.88051E-07 0.00000E+00
 -1       365 6.11130E-05 1.82364E-07 0.00000E+00
 -1       366 6.10649E-05 7.78520E-08-8.27181E-25
 -1       367 6.10173E-05 1.22475E-07 0.00000E+00
 -1       368 6.09700E-05 3.64057E-07 0.00000E+00
 -1       369 6.09256E-05 8.50254E-07 8.27181E-25
 -1       370 6.08803E-05 1.62855E-06 0.00000E+00
 -1       371 5.97220E-05-1.29242E-06 0.00000E+00
 -1       372 5.68419E-05-1.45219E-06 0.00000E+00
 -1       373 5.34675E-05-1.61338E-06-3.30872E-24
 -1       374 5.00950E-05-1.77267E-06 0.00000E+00
 -1       375 4.72209E-05-1.93076E-06-3.30872E-24
 -1       376 6.07051E-05-2.49347E-07 0.00000E+00
 -1       377 5.98905E-05 3.49802E-07 0.00000E+00
 -1       378 5.91650E-05 7.13229E-07 0.00000E+00
 -1       379 5.85098E-05 8.84246E-07 6.61744E-24
 -1       380 5.79089E-05 9.09991E-07 1.32349E-23
 -1       381 5.73443E-05 8.38163E-07 0.00000E+00
 -1       382 5.67979E-05 7.17828E-07-1.32349E-23
 -1       383 5.62511E-05 5.98386E-07 0.00000E+00
 -1       384 5.56854E-05 5.29255E-07 1.32349E-23
 -1       385 5.50826E-05 5.59449E-07 0.00000E+00
 -1       386 5.44249E-05 7.36663E-07 0.00000E+00
 -1       387 5.36954E-05 1.10757E-06 0.00000E+00
 -1       388 5.28769E-05 1.71606E-06-1.32349E-23
 -1       389 5.19584E-05 2.60589E-06-6.61744E-24
 -1       390 5.09186E-05 3.81331E-06-6.61744E-24
 -1       406 5.93295E-05 3.18704E-06 0.00000E+00
 -1       407 5.76328E-05 3.63045E-06-6.61744E-24
 -1       408 5.57950E-05 4.07393E-06 0.00000E+00
 -1       409 5.38502E-05 4.51633E-06 6.61744E-24
 -1       410 5.18324E-05 4.95626E-06 0.00000E+00
 -1       466 2.92669E-05 1.51351E-06 0.00000E+00
 -1       467 2.98637E-05 3.63389E-06 0.00000E+00
 -1       468 3.04614E-05 4.55771E-06 0.00000E+00
 -1       469 3.10639E-05 4.50893E-06-6.61744E-24
 -1       470 3.16666E-05 3.69997E-06 0.00000E+00
 -1       471 3.22695E-05 2.33612E-06 0.00000E+00
 -1       472 3.28721E-05 6.16091E-07-1.32349E-23
 -1       473 3.34745E-05-1.26474E-06-6.61744E-24
 -1       474 3.40770E-05-3.11298E-06 0.00000E+00
 -1       475 3.46797E-05-4.73485E-06 0.00000E+00
 -1       476 3.52826E-05-5.93391E-06 0.00000E+00
 -1       477 3.58851E-05-6.50977E-06 0.00000E+00
 -1       478 3.64871E-05-6.25458E-06 0.00000E+00
 -1       479 3.70827E-05-4.95276E-06 6.61744E-24
 -1       480 3.76771E-05-2.37625E-06 0.00000E+00
 -1       481 2.45846E-05-1.92102E-06-1.65436E-24
 -1       482 2.09399E-05-1.79535E-06 1.65436E-24
 -1       483 1.77598E-05-1.66844E-06 0.00000E+00
 -1       484 1.50393E-05-1.53946E-06 0.00000E+00
 -1       485 1.27747E-05-1.40919E-06 3.30872E-24
 -1       486 2.65576E-05 1.61497E-06 1.32349E-23
 -1       487 2.47100E-05 4.40530E-06 0.00000E+00
 -1       488 2.31632E-05 6.40359E-06 0.00000E+00
 -1       489 2.18844E-05 7.67718E-06 1.32349E-23
 -1       490 2.08468E-05 8.30902E-06 0.00000E+00
 -1       491 2.00161E-05 8.38793E-06-1.32349E-23
 -1       492 1.93557E-05 8.01228E-06 0.00000E+00
 -1       493 1.88268E-05 7.28562E-06 0.00000E+00
 -1       494 1.83883E-05 6.31728E-06 0.00000E+00
 -1       495 1.79983E-05 5.21951E-06 1.32349E-23
 -1       496 1.76141E-05 4.10664E-06 0.00000E+00
 -1       497 1.71934E-05 3.09339E-06 0.00000E+00
 -1       498 1.66935E-05 2.29248E-06 2.64698E-23
 -1       499 1.60766E-05 1.81561E-06 6.61744E-24
 -1       500 1.52982E-05 1.76599E-06 1.32349E-23
 -1       501 3.82528E-05 5.76562E-06-3.30872E-24
 -1       502 3.82870E-05 8.19860E-06 0.00000E+00
 -1       503 3.83233E-05 9.22559E-06 0.00000E+00
 -1       504 3.83617E-05 9.05830E-06-2.06795E-25
 -1       505 3.83998E-05 7.90742E-06 0.00000E+00
 -1       506 3.84370E-05 5.98308E-06 0.00000E+00
 -1       507 3.84732E-05 3.49486E-06 0.00000E+00
 -1       508 3.85085E-05 6.51920E-07 0.00000E+00
 -1       509 3.85434E-05-2.33680E-06-8.27181E-25
 -1       510 3.85784E-05-5.26244E-06-4.13590E-25
 -1       511 3.86141E-05-7.91616E-06-8.27181E-25
 -1       512 3.86504E-05-1.00889E-05-4.13590E-25
 -1       513 3.86877E-05-1.15712E-05 0.00000E+00
 -1       514 3.87238E-05-1.21533E-05 0.00000E+00
 -1       515 3.87602E-05-1.16246E-05 0.00000E+00
 -1       516 3.31781E-05 1.79188E-06 0.00000E+00
 -1       517 2.81133E-05 1.88123E-06 0.00000E+00
 -1       518 2.33679E-05 1.97138E-06 0.00000E+00
 -1       519 1.92708E-05 2.06470E-06 0.00000E+00
 -1       520 1.61528E-05 2.16189E-06 0.00000E+00
 -1       521 3.52412E-05 5.42748E-06 2.64698E-23
 -1       522 3.27075E-05 7.77237E-06-1.32349E-23
 -1       523 3.06549E-05 8.85009E-06-5.29396E-23
 -1       524 2.90286E-05 8.76857E-06 0.00000E+00
 -1       525 2.77787E-05 7.68170E-06 0.00000E+00
 -1       526 2.68375E-05 5.76494E-06 2.64698E-23
 -1       527 2.61295E-05 3.22273E-06 5.29396E-23
 -1       528 2.55726E-05 2.74443E-07 0.00000E+00
 -1       529 2.50799E-05-2.84658E-06 0.00000E+00
 -1       530 2.45633E-05-5.90271E-06 0.00000E+00
 -1       531 2.39352E-05-8.65871E-06 0.00000E+00
 -1       532 2.31115E-05-1.08863E-05 0.00000E+00
 -1       533 2.20126E-05-1.23757E-05 5.29396E-23
 -1       534 2.05732E-05-1.29328E-05 0.00000E+00
 -1       535 1.87222E-05-1.24009E-05 0.00000E+00
 -1       536 3.91615E-05-7.49879E-06-1.65436E-24
 -1       537 3.95697E-05-5.78849E-06-3.30872E-24
 -1       538 3.99775E-05-4.56621E-06-1.32349E-23
 -1       539 4.03905E-05-3.75781E-06 0.00000E+00
 -1       540 4.08041E-05-3.29256E-06 0.00000E+00
 -1       541 4.12187E-05-3.10194E-06 0.00000E+00
 -1       542 4.16335E-05-3.11964E-06 1.32349E-23
 -1       543 4.20485E-05-3.28072E-06-6.61744E-24
 -1       544 4.24635E-05-3.52141E-06-1.32349E-23
 -1       545 4.28784E-05-3.77845E-06 0.00000E+00
 -1       546 4.32932E-05-3.98871E-06 1.32349E-23
 -1       547 4.37076E-05-4.08875E-06 6.61744E-24
 -1       548 4.41216E-05-4.01426E-06-1.32349E-23
 -1       549 4.45329E-05-3.69977E-06 0.00000E+00
 -1       550 4.49447E-05-3.07789E-06 0.00000E+00
 -1       551 3.54556E-05-9.91883E-06 6.41065E-24
 -1       552 3.17775E-05-1.00587E-05 1.44757E-24
 -1       553 2.78920E-05-1.01981E-05 6.61744E-24
 -1       554 2.39458E-05-1.03380E-05 0.00000E+00
 -1       555 2.00861E-05-1.04794E-05 0.00000E+00
 -1       556 3.77330E-05-7.70141E-06 0.00000E+00
 -1       557 3.68612E-05-6.09546E-06 0.00000E+00
 -1       558 3.61465E-05-4.90509E-06-1.32349E-23
 -1       559 3.55675E-05-4.07478E-06 1.32349E-23
 -1       560 3.51031E-05-3.54885E-06 0.00000E+00
 -1       561 3.47319E-05-3.27110E-06 0.00000E+00
 -1       562 3.44329E-05-3.18528E-06 0.00000E+00
 -1       563 3.41847E-05-3.23502E-06 0.00000E+00
 -1       564 3.39663E-05-3.36397E-06 0.00000E+00
 -1       565 3.37565E-05-3.51570E-06 3.30872E-24
 -1       566 3.35341E-05-3.63381E-06-3.30872E-24
 -1       567 3.32780E-05-3.66190E-06-1.65436E-24
 -1       568 3.29673E-05-3.54358E-06-8.27181E-25
 -1       569 3.25813E-05-3.22261E-06 4.13590E-25
 -1       570 3.20996E-05-2.64283E-06-3.30872E-24
 -1       571 4.56024E-05-1.17256E-06 0.00000E+00
 -1       572 4.58766E-05-5.31690E-07-1.24077E-24
 -1       573 4.61537E-05-1.14119E-07 6.61744E-24
 -1       574 4.64323E-05 1.24751E-07 0.00000E+00
 -1       575 4.67114E-05 2.29631E-07 0.00000E+00
 -1       576 4.69908E-05 2.45443E-07 0.00000E+00
 -1       577 4.72703E-05 2.17107E-07 6.61744E-24
 -1       578 4.75498E-05 1.89563E-07 0.00000E+00
 -1       579 4.78294E-05 2.07749E-07 0.00000E+00
 -1       580 4.81089E-05 3.16616E-07-6.61744E-24
 -1       581 4.83883E-05 5.61121E-07 0.00000E+00
 -1       582 4.86676E-05 9.86225E-07 0.00000E+00
 -1       583 4.89466E-05 1.63689E-06 0.00000E+00
 -1       584 4.92250E-05 2.55781E-06 0.00000E+00
 -1       585 4.95023E-05 3.79357E-06 0.00000E+00
 -1       586 4.33453E-05-2.02354E-06 0.00000E+00
 -1       587 4.10161E-05-1.96659E-06 3.30872E-24
 -1       588 3.85085E-05-1.90973E-06-1.65436E-24
 -1       589 3.59820E-05-1.85346E-06 0.00000E+00
 -1       590 3.35961E-05-1.79839E-06 0.00000E+00
 -1       591 4.47955E-05-1.10344E-06 0.00000E+00
 -1       592 4.43092E-05-3.06970E-07 0.00000E+00
 -1       593 4.38783E-05 3.37201E-07 0.00000E+00
 -1       594 4.34935E-05 8.55503E-07 0.00000E+00
 -1       595 4.31459E-05 1.27436E-06 0.00000E+00
 -1       596 4.28254E-05 1.62019E-06-6.61744E-24
 -1       597 4.25225E-05 1.91939E-06 0.00000E+00
 -1       598 4.22271E-05 2.19834E-06-3.30872E-24
 -1       599 4.19294E-05 2.48346E-06-3.30872E-24
 -1       600 4.16195E-05 2.80114E-06 3.30872E-24
 -1       601 4.12876E-05 3.17778E-06 4.96308E-24
 -1       602 4.09238E-05 3.63979E-06-8.27181E-25
 -1       603 4.05184E-05 4.21358E-06-1.65436E-24
 -1       604 4.00625E-05 4.92564E-06-4.13590E-25
 -1       605 3.95472E-05 5.80249E-06 1.65436E-24
 -1       606 4.98481E-05 7.47832E-06 6.61744E-24
 -1       607 4.99134E-05 9.76814E-06 0.00000E+00
 -1       608 4.99767E-05 1.22440E-05-6.61744E-24
 -1       609 5.00387E-05 1.48927E-05 0.00000E+00
 -1       610 5.01001E-05 1.77014E-05 0.00000E+00
 -1       611 5.01610E-05 2.06567E-05 0.00000E+00
 -1       612 5.02214E-05 2.37454E-05 0.00000E+00
 -1       613 5.02814E-05 2.69542E-05 0.00000E+00
 -1       614 5.03411E-05 3.02699E-05 0.00000E+00
 -1       615 5.04005E-05 3.36791E-05 1.65436E-24
 -1       616 5.04596E-05 3.71687E-05 0.00000E+00
 -1       617 5.05185E-05 4.07253E-05 0.00000E+00
 -1       618 5.05772E-05 4.43357E-05 0.00000E+00
 -1       619 5.06357E-05 4.79867E-05 3.30872E-24
 -1       620 5.06939E-05 5.16650E-05 0.00000E+00
 -1       621 4.77554E-05 5.63417E-06-6.61744E-24
 -1       622 4.57870E-05 5.88389E-06 0.00000E+00
 -1       623 4.38978E-05 6.13385E-06 0.00000E+00
 -1       624 4.21147E-05 6.38327E-06-1.65436E-24
 -1       625 4.04643E-05 6.63116E-06-3.30872E-24
 -1       626 4.91107E-05 7.56428E-06 0.00000E+00
 -1       627 4.83602E-05 9.95706E-06 0.00000E+00
 -1       628 4.75352E-05 1.25446E-05 0.00000E+00
 -1       629 4.66447E-05 1.53043E-05 0.00000E+00
 -1       630 4.56975E-05 1.82138E-05 0.00000E+00
 -1       631 4.47022E-05 2.12503E-05 0.00000E+00
 -1       632 4.36675E-05 2.43909E-05 6.61744E-24
 -1       633 4.26019E-05 2.76130E-05 0.00000E+00
 -1       634 4.15141E-05 3.08938E-05-6.61744E-24
 -1       635 4.04128E-05 3.42104E-05-1.65436E-24
 -1       636 3.93064E-05 3.75402E-05 0.00000E+00
 -1       637 3.82035E-05 4.08603E-05 0.00000E+00
 -1       638 3.71127E-05 4.41480E-05 1.65436E-24
 -1       639 3.60422E-05 4.73805E-05-8.27181E-25
 -1       640 3.50000E-05 5.05349E-05 2.89513E-24
 -1       641 5.07513E-05 5.91809E-05-8.27181E-25
 -1       642 5.07479E-05 6.33257E-05 0.00000E+00
 -1       643 5.07434E-05 6.77507E-05-4.13590E-25
 -1       644 5.07375E-05 7.24143E-05 0.00000E+00
 -1       645 5.07307E-05 7.72753E-05 2.06795E-25
 -1       646 5.07231E-05 8.22922E-05-1.03398E-25
 -1       647 5.07149E-05 8.74238E-05 0.00000E+00
 -1       648 5.07063E-05 9.26287E-05-5.16988E-26
 -1       649 5.06976E-05 9.78655E-05 0.00000E+00
 -1       650 5.06889E-05 1.03093E-04-2.58494E-26
 -1       651 5.06803E-05 1.08270E-04 0.00000E+00
 -1       652 5.06721E-05 1.13355E-04-2.06795E-25
 -1       653 5.06644E-05 1.18306E-04 0.00000E+00
 -1       654 5.06565E-05 1.23083E-04 0.00000E+00
 -1       655 5.06499E-05 1.27643E-04-1.65436E-24
 -1       656 4.73776E-05 5.50702E-05 0.00000E+00
 -1       657 4.44431E-05 5.47704E-05 3.30872E-24
 -1       658 4.17934E-05 5.44721E-05 6.61744E-24
 -1       659 3.92726E-05 5.41740E-05-3.30872E-24
 -1       660 3.67238E-05 5.38750E-05 0.00000E+00
 -1       661 4.96465E-05 5.93049E-05-6.61744E-24
 -1       662 4.84344E-05 6.35724E-05 0.00000E+00
 -1       663 4.71210E-05 6.81048E-05 1.32349E-23
 -1       664 4.57272E-05 7.28549E-05 0.00000E+00
 -1       665 4.42689E-05 7.77751E-05-1.32349E-23
 -1       666 4.27636E-05 8.28198E-05 6.61744E-24
 -1       667 4.12280E-05 8.79445E-05 1.32349E-23
 -1       668 3.96789E-05 9.31049E-05 6.61744E-24
 -1       669 3.81328E-05 9.82570E-05-1.32349E-23
 -1       670 3.66065E-05 1.03357E-04 0.00000E+00
 -1       671 3.51168E-05 1.08361E-04 0.00000E+00
 -1       672 3.36803E-05 1.13223E-04 6.61744E-24
 -1       673 3.23148E-05 1.17897E-04 6.61744E-24
 -1       674 3.10355E-05 1.22336E-04 0.00000E+00
 -1       675 2.98646E-05 1.26492E-04-3.30872E-24
 -1       676 4.66199E-05 1.31675E-04 0.00000E+00
 -1       677 4.28378E-05 1.31399E-04-3.30872E-24
 -1       678 3.92292E-05 1.31123E-04-6.61744E-24
 -1       679 3.57302E-05 1.30849E-04 0.00000E+00
 -1       680 3.22761E-05 1.30574E-04 6.61744E-24
 -1       681 1.11691E-05 8.90714E-08 3.30872E-24
 -1       682 1.13814E-05 1.06208E-06 3.30872E-24
 -1       683 1.15937E-05 1.69373E-06 6.61744E-24
 -1       684 1.18070E-05 2.03750E-06-3.30872E-24
 -1       685 1.20205E-05 2.14568E-06 0.00000E+00
 -1       686 1.22342E-05 2.06977E-06 0.00000E+00
 -1       687 1.24479E-05 1.86049E-06 0.00000E+00
 -1       688 1.26615E-05 1.56814E-06-3.30872E-24
 -1       689 1.28752E-05 1.24263E-06 0.00000E+00
 -1       690 1.30888E-05 9.33800E-07 0.00000E+00
 -1       691 1.33022E-05 6.91542E-07 0.00000E+00
 -1       692 1.35153E-05 5.65966E-07-3.30872E-24
 -1       693 1.37281E-05 6.07683E-07 6.61744E-24
 -1       694 1.39384E-05 8.67843E-07 1.65436E-24
 -1       695 1.41492E-05 1.39854E-06 0.00000E+00
 -1       696 9.24284E-06-1.07201E-06 0.00000E+00
 -1       697 7.33389E-06-8.58949E-07 0.00000E+00
 -1       698 5.34552E-06-6.46191E-07-6.61744E-24
 -1       699 3.38725E-06-4.32014E-07-3.30872E-24
 -1       700 1.56875E-06-2.17593E-07-6.61744E-24
 -1       701 1.02175E-05 7.31506E-08 0.00000E+00
 -1       702 9.56938E-06 1.12974E-06 3.30872E-24
 -1       703 9.02085E-06 1.92328E-06 0.00000E+00
 -1       704 8.55813E-06 2.48221E-06-3.30872E-24
 -1       705 8.17160E-06 2.83788E-06 0.00000E+00
 -1       706 7.84921E-06 3.02160E-06 0.00000E+00
 -1       707 7.57911E-06 3.06579E-06 6.61744E-24
 -1       708 7.34897E-06 3.00326E-06 3.30872E-24
 -1       709 7.14633E-06 2.86742E-06 0.00000E+00
 -1       710 6.95861E-06 2.69194E-06 0.00000E+00
 -1       711 6.77311E-06 2.51070E-06 0.00000E+00
 -1       712 6.57744E-06 2.35768E-06-3.30872E-24
 -1       713 6.35871E-06 2.26653E-06 0.00000E+00
 -1       714 6.10627E-06 2.27149E-06 0.00000E+00
 -1       715 5.80507E-06 2.40459E-06 3.30872E-24
 -1       716 1.44683E-05 2.84135E-06 0.00000E+00
 -1       717 1.46027E-05 2.63300E-06-8.27181E-25
 -1       718 1.47362E-05 1.76103E-06-3.30872E-24
 -1       719 1.48712E-05 3.57738E-07-1.65436E-24
 -1       720 1.50056E-05-1.44611E-06 0.00000E+00
 -1       721 1.51400E-05-3.52052E-06 1.65436E-24
 -1       722 1.52741E-05-5.73622E-06 0.00000E+00
 -1       723 1.54082E-05-7.96432E-06 0.00000E+00
 -1       724 1.55426E-05-1.00759E-05 0.00000E+00
 -1       725 1.56773E-05-1.19417E-05-1.65436E-24
 -1       726 1.58125E-05-1.34320E-05 0.00000E+00
 -1       727 1.59477E-05-1.44162E-05 0.00000E+00
 -1       728 1.60829E-05-1.47623E-05 3.30872E-24
 -1       729 1.62148E-05-1.43369E-05 4.13590E-25
 -1       730 1.63467E-05-1.30047E-05 0.00000E+00
 -1       731 1.30309E-05 2.32001E-06-8.27181E-25
 -1       732 1.13270E-05 2.39568E-06 4.13590E-25
 -1       733 9.47572E-06 2.47076E-06 0.00000E+00
 -1       734 7.71877E-06 2.54751E-06-8.27181E-25
 -1       735 6.29816E-06 2.62490E-06 0.00000E+00
 -1       736 1.34323E-05 2.85971E-06 0.00000E+00
 -1       737 1.26429E-05 3.07566E-06-6.61744E-24
 -1       738 1.19854E-05 2.94313E-06 0.00000E+00
 -1       739 1.14409E-05 2.49901E-06 6.61744E-24
 -1       740 1.09964E-05 1.78739E-06-1.32349E-23
 -1       741 1.06342E-05 8.53895E-07 0.00000E+00
 -1       742 1.03366E-05-2.52263E-07 2.64698E-23
 -1       743 1.00845E-05-1.48028E-06 0.00000E+00
 -1       744 9.85821E-06-2.77751E-06 0.00000E+00
 -1       745 9.63794E-06-4.09054E-06 0.00000E+00
 -1       746 9.40366E-06-5.36585E-06 0.00000E+00
 -1       747 9.13590E-06-6.55009E-06 0.00000E+00
 -1       748 8.81494E-06-7.59151E-06 0.00000E+00
 -1       749 8.42469E-06-8.43879E-06-6.61744E-24
 -1       750 7.94348E-06-9.04577E-06 0.00000E+00
 -1       751 1.73429E-05-8.04691E-06-6.61744E-24
 -1       752 1.82825E-05-6.12164E-06 1.32349E-23
 -1       753 1.92209E-05-4.75127E-06 0.00000E+00
 -1       754 2.01687E-05-3.84229E-06 0.00000E+00
 -1       755 2.11176E-05-3.30985E-06 0.00000E+00
 -1       756 2.20683E-05-3.07465E-06-1.32349E-23
 -1       757 2.30194E-05-3.06295E-06-2.64698E-23
 -1       758 2.39707E-05-3.20433E-06 1.32349E-23
 -1       759 2.49221E-05-3.43124E-06 0.00000E+00
 -1       760 2.58733E-05-3.67740E-06 0.00000E+00
 -1       761 2.68242E-05-3.87686E-06-2.64698E-23
 -1       762 2.77737E-05-3.96300E-06-1.32349E-23
 -1       763 2.87226E-05-3.86710E-06-2.64698E-23
 -1       764 2.96643E-05-3.51772E-06 1.32349E-23
 -1       765 3.06074E-05-2.83869E-06-1.32349E-23
 -1       766 1.37494E-05-1.04352E-05 0.00000E+00
 -1       767 1.15178E-05-1.02184E-05 0.00000E+00
 -1       768 9.76230E-06-1.00019E-05-3.30872E-24
 -1       769 8.48401E-06-9.78381E-06 1.65436E-24
 -1       770 7.68613E-06-9.56414E-06-3.23117E-26
 -1       771 1.47830E-05-8.19526E-06 0.00000E+00
 -1       772 1.32258E-05-6.12039E-06 0.00000E+00
 -1       773 1.17898E-05-4.37705E-06 0.00000E+00
 -1       774 1.04671E-05-2.93937E-06 0.00000E+00
 -1       775 9.24924E-06-1.78148E-06-2.64698E-23
 -1       776 8.12661E-06-8.77381E-07 0.00000E+00
 -1       777 7.08954E-06-2.00986E-07 0.00000E+00
 -1       778 6.12819E-06 2.73906E-07-1.32349E-23
 -1       779 5.23269E-06 5.73581E-07 2.64698E-23
 -1       780 4.39314E-06 7.24451E-07-1.32349E-23
 -1       781 3.59962E-06 7.52987E-07 2.64698E-23
 -1       782 2.84234E-06 6.85782E-07 0.00000E+00
 -1       783 2.11152E-06 5.49492E-07-2.64698E-23
 -1       784 1.39828E-06 3.71119E-07-1.32349E-23
 -1       785 6.94073E-07 1.77801E-07 0.00000E+00
 -1       786 3.19506E-05-5.69056E-07 6.61744E-24
 -1       787 3.24168E-05 3.50874E-07-6.61744E-24
 -1       788 3.28823E-05 1.05151E-06 1.32349E-23
 -1       789 3.33517E-05 1.57205E-06 0.00000E+00
 -1       790 3.38215E-05 1.95004E-06 0.00000E+00
 -1       791 3.42921E-05 2.22199E-06 0.00000E+00
 -1       792 3.47629E-05 2.42343E-06-1.32349E-23
 -1       793 3.52338E-05 2.58935E-06-6.61744E-24
 -1       794 3.57047E-05 2.75443E-06 1.32349E-23
 -1       795 3.61756E-05 2.95335E-06 0.00000E+00
 -1       796 3.66463E-05 3.22109E-06 0.00000E+00
 -1       797 3.71165E-05 3.59314E-06 0.00000E+00
 -1       798 3.75863E-05 4.10594E-06 0.00000E+00
 -1       799 3.80534E-05 4.79698E-06 0.00000E+00
 -1       800 3.85209E-05 5.70542E-06 0.00000E+00
 -1       801 2.82590E-05-1.45522E-06 0.00000E+00
 -1       802 2.22223E-05-1.15763E-06 3.30872E-24
 -1       803 1.48899E-05-8.68769E-07-6.61744E-24
 -1       804 7.74874E-06-5.80633E-07 0.00000E+00
 -1       805 2.28688E-06-2.81901E-07 0.00000E+00
 -1       806 3.07243E-05-6.88778E-07 0.00000E+00
 -1       807 2.99767E-05 2.40850E-07 6.61744E-24
 -1       808 2.92660E-05 1.06407E-06 0.00000E+00
 -1       809 2.85856E-05 1.80311E-06 0.00000E+00
 -1       810 2.79279E-05 2.48013E-06 0.00000E+00
 -1       811 2.72851E-05 3.11719E-06 6.61744E-24
 -1       812 2.66489E-05 3.73629E-06-1.32349E-23
 -1       813 2.60111E-05 4.35942E-06-6.61744E-24
 -1       814 2.53636E-05 5.00861E-06 6.61744E-24
 -1       815 2.46981E-05 5.70582E-06 6.61744E-24
 -1       816 2.40063E-05 6.47303E-06 0.00000E+00
 -1       817 2.32802E-05 7.33223E-06 0.00000E+00
 -1       818 2.25117E-05 8.30541E-06 6.61744E-24
 -1       819 2.16936E-05 9.41463E-06 3.30872E-24
 -1       820 2.08192E-05 1.06821E-05 0.00000E+00
 -1       821 3.86800E-05 8.37106E-06-3.30872E-24
 -1       822 3.83711E-05 1.02284E-05 0.00000E+00
 -1       823 3.80622E-05 1.24120E-05 6.61744E-24
 -1       824 3.77499E-05 1.48882E-05 0.00000E+00
 -1       825 3.74367E-05 1.76216E-05 0.00000E+00
 -1       826 3.71224E-05 2.05757E-05 3.30872E-24
 -1       827 3.68075E-05 2.37125E-05 0.00000E+00
 -1       828 3.64921E-05 2.69931E-05-3.30872E-24
 -1       829 3.61763E-05 3.03777E-05-6.61744E-24
 -1       830 3.58604E-05 3.38262E-05 0.00000E+00
 -1       831 3.55444E-05 3.72980E-05-6.61744E-24
 -1       832 3.52290E-05 4.07523E-05 0.00000E+00
 -1       833 3.49140E-05 4.41484E-05 0.00000E+00
 -1       834 3.46015E-05 4.74462E-05 0.00000E+00
 -1       835 3.42890E-05 5.06057E-05-3.30872E-24
 -1       836 3.68789E-05 7.73189E-06 0.00000E+00
 -1       837 3.36208E-05 8.62143E-06 0.00000E+00
 -1       838 2.97495E-05 9.50698E-06 0.00000E+00
 -1       839 2.58083E-05 1.03913E-05-6.61744E-24
 -1       840 2.23393E-05 1.12793E-05-1.32349E-23
 -1       841 3.82480E-05 8.33699E-06 0.00000E+00
 -1       842 3.73633E-05 1.01975E-05 0.00000E+00
 -1       843 3.63440E-05 1.24162E-05 0.00000E+00
 -1       844 3.52039E-05 1.49496E-05-1.65436E-24
 -1       845 3.39610E-05 1.77548E-05 6.61744E-24
 -1       846 3.26318E-05 2.07872E-05-3.30872E-24
 -1       847 3.12336E-05 2.40018E-05 6.61744E-24
 -1       848 2.97837E-05 2.73528E-05 3.30872E-24
 -1       849 2.82996E-05 3.07939E-05 0.00000E+00
 -1       850 2.67991E-05 3.42786E-05 3.30872E-24
 -1       851 2.52996E-05 3.77604E-05-6.61744E-24
 -1       852 2.38191E-05 4.11925E-05 0.00000E+00
 -1       853 2.23750E-05 4.45284E-05-6.61744E-24
 -1       854 2.09855E-05 4.77223E-05 0.00000E+00
 -1       855 1.96669E-05 5.07280E-05-3.30872E-24
 -1       856 3.36865E-05 5.67688E-05 0.00000E+00
 -1       857 3.33670E-05 6.05052E-05 0.00000E+00
 -1       858 3.30461E-05 6.47300E-05 0.00000E+00
 -1       859 3.27211E-05 6.93732E-05 3.30872E-24
 -1       860 3.23943E-05 7.43624E-05 0.00000E+00
 -1       861 3.20658E-05 7.96233E-05-3.30872E-24
 -1       862 3.17361E-05 8.50802E-05-1.32349E-23
 -1       863 3.14058E-05 9.06562E-05 6.61744E-24
 -1       864 3.10752E-05 9.62737E-05 0.00000E+00
 -1       865 3.07449E-05 1.01855E-04-6.61744E-24
 -1       866 3.04152E-05 1.07322E-04 0.00000E+00
 -1       867 3.00868E-05 1.12599E-04 0.00000E+00
 -1       868 2.97598E-05 1.17609E-04 0.00000E+00
 -1       869 2.94360E-05 1.22278E-04 3.30872E-24
 -1       870 2.91136E-05 1.26534E-04 0.00000E+00
 -1       871 3.12739E-05 5.35756E-05 0.00000E+00
 -1       872 2.86479E-05 5.35623E-05 0.00000E+00
 -1       873 2.60825E-05 5.35487E-05 0.00000E+00
 -1       874 2.35466E-05 5.35346E-05 4.13590E-25
 -1       875 2.10093E-05 5.35198E-05-1.65436E-24
 -1       876 3.31711E-05 5.68736E-05 0.00000E+00
 -1       877 3.21823E-05 6.06527E-05 0.00000E+00
 -1       878 3.10343E-05 6.48496E-05 0.00000E+00
 -1       879 2.97554E-05 6.93988E-05 6.61744E-24
 -1       880 2.83674E-05 7.42356E-05 0.00000E+00
 -1       881 2.68940E-05 7.92983E-05-6.61744E-24
 -1       882 2.53574E-05 8.45271E-05-1.32349E-23
 -1       883 2.37801E-05 8.98632E-05 0.00000E+00
 -1       884 2.21839E-05 9.52490E-05 0.00000E+00
 -1       885 2.05906E-05 1.00627E-04 0.00000E+00
 -1       886 1.90219E-05 1.05940E-04 1.32349E-23
 -1       887 1.74997E-05 1.11129E-04 0.00000E+00
 -1       888 1.60465E-05 1.16137E-04 0.00000E+00
 -1       889 1.46825E-05 1.20901E-04 0.00000E+00
 -1       890 1.34350E-05 1.25361E-04 0.00000E+00
 -1       891 2.56677E-05 1.30162E-04-3.30872E-24
 -1       892 2.30746E-05 1.30018E-04 0.00000E+00
 -1       893 2.07330E-05 1.29874E-04-3.30872E-24
 -1       894 1.83519E-05 1.29731E-04 1.65436E-24
 -1       895 1.56408E-05 1.29587E-04 3.30872E-24
 -1       896 3.38671E-07 1.23120E-06 0.00000E+00
 -1       897 6.80357E-07 2.14485E-06 0.00000E+00
 -1       898 1.02215E-06 2.78214E-06 1.32349E-23
 -1       899 1.36451E-06 3.18286E-06-6.61744E-24
 -1       900 1.70698E-06 3.38521E-06 0.00000E+00
 -1       901 2.04954E-06 3.42632E-06-6.61744E-24
 -1       902 2.39212E-06 3.34225E-06 1.32349E-23
 -1       903 2.73469E-06 3.16838E-06 0.00000E+00
 -1       904 3.07723E-06 2.93949E-06-1.32349E-23
 -1       905 3.41970E-06 2.69006E-06 0.00000E+00
 -1       906 3.76209E-06 2.45445E-06 0.00000E+00
 -1       907 4.10415E-06 2.26707E-06 0.00000E+00
 -1       908 4.44604E-06 2.16268E-06 0.00000E+00
 -1       909 4.78610E-06 2.17645E-06-3.30872E-24
 -1       910 5.12657E-06 2.34437E-06 0.00000E+00
 -1       911 5.57569E-06 2.97208E-06 0.00000E+00
 -1       912 5.69717E-06 2.87905E-06 1.65436E-24
 -1       913 5.81851E-06 2.47369E-06 0.00000E+00
 -1       914 5.94002E-06 1.80511E-06 1.65436E-24
 -1       915 6.06140E-06 9.21749E-07 0.00000E+00
 -1       916 6.18268E-06-1.28353E-07-1.65436E-24
 -1       917 6.30384E-06-1.29753E-06 0.00000E+00
 -1       918 6.42492E-06-2.53839E-06 0.00000E+00
 -1       919 6.54594E-06-3.80368E-06 0.00000E+00
 -1       920 6.66690E-06-5.04616E-06 0.00000E+00
 -1       921 6.78785E-06-6.21862E-06-3.30872E-24
 -1       922 6.90852E-06-7.27365E-06 1.65436E-24
 -1       923 7.02913E-06-8.16356E-06 0.00000E+00
 -1       924 7.14774E-06-8.84041E-06 8.27181E-25
 -1       925 7.26698E-06-9.25568E-06-8.27181E-25
 -1       926 6.92455E-06-9.20824E-06 1.32349E-23
 -1       927 6.46437E-06-8.89969E-06 6.61744E-24
 -1       928 6.00458E-06-8.45368E-06 1.32349E-23
 -1       929 5.54284E-06-7.89011E-06 0.00000E+00
 -1       930 5.08086E-06-7.22997E-06-1.32349E-23
 -1       931 4.61848E-06-6.49492E-06 0.00000E+00
 -1       932 4.15597E-06-5.70730E-06-1.32349E-23
 -1       933 3.69338E-06-4.88984E-06 6.61744E-24
 -1       934 3.23077E-06-4.06556E-06 0.00000E+00
 -1       935 2.76817E-06-3.25748E-06 0.00000E+00
 -1       936 2.30563E-06-2.48852E-06 0.00000E+00
 -1       937 1.84325E-06-1.78128E-06 0.00000E+00
 -1       938 1.38098E-06-1.15783E-06 1.32349E-23
 -1       939 9.19418E-07-6.39621E-07-6.61744E-24
 -1       940 4.57760E-07-2.47162E-07-1.32349E-23
 -1       941 1.17675E-06 1.98178E-07 0.00000E+00
 -1       942 2.42064E-06 4.54615E-07 0.00000E+00
 -1       943 3.66192E-06 7.68300E-07 0.00000E+00
 -1       944 4.91449E-06 1.13936E-06 1.32349E-23
 -1       945 6.16808E-06 1.56933E-06 0.00000E+00
 -1       946 7.42378E-06 2.06090E-06 1.32349E-23
 -1       947 8.67989E-06 2.61830E-06 0.00000E+00
 -1       948 9.93632E-06 3.24700E-06-2.64698E-23
 -1       949 1.11927E-05 3.95430E-06 0.00000E+00
 -1       950 1.24488E-05 4.74900E-06-1.32349E-23
 -1       951 1.37045E-05 5.64206E-06 2.64698E-23
 -1       952 1.49583E-05 6.64640E-06 0.00000E+00
 -1       953 1.62112E-05 7.77765E-06 0.00000E+00
 -1       954 1.74547E-05 9.05393E-06-1.32349E-23
 -1       955 1.87002E-05 1.04970E-05 1.32349E-23
 -1       956 1.98034E-05 1.40071E-05-1.65436E-24
 -1       957 1.97143E-05 1.60444E-05 0.00000E+00
 -1       958 1.96245E-05 1.82304E-05-1.65436E-24
 -1       959 1.95344E-05 2.05506E-05 0.00000E+00
 -1       960 1.94439E-05 2.29903E-05 0.00000E+00
 -1       961 1.93531E-05 2.55349E-05 1.24077E-24
 -1       962 1.92621E-05 2.81697E-05 0.00000E+00
 -1       963 1.91710E-05 3.08797E-05 0.00000E+00
 -1       964 1.90796E-05 3.36504E-05-2.48154E-24
 -1       965 1.89882E-05 3.64669E-05 0.00000E+00
 -1       966 1.88966E-05 3.93144E-05-3.30872E-24
 -1       967 1.88051E-05 4.21783E-05 1.65436E-24
 -1       968 1.87135E-05 4.50436E-05 0.00000E+00
 -1       969 1.86221E-05 4.78958E-05 0.00000E+00
 -1       970 1.85308E-05 5.07200E-05-3.30872E-24
 -1       971 1.80756E-05 5.65022E-05-6.61744E-24
 -1       972 1.76969E-05 6.00545E-05 3.30872E-24
 -1       973 1.73170E-05 6.40975E-05 1.32349E-23
 -1       974 1.69333E-05 6.85666E-05-6.61744E-24
 -1       975 1.65477E-05 7.33942E-05 0.00000E+00
 -1       976 1.61604E-05 7.85106E-05 0.00000E+00
 -1       977 1.57720E-05 8.38440E-05 0.00000E+00
 -1       978 1.53827E-05 8.93211E-05-6.61744E-24
 -1       979 1.49931E-05 9.48679E-05 1.32349E-23
 -1       980 1.46036E-05 1.00410E-04-6.61744E-24
 -1       981 1.42146E-05 1.05872E-04 0.00000E+00
 -1       982 1.38268E-05 1.11181E-04-6.61744E-24
 -1       983 1.34403E-05 1.16263E-04 0.00000E+00
 -1       984 1.30576E-05 1.21047E-04 0.00000E+00
 -1       985 1.26759E-05 1.25463E-04 0.00000E+00
 -3
    1PSTEP                         2           1           1          
  100CL  101 1.000000000         841                     0    1           1
 -4  STRESS      6    1
 -5  SXX         1    4    1    1
 -5  SYY         1    4    2    2
 -5  SZZ         1    4    3    3
 -5  SXY         1    4    1    2
 -5  SYZ         1    4    2    3
 -5  SZX         1    4    3    1
 -1         1-2.94921E+06-8.94702E+05-4.94684E+05-9.40737E+05 9.11920E-10 7.95505E-09
 -1         2-1.90909E+06-3.28624E+04 2.88433E+03-1.81335E+05-5.50699E-10 1.15688E-09
 -1         3-9.16441E+05-5.83353E+05-1.01261E+03-1.08198E+05 6.29825E-11-1.50658E-09
 -1         4-3.10817E+05-1.47550E+05 3.66877E+02-4.70068E+04-1.43757E-10-2.82876E-09
 -1         5-4.70271E+04 5.01406E+05-1.36593E+05-9.76847E+03 2.13186E-09 5.98152E-09
 -1         8-1.49327E+06-6.48354E+05-2.20555E+05-8.41420E+05-6.91216E-11 2.56841E-09
 -1         9-1.82841E+06-3.89091E+05-2.63267E+05-4.91226E+05 3.34815E-09-1.39395E-09
 -1        10-1.02808E+06-8.49686E+05-1.76615E+03-3.42099E+05-3.26963E-10-1.81899E-11
 -1        11-4.80788E+05-2.32516E+05 1.94780E+01-1.77515E+05 1.20023E-09-8.40070E-10
 -1        12-1.66390E+05 4.58421E+05-1.58414E+05-6.72311E+04 1.02818E-09-2.00981E-09
 -1        15-5.11517E+03-5.55382E+04 2.72605E+03-2.56987E+05-1.83718E-10 1.28057E-09
 -1        16-1.11179E+06-3.30187E+05-1.76120E+05-5.01592E+05 6.31189E-10-1.62254E-09
 -1        17-7.07319E+05-6.57296E+05-1.21526E+05-4.87054E+05-2.88249E-09 2.46898E-09
 -1        18-1.75323E+05-1.77371E+05-8.20797E+04-3.47919E+05 1.37091E-09-1.27814E-09
 -1        19 3.34798E+03 2.22032E+05-7.69312E+04-9.35263E+04 2.40410E-10 1.49703E-09
 -1        20 2.12840E+05-1.44455E+05-1.62498E+04 1.07258E+05 1.73386E-08 1.90448E-09
 -1        21-3.90615E+04-3.43857E+05-1.64792E+03 2.28823E+04 2.72121E-09-8.21443E-09
 -1        22 3.87833E+04 2.06314E+05 1.10972E+03-5.55271E+04-2.91038E-11-1.04592E-09
 -1        23-3.46240E+05-2.81594E+04 2.39959E+03-2.30337E+05 7.38813E-10-1.13929E-09
 -1        24-2.77079E+05-3.57339E+04 1.23945E+05-4.29896E+05-2.98072E-09-1.94511E-09
 -1        25 5.51528E+05 2.71378E+05 2.10426E+05-3.52109E+05-9.88318E-11 1.13141E-09
 -1        26 5.78467E+04 4.83142E+05 6.12880E+04-1.06993E+05-6.70601E-10-2.85157E-09
 -1        27-1.36170E+05-1.37276E+05-6.44007E+04 1.20423E+05 1.82269E-08-4.53292E-09
 -1        28-3.78811E+04-2.33786E+05-2.11764E+03 1.07796E+05 3.05174E-08-3.22599E-09
 -1        29 4.70810E+05 3.29919E+05 1.23435E+03-3.20498E+04 1.43913E-10 7.44876E-10
 -1        30 1.89386E+05 4.22899E+04 1.63155E+03-7.33335E+04 1.01110E-09 8.91305E-11
 -1        31-5.73279E+05 4.84007E+04 3.39595E+03-1.30776E+05 6.04775E-10 6.29370E-10
 -1        32 3.11356E+05 4.02860E+05 3.52988E+05-3.20228E+05-1.45829E-09 3.08137E-09
 -1        33 8.29864E+05 8.14579E+05 3.62103E+05-1.28666E+05-3.38260E-09 2.48019E-09
 -1        34-4.35286E+05-8.96935E+04-6.12557E+04 2.69431E+04 1.18654E-08-2.54659E-11
 -1        35-5.24390E+04-7.43397E+04-1.62505E+03 1.46501E+05 4.30636E-08-2.55629E-09
 -1        36-4.13597E+06 8.19364E+04-2.51157E+05-1.03228E-08-3.09248E-10-3.23053E-09
 -1        37-4.23453E+06-9.90501E+04-1.68404E+05 7.17082E-08-3.63093E-10-4.46926E-09
 -1        38-4.17581E+06 1.02293E+04-6.51983E+04-3.06609E-08 1.22093E-10 6.85395E-09
 -1        39-4.18902E+06-1.22442E+04-3.81532E+04-2.12133E-08-1.15875E-09 5.78257E-09
 -1        40-4.18116E+06 1.28300E+03-1.67033E+04-1.72544E-08 1.79963E-10-2.59206E-09
 -1        41-4.18282E+06-1.51883E+03-9.39186E+03 1.93102E-08-1.86134E-09 2.17574E-09
 -1        42-4.18191E+06 1.77734E+02-4.95417E+03-3.95523E-08 1.97265E-10-5.78666E-11
 -1        43-4.18203E+06-3.26550E+02-3.89562E+03-1.60293E-08-1.35952E-09-1.44553E-10
 -1        44-4.18193E+06 1.49526E+02-4.33250E+03-3.02125E-08-2.84766E-10-6.44684E-09
 -1        45-4.18261E+06-1.22216E+03-7.70078E+03-2.65163E-08-1.34962E-09 2.80841E-09
 -1        46-4.18134E+06 1.02688E+03-1.34486E+04-2.47476E-09-1.67679E-10 1.21704E-08
 -1        47-4.18756E+06-9.79158E+03-3.05554E+04 5.57111E-09-2.04934E-11-1.46974E-09
 -1        48-4.17706E+06 8.17940E+03-5.21597E+04-2.66999E-08-6.12688E-10-3.49974E-09
 -1        49-4.22394E+06-7.92041E+04-1.34674E+05-1.67574E-08-1.84522E-09 2.21189E-09
 -1        50-4.14522E+06 6.55130E+04-2.00880E+05-2.72585E-08-9.79634E-10 4.23461E-09
 -1        51 4.98552E+04-4.39130E+05 9.80086E+04-1.19105E+06-4.65661E-10-5.93718E-09
 -1        52 2.19888E+04-4.30397E+05 5.51787E+04-1.35595E+06-6.54836E-10-1.10304E-08
 -1        53 1.15446E+04-4.51586E+05 3.50160E+04-1.18706E+06-2.76486E-10-7.50879E-09
 -1        54 2.52363E+04-4.51191E+05 4.18850E+04-1.36001E+06-4.51109E-10-3.27418E-10
 -1        55 4.74700E+04-4.65720E+05 6.66433E+04-1.18634E+06-7.71252E-10 8.03266E-09
 -1        56-4.52454E+06-5.34676E+05-3.28033E+05-1.73974E+06-1.07684E-09 6.08270E-09
 -1        57-4.64895E+06-8.06878E+05-2.16537E+05-1.73379E+06-1.44519E-09-1.52795E-09
 -1        58-4.58791E+06-6.29557E+05-7.72870E+04-1.72247E+06-1.47520E-09 1.54760E-08
 -1        59-4.57589E+06-6.93249E+05-4.48097E+04-1.75530E+06-7.24640E-10 5.14774E-09
 -1        60-4.59634E+06-6.41833E+05-1.80597E+04-1.72052E+06 2.30466E-09 8.51287E-10
 -1        61-4.56749E+06-6.77209E+05-1.00591E+04-1.75596E+06 1.98338E-09 1.03408E-08
 -1        62-4.59603E+06-6.44887E+05-5.13263E+03-1.72199E+06-2.30830E-09 4.92741E-09
 -1        63-4.57043E+06-6.71338E+05-4.40891E+03-1.75113E+06-1.23509E-09-1.67074E-09
 -1        64-4.59320E+06-6.47742E+05-5.56814E+03-1.72524E+06-2.29602E-09 5.66752E-09
 -1        65-4.57820E+06-6.66600E+05-1.11868E+04-1.74315E+06-1.26215E-09 1.38436E-08
 -1        66-4.58811E+06-6.49826E+05-2.03950E+04-1.72982E+06-1.31877E-09 4.13638E-09
 -1        67-4.59708E+06-6.75145E+05-5.04714E+04-1.73136E+06-9.32232E-11-8.89486E-10
 -1        68-4.57448E+06-6.40098E+05-8.72585E+04-1.73670E+06-9.60426E-10 3.51065E-09
 -1        69-4.68610E+06-7.96892E+05-2.44246E+05-1.69996E+06 3.30328E-09 4.98039E-09
 -1        70-4.50065E+06-5.35257E+05-3.70044E+05-1.75873E+06 1.96451E-09 1.28057E-09
 -1        71-1.78139E+06-5.26257E+03 1.61770E+04 2.95852E-08 4.18885E-10 5.38876E-09
 -1        72-1.77487E+06 6.36570E+03 1.08344E+04-2.63780E-08-1.14068E-09 5.41570E-09
 -1        73-1.77883E+06-6.56922E+02 4.19224E+03-5.13734E-08 2.69548E-10-2.96632E-09
 -1        74-1.77779E+06 7.86245E+02 2.43873E+03 1.87542E-08-1.76164E-09-7.80219E-09
 -1        75-1.77848E+06-8.19810E+01 1.03835E+03 1.42205E-08 5.79212E-11 2.22860E-09
 -1        76-1.77820E+06 9.42969E+01 5.24648E+02-5.07023E-08-3.21978E-10 6.35863E-09
 -1        77-1.77843E+06-8.27223E+00 1.61672E+02 1.02077E-08 9.51868E-11-7.27695E-10
 -1        78-1.77827E+06-6.76910E+00-8.12890E+01-4.81314E-08-3.87999E-10 5.44878E-09
 -1        79-1.77841E+06 1.50584E+01-3.55434E+02-1.26437E-08-1.62537E-11 3.94226E-09
 -1        80-1.77837E+06-1.51138E+02-8.80872E+02 7.07764E-09 8.00571E-10 6.14256E-09
 -1        81-1.77833E+06 1.29881E+02-1.66654E+03 3.02623E-08-3.71695E-10 5.07725E-10
 -1        82-1.77900E+06-1.24337E+03-3.86851E+03 1.07534E-07-3.94579E-10-5.22419E-09
 -1        83-1.77778E+06 1.03874E+03-6.63423E+03-4.55105E-09 3.30872E-10 6.23231E-09
 -1        84-1.78363E+06-1.00649E+04-1.71331E+04-2.59753E-08-1.19695E-09 1.10053E-08
 -1        85-1.77372E+06 8.32133E+03-2.55744E+04 3.41180E-08-2.59932E-10-2.99588E-09
 -1        86-8.10718E+04 7.41152E+05 2.55067E+05 5.20200E+03 4.22006E-10 3.83079E-09
 -1        87 1.04337E+05 8.43821E+05 1.87247E+05 9.42351E+04 2.03727E-10-2.80124E-10
 -1        88-1.63590E+04 7.77064E+05 1.02249E+05 4.47406E+03 1.19144E-09-1.02773E-10
 -1        89 7.12310E+04 8.28006E+05 1.37517E+05 9.62523E+04 1.40517E-09-1.82899E-09
 -1        90-5.11641E+04 7.58130E+05 1.64428E+05 3.19789E+03 2.59752E-09 5.11864E-09
 -1        91-2.27345E+06-3.02684E+05-5.54517E+04-8.59929E+05-1.31149E-09 2.75395E-09
 -1        92-2.29018E+06-3.52676E+05-3.65686E+04-8.63602E+05 2.95586E-11-5.87170E-09
 -1        93-2.28424E+06-3.18584E+05-1.30740E+04-8.56920E+05 3.29806E-10-5.73618E-09
 -1        94-2.27766E+06-3.33727E+05-7.57867E+03-8.67473E+05 1.45997E-09 3.86774E-09
 -1        95-2.28579E+06-3.20534E+05-3.05909E+03-8.56457E+05-9.36552E-10 1.34230E-09
 -1        96-2.27600E+06-3.31274E+05-1.70615E+03-8.67883E+05-4.41503E-10-8.41617E-09
 -1        97-2.28587E+06-3.20912E+05-8.69017E+02-8.56553E+05-2.72053E-10 7.68807E-10
 -1        98-2.27626E+06-3.30545E+05-7.53444E+02-8.67381E+05-6.41137E-10 5.15718E-09
 -1        99-2.28552E+06-3.21261E+05-9.43834E+02-8.56953E+05 1.30910E-09-3.66117E-09
 -1       100-2.27736E+06-3.29959E+05-1.90921E+03-8.66282E+05-4.80554E-10-1.14078E-08
 -1       101-2.28474E+06-3.21525E+05-3.46800E+03-8.57631E+05-1.13585E-09-5.62477E-09
 -1       102-2.28048E+06-3.31482E+05-8.58683E+03-8.64350E+05 1.48361E-11 4.21733E-09
 -1       103-2.28241E+06-3.19897E+05-1.48398E+04-8.58819E+05-1.71272E-09-1.18416E-09
 -1       104-2.29571E+06-3.51951E+05-4.14785E+04-8.58784E+05-2.08502E-10-2.43199E-09
 -1       105-2.26971E+06-3.02303E+05-6.29163E+04-8.62738E+05-1.00044E-09 1.84082E-09
 -1       106-6.45548E+05-2.53305E+04 7.79467E+04-3.06613E-08-1.02933E-09-3.59069E-09
 -1       107-6.14838E+05 3.06458E+04 5.22065E+04-6.77478E-08 6.53092E-10-6.35191E-09
 -1       108-6.33180E+05-3.16178E+03 2.02345E+04-1.12926E-08-3.70286E-10-7.40329E-10
 -1       109-6.28908E+05 3.78541E+03 1.18114E+04 6.91981E-08 5.35859E-11 1.40062E-09
 -1       110-6.31507E+05-3.95674E+02 5.11815E+03 1.76473E-08 4.50190E-10-1.05488E-08
 -1       111-6.30828E+05 4.62866E+02 2.75899E+03 4.75831E-08-1.93981E-09-7.13658E-09
 -1       112-6.31264E+05-4.85912E+01 1.22438E+03-2.42233E-08 4.27714E-10-1.76146E-09
 -1       113-6.31118E+05 4.49604E+01 5.41619E+02-4.58144E-08-2.95905E-10 1.99275E-09
 -1       114-6.31219E+05 3.51114E+00 6.65671E+01-2.42386E-08 1.09229E-10 1.04572E-09
 -1       115-6.31219E+05-8.52653E+01-3.86888E+02 6.68985E-08 3.27259E-10-3.20642E-09
 -1       116-6.31164E+05 7.74745E+01-9.35630E+02-1.53720E-09-1.63232E-10-4.05214E-09
 -1       117-6.31607E+05-7.48109E+02-2.29733E+03-3.20623E-08-1.78244E-10-2.20069E-10
 -1       118-6.30832E+05 6.25362E+02-3.98334E+03 1.26371E-08 1.82509E-10-5.23960E-09
 -1       119-6.34391E+05-6.06181E+03-1.03174E+04-2.53930E-08-1.72132E-09-2.03659E-09
 -1       120-6.28383E+05 5.01133E+03-1.54087E+04-2.49614E-08 4.08673E-10 2.08183E-09
 -1       121 2.55661E+04-2.34477E+06-8.01278E+04 4.28816E+02-9.45874E-11-5.22641E-09
 -1       122-3.28224E+04-2.37652E+06-5.84096E+04-3.65927E+03-7.51243E-10-5.54428E-09
 -1       123 4.93540E+03-2.35618E+06-3.12142E+04 1.48823E+03 1.92358E-10 3.43789E-10
 -1       124-2.11056E+04-2.37041E+06-4.06303E+04-5.66093E+03-1.49316E-09 2.53976E-09
 -1       125 1.46992E+04-2.35088E+06-4.79630E+04 2.42883E+03 9.09495E-11-1.95587E-09
 -1       126-1.07977E+06-1.58997E+05 2.29570E+04-4.02003E+05 3.50610E-10-2.51384E-09
 -1       127-1.06256E+06-1.48363E+05 1.51381E+04-4.11966E+05-4.12001E-10 2.01908E-10
 -1       128-1.07557E+06-1.52141E+05 5.40621E+03-4.02932E+05 3.61865E-10 2.44518E-09
 -1       129-1.06739E+06-1.56566E+05 3.11869E+03-4.10791E+05-1.45849E-09 3.45966E-09
 -1       130-1.07502E+06-1.51241E+05 1.22389E+03-4.03018E+05-1.36703E-09 4.25302E-10
 -1       131-1.06808E+06-1.57591E+05 6.08987E+02-4.10625E+05-1.07940E-09-1.10231E-09
 -1       132-1.07489E+06-1.51169E+05 1.62190E+02-4.03080E+05-8.24059E-10-1.98207E-09
 -1       133-1.06836E+06-1.57593E+05-1.31976E+02-4.10416E+05 1.17876E-09 3.10499E-09
 -1       134-1.07473E+06-1.51249E+05-4.81693E+02-4.03220E+05-1.05456E-09-1.87305E-09
 -1       135-1.06885E+06-1.57551E+05-1.24209E+03-4.10021E+05 5.28416E-10 6.26483E-09
 -1       136-1.07439E+06-1.51228E+05-2.37175E+03-4.03463E+05 4.79872E-10 5.14569E-09
 -1       137-1.07056E+06-1.59070E+05-5.95047E+03-4.09206E+05 1.09753E-09-8.79709E-10
 -1       138-1.07302E+06-1.49837E+05-1.03051E+04-4.03989E+05 1.68143E-10 4.58931E-09
 -1       139-1.08059E+06-1.73823E+05-2.88087E+04-4.05963E+05-1.46395E-09 3.80169E-09
 -1       140-1.06448E+06-1.37341E+05-4.36978E+04-4.06379E+05 1.81262E-09 2.82125E-09
 -1       141-1.04878E+05-1.05873E+04 3.25750E+04-6.91512E-09 9.62668E-10-7.17773E-09
 -1       142-9.20507E+04 1.28082E+04 2.18133E+04-1.29398E-09-7.22132E-10-2.58842E-09
 -1       143-9.97010E+04-1.32123E+03 8.43493E+03-1.10463E-08 4.87243E-10 7.60792E-10
 -1       144-9.79324E+04 1.58105E+03 4.88471E+03-1.94439E-08 2.95291E-10-1.24430E-09
 -1       145-9.89987E+04-1.64234E+02 2.03321E+03-1.15541E-08-1.24122E-10-4.64183E-09
 -1       146-9.87459E+04 1.84612E+02 9.31290E+02-2.68456E-08 5.90799E-10 6.15955E-10
 -1       147-9.88879E+04-1.17604E+01 7.91983E+01 1.50326E-10-6.85336E-10 6.58537E-09
 -1       148-9.89278E+04-5.66326E+01-6.83196E+02-7.82041E-09 1.88306E-10-2.28852E-09
 -1       149-9.88170E+04 6.85503E+01-1.70754E+03-1.63713E-08 1.26781E-10 2.45677E-10
 -1       150-9.93473E+04-6.60282E+02-3.92261E+03-1.63104E-08-7.38941E-10 9.33369E-10
 -1       151-9.84685E+04 5.65109E+02-7.30684E+03 9.99247E-09 7.91229E-10 2.99679E-10
 -1       152-1.02091E+05-5.40748E+03-1.68781E+04 2.86922E-08-1.87691E-09-4.14798E-09
 -1       153-9.60729E+04 4.51710E+03-2.89153E+04-4.74830E-09 1.38025E-09-9.96806E-10
 -1       154-1.22187E+05-4.37804E+04-7.45991E+04 2.65572E-08-7.24895E-10-7.95171E-09
 -1       155-7.83575E+04 3.61974E+04-1.11296E+05 1.51949E-08 1.35413E-09 7.42148E-10
 -1       156 2.16377E+03-5.35773E+05-6.13490E+03-1.10221E+02 4.27008E-10-9.89849E-09
 -1       157-1.95858E+03-5.37880E+05-2.33360E+03-3.60028E+03 5.36602E-10-9.37803E-10
 -1       158-3.76492E+02-5.37221E+05 2.30125E+03 9.66921E+01 1.52068E-09 2.69802E-09
 -1       159 5.94187E+03-5.33753E+05 9.66905E+03-3.99010E+03 1.03500E-09 4.11001E-09
 -1       160-5.16351E+03-5.39907E+05 1.55892E+04 2.80047E+02 2.33831E-09 6.12044E-09
 -1       161-4.96083E+05-6.70863E+04-9.21481E+03-1.87454E+05-6.95309E-10-1.81899E-11
 -1       162-4.95384E+05-7.88505E+04-6.08365E+03-1.92039E+05-6.18911E-10-4.11751E-09
 -1       163-4.97841E+05-6.97609E+04-2.19287E+03-1.86998E+05-1.03473E-09-3.00997E-09
 -1       164-4.93371E+05-7.56451E+04-1.30167E+03-1.92608E+05-1.04333E-09 3.12286E-09
 -1       165-4.98070E+05-7.01103E+04-5.93565E+02-1.86953E+05 1.24930E-09 4.85119E-09
 -1       166-4.93146E+05-7.52124E+04-4.69076E+02-1.92631E+05-3.49502E-10 3.08802E-09
 -1       167-4.98061E+05-7.01742E+04-5.16200E+02-1.86982E+05 7.74321E-10 1.25419E-09
 -1       168-4.93273E+05-7.51782E+04-9.59854E+02-1.92529E+05-1.06314E-09-2.93880E-09
 -1       169-4.97937E+05-7.01480E+04-1.78728E+03-1.87051E+05 7.16113E-10-2.57853E-09
 -1       170-4.93977E+05-7.58421E+04-4.12908E+03-1.92270E+05-5.94156E-10 9.68089E-09
 -1       171-4.97355E+05-6.95473E+04-7.69297E+03-1.87224E+05-9.26896E-10 6.47151E-09
 -1       172-4.98286E+05-8.19654E+04-1.92193E+04-1.91094E+05 1.52943E-09-6.30848E-09
 -1       173-4.93666E+05-6.43458E+04-3.32154E+04-1.88103E+05-1.91221E-09-5.31691E-09
 -1       174-5.29002E+05-1.31104E+05-9.28584E+04-1.82521E+05-1.65710E-09 4.86125E-09
 -1       175-4.67013E+05-2.31602E+04-1.40736E+05-1.94754E+05-2.96495E-10 4.04543E-09
 -1       191 1.01278E+04 1.31726E+06 1.99037E+04-1.85092E+04-1.53159E-09-6.38465E-09
 -1       192 3.32085E+03 1.32075E+06 1.20228E+04-2.00015E+04-6.69388E-10-6.08634E-09
 -1       193 1.02309E+03 1.31844E+06 9.54976E+03-1.80081E+04-4.46812E-09-2.99769E-09
 -1       194 4.29047E+03 1.32114E+06 1.42127E+04-2.09415E+04-1.21418E-09 3.40151E-10
 -1       195 1.32426E+04 1.31670E+06 2.52786E+04-1.75334E+04-7.10133E-09 1.63709E-10
 -1       251-1.15550E+06 2.49317E+03-1.07326E+04-9.03267E+03-4.71118E-10 3.28146E-09
 -1       252-1.15598E+06-4.56594E+03-6.55768E+03-9.03030E+04 5.42059E-10-3.72336E-09
 -1       253-1.15698E+06 4.15115E+01-2.90464E+03-6.22655E+03 4.91127E-11-1.51181E-09
 -1       254-1.15601E+06-6.03025E+02-1.42615E+03-9.49603E+04 5.72527E-10 8.16772E-09
 -1       255-1.15712E+06-6.15462E+01-7.76392E+02-4.38669E+03 2.64299E-09 1.38260E-09
 -1       256-1.15698E+06 2.06994E+02-3.65494E+02-9.77572E+04 5.79439E-09 8.73342E-10
 -1       257-1.15710E+06 2.73197E+01-2.56187E+02-3.43018E+03 2.17324E-09-1.25783E-09
 -1       258-1.15740E+06 3.91876E+02-2.67935E+02-9.87596E+04-4.93415E-10-3.61536E-09
 -1       259-1.15709E+06 4.09396E+01-4.06747E+02-3.38324E+03-7.57609E-10-2.34365E-09
 -1       260-1.15711E+06 1.61278E+02-7.92302E+02-9.79514E+04 2.00089E-10 7.76606E-09
 -1       261-1.15706E+06 2.12801E+01-1.57381E+03-4.23934E+03 8.77662E-10 6.81439E-09
 -1       262-1.15653E+06-1.15948E+03-3.32552E+03-9.53356E+04 6.87123E-10 3.72029E-09
 -1       263-1.15666E+06 5.80056E+02-6.12579E+03-5.99902E+03-1.72258E-09-4.00905E-09
 -1       264-1.15882E+06-9.42040E+03-1.49435E+04-9.08386E+04-1.78807E-09 5.75073E-09
 -1       265-1.15319E+06 6.60191E+03-2.31986E+04-8.72503E+03-2.71029E-09-3.10774E-09
 -1       266-2.02319E+04-3.80218E+05 5.89543E+04-2.07601E+04 1.89175E-10-2.19734E-09
 -1       267 2.91873E+04-3.61080E+05 3.72490E+04-3.95405E+05 1.28011E-10-9.73159E-10
 -1       268-8.51907E+02-3.69561E+05 8.97119E+03-2.00247E+04-5.27507E-11-5.30645E-09
 -1       269-1.21086E+03-3.75797E+05-8.46423E+03-3.95287E+05 2.61593E-10 4.50018E-09
 -1       270 7.34654E+03-3.64570E+05-2.41767E+04-2.08962E+04-4.74756E-10 4.72210E-09
 -1       271-4.80502E+06-5.73427E+05-3.88586E+05-1.87621E+06-2.06637E-09 7.13044E-10
 -1       272-4.96795E+06-8.78014E+05-2.56211E+05-1.84846E+06-2.72848E-12-3.05590E-10
 -1       273-4.88601E+06-6.79706E+05-9.16938E+04-1.84899E+06 1.51795E-09 2.56114E-09
 -1       274-4.87011E+06-7.55343E+05-5.29274E+04-1.88782E+06 2.76714E-10 1.15870E-09
 -1       275-4.90182E+06-6.88162E+05-2.14600E+04-1.83992E+06 9.65883E-10-1.60617E-09
 -1       276-4.85000E+06-7.47272E+05-1.18562E+04-1.90175E+06 8.79936E-11 1.10845E-09
 -1       277-4.90648E+06-6.86491E+05-6.02687E+03-1.83578E+06 1.10731E-10 2.04000E-09
 -1       278-4.84538E+06-7.48941E+05-5.17848E+03-1.90639E+06-9.33596E-10-4.75177E-09
 -1       279-4.90669E+06-6.86222E+05-6.41169E+03-1.83551E+06-6.77801E-10 7.50788E-10
 -1       280-4.84940E+06-7.48420E+05-1.29967E+04-1.90280E+06-1.75271E-09-4.50677E-09
 -1       281-4.90228E+06-6.87249E+05-2.36295E+04-1.83919E+06 5.40695E-10 9.20409E-10
 -1       282-4.87003E+06-7.59072E+05-5.84882E+04-1.88946E+06-4.77030E-10 4.25553E-09
 -1       283-4.88576E+06-6.76932E+05-1.01266E+05-1.84813E+06 6.30280E-10 3.52884E-09
 -1       284-4.97620E+06-8.96615E+05-2.83137E+05-1.84824E+06 1.73895E-09 4.45289E-09
 -1       285-4.79727E+06-5.58445E+05-4.29267E+05-1.87704E+06 1.14960E-09-3.75439E-09
 -1       286-7.36835E+05-5.62968E+03 1.51227E+04-6.21302E+03 2.12276E-09-2.05910E-09
 -1       287-7.28110E+05 5.66922E+03 1.06028E+04-6.60934E+04 4.97039E-10-6.02813E-09
 -1       288-7.34280E+05-9.27130E+02 3.85085E+03-4.62522E+03-1.18962E-09 3.03908E-09
 -1       289-7.32124E+05 6.10115E+02 2.51374E+03-6.87706E+04-1.10276E-09 7.05677E-09
 -1       290-7.33895E+05-2.04194E+02 1.03904E+03-3.54103E+03 1.22600E-09 6.11738E-09
 -1       291-7.33362E+05 2.26377E+02 8.21202E+02-7.05322E+04 3.19051E-09 1.13710E-09
 -1       292-7.33821E+05-3.59900E+01 6.61063E+02-2.86466E+03 1.47156E-09-5.83373E-09
 -1       293-7.33838E+05 3.66710E+02 1.03742E+03-7.14751E+04 1.04069E-09 3.93356E-10
 -1       294-7.33850E+05-4.26535E+01 1.76759E+03-2.59735E+03 2.00305E-09 1.31057E-09
 -1       295-7.33537E+05 9.14141E+02 3.71618E+03-7.15905E+04 4.43379E-09 3.04163E-09
 -1       296-7.34174E+05-5.21223E+02 6.76303E+03-2.74895E+03 1.28284E-09 3.78100E-09
 -1       297-7.30644E+05 5.16968E+03 1.55948E+04-7.08671E+04 3.75076E-09 2.02590E-10
 -1       298-7.36406E+05-4.25434E+03 2.65618E+04-3.32105E+03 9.24047E-10 1.83809E-09
 -1       299-7.11346E+05 4.03173E+04 6.87919E+04-6.92375E+04-2.07365E-10 1.73986E-09
 -1       300-7.52740E+05-3.36155E+04 1.02377E+05-4.38277E+03 1.00044E-10-3.60160E-09
 -1       301 6.14370E+04 1.44937E+05 1.14561E+05-5.80810E+04 3.85626E-09 5.67979E-10
 -1       302 2.08596E+04 1.64856E+05 6.34871E+04-6.65482E+04 2.72439E-09-3.63366E-09
 -1       303 5.94502E+03 1.52522E+05 4.12044E+04-5.82906E+04 3.90131E-09-5.34430E-09
 -1       304 1.48778E+04 1.61958E+05 4.94955E+04-6.65738E+04 3.75030E-09 3.14458E-10
 -1       305 4.18949E+04 1.47820E+05 8.02303E+04-5.81740E+04 3.49610E-09 5.52495E-09
 -1       306-4.56654E+06-5.41341E+05-3.76670E+05-1.78231E+06-3.27418E-10 1.62981E-09
 -1       307-4.73297E+06-8.28224E+05-2.48372E+05-1.74596E+06-3.41970E-10-2.28465E-09
 -1       308-4.64461E+06-6.44862E+05-8.88983E+04-1.75645E+06 5.47061E-10-1.47702E-09
 -1       309-4.63831E+06-7.08982E+05-5.12991E+04-1.78359E+06-2.64299E-09 3.27145E-09
 -1       310-4.66005E+06-6.52997E+05-2.08174E+04-1.74755E+06-8.63565E-10-2.31921E-09
 -1       311-4.61800E+06-7.01901E+05-1.14429E+04-1.79791E+06 2.54931E-09-4.32260E-09
 -1       312-4.66522E+06-6.50734E+05-5.79233E+03-1.74279E+06 9.98625E-10 6.95081E-10
 -1       313-4.61185E+06-7.05265E+05-4.84539E+03-1.80453E+06 3.52702E-09 4.87883E-09
 -1       314-4.66655E+06-6.49305E+05-5.87359E+03-1.74121E+06-6.19252E-10-4.86511E-09
 -1       315-4.61327E+06-7.07194E+05-1.18291E+04-1.80425E+06-5.38421E-10-2.16119E-09
 -1       316-4.66383E+06-6.48891E+05-2.13888E+04-1.74306E+06-1.13249E-09-4.66298E-09
 -1       317-4.62963E+06-7.19339E+05-5.30342E+04-1.79514E+06-1.86174E-09 2.12094E-09
 -1       318-4.65007E+06-6.38294E+05-9.16956E+04-1.74978E+06-1.78170E-09-4.43833E-10
 -1       319-4.72355E+06-8.46158E+05-2.56526E+05-1.76028E+06-6.90306E-10 4.65661E-10
 -1       320-4.57094E+06-5.30002E+05-3.88877E+05-1.77488E+06 1.69530E-09 6.54836E-10
 -1       321-4.76104E+05-4.16159E+04 1.27937E+05-1.71719E+03-1.84127E-09-3.41242E-09
 -1       322-4.25553E+05 5.02541E+04 8.57137E+04-2.16494E+04-1.18575E-09-9.52241E-10
 -1       323-4.55801E+05-5.21039E+03 3.32150E+04-1.45303E+03 8.95852E-11-1.33878E-09
 -1       324-4.48748E+05 6.19590E+03 1.94219E+04-2.20838E+04 1.82808E-10-7.39647E-10
 -1       325-4.53051E+05-6.57123E+02 8.44771E+03-1.27814E+03 3.44016E-10-5.85078E-09
 -1       326-4.51962E+05 7.67322E+02 4.63592E+03-2.23510E+04-9.14895E-10 1.79853E-09
 -1       327-4.52654E+05-8.34913E+01 2.21178E+03-1.18585E+03 1.13687E-11 5.69253E-09
 -1       328-4.52436E+05 1.21294E+02 1.31361E+03-2.24571E+04-5.58657E-10-4.64621E-09
 -1       329-4.52603E+05-2.41535E+01 9.17817E+02-1.17204E+03 8.38440E-10 4.08903E-10
 -1       330-4.52412E+05 1.59197E+02 1.11744E+03-2.24046E+04-1.45667E-09-1.30314E-09
 -1       331-4.52666E+05-1.24992E+02 1.68085E+03-1.23838E+03 2.75804E-10 5.99869E-10
 -1       332-4.51792E+05 1.13721E+03 3.64591E+03-2.21918E+04 3.58682E-10 6.11453E-09
 -1       333-4.53174E+05-9.72075E+02 6.14028E+03-1.38477E+03 6.51880E-10 1.59162E-11
 -1       334-4.47449E+05 9.23335E+03 1.58121E+04-2.17949E+04 6.72230E-10-6.05451E-09
 -1       335-4.56922E+05-7.69684E+03 2.35408E+04-1.63594E+03-1.42063E-09 5.38421E-10
 -1       336 1.27810E+04-2.29959E+06-4.68634E+04-9.80842E+03-4.63842E-10-2.96131E-09
 -1       337-1.96310E+04-2.31979E+06-4.60449E+04-2.91839E+05-8.22911E-09-7.46832E-09
 -1       338 7.47238E+03-2.30244E+06-4.56274E+04-6.22918E+03 1.25510E-10-9.15634E-10
 -1       339-5.39361E+04-2.33887E+06-9.86030E+04-2.93278E+05-1.06511E-08 4.27826E-09
 -1       340 4.52112E+04-2.28139E+06-1.41550E+05-8.36977E+03 1.66619E-09 4.95129E-09
 -1       341-2.43420E+06-3.20704E+05-7.93137E+04-9.27027E+05 1.44519E-09 1.66619E-09
 -1       342-2.46497E+06-3.85402E+05-5.23079E+04-9.24441E+05 1.62674E-09 1.49885E-09
 -1       343-2.44992E+06-3.43178E+05-1.87261E+04-9.22415E+05 3.02975E-10-1.91449E-09
 -1       344-2.44640E+06-3.58972E+05-1.08823E+04-9.30749E+05-2.72848E-12-6.94581E-09
 -1       345-2.45252E+06-3.45562E+05-4.47685E+03-9.21296E+05-4.90445E-10-5.17048E-10
 -1       346-2.44316E+06-3.56386E+05-2.65505E+03-9.32396E+05 5.07328E-10 4.47818E-09
 -1       347-2.45313E+06-3.45570E+05-1.67720E+03-9.20845E+05 3.98472E-11-8.76298E-10
 -1       348-2.44257E+06-3.56534E+05-2.05851E+03-9.32936E+05-6.64841E-10-4.87552E-09
 -1       349-2.45312E+06-3.45392E+05-3.25614E+03-9.20769E+05-1.01221E-09-6.81212E-10
 -1       350-2.44366E+06-3.57741E+05-7.21437E+03-9.32617E+05-9.49228E-10-3.97006E-09
 -1       351-2.45206E+06-3.44420E+05-1.33098E+04-9.21146E+05 1.37220E-10 8.09450E-10
 -1       352-2.45148E+06-3.67995E+05-3.32220E+04-9.30186E+05 1.04092E-09 2.32831E-10
 -1       353-2.44541E+06-3.35697E+05-5.73811E+04-9.23003E+05-1.40062E-10 1.34605E-09
 -1       354-2.50545E+06-4.52336E+05-1.60609E+05-9.14482E+05 4.99313E-10 3.31966E-09
 -1       355-2.39888E+06-2.64844E+05-2.43342E+05-9.35110E+05 4.95857E-09 9.45874E-10
 -1       356-1.48149E+05-1.68890E+04 5.18449E+04-1.29027E+03 3.04681E-10-2.31739E-09
 -1       357-1.27586E+05 2.03615E+04 3.47465E+04-1.99095E+04-1.47793E-10 4.98312E-09
 -1       358-1.39903E+05-2.11799E+03 1.34358E+04-1.20159E+03-3.16049E-10 2.08911E-09
 -1       359-1.37029E+05 2.50745E+03 7.81635E+03-2.00410E+04-2.63640E-10-2.05614E-09
 -1       360-1.38783E+05-2.66250E+02 3.30298E+03-1.15727E+03-8.61746E-11 1.21804E-09
 -1       361-1.38364E+05 3.03727E+02 1.62684E+03-2.01068E+04-5.57066E-10-1.30041E-09
 -1       362-1.38611E+05-2.34044E+01 4.03639E+02-1.13581E+03-6.64727E-10 2.91266E-10
 -1       363-1.38629E+05-3.30864E+01-5.04732E+02-2.01270E+04 2.15071E-10-2.01771E-09
 -1       364-1.38532E+05 6.67286E+01-1.60753E+03-1.13708E+03 5.84237E-10 2.19291E-09
 -1       365-1.39037E+05-6.48395E+02-3.83613E+03-2.01032E+04-6.41762E-11 1.04501E-09
 -1       366-1.38187E+05 5.53904E+02-7.21012E+03-1.15964E+03-6.21185E-10-5.46606E-10
 -1       367-1.41704E+05-5.36104E+03-1.66784E+04-2.00308E+04 3.93811E-10-3.67345E-09
 -1       368-1.35821E+05 4.45225E+03-2.86057E+04-1.20949E+03-1.48930E-10-1.80262E-09
 -1       369-1.61498E+05-4.33376E+04-7.37732E+04-1.98652E+04-2.69119E-09-4.49381E-09
 -1       370-1.18306E+05 3.57683E+04-1.10109E+05-1.32148E+03 1.77852E-09-1.81899E-10
 -1       371-7.92842E+03-4.48577E+05 2.18645E+04-1.11224E+04 5.13319E-09 1.69894E-09
 -1       372 8.61560E+03-4.40843E+05 9.89294E+03-2.06186E+05 4.55339E-09-7.13953E-09
 -1       373 9.62606E+02-4.43599E+05-5.26251E+03-1.06455E+04 8.16999E-09-5.30972E-09
 -1       374-1.53295E+04-4.53394E+05-2.65057E+04-2.06205E+05 4.12729E-09 1.52068E-09
 -1       375 1.43025E+04-4.36030E+05-4.39932E+04-1.11042E+04 6.29370E-09 3.31966E-09
 -1       376-1.28450E+06-1.61908E+05-6.56080E+04-4.92264E+05 6.09361E-11-6.38829E-09
 -1       377-1.30461E+06-2.20791E+05-4.32669E+04-4.96336E+05-1.64300E-09 3.82715E-09
 -1       378-1.29726E+06-1.80732E+05-1.54970E+04-4.88747E+05-1.11811E-10 1.25510E-10
 -1       379-1.28978E+06-1.98442E+05-9.00188E+03-5.00989E+05 1.13943E-10 1.12664E-09
 -1       380-1.29917E+06-1.82950E+05-3.69248E+03-4.88108E+05-3.41515E-10 1.83354E-09
 -1       381-1.28756E+06-1.95846E+05-2.16805E+03-5.01828E+05-7.39291E-10-2.35082E-09
 -1       382-1.29946E+06-1.83168E+05-1.32429E+03-4.87975E+05 4.07518E-10 1.15111E-09
 -1       383-1.28740E+06-1.95599E+05-1.55857E+03-5.01864E+05-1.16742E-09-7.35236E-09
 -1       384-1.29932E+06-1.83185E+05-2.41293E+03-4.88077E+05 6.67399E-10-5.73095E-09
 -1       385-1.28842E+06-1.96239E+05-5.29999E+03-5.01342E+05 8.68283E-10 2.41789E-09
 -1       386-1.29844E+06-1.82581E+05-9.77075E+03-4.88469E+05-1.06462E-09 3.60069E-09
 -1       387-1.29427E+06-2.03573E+05-2.43457E+04-4.99349E+05 2.21405E-10-4.23779E-09
 -1       388-1.29350E+06-1.76273E+05-4.20652E+04-4.89901E+05-2.98724E-09-5.26052E-09
 -1       389-1.33384E+06-2.65172E+05-1.17615E+05-4.87693E+05-3.87445E-09-1.40426E-09
 -1       390-1.25936E+06-1.24487E+05-1.78262E+05-4.98800E+05 2.65209E-09 6.29370E-09
 -1       406 1.14250E+04 1.27672E+06 2.31997E+04-1.40191E+05-9.58971E-09 3.00315E-09
 -1       407 4.62497E+03 1.28070E+06 1.76067E+04-1.59307E+05-2.85127E-09 3.80533E-09
 -1       408 3.05187E+03 1.27742E+06 1.99625E+04-1.39780E+05-1.17670E-08-5.53518E-09
 -1       409 1.31032E+04 1.28448E+06 3.71314E+04-1.59761E+05-4.14366E-09-1.55815E-08
 -1       410 3.89230E+04 1.27225E+06 7.11059E+04-1.39647E+05-1.28312E-08-9.90985E-09
 -1       466 1.70068E+06-5.34663E+04 1.62493E+05-1.31279E+03-1.41881E-10 8.44011E-10
 -1       467 1.76715E+06 6.35278E+04 1.09333E+05-9.39974E+04-1.98270E-10-6.91216E-11
 -1       468 1.72673E+06-6.83111E+03 4.22321E+04-4.59781E+03 2.07365E-10-1.12050E-09
 -1       469 1.73624E+06 7.85922E+03 2.49233E+04-8.85732E+04-6.80302E-10-2.92403E-10
 -1       470 1.73029E+06-8.79757E+02 1.09264E+04-6.72398E+03 1.24601E-10 1.77170E-09
 -1       471 1.73147E+06 1.18992E+03 6.31719E+03-8.54509E+04 6.48470E-10-1.07730E-09
 -1       472 1.73080E+06-9.34581E+01 3.56681E+03-7.72052E+03 2.27374E-13 1.02295E-09
 -1       473 1.73079E+06 5.39372E+02 3.22712E+03-8.45454E+04 2.30898E-10-3.50104E-09
 -1       474 1.73078E+06-1.25076E+02 4.11069E+03-7.62934E+03 5.32054E-11-2.17426E-10
 -1       475 1.73174E+06 1.41873E+03 7.81199E+03-8.58254E+04 8.91532E-10 3.02231E-09
 -1       476 1.73012E+06-1.12471E+03 1.37760E+04-6.44066E+03 1.40335E-09-1.14051E-09
 -1       477 1.73771E+06 9.93044E+03 3.16036E+04-8.93309E+04 1.19371E-09-1.22782E-10
 -1       478 1.72560E+06-8.65514E+03 5.36489E+04-4.12299E+03-4.10182E-10-1.85537E-09
 -1       479 1.77671E+06 8.07222E+04 1.38864E+05-9.51939E+04-3.25326E-09-6.29370E-10
 -1       480 1.69255E+06-6.78268E+04 2.06540E+05-5.96916E+02-2.13367E-09 1.14960E-09
 -1       481-1.35596E+04 3.74229E+05 4.19394E+04-1.23873E+03 5.63887E-11 1.01954E-09
 -1       482 1.68383E+04 3.91211E+05 2.95066E+04 1.07086E+03-1.72804E-10 4.96948E-09
 -1       483-2.24624E+03 3.80534E+05 1.38293E+04-9.74844E+02 5.27507E-11 4.35057E-09
 -1       484 6.99585E+03 3.86029E+05 1.45272E+04 5.63846E+02 1.66551E-10 1.42427E-09
 -1       485-4.41320E+03 3.79400E+05 1.48351E+04-7.35209E+02 8.59472E-11-2.84899E-09
 -1       486-1.71960E+06-1.97118E+05-1.64740E+05-6.74275E+05-1.78261E-10 8.73115E-11
 -1       487-1.78080E+06-3.33629E+05-1.08533E+05-6.71396E+05 5.29099E-10-3.28691E-09
 -1       488-1.75248E+06-2.43478E+05-3.89204E+04-6.64456E+05-5.15001E-10 7.09406E-11
 -1       489-1.74196E+06-2.79255E+05-2.24468E+04-6.85163E+05-1.80080E-10 2.02363E-10
 -1       490-1.75813E+06-2.48140E+05-9.11211E+03-6.61861E+05-3.48791E-10-1.22463E-09
 -1       491-1.73485E+06-2.74396E+05-4.97291E+03-6.89350E+05 1.11868E-09 2.71939E-10
 -1       492-1.75973E+06-2.47828E+05-2.46287E+03-6.60556E+05 9.08585E-10-9.07221E-10
 -1       493-1.73284E+06-2.75143E+05-1.92414E+03-6.91422E+05 5.24778E-10 1.98065E-09
 -1       494-1.76029E+06-2.47258E+05-2.19028E+03-6.59913E+05 8.56289E-10 1.78687E-09
 -1       495-1.73280E+06-2.76396E+05-4.26631E+03-6.92061E+05-7.29131E-10-2.62389E-09
 -1       496-1.75984E+06-2.46563E+05-7.63694E+03-6.59954E+05-5.22903E-10 4.84761E-10
 -1       497-1.73725E+06-2.82130E+05-1.88991E+04-6.90563E+05-1.15483E-09-1.06911E-09
 -1       498-1.75585E+06-2.41865E+05-3.26207E+04-6.61268E+05 2.17142E-10-4.72937E-11
 -1       499-1.76854E+06-3.29158E+05-9.11599E+04-6.80596E+05-5.99357E-10 3.56522E-10
 -1       500-1.72886E+06-2.02330E+05-1.38245E+05-6.68829E+05-4.56566E-10-9.74978E-10
 -1       501 1.00866E+05-2.06513E+04 6.05699E+04-4.98328E+03 4.05635E-09 1.46974E-09
 -1       502 1.28257E+05 2.35202E+04 4.12154E+04-8.86086E+04 1.69985E-09-1.28784E-09
 -1       503 1.10727E+05-2.84017E+03 1.56430E+04-5.09876E+03 1.34605E-10 1.69439E-09
 -1       504 1.15409E+05 2.90988E+03 9.44428E+03-8.83252E+04-1.61890E-10 9.62700E-10
 -1       505 1.12113E+05-4.33175E+02 4.01777E+03-5.26786E+03 1.91358E-09-4.35261E-09
 -1       506 1.12772E+05 6.66390E+02 2.41000E+03-8.80538E+04 3.45563E-09-3.03908E-09
 -1       507 1.12335E+05-3.65952E+01 1.32887E+03-5.37048E+03 2.43972E-09-1.69734E-10
 -1       508 1.12079E+05 5.63670E+02 1.22875E+03-8.79245E+04 2.52760E-09-3.83966E-09
 -1       509 1.12336E+05-1.30178E+01 1.56956E+03-5.39587E+03 2.43222E-09-3.25531E-09
 -1       510 1.12420E+05 9.08572E+02 2.97643E+03-8.79477E+04 3.72142E-09-6.96677E-09
 -1       511 1.12078E+05-4.21844E+02 5.23021E+03-5.34744E+03 2.05364E-09-6.19229E-09
 -1       512 1.15061E+05 4.04351E+03 1.20594E+04-8.81126E+04 6.17320E-09-6.17274E-09
 -1       513 1.10333E+05-3.38509E+03 2.03481E+04-5.23207E+03 5.61158E-10-1.61435E-09
 -1       514 1.30644E+05 3.08578E+04 5.29750E+04-8.83081E+04-5.23869E-10-4.14002E-09
 -1       515 9.76998E+04-2.61270E+04 7.84562E+04-5.15573E+03-3.27418E-11 3.11047E-09
 -1       516-2.55036E+04 2.84551E+05 8.09867E+04-9.53071E+03 2.32831E-09 1.56578E-09
 -1       517 3.48625E+04 3.16146E+05 6.09711E+04-1.39284E+05 6.08497E-09 1.07418E-08
 -1       518-5.67113E+03 2.95555E+05 3.56987E+04-9.31561E+03 1.47747E-09 4.00632E-09
 -1       519 2.89167E+04 3.14770E+05 5.26318E+04-1.39843E+05 5.55519E-09-1.53841E-09
 -1       520-2.09072E+04 2.87283E+05 6.53061E+04-8.98730E+03 4.54747E-10-3.62706E-09
 -1       521-3.56372E+06-4.18958E+05-3.06291E+05-1.39242E+06 1.74623E-10-4.51109E-10
 -1       522-3.68449E+06-6.65418E+05-2.01759E+05-1.37830E+06-1.24237E-09-2.41562E-09
 -1       523-3.62747E+06-5.02575E+05-7.23474E+04-1.37105E+06 9.51445E-10 1.88811E-09
 -1       524-3.60772E+06-5.68870E+05-4.16663E+04-1.40944E+06 3.70846E-10 6.74936E-09
 -1       525-3.63995E+06-5.09152E+05-1.69310E+04-1.36386E+06 4.05635E-10 3.90446E-09
 -1       526-3.59174E+06-5.62822E+05-9.24315E+03-1.42093E+06 3.45381E-10 2.27283E-09
 -1       527-3.64391E+06-5.07513E+05-4.59617E+03-1.36026E+06-1.84764E-09 1.43586E-09
 -1       528-3.58733E+06-5.64994E+05-3.67985E+03-1.42577E+06-2.25111E-09-2.97980E-10
 -1       529-3.64472E+06-5.06670E+05-4.26466E+03-1.35931E+06-8.02956E-10 1.23237E-10
 -1       530-3.58881E+06-5.65757E+05-8.40965E+03-1.42486E+06-2.95665E-09-4.70936E-09
 -1       531-3.64239E+06-5.06850E+05-1.51648E+04-1.36111E+06 4.79167E-09 3.42334E-09
 -1       532-3.60123E+06-5.73207E+05-3.74458E+04-1.41697E+06 2.54033E-09 2.66300E-09
 -1       533-3.63199E+06-5.00149E+05-6.48510E+04-1.36666E+06-1.75305E-10-2.17915E-09
 -1       534-3.66886E+06-6.60956E+05-1.81042E+05-1.39017E+06-1.50430E-09 4.65661E-10
 -1       535-3.57514E+06-4.24888E+05-2.74787E+05-1.38552E+06 3.56522E-09-2.21189E-09
 -1       536 1.15627E+06-5.71596E+04 1.75813E+05 3.23719E+02-2.09093E-09 1.41154E-09
 -1       537 1.22577E+06 6.89445E+04 1.17818E+05-3.01401E+04-2.12344E-09 2.00816E-09
 -1       538 1.18423E+06-7.16692E+03 4.56917E+04-6.08494E+02 1.78716E-10 5.00040E-09
 -1       539 1.19386E+06 8.47248E+03 2.67575E+04-2.85402E+04 1.26784E-09 2.82080E-09
 -1       540 1.18803E+06-9.10916E+02 1.16958E+04-1.26519E+03 4.29281E-10-6.23459E-10
 -1       541 1.18942E+06 1.03948E+03 6.53428E+03-2.74811E+04-7.42261E-10-4.77746E-09
 -1       542 1.18857E+06-1.24066E+02 3.33388E+03-1.66761E+03 9.23137E-11-1.90005E-09
 -1       543 1.18878E+06 2.06328E+02 2.41700E+03-2.69251E+04 3.56977E-11-2.51862E-09
 -1       544 1.18861E+06-7.74910E+01 2.42100E+03-1.82126E+03 4.42327E-10-2.73452E-09
 -1       545 1.18904E+06 6.31240E+02 4.04082E+03-2.68610E+04 7.09974E-11-2.82742E-09
 -1       546 1.18830E+06-5.20964E+02 6.91882E+03-1.73176E+03 1.05501E-10 1.89652E-09
 -1       547 1.19158E+06 4.94881E+03 1.55975E+04-2.72841E+04 4.52815E-10-3.73075E-09
 -1       548 1.18610E+06-4.15129E+03 2.65735E+04-1.39804E+03 1.04478E-09 3.18323E-10
 -1       549 1.21010E+06 4.00737E+04 6.84373E+04-2.81874E+04 1.28807E-10 5.70162E-09
 -1       550 1.16986E+06-3.31908E+04 1.02097E+05-8.31620E+02-1.01181E-09 9.53150E-10
 -1       551 2.57121E+04-3.77942E+05 4.30417E+04-5.90773E+05-6.78119E-09 1.49885E-09
 -1       552 1.24863E+04-3.71843E+05 2.66547E+04-6.74698E+05-1.10449E-08 4.74938E-09
 -1       553 7.24622E+03-3.77079E+05 2.20452E+04-5.89848E+05-7.72707E-09 4.01087E-09
 -1       554 1.58583E+04-3.70969E+05 3.38306E+04-6.74966E+05-1.06520E-08 2.38424E-09
 -1       555 3.62792E+04-3.80414E+05 6.06869E+04-5.90443E+05-6.24641E-09-5.32782E-09
 -1       556-4.54455E+05-2.09388E+05 8.87695E+03-3.69074E+05-3.07045E-09-1.01863E-09
 -1       557-4.33494E+05-2.31524E+05 4.36088E+03-3.90246E+05 4.12547E-09-5.02041E-09
 -1       558-4.55964E+05-2.12095E+05 1.78156E+03-3.67025E+05-8.73115E-11 9.59517E-10
 -1       559-4.34576E+05-2.33360E+05 8.95458E+02-3.91605E+05 8.73115E-10-2.42881E-09
 -1       560-4.56702E+05-2.11810E+05 3.66469E+02-3.67298E+05-3.03044E-09-2.70302E-09
 -1       561-4.35235E+05-2.33229E+05 1.60712E+02-3.92157E+05-1.58616E-09 1.62822E-09
 -1       562-4.57156E+05-2.11551E+05-6.74167E+00-3.67580E+05 1.41881E-10-1.57888E-09
 -1       563-4.35599E+05-2.33072E+05-1.53974E+02-3.92421E+05 9.25866E-10-8.18545E-10
 -1       564-4.57332E+05-2.11426E+05-4.09794E+02-3.67704E+05 1.10049E-10 8.85848E-10
 -1       565-4.35712E+05-2.33035E+05-9.25513E+02-3.92480E+05 2.91095E-10-1.14960E-09
 -1       566-4.57207E+05-2.11452E+05-1.94177E+03-3.67653E+05-8.36735E-11 1.70985E-10
 -1       567-4.35889E+05-2.33391E+05-4.28689E+03-3.92275E+05 1.34605E-10 3.38696E-09
 -1       568-4.56651E+05-2.12534E+05-8.85969E+03-3.67051E+05 4.83851E-10-2.16096E-09
 -1       569-4.40258E+05-2.39592E+05-2.09239E+04-3.90312E+05 8.31278E-10-2.51021E-09
 -1       570-4.55054E+05-2.31604E+05-4.33562E+04-3.59012E+05 1.33878E-09 5.49790E-09
 -1       571 7.94950E+05 4.21156E+04 7.81493E+04-1.80626E+05 6.43922E-10-3.53953E-09
 -1       572 8.08212E+05 1.33016E+04 3.90041E+04-2.05379E+05-3.85626E-10-2.46018E-09
 -1       573 8.00152E+05 1.94396E+03 1.74618E+04-1.79912E+05-1.38243E-10 9.53150E-10
 -1       574 8.01367E+05 4.76711E+02 8.85732E+03-2.06068E+05-1.98634E-09 5.96265E-09
 -1       575 8.00376E+05-1.38805E+02 4.24503E+03-1.79849E+05-2.14095E-09 1.82081E-09
 -1       576 8.00443E+05-5.52830E+01 2.19418E+03-2.06137E+05-1.97178E-09-1.02045E-09
 -1       577 8.00339E+05-6.57497E+01 1.12405E+03-1.79844E+05-6.83968E-10-1.95905E-09
 -1       578 8.00355E+05-3.96269E+01 6.82481E+02-2.06145E+05 1.52795E-10-7.25777E-09
 -1       579 8.00473E+05-1.09110E+02 5.34302E+02-1.79841E+05 2.08274E-09 5.63887E-11
 -1       580 8.00637E+05-1.79651E+02 6.91370E+02-2.06148E+05 1.73895E-09 7.27596E-09
 -1       581 8.00817E+05-3.20856E+02 1.13494E+03-1.79841E+05-3.22325E-09 3.79077E-09
 -1       582 8.01350E+05-3.03948E+02 2.29420E+03-2.06068E+05-3.19415E-09 9.06948E-09
 -1       583 8.01265E+05-9.64074E+01 4.43846E+03-1.79920E+05-1.13614E-08 2.42653E-09
 -1       584 8.03782E+05 2.63123E+03 9.94713E+03-2.05183E+05-2.29338E-08-6.42376E-09
 -1       585 8.00552E+05 9.84192E+03 1.98511E+04-1.80756E+05-7.79983E-09 3.84171E-09
 -1       586 8.90109E+03 1.71968E+05 1.39061E+04-6.43383E+05 3.59432E-09 8.98581E-10
 -1       587 5.91891E+03 1.73109E+05 1.07709E+04-7.34707E+05 1.59343E-09 7.21866E-09
 -1       588 4.62848E+03 1.70983E+05 1.21776E+04-6.42467E+05 3.76167E-09 7.23685E-09
 -1       589 1.11021E+04 1.75359E+05 2.26499E+04-7.34782E+05 1.66256E-09-8.16726E-10
 -1       590 2.56737E+04 1.69173E+05 4.30552E+04-6.43281E+05 3.58250E-09-3.05590E-10
 -1       591-3.57269E+05-1.43366E+05-5.29703E+04-2.16021E+05 3.00474E-09 7.58519E-09
 -1       592-3.54523E+05-1.37771E+05-2.56010E+04-2.36400E+05-6.65750E-10-2.42244E-09
 -1       593-3.58346E+05-1.20610E+05-1.08406E+04-2.25913E+05-2.52294E-09 2.50839E-09
 -1       594-3.49057E+05-1.30004E+05-5.28057E+03-2.38041E+05-3.30692E-09 1.69842E-09
 -1       595-3.58680E+05-1.19481E+05-2.42882E+03-2.26492E+05-4.71118E-10 9.15952E-09
 -1       596-3.48677E+05-1.29614E+05-1.24177E+03-2.38116E+05-5.94900E-09-1.30985E-08
 -1       597-3.58778E+05-1.19467E+05-7.02587E+02-2.26531E+05 1.98725E-10-1.10958E-09
 -1       598-3.48659E+05-1.29603E+05-6.11757E+02-2.38121E+05 3.11934E-09-1.17325E-10
 -1       599-3.58768E+05-1.19463E+05-8.42144E+02-2.26529E+05-9.97852E-09 3.09501E-09
 -1       600-3.48685E+05-1.29617E+05-1.61130E+03-2.38117E+05-2.26250E-08 3.20142E-09
 -1       601-3.58635E+05-1.19471E+05-3.21589E+03-2.26477E+05-1.75642E-08-5.60613E-09
 -1       602-3.49203E+05-1.30138E+05-7.03311E+03-2.38039E+05-6.67569E-10 3.23234E-09
 -1       603-3.58223E+05-1.20959E+05-1.44480E+04-2.25714E+05-9.70249E-09 2.88856E-09
 -1       604-3.56442E+05-1.40561E+05-3.41320E+04-2.35971E+05-2.57487E-08 2.32831E-09
 -1       605-3.56892E+05-1.51187E+05-7.06092E+04-2.12454E+05-1.05265E-08-9.05857E-10
 -1       606 1.89777E+05-2.42262E+04-4.45177E+04 5.41366E+04-1.44901E-08 8.66748E-10
 -1       607 1.82053E+05-7.69447E+03-2.21990E+04 6.08630E+04-3.07955E-09 2.70484E-09
 -1       608 1.86389E+05-1.16591E+03-9.95262E+03 5.36722E+04 1.81390E-08 6.38283E-09
 -1       609 1.85483E+05-1.66074E+02-5.02849E+03 6.13284E+04 9.08585E-09 2.31466E-09
 -1       610 1.85938E+05 2.16445E+02-2.40949E+03 5.36233E+04-9.49149E-09 1.75351E-09
 -1       611 1.85724E+05 2.92981E+02-1.21669E+03 6.13750E+04-2.97323E-08-6.28461E-09
 -1       612 1.85788E+05 2.78804E+02-5.90151E+02 5.36200E+04-1.27511E-08-1.21190E-09
 -1       613 1.85671E+05 3.39646E+02-2.78395E+02 6.13773E+04-1.58825E-08-5.10499E-09
 -1       614 1.85694E+05 3.04096E+02-1.01746E+02 5.36196E+04-1.83172E-09-4.73756E-09
 -1       615 1.85603E+05 3.74261E+02 2.92134E+01 6.13753E+04 1.77397E-08-1.13050E-09
 -1       616 1.85625E+05 3.35222E+02 1.68154E+02 5.36210E+04-8.13816E-09-3.67390E-09
 -1       617 1.85577E+05 4.37839E+02 4.15356E+02 6.13723E+04-3.40515E-09-2.42608E-09
 -1       618 1.85554E+05 4.72243E+02 8.48195E+02 5.36212E+04-2.45564E-11-5.70708E-10
 -1       619 1.85851E+05 1.10059E+03 1.91173E+03 6.13715E+04-7.02130E-10-1.92449E-09
 -1       620 1.85250E+05 2.47158E+03 3.83896E+03 5.36114E+04 4.66866E-09-6.27551E-10
 -1       621 6.93364E+03 7.21691E+05 1.40588E+04-1.08795E+05-1.18616E-08-6.35737E-10
 -1       622 2.96599E+03 7.24245E+05 1.14208E+04-1.24598E+05-3.54248E-09 3.62888E-09
 -1       623 2.14515E+03 7.22308E+05 1.39510E+04-1.08896E+05-1.16352E-08-1.27329E-10
 -1       624 9.46521E+03 7.27629E+05 2.68425E+04-1.24124E+05-2.51111E-09-2.65209E-09
 -1       625 2.82975E+04 7.18808E+05 5.18686E+04-1.09251E+05-9.52377E-09-7.22139E-10
 -1       626 2.73295E+05 8.89161E+04-2.35698E+04 1.88078E+05-2.28101E-09 3.65981E-09
 -1       627 2.62181E+05 1.03679E+05-1.13861E+04 1.92925E+05-1.48339E-08-5.29553E-10
 -1       628 2.73150E+05 9.86088E+04-4.82619E+03 1.83099E+05 1.41154E-09 6.54745E-09
 -1       629 2.63999E+05 1.07676E+05-2.33425E+03 1.92687E+05 9.62973E-09-2.59161E-09
 -1       630 2.72955E+05 9.91162E+04-1.05276E+03 1.82732E+05 6.83212E-09 5.89603E-09
 -1       631 2.64023E+05 1.07932E+05-4.82377E+02 1.92642E+05-2.02172E-08-1.92915E-09
 -1       632 2.72835E+05 9.91525E+04-1.66904E+02 1.82662E+05-2.79215E-09 7.27005E-09
 -1       633 2.63965E+05 1.07965E+05 4.44593E+01 1.92600E+05-1.44018E-09 2.55386E-09
 -1       634 2.72764E+05 9.91569E+04 2.74374E+02 1.82631E+05 4.44106E-09-7.33962E-10
 -1       635 2.63964E+05 1.07973E+05 6.82985E+02 1.92590E+05-1.24028E-08-4.92037E-10
 -1       636 2.72720E+05 9.91467E+04 1.43951E+03 1.82620E+05 2.32035E-09-7.72343E-09
 -1       637 2.64263E+05 1.08182E+05 3.19054E+03 1.92593E+05 2.14413E-08-3.48882E-09
 -1       638 2.72613E+05 9.97750E+04 6.56062E+03 1.82328E+05 1.15188E-08-9.34506E-09
 -1       639 2.67733E+05 1.12826E+05 1.55151E+04 1.91698E+05 2.72680E-08 4.79304E-09
 -1       640 2.72129E+05 1.13488E+05 3.20859E+04 1.76412E+05 3.32093E-08-6.13181E-09
 -1       641 1.49554E+04 3.98128E+03-1.23371E+04 1.08369E+03-1.95555E-08 5.00177E-09
 -1       642 1.00946E+04-4.70824E+03-8.23836E+03 1.73824E+04-1.99065E-08 4.06499E-09
 -1       643 1.30031E+04 4.94311E+02-3.20140E+03 1.06466E+03-1.76590E-08 8.91077E-10
 -1       644 1.22467E+04-4.45797E+02-1.84563E+03 1.73999E+04 5.55394E-09 3.55499E-09
 -1       645 1.27405E+04 6.63678E+01-7.80014E+02 1.06479E+03 3.36127E-09 1.02710E-09
 -1       646 1.25081E+04 9.56930E+01-3.65320E+02 1.73966E+04-2.35541E-08 2.34891E-09
 -1       647 1.27007E+04 1.44965E+01-5.99472E+01 1.06746E+03 1.29073E-08 3.26139E-09
 -1       648 1.25516E+04 1.89158E+02 1.96765E+02 1.73931E+04 4.31387E-08 4.31879E-09
 -1       649 1.26779E+04-1.04113E+01 5.27608E+02 1.06812E+03 2.65808E-08 6.45394E-09
 -1       650 1.26871E+04 3.78992E+02 1.22700E+03 1.73926E+04 3.19083E-08 1.00770E-08
 -1       651 1.25677E+04-1.68640E+02 2.28933E+03 1.06794E+03-1.50294E-09 5.23232E-09
 -1       652 1.35748E+04 1.85998E+03 5.29656E+03 1.73908E+04 6.98583E-09 3.08114E-09
 -1       653 1.18143E+04-1.41455E+03 9.06664E+03 1.06962E+03 1.14319E-08-1.06502E-09
 -1       654 1.99309E+04 1.38837E+04 2.34092E+04 1.73472E+04 1.61469E-09 9.86802E-10
 -1       655 6.25883E+03-1.13619E+04 3.49203E+04 1.10852E+03 1.04571E-08-1.23327E-09
 -1       656 2.97264E+04-8.38312E+05-9.45264E+04 6.41088E+03 1.23146E-08 7.32143E-09
 -1       657-3.98752E+04-8.75934E+05-7.21290E+04 6.72146E+04 7.97445E-09-1.77351E-09
 -1       658 6.94376E+03-8.50905E+05-4.39658E+04 5.93682E+03 1.17543E-08 7.35315E-09
 -1       659-3.66889E+04-8.74422E+05-6.73493E+04 6.76062E+04 7.17228E-09-4.68160E-09
 -1       660 2.68530E+04-8.39949E+05-8.58302E+04 6.02219E+03 1.16888E-08-8.69250E-10
 -1       661 8.61205E+05 1.02191E+05 7.27995E+04 3.37150E+05-1.28857E-08-6.25732E-10
 -1       662 8.82874E+05 1.68390E+05 4.80286E+04 3.42567E+05-2.42844E-08-8.99036E-09
 -1       663 8.74641E+05 1.23824E+05 1.71951E+04 3.34112E+05 3.25713E-10-1.77351E-09
 -1       664 8.67544E+05 1.42418E+05 9.98314E+03 3.46290E+05 2.73968E-09 7.37759E-09
 -1       665 8.76303E+05 1.26769E+05 4.04769E+03 3.33942E+05 5.16530E-09-2.28692E-09
 -1       666 8.65678E+05 1.38886E+05 2.28750E+03 3.46442E+05-1.40618E-08 3.13889E-09
 -1       667 8.76464E+05 1.27210E+05 1.22033E+03 3.34005E+05 3.08216E-09 4.49813E-09
 -1       668 8.65520E+05 1.38466E+05 1.16035E+03 3.46388E+05 2.32773E-08 2.14182E-09
 -1       669 8.76453E+05 1.27179E+05 1.55880E+03 3.33996E+05 1.77223E-08 1.83900E-09
 -1       670 8.65813E+05 1.39149E+05 3.26462E+03 3.46461E+05-1.15949E-09 1.32807E-08
 -1       671 8.76183E+05 1.26544E+05 5.93921E+03 3.33931E+05-1.29108E-08 5.28553E-09
 -1       672 8.68677E+05 1.44292E+05 1.47596E+04 3.46120E+05-1.49614E-08-1.35406E-08
 -1       673 8.73644E+05 1.22257E+05 2.54589E+04 3.34264E+05-9.99012E-09 2.36469E-10
 -1       674 8.91563E+05 1.82572E+05 7.11348E+04 3.40379E+05-1.53259E-08-4.69390E-09
 -1       675 8.53627E+05 9.03420E+04 1.07851E+05 3.38900E+05 8.61291E-09-5.16593E-09
 -1       676 1.18908E+04-7.67943E+05-3.83212E+04 4.47016E+03-1.90430E-08-6.67796E-10
 -1       677-1.65952E+04-7.83279E+05-3.07002E+04 2.93316E+04 6.65750E-10-5.21220E-09
 -1       678 3.31263E+03-7.72655E+05-2.10471E+04 4.21306E+03-6.64500E-09 2.67653E-09
 -1       679-2.01124E+04-7.85178E+05-3.60662E+04 2.96229E+04 1.40426E-08-8.73970E-09
 -1       680 1.51875E+04-7.66091E+05-4.80088E+04 4.17888E+03 1.63109E-08 3.80822E-10
 -1       681 6.05653E+05-1.09488E+04 3.35293E+04-6.97423E+02 4.00178E-11-1.44973E-09
 -1       682 6.19020E+05 1.31412E+04 2.25098E+04-2.21868E+04 5.72982E-11-1.02227E-09
 -1       683 6.10999E+05-1.38226E+03 8.72837E+03-1.00355E+03-1.16415E-10-1.38698E-10
 -1       684 6.12858E+05 1.61027E+03 5.14805E+03-2.16486E+04-1.24032E-10 6.20730E-11
 -1       685 6.11724E+05-1.78992E+02 2.30114E+03-1.23448E+03 1.41881E-10 7.98764E-10
 -1       686 6.11976E+05 2.08644E+02 1.39841E+03-2.12868E+04 2.66652E-10 1.16813E-09
 -1       687 6.11823E+05-2.90814E+01 9.27642E+02-1.36543E+03-2.80806E-11 1.09549E-09
 -1       688 6.11878E+05 9.96427E+01 1.07413E+03-2.11227E+04 1.23009E-10 1.28412E-09
 -1       689 6.11795E+05-5.87647E+01 1.63076E+03-1.39858E+03 7.65539E-11 5.84407E-10
 -1       690 6.12188E+05 5.47668E+02 3.30333E+03-2.11556E+04-3.88809E-11 2.07649E-10
 -1       691 6.11517E+05-4.59524E+02 5.97337E+03-1.33244E+03 1.68257E-10 1.37561E-10
 -1       692 6.14440E+05 4.36740E+03 1.36900E+04-2.13836E+04-9.10632E-11 1.84900E-09
 -1       693 6.09576E+05-3.66253E+03 2.34027E+04-1.17061E+03-1.44610E-10 5.36602E-11
 -1       694 6.30763E+05 3.53665E+04 6.03494E+04-2.17928E+04-8.12179E-10-8.00355E-10
 -1       695 5.95256E+05-2.92815E+04 9.00551E+04-9.25598E+02-7.32143E-11-1.38243E-09
 -1       696-1.09950E+04 6.11298E+05 3.32502E+04-3.79120E+03 1.18234E-10-1.23123E-09
 -1       697 1.27976E+04 6.24010E+05 2.04815E+04-4.71423E+04 1.70076E-10-3.95744E-10
 -1       698-7.18905E+02 6.17075E+05 4.63939E+03-3.84068E+03-2.03272E-10 1.93376E-09
 -1       699-4.46686E+03 6.14985E+05-5.76566E+03-4.72106E+04-3.84944E-10 2.73081E-09
 -1       700 5.01971E+03 6.20356E+05-1.42546E+04-3.72463E+03-1.98270E-10 1.86355E-09
 -1       701-5.40588E+05-5.40350E+04-7.46221E+04-2.13819E+05 7.91260E-11 3.63798E-11
 -1       702-5.68368E+05-1.16180E+05-4.92098E+04-2.12965E+05 4.45652E-10 1.53977E-09
 -1       703-5.54840E+05-7.57119E+04-1.76203E+04-2.10133E+05-9.27685E-11-3.63798E-11
 -1       704-5.51886E+05-9.03693E+04-1.02020E+04-2.17791E+05-7.28164E-11 3.60160E-10
 -1       705-5.56885E+05-7.83695E+04-4.12447E+03-2.09560E+05 1.08344E-10 4.90218E-10
 -1       706-5.49479E+05-8.72813E+04-2.28275E+03-2.18603E+05 1.32718E-09 1.29512E-09
 -1       707-5.57244E+05-7.86183E+04-1.14245E+03-2.09399E+05 6.13909E-12-5.82645E-11
 -1       708-5.49078E+05-8.70629E+04-9.45695E+02-2.18843E+05-3.62576E-10 1.97915E-10
 -1       709-5.57298E+05-7.85626E+04-1.12757E+03-2.09337E+05 9.38485E-11 3.17669E-10
 -1       710-5.49285E+05-8.74844E+04-2.24760E+03-2.18867E+05 1.00727E-10 1.15250E-10
 -1       711-5.57046E+05-7.82085E+04-4.04516E+03-2.09374E+05 2.84217E-13 6.33918E-10
 -1       712-5.51468E+05-9.07188E+04-1.00209E+04-2.18320E+05-1.37362E-10 1.14824E-11
 -1       713-5.55138E+05-7.54945E+04-1.72885E+04-2.09821E+05 1.38925E-10 1.92813E-10
 -1       714-5.67455E+05-1.16267E+05-4.83124E+04-2.13836E+05 2.72848E-11 2.88310E-10
 -1       715-5.41255E+05-5.41007E+04-7.32380E+04-2.13314E+05 3.99268E-10 7.27596E-12
 -1       716 3.78002E+05-2.29756E+04 7.00343E+04-3.29427E+03-6.45741E-11 6.83940E-10
 -1       717 4.06215E+05 2.75853E+04 4.70756E+04-5.59036E+04 1.69166E-10 1.52613E-09
 -1       718 3.89192E+05-2.90590E+03 1.82092E+04-3.63254E+03-9.36325E-10 1.07684E-09
 -1       719 3.93059E+05 3.54370E+03 1.07327E+04-5.53161E+04-3.29464E-10 2.72962E-09
 -1       720 3.90718E+05-3.57624E+02 4.74132E+03-3.87959E+03 1.90857E-09 9.32687E-10
 -1       721 3.91099E+05 6.39797E+02 2.77729E+03-5.49801E+04 3.58239E-09 2.85786E-09
 -1       722 3.90931E+05-3.42397E+01 1.66066E+03-3.96839E+03 2.27136E-09 2.68028E-09
 -1       723 3.90905E+05 3.51736E+02 1.65299E+03-5.49643E+04 1.15801E-09 3.09075E-09
 -1       724 3.90902E+05-7.84881E+01 2.26411E+03-3.89543E+03 2.08388E-09 1.14653E-09
 -1       725 3.91516E+05 8.61581E+02 4.45951E+03-5.52756E+04 1.87765E-09 3.29939E-09
 -1       726 3.90521E+05-6.58553E+02 7.91746E+03-3.65739E+03 3.73348E-10 1.06456E-09
 -1       727 3.94917E+05 5.80409E+03 1.82360E+04-5.59116E+04 1.56342E-09 1.91335E-09
 -1       728 3.87920E+05-4.99664E+03 3.09797E+04-3.25924E+03 1.05410E-09-1.03864E-09
 -1       729 4.17235E+05 4.68082E+04 8.02225E+04-5.68135E+04-1.88493E-09-3.85626E-10
 -1       730 3.68865E+05-3.91645E+04 1.19378E+05-2.76253E+03-2.43745E-10-3.63070E-09
 -1       731-1.79721E+04 2.15281E+05 5.51837E+04-6.28777E+03 1.24419E-09-2.18279E-10
 -1       732 2.20597E+04 2.36777E+05 3.69461E+04-1.01783E+05 2.21098E-09 3.47484E-10
 -1       733-2.21272E+03 2.24080E+05 1.41844E+04-6.28548E+03 6.23913E-10 1.85037E-09
 -1       734 3.01877E+03 2.26979E+05 8.06608E+03-1.01847E+05 2.14339E-09 1.81365E-09
 -1       735-3.92662E+02 2.25225E+05 2.85383E+03-6.22519E+03 6.66205E-11 1.19144E-09
 -1       736-1.53750E+06-1.80842E+05-1.19167E+05-5.93993E+05-6.00267E-11-1.48430E-09
 -1       737-1.58441E+06-2.77524E+05-7.85879E+04-5.89626E+05-4.13365E-10 5.38421E-10
 -1       738-1.56065E+06-2.15081E+05-2.81222E+04-5.87630E+05 3.92447E-10-1.00044E-09
 -1       739-1.55736E+06-2.36989E+05-1.62793E+04-5.98160E+05-1.36254E-10-3.19687E-10
 -1       740-1.56422E+06-2.19013E+05-6.57140E+03-5.86351E+05-5.75255E-11-7.17591E-10
 -1       741-1.55302E+06-2.32552E+05-3.62513E+03-6.00039E+05 3.03260E-10-3.23610E-10
 -1       742-1.56498E+06-2.19222E+05-1.78904E+03-5.85876E+05 1.25692E-09 2.58899E-09
 -1       743-1.55213E+06-2.32439E+05-1.43709E+03-6.00706E+05 9.22029E-10 9.37753E-10
 -1       744-1.56513E+06-2.19084E+05-1.65902E+03-5.85711E+05-1.16870E-10 1.19945E-09
 -1       745-1.55243E+06-2.33025E+05-3.26251E+03-6.00719E+05-1.59657E-09-1.40267E-09
 -1       746-1.56469E+06-2.18656E+05-5.85245E+03-5.85859E+05 8.82864E-10 8.67431E-10
 -1       747-1.55589E+06-2.37400E+05-1.44892E+04-5.99561E+05 6.91941E-10 1.74805E-09
 -1       748-1.56170E+06-2.14960E+05-2.49995E+04-5.86771E+05-1.68302E-09-1.97815E-09
 -1       749-1.57959E+06-2.73796E+05-6.98861E+04-5.92384E+05-1.30558E-09-1.42973E-09
 -1       750-1.54128E+06-1.84359E+05-1.05952E+05-5.92251E+05 3.01952E-10-1.26602E-09
 -1       751 2.66676E+06-1.07095E+05 3.30198E+05 3.29660E+03-3.09137E-09-6.11180E-10
 -1       752 2.79687E+06 1.29345E+05 2.21140E+05-3.68966E+04-3.27418E-09-3.47427E-09
 -1       753 2.71925E+06-1.34039E+04 8.58741E+04 8.06658E+02-9.91349E-10-1.18962E-09
 -1       754 2.73716E+06 1.59174E+04 5.02937E+04-3.27168E+04 1.57297E-09 3.51429E-09
 -1       755 2.72639E+06-1.69472E+03 2.20736E+04-8.58723E+02-6.24368E-10-9.24956E-10
 -1       756 2.72893E+06 1.96246E+03 1.24418E+04-3.00599E+04-7.03949E-10-1.68598E-09
 -1       757 2.72741E+06-2.36018E+02 6.58604E+03-1.84992E+03-3.60160E-10 1.52545E-09
 -1       758 2.72783E+06 4.33438E+02 5.20033E+03-2.86899E+04-7.62839E-11-2.73516E-09
 -1       759 2.72744E+06-1.94613E+02 5.80081E+03-2.22904E+03 3.45409E-10 2.63981E-10
 -1       760 2.72858E+06 1.62005E+03 1.02941E+04-2.85168E+04-1.14696E-09 5.43787E-09
 -1       761 2.72664E+06-1.35502E+03 1.79659E+04-2.02289E+03-1.09139E-10 2.93767E-09
 -1       762 2.73514E+06 1.29154E+04 4.06919E+04-2.95272E+04 1.04239E-09 8.94488E-10
 -1       763 2.72087E+06-1.08048E+04 6.94388E+04-1.21859E+03 8.58108E-10-1.00772E-09
 -1       764 2.78327E+06 1.04606E+05 1.78696E+05-3.17914E+04 7.27596E-11-4.25644E-10
 -1       765 2.67845E+06-8.65039E+04 2.66806E+05 2.31883E+02-2.27919E-09-1.71713E-09
 -1       766-4.67170E+04 6.15688E+05 1.47382E+05-1.48797E+03 9.31323E-10-1.25829E-09
 -1       767 6.09515E+04 6.75228E+05 1.10299E+05-1.31310E+03-3.86353E-09-1.84059E-09
 -1       768-1.01290E+04 6.35947E+05 6.36425E+04-9.92856E+02 4.24279E-10 6.79393E-10
 -1       769 4.87220E+04 6.68819E+05 9.16960E+04-2.27202E+03-2.18279E-09 1.05001E-09
 -1       770-3.53718E+04 6.22099E+05 1.13686E+05-5.39083E+02-9.16771E-10 1.61708E-09
 -1       771-1.65500E+06-3.49049E+05-1.02031E+05-6.94074E+05-3.24553E-09-2.76486E-10
 -1       772-1.65902E+06-3.28732E+05-4.92959E+04-7.22272E+05-2.09366E-09 4.16185E-09
 -1       773-1.65698E+06-3.05341E+05-2.08906E+04-7.13177E+05-1.41881E-09 1.89902E-09
 -1       774-1.64851E+06-3.13818E+05-1.01586E+04-7.25522E+05 2.91038E-09 2.03090E-09
 -1       775-1.65772E+06-3.03091E+05-4.67384E+03-7.14311E+05 1.25146E-09 6.14818E-10
 -1       776-1.64786E+06-3.13065E+05-2.34682E+03-7.25816E+05-4.18368E-11-2.16050E-09
 -1       777-1.65809E+06-3.02970E+05-1.26695E+03-7.14457E+05-2.21917E-10 5.66615E-10
 -1       778-1.64797E+06-3.13003E+05-9.53120E+02-7.26005E+05-2.36469E-11 7.69660E-11
 -1       779-1.65831E+06-3.02853E+05-1.16354E+03-7.14557E+05-1.81899E-11-2.28738E-10
 -1       780-1.64819E+06-3.12962E+05-2.08979E+03-7.26201E+05-4.36557E-11-2.37924E-09
 -1       781-1.65838E+06-3.02729E+05-4.11137E+03-7.14609E+05-2.18279E-11-1.67893E-09
 -1       782-1.64905E+06-3.13581E+05-8.96103E+03-7.26346E+05-3.00133E-10 2.24645E-10
 -1       783-1.65813E+06-3.04454E+05-1.83891E+04-7.13740E+05-1.78261E-10-1.22782E-09
 -1       784-1.65819E+06-3.27132E+05-4.34816E+04-7.24327E+05 6.33008E-10 1.60071E-10
 -1       785-1.65699E+06-3.42590E+05-8.99433E+04-6.96689E+05 8.27640E-10 2.07001E-09
 -1       786 1.32260E+06-4.62918E+04 1.42588E+05 3.28905E+02 1.10958E-09 8.00355E-10
 -1       787 1.37865E+06 5.59632E+04 9.55217E+04-1.57737E+04-6.10271E-10-4.89490E-09
 -1       788 1.34527E+06-5.78333E+03 3.70768E+04-1.44933E+02-2.21462E-10-7.98536E-10
 -1       789 1.35291E+06 6.89855E+03 2.16990E+04-1.49839E+04-1.94973E-10-2.95131E-09
 -1       790 1.34834E+06-7.26695E+02 9.51195E+03-4.56160E+02 5.03405E-10-2.94494E-09
 -1       791 1.34939E+06 8.47776E+02 5.33295E+03-1.45189E+04 1.48378E-09-1.18234E-09
 -1       792 1.34878E+06-9.93743E+01 2.77933E+03-6.09814E+02 1.77579E-10 1.00374E-09
 -1       793 1.34893E+06 1.69120E+02 2.11304E+03-1.43633E+04 7.48769E-10 2.65395E-09
 -1       794 1.34880E+06-7.59070E+01 2.25618E+03-6.11751E+02-5.15399E-10-4.86216E-09
 -1       795 1.34922E+06 6.01337E+02 3.91234E+03-1.45122E+04 9.02332E-10 7.85747E-10
 -1       796 1.34850E+06-5.13772E+02 6.77846E+03-4.60943E+02-5.49903E-10-6.50061E-10
 -1       797 1.35170E+06 4.85878E+03 1.53341E+04-1.49685E+04-1.35185E-09-9.58380E-10
 -1       798 1.34633E+06-4.07930E+03 2.61513E+04-1.55541E+02-1.05410E-09 1.27329E-09
 -1       799 1.36986E+06 3.94407E+04 6.73434E+04-1.57409E+04-3.19869E-09 3.71074E-10
 -1       800 1.33034E+06-3.26393E+04 1.00493E+05 3.08185E+02-4.37922E-10 2.78669E-09
 -1       801-3.62550E+04 8.96155E+05 1.10613E+05-4.10961E+04 9.09858E-09-3.78350E-10
 -1       802 5.69707E+04 9.40383E+05 9.53673E+04-6.31260E+05 1.05954E-08-3.56158E-09
 -1       803-1.03779E+04 9.09679E+05 7.22247E+04-4.26581E+04 1.67220E-08 8.14725E-09
 -1       804 8.20199E+04 9.55850E+05 1.34413E+05-6.31787E+05 7.75799E-09 4.63297E-09
 -1       805-6.07346E+04 8.82512E+05 1.80558E+05-4.05855E+04 9.96806E-09 6.07179E-09
 -1       806-8.34852E+05-2.10077E+05-7.72794E+04-3.75480E+05 1.06002E-09 2.69210E-10
 -1       807-8.36665E+05-1.96091E+05-3.73601E+04-3.98463E+05-3.70801E-09 2.72757E-09
 -1       808-8.36085E+05-1.77135E+05-1.58078E+04-3.90061E+05-1.86174E-09 2.36560E-09
 -1       809-8.28759E+05-1.84588E+05-7.70156E+03-4.00512E+05 7.71252E-10 4.48318E-09
 -1       810-8.36449E+05-1.75563E+05-3.53088E+03-3.90861E+05 4.04725E-10 2.41016E-11
 -1       811-8.28131E+05-1.84037E+05-1.79184E+03-4.00533E+05 5.67070E-10-2.81761E-09
 -1       812-8.36534E+05-1.75579E+05-9.81368E+02-3.90884E+05 9.84915E-09-1.85355E-09
 -1       813-8.28064E+05-1.84038E+05-7.98753E+02-4.00506E+05 1.09003E-08-1.44555E-08
 -1       814-8.36507E+05-1.75591E+05-1.03329E+03-3.90870E+05 5.29872E-09-2.55113E-09
 -1       815-8.28093E+05-1.84054E+05-1.92802E+03-4.00494E+05 5.89353E-10-1.60162E-09
 -1       816-8.36362E+05-1.75598E+05-3.82083E+03-3.90819E+05-1.52613E-09-1.14123E-08
 -1       817-8.28737E+05-1.84661E+05-8.34341E+03-4.00424E+05 3.41242E-09-5.03678E-09
 -1       818-8.35921E+05-1.77334E+05-1.71311E+04-3.89936E+05 4.92219E-09 7.51243E-10
 -1       819-8.37318E+05-1.97072E+05-4.04790E+04-3.98100E+05 3.81988E-11 9.34961E-10
 -1       820-8.34505E+05-2.13068E+05-8.37331E+04-3.74161E+05-1.68438E-09 4.92946E-09
 -1       821-8.68938E+05 3.28215E+04-1.01026E+05-6.62792E+02-7.35008E-09 3.31056E-09
 -1       822-9.08515E+05-3.97025E+04-6.76865E+04 1.20016E+04-4.20846E-09-2.80488E-09
 -1       823-8.84986E+05 4.07861E+03-2.62702E+04-1.14870E+03 8.79481E-09-5.27143E-09
 -1       824-8.90348E+05-4.85103E+03-1.53585E+04 1.28536E+04-3.65412E-09-1.09808E-08
 -1       825-8.87148E+05 5.00712E+02-6.74939E+03-1.51788E+03-1.50853E-08-2.72212E-09
 -1       826-8.87928E+05-5.28778E+02-3.79304E+03 1.34839E+04-2.84767E-08 6.28916E-10
 -1       827-8.87450E+05 6.42421E+01-2.02007E+03-1.77990E+03-1.49550E-08-1.54432E-09
 -1       828-8.87655E+05-3.79783E+01-1.60384E+03 1.38961E+04-1.92017E-08-3.43664E-09
 -1       829-8.87456E+05 5.85689E+01-1.81026E+03-1.93035E+03 8.23434E-10-3.95048E-09
 -1       830-8.87919E+05-4.08672E+02-3.23486E+03 1.40799E+04 1.20692E-08-3.25372E-09
 -1       831-8.87203E+05 4.26846E+02-5.65903E+03-1.96375E+03-1.18267E-08-4.30373E-09
 -1       832-8.89981E+05-3.99891E+03-1.28445E+04 1.40328E+04-1.74703E-09-8.58381E-09
 -1       833-8.85395E+05 3.41884E+03-2.19288E+04-1.88242E+03 3.08398E-09-8.13088E-10
 -1       834-9.05181E+05-3.30865E+04-5.65220E+04 1.37696E+04 3.55840E-10-3.74621E-09
 -1       835-8.71996E+05 2.74205E+04-8.43350E+04-1.69485E+03-3.20597E-11-4.62387E-09
 -1       836-7.01534E+04 2.54816E+06 2.23931E+05-2.05783E+04 3.85626E-09-1.51886E-09
 -1       837 9.66122E+04 2.63856E+06 1.77289E+05-2.39327E+05-5.71799E-09 4.89081E-10
 -1       838-1.83927E+04 2.57658E+06 1.17866E+05-2.29724E+04 3.87990E-09 2.68574E-09
 -1       839 1.09164E+05 2.64482E+06 1.96276E+05-2.38721E+05-7.93807E-09 8.71501E-09
 -1       840-8.16292E+04 2.54163E+06 2.58457E+05-2.11799E+04 2.61934E-09 7.16864E-09
 -1       841-3.97785E+05-3.78690E+04-5.98689E+04-1.57453E+05-1.06957E-09-1.36424E-09
 -1       842-4.35920E+05-7.17426E+04-3.94576E+04-1.38602E+05-5.82077E-10 3.38423E-09
 -1       843-4.08822E+05-5.56336E+04-1.41370E+04-1.54945E+05 4.89808E-09-4.29009E-09
 -1       844-4.23407E+05-5.03773E+04-8.16706E+03-1.41741E+05 1.42525E-08-4.29026E-09
 -1       845-4.10187E+05-5.80287E+04-3.28802E+03-1.54794E+05 9.69681E-09 2.54022E-09
 -1       846-4.21958E+05-4.74391E+04-1.77662E+03-1.41892E+05-1.03937E-08-2.09007E-09
 -1       847-4.10294E+05-5.84107E+04-8.10780E+02-1.54874E+05-1.33949E-08 1.51149E-09
 -1       848-4.21907E+05-4.69562E+04-5.18573E+02-1.41781E+05-1.38710E-08 7.82308E-11
 -1       849-4.10263E+05-5.84814E+04-4.36225E+02-1.54930E+05-1.62163E-09 6.42061E-10
 -1       850-4.22015E+05-4.69846E+04-7.07459E+02-1.41721E+05-8.96496E-10-5.04560E-10
 -1       851-4.10196E+05-5.83806E+04-1.20111E+03-1.54939E+05-5.20362E-09-5.24975E-09
 -1       852-4.22564E+05-4.79905E+04-2.92423E+03-1.41632E+05 1.12736E-08-2.84797E-09
 -1       853-4.09712E+05-5.75293E+04-5.03629E+03-1.54994E+05-7.51925E-09 4.17094E-09
 -1       854-4.26967E+05-5.56312E+04-1.40451E+04-1.40551E+05-1.06144E-08 2.26260E-09
 -1       855-4.05826E+05-5.11740E+04-2.13106E+04-1.55844E+05 7.97081E-09 4.60932E-09
 -1       856-8.86408E+05 2.77730E+04-8.57109E+04-1.37855E+03-1.14487E-08-1.52431E-09
 -1       857-9.19883E+05-3.35171E+04-5.73731E+04 2.52933E+04-1.12627E-08-8.37645E-09
 -1       858-8.99998E+05 3.43167E+03-2.22906E+04-2.11012E+03-1.30108E-08-5.53700E-09
 -1       859-9.04637E+05-3.91922E+03-1.30070E+04 2.65271E+04 2.92948E-09-8.20728E-09
 -1       860-9.01823E+05 4.14956E+02-5.71346E+03-2.61885E+03 1.00372E-08-4.24143E-09
 -1       861-9.02682E+05-2.19448E+02-3.18459E+03 2.73191E+04-2.08165E-08-6.36288E-09
 -1       862-9.02074E+05 5.23163E+01-1.65414E+03-2.90421E+03 2.93850E-08-5.76824E-09
 -1       863-9.02474E+05 2.16691E+02-1.24037E+03 2.76646E+04 4.76626E-08-1.46409E-08
 -1       864-9.02086E+05 3.96504E+01-1.30582E+03-2.96497E+03 2.78895E-08-8.44128E-09
 -1       865-9.02612E+05-3.87714E+01-2.24733E+03 2.75584E+04 2.95210E-08-1.00925E-08
 -1       866-9.01920E+05 2.82041E+02-3.89733E+03-2.79774E+03 1.02057E-08-4.73392E-09
 -1       867-9.03919E+05-2.53195E+03-8.79501E+03 2.70027E+04 1.38225E-08-6.76414E-09
 -1       868-9.00693E+05 2.31287E+03-1.50410E+04-2.40780E+03 1.48530E-08-6.27369E-09
 -1       869-9.14160E+05-2.24994E+04-3.86883E+04 2.59953E+04-1.65564E-08-1.02805E-08
 -1       870-8.91537E+05 1.87167E+04-5.78052E+04-1.78469E+03 6.46787E-09-6.47196E-09
 -1       871-5.16028E+03-2.85380E+04-7.41326E+03 1.24784E+05 3.83443E-09 1.62527E-08
 -1       872-1.99697E+03-2.97078E+04-1.97147E+03 1.42389E+05 7.43694E-09 3.46786E-08
 -1       873-2.81519E+02-2.93955E+04 2.56648E+03 1.24565E+05 7.08360E-09 1.76374E-08
 -1       874 2.73087E+03-2.74966E+04 9.01124E+03 1.42528E+05 2.90765E-09 4.81054E-09
 -1       875 1.02293E+04-3.09133E+04 1.95242E+04 1.24699E+05 5.32600E-09 3.43630E-09
 -1       876 9.42650E+05 1.08440E+05 8.96843E+04 3.69956E+05-1.15833E-08-7.33417E-09
 -1       877 9.67524E+05 1.91998E+05 5.91901E+04 3.78911E+05-1.89116E-08-7.17682E-09
 -1       878 9.59061E+05 1.35263E+05 2.11738E+04 3.66386E+05-5.96192E-09 2.38288E-09
 -1       879 9.48855E+05 1.59724E+05 1.22987E+04 3.83153E+05 3.49826E-09-5.74278E-09
 -1       880 9.60991E+05 1.39023E+05 4.96446E+03 3.66315E+05 3.08341E-09 2.11594E-09
 -1       881 9.46738E+05 1.55153E+05 2.78042E+03 3.83070E+05-1.02682E-08-1.05006E-08
 -1       882 9.61095E+05 1.39673E+05 1.42021E+03 3.66504E+05 1.24780E-08-1.53477E-10
 -1       883 9.46676E+05 1.54443E+05 1.24470E+03 3.82795E+05 2.56572E-08 3.75679E-09
 -1       884 9.61023E+05 1.39732E+05 1.55990E+03 3.66578E+05 1.37970E-08 9.64314E-09
 -1       885 9.47036E+05 1.54989E+05 3.17556E+03 3.82749E+05 1.10826E-08 2.80869E-09
 -1       886 9.60739E+05 1.39147E+05 5.74101E+03 3.66542E+05-1.00142E-08 1.47793E-09
 -1       887 9.49805E+05 1.59942E+05 1.42388E+04 3.82420E+05-3.30095E-08-6.37215E-09
 -1       888 9.58311E+05 1.34989E+05 2.45513E+04 3.66839E+05-2.92857E-09 1.59343E-09
 -1       889 9.71807E+05 1.96936E+05 6.85939E+04 3.76993E+05-2.28749E-08 2.35741E-09
 -1       890 9.39070E+05 1.04145E+05 1.03985E+05 3.71235E+05 5.30417E-09 4.22006E-09
 -1       891 4.19683E+03-4.02567E+05-1.42667E+04 8.23097E+03-1.32873E-08 2.65027E-09
 -1       892-6.90968E+03-4.07676E+05-1.23028E+04 1.22596E+05 5.17593E-09-4.07385E-09
 -1       893 1.55000E+03-4.04022E+05-9.88585E+03 8.00000E+03 5.37125E-09 1.03034E-09
 -1       894-1.13582E+04-4.09917E+05-1.90283E+04 1.22530E+05 1.06511E-08-2.42153E-09
 -1       895 8.27865E+03-4.00255E+05-2.64649E+04 8.29521E+03-8.26003E-09 1.47429E-09
 -1       896 9.77745E+05-5.48010E+03 1.67605E+04-5.12223E+01 1.49612E-10-4.99313E-10
 -1       897 9.84405E+05 6.56013E+03 1.12608E+04-1.62628E+04 1.32445E-10 9.04720E-10
 -1       898 9.80421E+05-6.94859E+02 4.36845E+03-4.63112E+02 5.93445E-11-3.53566E-10
 -1       899 9.81312E+05 7.98859E+02 2.58836E+03-1.55371E+04 1.00044E-11 2.45336E-10
 -1       900 9.80784E+05-9.21318E+01 1.17346E+03-7.76439E+02-2.18279E-11-1.81842E-10
 -1       901 9.80865E+05 1.02767E+02 7.49876E+02-1.50258E+04 4.49120E-10-1.34918E-10
 -1       902 9.80832E+05-1.76590E+01 5.59421E+02-9.74371E+02 2.61934E-10-7.64544E-11
 -1       903 9.80822E+05 6.54865E+01 7.39443E+02-1.47401E+04 2.70234E-10-1.85656E-10
 -1       904 9.80807E+05-4.42498E+01 1.20052E+03-1.06222E+03-7.27596E-11 1.19201E-10
 -1       905 9.81053E+05 4.13425E+02 2.48541E+03-1.46742E+04-3.17115E-11-2.38060E-10
 -1       906 9.80596E+05-3.46209E+02 4.52077E+03-1.04028E+03 2.58638E-10-4.51337E-10
 -1       907 9.82740E+05 3.31418E+03 1.03703E+04-1.48255E+04 8.23661E-11-2.24759E-10
 -1       908 9.79124E+05-2.76893E+03 1.77398E+04-9.10821E+02 1.71667E-11 1.81899E-11
 -1       909 9.95075E+05 2.68093E+04 4.57289E+04-1.51843E+04 1.47338E-10-6.40284E-10
 -1       910 9.68268E+05-2.21727E+04 6.82468E+04-6.82374E+02 4.24961E-10-1.96451E-10
 -1       911 3.46602E+05-3.71037E+03 1.12775E+04-1.22963E+03 2.53294E-10 4.72937E-11
 -1       912 3.51162E+05 4.44199E+03 7.59492E+03-2.07607E+04 4.52474E-10 3.54703E-11
 -1       913 3.48406E+05-4.74373E+02 2.94446E+03-1.36830E+03 1.23418E-09 7.30097E-10
 -1       914 3.49032E+05 5.71523E+02 1.76343E+03-2.05031E+04 1.73918E-09-1.30200E-10
 -1       915 3.48652E+05-6.20575E+01 8.23683E+02-1.48708E+03 2.28511E-09 5.22959E-12
 -1       916 3.48707E+05 1.13289E+02 5.78504E+02-2.03170E+04 2.08530E-09-2.22008E-09
 -1       917 3.48681E+05-1.12148E+01 5.18785E+02-1.55436E+03 1.25010E-09 4.53852E-10
 -1       918 3.48689E+05 1.12631E+02 7.95853E+02-2.02361E+04 9.28381E-10-5.60247E-10
 -1       919 3.48648E+05-4.84134E+01 1.37682E+03-1.56797E+03 1.28836E-09 1.18456E-09
 -1       920 3.48978E+05 5.23408E+02 2.90578E+03-2.02618E+04 1.60537E-09-1.37706E-09
 -1       921 3.48398E+05-4.07684E+02 5.30666E+03-1.52865E+03 4.60545E-10 5.34101E-10
 -1       922 3.50992E+05 3.93165E+03 1.21986E+04-2.03912E+04 2.28545E-09-1.12141E-09
 -1       923 3.46667E+05-3.26568E+03 2.08642E+04-1.43832E+03 4.47471E-10 1.13050E-09
 -1       924 3.65554E+05 3.15828E+04 5.38221E+04-2.05949E+04 5.66843E-10-1.63709E-10
 -1       925 3.33899E+05-2.61188E+04 8.03154E+04-1.32534E+03-3.68345E-10 4.72937E-11
 -1       926-1.30868E+06 2.28550E+04-7.02695E+04 1.64338E+02 1.12095E-10 3.63798E-11
 -1       927-1.33620E+06-2.76473E+04-4.70859E+04 7.62542E+03-6.39318E-10 1.61981E-09
 -1       928-1.31984E+06 2.85025E+03-1.82534E+04-1.42823E+02-6.41194E-11 3.21961E-10
 -1       929-1.32352E+06-3.40783E+03-1.06674E+04 8.14101E+03 6.21128E-10-6.10953E-10
 -1       930-1.32135E+06 3.56343E+02-4.65252E+03-3.51307E+02 5.69798E-10-5.58884E-10
 -1       931-1.32180E+06-4.08539E+02-2.56638E+03 8.46167E+03 5.71504E-10 9.80208E-10
 -1       932-1.32156E+06 4.69504E+01-1.25933E+03-4.63612E+02 1.55640E-09-3.32818E-10
 -1       933-1.32157E+06-5.38086E+01-8.16050E+02 8.58861E+03-5.33085E-11 6.89312E-10
 -1       934-1.32158E+06 2.12665E+01-6.86021E+02-4.78282E+02-6.43922E-10-3.05103E-10
 -1       935-1.32161E+06-1.35979E+02-1.00875E+03 8.51919E+03 2.35190E-10-2.50907E-10
 -1       936-1.32152E+06 1.22166E+02-1.65448E+03-3.94180E+02-1.92131E-10-3.37025E-10
 -1       937-1.32219E+06-1.15874E+03-3.67892E+03 8.25486E+03 6.85986E-10-2.05944E-10
 -1       938-1.32100E+06 9.73078E+02-6.25776E+03-2.13896E+02 1.03705E-09-1.28057E-09
 -1       939-1.32651E+06-9.44842E+03-1.61053E+04 7.79278E+03 7.40499E-10 2.88537E-10
 -1       940-1.31719E+06 7.80994E+03-2.40353E+04 6.79833E+01-7.45786E-11 2.06455E-10
 -1       941 3.52737E+06-1.35958E+05 4.20210E+05 8.45703E+02 2.88827E-09 3.98722E-09
 -1       942 3.69202E+06 1.64626E+05 2.81218E+05 1.14993E+03 3.26759E-09-3.09956E-09
 -1       943 3.59410E+06-1.69676E+04 1.09322E+05 1.16566E+03 1.28659E-09-1.89175E-10
 -1       944 3.61653E+06 2.03243E+04 6.39737E+04 4.88309E+02 2.90754E-11-1.63891E-09
 -1       945 3.60318E+06-2.12734E+03 2.81175E+04 1.50892E+03 1.42580E-09 1.86992E-09
 -1       946 3.60630E+06 2.51659E+03 1.58321E+04-2.39411E+02 2.79408E-09 5.71390E-09
 -1       947 3.60447E+06-2.95202E+02 8.39278E+03 1.89387E+03 8.89031E-10 3.92652E-09
 -1       948 3.60500E+06 5.39597E+02 6.62651E+03-1.08507E+03 9.16373E-10 2.39072E-09
 -1       949 3.60451E+06-2.50794E+02 7.39432E+03 2.35471E+03-1.49259E-09-5.00745E-09
 -1       950 3.60598E+06 2.04288E+03 1.31248E+04-2.12306E+03 3.40327E-09 6.17842E-09
 -1       951 3.60348E+06-1.72378E+03 2.29052E+04 2.93190E+03-1.81296E-09-4.80395E-09
 -1       952 3.61426E+06 1.64380E+04 5.18556E+04-3.44794E+03-6.46480E-10-1.20872E-09
 -1       953 3.59613E+06-1.37350E+04 8.85078E+04 3.67861E+03-1.78852E-09-6.58474E-10
 -1       954 3.67538E+06 1.33219E+05 2.27621E+05-5.23287E+03-6.54109E-09 2.25555E-10
 -1       955 3.54208E+06-1.10057E+05 3.39989E+05 4.70176E+03-2.77146E-09-1.10595E-09
 -1       956-2.49937E+05-4.62667E+03-8.69369E+03 5.87852E+04-6.74117E-09 5.19140E-09
 -1       957-2.51456E+05-1.35298E+03-4.33002E+03 6.65275E+04-1.02864E-09 2.81261E-09
 -1       958-2.50683E+05-8.95230E+01-1.94694E+03 5.84109E+04 1.02045E-08 1.13459E-10
 -1       959-2.50891E+05 1.66364E+02-9.81935E+02 6.69361E+04-3.73802E-09 2.96859E-09
 -1       960-2.50849E+05 2.28320E+02-4.75794E+02 5.83673E+04-1.08503E-08 2.53704E-09
 -1       961-2.50924E+05 2.99917E+02-2.43684E+02 6.69846E+04-2.11076E-08 5.37148E-09
 -1       962-2.50936E+05 2.77473E+02-1.29365E+02 5.83608E+04-8.06176E-09 3.53384E-09
 -1       963-2.50989E+05 3.40401E+02-8.11284E+01 6.69928E+04-2.06569E-08 4.01178E-09
 -1       964-2.50990E+05 3.07532E+02-7.37992E+01 5.83582E+04 1.06993E-08 3.35604E-09
 -1       965-2.51037E+05 3.64792E+02-1.05021E+02 6.69941E+04 4.60261E-08 5.59203E-09
 -1       966-2.51015E+05 3.23111E+02-1.86370E+02 5.83590E+04 8.20523E-09 2.74304E-09
 -1       967-2.51081E+05 3.44289E+02-3.79026E+02 6.69800E+04-1.27781E-09 3.15458E-09
 -1       968-2.50992E+05 2.25889E+02-7.45923E+02 5.83724E+04 5.00700E-09 2.05591E-09
 -1       969-2.51336E+05-2.21667E+02-1.66371E+03 6.68497E+04 5.92809E-09 4.59295E-09
 -1       970-2.50725E+05-1.51135E+03-3.33817E+03 5.84955E+04 1.19603E-08 3.61570E-09
 -1       971-1.05787E+06 2.49269E+04-7.69626E+04-1.90010E+03-7.96172E-09 2.04818E-09
 -1       972-1.08786E+06-3.01050E+04-5.15108E+04 2.24641E+04-1.58061E-08 5.34783E-09
 -1       973-1.07007E+06 3.07171E+03-2.00241E+04-2.77417E+03-1.40199E-08-7.51243E-10
 -1       974-1.07418E+06-3.52491E+03-1.16918E+04 2.39590E+04 9.35142E-09 4.64001E-09
 -1       975-1.07170E+06 3.64100E+02-5.16656E+03-3.40045E+03 2.82989E-09-2.25259E-09
 -1       976-1.07245E+06-1.98367E+02-2.92917E+03 2.49590E+04-2.41089E-08 6.62612E-09
 -1       977-1.07193E+06 4.23389E+01-1.62631E+03-3.77612E+03 2.37810E-08-3.38144E-09
 -1       978-1.07230E+06 1.78606E+02-1.40761E+03 2.54549E+04 4.55057E-08 3.19716E-09
 -1       979-1.07192E+06 5.18241E+01-1.73411E+03-3.89698E+03 2.73784E-08-4.57189E-09
 -1       980-1.07256E+06-2.23506E+02-3.23693E+03 2.54374E+04 3.23319E-08 3.39867E-09
 -1       981-1.07166E+06 4.22770E+02-5.73871E+03-3.75848E+03-3.34830E-09-2.46314E-09
 -1       982-1.07458E+06-3.91010E+03-1.30595E+04 2.49091E+04-9.86927E-09 4.81987E-09
 -1       983-1.06983E+06 3.45764E+03-2.23384E+04-3.36695E+03 5.49153E-09-3.20506E-09
 -1       984-1.08994E+06-3.35754E+04-5.75449E+04 2.38881E+04 5.18503E-09 4.58658E-09
 -1       985-1.05620E+06 2.78815E+04-8.59208E+04-2.72933E+03 1.60016E-08-3.02316E-09
 -3
 9999
