    1C
    1UUSER                                                              
    1UDATE              11.october.2022                                 
    1UTIME              18:40:22                                        
    1UHOST                                                              
    1UPGM               CalculiX                                        
    1UVERSION           Version 2.20                             
    1UCOMPILETIME       Sun Jul 31 18:08:37 CEST 2022                    
    1UDIR                                                               
    1UDBN                                                               
    1UMAT    1MESH_MATERIAL                                             
    2C                           409                                     1
 -1         1 0.00000E+00 0.00000E+00 0.00000E+00
 -1         2 1.66667E-02 0.00000E+00 0.00000E+00
 -1         3 3.33333E-02 0.00000E+00 0.00000E+00
 -1         5 6.66667E-02 0.00000E+00 0.00000E+00
 -1         8 0.00000E+00 6.25000E-03 0.00000E+00
 -1         9 1.66667E-02 6.25000E-03 0.00000E+00
 -1        10 3.33333E-02 6.25000E-03 0.00000E+00
 -1        12 6.66667E-02 6.25000E-03 0.00000E+00
 -1        15 0.00000E+00 1.25000E-02 0.00000E+00
 -1        16 1.66667E-02 1.25000E-02 0.00000E+00
 -1        17 3.33333E-02 1.25000E-02 0.00000E+00
 -1        18 5.00000E-02 1.25000E-02 0.00000E+00
 -1        19 6.66667E-02 1.25000E-02 0.00000E+00
 -1        20 8.33333E-02 1.25000E-02 0.00000E+00
 -1        21 1.00000E-01 1.25000E-02 0.00000E+00
 -1        24 3.33333E-02 1.87500E-02 0.00000E+00
 -1        25 5.00000E-02 1.87500E-02 0.00000E+00
 -1        26 6.66667E-02 1.87500E-02 0.00000E+00
 -1        27 8.33333E-02 1.87500E-02 0.00000E+00
 -1        28 1.00000E-01 1.87500E-02 0.00000E+00
 -1        32 5.00000E-02 2.50000E-02 0.00000E+00
 -1        33 6.66667E-02 2.50000E-02 0.00000E+00
 -1        34 8.33333E-02 2.50000E-02 0.00000E+00
 -1        35 1.00000E-01 2.50000E-02 0.00000E+00
 -1        51 0.00000E+00 1.04167E-03 0.00000E+00
 -1        52 0.00000E+00 2.08333E-03 0.00000E+00
 -1        53 0.00000E+00 3.12500E-03 0.00000E+00
 -1        54 0.00000E+00 4.16667E-03 0.00000E+00
 -1        55 0.00000E+00 5.20833E-03 0.00000E+00
 -1        56 1.04167E-03 3.90630E-04 0.00000E+00
 -1        57 2.08333E-03 7.81250E-04 0.00000E+00
 -1        58 3.12500E-03 1.17188E-03 0.00000E+00
 -1        59 4.16667E-03 1.56250E-03 0.00000E+00
 -1        60 5.20833E-03 1.95312E-03 0.00000E+00
 -1        61 6.25000E-03 2.34375E-03 0.00000E+00
 -1        62 7.29167E-03 2.73438E-03 0.00000E+00
 -1        63 8.33333E-03 3.12500E-03 0.00000E+00
 -1        64 9.37500E-03 3.51563E-03 0.00000E+00
 -1        65 1.04167E-02 3.90625E-03 0.00000E+00
 -1        66 1.14583E-02 4.29688E-03 0.00000E+00
 -1        67 1.25000E-02 4.68750E-03 0.00000E+00
 -1        68 1.35417E-02 5.07813E-03 0.00000E+00
 -1        69 1.45833E-02 5.46875E-03 0.00000E+00
 -1        70 1.56250E-02 5.85938E-03 0.00000E+00
 -1        86 1.66667E-02 1.04167E-03 0.00000E+00
 -1        87 1.66667E-02 2.08333E-03 0.00000E+00
 -1        88 1.66667E-02 3.12500E-03 0.00000E+00
 -1        89 1.66667E-02 4.16667E-03 0.00000E+00
 -1        90 1.66667E-02 5.20833E-03 0.00000E+00
 -1       121 3.33333E-02 1.04167E-03 0.00000E+00
 -1       122 3.33333E-02 2.08333E-03 0.00000E+00
 -1       123 3.33333E-02 3.12500E-03 0.00000E+00
 -1       124 3.33333E-02 4.16667E-03 0.00000E+00
 -1       125 3.33333E-02 5.20833E-03 0.00000E+00
 -1       191 6.66667E-02 1.04167E-03 0.00000E+00
 -1       192 6.66667E-02 2.08333E-03 0.00000E+00
 -1       193 6.66667E-02 3.12500E-03 0.00000E+00
 -1       194 6.66667E-02 4.16667E-03 0.00000E+00
 -1       195 6.66667E-02 5.20833E-03 0.00000E+00
 -1       251 1.04167E-03 6.25000E-03 0.00000E+00
 -1       252 2.08333E-03 6.25000E-03 0.00000E+00
 -1       253 3.12500E-03 6.25000E-03 0.00000E+00
 -1       254 4.16667E-03 6.25000E-03 0.00000E+00
 -1       255 5.20833E-03 6.25000E-03 0.00000E+00
 -1       256 6.25000E-03 6.25000E-03 0.00000E+00
 -1       257 7.29167E-03 6.25000E-03 0.00000E+00
 -1       258 8.33333E-03 6.25000E-03 0.00000E+00
 -1       259 9.37500E-03 6.25000E-03 0.00000E+00
 -1       260 1.04167E-02 6.25000E-03 0.00000E+00
 -1       261 1.14583E-02 6.25000E-03 0.00000E+00
 -1       262 1.25000E-02 6.25000E-03 0.00000E+00
 -1       263 1.35417E-02 6.25000E-03 0.00000E+00
 -1       264 1.45833E-02 6.25000E-03 0.00000E+00
 -1       265 1.56250E-02 6.25000E-03 0.00000E+00
 -1       266 0.00000E+00 7.29167E-03 0.00000E+00
 -1       267 0.00000E+00 8.33333E-03 0.00000E+00
 -1       268 0.00000E+00 9.37500E-03 0.00000E+00
 -1       269 0.00000E+00 1.04167E-02 0.00000E+00
 -1       270 0.00000E+00 1.14583E-02 0.00000E+00
 -1       271 1.04167E-03 6.64063E-03 0.00000E+00
 -1       272 2.08333E-03 7.03125E-03 0.00000E+00
 -1       273 3.12500E-03 7.42188E-03 0.00000E+00
 -1       274 4.16667E-03 7.81250E-03 0.00000E+00
 -1       275 5.20833E-03 8.20313E-03 0.00000E+00
 -1       276 6.25000E-03 8.59375E-03 0.00000E+00
 -1       277 7.29167E-03 8.98438E-03 0.00000E+00
 -1       278 8.33333E-03 9.37500E-03 0.00000E+00
 -1       279 9.37500E-03 9.76562E-03 0.00000E+00
 -1       280 1.04167E-02 1.01562E-02 0.00000E+00
 -1       281 1.14583E-02 1.05469E-02 0.00000E+00
 -1       282 1.25000E-02 1.09375E-02 0.00000E+00
 -1       283 1.35417E-02 1.13281E-02 0.00000E+00
 -1       284 1.45833E-02 1.17188E-02 0.00000E+00
 -1       285 1.56250E-02 1.21094E-02 0.00000E+00
 -1       301 1.66667E-02 7.29167E-03 0.00000E+00
 -1       302 1.66667E-02 8.33333E-03 0.00000E+00
 -1       303 1.66667E-02 9.37500E-03 0.00000E+00
 -1       304 1.66667E-02 1.04167E-02 0.00000E+00
 -1       305 1.66667E-02 1.14583E-02 0.00000E+00
 -1       306 1.77083E-02 6.64063E-03 0.00000E+00
 -1       307 1.87500E-02 7.03125E-03 0.00000E+00
 -1       308 1.97917E-02 7.42188E-03 0.00000E+00
 -1       309 2.08333E-02 7.81250E-03 0.00000E+00
 -1       310 2.18750E-02 8.20313E-03 0.00000E+00
 -1       311 2.29167E-02 8.59375E-03 0.00000E+00
 -1       312 2.39583E-02 8.98438E-03 0.00000E+00
 -1       313 2.50000E-02 9.37500E-03 0.00000E+00
 -1       314 2.60417E-02 9.76562E-03 0.00000E+00
 -1       315 2.70833E-02 1.01562E-02 0.00000E+00
 -1       316 2.81250E-02 1.05469E-02 0.00000E+00
 -1       317 2.91667E-02 1.09375E-02 0.00000E+00
 -1       318 3.02083E-02 1.13281E-02 0.00000E+00
 -1       319 3.12500E-02 1.17188E-02 0.00000E+00
 -1       320 3.22917E-02 1.21094E-02 0.00000E+00
 -1       336 3.33333E-02 7.29167E-03 0.00000E+00
 -1       337 3.33333E-02 8.33333E-03 0.00000E+00
 -1       338 3.33333E-02 9.37500E-03 0.00000E+00
 -1       339 3.33333E-02 1.04167E-02 0.00000E+00
 -1       340 3.33333E-02 1.14583E-02 0.00000E+00
 -1       406 6.66667E-02 7.29167E-03 0.00000E+00
 -1       407 6.66667E-02 8.33333E-03 0.00000E+00
 -1       408 6.66667E-02 9.37500E-03 0.00000E+00
 -1       409 6.66667E-02 1.04167E-02 0.00000E+00
 -1       410 6.66667E-02 1.14583E-02 0.00000E+00
 -1       521 1.77083E-02 1.28906E-02 0.00000E+00
 -1       522 1.87500E-02 1.32813E-02 0.00000E+00
 -1       523 1.97917E-02 1.36719E-02 0.00000E+00
 -1       524 2.08333E-02 1.40625E-02 0.00000E+00
 -1       525 2.18750E-02 1.44531E-02 0.00000E+00
 -1       526 2.29167E-02 1.48437E-02 0.00000E+00
 -1       527 2.39583E-02 1.52344E-02 0.00000E+00
 -1       528 2.50000E-02 1.56250E-02 0.00000E+00
 -1       529 2.60417E-02 1.60156E-02 0.00000E+00
 -1       530 2.70833E-02 1.64062E-02 0.00000E+00
 -1       531 2.81250E-02 1.67969E-02 0.00000E+00
 -1       532 2.91667E-02 1.71875E-02 0.00000E+00
 -1       533 3.02083E-02 1.75781E-02 0.00000E+00
 -1       534 3.12500E-02 1.79687E-02 0.00000E+00
 -1       535 3.22917E-02 1.83594E-02 0.00000E+00
 -1       536 3.43750E-02 1.25000E-02 0.00000E+00
 -1       537 3.54167E-02 1.25000E-02 0.00000E+00
 -1       538 3.64583E-02 1.25000E-02 0.00000E+00
 -1       539 3.75000E-02 1.25000E-02 0.00000E+00
 -1       540 3.85417E-02 1.25000E-02 0.00000E+00
 -1       541 3.95833E-02 1.25000E-02 0.00000E+00
 -1       542 4.06250E-02 1.25000E-02 0.00000E+00
 -1       543 4.16667E-02 1.25000E-02 0.00000E+00
 -1       544 4.27083E-02 1.25000E-02 0.00000E+00
 -1       545 4.37500E-02 1.25000E-02 0.00000E+00
 -1       546 4.47917E-02 1.25000E-02 0.00000E+00
 -1       547 4.58333E-02 1.25000E-02 0.00000E+00
 -1       548 4.68750E-02 1.25000E-02 0.00000E+00
 -1       549 4.79167E-02 1.25000E-02 0.00000E+00
 -1       550 4.89583E-02 1.25000E-02 0.00000E+00
 -1       551 3.33333E-02 1.35417E-02 0.00000E+00
 -1       552 3.33333E-02 1.45833E-02 0.00000E+00
 -1       553 3.33333E-02 1.56250E-02 0.00000E+00
 -1       554 3.33333E-02 1.66667E-02 0.00000E+00
 -1       555 3.33333E-02 1.77083E-02 0.00000E+00
 -1       556 3.43750E-02 1.28906E-02 0.00000E+00
 -1       557 3.54167E-02 1.32813E-02 0.00000E+00
 -1       558 3.64583E-02 1.36719E-02 0.00000E+00
 -1       559 3.75000E-02 1.40625E-02 0.00000E+00
 -1       560 3.85417E-02 1.44531E-02 0.00000E+00
 -1       561 3.95833E-02 1.48437E-02 0.00000E+00
 -1       562 4.06250E-02 1.52344E-02 0.00000E+00
 -1       563 4.16667E-02 1.56250E-02 0.00000E+00
 -1       564 4.27083E-02 1.60156E-02 0.00000E+00
 -1       565 4.37500E-02 1.64062E-02 0.00000E+00
 -1       566 4.47917E-02 1.67969E-02 0.00000E+00
 -1       567 4.58333E-02 1.71875E-02 0.00000E+00
 -1       568 4.68750E-02 1.75781E-02 0.00000E+00
 -1       569 4.79167E-02 1.79687E-02 0.00000E+00
 -1       570 4.89583E-02 1.83594E-02 0.00000E+00
 -1       571 5.10417E-02 1.25000E-02 0.00000E+00
 -1       572 5.20833E-02 1.25000E-02 0.00000E+00
 -1       573 5.31250E-02 1.25000E-02 0.00000E+00
 -1       574 5.41667E-02 1.25000E-02 0.00000E+00
 -1       575 5.52083E-02 1.25000E-02 0.00000E+00
 -1       576 5.62500E-02 1.25000E-02 0.00000E+00
 -1       577 5.72917E-02 1.25000E-02 0.00000E+00
 -1       578 5.83333E-02 1.25000E-02 0.00000E+00
 -1       579 5.93750E-02 1.25000E-02 0.00000E+00
 -1       580 6.04167E-02 1.25000E-02 0.00000E+00
 -1       581 6.14583E-02 1.25000E-02 0.00000E+00
 -1       582 6.25000E-02 1.25000E-02 0.00000E+00
 -1       583 6.35417E-02 1.25000E-02 0.00000E+00
 -1       584 6.45833E-02 1.25000E-02 0.00000E+00
 -1       585 6.56250E-02 1.25000E-02 0.00000E+00
 -1       586 5.00000E-02 1.35417E-02 0.00000E+00
 -1       587 5.00000E-02 1.45833E-02 0.00000E+00
 -1       588 5.00000E-02 1.56250E-02 0.00000E+00
 -1       589 5.00000E-02 1.66667E-02 0.00000E+00
 -1       590 5.00000E-02 1.77083E-02 0.00000E+00
 -1       591 5.10417E-02 1.28906E-02 0.00000E+00
 -1       592 5.20833E-02 1.32813E-02 0.00000E+00
 -1       593 5.31250E-02 1.36719E-02 0.00000E+00
 -1       594 5.41667E-02 1.40625E-02 0.00000E+00
 -1       595 5.52083E-02 1.44531E-02 0.00000E+00
 -1       596 5.62500E-02 1.48437E-02 0.00000E+00
 -1       597 5.72917E-02 1.52344E-02 0.00000E+00
 -1       598 5.83333E-02 1.56250E-02 0.00000E+00
 -1       599 5.93750E-02 1.60156E-02 0.00000E+00
 -1       600 6.04167E-02 1.64062E-02 0.00000E+00
 -1       601 6.14583E-02 1.67969E-02 0.00000E+00
 -1       602 6.25000E-02 1.71875E-02 0.00000E+00
 -1       603 6.35417E-02 1.75781E-02 0.00000E+00
 -1       604 6.45833E-02 1.79687E-02 0.00000E+00
 -1       605 6.56250E-02 1.83594E-02 0.00000E+00
 -1       606 6.77083E-02 1.25000E-02 0.00000E+00
 -1       607 6.87500E-02 1.25000E-02 0.00000E+00
 -1       608 6.97917E-02 1.25000E-02 0.00000E+00
 -1       609 7.08333E-02 1.25000E-02 0.00000E+00
 -1       610 7.18750E-02 1.25000E-02 0.00000E+00
 -1       611 7.29167E-02 1.25000E-02 0.00000E+00
 -1       612 7.39583E-02 1.25000E-02 0.00000E+00
 -1       613 7.50000E-02 1.25000E-02 0.00000E+00
 -1       614 7.60417E-02 1.25000E-02 0.00000E+00
 -1       615 7.70833E-02 1.25000E-02 0.00000E+00
 -1       616 7.81250E-02 1.25000E-02 0.00000E+00
 -1       617 7.91667E-02 1.25000E-02 0.00000E+00
 -1       618 8.02083E-02 1.25000E-02 0.00000E+00
 -1       619 8.12500E-02 1.25000E-02 0.00000E+00
 -1       620 8.22917E-02 1.25000E-02 0.00000E+00
 -1       621 6.66667E-02 1.35417E-02 0.00000E+00
 -1       622 6.66667E-02 1.45833E-02 0.00000E+00
 -1       623 6.66667E-02 1.56250E-02 0.00000E+00
 -1       624 6.66667E-02 1.66667E-02 0.00000E+00
 -1       625 6.66667E-02 1.77083E-02 0.00000E+00
 -1       626 6.77083E-02 1.28906E-02 0.00000E+00
 -1       627 6.87500E-02 1.32813E-02 0.00000E+00
 -1       628 6.97917E-02 1.36719E-02 0.00000E+00
 -1       629 7.08333E-02 1.40625E-02 0.00000E+00
 -1       630 7.18750E-02 1.44531E-02 0.00000E+00
 -1       631 7.29167E-02 1.48437E-02 0.00000E+00
 -1       632 7.39583E-02 1.52344E-02 0.00000E+00
 -1       633 7.50000E-02 1.56250E-02 0.00000E+00
 -1       634 7.60417E-02 1.60156E-02 0.00000E+00
 -1       635 7.70833E-02 1.64062E-02 0.00000E+00
 -1       636 7.81250E-02 1.67969E-02 0.00000E+00
 -1       637 7.91667E-02 1.71875E-02 0.00000E+00
 -1       638 8.02083E-02 1.75781E-02 0.00000E+00
 -1       639 8.12500E-02 1.79687E-02 0.00000E+00
 -1       640 8.22917E-02 1.83594E-02 0.00000E+00
 -1       656 8.33333E-02 1.35417E-02 0.00000E+00
 -1       657 8.33333E-02 1.45833E-02 0.00000E+00
 -1       658 8.33333E-02 1.56250E-02 0.00000E+00
 -1       659 8.33333E-02 1.66667E-02 0.00000E+00
 -1       660 8.33333E-02 1.77083E-02 0.00000E+00
 -1       661 8.43750E-02 1.28906E-02 0.00000E+00
 -1       662 8.54167E-02 1.32813E-02 0.00000E+00
 -1       663 8.64583E-02 1.36719E-02 0.00000E+00
 -1       664 8.75000E-02 1.40625E-02 0.00000E+00
 -1       665 8.85417E-02 1.44531E-02 0.00000E+00
 -1       666 8.95833E-02 1.48437E-02 0.00000E+00
 -1       667 9.06250E-02 1.52344E-02 0.00000E+00
 -1       668 9.16667E-02 1.56250E-02 0.00000E+00
 -1       669 9.27083E-02 1.60156E-02 0.00000E+00
 -1       670 9.37500E-02 1.64062E-02 0.00000E+00
 -1       671 9.47917E-02 1.67969E-02 0.00000E+00
 -1       672 9.58333E-02 1.71875E-02 0.00000E+00
 -1       673 9.68750E-02 1.75781E-02 0.00000E+00
 -1       674 9.79167E-02 1.79687E-02 0.00000E+00
 -1       675 9.89583E-02 1.83594E-02 0.00000E+00
 -1       676 1.00000E-01 1.35417E-02 0.00000E+00
 -1       677 1.00000E-01 1.45833E-02 0.00000E+00
 -1       678 1.00000E-01 1.56250E-02 0.00000E+00
 -1       679 1.00000E-01 1.66667E-02 0.00000E+00
 -1       680 1.00000E-01 1.77083E-02 0.00000E+00
 -1       771 3.43750E-02 1.91406E-02 0.00000E+00
 -1       772 3.54167E-02 1.95312E-02 0.00000E+00
 -1       773 3.64583E-02 1.99219E-02 0.00000E+00
 -1       774 3.75000E-02 2.03125E-02 0.00000E+00
 -1       775 3.85417E-02 2.07031E-02 0.00000E+00
 -1       776 3.95833E-02 2.10938E-02 0.00000E+00
 -1       777 4.06250E-02 2.14844E-02 0.00000E+00
 -1       778 4.16667E-02 2.18750E-02 0.00000E+00
 -1       779 4.27083E-02 2.22656E-02 0.00000E+00
 -1       780 4.37500E-02 2.26563E-02 0.00000E+00
 -1       781 4.47917E-02 2.30469E-02 0.00000E+00
 -1       782 4.58333E-02 2.34375E-02 0.00000E+00
 -1       783 4.68750E-02 2.38281E-02 0.00000E+00
 -1       784 4.79167E-02 2.42187E-02 0.00000E+00
 -1       785 4.89583E-02 2.46094E-02 0.00000E+00
 -1       786 5.10417E-02 1.87500E-02 0.00000E+00
 -1       787 5.20833E-02 1.87500E-02 0.00000E+00
 -1       788 5.31250E-02 1.87500E-02 0.00000E+00
 -1       789 5.41667E-02 1.87500E-02 0.00000E+00
 -1       790 5.52083E-02 1.87500E-02 0.00000E+00
 -1       791 5.62500E-02 1.87500E-02 0.00000E+00
 -1       792 5.72917E-02 1.87500E-02 0.00000E+00
 -1       793 5.83333E-02 1.87500E-02 0.00000E+00
 -1       794 5.93750E-02 1.87500E-02 0.00000E+00
 -1       795 6.04167E-02 1.87500E-02 0.00000E+00
 -1       796 6.14583E-02 1.87500E-02 0.00000E+00
 -1       797 6.25000E-02 1.87500E-02 0.00000E+00
 -1       798 6.35417E-02 1.87500E-02 0.00000E+00
 -1       799 6.45833E-02 1.87500E-02 0.00000E+00
 -1       800 6.56250E-02 1.87500E-02 0.00000E+00
 -1       801 5.00000E-02 1.97917E-02 0.00000E+00
 -1       802 5.00000E-02 2.08333E-02 0.00000E+00
 -1       803 5.00000E-02 2.18750E-02 0.00000E+00
 -1       804 5.00000E-02 2.29167E-02 0.00000E+00
 -1       805 5.00000E-02 2.39583E-02 0.00000E+00
 -1       806 5.10417E-02 1.91406E-02 0.00000E+00
 -1       807 5.20833E-02 1.95312E-02 0.00000E+00
 -1       808 5.31250E-02 1.99219E-02 0.00000E+00
 -1       809 5.41667E-02 2.03125E-02 0.00000E+00
 -1       810 5.52083E-02 2.07031E-02 0.00000E+00
 -1       811 5.62500E-02 2.10938E-02 0.00000E+00
 -1       812 5.72917E-02 2.14844E-02 0.00000E+00
 -1       813 5.83333E-02 2.18750E-02 0.00000E+00
 -1       814 5.93750E-02 2.22656E-02 0.00000E+00
 -1       815 6.04167E-02 2.26563E-02 0.00000E+00
 -1       816 6.14583E-02 2.30469E-02 0.00000E+00
 -1       817 6.25000E-02 2.34375E-02 0.00000E+00
 -1       818 6.35417E-02 2.38281E-02 0.00000E+00
 -1       819 6.45833E-02 2.42187E-02 0.00000E+00
 -1       820 6.56250E-02 2.46094E-02 0.00000E+00
 -1       821 6.77083E-02 1.87500E-02 0.00000E+00
 -1       822 6.87500E-02 1.87500E-02 0.00000E+00
 -1       823 6.97917E-02 1.87500E-02 0.00000E+00
 -1       824 7.08333E-02 1.87500E-02 0.00000E+00
 -1       825 7.18750E-02 1.87500E-02 0.00000E+00
 -1       826 7.29167E-02 1.87500E-02 0.00000E+00
 -1       827 7.39583E-02 1.87500E-02 0.00000E+00
 -1       828 7.50000E-02 1.87500E-02 0.00000E+00
 -1       829 7.60417E-02 1.87500E-02 0.00000E+00
 -1       830 7.70833E-02 1.87500E-02 0.00000E+00
 -1       831 7.81250E-02 1.87500E-02 0.00000E+00
 -1       832 7.91667E-02 1.87500E-02 0.00000E+00
 -1       833 8.02083E-02 1.87500E-02 0.00000E+00
 -1       834 8.12500E-02 1.87500E-02 0.00000E+00
 -1       835 8.22917E-02 1.87500E-02 0.00000E+00
 -1       836 6.66667E-02 1.97917E-02 0.00000E+00
 -1       837 6.66667E-02 2.08333E-02 0.00000E+00
 -1       838 6.66667E-02 2.18750E-02 0.00000E+00
 -1       839 6.66667E-02 2.29167E-02 0.00000E+00
 -1       840 6.66667E-02 2.39583E-02 0.00000E+00
 -1       856 8.43750E-02 1.87500E-02 0.00000E+00
 -1       857 8.54167E-02 1.87500E-02 0.00000E+00
 -1       858 8.64583E-02 1.87500E-02 0.00000E+00
 -1       859 8.75000E-02 1.87500E-02 0.00000E+00
 -1       860 8.85417E-02 1.87500E-02 0.00000E+00
 -1       861 8.95833E-02 1.87500E-02 0.00000E+00
 -1       862 9.06250E-02 1.87500E-02 0.00000E+00
 -1       863 9.16667E-02 1.87500E-02 0.00000E+00
 -1       864 9.27083E-02 1.87500E-02 0.00000E+00
 -1       865 9.37500E-02 1.87500E-02 0.00000E+00
 -1       866 9.47917E-02 1.87500E-02 0.00000E+00
 -1       867 9.58333E-02 1.87500E-02 0.00000E+00
 -1       868 9.68750E-02 1.87500E-02 0.00000E+00
 -1       869 9.79167E-02 1.87500E-02 0.00000E+00
 -1       870 9.89583E-02 1.87500E-02 0.00000E+00
 -1       871 8.33333E-02 1.97917E-02 0.00000E+00
 -1       872 8.33333E-02 2.08333E-02 0.00000E+00
 -1       873 8.33333E-02 2.18750E-02 0.00000E+00
 -1       874 8.33333E-02 2.29167E-02 0.00000E+00
 -1       875 8.33333E-02 2.39583E-02 0.00000E+00
 -1       876 8.43750E-02 1.91406E-02 0.00000E+00
 -1       877 8.54167E-02 1.95312E-02 0.00000E+00
 -1       878 8.64583E-02 1.99219E-02 0.00000E+00
 -1       879 8.75000E-02 2.03125E-02 0.00000E+00
 -1       880 8.85417E-02 2.07031E-02 0.00000E+00
 -1       881 8.95833E-02 2.10938E-02 0.00000E+00
 -1       882 9.06250E-02 2.14844E-02 0.00000E+00
 -1       883 9.16667E-02 2.18750E-02 0.00000E+00
 -1       884 9.27083E-02 2.22656E-02 0.00000E+00
 -1       885 9.37500E-02 2.26563E-02 0.00000E+00
 -1       886 9.47917E-02 2.30469E-02 0.00000E+00
 -1       887 9.58333E-02 2.34375E-02 0.00000E+00
 -1       888 9.68750E-02 2.38281E-02 0.00000E+00
 -1       889 9.79167E-02 2.42187E-02 0.00000E+00
 -1       890 9.89583E-02 2.46094E-02 0.00000E+00
 -1       891 1.00000E-01 1.97917E-02 0.00000E+00
 -1       892 1.00000E-01 2.08333E-02 0.00000E+00
 -1       893 1.00000E-01 2.18750E-02 0.00000E+00
 -1       894 1.00000E-01 2.29167E-02 0.00000E+00
 -1       895 1.00000E-01 2.39583E-02 0.00000E+00
 -1       956 6.77083E-02 2.50000E-02 0.00000E+00
 -1       957 6.87500E-02 2.50000E-02 0.00000E+00
 -1       958 6.97917E-02 2.50000E-02 0.00000E+00
 -1       959 7.08333E-02 2.50000E-02 0.00000E+00
 -1       960 7.18750E-02 2.50000E-02 0.00000E+00
 -1       961 7.29167E-02 2.50000E-02 0.00000E+00
 -1       962 7.39583E-02 2.50000E-02 0.00000E+00
 -1       963 7.50000E-02 2.50000E-02 0.00000E+00
 -1       964 7.60417E-02 2.50000E-02 0.00000E+00
 -1       965 7.70833E-02 2.50000E-02 0.00000E+00
 -1       966 7.81250E-02 2.50000E-02 0.00000E+00
 -1       967 7.91667E-02 2.50000E-02 0.00000E+00
 -1       968 8.02083E-02 2.50000E-02 0.00000E+00
 -1       969 8.12500E-02 2.50000E-02 0.00000E+00
 -1       970 8.22917E-02 2.50000E-02 0.00000E+00
 -1       971 8.43750E-02 2.50000E-02 0.00000E+00
 -1       972 8.54167E-02 2.50000E-02 0.00000E+00
 -1       973 8.64583E-02 2.50000E-02 0.00000E+00
 -1       974 8.75000E-02 2.50000E-02 0.00000E+00
 -1       975 8.85417E-02 2.50000E-02 0.00000E+00
 -1       976 8.95833E-02 2.50000E-02 0.00000E+00
 -1       977 9.06250E-02 2.50000E-02 0.00000E+00
 -1       978 9.16667E-02 2.50000E-02 0.00000E+00
 -1       979 9.27083E-02 2.50000E-02 0.00000E+00
 -1       980 9.37500E-02 2.50000E-02 0.00000E+00
 -1       981 9.47917E-02 2.50000E-02 0.00000E+00
 -1       982 9.58333E-02 2.50000E-02 0.00000E+00
 -1       983 9.68750E-02 2.50000E-02 0.00000E+00
 -1       984 9.79167E-02 2.50000E-02 0.00000E+00
 -1       985 9.89583E-02 2.50000E-02 0.00000E+00
 -3
    3C                           211                                     1
 -1         1   12    0    1
 -2         1        52        51
 -1         2   12    0    1
 -2        52        54        53
 -1         3   12    0    1
 -2        54         8        55
 -1         4   12    0    1
 -2         1        57        56
 -1         5   12    0    1
 -2        57        59        58
 -1         6   12    0    1
 -2        59        61        60
 -1         7   12    0    1
 -2        61        63        62
 -1         8   12    0    1
 -2        63        65        64
 -1         9   12    0    1
 -2        65        67        66
 -1        10   12    0    1
 -2        67        69        68
 -1        11   12    0    1
 -2        69         9        70
 -1        12   12    0    1
 -2         2        87        86
 -1        13   12    0    1
 -2        87        89        88
 -1        14   12    0    1
 -2        89         9        90
 -1        15   12    0    1
 -2         3       122       121
 -1        16   12    0    1
 -2       122       124       123
 -1        17   12    0    1
 -2       124        10       125
 -1        18   12    0    1
 -2         5       192       191
 -1        19   12    0    1
 -2       192       194       193
 -1        20   12    0    1
 -2       194        12       195
 -1        21   12    0    1
 -2         8       252       251
 -1        22   12    0    1
 -2       252       254       253
 -1        23   12    0    1
 -2       254       256       255
 -1        24   12    0    1
 -2       256       258       257
 -1        25   12    0    1
 -2       258       260       259
 -1        26   12    0    1
 -2       260       262       261
 -1        27   12    0    1
 -2       262       264       263
 -1        28   12    0    1
 -2       264         9       265
 -1        29   12    0    1
 -2         8       267       266
 -1        30   12    0    1
 -2       267       269       268
 -1        31   12    0    1
 -2       269        15       270
 -1        32   12    0    1
 -2         8       272       271
 -1        33   12    0    1
 -2       272       274       273
 -1        34   12    0    1
 -2       274       276       275
 -1        35   12    0    1
 -2       276       278       277
 -1        36   12    0    1
 -2       278       280       279
 -1        37   12    0    1
 -2       280       282       281
 -1        38   12    0    1
 -2       282       284       283
 -1        39   12    0    1
 -2       284        16       285
 -1        40   12    0    1
 -2         9       302       301
 -1        41   12    0    1
 -2       302       304       303
 -1        42   12    0    1
 -2       304        16       305
 -1        43   12    0    1
 -2         9       307       306
 -1        44   12    0    1
 -2       307       309       308
 -1        45   12    0    1
 -2       309       311       310
 -1        46   12    0    1
 -2       311       313       312
 -1        47   12    0    1
 -2       313       315       314
 -1        48   12    0    1
 -2       315       317       316
 -1        49   12    0    1
 -2       317       319       318
 -1        50   12    0    1
 -2       319        17       320
 -1        51   12    0    1
 -2        10       337       336
 -1        52   12    0    1
 -2       337       339       338
 -1        53   12    0    1
 -2       339        17       340
 -1        54   12    0    1
 -2        12       407       406
 -1        55   12    0    1
 -2       407       409       408
 -1        56   12    0    1
 -2       409        19       410
 -1        57   12    0    1
 -2        16       522       521
 -1        58   12    0    1
 -2       522       524       523
 -1        59   12    0    1
 -2       524       526       525
 -1        60   12    0    1
 -2       526       528       527
 -1        61   12    0    1
 -2       528       530       529
 -1        62   12    0    1
 -2       530       532       531
 -1        63   12    0    1
 -2       532       534       533
 -1        64   12    0    1
 -2       534        24       535
 -1        65   12    0    1
 -2        17       537       536
 -1        66   12    0    1
 -2       537       539       538
 -1        67   12    0    1
 -2       539       541       540
 -1        68   12    0    1
 -2       541       543       542
 -1        69   12    0    1
 -2       543       545       544
 -1        70   12    0    1
 -2       545       547       546
 -1        71   12    0    1
 -2       547       549       548
 -1        72   12    0    1
 -2       549        18       550
 -1        73   12    0    1
 -2        17       552       551
 -1        74   12    0    1
 -2       552       554       553
 -1        75   12    0    1
 -2       554        24       555
 -1        76   12    0    1
 -2        17       557       556
 -1        77   12    0    1
 -2       557       559       558
 -1        78   12    0    1
 -2       559       561       560
 -1        79   12    0    1
 -2       561       563       562
 -1        80   12    0    1
 -2       563       565       564
 -1        81   12    0    1
 -2       565       567       566
 -1        82   12    0    1
 -2       567       569       568
 -1        83   12    0    1
 -2       569        25       570
 -1        84   12    0    1
 -2        18       572       571
 -1        85   12    0    1
 -2       572       574       573
 -1        86   12    0    1
 -2       574       576       575
 -1        87   12    0    1
 -2       576       578       577
 -1        88   12    0    1
 -2       578       580       579
 -1        89   12    0    1
 -2       580       582       581
 -1        90   12    0    1
 -2       582       584       583
 -1        91   12    0    1
 -2       584        19       585
 -1        92   12    0    1
 -2        18       587       586
 -1        93   12    0    1
 -2       587       589       588
 -1        94   12    0    1
 -2       589        25       590
 -1        95   12    0    1
 -2        18       592       591
 -1        96   12    0    1
 -2       592       594       593
 -1        97   12    0    1
 -2       594       596       595
 -1        98   12    0    1
 -2       596       598       597
 -1        99   12    0    1
 -2       598       600       599
 -1       100   12    0    1
 -2       600       602       601
 -1       101   12    0    1
 -2       602       604       603
 -1       102   12    0    1
 -2       604        26       605
 -1       103   12    0    1
 -2        19       607       606
 -1       104   12    0    1
 -2       607       609       608
 -1       105   12    0    1
 -2       609       611       610
 -1       106   12    0    1
 -2       611       613       612
 -1       107   12    0    1
 -2       613       615       614
 -1       108   12    0    1
 -2       615       617       616
 -1       109   12    0    1
 -2       617       619       618
 -1       110   12    0    1
 -2       619        20       620
 -1       111   12    0    1
 -2        19       622       621
 -1       112   12    0    1
 -2       622       624       623
 -1       113   12    0    1
 -2       624        26       625
 -1       114   12    0    1
 -2        19       627       626
 -1       115   12    0    1
 -2       627       629       628
 -1       116   12    0    1
 -2       629       631       630
 -1       117   12    0    1
 -2       631       633       632
 -1       118   12    0    1
 -2       633       635       634
 -1       119   12    0    1
 -2       635       637       636
 -1       120   12    0    1
 -2       637       639       638
 -1       121   12    0    1
 -2       639        27       640
 -1       122   12    0    1
 -2        20       657       656
 -1       123   12    0    1
 -2       657       659       658
 -1       124   12    0    1
 -2       659        27       660
 -1       125   12    0    1
 -2        20       662       661
 -1       126   12    0    1
 -2       662       664       663
 -1       127   12    0    1
 -2       664       666       665
 -1       128   12    0    1
 -2       666       668       667
 -1       129   12    0    1
 -2       668       670       669
 -1       130   12    0    1
 -2       670       672       671
 -1       131   12    0    1
 -2       672       674       673
 -1       132   12    0    1
 -2       674        28       675
 -1       133   12    0    1
 -2        21       677       676
 -1       134   12    0    1
 -2       677       679       678
 -1       135   12    0    1
 -2       679        28       680
 -1       136   12    0    1
 -2        24       772       771
 -1       137   12    0    1
 -2       772       774       773
 -1       138   12    0    1
 -2       774       776       775
 -1       139   12    0    1
 -2       776       778       777
 -1       140   12    0    1
 -2       778       780       779
 -1       141   12    0    1
 -2       780       782       781
 -1       142   12    0    1
 -2       782       784       783
 -1       143   12    0    1
 -2       784        32       785
 -1       144   12    0    1
 -2        25       787       786
 -1       145   12    0    1
 -2       787       789       788
 -1       146   12    0    1
 -2       789       791       790
 -1       147   12    0    1
 -2       791       793       792
 -1       148   12    0    1
 -2       793       795       794
 -1       149   12    0    1
 -2       795       797       796
 -1       150   12    0    1
 -2       797       799       798
 -1       151   12    0    1
 -2       799        26       800
 -1       152   12    0    1
 -2        25       802       801
 -1       153   12    0    1
 -2       802       804       803
 -1       154   12    0    1
 -2       804        32       805
 -1       155   12    0    1
 -2        25       807       806
 -1       156   12    0    1
 -2       807       809       808
 -1       157   12    0    1
 -2       809       811       810
 -1       158   12    0    1
 -2       811       813       812
 -1       159   12    0    1
 -2       813       815       814
 -1       160   12    0    1
 -2       815       817       816
 -1       161   12    0    1
 -2       817       819       818
 -1       162   12    0    1
 -2       819        33       820
 -1       163   12    0    1
 -2        26       822       821
 -1       164   12    0    1
 -2       822       824       823
 -1       165   12    0    1
 -2       824       826       825
 -1       166   12    0    1
 -2       826       828       827
 -1       167   12    0    1
 -2       828       830       829
 -1       168   12    0    1
 -2       830       832       831
 -1       169   12    0    1
 -2       832       834       833
 -1       170   12    0    1
 -2       834        27       835
 -1       171   12    0    1
 -2        26       837       836
 -1       172   12    0    1
 -2       837       839       838
 -1       173   12    0    1
 -2       839        33       840
 -1       174   12    0    1
 -2        27       857       856
 -1       175   12    0    1
 -2       857       859       858
 -1       176   12    0    1
 -2       859       861       860
 -1       177   12    0    1
 -2       861       863       862
 -1       178   12    0    1
 -2       863       865       864
 -1       179   12    0    1
 -2       865       867       866
 -1       180   12    0    1
 -2       867       869       868
 -1       181   12    0    1
 -2       869        28       870
 -1       182   12    0    1
 -2        27       872       871
 -1       183   12    0    1
 -2       872       874       873
 -1       184   12    0    1
 -2       874        34       875
 -1       185   12    0    1
 -2        27       877       876
 -1       186   12    0    1
 -2       877       879       878
 -1       187   12    0    1
 -2       879       881       880
 -1       188   12    0    1
 -2       881       883       882
 -1       189   12    0    1
 -2       883       885       884
 -1       190   12    0    1
 -2       885       887       886
 -1       191   12    0    1
 -2       887       889       888
 -1       192   12    0    1
 -2       889        35       890
 -1       193   12    0    1
 -2        28       892       891
 -1       194   12    0    1
 -2       892       894       893
 -1       195   12    0    1
 -2       894        35       895
 -1       196   12    0    1
 -2        33       957       956
 -1       197   12    0    1
 -2       957       959       958
 -1       198   12    0    1
 -2       959       961       960
 -1       199   12    0    1
 -2       961       963       962
 -1       200   12    0    1
 -2       963       965       964
 -1       201   12    0    1
 -2       965       967       966
 -1       202   12    0    1
 -2       967       969       968
 -1       203   12    0    1
 -2       969        34       970
 -1       204   12    0    1
 -2        34       972       971
 -1       205   12    0    1
 -2       972       974       973
 -1       206   12    0    1
 -2       974       976       975
 -1       207   12    0    1
 -2       976       978       977
 -1       208   12    0    1
 -2       978       980       979
 -1       209   12    0    1
 -2       980       982       981
 -1       210   12    0    1
 -2       982       984       983
 -1       211   12    0    1
 -2       984        35       985
 -3
    1PSTEP                         1           1           1          
  100CL  101 1.000000000         409                     0    1           1
 -4  DISP        4    1
 -5  D1          1    2    1    0
 -5  D2          1    2    2    0
 -5  D3          1    2    3    0
 -5  ALL         1    2    0    0    1ALL
 -1         1 2.17323E-04 0.00000E+00 0.00000E+00
 -1         2 1.99375E-04-1.50543E-27 0.00000E+00
 -1         3 1.96862E-04-8.43838E-26-1.32349E-23
 -1         5 1.34832E-04-5.12025E-25-6.61744E-24
 -1         8 1.76253E-04-1.76461E-06 0.00000E+00
 -1         9 1.75081E-04 3.70934E-07 0.00000E+00
 -1        10 1.80374E-04-2.85192E-06-1.32349E-23
 -1        12 1.33745E-04 1.13174E-06-3.30872E-24
 -1        15 1.29393E-04-1.98540E-06 0.00000E+00
 -1        16 1.25045E-04 4.81592E-08 0.00000E+00
 -1        17 1.28802E-04-6.10238E-06 0.00000E+00
 -1        18 1.28350E-04 6.16707E-07 0.00000E+00
 -1        19 1.30482E-04 2.25685E-06 0.00000E+00
 -1        20 1.30967E-04 3.03338E-05 0.00000E+00
 -1        21 1.28482E-04 6.20348E-05-3.30872E-24
 -1        24 3.39063E-05-8.56795E-06 0.00000E+00
 -1        25 1.24509E-04 9.08421E-07 0.00000E+00
 -1        26 1.26320E-04 3.09276E-06 0.00000E+00
 -1        27 1.23528E-04 2.80229E-05 0.00000E+00
 -1        28 1.21972E-04 6.11636E-05 0.00000E+00
 -1        32 0.00000E+00 0.00000E+00 0.00000E+00
 -1        33 1.20551E-04 4.23859E-06 0.00000E+00
 -1        34 1.17682E-04 2.79364E-05 0.00000E+00
 -1        35 1.14633E-04 6.06376E-05 0.00000E+00
 -1        51 2.14479E-04-2.86716E-07 0.00000E+00
 -1        52 2.09452E-04-5.67492E-07 0.00000E+00
 -1        53 2.02669E-04-8.52416E-07 0.00000E+00
 -1        54 1.94576E-04-1.14459E-06 0.00000E+00
 -1        55 1.85621E-04-1.44531E-06-3.72231E-24
 -1        56 2.15323E-04-1.43837E-06 0.00000E+00
 -1        57 2.13655E-04-3.99654E-06-2.64698E-23
 -1        58 2.12297E-04-7.37514E-06 5.29396E-23
 -1        59 2.11118E-04-1.12725E-05-2.64698E-23
 -1        60 2.10000E-04-1.53378E-05 0.00000E+00
 -1        61 2.08811E-04-1.92178E-05 0.00000E+00
 -1        62 2.07426E-04-2.25720E-05 5.29396E-23
 -1        63 2.05727E-04-2.50850E-05 0.00000E+00
 -1        64 2.03618E-04-2.65040E-05 5.29396E-23
 -1        65 2.01024E-04-2.66264E-05 0.00000E+00
 -1        66 1.97902E-04-2.53469E-05 5.29396E-23
 -1        67 1.94237E-04-2.26233E-05-2.64698E-23
 -1        68 1.90049E-04-1.85225E-05 0.00000E+00
 -1        69 1.85397E-04-1.31694E-05 0.00000E+00
 -1        70 1.80349E-04-6.79140E-06-5.29396E-23
 -1        86 1.98718E-04 7.98896E-08 0.00000E+00
 -1        87 1.96747E-04 1.57272E-07-4.13590E-25
 -1        88 1.93436E-04 2.31097E-07 0.00000E+00
 -1        89 1.88757E-04 2.94309E-07 0.00000E+00
 -1        90 1.82657E-04 3.51930E-07 0.00000E+00
 -1       121 1.96400E-04-4.70461E-07 0.00000E+00
 -1       122 1.95017E-04-9.41747E-07-6.61744E-24
 -1       123 1.92714E-04-1.41467E-06-1.32349E-23
 -1       124 1.89500E-04-1.89011E-06 6.61744E-24
 -1       125 1.85383E-04-2.36871E-06 0.00000E+00
 -1       191 1.34802E-04 1.88650E-07 0.00000E+00
 -1       192 1.34711E-04 3.77295E-07-3.30872E-24
 -1       193 1.34560E-04 5.65933E-07 0.00000E+00
 -1       194 1.34349E-04 7.54558E-07 6.61744E-24
 -1       195 1.34077E-04 9.43162E-07 0.00000E+00
 -1       251 1.76143E-04 4.73387E-06 0.00000E+00
 -1       252 1.76069E-04 8.66931E-06 0.00000E+00
 -1       253 1.76000E-04 1.03814E-05-3.30872E-24
 -1       254 1.75937E-04 1.02142E-05 0.00000E+00
 -1       255 1.75873E-04 8.53721E-06 3.30872E-24
 -1       256 1.75807E-04 5.72328E-06 0.00000E+00
 -1       257 1.75738E-04 2.16025E-06-1.65436E-24
 -1       258 1.75669E-04-1.76234E-06-8.27181E-25
 -1       259 1.75600E-04-5.65034E-06 0.00000E+00
 -1       260 1.75532E-04-9.10955E-06 0.00000E+00
 -1       261 1.75467E-04-1.17514E-05-3.30872E-24
 -1       262 1.75403E-04-1.31893E-05 1.65436E-24
 -1       263 1.75339E-04-1.30524E-05 3.30872E-24
 -1       264 1.75269E-04-1.09734E-05 0.00000E+00
 -1       265 1.75194E-04-6.61108E-06 1.32349E-23
 -1       266 1.68443E-04-1.82397E-06 1.32349E-23
 -1       267 1.60633E-04-1.85803E-06 0.00000E+00
 -1       268 1.52823E-04-1.89365E-06 0.00000E+00
 -1       269 1.45013E-04-1.92457E-06 8.27181E-25
 -1       270 1.37203E-04-1.95535E-06-8.27181E-25
 -1       271 1.71049E-04 3.91757E-06 0.00000E+00
 -1       272 1.66548E-04 7.48117E-06 0.00000E+00
 -1       273 1.62776E-04 9.13180E-06 0.00000E+00
 -1       274 1.59625E-04 9.09336E-06 5.29396E-23
 -1       275 1.57001E-04 7.64947E-06 0.00000E+00
 -1       276 1.54779E-04 5.12151E-06 0.00000E+00
 -1       277 1.52829E-04 1.86393E-06 0.00000E+00
 -1       278 1.51010E-04-1.74725E-06 0.00000E+00
 -1       279 1.49179E-04-5.32551E-06-1.05879E-22
 -1       280 1.47192E-04-8.48523E-06 0.00000E+00
 -1       281 1.44910E-04-1.08534E-05 0.00000E+00
 -1       282 1.42203E-04-1.20809E-05 0.00000E+00
 -1       283 1.38950E-04-1.18524E-05 0.00000E+00
 -1       284 1.35055E-04-9.89380E-06-2.64698E-23
 -1       285 1.30420E-04-5.98868E-06-5.29396E-23
 -1       301 1.66716E-04 3.06152E-07 0.00000E+00
 -1       302 1.58336E-04 2.67985E-07 0.00000E+00
 -1       303 1.49960E-04 2.31537E-07 0.00000E+00
 -1       304 1.41607E-04 1.92332E-07 6.61744E-24
 -1       305 1.33296E-04 1.47150E-07 0.00000E+00
 -1       306 1.69853E-04 6.40933E-06-5.29396E-23
 -1       307 1.65579E-04 9.69039E-06 0.00000E+00
 -1       308 1.62374E-04 1.01597E-05 0.00000E+00
 -1       309 1.60178E-04 7.89787E-06 0.00000E+00
 -1       310 1.58836E-04 3.33788E-06 1.05879E-22
 -1       311 1.58132E-04-2.94963E-06 0.00000E+00
 -1       312 1.57773E-04-1.01754E-05 0.00000E+00
 -1       313 1.57447E-04-1.74927E-05 0.00000E+00
 -1       314 1.56839E-04-2.40424E-05 0.00000E+00
 -1       315 1.55647E-04-2.90134E-05-5.29396E-23
 -1       316 1.53640E-04-3.17943E-05 0.00000E+00
 -1       317 1.50639E-04-3.19089E-05 0.00000E+00
 -1       318 1.46578E-04-2.92165E-05 0.00000E+00
 -1       319 1.41478E-04-2.37439E-05 0.00000E+00
 -1       320 1.35453E-04-1.58766E-05 0.00000E+00
 -1       336 1.74380E-04-3.37467E-06 0.00000E+00
 -1       337 1.67311E-04-3.90483E-06 0.00000E+00
 -1       338 1.59189E-04-4.44251E-06 0.00000E+00
 -1       339 1.50042E-04-4.98808E-06 6.61744E-24
 -1       340 1.39902E-04-5.54285E-06 0.00000E+00
 -1       406 1.33352E-04 1.32027E-06 0.00000E+00
 -1       407 1.32899E-04 1.50872E-06 0.00000E+00
 -1       408 1.32385E-04 1.69702E-06 6.61744E-24
 -1       409 1.31811E-04 1.88495E-06-3.30872E-24
 -1       410 1.31177E-04 2.07213E-06 0.00000E+00
 -1       521 1.16207E-04 8.34943E-06 0.00000E+00
 -1       522 1.05965E-04 1.97918E-05-5.29396E-23
 -1       523 9.53867E-05 3.21222E-05 0.00000E+00
 -1       524 8.53826E-05 4.28993E-05 0.00000E+00
 -1       525 7.67716E-05 5.00685E-05 0.00000E+00
 -1       526 7.01624E-05 5.19841E-05 0.00000E+00
 -1       527 6.56832E-05 4.82344E-05 0.00000E+00
 -1       528 6.32047E-05 3.90763E-05 0.00000E+00
 -1       529 6.21416E-05 2.60461E-05 0.00000E+00
 -1       530 6.17569E-05 1.11445E-05-1.05879E-22
 -1       531 6.11651E-05-3.18328E-06 0.00000E+00
 -1       532 5.95067E-05-1.45592E-05 0.00000E+00
 -1       533 5.61487E-05-2.13088E-05 0.00000E+00
 -1       534 5.06747E-05-2.23011E-05 5.29396E-23
 -1       535 4.31013E-05-1.77801E-05-1.05879E-22
 -1       536 1.28714E-04 4.15112E-06 0.00000E+00
 -1       537 1.28664E-04 1.18902E-05 0.00000E+00
 -1       538 1.28626E-04 1.73682E-05-1.65436E-24
 -1       539 1.28601E-04 2.08402E-05 0.00000E+00
 -1       540 1.28580E-04 2.25632E-05 8.27181E-25
 -1       541 1.28560E-04 2.27956E-05 0.00000E+00
 -1       542 1.28541E-04 2.17971E-05 0.00000E+00
 -1       543 1.28520E-04 1.98285E-05 4.13590E-25
 -1       544 1.28498E-04 1.71514E-05 0.00000E+00
 -1       545 1.28475E-04 1.40279E-05-2.06795E-25
 -1       546 1.28451E-04 1.07208E-05 0.00000E+00
 -1       547 1.28427E-04 7.49258E-06 0.00000E+00
 -1       548 1.28405E-04 4.60596E-06 0.00000E+00
 -1       549 1.28384E-04 2.32336E-06-5.16988E-26
 -1       550 1.28365E-04 9.06555E-07 8.27181E-25
 -1       551 1.14898E-04-6.47946E-06 0.00000E+00
 -1       552 9.92119E-05-6.87490E-06-4.44610E-24
 -1       553 8.25007E-05-7.28548E-06 0.00000E+00
 -1       554 6.55343E-05-7.70425E-06 0.00000E+00
 -1       555 4.90823E-05-8.12170E-06-2.64698E-23
 -1       556 1.24906E-04 3.82423E-06 0.00000E+00
 -1       557 1.21931E-04 1.14022E-05-1.32349E-23
 -1       558 1.19773E-04 1.68488E-05 0.00000E+00
 -1       559 1.18339E-04 2.03981E-05 0.00000E+00
 -1       560 1.17535E-04 2.22842E-05-2.64698E-23
 -1       561 1.17269E-04 2.27424E-05 0.00000E+00
 -1       562 1.17450E-04 2.20091E-05 0.00000E+00
 -1       563 1.17990E-04 2.03207E-05 0.00000E+00
 -1       564 1.18797E-04 1.79145E-05 0.00000E+00
 -1       565 1.19783E-04 1.50275E-05 0.00000E+00
 -1       566 1.20860E-04 1.18975E-05 3.30872E-24
 -1       567 1.21939E-04 8.76198E-06 1.65436E-24
 -1       568 1.22932E-04 5.85851E-06 0.00000E+00
 -1       569 1.23749E-04 3.42439E-06 0.00000E+00
 -1       570 1.24304E-04 1.69689E-06 0.00000E+00
 -1       571 1.28479E-04 8.12796E-07 8.27181E-25
 -1       572 1.28611E-04 9.22097E-07-1.24077E-24
 -1       573 1.28744E-04 9.59774E-07 1.65436E-24
 -1       574 1.28878E-04 9.41805E-07 0.00000E+00
 -1       575 1.29011E-04 8.84233E-07 3.30872E-24
 -1       576 1.29145E-04 8.03208E-07 0.00000E+00
 -1       577 1.29279E-04 7.14892E-07 0.00000E+00
 -1       578 1.29413E-04 6.35458E-07 0.00000E+00
 -1       579 1.29547E-04 5.81080E-07 0.00000E+00
 -1       580 1.29680E-04 5.67936E-07 0.00000E+00
 -1       581 1.29814E-04 6.12201E-07 0.00000E+00
 -1       582 1.29948E-04 7.30034E-07 0.00000E+00
 -1       583 1.30082E-04 9.37585E-07 0.00000E+00
 -1       584 1.30215E-04 1.25084E-06 0.00000E+00
 -1       585 1.30349E-04 1.68570E-06 0.00000E+00
 -1       586 1.27712E-04 6.67295E-07 0.00000E+00
 -1       587 1.27000E-04 7.17316E-07-8.27181E-25
 -1       588 1.26269E-04 7.67023E-07 0.00000E+00
 -1       589 1.25574E-04 8.16148E-07 0.00000E+00
 -1       590 1.24969E-04 8.64192E-07 0.00000E+00
 -1       591 1.28194E-04 8.66238E-07 0.00000E+00
 -1       592 1.28058E-04 1.04536E-06 0.00000E+00
 -1       593 1.27943E-04 1.16758E-06 1.65436E-24
 -1       594 1.27845E-04 1.24500E-06 0.00000E+00
 -1       595 1.27758E-04 1.28981E-06 0.00000E+00
 -1       596 1.27678E-04 1.31412E-06 8.27181E-25
 -1       597 1.27602E-04 1.33005E-06-1.65436E-24
 -1       598 1.27525E-04 1.34967E-06 8.27181E-25
 -1       599 1.27441E-04 1.38510E-06 1.65436E-24
 -1       600 1.27347E-04 1.44841E-06 0.00000E+00
 -1       601 1.27239E-04 1.55170E-06-1.65436E-24
 -1       602 1.27110E-04 1.70706E-06 0.00000E+00
 -1       603 1.26958E-04 1.92658E-06-8.27181E-25
 -1       604 1.26778E-04 2.22245E-06-3.61892E-25
 -1       605 1.26565E-04 2.60673E-06 0.00000E+00
 -1       606 1.30520E-04 3.11147E-06 0.00000E+00
 -1       607 1.30552E-04 4.13944E-06 0.00000E+00
 -1       608 1.30584E-04 5.33046E-06 0.00000E+00
 -1       609 1.30615E-04 6.67299E-06 0.00000E+00
 -1       610 1.30645E-04 8.15544E-06 0.00000E+00
 -1       611 1.30675E-04 9.76605E-06 0.00000E+00
 -1       612 1.30705E-04 1.14931E-05 0.00000E+00
 -1       613 1.30735E-04 1.33247E-05 0.00000E+00
 -1       614 1.30765E-04 1.52493E-05 0.00000E+00
 -1       615 1.30794E-04 1.72549E-05 0.00000E+00
 -1       616 1.30823E-04 1.93299E-05 0.00000E+00
 -1       617 1.30853E-04 2.14625E-05 0.00000E+00
 -1       618 1.30882E-04 2.36410E-05 1.65436E-24
 -1       619 1.30911E-04 2.58535E-05 0.00000E+00
 -1       620 1.30939E-04 2.80884E-05 0.00000E+00
 -1       621 1.29743E-04 2.39686E-06 3.30872E-24
 -1       622 1.29009E-04 2.53718E-06 0.00000E+00
 -1       623 1.28290E-04 2.67743E-06 0.00000E+00
 -1       624 1.27597E-04 2.81736E-06 1.65436E-24
 -1       625 1.26937E-04 2.95683E-06 0.00000E+00
 -1       626 1.30304E-04 3.18303E-06 0.00000E+00
 -1       627 1.30063E-04 4.28175E-06 0.00000E+00
 -1       628 1.29762E-04 5.53655E-06 0.00000E+00
 -1       629 1.29410E-04 6.92985E-06 6.61744E-24
 -1       630 1.29012E-04 8.44407E-06-6.61744E-24
 -1       631 1.28576E-04 1.00615E-05 0.00000E+00
 -1       632 1.28107E-04 1.17645E-05-6.61744E-24
 -1       633 1.27613E-04 1.35353E-05-3.30872E-24
 -1       634 1.27099E-04 1.53563E-05-6.61744E-24
 -1       635 1.26574E-04 1.72098E-05 0.00000E+00
 -1       636 1.26043E-04 1.90781E-05 3.30872E-24
 -1       637 1.25513E-04 2.09436E-05 1.65436E-24
 -1       638 1.24990E-04 2.27885E-05 0.00000E+00
 -1       639 1.24481E-04 2.45953E-05-1.65436E-24
 -1       640 1.23993E-04 2.63461E-05 1.65436E-24
 -1       656 1.29077E-04 2.99575E-05-6.61744E-24
 -1       657 1.27737E-04 2.95661E-05 0.00000E+00
 -1       658 1.26732E-04 2.91762E-05 0.00000E+00
 -1       659 1.25843E-04 2.87867E-05-3.30872E-24
 -1       660 1.24848E-04 2.83960E-05 0.00000E+00
 -1       661 1.30273E-04 3.25972E-05-3.30872E-24
 -1       662 1.29582E-04 3.48665E-05-1.65436E-24
 -1       663 1.28894E-04 3.71292E-05 0.00000E+00
 -1       664 1.28212E-04 3.93756E-05-1.65436E-24
 -1       665 1.27541E-04 4.15949E-05 3.30872E-24
 -1       666 1.26885E-04 4.37767E-05 1.65436E-24
 -1       667 1.26246E-04 4.59108E-05 3.30872E-24
 -1       668 1.25629E-04 4.79863E-05-1.65436E-24
 -1       669 1.25039E-04 4.99927E-05-3.30872E-24
 -1       670 1.24478E-04 5.19192E-05 0.00000E+00
 -1       671 1.23952E-04 5.37546E-05-3.30872E-24
 -1       672 1.23464E-04 5.54879E-05-1.65436E-24
 -1       673 1.23019E-04 5.71076E-05 0.00000E+00
 -1       674 1.22620E-04 5.86017E-05 1.65436E-24
 -1       675 1.22272E-04 5.99588E-05 1.65436E-24
 -1       676 1.27392E-04 6.18887E-05 0.00000E+00
 -1       677 1.26303E-04 6.17426E-05 0.00000E+00
 -1       678 1.25216E-04 6.15966E-05 0.00000E+00
 -1       679 1.24131E-04 6.14511E-05 1.65436E-24
 -1       680 1.23049E-04 6.13056E-05 0.00000E+00
 -1       771 2.77404E-05 2.63784E-06-5.29396E-23
 -1       772 2.23501E-05 1.17947E-05-2.64698E-23
 -1       773 1.77024E-05 1.90172E-05 5.29396E-23
 -1       774 1.37455E-05 2.44313E-05 0.00000E+00
 -1       775 1.04275E-05 2.81670E-05-5.29396E-23
 -1       776 7.69412E-06 3.03606E-05 2.64698E-23
 -1       777 5.49028E-06 3.11516E-05 5.29396E-23
 -1       778 3.75953E-06 3.06849E-05 5.29396E-23
 -1       779 2.44503E-06 2.91080E-05-5.29396E-23
 -1       780 1.48881E-06 2.65725E-05 0.00000E+00
 -1       781 8.32755E-07 2.32322E-05-5.29396E-23
 -1       782 4.17969E-07 1.92440E-05 2.64698E-23
 -1       783 1.85498E-07 1.47659E-05 5.29396E-23
 -1       784 7.64813E-08 9.95811E-06 2.64698E-23
 -1       785 3.14340E-08 4.98150E-06 0.00000E+00
 -1       786 1.24616E-04 9.99018E-07-8.27181E-25
 -1       787 1.24729E-04 1.05147E-06 8.27181E-25
 -1       788 1.24841E-04 1.07534E-06 0.00000E+00
 -1       789 1.24955E-04 1.08008E-06-1.65436E-24
 -1       790 1.25069E-04 1.07504E-06-3.30872E-24
 -1       791 1.25183E-04 1.06950E-06 1.65436E-24
 -1       792 1.25297E-04 1.07277E-06 0.00000E+00
 -1       793 1.25411E-04 1.09417E-06-1.65436E-24
 -1       794 1.25525E-04 1.14316E-06 3.30872E-24
 -1       795 1.25640E-04 1.22928E-06 0.00000E+00
 -1       796 1.25754E-04 1.36233E-06 0.00000E+00
 -1       797 1.25868E-04 1.55228E-06-1.65436E-24
 -1       798 1.25982E-04 1.80947E-06-3.30872E-24
 -1       799 1.26095E-04 2.14448E-06 0.00000E+00
 -1       800 1.26209E-04 2.56845E-06-3.30872E-24
 -1       801 1.15236E-04 9.73353E-07 0.00000E+00
 -1       802 9.07871E-05 8.04204E-07 0.00000E+00
 -1       803 5.91117E-05 4.54083E-07 3.30872E-24
 -1       804 2.81333E-05 1.14436E-07 0.00000E+00
 -1       805 5.77541E-06-1.89535E-08 0.00000E+00
 -1       806 1.24337E-04 9.33161E-07-3.30872E-24
 -1       807 1.24165E-04 9.43715E-07 0.00000E+00
 -1       808 1.23994E-04 9.49345E-07 0.00000E+00
 -1       809 1.23820E-04 9.58217E-07-1.65436E-24
 -1       810 1.23643E-04 9.78456E-07-3.30872E-24
 -1       811 1.23458E-04 1.01809E-06 0.00000E+00
 -1       812 1.23262E-04 1.08512E-06 3.30872E-24
 -1       813 1.23054E-04 1.18757E-06 1.65436E-24
 -1       814 1.22829E-04 1.33341E-06-3.30872E-24
 -1       815 1.22584E-04 1.53064E-06-1.65436E-24
 -1       816 1.22318E-04 1.78723E-06 0.00000E+00
 -1       817 1.22026E-04 2.11115E-06-8.27181E-25
 -1       818 1.21706E-04 2.51037E-06 1.65436E-24
 -1       819 1.21355E-04 2.99280E-06 1.65436E-24
 -1       820 1.20970E-04 3.56635E-06 0.00000E+00
 -1       821 1.26156E-04 3.78130E-06 1.65436E-24
 -1       822 1.25982E-04 4.68710E-06-1.65436E-24
 -1       823 1.25808E-04 5.79193E-06 3.30872E-24
 -1       824 1.25633E-04 7.07662E-06 3.30872E-24
 -1       825 1.25457E-04 8.52003E-06 0.00000E+00
 -1       826 1.25280E-04 1.01002E-05 0.00000E+00
 -1       827 1.25104E-04 1.17938E-05 0.00000E+00
 -1       828 1.24927E-04 1.35768E-05 0.00000E+00
 -1       829 1.24750E-04 1.54243E-05 0.00000E+00
 -1       830 1.24573E-04 1.73110E-05-3.30872E-24
 -1       831 1.24396E-04 1.92113E-05 0.00000E+00
 -1       832 1.24219E-04 2.10995E-05 0.00000E+00
 -1       833 1.24042E-04 2.29498E-05 0.00000E+00
 -1       834 1.23868E-04 2.47369E-05 0.00000E+00
 -1       835 1.23693E-04 2.64360E-05 0.00000E+00
 -1       836 1.25583E-04 3.28218E-06-3.30872E-24
 -1       837 1.24652E-04 3.47697E-06 3.30872E-24
 -1       838 1.23605E-04 3.67139E-06 0.00000E+00
 -1       839 1.22521E-04 3.86481E-06 1.65436E-24
 -1       840 1.21477E-04 4.05814E-06-8.27181E-25
 -1       856 1.23439E-04 2.96759E-05 4.13590E-25
 -1       857 1.23342E-04 3.15524E-05-8.27181E-25
 -1       858 1.23246E-04 3.36169E-05 0.00000E+00
 -1       859 1.23148E-04 3.58336E-05 0.00000E+00
 -1       860 1.23049E-04 3.81665E-05 0.00000E+00
 -1       861 1.22951E-04 4.05796E-05 1.65436E-24
 -1       862 1.22852E-04 4.30366E-05 3.30872E-24
 -1       863 1.22753E-04 4.55013E-05 0.00000E+00
 -1       864 1.22654E-04 4.79374E-05 3.30872E-24
 -1       865 1.22555E-04 5.03088E-05 1.65436E-24
 -1       866 1.22457E-04 5.25793E-05 3.30872E-24
 -1       867 1.22359E-04 5.47128E-05 1.65436E-24
 -1       868 1.22261E-04 5.66735E-05 3.30872E-24
 -1       869 1.22164E-04 5.84257E-05 1.65436E-24
 -1       870 1.22067E-04 5.99341E-05 0.00000E+00
 -1       871 1.22308E-04 2.80132E-05 0.00000E+00
 -1       872 1.21316E-04 2.80001E-05 0.00000E+00
 -1       873 1.20456E-04 2.79866E-05 0.00000E+00
 -1       874 1.19629E-04 2.79722E-05 0.00000E+00
 -1       875 1.18737E-04 2.79569E-05-8.27181E-25
 -1       876 1.23107E-04 2.96869E-05 0.00000E+00
 -1       877 1.22651E-04 3.14639E-05 3.30872E-24
 -1       878 1.22157E-04 3.33390E-05 0.00000E+00
 -1       879 1.21632E-04 3.52990E-05 3.30872E-24
 -1       880 1.21081E-04 3.73306E-05 6.61744E-24
 -1       881 1.20507E-04 3.94205E-05 0.00000E+00
 -1       882 1.19916E-04 4.15556E-05-6.61744E-24
 -1       883 1.19314E-04 4.37228E-05 0.00000E+00
 -1       884 1.18704E-04 4.59090E-05 0.00000E+00
 -1       885 1.18092E-04 4.81010E-05 0.00000E+00
 -1       886 1.17482E-04 5.02858E-05-6.61744E-24
 -1       887 1.16880E-04 5.24503E-05 0.00000E+00
 -1       888 1.16291E-04 5.45812E-05-3.30872E-24
 -1       889 1.15718E-04 5.66653E-05 0.00000E+00
 -1       890 1.15166E-04 5.86895E-05 1.65436E-24
 -1       891 1.20960E-04 6.10764E-05 0.00000E+00
 -1       892 1.19947E-04 6.09882E-05 8.27181E-25
 -1       893 1.18870E-04 6.09000E-05 1.65436E-24
 -1       894 1.17667E-04 6.08119E-05 0.00000E+00
 -1       895 1.16275E-04 6.07236E-05-1.65436E-24
 -1       956 1.20375E-04 5.16425E-06-1.65436E-24
 -1       957 1.20197E-04 6.24556E-06 1.65436E-24
 -1       958 1.20018E-04 7.46591E-06 6.61744E-24
 -1       959 1.19839E-04 8.80771E-06 1.65436E-24
 -1       960 1.19659E-04 1.02534E-05 0.00000E+00
 -1       961 1.19479E-04 1.17852E-05 3.30872E-24
 -1       962 1.19299E-04 1.33854E-05 0.00000E+00
 -1       963 1.19119E-04 1.50362E-05 0.00000E+00
 -1       964 1.18938E-04 1.67200E-05 0.00000E+00
 -1       965 1.18758E-04 1.84188E-05-3.30872E-24
 -1       966 1.18578E-04 2.01151E-05 6.61744E-24
 -1       967 1.18398E-04 2.17909E-05 0.00000E+00
 -1       968 1.18218E-04 2.34286E-05 0.00000E+00
 -1       969 1.18038E-04 2.50105E-05 3.30872E-24
 -1       970 1.17859E-04 2.65188E-05 0.00000E+00
 -1       971 1.17495E-04 2.93775E-05-6.61744E-24
 -1       972 1.17305E-04 3.09958E-05-1.65436E-24
 -1       973 1.17114E-04 3.27711E-05 0.00000E+00
 -1       974 1.16923E-04 3.46827E-05 0.00000E+00
 -1       975 1.16732E-04 3.67098E-05-6.61744E-24
 -1       976 1.16540E-04 3.88315E-05-3.30872E-24
 -1       977 1.16348E-04 4.10268E-05-6.61744E-24
 -1       978 1.16156E-04 4.32748E-05-3.30872E-24
 -1       979 1.15964E-04 4.55546E-05 0.00000E+00
 -1       980 1.15771E-04 4.78450E-05 3.30872E-24
 -1       981 1.15579E-04 5.01252E-05 6.61744E-24
 -1       982 1.15388E-04 5.23740E-05 3.30872E-24
 -1       983 1.15196E-04 5.45706E-05 6.61744E-24
 -1       984 1.15006E-04 5.66939E-05 3.30872E-24
 -1       985 1.14816E-04 5.87230E-05 0.00000E+00
 -3
    1PSTEP                         2           1           1          
  100CL  101 1.000000000         409                     0    1           1
 -4  STRESS      6    1
 -5  SXX         1    4    1    1
 -5  SYY         1    4    2    2
 -5  SZZ         1    4    3    3
 -5  SXY         1    4    1    2
 -5  SYZ         1    4    2    3
 -5  SZX         1    4    3    1
 -1         1-2.95949E+06-1.35584E+06-6.10064E+05-1.95995E+06 4.87489E-10-1.03319E-08
 -1         2 3.96936E+03 2.35924E+05 1.40074E+04 1.14635E+03-2.15084E-09 4.49813E-09
 -1         3-4.54309E+02-1.34170E+06 2.91530E+02-8.63791E+02 2.39258E-09-1.62618E-09
 -1         5-2.71877E+01 5.39959E+05 1.40241E+01 1.38148E+00 2.14654E-10 2.79761E-09
 -1         8-1.64248E+06-6.81565E+05-1.09303E+05-1.08937E+06 8.58563E-10-1.39407E-08
 -1         9-2.45843E+06-6.70530E+05-2.65573E+05-7.75572E+05 1.88011E-09-4.06289E-09
 -1        10-1.17886E+03-1.39348E+06-1.57130E+03-5.78555E+03-1.73086E-08-1.56662E-08
 -1        12-2.15321E+01 5.39988E+05 4.55486E+02 8.98572E+00 3.96973E-10-1.32759E-08
 -1        15 3.51388E+03 1.97350E+03 1.19884E+04 1.15500E+01-4.10409E-10-5.78082E-08
 -1        16-6.66574E+06-2.02659E+06-1.03690E+06-2.02270E+06 1.20102E-08-9.27442E-09
 -1        17-1.38906E+06-8.95115E+05-2.41579E+05-8.41743E+05-4.86034E-09-3.89409E-09
 -1        18 4.06896E+04 5.27973E+03-2.54442E+04-1.35470E+05 1.26010E-09 9.98079E-09
 -1        19 1.69839E+05 1.97335E+05-1.96111E+03 2.40462E+04 1.60508E-09-1.21800E-09
 -1        20 5.45733E+04-3.40544E+05-6.73589E+04 7.19099E+04 2.70726E-10-1.12001E-08
 -1        21-5.63431E+01-4.16727E+05-1.43455E+03-2.76507E+02-4.73447E-09-6.65523E-09
 -1        24-5.63730E+06-1.95345E+06-7.77260E+05-2.38867E+06-2.75516E-09-1.18356E-08
 -1        25 6.32897E+04 7.93497E+04 4.54022E+04-5.54927E+05-6.26460E-10-8.41101E-10
 -1        26-3.76724E+04 1.46815E+05-1.22089E+04-2.92945E+04 8.41101E-10 1.03719E-09
 -1        27-6.65013E+04-2.00190E+05-9.07235E+04 1.07105E+05 5.29144E-09-2.49202E-09
 -1        28 9.70402E+03-1.26868E+05 1.36343E+04 4.75602E+04 6.38909E-09-7.84239E-09
 -1        32-1.41038E+06-4.42220E+04 5.14933E+05-1.81604E+06 2.08092E-09 8.93920E-09
 -1        33-2.16224E+05 1.46144E+05 4.82975E+04-5.95445E+04-3.20877E-09 1.25753E-09
 -1        34-3.27073E+05-3.92473E+04-2.07041E+03 1.04009E+05 3.42519E-10 3.94304E-09
 -1        35-3.69217E+04-5.26584E+04-2.50484E+03 8.32566E+04 2.01826E-08 6.16516E-09
 -1        51 2.66533E+04-6.87382E+05 6.07735E+04-1.84315E+06 2.61934E-10 1.16415E-08
 -1        52 2.24502E+04-6.96160E+05 4.22029E+04-2.09266E+06 1.71713E-09 2.05328E-08
 -1        53 2.17583E+04-7.27791E+05 3.75159E+04-1.83712E+06 2.18279E-10 5.52973E-09
 -1        54 5.18057E+04-7.32982E+05 6.29732E+04-2.09854E+06-3.34694E-10-7.82893E-09
 -1        55 9.29310E+04-7.58615E+05 1.14605E+05-1.83566E+06 1.51340E-09 6.69388E-09
 -1        56-5.68853E+06-6.47455E+05-4.45992E+05-2.18755E+06 5.89353E-10-6.14091E-09
 -1        57-5.84323E+06-1.05430E+06-2.97607E+05-2.19653E+06 1.76351E-09 3.50701E-09
 -1        58-5.78108E+06-7.78240E+05-1.04920E+05-2.15600E+06-1.90084E-09-9.92077E-09
 -1        59-5.73616E+06-8.99578E+05-6.17059E+04-2.23517E+06-3.38787E-09-3.94266E-09
 -1        60-5.79445E+06-7.95304E+05-2.44387E+04-2.15140E+06-2.18733E-10-1.49557E-08
 -1        61-5.72509E+06-8.74574E+05-1.36639E+04-2.23478E+06 2.82762E-09-4.21869E-09
 -1        62-5.79163E+06-8.02554E+05-6.76756E+03-2.15647E+06-3.49701E-09 1.17196E-08
 -1        63-5.73660E+06-8.57768E+05-5.30653E+03-2.21802E+06-1.32331E-10-2.28169E-09
 -1        64-5.78217E+06-8.12493E+05-6.55710E+03-2.16766E+06 2.99951E-09-5.77302E-09
 -1        65-5.75950E+06-8.37906E+05-1.23715E+04-2.19178E+06 2.58660E-09 1.48066E-09
 -1        66-5.76818E+06-8.22882E+05-2.26996E+04-2.18227E+06-1.80989E-10-7.21957E-09
 -1        67-5.79732E+06-8.32849E+05-5.61442E+04-2.16034E+06-3.29692E-09 1.18762E-08
 -1        68-5.74470E+06-8.18257E+05-9.60437E+04-2.19893E+06 5.19321E-10-3.36513E-09
 -1        69-5.91093E+06-9.59868E+05-2.71743E+05-2.11034E+06 3.62343E-09 1.07393E-08
 -1        70-5.65679E+06-7.01394E+05-4.07264E+05-2.23076E+06-4.88217E-09-6.94126E-09
 -1        86-2.05498E+03 2.30087E+05 1.47680E+04-5.73439E+02 1.57752E-09-6.31826E-09
 -1        87 1.35512E+04 2.40707E+05 3.10670E+04 2.34823E+03 8.14907E-10 5.93172E-09
 -1        88-1.15779E+04 2.25320E+05 4.74472E+04-1.77592E+03 2.82307E-09 1.20215E-08
 -1        89 8.76980E+04 2.75750E+05 1.27841E+05 5.12000E+03 3.15958E-09 1.28342E-08
 -1        90-7.56541E+04 1.95128E+05 1.81040E+05-3.34247E+03 4.22733E-09-1.75464E-08
 -1       121-6.24924E+02-1.34311E+06 7.81233E+01 4.30362E+02-2.33474E-09 7.25413E-09
 -1       122-3.57293E+02-1.34167E+06 6.31002E+02-1.72764E+03 7.23190E-10 6.83940E-09
 -1       123-6.65747E+02-1.34318E+06 8.36440E+02 1.28814E+03-4.89092E-09 7.63248E-09
 -1       124 7.73569E+02-1.34105E+06 2.63255E+03-3.73667E+03 8.63565E-10 1.42609E-08
 -1       125-1.27664E+03-1.34386E+06 3.91827E+03 2.43326E+03-7.86531E-09-7.16682E-10
 -1       191-2.90013E+01 5.40001E+05 1.58990E+01-6.97290E-01 3.48224E-10-1.60617E-08
 -1       192-2.84936E+01 5.39960E+05 2.97299E+01 3.73761E+00 5.16226E-10-2.70848E-08
 -1       193-3.24618E+01 5.40000E+05 5.44445E+01-3.08218E+00 5.35065E-10-1.45319E-08
 -1       194-3.26906E+01 5.39964E+05 1.12533E+02 8.15619E+00 2.44913E-10 2.10275E-09
 -1       195-3.91078E+01 5.39997E+05 2.19260E+02-5.17172E+00 8.11653E-10-9.07676E-09
 -1       251-2.07756E+05-6.00202E+04 1.42058E+05 6.23183E+03 4.80668E-10-9.44419E-09
 -1       252-1.38253E+05 6.91372E+04 1.01198E+05-3.76884E+04-2.62503E-10 2.51021E-09
 -1       253-1.82620E+05-9.18458E+03 3.66384E+04 7.43874E+03-8.00355E-11-4.08545E-09
 -1       254-1.68836E+05 1.05024E+04 2.34502E+04-3.98814E+04 5.83441E-10 1.42427E-08
 -1       255-1.77801E+05-1.42470E+03 9.43748E+03 8.42304E+03 2.28283E-10 1.00599E-08
 -1       256-1.75171E+05 1.78674E+03 5.82907E+03-4.13635E+04-6.96957E-10-1.96436E-08
 -1       257-1.76669E+05-2.61031E+02 2.97478E+03 8.92089E+03-1.92244E-10-4.34147E-09
 -1       258-1.76401E+05 7.07769E+02 2.61785E+03-4.18375E+04-4.86409E-10 3.68402E-10
 -1       259-1.76695E+05-2.64550E+02 2.99474E+03 8.89758E+03-1.93722E-10-1.64660E-08
 -1       260-1.75040E+05 1.79646E+03 5.92161E+03-4.12751E+04 1.13664E-09-1.21300E-08
 -1       261-1.77883E+05-1.44765E+03 9.55481E+03 8.35792E+03 2.91720E-09-5.09908E-09
 -1       262-1.68537E+05 1.06323E+04 2.38170E+04-3.97040E+04-6.63931E-10 4.17458E-09
 -1       263-1.82794E+05-9.32215E+03 3.71471E+04 7.32663E+03-1.10731E-09 2.07910E-09
 -1       264-1.37476E+05 7.01197E+04 1.02698E+05-3.74412E+04-6.34236E-09 1.84937E-08
 -1       265-2.08299E+05-6.08992E+04 1.44091E+05 6.09734E+03-3.16868E-09 5.82804E-09
 -1       266-6.60914E+04-3.13479E+04 1.58622E+05-2.60511E+02-6.98492E-10-9.40002E-08
 -1       267 7.67550E+04 3.64799E+04 1.11528E+05 3.01988E+02-1.22600E-09-1.81872E-07
 -1       268-1.00745E+04-5.09154E+03 4.16839E+04-3.73631E+01-1.21690E-09-1.32972E-07
 -1       269 1.19026E+04 6.08051E+03 2.69017E+04 4.36544E+01-9.13133E-10-9.75426E-08
 -1       270-1.74704E+03-9.86686E+02 1.30751E+04-5.70126E+00-5.08408E-10-8.07755E-08
 -1       271-6.79115E+06-8.72341E+05-5.31525E+05-2.66060E+06 5.52973E-10-1.83354E-09
 -1       272-6.95928E+06-1.24965E+06-3.37186E+05-2.67639E+06 3.40583E-09 9.86620E-09
 -1       273-6.89556E+06-9.87460E+05-1.25518E+05-2.63253E+06-2.92857E-09-1.24128E-08
 -1       274-6.83482E+06-1.10667E+06-6.89542E+04-2.72482E+06 4.80941E-09-5.65160E-09
 -1       275-6.91485E+06-9.92529E+05-2.91399E+04-2.62208E+06-9.09495E-12 6.06087E-09
 -1       276-6.81209E+06-1.10098E+06-1.52053E+04-2.74268E+06 2.47383E-10 1.14596E-09
 -1       277-6.92058E+06-9.89378E+05-7.54307E+03-2.61732E+06 4.96584E-10 4.96084E-09
 -1       278-6.80747E+06-1.10306E+06-5.49969E+03-2.74801E+06 1.21838E-09-2.38879E-09
 -1       279-6.92044E+06-9.89643E+05-6.10887E+03-2.61753E+06 1.10413E-09 1.79170E-09
 -1       280-6.81215E+06-1.09968E+06-1.11684E+04-2.74178E+06 4.45016E-09-1.81099E-08
 -1       281-6.91471E+06-9.93638E+05-2.10309E+04-2.62265E+06 4.45834E-09 3.40333E-09
 -1       282-6.83183E+06-1.09965E+06-4.91952E+04-2.72372E+06 1.76260E-09-2.92130E-09
 -1       283-6.89821E+06-9.92939E+05-8.97670E+04-2.63304E+06 4.78394E-10-4.16912E-09
 -1       284-6.92597E+06-1.19553E+06-2.40367E+05-2.68169E+06-4.73801E-09 4.86398E-09
 -1       285-6.82027E+06-9.14627E+05-3.79604E+05-2.65695E+06-6.51198E-10-7.90169E-09
 -1       301 4.50019E+04-2.91952E+03 1.98290E+05-3.18471E+04 8.13452E-09-2.37387E-09
 -1       302 2.48166E+04 4.26439E+04 1.38191E+05-4.31352E+04 6.88397E-09-8.41308E-09
 -1       303 2.88572E+03 1.32588E+04 1.27137E+05-3.22737E+04 8.44921E-09-4.91127E-11
 -1       304 4.59520E+04 6.18640E+04 2.10686E+05-4.30483E+04 6.78119E-09-5.18071E-09
 -1       305 8.79375E+04-2.19524E+04 3.64633E+05-3.14471E+04 8.71660E-09 1.68257E-09
 -1       306-6.52876E+06-7.85768E+05-4.92893E+05-2.56938E+06 8.14907E-10 3.31784E-09
 -1       307-6.77926E+06-1.16764E+06-3.30604E+05-2.47610E+06 3.55794E-09 8.61473E-09
 -1       308-6.65925E+06-9.10212E+05-1.16610E+05-2.50235E+06 8.09450E-11-4.53292E-09
 -1       309-6.60841E+06-1.04313E+06-6.82025E+04-2.58160E+06-6.52744E-09 4.35830E-09
 -1       310-6.69936E+06-9.04116E+05-2.73633E+04-2.46654E+06-1.59798E-09 3.81442E-09
 -1       311-6.55815E+06-1.05550E+06-1.52304E+04-2.63299E+06 1.85501E-08 1.62754E-09
 -1       312-6.71159E+06-8.95507E+05-7.54587E+03-2.45286E+06 1.42727E-08 2.98896E-08
 -1       313-6.55442E+06-1.05442E+06-6.56631E+03-2.63595E+06-7.66704E-10 2.22065E-09
 -1       314-6.70320E+06-9.05010E+05-8.49895E+03-2.46371E+06-8.91941E-09 3.17505E-09
 -1       315-6.58763E+06-1.02300E+06-1.64043E+04-2.59228E+06-7.46513E-09 8.54561E-09
 -1       316-6.67610E+06-9.28586E+05-3.11637E+04-2.49484E+06-1.59162E-10 1.32495E-08
 -1       317-6.66296E+06-9.92060E+05-7.61544E+04-2.51683E+06 2.22553E-09 1.34787E-09
 -1       318-6.62658E+06-9.37866E+05-1.30540E+05-2.53772E+06 4.14730E-10-1.80444E-09
 -1       319-6.85443E+06-1.13673E+06-3.70893E+05-2.40860E+06 9.07312E-09-3.78350E-10
 -1       320-6.48768E+06-7.88912E+05-5.51355E+05-2.60213E+06-3.47791E-09 6.25732E-09
 -1       336 2.71304E+02-1.44550E+06-7.30746E+03 3.32727E+03 4.67844E-09 5.35147E-09
 -1       337-2.50991E+03-1.44637E+06-7.50741E+03-8.22372E+03-1.04151E-08-1.92085E-09
 -1       338-1.42829E+00-1.44581E+06-9.67144E+03 4.85274E+03 6.11726E-09 5.46424E-09
 -1       339-9.07396E+03-1.45101E+06-2.03529E+04-1.11895E+04-1.39080E-08 2.15878E-08
 -1       340 5.28165E+03-1.44137E+06-3.19831E+04 6.26537E+03 8.39827E-09 1.78734E-08
 -1       406 1.24173E+01 5.39976E+05 8.98299E+02-3.95946E+00 1.26334E-09-1.31204E-08
 -1       407 2.92055E+02 5.40146E+05 1.91095E+03-9.01189E+00 8.58904E-11 2.54022E-09
 -1       408 9.61590E+02 5.39838E+05 3.81522E+03 1.36398E+01 1.26329E-09 8.03993E-10
 -1       409 4.10627E+03 5.41364E+05 8.59017E+03-1.64065E+02-4.59295E-11-2.63344E-09
 -1       410 1.18365E+04 5.38750E+05 1.75353E+04 1.64609E+02 1.44064E-09 4.28463E-09
 -1       521-1.24620E+07-1.58820E+06-9.41889E+05-5.02441E+06 5.50062E-09-9.89530E-09
 -1       522-1.33477E+07-1.92973E+06-6.34144E+05-4.41996E+06 1.63745E-08-8.25821E-09
 -1       523-1.26223E+07-1.91271E+06-2.20237E+05-4.99239E+06 7.46877E-09-8.28004E-09
 -1       524-1.30570E+07-1.63702E+06-1.29217E+05-4.54894E+06-7.20479E-09-4.66207E-09
 -1       525-1.27416E+07-1.87524E+06-5.51906E+04-4.89297E+06-7.07587E-10-2.33194E-09
 -1       526-1.27926E+07-1.80398E+06-2.48651E+04-4.79074E+06 3.94539E-09-1.24783E-09
 -1       527-1.28761E+07-1.75126E+06-1.83141E+04-4.74359E+06 2.97587E-09 3.38696E-09
 -1       528-1.25878E+07-2.01339E+06-9.38694E+03-5.05078E+06 1.17507E-08 5.43696E-09
 -1       529-1.29548E+07-1.65960E+06-1.39321E+04-4.63942E+06 1.49230E-08 6.55973E-09
 -1       530-1.25315E+07-2.09192E+06-2.75801E+04-5.14394E+06 6.11851E-09-2.80852E-09
 -1       531-1.29399E+07-1.66753E+06-5.10817E+04-4.65583E+06-2.50475E-09-9.59335E-09
 -1       532-1.26595E+07-2.02592E+06-1.25862E+05-4.98878E+06 1.15620E-08 6.86123E-09
 -1       533-1.28173E+07-1.73453E+06-2.20921E+05-4.78673E+06 2.82216E-09 7.10133E-09
 -1       534-1.30944E+07-2.14484E+06-6.18770E+05-4.65420E+06 7.74162E-09 4.19095E-09
 -1       535-1.25053E+07-1.56165E+06-9.25412E+05-4.98465E+06-7.11589E-09 3.49246E-09
 -1       536-7.40313E+04-3.72857E+04 9.30460E+04 6.05985E+03 4.32919E-09-8.53834E-09
 -1       537-2.59319E+04 4.19092E+04 6.58679E+04-5.98611E+04-1.42882E-08-7.86713E-10
 -1       538-5.77172E+04-5.58644E+03 2.38497E+04 6.25256E+03-1.49157E-10-9.09313E-09
 -1       539-4.65291E+04 5.59940E+03 1.53125E+04-6.03251E+04 6.45150E-09-6.60884E-09
 -1       540-5.47140E+04-9.37351E+02 5.90948E+03 6.51095E+03 1.56069E-09-1.10413E-09
 -1       541-5.13163E+04 7.72046E+02 3.69687E+03-6.07669E+04 1.28603E-09 9.60017E-09
 -1       542-5.38821E+04-1.93911E+02 1.37085E+03 6.68716E+03-6.27551E-11-6.44229E-09
 -1       543-5.31122E+04 2.92586E+02 7.46384E+02-6.10454E+04-2.57114E-09-3.88087E-09
 -1       544-5.35420E+04-2.73477E+01 4.23673E+01 6.78880E+03 7.74207E-10 1.18148E-08
 -1       545-5.38995E+04 1.64241E+02-5.32907E+02-6.11733E+04-1.60827E-09 5.09863E-09
 -1       546-5.33832E+04 1.35698E+02-1.22406E+03 6.81594E+03 1.86432E-09 4.88092E-09
 -1       547-5.43807E+04-9.84621E+02-3.10470E+03-6.11483E+04-5.49142E-09 1.28131E-09
 -1       548-5.30097E+04 1.06193E+03-5.24947E+03 6.76356E+03-4.50791E-09 1.75442E-09
 -1       549-5.73192E+04-8.95087E+03-1.37958E+04-6.09419E+04-3.11911E-09-4.14093E-09
 -1       550-5.00547E+04 7.64462E+03-2.03492E+04 6.60865E+03-2.36469E-10 6.99310E-09
 -1       551 3.66961E+04-8.01285E+05 4.20895E+04-1.29480E+06-1.28421E-08-4.58385E-09
 -1       552 5.80947E+04-8.13736E+05 5.21748E+04-1.72719E+06-3.00060E-08 1.74732E-08
 -1       553 4.28964E+04-8.18087E+05 7.84076E+04-1.29112E+06-1.71567E-08 1.45083E-08
 -1       554 9.38089E+04-7.90806E+05 1.63405E+05-1.72764E+06-3.40806E-08 2.99042E-09
 -1       555 1.08578E+05-8.39520E+05 2.97932E+05-1.29282E+06-1.61963E-08-1.24055E-08
 -1       556 4.31569E+04-2.57848E+05 7.71785E+04-3.33753E+05 1.41154E-08 6.40284E-10
 -1       557 1.48267E+05-3.39728E+05 4.15344E+04-4.19878E+05 4.42378E-09 4.25098E-09
 -1       558 3.93001E+04-2.63998E+05 1.58540E+04-3.27815E+05 7.10133E-09 2.27737E-09
 -1       559 1.29910E+05-3.48954E+05 8.37831E+03-4.29273E+05 1.14378E-08 1.97724E-09
 -1       560 3.32925E+04-2.60006E+05 2.99375E+03-3.31925E+05 1.47265E-08 1.05501E-09
 -1       561 1.21552E+05-3.46195E+05 1.80754E+03-4.34699E+05 2.97732E-08-1.82717E-09
 -1       562 2.87030E+04-2.56990E+05 4.84746E+02-3.35197E+05 1.21363E-08 3.21870E-09
 -1       563 1.16240E+05-3.43924E+05 4.34056E+02-4.38145E+05 2.03727E-10 9.01991E-10
 -1       564 2.59039E+04-2.55176E+05 5.41881E+01-3.37163E+05 7.24685E-09-3.85626E-10
 -1       565 1.13547E+05-3.42775E+05-3.52178E+01-4.39864E+05 4.64206E-09-5.86806E-09
 -1       566 2.49720E+04-2.54549E+05-4.19121E+02-3.37825E+05-1.93904E-09-4.05271E-09
 -1       567 1.13357E+05-3.42755E+05-1.08367E+03-4.39834E+05 3.55112E-09-6.18456E-10
 -1       568 2.60130E+04-2.55215E+05-2.54647E+03-3.37220E+05-5.82077E-10 7.23958E-10
 -1       569 1.13532E+05-3.44204E+05-5.93802E+03-4.36937E+05 1.45155E-09 1.06375E-08
 -1       570 3.05315E+04-2.59721E+05-1.20132E+04-3.35351E+05-1.45519E-09-7.58155E-09
 -1       571 3.81437E+05 1.51777E+04 2.25425E+04-9.27792E+04-1.31877E-10 4.09909E-09
 -1       572 3.84778E+05 5.26619E+03 1.10463E+04-1.01687E+05 5.72982E-11 2.91129E-09
 -1       573 3.82741E+05 1.24584E+03 4.90714E+03-9.25277E+04-1.07593E-09-5.20140E-09
 -1       574 3.83126E+05 4.05946E+02 2.45947E+03-1.01961E+05-6.35282E-10-6.95672E-09
 -1       575 3.82863E+05 5.73909E+01 1.15849E+03-9.24956E+04 2.04273E-09 1.11395E-08
 -1       576 3.82888E+05 2.20961E+01 5.88789E+02-1.01997E+05 7.32143E-11 5.64887E-09
 -1       577 3.82880E+05-3.11735E+00 2.86997E+02-9.24914E+04 8.23547E-09 1.52213E-08
 -1       578 3.82871E+05-3.03357E-02 1.50615E+02-1.02002E+05 1.82026E-08 1.91621E-08
 -1       579 3.82919E+05-1.56760E+01 7.99073E+01-9.24910E+04 8.11724E-09 5.32600E-09
 -1       580 3.82929E+05-2.89177E+01 5.54109E+01-1.01997E+05-9.09495E-10 1.40917E-08
 -1       581 3.83000E+05-5.64598E+01 5.10212E+01-9.24957E+04 4.34738E-10 1.31386E-08
 -1       582 3.83046E+05-7.58108E+01 8.29671E+01-1.01945E+05 8.99490E-10-1.37607E-09
 -1       583 3.83117E+05-9.10180E+01 1.42572E+02-9.25433E+04 1.75169E-09 7.36918E-09
 -1       584 3.83251E+05-9.87197E+00 3.20196E+02-1.01539E+05-2.14004E-09-4.24097E-09
 -1       585 3.83226E+05 2.45379E+02 6.36010E+02-9.29018E+04 3.34694E-10 1.08448E-08
 -1       586-1.63266E+03 1.43654E+05-2.07383E+03-2.98570E+05 3.95403E-10 2.61571E-09
 -1       587 2.14798E+02 1.43336E+05 1.30318E+03-3.30359E+05 6.38465E-10-5.44856E-09
 -1       588 1.61699E+03 1.43161E+05 5.21818E+03-2.98330E+05 4.63842E-10 5.56611E-09
 -1       589 6.44324E+03 1.45694E+05 1.30652E+04-3.30171E+05 5.82077E-10-9.56152E-09
 -1       590 1.80409E+04 1.41770E+05 2.71473E+04-2.98759E+05 4.75666E-10-9.28958E-09
 -1       591-1.39911E+05-3.88811E+04-3.28250E+04-6.76977E+04-2.45336E-10-5.35329E-09
 -1       592-1.42672E+05-4.22232E+04-1.71540E+04-7.62629E+04-3.36968E-09-1.03066E-08
 -1       593-1.42491E+05-3.34011E+04-7.23309E+03-7.10799E+04 4.58476E-09 1.97228E-08
 -1       594-1.38526E+05-3.80149E+04-3.57563E+03-7.64397E+04 1.65414E-09 1.02410E-08
 -1       595-1.42708E+05-3.32986E+04-1.64971E+03-7.12100E+04-5.74960E-09 1.44038E-09
 -1       596-1.38258E+05-3.78547E+04-8.35529E+02-7.64031E+04-3.48700E-09-1.73031E-10
 -1       597-1.42740E+05-3.33224E+04-4.52607E+02-7.12125E+04-2.05542E-09 8.64736E-09
 -1       598-1.38230E+05-3.78521E+04-3.58108E+02-7.63922E+04-6.81325E-09 2.65716E-08
 -1       599-1.42736E+05-3.33248E+04-4.50742E+02-7.12107E+04-5.63477E-09-7.98764E-10
 -1       600-1.38252E+05-3.78577E+04-8.30360E+02-7.63959E+04-2.77396E-10-6.21094E-09
 -1       601-1.42697E+05-3.33054E+04-1.63800E+03-7.12044E+04-1.42836E-09-1.66119E-09
 -1       602-1.38512E+05-3.80169E+04-3.54905E+03-7.64225E+04-4.03588E-10 4.00905E-09
 -1       603-1.42473E+05-3.34147E+04-7.17890E+03-7.10743E+04-2.16414E-09 1.42927E-08
 -1       604-1.42647E+05-4.21649E+04-1.70215E+04-7.62063E+04 1.64755E-09-3.08773E-10
 -1       605-1.39879E+05-3.88789E+04-3.25716E+04-6.77437E+04 3.41652E-09 5.66979E-09
 -1       606 9.25393E+04-1.62092E+04-3.01357E+04 4.64703E+04-1.54596E-08 3.87627E-09
 -1       607 8.72776E+04-5.19621E+03-1.50483E+04 5.24651E+04-1.76879E-08-1.85264E-08
 -1       608 9.02116E+04-8.24332E+02-6.75080E+03 4.60912E+04 6.63204E-09 2.47701E-09
 -1       609 8.96122E+04-1.81857E+02-3.41181E+03 5.28772E+04 1.48157E-08 3.92083E-09
 -1       610 8.98982E+04 7.79626E+01-1.63592E+03 4.60504E+04-7.82165E-11-3.22598E-09
 -1       611 8.97633E+04 1.21993E+02-8.23988E+02 5.29195E+04-1.78379E-08-5.87079E-09
 -1       612 8.97883E+04 1.21773E+02-3.96482E+02 4.60470E+04-5.81895E-09-8.02856E-09
 -1       613 8.97194E+04 1.57220E+02-1.78914E+02 5.29232E+04-1.08503E-08 7.25367E-09
 -1       614 8.97184E+04 1.42098E+02-4.91213E+01 4.60461E+04-1.66074E-09 1.47802E-08
 -1       615 8.96685E+04 1.83774E+02 6.14781E+01 5.29228E+04 7.49606E-09 1.25724E-08
 -1       616 8.96657E+04 1.65562E+02 1.96058E+02 4.60469E+04-6.15364E-09-5.63887E-10
 -1       617 8.96597E+04 2.40605E+02 4.53379E+02 5.29209E+04 1.16597E-09 7.50060E-09
 -1       618 8.96041E+04 2.99044E+02 9.14074E+02 4.60473E+04 7.16136E-09 1.05956E-08
 -1       619 8.99688E+04 9.32056E+02 2.05238E+03 5.29169E+04 2.12622E-08 4.12274E-09
 -1       620 8.92836E+04 2.40467E+03 4.11276E+03 4.60444E+04 1.64187E-08-1.10822E-08
 -1       621 6.49148E+02 4.02693E+05 3.67229E+03-1.63317E+04 1.16984E-10 1.07461E-08
 -1       622 4.43500E+02 4.03497E+05 4.08528E+03-2.17349E+04 2.94267E-09-8.75048E-10
 -1       623 1.34217E+02 4.02799E+05 6.10617E+03-1.63305E+04 1.06411E-10-1.03082E-08
 -1       624 2.94486E+03 4.05779E+05 1.26715E+04-2.16709E+04 2.94222E-09-7.64976E-09
 -1       625 5.71864E+03 4.00427E+05 2.33394E+04-1.63920E+04 5.77529E-10-7.07860E-09
 -1       626 3.35631E+05 9.65850E+04 5.23461E+03 1.87570E+05-4.08818E-09 1.00408E-09
 -1       627 3.30026E+05 1.01325E+05 2.53595E+03 1.95568E+05-7.88714E-09-7.49105E-09
 -1       628 3.35846E+05 9.41300E+04 1.06743E+03 1.88209E+05 4.11819E-09 9.62018E-09
 -1       629 3.29101E+05 1.00862E+05 5.28974E+02 1.95939E+05 6.49561E-09 2.01908E-09
 -1       630 3.35802E+05 9.40512E+04 2.46164E+02 1.88179E+05 5.09317E-10 4.56885E-09
 -1       631 3.28943E+05 1.00882E+05 1.42623E+02 1.95905E+05-1.18462E-08-6.42274E-10
 -1       632 3.35744E+05 9.40848E+04 1.09170E+02 1.88140E+05-1.27275E-08-4.42992E-09
 -1       633 3.28888E+05 1.00905E+05 1.47409E+02 1.95868E+05-1.67302E-09 1.22627E-08
 -1       634 3.35700E+05 9.40959E+04 2.59223E+02 1.88118E+05 1.58252E-09-9.17362E-09
 -1       635 3.28886E+05 1.00913E+05 5.38710E+02 1.95858E+05-3.65708E-09 1.54841E-09
 -1       636 3.35666E+05 9.40920E+04 1.09328E+03 1.88108E+05-2.79738E-09-1.03892E-08
 -1       637 3.29104E+05 1.01073E+05 2.40211E+03 1.95856E+05 4.02429E-09 2.18324E-09
 -1       638 3.35578E+05 9.45692E+04 4.93097E+03 1.87883E+05-1.84718E-09-1.01891E-08
 -1       639 3.31692E+05 1.04571E+05 1.16550E+04 1.95180E+05-9.50422E-11 2.16187E-09
 -1       640 3.35192E+05 1.04884E+05 2.41021E+04 1.83442E+05 4.93401E-09-8.56016E-09
 -1       656 4.16279E+04-1.10759E+06-1.10788E+05-3.49109E+03-4.44197E-09-4.19413E-09
 -1       657-5.53346E+04-1.15530E+06-8.98761E+04 5.16360E+04-7.01402E-09-3.35507E-09
 -1       658 1.23404E+04-1.12172E+06-5.67196E+04-4.56845E+03-5.28712E-09 7.49537E-09
 -1       659-6.00549E+04-1.15773E+06-9.64451E+04 5.23536E+04-2.35013E-09 7.13356E-09
 -1       660 4.62836E+04-1.10522E+06-1.22253E+05-4.20815E+03-2.89583E-09 1.14187E-08
 -1       661 3.53367E+05 4.22639E+04 3.09605E+04 1.37639E+05-6.12499E-09-1.50976E-10
 -1       662 3.64343E+05 6.60314E+04 2.00522E+04 1.37798E+05 3.25338E-09-1.36924E-09
 -1       663 3.59004E+05 5.05358E+04 7.31757E+03 1.36472E+05 4.87603E-09-5.09226E-09
 -1       664 3.57862E+05 5.59012E+04 4.15036E+03 1.39432E+05-3.34893E-10 3.47319E-09
 -1       665 3.59728E+05 5.15124E+04 1.72255E+03 1.36340E+05 1.02248E-08 8.92038E-09
 -1       666 3.57019E+05 5.47354E+04 9.60146E+02 1.39632E+05 3.96793E-09 9.04630E-09
 -1       667 3.59838E+05 5.16090E+04 5.31261E+02 1.36308E+05 2.28147E-09 2.91149E-09
 -1       668 3.56895E+05 5.46659E+04 5.19070E+02 1.39699E+05 8.82125E-09 2.25808E-09
 -1       669 3.59854E+05 5.15722E+04 7.25932E+02 1.36279E+05-2.49611E-09 5.85192E-09
 -1       670 3.57006E+05 5.49422E+04 1.51336E+03 1.39748E+05 3.55311E-09 4.69385E-09
 -1       671 3.59733E+05 5.13419E+04 2.81332E+03 1.36258E+05-9.49831E-09-4.45198E-10
 -1       672 3.58292E+05 5.69965E+04 6.85015E+03 1.39565E+05-8.12338E-09-2.16130E-09
 -1       673 3.58595E+05 4.96638E+04 1.20943E+04 1.36409E+05-5.25844E-09 4.60932E-09
 -1       674 3.68920E+05 7.38622E+04 3.31703E+04 1.36993E+05-1.61600E-09-7.80119E-09
 -1       675 3.49318E+05 3.59300E+04 5.12132E+04 1.38286E+05-5.01041E-09-8.33825E-09
 -1       676 3.21348E+01-4.16614E+05-1.73620E+03 1.38260E+02-4.62330E-09-4.35822E-09
 -1       677-3.95825E+02-4.17007E+05-3.15607E+03-2.76222E+02-3.83102E-09 4.98288E-09
 -1       678 2.45012E+02-4.16335E+05-5.62780E+03 1.37842E+02-5.50472E-10 2.74483E-09
 -1       679-5.24010E+03-4.20332E+05-1.32384E+04-2.74682E+02-9.05493E-09-5.27810E-09
 -1       680 2.71606E+03-4.13292E+05-2.16199E+04 1.34497E+02-2.53749E-10 6.69630E-10
 -1       771-4.00359E+06-7.59772E+05-9.82391E+04-1.71348E+06-7.17409E-09-1.08266E-08
 -1       772-3.97702E+06-7.96730E+05-5.05707E+04-1.77060E+06-5.57338E-09 5.20959E-09
 -1       773-4.01696E+06-7.39229E+05-2.28149E+04-1.72278E+06 1.28057E-09 3.84898E-09
 -1       774-3.96631E+06-7.86842E+05-1.08950E+04-1.77934E+06 1.80589E-08-6.90852E-09
 -1       775-4.02237E+06-7.35388E+05-6.03864E+03-1.72438E+06 2.66300E-09-1.00044E-09
 -1       776-3.96822E+06-7.86516E+05-2.73828E+03-1.78497E+06-5.70435E-09-5.59885E-09
 -1       777-4.02667E+06-7.32453E+05-2.06456E+03-1.72565E+06-5.13683E-09 7.20320E-10
 -1       778-3.97064E+06-7.86357E+05-1.05201E+03-1.78965E+06-5.68252E-09 1.31058E-09
 -1       779-4.03015E+06-7.29991E+05-1.41430E+03-1.72671E+06-6.04632E-09-7.36691E-10
 -1       780-3.97279E+06-7.86191E+05-1.70140E+03-1.79334E+06-2.51748E-09 4.12729E-09
 -1       781-4.03266E+06-7.28083E+05-3.35101E+03-1.72751E+06-1.50249E-08-5.88011E-09
 -1       782-3.97482E+06-7.86342E+05-6.82439E+03-1.79594E+06-1.97178E-09 1.35651E-09
 -1       783-4.03388E+06-7.27132E+05-1.38498E+04-1.72779E+06-2.17915E-09 2.00998E-09
 -1       784-3.98359E+06-7.94318E+05-3.28051E+04-1.79692E+06-3.15322E-08 4.93310E-09
 -1       785-4.02952E+06-7.37219E+05-6.28720E+04-1.72162E+06-1.52486E-08-2.57933E-09
 -1       786 3.19152E+05-1.51825E+04 3.90798E+04 2.67159E+02 3.29749E-10-1.27184E-08
 -1       787 3.35422E+05 1.77586E+04 2.70320E+04-2.21287E+03 7.95865E-10-8.37827E-09
 -1       788 3.25560E+05-2.17092E+03 1.01429E+04 2.41845E+02 2.29917E-10-1.75173E-08
 -1       789 3.28040E+05 2.53192E+03 6.17261E+03-2.17891E+03-8.90967E-10-1.15442E-08
 -1       790 3.26536E+05-3.09582E+02 2.59461E+03 2.33239E+02 6.61258E-10-9.77820E-10
 -1       791 3.26912E+05 3.61235E+02 1.48259E+03-2.17810E+03-1.23206E-09 8.70818E-09
 -1       792 3.26689E+05-4.59858E+01 7.07585E+02 2.41034E+02 5.59623E-10 6.89116E-09
 -1       793 3.26744E+05 6.80492E+01 4.74097E+02-2.21044E+03 1.69678E-11 1.34622E-08
 -1       794 3.26705E+05-2.18457E+01 3.94349E+02 2.65581E+02 3.09015E-10-1.71444E-08
 -1       795 3.26780E+05 1.34376E+02 6.04002E+02-2.27678E+03-5.27720E-10-5.05744E-09
 -1       796 3.26654E+05-1.11501E+02 9.61455E+02 3.07372E+02-5.79462E-10 1.92168E-08
 -1       797 3.27181E+05 9.03620E+02 2.22310E+03-2.37778E+03 1.02123E-09 5.99709E-09
 -1       798 3.26305E+05-7.75764E+02 3.62983E+03 3.66577E+02-3.44556E-10-6.04928E-09
 -1       799 3.29821E+05 6.33979E+03 9.65845E+03-2.51533E+03-1.61351E-09-1.90778E-09
 -1       800 3.24015E+05-5.42276E+03 1.39540E+04 4.44854E+02-1.77238E-10-1.39244E-09
 -1       801-5.72565E+04 3.07340E+05 3.00173E+04 1.96408E+05-7.04131E-09-5.48607E-09
 -1       802 1.38747E+05 4.40244E+05 1.10248E+05-1.86743E+06 7.21484E-08-2.00880E-08
 -1       803-2.39783E+04 3.95024E+05 1.18159E+05 1.87924E+05-2.26282E-08 3.33480E-08
 -1       804 2.73739E+05 5.38265E+05 3.06622E+05-1.86976E+06 8.20437E-08 3.58823E-08
 -1       805-1.98638E+05 2.23210E+05 3.61575E+05 1.98421E+05-1.78406E-08 2.88492E-08
 -1       806-3.55391E+05-8.48098E+04-3.12441E+04-1.55113E+05-1.52932E-09 3.11957E-09
 -1       807-3.56338E+05-7.89340E+04-1.51047E+04-1.64153E+05 9.40709E-10 2.81750E-09
 -1       808-3.55817E+05-7.15413E+04-6.38946E+03-1.61035E+05-4.29964E-10-8.67146E-11
 -1       809-3.53173E+05-7.42344E+04-3.11040E+03-1.64885E+05-3.51247E-09 2.81079E-09
 -1       810-3.55932E+05-7.09260E+04-1.41666E+03-1.61348E+05-3.65344E-09 8.40259E-09
 -1       811-3.52902E+05-7.40135E+04-7.00588E+02-1.64867E+05-5.39126E-09-9.55788E-09
 -1       812-3.55951E+05-7.09465E+04-3.46245E+02-1.61349E+05 1.04824E-08 5.12819E-09
 -1       813-3.52861E+05-7.40196E+04-2.12465E+02-1.64842E+05 2.19234E-09 3.87354E-09
 -1       814-3.55939E+05-7.09637E+04-1.90382E+02-1.61339E+05-7.69614E-09-1.44501E-08
 -1       815-3.52854E+05-7.40288E+04-2.87768E+02-1.64827E+05-3.62206E-09-1.05301E-08
 -1       816-3.55906E+05-7.09743E+04-5.33780E+02-1.61326E+05-3.13139E-09 4.34648E-09
 -1       817-3.52942E+05-7.41032E+04-1.14472E+03-1.64792E+05-1.80717E-09-1.16597E-09
 -1       818-3.55825E+05-7.12311E+04-2.34247E+03-1.61213E+05 2.25191E-09 4.24188E-09
 -1       819-3.54221E+05-7.56775E+04-5.52395E+03-1.64327E+05-1.49612E-09 1.09007E-08
 -1       820-3.55503E+05-7.62224E+04-1.14265E+04-1.59187E+05-3.00133E-10 1.12682E-08
 -1       821-4.90232E+05 2.32656E+04-5.98641E+04-8.15943E+02-3.78236E-09 7.37782E-09
 -1       822-5.15111E+05-2.72118E+04-4.14127E+04 3.87614E+03-3.15802E-09-1.64255E-09
 -1       823-5.00042E+05 3.32255E+03-1.55470E+04-1.08835E+03 3.92299E-09-2.08274E-09
 -1       824-5.03816E+05-3.87100E+03-9.47010E+03 4.36344E+03-1.48236E-09-3.60433E-09
 -1       825-5.01529E+05 4.70930E+02-4.01541E+03-1.30354E+03-9.45852E-09 8.48559E-10
 -1       826-5.02109E+05-5.45811E+02-2.35409E+03 4.73260E+03-1.37095E-08 1.15973E-08
 -1       827-5.01754E+05 7.26666E+01-1.24958E+03-1.45761E+03-7.44245E-09-3.36698E-09
 -1       828-5.01894E+05-1.37969E+02-1.08113E+03 4.97479E+03-1.02472E-08-1.88056E-08
 -1       829-5.01750E+05 7.43050E+01-1.26708E+03-1.54577E+03-1.70668E-09 6.47182E-09
 -1       830-5.02135E+05-5.54430E+02-2.40759E+03 5.08159E+03 5.17056E-09 7.43378E-09
 -1       831-5.01515E+05 4.83226E+02-4.10863E+03-1.56441E+03-4.27241E-09-1.94655E-09
 -1       832-5.03900E+05-3.95791E+03-9.70530E+03 5.05094E+03-3.32114E-09-6.58281E-09
 -1       833-4.99987E+05 3.40560E+03-1.59247E+04-1.51499E+03 1.50294E-09 9.44965E-09
 -1       834-5.15486E+05-2.78710E+04-4.24361E+04 4.89392E+03 1.21440E-09 1.56524E-08
 -1       835-4.89932E+05 2.38405E+04-6.13303E+04-1.40658E+03 4.92349E-09 1.25328E-08
 -1       836-3.56564E+03 5.58258E+05 4.08997E+04-3.54200E+04-5.21140E-09 7.21775E-09
 -1       837 9.73830E+03 5.71292E+05 3.27897E+04-7.64711E+04-4.28383E-09 1.63748E-08
 -1       838-9.60910E+02 5.62282E+05 3.00277E+04-3.53271E+04-6.50834E-09 2.86013E-09
 -1       839 1.92318E+04 5.78065E+05 5.41926E+04-7.64826E+04-5.55065E-09 9.05550E-09
 -1       840-7.78659E+03 5.51407E+05 8.39885E+04-3.54037E+04-5.94446E-09 1.74182E-08
 -1       856-2.67221E+05 1.19810E+04-4.18680E+04 2.17953E+03-8.80755E-09-4.84761E-09
 -1       857-2.83104E+05-1.49716E+04-2.75214E+04 1.76950E+04-8.99990E-09-4.40559E-09
 -1       858-2.73741E+05 1.38077E+03-1.08747E+04 2.08592E+03-1.04294E-08-9.71932E-09
 -1       859-2.75810E+05-1.62073E+03-6.21933E+03 1.78303E+04 1.27648E-09 4.45880E-10
 -1       860-2.74562E+05 1.69616E+02-2.76117E+03 2.04202E+03 2.96268E-09-4.09068E-09
 -1       861-2.74900E+05-1.06053E+02-1.48958E+03 1.78890E+04-8.99774E-09 2.35741E-09
 -1       862-2.74675E+05 3.11860E+01-7.22049E+02 2.02673E+03 5.19989E-09 1.40830E-09
 -1       863-2.74776E+05 6.00910E+01-4.26386E+02 1.78945E+04 2.40188E-08 1.79105E-09
 -1       864-2.74689E+05 1.59301E+01-3.05562E+02 2.03650E+03 1.12838E-08 6.22947E-10
 -1       865-2.74762E+05 3.90003E+01-3.71555E+02 1.78483E+04 1.28111E-08-3.66364E-09
 -1       866-2.74669E+05 3.52299E+01-5.78849E+02 2.07300E+03 3.18551E-10 2.04127E-09
 -1       867-2.74898E+05-2.65037E+02-1.22178E+03 1.77486E+04-9.95442E-10 5.45731E-09
 -1       868-2.74508E+05 2.60306E+02-2.12349E+03 2.13644E+03 6.14727E-09-5.54144E-09
 -1       869-2.76257E+05-2.86502E+03-5.32719E+03 1.75589E+04 1.16756E-09-7.00564E-09
 -1       870-2.73245E+05 2.29751E+03-8.12515E+03 2.26310E+03 2.41153E-09-9.26593E-09
 -1       871-6.34077E+03-3.53589E+04-2.11463E+04 1.73764E+05-1.30312E-08-4.43833E-10
 -1       872-3.12326E+03-4.02406E+04-8.27518E+03 2.29181E+05-8.45557E-09 6.01676E-09
 -1       873-2.45550E+02-3.81925E+04 2.19040E+03 1.73371E+05-8.23411E-09 8.03766E-09
 -1       874 3.52298E+03-3.44265E+04 1.42884E+04 2.29271E+05-3.34876E-09-8.75843E-09
 -1       875 7.83189E+03-4.14403E+04 3.07468E+04 1.73705E+05-1.01390E-08 2.45564E-10
 -1       876 4.55844E+05 7.35883E+04 3.15923E+04 1.82158E+05 4.32169E-09 2.40652E-09
 -1       877 4.60070E+05 8.35783E+04 1.75656E+04 1.89095E+05 9.23615E-09-6.20685E-09
 -1       878 4.59488E+05 7.32084E+04 7.22215E+03 1.83807E+05 8.07631E-10 1.05942E-08
 -1       879 4.55350E+05 7.84034E+04 3.64045E+03 1.89400E+05-1.39951E-08 1.01863E-09
 -1       880 4.59752E+05 7.32839E+04 1.67089E+03 1.83901E+05-5.56747E-09 1.15756E-09
 -1       881 4.55012E+05 7.81192E+04 8.74601E+02 1.89354E+05-2.50475E-09 6.29313E-09
 -1       882 4.59774E+05 7.33135E+04 5.19679E+02 1.83909E+05-3.05113E-09 1.30121E-09
 -1       883 4.54987E+05 7.81000E+04 4.99631E+02 1.89334E+05-1.44132E-08 1.94058E-08
 -1       884 4.59764E+05 7.33134E+04 7.39007E+02 1.83910E+05-6.94433E-09 8.56198E-09
 -1       885 4.55050E+05 7.81239E+04 1.45521E+03 1.89348E+05-8.19796E-09 4.73119E-09
 -1       886 4.59706E+05 7.32742E+04 2.90640E+03 1.83900E+05-3.99336E-09 1.01384E-08
 -1       887 4.55651E+05 7.86156E+04 6.39642E+03 1.89402E+05-9.35597E-09 6.67296E-09
 -1       888 4.59218E+05 7.31545E+04 1.27208E+04 1.83734E+05-1.67501E-09 1.88957E-08
 -1       889 4.63897E+05 8.77960E+04 3.09503E+04 1.88912E+05 2.05463E-09 2.24150E-08
 -1       890 4.52849E+05 7.37709E+04 5.56774E+04 1.80748E+05 4.81759E-09-3.51065E-09
 -1       891-4.52064E+01-2.50777E+05-7.11685E+03 4.34451E+04 3.30175E-09-6.13500E-09
 -1       892-1.46990E+03-2.52751E+05-5.73572E+03 7.74396E+04 3.54703E-10-2.89060E-09
 -1       893-4.43680E+01-2.51385E+05-5.71582E+03 4.34202E+04 1.03969E-08-9.77707E-10
 -1       894-3.30606E+03-2.54048E+05-1.04398E+04 7.72371E+04 3.31329E-09-4.19732E-10
 -1       895-1.29699E+02-2.49196E+05-1.69834E+04 4.36428E+04 1.20563E-08 4.82851E-09
 -1       956-5.09514E+05-7.66016E+03-2.04280E+04 4.37574E+04 7.80892E-09 1.21640E-08
 -1       957-5.13655E+05-2.62857E+03-1.05358E+04 5.33338E+04 2.49684E-08-1.08394E-08
 -1       958-5.11423E+05-1.52926E+02-4.75127E+03 4.34614E+04 1.73259E-08-6.55564E-09
 -1       959-5.11779E+05 3.89535E+01-2.42555E+03 5.36544E+04-2.24827E-09 8.03539E-10
 -1       960-5.11629E+05 1.31521E+02-1.18276E+03 4.34305E+04-4.55475E-09-9.27230E-09
 -1       961-5.11687E+05 1.60774E+02-6.21097E+02 5.36910E+04-9.31459E-09 1.76033E-09
 -1       962-5.11691E+05 1.42027E+02-3.46607E+02 4.34239E+04-6.35191E-09 5.35920E-09
 -1       963-5.11707E+05 1.78231E+02-2.60695E+02 5.37001E+04-1.04517E-08 3.27691E-09
 -1       964-5.11713E+05 1.53979E+02-2.96510E+02 4.34211E+04-3.55317E-09-1.57193E-08
 -1       965-5.11733E+05 1.87494E+02-4.95593E+02 5.37014E+04 7.11634E-09-7.71888E-09
 -1       966-5.11697E+05 1.66276E+02-9.22113E+02 4.34226E+04-3.75576E-09-8.19728E-09
 -1       967-5.11840E+05 1.12972E+02-1.88527E+03 5.36828E+04 4.01064E-09-1.32968E-09
 -1       968-5.11564E+05-3.71026E+01-3.68636E+03 4.34402E+04 2.92857E-10 4.19504E-11
 -1       969-5.13328E+05-1.94385E+03-8.18086E+03 5.34851E+04 5.90262E-10 2.19273E-09
 -1       970-5.10100E+05-5.85800E+03-1.58585E+04 4.36298E+04 1.16324E-09-7.80346E-09
 -1       971-5.40149E+05-1.23593E+03-1.80331E+04 1.86089E+04-5.66706E-09 1.91403E-09
 -1       972-5.45035E+05-2.72926E+03-1.01931E+04 2.97640E+04-7.19183E-09 1.57024E-09
 -1       973-5.42371E+05 4.33373E+01-4.50067E+03 1.84114E+04-6.80575E-09-3.59432E-09
 -1       974-5.42753E+05-2.51465E+01-2.34800E+03 2.99862E+04 4.54338E-09-7.67568E-09
 -1       975-5.42558E+05 7.88178E+01-1.16082E+03 1.83818E+04 5.64705E-09-1.02962E-08
 -1       976-5.42621E+05 1.18183E+02-6.55053E+02 3.00279E+04-4.56635E-09-2.51634E-09
 -1       977-5.42595E+05 8.45218E+01-4.49807E+02 1.83691E+04 1.16211E-08-1.53739E-08
 -1       978-5.42632E+05 1.35067E+02-4.91327E+02 3.00459E+04 2.22867E-08-1.71078E-08
 -1       979-5.42598E+05 9.67601E+01-7.60414E+02 1.83636E+04 1.76627E-08-1.22520E-09
 -1       980-5.42692E+05 1.29235E+02-1.45271E+03 3.00491E+04 1.40394E-08-3.13162E-09
 -1       981-5.42547E+05 1.23845E+02-2.80086E+03 1.83659E+04 4.37694E-10 3.33580E-09
 -1       982-5.43119E+05-1.80054E+02-5.81724E+03 3.00325E+04-4.03361E-09-7.60329E-09
 -1       983-5.42142E+05 8.54278E+01-1.12019E+04 1.83812E+04 5.11909E-09-6.95763E-11
 -1       984-5.48943E+05-6.87821E+03-2.54487E+04 2.98907E+04-2.96768E-09 3.65617E-09
 -1       985-5.36659E+05-3.05035E+03-4.50064E+04 1.85244E+04 1.05456E-08 5.63705E-09
 -3
 9999
