
 stresses (elem, integ.pnt.,sxx,syy,szz,sxy,sxz,syz) for set ELALL and time  0.1000000E+01

         1   1  2.538674E+06  9.215143E+06  2.403332E+06 -1.859717E+06  1.137984E+05  9.415155E+05
         1   2  2.044285E+06  7.835258E+06  1.604236E+06 -1.720687E+06  3.842875E+05  4.335454E+05
         1   3  1.686106E+06  6.559839E+06  1.167747E+06 -1.786159E+06  4.504863E+05 -7.295964E+04
         1   4  1.131097E+05 -6.766946E+05  1.172742E+05 -1.758014E+06  1.168177E+05  7.699912E+04
         1   5  3.923277E+04 -6.836898E+05  6.270808E+04 -1.655992E+06  3.864176E+05  4.678360E+04
         1   6  2.021306E+04 -6.693886E+05  4.205886E+04 -1.758441E+06  4.504915E+05  1.679734E+04
         1   7 -2.318875E+06 -1.047732E+07 -2.172544E+06 -1.657740E+06  1.195960E+05 -7.740048E+05
         1   8 -1.969789E+06 -9.132234E+06 -1.481138E+06 -1.592048E+06  3.884898E+05 -3.348694E+05
         1   9 -1.648229E+06 -7.846775E+06 -1.084837E+06 -1.730922E+06  4.505043E+05  1.055559E+05
         1  10  2.538425E+06  9.214198E+06  2.401664E+06 -1.859804E+06  7.600797E-10  6.793812E-08
         1  11  2.044076E+06  7.835018E+06  1.603608E+06 -1.720821E+06 -9.199215E-09 -4.308464E-08
         1  12  1.685887E+06  6.559779E+06  1.167356E+06 -1.786133E+06 -6.113958E-09 -1.499519E-07
         1  13  1.130934E+05 -6.767047E+05  1.172373E+05 -1.758021E+06  6.430614E-09  1.463898E-10
         1  14  3.907183E+04 -6.837323E+05  6.242325E+04 -1.656007E+06  4.993225E-09  1.250578E-12
         1  15  1.999511E+04 -6.694434E+05  4.167699E+04 -1.758447E+06  7.411575E-09  9.024954E-12
         1  16 -2.319054E+06 -1.047797E+07 -2.173715E+06 -1.657666E+06  1.467258E-10 -6.685543E-08
         1  17 -1.969981E+06 -9.132396E+06 -1.481634E+06 -1.591942E+06 -4.846846E-09  4.247651E-08
         1  18 -1.648450E+06 -7.846842E+06 -1.085240E+06 -1.730961E+06 -4.343789E-09  1.485038E-07
         1  19  2.538674E+06  9.215143E+06  2.403332E+06 -1.859717E+06 -1.137984E+05 -9.415155E+05
         1  20  2.044285E+06  7.835258E+06  1.604236E+06 -1.720687E+06 -3.842875E+05 -4.335454E+05
         1  21  1.686106E+06  6.559839E+06  1.167747E+06 -1.786159E+06 -4.504863E+05  7.295964E+04
         1  22  1.131097E+05 -6.766946E+05  1.172742E+05 -1.758014E+06 -1.168177E+05 -7.699912E+04
         1  23  3.923277E+04 -6.836898E+05  6.270808E+04 -1.655992E+06 -3.864176E+05 -4.678360E+04
         1  24  2.021306E+04 -6.693886E+05  4.205886E+04 -1.758441E+06 -4.504915E+05 -1.679734E+04
         1  25 -2.318875E+06 -1.047732E+07 -2.172544E+06 -1.657740E+06 -1.195960E+05  7.740048E+05
         1  26 -1.969789E+06 -9.132234E+06 -1.481138E+06 -1.592048E+06 -3.884898E+05  3.348694E+05
         1  27 -1.648229E+06 -7.846775E+06 -1.084837E+06 -1.730922E+06 -4.505043E+05 -1.055559E+05
         2   1  1.487697E+06  5.720191E+06  1.002310E+06 -1.792241E+06  4.191263E+05 -9.061516E+04
         2   2  1.173701E+06  4.385136E+06  7.557736E+05 -1.670877E+06  3.630335E+05 -1.701009E+05
         2   3  8.856176E+05  3.068378E+06  5.671072E+05 -1.769145E+06  2.807993E+05 -2.497157E+05
         2   4  2.031007E+04 -6.707108E+05  3.736748E+04 -1.761834E+06  4.189345E+05  1.032591E+04
         2   5  2.094517E+04 -6.715011E+05  3.732331E+04 -1.651944E+06  3.622602E+05 -8.439182E+03
         2   6  3.714163E+04 -6.661816E+05  5.322765E+04 -1.761787E+06  2.793339E+05 -2.749185E+04
         2   7 -1.449012E+06 -7.020863E+06 -9.283751E+05 -1.731641E+06  4.187508E+05  1.102757E+05
         2   8 -1.132950E+06 -5.702325E+06 -6.813976E+05 -1.633102E+06  3.614921E+05  1.519696E+05
         2   9 -8.119194E+05 -4.386504E+06 -4.606236E+05 -1.754433E+06  2.778674E+05  1.934605E+05
         2  10  1.487506E+06  5.720135E+06  1.001965E+06 -1.792211E+06 -3.993293E-09  5.105998E-08
         2  11  1.173553E+06  4.385070E+06  7.554727E+05 -1.670828E+06 -2.857938E-09  2.194081E-08
         2  12  8.855166E+05  3.068291E+06  5.668434E+05 -1.769088E+06 -6.377973E-09 -7.846071E-09
         2  13  2.012163E+04 -6.707580E+05  3.703753E+04 -1.761838E+06  1.493261E-08 -1.264325E-10
         2  14  2.080429E+04 -6.715364E+05  3.707669E+04 -1.651942E+06  1.951350E-08 -5.698691E-11
         2  15  3.705771E+04 -6.662033E+05  5.307976E+04 -1.761780E+06  2.046909E-08 -7.668085E-11
         2  16 -1.449204E+06 -7.020923E+06 -9.287281E+05 -1.731679E+06 -6.612383E-09 -5.068730E-08
         2  17 -1.133096E+06 -5.702385E+06 -6.816875E+05 -1.633146E+06 -5.480988E-09 -2.204303E-08
         2  18 -8.120126E+05 -4.386566E+06 -4.608401E+05 -1.754476E+06 -5.624233E-09  7.441118E-09
         2  19  1.487697E+06  5.720191E+06  1.002310E+06 -1.792241E+06 -4.191263E+05  9.061516E+04
         2  20  1.173701E+06  4.385136E+06  7.557736E+05 -1.670877E+06 -3.630335E+05  1.701009E+05
         2  21  8.856176E+05  3.068378E+06  5.671072E+05 -1.769145E+06 -2.807993E+05  2.497157E+05
         2  22  2.031007E+04 -6.707108E+05  3.736748E+04 -1.761834E+06 -4.189345E+05 -1.032591E+04
         2  23  2.094517E+04 -6.715011E+05  3.732331E+04 -1.651944E+06 -3.622602E+05  8.439182E+03
         2  24  3.714163E+04 -6.661816E+05  5.322765E+04 -1.761787E+06 -2.793339E+05  2.749185E+04
         2  25 -1.449012E+06 -7.020863E+06 -9.283751E+05 -1.731641E+06 -4.187508E+05 -1.102757E+05
         2  26 -1.132950E+06 -5.702325E+06 -6.813976E+05 -1.633102E+06 -3.614921E+05 -1.519696E+05
         2  27 -8.119194E+05 -4.386504E+06 -4.606236E+05 -1.754433E+06 -2.778674E+05 -1.934605E+05
         3   1  7.052057E+05  2.250459E+06  4.612525E+05 -1.770868E+06  2.237405E+05 -2.603045E+05
         3   2  4.518100E+05  9.124877E+05  3.251805E+05 -1.583726E+06  1.274767E+05 -3.200552E+05
         3   3  2.914948E+05 -3.946923E+05  2.506671E+05 -1.617963E+06  3.117968E+04 -3.797842E+05
         3   4  4.483757E+04 -6.601058E+05  6.688248E+04 -1.762193E+06  2.221419E+05 -3.692597E+04
         3   5  9.412909E+04 -6.737889E+05  1.162755E+05 -1.650986E+06  1.258133E+05 -9.676399E+04
         3   6  2.366079E+05 -6.586034E+05  2.271340E+05 -1.761027E+06  2.946699E+04 -1.566879E+05
         3   7 -6.158704E+05 -3.561955E+06 -3.273828E+05 -1.753535E+06  2.205442E+05  1.854563E+05
         3   8 -2.636119E+05 -2.257376E+06 -9.245677E+04 -1.718058E+06  1.240986E+05  1.259844E+05
         3   9  1.818235E+05 -9.222886E+05  2.038011E+05 -1.904028E+06  2.765085E+04  6.631955E+04
         3  10  7.051341E+05  2.250373E+06  4.610324E+05 -1.770821E+06 -1.058927E-08  7.263014E-08
         3  11  4.517653E+05  9.123736E+05  3.249583E+05 -1.583693E+06 -5.954026E-09  1.933867E-08
         3  12  2.914550E+05 -3.948475E+05  2.503942E+05 -1.617953E+06 -1.746456E-09 -3.723787E-08
         3  13  4.478427E+04 -6.601205E+05  6.678734E+04 -1.762186E+06  1.773209E-08 -5.566055E-11
         3  14  9.410964E+04 -6.738032E+05  1.162284E+05 -1.650976E+06  2.592966E-09 -3.331590E-10
         3  15  2.366004E+05 -6.586300E+05  2.270863E+05 -1.761024E+06 -2.756255E-09  3.460514E-11
         3  16 -6.159321E+05 -3.562005E+06 -3.275397E+05 -1.753568E+06 -3.515010E-09 -7.271236E-08
         3  17 -2.636328E+05 -2.257397E+06 -9.251583E+04 -1.718071E+06 -8.830960E-09 -1.914731E-08
         3  18  1.818215E+05 -9.222935E+05  2.037914E+05 -1.904029E+06 -2.435151E-09  3.702533E-08
         3  19  7.052057E+05  2.250459E+06  4.612525E+05 -1.770868E+06 -2.237405E+05  2.603045E+05
         3  20  4.518100E+05  9.124877E+05  3.251805E+05 -1.583726E+06 -1.274767E+05  3.200552E+05
         3  21  2.914948E+05 -3.946923E+05  2.506671E+05 -1.617963E+06 -3.117968E+04  3.797842E+05
         3  22  4.483757E+04 -6.601058E+05  6.688248E+04 -1.762193E+06 -2.221419E+05  3.692597E+04
         3  23  9.412909E+04 -6.737889E+05  1.162755E+05 -1.650986E+06 -1.258133E+05  9.676399E+04
         3  24  2.366079E+05 -6.586034E+05  2.271340E+05 -1.761027E+06 -2.946699E+04  1.566879E+05
         3  25 -6.158704E+05 -3.561955E+06 -3.273828E+05 -1.753535E+06 -2.205442E+05 -1.854563E+05
         3  26 -2.636119E+05 -2.257376E+06 -9.245677E+04 -1.718058E+06 -1.240986E+05 -1.259844E+05
         3  27  1.818235E+05 -9.222886E+05  2.038011E+05 -1.904028E+06 -2.765085E+04 -6.631955E+04
         4   1 -8.409823E+06 -2.342732E+06 -1.657413E+06 -2.809969E+06 -1.159634E+06 -4.396524E+05
         4   2 -8.072572E+06 -7.881330E+05 -5.939696E+05 -3.293868E+06 -7.435918E+05 -2.914498E+05
         4   3 -8.625478E+06 -9.301127E+05 -3.446820E+05 -3.134600E+06 -3.325371E+05 -1.303355E+05
         4   4 -9.218980E+06 -2.472591E+06 -1.846400E+06 -2.846892E+06 -1.161203E+06 -4.406660E+05
         4   5 -8.678446E+06 -9.726972E+05 -7.520194E+05 -3.411647E+06 -7.431882E+05 -2.913689E+05
         4   6 -9.029289E+06 -1.170990E+06 -4.742046E+05 -3.333085E+06 -3.300074E+05 -1.293209E+05
         4   7 -1.002744E+07 -2.602444E+06 -2.035409E+06 -2.883833E+06 -1.162769E+06 -4.416800E+05
         4   8 -9.283962E+06 -1.157268E+06 -9.100981E+05 -3.529336E+06 -7.427847E+05 -2.912880E+05
         4   9 -9.432921E+06 -1.411770E+06 -6.037427E+05 -3.531427E+06 -3.274794E+05 -1.283078E+05
         4  10 -8.411337E+06 -2.343310E+06 -1.660348E+06 -2.810384E+06  4.794033E-10  3.210861E-10
         4  11 -8.073196E+06 -7.883766E+05 -5.951870E+05 -3.294044E+06  4.423000E-09  1.603689E-09
         4  12 -8.625603E+06 -9.301614E+05 -3.449256E+05 -3.134635E+06  2.942017E-10  8.306166E-10
         4  13 -9.220500E+06 -2.473172E+06 -1.849347E+06 -2.847309E+06 -4.889952E-09  3.591208E-10
         4  14 -8.679070E+06 -9.729409E+05 -7.532368E+05 -3.411823E+06  3.921082E-09  2.120402E-09
         4  15 -9.029412E+06 -1.171038E+06 -4.744446E+05 -3.333119E+06  4.076004E-10  1.353660E-09
         4  16 -1.002896E+07 -2.603027E+06 -2.038368E+06 -2.884251E+06 -2.756733E-09  6.080102E-10
         4  17 -9.284585E+06 -1.157511E+06 -9.113155E+05 -3.529512E+06  3.759340E-09  2.565407E-09
         4  18 -9.433042E+06 -1.411817E+06 -6.039792E+05 -3.531461E+06  5.102734E-09  1.770367E-09
         4  19 -8.409823E+06 -2.342732E+06 -1.657413E+06 -2.809969E+06  1.159634E+06  4.396524E+05
         4  20 -8.072572E+06 -7.881330E+05 -5.939696E+05 -3.293868E+06  7.435918E+05  2.914498E+05
         4  21 -8.625478E+06 -9.301127E+05 -3.446820E+05 -3.134600E+06  3.325371E+05  1.303355E+05
         4  22 -9.218980E+06 -2.472591E+06 -1.846400E+06 -2.846892E+06  1.161203E+06  4.406660E+05
         4  23 -8.678446E+06 -9.726972E+05 -7.520194E+05 -3.411647E+06  7.431882E+05  2.913689E+05
         4  24 -9.029289E+06 -1.170990E+06 -4.742046E+05 -3.333085E+06  3.300074E+05  1.293209E+05
         4  25 -1.002744E+07 -2.602444E+06 -2.035409E+06 -2.883833E+06  1.162769E+06  4.416800E+05
         4  26 -9.283962E+06 -1.157268E+06 -9.100981E+05 -3.529336E+06  7.427847E+05  2.912880E+05
         4  27 -9.432921E+06 -1.411770E+06 -6.037427E+05 -3.531427E+06  3.274794E+05  1.283078E+05
         5   1 -9.170671E+06 -1.481596E+06 -4.500696E+05 -3.285774E+06 -2.618187E+05 -9.768647E+04
         5   2 -9.152405E+06 -1.366806E+06 -2.689272E+05 -3.467743E+06 -1.699214E+05 -5.846317E+04
         5   3 -9.413966E+06 -1.357034E+06 -2.321113E+05 -3.391671E+06 -7.791806E+04 -1.954905E+04
         5   4 -8.975004E+06 -1.381731E+06 -3.905689E+05 -3.206829E+06 -2.610824E+05 -9.742170E+04
         5   5 -8.820986E+06 -1.234470E+06 -1.760206E+05 -3.371377E+06 -1.692231E+05 -5.820213E+04
         5   6 -8.946770E+06 -1.192150E+06 -1.057429E+05 -3.277912E+06 -7.723516E+04 -1.929041E+04
         5   7 -8.779298E+06 -1.281855E+06 -3.310722E+05 -3.127860E+06 -2.603458E+05 -9.715674E+04
         5   8 -8.489460E+06 -1.102126E+06 -8.312460E+04 -3.274961E+06 -1.685243E+05 -5.794090E+04
         5   9 -8.479363E+06 -1.027261E+06  2.060588E+04 -3.164077E+06 -7.655166E+04 -1.903158E+04
         5  10 -9.170748E+06 -1.481625E+06 -4.502188E+05 -3.285794E+06 -5.870264E-09 -1.627099E-09
         5  11 -9.152437E+06 -1.366817E+06 -2.689889E+05 -3.467752E+06 -7.046653E-09 -3.546234E-09
         5  12 -9.413972E+06 -1.357036E+06 -2.321237E+05 -3.391672E+06 -4.922328E-09  3.529976E-10
         5  13 -8.975081E+06 -1.381760E+06 -3.907173E+05 -3.206850E+06  8.446700E-09  2.023021E-10
         5  14 -8.821018E+06 -1.234482E+06 -1.760818E+05 -3.371385E+06 -8.263655E-10 -2.345208E-09
         5  15 -8.946777E+06 -1.192152E+06 -1.057550E+05 -3.277913E+06  8.766188E-10  5.614956E-10
         5  16 -8.779375E+06 -1.281884E+06 -3.312197E+05 -3.127880E+06  3.058803E-09  5.953696E-10
         5  17 -8.489492E+06 -1.102137E+06 -8.318522E+04 -3.274969E+06 -5.556540E-10 -1.603561E-09
         5  18 -8.479370E+06 -1.027263E+06  2.059400E+04 -3.164078E+06  6.866246E-09  2.230928E-09
         5  19 -9.170671E+06 -1.481596E+06 -4.500696E+05 -3.285774E+06  2.618187E+05  9.768647E+04
         5  20 -9.152405E+06 -1.366806E+06 -2.689272E+05 -3.467743E+06  1.699214E+05  5.846317E+04
         5  21 -9.413966E+06 -1.357034E+06 -2.321113E+05 -3.391671E+06  7.791806E+04  1.954905E+04
         5  22 -8.975004E+06 -1.381731E+06 -3.905689E+05 -3.206829E+06  2.610824E+05  9.742170E+04
         5  23 -8.820986E+06 -1.234470E+06 -1.760206E+05 -3.371377E+06  1.692231E+05  5.820213E+04
         5  24 -8.946770E+06 -1.192150E+06 -1.057429E+05 -3.277912E+06  7.723516E+04  1.929041E+04
         5  25 -8.779298E+06 -1.281855E+06 -3.310722E+05 -3.127860E+06  2.603458E+05  9.715674E+04
         5  26 -8.489460E+06 -1.102126E+06 -8.312460E+04 -3.274961E+06  1.685243E+05  5.794090E+04
         5  27 -8.479363E+06 -1.027261E+06  2.060588E+04 -3.164077E+06  7.655166E+04  1.903158E+04
         6   1 -9.841722E+06 -1.605358E+06 -3.425264E+05 -3.544482E+06 -6.382137E+04 -1.098359E+04
         6   2 -9.849718E+06 -1.610568E+06 -3.102967E+05 -3.592662E+06 -4.295850E+04  7.809992E+02
         6   3 -9.920331E+06 -1.601649E+06 -3.037244E+05 -3.568870E+06 -2.049075E+04  8.265177E+03
         6   4 -8.910579E+06 -1.247786E+06 -8.394269E+04 -3.288473E+06 -6.277641E+04 -1.059280E+04
         6   5 -8.877325E+06 -1.241349E+06 -4.151668E+04 -3.329505E+06 -4.273576E+04  8.623099E+02
         6   6 -8.906487E+06 -1.220578E+06 -2.405780E+04 -3.298575E+06 -2.108985E+04  8.040522E+03
         6   7 -7.978590E+06 -8.901588E+05  1.745604E+05 -3.032109E+06 -6.172963E+04 -1.020130E+04
         6   8 -7.904009E+06 -8.720748E+05  2.271760E+05 -3.065969E+06 -4.251260E+04  9.437863E+02
         6   9 -7.891643E+06 -8.394540E+05  2.555141E+05 -3.027877E+06 -2.169002E+04  7.815475E+03
         6  10 -9.841727E+06 -1.605360E+06 -3.425345E+05 -3.544482E+06 -2.394719E-09 -1.042763E-10
         6  11 -9.849720E+06 -1.610569E+06 -3.103002E+05 -3.592662E+06 -5.828802E-10 -4.358991E-09
         6  12 -9.920331E+06 -1.601650E+06 -3.037253E+05 -3.568870E+06  8.268331E-10 -6.420697E-09
         6  13 -8.910583E+06 -1.247787E+06 -8.395042E+04 -3.288473E+06 -3.490473E-09  1.090147E-09
         6  14 -8.877327E+06 -1.241349E+06 -4.152016E+04 -3.329505E+06 -2.138161E-09 -6.529290E-10
         6  15 -8.906487E+06 -1.220579E+06 -2.405877E+04 -3.298575E+06  3.743463E-10 -3.167463E-09
         6  16 -7.978594E+06 -8.901600E+05  1.745530E+05 -3.032110E+06  2.200080E-09  2.320937E-09
         6  17 -7.904011E+06 -8.720753E+05  2.271726E+05 -3.065969E+06  8.558686E-09 -2.479262E-09
         6  18 -7.891643E+06 -8.394542E+05  2.555130E+05 -3.027877E+06  1.655692E-09 -2.748670E-09
         6  19 -9.841722E+06 -1.605358E+06 -3.425264E+05 -3.544482E+06  6.382137E+04  1.098359E+04
         6  20 -9.849718E+06 -1.610568E+06 -3.102967E+05 -3.592662E+06  4.295850E+04 -7.809992E+02
         6  21 -9.920331E+06 -1.601649E+06 -3.037244E+05 -3.568870E+06  2.049075E+04 -8.265177E+03
         6  22 -8.910579E+06 -1.247786E+06 -8.394269E+04 -3.288473E+06  6.277641E+04  1.059280E+04
         6  23 -8.877325E+06 -1.241349E+06 -4.151668E+04 -3.329505E+06  4.273576E+04 -8.623099E+02
         6  24 -8.906487E+06 -1.220578E+06 -2.405780E+04 -3.298575E+06  2.108985E+04 -8.040522E+03
         6  25 -7.978590E+06 -8.901588E+05  1.745604E+05 -3.032109E+06  6.172963E+04  1.020130E+04
         6  26 -7.904009E+06 -8.720748E+05  2.271760E+05 -3.065969E+06  4.251260E+04 -9.437863E+02
         6  27 -7.891643E+06 -8.394540E+05  2.555141E+05 -3.027877E+06  2.169002E+04 -7.815475E+03
         7   1 -9.772394E+06 -1.599766E+06 -2.680588E+05 -3.577837E+06 -1.758352E+04  8.703479E+03
         7   2 -9.748787E+06 -1.514373E+06 -2.393183E+05 -3.499192E+06 -1.071266E+04  1.031007E+04
         7   3 -9.621341E+06 -1.536462E+06 -2.160156E+05 -3.536456E+06 -2.473620E+03  8.183600E+03
         7   4 -8.871127E+06 -1.259449E+06 -1.928709E+04 -3.335881E+06 -1.738954E+04  8.773810E+03
         7   5 -8.922854E+06 -1.203723E+06 -1.163798E+04 -3.278706E+06 -1.125444E+04  1.010863E+04
         7   6 -8.870602E+06 -1.255315E+06 -8.829670E+03 -3.337433E+06 -3.752958E+03  7.712477E+03
         7   7 -7.969073E+06 -9.190874E+05  2.294088E+05 -3.093604E+06 -1.719524E+04  8.844263E+03
         7   8 -8.096260E+06 -8.930378E+05  2.159791E+05 -3.057952E+06 -1.179702E+04  9.906893E+03
         7   9 -8.119315E+06 -9.741398E+05  1.983042E+05 -3.138189E+06 -5.034020E+03  7.240722E+03
         7  10 -9.772395E+06 -1.599767E+06 -2.680596E+05 -3.577837E+06 -5.787279E-09  5.404347E-10
         7  11 -9.748787E+06 -1.514373E+06 -2.393188E+05 -3.499192E+06  7.120069E-10  1.222303E-09
         7  12 -9.621341E+06 -1.536462E+06 -2.160157E+05 -3.536456E+06 -4.225940E-10  3.690966E-10
         7  13 -8.871128E+06 -1.259449E+06 -1.928781E+04 -3.335881E+06 -1.877778E-09 -2.087480E-09
         7  14 -8.922854E+06 -1.203723E+06 -1.163841E+04 -3.278706E+06 -4.573897E-09  1.046537E-09
         7  15 -8.870602E+06 -1.255315E+06 -8.829808E+03 -3.337433E+06 -6.677945E-09 -9.801200E-10
         7  16 -7.969073E+06 -9.190875E+05  2.294081E+05 -3.093604E+06  7.772616E-09 -2.300143E-09
         7  17 -8.096260E+06 -8.930379E+05  2.159787E+05 -3.057952E+06 -9.388569E-09  1.981876E-09
         7  18 -8.119315E+06 -9.741398E+05  1.983041E+05 -3.138189E+06 -1.581630E-10  2.150787E-09
         7  19 -9.772394E+06 -1.599766E+06 -2.680588E+05 -3.577837E+06  1.758352E+04 -8.703479E+03
         7  20 -9.748787E+06 -1.514373E+06 -2.393183E+05 -3.499192E+06  1.071266E+04 -1.031007E+04
         7  21 -9.621341E+06 -1.536462E+06 -2.160156E+05 -3.536456E+06  2.473620E+03 -8.183600E+03
         7  22 -8.871127E+06 -1.259449E+06 -1.928709E+04 -3.335881E+06  1.738954E+04 -8.773810E+03
         7  23 -8.922854E+06 -1.203723E+06 -1.163798E+04 -3.278706E+06  1.125444E+04 -1.010863E+04
         7  24 -8.870602E+06 -1.255315E+06 -8.829670E+03 -3.337433E+06  3.752958E+03 -7.712477E+03
         7  25 -7.969073E+06 -9.190874E+05  2.294088E+05 -3.093604E+06  1.719524E+04 -8.844263E+03
         7  26 -8.096260E+06 -8.930378E+05  2.159791E+05 -3.057952E+06  1.179702E+04 -9.906893E+03
         7  27 -8.119315E+06 -9.741398E+05  1.983042E+05 -3.138189E+06  5.034020E+03 -7.240722E+03
         8   1 -8.994485E+06 -1.323839E+06 -4.696343E+04 -3.393422E+06 -1.822425E+02  5.239163E+03
         8   2 -8.949766E+06 -1.186798E+06 -1.339980E+04 -3.257299E+06  7.089708E+03  2.758226E+03
         8   3 -8.736120E+06 -1.229396E+06  1.397813E+04 -3.322529E+06  1.437831E+04  2.351941E+02
         8   4 -8.856044E+06 -1.271669E+06 -9.163536E+03 -3.356243E+06 -1.084758E+03  4.907767E+03
         8   5 -8.940737E+06 -1.183481E+06 -1.092768E+04 -3.254970E+06  6.178877E+03  2.423766E+03
         8   6 -8.856518E+06 -1.274932E+06 -1.886990E+04 -3.355057E+06  1.345785E+04 -1.027557E+02
         8   7 -8.717584E+06 -1.219499E+06  2.863457E+04 -3.319057E+06 -1.987497E+03  4.576288E+03
         8   8 -8.931707E+06 -1.180165E+06 -8.455556E+03 -3.252641E+06  5.268032E+03  2.089301E+03
         8   9 -8.976901E+06 -1.320467E+06 -5.171928E+04 -3.387579E+06  1.253760E+04 -4.406311E+02
         8  10 -8.994485E+06 -1.323839E+06 -4.696348E+04 -3.393422E+06  1.428286E-09 -5.703800E-09
         8  11 -8.949767E+06 -1.186798E+06 -1.339991E+04 -3.257299E+06 -1.042644E-09  1.978815E-09
         8  12 -8.736120E+06 -1.229397E+06  1.397773E+04 -3.322529E+06 -3.652337E-09  5.674672E-10
         8  13 -8.856044E+06 -1.271669E+06 -9.163583E+03 -3.356243E+06 -3.490150E-09 -1.702085E-09
         8  14 -8.940737E+06 -1.183481E+06 -1.092776E+04 -3.254970E+06 -4.931246E-09  3.420672E-09
         8  15 -8.856518E+06 -1.274932E+06 -1.887024E+04 -3.355057E+06  1.191177E-09  1.393249E-09
         8  16 -8.717584E+06 -1.219499E+06  2.863452E+04 -3.319057E+06 -3.771584E-09  8.706531E-10
         8  17 -8.931707E+06 -1.180165E+06 -8.455617E+03 -3.252641E+06 -3.875585E-09  1.815800E-09
         8  18 -8.976902E+06 -1.320467E+06 -5.171958E+04 -3.387579E+06  4.457079E-09  9.057414E-10
         8  19 -8.994485E+06 -1.323839E+06 -4.696343E+04 -3.393422E+06  1.822425E+02 -5.239163E+03
         8  20 -8.949766E+06 -1.186798E+06 -1.339980E+04 -3.257299E+06 -7.089708E+03 -2.758226E+03
         8  21 -8.736120E+06 -1.229396E+06  1.397813E+04 -3.322529E+06 -1.437831E+04 -2.351941E+02
         8  22 -8.856044E+06 -1.271669E+06 -9.163536E+03 -3.356243E+06  1.084758E+03 -4.907767E+03
         8  23 -8.940737E+06 -1.183481E+06 -1.092768E+04 -3.254970E+06 -6.178877E+03 -2.423766E+03
         8  24 -8.856518E+06 -1.274932E+06 -1.886990E+04 -3.355057E+06 -1.345785E+04  1.027557E+02
         8  25 -8.717584E+06 -1.219499E+06  2.863457E+04 -3.319057E+06  1.987497E+03 -4.576288E+03
         8  26 -8.931707E+06 -1.180165E+06 -8.455556E+03 -3.252641E+06 -5.268032E+03 -2.089301E+03
         8  27 -8.976901E+06 -1.320467E+06 -5.171928E+04 -3.387579E+06 -1.253760E+04  4.406311E+02
         9   1 -8.132286E+06 -9.795708E+05  1.804728E+05 -3.144690E+06  1.941549E+04 -1.724572E+03
         9   2 -8.104812E+06 -8.907836E+05  1.849002E+05 -3.060355E+06  4.089787E+04  1.021962E+03
         9   3 -7.984795E+06 -9.432542E+05  1.653670E+05 -3.087087E+06  6.102251E+04  7.484467E+03
         9   4 -8.872092E+06 -1.254941E+06 -2.320604E+04 -3.339301E+06  1.812188E+04 -2.200775E+03
         9   5 -8.920214E+06 -1.197853E+06 -3.975665E+04 -3.278736E+06  4.032099E+04  8.075845E+02
         9   6 -8.875961E+06 -1.282213E+06 -8.086755E+04 -3.329250E+06  6.115876E+04  7.533034E+03
         9   7 -9.611368E+06 -1.530285E+06 -2.269353E+05 -3.533701E+06  1.682998E+04 -2.676363E+03
         9   8 -9.734972E+06 -1.504887E+06 -2.644748E+05 -3.496856E+06  3.974492E+04  5.935073E+02
         9   9 -9.766355E+06 -1.621125E+06 -3.271756E+05 -3.571093E+06  6.129474E+04  7.581495E+03
         9  10 -8.132286E+06 -9.795709E+05  1.804721E+05 -3.144690E+06 -1.094096E-09 -9.638706E-10
         9  11 -8.104814E+06 -8.907841E+05  1.848970E+05 -3.060355E+06  4.014706E-09 -5.579927E-09
         9  12 -7.984799E+06 -9.432553E+05  1.653598E+05 -3.087088E+06  4.943611E-09 -1.277312E-09
         9  13 -8.872092E+06 -1.254941E+06 -2.320667E+04 -3.339300E+06 -2.263356E-09  1.879335E-09
         9  14 -8.920216E+06 -1.197853E+06 -3.975975E+04 -3.278736E+06  3.179529E-09 -2.893324E-09
         9  15 -8.875965E+06 -1.282214E+06 -8.087479E+04 -3.329250E+06  1.540156E-09  5.536892E-10
         9  16 -9.611368E+06 -1.530285E+06 -2.269359E+05 -3.533701E+06 -1.412083E-09 -8.502428E-10
         9  17 -9.734973E+06 -1.504887E+06 -2.644778E+05 -3.496856E+06 -4.225654E-09 -2.430074E-09
         9  18 -9.766359E+06 -1.621126E+06 -3.271829E+05 -3.571094E+06 -2.105802E-09  3.417752E-09
         9  19 -8.132286E+06 -9.795708E+05  1.804728E+05 -3.144690E+06 -1.941549E+04  1.724572E+03
         9  20 -8.104812E+06 -8.907836E+05  1.849002E+05 -3.060355E+06 -4.089787E+04 -1.021962E+03
         9  21 -7.984795E+06 -9.432542E+05  1.653670E+05 -3.087087E+06 -6.102251E+04 -7.484467E+03
         9  22 -8.872092E+06 -1.254941E+06 -2.320604E+04 -3.339301E+06 -1.812188E+04  2.200775E+03
         9  23 -8.920214E+06 -1.197853E+06 -3.975665E+04 -3.278736E+06 -4.032099E+04 -8.075845E+02
         9  24 -8.875961E+06 -1.282213E+06 -8.086755E+04 -3.329250E+06 -6.115876E+04 -7.533034E+03
         9  25 -9.611368E+06 -1.530285E+06 -2.269353E+05 -3.533701E+06 -1.682998E+04  2.676363E+03
         9  26 -9.734972E+06 -1.504887E+06 -2.644748E+05 -3.496856E+06 -3.974492E+04 -5.935073E+02
         9  27 -9.766355E+06 -1.621125E+06 -3.271756E+05 -3.571093E+06 -6.129474E+04 -7.581495E+03
        10   1 -7.892767E+06 -8.427225E+05  1.794367E+05 -3.043456E+06  7.696198E+04  1.273397E+04
        10   2 -7.881165E+06 -8.295826E+05  1.006533E+05 -3.065646E+06  1.664025E+05  4.524592E+04
        10   3 -8.020802E+06 -1.024648E+06 -1.140979E+05 -2.962933E+06  2.541212E+05  8.232530E+04
        10   4 -8.918922E+06 -1.217726E+06 -1.011944E+05 -3.306420E+06  7.628613E+04  1.248259E+04
        10   5 -8.856564E+06 -1.204638E+06 -1.696217E+05 -3.334906E+06  1.665033E+05  4.527978E+04
        10   6 -8.945767E+06 -1.400164E+06 -3.748010E+05 -3.238438E+06  2.550054E+05  8.264372E+04
        10   7 -9.944058E+06 -1.592689E+06 -3.819217E+05 -3.568994E+06  7.561143E+04  1.223161E+04
        10   8 -9.831040E+06 -1.579634E+06 -4.399859E+05 -3.603775E+06  1.666038E+05  4.531350E+04
        10   9 -9.869897E+06 -1.775597E+06 -6.355863E+05 -3.513555E+06  2.558879E+05  8.296138E+04
        10  10 -7.892773E+06 -8.427243E+05  1.794251E+05 -3.043457E+06  6.256718E-09  2.308619E-09
        10  11 -7.881196E+06 -8.295924E+05  1.005966E+05 -3.065652E+06  5.660053E-09 -6.889576E-09
        10  12 -8.020874E+06 -1.024673E+06 -1.142340E+05 -2.962950E+06 -1.013906E-10 -2.469433E-09
        10  13 -8.918928E+06 -1.217728E+06 -1.012058E+05 -3.306421E+06 -1.584844E-09  6.732978E-10
        10  14 -8.856595E+06 -1.204648E+06 -1.696786E+05 -3.334912E+06 -1.192253E-09 -3.161745E-09
        10  15 -8.945839E+06 -1.400189E+06 -3.749382E+05 -3.238455E+06 -1.896271E-09 -2.545026E-09
        10  16 -9.944064E+06 -1.592691E+06 -3.819329E+05 -3.568995E+06 -5.784717E-09 -1.924567E-09
        10  17 -9.831071E+06 -1.579644E+06 -4.400429E+05 -3.603781E+06 -1.884175E-09 -2.422556E-09
        10  18 -9.869971E+06 -1.775623E+06 -6.357248E+05 -3.513572E+06 -1.611089E-10 -2.883849E-09
        10  19 -7.892767E+06 -8.427225E+05  1.794367E+05 -3.043456E+06 -7.696198E+04 -1.273397E+04
        10  20 -7.881165E+06 -8.295826E+05  1.006533E+05 -3.065646E+06 -1.664025E+05 -4.524592E+04
        10  21 -8.020802E+06 -1.024648E+06 -1.140979E+05 -2.962933E+06 -2.541212E+05 -8.232530E+04
        10  22 -8.918922E+06 -1.217726E+06 -1.011944E+05 -3.306420E+06 -7.628613E+04 -1.248259E+04
        10  23 -8.856564E+06 -1.204638E+06 -1.696217E+05 -3.334906E+06 -1.665033E+05 -4.527978E+04
        10  24 -8.945767E+06 -1.400164E+06 -3.748010E+05 -3.238438E+06 -2.550054E+05 -8.264372E+04
        10  25 -9.944058E+06 -1.592689E+06 -3.819217E+05 -3.568994E+06 -7.561143E+04 -1.223161E+04
        10  26 -9.831040E+06 -1.579634E+06 -4.399859E+05 -3.603775E+06 -1.666038E+05 -4.531350E+04
        10  27 -9.869897E+06 -1.775597E+06 -6.355863E+05 -3.513555E+06 -2.558879E+05 -8.296138E+04
        11   1 -8.495521E+06 -1.047781E+06 -3.247864E+05 -3.265040E+06  3.214450E+05  1.109497E+05
        11   2 -8.358291E+06 -8.239938E+05 -6.248171E+05 -3.283708E+06  7.188613E+05  2.652035E+05
        11   3 -9.107154E+06 -2.202945E+06 -1.709433E+06 -2.652805E+06  1.115769E+06  4.206275E+05
        11   4 -9.030226E+06 -1.168102E+06 -4.557239E+05 -3.325378E+06  3.219672E+05  1.112000E+05
        11   5 -8.678965E+06 -9.902214E+05 -7.223305E+05 -3.416002E+06  7.194093E+05  2.653452E+05
        11   6 -9.214156E+06 -2.415644E+06 -1.773787E+06 -2.856844E+06  1.116497E+06  4.205106E+05
        11   7 -9.564641E+06 -1.288431E+06 -5.866776E+05 -3.385690E+06  3.224887E+05  1.114502E+05
        11   8 -8.999532E+06 -1.156413E+06 -8.198542E+05 -3.548223E+06  7.199568E+05  2.654865E+05
        11   9 -9.321074E+06 -2.628161E+06 -1.838127E+06 -3.060822E+06  1.117225E+06  4.203932E+05
        11  10 -8.495637E+06 -1.047822E+06 -3.250072E+05 -3.265069E+06  2.027451E-09 -3.320375E-09
        11  11 -8.358872E+06 -8.242118E+05 -6.259380E+05 -3.283863E+06  9.132761E-11 -2.526749E-09
        11  12 -9.108556E+06 -2.203478E+06 -1.712148E+06 -2.653187E+06  3.547265E-10 -3.701211E-09
        11  13 -9.030342E+06 -1.168144E+06 -4.559456E+05 -3.325408E+06  3.606494E-10  1.184072E-09
        11  14 -8.679547E+06 -9.904398E+05 -7.234538E+05 -3.416157E+06  1.108106E-09  1.506280E-09
        11  15 -9.215561E+06 -2.416178E+06 -1.776507E+06 -2.857226E+06 -1.325826E-09 -4.939784E-11
        11  16 -9.564758E+06 -1.288473E+06 -5.869003E+05 -3.385719E+06 -5.256745E-09 -4.699273E-10
        11  17 -9.000115E+06 -1.156632E+06 -8.209798E+05 -3.548379E+06  6.655782E-09  1.386459E-09
        11  18 -9.322481E+06 -2.628695E+06 -1.840850E+06 -3.061204E+06 -3.971900E-09  2.228494E-10
        11  19 -8.495521E+06 -1.047781E+06 -3.247864E+05 -3.265040E+06 -3.214450E+05 -1.109497E+05
        11  20 -8.358291E+06 -8.239938E+05 -6.248171E+05 -3.283708E+06 -7.188613E+05 -2.652035E+05
        11  21 -9.107154E+06 -2.202945E+06 -1.709433E+06 -2.652805E+06 -1.115769E+06 -4.206275E+05
        11  22 -9.030226E+06 -1.168102E+06 -4.557239E+05 -3.325378E+06 -3.219672E+05 -1.112000E+05
        11  23 -8.678965E+06 -9.902214E+05 -7.223305E+05 -3.416002E+06 -7.194093E+05 -2.653452E+05
        11  24 -9.214156E+06 -2.415644E+06 -1.773787E+06 -2.856844E+06 -1.116497E+06 -4.205106E+05
        11  25 -9.564641E+06 -1.288431E+06 -5.866776E+05 -3.385690E+06 -3.224887E+05 -1.114502E+05
        11  26 -8.999532E+06 -1.156413E+06 -8.198542E+05 -3.548223E+06 -7.199568E+05 -2.654865E+05
        11  27 -9.321074E+06 -2.628161E+06 -1.838127E+06 -3.060822E+06 -1.117225E+06 -4.203932E+05
        12   1  1.451983E+05 -7.942487E+05  1.394552E+05 -2.597376E+02  2.004049E+04 -5.403107E+00
        12   2  1.448108E+05 -7.959100E+05  1.390478E+05  1.047600E+02  2.000123E+04  7.003704E+00
        12   3  1.444610E+05 -7.972435E+05  1.387099E+05 -5.616180E+02  1.991269E+04  1.931603E+01
        12   4 -5.794136E+01 -1.380342E+06 -3.945420E+01 -2.290990E+02  2.004176E+04  2.659402E+00
        12   5 -7.310853E+01 -1.380503E+06 -8.565823E+01  2.863791E+02  2.000248E+04  4.222232E+01
        12   6 -5.541102E+01 -1.380342E+06 -8.134835E+01 -2.290735E+02  1.991389E+04  8.169118E+01
        12   7 -1.453390E+05 -1.966119E+06 -1.395582E+05 -1.984820E+02  2.004303E+04  1.071433E+01
        12   8 -1.449817E+05 -1.964782E+06 -1.392431E+05  4.678585E+02  2.000373E+04  7.740789E+01
        12   9 -1.445963E+05 -1.963127E+06 -1.388964E+05  1.032140E+02  1.991510E+04  1.440079E+02
        12  10  1.451979E+05 -7.942488E+05  1.394544E+05 -2.597375E+02  2.044186E-09 -1.663705E-09
        12  11  1.448104E+05 -7.959101E+05  1.390471E+05  1.047598E+02 -1.493054E-09 -1.322652E-09
        12  12  1.444605E+05 -7.972436E+05  1.387091E+05 -5.616183E+02 -5.987142E-09 -4.565247E-10
        12  13 -5.837241E+01 -1.380342E+06 -4.020853E+01 -2.290990E+02 -2.324401E-09 -4.622850E-11
        12  14 -7.353789E+01 -1.380503E+06 -8.640961E+01  2.863784E+02 -3.041643E-09 -2.238628E-10
        12  15 -5.583658E+01 -1.380342E+06 -8.209310E+01 -2.290748E+02 -2.655667E-09  1.543659E-11
        12  16 -1.453395E+05 -1.966119E+06 -1.395589E+05 -1.984822E+02 -1.166078E-09  1.555071E-09
        12  17 -1.449821E+05 -1.964782E+06 -1.392438E+05  4.678573E+02 -3.155743E-09  6.707617E-10
        12  18 -1.445968E+05 -1.963127E+06 -1.388971E+05  1.032117E+02 -7.503060E-10 -1.626854E-10
        12  19  1.451983E+05 -7.942487E+05  1.394552E+05 -2.597376E+02 -2.004049E+04  5.403107E+00
        12  20  1.448108E+05 -7.959100E+05  1.390478E+05  1.047600E+02 -2.000123E+04 -7.003705E+00
        12  21  1.444610E+05 -7.972435E+05  1.387099E+05 -5.616180E+02 -1.991269E+04 -1.931603E+01
        12  22 -5.794136E+01 -1.380342E+06 -3.945420E+01 -2.290990E+02 -2.004176E+04 -2.659402E+00
        12  23 -7.310853E+01 -1.380503E+06 -8.565823E+01  2.863791E+02 -2.000248E+04 -4.222232E+01
        12  24 -5.541102E+01 -1.380342E+06 -8.134835E+01 -2.290735E+02 -1.991389E+04 -8.169118E+01
        12  25 -1.453390E+05 -1.966119E+06 -1.395582E+05 -1.984820E+02 -2.004303E+04 -1.071433E+01
        12  26 -1.449817E+05 -1.964782E+06 -1.392431E+05  4.678585E+02 -2.000373E+04 -7.740789E+01
        12  27 -1.445963E+05 -1.963127E+06 -1.388964E+05  1.032140E+02 -1.991510E+04 -1.440079E+02
        13   1  1.435504E+05 -8.009108E+05  1.377946E+05 -1.068327E+03  1.983831E+04  1.842795E+01
        13   2  1.424283E+05 -8.055358E+05  1.366214E+05  3.172795E+02  1.967159E+04  9.760078E+01
        13   3  1.413412E+05 -8.098613E+05  1.354695E+05 -1.351475E+03  1.945628E+04  1.764957E+02
        13   4 -5.515564E+01 -1.380347E+06 -1.070949E+02 -6.787695E+02  1.983947E+04  9.687757E+01
        13   5 -6.908933E+01 -1.380494E+06 -2.197508E+02  8.485111E+02  1.967269E+04  2.027754E+02
        13   6 -5.285669E+01 -1.380346E+06 -3.298148E+02 -6.787457E+02  1.945727E+04  3.083959E+02
        13   7 -1.436849E+05 -1.959474E+06 -1.380323E+05 -2.895067E+02  1.984064E+04  1.752542E+02
        13   8 -1.425904E+05 -1.955147E+06 -1.370841E+05  1.379341E+03  1.967378E+04  3.078529E+02
        13   9 -1.414704E+05 -1.950531E+06 -1.361519E+05 -6.522835E+00  1.945827E+04  4.401752E+02
        13  10  1.435499E+05 -8.009109E+05  1.377938E+05 -1.068328E+03 -3.367724E-09  4.703415E-10
        13  11  1.424279E+05 -8.055359E+05  1.366207E+05  3.172779E+02  1.583106E-09  4.476485E-10
        13  12  1.413408E+05 -8.098614E+05  1.354688E+05 -1.351478E+03 -8.353781E-10  1.527735E-09
        13  13 -5.557803E+01 -1.380347E+06 -1.078341E+02 -6.787711E+02 -2.800239E-11  6.078691E-11
        13  14 -6.950465E+01 -1.380494E+06 -2.204777E+02  8.485079E+02 -1.933574E-09 -5.329942E-10
        13  15 -5.326299E+01 -1.380346E+06 -3.305260E+02 -6.787506E+02 -2.998749E-09 -1.446724E-10
        13  16 -1.436854E+05 -1.959474E+06 -1.380330E+05 -2.895095E+02  4.335985E-09 -1.179571E-09
        13  17 -1.425908E+05 -1.955147E+06 -1.370848E+05  1.379336E+03 -5.911850E-09 -2.361903E-09
        13  18 -1.414709E+05 -1.950531E+06 -1.361526E+05 -6.529739E+00 -2.934557E-09 -2.820326E-09
        13  19  1.435504E+05 -8.009108E+05  1.377946E+05 -1.068327E+03 -1.983831E+04 -1.842795E+01
        13  20  1.424283E+05 -8.055358E+05  1.366214E+05  3.172795E+02 -1.967159E+04 -9.760078E+01
        13  21  1.413412E+05 -8.098613E+05  1.354695E+05 -1.351475E+03 -1.945628E+04 -1.764957E+02
        13  22 -5.515564E+01 -1.380347E+06 -1.070949E+02 -6.787695E+02 -1.983947E+04 -9.687757E+01
        13  23 -6.908933E+01 -1.380494E+06 -2.197508E+02  8.485111E+02 -1.967269E+04 -2.027754E+02
        13  24 -5.285669E+01 -1.380346E+06 -3.298148E+02 -6.787457E+02 -1.945727E+04 -3.083959E+02
        13  25 -1.436849E+05 -1.959474E+06 -1.380323E+05 -2.895067E+02 -1.984064E+04 -1.752542E+02
        13  26 -1.425904E+05 -1.955147E+06 -1.370841E+05  1.379341E+03 -1.967378E+04 -3.078529E+02
        13  27 -1.414704E+05 -1.950531E+06 -1.361519E+05 -6.522835E+00 -1.945827E+04 -4.401752E+02
        14   1  1.395453E+05 -8.171359E+05  1.335995E+05 -1.825637E+03  1.930900E+04  2.288558E+02
        14   2  1.377115E+05 -8.246185E+05  1.315005E+05  5.555576E+02  1.901692E+04  5.925804E+02
        14   3  1.358355E+05 -8.318943E+05  1.292103E+05 -2.091181E+03  1.867502E+04  9.558467E+02
        14   4 -4.396149E+01 -1.380364E+06 -4.371774E+02 -1.117297E+03  1.930992E+04  3.756318E+02
        14   5 -5.214728E+01 -1.380464E+06 -7.937506E+02  1.396750E+03  1.901771E+04  7.665354E+02
        14   6 -1.073973E+02 -1.380363E+06 -1.360676E+03 -1.117422E+03  1.867565E+04  1.156984E+03
        14   7 -1.396561E+05 -1.943301E+06 -1.344961E+05 -4.094775E+02  1.931084E+04  5.222750E+02
        14   8 -1.378381E+05 -1.936026E+06 -1.331097E+05  2.237328E+03  1.901849E+04  9.403350E+02
        14   9 -1.360721E+05 -1.928555E+06 -1.319528E+05 -1.443666E+02  1.867628E+04  1.357945E+03
        14  10  1.395449E+05 -8.171360E+05  1.335988E+05 -1.825640E+03  1.199716E-09  7.169251E-09
        14  11  1.377111E+05 -8.246186E+05  1.314999E+05  5.555485E+02 -4.334427E-09  2.411207E-09
        14  12  1.358352E+05 -8.318944E+05  1.292097E+05 -2.091195E+03 -8.820722E-10 -6.104550E-09
        14  13 -4.436167E+01 -1.380364E+06 -4.378779E+02 -1.117303E+03 -1.824880E-09  6.901836E-11
        14  14 -5.253556E+01 -1.380464E+06 -7.944309E+02  1.396738E+03  2.241031E-09 -1.096810E-09
        14  15 -1.077719E+02 -1.380363E+06 -1.361333E+03 -1.117439E+03 -6.105946E-09 -1.111009E-10
        14  16 -1.396565E+05 -1.943301E+06 -1.344968E+05 -4.094857E+02  2.981352E-10 -8.512371E-09
        14  17 -1.378385E+05 -1.936026E+06 -1.331104E+05  2.237314E+03  2.685375E-09 -5.551313E-09
        14  18 -1.360724E+05 -1.928555E+06 -1.319534E+05 -1.443870E+02  9.227775E-10  4.358863E-09
        14  19  1.395453E+05 -8.171359E+05  1.335995E+05 -1.825637E+03 -1.930900E+04 -2.288558E+02
        14  20  1.377115E+05 -8.246185E+05  1.315005E+05  5.555576E+02 -1.901692E+04 -5.925804E+02
        14  21  1.358355E+05 -8.318943E+05  1.292103E+05 -2.091181E+03 -1.867502E+04 -9.558467E+02
        14  22 -4.396149E+01 -1.380364E+06 -4.371774E+02 -1.117297E+03 -1.930992E+04 -3.756318E+02
        14  23 -5.214728E+01 -1.380464E+06 -7.937506E+02  1.396750E+03 -1.901771E+04 -7.665354E+02
        14  24 -1.073973E+02 -1.380363E+06 -1.360676E+03 -1.117422E+03 -1.867565E+04 -1.156984E+03
        14  25 -1.396561E+05 -1.943301E+06 -1.344961E+05 -4.094775E+02 -1.931084E+04 -5.222750E+02
        14  26 -1.378381E+05 -1.936026E+06 -1.331097E+05  2.237328E+03 -1.901849E+04 -9.403350E+02
        14  27 -1.360721E+05 -1.928555E+06 -1.319528E+05 -1.443666E+02 -1.867628E+04 -1.357945E+03
        15   1  9.337519E+04  9.978039E+05  5.245557E+04 -4.435931E+00  3.277770E+04  2.000415E-01
        15   2  9.338066E+04  9.978288E+05  5.246443E+04 -2.571027E+01  3.277901E+04 -6.347524E+00
        15   3  9.338745E+04  9.978641E+05  5.248083E+04 -4.364486E+01  3.278164E+04 -1.289471E+01
        15   4 -3.483054E+01  5.828069E+05  1.733279E+01  7.425006E-01  3.278001E+04 -1.353010E+00
        15   5 -3.654663E+01  5.828014E+05  2.064621E+01 -9.270305E-01  3.278132E+04 -1.107753E+01
        15   6 -3.639964E+01  5.828069E+05  3.370551E+01  7.439938E-01  3.278396E+04 -2.080171E+01
        15   7 -9.345186E+04  1.679865E+05 -5.242145E+04  5.917956E+00  3.278233E+04 -2.905076E+00
        15   8 -9.346076E+04  1.679506E+05 -5.242368E+04  2.384174E+01  3.278364E+04 -1.580453E+01
        15   9 -9.346726E+04  1.679263E+05 -5.241397E+04  4.510688E+01  3.278627E+04 -2.870369E+01
        15  10  9.337404E+04  9.978036E+05  5.245355E+04 -4.435936E+00 -1.927072E-08 -6.923260E-09
        15  11  9.337951E+04  9.978285E+05  5.246241E+04 -2.571011E+01 -6.285356E-09 -5.186572E-08
        15  12  9.338630E+04  9.978638E+05  5.247881E+04 -4.364452E+01 -8.543653E-09 -9.158536E-08
        15  13 -3.598471E+01  5.828066E+05  1.531299E+01  7.425365E-01 -1.343349E-08 -7.054552E-12
        15  14 -3.770089E+01  5.828011E+05  1.862624E+01 -9.267379E-01  8.234246E-09 -1.432715E-10
        15  15 -3.755409E+01  5.828066E+05  3.168522E+01  7.445431E-01  2.905251E-08  1.865612E-10
        15  16 -9.345301E+04  1.679862E+05 -5.242347E+04  5.918033E+00 -1.767090E-08  6.912867E-09
        15  17 -9.346192E+04  1.679503E+05 -5.242570E+04  2.384216E+01 -1.021212E-08  5.178791E-08
        15  18 -9.346841E+04  1.679260E+05 -5.241599E+04  4.510764E+01 -9.510463E-09  9.159264E-08
        15  19  9.337519E+04  9.978039E+05  5.245557E+04 -4.435931E+00 -3.277770E+04 -2.000415E-01
        15  20  9.338066E+04  9.978288E+05  5.246443E+04 -2.571027E+01 -3.277901E+04  6.347524E+00
        15  21  9.338745E+04  9.978641E+05  5.248083E+04 -4.364486E+01 -3.278164E+04  1.289471E+01
        15  22 -3.483054E+01  5.828069E+05  1.733279E+01  7.425007E-01 -3.278001E+04  1.353010E+00
        15  23 -3.654663E+01  5.828014E+05  2.064621E+01 -9.270303E-01 -3.278132E+04  1.107753E+01
        15  24 -3.639964E+01  5.828069E+05  3.370551E+01  7.439940E-01 -3.278396E+04  2.080171E+01
        15  25 -9.345186E+04  1.679865E+05 -5.242145E+04  5.917956E+00 -3.278233E+04  2.905076E+00
        15  26 -9.346076E+04  1.679506E+05 -5.242368E+04  2.384174E+01 -3.278364E+04  1.580453E+01
        15  27 -9.346726E+04  1.679263E+05 -5.241397E+04  4.510688E+01 -3.278627E+04  2.870369E+01
        16   1  9.339519E+04  9.979020E+05  5.249612E+04 -5.230933E+01  3.278401E+04 -1.654524E+01
        16   2  9.341232E+04  9.979846E+05  5.254198E+04 -8.249816E+01  3.278803E+04 -5.462085E+01
        16   3  9.343243E+04  9.980821E+05  5.261631E+04 -9.839623E+01  3.279106E+04 -9.269555E+01
        16   4 -3.718313E+01  5.828076E+05  4.343573E+01  3.177705E+00  3.278633E+04 -2.737527E+01
        16   5 -4.125929E+01  5.828004E+05  7.312301E+01 -3.967632E+00  3.279035E+04 -6.303543E+01
        16   6 -4.276424E+01  5.828076E+05  1.296101E+02  3.178341E+00  3.279338E+04 -9.869466E+01
        16   7 -9.347657E+04  1.678900E+05 -5.240980E+04  5.863230E+01  3.278864E+04 -3.819843E+01
        16   8 -9.350185E+04  1.677929E+05 -5.239628E+04  7.451654E+01  3.279267E+04 -7.144465E+01
        16   9 -9.352498E+04  1.677099E+05 -5.235764E+04  1.046926E+02  3.279569E+04 -1.046899E+02
        16  10  9.339404E+04  9.979017E+05  5.249410E+04 -5.230890E+01 -1.004394E-08  6.454491E-08
        16  11  9.341116E+04  9.979843E+05  5.253996E+04 -8.249672E+01 -9.138175E-09  7.141921E-08
        16  12  9.343128E+04  9.980818E+05  5.261429E+04 -9.839378E+01 -2.264493E-09  7.123819E-08
        16  13 -3.833774E+01  5.828074E+05  4.141515E+01  3.178427E+00  2.434099E-08  1.302488E-10
        16  14 -4.241419E+01  5.828001E+05  7.110193E+01 -3.965968E+00  1.429989E-08 -4.687566E-10
        16  15 -4.391936E+01  5.828073E+05  1.275886E+02  3.180947E+00  4.460149E-09  3.345727E-10
        16  16 -9.347772E+04  1.678897E+05 -5.241182E+04  5.863331E+01 -1.006094E-08 -6.475133E-08
        16  17 -9.350300E+04  1.677926E+05 -5.239831E+04  7.451843E+01 -6.560929E-09 -7.159466E-08
        16  18 -9.352613E+04  1.677097E+05 -5.235966E+04  1.046954E+02 -2.477114E-11 -7.109381E-08
        16  19  9.339519E+04  9.979020E+05  5.249612E+04 -5.230933E+01 -3.278401E+04  1.654524E+01
        16  20  9.341232E+04  9.979846E+05  5.254198E+04 -8.249817E+01 -3.278803E+04  5.462085E+01
        16  21  9.343243E+04  9.980821E+05  5.261631E+04 -9.839623E+01 -3.279106E+04  9.269555E+01
        16  22 -3.718313E+01  5.828076E+05  4.343573E+01  3.177704E+00 -3.278633E+04  2.737527E+01
        16  23 -4.125929E+01  5.828004E+05  7.312301E+01 -3.967632E+00 -3.279035E+04  6.303543E+01
        16  24 -4.276424E+01  5.828076E+05  1.296101E+02  3.178341E+00 -3.279338E+04  9.869466E+01
        16  25 -9.347657E+04  1.678900E+05 -5.240980E+04  5.863230E+01 -3.278864E+04  3.819843E+01
        16  26 -9.350185E+04  1.677929E+05 -5.239628E+04  7.451654E+01 -3.279267E+04  7.144465E+01
        16  27 -9.352498E+04  1.677099E+05 -5.235764E+04  1.046926E+02 -3.279569E+04  1.046899E+02
        17   1  9.344847E+04  9.981617E+05  5.267295E+04 -1.114014E+02  3.279346E+04 -1.179061E+02
        17   2  9.348151E+04  9.982917E+05  5.284542E+04 -1.514627E+02  3.278743E+04 -3.091912E+02
        17   3  9.353854E+04  9.984619E+05  5.315124E+04 -1.675872E+02  3.276292E+04 -5.004804E+02
        17   4 -4.487547E+01  5.828116E+05  1.710959E+02  5.320625E+00  3.279577E+04 -1.254236E+02
        17   5 -5.030491E+01  5.827953E+05  2.975111E+02 -6.646511E+00  3.278973E+04 -2.722055E+02
        17   6 -3.944429E+01  5.828115E+05  5.264529E+02  5.323361E+00  3.276520E+04 -4.189921E+02
        17   7 -9.354524E+04  1.676383E+05 -5.233131E+04  1.219730E+02  3.279809E+04 -1.329364E+02
        17   8 -9.358914E+04  1.674759E+05 -5.225096E+04  1.380826E+02  3.279203E+04 -2.352433E+02
        17   9 -9.362447E+04  1.673382E+05 -5.209892E+04  1.781294E+02  3.276748E+04 -3.375556E+02
        17  10  9.344732E+04  9.981614E+05  5.267092E+04 -1.113982E+02 -2.920052E-09 -1.473163E-07
        17  11  9.348035E+04  9.982914E+05  5.284340E+04 -1.514546E+02 -7.206799E-09 -1.561055E-08
        17  12  9.353739E+04  9.984616E+05  5.314923E+04 -1.675740E+02 -7.920612E-09  1.205213E-07
        17  13 -4.603076E+01  5.828113E+05  1.690742E+02  5.323937E+00  7.494672E-10  3.129158E-10
        17  14 -5.145978E+01  5.827950E+05  2.954899E+02 -6.639324E+00  5.999806E-09 -7.437057E-10
        17  15 -4.059747E+01  5.828112E+05  5.244346E+02  5.334415E+00  7.731760E-09  5.571325E-10
        17  16 -9.354640E+04  1.676381E+05 -5.233333E+04  1.219765E+02 -8.678840E-10  1.467771E-07
        17  17 -9.359030E+04  1.674756E+05 -5.225298E+04  1.380889E+02 -2.242038E-09  1.534019E-08
        17  18 -9.362562E+04  1.673379E+05 -5.210094E+04  1.781383E+02 -7.227550E-09 -1.202894E-07
        17  19  9.344847E+04  9.981617E+05  5.267295E+04 -1.114014E+02 -3.279346E+04  1.179061E+02
        17  20  9.348151E+04  9.982917E+05  5.284542E+04 -1.514627E+02 -3.278743E+04  3.091912E+02
        17  21  9.353854E+04  9.984619E+05  5.315124E+04 -1.675872E+02 -3.276292E+04  5.004804E+02
        17  22 -4.487547E+01  5.828116E+05  1.710959E+02  5.320625E+00 -3.279577E+04  1.254236E+02
        17  23 -5.030491E+01  5.827953E+05  2.975111E+02 -6.646511E+00 -3.278973E+04  2.722055E+02
        17  24 -3.944429E+01  5.828115E+05  5.264529E+02  5.323360E+00 -3.276520E+04  4.189921E+02
        17  25 -9.354524E+04  1.676383E+05 -5.233131E+04  1.219730E+02 -3.279809E+04  1.329364E+02
        17  26 -9.358914E+04  1.674759E+05 -5.225096E+04  1.380826E+02 -3.279203E+04  2.352433E+02
        17  27 -9.362447E+04  1.673382E+05 -5.209892E+04  1.781294E+02 -3.276748E+04  3.375556E+02
        18   1 -8.944436E+06 -2.945248E+06 -1.865057E+06 -3.126580E+06 -8.304863E+05 -2.853248E+05
        18   2 -8.745172E+06 -1.741601E+06 -1.104734E+06 -3.236469E+06 -5.420352E+05 -1.128316E+05
        18   3 -8.966391E+06 -1.682361E+06 -8.804043E+05 -3.097078E+06 -2.319517E+05  2.924208E+03
        18   4 -6.858027E+06 -1.859951E+06 -1.235070E+06 -2.263170E+06 -7.898142E+05 -2.703398E+05
        18   5 -6.584217E+06 -8.377913E+05 -5.165442E+05 -2.559212E+06 -5.295081E+05 -1.081986E+05
        18   6 -6.723805E+06 -9.521861E+05 -3.101109E+05 -2.606424E+06 -2.475812E+05 -2.943581E+03
        18   7 -4.767135E+06 -7.731231E+05 -6.055099E+05 -1.396716E+06 -7.489861E+05 -2.552463E+05
        18   8 -4.418641E+06  6.660531E+04  7.122121E+04 -1.879683E+06 -5.169297E+05 -1.035415E+05
        18   9 -4.476268E+06 -2.219923E+05  2.597908E+05 -2.114283E+06 -2.632722E+05 -8.827070E+03
        18  10 -8.945209E+06 -2.945525E+06 -1.866530E+06 -3.126773E+06 -1.614135E-09  1.003307E-09
        18  11 -8.745495E+06 -1.741695E+06 -1.105320E+06 -3.236519E+06  6.015740E-10  3.082676E-09
        18  12 -8.966450E+06 -1.682376E+06 -8.805068E+05 -3.097078E+06  3.019629E-09 -2.847815E-11
        18  13 -6.858723E+06 -1.860201E+06 -1.236396E+06 -2.263343E+06 -5.531806E-09  6.930405E-10
        18  14 -6.584524E+06 -8.378805E+05 -5.170998E+05 -2.559259E+06  1.885173E-09  1.878961E-09
        18  15 -6.723871E+06 -9.522027E+05 -3.102273E+05 -2.606425E+06  4.775674E-09  1.628519E-10
        18  16 -4.767759E+06 -7.733457E+05 -6.066965E+05 -1.396870E+06  2.634676E-09  7.204024E-10
        18  17 -4.418933E+06  6.652120E+04  7.069458E+04 -1.879727E+06  6.614795E-09  7.048772E-10
        18  18 -4.476343E+06 -2.220112E+05  2.596594E+05 -2.114285E+06  4.951692E-10  2.678293E-10
        18  19 -8.944436E+06 -2.945248E+06 -1.865057E+06 -3.126580E+06  8.304863E+05  2.853248E+05
        18  20 -8.745172E+06 -1.741601E+06 -1.104734E+06 -3.236469E+06  5.420352E+05  1.128316E+05
        18  21 -8.966391E+06 -1.682361E+06 -8.804043E+05 -3.097078E+06  2.319517E+05 -2.924208E+03
        18  22 -6.858027E+06 -1.859951E+06 -1.235070E+06 -2.263170E+06  7.898142E+05  2.703398E+05
        18  23 -6.584217E+06 -8.377913E+05 -5.165442E+05 -2.559212E+06  5.295081E+05  1.081986E+05
        18  24 -6.723805E+06 -9.521861E+05 -3.101109E+05 -2.606424E+06  2.475812E+05  2.943581E+03
        18  25 -4.767135E+06 -7.731231E+05 -6.055099E+05 -1.396716E+06  7.489861E+05  2.552463E+05
        18  26 -4.418641E+06  6.660531E+04  7.122121E+04 -1.879683E+06  5.169297E+05  1.035415E+05
        18  27 -4.476268E+06 -2.219923E+05  2.597908E+05 -2.114283E+06  2.632722E+05  8.827070E+03
        19   1 -8.675410E+06 -1.868877E+06 -7.872914E+05 -3.115151E+06 -2.007157E+05  2.908191E+03
        19   2 -8.560417E+06 -1.660844E+06 -6.199183E+05 -3.051543E+06 -1.347570E+05  2.616311E+04
        19   3 -8.421412E+06 -1.640080E+06 -5.323225E+05 -3.040980E+06 -6.683864E+04  4.418387E+04
        19   4 -6.676507E+06 -1.086053E+06 -2.517586E+05 -2.543163E+06 -2.004865E+05  2.965576E+03
        19   5 -6.681843E+06 -9.453613E+05 -1.217435E+05 -2.534309E+06 -1.369999E+05  2.530347E+04
        19   6 -6.662527E+06 -9.911986E+05 -6.932244E+04 -2.578523E+06 -7.157036E+04  4.240406E+04
        19   7 -4.673683E+06 -3.029059E+05  2.834181E+05 -1.969455E+06 -2.002557E+05  3.023694E+03
        19   8 -4.799804E+06 -2.296454E+05  3.761238E+05 -2.015631E+06 -1.392498E+05  2.444117E+04
        19   9 -4.900606E+06 -3.421608E+05  3.934138E+05 -2.114876E+06 -7.631681E+04  4.061904E+04
        19  10 -8.675454E+06 -1.868888E+06 -7.873681E+05 -3.115151E+06 -6.613125E-10 -2.118360E-09
        19  11 -8.560437E+06 -1.660849E+06 -6.199541E+05 -3.051540E+06 -5.433391E-09  3.350587E-10
        19  12 -8.421417E+06 -1.640084E+06 -5.323346E+05 -3.040978E+06 -1.206889E-08 -1.309186E-09
        19  13 -6.676550E+06 -1.086064E+06 -2.518349E+05 -2.543162E+06 -2.266893E-09 -4.647289E-10
        19  14 -6.681863E+06 -9.453671E+05 -1.217803E+05 -2.534306E+06 -1.802617E-09 -6.354541E-10
        19  15 -6.662533E+06 -9.912019E+05 -6.933548E+04 -2.578521E+06 -5.291599E-09 -4.141826E-09
        19  16 -4.673726E+06 -3.029168E+05  2.833421E+05 -1.969455E+06  4.227499E-09  1.364929E-09
        19  17 -4.799825E+06 -2.296513E+05  3.760860E+05 -2.015628E+06  5.720388E-09  2.593798E-09
        19  18 -4.900612E+06 -3.421642E+05  3.933997E+05 -2.114874E+06  8.702468E-09  3.589190E-09
        19  19 -8.675410E+06 -1.868877E+06 -7.872914E+05 -3.115151E+06  2.007157E+05 -2.908191E+03
        19  20 -8.560417E+06 -1.660844E+06 -6.199183E+05 -3.051543E+06  1.347570E+05 -2.616311E+04
        19  21 -8.421412E+06 -1.640080E+06 -5.323225E+05 -3.040980E+06  6.683864E+04 -4.418387E+04
        19  22 -6.676507E+06 -1.086053E+06 -2.517586E+05 -2.543163E+06  2.004865E+05 -2.965576E+03
        19  23 -6.681843E+06 -9.453613E+05 -1.217435E+05 -2.534309E+06  1.369999E+05 -2.530347E+04
        19  24 -6.662527E+06 -9.911986E+05 -6.932244E+04 -2.578523E+06  7.157036E+04 -4.240406E+04
        19  25 -4.673683E+06 -3.029059E+05  2.834181E+05 -1.969455E+06  2.002557E+05 -3.023694E+03
        19  26 -4.799804E+06 -2.296454E+05  3.761238E+05 -2.015631E+06  1.392498E+05 -2.444117E+04
        19  27 -4.900606E+06 -3.421608E+05  3.934138E+05 -2.114876E+06  7.631681E+04 -4.061904E+04
        20   1 -8.183534E+06 -1.587816E+06 -4.586459E+05 -2.993952E+06 -5.610429E+04  4.258177E+04
        20   2 -8.044448E+06 -1.454983E+06 -3.837289E+05 -2.887313E+06 -3.836444E+04  4.028852E+04
        20   3 -7.810742E+06 -1.432835E+06 -3.226781E+05 -2.892019E+06 -2.023808E+04  3.689054E+04
        20   4 -6.651864E+06 -1.010227E+06 -5.405088E+04 -2.577958E+06 -5.988503E+04  4.116123E+04
        20   5 -6.698394E+06 -9.497291E+05 -2.828178E+04 -2.524189E+06 -4.267296E+04  3.867847E+04
        20   6 -6.650225E+06 -9.997733E+05 -1.592601E+04 -2.581764E+06 -2.507976E+04  3.509032E+04
        20   7 -5.117895E+06 -4.324941E+05  3.503412E+05 -2.161021E+06 -6.367602E+04  3.973686E+04
        20   8 -5.350567E+06 -4.443687E+05  3.270082E+05 -2.160345E+06 -4.699179E+04  3.706460E+04
        20   9 -5.488393E+06 -5.666381E+05  2.907087E+05 -2.270980E+06 -2.993145E+04  3.328642E+04
        20  10 -8.183538E+06 -1.587819E+06 -4.586552E+05 -2.993950E+06  3.670311E-10  2.302202E-09
        20  11 -8.044450E+06 -1.454986E+06 -3.837347E+05 -2.887311E+06  8.068242E-09  1.277137E-09
        20  12 -7.810743E+06 -1.432836E+06 -3.226814E+05 -2.892019E+06 -4.444247E-10  2.372220E-09
        20  13 -6.651869E+06 -1.010230E+06 -5.406082E+04 -2.577956E+06  1.252575E-09 -4.732280E-09
        20  14 -6.698396E+06 -9.497312E+05 -2.828802E+04 -2.524188E+06  7.066176E-10 -3.330680E-09
        20  15 -6.650226E+06 -9.997748E+05 -1.592950E+04 -2.581763E+06  5.754569E-10  9.108370E-10
        20  16 -5.117899E+06 -4.324969E+05  3.503306E+05 -2.161019E+06 -4.180321E-09 -1.335353E-09
        20  17 -5.350569E+06 -4.443708E+05  3.270015E+05 -2.160344E+06 -3.446224E-09 -1.922352E-09
        20  18 -5.488394E+06 -5.666395E+05  2.907050E+05 -2.270979E+06  1.577563E-09  2.638231E-09
        20  19 -8.183534E+06 -1.587816E+06 -4.586459E+05 -2.993952E+06  5.610429E+04 -4.258177E+04
        20  20 -8.044448E+06 -1.454983E+06 -3.837289E+05 -2.887313E+06  3.836444E+04 -4.028852E+04
        20  21 -7.810742E+06 -1.432835E+06 -3.226781E+05 -2.892019E+06  2.023808E+04 -3.689054E+04
        20  22 -6.651864E+06 -1.010227E+06 -5.405088E+04 -2.577958E+06  5.988503E+04 -4.116123E+04
        20  23 -6.698394E+06 -9.497291E+05 -2.828178E+04 -2.524189E+06  4.267296E+04 -3.867847E+04
        20  24 -6.650225E+06 -9.997733E+05 -1.592601E+04 -2.581764E+06  2.507976E+04 -3.509032E+04
        20  25 -5.117895E+06 -4.324941E+05  3.503412E+05 -2.161021E+06  6.367602E+04 -3.973686E+04
        20  26 -5.350567E+06 -4.443687E+05  3.270082E+05 -2.160345E+06  4.699179E+04 -3.706460E+04
        20  27 -5.488393E+06 -5.666381E+05  2.907087E+05 -2.270980E+06  2.993145E+04 -3.328642E+04
        21   1 -7.532154E+06 -1.336349E+06 -2.454730E+05 -2.823479E+06 -1.581346E+04  3.220340E+04
        21   2 -7.369687E+06 -1.194835E+06 -1.831738E+05 -2.697189E+06 -8.223095E+03  2.389492E+04
        21   3 -7.092312E+06 -1.170165E+06 -1.241275E+05 -2.705176E+06 -4.943772E+02  1.517009E+04
        21   4 -6.646104E+06 -1.004933E+06 -1.249725E+04 -2.585395E+06 -2.071658E+04  3.038474E+04
        21   5 -6.703415E+06 -9.458418E+05 -7.509706E+03 -2.518492E+06 -1.333353E+04  2.200358E+04
        21   6 -6.645837E+06 -1.003547E+06 -5.604567E+03 -2.585874E+06 -5.813859E+03  1.320595E+04
        21   7 -5.759280E+06 -6.734702E+05  2.204125E+05 -2.346999E+06 -2.562747E+04  2.856321E+04
        21   8 -6.036710E+06 -6.968241E+05  1.681159E+05 -2.339620E+06 -1.845002E+04  2.011001E+04
        21   9 -6.199171E+06 -8.369202E+05  1.129001E+05 -2.466495E+06 -1.113753E+04  1.124026E+04
        21  10 -7.532154E+06 -1.336351E+06 -2.454754E+05 -2.823478E+06 -9.128149E-10  3.036592E-09
        21  11 -7.369687E+06 -1.194835E+06 -1.831750E+05 -2.697189E+06  2.837645E-09  4.379006E-10
        21  12 -7.092313E+06 -1.170165E+06 -1.241279E+05 -2.705176E+06  3.838703E-09 -8.412582E-10
        21  13 -6.646105E+06 -1.004935E+06 -1.249979E+04 -2.585394E+06  2.039526E-10  2.368504E-09
        21  14 -6.703415E+06 -9.458424E+05 -7.510946E+03 -2.518492E+06 -1.222458E-09 -2.316914E-09
        21  15 -6.645837E+06 -1.003548E+06 -5.604957E+03 -2.585874E+06 -4.020217E-10  2.006528E-09
        21  16 -5.759281E+06 -6.734712E+05  2.204097E+05 -2.346998E+06  2.792190E-09  1.921754E-09
        21  17 -6.036710E+06 -6.968246E+05  1.681145E+05 -2.339619E+06 -2.213220E-09  1.569947E-09
        21  18 -6.199171E+06 -8.369204E+05  1.128996E+05 -2.466495E+06 -6.293270E-09 -4.621694E-10
        21  19 -7.532154E+06 -1.336349E+06 -2.454730E+05 -2.823479E+06  1.581346E+04 -3.220340E+04
        21  20 -7.369687E+06 -1.194835E+06 -1.831738E+05 -2.697189E+06  8.223095E+03 -2.389492E+04
        21  21 -7.092312E+06 -1.170165E+06 -1.241275E+05 -2.705176E+06  4.943772E+02 -1.517009E+04
        21  22 -6.646104E+06 -1.004933E+06 -1.249725E+04 -2.585395E+06  2.071658E+04 -3.038474E+04
        21  23 -6.703415E+06 -9.458418E+05 -7.509706E+03 -2.518492E+06  1.333353E+04 -2.200358E+04
        21  24 -6.645837E+06 -1.003547E+06 -5.604567E+03 -2.585874E+06  5.813859E+03 -1.320595E+04
        21  25 -5.759280E+06 -6.734702E+05  2.204125E+05 -2.346999E+06  2.562747E+04 -2.856321E+04
        21  26 -6.036710E+06 -6.968241E+05  1.681159E+05 -2.339620E+06  1.845002E+04 -2.011001E+04
        21  27 -6.199171E+06 -8.369202E+05  1.129001E+05 -2.466495E+06  1.113753E+04 -1.124026E+04
        22   1 -6.789281E+06 -1.058621E+06 -4.271594E+04 -2.626055E+06  2.704287E+03  9.426045E+03
        22   2 -6.619454E+06 -9.126054E+05  1.581197E+04 -2.494093E+06  9.831413E+03  1.932426E+02
        22   3 -6.330343E+06 -8.880737E+05  7.152666E+04 -2.502409E+06  1.693573E+04 -8.967133E+03
        22   4 -6.644839E+06 -1.004704E+06 -5.494742E+03 -2.587148E+06 -2.660381E+03  7.446612E+03
        22   5 -6.704513E+06 -9.443356E+05 -6.593690E+03 -2.516861E+06  4.502216E+03 -1.773814E+03
        22   6 -6.644958E+06 -1.005464E+06 -1.053049E+04 -2.586875E+06  1.164061E+04 -1.092210E+04
        22   7 -6.500374E+06 -9.507845E+05  3.172500E+04 -2.548233E+06 -8.026446E+03  5.466660E+03
        22   8 -6.789564E+06 -9.760656E+05 -2.900001E+04 -2.539626E+06 -8.262098E+02 -3.740586E+03
        22   9 -6.959479E+06 -1.122849E+06 -9.259675E+04 -2.671302E+06  6.348401E+03 -1.287599E+04
        22  10 -6.789281E+06 -1.058621E+06 -4.271612E+04 -2.626055E+06  1.819941E-09  2.024651E-09
        22  11 -6.619454E+06 -9.126055E+05  1.581179E+04 -2.494093E+06  1.397964E-09  3.700091E-09
        22  12 -6.330343E+06 -8.880738E+05  7.152597E+04 -2.502409E+06  4.731112E-09 -5.870018E-11
        22  13 -6.644839E+06 -1.004704E+06 -5.494859E+03 -2.587148E+06  2.122591E-09  1.542241E-09
        22  14 -6.704513E+06 -9.443356E+05 -6.593734E+03 -2.516861E+06  1.191562E-09  1.013567E-09
        22  15 -6.644958E+06 -1.005464E+06 -1.053097E+04 -2.586875E+06  1.295323E-09  1.068096E-10
        22  16 -6.500375E+06 -9.507846E+05  3.172482E+04 -2.548233E+06  4.831568E-10 -9.994026E-10
        22  17 -6.789564E+06 -9.760656E+05 -2.900004E+04 -2.539626E+06  4.296757E-09 -1.943098E-10
        22  18 -6.959479E+06 -1.122849E+06 -9.259713E+04 -2.671302E+06 -8.743104E-10 -2.251840E-09
        22  19 -6.789281E+06 -1.058621E+06 -4.271594E+04 -2.626055E+06 -2.704287E+03 -9.426045E+03
        22  20 -6.619454E+06 -9.126054E+05  1.581197E+04 -2.494093E+06 -9.831413E+03 -1.932426E+02
        22  21 -6.330343E+06 -8.880737E+05  7.152666E+04 -2.502409E+06 -1.693573E+04  8.967133E+03
        22  22 -6.644839E+06 -1.004704E+06 -5.494742E+03 -2.587148E+06  2.660381E+03 -7.446612E+03
        22  23 -6.704513E+06 -9.443356E+05 -6.593690E+03 -2.516861E+06 -4.502216E+03  1.773814E+03
        22  24 -6.644958E+06 -1.005464E+06 -1.053049E+04 -2.586875E+06 -1.164061E+04  1.092210E+04
        22  25 -6.500374E+06 -9.507845E+05  3.172500E+04 -2.548233E+06  8.026446E+03 -5.466660E+03
        22  26 -6.789564E+06 -9.760656E+05 -2.900001E+04 -2.539626E+06  8.262098E+02  3.740586E+03
        22  27 -6.959479E+06 -1.122849E+06 -9.259675E+04 -2.671302E+06 -6.348401E+03  1.287599E+04
        23   1 -6.033428E+06 -7.747016E+05  1.489376E+05 -2.422403E+06  2.112380E+04 -1.429121E+04
        23   2 -5.874504E+06 -6.361425E+05  1.947140E+05 -2.297007E+06  3.622739E+04 -2.003762E+04
        23   3 -5.607269E+06 -6.201257E+05  2.294433E+05 -2.300593E+06  5.107302E+04 -2.501881E+04
        23   4 -6.647071E+06 -1.002672E+06 -1.333862E+04 -2.585526E+06  1.581366E+04 -1.625382E+04
        23   5 -6.701823E+06 -9.456051E+05 -2.328790E+04 -2.519477E+06  3.129064E+04 -2.186753E+04
        23   6 -6.648383E+06 -1.011178E+06 -4.459138E+04 -2.582439E+06  4.650514E+04 -2.671701E+04
        23   7 -7.260341E+06 -1.230619E+06 -1.756458E+05 -2.748502E+06  1.050937E+04 -1.821430E+04
        23   8 -7.528468E+06 -1.255026E+06 -2.413475E+05 -2.741675E+06  2.636116E+04 -2.369473E+04
        23   9 -7.688434E+06 -1.402164E+06 -3.187188E+05 -2.863852E+06  4.194569E+04 -2.841206E+04
        23  10 -6.033429E+06 -7.747020E+05  1.489364E+05 -2.422403E+06 -1.961490E-09 -2.910812E-09
        23  11 -5.874506E+06 -6.361433E+05  1.947108E+05 -2.297006E+06 -3.146525E-09 -9.918693E-11
        23  12 -5.607272E+06 -6.201270E+05  2.294372E+05 -2.300592E+06  7.286718E-09 -3.277854E-10
        23  13 -6.647072E+06 -1.002672E+06 -1.333958E+04 -2.585526E+06 -2.892356E-10 -3.003028E-09
        23  14 -6.701824E+06 -9.456058E+05 -2.329065E+04 -2.519476E+06 -2.915518E-09  9.228146E-10
        23  15 -6.648385E+06 -1.011179E+06 -4.459680E+04 -2.582438E+06 -2.636140E-09 -3.340178E-09
        23  16 -7.260341E+06 -1.230620E+06 -1.756466E+05 -2.748501E+06  2.545220E-09 -1.565345E-09
        23  17 -7.528469E+06 -1.255027E+06 -2.413499E+05 -2.741675E+06  2.134323E-09 -2.846907E-09
        23  18 -7.688437E+06 -1.402165E+06 -3.187236E+05 -2.863851E+06 -7.421362E-09 -5.066805E-09
        23  19 -6.033428E+06 -7.747016E+05  1.489376E+05 -2.422403E+06 -2.112380E+04  1.429121E+04
        23  20 -5.874504E+06 -6.361425E+05  1.947140E+05 -2.297007E+06 -3.622739E+04  2.003762E+04
        23  21 -5.607269E+06 -6.201257E+05  2.294433E+05 -2.300593E+06 -5.107302E+04  2.501881E+04
        23  22 -6.647071E+06 -1.002672E+06 -1.333862E+04 -2.585526E+06 -1.581366E+04  1.625382E+04
        23  23 -6.701823E+06 -9.456051E+05 -2.328790E+04 -2.519477E+06 -3.129064E+04  2.186753E+04
        23  24 -6.648383E+06 -1.011178E+06 -4.459138E+04 -2.582439E+06 -4.650514E+04  2.671701E+04
        23  25 -7.260341E+06 -1.230619E+06 -1.756458E+05 -2.748502E+06 -1.050937E+04  1.821430E+04
        23  26 -7.528468E+06 -1.255026E+06 -2.413475E+05 -2.741675E+06 -2.636116E+04  2.369473E+04
        23  27 -7.688434E+06 -1.402164E+06 -3.187188E+05 -2.863852E+06 -4.194569E+04  2.841206E+04
        24   1 -5.342866E+06 -5.149692E+05  2.876780E+05 -2.241022E+06  6.230542E+04 -2.747291E+04
        24   2 -5.210305E+06 -3.809440E+05  2.906676E+05 -2.121622E+06  1.150216E+05 -1.730802E+04
        24   3 -5.023378E+06 -4.346392E+05  2.314379E+05 -2.086643E+06  1.660378E+05 -2.461982E+03
        24   4 -6.656488E+06 -9.961520E+05 -5.714795E+04 -2.583614E+06  5.680054E+04 -2.952246E+04
        24   5 -6.689093E+06 -9.411923E+05 -1.001976E+05 -2.526884E+06  1.117905E+05 -1.852265E+04
        24   6 -6.667915E+06 -1.074586E+06 -2.074047E+05 -2.554596E+06  1.650637E+05 -2.845032E+03
        24   7 -7.968430E+06 -1.477255E+06 -4.021222E+05 -2.925553E+06  5.130843E+04 -3.156752E+04
        24   8 -8.165745E+06 -1.501301E+06 -4.912529E+05 -2.931260E+06  1.085676E+05 -1.973415E+04
        24   9 -8.309806E+06 -1.714318E+06 -6.464857E+05 -3.021396E+06  1.640920E+05 -3.227150E+03
        24  10 -5.342871E+06 -5.149711E+05  2.876693E+05 -2.241021E+06  5.767211E-10  4.572604E-11
        24  11 -5.210320E+06 -3.809479E+05  2.906420E+05 -2.121620E+06  1.421418E-09 -1.116911E-10
        24  12 -5.023408E+06 -4.346467E+05  2.313857E+05 -2.086643E+06  4.657812E-09  1.498858E-09
        24  13 -6.656492E+06 -9.961538E+05 -5.715568E+04 -2.583612E+06  8.874421E-10 -2.563441E-09
        24  14 -6.689107E+06 -9.411961E+05 -1.002219E+05 -2.526882E+06 -2.012247E-09  1.507042E-09
        24  15 -6.667945E+06 -1.074593E+06 -2.074564E+05 -2.554595E+06  1.236828E-09  3.509722E-09
        24  16 -7.968433E+06 -1.477257E+06 -4.021290E+05 -2.925552E+06  5.547134E-10 -6.115365E-09
        24  17 -8.165758E+06 -1.501304E+06 -4.912760E+05 -2.931259E+06 -3.475429E-09  1.227217E-09
        24  18 -8.309835E+06 -1.714326E+06 -6.465369E+05 -3.021396E+06 -3.402900E-10  2.453071E-09
        24  19 -5.342866E+06 -5.149692E+05  2.876780E+05 -2.241022E+06 -6.230542E+04  2.747291E+04
        24  20 -5.210305E+06 -3.809440E+05  2.906676E+05 -2.121622E+06 -1.150216E+05  1.730802E+04
        24  21 -5.023378E+06 -4.346392E+05  2.314379E+05 -2.086643E+06 -1.660378E+05  2.461982E+03
        24  22 -6.656488E+06 -9.961520E+05 -5.714795E+04 -2.583614E+06 -5.680054E+04  2.952246E+04
        24  23 -6.689093E+06 -9.411923E+05 -1.001976E+05 -2.526884E+06 -1.117905E+05  1.852265E+04
        24  24 -6.667915E+06 -1.074586E+06 -2.074047E+05 -2.554596E+06 -1.650637E+05  2.845032E+03
        24  25 -7.968430E+06 -1.477255E+06 -4.021222E+05 -2.925553E+06 -5.130843E+04  3.156752E+04
        24  26 -8.165745E+06 -1.501301E+06 -4.912529E+05 -2.931260E+06 -1.085676E+05  1.973415E+04
        24  27 -8.309806E+06 -1.714318E+06 -6.464857E+05 -3.021396E+06 -1.640920E+05  3.227150E+03
        25   1 -4.773994E+06 -3.343815E+05  2.352394E+05 -2.182377E+06  2.206650E+05  5.215837E+03
        25   2 -4.677886E+06 -5.661022E+04  9.672677E+04 -1.951561E+06  4.277161E+05  7.869615E+04
        25   3 -4.880674E+06 -7.431441E+05 -4.415788E+05 -1.557002E+06  6.149424E+05  2.050125E+05
        25   4 -6.707156E+06 -9.638634E+05 -2.554195E+05 -2.606114E+06  2.048528E+05 -6.772930E+02
        25   5 -6.608997E+06 -8.529176E+05 -4.254996E+05 -2.547645E+06  4.382979E+05  8.259509E+04
        25   6 -6.816210E+06 -1.713466E+06 -1.017446E+06 -2.325142E+06  6.518746E+05  2.186404E+05
        25   7 -8.636656E+06 -1.593329E+06 -7.463684E+05 -3.028745E+06  1.890942E+05 -6.556597E+03
        25   8 -8.536436E+06 -1.648787E+06 -9.480609E+05 -3.141959E+06  4.488414E+05  8.647650E+04
        25   9 -8.747943E+06 -2.682647E+06 -1.593678E+06 -3.090815E+06  6.886766E+05  2.321828E+05
        25  10 -4.774047E+06 -3.343947E+05  2.351471E+05 -2.182378E+06  4.721104E-09  1.743819E-09
        25  11 -4.678085E+06 -5.666658E+04  9.636828E+04 -1.951588E+06 -1.246820E-10 -1.085646E-09
        25  12 -4.881095E+06 -7.432922E+05 -4.423754E+05 -1.557104E+06 -2.718091E-09 -1.725924E-09
        25  13 -6.707201E+06 -9.638748E+05 -2.554992E+05 -2.606114E+06  3.634770E-09 -7.715871E-10
        25  14 -6.609207E+06 -8.529774E+05 -4.258779E+05 -2.547675E+06 -4.121223E-09 -2.977155E-09
        25  15 -6.816684E+06 -1.713634E+06 -1.018346E+06 -2.325258E+06  2.039805E-09  6.589422E-10
        25  16 -8.636694E+06 -1.593339E+06 -7.464365E+05 -3.028744E+06 -2.941485E-09  1.827969E-09
        25  17 -8.536657E+06 -1.648850E+06 -9.484596E+05 -3.141991E+06  3.699391E-10 -2.230637E-09
        25  18 -8.748474E+06 -2.682836E+06 -1.594687E+06 -3.090945E+06  1.414749E-09 -2.203942E-10
        25  19 -4.773994E+06 -3.343815E+05  2.352394E+05 -2.182377E+06 -2.206650E+05 -5.215837E+03
        25  20 -4.677886E+06 -5.661022E+04  9.672677E+04 -1.951561E+06 -4.277161E+05 -7.869615E+04
        25  21 -4.880674E+06 -7.431441E+05 -4.415788E+05 -1.557002E+06 -6.149424E+05 -2.050125E+05
        25  22 -6.707156E+06 -9.638634E+05 -2.554195E+05 -2.606114E+06 -2.048528E+05  6.772930E+02
        25  23 -6.608997E+06 -8.529176E+05 -4.254996E+05 -2.547645E+06 -4.382979E+05 -8.259509E+04
        25  24 -6.816210E+06 -1.713466E+06 -1.017446E+06 -2.325142E+06 -6.518746E+05 -2.186404E+05
        25  25 -8.636656E+06 -1.593329E+06 -7.463684E+05 -3.028745E+06 -1.890942E+05  6.556597E+03
        25  26 -8.536436E+06 -1.648787E+06 -9.480609E+05 -3.141959E+06 -4.488414E+05 -8.647650E+04
        25  27 -8.747943E+06 -2.682647E+06 -1.593678E+06 -3.090815E+06 -6.886766E+05 -2.321828E+05
        26   1  2.991827E+05  2.359131E+02  3.346217E+05 -2.194670E+05 -1.300900E+03  2.158330E+05
        26   2  5.491603E+04 -6.024215E+04  1.667002E+05 -1.138251E+05 -3.395995E+03  1.263077E+05
        26   3 -8.929448E+03 -6.398382E+04  1.021824E+05 -1.542644E+04 -5.518319E+03  3.678453E+04
        26   4  3.002863E+05  1.019270E+04  3.361367E+05 -3.178269E+04 -1.245562E+03  2.197632E+05
        26   5  6.422898E+04 -1.816727E+04  1.738146E+05 -2.853002E+04 -3.388472E+03  1.302333E+05
        26   6  8.550226E+03  1.019002E+04  1.148955E+05 -3.250722E+04 -5.529093E+03  4.070156E+04
        26   7  3.015223E+05  2.022527E+04  3.376706E+05  1.559046E+05 -1.187848E+03  2.236934E+05
        26   8  7.356920E+04  2.392504E+04  1.809328E+05  5.677097E+04 -3.379870E+03  1.341592E+05
        26   9  2.603070E+04  8.436992E+04  1.276087E+05 -4.959011E+04 -5.540081E+03  4.461906E+04
        26  10  2.991702E+05  1.859019E+02  3.345341E+05 -2.194668E+05 -1.136729E-09  3.445050E-10
        26  11  5.491174E+04 -6.025928E+04  1.666702E+05 -1.138247E+05  2.615574E-09  2.023905E-09
        26  12 -8.929844E+03 -6.398528E+04  1.021798E+05 -1.542627E+04 -5.037185E-09 -2.699953E-09
        26  13  3.002733E+05  1.014085E+04  3.360459E+05 -3.178247E+04  1.887874E-09  3.750436E-10
        26  14  6.422441E+04 -1.818548E+04  1.737827E+05 -2.852966E+04 -8.515676E-10 -2.581907E-09
        26  15  8.549748E+03  1.018823E+04  1.148924E+05 -3.250704E+04 -1.363018E-09  1.621117E-09
        26  16  3.015089E+05  2.017155E+04  3.375766E+05  1.559048E+05 -2.169413E-09 -9.279607E-10
        26  17  7.356436E+04  2.390571E+04  1.808990E+05  5.677133E+04  1.142194E-09  1.487533E-09
        26  18  2.603014E+04  8.436778E+04  1.276049E+05 -4.958991E+04  1.843575E-09  5.102202E-09
        26  19  2.991827E+05  2.359131E+02  3.346217E+05 -2.194670E+05  1.300900E+03 -2.158330E+05
        26  20  5.491603E+04 -6.024215E+04  1.667002E+05 -1.138251E+05  3.395995E+03 -1.263077E+05
        26  21 -8.929448E+03 -6.398382E+04  1.021824E+05 -1.542644E+04  5.518319E+03 -3.678453E+04
        26  22  3.002863E+05  1.019270E+04  3.361367E+05 -3.178269E+04  1.245562E+03 -2.197632E+05
        26  23  6.422898E+04 -1.816727E+04  1.738146E+05 -2.853002E+04  3.388472E+03 -1.302333E+05
        26  24  8.550226E+03  1.019002E+04  1.148955E+05 -3.250722E+04  5.529093E+03 -4.070156E+04
        26  25  3.015223E+05  2.022527E+04  3.376706E+05  1.559046E+05  1.187848E+03 -2.236934E+05
        26  26  7.356920E+04  2.392504E+04  1.809328E+05  5.677097E+04  3.379870E+03 -1.341592E+05
        26  27  2.603070E+04  8.436992E+04  1.276087E+05 -4.959011E+04  5.540081E+03 -4.461906E+04
        27   1 -9.268610E+03 -9.520042E+04  8.662801E+04 -4.159723E+04 -6.884870E+03  1.978613E+04
        27   2 -2.468373E+04 -1.341290E+05  7.890255E+04 -2.743457E+04 -8.898423E+03 -2.987800E+04
        27   3 -1.476109E+04 -1.602921E+05  1.098496E+05 -2.074710E+04 -1.039229E+04 -7.953915E+04
        27   4  1.311462E+04  4.525764E+02  1.031610E+05 -3.246483E+04 -6.894413E+03  2.376029E+04
        27   5  5.422807E+03 -6.003740E+03  1.012625E+05 -2.871482E+04 -8.905880E+03 -2.677575E+04
        27   6  2.321647E+04  4.524384E+02  1.386368E+05 -3.243924E+04 -1.039605E+04 -7.731128E+04
        27   7  3.549769E+04  9.611477E+04  1.196939E+05 -2.333098E+04 -6.903838E+03  2.773503E+04
        27   8  3.552847E+04  1.221376E+05  1.236218E+05 -2.999533E+04 -8.913349E+03 -2.367288E+04
        27   9  6.119309E+04  1.612225E+05  1.674232E+05 -4.413448E+04 -1.039990E+04 -7.508285E+04
        27  10 -9.268766E+03 -9.520086E+04  8.662719E+04 -4.159712E+04  1.344650E-09 -1.904296E-08
        27  11 -2.468406E+04 -1.341299E+05  7.890073E+04 -2.743478E+04  7.143244E-09  4.978780E-10
        27  12 -1.476290E+04 -1.602990E+05  1.098375E+05 -2.074777E+04 -2.894133E-09  1.662033E-08
        27  13  1.311442E+04  4.519575E+02  1.031599E+05 -3.246470E+04  6.265582E-09 -1.745072E-09
        27  14  5.422529E+03 -6.004531E+03  1.012610E+05 -2.871501E+04  1.544256E-09  1.704903E-09
        27  15  2.321475E+04  4.459920E+02  1.386254E+05 -3.243989E+04  8.272741E-10 -3.547791E-09
        27  16  3.549743E+04  9.611393E+04  1.196923E+05 -2.333083E+04  3.246522E-09  2.063993E-08
        27  17  3.552823E+04  1.221370E+05  1.236206E+05 -2.999550E+04  5.062446E-09  2.153592E-09
        27  18  6.119146E+04  1.612164E+05  1.674124E+05 -4.413511E+04  3.538691E-09 -1.670204E-08
        27  19 -9.268610E+03 -9.520042E+04  8.662801E+04 -4.159723E+04  6.884870E+03 -1.978613E+04
        27  20 -2.468373E+04 -1.341290E+05  7.890255E+04 -2.743457E+04  8.898423E+03  2.987800E+04
        27  21 -1.476109E+04 -1.602921E+05  1.098496E+05 -2.074710E+04  1.039229E+04  7.953915E+04
        27  22  1.311462E+04  4.525764E+02  1.031610E+05 -3.246483E+04  6.894413E+03 -2.376029E+04
        27  23  5.422807E+03 -6.003740E+03  1.012625E+05 -2.871482E+04  8.905880E+03  2.677575E+04
        27  24  2.321647E+04  4.524384E+02  1.386368E+05 -3.243924E+04  1.039605E+04  7.731128E+04
        27  25  3.549769E+04  9.611477E+04  1.196939E+05 -2.333098E+04  6.903838E+03 -2.773503E+04
        27  26  3.552847E+04  1.221376E+05  1.236218E+05 -2.999533E+04  8.913349E+03  2.367288E+04
        27  27  6.119309E+04  1.612225E+05  1.674232E+05 -4.413448E+04  1.039990E+04  7.508285E+04
        28   1 -2.844645E+04 -1.631622E+05  1.374678E+05 -6.368229E+04 -1.147502E+04 -1.035755E+05
        28   2  6.062776E+04 -2.431270E+05  2.477356E+05  1.194507E+05 -9.982144E+03 -2.431422E+05
        28   3  4.628024E+05 -2.265890E+05  5.272340E+05  2.959717E+05 -2.547600E+03 -3.826831E+05
        28   4  1.447545E+04  1.939647E+04  1.704195E+05 -3.242263E+04 -1.148715E+04 -1.006311E+05
        28   5  1.125785E+05 -2.966961E+04  2.899537E+05 -2.849799E+04 -9.907147E+03 -2.502089E+05
        28   6  5.253384E+05  1.939837E+04  5.856219E+05 -3.120088E+04 -2.305805E+03 -3.997708E+05
        28   7  5.739920E+04  2.019897E+05  2.033706E+05 -1.153508E+03 -1.149899E+04 -9.768593E+04
        28   8  1.646085E+05  1.838783E+05  3.321815E+05 -1.764987E+05 -9.828802E+03 -2.572780E+05
        28   9  5.882721E+05  2.656715E+05  6.440639E+05 -3.585043E+05 -2.046072E+03 -4.168652E+05
        28  10 -2.844947E+04 -1.631737E+05  1.374474E+05 -6.368325E+04 -2.931341E-09  1.203723E-10
        28  11  6.061178E+04 -2.431905E+05  2.476243E+05  1.194488E+05 -6.008644E-10  2.889616E-09
        28  12  4.627631E+05 -2.267463E+05  5.269587E+05  2.959709E+05  1.815649E-09  2.108409E-09
        28  13  1.447259E+04  1.938556E+04  1.704003E+05 -3.242356E+04 -5.538333E-09  3.856703E-10
        28  14  1.125615E+05 -2.973685E+04  2.898359E+05 -2.849999E+04  2.631471E-09  7.574905E-11
        28  15  5.252955E+05  1.922682E+04  5.853215E+05 -3.120163E+04 -5.157199E-10 -8.001195E-11
        28  16  5.739650E+04  2.019794E+05  2.033524E+05 -1.154413E+03  3.185186E-10 -1.821913E-09
        28  17  1.645907E+05  1.838073E+05  3.320569E+05 -1.765008E+05 -5.390293E-09 -1.575334E-09
        28  18  5.882255E+05  2.654850E+05  6.437375E+05 -3.585050E+05  3.719781E-10 -3.983729E-09
        28  19 -2.844645E+04 -1.631622E+05  1.374678E+05 -6.368229E+04  1.147502E+04  1.035755E+05
        28  20  6.062776E+04 -2.431270E+05  2.477356E+05  1.194507E+05  9.982144E+03  2.431422E+05
        28  21  4.628024E+05 -2.265890E+05  5.272340E+05  2.959717E+05  2.547600E+03  3.826831E+05
        28  22  1.447545E+04  1.939647E+04  1.704195E+05 -3.242263E+04  1.148715E+04  1.006311E+05
        28  23  1.125785E+05 -2.966961E+04  2.899537E+05 -2.849799E+04  9.907147E+03  2.502089E+05
        28  24  5.253384E+05  1.939837E+04  5.856219E+05 -3.120088E+04  2.305805E+03  3.997708E+05
        28  25  5.739920E+04  2.019897E+05  2.033706E+05 -1.153508E+03  1.149899E+04  9.768593E+04
        28  26  1.646085E+05  1.838783E+05  3.321815E+05 -1.764987E+05  9.828802E+03  2.572780E+05
        28  27  5.882721E+05  2.656715E+05  6.440639E+05 -3.585043E+05  2.046072E+03  4.168652E+05
        29   1 -3.399965E+06 -9.156436E+05 -4.821691E+05 -1.269866E+06 -3.020570E+05 -1.138980E+05
        29   2 -3.331400E+06 -4.596597E+05 -2.000766E+05 -1.316823E+06 -1.929797E+05 -7.275394E+04
        29   3 -3.428802E+06 -4.384502E+05 -1.162272E+05 -1.263635E+06 -8.363617E+04 -3.231521E+04
        29   4 -3.460058E+06 -8.278474E+05 -4.766527E+05 -1.173396E+06 -3.018547E+05 -1.138894E+05
        29   5 -3.351767E+06 -4.352159E+05 -1.993038E+05 -1.289544E+06 -1.931701E+05 -7.283846E+04
        29   6 -3.409373E+06 -4.773112E+05 -1.198976E+05 -1.305551E+06 -8.421040E+04 -3.252428E+04
        29   7 -3.520119E+06 -7.399967E+05 -4.711285E+05 -1.076932E+06 -3.016525E+05 -1.138807E+05
        29   8 -3.372132E+06 -4.107677E+05 -1.985302E+05 -1.262266E+06 -1.933604E+05 -7.292300E+04
        29   9 -3.389940E+06 -5.161620E+05 -1.235666E+05 -1.347467E+06 -8.478465E+04 -3.273324E+04
        29  10 -3.400067E+06 -9.156823E+05 -4.823662E+05 -1.269894E+06 -6.782639E-10  9.916025E-10
        29  11 -3.331441E+06 -4.596755E+05 -2.001571E+05 -1.316835E+06 -5.755519E-09 -1.227113E-09
        29  12 -3.428810E+06 -4.384533E+05 -1.162424E+05 -1.263638E+06 -5.713919E-09  4.150977E-10
        29  13 -3.460160E+06 -8.278861E+05 -4.768496E+05 -1.173424E+06  1.893104E-09 -6.754987E-10
        29  14 -3.351809E+06 -4.352317E+05 -1.993844E+05 -1.289556E+06  1.789807E-09 -1.079363E-09
        29  15 -3.409381E+06 -4.773142E+05 -1.199130E+05 -1.305553E+06 -4.412705E-09 -1.155220E-09
        29  16 -3.520221E+06 -7.400353E+05 -4.713251E+05 -1.076960E+06 -1.441792E-09  5.674746E-10
        29  17 -3.372174E+06 -4.107835E+05 -1.986110E+05 -1.262277E+06  4.446899E-09  6.980481E-10
        29  18 -3.389948E+06 -5.161651E+05 -1.235822E+05 -1.347469E+06  3.876310E-09 -7.808453E-10
        29  19 -3.399965E+06 -9.156436E+05 -4.821691E+05 -1.269866E+06  3.020570E+05  1.138980E+05
        29  20 -3.331400E+06 -4.596597E+05 -2.000766E+05 -1.316823E+06  1.929797E+05  7.275394E+04
        29  21 -3.428802E+06 -4.384502E+05 -1.162272E+05 -1.263635E+06  8.363617E+04  3.231521E+04
        29  22 -3.460058E+06 -8.278474E+05 -4.766527E+05 -1.173396E+06  3.018547E+05  1.138894E+05
        29  23 -3.351767E+06 -4.352159E+05 -1.993038E+05 -1.289544E+06  1.931701E+05  7.283846E+04
        29  24 -3.409373E+06 -4.773112E+05 -1.198976E+05 -1.305551E+06  8.421040E+04  3.252428E+04
        29  25 -3.520119E+06 -7.399967E+05 -4.711285E+05 -1.076932E+06  3.016525E+05  1.138807E+05
        29  26 -3.372132E+06 -4.107677E+05 -1.985302E+05 -1.262266E+06  1.933604E+05  7.292300E+04
        29  27 -3.389940E+06 -5.161620E+05 -1.235666E+05 -1.347467E+06  8.478465E+04  3.273324E+04
        30   1 -3.350046E+06 -5.193561E+05 -8.764026E+04 -1.275931E+06 -6.686318E+04 -2.660366E+04
        30   2 -3.330805E+06 -4.626858E+05 -3.294109E+04 -1.272199E+06 -4.224898E+04 -1.811820E+04
        30   3 -3.322574E+06 -4.594320E+05 -8.572542E+03 -1.267715E+06 -1.762011E+04 -9.666164E+03
        30   4 -3.394101E+06 -5.256607E+05 -9.731328E+04 -1.277421E+06 -6.721597E+04 -2.673837E+04
        30   5 -3.385968E+06 -4.808759E+05 -4.696699E+04 -1.284606E+06 -4.262133E+04 -1.825914E+04
        30   6 -3.388842E+06 -4.895067E+05 -2.693692E+04 -1.291038E+06 -1.801252E+04 -9.814286E+03
        30   7 -3.438153E+06 -5.319652E+05 -1.069864E+05 -1.278911E+06 -6.756873E+04 -2.687308E+04
        30   8 -3.441127E+06 -4.990661E+05 -6.099314E+04 -1.297011E+06 -4.299365E+04 -1.840007E+04
        30   9 -3.455105E+06 -5.195805E+05 -4.530170E+04 -1.314358E+06 -1.840488E+04 -9.962382E+03
        30  10 -3.350051E+06 -5.193581E+05 -8.765005E+04 -1.275932E+06 -5.234355E-09 -1.295193E-10
        30  11 -3.330807E+06 -4.626866E+05 -3.294509E+04 -1.272200E+06 -3.901853E-09  2.364459E-09
        30  12 -3.322575E+06 -4.594321E+05 -8.573305E+03 -1.267715E+06  2.242394E-09 -6.881827E-10
        30  13 -3.394106E+06 -5.256627E+05 -9.732317E+04 -1.277422E+06 -1.613906E-09  3.289389E-10
        30  14 -3.385970E+06 -4.808768E+05 -4.697105E+04 -1.284606E+06  5.171721E-10 -1.094276E-09
        30  15 -3.388842E+06 -4.895069E+05 -2.693772E+04 -1.291038E+06 -3.481936E-09 -8.764216E-10
        30  16 -3.438158E+06 -5.319672E+05 -1.069964E+05 -1.278912E+06 -1.440148E-09  1.808266E-09
        30  17 -3.441129E+06 -4.990670E+05 -6.099728E+04 -1.297012E+06 -1.906595E-10  6.405171E-10
        30  18 -3.455106E+06 -5.195807E+05 -4.530253E+04 -1.314358E+06  1.693939E-09 -2.724435E-09
        30  19 -3.350046E+06 -5.193561E+05 -8.764026E+04 -1.275931E+06  6.686318E+04  2.660366E+04
        30  20 -3.330805E+06 -4.626858E+05 -3.294109E+04 -1.272199E+06  4.224898E+04  1.811820E+04
        30  21 -3.322574E+06 -4.594320E+05 -8.572542E+03 -1.267715E+06  1.762011E+04  9.666164E+03
        30  22 -3.394101E+06 -5.256607E+05 -9.731328E+04 -1.277421E+06  6.721597E+04  2.673837E+04
        30  23 -3.385968E+06 -4.808759E+05 -4.696699E+04 -1.284606E+06  4.262133E+04  1.825914E+04
        30  24 -3.388842E+06 -4.895067E+05 -2.693692E+04 -1.291038E+06  1.801252E+04  9.814286E+03
        30  25 -3.438153E+06 -5.319652E+05 -1.069864E+05 -1.278911E+06  6.756873E+04  2.687308E+04
        30  26 -3.441127E+06 -4.990661E+05 -6.099314E+04 -1.297011E+06  4.299365E+04  1.840007E+04
        30  27 -3.455105E+06 -5.195805E+05 -4.530170E+04 -1.314358E+06  1.840488E+04  9.962382E+03
        31   1 -3.295305E+06 -4.603401E+05  3.119697E+03 -1.263545E+06 -1.363165E+04 -8.657510E+03
        31   2 -3.283011E+06 -4.457444E+05  1.712945E+04 -1.255252E+06 -7.831519E+03 -7.278051E+03
        31   3 -3.264935E+06 -4.440305E+05  2.575490E+04 -1.255307E+06 -2.041692E+03 -5.870224E+03
        31   4 -3.387087E+06 -4.942307E+05 -2.096958E+04 -1.287878E+06 -1.400284E+04 -8.797853E+03
        31   5 -3.389707E+06 -4.859589E+05 -1.095963E+04 -1.284392E+06 -8.188967E+03 -7.413226E+03
        31   6 -3.386547E+06 -4.905722E+05 -6.345384E+03 -1.289254E+06 -2.385527E+03 -6.000292E+03
        31   7 -3.478860E+06 -5.281208E+05 -4.505950E+04 -1.312209E+06 -1.437397E+04 -8.938173E+03
        31   8 -3.496391E+06 -5.261727E+05 -3.904969E+04 -1.313528E+06 -8.546346E+03 -7.548375E+03
        31   9 -3.508146E+06 -5.371129E+05 -3.844704E+04 -1.323196E+06 -2.729289E+03 -6.130332E+03
        31  10 -3.295305E+06 -4.603402E+05  3.119204E+03 -1.263545E+06 -5.628503E-09 -5.298018E-09
        31  11 -3.283012E+06 -4.457445E+05  1.712923E+04 -1.255252E+06 -2.823215E-09 -2.061183E-09
        31  12 -3.264935E+06 -4.440306E+05  2.575483E+04 -1.255307E+06 -5.090611E-09 -2.052333E-09
        31  13 -3.387087E+06 -4.942308E+05 -2.097010E+04 -1.287879E+06 -2.562095E-09 -2.678514E-09
        31  14 -3.389707E+06 -4.859590E+05 -1.095986E+04 -1.284392E+06 -7.162209E-09  3.289984E-10
        31  15 -3.386547E+06 -4.905722E+05 -6.345463E+03 -1.289254E+06 -2.443707E-09 -1.862683E-09
        31  16 -3.478860E+06 -5.281210E+05 -4.506004E+04 -1.312209E+06  5.783011E-09  5.820836E-10
        31  17 -3.496391E+06 -5.261728E+05 -3.904993E+04 -1.313528E+06 -5.524425E-09  1.247278E-09
        31  18 -3.508146E+06 -5.371129E+05 -3.844713E+04 -1.323196E+06 -5.046166E-09 -1.592319E-09
        31  19 -3.295305E+06 -4.603401E+05  3.119697E+03 -1.263545E+06  1.363165E+04  8.657510E+03
        31  20 -3.283011E+06 -4.457444E+05  1.712945E+04 -1.255252E+06  7.831519E+03  7.278051E+03
        31  21 -3.264935E+06 -4.440305E+05  2.575490E+04 -1.255307E+06  2.041692E+03  5.870224E+03
        31  22 -3.387087E+06 -4.942307E+05 -2.096958E+04 -1.287878E+06  1.400284E+04  8.797853E+03
        31  23 -3.389707E+06 -4.859589E+05 -1.095963E+04 -1.284392E+06  8.188967E+03  7.413226E+03
        31  24 -3.386547E+06 -4.905722E+05 -6.345384E+03 -1.289254E+06  2.385527E+03  6.000292E+03
        31  25 -3.478860E+06 -5.281208E+05 -4.505950E+04 -1.312209E+06  1.437397E+04  8.938173E+03
        31  26 -3.496391E+06 -5.261727E+05 -3.904969E+04 -1.313528E+06  8.546346E+03  7.548375E+03
        31  27 -3.508146E+06 -5.371129E+05 -3.844704E+04 -1.323196E+06  2.729289E+03  6.130332E+03
        32   1 -3.245463E+06 -4.374662E+05  3.222405E+04 -1.249984E+06 -9.804532E+02 -5.907803E+03
        32   2 -3.235537E+06 -4.284220E+05  3.748265E+04 -1.242353E+06  8.284480E+02 -5.938840E+03
        32   3 -3.218888E+06 -4.270244E+05  4.142965E+04 -1.242693E+06  2.620929E+03 -5.925739E+03
        32   4 -3.386538E+06 -4.907858E+05 -5.000206E+03 -1.288651E+06 -1.313089E+03 -6.033681E+03
        32   5 -3.389874E+06 -4.868054E+05 -3.188314E+03 -1.284723E+06  5.181473E+02 -6.056330E+03
        32   6 -3.386493E+06 -4.904765E+05 -2.705981E+03 -1.288768E+06  2.332913E+03 -6.034852E+03
        32   7 -3.527594E+06 -5.441043E+05 -4.222625E+04 -1.327310E+06 -1.645642E+03 -6.159526E+03
        32   8 -3.544188E+06 -5.451870E+05 -4.386112E+04 -1.327084E+06  2.079333E+02 -6.173787E+03
        32   9 -3.554068E+06 -5.539260E+05 -4.684348E+04 -1.334831E+06  2.044987E+03 -6.143932E+03
        32  10 -3.245463E+06 -4.374662E+05  3.222399E+04 -1.249984E+06  3.630193E-09  7.675669E-10
        32  11 -3.235537E+06 -4.284220E+05  3.748259E+04 -1.242353E+06  6.277477E-09 -2.533001E-09
        32  12 -3.218888E+06 -4.270244E+05  4.142957E+04 -1.242693E+06 -5.602413E-09  3.505659E-09
        32  13 -3.386538E+06 -4.907859E+05 -5.000278E+03 -1.288651E+06  2.983234E-09 -9.327764E-10
        32  14 -3.389874E+06 -4.868054E+05 -3.188383E+03 -1.284723E+06 -5.102839E-09 -1.403826E-09
        32  15 -3.386493E+06 -4.904765E+05 -2.706060E+03 -1.288768E+06 -1.970352E-09  1.110493E-09
        32  16 -3.527594E+06 -5.441044E+05 -4.222632E+04 -1.327310E+06 -5.822321E-09 -3.561801E-09
        32  17 -3.544188E+06 -5.451871E+05 -4.386119E+04 -1.327084E+06 -7.589461E-09 -2.476289E-09
        32  18 -3.554068E+06 -5.539261E+05 -4.684356E+04 -1.334831E+06  5.431180E-10  7.208368E-10
        32  19 -3.245463E+06 -4.374662E+05  3.222405E+04 -1.249984E+06  9.804532E+02  5.907803E+03
        32  20 -3.235537E+06 -4.284220E+05  3.748265E+04 -1.242353E+06 -8.284480E+02  5.938840E+03
        32  21 -3.218888E+06 -4.270244E+05  4.142965E+04 -1.242693E+06 -2.620929E+03  5.925739E+03
        32  22 -3.386538E+06 -4.907858E+05 -5.000206E+03 -1.288651E+06  1.313089E+03  6.033681E+03
        32  23 -3.389874E+06 -4.868054E+05 -3.188314E+03 -1.284723E+06 -5.181473E+02  6.056330E+03
        32  24 -3.386493E+06 -4.904765E+05 -2.705981E+03 -1.288768E+06 -2.332913E+03  6.034852E+03
        32  25 -3.527594E+06 -5.441043E+05 -4.222625E+04 -1.327310E+06  1.645642E+03  6.159526E+03
        32  26 -3.544188E+06 -5.451870E+05 -4.386112E+04 -1.327084E+06 -2.079333E+02  6.173787E+03
        32  27 -3.554068E+06 -5.539260E+05 -4.684348E+04 -1.334831E+06 -2.044987E+03  6.143932E+03
        33   1 -3.203228E+06 -4.207390E+05  4.561155E+04 -1.238072E+06  3.183943E+03 -6.078315E+03
        33   2 -3.195403E+06 -4.137944E+05  4.735502E+04 -1.231912E+06  5.235013E+03 -5.880121E+03
        33   3 -3.182406E+06 -4.131276E+05  4.754480E+04 -1.231994E+06  7.262839E+03 -5.619717E+03
        33   4 -3.386832E+06 -4.901290E+05 -2.808010E+03 -1.288401E+06  2.907728E+03 -6.183005E+03
        33   5 -3.389449E+06 -4.872089E+05 -3.780675E+03 -1.285195E+06  4.990197E+03 -5.972990E+03
        33   6 -3.386900E+06 -4.905734E+05 -6.332418E+03 -1.288234E+06  7.049382E+03 -5.700769E+03
        33   7 -3.570405E+06 -5.595176E+05 -5.123097E+04 -1.338716E+06  2.631600E+03 -6.287662E+03
        33   8 -3.583460E+06 -5.606217E+05 -5.492006E+04 -1.338465E+06  4.745464E+03 -6.065828E+03
        33   9 -3.591355E+06 -5.680170E+05 -6.021362E+04 -1.344458E+06  6.836001E+03 -5.781792E+03
        33  10 -3.203228E+06 -4.207390E+05  4.561146E+04 -1.238072E+06 -1.913474E-09  4.463905E-09
        33  11 -3.195403E+06 -4.137944E+05  4.735490E+04 -1.231912E+06 -4.074435E-09  8.210476E-10
        33  12 -3.182406E+06 -4.131277E+05  4.754464E+04 -1.231994E+06 -3.160935E-09  3.016218E-09
        33  13 -3.386832E+06 -4.901291E+05 -2.808097E+03 -1.288401E+06 -5.629329E-09  1.121783E-09
        33  14 -3.389449E+06 -4.872090E+05 -3.780789E+03 -1.285195E+06  5.357193E-09  1.138277E-09
        33  15 -3.386900E+06 -4.905734E+05 -6.332572E+03 -1.288234E+06  1.165926E-09 -1.678214E-09
        33  16 -3.570405E+06 -5.595177E+05 -5.123106E+04 -1.338716E+06 -2.255320E-09 -1.239587E-09
        33  17 -3.583460E+06 -5.606217E+05 -5.492017E+04 -1.338465E+06 -4.047531E-10 -7.791488E-10
        33  18 -3.591355E+06 -5.680171E+05 -6.021377E+04 -1.344458E+06  1.715925E-09 -7.228314E-10
        33  19 -3.203228E+06 -4.207390E+05  4.561155E+04 -1.238072E+06 -3.183943E+03  6.078315E+03
        33  20 -3.195403E+06 -4.137944E+05  4.735502E+04 -1.231912E+06 -5.235013E+03  5.880121E+03
        33  21 -3.182406E+06 -4.131276E+05  4.754480E+04 -1.231994E+06 -7.262839E+03  5.619717E+03
        33  22 -3.386832E+06 -4.901290E+05 -2.808010E+03 -1.288401E+06 -2.907728E+03  6.183005E+03
        33  23 -3.389449E+06 -4.872089E+05 -3.780675E+03 -1.285195E+06 -4.990197E+03  5.972990E+03
        33  24 -3.386900E+06 -4.905734E+05 -6.332418E+03 -1.288234E+06 -7.049382E+03  5.700769E+03
        33  25 -3.570405E+06 -5.595176E+05 -5.123097E+04 -1.338716E+06 -2.631600E+03  6.287662E+03
        33  26 -3.583460E+06 -5.606217E+05 -5.492006E+04 -1.338465E+06 -4.745464E+03  6.065828E+03
        33  27 -3.591355E+06 -5.680170E+05 -6.021362E+04 -1.344458E+06 -6.836001E+03  5.781792E+03
        34   1 -3.170974E+06 -4.082805E+05  4.885304E+04 -1.229422E+06  8.530346E+03 -5.412216E+03
        34   2 -3.165185E+06 -4.023442E+05  4.457313E+04 -1.224267E+06  1.583820E+04 -3.047586E+03
        34   3 -3.158718E+06 -4.063148E+05  3.330573E+04 -1.222138E+06  2.310950E+04 -5.860194E+02
        34   4 -3.387641E+06 -4.895649E+05 -8.148693E+03 -1.288208E+06  8.322293E+03 -5.491250E+03
        34   5 -3.388330E+06 -4.870094E+05 -1.427602E+04 -1.285788E+06  1.567745E+04 -3.108759E+03
        34   6 -3.388353E+06 -4.943710E+05 -2.743039E+04 -1.286396E+06  2.299601E+04 -6.293508E+02
        34   7 -3.604259E+06 -5.708457E+05 -6.515375E+04 -1.346974E+06  8.114321E+03 -5.570253E+03
        34   8 -3.611426E+06 -5.716709E+05 -7.312924E+04 -1.347290E+06  1.551676E+04 -3.169907E+03
        34   9 -3.617938E+06 -5.824240E+05 -8.817138E+04 -1.350632E+06  2.288257E+04 -6.726649E+02
        34  10 -3.170974E+06 -4.082805E+05  4.885285E+04 -1.229422E+06  9.356318E-10 -4.601139E-10
        34  11 -3.165185E+06 -4.023443E+05  4.457263E+04 -1.224267E+06  2.433107E-10 -2.794234E-09
        34  12 -3.158719E+06 -4.063149E+05  3.330472E+04 -1.222138E+06  2.392840E-09 -2.011598E-09
        34  13 -3.387641E+06 -4.895650E+05 -8.148880E+03 -1.288208E+06  1.247353E-09 -9.433771E-10
        34  14 -3.388330E+06 -4.870094E+05 -1.427650E+04 -1.285788E+06  4.338755E-09 -2.481230E-09
        34  15 -3.388354E+06 -4.943712E+05 -2.743139E+04 -1.286395E+06  1.857038E-09 -1.347109E-09
        34  16 -3.604259E+06 -5.708457E+05 -6.515394E+04 -1.346974E+06  2.033456E-09  2.418055E-09
        34  17 -3.611426E+06 -5.716710E+05 -7.312971E+04 -1.347290E+06  4.735100E-10 -3.897826E-10
        34  18 -3.617938E+06 -5.824242E+05 -8.817237E+04 -1.350632E+06  7.875089E-10 -3.335296E-09
        34  19 -3.170974E+06 -4.082805E+05  4.885304E+04 -1.229422E+06 -8.530346E+03  5.412216E+03
        34  20 -3.165185E+06 -4.023442E+05  4.457313E+04 -1.224267E+06 -1.583820E+04  3.047586E+03
        34  21 -3.158718E+06 -4.063148E+05  3.330573E+04 -1.222138E+06 -2.310950E+04  5.860194E+02
        34  22 -3.387641E+06 -4.895649E+05 -8.148693E+03 -1.288208E+06 -8.322293E+03  5.491250E+03
        34  23 -3.388330E+06 -4.870094E+05 -1.427602E+04 -1.285788E+06 -1.567745E+04  3.108759E+03
        34  24 -3.388353E+06 -4.943710E+05 -2.743039E+04 -1.286396E+06 -2.299601E+04  6.293508E+02
        34  25 -3.604259E+06 -5.708457E+05 -6.515375E+04 -1.346974E+06 -8.114321E+03  5.570253E+03
        34  26 -3.611426E+06 -5.716709E+05 -7.312924E+04 -1.347290E+06 -1.551676E+04  3.169907E+03
        34  27 -3.617938E+06 -5.824240E+05 -8.817138E+04 -1.350632E+06 -2.288257E+04  6.726649E+02
        35   1 -3.149082E+06 -4.023997E+05  2.733914E+04 -1.229921E+06  2.831968E+04  1.163044E+03
        35   2 -3.144401E+06 -3.873755E+05  1.939968E+03 -1.217841E+06  5.999545E+04  1.298889E+04
        35   3 -3.163916E+06 -4.323824E+05 -6.295910E+04 -1.193529E+06  9.148148E+04  2.531213E+04
        35   4 -3.391286E+06 -4.875429E+05 -3.526124E+04 -1.289818E+06  2.809972E+04  1.079686E+03
        35   5 -3.382633E+06 -4.811616E+05 -6.153350E+04 -1.286982E+06  6.001920E+04  1.299722E+04
        35   6 -3.398233E+06 -5.348747E+05 -1.275114E+05 -1.271910E+06  9.174908E+04  2.541101E+04
        35   7 -3.633434E+06 -5.726843E+05 -9.786644E+04 -1.349695E+06  2.787986E+04  9.963566E+02
        35   8 -3.620808E+06 -5.749426E+05 -1.250118E+05 -1.356097E+06  6.004294E+04  1.300554E+04
        35   9 -3.632494E+06 -6.373578E+05 -1.920685E+05 -1.350263E+06  9.201656E+04  2.550982E+04
        35  10 -3.149083E+06 -4.023999E+05  2.733763E+04 -1.229921E+06 -9.271989E-10 -1.670999E-09
        35  11 -3.144405E+06 -3.873767E+05  1.932847E+03 -1.217842E+06  1.572507E-09  8.395240E-10
        35  12 -3.163925E+06 -4.323853E+05 -6.297613E+04 -1.193530E+06 -4.396768E-09  8.729139E-10
        35  13 -3.391287E+06 -4.875431E+05 -3.526274E+04 -1.289818E+06  1.246085E-09 -3.756553E-09
        35  14 -3.382637E+06 -4.811627E+05 -6.154063E+04 -1.286982E+06  5.631201E-10 -3.668750E-09
        35  15 -3.398242E+06 -5.348777E+05 -1.275285E+05 -1.271912E+06  3.384428E-10 -4.582807E-10
        35  16 -3.633434E+06 -5.726845E+05 -9.786791E+04 -1.349695E+06 -5.883501E-10 -5.016963E-09
        35  17 -3.620812E+06 -5.749437E+05 -1.250190E+05 -1.356098E+06  1.903752E-09 -2.639402E-09
        35  18 -3.632503E+06 -6.373608E+05 -1.920857E+05 -1.350265E+06  3.923274E-09 -1.330174E-09
        35  19 -3.149082E+06 -4.023997E+05  2.733914E+04 -1.229921E+06 -2.831968E+04 -1.163044E+03
        35  20 -3.144401E+06 -3.873755E+05  1.939968E+03 -1.217841E+06 -5.999545E+04 -1.298889E+04
        35  21 -3.163916E+06 -4.323824E+05 -6.295910E+04 -1.193529E+06 -9.148148E+04 -2.531213E+04
        35  22 -3.391286E+06 -4.875429E+05 -3.526124E+04 -1.289818E+06 -2.809972E+04 -1.079686E+03
        35  23 -3.382633E+06 -4.811616E+05 -6.153350E+04 -1.286982E+06 -6.001920E+04 -1.299722E+04
        35  24 -3.398233E+06 -5.348747E+05 -1.275114E+05 -1.271910E+06 -9.174908E+04 -2.541101E+04
        35  25 -3.633434E+06 -5.726843E+05 -9.786644E+04 -1.349695E+06 -2.787986E+04 -9.963566E+02
        35  26 -3.620808E+06 -5.749426E+05 -1.250118E+05 -1.356097E+06 -6.004294E+04 -1.300554E+04
        35  27 -3.632494E+06 -6.373578E+05 -1.920685E+05 -1.350263E+06 -9.201656E+04 -2.550982E+04
        36   1 -3.128310E+06 -4.218509E+05 -9.230355E+04 -1.290171E+06  1.154540E+05  3.344143E+04
        36   2 -3.122345E+06 -2.982447E+05 -1.964805E+05 -1.192029E+06  2.547256E+05  8.665737E+04
        36   3 -3.345902E+06 -7.306486E+05 -5.575812E+05 -9.480390E+05  3.917631E+05  1.457741E+05
        36   4 -3.418674E+06 -4.710816E+05 -1.571060E+05 -1.308287E+06  1.140433E+05  3.291924E+04
        36   5 -3.337098E+06 -4.220435E+05 -2.611505E+05 -1.294260E+06  2.562820E+05  8.722681E+04
        36   6 -3.485751E+06 -9.297738E+05 -6.245554E+05 -1.134345E+06  3.963037E+05  1.473848E+05
        36   7 -3.708950E+06 -5.203124E+05 -2.219115E+05 -1.326403E+06  1.126333E+05  3.239699E+04
        36   8 -3.551801E+06 -5.458170E+05 -3.258244E+05 -1.396453E+06  2.578377E+05  8.779576E+04
        36   9 -3.625529E+06 -1.128757E+06 -6.915208E+05 -1.320588E+06  4.008432E+05  1.489923E+05
        36  10 -3.128325E+06 -4.218557E+05 -9.233086E+04 -1.290174E+06 -1.014479E-09 -1.510168E-10
        36  11 -3.122417E+06 -2.982704E+05 -1.966173E+05 -1.192047E+06  7.075474E-09  1.608823E-09
        36  12 -3.346073E+06 -7.307130E+05 -5.579115E+05 -9.480852E+05  4.367903E-10 -2.817551E-10
        36  13 -3.418688E+06 -4.710863E+05 -1.571326E+05 -1.308290E+06  1.077924E-09  2.942580E-09
        36  14 -3.337171E+06 -4.220695E+05 -2.612891E+05 -1.294278E+06  1.429690E-09  1.283608E-10
        36  15 -3.485927E+06 -9.298398E+05 -6.248934E+05 -1.134393E+06 -1.037683E-09 -1.169583E-09
        36  16 -3.708964E+06 -5.203169E+05 -2.219375E+05 -1.326406E+06  1.913798E-09 -3.977097E-10
        36  17 -3.551875E+06 -5.458434E+05 -3.259648E+05 -1.396471E+06 -3.778767E-10  1.859170E-09
        36  18 -3.625708E+06 -1.128825E+06 -6.918668E+05 -1.320636E+06  1.156811E-09 -2.324331E-09
        36  19 -3.128310E+06 -4.218509E+05 -9.230355E+04 -1.290171E+06 -1.154540E+05 -3.344143E+04
        36  20 -3.122345E+06 -2.982447E+05 -1.964805E+05 -1.192029E+06 -2.547256E+05 -8.665737E+04
        36  21 -3.345902E+06 -7.306486E+05 -5.575812E+05 -9.480390E+05 -3.917631E+05 -1.457741E+05
        36  22 -3.418674E+06 -4.710816E+05 -1.571060E+05 -1.308287E+06 -1.140433E+05 -3.291924E+04
        36  23 -3.337098E+06 -4.220435E+05 -2.611505E+05 -1.294260E+06 -2.562820E+05 -8.722681E+04
        36  24 -3.485751E+06 -9.297738E+05 -6.245554E+05 -1.134345E+06 -3.963037E+05 -1.473848E+05
        36  25 -3.708950E+06 -5.203124E+05 -2.219115E+05 -1.326403E+06 -1.126333E+05 -3.239699E+04
        36  26 -3.551801E+06 -5.458170E+05 -3.258244E+05 -1.396453E+06 -2.578377E+05 -8.779576E+04
        36  27 -3.625529E+06 -1.128757E+06 -6.915208E+05 -1.320588E+06 -4.008432E+05 -1.489923E+05
        37   1  1.332779E+05 -8.427225E+05  1.261794E+05 -2.412003E+03  1.846156E+04  1.232951E+03
        37   2  1.308208E+05 -8.527700E+05  1.224658E+05  8.034794E+02  1.804381E+04  2.734705E+03
        37   3  1.274377E+05 -8.630324E+05  1.175871E+05 -2.922279E+03  1.753925E+04  4.235744E+03
        37   4  6.915679E+00 -1.380454E+06 -1.781397E+03 -1.541764E+03  1.846212E+04  1.436482E+03
        37   5  6.049227E+01 -1.380342E+06 -3.101729E+03  1.927815E+03  1.804413E+04  2.984955E+03
        37   6 -8.204706E+02 -1.380453E+06 -5.620229E+03 -1.544210E+03  1.753931E+04  4.532738E+03
        37   7 -1.332850E+05 -1.917920E+06 -1.297624E+05 -6.721173E+02  1.846267E+04  1.639837E+03
        37   8 -1.307199E+05 -1.907658E+06 -1.286887E+05  3.051368E+03  1.804445E+04  3.234992E+03
        37   9 -1.290980E+05 -1.897628E+06 -1.288464E+05 -1.671058E+02  1.753936E+04  4.829484E+03
        37  10  1.332776E+05 -8.427226E+05  1.261787E+05 -2.412021E+03 -1.023801E-09 -1.113603E-08
        37  11  1.308204E+05 -8.527701E+05  1.224651E+05  8.034397E+02 -1.353206E-09 -1.015914E-08
        37  12  1.274374E+05 -8.630325E+05  1.175865E+05 -2.922339E+03  1.580102E-09 -3.992148E-09
        37  13  6.549347E+00 -1.380454E+06 -1.782041E+03 -1.541786E+03 -6.096017E-09  9.579107E-11
        37  14  6.014047E+01 -1.380342E+06 -3.102357E+03  1.927772E+03 -1.035746E-09 -1.192543E-09
        37  15 -8.208063E+02 -1.380454E+06 -5.620846E+03 -1.544274E+03  4.650813E-09  1.655279E-13
        37  16 -1.332854E+05 -1.917920E+06 -1.297631E+05 -6.721417E+02  3.230170E-10  9.274071E-09
        37  17 -1.307202E+05 -1.907658E+06 -1.286894E+05  3.051321E+03  4.113534E-09  5.606944E-09
        37  18 -1.290984E+05 -1.897628E+06 -1.288470E+05 -1.671741E+02  2.690045E-09  1.362397E-09
        37  19  1.332779E+05 -8.427225E+05  1.261794E+05 -2.412003E+03 -1.846156E+04 -1.232951E+03
        37  20  1.308208E+05 -8.527700E+05  1.224658E+05  8.034794E+02 -1.804381E+04 -2.734705E+03
        37  21  1.274377E+05 -8.630324E+05  1.175871E+05 -2.922279E+03 -1.753925E+04 -4.235744E+03
        37  22  6.915679E+00 -1.380454E+06 -1.781397E+03 -1.541764E+03 -1.846212E+04 -1.436482E+03
        37  23  6.049227E+01 -1.380342E+06 -3.101729E+03  1.927815E+03 -1.804413E+04 -2.984955E+03
        37  24 -8.204706E+02 -1.380453E+06 -5.620229E+03 -1.544210E+03 -1.753931E+04 -4.532738E+03
        37  25 -1.332850E+05 -1.917920E+06 -1.297624E+05 -6.721173E+02 -1.846267E+04 -1.639837E+03
        37  26 -1.307199E+05 -1.907658E+06 -1.286887E+05  3.051368E+03 -1.804445E+04 -3.234992E+03
        37  27 -1.290980E+05 -1.897628E+06 -1.288464E+05 -1.671058E+02 -1.753936E+04 -4.829484E+03
        38   1  1.251755E+05 -8.777122E+05  1.125527E+05 -1.922565E+03  1.733389E+04  5.537127E+03
        38   2  1.226691E+05 -8.889312E+05  1.045377E+05  4.920384E+02  1.675039E+04  1.141733E+04
        38   3  1.101568E+05 -9.032703E+05  9.022037E+04 -5.852800E+03  1.550220E+04  1.729432E+04
        38   4  4.239469E+02 -1.381107E+06 -7.214763E+03 -1.936852E+03  1.733441E+04  5.661955E+03
        38   5  1.066040E+03 -1.379517E+06 -1.222970E+04  2.426948E+03  1.674957E+04  1.190435E+04
        38   6 -8.365129E+03 -1.381114E+06 -2.380212E+04 -1.969167E+03  1.549983E+04  1.814364E+04
        38   7 -1.243460E+05 -1.884268E+06 -1.270000E+05 -1.950939E+03  1.733494E+04  5.786681E+03
        38   8 -1.205544E+05 -1.869882E+06 -1.290140E+05  4.360512E+03  1.674875E+04  1.239098E+04
        38   9 -1.269036E+05 -1.858747E+06 -1.378407E+05  1.911658E+03  1.549747E+04  1.899231E+04
        38  10  1.251752E+05 -8.777123E+05  1.125521E+05 -1.922642E+03 -2.111835E-10  5.306004E-09
        38  11  1.226688E+05 -8.889314E+05  1.045369E+05  4.918844E+02 -2.276926E-09  2.762616E-09
        38  12  1.101565E+05 -9.032707E+05  9.021935E+04 -5.853016E+03  6.157727E-10 -1.136258E-10
        38  13  4.236158E+02 -1.381107E+06 -7.215388E+03 -1.936931E+03  3.441929E-09  1.159881E-10
        38  14  1.065701E+03 -1.379518E+06 -1.223049E+04  2.426787E+03  3.673756E-09 -1.743974E-09
        38  15 -8.365475E+03 -1.381114E+06 -2.380320E+04 -1.969394E+03  4.262912E-10 -2.815852E-10
        38  16 -1.243463E+05 -1.884268E+06 -1.270007E+05 -1.951019E+03  6.146326E-10 -7.726978E-09
        38  17 -1.205548E+05 -1.869882E+06 -1.290148E+05  4.360345E+03 -3.142226E-09 -8.295193E-09
        38  18 -1.269039E+05 -1.858747E+06 -1.378418E+05  1.911421E+03 -2.809163E-09 -2.830284E-09
        38  19  1.251755E+05 -8.777122E+05  1.125527E+05 -1.922565E+03 -1.733389E+04 -5.537127E+03
        38  20  1.226691E+05 -8.889312E+05  1.045377E+05  4.920384E+02 -1.675039E+04 -1.141733E+04
        38  21  1.101568E+05 -9.032703E+05  9.022037E+04 -5.852800E+03 -1.550220E+04 -1.729432E+04
        38  22  4.239469E+02 -1.381107E+06 -7.214763E+03 -1.936852E+03 -1.733441E+04 -5.661955E+03
        38  23  1.066040E+03 -1.379517E+06 -1.222970E+04  2.426948E+03 -1.674957E+04 -1.190435E+04
        38  24 -8.365129E+03 -1.381114E+06 -2.380212E+04 -1.969167E+03 -1.549983E+04 -1.814364E+04
        38  25 -1.243460E+05 -1.884268E+06 -1.270000E+05 -1.950939E+03 -1.733494E+04 -5.786681E+03
        38  26 -1.205544E+05 -1.869882E+06 -1.290140E+05  4.360512E+03 -1.674875E+04 -1.239098E+04
        38  27 -1.269036E+05 -1.858747E+06 -1.378407E+05  1.911658E+03 -1.549747E+04 -1.899231E+04
        39   1  1.186178E+05 -9.258668E+05  8.017300E+04  8.082112E+03  1.639321E+04  2.455091E+04
        39   2  1.212819E+05 -9.271535E+05  5.878396E+04 -6.979607E+03  1.511023E+04  4.483169E+04
        39   3  2.235477E+04 -9.564166E+05 -1.204484E+03 -3.299164E+04  4.509152E+03  6.507001E+04
        39   4  4.531951E+03 -1.386807E+06 -2.926156E+04 -2.317313E+03  1.640117E+04  2.263349E+04
        39   5  1.083464E+04 -1.372393E+06 -4.718927E+04  2.964146E+03  1.509810E+04  4.803625E+04
        39   6 -8.538441E+04 -1.386866E+06 -1.072973E+05 -2.706680E+03  4.475287E+03  7.339661E+04
        39   7 -1.095687E+05 -1.847550E+06 -1.387109E+05 -1.270877E+04  1.640920E+04  2.071748E+04
        39   8 -9.962657E+04 -1.817450E+06 -1.531763E+05  1.290091E+04  1.508608E+04  5.123850E+04
        39   9 -1.931341E+05 -1.817144E+06 -2.134032E+05  2.755740E+04  4.442226E+03  8.171743E+04
        39  10  1.186173E+05 -9.258675E+05  8.017136E+04  8.081788E+03  6.636550E-10 -1.411489E-09
        39  11  1.212811E+05 -9.271557E+05  5.877975E+04 -6.980153E+03 -5.752763E-10 -2.913676E-09
        39  12  2.235360E+04 -9.564211E+05 -1.212491E+03 -3.299188E+04 -7.049049E-10 -1.931445E-09
        39  13  4.531524E+03 -1.386807E+06 -2.926303E+04 -2.317612E+03  5.320684E-10  6.851299E-12
        39  14  1.083378E+04 -1.372395E+06 -4.719405E+04  2.963561E+03 -3.460173E-09 -2.316763E-09
        39  15 -8.538588E+04 -1.386872E+06 -1.073075E+05 -2.706945E+03 -8.710522E-10 -3.930944E-10
        39  16 -1.095691E+05 -1.847551E+06 -1.387122E+05 -1.270905E+04 -4.026600E-09 -1.592438E-09
        39  17 -9.962752E+04 -1.817453E+06 -1.531817E+05  1.290029E+04 -5.230587E-09 -3.896046E-09
        39  18 -1.931359E+05 -1.817152E+06 -2.134158E+05  2.755711E+04  1.586405E-10 -1.724587E-09
        39  19  1.186178E+05 -9.258668E+05  8.017300E+04  8.082112E+03 -1.639321E+04 -2.455091E+04
        39  20  1.212819E+05 -9.271535E+05  5.878396E+04 -6.979607E+03 -1.511023E+04 -4.483169E+04
        39  21  2.235477E+04 -9.564166E+05 -1.204484E+03 -3.299164E+04 -4.509152E+03 -6.507001E+04
        39  22  4.531951E+03 -1.386807E+06 -2.926156E+04 -2.317313E+03 -1.640117E+04 -2.263349E+04
        39  23  1.083464E+04 -1.372393E+06 -4.718927E+04  2.964146E+03 -1.509810E+04 -4.803625E+04
        39  24 -8.538441E+04 -1.386866E+06 -1.072973E+05 -2.706680E+03 -4.475287E+03 -7.339661E+04
        39  25 -1.095687E+05 -1.847550E+06 -1.387109E+05 -1.270877E+04 -1.640920E+04 -2.071748E+04
        39  26 -9.962657E+04 -1.817450E+06 -1.531763E+05  1.290091E+04 -1.508608E+04 -5.123850E+04
        39  27 -1.931341E+05 -1.817144E+06 -2.134032E+05  2.755740E+04 -4.442226E+03 -8.171743E+04
        40   1  9.357698E+04  9.986059E+05  5.337532E+04 -2.021161E+02  3.274769E+04 -6.170064E+02
        40   2  9.371300E+04  9.987201E+05  5.412034E+04 -1.670667E+02  3.263673E+04 -1.579335E+03
        40   3  9.408756E+04  9.990283E+05  5.555370E+04 -1.125311E+02  3.237796E+04 -2.541771E+03
        40   4 -3.624094E+01  5.828337E+05  6.962183E+02  4.317665E+00  3.274997E+04 -5.266696E+02
        40   5  1.988294E+01  5.827673E+05  1.222010E+03 -5.365341E+00  3.263881E+04 -1.133432E+03
        40   6  2.529710E+02  5.828334E+05  2.189708E+03  4.438129E+00  3.237981E+04 -1.740296E+03
        40   7 -9.365651E+04  1.672387E+05 -5.198348E+04  2.106246E+02  3.275224E+04 -4.363900E+02
        40   8 -9.368031E+04  1.669918E+05 -5.167697E+04  1.562428E+02  3.264090E+04 -6.878133E+02
        40   9 -9.358875E+04  1.668158E+05 -5.117506E+04  1.213479E+02  3.238165E+04 -9.393314E+02
        40  10  9.357583E+04  9.986056E+05  5.337330E+04 -2.020998E+02 -8.912747E-09 -3.787075E-08
        40  11  9.371186E+04  9.987198E+05  5.411833E+04 -1.670252E+02 -9.568312E-10 -3.938061E-09
        40  12  9.408643E+04  9.990280E+05  5.555172E+04 -1.124649E+02 -3.347350E-09  3.093904E-08
        40  13 -3.739307E+01  5.828334E+05  6.942017E+02  4.331554E+00  1.248463E-08  4.855637E-10
        40  14  1.873834E+01  5.827670E+05  1.220006E+03 -5.335553E+00  2.429214E-09 -1.013255E-09
        40  15  2.518440E+02  5.828331E+05  2.187731E+03  4.483503E+00  2.901727E-09  5.860300E-10
        40  16 -9.365767E+04  1.672384E+05 -5.198549E+04  2.106361E+02 -8.971394E-09  3.720902E-08
        40  17 -9.368146E+04  1.669915E+05 -5.167897E+04  1.562609E+02 -6.179947E-09  3.606780E-09
        40  18 -9.358988E+04  1.668155E+05 -5.117703E+04  1.213724E+02 -2.897157E-09 -3.066660E-08
        40  19  9.357698E+04  9.986059E+05  5.337532E+04 -2.021161E+02 -3.274769E+04  6.170064E+02
        40  20  9.371300E+04  9.987201E+05  5.412034E+04 -1.670667E+02 -3.263673E+04  1.579335E+03
        40  21  9.408756E+04  9.990283E+05  5.555370E+04 -1.125311E+02 -3.237796E+04  2.541771E+03
        40  22 -3.624094E+01  5.828337E+05  6.962183E+02  4.317665E+00 -3.274997E+04  5.266696E+02
        40  23  1.988294E+01  5.827673E+05  1.222010E+03 -5.365341E+00 -3.263881E+04  1.133432E+03
        40  24  2.529710E+02  5.828334E+05  2.189708E+03  4.438129E+00 -3.237981E+04  1.740296E+03
        40  25 -9.365651E+04  1.672387E+05 -5.198348E+04  2.106246E+02 -3.275224E+04  4.363900E+02
        40  26 -9.368031E+04  1.669918E+05 -5.167697E+04  1.562428E+02 -3.264090E+04  6.878133E+02
        40  27 -9.358875E+04  1.668158E+05 -5.117506E+04  1.213479E+02 -3.238165E+04  9.393314E+02
        41   1  9.431900E+04  9.994050E+05  5.658498E+04 -2.554741E+02  3.221452E+04 -3.054606E+03
        41   2  9.555331E+04  9.990504E+05  6.032123E+04  9.930283E+02  3.129688E+04 -8.312035E+03
        41   3  9.907654E+04  9.999605E+05  6.805113E+04  2.189877E+03  2.927529E+04 -1.357035E+04
        41   4  3.762759E+02  5.829828E+05  2.908269E+03 -1.155336E+01  3.221627E+04 -2.167656E+03
        41   5  1.312358E+03  5.825795E+05  5.193483E+03  1.530397E+01  3.129685E+04 -4.770395E+03
        41   6  4.077760E+03  5.829812E+05  9.631822E+03 -9.501281E+00  2.927310E+04 -7.373995E+03
        41   7 -9.357362E+04  1.667380E+05 -5.076931E+04  2.322200E+02  3.221803E+04 -1.281271E+03
        41   8 -9.293593E+04  1.662855E+05 -4.993552E+04 -9.617084E+02  3.129681E+04 -1.231015E+03
        41   9 -9.092872E+04  1.661780E+05 -4.878959E+04 -2.207311E+03  2.927088E+04 -1.181609E+03
        41  10  9.431788E+04  9.994047E+05  5.658301E+04 -2.553949E+02 -6.109321E-10  7.701146E-09
        41  11  9.555224E+04  9.990501E+05  6.031926E+04  9.932377E+02 -1.609323E-09  1.675964E-09
        41  12  9.907557E+04  9.999601E+05  6.804917E+04  2.190197E+03 -1.211772E-09 -1.279845E-09
        41  13  3.751599E+02  5.829825E+05  2.906309E+03 -1.149713E+01 -6.121213E-10  6.399814E-10
        41  14  1.311300E+03  5.825792E+05  5.191600E+03  1.542419E+01 -1.789794E-09 -1.326183E-09
        41  15  4.076825E+03  5.829809E+05  9.630109E+03 -9.327471E+00 -5.037594E-10  7.631080E-10
        41  16 -9.357474E+04  1.667377E+05 -5.077126E+04  2.322533E+02 -3.992859E-09 -8.622970E-09
        41  17 -9.293698E+04  1.662852E+05 -4.993736E+04 -9.616774E+02  9.723911E-10 -2.133088E-09
        41  18 -9.092964E+04  1.661777E+05 -4.879120E+04 -2.207283E+03  1.639878E-10  1.505015E-09
        41  19  9.431900E+04  9.994050E+05  5.658498E+04 -2.554741E+02 -3.221452E+04  3.054606E+03
        41  20  9.555331E+04  9.990504E+05  6.032123E+04  9.930283E+02 -3.129688E+04  8.312035E+03
        41  21  9.907654E+04  9.999605E+05  6.805113E+04  2.189877E+03 -2.927529E+04  1.357035E+04
        41  22  3.762759E+02  5.829828E+05  2.908269E+03 -1.155336E+01 -3.221627E+04  2.167656E+03
        41  23  1.312358E+03  5.825795E+05  5.193483E+03  1.530397E+01 -3.129685E+04  4.770395E+03
        41  24  4.077760E+03  5.829812E+05  9.631822E+03 -9.501281E+00 -2.927310E+04  7.373995E+03
        41  25 -9.357362E+04  1.667380E+05 -5.076931E+04  2.322200E+02 -3.221803E+04  1.281271E+03
        41  26 -9.293593E+04  1.662855E+05 -4.993552E+04 -9.617084E+02 -3.129681E+04  1.231015E+03
        41  27 -9.092872E+04  1.661780E+05 -4.878959E+04 -2.207311E+03 -2.927088E+04  1.181609E+03
        42   1  1.012143E+05  1.001910E+06  7.352835E+04  1.361839E+03  2.799771E+04 -1.590348E+04
        42   2  1.135265E+05  9.975514E+05  9.499546E+04  1.606413E+04  2.108464E+04 -4.771885E+04
        42   3  1.473162E+05  1.002705E+06  1.425248E+05  3.012190E+04  5.995867E+03 -7.954233E+04
        42   4  5.622100E+03  5.841599E+05  1.291690E+04 -1.432404E+02  2.799474E+04 -9.055749E+03
        42   5  1.611740E+04  5.811004E+05  2.387152E+04  1.928007E+02  2.106687E+04 -2.122080E+04
        42   6  4.468879E+04  5.841488E+05  4.725921E+04 -1.159843E+02  5.962265E+03 -3.339318E+04
        42   7 -8.997812E+04  1.665853E+05 -4.769723E+04 -1.647236E+03  2.799174E+04 -2.212422E+03
        42   8 -8.129954E+04  1.648217E+05 -4.725541E+04 -1.566753E+04  2.104775E+04  5.260052E+03
        42   9 -5.794616E+04  1.657617E+05 -4.800932E+04 -3.033331E+04  5.924162E+03  1.272518E+04
        42  10  1.012134E+05  1.001910E+06  7.352640E+04  1.362197E+03  1.629061E-09  2.146331E-09
        42  11  1.135254E+05  9.975488E+05  9.499035E+04  1.606494E+04  3.594117E-09 -3.839349E-10
        42  12  1.473145E+05  1.002698E+06  1.425129E+05  3.012229E+04  9.700772E-10  2.152481E-10
        42  13  5.621237E+03  5.841596E+05  1.291527E+04 -1.430363E+02 -7.566809E-10  7.174916E-10
        42  14  1.611681E+04  5.810998E+05  2.386984E+04  1.931607E+02 -1.138833E-09 -1.606163E-09
        42  15  4.468846E+04  5.841476E+05  4.725705E+04 -1.158240E+02  4.505996E-10  1.086200E-09
        42  16 -8.997897E+04  1.665851E+05 -4.769871E+04 -1.647186E+03 -1.628118E-09 -3.268267E-09
        42  17 -8.130002E+04  1.648216E+05 -4.725630E+04 -1.566762E+04 -2.013428E-09 -1.830275E-10
        42  18 -5.794624E+04  1.657615E+05 -4.800969E+04 -3.033337E+04 -8.774978E-10  5.784658E-11
        42  19  1.012143E+05  1.001910E+06  7.352835E+04  1.361839E+03 -2.799771E+04  1.590348E+04
        42  20  1.135265E+05  9.975514E+05  9.499546E+04  1.606413E+04 -2.108464E+04  4.771885E+04
        42  21  1.473162E+05  1.002705E+06  1.425248E+05  3.012190E+04 -5.995867E+03  7.954233E+04
        42  22  5.622100E+03  5.841599E+05  1.291690E+04 -1.432404E+02 -2.799474E+04  9.055749E+03
        42  23  1.611740E+04  5.811004E+05  2.387152E+04  1.928007E+02 -2.106687E+04  2.122080E+04
        42  24  4.468879E+04  5.841488E+05  4.725921E+04 -1.159843E+02 -5.962265E+03  3.339318E+04
        42  25 -8.997812E+04  1.665853E+05 -4.769723E+04 -1.647236E+03 -2.799174E+04  2.212422E+03
        42  26 -8.129954E+04  1.648217E+05 -4.725541E+04 -1.566753E+04 -2.104775E+04 -5.260052E+03
        42  27 -5.794616E+04  1.657617E+05 -4.800932E+04 -3.033331E+04 -5.924162E+03 -1.272518E+04
        43   1 -6.673518E+06 -1.852073E+06 -1.014500E+06 -2.492757E+06 -6.522478E+05 -2.471720E+05
        43   2 -6.533021E+06 -8.694633E+05 -4.056093E+05 -2.602608E+06 -4.161106E+05 -1.613094E+05
        43   3 -6.760542E+06 -8.254705E+05 -2.269108E+05 -2.486887E+06 -1.806167E+05 -7.374563E+04
        43   4 -6.925628E+06 -1.708472E+06 -1.035943E+06 -2.317103E+06 -6.538333E+05 -2.480898E+05
        43   5 -6.685723E+06 -8.576897E+05 -4.326318E+05 -2.573264E+06 -4.170111E+05 -1.617089E+05
        43   6 -6.814079E+06 -9.459201E+05 -2.601830E+05 -2.603852E+06 -1.807880E+05 -7.377307E+04
        43   7 -7.177543E+06 -1.564647E+06 -1.057350E+06 -2.141512E+06 -6.554180E+05 -2.490090E+05
        43   8 -6.838392E+06 -8.459039E+05 -4.596520E+05 -2.543929E+06 -4.179113E+05 -1.621086E+05
        43   9 -6.867588E+06 -1.066308E+06 -2.934498E+05 -2.720799E+06 -1.809592E+05 -7.380043E+04
        43  10 -6.673996E+06 -1.852255E+06 -1.015425E+06 -2.492888E+06  1.070455E-09 -2.712169E-10
        43  11 -6.533216E+06 -8.695387E+05 -4.059883E+05 -2.602663E+06  3.390425E-09 -3.855663E-09
        43  12 -6.760579E+06 -8.254853E+05 -2.269832E+05 -2.486898E+06  9.779440E-10  1.990031E-09
        43  13 -6.926108E+06 -1.708655E+06 -1.036874E+06 -2.317235E+06  1.258103E-09  1.961993E-09
        43  14 -6.685919E+06 -8.577655E+05 -4.330125E+05 -2.573319E+06  1.634886E-10 -3.477333E-10
        43  15 -6.814116E+06 -9.459349E+05 -2.602555E+05 -2.603863E+06  1.471615E-09  2.540495E-09
        43  16 -7.178026E+06 -1.564831E+06 -1.058285E+06 -2.141645E+06 -2.756475E-09  1.348191E-09
        43  17 -6.838588E+06 -8.459800E+05 -4.600344E+05 -2.543984E+06 -2.908682E-09  4.392173E-09
        43  18 -6.867625E+06 -1.066323E+06 -2.935225E+05 -2.720809E+06 -3.522421E-10  3.408648E-09
        43  19 -6.673518E+06 -1.852073E+06 -1.014500E+06 -2.492757E+06  6.522478E+05  2.471720E+05
        43  20 -6.533021E+06 -8.694633E+05 -4.056093E+05 -2.602608E+06  4.161106E+05  1.613094E+05
        43  21 -6.760542E+06 -8.254705E+05 -2.269108E+05 -2.486887E+06  1.806167E+05  7.374563E+04
        43  22 -6.925628E+06 -1.708472E+06 -1.035943E+06 -2.317103E+06  6.538333E+05  2.480898E+05
        43  23 -6.685723E+06 -8.576897E+05 -4.326318E+05 -2.573264E+06  4.170111E+05  1.617089E+05
        43  24 -6.814079E+06 -9.459201E+05 -2.601830E+05 -2.603852E+06  1.807880E+05  7.377307E+04
        43  25 -7.177543E+06 -1.564647E+06 -1.057350E+06 -2.141512E+06  6.554180E+05  2.490090E+05
        43  26 -6.838392E+06 -8.459039E+05 -4.596520E+05 -2.543929E+06  4.179113E+05  1.621086E+05
        43  27 -6.867588E+06 -1.066308E+06 -2.934498E+05 -2.720799E+06  1.809592E+05  7.380043E+04
        44   1 -6.610020E+06 -1.008158E+06 -1.699519E+05 -2.518251E+06 -1.438062E+05 -6.024038E+04
        44   2 -6.580440E+06 -8.956945E+05 -5.556037E+04 -2.519896E+06 -9.086280E+04 -4.144890E+04
        44   3 -6.583813E+06 -8.905207E+05 -7.021834E+03 -2.509683E+06 -3.799982E+04 -2.242775E+04
        44   4 -6.781540E+06 -1.050703E+06 -2.111538E+05 -2.542244E+06 -1.443719E+05 -6.046093E+04
        44   5 -6.759217E+06 -9.576760E+05 -1.017509E+05 -2.562955E+06 -9.132816E+04 -4.162603E+04
        44   6 -6.769877E+06 -9.719771E+05 -5.829405E+04 -2.571807E+06 -3.836545E+04 -2.256527E+04
        44   7 -6.953031E+06 -1.093249E+06 -2.523576E+05 -2.566232E+06 -1.449375E+05 -6.068148E+04
        44   8 -6.937963E+06 -1.019657E+06 -1.479441E+05 -2.606004E+06 -9.179336E+04 -4.180312E+04
        44   9 -6.955908E+06 -1.053428E+06 -1.095694E+05 -2.633914E+06 -3.873096E+04 -2.270273E+04
        44  10 -6.610044E+06 -1.008167E+06 -1.699982E+05 -2.518258E+06  1.654282E-09  3.383496E-09
        44  11 -6.580449E+06 -8.956987E+05 -5.557934E+04 -2.519899E+06 -4.928943E-09 -3.749560E-10
        44  12 -6.583814E+06 -8.905217E+05 -7.025536E+03 -2.509684E+06 -2.814732E-09 -1.170447E-10
        44  13 -6.781564E+06 -1.050713E+06 -2.112004E+05 -2.542251E+06 -6.095484E-10  1.821344E-09
        44  14 -6.759227E+06 -9.576802E+05 -1.017701E+05 -2.562958E+06 -3.995887E-09 -7.004173E-10
        44  15 -6.769879E+06 -9.719780E+05 -5.829782E+04 -2.571808E+06 -2.729639E-09 -5.800970E-10
        44  16 -6.953055E+06 -1.093259E+06 -2.524046E+05 -2.566239E+06 -2.922385E-09  2.046610E-09
        44  17 -6.937973E+06 -1.019661E+06 -1.479635E+05 -2.606007E+06  2.956733E-10  1.183479E-09
        44  18 -6.955909E+06 -1.053429E+06 -1.095733E+05 -2.633914E+06  1.672872E-09 -1.435037E-09
        44  19 -6.610020E+06 -1.008158E+06 -1.699519E+05 -2.518251E+06  1.438062E+05  6.024038E+04
        44  20 -6.580440E+06 -8.956945E+05 -5.556037E+04 -2.519896E+06  9.086280E+04  4.144890E+04
        44  21 -6.583813E+06 -8.905207E+05 -7.021834E+03 -2.509683E+06  3.799982E+04  2.242775E+04
        44  22 -6.781540E+06 -1.050703E+06 -2.111538E+05 -2.542244E+06  1.443719E+05  6.046093E+04
        44  23 -6.759217E+06 -9.576760E+05 -1.017509E+05 -2.562955E+06  9.132816E+04  4.162603E+04
        44  24 -6.769877E+06 -9.719771E+05 -5.829405E+04 -2.571807E+06  3.836545E+04  2.256527E+04
        44  25 -6.953031E+06 -1.093249E+06 -2.523576E+05 -2.566232E+06  1.449375E+05  6.068148E+04
        44  26 -6.937963E+06 -1.019657E+06 -1.479441E+05 -2.606004E+06  9.179336E+04  4.180312E+04
        44  27 -6.955908E+06 -1.053428E+06 -1.095694E+05 -2.633914E+06  3.873096E+04  2.270273E+04
        45   1 -6.549632E+06 -9.013475E+05  1.176838E+04 -2.506819E+06 -2.955221E+04 -1.971770E+04
        45   2 -6.538052E+06 -8.828499E+05  3.684234E+04 -2.500679E+06 -1.743897E+04 -1.589540E+04
        45   3 -6.524844E+06 -8.813825E+05  5.029701E+04 -2.500214E+06 -5.380304E+03 -1.192647E+04
        45   4 -6.766524E+06 -9.818197E+05 -4.535633E+04 -2.564427E+06 -2.992042E+04 -1.985728E+04
        45   5 -6.766723E+06 -9.693064E+05 -2.361490E+04 -2.563084E+06 -1.773631E+04 -1.600817E+04
        45   6 -6.765310E+06 -9.738399E+05 -1.355228E+04 -2.567414E+06 -5.607006E+03 -1.201255E+04
        45   7 -6.983368E+06 -1.062289E+06 -1.024849E+05 -2.622018E+06 -3.028848E+04 -1.999682E+04
        45   8 -6.995343E+06 -1.055760E+06 -8.407667E+04 -2.625467E+06 -1.803354E+04 -1.612090E+04
        45   9 -7.005721E+06 -1.066293E+06 -7.740682E+04 -2.634591E+06 -5.833610E+03 -1.209860E+04
        45  10 -6.549633E+06 -9.013482E+05  1.176598E+04 -2.506819E+06  2.410109E-09 -1.178674E-09
        45  11 -6.538053E+06 -8.828503E+05  3.684129E+04 -2.500679E+06 -5.808491E-10 -3.857915E-10
        45  12 -6.524844E+06 -8.813827E+05  5.029668E+04 -2.500214E+06  1.456342E-09  3.543186E-09
        45  13 -6.766525E+06 -9.818204E+05 -4.535879E+04 -2.564428E+06 -7.747739E-10 -6.961707E-10
        45  14 -6.766724E+06 -9.693068E+05 -2.361598E+04 -2.563084E+06 -5.662505E-09 -2.417340E-09
        45  15 -6.765310E+06 -9.738400E+05 -1.355261E+04 -2.567414E+06 -3.120796E-09  2.937965E-09
        45  16 -6.983370E+06 -1.062290E+06 -1.024874E+05 -2.622018E+06 -2.431448E-09 -1.553566E-09
        45  17 -6.995343E+06 -1.055760E+06 -8.407778E+04 -2.625468E+06 -2.142526E-09 -4.043960E-09
        45  18 -7.005721E+06 -1.066294E+06 -7.740716E+04 -2.634591E+06 -3.166322E-09 -2.348625E-09
        45  19 -6.549632E+06 -9.013475E+05  1.176838E+04 -2.506819E+06  2.955221E+04  1.971770E+04
        45  20 -6.538052E+06 -8.828499E+05  3.684234E+04 -2.500679E+06  1.743897E+04  1.589540E+04
        45  21 -6.524844E+06 -8.813825E+05  5.029701E+04 -2.500214E+06  5.380304E+03  1.192647E+04
        45  22 -6.766524E+06 -9.818197E+05 -4.535633E+04 -2.564427E+06  2.992042E+04  1.985728E+04
        45  23 -6.766723E+06 -9.693064E+05 -2.361490E+04 -2.563084E+06  1.773631E+04  1.600817E+04
        45  24 -6.765310E+06 -9.738399E+05 -1.355228E+04 -2.567414E+06  5.607006E+03  1.201255E+04
        45  25 -6.983368E+06 -1.062289E+06 -1.024849E+05 -2.622018E+06  3.028848E+04  1.999682E+04
        45  26 -6.995343E+06 -1.055760E+06 -8.407667E+04 -2.625467E+06  1.803354E+04  1.612090E+04
        45  27 -7.005721E+06 -1.066293E+06 -7.740682E+04 -2.634591E+06  5.833610E+03  1.209860E+04
        46   1 -6.512318E+06 -8.778432E+05  5.649125E+04 -2.496236E+06 -3.358407E+03 -1.143698E+04
        46   2 -6.508332E+06 -8.735977E+05  6.184655E+04 -2.493460E+06 -7.073909E+01 -1.053924E+04
        46   3 -6.502437E+06 -8.731619E+05  6.453811E+04 -2.493539E+06  3.159055E+03 -9.488290E+03
        46   4 -6.765685E+06 -9.739123E+05 -1.059355E+04 -2.565651E+06 -3.550827E+03 -1.151015E+04
        46   5 -6.766575E+06 -9.716456E+05 -6.506670E+03 -2.564356E+06 -1.859830E+02 -1.058323E+04
        46   6 -6.765573E+06 -9.732046E+05 -5.146062E+03 -2.565915E+06  3.120943E+03 -9.503077E+03
        46   7 -7.018989E+06 -1.069977E+06 -7.768392E+04 -2.635040E+06 -3.743159E+03 -1.158329E+04
        46   8 -7.024753E+06 -1.069689E+06 -7.486557E+04 -2.635224E+06 -3.011730E+02 -1.062720E+04
        46   9 -7.028640E+06 -1.073243E+06 -7.483603E+04 -2.638262E+06  3.082849E+03 -9.517857E+03
        46  10 -6.512318E+06 -8.778433E+05  5.649098E+04 -2.496236E+06  1.178750E-08  9.758431E-09
        46  11 -6.508332E+06 -8.735978E+05  6.184634E+04 -2.493460E+06  6.653615E-09  5.761997E-09
        46  12 -6.502437E+06 -8.731620E+05  6.453792E+04 -2.493539E+06 -9.711852E-09  1.345069E-09
        46  13 -6.765685E+06 -9.739124E+05 -1.059383E+04 -2.565651E+06 -1.055913E-09  5.933392E-09
        46  14 -6.766576E+06 -9.716458E+05 -6.506880E+03 -2.564356E+06  3.867221E-09  7.207306E-09
        46  15 -6.765573E+06 -9.732047E+05 -5.146249E+03 -2.565915E+06  1.035387E-09  7.904003E-09
        46  16 -7.018989E+06 -1.069977E+06 -7.768420E+04 -2.635040E+06 -1.025982E-08 -1.568201E-09
        46  17 -7.024753E+06 -1.069689E+06 -7.486578E+04 -2.635224E+06  4.549415E-09  3.442189E-09
        46  18 -7.028640E+06 -1.073243E+06 -7.483622E+04 -2.638262E+06  6.392590E-09  6.992176E-09
        46  19 -6.512318E+06 -8.778432E+05  5.649125E+04 -2.496236E+06  3.358407E+03  1.143698E+04
        46  20 -6.508332E+06 -8.735977E+05  6.184655E+04 -2.493460E+06  7.073909E+01  1.053924E+04
        46  21 -6.502437E+06 -8.731619E+05  6.453811E+04 -2.493539E+06 -3.159055E+03  9.488290E+03
        46  22 -6.765685E+06 -9.739123E+05 -1.059355E+04 -2.565651E+06  3.550827E+03  1.151015E+04
        46  23 -6.766575E+06 -9.716456E+05 -6.506670E+03 -2.564356E+06  1.859830E+02  1.058323E+04
        46  24 -6.765573E+06 -9.732046E+05 -5.146062E+03 -2.565915E+06 -3.120943E+03  9.503077E+03
        46  25 -7.018989E+06 -1.069977E+06 -7.768392E+04 -2.635040E+06  3.743159E+03  1.158329E+04
        46  26 -7.024753E+06 -1.069689E+06 -7.486557E+04 -2.635224E+06  3.011730E+02  1.062720E+04
        46  27 -7.028640E+06 -1.073243E+06 -7.483603E+04 -2.638262E+06 -3.082849E+03  9.517857E+03
        47   1 -6.502152E+06 -8.719098E+05  6.483911E+04 -2.492298E+06  3.972928E+03 -9.204894E+03
        47   2 -6.504432E+06 -8.738139E+05  6.255125E+04 -2.494116E+06  7.114762E+03 -7.924162E+03
        47   3 -6.509309E+06 -8.750141E+05  5.760198E+04 -2.493690E+06  1.019708E+04 -6.486704E+03
        47   4 -6.766574E+06 -9.722017E+05 -5.145935E+03 -2.564782E+06  3.972862E+03 -9.205263E+03
        47   5 -6.765324E+06 -9.728999E+05 -6.509045E+03 -2.565772E+06  7.193643E+03 -7.894575E+03
        47   6 -6.766687E+06 -9.729103E+05 -1.059758E+04 -2.564518E+06  1.035491E+04 -6.427125E+03
        47   7 -7.030927E+06 -1.072489E+06 -7.513728E+04 -2.637238E+06  3.972796E+03 -9.205632E+03
        47   8 -7.026149E+06 -1.071982E+06 -7.557537E+04 -2.637400E+06  7.272488E+03 -7.865003E+03
        47   9 -7.024000E+06 -1.070802E+06 -7.880291E+04 -2.635318E+06  1.051267E+04 -6.367574E+03
        47  10 -6.502153E+06 -8.719099E+05  6.483893E+04 -2.492298E+06 -5.390001E-09 -4.052222E-10
        47  11 -6.504433E+06 -8.738140E+05  6.255104E+04 -2.494116E+06 -7.095239E-09  2.006677E-09
        47  12 -6.509309E+06 -8.750141E+05  5.760170E+04 -2.493690E+06 -4.299181E-09  1.921442E-09
        47  13 -6.766574E+06 -9.722018E+05 -5.146124E+03 -2.564782E+06  3.168331E-09  4.256278E-09
        47  14 -6.765324E+06 -9.729000E+05 -6.509259E+03 -2.565772E+06  6.438721E-09  5.446668E-09
        47  15 -6.766687E+06 -9.729104E+05 -1.059786E+04 -2.564518E+06  1.716616E-09 -1.979675E-09
        47  16 -7.030927E+06 -1.072490E+06 -7.513747E+04 -2.637238E+06  6.772553E-09  2.205837E-09
        47  17 -7.026149E+06 -1.071982E+06 -7.557559E+04 -2.637400E+06  7.585926E-09  5.944967E-10
        47  18 -7.024000E+06 -1.070802E+06 -7.880319E+04 -2.635318E+06  5.657866E-09 -3.790196E-10
        47  19 -6.502152E+06 -8.719098E+05  6.483911E+04 -2.492298E+06 -3.972928E+03  9.204894E+03
        47  20 -6.504432E+06 -8.738139E+05  6.255125E+04 -2.494116E+06 -7.114762E+03  7.924162E+03
        47  21 -6.509309E+06 -8.750141E+05  5.760198E+04 -2.493690E+06 -1.019708E+04  6.486704E+03
        47  22 -6.766574E+06 -9.722017E+05 -5.145935E+03 -2.564782E+06 -3.972862E+03  9.205263E+03
        47  23 -6.765324E+06 -9.728999E+05 -6.509045E+03 -2.565772E+06 -7.193643E+03  7.894575E+03
        47  24 -6.766687E+06 -9.729103E+05 -1.059758E+04 -2.564518E+06 -1.035491E+04  6.427125E+03
        47  25 -7.030927E+06 -1.072489E+06 -7.513728E+04 -2.637238E+06 -3.972796E+03  9.205632E+03
        47  26 -7.026149E+06 -1.071982E+06 -7.557537E+04 -2.637400E+06 -7.272488E+03  7.865003E+03
        47  27 -7.024000E+06 -1.070802E+06 -7.880291E+04 -2.635318E+06 -1.051267E+04  6.367574E+03
        48   1 -6.519895E+06 -8.777981E+05  5.193388E+04 -2.497120E+06  1.205261E+04 -5.552347E+03
        48   2 -6.527346E+06 -8.830224E+05  3.885202E+04 -2.502051E+06  2.373968E+04 -5.960030E+02
        48   3 -6.546222E+06 -8.922254E+05  1.414925E+04 -2.497908E+06  3.536797E+04  4.513042E+03
        48   4 -6.768209E+06 -9.709416E+05 -1.355799E+04 -2.564140E+06  1.224344E+04 -5.480180E+03
        48   5 -6.763100E+06 -9.729318E+05 -2.362614E+04 -2.567178E+06  2.400435E+04 -4.957617E+02
        48   6 -6.769431E+06 -9.789177E+05 -4.537743E+04 -2.561141E+06  3.570677E+04  4.641427E+03
        48   7 -7.016462E+06 -1.064081E+06 -7.905496E+04 -2.631136E+06  1.243418E+04 -5.408045E+03
        48   8 -6.998799E+06 -1.062838E+06 -8.610915E+04 -2.632282E+06  2.426891E+04 -3.955637E+02
        48   9 -6.992592E+06 -1.065607E+06 -1.049087E+05 -2.624353E+06  3.604543E+04  4.769758E+03
        48  10 -6.519895E+06 -8.777982E+05  5.193354E+04 -2.497120E+06  1.445429E-09 -2.387893E-09
        48  11 -6.527347E+06 -8.830225E+05  3.885095E+04 -2.502051E+06  4.270197E-09 -2.531462E-09
        48  12 -6.546223E+06 -8.922257E+05  1.414683E+04 -2.497909E+06  2.023142E-09 -4.380665E-09
        48  13 -6.768209E+06 -9.709417E+05 -1.355833E+04 -2.564140E+06  2.759900E-09 -1.566224E-09
        48  14 -6.763100E+06 -9.729320E+05 -2.362724E+04 -2.567178E+06  1.934764E-09 -5.510589E-09
        48  15 -6.769432E+06 -9.789181E+05 -4.537989E+04 -2.561141E+06  5.322401E-09 -9.710998E-10
        48  16 -7.016462E+06 -1.064081E+06 -7.905531E+04 -2.631136E+06  9.242250E-11 -1.174649E-09
        48  17 -6.998799E+06 -1.062838E+06 -8.611027E+04 -2.632282E+06 -2.135115E-09 -2.718320E-09
        48  18 -6.992594E+06 -1.065607E+06 -1.049112E+05 -2.624353E+06  1.282216E-10 -7.605704E-11
        48  19 -6.519895E+06 -8.777981E+05  5.193388E+04 -2.497120E+06 -1.205261E+04  5.552347E+03
        48  20 -6.527346E+06 -8.830224E+05  3.885202E+04 -2.502051E+06 -2.373968E+04  5.960030E+02
        48  21 -6.546222E+06 -8.922254E+05  1.414925E+04 -2.497908E+06 -3.536797E+04 -4.513042E+03
        48  22 -6.768209E+06 -9.709416E+05 -1.355799E+04 -2.564140E+06 -1.224344E+04  5.480180E+03
        48  23 -6.763100E+06 -9.729318E+05 -2.362614E+04 -2.567178E+06 -2.400435E+04  4.957617E+02
        48  24 -6.769431E+06 -9.789177E+05 -4.537743E+04 -2.561141E+06 -3.570677E+04 -4.641427E+03
        48  25 -7.016462E+06 -1.064081E+06 -7.905496E+04 -2.631136E+06 -1.243418E+04  5.408045E+03
        48  26 -6.998799E+06 -1.062838E+06 -8.610915E+04 -2.632282E+06 -2.426891E+04  3.955637E+02
        48  27 -6.992592E+06 -1.065607E+06 -1.049087E+05 -2.624353E+06 -3.604543E+04 -4.769758E+03
        49   1 -6.561885E+06 -8.976672E+05 -4.208608E+03 -2.519409E+06  4.351265E+04  8.050676E+03
        49   2 -6.571620E+06 -8.882404E+05 -5.248851E+04 -2.513302E+06  9.572836E+04  2.880659E+04
        49   3 -6.634647E+06 -9.658216E+05 -1.666382E+05 -2.472371E+06  1.478405E+05  4.982030E+04
        49   4 -6.774359E+06 -9.674985E+05 -5.832151E+04 -2.566750E+06  4.384281E+04  8.176871E+03
        49   5 -6.753594E+06 -9.632923E+05 -1.017993E+05 -2.569304E+06  9.617513E+04  2.897520E+04
        49   6 -6.786154E+06 -1.046135E+06 -2.112534E+05 -2.537031E+06  1.484067E+05  5.002882E+04
        49   7 -6.986789E+06 -1.037330E+06 -1.124380E+05 -2.614078E+06  4.417284E+04  8.303031E+03
        49   8 -6.935534E+06 -1.038340E+06 -1.511130E+05 -2.625291E+06  9.662175E+04  2.914374E+04
        49   9 -6.937636E+06 -1.126440E+06 -2.558707E+05 -2.601673E+06  1.489727E+05  5.023723E+04
        49  10 -6.561887E+06 -8.976678E+05 -4.212331E+03 -2.519409E+06  2.538917E-09 -3.881273E-09
        49  11 -6.571631E+06 -8.882438E+05 -5.250752E+04 -2.513304E+06 -4.903118E-10 -1.579259E-09
        49  12 -6.634671E+06 -9.658303E+05 -1.666845E+05 -2.472377E+06 -2.212466E-09  1.737990E-09
        49  13 -6.774361E+06 -9.674991E+05 -5.832529E+04 -2.566751E+06  2.730921E-09 -2.896610E-09
        49  14 -6.753604E+06 -9.632957E+05 -1.018185E+05 -2.569306E+06  4.543101E-09 -3.403526E-09
        49  15 -6.786178E+06 -1.046144E+06 -2.113001E+05 -2.537037E+06  4.298924E-09  4.620790E-12
        49  16 -6.986792E+06 -1.037330E+06 -1.124418E+05 -2.614078E+06  2.660194E-09 -3.658735E-09
        49  17 -6.935544E+06 -1.038344E+06 -1.511323E+05 -2.625293E+06  1.143228E-09 -1.853688E-09
        49  18 -6.937661E+06 -1.126449E+06 -2.559177E+05 -2.601679E+06  3.605742E-09  4.581275E-10
        49  19 -6.561885E+06 -8.976672E+05 -4.208608E+03 -2.519409E+06 -4.351265E+04 -8.050676E+03
        49  20 -6.571620E+06 -8.882404E+05 -5.248851E+04 -2.513302E+06 -9.572836E+04 -2.880659E+04
        49  21 -6.634647E+06 -9.658216E+05 -1.666382E+05 -2.472371E+06 -1.478405E+05 -4.982030E+04
        49  22 -6.774359E+06 -9.674985E+05 -5.832151E+04 -2.566750E+06 -4.384281E+04 -8.176871E+03
        49  23 -6.753594E+06 -9.632923E+05 -1.017993E+05 -2.569304E+06 -9.617513E+04 -2.897520E+04
        49  24 -6.786154E+06 -1.046135E+06 -2.112534E+05 -2.537031E+06 -1.484067E+05 -5.002882E+04
        49  25 -6.986789E+06 -1.037330E+06 -1.124380E+05 -2.614078E+06 -4.417284E+04 -8.303031E+03
        49  26 -6.935534E+06 -1.038340E+06 -1.511130E+05 -2.625291E+06 -9.662175E+04 -2.914374E+04
        49  27 -6.937636E+06 -1.126440E+06 -2.558707E+05 -2.601673E+06 -1.489727E+05 -5.023723E+04
        50   1 -6.606332E+06 -9.601548E+05 -2.232896E+05 -2.641205E+06  1.845055E+05  6.408289E+04
        50   2 -6.612549E+06 -7.694487E+05 -4.019048E+05 -2.492002E+06  4.187886E+05  1.545965E+05
        50   3 -7.013437E+06 -1.491211E+06 -1.010750E+06 -2.087151E+06  6.522842E+05  2.471946E+05
        50   4 -6.819566E+06 -9.404439E+05 -2.603058E+05 -2.597697E+06  1.845424E+05  6.413421E+04
        50   5 -6.678589E+06 -8.647378E+05 -4.328376E+05 -2.581286E+06  4.198093E+05  1.549254E+05
        50   6 -6.932638E+06 -1.701883E+06 -1.036431E+06 -2.309152E+06  6.543506E+05  2.476615E+05
        50   7 -7.032734E+06 -9.207067E+05 -2.973174E+05 -2.554208E+06  1.845791E+05  6.418556E+04
        50   8 -6.744612E+06 -9.599941E+05 -4.637685E+05 -2.670556E+06  4.208300E+05  1.552539E+05
        50   9 -6.851696E+06 -1.912275E+06 -1.062076E+06 -2.531153E+06  6.564174E+05  2.481266E+05
        50  10 -6.606370E+06 -9.601685E+05 -2.233621E+05 -2.641215E+06  1.202673E-09  1.768697E-09
        50  11 -6.612745E+06 -7.695225E+05 -4.022839E+05 -2.492054E+06 -3.704849E-09  1.135735E-09
        50  12 -7.013915E+06 -1.491393E+06 -1.011676E+06 -2.087282E+06 -2.040808E-09 -1.412549E-09
        50  13 -6.819604E+06 -9.404576E+05 -2.603785E+05 -2.597706E+06  2.189863E-09  4.070825E-09
        50  14 -6.678786E+06 -8.648118E+05 -4.332187E+05 -2.581339E+06  1.190955E-09 -8.719167E-09
        50  15 -6.933119E+06 -1.702066E+06 -1.037363E+06 -2.309284E+06  2.840837E-09 -1.941937E-09
        50  16 -7.032772E+06 -9.207205E+05 -2.973901E+05 -2.554217E+06 -2.140975E-09  3.049276E-10
        50  17 -6.744810E+06 -9.600685E+05 -4.641514E+05 -2.670609E+06 -1.611293E-10 -4.094294E-10
        50  18 -6.852180E+06 -1.912459E+06 -1.063013E+06 -2.531285E+06  1.081902E-09 -9.127678E-10
        50  19 -6.606332E+06 -9.601548E+05 -2.232896E+05 -2.641205E+06 -1.845055E+05 -6.408289E+04
        50  20 -6.612549E+06 -7.694487E+05 -4.019048E+05 -2.492002E+06 -4.187886E+05 -1.545965E+05
        50  21 -7.013437E+06 -1.491211E+06 -1.010750E+06 -2.087151E+06 -6.522842E+05 -2.471946E+05
        50  22 -6.819566E+06 -9.404439E+05 -2.603058E+05 -2.597697E+06 -1.845424E+05 -6.413421E+04
        50  23 -6.678589E+06 -8.647378E+05 -4.328376E+05 -2.581286E+06 -4.198093E+05 -1.549254E+05
        50  24 -6.932638E+06 -1.701883E+06 -1.036431E+06 -2.309152E+06 -6.543506E+05 -2.476615E+05
        50  25 -7.032734E+06 -9.207067E+05 -2.973174E+05 -2.554208E+06 -1.845791E+05 -6.418556E+04
        50  26 -6.744612E+06 -9.599941E+05 -4.637685E+05 -2.670556E+06 -4.208300E+05 -1.552539E+05
        50  27 -6.851696E+06 -1.912275E+06 -1.062076E+06 -2.531153E+06 -6.564174E+05 -2.481266E+05
        51   1 -1.443923E+06 -2.167384E+05 -1.766478E+05 -3.979649E+03  9.330452E+04  1.549556E+04
        51   2 -1.380361E+06 -3.496531E+05 -2.416351E+05 -6.599669E+03  6.987936E+04  4.619806E+04
        51   3 -1.270440E+06 -3.182899E+05 -2.498818E+05 -6.764189E+04  4.658270E+04  4.438778E+04
        51   4 -1.754838E+04  1.385893E+05  1.747236E+05 -4.647517E+04  1.194235E+05  1.559616E+04
        51   5 -4.221820E+04 -1.823779E+04  7.664199E+04 -1.698305E+04  7.800331E+04  4.621826E+04
        51   6 -1.750821E+04 -7.853680E+03  4.770877E+04 -4.590267E+04  3.671633E+04  4.435623E+04
        51   7  1.410686E+06  4.937732E+05  5.259484E+05 -8.907053E+04  1.456022E+05  1.569307E+04
        51   8  1.297571E+06  3.130489E+05  3.947941E+05 -2.739038E+04  8.614457E+04  4.623817E+04
        51   9  1.236868E+06  3.024711E+05  3.451903E+05 -2.412021E+04  2.683005E+04  4.432402E+04
        51  10 -1.443933E+06 -2.167410E+05 -1.766647E+05 -3.980815E+03 -1.429044E-10  1.256950E-09
        51  11 -1.380367E+06 -3.496567E+05 -2.416483E+05 -6.602271E+03 -1.565259E-09 -1.759639E-09
        51  12 -1.270443E+06 -3.182926E+05 -2.498896E+05 -6.764356E+04  1.907946E-10 -2.089473E-10
        51  13 -1.756376E+04  1.385852E+05  1.746963E+05 -4.647667E+04  7.806401E-11  5.754160E-10
        51  14 -4.222531E+04 -1.824171E+04  7.662654E+04 -1.698596E+04  9.954488E-10 -4.826579E-09
        51  15 -1.751018E+04 -7.856155E+03  4.770254E+04 -4.590398E+04  5.776057E-09 -4.028942E-10
        51  16  1.410663E+06  4.937673E+05  5.259082E+05 -8.907237E+04  2.272592E-09 -4.702867E-10
        51  17  1.297563E+06  3.130447E+05  3.947762E+05 -2.739358E+04  2.579364E-09 -8.872152E-10
        51  18  1.236866E+06  3.024688E+05  3.451853E+05 -2.412117E+04  1.724465E-09 -1.977380E-09
        51  19 -1.443923E+06 -2.167384E+05 -1.766478E+05 -3.979649E+03 -9.330452E+04 -1.549556E+04
        51  20 -1.380361E+06 -3.496531E+05 -2.416351E+05 -6.599669E+03 -6.987936E+04 -4.619806E+04
        51  21 -1.270440E+06 -3.182899E+05 -2.498818E+05 -6.764189E+04 -4.658270E+04 -4.438778E+04
        51  22 -1.754838E+04  1.385893E+05  1.747236E+05 -4.647517E+04 -1.194235E+05 -1.559616E+04
        51  23 -4.221820E+04 -1.823779E+04  7.664199E+04 -1.698305E+04 -7.800331E+04 -4.621826E+04
        51  24 -1.750821E+04 -7.853680E+03  4.770877E+04 -4.590267E+04 -3.671633E+04 -4.435623E+04
        51  25  1.410686E+06  4.937732E+05  5.259484E+05 -8.907053E+04 -1.456022E+05 -1.569307E+04
        51  26  1.297571E+06  3.130489E+05  3.947941E+05 -2.739038E+04 -8.614457E+04 -4.623817E+04
        51  27  1.236868E+06  3.024711E+05  3.451903E+05 -2.412021E+04 -2.683005E+04 -4.432402E+04
        52   1 -1.174560E+06 -2.712540E+05 -2.347889E+05 -4.419145E+04  2.952063E+04  3.773774E+04
        52   2 -1.091492E+06 -2.649954E+05 -2.326340E+05 -1.717572E+04  2.061011E+04  3.633559E+04
        52   3 -1.001863E+06 -2.424992E+05 -2.203280E+05 -4.903886E+04  1.169635E+04  3.276307E+04
        52   4 -2.691074E+04  1.313934E+04  3.878582E+04 -4.619193E+04  2.939428E+04  3.773261E+04
        52   5 -3.026997E+04 -2.120730E+03  1.980320E+04 -1.674081E+04  1.927072E+04  3.632901E+04
        52   6 -2.687253E+04 -9.469564E+02  1.180150E+04 -4.616199E+04  9.145178E+03  3.275664E+04
        52   7  1.121948E+06  2.974375E+05  3.122681E+05 -4.819680E+04  2.926766E+04  3.772748E+04
        52   8  1.031987E+06  2.606728E+05  2.721616E+05 -1.630559E+04  1.792902E+04  3.632243E+04
        52   9  9.489912E+05  2.405367E+05  2.438645E+05 -4.328079E+04  6.590000E+03  3.275020E+04
        52  10 -1.174561E+06 -2.712557E+05 -2.347932E+05 -4.419235E+04  3.290290E-10 -1.532489E-09
        52  11 -1.091493E+06 -2.649970E+05 -2.326373E+05 -1.717632E+04 -2.757682E-09  8.582420E-10
        52  12 -1.001863E+06 -2.425004E+05 -2.203303E+05 -4.903917E+04  2.000054E-09 -1.521354E-09
        52  13 -2.691205E+04  1.313758E+04  3.878152E+04 -4.619282E+04 -4.125358E-10 -9.774309E-10
        52  14 -3.027073E+04 -2.122247E+03  1.980003E+04 -1.674137E+04  3.734616E-09 -2.859668E-10
        52  15 -2.687291E+04 -9.481311E+02  1.179933E+04 -4.616223E+04  1.991929E-09 -1.324215E-09
        52  16  1.121947E+06  2.974357E+05  3.122638E+05 -4.819769E+04  1.211060E-09  2.009262E-10
        52  17  1.031986E+06  2.606713E+05  2.721585E+05 -1.630612E+04  2.466667E-09 -2.144218E-09
        52  18  9.489909E+05  2.405355E+05  2.438624E+05 -4.328097E+04 -2.621345E-10 -1.224298E-10
        52  19 -1.174560E+06 -2.712540E+05 -2.347889E+05 -4.419145E+04 -2.952063E+04 -3.773774E+04
        52  20 -1.091492E+06 -2.649954E+05 -2.326340E+05 -1.717572E+04 -2.061011E+04 -3.633559E+04
        52  21 -1.001863E+06 -2.424992E+05 -2.203280E+05 -4.903886E+04 -1.169635E+04 -3.276307E+04
        52  22 -2.691074E+04  1.313934E+04  3.878582E+04 -4.619193E+04 -2.939428E+04 -3.773261E+04
        52  23 -3.026997E+04 -2.120730E+03  1.980320E+04 -1.674081E+04 -1.927072E+04 -3.632901E+04
        52  24 -2.687253E+04 -9.469564E+02  1.180150E+04 -4.616199E+04 -9.145178E+03 -3.275664E+04
        52  25  1.121948E+06  2.974375E+05  3.122681E+05 -4.819680E+04 -2.926766E+04 -3.772748E+04
        52  26  1.031987E+06  2.606728E+05  2.721616E+05 -1.630559E+04 -1.792902E+04 -3.632243E+04
        52  27  9.489912E+05  2.405367E+05  2.438645E+05 -4.328079E+04 -6.590000E+03 -3.275020E+04
        53   1 -8.976269E+05 -2.143040E+05 -1.974614E+05 -4.656057E+04  9.192302E+03  3.031531E+04
        53   2 -8.118892E+05 -1.943155E+05 -1.813111E+05 -1.699801E+04  6.790909E+03  2.678014E+04
        53   3 -7.247768E+05 -1.727391E+05 -1.630583E+05 -4.643415E+04  4.383599E+03  2.309948E+04
        53   4 -2.801464E+04  1.041931E+03  9.170229E+03 -4.619831E+04  7.291140E+03  3.031077E+04
        53   5 -2.869029E+04 -3.412167E+02  4.964181E+03 -1.670080E+04  4.806247E+03  2.677692E+04
        53   6 -2.798595E+04 -1.228549E+02  2.916652E+03 -4.619740E+04  2.315767E+03  2.309769E+04
        53   7  8.422926E+05  2.163334E+05  2.157491E+05 -4.583567E+04  5.387320E+03  3.030623E+04
        53   8  7.550721E+05  1.935889E+05  1.911966E+05 -1.640328E+04  2.819088E+03  2.677369E+04
        53   9  6.692507E+05  1.724584E+05  1.688576E+05 -4.596038E+04  2.456224E+02  2.309589E+04
        53  10 -8.976273E+05 -2.143050E+05 -1.974633E+05 -4.656079E+04  2.270320E-09 -6.506465E-10
        53  11 -8.118894E+05 -1.943163E+05 -1.813126E+05 -1.699816E+04  2.076247E-09 -3.301524E-10
        53  12 -7.247770E+05 -1.727397E+05 -1.630593E+05 -4.643423E+04 -1.209527E-09  1.301823E-09
        53  13 -2.801494E+04  1.040930E+03  9.168402E+03 -4.619848E+04 -8.111395E-10 -1.251963E-09
        53  14 -2.869051E+04 -3.419929E+02  4.962790E+03 -1.670091E+04  1.438332E-10 -5.969843E-10
        53  15 -2.798610E+04 -1.234292E+02  2.915640E+03 -4.619745E+04 -4.741536E-11  9.773720E-10
        53  16  8.422923E+05  2.163324E+05  2.157473E+05 -4.583580E+04  6.954156E-10 -1.117072E-09
        53  17  7.550719E+05  1.935881E+05  1.911952E+05 -1.640334E+04 -1.625898E-09 -8.064543E-10
        53  18  6.692506E+05  1.724578E+05  1.688566E+05 -4.596039E+04  1.254056E-09  6.712827E-10
        53  19 -8.976269E+05 -2.143040E+05 -1.974614E+05 -4.656057E+04 -9.192302E+03 -3.031531E+04
        53  20 -8.118892E+05 -1.943155E+05 -1.813111E+05 -1.699801E+04 -6.790909E+03 -2.678014E+04
        53  21 -7.247768E+05 -1.727391E+05 -1.630583E+05 -4.643415E+04 -4.383599E+03 -2.309948E+04
        53  22 -2.801464E+04  1.041931E+03  9.170229E+03 -4.619831E+04 -7.291140E+03 -3.031077E+04
        53  23 -2.869029E+04 -3.412167E+02  4.964181E+03 -1.670080E+04 -4.806247E+03 -2.677692E+04
        53  24 -2.798595E+04 -1.228549E+02  2.916652E+03 -4.619740E+04 -2.315767E+03 -2.309769E+04
        53  25  8.422926E+05  2.163334E+05  2.157491E+05 -4.583567E+04 -5.387320E+03 -3.030623E+04
        53  26  7.550721E+05  1.935889E+05  1.911966E+05 -1.640328E+04 -2.819088E+03 -2.677369E+04
        53  27  6.692507E+05  1.724584E+05  1.688576E+05 -4.596038E+04 -2.456224E+02 -2.309589E+04
        54   1 -6.194765E+05 -1.463405E+05 -1.381572E+05 -4.616371E+04  3.878706E+03  2.093244E+04
        54   2 -5.331227E+05 -1.250604E+05 -1.188596E+05 -1.656519E+04  3.298223E+03  1.725383E+04
        54   3 -4.464519E+05 -1.035801E+05 -9.909503E+04 -4.600382E+04  2.713976E+03  1.356517E+04
        54   4 -2.818669E+04  3.484891E+01  2.199741E+03 -4.620655E+04  1.853503E+03  2.093146E+04
        54   5 -2.833292E+04 -6.064222E+01  1.179110E+03 -1.668945E+04  1.266828E+03  1.725376E+04
        54   6 -2.816815E+04  4.558095E+01  6.299179E+02 -4.620654E+04  6.764681E+02  1.356604E+04
        54   7  5.634244E+05  1.463851E+05  1.425323E+05 -4.624940E+04 -1.736211E+02  2.093047E+04
        54   8  4.766909E+05  1.249207E+05  1.212001E+05 -1.681378E+04 -7.662126E+02  1.725369E+04
        54   9  3.902762E+05  1.036586E+05  1.003426E+05 -4.640936E+04 -1.362407E+03  1.356692E+04
        54  10 -6.194767E+05 -1.463410E+05 -1.381580E+05 -4.616378E+04  3.282345E-09  1.341315E-09
        54  11 -5.331228E+05 -1.250607E+05 -1.188602E+05 -1.656524E+04  1.769967E-09 -5.553898E-10
        54  12 -4.464520E+05 -1.035803E+05 -9.909539E+04 -4.600385E+04 -1.190573E-09  5.037981E-10
        54  13 -2.818682E+04  3.437752E+01  2.198911E+03 -4.620658E+04  1.065115E-09  1.209321E-09
        54  14 -2.833300E+04 -6.096232E+01  1.178548E+03 -1.668947E+04 -4.410217E-09 -1.267412E-09
        54  15 -2.816820E+04  4.538320E+01  6.295712E+02 -4.620655E+04 -3.553463E-09  2.286926E-10
        54  16  5.634243E+05  1.463846E+05  1.425315E+05 -4.624940E+04 -3.073279E-09  4.520297E-10
        54  17  4.766908E+05  1.249204E+05  1.211995E+05 -1.681377E+04 -4.087522E-09 -5.157985E-10
        54  18  3.902762E+05  1.036584E+05  1.003422E+05 -4.640935E+04  2.099017E-11  5.777555E-10
        54  19 -6.194765E+05 -1.463405E+05 -1.381572E+05 -4.616371E+04 -3.878706E+03 -2.093244E+04
        54  20 -5.331227E+05 -1.250604E+05 -1.188596E+05 -1.656519E+04 -3.298223E+03 -1.725383E+04
        54  21 -4.464519E+05 -1.035801E+05 -9.909503E+04 -4.600382E+04 -2.713976E+03 -1.356517E+04
        54  22 -2.818669E+04  3.484891E+01  2.199741E+03 -4.620655E+04 -1.853503E+03 -2.093146E+04
        54  23 -2.833292E+04 -6.064222E+01  1.179110E+03 -1.668945E+04 -1.266828E+03 -1.725376E+04
        54  24 -2.816815E+04  4.558095E+01  6.299179E+02 -4.620654E+04 -6.764681E+02 -1.356604E+04
        54  25  5.634244E+05  1.463851E+05  1.425323E+05 -4.624940E+04  1.736211E+02 -2.093047E+04
        54  26  4.766909E+05  1.249207E+05  1.212001E+05 -1.681378E+04  7.662126E+02 -1.725369E+04
        54  27  3.902762E+05  1.036586E+05  1.003426E+05 -4.640936E+04  1.362407E+03 -1.356692E+04
        55   1 -3.409267E+05 -7.732414E+04 -7.368105E+04 -4.604100E+04  2.616138E+03  1.141552E+04
        55   2 -2.543308E+05 -5.596383E+04 -5.370290E+04 -1.654104E+04  2.580939E+03  7.726333E+03
        55   3 -1.677903E+05 -3.453159E+04 -3.370314E+04 -4.609943E+04  2.544089E+03  4.040967E+03
        55   4 -2.823001E+04  4.676377E+01  4.071138E+02 -4.621161E+04  5.795807E+02  1.141686E+04
        55   5 -2.819515E+04  2.421376E+01  6.299632E+01 -1.668310E+04  5.463436E+02  7.728067E+03
        55   6 -2.822170E+04  7.408639E+01 -2.601577E+02 -4.621161E+04  5.114597E+02  4.043127E+03
        55   7  2.845566E+05  7.741065E+04  7.448849E+04 -4.638229E+04 -1.457997E+03  1.141819E+04
        55   8  1.979874E+05  5.600858E+04  5.382533E+04 -1.682520E+04 -1.488989E+03  7.729802E+03
        55   9  1.113647E+05  3.467835E+04  3.318146E+04 -4.632380E+04 -1.521624E+03  4.045289E+03
        55  10 -3.409268E+05 -7.732428E+04 -7.368130E+04 -4.604103E+04 -5.998863E-10  5.175852E-10
        55  11 -2.543308E+05 -5.596390E+04 -5.370302E+04 -1.654106E+04 -1.180891E-09 -6.686235E-10
        55  12 -1.677903E+05 -3.453161E+04 -3.370318E+04 -4.609944E+04 -7.421211E-10 -4.067500E-10
        55  13 -2.823004E+04  4.662371E+01  4.068682E+02 -4.621162E+04  8.836886E-10  1.646338E-09
        55  14 -2.819517E+04  2.414955E+01  6.288353E+01 -1.668311E+04  8.509934E-10  7.900222E-10
        55  15 -2.822170E+04  7.406877E+01 -2.601889E+02 -4.621161E+04 -1.128763E-09 -1.367603E-09
        55  16  2.845565E+05  7.741051E+04  7.448824E+04 -4.638227E+04 -3.390997E-10  1.402581E-09
        55  17  1.979874E+05  5.600851E+04  5.382522E+04 -1.682519E+04 -7.317877E-10  8.823278E-10
        55  18  1.113647E+05  3.467834E+04  3.318142E+04 -4.632380E+04 -1.408411E-09  3.906426E-10
        55  19 -3.409267E+05 -7.732414E+04 -7.368105E+04 -4.604100E+04 -2.616138E+03 -1.141552E+04
        55  20 -2.543308E+05 -5.596383E+04 -5.370290E+04 -1.654104E+04 -2.580939E+03 -7.726333E+03
        55  21 -1.677903E+05 -3.453159E+04 -3.370314E+04 -4.609943E+04 -2.544089E+03 -4.040967E+03
        55  22 -2.823001E+04  4.676377E+01  4.071138E+02 -4.621161E+04 -5.795807E+02 -1.141686E+04
        55  23 -2.819515E+04  2.421376E+01  6.299632E+01 -1.668310E+04 -5.463436E+02 -7.728067E+03
        55  24 -2.822170E+04  7.408639E+01 -2.601577E+02 -4.621161E+04 -5.114597E+02 -4.043127E+03
        55  25  2.845566E+05  7.741065E+04  7.448849E+04 -4.638229E+04  1.457997E+03 -1.141819E+04
        55  26  1.979874E+05  5.600858E+04  5.382533E+04 -1.682520E+04  1.488989E+03 -7.729802E+03
        55  27  1.113647E+05  3.467835E+04  3.318146E+04 -4.632380E+04  1.521624E+03 -4.045289E+03
        56   1 -6.218498E+04 -8.237651E+03 -8.247692E+03 -4.623980E+04  2.625970E+03  1.882765E+03
        56   2  2.453353E+04  1.311258E+04  1.159478E+04 -1.672145E+04  3.045085E+03 -1.803392E+03
        56   3  1.110038E+05  3.424515E+04  3.107699E+04 -4.626620E+04  3.464718E+03 -5.415786E+03
        56   4 -2.826166E+04  1.079707E+02 -4.441270E+02 -4.621293E+04  5.711631E+02  1.885061E+03
        56   5 -2.813086E+04  7.582679E+01 -9.244116E+02 -1.668138E+04  1.030806E+03 -1.801252E+03
        56   6 -2.826361E+04 -1.808797E+02 -1.793099E+03 -4.621324E+04  1.490910E+03 -5.413771E+03
        56   7  5.662737E+03  8.453514E+03  7.359378E+03 -4.618605E+04 -1.483755E+03  1.887355E+03
        56   8 -8.079269E+04 -1.296113E+04 -1.344378E+04 -1.664131E+04 -9.833026E+02 -1.799112E+03
        56   9 -1.675132E+05 -3.460829E+04 -3.466452E+04 -4.616028E+04 -4.824576E+02 -5.411756E+03
        56  10 -6.218499E+04 -8.237657E+03 -8.247711E+03 -4.623980E+04  9.297567E-10  9.841822E-10
        56  11  2.453352E+04  1.311258E+04  1.159476E+04 -1.672144E+04 -1.420623E-09 -6.116568E-10
        56  12  1.110038E+05  3.424511E+04  3.107691E+04 -4.626619E+04 -3.513450E-10  9.315251E-10
        56  13 -2.826166E+04  1.079668E+02 -4.441343E+02 -4.621293E+04 -2.441889E-09 -1.034293E-09
        56  14 -2.813086E+04  7.582302E+01 -9.244197E+02 -1.668138E+04 -5.671014E-09 -2.435740E-09
        56  15 -2.826362E+04 -1.809117E+02 -1.793159E+03 -4.621323E+04  7.990431E-10  9.391061E-10
        56  16  5.662734E+03  8.453510E+03  7.359367E+03 -4.618605E+04 -2.396882E-09  1.006242E-09
        56  17 -8.079270E+04 -1.296113E+04 -1.344379E+04 -1.664131E+04 -4.966101E-10 -2.873284E-09
        56  18 -1.675132E+05 -3.460832E+04 -3.466457E+04 -4.616028E+04  2.966417E-10 -2.622791E-10
        56  19 -6.218498E+04 -8.237651E+03 -8.247692E+03 -4.623980E+04 -2.625970E+03 -1.882765E+03
        56  20  2.453353E+04  1.311258E+04  1.159478E+04 -1.672145E+04 -3.045085E+03  1.803392E+03
        56  21  1.110038E+05  3.424515E+04  3.107699E+04 -4.626620E+04 -3.464718E+03  5.415786E+03
        56  22 -2.826166E+04  1.079707E+02 -4.441270E+02 -4.621293E+04 -5.711631E+02 -1.885061E+03
        56  23 -2.813086E+04  7.582679E+01 -9.244116E+02 -1.668138E+04 -1.030806E+03  1.801252E+03
        56  24 -2.826361E+04 -1.808797E+02 -1.793099E+03 -4.621324E+04 -1.490910E+03  5.413771E+03
        56  25  5.662737E+03  8.453514E+03  7.359378E+03 -4.618605E+04  1.483755E+03 -1.887355E+03
        56  26 -8.079269E+04 -1.296113E+04 -1.344378E+04 -1.664131E+04  9.833026E+02  1.799112E+03
        56  27 -1.675132E+05 -3.460829E+04 -3.466452E+04 -4.616028E+04  4.824576E+02  5.411756E+03
        57   1  2.164845E+05  6.090754E+04  5.614007E+04 -4.679897E+04  4.155126E+03 -7.714878E+03
        57   2  3.035702E+05  8.241302E+04  7.480895E+04 -1.667690E+04  5.574619E+03 -1.133754E+04
        57   3  3.896916E+05  1.007975E+05  9.177007E+04 -4.557455E+04  6.997279E+03 -1.385596E+04
        57   4 -2.845552E+04  2.326150E+02 -2.317104E+03 -4.620313E+04  1.850038E+03 -7.712770E+03
        57   5 -2.792275E+04  3.686008E+02 -3.977577E+03 -1.669327E+04  3.878209E+03 -1.133659E+04
        57   6 -2.846775E+04 -2.722625E+03 -7.768940E+03 -4.620518E+04  5.909353E+03 -1.385590E+04
        57   7 -2.733406E+05 -6.044664E+04 -6.077848E+04 -4.560752E+04 -4.541449E+02 -7.710666E+03
        57   8 -3.593149E+05 -8.168373E+04 -8.277177E+04 -1.670962E+04  2.182701E+03 -1.133565E+04
        57   9 -4.464667E+05 -1.062554E+05 -1.073202E+05 -4.683536E+04  4.822155E+03 -1.385584E+04
        57  10  2.164845E+05  6.090747E+04  5.613992E+04 -4.679894E+04  1.707111E-09 -6.219478E-10
        57  11  3.035702E+05  8.241287E+04  7.480865E+04 -1.667685E+04 -1.935094E-09 -8.953834E-10
        57  12  3.896915E+05  1.007973E+05  9.176962E+04 -4.557447E+04 -6.700839E-10 -7.028255E-11
        57  13 -2.845554E+04  2.325502E+02 -2.317223E+03 -4.620312E+04  1.909459E-09  8.099695E-10
        57  14 -2.792281E+04  3.684588E+02 -3.977847E+03 -1.669324E+04 -5.585588E-09 -4.906688E-10
        57  15 -2.846784E+04 -2.722841E+03 -7.769366E+03 -4.620512E+04 -1.056401E-09  1.164442E-10
        57  16 -2.733406E+05 -6.044670E+04 -6.077859E+04 -4.560752E+04  1.638010E-09  1.324556E-09
        57  17 -3.593149E+05 -8.168387E+04 -8.277202E+04 -1.670960E+04  1.382741E-10  8.137273E-10
        57  18 -4.464668E+05 -1.062556E+05 -1.073206E+05 -4.683531E+04 -9.055979E-10 -2.310171E-10
        57  19  2.164845E+05  6.090754E+04  5.614007E+04 -4.679897E+04 -4.155126E+03  7.714878E+03
        57  20  3.035702E+05  8.241302E+04  7.480895E+04 -1.667690E+04 -5.574619E+03  1.133754E+04
        57  21  3.896916E+05  1.007975E+05  9.177007E+04 -4.557455E+04 -6.997279E+03  1.385596E+04
        57  22 -2.845552E+04  2.326150E+02 -2.317104E+03 -4.620313E+04 -1.850038E+03  7.712770E+03
        57  23 -2.792275E+04  3.686008E+02 -3.977577E+03 -1.669327E+04 -3.878209E+03  1.133659E+04
        57  24 -2.846775E+04 -2.722625E+03 -7.768940E+03 -4.620518E+04 -5.909353E+03  1.385590E+04
        57  25 -2.733406E+05 -6.044664E+04 -6.077848E+04 -4.560752E+04  4.541449E+02  7.710666E+03
        57  26 -3.593149E+05 -8.168373E+04 -8.277177E+04 -1.670962E+04 -2.182701E+03  1.133565E+04
        57  27 -4.464667E+05 -1.062554E+05 -1.073202E+05 -4.683536E+04 -4.822155E+03  1.385584E+04
        58   1  4.936793E+05  1.311393E+05  1.148540E+05 -5.013209E+04  1.341019E+04 -1.826367E+04
        58   2  5.841577E+05  1.543817E+05  1.294560E+05 -1.408516E+04  1.261452E+04 -2.094086E+04
        58   3  6.671429E+05  1.458452E+05  1.367017E+05 -3.656899E+04  1.181781E+04 -7.118044E+03
        58   4 -3.027484E+04  1.495469E+03 -9.537990E+03 -4.609556E+04  7.369253E+03 -1.826168E+04
        58   5 -2.574160E+04  3.464741E+03 -1.544277E+04 -1.682707E+04  1.568209E+04 -2.094268E+04
        58   6 -3.029743E+04 -2.794227E+04 -3.503491E+04 -4.609358E+04  2.399375E+04 -7.116506E+03
        58   7 -5.539769E+05 -1.281681E+05 -1.339489E+05 -4.206242E+04  1.333383E+03 -1.825976E+04
        58   8 -6.352996E+05 -1.474790E+05 -1.603675E+05 -1.956626E+04  1.874666E+04 -2.094453E+04
        58   9 -7.272951E+05 -2.017656E+05 -2.068068E+05 -5.560747E+04  3.615602E+04 -7.115341E+03
        58  10  4.936790E+05  1.311389E+05  1.148530E+05 -5.013189E+04  3.678897E-11  4.963807E-10
        58  11  5.841574E+05  1.543812E+05  1.294549E+05 -1.408495E+04  1.298488E-09  3.719931E-10
        58  12  6.671428E+05  1.458452E+05  1.367013E+05 -3.656892E+04  2.317651E-10  2.024181E-10
        58  13 -3.027499E+04  1.495096E+03 -9.538719E+03 -4.609546E+04 -4.398818E-09  8.695552E-10
        58  14 -2.574198E+04  3.464204E+03 -1.544405E+04 -1.682680E+04 -4.325911E-09 -2.747254E-10
        58  15 -3.029806E+04 -2.794248E+04 -3.503609E+04 -4.609344E+04  1.540128E-09 -2.044189E-10
        58  16 -5.539770E+05 -1.281684E+05 -1.339496E+05 -4.206240E+04 -2.229930E-09 -4.800622E-10
        58  17 -6.353001E+05 -1.474795E+05 -1.603690E+05 -1.956594E+04 -3.377446E-09 -8.406307E-10
        58  18 -7.272965E+05 -2.017660E+05 -2.068094E+05 -5.560727E+04 -2.195647E-09 -1.401373E-10
        58  19  4.936793E+05  1.311393E+05  1.148540E+05 -5.013209E+04 -1.341019E+04  1.826367E+04
        58  20  5.841577E+05  1.543817E+05  1.294560E+05 -1.408516E+04 -1.261452E+04  2.094086E+04
        58  21  6.671429E+05  1.458452E+05  1.367017E+05 -3.656899E+04 -1.181781E+04  7.118044E+03
        58  22 -3.027484E+04  1.495469E+03 -9.537990E+03 -4.609556E+04 -7.369253E+03  1.826168E+04
        58  23 -2.574160E+04  3.464741E+03 -1.544277E+04 -1.682707E+04 -1.568209E+04  2.094268E+04
        58  24 -3.029743E+04 -2.794227E+04 -3.503491E+04 -4.609358E+04 -2.399375E+04  7.116506E+03
        58  25 -5.539769E+05 -1.281681E+05 -1.339489E+05 -4.206242E+04 -1.333383E+03  1.825976E+04
        58  26 -6.352996E+05 -1.474790E+05 -1.603675E+05 -1.956626E+04 -1.874666E+04  2.094453E+04
        58  27 -7.272951E+05 -2.017656E+05 -2.068068E+05 -5.560747E+04 -3.615602E+04  7.115341E+03
        59   1  9.967637E+05  3.193531E+06  9.596222E+05 -9.904253E+05  3.976375E+04  2.513745E+05
        59   2  6.903400E+05  2.230818E+06  6.053109E+05 -8.600607E+05  1.223131E+05  7.379599E+04
        59   3  4.522314E+05  1.307303E+06  3.831125E+05 -9.406902E+05  1.111229E+05 -1.039324E+05
        59   4  7.184250E+04 -5.452168E+05  7.086587E+04 -9.334382E+05  4.112405E+04  3.804581E+04
        59   5  2.192889E+04 -5.501271E+05  4.315111E+04 -8.281183E+05  1.227399E+05  1.651327E+04
        59   6  1.352549E+04 -5.435370E+05  3.961463E+04 -9.338113E+05  1.104371E+05 -5.446511E+03
        59   7 -8.540519E+05 -4.271069E+06 -8.186968E+05 -8.767664E+05  4.245026E+04 -1.740098E+05
        59   8 -6.469576E+05 -3.323712E+06 -5.193962E+05 -7.963051E+05  1.231620E+05 -4.051855E+04
        59   9 -4.253717E+05 -2.391040E+06 -3.039914E+05 -9.269454E+05  1.097522E+05  9.275382E+04
        59  10  9.967452E+05  3.193463E+06  9.595010E+05 -9.904333E+05  1.337490E-09 -7.820902E-08
        59  11  6.903224E+05  2.230809E+06  6.052726E+05 -8.600679E+05  1.147654E-09 -9.826214E-09
        59  12  4.522152E+05  1.307288E+06  3.830691E+05 -9.406809E+05 -2.264005E-09  6.422404E-08
        59  13  7.184030E+04 -5.452188E+05  7.085996E+04 -9.334395E+05  5.692813E-09 -2.741020E-10
        59  14  2.191264E+04 -5.501314E+05  4.312228E+04 -8.281200E+05  6.037523E-09  2.594329E-09
        59  15  1.351239E+04 -5.435403E+05  3.959167E+04 -9.338108E+05  1.092118E-08 -1.343077E-09
        59  16 -8.540621E+05 -4.271102E+06 -8.187575E+05 -8.767605E+05 -6.819241E-10  7.767406E-08
        59  17 -6.469743E+05 -3.323718E+06 -5.194277E+05 -7.963010E+05  5.115180E-09  9.116469E-09
        59  18 -4.253870E+05 -2.391053E+06 -3.040304E+05 -9.269536E+05 -1.600783E-09 -6.207212E-08
        59  19  9.967637E+05  3.193531E+06  9.596222E+05 -9.904253E+05 -3.976375E+04 -2.513745E+05
        59  20  6.903400E+05  2.230818E+06  6.053109E+05 -8.600607E+05 -1.223131E+05 -7.379599E+04
        59  21  4.522314E+05  1.307303E+06  3.831125E+05 -9.406902E+05 -1.111229E+05  1.039324E+05
        59  22  7.184250E+04 -5.452168E+05  7.086587E+04 -9.334382E+05 -4.112405E+04 -3.804581E+04
        59  23  2.192889E+04 -5.501271E+05  4.315111E+04 -8.281183E+05 -1.227399E+05 -1.651327E+04
        59  24  1.352549E+04 -5.435370E+05  3.961463E+04 -9.338113E+05 -1.104371E+05  5.446511E+03
        59  25 -8.540519E+05 -4.271069E+06 -8.186968E+05 -8.767664E+05 -4.245026E+04  1.740098E+05
        59  26 -6.469576E+05 -3.323712E+06 -5.193962E+05 -7.963051E+05 -1.231620E+05  4.051855E+04
        59  27 -4.253717E+05 -2.391040E+06 -3.039914E+05 -9.269454E+05 -1.097522E+05 -9.275382E+04
        60   1  3.060732E+05  6.844571E+05  2.706119E+05 -9.457999E+05  7.447069E+04 -1.004418E+05
        60   2  8.146209E+04 -2.604306E+05  1.097692E+05 -8.264201E+05  2.106985E+04 -1.324367E+05
        60   3 -1.252256E+05 -1.198812E+06 -2.660703E+04 -9.238220E+05 -3.348149E+04 -1.644058E+05
        60   4  1.463012E+04 -5.445491E+05  4.285288E+04 -9.350595E+05  7.383004E+04 -1.253173E+04
        60   5  1.411355E+04 -5.470979E+05  5.971166E+04 -8.266137E+05  2.040784E+04 -4.267309E+04
        60   6  3.123331E+04 -5.443575E+05  9.972676E+04 -9.349408E+05 -3.416604E+04 -7.283414E+04
        60   7 -2.768952E+05 -1.772075E+06 -1.849406E+05 -9.243373E+05  7.319163E+04  7.520896E+04
        60   8 -5.323512E+04 -8.336672E+05  9.681539E+03 -8.268071E+05  1.974559E+04  4.705033E+04
        60   9  1.876715E+05  1.105282E+05  2.260722E+05 -9.460708E+05 -3.485343E+04  1.883204E+04
        60  10  3.060645E+05  6.844448E+05  2.705826E+05 -9.457939E+05 -3.534000E-09  9.740692E-08
        60  11  8.145691E+04 -2.604496E+05  1.097354E+05 -8.264178E+05 -1.877978E-09  1.589803E-08
        60  12 -1.252341E+05 -1.198842E+06 -2.666007E+04 -9.238265E+05 -6.249302E-10 -6.688740E-08
        60  13  1.462422E+04 -5.445508E+05  4.284235E+04 -9.350587E+05  3.218571E-09 -3.496598E-10
        60  14  1.411262E+04 -5.470999E+05  5.970746E+04 -8.266130E+05 -8.389689E-09  2.857423E-09
        60  15  3.123062E+04 -5.443635E+05  9.971457E+04 -9.349429E+05 -8.473032E-09 -1.103619E-09
        60  16 -2.769024E+05 -1.772083E+06 -1.849613E+05 -9.243418E+05 -3.495640E-09 -9.809610E-08
        60  17 -5.323614E+04 -8.336697E+05  9.676635E+03 -8.268079E+05 -7.693016E-09 -1.775647E-08
        60  18  1.876701E+05  1.105275E+05  2.260693E+05 -9.460702E+05  5.448982E-10  7.010906E-08
        60  19  3.060732E+05  6.844571E+05  2.706119E+05 -9.457999E+05 -7.447069E+04  1.004418E+05
        60  20  8.146209E+04 -2.604306E+05  1.097692E+05 -8.264201E+05 -2.106985E+04  1.324367E+05
        60  21 -1.252256E+05 -1.198812E+06 -2.660703E+04 -9.238220E+05  3.348149E+04  1.644058E+05
        60  22  1.463012E+04 -5.445491E+05  4.285288E+04 -9.350595E+05 -7.383004E+04  1.253173E+04
        60  23  1.411355E+04 -5.470979E+05  5.971166E+04 -8.266137E+05 -2.040784E+04  4.267309E+04
        60  24  3.123331E+04 -5.443575E+05  9.972676E+04 -9.349408E+05  3.416604E+04  7.283414E+04
        60  25 -2.768952E+05 -1.772075E+06 -1.849406E+05 -9.243373E+05 -7.319163E+04 -7.520896E+04
        60  26 -5.323512E+04 -8.336672E+05  9.681539E+03 -8.268071E+05 -1.974559E+04 -4.705033E+04
        60  27  1.876715E+05  1.105282E+05  2.260722E+05 -9.460708E+05  3.485343E+04 -1.883204E+04
        61   1 -2.795212E+05 -1.803081E+06 -1.127650E+05 -9.534133E+05 -7.052658E+04 -1.903300E+05
        61   2 -4.332437E+05 -2.769399E+06 -2.227777E+05 -6.980921E+05 -9.126489E+04 -1.755990E+05
        61   3 -3.530239E+05 -3.680194E+06 -2.844152E+05 -6.543013E+05 -3.155648E+04 -1.604762E+05
        61   4  2.361819E+04 -5.285709E+05  1.285942E+05 -9.340731E+05 -7.126619E+04 -9.013835E+04
        61   5  1.003048E+05 -5.678738E+05  2.293261E+05 -8.271027E+05 -9.097794E+04 -2.085061E+05
        61   6  4.335336E+05 -5.297902E+05  4.707351E+05 -9.314096E+05 -3.038095E+04 -3.264756E+05
        61   7  3.266699E+05  7.475335E+05  3.699195E+05 -9.146883E+05 -7.199860E+04  1.025462E+04
        61   8  6.336058E+05  1.638303E+06  6.811827E+05 -9.565705E+05 -9.067793E+04 -2.415274E+05
        61   9  1.219659E+06  2.629959E+06  1.225323E+06 -1.209917E+06 -2.906034E+04 -4.933143E+05
        61  10 -2.795363E+05 -1.803121E+06 -1.128427E+05 -9.534242E+05  3.587856E-09  2.062156E-08
        61  11 -4.332610E+05 -2.769434E+06 -2.228516E+05 -6.981050E+05  4.347698E-09  4.441622E-09
        61  12 -3.530319E+05 -3.680222E+06 -2.844658E+05 -6.543054E+05  1.342724E-09 -1.108866E-08
        61  13  2.361054E+04 -5.285810E+05  1.285693E+05 -9.340783E+05 -2.182940E-09  1.307872E-10
        61  14  1.002842E+05 -5.679228E+05  2.292286E+05 -8.271180E+05 -6.817036E-09  2.892884E-09
        61  15  4.335040E+05 -5.299050E+05  4.705328E+05 -9.314176E+05  1.100655E-09 -1.090704E-09
        61  16  3.266643E+05  7.475320E+05  3.699096E+05 -9.146877E+05  1.286394E-09 -2.041416E-08
        61  17  6.335813E+05  1.638238E+06  6.810577E+05 -9.565881E+05  5.533071E-09 -5.818365E-09
        61  18  1.219593E+06  2.629698E+06  1.224866E+06 -1.209928E+06  2.180944E-09  1.428687E-08
        61  19 -2.795212E+05 -1.803081E+06 -1.127650E+05 -9.534133E+05  7.052658E+04  1.903300E+05
        61  20 -4.332437E+05 -2.769399E+06 -2.227777E+05 -6.980921E+05  9.126489E+04  1.755990E+05
        61  21 -3.530239E+05 -3.680194E+06 -2.844152E+05 -6.543013E+05  3.155648E+04  1.604762E+05
        61  22  2.361819E+04 -5.285709E+05  1.285942E+05 -9.340731E+05  7.126619E+04  9.013835E+04
        61  23  1.003048E+05 -5.678738E+05  2.293261E+05 -8.271027E+05  9.097794E+04  2.085061E+05
        61  24  4.335336E+05 -5.297902E+05  4.707351E+05 -9.314096E+05  3.038095E+04  3.264756E+05
        61  25  3.266699E+05  7.475335E+05  3.699195E+05 -9.146883E+05  7.199860E+04 -1.025462E+04
        61  26  6.336058E+05  1.638303E+06  6.811827E+05 -9.565705E+05  9.067793E+04  2.415274E+05
        61  27  1.219659E+06  2.629959E+06  1.225323E+06 -1.209917E+06  2.906034E+04  4.933143E+05
        62   1 -3.583952E+06 -1.379079E+06 -7.773430E+05 -1.238518E+06 -2.131021E+05 -2.207166E+04
        62   2 -3.347839E+06 -1.319288E+06 -6.205216E+05 -1.157745E+06 -1.429350E+05  1.410444E+05
        62   3 -3.077446E+06 -1.275388E+06 -5.427639E+05 -1.132565E+06 -3.882080E+04  2.150970E+05
        62   4 -1.950420E+05 -1.445722E+05  9.234917E+04 -3.514268E+05  3.992559E+04  7.393667E+04
        62   5 -2.307558E+05 -1.862309E+05  4.232200E+04 -3.099157E+05 -2.726420E+04  1.847631E+05
        62   6 -2.049221E+05 -2.165422E+05  2.257221E+04 -3.239939E+05 -6.065080E+04  2.067440E+05
        62   7  3.205115E+06  1.090506E+06  9.613539E+05  5.399913E+05  2.944701E+05  1.704732E+05
        62   8  2.896263E+06  9.475598E+05  7.046694E+05  5.418174E+05  8.903563E+04  2.287111E+05
        62   9  2.676227E+06  8.430938E+05  5.875428E+05  4.880816E+05 -8.259043E+04  1.983494E+05
        62  10 -3.584001E+06 -1.379092E+06 -7.774298E+05 -1.238522E+06 -1.938723E-09  2.995040E-10
        62  11 -3.347866E+06 -1.319314E+06 -6.205975E+05 -1.157728E+06 -1.777075E-09  3.070835E-10
        62  12 -3.077460E+06 -1.275438E+06 -5.428537E+05 -1.132558E+06  3.230720E-10  1.297811E-09
        62  13 -1.950452E+05 -1.445785E+05  9.233589E+04 -3.514292E+05  8.501918E-11  2.386719E-09
        62  14 -2.307657E+05 -1.862677E+05  4.225645E+04 -3.099116E+05 -1.691579E-09  2.425453E-09
        62  15 -2.049375E+05 -2.165890E+05  2.248499E+04 -3.239838E+05 -1.111732E-09  1.308427E-09
        62  16  3.205014E+06  1.090451E+06  9.611373E+05  5.399510E+05 -5.681398E-12 -1.065561E-09
        62  17  2.896241E+06  9.475016E+05  7.045564E+05  5.418011E+05  3.704869E-09  1.423762E-10
        62  18  2.676209E+06  8.430497E+05  5.874560E+05  4.880948E+05 -1.179292E-09 -1.033359E-09
        62  19 -3.583952E+06 -1.379079E+06 -7.773430E+05 -1.238518E+06  2.131021E+05  2.207166E+04
        62  20 -3.347839E+06 -1.319288E+06 -6.205216E+05 -1.157745E+06  1.429350E+05 -1.410444E+05
        62  21 -3.077446E+06 -1.275388E+06 -5.427639E+05 -1.132565E+06  3.882080E+04 -2.150970E+05
        62  22 -1.950420E+05 -1.445722E+05  9.234917E+04 -3.514268E+05 -3.992559E+04 -7.393667E+04
        62  23 -2.307558E+05 -1.862309E+05  4.232200E+04 -3.099157E+05  2.726420E+04 -1.847631E+05
        62  24 -2.049221E+05 -2.165422E+05  2.257221E+04 -3.239939E+05  6.065080E+04 -2.067440E+05
        62  25  3.205115E+06  1.090506E+06  9.613539E+05  5.399913E+05 -2.944701E+05 -1.704732E+05
        62  26  2.896263E+06  9.475598E+05  7.046694E+05  5.418174E+05 -8.903563E+04 -2.287111E+05
        62  27  2.676227E+06  8.430938E+05  5.875428E+05  4.880816E+05  8.259043E+04 -1.983494E+05
        63   1 -2.922854E+06 -1.209022E+06 -5.137192E+05 -1.084270E+06 -5.249110E+04  1.996361E+05
        63   2 -2.706486E+06 -1.100734E+06 -4.651454E+05 -9.934472E+05 -4.327507E+04  1.937329E+05
        63   3 -2.447077E+06 -1.034516E+06 -4.206976E+05 -9.512597E+05 -3.151552E+04  1.810036E+05
        63   4 -2.066183E+05 -2.156117E+05  1.708734E+04 -3.270382E+05 -5.982889E+04  1.967721E+05
        63   5 -2.290900E+05 -1.966345E+05  8.895085E+03 -3.022470E+05 -6.115768E+04  1.869099E+05
        63   6 -2.064961E+05 -2.176290E+05  4.947431E+03 -3.260991E+05 -5.995103E+04  1.702356E+05
        63   7  2.517296E+06  7.784654E+05  5.475621E+05  4.332767E+05 -6.720164E+04  1.938953E+05
        63   8  2.254707E+06  7.080250E+05  4.826747E+05  3.915206E+05 -7.911720E+04  1.800580E+05
        63   9  2.039315E+06  5.997152E+05  4.303831E+05  3.011600E+05 -8.849668E+04  1.594263E+05
        63  10 -2.922867E+06 -1.209066E+06 -5.137992E+05 -1.084262E+06  8.789698E-10  6.785139E-11
        63  11 -2.706498E+06 -1.100775E+06 -4.652194E+05 -9.934405E+05  3.533140E-09  2.037548E-09
        63  12 -2.447087E+06 -1.034552E+06 -4.207611E+05 -9.512551E+05  1.048953E-09  1.555281E-09
        63  13 -2.066325E+05 -2.156542E+05  1.700786E+04 -3.270288E+05  2.069174E-09  2.635812E-10
        63  14 -2.291034E+05 -1.966731E+05  8.822418E+03 -3.022378E+05  5.443717E-09 -2.064814E-09
        63  15 -2.065077E+05 -2.176611E+05  4.886229E+03 -3.260908E+05  4.998528E-09  1.035804E-09
        63  16  2.517281E+06  7.784238E+05  5.474830E+05  4.332871E+05 -9.659679E-11  4.907688E-10
        63  17  2.254691E+06  7.079886E+05  4.826020E+05  3.915321E+05  4.080341E-09  7.781288E-10
        63  18  2.039300E+06  5.996859E+05  4.303207E+05  3.011713E+05  2.107710E-09  3.080555E-09
        63  19 -2.922854E+06 -1.209022E+06 -5.137192E+05 -1.084270E+06  5.249110E+04 -1.996361E+05
        63  20 -2.706486E+06 -1.100734E+06 -4.651454E+05 -9.934472E+05  4.327507E+04 -1.937329E+05
        63  21 -2.447077E+06 -1.034516E+06 -4.206976E+05 -9.512597E+05  3.151552E+04 -1.810036E+05
        63  22 -2.066183E+05 -2.156117E+05  1.708734E+04 -3.270382E+05  5.982889E+04 -1.967721E+05
        63  23 -2.290900E+05 -1.966345E+05  8.895085E+03 -3.022470E+05  6.115768E+04 -1.869099E+05
        63  24 -2.064961E+05 -2.176290E+05  4.947431E+03 -3.260991E+05  5.995103E+04 -1.702356E+05
        63  25  2.517296E+06  7.784654E+05  5.475621E+05  4.332767E+05  6.720164E+04 -1.938953E+05
        63  26  2.254707E+06  7.080250E+05  4.826747E+05  3.915206E+05  7.911720E+04 -1.800580E+05
        63  27  2.039315E+06  5.997152E+05  4.303831E+05  3.011600E+05  8.849668E+04 -1.594263E+05
        64   1 -2.289083E+06 -9.757273E+05 -3.904265E+05 -9.068268E+05 -2.921366E+04  1.695553E+05
        64   2 -2.072556E+06 -8.666537E+05 -3.467843E+05 -8.155420E+05 -2.255882E+04  1.515268E+05
        64   3 -1.812459E+06 -8.004377E+05 -3.028878E+05 -7.731577E+05 -1.573395E+04  1.329559E+05
        64   4 -2.065676E+05 -2.174613E+05  3.683479E+03 -3.263932E+05 -5.656958E+04  1.592111E+05
        64   5 -2.281891E+05 -1.957388E+05  1.939900E+03 -3.020086E+05 -5.075260E+04  1.408927E+05
        64   6 -2.061515E+05 -2.167089E+05  1.103359E+03 -3.265402E+05 -4.476592E+04  1.220331E+05
        64   7  1.880506E+06  5.412131E+05  3.976253E+05  2.558611E+05 -8.402440E+04  1.488298E+05
        64   8  1.619746E+06  4.754929E+05  3.505316E+05  2.129489E+05 -7.903648E+04  1.302249E+05
        64   9  1.402856E+06  3.672565E+05  3.049930E+05  1.211539E+05 -7.387851E+04  1.110801E+05
        64  10 -2.289092E+06 -9.757584E+05 -3.904821E+05 -9.068228E+05  9.317615E-09  1.502529E-09
        64  11 -2.072562E+06 -8.666785E+05 -3.468284E+05 -8.155392E+05  4.638466E-09 -2.276650E-09
        64  12 -1.812464E+06 -8.004568E+05 -3.029215E+05 -7.731560E+05 -1.785072E-10 -2.022615E-09
        64  13 -2.065778E+05 -2.174894E+05  3.629841E+03 -3.263859E+05  2.155726E-09  1.164184E-09
        64  14 -2.281972E+05 -1.957608E+05  1.897764E+03 -3.020029E+05  7.025581E-10 -7.352396E-10
        64  15 -2.061576E+05 -2.167255E+05  1.071614E+03 -3.265358E+05 -1.350549E-09 -4.124653E-10
        64  16  1.880493E+06  5.411874E+05  3.975704E+05  2.558712E+05 -7.184074E-09  1.318640E-09
        64  17  1.619735E+06  4.754731E+05  3.504880E+05  2.129572E+05  6.063693E-10  7.389640E-10
        64  18  1.402846E+06  3.672418E+05  3.049596E+05  1.211605E+05  4.032276E-09  1.281114E-09
        64  19 -2.289083E+06 -9.757273E+05 -3.904265E+05 -9.068268E+05  2.921366E+04 -1.695553E+05
        64  20 -2.072556E+06 -8.666537E+05 -3.467843E+05 -8.155420E+05  2.255882E+04 -1.515268E+05
        64  21 -1.812459E+06 -8.004377E+05 -3.028878E+05 -7.731577E+05  1.573395E+04 -1.329559E+05
        64  22 -2.065676E+05 -2.174613E+05  3.683479E+03 -3.263932E+05  5.656958E+04 -1.592111E+05
        64  23 -2.281891E+05 -1.957388E+05  1.939900E+03 -3.020086E+05  5.075260E+04 -1.408927E+05
        64  24 -2.061515E+05 -2.167089E+05  1.103359E+03 -3.265402E+05  4.476592E+04 -1.220331E+05
        64  25  1.880506E+06  5.412131E+05  3.976253E+05  2.558611E+05  8.402440E+04 -1.488298E+05
        64  26  1.619746E+06  4.754929E+05  3.505316E+05  2.129489E+05  7.903648E+04 -1.302249E+05
        64  27  1.402856E+06  3.672565E+05  3.049930E+05  1.211539E+05  7.387851E+04 -1.110801E+05
        65   1 -1.653792E+06 -7.422330E+05 -2.718494E+05 -7.290277E+05 -1.184652E+04  1.219341E+05
        65   2 -1.436294E+06 -6.335565E+05 -2.277020E+05 -6.378230E+05 -4.903051E+03  1.031398E+05
        65   3 -1.175508E+06 -5.677935E+05 -1.834071E+05 -5.957792E+05  2.037816E+03  8.429180E+04
        65   4 -2.061190E+05 -2.165930E+05  7.963871E+02 -3.266144E+05 -4.081618E+04  1.110475E+05
        65   5 -2.276021E+05 -1.948661E+05  3.674895E+02 -3.020861E+05 -3.395628E+04  9.223893E+04
        65   6 -2.058470E+05 -2.160388E+05  1.454805E+02 -3.267374E+05 -2.709896E+04  7.337672E+04
        65   7  1.243735E+06  3.092346E+05  2.733580E+05  7.666953E+04 -6.985801E+04  1.001338E+05
        65   8  9.826183E+05  2.439581E+05  2.283815E+05  3.425948E+04 -6.307014E+04  8.131536E+04
        65   9  7.648063E+05  1.358049E+05  1.836656E+05 -5.730192E+04 -5.628474E+04  6.244329E+04
        65  10 -1.653797E+06 -7.422490E+05 -2.718776E+05 -7.290265E+05  6.324116E-09  1.110776E-09
        65  11 -1.436297E+06 -6.335679E+05 -2.277221E+05 -6.378226E+05 -2.289295E-09  4.288257E-10
        65  12 -1.175510E+06 -5.678011E+05 -1.834204E+05 -5.957794E+05 -3.201964E-09 -1.818756E-10
        65  13 -2.061241E+05 -2.166067E+05  7.700881E+02 -3.266108E+05 -4.214643E-09 -2.314920E-10
        65  14 -2.276057E+05 -1.948755E+05  3.493380E+02 -3.020836E+05 -1.336798E-09 -1.108533E-09
        65  15 -2.058493E+05 -2.160448E+05  1.339849E+02 -3.267358E+05 -2.418283E-09  5.584654E-11
        65  16  1.243727E+06  3.092226E+05  2.733300E+05  7.667515E+04 -2.687985E-09 -1.380051E-09
        65  17  9.826123E+05  2.439500E+05  2.283616E+05  3.426361E+04 -5.120126E-09 -1.814287E-09
        65  18  7.648019E+05  1.357999E+05  1.836524E+05 -5.729909E+04  1.797063E-09 -9.532055E-11
        65  19 -1.653792E+06 -7.422330E+05 -2.718494E+05 -7.290277E+05  1.184652E+04 -1.219341E+05
        65  20 -1.436294E+06 -6.335565E+05 -2.277020E+05 -6.378230E+05  4.903051E+03 -1.031398E+05
        65  21 -1.175508E+06 -5.677935E+05 -1.834071E+05 -5.957792E+05 -2.037816E+03 -8.429180E+04
        65  22 -2.061190E+05 -2.165930E+05  7.963871E+02 -3.266144E+05  4.081618E+04 -1.110475E+05
        65  23 -2.276021E+05 -1.948661E+05  3.674895E+02 -3.020861E+05  3.395628E+04 -9.223893E+04
        65  24 -2.058470E+05 -2.160388E+05  1.454805E+02 -3.267374E+05  2.709896E+04 -7.337672E+04
        65  25  1.243735E+06  3.092346E+05  2.733580E+05  7.666953E+04  6.985801E+04 -1.001338E+05
        65  26  9.826183E+05  2.439581E+05  2.283815E+05  3.425948E+04  6.307014E+04 -8.131536E+04
        65  27  7.648063E+05  1.358049E+05  1.836656E+05 -5.730192E+04  5.628474E+04 -6.244329E+04
        66   1 -1.016389E+06 -5.097470E+05 -1.521626E+05 -5.517265E+05  6.135809E+03  7.332776E+04
        66   2 -7.982614E+05 -4.013395E+05 -1.078466E+05 -4.605571E+05  1.327483E+04  5.454035E+04
        66   3 -5.370490E+05 -3.358793E+05 -6.357867E+04 -4.186933E+05  2.039975E+04  3.576136E+04
        66   4 -2.058228E+05 -2.159705E+05  2.765047E+01 -3.267730E+05 -2.301216E+04  6.241595E+04
        66   5 -2.272661E+05 -1.943594E+05 -2.061164E+02 -3.021399E+05 -1.586291E+04  4.364042E+04
        66   6 -2.056905E+05 -2.157013E+05 -5.003490E+02 -3.268326E+05 -8.727844E+03  2.487340E+04
        66   7  6.054319E+05  7.786645E+04  1.521953E+05 -1.015459E+05 -5.220085E+04  5.148890E+04
        66   8  3.440689E+05  1.264996E+04  1.074241E+05 -1.435874E+05 -4.502920E+04  3.272980E+04
        66   9  1.257812E+05 -9.551391E+04  6.257618E+04 -2.349267E+05 -3.787181E+04  1.397931E+04
        66  10 -1.016391E+06 -5.097528E+05 -1.521728E+05 -5.517269E+05 -1.101373E-09  4.516126E-10
        66  11 -7.982624E+05 -4.013427E+05 -1.078526E+05 -4.605577E+05 -6.041920E-10  2.928814E-10
        66  12 -5.370498E+05 -3.358808E+05 -6.358186E+04 -4.186939E+05 -8.300465E-10 -9.171970E-10
        66  13 -2.058244E+05 -2.159748E+05  1.933605E+01 -3.267719E+05  9.595641E-10  1.480406E-09
        66  14 -2.272668E+05 -1.943615E+05 -2.101674E+02 -3.021393E+05 -7.031365E-10  1.430353E-09
        66  15 -2.056907E+05 -2.157020E+05 -5.016546E+02 -3.268324E+05 -1.983782E-09 -9.482133E-10
        66  16  6.054283E+05  7.786287E+04  1.521852E+05 -1.015437E+05  3.198929E-10  2.000693E-09
        66  17  3.440665E+05  1.264827E+04  1.074183E+05 -1.435862E+05 -1.331608E-09  2.181144E-09
        66  18  1.257797E+05 -9.551451E+04  6.257312E+04 -2.349262E+05 -6.913231E-10  3.126963E-10
        66  19 -1.016389E+06 -5.097470E+05 -1.521626E+05 -5.517265E+05 -6.135809E+03 -7.332776E+04
        66  20 -7.982614E+05 -4.013395E+05 -1.078466E+05 -4.605571E+05 -1.327483E+04 -5.454035E+04
        66  21 -5.370490E+05 -3.358793E+05 -6.357867E+04 -4.186933E+05 -2.039975E+04 -3.576136E+04
        66  22 -2.058228E+05 -2.159705E+05  2.765047E+01 -3.267730E+05  2.301216E+04 -6.241595E+04
        66  23 -2.272661E+05 -1.943594E+05 -2.061164E+02 -3.021399E+05  1.586291E+04 -4.364042E+04
        66  24 -2.056905E+05 -2.157013E+05 -5.003490E+02 -3.268326E+05  8.727844E+03 -2.487340E+04
        66  25  6.054319E+05  7.786645E+04  1.521953E+05 -1.015459E+05  5.220085E+04 -5.148890E+04
        66  26  3.440689E+05  1.264996E+04  1.074241E+05 -1.435874E+05  4.502920E+04 -3.272980E+04
        66  27  1.257812E+05 -9.551391E+04  6.257618E+04 -2.349267E+05  3.787181E+04 -1.397931E+04
        67   1 -3.776616E+05 -2.779143E+05 -3.240594E+04 -3.746511E+05  2.464348E+04  2.485446E+04
        67   2 -1.592585E+05 -1.696618E+05  1.161899E+04 -2.834480E+05  3.193954E+04  6.267295E+03
        67   3  1.021365E+05 -1.043624E+05  5.542165E+04 -2.415825E+05  3.914266E+04 -1.206847E+04
        67   4 -2.057068E+05 -2.156776E+05 -7.144143E+02 -3.268503E+05 -4.531415E+03  1.395094E+04
        67   5 -2.271415E+05 -1.941927E+05 -1.374384E+03 -3.021580E+05  3.147851E+03 -4.494065E+03
        67   6 -2.057266E+05 -2.157460E+05 -2.564451E+03 -3.268293E+05  1.073402E+04 -2.268758E+04
        67   7 -3.371752E+04 -1.534368E+05  3.098010E+04 -2.790362E+05 -3.371521E+04  3.044083E+03
        67   8 -2.950181E+05 -2.187226E+05 -1.436449E+04 -3.208656E+05 -2.564060E+04 -1.525423E+04
        67   9 -5.134891E+05 -3.271205E+05 -6.055094E+04 -4.120363E+05 -1.765958E+04 -3.330107E+04
        67  10 -3.776624E+05 -2.779152E+05 -3.240824E+04 -3.746516E+05 -1.184857E-09  5.163119E-10
        67  11 -1.592596E+05 -1.696621E+05  1.161700E+04 -2.834482E+05  1.665976E-09  2.499545E-10
        67  12  1.021348E+05 -1.043630E+05  5.541850E+04 -2.415821E+05  2.624895E-09 -1.562680E-09
        67  13 -2.057069E+05 -2.156778E+05 -7.148186E+02 -3.268502E+05 -2.003686E-09  7.934751E-11
        67  14 -2.271415E+05 -1.941927E+05 -1.374440E+03 -3.021579E+05 -1.482185E-09 -2.427882E-09
        67  15 -2.057269E+05 -2.157466E+05 -2.565634E+03 -3.268291E+05 -2.493310E-09 -4.185586E-10
        67  16 -3.371875E+04 -1.534371E+05  3.097794E+04 -2.790361E+05 -3.539961E-10  1.003406E-10
        67  17 -2.950189E+05 -2.187231E+05 -1.436616E+04 -3.208659E+05 -2.407556E-09  6.954153E-10
        67  18 -5.134898E+05 -3.271218E+05 -6.055361E+04 -4.120368E+05 -7.468498E-10 -1.681835E-09
        67  19 -3.776616E+05 -2.779143E+05 -3.240594E+04 -3.746511E+05 -2.464348E+04 -2.485446E+04
        67  20 -1.592585E+05 -1.696618E+05  1.161899E+04 -2.834480E+05 -3.193954E+04 -6.267295E+03
        67  21  1.021365E+05 -1.043624E+05  5.542165E+04 -2.415825E+05 -3.914266E+04  1.206847E+04
        67  22 -2.057068E+05 -2.156776E+05 -7.144143E+02 -3.268503E+05  4.531415E+03 -1.395094E+04
        67  23 -2.271415E+05 -1.941927E+05 -1.374384E+03 -3.021580E+05 -3.147851E+03  4.494065E+03
        67  24 -2.057266E+05 -2.157460E+05 -2.564451E+03 -3.268293E+05 -1.073402E+04  2.268758E+04
        67  25 -3.371752E+04 -1.534368E+05  3.098010E+04 -2.790362E+05  3.371521E+04 -3.044083E+03
        67  26 -2.950181E+05 -2.187226E+05 -1.436449E+04 -3.208656E+05  2.564060E+04  1.525423E+04
        67  27 -5.134891E+05 -3.271205E+05 -6.055094E+04 -4.120363E+05  1.765958E+04  3.330107E+04
        68   1  2.617455E+05 -4.645429E+04  8.605153E+04 -1.976712E+05  4.423164E+04 -2.258007E+04
        68   2  4.796044E+05  6.201621E+04  1.296375E+05 -1.058947E+05  4.867692E+04 -4.031154E+04
        68   3  7.404081E+05  1.270900E+05  1.744882E+05 -6.293865E+04  5.189767E+04 -5.474677E+04
        68   4 -2.059190E+05 -2.156873E+05 -3.426995E+03 -3.268632E+05  1.528320E+04 -3.340410E+04
        68   5 -2.270831E+05 -1.946846E+05 -6.316318E+03 -3.020133E+05  2.483251E+04 -4.923622E+04
        68   6 -2.063703E+05 -2.180986E+05 -1.198364E+04 -3.260111E+05  3.315727E+04 -6.176970E+04
        68   7 -6.733500E+05 -3.848987E+05 -9.291004E+04 -4.559634E+05 -1.364166E+04 -4.421935E+04
        68   8 -9.332506E+05 -4.513404E+05 -1.422892E+05 -4.979248E+05  1.017132E+03 -5.815001E+04
        68   9 -1.152230E+06 -5.632109E+05 -1.984977E+05 -5.887142E+05  1.444732E+04 -6.878117E+04
        68  10  2.617433E+05 -4.645536E+04  8.604690E+04 -1.976704E+05 -3.110075E-09 -1.178723E-09
        68  11  4.796015E+05  6.201383E+04  1.296300E+05 -1.058931E+05  2.182399E-09  4.255141E-10
        68  12  7.404044E+05  1.270860E+05  1.744775E+05 -6.293636E+04  7.800750E-10  1.472553E-09
        68  13 -2.059195E+05 -2.156885E+05 -3.429531E+03 -3.268628E+05  1.589829E-09 -6.619379E-10
        68  14 -2.270844E+05 -1.946874E+05 -6.322031E+03 -3.020124E+05 -9.619210E-10  5.130242E-10
        68  15 -2.063725E+05 -2.181030E+05 -1.199287E+04 -3.260094E+05 -1.764345E-09 -2.197844E-10
        68  16 -6.733508E+05 -3.849009E+05 -9.291407E+04 -4.559639E+05  2.802447E-09  2.364310E-10
        68  17 -9.332515E+05 -4.513441E+05 -1.422956E+05 -4.979247E+05 -8.838647E-10 -1.021118E-10
        68  18 -1.152231E+06 -5.632161E+05 -1.985070E+05 -5.887134E+05 -1.895071E-09 -3.583670E-10
        68  19  2.617455E+05 -4.645429E+04  8.605153E+04 -1.976712E+05 -4.423164E+04  2.258007E+04
        68  20  4.796044E+05  6.201621E+04  1.296375E+05 -1.058947E+05 -4.867692E+04  4.031154E+04
        68  21  7.404081E+05  1.270900E+05  1.744882E+05 -6.293865E+04 -5.189767E+04  5.474677E+04
        68  22 -2.059190E+05 -2.156873E+05 -3.426995E+03 -3.268632E+05 -1.528320E+04  3.340410E+04
        68  23 -2.270831E+05 -1.946846E+05 -6.316318E+03 -3.020133E+05 -2.483251E+04  4.923622E+04
        68  24 -2.063703E+05 -2.180986E+05 -1.198364E+04 -3.260111E+05 -3.315727E+04  6.176970E+04
        68  25 -6.733500E+05 -3.848987E+05 -9.291004E+04 -4.559634E+05  1.364166E+04  4.421935E+04
        68  26 -9.332506E+05 -4.513404E+05 -1.422892E+05 -4.979248E+05 -1.017132E+03  5.815001E+04
        68  27 -1.152230E+06 -5.632109E+05 -1.984977E+05 -5.887142E+05 -1.444732E+04  6.878117E+04
        69   1  9.029526E+05  1.840946E+05  2.036416E+05 -2.293323E+04  6.452814E+04 -6.146270E+04
        69   2  1.107718E+06  2.986637E+05  2.597994E+05  8.408088E+04  1.144077E+04 -7.571212E+04
        69   3  1.352215E+06  3.520545E+05  3.481450E+05  1.527513E+05 -5.784935E+04 -4.688563E+04
        69   4 -2.087243E+05 -2.166241E+05 -1.578983E+04 -3.267690E+05  3.871210E+04 -7.114045E+04
        69   5 -2.255990E+05 -2.046210E+05 -2.986771E+04 -2.981814E+05  5.253812E+04 -6.032913E+04
        69   6 -2.160530E+05 -2.670892E+05 -6.473956E+04 -3.079664E+05  5.016521E+04 -6.383790E+03
        69   7 -1.319130E+06 -6.172436E+05 -2.352776E+05 -6.301058E+05  1.294546E+04 -8.080013E+04
        69   8 -1.557086E+06 -7.077273E+05 -3.196272E+05 -6.796732E+05  9.353973E+04 -4.498438E+04
        69   9 -1.781851E+06 -8.859750E+05 -4.777699E+05 -7.675842E+05  1.578776E+05  3.399075E+04
        69  10  9.029471E+05  1.840894E+05  2.036267E+05 -2.293004E+04 -1.067054E-09  1.103818E-09
        69  11  1.107716E+06  2.986575E+05  2.597884E+05  8.408158E+04 -5.107934E-09 -1.776880E-10
        69  12  1.352211E+06  3.520512E+05  3.481346E+05  1.527491E+05 -3.779981E-09 -5.452857E-10
        69  13 -2.087272E+05 -2.166299E+05 -1.580215E+04 -3.267668E+05 -1.912187E-09  1.129120E-09
        69  14 -2.256029E+05 -2.046256E+05 -2.987974E+04 -2.981788E+05 -3.026768E-09 -4.567638E-11
        69  15 -2.160557E+05 -2.670900E+05 -6.474437E+04 -3.079662E+05 -4.012240E-09 -3.220687E-10
        69  16 -1.319132E+06 -6.172506E+05 -2.352902E+05 -6.301050E+05 -2.975568E-09 -5.538070E-10
        69  17 -1.557096E+06 -7.077318E+05 -3.196475E+05 -6.796698E+05 -1.175715E-09 -7.577614E-10
        69  18 -1.781878E+06 -8.859830E+05 -4.778190E+05 -7.675885E+05 -7.484806E-11  6.669956E-11
        69  19  9.029526E+05  1.840946E+05  2.036416E+05 -2.293323E+04 -6.452814E+04  6.146270E+04
        69  20  1.107718E+06  2.986637E+05  2.597994E+05  8.408088E+04 -1.144077E+04  7.571212E+04
        69  21  1.352215E+06  3.520545E+05  3.481450E+05  1.527513E+05  5.784935E+04  4.688563E+04
        69  22 -2.087243E+05 -2.166241E+05 -1.578983E+04 -3.267690E+05 -3.871210E+04  7.114045E+04
        69  23 -2.255990E+05 -2.046210E+05 -2.986771E+04 -2.981814E+05 -5.253812E+04  6.032913E+04
        69  24 -2.160530E+05 -2.670892E+05 -6.473956E+04 -3.079664E+05 -5.016521E+04  6.383790E+03
        69  25 -1.319130E+06 -6.172436E+05 -2.352776E+05 -6.301058E+05 -1.294546E+04  8.080013E+04
        69  26 -1.557086E+06 -7.077273E+05 -3.196272E+05 -6.796732E+05 -9.353973E+04  4.498438E+04
        69  27 -1.781851E+06 -8.859750E+05 -4.777699E+05 -7.675842E+05 -1.578776E+05 -3.399075E+04
        70   1 -2.051341E+05 -9.579305E+04 -8.459022E+04 -7.059575E+04 -1.738148E+04  6.793390E+03
        70   2 -1.319959E+05 -1.013818E+05 -6.507196E+04 -7.999975E+04 -1.844726E+03  2.258893E+04
        70   3 -5.738775E+04 -9.311412E+04 -5.220514E+04 -1.003088E+05  1.369909E+04  2.665879E+04
        70   4  3.716256E+05  4.624200E+04  4.896244E+04 -1.020682E+05  3.459626E+04  6.803412E+03
        70   5  3.684697E+05  1.665355E+04  2.473145E+04 -9.661404E+04  2.199615E+04  2.259036E+04
        70   6  3.716574E+05  5.798350E+03  1.338406E+04 -1.020632E+05  9.401073E+03  2.665674E+04
        70   7  9.487006E+05  1.882588E+05  1.825035E+05 -1.335701E+05  8.662192E+04  6.808161E+03
        70   8  8.691811E+05  1.346763E+05  1.145275E+05 -1.132421E+05  4.585570E+04  2.259052E+04
        70   9  8.008869E+05  1.047020E+05  7.896936E+04 -1.038189E+05  5.100200E+03  2.665471E+04
        70  10 -2.051344E+05 -9.579318E+04 -8.459088E+04 -7.059565E+04  7.504818E-10 -1.987714E-11
        70  11 -1.319960E+05 -1.013824E+05 -6.507292E+04 -7.999972E+04  9.901530E-11 -1.097331E-10
        70  12 -5.738814E+04 -9.311494E+04 -5.220683E+04 -1.003091E+05 -1.121659E-09 -2.507789E-10
        70  13  3.716243E+05  4.624163E+04  4.896010E+04 -1.020684E+05  1.363870E-10  3.659797E-10
        70  14  3.684690E+05  1.665287E+04  2.472958E+04 -9.661444E+04 -5.216991E-09  4.329187E-10
        70  15  3.716572E+05  5.797563E+03  1.338256E+04 -1.020634E+05 -1.880848E-09  3.487659E-11
        70  16  9.486925E+05  1.882568E+05  1.824894E+05 -1.335706E+05  7.352558E-10  5.801173E-10
        70  17  8.691787E+05  1.346752E+05  1.145226E+05 -1.132429E+05  7.184903E-10  1.066228E-09
        70  18  8.008867E+05  1.047012E+05  7.896798E+04 -1.038190E+05  1.693498E-09  7.992889E-10
        70  19 -2.051341E+05 -9.579305E+04 -8.459022E+04 -7.059575E+04  1.738148E+04 -6.793390E+03
        70  20 -1.319959E+05 -1.013818E+05 -6.507196E+04 -7.999975E+04  1.844726E+03 -2.258893E+04
        70  21 -5.738775E+04 -9.311412E+04 -5.220514E+04 -1.003088E+05 -1.369909E+04 -2.665879E+04
        70  22  3.716256E+05  4.624200E+04  4.896244E+04 -1.020682E+05 -3.459626E+04 -6.803412E+03
        70  23  3.684697E+05  1.665355E+04  2.473145E+04 -9.661404E+04 -2.199615E+04 -2.259036E+04
        70  24  3.716574E+05  5.798350E+03  1.338406E+04 -1.020632E+05 -9.401073E+03 -2.665674E+04
        70  25  9.487006E+05  1.882588E+05  1.825035E+05 -1.335701E+05 -8.662192E+04 -6.808161E+03
        70  26  8.691811E+05  1.346763E+05  1.145275E+05 -1.132421E+05 -4.585570E+04 -2.259052E+04
        70  27  8.008869E+05  1.047020E+05  7.896936E+04 -1.038189E+05 -5.100200E+03 -2.665471E+04
        71   1 -1.228003E+04 -8.361665E+04 -4.650455E+04 -9.978095E+04  1.289145E+04  2.507282E+04
        71   2  6.139583E+04 -6.887214E+04 -3.722725E+04 -9.516538E+04  1.399983E+04  2.209876E+04
        71   3  1.352521E+05 -5.289582E+04 -2.836042E+04 -1.023210E+05  1.510798E+04  1.753995E+04
        71   4  3.704398E+05  4.209339E+03  9.980231E+03 -1.022569E+05  7.659004E+03  2.507112E+04
        71   5  3.700307E+05  1.362243E+03  5.382834E+03 -9.637158E+04  4.962292E+03  2.209771E+04
        71   6  3.704564E+05  4.070597E+02  3.015910E+03 -1.022569E+05  2.265235E+03  1.753997E+04
        71   7  7.533071E+05  9.202853E+04  6.646247E+04 -1.047344E+05  2.423466E+03  2.506946E+04
        71   8  6.787624E+05  7.159248E+04  4.799214E+04 -9.757840E+04 -4.079534E+03  2.209669E+04
        71   9  6.057174E+05  5.370766E+04  3.439241E+04 -1.021928E+05 -1.058215E+04  1.753998E+04
        71  10 -1.228037E+04 -8.361737E+04 -4.650604E+04 -9.978121E+04  5.471790E-10 -3.459864E-10
        71  11  6.139549E+04 -6.887271E+04 -3.722854E+04 -9.516563E+04  7.574876E-10 -8.776456E-10
        71  12  1.352518E+05 -5.289621E+04 -2.836143E+04 -1.023212E+05 -1.891289E-09 -1.469629E-09
        71  13  3.704396E+05  4.208648E+03  9.978939E+03 -1.022570E+05 -2.012653E-09  9.379385E-11
        71  14  3.700305E+05  1.361712E+03  5.381870E+03 -9.637167E+04 -4.088052E-09 -3.538907E-10
        71  15  3.704563E+05  4.067279E+02  3.015322E+03 -1.022569E+05 -2.014312E-09 -5.802958E-10
        71  16  7.533069E+05  9.202786E+04  6.646128E+04 -1.047344E+05 -1.570324E-09  2.566494E-10
        71  17  6.787623E+05  7.159195E+04  4.799119E+04 -9.757833E+04 -1.538937E-09  3.132940E-11
        71  18  6.057172E+05  5.370730E+04  3.439162E+04 -1.021926E+05  7.914391E-10  3.573044E-10
        71  19 -1.228003E+04 -8.361665E+04 -4.650455E+04 -9.978095E+04 -1.289145E+04 -2.507282E+04
        71  20  6.139583E+04 -6.887214E+04 -3.722725E+04 -9.516538E+04 -1.399983E+04 -2.209876E+04
        71  21  1.352521E+05 -5.289582E+04 -2.836042E+04 -1.023210E+05 -1.510798E+04 -1.753995E+04
        71  22  3.704398E+05  4.209339E+03  9.980231E+03 -1.022569E+05 -7.659004E+03 -2.507112E+04
        71  23  3.700307E+05  1.362243E+03  5.382834E+03 -9.637158E+04 -4.962292E+03 -2.209771E+04
        71  24  3.704564E+05  4.070597E+02  3.015910E+03 -1.022569E+05 -2.265235E+03 -1.753997E+04
        71  25  7.533071E+05  9.202853E+04  6.646247E+04 -1.047344E+05 -2.423466E+03 -2.506946E+04
        71  26  6.787624E+05  7.159248E+04  4.799214E+04 -9.757840E+04  4.079534E+03 -2.209669E+04
        71  27  6.057174E+05  5.370766E+04  3.439241E+04 -1.021928E+05  1.058215E+04 -1.753998E+04
        72   1  1.806886E+05 -4.261820E+04 -2.268935E+04 -1.022234E+05  1.479039E+04  1.435267E+04
        72   2  2.544107E+05 -2.613133E+04 -1.385673E+04 -9.634396E+04  1.467233E+04  8.843483E+03
        72   3  3.281799E+05 -9.554066E+03 -4.923364E+03 -1.023503E+05  1.455397E+04  3.120986E+03
        72   4  3.703037E+05  2.852756E+02  2.271483E+03 -1.022825E+05  1.821607E+03  1.435313E+04
        72   5  3.702409E+05  5.194016E+01  1.270306E+03 -9.633970E+04  1.190612E+03  8.844405E+03
        72   6  3.703097E+05 -1.624789E+00  7.256714E+02 -1.022825E+05  5.593222E+02  3.122378E+03
        72   7  5.599559E+05  4.318732E+04  2.723270E+04 -1.023416E+05 -1.115095E+04  1.435359E+04
        72   8  4.860853E+05  2.623475E+04  1.639794E+04 -9.633544E+04 -1.229350E+04  8.845327E+03
        72   9  4.124418E+05  9.550846E+03  6.375427E+03 -1.022148E+05 -1.343623E+04  3.123768E+03
        72  10  1.806883E+05 -4.261848E+04 -2.269015E+04 -1.022236E+05 -8.856458E-10 -1.352022E-09
        72  11  2.544104E+05 -2.613147E+04 -1.385728E+04 -9.634407E+04  4.593104E-10 -8.620517E-11
        72  12  3.281797E+05 -9.554134E+03 -4.923780E+03 -1.023503E+05  4.995221E-10  1.759514E-09
        72  13  3.703036E+05  2.850535E+02  2.271090E+03 -1.022825E+05 -1.219160E-09 -5.850676E-10
        72  14  3.702409E+05  5.185576E+01  1.270156E+03 -9.633971E+04  1.092437E-09 -4.272117E-10
        72  15  3.703097E+05 -1.635345E+00  7.256525E+02 -1.022825E+05  3.954172E-10  2.996832E-10
        72  16  5.599557E+05  4.318707E+04  2.723208E+04 -1.023415E+05  1.623039E-10  1.995358E-10
        72  17  4.860851E+05  2.623462E+04  1.639751E+04 -9.633535E+04 -2.835294E-09 -7.862903E-10
        72  18  4.124416E+05  9.550787E+03  6.375070E+03 -1.022147E+05  1.523371E-09 -1.224570E-09
        72  19  1.806886E+05 -4.261820E+04 -2.268935E+04 -1.022234E+05 -1.479039E+04 -1.435267E+04
        72  20  2.544107E+05 -2.613133E+04 -1.385673E+04 -9.634396E+04 -1.467233E+04 -8.843483E+03
        72  21  3.281799E+05 -9.554066E+03 -4.923364E+03 -1.023503E+05 -1.455397E+04 -3.120986E+03
        72  22  3.703037E+05  2.852756E+02  2.271483E+03 -1.022825E+05 -1.821607E+03 -1.435313E+04
        72  23  3.702409E+05  5.194016E+01  1.270306E+03 -9.633970E+04 -1.190612E+03 -8.844405E+03
        72  24  3.703097E+05 -1.624789E+00  7.256714E+02 -1.022825E+05 -5.593222E+02 -3.122378E+03
        72  25  5.599559E+05  4.318732E+04  2.723270E+04 -1.023416E+05  1.115095E+04 -1.435359E+04
        72  26  4.860853E+05  2.623475E+04  1.639794E+04 -9.633544E+04  1.229350E+04 -8.845327E+03
        72  27  4.124418E+05  9.550846E+03  6.375427E+03 -1.022148E+05  1.343623E+04 -3.123768E+03
        73   1  3.736522E+05  7.490417E+02  9.541987E+02 -1.023312E+05  1.445792E+04 -2.813615E+02
        73   2  4.473922E+05  1.733795E+04  1.001309E+04 -9.636957E+04  1.435796E+04 -6.128150E+03
        73   3  5.211568E+05  3.393068E+04  1.913952E+04 -1.023090E+05  1.425821E+04 -1.199790E+04
        73   4  3.702870E+05 -4.458009E+00  5.502221E+02 -1.022860E+05  4.462454E+02 -2.799256E+02
        73   5  3.702712E+05 -1.846416E+01  3.149629E+02 -9.633543E+04  2.902077E+02 -6.126998E+03
        73   6  3.702831E+05 -1.914499E+01  1.852447E+02 -1.022860E+05  1.344063E+02 -1.199705E+04
        73   7  3.669221E+05 -7.578528E+02  1.469829E+02 -1.022408E+05 -1.356536E+04 -2.784918E+02
        73   8  2.931568E+05 -1.737501E+04 -9.382442E+03 -9.630128E+04 -1.377588E+04 -6.125847E+03
        73   9  2.194332E+05 -3.396978E+04 -1.876834E+04 -1.022630E+05 -1.398614E+04 -1.199619E+04
        73  10  3.736520E+05  7.489856E+02  9.538059E+02 -1.023312E+05  7.405048E-10  2.238683E-09
        73  11  4.473919E+05  1.733785E+04  1.001264E+04 -9.636950E+04 -5.953683E-10  1.347537E-09
        73  12  5.211565E+05  3.393047E+04  1.913887E+04 -1.023089E+05 -1.768314E-09 -2.004298E-11
        73  13  3.702870E+05 -4.458147E+00  5.502215E+02 -1.022860E+05  2.175229E-09  6.477229E-10
        73  14  3.702712E+05 -1.850450E+01  3.148922E+02 -9.633542E+04 -3.288190E-09  4.907031E-10
        73  15  3.702830E+05 -1.929958E+01  1.849742E+02 -1.022860E+05 -1.714721E-09 -3.620024E-10
        73  16  3.669219E+05 -7.579023E+02  1.466372E+02 -1.022408E+05  9.238551E-10 -9.399452E-10
        73  17  2.931566E+05 -1.737510E+04 -9.382869E+03 -9.630135E+04  3.875364E-10 -3.877731E-10
        73  18  2.194329E+05 -3.396999E+04 -1.876898E+04 -1.022631E+05  4.133424E-10 -6.946993E-10
        73  19  3.736522E+05  7.490417E+02  9.541987E+02 -1.023312E+05 -1.445792E+04  2.813615E+02
        73  20  4.473922E+05  1.733795E+04  1.001309E+04 -9.636957E+04 -1.435796E+04  6.128150E+03
        73  21  5.211568E+05  3.393068E+04  1.913952E+04 -1.023090E+05 -1.425821E+04  1.199790E+04
        73  22  3.702870E+05 -4.458009E+00  5.502221E+02 -1.022860E+05 -4.462454E+02  2.799256E+02
        73  23  3.702712E+05 -1.846416E+01  3.149629E+02 -9.633543E+04 -2.902077E+02  6.126998E+03
        73  24  3.702831E+05 -1.914499E+01  1.852447E+02 -1.022860E+05 -1.344063E+02  1.199705E+04
        73  25  3.669221E+05 -7.578528E+02  1.469829E+02 -1.022408E+05  1.356536E+04  2.784918E+02
        73  26  2.931568E+05 -1.737501E+04 -9.382442E+03 -9.630128E+04  1.377588E+04  6.125847E+03
        73  27  2.194332E+05 -3.396978E+04 -1.876834E+04 -1.022630E+05  1.398614E+04  1.199619E+04
        74   1  5.666474E+05  4.422420E+04  2.511286E+04 -1.023031E+05  1.422835E+04 -1.542318E+04
        74   2  6.404070E+05  6.081134E+04  3.433274E+04 -9.633564E+04  1.408567E+04 -2.128295E+04
        74   3  7.142042E+05  7.741464E+04  4.365224E+04 -1.022708E+05  1.394378E+04 -2.710153E+04
        74   4  3.702773E+05 -2.199032E+01  1.440155E+02 -1.022864E+05  1.045774E+02 -1.542271E+04
        74   5  3.702630E+05 -3.379940E+01  9.031556E+01 -9.633496E+04  6.002427E+01 -2.128352E+04
        74   6  3.702636E+05 -4.637957E+01  6.760577E+01 -1.022864E+05  1.628048E+01 -2.710313E+04
        74   7  1.739472E+05 -4.426965E+04 -2.482422E+04 -1.022697E+05 -1.401495E+04 -1.542225E+04
        74   8  1.001943E+05 -6.088181E+04 -3.415162E+04 -9.633427E+04 -1.395982E+04 -2.128408E+04
        74   9  2.644480E+04 -7.751212E+04 -4.351670E+04 -1.023020E+05 -1.390389E+04 -2.710473E+04
        74  10  5.666471E+05  4.422389E+04  2.511203E+04 -1.023029E+05 -6.077381E-10 -6.243101E-10
        74  11  6.404066E+05  6.081080E+04  3.433151E+04 -9.633540E+04  3.459414E-09 -8.035876E-10
        74  12  7.142037E+05  7.741380E+04  4.365049E+04 -1.022705E+05  6.920250E-10 -8.078236E-10
        74  13  3.702772E+05 -2.224579E+01  1.435684E+02 -1.022864E+05  1.340628E-09 -8.334333E-10
        74  14  3.702629E+05 -3.428591E+01  8.946415E+01 -9.633496E+04 -4.022781E-09 -9.928468E-10
        74  15  3.702634E+05 -4.716851E+01  6.622511E+01 -1.022864E+05  5.735905E-10 -1.025799E-09
        74  16  1.739469E+05 -4.426996E+04 -2.482503E+04 -1.022699E+05  1.039100E-09 -1.077222E-09
        74  17  1.001940E+05 -6.088235E+04 -3.415283E+04 -9.633451E+04 -2.695831E-09 -1.391438E-09
        74  18  2.644440E+04 -7.751297E+04 -4.351844E+04 -1.023023E+05 -4.125522E-09 -1.366754E-09
        74  19  5.666474E+05  4.422420E+04  2.511286E+04 -1.023031E+05 -1.422835E+04  1.542318E+04
        74  20  6.404070E+05  6.081134E+04  3.433274E+04 -9.633564E+04 -1.408567E+04  2.128295E+04
        74  21  7.142042E+05  7.741464E+04  4.365224E+04 -1.022708E+05 -1.394378E+04  2.710153E+04
        74  22  3.702773E+05 -2.199032E+01  1.440155E+02 -1.022864E+05 -1.045774E+02  1.542271E+04
        74  23  3.702630E+05 -3.379940E+01  9.031556E+01 -9.633496E+04 -6.002427E+01  2.128352E+04
        74  24  3.702636E+05 -4.637957E+01  6.760577E+01 -1.022864E+05 -1.628048E+01  2.710313E+04
        74  25  1.739472E+05 -4.426965E+04 -2.482422E+04 -1.022697E+05  1.401495E+04  1.542225E+04
        74  26  1.001943E+05 -6.088181E+04 -3.415162E+04 -9.633427E+04  1.395982E+04  2.128408E+04
        74  27  2.644480E+04 -7.751212E+04 -4.351670E+04 -1.023020E+05  1.390389E+04  2.710473E+04
        75   1  7.597405E+05  8.772283E+04  4.973665E+04 -1.022547E+05  1.390795E+04 -3.048517E+04
        75   2  8.334782E+05  1.043693E+05  5.938561E+04 -9.628260E+04  1.306497E+04 -3.610352E+04
        75   3  9.073868E+05  1.211606E+05  6.962481E+04 -1.021946E+05  1.222314E+04 -4.138482E+04
        75   4  3.702599E+05 -5.575401E+01  6.443817E+01 -1.022823E+05  4.904615E+00 -3.048758E+04
        75   5  3.702351E+05 -7.643483E+01  7.012201E+01 -9.634001E+04 -2.889269E+01 -3.610757E+04
        75   6  3.702364E+05 -9.224818E+01  1.045329E+02 -1.022823E+05 -6.145553E+01 -4.139039E+04
        75   7 -1.906489E+04 -8.784046E+04 -4.960766E+04 -1.023099E+05 -1.388985E+04 -3.048999E+04
        75   8 -9.278790E+04 -1.045309E+05 -5.924566E+04 -9.639737E+04 -1.311347E+04 -3.611162E+04
        75   9 -1.666186E+05 -1.213570E+05 -6.941673E+04 -1.023700E+05 -1.233595E+04 -4.139597E+04
        75  10  7.597401E+05  8.772178E+04  4.973454E+04 -1.022544E+05  3.008387E-09 -5.817471E-10
        75  11  8.334776E+05  1.043679E+05  5.938284E+04 -9.628222E+04  2.100974E-09 -8.618012E-10
        75  12  9.073862E+05  1.211587E+05  6.962131E+04 -1.021942E+05  3.659523E-10 -6.773489E-11
        75  13  3.702596E+05 -5.675230E+01  6.269117E+01 -1.022823E+05 -1.106356E-09 -1.066805E-09
        75  14  3.702347E+05 -7.783508E+01  6.767157E+01 -9.634001E+04 -2.249066E-09 -8.669508E-10
        75  15  3.702359E+05 -9.408814E+01  1.013130E+02 -1.022823E+05  7.219898E-10  5.354695E-10
        75  16 -1.906535E+04 -8.784151E+04 -4.960977E+04 -1.023103E+05 -2.252161E-09 -1.583795E-09
        75  17 -9.278843E+04 -1.045324E+05 -5.924843E+04 -9.639775E+04 -2.750468E-09 -1.088274E-09
        75  18 -1.666192E+05 -1.213589E+05 -6.942023E+04 -1.023704E+05  1.972054E-09  1.511585E-09
        75  19  7.597405E+05  8.772283E+04  4.973665E+04 -1.022547E+05 -1.390795E+04  3.048517E+04
        75  20  8.334782E+05  1.043693E+05  5.938561E+04 -9.628260E+04 -1.306497E+04  3.610352E+04
        75  21  9.073868E+05  1.211606E+05  6.962481E+04 -1.021946E+05 -1.222314E+04  4.138482E+04
        75  22  3.702599E+05 -5.575401E+01  6.443817E+01 -1.022823E+05 -4.904615E+00  3.048758E+04
        75  23  3.702351E+05 -7.643483E+01  7.012201E+01 -9.634001E+04  2.889269E+01  3.610757E+04
        75  24  3.702364E+05 -9.224818E+01  1.045329E+02 -1.022823E+05  6.145553E+01  4.139039E+04
        75  25 -1.906489E+04 -8.784046E+04 -4.960766E+04 -1.023099E+05  1.388985E+04  3.048999E+04
        75  26 -9.278790E+04 -1.045309E+05 -5.924566E+04 -9.639737E+04  1.311347E+04  3.611162E+04
        75  27 -1.666186E+05 -1.213570E+05 -6.941673E+04 -1.023700E+05  1.233595E+04  4.139597E+04
        76   1  9.531195E+05  1.316200E+05  7.631827E+04 -1.021231E+05  1.200747E+04 -4.442806E+04
        76   2  1.026457E+06  1.487744E+05  8.883029E+04 -9.626690E+04  5.881416E+03 -4.820745E+04
        76   3  1.100916E+06  1.670512E+05  1.056169E+05 -1.021108E+05 -2.454058E+02 -4.948328E+04
        76   4  3.702369E+05 -1.020674E+02  1.333451E+02 -1.022415E+05 -8.028313E+01 -4.443472E+04
        76   5  3.701849E+05 -9.268420E+01  2.238132E+02 -9.639109E+04 -1.893757E+02 -4.821438E+04
        76   6  3.702042E+05 -4.273211E+00  4.147060E+02 -1.022415E+05 -2.984426E+02 -4.948909E+04
        76   7 -2.122983E+05 -1.318383E+05 -7.605316E+04 -1.023598E+05 -1.215725E+04 -4.444137E+04
        76   8 -2.856494E+05 -1.489784E+05 -8.838656E+04 -9.651514E+04 -6.254054E+03 -4.822132E+04
        76   9 -3.599692E+05 -1.670841E+05 -1.047958E+05 -1.023721E+05 -3.514196E+02 -4.949490E+04
        76  10  9.531188E+05  1.316178E+05  7.631428E+04 -1.021226E+05  6.801292E-08  1.260040E-09
        76  11  1.026457E+06  1.487719E+05  8.882586E+04 -9.626667E+04  1.671834E-09  2.652502E-09
        76  12  1.100915E+06  1.670486E+05  1.056123E+05 -1.021108E+05 -6.560969E-08  3.866796E-10
        76  13  3.702364E+05 -1.041880E+02  1.296341E+02 -1.022415E+05  1.092538E-09  1.725265E-09
        76  14  3.701843E+05 -9.518089E+01  2.194439E+02 -9.639110E+04 -2.084999E-09  2.161908E-09
        76  15  3.702035E+05 -6.903676E+00  4.101026E+02 -1.022415E+05 -3.019990E-09  6.921711E-10
        76  16 -2.122990E+05 -1.318405E+05 -7.605715E+04 -1.023602E+05 -7.027601E-08  2.380000E-09
        76  17 -2.856501E+05 -1.489809E+05 -8.839101E+04 -9.651539E+04 -8.191455E-10  2.584177E-09
        76  18 -3.599699E+05 -1.670867E+05 -1.048004E+05 -1.023721E+05  6.647242E-08  1.139753E-09
        76  19  9.531195E+05  1.316200E+05  7.631827E+04 -1.021231E+05 -1.200747E+04  4.442806E+04
        76  20  1.026457E+06  1.487744E+05  8.883029E+04 -9.626690E+04 -5.881416E+03  4.820745E+04
        76  21  1.100916E+06  1.670512E+05  1.056169E+05 -1.021108E+05  2.454058E+02  4.948328E+04
        76  22  3.702369E+05 -1.020674E+02  1.333451E+02 -1.022415E+05  8.028313E+01  4.443472E+04
        76  23  3.701849E+05 -9.268420E+01  2.238132E+02 -9.639109E+04  1.893757E+02  4.821438E+04
        76  24  3.702042E+05 -4.273211E+00  4.147060E+02 -1.022415E+05  2.984426E+02  4.948909E+04
        76  25 -2.122983E+05 -1.318383E+05 -7.605316E+04 -1.023598E+05  1.215725E+04  4.444137E+04
        76  26 -2.856494E+05 -1.489784E+05 -8.838656E+04 -9.651514E+04  6.254054E+03  4.822132E+04
        76  27 -3.599692E+05 -1.670841E+05 -1.047958E+05 -1.023721E+05  3.514196E+02  4.949490E+04
        77   1  1.147887E+06  1.786578E+05  1.166742E+05 -1.017272E+05 -1.793537E+03 -4.999659E+04
        77   2  1.217941E+06  1.997114E+05  1.500780E+05 -9.712560E+04 -4.683912E+04 -4.016179E+04
        77   3  1.296045E+06  2.293007E+05  2.149182E+05 -1.028476E+05 -9.190953E+04 -1.180214E+04
        77   4  3.702482E+05  4.614114E+01  5.565917E+02 -1.019352E+05 -3.711905E+02 -5.000210E+04
        77   5  3.700651E+05  4.838729E+02  1.017138E+03 -9.677424E+04 -8.795597E+02 -4.014226E+04
        77   6  3.702077E+05  1.738229E+03  2.020559E+03 -1.019360E+05 -1.405766E+03 -1.174602E+04
        77   7 -4.067846E+05 -1.785940E+05 -1.155726E+05 -1.021429E+05  1.049449E+03 -5.000762E+04
        77   8 -4.771045E+05 -1.987817E+05 -1.480619E+05 -9.642342E+04  4.501919E+04 -4.012268E+04
        77   9 -5.548197E+05 -2.258796E+05 -2.109030E+05 -1.010258E+05  8.896433E+04 -1.168960E+04
        77  10  1.147887E+06  1.786551E+05  1.166694E+05 -1.017273E+05  2.477401E-10 -1.420842E-09
        77  11  1.217939E+06  1.997091E+05  1.500708E+05 -9.712711E+04 -4.060217E-09 -2.456934E-09
        77  12  1.296035E+06  2.292983E+05  2.149021E+05 -1.028485E+05 -2.746554E-09 -7.318597E-10
        77  13  3.702475E+05  4.345585E+01  5.518922E+02 -1.019352E+05  1.742090E-09 -2.420901E-09
        77  14  3.700647E+05  4.821420E+02  1.014108E+03 -9.677427E+04  2.648411E-09  7.018313E-10
        77  15  3.702077E+05  1.738081E+03  2.020296E+03 -1.019360E+05 -2.480875E-09 -2.238458E-10
        77  16 -4.067852E+05 -1.785967E+05 -1.155773E+05 -1.021428E+05  2.053542E-09  2.336133E-11
        77  17 -4.771071E+05 -1.987840E+05 -1.480687E+05 -9.642196E+04  3.991549E-09  5.051866E-10
        77  18 -5.548282E+05 -2.258819E+05 -2.109182E+05 -1.010249E+05  2.149829E-09 -8.739804E-10
        77  19  1.147887E+06  1.786578E+05  1.166742E+05 -1.017272E+05  1.793537E+03  4.999659E+04
        77  20  1.217941E+06  1.997114E+05  1.500780E+05 -9.712560E+04  4.683912E+04  4.016179E+04
        77  21  1.296045E+06  2.293007E+05  2.149182E+05 -1.028476E+05  9.190953E+04  1.180214E+04
        77  22  3.702482E+05  4.614114E+01  5.565917E+02 -1.019352E+05  3.711905E+02  5.000210E+04
        77  23  3.700651E+05  4.838729E+02  1.017138E+03 -9.677424E+04  8.795597E+02  4.014226E+04
        77  24  3.702077E+05  1.738229E+03  2.020559E+03 -1.019360E+05  1.405766E+03  1.174602E+04
        77  25 -4.067846E+05 -1.785940E+05 -1.155726E+05 -1.021429E+05 -1.049449E+03  5.000762E+04
        77  26 -4.771045E+05 -1.987817E+05 -1.480619E+05 -9.642342E+04 -4.501919E+04  4.012268E+04
        77  27 -5.548197E+05 -2.258796E+05 -2.109030E+05 -1.010258E+05 -8.896433E+04  1.168960E+04
        78   1  1.980428E+05  9.477847E+05  1.891698E+05 -2.487616E+05  7.668631E+03  5.964556E+04
        78   2  1.422964E+05  7.613797E+05  1.161367E+05 -2.317158E+05  2.361874E+04  1.927449E+04
        78   3  9.634893E+04  5.826943E+05  7.180861E+04 -2.438667E+05  2.315597E+04 -2.108929E+04
        78   4  7.305194E+03  1.750981E+05  7.694285E+03 -2.434136E+05  7.713854E+03  4.001335E+03
        78   5  2.760389E+03  1.745697E+05  4.967268E+03 -2.288170E+05  2.363595E+04  1.497643E+03
        78   6  1.453443E+03  1.751693E+05  4.676207E+03 -2.434181E+05  2.313832E+04 -1.010642E+03
        78   7 -1.834732E+05 -5.970327E+05 -1.738105E+05 -2.380720E+05  7.758158E+03 -5.157414E+04
        78   8 -1.367955E+05 -4.119076E+05 -1.062163E+05 -2.259209E+05  2.365301E+04 -1.626282E+04
        78   9 -9.345038E+04 -2.321906E+05 -6.245956E+04 -2.429697E+05  2.312068E+04  1.905529E+04
        78  10  1.980418E+05  9.477809E+05  1.891630E+05 -2.487620E+05  1.330637E-09  2.706760E-08
        78  11  1.422957E+05  7.613792E+05  1.161350E+05 -2.317162E+05  7.421339E-09 -7.749104E-09
        78  12  9.634824E+04  5.826937E+05  7.180677E+04 -2.438663E+05  7.003519E-09 -4.449123E-08
        78  13  7.305126E+03  1.750981E+05  7.694143E+03 -2.434136E+05 -1.158050E-09  5.185764E-12
        78  14  2.759788E+03  1.745696E+05  4.966214E+03 -2.288170E+05 -5.001590E-09 -6.280425E-12
        78  15  1.452868E+03  1.751692E+05  4.675199E+03 -2.434180E+05 -1.043269E-08 -9.196578E-11
        78  16 -1.834740E+05 -5.970356E+05 -1.738156E+05 -2.380717E+05  8.318349E-10 -2.679147E-08
        78  17 -1.367962E+05 -4.119080E+05 -1.062178E+05 -2.259206E+05  6.111348E-09  8.830697E-09
        78  18 -9.345105E+04 -2.321912E+05 -6.246125E+04 -2.429700E+05  6.584777E-09  4.484929E-08
        78  19  1.980428E+05  9.477847E+05  1.891698E+05 -2.487616E+05 -7.668631E+03 -5.964556E+04
        78  20  1.422964E+05  7.613797E+05  1.161367E+05 -2.317158E+05 -2.361874E+04 -1.927449E+04
        78  21  9.634893E+04  5.826943E+05  7.180861E+04 -2.438667E+05 -2.315597E+04  2.108929E+04
        78  22  7.305194E+03  1.750981E+05  7.694285E+03 -2.434136E+05 -7.713854E+03 -4.001335E+03
        78  23  2.760389E+03  1.745697E+05  4.967268E+03 -2.288170E+05 -2.363595E+04 -1.497643E+03
        78  24  1.453443E+03  1.751693E+05  4.676207E+03 -2.434181E+05 -2.313832E+04  1.010642E+03
        78  25 -1.834732E+05 -5.970327E+05 -1.738105E+05 -2.380720E+05 -7.758158E+03  5.157414E+04
        78  26 -1.367955E+05 -4.119076E+05 -1.062163E+05 -2.259209E+05 -2.365301E+04  1.626282E+04
        78  27 -9.345038E+04 -2.321906E+05 -6.245956E+04 -2.429697E+05 -2.312068E+04 -1.905529E+04
        79   1  6.947857E+04  4.684189E+05  5.248872E+04 -2.443708E+05  1.731597E+04 -2.270108E+04
        79   2  2.733338E+04  2.853479E+05  2.323608E+04 -2.274450E+05  7.969975E+03 -2.777909E+04
        79   3 -1.197333E+04  1.036447E+05 -2.013838E+03 -2.408260E+05 -1.951712E+03 -3.285664E+04
        79   4  1.383040E+03  1.751786E+05  5.146186E+03 -2.436646E+05  1.729631E+04 -1.808992E+03
        79   5  2.047479E+03  1.746331E+05  7.478309E+03 -2.285096E+05  7.948409E+03 -5.562542E+03
        79   6  5.321774E+03  1.751918E+05  1.289239E+04 -2.436613E+05 -1.975241E+03 -9.317011E+03
        79   7 -6.671660E+04 -1.179755E+05 -4.219705E+04 -2.429586E+05  1.727670E+04  1.907358E+04
        79   8 -2.323870E+04  6.393185E+04 -8.277787E+03 -2.295741E+05  7.926765E+03  1.665021E+04
        79   9  2.261688E+04  2.467449E+05  2.780042E+04 -2.464969E+05 -1.998982E+03  1.422528E+04
        79  10  6.947811E+04  4.684183E+05  5.248718E+04 -2.443705E+05  7.784496E-09  4.299253E-08
        79  11  2.733310E+04  2.853471E+05  2.323451E+04 -2.274449E+05  7.201582E-09  5.456524E-09
        79  12 -1.197363E+04  1.036435E+05 -2.015873E+03 -2.408261E+05  1.505270E-09 -3.237318E-08
        79  13  1.382717E+03  1.751785E+05  5.145617E+03 -2.436645E+05 -1.306450E-08  9.006793E-12
        79  14  2.047403E+03  1.746331E+05  7.478132E+03 -2.285096E+05 -7.105969E-09 -2.900534E-11
        79  15  5.321747E+03  1.751917E+05  1.289222E+04 -2.436613E+05 -6.397348E-09 -1.195789E-10
        79  16 -6.671702E+04 -1.179760E+05 -4.219829E+04 -2.429589E+05  5.708612E-09 -4.258191E-08
        79  17 -2.323885E+04  6.393154E+04 -8.278426E+03 -2.295742E+05  3.741656E-10 -4.320463E-09
        79  18  2.261682E+04  2.467447E+05  2.780004E+04 -2.464969E+05 -1.081688E-09  3.276875E-08
        79  19  6.947857E+04  4.684189E+05  5.248872E+04 -2.443708E+05 -1.731597E+04  2.270108E+04
        79  20  2.733338E+04  2.853479E+05  2.323608E+04 -2.274450E+05 -7.969975E+03  2.777909E+04
        79  21 -1.197333E+04  1.036447E+05 -2.013838E+03 -2.408260E+05  1.951712E+03  3.285664E+04
        79  22  1.383040E+03  1.751786E+05  5.146186E+03 -2.436646E+05 -1.729631E+04  1.808992E+03
        79  23  2.047479E+03  1.746331E+05  7.478309E+03 -2.285096E+05 -7.948409E+03  5.562542E+03
        79  24  5.321774E+03  1.751918E+05  1.289239E+04 -2.436613E+05  1.975241E+03  9.317011E+03
        79  25 -6.671660E+04 -1.179755E+05 -4.219705E+04 -2.429586E+05 -1.727670E+04 -1.907358E+04
        79  26 -2.323870E+04  6.393185E+04 -8.277787E+03 -2.295741E+05 -7.926765E+03 -1.665021E+04
        79  27  2.261688E+04  2.467449E+05  2.780042E+04 -2.464969E+05  1.998982E+03 -1.422528E+04
        80   1 -3.685802E+04 -8.752694E+03 -1.677008E+04 -2.418604E+05 -8.355633E+03 -3.454563E+04
        80   2 -6.741069E+04 -1.928511E+05 -4.174417E+04 -2.081784E+05 -1.239471E+04 -2.291997E+04
        80   3 -7.818526E+04 -3.735045E+05 -6.935009E+04 -2.040634E+05 -4.522037E+03 -1.129286E+04
        80   4  7.001611E+03  1.767561E+05  1.701645E+04 -2.434973E+05 -8.378240E+03 -1.155388E+04
        80   5  2.028468E+04  1.726483E+05  3.101495E+04 -2.286966E+05 -1.238921E+04 -2.737262E+04
        80   6  5.810189E+04  1.767073E+05  6.143380E+04 -2.434562E+05 -4.492382E+03 -4.318649E+04
        80   7  5.085960E+04  3.622995E+05  5.080358E+04 -2.451346E+05 -8.400964E+03  1.144456E+04
        80   8  1.079735E+05  5.382764E+05  1.037677E+05 -2.492271E+05 -1.238341E+04 -3.182784E+04
        80   9  1.943735E+05  7.272026E+05  1.922012E+05 -2.828839E+05 -4.458697E+03 -7.510825E+04
        80  10 -3.685842E+04 -8.753994E+03 -1.677245E+04 -2.418607E+05  3.170915E-10  5.534372E-09
        80  11 -6.741099E+04 -1.928517E+05 -4.174545E+04 -2.081786E+05  2.053067E-09  2.639109E-10
        80  12 -7.818531E+04 -3.735047E+05 -6.935037E+04 -2.040635E+05  7.235971E-10 -6.502606E-09
        80  13  7.001500E+03  1.767560E+05  1.701607E+04 -2.434973E+05 -1.921512E-09 -4.788856E-11
        80  14  2.028432E+04  1.726475E+05  3.101325E+04 -2.286968E+05  4.625873E-10 -1.008964E-12
        80  15  5.810136E+04  1.767053E+05  6.143026E+04 -2.434564E+05  3.602041E-10 -4.467757E-11
        80  16  5.085948E+04  3.622994E+05  5.080320E+04 -2.451345E+05 -8.156438E-10 -5.256625E-09
        80  17  1.079730E+05  5.382752E+05  1.037655E+05 -2.492274E+05  4.417585E-09  1.055848E-09
        80  18  1.943720E+05  7.271965E+05  1.921906E+05 -2.828842E+05  1.247221E-09  6.993343E-09
        80  19 -3.685802E+04 -8.752694E+03 -1.677008E+04 -2.418604E+05  8.355633E+03  3.454563E+04
        80  20 -6.741069E+04 -1.928511E+05 -4.174417E+04 -2.081784E+05  1.239471E+04  2.291997E+04
        80  21 -7.818526E+04 -3.735045E+05 -6.935009E+04 -2.040634E+05  4.522037E+03  1.129286E+04
        80  22  7.001611E+03  1.767561E+05  1.701645E+04 -2.434973E+05  8.378240E+03  1.155388E+04
        80  23  2.028468E+04  1.726483E+05  3.101495E+04 -2.286966E+05  1.238921E+04  2.737262E+04
        80  24  5.810189E+04  1.767073E+05  6.143380E+04 -2.434562E+05  4.492382E+03  4.318649E+04
        80  25  5.085960E+04  3.622995E+05  5.080358E+04 -2.451346E+05  8.400964E+03 -1.144456E+04
        80  26  1.079735E+05  5.382764E+05  1.037677E+05 -2.492271E+05  1.238341E+04  3.182784E+04
        80  27  1.943735E+05  7.272026E+05  1.922012E+05 -2.828839E+05  4.458697E+03  7.510825E+04
        81   1 -4.037713E+05 -2.260212E+05 -1.390154E+05 -1.734346E+05 -6.901665E+04 -2.215389E+04
        81   2 -3.798413E+05 -1.433249E+05 -7.960331E+04 -1.619740E+05 -4.299626E+04 -4.026490E+03
        81   3 -3.713368E+05 -1.091100E+05 -5.349496E+04 -1.454836E+05 -1.467258E+04  7.972423E+03
        81   4 -2.042392E+05 -1.119683E+05 -7.990805E+04 -7.848721E+04 -5.291594E+04 -1.611587E+04
        81   5 -1.930940E+05 -5.763974E+04 -3.683229E+04 -9.264518E+04 -3.639090E+04 -1.549165E+03
        81   6 -1.954875E+05 -4.990525E+04 -1.952952E+04 -1.017761E+05 -1.756388E+04  6.887190E+03
        81   7 -4.666526E+03  2.104426E+03 -2.080394E+04  1.649175E+04 -3.680984E+04 -1.007326E+04
        81   8 -6.310870E+03  2.805400E+04  5.936525E+03 -2.329544E+04 -2.978344E+04  9.294117E+02
        81   9 -1.960525E+04  9.301444E+03  1.443489E+04 -5.805734E+04 -2.045608E+04  5.801679E+03
        81  10 -4.037766E+05 -2.260230E+05 -1.390253E+05 -1.734359E+05 -8.635389E-09 -3.972339E-09
        81  11 -3.798433E+05 -1.433254E+05 -7.960682E+04 -1.619742E+05  2.842783E-10  1.985654E-12
        81  12 -3.713371E+05 -1.091101E+05 -5.349549E+04 -1.454835E+05  1.352845E-08  7.115165E-09
        81  13 -2.042423E+05 -1.119693E+05 -7.991380E+04 -7.848790E+04  4.414354E-10 -7.507653E-10
        81  14 -1.930954E+05 -5.764010E+04 -3.683478E+04 -9.264522E+04  9.005857E-10 -4.559159E-09
        81  15 -1.954879E+05 -4.990538E+04 -1.953019E+04 -1.017760E+05 -7.450745E-09 -7.395977E-09
        81  16 -4.668008E+03  2.103954E+03 -2.080668E+04  1.649145E+04  7.218545E-09  3.673673E-09
        81  17 -6.311823E+03  2.805376E+04  5.934856E+03 -2.329542E+04 -3.924173E-09  4.090073E-10
        81  18 -1.960571E+04  9.301296E+03  1.443404E+04 -5.805725E+04 -2.068556E-08 -3.724728E-09
        81  19 -4.037713E+05 -2.260212E+05 -1.390154E+05 -1.734346E+05  6.901665E+04  2.215389E+04
        81  20 -3.798413E+05 -1.433249E+05 -7.960331E+04 -1.619740E+05  4.299626E+04  4.026490E+03
        81  21 -3.713368E+05 -1.091100E+05 -5.349496E+04 -1.454836E+05  1.467258E+04 -7.972423E+03
        81  22 -2.042392E+05 -1.119683E+05 -7.990805E+04 -7.848721E+04  5.291594E+04  1.611587E+04
        81  23 -1.930940E+05 -5.763974E+04 -3.683229E+04 -9.264518E+04  3.639090E+04  1.549165E+03
        81  24 -1.954875E+05 -4.990525E+04 -1.952952E+04 -1.017761E+05  1.756388E+04 -6.887190E+03
        81  25 -4.666526E+03  2.104426E+03 -2.080394E+04  1.649175E+04  3.680984E+04  1.007326E+04
        81  26 -6.310870E+03  2.805400E+04  5.936525E+03 -2.329544E+04  2.978344E+04 -9.294117E+02
        81  27 -1.960525E+04  9.301444E+03  1.443489E+04 -5.805734E+04  2.045608E+04 -5.801679E+03
        82   1 -3.459577E+05 -1.080102E+05 -4.492952E+04 -1.436840E+05 -1.302105E+04  7.296257E+03
        82   2 -3.203675E+05 -9.246681E+04 -3.193316E+04 -1.332339E+05 -7.816603E+03  7.594509E+03
        82   3 -2.912173E+05 -8.404589E+04 -2.297329E+04 -1.281110E+05 -2.436475E+03  7.424609E+03
        82   4 -1.930984E+05 -5.134796E+04 -1.481679E+04 -1.002307E+05 -1.490783E+04  6.587967E+03
        82   5 -1.947642E+05 -4.654736E+04 -7.819773E+03 -9.805845E+04 -1.042806E+04  6.614474E+03
        82   6 -1.927267E+05 -4.872536E+04 -4.284192E+03 -1.012136E+05 -5.772808E+03  6.172795E+03
        82   7 -4.021615E+04  5.316046E+03  1.529451E+04 -5.676785E+04 -1.679510E+04  5.879489E+03
        82   8 -6.914452E+04 -6.264367E+02  1.629297E+04 -6.287634E+04 -1.304009E+04  5.634225E+03
        82   9 -9.422514E+04 -1.340367E+04  1.440479E+04 -7.431208E+04 -9.109737E+03  4.920764E+03
        82  10 -3.459579E+05 -1.080103E+05 -4.492994E+04 -1.436840E+05 -2.016789E-08 -3.860166E-09
        82  11 -3.203676E+05 -9.246688E+04 -3.193338E+04 -1.332339E+05 -5.027102E-09  1.025725E-09
        82  12 -2.912173E+05 -8.404596E+04 -2.297340E+04 -1.281110E+05  1.237284E-08  4.544649E-09
        82  13 -1.930986E+05 -5.134806E+04 -1.481729E+04 -1.002307E+05 -6.576085E-09 -6.273630E-09
        82  14 -1.947644E+05 -4.654743E+04 -7.820059E+03 -9.805839E+04  4.828212E-09 -3.096679E-09
        82  15 -1.927268E+05 -4.872541E+04 -4.284326E+03 -1.012136E+05 -1.255977E-09 -2.464138E-10
        82  16 -4.021646E+04  5.315933E+03  1.529391E+04 -5.676777E+04  1.043944E-08  8.169649E-09
        82  17 -6.914471E+04 -6.265164E+02  1.629259E+04 -6.287628E+04  5.329823E-10  2.538295E-09
        82  18 -9.422523E+04 -1.340372E+04  1.440459E+04 -7.431204E+04 -1.232978E-08 -2.747432E-09
        82  19 -3.459577E+05 -1.080102E+05 -4.492952E+04 -1.436840E+05  1.302105E+04 -7.296257E+03
        82  20 -3.203675E+05 -9.246681E+04 -3.193316E+04 -1.332339E+05  7.816603E+03 -7.594509E+03
        82  21 -2.912173E+05 -8.404589E+04 -2.297329E+04 -1.281110E+05  2.436475E+03 -7.424609E+03
        82  22 -1.930984E+05 -5.134796E+04 -1.481679E+04 -1.002307E+05  1.490783E+04 -6.587967E+03
        82  23 -1.947642E+05 -4.654736E+04 -7.819773E+03 -9.805845E+04  1.042806E+04 -6.614474E+03
        82  24 -1.927267E+05 -4.872536E+04 -4.284192E+03 -1.012136E+05  5.772808E+03 -6.172795E+03
        82  25 -4.021615E+04  5.316046E+03  1.529451E+04 -5.676785E+04  1.679510E+04 -5.879489E+03
        82  26 -6.914452E+04 -6.264367E+02  1.629297E+04 -6.287634E+04  1.304009E+04 -5.634225E+03
        82  27 -9.422514E+04 -1.340367E+04  1.440479E+04 -7.431208E+04  9.109737E+03 -4.920764E+03
        83   1 -2.723768E+05 -7.762864E+04 -1.826814E+04 -1.231583E+05 -1.442715E+03  6.363875E+03
        83   2 -2.470419E+05 -6.503211E+04 -1.160520E+04 -1.126349E+05  2.917053E+02  4.594842E+03
        83   3 -2.168910E+05 -5.752604E+04 -5.666704E+03 -1.078250E+05  2.039484E+03  2.789923E+03
        83   4 -1.925459E+05 -4.879824E+04 -3.221446E+03 -1.011133E+05 -4.702838E+03  5.140734E+03
        83   5 -1.949546E+05 -4.623147E+04 -1.770657E+03 -9.826635E+04 -3.023955E+03  3.350951E+03
        83   6 -1.925372E+05 -4.874408E+04 -1.000212E+03 -1.011331E+05 -1.331763E+03  1.525273E+03
        83   7 -1.127082E+05 -1.996729E+04  1.182503E+04 -7.906565E+04 -7.963409E+03  3.917427E+03
        83   8 -1.428648E+05 -2.743067E+04  8.063754E+03 -8.389677E+04 -6.339896E+03  2.106956E+03
        83   9 -1.681829E+05 -3.996216E+04  3.666241E+03 -9.444110E+04 -4.703121E+03  2.605827E+02
        83  10 -2.723769E+05 -7.762868E+04 -1.826822E+04 -1.231583E+05  1.173514E-09 -1.704129E-10
        83  11 -2.470419E+05 -6.503213E+04 -1.160524E+04 -1.126349E+05 -9.587962E-10  1.231664E-10
        83  12 -2.168910E+05 -5.752604E+04 -5.666726E+03 -1.078250E+05 -1.901911E-09  5.582439E-11
        83  13 -1.925459E+05 -4.879828E+04 -3.221537E+03 -1.011133E+05 -2.354019E-09  8.727312E-10
        83  14 -1.949546E+05 -4.623148E+04 -1.770695E+03 -9.826635E+04 -2.661995E-09  1.862844E-09
        83  15 -1.925372E+05 -4.874409E+04 -1.000219E+03 -1.011331E+05  1.393725E-09  1.355225E-09
        83  16 -1.127083E+05 -1.996733E+04  1.182488E+04 -7.906562E+04 -1.237771E-09  2.146323E-09
        83  17 -1.428648E+05 -2.743069E+04  8.063670E+03 -8.389676E+04 -3.252177E-09  3.374972E-09
        83  18 -1.681830E+05 -3.996216E+04  3.666200E+03 -9.444110E+04 -1.089253E-10  2.643383E-09
        83  19 -2.723768E+05 -7.762864E+04 -1.826814E+04 -1.231583E+05  1.442715E+03 -6.363875E+03
        83  20 -2.470419E+05 -6.503211E+04 -1.160520E+04 -1.126349E+05 -2.917053E+02 -4.594842E+03
        83  21 -2.168910E+05 -5.752604E+04 -5.666704E+03 -1.078250E+05 -2.039484E+03 -2.789923E+03
        83  22 -1.925459E+05 -4.879824E+04 -3.221446E+03 -1.011133E+05  4.702838E+03 -5.140734E+03
        83  23 -1.949546E+05 -4.623147E+04 -1.770657E+03 -9.826635E+04  3.023955E+03 -3.350951E+03
        83  24 -1.925372E+05 -4.874408E+04 -1.000212E+03 -1.011331E+05  1.331763E+03 -1.525273E+03
        83  25 -1.127082E+05 -1.996729E+04  1.182503E+04 -7.906565E+04  7.963409E+03 -3.917427E+03
        83  26 -1.428648E+05 -2.743067E+04  8.063754E+03 -8.389677E+04  6.339896E+03 -2.106956E+03
        83  27 -1.681829E+05 -3.996216E+04  3.666241E+03 -9.444110E+04  4.703121E+03 -2.605827E+02
        84   1 -1.984328E+05 -5.083595E+04 -1.809025E+03 -1.027224E+05  2.655724E+03  1.576807E+03
        84   2 -1.731761E+05 -3.831935E+04  3.630290E+03 -9.217224E+04  3.714749E+03 -5.039226E+02
        84   3 -1.429755E+05 -3.078690E+04  8.887327E+03 -8.732992E+04  4.774679E+03 -2.586938E+03
        84   4 -1.925147E+05 -4.874838E+04 -7.701553E+02 -1.011223E+05 -7.098181E+02  3.143124E+02
        84   5 -1.949873E+05 -4.626205E+04 -4.830096E+02 -9.826612E+04  3.455481E+02 -1.767835E+03
        84   6 -1.925166E+05 -4.875951E+04 -3.754575E+02 -1.011183E+05  1.401803E+03 -3.852267E+03
        84   7 -1.865965E+05 -4.666078E+04  2.687767E+02 -9.952222E+04 -4.075425E+03 -9.482061E+02
        84   8 -2.167980E+05 -5.420473E+04 -4.596308E+03 -1.043598E+05 -3.023542E+03 -3.031705E+03
        84   9 -2.420551E+05 -6.673188E+04 -9.638295E+03 -1.149056E+05 -1.970785E+03 -5.117488E+03
        84  10 -1.984328E+05 -5.083596E+04 -1.809043E+03 -1.027224E+05 -1.260706E-08 -3.176352E-09
        84  11 -1.731761E+05 -3.831936E+04  3.630263E+03 -9.217224E+04 -1.756118E-08 -2.727496E-09
        84  12 -1.429755E+05 -3.078692E+04  8.887272E+03 -8.732991E+04 -1.285439E-08  2.157688E-09
        84  13 -1.925147E+05 -4.874838E+04 -7.701564E+02 -1.011223E+05  4.285868E-10 -1.505834E-09
        84  14 -1.949873E+05 -4.626205E+04 -4.830157E+02 -9.826612E+04 -5.030139E-10 -7.988426E-09
        84  15 -1.925166E+05 -4.875952E+04 -3.754890E+02 -1.011183E+05  1.461310E-08 -1.029456E-08
        84  16 -1.865965E+05 -4.666078E+04  2.687438E+02 -9.952223E+04  7.540280E-09  4.436206E-09
        84  17 -2.167980E+05 -5.420474E+04 -4.596343E+03 -1.043598E+05  1.362019E-08  6.825810E-09
        84  18 -2.420551E+05 -6.673191E+04 -9.638351E+03 -1.149057E+05  2.819358E-08  1.204629E-08
        84  19 -1.984328E+05 -5.083595E+04 -1.809025E+03 -1.027224E+05 -2.655724E+03 -1.576807E+03
        84  20 -1.731761E+05 -3.831935E+04  3.630290E+03 -9.217224E+04 -3.714749E+03  5.039226E+02
        84  21 -1.429755E+05 -3.078690E+04  8.887327E+03 -8.732992E+04 -4.774679E+03  2.586938E+03
        84  22 -1.925147E+05 -4.874838E+04 -7.701553E+02 -1.011223E+05  7.098181E+02 -3.143124E+02
        84  23 -1.949873E+05 -4.626205E+04 -4.830096E+02 -9.826612E+04 -3.455481E+02  1.767835E+03
        84  24 -1.925166E+05 -4.875951E+04 -3.754575E+02 -1.011183E+05 -1.401803E+03  3.852267E+03
        84  25 -1.865965E+05 -4.666078E+04  2.687767E+02 -9.952222E+04  4.075425E+03  9.482061E+02
        84  26 -2.167980E+05 -5.420473E+04 -4.596308E+03 -1.043598E+05  3.023542E+03  3.031705E+03
        84  27 -2.420551E+05 -6.673188E+04 -9.638295E+03 -1.149056E+05  1.970785E+03  5.117488E+03
        85   1 -1.245569E+05 -2.408154E+04  1.251557E+04 -8.222334E+04  5.312417E+03 -3.829957E+03
        85   2 -9.930851E+04 -1.155917E+04  1.756760E+04 -7.167651E+04  6.354941E+03 -5.918270E+03
        85   3 -6.911445E+04 -4.017885E+03  2.245049E+04 -6.683535E+04  7.396035E+03 -8.002283E+03
        85   4 -1.925173E+05 -4.875989E+04 -3.729576E+02 -1.011178E+05  1.939557E+03 -5.095334E+03
        85   5 -1.949895E+05 -4.626654E+04 -4.690971E+02 -9.826594E+04  2.988583E+03 -7.181359E+03
        85   6 -1.925181E+05 -4.875559E+04 -7.395210E+02 -1.011200E+05  4.036174E+03 -9.263094E+03
        85   7 -2.604722E+05 -7.343757E+04 -1.326145E+04 -1.200102E+05 -1.432878E+03 -6.360551E+03
        85   8 -2.906609E+05 -8.097308E+04 -1.850612E+04 -1.248516E+05 -3.772199E+02 -8.444239E+03
        85   9 -3.159069E+05 -9.349232E+04 -2.393040E+04 -1.353987E+05  6.769972E+02 -1.052365E+04
        85  10 -1.245569E+05 -2.408156E+04  1.251549E+04 -8.222333E+04  2.237366E-08  1.354437E-08
        85  11 -9.930856E+04 -1.155922E+04  1.756746E+04 -7.167648E+04  1.916026E-08  8.600641E-09
        85  12 -6.911452E+04 -4.017968E+03  2.245027E+04 -6.683530E+04  1.725338E-08  5.234369E-09
        85  13 -1.925173E+05 -4.875991E+04 -3.730134E+02 -1.011178E+05  1.623212E-08 -9.423323E-09
        85  14 -1.949895E+05 -4.626660E+04 -4.692108E+02 -9.826592E+04  5.326902E-09 -5.796552E-09
        85  15 -1.925181E+05 -4.875569E+04 -7.397128E+02 -1.011200E+05 -9.867017E-10 -2.235245E-09
        85  16 -2.604722E+05 -7.343762E+04 -1.326153E+04 -1.200102E+05 -1.913819E-09  2.294027E-09
        85  17 -2.906609E+05 -8.097315E+04 -1.850625E+04 -1.248516E+05 -1.331691E-08 -8.341374E-10
        85  18 -3.159069E+05 -9.349244E+04 -2.393061E+04 -1.353987E+05 -1.633275E-08 -4.826037E-09
        85  19 -1.245569E+05 -2.408154E+04  1.251557E+04 -8.222334E+04 -5.312417E+03  3.829957E+03
        85  20 -9.930851E+04 -1.155917E+04  1.756760E+04 -7.167651E+04 -6.354941E+03  5.918270E+03
        85  21 -6.911445E+04 -4.017885E+03  2.245049E+04 -6.683535E+04 -7.396035E+03  8.002283E+03
        85  22 -1.925173E+05 -4.875989E+04 -3.729576E+02 -1.011178E+05 -1.939557E+03  5.095334E+03
        85  23 -1.949895E+05 -4.626654E+04 -4.690971E+02 -9.826594E+04 -2.988583E+03  7.181359E+03
        85  24 -1.925181E+05 -4.875559E+04 -7.395210E+02 -1.011200E+05 -4.036174E+03  9.263094E+03
        85  25 -2.604722E+05 -7.343757E+04 -1.326145E+04 -1.200102E+05  1.432878E+03  6.360551E+03
        85  26 -2.906609E+05 -8.097308E+04 -1.850612E+04 -1.248516E+05  3.772199E+02  8.444239E+03
        85  27 -3.159069E+05 -9.349232E+04 -2.393040E+04 -1.353987E+05 -6.769972E+02  1.052365E+04
        86   1 -5.071264E+04  2.678899E+03  2.585787E+04 -6.175184E+04  8.019764E+03 -9.211133E+03
        86   2 -2.542675E+04  1.520283E+04  3.029770E+04 -5.121118E+04  9.585179E+03 -1.107097E+04
        86   3  4.706497E+03  2.267261E+04  3.415401E+04 -4.637605E+04  1.113065E+04 -1.287673E+04
        86   4 -1.925413E+05 -4.875208E+04 -9.579248E+02 -1.011293E+05  4.651818E+03 -1.047511E+04
        86   5 -1.949624E+05 -4.624557E+04 -1.691799E+03 -9.826628E+04  6.300696E+03 -1.230390E+04
        86   6 -1.925533E+05 -4.880994E+04 -3.075412E+03 -1.011093E+05  7.929585E+03 -1.407862E+04
        86   7 -3.343488E+05 -1.001812E+05 -2.777448E+04 -1.404983E+05  1.284697E+03 -1.173878E+04
        86   8 -3.644672E+05 -1.076911E+05 -3.368219E+04 -1.453092E+05  3.017188E+03 -1.353646E+04
        86   9 -3.897706E+05 -1.202883E+05 -4.030586E+04 -1.558259E+05  4.729637E+03 -1.528008E+04
        86  10 -5.071273E+04  2.678790E+03  2.585759E+04 -6.175178E+04 -6.066336E-09 -3.631399E-09
        86  11 -2.542689E+04  1.520267E+04  3.029730E+04 -5.121110E+04  3.040021E-09  2.913752E-09
        86  12  4.706319E+03  2.267240E+04  3.415347E+04 -4.637593E+04  1.569371E-08  1.134289E-08
        86  13 -1.925413E+05 -4.875220E+04 -9.581717E+02 -1.011292E+05 -1.769467E-09 -1.331769E-09
        86  14 -1.949625E+05 -4.624574E+04 -1.692158E+03 -9.826622E+04 -2.645072E-09 -2.513228E-09
        86  15 -1.925534E+05 -4.881017E+04 -3.075903E+03 -1.011092E+05  1.718282E-09 -4.311674E-09
        86  16 -3.343488E+05 -1.001814E+05 -2.777474E+04 -1.404983E+05  6.394018E-09  3.313532E-09
        86  17 -3.644672E+05 -1.076913E+05 -3.368255E+04 -1.453092E+05 -8.209056E-09  1.381281E-09
        86  18 -3.897707E+05 -1.202885E+05 -4.030634E+04 -1.558258E+05 -1.768968E-08 -2.122480E-09
        86  19 -5.071264E+04  2.678899E+03  2.585787E+04 -6.175184E+04 -8.019764E+03  9.211133E+03
        86  20 -2.542675E+04  1.520283E+04  3.029770E+04 -5.121118E+04 -9.585179E+03  1.107097E+04
        86  21  4.706497E+03  2.267261E+04  3.415401E+04 -4.637605E+04 -1.113065E+04  1.287673E+04
        86  22 -1.925413E+05 -4.875208E+04 -9.579248E+02 -1.011293E+05 -4.651818E+03  1.047511E+04
        86  23 -1.949624E+05 -4.624557E+04 -1.691799E+03 -9.826628E+04 -6.300696E+03  1.230390E+04
        86  24 -1.925533E+05 -4.880994E+04 -3.075412E+03 -1.011093E+05 -7.929585E+03  1.407862E+04
        86  25 -3.343488E+05 -1.001812E+05 -2.777448E+04 -1.404983E+05 -1.284697E+03  1.173878E+04
        86  26 -3.644672E+05 -1.076911E+05 -3.368219E+04 -1.453092E+05 -3.017188E+03  1.353646E+04
        86  27 -3.897706E+05 -1.202883E+05 -4.030586E+04 -1.558259E+05 -4.729637E+03  1.528008E+04
        87   1  2.317169E+04  2.924684E+04  3.678721E+04 -4.159903E+04  1.228516E+04 -1.386949E+04
        87   2  4.818956E+04  4.200814E+04  3.896753E+04 -3.023734E+04  1.562766E+04 -1.465392E+04
        87   3  7.717023E+04  4.812048E+04  3.870631E+04 -2.419196E+04  1.870779E+04 -1.473799E+04
        87   4 -1.927283E+05 -4.873776E+04 -4.088706E+03 -1.011999E+05  8.970353E+03 -1.511426E+04
        87   5 -1.947810E+05 -4.655920E+04 -7.462673E+03 -9.807189E+04  1.339719E+04 -1.549203E+04
        87   6 -1.930874E+05 -5.124554E+04 -1.413839E+04 -1.002610E+05  1.756148E+04 -1.516932E+04
        87   7 -4.085818E+05 -1.267190E+05 -4.496705E+04 -1.607821E+05  5.656743E+03 -1.635858E+04
        87   8 -4.376913E+05 -1.351215E+05 -5.389567E+04 -1.658821E+05  1.116764E+04 -1.632978E+04
        87   9 -4.632693E+05 -1.506047E+05 -6.698640E+04 -1.762993E+05  1.641571E+04 -1.560045E+04
        87  10  2.317147E+04  2.924659E+04  3.678657E+04 -4.159890E+04 -1.256114E-08  3.946826E-10
        87  11  4.818924E+04  4.200784E+04  3.896667E+04 -3.023716E+04 -2.840717E-09  1.603629E-09
        87  12  7.716980E+04  4.812015E+04  3.870525E+04 -2.419174E+04  7.144192E-09  4.162297E-09
        87  13 -1.927285E+05 -4.873803E+04 -4.089286E+03 -1.011998E+05 -1.074506E-09 -3.961255E-09
        87  14 -1.947813E+05 -4.655950E+04 -7.463461E+03 -9.807173E+04 -1.655397E-09 -2.743142E-09
        87  15 -1.930878E+05 -5.124587E+04 -1.413940E+04 -1.002608E+05 -6.318714E-09 -8.539208E-10
        87  16 -4.085819E+05 -1.267193E+05 -4.496761E+04 -1.607820E+05  1.304290E-08  9.005063E-09
        87  17 -4.376915E+05 -1.351219E+05 -5.389640E+04 -1.658820E+05 -1.292124E-09  4.146580E-09
        87  18 -4.632697E+05 -1.506051E+05 -6.698736E+04 -1.762991E+05 -2.041194E-08 -4.236857E-09
        87  19  2.317169E+04  2.924684E+04  3.678721E+04 -4.159903E+04 -1.228516E+04  1.386949E+04
        87  20  4.818956E+04  4.200814E+04  3.896753E+04 -3.023734E+04 -1.562766E+04  1.465392E+04
        87  21  7.717023E+04  4.812048E+04  3.870631E+04 -2.419196E+04 -1.870779E+04  1.473799E+04
        87  22 -1.927283E+05 -4.873776E+04 -4.088706E+03 -1.011999E+05 -8.970353E+03  1.511426E+04
        87  23 -1.947810E+05 -4.655920E+04 -7.462673E+03 -9.807189E+04 -1.339719E+04  1.549203E+04
        87  24 -1.930874E+05 -5.124554E+04 -1.413839E+04 -1.002610E+05 -1.756148E+04  1.516932E+04
        87  25 -4.085818E+05 -1.267190E+05 -4.496705E+04 -1.607821E+05 -5.656743E+03  1.635858E+04
        87  26 -4.376913E+05 -1.351215E+05 -5.389567E+04 -1.658821E+05 -1.116764E+04  1.632978E+04
        87  27 -4.632693E+05 -1.506047E+05 -6.698640E+04 -1.762993E+05 -1.641571E+04  1.560045E+04
        88   1  9.777039E+04  5.232908E+04  3.816998E+04 -2.511099E+04  2.273971E+04 -1.444426E+04
        88   2  1.112412E+05  7.091195E+04  3.226863E+04  8.173062E+03  2.584755E+04 -9.993044E+03
        88   3  1.146726E+05  4.782366E+04  1.303933E+04  4.620246E+04  2.551260E+04  3.623264E+03
        88   4 -1.954012E+05 -4.983614E+04 -1.863481E+04 -1.016960E+05  2.009066E+04 -1.543986E+04
        88   5 -1.931522E+05 -5.718917E+04 -3.514593E+04 -9.295510E+04  3.740473E+04 -5.654057E+03
        88   6 -2.037659E+05 -1.090419E+05 -7.624709E+04 -7.946824E+04  5.127458E+04  1.329846E+04
        88   7 -4.884834E+05 -1.519955E+05 -7.544324E+04 -1.782481E+05  1.744295E+04 -1.643499E+04
        88   8 -4.974457E+05 -1.852723E+05 -1.025643E+05 -1.940332E+05  4.895566E+04 -1.318188E+03
        88   9 -5.220919E+05 -2.658726E+05 -1.655373E+05 -2.050697E+05  7.702152E+04  2.296407E+04
        88  10  9.776978E+04  5.232872E+04  3.816861E+04 -2.511072E+04 -8.940962E-09 -4.586438E-10
        88  11  1.112405E+05  7.091167E+04  3.226719E+04  8.173270E+03 -2.185188E-09  3.797722E-09
        88  12  1.146719E+05  4.782347E+04  1.303809E+04  4.620239E+04  1.760831E-09  2.221161E-09
        88  13 -1.954017E+05 -4.983650E+04 -1.863602E+04 -1.016957E+05 -6.492812E-09 -5.888682E-11
        88  14 -1.931538E+05 -5.718958E+04 -3.514862E+04 -9.295493E+04 -1.444435E-09  3.537217E-09
        88  15 -2.037688E+05 -1.090428E+05 -7.625237E+04 -7.946878E+04  1.378000E-09  1.683780E-09
        88  16 -4.884838E+05 -1.519958E+05 -7.544432E+04 -1.782479E+05 -2.551132E-09  1.025544E-09
        88  17 -4.974482E+05 -1.852729E+05 -1.025688E+05 -1.940332E+05  1.284578E-09  1.370215E-09
        88  18 -5.220984E+05 -2.658747E+05 -1.655495E+05 -2.050711E+05  3.446942E-10 -9.744344E-10
        88  19  9.777039E+04  5.232908E+04  3.816998E+04 -2.511099E+04 -2.273971E+04  1.444426E+04
        88  20  1.112412E+05  7.091195E+04  3.226863E+04  8.173062E+03 -2.584755E+04  9.993044E+03
        88  21  1.146726E+05  4.782366E+04  1.303933E+04  4.620246E+04 -2.551260E+04 -3.623264E+03
        88  22 -1.954012E+05 -4.983614E+04 -1.863481E+04 -1.016960E+05 -2.009066E+04  1.543986E+04
        88  23 -1.931522E+05 -5.718917E+04 -3.514593E+04 -9.295510E+04 -3.740473E+04  5.654057E+03
        88  24 -2.037659E+05 -1.090419E+05 -7.624709E+04 -7.946824E+04 -5.127458E+04 -1.329846E+04
        88  25 -4.884834E+05 -1.519955E+05 -7.544324E+04 -1.782481E+05 -1.744295E+04  1.643499E+04
        88  26 -4.974457E+05 -1.852723E+05 -1.025643E+05 -1.940332E+05 -4.895566E+04  1.318188E+03
        88  27 -5.220919E+05 -2.658726E+05 -1.655373E+05 -2.050697E+05 -7.702152E+04 -2.296407E+04
        89   1  8.569793E+05  1.326159E+05  1.181742E+05  1.800295E+04  3.859982E+04 -9.659216E+03
        89   2  8.214104E+05  1.448413E+05  9.616550E+04  3.003923E+04  1.699808E+04 -3.354249E+04
        89   3  7.854522E+05  1.441859E+05  8.500602E+04  4.681782E+04 -4.612750E+03 -4.279626E+04
        89   4  1.369071E+05 -4.432413E+04 -4.718881E+04  4.748016E+04 -3.328954E+04 -9.725612E+03
        89   5  1.400374E+05 -1.529889E+04 -2.373539E+04  4.508756E+04 -2.114994E+04 -3.358453E+04
        89   6  1.369195E+05 -5.018162E+03 -1.285218E+04  4.743697E+04 -9.021124E+03 -4.280555E+04
        89   7 -5.826727E+05 -2.212942E+05 -2.125661E+05  7.692283E+04 -1.050963E+05 -9.798870E+03
        89   8 -5.408783E+05 -1.754628E+05 -1.436476E+05  6.011878E+04 -5.925736E+04 -3.362843E+04
        89   9 -5.111918E+05 -1.542423E+05 -1.107188E+05  4.805532E+04 -1.342508E+04 -4.281485E+04
        89  10  8.569777E+05  1.326154E+05  1.181712E+05  1.800325E+04 -6.298013E-08 -1.082958E-09
        89  11  8.214098E+05  1.448400E+05  9.616284E+04  3.003969E+04  6.048623E-09 -3.809890E-09
        89  12  7.854517E+05  1.441840E+05  8.500254E+04  4.681766E+04  7.054626E-08 -2.305214E-09
        89  13  1.369059E+05 -4.432453E+04 -4.719107E+04  4.747990E+04 -1.868598E-09  1.470958E-10
        89  14  1.400366E+05 -1.530022E+04 -2.373835E+04  4.508698E+04 -2.734739E-10 -2.570225E-09
        89  15  1.369189E+05 -5.020151E+03 -1.285578E+04  4.743666E+04  2.557072E-09 -5.828831E-10
        89  16 -5.826846E+05 -2.212973E+05 -2.125871E+05  7.692200E+04  6.052421E-08 -1.324568E-10
        89  17 -5.408824E+05 -1.754650E+05 -1.436563E+05  6.011717E+04 -4.263092E-09 -4.271142E-09
        89  18 -5.111925E+05 -1.542443E+05 -1.107226E+05  4.805485E+04 -7.015041E-08 -3.969147E-09
        89  19  8.569793E+05  1.326159E+05  1.181742E+05  1.800295E+04 -3.859982E+04  9.659216E+03
        89  20  8.214104E+05  1.448413E+05  9.616550E+04  3.003923E+04 -1.699808E+04  3.354249E+04
        89  21  7.854522E+05  1.441859E+05  8.500602E+04  4.681782E+04  4.612750E+03  4.279626E+04
        89  22  1.369071E+05 -4.432413E+04 -4.718881E+04  4.748016E+04  3.328954E+04  9.725612E+03
        89  23  1.400374E+05 -1.529889E+04 -2.373539E+04  4.508756E+04  2.114994E+04  3.358453E+04
        89  24  1.369195E+05 -5.018162E+03 -1.285218E+04  4.743697E+04  9.021124E+03  4.280555E+04
        89  25 -5.826727E+05 -2.212942E+05 -2.125661E+05  7.692283E+04  1.050963E+05  9.798870E+03
        89  26 -5.408783E+05 -1.754628E+05 -1.436476E+05  6.011878E+04  5.925736E+04  3.362843E+04
        89  27 -5.111918E+05 -1.542423E+05 -1.107188E+05  4.805532E+04  1.342508E+04  4.281485E+04
        90   1  7.635936E+05  1.395898E+05  8.177663E+04  4.609814E+04 -3.733908E+03 -4.327038E+04
        90   2  7.279802E+05  1.330081E+05  7.626009E+04  4.431737E+04 -5.509329E+03 -4.389347E+04
        90   3  6.923582E+05  1.254511E+05  7.165763E+04  4.835465E+04 -7.287305E+03 -4.261646E+04
        90   4  1.381420E+05 -3.703665E+03 -9.603163E+03  4.767807E+04 -7.351495E+03 -4.327893E+04
        90   5  1.385337E+05 -1.108835E+03 -5.195792E+03  4.476658E+04 -4.746516E+03 -4.389676E+04
        90   6  1.381557E+05 -2.498435E+02 -2.915080E+03  4.767351E+04 -2.144114E+03 -4.261353E+04
        90   7 -4.869157E+05 -1.470152E+05 -1.009896E+05  4.925622E+04 -1.096559E+04 -4.328751E+04
        90   8 -4.505603E+05 -1.352410E+05 -8.665570E+04  4.521522E+04 -3.984393E+03 -4.390005E+04
        90   9 -4.157340E+05 -1.259640E+05 -7.749046E+04  4.699290E+04  2.994701E+03 -4.261061E+04
        90  10  7.635931E+05  1.395878E+05  8.177308E+04  4.609801E+04 -2.997478E-09 -2.231381E-09
        90  11  7.279796E+05  1.330060E+05  7.625642E+04  4.431718E+04  3.829049E-10  3.314709E-10
        90  12  6.923576E+05  1.254491E+05  7.165412E+04  4.835440E+04  2.741864E-09 -1.228508E-10
        90  13  1.381415E+05 -3.705691E+03 -9.606785E+03  4.767781E+04  3.038171E-10 -1.506526E-09
        90  14  1.385331E+05 -1.110910E+03 -5.199456E+03  4.476641E+04 -3.547170E-09  2.903320E-10
        90  15  1.381552E+05 -2.517948E+02 -2.918501E+03  4.767344E+04  9.461819E-10 -1.364746E-09
        90  16 -4.869163E+05 -1.470172E+05 -1.009933E+05  4.925584E+04  3.097396E-09 -6.479418E-11
        90  17 -4.505609E+05 -1.352431E+05 -8.665935E+04  4.521508E+04 -1.685794E-09  1.745905E-09
        90  18 -4.157345E+05 -1.259659E+05 -7.749389E+04  4.699300E+04 -2.970754E-09  1.193867E-09
        90  19  7.635936E+05  1.395898E+05  8.177663E+04  4.609814E+04  3.733908E+03  4.327038E+04
        90  20  7.279802E+05  1.330081E+05  7.626009E+04  4.431737E+04  5.509329E+03  4.389347E+04
        90  21  6.923582E+05  1.254511E+05  7.165763E+04  4.835465E+04  7.287305E+03  4.261646E+04
        90  22  1.381420E+05 -3.703665E+03 -9.603163E+03  4.767807E+04  7.351495E+03  4.327893E+04
        90  23  1.385337E+05 -1.108835E+03 -5.195792E+03  4.476658E+04  4.746516E+03  4.389676E+04
        90  24  1.381557E+05 -2.498435E+02 -2.915080E+03  4.767351E+04  2.144114E+03  4.261353E+04
        90  25 -4.869157E+05 -1.470152E+05 -1.009896E+05  4.925622E+04  1.096559E+04  4.328751E+04
        90  26 -4.505603E+05 -1.352410E+05 -8.665570E+04  4.521522E+04  3.984393E+03  4.390005E+04
        90  27 -4.157340E+05 -1.259640E+05 -7.749046E+04  4.699290E+04 -2.994701E+03  4.261061E+04
        91   1  6.703201E+05  1.204208E+05  6.890329E+04  4.824193E+04 -6.958523E+03 -4.123555E+04
        91   2  6.347488E+05  1.124376E+05  6.456276E+04  4.529542E+04 -6.916316E+03 -3.883844E+04
        91   3  5.991582E+05  1.044176E+05  6.018419E+04  4.830142E+04 -6.875149E+03 -3.619495E+04
        91   4  1.383047E+05 -1.516870E+02 -2.198139E+03  4.770365E+04 -1.713765E+03 -4.123199E+04
        91   5  1.383703E+05  4.790148E+01 -1.232571E+03  4.472706E+04 -1.103989E+03 -3.883330E+04
        91   6  1.383167E+05  1.122144E+02 -6.992798E+02  4.770326E+04 -4.952489E+02 -3.618812E+04
        91   7 -3.934222E+05 -1.207363E+05 -7.330183E+04  4.716575E+04  3.526712E+03 -4.122844E+04
        91   8 -3.577568E+05 -1.123522E+05 -6.702965E+04  4.415908E+04  4.703914E+03 -3.882816E+04
        91   9 -3.223080E+05 -1.042022E+05 -6.158414E+04  4.710548E+04  5.880142E+03 -3.618130E+04
        91  10  6.703196E+05  1.204190E+05  6.890000E+04  4.824170E+04  1.711697E-09  6.261883E-10
        91  11  6.347484E+05  1.124360E+05  6.455984E+04  4.529520E+04 -5.177568E-10  1.551726E-09
        91  12  5.991578E+05  1.044162E+05  6.018164E+04  4.830122E+04  5.924077E-09  2.147426E-09
        91  13  1.383042E+05 -1.535135E+02 -2.201339E+03  4.770359E+04  2.579287E-10 -2.130463E-09
        91  14  1.383699E+05  4.628169E+01 -1.235407E+03  4.472703E+04  2.867049E-09  1.360766E-09
        91  15  1.383163E+05  1.108080E+02 -7.017414E+02  4.770324E+04  2.260347E-09  3.576009E-09
        91  16 -3.934227E+05 -1.207381E+05 -7.330505E+04  4.716587E+04  3.970288E-10  1.560921E-09
        91  17 -3.577572E+05 -1.123539E+05 -6.703252E+04  4.415923E+04 -3.730053E-09  2.083551E-09
        91  18 -3.223084E+05 -1.042036E+05 -6.158667E+04  4.710565E+04 -4.866310E-09 -8.842096E-11
        91  19  6.703201E+05  1.204208E+05  6.890329E+04  4.824193E+04  6.958523E+03  4.123555E+04
        91  20  6.347488E+05  1.124376E+05  6.456276E+04  4.529542E+04  6.916316E+03  3.883844E+04
        91  21  5.991582E+05  1.044176E+05  6.018419E+04  4.830142E+04  6.875149E+03  3.619495E+04
        91  22  1.383047E+05 -1.516870E+02 -2.198139E+03  4.770365E+04  1.713765E+03  4.123199E+04
        91  23  1.383703E+05  4.790148E+01 -1.232571E+03  4.472706E+04  1.103989E+03  3.883330E+04
        91  24  1.383167E+05  1.122144E+02 -6.992798E+02  4.770326E+04  4.952489E+02  3.618812E+04
        91  25 -3.934222E+05 -1.207363E+05 -7.330183E+04  4.716575E+04 -3.526712E+03  4.122844E+04
        91  26 -3.577568E+05 -1.123522E+05 -6.702965E+04  4.415908E+04 -4.703914E+03  3.882816E+04
        91  27 -3.223080E+05 -1.042022E+05 -6.158414E+04  4.710548E+04 -5.880142E+03  3.618130E+04
        92   1  5.771226E+05  9.939881E+04  5.727701E+04  4.826650E+04 -6.780455E+03 -3.457396E+04
        92   2  5.415700E+05  9.135388E+04  5.280565E+04  4.524570E+04 -6.711122E+03 -3.178588E+04
        92   3  5.060023E+05  8.333080E+04  4.829076E+04  4.819132E+04 -6.642452E+03 -2.896624E+04
        92   4  1.383403E+05  1.180734E+02 -5.271196E+02  4.770638E+04 -3.881942E+02 -3.456664E+04
        92   5  1.383600E+05  1.237766E+02 -2.937957E+02  4.472304E+04 -2.463876E+02 -3.177772E+04
        92   6  1.383501E+05  1.386250E+02 -1.546372E+02  4.770635E+04 -1.052410E+02 -2.895722E+04
        92   7 -3.002453E+05 -9.917077E+04 -5.833245E+04  4.714659E+04  5.999766E+03 -3.455932E+04
        92   8 -2.646839E+05 -9.111316E+04 -5.339422E+04  4.420068E+04  6.214350E+03 -3.176956E+04
        92   9 -2.291639E+05 -8.305923E+04 -4.860082E+04  4.722163E+04  6.428284E+03 -2.894822E+04
        92  10  5.771222E+05  9.939752E+04  5.727468E+04  4.826631E+04  2.942305E-08  1.451704E-09
        92  11  5.415697E+05  9.135278E+04  5.280366E+04  4.524553E+04 -1.909443E-09  1.407674E-09
        92  12  5.060021E+05  8.332988E+04  4.828910E+04  4.819117E+04 -3.887351E-08 -3.564557E-09
        92  13  1.383400E+05  1.167902E+02 -5.293654E+02  4.770637E+04  3.812319E-10  3.667371E-09
        92  14  1.383597E+05  1.226921E+02 -2.956936E+02  4.472304E+04  7.735249E-10  1.135477E-08
        92  15  1.383499E+05  1.377245E+02 -1.562131E+02  4.770635E+04  4.198363E-10  1.220667E-08
        92  16 -3.002456E+05 -9.917206E+04 -5.833476E+04  4.714676E+04 -2.913244E-08 -2.742496E-10
        92  17 -2.646842E+05 -9.111426E+04 -5.339618E+04  4.420084E+04  3.759162E-09 -1.949281E-09
        92  18 -2.291642E+05 -8.306014E+04 -4.860247E+04  4.722178E+04  3.934337E-08 -5.891712E-09
        92  19  5.771226E+05  9.939881E+04  5.727701E+04  4.826650E+04  6.780455E+03  3.457396E+04
        92  20  5.415700E+05  9.135388E+04  5.280565E+04  4.524570E+04  6.711122E+03  3.178588E+04
        92  21  5.060023E+05  8.333080E+04  4.829076E+04  4.819132E+04  6.642452E+03  2.896624E+04
        92  22  1.383403E+05  1.180734E+02 -5.271196E+02  4.770638E+04  3.881942E+02  3.456664E+04
        92  23  1.383600E+05  1.237766E+02 -2.937957E+02  4.472304E+04  2.463876E+02  3.177772E+04
        92  24  1.383501E+05  1.386250E+02 -1.546372E+02  4.770635E+04  1.052410E+02  2.895722E+04
        92  25 -3.002453E+05 -9.917077E+04 -5.833245E+04  4.714659E+04 -5.999766E+03  3.455932E+04
        92  26 -2.646839E+05 -9.111316E+04 -5.339422E+04  4.420068E+04 -6.214350E+03  3.176956E+04
        92  27 -2.291639E+05 -8.305923E+04 -4.860082E+04  4.722163E+04 -6.428284E+03  2.894822E+04
        93   1  4.839746E+05  7.832329E+04  4.531139E+04  4.816697E+04 -6.622041E+03 -2.731471E+04
        93   2  4.484369E+05  7.028647E+04  4.076137E+04  4.514271E+04 -6.618259E+03 -2.447721E+04
        93   3  4.128863E+05  6.227328E+04  3.620874E+04  4.808766E+04 -6.614955E+03 -2.163660E+04
        93   4  1.383563E+05  1.408691E+02 -1.062738E+02  4.770697E+04 -8.393962E+01 -2.730531E+04
        93   5  1.383676E+05  1.350482E+02 -3.060067E+01  4.472228E+04 -7.309918E+01 -2.446723E+04
        93   6  1.383639E+05  1.517963E+02  3.760506E+01  4.770696E+04 -6.273686E+01 -2.162604E+04
        93   7 -2.071398E+05 -7.804656E+04 -4.552459E+04  4.724718E+04  6.450697E+03 -2.729591E+04
        93   8 -1.716034E+05 -7.002041E+04 -4.082307E+04  4.430202E+04  6.468948E+03 -2.445726E+04
        93   9 -1.360814E+05 -6.197285E+04 -3.613389E+04  4.732640E+04  6.486723E+03 -2.161548E+04
        93  10  4.839743E+05  7.832248E+04  4.530991E+04  4.816682E+04 -1.596794E-08 -8.248529E-09
        93  11  4.484367E+05  7.028582E+04  4.076016E+04  4.514258E+04  9.236739E-09 -6.307848E-09
        93  12  4.128861E+05  6.227277E+04  3.620777E+04  4.808755E+04  3.650657E-08 -2.734969E-09
        93  13  1.383561E+05  1.400685E+02 -1.076750E+02  4.770696E+04 -5.733657E-10  1.421862E-08
        93  14  1.383674E+05  1.344053E+02 -3.172572E+01  4.472228E+04 -4.156345E-10  5.378806E-09
        93  15  1.383638E+05  1.512941E+02  3.672612E+01  4.770696E+04 -2.333946E-09  9.999585E-11
        93  16 -2.071400E+05 -7.804737E+04 -4.552607E+04  4.724732E+04  1.611563E-08 -4.806956E-09
        93  17 -1.716036E+05 -7.002106E+04 -4.082428E+04  4.430215E+04 -9.450628E-09 -5.640319E-09
        93  18 -1.360816E+05 -6.197336E+04 -3.613485E+04  4.732651E+04 -3.842898E-08 -2.510781E-09
        93  19  4.839746E+05  7.832329E+04  4.531139E+04  4.816697E+04  6.622041E+03  2.731471E+04
        93  20  4.484369E+05  7.028647E+04  4.076137E+04  4.514271E+04  6.618259E+03  2.447721E+04
        93  21  4.128863E+05  6.227328E+04  3.620874E+04  4.808766E+04  6.614955E+03  2.163660E+04
        93  22  1.383563E+05  1.408691E+02 -1.062738E+02  4.770697E+04  8.393962E+01  2.730531E+04
        93  23  1.383676E+05  1.350482E+02 -3.060067E+01  4.472228E+04  7.309918E+01  2.446723E+04
        93  24  1.383639E+05  1.517963E+02  3.760506E+01  4.770696E+04  6.273686E+01  2.162604E+04
        93  25 -2.071398E+05 -7.804656E+04 -4.552459E+04  4.724718E+04 -6.450697E+03  2.729591E+04
        93  26 -1.716034E+05 -7.002041E+04 -4.082307E+04  4.430202E+04 -6.468948E+03  2.445726E+04
        93  27 -1.360814E+05 -6.197285E+04 -3.613389E+04  4.732640E+04 -6.486723E+03  2.161548E+04
        94   1  3.908692E+05  5.726943E+04  3.322414E+04  4.806377E+04 -6.626712E+03 -1.998218E+04
        94   2  3.553375E+05  4.924197E+04  2.869889E+04  4.502861E+04 -6.703660E+03 -1.714269E+04
        94   3  3.198045E+05  4.125783E+04  2.422724E+04  4.795988E+04 -6.780927E+03 -1.430821E+04
        94   4  1.383693E+05  1.545713E+02  7.413486E+01  4.770634E+04 -7.517034E+01 -1.997133E+04
        94   5  1.383722E+05  1.549738E+02  1.689265E+02  4.472303E+04 -1.638248E+02 -1.713147E+04
        94   6  1.383745E+05  2.007565E+02  3.253320E+02  4.770626E+04 -2.528019E+02 -1.429661E+04
        94   7 -1.140654E+05 -5.696295E+04 -3.307613E+04  4.734903E+04  6.473835E+03 -1.996050E+04
        94   8 -7.854493E+04 -4.893398E+04 -2.836120E+04  4.441754E+04  6.373835E+03 -1.712025E+04
        94   9 -4.302172E+04 -4.085768E+04 -2.357665E+04  4.745271E+04  6.273507E+03 -1.428502E+04
        94  10  3.908690E+05  5.726899E+04  3.322330E+04  4.806366E+04  6.525177E-08  2.662510E-09
        94  11  3.553374E+05  4.924164E+04  2.869825E+04  4.502852E+04 -9.917955E-10  3.179598E-09
        94  12  3.198044E+05  4.125760E+04  2.422677E+04  4.795980E+04 -6.927014E-08  5.296345E-09
        94  13  1.383691E+05  1.541430E+02  7.338528E+01  4.770633E+04 -3.826877E-09  2.512144E-10
        94  14  1.383721E+05  1.546586E+02  1.683749E+02  4.472303E+04 -3.660206E-09  2.389740E-09
        94  15  1.383745E+05  2.005370E+02  3.249478E+02  4.770626E+04 -2.655044E-09  4.591390E-09
        94  16 -1.140656E+05 -5.696339E+04 -3.307696E+04  4.734913E+04 -6.591908E-08  1.504864E-09
        94  17 -7.854505E+04 -4.893431E+04 -2.836183E+04  4.441763E+04  9.235505E-10 -3.851807E-09
        94  18 -4.302182E+04 -4.085791E+04 -2.357711E+04  4.745278E+04  6.888314E-08  2.925845E-09
        94  19  3.908692E+05  5.726943E+04  3.322414E+04  4.806377E+04  6.626712E+03  1.998218E+04
        94  20  3.553375E+05  4.924197E+04  2.869889E+04  4.502861E+04  6.703660E+03  1.714269E+04
        94  21  3.198045E+05  4.125783E+04  2.422724E+04  4.795988E+04  6.780927E+03  1.430821E+04
        94  22  1.383693E+05  1.545713E+02  7.413486E+01  4.770634E+04  7.517034E+01  1.997133E+04
        94  23  1.383722E+05  1.549738E+02  1.689265E+02  4.472303E+04  1.638248E+02  1.713147E+04
        94  24  1.383745E+05  2.007565E+02  3.253320E+02  4.770626E+04  2.528019E+02  1.429661E+04
        94  25 -1.140654E+05 -5.696295E+04 -3.307613E+04  4.734903E+04 -6.473835E+03  1.996050E+04
        94  26 -7.854493E+04 -4.893398E+04 -2.836120E+04  4.441754E+04 -6.373835E+03  1.712025E+04
        94  27 -4.302172E+04 -4.085768E+04 -2.357665E+04  4.745271E+04 -6.273507E+03  1.428502E+04
        95   1  2.978105E+05  3.626640E+04  2.131151E+04  4.795017E+04 -6.845497E+03 -1.265882E+04
        95   2  2.622452E+05  2.835236E+04  1.700289E+04  4.474704E+04 -7.151360E+03 -9.848694E+03
        95   3  2.267639E+05  2.071255E+04  1.295385E+04  4.750557E+04 -7.457319E+03 -7.079514E+03
        95   4  1.383980E+05  2.167664E+02  4.375650E+02  4.770526E+04 -3.199727E+02 -1.264705E+04
        95   5  1.383502E+05  3.368074E+02  7.893603E+02  4.472393E+04 -7.203839E+02 -9.836873E+03
        95   6  1.384009E+05  7.473936E+02  1.466121E+03  4.770430E+04 -1.120905E+03 -7.067652E+03
        95   7 -2.098844E+04 -3.583391E+04 -2.043638E+04  4.746041E+04  6.203957E+03 -1.263528E+04
        95   8  1.447097E+04 -2.767936E+04 -1.542411E+04  4.470082E+04  5.709370E+03 -9.825051E+03
        95   9  5.004605E+04 -1.921806E+04 -1.002151E+04  4.790300E+04  5.214650E+03 -7.055784E+03
        95  10  2.978104E+05  3.626622E+04  2.131112E+04  4.795010E+04  1.314730E-07  8.291260E-09
        95  11  2.622451E+05  2.835224E+04  1.700261E+04  4.474699E+04  9.883663E-11  3.602156E-09
        95  12  2.267638E+05  2.071248E+04  1.295366E+04  4.750552E+04 -1.300622E-07  3.710068E-09
        95  13  1.383979E+05  2.165946E+02  4.372642E+02  4.770526E+04 -1.648906E-09  6.256010E-09
        95  14  1.383501E+05  3.367033E+02  7.891775E+02  4.472393E+04  3.906638E-09  7.046630E-09
        95  15  1.384009E+05  7.473396E+02  1.466024E+03  4.770429E+04  2.503345E-09  1.399655E-09
        95  16 -2.098853E+04 -3.583409E+04 -2.043675E+04  4.746047E+04 -1.305022E-07  5.470834E-09
        95  17  1.447090E+04 -2.767948E+04 -1.542435E+04  4.470086E+04 -1.188448E-10  4.532419E-09
        95  18  5.004601E+04 -1.921812E+04 -1.002165E+04  4.790303E+04  1.319381E-07 -2.527479E-09
        95  19  2.978105E+05  3.626640E+04  2.131151E+04  4.795017E+04  6.845497E+03  1.265882E+04
        95  20  2.622452E+05  2.835236E+04  1.700289E+04  4.474704E+04  7.151360E+03  9.848694E+03
        95  21  2.267639E+05  2.071255E+04  1.295385E+04  4.750557E+04  7.457319E+03  7.079514E+03
        95  22  1.383980E+05  2.167664E+02  4.375650E+02  4.770526E+04  3.199727E+02  1.264705E+04
        95  23  1.383502E+05  3.368074E+02  7.893603E+02  4.472393E+04  7.203839E+02  9.836873E+03
        95  24  1.384009E+05  7.473936E+02  1.466121E+03  4.770430E+04  1.120905E+03  7.067652E+03
        95  25 -2.098844E+04 -3.583391E+04 -2.043638E+04  4.746041E+04 -6.203957E+03  1.263528E+04
        95  26  1.447097E+04 -2.767936E+04 -1.542411E+04  4.470082E+04 -5.709370E+03  9.825051E+03
        95  27  5.004605E+04 -1.921806E+04 -1.002151E+04  4.790300E+04 -5.214650E+03  7.055784E+03
        96   1  2.049185E+05  1.589031E+04  1.035926E+04  4.761646E+04 -7.697846E+03 -5.470447E+03
        96   2  1.689992E+05  9.355760E+03  7.038201E+03  4.238665E+04 -8.828289E+03 -2.887965E+03
        96   3  1.338930E+05  5.590607E+03  5.136893E+03  4.309220E+04 -9.958182E+03 -6.202789E+02
        96   4  1.385882E+05  9.484400E+02  1.963823E+03  4.769913E+04 -1.378763E+03 -5.458534E+03
        96   5  1.381193E+05  2.509650E+03  3.628529E+03  4.472591E+04 -3.234749E+03 -2.877402E+03
        96   6  1.385885E+05  6.966384E+03  7.216771E+03  4.768796E+04 -5.090250E+03 -6.110850E+02
        96   7  7.226245E+04 -1.399359E+04 -6.431476E+03  4.778179E+04  4.939679E+03 -5.446618E+03
        96   8  1.072404E+05 -4.336456E+03  2.189853E+02  4.706505E+04  2.358528E+03 -2.866798E+03
        96   9  1.432841E+05  8.342250E+03  9.296747E+03  5.228376E+04 -2.222781E+02 -6.018191E+02
        96  10  2.049184E+05  1.589026E+04  1.035909E+04  4.761642E+04 -7.434056E-08  2.048214E-09
        96  11  1.689991E+05  9.355730E+03  7.038039E+03  4.238663E+04 -2.836547E-09 -1.552989E-09
        96  12  1.338929E+05  5.590580E+03  5.136706E+03  4.309220E+04  6.304665E-08 -7.587911E-10
        96  13  1.385881E+05  9.484075E+02  1.963763E+03  4.769912E+04  1.645867E-09  3.105302E-09
        96  14  1.381192E+05  2.509639E+03  3.628493E+03  4.472591E+04  4.469311E-10 -4.971382E-09
        96  15  1.385885E+05  6.966376E+03  7.216722E+03  4.768796E+04  1.194371E-09  1.602039E-09
        96  16  7.226242E+04 -1.399363E+04 -6.431578E+03  4.778181E+04  7.469339E-08  1.448463E-10
        96  17  1.072404E+05 -4.336467E+03  2.189594E+02  4.706506E+04  4.823861E-09 -3.049020E-09
        96  18  1.432841E+05  8.342249E+03  9.296746E+03  5.228376E+04 -6.209806E-08 -1.414388E-09
        96  19  2.049185E+05  1.589031E+04  1.035926E+04  4.761646E+04  7.697846E+03  5.470447E+03
        96  20  1.689992E+05  9.355760E+03  7.038201E+03  4.238665E+04  8.828289E+03  2.887965E+03
        96  21  1.338930E+05  5.590607E+03  5.136893E+03  4.309220E+04  9.958182E+03  6.202789E+02
        96  22  1.385882E+05  9.484400E+02  1.963823E+03  4.769913E+04  1.378763E+03  5.458534E+03
        96  23  1.381193E+05  2.509650E+03  3.628529E+03  4.472591E+04  3.234749E+03  2.877402E+03
        96  24  1.385885E+05  6.966384E+03  7.216771E+03  4.768796E+04  5.090250E+03  6.110850E+02
        96  25  7.226245E+04 -1.399359E+04 -6.431476E+03  4.778179E+04 -4.939679E+03  5.446618E+03
        96  26  1.072404E+05 -4.336456E+03  2.189853E+02  4.706505E+04 -2.358528E+03  2.866798E+03
        96  27  1.432841E+05  8.342250E+03  9.296747E+03  5.228376E+04  2.222781E+02  6.018191E+02
        97   1  7.569007E+03  3.985056E+05  8.984806E+03 -4.316202E+04 -6.081263E+02  2.971739E+02
        97   2 -6.840031E+03  3.590881E+05 -1.038918E+03 -3.643961E+04 -2.901271E+03 -2.663203E+03
        97   3 -1.711875E+04  3.210709E+05 -8.108720E+03 -3.864094E+04 -5.514986E+03 -5.623639E+03
        97   4  6.658781E+03  3.954252E+05  7.557951E+03 -3.892840E+04 -6.112988E+02  3.835247E+03
        97   5  1.446573E+03  3.947716E+05  4.746789E+03 -3.446931E+04 -2.904873E+03  1.405831E+03
        97   6  2.726642E+02  3.954253E+05  4.521153E+03 -3.893383E+04 -5.518990E+03 -1.023806E+03
        97   7  5.748627E+03  3.923450E+05  6.131151E+03 -3.469480E+04 -6.144231E+02  7.373301E+03
        97   8  9.733137E+03  4.304564E+05  1.053253E+04 -3.249890E+04 -2.908449E+03  5.475090E+03
        97   9  1.766380E+04  4.697852E+05  1.715093E+04 -3.922675E+04 -5.522998E+03  3.576561E+03
        97  10  7.569006E+03  3.985056E+05  8.984805E+03 -4.316202E+04  5.657117E-10 -1.830787E-11
        97  11 -6.840042E+03  3.590881E+05 -1.038947E+03 -3.643961E+04  1.632053E-09 -3.780724E-09
        97  12 -1.711879E+04  3.210709E+05 -8.108836E+03 -3.864097E+04 -9.548805E-12 -4.860683E-09
        97  13  6.658776E+03  3.954252E+05  7.557922E+03 -3.892840E+04  2.330802E-10  8.404580E-10
        97  14  1.446563E+03  3.947716E+05  4.746770E+03 -3.446931E+04  2.014038E-09  1.765392E-11
        97  15  2.726312E+02  3.954253E+05  4.521094E+03 -3.893383E+04 -2.830005E-09  1.048801E-09
        97  16  5.748612E+03  3.923449E+05  6.131048E+03 -3.469479E+04  2.752027E-11 -4.688687E-11
        97  17  9.733119E+03  4.304564E+05  1.053245E+04 -3.249888E+04  9.341207E-10  1.661299E-09
        97  18  1.766376E+04  4.697852E+05  1.715084E+04 -3.922673E+04  1.063918E-09  4.526630E-09
        97  19  7.569007E+03  3.985056E+05  8.984806E+03 -4.316202E+04  6.081263E+02 -2.971739E+02
        97  20 -6.840031E+03  3.590881E+05 -1.038918E+03 -3.643961E+04  2.901271E+03  2.663203E+03
        97  21 -1.711875E+04  3.210709E+05 -8.108720E+03 -3.864094E+04  5.514986E+03  5.623639E+03
        97  22  6.658781E+03  3.954252E+05  7.557951E+03 -3.892840E+04  6.112988E+02 -3.835247E+03
        97  23  1.446573E+03  3.947716E+05  4.746789E+03 -3.446931E+04  2.904873E+03 -1.405831E+03
        97  24  2.726642E+02  3.954253E+05  4.521153E+03 -3.893383E+04  5.518990E+03  1.023806E+03
        97  25  5.748627E+03  3.923450E+05  6.131151E+03 -3.469480E+04  6.144231E+02 -7.373301E+03
        97  26  9.733137E+03  4.304564E+05  1.053253E+04 -3.249890E+04  2.908449E+03 -5.475090E+03
        97  27  1.766380E+04  4.697852E+05  1.715093E+04 -3.922675E+04  5.522998E+03 -3.576561E+03
        98   1 -2.305106E+04  2.956057E+05 -1.218724E+04 -3.939070E+04 -7.172612E+03 -6.437142E+03
        98   2 -3.206788E+04  2.564961E+05 -1.696554E+04 -3.417707E+04 -9.681709E+03 -9.082784E+03
        98   3 -3.943001E+04  2.181307E+05 -1.961250E+04 -3.787863E+04 -1.162646E+04 -1.172760E+04
        98   4  3.226583E+02  3.953349E+05  4.995959E+03 -3.893144E+04 -7.176561E+03 -1.809805E+03
        98   5  4.267889E+02  3.948803E+05  7.171351E+03 -3.447305E+04 -9.684634E+03 -5.391113E+03
        98   6  2.347762E+03  3.953305E+05  1.212711E+04 -3.892969E+04 -1.162842E+04 -8.971754E+03
        98   7  2.369586E+04  4.950739E+05  2.217890E+04 -3.847211E+04 -7.180503E+03  2.818252E+03
        98   8  3.292043E+04  5.332832E+05  3.130762E+04 -3.476910E+04 -9.687563E+03 -1.698644E+03
        98   9  4.412380E+04  5.725608E+05  4.386554E+04 -3.998104E+04 -1.163039E+04 -6.215144E+03
        98  10 -2.305113E+04  2.956056E+05 -1.218742E+04 -3.939073E+04  1.691821E-09 -3.566687E-08
        98  11 -3.206800E+04  2.564960E+05 -1.696588E+04 -3.417714E+04 -1.098065E-10 -7.531708E-10
        98  12 -3.943019E+04  2.181305E+05 -1.961301E+04 -3.787874E+04 -1.695558E-09  3.751665E-08
        98  13  3.226021E+02  3.953349E+05  4.995856E+03 -3.893145E+04  6.760165E-10  9.173619E-10
        98  14  4.266803E+02  3.948802E+05  7.171120E+03 -3.447310E+04  7.312484E-09  3.721073E-11
        98  15  2.347595E+03  3.953303E+05  1.212670E+04 -3.892977E+04  5.079401E-09  1.243037E-09
        98  16  2.369580E+04  4.950739E+05  2.217879E+04 -3.847210E+04  7.882436E-10  3.566000E-08
        98  17  3.292032E+04  5.332832E+05  3.130744E+04 -3.476912E+04  2.926677E-09 -8.565733E-10
        98  18  4.412364E+04  5.725607E+05  4.386521E+04 -3.998110E+04 -4.079570E-09 -3.767429E-08
        98  19 -2.305106E+04  2.956057E+05 -1.218724E+04 -3.939070E+04  7.172612E+03  6.437142E+03
        98  20 -3.206788E+04  2.564961E+05 -1.696554E+04 -3.417707E+04  9.681709E+03  9.082784E+03
        98  21 -3.943001E+04  2.181307E+05 -1.961250E+04 -3.787863E+04  1.162646E+04  1.172760E+04
        98  22  3.226583E+02  3.953349E+05  4.995959E+03 -3.893144E+04  7.176561E+03  1.809805E+03
        98  23  4.267889E+02  3.948803E+05  7.171351E+03 -3.447305E+04  9.684634E+03  5.391113E+03
        98  24  2.347762E+03  3.953305E+05  1.212711E+04 -3.892969E+04  1.162842E+04  8.971754E+03
        98  25  2.369586E+04  4.950739E+05  2.217890E+04 -3.847211E+04  7.180503E+03 -2.818252E+03
        98  26  3.292043E+04  5.332832E+05  3.130762E+04 -3.476910E+04  9.687563E+03  1.698644E+03
        98  27  4.412380E+04  5.725608E+05  4.386554E+04 -3.998104E+04  1.163039E+04  6.215144E+03
        99   1 -4.643723E+04  1.943851E+05 -2.098904E+04 -4.190863E+04 -1.300319E+04 -1.461627E+04
        99   2 -4.649233E+04  1.517454E+05 -1.940926E+04 -1.993679E+04 -1.173983E+04 -1.778034E+04
        99   3 -1.747655E+04  1.167805E+05 -8.502458E+03 -6.440313E+03 -3.631403E+03 -2.093960E+04
        99   4  1.454746E+03  3.972698E+05  1.568191E+04 -3.883697E+04 -1.300577E+04 -1.103965E+04
        99   5  1.115672E+04  3.924437E+05  2.808124E+04 -3.458084E+04 -1.173319E+04 -2.554537E+04
        99   6  5.189025E+04  3.972541E+05  5.767760E+04 -3.879894E+04 -3.616574E+03 -4.004660E+04
        99   7  4.934446E+04  6.001946E+05  5.235130E+04 -3.576426E+04 -1.300831E+04 -7.461887E+03
        99   8  6.880308E+04  6.331980E+05  7.556924E+04 -4.923068E+04 -1.172618E+04 -3.331335E+04
        99   9  1.212555E+05  6.778030E+05  1.238542E+05 -7.117225E+04 -3.599759E+03 -5.916217E+04
        99  10 -4.643747E+04  1.943848E+05 -2.098976E+04 -4.190879E+04 -3.629870E-09 -1.582307E-08
        99  11 -4.649256E+04  1.517450E+05 -1.941011E+04 -1.993696E+04  8.625538E-11 -2.939620E-09
        99  12 -1.747668E+04  1.167800E+05 -8.503306E+03 -6.440375E+03 -1.670948E-09  1.182794E-08
        99  13  1.454531E+03  3.972696E+05  1.568137E+04 -3.883708E+04  4.309939E-09  8.239684E-10
        99  14  1.115639E+04  3.924429E+05  2.807975E+04 -3.458108E+04  1.411443E-09  1.647355E-10
        99  15  5.188980E+04  3.972523E+05  5.767456E+04 -3.879906E+04  1.054460E-09  8.834773E-10
        99  16  4.934427E+04  6.001945E+05  5.235087E+04 -3.576433E+04 -5.859124E-09  1.595255E-08
        99  17  6.880263E+04  6.331967E+05  7.556690E+04 -4.923099E+04 -6.733203E-09  1.719308E-09
        99  18  1.212546E+05  6.777992E+05  1.238476E+05 -7.117242E+04 -5.773164E-10 -1.207216E-08
        99  19 -4.643723E+04  1.943851E+05 -2.098904E+04 -4.190863E+04  1.300319E+04  1.461627E+04
        99  20 -4.649233E+04  1.517454E+05 -1.940926E+04 -1.993679E+04  1.173983E+04  1.778034E+04
        99  21 -1.747655E+04  1.167805E+05 -8.502458E+03 -6.440313E+03  3.631403E+03  2.093960E+04
        99  22  1.454746E+03  3.972698E+05  1.568191E+04 -3.883697E+04  1.300577E+04  1.103965E+04
        99  23  1.115672E+04  3.924437E+05  2.808124E+04 -3.458084E+04  1.173319E+04  2.554537E+04
        99  24  5.189025E+04  3.972541E+05  5.767760E+04 -3.879894E+04  3.616574E+03  4.004660E+04
        99  25  4.934446E+04  6.001946E+05  5.235130E+04 -3.576426E+04  1.300831E+04  7.461887E+03
        99  26  6.880308E+04  6.331980E+05  7.556924E+04 -4.923068E+04  1.172618E+04  3.331335E+04
        99  27  1.212555E+05  6.778030E+05  1.238542E+05 -7.117225E+04  3.599759E+03  5.916217E+04
       100   1  8.953985E+05  3.190985E+05  1.576812E+05  3.343922E+05  6.190573E+04  1.264984E+04
       100   2  8.448663E+05  2.976197E+05  1.124467E+05  3.199596E+05  4.007378E+04 -2.101563E+04
       100   3  7.937100E+05  2.844322E+05  9.027191E+04  3.126005E+05  1.259310E+04 -3.963988E+04
       100   4  2.320431E+05  7.604544E+04 -9.160135E+03  1.578184E+05 -2.500727E+03 -1.157500E+04
       100   5  2.360672E+05  7.852316E+04 -4.387923E+03  1.530049E+05  8.159685E+03 -3.302555E+04
       100   6  2.330353E+05  8.286276E+04 -2.275119E+03  1.552648E+05  1.316437E+04 -3.942922E+04
       100   7 -4.308432E+05 -1.669687E+05 -1.760100E+05 -1.857640E+04 -6.682899E+04 -3.577177E+04
       100   8 -3.723298E+05 -1.405357E+05 -1.212299E+05 -1.379459E+04 -2.372013E+04 -4.502292E+04
       100   9 -3.273024E+05 -1.186742E+05 -9.482909E+04 -1.937562E+03  1.373510E+04 -3.921877E+04
       100  10  8.953943E+05  3.190973E+05  1.576737E+05  3.343916E+05 -6.177993E-11  1.868240E-10
       100  11  8.448644E+05  2.976188E+05  1.124429E+05  3.199603E+05 -8.321808E-09 -3.747337E-09
       100  12  7.937094E+05  2.844305E+05  9.026866E+04  3.126009E+05 -9.957003E-09 -2.067217E-09
       100  13  2.320431E+05  7.604529E+04 -9.160399E+03  1.578183E+05 -2.851173E-09 -2.274410E-10
       100  14  2.360668E+05  7.852197E+04 -4.390098E+03  1.530051E+05 -1.012680E-08 -4.360105E-09
       100  15  2.330347E+05  8.286104E+04 -2.278367E+03  1.552652E+05 -2.718903E-09 -2.542553E-09
       100  16 -4.308483E+05 -1.669712E+05 -1.760208E+05 -1.857832E+04 -1.079758E-08 -3.741853E-09
       100  17 -3.723310E+05 -1.405380E+05 -1.212348E+05 -1.379545E+04 -8.296957E-09 -3.289466E-09
       100  18 -3.273030E+05 -1.186759E+05 -9.483234E+04 -1.937128E+03  4.274304E-09 -1.588033E-09
       100  19  8.953985E+05  3.190985E+05  1.576812E+05  3.343922E+05 -6.190573E+04 -1.264984E+04
       100  20  8.448663E+05  2.976197E+05  1.124467E+05  3.199596E+05 -4.007378E+04  2.101563E+04
       100  21  7.937100E+05  2.844322E+05  9.027191E+04  3.126005E+05 -1.259310E+04  3.963988E+04
       100  22  2.320431E+05  7.604544E+04 -9.160135E+03  1.578184E+05  2.500727E+03  1.157500E+04
       100  23  2.360672E+05  7.852316E+04 -4.387923E+03  1.530049E+05 -8.159685E+03  3.302555E+04
       100  24  2.330353E+05  8.286276E+04 -2.275119E+03  1.552648E+05 -1.316437E+04  3.942922E+04
       100  25 -4.308432E+05 -1.669687E+05 -1.760100E+05 -1.857640E+04  6.682899E+04  3.577177E+04
       100  26 -3.723298E+05 -1.405357E+05 -1.212299E+05 -1.379459E+04  2.372013E+04  4.502292E+04
       100  27 -3.273024E+05 -1.186742E+05 -9.482909E+04 -1.937562E+03 -1.373510E+04  3.921877E+04
       101   1  7.625148E+05  2.729311E+05  8.329482E+04  3.039792E+05  1.281571E+04 -3.877189E+04
       101   2  7.166146E+05  2.521182E+05  7.223338E+04  2.869684E+05  9.165193E+03 -3.898349E+04
       101   3  6.650560E+05  2.379943E+05  6.370721E+04  2.771403E+05  4.867392E+03 -3.747689E+04
       101   4  2.331150E+05  8.323649E+04 -1.686703E+03  1.554942E+05  1.316159E+04 -3.864577E+04
       101   5  2.363582E+05  8.053344E+04 -8.756851E+02  1.518028E+05  1.322213E+04 -3.745986E+04
       101   6  2.332072E+05  8.378520E+04 -4.674893E+02  1.552939E+05  1.263492E+04 -3.455504E+04
       101   7 -2.959914E+05 -1.064320E+05 -8.667578E+04  7.125871E+03  1.350716E+04 -3.851978E+04
       101   8 -2.436521E+05 -9.102797E+04 -7.398874E+04  1.673474E+04  1.727579E+04 -3.593747E+04
       101   9 -1.984394E+05 -7.040362E+04 -6.464401E+04  3.352728E+04  2.039675E+04 -3.163533E+04
       101  10  7.625142E+05  2.729295E+05  8.329169E+04  3.039796E+05 -2.844868E-09  9.812884E-10
       101  11  7.166141E+05  2.521165E+05  7.223036E+04  2.869687E+05  7.734299E-09  6.002615E-10
       101  12  6.650556E+05  2.379928E+05  6.370452E+04  2.771405E+05  8.092545E-09  5.646852E-09
       101  13  2.331144E+05  8.323484E+04 -1.689836E+03  1.554946E+05  4.151559E-09  5.192754E-10
       101  14  2.363576E+05  8.053188E+04 -8.786510E+02  1.518032E+05  7.166200E-09 -5.170415E-09
       101  15  2.332067E+05  8.378387E+04 -4.700335E+02  1.552942E+05  2.115327E-09  1.945614E-09
       101  16 -2.959920E+05 -1.064337E+05 -8.667891E+04  7.126290E+03  1.110995E-08  1.340262E-10
       101  17 -2.436528E+05 -9.102944E+04 -7.399173E+04  1.673524E+04  1.126687E-08  4.957093E-09
       101  18 -1.984402E+05 -7.040481E+04 -6.464667E+04  3.352780E+04 -8.675573E-10 -1.973910E-09
       101  19  7.625148E+05  2.729311E+05  8.329482E+04  3.039792E+05 -1.281571E+04  3.877189E+04
       101  20  7.166146E+05  2.521182E+05  7.223338E+04  2.869684E+05 -9.165193E+03  3.898349E+04
       101  21  6.650560E+05  2.379943E+05  6.370721E+04  2.771403E+05 -4.867392E+03  3.747689E+04
       101  22  2.331150E+05  8.323649E+04 -1.686703E+03  1.554942E+05 -1.316159E+04  3.864577E+04
       101  23  2.363582E+05  8.053344E+04 -8.756851E+02  1.518028E+05 -1.322213E+04  3.745986E+04
       101  24  2.332072E+05  8.378520E+04 -4.674893E+02  1.552939E+05 -1.263492E+04  3.455504E+04
       101  25 -2.959914E+05 -1.064320E+05 -8.667578E+04  7.125871E+03 -1.350716E+04  3.851978E+04
       101  26 -2.436521E+05 -9.102797E+04 -7.398874E+04  1.673474E+04 -1.727579E+04  3.593747E+04
       101  27 -1.984394E+05 -7.040362E+04 -6.464401E+04  3.352728E+04 -2.039675E+04  3.163533E+04
       102   1  6.346365E+05  2.270821E+05  5.887268E+04  2.685965E+05  4.146782E+03 -3.528909E+04
       102   2  5.892636E+05  2.065896E+05  5.153064E+04  2.513211E+05  2.429069E+03 -3.173245E+04
       102   3  5.376334E+05  1.924920E+05  4.445314E+04  2.412664E+05  6.369713E+02 -2.798063E+04
       102   4  2.332163E+05  8.382350E+04 -3.468319E+02  1.553194E+05  1.188639E+04 -3.237702E+04
       102   5  2.363998E+05  8.069676E+04 -1.790855E+02  1.517016E+05  1.059008E+04 -2.866061E+04
       102   6  2.332392E+05  8.388151E+04 -8.117132E+01  1.553039E+05  9.219324E+03 -2.474894E+04
       102   7 -1.680237E+05 -5.941550E+04 -5.956630E+04  4.211274E+04  1.962062E+04 -2.946698E+04
       102   8 -1.163284E+05 -4.518235E+04 -5.188968E+04  5.213550E+04  1.874620E+04 -2.559062E+04
       102   9 -7.105809E+04 -2.472024E+04 -4.461707E+04  6.938021E+04  1.779735E+04 -2.151889E+04
       102  10  6.346362E+05  2.270807E+05  5.887031E+04  2.685966E+05  6.035946E-08  2.758665E-08
       102  11  5.892633E+05  2.065885E+05  5.152874E+04  2.513211E+05  2.035780E-09  2.408700E-09
       102  12  5.376332E+05  1.924912E+05  4.445167E+04  2.412664E+05 -5.863222E-08 -2.484921E-08
       102  13  2.332159E+05  8.382234E+04 -3.490677E+02  1.553197E+05  1.159700E-09 -8.307971E-10
       102  14  2.363995E+05  8.069585E+04 -1.808401E+02  1.517018E+05  1.456373E-09  2.378695E-09
       102  15  2.332389E+05  8.388083E+04 -8.248226E+01  1.553041E+05  2.874394E-09  2.207582E-09
       102  16 -1.680243E+05 -5.941654E+04 -5.956866E+04  4.211321E+04 -5.761671E-08 -2.040633E-08
       102  17 -1.163290E+05 -4.518315E+04 -5.189157E+04  5.213588E+04  5.170271E-09  4.171615E-09
       102  18 -7.105856E+04 -2.472082E+04 -4.461853E+04  6.938052E+04  6.135232E-08  2.589116E-08
       102  19  6.346365E+05  2.270821E+05  5.887268E+04  2.685965E+05 -4.146782E+03  3.528909E+04
       102  20  5.892636E+05  2.065896E+05  5.153064E+04  2.513211E+05 -2.429069E+03  3.173245E+04
       102  21  5.376334E+05  1.924920E+05  4.445314E+04  2.412664E+05 -6.369713E+02  2.798063E+04
       102  22  2.332163E+05  8.382350E+04 -3.468319E+02  1.553194E+05 -1.188639E+04  3.237702E+04
       102  23  2.363998E+05  8.069676E+04 -1.790855E+02  1.517016E+05 -1.059008E+04  2.866061E+04
       102  24  2.332392E+05  8.388151E+04 -8.117132E+01  1.553039E+05 -9.219324E+03  2.474894E+04
       102  25 -1.680237E+05 -5.941550E+04 -5.956630E+04  4.211274E+04 -1.962062E+04  2.946698E+04
       102  26 -1.163284E+05 -4.518235E+04 -5.188968E+04  5.213550E+04 -1.874620E+04  2.559062E+04
       102  27 -7.105809E+04 -2.472024E+04 -4.461707E+04  6.938021E+04 -1.779735E+04  2.151889E+04
       103   1  5.073326E+05  1.816530E+05  3.983182E+04  2.327290E+05 -2.217762E+02 -2.565484E+04
       103   2  4.620472E+05  1.612230E+05  3.288360E+04  2.154339E+05 -1.771814E+03 -2.169037E+04
       103   3  4.104359E+05  1.471412E+05  2.597529E+04  2.053629E+05 -3.330086E+03 -1.770555E+04
       103   4  2.332429E+05  8.388797E+04 -4.793245E+01  1.553054E+05  8.355903E+03 -2.242436E+04
       103   5  2.364163E+05  8.072533E+04  1.197983E+01  1.516929E+05  6.849584E+03 -1.844269E+04
       103   6  2.332524E+05  8.390188E+04  7.668003E+01  1.553034E+05  5.335031E+03 -1.444068E+04
       103   7 -4.076471E+04 -1.386870E+04 -3.992796E+04  7.791419E+04  1.692959E+04 -1.919538E+04
       103   8  1.084246E+04  2.339366E+02 -3.285933E+04  8.797423E+04  1.546762E+04 -1.519627E+04
       103   9  5.610544E+04  2.066697E+04 -2.582124E+04  1.052582E+05  1.399743E+04 -1.117683E+04
       103  10  5.073325E+05  1.816523E+05  3.983058E+04  2.327290E+05 -5.998042E-08 -2.434042E-08
       103  11  4.620470E+05  1.612225E+05  3.288271E+04  2.154339E+05 -2.107145E-09 -1.633964E-10
       103  12  4.104358E+05  1.471409E+05  2.597468E+04  2.053628E+05  6.133401E-08  2.700560E-08
       103  13  2.332427E+05  8.388741E+04 -4.900877E+01  1.553056E+05 -3.146928E-09 -3.393700E-10
       103  14  2.364161E+05  8.072496E+04  1.125238E+01  1.516930E+05 -1.442837E-09 -3.570372E-09
       103  15  2.332523E+05  8.390165E+04  7.623461E+01  1.553035E+05  6.707471E-10 -1.503259E-09
       103  16 -4.076512E+04 -1.386917E+04 -3.992919E+04  7.791445E+04  5.582513E-08  2.322950E-08
       103  17  1.084214E+04  2.336243E+02 -3.286022E+04  8.797442E+04 -3.913313E-09 -5.165503E-09
       103  18  5.610519E+04  2.066679E+04 -2.582185E+04  1.052583E+05 -6.511492E-08 -3.023661E-08
       103  19  5.073326E+05  1.816530E+05  3.983182E+04  2.327290E+05  2.217762E+02  2.565484E+04
       103  20  4.620472E+05  1.612230E+05  3.288360E+04  2.154339E+05  1.771814E+03  2.169037E+04
       103  21  4.104359E+05  1.471412E+05  2.597529E+04  2.053629E+05  3.330086E+03  1.770555E+04
       103  22  2.332429E+05  8.388797E+04 -4.793245E+01  1.553054E+05 -8.355903E+03  2.242436E+04
       103  23  2.364163E+05  8.072533E+04  1.197983E+01  1.516929E+05 -6.849584E+03  1.844269E+04
       103  24  2.332524E+05  8.390188E+04  7.668003E+01  1.553034E+05 -5.335031E+03  1.444068E+04
       103  25 -4.076471E+04 -1.386870E+04 -3.992796E+04  7.791419E+04 -1.692959E+04  1.919538E+04
       103  26  1.084246E+04  2.339366E+02 -3.285933E+04  8.797423E+04 -1.546762E+04  1.519627E+04
       103  27  5.610544E+04  2.066697E+04 -2.582124E+04  1.052582E+05 -1.399743E+04  1.117683E+04
       104   1  3.801619E+05  1.363098E+05  2.139279E+04  1.968304E+05 -4.225569E+03 -1.537389E+04
       104   2  3.348945E+05  1.158861E+05  1.454810E+04  1.795430E+05 -5.831352E+03 -1.140072E+04
       104   3  2.833033E+05  1.018082E+05  7.775334E+03  1.694799E+05 -7.433824E+03 -7.436986E+03
       104   4  2.332589E+05  8.390384E+04  1.162591E+02  1.553051E+05  4.438144E+03 -1.210924E+04
       104   5  2.364211E+05  8.073033E+04  2.324181E+02  1.516933E+05  2.811783E+03 -8.143477E+03
       104   6  2.332621E+05  8.390694E+04  4.368697E+02  1.553051E+05  1.188732E+03 -4.187170E+03
       104   7  8.637767E+04  3.149960E+04 -2.116065E+04  1.137886E+05  1.309981E+04 -8.845359E+03
       104   8  1.379578E+05  4.557547E+04 -1.408321E+04  1.238476E+05  1.145353E+04 -4.886755E+03
       104   9  1.832238E+05  6.600600E+04 -6.901306E+03  1.411315E+05  9.810560E+03 -9.376309E+02
       104  10  3.801618E+05  1.363095E+05  2.139231E+04  1.968303E+05  1.553594E-07  6.291871E-08
       104  11  3.348944E+05  1.158859E+05  1.454779E+04  1.795429E+05  2.380054E-08  1.780023E-08
       104  12  2.833032E+05  1.018081E+05  7.775126E+03  1.694798E+05 -1.215570E-07 -4.069549E-08
       104  13  2.332588E+05  8.390368E+04  1.159465E+02  1.553052E+05  8.974008E-09  2.774458E-09
       104  14  2.364211E+05  8.073026E+04  2.322786E+02  1.516933E+05  1.704960E-08  8.120668E-09
       104  15  2.332621E+05  8.390692E+04  4.368341E+02  1.553051E+05  1.125918E-08 -2.883527E-09
       104  16  8.637747E+04  3.149947E+04 -2.116112E+04  1.137887E+05 -1.391628E-07 -5.327224E-08
       104  17  1.379576E+05  4.557540E+04 -1.408350E+04  1.238476E+05  1.280613E-08  1.558406E-08
       104  18  1.832237E+05  6.600597E+04 -6.901488E+03  1.411315E+05  1.440334E-07  6.517202E-08
       104  19  3.801619E+05  1.363098E+05  2.139279E+04  1.968304E+05  4.225569E+03  1.537389E+04
       104  20  3.348945E+05  1.158861E+05  1.454810E+04  1.795430E+05  5.831352E+03  1.140072E+04
       104  21  2.833033E+05  1.018082E+05  7.775334E+03  1.694799E+05  7.433824E+03  7.436986E+03
       104  22  2.332589E+05  8.390384E+04  1.162591E+02  1.553051E+05 -4.438144E+03  1.210924E+04
       104  23  2.364211E+05  8.073033E+04  2.324181E+02  1.516933E+05 -2.811783E+03  8.143477E+03
       104  24  2.332621E+05  8.390694E+04  4.368697E+02  1.553051E+05 -1.188732E+03  4.187170E+03
       104  25  8.637767E+04  3.149960E+04 -2.116065E+04  1.137886E+05 -1.309981E+04  8.845359E+03
       104  26  1.379578E+05  4.557547E+04 -1.408321E+04  1.238476E+05 -1.145353E+04  4.886755E+03
       104  27  1.832238E+05  6.600600E+04 -6.901306E+03  1.411315E+05 -9.810560E+03  9.376309E+02
       105   1  2.530401E+05  9.098574E+04  3.291181E+03  1.609694E+05 -8.396093E+03 -5.139630E+03
       105   2  2.077786E+05  7.054602E+04 -3.279776E+03  1.436452E+05 -1.020109E+04 -1.314173E+03
       105   3  1.562604E+05  5.653307E+04 -9.590113E+03  1.335273E+05 -1.196780E+04  2.410104E+03
       105   4  2.332821E+05  8.390606E+04  5.865458E+02  1.553116E+05  2.275529E+02 -1.889346E+03
       105   5  2.364011E+05  8.075272E+04  1.073870E+03  1.516780E+05 -1.796235E+03  1.853547E+03
       105   6  2.333039E+05  8.406896E+04  1.994755E+03  1.552496E+05 -3.781778E+03  5.495271E+03
       105   7  2.135249E+05  7.682659E+04 -2.117701E+03  1.496541E+05  8.850805E+03  1.360788E+03
       105   8  2.650247E+05  9.095956E+04  5.427808E+03  1.597112E+05  6.609028E+03  5.021420E+03
       105   9  3.103550E+05  1.116059E+05  1.358011E+04  1.769748E+05  4.405418E+03  8.580879E+03
       105  10  2.530401E+05  9.098570E+04  3.290999E+03  1.609694E+05 -3.001430E-08 -8.133156E-09
       105  11  2.077785E+05  7.054599E+04 -3.279975E+03  1.436451E+05 -7.496536E-09 -3.983749E-09
       105  12  1.562603E+05  5.653303E+04 -9.590393E+03  1.335274E+05  2.189145E-08  5.727511E-09
       105  13  2.332821E+05  8.390606E+04  5.865390E+02  1.553116E+05  9.315698E-10 -6.309299E-09
       105  14  2.364011E+05  8.075271E+04  1.073858E+03  1.516780E+05 -2.890202E-09 -1.158854E-08
       105  15  2.333039E+05  8.406892E+04  1.994671E+03  1.552496E+05 -5.981087E-10 -9.509756E-10
       105  16  2.135248E+05  7.682657E+04 -2.117852E+03  1.496541E+05  3.086027E-08  2.119635E-08
       105  17  2.650247E+05  9.095952E+04  5.427679E+03  1.597112E+05 -1.581905E-10  1.461005E-09
       105  18  3.103550E+05  1.116058E+05  1.357993E+04  1.769747E+05 -2.356791E-08 -8.545471E-09
       105  19  2.530401E+05  9.098574E+04  3.291181E+03  1.609694E+05  8.396093E+03  5.139630E+03
       105  20  2.077786E+05  7.054602E+04 -3.279776E+03  1.436452E+05  1.020109E+04  1.314173E+03
       105  21  1.562604E+05  5.653307E+04 -9.590113E+03  1.335273E+05  1.196780E+04 -2.410104E+03
       105  22  2.332821E+05  8.390606E+04  5.865458E+02  1.553116E+05 -2.275529E+02  1.889346E+03
       105  23  2.364011E+05  8.075272E+04  1.073870E+03  1.516780E+05  1.796235E+03 -1.853547E+03
       105  24  2.333039E+05  8.406896E+04  1.994755E+03  1.552496E+05  3.781778E+03 -5.495271E+03
       105  25  2.135249E+05  7.682659E+04 -2.117701E+03  1.496541E+05 -8.850805E+03 -1.360788E+03
       105  26  2.650247E+05  9.095956E+04  5.427808E+03  1.597112E+05 -6.609028E+03 -5.021420E+03
       105  27  3.103550E+05  1.116059E+05  1.358011E+04  1.769748E+05 -4.405418E+03 -8.580879E+03
       106   1  1.259766E+05  4.581932E+04 -1.369948E+04  1.251445E+05 -1.318344E+04  4.513535E+03
       106   2  8.127186E+04  2.519416E+04 -1.938244E+04  1.068124E+05 -1.503432E+04  7.649120E+03
       106   3  3.085485E+04  1.217125E+04 -2.426959E+04  9.531690E+04 -1.655046E+04  9.897273E+03
       106   4  2.334583E+05  8.412122E+04  2.673001E+03  1.552738E+05 -4.984099E+03  7.603567E+03
       106   5  2.363293E+05  8.157965E+04  4.955200E+03  1.513090E+05 -8.750763E+03  1.001670E+04
       106   6  2.338646E+05  8.701903E+04  9.550667E+03  1.541795E+05 -1.218276E+04  1.154252E+04
       106   7  3.409526E+05  1.224244E+05  1.904560E+04  1.854081E+05  3.216742E+03  1.069416E+04
       106   8  3.914117E+05  1.379675E+05  2.929231E+04  1.958158E+05 -2.465582E+03  1.238492E+04
       106   9  4.369159E+05  1.618706E+05  4.336927E+04  2.130597E+05 -7.813595E+03  1.318835E+04
       106  10  1.259764E+05  4.581925E+04 -1.369984E+04  1.251446E+05  3.206262E-08  9.749824E-09
       106  11  8.127160E+04  2.519403E+04 -1.938298E+04  1.068125E+05 -8.509932E-09 -6.372019E-09
       106  12  3.085453E+04  1.217107E+04 -2.427029E+04  9.531703E+04 -4.185971E-08 -2.113386E-08
       106  13  2.334583E+05  8.412115E+04  2.672846E+03  1.552739E+05 -2.441390E-09 -1.733760E-09
       106  14  2.363292E+05  8.157952E+04  4.954868E+03  1.513090E+05 -4.042296E-09  1.030722E-08
       106  15  2.338644E+05  8.701885E+04  9.550137E+03  1.541796E+05 -1.775303E-09  8.082434E-09
       106  16  3.409526E+05  1.224242E+05  1.904536E+04  1.854080E+05 -3.332648E-08 -1.620928E-08
       106  17  3.914116E+05  1.379673E+05  2.929201E+04  1.958158E+05  1.859226E-09 -9.940709E-09
       106  18  4.369158E+05  1.618703E+05  4.336883E+04  2.130597E+05  4.479306E-08  5.410681E-09
       106  19  1.259766E+05  4.581932E+04 -1.369948E+04  1.251445E+05  1.318344E+04 -4.513535E+03
       106  20  8.127186E+04  2.519416E+04 -1.938244E+04  1.068124E+05  1.503432E+04 -7.649120E+03
       106  21  3.085485E+04  1.217125E+04 -2.426959E+04  9.531690E+04  1.655046E+04 -9.897273E+03
       106  22  2.334583E+05  8.412122E+04  2.673001E+03  1.552738E+05  4.984099E+03 -7.603567E+03
       106  23  2.363293E+05  8.157965E+04  4.955200E+03  1.513090E+05  8.750763E+03 -1.001670E+04
       106  24  2.338646E+05  8.701903E+04  9.550667E+03  1.541795E+05  1.218276E+04 -1.154252E+04
       106  25  3.409526E+05  1.224244E+05  1.904560E+04  1.854081E+05 -3.216742E+03 -1.069416E+04
       106  26  3.914117E+05  1.379675E+05  2.929231E+04  1.958158E+05  2.465582E+03 -1.238492E+04
       106  27  4.369159E+05  1.618706E+05  4.336927E+04  2.130597E+05  7.813595E+03 -1.318835E+04
       107   1  4.789585E+02  2.920817E+03 -2.707081E+04  8.799403E+04 -1.867567E+04  1.079266E+04
       107   2 -3.518943E+04 -1.983695E+04 -3.103998E+04  5.513199E+04 -1.403900E+04  1.048106E+04
       107   3 -7.072105E+04 -1.957001E+04 -3.320031E+04  2.407341E+04 -6.478605E+03  2.404430E+03
       107   4  2.353706E+05  8.797979E+04  1.288207E+04  1.542338E+05 -1.419358E+04  1.248080E+04
       107   5  2.363795E+05  9.411843E+04  2.480301E+04  1.460555E+05 -2.631007E+04  5.856990E+03
       107   6  2.408391E+05  1.265946E+05  5.180594E+04  1.396811E+05 -3.550394E+04 -8.529874E+03
       107   7  4.703253E+05  1.730461E+05  5.283475E+04  2.204984E+05 -9.709613E+03  1.416965E+04
       107   8  5.080252E+05  2.080871E+05  8.064279E+04  2.370180E+05 -3.858684E+04  1.230031E+03
       107   9  5.524909E+05  2.727797E+05  1.368050E+05  2.553445E+05 -6.454445E+04 -1.947334E+04
       107  10  4.785527E+02  2.920598E+03 -2.707168E+04  8.799419E+04  9.509791E-08  3.721047E-08
       107  11 -3.518968E+04 -1.983712E+04 -3.104056E+04  5.513211E+04  3.033932E-08  1.461685E-08
       107  12 -7.072109E+04 -1.957002E+04 -3.320040E+04  2.407343E+04 -5.580043E-08 -1.897146E-08
       107  13  2.353703E+05  8.797957E+04  1.288140E+04  1.542340E+05  1.026003E-08  1.599078E-08
       107  14  2.363787E+05  9.411821E+04  2.480164E+04  1.460556E+05  1.752127E-08  1.687510E-08
       107  15  2.408377E+05  1.265941E+05  5.180344E+04  1.396808E+05  7.607967E-09  6.762457E-09
       107  16  4.703251E+05  1.730458E+05  5.283419E+04  2.204985E+05 -7.668313E-08 -3.464409E-08
       107  17  5.080236E+05  2.080867E+05  8.063999E+04  2.370180E+05  7.252076E-09 -6.377833E-10
       107  18  5.524863E+05  2.727782E+05  1.367965E+05  2.553434E+05  6.929930E-08  2.797912E-08
       107  19  4.789585E+02  2.920817E+03 -2.707081E+04  8.799403E+04  1.867567E+04 -1.079266E+04
       107  20 -3.518943E+04 -1.983695E+04 -3.103998E+04  5.513199E+04  1.403900E+04 -1.048106E+04
       107  21 -7.072105E+04 -1.957001E+04 -3.320031E+04  2.407341E+04  6.478605E+03 -2.404430E+03
       107  22  2.353706E+05  8.797979E+04  1.288207E+04  1.542338E+05  1.419358E+04 -1.248080E+04
       107  23  2.363795E+05  9.411843E+04  2.480301E+04  1.460555E+05  2.631007E+04 -5.856990E+03
       107  24  2.408391E+05  1.265946E+05  5.180594E+04  1.396811E+05  3.550394E+04  8.529874E+03
       107  25  4.703253E+05  1.730461E+05  5.283475E+04  2.204984E+05  9.709613E+03 -1.416965E+04
       107  26  5.080252E+05  2.080871E+05  8.064279E+04  2.370180E+05  3.858684E+04 -1.230031E+03
       107  27  5.524909E+05  2.727797E+05  1.368050E+05  2.553445E+05  6.454445E+04  1.947334E+04
       108   1 -2.315693E+05 -1.054936E+06 -2.589718E+05  8.607776E+04 -4.601636E+03 -1.004477E+05
       108   2 -8.328500E+04 -9.471043E+05 -1.577020E+05  2.954759E+04 -1.344102E+04 -5.953005E+04
       108   3 -7.085537E+04 -8.782115E+05 -1.170043E+05  3.277365E+04 -1.048284E+04 -1.858745E+04
       108   4 -1.110975E+05 -5.727798E+05 -1.399953E+05  4.778045E+04 -4.608746E+03 -9.240193E+04
       108   5  1.417873E+04 -5.538615E+05 -6.415779E+04  1.799459E+04 -1.344170E+04 -5.796498E+04
       108   6  4.772675E+03 -5.727354E+05 -4.435635E+04  4.796778E+04 -1.047686E+04 -2.350940E+04
       108   7  9.362504E+03 -9.040854E+04 -2.103504E+04  9.453379E+03 -4.616849E+03 -8.434985E+04
       108   8  1.116318E+05 -1.604763E+05  2.937567E+04  6.434285E+03 -1.344243E+04 -5.639892E+04
       108   9  8.039489E+04 -2.671728E+05  2.828524E+04  6.316945E+04 -1.047112E+04 -2.843376E+04
       108  10 -2.315721E+05 -1.054947E+06 -2.589909E+05  8.607739E+04  8.950652E-10  3.226601E-09
       108  11 -8.328615E+04 -9.471082E+05 -1.577090E+05  2.954694E+04 -1.012793E-09  1.024778E-09
       108  12 -7.085558E+04 -8.782119E+05 -1.170051E+05  3.277350E+04 -3.702866E-09 -3.091151E-09
       108  13 -1.110998E+05 -5.727890E+05 -1.400114E+05  4.778010E+04  2.510632E-09  3.330876E-09
       108  14  1.417764E+04 -5.538652E+05 -6.416445E+04  1.799396E+04 -1.892998E-09 -2.506266E-09
       108  15  4.772408E+03 -5.727360E+05 -4.435760E+04  4.796758E+04 -1.983552E-09  5.394304E-10
       108  16  9.360571E+03 -9.041619E+04 -2.104846E+04  9.453066E+03 -5.677115E-10  8.015317E-10
       108  17  1.116307E+05 -1.604797E+05  2.936935E+04  6.433674E+03 -3.399484E-09  4.960150E-09
       108  18  8.039455E+04 -2.671737E+05  2.828351E+04  6.316921E+04 -1.265306E-09 -2.635563E-10
       108  19 -2.315693E+05 -1.054936E+06 -2.589718E+05  8.607776E+04  4.601636E+03  1.004477E+05
       108  20 -8.328500E+04 -9.471043E+05 -1.577020E+05  2.954759E+04  1.344102E+04  5.953005E+04
       108  21 -7.085537E+04 -8.782115E+05 -1.170043E+05  3.277365E+04  1.048284E+04  1.858745E+04
       108  22 -1.110975E+05 -5.727798E+05 -1.399953E+05  4.778045E+04  4.608746E+03  9.240193E+04
       108  23  1.417873E+04 -5.538615E+05 -6.415779E+04  1.799459E+04  1.344170E+04  5.796498E+04
       108  24  4.772675E+03 -5.727354E+05 -4.435635E+04  4.796778E+04  1.047686E+04  2.350940E+04
       108  25  9.362504E+03 -9.040854E+04 -2.103504E+04  9.453379E+03  4.616849E+03  8.434985E+04
       108  26  1.116318E+05 -1.604763E+05  2.937567E+04  6.434285E+03  1.344243E+04  5.639892E+04
       108  27  8.039489E+04 -2.671728E+05  2.828524E+04  6.316945E+04  1.047112E+04  2.843376E+04
       109   1 -5.929575E+04 -7.632459E+05 -8.626229E+04  5.306896E+04 -6.606243E+03 -1.484821E+04
       109   2 -2.401872E+04 -6.702288E+05 -5.623502E+04  1.793718E+04 -3.703778E+03  9.164148E+02
       109   3 -1.465607E+04 -5.855492E+05 -4.291885E+04  4.338060E+04 -4.795177E+02  1.668293E+04
       109   4 -1.045299E+04 -5.661765E+05 -3.933434E+04  4.808888E+04 -6.604220E+03 -1.637329E+04
       109   5  2.786793E+03 -5.620178E+05 -3.049384E+04  1.780194E+04 -3.701825E+03 -7.828393E+02
       109   6 -9.854365E+03 -5.661721E+05 -3.824017E+04  4.809024E+04 -4.774387E+02  1.480729E+04
       109   7  3.838705E+04 -3.690713E+05  7.590912E+03  4.310721E+04 -6.602172E+03 -1.789886E+04
       109   8  2.959147E+04 -4.537961E+05 -4.753473E+03  1.766668E+04 -3.699871E+03 -2.482388E+03
       109   9 -5.052602E+03 -5.467946E+05 -3.356148E+04  5.280003E+04 -4.753881E+02  1.293159E+04
       109  10 -5.929585E+04 -7.632461E+05 -8.626278E+04  5.306888E+04 -1.137954E-09  3.674805E-09
       109  11 -2.401874E+04 -6.702288E+05 -5.623505E+04  1.793718E+04  3.317673E-09  2.859728E-10
       109  12 -1.465614E+04 -5.855495E+05 -4.291937E+04  4.338060E+04 -1.261983E-09 -2.504745E-09
       109  13 -1.045311E+04 -5.661768E+05 -3.933492E+04  4.808879E+04 -2.099789E-09  2.677626E-09
       109  14  2.786779E+03 -5.620178E+05 -3.049387E+04  1.780193E+04 -1.001447E-09 -1.993359E-09
       109  15 -9.854424E+03 -5.661724E+05 -3.824058E+04  4.809025E+04 -2.357719E-09  5.200072E-10
       109  16  3.838692E+04 -3.690717E+05  7.590228E+03  4.310712E+04 -1.760347E-09  1.459369E-10
       109  17  2.959145E+04 -4.537961E+05 -4.753510E+03  1.766667E+04  1.426449E-09  3.385053E-09
       109  18 -5.052648E+03 -5.467948E+05 -3.356180E+04  5.280004E+04  9.141877E-10 -1.134408E-09
       109  19 -5.929575E+04 -7.632459E+05 -8.626229E+04  5.306896E+04  6.606243E+03  1.484821E+04
       109  20 -2.401872E+04 -6.702288E+05 -5.623502E+04  1.793718E+04  3.703778E+03 -9.164148E+02
       109  21 -1.465607E+04 -5.855492E+05 -4.291885E+04  4.338060E+04  4.795177E+02 -1.668293E+04
       109  22 -1.045299E+04 -5.661765E+05 -3.933434E+04  4.808888E+04  6.604220E+03  1.637329E+04
       109  23  2.786793E+03 -5.620178E+05 -3.049384E+04  1.780194E+04  3.701825E+03  7.828393E+02
       109  24 -9.854365E+03 -5.661721E+05 -3.824017E+04  4.809024E+04  4.774387E+02 -1.480729E+04
       109  25  3.838705E+04 -3.690713E+05  7.590912E+03  4.310721E+04  6.602172E+03  1.789886E+04
       109  26  2.959147E+04 -4.537961E+05 -4.753473E+03  1.766668E+04  3.699871E+03  2.482388E+03
       109  27 -5.052602E+03 -5.467946E+05 -3.356148E+04  5.280003E+04  4.753881E+02 -1.293159E+04
       110   1  2.653922E+04 -4.830630E+05 -2.149283E+04  6.272573E+04  2.795189E+03  2.548242E+04
       110   2  5.757061E+04 -3.765679E+05 -1.897232E+04  7.148558E+03  6.058737E+03  5.449189E+04
       110   3 -3.879736E+04 -3.054769E+05 -6.714594E+04  1.182134E+04  2.292970E+03  8.349718E+04
       110   4  4.447989E+03 -5.723426E+05 -4.280423E+04  4.806368E+04  2.798566E+03  2.172166E+04
       110   5  1.352117E+04 -5.543104E+05 -6.123754E+04  1.786842E+04  6.059655E+03  5.459978E+04
       110   6 -1.054999E+05 -5.723774E+05 -1.330658E+05  4.792661E+04  2.292908E+03  8.746939E+04
       110   7 -1.764300E+04 -6.616144E+05 -6.411602E+04  3.340375E+04  2.802120E+03  1.796143E+04
       110   8 -3.053013E+04 -7.320236E+05 -1.035049E+05  2.858520E+04  6.060578E+03  5.470763E+04
       110   9 -1.722028E+05 -8.392104E+05 -1.989901E+05  8.401634E+04  2.293308E+03  9.143989E+04
       110  10  2.653904E+04 -4.830637E+05 -2.149406E+04  6.272567E+04 -3.078421E-09  9.631236E-09
       110  11  5.756977E+04 -3.765711E+05 -1.897798E+04  7.148292E+03  6.959672E-10  7.816283E-10
       110  12 -3.879923E+04 -3.054844E+05 -6.715905E+04  1.182118E+04  4.732250E-10 -5.531017E-09
       110  13  4.447854E+03 -5.723431E+05 -4.280513E+04  4.806363E+04 -2.721038E-09  3.051022E-09
       110  14  1.352033E+04 -5.543136E+05 -6.124322E+04  1.786815E+04  5.912193E-10 -1.528173E-09
       110  15 -1.055019E+05 -5.723857E+05 -1.330802E+05  4.792644E+04 -9.696090E-10  4.223908E-10
       110  16 -1.764310E+04 -6.616147E+05 -6.411664E+04  3.340371E+04  7.404055E-10 -5.789548E-09
       110  17 -3.053097E+04 -7.320269E+05 -1.035106E+05  2.858493E+04  1.417540E-09  1.339438E-09
       110  18 -1.722051E+05 -8.392194E+05 -1.990059E+05  8.401617E+04 -1.642826E-10  3.865149E-09
       110  19  2.653922E+04 -4.830630E+05 -2.149283E+04  6.272573E+04 -2.795189E+03 -2.548242E+04
       110  20  5.757061E+04 -3.765679E+05 -1.897232E+04  7.148558E+03 -6.058737E+03 -5.449189E+04
       110  21 -3.879736E+04 -3.054769E+05 -6.714594E+04  1.182134E+04 -2.292970E+03 -8.349718E+04
       110  22  4.447989E+03 -5.723426E+05 -4.280423E+04  4.806368E+04 -2.798566E+03 -2.172166E+04
       110  23  1.352117E+04 -5.543104E+05 -6.123754E+04  1.786842E+04 -6.059655E+03 -5.459978E+04
       110  24 -1.054999E+05 -5.723774E+05 -1.330658E+05  4.792661E+04 -2.292908E+03 -8.746939E+04
       110  25 -1.764300E+04 -6.616144E+05 -6.411602E+04  3.340375E+04 -2.802120E+03 -1.796143E+04
       110  26 -3.053013E+04 -7.320236E+05 -1.035049E+05  2.858520E+04 -6.060578E+03 -5.470763E+04
       110  27 -1.722028E+05 -8.392104E+05 -1.989901E+05  8.401634E+04 -2.293308E+03 -9.143989E+04
       111   1  4.939244E+05  1.703988E+05  1.016479E+05  1.830819E+05  4.743261E+04  1.608633E+04
       111   2  4.775915E+05  9.864489E+04  5.709545E+04  1.819412E+05  3.052084E+04  6.046621E+03
       111   3  4.795764E+05  8.841811E+04  4.143185E+04  1.723588E+05  1.231270E+04 -5.539273E+02
       111   4  3.841639E+05  1.087347E+05  6.816384E+04  1.323283E+05  4.399462E+04  1.478783E+04
       111   5  3.715914E+05  5.250868E+04  2.905995E+04  1.462443E+05  2.948237E+04  5.654489E+03
       111   6  3.768650E+05  5.733968E+04  1.694780E+04  1.517175E+05  1.367331E+04 -4.055066E+01
       111   7  2.744177E+05  4.707720E+04  3.467913E+04  8.158498E+04  4.055733E+04  1.348988E+04
       111   8  2.656027E+05  6.374528E+03  1.023598E+03  1.105534E+05  2.844410E+04  5.262458E+03
       111   9  2.741634E+05  2.626100E+04 -7.537117E+03  1.310788E+05  1.503368E+04  4.727767E+02
       111  10  4.939219E+05  1.703980E+05  1.016432E+05  1.830813E+05 -4.861921E-09 -1.887224E-09
       111  11  4.775905E+05  9.864460E+04  5.709363E+04  1.819411E+05 -2.210131E-10 -8.987608E-10
       111  12  4.795762E+05  8.841807E+04  4.143157E+04  1.723588E+05  6.899744E-09 -1.262179E-09
       111  13  3.841618E+05  1.087339E+05  6.815980E+04  1.323278E+05 -4.408732E-10  2.993921E-09
       111  14  3.715904E+05  5.250841E+04  2.905826E+04  1.462442E+05  2.388501E-09 -1.183715E-09
       111  15  3.768648E+05  5.733963E+04  1.694745E+04  1.517175E+05  4.338669E-09  3.904544E-09
       111  16  2.744159E+05  4.707657E+04  3.467570E+04  8.158454E+04  5.282688E-09  4.460961E-09
       111  17  2.656018E+05  6.374282E+03  1.022027E+03  1.105533E+05  8.889427E-10  6.709287E-09
       111  18  2.741631E+05  2.626094E+04 -7.537541E+03  1.310788E+05 -5.558252E-10  1.833413E-09
       111  19  4.939244E+05  1.703988E+05  1.016479E+05  1.830819E+05 -4.743261E+04 -1.608633E+04
       111  20  4.775915E+05  9.864489E+04  5.709545E+04  1.819412E+05 -3.052084E+04 -6.046621E+03
       111  21  4.795764E+05  8.841811E+04  4.143185E+04  1.723588E+05 -1.231270E+04  5.539273E+02
       111  22  3.841639E+05  1.087347E+05  6.816384E+04  1.323283E+05 -4.399462E+04 -1.478783E+04
       111  23  3.715914E+05  5.250868E+04  2.905995E+04  1.462443E+05 -2.948237E+04 -5.654489E+03
       111  24  3.768650E+05  5.733968E+04  1.694780E+04  1.517175E+05 -1.367331E+04  4.055066E+01
       111  25  2.744177E+05  4.707720E+04  3.467913E+04  8.158498E+04 -4.055733E+04 -1.348988E+04
       111  26  2.656027E+05  6.374528E+03  1.023598E+03  1.105534E+05 -2.844410E+04 -5.262458E+03
       111  27  2.741634E+05  2.626100E+04 -7.537117E+03  1.310788E+05 -1.503368E+04 -4.727767E+02
       112   1  4.577697E+05  9.585900E+04  3.485029E+04  1.723386E+05  1.080430E+04 -1.759899E+02
       112   2  4.463784E+05  8.323570E+04  2.463390E+04  1.661065E+05  7.002294E+03 -1.031231E+03
       112   3  4.318495E+05  8.038524E+04  1.831896E+04  1.648494E+05  3.134261E+03 -1.711327E+03
       112   4  3.746750E+05  6.337130E+04  1.359396E+04  1.481228E+05  1.109578E+04 -6.609182E+01
       112   5  3.759725E+05  5.649938E+04  6.811885E+03  1.463895E+05  7.416296E+03 -8.750620E+02
       112   6  3.741082E+05  5.937633E+04  3.834614E+03  1.496309E+05  3.670705E+03 -1.508919E+03
       112   7  2.915871E+05  3.088423E+04 -7.662934E+03  1.239101E+05  1.138722E+04  4.378855E+01
       112   8  3.055716E+05  2.976348E+04 -1.101049E+04  1.266745E+05  7.830245E+03 -7.189129E+02
       112   9  3.163704E+05  3.836768E+04 -1.064993E+04  1.344138E+05  4.207093E+03 -1.306530E+03
       112  10  4.577696E+05  9.585897E+04  3.485007E+04  1.723386E+05 -7.964091E-10 -6.342095E-09
       112  11  4.463784E+05  8.323569E+04  2.463381E+04  1.661065E+05 -3.645696E-09  6.804040E-09
       112  12  4.318495E+05  8.038524E+04  1.831894E+04  1.648494E+05 -4.342936E-09  5.829620E-09
       112  13  3.746749E+05  6.337127E+04  1.359373E+04  1.481228E+05  4.571966E-09  2.795286E-10
       112  14  3.759725E+05  5.649936E+04  6.811780E+03  1.463895E+05 -2.768483E-09 -4.595627E-09
       112  15  3.741082E+05  5.937632E+04  3.834584E+03  1.496309E+05 -1.539192E-09 -1.119049E-09
       112  16  2.915869E+05  3.088420E+04 -7.663177E+03  1.239101E+05  5.344330E-09 -1.496488E-09
       112  17  3.055716E+05  2.976346E+04 -1.101060E+04  1.266745E+05  3.122605E-09  2.742848E-09
       112  18  3.163704E+05  3.836767E+04 -1.064997E+04  1.344138E+05  1.776858E-09 -2.441727E-10
       112  19  4.577697E+05  9.585900E+04  3.485029E+04  1.723386E+05 -1.080430E+04  1.759899E+02
       112  20  4.463784E+05  8.323570E+04  2.463390E+04  1.661065E+05 -7.002294E+03  1.031231E+03
       112  21  4.318495E+05  8.038524E+04  1.831896E+04  1.648494E+05 -3.134261E+03  1.711327E+03
       112  22  3.746750E+05  6.337130E+04  1.359396E+04  1.481228E+05 -1.109578E+04  6.609182E+01
       112  23  3.759725E+05  5.649938E+04  6.811885E+03  1.463895E+05 -7.416296E+03  8.750620E+02
       112  24  3.741082E+05  5.937633E+04  3.834614E+03  1.496309E+05 -3.670705E+03  1.508919E+03
       112  25  2.915871E+05  3.088423E+04 -7.662934E+03  1.239101E+05 -1.138722E+04 -4.378855E+01
       112  26  3.055716E+05  2.976348E+04 -1.101049E+04  1.266745E+05 -7.830245E+03  7.189129E+02
       112  27  3.163704E+05  3.836768E+04 -1.064993E+04  1.344138E+05 -4.207093E+03  1.306530E+03
       113   1  4.179855E+05  7.639452E+04  1.403157E+04  1.615078E+05  2.483549E+03 -1.463407E+03
       113   2  4.071839E+05  6.840040E+04  9.355343E+03  1.548837E+05  1.416976E+03 -1.072541E+03
       113   3  3.913513E+05  6.603734E+04  5.372717E+03  1.541898E+05  3.472045E+02 -6.732911E+02
       113   4  3.738871E+05  5.982549E+04  2.947509E+03  1.493285E+05  2.964584E+03 -1.281896E+03
       113   5  3.763822E+05  5.686172E+04  1.589942E+03  1.464197E+05  1.903914E+03 -8.887869E+02
       113   6  3.738451E+05  5.952797E+04  9.214327E+02  1.494410E+05  8.400293E+02 -4.873004E+02
       113   7  3.297905E+05  4.325653E+04 -8.136757E+03  1.371500E+05  3.445582E+03 -1.100398E+03
       113   8  3.455813E+05  4.532308E+04 -6.175552E+03  1.379560E+05  2.390826E+03 -7.050423E+02
       113   9  3.563393E+05  5.301861E+04 -3.529876E+03  1.446923E+05  1.332839E+03 -3.013153E+02
       113  10  4.179855E+05  7.639452E+04  1.403156E+04  1.615078E+05  3.335967E-10 -3.611516E-09
       113  11  4.071839E+05  6.840040E+04  9.355337E+03  1.548837E+05  1.425070E-09 -1.131541E-09
       113  12  3.913513E+05  6.603734E+04  5.372716E+03  1.541898E+05  2.782871E-09  6.825237E-09
       113  13  3.738871E+05  5.982549E+04  2.947490E+03  1.493285E+05  5.266712E-10 -7.405559E-09
       113  14  3.763822E+05  5.686172E+04  1.589934E+03  1.464197E+05 -2.375776E-09 -4.755072E-09
       113  15  3.738451E+05  5.952797E+04  9.214309E+02  1.494410E+05 -5.681701E-09  3.275787E-09
       113  16  3.297905E+05  4.325652E+04 -8.136781E+03  1.371500E+05 -6.166773E-09 -3.785673E-09
       113  17  3.455813E+05  4.532308E+04 -6.175563E+03  1.379560E+05 -9.706600E-09  1.611570E-09
       113  18  3.563392E+05  5.301861E+04 -3.529880E+03  1.446923E+05 -9.042440E-09 -5.990722E-09
       113  19  4.179855E+05  7.639452E+04  1.403157E+04  1.615078E+05 -2.483549E+03  1.463407E+03
       113  20  4.071839E+05  6.840040E+04  9.355343E+03  1.548837E+05 -1.416976E+03  1.072541E+03
       113  21  3.913513E+05  6.603734E+04  5.372717E+03  1.541898E+05 -3.472045E+02  6.732911E+02
       113  22  3.738871E+05  5.982549E+04  2.947509E+03  1.493285E+05 -2.964584E+03  1.281896E+03
       113  23  3.763822E+05  5.686172E+04  1.589942E+03  1.464197E+05 -1.903914E+03  8.887869E+02
       113  24  3.738451E+05  5.952797E+04  9.214327E+02  1.494410E+05 -8.400293E+02  4.873004E+02
       113  25  3.297905E+05  4.325653E+04 -8.136757E+03  1.371500E+05 -3.445582E+03  1.100398E+03
       113  26  3.455813E+05  4.532308E+04 -6.175552E+03  1.379560E+05 -2.390826E+03  7.050423E+02
       113  27  3.563393E+05  5.301861E+04 -3.529876E+03  1.446923E+05 -1.332839E+03  3.013153E+02
       114   1  3.781833E+05  6.117783E+04  1.779232E+03  1.506101E+05  5.935345E+01 -3.128128E+02
       114   2  3.674656E+05  5.353471E+04 -1.766953E+03  1.439556E+05 -4.525826E+02  2.973712E+02
       114   3  3.515282E+05  5.119051E+04 -5.121584E+03  1.432859E+05 -9.647231E+02  9.081756E+02
       114   4  3.738182E+05  5.955762E+04  7.284720E+02  1.494142E+05  5.492819E+02 -1.279125E+02
       114   5  3.764268E+05  5.689884E+04  4.934904E+02  1.464253E+05  3.777054E+01  4.824264E+02
       114   6  3.738155E+05  5.953887E+04  4.497432E+02  1.494212E+05 -4.739528E+02  1.093385E+03
       114   7  3.694531E+05  5.793741E+04 -3.222838E+02  1.482183E+05  1.039205E+03  5.698568E+01
       114   8  3.853881E+05  6.026297E+04  2.753928E+03  1.488951E+05  5.281315E+02  6.674846E+02
       114   9  3.961033E+05  6.788731E+04  6.021057E+03  1.555568E+05  1.683875E+01  1.278603E+03
       114  10  3.781833E+05  6.117783E+04  1.779232E+03  1.506101E+05 -2.998387E-09  1.173030E-08
       114  11  3.674656E+05  5.353471E+04 -1.766953E+03  1.439556E+05  5.998168E-09  1.660910E-08
       114  12  3.515282E+05  5.119051E+04 -5.121588E+03  1.432859E+05  1.950758E-09  6.352574E-09
       114  13  3.738182E+05  5.955762E+04  7.284714E+02  1.494142E+05 -8.730570E-10  9.146127E-09
       114  14  3.764268E+05  5.689884E+04  4.934900E+02  1.464253E+05  2.007652E-09 -2.965978E-09
       114  15  3.738155E+05  5.953887E+04  4.497406E+02  1.494212E+05  3.915870E-10 -4.444899E-09
       114  16  3.694531E+05  5.793741E+04 -3.222858E+02  1.482183E+05 -1.368447E-09 -5.268969E-09
       114  17  3.853881E+05  6.026297E+04  2.753927E+03  1.488951E+05  1.996564E-09  2.349256E-09
       114  18  3.961033E+05  6.788730E+04  6.021054E+03  1.555568E+05 -1.129525E-09  1.993453E-09
       114  19  3.781833E+05  6.117783E+04  1.779232E+03  1.506101E+05 -5.935345E+01  3.128128E+02
       114  20  3.674656E+05  5.353471E+04 -1.766953E+03  1.439556E+05  4.525826E+02 -2.973712E+02
       114  21  3.515282E+05  5.119051E+04 -5.121584E+03  1.432859E+05  9.647231E+02 -9.081756E+02
       114  22  3.738182E+05  5.955762E+04  7.284720E+02  1.494142E+05 -5.492819E+02  1.279125E+02
       114  23  3.764268E+05  5.689884E+04  4.934904E+02  1.464253E+05 -3.777054E+01 -4.824264E+02
       114  24  3.738155E+05  5.953887E+04  4.497432E+02  1.494212E+05  4.739528E+02 -1.093385E+03
       114  25  3.694531E+05  5.793741E+04 -3.222838E+02  1.482183E+05 -1.039205E+03 -5.698568E+01
       114  26  3.853881E+05  6.026297E+04  2.753928E+03  1.488951E+05 -5.281315E+02 -6.674846E+02
       114  27  3.961033E+05  6.788731E+04  6.021057E+03  1.555568E+05 -1.683875E+01 -1.278603E+03
       115   1  3.384107E+05  4.626861E+04 -8.489033E+03  1.397004E+05 -1.197463E+03  1.288710E+03
       115   2  3.276606E+05  3.862385E+04 -1.159917E+04  1.330219E+05 -1.810178E+03  1.862764E+03
       115   3  3.117016E+05  3.631060E+04 -1.443757E+04  1.323432E+05 -2.422948E+03  2.437221E+03
       115   4  3.738170E+05  5.954096E+04  4.858301E+02  1.494264E+05 -7.063188E+02  1.474052E+03
       115   5  3.764236E+05  5.689085E+04  6.943772E+02  1.464207E+05 -1.318801E+03  2.048171E+03
       115   6  3.738211E+05  5.957214E+04  1.174463E+03  1.494145E+05 -1.931346E+03  2.622690E+03
       115   7  4.092244E+05  7.281339E+04  9.460592E+03  1.591529E+05 -2.151442E+02  1.659407E+03
       115   8  4.251887E+05  7.515796E+04  1.298771E+04  1.598203E+05 -8.273830E+02  2.233594E+03
       115   9  4.359440E+05  8.283383E+04  1.678612E+04  1.664873E+05 -1.439692E+03  2.808179E+03
       115  10  3.384107E+05  4.626861E+04 -8.489039E+03  1.397004E+05 -3.883088E-09  1.906936E-09
       115  11  3.276606E+05  3.862385E+04 -1.159919E+04  1.330219E+05 -1.285323E-09 -4.659880E-09
       115  12  3.117016E+05  3.631060E+04 -1.443759E+04  1.323432E+05  8.939330E-09  1.254114E-09
       115  13  3.738170E+05  5.954096E+04  4.858250E+02  1.494264E+05 -1.377899E-09 -4.249564E-09
       115  14  3.764236E+05  5.689084E+04  6.943661E+02  1.464207E+05 -3.498584E-09  1.537833E-10
       115  15  3.738211E+05  5.957213E+04  1.174443E+03  1.494145E+05  3.188202E-09  5.406369E-10
       115  16  4.092244E+05  7.281338E+04  9.460587E+03  1.591529E+05  1.645738E-09 -7.065947E-10
       115  17  4.251887E+05  7.515796E+04  1.298770E+04  1.598203E+05 -3.912073E-09 -3.534323E-09
       115  18  4.359440E+05  8.283382E+04  1.678610E+04  1.664873E+05 -3.036637E-09 -7.656298E-09
       115  19  3.384107E+05  4.626861E+04 -8.489033E+03  1.397004E+05  1.197463E+03 -1.288710E+03
       115  20  3.276606E+05  3.862385E+04 -1.159917E+04  1.330219E+05  1.810178E+03 -1.862764E+03
       115  21  3.117016E+05  3.631060E+04 -1.443757E+04  1.323432E+05  2.422948E+03 -2.437221E+03
       115  22  3.738170E+05  5.954096E+04  4.858301E+02  1.494264E+05  7.063188E+02 -1.474052E+03
       115  23  3.764236E+05  5.689085E+04  6.943772E+02  1.464207E+05  1.318801E+03 -2.048171E+03
       115  24  3.738211E+05  5.957214E+04  1.174463E+03  1.494145E+05  1.931346E+03 -2.622690E+03
       115  25  4.092244E+05  7.281339E+04  9.460592E+03  1.591529E+05  2.151442E+02 -1.659407E+03
       115  26  4.251887E+05  7.515796E+04  1.298771E+04  1.598203E+05  8.273830E+02 -2.233594E+03
       115  27  4.359440E+05  8.283383E+04  1.678612E+04  1.664873E+05  1.439692E+03 -2.808179E+03
       116   1  2.985118E+05  3.138035E+04 -1.749759E+04  1.288588E+05 -2.806335E+03  2.764522E+03
       116   2  2.876309E+05  2.358060E+04 -1.964729E+04  1.220246E+05 -4.431594E+03  2.958844E+03
       116   3  2.718577E+05  2.171088E+04 -2.062057E+04  1.211229E+05 -6.052441E+03  3.141833E+03
       116   4  3.738657E+05  5.952606E+04  1.531708E+03  1.494670E+05 -2.309822E+03  2.951825E+03
       116   5  3.763471E+05  5.681742E+04  2.720304E+03  1.464035E+05 -3.943189E+03  3.143046E+03
       116   6  3.739379E+05  6.004041E+04  5.091707E+03  1.492725E+05 -5.572174E+03  3.322926E+03
       116   7  4.492254E+05  8.767225E+04  2.056064E+04  1.700776E+05 -1.813240E+03  3.139152E+03
       116   8  4.650712E+05  9.005482E+04  2.508733E+04  1.707857E+05 -3.454707E+03  3.327278E+03
       116   9  4.760283E+05  9.837065E+04  3.080316E+04  1.774264E+05 -5.091822E+03  3.504051E+03
       116  10  2.985118E+05  3.138034E+04 -1.749762E+04  1.288588E+05  2.190616E-09 -2.744084E-09
       116  11  2.876308E+05  2.358059E+04 -1.964735E+04  1.220246E+05 -5.316049E-09 -7.992269E-10
       116  12  2.718576E+05  2.171086E+04 -2.062065E+04  1.211229E+05 -1.408086E-09  5.533169E-09
       116  13  3.738657E+05  5.952605E+04  1.531682E+03  1.494670E+05  4.727512E-09  3.526934E-09
       116  14  3.763471E+05  5.681740E+04  2.720256E+03  1.464035E+05 -5.137838E-09  2.899361E-09
       116  15  3.739378E+05  6.004039E+04  5.091628E+03  1.492726E+05  7.178040E-10 -6.752563E-10
       116  16  4.492254E+05  8.767224E+04  2.056062E+04  1.700776E+05  2.168539E-09  3.939219E-09
       116  17  4.650712E+05  9.005481E+04  2.508728E+04  1.707857E+05 -7.184849E-10  6.751082E-09
       116  18  4.760283E+05  9.837063E+04  3.080308E+04  1.774264E+05  8.634528E-10 -1.929239E-09
       116  19  2.985118E+05  3.138035E+04 -1.749759E+04  1.288588E+05  2.806335E+03 -2.764522E+03
       116  20  2.876309E+05  2.358060E+04 -1.964729E+04  1.220246E+05  4.431594E+03 -2.958844E+03
       116  21  2.718577E+05  2.171088E+04 -2.062057E+04  1.211229E+05  6.052441E+03 -3.141833E+03
       116  22  3.738657E+05  5.952606E+04  1.531708E+03  1.494670E+05  2.309822E+03 -2.951825E+03
       116  23  3.763471E+05  5.681742E+04  2.720304E+03  1.464035E+05  3.943189E+03 -3.143046E+03
       116  24  3.739379E+05  6.004041E+04  5.091707E+03  1.492725E+05  5.572174E+03 -3.322926E+03
       116  25  4.492254E+05  8.767225E+04  2.056064E+04  1.700776E+05  1.813240E+03 -3.139152E+03
       116  26  4.650712E+05  9.005482E+04  2.508733E+04  1.707857E+05  3.454707E+03 -3.327278E+03
       116  27  4.760283E+05  9.837065E+04  3.080316E+04  1.774264E+05  5.091822E+03 -3.504051E+03
       117   1  2.581092E+05  1.682013E+04 -2.250340E+04  1.189994E+05 -7.240468E+03  3.202689E+03
       117   2  2.471317E+05  7.430704E+03 -2.071689E+04  1.104110E+05 -1.336415E+04  1.669225E+03
       117   3  2.344669E+05  1.109704E+04 -1.247188E+04  1.061160E+05 -1.939201E+04 -1.175915E+02
       117   4  3.743204E+05  5.926455E+04  6.635647E+03  1.498005E+05 -6.679313E+03  3.414271E+03
       117   5  3.756377E+05  5.618411E+04  1.180453E+04  1.463468E+05 -1.298083E+04  1.813651E+03
       117   6  3.753020E+05  6.619333E+04  2.357174E+04  1.471862E+05 -1.918670E+04 -4.038919E+01
       117   7  4.905444E+05  1.017095E+05  3.577350E+04  1.806066E+05 -6.118046E+03  3.625892E+03
       117   8  5.041599E+05  1.049387E+05  4.432462E+04  1.822894E+05 -1.259744E+04  1.958111E+03
       117   9  5.161572E+05  1.212916E+05  5.961389E+04  1.882653E+05 -1.898134E+04  3.683471E+01
       117  10  2.581091E+05  1.682010E+04 -2.250352E+04  1.189994E+05  9.661226E-09  8.432859E-09
       117  11  2.471315E+05  7.430653E+03 -2.071723E+04  1.104110E+05  6.019203E-09 -2.622262E-10
       117  12  2.344665E+05  1.109694E+04 -1.247259E+04  1.061160E+05  7.261607E-10  1.068522E-10
       117  13  3.743204E+05  5.926453E+04  6.635541E+03  1.498005E+05  2.031786E-09 -1.892358E-09
       117  14  3.756376E+05  5.618406E+04  1.180420E+04  1.463469E+05  4.224401E-09 -5.299136E-09
       117  15  3.753016E+05  6.619323E+04  2.357104E+04  1.471862E+05  1.523429E-09 -1.670724E-09
       117  16  4.905444E+05  1.017095E+05  3.577341E+04  1.806067E+05 -4.396383E-09 -1.026523E-08
       117  17  5.041597E+05  1.049387E+05  4.432432E+04  1.822894E+05 -3.134542E-10 -7.488768E-09
       117  18  5.161568E+05  1.212915E+05  5.961321E+04  1.882653E+05  2.502797E-09 -5.959228E-09
       117  19  2.581092E+05  1.682013E+04 -2.250340E+04  1.189994E+05  7.240468E+03 -3.202689E+03
       117  20  2.471317E+05  7.430704E+03 -2.071689E+04  1.104110E+05  1.336415E+04 -1.669225E+03
       117  21  2.344669E+05  1.109704E+04 -1.247188E+04  1.061160E+05  1.939201E+04  1.175915E+02
       117  22  3.743204E+05  5.926455E+04  6.635647E+03  1.498005E+05  6.679313E+03 -3.414271E+03
       117  23  3.756377E+05  5.618411E+04  1.180453E+04  1.463468E+05  1.298083E+04 -1.813651E+03
       117  24  3.753020E+05  6.619333E+04  2.357174E+04  1.471862E+05  1.918670E+04  4.038919E+01
       117  25  4.905444E+05  1.017095E+05  3.577350E+04  1.806066E+05  6.118046E+03 -3.625892E+03
       117  26  5.041599E+05  1.049387E+05  4.432462E+04  1.822894E+05  1.259744E+04 -1.958111E+03
       117  27  5.161572E+05  1.212916E+05  5.961389E+04  1.882653E+05  1.898134E+04 -3.683471E+01
       118   1  2.137823E+05  6.651005E+03 -9.838309E+03  1.211761E+05 -2.525775E+04 -1.161159E+03
       118   2  2.066460E+05 -2.230690E+04  7.471442E+03  9.038305E+04 -4.904953E+04 -1.009134E+04
       118   3  2.335814E+05  5.017189E+04  6.884449E+04  4.064948E+04 -7.096061E+04 -2.401020E+04
       118   4  3.790987E+05  5.573558E+04  2.938985E+04  1.534224E+05 -2.350040E+04 -4.982353E+02
       118   5  3.680453E+05  4.925730E+04  5.039740E+04  1.460890E+05 -5.077657E+04 -1.074346E+04
       118   6  3.917412E+05  1.448868E+05  1.182197E+05  1.198186E+05 -7.617210E+04 -2.597887E+04
       118   7  5.444424E+05  1.048200E+05  6.861630E+04  1.856753E+05 -2.174253E+04  1.647924E+02
       118   8  5.294694E+05  1.208259E+05  9.332084E+04  2.018088E+05 -5.250408E+04 -1.139583E+04
       118   9  5.499261E+05  2.396159E+05  1.675921E+05  1.990086E+05 -8.138496E+04 -2.794880E+04
       118  10  2.137816E+05  6.650833E+03 -9.839510E+03  1.211761E+05  2.013471E-09  3.720970E-09
       118  11  2.066434E+05 -2.230765E+04  7.466731E+03  9.038265E+04 -2.197768E-09 -2.141087E-09
       118  12  2.335758E+05  5.016992E+04  6.883395E+04  4.064811E+04 -3.253956E-09 -3.163954E-09
       118  13  3.790981E+05  5.573543E+04  2.938881E+04  1.534223E+05  1.516347E-09 -6.119015E-09
       118  14  3.680425E+05  4.925649E+04  5.039234E+04  1.460886E+05 -2.456070E-09 -2.663596E-09
       118  15  3.917347E+05  1.448846E+05  1.182076E+05  1.198171E+05  9.755032E-10  2.895396E-09
       118  16  5.444419E+05  1.048199E+05  6.861541E+04  1.856753E+05 -2.652468E-09 -9.718132E-09
       118  17  5.294664E+05  1.208250E+05  9.331542E+04  2.018083E+05 -1.531642E-09 -1.561594E-09
       118  18  5.499187E+05  2.396133E+05  1.675782E+05  1.990068E+05  1.193084E-09  1.513066E-09
       118  19  2.137823E+05  6.651005E+03 -9.838309E+03  1.211761E+05  2.525775E+04  1.161159E+03
       118  20  2.066460E+05 -2.230690E+04  7.471442E+03  9.038305E+04  4.904953E+04  1.009134E+04
       118  21  2.335814E+05  5.017189E+04  6.884449E+04  4.064948E+04  7.096061E+04  2.401020E+04
       118  22  3.790987E+05  5.573558E+04  2.938985E+04  1.534224E+05  2.350040E+04  4.982353E+02
       118  23  3.680453E+05  4.925730E+04  5.039740E+04  1.460890E+05  5.077657E+04  1.074346E+04
       118  24  3.917412E+05  1.448868E+05  1.182197E+05  1.198186E+05  7.617210E+04  2.597887E+04
       118  25  5.444424E+05  1.048200E+05  6.861630E+04  1.856753E+05  2.174253E+04 -1.647924E+02
       118  26  5.294694E+05  1.208259E+05  9.332084E+04  2.018088E+05  5.250408E+04  1.139583E+04
       118  27  5.499261E+05  2.396159E+05  1.675921E+05  1.990086E+05  8.138496E+04  2.794880E+04
       119   1 -3.604357E+02 -5.449052E+05 -2.816978E+03 -2.310892E+02 -6.466792E+01  1.999619E+02
       119   2 -7.911340E+02 -5.469463E+05 -3.906870E+03  4.134156E+02 -1.263791E+02  1.703498E+03
       119   3 -2.080734E+03 -5.494042E+05 -6.192264E+03 -4.759853E+02 -2.202148E+02  3.207000E+03
       119   4 -2.133304E+01 -5.435329E+05 -2.496721E+03 -3.405983E+02 -6.470580E+01  2.238298E+02
       119   5  1.062490E+02 -5.433232E+05 -3.044997E+03  4.258738E+02 -1.264448E+02  1.745094E+03
       119   6 -6.281378E+02 -5.435333E+05 -4.801081E+03 -3.415578E+02 -2.203078E+02  3.266329E+03
       119   7  3.177695E+02 -5.421605E+05 -2.176463E+03 -4.501076E+02 -6.474368E+01  2.476976E+02
       119   8  1.003631E+03 -5.397000E+05 -2.183126E+03  4.383320E+02 -1.265106E+02  1.786690E+03
       119   9  8.244561E+02 -5.376624E+05 -3.409901E+03 -2.071290E+02 -2.204008E+02  3.325659E+03
       119  10 -3.604357E+02 -5.449052E+05 -2.816978E+03 -2.310892E+02 -2.363966E-09  6.158846E-12
       119  11 -7.911348E+02 -5.469463E+05 -3.906875E+03  4.134158E+02  2.728102E-09  3.202158E-09
       119  12 -2.080737E+03 -5.494042E+05 -6.192284E+03 -4.759847E+02 -6.414093E-10  2.820798E-09
       119  13 -2.133306E+01 -5.435329E+05 -2.496721E+03 -3.405983E+02  1.906023E-09  1.119814E-09
       119  14  1.062482E+02 -5.433232E+05 -3.045003E+03  4.258740E+02  2.744763E-09 -6.579841E-10
       119  15 -6.281407E+02 -5.435333E+05 -4.801101E+03 -3.415572E+02  1.179067E-10  3.092618E-09
       119  16  3.177695E+02 -5.421605E+05 -2.176464E+03 -4.501076E+02 -1.200009E-09 -1.133441E-09
       119  17  1.003630E+03 -5.397000E+05 -2.183132E+03  4.383322E+02  3.589528E-09 -8.272960E-10
       119  18  8.244530E+02 -5.376625E+05 -3.409922E+03 -2.071284E+02 -2.620032E-09  2.867182E-09
       119  19 -3.604357E+02 -5.449052E+05 -2.816978E+03 -2.310892E+02  6.466792E+01 -1.999619E+02
       119  20 -7.911340E+02 -5.469463E+05 -3.906870E+03  4.134156E+02  1.263791E+02 -1.703498E+03
       119  21 -2.080734E+03 -5.494042E+05 -6.192264E+03 -4.759853E+02  2.202148E+02 -3.207000E+03
       119  22 -2.133304E+01 -5.435329E+05 -2.496721E+03 -3.405983E+02  6.470580E+01 -2.238298E+02
       119  23  1.062490E+02 -5.433232E+05 -3.044997E+03  4.258738E+02  1.264448E+02 -1.745094E+03
       119  24 -6.281378E+02 -5.435333E+05 -4.801081E+03 -3.415578E+02  2.203078E+02 -3.266329E+03
       119  25  3.177695E+02 -5.421605E+05 -2.176463E+03 -4.501076E+02  6.474368E+01 -2.476976E+02
       119  26  1.003631E+03 -5.397000E+05 -2.183126E+03  4.383320E+02  1.265106E+02 -1.786690E+03
       119  27  8.244561E+02 -5.376624E+05 -3.409901E+03 -2.071290E+02  2.204008E+02 -3.325659E+03
       120   1 -1.788231E+03 -5.526387E+05 -8.028646E+03  6.528724E+02 -2.864437E+02  4.159615E+03
       120   2 -1.799552E+03 -5.535444E+05 -1.238458E+04 -6.618407E+01 -3.853847E+02  9.183027E+03
       120   3 -9.843452E+03 -5.571193E+05 -2.202246E+04 -2.317010E+03 -4.545181E+02  1.420645E+04
       120   4  3.484704E+02 -5.440322E+05 -5.975513E+03 -3.370439E+02 -2.865423E+02  4.218086E+03
       120   5  8.844684E+02 -5.427005E+05 -9.805631E+03  4.233836E+02 -3.854430E+02  9.225121E+03
       120   6 -6.609191E+03 -5.440350E+05 -1.890623E+04 -3.479602E+02 -4.545124E+02  1.423218E+04
       120   7  2.485170E+03 -5.354256E+05 -3.922384E+03 -1.326974E+03 -2.866412E+02  4.276557E+03
       120   8  3.568481E+03 -5.318565E+05 -7.226687E+03  9.129598E+02 -3.855013E+02  9.267216E+03
       120   9 -3.374927E+03 -5.309506E+05 -1.579002E+04  1.621131E+03 -4.545065E+02  1.425792E+04
       120  10 -1.788235E+03 -5.526387E+05 -8.028679E+03  6.528733E+02 -2.726804E-09 -9.797038E-10
       120  11 -1.799575E+03 -5.535445E+05 -1.238474E+04 -6.618122E+01 -8.578428E-10 -6.068345E-09
       120  12 -9.843506E+03 -5.571195E+05 -2.202284E+04 -2.317005E+03  2.403813E-09 -4.588245E-09
       120  13  3.484656E+02 -5.440322E+05 -5.975546E+03 -3.370429E+02 -6.100560E-09  7.285109E-12
       120  14  8.844454E+02 -5.427006E+05 -9.805791E+03  4.233864E+02  6.375737E-10  8.294972E-10
       120  15 -6.609245E+03 -5.440352E+05 -1.890662E+04 -3.479550E+02  8.892744E-10 -1.770875E-09
       120  16  2.485165E+03 -5.354257E+05 -3.922419E+03 -1.326973E+03 -5.152720E-09  9.678400E-10
       120  17  3.568458E+03 -5.318566E+05 -7.226849E+03  9.129627E+02 -2.254132E-10  6.692420E-09
       120  18 -3.374982E+03 -5.309508E+05 -1.579040E+04  1.621137E+03  8.681121E-12  7.964513E-09
       120  19 -1.788231E+03 -5.526387E+05 -8.028646E+03  6.528724E+02  2.864437E+02 -4.159615E+03
       120  20 -1.799552E+03 -5.535444E+05 -1.238458E+04 -6.618407E+01  3.853847E+02 -9.183027E+03
       120  21 -9.843452E+03 -5.571193E+05 -2.202246E+04 -2.317010E+03  4.545181E+02 -1.420645E+04
       120  22  3.484704E+02 -5.440322E+05 -5.975513E+03 -3.370439E+02  2.865423E+02 -4.218086E+03
       120  23  8.844684E+02 -5.427005E+05 -9.805631E+03  4.233836E+02  3.854430E+02 -9.225121E+03
       120  24 -6.609191E+03 -5.440350E+05 -1.890623E+04 -3.479602E+02  4.545124E+02 -1.423218E+04
       120  25  2.485170E+03 -5.354256E+05 -3.922384E+03 -1.326974E+03  2.866412E+02 -4.276557E+03
       120  26  3.568481E+03 -5.318565E+05 -7.226687E+03  9.129598E+02  3.855013E+02 -9.267216E+03
       120  27 -3.374927E+03 -5.309506E+05 -1.579002E+04  1.621131E+03  4.545065E+02 -1.425792E+04
       121   1 -3.547298E+02 -5.642945E+05 -2.694879E+04  9.005281E+03 -5.799198E+02  1.762914E+04
       121   2  4.162349E+03 -5.550860E+05 -4.159207E+04 -6.316731E+03 -6.772978E+02  3.798755E+04
       121   3 -7.248619E+04 -5.688318E+05 -8.978982E+04 -2.321858E+04 -3.005327E+02  5.834642E+04
       121   4  3.585581E+03 -5.485292E+05 -2.319627E+04 -3.177337E+02 -5.804446E+02  1.779634E+04
       121   5  8.594901E+03 -5.370840E+05 -3.731607E+04  4.175163E+02 -6.767363E+02  3.789315E+04
       121   6 -6.751564E+04 -5.485477E+05 -8.480799E+04 -4.276765E+02 -2.978370E+02  5.799049E+04
       121   7  7.526201E+03 -5.327634E+05 -1.944373E+04 -9.640987E+03 -5.809745E+02  1.796355E+04
       121   8  1.302760E+04 -5.190816E+05 -3.304007E+04  7.151960E+03 -6.761769E+02  3.779873E+04
       121   9 -6.254317E+04 -5.282621E+05 -7.982591E+04  2.236397E+04 -2.951675E+02  5.763454E+04
       121  10 -3.548137E+02 -5.642949E+05 -2.694937E+04  9.005290E+03  2.235842E-09  2.333681E-09
       121  11  4.161960E+03 -5.550875E+05 -4.159478E+04 -6.316710E+03  1.425992E-09  2.479393E-10
       121  12 -7.248710E+04 -5.688355E+05 -8.979623E+04 -2.321856E+04  2.442381E-10  3.144505E-09
       121  13  3.585496E+03 -5.485295E+05 -2.319687E+04 -3.177254E+02  1.010467E-09  2.206900E-09
       121  14  8.594515E+03 -5.370855E+05 -3.731877E+04  4.175370E+02 -1.023042E-09 -2.941231E-09
       121  15 -6.751654E+04 -5.485513E+05 -8.481432E+04 -4.276625E+02  9.294526E-10  4.087981E-10
       121  16  7.526114E+03 -5.327637E+05 -1.944434E+04 -9.640979E+03 -5.588801E-10  3.411457E-10
       121  17  1.302722E+04 -5.190832E+05 -3.304276E+04  7.151981E+03  6.484551E-10  6.158689E-09
       121  18 -6.254406E+04 -5.282656E+05 -7.983216E+04  2.236398E+04 -1.500700E-09  5.763131E-10
       121  19 -3.547298E+02 -5.642945E+05 -2.694879E+04  9.005281E+03  5.799198E+02 -1.762914E+04
       121  20  4.162349E+03 -5.550860E+05 -4.159207E+04 -6.316731E+03  6.772978E+02 -3.798755E+04
       121  21 -7.248619E+04 -5.688318E+05 -8.978982E+04 -2.321858E+04  3.005327E+02 -5.834642E+04
       121  22  3.585581E+03 -5.485292E+05 -2.319627E+04 -3.177337E+02  5.804446E+02 -1.779634E+04
       121  23  8.594901E+03 -5.370840E+05 -3.731607E+04  4.175163E+02  6.767363E+02 -3.789315E+04
       121  24 -6.751564E+04 -5.485477E+05 -8.480799E+04 -4.276765E+02  2.978370E+02 -5.799049E+04
       121  25  7.526201E+03 -5.327634E+05 -1.944373E+04 -9.640987E+03  5.809745E+02 -1.796355E+04
       121  26  1.302760E+04 -5.190816E+05 -3.304007E+04  7.151960E+03  6.761769E+02 -3.779873E+04
       121  27 -6.254317E+04 -5.282621E+05 -7.982591E+04  2.236397E+04  2.951675E+02 -5.763454E+04
       122   1 -6.041390E+06 -1.950874E+06 -9.733693E+05 -2.209444E+06 -3.655882E+05 -8.450312E+04
       122   2 -5.855679E+06 -1.683662E+06 -6.930695E+05 -2.141006E+06 -2.396217E+05  9.022010E+04
       122   3 -5.703621E+06 -1.564555E+06 -5.699990E+05 -2.083916E+06 -8.250755E+04  1.834260E+05
       122   4 -3.044232E+06 -7.273202E+05 -1.778365E+05 -1.294242E+06 -1.327640E+05  3.897527E+03
       122   5 -3.029865E+06 -5.972136E+05 -8.209146E+04 -1.314453E+06 -1.318812E+05  1.309988E+05
       122   6 -3.023916E+06 -5.899236E+05 -4.339076E+04 -1.346082E+06 -9.999475E+04  1.767148E+05
       122   7 -3.817457E+04  4.972542E+05  6.171262E+05 -3.748356E+05  1.012993E+05  9.285207E+04
       122   8 -1.958122E+05  4.900820E+05  5.284665E+05 -4.843312E+05 -2.360677E+04  1.719973E+05
       122   9 -3.366708E+05  3.853378E+05  4.829005E+05 -6.052689E+05 -1.175639E+05  1.699736E+05
       122  10 -6.041537E+06 -1.950918E+06 -9.736368E+05 -2.209470E+06  1.434966E-09  6.801502E-10
       122  11 -5.855743E+06 -1.683686E+06 -6.931933E+05 -2.140989E+06  2.237841E-09 -1.597012E-09
       122  12 -5.703637E+06 -1.564593E+06 -5.700749E+05 -2.083904E+06  7.937226E-11 -3.503562E-10
       122  13 -3.044251E+06 -7.273250E+05 -1.778698E+05 -1.294241E+06 -2.888938E-09  1.663049E-09
       122  14 -3.029888E+06 -5.972366E+05 -8.215635E+04 -1.314439E+06 -5.407705E-10  2.788840E-10
       122  15 -3.023935E+06 -5.899597E+05 -4.346811E+04 -1.346068E+06 -2.829307E-09 -3.514953E-10
       122  16 -3.818791E+04  4.972422E+05  6.170907E+05 -3.748432E+05 -2.581476E-09 -3.067628E-09
       122  17 -1.958207E+05  4.900502E+05  5.284100E+05 -4.843280E+05 -1.366069E-09 -2.361019E-09
       122  18 -3.366934E+05  3.853031E+05  4.828204E+05 -6.052528E+05  4.278713E-10 -2.606898E-09
       122  19 -6.041390E+06 -1.950874E+06 -9.733693E+05 -2.209444E+06  3.655882E+05  8.450312E+04
       122  20 -5.855679E+06 -1.683662E+06 -6.930695E+05 -2.141006E+06  2.396217E+05 -9.022010E+04
       122  21 -5.703621E+06 -1.564555E+06 -5.699990E+05 -2.083916E+06  8.250755E+04 -1.834260E+05
       122  22 -3.044232E+06 -7.273202E+05 -1.778365E+05 -1.294242E+06  1.327640E+05 -3.897527E+03
       122  23 -3.029865E+06 -5.972136E+05 -8.209146E+04 -1.314453E+06  1.318812E+05 -1.309988E+05
       122  24 -3.023916E+06 -5.899236E+05 -4.339076E+04 -1.346082E+06  9.999475E+04 -1.767148E+05
       122  25 -3.817457E+04  4.972542E+05  6.171262E+05 -3.748356E+05 -1.012993E+05 -9.285207E+04
       122  26 -1.958122E+05  4.900820E+05  5.284665E+05 -4.843312E+05  2.360677E+04 -1.719973E+05
       122  27 -3.366708E+05  3.853378E+05  4.829005E+05 -6.052689E+05  1.175639E+05 -1.699736E+05
       123   1 -5.554883E+06 -1.528046E+06 -5.308087E+05 -2.054745E+06 -8.797017E+04  1.730219E+05
       123   2 -5.374307E+06 -1.428533E+06 -4.669956E+05 -1.979479E+06 -6.718889E+04  1.740668E+05
       123   3 -5.162051E+06 -1.370703E+06 -4.184454E+05 -1.943517E+06 -4.403005E+04  1.687698E+05
       123   4 -3.017677E+06 -5.938456E+05 -3.294522E+04 -1.343726E+06 -9.231034E+04  1.712971E+05
       123   5 -3.033828E+06 -5.706850E+05 -1.747947E+04 -1.325240E+06 -8.123841E+04  1.686859E+05
       123   6 -3.016388E+06 -5.872461E+05 -9.499003E+03 -1.346062E+06 -6.780033E+04  1.597437E+05
       123   7 -4.737334E+05  3.409540E+05  4.646262E+05 -6.299788E+05 -9.666975E+04  1.695651E+05
       123   8 -6.876045E+05  2.876703E+05  4.318014E+05 -6.686877E+05 -9.534516E+04  1.632836E+05
       123   9 -8.659046E+05  1.966283E+05  3.992530E+05 -7.466751E+05 -9.165915E+04  1.506844E+05
       123  10 -5.554899E+06 -1.528080E+06 -5.308794E+05 -2.054733E+06  9.909475E-11 -3.429386E-10
       123  11 -5.374320E+06 -1.428566E+06 -4.670609E+05 -1.979470E+06 -5.679505E-10  1.220280E-09
       123  12 -5.162061E+06 -1.370734E+06 -4.185025E+05 -1.943511E+06  2.723449E-09 -1.862918E-10
       123  13 -3.017694E+06 -5.938793E+05 -3.301626E+04 -1.343713E+06 -1.229779E-09 -8.255101E-10
       123  14 -3.033842E+06 -5.707173E+05 -1.754524E+04 -1.325229E+06  1.214315E-09 -3.708774E-09
       123  15 -3.016400E+06 -5.872747E+05 -9.555497E+03 -1.346053E+06 -1.078930E-10 -2.247575E-09
       123  16 -4.737511E+05  3.409207E+05  4.645548E+05 -6.299656E+05  6.642259E-10  3.281424E-10
       123  17 -6.876213E+05  2.876393E+05  4.317343E+05 -6.686751E+05 -1.070188E-09 -1.700920E-09
       123  18 -8.659197E+05  1.966018E+05  3.991947E+05 -7.466640E+05 -2.470653E-09 -2.418572E-09
       123  19 -5.554883E+06 -1.528046E+06 -5.308087E+05 -2.054745E+06  8.797017E+04 -1.730219E+05
       123  20 -5.374307E+06 -1.428533E+06 -4.669956E+05 -1.979479E+06  6.718889E+04 -1.740668E+05
       123  21 -5.162051E+06 -1.370703E+06 -4.184454E+05 -1.943517E+06  4.403005E+04 -1.687698E+05
       123  22 -3.017677E+06 -5.938456E+05 -3.294522E+04 -1.343726E+06  9.231034E+04 -1.712971E+05
       123  23 -3.033828E+06 -5.706850E+05 -1.747947E+04 -1.325240E+06  8.123841E+04 -1.686859E+05
       123  24 -3.016388E+06 -5.872461E+05 -9.499003E+03 -1.346062E+06  6.780033E+04 -1.597437E+05
       123  25 -4.737334E+05  3.409540E+05  4.646262E+05 -6.299788E+05  9.666975E+04 -1.695651E+05
       123  26 -6.876045E+05  2.876703E+05  4.318014E+05 -6.686877E+05  9.534516E+04 -1.632836E+05
       123  27 -8.659046E+05  1.966283E+05  3.992530E+05 -7.466751E+05  9.165915E+04 -1.506844E+05
       124   1 -5.027898E+06 -1.322227E+06 -3.894946E+05 -1.906805E+06 -4.012816E+04  1.598781E+05
       124   2 -4.844392E+06 -1.229339E+06 -3.476337E+05 -1.829518E+06 -3.150860E+04  1.457908E+05
       124   3 -4.624322E+06 -1.173232E+06 -3.078635E+05 -1.793733E+06 -2.269559E+04  1.311182E+05
       124   4 -3.015729E+06 -5.874915E+05 -7.165772E+03 -1.346150E+06 -6.304452E+04  1.511883E+05
       124   5 -3.033885E+06 -5.687942E+05 -3.995422E+03 -1.325485E+06 -5.531654E+04  1.367861E+05
       124   6 -3.015353E+06 -5.866988E+05 -2.208621E+03 -1.346332E+06 -4.739649E+04  1.217994E+05
       124   7 -9.992820E+05  1.476277E+05  3.750040E+05 -7.837854E+05 -8.604130E+04  1.424683E+05
       124   8 -1.219921E+06  9.205799E+04  3.395133E+05 -8.200714E+05 -7.919951E+04  1.277533E+05
       124   9 -1.403661E+06  7.392968E+01  3.033425E+05 -8.978437E+05 -7.216643E+04  1.124547E+05
       124  10 -5.027906E+06 -1.322255E+06 -3.895456E+05 -1.906800E+06  4.045362E-09 -2.590756E-10
       124  11 -4.844398E+06 -1.229362E+06 -3.476755E+05 -1.829514E+06  4.535771E-09 -1.210305E-09
       124  12 -4.624327E+06 -1.173251E+06 -3.078967E+05 -1.793731E+06  3.565625E-09 -1.192590E-10
       124  13 -3.015739E+06 -5.875170E+05 -7.216110E+03 -1.346143E+06  5.132972E-10 -1.572301E-09
       124  14 -3.033893E+06 -5.688151E+05 -4.036263E+03 -1.325479E+06  1.779886E-09 -1.441825E-09
       124  15 -3.015359E+06 -5.867153E+05 -2.240666E+03 -1.346328E+06  1.981783E-10 -1.714100E-09
       124  16 -9.992954E+05  1.476040E+05  3.749520E+05 -7.837755E+05 -1.962084E-09 -2.553126E-09
       124  17 -1.219932E+06  9.203881E+04  3.394709E+05 -8.200633E+05 -1.457782E-09 -2.457911E-09
       124  18 -1.403670E+06  5.898109E+01  3.033090E+05 -8.978372E+05 -2.905947E-09 -3.481467E-09
       124  19 -5.027898E+06 -1.322227E+06 -3.894946E+05 -1.906805E+06  4.012816E+04 -1.598781E+05
       124  20 -4.844392E+06 -1.229339E+06 -3.476337E+05 -1.829518E+06  3.150860E+04 -1.457908E+05
       124  21 -4.624322E+06 -1.173232E+06 -3.078635E+05 -1.793733E+06  2.269559E+04 -1.311182E+05
       124  22 -3.015729E+06 -5.874915E+05 -7.165772E+03 -1.346150E+06  6.304452E+04 -1.511883E+05
       124  23 -3.033885E+06 -5.687942E+05 -3.995422E+03 -1.325485E+06  5.531654E+04 -1.367861E+05
       124  24 -3.015353E+06 -5.866988E+05 -2.208621E+03 -1.346332E+06  4.739649E+04 -1.217994E+05
       124  25 -9.992820E+05  1.476277E+05  3.750040E+05 -7.837854E+05  8.604130E+04 -1.424683E+05
       124  26 -1.219921E+06  9.205799E+04  3.395133E+05 -8.200714E+05  7.919951E+04 -1.277533E+05
       124  27 -1.403661E+06  7.392968E+01  3.033425E+05 -8.978437E+05  7.216643E+04 -1.124547E+05
       125   1 -4.488595E+06 -1.123496E+06 -2.804786E+05 -1.756145E+06 -1.879978E+04  1.218942E+05
       125   2 -4.301881E+06 -1.029838E+06 -2.413876E+05 -1.677760E+06 -1.200947E+04  1.060470E+05
       125   3 -4.077923E+06 -9.732036E+05 -2.027647E+05 -1.641671E+06 -5.196256E+03  9.008485E+04
       125   4 -3.015133E+06 -5.867269E+05 -1.714256E+03 -1.346492E+06 -4.354675E+04  1.125693E+05
       125   5 -3.033628E+06 -5.680008E+05 -1.103948E+03 -1.325385E+06 -3.693137E+04  9.667189E+04
       125   6 -3.014892E+06 -5.862641E+05 -8.271500E+02 -1.346588E+06 -3.029338E+04  8.065959E+04
       125   7 -1.539401E+06 -4.976249E+04  2.769609E+05 -9.359298E+05 -6.835680E+04  1.032208E+05
       125   8 -1.763683E+06 -1.060152E+05  2.391167E+05 -9.723356E+05 -6.190812E+04  8.727624E+04
       125   9 -1.950663E+06 -1.992173E+05  2.010692E+05 -1.051029E+06 -5.543699E+04  7.121690E+04
       125  10 -4.488599E+06 -1.123512E+06 -2.805071E+05 -1.756143E+06  1.337116E-08  4.306253E-09
       125  11 -4.301884E+06 -1.029850E+06 -2.414090E+05 -1.677759E+06  1.396135E-08  4.433615E-09
       125  12 -4.077925E+06 -9.732123E+05 -2.027800E+05 -1.641671E+06  1.725470E-08  1.657247E-09
       125  13 -3.015139E+06 -5.867410E+05 -1.741586E+03 -1.346488E+06 -3.879717E-10  6.143487E-10
       125  14 -3.033632E+06 -5.680111E+05 -1.124039E+03 -1.325382E+06 -1.021102E-09  7.994063E-09
       125  15 -3.014895E+06 -5.862714E+05 -8.410769E+02 -1.346586E+06  2.443774E-09  1.573999E-08
       125  16 -1.539409E+06 -4.977516E+04  2.769321E+05 -9.359241E+05 -1.419619E-08 -7.515588E-09
       125  17 -1.763690E+06 -1.060244E+05  2.390952E+05 -9.723313E+05 -1.173025E-08 -7.598796E-09
       125  18 -1.950668E+06 -1.992236E+05  2.010539E+05 -1.051026E+06 -1.442464E-09 -4.992920E-09
       125  19 -4.488595E+06 -1.123496E+06 -2.804786E+05 -1.756145E+06  1.879978E+04 -1.218942E+05
       125  20 -4.301881E+06 -1.029838E+06 -2.413876E+05 -1.677760E+06  1.200947E+04 -1.060470E+05
       125  21 -4.077923E+06 -9.732036E+05 -2.027647E+05 -1.641671E+06  5.196256E+03 -9.008485E+04
       125  22 -3.015133E+06 -5.867269E+05 -1.714256E+03 -1.346492E+06  4.354675E+04 -1.125693E+05
       125  23 -3.033628E+06 -5.680008E+05 -1.103948E+03 -1.325385E+06  3.693137E+04 -9.667189E+04
       125  24 -3.014892E+06 -5.862641E+05 -8.271500E+02 -1.346588E+06  3.029338E+04 -8.065959E+04
       125  25 -1.539401E+06 -4.976249E+04  2.769609E+05 -9.359298E+05  6.835680E+04 -1.032208E+05
       125  26 -1.763683E+06 -1.060152E+05  2.391167E+05 -9.723356E+05  6.190812E+04 -8.727624E+04
       125  27 -1.950663E+06 -1.992173E+05  2.010692E+05 -1.051029E+06  5.543699E+04 -7.121690E+04
       126   1 -3.940367E+06 -9.229250E+05 -1.755518E+05 -1.603662E+06 -1.420096E+03  8.067091E+04
       126   2 -3.751411E+06 -8.286207E+05 -1.369973E+05 -1.524615E+06  5.296832E+03  6.454729E+04
       126   3 -3.525020E+06 -7.716900E+05 -9.885420E+04 -1.488376E+06  1.201501E+04  4.838911E+04
       126   4 -3.014784E+06 -5.862726E+05 -8.351856E+02 -1.346704E+06 -2.659420E+04  7.122407E+04
       126   5 -3.033410E+06 -5.674411E+05 -1.069129E+03 -1.325326E+06 -1.993129E+04  5.508908E+04
       126   6 -3.014639E+06 -5.859742E+05 -1.675176E+03 -1.346770E+06 -1.326737E+04  3.891955E+04
       126   7 -2.088301E+06 -2.495412E+05  1.738495E+05 -1.089387E+06 -5.180869E+04  6.176209E+04
       126   8 -2.314869E+06 -3.062152E+05  1.348398E+05 -1.125822E+06 -4.519067E+04  4.561914E+04
       126   9 -2.503987E+06 -4.002360E+05  9.549447E+04 -1.205057E+06 -3.857186E+04  2.944170E+04
       126  10 -3.940368E+06 -9.229319E+05 -1.755640E+05 -1.603661E+06  1.024976E-09 -5.657375E-09
       126  11 -3.751412E+06 -8.286252E+05 -1.370052E+05 -1.524615E+06 -9.160509E-09 -7.181471E-09
       126  12 -3.525021E+06 -7.716925E+05 -9.885888E+04 -1.488376E+06 -1.217519E-08 -7.037556E-09
       126  13 -3.014787E+06 -5.862782E+05 -8.460292E+02 -1.346702E+06  3.971714E-09  1.634908E-08
       126  14 -3.033411E+06 -5.674445E+05 -1.075567E+03 -1.325325E+06 -1.049896E-09  8.454971E-09
       126  15 -3.014639E+06 -5.859759E+05 -1.678348E+03 -1.346770E+06 -2.132772E-09 -3.504400E-10
       126  16 -2.088304E+06 -2.495460E+05  1.738373E+05 -1.089384E+06  1.476071E-08  2.774156E-09
       126  17 -2.314872E+06 -3.062179E+05  1.348321E+05 -1.125821E+06  1.260793E-08  4.420930E-09
       126  18 -2.503989E+06 -4.002374E+05  9.549005E+04 -1.205056E+06  1.175478E-08  4.046959E-09
       126  19 -3.940367E+06 -9.229250E+05 -1.755518E+05 -1.603662E+06  1.420096E+03 -8.067091E+04
       126  20 -3.751411E+06 -8.286207E+05 -1.369973E+05 -1.524615E+06 -5.296832E+03 -6.454729E+04
       126  21 -3.525020E+06 -7.716900E+05 -9.885420E+04 -1.488376E+06 -1.201501E+04 -4.838911E+04
       126  22 -3.014784E+06 -5.862726E+05 -8.351856E+02 -1.346704E+06  2.659420E+04 -7.122407E+04
       126  23 -3.033410E+06 -5.674411E+05 -1.069129E+03 -1.325326E+06  1.993129E+04 -5.508908E+04
       126  24 -3.014639E+06 -5.859742E+05 -1.675176E+03 -1.346770E+06  1.326737E+04 -3.891955E+04
       126  25 -2.088301E+06 -2.495412E+05  1.738495E+05 -1.089387E+06  5.180869E+04 -6.176209E+04
       126  26 -2.314869E+06 -3.062152E+05  1.348398E+05 -1.125822E+06  4.519067E+04 -4.561914E+04
       126  27 -2.503987E+06 -4.002360E+05  9.549447E+04 -1.205057E+06  3.857186E+04 -2.944170E+04
       127   1 -3.386357E+06 -7.211243E+05 -7.193620E+04 -1.450138E+06  1.597970E+04  3.897409E+04
       127   2 -3.196236E+06 -6.265739E+05 -3.459732E+04 -1.370770E+06  2.376820E+04  2.325902E+04
       127   3 -2.968808E+06 -5.697108E+05  1.461362E+03 -1.334446E+06  3.148961E+04  7.717341E+03
       127   4 -3.014646E+06 -5.859692E+05 -2.184483E+03 -1.346848E+06 -9.369748E+03  2.948269E+04
       127   5 -3.033240E+06 -5.671212E+05 -3.877499E+03 -1.325302E+06 -1.317451E+03  1.386830E+04
       127   6 -3.014632E+06 -5.860195E+05 -7.064775E+03 -1.346820E+06  6.667133E+03 -1.572855E+03
       127   7 -2.642785E+06 -4.507995E+05  6.756549E+04 -1.243498E+06 -3.473573E+04  1.998507E+04
       127   8 -2.870214E+06 -5.076652E+05  2.684419E+04 -1.279823E+06 -2.641030E+04  4.474860E+03
       127   9 -3.060453E+06 -6.023275E+05 -1.558834E+04 -1.359193E+06 -1.815338E+04 -1.086235E+04
       127  10 -3.386358E+06 -7.211260E+05 -7.193954E+04 -1.450139E+06 -2.635938E-09 -3.008296E-09
       127  11 -3.196236E+06 -6.265746E+05 -3.459941E+04 -1.370770E+06 -1.751964E-09 -1.375601E-09
       127  12 -2.968809E+06 -5.697111E+05  1.459376E+03 -1.334446E+06 -3.847450E-09 -1.562231E-09
       127  13 -3.014647E+06 -5.859702E+05 -2.186279E+03 -1.346847E+06  3.532986E-10 -1.397602E-09
       127  14 -3.033240E+06 -5.671214E+05 -3.877864E+03 -1.325302E+06 -1.447122E-09 -3.125549E-09
       127  15 -3.014632E+06 -5.860195E+05 -7.064863E+03 -1.346820E+06  2.519846E-10  8.265331E-10
       127  16 -2.642786E+06 -4.508003E+05  6.756247E+04 -1.243498E+06  3.164891E-09 -1.591105E-10
       127  17 -2.870214E+06 -5.076654E+05  2.684284E+04 -1.279823E+06  4.230844E-09  1.926683E-10
       127  18 -3.060453E+06 -6.023277E+05 -1.558919E+04 -1.359193E+06  2.795249E-09  9.728401E-10
       127  19 -3.386357E+06 -7.211243E+05 -7.193620E+04 -1.450138E+06 -1.597970E+04 -3.897409E+04
       127  20 -3.196236E+06 -6.265739E+05 -3.459732E+04 -1.370770E+06 -2.376820E+04 -2.325902E+04
       127  21 -2.968808E+06 -5.697108E+05  1.461362E+03 -1.334446E+06 -3.148961E+04 -7.717341E+03
       127  22 -3.014646E+06 -5.859692E+05 -2.184483E+03 -1.346848E+06  9.369748E+03 -2.948269E+04
       127  23 -3.033240E+06 -5.671212E+05 -3.877499E+03 -1.325302E+06  1.317451E+03 -1.386830E+04
       127  24 -3.014632E+06 -5.860195E+05 -7.064775E+03 -1.346820E+06 -6.667133E+03  1.572855E+03
       127  25 -2.642785E+06 -4.507995E+05  6.756549E+04 -1.243498E+06  3.473573E+04 -1.998507E+04
       127  26 -2.870214E+06 -5.076652E+05  2.684419E+04 -1.279823E+06  2.641030E+04 -4.474860E+03
       127  27 -3.060453E+06 -6.023275E+05 -1.558834E+04 -1.359193E+06  1.815338E+04  1.086235E+04
       128   1 -2.829683E+06 -5.193265E+05  2.666959E+04 -1.296766E+06  3.675642E+04 -1.171588E+03
       128   2 -2.640346E+06 -4.243673E+05  5.917332E+04 -1.215573E+06  4.729768E+04 -1.444546E+04
       128   3 -2.415579E+06 -3.704808E+05  8.704420E+04 -1.176450E+06  5.692965E+04 -2.527495E+04
       128   4 -3.015058E+06 -5.858425E+05 -9.402394E+03 -1.347013E+06  1.154073E+04 -1.060971E+04
       128   5 -3.032829E+06 -5.678839E+05 -1.719746E+04 -1.324879E+06  2.584642E+04 -2.247897E+04
       128   6 -3.015966E+06 -5.917554E+05 -3.262410E+04 -1.344834E+06  3.924084E+04 -3.190362E+04
       128   7 -3.200394E+06 -6.523547E+05 -4.547271E+04 -1.397246E+06 -1.366664E+04 -2.004482E+04
       128   8 -3.425150E+06 -7.113861E+05 -9.357309E+04 -1.434119E+06  4.409747E+03 -3.050696E+04
       128   9 -3.615983E+06 -8.129984E+05 -1.523097E+05 -1.513068E+06  2.157027E+04 -3.852529E+04
       128  10 -2.829684E+06 -5.193269E+05  2.666703E+04 -1.296766E+06 -1.236045E-09  1.217390E-09
       128  11 -2.640348E+06 -4.243681E+05  5.916871E+04 -1.215572E+06 -2.904894E-09 -3.438188E-10
       128  12 -2.415583E+06 -3.704823E+05  8.703690E+04 -1.176449E+06  1.414582E-11 -5.861652E-10
       128  13 -3.015058E+06 -5.858427E+05 -9.402855E+03 -1.347013E+06 -3.620568E-10  1.167227E-09
       128  14 -3.032830E+06 -5.678846E+05 -1.719966E+04 -1.324878E+06 -1.126996E-09  5.127512E-10
       128  15 -3.015968E+06 -5.917569E+05 -3.262890E+04 -1.344833E+06 -1.568397E-09 -2.215639E-09
       128  16 -3.200395E+06 -6.523551E+05 -4.547382E+04 -1.397247E+06  6.241055E-10  1.713351E-09
       128  17 -3.425150E+06 -7.113871E+05 -9.357487E+04 -1.434119E+06 -3.331074E-11  3.759185E-10
       128  18 -3.615984E+06 -8.130002E+05 -1.523133E+05 -1.513067E+06 -4.304973E-10 -1.612439E-09
       128  19 -2.829683E+06 -5.193265E+05  2.666959E+04 -1.296766E+06 -3.675642E+04  1.171588E+03
       128  20 -2.640346E+06 -4.243673E+05  5.917332E+04 -1.215573E+06 -4.729768E+04  1.444546E+04
       128  21 -2.415579E+06 -3.704808E+05  8.704420E+04 -1.176450E+06 -5.692965E+04  2.527495E+04
       128  22 -3.015058E+06 -5.858425E+05 -9.402394E+03 -1.347013E+06 -1.154073E+04  1.060971E+04
       128  23 -3.032829E+06 -5.678839E+05 -1.719746E+04 -1.324879E+06 -2.584642E+04  2.247897E+04
       128  24 -3.015966E+06 -5.917554E+05 -3.262410E+04 -1.344834E+06 -3.924084E+04  3.190362E+04
       128  25 -3.200394E+06 -6.523547E+05 -4.547271E+04 -1.397246E+06  1.366664E+04  2.004482E+04
       128  26 -3.425150E+06 -7.113861E+05 -9.357309E+04 -1.434119E+06 -4.409747E+03  3.050696E+04
       128  27 -3.615983E+06 -8.129984E+05 -1.523097E+05 -1.513068E+06 -2.157027E+04  3.852529E+04
       129   1 -2.271661E+06 -3.253249E+05  1.051874E+05 -1.151712E+06  7.033685E+04 -3.037850E+04
       129   2 -2.111085E+06 -2.172516E+05  1.245291E+05 -1.021351E+06  6.318100E+04 -3.174220E+04
       129   3 -1.945053E+06 -2.274493E+05  1.261129E+05 -9.089232E+05  4.406323E+04 -1.248824E+03
       129   4 -3.021484E+06 -5.883493E+05 -4.300285E+04 -1.347953E+06  4.745278E+04 -3.895586E+04
       129   5 -3.029100E+06 -5.928597E+05 -8.120361E+04 -1.313342E+06  8.951065E+04 -2.188385E+04
       129   6 -3.041150E+06 -7.255384E+05 -1.763324E+05 -1.296691E+06  1.195962E+05  2.707017E+04
       129   7 -3.770728E+06 -8.513371E+05 -1.912182E+05 -1.543978E+06  2.459838E+04 -4.752311E+04
       129   8 -3.946233E+06 -9.683368E+05 -2.869816E+05 -1.604908E+06  1.157977E+05 -1.204554E+04
       129   9 -4.135997E+06 -1.223359E+06 -4.788507E+05 -1.683762E+06  1.949801E+05  5.530657E+04
       129  10 -2.271667E+06 -3.253273E+05  1.051763E+05 -1.151711E+06 -1.336957E-09 -1.493883E-09
       129  11 -2.111089E+06 -2.172537E+05  1.245197E+05 -1.021350E+06  5.525098E-11 -7.837347E-10
       129  12 -1.945055E+06 -2.274498E+05  1.261093E+05 -9.089232E+05 -1.226069E-09 -6.373232E-10
       129  13 -3.021487E+06 -5.883515E+05 -4.300993E+04 -1.347951E+06  2.813772E-09  9.506903E-11
       129  14 -3.029109E+06 -5.928623E+05 -8.121962E+04 -1.313340E+06  3.163106E-10 -1.298272E-09
       129  15 -3.041166E+06 -7.255431E+05 -1.763609E+05 -1.296693E+06  3.043424E-10 -1.532428E-10
       129  16 -3.770729E+06 -8.513397E+05 -1.912236E+05 -1.543977E+06  2.499127E-09 -9.533176E-10
       129  17 -3.946248E+06 -9.683406E+05 -2.870072E+05 -1.604907E+06  1.717599E-09 -7.454425E-10
       129  18 -4.136039E+06 -1.223373E+06 -4.789285E+05 -1.683771E+06  4.983657E-10  8.309305E-11
       129  19 -2.271661E+06 -3.253249E+05  1.051874E+05 -1.151712E+06 -7.033685E+04  3.037850E+04
       129  20 -2.111085E+06 -2.172516E+05  1.245291E+05 -1.021351E+06 -6.318100E+04  3.174220E+04
       129  21 -1.945053E+06 -2.274493E+05  1.261129E+05 -9.089232E+05 -4.406323E+04  1.248824E+03
       129  22 -3.021484E+06 -5.883493E+05 -4.300285E+04 -1.347953E+06 -4.745278E+04  3.895586E+04
       129  23 -3.029100E+06 -5.928597E+05 -8.120361E+04 -1.313342E+06 -8.951065E+04  2.188385E+04
       129  24 -3.041150E+06 -7.255384E+05 -1.763324E+05 -1.296691E+06 -1.195962E+05 -2.707017E+04
       129  25 -3.770728E+06 -8.513371E+05 -1.912182E+05 -1.543978E+06 -2.459838E+04  4.752311E+04
       129  26 -3.946233E+06 -9.683368E+05 -2.869816E+05 -1.604908E+06 -1.157977E+05  1.204554E+04
       129  27 -4.135997E+06 -1.223359E+06 -4.788507E+05 -1.683762E+06 -1.949801E+05 -5.530657E+04
       130   1  1.455565E+05  2.859289E+04  4.680998E+04  1.570829E+04  5.661720E+04  1.726127E+03
       130   2  1.485737E+05 -4.554781E+04  2.985210E+03  4.169803E+03  3.810197E+04  5.108655E+03
       130   3  1.747417E+05 -3.685162E+04 -8.070199E+03 -1.720283E+04  1.958745E+04  4.712454E+03
       130   4  3.087706E+05  6.923612E+04  8.698682E+04 -7.653440E+03  5.954394E+04  1.725270E+03
       130   5  2.970226E+05 -8.817004E+03  3.825594E+04 -2.721441E+03  3.893715E+04  5.108456E+03
       130   6  3.087815E+05 -3.682063E+03  2.374027E+04 -7.623149E+03  1.833156E+04  4.712331E+03
       130   7  4.720100E+05  1.098794E+05  1.271620E+05 -3.102133E+04  6.247145E+04  1.724193E+03
       130   8  4.454918E+05  2.791240E+04  7.352516E+04 -9.614342E+03  3.977254E+04  5.108239E+03
       130   9  4.428379E+05  2.948654E+04  5.554954E+04  1.958607E+03  1.707541E+04  4.712170E+03
       130  10  1.455531E+05  2.859203E+04  4.680395E+04  1.570822E+04  7.710784E-10 -7.205686E-10
       130  11  1.485721E+05 -4.554823E+04  2.982433E+03  4.169647E+03 -4.231534E-09 -4.091920E-10
       130  12  1.747413E+05 -3.685174E+04 -8.070961E+03 -1.720290E+04 -2.832935E-09  2.296828E-11
       130  13  3.087667E+05  6.923516E+04  8.698016E+04 -7.653522E+03 -2.885044E-09  2.013766E-10
       130  14  2.970209E+05 -8.817438E+03  3.825304E+04 -2.721601E+03 -2.588543E-09 -2.031240E-10
       130  15  3.087811E+05 -3.682177E+03  2.373960E+04 -7.623219E+03 -9.039516E-10 -2.879048E-10
       130  16  4.720058E+05  1.098784E+05  1.271547E+05 -3.102141E+04  7.821106E-10  3.532700E-10
       130  17  4.454901E+05  2.791194E+04  7.352214E+04 -9.614505E+03  1.007778E-09  1.550792E-10
       130  18  4.428376E+05  2.948644E+04  5.554895E+04  1.958543E+03  2.532315E-09  4.528446E-10
       130  19  1.455565E+05  2.859289E+04  4.680998E+04  1.570829E+04 -5.661720E+04 -1.726127E+03
       130  20  1.485737E+05 -4.554781E+04  2.985210E+03  4.169803E+03 -3.810197E+04 -5.108655E+03
       130  21  1.747417E+05 -3.685162E+04 -8.070199E+03 -1.720283E+04 -1.958745E+04 -4.712454E+03
       130  22  3.087706E+05  6.923612E+04  8.698682E+04 -7.653440E+03 -5.954394E+04 -1.725270E+03
       130  23  2.970226E+05 -8.817004E+03  3.825594E+04 -2.721441E+03 -3.893715E+04 -5.108456E+03
       130  24  3.087815E+05 -3.682063E+03  2.374027E+04 -7.623149E+03 -1.833156E+04 -4.712331E+03
       130  25  4.720100E+05  1.098794E+05  1.271620E+05 -3.102133E+04 -6.247145E+04 -1.724193E+03
       130  26  4.454918E+05  2.791240E+04  7.352516E+04 -9.614342E+03 -3.977254E+04 -5.108239E+03
       130  27  4.428379E+05  2.948654E+04  5.554954E+04  1.958607E+03 -1.707541E+04 -4.712170E+03
       131   1  1.877808E+05 -2.203899E+04 -8.394799E+03 -5.616622E+03  1.480449E+04  3.834423E+03
       131   2  2.008272E+05 -2.614339E+04 -1.431930E+04 -2.224686E+03  9.877820E+03  3.486970E+03
       131   3  2.165806E+05 -2.204477E+04 -1.498297E+04 -8.645386E+03  4.951001E+03  2.888706E+03
       131   4  3.041633E+05  6.772164E+03  1.931583E+04 -7.628317E+03  1.468439E+04  3.834297E+03
       131   5  3.027992E+05 -9.081338E+02  9.914063E+03 -2.721277E+03  9.618361E+03  3.486874E+03
       131   6  3.041655E+05 -3.620218E+02  5.869127E+03 -7.626735E+03  4.552298E+03  2.888635E+03
       131   7  4.205581E+05  3.558235E+04  4.702551E+04 -9.640392E+03  1.456427E+04  3.834173E+03
       131   8  4.047807E+05  2.432637E+04  3.414670E+04 -3.217951E+03  9.358859E+03  3.486778E+03
       131   9  3.917574E+05  2.132017E+04  2.672068E+04 -6.607940E+03  4.153539E+03  2.888562E+03
       131  10  1.877806E+05 -2.203906E+04 -8.395238E+03 -5.616668E+03  8.866685E-10 -3.071242E-10
       131  11  2.008271E+05 -2.614343E+04 -1.431950E+04 -2.224714E+03  1.719938E-09 -9.671420E-10
       131  12  2.165805E+05 -2.204478E+04 -1.498303E+04 -8.645397E+03  2.125431E-10  8.890511E-10
       131  13  3.041630E+05  6.772090E+03  1.931540E+04 -7.628363E+03 -8.396235E-10  1.054793E-10
       131  14  3.027991E+05 -9.081717E+02  9.913866E+03 -2.721304E+03  1.778991E-09 -6.584526E-10
       131  15  3.041655E+05 -3.620364E+02  5.869072E+03 -7.626745E+03 -1.853452E-09  1.820597E-10
       131  16  4.205579E+05  3.558228E+04  4.702509E+04 -9.640437E+03 -1.038404E-09 -1.450432E-10
       131  17  4.047806E+05  2.432634E+04  3.414651E+04 -3.217977E+03 -2.234544E-09 -6.364264E-10
       131  18  3.917574E+05  2.132016E+04  2.672064E+04 -6.607949E+03  1.027657E-09 -1.701134E-10
       131  19  1.877808E+05 -2.203899E+04 -8.394799E+03 -5.616622E+03 -1.480449E+04 -3.834423E+03
       131  20  2.008272E+05 -2.614339E+04 -1.431930E+04 -2.224686E+03 -9.877820E+03 -3.486970E+03
       131  21  2.165806E+05 -2.204477E+04 -1.498297E+04 -8.645386E+03 -4.951001E+03 -2.888706E+03
       131  22  3.041633E+05  6.772164E+03  1.931583E+04 -7.628317E+03 -1.468439E+04 -3.834297E+03
       131  23  3.027992E+05 -9.081338E+02  9.914063E+03 -2.721277E+03 -9.618361E+03 -3.486874E+03
       131  24  3.041655E+05 -3.620218E+02  5.869127E+03 -7.626735E+03 -4.552298E+03 -2.888635E+03
       131  25  4.205581E+05  3.558235E+04  4.702551E+04 -9.640392E+03 -1.456427E+04 -3.834173E+03
       131  26  4.047807E+05  2.432637E+04  3.414670E+04 -3.217951E+03 -9.358859E+03 -3.486778E+03
       131  27  3.917574E+05  2.132017E+04  2.672068E+04 -6.607940E+03 -4.153539E+03 -2.888562E+03
       132   1  2.335538E+05 -1.669112E+04 -1.204013E+04 -7.491072E+03  3.952336E+03  2.498214E+03
       132   2  2.476773E+05 -1.390212E+04 -1.073697E+04 -2.732696E+03  2.700553E+03  1.905815E+03
       132   3  2.621704E+05 -1.030656E+04 -8.416410E+03 -7.731130E+03  1.448698E+03  1.297558E+03
       132   4  3.036418E+05  6.461192E+02  4.578985E+03 -7.614853E+03  3.629944E+03  2.498160E+03
       132   5  3.034565E+05 -9.851534E+01  2.518753E+03 -2.736445E+03  2.369274E+03  1.905777E+03
       132   6  3.036424E+05 -3.504522E+01  1.482061E+03 -7.614791E+03  1.108559E+03  1.297538E+03
       132   7  3.737342E+05  1.798300E+04  2.119776E+04 -7.738649E+03  3.307517E+03  2.498106E+03
       132   8  3.592386E+05  1.370486E+04  1.577426E+04 -2.740194E+03  2.037965E+03  1.905739E+03
       132   9  3.451160E+05  1.023635E+04  1.138041E+04 -7.498444E+03  7.683978E+02  1.297517E+03
       132  10  2.335538E+05 -1.669113E+04 -1.204017E+04 -7.491080E+03  2.108761E-09  1.307497E-09
       132  11  2.476773E+05 -1.390212E+04 -1.073699E+04 -2.732700E+03 -1.415392E-09 -6.025936E-11
       132  12  2.621704E+05 -1.030657E+04 -8.416417E+03 -7.731132E+03 -8.347382E-10  2.919970E-10
       132  13  3.036417E+05  6.461090E+02  4.578949E+03 -7.614861E+03 -1.117105E-09  6.746819E-10
       132  14  3.034565E+05 -9.852074E+01  2.518735E+03 -2.736448E+03  2.154202E-09  1.462397E-10
       132  15  3.036424E+05 -3.504736E+01  1.482056E+03 -7.614792E+03 -7.408627E-10  2.103176E-10
       132  16  3.737342E+05  1.798299E+04  2.119772E+04 -7.738655E+03 -1.908811E-10  1.104749E-10
       132  17  3.592386E+05  1.370486E+04  1.577424E+04 -2.740197E+03 -1.950875E-09  1.916799E-11
       132  18  3.451160E+05  1.023635E+04  1.138041E+04 -7.498445E+03  1.642893E-09  3.350492E-10
       132  19  2.335538E+05 -1.669112E+04 -1.204013E+04 -7.491072E+03 -3.952336E+03 -2.498214E+03
       132  20  2.476773E+05 -1.390212E+04 -1.073697E+04 -2.732696E+03 -2.700553E+03 -1.905815E+03
       132  21  2.621704E+05 -1.030656E+04 -8.416410E+03 -7.731130E+03 -1.448698E+03 -1.297558E+03
       132  22  3.036418E+05  6.461192E+02  4.578985E+03 -7.614853E+03 -3.629944E+03 -2.498160E+03
       132  23  3.034565E+05 -9.851534E+01  2.518753E+03 -2.736445E+03 -2.369274E+03 -1.905777E+03
       132  24  3.036424E+05 -3.504522E+01  1.482061E+03 -7.614791E+03 -1.108559E+03 -1.297538E+03
       132  25  3.737342E+05  1.798300E+04  2.119776E+04 -7.738649E+03 -3.307517E+03 -2.498106E+03
       132  26  3.592386E+05  1.370486E+04  1.577426E+04 -2.740194E+03 -2.037965E+03 -1.905739E+03
       132  27  3.451160E+05  1.023635E+04  1.138041E+04 -7.498444E+03 -7.683978E+02 -1.297517E+03
       133   1  2.795231E+05 -5.885907E+03 -4.521622E+03 -7.614346E+03  1.207038E+03  9.411283E+02
       133   2  2.937612E+05 -2.432731E+03 -1.631102E+03 -2.751969E+03  8.635133E+02  3.341488E+02
       133   3  3.080657E+05  1.100841E+03  1.503350E+03 -7.622428E+03  5.199636E+02 -2.736997E+02
       133   4  3.035749E+05  5.746420E+01  1.151182E+03 -7.609494E+03  8.721363E+02  9.411142E+02
       133   5  3.035419E+05 -1.237543E+01  6.931925E+02 -2.743081E+03  5.281129E+02  3.341373E+02
       133   6  3.035750E+05 -1.775453E+00  4.794252E+02 -7.609493E+03  1.840727E+02 -2.737079E+02
       133   7  3.276272E+05  6.000794E+03  6.823947E+03 -7.604643E+03  5.372213E+02  9.411000E+02
       133   8  3.133228E+05  2.407974E+03  3.017481E+03 -2.734192E+03  1.927072E+02  3.341257E+02
       133   9  2.990843E+05 -1.104393E+03 -5.445005E+02 -7.596559E+03 -1.518157E+02 -2.737161E+02
       133  10  2.795231E+05 -5.885908E+03 -4.521627E+03 -7.614347E+03 -4.179039E-09  1.365043E-10
       133  11  2.937612E+05 -2.432732E+03 -1.631104E+03 -2.751969E+03 -1.579162E-09 -6.598466E-10
       133  12  3.080657E+05  1.100841E+03  1.503349E+03 -7.622428E+03  6.161434E-09 -2.712748E-10
       133  13  3.035749E+05  5.746305E+01  1.151179E+03 -7.609495E+03  1.099511E-09  1.895638E-10
       133  14  3.035419E+05 -1.237563E+01  6.931918E+02 -2.743081E+03 -2.209317E-09 -5.227094E-10
       133  15  3.035750E+05 -1.775542E+00  4.794250E+02 -7.609493E+03 -2.297619E-09 -3.181881E-10
       133  16  3.276272E+05  6.000793E+03  6.823945E+03 -7.604643E+03  4.739057E-09  1.979063E-10
       133  17  3.133228E+05  2.407974E+03  3.017480E+03 -2.734192E+03 -7.105289E-10 -4.361241E-10
       133  18  2.990843E+05 -1.104393E+03 -5.445007E+02 -7.596559E+03 -7.384649E-09 -4.362580E-10
       133  19  2.795231E+05 -5.885907E+03 -4.521622E+03 -7.614346E+03 -1.207038E+03 -9.411283E+02
       133  20  2.937612E+05 -2.432731E+03 -1.631102E+03 -2.751969E+03 -8.635133E+02 -3.341488E+02
       133  21  3.080657E+05  1.100841E+03  1.503350E+03 -7.622428E+03 -5.199636E+02  2.736997E+02
       133  22  3.035749E+05  5.746420E+01  1.151182E+03 -7.609494E+03 -8.721363E+02 -9.411142E+02
       133  23  3.035419E+05 -1.237543E+01  6.931925E+02 -2.743081E+03 -5.281129E+02 -3.341373E+02
       133  24  3.035750E+05 -1.775453E+00  4.794252E+02 -7.609493E+03 -1.840727E+02  2.737079E+02
       133  25  3.276272E+05  6.000794E+03  6.823947E+03 -7.604643E+03 -5.372213E+02 -9.411000E+02
       133  26  3.133228E+05  2.407974E+03  3.017481E+03 -2.734192E+03 -1.927072E+02 -3.341257E+02
       133  27  2.990843E+05 -1.104393E+03 -5.445005E+02 -7.596559E+03  1.518157E+02  2.737161E+02
       134   1  3.254671E+05  5.429970E+03  5.677580E+03 -7.609701E+03  4.378613E+02 -6.278332E+02
       134   2  3.397336E+05  8.946946E+03  9.025974E+03 -2.737967E+03  2.256668E+02 -1.236055E+03
       134   3  3.540405E+05  1.250382E+04  1.252296E+04 -7.609097E+03  1.351108E+01 -1.843720E+03
       134   4  3.035692E+05  2.522777E+00  4.306393E+02 -7.611732E+03  1.018358E+02 -6.278442E+02
       134   5  3.035489E+05 -7.121283E+00  4.272776E+02 -2.740283E+03 -1.100455E+02 -1.236077E+03
       134   6  3.035689E+05  2.309422E+01  5.723131E+02 -7.611733E+03 -3.218834E+02 -1.843753E+03
       134   7  2.816716E+05 -5.424959E+03 -4.816335E+03 -7.613763E+03 -2.341779E+02 -6.278552E+02
       134   8  2.673655E+05 -8.961282E+03 -8.171509E+03 -2.742599E+03 -4.457385E+02 -1.236099E+03
       134   9  2.530997E+05 -1.245781E+04 -1.137852E+04 -7.614369E+03 -6.572507E+02 -1.843786E+03
       134  10  3.254671E+05  5.429970E+03  5.677579E+03 -7.609701E+03 -1.512215E-10  2.712877E-10
       134  11  3.397336E+05  8.946944E+03  9.025971E+03 -2.737967E+03 -1.088736E-09  6.343679E-10
       134  12  3.540405E+05  1.250382E+04  1.252296E+04 -7.609097E+03 -5.973867E-10  3.974027E-10
       134  13  3.035692E+05  2.522351E+00  4.306385E+02 -7.611732E+03 -1.928467E-09  3.502771E-10
       134  14  3.035489E+05 -7.122927E+00  4.272747E+02 -2.740283E+03 -1.400586E-09  8.671023E-10
       134  15  3.035689E+05  2.309055E+01  5.723065E+02 -7.611734E+03 -3.614418E-10  3.234051E-10
       134  16  2.816716E+05 -5.424960E+03 -4.816336E+03 -7.613763E+03 -1.993025E-09  1.817806E-10
       134  17  2.673655E+05 -8.961284E+03 -8.171513E+03 -2.742599E+03  2.815305E-11  9.314805E-10
       134  18  2.530997E+05 -1.245782E+04 -1.137852E+04 -7.614370E+03  7.575915E-10  1.509467E-10
       134  19  3.254671E+05  5.429970E+03  5.677580E+03 -7.609701E+03 -4.378613E+02  6.278332E+02
       134  20  3.397336E+05  8.946946E+03  9.025974E+03 -2.737967E+03 -2.256668E+02  1.236055E+03
       134  21  3.540405E+05  1.250382E+04  1.252296E+04 -7.609097E+03 -1.351108E+01  1.843720E+03
       134  22  3.035692E+05  2.522777E+00  4.306393E+02 -7.611732E+03 -1.018358E+02  6.278442E+02
       134  23  3.035489E+05 -7.121283E+00  4.272776E+02 -2.740283E+03  1.100455E+02  1.236077E+03
       134  24  3.035689E+05  2.309422E+01  5.723131E+02 -7.611733E+03  3.218834E+02  1.843753E+03
       134  25  2.816716E+05 -5.424959E+03 -4.816335E+03 -7.613763E+03  2.341779E+02  6.278552E+02
       134  26  2.673655E+05 -8.961282E+03 -8.171509E+03 -2.742599E+03  4.457385E+02  1.236099E+03
       134  27  2.530997E+05 -1.245781E+04 -1.137852E+04 -7.614369E+03  6.572507E+02  1.843786E+03
       135   1  3.715269E+05  1.680129E+04  1.688359E+04 -7.568990E+03 -9.449336E+01 -2.201226E+03
       135   2  3.857943E+05  2.031598E+04  2.067691E+04 -2.722770E+03 -6.671328E+02 -2.810884E+03
       135   3  4.002339E+05  2.418172E+04  2.493264E+04 -7.665213E+03 -1.239681E+03 -3.402497E+03
       135   4  3.035973E+05 -1.649211E+01  6.986688E+02 -7.621906E+03 -4.361001E+02 -2.201272E+03
       135   5  3.035118E+05 -4.467251E+01  1.124370E+03 -2.727557E+03 -9.987080E+02 -2.810954E+03
       135   6  3.035967E+05  2.765566E+02  2.005627E+03 -7.621952E+03 -1.561212E+03 -3.402590E+03
       135   7  2.356719E+05 -1.683461E+04 -1.548657E+04 -7.674816E+03 -7.776698E+02 -2.201318E+03
       135   8  2.212354E+05 -2.040581E+04 -1.842864E+04 -2.732344E+03 -1.330240E+03 -2.811024E+03
       135   9  2.069681E+05 -2.362928E+04 -2.092203E+04 -7.578698E+03 -1.882693E+03 -3.402682E+03
       135  10  3.715269E+05  1.680128E+04  1.688358E+04 -7.568990E+03 -4.218538E-09  2.805122E-10
       135  11  3.857943E+05  2.031597E+04  2.067689E+04 -2.722771E+03 -3.472802E-10  2.234731E-10
       135  12  4.002339E+05  2.418171E+04  2.493261E+04 -7.665216E+03  3.786195E-09  2.087418E-09
       135  13  3.035973E+05 -1.649736E+01  6.986593E+02 -7.621907E+03  6.313084E-11 -3.907352E-10
       135  14  3.035118E+05 -4.468127E+01  1.124353E+03 -2.727559E+03 -2.264167E-09 -1.643758E-09
       135  15  3.035967E+05  2.765436E+02  2.005601E+03 -7.621956E+03 -2.065454E-09 -2.660715E-09
       135  16  2.356719E+05 -1.683461E+04 -1.548658E+04 -7.674817E+03  3.636348E-09  6.588260E-11
       135  17  2.212354E+05 -2.040582E+04 -1.842866E+04 -2.732347E+03 -9.327394E-10  1.192419E-09
       135  18  2.069681E+05 -2.362930E+04 -2.092206E+04 -7.578703E+03 -5.516371E-09  1.654479E-09
       135  19  3.715269E+05  1.680129E+04  1.688359E+04 -7.568990E+03  9.449336E+01  2.201226E+03
       135  20  3.857943E+05  2.031598E+04  2.067691E+04 -2.722770E+03  6.671328E+02  2.810884E+03
       135  21  4.002339E+05  2.418172E+04  2.493264E+04 -7.665213E+03  1.239681E+03  3.402497E+03
       135  22  3.035973E+05 -1.649211E+01  6.986688E+02 -7.621906E+03  4.361001E+02  2.201272E+03
       135  23  3.035118E+05 -4.467251E+01  1.124370E+03 -2.727557E+03  9.987080E+02  2.810954E+03
       135  24  3.035967E+05  2.765566E+02  2.005627E+03 -7.621952E+03  1.561212E+03  3.402590E+03
       135  25  2.356719E+05 -1.683461E+04 -1.548657E+04 -7.674816E+03  7.776698E+02  2.201318E+03
       135  26  2.212354E+05 -2.040581E+04 -1.842864E+04 -2.732344E+03  1.330240E+03  2.811024E+03
       135  27  2.069681E+05 -2.362928E+04 -2.092203E+04 -7.578698E+03  1.882693E+03  3.402682E+03
       136   1  4.180355E+05  2.810757E+04  2.973735E+04 -7.181411E+03 -1.554424E+03 -3.799815E+03
       136   2  4.318972E+05  3.144098E+04  3.488497E+04 -2.902182E+03 -3.917627E+03 -4.398116E+03
       136   3  4.469882E+05  3.837002E+04  4.247404E+04 -8.482746E+03 -6.280879E+03 -4.705941E+03
       136   4  3.038248E+05 -1.606497E+02  2.561708E+03 -7.637438E+03 -1.964520E+03 -3.799947E+03
       136   5  3.032234E+05 -3.979437E+02  4.310135E+03 -2.707991E+03 -4.166891E+03 -4.398249E+03
       136   6  3.038233E+05  2.932860E+03  8.388687E+03 -7.638439E+03 -6.369252E+03 -4.706053E+03
       136   7  1.896261E+05 -2.842981E+04 -2.461484E+04 -8.093381E+03 -2.374542E+03 -3.800078E+03
       136   8  1.745648E+05 -3.223806E+04 -2.626586E+04 -2.513841E+03 -4.416103E+03 -4.398382E+03
       136   9  1.606772E+05 -3.250578E+04 -2.569810E+04 -6.794329E+03 -6.457605E+03 -4.706165E+03
       136  10  4.180355E+05  2.810755E+04  2.973732E+04 -7.181416E+03 -5.137927E-09  1.863726E-09
       136  11  4.318972E+05  3.144096E+04  3.488491E+04 -2.902196E+03 -1.813386E-09 -1.374973E-11
       136  12  4.469882E+05  3.836999E+04  4.247393E+04 -8.482770E+03  2.429713E-09 -5.310309E-10
       136  13  3.038248E+05 -1.606662E+02  2.561674E+03 -7.637444E+03  1.176631E-10 -2.776149E-09
       136  14  3.032234E+05 -3.979692E+02  4.310066E+03 -2.708006E+03 -3.766249E-09 -2.146029E-09
       136  15  3.038233E+05  2.932825E+03  8.388569E+03 -7.638463E+03 -2.478981E-09 -9.698867E-10
       136  16  1.896261E+05 -2.842982E+04 -2.461488E+04 -8.093388E+03  2.459913E-09  1.398789E-09
       136  17  1.745648E+05 -3.223809E+04 -2.626593E+04 -2.513857E+03 -5.598247E-10  1.439114E-09
       136  18  1.606772E+05 -3.250581E+04 -2.569822E+04 -6.794353E+03 -1.987493E-09 -5.376719E-11
       136  19  4.180355E+05  2.810757E+04  2.973735E+04 -7.181411E+03  1.554424E+03  3.799815E+03
       136  20  4.318972E+05  3.144098E+04  3.488497E+04 -2.902182E+03  3.917627E+03  4.398116E+03
       136  21  4.469882E+05  3.837002E+04  4.247404E+04 -8.482746E+03  6.280879E+03  4.705941E+03
       136  22  3.038248E+05 -1.606497E+02  2.561708E+03 -7.637438E+03  1.964520E+03  3.799947E+03
       136  23  3.032234E+05 -3.979437E+02  4.310135E+03 -2.707991E+03  4.166891E+03  4.398249E+03
       136  24  3.038233E+05  2.932860E+03  8.388687E+03 -7.638439E+03  6.369252E+03  4.706053E+03
       136  25  1.896261E+05 -2.842981E+04 -2.461484E+04 -8.093381E+03  2.374542E+03  3.800078E+03
       136  26  1.745648E+05 -3.223806E+04 -2.626586E+04 -2.513841E+03  4.416103E+03  4.398382E+03
       136  27  1.606772E+05 -3.250578E+04 -2.569810E+04 -6.794329E+03  6.457605E+03  4.706165E+03
       137   1  4.667741E+05  3.821059E+04  4.849203E+04 -3.440331E+03 -6.548578E+03 -5.666960E+03
       137   2  4.761451E+05  3.956879E+04  5.827947E+04 -5.651601E+03 -1.791298E+04 -6.027978E+03
       137   3  4.961651E+05  7.745132E+04  8.460111E+04 -1.773652E+04 -2.928019E+04 -2.010934E+03
       137   4  3.058297E+05 -1.605040E+03  1.030849E+04 -7.635666E+03 -7.952954E+03 -5.667577E+03
       137   5  3.007109E+05 -3.834171E+03  1.660438E+04 -2.707660E+03 -1.689708E+04 -6.027670E+03
       137   6  3.058240E+05  3.004642E+04  3.775752E+04 -7.653237E+03 -2.584371E+04 -2.009415E+03
       137   7  1.449092E+05 -4.142247E+04 -2.787683E+04 -1.182991E+04 -9.356969E+03 -5.668175E+03
       137   8  1.253050E+05 -4.723931E+04 -2.507285E+04  2.354421E+02 -1.588147E+04 -6.027352E+03
       137   9  1.155161E+05 -1.736077E+04 -9.088650E+03  2.426946E+03 -2.240827E+04 -2.007784E+03
       137  10  4.667740E+05  3.821055E+04  4.849188E+04 -3.440361E+03  1.753702E-09 -7.469642E-10
       137  11  4.761447E+05  3.956866E+04  5.827880E+04 -5.651688E+03 -8.916769E-10 -1.727054E-09
       137  12  4.961642E+05  7.745108E+04  8.459949E+04 -1.773657E+04 -2.260619E-10 -5.408104E-10
       137  13  3.058296E+05 -1.605092E+03  1.030831E+04 -7.635703E+03  2.051297E-09 -1.967456E-09
       137  14  3.007106E+05 -3.834286E+03  1.660377E+04 -2.707742E+03  1.400116E-09  1.464495E-09
       137  15  3.058233E+05  3.004624E+04  3.775625E+04 -7.653279E+03  6.156838E-10  1.573573E-10
       137  16  1.449091E+05 -4.142253E+04 -2.787706E+04 -1.182995E+04  7.791755E-10 -3.831602E-10
       137  17  1.253047E+05 -4.723941E+04 -2.507339E+04  2.353650E+02  2.371760E-09  1.496923E-09
       137  18  1.155155E+05 -1.736091E+04 -9.089601E+03  2.426909E+03  9.658210E-10 -1.888240E-10
       137  19  4.667741E+05  3.821059E+04  4.849203E+04 -3.440331E+03  6.548578E+03  5.666960E+03
       137  20  4.761451E+05  3.956879E+04  5.827947E+04 -5.651601E+03  1.791298E+04  6.027978E+03
       137  21  4.961651E+05  7.745132E+04  8.460111E+04 -1.773652E+04  2.928019E+04  2.010934E+03
       137  22  3.058297E+05 -1.605040E+03  1.030849E+04 -7.635666E+03  7.952954E+03  5.667577E+03
       137  23  3.007109E+05 -3.834171E+03  1.660438E+04 -2.707660E+03  1.689708E+04  6.027670E+03
       137  24  3.058240E+05  3.004642E+04  3.775752E+04 -7.653237E+03  2.584371E+04  2.009415E+03
       137  25  1.449092E+05 -4.142247E+04 -2.787683E+04 -1.182991E+04  9.356969E+03  5.668175E+03
       137  26  1.253050E+05 -4.723931E+04 -2.507285E+04  2.354421E+02  1.588147E+04  6.027352E+03
       137  27  1.155161E+05 -1.736077E+04 -9.088650E+03  2.426946E+03  2.240827E+04  2.007784E+03
       138   1  2.708648E+06  1.096496E+07  2.699094E+06 -1.403462E+06  1.002621E+05  2.161109E+05
       138   2  1.981566E+06  8.380221E+06  1.963347E+06 -5.429755E+05  2.771902E+05  4.402257E+04
       138   3  1.412574E+06  5.896312E+06  1.384114E+06 -1.390148E+06  1.898120E+05 -1.292189E+05
       138   4  6.643321E+04  2.967891E+05  8.629345E+04 -1.344629E+06  1.011381E+05  4.338880E+04
       138   5 -1.708573E+04  2.662403E+05  4.500049E+04 -4.901300E+05  2.776283E+05  1.976874E+04
       138   6  3.299993E+04  3.054254E+05  5.908409E+04 -1.344669E+06  1.882884E+05 -5.716538E+03
       138   7 -2.584155E+06 -1.026886E+07 -2.534728E+06 -1.286580E+06  1.019922E+05 -1.264149E+05
       138   8 -2.020437E+06 -7.787773E+06 -1.877906E+06 -4.378289E+05  2.780660E+05 -4.174119E+03
       138   9 -1.348803E+06 -5.256900E+06 -1.268063E+06 -1.299477E+06  1.867752E+05  1.166874E+05
       138  10  2.708625E+06  1.096490E+07  2.698989E+06 -1.403479E+06  2.117229E-09  6.760176E-10
       138  11  1.981483E+06  8.380198E+06  1.963199E+06 -5.429852E+05  4.518169E-10 -5.697159E-10
       138  12  1.412531E+06  5.896284E+06  1.384016E+06 -1.390128E+06  3.081953E-09 -6.841122E-09
       138  13  6.642170E+04  2.967843E+05  8.627064E+04 -1.344633E+06  3.636610E-09 -4.649579E-11
       138  14 -1.716862E+04  2.662192E+05  4.485487E+04 -4.901344E+05 -4.150641E-09 -3.916931E-09
       138  15  3.296185E+04  3.054159E+05  5.901741E+04 -1.344668E+06  1.132018E-09 -1.941735E-08
       138  16 -2.584170E+06 -1.026888E+07 -2.534778E+06 -1.286570E+06  1.622254E-09 -6.980890E-10
       138  17 -2.020520E+06 -7.787794E+06 -1.878051E+06 -4.378280E+05  5.682512E-09  8.525155E-11
       138  18 -1.348844E+06 -5.256924E+06 -1.268155E+06 -1.299495E+06 -4.477557E-09 -4.703585E-10
       138  19  2.708648E+06  1.096496E+07  2.699094E+06 -1.403462E+06 -1.002621E+05 -2.161109E+05
       138  20  1.981566E+06  8.380221E+06  1.963347E+06 -5.429755E+05 -2.771902E+05 -4.402257E+04
       138  21  1.412574E+06  5.896312E+06  1.384114E+06 -1.390148E+06 -1.898120E+05  1.292189E+05
       138  22  6.643321E+04  2.967891E+05  8.629345E+04 -1.344629E+06 -1.011381E+05 -4.338880E+04
       138  23 -1.708573E+04  2.662403E+05  4.500049E+04 -4.901300E+05 -2.776283E+05 -1.976874E+04
       138  24  3.299993E+04  3.054254E+05  5.908409E+04 -1.344669E+06 -1.882884E+05  5.716538E+03
       138  25 -2.584155E+06 -1.026886E+07 -2.534728E+06 -1.286580E+06 -1.019922E+05  1.264149E+05
       138  26 -2.020437E+06 -7.787773E+06 -1.877906E+06 -4.378289E+05 -2.780660E+05  4.174119E+03
       138  27 -1.348803E+06 -5.256900E+06 -1.268063E+06 -1.299477E+06 -1.867752E+05 -1.166874E+05
       139   1  6.556567E+05  2.803024E+06  6.566477E+05 -1.378248E+06  8.779334E+04 -6.664637E+04
       139   2  6.055740E+03  2.988038E+05  8.283690E+04 -4.860134E+05  1.389296E+03 -1.101270E+05
       139   3 -5.437678E+05 -2.221545E+06 -4.500630E+05 -1.305339E+06 -8.486646E+04 -1.534370E+05
       139   4  3.456019E+04  2.917274E+05  6.107691E+04 -1.345308E+06  8.711484E+04 -1.847153E+04
       139   5  7.142597E+03  3.027472E+05  8.378090E+04 -4.892789E+05  7.240518E+02 -6.211787E+04
       139   6  7.992336E+04  2.917250E+05  1.477985E+05 -1.344687E+06 -8.553410E+04 -1.057633E+05
       139   7 -5.869861E+05 -2.213790E+06 -5.349242E+05 -1.312475E+06  8.643990E+04  2.951023E+04
       139   8  8.230730E+03  3.066955E+05  8.473357E+04 -4.925445E+05  5.830455E+01 -1.410847E+04
       139   9  7.031631E+05  2.810811E+06  7.452269E+05 -1.384169E+06 -8.620630E+04 -5.789640E+04
       139  10  6.556473E+05  2.803017E+06  6.566249E+05 -1.378243E+06 -3.282626E-09  6.940181E-09
       139  11  6.052485E+03  2.987908E+05  8.281412E+04 -4.860133E+05  3.638599E-09  1.250385E-09
       139  12 -5.437820E+05 -2.221573E+06 -4.501210E+05 -1.305349E+06 -1.530559E-10 -7.424834E-09
       139  13  3.455196E+04  2.917250E+05  6.106203E+04 -1.345307E+06 -3.100058E-09 -2.720283E-11
       139  14  7.141561E+03  3.027430E+05  8.377366E+04 -4.892789E+05  1.051962E-08 -7.011395E-09
       139  15  7.991248E+04  2.917110E+05  1.477636E+05 -1.344694E+06  1.293623E-08 -2.169081E-08
       139  16 -5.869943E+05 -2.213792E+06 -5.349399E+05 -1.312478E+06 -5.286307E-09 -6.984866E-09
       139  17  8.230676E+03  3.066953E+05  8.473319E+04 -4.925445E+05 -5.534999E-09 -5.046640E-09
       139  18  7.031542E+05  2.810806E+06  7.452066E+05 -1.384173E+06 -3.303171E-09  7.091319E-10
       139  19  6.556567E+05  2.803024E+06  6.566477E+05 -1.378248E+06 -8.779334E+04  6.664637E+04
       139  20  6.055740E+03  2.988038E+05  8.283690E+04 -4.860134E+05 -1.389296E+03  1.101270E+05
       139  21 -5.437678E+05 -2.221545E+06 -4.500630E+05 -1.305339E+06  8.486646E+04  1.534370E+05
       139  22  3.456019E+04  2.917274E+05  6.107691E+04 -1.345308E+06 -8.711484E+04  1.847153E+04
       139  23  7.142597E+03  3.027472E+05  8.378090E+04 -4.892789E+05 -7.240518E+02  6.211787E+04
       139  24  7.992336E+04  2.917250E+05  1.477985E+05 -1.344687E+06  8.553410E+04  1.057633E+05
       139  25 -5.869861E+05 -2.213790E+06 -5.349242E+05 -1.312475E+06 -8.643990E+04 -2.951023E+04
       139  26  8.230730E+03  3.066955E+05  8.473357E+04 -4.925445E+05 -5.830455E+01  1.410847E+04
       139  27  7.031631E+05  2.810811E+06  7.452269E+05 -1.384169E+06  8.620630E+04  5.789640E+04
       140   1 -1.376351E+06 -5.232090E+06 -1.145706E+06 -1.359898E+06 -1.850196E+05 -2.578324E+05
       140   2 -2.078773E+06 -7.836023E+06 -1.648555E+06 -3.939023E+05 -2.759794E+05 -2.608073E+05
       140   3 -2.145341E+06 -1.024027E+07 -1.984346E+06 -1.138156E+06 -1.004171E+05 -2.618789E+05
       140   4  5.482565E+03  3.381893E+05  1.828726E+05 -1.345414E+06 -1.865501E+05 -1.361420E+05
       140   5 -7.258250E+04  2.252573E+05  2.762290E+05 -4.899166E+05 -2.755081E+05 -2.865084E+05
       140   6  5.071423E+05  3.295397E+05  6.374082E+05 -1.342910E+06 -9.947618E+04 -4.350193E+05
       140   7  1.385086E+06  5.937121E+06  1.509331E+06 -1.330674E+06 -1.880671E+05 -1.335343E+04
       140   8  1.928915E+06  8.346627E+06  2.196446E+06 -5.870522E+05 -2.750329E+05 -3.125257E+05
       140   9  3.151375E+06  1.100205E+07  3.250955E+06 -1.550983E+06 -9.843155E+04 -6.110902E+05
       140  10 -1.376406E+06 -5.232171E+06 -1.145896E+06 -1.359937E+06  3.638455E-09  2.903931E-09
       140  11 -2.078873E+06 -7.836117E+06 -1.648828E+06 -3.939606E+05  2.264340E-09  4.119333E-10
       140  12 -2.145371E+06 -1.024034E+07 -1.984496E+06 -1.138178E+06 -2.801099E-10 -3.618748E-09
       140  13  5.440137E+03  3.381600E+05  1.827721E+05 -1.345434E+06 -6.383284E-09 -2.294409E-13
       140  14 -7.268612E+04  2.251487E+05  2.759318E+05 -4.899802E+05  4.267643E-09 -4.099416E-09
       140  15  5.070808E+05  3.293339E+05  6.370337E+05 -1.342945E+06 -9.941510E-10 -3.868807E-09
       140  16  1.385048E+06  5.937111E+06  1.509264E+06 -1.330676E+06  1.931190E-09 -2.907426E-09
       140  17  1.928808E+06  8.346503E+06  2.196123E+06 -5.871211E+05  1.934273E-09 -3.069366E-09
       140  18  3.151266E+06  1.100165E+07  3.250246E+06 -1.551032E+06 -1.060514E-09  2.228809E-09
       140  19 -1.376351E+06 -5.232090E+06 -1.145706E+06 -1.359898E+06  1.850196E+05  2.578324E+05
       140  20 -2.078773E+06 -7.836023E+06 -1.648555E+06 -3.939023E+05  2.759794E+05  2.608073E+05
       140  21 -2.145341E+06 -1.024027E+07 -1.984346E+06 -1.138156E+06  1.004171E+05  2.618789E+05
       140  22  5.482565E+03  3.381893E+05  1.828726E+05 -1.345414E+06  1.865501E+05  1.361420E+05
       140  23 -7.258250E+04  2.252573E+05  2.762290E+05 -4.899166E+05  2.755081E+05  2.865084E+05
       140  24  5.071423E+05  3.295397E+05  6.374082E+05 -1.342910E+06  9.947618E+04  4.350193E+05
       140  25  1.385086E+06  5.937121E+06  1.509331E+06 -1.330674E+06  1.880671E+05  1.335343E+04
       140  26  1.928915E+06  8.346627E+06  2.196446E+06 -5.870522E+05  2.750329E+05  3.125257E+05
       140  27  3.151375E+06  1.100205E+07  3.250955E+06 -1.550983E+06  9.843155E+04  6.110902E+05
       141   1 -5.569572E+05 -2.451022E+05 -1.246192E+05 -2.381393E+05 -6.060703E+04 -1.813375E+04
       141   2 -5.261786E+05 -1.901310E+05 -7.489221E+04 -2.250901E+05 -3.728121E+04  1.354753E+03
       141   3 -5.029769E+05 -1.610227E+05 -5.101524E+04 -2.121033E+05 -1.133147E+04  1.386436E+04
       141   4 -2.746096E+05 -1.124848E+05 -4.781552E+04 -1.331129E+05 -3.281481E+04 -7.702403E+03
       141   5 -2.697942E+05 -8.320298E+04 -2.288983E+04 -1.397771E+05 -2.453086E+04  6.139789E+03
       141   6 -2.695706E+05 -7.679840E+04 -1.188582E+04 -1.465056E+05 -1.362519E+04  1.300266E+04
       141   7  7.813597E+03  2.014988E+04  2.898263E+04 -2.804058E+04 -5.009428E+03  2.736936E+03
       141   8 -1.334207E+04  2.373629E+04  2.910961E+04 -5.442984E+04 -1.177496E+04  1.092761E+04
       141   9 -3.610429E+04  7.432153E+03  2.724279E+04 -8.088429E+04 -1.591983E+04  1.214061E+04
       141  10 -5.569613E+05 -2.451035E+05 -1.246267E+05 -2.381401E+05  2.446856E-09 -6.776824E-11
       141  11 -5.261801E+05 -1.901314E+05 -7.489483E+04 -2.250901E+05 -1.626204E-09 -2.066345E-09
       141  12 -5.029771E+05 -1.610229E+05 -5.101585E+04 -2.121031E+05 -1.771047E-09 -1.552164E-09
       141  13 -2.746108E+05 -1.124851E+05 -4.781765E+04 -1.331131E+05 -1.764057E-09 -3.759410E-10
       141  14 -2.697948E+05 -8.320318E+04 -2.289104E+04 -1.397770E+05 -1.986046E-09 -1.066973E-09
       141  15 -2.695709E+05 -7.679863E+04 -1.188649E+04 -1.465055E+05  4.803800E-10 -1.256858E-09
       141  16  7.813568E+03  2.014987E+04  2.898257E+04 -2.804057E+04 -6.145101E-10 -4.759905E-10
       141  17 -1.334225E+04  2.373612E+04  2.910913E+04 -5.442974E+04  1.565256E-09 -2.310027E-10
       141  18 -3.610460E+04  7.431927E+03  2.724203E+04 -8.088414E+04  1.780239E-09  3.971928E-10
       141  19 -5.569572E+05 -2.451022E+05 -1.246192E+05 -2.381393E+05  6.060703E+04  1.813375E+04
       141  20 -5.261786E+05 -1.901310E+05 -7.489221E+04 -2.250901E+05  3.728121E+04 -1.354753E+03
       141  21 -5.029769E+05 -1.610227E+05 -5.101524E+04 -2.121033E+05  1.133147E+04 -1.386436E+04
       141  22 -2.746096E+05 -1.124848E+05 -4.781552E+04 -1.331129E+05  3.281481E+04  7.702403E+03
       141  23 -2.697942E+05 -8.320298E+04 -2.288983E+04 -1.397771E+05  2.453086E+04 -6.139789E+03
       141  24 -2.695706E+05 -7.679840E+04 -1.188582E+04 -1.465056E+05  1.362519E+04 -1.300266E+04
       141  25  7.813597E+03  2.014988E+04  2.898263E+04 -2.804058E+04  5.009428E+03 -2.736936E+03
       141  26 -1.334207E+04  2.373629E+04  2.910961E+04 -5.442984E+04  1.177496E+04 -1.092761E+04
       141  27 -3.610429E+04  7.432153E+03  2.724279E+04 -8.088429E+04  1.591983E+04 -1.214061E+04
       142   1 -4.789860E+05 -1.531625E+05 -4.335819E+04 -2.071850E+05 -9.773060E+03  1.346082E+04
       142   2 -4.471719E+05 -1.357271E+05 -3.199014E+04 -1.951859E+05 -5.212224E+03  1.355941E+04
       142   3 -4.122020E+05 -1.245588E+05 -2.411952E+04 -1.878819E+05 -3.517789E+02  1.285975E+04
       142   4 -2.681757E+05 -7.590445E+04 -8.811853E+03 -1.464546E+05 -1.196225E+04  1.263850E+04
       142   5 -2.697320E+05 -7.159314E+04 -4.572835E+03 -1.446120E+05 -9.121576E+03  1.209172E+04
       142   6 -2.677920E+05 -7.320777E+04 -2.467098E+03 -1.474650E+05 -5.981524E+03  1.074675E+04
       142   7 -5.732031E+04  1.357602E+03  2.573278E+04 -8.570541E+04 -1.415220E+04  1.181587E+04
       142   8 -9.225793E+04 -7.455671E+03  2.284406E+04 -9.402446E+04 -1.303211E+04  1.062358E+04
       142   9 -1.233575E+05 -2.185384E+04  1.918572E+04 -1.070387E+05 -1.161272E+04  8.633203E+03
       142  10 -4.789862E+05 -1.531627E+05 -4.335871E+04 -2.071848E+05  1.081437E-09 -4.729862E-10
       142  11 -4.471720E+05 -1.357273E+05 -3.199054E+04 -1.951859E+05 -5.178690E-10 -1.892620E-09
       142  12 -4.122021E+05 -1.245590E+05 -2.411983E+04 -1.878819E+05  7.853880E-10 -2.634873E-09
       142  13 -2.681759E+05 -7.590466E+04 -8.812422E+03 -1.464545E+05  3.390736E-11 -9.116324E-10
       142  14 -2.697321E+05 -7.159332E+04 -4.573266E+03 -1.446119E+05  1.690510E-09 -2.156226E-09
       142  15 -2.677921E+05 -7.320790E+04 -2.467382E+03 -1.474649E+05 -9.586695E-10 -1.006823E-09
       142  16 -5.732057E+04  1.357398E+03  2.573215E+04 -8.570528E+04 -1.191820E-09 -1.786220E-09
       142  17 -9.225814E+04 -7.455838E+03  2.284353E+04 -9.402435E+04 -1.403221E-09 -7.017113E-10
       142  18 -1.233577E+05 -2.185395E+04  1.918532E+04 -1.070386E+05  7.050002E-10  3.902747E-10
       142  19 -4.789860E+05 -1.531625E+05 -4.335819E+04 -2.071850E+05  9.773060E+03 -1.346082E+04
       142  20 -4.471719E+05 -1.357271E+05 -3.199014E+04 -1.951859E+05  5.212224E+03 -1.355941E+04
       142  21 -4.122020E+05 -1.245588E+05 -2.411952E+04 -1.878819E+05  3.517789E+02 -1.285975E+04
       142  22 -2.681757E+05 -7.590445E+04 -8.811853E+03 -1.464546E+05  1.196225E+04 -1.263850E+04
       142  23 -2.697320E+05 -7.159314E+04 -4.572835E+03 -1.446120E+05  9.121576E+03 -1.209172E+04
       142  24 -2.677920E+05 -7.320777E+04 -2.467098E+03 -1.474650E+05  5.981524E+03 -1.074675E+04
       142  25 -5.732031E+04  1.357602E+03  2.573278E+04 -8.570541E+04  1.415220E+04 -1.181587E+04
       142  26 -9.225793E+04 -7.455671E+03  2.284406E+04 -9.402446E+04  1.303211E+04 -1.062358E+04
       142  27 -1.233575E+05 -2.185384E+04  1.918572E+04 -1.070387E+05  1.161272E+04 -8.633203E+03
       143   1 -3.907585E+05 -1.170204E+05 -2.011601E+04 -1.820408E+05  5.474996E+02  1.143114E+04
       143   2 -3.590693E+05 -1.025820E+05 -1.415970E+04 -1.700240E+05  2.237830E+03  9.040561E+03
       143   3 -3.231145E+05 -9.271605E+04 -8.760753E+03 -1.630468E+05  3.962255E+03  6.558653E+03
       143   4 -2.676473E+05 -7.315635E+04 -1.842490E+03 -1.474439E+05 -5.071022E+03  9.322509E+03
       143   5 -2.697866E+05 -7.081038E+04 -9.963596E+02 -1.449532E+05 -3.577585E+03  6.858248E+03
       143   6 -2.676226E+05 -7.299786E+04 -5.515919E+02 -1.475023E+05 -2.050101E+03  4.302654E+03
       143   7 -1.445196E+05 -2.929067E+04  1.643099E+04 -1.128405E+05 -1.069072E+04  7.213440E+03
       143   8 -1.804958E+05 -3.903811E+04  1.216688E+04 -1.198790E+05 -9.393844E+03  4.675619E+03
       143   9 -2.121280E+05 -5.327958E+04  7.657491E+03 -1.319567E+05 -8.062947E+03  2.046472E+03
       143  10 -3.907585E+05 -1.170205E+05 -2.011626E+04 -1.820408E+05  2.487041E-09 -4.589545E-10
       143  11 -3.590693E+05 -1.025821E+05 -1.415986E+04 -1.700240E+05 -2.559631E-09 -8.410401E-11
       143  12 -3.231145E+05 -9.271610E+04 -8.760863E+03 -1.630469E+05 -4.594105E-09  2.698541E-09
       143  13 -2.676473E+05 -7.315645E+04 -1.842701E+03 -1.474438E+05 -1.943786E-09 -1.321246E-09
       143  14 -2.697867E+05 -7.081044E+04 -9.964720E+02 -1.449531E+05  1.546114E-09 -4.420799E-10
       143  15 -2.676226E+05 -7.299788E+04 -5.516346E+02 -1.475023E+05  1.202292E-09  3.151906E-10
       143  16 -1.445197E+05 -2.929075E+04  1.643068E+04 -1.128405E+05 -2.789374E-09 -1.522611E-09
       143  17 -1.804959E+05 -3.903816E+04  1.216667E+04 -1.198790E+05 -3.171343E-11 -3.196169E-09
       143  18 -2.121281E+05 -5.327961E+04  7.657361E+03 -1.319567E+05  4.556058E-09 -1.048429E-09
       143  19 -3.907585E+05 -1.170204E+05 -2.011601E+04 -1.820408E+05 -5.474996E+02 -1.143114E+04
       143  20 -3.590693E+05 -1.025820E+05 -1.415970E+04 -1.700240E+05 -2.237830E+03 -9.040561E+03
       143  21 -3.231145E+05 -9.271605E+04 -8.760753E+03 -1.630468E+05 -3.962255E+03 -6.558653E+03
       143  22 -2.676473E+05 -7.315635E+04 -1.842490E+03 -1.474439E+05  5.071022E+03 -9.322509E+03
       143  23 -2.697866E+05 -7.081038E+04 -9.963596E+02 -1.449532E+05  3.577585E+03 -6.858248E+03
       143  24 -2.676226E+05 -7.299786E+04 -5.515919E+02 -1.475023E+05  2.050101E+03 -4.302654E+03
       143  25 -1.445196E+05 -2.929067E+04  1.643099E+04 -1.128405E+05  1.069072E+04 -7.213440E+03
       143  26 -1.804958E+05 -3.903811E+04  1.216688E+04 -1.198790E+05  9.393844E+03 -4.675619E+03
       143  27 -2.121280E+05 -5.327958E+04  7.657491E+03 -1.319567E+05  8.062947E+03 -2.046472E+03
       144   1 -3.019288E+05 -8.517585E+04 -5.383912E+03 -1.571192E+05  4.650391E+03  4.961794E+03
       144   2 -2.702887E+05 -7.094132E+04 -3.275148E+02 -1.450796E+05  5.838301E+03  2.222255E+03
       144   3 -2.342530E+05 -6.113422E+04  4.622448E+03 -1.380970E+05  7.029526E+03 -5.261533E+02
       144   4 -2.676052E+05 -7.299873E+04 -4.177595E+02 -1.474968E+05 -1.360884E+03  2.706260E+03
       144   5 -2.698039E+05 -7.078784E+04 -2.424968E+02 -1.449674E+05 -1.923136E+02 -4.054733E+01
       144   6 -2.676053E+05 -7.300105E+04 -1.587462E+02 -1.474958E+05  9.795614E+02 -2.796223E+03
       144   7 -2.332798E+05 -6.082128E+04  4.548664E+03 -1.378738E+05 -7.372586E+03  4.505678E+02
       144   8 -2.693190E+05 -7.063432E+04 -1.573218E+02 -1.448553E+05 -6.222973E+03 -2.303366E+03
       144   9 -3.009562E+05 -8.486773E+04 -4.939795E+03 -1.568942E+05 -5.070064E+03 -5.066164E+03
       144  10 -3.019288E+05 -8.517589E+04 -5.383999E+03 -1.571192E+05  5.853280E-08  2.676049E-08
       144  11 -2.702888E+05 -7.094134E+04 -3.275882E+02 -1.450796E+05  1.026681E-08  8.101915E-09
       144  12 -2.342531E+05 -6.113423E+04  4.622355E+03 -1.380970E+05 -5.377528E-08 -1.607554E-08
       144  13 -2.676052E+05 -7.299874E+04 -4.177767E+02 -1.474968E+05  8.012880E-09  3.599427E-09
       144  14 -2.698039E+05 -7.078784E+04 -2.424968E+02 -1.449674E+05  1.371125E-08  6.100395E-09
       144  15 -2.676053E+05 -7.300106E+04 -1.587627E+02 -1.474958E+05  6.430464E-09  4.021964E-09
       144  16 -2.332799E+05 -6.082130E+04  4.548561E+03 -1.378737E+05 -5.072616E-08 -1.954525E-08
       144  17 -2.693191E+05 -7.063434E+04 -1.574046E+02 -1.448553E+05  1.392107E-08  5.062048E-09
       144  18 -3.009562E+05 -8.486777E+04 -4.939892E+03 -1.568942E+05  5.433015E-08  2.333701E-08
       144  19 -3.019288E+05 -8.517585E+04 -5.383912E+03 -1.571192E+05 -4.650391E+03 -4.961794E+03
       144  20 -2.702887E+05 -7.094132E+04 -3.275148E+02 -1.450796E+05 -5.838301E+03 -2.222255E+03
       144  21 -2.342530E+05 -6.113422E+04  4.622448E+03 -1.380970E+05 -7.029526E+03  5.261533E+02
       144  22 -2.676052E+05 -7.299873E+04 -4.177595E+02 -1.474968E+05  1.360884E+03 -2.706260E+03
       144  23 -2.698039E+05 -7.078784E+04 -2.424968E+02 -1.449674E+05  1.923136E+02  4.054734E+01
       144  24 -2.676053E+05 -7.300105E+04 -1.587462E+02 -1.474958E+05 -9.795614E+02  2.796223E+03
       144  25 -2.332798E+05 -6.082128E+04  4.548664E+03 -1.378738E+05  7.372586E+03 -4.505678E+02
       144  26 -2.693190E+05 -7.063432E+04 -1.573218E+02 -1.448553E+05  6.222973E+03  2.303366E+03
       144  27 -3.009562E+05 -8.486773E+04 -4.939795E+03 -1.568942E+05  5.070064E+03  5.066164E+03
       145   1 -2.130999E+05 -5.358776E+04  7.870173E+03 -1.321611E+05  7.667371E+03 -2.150405E+03
       145   2 -1.814743E+05 -3.935933E+04  1.273995E+04 -1.201175E+05  8.759797E+03 -4.933613E+03
       145   3 -1.454371E+05 -2.954406E+04  1.757922E+04 -1.131287E+05  9.847667E+03 -7.704311E+03
       145   4 -2.676046E+05 -7.300241E+04 -1.401019E+02 -1.474946E+05  1.617458E+03 -4.420507E+03
       145   5 -2.698085E+05 -7.079708E+04 -1.379536E+02 -1.449658E+05  2.736623E+03 -7.193871E+03
       145   6 -2.676073E+05 -7.301023E+04 -1.874911E+02 -1.474923E+05  3.851238E+03 -9.954746E+03
       145   7 -3.221053E+05 -9.241644E+04 -8.150058E+03 -1.628266E+05 -4.431820E+03 -6.690371E+03
       145   8 -3.581342E+05 -1.022340E+05 -1.301576E+04 -1.698108E+05 -3.285647E+03 -9.453791E+03
       145   9 -3.897626E+05 -1.164753E+05 -1.795460E+04 -1.818500E+05 -2.144022E+03 -1.220474E+04
       145  10 -2.131000E+05 -5.358778E+04  7.870054E+03 -1.321611E+05  5.101455E-08  2.346111E-08
       145  11 -1.814743E+05 -3.935938E+04  1.273976E+04 -1.201174E+05  3.108491E-09  4.672065E-09
       145  12 -1.454372E+05 -2.954415E+04  1.757892E+04 -1.131287E+05 -5.289483E-08 -2.125705E-08
       145  13 -2.676046E+05 -7.300243E+04 -1.401435E+02 -1.474946E+05  1.578663E-09  3.364394E-09
       145  14 -2.698085E+05 -7.079714E+04 -1.380649E+02 -1.449658E+05  8.543412E-09  4.544594E-09
       145  15 -2.676073E+05 -7.301034E+04 -1.877052E+02 -1.474923E+05  3.982433E-09  7.603565E-11
       145  16 -3.221053E+05 -9.241649E+04 -8.150179E+03 -1.628266E+05 -5.532195E-08 -1.696372E-08
       145  17 -3.581342E+05 -1.022341E+05 -1.301595E+04 -1.698109E+05  4.957259E-09  5.855815E-09
       145  18 -3.897627E+05 -1.164755E+05 -1.795488E+04 -1.818500E+05  5.438507E-08  2.139551E-08
       145  19 -2.130999E+05 -5.358776E+04  7.870173E+03 -1.321611E+05 -7.667371E+03  2.150405E+03
       145  20 -1.814743E+05 -3.935933E+04  1.273995E+04 -1.201175E+05 -8.759797E+03  4.933613E+03
       145  21 -1.454371E+05 -2.954406E+04  1.757922E+04 -1.131287E+05 -9.847667E+03  7.704311E+03
       145  22 -2.676046E+05 -7.300241E+04 -1.401019E+02 -1.474946E+05 -1.617458E+03  4.420507E+03
       145  23 -2.698085E+05 -7.079708E+04 -1.379536E+02 -1.449658E+05 -2.736623E+03  7.193871E+03
       145  24 -2.676073E+05 -7.301023E+04 -1.874911E+02 -1.474923E+05 -3.851238E+03  9.954746E+03
       145  25 -3.221053E+05 -9.241644E+04 -8.150058E+03 -1.628266E+05  4.431820E+03  6.690371E+03
       145  26 -3.581342E+05 -1.022340E+05 -1.301576E+04 -1.698108E+05  3.285647E+03  9.453791E+03
       145  27 -3.897626E+05 -1.164753E+05 -1.795460E+04 -1.818500E+05  2.144022E+03  1.220474E+04
       146   1 -1.242887E+05 -2.199462E+04  2.077930E+04 -1.071961E+05  1.049233E+04 -9.313521E+03
       146   2 -9.269017E+04 -7.755800E+03  2.559427E+04 -9.514823E+04  1.146175E+04 -1.205505E+04
       146   3 -5.667488E+04  2.077284E+03  3.044862E+04 -8.814039E+04  1.238742E+04 -1.467927E+04
       146   4 -2.676163E+05 -7.301080E+04 -2.341128E+02 -1.474926E+05  4.494780E+03 -1.156456E+04
       146   5 -2.698068E+05 -7.081864E+04 -4.007593E+02 -1.449600E+05  5.716959E+03 -1.421161E+04
       146   6 -2.676316E+05 -7.308252E+04 -7.283422E+02 -1.474680E+05  6.895382E+03 -1.674134E+04
       146   7 -4.109215E+05 -1.240247E+05 -2.124755E+04 -1.877803E+05 -1.501307E+03 -1.381505E+04
       146   8 -4.468880E+05 -1.338776E+05 -2.639561E+04 -1.947580E+05 -2.606659E+01 -1.636752E+04
       146   9 -4.785372E+05 -1.482364E+05 -3.190486E+04 -2.067757E+05  1.405378E+03 -1.880265E+04
       146  10 -1.242888E+05 -2.199474E+04  2.077893E+04 -1.071960E+05 -7.254408E-09 -5.517769E-09
       146  11 -9.269035E+04 -7.755991E+03  2.559375E+04 -9.514811E+04  1.829698E-09 -2.597595E-09
       146  12 -5.667510E+04  2.077011E+03  3.044792E+04 -8.814025E+04  4.098234E-10 -1.386258E-09
       146  13 -2.676164E+05 -7.301095E+04 -2.344021E+02 -1.474926E+05  2.685496E-09 -1.809888E-09
       146  14 -2.698069E+05 -7.081886E+04 -4.012002E+02 -1.449599E+05  5.454384E-09 -6.363242E-10
       146  15 -2.676317E+05 -7.308283E+04 -7.289581E+02 -1.474679E+05  1.788564E-09 -8.234515E-10
       146  16 -4.109216E+05 -1.240249E+05 -2.124791E+04 -1.877804E+05  5.207531E-09  1.381231E-09
       146  17 -4.468881E+05 -1.338779E+05 -2.639612E+04 -1.947580E+05  3.543798E-09  8.610298E-10
       146  18 -4.785373E+05 -1.482368E+05 -3.190553E+04 -2.067757E+05  6.048616E-11  8.765840E-11
       146  19 -1.242887E+05 -2.199462E+04  2.077930E+04 -1.071961E+05 -1.049233E+04  9.313521E+03
       146  20 -9.269017E+04 -7.755800E+03  2.559427E+04 -9.514823E+04 -1.146175E+04  1.205505E+04
       146  21 -5.667488E+04  2.077284E+03  3.044862E+04 -8.814039E+04 -1.238742E+04  1.467927E+04
       146  22 -2.676163E+05 -7.301080E+04 -2.341128E+02 -1.474926E+05 -4.494780E+03  1.156456E+04
       146  23 -2.698068E+05 -7.081864E+04 -4.007593E+02 -1.449600E+05 -5.716959E+03  1.421161E+04
       146  24 -2.676316E+05 -7.308252E+04 -7.283422E+02 -1.474680E+05 -6.895382E+03  1.674134E+04
       146  25 -4.109215E+05 -1.240247E+05 -2.124755E+04 -1.877803E+05  1.501307E+03  1.381505E+04
       146  26 -4.468880E+05 -1.338776E+05 -2.639561E+04 -1.947580E+05  2.606659E+01  1.636752E+04
       146  27 -4.785372E+05 -1.482364E+05 -3.190486E+04 -2.067757E+05 -1.405378E+03  1.880265E+04
       147   1 -3.549590E+04  9.627684E+03  3.362644E+04 -8.223852E+04  1.310329E+04 -1.614701E+04
       147   2 -4.206693E+03  2.399190E+04  3.882118E+04 -6.992921E+04  1.257076E+04 -1.867552E+04
       147   3  3.153346E+04  3.383519E+04  4.492819E+04 -6.247588E+04  1.165437E+04 -2.018113E+04
       147   4 -2.676966E+05 -7.309547E+04 -9.712575E+02 -1.474644E+05  7.597054E+03 -1.821469E+04
       147   5 -2.697815E+05 -7.114990E+04 -1.795803E+03 -1.448371E+05  9.270831E+03 -1.991546E+04
       147   6 -2.678543E+05 -7.416316E+04 -3.456599E+03 -1.470668E+05  1.056076E+04 -2.059303E+04
       147   7 -4.998418E+05 -1.558140E+05 -3.557027E+04 -2.126681E+05  2.092926E+03 -2.028157E+04
       147   8 -5.352818E+05 -1.662848E+05 -4.241423E+04 -2.197152E+05  5.972373E+03 -2.115485E+04
       147   9 -5.671461E+05 -1.821521E+05 -5.184328E+04 -2.316193E+05  9.467714E+03 -2.100472E+04
       147  10 -3.549615E+04  9.627358E+03  3.362563E+04 -8.223835E+04 -8.842616E-10 -1.879613E-09
       147  11 -4.206957E+03  2.399148E+04  3.882022E+04 -6.992902E+04 -8.201641E-11 -3.187061E-11
       147  12  3.153321E+04  3.383471E+04  4.492717E+04 -6.247569E+04 -1.774184E-09  1.472768E-09
       147  13 -2.676967E+05 -7.309584E+04 -9.719893E+02 -1.474643E+05 -2.131486E-09 -9.520112E-10
       147  14 -2.697817E+05 -7.115035E+04 -1.796710E+03 -1.448369E+05 -1.054830E-09  3.491328E-10
       147  15 -2.678546E+05 -7.416364E+04 -3.457606E+03 -1.470666E+05 -1.565853E-10  5.492299E-10
       147  16 -4.998419E+05 -1.558144E+05 -3.557105E+04 -2.126680E+05 -6.975321E-10  9.195177E-10
       147  17 -5.352819E+05 -1.662853E+05 -4.241514E+04 -2.197151E+05 -4.993841E-10  5.247782E-10
       147  18 -5.671463E+05 -1.821526E+05 -5.184428E+04 -2.316192E+05  2.970524E-09  4.564367E-11
       147  19 -3.549590E+04  9.627684E+03  3.362644E+04 -8.223852E+04 -1.310329E+04  1.614701E+04
       147  20 -4.206693E+03  2.399190E+04  3.882118E+04 -6.992921E+04 -1.257076E+04  1.867552E+04
       147  21  3.153346E+04  3.383519E+04  4.492819E+04 -6.247588E+04 -1.165437E+04  2.018113E+04
       147  22 -2.676966E+05 -7.309547E+04 -9.712575E+02 -1.474644E+05 -7.597054E+03  1.821469E+04
       147  23 -2.697815E+05 -7.114990E+04 -1.795803E+03 -1.448371E+05 -9.270831E+03  1.991546E+04
       147  24 -2.678543E+05 -7.416316E+04 -3.456599E+03 -1.470668E+05 -1.056076E+04  2.059303E+04
       147  25 -4.998418E+05 -1.558140E+05 -3.557027E+04 -2.126681E+05 -2.092926E+03  2.028157E+04
       147  26 -5.352818E+05 -1.662848E+05 -4.241423E+04 -2.197152E+05 -5.972373E+03  2.115485E+04
       147  27 -5.671461E+05 -1.821521E+05 -5.184328E+04 -2.316193E+05 -9.467714E+03  2.100472E+04
       148   1  5.304991E+04  4.122527E+04  4.868792E+04 -5.684724E+04  1.255569E+04 -2.058227E+04
       148   2  8.035318E+04  5.693994E+04  5.950202E+04 -4.017978E+04 -3.567477E+03 -2.218289E+04
       148   3  1.119920E+05  6.521260E+04  8.014616E+04 -2.617120E+04 -2.305194E+04 -1.484202E+04
       148   4 -2.684765E+05 -7.444196E+04 -4.661153E+03 -1.470015E+05  1.132876E+04 -2.104438E+04
       148   5 -2.697255E+05 -7.580401E+04 -8.977044E+03 -1.430479E+05  1.449897E+04 -1.539909E+04
       148   6 -2.704632E+05 -8.843246E+04 -1.875102E+04 -1.417541E+05  1.430817E+04 -8.091809E+02
       148   7 -5.898918E+05 -1.900984E+05 -5.801249E+04 -2.371118E+05  1.010250E+04 -2.150623E+04
       148   8 -6.196693E+05 -2.085313E+05 -7.745838E+04 -2.458591E+05  3.255418E+04 -8.619910E+03
       148   9 -6.527589E+05 -2.420554E+05 -1.176508E+05 -2.572655E+05  5.164187E+04  1.321213E+04
       148  10  5.304962E+04  4.122478E+04  4.868683E+04 -5.684703E+04  2.967438E-10  1.711972E-09
       148  11  8.035304E+04  5.693941E+04  5.950107E+04 -4.017984E+04  1.766823E-09  3.895070E-10
       148  12  1.119914E+05  6.521222E+04  8.014475E+04 -2.617147E+04  3.785021E-10 -2.505384E-10
       148  13 -2.684768E+05 -7.444247E+04 -4.662226E+03 -1.470013E+05 -6.446149E-10  4.966982E-10
       148  14 -2.697258E+05 -7.580432E+04 -8.977884E+03 -1.430477E+05  1.098921E-09  7.762006E-10
       148  15 -2.704635E+05 -8.843251E+04 -1.875141E+04 -1.417541E+05 -2.592420E-10 -1.354414E-10
       148  16 -5.898920E+05 -1.900989E+05 -5.801355E+04 -2.371116E+05 -8.344550E-10 -8.060955E-10
       148  17 -6.196704E+05 -2.085317E+05 -7.746051E+04 -2.458589E+05 -1.986493E-09 -6.263719E-10
       148  18 -6.527618E+05 -2.420563E+05 -1.176561E+05 -2.572660E+05 -1.272880E-09 -3.313619E-11
       148  19  5.304991E+04  4.122527E+04  4.868792E+04 -5.684724E+04 -1.255569E+04  2.058227E+04
       148  20  8.035318E+04  5.693994E+04  5.950202E+04 -4.017978E+04  3.567477E+03  2.218289E+04
       148  21  1.119920E+05  6.521260E+04  8.014616E+04 -2.617120E+04  2.305194E+04  1.484202E+04
       148  22 -2.684765E+05 -7.444196E+04 -4.661153E+03 -1.470015E+05 -1.132876E+04  2.104438E+04
       148  23 -2.697255E+05 -7.580401E+04 -8.977044E+03 -1.430479E+05 -1.449897E+04  1.539909E+04
       148  24 -2.704632E+05 -8.843246E+04 -1.875102E+04 -1.417541E+05 -1.430817E+04  8.091809E+02
       148  25 -5.898918E+05 -1.900984E+05 -5.801249E+04 -2.371118E+05 -1.010250E+04  2.150623E+04
       148  26 -6.196693E+05 -2.085313E+05 -7.745838E+04 -2.458591E+05 -3.255418E+04  8.619910E+03
       148  27 -6.527589E+05 -2.420554E+05 -1.176508E+05 -2.572655E+05 -5.164187E+04 -1.321213E+04
       149   1 -1.264738E+05 -1.758824E+04 -4.024658E+04 -2.028275E+04 -6.844640E+04 -2.924308E+03
       149   2 -1.287965E+05  7.406594E+04  1.352902E+04 -5.499277E+03 -4.645660E+04 -8.806350E+03
       149   3 -1.594276E+05  6.377279E+04  2.751487E+04  2.032318E+04 -2.447249E+04 -8.468901E+03
       149   4 -3.986130E+05 -8.538884E+04 -1.072573E+05  8.441103E+03 -7.339412E+04 -2.931005E+03
       149   5 -3.841459E+05  1.085907E+04 -4.717227E+04  2.887529E+03 -4.798218E+04 -8.808497E+03
       149   6 -3.985951E+05  4.541069E+03 -2.926674E+04  8.373530E+03 -2.257523E+04 -8.466806E+03
       149   7 -6.706829E+05 -1.531918E+05 -1.742729E+05  3.715233E+04 -7.833966E+04 -2.938161E+03
       149   8 -6.394354E+05 -5.235222E+04 -1.078781E+05  1.127085E+04 -4.950714E+04 -8.810685E+03
       149   9 -6.377097E+05 -5.469423E+04 -8.605225E+04 -3.571504E+03 -2.067870E+04 -8.464783E+03
       149  10 -1.264788E+05 -1.758951E+04 -4.025540E+04 -2.028291E+04  7.548192E-10 -7.975837E-12
       149  11 -1.287988E+05  7.406527E+04  1.352482E+04 -5.499607E+03 -3.924448E-09 -1.217128E-09
       149  12 -1.594283E+05  6.377255E+04  2.751361E+04  2.032301E+04 -8.650598E-10 -1.736685E-09
       149  13 -3.986187E+05 -8.539029E+04 -1.072674E+05  8.440930E+03  1.304554E-09  7.589681E-10
       149  14 -3.841484E+05  1.085837E+04 -4.717674E+04  2.887188E+03  1.074900E-09 -4.619611E-10
       149  15 -3.985957E+05  4.540855E+03 -2.926783E+04  8.373376E+03  1.187882E-09  1.297663E-10
       149  16 -6.706895E+05 -1.531935E+05 -1.742845E+05  3.715215E+04 -5.943653E-10  4.851253E-10
       149  17 -6.394380E+05 -5.235296E+04 -1.078828E+05  1.127050E+04  8.931661E-10 -1.788809E-09
       149  18 -6.377102E+05 -5.469443E+04 -8.605319E+04 -3.571645E+03  2.746326E-09 -2.413899E-09
       149  19 -1.264738E+05 -1.758824E+04 -4.024658E+04 -2.028275E+04  6.844640E+04  2.924308E+03
       149  20 -1.287965E+05  7.406594E+04  1.352902E+04 -5.499277E+03  4.645660E+04  8.806350E+03
       149  21 -1.594276E+05  6.377279E+04  2.751487E+04  2.032318E+04  2.447249E+04  8.468901E+03
       149  22 -3.986130E+05 -8.538884E+04 -1.072573E+05  8.441103E+03  7.339412E+04  2.931005E+03
       149  23 -3.841459E+05  1.085907E+04 -4.717227E+04  2.887529E+03  4.798218E+04  8.808497E+03
       149  24 -3.985951E+05  4.541069E+03 -2.926674E+04  8.373530E+03  2.257523E+04  8.466806E+03
       149  25 -6.706829E+05 -1.531918E+05 -1.742729E+05  3.715233E+04  7.833966E+04  2.938161E+03
       149  26 -6.394354E+05 -5.235222E+04 -1.078781E+05  1.127085E+04  4.950714E+04  8.810685E+03
       149  27 -6.377097E+05 -5.469423E+04 -8.605225E+04 -3.571504E+03  2.067870E+04  8.464783E+03
       150   1 -1.739945E+05  4.587031E+04  2.834879E+04  6.145193E+03 -1.811963E+04 -7.202585E+03
       150   2 -1.890686E+05  5.117522E+04  3.584545E+04  2.319940E+03 -1.210295E+04 -6.927730E+03
       150   3 -2.074404E+05  4.640018E+04  3.690582E+04  9.895457E+03 -6.087018E+03 -6.231803E+03
       150   4 -3.929127E+05 -8.353443E+03 -2.381511E+04  8.482009E+03 -1.808329E+04 -7.202790E+03
       150   5 -3.912411E+05  1.114772E+03 -1.222886E+04  2.776670E+03 -1.183622E+04 -6.927585E+03
       150   6 -3.929087E+05  4.611727E+02 -7.240543E+03  8.472359E+03 -5.589742E+03 -6.231283E+03
       150   7 -6.117868E+05 -6.258064E+04 -7.598236E+04  1.081798E+04 -1.804696E+04 -7.202994E+03
       150   8 -5.933762E+05 -4.894863E+04 -6.030603E+04  3.233240E+03 -1.156958E+04 -6.927440E+03
       150   9 -5.783453E+05 -4.548031E+04 -5.138932E+04  7.049679E+03 -5.092614E+03 -6.230766E+03
       150  10 -1.739948E+05  4.587017E+04  2.834808E+04  6.145088E+03 -2.260122E-09 -2.469712E-09
       150  11 -1.890687E+05  5.117513E+04  3.584509E+04  2.319872E+03 -7.721735E-10  5.997410E-10
       150  12 -2.074405E+05  4.640013E+04  3.690568E+04  9.895427E+03 -7.309411E-10  1.789947E-09
       150  13 -3.929130E+05 -8.353586E+03 -2.381582E+04  8.481904E+03 -5.157125E-10 -2.185773E-09
       150  14 -3.912413E+05  1.114683E+03 -1.222922E+04  2.776604E+03 -1.071560E-09 -7.613060E-10
       150  15 -3.929087E+05  4.611226E+02 -7.240675E+03  8.472331E+03  3.406954E-09 -4.324912E-10
       150  16 -6.117872E+05 -6.258078E+04 -7.598307E+04  1.081788E+04  3.865109E-09 -7.694973E-10
       150  17 -5.933763E+05 -4.894871E+04 -6.030638E+04  3.233176E+03 -1.423353E-09 -8.770206E-10
       150  18 -5.783454E+05 -4.548036E+04 -5.138944E+04  7.049653E+03  6.779981E-10  1.364034E-09
       150  19 -1.739945E+05  4.587031E+04  2.834879E+04  6.145193E+03  1.811963E+04  7.202585E+03
       150  20 -1.890686E+05  5.117522E+04  3.584545E+04  2.319940E+03  1.210295E+04  6.927730E+03
       150  21 -2.074404E+05  4.640018E+04  3.690582E+04  9.895457E+03  6.087018E+03  6.231803E+03
       150  22 -3.929127E+05 -8.353443E+03 -2.381511E+04  8.482009E+03  1.808329E+04  7.202790E+03
       150  23 -3.912411E+05  1.114772E+03 -1.222886E+04  2.776670E+03  1.183622E+04  6.927585E+03
       150  24 -3.929087E+05  4.611727E+02 -7.240543E+03  8.472359E+03  5.589742E+03  6.231283E+03
       150  25 -6.117868E+05 -6.258064E+04 -7.598236E+04  1.081798E+04  1.804696E+04  7.202994E+03
       150  26 -5.933762E+05 -4.894863E+04 -6.030603E+04  3.233240E+03  1.156958E+04  6.927440E+03
       150  27 -5.783453E+05 -4.548031E+04 -5.138932E+04  7.049679E+03  5.092614E+03  6.230766E+03
       151   1 -2.273753E+05  4.003924E+04  3.351572E+04  8.518063E+03 -4.826726E+03 -5.755358E+03
       151   2 -2.441150E+05  3.675385E+04  3.204848E+04  2.871459E+03 -3.279946E+03 -5.061386E+03
       151   3 -2.613166E+05  3.250525E+04  2.932885E+04  8.802259E+03 -1.733458E+03 -4.335950E+03
       151   4 -3.922684E+05 -7.844674E+02 -5.655475E+03  8.515408E+03 -4.452789E+03 -5.754966E+03
       151   5 -3.920350E+05  1.242377E+02 -3.127178E+03  2.726038E+03 -2.889025E+03 -5.060918E+03
       151   6 -3.922669E+05  6.664601E+01 -1.863300E+03  8.514247E+03 -1.325511E+03 -4.335403E+03
       151   7 -5.571365E+05 -4.161014E+04 -4.482857E+04  8.512745E+03 -4.078952E+03 -5.754573E+03
       151   8 -5.399349E+05 -3.650695E+04 -3.830436E+04  2.580645E+03 -2.498198E+03 -5.060451E+03
       151   9 -5.232014E+05 -3.237320E+04 -3.305666E+04  8.226291E+03 -9.176505E+02 -4.334857E+03
       151  10 -2.273753E+05  4.003920E+04  3.351561E+04  8.518040E+03  2.316616E-09  2.819618E-09
       151  11 -2.441150E+05  3.675382E+04  3.204841E+04  2.871446E+03  9.043016E-10  2.813864E-09
       151  12 -2.613166E+05  3.250523E+04  2.932881E+04  8.802253E+03 -2.360146E-09 -5.790016E-10
       151  13 -3.922684E+05 -7.845083E+02 -5.655575E+03  8.515387E+03 -6.557523E-11  2.102149E-10
       151  14 -3.920350E+05  1.242079E+02 -3.127242E+03  2.726027E+03  5.457910E-10  2.657642E-09
       151  15 -3.922669E+05  6.662536E+01 -1.863339E+03  8.514243E+03 -8.575085E-10  3.669824E-09
       151  16 -5.571366E+05 -4.161018E+04 -4.482866E+04  8.512726E+03 -3.383897E-09  3.136178E-09
       151  17 -5.399350E+05 -3.650698E+04 -3.830442E+04  2.580635E+03 -9.491800E-10  2.663420E-09
       151  18 -5.232014E+05 -3.237322E+04 -3.305669E+04  8.226287E+03  4.975661E-09  2.238129E-09
       151  19 -2.273753E+05  4.003924E+04  3.351572E+04  8.518063E+03  4.826726E+03  5.755358E+03
       151  20 -2.441150E+05  3.675385E+04  3.204848E+04  2.871459E+03  3.279946E+03  5.061386E+03
       151  21 -2.613166E+05  3.250525E+04  2.932885E+04  8.802259E+03  1.733458E+03  4.335950E+03
       151  22 -3.922684E+05 -7.844674E+02 -5.655475E+03  8.515408E+03  4.452789E+03  5.754966E+03
       151  23 -3.920350E+05  1.242377E+02 -3.127178E+03  2.726038E+03  2.889025E+03  5.060918E+03
       151  24 -3.922669E+05  6.664601E+01 -1.863300E+03  8.514247E+03  1.325511E+03  4.335403E+03
       151  25 -5.571365E+05 -4.161014E+04 -4.482857E+04  8.512745E+03  4.078952E+03  5.754573E+03
       151  26 -5.399349E+05 -3.650695E+04 -3.830436E+04  2.580645E+03  2.498198E+03  5.060451E+03
       151  27 -5.232014E+05 -3.237320E+04 -3.305666E+04  8.226291E+03  9.176505E+02  4.334857E+03
       152   1 -2.820721E+05  2.721002E+04  2.466622E+04  8.670175E+03 -1.427751E+03 -3.908163E+03
       152   2 -2.991596E+05  2.304684E+04  2.116577E+04  2.810885E+03 -9.629920E+02 -3.179767E+03
       152   3 -3.163620E+05  1.881544E+04  1.733748E+04  8.647429E+03 -4.983935E+02 -2.447325E+03
       152   4 -3.921878E+05 -4.861689E+01 -1.469264E+03  8.540994E+03 -1.027200E+03 -3.907598E+03
       152   5 -3.921296E+05  2.369306E+01 -9.434358E+02  2.692965E+03 -5.602894E+02 -3.179165E+03
       152   6 -3.921871E+05  2.735944E+01 -7.470390E+02  8.540877E+03 -9.352596E+01 -2.446685E+03
       152   7 -5.022925E+05 -2.730813E+04 -2.760560E+04  8.411833E+03 -6.267208E+02 -3.907033E+03
       152   8 -4.850916E+05 -2.300007E+04 -2.305325E+04  2.575059E+03 -1.576469E+02 -3.178563E+03
       152   9 -4.680069E+05 -1.876114E+04 -1.883196E+04  8.434336E+03  3.112924E+02 -2.446045E+03
       152  10 -2.820721E+05  2.721000E+04  2.466619E+04  8.670170E+03  3.299841E-09 -7.398424E-10
       152  11 -2.991596E+05  2.304682E+04  2.116575E+04  2.810883E+03 -5.632426E-09  3.720717E-09
       152  12 -3.163620E+05  1.881543E+04  1.733747E+04  8.647428E+03 -5.212081E-09  3.509334E-09
       152  13 -3.921879E+05 -4.863357E+01 -1.469295E+03  8.540991E+03 -2.850652E-10  7.099754E-10
       152  14 -3.921296E+05  2.368213E+01 -9.434554E+02  2.692963E+03  2.406808E-09  2.489650E-09
       152  15 -3.921871E+05  2.735301E+01 -7.470502E+02  8.540877E+03 -2.036594E-09  2.403864E-10
       152  16 -5.022925E+05 -2.730814E+04 -2.760563E+04  8.411831E+03 -3.284312E-09  1.098929E-09
       152  17 -4.850916E+05 -2.300008E+04 -2.305327E+04  2.575059E+03  3.299458E-09 -1.670104E-09
       152  18 -4.680069E+05 -1.876114E+04 -1.883197E+04  8.434336E+03  7.076448E-09 -8.586407E-10
       152  19 -2.820721E+05  2.721002E+04  2.466622E+04  8.670175E+03  1.427751E+03  3.908163E+03
       152  20 -2.991596E+05  2.304684E+04  2.116577E+04  2.810885E+03  9.629920E+02  3.179767E+03
       152  21 -3.163620E+05  1.881544E+04  1.733748E+04  8.647429E+03  4.983935E+02  2.447325E+03
       152  22 -3.921878E+05 -4.861689E+01 -1.469264E+03  8.540994E+03  1.027200E+03  3.907598E+03
       152  23 -3.921296E+05  2.369306E+01 -9.434358E+02  2.692965E+03  5.602894E+02  3.179165E+03
       152  24 -3.921871E+05  2.735944E+01 -7.470390E+02  8.540877E+03  9.352596E+01  2.446685E+03
       152  25 -5.022925E+05 -2.730813E+04 -2.760560E+04  8.411833E+03  6.267208E+02  3.907033E+03
       152  26 -4.850916E+05 -2.300007E+04 -2.305325E+04  2.575059E+03  1.576469E+02  3.178563E+03
       152  27 -4.680069E+05 -1.876114E+04 -1.883196E+04  8.434336E+03 -3.112924E+02  2.446045E+03
       153   1 -3.373611E+05  1.359291E+04  1.224942E+04  8.612391E+03 -3.653782E+02 -2.019783E+03
       153   2 -3.545402E+05  9.332984E+03  8.053537E+03  2.714678E+03  7.263643E+01 -1.284853E+03
       153   3 -3.718385E+05  5.014775E+03  3.547457E+03  8.579243E+03  5.105907E+02 -5.499027E+02
       153   4 -3.921871E+05  2.590832E+01 -7.369914E+02  8.555633E+03  3.972878E+01 -2.019127E+03
       153   5 -3.921274E+05  2.458268E+01 -8.853832E+02  2.674524E+03  4.777270E+02 -1.284183E+03
       153   6 -3.921869E+05 -3.494625E+01 -1.343885E+03  8.555737E+03  9.156769E+02 -5.492187E+02
       153   7 -4.470103E+05 -1.354130E+04 -1.372361E+04  8.498878E+03  4.448001E+02 -2.018470E+03
       153   8 -4.297133E+05 -9.283921E+03 -9.824402E+03  2.634371E+03  8.827931E+02 -1.283513E+03
       153   9 -4.125349E+05 -5.084697E+03 -6.235256E+03  8.532231E+03  1.320750E+03 -5.485346E+02
       153  10 -3.373611E+05  1.359290E+04  1.224941E+04  8.612391E+03  7.079750E-09  8.291490E-10
       153  11 -3.545402E+05  9.332982E+03  8.053534E+03  2.714678E+03  2.237549E-09  6.476208E-10
       153  12 -3.718385E+05  5.014774E+03  3.547456E+03  8.579244E+03  2.674064E-09 -1.127825E-09
       153  13 -3.921871E+05  2.590395E+01 -7.369991E+02  8.555633E+03  5.774960E-10  4.833532E-09
       153  14 -3.921274E+05  2.458084E+01 -8.853867E+02  2.674524E+03 -1.425726E-10  1.579778E-09
       153  15 -3.921869E+05 -3.494680E+01 -1.343887E+03  8.555737E+03 -3.877151E-10 -1.199947E-09
       153  16 -4.470103E+05 -1.354131E+04 -1.372362E+04  8.498879E+03 -5.700716E-09  2.108026E-09
       153  17 -4.297133E+05 -9.283923E+03 -9.824406E+03  2.634372E+03 -1.702143E-09 -4.583610E-10
       153  18 -4.125349E+05 -5.084698E+03 -6.235260E+03  8.532231E+03  2.351612E-09 -1.123074E-09
       153  19 -3.373611E+05  1.359291E+04  1.224942E+04  8.612391E+03  3.653782E+02  2.019783E+03
       153  20 -3.545402E+05  9.332984E+03  8.053537E+03  2.714678E+03 -7.263643E+01  1.284853E+03
       153  21 -3.718385E+05  5.014775E+03  3.547457E+03  8.579243E+03 -5.105907E+02  5.499027E+02
       153  22 -3.921871E+05  2.590832E+01 -7.369914E+02  8.555633E+03 -3.972878E+01  2.019127E+03
       153  23 -3.921274E+05  2.458268E+01 -8.853832E+02  2.674524E+03 -4.777270E+02  1.284183E+03
       153  24 -3.921869E+05 -3.494625E+01 -1.343885E+03  8.555737E+03 -9.156769E+02  5.492187E+02
       153  25 -4.470103E+05 -1.354130E+04 -1.372361E+04  8.498878E+03 -4.448001E+02  2.018470E+03
       153  26 -4.297133E+05 -9.283921E+03 -9.824402E+03  2.634371E+03 -8.827931E+02  1.283513E+03
       153  27 -4.125349E+05 -5.084697E+03 -6.235256E+03  8.532231E+03 -1.320750E+03  5.485346E+02
       154   1 -3.929760E+05 -1.204469E+02 -1.917111E+03  8.429813E+03  7.778919E+02 -1.190301E+02
       154   2 -4.100044E+05 -4.331322E+03 -7.097216E+03  2.658489E+03  2.198316E+03  6.180922E+02
       154   3 -4.274826E+05 -9.405880E+03 -1.342909E+04  8.659245E+03  3.618750E+03  1.339443E+03
       154   4 -3.922600E+05  6.782332E+01 -1.694671E+03  8.557430E+03  1.187627E+03 -1.183355E+02
       154   5 -3.920360E+05  1.186332E+02 -2.823898E+03  2.672037E+03  2.599383E+03  6.187648E+02
       154   6 -3.922605E+05 -6.926862E+02 -5.098808E+03  8.558707E+03  4.011189E+03  1.340095E+03
       154   7 -3.915439E+05  2.560936E+02 -1.472229E+03  8.685047E+03  1.597362E+03 -1.176408E+02
       154   8 -3.740673E+05  4.568566E+03  1.449398E+03  2.685586E+03  3.000462E+03  6.194374E+02
       154   9 -3.570374E+05  8.020418E+03  3.231387E+03  8.458162E+03  4.403651E+03  1.340746E+03
       154  10 -3.929760E+05 -1.204471E+02 -1.917112E+03  8.429813E+03 -6.319679E-10  1.048271E-09
       154  11 -4.100044E+05 -4.331324E+03 -7.097225E+03  2.658488E+03  8.910259E-10  2.787763E-10
       154  12 -4.274826E+05 -9.405885E+03 -1.342912E+04  8.659242E+03  9.687367E-10 -3.614946E-10
       154  13 -3.922600E+05  6.782292E+01 -1.694673E+03  8.557430E+03  3.047833E-09  3.250341E-10
       154  14 -3.920360E+05  1.186310E+02 -2.823911E+03  2.672036E+03  2.690263E-09  1.041360E-09
       154  15 -3.922605E+05 -6.926924E+02 -5.098842E+03  8.558702E+03 -1.239113E-09  1.770981E-11
       154  16 -3.915439E+05  2.560929E+02 -1.472234E+03  8.685048E+03  3.017788E-09  1.608188E-09
       154  17 -3.740673E+05  4.568563E+03  1.449380E+03  2.685584E+03  1.208181E-09 -4.256987E-09
       154  18 -3.570374E+05  8.020411E+03  3.231347E+03  8.458157E+03 -1.998489E-09 -1.399743E-09
       154  19 -3.929760E+05 -1.204469E+02 -1.917111E+03  8.429813E+03 -7.778919E+02  1.190301E+02
       154  20 -4.100044E+05 -4.331322E+03 -7.097216E+03  2.658489E+03 -2.198316E+03 -6.180922E+02
       154  21 -4.274826E+05 -9.405880E+03 -1.342909E+04  8.659245E+03 -3.618750E+03 -1.339443E+03
       154  22 -3.922600E+05  6.782332E+01 -1.694671E+03  8.557430E+03 -1.187627E+03  1.183355E+02
       154  23 -3.920360E+05  1.186332E+02 -2.823898E+03  2.672037E+03 -2.599383E+03 -6.187648E+02
       154  24 -3.922605E+05 -6.926862E+02 -5.098808E+03  8.558707E+03 -4.011189E+03 -1.340095E+03
       154  25 -3.915439E+05  2.560936E+02 -1.472229E+03  8.685047E+03 -1.597362E+03  1.176408E+02
       154  26 -3.740673E+05  4.568566E+03  1.449398E+03  2.685586E+03 -3.000462E+03 -6.194374E+02
       154  27 -3.570374E+05  8.020418E+03  3.231387E+03  8.458162E+03 -4.403651E+03 -1.340746E+03
       155   1 -4.490913E+05 -1.351718E+04 -1.995240E+04  7.353098E+03  4.574954E+03  1.800092E+03
       155   2 -4.647484E+05 -1.717023E+04 -2.847750E+04  3.165553E+03  1.032773E+04  2.528767E+03
       155   3 -4.834795E+05 -2.995183E+04 -4.304121E+04  1.070798E+04  1.608070E+04  3.025656E+03
       155   4 -3.928393E+05  4.283912E+02 -6.525960E+03  8.544588E+03  5.036019E+03  1.800855E+03
       155   5 -3.913148E+05  1.014309E+03 -1.101338E+04  2.685926E+03  1.066150E+04  2.529277E+03
       155   6 -3.928421E+05 -7.505621E+03 -2.145043E+04  8.557222E+03  1.628734E+04  3.025895E+03
       155   7 -3.365844E+05  1.437374E+04  6.900256E+03  9.736185E+03  5.497127E+03  1.801620E+03
       155   8 -3.178762E+05  1.919846E+04  6.450363E+03  2.206241E+03  1.099532E+04  2.529786E+03
       155   9 -3.021972E+05  1.494002E+04  1.397789E+02  6.406143E+03  1.649402E+04  3.026132E+03
       155  10 -4.490913E+05 -1.351719E+04 -1.995244E+04  7.353092E+03  3.548645E-09  2.647245E-09
       155  11 -4.647485E+05 -1.717026E+04 -2.847771E+04  3.165532E+03  6.879118E-09  2.610098E-09
       155  12 -4.834798E+05 -2.995191E+04 -4.304172E+04  1.070794E+04  3.822595E-09  1.048458E-09
       155  13 -3.928393E+05  4.283810E+02 -6.526014E+03  8.544581E+03 -1.897227E-10  2.053789E-09
       155  14 -3.913149E+05  1.014272E+03 -1.101361E+04  2.685905E+03  5.492751E-10  4.826626E-09
       155  15 -3.928424E+05 -7.505702E+03 -2.145095E+04  8.557182E+03  2.899774E-09  3.608521E-09
       155  16 -3.365844E+05  1.437373E+04  6.900193E+03  9.736177E+03 -5.902654E-09  1.776627E-10
       155  17 -3.178763E+05  1.919842E+04  6.450124E+03  2.206218E+03 -7.548500E-09 -5.200178E-10
       155  18 -3.021975E+05  1.493994E+04  1.392502E+02  6.406102E+03 -3.137171E-09 -3.703148E-09
       155  19 -4.490913E+05 -1.351718E+04 -1.995240E+04  7.353098E+03 -4.574954E+03 -1.800092E+03
       155  20 -4.647484E+05 -1.717023E+04 -2.847750E+04  3.165553E+03 -1.032773E+04 -2.528767E+03
       155  21 -4.834795E+05 -2.995183E+04 -4.304121E+04  1.070798E+04 -1.608070E+04 -3.025656E+03
       155  22 -3.928393E+05  4.283912E+02 -6.525960E+03  8.544588E+03 -5.036019E+03 -1.800855E+03
       155  23 -3.913148E+05  1.014309E+03 -1.101338E+04  2.685926E+03 -1.066150E+04 -2.529277E+03
       155  24 -3.928421E+05 -7.505621E+03 -2.145043E+04  8.557222E+03 -1.628734E+04 -3.025895E+03
       155  25 -3.365844E+05  1.437374E+04  6.900256E+03  9.736185E+03 -5.497127E+03 -1.801620E+03
       155  26 -3.178762E+05  1.919846E+04  6.450363E+03  2.206241E+03 -1.099532E+04 -2.529786E+03
       155  27 -3.021972E+05  1.494002E+04  1.397789E+02  6.406143E+03 -1.649402E+04 -3.026132E+03
       156   1 -5.094933E+05 -2.355000E+04 -5.286625E+04 -2.243770E+03  1.909680E+04  3.924886E+03
       156   2 -5.134105E+05 -2.199926E+04 -7.302946E+04  1.029035E+04  4.387129E+04  4.479743E+03
       156   3 -5.437652E+05 -1.131570E+05 -1.325136E+05  3.443913E+04  6.865044E+04  1.594601E+03
       156   4 -3.979623E+05  4.107937E+03 -2.636068E+04  8.487342E+03  2.033336E+04  3.927079E+03
       156   5 -3.849185E+05  9.794422E+03 -4.248178E+04  2.737699E+03  4.321363E+04  4.478170E+03
       156   6 -3.979780E+05 -7.688926E+04 -9.660204E+04  8.603198E+03  6.609929E+04  1.588115E+03
       156   7 -2.864196E+05  3.176541E+04  1.440877E+02  1.922039E+04  2.157014E+04  3.929314E+03
       156   8 -2.564113E+05  4.158713E+04 -1.193522E+04 -4.816534E+03  4.255582E+04  4.476612E+03
       156   9 -2.521700E+05 -4.062056E+04 -6.069164E+04 -1.723882E+04  6.354753E+04  1.581843E+03
       156  10 -5.094937E+05 -2.355012E+04 -5.286696E+04 -2.243830E+03 -9.094601E-09  4.411996E-10
       156  11 -5.134125E+05 -2.199980E+04 -7.303312E+04  1.029020E+04 -6.770147E-09 -1.227941E-09
       156  12 -5.437702E+05 -1.131583E+05 -1.325225E+05  3.443905E+04 -6.769719E-10  6.265687E-10
       156  13 -3.979627E+05  4.107809E+03 -2.636149E+04  8.487278E+03  5.592348E-10  6.319588E-09
       156  14 -3.849205E+05  9.793898E+03 -4.248533E+04  2.737543E+03 -2.955670E-09 -1.014698E-10
       156  15 -3.979827E+05 -7.689044E+04 -9.661026E+04  8.603113E+03  6.773483E-11  2.834675E-09
       156  16 -2.864201E+05  3.176527E+04  1.431840E+02  1.922032E+04  7.690467E-09  4.390308E-10
       156  17 -2.564132E+05  4.158662E+04 -1.193867E+04 -4.816687E+03  4.323406E-09  1.033421E-09
       156  18 -2.521743E+05 -4.062165E+04 -6.069923E+04 -1.723891E+04  1.518593E-09 -1.336013E-10
       156  19 -5.094933E+05 -2.355000E+04 -5.286625E+04 -2.243770E+03 -1.909680E+04 -3.924886E+03
       156  20 -5.134105E+05 -2.199926E+04 -7.302946E+04  1.029035E+04 -4.387129E+04 -4.479743E+03
       156  21 -5.437652E+05 -1.131570E+05 -1.325136E+05  3.443913E+04 -6.865044E+04 -1.594601E+03
       156  22 -3.979623E+05  4.107937E+03 -2.636068E+04  8.487342E+03 -2.033336E+04 -3.927079E+03
       156  23 -3.849185E+05  9.794422E+03 -4.248178E+04  2.737699E+03 -4.321363E+04 -4.478170E+03
       156  24 -3.979780E+05 -7.688926E+04 -9.660204E+04  8.603198E+03 -6.609929E+04 -1.588115E+03
       156  25 -2.864196E+05  3.176541E+04  1.440877E+02  1.922039E+04 -2.157014E+04 -3.929314E+03
       156  26 -2.564113E+05  4.158713E+04 -1.193522E+04 -4.816534E+03 -4.255582E+04 -4.476612E+03
       156  27 -2.521700E+05 -4.062056E+04 -6.069164E+04 -1.723882E+04 -6.354753E+04 -1.581843E+03
       157   1  1.834608E+05  1.024130E+06  2.019140E+05 -9.524168E+04  4.124837E+03  7.753332E+04
       157   2  6.645878E+04  9.097773E+05  1.182111E+05 -4.556996E+04  1.163933E+04  4.243551E+04
       157   3  4.320163E+04  8.233634E+05  8.075774E+04 -4.631506E+04  8.455166E+03  7.334381E+03
       157   4  8.575352E+04  6.315806E+05  1.058874E+05 -5.878637E+04  4.136982E+03  6.794907E+04
       157   5 -5.237501E+03  6.183194E+05  5.106251E+04 -3.361550E+04  1.164192E+04  4.083490E+04
       157   6 -3.843600E+03  6.316217E+05  3.696749E+04 -5.885862E+04  8.448721E+03  1.371160E+04
       157   7 -1.196018E+04  2.391745E+05  9.850673E+03 -2.235409E+04  4.148008E+03  5.837085E+04
       157   8 -7.693919E+04  3.269403E+05 -1.609163E+04 -2.166667E+04  1.164444E+04  3.923504E+04
       157   9 -5.089076E+04  4.399144E+05 -6.824924E+03 -7.139827E+04  8.442019E+03  2.008688E+04
       157  10  1.834592E+05  1.024124E+06  2.019027E+05 -9.524194E+04  3.480856E-11  6.159208E-10
       157  11  6.645815E+04  9.097753E+05  1.182075E+05 -4.557036E+04 -1.462423E-09 -2.244662E-09
       157  12  4.320154E+04  8.233634E+05  8.075750E+04 -4.631511E+04  3.347025E-10 -1.262969E-09
       157  13  8.575226E+04  6.315757E+05  1.058787E+05 -5.878659E+04 -4.785256E-11 -1.662974E-10
       157  14 -5.238093E+03  6.183176E+05  5.105913E+04 -3.361588E+04  2.351226E-09  2.227209E-10
       157  15 -3.843728E+03  6.316215E+05  3.696700E+04 -5.885872E+04 -2.021212E-09 -1.530024E-09
       157  16 -1.196111E+04  2.391708E+05  9.844241E+03 -2.235428E+04  5.643460E-10 -1.329911E-10
       157  17 -7.693975E+04  3.269386E+05 -1.609477E+04 -2.166703E+04  1.793823E-09  4.697704E-11
       157  18 -5.089095E+04  4.399140E+05 -6.825816E+03 -7.139841E+04 -2.684848E-10  7.290960E-10
       157  19  1.834608E+05  1.024130E+06  2.019140E+05 -9.524168E+04 -4.124837E+03 -7.753332E+04
       157  20  6.645878E+04  9.097773E+05  1.182111E+05 -4.556996E+04 -1.163933E+04 -4.243551E+04
       157  21  4.320163E+04  8.233634E+05  8.075774E+04 -4.631506E+04 -8.455166E+03 -7.334381E+03
       157  22  8.575352E+04  6.315806E+05  1.058874E+05 -5.878637E+04 -4.136982E+03 -6.794907E+04
       157  23 -5.237501E+03  6.183194E+05  5.106251E+04 -3.361550E+04 -1.164192E+04 -4.083490E+04
       157  24 -3.843600E+03  6.316217E+05  3.696749E+04 -5.885862E+04 -8.448721E+03 -1.371160E+04
       157  25 -1.196018E+04  2.391745E+05  9.850673E+03 -2.235409E+04 -4.148008E+03 -5.837085E+04
       157  26 -7.693919E+04  3.269403E+05 -1.609163E+04 -2.166667E+04 -1.164444E+04 -3.923504E+04
       157  27 -5.089076E+04  4.399144E+05 -6.824924E+03 -7.139827E+04 -8.442019E+03 -2.008688E+04
       158   1  2.974526E+04  7.252193E+05  5.679291E+04 -6.296031E+04  4.246840E+03  4.528565E+03
       158   2 -1.728519E+03  6.217652E+05  3.214940E+04 -3.316039E+04 -8.005555E+01 -1.197080E+04
       158   3 -1.461177E+04  5.249941E+05  2.286015E+04 -5.407414E+04 -4.401714E+03 -2.846765E+04
       158   4  5.661404E+03  6.272034E+05  3.436542E+04 -5.890380E+04  4.243518E+03  7.764519E+03
       158   5 -1.211860E+03  6.238652E+05  3.262937E+04 -3.354487E+04 -8.337393E+01 -8.738366E+03
       158   6  1.050648E+04  6.272007E+05  4.625054E+04 -5.889885E+04 -4.404829E+03 -2.524131E+04
       158   7 -1.842305E+04  5.291964E+05  1.193734E+04 -5.484794E+04  4.240237E+03  1.099997E+04
       158   8 -6.951950E+02  6.259652E+05  3.310937E+04 -3.392935E+04 -8.669631E+01 -5.505917E+03
       158   9  3.562409E+04  7.294170E+05  6.964030E+04 -6.372436E+04 -4.407993E+03 -2.201445E+04
       158  10  2.974524E+04  7.252192E+05  5.679283E+04 -6.296032E+04  1.740903E-09  5.584344E-10
       158  11 -1.728557E+03  6.217650E+05  3.214913E+04 -3.316039E+04  3.885598E-11 -2.418092E-09
       158  12 -1.461200E+04  5.249933E+05  2.285859E+04 -5.407424E+04 -9.081615E-10  4.231845E-10
       158  13  5.661368E+03  6.272033E+05  3.436527E+04 -5.890383E+04 -1.372958E-09  7.169694E-12
       158  14 -1.211880E+03  6.238651E+05  3.262922E+04 -3.354487E+04 -2.678398E-10 -2.690313E-10
       158  15  1.050629E+04  6.272000E+05  4.624931E+04 -5.889894E+04  2.268427E-09 -1.757514E-09
       158  16 -1.842311E+04  5.291963E+05  1.193708E+04 -5.484798E+04 -8.549075E-10 -1.013052E-10
       158  17 -6.952031E+02  6.259651E+05  3.310931E+04 -3.392935E+04 -1.939908E-10 -4.907633E-10
       158  18  3.562394E+04  7.294165E+05  6.963935E+04 -6.372444E+04  3.187311E-10 -1.188564E-09
       158  19  2.974526E+04  7.252193E+05  5.679291E+04 -6.296031E+04 -4.246840E+03 -4.528565E+03
       158  20 -1.728519E+03  6.217652E+05  3.214940E+04 -3.316039E+04  8.005555E+01  1.197080E+04
       158  21 -1.461177E+04  5.249941E+05  2.286015E+04 -5.407414E+04  4.401714E+03  2.846765E+04
       158  22  5.661404E+03  6.272034E+05  3.436542E+04 -5.890380E+04 -4.243518E+03 -7.764519E+03
       158  23 -1.211860E+03  6.238652E+05  3.262937E+04 -3.354487E+04  8.337393E+01  8.738366E+03
       158  24  1.050648E+04  6.272007E+05  4.625054E+04 -5.889885E+04  4.404829E+03  2.524131E+04
       158  25 -1.842305E+04  5.291964E+05  1.193734E+04 -5.484794E+04 -4.240237E+03 -1.099997E+04
       158  26 -6.951950E+02  6.259652E+05  3.310937E+04 -3.392935E+04  8.669631E+01  5.505917E+03
       158  27  3.562409E+04  7.294170E+05  6.964030E+04 -6.372436E+04  4.407993E+03  2.201445E+04
       159   1 -5.569455E+04  4.399725E+05  9.534618E+03 -8.082249E+04 -8.611233E+03 -3.990984E+04
       159   2 -8.181654E+04  3.173983E+05  1.627570E+04 -1.305949E+04 -1.178665E+04 -7.682896E+04
       159   3  5.075907E+04  2.392708E+05  8.671590E+04  4.314999E+03 -4.167857E+03 -1.137321E+05
       159   4 -7.635773E+03  6.358980E+05  5.428354E+04 -5.886633E+04 -8.618943E+03 -3.351274E+04
       159   5 -9.065856E+03  6.129678E+05  8.439620E+04 -3.361247E+04 -1.178230E+04 -7.848856E+04
       159   6  1.495499E+05  6.358379E+05  1.837735E+05 -5.874018E+04 -4.148673E+03 -1.234547E+05
       159   7  4.042219E+04  8.318602E+05  9.903037E+04 -3.690318E+04 -8.626198E+03 -2.711364E+04
       159   8  6.368029E+04  9.086189E+05  1.525111E+05 -5.417529E+04 -1.177783E+04 -8.014894E+04
       159   9  2.483440E+05  1.032557E+06  2.808221E+05 -1.218357E+05 -4.127524E+03 -1.331835E+05
       159  10 -5.569506E+04  4.399708E+05  9.531487E+03 -8.082277E+04 -1.200110E-10 -1.314073E-10
       159  11 -8.181827E+04  3.173919E+05  1.626435E+04 -1.306022E+04 -8.809209E-10 -2.290784E-09
       159  12  5.075558E+04  2.392569E+05  8.669157E+04  4.314618E+03 -1.498996E-09 -4.119284E-10
       159  13 -7.636154E+03  6.358968E+05  5.428129E+04 -5.886656E+04  2.412594E-09 -9.458853E-11
       159  14 -9.067657E+03  6.129611E+05  8.438437E+04 -3.361321E+04 -2.704008E-09 -4.083118E-11
       159  15  1.495458E+05  6.358216E+05  1.837449E+05 -5.874059E+04 -7.538741E-10 -8.977711E-10
       159  16  4.042191E+04  8.318594E+05  9.902885E+04 -3.690336E+04  1.485147E-09  3.445508E-10
       159  17  6.367842E+04  9.086120E+05  1.524988E+05 -5.417605E+04  4.453107E-10 -4.242050E-11
       159  18  2.483392E+05  1.032538E+06  2.807888E+05 -1.218361E+05 -1.224573E-09  1.795468E-11
       159  19 -5.569455E+04  4.399725E+05  9.534618E+03 -8.082249E+04  8.611233E+03  3.990984E+04
       159  20 -8.181654E+04  3.173983E+05  1.627570E+04 -1.305949E+04  1.178665E+04  7.682896E+04
       159  21  5.075907E+04  2.392708E+05  8.671590E+04  4.314999E+03  4.167857E+03  1.137321E+05
       159  22 -7.635773E+03  6.358980E+05  5.428354E+04 -5.886633E+04  8.618943E+03  3.351274E+04
       159  23 -9.065856E+03  6.129678E+05  8.439620E+04 -3.361247E+04  1.178230E+04  7.848856E+04
       159  24  1.495499E+05  6.358379E+05  1.837735E+05 -5.874018E+04  4.148673E+03  1.234547E+05
       159  25  4.042219E+04  8.318602E+05  9.903037E+04 -3.690318E+04  8.626198E+03  2.711364E+04
       159  26  6.368029E+04  9.086189E+05  1.525111E+05 -5.417529E+04  1.177783E+04  8.014894E+04
       159  27  2.483440E+05  1.032557E+06  2.808221E+05 -1.218357E+05  4.127524E+03  1.331835E+05
       160   1  9.954250E+04  3.977504E+04  2.220235E+04 -7.580288E+03 -4.546070E+04 -5.375868E+03
       160   2  7.256196E+04  1.022914E+05  5.399634E+04  2.758248E+03 -3.351276E+04 -1.646377E+04
       160   3  2.609397E+04  9.300489E+04  6.007879E+04  3.128579E+04 -2.158199E+04 -1.645903E+04
       160   4 -3.368316E+05 -6.871681E+04 -8.431158E+04  2.075724E+04 -5.782228E+04 -5.396194E+03
       160   5 -3.263549E+05  4.176233E+03 -3.779051E+04  1.160594E+04 -3.763279E+04 -1.647164E+04
       160   6 -3.368125E+05  3.808644E+03 -2.271886E+04  2.064501E+04 -1.745944E+04 -1.645201E+04
       160   7 -7.730299E+05 -1.772196E+05 -1.908384E+05  4.907474E+04 -7.017517E+04 -5.417657E+03
       160   8 -7.251243E+05 -9.394978E+04 -1.295878E+05  2.044785E+04 -4.175019E+04 -1.647963E+04
       160   9 -6.995967E+05 -8.539632E+04 -1.055250E+05  1.001044E+04 -1.333928E+04 -1.644513E+04
       160  10  9.954028E+04  3.977445E+04  2.219841E+04 -7.580485E+03 -2.657607E-09  8.112154E-10
       160  11  7.256068E+04  1.022908E+05  5.399372E+04  2.757804E+03  2.838881E-09  6.774739E-09
       160  12  2.609340E+04  9.300447E+04  6.007740E+04  3.128551E+04  4.120153E-09  1.678148E-09
       160  13 -3.368352E+05 -6.871774E+04 -8.431792E+04  2.075699E+04 -8.539197E-10 -2.261803E-09
       160  14 -3.263565E+05  4.175562E+03 -3.779368E+04  1.160544E+04  1.562818E-10 -4.437170E-09
       160  15 -3.368129E+05  3.808272E+03 -2.271994E+04  2.064477E+04 -9.336836E-10  1.507380E-09
       160  16 -7.730353E+05 -1.772209E+05 -1.908477E+05  4.907443E+04  5.180943E-09  6.487916E-10
       160  17 -7.251262E+05 -9.395054E+04 -1.295916E+05  2.044729E+04 -1.526025E-09  3.726910E-09
       160  18 -6.995969E+05 -8.539666E+04 -1.055258E+05  1.001026E+04 -3.130907E-09 -2.568229E-10
       160  19  9.954250E+04  3.977504E+04  2.220235E+04 -7.580288E+03  4.546070E+04  5.375868E+03
       160  20  7.256196E+04  1.022914E+05  5.399634E+04  2.758248E+03  3.351276E+04  1.646377E+04
       160  21  2.609397E+04  9.300489E+04  6.007879E+04  3.128579E+04  2.158199E+04  1.645903E+04
       160  22 -3.368316E+05 -6.871681E+04 -8.431158E+04  2.075724E+04  5.782228E+04  5.396194E+03
       160  23 -3.263549E+05  4.176233E+03 -3.779051E+04  1.160594E+04  3.763279E+04  1.647164E+04
       160  24 -3.368125E+05  3.808644E+03 -2.271886E+04  2.064501E+04  1.745944E+04  1.645201E+04
       160  25 -7.730299E+05 -1.772196E+05 -1.908384E+05  4.907474E+04  7.017517E+04  5.417657E+03
       160  26 -7.251243E+05 -9.394978E+04 -1.295878E+05  2.044785E+04  4.175019E+04  1.647963E+04
       160  27 -6.995967E+05 -8.539632E+04 -1.055250E+05  1.001044E+04  1.333928E+04  1.644513E+04
       161   1 -4.129726E+03  7.587410E+04  5.704632E+04  1.955222E+04 -1.484461E+04 -1.411126E+04
       161   2 -3.997297E+04  7.207735E+04  5.700793E+04  1.146601E+04 -1.035075E+04 -1.287597E+04
       161   3 -7.776149E+04  6.301770E+04  5.271870E+04  2.203409E+04 -5.858966E+03 -1.110278E+04
       161   4 -3.326054E+05 -4.887998E+03 -1.826439E+04  2.078694E+04 -1.412688E+04 -1.411048E+04
       161   5 -3.315931E+05  4.045961E+02 -9.684510E+03  1.145440E+04 -9.235195E+03 -1.287420E+04
       161   6 -3.325981E+05  3.635808E+02 -5.633648E+03  2.077678E+04 -4.345340E+03 -1.109991E+04
       161   7 -6.609812E+05 -8.565761E+04 -9.358220E+04  2.202096E+04 -1.340952E+04 -1.410970E+04
       161   8 -6.231343E+05 -7.127407E+04 -7.638252E+04  1.144275E+04 -8.120161E+03 -1.287243E+04
       161   9 -5.873745E+05 -6.229506E+04 -6.399025E+04  1.951996E+04 -2.832330E+03 -1.109705E+04
       161  10 -4.130016E+03  7.587383E+04  5.704553E+04  1.955205E+04  5.981668E-09  1.142707E-09
       161  11 -3.997313E+04  7.207714E+04  5.700742E+04  1.146590E+04 -5.818804E-09  7.339944E-09
       161  12 -7.776156E+04  6.301756E+04  5.271840E+04  2.203404E+04 -1.301813E-08  6.824242E-09
       161  13 -3.326057E+05 -4.888265E+03 -1.826514E+04  2.078678E+04 -2.389780E-09  6.908520E-09
       161  14 -3.315932E+05  4.043952E+02 -9.684982E+03  1.145430E+04 -2.476619E-09 -1.154862E-08
       161  15 -3.325982E+05  3.634434E+02 -5.633915E+03  2.077675E+04 -2.041592E-09  2.668109E-09
       161  16 -6.609814E+05 -8.565787E+04 -9.358291E+04  2.202081E+04 -4.349293E-09 -4.499882E-09
       161  17 -6.231344E+05 -7.127426E+04 -7.638296E+04  1.144267E+04  2.153378E-09 -1.756051E-09
       161  18 -5.873746E+05 -6.229519E+04 -6.399050E+04  1.951994E+04  1.156199E-08  2.188550E-09
       161  19 -4.129726E+03  7.587410E+04  5.704632E+04  1.955222E+04  1.484461E+04  1.411126E+04
       161  20 -3.997297E+04  7.207735E+04  5.700793E+04  1.146601E+04  1.035075E+04  1.287597E+04
       161  21 -7.776149E+04  6.301770E+04  5.271870E+04  2.203409E+04  5.858966E+03  1.110278E+04
       161  22 -3.326054E+05 -4.887998E+03 -1.826439E+04  2.078694E+04  1.412688E+04  1.411048E+04
       161  23 -3.315931E+05  4.045961E+02 -9.684510E+03  1.145440E+04  9.235195E+03  1.287420E+04
       161  24 -3.325981E+05  3.635808E+02 -5.633648E+03  2.077678E+04  4.345340E+03  1.109991E+04
       161  25 -6.609812E+05 -8.565761E+04 -9.358220E+04  2.202096E+04  1.340952E+04  1.410970E+04
       161  26 -6.231343E+05 -7.127407E+04 -7.638252E+04  1.144275E+04  8.120161E+03  1.287243E+04
       161  27 -5.873745E+05 -6.229506E+04 -6.399025E+04  1.951996E+04  2.832330E+03  1.109705E+04
       162   1 -1.118711E+05  5.388266E+04  4.593254E+04  2.114219E+04 -4.821483E+03 -9.959130E+03
       162   2 -1.486910E+05  4.515746E+04  3.947651E+04  1.176277E+04 -3.630656E+03 -8.126811E+03
       162   3 -1.858294E+05  3.611891E+04  3.214732E+04  2.114603E+04 -2.440462E+03 -6.266380E+03
       162   4 -3.322177E+05 -2.541518E+02 -4.348589E+03  2.080424E+04 -3.470006E+03 -9.956463E+03
       162   5 -3.320543E+05  9.020376E+01 -2.443979E+03  1.142232E+04 -2.258688E+03 -8.123926E+03
       162   6 -3.322138E+05  1.177680E+02 -1.426830E+03  2.080342E+04 -1.047932E+03 -6.263270E+03
       162   7 -5.525192E+05 -5.439433E+04 -5.463288E+04  2.046639E+04 -2.119005E+03 -9.953797E+03
       162   8 -5.153863E+05 -4.497939E+04 -4.436667E+04  1.108195E+04 -8.871212E+02 -8.121043E+03
       162   9 -4.785782E+05 -3.588487E+04 -3.500239E+04  2.046088E+04  3.442721E+02 -6.260161E+03
       162  10 -1.118712E+05  5.388255E+04  4.593231E+04  2.114215E+04  9.059389E-09 -4.490192E-09
       162  11 -1.486911E+05  4.515738E+04  3.947636E+04  1.176274E+04  7.735052E-09 -4.549937E-09
       162  12 -1.858294E+05  3.611887E+04  3.214724E+04  2.114601E+04 -9.152740E-10 -2.790844E-09
       162  13 -3.322177E+05 -2.542614E+02 -4.348798E+03  2.080421E+04 -1.088730E-09 -5.375602E-09
       162  14 -3.320543E+05  9.013153E+01 -2.444112E+03  1.142230E+04 -1.544978E-09 -7.065185E-09
       162  15 -3.322138E+05  1.177255E+02 -1.426906E+03  2.080341E+04  2.128604E-09 -9.703499E-10
       162  16 -5.525192E+05 -5.439444E+04 -5.463308E+04  2.046637E+04 -1.097590E-08 -3.198246E-09
       162  17 -5.153864E+05 -4.497946E+04 -4.436679E+04  1.108195E+04 -1.072190E-08  8.181494E-10
       162  18 -4.785783E+05 -3.588491E+04 -3.500246E+04  2.046088E+04  8.277669E-10  6.917640E-09
       162  19 -1.118711E+05  5.388266E+04  4.593254E+04  2.114219E+04  4.821483E+03  9.959130E+03
       162  20 -1.486910E+05  4.515746E+04  3.947651E+04  1.176277E+04  3.630656E+03  8.126811E+03
       162  21 -1.858294E+05  3.611891E+04  3.214732E+04  2.114603E+04  2.440462E+03  6.266380E+03
       162  22 -3.322177E+05 -2.541518E+02 -4.348589E+03  2.080424E+04  3.470006E+03  9.956463E+03
       162  23 -3.320543E+05  9.020376E+01 -2.443979E+03  1.142232E+04  2.258688E+03  8.123926E+03
       162  24 -3.322138E+05  1.177680E+02 -1.426830E+03  2.080342E+04  1.047932E+03  6.263270E+03
       162  25 -5.525192E+05 -5.439433E+04 -5.463288E+04  2.046639E+04  2.119005E+03  9.953797E+03
       162  26 -5.153863E+05 -4.497939E+04 -4.436667E+04  1.108195E+04  8.871212E+02  8.121043E+03
       162  27 -4.785782E+05 -3.588487E+04 -3.500239E+04  2.046088E+04 -3.442721E+02  6.260161E+03
       163   1 -2.203945E+05  2.752980E+04  2.434266E+04  2.103394E+04 -2.208624E+03 -5.177978E+03
       163   2 -2.574000E+05  1.842405E+04  1.640273E+04  1.155746E+04 -1.879859E+03 -3.313215E+03
       163   3 -2.945401E+05  9.374289E+03  8.238467E+03  2.089156E+04 -1.551332E+03 -1.446318E+03
       163   4 -3.321701E+05  7.783543E+01 -1.104299E+03  2.081430E+04 -8.229127E+02 -5.174804E+03
       163   5 -3.321012E+05  6.271513E+01 -6.760870E+02  1.140891E+04 -4.926507E+02 -3.309969E+03
       163   6 -3.321686E+05  1.033924E+02 -4.732240E+02  2.081424E+04 -1.626076E+02 -1.442992E+03
       163   7 -4.439341E+05 -2.737499E+04 -2.655206E+04  2.059469E+04  5.625513E+02 -5.171631E+03
       163   8 -4.067973E+05 -1.829901E+04 -1.775526E+04  1.126037E+04  8.943917E+02 -3.306722E+03
       163   9 -3.697957E+05 -9.167603E+03 -9.185002E+03  2.073692E+04  1.226033E+03 -1.439668E+03
       163  10 -2.203945E+05  2.752977E+04  2.434260E+04  2.103393E+04  3.291822E-09 -5.914889E-09
       163  11 -2.574000E+05  1.842404E+04  1.640270E+04  1.155745E+04 -4.215500E-10  1.027473E-09
       163  12 -2.945401E+05  9.374286E+03  8.238458E+03  2.089156E+04 -5.918091E-09 -2.285427E-09
       163  13 -3.321701E+05  7.780649E+01 -1.104351E+03  2.081429E+04  7.457549E-12  3.342683E-09
       163  14 -3.321012E+05  6.270330E+01 -6.761080E+02  1.140891E+04 -3.798204E-10 -5.019075E-09
       163  15 -3.321686E+05  1.033901E+02 -4.732279E+02  2.081424E+04  3.355078E-09 -2.445575E-09
       163  16 -4.439341E+05 -2.737502E+04 -2.655211E+04  2.059469E+04 -3.526694E-09  3.765723E-09
       163  17 -4.067973E+05 -1.829902E+04 -1.775528E+04  1.126037E+04  9.310873E-10  6.374815E-09
       163  18 -3.697957E+05 -9.167606E+03 -9.185009E+03  2.073692E+04  7.799396E-09 -1.127828E-10
       163  19 -2.203945E+05  2.752980E+04  2.434266E+04  2.103394E+04  2.208624E+03  5.177978E+03
       163  20 -2.574000E+05  1.842405E+04  1.640273E+04  1.155746E+04  1.879859E+03  3.313215E+03
       163  21 -2.945401E+05  9.374289E+03  8.238467E+03  2.089156E+04  1.551332E+03  1.446318E+03
       163  22 -3.321701E+05  7.783543E+01 -1.104299E+03  2.081430E+04  8.229127E+02  5.174804E+03
       163  23 -3.321012E+05  6.271513E+01 -6.760870E+02  1.140891E+04  4.926507E+02  3.309969E+03
       163  24 -3.321686E+05  1.033924E+02 -4.732240E+02  2.081424E+04  1.626076E+02  1.442992E+03
       163  25 -4.439341E+05 -2.737499E+04 -2.655206E+04  2.059469E+04 -5.625513E+02  5.171631E+03
       163  26 -4.067973E+05 -1.829901E+04 -1.775526E+04  1.126037E+04 -8.943917E+02  3.306722E+03
       163  27 -3.697957E+05 -9.167603E+03 -9.185002E+03  2.073692E+04 -1.226033E+03  1.439668E+03
       164   1 -3.291931E+05  8.113880E+02  1.407979E+02  2.082298E+04 -1.472384E+03 -3.592046E+02
       164   2 -3.662185E+05 -8.324508E+03 -8.241792E+03  1.134211E+04 -1.257107E+03  1.508049E+03
       164   3 -4.033632E+05 -1.739004E+04 -1.677198E+04  2.067989E+04 -1.041745E+03  3.373796E+03
       164   4 -3.321648E+05  1.026115E+02 -4.301417E+02  2.081599E+04 -8.354821E+01 -3.558666E+02
       164   5 -3.321047E+05  6.109987E+01 -4.418739E+02  1.140672E+04  1.305665E+02  1.511349E+03
       164   6 -3.321655E+05  9.009991E+01 -6.004803E+02  2.081602E+04  3.447793E+02  3.377062E+03
       164   7 -3.351365E+05 -6.061646E+02 -1.001075E+03  2.080900E+04  1.305281E+03 -3.525287E+02
       164   8 -2.979898E+05  8.446628E+03  7.357975E+03  1.147133E+04  1.518316E+03  1.514649E+03
       164   9 -2.609631E+05  1.756989E+04  1.557070E+04  2.095217E+04  1.731461E+03  3.380329E+03
       164  10 -3.291931E+05  8.113873E+02  1.407936E+02  2.082298E+04 -2.151092E-09 -2.429561E-09
       164  11 -3.662185E+05 -8.324511E+03 -8.241799E+03  1.134211E+04 -1.880539E-09 -4.572113E-09
       164  12 -4.033632E+05 -1.739006E+04 -1.677201E+04  2.067989E+04 -8.717172E-09 -3.396755E-09
       164  13 -3.321648E+05  1.026113E+02 -4.301420E+02  2.081599E+04  1.917035E-09  5.107841E-09
       164  14 -3.321047E+05  6.109741E+01 -4.418782E+02  1.140672E+04 -1.706132E-09 -4.717736E-10
       164  15 -3.321655E+05  9.008763E+01 -6.005019E+02  2.081602E+04 -2.609032E-10 -4.400088E-09
       164  16 -3.351365E+05 -6.061652E+02 -1.001078E+03  2.080900E+04  2.155752E-09  6.669138E-10
       164  17 -2.979898E+05  8.446625E+03  7.357966E+03  1.147132E+04  2.328498E-09 -1.105213E-08
       164  18 -2.609631E+05  1.756988E+04  1.557067E+04  2.095216E+04  9.784308E-09 -9.193758E-09
       164  19 -3.291931E+05  8.113880E+02  1.407979E+02  2.082298E+04  1.472384E+03  3.592046E+02
       164  20 -3.662185E+05 -8.324508E+03 -8.241792E+03  1.134211E+04  1.257107E+03 -1.508049E+03
       164  21 -4.033632E+05 -1.739004E+04 -1.677198E+04  2.067989E+04  1.041745E+03 -3.373796E+03
       164  22 -3.321648E+05  1.026115E+02 -4.301417E+02  2.081599E+04  8.354821E+01  3.558666E+02
       164  23 -3.321047E+05  6.109987E+01 -4.418739E+02  1.140672E+04 -1.305665E+02 -1.511349E+03
       164  24 -3.321655E+05  9.009991E+01 -6.004803E+02  2.081602E+04 -3.447793E+02 -3.377062E+03
       164  25 -3.351365E+05 -6.061646E+02 -1.001075E+03  2.080900E+04 -1.305281E+03  3.525287E+02
       164  26 -2.979898E+05  8.446628E+03  7.357975E+03  1.147133E+04 -1.518316E+03 -1.514649E+03
       164  27 -2.609631E+05  1.756989E+04  1.557070E+04  2.095217E+04 -1.731461E+03 -3.380329E+03
       165   1 -4.380128E+05 -2.592707E+04 -2.504647E+04  2.057912E+04 -9.301012E+02  4.462709E+03
       165   2 -4.749283E+05 -3.504334E+04 -3.387548E+04  1.115615E+04 -3.132297E+02  6.324684E+03
       165   3 -5.120476E+05 -4.427213E+04 -4.315650E+04  2.051614E+04  3.040779E+02  8.161370E+03
       165   4 -3.321848E+05  1.096760E+02 -7.404959E+02  2.080791E+04  4.628087E+02  4.465936E+03
       165   5 -3.320857E+05  7.164155E+01 -1.212193E+03  1.141677E+04  1.060974E+03  6.327727E+03
       165   6 -3.321878E+05 -7.540475E+01 -2.122616E+03  2.080833E+04  1.659612E+03  8.164237E+03
       165   7 -2.263465E+05  2.614564E+04  2.356475E+04  2.103673E+04  1.855954E+03  4.469163E+03
       165   8 -1.892243E+05  3.518520E+04  3.144976E+04  1.167744E+04  2.435492E+03  6.330771E+03
       165   9 -1.522980E+05  4.411908E+04  3.890917E+04  2.110059E+04  3.015536E+03  8.167105E+03
       165  10 -4.380128E+05 -2.592709E+04 -2.504651E+04  2.057913E+04 -6.125846E-10 -3.354670E-09
       165  11 -4.749283E+05 -3.504338E+04 -3.387555E+04  1.115615E+04  3.401418E-09 -5.800691E-09
       165  12 -5.120476E+05 -4.427221E+04 -4.315663E+04  2.051614E+04  4.378350E-09 -1.344720E-09
       165  13 -3.321848E+05  1.096545E+02 -7.405338E+02  2.080791E+04  1.065401E-09 -4.457628E-09
       165  14 -3.320858E+05  7.159826E+01 -1.212271E+03  1.141676E+04  1.010044E-09  4.110748E-09
       165  15 -3.321878E+05 -7.547706E+01 -2.122746E+03  2.080832E+04 -1.912057E-09  2.331218E-09
       165  16 -2.263465E+05  2.614562E+04  2.356470E+04  2.103673E+04 -3.335459E-12  1.526542E-09
       165  17 -1.892243E+05  3.518516E+04  3.144968E+04  1.167743E+04 -1.132195E-09 -2.961415E-09
       165  18 -1.522981E+05  4.411901E+04  3.890902E+04  2.110057E+04 -1.720889E-09  4.707661E-09
       165  19 -4.380128E+05 -2.592707E+04 -2.504647E+04  2.057912E+04  9.301012E+02 -4.462709E+03
       165  20 -4.749283E+05 -3.504334E+04 -3.387548E+04  1.115615E+04  3.132297E+02 -6.324684E+03
       165  21 -5.120476E+05 -4.427213E+04 -4.315650E+04  2.051614E+04 -3.040779E+02 -8.161370E+03
       165  22 -3.321848E+05  1.096760E+02 -7.404959E+02  2.080791E+04 -4.628087E+02 -4.465936E+03
       165  23 -3.320857E+05  7.164155E+01 -1.212193E+03  1.141677E+04 -1.060974E+03 -6.327727E+03
       165  24 -3.321878E+05 -7.540475E+01 -2.122616E+03  2.080833E+04 -1.659612E+03 -8.164237E+03
       165  25 -2.263465E+05  2.614564E+04  2.356475E+04  2.103673E+04 -1.855954E+03 -4.469163E+03
       165  26 -1.892243E+05  3.518520E+04  3.144976E+04  1.167744E+04 -2.435492E+03 -6.330771E+03
       165  27 -1.522980E+05  4.411908E+04  3.890917E+04  2.110059E+04 -3.015536E+03 -8.167105E+03
       166   1 -5.467625E+05 -5.250334E+04 -5.186189E+04  2.002023E+04  5.814567E+02  9.300202E+03
       166   2 -5.831030E+05 -6.155032E+04 -6.217574E+04  1.125415E+04  3.315309E+03  1.108236E+04
       166   3 -6.205133E+05 -7.320157E+04 -7.493650E+04  2.118363E+04  6.050641E+03  1.237451E+04
       166   4 -3.323702E+05  2.239389E+02 -2.740444E+03  2.078711E+04  2.084712E+03  9.303272E+03
       166   5 -3.318694E+05  2.178978E+02 -4.699056E+03  1.144216E+04  4.455111E+03  1.108442E+04
       166   6 -3.323760E+05 -2.328517E+03 -8.851255E+03  2.079233E+04  6.827149E+03  1.237564E+04
       166   7 -1.179354E+05  5.294802E+04  4.637799E+04  2.155424E+04  3.588482E+03  9.306344E+03
       166   8 -8.057728E+04  6.198173E+04  5.277349E+04  1.163021E+04  5.595370E+03  1.108647E+04
       166   9 -4.416171E+04  6.853875E+04  5.722852E+04  2.040081E+04  7.604015E+03  1.237677E+04
       166  10 -5.467625E+05 -5.250343E+04 -5.186205E+04  2.002023E+04  4.636763E-09 -8.661987E-10
       166  11 -5.831030E+05 -6.155046E+04 -6.217599E+04  1.125412E+04  2.484899E-09  4.886618E-09
       166  12 -6.205134E+05 -7.320174E+04 -7.493686E+04  2.118356E+04  1.131645E-10 -2.576506E-09
       166  13 -3.323703E+05  2.238448E+02 -2.740615E+03  2.078710E+04  1.321307E-09 -3.717662E-09
       166  14 -3.318694E+05  2.177605E+02 -4.699324E+03  1.144212E+04  1.632698E-10  8.171674E-09
       166  15 -3.323761E+05 -2.328694E+03 -8.851630E+03  2.079226E+04  7.982136E-10  2.228594E-09
       166  16 -1.179354E+05  5.294792E+04  4.637780E+04  2.155421E+04 -5.643680E-09 -2.567690E-09
       166  17 -8.057735E+04  6.198159E+04  5.277320E+04  1.163016E+04 -1.687630E-09 -8.400993E-09
       166  18 -4.416181E+04  6.853857E+04  5.722813E+04  2.040074E+04 -1.481186E-10  1.762398E-09
       166  19 -5.467625E+05 -5.250334E+04 -5.186189E+04  2.002023E+04 -5.814567E+02 -9.300202E+03
       166  20 -5.831030E+05 -6.155032E+04 -6.217574E+04  1.125415E+04 -3.315309E+03 -1.108236E+04
       166  21 -6.205133E+05 -7.320157E+04 -7.493650E+04  2.118363E+04 -6.050641E+03 -1.237451E+04
       166  22 -3.323702E+05  2.239389E+02 -2.740444E+03  2.078711E+04 -2.084712E+03 -9.303272E+03
       166  23 -3.318694E+05  2.178978E+02 -4.699056E+03  1.144216E+04 -4.455111E+03 -1.108442E+04
       166  24 -3.323760E+05 -2.328517E+03 -8.851255E+03  2.079233E+04 -6.827149E+03 -1.237564E+04
       166  25 -1.179354E+05  5.294802E+04  4.637799E+04  2.155424E+04 -3.588482E+03 -9.306344E+03
       166  26 -8.057728E+04  6.198173E+04  5.277349E+04  1.163021E+04 -5.595370E+03 -1.108647E+04
       166  27 -4.416171E+04  6.853875E+04  5.722852E+04  2.040081E+04 -7.604015E+03 -1.237677E+04
       167   1 -6.570447E+05 -7.743255E+04 -8.464958E+04  1.529385E+04  4.560906E+03  1.459912E+04
       167   2 -6.880947E+05 -8.625762E+04 -1.009041E+05  1.561989E+04  2.184935E+04  1.478718E+04
       167   3 -7.306009E+05 -1.318372E+05 -1.376134E+05  3.419723E+04  3.915269E+04  4.859667E+03
       167   4 -3.344107E+05  1.882799E+03 -1.100710E+04  2.067333E+04  8.439517E+03  1.460605E+04
       167   5 -3.293441E+05  2.034800E+03 -1.831100E+04  1.157747E+04  1.821349E+04  1.478003E+04
       167   6 -3.344234E+05 -3.325118E+04 -4.084175E+04  2.073311E+04  2.800367E+04  4.840530E+03
       167   7 -1.168001E+04  8.119103E+04  6.262866E+04  2.605558E+04  1.232013E+04  1.461303E+04
       167   8  2.952577E+04  9.031829E+04  6.427359E+04  7.532641E+03  1.457554E+04  1.477294E+04
       167   9  6.189792E+04  6.532401E+04  5.591901E+04  7.260312E+03  1.684754E+04  4.821884E+03
       167  10 -6.570448E+05 -7.743278E+04 -8.465002E+04  1.529380E+04  3.244695E-09 -4.476986E-09
       167  11 -6.880953E+05 -8.625798E+04 -1.009054E+05  1.561963E+04  5.557141E-09 -1.926791E-09
       167  12 -7.306025E+05 -1.318376E+05 -1.376163E+05  3.419708E+04 -2.248443E-10  3.841369E-09
       167  13 -3.344109E+05  1.882551E+03 -1.100763E+04  2.067323E+04 -1.423527E-11  3.042744E-09
       167  14 -3.293445E+05  2.034476E+03 -1.831203E+04  1.157726E+04  1.687851E-09  4.871363E-10
       167  15 -3.344243E+05 -3.325142E+04 -4.084327E+04  2.073300E+04 -1.443234E-09  3.268909E-09
       167  16 -1.168023E+04  8.119076E+04  6.262797E+04  2.605544E+04 -2.212513E-09  3.335751E-09
       167  17  2.952549E+04  9.031799E+04  6.427278E+04  7.532468E+03 -3.755614E-09  5.997216E-09
       167  18  6.189761E+04  6.532391E+04  5.591843E+04  7.260246E+03 -1.832571E-09  6.744532E-13
       167  19 -6.570447E+05 -7.743255E+04 -8.464958E+04  1.529385E+04 -4.560906E+03 -1.459912E+04
       167  20 -6.880947E+05 -8.625762E+04 -1.009041E+05  1.561989E+04 -2.184935E+04 -1.478718E+04
       167  21 -7.306009E+05 -1.318372E+05 -1.376134E+05  3.419723E+04 -3.915269E+04 -4.859667E+03
       167  22 -3.344107E+05  1.882799E+03 -1.100710E+04  2.067333E+04 -8.439517E+03 -1.460605E+04
       167  23 -3.293441E+05  2.034800E+03 -1.831100E+04  1.157747E+04 -1.821349E+04 -1.478003E+04
       167  24 -3.344234E+05 -3.325118E+04 -4.084175E+04  2.073311E+04 -2.800367E+04 -4.840530E+03
       167  25 -1.168001E+04  8.119103E+04  6.262866E+04  2.605558E+04 -1.232013E+04 -1.461303E+04
       167  26  2.952577E+04  9.031829E+04  6.427359E+04  7.532641E+03 -1.457554E+04 -1.477294E+04
       167  27  6.189792E+04  6.532401E+04  5.591901E+04  7.260312E+03 -1.684754E+04 -4.821884E+03
       168   1 -2.274842E+05 -8.734052E+05 -2.211072E+05  1.992998E+05 -9.453438E+03 -6.792639E+04
       168   2 -1.582570E+05 -6.828328E+05 -1.391057E+05  1.706748E+05 -2.890987E+04 -2.807791E+04
       168   3 -1.084752E+05 -5.021136E+05 -8.791856E+04  1.835058E+05 -2.774312E+04  1.181202E+04
       168   4 -2.312091E+04 -4.835637E+04 -2.499179E+04  1.847251E+05 -9.501452E+03 -1.875918E+04
       168   5 -5.287805E+03 -4.634160E+04 -1.110574E+04  1.640079E+05 -2.892114E+04 -1.301393E+04
       168   6 -9.621550E+02 -4.827938E+04 -4.323700E+03  1.847469E+05 -2.772631E+04 -7.240482E+03
       168   7  1.811954E+05  7.773236E+05  1.710853E+05  1.701311E+05 -9.551752E+03  3.047314E+04
       168   8  1.476566E+05  5.905368E+05  1.168743E+05  1.573341E+05 -2.893273E+04  2.065212E+03
       168   9  1.065393E+05  4.057556E+05  7.926401E+04  1.859890E+05 -2.770958E+04 -2.630655E+04
       168  10 -2.274855E+05 -8.734102E+05 -2.211161E+05  1.992993E+05  1.022593E-09  3.406252E-09
       168  11 -1.582581E+05 -6.828339E+05 -1.391087E+05  1.706741E+05 -1.470482E-10  7.653538E-10
       168  12 -1.084760E+05 -5.021140E+05 -8.792027E+04  1.835060E+05 -2.793312E-10 -3.131409E-09
       168  13 -2.312110E+04 -4.835677E+04 -2.499262E+04  1.847250E+05 -2.170670E-09 -5.289273E-10
       168  14 -5.288748E+03 -4.634201E+04 -1.110763E+04  1.640076E+05  4.369703E-09 -1.075016E-09
       168  15 -9.629945E+02 -4.827964E+04 -4.325243E+03  1.847467E+05 -2.317718E-09  4.919581E-10
       168  16  1.811951E+05  7.773225E+05  1.710834E+05  1.701313E+05  1.028002E-09 -7.040625E-10
       168  17  1.476557E+05  5.905366E+05  1.168728E+05  1.573341E+05  1.026094E-09 -1.147182E-09
       168  18  1.065383E+05  4.057546E+05  7.926127E+04  1.859884E+05 -1.905860E-10  3.782391E-09
       168  19 -2.274842E+05 -8.734052E+05 -2.211072E+05  1.992998E+05  9.453438E+03  6.792639E+04
       168  20 -1.582570E+05 -6.828328E+05 -1.391057E+05  1.706748E+05  2.890987E+04  2.807791E+04
       168  21 -1.084752E+05 -5.021136E+05 -8.791856E+04  1.835058E+05  2.774312E+04 -1.181202E+04
       168  22 -2.312091E+04 -4.835637E+04 -2.499179E+04  1.847251E+05  9.501452E+03  1.875918E+04
       168  23 -5.287805E+03 -4.634160E+04 -1.110574E+04  1.640079E+05  2.892114E+04  1.301393E+04
       168  24 -9.621550E+02 -4.827938E+04 -4.323700E+03  1.847469E+05  2.772631E+04  7.240482E+03
       168  25  1.811954E+05  7.773236E+05  1.710853E+05  1.701311E+05  9.551752E+03 -3.047314E+04
       168  26  1.476566E+05  5.905368E+05  1.168743E+05  1.573341E+05  2.893273E+04 -2.065212E+03
       168  27  1.065393E+05  4.057556E+05  7.926401E+04  1.859890E+05  2.770958E+04  2.630655E+04
       169   1 -7.982233E+04 -3.786916E+05 -6.251455E+04  1.852552E+05 -2.060804E+04  9.847724E+03
       169   2 -3.438123E+04 -1.932998E+05 -2.232746E+04  1.640875E+05 -1.022035E+04  9.290295E+03
       169   3  1.158446E+04 -7.550534E+03  1.838104E+04  1.856439E+05  7.619707E+02  8.732117E+03
       169   4 -1.388132E+03 -4.727238E+04 -1.848745E+03  1.850245E+05 -2.059463E+04 -6.856248E+03
       169   5 -1.304682E+02 -4.751149E+04  3.113471E+03  1.636640E+05 -1.020710E+04 -8.400105E+03
       169   6  1.825007E+03 -4.725435E+04  9.283197E+03  1.850269E+05  7.748979E+02 -9.944560E+03
       169   7  7.704000E+04  2.842542E+05  5.881364E+04  1.847936E+05 -2.058120E+04 -2.356890E+04
       169   8  3.411930E+04  9.829836E+04  2.855483E+04  1.632403E+05 -1.019384E+04 -2.609454E+04
       169   9 -7.934367E+03 -8.695596E+04  1.865606E+02  1.844099E+05  7.878626E+02 -2.862005E+04
       169  10 -7.982282E+04 -3.786918E+05 -6.251553E+04  1.852553E+05  1.161617E-09  3.327039E-09
       169  11 -3.438136E+04 -1.933000E+05 -2.232782E+04  1.640876E+05  1.815565E-09 -1.077674E-10
       169  12  1.158444E+04 -7.550616E+03  1.838090E+04  1.856439E+05 -1.657888E-09 -3.103483E-09
       169  13 -1.388600E+03 -4.727254E+04 -1.849631E+03  1.850243E+05 -1.954206E-09 -7.444358E-12
       169  14 -1.305990E+02 -4.751159E+04  3.113143E+03  1.636639E+05  4.936191E-09  5.535814E-10
       169  15  1.824980E+03 -4.725446E+04  9.283010E+03  1.850269E+05 -1.723587E-09  1.837719E-09
       169  16  7.703939E+04  2.842535E+05  5.881181E+04  1.847932E+05 -8.704356E-10 -1.097361E-09
       169  17  3.411901E+04  9.829760E+04  2.855335E+04  1.632401E+05  3.159420E-09 -4.273684E-10
       169  18 -7.934587E+03 -8.695684E+04  1.850199E+02  1.844099E+05  3.370148E-10  4.220855E-09
       169  19 -7.982233E+04 -3.786916E+05 -6.251455E+04  1.852552E+05  2.060804E+04 -9.847724E+03
       169  20 -3.438123E+04 -1.932998E+05 -2.232746E+04  1.640875E+05  1.022035E+04 -9.290295E+03
       169  21  1.158446E+04 -7.550534E+03  1.838104E+04  1.856439E+05 -7.619707E+02 -8.732117E+03
       169  22 -1.388132E+03 -4.727238E+04 -1.848745E+03  1.850245E+05  2.059463E+04  6.856248E+03
       169  23 -1.304682E+02 -4.751149E+04  3.113471E+03  1.636640E+05  1.020710E+04  8.400105E+03
       169  24  1.825007E+03 -4.725435E+04  9.283197E+03  1.850269E+05 -7.748979E+02  9.944560E+03
       169  25  7.704000E+04  2.842542E+05  5.881364E+04  1.847936E+05  2.058120E+04  2.356890E+04
       169  26  3.411930E+04  9.829836E+04  2.855483E+04  1.632403E+05  1.019384E+04  2.609454E+04
       169  27 -7.934367E+03 -8.695596E+04  1.865606E+02  1.844099E+05 -7.878626E+02  2.862005E+04
       170   1  3.966082E+04  1.164896E+05  4.472465E+04  1.817071E+05  8.188237E+03  8.572373E+03
       170   2  9.344161E+04  2.957548E+05  9.717459E+04  1.770036E+05  1.350435E+04 -2.726681E+04
       170   3  1.797582E+05  4.879766E+05  1.811104E+05  2.142738E+05  5.087251E+03 -6.313254E+04
       170   4  9.582459E+02 -4.537216E+04  1.309442E+04  1.848526E+05  8.202618E+03 -1.156013E+04
       170   5  9.979640E+03 -4.988607E+04  2.532220E+04  1.638879E+05  1.350346E+04 -2.464591E+04
       170   6  4.760017E+04 -4.541258E+04  5.324599E+04  1.848938E+05  5.069456E+03 -3.774748E+04
       170   7 -3.774565E+04 -2.072079E+05 -1.853554E+04  1.879972E+05  8.216798E+03 -3.168749E+04
       170   8 -7.348928E+04 -3.954135E+05 -4.653663E+04  1.507796E+05  1.350245E+04 -2.202645E+04
       170   9 -8.457488E+04 -5.785381E+05 -7.463570E+04  1.555391E+05  5.049256E+03 -1.238413E+04
       170  10  3.966073E+04  1.164895E+05  4.472439E+04  1.817071E+05 -2.537654E-09  3.607479E-09
       170  11  9.344122E+04  2.957540E+05  9.717285E+04  1.770039E+05  1.634744E-09  1.446575E-09
       170  12  1.797571E+05  4.879724E+05  1.811029E+05  2.142741E+05  8.161283E-10 -7.135739E-10
       170  13  9.581378E+02 -4.537232E+04  1.309404E+04  1.848527E+05 -4.255832E-11  5.188461E-10
       170  14  9.979281E+03 -4.988677E+04  2.532071E+04  1.638881E+05 -2.566621E-09 -1.066540E-09
       170  15  4.759976E+04 -4.541412E+04  5.324326E+04  1.848939E+05 -6.710695E-10  1.769426E-09
       170  16 -3.774599E+04 -2.072090E+05 -1.853755E+04  1.879974E+05  7.063828E-10 -1.401532E-09
       170  17 -7.348960E+04 -3.954140E+05 -4.653788E+04  1.507798E+05 -2.683104E-09 -1.271569E-09
       170  18 -8.457494E+04 -5.785382E+05 -7.463603E+04  1.555391E+05 -2.934198E-10  1.927702E-09
       170  19  3.966082E+04  1.164896E+05  4.472465E+04  1.817071E+05 -8.188237E+03 -8.572373E+03
       170  20  9.344161E+04  2.957548E+05  9.717459E+04  1.770036E+05 -1.350435E+04  2.726681E+04
       170  21  1.797582E+05  4.879766E+05  1.811104E+05  2.142738E+05 -5.087251E+03  6.313254E+04
       170  22  9.582459E+02 -4.537216E+04  1.309442E+04  1.848526E+05 -8.202618E+03  1.156013E+04
       170  23  9.979640E+03 -4.988607E+04  2.532220E+04  1.638879E+05 -1.350346E+04  2.464591E+04
       170  24  4.760017E+04 -4.541258E+04  5.324599E+04  1.848938E+05 -5.069456E+03  3.774748E+04
       170  25 -3.774565E+04 -2.072079E+05 -1.853554E+04  1.879972E+05 -8.216798E+03  3.168749E+04
       170  26 -7.348928E+04 -3.954135E+05 -4.653663E+04  1.507796E+05 -1.350245E+04  2.202645E+04
       170  27 -8.457488E+04 -5.785381E+05 -7.463570E+04  1.555391E+05 -5.049256E+03  1.238413E+04
       171   1  7.786559E+05  2.895463E+05  1.831511E+05  2.794201E+05  7.508826E+04  2.384697E+04
       171   2  7.504558E+05  1.791538E+05  1.134104E+05  2.756916E+05  4.880510E+04  4.746358E+03
       171   3  7.486046E+05  1.630776E+05  8.869649E+04  2.611250E+05  1.943438E+04 -6.151711E+03
       171   4  4.997810E+05  1.540564E+05  1.022664E+05  1.720854E+05  6.659000E+04  2.064150E+04
       171   5  4.817064E+05  6.889156E+04  4.359508E+04  1.920396E+05  4.603627E+04  3.701789E+03
       171   6  4.888605E+05  7.692973E+04  2.542776E+04  2.011520E+05  2.239327E+04 -5.036471E+03
       171   7  2.209873E+05  1.858933E+04  2.137562E+04  6.480062E+04  5.809602E+04  1.743868E+04
       171   8  2.130288E+05 -4.136145E+04 -2.622603E+04  1.084221E+05  4.326874E+04  2.657821E+03
       171   9  2.291807E+05 -9.217511E+03 -3.784629E+04  1.411998E+05  2.535083E+04 -3.921604E+03
       171  10  7.786497E+05  2.895442E+05  1.831394E+05  2.794187E+05 -4.340739E-09 -1.812163E-09
       171  11  7.504532E+05  1.791531E+05  1.134059E+05  2.756914E+05 -1.541704E-09 -2.543280E-09
       171  12  7.486042E+05  1.630774E+05  8.869571E+04  2.611251E+05  3.075622E-09 -2.606131E-10
       171  13  4.997761E+05  1.540548E+05  1.022573E+05  1.720843E+05  1.055882E-09  1.376585E-09
       171  14  4.817041E+05  6.889098E+04  4.359107E+04  1.920395E+05 -5.367347E-09 -2.011701E-09
       171  15  4.888599E+05  7.692956E+04  2.542677E+04  2.011521E+05 -2.007593E-09  3.024088E-09
       171  16  2.209836E+05  1.858810E+04  2.136871E+04  6.479981E+04  3.282563E-09  4.537102E-09
       171  17  2.130268E+05 -4.136196E+04 -2.622956E+04  1.084220E+05 -4.773032E-09  3.621690E-09
       171  18  2.291800E+05 -9.217700E+03 -3.784752E+04  1.411999E+05 -3.229931E-09 -8.638717E-10
       171  19  7.786559E+05  2.895463E+05  1.831511E+05  2.794201E+05 -7.508826E+04 -2.384697E+04
       171  20  7.504558E+05  1.791538E+05  1.134104E+05  2.756916E+05 -4.880510E+04 -4.746358E+03
       171  21  7.486046E+05  1.630776E+05  8.869649E+04  2.611250E+05 -1.943438E+04  6.151711E+03
       171  22  4.997810E+05  1.540564E+05  1.022664E+05  1.720854E+05 -6.659000E+04 -2.064150E+04
       171  23  4.817064E+05  6.889156E+04  4.359508E+04  1.920396E+05 -4.603627E+04 -3.701789E+03
       171  24  4.888605E+05  7.692973E+04  2.542776E+04  2.011520E+05 -2.239327E+04  5.036471E+03
       171  25  2.209873E+05  1.858933E+04  2.137562E+04  6.480062E+04 -5.809602E+04 -1.743868E+04
       171  26  2.130288E+05 -4.136145E+04 -2.622603E+04  1.084221E+05 -4.326874E+04 -2.657821E+03
       171  27  2.291807E+05 -9.217511E+03 -3.784629E+04  1.411998E+05 -2.535083E+04  3.921604E+03
       172   1  7.118140E+05  1.727568E+05  7.795775E+04  2.599860E+05  1.793294E+04 -4.732578E+03
       172   2  6.914748E+05  1.515305E+05  6.154036E+04  2.486475E+05  1.210935E+04 -6.019624E+03
       172   3  6.648976E+05  1.465625E+05  5.106417E+04  2.465726E+05  6.128982E+03 -6.891209E+03
       172   4  4.855680E+05  8.598177E+04  2.039434E+04  1.957606E+05  1.833905E+04 -4.579848E+03
       172   5  4.882927E+05  7.488806E+04  1.021609E+04  1.922587E+05  1.280704E+04 -5.756788E+03
       172   6  4.847222E+05  7.999637E+04  5.749788E+03  1.980199E+05  7.118007E+03 -6.518310E+03
       172   7  2.593721E+05 -7.892139E+02 -3.717321E+04  1.315566E+05  1.874500E+04 -4.427183E+03
       172   8  2.851514E+05 -1.751340E+03 -4.111137E+04  1.358867E+05  1.350447E+04 -5.494047E+03
       172   9  3.045791E+05  1.343245E+04 -3.956696E+04  1.494800E+05  8.106715E+03 -6.145527E+03
       172  10  7.118137E+05  1.727567E+05  7.795711E+04  2.599861E+05  1.226224E-09 -4.477940E-09
       172  11  6.914746E+05  1.515304E+05  6.154002E+04  2.486476E+05  5.501553E-09  6.727592E-09
       172  12  6.648976E+05  1.465624E+05  5.106401E+04  2.465726E+05  1.553436E-09  4.637298E-09
       172  13  4.855676E+05  8.598166E+04  2.039367E+04  1.957607E+05  7.537720E-10  5.675463E-10
       172  14  4.882925E+05  7.488798E+04  1.021572E+04  1.922587E+05  4.174680E-09 -3.341391E-10
       172  15  4.847221E+05  7.999631E+04  5.749613E+03  1.980199E+05  1.126743E-09  1.076520E-08
       172  16  2.593717E+05 -7.893293E+02 -3.717391E+04  1.315567E+05 -2.108105E-09 -6.505736E-09
       172  17  2.851512E+05 -1.751422E+03 -4.111177E+04  1.358867E+05 -3.344500E-10 -5.848543E-09
       172  18  3.045790E+05  1.343239E+04 -3.956716E+04  1.494801E+05  2.222301E-09  3.593299E-10
       172  19  7.118140E+05  1.727568E+05  7.795775E+04  2.599860E+05 -1.793294E+04  4.732578E+03
       172  20  6.914748E+05  1.515305E+05  6.154036E+04  2.486475E+05 -1.210935E+04  6.019624E+03
       172  21  6.648976E+05  1.465625E+05  5.106417E+04  2.465726E+05 -6.128982E+03  6.891209E+03
       172  22  4.855680E+05  8.598177E+04  2.039434E+04  1.957606E+05 -1.833905E+04  4.579848E+03
       172  23  4.882927E+05  7.488806E+04  1.021609E+04  1.922587E+05 -1.280704E+04  5.756788E+03
       172  24  4.847222E+05  7.999637E+04  5.749788E+03  1.980199E+05 -7.118007E+03  6.518310E+03
       172  25  2.593721E+05 -7.892139E+02 -3.717321E+04  1.315566E+05 -1.874500E+04  4.427183E+03
       172  26  2.851514E+05 -1.751340E+03 -4.111137E+04  1.358867E+05 -1.350447E+04  5.494047E+03
       172  27  3.045791E+05  1.343245E+04 -3.956696E+04  1.494800E+05 -8.106715E+03  6.145527E+03
       173   1  6.402514E+05  1.391201E+05  4.364068E+04  2.404902E+05  5.151108E+03 -6.360808E+03
       173   2  6.209508E+05  1.249365E+05  3.566084E+04  2.286329E+05  3.479335E+03 -5.578579E+03
       173   3  5.925943E+05  1.207212E+05  2.872260E+04  2.274010E+05  1.800497E+03 -4.778409E+03
       173   4  4.844013E+05  8.065719E+04  4.416322E+03  1.975517E+05  6.006716E+03 -6.038156E+03
       173   5  4.889003E+05  7.545438E+04  2.373469E+03  1.923224E+05  4.347776E+03 -5.250977E+03
       173   6  4.843407E+05  8.021777E+04  1.362420E+03  1.977184E+05  2.681722E+03 -4.445873E+03
       173   7  3.285744E+05  2.219569E+04 -3.481013E+04  1.546228E+05  6.862093E+03 -5.715591E+03
       173   8  3.568665E+05  2.597336E+04 -3.091536E+04  1.560187E+05  5.216017E+03 -4.923451E+03
       173   9  3.760985E+05  3.971508E+04 -2.599870E+04  1.680405E+05  3.562780E+03 -4.113399E+03
       173  10  6.402513E+05  1.391200E+05  4.364055E+04  2.404903E+05 -1.289448E-09 -6.140449E-09
       173  11  6.209508E+05  1.249364E+05  3.566076E+04  2.286329E+05 -8.965692E-09 -9.362187E-09
       173  12  5.925943E+05  1.207212E+05  2.872255E+04  2.274010E+05 -1.052201E-08 -1.345822E-09
       173  13  4.844013E+05  8.065714E+04  4.416186E+03  1.975518E+05 -3.411798E-09  4.636313E-09
       173  14  4.889002E+05  7.545435E+04  2.373382E+03  1.923224E+05 -5.456338E-09  4.279941E-10
       173  15  4.843407E+05  8.021774E+04  1.362369E+03  1.977184E+05 -1.871192E-09  5.336972E-09
       173  16  3.285743E+05  2.219564E+04 -3.481028E+04  1.546229E+05  1.003977E-09 -1.745220E-09
       173  17  3.568665E+05  2.597333E+04 -3.091546E+04  1.560187E+05  2.608706E-09  3.584847E-09
       173  18  3.760985E+05  3.971506E+04 -2.599875E+04  1.680405E+05  8.152872E-09 -4.230465E-11
       173  19  6.402514E+05  1.391201E+05  4.364068E+04  2.404902E+05 -5.151108E+03  6.360808E+03
       173  20  6.209508E+05  1.249365E+05  3.566084E+04  2.286329E+05 -3.479335E+03  5.578579E+03
       173  21  5.925943E+05  1.207212E+05  2.872260E+04  2.274010E+05 -1.800497E+03  4.778409E+03
       173  22  4.844013E+05  8.065719E+04  4.416322E+03  1.975517E+05 -6.006716E+03  6.038156E+03
       173  23  4.889003E+05  7.545438E+04  2.373469E+03  1.923224E+05 -4.347776E+03  5.250977E+03
       173  24  4.843407E+05  8.021777E+04  1.362420E+03  1.977184E+05 -2.681722E+03  4.445873E+03
       173  25  3.285744E+05  2.219569E+04 -3.481013E+04  1.546228E+05 -6.862093E+03  5.715591E+03
       173  26  3.568665E+05  2.597336E+04 -3.091536E+04  1.560187E+05 -5.216017E+03  4.923451E+03
       173  27  3.760985E+05  3.971508E+04 -2.599870E+04  1.680405E+05 -3.562780E+03  4.113399E+03
       174   1  5.691308E+05  1.120233E+05  2.236102E+04  2.209972E+05  1.332206E+03 -4.117700E+03
       174   2  5.500646E+05  9.842942E+04  1.609392E+04  2.091513E+05  5.159027E+02 -2.995396E+03
       174   3  5.216923E+05  9.425557E+04  1.009447E+04  2.079534E+05 -3.003001E+02 -1.873682E+03
       174   4  4.843087E+05  8.025104E+04  1.065139E+03  1.976655E+05  2.205242E+03 -3.788205E+03
       174   5  4.889608E+05  7.552888E+04  6.899187E+02  1.923464E+05  1.388570E+03 -2.665993E+03
       174   6  4.843062E+05  8.022686E+04  5.826897E+02  1.976751E+05  5.719814E+02 -1.544372E+03
       174   7  3.994939E+05  4.847944E+04 -2.023122E+04  1.743369E+05  3.078144E+03 -3.458760E+03
       174   8  4.278606E+05  5.262859E+04 -1.471438E+04  1.755430E+05  2.261143E+03 -2.336625E+03
       174   9  4.469213E+05  6.619818E+04 -8.929239E+03  1.873973E+05  1.444209E+03 -1.215082E+03
       174  10  5.691308E+05  1.120232E+05  2.236099E+04  2.209972E+05  1.273113E-09  8.122368E-09
       174  11  5.500646E+05  9.842941E+04  1.609391E+04  2.091513E+05 -3.612441E-11  6.955412E-09
       174  12  5.216923E+05  9.425556E+04  1.009446E+04  2.079534E+05 -2.668615E-10  5.056179E-10
       174  13  4.843087E+05  8.025103E+04  1.065103E+03  1.976655E+05 -1.925376E-09  3.326508E-09
       174  14  4.889608E+05  7.552887E+04  6.899018E+02  1.923464E+05 -2.879834E-09 -6.217617E-09
       174  15  4.843062E+05  8.022685E+04  5.826846E+02  1.976751E+05 -2.313010E-09 -6.034390E-10
       174  16  3.994939E+05  4.847942E+04 -2.023126E+04  1.743369E+05 -1.366888E-09 -2.767092E-09
       174  17  4.278606E+05  5.262858E+04 -1.471440E+04  1.755430E+05 -4.281851E-09 -3.989396E-09
       174  18  4.469213E+05  6.619818E+04 -8.929245E+03  1.873973E+05  2.000542E-09 -1.738600E-09
       174  19  5.691308E+05  1.120233E+05  2.236102E+04  2.209972E+05 -1.332206E+03  4.117700E+03
       174  20  5.500646E+05  9.842942E+04  1.609392E+04  2.091513E+05 -5.159027E+02  2.995396E+03
       174  21  5.216923E+05  9.425557E+04  1.009447E+04  2.079534E+05  3.003001E+02  1.873682E+03
       174  22  4.843087E+05  8.025104E+04  1.065139E+03  1.976655E+05 -2.205242E+03  3.788205E+03
       174  23  4.889608E+05  7.552888E+04  6.899187E+02  1.923464E+05 -1.388570E+03  2.665993E+03
       174  24  4.843062E+05  8.022686E+04  5.826897E+02  1.976751E+05 -5.719814E+02  1.544372E+03
       174  25  3.994939E+05  4.847944E+04 -2.023122E+04  1.743369E+05 -3.078144E+03  3.458760E+03
       174  26  4.278606E+05  5.262859E+04 -1.471438E+04  1.755430E+05 -2.261143E+03  2.336625E+03
       174  27  4.469213E+05  6.619818E+04 -8.929239E+03  1.873973E+05 -1.444209E+03  1.215082E+03
       175   1  4.984045E+05  8.550214E+04  4.073990E+03  2.015666E+05 -6.732408E+02 -1.182734E+03
       175   2  4.793705E+05  7.195268E+04 -1.595063E+03  1.897278E+05 -1.553332E+03 -8.657181E+01
       175   3  4.510567E+05  6.782140E+04 -6.945687E+03  1.885187E+05 -2.433144E+03  1.009044E+03
       175   4  4.843118E+05  8.022299E+04  6.055595E+02  1.976724E+05  1.985042E+02 -8.536120E+02
       175   5  4.889545E+05  7.553221E+04  8.188770E+02  1.923508E+05 -6.820062E+02  2.423820E+02
       175   6  4.843169E+05  8.025955E+04  1.350936E+03  1.976585E+05 -1.562255E+03  1.337825E+03
       175   7  4.702193E+05  7.494385E+04 -2.862882E+03  1.937782E+05  1.070228E+03 -5.244980E+02
       175   8  4.985387E+05  7.911173E+04  3.232808E+03  1.949738E+05  1.893321E+02  5.713406E+02
       175   9  5.175780E+05  9.269772E+04  9.647438E+03  2.067988E+05 -6.913181E+02  1.666623E+03
       175  10  4.984045E+05  8.550214E+04  4.073986E+03  2.015666E+05 -5.507636E-09  3.986667E-09
       175  11  4.793705E+05  7.195268E+04 -1.595068E+03  1.897278E+05 -7.720913E-09 -1.469060E-09
       175  12  4.510567E+05  6.782139E+04 -6.945700E+03  1.885187E+05 -1.512531E-09 -6.521251E-11
       175  13  4.843118E+05  8.022299E+04  6.055581E+02  1.976724E+05 -3.673281E-09  3.358567E-09
       175  14  4.889545E+05  7.553221E+04  8.188760E+02  1.923508E+05 -4.161588E-09  1.842173E-09
       175  15  4.843169E+05  8.025955E+04  1.350929E+03  1.976585E+05 -5.942664E-09 -5.223095E-09
       175  16  4.702193E+05  7.494385E+04 -2.862885E+03  1.937782E+05  3.044251E-09 -3.487796E-09
       175  17  4.985387E+05  7.911173E+04  3.232807E+03  1.949738E+05 -2.396115E-09 -1.628242E-09
       175  18  5.175780E+05  9.269772E+04  9.647432E+03  2.067988E+05 -1.518843E-09 -4.126274E-09
       175  19  4.984045E+05  8.550214E+04  4.073990E+03  2.015666E+05  6.732408E+02  1.182734E+03
       175  20  4.793705E+05  7.195268E+04 -1.595063E+03  1.897278E+05  1.553332E+03  8.657181E+01
       175  21  4.510567E+05  6.782140E+04 -6.945687E+03  1.885187E+05  2.433144E+03 -1.009044E+03
       175  22  4.843118E+05  8.022299E+04  6.055595E+02  1.976724E+05 -1.985042E+02  8.536120E+02
       175  23  4.889545E+05  7.553221E+04  8.188770E+02  1.923508E+05  6.820062E+02 -2.423820E+02
       175  24  4.843169E+05  8.025955E+04  1.350936E+03  1.976585E+05  1.562255E+03 -1.337825E+03
       175  25  4.702193E+05  7.494385E+04 -2.862882E+03  1.937782E+05 -1.070228E+03  5.244980E+02
       175  26  4.985387E+05  7.911173E+04  3.232808E+03  1.949738E+05 -1.893321E+02 -5.713406E+02
       175  27  5.175780E+05  9.269772E+04  9.647438E+03  2.067988E+05  6.913181E+02 -1.666623E+03
       176   1  4.277321E+05  5.907817E+04 -1.259094E+04  1.822640E+05 -2.970503E+03  1.640715E+03
       176   2  4.085682E+05  4.536359E+04 -1.714531E+04  1.702594E+05 -4.987807E+03  2.307970E+03
       176   3  3.804910E+05  4.173805E+04 -2.036280E+04  1.687989E+05 -6.998897E+03  2.959424E+03
       176   4  4.843693E+05  8.020541E+04  1.752919E+03  1.977162E+05 -2.093373E+03  1.971829E+03
       176   5  4.888656E+05  7.545118E+04  3.098307E+03  1.923338E+05 -4.121936E+03  2.634769E+03
       176   6  4.844507E+05  8.078823E+04  5.789513E+03  1.974954E+05 -6.144346E+03  3.281886E+03
       176   7  5.410098E+05  1.013330E+05  1.609659E+04  2.131696E+05 -1.216151E+03  2.302977E+03
       176   8  5.691694E+05  1.055393E+05  2.334146E+04  2.144109E+05 -3.255940E+03  2.961614E+03
       176   9  5.884210E+05  1.198392E+05  3.194098E+04  2.261963E+05 -5.289638E+03  3.604408E+03
       176  10  4.277321E+05  5.907816E+04 -1.259096E+04  1.822640E+05 -2.614842E-09 -5.562932E-09
       176  11  4.085681E+05  4.536357E+04 -1.714537E+04  1.702594E+05 -2.198979E-09 -2.780313E-09
       176  12  3.804909E+05  4.173803E+04 -2.036291E+04  1.687989E+05  2.037227E-09  3.034681E-09
       176  13  4.843693E+05  8.020541E+04  1.752904E+03  1.977162E+05 -2.925529E-09 -4.057354E-09
       176  14  4.888655E+05  7.545116E+04  3.098262E+03  1.923339E+05 -3.030657E-11 -2.059538E-09
       176  15  4.844506E+05  8.078821E+04  5.789422E+03  1.974955E+05  9.070827E-10 -1.848648E-09
       176  16  5.410098E+05  1.013329E+05  1.609658E+04  2.131697E+05  2.372311E-09  3.139296E-09
       176  17  5.691694E+05  1.055392E+05  2.334143E+04  2.144109E+05  2.061476E-09  4.040868E-09
       176  18  5.884209E+05  1.198391E+05  3.194090E+04  2.261963E+05  2.540741E-09 -6.767899E-09
       176  19  4.277321E+05  5.907817E+04 -1.259094E+04  1.822640E+05  2.970503E+03 -1.640715E+03
       176  20  4.085682E+05  4.536359E+04 -1.714531E+04  1.702594E+05  4.987807E+03 -2.307970E+03
       176  21  3.804910E+05  4.173805E+04 -2.036280E+04  1.687989E+05  6.998897E+03 -2.959424E+03
       176  22  4.843693E+05  8.020541E+04  1.752919E+03  1.977162E+05  2.093373E+03 -1.971829E+03
       176  23  4.888656E+05  7.545118E+04  3.098307E+03  1.923338E+05  4.121936E+03 -2.634769E+03
       176  24  4.844507E+05  8.078823E+04  5.789513E+03  1.974954E+05  6.144346E+03 -3.281886E+03
       176  25  5.410098E+05  1.013330E+05  1.609659E+04  2.131696E+05  1.216151E+03 -2.302977E+03
       176  26  5.691694E+05  1.055393E+05  2.334146E+04  2.144109E+05  3.255940E+03 -2.961614E+03
       176  27  5.884210E+05  1.198392E+05  3.194098E+04  2.261963E+05  5.289638E+03 -3.604408E+03
       177   1  3.565244E+05  3.304457E+04 -2.466468E+04  1.640950E+05 -8.469075E+03  3.288931E+03
       177   2  3.372244E+05  1.750814E+04 -2.475414E+04  1.500870E+05 -1.555427E+04  2.000940E+03
       177   3  3.126410E+05  2.015867E+04 -1.753627E+04  1.447739E+05 -2.250872E+04  3.680287E+02
       177   4  4.848836E+05  7.990951E+04  7.543329E+03  1.980983E+05 -7.504250E+03  3.652965E+03
       177   5  4.880590E+05  7.472626E+04  1.341470E+04  1.922658E+05 -1.483162E+04  2.273434E+03
       177   6  4.859975E+05  8.777605E+04  2.678379E+04  1.951279E+05 -2.202854E+04  5.488687E+02
       177   7  6.132584E+05  1.267751E+05  3.974990E+04  2.321076E+05 -6.539210E+03  4.017075E+03
       177   8  6.389159E+05  1.319460E+05  5.158172E+04  2.344540E+05 -1.410877E+04  2.546002E+03
       177   9  6.593841E+05  1.553964E+05  7.110159E+04  2.454951E+05 -2.154821E+04  7.297701E+02
       177  10  3.565243E+05  3.304454E+04 -2.466483E+04  1.640951E+05  4.045158E-09  8.289441E-09
       177  11  3.372242E+05  1.750807E+04 -2.475461E+04  1.500870E+05  5.372970E-09  3.091395E-09
       177  12  3.126405E+05  2.015853E+04 -1.753723E+04  1.447739E+05  2.506066E-09  4.186429E-09
       177  13  4.848836E+05  7.990948E+04  7.543198E+03  1.980983E+05  4.489405E-09 -3.121897E-09
       177  14  4.880588E+05  7.472620E+04  1.341428E+04  1.922659E+05  5.315060E-09 -8.986812E-09
       177  15  4.859970E+05  8.777591E+04  2.678288E+04  1.951279E+05 -5.592241E-11  1.842343E-09
       177  16  6.132584E+05  1.267751E+05  3.974979E+04  2.321077E+05  2.446147E-09 -8.956690E-09
       177  17  6.389157E+05  1.319460E+05  5.158133E+04  2.344541E+05  4.309379E-09  3.660517E-09
       177  18  6.593836E+05  1.553962E+05  7.110072E+04  2.454951E+05 -8.109129E-11 -3.200996E-09
       177  19  3.565244E+05  3.304457E+04 -2.466468E+04  1.640950E+05  8.469075E+03 -3.288931E+03
       177  20  3.372244E+05  1.750814E+04 -2.475414E+04  1.500870E+05  1.555427E+04 -2.000940E+03
       177  21  3.126410E+05  2.015867E+04 -1.753627E+04  1.447739E+05  2.250872E+04 -3.680287E+02
       177  22  4.848836E+05  7.990951E+04  7.543329E+03  1.980983E+05  7.504250E+03 -3.652965E+03
       177  23  4.880590E+05  7.472626E+04  1.341470E+04  1.922658E+05  1.483162E+04 -2.273434E+03
       177  24  4.859975E+05  8.777605E+04  2.678379E+04  1.951279E+05  2.202854E+04 -5.488687E+02
       177  25  6.132584E+05  1.267751E+05  3.974990E+04  2.321076E+05  6.539210E+03 -4.017075E+03
       177  26  6.389159E+05  1.319460E+05  5.158172E+04  2.344540E+05  1.410877E+04 -2.546002E+03
       177  27  6.593841E+05  1.553964E+05  7.110159E+04  2.454951E+05  2.154821E+04 -7.297701E+02
       178   1  2.807214E+05  1.196471E+04 -1.665649E+04  1.595719E+05 -2.967766E+04 -5.526172E+02
       178   2  2.657561E+05 -2.583496E+04  8.075496E+02  1.203355E+05 -5.602933E+04 -1.010835E+04
       178   3  2.860030E+05  5.482446E+04  6.771288E+04  6.339811E+04 -7.981648E+04 -2.646316E+04
       178   4  4.903108E+05  7.589795E+04  3.339489E+04  2.022173E+05 -2.708148E+04  4.270952E+02
       178   5  4.794259E+05  6.685049E+04  5.726124E+04  1.919701E+05 -5.818320E+04 -1.092209E+04
       178   6  5.046755E+05  1.771746E+05  1.343182E+05  1.640261E+05 -8.672110E+04 -2.907206E+04
       178   7  6.999438E+05  1.398311E+05  8.344342E+04  2.448742E+05 -2.448434E+04  1.407019E+03
       178   8  6.931395E+05  1.595429E+05  1.137107E+05  2.636282E+05 -6.033787E+04 -1.173623E+04
       178   9  7.233952E+05  2.995460E+05  2.009182E+05  2.646904E+05 -9.362828E+04 -3.168303E+04
       178  10  2.807204E+05  1.196448E+04 -1.665814E+04  1.595719E+05  1.638834E-09  6.967747E-09
       178  11  2.657527E+05 -2.583591E+04  8.014613E+02  1.203351E+05  1.460153E-09 -3.404704E-10
       178  12  2.859960E+05  5.482200E+04  6.769959E+04  6.339641E+04 -1.974421E-10 -3.172749E-12
       178  13  4.903100E+05  7.589775E+04  3.339351E+04  2.022173E+05  1.075583E-10 -5.617627E-09
       178  14  4.794223E+05  6.684946E+04  5.725466E+04  1.919696E+05 -1.381466E-09 -5.600639E-10
       178  15  5.046672E+05  1.771716E+05  1.343025E+05  1.640241E+05 -6.947616E-10  1.273685E-10
       178  16  6.999432E+05  1.398310E+05  8.344229E+04  2.448742E+05 -2.083089E-09 -8.665119E-09
       178  17  6.931356E+05  1.595418E+05  1.137036E+05  2.636276E+05 -5.991383E-10 -3.960142E-09
       178  18  7.233855E+05  2.995425E+05  2.008999E+05  2.646880E+05  6.010950E-10  1.942174E-09
       178  19  2.807214E+05  1.196471E+04 -1.665649E+04  1.595719E+05  2.967766E+04  5.526172E+02
       178  20  2.657561E+05 -2.583496E+04  8.075496E+02  1.203355E+05  5.602933E+04  1.010835E+04
       178  21  2.860030E+05  5.482446E+04  6.771288E+04  6.339811E+04  7.981648E+04  2.646316E+04
       178  22  4.903108E+05  7.589795E+04  3.339489E+04  2.022173E+05  2.708148E+04 -4.270952E+02
       178  23  4.794259E+05  6.685049E+04  5.726124E+04  1.919701E+05  5.818320E+04  1.092209E+04
       178  24  5.046755E+05  1.771746E+05  1.343182E+05  1.640261E+05  8.672110E+04  2.907206E+04
       178  25  6.999438E+05  1.398311E+05  8.344342E+04  2.448742E+05  2.448434E+04 -1.407019E+03
       178  26  6.931395E+05  1.595429E+05  1.137107E+05  2.636282E+05  6.033787E+04  1.173623E+04
       178  27  7.233952E+05  2.995460E+05  2.009182E+05  2.646904E+05  9.362828E+04  3.168303E+04
       179   1 -1.564544E+05 -7.931340E+05 -1.574886E+05  9.488646E+04 -5.950175E+03 -2.594723E+04
       179   2 -1.009494E+05 -6.392886E+05 -1.044923E+05  5.243080E+04 -1.653502E+04 -9.574446E+03
       179   3 -6.425193E+04 -4.919231E+05 -6.681242E+04  8.572737E+04 -1.161805E+04  6.822808E+03
       179   4 -1.574431E+04 -2.284064E+05 -1.911605E+04  8.779278E+04 -5.967615E+03 -1.234044E+04
       179   5  7.935010E+02 -2.261407E+05 -9.166232E+03  4.992810E+04 -1.653671E+04 -7.484974E+03
       179   6  5.329003E+02 -2.283712E+05 -6.522460E+03  8.781375E+04 -1.160834E+04 -2.609270E+03
       179   7  1.249424E+05  3.366126E+05  1.192338E+05  8.069270E+04 -5.985359E+03  1.278709E+03
       179   8  1.025244E+05  1.871652E+05  8.614849E+04  4.742376E+04 -1.653842E+04 -5.394119E+03
       179   9  6.531296E+04  3.524519E+04  5.376328E+04  8.990104E+04 -1.159870E+04 -1.204532E+04
       179  10 -1.564546E+05 -7.931348E+05 -1.574899E+05  9.488634E+04  1.658702E-09  1.577286E-10
       179  11 -1.009497E+05 -6.392888E+05 -1.044930E+05  5.243067E+04  2.531841E-09  2.750087E-09
       179  12 -6.425208E+04 -4.919231E+05 -6.681276E+04  8.572743E+04 -9.256449E-10  9.450819E-10
       179  13 -1.574438E+04 -2.284065E+05 -1.911641E+04  8.779272E+04  2.330514E-09  3.151447E-11
       179  14  7.931924E+02 -2.261408E+05 -9.166851E+03  4.992800E+04  6.388267E-10  1.534457E-09
       179  15  5.327538E+02 -2.283713E+05 -6.522726E+03  8.781373E+04 -1.037841E-09 -1.518183E-09
       179  16  1.249424E+05  3.366126E+05  1.192337E+05  8.069270E+04  1.142066E-09 -2.311160E-09
       179  17  1.025241E+05  1.871651E+05  8.614792E+04  4.742368E+04  2.736630E-09 -1.386080E-09
       179  18  6.531278E+04  3.524500E+04  5.376275E+04  8.990093E+04 -2.221046E-09 -1.424609E-09
       179  19 -1.564544E+05 -7.931340E+05 -1.574886E+05  9.488646E+04  5.950175E+03  2.594723E+04
       179  20 -1.009494E+05 -6.392886E+05 -1.044923E+05  5.243080E+04  1.653502E+04  9.574446E+03
       179  21 -6.425193E+04 -4.919231E+05 -6.681242E+04  8.572737E+04  1.161805E+04 -6.822808E+03
       179  22 -1.574431E+04 -2.284064E+05 -1.911605E+04  8.779278E+04  5.967615E+03  1.234044E+04
       179  23  7.935010E+02 -2.261407E+05 -9.166232E+03  4.992810E+04  1.653671E+04  7.484974E+03
       179  24  5.329003E+02 -2.283712E+05 -6.522460E+03  8.781375E+04  1.160834E+04  2.609270E+03
       179  25  1.249424E+05  3.366126E+05  1.192338E+05  8.069270E+04  5.985359E+03 -1.278709E+03
       179  26  1.025244E+05  1.871652E+05  8.614849E+04  4.742376E+04  1.653842E+04  5.394119E+03
       179  27  6.531296E+04  3.524519E+04  5.376328E+04  8.990104E+04  1.159870E+04  1.204532E+04
       180   1 -3.134807E+04 -3.501944E+05 -3.408774E+04  8.872772E+04 -5.342761E+03  3.348090E+03
       180   2  6.995608E+03 -1.991045E+05  8.515655E+02  4.968909E+04  1.225896E+03  6.111776E+03
       180   3  4.200996E+04 -4.897121E+04  3.320238E+04  8.699841E+04  7.728629E+03  8.876336E+03
       180   4 -1.199464E+03 -2.275784E+05 -6.009575E+03  8.794063E+04 -5.338053E+03 -1.563926E+03
       180   5  1.176410E+02 -2.270865E+05 -5.548977E+03  4.976609E+04  1.230697E+03  1.248378E+03
       180   6 -1.901639E+03 -2.275808E+05 -7.709577E+03  8.793993E+04  7.733452E+03  4.060904E+03
       180   7  2.894811E+04 -1.049484E+05  2.206769E+04  8.715339E+04 -5.333334E+03 -6.476905E+03
       180   8 -6.760368E+03 -2.550676E+05 -1.194948E+04  4.984309E+04  1.235496E+03 -3.614803E+03
       180   9 -4.581544E+04 -4.061608E+05 -4.862354E+04  8.888117E+04  7.738262E+03 -7.531551E+02
       180  10 -3.134810E+04 -3.501944E+05 -3.408781E+04  8.872774E+04 -1.713242E-09  2.529652E-09
       180  11  6.995596E+03 -1.991045E+05  8.514924E+02  4.968908E+04  1.045656E-09  5.364620E-09
       180  12  4.200987E+04 -4.897131E+04  3.320212E+04  8.699836E+04  1.271097E-09  3.111622E-09
       180  13 -1.199495E+03 -2.275784E+05 -6.009634E+03  8.794063E+04 -3.178845E-09 -6.712071E-12
       180  14  1.176390E+02 -2.270865E+05 -5.548982E+03  4.976609E+04 -2.931098E-10 -2.092081E-09
       180  15 -1.901708E+03 -2.275809E+05 -7.709721E+03  8.793990E+04  3.618641E-09 -1.314843E-09
       180  16  2.894807E+04 -1.049485E+05  2.206756E+04  8.715336E+04 -1.557868E-09 -2.547174E-09
       180  17 -6.760373E+03 -2.550676E+05 -1.194951E+04  4.984309E+04 -8.521575E-10 -6.045869E-09
       180  18 -4.581550E+04 -4.061609E+05 -4.862366E+04  8.888118E+04  4.600198E-10 -6.989234E-09
       180  19 -3.134807E+04 -3.501944E+05 -3.408774E+04  8.872772E+04  5.342761E+03 -3.348090E+03
       180  20  6.995608E+03 -1.991045E+05  8.515655E+02  4.968909E+04 -1.225896E+03 -6.111776E+03
       180  21  4.200996E+04 -4.897121E+04  3.320238E+04  8.699841E+04 -7.728629E+03 -8.876336E+03
       180  22 -1.199464E+03 -2.275784E+05 -6.009575E+03  8.794063E+04  5.338053E+03  1.563926E+03
       180  23  1.176410E+02 -2.270865E+05 -5.548977E+03  4.976609E+04 -1.230697E+03 -1.248378E+03
       180  24 -1.901639E+03 -2.275808E+05 -7.709577E+03  8.793993E+04 -7.733452E+03 -4.060904E+03
       180  25  2.894811E+04 -1.049484E+05  2.206769E+04  8.715339E+04  5.333334E+03  6.476905E+03
       180  26 -6.760368E+03 -2.550676E+05 -1.194948E+04  4.984309E+04 -1.235496E+03  3.614803E+03
       180  27 -4.581544E+04 -4.061608E+05 -4.862354E+04  8.888117E+04 -7.738262E+03  7.531551E+02
       181   1  7.959388E+04  9.063582E+04  6.405383E+04  9.118140E+04  1.414061E+04  1.521776E+04
       181   2  1.168056E+05  2.438069E+05  9.422811E+04  4.613984E+04  1.885174E+04  1.010112E+04
       181   3  1.297333E+05  3.919708E+05  1.217391E+05  7.676543E+04  6.698839E+03  4.960197E+03
       181   4  1.065451E+03 -2.289805E+05 -8.996997E+03  8.780032E+04  1.415107E+04  5.438356E+03
       181   5  1.325018E+03 -2.253954E+05 -1.393435E+04  4.994665E+04  1.884933E+04  1.286807E+04
       181   6 -2.488637E+04 -2.290212E+05 -3.025149E+04  8.776518E+04  6.677769E+03  2.027445E+04
       181   7 -7.746998E+04 -5.485019E+05 -8.205415E+04  8.442102E+04  1.416164E+04 -4.336056E+03
       181   8 -1.141710E+05 -6.943942E+05 -1.221114E+05  5.375063E+04  1.884695E+04  1.563294E+04
       181   9 -1.795340E+05 -8.496612E+05 -1.822694E+05  9.875401E+04  6.657231E+03  3.557341E+04
       181  10  7.959361E+04  9.063552E+04  6.405302E+04  9.118122E+04  1.741128E-09 -4.723093E-09
       181  11  1.168052E+05  2.438067E+05  9.422725E+04  4.613969E+04 -8.853516E-10  2.946405E-09
       181  12  1.297332E+05  3.919708E+05  1.217390E+05  7.676540E+04 -2.338180E-09  1.702344E-09
       181  13  1.065228E+03 -2.289806E+05 -8.997429E+03  8.780026E+04 -8.928938E-10 -3.274595E-09
       181  14  1.324592E+03 -2.253957E+05 -1.393533E+04  4.994646E+04 -2.261169E-09  5.765970E-10
       181  15 -2.488653E+04 -2.290216E+05 -3.025235E+04  8.776507E+04 -9.320549E-12 -1.243056E-09
       181  16 -7.747020E+04 -5.485019E+05 -8.205456E+04  8.442107E+04 -3.848317E-10  9.943195E-10
       181  17 -1.141714E+05 -6.943945E+05 -1.221125E+05  5.375039E+04 -3.253246E-09 -1.923711E-09
       181  18 -1.795344E+05 -8.496626E+05 -1.822718E+05  9.875382E+04 -1.291143E-09 -4.374375E-09
       181  19  7.959388E+04  9.063582E+04  6.405383E+04  9.118140E+04 -1.414061E+04 -1.521776E+04
       181  20  1.168056E+05  2.438069E+05  9.422811E+04  4.613984E+04 -1.885174E+04 -1.010112E+04
       181  21  1.297333E+05  3.919708E+05  1.217391E+05  7.676543E+04 -6.698839E+03 -4.960197E+03
       181  22  1.065451E+03 -2.289805E+05 -8.996997E+03  8.780032E+04 -1.415107E+04 -5.438356E+03
       181  23  1.325018E+03 -2.253954E+05 -1.393435E+04  4.994665E+04 -1.884933E+04 -1.286807E+04
       181  24 -2.488637E+04 -2.290212E+05 -3.025149E+04  8.776518E+04 -6.677769E+03 -2.027445E+04
       181  25 -7.746998E+04 -5.485019E+05 -8.205415E+04  8.442102E+04 -1.416164E+04  4.336056E+03
       181  26 -1.141710E+05 -6.943942E+05 -1.221114E+05  5.375063E+04 -1.884695E+04 -1.563294E+04
       181  27 -1.795340E+05 -8.496612E+05 -1.822694E+05  9.875401E+04 -6.657231E+03 -3.557341E+04
       182   1  3.018936E+05  1.480149E+05  1.348941E+05  3.589870E+04  2.702857E+04 -1.043758E+04
       182   2  2.436809E+05  1.559001E+05  1.140421E+05  4.212404E+04  7.541951E+03 -3.483452E+04
       182   3  1.839113E+05  1.472724E+05  1.017641E+05  6.070072E+04 -1.195285E+04 -4.133899E+04
       182   4 -4.444794E+05 -3.629351E+04 -4.042854E+04  5.801257E+04 -2.816348E+04 -1.047960E+04
       182   5 -4.411066E+05 -7.777461E+03 -1.960340E+04  5.182014E+04 -1.801072E+04 -3.486017E+04
       182   6 -4.444463E+05 -9.315473E+02 -1.079182E+04  5.797998E+04 -7.868301E+03 -4.133845E+04
       182   7 -1.190332E+06 -2.206381E+05 -2.157776E+05  8.009958E+04 -8.328957E+04 -1.052557E+04
       182   8 -1.125443E+06 -1.714825E+05 -1.532688E+05  6.150521E+04 -4.353582E+04 -3.488662E+04
       182   9 -1.072419E+06 -1.491574E+05 -1.233628E+05  5.526196E+04 -3.787769E+03 -4.133794E+04
       182  10  3.018928E+05  1.480146E+05  1.348925E+05  3.589892E+04 -2.262125E-09  7.968946E-10
       182  11  2.436805E+05  1.558988E+05  1.140397E+05  4.212425E+04 -1.669130E-08  8.492784E-10
       182  12  1.839107E+05  1.472705E+05  1.017606E+05  6.070033E+04 -2.508865E-08 -1.326260E-09
       182  13 -4.444803E+05 -3.629384E+04 -4.043024E+04  5.801233E+04  9.274532E-10  4.179306E-10
       182  14 -4.411073E+05 -7.778853E+03 -1.960629E+04  5.181964E+04 -3.279768E-10 -3.896202E-09
       182  15 -4.444468E+05 -9.333985E+02 -1.079515E+04  5.797972E+04  3.109517E-09 -8.038972E-09
       182  16 -1.190339E+06 -2.206401E+05 -2.157909E+05  8.009887E+04  2.255277E-09  7.143778E-10
       182  17 -1.125445E+06 -1.714843E+05 -1.532747E+05  6.150398E+04  1.647810E-08 -1.098183E-09
       182  18 -1.072419E+06 -1.491592E+05 -1.233661E+05  5.526184E+04  2.613613E-08 -1.486866E-09
       182  19  3.018936E+05  1.480149E+05  1.348941E+05  3.589870E+04 -2.702857E+04  1.043758E+04
       182  20  2.436809E+05  1.559001E+05  1.140421E+05  4.212404E+04 -7.541951E+03  3.483452E+04
       182  21  1.839113E+05  1.472724E+05  1.017641E+05  6.070072E+04  1.195285E+04  4.133899E+04
       182  22 -4.444794E+05 -3.629351E+04 -4.042854E+04  5.801257E+04  2.816348E+04  1.047960E+04
       182  23 -4.411066E+05 -7.777461E+03 -1.960340E+04  5.182014E+04  1.801072E+04  3.486017E+04
       182  24 -4.444463E+05 -9.315473E+02 -1.079182E+04  5.797998E+04  7.868301E+03  4.133845E+04
       182  25 -1.190332E+06 -2.206381E+05 -2.157776E+05  8.009958E+04  8.328957E+04  1.052557E+04
       182  26 -1.125443E+06 -1.714825E+05 -1.532688E+05  6.150521E+04  4.353582E+04  3.488662E+04
       182  27 -1.072419E+06 -1.491574E+05 -1.233628E+05  5.526196E+04  3.787769E+03  4.133794E+04
       183   1  1.458754E+05  1.371741E+05  9.635957E+04  5.809024E+04 -8.393604E+03 -3.958884E+04
       183   2  8.697184E+04  1.241797E+05  8.735320E+04  5.176425E+04 -8.718651E+03 -3.764536E+04
       183   3  2.794954E+04  1.105522E+05  7.839988E+04  5.896980E+04 -9.046656E+03 -3.413903E+04
       183   4 -4.430730E+05 -1.549198E+03 -8.227955E+03  5.824645E+04 -6.463778E+03 -3.959006E+04
       183   5 -4.427769E+05 -1.667541E+02 -4.533539E+03  5.147928E+04 -4.202004E+03 -3.764292E+04
       183   6 -4.430517E+05  1.332979E+02 -2.583335E+03  5.824439E+04 -1.943174E+03 -3.413226E+04
       183   7 -1.031683E+06 -1.402916E+05 -1.128284E+05  5.840241E+04 -4.535727E+03 -3.959128E+04
       183   8 -9.722503E+05 -1.245283E+05 -9.642997E+04  5.119447E+04  3.109079E+02 -3.764048E+04
       183   9 -9.138348E+05 -1.102974E+05 -8.357388E+04  5.751947E+04  5.155087E+03 -3.412550E+04
       183  10  1.458749E+05  1.371724E+05  9.635649E+04  5.808997E+04 -2.982556E-08 -3.056525E-09
       183  11  8.697138E+04  1.241781E+05  8.735039E+04  5.176399E+04  1.549719E-08 -1.193529E-10
       183  12  2.794914E+04  1.105509E+05  7.839754E+04  5.896955E+04  5.844239E-08  4.614098E-10
       183  13 -4.430735E+05 -1.550892E+03 -8.230979E+03  5.824624E+04  1.159486E-12 -1.076532E-08
       183  14 -4.427773E+05 -1.682801E+02 -4.536234E+03  5.147915E+04  8.022694E-10 -6.456550E-09
       183  15 -4.430520E+05  1.320461E+02 -2.585531E+03  5.824434E+04  2.074774E-09 -3.222702E-09
       183  16 -1.031683E+06 -1.402933E+05 -1.128314E+05  5.840227E+04  2.831345E-08 -2.776666E-10
       183  17 -9.722507E+05 -1.245298E+05 -9.643263E+04  5.119448E+04 -1.578616E-08 -8.811830E-10
       183  18 -9.138351E+05 -1.102987E+05 -8.357612E+04  5.751961E+04 -5.990658E-08 -9.435986E-10
       183  19  1.458754E+05  1.371741E+05  9.635957E+04  5.809024E+04  8.393604E+03  3.958884E+04
       183  20  8.697184E+04  1.241797E+05  8.735320E+04  5.176425E+04  8.718651E+03  3.764536E+04
       183  21  2.794954E+04  1.105522E+05  7.839988E+04  5.896980E+04  9.046656E+03  3.413903E+04
       183  22 -4.430730E+05 -1.549198E+03 -8.227955E+03  5.824645E+04  6.463778E+03  3.959006E+04
       183  23 -4.427769E+05 -1.667541E+02 -4.533539E+03  5.147928E+04  4.202004E+03  3.764292E+04
       183  24 -4.430517E+05  1.332979E+02 -2.583335E+03  5.824439E+04  1.943174E+03  3.413226E+04
       183  25 -1.031683E+06 -1.402916E+05 -1.128284E+05  5.840241E+04  4.535727E+03  3.959128E+04
       183  26 -9.722503E+05 -1.245283E+05 -9.642997E+04  5.119447E+04 -3.109079E+02  3.764048E+04
       183  27 -9.138348E+05 -1.102974E+05 -8.357388E+04  5.751947E+04 -5.155087E+03  3.412550E+04
       184   1 -1.062279E+04  1.013914E+05  7.206986E+04  5.879957E+04 -8.466822E+03 -3.161453E+04
       184   2 -6.963762E+04  8.758305E+04  6.271836E+04  5.190782E+04 -8.142467E+03 -2.736766E+04
       184   3 -1.287148E+05  7.379635E+04  5.315325E+04  5.866858E+04 -7.819517E+03 -2.298263E+04
       184   4 -4.429415E+05  9.901401E+01 -1.964318E+03  5.827152E+04 -1.548245E+03 -3.160731E+04
       184   5 -4.428813E+05  1.439902E+02 -1.125463E+03  5.144497E+04 -9.957519E+02 -2.735918E+04
       184   6 -4.429267E+05  1.710749E+02 -6.590021E+02  5.827142E+04 -4.446336E+02 -2.297285E+04
       184   7 -8.750763E+05 -1.012033E+05 -7.600457E+04  5.774379E+04  5.365665E+03 -3.160010E+04
       184   8 -8.159879E+05 -8.730247E+04 -6.497374E+04  5.098236E+04  6.146802E+03 -2.735071E+04
       184   9 -7.570414E+05 -7.345944E+04 -5.447436E+04  5.787443E+04  6.926634E+03 -2.296306E+04
       184  10 -1.062313E+04  1.013903E+05  7.206785E+04  5.879936E+04  7.643256E-10  2.089609E-09
       184  11 -6.963789E+04  8.758223E+04  6.271683E+04  5.190764E+04  2.207361E-09  3.400590E-09
       184  12 -1.287150E+05  7.379577E+04  5.315214E+04  5.866844E+04  6.307968E-09  2.295758E-09
       184  13 -4.429417E+05  9.794082E+01 -1.966200E+03  5.827148E+04 -7.268901E-10 -1.145932E-09
       184  14 -4.428815E+05  1.431864E+02 -1.126871E+03  5.144495E+04  8.806813E-10  3.780832E-09
       184  15 -4.429269E+05  1.705082E+02 -6.599940E+02  5.827141E+04 -1.844042E-10  4.537618E-09
       184  16 -8.750766E+05 -1.012044E+05 -7.600650E+04  5.774392E+04 -1.451595E-09  1.577198E-09
       184  17 -8.159881E+05 -8.730329E+04 -6.497522E+04  5.098250E+04 -2.693867E-09  4.285581E-09
       184  18 -7.570416E+05 -7.346002E+04 -5.447544E+04  5.787456E+04 -5.193699E-09  1.766151E-09
       184  19 -1.062279E+04  1.013914E+05  7.206986E+04  5.879957E+04  8.466822E+03  3.161453E+04
       184  20 -6.963762E+04  8.758305E+04  6.271836E+04  5.190782E+04  8.142467E+03  2.736766E+04
       184  21 -1.287148E+05  7.379635E+04  5.315325E+04  5.866858E+04  7.819517E+03  2.298263E+04
       184  22 -4.429415E+05  9.901401E+01 -1.964318E+03  5.827152E+04  1.548245E+03  3.160731E+04
       184  23 -4.428813E+05  1.439902E+02 -1.125463E+03  5.144497E+04  9.957519E+02  2.735918E+04
       184  24 -4.429267E+05  1.710749E+02 -6.590021E+02  5.827142E+04  4.446336E+02  2.297285E+04
       184  25 -8.750763E+05 -1.012033E+05 -7.600457E+04  5.774379E+04 -5.365665E+03  3.160010E+04
       184  26 -8.159879E+05 -8.730247E+04 -6.497374E+04  5.098236E+04 -6.146802E+03  2.735071E+04
       184  27 -7.570414E+05 -7.345944E+04 -5.447436E+04  5.787443E+04 -6.926634E+03  2.296306E+04
       185   1 -1.673607E+05  6.469015E+04  4.643086E+04  5.862077E+04 -7.703015E+03 -2.038751E+04
       185   2 -2.264423E+05  5.085617E+04  3.663425E+04  5.170654E+04 -7.567496E+03 -1.593539E+04
       185   3 -2.855710E+05  3.706367E+04  2.674759E+04  5.846787E+04 -7.432720E+03 -1.147076E+04
       185   4 -4.429111E+05  1.721874E+02 -5.124962E+02  5.827652E+04 -3.422751E+02 -2.037727E+04
       185   5 -4.428793E+05  1.597481E+02 -3.276417E+02  5.143859E+04 -1.864800E+02 -1.592456E+04
       185   6 -4.429026E+05  1.851577E+02 -2.473576E+02  5.827651E+04 -3.141493E+01 -1.145932E+04
       185   7 -7.183866E+05 -6.434978E+04 -4.745815E+04  5.793240E+04  7.015301E+03 -2.036705E+04
       185   8 -6.592700E+05 -5.053914E+04 -3.729089E+04  5.117073E+04  7.192044E+03 -1.591373E+04
       185   9 -6.002097E+05 -3.669465E+04 -2.724293E+04  5.808518E+04  7.368072E+03 -1.144787E+04
       185  10 -1.673609E+05  6.468969E+04  4.642997E+04  5.862064E+04  1.264055E-09  2.098077E-09
       185  11 -2.264424E+05  5.085588E+04  3.663367E+04  5.170644E+04  2.730705E-09  5.393905E-09
       185  12 -2.855711E+05  3.706351E+04  2.674724E+04  5.846780E+04 -1.550875E-10  4.610083E-09
       185  13 -4.429112E+05  1.717416E+02 -5.132766E+02  5.827651E+04  1.053679E-09  2.363498E-09
       185  14 -4.428793E+05  1.594758E+02 -3.281182E+02  5.143859E+04  2.751129E-09  5.318989E-09
       185  15 -4.429026E+05  1.850168E+02 -2.476043E+02  5.827651E+04  2.945149E-09  1.615728E-09
       185  16 -7.183867E+05 -6.435024E+04 -4.745902E+04  5.793251E+04 -3.084506E-09  1.557724E-09
       185  17 -6.592702E+05 -5.053942E+04 -3.729146E+04  5.117082E+04 -2.251953E-10  3.703374E-09
       185  18 -6.002098E+05 -3.669480E+04 -2.724328E+04  5.808525E+04 -1.006613E-09  2.160775E-09
       185  19 -1.673607E+05  6.469015E+04  4.643086E+04  5.862077E+04  7.703015E+03  2.038751E+04
       185  20 -2.264423E+05  5.085617E+04  3.663425E+04  5.170654E+04  7.567496E+03  1.593539E+04
       185  21 -2.855710E+05  3.706367E+04  2.674759E+04  5.846787E+04  7.432720E+03  1.147076E+04
       185  22 -4.429111E+05  1.721874E+02 -5.124962E+02  5.827652E+04  3.422751E+02  2.037727E+04
       185  23 -4.428793E+05  1.597481E+02 -3.276417E+02  5.143859E+04  1.864800E+02  1.592456E+04
       185  24 -4.429026E+05  1.851577E+02 -2.473576E+02  5.827651E+04  3.141493E+01  1.145932E+04
       185  25 -7.183866E+05 -6.434978E+04 -4.745815E+04  5.793240E+04 -7.015301E+03  2.036705E+04
       185  26 -6.592700E+05 -5.053914E+04 -3.729089E+04  5.117073E+04 -7.192044E+03  1.591373E+04
       185  27 -6.002097E+05 -3.669465E+04 -2.724293E+04  5.808518E+04 -7.368072E+03  1.144787E+04
       186   1 -3.242527E+05  2.795335E+04  1.988941E+04  5.842024E+04 -7.393033E+03 -8.867791E+03
       186   2 -3.833539E+05  1.411314E+04  9.881807E+03  5.149455E+04 -7.253854E+03 -4.399204E+03
       186   3 -4.425126E+05  3.100475E+02 -2.219257E+02  5.825348E+04 -7.114873E+03  6.315913E+01
       186   4 -4.429012E+05  1.876773E+02 -2.378687E+02  5.827847E+04  8.654088E+00 -8.856126E+03
       186   5 -4.428709E+05  1.729014E+02 -2.741722E+02  5.143613E+04  1.372374E+02 -4.387399E+03
       186   6 -4.428989E+05  1.974332E+02 -3.991127E+02  5.827846E+04  2.656361E+02  7.510796E+01
       186   7 -5.615357E+05 -2.757871E+04 -2.036540E+04  5.813673E+04  7.408971E+03 -8.844462E+03
       186   8 -5.023843E+05 -1.376750E+04 -1.043006E+04  5.137770E+04  7.527643E+03 -4.375594E+03
       186   9 -4.432850E+05  8.484811E+01 -5.760948E+02  5.830345E+04  7.646140E+03  8.705739E+01
       186  10 -3.242528E+05  2.795325E+04  1.988916E+04  5.842019E+04  8.495988E-09  1.853000E-09
       186  11 -3.833539E+05  1.411311E+04  9.881672E+03  5.149453E+04  3.781309E-09 -7.344178E-10
       186  12 -4.425127E+05  3.100339E+02 -2.220209E+02  5.825348E+04 -2.917034E-09 -2.182396E-09
       186  13 -4.429012E+05  1.875931E+02 -2.380161E+02  5.827847E+04 -2.989017E-10  5.352876E-09
       186  14 -4.428709E+05  1.728808E+02 -2.742084E+02  5.143613E+04  2.401698E-09 -1.383774E-10
       186  15 -4.428989E+05  1.974332E+02 -3.991128E+02  5.827846E+04 -3.724628E-10 -3.323091E-09
       186  16 -5.615358E+05 -2.757881E+04 -2.036565E+04  5.813678E+04 -8.888929E-09  2.184596E-09
       186  17 -5.023843E+05 -1.376754E+04 -1.043021E+04  5.137773E+04 -1.556965E-10 -2.463544E-09
       186  18 -4.432851E+05  8.483239E+01 -5.762048E+02  5.830345E+04  3.317009E-09 -2.471330E-09
       186  19 -3.242527E+05  2.795335E+04  1.988941E+04  5.842024E+04  7.393033E+03  8.867791E+03
       186  20 -3.833539E+05  1.411314E+04  9.881807E+03  5.149455E+04  7.253854E+03  4.399204E+03
       186  21 -4.425126E+05  3.100475E+02 -2.219257E+02  5.825348E+04  7.114873E+03 -6.315913E+01
       186  22 -4.429012E+05  1.876773E+02 -2.378687E+02  5.827847E+04 -8.654088E+00  8.856126E+03
       186  23 -4.428709E+05  1.729014E+02 -2.741722E+02  5.143613E+04 -1.372374E+02  4.387399E+03
       186  24 -4.428989E+05  1.974332E+02 -3.991127E+02  5.827846E+04 -2.656361E+02 -7.510796E+01
       186  25 -5.615357E+05 -2.757871E+04 -2.036540E+04  5.813673E+04 -7.408971E+03  8.844462E+03
       186  26 -5.023843E+05 -1.376750E+04 -1.043006E+04  5.137770E+04 -7.527643E+03  4.375594E+03
       186  27 -4.432850E+05  8.484811E+01 -5.760948E+02  5.830345E+04 -7.646140E+03 -8.705739E+01
       187   1 -4.812112E+05 -8.803397E+03 -7.200938E+03  5.819220E+04 -7.047377E+03  2.663748E+03
       187   2 -5.402688E+05 -2.265379E+04 -1.756043E+04  5.126565E+04 -6.490692E+03  7.086501E+03
       187   3 -5.994525E+05 -3.653070E+04 -2.830363E+04  5.801722E+04 -5.933615E+03  1.142165E+04
       187   4 -4.429094E+05  2.005172E+02 -5.046074E+02  5.827696E+04  3.431240E+02  2.675683E+03
       187   5 -4.428592E+05  1.825399E+02 -8.455394E+02  5.143799E+04  7.545712E+02  7.097944E+03
       187   6 -4.429133E+05  1.634166E+02 -1.469329E+03  5.827702E+04  1.166461E+03  1.143261E+04
       187   7 -4.046060E+05  9.204381E+03  6.191877E+03  5.836172E+04  7.734068E+03  2.687620E+03
       187   8 -3.454401E+05  2.301839E+04  1.586923E+04  5.161037E+04  8.000937E+03  7.109389E+03
       187   9 -2.863499E+05  3.685625E+04  2.536434E+04  5.853688E+04  8.268273E+03  1.144358E+04
       187  10 -4.812112E+05 -8.803418E+03 -7.201045E+03  5.819222E+04 -1.839093E-09  8.000047E-10
       187  11 -5.402689E+05 -2.265385E+04 -1.756060E+04  5.126569E+04  2.365363E-09  1.097477E-09
       187  12 -5.994526E+05 -3.653085E+04 -2.830395E+04  5.801728E+04 -3.618628E-10  2.403768E-09
       187  13 -4.429094E+05  2.005095E+02 -5.046211E+02  5.827696E+04  1.090263E-09 -3.087268E-11
       187  14 -4.428592E+05  1.824856E+02 -8.456351E+02  5.143799E+04  1.474957E-09  1.813608E-09
       187  15 -4.429134E+05  1.632759E+02 -1.469578E+03  5.827701E+04 -4.395211E-10  2.171147E-09
       187  16 -4.046061E+05  9.204357E+03  6.191751E+03  5.836170E+04  1.353133E-09  9.801305E-10
       187  17 -3.454402E+05  2.301831E+04  1.586901E+04  5.161032E+04  1.531451E-10 -2.351773E-09
       187  18 -2.863500E+05  3.685609E+04  2.536397E+04  5.853681E+04  7.548307E-10  9.307527E-10
       187  19 -4.812112E+05 -8.803397E+03 -7.200938E+03  5.819220E+04  7.047377E+03 -2.663748E+03
       187  20 -5.402688E+05 -2.265379E+04 -1.756043E+04  5.126565E+04  6.490692E+03 -7.086501E+03
       187  21 -5.994525E+05 -3.653070E+04 -2.830363E+04  5.801722E+04  5.933615E+03 -1.142165E+04
       187  22 -4.429094E+05  2.005172E+02 -5.046074E+02  5.827696E+04 -3.431240E+02 -2.675683E+03
       187  23 -4.428592E+05  1.825399E+02 -8.455394E+02  5.143799E+04 -7.545712E+02 -7.097944E+03
       187  24 -4.429133E+05  1.634166E+02 -1.469329E+03  5.827702E+04 -1.166461E+03 -1.143261E+04
       187  25 -4.046060E+05  9.204381E+03  6.191877E+03  5.836172E+04 -7.734068E+03 -2.687620E+03
       187  26 -3.454401E+05  2.301839E+04  1.586923E+04  5.161037E+04 -8.000937E+03 -7.109389E+03
       187  27 -2.863499E+05  3.685625E+04  2.536434E+04  5.853688E+04 -8.268273E+03 -1.144358E+04
       188   1 -6.382463E+05 -4.563624E+04 -3.569380E+04  5.782658E+04 -5.759204E+03  1.397861E+04
       188   2 -6.969591E+05 -5.977225E+04 -4.772778E+04  5.130434E+04 -2.421288E+03  1.784598E+04
       188   3 -7.564148E+05 -7.499175E+04 -6.221901E+04  5.838878E+04  9.183500E+02  2.071234E+04
       188   4 -4.429948E+05  1.922061E+02 -1.930659E+03  5.826080E+04  1.459755E+03  1.398949E+04
       188   5 -4.427705E+05 -3.204605E+01 -3.382794E+03  5.145858E+04  3.141834E+03  1.785372E+04
       188   6 -4.430054E+05 -1.051901E+03 -6.141264E+03  5.826270E+04  4.825967E+03  2.071716E+04
       188   7 -2.477058E+05  4.601863E+04  3.183137E+04  5.869516E+04  8.680915E+03  1.400038E+04
       188   8 -1.885185E+05  5.970466E+04  4.096002E+04  5.161285E+04  8.707167E+03  1.786146E+04
       188   9 -1.295000E+05  7.288250E+04  4.993279E+04  5.813652E+04  8.735501E+03  2.072197E+04
       188  10 -6.382464E+05 -4.563646E+04 -3.569423E+04  5.782664E+04 -3.380228E-09  5.139339E-09
       188  11 -6.969592E+05 -5.977259E+04 -4.772839E+04  5.130438E+04  5.782354E-10  3.077083E-09
       188  12 -7.564149E+05 -7.499221E+04 -6.221982E+04  5.838876E+04  3.735739E-09  3.754009E-09
       188  13 -4.429949E+05  1.919955E+02 -1.931031E+03  5.826079E+04  2.149464E-09  2.330156E-09
       188  14 -4.427706E+05 -3.239092E+01 -3.383411E+03  5.145853E+04  3.772487E-10  3.318493E-09
       188  15 -4.430055E+05 -1.052368E+03 -6.142114E+03  5.826262E+04  1.827990E-09  7.018908E-11
       188  16 -2.477059E+05  4.601840E+04  3.183086E+04  5.869506E+04  1.888432E-09  2.217396E-09
       188  17 -1.885186E+05  5.970430E+04  4.095927E+04  5.161272E+04  1.765027E-09  6.568533E-10
       188  18 -1.295002E+05  7.288202E+04  4.993184E+04  5.813637E+04 -5.803745E-09 -3.829484E-09
       188  19 -6.382463E+05 -4.563624E+04 -3.569380E+04  5.782658E+04  5.759204E+03 -1.397861E+04
       188  20 -6.969591E+05 -5.977225E+04 -4.772778E+04  5.130434E+04  2.421288E+03 -1.784598E+04
       188  21 -7.564148E+05 -7.499175E+04 -6.221901E+04  5.838878E+04 -9.183500E+02 -2.071234E+04
       188  22 -4.429948E+05  1.922061E+02 -1.930659E+03  5.826080E+04 -1.459755E+03 -1.398949E+04
       188  23 -4.427705E+05 -3.204605E+01 -3.382794E+03  5.145858E+04 -3.141834E+03 -1.785372E+04
       188  24 -4.430054E+05 -1.051901E+03 -6.141264E+03  5.826270E+04 -4.825967E+03 -2.071716E+04
       188  25 -2.477058E+05  4.601863E+04  3.183137E+04  5.869516E+04 -8.680915E+03 -1.400038E+04
       188  26 -1.885185E+05  5.970466E+04  4.096002E+04  5.161285E+04 -8.707167E+03 -1.786146E+04
       188  27 -1.295000E+05  7.288250E+04  4.993279E+04  5.813652E+04 -8.735501E+03 -2.072197E+04
       189   1 -7.966182E+05 -8.389511E+04 -7.171740E+04  5.603797E+04  5.858573E+02  2.277150E+04
       189   2 -8.515678E+05 -1.039084E+05 -9.540098E+04  5.883918E+04  2.711725E+04  2.026908E+04
       189   3 -9.148674E+05 -1.434015E+05 -1.412448E+05  7.450081E+04  5.365907E+04  6.298457E+03
       189   4 -4.440305E+05 -5.881817E+02 -8.055067E+03  5.809208E+04  5.872483E+03  2.277794E+04
       189   5 -4.415152E+05 -5.705673E+03 -1.462892E+04  5.167946E+04  1.343705E+04  2.024920E+04
       189   6 -4.440518E+05 -2.700041E+04 -3.017653E+04  5.812780E+04  2.101479E+04  6.254943E+03
       189   7 -9.132145E+04  8.271182E+04  5.560250E+04  6.014735E+04  1.116203E+04  2.278441E+04
       189   8 -3.130092E+04  9.248716E+04  6.613568E+04  4.451484E+04 -2.520063E+02  2.022965E+04
       189   9  2.697091E+04  8.938646E+04  8.088060E+04  4.174220E+04 -1.165413E+04  6.213170E+03
       189  10 -7.966184E+05 -8.389567E+04 -7.171837E+04  5.603796E+04 -2.626227E-09  2.185653E-09
       189  11 -8.515687E+05 -1.039090E+05 -9.540313E+04  5.883874E+04 -2.287607E-09 -9.753274E-10
       189  12 -9.148705E+05 -1.434024E+05 -1.412503E+05  7.450054E+04 -1.125989E-09  7.147630E-11
       189  13 -4.440306E+05 -5.887480E+02 -8.056106E+03  5.809197E+04  7.558914E-10  2.496725E-09
       189  14 -4.415155E+05 -5.706162E+03 -1.463003E+04  5.167924E+04  1.734037E-09 -2.676131E-09
       189  15 -4.440523E+05 -2.700057E+04 -3.017743E+04  5.812769E+04 -1.188518E-09  8.217578E-10
       189  16 -9.132172E+04  8.271122E+04  5.560129E+04  6.014714E+04  1.608494E-09 -2.442365E-10
       189  17 -3.130103E+04  9.248672E+04  6.613491E+04  4.451485E+04  3.541295E-09 -6.402041E-10
       189  18  2.697076E+04  8.938638E+04  8.088027E+04  4.174226E+04  9.874144E-10 -8.233152E-10
       189  19 -7.966182E+05 -8.389511E+04 -7.171740E+04  5.603797E+04 -5.858573E+02 -2.277150E+04
       189  20 -8.515678E+05 -1.039084E+05 -9.540098E+04  5.883918E+04 -2.711725E+04 -2.026908E+04
       189  21 -9.148674E+05 -1.434015E+05 -1.412448E+05  7.450081E+04 -5.365907E+04 -6.298457E+03
       189  22 -4.440305E+05 -5.881817E+02 -8.055067E+03  5.809208E+04 -5.872483E+03 -2.277794E+04
       189  23 -4.415152E+05 -5.705673E+03 -1.462892E+04  5.167946E+04 -1.343705E+04 -2.024920E+04
       189  24 -4.440518E+05 -2.700041E+04 -3.017653E+04  5.812780E+04 -2.101479E+04 -6.254943E+03
       189  25 -9.132145E+04  8.271182E+04  5.560250E+04  6.014735E+04 -1.116203E+04 -2.278441E+04
       189  26 -3.130092E+04  9.248716E+04  6.613568E+04  4.451484E+04  2.520063E+02 -2.022965E+04
       189  27  2.697091E+04  8.938646E+04  8.088060E+04  4.174220E+04  1.165413E+04 -6.213170E+03
       190   1 -1.025296E+05  7.312034E+04  5.941131E+04  8.165030E+02 -2.813767E+04 -6.100875E+03
       190   2 -1.341673E+05  1.153850E+05  7.743858E+04  5.549368E+03 -2.271217E+04 -1.883428E+04
       190   3 -1.794370E+05  1.057574E+05  7.898262E+04  2.927226E+04 -1.730292E+04 -1.899598E+04
       190   4 -5.983894E+05 -5.024040E+04 -6.164913E+04  2.140961E+04 -4.226793E+04 -6.119855E+03
       190   5 -5.907432E+05  3.042225E+03 -2.763843E+04  1.187779E+04 -2.749974E+04 -1.884235E+04
       190   6 -5.983648E+05  2.788444E+03 -1.661257E+04  2.133737E+04 -1.274721E+04 -1.898926E+04
       190   7 -1.094024E+06 -1.736176E+05 -1.827265E+05  4.198615E+04 -5.638692E+04 -6.139781E+03
       190   8 -1.047126E+06 -1.093149E+05 -1.327291E+05  1.820145E+04 -3.228382E+04 -1.885052E+04
       190   9 -1.017130E+06 -1.001925E+05 -1.122191E+05  1.340782E+04 -8.194548E+03 -1.898266E+04
       190  10 -1.025305E+05  7.312009E+04  5.940975E+04  8.163648E+02 -4.973953E-09  4.933910E-10
       190  11 -1.341679E+05  1.153844E+05  7.743694E+04  5.549024E+03 -5.343044E-12  4.808629E-09
       190  12 -1.794374E+05  1.057570E+05  7.898138E+04  2.927199E+04  2.390429E-09  2.334859E-09
       190  13 -5.983914E+05 -5.024092E+04 -6.165256E+04  2.140940E+04  3.242685E-09 -1.047023E-09
       190  14 -5.907441E+05  3.041641E+03 -2.764052E+04  1.187737E+04  6.816410E-10 -4.924222E-09
       190  15 -5.983651E+05  2.788013E+03 -1.661355E+04  2.133718E+04 -2.487225E-09  1.437698E-09
       190  16 -1.094027E+06 -1.736185E+05 -1.827326E+05  4.198587E+04  4.269743E-09 -1.154164E-10
       190  17 -1.047127E+06 -1.093156E+05 -1.327318E+05  1.820096E+04  3.313031E-11  4.856064E-09
       190  18 -1.017130E+06 -1.001929E+05 -1.122199E+05  1.340770E+04 -1.761687E-09 -9.195297E-10
       190  19 -1.025296E+05  7.312034E+04  5.941131E+04  8.165030E+02  2.813767E+04  6.100875E+03
       190  20 -1.341673E+05  1.153850E+05  7.743858E+04  5.549368E+03  2.271217E+04  1.883428E+04
       190  21 -1.794370E+05  1.057574E+05  7.898262E+04  2.927226E+04  1.730292E+04  1.899598E+04
       190  22 -5.983894E+05 -5.024040E+04 -6.164913E+04  2.140961E+04  4.226793E+04  6.119855E+03
       190  23 -5.907432E+05  3.042225E+03 -2.763843E+04  1.187779E+04  2.749974E+04  1.884235E+04
       190  24 -5.983648E+05  2.788444E+03 -1.661257E+04  2.133737E+04  1.274721E+04  1.898926E+04
       190  25 -1.094024E+06 -1.736176E+05 -1.827265E+05  4.198615E+04  5.638692E+04  6.139781E+03
       190  26 -1.047126E+06 -1.093149E+05 -1.327291E+05  1.820145E+04  3.228382E+04  1.885052E+04
       190  27 -1.017130E+06 -1.001925E+05 -1.122191E+05  1.340782E+04  8.194548E+03  1.898266E+04
       191   1 -2.126062E+05  9.055073E+04  7.440774E+04  2.076936E+04 -1.101352E+04 -1.642635E+04
       191   2 -2.507455E+05  8.481830E+04  7.155683E+04  1.184332E+04 -7.886638E+03 -1.517722E+04
       191   3 -2.902675E+05  7.528901E+04  6.571506E+04  2.259194E+04 -4.762010E+03 -1.331506E+04
       191   4 -5.952934E+05 -3.568925E+03 -1.335795E+04  2.151467E+04 -1.031211E+04 -1.642587E+04
       191   5 -5.945565E+05  2.955663E+02 -7.091002E+03  1.167348E+04 -6.731260E+03 -1.517567E+04
       191   6 -5.952842E+05  2.829509E+02 -4.131892E+03  2.150770E+04 -3.152475E+03 -1.331229E+04
       191   7 -9.778449E+05 -9.769879E+04 -1.011333E+05  2.225945E+04 -9.611130E+03 -1.642539E+04
       191   8 -9.382579E+05 -8.423539E+04 -8.574659E+04  1.150369E+04 -5.576516E+03 -1.517412E+04
       191   9 -9.002145E+05 -7.472959E+04 -7.398495E+04  2.042396E+04 -1.543724E+03 -1.330952E+04
       191  10 -2.126064E+05  9.055041E+04  7.440701E+04  2.076921E+04  1.288619E-09 -1.370202E-09
       191  11 -2.507457E+05  8.481804E+04  7.155628E+04  1.184322E+04 -4.264834E-10  2.599257E-09
       191  12 -2.902676E+05  7.528882E+04  6.571468E+04  2.259189E+04  1.731381E-09  6.076684E-09
       191  13 -5.952936E+05 -3.569243E+03 -1.335866E+04  2.151453E+04  4.698659E-10  4.418193E-09
       191  14 -5.945566E+05  2.953069E+02 -7.091520E+03  1.167340E+04  2.958112E-09 -9.831073E-09
       191  15 -5.952842E+05  2.827580E+02 -4.132244E+03  2.150767E+04  1.625558E-09  3.861776E-09
       191  16 -9.778451E+05 -9.769910E+04 -1.011340E+05  2.225933E+04  7.619324E-10 -4.764347E-09
       191  17 -9.382580E+05 -8.423565E+04 -8.574708E+04  1.150362E+04  5.273905E-10 -2.606898E-09
       191  18 -9.002146E+05 -7.472978E+04 -7.398528E+04  2.042394E+04 -2.655578E-09  5.061428E-10
       191  19 -2.126062E+05  9.055073E+04  7.440774E+04  2.076936E+04  1.101352E+04  1.642635E+04
       191  20 -2.507455E+05  8.481830E+04  7.155683E+04  1.184332E+04  7.886638E+03  1.517722E+04
       191  21 -2.902675E+05  7.528901E+04  6.571506E+04  2.259194E+04  4.762010E+03  1.331506E+04
       191  22 -5.952934E+05 -3.568925E+03 -1.335795E+04  2.151467E+04  1.031211E+04  1.642587E+04
       191  23 -5.945565E+05  2.955663E+02 -7.091002E+03  1.167348E+04  6.731260E+03  1.517567E+04
       191  24 -5.952842E+05  2.829509E+02 -4.131892E+03  2.150770E+04  3.152475E+03  1.331229E+04
       191  25 -9.778449E+05 -9.769879E+04 -1.011333E+05  2.225945E+04  9.611130E+03  1.642539E+04
       191  26 -9.382579E+05 -8.423539E+04 -8.574659E+04  1.150369E+04  5.576516E+03  1.517412E+04
       191  27 -9.002145E+05 -7.472959E+04 -7.398495E+04  2.042396E+04  1.543724E+03  1.330952E+04
       192   1 -3.264831E+05  6.582575E+04  5.810968E+04  2.196070E+04 -3.938510E+03 -1.210117E+04
       192   2 -3.655622E+05  5.645232E+04  5.061939E+04  1.200581E+04 -3.062096E+03 -1.016293E+04
       192   3 -4.048838E+05  4.687714E+04  4.249000E+04  2.194393E+04 -2.186487E+03 -8.190218E+03
       192   4 -5.950089E+05 -1.688979E+02 -3.198260E+03  2.155854E+04 -2.510491E+03 -1.209858E+04
       192   5 -5.948823E+05  7.491814E+01 -1.821612E+03  1.161150E+04 -1.608827E+03 -1.016005E+04
       192   6 -5.950036E+05  1.127458E+02 -1.101627E+03  2.155794E+04 -7.079124E+02 -8.187053E+03
       192   7 -8.634677E+05 -6.616855E+04 -6.451090E+04  2.115651E+04 -1.083084E+03 -1.209599E+04
       192   8 -8.241537E+05 -5.630614E+04 -5.426605E+04  1.121732E+04 -1.560897E+02 -1.015718E+04
       192   9 -7.850900E+05 -4.665416E+04 -4.469562E+04  2.117205E+04  7.702129E+02 -8.183888E+03
       192  10 -3.264831E+05  6.582559E+04  5.810937E+04  2.196066E+04  5.874720E-10 -2.100148E-09
       192  11 -3.655622E+05  5.645220E+04  5.061918E+04  1.200578E+04 -4.240214E-09 -2.532715E-09
       192  12 -4.048838E+05  4.687706E+04  4.248986E+04  2.194391E+04 -5.407778E-09 -8.061838E-10
       192  13 -5.950089E+05 -1.690568E+02 -3.198547E+03  2.155851E+04  1.100702E-09 -1.439465E-09
       192  14 -5.948824E+05  7.480663E+01 -1.821811E+03  1.161149E+04 -3.585667E-10 -5.678431E-09
       192  15 -5.950037E+05  1.126737E+02 -1.101754E+03  2.155793E+04  4.035901E-09 -3.186523E-09
       192  16 -8.634678E+05 -6.616871E+04 -6.451118E+04  2.115650E+04  1.464993E-09 -2.679854E-09
       192  17 -8.241537E+05 -5.630625E+04 -5.426625E+04  1.121732E+04  1.015154E-09  4.912459E-09
       192  18 -7.850900E+05 -4.665424E+04 -4.469575E+04  2.117205E+04  5.898438E-09  7.770490E-09
       192  19 -3.264831E+05  6.582575E+04  5.810968E+04  2.196070E+04  3.938510E+03  1.210117E+04
       192  20 -3.655622E+05  5.645232E+04  5.061939E+04  1.200581E+04  3.062096E+03  1.016293E+04
       192  21 -4.048838E+05  4.687714E+04  4.249000E+04  2.194393E+04  2.186487E+03  8.190218E+03
       192  22 -5.950089E+05 -1.688979E+02 -3.198260E+03  2.155854E+04  2.510491E+03  1.209858E+04
       192  23 -5.948823E+05  7.491814E+01 -1.821612E+03  1.161150E+04  1.608827E+03  1.016005E+04
       192  24 -5.950036E+05  1.127458E+02 -1.101627E+03  2.155794E+04  7.079124E+02  8.187053E+03
       192  25 -8.634677E+05 -6.616855E+04 -6.451090E+04  2.115651E+04  1.083084E+03  1.209599E+04
       192  26 -8.241537E+05 -5.630614E+04 -5.426605E+04  1.121732E+04  1.560897E+02  1.015718E+04
       192  27 -7.850900E+05 -4.665416E+04 -4.469562E+04  2.117205E+04 -7.702129E+02  8.183888E+03
       193   1 -4.416208E+05  3.776355E+04  3.407012E+04  2.186275E+04 -2.004132E+03 -7.033911E+03
       193   2 -4.809826E+05  2.807192E+04  2.542205E+04  1.178575E+04 -1.699096E+03 -5.051385E+03
       193   3 -5.204749E+05  1.844770E+04  1.656747E+04  2.171701E+04 -1.394435E+03 -3.064878E+03
       193   4 -5.949749E+05  8.321067E+01 -8.857203E+02  2.158370E+04 -5.318590E+02 -7.030647E+03
       193   5 -5.949075E+05  6.208737E+01 -6.314343E+02  1.157942E+04 -2.239698E+02 -5.048000E+03
       193   6 -5.949725E+05  1.079549E+02 -5.856214E+02  2.158365E+04  8.356321E+01 -3.061367E+03
       193   7 -7.483072E+05 -3.759875E+04 -3.584308E+04  2.130470E+04  9.400536E+02 -7.027384E+03
       193   8 -7.088203E+05 -2.794865E+04 -2.668576E+04  1.137313E+04  1.250888E+03 -5.044616E+03
       193   9 -6.694649E+05 -1.823217E+04 -1.773907E+04  2.145029E+04  1.561385E+03 -3.057855E+03
       193  10 -4.416208E+05  3.776349E+04  3.407002E+04  2.186274E+04 -7.653512E-09 -4.704536E-09
       193  11 -4.809826E+05  2.807189E+04  2.542200E+04  1.178574E+04 -1.760558E-09  2.386084E-09
       193  12 -5.204749E+05  1.844769E+04  1.656745E+04  2.171701E+04  3.078737E-09  1.626375E-09
       193  13 -5.949750E+05  8.315753E+01 -8.858137E+02  2.158370E+04 -9.676490E-10 -2.449477E-09
       193  14 -5.949075E+05  6.206000E+01 -6.314823E+02  1.157942E+04 -2.367258E-09 -7.472491E-09
       193  15 -5.949725E+05  1.079448E+02 -5.856390E+02  2.158365E+04  1.903881E-09 -4.513793E-09
       193  16 -7.483073E+05 -3.759881E+04 -3.584318E+04  2.130471E+04  8.661227E-09  3.927061E-09
       193  17 -7.088203E+05 -2.794868E+04 -2.668581E+04  1.137314E+04  9.663964E-10  9.281891E-09
       193  18 -6.694649E+05 -1.823218E+04 -1.773909E+04  2.145030E+04 -3.869796E-09  2.067988E-09
       193  19 -4.416208E+05  3.776355E+04  3.407012E+04  2.186275E+04  2.004132E+03  7.033911E+03
       193  20 -4.809826E+05  2.807192E+04  2.542205E+04  1.178575E+04  1.699096E+03  5.051385E+03
       193  21 -5.204749E+05  1.844770E+04  1.656747E+04  2.171701E+04  1.394435E+03  3.064878E+03
       193  22 -5.949749E+05  8.321067E+01 -8.857203E+02  2.158370E+04  5.318590E+02  7.030647E+03
       193  23 -5.949075E+05  6.208737E+01 -6.314343E+02  1.157942E+04  2.239698E+02  5.048000E+03
       193  24 -5.949725E+05  1.079549E+02 -5.856214E+02  2.158365E+04 -8.356321E+01  3.061367E+03
       193  25 -7.483072E+05 -3.759875E+04 -3.584308E+04  2.130470E+04 -9.400536E+02  7.027384E+03
       193  26 -7.088203E+05 -2.794865E+04 -2.668576E+04  1.137313E+04 -1.250888E+03  5.044616E+03
       193  27 -6.694649E+05 -1.823217E+04 -1.773907E+04  2.145029E+04 -1.561385E+03  3.057855E+03
       194   1 -5.573834E+05  9.328992E+03  7.851204E+03  2.164896E+04 -1.287967E+03 -1.907209E+03
       194   2 -5.968024E+05 -3.991014E+02 -1.310401E+03  1.154514E+04 -8.591569E+02  8.223311E+01
       194   3 -6.363809E+05 -1.007349E+04 -1.076485E+04  2.148765E+04 -4.303726E+02  2.070614E+03
       194   4 -5.949779E+05  1.086481E+02 -6.311966E+02  2.159204E+04  1.907867E+02 -1.903658E+03
       194   5 -5.948973E+05  6.945918E+01 -8.746097E+02  1.156892E+04  6.187543E+02  8.577678E+01
       194   6 -5.949781E+05  8.408019E+01 -1.410358E+03  2.159211E+04  1.046723E+03  2.074157E+03
       194   7 -6.325711E+05 -9.111792E+03 -9.113679E+03  2.153513E+04  1.669451E+03 -1.900108E+03
       194   8 -5.929922E+05  5.380206E+02 -4.388109E+02  1.159269E+04  2.096670E+03  8.932056E+01
       194   9 -5.535736E+05  1.024153E+04  7.944031E+03  2.169657E+04  2.523917E+03  2.077700E+03
       194  10 -5.573834E+05  9.328988E+03  7.851194E+03  2.164896E+04  4.288023E-09  3.100387E-09
       194  11 -5.968024E+05 -3.991016E+02 -1.310402E+03  1.154514E+04  3.738310E-09 -2.784695E-09
       194  12 -6.363809E+05 -1.007349E+04 -1.076486E+04  2.148765E+04 -3.868695E-10 -1.812257E-09
       194  13 -5.949779E+05  1.086442E+02 -6.312035E+02  2.159204E+04  1.912220E-09  3.861468E-09
       194  14 -5.948973E+05  6.945907E+01 -8.746105E+02  1.156892E+04 -1.165585E-09 -4.013299E-09
       194  15 -5.949781E+05  8.407528E+01 -1.410368E+03  2.159210E+04  4.194250E-09 -4.975563E-09
       194  16 -6.325711E+05 -9.111797E+03 -9.113691E+03  2.153513E+04 -6.016404E-09  2.072624E-09
       194  17 -5.929922E+05  5.380194E+02 -4.388191E+02  1.159269E+04 -4.257715E-09 -8.942689E-09
       194  18 -5.535736E+05  1.024152E+04  7.944011E+03  2.169656E+04  1.620269E-09 -8.028691E-09
       194  19 -5.573834E+05  9.328992E+03  7.851204E+03  2.164896E+04  1.287967E+03  1.907209E+03
       194  20 -5.968024E+05 -3.991014E+02 -1.310401E+03  1.154514E+04  8.591569E+02 -8.223311E+01
       194  21 -6.363809E+05 -1.007349E+04 -1.076485E+04  2.148765E+04  4.303726E+02 -2.070614E+03
       194  22 -5.949779E+05  1.086481E+02 -6.311966E+02  2.159204E+04 -1.907867E+02  1.903658E+03
       194  23 -5.948973E+05  6.945918E+01 -8.746097E+02  1.156892E+04 -6.187543E+02 -8.577678E+01
       194  24 -5.949781E+05  8.408019E+01 -1.410358E+03  2.159211E+04 -1.046723E+03 -2.074157E+03
       194  25 -6.325711E+05 -9.111792E+03 -9.113679E+03  2.153513E+04 -1.669451E+03  1.900108E+03
       194  26 -5.929922E+05  5.380206E+02 -4.388109E+02  1.159269E+04 -2.096670E+03 -8.932056E+01
       194  27 -5.535736E+05  1.024153E+04  7.944031E+03  2.169657E+04 -2.523917E+03 -2.077700E+03
       195   1 -6.733353E+05 -1.914244E+04 -1.984187E+04  2.132969E+04 -1.490427E+02  3.231033E+03
       195   2 -7.125446E+05 -2.883478E+04 -3.002788E+04  1.133074E+04  1.407537E+03  5.216910E+03
       195   3 -7.521695E+05 -3.894710E+04 -4.135804E+04  2.133624E+04  2.964455E+03  7.177082E+03
       195   4 -5.950351E+05  1.346042E+02 -1.817839E+03  2.158239E+04  1.334139E+03  3.234550E+03
       195   5 -5.948301E+05  1.112790E+02 -3.102724E+03  1.158082E+04  2.871847E+03  5.220259E+03
       195   6 -5.950382E+05 -3.284050E+02 -5.518216E+03  2.158347E+04  4.409991E+03  7.180271E+03
       195   7 -5.167291E+05  1.941122E+04  1.620579E+04  2.183511E+04  2.817506E+03  3.238069E+03
       195   8 -4.771028E+05  2.905638E+04  2.382153E+04  1.183094E+04  4.336433E+03  5.223610E+03
       195   9 -4.378840E+05  3.828858E+04  3.032000E+04  2.183075E+04  5.855890E+03  7.183461E+03
       195  10 -6.733353E+05 -1.914245E+04 -1.984189E+04  2.132969E+04 -2.411004E-09 -1.025251E-09
       195  11 -7.125447E+05 -2.883481E+04 -3.002793E+04  1.133074E+04 -1.248766E-09 -5.006746E-09
       195  12 -7.521695E+05 -3.894716E+04 -4.135815E+04  2.133622E+04  5.059517E-09  1.806779E-10
       195  13 -5.950351E+05  1.345925E+02 -1.817862E+03  2.158238E+04  1.984846E-10 -2.160120E-09
       195  14 -5.948302E+05  1.112475E+02 -3.102791E+03  1.158081E+04  1.531938E-09  9.961098E-10
       195  15 -5.950383E+05 -3.284655E+02 -5.518349E+03  2.158344E+04  1.495671E-09  3.899937E-09
       195  16 -5.167291E+05  1.941120E+04  1.620576E+04  2.183510E+04  3.779494E-09  5.023844E-09
       195  17 -4.771028E+05  2.905634E+04  2.382144E+04  1.183092E+04  1.085484E-09 -1.279370E-09
       195  18 -4.378840E+05  3.828852E+04  3.031984E+04  2.183072E+04 -2.719553E-09  1.155942E-09
       195  19 -6.733353E+05 -1.914244E+04 -1.984187E+04  2.132969E+04  1.490427E+02 -3.231033E+03
       195  20 -7.125446E+05 -2.883478E+04 -3.002788E+04  1.133074E+04 -1.407537E+03 -5.216910E+03
       195  21 -7.521695E+05 -3.894710E+04 -4.135804E+04  2.133624E+04 -2.964455E+03 -7.177082E+03
       195  22 -5.950351E+05  1.346042E+02 -1.817839E+03  2.158239E+04 -1.334139E+03 -3.234550E+03
       195  23 -5.948301E+05  1.112790E+02 -3.102724E+03  1.158082E+04 -2.871847E+03 -5.220259E+03
       195  24 -5.950382E+05 -3.284050E+02 -5.518216E+03  2.158347E+04 -4.409991E+03 -7.180271E+03
       195  25 -5.167291E+05  1.941122E+04  1.620579E+04  2.183511E+04 -2.817506E+03 -3.238069E+03
       195  26 -4.771028E+05  2.905638E+04  2.382153E+04  1.183094E+04 -4.336433E+03 -5.223610E+03
       195  27 -4.378840E+05  3.828858E+04  3.032000E+04  2.183075E+04 -5.855890E+03 -7.183461E+03
       196   1 -7.894031E+05 -4.724804E+04 -5.160048E+04  2.013883E+04  3.931429E+03  8.385970E+03
       196   2 -8.272745E+05 -5.679079E+04 -6.561325E+04  1.177557E+04  1.049017E+04  1.029588E+04
       196   3 -8.677890E+05 -7.317800E+04 -8.562924E+04  2.329027E+04  1.705012E+04  1.172305E+04
       196   4 -5.955229E+05  4.553937E+02 -7.148591E+03  2.155060E+04  5.520779E+03  8.389374E+03
       196   5 -5.942365E+05  5.184915E+02 -1.228299E+04  1.161885E+04  1.172280E+04  1.029825E+04
       196   6 -5.955314E+05 -6.199183E+03 -2.317086E+04  2.156469E+04  1.792643E+04  1.172444E+04
       196   7 -4.016079E+05  4.815621E+04  3.730083E+04  2.296280E+04  7.110621E+03  8.392785E+03
       196   8 -3.611481E+05  5.782400E+04  4.104371E+04  1.146204E+04  1.295589E+04  1.030062E+04
       196   9 -3.232050E+05  6.077447E+04  3.928264E+04  1.983830E+04  1.880313E+04  1.172582E+04
       196  10 -7.894032E+05 -4.724812E+04 -5.160064E+04  2.013880E+04  7.694869E-09  1.718815E-09
       196  11 -8.272746E+05 -5.679093E+04 -6.561366E+04  1.177549E+04  2.355306E-09  5.167073E-09
       196  12 -8.677893E+05 -7.317822E+04 -8.563005E+04  2.329011E+04 -7.459935E-10 -2.521015E-10
       196  13 -5.955230E+05  4.553099E+02 -7.148780E+03  2.155056E+04 -5.237528E-10 -6.114686E-09
       196  14 -5.942367E+05  5.183407E+02 -1.228345E+04  1.161875E+04  9.384982E-10  7.945328E-09
       196  15 -5.955318E+05 -6.199417E+03 -2.317173E+04  2.156452E+04  2.548529E-09  2.389552E-09
       196  16 -4.016079E+05  4.815613E+04  3.730060E+04  2.296275E+04 -6.417584E-09 -1.653707E-09
       196  17 -3.611483E+05  5.782384E+04  4.104320E+04  1.146193E+04 -1.146092E-09 -7.365611E-09
       196  18 -3.232054E+05  6.077423E+04  3.928171E+04  1.983812E+04  7.937060E-10 -2.157545E-10
       196  19 -7.894031E+05 -4.724804E+04 -5.160048E+04  2.013883E+04 -3.931429E+03 -8.385970E+03
       196  20 -8.272745E+05 -5.679079E+04 -6.561325E+04  1.177557E+04 -1.049017E+04 -1.029588E+04
       196  21 -8.677890E+05 -7.317800E+04 -8.562924E+04  2.329027E+04 -1.705012E+04 -1.172305E+04
       196  22 -5.955229E+05  4.553937E+02 -7.148591E+03  2.155060E+04 -5.520779E+03 -8.389374E+03
       196  23 -5.942365E+05  5.184915E+02 -1.228299E+04  1.161885E+04 -1.172280E+04 -1.029825E+04
       196  24 -5.955314E+05 -6.199183E+03 -2.317086E+04  2.156469E+04 -1.792643E+04 -1.172444E+04
       196  25 -4.016079E+05  4.815621E+04  3.730083E+04  2.296280E+04 -7.110621E+03 -8.392785E+03
       196  26 -3.611481E+05  5.782400E+04  4.104371E+04  1.146204E+04 -1.295589E+04 -1.030062E+04
       196  27 -3.232050E+05  6.077447E+04  3.928264E+04  1.983830E+04 -1.880313E+04 -1.172582E+04
       197   1 -9.096908E+05 -7.114639E+04 -9.934673E+04  8.069641E+03  1.823994E+04  1.399504E+04
       197   2 -9.347365E+05 -8.011230E+04 -1.278837E+05  2.312538E+04  5.118614E+04  1.435819E+04
       197   3 -9.876840E+05 -1.833620E+05 -2.014684E+05  5.760348E+04  8.414645E+04  4.805116E+03
       197   4 -6.008709E+05  4.837214E+03 -2.882273E+04  2.140801E+04  2.215430E+04  1.400273E+04
       197   5 -5.875826E+05  5.315925E+03 -4.793771E+04  1.177807E+04  4.774244E+04  1.435031E+04
       197   6 -6.009042E+05 -8.718421E+04 -1.069707E+05  2.157239E+04  7.334729E+04  4.781514E+03
       197   7 -2.919620E+05  8.081485E+04  4.169518E+04  3.475303E+04  2.607059E+04  1.401059E+04
       197   8 -2.403166E+05  9.073622E+04  3.200036E+04  4.242980E+02  4.429683E+04  1.434256E+04
       197   9 -2.139846E+05  8.987579E+03 -1.248270E+04 -1.448129E+04  6.254139E+04  4.759175E+03
       197  10 -9.096912E+05 -7.114669E+04 -9.934773E+04  8.069436E+03  2.953383E-09  1.060042E-10
       197  11 -9.347394E+05 -8.011323E+04 -1.278890E+05  2.312479E+04  3.170677E-09 -2.662683E-10
       197  12 -9.876917E+05 -1.833640E+05 -2.014818E+05  5.760315E+04  1.640789E-09  5.154700E-09
       197  13 -6.008714E+05  4.836872E+03 -2.882402E+04  2.140776E+04 -3.064743E-11  2.246316E-09
       197  14 -5.875851E+05  5.315091E+03 -4.794238E+04  1.177752E+04 -4.873044E-10  2.470021E-09
       197  15 -6.009099E+05 -8.718568E+04 -1.069808E+05  2.157211E+04  1.320234E-09  2.467306E-09
       197  16 -2.919628E+05  8.081446E+04  4.169353E+04  3.475273E+04 -1.737554E-10  2.983865E-09
       197  17 -2.403188E+05  9.073548E+04  3.199629E+04  4.237864E+02 -4.526364E-09  5.307975E-09
       197  18 -2.139888E+05  8.986504E+03 -1.249010E+04 -1.448153E+04 -2.692434E-09 -2.011300E-10
       197  19 -9.096908E+05 -7.114639E+04 -9.934673E+04  8.069641E+03 -1.823994E+04 -1.399504E+04
       197  20 -9.347365E+05 -8.011230E+04 -1.278837E+05  2.312538E+04 -5.118614E+04 -1.435819E+04
       197  21 -9.876840E+05 -1.833620E+05 -2.014684E+05  5.760348E+04 -8.414645E+04 -4.805116E+03
       197  22 -6.008709E+05  4.837214E+03 -2.882273E+04  2.140801E+04 -2.215430E+04 -1.400273E+04
       197  23 -5.875826E+05  5.315925E+03 -4.793771E+04  1.177807E+04 -4.774244E+04 -1.435031E+04
       197  24 -6.009042E+05 -8.718421E+04 -1.069707E+05  2.157239E+04 -7.334729E+04 -4.781514E+03
       197  25 -2.919620E+05  8.081485E+04  4.169518E+04  3.475303E+04 -2.607059E+04 -1.401059E+04
       197  26 -2.403166E+05  9.073622E+04  3.200036E+04  4.242980E+02 -4.429683E+04 -1.434256E+04
       197  27 -2.139846E+05  8.987579E+03 -1.248270E+04 -1.448129E+04 -6.254139E+04 -4.759175E+03
