    1C
    1UUSER                                                              
    1UDATE              11.october.2022                                 
    1UTIME              17:53:31                                        
    1UHOST                                                              
    1UPGM               CalculiX                                        
    1UVERSION           Version 2.20                             
    1UCOMPILETIME       Sun Jul 31 18:08:37 CEST 2022                    
    1UDIR                                                               
    1UDBN                                                               
    1UMAT    1MESH_MATERIAL                                             
    2C                           382                                     1
 -1         1 0.00000E+00 0.00000E+00 0.00000E+00
 -1         3 3.33333E-02 0.00000E+00 0.00000E+00
 -1         5 6.66667E-02 0.00000E+00 0.00000E+00
 -1         8 0.00000E+00 6.25000E-03 0.00000E+00
 -1         9 1.66667E-02 6.25000E-03 0.00000E+00
 -1        10 3.33333E-02 6.25000E-03 0.00000E+00
 -1        12 6.66667E-02 6.25000E-03 0.00000E+00
 -1        16 1.66667E-02 1.25000E-02 0.00000E+00
 -1        17 3.33333E-02 1.25000E-02 0.00000E+00
 -1        18 5.00000E-02 1.25000E-02 0.00000E+00
 -1        19 6.66667E-02 1.25000E-02 0.00000E+00
 -1        20 8.33333E-02 1.25000E-02 0.00000E+00
 -1        21 1.00000E-01 1.25000E-02 0.00000E+00
 -1        24 3.33333E-02 1.87500E-02 0.00000E+00
 -1        25 5.00000E-02 1.87500E-02 0.00000E+00
 -1        26 6.66667E-02 1.87500E-02 0.00000E+00
 -1        27 8.33333E-02 1.87500E-02 0.00000E+00
 -1        28 1.00000E-01 1.87500E-02 0.00000E+00
 -1        32 5.00000E-02 2.50000E-02 0.00000E+00
 -1        33 6.66667E-02 2.50000E-02 0.00000E+00
 -1        34 8.33333E-02 2.50000E-02 0.00000E+00
 -1        35 1.00000E-01 2.50000E-02 0.00000E+00
 -1        51 0.00000E+00 1.04167E-03 0.00000E+00
 -1        52 0.00000E+00 2.08333E-03 0.00000E+00
 -1        53 0.00000E+00 3.12500E-03 0.00000E+00
 -1        54 0.00000E+00 4.16667E-03 0.00000E+00
 -1        55 0.00000E+00 5.20833E-03 0.00000E+00
 -1        56 1.04167E-03 3.90630E-04 0.00000E+00
 -1        57 2.08333E-03 7.81250E-04 0.00000E+00
 -1        58 3.12500E-03 1.17188E-03 0.00000E+00
 -1        59 4.16667E-03 1.56250E-03 0.00000E+00
 -1        60 5.20833E-03 1.95312E-03 0.00000E+00
 -1        61 6.25000E-03 2.34375E-03 0.00000E+00
 -1        62 7.29167E-03 2.73438E-03 0.00000E+00
 -1        63 8.33333E-03 3.12500E-03 0.00000E+00
 -1        64 9.37500E-03 3.51563E-03 0.00000E+00
 -1        65 1.04167E-02 3.90625E-03 0.00000E+00
 -1        66 1.14583E-02 4.29688E-03 0.00000E+00
 -1        67 1.25000E-02 4.68750E-03 0.00000E+00
 -1        68 1.35417E-02 5.07813E-03 0.00000E+00
 -1        69 1.45833E-02 5.46875E-03 0.00000E+00
 -1        70 1.56250E-02 5.85938E-03 0.00000E+00
 -1       121 3.33333E-02 1.04167E-03 0.00000E+00
 -1       122 3.33333E-02 2.08333E-03 0.00000E+00
 -1       123 3.33333E-02 3.12500E-03 0.00000E+00
 -1       124 3.33333E-02 4.16667E-03 0.00000E+00
 -1       125 3.33333E-02 5.20833E-03 0.00000E+00
 -1       191 6.66667E-02 1.04167E-03 0.00000E+00
 -1       192 6.66667E-02 2.08333E-03 0.00000E+00
 -1       193 6.66667E-02 3.12500E-03 0.00000E+00
 -1       194 6.66667E-02 4.16667E-03 0.00000E+00
 -1       195 6.66667E-02 5.20833E-03 0.00000E+00
 -1       271 1.04167E-03 6.64063E-03 0.00000E+00
 -1       272 2.08333E-03 7.03125E-03 0.00000E+00
 -1       273 3.12500E-03 7.42188E-03 0.00000E+00
 -1       274 4.16667E-03 7.81250E-03 0.00000E+00
 -1       275 5.20833E-03 8.20313E-03 0.00000E+00
 -1       276 6.25000E-03 8.59375E-03 0.00000E+00
 -1       277 7.29167E-03 8.98438E-03 0.00000E+00
 -1       278 8.33333E-03 9.37500E-03 0.00000E+00
 -1       279 9.37500E-03 9.76562E-03 0.00000E+00
 -1       280 1.04167E-02 1.01562E-02 0.00000E+00
 -1       281 1.14583E-02 1.05469E-02 0.00000E+00
 -1       282 1.25000E-02 1.09375E-02 0.00000E+00
 -1       283 1.35417E-02 1.13281E-02 0.00000E+00
 -1       284 1.45833E-02 1.17188E-02 0.00000E+00
 -1       285 1.56250E-02 1.21094E-02 0.00000E+00
 -1       301 1.66667E-02 7.29167E-03 0.00000E+00
 -1       302 1.66667E-02 8.33333E-03 0.00000E+00
 -1       303 1.66667E-02 9.37500E-03 0.00000E+00
 -1       304 1.66667E-02 1.04167E-02 0.00000E+00
 -1       305 1.66667E-02 1.14583E-02 0.00000E+00
 -1       306 1.77083E-02 6.64063E-03 0.00000E+00
 -1       307 1.87500E-02 7.03125E-03 0.00000E+00
 -1       308 1.97917E-02 7.42188E-03 0.00000E+00
 -1       309 2.08333E-02 7.81250E-03 0.00000E+00
 -1       310 2.18750E-02 8.20313E-03 0.00000E+00
 -1       311 2.29167E-02 8.59375E-03 0.00000E+00
 -1       312 2.39583E-02 8.98438E-03 0.00000E+00
 -1       313 2.50000E-02 9.37500E-03 0.00000E+00
 -1       314 2.60417E-02 9.76562E-03 0.00000E+00
 -1       315 2.70833E-02 1.01562E-02 0.00000E+00
 -1       316 2.81250E-02 1.05469E-02 0.00000E+00
 -1       317 2.91667E-02 1.09375E-02 0.00000E+00
 -1       318 3.02083E-02 1.13281E-02 0.00000E+00
 -1       319 3.12500E-02 1.17188E-02 0.00000E+00
 -1       320 3.22917E-02 1.21094E-02 0.00000E+00
 -1       336 3.33333E-02 7.29167E-03 0.00000E+00
 -1       337 3.33333E-02 8.33333E-03 0.00000E+00
 -1       338 3.33333E-02 9.37500E-03 0.00000E+00
 -1       339 3.33333E-02 1.04167E-02 0.00000E+00
 -1       340 3.33333E-02 1.14583E-02 0.00000E+00
 -1       406 6.66667E-02 7.29167E-03 0.00000E+00
 -1       407 6.66667E-02 8.33333E-03 0.00000E+00
 -1       408 6.66667E-02 9.37500E-03 0.00000E+00
 -1       409 6.66667E-02 1.04167E-02 0.00000E+00
 -1       410 6.66667E-02 1.14583E-02 0.00000E+00
 -1       521 1.77083E-02 1.28906E-02 0.00000E+00
 -1       522 1.87500E-02 1.32813E-02 0.00000E+00
 -1       523 1.97917E-02 1.36719E-02 0.00000E+00
 -1       524 2.08333E-02 1.40625E-02 0.00000E+00
 -1       525 2.18750E-02 1.44531E-02 0.00000E+00
 -1       526 2.29167E-02 1.48437E-02 0.00000E+00
 -1       527 2.39583E-02 1.52344E-02 0.00000E+00
 -1       528 2.50000E-02 1.56250E-02 0.00000E+00
 -1       529 2.60417E-02 1.60156E-02 0.00000E+00
 -1       530 2.70833E-02 1.64062E-02 0.00000E+00
 -1       531 2.81250E-02 1.67969E-02 0.00000E+00
 -1       532 2.91667E-02 1.71875E-02 0.00000E+00
 -1       533 3.02083E-02 1.75781E-02 0.00000E+00
 -1       534 3.12500E-02 1.79687E-02 0.00000E+00
 -1       535 3.22917E-02 1.83594E-02 0.00000E+00
 -1       536 3.43750E-02 1.25000E-02 0.00000E+00
 -1       537 3.54167E-02 1.25000E-02 0.00000E+00
 -1       538 3.64583E-02 1.25000E-02 0.00000E+00
 -1       539 3.75000E-02 1.25000E-02 0.00000E+00
 -1       540 3.85417E-02 1.25000E-02 0.00000E+00
 -1       541 3.95833E-02 1.25000E-02 0.00000E+00
 -1       542 4.06250E-02 1.25000E-02 0.00000E+00
 -1       543 4.16667E-02 1.25000E-02 0.00000E+00
 -1       544 4.27083E-02 1.25000E-02 0.00000E+00
 -1       545 4.37500E-02 1.25000E-02 0.00000E+00
 -1       546 4.47917E-02 1.25000E-02 0.00000E+00
 -1       547 4.58333E-02 1.25000E-02 0.00000E+00
 -1       548 4.68750E-02 1.25000E-02 0.00000E+00
 -1       549 4.79167E-02 1.25000E-02 0.00000E+00
 -1       550 4.89583E-02 1.25000E-02 0.00000E+00
 -1       551 3.33333E-02 1.35417E-02 0.00000E+00
 -1       552 3.33333E-02 1.45833E-02 0.00000E+00
 -1       553 3.33333E-02 1.56250E-02 0.00000E+00
 -1       554 3.33333E-02 1.66667E-02 0.00000E+00
 -1       555 3.33333E-02 1.77083E-02 0.00000E+00
 -1       556 3.43750E-02 1.28906E-02 0.00000E+00
 -1       557 3.54167E-02 1.32813E-02 0.00000E+00
 -1       558 3.64583E-02 1.36719E-02 0.00000E+00
 -1       559 3.75000E-02 1.40625E-02 0.00000E+00
 -1       560 3.85417E-02 1.44531E-02 0.00000E+00
 -1       561 3.95833E-02 1.48437E-02 0.00000E+00
 -1       562 4.06250E-02 1.52344E-02 0.00000E+00
 -1       563 4.16667E-02 1.56250E-02 0.00000E+00
 -1       564 4.27083E-02 1.60156E-02 0.00000E+00
 -1       565 4.37500E-02 1.64062E-02 0.00000E+00
 -1       566 4.47917E-02 1.67969E-02 0.00000E+00
 -1       567 4.58333E-02 1.71875E-02 0.00000E+00
 -1       568 4.68750E-02 1.75781E-02 0.00000E+00
 -1       569 4.79167E-02 1.79687E-02 0.00000E+00
 -1       570 4.89583E-02 1.83594E-02 0.00000E+00
 -1       571 5.10417E-02 1.25000E-02 0.00000E+00
 -1       572 5.20833E-02 1.25000E-02 0.00000E+00
 -1       573 5.31250E-02 1.25000E-02 0.00000E+00
 -1       574 5.41667E-02 1.25000E-02 0.00000E+00
 -1       575 5.52083E-02 1.25000E-02 0.00000E+00
 -1       576 5.62500E-02 1.25000E-02 0.00000E+00
 -1       577 5.72917E-02 1.25000E-02 0.00000E+00
 -1       578 5.83333E-02 1.25000E-02 0.00000E+00
 -1       579 5.93750E-02 1.25000E-02 0.00000E+00
 -1       580 6.04167E-02 1.25000E-02 0.00000E+00
 -1       581 6.14583E-02 1.25000E-02 0.00000E+00
 -1       582 6.25000E-02 1.25000E-02 0.00000E+00
 -1       583 6.35417E-02 1.25000E-02 0.00000E+00
 -1       584 6.45833E-02 1.25000E-02 0.00000E+00
 -1       585 6.56250E-02 1.25000E-02 0.00000E+00
 -1       586 5.00000E-02 1.35417E-02 0.00000E+00
 -1       587 5.00000E-02 1.45833E-02 0.00000E+00
 -1       588 5.00000E-02 1.56250E-02 0.00000E+00
 -1       589 5.00000E-02 1.66667E-02 0.00000E+00
 -1       590 5.00000E-02 1.77083E-02 0.00000E+00
 -1       591 5.10417E-02 1.28906E-02 0.00000E+00
 -1       592 5.20833E-02 1.32813E-02 0.00000E+00
 -1       593 5.31250E-02 1.36719E-02 0.00000E+00
 -1       594 5.41667E-02 1.40625E-02 0.00000E+00
 -1       595 5.52083E-02 1.44531E-02 0.00000E+00
 -1       596 5.62500E-02 1.48437E-02 0.00000E+00
 -1       597 5.72917E-02 1.52344E-02 0.00000E+00
 -1       598 5.83333E-02 1.56250E-02 0.00000E+00
 -1       599 5.93750E-02 1.60156E-02 0.00000E+00
 -1       600 6.04167E-02 1.64062E-02 0.00000E+00
 -1       601 6.14583E-02 1.67969E-02 0.00000E+00
 -1       602 6.25000E-02 1.71875E-02 0.00000E+00
 -1       603 6.35417E-02 1.75781E-02 0.00000E+00
 -1       604 6.45833E-02 1.79687E-02 0.00000E+00
 -1       605 6.56250E-02 1.83594E-02 0.00000E+00
 -1       606 6.77083E-02 1.25000E-02 0.00000E+00
 -1       607 6.87500E-02 1.25000E-02 0.00000E+00
 -1       608 6.97917E-02 1.25000E-02 0.00000E+00
 -1       609 7.08333E-02 1.25000E-02 0.00000E+00
 -1       610 7.18750E-02 1.25000E-02 0.00000E+00
 -1       611 7.29167E-02 1.25000E-02 0.00000E+00
 -1       612 7.39583E-02 1.25000E-02 0.00000E+00
 -1       613 7.50000E-02 1.25000E-02 0.00000E+00
 -1       614 7.60417E-02 1.25000E-02 0.00000E+00
 -1       615 7.70833E-02 1.25000E-02 0.00000E+00
 -1       616 7.81250E-02 1.25000E-02 0.00000E+00
 -1       617 7.91667E-02 1.25000E-02 0.00000E+00
 -1       618 8.02083E-02 1.25000E-02 0.00000E+00
 -1       619 8.12500E-02 1.25000E-02 0.00000E+00
 -1       620 8.22917E-02 1.25000E-02 0.00000E+00
 -1       621 6.66667E-02 1.35417E-02 0.00000E+00
 -1       622 6.66667E-02 1.45833E-02 0.00000E+00
 -1       623 6.66667E-02 1.56250E-02 0.00000E+00
 -1       624 6.66667E-02 1.66667E-02 0.00000E+00
 -1       625 6.66667E-02 1.77083E-02 0.00000E+00
 -1       626 6.77083E-02 1.28906E-02 0.00000E+00
 -1       627 6.87500E-02 1.32813E-02 0.00000E+00
 -1       628 6.97917E-02 1.36719E-02 0.00000E+00
 -1       629 7.08333E-02 1.40625E-02 0.00000E+00
 -1       630 7.18750E-02 1.44531E-02 0.00000E+00
 -1       631 7.29167E-02 1.48437E-02 0.00000E+00
 -1       632 7.39583E-02 1.52344E-02 0.00000E+00
 -1       633 7.50000E-02 1.56250E-02 0.00000E+00
 -1       634 7.60417E-02 1.60156E-02 0.00000E+00
 -1       635 7.70833E-02 1.64062E-02 0.00000E+00
 -1       636 7.81250E-02 1.67969E-02 0.00000E+00
 -1       637 7.91667E-02 1.71875E-02 0.00000E+00
 -1       638 8.02083E-02 1.75781E-02 0.00000E+00
 -1       639 8.12500E-02 1.79687E-02 0.00000E+00
 -1       640 8.22917E-02 1.83594E-02 0.00000E+00
 -1       656 8.33333E-02 1.35417E-02 0.00000E+00
 -1       657 8.33333E-02 1.45833E-02 0.00000E+00
 -1       658 8.33333E-02 1.56250E-02 0.00000E+00
 -1       659 8.33333E-02 1.66667E-02 0.00000E+00
 -1       660 8.33333E-02 1.77083E-02 0.00000E+00
 -1       661 8.43750E-02 1.28906E-02 0.00000E+00
 -1       662 8.54167E-02 1.32813E-02 0.00000E+00
 -1       663 8.64583E-02 1.36719E-02 0.00000E+00
 -1       664 8.75000E-02 1.40625E-02 0.00000E+00
 -1       665 8.85417E-02 1.44531E-02 0.00000E+00
 -1       666 8.95833E-02 1.48437E-02 0.00000E+00
 -1       667 9.06250E-02 1.52344E-02 0.00000E+00
 -1       668 9.16667E-02 1.56250E-02 0.00000E+00
 -1       669 9.27083E-02 1.60156E-02 0.00000E+00
 -1       670 9.37500E-02 1.64062E-02 0.00000E+00
 -1       671 9.47917E-02 1.67969E-02 0.00000E+00
 -1       672 9.58333E-02 1.71875E-02 0.00000E+00
 -1       673 9.68750E-02 1.75781E-02 0.00000E+00
 -1       674 9.79167E-02 1.79687E-02 0.00000E+00
 -1       675 9.89583E-02 1.83594E-02 0.00000E+00
 -1       676 1.00000E-01 1.35417E-02 0.00000E+00
 -1       677 1.00000E-01 1.45833E-02 0.00000E+00
 -1       678 1.00000E-01 1.56250E-02 0.00000E+00
 -1       679 1.00000E-01 1.66667E-02 0.00000E+00
 -1       680 1.00000E-01 1.77083E-02 0.00000E+00
 -1       771 3.43750E-02 1.91406E-02 0.00000E+00
 -1       772 3.54167E-02 1.95312E-02 0.00000E+00
 -1       773 3.64583E-02 1.99219E-02 0.00000E+00
 -1       774 3.75000E-02 2.03125E-02 0.00000E+00
 -1       775 3.85417E-02 2.07031E-02 0.00000E+00
 -1       776 3.95833E-02 2.10938E-02 0.00000E+00
 -1       777 4.06250E-02 2.14844E-02 0.00000E+00
 -1       778 4.16667E-02 2.18750E-02 0.00000E+00
 -1       779 4.27083E-02 2.22656E-02 0.00000E+00
 -1       780 4.37500E-02 2.26563E-02 0.00000E+00
 -1       781 4.47917E-02 2.30469E-02 0.00000E+00
 -1       782 4.58333E-02 2.34375E-02 0.00000E+00
 -1       783 4.68750E-02 2.38281E-02 0.00000E+00
 -1       784 4.79167E-02 2.42187E-02 0.00000E+00
 -1       785 4.89583E-02 2.46094E-02 0.00000E+00
 -1       786 5.10417E-02 1.87500E-02 0.00000E+00
 -1       787 5.20833E-02 1.87500E-02 0.00000E+00
 -1       788 5.31250E-02 1.87500E-02 0.00000E+00
 -1       789 5.41667E-02 1.87500E-02 0.00000E+00
 -1       790 5.52083E-02 1.87500E-02 0.00000E+00
 -1       791 5.62500E-02 1.87500E-02 0.00000E+00
 -1       792 5.72917E-02 1.87500E-02 0.00000E+00
 -1       793 5.83333E-02 1.87500E-02 0.00000E+00
 -1       794 5.93750E-02 1.87500E-02 0.00000E+00
 -1       795 6.04167E-02 1.87500E-02 0.00000E+00
 -1       796 6.14583E-02 1.87500E-02 0.00000E+00
 -1       797 6.25000E-02 1.87500E-02 0.00000E+00
 -1       798 6.35417E-02 1.87500E-02 0.00000E+00
 -1       799 6.45833E-02 1.87500E-02 0.00000E+00
 -1       800 6.56250E-02 1.87500E-02 0.00000E+00
 -1       801 5.00000E-02 1.97917E-02 0.00000E+00
 -1       802 5.00000E-02 2.08333E-02 0.00000E+00
 -1       803 5.00000E-02 2.18750E-02 0.00000E+00
 -1       804 5.00000E-02 2.29167E-02 0.00000E+00
 -1       805 5.00000E-02 2.39583E-02 0.00000E+00
 -1       806 5.10417E-02 1.91406E-02 0.00000E+00
 -1       807 5.20833E-02 1.95312E-02 0.00000E+00
 -1       808 5.31250E-02 1.99219E-02 0.00000E+00
 -1       809 5.41667E-02 2.03125E-02 0.00000E+00
 -1       810 5.52083E-02 2.07031E-02 0.00000E+00
 -1       811 5.62500E-02 2.10938E-02 0.00000E+00
 -1       812 5.72917E-02 2.14844E-02 0.00000E+00
 -1       813 5.83333E-02 2.18750E-02 0.00000E+00
 -1       814 5.93750E-02 2.22656E-02 0.00000E+00
 -1       815 6.04167E-02 2.26563E-02 0.00000E+00
 -1       816 6.14583E-02 2.30469E-02 0.00000E+00
 -1       817 6.25000E-02 2.34375E-02 0.00000E+00
 -1       818 6.35417E-02 2.38281E-02 0.00000E+00
 -1       819 6.45833E-02 2.42187E-02 0.00000E+00
 -1       820 6.56250E-02 2.46094E-02 0.00000E+00
 -1       821 6.77083E-02 1.87500E-02 0.00000E+00
 -1       822 6.87500E-02 1.87500E-02 0.00000E+00
 -1       823 6.97917E-02 1.87500E-02 0.00000E+00
 -1       824 7.08333E-02 1.87500E-02 0.00000E+00
 -1       825 7.18750E-02 1.87500E-02 0.00000E+00
 -1       826 7.29167E-02 1.87500E-02 0.00000E+00
 -1       827 7.39583E-02 1.87500E-02 0.00000E+00
 -1       828 7.50000E-02 1.87500E-02 0.00000E+00
 -1       829 7.60417E-02 1.87500E-02 0.00000E+00
 -1       830 7.70833E-02 1.87500E-02 0.00000E+00
 -1       831 7.81250E-02 1.87500E-02 0.00000E+00
 -1       832 7.91667E-02 1.87500E-02 0.00000E+00
 -1       833 8.02083E-02 1.87500E-02 0.00000E+00
 -1       834 8.12500E-02 1.87500E-02 0.00000E+00
 -1       835 8.22917E-02 1.87500E-02 0.00000E+00
 -1       836 6.66667E-02 1.97917E-02 0.00000E+00
 -1       837 6.66667E-02 2.08333E-02 0.00000E+00
 -1       838 6.66667E-02 2.18750E-02 0.00000E+00
 -1       839 6.66667E-02 2.29167E-02 0.00000E+00
 -1       840 6.66667E-02 2.39583E-02 0.00000E+00
 -1       856 8.43750E-02 1.87500E-02 0.00000E+00
 -1       857 8.54167E-02 1.87500E-02 0.00000E+00
 -1       858 8.64583E-02 1.87500E-02 0.00000E+00
 -1       859 8.75000E-02 1.87500E-02 0.00000E+00
 -1       860 8.85417E-02 1.87500E-02 0.00000E+00
 -1       861 8.95833E-02 1.87500E-02 0.00000E+00
 -1       862 9.06250E-02 1.87500E-02 0.00000E+00
 -1       863 9.16667E-02 1.87500E-02 0.00000E+00
 -1       864 9.27083E-02 1.87500E-02 0.00000E+00
 -1       865 9.37500E-02 1.87500E-02 0.00000E+00
 -1       866 9.47917E-02 1.87500E-02 0.00000E+00
 -1       867 9.58333E-02 1.87500E-02 0.00000E+00
 -1       868 9.68750E-02 1.87500E-02 0.00000E+00
 -1       869 9.79167E-02 1.87500E-02 0.00000E+00
 -1       870 9.89583E-02 1.87500E-02 0.00000E+00
 -1       871 8.33333E-02 1.97917E-02 0.00000E+00
 -1       872 8.33333E-02 2.08333E-02 0.00000E+00
 -1       873 8.33333E-02 2.18750E-02 0.00000E+00
 -1       874 8.33333E-02 2.29167E-02 0.00000E+00
 -1       875 8.33333E-02 2.39583E-02 0.00000E+00
 -1       876 8.43750E-02 1.91406E-02 0.00000E+00
 -1       877 8.54167E-02 1.95312E-02 0.00000E+00
 -1       878 8.64583E-02 1.99219E-02 0.00000E+00
 -1       879 8.75000E-02 2.03125E-02 0.00000E+00
 -1       880 8.85417E-02 2.07031E-02 0.00000E+00
 -1       881 8.95833E-02 2.10938E-02 0.00000E+00
 -1       882 9.06250E-02 2.14844E-02 0.00000E+00
 -1       883 9.16667E-02 2.18750E-02 0.00000E+00
 -1       884 9.27083E-02 2.22656E-02 0.00000E+00
 -1       885 9.37500E-02 2.26563E-02 0.00000E+00
 -1       886 9.47917E-02 2.30469E-02 0.00000E+00
 -1       887 9.58333E-02 2.34375E-02 0.00000E+00
 -1       888 9.68750E-02 2.38281E-02 0.00000E+00
 -1       889 9.79167E-02 2.42187E-02 0.00000E+00
 -1       890 9.89583E-02 2.46094E-02 0.00000E+00
 -1       891 1.00000E-01 1.97917E-02 0.00000E+00
 -1       892 1.00000E-01 2.08333E-02 0.00000E+00
 -1       893 1.00000E-01 2.18750E-02 0.00000E+00
 -1       894 1.00000E-01 2.29167E-02 0.00000E+00
 -1       895 1.00000E-01 2.39583E-02 0.00000E+00
 -1       956 6.77083E-02 2.50000E-02 0.00000E+00
 -1       957 6.87500E-02 2.50000E-02 0.00000E+00
 -1       958 6.97917E-02 2.50000E-02 0.00000E+00
 -1       959 7.08333E-02 2.50000E-02 0.00000E+00
 -1       960 7.18750E-02 2.50000E-02 0.00000E+00
 -1       961 7.29167E-02 2.50000E-02 0.00000E+00
 -1       962 7.39583E-02 2.50000E-02 0.00000E+00
 -1       963 7.50000E-02 2.50000E-02 0.00000E+00
 -1       964 7.60417E-02 2.50000E-02 0.00000E+00
 -1       965 7.70833E-02 2.50000E-02 0.00000E+00
 -1       966 7.81250E-02 2.50000E-02 0.00000E+00
 -1       967 7.91667E-02 2.50000E-02 0.00000E+00
 -1       968 8.02083E-02 2.50000E-02 0.00000E+00
 -1       969 8.12500E-02 2.50000E-02 0.00000E+00
 -1       970 8.22917E-02 2.50000E-02 0.00000E+00
 -1       971 8.43750E-02 2.50000E-02 0.00000E+00
 -1       972 8.54167E-02 2.50000E-02 0.00000E+00
 -1       973 8.64583E-02 2.50000E-02 0.00000E+00
 -1       974 8.75000E-02 2.50000E-02 0.00000E+00
 -1       975 8.85417E-02 2.50000E-02 0.00000E+00
 -1       976 8.95833E-02 2.50000E-02 0.00000E+00
 -1       977 9.06250E-02 2.50000E-02 0.00000E+00
 -1       978 9.16667E-02 2.50000E-02 0.00000E+00
 -1       979 9.27083E-02 2.50000E-02 0.00000E+00
 -1       980 9.37500E-02 2.50000E-02 0.00000E+00
 -1       981 9.47917E-02 2.50000E-02 0.00000E+00
 -1       982 9.58333E-02 2.50000E-02 0.00000E+00
 -1       983 9.68750E-02 2.50000E-02 0.00000E+00
 -1       984 9.79167E-02 2.50000E-02 0.00000E+00
 -1       985 9.89583E-02 2.50000E-02 0.00000E+00
 -3
    3C                           197                                     1
 -1         1   12    0    1
 -2         1        52        51
 -1         2   12    0    1
 -2        52        54        53
 -1         3   12    0    1
 -2        54         8        55
 -1         4   12    0    1
 -2         1        57        56
 -1         5   12    0    1
 -2        57        59        58
 -1         6   12    0    1
 -2        59        61        60
 -1         7   12    0    1
 -2        61        63        62
 -1         8   12    0    1
 -2        63        65        64
 -1         9   12    0    1
 -2        65        67        66
 -1        10   12    0    1
 -2        67        69        68
 -1        11   12    0    1
 -2        69         9        70
 -1        12   12    0    1
 -2         3       122       121
 -1        13   12    0    1
 -2       122       124       123
 -1        14   12    0    1
 -2       124        10       125
 -1        15   12    0    1
 -2         5       192       191
 -1        16   12    0    1
 -2       192       194       193
 -1        17   12    0    1
 -2       194        12       195
 -1        18   12    0    1
 -2         8       272       271
 -1        19   12    0    1
 -2       272       274       273
 -1        20   12    0    1
 -2       274       276       275
 -1        21   12    0    1
 -2       276       278       277
 -1        22   12    0    1
 -2       278       280       279
 -1        23   12    0    1
 -2       280       282       281
 -1        24   12    0    1
 -2       282       284       283
 -1        25   12    0    1
 -2       284        16       285
 -1        26   12    0    1
 -2         9       302       301
 -1        27   12    0    1
 -2       302       304       303
 -1        28   12    0    1
 -2       304        16       305
 -1        29   12    0    1
 -2         9       307       306
 -1        30   12    0    1
 -2       307       309       308
 -1        31   12    0    1
 -2       309       311       310
 -1        32   12    0    1
 -2       311       313       312
 -1        33   12    0    1
 -2       313       315       314
 -1        34   12    0    1
 -2       315       317       316
 -1        35   12    0    1
 -2       317       319       318
 -1        36   12    0    1
 -2       319        17       320
 -1        37   12    0    1
 -2        10       337       336
 -1        38   12    0    1
 -2       337       339       338
 -1        39   12    0    1
 -2       339        17       340
 -1        40   12    0    1
 -2        12       407       406
 -1        41   12    0    1
 -2       407       409       408
 -1        42   12    0    1
 -2       409        19       410
 -1        43   12    0    1
 -2        16       522       521
 -1        44   12    0    1
 -2       522       524       523
 -1        45   12    0    1
 -2       524       526       525
 -1        46   12    0    1
 -2       526       528       527
 -1        47   12    0    1
 -2       528       530       529
 -1        48   12    0    1
 -2       530       532       531
 -1        49   12    0    1
 -2       532       534       533
 -1        50   12    0    1
 -2       534        24       535
 -1        51   12    0    1
 -2        17       537       536
 -1        52   12    0    1
 -2       537       539       538
 -1        53   12    0    1
 -2       539       541       540
 -1        54   12    0    1
 -2       541       543       542
 -1        55   12    0    1
 -2       543       545       544
 -1        56   12    0    1
 -2       545       547       546
 -1        57   12    0    1
 -2       547       549       548
 -1        58   12    0    1
 -2       549        18       550
 -1        59   12    0    1
 -2        17       552       551
 -1        60   12    0    1
 -2       552       554       553
 -1        61   12    0    1
 -2       554        24       555
 -1        62   12    0    1
 -2        17       557       556
 -1        63   12    0    1
 -2       557       559       558
 -1        64   12    0    1
 -2       559       561       560
 -1        65   12    0    1
 -2       561       563       562
 -1        66   12    0    1
 -2       563       565       564
 -1        67   12    0    1
 -2       565       567       566
 -1        68   12    0    1
 -2       567       569       568
 -1        69   12    0    1
 -2       569        25       570
 -1        70   12    0    1
 -2        18       572       571
 -1        71   12    0    1
 -2       572       574       573
 -1        72   12    0    1
 -2       574       576       575
 -1        73   12    0    1
 -2       576       578       577
 -1        74   12    0    1
 -2       578       580       579
 -1        75   12    0    1
 -2       580       582       581
 -1        76   12    0    1
 -2       582       584       583
 -1        77   12    0    1
 -2       584        19       585
 -1        78   12    0    1
 -2        18       587       586
 -1        79   12    0    1
 -2       587       589       588
 -1        80   12    0    1
 -2       589        25       590
 -1        81   12    0    1
 -2        18       592       591
 -1        82   12    0    1
 -2       592       594       593
 -1        83   12    0    1
 -2       594       596       595
 -1        84   12    0    1
 -2       596       598       597
 -1        85   12    0    1
 -2       598       600       599
 -1        86   12    0    1
 -2       600       602       601
 -1        87   12    0    1
 -2       602       604       603
 -1        88   12    0    1
 -2       604        26       605
 -1        89   12    0    1
 -2        19       607       606
 -1        90   12    0    1
 -2       607       609       608
 -1        91   12    0    1
 -2       609       611       610
 -1        92   12    0    1
 -2       611       613       612
 -1        93   12    0    1
 -2       613       615       614
 -1        94   12    0    1
 -2       615       617       616
 -1        95   12    0    1
 -2       617       619       618
 -1        96   12    0    1
 -2       619        20       620
 -1        97   12    0    1
 -2        19       622       621
 -1        98   12    0    1
 -2       622       624       623
 -1        99   12    0    1
 -2       624        26       625
 -1       100   12    0    1
 -2        19       627       626
 -1       101   12    0    1
 -2       627       629       628
 -1       102   12    0    1
 -2       629       631       630
 -1       103   12    0    1
 -2       631       633       632
 -1       104   12    0    1
 -2       633       635       634
 -1       105   12    0    1
 -2       635       637       636
 -1       106   12    0    1
 -2       637       639       638
 -1       107   12    0    1
 -2       639        27       640
 -1       108   12    0    1
 -2        20       657       656
 -1       109   12    0    1
 -2       657       659       658
 -1       110   12    0    1
 -2       659        27       660
 -1       111   12    0    1
 -2        20       662       661
 -1       112   12    0    1
 -2       662       664       663
 -1       113   12    0    1
 -2       664       666       665
 -1       114   12    0    1
 -2       666       668       667
 -1       115   12    0    1
 -2       668       670       669
 -1       116   12    0    1
 -2       670       672       671
 -1       117   12    0    1
 -2       672       674       673
 -1       118   12    0    1
 -2       674        28       675
 -1       119   12    0    1
 -2        21       677       676
 -1       120   12    0    1
 -2       677       679       678
 -1       121   12    0    1
 -2       679        28       680
 -1       122   12    0    1
 -2        24       772       771
 -1       123   12    0    1
 -2       772       774       773
 -1       124   12    0    1
 -2       774       776       775
 -1       125   12    0    1
 -2       776       778       777
 -1       126   12    0    1
 -2       778       780       779
 -1       127   12    0    1
 -2       780       782       781
 -1       128   12    0    1
 -2       782       784       783
 -1       129   12    0    1
 -2       784        32       785
 -1       130   12    0    1
 -2        25       787       786
 -1       131   12    0    1
 -2       787       789       788
 -1       132   12    0    1
 -2       789       791       790
 -1       133   12    0    1
 -2       791       793       792
 -1       134   12    0    1
 -2       793       795       794
 -1       135   12    0    1
 -2       795       797       796
 -1       136   12    0    1
 -2       797       799       798
 -1       137   12    0    1
 -2       799        26       800
 -1       138   12    0    1
 -2        25       802       801
 -1       139   12    0    1
 -2       802       804       803
 -1       140   12    0    1
 -2       804        32       805
 -1       141   12    0    1
 -2        25       807       806
 -1       142   12    0    1
 -2       807       809       808
 -1       143   12    0    1
 -2       809       811       810
 -1       144   12    0    1
 -2       811       813       812
 -1       145   12    0    1
 -2       813       815       814
 -1       146   12    0    1
 -2       815       817       816
 -1       147   12    0    1
 -2       817       819       818
 -1       148   12    0    1
 -2       819        33       820
 -1       149   12    0    1
 -2        26       822       821
 -1       150   12    0    1
 -2       822       824       823
 -1       151   12    0    1
 -2       824       826       825
 -1       152   12    0    1
 -2       826       828       827
 -1       153   12    0    1
 -2       828       830       829
 -1       154   12    0    1
 -2       830       832       831
 -1       155   12    0    1
 -2       832       834       833
 -1       156   12    0    1
 -2       834        27       835
 -1       157   12    0    1
 -2        26       837       836
 -1       158   12    0    1
 -2       837       839       838
 -1       159   12    0    1
 -2       839        33       840
 -1       160   12    0    1
 -2        27       857       856
 -1       161   12    0    1
 -2       857       859       858
 -1       162   12    0    1
 -2       859       861       860
 -1       163   12    0    1
 -2       861       863       862
 -1       164   12    0    1
 -2       863       865       864
 -1       165   12    0    1
 -2       865       867       866
 -1       166   12    0    1
 -2       867       869       868
 -1       167   12    0    1
 -2       869        28       870
 -1       168   12    0    1
 -2        27       872       871
 -1       169   12    0    1
 -2       872       874       873
 -1       170   12    0    1
 -2       874        34       875
 -1       171   12    0    1
 -2        27       877       876
 -1       172   12    0    1
 -2       877       879       878
 -1       173   12    0    1
 -2       879       881       880
 -1       174   12    0    1
 -2       881       883       882
 -1       175   12    0    1
 -2       883       885       884
 -1       176   12    0    1
 -2       885       887       886
 -1       177   12    0    1
 -2       887       889       888
 -1       178   12    0    1
 -2       889        35       890
 -1       179   12    0    1
 -2        28       892       891
 -1       180   12    0    1
 -2       892       894       893
 -1       181   12    0    1
 -2       894        35       895
 -1       182   12    0    1
 -2        33       957       956
 -1       183   12    0    1
 -2       957       959       958
 -1       184   12    0    1
 -2       959       961       960
 -1       185   12    0    1
 -2       961       963       962
 -1       186   12    0    1
 -2       963       965       964
 -1       187   12    0    1
 -2       965       967       966
 -1       188   12    0    1
 -2       967       969       968
 -1       189   12    0    1
 -2       969        34       970
 -1       190   12    0    1
 -2        34       972       971
 -1       191   12    0    1
 -2       972       974       973
 -1       192   12    0    1
 -2       974       976       975
 -1       193   12    0    1
 -2       976       978       977
 -1       194   12    0    1
 -2       978       980       979
 -1       195   12    0    1
 -2       980       982       981
 -1       196   12    0    1
 -2       982       984       983
 -1       197   12    0    1
 -2       984        35       985
 -3
    1PSTEP                         1           1           1          
  100CL  101 1.000000000         382                     0    1           1
 -4  DISP        4    1
 -5  D1          1    2    1    0
 -5  D2          1    2    2    0
 -5  D3          1    2    3    0
 -5  ALL         1    2    0    0    1ALL
 -1         1 1.52415E-04 0.00000E+00 0.00000E+00
 -1         3 9.48749E-05-1.85564E-26 0.00000E+00
 -1         5 7.22704E-05 4.03048E-25 0.00000E+00
 -1         8 1.21873E-04-1.52073E-06 0.00000E+00
 -1         9 1.06617E-04-5.03383E-05 0.00000E+00
 -1        10 8.71698E-05-2.90382E-06 0.00000E+00
 -1        12 7.09657E-05 1.22165E-06 0.00000E+00
 -1        16 9.13921E-05-5.04986E-05 0.00000E+00
 -1        17 6.51850E-05-5.82785E-06 0.00000E+00
 -1        18 6.49889E-05-5.72928E-07 0.00000E+00
 -1        19 6.70495E-05 2.43421E-06 0.00000E+00
 -1        20 6.78103E-05 2.80961E-05 0.00000E+00
 -1        21 6.77822E-05 6.26582E-05 0.00000E+00
 -1        24 2.56837E-05-7.15899E-06 0.00000E+00
 -1        25 6.03591E-05-2.18769E-07 0.00000E+00
 -1        26 6.20402E-05 3.25112E-06 0.00000E+00
 -1        27 5.98547E-05 2.69404E-05 0.00000E+00
 -1        28 5.79768E-05 6.15211E-05 0.00000E+00
 -1        32 0.00000E+00 0.00000E+00 0.00000E+00
 -1        33 5.64182E-05 4.52384E-06 0.00000E+00
 -1        34 5.39365E-05 2.68331E-05 0.00000E+00
 -1        35 5.05942E-05 6.10456E-05 0.00000E+00
 -1        51 1.50120E-04-2.51634E-07 0.00000E+00
 -1        52 1.46300E-04-4.96320E-07 0.00000E+00
 -1        53 1.41254E-04-7.41963E-07 0.00000E+00
 -1        54 1.35291E-04-9.91605E-07 6.61744E-24
 -1        55 1.28726E-04-1.24766E-06 8.11671E-24
 -1        56 1.48714E-04-5.12654E-07 5.29396E-23
 -1        57 1.44400E-04 2.13082E-07 5.29396E-23
 -1        58 1.39987E-04 1.22323E-06 0.00000E+00
 -1        59 1.35837E-04 1.46972E-06 0.00000E+00
 -1        60 1.32269E-04 1.64484E-07-1.05879E-22
 -1        61 1.29515E-04-3.32973E-06 5.29396E-23
 -1        62 1.27552E-04-8.95696E-06 0.00000E+00
 -1        63 1.26274E-04-1.64401E-05 0.00000E+00
 -1        64 1.25361E-04-2.49133E-05 1.05879E-22
 -1        65 1.24455E-04-3.34065E-05-5.29396E-23
 -1        66 1.23199E-04-4.09434E-05 1.05879E-22
 -1        67 1.21269E-04-4.66473E-05-5.29396E-23
 -1        68 1.18551E-04-5.02240E-05 0.00000E+00
 -1        69 1.15031E-04-5.15922E-05 0.00000E+00
 -1        70 1.10912E-04-5.13850E-05 0.00000E+00
 -1       121 9.46582E-05-4.82975E-07 0.00000E+00
 -1       122 9.40093E-05-9.66124E-07-6.61744E-24
 -1       123 9.29306E-05-1.44963E-06 0.00000E+00
 -1       124 9.14267E-05-1.93365E-06-6.61744E-24
 -1       125 8.95038E-05-2.41833E-06 1.32349E-23
 -1       191 7.22341E-05 2.03646E-07 0.00000E+00
 -1       192 7.21254E-05 4.07285E-07 0.00000E+00
 -1       193 7.19443E-05 6.10914E-07 0.00000E+00
 -1       194 7.16906E-05 8.14524E-07 1.32349E-23
 -1       195 7.13644E-05 1.01811E-06-1.32349E-23
 -1       271 1.17620E-04 1.93190E-06 0.00000E+00
 -1       272 1.14020E-04 3.39565E-06 2.64698E-23
 -1       273 1.11113E-04 3.02796E-06 0.00000E+00
 -1       274 1.08814E-04 9.98434E-07 0.00000E+00
 -1       275 1.07051E-04-2.47161E-06 0.00000E+00
 -1       276 1.05725E-04-7.12599E-06 0.00000E+00
 -1       277 1.04731E-04-1.26773E-05 0.00000E+00
 -1       278 1.03954E-04-1.88140E-05-5.29396E-23
 -1       279 1.03272E-04-2.52096E-05 0.00000E+00
 -1       280 1.02563E-04-3.15305E-05 5.29396E-23
 -1       281 1.01704E-04-3.74449E-05 1.05879E-22
 -1       282 1.00578E-04-4.26323E-05 5.29396E-23
 -1       283 9.90712E-05-4.67909E-05-5.29396E-23
 -1       284 9.70908E-05-4.96436E-05 0.00000E+00
 -1       285 9.45315E-05-5.09544E-05 0.00000E+00
 -1       301 1.04017E-04-5.03760E-05 0.00000E+00
 -1       302 1.01428E-04-5.03906E-05 0.00000E+00
 -1       303 9.88603E-05-5.04023E-05-6.61744E-24
 -1       304 9.63245E-05-5.04159E-05 0.00000E+00
 -1       305 9.38316E-05-5.04364E-05 1.32349E-23
 -1       306 1.04336E-04-4.82752E-05-2.64698E-23
 -1       307 1.02022E-04-4.62275E-05 0.00000E+00
 -1       308 9.97003E-05-4.41575E-05 5.29396E-23
 -1       309 9.73561E-05-4.20428E-05 0.00000E+00
 -1       310 9.49848E-05-3.98579E-05 5.29396E-23
 -1       311 9.25774E-05-3.75801E-05-2.64698E-23
 -1       312 9.01263E-05-3.51876E-05 0.00000E+00
 -1       313 8.76241E-05-3.26601E-05 0.00000E+00
 -1       314 8.50639E-05-2.99793E-05 5.29396E-23
 -1       315 8.24396E-05-2.71288E-05 0.00000E+00
 -1       316 7.97460E-05-2.40944E-05-5.29396E-23
 -1       317 7.69795E-05-2.08644E-05 0.00000E+00
 -1       318 7.41363E-05-1.74298E-05 0.00000E+00
 -1       319 7.12198E-05-1.37822E-05 0.00000E+00
 -1       320 6.82207E-05-9.92084E-06 0.00000E+00
 -1       336 8.44343E-05-3.39022E-06 1.32349E-23
 -1       337 8.13087E-05-3.87749E-06 0.00000E+00
 -1       338 7.78057E-05-4.36580E-06-1.32349E-23
 -1       339 7.39399E-05-4.85425E-06 0.00000E+00
 -1       340 6.97271E-05-5.34414E-06 0.00000E+00
 -1       406 7.04944E-05 1.42513E-06 0.00000E+00
 -1       407 6.99505E-05 1.62849E-06 0.00000E+00
 -1       408 6.93339E-05 1.83166E-06 6.61744E-24
 -1       409 6.86448E-05 2.03431E-06 0.00000E+00
 -1       410 6.78831E-05 2.23594E-06-6.61744E-24
 -1       521 8.78565E-05-4.90812E-05-5.29396E-23
 -1       522 8.42126E-05-4.76019E-05 0.00000E+00
 -1       523 8.05240E-05-4.59985E-05-1.05879E-22
 -1       524 7.67665E-05-4.42457E-05-5.29396E-23
 -1       525 7.29397E-05-4.23137E-05-1.05879E-22
 -1       526 6.90351E-05-4.01815E-05 5.29396E-23
 -1       527 6.50480E-05-3.78324E-05 1.05879E-22
 -1       528 6.09745E-05-3.52563E-05 0.00000E+00
 -1       529 5.68132E-05-3.24487E-05-1.05879E-22
 -1       530 5.25653E-05-2.94116E-05 0.00000E+00
 -1       531 4.82336E-05-2.61528E-05 1.05879E-22
 -1       532 4.38250E-05-2.26857E-05 0.00000E+00
 -1       533 3.93460E-05-1.90300E-05 0.00000E+00
 -1       534 3.48157E-05-1.52063E-05 0.00000E+00
 -1       535 3.02320E-05-1.12482E-05 0.00000E+00
 -1       536 6.51517E-05-1.67797E-06 6.61744E-24
 -1       537 6.51344E-05 1.48353E-06 0.00000E+00
 -1       538 6.51192E-05 3.75849E-06 0.00000E+00
 -1       539 6.51073E-05 5.24967E-06 0.00000E+00
 -1       540 6.50964E-05 6.05972E-06-1.65436E-24
 -1       541 6.50863E-05 6.29140E-06 8.27181E-25
 -1       542 6.50762E-05 6.04750E-06 0.00000E+00
 -1       543 6.50662E-05 5.43087E-06 0.00000E+00
 -1       544 6.50559E-05 4.54439E-06 0.00000E+00
 -1       545 6.50455E-05 3.49096E-06 2.06795E-25
 -1       546 6.50352E-05 2.37349E-06-2.06795E-25
 -1       547 6.50249E-05 1.29490E-06-7.75482E-26
 -1       548 6.50148E-05 3.58096E-07 0.00000E+00
 -1       549 6.50052E-05-3.34032E-07 0.00000E+00
 -1       550 6.49958E-05-6.78534E-07 0.00000E+00
 -1       551 5.92970E-05-6.04004E-06 3.30872E-24
 -1       552 5.27187E-05-6.25143E-06 3.30872E-24
 -1       553 4.57565E-05-6.46527E-06 0.00000E+00
 -1       554 3.87225E-05-6.68282E-06 6.61744E-24
 -1       555 3.19290E-05-6.90529E-06 0.00000E+00
 -1       556 6.35124E-05-1.87168E-06 0.00000E+00
 -1       557 6.21930E-05 1.17410E-06-1.32349E-23
 -1       558 6.11871E-05 3.39439E-06-2.64698E-23
 -1       559 6.04585E-05 4.88217E-06-6.61744E-24
 -1       560 5.99710E-05 5.73048E-06-1.32349E-23
 -1       561 5.96887E-05 6.03320E-06 0.00000E+00
 -1       562 5.95761E-05 5.88434E-06 0.00000E+00
 -1       563 5.95976E-05 5.37807E-06-1.32349E-23
 -1       564 5.97177E-05 4.60867E-06 0.00000E+00
 -1       565 5.99010E-05 3.67050E-06 3.30872E-24
 -1       566 6.01122E-05 2.65796E-06 0.00000E+00
 -1       567 6.03160E-05 1.66549E-06 8.27181E-25
 -1       568 6.04771E-05 7.87472E-07 1.24077E-24
 -1       569 6.05605E-05 1.18212E-07-8.27181E-25
 -1       570 6.05313E-05-2.48094E-07 1.65436E-24
 -1       571 6.51130E-05-3.19060E-07-2.48154E-24
 -1       572 6.52406E-05-1.51454E-07 1.65436E-24
 -1       573 6.53692E-05-5.42651E-08-1.65436E-24
 -1       574 6.54982E-05-1.08421E-08-1.65436E-24
 -1       575 6.56275E-05-4.46349E-09-3.30872E-24
 -1       576 6.57568E-05-1.82998E-08 0.00000E+00
 -1       577 6.58862E-05-3.55134E-08 0.00000E+00
 -1       578 6.60156E-05-3.92521E-08-3.30872E-24
 -1       579 6.61450E-05-1.26624E-08 0.00000E+00
 -1       580 6.62743E-05 6.11108E-08 0.00000E+00
 -1       581 6.64037E-05 1.98921E-07 0.00000E+00
 -1       582 6.65330E-05 4.17607E-07 3.30872E-24
 -1       583 6.66623E-05 7.33994E-07 6.61744E-24
 -1       584 6.67916E-05 1.16473E-06-6.61744E-24
 -1       585 6.69206E-05 1.72638E-06-6.61744E-24
 -1       586 6.43384E-05-5.12773E-07 0.00000E+00
 -1       587 6.35828E-05-4.52253E-07 1.65436E-24
 -1       588 6.27641E-05-3.91821E-07 0.00000E+00
 -1       589 6.19254E-05-3.31924E-07-4.13590E-25
 -1       590 6.11096E-05-2.73205E-07 0.00000E+00
 -1       591 6.47885E-05-2.71293E-07 0.00000E+00
 -1       592 6.46041E-05-3.03476E-08 0.00000E+00
 -1       593 6.44367E-05 1.62233E-07 0.00000E+00
 -1       594 6.42827E-05 3.17445E-07 1.65436E-24
 -1       595 6.41384E-05 4.46317E-07-3.30872E-24
 -1       596 6.39997E-05 5.59786E-07 0.00000E+00
 -1       597 6.38626E-05 6.68783E-07 3.30872E-24
 -1       598 6.37232E-05 7.84222E-07-8.27181E-25
 -1       599 6.35772E-05 9.17021E-07 1.65436E-24
 -1       600 6.34206E-05 1.07809E-06-8.27181E-25
 -1       601 6.32493E-05 1.27834E-06 1.65436E-24
 -1       602 6.30594E-05 1.52869E-06 0.00000E+00
 -1       603 6.28467E-05 1.84007E-06 8.27181E-25
 -1       604 6.26077E-05 2.22345E-06 5.16988E-25
 -1       605 6.23386E-05 2.68980E-06-4.13590E-25
 -1       606 6.71024E-05 3.40591E-06 0.00000E+00
 -1       607 6.71519E-05 4.50001E-06 0.00000E+00
 -1       608 6.72003E-05 5.70930E-06 0.00000E+00
 -1       609 6.72482E-05 7.02551E-06 0.00000E+00
 -1       610 6.72958E-05 8.44038E-06 0.00000E+00
 -1       611 6.73431E-05 9.94544E-06 0.00000E+00
 -1       612 6.73904E-05 1.15322E-05 3.30872E-24
 -1       613 6.74375E-05 1.31923E-05 0.00000E+00
 -1       614 6.74844E-05 1.49173E-05 0.00000E+00
 -1       615 6.75313E-05 1.66985E-05 0.00000E+00
 -1       616 6.75781E-05 1.85277E-05 3.30872E-24
 -1       617 6.76249E-05 2.03964E-05 0.00000E+00
 -1       618 6.76715E-05 2.22960E-05-3.30872E-24
 -1       619 6.77181E-05 2.42181E-05 0.00000E+00
 -1       620 6.77644E-05 2.61543E-05 1.65436E-24
 -1       621 6.61496E-05 2.57116E-06 0.00000E+00
 -1       622 6.52586E-05 2.70854E-06 0.00000E+00
 -1       623 6.43894E-05 2.84587E-06-3.30872E-24
 -1       624 6.35547E-05 2.98282E-06 0.00000E+00
 -1       625 6.27676E-05 3.11903E-06 0.00000E+00
 -1       626 6.67885E-05 3.46858E-06 0.00000E+00
 -1       627 6.64785E-05 4.63135E-06 0.00000E+00
 -1       628 6.61246E-05 5.91036E-06 6.61744E-24
 -1       629 6.57319E-05 7.29218E-06 0.00000E+00
 -1       630 6.53055E-05 8.76335E-06 0.00000E+00
 -1       631 6.48506E-05 1.03102E-05 0.00000E+00
 -1       632 6.43724E-05 1.19191E-05 6.61744E-24
 -1       633 6.38758E-05 1.35765E-05 0.00000E+00
 -1       634 6.33662E-05 1.52686E-05 3.30872E-24
 -1       635 6.28486E-05 1.69819E-05 0.00000E+00
 -1       636 6.23282E-05 1.87027E-05 0.00000E+00
 -1       637 6.18100E-05 2.04173E-05-1.65436E-24
 -1       638 6.12990E-05 2.21121E-05-1.65436E-24
 -1       639 6.08002E-05 2.37734E-05 8.27181E-25
 -1       640 6.03181E-05 2.53875E-05 8.27181E-25
 -1       656 6.61089E-05 2.79093E-05 0.00000E+00
 -1       657 6.46982E-05 2.77134E-05 0.00000E+00
 -1       658 6.34731E-05 2.75181E-05 0.00000E+00
 -1       659 6.23280E-05 2.73229E-05 0.00000E+00
 -1       660 6.11570E-05 2.71272E-05 1.65436E-24
 -1       661 6.72233E-05 3.00985E-05 0.00000E+00
 -1       662 6.66143E-05 3.21742E-05 0.00000E+00
 -1       663 6.59832E-05 3.43085E-05 3.30872E-24
 -1       664 6.53356E-05 3.64887E-05 0.00000E+00
 -1       665 6.46757E-05 3.87017E-05 0.00000E+00
 -1       666 6.40084E-05 4.09347E-05-1.65436E-24
 -1       667 6.33384E-05 4.31747E-05 0.00000E+00
 -1       668 6.26707E-05 4.54090E-05 0.00000E+00
 -1       669 6.20100E-05 4.76245E-05 0.00000E+00
 -1       670 6.13611E-05 4.98086E-05 1.65436E-24
 -1       671 6.07289E-05 5.19483E-05 0.00000E+00
 -1       672 6.01182E-05 5.40305E-05 1.65436E-24
 -1       673 5.95338E-05 5.60424E-05 3.30872E-24
 -1       674 5.89797E-05 5.79705E-05 0.00000E+00
 -1       675 5.84619E-05 5.98022E-05 0.00000E+00
 -1       676 6.61324E-05 6.24671E-05 6.61744E-24
 -1       677 6.44853E-05 6.22761E-05-3.30872E-24
 -1       678 6.28435E-05 6.20852E-05-6.61744E-24
 -1       679 6.12098E-05 6.18952E-05 1.65436E-24
 -1       680 5.95867E-05 6.17051E-05 3.30872E-24
 -1       771 2.27333E-05-3.10907E-06 5.29396E-23
 -1       772 2.00904E-05 9.22121E-08 0.00000E+00
 -1       773 1.77382E-05 2.51950E-06 0.00000E+00
 -1       774 1.56477E-05 4.25042E-06 2.64698E-23
 -1       775 1.37900E-05 5.36339E-06 0.00000E+00
 -1       776 1.21347E-05 5.93808E-06-2.64698E-23
 -1       777 1.06517E-05 6.05478E-06 0.00000E+00
 -1       778 9.31021E-06 5.79460E-06 0.00000E+00
 -1       779 8.07960E-06 5.23906E-06 5.29396E-23
 -1       780 6.92902E-06 4.47024E-06 0.00000E+00
 -1       781 5.82764E-06 3.57046E-06 5.29396E-23
 -1       782 4.74466E-06 2.62230E-06 1.32349E-23
 -1       783 3.64929E-06 1.70840E-06 0.00000E+00
 -1       784 2.51161E-06 9.11480E-07 0.00000E+00
 -1       785 1.30152E-06 3.14062E-07-2.64698E-23
 -1       786 6.04577E-05 2.22603E-07-8.27181E-25
 -1       787 6.05625E-05 5.54435E-07 0.00000E+00
 -1       788 6.06672E-05 7.93878E-07 3.30872E-24
 -1       789 6.07728E-05 9.58078E-07 0.00000E+00
 -1       790 6.08786E-05 1.06410E-06-3.30872E-24
 -1       791 6.09846E-05 1.12897E-06 0.00000E+00
 -1       792 6.10906E-05 1.16966E-06-3.30872E-24
 -1       793 6.11967E-05 1.20314E-06 1.65436E-24
 -1       794 6.13027E-05 1.24635E-06 3.30872E-24
 -1       795 6.14088E-05 1.31626E-06 0.00000E+00
 -1       796 6.15148E-05 1.42985E-06 0.00000E+00
 -1       797 6.16208E-05 1.60416E-06 1.65436E-24
 -1       798 6.17266E-05 1.85625E-06 3.30872E-24
 -1       799 6.18321E-05 2.20327E-06-1.65436E-24
 -1       800 6.19375E-05 2.66248E-06 0.00000E+00
 -1       801 5.52657E-05-1.38365E-07 0.00000E+00
 -1       802 4.42072E-05-9.30721E-08 0.00000E+00
 -1       803 3.01659E-05-7.98925E-08 0.00000E+00
 -1       804 1.61278E-05-7.26370E-08 0.00000E+00
 -1       805 5.07797E-06-3.36516E-08 2.64698E-23
 -1       806 6.00814E-05 1.74457E-07 0.00000E+00
 -1       807 5.98215E-05 5.09911E-07 0.00000E+00
 -1       808 5.95785E-05 7.97466E-07-6.61744E-24
 -1       809 5.93494E-05 1.04671E-06 0.00000E+00
 -1       810 5.91310E-05 1.26722E-06-3.30872E-24
 -1       811 5.89197E-05 1.46854E-06 1.65436E-24
 -1       812 5.87119E-05 1.66022E-06-3.30872E-24
 -1       813 5.85043E-05 1.85179E-06 0.00000E+00
 -1       814 5.82930E-05 2.05280E-06 0.00000E+00
 -1       815 5.80747E-05 2.27278E-06 0.00000E+00
 -1       816 5.78456E-05 2.52127E-06-1.65436E-24
 -1       817 5.76023E-05 2.80780E-06-8.27181E-25
 -1       818 5.73412E-05 3.14189E-06-1.65436E-24
 -1       819 5.70589E-05 3.53301E-06-1.24077E-24
 -1       820 5.67520E-05 3.99064E-06 0.00000E+00
 -1       821 6.19120E-05 4.01825E-06 1.65436E-24
 -1       822 6.17760E-05 4.97397E-06-1.65436E-24
 -1       823 6.16399E-05 6.09881E-06 0.00000E+00
 -1       824 6.15025E-05 7.37295E-06 0.00000E+00
 -1       825 6.13649E-05 8.77647E-06 0.00000E+00
 -1       826 6.12268E-05 1.02892E-05 0.00000E+00
 -1       827 6.10885E-05 1.18910E-05 0.00000E+00
 -1       828 6.09502E-05 1.35615E-05 0.00000E+00
 -1       829 6.08117E-05 1.52801E-05-3.30872E-24
 -1       830 6.06732E-05 1.70266E-05 0.00000E+00
 -1       831 6.05347E-05 1.87803E-05 3.30872E-24
 -1       832 6.03965E-05 2.05207E-05 0.00000E+00
 -1       833 6.02585E-05 2.22274E-05-3.30872E-24
 -1       834 6.01216E-05 2.38798E-05 0.00000E+00
 -1       835 5.99847E-05 2.54575E-05 1.65436E-24
 -1       836 6.12345E-05 3.46010E-06 0.00000E+00
 -1       837 6.02690E-05 3.67611E-06 0.00000E+00
 -1       838 5.92240E-05 3.89178E-06 0.00000E+00
 -1       839 5.81802E-05 4.10670E-06 0.00000E+00
 -1       840 5.72182E-05 4.32168E-06-1.65436E-24
 -1       856 5.97449E-05 2.84973E-05 8.27181E-25
 -1       857 5.96286E-05 3.02732E-05 0.00000E+00
 -1       858 5.95119E-05 3.22389E-05 0.00000E+00
 -1       859 5.93940E-05 3.43647E-05-1.65436E-24
 -1       860 5.92758E-05 3.66211E-05-3.30872E-24
 -1       861 5.91571E-05 3.89781E-05-1.65436E-24
 -1       862 5.90383E-05 4.14060E-05-3.30872E-24
 -1       863 5.89193E-05 4.38750E-05 1.65436E-24
 -1       864 5.88003E-05 4.63551E-05 3.30872E-24
 -1       865 5.86813E-05 4.88165E-05 0.00000E+00
 -1       866 5.85625E-05 5.12293E-05 0.00000E+00
 -1       867 5.84439E-05 5.35635E-05-1.65436E-24
 -1       868 5.83256E-05 5.57896E-05 3.30872E-24
 -1       869 5.82080E-05 5.78776E-05 1.65436E-24
 -1       870 5.80908E-05 5.97978E-05-3.30872E-24
 -1       871 5.86756E-05 2.69255E-05 0.00000E+00
 -1       872 5.76547E-05 2.69088E-05 0.00000E+00
 -1       873 5.67317E-05 2.68918E-05 0.00000E+00
 -1       874 5.58452E-05 2.68741E-05 4.13590E-25
 -1       875 5.49337E-05 2.68556E-05 8.27181E-25
 -1       876 5.94679E-05 2.85416E-05 0.00000E+00
 -1       877 5.90213E-05 3.03236E-05 0.00000E+00
 -1       878 5.85165E-05 3.22605E-05-6.61744E-24
 -1       879 5.79630E-05 3.43293E-05 0.00000E+00
 -1       880 5.73688E-05 3.65065E-05 6.61744E-24
 -1       881 5.67426E-05 3.87690E-05 3.30872E-24
 -1       882 5.60929E-05 4.10940E-05-6.61744E-24
 -1       883 5.54283E-05 4.34584E-05 0.00000E+00
 -1       884 5.47574E-05 4.58394E-05 0.00000E+00
 -1       885 5.40889E-05 4.82143E-05 0.00000E+00
 -1       886 5.34312E-05 5.05601E-05-6.61744E-24
 -1       887 5.27929E-05 5.28539E-05-3.30872E-24
 -1       888 5.21826E-05 5.50729E-05-6.61744E-24
 -1       889 5.16079E-05 5.71937E-05 0.00000E+00
 -1       890 5.10788E-05 5.91934E-05 0.00000E+00
 -1       891 5.65829E-05 6.14423E-05-3.30872E-24
 -1       892 5.54158E-05 6.13625E-05-8.27181E-25
 -1       893 5.43546E-05 6.12828E-05-1.65436E-24
 -1       894 5.32781E-05 6.12033E-05 0.00000E+00
 -1       895 5.20649E-05 6.11235E-05 1.65436E-24
 -1       956 5.62671E-05 5.31702E-06-3.30872E-24
 -1       957 5.61129E-05 6.28066E-06 0.00000E+00
 -1       958 5.59580E-05 7.39639E-06-1.65436E-24
 -1       959 5.58027E-05 8.64474E-06-8.27181E-25
 -1       960 5.56471E-05 1.00062E-05-3.30872E-24
 -1       961 5.54913E-05 1.14613E-05 0.00000E+00
 -1       962 5.53354E-05 1.29901E-05-3.30872E-24
 -1       963 5.51795E-05 1.45733E-05 0.00000E+00
 -1       964 5.50234E-05 1.61910E-05 0.00000E+00
 -1       965 5.48674E-05 1.78236E-05 0.00000E+00
 -1       966 5.47113E-05 1.94515E-05 0.00000E+00
 -1       967 5.45554E-05 2.10550E-05 0.00000E+00
 -1       968 5.43996E-05 2.26144E-05 0.00000E+00
 -1       969 5.42441E-05 2.41101E-05-3.30872E-24
 -1       970 5.40892E-05 2.55227E-05 6.61744E-24
 -1       971 5.37330E-05 2.81889E-05 3.30872E-24
 -1       972 5.35248E-05 2.97954E-05 0.00000E+00
 -1       973 5.33160E-05 3.16220E-05 6.61744E-24
 -1       974 5.31064E-05 3.36375E-05 3.30872E-24
 -1       975 5.28963E-05 3.58106E-05 0.00000E+00
 -1       976 5.26858E-05 3.81096E-05 0.00000E+00
 -1       977 5.24751E-05 4.05031E-05 0.00000E+00
 -1       978 5.22643E-05 4.29591E-05-3.30872E-24
 -1       979 5.20533E-05 4.54459E-05 0.00000E+00
 -1       980 5.18424E-05 4.79317E-05 0.00000E+00
 -1       981 5.16317E-05 5.03846E-05 0.00000E+00
 -1       982 5.14213E-05 5.27727E-05-3.30872E-24
 -1       983 5.12113E-05 5.50645E-05-6.61744E-24
 -1       984 5.10026E-05 5.72282E-05 0.00000E+00
 -1       985 5.07944E-05 5.92322E-05 0.00000E+00
 -3
    1PSTEP                         2           1           1          
  100CL  101 1.000000000         382                     0    1           1
 -4  STRESS      6    1
 -5  SXX         1    4    1    1
 -5  SYY         1    4    2    2
 -5  SZZ         1    4    3    3
 -5  SXY         1    4    1    2
 -5  SYZ         1    4    2    3
 -5  SZX         1    4    3    1
 -1         1-4.70129E+06-1.90866E+06-1.09002E+06-2.19435E+06 9.31323E-10-2.08092E-08
 -1         3-6.77796E+01-1.37992E+06-3.61090E+01-5.72734E+02-1.33902E-11 2.51021E-09
 -1         5-3.90477E+01 5.82935E+05 1.90903E+01 1.85613E+00 1.90173E-10-3.47900E-08
 -1         8-3.35761E+06-1.50933E+06-6.34318E+05-1.98092E+06 1.46974E-09 5.64614E-09
 -1         9-4.21818E+06-1.37515E+06-8.05596E+05-1.24215E+06 1.12535E-09-3.35179E-09
 -1        10-1.75795E+02-1.38013E+06-1.61043E+03-3.32490E+03-1.58926E-09 2.02635E-09
 -1        12-3.13742E+01 5.82975E+05 6.20112E+02 1.19393E+01 5.71404E-10-2.05873E-08
 -1        16-4.42965E+06-1.40822E+06-6.18456E+05-1.48687E+06-6.47560E-10-1.05750E-08
 -1        17-7.54839E+05-6.04441E+05-1.00125E+05-5.01407E+05-4.80941E-09 6.80739E-09
 -1        18 3.50703E+04 1.36083E+04-1.83192E+04-1.24463E+05 1.07775E-10-2.87491E-09
 -1        19 1.60301E+05 2.00748E+05 4.25826E+01 1.24293E+04-1.08739E-09 2.55386E-10
 -1        20 1.19070E+05-1.46594E+05-2.64513E+04 8.13341E+04 1.56964E-08 2.64481E-09
 -1        21-2.20359E+02-5.43651E+05-2.56391E+03-8.51757E+02 6.41043E-09-8.86580E-09
 -1        24-3.18133E+06-1.13305E+06-3.14078E+05-1.49043E+06 5.48122E-10 6.59687E-10
 -1        25 3.10762E+03 5.52893E+04 2.90984E+04-5.25479E+05 2.06310E-09 5.33109E-09
 -1        26-2.17876E+04 1.64526E+05 4.04431E+03-3.81299E+04 4.86034E-10 7.69415E-10
 -1        27-3.21136E+04-8.65356E+04-3.80327E+04 1.01380E+05 5.88079E-09-2.84247E-09
 -1        28-1.52813E+04-1.61017E+05-7.95185E+03 6.18772E+04 1.06393E-08 3.50582E-10
 -1        32-1.12620E+06-1.46124E+05 2.85374E+05-1.60485E+06-3.59432E-09 4.96584E-10
 -1        33-1.63637E+05 1.69443E+05 5.14405E+04-5.17515E+04 1.48513E-09 5.48607E-09
 -1        34-3.28299E+05-5.14107E+04-1.59885E+04 9.63489E+04 4.66002E-10 2.17976E-10
 -1        35-4.27679E+04-4.36486E+04-6.90551E+02 9.78720E+04 8.19814E-09 2.93464E-10
 -1        51 3.58513E+04-6.24586E+05 6.09883E+04-1.65672E+06-4.36557E-10-1.66765E-08
 -1        52 2.24346E+04-6.27373E+05 4.08768E+04-1.83091E+06-5.31145E-10-9.42964E-09
 -1        53 2.00487E+04-6.49436E+05 3.72277E+04-1.65211E+06-1.45519E-11-1.87720E-08
 -1        54 4.60918E+04-6.48486E+05 6.26254E+04-1.83551E+06-7.85803E-10-3.46263E-08
 -1        55 9.40869E+04-6.70968E+05 1.16477E+05-1.65097E+06 4.22006E-10-1.56142E-08
 -1        56-8.67802E+06-9.72539E+05-7.51024E+05-3.41159E+06 7.85803E-10 4.01633E-09
 -1        57-9.18524E+06-1.49589E+06-5.13507E+05-3.14974E+06 3.34694E-10-7.85803E-09
 -1        58-8.82131E+06-1.23452E+06-1.75987E+05-3.37149E+06-4.16549E-09-5.63887E-09
 -1        59-8.98316E+06-1.22318E+06-1.06726E+05-3.23232E+06 3.97449E-10-3.79077E-09
 -1        60-8.87700E+06-1.24136E+06-4.15890E+04-3.32935E+06-1.25812E-09-2.54477E-09
 -1        61-8.88050E+06-1.25374E+06-2.31167E+04-3.32473E+06-5.49790E-09 1.53887E-09
 -1        62-8.92275E+06-1.20375E+06-1.16913E+04-3.27865E+06 3.92447E-10-5.75619E-09
 -1        63-8.81719E+06-1.31072E+06-9.38671E+03-3.39969E+06 9.15998E-09 9.52238E-09
 -1        64-8.94118E+06-1.18354E+06-1.09287E+04-3.25513E+06 4.30555E-09 3.50065E-09
 -1        65-8.81994E+06-1.31664E+06-2.26915E+04-3.39968E+06-5.63406E-09 3.27782E-09
 -1        66-8.92012E+06-1.19788E+06-3.98076E+04-3.27868E+06-1.79011E-09 1.22636E-08
 -1        67-8.90451E+06-1.29694E+06-1.02279E+05-3.31930E+06-1.92972E-09-7.77436E-09
 -1        68-8.85621E+06-1.20464E+06-1.69656E+05-3.33474E+06-5.39148E-09 2.69210E-09
 -1        69-9.14879E+06-1.50857E+06-4.92993E+05-3.18164E+06-7.73980E-09 2.59024E-08
 -1        70-8.67878E+06-9.90048E+05-7.21400E+05-3.41598E+06-7.40692E-09 8.20728E-09
 -1       121-9.34066E+01-1.38031E+06-1.05127E+02 2.86267E+02-3.04160E-10-2.99224E-10
 -1       122-6.48511E+01-1.37993E+06-9.14796E+01-1.13506E+03-3.98678E-10-6.96673E-09
 -1       123-8.87240E+01-1.38031E+06-2.38591E+02 8.48191E+02-8.76248E-10-5.58157E-09
 -1       124-6.55480E+01-1.37997E+06-3.85445E+02-2.24555E+03-8.57739E-10-7.28960E-10
 -1       125-7.04990E+01-1.38030E+06-8.11391E+02 1.39627E+03-1.80134E-09 8.93306E-09
 -1       191-4.16177E+01 5.82978E+05 2.15391E+01-9.39299E-01 3.71917E-10-2.31066E-08
 -1       192-4.08290E+01 5.82936E+05 4.04734E+01 4.87513E+00 5.95352E-10-3.50956E-08
 -1       193-4.63353E+01 5.82977E+05 7.40175E+01-4.00743E+00 6.74500E-10-2.10348E-08
 -1       194-4.65527E+01 5.82942E+05 1.53206E+02 1.05653E+01 3.38545E-10-7.06677E-10
 -1       195-5.53948E+01 5.82972E+05 2.98405E+02-6.72396E+00 9.53975E-10-1.09594E-08
 -1       271-6.58041E+06-8.37204E+05-5.16443E+05-2.55739E+06 2.37924E-09 2.85218E-09
 -1       272-6.75216E+06-1.18040E+06-3.25535E+05-2.56321E+06-1.69712E-09 5.06407E-09
 -1       273-6.67927E+06-9.45209E+05-1.21978E+05-2.53323E+06 2.60661E-09-5.03496E-09
 -1       274-6.63391E+06-1.04392E+06-6.65440E+04-2.60696E+06 2.85490E-09 7.97445E-09
 -1       275-6.69724E+06-9.49687E+05-2.84108E+04-2.52371E+06 1.85355E-09 5.08044E-09
 -1       276-6.61202E+06-1.03949E+06-1.47607E+04-2.62432E+06 3.86353E-09-1.81435E-08
 -1       277-6.70337E+06-9.45868E+05-7.54242E+03-2.51847E+06-2.87400E-10 7.16818E-09
 -1       278-6.60597E+06-1.04364E+06-5.67342E+03-2.63221E+06 2.02590E-09 1.25965E-08
 -1       279-6.70482E+06-9.44383E+05-6.59593E+03-2.51698E+06 1.59918E-09-5.18594E-09
 -1       280-6.60760E+06-1.04414E+06-1.24055E+04-2.63112E+06-6.21753E-09 8.65020E-09
 -1       281-6.70158E+06-9.45618E+05-2.33365E+04-2.51937E+06-8.73115E-10 7.27960E-09
 -1       282-6.62331E+06-1.05031E+06-5.48925E+04-2.61995E+06 1.37607E-09 1.40790E-09
 -1       283-6.68763E+06-9.41119E+05-1.00343E+05-2.52627E+06 2.49565E-09-9.16771E-10
 -1       284-6.71942E+06-1.16363E+06-2.68143E+05-2.58444E+06 7.01311E-09 2.18279E-10
 -1       285-6.60608E+06-8.52498E+05-4.25475E+05-2.54625E+06-1.66256E-09-8.81846E-09
 -1       301 6.42743E+04-1.81274E+04 1.73861E+05-2.85285E+04-1.05501E-09 5.39126E-09
 -1       302 2.31738E+04 1.69229E+04 1.14115E+05-3.49907E+04 9.35779E-09-2.95449E-09
 -1       303 5.42335E+03-5.98772E+03 1.01272E+05-2.87166E+04 3.52520E-09 9.03265E-09
 -1       304 3.90789E+04 2.84356E+04 1.62775E+05-3.48555E+04-1.20235E-09 5.34533E-09
 -1       305 1.12709E+05-2.95106E+04 2.90090E+05-2.85452E+04-3.27418E-09 2.72848E-10
 -1       306-3.35189E+06-4.35215E+05-1.99243E+05-1.28960E+06 7.63976E-10-1.81899E-09
 -1       307-3.42778E+06-5.59949E+05-1.25815E+05-1.28324E+06-4.32919E-10 5.32964E-10
 -1       308-3.38613E+06-4.80900E+05-4.69663E+04-1.28467E+06-1.12868E-09 4.00723E-09
 -1       309-3.38835E+06-5.00534E+05-2.58486E+04-1.29156E+06-7.06564E-09 1.01613E-08
 -1       310-3.38987E+06-4.85983E+05-1.09609E+04-1.28445E+06-2.92039E-09 9.85210E-09
 -1       311-3.38427E+06-4.93838E+05-5.89769E+03-1.29171E+06-4.11910E-09 3.82471E-09
 -1       312-3.39002E+06-4.86828E+05-3.18996E+03-1.28478E+06 2.88310E-10-6.40568E-10
 -1       313-3.38451E+06-4.92549E+05-2.82042E+03-1.29091E+06-4.83715E-09-1.65124E-09
 -1       314-3.38959E+06-4.87232E+05-3.78387E+03-1.28525E+06-4.67480E-10 8.20205E-09
 -1       315-3.38608E+06-4.92430E+05-7.53109E+03-1.28982E+06 6.25903E-09-7.82165E-10
 -1       316-3.38846E+06-4.87031E+05-1.42798E+04-1.28584E+06 2.92198E-09-7.83166E-09
 -1       317-3.39312E+06-4.99510E+05-3.38290E+04-1.28767E+06-1.09972E-09-1.09276E-08
 -1       318-3.38275E+06-4.81181E+05-6.15348E+04-1.28702E+06-1.44428E-09-6.17001E-09
 -1       319-3.44630E+06-5.75846E+05-1.64865E+05-1.27504E+06 2.92857E-10 1.81899E-09
 -1       320-3.33715E+06-4.22010E+05-2.61046E+05-1.29428E+06 1.71713E-09 3.84171E-09
 -1       336 4.39567E+01-1.38020E+06-3.11774E+03 1.92722E+03-2.62014E-09 9.59062E-09
 -1       337-1.46912E+03-1.38109E+06-6.79715E+03-4.35537E+03-1.48884E-09-1.97952E-09
 -1       338 1.05173E+03-1.37940E+06-1.22439E+04 2.42598E+03-3.12184E-09-3.51702E-09
 -1       339-1.47929E+04-1.38908E+06-3.01956E+04-5.39861E+03-2.23054E-09-3.99723E-10
 -1       340 1.08236E+04-1.37231E+06-4.71997E+04 2.95873E+03-3.19415E-09 1.90630E-09
 -1       406 1.47428E+01 5.82944E+05 1.22285E+03-5.46280E+00 1.41256E-09-7.26686E-09
 -1       407 3.95547E+02 5.83189E+05 2.60157E+03-9.27815E+00 3.02407E-10 2.31921E-09
 -1       408 1.30698E+03 5.82756E+05 5.19387E+03 1.58203E+01 1.62572E-09-4.73665E-09
 -1       409 5.58821E+03 5.84847E+05 1.16943E+04-1.94447E+02 2.53067E-10-5.27325E-09
 -1       410 1.61123E+04 5.81274E+05 2.38720E+04 2.01790E+02 1.83354E-09-2.48201E-09
 -1       521-6.68584E+06-8.57622E+05-4.32315E+05-2.57336E+06-1.57161E-09-3.34694E-09
 -1       522-6.85715E+06-1.12290E+06-2.73175E+05-2.55208E+06-5.89353E-10 2.93949E-09
 -1       523-6.75952E+06-9.57720E+05-1.01742E+05-2.56307E+06-2.01544E-09 7.67250E-09
 -1       524-6.77237E+06-9.92438E+05-5.59574E+04-2.56890E+06 6.79984E-09 3.72529E-09
 -1       525-6.76702E+06-9.69352E+05-2.36191E+04-2.56319E+06-1.73623E-09 4.64934E-09
 -1       526-6.76451E+06-9.76783E+05-1.25602E+04-2.56803E+06-1.26261E-09 1.12647E-08
 -1       527-6.76686E+06-9.71690E+05-6.51160E+03-2.56446E+06 1.16734E-09 1.10616E-08
 -1       528-6.76585E+06-9.73080E+05-5.26639E+03-2.56536E+06-4.36239E-09 5.45799E-09
 -1       529-6.76561E+06-9.72945E+05-6.51427E+03-2.56588E+06-3.13730E-09 1.66392E-09
 -1       530-6.76939E+06-9.71906E+05-1.25648E+04-2.56252E+06 3.26236E-09 1.12095E-09
 -1       531-6.76339E+06-9.72977E+05-2.36305E+04-2.56729E+06 5.36943E-10 4.94492E-09
 -1       532-6.78161E+06-9.83202E+05-5.59839E+04-2.55846E+06 2.03272E-10 5.43878E-10
 -1       533-6.75390E+06-9.63335E+05-1.01791E+05-2.56942E+06 1.69348E-09-7.35963E-09
 -1       534-6.86993E+06-1.11023E+06-2.73303E+05-2.53768E+06 6.19184E-09-9.27685E-10
 -1       535-6.67871E+06-8.64657E+05-4.32521E+05-2.58136E+06 1.08412E-09 5.52973E-10
 -1       536-4.08400E+04-1.83416E+04 7.65528E+04-1.70050E+04 1.44428E-09-2.75395E-09
 -1       537-1.17508E+04 2.35364E+04 4.92413E+04-6.55283E+04-6.07270E-09 6.65750E-09
 -1       538-2.94062E+04-2.18759E+03 1.97406E+04-1.67417E+04-3.45608E-11-3.78532E-09
 -1       539-2.54370E+04 2.06312E+03 1.11189E+04-6.58184E+04 2.49383E-09-1.16775E-08
 -1       540-2.82197E+04-3.77726E+02 4.92948E+03-1.67019E+04-9.82254E-11 6.55609E-09
 -1       541-2.74879E+04 1.46648E+02 2.63227E+03-6.58717E+04 1.70621E-09-3.95812E-09
 -1       542-2.81370E+04-7.59024E+01 1.16456E+03-1.66909E+04-1.04774E-09-6.79756E-09
 -1       543-2.80562E+04 8.29486E+01 5.27503E+02-6.58896E+04 1.10117E-09-5.54746E-09
 -1       544-2.81551E+04 2.10214E+01 5.99555E+01-1.66846E+04-1.59162E-11-3.84921E-09
 -1       545-2.82911E+04 8.84335E+01-3.63999E+02-6.58975E+04-5.15570E-11-1.30728E-09
 -1       546-2.81278E+04 7.54976E+01-9.24759E+02-1.66828E+04-2.55909E-10-4.65934E-09
 -1       547-2.85559E+04-3.57402E+02-2.17827E+03-6.58876E+04-1.82808E-10 3.74757E-09
 -1       548-2.78378E+04 3.61900E+02-3.98419E+03-1.66947E+04-2.12185E-09-3.03930E-09
 -1       549-3.08968E+04-4.80013E+03-9.84318E+03-6.57441E+04-3.41970E-10-4.15184E-10
 -1       550-2.54562E+04 3.44216E+03-1.54650E+04-1.68260E+04-4.49290E-10-1.78807E-09
 -1       551 2.15053E+04-5.43761E+05 4.28277E+04-8.28281E+05-3.98359E-09-7.60338E-09
 -1       552 1.84171E+04-5.39580E+05 4.26957E+04-1.00573E+06 9.48785E-09-7.65431E-09
 -1       553 1.41003E+04-5.46754E+05 5.97340E+04-8.26662E+05-5.36238E-09-2.71120E-09
 -1       554 4.44838E+04-5.22209E+05 1.20724E+05-1.00590E+06 8.89122E-09 9.44328E-09
 -1       555 1.00115E+05-5.63706E+05 2.29199E+05-8.27596E+05-6.67933E-09-8.40373E-10
 -1       556-2.22474E+05-1.85626E+05 4.19466E+04-3.06675E+05-1.03901E-08-4.10364E-09
 -1       557-1.81929E+05-2.25263E+05 2.11681E+04-3.38201E+05-2.70666E-09-5.00677E-09
 -1       558-2.23740E+05-1.96152E+05 8.72198E+03-3.00121E+05 7.20320E-10-4.80941E-09
 -1       559-1.87704E+05-2.31137E+05 4.36316E+03-3.40800E+05 4.68572E-09-6.88306E-09
 -1       560-2.25201E+05-1.95468E+05 1.85747E+03-3.00833E+05-3.78350E-10-1.35242E-09
 -1       561-1.89634E+05-2.30711E+05 9.37330E+02-3.42122E+05 1.45519E-10 4.99438E-09
 -1       562-2.26317E+05-1.94757E+05 3.33136E+02-3.01588E+05-6.33008E-10-3.35831E-10
 -1       563-1.90772E+05-2.30222E+05 8.68679E+01-3.42901E+05 6.83940E-10-4.06180E-09
 -1       564-2.26973E+05-1.94342E+05-2.11925E+02-3.02035E+05 4.36557E-10-1.79534E-09
 -1       565-1.91342E+05-2.29986E+05-6.07758E+02-3.43272E+05-5.23869E-10 3.69801E-09
 -1       566-2.27126E+05-1.94200E+05-1.37167E+03-3.02164E+05-2.39652E-10-1.39335E-09
 -1       567-1.91557E+05-2.30103E+05-3.05824E+03-3.43222E+05 3.69255E-10 1.17998E-08
 -1       568-2.26641E+05-1.94654E+05-6.32992E+03-3.01849E+05 1.16052E-09 2.30648E-09
 -1       569-1.94770E+05-2.33600E+05-1.49067E+04-3.41878E+05 1.07138E-09-3.30328E-09
 -1       570-2.24068E+05-2.04481E+05-2.99410E+04-2.97545E+05 7.27596E-11 2.61753E-09
 -1       571 3.68695E+05 1.66442E+04 2.47283E+04-9.66309E+04 5.88443E-10-7.07632E-09
 -1       572 3.72367E+05 5.76948E+03 1.21171E+04-1.05934E+05-2.87400E-10-2.98678E-09
 -1       573 3.70132E+05 1.35909E+03 5.38299E+03-9.63770E+04-5.87534E-10-2.09184E-10
 -1       574 3.70563E+05 4.34468E+02 2.69788E+03-1.06208E+05-5.60249E-10 3.21961E-09
 -1       575 3.70273E+05 5.15623E+01 1.27103E+03-9.63446E+04-4.56112E-10 2.12731E-09
 -1       576 3.70309E+05 9.49548E+00 6.46298E+02-1.06245E+05 5.42627E-10 5.51154E-09
 -1       577 3.70297E+05-1.85932E+01 3.15713E+02-9.63404E+04 4.72028E-10 2.04909E-09
 -1       578 3.70297E+05-1.84878E+01 1.67149E+02-1.06250E+05-8.08541E-10 4.12001E-09
 -1       579 3.70346E+05-3.59156E+01 9.13701E+01-9.63399E+04-1.22145E-09-2.43745E-09
 -1       580 3.70367E+05-5.33069E+01 6.87568E+01-1.06245E+05-5.42059E-10-3.62888E-10
 -1       581 3.70439E+05-8.28629E+01 7.15262E+01-9.63449E+04-1.36970E-09 4.66025E-09
 -1       582 3.70504E+05-1.02195E+02 1.24554E+02-1.06189E+05 9.74978E-10 3.49246E-10
 -1       583 3.70570E+05-1.06797E+02 2.23016E+02-9.63959E+04 2.11367E-09 5.18412E-10
 -1       584 3.70755E+05 3.50252E+01 5.01844E+02-1.05755E+05-2.15368E-09-7.06950E-09
 -1       585 3.70674E+05 4.51997E+02 1.00475E+03-9.67796E+04 4.09273E-10-8.34916E-09
 -1       586 2.74273E+03 1.74865E+05 4.95609E+03-2.28831E+05 1.96178E-09 1.29394E-08
 -1       587 1.67717E+03 1.75631E+05 5.04746E+03-2.53450E+05 3.38332E-10 2.28697E-08
 -1       588 2.04691E+03 1.74664E+05 7.48009E+03-2.28521E+05 2.22826E-09 1.43659E-08
 -1       589 7.25435E+03 1.77515E+05 1.55380E+04-2.53549E+05 4.31100E-10-6.08043E-09
 -1       590 2.02800E+04 1.72775E+05 3.10125E+04-2.28720E+05 2.10093E-09 7.21184E-09
 -1       591-1.93072E+05-5.76348E+04-3.68340E+04-9.26320E+04 3.78895E-09-3.83443E-09
 -1       592-1.95291E+05-5.52281E+04-1.84192E+04-1.02665E+05 8.87144E-09-2.57182E-09
 -1       593-1.94760E+05-4.65485E+04-7.82057E+03-9.80578E+04 5.02405E-09-1.32059E-09
 -1       594-1.91173E+05-5.05819E+04-3.83826E+03-1.03067E+05 4.86580E-10-2.61836E-09
 -1       595-1.94962E+05-4.62336E+04-1.77083E+03-9.82703E+04 1.75874E-09-4.60261E-09
 -1       596-1.90889E+05-5.04168E+04-8.95553E+02-1.03029E+05 1.27454E-09-7.86690E-09
 -1       597-1.94996E+05-4.62644E+04-4.83020E+02-9.82708E+04 9.09469E-09-6.38124E-09
 -1       598-1.90858E+05-5.04196E+04-3.77729E+02-1.03015E+05 2.23181E-08 1.00285E-08
 -1       599-1.94991E+05-4.62682E+04-4.69338E+02-9.82677E+04 1.02280E-08 4.83806E-09
 -1       600-1.90878E+05-5.04218E+04-8.59211E+02-1.03018E+05-1.05683E-09 1.52113E-09
 -1       601-1.94946E+05-4.62453E+04-1.69239E+03-9.82611E+04 4.47790E-09 4.47471E-10
 -1       602-1.91142E+05-5.05797E+04-3.66442E+03-1.03040E+05 1.16443E-08 6.54745E-09
 -1       603-1.94740E+05-4.65572E+04-7.46490E+03-9.80566E+04 3.88081E-09-5.31327E-09
 -1       604-1.95104E+05-5.49705E+04-1.75766E+04-1.02594E+05-3.26327E-09-7.16500E-09
 -1       605-1.93077E+05-5.71762E+04-3.51488E+04-9.29176E+04 2.72848E-09 2.80943E-09
 -1       606 1.40426E+05-1.53191E+04-2.37434E+04 4.50756E+04-8.06904E-09 7.91260E-10
 -1       607 1.36696E+05-5.17976E+03-1.16691E+04 4.93140E+04-1.96087E-09 6.02085E-10
 -1       608 1.38835E+05-1.12044E+03-5.19728E+03 4.47685E+04 4.74574E-09 2.14914E-09
 -1       609 1.38327E+05-2.89655E+02-2.60505E+03 4.96488E+04-3.47245E-09 7.72616E-09
 -1       610 1.38587E+05 4.02522E+01-1.23222E+03 4.47297E+04-8.10178E-09 1.02682E-09
 -1       611 1.38470E+05 1.05643E+02-6.18443E+02 4.96898E+04-1.20890E-08 6.30371E-09
 -1       612 1.38506E+05 1.18794E+02-2.93348E+02 4.47256E+04-1.62072E-08 1.76396E-09
 -1       613 1.38448E+05 1.41863E+02-1.30362E+02 4.96943E+04-3.10893E-08 6.45741E-11
 -1       614 1.38457E+05 1.32114E+02-3.02524E+01 4.47247E+04-1.37616E-08-1.58707E-09
 -1       615 1.38417E+05 1.59846E+02 5.73612E+01 4.96942E+04 8.27276E-09 3.10729E-09
 -1       616 1.38420E+05 1.53547E+02 1.69186E+02 4.47254E+04-3.89809E-09 5.38876E-10
 -1       617 1.38421E+05 2.28642E+02 3.89499E+02 4.96920E+04 4.11819E-09-3.87445E-10
 -1       618 1.38371E+05 3.36368E+02 7.89590E+02 4.47262E+04 4.24188E-09-2.40698E-09
 -1       619 1.38667E+05 9.79503E+02 1.78244E+03 4.96834E+04 1.40881E-09-2.15050E-09
 -1       620 1.38128E+05 2.50981E+03 3.62888E+03 4.47282E+04 5.30918E-11-1.73623E-09
 -1       621 1.44664E+03 3.94793E+05 4.74709E+03-3.44711E+04-1.31877E-09 3.18437E-09
 -1       622 6.61262E+02 3.95739E+05 4.91280E+03-4.19047E+04 4.73619E-10 4.12456E-09
 -1       623 4.26012E+02 3.94916E+05 7.17136E+03-3.44749E+04-1.15278E-09-4.14275E-10
 -1       624 3.85203E+03 3.98071E+05 1.46958E+04-4.17814E+04 7.99901E-10-1.45444E-08
 -1       625 1.11558E+04 3.92511E+05 2.80820E+04-3.45877E+04-8.53106E-10-4.81032E-09
 -1       626 2.36415E+05 7.85586E+04-4.39250E+03 1.53142E+05-8.01447E-09-1.27093E-08
 -1       627 2.31150E+05 8.48308E+04-2.08321E+03 1.57681E+05 1.25146E-09-6.97764E-09
 -1       628 2.36576E+05 8.05579E+04-8.77391E+02 1.51892E+05 1.21472E-08 1.35101E-08
 -1       629 2.31244E+05 8.58989E+04-4.15201E+02 1.57750E+05 5.73891E-09 8.46569E-09
 -1       630 2.36526E+05 8.07131E+04-1.78585E+02 1.51754E+05 1.02809E-08 8.10826E-09
 -1       631 2.31192E+05 8.60002E+04-6.52765E+01 1.57733E+05-7.80256E-09-2.85860E-09
 -1       632 2.36476E+05 8.07350E+04 1.27277E+01 1.51719E+05-8.39736E-09-1.50430E-09
 -1       633 2.31160E+05 8.60177E+04 9.80923E+01 1.57715E+05 1.05265E-08 5.31827E-09
 -1       634 2.36442E+05 8.07353E+04 2.32577E+02 1.51705E+05 2.72958E-08 1.56351E-08
 -1       635 2.31172E+05 8.60283E+04 5.19845E+02 1.57712E+05 1.69853E-08 3.65208E-09
 -1       636 2.36415E+05 8.07571E+04 1.07427E+03 1.51686E+05 2.40902E-10-6.13909E-09
 -1       637 2.31426E+05 8.63021E+04 2.39407E+03 1.57673E+05 2.61468E-09 2.72030E-09
 -1       638 2.36363E+05 8.15859E+04 4.95519E+03 1.51325E+05-3.21688E-09-4.85215E-09
 -1       639 2.33969E+05 9.06211E+04 1.17832E+04 1.56636E+05-2.13495E-08 1.45883E-09
 -1       640 2.36456E+05 9.41349E+04 2.48028E+04 1.46096E+05-1.92972E-08 1.87897E-08
 -1       656 1.41707E+04-5.53765E+05-6.41649E+04 1.79889E+04 1.55196E-08 1.57434E-09
 -1       657-2.12173E+04-5.77069E+05-4.70728E+04 6.81008E+04 7.89623E-09 2.84217E-09
 -1       658 2.78587E+03-5.62034E+05-3.04961E+04 1.78032E+04 1.05478E-08 2.26146E-09
 -1       659-2.03225E+04-5.76636E+05-4.55381E+04 6.82257E+04 1.29407E-08 4.82135E-09
 -1       660 1.35203E+04-5.54308E+05-6.12379E+04 1.78662E+04 8.94943E-09-8.12861E-10
 -1       661 3.71621E+05 5.25143E+04 2.90625E+04 1.46257E+05-5.89171E-09-5.34055E-09
 -1       662 3.77719E+05 6.87052E+04 1.73860E+04 1.50639E+05 5.91496E-09-1.81512E-09
 -1       663 3.75996E+05 5.65027E+04 6.81205E+03 1.46399E+05 1.44005E-08-2.65482E-09
 -1       664 3.72581E+05 6.18928E+04 3.57709E+03 1.51394E+05-3.68772E-09 3.31806E-09
 -1       665 3.76402E+05 5.68647E+04 1.58995E+03 1.46427E+05 1.12516E-09-1.70184E-09
 -1       666 3.72105E+05 6.13416E+04 8.44503E+02 1.51415E+05 1.03964E-08-2.62759E-09
 -1       667 3.76446E+05 5.69018E+04 4.93514E+02 1.46433E+05 6.85075E-09 3.56425E-09
 -1       668 3.72063E+05 6.13057E+04 4.74482E+02 1.51417E+05-6.56780E-09 1.12061E-09
 -1       669 3.76444E+05 5.68938E+04 6.94235E+02 1.46429E+05-3.30988E-09-3.61058E-09
 -1       670 3.72144E+05 6.13890E+04 1.38622E+03 1.51438E+05 3.71256E-09 4.73079E-09
 -1       671 3.76372E+05 5.68208E+04 2.72000E+03 1.46414E+05 3.65299E-09 2.65413E-09
 -1       672 3.72967E+05 6.23541E+04 6.18624E+03 1.51415E+05-4.21562E-09 3.77065E-09
 -1       673 3.75670E+05 5.61881E+04 1.18043E+04 1.46360E+05-1.05081E-08-6.17820E-09
 -1       674 3.81873E+05 7.41794E+04 3.01495E+04 1.50118E+05 5.66524E-09-4.64934E-09
 -1       675 3.68088E+05 4.92661E+04 5.04028E+04 1.46108E+05 1.86633E-08 3.32147E-09
 -1       676 1.06246E+02-5.43350E+05-3.04516E+03 4.25880E+02 1.31956E-08-9.53165E-10
 -1       677-1.15971E+03-5.44275E+05-5.69466E+03-8.49527E+02 2.24782E-09 2.03282E-09
 -1       678 8.84449E+02-5.42728E+05-9.80604E+03 4.23396E+02 1.44696E-08-8.53603E-10
 -1       679-1.17032E+04-5.50522E+05-2.39491E+04-8.44485E+02-6.16274E-09 2.58903E-09
 -1       680 8.59530E+03-5.37109E+05-3.73159E+04 4.17697E+02 1.03046E-08-5.90614E-09
 -1       771-3.02314E+06-5.96530E+05-8.24067E+04-1.31154E+06 4.50382E-09 3.72529E-09
 -1       772-3.00910E+06-6.08910E+05-4.10403E+04-1.35457E+06-6.21367E-09 5.22232E-09
 -1       773-3.02917E+06-5.70270E+05-1.76365E+04-1.32338E+06-1.88447E-09-1.36060E-09
 -1       774-3.00038E+06-5.99293E+05-8.57357E+03-1.35818E+06 2.99769E-09-4.46744E-09
 -1       775-3.03113E+06-5.68552E+05-4.07662E+03-1.32440E+06-1.21508E-09-7.49424E-10
 -1       776-3.00073E+06-5.98743E+05-2.01201E+03-1.35952E+06-1.12050E-09 1.66165E-09
 -1       777-3.03235E+06-5.67898E+05-1.14332E+03-1.32489E+06-8.75298E-09 1.60662E-09
 -1       778-3.00142E+06-5.98546E+05-8.44263E+02-1.36045E+06-1.62672E-08 1.34210E-08
 -1       779-3.03310E+06-5.67427E+05-1.08086E+03-1.32521E+06-8.74934E-09 3.04681E-09
 -1       780-3.00193E+06-5.98428E+05-1.94925E+03-1.36102E+06-2.19734E-09-1.18780E-09
 -1       781-3.03335E+06-5.67145E+05-3.87586E+03-1.32535E+06-9.36780E-10 1.21872E-10
 -1       782-3.00269E+06-5.98744E+05-8.41692E+03-1.36122E+06 3.74496E-09 2.67755E-09
 -1       783-3.03283E+06-5.67899E+05-1.72016E+04-1.32489E+06 1.30785E-09-9.09495E-11
 -1       784-3.01183E+06-6.08793E+05-4.05749E+04-1.35979E+06-5.69798E-10 1.98634E-09
 -1       785-3.02850E+06-5.92772E+05-8.12341E+04-1.31304E+06 1.81899E-12 1.58616E-09
 -1       786 2.97056E+05-8.81710E+03 3.82594E+04-2.72313E+03 2.72166E-10 1.47338E-10
 -1       787 3.10846E+05 1.19937E+04 2.44982E+04-1.08965E+04-1.99179E-10 6.03450E-10
 -1       788 3.02822E+05-9.08693E+02 9.91416E+03-2.72157E+03-9.68384E-10-3.81988E-09
 -1       789 3.04413E+05 1.17794E+03 5.53386E+03-1.08819E+04 1.17296E-09-3.35831E-09
 -1       790 3.03474E+05-9.86995E+01 2.51872E+03-2.73668E+03 2.46928E-10-1.41540E-09
 -1       791 3.03670E+05 1.13994E+02 1.35136E+03-1.08602E+04 6.49834E-10-2.13021E-10
 -1       792 3.03557E+05-1.23853E+01 6.93221E+02-2.74331E+03-4.95533E-10-1.45849E-09
 -1       793 3.03578E+05 1.46122E+01 4.61262E+02-1.08563E+04-1.48319E-10-1.00215E-10
 -1       794 3.03565E+05-7.20320E+00 4.27222E+02-2.74052E+03 6.11237E-10 6.35296E-10
 -1       795 3.03609E+05 4.81534E+01 6.51147E+02-1.08718E+04 3.85114E-10 4.21062E-09
 -1       796 3.03532E+05-4.50761E+01 1.12404E+03-2.72779E+03 1.95894E-09 3.75508E-10
 -1       797 3.03936E+05 5.06470E+02 2.41836E+03-1.09041E+04 5.02769E-09-7.39163E-09
 -1       798 3.03251E+05-3.98909E+02 4.30946E+03-2.70825E+03 2.08161E-09 5.47516E-10
 -1       799 3.06738E+05 5.19777E+03 1.06383E+04-1.09239E+04-1.91710E-09-1.29467E-09
 -1       800 3.00750E+05-3.83570E+03 1.66040E+04-2.70862E+03 6.29598E-10-3.88172E-09
 -1       801-2.11842E+04 3.18095E+05 4.10392E+04-4.90621E+05 2.33558E-09 7.58155E-09
 -1       802 6.62703E+04 3.17284E+05 6.72312E+04-1.91521E+06-1.17070E-08-1.30967E-09
 -1       803 7.00084E+03 3.04703E+05 8.36630E+04-4.89359E+05 5.93718E-09 1.35501E-08
 -1       804 1.35083E+05 3.58294E+05 1.89408E+05-1.91486E+06-1.71713E-08-1.06083E-08
 -1       805-7.66369E+04 2.77292E+05 2.72408E+05-4.91011E+05 5.76256E-09 4.01633E-09
 -1       806-2.69751E+05-8.31976E+04-2.28926E+04-1.39755E+05 3.87104E-11-4.72937E-11
 -1       807-2.68662E+05-7.87448E+04-1.08724E+04-1.48152E+05-1.89630E-10 9.96693E-10
 -1       808-2.69717E+05-7.15937E+04-4.57322E+03-1.44608E+05-1.01318E-09 6.17729E-09
 -1       809-2.66366E+05-7.47357E+04-2.20901E+03-1.49134E+05-1.14960E-09 2.09093E-09
 -1       810-2.69793E+05-7.08133E+04-9.96392E+02-1.44958E+05-8.39009E-10-5.07725E-10
 -1       811-2.66150E+05-7.44765E+04-4.91624E+02-1.49180E+05 1.48202E-09-6.25118E-09
 -1       812-2.69817E+05-7.07913E+04-2.42342E+02-1.44975E+05 6.50311E-09 1.04314E-08
 -1       813-2.66125E+05-7.44719E+04-1.50753E+02-1.49174E+05 1.37743E-09-8.16090E-09
 -1       814-2.69815E+05-7.07999E+04-1.37836E+02-1.44970E+05 4.74893E-09 1.55615E-09
 -1       815-2.66124E+05-7.44808E+04-2.13805E+02-1.49165E+05-3.05954E-09-1.18480E-08
 -1       816-2.69790E+05-7.08188E+04-4.00311E+02-1.44956E+05-1.75669E-09-4.28008E-09
 -1       817-2.66203E+05-7.45782E+04-8.70932E+02-1.49120E+05 5.46152E-10-9.38599E-10
 -1       818-2.69732E+05-7.11474E+04-1.79658E+03-1.44820E+05 7.29415E-10 1.25419E-09
 -1       819-2.67182E+05-7.60552E+04-4.26456E+03-1.48600E+05 4.55202E-10 1.08230E-10
 -1       820-2.69626E+05-7.57939E+04-8.97874E+03-1.43007E+05-1.36515E-09 4.77485E-10
 -1       821-3.84113E+05 1.08559E+04-4.71750E+04 2.88482E+03-4.07044E-09-8.33097E-10
 -1       822-4.01073E+05-1.47888E+04-3.02041E+04 1.21661E+04-1.59162E-09 2.74940E-09
 -1       823-3.91229E+05 1.11233E+03-1.22316E+04 2.77682E+03 3.61388E-09-1.97815E-10
 -1       824-3.93183E+05-1.43208E+03-6.82987E+03 1.23230E+04-5.62068E-10-6.06406E-09
 -1       825-3.92038E+05 1.22933E+02-3.12858E+03 2.72632E+03-8.16499E-09 1.05229E-09
 -1       826-3.92297E+05-1.07933E+02-1.70931E+03 1.24062E+04-1.59462E-08-1.27329E-11
 -1       827-3.92142E+05 2.31750E+01-9.43982E+02 2.69323E+03-8.92032E-09 3.08535E-09
 -1       828-3.92207E+05 1.52022E+01-7.52106E+02 1.24577E+04-9.19408E-09 1.76087E-09
 -1       829-3.92146E+05 2.44931E+01-8.85516E+02 2.67478E+03-8.03141E-10 1.65298E-09
 -1       830-3.92302E+05-8.60447E+01-1.55833E+03 1.24786E+04 7.23333E-09-7.62370E-10
 -1       831-3.92055E+05 1.18606E+02-2.82406E+03 2.67229E+03-6.25164E-09-2.19848E-09
 -1       832-3.93116E+05-1.27168E+03-6.15663E+03 1.24676E+04-1.89723E-09-1.51067E-09
 -1       833-3.91330E+05 1.01397E+03-1.10141E+04 2.68613E+03-1.04524E-09 2.49656E-09
 -1       834-4.00237E+05-1.32962E+04-2.72054E+04 1.24065E+04-5.55912E-09-9.38735E-09
 -1       835-3.84923E+05 9.79402E+03-4.24822E+04 2.73652E+03 9.11768E-11-7.27596E-11
 -1       836-5.24046E+03 6.18421E+05 5.10637E+04-3.36236E+04-2.28829E-09-2.84217E-09
 -1       837 1.25329E+04 6.34942E+05 3.91323E+04-7.57363E+04 8.35939E-10 3.44824E-09
 -1       838-1.21186E+03 6.23900E+05 3.26314E+04-3.35473E+04-3.29055E-09 3.14090E-09
 -1       839 2.01237E+04 6.40286E+05 5.58101E+04-7.57330E+04 1.31877E-09-2.88901E-09
 -1       840-9.06506E+03 6.13077E+05 8.44068E+04-3.36249E+04-3.27782E-09 3.63252E-09
 -1       856-3.26247E+05 4.16747E+03-3.77990E+04 1.16017E+04-9.56970E-09-5.74801E-10
 -1       857-3.38428E+05-8.75070E+03-2.29311E+04 2.68527E+04-7.30552E-09-3.07500E-09
 -1       858-3.31543E+05 3.99737E+02-9.68938E+03 1.14552E+04-6.60111E-09 2.66755E-09
 -1       859-3.32741E+05-5.35140E+02-5.19016E+03 2.70258E+04 5.90899E-09 3.11513E-09
 -1       860-3.32044E+05 8.82778E+01-2.44587E+03 1.14232E+04-7.03039E-10-2.92266E-09
 -1       861-3.32243E+05 7.85992E+01-1.28514E+03 2.70704E+04-1.08839E-08-2.98155E-09
 -1       862-3.32113E+05 6.23754E+01-6.76432E+02 1.14097E+04 9.51718E-09-6.44297E-09
 -1       863-3.32196E+05 1.26838E+02-4.55373E+02 2.70860E+04 2.12570E-08-4.65445E-09
 -1       864-3.32120E+05 6.10098E+01-4.41977E+02 1.14075E+04 1.35944E-08-3.54248E-10
 -1       865-3.32210E+05 1.05622E+02-6.80261E+02 2.70781E+04 8.83824E-09-9.29475E-09
 -1       866-3.32086E+05 7.04625E+01-1.21334E+03 1.14176E+04-3.70687E-09-1.41927E-09
 -1       867-3.32438E+05-1.97210E+02-2.52808E+03 2.70431E+04-7.09929E-09-1.87136E-10
 -1       868-3.31837E+05 2.14281E+02-4.70261E+03 1.14430E+04 1.13232E-09-9.37462E-10
 -1       869-3.35167E+05-4.18722E+03-1.11108E+04 2.68877E+04-8.83097E-09-6.87669E-09
 -1       870-3.29261E+05 2.02726E+03-1.83185E+04 1.15761E+04 3.05681E-09 1.06411E-10
 -1       871-5.30991E+03-4.60112E+04-1.11225E+04 1.64010E+05-4.92219E-09 1.49157E-09
 -1       872-1.93680E+03-4.82354E+04-3.37717E+03 1.98912E+05-6.28097E-09-1.99589E-09
 -1       873-1.31785E+02-4.74847E+04 3.11391E+03 1.63673E+05-4.04725E-09 1.82445E-09
 -1       874 3.11530E+03-4.47338E+04 1.18960E+04 1.99044E+05-8.62292E-09 1.84264E-09
 -1       875 9.97410E+03-4.97827E+04 2.53188E+04 1.63904E+05-2.07729E-09-7.33962E-10
 -1       876 4.81793E+05 6.89050E+04 4.35963E+04 1.92078E+05-1.98588E-09 1.52068E-09
 -1       877 4.89665E+05 9.45115E+04 2.60836E+04 2.00152E+05 5.42650E-09 7.17773E-09
 -1       878 4.88351E+05 7.48946E+04 1.02143E+04 1.92282E+05 2.19393E-09 3.49064E-09
 -1       879 4.81949E+05 8.42830E+04 5.36174E+03 2.01254E+05-1.11056E-08-4.43833E-10
 -1       880 4.88939E+05 7.54592E+04 2.37242E+03 1.92338E+05-9.75865E-09 4.86352E-10
 -1       881 4.81248E+05 8.34327E+04 1.24275E+03 2.01244E+05 3.05408E-09 8.04420E-10
 -1       882 4.88988E+05 7.55330E+04 6.89719E+02 1.92357E+05-3.94402E-09-1.52474E-09
 -1       883 4.81191E+05 8.33571E+04 6.02510E+02 2.01214E+05-2.41198E-09 6.60293E-09
 -1       884 4.88979E+05 7.55361E+04 8.18897E+02 1.92361E+05-2.32142E-09-3.70164E-09
 -1       885 4.81288E+05 8.34413E+04 1.58973E+03 2.01224E+05 1.14769E-08-2.30710E-09
 -1       886 4.88896E+05 7.54555E+04 3.09811E+03 1.92346E+05 4.81509E-09-2.09025E-09
 -1       887 4.82225E+05 8.45370E+04 7.03294E+03 2.01200E+05-1.42759E-08-3.68937E-09
 -1       888 4.88102E+05 7.47317E+04 1.34143E+04 1.92283E+05 5.42525E-09 2.12276E-09
 -1       889 4.92351E+05 9.79717E+04 3.42573E+04 1.99736E+05 1.42703E-08 2.89219E-09
 -1       890 4.79490E+05 6.68631E+04 5.72669E+04 1.92000E+05 1.75160E-08 3.03407E-09
 -1       891 7.82795E+02-2.26014E+05-9.17665E+03 4.99296E+04-1.60117E-09-4.87489E-10
 -1       892-2.45493E+03-2.28858E+05-6.88125E+03 1.13226E+05-1.41886E-08-3.47154E-09
 -1       893 1.17087E+02-2.27090E+05-5.54967E+03 4.97693E+04-9.05948E-09 1.36657E-09
 -1       894-3.55149E+03-2.29597E+05-9.26587E+03 1.13208E+05-1.49175E-08 3.59660E-09
 -1       895 1.31144E+03-2.25230E+05-1.39476E+04 4.99470E+04-5.33601E-09 1.47793E-09
 -1       956-4.40751E+05-7.80068E+03-1.96192E+04 5.18135E+04-1.70985E-10-1.76078E-09
 -1       957-4.44654E+05-2.59736E+03-1.00661E+04 6.24258E+04 4.69663E-09-3.88445E-09
 -1       958-4.42568E+05-1.78524E+02-4.54027E+03 5.14822E+04 5.53337E-09-9.05402E-10
 -1       959-4.42925E+05 4.17880E+01-2.31483E+03 6.27869E+04-4.20914E-09-4.41423E-09
 -1       960-4.42788E+05 1.38314E+02-1.12831E+03 5.14479E+04-6.46105E-09-1.09321E-09
 -1       961-4.42858E+05 1.75828E+02-5.91146E+02 6.28267E+04-1.45965E-08 7.50242E-09
 -1       962-4.42862E+05 1.57838E+02-3.28466E+02 5.14414E+04-4.61387E-09 2.23190E-09
 -1       963-4.42889E+05 1.98829E+02-2.43977E+02 6.28354E+04-8.42010E-09 4.76257E-09
 -1       964-4.42889E+05 1.72746E+02-2.74090E+02 5.14388E+04-1.87902E-09-1.16188E-09
 -1       965-4.42914E+05 2.08820E+02-4.55103E+02 6.28359E+04 6.73390E-09 1.13141E-09
 -1       966-4.42872E+05 1.82138E+02-8.45627E+02 5.14407E+04-4.09364E-09-2.41425E-09
 -1       967-4.43006E+05 1.31684E+02-1.72906E+03 6.28140E+04 1.45246E-09 1.35515E-10
 -1       968-4.42739E+05-3.48195E+01-3.38445E+03 5.14613E+04 2.61934E-09 1.89993E-09
 -1       969-4.44329E+05-1.82219E+03-7.51078E+03 6.25852E+04 1.91903E-09 8.13327E-09
 -1       970-4.41401E+05-5.71433E+03-1.46353E+04 5.16779E+04 9.04038E-10 5.43514E-09
 -1       971-5.90611E+05 3.03023E+03-2.76501E+04 1.18745E+04-8.82301E-09 1.25510E-09
 -1       972-5.99469E+05-6.39012E+03-1.67695E+04 2.78684E+04-9.38599E-09 3.52156E-09
 -1       973-5.94494E+05 2.88820E+02-7.09754E+03 1.16743E+04-3.79350E-09 3.20142E-09
 -1       974-5.95345E+05-3.68334E+02-3.81120E+03 2.81271E+04-3.03885E-09 2.88696E-09
 -1       975-5.94871E+05 7.19144E+01-1.82447E+03 1.16124E+04 3.49655E-09-1.73372E-09
 -1       976-5.95007E+05 9.18781E+01-1.00860E+03 2.82204E+04-3.80055E-09-1.43854E-09
 -1       977-5.94927E+05 6.13253E+01-6.32166E+02 1.15802E+04 1.54660E-08-4.83772E-09
 -1       978-5.94998E+05 1.31889E+02-6.13445E+02 2.82629E+04 2.90146E-08-7.09781E-09
 -1       979-5.94926E+05 6.94312E+01-8.74677E+02 1.15697E+04 1.22225E-08-4.78389E-09
 -1       980-5.95076E+05 8.06574E+01-1.63879E+03 2.82615E+04 1.63467E-08-2.23633E-09
 -1       981-5.94849E+05 1.10466E+02-3.10362E+03 1.15816E+04 3.09228E-10-2.75730E-09
 -1       982-5.95732E+05-6.87248E+02-6.58555E+03 2.82126E+04-4.14866E-09-3.21927E-09
 -1       983-5.94224E+05 5.15371E+02-1.22863E+04 1.16196E+04 5.45333E-09-5.34874E-09
 -1       984-6.02976E+05-1.11012E+04-2.90921E+04 2.80293E+04-2.16096E-09-5.72118E-09
 -1       985-5.87516E+05 5.30990E+03-4.79432E+04 1.17731E+04 4.22278E-09-2.65572E-10
 -3
 9999
