    1C
    1UUSER                                                              
    1UDATE              11.october.2022                                 
    1UTIME              17:44:23                                        
    1UHOST                                                              
    1UPGM               CalculiX                                        
    1UVERSION           Version 2.20                             
    1UCOMPILETIME       Sun Jul 31 18:08:37 CEST 2022                    
    1UDIR                                                               
    1UDBN                                                               
    1UMAT    1MESH_MATERIAL                                             
    2C                           841                                     1
 -1         1 0.00000E+00 0.00000E+00 0.00000E+00
 -1         2 1.66667E-02 0.00000E+00 0.00000E+00
 -1         3 3.33333E-02 0.00000E+00 0.00000E+00
 -1         4 5.00000E-02 0.00000E+00 0.00000E+00
 -1         5 6.66667E-02 0.00000E+00 0.00000E+00
 -1         8 0.00000E+00 6.25000E-03 0.00000E+00
 -1         9 1.66667E-02 6.25000E-03 0.00000E+00
 -1        10 3.33333E-02 6.25000E-03 0.00000E+00
 -1        11 5.00000E-02 6.25000E-03 0.00000E+00
 -1        12 6.66667E-02 6.25000E-03 0.00000E+00
 -1        15 0.00000E+00 1.25000E-02 0.00000E+00
 -1        16 1.66667E-02 1.25000E-02 0.00000E+00
 -1        17 3.33333E-02 1.25000E-02 0.00000E+00
 -1        18 5.00000E-02 1.25000E-02 0.00000E+00
 -1        19 6.66667E-02 1.25000E-02 0.00000E+00
 -1        20 8.33333E-02 1.25000E-02 0.00000E+00
 -1        21 1.00000E-01 1.25000E-02 0.00000E+00
 -1        22 0.00000E+00 1.87500E-02 0.00000E+00
 -1        23 1.66667E-02 1.87500E-02 0.00000E+00
 -1        24 3.33333E-02 1.87500E-02 0.00000E+00
 -1        25 5.00000E-02 1.87500E-02 0.00000E+00
 -1        26 6.66667E-02 1.87500E-02 0.00000E+00
 -1        27 8.33333E-02 1.87500E-02 0.00000E+00
 -1        28 1.00000E-01 1.87500E-02 0.00000E+00
 -1        29 0.00000E+00 2.50000E-02 0.00000E+00
 -1        30 1.66667E-02 2.50000E-02 0.00000E+00
 -1        31 3.33333E-02 2.50000E-02 0.00000E+00
 -1        32 5.00000E-02 2.50000E-02 0.00000E+00
 -1        33 6.66667E-02 2.50000E-02 0.00000E+00
 -1        34 8.33333E-02 2.50000E-02 0.00000E+00
 -1        35 1.00000E-01 2.50000E-02 0.00000E+00
 -1        36 1.04167E-03 0.00000E+00 0.00000E+00
 -1        37 2.08333E-03 0.00000E+00 0.00000E+00
 -1        38 3.12500E-03 0.00000E+00 0.00000E+00
 -1        39 4.16667E-03 0.00000E+00 0.00000E+00
 -1        40 5.20833E-03 0.00000E+00 0.00000E+00
 -1        41 6.25000E-03 0.00000E+00 0.00000E+00
 -1        42 7.29167E-03 0.00000E+00 0.00000E+00
 -1        43 8.33333E-03 0.00000E+00 0.00000E+00
 -1        44 9.37500E-03 0.00000E+00 0.00000E+00
 -1        45 1.04167E-02 0.00000E+00 0.00000E+00
 -1        46 1.14583E-02 0.00000E+00 0.00000E+00
 -1        47 1.25000E-02 0.00000E+00 0.00000E+00
 -1        48 1.35417E-02 0.00000E+00 0.00000E+00
 -1        49 1.45833E-02 0.00000E+00 0.00000E+00
 -1        50 1.56250E-02 0.00000E+00 0.00000E+00
 -1        51 0.00000E+00 1.04167E-03 0.00000E+00
 -1        52 0.00000E+00 2.08333E-03 0.00000E+00
 -1        53 0.00000E+00 3.12500E-03 0.00000E+00
 -1        54 0.00000E+00 4.16667E-03 0.00000E+00
 -1        55 0.00000E+00 5.20833E-03 0.00000E+00
 -1        56 1.04167E-03 3.90630E-04 0.00000E+00
 -1        57 2.08333E-03 7.81250E-04 0.00000E+00
 -1        58 3.12500E-03 1.17188E-03 0.00000E+00
 -1        59 4.16667E-03 1.56250E-03 0.00000E+00
 -1        60 5.20833E-03 1.95312E-03 0.00000E+00
 -1        61 6.25000E-03 2.34375E-03 0.00000E+00
 -1        62 7.29167E-03 2.73438E-03 0.00000E+00
 -1        63 8.33333E-03 3.12500E-03 0.00000E+00
 -1        64 9.37500E-03 3.51563E-03 0.00000E+00
 -1        65 1.04167E-02 3.90625E-03 0.00000E+00
 -1        66 1.14583E-02 4.29688E-03 0.00000E+00
 -1        67 1.25000E-02 4.68750E-03 0.00000E+00
 -1        68 1.35417E-02 5.07813E-03 0.00000E+00
 -1        69 1.45833E-02 5.46875E-03 0.00000E+00
 -1        70 1.56250E-02 5.85938E-03 0.00000E+00
 -1        71 1.77083E-02 0.00000E+00 0.00000E+00
 -1        72 1.87500E-02 0.00000E+00 0.00000E+00
 -1        73 1.97917E-02 0.00000E+00 0.00000E+00
 -1        74 2.08333E-02 0.00000E+00 0.00000E+00
 -1        75 2.18750E-02 0.00000E+00 0.00000E+00
 -1        76 2.29167E-02 0.00000E+00 0.00000E+00
 -1        77 2.39583E-02 0.00000E+00 0.00000E+00
 -1        78 2.50000E-02 0.00000E+00 0.00000E+00
 -1        79 2.60417E-02 0.00000E+00 0.00000E+00
 -1        80 2.70833E-02 0.00000E+00 0.00000E+00
 -1        81 2.81250E-02 0.00000E+00 0.00000E+00
 -1        82 2.91667E-02 0.00000E+00 0.00000E+00
 -1        83 3.02083E-02 0.00000E+00 0.00000E+00
 -1        84 3.12500E-02 0.00000E+00 0.00000E+00
 -1        85 3.22917E-02 0.00000E+00 0.00000E+00
 -1        86 1.66667E-02 1.04167E-03 0.00000E+00
 -1        87 1.66667E-02 2.08333E-03 0.00000E+00
 -1        88 1.66667E-02 3.12500E-03 0.00000E+00
 -1        89 1.66667E-02 4.16667E-03 0.00000E+00
 -1        90 1.66667E-02 5.20833E-03 0.00000E+00
 -1        91 1.77083E-02 3.90630E-04 0.00000E+00
 -1        92 1.87500E-02 7.81250E-04 0.00000E+00
 -1        93 1.97917E-02 1.17188E-03 0.00000E+00
 -1        94 2.08333E-02 1.56250E-03 0.00000E+00
 -1        95 2.18750E-02 1.95312E-03 0.00000E+00
 -1        96 2.29167E-02 2.34375E-03 0.00000E+00
 -1        97 2.39583E-02 2.73438E-03 0.00000E+00
 -1        98 2.50000E-02 3.12500E-03 0.00000E+00
 -1        99 2.60417E-02 3.51563E-03 0.00000E+00
 -1       100 2.70833E-02 3.90625E-03 0.00000E+00
 -1       101 2.81250E-02 4.29688E-03 0.00000E+00
 -1       102 2.91667E-02 4.68750E-03 0.00000E+00
 -1       103 3.02083E-02 5.07813E-03 0.00000E+00
 -1       104 3.12500E-02 5.46875E-03 0.00000E+00
 -1       105 3.22917E-02 5.85938E-03 0.00000E+00
 -1       106 3.43750E-02 0.00000E+00 0.00000E+00
 -1       107 3.54167E-02 0.00000E+00 0.00000E+00
 -1       108 3.64583E-02 0.00000E+00 0.00000E+00
 -1       109 3.75000E-02 0.00000E+00 0.00000E+00
 -1       110 3.85417E-02 0.00000E+00 0.00000E+00
 -1       111 3.95833E-02 0.00000E+00 0.00000E+00
 -1       112 4.06250E-02 0.00000E+00 0.00000E+00
 -1       113 4.16667E-02 0.00000E+00 0.00000E+00
 -1       114 4.27083E-02 0.00000E+00 0.00000E+00
 -1       115 4.37500E-02 0.00000E+00 0.00000E+00
 -1       116 4.47917E-02 0.00000E+00 0.00000E+00
 -1       117 4.58333E-02 0.00000E+00 0.00000E+00
 -1       118 4.68750E-02 0.00000E+00 0.00000E+00
 -1       119 4.79167E-02 0.00000E+00 0.00000E+00
 -1       120 4.89583E-02 0.00000E+00 0.00000E+00
 -1       121 3.33333E-02 1.04167E-03 0.00000E+00
 -1       122 3.33333E-02 2.08333E-03 0.00000E+00
 -1       123 3.33333E-02 3.12500E-03 0.00000E+00
 -1       124 3.33333E-02 4.16667E-03 0.00000E+00
 -1       125 3.33333E-02 5.20833E-03 0.00000E+00
 -1       126 3.43750E-02 3.90630E-04 0.00000E+00
 -1       127 3.54167E-02 7.81250E-04 0.00000E+00
 -1       128 3.64583E-02 1.17188E-03 0.00000E+00
 -1       129 3.75000E-02 1.56250E-03 0.00000E+00
 -1       130 3.85417E-02 1.95312E-03 0.00000E+00
 -1       131 3.95833E-02 2.34375E-03 0.00000E+00
 -1       132 4.06250E-02 2.73438E-03 0.00000E+00
 -1       133 4.16667E-02 3.12500E-03 0.00000E+00
 -1       134 4.27083E-02 3.51563E-03 0.00000E+00
 -1       135 4.37500E-02 3.90625E-03 0.00000E+00
 -1       136 4.47917E-02 4.29688E-03 0.00000E+00
 -1       137 4.58333E-02 4.68750E-03 0.00000E+00
 -1       138 4.68750E-02 5.07813E-03 0.00000E+00
 -1       139 4.79167E-02 5.46875E-03 0.00000E+00
 -1       140 4.89583E-02 5.85938E-03 0.00000E+00
 -1       141 5.10417E-02 0.00000E+00 0.00000E+00
 -1       142 5.20833E-02 0.00000E+00 0.00000E+00
 -1       143 5.31250E-02 0.00000E+00 0.00000E+00
 -1       144 5.41667E-02 0.00000E+00 0.00000E+00
 -1       145 5.52083E-02 0.00000E+00 0.00000E+00
 -1       146 5.62500E-02 0.00000E+00 0.00000E+00
 -1       147 5.72917E-02 0.00000E+00 0.00000E+00
 -1       148 5.83333E-02 0.00000E+00 0.00000E+00
 -1       149 5.93750E-02 0.00000E+00 0.00000E+00
 -1       150 6.04167E-02 0.00000E+00 0.00000E+00
 -1       151 6.14583E-02 0.00000E+00 0.00000E+00
 -1       152 6.25000E-02 0.00000E+00 0.00000E+00
 -1       153 6.35417E-02 0.00000E+00 0.00000E+00
 -1       154 6.45833E-02 0.00000E+00 0.00000E+00
 -1       155 6.56250E-02 0.00000E+00 0.00000E+00
 -1       156 5.00000E-02 1.04167E-03 0.00000E+00
 -1       157 5.00000E-02 2.08333E-03 0.00000E+00
 -1       158 5.00000E-02 3.12500E-03 0.00000E+00
 -1       159 5.00000E-02 4.16667E-03 0.00000E+00
 -1       160 5.00000E-02 5.20833E-03 0.00000E+00
 -1       161 5.10417E-02 3.90630E-04 0.00000E+00
 -1       162 5.20833E-02 7.81250E-04 0.00000E+00
 -1       163 5.31250E-02 1.17188E-03 0.00000E+00
 -1       164 5.41667E-02 1.56250E-03 0.00000E+00
 -1       165 5.52083E-02 1.95312E-03 0.00000E+00
 -1       166 5.62500E-02 2.34375E-03 0.00000E+00
 -1       167 5.72917E-02 2.73438E-03 0.00000E+00
 -1       168 5.83333E-02 3.12500E-03 0.00000E+00
 -1       169 5.93750E-02 3.51563E-03 0.00000E+00
 -1       170 6.04167E-02 3.90625E-03 0.00000E+00
 -1       171 6.14583E-02 4.29688E-03 0.00000E+00
 -1       172 6.25000E-02 4.68750E-03 0.00000E+00
 -1       173 6.35417E-02 5.07813E-03 0.00000E+00
 -1       174 6.45833E-02 5.46875E-03 0.00000E+00
 -1       175 6.56250E-02 5.85938E-03 0.00000E+00
 -1       191 6.66667E-02 1.04167E-03 0.00000E+00
 -1       192 6.66667E-02 2.08333E-03 0.00000E+00
 -1       193 6.66667E-02 3.12500E-03 0.00000E+00
 -1       194 6.66667E-02 4.16667E-03 0.00000E+00
 -1       195 6.66667E-02 5.20833E-03 0.00000E+00
 -1       251 1.04167E-03 6.25000E-03 0.00000E+00
 -1       252 2.08333E-03 6.25000E-03 0.00000E+00
 -1       253 3.12500E-03 6.25000E-03 0.00000E+00
 -1       254 4.16667E-03 6.25000E-03 0.00000E+00
 -1       255 5.20833E-03 6.25000E-03 0.00000E+00
 -1       256 6.25000E-03 6.25000E-03 0.00000E+00
 -1       257 7.29167E-03 6.25000E-03 0.00000E+00
 -1       258 8.33333E-03 6.25000E-03 0.00000E+00
 -1       259 9.37500E-03 6.25000E-03 0.00000E+00
 -1       260 1.04167E-02 6.25000E-03 0.00000E+00
 -1       261 1.14583E-02 6.25000E-03 0.00000E+00
 -1       262 1.25000E-02 6.25000E-03 0.00000E+00
 -1       263 1.35417E-02 6.25000E-03 0.00000E+00
 -1       264 1.45833E-02 6.25000E-03 0.00000E+00
 -1       265 1.56250E-02 6.25000E-03 0.00000E+00
 -1       266 0.00000E+00 7.29167E-03 0.00000E+00
 -1       267 0.00000E+00 8.33333E-03 0.00000E+00
 -1       268 0.00000E+00 9.37500E-03 0.00000E+00
 -1       269 0.00000E+00 1.04167E-02 0.00000E+00
 -1       270 0.00000E+00 1.14583E-02 0.00000E+00
 -1       271 1.04167E-03 6.64063E-03 0.00000E+00
 -1       272 2.08333E-03 7.03125E-03 0.00000E+00
 -1       273 3.12500E-03 7.42188E-03 0.00000E+00
 -1       274 4.16667E-03 7.81250E-03 0.00000E+00
 -1       275 5.20833E-03 8.20313E-03 0.00000E+00
 -1       276 6.25000E-03 8.59375E-03 0.00000E+00
 -1       277 7.29167E-03 8.98438E-03 0.00000E+00
 -1       278 8.33333E-03 9.37500E-03 0.00000E+00
 -1       279 9.37500E-03 9.76562E-03 0.00000E+00
 -1       280 1.04167E-02 1.01562E-02 0.00000E+00
 -1       281 1.14583E-02 1.05469E-02 0.00000E+00
 -1       282 1.25000E-02 1.09375E-02 0.00000E+00
 -1       283 1.35417E-02 1.13281E-02 0.00000E+00
 -1       284 1.45833E-02 1.17188E-02 0.00000E+00
 -1       285 1.56250E-02 1.21094E-02 0.00000E+00
 -1       286 1.77083E-02 6.25000E-03 0.00000E+00
 -1       287 1.87500E-02 6.25000E-03 0.00000E+00
 -1       288 1.97917E-02 6.25000E-03 0.00000E+00
 -1       289 2.08333E-02 6.25000E-03 0.00000E+00
 -1       290 2.18750E-02 6.25000E-03 0.00000E+00
 -1       291 2.29167E-02 6.25000E-03 0.00000E+00
 -1       292 2.39583E-02 6.25000E-03 0.00000E+00
 -1       293 2.50000E-02 6.25000E-03 0.00000E+00
 -1       294 2.60417E-02 6.25000E-03 0.00000E+00
 -1       295 2.70833E-02 6.25000E-03 0.00000E+00
 -1       296 2.81250E-02 6.25000E-03 0.00000E+00
 -1       297 2.91667E-02 6.25000E-03 0.00000E+00
 -1       298 3.02083E-02 6.25000E-03 0.00000E+00
 -1       299 3.12500E-02 6.25000E-03 0.00000E+00
 -1       300 3.22917E-02 6.25000E-03 0.00000E+00
 -1       301 1.66667E-02 7.29167E-03 0.00000E+00
 -1       302 1.66667E-02 8.33333E-03 0.00000E+00
 -1       303 1.66667E-02 9.37500E-03 0.00000E+00
 -1       304 1.66667E-02 1.04167E-02 0.00000E+00
 -1       305 1.66667E-02 1.14583E-02 0.00000E+00
 -1       306 1.77083E-02 6.64063E-03 0.00000E+00
 -1       307 1.87500E-02 7.03125E-03 0.00000E+00
 -1       308 1.97917E-02 7.42188E-03 0.00000E+00
 -1       309 2.08333E-02 7.81250E-03 0.00000E+00
 -1       310 2.18750E-02 8.20313E-03 0.00000E+00
 -1       311 2.29167E-02 8.59375E-03 0.00000E+00
 -1       312 2.39583E-02 8.98438E-03 0.00000E+00
 -1       313 2.50000E-02 9.37500E-03 0.00000E+00
 -1       314 2.60417E-02 9.76562E-03 0.00000E+00
 -1       315 2.70833E-02 1.01562E-02 0.00000E+00
 -1       316 2.81250E-02 1.05469E-02 0.00000E+00
 -1       317 2.91667E-02 1.09375E-02 0.00000E+00
 -1       318 3.02083E-02 1.13281E-02 0.00000E+00
 -1       319 3.12500E-02 1.17188E-02 0.00000E+00
 -1       320 3.22917E-02 1.21094E-02 0.00000E+00
 -1       321 3.43750E-02 6.25000E-03 0.00000E+00
 -1       322 3.54167E-02 6.25000E-03 0.00000E+00
 -1       323 3.64583E-02 6.25000E-03 0.00000E+00
 -1       324 3.75000E-02 6.25000E-03 0.00000E+00
 -1       325 3.85417E-02 6.25000E-03 0.00000E+00
 -1       326 3.95833E-02 6.25000E-03 0.00000E+00
 -1       327 4.06250E-02 6.25000E-03 0.00000E+00
 -1       328 4.16667E-02 6.25000E-03 0.00000E+00
 -1       329 4.27083E-02 6.25000E-03 0.00000E+00
 -1       330 4.37500E-02 6.25000E-03 0.00000E+00
 -1       331 4.47917E-02 6.25000E-03 0.00000E+00
 -1       332 4.58333E-02 6.25000E-03 0.00000E+00
 -1       333 4.68750E-02 6.25000E-03 0.00000E+00
 -1       334 4.79167E-02 6.25000E-03 0.00000E+00
 -1       335 4.89583E-02 6.25000E-03 0.00000E+00
 -1       336 3.33333E-02 7.29167E-03 0.00000E+00
 -1       337 3.33333E-02 8.33333E-03 0.00000E+00
 -1       338 3.33333E-02 9.37500E-03 0.00000E+00
 -1       339 3.33333E-02 1.04167E-02 0.00000E+00
 -1       340 3.33333E-02 1.14583E-02 0.00000E+00
 -1       341 3.43750E-02 6.64063E-03 0.00000E+00
 -1       342 3.54167E-02 7.03125E-03 0.00000E+00
 -1       343 3.64583E-02 7.42188E-03 0.00000E+00
 -1       344 3.75000E-02 7.81250E-03 0.00000E+00
 -1       345 3.85417E-02 8.20313E-03 0.00000E+00
 -1       346 3.95833E-02 8.59375E-03 0.00000E+00
 -1       347 4.06250E-02 8.98438E-03 0.00000E+00
 -1       348 4.16667E-02 9.37500E-03 0.00000E+00
 -1       349 4.27083E-02 9.76562E-03 0.00000E+00
 -1       350 4.37500E-02 1.01562E-02 0.00000E+00
 -1       351 4.47917E-02 1.05469E-02 0.00000E+00
 -1       352 4.58333E-02 1.09375E-02 0.00000E+00
 -1       353 4.68750E-02 1.13281E-02 0.00000E+00
 -1       354 4.79167E-02 1.17188E-02 0.00000E+00
 -1       355 4.89583E-02 1.21094E-02 0.00000E+00
 -1       356 5.10417E-02 6.25000E-03 0.00000E+00
 -1       357 5.20833E-02 6.25000E-03 0.00000E+00
 -1       358 5.31250E-02 6.25000E-03 0.00000E+00
 -1       359 5.41667E-02 6.25000E-03 0.00000E+00
 -1       360 5.52083E-02 6.25000E-03 0.00000E+00
 -1       361 5.62500E-02 6.25000E-03 0.00000E+00
 -1       362 5.72917E-02 6.25000E-03 0.00000E+00
 -1       363 5.83333E-02 6.25000E-03 0.00000E+00
 -1       364 5.93750E-02 6.25000E-03 0.00000E+00
 -1       365 6.04167E-02 6.25000E-03 0.00000E+00
 -1       366 6.14583E-02 6.25000E-03 0.00000E+00
 -1       367 6.25000E-02 6.25000E-03 0.00000E+00
 -1       368 6.35417E-02 6.25000E-03 0.00000E+00
 -1       369 6.45833E-02 6.25000E-03 0.00000E+00
 -1       370 6.56250E-02 6.25000E-03 0.00000E+00
 -1       371 5.00000E-02 7.29167E-03 0.00000E+00
 -1       372 5.00000E-02 8.33333E-03 0.00000E+00
 -1       373 5.00000E-02 9.37500E-03 0.00000E+00
 -1       374 5.00000E-02 1.04167E-02 0.00000E+00
 -1       375 5.00000E-02 1.14583E-02 0.00000E+00
 -1       376 5.10417E-02 6.64063E-03 0.00000E+00
 -1       377 5.20833E-02 7.03125E-03 0.00000E+00
 -1       378 5.31250E-02 7.42188E-03 0.00000E+00
 -1       379 5.41667E-02 7.81250E-03 0.00000E+00
 -1       380 5.52083E-02 8.20313E-03 0.00000E+00
 -1       381 5.62500E-02 8.59375E-03 0.00000E+00
 -1       382 5.72917E-02 8.98438E-03 0.00000E+00
 -1       383 5.83333E-02 9.37500E-03 0.00000E+00
 -1       384 5.93750E-02 9.76562E-03 0.00000E+00
 -1       385 6.04167E-02 1.01562E-02 0.00000E+00
 -1       386 6.14583E-02 1.05469E-02 0.00000E+00
 -1       387 6.25000E-02 1.09375E-02 0.00000E+00
 -1       388 6.35417E-02 1.13281E-02 0.00000E+00
 -1       389 6.45833E-02 1.17188E-02 0.00000E+00
 -1       390 6.56250E-02 1.21094E-02 0.00000E+00
 -1       406 6.66667E-02 7.29167E-03 0.00000E+00
 -1       407 6.66667E-02 8.33333E-03 0.00000E+00
 -1       408 6.66667E-02 9.37500E-03 0.00000E+00
 -1       409 6.66667E-02 1.04167E-02 0.00000E+00
 -1       410 6.66667E-02 1.14583E-02 0.00000E+00
 -1       466 1.04167E-03 1.25000E-02 0.00000E+00
 -1       467 2.08333E-03 1.25000E-02 0.00000E+00
 -1       468 3.12500E-03 1.25000E-02 0.00000E+00
 -1       469 4.16667E-03 1.25000E-02 0.00000E+00
 -1       470 5.20833E-03 1.25000E-02 0.00000E+00
 -1       471 6.25000E-03 1.25000E-02 0.00000E+00
 -1       472 7.29167E-03 1.25000E-02 0.00000E+00
 -1       473 8.33333E-03 1.25000E-02 0.00000E+00
 -1       474 9.37500E-03 1.25000E-02 0.00000E+00
 -1       475 1.04167E-02 1.25000E-02 0.00000E+00
 -1       476 1.14583E-02 1.25000E-02 0.00000E+00
 -1       477 1.25000E-02 1.25000E-02 0.00000E+00
 -1       478 1.35417E-02 1.25000E-02 0.00000E+00
 -1       479 1.45833E-02 1.25000E-02 0.00000E+00
 -1       480 1.56250E-02 1.25000E-02 0.00000E+00
 -1       481 0.00000E+00 1.35417E-02 0.00000E+00
 -1       482 0.00000E+00 1.45833E-02 0.00000E+00
 -1       483 0.00000E+00 1.56250E-02 0.00000E+00
 -1       484 0.00000E+00 1.66667E-02 0.00000E+00
 -1       485 0.00000E+00 1.77083E-02 0.00000E+00
 -1       486 1.04167E-03 1.28906E-02 0.00000E+00
 -1       487 2.08333E-03 1.32813E-02 0.00000E+00
 -1       488 3.12500E-03 1.36719E-02 0.00000E+00
 -1       489 4.16667E-03 1.40625E-02 0.00000E+00
 -1       490 5.20833E-03 1.44531E-02 0.00000E+00
 -1       491 6.25000E-03 1.48437E-02 0.00000E+00
 -1       492 7.29167E-03 1.52344E-02 0.00000E+00
 -1       493 8.33333E-03 1.56250E-02 0.00000E+00
 -1       494 9.37500E-03 1.60156E-02 0.00000E+00
 -1       495 1.04167E-02 1.64062E-02 0.00000E+00
 -1       496 1.14583E-02 1.67969E-02 0.00000E+00
 -1       497 1.25000E-02 1.71875E-02 0.00000E+00
 -1       498 1.35417E-02 1.75781E-02 0.00000E+00
 -1       499 1.45833E-02 1.79687E-02 0.00000E+00
 -1       500 1.56250E-02 1.83594E-02 0.00000E+00
 -1       501 1.77083E-02 1.25000E-02 0.00000E+00
 -1       502 1.87500E-02 1.25000E-02 0.00000E+00
 -1       503 1.97917E-02 1.25000E-02 0.00000E+00
 -1       504 2.08333E-02 1.25000E-02 0.00000E+00
 -1       505 2.18750E-02 1.25000E-02 0.00000E+00
 -1       506 2.29167E-02 1.25000E-02 0.00000E+00
 -1       507 2.39583E-02 1.25000E-02 0.00000E+00
 -1       508 2.50000E-02 1.25000E-02 0.00000E+00
 -1       509 2.60417E-02 1.25000E-02 0.00000E+00
 -1       510 2.70833E-02 1.25000E-02 0.00000E+00
 -1       511 2.81250E-02 1.25000E-02 0.00000E+00
 -1       512 2.91667E-02 1.25000E-02 0.00000E+00
 -1       513 3.02083E-02 1.25000E-02 0.00000E+00
 -1       514 3.12500E-02 1.25000E-02 0.00000E+00
 -1       515 3.22917E-02 1.25000E-02 0.00000E+00
 -1       516 1.66667E-02 1.35417E-02 0.00000E+00
 -1       517 1.66667E-02 1.45833E-02 0.00000E+00
 -1       518 1.66667E-02 1.56250E-02 0.00000E+00
 -1       519 1.66667E-02 1.66667E-02 0.00000E+00
 -1       520 1.66667E-02 1.77083E-02 0.00000E+00
 -1       521 1.77083E-02 1.28906E-02 0.00000E+00
 -1       522 1.87500E-02 1.32813E-02 0.00000E+00
 -1       523 1.97917E-02 1.36719E-02 0.00000E+00
 -1       524 2.08333E-02 1.40625E-02 0.00000E+00
 -1       525 2.18750E-02 1.44531E-02 0.00000E+00
 -1       526 2.29167E-02 1.48437E-02 0.00000E+00
 -1       527 2.39583E-02 1.52344E-02 0.00000E+00
 -1       528 2.50000E-02 1.56250E-02 0.00000E+00
 -1       529 2.60417E-02 1.60156E-02 0.00000E+00
 -1       530 2.70833E-02 1.64062E-02 0.00000E+00
 -1       531 2.81250E-02 1.67969E-02 0.00000E+00
 -1       532 2.91667E-02 1.71875E-02 0.00000E+00
 -1       533 3.02083E-02 1.75781E-02 0.00000E+00
 -1       534 3.12500E-02 1.79687E-02 0.00000E+00
 -1       535 3.22917E-02 1.83594E-02 0.00000E+00
 -1       536 3.43750E-02 1.25000E-02 0.00000E+00
 -1       537 3.54167E-02 1.25000E-02 0.00000E+00
 -1       538 3.64583E-02 1.25000E-02 0.00000E+00
 -1       539 3.75000E-02 1.25000E-02 0.00000E+00
 -1       540 3.85417E-02 1.25000E-02 0.00000E+00
 -1       541 3.95833E-02 1.25000E-02 0.00000E+00
 -1       542 4.06250E-02 1.25000E-02 0.00000E+00
 -1       543 4.16667E-02 1.25000E-02 0.00000E+00
 -1       544 4.27083E-02 1.25000E-02 0.00000E+00
 -1       545 4.37500E-02 1.25000E-02 0.00000E+00
 -1       546 4.47917E-02 1.25000E-02 0.00000E+00
 -1       547 4.58333E-02 1.25000E-02 0.00000E+00
 -1       548 4.68750E-02 1.25000E-02 0.00000E+00
 -1       549 4.79167E-02 1.25000E-02 0.00000E+00
 -1       550 4.89583E-02 1.25000E-02 0.00000E+00
 -1       551 3.33333E-02 1.35417E-02 0.00000E+00
 -1       552 3.33333E-02 1.45833E-02 0.00000E+00
 -1       553 3.33333E-02 1.56250E-02 0.00000E+00
 -1       554 3.33333E-02 1.66667E-02 0.00000E+00
 -1       555 3.33333E-02 1.77083E-02 0.00000E+00
 -1       556 3.43750E-02 1.28906E-02 0.00000E+00
 -1       557 3.54167E-02 1.32813E-02 0.00000E+00
 -1       558 3.64583E-02 1.36719E-02 0.00000E+00
 -1       559 3.75000E-02 1.40625E-02 0.00000E+00
 -1       560 3.85417E-02 1.44531E-02 0.00000E+00
 -1       561 3.95833E-02 1.48437E-02 0.00000E+00
 -1       562 4.06250E-02 1.52344E-02 0.00000E+00
 -1       563 4.16667E-02 1.56250E-02 0.00000E+00
 -1       564 4.27083E-02 1.60156E-02 0.00000E+00
 -1       565 4.37500E-02 1.64062E-02 0.00000E+00
 -1       566 4.47917E-02 1.67969E-02 0.00000E+00
 -1       567 4.58333E-02 1.71875E-02 0.00000E+00
 -1       568 4.68750E-02 1.75781E-02 0.00000E+00
 -1       569 4.79167E-02 1.79687E-02 0.00000E+00
 -1       570 4.89583E-02 1.83594E-02 0.00000E+00
 -1       571 5.10417E-02 1.25000E-02 0.00000E+00
 -1       572 5.20833E-02 1.25000E-02 0.00000E+00
 -1       573 5.31250E-02 1.25000E-02 0.00000E+00
 -1       574 5.41667E-02 1.25000E-02 0.00000E+00
 -1       575 5.52083E-02 1.25000E-02 0.00000E+00
 -1       576 5.62500E-02 1.25000E-02 0.00000E+00
 -1       577 5.72917E-02 1.25000E-02 0.00000E+00
 -1       578 5.83333E-02 1.25000E-02 0.00000E+00
 -1       579 5.93750E-02 1.25000E-02 0.00000E+00
 -1       580 6.04167E-02 1.25000E-02 0.00000E+00
 -1       581 6.14583E-02 1.25000E-02 0.00000E+00
 -1       582 6.25000E-02 1.25000E-02 0.00000E+00
 -1       583 6.35417E-02 1.25000E-02 0.00000E+00
 -1       584 6.45833E-02 1.25000E-02 0.00000E+00
 -1       585 6.56250E-02 1.25000E-02 0.00000E+00
 -1       586 5.00000E-02 1.35417E-02 0.00000E+00
 -1       587 5.00000E-02 1.45833E-02 0.00000E+00
 -1       588 5.00000E-02 1.56250E-02 0.00000E+00
 -1       589 5.00000E-02 1.66667E-02 0.00000E+00
 -1       590 5.00000E-02 1.77083E-02 0.00000E+00
 -1       591 5.10417E-02 1.28906E-02 0.00000E+00
 -1       592 5.20833E-02 1.32813E-02 0.00000E+00
 -1       593 5.31250E-02 1.36719E-02 0.00000E+00
 -1       594 5.41667E-02 1.40625E-02 0.00000E+00
 -1       595 5.52083E-02 1.44531E-02 0.00000E+00
 -1       596 5.62500E-02 1.48437E-02 0.00000E+00
 -1       597 5.72917E-02 1.52344E-02 0.00000E+00
 -1       598 5.83333E-02 1.56250E-02 0.00000E+00
 -1       599 5.93750E-02 1.60156E-02 0.00000E+00
 -1       600 6.04167E-02 1.64062E-02 0.00000E+00
 -1       601 6.14583E-02 1.67969E-02 0.00000E+00
 -1       602 6.25000E-02 1.71875E-02 0.00000E+00
 -1       603 6.35417E-02 1.75781E-02 0.00000E+00
 -1       604 6.45833E-02 1.79687E-02 0.00000E+00
 -1       605 6.56250E-02 1.83594E-02 0.00000E+00
 -1       606 6.77083E-02 1.25000E-02 0.00000E+00
 -1       607 6.87500E-02 1.25000E-02 0.00000E+00
 -1       608 6.97917E-02 1.25000E-02 0.00000E+00
 -1       609 7.08333E-02 1.25000E-02 0.00000E+00
 -1       610 7.18750E-02 1.25000E-02 0.00000E+00
 -1       611 7.29167E-02 1.25000E-02 0.00000E+00
 -1       612 7.39583E-02 1.25000E-02 0.00000E+00
 -1       613 7.50000E-02 1.25000E-02 0.00000E+00
 -1       614 7.60417E-02 1.25000E-02 0.00000E+00
 -1       615 7.70833E-02 1.25000E-02 0.00000E+00
 -1       616 7.81250E-02 1.25000E-02 0.00000E+00
 -1       617 7.91667E-02 1.25000E-02 0.00000E+00
 -1       618 8.02083E-02 1.25000E-02 0.00000E+00
 -1       619 8.12500E-02 1.25000E-02 0.00000E+00
 -1       620 8.22917E-02 1.25000E-02 0.00000E+00
 -1       621 6.66667E-02 1.35417E-02 0.00000E+00
 -1       622 6.66667E-02 1.45833E-02 0.00000E+00
 -1       623 6.66667E-02 1.56250E-02 0.00000E+00
 -1       624 6.66667E-02 1.66667E-02 0.00000E+00
 -1       625 6.66667E-02 1.77083E-02 0.00000E+00
 -1       626 6.77083E-02 1.28906E-02 0.00000E+00
 -1       627 6.87500E-02 1.32813E-02 0.00000E+00
 -1       628 6.97917E-02 1.36719E-02 0.00000E+00
 -1       629 7.08333E-02 1.40625E-02 0.00000E+00
 -1       630 7.18750E-02 1.44531E-02 0.00000E+00
 -1       631 7.29167E-02 1.48437E-02 0.00000E+00
 -1       632 7.39583E-02 1.52344E-02 0.00000E+00
 -1       633 7.50000E-02 1.56250E-02 0.00000E+00
 -1       634 7.60417E-02 1.60156E-02 0.00000E+00
 -1       635 7.70833E-02 1.64062E-02 0.00000E+00
 -1       636 7.81250E-02 1.67969E-02 0.00000E+00
 -1       637 7.91667E-02 1.71875E-02 0.00000E+00
 -1       638 8.02083E-02 1.75781E-02 0.00000E+00
 -1       639 8.12500E-02 1.79687E-02 0.00000E+00
 -1       640 8.22917E-02 1.83594E-02 0.00000E+00
 -1       641 8.43750E-02 1.25000E-02 0.00000E+00
 -1       642 8.54167E-02 1.25000E-02 0.00000E+00
 -1       643 8.64583E-02 1.25000E-02 0.00000E+00
 -1       644 8.75000E-02 1.25000E-02 0.00000E+00
 -1       645 8.85417E-02 1.25000E-02 0.00000E+00
 -1       646 8.95833E-02 1.25000E-02 0.00000E+00
 -1       647 9.06250E-02 1.25000E-02 0.00000E+00
 -1       648 9.16667E-02 1.25000E-02 0.00000E+00
 -1       649 9.27083E-02 1.25000E-02 0.00000E+00
 -1       650 9.37500E-02 1.25000E-02 0.00000E+00
 -1       651 9.47917E-02 1.25000E-02 0.00000E+00
 -1       652 9.58333E-02 1.25000E-02 0.00000E+00
 -1       653 9.68750E-02 1.25000E-02 0.00000E+00
 -1       654 9.79167E-02 1.25000E-02 0.00000E+00
 -1       655 9.89583E-02 1.25000E-02 0.00000E+00
 -1       656 8.33333E-02 1.35417E-02 0.00000E+00
 -1       657 8.33333E-02 1.45833E-02 0.00000E+00
 -1       658 8.33333E-02 1.56250E-02 0.00000E+00
 -1       659 8.33333E-02 1.66667E-02 0.00000E+00
 -1       660 8.33333E-02 1.77083E-02 0.00000E+00
 -1       661 8.43750E-02 1.28906E-02 0.00000E+00
 -1       662 8.54167E-02 1.32813E-02 0.00000E+00
 -1       663 8.64583E-02 1.36719E-02 0.00000E+00
 -1       664 8.75000E-02 1.40625E-02 0.00000E+00
 -1       665 8.85417E-02 1.44531E-02 0.00000E+00
 -1       666 8.95833E-02 1.48437E-02 0.00000E+00
 -1       667 9.06250E-02 1.52344E-02 0.00000E+00
 -1       668 9.16667E-02 1.56250E-02 0.00000E+00
 -1       669 9.27083E-02 1.60156E-02 0.00000E+00
 -1       670 9.37500E-02 1.64062E-02 0.00000E+00
 -1       671 9.47917E-02 1.67969E-02 0.00000E+00
 -1       672 9.58333E-02 1.71875E-02 0.00000E+00
 -1       673 9.68750E-02 1.75781E-02 0.00000E+00
 -1       674 9.79167E-02 1.79687E-02 0.00000E+00
 -1       675 9.89583E-02 1.83594E-02 0.00000E+00
 -1       676 1.00000E-01 1.35417E-02 0.00000E+00
 -1       677 1.00000E-01 1.45833E-02 0.00000E+00
 -1       678 1.00000E-01 1.56250E-02 0.00000E+00
 -1       679 1.00000E-01 1.66667E-02 0.00000E+00
 -1       680 1.00000E-01 1.77083E-02 0.00000E+00
 -1       681 1.04167E-03 1.87500E-02 0.00000E+00
 -1       682 2.08333E-03 1.87500E-02 0.00000E+00
 -1       683 3.12500E-03 1.87500E-02 0.00000E+00
 -1       684 4.16667E-03 1.87500E-02 0.00000E+00
 -1       685 5.20833E-03 1.87500E-02 0.00000E+00
 -1       686 6.25000E-03 1.87500E-02 0.00000E+00
 -1       687 7.29167E-03 1.87500E-02 0.00000E+00
 -1       688 8.33333E-03 1.87500E-02 0.00000E+00
 -1       689 9.37500E-03 1.87500E-02 0.00000E+00
 -1       690 1.04167E-02 1.87500E-02 0.00000E+00
 -1       691 1.14583E-02 1.87500E-02 0.00000E+00
 -1       692 1.25000E-02 1.87500E-02 0.00000E+00
 -1       693 1.35417E-02 1.87500E-02 0.00000E+00
 -1       694 1.45833E-02 1.87500E-02 0.00000E+00
 -1       695 1.56250E-02 1.87500E-02 0.00000E+00
 -1       696 0.00000E+00 1.97917E-02 0.00000E+00
 -1       697 0.00000E+00 2.08333E-02 0.00000E+00
 -1       698 0.00000E+00 2.18750E-02 0.00000E+00
 -1       699 0.00000E+00 2.29167E-02 0.00000E+00
 -1       700 0.00000E+00 2.39583E-02 0.00000E+00
 -1       701 1.04167E-03 1.91406E-02 0.00000E+00
 -1       702 2.08333E-03 1.95312E-02 0.00000E+00
 -1       703 3.12500E-03 1.99219E-02 0.00000E+00
 -1       704 4.16667E-03 2.03125E-02 0.00000E+00
 -1       705 5.20833E-03 2.07031E-02 0.00000E+00
 -1       706 6.25000E-03 2.10938E-02 0.00000E+00
 -1       707 7.29167E-03 2.14844E-02 0.00000E+00
 -1       708 8.33333E-03 2.18750E-02 0.00000E+00
 -1       709 9.37500E-03 2.22656E-02 0.00000E+00
 -1       710 1.04167E-02 2.26563E-02 0.00000E+00
 -1       711 1.14583E-02 2.30469E-02 0.00000E+00
 -1       712 1.25000E-02 2.34375E-02 0.00000E+00
 -1       713 1.35417E-02 2.38281E-02 0.00000E+00
 -1       714 1.45833E-02 2.42187E-02 0.00000E+00
 -1       715 1.56250E-02 2.46094E-02 0.00000E+00
 -1       716 1.77083E-02 1.87500E-02 0.00000E+00
 -1       717 1.87500E-02 1.87500E-02 0.00000E+00
 -1       718 1.97917E-02 1.87500E-02 0.00000E+00
 -1       719 2.08333E-02 1.87500E-02 0.00000E+00
 -1       720 2.18750E-02 1.87500E-02 0.00000E+00
 -1       721 2.29167E-02 1.87500E-02 0.00000E+00
 -1       722 2.39583E-02 1.87500E-02 0.00000E+00
 -1       723 2.50000E-02 1.87500E-02 0.00000E+00
 -1       724 2.60417E-02 1.87500E-02 0.00000E+00
 -1       725 2.70833E-02 1.87500E-02 0.00000E+00
 -1       726 2.81250E-02 1.87500E-02 0.00000E+00
 -1       727 2.91667E-02 1.87500E-02 0.00000E+00
 -1       728 3.02083E-02 1.87500E-02 0.00000E+00
 -1       729 3.12500E-02 1.87500E-02 0.00000E+00
 -1       730 3.22917E-02 1.87500E-02 0.00000E+00
 -1       731 1.66667E-02 1.97917E-02 0.00000E+00
 -1       732 1.66667E-02 2.08333E-02 0.00000E+00
 -1       733 1.66667E-02 2.18750E-02 0.00000E+00
 -1       734 1.66667E-02 2.29167E-02 0.00000E+00
 -1       735 1.66667E-02 2.39583E-02 0.00000E+00
 -1       736 1.77083E-02 1.91406E-02 0.00000E+00
 -1       737 1.87500E-02 1.95312E-02 0.00000E+00
 -1       738 1.97917E-02 1.99219E-02 0.00000E+00
 -1       739 2.08333E-02 2.03125E-02 0.00000E+00
 -1       740 2.18750E-02 2.07031E-02 0.00000E+00
 -1       741 2.29167E-02 2.10938E-02 0.00000E+00
 -1       742 2.39583E-02 2.14844E-02 0.00000E+00
 -1       743 2.50000E-02 2.18750E-02 0.00000E+00
 -1       744 2.60417E-02 2.22656E-02 0.00000E+00
 -1       745 2.70833E-02 2.26563E-02 0.00000E+00
 -1       746 2.81250E-02 2.30469E-02 0.00000E+00
 -1       747 2.91667E-02 2.34375E-02 0.00000E+00
 -1       748 3.02083E-02 2.38281E-02 0.00000E+00
 -1       749 3.12500E-02 2.42187E-02 0.00000E+00
 -1       750 3.22917E-02 2.46094E-02 0.00000E+00
 -1       751 3.43750E-02 1.87500E-02 0.00000E+00
 -1       752 3.54167E-02 1.87500E-02 0.00000E+00
 -1       753 3.64583E-02 1.87500E-02 0.00000E+00
 -1       754 3.75000E-02 1.87500E-02 0.00000E+00
 -1       755 3.85417E-02 1.87500E-02 0.00000E+00
 -1       756 3.95833E-02 1.87500E-02 0.00000E+00
 -1       757 4.06250E-02 1.87500E-02 0.00000E+00
 -1       758 4.16667E-02 1.87500E-02 0.00000E+00
 -1       759 4.27083E-02 1.87500E-02 0.00000E+00
 -1       760 4.37500E-02 1.87500E-02 0.00000E+00
 -1       761 4.47917E-02 1.87500E-02 0.00000E+00
 -1       762 4.58333E-02 1.87500E-02 0.00000E+00
 -1       763 4.68750E-02 1.87500E-02 0.00000E+00
 -1       764 4.79167E-02 1.87500E-02 0.00000E+00
 -1       765 4.89583E-02 1.87500E-02 0.00000E+00
 -1       766 3.33333E-02 1.97917E-02 0.00000E+00
 -1       767 3.33333E-02 2.08333E-02 0.00000E+00
 -1       768 3.33333E-02 2.18750E-02 0.00000E+00
 -1       769 3.33333E-02 2.29167E-02 0.00000E+00
 -1       770 3.33333E-02 2.39583E-02 0.00000E+00
 -1       771 3.43750E-02 1.91406E-02 0.00000E+00
 -1       772 3.54167E-02 1.95312E-02 0.00000E+00
 -1       773 3.64583E-02 1.99219E-02 0.00000E+00
 -1       774 3.75000E-02 2.03125E-02 0.00000E+00
 -1       775 3.85417E-02 2.07031E-02 0.00000E+00
 -1       776 3.95833E-02 2.10938E-02 0.00000E+00
 -1       777 4.06250E-02 2.14844E-02 0.00000E+00
 -1       778 4.16667E-02 2.18750E-02 0.00000E+00
 -1       779 4.27083E-02 2.22656E-02 0.00000E+00
 -1       780 4.37500E-02 2.26563E-02 0.00000E+00
 -1       781 4.47917E-02 2.30469E-02 0.00000E+00
 -1       782 4.58333E-02 2.34375E-02 0.00000E+00
 -1       783 4.68750E-02 2.38281E-02 0.00000E+00
 -1       784 4.79167E-02 2.42187E-02 0.00000E+00
 -1       785 4.89583E-02 2.46094E-02 0.00000E+00
 -1       786 5.10417E-02 1.87500E-02 0.00000E+00
 -1       787 5.20833E-02 1.87500E-02 0.00000E+00
 -1       788 5.31250E-02 1.87500E-02 0.00000E+00
 -1       789 5.41667E-02 1.87500E-02 0.00000E+00
 -1       790 5.52083E-02 1.87500E-02 0.00000E+00
 -1       791 5.62500E-02 1.87500E-02 0.00000E+00
 -1       792 5.72917E-02 1.87500E-02 0.00000E+00
 -1       793 5.83333E-02 1.87500E-02 0.00000E+00
 -1       794 5.93750E-02 1.87500E-02 0.00000E+00
 -1       795 6.04167E-02 1.87500E-02 0.00000E+00
 -1       796 6.14583E-02 1.87500E-02 0.00000E+00
 -1       797 6.25000E-02 1.87500E-02 0.00000E+00
 -1       798 6.35417E-02 1.87500E-02 0.00000E+00
 -1       799 6.45833E-02 1.87500E-02 0.00000E+00
 -1       800 6.56250E-02 1.87500E-02 0.00000E+00
 -1       801 5.00000E-02 1.97917E-02 0.00000E+00
 -1       802 5.00000E-02 2.08333E-02 0.00000E+00
 -1       803 5.00000E-02 2.18750E-02 0.00000E+00
 -1       804 5.00000E-02 2.29167E-02 0.00000E+00
 -1       805 5.00000E-02 2.39583E-02 0.00000E+00
 -1       806 5.10417E-02 1.91406E-02 0.00000E+00
 -1       807 5.20833E-02 1.95312E-02 0.00000E+00
 -1       808 5.31250E-02 1.99219E-02 0.00000E+00
 -1       809 5.41667E-02 2.03125E-02 0.00000E+00
 -1       810 5.52083E-02 2.07031E-02 0.00000E+00
 -1       811 5.62500E-02 2.10938E-02 0.00000E+00
 -1       812 5.72917E-02 2.14844E-02 0.00000E+00
 -1       813 5.83333E-02 2.18750E-02 0.00000E+00
 -1       814 5.93750E-02 2.22656E-02 0.00000E+00
 -1       815 6.04167E-02 2.26563E-02 0.00000E+00
 -1       816 6.14583E-02 2.30469E-02 0.00000E+00
 -1       817 6.25000E-02 2.34375E-02 0.00000E+00
 -1       818 6.35417E-02 2.38281E-02 0.00000E+00
 -1       819 6.45833E-02 2.42187E-02 0.00000E+00
 -1       820 6.56250E-02 2.46094E-02 0.00000E+00
 -1       821 6.77083E-02 1.87500E-02 0.00000E+00
 -1       822 6.87500E-02 1.87500E-02 0.00000E+00
 -1       823 6.97917E-02 1.87500E-02 0.00000E+00
 -1       824 7.08333E-02 1.87500E-02 0.00000E+00
 -1       825 7.18750E-02 1.87500E-02 0.00000E+00
 -1       826 7.29167E-02 1.87500E-02 0.00000E+00
 -1       827 7.39583E-02 1.87500E-02 0.00000E+00
 -1       828 7.50000E-02 1.87500E-02 0.00000E+00
 -1       829 7.60417E-02 1.87500E-02 0.00000E+00
 -1       830 7.70833E-02 1.87500E-02 0.00000E+00
 -1       831 7.81250E-02 1.87500E-02 0.00000E+00
 -1       832 7.91667E-02 1.87500E-02 0.00000E+00
 -1       833 8.02083E-02 1.87500E-02 0.00000E+00
 -1       834 8.12500E-02 1.87500E-02 0.00000E+00
 -1       835 8.22917E-02 1.87500E-02 0.00000E+00
 -1       836 6.66667E-02 1.97917E-02 0.00000E+00
 -1       837 6.66667E-02 2.08333E-02 0.00000E+00
 -1       838 6.66667E-02 2.18750E-02 0.00000E+00
 -1       839 6.66667E-02 2.29167E-02 0.00000E+00
 -1       840 6.66667E-02 2.39583E-02 0.00000E+00
 -1       841 6.77083E-02 1.91406E-02 0.00000E+00
 -1       842 6.87500E-02 1.95312E-02 0.00000E+00
 -1       843 6.97917E-02 1.99219E-02 0.00000E+00
 -1       844 7.08333E-02 2.03125E-02 0.00000E+00
 -1       845 7.18750E-02 2.07031E-02 0.00000E+00
 -1       846 7.29167E-02 2.10938E-02 0.00000E+00
 -1       847 7.39583E-02 2.14844E-02 0.00000E+00
 -1       848 7.50000E-02 2.18750E-02 0.00000E+00
 -1       849 7.60417E-02 2.22656E-02 0.00000E+00
 -1       850 7.70833E-02 2.26563E-02 0.00000E+00
 -1       851 7.81250E-02 2.30469E-02 0.00000E+00
 -1       852 7.91667E-02 2.34375E-02 0.00000E+00
 -1       853 8.02083E-02 2.38281E-02 0.00000E+00
 -1       854 8.12500E-02 2.42187E-02 0.00000E+00
 -1       855 8.22917E-02 2.46094E-02 0.00000E+00
 -1       856 8.43750E-02 1.87500E-02 0.00000E+00
 -1       857 8.54167E-02 1.87500E-02 0.00000E+00
 -1       858 8.64583E-02 1.87500E-02 0.00000E+00
 -1       859 8.75000E-02 1.87500E-02 0.00000E+00
 -1       860 8.85417E-02 1.87500E-02 0.00000E+00
 -1       861 8.95833E-02 1.87500E-02 0.00000E+00
 -1       862 9.06250E-02 1.87500E-02 0.00000E+00
 -1       863 9.16667E-02 1.87500E-02 0.00000E+00
 -1       864 9.27083E-02 1.87500E-02 0.00000E+00
 -1       865 9.37500E-02 1.87500E-02 0.00000E+00
 -1       866 9.47917E-02 1.87500E-02 0.00000E+00
 -1       867 9.58333E-02 1.87500E-02 0.00000E+00
 -1       868 9.68750E-02 1.87500E-02 0.00000E+00
 -1       869 9.79167E-02 1.87500E-02 0.00000E+00
 -1       870 9.89583E-02 1.87500E-02 0.00000E+00
 -1       871 8.33333E-02 1.97917E-02 0.00000E+00
 -1       872 8.33333E-02 2.08333E-02 0.00000E+00
 -1       873 8.33333E-02 2.18750E-02 0.00000E+00
 -1       874 8.33333E-02 2.29167E-02 0.00000E+00
 -1       875 8.33333E-02 2.39583E-02 0.00000E+00
 -1       876 8.43750E-02 1.91406E-02 0.00000E+00
 -1       877 8.54167E-02 1.95312E-02 0.00000E+00
 -1       878 8.64583E-02 1.99219E-02 0.00000E+00
 -1       879 8.75000E-02 2.03125E-02 0.00000E+00
 -1       880 8.85417E-02 2.07031E-02 0.00000E+00
 -1       881 8.95833E-02 2.10938E-02 0.00000E+00
 -1       882 9.06250E-02 2.14844E-02 0.00000E+00
 -1       883 9.16667E-02 2.18750E-02 0.00000E+00
 -1       884 9.27083E-02 2.22656E-02 0.00000E+00
 -1       885 9.37500E-02 2.26563E-02 0.00000E+00
 -1       886 9.47917E-02 2.30469E-02 0.00000E+00
 -1       887 9.58333E-02 2.34375E-02 0.00000E+00
 -1       888 9.68750E-02 2.38281E-02 0.00000E+00
 -1       889 9.79167E-02 2.42187E-02 0.00000E+00
 -1       890 9.89583E-02 2.46094E-02 0.00000E+00
 -1       891 1.00000E-01 1.97917E-02 0.00000E+00
 -1       892 1.00000E-01 2.08333E-02 0.00000E+00
 -1       893 1.00000E-01 2.18750E-02 0.00000E+00
 -1       894 1.00000E-01 2.29167E-02 0.00000E+00
 -1       895 1.00000E-01 2.39583E-02 0.00000E+00
 -1       896 1.04167E-03 2.50000E-02 0.00000E+00
 -1       897 2.08333E-03 2.50000E-02 0.00000E+00
 -1       898 3.12500E-03 2.50000E-02 0.00000E+00
 -1       899 4.16667E-03 2.50000E-02 0.00000E+00
 -1       900 5.20833E-03 2.50000E-02 0.00000E+00
 -1       901 6.25000E-03 2.50000E-02 0.00000E+00
 -1       902 7.29167E-03 2.50000E-02 0.00000E+00
 -1       903 8.33333E-03 2.50000E-02 0.00000E+00
 -1       904 9.37500E-03 2.50000E-02 0.00000E+00
 -1       905 1.04167E-02 2.50000E-02 0.00000E+00
 -1       906 1.14583E-02 2.50000E-02 0.00000E+00
 -1       907 1.25000E-02 2.50000E-02 0.00000E+00
 -1       908 1.35417E-02 2.50000E-02 0.00000E+00
 -1       909 1.45833E-02 2.50000E-02 0.00000E+00
 -1       910 1.56250E-02 2.50000E-02 0.00000E+00
 -1       911 1.77083E-02 2.50000E-02 0.00000E+00
 -1       912 1.87500E-02 2.50000E-02 0.00000E+00
 -1       913 1.97917E-02 2.50000E-02 0.00000E+00
 -1       914 2.08333E-02 2.50000E-02 0.00000E+00
 -1       915 2.18750E-02 2.50000E-02 0.00000E+00
 -1       916 2.29167E-02 2.50000E-02 0.00000E+00
 -1       917 2.39583E-02 2.50000E-02 0.00000E+00
 -1       918 2.50000E-02 2.50000E-02 0.00000E+00
 -1       919 2.60417E-02 2.50000E-02 0.00000E+00
 -1       920 2.70833E-02 2.50000E-02 0.00000E+00
 -1       921 2.81250E-02 2.50000E-02 0.00000E+00
 -1       922 2.91667E-02 2.50000E-02 0.00000E+00
 -1       923 3.02083E-02 2.50000E-02 0.00000E+00
 -1       924 3.12500E-02 2.50000E-02 0.00000E+00
 -1       925 3.22917E-02 2.50000E-02 0.00000E+00
 -1       926 3.43750E-02 2.50000E-02 0.00000E+00
 -1       927 3.54167E-02 2.50000E-02 0.00000E+00
 -1       928 3.64583E-02 2.50000E-02 0.00000E+00
 -1       929 3.75000E-02 2.50000E-02 0.00000E+00
 -1       930 3.85417E-02 2.50000E-02 0.00000E+00
 -1       931 3.95833E-02 2.50000E-02 0.00000E+00
 -1       932 4.06250E-02 2.50000E-02 0.00000E+00
 -1       933 4.16667E-02 2.50000E-02 0.00000E+00
 -1       934 4.27083E-02 2.50000E-02 0.00000E+00
 -1       935 4.37500E-02 2.50000E-02 0.00000E+00
 -1       936 4.47917E-02 2.50000E-02 0.00000E+00
 -1       937 4.58333E-02 2.50000E-02 0.00000E+00
 -1       938 4.68750E-02 2.50000E-02 0.00000E+00
 -1       939 4.79167E-02 2.50000E-02 0.00000E+00
 -1       940 4.89583E-02 2.50000E-02 0.00000E+00
 -1       941 5.10417E-02 2.50000E-02 0.00000E+00
 -1       942 5.20833E-02 2.50000E-02 0.00000E+00
 -1       943 5.31250E-02 2.50000E-02 0.00000E+00
 -1       944 5.41667E-02 2.50000E-02 0.00000E+00
 -1       945 5.52083E-02 2.50000E-02 0.00000E+00
 -1       946 5.62500E-02 2.50000E-02 0.00000E+00
 -1       947 5.72917E-02 2.50000E-02 0.00000E+00
 -1       948 5.83333E-02 2.50000E-02 0.00000E+00
 -1       949 5.93750E-02 2.50000E-02 0.00000E+00
 -1       950 6.04167E-02 2.50000E-02 0.00000E+00
 -1       951 6.14583E-02 2.50000E-02 0.00000E+00
 -1       952 6.25000E-02 2.50000E-02 0.00000E+00
 -1       953 6.35417E-02 2.50000E-02 0.00000E+00
 -1       954 6.45833E-02 2.50000E-02 0.00000E+00
 -1       955 6.56250E-02 2.50000E-02 0.00000E+00
 -1       956 6.77083E-02 2.50000E-02 0.00000E+00
 -1       957 6.87500E-02 2.50000E-02 0.00000E+00
 -1       958 6.97917E-02 2.50000E-02 0.00000E+00
 -1       959 7.08333E-02 2.50000E-02 0.00000E+00
 -1       960 7.18750E-02 2.50000E-02 0.00000E+00
 -1       961 7.29167E-02 2.50000E-02 0.00000E+00
 -1       962 7.39583E-02 2.50000E-02 0.00000E+00
 -1       963 7.50000E-02 2.50000E-02 0.00000E+00
 -1       964 7.60417E-02 2.50000E-02 0.00000E+00
 -1       965 7.70833E-02 2.50000E-02 0.00000E+00
 -1       966 7.81250E-02 2.50000E-02 0.00000E+00
 -1       967 7.91667E-02 2.50000E-02 0.00000E+00
 -1       968 8.02083E-02 2.50000E-02 0.00000E+00
 -1       969 8.12500E-02 2.50000E-02 0.00000E+00
 -1       970 8.22917E-02 2.50000E-02 0.00000E+00
 -1       971 8.43750E-02 2.50000E-02 0.00000E+00
 -1       972 8.54167E-02 2.50000E-02 0.00000E+00
 -1       973 8.64583E-02 2.50000E-02 0.00000E+00
 -1       974 8.75000E-02 2.50000E-02 0.00000E+00
 -1       975 8.85417E-02 2.50000E-02 0.00000E+00
 -1       976 8.95833E-02 2.50000E-02 0.00000E+00
 -1       977 9.06250E-02 2.50000E-02 0.00000E+00
 -1       978 9.16667E-02 2.50000E-02 0.00000E+00
 -1       979 9.27083E-02 2.50000E-02 0.00000E+00
 -1       980 9.37500E-02 2.50000E-02 0.00000E+00
 -1       981 9.47917E-02 2.50000E-02 0.00000E+00
 -1       982 9.58333E-02 2.50000E-02 0.00000E+00
 -1       983 9.68750E-02 2.50000E-02 0.00000E+00
 -1       984 9.79167E-02 2.50000E-02 0.00000E+00
 -1       985 9.89583E-02 2.50000E-02 0.00000E+00
 -3
    3C                           440                                     1
 -1         1   12    0    1
 -2         1        37        36
 -1         2   12    0    1
 -2        37        39        38
 -1         3   12    0    1
 -2        39        41        40
 -1         4   12    0    1
 -2        41        43        42
 -1         5   12    0    1
 -2        43        45        44
 -1         6   12    0    1
 -2        45        47        46
 -1         7   12    0    1
 -2        47        49        48
 -1         8   12    0    1
 -2        49         2        50
 -1         9   12    0    1
 -2         1        52        51
 -1        10   12    0    1
 -2        52        54        53
 -1        11   12    0    1
 -2        54         8        55
 -1        12   12    0    1
 -2         1        57        56
 -1        13   12    0    1
 -2        57        59        58
 -1        14   12    0    1
 -2        59        61        60
 -1        15   12    0    1
 -2        61        63        62
 -1        16   12    0    1
 -2        63        65        64
 -1        17   12    0    1
 -2        65        67        66
 -1        18   12    0    1
 -2        67        69        68
 -1        19   12    0    1
 -2        69         9        70
 -1        20   12    0    1
 -2         2        72        71
 -1        21   12    0    1
 -2        72        74        73
 -1        22   12    0    1
 -2        74        76        75
 -1        23   12    0    1
 -2        76        78        77
 -1        24   12    0    1
 -2        78        80        79
 -1        25   12    0    1
 -2        80        82        81
 -1        26   12    0    1
 -2        82        84        83
 -1        27   12    0    1
 -2        84         3        85
 -1        28   12    0    1
 -2         2        87        86
 -1        29   12    0    1
 -2        87        89        88
 -1        30   12    0    1
 -2        89         9        90
 -1        31   12    0    1
 -2         2        92        91
 -1        32   12    0    1
 -2        92        94        93
 -1        33   12    0    1
 -2        94        96        95
 -1        34   12    0    1
 -2        96        98        97
 -1        35   12    0    1
 -2        98       100        99
 -1        36   12    0    1
 -2       100       102       101
 -1        37   12    0    1
 -2       102       104       103
 -1        38   12    0    1
 -2       104        10       105
 -1        39   12    0    1
 -2         3       107       106
 -1        40   12    0    1
 -2       107       109       108
 -1        41   12    0    1
 -2       109       111       110
 -1        42   12    0    1
 -2       111       113       112
 -1        43   12    0    1
 -2       113       115       114
 -1        44   12    0    1
 -2       115       117       116
 -1        45   12    0    1
 -2       117       119       118
 -1        46   12    0    1
 -2       119         4       120
 -1        47   12    0    1
 -2         3       122       121
 -1        48   12    0    1
 -2       122       124       123
 -1        49   12    0    1
 -2       124        10       125
 -1        50   12    0    1
 -2         3       127       126
 -1        51   12    0    1
 -2       127       129       128
 -1        52   12    0    1
 -2       129       131       130
 -1        53   12    0    1
 -2       131       133       132
 -1        54   12    0    1
 -2       133       135       134
 -1        55   12    0    1
 -2       135       137       136
 -1        56   12    0    1
 -2       137       139       138
 -1        57   12    0    1
 -2       139        11       140
 -1        58   12    0    1
 -2         4       142       141
 -1        59   12    0    1
 -2       142       144       143
 -1        60   12    0    1
 -2       144       146       145
 -1        61   12    0    1
 -2       146       148       147
 -1        62   12    0    1
 -2       148       150       149
 -1        63   12    0    1
 -2       150       152       151
 -1        64   12    0    1
 -2       152       154       153
 -1        65   12    0    1
 -2       154         5       155
 -1        66   12    0    1
 -2         4       157       156
 -1        67   12    0    1
 -2       157       159       158
 -1        68   12    0    1
 -2       159        11       160
 -1        69   12    0    1
 -2         4       162       161
 -1        70   12    0    1
 -2       162       164       163
 -1        71   12    0    1
 -2       164       166       165
 -1        72   12    0    1
 -2       166       168       167
 -1        73   12    0    1
 -2       168       170       169
 -1        74   12    0    1
 -2       170       172       171
 -1        75   12    0    1
 -2       172       174       173
 -1        76   12    0    1
 -2       174        12       175
 -1        77   12    0    1
 -2         5       192       191
 -1        78   12    0    1
 -2       192       194       193
 -1        79   12    0    1
 -2       194        12       195
 -1        80   12    0    1
 -2         8       252       251
 -1        81   12    0    1
 -2       252       254       253
 -1        82   12    0    1
 -2       254       256       255
 -1        83   12    0    1
 -2       256       258       257
 -1        84   12    0    1
 -2       258       260       259
 -1        85   12    0    1
 -2       260       262       261
 -1        86   12    0    1
 -2       262       264       263
 -1        87   12    0    1
 -2       264         9       265
 -1        88   12    0    1
 -2         8       267       266
 -1        89   12    0    1
 -2       267       269       268
 -1        90   12    0    1
 -2       269        15       270
 -1        91   12    0    1
 -2         8       272       271
 -1        92   12    0    1
 -2       272       274       273
 -1        93   12    0    1
 -2       274       276       275
 -1        94   12    0    1
 -2       276       278       277
 -1        95   12    0    1
 -2       278       280       279
 -1        96   12    0    1
 -2       280       282       281
 -1        97   12    0    1
 -2       282       284       283
 -1        98   12    0    1
 -2       284        16       285
 -1        99   12    0    1
 -2         9       287       286
 -1       100   12    0    1
 -2       287       289       288
 -1       101   12    0    1
 -2       289       291       290
 -1       102   12    0    1
 -2       291       293       292
 -1       103   12    0    1
 -2       293       295       294
 -1       104   12    0    1
 -2       295       297       296
 -1       105   12    0    1
 -2       297       299       298
 -1       106   12    0    1
 -2       299        10       300
 -1       107   12    0    1
 -2         9       302       301
 -1       108   12    0    1
 -2       302       304       303
 -1       109   12    0    1
 -2       304        16       305
 -1       110   12    0    1
 -2         9       307       306
 -1       111   12    0    1
 -2       307       309       308
 -1       112   12    0    1
 -2       309       311       310
 -1       113   12    0    1
 -2       311       313       312
 -1       114   12    0    1
 -2       313       315       314
 -1       115   12    0    1
 -2       315       317       316
 -1       116   12    0    1
 -2       317       319       318
 -1       117   12    0    1
 -2       319        17       320
 -1       118   12    0    1
 -2        10       322       321
 -1       119   12    0    1
 -2       322       324       323
 -1       120   12    0    1
 -2       324       326       325
 -1       121   12    0    1
 -2       326       328       327
 -1       122   12    0    1
 -2       328       330       329
 -1       123   12    0    1
 -2       330       332       331
 -1       124   12    0    1
 -2       332       334       333
 -1       125   12    0    1
 -2       334        11       335
 -1       126   12    0    1
 -2        10       337       336
 -1       127   12    0    1
 -2       337       339       338
 -1       128   12    0    1
 -2       339        17       340
 -1       129   12    0    1
 -2        10       342       341
 -1       130   12    0    1
 -2       342       344       343
 -1       131   12    0    1
 -2       344       346       345
 -1       132   12    0    1
 -2       346       348       347
 -1       133   12    0    1
 -2       348       350       349
 -1       134   12    0    1
 -2       350       352       351
 -1       135   12    0    1
 -2       352       354       353
 -1       136   12    0    1
 -2       354        18       355
 -1       137   12    0    1
 -2        11       357       356
 -1       138   12    0    1
 -2       357       359       358
 -1       139   12    0    1
 -2       359       361       360
 -1       140   12    0    1
 -2       361       363       362
 -1       141   12    0    1
 -2       363       365       364
 -1       142   12    0    1
 -2       365       367       366
 -1       143   12    0    1
 -2       367       369       368
 -1       144   12    0    1
 -2       369        12       370
 -1       145   12    0    1
 -2        11       372       371
 -1       146   12    0    1
 -2       372       374       373
 -1       147   12    0    1
 -2       374        18       375
 -1       148   12    0    1
 -2        11       377       376
 -1       149   12    0    1
 -2       377       379       378
 -1       150   12    0    1
 -2       379       381       380
 -1       151   12    0    1
 -2       381       383       382
 -1       152   12    0    1
 -2       383       385       384
 -1       153   12    0    1
 -2       385       387       386
 -1       154   12    0    1
 -2       387       389       388
 -1       155   12    0    1
 -2       389        19       390
 -1       156   12    0    1
 -2        12       407       406
 -1       157   12    0    1
 -2       407       409       408
 -1       158   12    0    1
 -2       409        19       410
 -1       159   12    0    1
 -2        15       467       466
 -1       160   12    0    1
 -2       467       469       468
 -1       161   12    0    1
 -2       469       471       470
 -1       162   12    0    1
 -2       471       473       472
 -1       163   12    0    1
 -2       473       475       474
 -1       164   12    0    1
 -2       475       477       476
 -1       165   12    0    1
 -2       477       479       478
 -1       166   12    0    1
 -2       479        16       480
 -1       167   12    0    1
 -2        15       482       481
 -1       168   12    0    1
 -2       482       484       483
 -1       169   12    0    1
 -2       484        22       485
 -1       170   12    0    1
 -2        15       487       486
 -1       171   12    0    1
 -2       487       489       488
 -1       172   12    0    1
 -2       489       491       490
 -1       173   12    0    1
 -2       491       493       492
 -1       174   12    0    1
 -2       493       495       494
 -1       175   12    0    1
 -2       495       497       496
 -1       176   12    0    1
 -2       497       499       498
 -1       177   12    0    1
 -2       499        23       500
 -1       178   12    0    1
 -2        16       502       501
 -1       179   12    0    1
 -2       502       504       503
 -1       180   12    0    1
 -2       504       506       505
 -1       181   12    0    1
 -2       506       508       507
 -1       182   12    0    1
 -2       508       510       509
 -1       183   12    0    1
 -2       510       512       511
 -1       184   12    0    1
 -2       512       514       513
 -1       185   12    0    1
 -2       514        17       515
 -1       186   12    0    1
 -2        16       517       516
 -1       187   12    0    1
 -2       517       519       518
 -1       188   12    0    1
 -2       519        23       520
 -1       189   12    0    1
 -2        16       522       521
 -1       190   12    0    1
 -2       522       524       523
 -1       191   12    0    1
 -2       524       526       525
 -1       192   12    0    1
 -2       526       528       527
 -1       193   12    0    1
 -2       528       530       529
 -1       194   12    0    1
 -2       530       532       531
 -1       195   12    0    1
 -2       532       534       533
 -1       196   12    0    1
 -2       534        24       535
 -1       197   12    0    1
 -2        17       537       536
 -1       198   12    0    1
 -2       537       539       538
 -1       199   12    0    1
 -2       539       541       540
 -1       200   12    0    1
 -2       541       543       542
 -1       201   12    0    1
 -2       543       545       544
 -1       202   12    0    1
 -2       545       547       546
 -1       203   12    0    1
 -2       547       549       548
 -1       204   12    0    1
 -2       549        18       550
 -1       205   12    0    1
 -2        17       552       551
 -1       206   12    0    1
 -2       552       554       553
 -1       207   12    0    1
 -2       554        24       555
 -1       208   12    0    1
 -2        17       557       556
 -1       209   12    0    1
 -2       557       559       558
 -1       210   12    0    1
 -2       559       561       560
 -1       211   12    0    1
 -2       561       563       562
 -1       212   12    0    1
 -2       563       565       564
 -1       213   12    0    1
 -2       565       567       566
 -1       214   12    0    1
 -2       567       569       568
 -1       215   12    0    1
 -2       569        25       570
 -1       216   12    0    1
 -2        18       572       571
 -1       217   12    0    1
 -2       572       574       573
 -1       218   12    0    1
 -2       574       576       575
 -1       219   12    0    1
 -2       576       578       577
 -1       220   12    0    1
 -2       578       580       579
 -1       221   12    0    1
 -2       580       582       581
 -1       222   12    0    1
 -2       582       584       583
 -1       223   12    0    1
 -2       584        19       585
 -1       224   12    0    1
 -2        18       587       586
 -1       225   12    0    1
 -2       587       589       588
 -1       226   12    0    1
 -2       589        25       590
 -1       227   12    0    1
 -2        18       592       591
 -1       228   12    0    1
 -2       592       594       593
 -1       229   12    0    1
 -2       594       596       595
 -1       230   12    0    1
 -2       596       598       597
 -1       231   12    0    1
 -2       598       600       599
 -1       232   12    0    1
 -2       600       602       601
 -1       233   12    0    1
 -2       602       604       603
 -1       234   12    0    1
 -2       604        26       605
 -1       235   12    0    1
 -2        19       607       606
 -1       236   12    0    1
 -2       607       609       608
 -1       237   12    0    1
 -2       609       611       610
 -1       238   12    0    1
 -2       611       613       612
 -1       239   12    0    1
 -2       613       615       614
 -1       240   12    0    1
 -2       615       617       616
 -1       241   12    0    1
 -2       617       619       618
 -1       242   12    0    1
 -2       619        20       620
 -1       243   12    0    1
 -2        19       622       621
 -1       244   12    0    1
 -2       622       624       623
 -1       245   12    0    1
 -2       624        26       625
 -1       246   12    0    1
 -2        19       627       626
 -1       247   12    0    1
 -2       627       629       628
 -1       248   12    0    1
 -2       629       631       630
 -1       249   12    0    1
 -2       631       633       632
 -1       250   12    0    1
 -2       633       635       634
 -1       251   12    0    1
 -2       635       637       636
 -1       252   12    0    1
 -2       637       639       638
 -1       253   12    0    1
 -2       639        27       640
 -1       254   12    0    1
 -2        20       642       641
 -1       255   12    0    1
 -2       642       644       643
 -1       256   12    0    1
 -2       644       646       645
 -1       257   12    0    1
 -2       646       648       647
 -1       258   12    0    1
 -2       648       650       649
 -1       259   12    0    1
 -2       650       652       651
 -1       260   12    0    1
 -2       652       654       653
 -1       261   12    0    1
 -2       654        21       655
 -1       262   12    0    1
 -2        20       657       656
 -1       263   12    0    1
 -2       657       659       658
 -1       264   12    0    1
 -2       659        27       660
 -1       265   12    0    1
 -2        20       662       661
 -1       266   12    0    1
 -2       662       664       663
 -1       267   12    0    1
 -2       664       666       665
 -1       268   12    0    1
 -2       666       668       667
 -1       269   12    0    1
 -2       668       670       669
 -1       270   12    0    1
 -2       670       672       671
 -1       271   12    0    1
 -2       672       674       673
 -1       272   12    0    1
 -2       674        28       675
 -1       273   12    0    1
 -2        21       677       676
 -1       274   12    0    1
 -2       677       679       678
 -1       275   12    0    1
 -2       679        28       680
 -1       276   12    0    1
 -2        22       682       681
 -1       277   12    0    1
 -2       682       684       683
 -1       278   12    0    1
 -2       684       686       685
 -1       279   12    0    1
 -2       686       688       687
 -1       280   12    0    1
 -2       688       690       689
 -1       281   12    0    1
 -2       690       692       691
 -1       282   12    0    1
 -2       692       694       693
 -1       283   12    0    1
 -2       694        23       695
 -1       284   12    0    1
 -2        22       697       696
 -1       285   12    0    1
 -2       697       699       698
 -1       286   12    0    1
 -2       699        29       700
 -1       287   12    0    1
 -2        22       702       701
 -1       288   12    0    1
 -2       702       704       703
 -1       289   12    0    1
 -2       704       706       705
 -1       290   12    0    1
 -2       706       708       707
 -1       291   12    0    1
 -2       708       710       709
 -1       292   12    0    1
 -2       710       712       711
 -1       293   12    0    1
 -2       712       714       713
 -1       294   12    0    1
 -2       714        30       715
 -1       295   12    0    1
 -2        23       717       716
 -1       296   12    0    1
 -2       717       719       718
 -1       297   12    0    1
 -2       719       721       720
 -1       298   12    0    1
 -2       721       723       722
 -1       299   12    0    1
 -2       723       725       724
 -1       300   12    0    1
 -2       725       727       726
 -1       301   12    0    1
 -2       727       729       728
 -1       302   12    0    1
 -2       729        24       730
 -1       303   12    0    1
 -2        23       732       731
 -1       304   12    0    1
 -2       732       734       733
 -1       305   12    0    1
 -2       734        30       735
 -1       306   12    0    1
 -2        23       737       736
 -1       307   12    0    1
 -2       737       739       738
 -1       308   12    0    1
 -2       739       741       740
 -1       309   12    0    1
 -2       741       743       742
 -1       310   12    0    1
 -2       743       745       744
 -1       311   12    0    1
 -2       745       747       746
 -1       312   12    0    1
 -2       747       749       748
 -1       313   12    0    1
 -2       749        31       750
 -1       314   12    0    1
 -2        24       752       751
 -1       315   12    0    1
 -2       752       754       753
 -1       316   12    0    1
 -2       754       756       755
 -1       317   12    0    1
 -2       756       758       757
 -1       318   12    0    1
 -2       758       760       759
 -1       319   12    0    1
 -2       760       762       761
 -1       320   12    0    1
 -2       762       764       763
 -1       321   12    0    1
 -2       764        25       765
 -1       322   12    0    1
 -2        24       767       766
 -1       323   12    0    1
 -2       767       769       768
 -1       324   12    0    1
 -2       769        31       770
 -1       325   12    0    1
 -2        24       772       771
 -1       326   12    0    1
 -2       772       774       773
 -1       327   12    0    1
 -2       774       776       775
 -1       328   12    0    1
 -2       776       778       777
 -1       329   12    0    1
 -2       778       780       779
 -1       330   12    0    1
 -2       780       782       781
 -1       331   12    0    1
 -2       782       784       783
 -1       332   12    0    1
 -2       784        32       785
 -1       333   12    0    1
 -2        25       787       786
 -1       334   12    0    1
 -2       787       789       788
 -1       335   12    0    1
 -2       789       791       790
 -1       336   12    0    1
 -2       791       793       792
 -1       337   12    0    1
 -2       793       795       794
 -1       338   12    0    1
 -2       795       797       796
 -1       339   12    0    1
 -2       797       799       798
 -1       340   12    0    1
 -2       799        26       800
 -1       341   12    0    1
 -2        25       802       801
 -1       342   12    0    1
 -2       802       804       803
 -1       343   12    0    1
 -2       804        32       805
 -1       344   12    0    1
 -2        25       807       806
 -1       345   12    0    1
 -2       807       809       808
 -1       346   12    0    1
 -2       809       811       810
 -1       347   12    0    1
 -2       811       813       812
 -1       348   12    0    1
 -2       813       815       814
 -1       349   12    0    1
 -2       815       817       816
 -1       350   12    0    1
 -2       817       819       818
 -1       351   12    0    1
 -2       819        33       820
 -1       352   12    0    1
 -2        26       822       821
 -1       353   12    0    1
 -2       822       824       823
 -1       354   12    0    1
 -2       824       826       825
 -1       355   12    0    1
 -2       826       828       827
 -1       356   12    0    1
 -2       828       830       829
 -1       357   12    0    1
 -2       830       832       831
 -1       358   12    0    1
 -2       832       834       833
 -1       359   12    0    1
 -2       834        27       835
 -1       360   12    0    1
 -2        26       837       836
 -1       361   12    0    1
 -2       837       839       838
 -1       362   12    0    1
 -2       839        33       840
 -1       363   12    0    1
 -2        26       842       841
 -1       364   12    0    1
 -2       842       844       843
 -1       365   12    0    1
 -2       844       846       845
 -1       366   12    0    1
 -2       846       848       847
 -1       367   12    0    1
 -2       848       850       849
 -1       368   12    0    1
 -2       850       852       851
 -1       369   12    0    1
 -2       852       854       853
 -1       370   12    0    1
 -2       854        34       855
 -1       371   12    0    1
 -2        27       857       856
 -1       372   12    0    1
 -2       857       859       858
 -1       373   12    0    1
 -2       859       861       860
 -1       374   12    0    1
 -2       861       863       862
 -1       375   12    0    1
 -2       863       865       864
 -1       376   12    0    1
 -2       865       867       866
 -1       377   12    0    1
 -2       867       869       868
 -1       378   12    0    1
 -2       869        28       870
 -1       379   12    0    1
 -2        27       872       871
 -1       380   12    0    1
 -2       872       874       873
 -1       381   12    0    1
 -2       874        34       875
 -1       382   12    0    1
 -2        27       877       876
 -1       383   12    0    1
 -2       877       879       878
 -1       384   12    0    1
 -2       879       881       880
 -1       385   12    0    1
 -2       881       883       882
 -1       386   12    0    1
 -2       883       885       884
 -1       387   12    0    1
 -2       885       887       886
 -1       388   12    0    1
 -2       887       889       888
 -1       389   12    0    1
 -2       889        35       890
 -1       390   12    0    1
 -2        28       892       891
 -1       391   12    0    1
 -2       892       894       893
 -1       392   12    0    1
 -2       894        35       895
 -1       393   12    0    1
 -2        29       897       896
 -1       394   12    0    1
 -2       897       899       898
 -1       395   12    0    1
 -2       899       901       900
 -1       396   12    0    1
 -2       901       903       902
 -1       397   12    0    1
 -2       903       905       904
 -1       398   12    0    1
 -2       905       907       906
 -1       399   12    0    1
 -2       907       909       908
 -1       400   12    0    1
 -2       909        30       910
 -1       401   12    0    1
 -2        30       912       911
 -1       402   12    0    1
 -2       912       914       913
 -1       403   12    0    1
 -2       914       916       915
 -1       404   12    0    1
 -2       916       918       917
 -1       405   12    0    1
 -2       918       920       919
 -1       406   12    0    1
 -2       920       922       921
 -1       407   12    0    1
 -2       922       924       923
 -1       408   12    0    1
 -2       924        31       925
 -1       409   12    0    1
 -2        31       927       926
 -1       410   12    0    1
 -2       927       929       928
 -1       411   12    0    1
 -2       929       931       930
 -1       412   12    0    1
 -2       931       933       932
 -1       413   12    0    1
 -2       933       935       934
 -1       414   12    0    1
 -2       935       937       936
 -1       415   12    0    1
 -2       937       939       938
 -1       416   12    0    1
 -2       939        32       940
 -1       417   12    0    1
 -2        32       942       941
 -1       418   12    0    1
 -2       942       944       943
 -1       419   12    0    1
 -2       944       946       945
 -1       420   12    0    1
 -2       946       948       947
 -1       421   12    0    1
 -2       948       950       949
 -1       422   12    0    1
 -2       950       952       951
 -1       423   12    0    1
 -2       952       954       953
 -1       424   12    0    1
 -2       954        33       955
 -1       425   12    0    1
 -2        33       957       956
 -1       426   12    0    1
 -2       957       959       958
 -1       427   12    0    1
 -2       959       961       960
 -1       428   12    0    1
 -2       961       963       962
 -1       429   12    0    1
 -2       963       965       964
 -1       430   12    0    1
 -2       965       967       966
 -1       431   12    0    1
 -2       967       969       968
 -1       432   12    0    1
 -2       969        34       970
 -1       433   12    0    1
 -2        34       972       971
 -1       434   12    0    1
 -2       972       974       973
 -1       435   12    0    1
 -2       974       976       975
 -1       436   12    0    1
 -2       976       978       977
 -1       437   12    0    1
 -2       978       980       979
 -1       438   12    0    1
 -2       980       982       981
 -1       439   12    0    1
 -2       982       984       983
 -1       440   12    0    1
 -2       984        35       985
 -3
    1PSTEP                         1           1           1          
  100CL  101 1.000000000         841                     0    1           1
 -4  DISP        4    1
 -5  D1          1    2    1    0
 -5  D2          1    2    2    0
 -5  D3          1    2    3    0
 -5  ALL         1    2    0    0    1ALL
 -1         1 1.18889E-04 0.00000E+00 0.00000E+00
 -1         2 8.89050E-05 0.00000E+00 0.00000E+00
 -1         3 7.47490E-05 0.00000E+00 0.00000E+00
 -1         4 6.76864E-05 0.00000E+00 0.00000E+00
 -1         5 6.49527E-05 0.00000E+00 0.00000E+00
 -1         8 9.20858E-05-1.19045E-06 0.00000E+00
 -1         9 7.55670E-05 1.44575E-06 0.00000E+00
 -1        10 6.99762E-05-3.97107E-06 0.00000E+00
 -1        11 6.54899E-05-8.70033E-07 0.00000E+00
 -1        12 6.17528E-05 1.94076E-06 0.00000E+00
 -1        15 3.74946E-05-2.44336E-06 0.00000E+00
 -1        16 5.08644E-05 1.52653E-06 0.00000E+00
 -1        17 4.82102E-05-7.97345E-06 0.00000E+00
 -1        18 5.01975E-05-1.65442E-06 0.00000E+00
 -1        19 5.34732E-05 3.82672E-06 0.00000E+00
 -1        20 5.43496E-05 4.01223E-05 0.00000E+00
 -1        21 5.42783E-05 9.68290E-05 0.00000E+00
 -1        22 1.36778E-05-1.56193E-06 0.00000E+00
 -1        23 1.81441E-05 2.38734E-06 0.00000E+00
 -1        24 1.96318E-05-9.08766E-06 0.00000E+00
 -1        25 4.16868E-05-1.24280E-06 0.00000E+00
 -1        26 4.55868E-05 5.02983E-06 0.00000E+00
 -1        27 4.22943E-05 3.87304E-05 0.00000E+00
 -1        28 3.84382E-05 9.55128E-05 0.00000E+00
 -1        29 0.00000E+00 0.00000E+00 0.00000E+00
 -1        30 6.61435E-06 2.98101E-06 0.00000E+00
 -1        31 8.72413E-06-7.66091E-06 0.00000E+00
 -1        32 0.00000E+00 0.00000E+00 0.00000E+00
 -1        33 3.34867E-05 8.41330E-06 0.00000E+00
 -1        34 3.15867E-05 3.86198E-05 0.00000E+00
 -1        35 2.66672E-05 9.48206E-05 0.00000E+00
 -1        36 1.17074E-04 3.79742E-20 0.00000E+00
 -1        37 1.15200E-04 1.32041E-19 0.00000E+00
 -1        38 1.13330E-04 1.52052E-19 0.00000E+00
 -1        39 1.11449E-04 2.20569E-19-2.64698E-23
 -1        40 1.09567E-04 3.31294E-19 0.00000E+00
 -1        41 1.07683E-04 4.70752E-19 2.64698E-23
 -1        42 1.05798E-04 7.16707E-19 0.00000E+00
 -1        43 1.03914E-04 8.74853E-19-2.64698E-23
 -1        44 1.02029E-04 1.02884E-18 5.29396E-23
 -1        45 1.00145E-04 1.04422E-18-2.64698E-23
 -1        46 9.82603E-05 9.39096E-19 0.00000E+00
 -1        47 9.63775E-05 7.40820E-19 0.00000E+00
 -1        48 9.44949E-05 5.15145E-19 5.29396E-23
 -1        49 9.26199E-05 2.38903E-19 0.00000E+00
 -1        50 9.07423E-05 8.13449E-20-5.29396E-23
 -1        51 1.16915E-04-2.01416E-07 0.00000E+00
 -1        52 1.13586E-04-3.93309E-07 0.00000E+00
 -1        53 1.09164E-04-5.84906E-07 0.00000E+00
 -1        54 1.03923E-04-7.79121E-07 0.00000E+00
 -1        55 9.81379E-05-9.78157E-07 1.32349E-23
 -1        56 1.16726E-04-1.12184E-06 0.00000E+00
 -1        57 1.14663E-04-2.75370E-06-2.64698E-23
 -1        58 1.12724E-04-4.70602E-06 0.00000E+00
 -1        59 1.10827E-04-6.81081E-06 2.64698E-23
 -1        60 1.08914E-04-8.87504E-06 5.29396E-23
 -1        61 1.06914E-04-1.07134E-05 2.64698E-23
 -1        62 1.04767E-04-1.21600E-05 0.00000E+00
 -1        63 1.02418E-04-1.30697E-05 0.00000E+00
 -1        64 9.98321E-05-1.33460E-05-5.29396E-23
 -1        65 9.69837E-05-1.29244E-05 0.00000E+00
 -1        66 9.38725E-05-1.18041E-05 5.29396E-23
 -1        67 9.05129E-05-1.00189E-05 2.64698E-23
 -1        68 8.69385E-05-7.66419E-06 5.29396E-23
 -1        69 8.32087E-05-4.85874E-06 2.64698E-23
 -1        70 7.93678E-05-1.77327E-06-5.29396E-23
 -1        71 8.80187E-05 1.63782E-21-2.64698E-23
 -1        72 8.71328E-05 1.14284E-19 0.00000E+00
 -1        73 8.62469E-05 2.60802E-19 2.64698E-23
 -1        74 8.53611E-05 4.87765E-19 0.00000E+00
 -1        75 8.44752E-05 6.61791E-19 0.00000E+00
 -1        76 8.35894E-05 8.70947E-19 1.32349E-23
 -1        77 8.27036E-05 1.05020E-18 0.00000E+00
 -1        78 8.18178E-05 1.14455E-18 1.32349E-23
 -1        79 8.09321E-05 1.10191E-18 2.64698E-23
 -1        80 8.00464E-05 9.50698E-19-1.32349E-23
 -1        81 7.91608E-05 7.83492E-19 0.00000E+00
 -1        82 7.82755E-05 5.92672E-19-1.32349E-23
 -1        83 7.73903E-05 4.27961E-19-2.64698E-23
 -1        84 7.65070E-05 2.58094E-19-1.32349E-23
 -1        85 7.56230E-05 1.06758E-19 0.00000E+00
 -1        86 8.84813E-05 2.09781E-07-1.32349E-23
 -1        87 8.72319E-05 4.64671E-07 8.27181E-25
 -1        88 8.52478E-05 7.15358E-07 1.65436E-24
 -1        89 8.26124E-05 9.68052E-07 4.13590E-25
 -1        90 7.93721E-05 1.22119E-06-3.30872E-24
 -1        91 8.88921E-05-3.19246E-06-2.64698E-23
 -1        92 9.08966E-05-1.18736E-05 0.00000E+00
 -1        93 9.43639E-05-2.45702E-05-2.64698E-23
 -1        94 9.86881E-05-3.96488E-05 0.00000E+00
 -1        95 1.03070E-04-5.48889E-05 0.00000E+00
 -1        96 1.06709E-04-6.80633E-05 0.00000E+00
 -1        97 1.08972E-04-7.74546E-05 0.00000E+00
 -1        98 1.09267E-04-8.14993E-05 0.00000E+00
 -1        99 1.07466E-04-7.99434E-05 2.64698E-23
 -1       100 1.03524E-04-7.27531E-05-1.32349E-23
 -1       101 9.79249E-05-6.12653E-05 0.00000E+00
 -1       102 9.12365E-05-4.69797E-05 0.00000E+00
 -1       103 8.43055E-05-3.20737E-05 2.64698E-23
 -1       104 7.79952E-05-1.87462E-05 0.00000E+00
 -1       105 7.30018E-05-8.81739E-06 2.64698E-23
 -1       106 7.42981E-05-8.01042E-21-1.32349E-23
 -1       107 7.38553E-05-2.34051E-21 0.00000E+00
 -1       108 7.34119E-05 1.06603E-20 1.32349E-23
 -1       109 7.29701E-05 2.76498E-20-6.61744E-24
 -1       110 7.25284E-05-5.32704E-21 1.32349E-23
 -1       111 7.20869E-05-1.05047E-19 0.00000E+00
 -1       112 7.16455E-05-1.31503E-19 0.00000E+00
 -1       113 7.12041E-05-7.82244E-20 0.00000E+00
 -1       114 7.07628E-05-4.70848E-20 0.00000E+00
 -1       115 7.03216E-05-1.28817E-20 6.61744E-24
 -1       116 6.98804E-05 4.14211E-21-1.32349E-23
 -1       117 6.94395E-05 3.20789E-20 6.61744E-24
 -1       118 6.89986E-05 5.59708E-20 0.00000E+00
 -1       119 6.85591E-05 7.10701E-20-6.61744E-24
 -1       120 6.81191E-05 6.13301E-20 0.00000E+00
 -1       121 7.47731E-05-6.60356E-07 2.64698E-23
 -1       122 7.46912E-05-1.32158E-06 1.32349E-23
 -1       123 7.43351E-05-1.98288E-06 0.00000E+00
 -1       124 7.35385E-05-2.64461E-06 1.32349E-23
 -1       125 7.21383E-05-3.30704E-06-2.64698E-23
 -1       126 7.42572E-05-3.03314E-07 0.00000E+00
 -1       127 7.38459E-05-8.07135E-07 6.61744E-24
 -1       128 7.34905E-05-1.46125E-06 1.32349E-23
 -1       129 7.31716E-05-2.21025E-06-6.61744E-24
 -1       130 7.28632E-05-2.98722E-06 0.00000E+00
 -1       131 7.25401E-05-3.72433E-06 0.00000E+00
 -1       132 7.21788E-05-4.35937E-06 0.00000E+00
 -1       133 7.17566E-05-4.83201E-06 6.61744E-24
 -1       134 7.12586E-05-5.10209E-06 0.00000E+00
 -1       135 7.06711E-05-5.13340E-06 0.00000E+00
 -1       136 6.99916E-05-4.91961E-06 1.32349E-23
 -1       137 6.92198E-05-4.45905E-06-6.61744E-24
 -1       138 6.83664E-05-3.78121E-06-1.32349E-23
 -1       139 6.74454E-05-2.91912E-06-6.61744E-24
 -1       140 6.64761E-05-1.93020E-06 0.00000E+00
 -1       141 6.75095E-05-8.92528E-21 0.00000E+00
 -1       142 6.73363E-05-6.60324E-20 3.30872E-24
 -1       143 6.71627E-05-1.35748E-19 0.00000E+00
 -1       144 6.69899E-05-1.57279E-19 0.00000E+00
 -1       145 6.68171E-05-1.19911E-19 0.00000E+00
 -1       146 6.66445E-05-3.40286E-20 3.30872E-24
 -1       147 6.64718E-05 1.78830E-20-6.61744E-24
 -1       148 6.62993E-05 5.59941E-20-3.30872E-24
 -1       149 6.61268E-05 6.88380E-20 6.61744E-24
 -1       150 6.59544E-05 4.30186E-20 0.00000E+00
 -1       151 6.57821E-05 6.22017E-20 6.61744E-24
 -1       152 6.56106E-05 1.11283E-19 0.00000E+00
 -1       153 6.54392E-05 8.19116E-20 0.00000E+00
 -1       154 6.52714E-05 4.04274E-20 0.00000E+00
 -1       155 6.51024E-05 1.60936E-20-1.65436E-24
 -1       156 6.76902E-05-1.47274E-07 0.00000E+00
 -1       157 6.76825E-05-2.89974E-07 3.30872E-24
 -1       158 6.75593E-05-4.33042E-07 0.00000E+00
 -1       159 6.72171E-05-5.76549E-07 3.30872E-24
 -1       160 6.65590E-05-7.19752E-07 0.00000E+00
 -1       161 6.74124E-05-1.40860E-07 0.00000E+00
 -1       162 6.71611E-05-3.45439E-07-3.30872E-24
 -1       163 6.69247E-05-5.89499E-07 0.00000E+00
 -1       164 6.66937E-05-8.48884E-07 0.00000E+00
 -1       165 6.64590E-05-1.09809E-06 0.00000E+00
 -1       166 6.62109E-05-1.31180E-06 3.30872E-24
 -1       167 6.59411E-05-1.46738E-06-6.61744E-24
 -1       168 6.56412E-05-1.54280E-06 3.30872E-24
 -1       169 6.53050E-05-1.52156E-06 0.00000E+00
 -1       170 6.49270E-05-1.38813E-06 0.00000E+00
 -1       171 6.45041E-05-1.13492E-06-6.61744E-24
 -1       172 6.40346E-05-7.55295E-07 3.30872E-24
 -1       173 6.35187E-05-2.51951E-07-6.61744E-24
 -1       174 6.29621E-05 3.72957E-07 0.00000E+00
 -1       175 6.23633E-05 1.10511E-06 0.00000E+00
 -1       191 6.48379E-05 3.23062E-07 0.00000E+00
 -1       192 6.45489E-05 6.46998E-07 0.00000E+00
 -1       193 6.40899E-05 9.71080E-07 0.00000E+00
 -1       194 6.34667E-05 1.29504E-06 0.00000E+00
 -1       195 6.26853E-05 1.61858E-06 0.00000E+00
 -1       251 9.10688E-05 3.47417E-06 2.64698E-23
 -1       252 9.00310E-05 7.62462E-06-1.32349E-23
 -1       253 8.89977E-05 1.08508E-05 2.64698E-23
 -1       254 8.79634E-05 1.27767E-05 1.32349E-23
 -1       255 8.69305E-05 1.32960E-05 0.00000E+00
 -1       256 8.58965E-05 1.23542E-05 0.00000E+00
 -1       257 8.48606E-05 1.01999E-05 0.00000E+00
 -1       258 8.38223E-05 7.12657E-06 1.32349E-23
 -1       259 8.27827E-05 3.61817E-06 0.00000E+00
 -1       260 8.17434E-05 1.74800E-07 0.00000E+00
 -1       261 8.07059E-05-2.71688E-06-2.64698E-23
 -1       262 7.96716E-05-4.59077E-06-1.32349E-23
 -1       263 7.86389E-05-5.19161E-06 0.00000E+00
 -1       264 7.76104E-05-4.31142E-06 0.00000E+00
 -1       265 7.65785E-05-2.04890E-06 0.00000E+00
 -1       266 8.59451E-05-1.38932E-06-6.61744E-24
 -1       267 7.74343E-05-1.59238E-06 0.00000E+00
 -1       268 6.74350E-05-1.80908E-06-6.61744E-24
 -1       269 5.68378E-05-2.02830E-06 0.00000E+00
 -1       270 4.65544E-05-2.24466E-06 0.00000E+00
 -1       271 8.83330E-05 2.31076E-06 0.00000E+00
 -1       272 8.49206E-05 4.69187E-06 0.00000E+00
 -1       273 8.18947E-05 6.05854E-06-5.29396E-23
 -1       274 7.92003E-05 6.51127E-06-2.64698E-23
 -1       275 7.67972E-05 6.18634E-06 0.00000E+00
 -1       276 7.46260E-05 5.23739E-06-2.64698E-23
 -1       277 7.26234E-05 3.83745E-06 0.00000E+00
 -1       278 7.07200E-05 2.17158E-06 0.00000E+00
 -1       279 6.88439E-05 4.32768E-07-5.29396E-23
 -1       280 6.69224E-05-1.18389E-06 2.64698E-23
 -1       281 6.48840E-05-2.48716E-06-5.29396E-23
 -1       282 6.26618E-05-3.29403E-06-2.64698E-23
 -1       283 6.01914E-05-3.43694E-06 0.00000E+00
 -1       284 5.74265E-05-2.76260E-06 0.00000E+00
 -1       285 5.43049E-05-1.15060E-06 0.00000E+00
 -1       286 7.52104E-05 4.96777E-06 0.00000E+00
 -1       287 7.48611E-05 7.36494E-06 6.61744E-24
 -1       288 7.45134E-05 8.67509E-06 1.32349E-23
 -1       289 7.41673E-05 8.94959E-06 6.61744E-24
 -1       290 7.38211E-05 8.31481E-06-1.32349E-23
 -1       291 7.34743E-05 6.90845E-06 6.61744E-24
 -1       292 7.31265E-05 4.92404E-06 0.00000E+00
 -1       293 7.27780E-05 2.56228E-06 6.61744E-24
 -1       294 7.24291E-05 5.12220E-08 1.32349E-23
 -1       295 7.20803E-05-2.37923E-06 6.61744E-24
 -1       296 7.17322E-05-4.50507E-06-1.32349E-23
 -1       297 7.13844E-05-6.10600E-06 6.61744E-24
 -1       298 7.10374E-05-6.99975E-06 1.32349E-23
 -1       299 7.06884E-05-7.01288E-06 0.00000E+00
 -1       300 7.03396E-05-6.03577E-06 0.00000E+00
 -1       301 7.14447E-05 1.44466E-06-6.61744E-24
 -1       302 6.73123E-05 1.46394E-06 1.65436E-24
 -1       303 6.31789E-05 1.48711E-06 0.00000E+00
 -1       304 5.90536E-05 1.51018E-06 1.65436E-24
 -1       305 5.49458E-05 1.52911E-06-6.61744E-24
 -1       306 7.26246E-05 4.28397E-06 2.64698E-23
 -1       307 7.00739E-05 5.92639E-06 2.64698E-23
 -1       308 6.79289E-05 6.49829E-06 0.00000E+00
 -1       309 6.61300E-05 6.12428E-06 0.00000E+00
 -1       310 6.46280E-05 4.95663E-06 0.00000E+00
 -1       311 6.33590E-05 3.16168E-06 0.00000E+00
 -1       312 6.22563E-05 9.20668E-07-5.29396E-23
 -1       313 6.12488E-05-1.57605E-06 0.00000E+00
 -1       314 6.02635E-05-4.13211E-06 0.00000E+00
 -1       315 5.92268E-05-6.54984E-06-2.64698E-23
 -1       316 5.80664E-05-8.63504E-06 0.00000E+00
 -1       317 5.67133E-05-1.02001E-05 0.00000E+00
 -1       318 5.51007E-05-1.10698E-05-5.29396E-23
 -1       319 5.31762E-05-1.10808E-05 2.64698E-23
 -1       320 5.08745E-05-1.00960E-05-2.64698E-23
 -1       321 6.96769E-05-1.64368E-06 0.00000E+00
 -1       322 6.93944E-05 1.12344E-07 0.00000E+00
 -1       323 6.91117E-05 1.31926E-06 0.00000E+00
 -1       324 6.88325E-05 2.00483E-06 0.00000E+00
 -1       325 6.85535E-05 2.22731E-06 0.00000E+00
 -1       326 6.82752E-05 2.04961E-06 0.00000E+00
 -1       327 6.79969E-05 1.55802E-06 0.00000E+00
 -1       328 6.77185E-05 8.42006E-07 3.30872E-24
 -1       329 6.74401E-05 4.12538E-09-6.61744E-24
 -1       330 6.71617E-05-8.51852E-07 0.00000E+00
 -1       331 6.68833E-05-1.62108E-06 0.00000E+00
 -1       332 6.66051E-05-2.19958E-06 3.30872E-24
 -1       333 6.63269E-05-2.49454E-06 0.00000E+00
 -1       334 6.60485E-05-2.41596E-06-3.30872E-24
 -1       335 6.57701E-05-1.89570E-06 6.61744E-24
 -1       336 6.70018E-05-4.64025E-06 2.64698E-23
 -1       337 6.34881E-05-5.31047E-06 0.00000E+00
 -1       338 5.96420E-05-5.98152E-06 0.00000E+00
 -1       339 5.56733E-05-6.65068E-06 6.61744E-24
 -1       340 5.17928E-05-7.31988E-06-1.32349E-23
 -1       341 6.75630E-05-6.36527E-07 2.64698E-23
 -1       342 6.43298E-05 4.80977E-06 0.00000E+00
 -1       343 6.06034E-05 1.15502E-05 0.00000E+00
 -1       344 5.67127E-05 1.87117E-05 1.32349E-23
 -1       345 5.30322E-05 2.53240E-05 2.64698E-23
 -1       346 4.99240E-05 3.04362E-05 0.00000E+00
 -1       347 4.76118E-05 3.34519E-05-2.64698E-23
 -1       348 4.62863E-05 3.38527E-05 0.00000E+00
 -1       349 4.59022E-05 3.17398E-05 0.00000E+00
 -1       350 4.63801E-05 2.73097E-05 0.00000E+00
 -1       351 4.74392E-05 2.13088E-05 0.00000E+00
 -1       352 4.87812E-05 1.45443E-05 0.00000E+00
 -1       353 5.00405E-05 8.00481E-06 0.00000E+00
 -1       354 5.08631E-05 2.67343E-06-1.32349E-23
 -1       355 5.09783E-05-7.58939E-07-1.32349E-23
 -1       356 6.52500E-05 2.57933E-07 6.61744E-24
 -1       357 6.50136E-05 1.07912E-06 0.00000E+00
 -1       358 6.47772E-05 1.61665E-06 6.61744E-24
 -1       359 6.45415E-05 1.89601E-06 0.00000E+00
 -1       360 6.43058E-05 1.95554E-06-6.61744E-24
 -1       361 6.40703E-05 1.83542E-06 3.30872E-24
 -1       362 6.38347E-05 1.58477E-06 6.61744E-24
 -1       363 6.35992E-05 1.25382E-06 3.30872E-24
 -1       364 6.33638E-05 8.96742E-07 0.00000E+00
 -1       365 6.31285E-05 5.67980E-07 3.30872E-24
 -1       366 6.28934E-05 3.20554E-07 6.61744E-24
 -1       367 6.26590E-05 2.06786E-07 3.30872E-24
 -1       368 6.24249E-05 2.72383E-07-6.61744E-24
 -1       369 6.21947E-05 5.61517E-07 1.65436E-24
 -1       370 6.19631E-05 1.10734E-06 0.00000E+00
 -1       371 6.36461E-05-1.00785E-06 0.00000E+00
 -1       372 6.07786E-05-1.14012E-06 3.30872E-24
 -1       373 5.74433E-05-1.27411E-06 0.00000E+00
 -1       374 5.41981E-05-1.40506E-06-1.65436E-24
 -1       375 5.15987E-05-1.53462E-06 0.00000E+00
 -1       376 6.44982E-05 8.75479E-08 0.00000E+00
 -1       377 6.35854E-05 8.04132E-07-6.61744E-24
 -1       378 6.27635E-05 1.28095E-06 0.00000E+00
 -1       379 6.20290E-05 1.51915E-06 0.00000E+00
 -1       380 6.13711E-05 1.55357E-06-1.32349E-23
 -1       381 6.07749E-05 1.42247E-06-6.61744E-24
 -1       382 6.02179E-05 1.18669E-06 1.32349E-23
 -1       383 5.96765E-05 9.09156E-07-6.61744E-24
 -1       384 5.91251E-05 6.58578E-07 0.00000E+00
 -1       385 5.85381E-05 5.03170E-07-6.61744E-24
 -1       386 5.78950E-05 4.97785E-07 0.00000E+00
 -1       387 5.71772E-05 6.94495E-07-6.61744E-24
 -1       388 5.63743E-05 1.11782E-06-1.32349E-23
 -1       389 5.54842E-05 1.78989E-06 0.00000E+00
 -1       390 5.45042E-05 2.69483E-06 6.61744E-24
 -1       406 6.06021E-05 2.25666E-06 0.00000E+00
 -1       407 5.93296E-05 2.57325E-06 6.61744E-24
 -1       408 5.79572E-05 2.88971E-06 0.00000E+00
 -1       409 5.65082E-05 3.20535E-06 0.00000E+00
 -1       410 5.50057E-05 3.51922E-06 0.00000E+00
 -1       466 3.82783E-05 4.42432E-06 1.32349E-23
 -1       467 3.91120E-05 8.46131E-06-1.32349E-23
 -1       468 3.99500E-05 1.03966E-05 0.00000E+00
 -1       469 4.07963E-05 1.08934E-05 0.00000E+00
 -1       470 4.16428E-05 1.03399E-05 0.00000E+00
 -1       471 4.24900E-05 9.09153E-06 1.32349E-23
 -1       472 4.33368E-05 7.37059E-06 2.64698E-23
 -1       473 4.41832E-05 5.38466E-06 1.32349E-23
 -1       474 4.50295E-05 3.29039E-06-2.64698E-23
 -1       475 4.58754E-05 1.24112E-06 0.00000E+00
 -1       476 4.67215E-05-6.01127E-07 0.00000E+00
 -1       477 4.75662E-05-2.06803E-06-1.32349E-23
 -1       478 4.84111E-05-2.91915E-06 0.00000E+00
 -1       479 4.92464E-05-2.89500E-06 0.00000E+00
 -1       480 5.00840E-05-1.56898E-06 0.00000E+00
 -1       481 3.01084E-05-2.31933E-06 0.00000E+00
 -1       482 2.46094E-05-2.17631E-06 1.65436E-24
 -1       483 2.05953E-05-2.02685E-06-3.30872E-24
 -1       484 1.76721E-05-1.87281E-06-1.65436E-24
 -1       485 1.54837E-05-1.71671E-06 3.30872E-24
 -1       486 3.28049E-05 7.25302E-06 0.00000E+00
 -1       487 2.68619E-05 2.00736E-05 0.00000E+00
 -1       488 2.03328E-05 3.44041E-05-2.64698E-23
 -1       489 1.38640E-05 4.85612E-05 0.00000E+00
 -1       490 8.10142E-06 6.09052E-05-2.64698E-23
 -1       491 3.65266E-06 6.98522E-05 0.00000E+00
 -1       492 8.34893E-07 7.45366E-05 0.00000E+00
 -1       493-9.89318E-08 7.42338E-05 0.00000E+00
 -1       494 7.00881E-07 6.92781E-05 2.64698E-23
 -1       495 3.03001E-06 6.01634E-05 0.00000E+00
 -1       496 6.37069E-06 4.82725E-05 2.64698E-23
 -1       497 1.01812E-05 3.50855E-05 1.32349E-23
 -1       498 1.38247E-05 2.23607E-05 0.00000E+00
 -1       499 1.66742E-05 1.18420E-05 0.00000E+00
 -1       500 1.82496E-05 4.79756E-06 1.32349E-23
 -1       501 5.06824E-05 4.85577E-06 0.00000E+00
 -1       502 5.05165E-05 6.79409E-06 0.00000E+00
 -1       503 5.03514E-05 7.48349E-06 0.00000E+00
 -1       504 5.01888E-05 7.07317E-06-3.30872E-24
 -1       505 5.00256E-05 5.75011E-06 0.00000E+00
 -1       506 4.98617E-05 3.70666E-06 3.30872E-24
 -1       507 4.96967E-05 1.15983E-06 6.61744E-24
 -1       508 4.95312E-05-1.67048E-06-3.30872E-24
 -1       509 4.93654E-05-4.55460E-06 0.00000E+00
 -1       510 4.92002E-05-7.26256E-06 0.00000E+00
 -1       511 4.90358E-05-9.57047E-06 6.61744E-24
 -1       512 4.88724E-05-1.12567E-05-3.30872E-24
 -1       513 4.87099E-05-1.21210E-05-6.61744E-24
 -1       514 4.85467E-05-1.19678E-05 0.00000E+00
 -1       515 4.83829E-05-1.06365E-05 0.00000E+00
 -1       516 4.58412E-05 1.65435E-06 3.30872E-24
 -1       517 3.90638E-05 1.79770E-06 0.00000E+00
 -1       518 3.17157E-05 1.93562E-06 1.65436E-24
 -1       519 2.49765E-05 2.07997E-06-8.27181E-25
 -1       520 2.00481E-05 2.23506E-06-4.13590E-25
 -1       521 4.77166E-05 4.22178E-06 0.00000E+00
 -1       522 4.49591E-05 5.69780E-06 0.00000E+00
 -1       523 4.26154E-05 6.08254E-06 0.00000E+00
 -1       524 4.06232E-05 5.50287E-06 0.00000E+00
 -1       525 3.89318E-05 4.11787E-06 5.29396E-23
 -1       526 3.74742E-05 2.10280E-06 0.00000E+00
 -1       527 3.61797E-05-3.49999E-07 0.00000E+00
 -1       528 3.49727E-05-3.03804E-06 2.64698E-23
 -1       529 3.37755E-05-5.75256E-06 0.00000E+00
 -1       530 3.25104E-05-8.28417E-06 0.00000E+00
 -1       531 3.11010E-05-1.04284E-05-5.29396E-23
 -1       532 2.94754E-05-1.19897E-05-2.64698E-23
 -1       533 2.75651E-05-1.27883E-05 5.29396E-23
 -1       534 2.53168E-05-1.26599E-05 0.00000E+00
 -1       535 2.26668E-05-1.14708E-05 0.00000E+00
 -1       536 4.83110E-05-5.02136E-06 3.30872E-24
 -1       537 4.84320E-05-2.77451E-06 5.16988E-26
 -1       538 4.85537E-05-1.15311E-06 0.00000E+00
 -1       539 4.86791E-05-7.78177E-08 0.00000E+00
 -1       540 4.88052E-05 5.29815E-07-3.30872E-24
 -1       541 4.89321E-05 7.47604E-07 1.65436E-24
 -1       542 4.90591E-05 6.52810E-07 0.00000E+00
 -1       543 4.91862E-05 3.22239E-07 1.65436E-24
 -1       544 4.93133E-05-1.67634E-07 0.00000E+00
 -1       545 4.94403E-05-7.40574E-07-1.65436E-24
 -1       546 4.95674E-05-1.32046E-06-3.30872E-24
 -1       547 4.96943E-05-1.83116E-06-1.65436E-24
 -1       548 4.98213E-05-2.19648E-06-3.30872E-24
 -1       549 4.99478E-05-2.34002E-06-1.65436E-24
 -1       550 5.00743E-05-2.18499E-06 0.00000E+00
 -1       551 4.39348E-05-8.15826E-06-5.18280E-24
 -1       552 3.92004E-05-8.33853E-06 0.00000E+00
 -1       553 3.42031E-05-8.51901E-06 0.00000E+00
 -1       554 2.91430E-05-8.70106E-06 6.61744E-24
 -1       555 2.42202E-05-8.88631E-06 1.32349E-23
 -1       556 4.69200E-05-5.23013E-06 0.00000E+00
 -1       557 4.58662E-05-3.09927E-06 0.00000E+00
 -1       558 4.50221E-05-1.52139E-06 0.00000E+00
 -1       559 4.43623E-05-4.31074E-07 0.00000E+00
 -1       560 4.38615E-05 2.37309E-07 1.32349E-23
 -1       561 4.34944E-05 5.50063E-07 0.00000E+00
 -1       562 4.32360E-05 5.73587E-07 0.00000E+00
 -1       563 4.30612E-05 3.74409E-07 0.00000E+00
 -1       564 4.29450E-05 1.91187E-08 0.00000E+00
 -1       565 4.28624E-05-4.25655E-07-3.30872E-24
 -1       566 4.27883E-05-8.93253E-07 0.00000E+00
 -1       567 4.26980E-05-1.31701E-06-3.30872E-24
 -1       568 4.25665E-05-1.63026E-06-3.30872E-24
 -1       569 4.23694E-05-1.76648E-06-1.00813E-24
 -1       570 4.20824E-05-1.65920E-06 2.48154E-24
 -1       571 5.03933E-05-1.11987E-06 2.01625E-24
 -1       572 5.05960E-05-7.46445E-07 2.48154E-24
 -1       573 5.08005E-05-5.06421E-07-4.96308E-24
 -1       574 5.10060E-05-3.70645E-07 0.00000E+00
 -1       575 5.12119E-05-3.09860E-07 3.30872E-24
 -1       576 5.14179E-05-2.94637E-07 0.00000E+00
 -1       577 5.16240E-05-2.95536E-07 0.00000E+00
 -1       578 5.18301E-05-2.83098E-07-3.30872E-24
 -1       579 5.20362E-05-2.27858E-07 0.00000E+00
 -1       580 5.22423E-05-1.00351E-07 0.00000E+00
 -1       581 5.24483E-05 1.28893E-07 0.00000E+00
 -1       582 5.26542E-05 4.89330E-07 0.00000E+00
 -1       583 5.28600E-05 1.01040E-06 0.00000E+00
 -1       584 5.30654E-05 1.72129E-06 0.00000E+00
 -1       585 5.32702E-05 2.65106E-06 0.00000E+00
 -1       586 4.89588E-05-1.58448E-06 0.00000E+00
 -1       587 4.75387E-05-1.51383E-06 0.00000E+00
 -1       588 4.60186E-05-1.44327E-06-1.65436E-24
 -1       589 4.44814E-05-1.37343E-06 4.13590E-25
 -1       590 4.30102E-05-1.30514E-06 0.00000E+00
 -1       591 4.98469E-05-1.04597E-06 3.30872E-24
 -1       592 4.95280E-05-5.44002E-07-1.65436E-24
 -1       593 4.92404E-05-1.30179E-07 0.00000E+00
 -1       594 4.89786E-05 2.12705E-07 0.00000E+00
 -1       595 4.87367E-05 5.01847E-07 3.30872E-24
 -1       596 4.85084E-05 7.54368E-07-1.65436E-24
 -1       597 4.82874E-05 9.87376E-07 3.30872E-24
 -1       598 4.80673E-05 1.21797E-06 0.00000E+00
 -1       599 4.78416E-05 1.46324E-06 0.00000E+00
 -1       600 4.76041E-05 1.74030E-06 8.27181E-25
 -1       601 4.73482E-05 2.06622E-06 0.00000E+00
 -1       602 4.70678E-05 2.45812E-06 0.00000E+00
 -1       603 4.67565E-05 2.93311E-06 4.13590E-25
 -1       604 4.64085E-05 3.50838E-06-4.13590E-25
 -1       605 4.60184E-05 4.20114E-06 0.00000E+00
 -1       606 5.35359E-05 5.37684E-06 6.61744E-24
 -1       607 5.35935E-05 7.06529E-06 0.00000E+00
 -1       608 5.36496E-05 8.88400E-06 0.00000E+00
 -1       609 5.37049E-05 1.08237E-05-3.30872E-24
 -1       610 5.37597E-05 1.28753E-05 0.00000E+00
 -1       611 5.38142E-05 1.50292E-05 0.00000E+00
 -1       612 5.38685E-05 1.72760E-05 0.00000E+00
 -1       613 5.39225E-05 1.96064E-05 3.30872E-24
 -1       614 5.39764E-05 2.20108E-05 0.00000E+00
 -1       615 5.40301E-05 2.44798E-05 1.65436E-24
 -1       616 5.40838E-05 2.70040E-05 0.00000E+00
 -1       617 5.41372E-05 2.95739E-05 0.00000E+00
 -1       618 5.41906E-05 3.21801E-05 3.30872E-24
 -1       619 5.42439E-05 3.48132E-05 0.00000E+00
 -1       620 5.42970E-05 3.74638E-05-1.65436E-24
 -1       621 5.19986E-05 4.02745E-06 0.00000E+00
 -1       622 5.05659E-05 4.22956E-06-3.30872E-24
 -1       623 4.91920E-05 4.43186E-06 3.30872E-24
 -1       624 4.78934E-05 4.63375E-06 1.65436E-24
 -1       625 4.66864E-05 4.83451E-06-1.65436E-24
 -1       626 5.29932E-05 5.44053E-06 0.00000E+00
 -1       627 5.24557E-05 7.19858E-06 0.00000E+00
 -1       628 5.18681E-05 9.08788E-06 0.00000E+00
 -1       629 5.12361E-05 1.10936E-05 0.00000E+00
 -1       630 5.05658E-05 1.32007E-05 0.00000E+00
 -1       631 4.98629E-05 1.53941E-05 0.00000E+00
 -1       632 4.91332E-05 1.76585E-05-6.61744E-24
 -1       633 4.83823E-05 1.99789E-05 0.00000E+00
 -1       634 4.76161E-05 2.23400E-05 3.30872E-24
 -1       635 4.68402E-05 2.47266E-05 0.00000E+00
 -1       636 4.60604E-05 2.71235E-05 0.00000E+00
 -1       637 4.52824E-05 2.95156E-05 0.00000E+00
 -1       638 4.45117E-05 3.18876E-05 0.00000E+00
 -1       639 4.37538E-05 3.42243E-05-1.24077E-24
 -1       640 4.30139E-05 3.65104E-05-4.13590E-25
 -1       641 5.43503E-05 4.28958E-05-8.27181E-25
 -1       642 5.43483E-05 4.59724E-05-2.06795E-25
 -1       643 5.43456E-05 4.93090E-05 0.00000E+00
 -1       644 5.43419E-05 5.28628E-05 0.00000E+00
 -1       645 5.43375E-05 5.65907E-05 0.00000E+00
 -1       646 5.43326E-05 6.04498E-05 0.00000E+00
 -1       647 5.43274E-05 6.43972E-05 5.16988E-26
 -1       648 5.43219E-05 6.83902E-05 0.00000E+00
 -1       649 5.43164E-05 7.23858E-05-2.58494E-26
 -1       650 5.43110E-05 7.63412E-05-6.46235E-27
 -1       651 5.43059E-05 8.02137E-05 0.00000E+00
 -1       652 5.43010E-05 8.39602E-05 1.03398E-25
 -1       653 5.42967E-05 8.75380E-05 0.00000E+00
 -1       654 5.42918E-05 9.09041E-05-8.27181E-25
 -1       655 5.42880E-05 9.40154E-05 3.30872E-24
 -1       656 5.19357E-05 3.98973E-05-3.30872E-24
 -1       657 4.98299E-05 3.96615E-05-3.30872E-24
 -1       658 4.79229E-05 3.94265E-05 0.00000E+00
 -1       659 4.61048E-05 3.91916E-05 3.30872E-24
 -1       660 4.42653E-05 3.89560E-05 3.30872E-24
 -1       661 5.35756E-05 4.29755E-05 0.00000E+00
 -1       662 5.27193E-05 4.60753E-05 0.00000E+00
 -1       663 5.17842E-05 4.93819E-05 0.00000E+00
 -1       664 5.07858E-05 5.28605E-05-3.30872E-24
 -1       665 4.97358E-05 5.64758E-05 0.00000E+00
 -1       666 4.86473E-05 6.01932E-05-3.30872E-24
 -1       667 4.75331E-05 6.39788E-05 6.61744E-24
 -1       668 4.64059E-05 6.77987E-05 0.00000E+00
 -1       669 4.52784E-05 7.16192E-05 0.00000E+00
 -1       670 4.41634E-05 7.54067E-05 0.00000E+00
 -1       671 4.30737E-05 7.91273E-05 6.61744E-24
 -1       672 4.20218E-05 8.27468E-05 0.00000E+00
 -1       673 4.10209E-05 8.62311E-05 0.00000E+00
 -1       674 4.00822E-05 8.95444E-05 3.30872E-24
 -1       675 3.92218E-05 9.26522E-05 3.30872E-24
 -1       676 5.16226E-05 9.66099E-05 0.00000E+00
 -1       677 4.89749E-05 9.63888E-05-3.30872E-24
 -1       678 4.63339E-05 9.61679E-05 0.00000E+00
 -1       679 4.36983E-05 9.59477E-05 0.00000E+00
 -1       680 4.10669E-05 9.57272E-05 3.30872E-24
 -1       681 1.39502E-05-1.09817E-07 6.61744E-24
 -1       682 1.42303E-05 9.69112E-07 0.00000E+00
 -1       683 1.45104E-05 1.73944E-06 6.61744E-24
 -1       684 1.47919E-05 2.26256E-06 3.30872E-24
 -1       685 1.50736E-05 2.58471E-06 6.61744E-24
 -1       686 1.53556E-05 2.75008E-06-3.30872E-24
 -1       687 1.56376E-05 2.79320E-06-6.61744E-24
 -1       688 1.59197E-05 2.74737E-06 3.30872E-24
 -1       689 1.62017E-05 2.64042E-06 0.00000E+00
 -1       690 1.64836E-05 2.49954E-06 3.30872E-24
 -1       691 1.67654E-05 2.34986E-06-6.61744E-24
 -1       692 1.70465E-05 2.21640E-06 0.00000E+00
 -1       693 1.73275E-05 2.12518E-06-6.61744E-24
 -1       694 1.76051E-05 2.10266E-06 0.00000E+00
 -1       695 1.78838E-05 2.17948E-06-1.65436E-24
 -1       696 1.17915E-05-1.30761E-06 0.00000E+00
 -1       697 9.46493E-06-1.04740E-06-3.30872E-24
 -1       698 6.91142E-06-7.88080E-07 0.00000E+00
 -1       699 4.34221E-06-5.26984E-07-3.30872E-24
 -1       700 1.96769E-06-2.65557E-07 0.00000E+00
 -1       701 1.28353E-05-1.64131E-07 0.00000E+00
 -1       702 1.20844E-05 9.41470E-07 3.30872E-24
 -1       703 1.14403E-05 1.76601E-06 6.61744E-24
 -1       704 1.08962E-05 2.31575E-06 0.00000E+00
 -1       705 1.04446E-05 2.61920E-06 0.00000E+00
 -1       706 1.00736E-05 2.70632E-06 0.00000E+00
 -1       707 9.76643E-06 2.62304E-06 6.61744E-24
 -1       708 9.50522E-06 2.41698E-06 0.00000E+00
 -1       709 9.26886E-06 2.14460E-06 0.00000E+00
 -1       710 9.03601E-06 1.86311E-06 3.30872E-24
 -1       711 8.78495E-06 1.63034E-06 0.00000E+00
 -1       712 8.49467E-06 1.50376E-06 3.30872E-24
 -1       713 8.14602E-06 1.53287E-06-6.61744E-24
 -1       714 7.72377E-06 1.76670E-06 3.30872E-24
 -1       715 7.21150E-06 2.23710E-06-3.30872E-24
 -1       716 1.82298E-05 2.31511E-06 0.00000E+00
 -1       717 1.83260E-05 1.57081E-06 4.13590E-25
 -1       718 1.84211E-05 2.87391E-07 0.00000E+00
 -1       719 1.85176E-05-1.40420E-06 0.00000E+00
 -1       720 1.86137E-05-3.38163E-06-3.30872E-24
 -1       721 1.87098E-05-5.52354E-06 0.00000E+00
 -1       722 1.88059E-05-7.71204E-06-3.30872E-24
 -1       723 1.89022E-05-9.82949E-06 0.00000E+00
 -1       724 1.89989E-05-1.17567E-05 3.30872E-24
 -1       725 1.90958E-05-1.33737E-05 0.00000E+00
 -1       726 1.91932E-05-1.45541E-05 0.00000E+00
 -1       727 1.92901E-05-1.51699E-05 0.00000E+00
 -1       728 1.93870E-05-1.50810E-05 0.00000E+00
 -1       729 1.94784E-05-1.41451E-05 8.27181E-25
 -1       730 1.95700E-05-1.22020E-05-6.61744E-24
 -1       731 1.72963E-05 2.47808E-06 0.00000E+00
 -1       732 1.53935E-05 2.57853E-06-4.13590E-25
 -1       733 1.29064E-05 2.67713E-06 0.00000E+00
 -1       734 1.03033E-05 2.77741E-06 0.00000E+00
 -1       735 8.05028E-06 2.87861E-06-3.30872E-24
 -1       736 1.73640E-05 2.33679E-06-1.32349E-23
 -1       737 1.66119E-05 2.14238E-06 6.61744E-24
 -1       738 1.59214E-05 1.78785E-06 0.00000E+00
 -1       739 1.52950E-05 1.25005E-06 0.00000E+00
 -1       740 1.47330E-05 5.40370E-07 0.00000E+00
 -1       741 1.42291E-05-3.26930E-07 0.00000E+00
 -1       742 1.37685E-05-1.31017E-06-2.64698E-23
 -1       743 1.33345E-05-2.36488E-06 1.32349E-23
 -1       744 1.29060E-05-3.43420E-06 0.00000E+00
 -1       745 1.24616E-05-4.46088E-06 0.00000E+00
 -1       746 1.19828E-05-5.39513E-06 0.00000E+00
 -1       747 1.14522E-05-6.18935E-06 0.00000E+00
 -1       748 1.08606E-05-6.82028E-06 2.64698E-23
 -1       749 1.02043E-05-7.26753E-06 6.61744E-24
 -1       750 9.48283E-06-7.54494E-06 0.00000E+00
 -1       751 2.09272E-05-5.99001E-06 0.00000E+00
 -1       752 2.23047E-05-4.04092E-06 1.32349E-23
 -1       753 2.36786E-05-2.88942E-06 0.00000E+00
 -1       754 2.50678E-05-2.22585E-06-2.64698E-23
 -1       755 2.64578E-05-1.89966E-06 0.00000E+00
 -1       756 2.78507E-05-1.77747E-06-2.64698E-23
 -1       757 2.92440E-05-1.79278E-06 0.00000E+00
 -1       758 3.06379E-05-1.88609E-06 0.00000E+00
 -1       759 3.20317E-05-2.02347E-06 5.29396E-23
 -1       760 3.34253E-05-2.17324E-06 2.64698E-23
 -1       761 3.48185E-05-2.30778E-06 0.00000E+00
 -1       762 3.62096E-05-2.39871E-06 0.00000E+00
 -1       763 3.76003E-05-2.40334E-06 2.64698E-23
 -1       764 3.89799E-05-2.27457E-06 0.00000E+00
 -1       765 4.03630E-05-1.92180E-06 2.64698E-23
 -1       766 1.62760E-05-8.87758E-06 0.00000E+00
 -1       767 1.36240E-05-8.63304E-06 0.00000E+00
 -1       768 1.15999E-05-8.38926E-06 0.00000E+00
 -1       769 1.01340E-05-8.14195E-06 0.00000E+00
 -1       770 9.18683E-06-7.89256E-06 1.03398E-25
 -1       771 1.75035E-05-6.08172E-06-2.64698E-23
 -1       772 1.55546E-05-3.59259E-06 1.32349E-23
 -1       773 1.37825E-05-1.58018E-06 2.64698E-23
 -1       774 1.21733E-05-3.93746E-09 1.32349E-23
 -1       775 1.07127E-05 1.17689E-06-2.64698E-23
 -1       776 9.38515E-06 2.00351E-06 0.00000E+00
 -1       777 8.17524E-06 2.51731E-06 2.64698E-23
 -1       778 7.06723E-06 2.75996E-06 0.00000E+00
 -1       779 6.04537E-06 2.77332E-06 0.00000E+00
 -1       780 5.09386E-06 2.59943E-06-1.32349E-23
 -1       781 4.19688E-06 2.28049E-06-2.64698E-23
 -1       782 3.33872E-06 1.85884E-06 0.00000E+00
 -1       783 2.50369E-06 1.37691E-06 0.00000E+00
 -1       784 1.67695E-06 8.77435E-07 0.00000E+00
 -1       785 8.43905E-07 4.03234E-07 0.00000E+00
 -1       786 4.19168E-05-4.81832E-07 3.30872E-24
 -1       787 4.21601E-05 1.14210E-07-3.30872E-24
 -1       788 4.24031E-05 5.70785E-07-6.61744E-24
 -1       789 4.26483E-05 9.13049E-07 3.30872E-24
 -1       790 4.28938E-05 1.16583E-06 0.00000E+00
 -1       791 4.31396E-05 1.35371E-06 0.00000E+00
 -1       792 4.33856E-05 1.50109E-06 6.61744E-24
 -1       793 4.36316E-05 1.63228E-06 3.30872E-24
 -1       794 4.38776E-05 1.77151E-06 0.00000E+00
 -1       795 4.41236E-05 1.94305E-06 3.30872E-24
 -1       796 4.43696E-05 2.17127E-06 0.00000E+00
 -1       797 4.46153E-05 2.48069E-06 3.30872E-24
 -1       798 4.48609E-05 2.89603E-06-6.61744E-24
 -1       799 4.51052E-05 3.44234E-06 0.00000E+00
 -1       800 4.53497E-05 4.14502E-06 0.00000E+00
 -1       801 3.78737E-05-1.02054E-06-6.61744E-24
 -1       802 3.00435E-05-8.06459E-07 3.30872E-24
 -1       803 2.02697E-05-6.07976E-07-3.30872E-24
 -1       804 1.06231E-05-4.11769E-07 2.06795E-25
 -1       805 3.17496E-06-1.98543E-07-6.61744E-24
 -1       806 4.11563E-05-5.62787E-07-6.61744E-24
 -1       807 4.06427E-05 4.77797E-08 0.00000E+00
 -1       808 4.01477E-05 6.02756E-07 0.00000E+00
 -1       809 3.96679E-05 1.11472E-06-3.30872E-24
 -1       810 3.91991E-05 1.59615E-06 6.61744E-24
 -1       811 3.87370E-05 2.05946E-06 0.00000E+00
 -1       812 3.82770E-05 2.51698E-06-6.61744E-24
 -1       813 3.78145E-05 2.98108E-06 3.30872E-24
 -1       814 3.73449E-05 3.46409E-06 0.00000E+00
 -1       815 3.68636E-05 3.97837E-06 3.30872E-24
 -1       816 3.63659E-05 4.53623E-06 0.00000E+00
 -1       817 3.58474E-05 5.15004E-06 0.00000E+00
 -1       818 3.53035E-05 5.83213E-06-6.61744E-24
 -1       819 3.47304E-05 6.59491E-06 1.65436E-24
 -1       820 3.41243E-05 7.45087E-06-3.30872E-24
 -1       821 4.53944E-05 6.15378E-06 1.65436E-24
 -1       822 4.51900E-05 7.52913E-06-1.65436E-24
 -1       823 4.49855E-05 9.13144E-06 0.00000E+00
 -1       824 4.47788E-05 1.09355E-05 0.00000E+00
 -1       825 4.45716E-05 1.29159E-05 0.00000E+00
 -1       826 4.43637E-05 1.50466E-05-3.30872E-24
 -1       827 4.41555E-05 1.73011E-05 0.00000E+00
 -1       828 4.39470E-05 1.96530E-05 0.00000E+00
 -1       829 4.37383E-05 2.20753E-05-6.61744E-24
 -1       830 4.35296E-05 2.45410E-05 0.00000E+00
 -1       831 4.33209E-05 2.70231E-05 0.00000E+00
 -1       832 4.31126E-05 2.94944E-05 3.30872E-24
 -1       833 4.29044E-05 3.19276E-05 0.00000E+00
 -1       834 4.26979E-05 3.42960E-05 0.00000E+00
 -1       835 4.24914E-05 3.65724E-05 0.00000E+00
 -1       836 4.41430E-05 5.58333E-06 1.32349E-23
 -1       837 4.20673E-05 6.15592E-06 0.00000E+00
 -1       838 3.96626E-05 6.72671E-06 1.32349E-23
 -1       839 3.72300E-05 7.29639E-06 6.61744E-24
 -1       840 3.50706E-05 7.86779E-06-6.61744E-24
 -1       841 4.50968E-05 6.12763E-06 0.00000E+00
 -1       842 4.44995E-05 7.49178E-06-8.27181E-25
 -1       843 4.38103E-05 9.10107E-06 1.65436E-24
 -1       844 4.30368E-05 1.09306E-05 0.00000E+00
 -1       845 4.21909E-05 1.29522E-05 1.65436E-24
 -1       846 4.12831E-05 1.51370E-05 0.00000E+00
 -1       847 4.03258E-05 1.74530E-05 0.00000E+00
 -1       848 3.93312E-05 1.98678E-05 0.00000E+00
 -1       849 3.83121E-05 2.23472E-05 0.00000E+00
 -1       850 3.72816E-05 2.48569E-05 8.27181E-25
 -1       851 3.62529E-05 2.73619E-05 0.00000E+00
 -1       852 3.52391E-05 2.98274E-05 0.00000E+00
 -1       853 3.42531E-05 3.22191E-05-1.65436E-24
 -1       854 3.33077E-05 3.45030E-05 1.65436E-24
 -1       855 3.24152E-05 3.66471E-05-3.30872E-24
 -1       856 4.20676E-05 4.10502E-05-3.30872E-24
 -1       857 4.18293E-05 4.37895E-05 0.00000E+00
 -1       858 4.15903E-05 4.68958E-05 0.00000E+00
 -1       859 4.13487E-05 5.03152E-05-3.30872E-24
 -1       860 4.11059E-05 5.39931E-05 0.00000E+00
 -1       861 4.08622E-05 5.78744E-05 0.00000E+00
 -1       862 4.06178E-05 6.19032E-05-6.61744E-24
 -1       863 4.03729E-05 6.60232E-05-3.30872E-24
 -1       864 4.01280E-05 7.01780E-05 0.00000E+00
 -1       865 3.98831E-05 7.43111E-05-3.30872E-24
 -1       866 3.96386E-05 7.83660E-05-6.61744E-24
 -1       867 3.93948E-05 8.22863E-05-3.30872E-24
 -1       868 3.91518E-05 8.60162E-05 0.00000E+00
 -1       869 3.89108E-05 8.95003E-05-3.30872E-24
 -1       870 3.86706E-05 9.26837E-05 0.00000E+00
 -1       871 4.03795E-05 3.87142E-05 0.00000E+00
 -1       872 3.85628E-05 3.86968E-05 0.00000E+00
 -1       873 3.68101E-05 3.86791E-05 0.00000E+00
 -1       874 3.50864E-05 3.86609E-05 4.13590E-25
 -1       875 3.33568E-05 3.86419E-05-8.27181E-25
 -1       876 4.17224E-05 4.11309E-05 0.00000E+00
 -1       877 4.10243E-05 4.39025E-05 0.00000E+00
 -1       878 4.02059E-05 4.69910E-05 0.00000E+00
 -1       879 3.92878E-05 5.03486E-05 0.00000E+00
 -1       880 3.82862E-05 5.39273E-05 0.00000E+00
 -1       881 3.72188E-05 5.76805E-05 0.00000E+00
 -1       882 3.61027E-05 6.15624E-05 0.00000E+00
 -1       883 3.49551E-05 6.55275E-05-3.30872E-24
 -1       884 3.37930E-05 6.95309E-05 6.61744E-24
 -1       885 3.26334E-05 7.35275E-05 0.00000E+00
 -1       886 3.14932E-05 7.74727E-05 0.00000E+00
 -1       887 3.03893E-05 8.13209E-05 0.00000E+00
 -1       888 2.93391E-05 8.50270E-05 0.00000E+00
 -1       889 2.83579E-05 8.85441E-05 0.00000E+00
 -1       890 2.74663E-05 9.18264E-05 3.30872E-24
 -1       891 3.61350E-05 9.53975E-05-3.30872E-24
 -1       892 3.42736E-05 9.52814E-05-1.65436E-24
 -1       893 3.26254E-05 9.51657E-05 0.00000E+00
 -1       894 3.09609E-05 9.50504E-05 0.00000E+00
 -1       895 2.90511E-05 9.49344E-05 0.00000E+00
 -1       896 4.10572E-07 1.48247E-06 0.00000E+00
 -1       897 8.24886E-07 2.46431E-06-6.61744E-24
 -1       898 1.23932E-06 3.04774E-06 0.00000E+00
 -1       899 1.65447E-06 3.32896E-06 0.00000E+00
 -1       900 2.06967E-06 3.37661E-06 0.00000E+00
 -1       901 2.48498E-06 3.25580E-06 0.00000E+00
 -1       902 2.90029E-06 3.01627E-06-1.32349E-23
 -1       903 3.31557E-06 2.70595E-06-6.61744E-24
 -1       904 3.73083E-06 2.36632E-06 0.00000E+00
 -1       905 4.14600E-06 2.03843E-06 0.00000E+00
 -1       906 4.56111E-06 1.76439E-06 0.00000E+00
 -1       907 4.97575E-06 1.58711E-06-6.61744E-24
 -1       908 5.39030E-06 1.55834E-06 1.32349E-23
 -1       909 5.80235E-06 1.73208E-06 6.61744E-24
 -1       910 6.21512E-06 2.18077E-06-6.61744E-24
 -1       911 6.74587E-06 3.71152E-06 0.00000E+00
 -1       912 6.87956E-06 3.94995E-06 0.00000E+00
 -1       913 7.01315E-06 3.77352E-06 3.30872E-24
 -1       914 7.14699E-06 3.25746E-06 0.00000E+00
 -1       915 7.28067E-06 2.46717E-06 3.30872E-24
 -1       916 7.41424E-06 1.46672E-06 0.00000E+00
 -1       917 7.54765E-06 3.14128E-07 3.30872E-24
 -1       918 7.68095E-06-9.33376E-07 1.65436E-24
 -1       919 7.81417E-06-2.22127E-06-3.30872E-24
 -1       920 7.94730E-06-3.49522E-06-1.65436E-24
 -1       921 8.08044E-06-4.70053E-06 3.30872E-24
 -1       922 8.21317E-06-5.78215E-06 1.65436E-24
 -1       923 8.34596E-06-6.68143E-06 0.00000E+00
 -1       924 8.47619E-06-7.33888E-06 8.27181E-25
 -1       925 8.60746E-06-7.68804E-06-1.65436E-24
 -1       926 8.19301E-06-7.39198E-06 0.00000E+00
 -1       927 7.64895E-06-7.02853E-06-6.61744E-24
 -1       928 7.10565E-06-6.57506E-06 0.00000E+00
 -1       929 6.55988E-06-6.03782E-06 6.61744E-24
 -1       930 6.01398E-06-5.43252E-06 1.32349E-23
 -1       931 5.46758E-06-4.77623E-06 0.00000E+00
 -1       932 4.92109E-06-4.09173E-06 0.00000E+00
 -1       933 4.37449E-06-3.40240E-06 6.61744E-24
 -1       934 3.82789E-06-2.73215E-06 0.00000E+00
 -1       935 3.28127E-06-2.10450E-06 0.00000E+00
 -1       936 2.73468E-06-1.53818E-06 1.32349E-23
 -1       937 2.18807E-06-1.05072E-06 0.00000E+00
 -1       938 1.64149E-06-6.50704E-07 0.00000E+00
 -1       939 1.09469E-06-3.45050E-07 0.00000E+00
 -1       940 5.48001E-07-1.29997E-07 0.00000E+00
 -1       941 1.98563E-06 1.61797E-07-2.64698E-23
 -1       942 4.08007E-06 4.55561E-07-2.64698E-23
 -1       943 6.16795E-06 8.34840E-07 0.00000E+00
 -1       944 8.27620E-06 1.26000E-06-2.64698E-23
 -1       945 1.03852E-05 1.71530E-06-5.29396E-23
 -1       946 1.24982E-05 2.18736E-06 2.64698E-23
 -1       947 1.46118E-05 2.67157E-06 0.00000E+00
 -1       948 1.67260E-05 3.16424E-06 0.00000E+00
 -1       949 1.88403E-05 3.66619E-06 0.00000E+00
 -1       950 2.09541E-05 4.17889E-06 0.00000E+00
 -1       951 2.30674E-05 4.70951E-06-5.29396E-23
 -1       952 2.51775E-05 5.26658E-06 2.64698E-23
 -1       953 2.72869E-05 5.87252E-06 5.29396E-23
 -1       954 2.93796E-05 6.55352E-06 2.64698E-23
 -1       955 3.14776E-05 7.37498E-06 0.00000E+00
 -1       956 3.33707E-05 9.69321E-06-2.06795E-25
 -1       957 3.32529E-05 1.11204E-05 2.06795E-25
 -1       958 3.31347E-05 1.26817E-05 1.44757E-24
 -1       959 3.30160E-05 1.43628E-05 1.03398E-24
 -1       960 3.28971E-05 1.61493E-05 2.48154E-24
 -1       961 3.27781E-05 1.80269E-05 1.65436E-24
 -1       962 3.26589E-05 1.99810E-05-1.65436E-24
 -1       963 3.25395E-05 2.19971E-05 0.00000E+00
 -1       964 3.24201E-05 2.40607E-05 3.30872E-24
 -1       965 3.23006E-05 2.61574E-05 0.00000E+00
 -1       966 3.21811E-05 2.82726E-05 0.00000E+00
 -1       967 3.20616E-05 3.03918E-05 1.65436E-24
 -1       968 3.19422E-05 3.25005E-05 0.00000E+00
 -1       969 3.18230E-05 3.45843E-05 1.65436E-24
 -1       970 3.17041E-05 3.66287E-05-3.30872E-24
 -1       971 3.12917E-05 4.07735E-05 6.61744E-24
 -1       972 3.09866E-05 4.33625E-05 0.00000E+00
 -1       973 3.06808E-05 4.63354E-05 6.61744E-24
 -1       974 3.03725E-05 4.96392E-05 0.00000E+00
 -1       975 3.00632E-05 5.32196E-05 0.00000E+00
 -1       976 2.97528E-05 5.70217E-05 0.00000E+00
 -1       977 2.94417E-05 6.09896E-05-6.61744E-24
 -1       978 2.91301E-05 6.50669E-05 0.00000E+00
 -1       979 2.88184E-05 6.91968E-05-6.61744E-24
 -1       980 2.85067E-05 7.33223E-05 0.00000E+00
 -1       981 2.81954E-05 7.73865E-05-6.61744E-24
 -1       982 2.78848E-05 8.13327E-05 3.30872E-24
 -1       983 2.75751E-05 8.51045E-05 6.61744E-24
 -1       984 2.72680E-05 8.86462E-05 0.00000E+00
 -1       985 2.69615E-05 9.19028E-05-6.61744E-24
 -3
    1PSTEP                         2           1           1          
  100CL  101 1.000000000         841                     0    1           1
 -4  STRESS      6    1
 -5  SXX         1    4    1    1
 -5  SYY         1    4    2    2
 -5  SZZ         1    4    3    3
 -5  SXY         1    4    1    2
 -5  SYZ         1    4    2    3
 -5  SZX         1    4    3    1
 -1         1-3.85110E+06-1.22011E+06-7.74777E+05-1.12613E+06-1.26117E-10-5.09317E-09
 -1         2-2.44082E+06-9.12640E+04 4.81565E+03-2.54810E+05-1.75396E-09-3.40151E-10
 -1         3-1.27612E+06-5.09158E+05 9.11673E+03-1.07254E+05-1.66369E-09-1.60253E-09
 -1         4-5.99878E+05-1.44644E+05 8.81717E+02-6.38231E+04 1.92983E-10-4.08170E-09
 -1         5-2.62808E+05 2.89307E+05-1.67996E+05-1.64730E+04 4.16912E-09 7.47673E-09
 -1         8-2.09116E+06-8.32097E+05-3.19133E+05-8.34836E+05 3.09228E-10-1.15688E-09
 -1         9-2.30052E+06-4.88566E+05-3.04549E+05-5.28332E+05 1.55948E-09 1.34363E-09
 -1        10-1.19061E+06-7.33587E+05-3.90353E+03-2.87488E+05-4.51704E-09-4.66510E-09
 -1        11-6.68946E+05-2.22845E+05 6.17845E+02-1.63338E+05 9.59290E-10-3.03165E-11
 -1        12-3.78799E+05 2.40905E+05-1.96335E+05-7.91169E+04 4.19595E-09 3.04883E-09
 -1        15 9.36217E+03-5.06922E+04 4.77841E+03-1.83212E+05 8.29459E-10-2.92130E-09
 -1        16-1.31411E+06-2.93040E+05-5.29113E+04-5.90712E+05 1.85901E-09 2.29678E-09
 -1        17-8.34380E+05-6.14558E+05-1.09808E+05-4.60393E+05-4.96827E-09 3.65011E-09
 -1        18-3.61135E+05-2.13774E+05-1.43203E+05-2.69201E+05 3.63737E-09 3.69861E-10
 -1        19-7.63802E+04 1.34579E+05-8.57463E+04-8.64676E+04-1.68560E-09 8.00355E-11
 -1        20 1.67188E+05-1.17144E+05-1.70238E+04 8.58495E+04-5.35647E-09 3.33694E-09
 -1        21-7.70158E+03-2.52514E+05 4.29546E+04 3.29450E+03 2.36455E-08 5.54886E-09
 -1        22 4.38722E+04 2.50311E+05 1.50867E+03-4.80584E+04 2.00089E-11 2.40107E-10
 -1        23-4.46384E+05-1.25736E+04 5.15917E+03-2.52177E+05-1.06138E-09-4.12304E-10
 -1        24-2.94739E+05 8.33246E+03 2.66038E+05-5.57754E+05-4.71240E-09 2.49323E-09
 -1        25 6.99217E+05 2.86451E+05 2.35053E+05-3.71896E+05 4.13517E-10 1.50855E-09
 -1        26 1.27596E+04 3.14241E+05 2.21921E+04-6.52635E+04-1.29633E-09 2.19067E-09
 -1        27-8.18043E+04-1.05428E+05-4.61517E+04 1.05100E+05-4.05483E-09-3.31905E-09
 -1        28-2.42899E+04-1.88246E+05-1.32436E+03 8.83916E+04 3.21859E-08 4.34451E-10
 -1        29 5.71487E+05 4.03020E+05 1.64739E+03-1.86367E+04-4.59512E-10-1.40426E-09
 -1        30 2.03324E+05 5.52289E+04 2.31561E+03-6.75331E+04 1.58679E-09-5.45697E-10
 -1        31-6.82208E+05 5.70473E+04 5.13770E+03-1.45640E+05 2.37260E-09 1.30058E-09
 -1        32 8.05217E+05 5.55376E+05 6.00410E+05-5.03039E+05 4.50482E-09 4.57658E-09
 -1        33 1.45665E+06 7.70346E+05 4.91182E+05-9.05368E+04-8.83693E-09-2.18279E-10
 -1        34-3.40598E+05-6.02067E+04-3.03362E+04 4.04134E+04-3.11044E-09-3.12866E-09
 -1        35-4.83578E+04-6.08992E+04-1.23762E+03 1.28450E+05 2.80292E-08-6.98492E-10
 -1        36-5.30186E+06 1.54066E+05-3.67773E+05-2.36889E-07-4.94800E-10-2.95404E-09
 -1        37-5.45915E+06-1.78747E+05-2.58444E+05 8.09841E-08-2.82418E-09 1.80444E-09
 -1        38-5.36285E+06 2.33999E+04-9.51489E+04-5.56510E-08-1.03890E-09-5.73345E-09
 -1        39-5.38785E+06-2.71274E+04-5.91627E+04 3.16628E-07 3.39464E-10-1.72258E-08
 -1        40-5.37258E+06 3.54678E+03-2.44001E+04-6.26438E-08 1.83738E-10-4.44106E-09
 -1        41-5.37638E+06-4.15471E+03-1.44006E+04-1.67735E-07-1.41305E-09-3.55044E-09
 -1        42-5.37414E+06 5.85148E+02-7.09854E+03 3.82569E-08-1.93932E-10-7.33144E-09
 -1        43-5.37470E+06-1.02921E+03-5.56671E+03 2.27736E-08-2.48970E-09 1.07354E-09
 -1        44-5.37423E+06 4.40333E+02-5.64220E+03-2.54646E-08-7.02868E-10 2.31830E-09
 -1        45-5.37567E+06-2.87407E+03-1.02245E+04 4.81832E-08-8.59565E-10-4.97084E-09
 -1        46-5.37319E+06 2.41820E+03-1.67966E+04-3.99944E-08-3.94616E-10-9.49331E-09
 -1        47-5.38344E+06-1.84554E+04-4.03400E+04-4.28739E-08 3.30260E-10 3.69255E-09
 -1        48-5.36658E+06 1.59136E+04-6.47650E+04 9.07335E-10-2.37042E-09 3.76895E-09
 -1        49-5.43192E+06-1.21561E+05-1.75791E+05-2.63890E-09-1.53301E-10 4.08909E-09
 -1        50-5.32514E+06 1.04762E+05-2.50248E+05-1.05962E-07-2.74275E-09-4.78758E-09
 -1        51 4.53572E+04-4.88202E+05 7.68804E+04-1.39630E+06 3.49246E-10-7.77072E-09
 -1        52 2.26792E+04-4.85134E+05 4.62985E+04-1.54946E+06-2.18279E-10-9.69158E-09
 -1        53 1.57941E+04-5.04754E+05 3.53707E+04-1.39227E+06-1.74623E-10-2.42289E-08
 -1        54 3.47547E+04-5.03131E+05 5.18324E+04-1.55355E+06 3.92902E-10-2.46509E-08
 -1        55 7.10613E+04-5.21127E+05 9.17376E+04-1.39138E+06 1.30967E-10-7.33417E-09
 -1        56-5.78869E+06-6.53478E+05-4.65780E+05-2.23360E+06 1.33150E-09-4.51109E-09
 -1        57-5.98338E+06-1.05813E+06-3.12683E+05-2.20666E+06-9.02219E-10 8.50196E-09
 -1        58-5.88190E+06-7.98048E+05-1.09534E+05-2.20475E+06 1.45337E-09-9.08040E-09
 -1        59-5.87619E+06-8.86989E+05-6.49457E+04-2.24018E+06-1.73441E-09-1.23800E-08
 -1        60-5.89434E+06-8.18735E+05-2.55655E+04-2.20198E+06 2.33467E-09-1.11686E-09
 -1        61-5.86528E+06-8.58994E+05-1.44564E+04-2.23902E+06-1.40403E-09 1.65013E-08
 -1        62-5.89239E+06-8.25358E+05-7.11600E+03-2.20602E+06-1.48475E-09 7.69626E-09
 -1        63-5.87319E+06-8.46133E+05-5.93662E+03-2.22774E+06-6.43922E-10-1.83161E-09
 -1        64-5.88621E+06-8.31624E+05-7.11483E+03-2.21316E+06 1.41836E-09 3.30010E-09
 -1        65-5.88810E+06-8.35795E+05-1.43199E+04-2.21230E+06 7.42375E-10-8.70523E-09
 -1        66-5.87747E+06-8.35815E+05-2.54443E+04-2.22141E+06 2.17830E-09 3.07045E-09
 -1        67-5.91576E+06-8.46777E+05-6.44374E+04-2.19431E+06-2.64583E-09 1.95269E-09
 -1        68-5.85899E+06-8.21315E+05-1.08768E+05-2.23104E+06-9.24047E-10 7.23230E-09
 -1        69-6.02847E+06-1.01073E+06-3.10421E+05-2.15458E+06 2.33194E-09-2.46291E-09
 -1        70-5.76652E+06-6.77539E+05-4.62373E+05-2.25941E+06-2.19734E-09-2.79397E-09
 -1        71-2.53065E+06-1.06435E+03 2.54539E+03-4.94624E-09-4.84778E-10 2.44279E-09
 -1        72-2.52933E+06 1.23509E+03 1.78083E+03-2.22256E-07 6.30588E-10 1.07897E-08
 -1        73-2.53023E+06-1.61427E+02 6.43450E+02-1.86936E-07-5.31234E-10-2.66886E-09
 -1        74-2.52983E+06 1.85243E+02 3.75958E+02-1.52881E-08-1.31644E-10-5.91656E-09
 -1        75-2.53016E+06-2.25279E+01 1.03549E+02-1.21289E-08-1.37559E-10 5.99422E-09
 -1        76-2.52992E+06 1.30737E+01-3.99417E+01 6.82559E-08 9.30007E-10 1.75677E-09
 -1        77-2.53014E+06 9.61047E+00-2.14923E+02-1.80943E-07-9.81122E-10-1.70346E-10
 -1        78-2.52998E+06-9.89338E+01-5.38292E+02-4.63829E-09 2.37114E-10-3.34583E-09
 -1        79-2.53009E+06 8.89656E+01-1.01717E+03 1.29686E-08-1.99368E-10 7.33263E-09
 -1        80-2.53031E+06-6.88732E+02-2.33782E+03-7.89952E-08 6.11161E-10 6.84119E-09
 -1        81-2.52982E+06 5.95898E+02-4.08060E+03-1.83524E-09 3.86441E-10-5.29781E-10
 -1        82-2.53224E+06-4.56689E+03-9.96731E+03-2.68964E-08-2.74032E-10-9.06425E-09
 -1        83-2.52817E+06 3.94003E+03-1.60592E+04-1.25488E-07-5.54534E-12-2.04000E-09
 -1        84-2.54424E+06-3.01015E+04-4.35778E+04-1.46687E-07 7.21268E-11 2.15960E-09
 -1        85-2.51788E+06 2.59367E+04-6.20765E+04 7.03957E-08-4.52277E-10 4.56203E-09
 -1        86-1.24360E+05 7.01916E+05 3.03464E+05 1.80994E+03 1.12050E-09 4.06271E-09
 -1        87 1.55536E+05 8.35956E+05 2.33639E+05-1.07145E+04 6.25732E-10 5.34584E-09
 -1        88-3.00059E+04 7.45978E+05 1.21047E+05-3.69599E+02 1.50249E-09-8.61860E-10
 -1        89 1.08405E+05 8.13634E+05 1.70927E+05-6.64932E+03 2.12913E-09 8.77827E-09
 -1        90-7.75851E+04 7.24150E+05 1.94700E+05-2.25258E+03 2.04454E-09-1.52193E-09
 -1        91-2.68610E+06-3.39899E+05-4.36971E+04-9.79900E+05-2.74667E-09 4.43288E-09
 -1        92-2.58365E+06-4.63962E+05-2.42546E+04-1.07694E+06-1.20199E-08 1.62299E-09
 -1        93-2.71358E+06-3.20581E+05-9.85570E+03-9.38491E+05-7.65499E-09 8.96307E-10
 -1        94-2.55636E+06-4.80739E+05-5.15858E+03-1.12196E+06 1.14184E-10-6.45707E-09
 -1        95-2.71542E+06-3.21299E+05-2.47093E+03-9.36506E+05-1.57411E-08 4.18669E-09
 -1        96-2.57056E+06-4.50341E+05 1.49615E+03-1.08581E+06-4.42014E-09-5.34101E-10
 -1        97-2.69752E+06-3.52503E+05-3.81348E+03-9.73216E+05 2.54113E-09 3.10138E-09
 -1        98-2.62768E+06-3.77775E+05 4.67610E+03-9.97631E+05-1.18052E-08-1.10722E-08
 -1        99-2.65609E+06-3.95662E+05-4.74246E+03-1.02292E+06-5.58794E-09 7.81529E-09
 -1       100-2.71490E+06-3.03101E+05 5.77645E+02-9.15080E+05 3.73802E-10 3.05454E-09
 -1       101-2.61197E+06-4.25789E+05-5.82837E+03-1.05705E+06-1.64246E-08 3.81760E-09
 -1       102-2.77148E+06-2.71804E+05-1.30286E+04-8.77318E+05-3.04094E-08-2.03772E-09
 -1       103-2.60187E+06-4.25108E+05-2.23504E+04-1.06258E+06-7.74344E-09-2.45655E-09
 -1       104-2.76249E+06-3.30781E+05-6.27912E+04-8.90719E+05 8.74843E-09 7.99537E-09
 -1       105-2.61968E+06-3.68254E+05-9.81054E+04-1.04242E+06 1.78625E-09 3.05590E-10
 -1       106-1.27158E+06-2.11020E+04 5.05550E+04-2.10076E-07-1.16654E-09 1.87356E-09
 -1       107-1.24983E+06 2.44934E+04 3.54747E+04-2.40431E-07-1.10565E-10 2.71575E-09
 -1       108-1.26319E+06-3.20563E+03 1.30728E+04-2.15614E-07-7.83396E-11-5.08317E-09
 -1       109-1.25958E+06 3.71456E+03 8.09698E+03 5.29245E-08-5.71319E-11-9.26912E-09
 -1       110-1.26185E+06-4.83532E+02 3.28166E+03-2.01483E-07-1.79526E-10 2.11821E-09
 -1       111-1.26116E+06 5.49795E+02 1.81051E+03-7.07816E-08 3.89150E-10 5.20882E-09
 -1       112-1.26162E+06-6.31117E+01 6.49562E+02-9.03569E-08 2.32157E-10 5.85720E-09
 -1       113-1.26146E+06 8.42729E+00 4.59682E+01 1.98089E-07-6.23936E-10 5.35793E-09
 -1       114-1.26155E+06 5.47163E+01-5.44333E+02-2.23920E-09 4.70018E-10 1.95342E-09
 -1       115-1.26174E+06-4.92243E+02-1.60757E+03 9.61217E-08-3.90676E-11-2.58962E-09
 -1       116-1.26134E+06 4.34696E+02-2.94222E+03 3.89706E-08-5.81376E-10-3.56818E-09
 -1       117-1.26317E+06-3.34137E+03-7.27895E+03 1.42934E-07-7.61871E-11 1.73941E-09
 -1       118-1.26013E+06 2.88392E+03-1.17570E+04 3.64916E-08-7.74246E-10 3.87263E-09
 -1       119-1.27194E+06-2.20346E+04-3.19115E+04 1.66180E-07-2.23022E-10 7.50515E-09
 -1       120-1.25259E+06 1.89857E+04-4.54608E+04-9.77110E-08-3.44793E-10 9.33142E-10
 -1       121 1.45972E+03-1.88896E+06-5.28654E+03 1.58433E+04-1.41199E-10 2.56841E-09
 -1       122-1.87237E+03-1.89058E+06-3.27443E+03 9.10347E+04-4.67935E-10-4.44311E-09
 -1       123 3.00687E+01-1.88978E+06-1.03644E+03 1.64559E+04-1.04990E-09-1.25419E-09
 -1       124 5.46549E+01-1.88878E+06 2.46076E+02 8.89334E+04-2.12594E-09-3.43744E-09
 -1       125-6.86601E+02-1.89004E+06 1.03911E+03 1.79432E+04-3.98450E-09-1.72076E-09
 -1       126-1.32402E+06-1.95910E+05 2.76783E+04-4.90808E+05-7.38055E-10-7.69614E-09
 -1       127-1.30581E+06-1.74801E+05 1.90788E+04-4.99551E+05-1.10538E-09 1.93791E-09
 -1       128-1.31899E+06-1.85619E+05 6.48184E+03-4.91959E+05 5.28871E-10 5.72868E-09
 -1       129-1.31165E+06-1.86757E+05 3.99014E+03-4.98242E+05-1.22591E-09 2.91800E-09
 -1       130-1.31821E+06-1.84024E+05 1.46941E+03-4.92099E+05-1.24351E-09 1.99265E-09
 -1       131-1.31295E+06-1.88214E+05 7.84680E+02-4.97615E+05-5.35966E-10 1.39039E-09
 -1       132-1.31768E+06-1.84174E+05 1.97479E+02-4.92582E+05-1.36065E-09-2.30236E-09
 -1       133-1.31430E+06-1.87392E+05-1.50510E+02-4.96226E+05-9.31436E-10-4.22727E-09
 -1       134-1.31686E+06-1.84851E+05-5.62138E+02-4.93485E+05 1.36197E-09 5.08948E-09
 -1       135-1.31632E+06-1.86210E+05-1.52985E+03-4.94182E+05-7.46866E-10 7.87736E-10
 -1       136-1.31566E+06-1.85361E+05-2.75572E+03-4.94623E+05-1.27274E-09 4.92491E-10
 -1       137-1.31999E+06-1.87634E+05-7.36187E+03-4.91617E+05 8.58961E-10 4.74995E-09
 -1       138-1.31320E+06-1.83444E+05-1.19534E+04-4.96047E+05 4.36785E-10 2.60115E-10
 -1       139-1.33329E+06-2.07091E+05-3.51348E+04-4.86271E+05 3.41470E-09-7.93079E-10
 -1       140-1.30240E+06-1.66032E+05-5.09769E+04-4.99933E+05 2.81943E-11 7.23958E-10
 -1       141-4.98136E+05-9.45305E+03 2.26449E+04-2.96503E-08 5.26282E-10-2.88674E-09
 -1       142-4.88395E+05 1.09715E+04 1.58840E+04 7.28766E-08 1.98611E-10-1.40085E-09
 -1       143-4.94376E+05-1.43558E+03 5.83452E+03 8.90902E-08 9.46685E-11 1.55114E-09
 -1       144-4.92767E+05 1.66046E+03 3.57594E+03-7.59070E-08 3.08897E-10-3.48791E-10
 -1       145-4.93769E+05-2.13490E+02 1.36781E+03 1.73181E-08-8.86463E-11-2.29539E-09
 -1       146-4.93491E+05 2.21758E+02 5.91339E+02-4.19568E-08-7.67749E-11-1.10219E-09
 -1       147-4.93653E+05-6.85904E+00-1.25182E+02 8.24677E-08 3.04601E-10-5.59197E-09
 -1       148-4.93714E+05-1.62528E+02-8.88035E+02 1.60743E-07-1.31727E-09 2.29863E-09
 -1       149-4.93546E+05 1.68801E+02-1.90750E+03 6.86010E-08 1.97996E-10 1.48907E-09
 -1       150-4.94355E+05-1.33172E+03-4.50996E+03-2.06012E-07-4.43878E-10-3.65867E-09
 -1       151-4.93014E+05 1.15543E+03-7.92067E+03-2.89627E-08 9.11397E-11 2.14459E-09
 -1       152-4.98106E+05-8.85850E+03-1.93629E+04 8.27915E-08-9.99337E-11 7.78755E-10
 -1       153-4.89800E+05 7.64304E+03-3.12036E+04 1.73019E-07 1.33008E-09 3.13230E-09
 -1       154-5.21353E+05-5.83924E+04-8.46050E+04 1.44109E-09 8.22413E-10-9.63155E-10
 -1       155-4.69768E+05 5.03153E+04-1.20469E+05-2.30762E-08 2.52527E-09 2.33558E-09
 -1       156-1.31034E+04-4.10774E+05 3.26762E+04-2.21321E+03 1.27329E-11 2.02998E-09
 -1       157 1.79140E+04-3.95872E+05 2.79870E+04 1.11818E+04-1.47338E-10 2.77031E-09
 -1       158-4.67974E+03-4.06912E+05 1.88706E+04-2.03852E+03 1.30262E-09-3.02776E-09
 -1       159 2.32545E+04-3.93265E+05 3.51063E+04 1.05405E+04 2.05182E-09 6.66236E-09
 -1       160-1.84163E+04-4.13359E+05 4.49655E+04-1.57178E+03 4.46926E-09 8.81982E-10
 -1       161-7.20241E+05-9.85623E+04-6.20608E+03-2.70640E+05-1.43484E-09-2.03022E-09
 -1       162-7.21619E+05-1.05875E+05-4.28385E+03-2.71623E+05-2.83777E-10 8.04636E-09
 -1       163-7.21575E+05-1.00654E+05-1.47512E+03-2.70139E+05-3.56806E-10 3.14799E-10
 -1       164-7.20109E+05-1.03415E+05-9.43824E+02-2.72162E+05 4.19902E-10-3.81988E-09
 -1       165-7.21747E+05-1.01006E+05-4.27742E+02-2.70107E+05-7.50553E-10 4.89063E-09
 -1       166-7.20044E+05-1.02915E+05-3.99776E+02-2.72060E+05 9.55026E-10 4.34965E-09
 -1       167-7.21640E+05-1.01152E+05-4.76703E+02-2.70241E+05 3.88191E-10-1.90765E-09
 -1       168-7.20459E+05-1.02736E+05-9.85307E+02-2.71671E+05 1.15297E-09-8.50115E-09
 -1       169-7.21331E+05-1.01186E+05-1.76444E+03-2.70495E+05 4.74358E-11 1.89857E-10
 -1       170-7.21734E+05-1.03603E+05-4.34886E+03-2.70938E+05 8.02430E-10-2.34957E-09
 -1       171-7.20367E+05-1.00293E+05-7.60533E+03-2.70972E+05-5.48653E-10-2.02090E-09
 -1       172-7.27438E+05-1.11799E+05-2.02566E+04-2.68816E+05 1.15961E-09-4.98017E-09
 -1       173-7.15641E+05-9.30414E+04-3.28162E+04-2.72601E+05 1.34105E-09 1.09503E-09
 -1       174-7.60740E+05-1.68288E+05-9.64274E+04-2.57682E+05 2.69665E-10 3.79805E-09
 -1       175-6.87127E+05-4.41509E+04-1.39830E+05-2.81981E+05-1.38243E-09-1.55705E-09
 -1       191 4.05104E+03 9.29058E+05 6.97284E+03-3.08062E+04-1.56433E-10-4.51109E-10
 -1       192 1.39373E+03 9.30160E+05 4.19768E+03-3.33747E+04 1.10276E-10-4.93310E-09
 -1       193 5.66696E+02 9.29371E+05 3.38365E+03-3.03660E+04-4.46562E-10-3.60160E-09
 -1       194 1.91342E+03 9.30255E+05 5.13564E+03-3.41800E+04 3.03771E-10 3.87081E-09
 -1       195 5.64521E+03 9.28742E+05 9.30291E+03-2.99887E+04-1.05501E-09 4.36921E-09
 -1       251-2.92390E+06 5.99378E+04-1.43729E+05-2.30605E+04 1.51658E-10 6.33008E-10
 -1       252-2.98451E+06-6.94546E+04-1.00748E+05 3.07948E+04 4.50939E-10-1.57888E-09
 -1       253-2.94845E+06 8.98918E+03-3.74010E+04-1.27418E+04 7.09406E-11 4.06908E-09
 -1       254-2.95555E+06-1.05088E+04-2.28036E+04 4.96122E+03-5.96174E-10 3.47791E-09
 -1       255-2.95250E+06 1.25902E+03-9.84160E+03 2.77237E+03-3.43107E-10 3.33330E-09
 -1       256-2.95159E+06-1.53419E+03-5.48025E+03-2.39131E+04 3.12866E-10-7.75401E-10
 -1       257-2.95248E+06 1.56845E+02-3.08001E+03 1.61320E+04-7.91374E-10-5.27609E-09
 -1       258-2.95228E+06-2.54348E+02-2.58510E+03-4.20618E+04-9.01991E-10-1.18787E-08
 -1       259-2.95206E+06 1.87204E+02-3.04879E+03 2.09221E+04-2.21745E-09-3.58546E-09
 -1       260-2.95281E+06-1.47183E+03-5.86474E+03-4.07780E+04 8.37247E-10-8.50514E-09
 -1       261-2.95194E+06 1.34879E+03-1.00670E+04 1.48480E+04 2.91334E-09 6.48924E-10
 -1       262-2.95610E+06-1.08963E+04-2.37395E+04-2.06649E+04-6.40398E-10 1.06847E-08
 -1       263-2.94854E+06 9.34042E+03-3.88790E+04 8.08056E+02 2.53294E-10 1.93177E-09
 -1       264-2.98466E+06-7.22571E+04-1.04424E+05 8.75384E+03-2.80124E-09 6.35373E-09
 -1       265-2.92346E+06 6.22036E+04-1.49364E+05-1.45693E+04-3.46449E-09 1.34605E-09
 -1       266-3.22280E+04-4.91908E+05 7.36732E+04 2.11822E+04-3.63798E-12-5.04224E-09
 -1       267 3.60275E+04-4.57098E+05 4.83980E+04-9.09617E+04 9.18590E-11-1.58883E-09
 -1       268-2.84892E+03-4.75728E+05 1.01996E+04 2.38626E+04-3.27418E-11-1.02955E-09
 -1       269-1.02011E+04-4.81279E+05-1.35880E+04-9.31373E+04-5.45697E-11 8.57108E-09
 -1       270 1.39771E+04-4.68218E+05-3.25225E+04 2.33622E+04 2.65572E-10 5.35783E-09
 -1       271-5.43100E+06-6.70922E+05-4.29405E+05-2.11346E+06 3.12866E-10-2.76486E-09
 -1       272-5.59611E+06-9.75413E+05-2.76447E+05-2.09831E+06-6.71662E-10-6.62840E-09
 -1       273-5.51371E+06-7.76536E+05-1.01314E+05-2.09199E+06-5.13410E-10-3.92902E-10
 -1       274-5.49778E+06-8.47164E+05-5.68004E+04-2.13144E+06-3.91537E-10 1.05501E-09
 -1       275-5.52739E+06-7.85121E+05-2.36141E+04-2.08573E+06 1.22964E-09 2.13913E-09
 -1       276-5.48075E+06-8.37818E+05-1.27014E+04-2.14148E+06-1.25328E-09-2.31739E-09
 -1       277-5.53102E+06-7.84077E+05-6.50002E+03-2.08286E+06-1.38698E-09 3.87581E-09
 -1       278-5.47699E+06-8.38959E+05-5.30375E+03-2.14505E+06 2.81045E-09 1.06892E-08
 -1       279-5.53142E+06-7.83661E+05-6.47661E+03-2.08241E+06-8.15703E-10-6.00357E-09
 -1       280-5.47939E+06-8.39311E+05-1.26810E+04-2.14333E+06-1.27079E-09-3.71801E-09
 -1       281-5.52852E+06-7.83934E+05-2.35156E+04-2.08445E+06 2.50111E-11 4.76939E-09
 -1       282-5.49515E+06-8.49947E+05-5.66614E+04-2.13489E+06-5.50472E-10 9.45874E-11
 -1       283-5.51549E+06-7.74767E+05-1.00993E+05-2.09002E+06 1.02636E-09-5.55883E-09
 -1       284-5.59212E+06-9.78896E+05-2.75689E+05-2.10302E+06 9.37689E-10 2.83399E-09
 -1       285-5.43344E+06-6.69020E+05-4.28176E+05-2.11093E+06 1.33150E-09 4.01633E-09
 -1       286-9.94132E+05-1.05821E+04 2.49562E+04-2.84984E+03 2.64663E-09-6.27369E-09
 -1       287-9.81530E+05 1.21858E+04 1.78502E+04-6.55427E+03 4.91355E-10-5.64796E-09
 -1       288-9.89883E+05-1.64373E+03 6.40173E+03 1.16340E+03 7.60338E-10-4.60659E-10
 -1       289-9.86751E+05 1.85311E+03 4.22755E+03-1.39372E+04 1.45269E-09 6.37647E-09
 -1       290-9.88998E+05-2.73157E+02 1.67562E+03 4.53281E+03 1.51442E-09 5.12568E-09
 -1       291-9.88056E+05 3.48396E+02 1.19087E+03-1.94495E+04 2.76015E-09 1.65903E-09
 -1       292-9.88687E+05-7.24432E+01 7.43181E+02 6.67571E+03 2.53459E-09-1.57090E-09
 -1       293-9.88456E+05 2.62417E+02 9.73502E+02-2.21460E+04 7.70683E-10-1.03817E-10
 -1       294-9.88665E+05-1.38984E+02 1.45891E+03 7.22953E+03 3.01056E-09-2.70006E-11
 -1       295-9.87980E+05 9.87586E+02 3.15435E+03-2.15703E+04 2.40263E-09-4.08869E-09
 -1       296-9.89145E+05-8.04264E+02 5.36344E+03 6.09999E+03 9.59176E-10 2.44654E-09
 -1       297-9.85003E+05 6.02446E+03 1.31922E+04-1.78227E+04 1.06093E-09 2.13959E-10
 -1       298-9.91547E+05-5.20414E+03 2.10047E+04 3.48176E+03-2.75918E-10-2.22190E-09
 -1       299-9.68760E+05 3.94856E+04 5.73502E+04-1.15848E+04-7.09576E-10-1.82717E-09
 -1       300-1.00524E+06-3.40816E+04 8.13180E+04-1.38243E+02-1.20508E-11 1.45519E-10
 -1       301 7.35305E+04 9.38873E+04 1.50225E+05-3.35254E+04-5.16593E-10-3.24036E-09
 -1       302 2.47788E+04 1.21147E+05 8.83465E+04-3.91171E+04 5.25506E-09 4.83753E-09
 -1       303 7.16905E+03 1.03798E+05 6.56475E+04-3.37925E+04-9.20863E-11-2.62912E-09
 -1       304 2.60131E+04 1.21820E+05 9.14636E+04-3.90789E+04 6.34554E-09-7.43830E-09
 -1       305 7.75702E+04 9.32302E+04 1.57831E+05-3.35511E+04 4.43833E-10 4.60955E-09
 -1       306-4.18119E+06-5.21748E+05-3.09063E+05-1.62339E+06 3.23416E-09 3.05590E-09
 -1       307-4.28508E+06-7.54491E+05-1.98762E+05-1.62863E+06-5.06361E-10 4.50018E-09
 -1       308-4.24119E+06-5.96968E+05-7.29859E+04-1.60742E+06 7.38964E-10 6.92671E-09
 -1       309-4.21400E+06-6.63106E+05-4.08700E+04-1.65357E+06-2.69210E-09 3.80078E-09
 -1       310-4.25132E+06-6.02791E+05-1.70495E+04-1.60263E+06-2.00271E-09-4.25825E-09
 -1       311-4.20163E+06-6.56715E+05-9.18541E+03-1.66136E+06-5.05861E-09-9.48489E-09
 -1       312-4.25404E+06-6.01912E+05-4.77677E+03-1.60047E+06-3.81988E-11-2.03818E-09
 -1       313-4.19898E+06-6.57585E+05-4.02076E+03-1.66404E+06-3.31215E-09-3.07068E-09
 -1       314-4.25427E+06-6.01637E+05-5.06821E+03-1.60019E+06-7.37373E-10-9.73159E-11
 -1       315-4.20094E+06-6.57794E+05-1.00449E+04-1.66253E+06-4.03566E-09-2.97791E-09
 -1       316-4.25193E+06-6.01904E+05-1.87116E+04-1.60183E+06-1.89357E-09 2.37378E-10
 -1       317-4.21336E+06-6.66212E+05-4.50456E+04-1.65565E+06-1.07025E-09-1.38152E-09
 -1       318-4.24151E+06-5.94706E+05-8.03670E+04-1.60627E+06-1.02079E-09 1.38243E-10
 -1       319-4.29023E+06-7.68478E+05-2.19074E+05-1.62999E+06-1.05683E-09 7.69069E-09
 -1       320-4.17616E+06-5.10971E+05-3.40482E+05-1.62297E+06-1.82990E-09 7.53789E-09
 -1       321-8.14651E+05-4.11830E+04 9.86060E+04-1.37514E+03-2.58217E-09 2.60479E-09
 -1       322-7.71919E+05 4.77744E+04 6.92750E+04-3.88344E+03-3.39196E-09 1.07684E-09
 -1       323-7.98277E+05-6.26495E+03 2.55049E+04 2.05121E+02-8.17067E-10-4.22551E-09
 -1       324-7.91034E+05 7.24222E+03 1.58909E+04-6.84058E+03 8.22524E-10-3.19233E-09
 -1       325-7.95602E+05-9.52085E+02 6.48934E+03 1.58263E+03 3.61240E-10-2.12276E-09
 -1       326-7.94224E+05 1.09859E+03 3.76659E+03-9.15373E+03-8.32244E-10 3.17920E-09
 -1       327-7.95120E+05-1.46553E+02 1.66897E+03 2.51828E+03-8.89486E-10 3.95823E-09
 -1       328-7.94815E+05 1.89466E+02 9.77952E+02-1.04529E+04-8.94360E-11 5.39991E-09
 -1       329-7.95030E+05-3.52833E+01 5.58035E+02 2.88184E+03-4.65441E-11 3.29588E-09
 -1       330-7.94865E+05 1.34628E+02 5.54844E+02-1.05574E+04-6.32980E-10 1.90393E-09
 -1       331-7.95073E+05-9.06456E+01 6.83865E+02 2.62276E+03-2.41300E-11-1.36890E-09
 -1       332-7.94524E+05 6.61586E+02 1.49486E+03-9.45252E+03 5.25773E-10-2.84933E-09
 -1       333-7.95354E+05-5.69843E+02 2.30843E+03 1.77692E+03 3.90287E-10-3.21859E-09
 -1       334-7.92687E+05 4.30568E+03 6.28124E+03-7.29070E+03 7.15090E-11 2.16789E-09
 -1       335-7.96882E+05-3.72475E+03 8.85129E+03 4.60909E+02-9.58380E-10-4.91764E-09
 -1       336 1.03236E+02-1.89979E+06-3.97591E+03-1.33968E+04-6.01995E-09 8.47649E-10
 -1       337-2.45335E+03-1.90234E+06-1.21946E+04-1.06121E+05-8.89037E-09-6.14727E-09
 -1       338 2.86980E+03-1.89800E+06-2.29844E+04-1.25386E+04-6.97946E-09-6.46833E-09
 -1       339-3.06807E+04-1.91845E+06-5.89192E+04-1.06753E+05-1.01363E-08-5.63375E-10
 -1       340 2.48393E+04-1.88399E+06-9.05181E+04-1.27746E+04-5.93354E-09 3.06954E-09
 -1       341-2.54225E+06-3.43924E+05-8.75487E+04-9.93141E+05 4.24552E-09-1.26602E-09
 -1       342-2.64083E+06-3.63467E+05-5.95699E+04-9.13110E+05 9.23501E-09-2.73940E-09
 -1       343-2.54820E+06-3.83649E+05-2.04080E+04-9.97818E+05-7.13862E-09-6.09725E-09
 -1       344-2.62718E+06-3.22646E+05-1.24975E+04-9.13802E+05-3.66808E-09 2.47928E-09
 -1       345-2.55597E+06-3.84384E+05-5.09922E+03-9.92644E+05 4.05589E-09 1.18689E-10
 -1       346-2.60078E+06-3.36818E+05-2.24403E+03-9.35761E+05 4.39286E-09 6.71332E-09
 -1       347-2.57401E+06-3.69850E+05-2.56586E+03-9.75438E+05 1.81444E-10 1.38311E-09
 -1       348-2.56466E+06-3.70535E+05-1.19254E+03-9.74306E+05-6.21071E-09-4.73830E-09
 -1       349-2.59183E+06-3.50855E+05-4.03479E+03-9.53907E+05 3.63661E-09 1.08318E-09
 -1       350-2.53915E+06-4.03299E+05-7.63126E+03-1.00994E+06-1.02193E-09 4.65729E-09
 -1       351-2.60006E+06-3.36715E+05-1.41060E+04-9.40204E+05-1.64996E-08 2.22099E-09
 -1       352-2.54082E+06-4.29464E+05-3.73341E+04-1.01938E+06-2.34966E-08-7.31006E-09
 -1       353-2.59055E+06-3.24548E+05-6.07801E+04-9.44690E+05-1.37534E-08-6.69388E-09
 -1       354-2.61438E+06-5.18870E+05-1.77683E+05-9.80473E+05-6.94126E-09 1.33878E-09
 -1       355-2.52628E+06-2.48315E+05-2.59373E+05-9.78586E+05-5.99175E-09-1.81899E-09
 -1       356-6.77365E+05-8.21347E+03 1.96439E+04-2.93417E+02 6.57792E-10-7.96899E-09
 -1       357-6.68761E+05 9.52362E+03 1.37994E+04-3.05189E+03-1.64209E-09-1.87538E-09
 -1       358-6.74089E+05-1.24882E+03 5.04931E+03 4.18538E+02-1.14710E-10 1.97201E-09
 -1       359-6.72592E+05 1.43859E+03 3.09657E+03-4.31897E+03 5.17261E-10-2.58615E-09
 -1       360-6.73547E+05-1.85430E+02 1.15288E+03 9.73738E+02-5.10795E-10-4.54907E-09
 -1       361-6.73259E+05 1.85861E+02 4.50747E+02-5.20448E+03-2.04324E-10 2.09880E-10
 -1       362-6.73431E+05 1.69626E-01-2.33136E+02 1.30406E+03-9.29376E-10-2.48195E-09
 -1       363-6.73498E+05-1.88316E+02-1.04100E+03-5.60072E+03-4.75035E-10 7.60167E-10
 -1       364-6.73313E+05 1.89416E+02-2.15068E+03 1.36999E+03 6.36561E-10 2.55693E-09
 -1       365-6.74201E+05-1.48547E+03-5.04155E+03-5.46109E+03-1.09922E-09-9.22148E-09
 -1       366-6.72728E+05 1.28872E+03-8.84259E+03 1.16442E+03-2.28397E-10-2.18733E-09
 -1       367-6.78358E+05-9.88433E+03-2.15972E+04-4.79892E+03 1.96493E-10-3.45608E-09
 -1       368-6.69158E+05 8.52568E+03-3.48156E+04 7.07806E+02 9.81458E-10-4.32919E-10
 -1       369-7.04260E+05-6.51507E+04-9.43770E+04-3.65949E+03-5.25802E-10 4.86762E-09
 -1       370-6.46826E+05 5.61333E+04-1.34405E+05 2.53392E+01 3.41288E-09 2.72848E-09
 -1       371-1.94315E+04-3.73399E+05 4.47590E+04 1.23240E+04 1.21581E-08 5.68639E-09
 -1       372 1.99455E+04-3.54427E+05 2.62969E+04-5.88239E+04 1.76383E-08-2.71760E-09
 -1       373-1.86782E+02-3.63845E+05 6.42038E+02 1.29678E+04 1.68357E-08 3.41714E-10
 -1       374-1.78980E+04-3.71980E+05-2.39680E+04-5.85792E+04 1.70344E-08 3.72060E-09
 -1       375 1.80913E+04-3.55816E+05-4.24535E+04 1.20788E+04 9.93168E-09-3.95858E-10
 -1       376-1.40221E+06-1.75592E+05-6.07103E+04-5.37949E+05-3.33694E-09 2.01908E-09
 -1       377-1.43404E+06-2.29379E+05-4.18432E+04-5.27261E+05 6.30052E-10-1.33150E-09
 -1       378-1.41546E+06-1.95914E+05-1.42656E+04-5.32850E+05 3.01270E-10-4.21096E-10
 -1       379-1.41799E+06-2.06480E+05-8.83554E+03-5.33942E+05-3.78748E-10 1.75737E-09
 -1       380-1.41821E+06-1.98334E+05-3.41229E+03-5.31315E+05 3.39497E-10 7.78869E-10
 -1       381-1.41453E+06-2.04002E+05-2.14162E+03-5.36058E+05-6.18179E-10-8.61829E-09
 -1       382-1.41892E+06-1.98367E+05-1.25904E+03-5.30742E+05-5.55680E-11-2.64421E-09
 -1       383-1.41403E+06-2.04002E+05-1.60023E+03-5.36488E+05-6.75765E-10 6.49720E-11
 -1       384-1.41872E+06-1.98330E+05-2.37507E+03-5.30887E+05-9.37803E-10-4.58624E-09
 -1       385-1.41573E+06-2.04866E+05-5.56409E+03-5.35391E+05-1.11160E-09-8.72365E-09
 -1       386-1.41722E+06-1.97514E+05-9.63189E+03-5.31835E+05-3.45949E-10-1.45337E-09
 -1       387-1.42381E+06-2.14304E+05-2.55813E+04-5.31671E+05 1.92824E-09 2.08820E-09
 -1       388-1.41066E+06-1.88961E+05-4.14348E+04-5.34588E+05 1.41426E-09 4.41469E-09
 -1       389-1.46717E+06-2.84375E+05-1.21767E+05-5.16135E+05-1.45519E-10 1.54250E-09
 -1       390-1.37397E+06-1.27885E+05-1.76569E+05-5.47230E+05-1.69166E-09-9.33505E-09
 -1       406 4.74563E+03 9.10082E+05 8.86272E+03-1.19476E+05-8.29459E-10 1.60981E-09
 -1       407 2.42376E+03 9.11533E+05 8.18250E+03-1.32427E+05 7.53062E-10 1.56706E-09
 -1       408 2.64339E+03 9.10033E+05 1.13180E+04-1.19151E+05-1.48793E-09 3.87263E-09
 -1       409 1.00408E+04 9.14182E+05 2.29442E+04-1.32797E+05 6.12999E-10 1.24273E-08
 -1       410 2.88492E+04 9.07012E+05 4.54700E+04-1.19053E+05-1.62254E-09 9.47148E-09
 -1       466 2.38404E+06-9.25909E+04 2.20512E+05 3.31671E+04 3.11502E-10-1.07684E-09
 -1       467 2.48808E+06 1.06783E+05 1.56380E+05-7.08629E+04-9.36780E-10 2.32831E-10
 -1       468 2.42379E+06-1.39915E+04 5.72900E+04 1.33572E+04-2.45564E-10-1.61890E-09
 -1       469 2.44106E+06 1.61070E+04 3.60062E+04-4.13544E+04-2.01044E-09-2.35559E-09
 -1       470 2.43041E+06-2.11166E+03 1.49438E+04 3.66054E+03 7.95353E-10 4.81214E-09
 -1       471 2.43319E+06 2.53716E+03 9.17382E+03-2.73070E+04 1.81836E-09 4.15855E-09
 -1       472 2.43150E+06-3.80352E+02 5.09167E+03-6.90524E+02-1.44439E-10 6.00721E-10
 -1       473 2.43211E+06 9.69911E+02 5.06942E+03-2.19580E+04 6.78142E-11-2.43251E-09
 -1       474 2.43144E+06-5.21193E+02 6.51623E+03-1.68853E+03-8.14481E-10 7.11680E-11
 -1       475 2.43367E+06 3.81022E+03 1.32043E+04-2.28655E+04 1.14494E-09-4.16549E-10
 -1       476 2.42994E+06-3.20788E+03 2.23619E+04 2.17098E+02 2.05978E-09 3.09410E-09
 -1       477 2.44441E+06 2.45947E+04 5.41024E+04-3.04536E+04 9.69351E-10 1.72713E-09
 -1       478 2.42071E+06-2.12093E+04 8.68540E+04 5.89967E+03-3.27077E-10-3.11775E-09
 -1       479 2.51056E+06 1.62014E+05 2.35514E+05-4.85042E+04 5.34214E-10-1.04519E-08
 -1       480 2.36395E+06-1.39731E+05 3.34905E+05 1.82629E+04 1.42836E-09-1.14960E-09
 -1       481-1.96098E+04 4.44725E+05 4.66169E+04-1.19718E+04-4.00178E-11 2.59206E-11
 -1       482 2.32100E+04 4.69686E+05 3.51644E+04 4.12432E+04-4.51109E-10 1.04693E-08
 -1       483-3.84676E+03 4.53172E+05 1.55156E+04-9.34664E+03-3.45608E-11 6.83349E-09
 -1       484 1.03524E+04 4.61616E+05 1.76358E+04 3.73582E+04 1.43245E-11-1.21099E-09
 -1       485-6.59022E+03 4.52423E+05 1.72563E+04-8.08445E+03 3.26963E-10-1.06502E-09
 -1       486-2.21120E+06-2.73078E+05-2.15471E+05-9.20825E+05 1.14960E-09-2.76486E-09
 -1       487-2.43396E+06-3.43493E+05-1.46946E+05-7.52101E+05 3.19233E-09-3.12320E-09
 -1       488-2.24000E+06-3.57149E+05-5.01491E+04-9.16669E+05 7.81529E-09 8.94033E-09
 -1       489-2.38077E+06-2.58657E+05-3.01538E+04-7.70272E+05 2.59092E-09 8.75070E-09
 -1       490-2.26404E+06-3.57478E+05-1.29324E+04-9.02694E+05-1.72122E-09-6.51653E-09
 -1       491-2.31939E+06-2.85244E+05-3.54438E+03-8.13215E+05 3.59614E-09 3.42288E-09
 -1       492-2.29929E+06-3.31947E+05-5.88824E+03-8.72173E+05 8.00355E-11-1.21327E-09
 -1       493-2.25619E+06-3.42526E+05 1.25856E+03-8.79818E+05 7.17250E-09 1.68961E-09
 -1       494-2.32675E+06-3.00540E+05-4.66649E+03-8.35768E+05 7.90078E-09 1.58389E-09
 -1       495-2.22015E+06-3.93533E+05-4.24955E+03-9.40765E+05 3.46154E-09-2.32205E-10
 -1       496-2.33726E+06-2.79562E+05-9.89784E+03-8.12670E+05 1.07802E-08 7.59519E-09
 -1       497-2.21803E+06-4.20104E+05-2.55917E+04-9.58973E+05-7.14067E-10-6.32417E-09
 -1       498-2.32995E+06-2.73285E+05-4.24687E+04-8.18306E+05 3.10501E-09 3.56158E-09
 -1       499-2.27563E+06-4.66131E+05-1.21097E+05-9.11477E+05 6.23913E-10 1.16415E-10
 -1       500-2.27820E+06-2.35176E+05-1.81691E+05-8.58847E+05-4.49290E-09 6.98492E-10
 -1       501-4.78761E+05-3.29058E+04 7.83043E+04 1.42638E+03 2.86968E-09 2.53931E-09
 -1       502-4.42589E+05 3.80517E+04 5.54160E+04-1.63308E+04 1.76044E-09 5.59885E-09
 -1       503-4.65389E+05-5.03123E+03 2.02117E+04 3.52294E+03-6.14818E-10 3.16231E-09
 -1       504-4.58551E+05 5.79162E+03 1.27941E+04-2.00065E+04-2.20268E-10 4.13138E-10
 -1       505-4.62982E+05-7.81576E+02 5.16338E+03 5.10221E+03 1.99793E-09 2.79920E-09
 -1       506-4.61630E+05 9.56446E+02 3.10461E+03-2.24593E+04 4.88535E-09 1.55592E-09
 -1       507-4.62441E+05-1.39229E+02 1.46294E+03 5.97590E+03 3.10189E-09 2.06455E-10
 -1       508-4.62278E+05 3.00402E+02 1.07196E+03-2.34264E+04 1.37948E-09 2.63316E-09
 -1       509-4.62389E+05-9.02211E+01 9.79600E+02 6.06947E+03 2.70668E-09 7.13513E-10
 -1       510-4.61971E+05 5.41734E+02 1.68954E+03-2.28257E+04 2.60195E-09 8.67260E-10
 -1       511-4.62714E+05-4.03598E+02 2.63103E+03 5.37500E+03 2.04909E-09 3.30226E-09
 -1       512-4.60188E+05 2.92483E+03 6.47723E+03-2.07063E+04 3.79384E-09 6.36987E-09
 -1       513-4.64057E+05-2.53736E+03 1.00744E+04 3.94993E+03 1.22100E-09 3.38423E-09
 -1       514-4.51813E+05 1.90475E+04 2.78334E+04-1.72616E+04-1.29415E-09-4.16958E-09
 -1       515-4.70925E+05-1.65137E+04 3.90521E+04 1.93042E+03-8.22865E-10 2.13913E-09
 -1       516-6.91347E+04 4.55999E+05 1.66782E+05 2.24729E+04 4.32192E-09 8.21069E-09
 -1       517 8.66747E+04 5.30196E+05 1.27437E+05-1.31517E+05 6.48106E-09 1.56698E-08
 -1       518-1.58596E+04 4.82012E+05 6.36206E+04 2.14532E+04 2.39106E-09 7.43796E-09
 -1       519 5.51481E+04 5.18883E+05 8.61693E+04-1.33938E+05 8.52378E-09 2.10434E-10
 -1       520-3.83213E+04 4.67962E+05 9.33919E+04 2.48871E+04-5.89353E-10-1.74396E-09
 -1       521-4.76196E+06-5.90660E+05-3.60750E+05-1.84850E+06-6.11180E-10-3.75439E-09
 -1       522-4.88877E+06-8.57337E+05-2.32085E+05-1.84866E+06 1.51954E-09 5.10045E-09
 -1       523-4.83196E+06-6.78625E+05-8.51521E+04-1.82986E+06-9.42578E-10-2.18279E-11
 -1       524-4.80573E+06-7.50501E+05-4.76920E+04-1.87762E+06 3.79714E-10-6.08998E-09
 -1       525-4.84374E+06-6.85491E+05-1.98416E+04-1.82430E+06-2.01089E-09-2.08274E-10
 -1       526-4.79133E+06-7.42910E+05-1.06377E+04-1.88652E+06-2.05000E-09-4.49245E-09
 -1       527-4.84682E+06-6.84575E+05-5.39785E+03-1.82188E+06-2.72621E-09-2.67721E-09
 -1       528-4.78840E+06-7.43654E+05-4.31627E+03-1.88933E+06-2.80932E-09 1.92779E-09
 -1       529-4.84695E+06-6.84452E+05-5.16800E+03-1.82174E+06 1.75532E-10-5.30235E-10
 -1       530-4.79083E+06-7.43271E+05-1.00119E+04-1.88713E+06 1.16233E-09 2.02840E-09
 -1       531-4.84417E+06-6.85203E+05-1.85686E+04-1.82389E+06 3.32602E-09 4.73847E-09
 -1       532-4.80424E+06-7.50426E+05-4.46063E+04-1.87887E+06 1.21145E-09 9.56788E-10
 -1       533-4.83311E+06-6.78837E+05-7.96084E+04-1.82914E+06-2.62787E-10-1.60071E-10
 -1       534-4.88205E+06-8.50086E+05-2.16978E+05-1.85150E+06-4.12911E-10 3.49246E-10
 -1       535-4.76748E+06-5.96812E+05-3.37294E+05-1.84677E+06 1.45519E-11-1.00408E-09
 -1       536 3.43859E+05-3.17298E+04 1.15390E+05-6.76384E+03 3.01952E-10-1.10595E-09
 -1       537 3.87839E+05 3.98917E+04 7.54718E+04-4.25411E+04-4.07408E-09-2.29466E-09
 -1       538 3.61666E+05-3.65314E+03 2.99180E+04-6.92901E+03 1.04592E-10-2.00089E-09
 -1       539 3.67439E+05 4.25578E+03 1.70652E+04-4.21733E+04 1.89902E-09 6.27915E-09
 -1       540 3.63827E+05-4.63722E+02 7.57766E+03-7.11772E+03 6.18456E-11 3.33466E-09
 -1       541 3.64703E+05 4.41426E+02 4.09722E+03-4.18496E+04-5.17502E-10-1.09731E-09
 -1       542 3.64104E+05-6.53815E+01 1.97438E+03-7.25324E+03 6.09361E-11 2.78590E-09
 -1       543 3.64219E+05 8.24222E+01 1.16224E+03-4.16453E+04-9.09495E-12 1.60134E-09
 -1       544 3.64132E+05-8.14808E+00 8.10299E+02-7.32224E+03 4.90331E-10 6.68365E-10
 -1       545 3.64172E+05 1.32279E+02 9.58730E+02-4.15729E+04-1.53901E-09-2.04852E-09
 -1       546 3.64088E+05-6.44659E+01 1.45922E+03-7.32562E+03 4.72141E-10-8.76611E-10
 -1       547 3.64645E+05 8.02487E+02 3.07267E+03-4.16268E+04-4.13365E-10-3.35440E-09
 -1       548 3.63711E+05-6.36514E+02 5.31435E+03-7.26840E+03-6.01631E-10 2.20825E-09
 -1       549 3.68326E+05 7.07216E+03 1.33490E+04-4.17425E+04-7.47377E-10 3.52543E-09
 -1       550 3.60573E+05-5.62779E+03 2.03669E+04-7.21055E+03-8.25821E-10-4.21096E-09
 -1       551 2.81798E+04-4.81495E+05 4.94508E+04-7.26005E+05-7.83621E-09 2.56841E-09
 -1       552 1.58641E+04-4.74822E+05 3.54009E+04-8.40242E+05-5.51518E-09 4.42196E-09
 -1       553 1.07490E+04-4.81556E+05 3.65846E+04-7.24822E+05-8.60018E-09 3.11229E-09
 -1       554 2.79521E+04-4.69293E+05 6.48657E+04-8.40479E+05-6.58474E-09 1.94268E-09
 -1       555 6.70935E+04-4.89039E+05 1.21383E+05-7.25566E+05-1.06375E-08-6.21731E-09
 -1       556-4.06825E+05-2.06255E+05 2.70012E+04-3.67478E+05-1.83354E-09 6.47560E-10
 -1       557-3.79808E+05-2.36160E+05 1.32544E+04-3.89462E+05-2.72848E-10 6.19502E-09
 -1       558-4.08468E+05-2.15488E+05 5.49951E+03-3.62207E+05 1.62254E-09 1.43154E-09
 -1       559-3.83034E+05-2.40573E+05 2.72757E+03-3.91045E+05 3.31056E-09 5.50199E-09
 -1       560-4.09468E+05-2.15257E+05 1.17357E+03-3.62535E+05-1.70985E-09-3.38150E-09
 -1       561-3.84185E+05-2.40408E+05 5.65752E+02-3.91877E+05-3.88536E-09-1.07277E-08
 -1       562-4.10178E+05-2.14831E+05 1.70193E+02-3.62993E+05-1.42609E-09-3.61979E-10
 -1       563-3.84840E+05-2.40126E+05-5.67593E+01-3.92340E+05-2.18279E-10 3.28691E-09
 -1       564-4.10555E+05-2.14586E+05-3.62715E+02-3.63251E+05-1.94086E-09-2.18097E-09
 -1       565-3.85149E+05-2.40003E+05-8.87271E+02-3.92537E+05-3.99177E-09-5.06043E-09
 -1       566-4.10566E+05-2.14524E+05-1.90014E+03-3.63290E+05-5.55224E-09 3.73439E-09
 -1       567-3.85416E+05-2.40266E+05-4.20970E+03-3.92430E+05-7.60792E-09 4.54384E-09
 -1       568-4.10070E+05-2.15391E+05-8.69421E+03-3.62797E+05-3.51793E-09 1.67347E-10
 -1       569-3.89761E+05-2.45972E+05-2.05178E+04-3.90721E+05 2.78669E-09 6.76300E-09
 -1       570-4.08166E+05-2.32701E+05-4.22027E+04-3.55380E+05-6.18456E-10-2.27374E-11
 -1       571 5.86890E+05 2.99512E+04 4.79165E+04-1.49002E+05 1.37152E-09 1.05956E-10
 -1       572 5.94341E+05 9.96255E+03 2.36158E+04-1.65236E+05-9.83164E-10-1.98088E-09
 -1       573 5.89776E+05 2.02347E+03 1.05229E+04-1.48538E+05-1.86628E-09-1.81899E-11
 -1       574 5.90572E+05 5.90756E+02 5.30154E+03-1.65712E+05-1.24874E-09 2.60115E-10
 -1       575 5.89981E+05 5.81605E+00 2.51867E+03-1.48485E+05-7.48514E-10-7.65795E-10
 -1       576 5.90040E+05-1.51592E+01 1.29603E+03-1.65770E+05-5.36602E-10 3.78168E-09
 -1       577 5.89998E+05-4.86384E+01 6.57707E+02-1.48479E+05-4.37467E-10 3.25417E-09
 -1       578 5.90013E+05-4.43343E+01 3.93018E+02-1.65778E+05-3.11502E-10 3.80169E-10
 -1       579 5.90101E+05-8.79117E+01 2.98191E+02-1.48477E+05-1.75351E-09-2.72848E-11
 -1       580 5.90195E+05-1.28867E+02 3.75724E+02-1.65775E+05-1.26965E-09 5.05315E-09
 -1       581 5.90318E+05-1.97795E+02 6.09398E+02-1.48482E+05-4.05635E-09 5.75710E-09
 -1       582 5.90613E+05-1.49081E+02 1.23593E+03-1.65695E+05-2.69029E-09-3.09228E-11
 -1       583 5.90585E+05 7.98769E+01 2.40187E+03-1.48557E+05-2.97696E-08 9.92713E-10
 -1       584 5.91882E+05 1.79869E+03 5.40039E+03-1.65008E+05-6.34282E-08-3.66799E-09
 -1       585 5.90294E+05 6.29474E+03 1.09134E+04-1.49185E+05-2.92057E-08 4.53292E-09
 -1       586 5.47076E+03 2.06257E+05 8.78096E+03-4.23231E+05 3.84171E-09 2.12822E-09
 -1       587 3.43664E+03 2.07350E+05 8.02407E+03-4.70881E+05 2.36469E-09 4.14730E-10
 -1       588 3.48984E+03 2.05804E+05 1.09147E+04-4.22695E+05 4.36557E-09 5.21322E-09
 -1       589 1.06360E+04 2.09886E+05 2.20018E+04-4.70958E+05 2.79397E-09-5.16138E-10
 -1       590 2.82719E+04 2.03399E+05 4.34444E+04-4.23130E+05 4.20005E-09-5.45697E-12
 -1       591-2.57000E+05-9.60551E+04-4.68191E+04-1.41991E+05 1.01079E-09 9.31323E-10
 -1       592-2.57217E+05-9.01037E+04-2.28050E+04-1.57160E+05 3.27873E-10 2.33285E-10
 -1       593-2.58143E+05-7.74648E+04-9.66769E+03-1.50310E+05-1.23600E-09-1.22100E-09
 -1       594-2.52307E+05-8.35422E+04-4.72115E+03-1.58238E+05 2.76032E-10-4.72852E-09
 -1       595-2.58387E+05-7.66816E+04-2.17247E+03-1.50726E+05 3.56977E-09 6.00176E-09
 -1       596-2.51940E+05-8.32564E+04-1.10604E+03-1.58239E+05 2.56682E-09-1.46019E-09
 -1       597-2.58441E+05-7.67002E+04-6.12556E+02-1.50738E+05 1.39494E-09-3.74575E-09
 -1       598-2.51905E+05-8.32575E+04-5.09719E+02-1.58226E+05 1.03014E-09-5.91126E-09
 -1       599-2.58430E+05-7.67025E+04-6.72800E+02-1.50732E+05 9.71295E-09-5.41604E-09
 -1       600-2.51930E+05-8.32636E+04-1.26502E+03-1.58228E+05 2.47076E-08 6.57565E-09
 -1       601-2.58347E+05-7.66873E+04-2.51076E+03-1.50709E+05 1.12177E-08 4.71118E-10
 -1       602-2.52342E+05-8.35997E+04-5.47105E+03-1.58214E+05-2.76486E-10-3.33739E-09
 -1       603-2.58051E+05-7.76059E+04-1.12085E+04-1.50220E+05 7.41056E-09-1.20599E-09
 -1       604-2.58037E+05-9.11948E+04-2.64391E+04-1.56938E+05 4.92537E-09-1.66256E-08
 -1       605-2.56702E+05-9.91609E+04-5.42778E+04-1.40578E+05 4.24279E-09-7.35599E-09
 -1       606 1.64848E+05-2.17359E+04-3.45851E+04 4.83248E+04-1.19271E-08-2.17369E-10
 -1       607 1.59330E+05-7.24009E+03-1.70331E+04 5.30488E+04-1.60435E-09-2.57819E-09
 -1       608 1.62497E+05-1.47240E+03-7.59387E+03 4.79709E+04 8.08541E-09-3.48336E-09
 -1       609 1.61770E+05-3.44951E+02-3.81307E+03 5.34154E+04-5.60249E-09-3.35149E-10
 -1       610 1.62154E+05 9.73104E+01-1.80825E+03 4.79276E+04-3.06500E-09 7.49878E-10
 -1       611 1.61992E+05 1.79082E+02-9.11519E+02 5.34590E+04-1.48430E-09 1.29785E-09
 -1       612 1.62050E+05 1.89636E+02-4.38459E+02 4.79233E+04-6.66114E-09 1.22418E-09
 -1       613 1.61971E+05 2.20606E+02-2.07457E+02 5.34633E+04-3.21597E-08 5.98493E-09
 -1       614 1.61989E+05 2.02897E+02-7.53434E+01 4.79225E+04-1.44755E-08 1.86628E-09
 -1       615 1.61932E+05 2.40264E+02 2.03719E+01 5.34629E+04 1.13928E-08-4.52474E-10
 -1       616 1.61945E+05 2.23994E+02 1.22761E+02 4.79233E+04-2.50184E-08 5.61886E-09
 -1       617 1.61923E+05 2.97242E+02 3.05453E+02 5.34608E+04-3.79932E-08-5.84350E-10
 -1       618 1.61897E+05 3.65130E+02 6.27986E+02 4.79238E+04-1.85701E-08-3.52611E-09
 -1       619 1.62115E+05 8.81257E+02 1.42198E+03 5.34556E+04-1.57161E-09 1.07002E-09
 -1       620 1.61694E+05 2.06536E+03 2.89144E+03 4.79221E+04-5.44787E-10 3.14640E-09
 -1       621 5.31402E+03 5.82619E+05 1.17328E+04-6.06822E+04-8.94488E-10-2.20234E-09
 -1       622 2.08810E+03 5.84787E+05 9.20655E+03-7.04550E+04-3.19687E-09-3.50610E-09
 -1       623 1.26089E+03 5.83167E+05 1.07768E+04-6.07616E+04-9.91349E-10 8.66748E-10
 -1       624 6.45972E+03 5.87244E+05 2.03162E+04-7.01360E+04-2.62480E-09 1.08412E-09
 -1       625 1.96475E+04 5.80358E+05 3.88152E+04-6.09919E+04-7.48969E-10 2.99951E-09
 -1       626 2.24064E+05 7.30857E+04-1.81300E+04 1.55982E+05-2.27737E-08 5.94991E-09
 -1       627 2.16765E+05 8.44777E+04-8.62952E+03 1.58482E+05-2.64572E-08 1.27658E-08
 -1       628 2.24274E+05 8.17438E+04-3.63558E+03 1.51786E+05-3.19415E-09 1.76142E-08
 -1       629 2.18145E+05 8.79555E+04-1.74865E+03 1.58108E+05 1.16743E-08 8.29962E-09
 -1       630 2.24178E+05 8.23151E+04-7.79279E+02 1.51441E+05-1.19908E-08 1.63243E-09
 -1       631 2.18203E+05 8.82092E+04-3.55855E+02 1.58076E+05-2.23372E-08 7.08303E-09
 -1       632 2.24107E+05 8.23471E+04-1.18581E+02 1.51392E+05-7.91169E-09 4.45561E-09
 -1       633 2.18176E+05 8.82320E+04 4.11778E+01 1.58057E+05 1.76551E-08 9.48512E-09
 -1       634 2.24062E+05 8.23436E+04 2.20198E+02 1.51375E+05-4.22278E-09-1.33391E-08
 -1       635 2.18186E+05 8.82408E+04 5.44296E+02 1.58054E+05 4.97221E-09 7.57609E-10
 -1       636 2.24030E+05 8.23590E+04 1.14755E+03 1.51357E+05-7.85167E-09-7.85803E-10
 -1       637 2.18451E+05 8.85092E+04 2.56417E+03 1.58021E+05-1.62532E-09-6.84759E-09
 -1       638 2.23967E+05 8.31759E+04 5.30547E+03 1.50997E+05 1.24865E-08-2.32103E-09
 -1       639 2.21183E+05 9.29824E+04 1.26061E+04 1.56979E+05-6.17911E-09-1.37420E-08
 -1       640 2.23997E+05 9.62471E+04 2.64702E+04 1.45513E+05-2.73576E-09 8.41646E-09
 -1       641 8.55159E+03 4.74716E+03-1.14132E+04-8.94823E+02-1.09770E-08 3.14685E-09
 -1       642 3.74625E+03-5.49268E+03-7.98776E+03 4.67501E+03-1.22013E-08 1.45189E-09
 -1       643 6.67809E+03 7.15087E+02-2.94834E+03-8.84986E+02-1.65128E-08-6.90761E-10
 -1       644 5.90306E+03-8.05114E+02-1.80532E+03 4.66062E+03 7.74374E-09 1.20062E-09
 -1       645 6.38624E+03 1.01361E+02-7.09473E+02-8.80563E+02 5.27459E-09-1.06053E-09
 -1       646 6.23902E+03-8.24264E+01-3.36152E+02 4.65374E+03-2.15772E-08 1.40562E-09
 -1       647 6.33712E+03 9.64450E-01-1.19426E+01-8.78159E+02 1.53655E-08-1.96422E-10
 -1       648 6.32680E+03 8.64201E+01 2.83972E+02 4.65121E+03 3.66582E-08 3.53481E-09
 -1       649 6.29672E+03-6.53576E+01 6.61732E+02-8.78046E+02 2.54046E-08-3.13122E-10
 -1       650 6.56419E+03 5.04281E+02 1.59135E+03 4.65233E+03 2.12326E-08 6.59327E-10
 -1       651 6.10125E+03-4.15507E+02 2.80066E+03-8.79274E+02-2.64174E-09-5.48027E-09
 -1       652 7.91625E+03 3.16710E+03 6.86037E+03 4.65426E+03-6.16478E-09-1.16700E-09
 -1       653 4.94957E+03-2.71280E+03 1.10458E+04-8.80018E+02 6.03279E-09 7.38964E-10
 -1       654 1.61856E+04 2.06994E+04 2.99670E+04 4.64246E+03-4.50234E-09-2.00089E-09
 -1       655-2.15745E+03-1.78184E+04 4.26667E+04-8.67773E+02 1.00721E-08-1.84264E-09
 -1       656 2.02665E+04-6.63162E+05-7.70056E+04 1.17564E+04-1.00736E-08-2.96086E-09
 -1       657-2.83698E+04-6.92312E+05-5.71747E+04 6.07440E+04-1.46779E-08 6.66466E-09
 -1       658 4.20389E+03-6.73325E+05-3.55840E+04 1.15249E+04-2.61025E-09 1.68575E-09
 -1       659-2.57543E+04-6.90941E+05-5.29003E+04 6.09201E+04-1.57843E-08 8.81819E-11
 -1       660 1.80539E+04-6.64629E+05-6.90558E+04 1.15830E+04-5.76256E-09-6.62340E-10
 -1       661 6.73780E+05 8.36012E+04 5.58887E+04 2.63840E+05-1.11986E-08-7.33780E-09
 -1       662 6.88087E+05 1.30465E+05 3.59783E+04 2.70332E+05 1.81895E-09-2.98678E-09
 -1       663 6.83714E+05 9.81388E+04 1.32081E+04 2.62036E+05 3.46711E-09-7.83075E-10
 -1       664 6.76716E+05 1.12400E+05 7.43785E+03 2.72877E+05-2.03840E-08-6.55132E-09
 -1       665 6.84865E+05 9.99097E+04 3.10359E+03 2.61943E+05 1.33099E-08-1.38812E-09
 -1       666 6.75406E+05 1.10225E+05 1.71294E+03 2.72987E+05 3.40424E-09 1.78377E-09
 -1       667 6.84977E+05 1.00152E+05 9.39602E+02 2.61978E+05 3.11843E-10 7.71271E-09
 -1       668 6.75299E+05 1.09986E+05 8.86245E+02 2.72951E+05-1.03874E-08 1.79156E-10
 -1       669 6.84963E+05 1.00140E+05 1.22242E+03 2.61979E+05 1.15174E-08 6.42990E-09
 -1       670 6.75523E+05 1.10360E+05 2.50861E+03 2.72973E+05 2.16985E-08 6.01688E-10
 -1       671 6.84763E+05 9.97940E+04 4.68652E+03 2.61953E+05-7.89277E-09 2.20530E-09
 -1       672 6.77588E+05 1.13614E+05 1.13204E+04 2.72720E+05 3.44721E-09 3.54976E-09
 -1       673 6.82956E+05 9.71418E+04 2.01363E+04 2.62144E+05 7.66693E-09 2.35195E-09
 -1       674 6.95023E+05 1.41062E+05 5.48673E+04 2.68707E+05-1.40699E-09 4.68572E-09
 -1       675 6.67744E+05 7.50384E+04 8.52531E+04 2.64963E+05-4.68754E-09-2.71029E-09
 -1       676 3.83065E+03-6.22187E+05-1.54887E+04 1.71333E+03-8.05767E-09-6.93547E-09
 -1       677-6.17514E+03-6.28268E+05-1.41645E+04 2.27099E+03 2.40009E-08-7.02059E-09
 -1       678 1.57024E+03-6.23556E+05-1.32067E+04 1.70466E+03-9.26093E-10-3.93220E-09
 -1       679-1.37592E+04-6.32524E+05-2.66915E+04 2.27240E+03 1.18762E-08-2.25566E-09
 -1       680 1.04301E+04-6.17935E+05-3.87142E+04 1.70945E+03-2.01362E-09 9.10589E-10
 -1       681 7.98393E+05-1.92653E+04 4.61628E+04 2.57255E+03-2.11060E-10-2.87400E-10
 -1       682 8.18272E+05 2.23469E+04 3.24452E+04-6.17099E+03 2.22741E-10-6.14818E-10
 -1       683 8.06105E+05-2.92663E+03 1.19872E+04 1.61658E+03-7.72502E-11-6.23459E-10
 -1       684 8.09312E+05 3.38992E+03 7.49599E+03-4.60156E+03-7.00311E-11 1.59480E-09
 -1       685 8.07352E+05-4.46011E+02 3.16414E+03 1.00334E+03 4.61597E-10 1.44473E-09
 -1       686 8.07866E+05 5.37893E+02 2.00500E+03-3.61643E+03 4.48495E-10 2.50563E-09
 -1       687 8.07547E+05-9.08814E+01 1.24581E+03 6.31432E+02 7.92738E-10 1.45113E-09
 -1       688 8.07718E+05 2.66613E+02 1.46289E+03-3.05833E+03 4.52019E-10-2.08047E-11
 -1       689 8.07499E+05-1.74878E+02 2.10058E+03 4.45233E+02-7.42233E-11 9.65770E-10
 -1       690 8.08262E+05 1.28306E+03 4.44582E+03-2.84529E+03 4.04241E-10 1.47435E-09
 -1       691 8.07000E+05-1.10055E+03 7.61567E+03 4.18393E+02-5.50870E-10-3.89264E-10
 -1       692 8.11817E+05 8.42489E+03 1.84694E+04-2.94719E+03-1.10077E-09 4.83851E-10
 -1       693 8.03937E+05-7.26634E+03 2.97257E+04 5.47136E+02-6.22776E-10 1.01500E-09
 -1       694 8.33915E+05 5.55167E+04 8.05015E+04-3.38727E+03 2.42345E-10-1.46429E-10
 -1       695 7.84886E+05-4.78264E+04 1.14704E+05 8.58367E+02 1.08545E-09 7.27596E-11
 -1       696-1.72084E+04 7.47186E+05 4.05710E+04 3.14312E+03 1.05501E-10-2.26873E-09
 -1       697 1.88768E+04 7.64197E+05 2.62617E+04-2.48841E+04 2.16460E-10-3.78833E-10
 -1       698-1.45406E+03 7.54700E+05 5.83385E+03 2.50743E+03-2.57387E-10 2.80285E-09
 -1       699-5.94494E+03 7.52524E+05-6.75238E+03-2.48082E+04-5.02496E-10 4.02007E-09
 -1       700 7.42482E+03 7.58872E+05-1.66295E+04 3.06686E+03-3.02862E-10 1.63266E-09
 -1       701-7.20454E+05-6.59721E+04-9.52985E+04-2.87269E+05 2.36469E-11 7.38510E-10
 -1       702-7.69613E+05-1.51391E+05-6.56902E+04-2.71660E+05-3.60160E-10 6.45741E-10
 -1       703-7.40339E+05-9.88088E+04-2.23790E+04-2.80341E+05 2.09639E-10 6.65750E-10
 -1       704-7.46123E+05-1.13732E+05-1.38195E+04-2.80191E+05 5.45697E-12 7.59428E-10
 -1       705-7.43898E+05-1.03391E+05-5.24281E+03-2.78823E+05-2.98087E-10-1.15278E-09
 -1       706-7.41732E+05-1.08719E+05-3.08874E+03-2.82274E+05 1.63354E-10-3.19460E-10
 -1       707-7.44724E+05-1.03784E+05-1.45295E+03-2.78271E+05 6.71076E-10 5.16025E-10
 -1       708-7.40767E+05-1.08460E+05-1.26377E+03-2.82998E+05 1.09885E-11-1.11633E-09
 -1       709-7.44865E+05-1.03643E+05-1.41915E+03-2.78103E+05-3.74897E-10-1.11083E-09
 -1       710-7.41187E+05-1.09234E+05-2.99578E+03-2.82921E+05 5.86908E-11 9.58380E-11
 -1       711-7.44306E+05-1.03014E+05-5.05935E+03-2.78348E+05-1.47395E-10-2.21007E-10
 -1       712-7.45010E+05-1.14495E+05-1.33457E+04-2.81399E+05-3.67834E-10 5.47971E-11
 -1       713-7.41049E+05-9.84173E+04-2.15937E+04-2.79613E+05 1.02091E-09 1.64346E-09
 -1       714-7.67403E+05-1.51099E+05-6.33982E+04-2.73460E+05 1.72986E-09-9.45874E-11
 -1       715-7.21956E+05-6.66440E+04-9.19666E+04-2.86204E+05 1.67893E-09 1.00044E-09
 -1       716 2.68385E+05-2.84491E+04 6.80649E+04 2.83072E+03-4.61682E-10-2.54659E-11
 -1       717 2.98003E+05 3.30182E+04 4.78836E+04-1.45854E+04-7.97826E-10-9.27685E-11
 -1       718 2.79827E+05-4.32870E+03 1.76676E+04 2.24835E+03-9.29674E-10 5.45697E-11
 -1       719 2.84640E+05 5.04946E+03 1.10574E+04-1.37001E+04-4.46562E-10 6.63931E-11
 -1       720 2.81702E+05-6.64089E+02 4.66558E+03 1.94561E+03 1.98600E-09 3.88809E-11
 -1       721 2.82462E+05 8.42539E+02 2.95143E+03-1.33484E+04 3.41927E-09-3.01497E-10
 -1       722 2.81989E+05-1.39158E+02 1.83605E+03 1.89662E+03 2.08587E-09-5.58799E-10
 -1       723 2.82298E+05 4.34458E+02 2.15816E+03-1.35011E+04 1.13153E-09-3.64594E-10
 -1       724 2.81873E+05-2.64237E+02 3.08096E+03 2.09823E+03 3.75832E-09-7.24867E-10
 -1       725 2.83278E+05 1.91121E+03 6.57336E+03-1.41670E+04 2.97911E-09-1.24510E-09
 -1       726 2.81042E+05-1.63117E+03 1.11702E+04 2.56250E+03 1.14994E-09 1.66392E-09
 -1       727 2.88855E+05 1.23931E+04 2.72633E+04-1.53906E+04-4.75723E-10-2.54659E-11
 -1       728 2.76363E+05-1.07198E+04 4.36622E+04 3.32194E+03-2.76941E-10 4.00178E-10
 -1       729 3.21992E+05 8.17060E+04 1.18669E+05-1.73718E+04-1.22702E-09 1.34605E-09
 -1       730 2.48046E+05-7.04818E+04 1.68693E+05 4.54226E+03 1.47247E-09-5.96629E-10
 -1       731-2.91742E+04 2.84376E+05 6.96184E+04 9.70949E+03 1.59343E-09 2.47610E-10
 -1       732 3.42230E+04 3.15134E+05 4.94929E+04-5.15264E+04 1.69530E-09-1.81939E-09
 -1       733-4.69731E+03 2.96334E+05 1.89169E+04 9.04041E+03 8.08541E-10 2.32338E-09
 -1       734 7.44491E+03 3.02298E+05 1.38341E+04-5.12520E+04 3.00713E-09 4.27183E-09
 -1       735-2.56870E+03 2.97163E+05 7.94599E+03 9.43523E+03 1.43700E-10 2.18392E-09
 -1       736-1.78843E+06-2.01353E+05-1.33661E+05-6.93953E+05-2.99588E-09 1.30240E-09
 -1       737-1.85975E+06-3.18945E+05-9.21612E+04-6.69405E+05 6.78028E-10 1.80626E-09
 -1       738-1.81627E+06-2.47480E+05-3.13612E+04-6.84259E+05-1.89630E-10 7.25777E-10
 -1       739-1.82662E+06-2.66205E+05-1.93803E+04-6.81510E+05-1.89175E-10-1.50362E-09
 -1       740-1.82143E+06-2.53753E+05-7.33354E+03-6.81943E+05-2.11708E-09 4.29281E-10
 -1       741-1.82018E+06-2.59411E+05-4.31820E+03-6.84711E+05-1.41826E-09 2.61554E-09
 -1       742-1.82269E+06-2.54221E+05-2.00591E+03-6.81070E+05-1.31601E-09 1.61310E-09
 -1       743-1.81883E+06-2.58995E+05-1.70811E+03-6.85678E+05-1.85591E-09 9.19307E-10
 -1       744-1.82278E+06-2.54161E+05-1.87193E+03-6.80978E+05-2.86320E-10 3.70790E-10
 -1       745-1.81981E+06-2.59537E+05-3.91006E+03-6.85055E+05-5.35792E-10 1.29427E-09
 -1       746-1.82171E+06-2.53686E+05-6.58836E+03-6.81691E+05-2.42949E-10 1.58752E-09
 -1       747-1.82557E+06-2.65631E+05-1.73777E+04-6.82200E+05 9.45704E-10 3.23234E-09
 -1       748-1.81704E+06-2.48114E+05-2.81091E+04-6.83822E+05-8.64020E-10 2.24281E-09
 -1       749-1.85544E+06-3.12707E+05-8.25941E+04-6.71136E+05-1.11140E-09 1.52795E-10
 -1       750-1.79195E+06-2.06916E+05-1.19792E+05-6.92669E+05-2.18279E-10-5.82077E-11
 -1       751 3.90004E+06-2.07273E+05 4.98475E+05 2.05355E+04-1.27500E-08-1.45519E-10
 -1       752 4.11413E+06 2.40581E+05 3.49686E+05-3.19183E+04-7.19859E-09 7.09406E-10
 -1       753 3.98329E+06-3.14774E+04 1.29314E+05 7.93948E+03-7.35326E-10 2.54659E-10
 -1       754 4.01773E+06 3.64857E+04 8.04254E+04-1.41572E+04 1.24422E-09 1.06593E-09
 -1       755 3.99673E+06-4.76982E+03 3.33491E+04 2.78259E+03-3.02549E-10-1.30422E-09
 -1       756 4.00226E+06 5.59220E+03 1.97502E+04-6.90720E+03 6.51099E-10-1.25351E-09
 -1       757 3.99891E+06-7.93362E+02 9.88432E+03 6.89694E+02-2.40760E-10-9.45874E-10
 -1       758 4.00001E+06 1.43892E+03 7.94512E+03-4.14396E+03 1.31245E-09-7.84851E-10
 -1       759 3.99901E+06-6.39994E+02 8.30395E+03 1.92886E+01-1.37178E-09-9.78616E-10
 -1       760 4.00148E+06 4.23598E+03 1.52321E+04-3.70507E+03-2.61151E-10 6.82121E-10
 -1       761 3.99742E+06-3.57195E+03 2.51272E+04 2.50804E+02 2.51021E-10-2.16460E-10
 -1       762 4.01290E+06 2.72744E+04 6.01436E+04-5.25285E+03 2.07749E-09 1.53887E-09
 -1       763 3.98745E+06-2.35130E+04 9.65903E+04 1.56707E+03 3.77156E-09 6.87578E-10
 -1       764 4.08434E+06 1.79656E+05 2.60956E+05-1.00631E+04 2.08885E-09 3.91447E-09
 -1       765 3.92561E+06-1.54732E+05 3.72022E+05 5.05952E+03-1.80825E-09-3.49246E-10
 -1       766-8.79612E+04 6.88347E+05 2.14448E+05-4.27423E+03 6.94126E-09-8.95398E-10
 -1       767 1.09661E+05 7.83107E+05 1.64584E+05 6.52846E+03 1.04774E-09 2.05426E-09
 -1       768-2.09093E+04 7.19708E+05 8.43691E+04-2.37630E+03 2.90493E-09 1.34128E-09
 -1       769 7.42365E+04 7.66300E+05 1.17420E+05 3.17695E+03-8.14907E-10 1.59162E-09
 -1       770-5.27998E+04 7.05107E+05 1.32693E+05-9.24998E+02 1.25146E-09 2.00555E-09
 -1       771-2.13942E+06-4.40579E+05-9.17363E+04-9.19254E+05-1.20053E-10 1.89175E-10
 -1       772-2.13768E+06-4.30598E+05-4.46186E+04-9.50879E+05-6.91216E-10 7.79619E-09
 -1       773-2.14249E+06-4.03678E+05-1.89850E+04-9.35393E+05 1.04046E-09-8.02174E-09
 -1       774-2.12814E+06-4.18137E+05-9.23370E+03-9.54092E+05 5.74437E-09-5.80440E-09
 -1       775-2.14358E+06-4.01750E+05-4.29088E+03-9.36430E+05-2.47383E-10 9.00400E-11
 -1       776-2.12785E+06-4.17492E+05-2.15010E+03-9.54663E+05-1.77533E-09 2.22735E-09
 -1       777-2.14420E+06-4.01486E+05-1.18859E+03-9.36692E+05 2.91038E-11 1.18416E-09
 -1       778-2.12816E+06-4.17371E+05-9.03934E+02-9.55066E+05 6.98492E-10 1.74214E-09
 -1       779-2.14460E+06-4.01253E+05-1.13965E+03-9.36883E+05 2.11003E-10 1.86435E-09
 -1       780-2.12851E+06-4.17285E+05-2.05885E+03-9.55398E+05-1.09139E-09-4.93878E-09
 -1       781-2.14478E+06-4.01047E+05-4.06836E+03-9.36994E+05 1.18052E-09-4.04725E-10
 -1       782-2.12939E+06-4.17772E+05-8.85314E+03-9.55621E+05 1.61162E-09-2.49202E-10
 -1       783-2.14451E+06-4.02405E+05-1.81424E+04-9.36293E+05 2.61844E-09-1.11686E-09
 -1       784-2.13859E+06-4.30234E+05-4.28487E+04-9.53900E+05 5.42423E-09 1.80080E-10
 -1       785-2.14260E+06-4.37161E+05-8.79870E+04-9.20576E+05 3.61888E-09 1.71349E-09
 -1       786 6.89957E+05-2.24019E+04 8.21455E+04-1.98401E+03-4.77485E-12 9.89530E-10
 -1       787 7.20738E+05 2.85189E+04 5.36581E+04-1.33983E+04 1.11868E-10-2.61207E-09
 -1       788 7.02649E+05-2.50918E+03 2.13334E+04-2.07392E+03-3.05590E-10 3.48336E-10
 -1       789 7.06474E+05 3.10665E+03 1.21406E+04-1.32328E+04 1.93722E-10-3.78031E-09
 -1       790 7.04206E+05-2.87817E+02 5.44291E+03-2.14659E+03 4.58613E-10-2.11935E-09
 -1       791 7.04699E+05 3.34144E+02 2.97017E+03-1.31269E+04 1.21145E-09-3.76008E-09
 -1       792 7.04413E+05-3.66631E+01 1.53463E+03-2.17979E+03 2.74949E-09 3.52884E-09
 -1       793 7.04473E+05 5.13041E+01 1.07898E+03-1.31004E+04 5.74866E-09 2.51335E-09
 -1       794 7.04429E+05-2.35149E+01 1.06896E+03-2.17314E+03 2.27669E-09 3.20666E-09
 -1       795 7.04573E+05 1.79905E+02 1.72999E+03-1.31544E+04 2.97518E-10 6.41401E-09
 -1       796 7.04321E+05-1.58482E+02 3.00494E+03-2.12581E+03-8.21274E-10 4.45823E-09
 -1       797 7.05538E+05 1.67496E+03 6.60319E+03-1.32865E+04-1.32104E-10-1.84821E-09
 -1       798 7.03480E+05-1.36348E+03 1.15610E+04-2.04097E+03-9.40645E-10 3.67709E-09
 -1       799 7.13274E+05 1.54273E+04 2.90563E+04-1.34730E+04-2.71473E-09 1.62618E-09
 -1       800 6.96609E+05-1.21381E+04 4.44615E+04-1.94109E+03-2.40107E-10-2.19188E-09
 -1       801-2.77503E+04 6.98900E+05 8.88165E+04-2.00195E+05 1.13832E-08-1.03537E-08
 -1       802 5.55116E+04 7.28431E+05 8.55232E+04-1.13215E+06 3.24144E-08-7.19592E-09
 -1       803-4.58862E+03 7.05106E+05 7.68779E+04-2.00847E+05 1.98306E-08 7.27323E-09
 -1       804 9.58773E+04 7.53744E+05 1.53513E+05-1.13223E+06 3.16795E-08 1.19107E-08
 -1       805-6.45706E+04 6.76237E+05 2.14278E+05-2.00148E+05 9.69158E-09 1.20854E-08
 -1       806-5.97674E+05-1.52650E+05-5.27773E+04-2.66802E+05 2.16005E-10 2.01908E-09
 -1       807-5.98789E+05-1.39413E+05-2.51315E+04-2.82103E+05 5.17048E-10 1.18780E-09
 -1       808-5.97605E+05-1.26657E+05-1.05823E+04-2.77913E+05-2.48292E-10 4.35648E-10
 -1       809-5.93574E+05-1.30315E+05-5.12478E+03-2.84078E+05-1.00772E-09-2.43352E-09
 -1       810-5.97766E+05-1.25011E+05-2.32671E+03-2.78675E+05 8.90850E-10-2.56910E-09
 -1       811-5.93088E+05-1.29753E+05-1.17312E+03-2.84144E+05 3.21506E-10 3.10911E-09
 -1       812-5.97812E+05-1.24977E+05-6.27579E+02-2.78706E+05 9.32459E-10 4.91445E-09
 -1       813-5.93033E+05-1.29742E+05-4.88038E+02-2.84127E+05-1.91790E-10 7.63976E-10
 -1       814-5.97800E+05-1.24985E+05-6.02145E+02-2.78699E+05-5.22959E-10 5.82986E-10
 -1       815-5.93061E+05-1.29763E+05-1.10541E+03-2.84121E+05 1.38061E-09 4.40650E-10
 -1       816-5.97728E+05-1.25032E+05-2.18068E+03-2.78655E+05 3.16504E-10-5.83896E-10
 -1       817-5.93499E+05-1.30290E+05-4.79718E+03-2.84028E+05 2.02999E-09 2.32831E-10
 -1       818-5.97546E+05-1.26596E+05-9.90405E+03-2.77936E+05 9.24956E-10 3.04772E-09
 -1       819-5.98424E+05-1.38736E+05-2.35148E+04-2.82075E+05 3.86081E-10 3.21415E-09
 -1       820-5.97522E+05-1.50975E+05-4.93823E+04-2.67591E+05 4.27463E-10 2.14641E-09
 -1       821-5.75961E+05 1.99544E+04-7.31853E+04 1.60517E+03-6.05314E-09 4.30737E-09
 -1       822-6.03321E+05-2.54232E+04-4.78077E+04 1.26073E+04-2.80488E-09 6.08270E-09
 -1       823-5.87272E+05 2.22360E+03-1.90120E+04 1.41090E+03 5.71754E-09-5.48425E-10
 -1       824-5.90665E+05-2.73975E+03-1.08160E+04 1.29232E+04-1.36242E-09-6.62499E-09
 -1       825-5.88660E+05 2.53692E+02-4.86709E+03 1.28663E+03-1.31711E-08 1.36242E-09
 -1       826-5.89128E+05-2.49837E+02-2.67803E+03 1.31328E+04-1.87421E-08 1.08213E-09
 -1       827-5.88845E+05 3.79175E+01-1.43945E+03 1.20063E+03-1.12834E-08-3.16544E-09
 -1       828-5.88959E+05 5.41211E+00-1.11044E+03 1.32683E+04-1.33372E-08-1.65312E-09
 -1       829-5.88853E+05 3.56638E+01-1.24449E+03 1.15098E+03 1.67290E-10-3.99879E-09
 -1       830-5.89106E+05-1.73356E+02-2.16406E+03 1.33291E+04 1.20957E-08-2.12469E-09
 -1       831-5.88711E+05 2.09387E+02-3.84947E+03 1.13985E+03-1.13049E-08-1.44098E-09
 -1       832-5.90335E+05-2.11978E+03-8.51636E+03 1.33138E+04-1.84733E-09-3.27975E-09
 -1       833-5.87623E+05 1.76201E+03-1.49418E+04 1.16675E+03 9.97488E-10-2.73121E-09
 -1       834-6.00301E+05-1.99400E+04-3.75769E+04 1.32152E+04 1.89885E-09-3.32557E-09
 -1       835-5.78736E+05 1.57004E+04-5.75098E+04 1.24310E+03 1.91517E-09-2.01544E-09
 -1       836-3.63889E+04 1.63777E+06 1.39760E+05-3.16292E+04-3.24508E-09 2.34650E-09
 -1       837 5.27888E+04 1.69119E+06 1.09590E+05-1.67900E+05-5.41058E-09 7.87622E-10
 -1       838-9.06981E+03 1.65470E+06 7.76571E+04-3.21137E+04-5.91263E-09-4.56566E-10
 -1       839 6.54325E+04 1.69819E+06 1.30460E+05-1.67788E+05-7.31234E-09-6.78938E-10
 -1       840-4.73221E+04 1.63067E+06 1.78533E+05-3.17395E+04-5.53700E-09 2.95677E-09
 -1       841-1.79642E+05-1.20121E+04-3.61670E+04-7.40501E+04-7.19410E-09-2.42835E-09
 -1       842-2.00076E+05-4.25867E+04-2.49156E+04-6.60536E+04-8.84745E-09-7.87850E-10
 -1       843-1.86806E+05-2.48365E+04-8.49008E+03-7.18465E+04-4.24507E-10 1.03228E-10
 -1       844-1.91861E+05-2.76256E+04-5.23073E+03-6.85213E+04 2.57722E-09-4.26962E-09
 -1       845-1.87847E+05-2.68802E+04-1.96645E+03-7.16187E+04-4.02565E-09-2.58444E-09
 -1       846-1.90714E+05-2.51990E+04-1.11617E+03-6.87249E+04-1.89102E-08-1.40108E-08
 -1       847-1.87953E+05-2.72482E+04-4.44227E+02-7.16498E+04-8.66669E-09-6.74348E-09
 -1       848-1.90615E+05-2.47443E+04-2.24600E+02-6.86634E+04 6.67356E-10 5.39573E-09
 -1       849-1.87947E+05-2.73319E+04-6.74588E+01-7.16822E+04 2.95572E-10 3.54292E-09
 -1       850-1.90598E+05-2.46325E+04 3.51112E+01-6.86395E+04-4.29864E-09-9.84043E-09
 -1       851-1.87971E+05-2.73592E+04 1.31885E+02-7.16743E+04-8.77778E-09-7.66951E-09
 -1       852-1.90436E+05-2.44894E+04 4.03797E+02-6.87184E+04 6.91612E-09 4.58922E-09
 -1       853-1.88108E+05-2.74746E+04 6.64566E+02-7.16030E+04 2.26056E-09 2.76256E-09
 -1       854-1.89632E+05-2.34394E+04 1.97361E+03-6.90633E+04 3.20428E-09 4.52303E-10
 -1       855-1.88771E+05-2.84033E+04 2.85628E+03-7.13305E+04-3.75422E-10-2.47496E-09
 -1       856-6.65460E+05 1.78358E+04-6.55724E+04 3.30525E+03-1.19644E-08 1.48793E-09
 -1       857-6.89920E+05-2.26630E+04-4.28033E+04 2.69434E+04-1.07630E-08 2.74667E-10
 -1       858-6.75594E+05 1.98736E+03-1.70364E+04 2.95468E+03-1.57565E-08-1.73895E-09
 -1       859-6.78694E+05-2.31285E+03-9.67667E+03 2.75018E+04 1.50430E-09-5.20777E-09
 -1       860-6.76843E+05 2.41844E+02-4.35304E+03 2.74131E+03 6.61521E-09-4.36216E-09
 -1       861-6.77382E+05-5.71891E+01-2.37806E+03 2.78312E+04-6.40330E-09-5.38193E-09
 -1       862-6.77013E+05 5.78010E+01-1.25230E+03 2.62372E+03 1.14542E-08-6.32360E-09
 -1       863-6.77252E+05 1.84167E+02-9.19746E+02 2.79762E+04 3.95621E-08-4.44010E-09
 -1       864-6.77024E+05 5.31610E+01-9.70647E+02 2.59581E+03 2.26347E-08-4.36557E-09
 -1       865-6.77337E+05 4.82616E+01-1.63318E+03 2.79407E+04 2.43674E-08-9.33126E-09
 -1       866-6.76916E+05 1.73559E+02-2.88138E+03 2.65942E+03-6.14750E-09-3.70164E-09
 -1       867-6.78190E+05-1.42528E+03-6.34514E+03 2.77225E+04-1.15497E-08 2.50111E-10
 -1       868-6.76100E+05 1.31196E+03-1.11452E+04 2.81509E+03 9.81436E-09-1.44246E-09
 -1       869-6.85506E+05-1.47354E+04-2.79845E+04 2.72801E+04-1.17075E-09-2.78169E-09
 -1       870-6.69474E+05 1.16646E+04-4.28729E+04 3.10664E+03 9.29413E-09-1.28239E-09
 -1       871-5.28087E+03-4.51815E+04-8.51821E+03 1.27365E+05-1.92813E-08-1.19780E-09
 -1       872-1.90032E+03-4.66265E+04-2.41909E+03 1.47255E+05-1.86101E-08-5.50062E-09
 -1       873-1.55418E+02-4.61719E+04 2.62001E+03 1.27132E+05-1.63482E-08-4.26098E-09
 -1       874 2.90190E+03-4.41139E+04 9.59804E+03 1.47384E+05-2.23645E-08-1.51850E-08
 -1       875 1.03523E+04-4.78587E+04 2.07850E+04 1.27276E+05-1.95587E-08-8.10064E-09
 -1       876 7.46300E+05 9.03907E+04 7.12441E+04 2.93686E+05-1.19708E-08 9.67702E-10
 -1       877 7.63623E+05 1.51146E+05 4.58734E+04 3.03120E+05-3.03368E-09 3.36422E-09
 -1       878 7.58910E+05 1.08989E+05 1.68301E+04 2.91445E+05-1.51761E-09 2.02544E-09
 -1       879 7.49194E+05 1.28017E+05 9.47815E+03 3.06229E+05-2.32242E-08-1.07630E-08
 -1       880 7.60330E+05 1.11301E+05 3.93816E+03 2.91377E+05 1.37275E-08 7.48059E-11
 -1       881 7.47585E+05 1.25162E+05 2.15064E+03 3.06259E+05 1.14037E-08-4.66218E-09
 -1       882 7.60436E+05 1.11653E+05 1.12696E+03 2.91463E+05-5.91660E-09-1.63698E-09
 -1       883 7.47488E+05 1.24782E+05 9.74625E+02 3.06130E+05-3.52316E-09 3.08934E-09
 -1       884 7.60400E+05 1.11679E+05 1.24986E+03 2.91495E+05 1.83621E-08 8.29738E-09
 -1       885 7.47730E+05 1.25110E+05 2.49171E+03 3.06110E+05 1.54251E-08 1.91295E-09
 -1       886 7.60198E+05 1.11345E+05 4.62313E+03 2.91476E+05-4.83305E-09-9.90440E-10
 -1       887 7.49758E+05 1.28319E+05 1.11461E+04 3.05876E+05-6.78779E-09-5.35488E-09
 -1       888 7.58436E+05 1.08717E+05 1.98172E+04 2.91648E+05 6.00210E-09-4.15639E-09
 -1       889 7.66884E+05 1.55375E+05 5.39956E+04 3.01992E+05 9.93566E-09-3.24053E-09
 -1       890 7.43498E+05 8.69270E+04 8.38876E+04 2.94385E+05-1.43882E-09-4.70027E-09
 -1       891 2.93526E+03-3.26596E+05-1.22010E+04 2.21851E+04-7.68205E-09 1.25783E-09
 -1       892-5.06875E+03-3.30853E+05-1.00865E+04 1.24841E+05 8.41737E-09 4.78440E-09
 -1       893 9.03895E+02-3.27953E+05-8.07412E+03 2.20053E+04 2.80966E-09 2.78371E-09
 -1       894-7.97631E+03-3.32447E+05-1.48722E+04 1.24820E+05 3.64071E-09-1.01318E-09
 -1       895 5.44087E+03-3.24966E+05-2.10852E+04 2.22043E+04-2.37105E-09 2.18279E-10
 -1       896 1.18526E+06-8.24866E+03 1.97206E+04 3.97949E+03-6.49493E-10-2.62298E-09
 -1       897 1.19392E+06 9.55019E+03 1.39063E+04-9.97578E+03-8.13685E-10 6.09589E-10
 -1       898 1.18862E+06-1.25224E+03 5.13019E+03 2.18481E+03-7.41920E-10-1.10686E-09
 -1       899 1.18999E+06 1.44718E+03 3.23224E+03-7.13241E+03 1.19860E-09 2.99451E-10
 -1       900 1.18918E+06-1.91669E+02 1.38826E+03 1.13615E+03 5.19890E-10 1.38584E-10
 -1       901 1.18934E+06 2.38758E+02 9.35447E+02-5.55127E+03 2.33413E-10 4.09607E-10
 -1       902 1.18926E+06-4.60834E+01 6.77041E+02 6.03650E+02 1.67603E-10 8.11832E-10
 -1       903 1.18930E+06 1.72825E+02 9.39377E+02-4.88718E+03 4.98190E-10-1.77153E-10
 -1       904 1.18922E+06-1.24253E+02 1.47288E+03 4.72045E+02-9.16156E-11 6.11749E-10
 -1       905 1.18972E+06 9.31849E+02 3.20861E+03-4.99730E+03-2.44214E-11 7.32712E-11
 -1       906 1.18885E+06-8.00835E+02 5.53264E+03 7.13778E+02-4.65377E-10 2.50111E-12
 -1       907 1.19233E+06 6.13243E+03 1.34484E+04-5.90614E+03 4.92264E-10 9.36780E-11
 -1       908 1.18660E+06-5.29104E+03 2.16421E+04 1.38090E+03-7.86713E-11 6.15728E-10
 -1       909 1.20847E+06 4.04182E+04 5.86331E+04-7.82777E+03 3.73120E-10-4.80213E-10
 -1       910 1.17269E+06-3.48287E+04 8.34987E+04 2.63514E+03 5.80030E-10-1.09503E-09
 -1       911 3.81219E+05-5.08102E+03 1.21116E+04 1.94122E+03 2.12594E-11-1.35651E-09
 -1       912 3.86676E+05 5.88342E+03 8.56522E+03-8.26069E+03-1.51886E-10 7.59769E-10
 -1       913 3.83296E+05-7.74723E+02 3.15547E+03 1.34149E+03-4.23768E-10 2.65231E-10
 -1       914 3.84226E+05 9.00924E+02 2.01498E+03-7.26450E+03-3.66299E-10-3.62746E-10
 -1       915 3.83649E+05-1.21641E+02 8.91745E+02 9.45045E+02 1.11197E-09 1.15577E-09
 -1       916 3.83805E+05 1.67740E+02 6.66254E+02-6.64816E+03 1.73794E-09 1.08088E-10
 -1       917 3.83705E+05-3.86209E+01 5.83579E+02 7.25135E+02 1.30396E-09 2.15861E-09
 -1       918 3.83800E+05 1.85442E+02 9.44370E+02-6.36995E+03-4.74181E-11-5.23897E-10
 -1       919 3.83649E+05-1.36076E+02 1.57694E+03 6.66837E+02 1.61949E-09 2.92948E-09
 -1       920 3.84265E+05 1.03349E+03 3.50262E+03-6.41055E+03 1.39815E-09 2.91095E-10
 -1       921 3.83240E+05-8.82035E+02 6.06530E+03 7.65746E+02 1.21139E-09 3.40651E-09
 -1       922 3.87145E+05 6.75342E+03 1.47710E+04-6.77246E+03 1.42698E-09 8.84029E-10
 -1       923 3.80772E+05-5.82008E+03 2.37731E+04 1.02879E+03 8.33040E-10 2.28647E-09
 -1       924 4.04903E+05 4.44501E+04 6.44420E+04-7.49042E+03 6.63363E-10-4.14730E-10
 -1       925 3.65495E+05-3.82956E+04 9.17801E+04 1.48363E+03 8.22240E-10 5.05679E-10
 -1       926-1.54576E+06 3.37272E+04-8.07427E+04-4.57652E+02 3.35855E-09-1.09867E-09
 -1       927-1.58019E+06-3.91431E+04-5.66888E+04-4.02100E+01 2.59407E-09 1.28966E-09
 -1       928-1.55916E+06 5.12255E+03-2.09005E+04-9.82912E+02 6.94243E-10-9.07676E-10
 -1       929-1.56461E+06-5.93711E+03-1.29696E+04 8.82591E+02-2.82114E-10-1.73509E-09
 -1       930-1.56131E+06 7.73607E+02-5.30890E+03-1.38052E+03-4.97835E-10-1.02705E-09
 -1       931-1.56210E+06-8.92099E+02-3.03348E+03 1.44488E+03-7.90429E-10 8.96080E-10
 -1       932-1.56166E+06 1.13406E+02-1.30477E+03-1.54523E+03 5.20926E-10-1.13556E-09
 -1       933-1.56167E+06-1.18066E+02-6.56675E+02 1.49805E+03 3.04183E-10-3.81263E-10
 -1       934-1.56173E+06 4.22801E+00-1.98707E+02-1.43370E+03 3.24420E-10-9.55708E-10
 -1       935-1.56155E+06 7.32786E+01 1.34593E+02 1.02768E+03 6.56662E-10-5.89537E-10
 -1       936-1.56178E+06-7.75265E+01 4.58303E+02-1.07485E+03-4.16307E-10-6.91671E-10
 -1       937-1.56128E+06 6.03562E+02 1.28186E+03 1.57361E+02 1.09291E-09-9.37689E-10
 -1       938-1.56200E+06-5.23029E+02 2.11116E+03-5.63362E+02 1.07515E-09-1.88413E-09
 -1       939-1.55969E+06 3.99303E+03 5.77545E+03-8.84083E+02 4.13621E-10-2.78760E-10
 -1       940-1.56336E+06-3.44114E+03 8.23585E+03-3.33880E+01 3.03501E-10 3.20142E-10
 -1       941 5.93884E+06-2.84507E+05 6.85688E+05-1.57897E+02 1.39910E-08 6.28643E-09
 -1       942 6.23072E+06 3.30461E+05 4.80420E+05 6.92759E+03 1.62605E-08-5.70435E-09
 -1       943 6.05256E+06-4.32433E+04 1.77964E+05 1.84010E+03 7.11374E-09-4.58385E-10
 -1       944 6.09952E+06 5.01613E+04 1.10652E+05 4.23432E+03 9.39567E-10-3.07773E-09
 -1       945 6.07097E+06-6.55865E+03 4.59848E+04 2.53538E+03 2.57454E-09 3.02316E-09
 -1       946 6.07848E+06 7.70643E+03 2.73087E+04 3.25818E+03 2.77616E-09 8.00901E-09
 -1       947 6.07395E+06-1.10037E+03 1.38289E+04 2.81651E+03 1.42827E-09 6.19093E-09
 -1       948 6.07548E+06 2.05753E+03 1.13888E+04 2.76189E+03 2.85684E-10 4.76119E-09
 -1       949 6.07405E+06-9.45690E+02 1.22431E+04 3.03172E+03-1.49224E-09-1.15988E-08
 -1       950 6.07773E+06 6.33921E+03 2.27811E+04 2.12921E+03 1.72909E-09 7.54881E-09
 -1       951 6.07165E+06-5.35429E+03 3.77389E+04 3.44916E+03-3.15503E-09-8.26913E-09
 -1       952 6.09485E+06 4.09080E+04 9.03559E+04 5.64439E+02-9.54220E-10-4.20914E-09
 -1       953 6.05664E+06-3.52621E+04 1.45162E+05 4.59617E+03-5.55613E-09 2.18279E-11
 -1       954 6.20185E+06 2.69467E+05 3.91772E+05-3.99371E+03-4.70534E-09-1.16415E-09
 -1       955 5.96378E+06-2.32024E+05 5.58851E+05 8.00394E+03-1.42339E-08-1.28057E-09
 -1       956-3.34771E+05-5.46074E+03-1.08410E+04 5.21099E+04-1.00354E-08 6.85759E-10
 -1       957-3.36711E+05-1.66428E+03-5.43681E+03 5.97934E+04-3.73620E-09-6.69388E-10
 -1       958-3.35690E+05-1.58317E+02-2.44634E+03 5.17822E+04 6.95582E-09 1.07411E-09
 -1       959-3.35910E+05 8.14086E+01-1.24000E+03 6.01515E+04-2.01544E-09 3.13230E-09
 -1       960-3.35848E+05 1.55260E+02-6.03265E+02 5.17451E+04-1.01572E-08 4.88853E-10
 -1       961-3.35903E+05 2.04349E+02-3.16508E+02 6.01934E+04-1.94086E-08 3.19415E-09
 -1       962-3.35918E+05 1.89195E+02-1.78906E+02 5.17392E+04-6.50289E-09 1.56979E-09
 -1       963-3.35948E+05 2.33628E+02-1.36408E+02 6.02012E+04-9.49149E-09 4.40423E-09
 -1       964-3.35955E+05 2.11404E+02-1.58996E+02 5.17368E+04 1.90994E-11 2.43426E-09
 -1       965-3.35985E+05 2.50950E+02-2.68473E+02 6.02025E+04 6.90716E-09 6.41785E-09
 -1       966-3.35960E+05 2.22680E+02-5.01886E+02 5.17377E+04-9.28043E-09 4.07044E-09
 -1       967-3.36062E+05 1.87927E+02-1.03386E+03 6.01871E+04-4.57817E-10 7.29688E-09
 -1       968-3.35888E+05-2.14280E+00-2.03466E+03 5.17527E+04-5.12000E-09 6.87351E-10
 -1       969-3.36798E+05-1.23544E+03-4.53286E+03 6.00393E+04-1.71331E-08 1.52613E-09
 -1       970-3.35168E+05-4.40431E+03-9.03339E+03 5.18964E+04-8.30960E-09 4.62023E-09
 -1       971-8.58258E+05 1.53141E+04-5.63670E+04 2.85880E+03-6.34918E-09 1.70985E-09
 -1       972-8.79215E+05-1.94748E+04-3.67861E+04 2.60119E+04-1.38880E-08-2.63299E-09
 -1       973-8.66966E+05 1.69923E+03-1.46536E+04 2.40287E+03-9.22319E-09-5.05679E-10
 -1       974-8.69594E+05-1.97460E+03-8.33023E+03 2.67544E+04 1.08048E-09-1.19144E-09
 -1       975-8.68039E+05 2.04097E+02-3.77633E+03 2.11190E+03 1.92676E-09-1.71644E-09
 -1       976-8.68492E+05-2.80445E+01-2.11068E+03 2.72135E+04-1.83104E-08-1.01579E-09
 -1       977-8.68184E+05 5.10886E+01-1.21074E+03 1.94228E+03 1.70794E-08-2.38998E-09
 -1       978-8.68411E+05 1.72838E+02-1.06825E+03 2.74366E+04 4.17654E-08-2.92744E-09
 -1       979-8.68181E+05 6.11194E+01-1.37172E+03 1.88833E+03 2.13540E-08-3.29742E-09
 -1       980-8.68589E+05-6.17601E+01-2.54878E+03 2.74270E+04 2.36701E-08-4.69335E-09
 -1       981-8.68005E+05 2.65701E+02-4.62558E+03 1.95203E+03 4.39832E-09-2.49679E-09
 -1       982-8.70026E+05-2.43965E+03-1.02824E+04 2.71834E+04-9.21318E-09-3.67436E-09
 -1       983-8.66683E+05 2.12951E+03-1.80781E+04 2.13330E+03 1.82217E-08-1.61890E-09
 -1       984-8.81994E+05-2.40355E+04-4.54538E+04 2.66768E+04 1.33332E-09-3.40242E-09
 -1       985-8.55928E+05 1.89722E+04-6.96036E+04 2.46629E+03 8.10178E-09-1.96815E-09
 -3
 9999
