
 stresses (elem, integ.pnt.,sxx,syy,szz,sxy,sxz,syz) for set ELALL and time  0.1000000E+01

         1   1 -5.434486E+06 -6.618219E+05 -8.630645E+05 -6.564187E+04 -5.870143E+05  6.258477E+01
         1   2 -5.301728E+06  1.540302E+05 -3.679907E+05 -1.668889E+04 -3.859424E+05  1.046015E+01
         1   3 -5.432735E+06  2.224647E+04 -2.414195E+05  3.227356E+04 -1.848799E+05 -9.691995E+00
         1   4 -5.434491E+06 -6.618301E+05 -8.630656E+05  6.116967E-08 -5.870143E+05 -4.197202E-10
         1   5 -5.301728E+06  1.540297E+05 -3.679908E+05  1.299759E-07 -3.859424E+05 -5.808252E-10
         1   6 -5.432736E+06  2.224449E+04 -2.414198E+05  1.514218E-07 -1.848799E+05  1.654267E-10
         1   7 -5.434486E+06 -6.618219E+05 -8.630645E+05  6.564187E+04 -5.870143E+05 -6.258477E+01
         1   8 -5.301728E+06  1.540302E+05 -3.679907E+05  1.668889E+04 -3.859424E+05 -1.046015E+01
         1   9 -5.432735E+06  2.224647E+04 -2.414195E+05 -3.227356E+04 -1.848799E+05  9.691995E+00
         1  10 -5.434859E+06 -6.619154E+05 -8.637177E+05 -6.564185E+04  8.492175E-10 -3.890509E-10
         1  11 -5.301889E+06  1.539898E+05 -3.682731E+05 -1.668889E+04 -3.093347E-09  1.301569E-09
         1  12 -5.432772E+06  2.223719E+04 -2.414843E+05  3.227355E+04  9.103341E-10 -5.613045E-10
         1  13 -5.434863E+06 -6.619236E+05 -8.637188E+05  2.678440E-08 -2.064534E-09  3.536580E-11
         1  14 -5.301889E+06  1.539893E+05 -3.682731E+05  4.397702E-08 -2.161535E-09  3.681850E-10
         1  15 -5.432773E+06  2.223522E+04 -2.414846E+05  4.395518E-08 -4.614661E-09 -6.459890E-10
         1  16 -5.434859E+06 -6.619154E+05 -8.637177E+05  6.564185E+04  1.877494E-10 -3.496476E-10
         1  17 -5.301889E+06  1.539898E+05 -3.682731E+05  1.668889E+04 -1.664664E-09  1.055571E-09
         1  18 -5.432772E+06  2.223719E+04 -2.414843E+05 -3.227355E+04 -9.063482E-10  1.092449E-09
         1  19 -5.434486E+06 -6.618219E+05 -8.630645E+05 -6.564187E+04  5.870143E+05 -6.258477E+01
         1  20 -5.301728E+06  1.540302E+05 -3.679907E+05 -1.668889E+04  3.859424E+05 -1.046015E+01
         1  21 -5.432735E+06  2.224647E+04 -2.414195E+05  3.227356E+04  1.848799E+05  9.691995E+00
         1  22 -5.434491E+06 -6.618301E+05 -8.630656E+05  9.554837E-08  5.870143E+05  7.940005E-10
         1  23 -5.301728E+06  1.540297E+05 -3.679908E+05  6.117398E-08  3.859424E+05  1.485127E-09
         1  24 -5.432736E+06  2.224449E+04 -2.414198E+05  8.264597E-08  1.848799E+05 -1.298961E-09
         1  25 -5.434486E+06 -6.618219E+05 -8.630645E+05  6.564187E+04  5.870143E+05  6.258477E+01
         1  26 -5.301728E+06  1.540302E+05 -3.679907E+05  1.668889E+04  3.859424E+05  1.046015E+01
         1  27 -5.432735E+06  2.224647E+04 -2.414195E+05 -3.227356E+04  1.848799E+05 -9.691995E+00
         2   1 -5.384058E+06 -1.003590E+05 -1.997511E+05 -9.502704E+03 -1.451536E+05  2.240352E+00
         2   2 -5.362592E+06  2.339796E+04 -9.515809E+04 -2.251701E+03 -9.528293E+04  3.484651E-01
         2   3 -5.383715E+06  3.284845E+03 -5.920035E+04  4.999342E+03 -4.541109E+04 -3.687423E-01
         2   4 -5.384059E+06 -1.003592E+05 -1.997511E+05  4.232292E-08 -1.451536E+05 -1.692410E-10
         2   5 -5.362592E+06  2.339795E+04 -9.515809E+04  3.533504E-08 -9.528293E+04 -9.972051E-10
         2   6 -5.383715E+06  3.284798E+03 -5.920036E+04  6.835451E-09 -4.541109E+04  1.311074E-09
         2   7 -5.384058E+06 -1.003590E+05 -1.997511E+05  9.502704E+03 -1.451536E+05 -2.240352E+00
         2   8 -5.362592E+06  2.339796E+04 -9.515809E+04  2.251701E+03 -9.528293E+04 -3.484651E-01
         2   9 -5.383715E+06  3.284845E+03 -5.920035E+04 -4.999342E+03 -4.541109E+04  3.687423E-01
         2  10 -5.384081E+06 -1.003647E+05 -1.997911E+05 -9.502703E+03  9.588184E-10  3.780700E-10
         2  11 -5.362602E+06  2.339550E+04 -9.517530E+04 -2.251701E+03 -2.508269E-09  1.922184E-11
         2  12 -5.383718E+06  3.284286E+03 -5.920426E+04  4.999341E+03  2.288789E-10 -1.421904E-09
         2  13 -5.384081E+06 -1.003649E+05 -1.997911E+05 -6.083862E-08 -4.177072E-09 -5.285604E-10
         2  14 -5.362602E+06  2.339549E+04 -9.517530E+04  8.691757E-08  2.451459E-09 -6.945442E-10
         2  15 -5.383718E+06  3.284239E+03 -5.920427E+04 -4.903326E-08  4.318965E-09  6.563758E-11
         2  16 -5.384081E+06 -1.003647E+05 -1.997911E+05  9.502703E+03  2.130657E-09  2.192030E-10
         2  17 -5.362602E+06  2.339550E+04 -9.517530E+04  2.251701E+03  2.300829E-10  1.793141E-10
         2  18 -5.383718E+06  3.284286E+03 -5.920426E+04 -4.999341E+03  2.236386E-09 -1.206753E-09
         2  19 -5.384058E+06 -1.003590E+05 -1.997511E+05 -9.502704E+03  1.451536E+05 -2.240352E+00
         2  20 -5.362592E+06  2.339796E+04 -9.515809E+04 -2.251701E+03  9.528293E+04 -3.484651E-01
         2  21 -5.383715E+06  3.284845E+03 -5.920035E+04  4.999342E+03  4.541109E+04  3.687423E-01
         2  22 -5.384059E+06 -1.003592E+05 -1.997511E+05  4.231021E-08  1.451536E+05 -1.055457E-09
         2  23 -5.362592E+06  2.339795E+04 -9.515809E+04  1.728970E-07  9.528293E+04  3.803488E-10
         2  24 -5.383715E+06  3.284798E+03 -5.920036E+04  1.744920E-07  4.541109E+04 -6.171622E-10
         2  25 -5.384058E+06 -1.003590E+05 -1.997511E+05  9.502704E+03  1.451536E+05  2.240352E+00
         2  26 -5.362592E+06  2.339796E+04 -9.515809E+04  2.251701E+03  9.528293E+04  3.484651E-01
         2  27 -5.383715E+06  3.284845E+03 -5.920035E+04 -4.999342E+03  4.541109E+04 -3.687423E-01
         3   1 -5.375894E+06 -1.513544E+04 -4.743827E+04 -1.322792E+03 -3.580052E+04  7.691722E-02
         3   2 -5.372312E+06  3.546693E+03 -2.439961E+04 -2.709296E+02 -2.332559E+04  1.026433E-02
         3   3 -5.375826E+06  4.429343E+02 -1.498121E+04  7.809123E+02 -1.085070E+04 -1.376271E-02
         3   4 -5.375894E+06 -1.513545E+04 -4.743827E+04  5.326376E-08 -3.580052E+04  1.172856E-09
         3   5 -5.372312E+06  3.546693E+03 -2.439961E+04 -5.787037E-08 -2.332559E+04 -3.417545E-10
         3   6 -5.375826E+06  4.429331E+02 -1.498121E+04 -4.436319E-08 -1.085070E+04 -7.106163E-11
         3   7 -5.375894E+06 -1.513544E+04 -4.743827E+04  1.322792E+03 -3.580052E+04 -7.691722E-02
         3   8 -5.372312E+06  3.546693E+03 -2.439961E+04  2.709296E+02 -2.332559E+04 -1.026433E-02
         3   9 -5.375826E+06  4.429343E+02 -1.498121E+04 -7.809123E+02 -1.085070E+04  1.376271E-02
         3  10 -5.375896E+06 -1.513579E+04 -4.744070E+04 -1.322792E+03 -4.956340E-09  1.304567E-10
         3  11 -5.372312E+06  3.546545E+03 -2.440064E+04 -2.709296E+02 -4.926820E-09  5.676194E-11
         3  12 -5.375826E+06  4.429023E+02 -1.498143E+04  7.809123E+02 -3.822172E-09  1.757181E-10
         3  13 -5.375896E+06 -1.513579E+04 -4.744070E+04  5.327636E-08 -4.244021E-09  5.938821E-10
         3  14 -5.372312E+06  3.546545E+03 -2.440064E+04  4.529718E-08  1.074615E-09  1.024289E-09
         3  15 -5.375826E+06  4.429012E+02 -1.498143E+04 -1.002383E-07 -1.075204E-09  4.323411E-10
         3  16 -5.375896E+06 -1.513579E+04 -4.744070E+04  1.322792E+03  3.250997E-09 -1.282520E-10
         3  17 -5.372312E+06  3.546545E+03 -2.440064E+04  2.709296E+02  4.775065E-09  1.563813E-09
         3  18 -5.375826E+06  4.429023E+02 -1.498143E+04 -7.809123E+02 -8.514943E-10  1.313097E-09
         3  19 -5.375894E+06 -1.513544E+04 -4.743827E+04 -1.322792E+03  3.580052E+04 -7.691721E-02
         3  20 -5.372312E+06  3.546693E+03 -2.439961E+04 -2.709296E+02  2.332559E+04 -1.026433E-02
         3  21 -5.375826E+06  4.429343E+02 -1.498121E+04  7.809123E+02  1.085070E+04  1.376271E-02
         3  22 -5.375894E+06 -1.513545E+04 -4.743827E+04  1.908307E-07  3.580052E+04 -1.520315E-10
         3  23 -5.372312E+06  3.546693E+03 -2.439961E+04  2.172435E-07  2.332559E+04  1.640892E-09
         3  24 -5.375826E+06  4.429331E+02 -1.498121E+04 -9.966240E-09  1.085070E+04  9.383887E-11
         3  25 -5.375894E+06 -1.513544E+04 -4.743827E+04  1.322792E+03  3.580052E+04  7.691721E-02
         3  26 -5.372312E+06  3.546693E+03 -2.439961E+04  2.709296E+02  2.332559E+04  1.026433E-02
         3  27 -5.375826E+06  4.429343E+02 -1.498121E+04 -7.809123E+02  1.085070E+04 -1.376271E-02
         4   1 -5.374561E+06 -2.256465E+03 -1.197604E+04 -1.825970E+02 -8.420329E+03  2.497274E-03
         4   2 -5.373871E+06  5.851483E+02 -7.098197E+03 -2.363344E+01 -4.847862E+03  1.860915E-04
         4   3 -5.374549E+06 -1.605638E+02 -5.458201E+03  1.353322E+02 -1.275330E+03 -2.803250E-04
         4   4 -5.374561E+06 -2.256465E+03 -1.197604E+04  2.517584E-07 -8.420329E+03  4.699045E-10
         4   5 -5.373871E+06  5.851483E+02 -7.098197E+03  1.628745E-08 -4.847862E+03  2.455147E-09
         4   6 -5.374549E+06 -1.605638E+02 -5.458201E+03  1.246962E-07 -1.275330E+03 -1.502517E-10
         4   7 -5.374561E+06 -2.256465E+03 -1.197604E+04  1.825970E+02 -8.420329E+03 -2.497270E-03
         4   8 -5.373871E+06  5.851483E+02 -7.098197E+03  2.363344E+01 -4.847862E+03 -1.860895E-04
         4   9 -5.374549E+06 -1.605638E+02 -5.458201E+03 -1.353322E+02 -1.275330E+03  2.803204E-04
         4  10 -5.374561E+06 -2.256484E+03 -1.197617E+04 -1.825970E+02  8.677528E-10 -1.484286E-09
         4  11 -5.373871E+06  5.851419E+02 -7.098241E+03 -2.363344E+01  3.982672E-09  1.086820E-09
         4  12 -5.374549E+06 -1.605642E+02 -5.458204E+03  1.353322E+02  3.892562E-09  1.560643E-09
         4  13 -5.374561E+06 -2.256484E+03 -1.197617E+04 -9.212948E-08 -2.593320E-09  4.403366E-10
         4  14 -5.373871E+06  5.851419E+02 -7.098241E+03  6.787124E-08 -1.906249E-09  1.719053E-09
         4  15 -5.374549E+06 -1.605642E+02 -5.458204E+03  4.732217E-08  1.952358E-09 -2.795531E-10
         4  16 -5.374561E+06 -2.256484E+03 -1.197617E+04  1.825970E+02 -3.662129E-09  2.079933E-10
         4  17 -5.373871E+06  5.851419E+02 -7.098241E+03  2.363344E+01 -8.289954E-10  1.273446E-09
         4  18 -5.374549E+06 -1.605642E+02 -5.458204E+03 -1.353322E+02 -2.731533E-09  1.465934E-09
         4  19 -5.374561E+06 -2.256465E+03 -1.197604E+04 -1.825970E+02  8.420329E+03 -2.497273E-03
         4  20 -5.373871E+06  5.851483E+02 -7.098197E+03 -2.363344E+01  4.847862E+03 -1.860847E-04
         4  21 -5.374549E+06 -1.605638E+02 -5.458201E+03  1.353322E+02  1.275330E+03  2.803269E-04
         4  22 -5.374561E+06 -2.256465E+03 -1.197604E+04  1.141982E-07  8.420329E+03  6.476420E-10
         4  23 -5.373871E+06  5.851483E+02 -7.098197E+03  1.628222E-08  4.847862E+03  3.768104E-10
         4  24 -5.374549E+06 -1.605638E+02 -5.458201E+03  2.153921E-08  1.275330E+03 -8.461365E-10
         4  25 -5.374561E+06 -2.256465E+03 -1.197604E+04  1.825970E+02  8.420329E+03  2.497273E-03
         4  26 -5.373871E+06  5.851483E+02 -7.098197E+03  2.363344E+01  4.847862E+03  1.860833E-04
         4  27 -5.374549E+06 -1.605638E+02 -5.458201E+03 -1.353322E+02  1.275330E+03 -2.803286E-04
         5   1 -5.374478E+06 -2.881415E+02 -5.198112E+03 -1.015675E+02 -3.145203E+02  5.189372E-05
         5   2 -5.373957E+06  4.403351E+02 -5.641908E+03  1.663246E+01  2.521902E+03  6.813089E-05
         5   3 -5.374485E+06 -1.530052E+03 -8.619090E+03  1.348325E+02  5.358320E+03  1.173459E-03
         5   4 -5.374478E+06 -2.881416E+02 -5.198112E+03  2.794959E-07 -3.145204E+02 -8.920948E-10
         5   5 -5.373957E+06  4.403351E+02 -5.641908E+03  6.611625E-08  2.521902E+03  1.686312E-09
         5   6 -5.374485E+06 -1.530052E+03 -8.619091E+03  1.049169E-09  5.358320E+03  1.946882E-09
         5   7 -5.374478E+06 -2.881415E+02 -5.198112E+03  1.015675E+02 -3.145203E+02 -5.188942E-05
         5   8 -5.373957E+06  4.403351E+02 -5.641908E+03 -1.663246E+01  2.521902E+03 -6.812954E-05
         5   9 -5.374485E+06 -1.530052E+03 -8.619090E+03 -1.348325E+02  5.358320E+03 -1.173457E-03
         5  10 -5.374478E+06 -2.881416E+02 -5.198113E+03 -1.015675E+02  2.925504E-09  1.749617E-09
         5  11 -5.373957E+06  4.403334E+02 -5.641920E+03  1.663246E+01  3.126559E-09  6.785927E-10
         5  12 -5.374485E+06 -1.530060E+03 -8.619145E+03  1.348325E+02 -1.329403E-10  7.666555E-10
         5  13 -5.374478E+06 -2.881416E+02 -5.198113E+03  9.036997E-08  2.568302E-09 -2.757448E-10
         5  14 -5.373957E+06  4.403334E+02 -5.641920E+03  3.173301E-08 -2.913848E-09  1.081412E-09
         5  15 -5.374485E+06 -1.530060E+03 -8.619145E+03 -1.128689E-07  1.731363E-09  1.283736E-09
         5  16 -5.374478E+06 -2.881416E+02 -5.198113E+03  1.015675E+02 -7.479585E-09 -9.537467E-10
         5  17 -5.373957E+06  4.403334E+02 -5.641920E+03 -1.663246E+01 -1.991171E-09  3.101972E-09
         5  18 -5.374485E+06 -1.530060E+03 -8.619145E+03 -1.348325E+02 -2.021538E-10  3.268849E-10
         5  19 -5.374478E+06 -2.881415E+02 -5.198112E+03 -1.015675E+02  3.145204E+02 -5.188780E-05
         5  20 -5.373957E+06  4.403351E+02 -5.641908E+03  1.663246E+01 -2.521902E+03 -6.812497E-05
         5  21 -5.374485E+06 -1.530052E+03 -8.619090E+03  1.348325E+02 -5.358320E+03 -1.173458E-03
         5  22 -5.374478E+06 -2.881416E+02 -5.198112E+03  5.598049E-08  3.145204E+02 -6.389308E-10
         5  23 -5.373957E+06  4.403351E+02 -5.641908E+03  1.005141E-07 -2.521902E+03 -5.506493E-10
         5  24 -5.374485E+06 -1.530052E+03 -8.619091E+03  1.106445E-07 -5.358320E+03 -5.466938E-10
         5  25 -5.374478E+06 -2.881415E+02 -5.198112E+03  1.015675E+02  3.145203E+02  5.188294E-05
         5  26 -5.373957E+06  4.403351E+02 -5.641908E+03 -1.663246E+01 -2.521902E+03  6.812172E-05
         5  27 -5.374485E+06 -1.530052E+03 -8.619090E+03 -1.348325E+02 -5.358320E+03  1.173455E-03
         6   1 -5.375324E+06  2.755801E+02 -1.055181E+04 -5.314563E+02  7.086598E+03 -6.117147E-03
         6   2 -5.372923E+06  2.418168E+03 -1.679610E+04  1.849402E+02  1.567106E+04  4.707301E-03
         6   3 -5.375370E+06 -1.029262E+04 -3.237873E+04  9.013281E+02  2.425534E+04  3.550858E-02
         6   4 -5.375324E+06  2.755796E+02 -1.055181E+04  4.315011E-08  7.086598E+03  1.072045E-09
         6   5 -5.372923E+06  2.418168E+03 -1.679610E+04  9.505926E-08  1.567106E+04  8.291209E-11
         6   6 -5.375370E+06 -1.029262E+04 -3.237873E+04  9.537733E-08  2.425534E+04  1.246357E-09
         6   7 -5.375324E+06  2.755801E+02 -1.055181E+04  5.314563E+02  7.086598E+03  6.117150E-03
         6   8 -5.372923E+06  2.418168E+03 -1.679610E+04 -1.849402E+02  1.567106E+04 -4.707304E-03
         6   9 -5.375370E+06 -1.029262E+04 -3.237873E+04 -9.013281E+02  2.425534E+04 -3.550857E-02
         6  10 -5.375324E+06  2.755665E+02 -1.055190E+04 -5.314563E+02 -2.337723E-09  1.772050E-09
         6  11 -5.372923E+06  2.418101E+03 -1.679656E+04  1.849402E+02  1.490485E-09 -6.763371E-10
         6  12 -5.375371E+06 -1.029278E+04 -3.237985E+04  9.013281E+02  5.955064E-09 -3.152630E-10
         6  13 -5.375324E+06  2.755660E+02 -1.055190E+04 -2.563635E-08 -2.501014E-09  2.042962E-10
         6  14 -5.372923E+06  2.418101E+03 -1.679656E+04 -8.108911E-09 -4.857910E-10 -1.282358E-09
         6  15 -5.375371E+06 -1.029278E+04 -3.237985E+04 -6.794199E-08  2.394075E-10  2.040974E-10
         6  16 -5.375324E+06  2.755665E+02 -1.055190E+04  5.314563E+02  2.934885E-09  1.060761E-09
         6  17 -5.372923E+06  2.418101E+03 -1.679656E+04 -1.849402E+02 -1.438965E-09 -1.351547E-09
         6  18 -5.375371E+06 -1.029278E+04 -3.237985E+04 -9.013281E+02 -5.272808E-10  4.520318E-10
         6  19 -5.375324E+06  2.755801E+02 -1.055181E+04 -5.314563E+02 -7.086598E+03  6.117152E-03
         6  20 -5.372923E+06  2.418168E+03 -1.679610E+04  1.849402E+02 -1.567106E+04 -4.707298E-03
         6  21 -5.375370E+06 -1.029262E+04 -3.237873E+04  9.013281E+02 -2.425534E+04 -3.550857E-02
         6  22 -5.375324E+06  2.755796E+02 -1.055181E+04  1.806717E-07 -7.086598E+03 -5.825784E-10
         6  23 -5.372923E+06  2.418168E+03 -1.679610E+04 -7.688419E-08 -1.567106E+04 -7.077375E-10
         6  24 -5.375370E+06 -1.029262E+04 -3.237873E+04 -4.429568E-08 -2.425534E+04 -4.344582E-10
         6  25 -5.375324E+06  2.755801E+02 -1.055181E+04  5.314563E+02 -7.086598E+03 -6.117156E-03
         6  26 -5.372923E+06  2.418168E+03 -1.679610E+04 -1.849402E+02 -1.567106E+04  4.707300E-03
         6  27 -5.375370E+06 -1.029262E+04 -3.237873E+04 -9.013281E+02 -2.425534E+04  3.550857E-02
         7   1 -5.380685E+06  2.230457E+03 -4.035037E+04 -3.399666E+03  3.081047E+04 -1.701302E-01
         7   2 -5.366318E+06  1.591274E+04 -6.476808E+04  1.531566E+03  6.475031E+04  1.610699E-01
         7   3 -5.380920E+06 -6.825144E+04 -1.358817E+05  6.462853E+03  9.869011E+04  1.035953E+00
         7   4 -5.380685E+06  2.230435E+03 -4.035037E+04  1.097414E-07  3.081047E+04  1.805278E-10
         7   5 -5.366318E+06  1.591273E+04 -6.476808E+04  1.165591E-08  6.475031E+04  2.921062E-10
         7   6 -5.380920E+06 -6.825152E+04 -1.358818E+05 -1.057879E-07  9.869011E+04 -9.891484E-10
         7   7 -5.380685E+06  2.230457E+03 -4.035037E+04  3.399666E+03  3.081047E+04  1.701302E-01
         7   8 -5.366318E+06  1.591274E+04 -6.476808E+04 -1.531566E+03  6.475031E+04 -1.610699E-01
         7   9 -5.380920E+06 -6.825144E+04 -1.358817E+05 -6.462853E+03  9.869011E+04 -1.035953E+00
         7  10 -5.380686E+06  2.230200E+03 -4.035217E+04 -3.399666E+03  3.104915E-09  7.798509E-10
         7  11 -5.366323E+06  1.591160E+04 -6.477603E+04  1.531566E+03 -3.452221E-09 -5.508502E-10
         7  12 -5.380931E+06 -6.825408E+04 -1.359002E+05  6.462853E+03 -2.372574E-09 -6.418202E-10
         7  13 -5.380686E+06  2.230178E+03 -4.035217E+04  2.375550E-08  3.505151E-10  6.442926E-10
         7  14 -5.366323E+06  1.591159E+04 -6.477603E+04 -5.712794E-08 -4.540581E-09  5.644440E-10
         7  15 -5.380931E+06 -6.825416E+04 -1.359002E+05 -1.036229E-07  2.384339E-09  6.516396E-11
         7  16 -5.380686E+06  2.230200E+03 -4.035217E+04  3.399666E+03 -9.557188E-10  7.787495E-10
         7  17 -5.366323E+06  1.591160E+04 -6.477603E+04 -1.531566E+03 -2.356056E-09  1.421803E-09
         7  18 -5.380931E+06 -6.825408E+04 -1.359002E+05 -6.462853E+03  9.383647E-10  1.647839E-09
         7  19 -5.380685E+06  2.230457E+03 -4.035037E+04 -3.399666E+03 -3.081047E+04  1.701302E-01
         7  20 -5.366318E+06  1.591274E+04 -6.476808E+04  1.531566E+03 -6.475031E+04 -1.610699E-01
         7  21 -5.380920E+06 -6.825144E+04 -1.358817E+05  6.462853E+03 -9.869011E+04 -1.035953E+00
         7  22 -5.380685E+06  2.230435E+03 -4.035037E+04  7.530846E-08 -3.081047E+04  9.719100E-10
         7  23 -5.366318E+06  1.591273E+04 -6.476808E+04 -5.713115E-08 -6.475031E+04  1.274385E-09
         7  24 -5.380920E+06 -6.825152E+04 -1.358818E+05 -2.408128E-08 -9.869011E+04  1.387510E-09
         7  25 -5.380685E+06  2.230457E+03 -4.035037E+04  3.399666E+03 -3.081047E+04 -1.701302E-01
         7  26 -5.366318E+06  1.591274E+04 -6.476808E+04 -1.531566E+03 -6.475031E+04  1.610699E-01
         7  27 -5.380920E+06 -6.825144E+04 -1.358817E+05 -6.462853E+03 -9.869011E+04  1.035953E+00
         8   1 -5.414025E+06  1.512575E+04 -1.642210E+05 -2.194755E+04  1.257186E+05 -4.481789E+00
         8   2 -5.324941E+06  1.047461E+05 -2.503439E+05  1.134805E+04  2.624500E+05  4.836971E+00
         8   3 -5.415244E+06 -4.500836E+05 -5.871040E+05  4.463960E+04  3.991872E+05  2.894259E+01
         8   4 -5.414026E+06  1.512483E+04 -1.642211E+05  9.767459E-08  1.257186E+05 -1.125204E-09
         8   5 -5.324941E+06  1.047459E+05 -2.503439E+05 -1.281088E-08  2.624500E+05  2.340339E-09
         8   6 -5.415246E+06 -4.500874E+05 -5.871045E+05 -2.943790E-09  3.991872E+05  5.855136E-10
         8   7 -5.414025E+06  1.512575E+04 -1.642210E+05  2.194755E+04  1.257186E+05  4.481789E+00
         8   8 -5.324941E+06  1.047461E+05 -2.503439E+05 -1.134805E+04  2.624500E+05 -4.836971E+00
         8   9 -5.415244E+06 -4.500836E+05 -5.871040E+05 -4.463960E+04  3.991872E+05 -2.894259E+01
         8  10 -5.414043E+06  1.512146E+04 -1.642510E+05 -2.194754E+04 -1.481513E-09  1.155403E-09
         8  11 -5.325015E+06  1.047274E+05 -2.504745E+05  1.134804E+04 -2.326761E-09  1.738407E-09
         8  12 -5.415417E+06 -4.501268E+05 -5.874060E+05  4.463959E+04  2.654737E-09  3.714095E-11
         8  13 -5.414043E+06  1.512054E+04 -1.642511E+05 -7.428100E-08  2.148941E-09  2.545068E-10
         8  14 -5.325016E+06  1.047272E+05 -2.504745E+05 -7.300548E-08 -1.909316E-09  8.158360E-10
         8  15 -5.415419E+06 -4.501306E+05 -5.874066E+05 -7.171195E-08 -3.282778E-09  4.132474E-10
         8  16 -5.414043E+06  1.512146E+04 -1.642510E+05  2.194754E+04  7.679842E-10  1.002011E-09
         8  17 -5.325015E+06  1.047274E+05 -2.504745E+05 -1.134804E+04 -3.247343E-12  4.109507E-10
         8  18 -5.415417E+06 -4.501268E+05 -5.874060E+05 -4.463959E+04 -5.390572E-10 -7.217981E-10
         8  19 -5.414025E+06  1.512575E+04 -1.642210E+05 -2.194755E+04 -1.257186E+05  4.481789E+00
         8  20 -5.324941E+06  1.047461E+05 -2.503439E+05  1.134805E+04 -2.624500E+05 -4.836971E+00
         8  21 -5.415244E+06 -4.500836E+05 -5.871040E+05  4.463960E+04 -3.991872E+05 -2.894259E+01
         8  22 -5.414026E+06  1.512483E+04 -1.642211E+05  8.047403E-08 -1.257186E+05  1.816516E-09
         8  23 -5.324941E+06  1.047459E+05 -2.503439E+05 -1.281118E-08 -2.624500E+05 -9.344555E-10
         8  24 -5.415246E+06 -4.500874E+05 -5.871045E+05 -3.731702E-08 -3.991872E+05  1.741802E-10
         8  25 -5.414025E+06  1.512575E+04 -1.642210E+05  2.194755E+04 -1.257186E+05 -4.481789E+00
         8  26 -5.324941E+06  1.047461E+05 -2.503439E+05 -1.134805E+04 -2.624500E+05  4.836971E+00
         8  27 -5.415244E+06 -4.500836E+05 -5.871040E+05 -4.463960E+04 -3.991872E+05  2.894259E+01
         9   1  2.251412E+06  8.069619E+06  2.138739E+06 -1.600520E+06  1.002637E+05  8.441107E+05
         9   2  1.794554E+06  6.878792E+06  1.426341E+06 -1.464012E+06  3.375112E+05  3.945621E+05
         9   3  1.475036E+06  5.784099E+06  1.039303E+06 -1.507440E+06  3.949956E+05 -5.386943E+04
         9   4  1.426831E+05 -5.232966E+05  1.501596E+05 -1.485305E+06  1.025189E+05  1.013468E+05
         9   5  4.792094E+04 -5.329303E+05  7.821094E+04 -1.395595E+06  3.391043E+05  6.276229E+04
         9   6  2.048986E+04 -5.178352E+05  4.865924E+04 -1.485774E+06  3.950025E+05  2.434597E+04
         9   7 -1.970886E+06 -9.047342E+06 -1.841309E+06 -1.371561E+06  1.045262E+05 -6.313189E+05
         9   8 -1.701728E+06 -7.891367E+06 -1.271714E+06 -1.327912E+06  3.406390E+05 -2.652193E+05
         9   9 -1.436010E+06 -6.780404E+06 -9.429398E+05 -1.464248E+06  3.950146E+05  1.018014E+05
         9  10  2.251213E+06  8.068859E+06  2.137397E+06 -1.600589E+06 -1.841852E-10  3.617984E-08
         9  11  1.794390E+06  6.878595E+06  1.425836E+06 -1.464119E+06 -2.315991E-09  3.352914E-09
         9  12  1.474868E+06  5.784054E+06  1.039004E+06 -1.507423E+06 -5.093922E-09 -2.912037E-08
         9  13  1.426690E+05 -5.233105E+05  1.501204E+05 -1.485313E+06 -1.120565E-09  7.045503E-11
         9  14  4.779637E+04 -5.329655E+05  7.798728E+04 -1.395613E+06 -1.907265E-09  7.127565E-11
         9  15  2.032217E+04 -5.178777E+05  4.836489E+04 -1.485782E+06  8.668328E-09  1.258680E-10
         9  16 -1.971007E+06 -9.047777E+06 -1.842088E+06 -1.371508E+06  2.110348E-11 -3.574052E-08
         9  17 -1.701872E+06 -7.891474E+06 -1.272065E+06 -1.327839E+06 -9.428617E-09 -3.349405E-09
         9  18 -1.436181E+06 -6.780458E+06 -9.432530E+05 -1.464281E+06 -4.138344E-09  2.884915E-08
         9  19  2.251412E+06  8.069619E+06  2.138739E+06 -1.600520E+06 -1.002637E+05 -8.441107E+05
         9  20  1.794554E+06  6.878792E+06  1.426341E+06 -1.464012E+06 -3.375112E+05 -3.945621E+05
         9  21  1.475036E+06  5.784099E+06  1.039303E+06 -1.507440E+06 -3.949956E+05  5.386943E+04
         9  22  1.426831E+05 -5.232966E+05  1.501596E+05 -1.485305E+06 -1.025189E+05 -1.013468E+05
         9  23  4.792094E+04 -5.329303E+05  7.821094E+04 -1.395595E+06 -3.391043E+05 -6.276229E+04
         9  24  2.048986E+04 -5.178352E+05  4.865924E+04 -1.485774E+06 -3.950025E+05 -2.434597E+04
         9  25 -1.970886E+06 -9.047342E+06 -1.841309E+06 -1.371561E+06 -1.045262E+05  6.313189E+05
         9  26 -1.701728E+06 -7.891367E+06 -1.271714E+06 -1.327912E+06 -3.406390E+05  2.652193E+05
         9  27 -1.436010E+06 -6.780404E+06 -9.429398E+05 -1.464248E+06 -3.950146E+05 -1.018014E+05
        10   1  1.302364E+06  5.058256E+06  8.927741E+05 -1.514309E+06  3.673808E+05 -6.851073E+04
        10   2  1.028548E+06  3.908978E+06  6.740896E+05 -1.407895E+06  3.185887E+05 -1.379431E+05
        10   3  7.775986E+05  2.775534E+06  5.060462E+05 -1.494589E+06  2.470870E+05 -2.074797E+05
        10   4  1.920924E+04 -5.205219E+05  4.100031E+04 -1.488729E+06  3.672488E+05  1.725437E+04
        10   5  1.649122E+04 -5.216496E+05  3.546954E+04 -1.392131E+06  3.180232E+05 -5.560722E+02
        10   6  2.783006E+04 -5.171120E+05  4.493408E+04 -1.488720E+06  2.460039E+05 -1.859041E+04
        10   7 -1.265436E+06 -6.068283E+06 -8.114191E+05 -1.463314E+06  3.671229E+05  1.022829E+05
        10   8 -9.964515E+05 -4.932495E+06 -6.033902E+05 -1.376439E+06  3.174616E+05  1.358965E+05
        10   9 -7.224022E+05 -3.798721E+06 -4.161845E+05 -1.482856E+06  2.449202E+05  1.693446E+05
        10  10  1.302218E+06  5.058215E+06  8.925120E+05 -1.514289E+06 -3.333418E-09 -1.237352E-07
        10  11  1.028434E+06  3.908931E+06  6.738638E+05 -1.407859E+06 -1.776883E-09 -2.527575E-08
        10  12  7.775218E+05  2.775472E+06  5.058515E+05 -1.494548E+06 -6.847544E-09  7.417421E-08
        10  13  1.906435E+04 -5.205584E+05  4.074630E+04 -1.488734E+06  6.039322E-09 -4.037317E-11
        10  14  1.638264E+04 -5.216767E+05  3.527953E+04 -1.392131E+06  1.543869E-08 -5.747138E-11
        10  15  2.776502E+04 -5.171286E+05  4.481979E+04 -1.488717E+06  1.692397E-08  8.956741E-11
        10  16 -1.265584E+06 -6.068331E+06 -8.116926E+05 -1.463345E+06 -7.778109E-09  1.228067E-07
        10  17 -9.965648E+05 -4.932542E+06 -6.036149E+05 -1.376474E+06 -1.706054E-09  2.464086E-08
        10  18 -7.224745E+05 -3.798768E+06 -4.163519E+05 -1.482889E+06 -5.051498E-09 -7.396545E-08
        10  19  1.302364E+06  5.058256E+06  8.927741E+05 -1.514309E+06 -3.673808E+05  6.851073E+04
        10  20  1.028548E+06  3.908978E+06  6.740896E+05 -1.407895E+06 -3.185887E+05  1.379431E+05
        10  21  7.775986E+05  2.775534E+06  5.060462E+05 -1.494589E+06 -2.470870E+05  2.074797E+05
        10  22  1.920924E+04 -5.205219E+05  4.100031E+04 -1.488729E+06 -3.672488E+05 -1.725437E+04
        10  23  1.649122E+04 -5.216496E+05  3.546954E+04 -1.392131E+06 -3.180232E+05  5.560722E+02
        10  24  2.783006E+04 -5.171120E+05  4.493408E+04 -1.488720E+06 -2.460039E+05  1.859041E+04
        10  25 -1.265436E+06 -6.068283E+06 -8.114191E+05 -1.463314E+06 -3.671229E+05 -1.022829E+05
        10  26 -9.964515E+05 -4.932495E+06 -6.033902E+05 -1.376439E+06 -3.174616E+05 -1.358965E+05
        10  27 -7.224022E+05 -3.798721E+06 -4.161845E+05 -1.482856E+06 -2.449202E+05 -1.693446E+05
        11   1  6.204557E+05  2.069205E+06  4.113287E+05 -1.496836E+06  1.975994E+05 -2.161338E+05
        11   2  3.976721E+05  9.178322E+05  2.879747E+05 -1.339922E+06  1.133093E+05 -2.664910E+05
        11   3  2.496279E+05 -2.086102E+05  2.155920E+05 -1.377714E+06  2.754827E+04 -3.168433E+05
        11   4  3.327689E+04 -5.124933E+05  5.457554E+04 -1.489090E+06  1.964160E+05 -2.642666E+04
        11   5  7.110504E+04 -5.233866E+05  9.159577E+04 -1.391378E+06  1.120483E+05 -7.357606E+04
        11   6  1.831884E+05 -5.113322E+05  1.772551E+05 -1.488288E+06  2.621817E+04 -1.207988E+05
        11   7 -5.541761E+05 -3.087359E+06 -3.021200E+05 -1.481360E+06  1.952339E+05  1.625290E+05
        11   8 -2.555210E+05 -1.962406E+06 -1.046629E+05 -1.442703E+06  1.107532E+05  1.189120E+05
        11   9  1.168125E+05 -8.138506E+05  1.390691E+05 -1.598805E+06  2.481773E+04  7.515475E+04
        11  10  6.204014E+05  2.069145E+06  4.111683E+05 -1.496802E+06 -8.229752E-10 -5.080833E-08
        11  11  3.976393E+05  9.177527E+05  2.878176E+05 -1.339898E+06 -2.950392E-09  1.333001E-08
        11  12  2.496001E+05 -2.087182E+05  2.154020E+05 -1.377707E+06 -1.618367E-09  7.569108E-08
        11  13  3.323531E+04 -5.125043E+05  5.450181E+04 -1.489086E+06  1.154091E-08  1.420256E-12
        11  14  7.109014E+04 -5.233957E+05  9.156210E+04 -1.391371E+06  1.413555E-08 -3.494414E-11
        11  15  1.831837E+05 -5.113481E+05  1.772264E+05 -1.488285E+06  3.428376E-09  6.712332E-11
        11  16 -5.542242E+05 -3.087398E+06 -3.022419E+05 -1.481386E+06 -5.134418E-09  5.073802E-08
        11  17 -2.555380E+05 -1.962425E+06 -1.047127E+05 -1.442714E+06 -1.044283E-09 -1.370238E-08
        11  18  1.168103E+05 -8.138568E+05  1.390572E+05 -1.598807E+06  2.073623E-09 -7.562730E-08
        11  19  6.204557E+05  2.069205E+06  4.113287E+05 -1.496836E+06 -1.975994E+05  2.161338E+05
        11  20  3.976721E+05  9.178322E+05  2.879747E+05 -1.339922E+06 -1.133093E+05  2.664910E+05
        11  21  2.496279E+05 -2.086102E+05  2.155920E+05 -1.377714E+06 -2.754827E+04  3.168433E+05
        11  22  3.327689E+04 -5.124933E+05  5.457554E+04 -1.489090E+06 -1.964160E+05  2.642666E+04
        11  23  7.110504E+04 -5.233866E+05  9.159577E+04 -1.391378E+06 -1.120483E+05  7.357606E+04
        11  24  1.831884E+05 -5.113322E+05  1.772551E+05 -1.488288E+06 -2.621817E+04  1.207988E+05
        11  25 -5.541761E+05 -3.087359E+06 -3.021200E+05 -1.481360E+06 -1.952339E+05 -1.625290E+05
        11  26 -2.555210E+05 -1.962406E+06 -1.046629E+05 -1.442703E+06 -1.107532E+05 -1.189120E+05
        11  27  1.168125E+05 -8.138506E+05  1.390691E+05 -1.598805E+06 -2.481773E+04 -7.515475E+04
        12   1 -6.288864E+06 -1.874552E+06 -1.233117E+06 -2.182325E+06 -7.213366E+05 -2.671708E+05
        12   2 -6.068604E+06 -8.005538E+05 -5.505627E+05 -2.351894E+06 -4.642946E+05 -1.655370E+05
        12   3 -6.264824E+06 -8.697403E+05 -3.655491E+05 -2.274036E+06 -2.047007E+05 -7.068899E+04
        12   4 -6.054814E+06 -1.630001E+06 -1.137298E+06 -1.958630E+06 -7.191644E+05 -2.665868E+05
        12   5 -5.788680E+06 -6.535575E+05 -4.661506E+05 -2.233597E+06 -4.640380E+05 -1.654803E+05
        12   6 -5.938441E+06 -8.196603E+05 -2.908538E+05 -2.261212E+06 -2.063379E+05 -7.127104E+04
        12   7 -5.820649E+06 -1.385268E+06 -1.041474E+06 -1.734824E+06 -7.169913E+05 -2.660011E+05
        12   8 -5.508676E+06 -5.065317E+05 -3.817461E+05 -2.115244E+06 -4.637813E+05 -1.654234E+05
        12   9 -5.611944E+06 -7.695784E+05 -2.161617E+05 -2.248391E+06 -2.079761E+05 -7.185296E+04
        12  10 -6.289447E+06 -1.874771E+06 -1.234241E+06 -2.182482E+06 -3.162360E-09  3.304266E-10
        12  11 -6.068845E+06 -8.006422E+05 -5.510245E+05 -2.351956E+06 -9.694329E-09  1.949925E-09
        12  12 -6.264871E+06 -8.697571E+05 -3.656382E+05 -2.274048E+06  3.020483E-10  4.380576E-10
        12  13 -6.055394E+06 -1.630219E+06 -1.138415E+06 -1.958786E+06 -3.919412E-10  7.472195E-10
        12  14 -5.788921E+06 -6.536458E+05 -4.666117E+05 -2.233659E+06  1.337393E-09  1.798658E-09
        12  15 -5.938488E+06 -8.196773E+05 -2.909444E+05 -2.261224E+06 -3.530640E-10 -9.982461E-11
        12  16 -5.821225E+06 -1.385484E+06 -1.042584E+06 -1.734978E+06  1.700342E-09  1.010318E-09
        12  17 -5.508916E+06 -5.066198E+05 -3.822065E+05 -2.115306E+06  1.470791E-09  1.959904E-09
        12  18 -5.611992E+06 -7.695957E+05 -2.162537E+05 -2.248404E+06  3.424959E-09 -2.590496E-10
        12  19 -6.288864E+06 -1.874552E+06 -1.233117E+06 -2.182325E+06  7.213366E+05  2.671708E+05
        12  20 -6.068604E+06 -8.005538E+05 -5.505627E+05 -2.351894E+06  4.642946E+05  1.655370E+05
        12  21 -6.264824E+06 -8.697403E+05 -3.655491E+05 -2.274036E+06  2.047007E+05  7.068899E+04
        12  22 -6.054814E+06 -1.630001E+06 -1.137298E+06 -1.958630E+06  7.191644E+05  2.665868E+05
        12  23 -5.788680E+06 -6.535575E+05 -4.661506E+05 -2.233597E+06  4.640380E+05  1.654803E+05
        12  24 -5.938441E+06 -8.196603E+05 -2.908538E+05 -2.261212E+06  2.063379E+05  7.127104E+04
        12  25 -5.820649E+06 -1.385268E+06 -1.041474E+06 -1.734824E+06  7.169913E+05  2.660011E+05
        12  26 -5.508676E+06 -5.065317E+05 -3.817461E+05 -2.115244E+06  4.637813E+05  1.654234E+05
        12  27 -5.611944E+06 -7.695784E+05 -2.161617E+05 -2.248391E+06  2.079761E+05  7.185296E+04
        13   1 -6.028616E+06 -1.020965E+06 -2.781984E+05 -2.247505E+06 -1.624059E+05 -5.709935E+04
        13   2 -5.973203E+06 -8.375280E+05 -1.354915E+05 -2.234521E+06 -1.039048E+05 -3.645395E+04
        13   3 -5.936222E+06 -8.516421E+05 -7.769098E+04 -2.236542E+06 -4.505370E+04 -1.672415E+04
        13   4 -5.898736E+06 -9.518430E+05 -2.388099E+05 -2.191655E+06 -1.626046E+05 -5.718034E+04
        13   5 -5.881627E+06 -7.980112E+05 -1.095473E+05 -2.204648E+06 -1.043581E+05 -3.662442E+04
        13   6 -5.882886E+06 -8.416635E+05 -6.497103E+04 -2.232649E+06 -4.576552E+04 -1.698913E+04
        13   7 -5.768839E+06 -8.827142E+05 -1.994230E+05 -2.135793E+06 -1.628033E+05 -5.726135E+04
        13   8 -5.790043E+06 -7.584932E+05 -8.360388E+04 -2.174771E+06 -1.048114E+05 -3.679493E+04
        13   9 -5.829547E+06 -8.316850E+05 -5.225125E+04 -2.228755E+06 -4.647740E+04 -1.725411E+04
        13  10 -6.028645E+06 -1.020976E+06 -2.782547E+05 -2.247512E+06  1.983756E-09 -8.922431E-10
        13  11 -5.973215E+06 -8.375324E+05 -1.355146E+05 -2.234524E+06 -3.658025E-09  7.268707E-10
        13  12 -5.936224E+06 -8.516429E+05 -7.769537E+04 -2.236543E+06  1.530654E-09  2.504188E-10
        13  13 -5.898766E+06 -9.518538E+05 -2.388663E+05 -2.191663E+06  2.662289E-09 -2.884635E-10
        13  14 -5.881640E+06 -7.980156E+05 -1.095705E+05 -2.204651E+06  3.435576E-09  9.157542E-10
        13  15 -5.882888E+06 -8.416644E+05 -6.497556E+04 -2.232649E+06  4.855194E-09 -1.140439E-09
        13  16 -5.768869E+06 -8.827250E+05 -1.994796E+05 -2.135800E+06  2.852449E-09 -7.914424E-10
        13  17 -5.790056E+06 -7.584976E+05 -8.362732E+04 -2.174774E+06  4.200059E-10  8.797995E-10
        13  18 -5.829549E+06 -8.316859E+05 -5.225592E+04 -2.228756E+06 -3.327239E-09  3.251262E-10
        13  19 -6.028616E+06 -1.020965E+06 -2.781984E+05 -2.247505E+06  1.624059E+05  5.709935E+04
        13  20 -5.973203E+06 -8.375280E+05 -1.354915E+05 -2.234521E+06  1.039048E+05  3.645395E+04
        13  21 -5.936222E+06 -8.516421E+05 -7.769098E+04 -2.236542E+06  4.505370E+04  1.672415E+04
        13  22 -5.898736E+06 -9.518430E+05 -2.388099E+05 -2.191655E+06  1.626046E+05  5.718034E+04
        13  23 -5.881627E+06 -7.980112E+05 -1.095473E+05 -2.204648E+06  1.043581E+05  3.662442E+04
        13  24 -5.882886E+06 -8.416635E+05 -6.497103E+04 -2.232649E+06  4.576552E+04  1.698913E+04
        13  25 -5.768839E+06 -8.827142E+05 -1.994230E+05 -2.135793E+06  1.628033E+05  5.726135E+04
        13  26 -5.790043E+06 -7.584932E+05 -8.360388E+04 -2.174771E+06  1.048114E+05  3.679493E+04
        13  27 -5.829547E+06 -8.316850E+05 -5.225125E+04 -2.228755E+06  4.647740E+04  1.725411E+04
        14   1 -5.776983E+06 -8.231837E+05 -2.440009E+04 -2.197672E+06 -3.519429E+04 -1.453966E+04
        14   2 -5.747233E+06 -7.637796E+05  1.438941E+04 -2.162700E+06 -2.138770E+04 -1.148274E+04
        14   3 -5.682323E+06 -7.695867E+05  3.774972E+04 -2.174028E+06 -7.638927E+03 -8.265056E+03
        14   4 -5.877566E+06 -8.586935E+05 -5.152694E+04 -2.222290E+06 -3.574637E+04 -1.474612E+04
        14   5 -5.894067E+06 -8.186948E+05 -2.556330E+04 -2.201881E+06 -2.189531E+04 -1.167258E+04
        14   6 -5.875419E+06 -8.439196E+05 -1.506492E+04 -2.227774E+06 -8.103168E+03 -8.438776E+03
        14   7 -5.978139E+06 -8.942031E+05 -7.865479E+04 -2.246905E+06 -3.629837E+04 -1.495255E+04
        14   8 -6.040881E+06 -8.736091E+05 -6.551807E+04 -2.241055E+06 -2.240280E+04 -1.186238E+04
        14   9 -6.068479E+06 -9.182501E+05 -6.788308E+04 -2.281506E+06 -8.567249E+03 -8.612434E+03
        14  10 -5.776985E+06 -8.231842E+05 -2.440284E+04 -2.197673E+06 -5.607861E-10 -1.333773E-09
        14  11 -5.747234E+06 -7.637799E+05  1.438829E+04 -2.162700E+06 -1.315629E-09 -1.822193E-09
        14  12 -5.682323E+06 -7.695868E+05  3.774948E+04 -2.174028E+06  9.662481E-10  2.488867E-11
        14  13 -5.877567E+06 -8.586941E+05 -5.152978E+04 -2.222291E+06 -1.117600E-10 -8.424410E-10
        14  14 -5.894068E+06 -8.186951E+05 -2.556447E+04 -2.201882E+06  2.896508E-09  2.546896E-09
        14  15 -5.875419E+06 -8.439197E+05 -1.506518E+04 -2.227774E+06 -5.254912E-09 -2.172573E-10
        14  16 -5.978140E+06 -8.942037E+05 -7.865772E+04 -2.246905E+06 -2.966102E-09 -9.656514E-10
        14  17 -6.040882E+06 -8.736094E+05 -6.551929E+04 -2.241055E+06 -5.840989E-09  1.044912E-09
        14  18 -6.068480E+06 -9.182502E+05 -6.788336E+04 -2.281506E+06 -1.627884E-09 -7.684658E-10
        14  19 -5.776983E+06 -8.231837E+05 -2.440009E+04 -2.197672E+06  3.519429E+04  1.453966E+04
        14  20 -5.747233E+06 -7.637796E+05  1.438941E+04 -2.162700E+06  2.138770E+04  1.148274E+04
        14  21 -5.682323E+06 -7.695867E+05  3.774972E+04 -2.174028E+06  7.638927E+03  8.265056E+03
        14  22 -5.877566E+06 -8.586935E+05 -5.152694E+04 -2.222290E+06  3.574637E+04  1.474612E+04
        14  23 -5.894067E+06 -8.186948E+05 -2.556330E+04 -2.201881E+06  2.189531E+04  1.167258E+04
        14  24 -5.875419E+06 -8.439196E+05 -1.506492E+04 -2.227774E+06  8.103168E+03  8.438776E+03
        14  25 -5.978139E+06 -8.942031E+05 -7.865479E+04 -2.246905E+06  3.629837E+04  1.495255E+04
        14  26 -6.040881E+06 -8.736091E+05 -6.551807E+04 -2.241055E+06  2.240280E+04  1.186238E+04
        14  27 -6.068479E+06 -9.182501E+05 -6.788308E+04 -2.281506E+06  8.567249E+03  8.612434E+03
        15   1 -5.563344E+06 -7.246331E+05  7.389458E+04 -2.138127E+06 -4.991592E+03 -8.425506E+03
        15   2 -5.545408E+06 -6.942514E+05  8.750773E+04 -2.111981E+06 -9.931309E+02 -8.660105E+03
        15   3 -5.497923E+06 -6.976417E+05  9.781508E+04 -2.120266E+06  2.795687E+03 -8.329817E+03
        15   4 -5.877555E+06 -8.430439E+05 -1.193812E+04 -2.222868E+06 -5.510327E+03 -8.619861E+03
        15   5 -5.892190E+06 -8.253225E+05 -7.106653E+03 -2.205954E+06 -1.349966E+03 -8.794137E+03
        15   6 -5.877310E+06 -8.414078E+05 -5.711435E+03 -2.223473E+06  2.600505E+03 -8.403445E+03
        15   7 -6.191670E+06 -9.614489E+05 -9.777953E+04 -2.307568E+06 -6.028769E+03 -8.814106E+03
        15   8 -6.238856E+06 -9.563866E+05 -1.017319E+05 -2.299879E+06 -1.706580E+03 -8.928085E+03
        15   9 -6.256559E+06 -9.851655E+05 -1.092512E+05 -2.326623E+06  2.405455E+03 -8.477024E+03
        15  10 -5.563344E+06 -7.246332E+05  7.389440E+04 -2.138127E+06 -1.695493E-09 -7.918158E-10
        15  11 -5.545408E+06 -6.942515E+05  8.750759E+04 -2.111981E+06  2.645980E-10 -3.215171E-10
        15  12 -5.497923E+06 -6.976418E+05  9.781493E+04 -2.120266E+06 -2.520352E-09 -1.436414E-09
        15  13 -5.877555E+06 -8.430440E+05 -1.193832E+04 -2.222868E+06 -1.297270E-09 -1.313803E-09
        15  14 -5.892190E+06 -8.253226E+05 -7.106801E+03 -2.205954E+06  1.177383E-09 -1.998389E-09
        15  15 -5.877310E+06 -8.414078E+05 -5.711580E+03 -2.223473E+06 -4.809838E-09 -1.124561E-09
        15  16 -6.191670E+06 -9.614489E+05 -9.777975E+04 -2.307569E+06  3.504836E-10 -2.408851E-09
        15  17 -6.238856E+06 -9.563867E+05 -1.017320E+05 -2.299879E+06  2.021979E-09 -3.733987E-10
        15  18 -6.256559E+06 -9.851656E+05 -1.092513E+05 -2.326623E+06  1.340971E-09 -1.068212E-09
        15  19 -5.563344E+06 -7.246331E+05  7.389458E+04 -2.138127E+06  4.991592E+03  8.425506E+03
        15  20 -5.545408E+06 -6.942514E+05  8.750773E+04 -2.111981E+06  9.931309E+02  8.660105E+03
        15  21 -5.497923E+06 -6.976417E+05  9.781508E+04 -2.120266E+06 -2.795687E+03  8.329817E+03
        15  22 -5.877555E+06 -8.430439E+05 -1.193812E+04 -2.222868E+06  5.510327E+03  8.619861E+03
        15  23 -5.892190E+06 -8.253225E+05 -7.106653E+03 -2.205954E+06  1.349966E+03  8.794137E+03
        15  24 -5.877310E+06 -8.414078E+05 -5.711435E+03 -2.223473E+06 -2.600505E+03  8.403445E+03
        15  25 -6.191670E+06 -9.614489E+05 -9.777953E+04 -2.307568E+06  6.028769E+03  8.814106E+03
        15  26 -6.238856E+06 -9.563866E+05 -1.017319E+05 -2.299879E+06  1.706580E+03  8.928085E+03
        15  27 -6.256559E+06 -9.851655E+05 -1.092512E+05 -2.326623E+06 -2.405455E+03  8.477024E+03
        16   1 -5.440365E+06 -6.693422E+05  1.149821E+05 -2.097999E+06  4.038530E+03 -8.453910E+03
        16   2 -5.435660E+06 -6.608661E+05  1.158806E+05 -2.090549E+06  7.670635E+03 -7.894894E+03
        16   3 -5.423446E+06 -6.636728E+05  1.136104E+05 -2.091743E+06  1.102298E+04 -6.590161E+03
        16   4 -5.882223E+06 -8.363883E+05 -5.682032E+03 -2.217760E+06  3.725878E+03 -8.571803E+03
        16   5 -5.886084E+06 -8.315924E+05 -7.099199E+03 -2.213113E+06  7.571709E+03 -7.932658E+03
        16   6 -5.882481E+06 -8.381237E+05 -1.185755E+04 -2.217111E+06  1.113764E+04 -6.547553E+03
        16   7 -6.323891E+06 -1.003423E+06 -1.263637E+05 -2.337442E+06  3.413473E+03 -8.689604E+03
        16   8 -6.336312E+06 -1.002307E+06 -1.300974E+05 -2.335597E+06  7.472863E+03 -7.970392E+03
        16   9 -6.341312E+06 -1.012562E+06 -1.373449E+05 -2.342395E+06  1.125220E+04 -6.504981E+03
        16  10 -5.440365E+06 -6.693422E+05  1.149819E+05 -2.097999E+06 -1.365183E-09 -3.116303E-09
        16  11 -5.435660E+06 -6.608662E+05  1.158803E+05 -2.090549E+06 -1.162818E-09 -4.707461E-10
        16  12 -5.423446E+06 -6.636728E+05  1.136100E+05 -2.091743E+06  1.146036E-09 -1.314649E-09
        16  13 -5.882223E+06 -8.363884E+05 -5.682195E+03 -2.217759E+06  3.213203E-10 -1.128794E-09
        16  14 -5.886084E+06 -8.315925E+05 -7.099425E+03 -2.213113E+06 -3.857495E-09 -7.137729E-10
        16  15 -5.882481E+06 -8.381238E+05 -1.185786E+04 -2.217111E+06 -1.577711E-09 -2.490736E-09
        16  16 -6.323891E+06 -1.003423E+06 -1.263639E+05 -2.337442E+06 -3.788002E-09  8.285510E-10
        16  17 -6.336312E+06 -1.002307E+06 -1.300977E+05 -2.335597E+06 -5.134069E-09 -2.434816E-10
        16  18 -6.341312E+06 -1.012562E+06 -1.373452E+05 -2.342395E+06  1.514528E-09  3.625374E-10
        16  19 -5.440365E+06 -6.693422E+05  1.149821E+05 -2.097999E+06 -4.038530E+03  8.453910E+03
        16  20 -5.435660E+06 -6.608661E+05  1.158806E+05 -2.090549E+06 -7.670635E+03  7.894894E+03
        16  21 -5.423446E+06 -6.636728E+05  1.136104E+05 -2.091743E+06 -1.102298E+04  6.590161E+03
        16  22 -5.882223E+06 -8.363883E+05 -5.682032E+03 -2.217760E+06 -3.725878E+03  8.571803E+03
        16  23 -5.886084E+06 -8.315924E+05 -7.099199E+03 -2.213113E+06 -7.571709E+03  7.932658E+03
        16  24 -5.882481E+06 -8.381237E+05 -1.185755E+04 -2.217111E+06 -1.113764E+04  6.547553E+03
        16  25 -6.323891E+06 -1.003423E+06 -1.263637E+05 -2.337442E+06 -3.413473E+03  8.689604E+03
        16  26 -6.336312E+06 -1.002307E+06 -1.300974E+05 -2.335597E+06 -7.472863E+03  7.970392E+03
        16  27 -6.341312E+06 -1.012562E+06 -1.373449E+05 -2.342395E+06 -1.125220E+04  6.504981E+03
        17   1 -5.441547E+06 -6.620240E+05  1.069737E+05 -2.091680E+06  1.330194E+04 -5.604172E+03
        17   2 -5.449103E+06 -6.725598E+05  9.167104E+04 -2.103909E+06  2.605204E+04 -4.319367E+02
        17   3 -5.481880E+06 -6.868636E+05  6.132764E+04 -2.092276E+06  3.853295E+04  5.448268E+03
        17   4 -5.888875E+06 -8.303797E+05 -1.493711E+04 -2.212175E+06  1.328693E+04 -5.610354E+03
        17   5 -5.877327E+06 -8.357824E+05 -2.543007E+04 -2.221361E+06  2.623368E+04 -3.638872E+02
        17   6 -5.891047E+06 -8.450008E+05 -5.112850E+04 -2.206684E+06  3.891159E+04  5.590835E+03
        17   7 -6.336009E+06 -9.987245E+05 -1.368661E+05 -2.332591E+06  1.327192E+04 -5.616532E+03
        17   8 -6.305373E+06 -9.989936E+05 -1.425478E+05 -2.338739E+06  2.641518E+04 -2.958930E+02
        17   9 -6.300051E+06 -1.003126E+06 -1.635999E+05 -2.321023E+06  3.928994E+04  5.733290E+03
        17  10 -5.441547E+06 -6.620241E+05  1.069733E+05 -2.091680E+06  3.092439E-09  4.502497E-10
        17  11 -5.449104E+06 -6.725600E+05  9.166975E+04 -2.103909E+06  1.236092E-09  3.025842E-09
        17  12 -5.481882E+06 -6.868640E+05  6.132477E+04 -2.092276E+06 -7.020067E-10 -6.747549E-10
        17  13 -5.888875E+06 -8.303798E+05 -1.493751E+04 -2.212175E+06 -4.981173E-09 -1.694002E-09
        17  14 -5.877328E+06 -8.357826E+05 -2.543137E+04 -2.221361E+06  1.777163E-09  2.073783E-09
        17  15 -5.891049E+06 -8.450012E+05 -5.113144E+04 -2.206685E+06 -1.340277E-09  1.207205E-09
        17  16 -6.336009E+06 -9.987246E+05 -1.368665E+05 -2.332591E+06 -5.526376E-09 -1.067275E-09
        17  17 -6.305374E+06 -9.989938E+05 -1.425491E+05 -2.338739E+06  4.678958E-10  2.760594E-09
        17  18 -6.300053E+06 -1.003127E+06 -1.636029E+05 -2.321023E+06  2.717534E-09  3.738925E-09
        17  19 -5.441547E+06 -6.620240E+05  1.069737E+05 -2.091680E+06 -1.330194E+04  5.604172E+03
        17  20 -5.449103E+06 -6.725598E+05  9.167104E+04 -2.103909E+06 -2.605204E+04  4.319367E+02
        17  21 -5.481880E+06 -6.868636E+05  6.132764E+04 -2.092276E+06 -3.853295E+04 -5.448268E+03
        17  22 -5.888875E+06 -8.303797E+05 -1.493711E+04 -2.212175E+06 -1.328693E+04  5.610354E+03
        17  23 -5.877327E+06 -8.357824E+05 -2.543007E+04 -2.221361E+06 -2.623368E+04  3.638872E+02
        17  24 -5.891047E+06 -8.450008E+05 -5.112850E+04 -2.206684E+06 -3.891159E+04 -5.590835E+03
        17  25 -6.336009E+06 -9.987245E+05 -1.368661E+05 -2.332591E+06 -1.327192E+04  5.616532E+03
        17  26 -6.305373E+06 -9.989936E+05 -1.425478E+05 -2.338739E+06 -2.641518E+04  2.958930E+02
        17  27 -6.300051E+06 -1.003126E+06 -1.635999E+05 -2.321023E+06 -3.928994E+04 -5.733290E+03
        18   1 -5.566996E+06 -7.064700E+05  2.472933E+04 -2.130573E+06  4.778225E+04  9.774850E+03
        18   2 -5.574765E+06 -7.081665E+05 -3.013849E+04 -2.148129E+06  1.045524E+05  3.271894E+04
        18   3 -5.683344E+06 -8.228874E+05 -1.689086E+05 -2.085865E+06  1.611581E+05  5.607806E+04
        18   4 -5.901154E+06 -8.233801E+05 -6.449936E+04 -2.211589E+06  4.807529E+04  9.886373E+03
        18   5 -5.858776E+06 -8.212820E+05 -1.087759E+05 -2.230963E+06  1.049404E+05  3.286464E+04
        18   6 -5.917253E+06 -9.322675E+05 -2.370566E+05 -2.170508E+06  1.616461E+05  5.625641E+04
        18   7 -6.235204E+06 -9.402878E+05 -1.537379E+05 -2.292566E+06  4.836815E+04  9.997839E+03
        18   8 -6.142709E+06 -9.343906E+05 -1.874210E+05 -2.313762E+06  1.053281E+05  3.301026E+04
        18   9 -6.151108E+06 -1.041636E+06 -3.052099E+05 -2.255119E+06  1.621339E+05  5.643464E+04
        18  10 -5.566998E+06 -7.064707E+05  2.472482E+04 -2.130574E+06  1.013104E-09 -1.119854E-09
        18  11 -5.574777E+06 -7.081707E+05 -3.016127E+04 -2.148131E+06 -8.457503E-10 -4.378121E-11
        18  12 -5.683373E+06 -8.228979E+05 -1.689639E+05 -2.085872E+06 -5.328984E-10 -3.625468E-09
        18  13 -5.901156E+06 -8.233808E+05 -6.450393E+04 -2.211589E+06 -2.059401E-09 -3.115366E-10
        18  14 -5.858788E+06 -8.212861E+05 -1.087989E+05 -2.230965E+06 -4.570503E-09 -1.814960E-09
        18  15 -5.917283E+06 -9.322780E+05 -2.371122E+05 -2.170515E+06  2.293143E-09 -2.904325E-09
        18  16 -6.235207E+06 -9.402886E+05 -1.537425E+05 -2.292567E+06 -3.932322E-09 -1.260049E-09
        18  17 -6.142722E+06 -9.343948E+05 -1.874441E+05 -2.313764E+06 -4.531532E-09 -3.270297E-09
        18  18 -6.151137E+06 -1.041646E+06 -3.052659E+05 -2.255126E+06 -2.822858E-09 -2.360283E-11
        18  19 -5.566996E+06 -7.064700E+05  2.472933E+04 -2.130573E+06 -4.778225E+04 -9.774850E+03
        18  20 -5.574765E+06 -7.081665E+05 -3.013849E+04 -2.148129E+06 -1.045524E+05 -3.271894E+04
        18  21 -5.683344E+06 -8.228874E+05 -1.689086E+05 -2.085865E+06 -1.611581E+05 -5.607806E+04
        18  22 -5.901154E+06 -8.233801E+05 -6.449936E+04 -2.211589E+06 -4.807529E+04 -9.886373E+03
        18  23 -5.858776E+06 -8.212820E+05 -1.087759E+05 -2.230963E+06 -1.049404E+05 -3.286464E+04
        18  24 -5.917253E+06 -9.322675E+05 -2.370566E+05 -2.170508E+06 -1.616461E+05 -5.625641E+04
        18  25 -6.235204E+06 -9.402878E+05 -1.537379E+05 -2.292566E+06 -4.836815E+04 -9.997839E+03
        18  26 -6.142709E+06 -9.343906E+05 -1.874210E+05 -2.313762E+06 -1.053281E+05 -3.301026E+04
        18  27 -6.151108E+06 -1.041636E+06 -3.052099E+05 -2.255119E+06 -1.621339E+05 -5.643464E+04
        19   1 -5.786076E+06 -8.110875E+05 -2.570843E+05 -2.269019E+06  2.031527E+05  7.340242E+04
        19   2 -5.729721E+06 -6.221510E+05 -4.444681E+05 -2.207204E+06  4.572996E+05  1.720605E+05
        19   3 -6.170077E+06 -1.484088E+06 -1.124360E+06 -1.805086E+06  7.116651E+05  2.701168E+05
        19   4 -5.955823E+06 -8.021041E+05 -2.887709E+05 -2.240760E+06  2.037772E+05  7.366950E+04
        19   5 -5.766453E+06 -6.775987E+05 -4.627450E+05 -2.259351E+06  4.577186E+05  1.721810E+05
        19   6 -6.073828E+06 -1.604006E+06 -1.129073E+06 -1.937583E+06  7.119402E+05  2.699948E+05
        19   7 -6.125530E+06 -7.931077E+05 -3.204552E+05 -2.212512E+06  2.044015E+05  7.393671E+04
        19   8 -5.803181E+06 -7.330350E+05 -4.810210E+05 -2.311494E+06  4.581377E+05  1.723014E+05
        19   9 -5.977512E+06 -1.723815E+06 -1.133769E+06 -2.070090E+06  7.122154E+05  2.698728E+05
        19  10 -5.786122E+06 -8.111046E+05 -2.571729E+05 -2.269031E+06 -1.883980E-09 -8.838401E-10
        19  11 -5.729955E+06 -6.222400E+05 -4.449216E+05 -2.207268E+06 -4.428059E-09  3.472074E-09
        19  12 -6.170646E+06 -1.484304E+06 -1.125461E+06 -1.805242E+06  1.137600E-09  8.134353E-10
        19  13 -5.955869E+06 -8.021212E+05 -2.888601E+05 -2.240772E+06 -2.056005E-09 -2.632568E-10
        19  14 -5.766688E+06 -6.776878E+05 -4.631993E+05 -2.259415E+06 -2.931541E-09  5.976638E-09
        19  15 -6.074396E+06 -1.604223E+06 -1.130174E+06 -1.937738E+06 -1.844834E-09 -9.777127E-11
        19  16 -6.125576E+06 -7.931250E+05 -3.205450E+05 -2.212524E+06 -2.651273E-09  1.839007E-09
        19  17 -5.803416E+06 -7.331243E+05 -4.814762E+05 -2.311558E+06 -3.004032E-10  6.074504E-10
        19  18 -5.978081E+06 -1.724032E+06 -1.134872E+06 -2.070246E+06 -1.246752E-09  4.356995E-11
        19  19 -5.786076E+06 -8.110875E+05 -2.570843E+05 -2.269019E+06 -2.031527E+05 -7.340242E+04
        19  20 -5.729721E+06 -6.221510E+05 -4.444681E+05 -2.207204E+06 -4.572996E+05 -1.720605E+05
        19  21 -6.170077E+06 -1.484088E+06 -1.124360E+06 -1.805086E+06 -7.116651E+05 -2.701168E+05
        19  22 -5.955823E+06 -8.021041E+05 -2.887709E+05 -2.240760E+06 -2.037772E+05 -7.366950E+04
        19  23 -5.766453E+06 -6.775987E+05 -4.627450E+05 -2.259351E+06 -4.577186E+05 -1.721810E+05
        19  24 -6.073828E+06 -1.604006E+06 -1.129073E+06 -1.937583E+06 -7.119402E+05 -2.699948E+05
        19  25 -6.125530E+06 -7.931077E+05 -3.204552E+05 -2.212512E+06 -2.044015E+05 -7.393671E+04
        19  26 -5.803181E+06 -7.330350E+05 -4.810210E+05 -2.311494E+06 -4.581377E+05 -1.723014E+05
        19  27 -5.977512E+06 -1.723815E+06 -1.133769E+06 -2.070090E+06 -7.122154E+05 -2.698728E+05
        20   1 -2.529611E+06  4.574593E+03  5.970812E+03  4.552301E+02  4.070576E+03  2.996479E-03
        20   2 -2.530524E+06 -1.064368E+03  2.545227E+03  1.156755E+02  2.680068E+03  5.013163E-04
        20   3 -2.529617E+06 -1.539311E+02  1.665030E+03 -2.238736E+02  1.289580E+03 -4.668454E-04
        20   4 -2.529611E+06  4.574592E+03  5.970812E+03 -3.431731E-08  4.070576E+03 -3.865193E-10
        20   5 -2.530524E+06 -1.064368E+03  2.545227E+03 -6.112994E-08  2.680068E+03 -8.095935E-10
        20   6 -2.529617E+06 -1.539312E+02  1.665030E+03 -4.061160E-08  1.289580E+03  6.306085E-10
        20   7 -2.529611E+06  4.574593E+03  5.970812E+03 -4.552301E+02  4.070576E+03 -2.996484E-03
        20   8 -2.530524E+06 -1.064368E+03  2.545227E+03 -1.156755E+02  2.680068E+03 -5.013189E-04
        20   9 -2.529617E+06 -1.539311E+02  1.665030E+03  2.238736E+02  1.289580E+03  4.668459E-04
        20  10 -2.529611E+06  4.574588E+03  5.970781E+03  4.552301E+02 -3.375623E-09 -4.971077E-10
        20  11 -2.530524E+06 -1.064370E+03  2.545213E+03  1.156755E+02 -2.941637E-09  8.621931E-10
        20  12 -2.529617E+06 -1.539315E+02  1.665027E+03 -2.238736E+02  4.226039E-10 -4.093207E-10
        20  13 -2.529611E+06  4.574588E+03  5.970781E+03 -3.431311E-08  9.445144E-11  1.346284E-10
        20  14 -2.530524E+06 -1.064370E+03  2.545213E+03 -8.794612E-10 -2.151756E-09  6.474002E-10
        20  15 -2.529617E+06 -1.539316E+02  1.665027E+03 -9.655709E-08 -5.243016E-10  1.889364E-10
        20  16 -2.529611E+06  4.574588E+03  5.970781E+03 -4.552301E+02 -3.431982E-10 -4.172214E-11
        20  17 -2.530524E+06 -1.064370E+03  2.545213E+03 -1.156755E+02  7.667358E-10  4.853691E-10
        20  18 -2.529617E+06 -1.539315E+02  1.665027E+03  2.238736E+02 -8.275202E-10  9.478130E-10
        20  19 -2.529611E+06  4.574593E+03  5.970812E+03  4.552301E+02 -4.070576E+03 -2.996479E-03
        20  20 -2.530524E+06 -1.064368E+03  2.545227E+03  1.156755E+02 -2.680068E+03 -5.013130E-04
        20  21 -2.529617E+06 -1.539311E+02  1.665030E+03 -2.238736E+02 -1.289580E+03  4.668485E-04
        20  22 -2.529611E+06  4.574592E+03  5.970812E+03  1.165214E-10 -4.070576E+03  7.401512E-10
        20  23 -2.530524E+06 -1.064368E+03  2.545227E+03 -6.112941E-08 -2.680068E+03  2.157186E-09
        20  24 -2.529617E+06 -1.539312E+02  1.665030E+03 -6.186754E-09 -1.289580E+03 -3.257199E-10
        20  25 -2.529611E+06  4.574593E+03  5.970812E+03 -4.552301E+02 -4.070576E+03  2.996480E-03
        20  26 -2.530524E+06 -1.064368E+03  2.545227E+03 -1.156755E+02 -2.680068E+03  5.013152E-04
        20  27 -2.529617E+06 -1.539311E+02  1.665030E+03  2.238736E+02 -1.289580E+03 -4.668486E-04
        21   1 -2.529955E+06  6.937093E+02  1.374123E+03  6.580036E+01  1.015110E+03  1.080136E-04
        21   2 -2.530102E+06 -1.614291E+02  6.434123E+02  1.552514E+01  6.772304E+02  1.700224E-05
        21   3 -2.529956E+06 -2.384065E+01  3.815367E+02 -3.475082E+01  3.393463E+02 -1.906656E-05
        21   4 -2.529955E+06  6.937093E+02  1.374123E+03 -1.274013E-07  1.015110E+03  3.052344E-10
        21   5 -2.530102E+06 -1.614291E+02  6.434123E+02  2.418101E-08  6.772304E+02 -1.978339E-09
        21   6 -2.529956E+06 -2.384065E+01  3.815367E+02  4.451071E-08  3.393463E+02  9.434512E-10
        21   7 -2.529955E+06  6.937093E+02  1.374123E+03 -6.580036E+01  1.015110E+03 -1.080109E-04
        21   8 -2.530102E+06 -1.614291E+02  6.434123E+02 -1.552514E+01  6.772304E+02 -1.700459E-05
        21   9 -2.529956E+06 -2.384065E+01  3.815367E+02  3.475082E+01  3.393463E+02  1.906825E-05
        21  10 -2.529955E+06  6.937090E+02  1.374121E+03  6.580036E+01  2.304493E-09 -1.558794E-09
        21  11 -2.530102E+06 -1.614293E+02  6.434114E+02  1.552514E+01  3.176024E-10 -9.818307E-10
        21  12 -2.529956E+06 -2.384068E+01  3.815365E+02 -3.475082E+01  1.980588E-09  5.507167E-10
        21  13 -2.529955E+06  6.937090E+02  1.374121E+03 -1.274081E-07  4.910638E-10 -5.077474E-10
        21  14 -2.530102E+06 -1.614293E+02  6.434114E+02  1.557611E-08  1.609155E-10 -1.179377E-09
        21  15 -2.529956E+06 -2.384068E+01  3.815365E+02  7.249554E-08 -1.085864E-09  3.684496E-10
        21  16 -2.529955E+06  6.937090E+02  1.374121E+03 -6.580036E+01  3.348173E-10 -9.401061E-10
        21  17 -2.530102E+06 -1.614293E+02  6.434114E+02 -1.552514E+01 -3.293218E-09 -1.108806E-09
        21  18 -2.529956E+06 -2.384068E+01  3.815365E+02  3.475082E+01  7.375573E-10 -1.400450E-10
        21  19 -2.529955E+06  6.937093E+02  1.374123E+03  6.580036E+01 -1.015110E+03 -1.080105E-04
        21  20 -2.530102E+06 -1.614291E+02  6.434123E+02  1.552514E+01 -6.772304E+02 -1.700096E-05
        21  21 -2.529956E+06 -2.384065E+01  3.815367E+02 -3.475082E+01 -3.393463E+02  1.906929E-05
        21  22 -2.529955E+06  6.937093E+02  1.374123E+03 -1.446269E-07 -1.015110E+03 -1.311271E-09
        21  23 -2.530102E+06 -1.614291E+02  6.434123E+02 -7.910036E-08 -6.772304E+02  2.082974E-10
        21  24 -2.529956E+06 -2.384065E+01  3.815367E+02  3.161437E-08 -3.393463E+02 -3.894241E-10
        21  25 -2.529955E+06  6.937093E+02  1.374123E+03 -6.580036E+01 -1.015110E+03  1.080084E-04
        21  26 -2.530102E+06 -1.614291E+02  6.434123E+02 -1.552514E+01 -6.772304E+02  1.700023E-05
        21  27 -2.529956E+06 -2.384065E+01  3.815367E+02  3.475082E+01 -3.393463E+02 -1.907096E-05
        22   1 -2.530012E+06  1.047689E+02  2.909140E+02  8.599503E+00  2.785990E+02  3.876387E-06
        22   2 -2.530033E+06 -2.252818E+01  1.035428E+02  1.648571E+00  2.246612E+02  5.999100E-07
        22   3 -2.530012E+06 -1.131612E+01 -1.397741E+01 -5.302362E+00  1.707233E+02 -1.461036E-06
        22   4 -2.530012E+06  1.047689E+02  2.909140E+02  2.339025E-08  2.785990E+02  8.588535E-10
        22   5 -2.530033E+06 -2.252818E+01  1.035428E+02  1.273187E-08  2.246612E+02 -6.540639E-10
        22   6 -2.530012E+06 -1.131612E+01 -1.397741E+01  4.079766E-08  1.707233E+02  8.974349E-10
        22   7 -2.530012E+06  1.047689E+02  2.909140E+02 -8.599503E+00  2.785990E+02 -3.875682E-06
        22   8 -2.530033E+06 -2.252818E+01  1.035428E+02 -1.648571E+00  2.246612E+02 -5.992088E-07
        22   9 -2.530012E+06 -1.131612E+01 -1.397741E+01  5.302362E+00  1.707233E+02  1.463507E-06
        22  10 -2.530012E+06  1.047688E+02  2.909138E+02  8.599503E+00 -5.683341E-10  5.793951E-11
        22  11 -2.530033E+06 -2.252820E+01  1.035427E+02  1.648571E+00  1.092669E-09  1.842744E-10
        22  12 -2.530012E+06 -1.131612E+01 -1.397746E+01 -5.302362E+00 -1.631308E-09  8.307041E-10
        22  13 -2.530012E+06  1.047688E+02  2.909138E+02 -1.102990E-08  2.084578E-09  4.747454E-10
        22  14 -2.530033E+06 -2.252820E+01  1.035427E+02  2.133625E-08  3.880219E-09  4.349666E-10
        22  15 -2.530012E+06 -1.131612E+01 -1.397746E+01 -1.514944E-08 -9.814789E-10  5.416950E-10
        22  16 -2.530012E+06  1.047688E+02  2.909138E+02 -8.599503E+00 -7.058719E-10  1.159702E-09
        22  17 -2.530033E+06 -2.252820E+01  1.035427E+02 -1.648571E+00 -1.075876E-09 -8.529139E-10
        22  18 -2.530012E+06 -1.131612E+01 -1.397746E+01  5.302362E+00  3.744261E-09  7.910365E-10
        22  19 -2.530012E+06  1.047689E+02  2.909140E+02  8.599503E+00 -2.785990E+02 -3.874091E-06
        22  20 -2.530033E+06 -2.252818E+01  1.035428E+02  1.648571E+00 -2.246612E+02 -5.973657E-07
        22  21 -2.530012E+06 -1.131612E+01 -1.397741E+01 -5.302362E+00 -1.707233E+02  1.463450E-06
        22  22 -2.530012E+06  1.047689E+02  2.909140E+02  6.187784E-09 -2.785990E+02 -1.211830E-10
        22  23 -2.530033E+06 -2.252818E+01  1.035428E+02  2.994483E-08 -2.246612E+02  3.886835E-10
        22  24 -2.530012E+06 -1.131612E+01 -1.397741E+01  8.382847E-08 -1.707233E+02 -1.117315E-10
        22  25 -2.530012E+06  1.047689E+02  2.909140E+02 -8.599503E+00 -2.785990E+02  3.872634E-06
        22  26 -2.530033E+06 -2.252818E+01  1.035428E+02 -1.648571E+00 -2.246612E+02  5.980641E-07
        22  27 -2.530012E+06 -1.131612E+01 -1.397741E+01  5.302362E+00 -1.707233E+02 -1.464090E-06
        23   1 -2.530028E+06  1.704634E+01 -7.084424E+01 -2.183989E+00  1.783948E+02 -6.278235E-07
        23   2 -2.530013E+06  9.610562E+00 -2.149117E+02 -2.946121E-02  2.856443E+02 -1.464518E-08
        23   3 -2.530028E+06 -5.652308E+01 -4.436924E+02  2.125036E+00  3.928921E+02  1.350160E-06
        23   4 -2.530028E+06  1.704634E+01 -7.084424E+01 -9.706161E-12  1.783948E+02  1.272635E-09
        23   5 -2.530013E+06  9.610562E+00 -2.149117E+02  1.369160E-07  2.856443E+02 -1.869936E-09
        23   6 -2.530028E+06 -5.652308E+01 -4.436924E+02  9.954569E-08  3.928921E+02  1.033508E-10
        23   7 -2.530028E+06  1.704634E+01 -7.084424E+01  2.183989E+00  1.783948E+02  6.296022E-07
        23   8 -2.530013E+06  9.610562E+00 -2.149117E+02  2.946072E-02  2.856443E+02  1.271776E-08
        23   9 -2.530028E+06 -5.652308E+01 -4.436924E+02 -2.125036E+00  3.928921E+02 -1.350944E-06
        23  10 -2.530028E+06  1.704633E+01 -7.084430E+01 -2.183989E+00  6.485563E-10 -7.759317E-10
        23  11 -2.530013E+06  9.610540E+00 -2.149118E+02 -2.946088E-02  1.190235E-09 -3.056755E-10
        23  12 -2.530028E+06 -5.652312E+01 -4.436927E+02  2.125035E+00 -6.536185E-10 -2.812750E-10
        23  13 -2.530028E+06  1.704633E+01 -7.084430E+01 -1.915263E-11 -6.925501E-10  1.364764E-10
        23  14 -2.530013E+06  9.610540E+00 -2.149118E+02  9.388361E-08 -3.879649E-09 -7.408033E-10
        23  15 -2.530028E+06 -5.652312E+01 -4.436927E+02  1.361402E-07  1.005097E-09  2.086137E-10
        23  16 -2.530028E+06  1.704633E+01 -7.084430E+01  2.183989E+00  2.515368E-09 -1.646459E-10
        23  17 -2.530013E+06  9.610540E+00 -2.149118E+02  2.946117E-02 -1.808671E-09 -1.176257E-09
        23  18 -2.530028E+06 -5.652312E+01 -4.436927E+02 -2.125035E+00  1.298332E-11  2.845532E-10
        23  19 -2.530028E+06  1.704634E+01 -7.084424E+01 -2.183989E+00 -1.783948E+02  6.281793E-07
        23  20 -2.530013E+06  9.610562E+00 -2.149117E+02 -2.946127E-02 -2.856443E+02  1.438835E-08
        23  21 -2.530028E+06 -5.652308E+01 -4.436924E+02  2.125036E+00 -3.928921E+02 -1.350638E-06
        23  22 -2.530028E+06  1.704634E+01 -7.084424E+01  1.718541E-08 -1.783948E+02 -6.003551E-10
        23  23 -2.530013E+06  9.610562E+00 -2.149117E+02  3.363668E-08 -2.856443E+02 -1.532955E-10
        23  24 -2.530028E+06 -5.652308E+01 -4.436924E+02  1.232491E-07 -3.928921E+02 -2.163964E-11
        23  25 -2.530028E+06  1.704634E+01 -7.084424E+01  2.183989E+00 -1.783948E+02 -6.296374E-07
        23  26 -2.530013E+06  9.610562E+00 -2.149117E+02  2.946099E-02 -2.856443E+02 -1.531229E-08
        23  27 -2.530028E+06 -5.652308E+01 -4.436924E+02 -2.125035E+00 -3.928921E+02  1.349585E-06
        24   1 -2.530067E+06  1.339526E+01 -5.870540E+02 -2.072799E+01  4.860596E+02 -1.628913E-05
        24   2 -2.529965E+06  8.896635E+01 -1.017115E+03  3.834324E+00  9.991368E+02  6.193947E-06
        24   3 -2.530068E+06 -3.810648E+02 -1.918632E+03  2.839701E+01  1.512221E+03  6.944232E-05
        24   4 -2.530067E+06  1.339526E+01 -5.870540E+02  5.360763E-08  4.860596E+02  9.861731E-10
        24   5 -2.529965E+06  8.896635E+01 -1.017115E+03  4.823378E-08  9.991368E+02  7.994766E-10
        24   6 -2.530068E+06 -3.810648E+02 -1.918632E+03  8.436050E-09  1.512221E+03 -3.554329E-10
        24   7 -2.530067E+06  1.339526E+01 -5.870540E+02  2.072799E+01  4.860596E+02  1.629006E-05
        24   8 -2.529965E+06  8.896635E+01 -1.017115E+03 -3.834324E+00  9.991368E+02 -6.194227E-06
        24   9 -2.530068E+06 -3.810648E+02 -1.918632E+03 -2.839701E+01  1.512221E+03 -6.944078E-05
        24  10 -2.530067E+06  1.339520E+01 -5.870544E+02 -2.072799E+01  1.244998E-09  2.887225E-10
        24  11 -2.529965E+06  8.896608E+01 -1.017117E+03  3.834324E+00  3.090947E-09  7.325082E-10
        24  12 -2.530068E+06 -3.810654E+02 -1.918636E+03  2.839701E+01 -3.949298E-11 -2.167838E-10
        24  13 -2.530067E+06  1.339520E+01 -5.870544E+02 -1.525576E-08  2.319684E-09  5.598650E-10
        24  14 -2.529965E+06  8.896608E+01 -1.017117E+03 -1.201842E-08 -6.861057E-10 -5.146289E-10
        24  15 -2.530068E+06 -3.810654E+02 -1.918636E+03 -1.034540E-07 -1.765108E-09  1.948463E-10
        24  16 -2.530067E+06  1.339520E+01 -5.870544E+02  2.072799E+01  1.784536E-09  8.297681E-10
        24  17 -2.529965E+06  8.896608E+01 -1.017117E+03 -3.834324E+00 -6.937041E-09  5.811927E-10
        24  18 -2.530068E+06 -3.810654E+02 -1.918636E+03 -2.839701E+01  1.088595E-09  7.865495E-10
        24  19 -2.530067E+06  1.339526E+01 -5.870540E+02 -2.072799E+01 -4.860596E+02  1.629329E-05
        24  20 -2.529965E+06  8.896635E+01 -1.017115E+03  3.834324E+00 -9.991368E+02 -6.194083E-06
        24  21 -2.530068E+06 -3.810648E+02 -1.918632E+03  2.839701E+01 -1.512221E+03 -6.943987E-05
        24  22 -2.530067E+06  1.339526E+01 -5.870540E+02  1.915337E-08 -4.860596E+02  5.078154E-11
        24  23 -2.529965E+06  8.896635E+01 -1.017115E+03 -1.066997E-07 -9.991368E+02 -3.161938E-10
        24  24 -2.530068E+06 -3.810648E+02 -1.918632E+03 -3.244094E-08 -1.512221E+03  9.361562E-10
        24  25 -2.530067E+06  1.339526E+01 -5.870540E+02  2.072799E+01 -4.860596E+02 -1.629155E-05
        24  26 -2.529965E+06  8.896635E+01 -1.017115E+03 -3.834324E+00 -9.991368E+02  6.192445E-06
        24  27 -2.530068E+06 -3.810648E+02 -1.918632E+03 -2.839701E+01 -1.512221E+03  6.943945E-05
        25   1 -2.530286E+06  8.043234E+01 -2.452101E+03 -1.319445E+02  1.907192E+03 -4.069202E-04
        25   2 -2.529694E+06  5.959011E+02 -4.080404E+03  4.554607E+01  3.995832E+03  2.942959E-04
        25   3 -2.530292E+06 -2.549308E+03 -7.987817E+03  2.230368E+02  6.084468E+03  2.194442E-03
        25   4 -2.530286E+06  8.043231E+01 -2.452101E+03  3.258977E-08  1.907192E+03  1.503299E-10
        25   5 -2.529694E+06  5.959011E+02 -4.080404E+03  5.386692E-08  3.995832E+03  6.246760E-10
        25   6 -2.530292E+06 -2.549308E+03 -7.987817E+03 -2.169253E-08  6.084468E+03  2.204679E-10
        25   7 -2.530286E+06  8.043234E+01 -2.452101E+03  1.319445E+02  1.907192E+03  4.069202E-04
        25   8 -2.529694E+06  5.959011E+02 -4.080404E+03 -4.554607E+01  3.995832E+03 -2.942950E-04
        25   9 -2.530292E+06 -2.549308E+03 -7.987817E+03 -2.230368E+02  6.084468E+03 -2.194442E-03
        25  10 -2.530286E+06  8.043136E+01 -2.452108E+03 -1.319445E+02  2.189638E-09  9.093064E-10
        25  11 -2.529694E+06  5.958968E+02 -4.080434E+03  4.554607E+01  4.751498E-09 -4.877292E-10
        25  12 -2.530292E+06 -2.549318E+03 -7.987887E+03  2.230368E+02 -5.908292E-10 -2.874336E-10
        25  13 -2.530286E+06  8.043133E+01 -2.452108E+03  1.537522E-08  5.244350E-10  4.563291E-10
        25  14 -2.529694E+06  5.958968E+02 -4.080434E+03  6.247132E-08  3.846226E-09  6.673606E-10
        25  15 -2.530292E+06 -2.549318E+03 -7.987887E+03 -2.814517E-08  2.820702E-09  2.061194E-10
        25  16 -2.530286E+06  8.043136E+01 -2.452108E+03  1.319445E+02  2.618204E-09  4.074151E-10
        25  17 -2.529694E+06  5.958968E+02 -4.080434E+03 -4.554607E+01 -7.142494E-11  3.864257E-10
        25  18 -2.530292E+06 -2.549318E+03 -7.987887E+03 -2.230368E+02  2.566129E-09  9.242994E-10
        25  19 -2.530286E+06  8.043234E+01 -2.452101E+03 -1.319445E+02 -1.907192E+03  4.069237E-04
        25  20 -2.529694E+06  5.959011E+02 -4.080404E+03  4.554607E+01 -3.995832E+03 -2.942912E-04
        25  21 -2.530292E+06 -2.549308E+03 -7.987817E+03  2.230368E+02 -6.084468E+03 -2.194440E-03
        25  22 -2.530286E+06  8.043231E+01 -2.452101E+03 -3.626475E-08 -1.907192E+03  5.430454E-10
        25  23 -2.529694E+06  5.959011E+02 -4.080404E+03  5.386640E-08 -3.995832E+03  8.666941E-11
        25  24 -2.530292E+06 -2.549308E+03 -7.987817E+03  1.117209E-07 -6.084468E+03  3.218736E-10
        25  25 -2.530286E+06  8.043234E+01 -2.452101E+03  1.319445E+02 -1.907192E+03 -4.069212E-04
        25  26 -2.529694E+06  5.959011E+02 -4.080404E+03 -4.554607E+01 -3.995832E+03  2.942920E-04
        25  27 -2.530292E+06 -2.549308E+03 -7.987817E+03 -2.230368E+02 -6.084468E+03  2.194440E-03
        26   1 -2.531614E+06  5.543547E+02 -9.980572E+03 -8.450825E+02  7.707754E+03 -1.053300E-02
        26   2 -2.528046E+06  3.940015E+03 -1.605869E+04  3.803126E+02  1.612997E+04  9.919667E-03
        26   3 -2.531642E+06 -1.690291E+04 -3.369365E+04  1.605688E+03  2.455202E+04  6.374891E-02
        26   4 -2.531614E+06  5.543534E+02 -9.980572E+03 -7.376449E-08  7.707754E+03  2.871497E-10
        26   5 -2.528046E+06  3.940015E+03 -1.605869E+04 -6.989262E-08  1.612997E+04  9.889332E-10
        26   6 -2.531642E+06 -1.690291E+04 -3.369366E+04 -3.373896E-08  2.455202E+04 -8.479502E-10
        26   7 -2.531614E+06  5.543547E+02 -9.980572E+03  8.450825E+02  7.707754E+03  1.053300E-02
        26   8 -2.528046E+06  3.940015E+03 -1.605869E+04 -3.803126E+02  1.612997E+04 -9.919667E-03
        26   9 -2.531642E+06 -1.690291E+04 -3.369365E+04 -1.605688E+03  2.455202E+04 -6.374890E-02
        26  10 -2.531614E+06  5.543387E+02 -9.980684E+03 -8.450825E+02 -2.991676E-09  4.325397E-10
        26  11 -2.528046E+06  3.939945E+03 -1.605919E+04  3.803126E+02 -1.198507E-09  1.623895E-11
        26  12 -2.531643E+06 -1.690307E+04 -3.369479E+04  1.605688E+03 -2.598137E-09 -9.585045E-11
        26  13 -2.531614E+06  5.543373E+02 -9.980685E+03  1.232529E-08  2.218905E-09  2.885049E-10
        26  14 -2.528046E+06  3.939945E+03 -1.605919E+04 -2.685454E-08 -1.238432E-09  5.912726E-10
        26  15 -2.531643E+06 -1.690308E+04 -3.369479E+04 -9.186137E-08 -2.175199E-09 -1.753283E-10
        26  16 -2.531614E+06  5.543387E+02 -9.980684E+03  8.450825E+02  2.134123E-09  5.492728E-10
        26  17 -2.528046E+06  3.939945E+03 -1.605919E+04 -3.803126E+02  5.240752E-09  1.166617E-09
        26  18 -2.531643E+06 -1.690307E+04 -3.369479E+04 -1.605688E+03  2.440162E-09  1.938512E-10
        26  19 -2.531614E+06  5.543547E+02 -9.980572E+03 -8.450825E+02 -7.707754E+03  1.053301E-02
        26  20 -2.528046E+06  3.940015E+03 -1.605869E+04  3.803126E+02 -1.612997E+04 -9.919665E-03
        26  21 -2.531642E+06 -1.690291E+04 -3.369365E+04  1.605688E+03 -2.455202E+04 -6.374890E-02
        26  22 -2.531614E+06  5.543534E+02 -9.980572E+03  9.840458E-08 -7.707754E+03  2.105654E-10
        26  23 -2.528046E+06  3.940015E+03 -1.605869E+04  1.366766E-07 -1.612997E+04 -8.638990E-11
        26  24 -2.531642E+06 -1.690291E+04 -3.369366E+04  8.457893E-08 -2.455202E+04  1.335403E-10
        26  25 -2.531614E+06  5.543547E+02 -9.980572E+03  8.450825E+02 -7.707754E+03 -1.053301E-02
        26  26 -2.528046E+06  3.940015E+03 -1.605869E+04 -3.803126E+02 -1.612997E+04  9.919665E-03
        26  27 -2.531642E+06 -1.690291E+04 -3.369365E+04 -1.605688E+03 -2.455202E+04  6.374890E-02
        27   1 -2.539872E+06  3.747833E+03 -4.072367E+04 -5.454136E+03  3.127215E+04 -2.758124E-01
        27   2 -2.517760E+06  2.593590E+04 -6.207954E+04  2.819532E+03  6.519003E+04  2.972168E-01
        27   3 -2.540018E+06 -1.114651E+05 -1.454775E+05  1.109308E+04  9.910877E+04  1.777820E+00
        27   4 -2.539872E+06  3.747777E+03 -4.072368E+04 -5.688921E-08  3.127215E+04 -5.411950E-10
        27   5 -2.517760E+06  2.593589E+04 -6.207954E+04  1.001966E-08  6.519003E+04  9.859172E-10
        27   6 -2.540018E+06 -1.114653E+05 -1.454775E+05  4.464344E-08  9.910877E+04 -4.466407E-10
        27   7 -2.539872E+06  3.747833E+03 -4.072367E+04  5.454136E+03  3.127215E+04  2.758124E-01
        27   8 -2.517760E+06  2.593590E+04 -6.207954E+04 -2.819532E+03  6.519003E+04 -2.972168E-01
        27   9 -2.540018E+06 -1.114651E+05 -1.454775E+05 -1.109308E+04  9.910877E+04 -1.777820E+00
        27  10 -2.539874E+06  3.747569E+03 -4.072552E+04 -5.454136E+03 -3.033285E-09  1.094271E-10
        27  11 -2.517765E+06  2.593476E+04 -6.208756E+04  2.819532E+03 -1.949075E-09  4.271507E-11
        27  12 -2.540029E+06 -1.114678E+05 -1.454960E+05  1.109308E+04 -5.003496E-10  6.233348E-10
        27  13 -2.539874E+06  3.747513E+03 -4.072553E+04 -5.688027E-08 -5.244716E-09 -5.229146E-11
        27  14 -2.517765E+06  2.593474E+04 -6.208756E+04  1.862600E-08 -4.589124E-09  2.917678E-10
        27  15 -2.540029E+06 -1.114680E+05 -1.454960E+05 -1.346277E-08 -2.407822E-09  1.533057E-10
        27  16 -2.539874E+06  3.747569E+03 -4.072552E+04  5.454136E+03  7.890680E-10  1.895327E-10
        27  17 -2.517765E+06  2.593476E+04 -6.208756E+04 -2.819532E+03  1.566647E-09  5.973741E-10
        27  18 -2.540029E+06 -1.114678E+05 -1.454960E+05 -1.109308E+04  9.270767E-10  1.997787E-11
        27  19 -2.539872E+06  3.747833E+03 -4.072367E+04 -5.454136E+03 -3.127215E+04  2.758124E-01
        27  20 -2.517760E+06  2.593590E+04 -6.207954E+04  2.819532E+03 -6.519003E+04 -2.972168E-01
        27  21 -2.540018E+06 -1.114651E+05 -1.454775E+05  1.109308E+04 -9.910877E+04 -1.777820E+00
        27  22 -2.539872E+06  3.747777E+03 -4.072368E+04  4.641900E-08 -3.127215E+04  2.393976E-10
        27  23 -2.517760E+06  2.593589E+04 -6.207954E+04  1.477413E-07 -6.519003E+04  1.826298E-10
        27  24 -2.540018E+06 -1.114653E+05 -1.454775E+05  4.677778E-08 -9.910877E+04  6.767373E-10
        27  25 -2.539872E+06  3.747833E+03 -4.072367E+04  5.454136E+03 -3.127215E+04 -2.758124E-01
        27  26 -2.517760E+06  2.593590E+04 -6.207954E+04 -2.819532E+03 -6.519003E+04  2.972168E-01
        27  27 -2.540018E+06 -1.114651E+05 -1.454775E+05 -1.109308E+04 -9.910877E+04  1.777820E+00
        28   1  6.017741E+05  1.108449E+06  7.663018E+05 -6.010828E+04  9.574965E+02  4.617878E+05
        28   2 -5.122633E+04  9.947322E+05  3.761901E+05 -1.162881E+04  2.892909E+03  2.959031E+05
        28   3  6.098025E+04  1.094961E+06  2.855672E+05  1.911319E+04  2.400963E+03  1.300080E+05
        28   4  5.269121E+05  8.086535E+05  6.915508E+05 -6.989059E+03  9.970594E+02  4.611932E+05
        28   5 -1.243788E+05  7.017305E+05  3.033071E+05  1.815230E+03  2.899459E+03  2.957257E+05
        28   6 -1.034927E+04  8.087757E+05  2.143639E+05 -7.112810E+03  2.395152E+03  1.302460E+05
        28   7  4.520539E+05  5.089457E+05  6.167945E+05  4.610455E+04  1.036537E+03  4.605989E+05
        28   8 -1.975371E+05  4.088070E+05  2.304177E+05  1.525295E+04  2.906003E+03  2.955485E+05
        28   9 -8.168234E+04  5.226656E+05  1.431549E+05 -3.332671E+04  2.389319E+03  1.304839E+05
        28  10  6.017170E+05  1.108220E+06  7.659018E+05 -6.010864E+04 -6.801853E-10  3.708769E-11
        28  11 -5.124978E+04  9.946383E+05  3.760258E+05 -1.162950E+04 -3.149108E-11  4.382299E-10
        28  12  6.097572E+04  1.094943E+06  2.855355E+05  1.911294E+04 -3.057705E-09  4.684661E-10
        28  13  5.268551E+05  8.084254E+05  6.911516E+05 -6.989429E+03 -6.483255E-11  4.865720E-11
        28  14 -1.244023E+05  7.016367E+05  3.031429E+05  1.814540E+03 -5.153525E-10 -2.123347E-10
        28  15 -1.035383E+04  8.087575E+05  2.143321E+05 -7.113061E+03 -4.367327E-09  1.076139E-10
        28  16  4.519971E+05  5.087181E+05  6.163961E+05  4.610417E+04 -1.456436E-10 -5.892601E-12
        28  17 -1.975605E+05  4.087132E+05  2.302537E+05  1.525225E+04 -1.520634E-10 -8.900203E-10
        28  18 -8.168692E+04  5.226473E+05  1.431229E+05 -3.332696E+04 -1.086826E-09 -2.375781E-10
        28  19  6.017741E+05  1.108449E+06  7.663018E+05 -6.010828E+04 -9.574965E+02 -4.617878E+05
        28  20 -5.122633E+04  9.947322E+05  3.761901E+05 -1.162881E+04 -2.892909E+03 -2.959031E+05
        28  21  6.098025E+04  1.094961E+06  2.855672E+05  1.911319E+04 -2.400963E+03 -1.300080E+05
        28  22  5.269121E+05  8.086535E+05  6.915508E+05 -6.989059E+03 -9.970594E+02 -4.611932E+05
        28  23 -1.243788E+05  7.017305E+05  3.033071E+05  1.815230E+03 -2.899459E+03 -2.957257E+05
        28  24 -1.034927E+04  8.087757E+05  2.143639E+05 -7.112810E+03 -2.395152E+03 -1.302460E+05
        28  25  4.520539E+05  5.089457E+05  6.167945E+05  4.610455E+04 -1.036537E+03 -4.605989E+05
        28  26 -1.975371E+05  4.088070E+05  2.304177E+05  1.525295E+04 -2.906003E+03 -2.955485E+05
        28  27 -8.168234E+04  5.226656E+05  1.431549E+05 -3.332671E+04 -2.389319E+03 -1.304839E+05
        29   1  1.369989E+05  1.008331E+06  2.454680E+05 -1.555646E+04  1.910338E+03  9.395629E+04
        29   2  2.769043E+04  9.770418E+05  1.785563E+05 -1.453952E+03  2.170679E+03  3.027318E+04
        29   3  1.028470E+05  1.000808E+06  1.993215E+05  3.003216E+03  1.966680E+03 -3.341024E+04
        29   4  7.832635E+04  7.734215E+05  1.869893E+05 -5.185388E+03  1.912045E+03  9.387729E+04
        29   5 -3.000386E+04  7.458964E+05  1.210373E+05 -3.691822E+02  2.170746E+03  3.028183E+04
        29   6  4.615224E+04  7.734312E+05  1.427243E+05 -5.198441E+03  1.966930E+03 -3.331432E+04
        29   7  1.965004E+04  5.385620E+05  1.285065E+05  5.181788E+03  1.913750E+03  9.379831E+04
        29   8 -8.770216E+04  5.147994E+05  6.351438E+04  7.152107E+02  2.170813E+03  3.029047E+04
        29   9 -1.054613E+04  5.461011E+05  8.612320E+04 -1.339707E+04  1.967177E+03 -3.321844E+04
        29  10  1.369965E+05  1.008322E+06  2.454515E+05 -1.555661E+04 -1.471172E-09  3.376125E-10
        29  11  2.769018E+04  9.770409E+05  1.785546E+05 -1.454005E+03  3.834924E-10  8.067088E-10
        29  12  1.028467E+05  1.000807E+06  1.993194E+05  3.003269E+03 -7.288071E-10  9.920691E-10
        29  13  7.832399E+04  7.734121E+05  1.869727E+05 -5.185532E+03 -2.948952E-09  4.598499E-10
        29  14 -3.000411E+04  7.458954E+05  1.210356E+05 -3.692351E+02 -5.957906E-09 -6.357066E-10
        29  15  4.615194E+04  7.734300E+05  1.427222E+05 -5.198388E+03  8.741054E-10  2.072586E-10
        29  16  1.964768E+04  5.385526E+05  1.284899E+05  5.181643E+03 -3.624332E-09 -3.365213E-10
        29  17 -8.770241E+04  5.147984E+05  6.351265E+04  7.151577E+02 -5.025173E-09 -2.048898E-09
        29  18 -1.054643E+04  5.460999E+05  8.612112E+04 -1.339701E+04  2.090309E-09 -6.959420E-10
        29  19  1.369989E+05  1.008331E+06  2.454680E+05 -1.555646E+04 -1.910338E+03 -9.395629E+04
        29  20  2.769043E+04  9.770418E+05  1.785563E+05 -1.453952E+03 -2.170679E+03 -3.027318E+04
        29  21  1.028470E+05  1.000808E+06  1.993215E+05  3.003216E+03 -1.966680E+03  3.341024E+04
        29  22  7.832635E+04  7.734215E+05  1.869893E+05 -5.185388E+03 -1.912045E+03 -9.387729E+04
        29  23 -3.000386E+04  7.458964E+05  1.210373E+05 -3.691822E+02 -2.170746E+03 -3.028183E+04
        29  24  4.615224E+04  7.734312E+05  1.427243E+05 -5.198441E+03 -1.966930E+03  3.331432E+04
        29  25  1.965004E+04  5.385620E+05  1.285065E+05  5.181788E+03 -1.913750E+03 -9.379831E+04
        29  26 -8.770216E+04  5.147994E+05  6.351438E+04  7.152107E+02 -2.170813E+03 -3.029047E+04
        29  27 -1.054613E+04  5.461011E+05  8.612320E+04 -1.339707E+04 -1.967177E+03  3.321844E+04
        30   1  5.168241E+04  9.925635E+05  2.032940E+05 -2.124884E+04  2.171631E+03 -5.999934E+04
        30   2 -2.762320E+04  9.245237E+05  2.444987E+05  5.210522E+03  2.665278E+03 -1.661819E+05
        30   3  3.705054E+05  9.901369E+05  4.742536E+05  2.945995E+04  1.717519E+03 -2.723646E+05
        30   4  1.233439E+03  7.909241E+05  1.530991E+05 -3.966371E+03  2.170392E+03 -6.011568E+04
        30   5 -7.759133E+04  7.240541E+05  1.946418E+05 -2.254297E+03  2.667046E+03 -1.660617E+05
        30   6  3.210561E+05  7.908354E+05  4.246129E+05 -2.753938E+03  1.730539E+03 -2.720081E+05
        30   7 -4.921749E+04  5.893221E+05  1.029013E+05  1.331051E+04  2.169146E+03 -6.023198E+04
        30   8 -1.275623E+05  5.236211E+05  1.447820E+05 -9.716677E+03  2.668811E+03 -1.659416E+05
        30   9  2.716078E+05  5.915721E+05  3.749699E+05 -3.495747E+04  1.743526E+03 -2.716516E+05
        30  10  5.168144E+04  9.925596E+05  2.032872E+05 -2.124873E+04  3.336122E-09 -4.434742E-10
        30  11 -2.763060E+04  9.244941E+05  2.444468E+05  5.210879E+03  4.981035E-09  7.164181E-11
        30  12  3.704855E+05  9.900574E+05  4.741144E+05  2.946033E+04  7.113484E-10 -2.742076E-10
        30  13  1.232465E+03  7.909202E+05  1.530923E+05 -3.966266E+03  3.720174E-09  7.972534E-10
        30  14 -7.759873E+04  7.240246E+05  1.945901E+05 -2.253940E+03 -3.559352E-09 -9.151404E-10
        30  15  3.210362E+05  7.907560E+05  4.244741E+05 -2.753559E+03  6.236361E-10  2.508629E-10
        30  16 -4.921847E+04  5.893182E+05  1.028944E+05  1.331062E+04  2.518136E-09  4.318919E-10
        30  17 -1.275696E+05  5.235916E+05  1.447303E+05 -9.716320E+03 -8.857629E-10 -1.854219E-09
        30  18  2.715880E+05  5.914929E+05  3.748314E+05 -3.495709E+04 -3.409463E-11  6.293709E-10
        30  19  5.168241E+04  9.925635E+05  2.032940E+05 -2.124884E+04 -2.171631E+03  5.999934E+04
        30  20 -2.762320E+04  9.245237E+05  2.444987E+05  5.210522E+03 -2.665278E+03  1.661819E+05
        30  21  3.705054E+05  9.901369E+05  4.742536E+05  2.945995E+04 -1.717519E+03  2.723646E+05
        30  22  1.233439E+03  7.909241E+05  1.530991E+05 -3.966371E+03 -2.170392E+03  6.011568E+04
        30  23 -7.759133E+04  7.240541E+05  1.946418E+05 -2.254297E+03 -2.667046E+03  1.660617E+05
        30  24  3.210561E+05  7.908354E+05  4.246129E+05 -2.753938E+03 -1.730539E+03  2.720081E+05
        30  25 -4.921749E+04  5.893221E+05  1.029013E+05  1.331051E+04 -2.169146E+03  6.023198E+04
        30  26 -1.275623E+05  5.236211E+05  1.447820E+05 -9.716677E+03 -2.668811E+03  1.659416E+05
        30  27  2.716078E+05  5.915721E+05  3.749699E+05 -3.495747E+04 -1.743526E+03  2.716516E+05
        31   1 -4.326197E+06 -1.095098E+06 -5.600474E+05 -1.453730E+06 -6.821807E+04 -1.782944E+04
        31   2 -4.332122E+06 -9.568645E+05 -4.955067E+05 -1.421746E+06 -4.753542E+04  3.632187E+03
        31   3 -4.252147E+06 -9.827554E+05 -4.645426E+05 -1.441427E+06 -2.034616E+04  7.532741E+03
        31   4 -2.649561E+06 -4.558551E+05 -9.583516E+04 -9.938143E+05 -6.555432E+04 -1.683667E+04
        31   5 -2.688127E+06 -3.399988E+05 -4.349068E+04 -9.807284E+05 -4.716067E+04  3.766408E+03
        31   6 -2.640175E+06 -3.875827E+05 -2.280315E+04 -1.019313E+06 -2.227017E+04  6.829295E+03
        31   7 -9.702317E+05  1.835543E+05  3.681151E+05 -5.327728E+05 -6.288238E+04 -1.584077E+04
        31   8 -1.041542E+06  2.770085E+05  4.082771E+05 -5.386583E+05 -4.678469E+04  3.901094E+03
        31   9 -1.025716E+06  2.077072E+05  4.187001E+05 -5.962166E+05 -2.419963E+04  6.123893E+03
        31  10 -4.326202E+06 -1.095100E+06 -5.600568E+05 -1.453731E+06 -4.335608E-09 -2.083910E-10
        31  11 -4.332125E+06 -9.568652E+05 -4.955110E+05 -1.421746E+06 -1.409893E-09 -3.002351E-09
        31  12 -4.252147E+06 -9.827556E+05 -4.645435E+05 -1.441427E+06  1.035066E-09 -1.010084E-09
        31  13 -2.649566E+06 -4.558566E+05 -9.584381E+04 -9.938151E+05 -2.117486E-10  1.482978E-10
        31  14 -2.688130E+06 -3.399994E+05 -4.349490E+04 -9.807283E+05  2.102608E-09  5.014287E-09
        31  15 -2.640176E+06 -3.875828E+05 -2.280417E+04 -1.019313E+06  8.928003E-10 -2.827750E-09
        31  16 -9.702360E+05  1.835530E+05  3.681072E+05 -5.327736E+05 -4.507767E-10 -1.639828E-10
        31  17 -1.041544E+06  2.770079E+05  4.082730E+05 -5.386582E+05 -2.576208E-10  1.271910E-09
        31  18 -1.025716E+06  2.077070E+05  4.186989E+05 -5.962165E+05 -8.917472E-10 -3.468629E-09
        31  19 -4.326197E+06 -1.095098E+06 -5.600474E+05 -1.453730E+06  6.821807E+04  1.782944E+04
        31  20 -4.332122E+06 -9.568645E+05 -4.955067E+05 -1.421746E+06  4.753542E+04 -3.632187E+03
        31  21 -4.252147E+06 -9.827554E+05 -4.645426E+05 -1.441427E+06  2.034616E+04 -7.532741E+03
        31  22 -2.649561E+06 -4.558551E+05 -9.583516E+04 -9.938143E+05  6.555432E+04  1.683667E+04
        31  23 -2.688127E+06 -3.399988E+05 -4.349068E+04 -9.807284E+05  4.716067E+04 -3.766408E+03
        31  24 -2.640175E+06 -3.875827E+05 -2.280315E+04 -1.019313E+06  2.227017E+04 -6.829295E+03
        31  25 -9.702317E+05  1.835543E+05  3.681151E+05 -5.327728E+05  6.288238E+04  1.584077E+04
        31  26 -1.041542E+06  2.770085E+05  4.082771E+05 -5.386583E+05  4.678469E+04 -3.901094E+03
        31  27 -1.025716E+06  2.077072E+05  4.187001E+05 -5.962166E+05  2.419963E+04 -6.123893E+03
        32   1 -3.430262E+06 -7.273499E+05 -2.426010E+05 -1.257397E+06 -1.747774E+04  3.554852E+03
        32   2 -3.429092E+06 -5.845057E+05 -2.055319E+05 -1.125909E+06 -1.135174E+04  4.421509E+03
        32   3 -3.242427E+06 -6.424920E+05 -1.755786E+05 -1.209387E+06 -3.790245E+03  1.263115E+03
        32   4 -2.621789E+06 -4.272184E+05 -2.102050E+04 -1.043762E+06 -1.738158E+04  3.588754E+03
        32   5 -2.713857E+06 -3.205828E+05 -9.816331E+03 -9.386041E+05 -1.178838E+04  4.263476E+03
        32   6 -2.620335E+06 -4.146391E+05 -5.296169E+03 -1.048398E+06 -4.761465E+03  9.150240E+02
        32   7 -1.812690E+06 -1.270549E+05  2.005008E+05 -8.298772E+05 -1.728526E+04  3.622712E+03
        32   8 -1.998133E+06 -5.663659E+04  1.858527E+05 -7.511058E+05 -1.222557E+04  4.105246E+03
        32   9 -1.997874E+06 -1.867705E+05  1.649508E+05 -8.872651E+05 -5.733750E+03  5.665544E+02
        32  10 -3.430262E+06 -7.273500E+05 -2.426016E+05 -1.257396E+06  3.674154E-09 -3.481382E-09
        32  11 -3.429092E+06 -5.845058E+05 -2.055322E+05 -1.125909E+06 -1.446479E-09 -5.828611E-09
        32  12 -3.242427E+06 -6.424920E+05 -1.755786E+05 -1.209387E+06  6.420357E-10 -1.033342E-09
        32  13 -2.621790E+06 -4.272185E+05 -2.102110E+04 -1.043762E+06 -1.378021E-10 -4.102932E-09
        32  14 -2.713857E+06 -3.205828E+05 -9.816627E+03 -9.386041E+05  2.539411E-09 -6.939640E-09
        32  15 -2.620335E+06 -4.146391E+05 -5.296213E+03 -1.048398E+06 -1.134688E-09 -3.557479E-10
        32  16 -1.812691E+06 -1.270550E+05  2.005002E+05 -8.298771E+05  3.223294E-09 -9.357040E-10
        32  17 -1.998133E+06 -5.663665E+04  1.858524E+05 -7.511058E+05  4.846840E-09 -8.985364E-09
        32  18 -1.997874E+06 -1.867705E+05  1.649508E+05 -8.872651E+05 -2.425763E-09  1.961056E-09
        32  19 -3.430262E+06 -7.273499E+05 -2.426010E+05 -1.257397E+06  1.747774E+04 -3.554852E+03
        32  20 -3.429092E+06 -5.845057E+05 -2.055319E+05 -1.125909E+06  1.135174E+04 -4.421509E+03
        32  21 -3.242427E+06 -6.424920E+05 -1.755786E+05 -1.209387E+06  3.790245E+03 -1.263115E+03
        32  22 -2.621789E+06 -4.272184E+05 -2.102050E+04 -1.043762E+06  1.738158E+04 -3.588754E+03
        32  23 -2.713857E+06 -3.205828E+05 -9.816331E+03 -9.386041E+05  1.178838E+04 -4.263476E+03
        32  24 -2.620335E+06 -4.146391E+05 -5.296169E+03 -1.048398E+06  4.761465E+03 -9.150240E+02
        32  25 -1.812690E+06 -1.270549E+05  2.005008E+05 -8.298772E+05  1.728526E+04 -3.622712E+03
        32  26 -1.998133E+06 -5.663659E+04  1.858527E+05 -7.511058E+05  1.222557E+04 -4.105246E+03
        32  27 -1.997874E+06 -1.867705E+05  1.649508E+05 -8.872651E+05  5.733750E+03 -5.665544E+02
        33   1 -2.094508E+06 -2.251945E+05  1.393242E+05 -9.126860E+05 -1.970017E+03 -2.464801E+03
        33   2 -2.094662E+06 -9.263007E+04  1.672876E+05 -7.742819E+05  7.555913E+02 -6.737624E+03
        33   3 -1.902169E+06 -1.531919E+05  1.944042E+05 -8.598588E+05  2.999013E+03 -9.623904E+03
        33   4 -2.619335E+06 -4.175316E+05 -4.306835E+03 -1.048750E+06 -2.686077E+03 -2.721355E+03
        33   5 -2.715593E+06 -3.212958E+05 -2.441240E+03 -9.365792E+05  2.247716E+02 -6.929211E+03
        33   6 -2.619241E+06 -4.182427E+05 -1.569523E+03 -1.048408E+06  2.653002E+03 -9.749888E+03
        33   7 -3.143900E+06 -6.098573E+05 -1.479630E+05 -1.184711E+06 -3.401472E+03 -2.977672E+03
        33   8 -3.336156E+06 -5.499445E+05 -1.722053E+05 -1.098732E+06 -3.054651E+02 -7.120589E+03
        33   9 -3.335823E+06 -6.832701E+05 -1.975903E+05 -1.236763E+06  2.307431E+03 -9.875713E+03
        33  10 -2.094508E+06 -2.251945E+05  1.393242E+05 -9.126860E+05 -1.195315E-09 -1.500787E-10
        33  11 -2.094662E+06 -9.263012E+04  1.672875E+05 -7.742819E+05 -6.783386E-09 -6.949282E-09
        33  12 -1.902169E+06 -1.531920E+05  1.944040E+05 -8.598587E+05 -3.531898E-09 -1.127835E-09
        33  13 -2.619335E+06 -4.175316E+05 -4.306863E+03 -1.048750E+06 -8.794139E-10  3.016425E-09
        33  14 -2.715593E+06 -3.212958E+05 -2.441330E+03 -9.365792E+05 -4.279139E-09  4.029195E-09
        33  15 -2.619241E+06 -4.182428E+05 -1.569714E+03 -1.048408E+06 -5.657553E-10  2.680717E-10
        33  16 -3.143900E+06 -6.098573E+05 -1.479630E+05 -1.184711E+06 -2.065622E-09 -1.321840E-09
        33  17 -3.336156E+06 -5.499446E+05 -1.722054E+05 -1.098732E+06  3.630413E-09  1.715380E-08
        33  18 -3.335823E+06 -6.832702E+05 -1.975905E+05 -1.236763E+06  1.943274E-09  1.801090E-09
        33  19 -2.094508E+06 -2.251945E+05  1.393242E+05 -9.126860E+05  1.970017E+03  2.464801E+03
        33  20 -2.094662E+06 -9.263007E+04  1.672876E+05 -7.742819E+05 -7.555913E+02  6.737624E+03
        33  21 -1.902169E+06 -1.531919E+05  1.944042E+05 -8.598588E+05 -2.999013E+03  9.623904E+03
        33  22 -2.619335E+06 -4.175316E+05 -4.306835E+03 -1.048750E+06  2.686077E+03  2.721355E+03
        33  23 -2.715593E+06 -3.212958E+05 -2.441240E+03 -9.365792E+05 -2.247716E+02  6.929211E+03
        33  24 -2.619241E+06 -4.182427E+05 -1.569523E+03 -1.048408E+06 -2.653002E+03  9.749888E+03
        33  25 -3.143900E+06 -6.098573E+05 -1.479630E+05 -1.184711E+06  3.401472E+03  2.977672E+03
        33  26 -3.336156E+06 -5.499445E+05 -1.722053E+05 -1.098732E+06  3.054651E+02  7.120589E+03
        33  27 -3.335823E+06 -6.832701E+05 -1.975903E+05 -1.236763E+06 -2.307431E+03  9.875713E+03
        34   1 -1.068155E+06  1.875134E+05  4.298253E+05 -6.071655E+05  4.122633E+03 -1.225774E+04
        34   2 -1.093460E+06  2.468995E+05  4.367460E+05 -5.453062E+05  5.977004E+03 -1.617271E+04
        34   3 -9.857414E+05  2.259219E+05  4.539846E+05 -5.733766E+05  6.251853E+03 -1.574089E+04
        34   4 -2.632972E+06 -3.916043E+05  1.405409E+03 -1.019483E+06  3.287353E+03 -1.256380E+04
        34   5 -2.699447E+06 -3.525945E+05 -3.618129E+03 -9.739956E+05  5.725578E+03 -1.626857E+04
        34   6 -2.633076E+06 -3.941368E+05  1.208937E+03 -1.018462E+06  6.582252E+03 -1.562113E+04
        34   7 -4.195446E+06 -9.706058E+05 -4.272359E+05 -1.430870E+06  2.454393E+03 -1.286903E+04
        34   8 -4.302967E+06 -9.519571E+05 -4.442168E+05 -1.401690E+06  5.474874E+03 -1.636417E+04
        34   9 -4.277813E+06 -1.014048E+06 -4.518151E+05 -1.462486E+06  6.911688E+03 -1.550174E+04
        34  10 -1.068155E+06  1.875132E+05  4.298249E+05 -6.071655E+05  1.155301E-09  2.417709E-11
        34  11 -1.093460E+06  2.468992E+05  4.367455E+05 -5.453061E+05  3.464733E-10  4.026277E-09
        34  12 -9.857415E+05  2.259216E+05  4.539841E+05 -5.733765E+05 -1.375793E-10 -3.235200E-09
        34  13 -2.632972E+06 -3.916045E+05  1.405092E+03 -1.019483E+06 -6.868327E-10  1.330105E-09
        34  14 -2.699448E+06 -3.525948E+05 -3.618687E+03 -9.739956E+05  6.296340E-09  2.091070E-09
        34  15 -2.633076E+06 -3.941371E+05  1.208398E+03 -1.018462E+06 -1.070946E-09 -3.307172E-09
        34  16 -4.195446E+06 -9.706060E+05 -4.272362E+05 -1.430870E+06 -1.512732E-09  3.905107E-09
        34  17 -4.302967E+06 -9.519574E+05 -4.442174E+05 -1.401690E+06 -2.682092E-09 -1.029133E-08
        34  18 -4.277813E+06 -1.014048E+06 -4.518157E+05 -1.462486E+06  4.331955E-09 -4.477135E-09
        34  19 -1.068155E+06  1.875134E+05  4.298253E+05 -6.071655E+05 -4.122633E+03  1.225774E+04
        34  20 -1.093460E+06  2.468995E+05  4.367460E+05 -5.453062E+05 -5.977004E+03  1.617271E+04
        34  21 -9.857414E+05  2.259219E+05  4.539846E+05 -5.733766E+05 -6.251853E+03  1.574089E+04
        34  22 -2.632972E+06 -3.916043E+05  1.405409E+03 -1.019483E+06 -3.287353E+03  1.256380E+04
        34  23 -2.699447E+06 -3.525945E+05 -3.618129E+03 -9.739956E+05 -5.725578E+03  1.626857E+04
        34  24 -2.633076E+06 -3.941368E+05  1.208937E+03 -1.018462E+06 -6.582252E+03  1.562113E+04
        34  25 -4.195446E+06 -9.706058E+05 -4.272359E+05 -1.430870E+06 -2.454393E+03  1.286903E+04
        34  26 -4.302967E+06 -9.519571E+05 -4.442168E+05 -1.401690E+06 -5.474874E+03  1.636417E+04
        34  27 -4.277813E+06 -1.014048E+06 -4.518151E+05 -1.462486E+06 -6.911688E+03  1.550174E+04
        35   1 -9.407286E+05  2.925738E+05  4.762340E+05 -5.102428E+05  6.248066E+03 -1.602486E+04
        35   2 -9.686402E+05  2.481782E+05  4.613920E+05 -5.591057E+05  7.303924E+03 -1.674028E+04
        35   3 -1.012049E+06  2.786356E+05  4.579936E+05 -5.185943E+05  6.604447E+03 -1.287959E+04
        35   4 -2.666123E+06 -3.591683E+05  1.514576E+03 -9.788128E+05  5.809660E+03 -1.619302E+04
        35   5 -2.658237E+06 -3.957846E+05 -4.523093E+03 -1.023819E+06  7.480121E+03 -1.667699E+04
        35   6 -2.666070E+06 -3.577276E+05  3.873681E+02 -9.794465E+05  7.392995E+03 -1.257880E+04
        35   7 -4.388669E+06 -1.010745E+06 -4.734784E+05 -1.446212E+06  5.372605E+03 -1.636069E+04
        35   8 -4.345099E+06 -1.039578E+06 -4.707015E+05 -1.487392E+06  7.655790E+03 -1.661392E+04
        35   9 -4.317465E+06 -9.939169E+05 -4.574726E+05 -1.439188E+06  8.179210E+03 -1.227890E+04
        35  10 -9.407287E+05  2.925735E+05  4.762335E+05 -5.102428E+05  1.477600E-09 -7.577359E-09
        35  11 -9.686403E+05  2.481779E+05  4.613913E+05 -5.591056E+05  8.361247E-09  5.300433E-10
        35  12 -1.012049E+06  2.786354E+05  4.579932E+05 -5.185943E+05  3.829003E-09  6.416750E-09
        35  13 -2.666123E+06 -3.591686E+05  1.514021E+03 -9.788127E+05 -2.552963E-09 -3.082458E-09
        35  14 -2.658237E+06 -3.957849E+05 -4.523720E+03 -1.023819E+06 -4.439860E-09 -5.402335E-09
        35  15 -2.666070E+06 -3.577278E+05  3.869685E+02 -9.794464E+05 -1.955642E-10 -3.289447E-09
        35  16 -4.388669E+06 -1.010746E+06 -4.734790E+05 -1.446212E+06  1.336829E-09 -2.694079E-09
        35  17 -4.345099E+06 -1.039578E+06 -4.707021E+05 -1.487392E+06 -4.387816E-09 -6.953052E-09
        35  18 -4.317465E+06 -9.939170E+05 -4.574730E+05 -1.439188E+06 -6.945129E-09 -5.804994E-11
        35  19 -9.407286E+05  2.925738E+05  4.762340E+05 -5.102428E+05 -6.248066E+03  1.602486E+04
        35  20 -9.686402E+05  2.481782E+05  4.613920E+05 -5.591057E+05 -7.303924E+03  1.674028E+04
        35  21 -1.012049E+06  2.786356E+05  4.579936E+05 -5.185943E+05 -6.604447E+03  1.287959E+04
        35  22 -2.666123E+06 -3.591683E+05  1.514576E+03 -9.788128E+05 -5.809660E+03  1.619302E+04
        35  23 -2.658237E+06 -3.957846E+05 -4.523093E+03 -1.023819E+06 -7.480121E+03  1.667699E+04
        35  24 -2.666070E+06 -3.577276E+05  3.873681E+02 -9.794465E+05 -7.392995E+03  1.257880E+04
        35  25 -4.388669E+06 -1.010745E+06 -4.734784E+05 -1.446212E+06 -5.372605E+03  1.636069E+04
        35  26 -4.345099E+06 -1.039578E+06 -4.707015E+05 -1.487392E+06 -7.655790E+03  1.661392E+04
        35  27 -4.317465E+06 -9.939169E+05 -4.574726E+05 -1.439188E+06 -8.179210E+03  1.227890E+04
        36   1 -1.773385E+06  2.339885E+04  2.538040E+05 -6.926410E+05  6.062250E+03 -1.043109E+04
        36   2 -1.774993E+06 -1.012461E+05  2.263302E+05 -8.216699E+05  7.589771E+03 -6.744071E+03
        36   3 -1.955842E+06 -4.409361E+04  1.975369E+05 -7.399113E+05  8.320161E+03 -1.067732E+03
        36   4 -2.701871E+06 -3.345058E+05 -2.967540E+03 -9.519532E+05  6.288265E+03 -1.034489E+04
        36   5 -2.612397E+06 -4.258084E+05 -5.773544E+03 -1.057240E+06  8.080375E+03 -6.553835E+03
        36   6 -2.702260E+06 -3.353640E+05 -1.011473E+04 -9.517214E+05  9.075245E+03 -7.719754E+02
        36   7 -3.629526E+06 -6.923546E+05 -2.598189E+05 -1.210914E+06  6.513904E+03 -1.025883E+04
        36   8 -3.449128E+06 -7.503239E+05 -2.379426E+05 -1.292521E+06  8.570239E+03 -6.363889E+03
        36   9 -3.448142E+06 -6.265958E+05 -2.178187E+05 -1.163300E+06  9.829313E+03 -4.766198E+02
        36  10 -1.773385E+06  2.339872E+04  2.538038E+05 -6.926409E+05 -3.391092E-10  2.895234E-09
        36  11 -1.774993E+06 -1.012461E+05  2.263300E+05 -8.216699E+05  2.808386E-09 -2.591700E-09
        36  12 -1.955842E+06 -4.409363E+04  1.975368E+05 -7.399113E+05 -2.946700E-09  6.937626E-09
        36  13 -2.701871E+06 -3.345059E+05 -2.967815E+03 -9.519532E+05  1.028412E-09 -6.249412E-09
        36  14 -2.612398E+06 -4.258085E+05 -5.773748E+03 -1.057240E+06  5.135677E-09 -3.382059E-09
        36  15 -2.702260E+06 -3.353640E+05 -1.011489E+04 -9.517214E+05  1.096335E-09  1.567999E-08
        36  16 -3.629526E+06 -6.923547E+05 -2.598191E+05 -1.210914E+06 -3.513332E-10 -5.129890E-09
        36  17 -3.449128E+06 -7.503240E+05 -2.379428E+05 -1.292521E+06  4.865659E-09 -1.561572E-08
        36  18 -3.448142E+06 -6.265958E+05 -2.178189E+05 -1.163300E+06  1.103401E-09 -1.039543E-08
        36  19 -1.773385E+06  2.339885E+04  2.538040E+05 -6.926410E+05 -6.062250E+03  1.043109E+04
        36  20 -1.774993E+06 -1.012461E+05  2.263302E+05 -8.216699E+05 -7.589771E+03  6.744071E+03
        36  21 -1.955842E+06 -4.409361E+04  1.975369E+05 -7.399113E+05 -8.320161E+03  1.067732E+03
        36  22 -2.701871E+06 -3.345058E+05 -2.967540E+03 -9.519532E+05 -6.288265E+03  1.034489E+04
        36  23 -2.612397E+06 -4.258084E+05 -5.773544E+03 -1.057240E+06 -8.080375E+03  6.553835E+03
        36  24 -2.702260E+06 -3.353640E+05 -1.011473E+04 -9.517214E+05 -9.075245E+03  7.719754E+02
        36  25 -3.629526E+06 -6.923546E+05 -2.598189E+05 -1.210914E+06 -6.513904E+03  1.025883E+04
        36  26 -3.449128E+06 -7.503239E+05 -2.379426E+05 -1.292521E+06 -8.570239E+03  6.363889E+03
        36  27 -3.448142E+06 -6.265958E+05 -2.178187E+05 -1.163300E+06 -9.829313E+03  4.766198E+02
        37   1 -3.082532E+06 -4.753488E+05 -1.177578E+05 -1.057352E+06  8.502980E+03  3.406227E+03
        37   2 -3.074778E+06 -6.083145E+05 -1.534434E+05 -1.195439E+06  1.883762E+04  1.324228E+04
        37   3 -3.285685E+06 -5.737974E+05 -2.082219E+05 -1.098765E+06  3.047818E+04  1.976138E+04
        37   4 -2.709281E+06 -3.283884E+05 -1.341857E+04 -9.502893E+05  9.403478E+03  3.759701E+03
        37   5 -2.601917E+06 -4.251012E+05 -2.233229E+04 -1.062603E+06  1.930194E+04  1.342349E+04
        37   6 -2.713111E+06 -3.542344E+05 -4.997541E+04 -9.401730E+05  3.050803E+04  1.977234E+04
        37   7 -2.335895E+06 -1.814176E+05  9.090752E+04 -8.431682E+05  1.030458E+04  4.113416E+03
        37   8 -2.128841E+06 -2.418732E+05  1.087580E+05 -9.296758E+05  1.976665E+04  1.360485E+04
        37   9 -2.140223E+06 -1.346515E+05  1.082406E+05 -7.814494E+05  3.053789E+04  1.978330E+04
        37  10 -3.082532E+06 -4.753488E+05 -1.177580E+05 -1.057352E+06 -1.150999E-09  1.612108E-08
        37  11 -3.074778E+06 -6.083148E+05 -1.534445E+05 -1.195440E+06 -2.368674E-09  1.361455E-08
        37  12 -3.285686E+06 -5.737981E+05 -2.082244E+05 -1.098765E+06 -5.796233E-10  4.616078E-09
        37  13 -2.709281E+06 -3.283884E+05 -1.341877E+04 -9.502894E+05 -2.692033E-09  6.071048E-09
        37  14 -2.601918E+06 -4.251015E+05 -2.233334E+04 -1.062604E+06 -5.567940E-09  3.232119E-09
        37  15 -2.713113E+06 -3.542350E+05 -4.997791E+04 -9.401735E+05 -2.155788E-09  1.314762E-08
        37  16 -2.335895E+06 -1.814177E+05  9.090728E+04 -8.431682E+05 -7.110354E-09  1.471008E-08
        37  17 -2.128842E+06 -2.418735E+05  1.087569E+05 -9.296760E+05 -6.326132E-09  7.634099E-09
        37  18 -2.140224E+06 -1.346522E+05  1.082381E+05 -7.814499E+05 -1.962281E-09 -5.925151E-09
        37  19 -3.082532E+06 -4.753488E+05 -1.177578E+05 -1.057352E+06 -8.502980E+03 -3.406227E+03
        37  20 -3.074778E+06 -6.083145E+05 -1.534434E+05 -1.195439E+06 -1.883762E+04 -1.324228E+04
        37  21 -3.285685E+06 -5.737974E+05 -2.082219E+05 -1.098765E+06 -3.047818E+04 -1.976138E+04
        37  22 -2.709281E+06 -3.283884E+05 -1.341857E+04 -9.502893E+05 -9.403478E+03 -3.759701E+03
        37  23 -2.601917E+06 -4.251012E+05 -2.233229E+04 -1.062603E+06 -1.930194E+04 -1.342349E+04
        37  24 -2.713111E+06 -3.542344E+05 -4.997541E+04 -9.401730E+05 -3.050803E+04 -1.977234E+04
        37  25 -2.335895E+06 -1.814176E+05  9.090752E+04 -8.431682E+05 -1.030458E+04 -4.113416E+03
        37  26 -2.128841E+06 -2.418732E+05  1.087580E+05 -9.296758E+05 -1.976665E+04 -1.360485E+04
        37  27 -2.140223E+06 -1.346515E+05  1.082406E+05 -7.814494E+05 -3.053789E+04 -1.978330E+04
        38   1 -4.152707E+06 -9.185206E+05 -4.655138E+05 -1.394806E+06  3.537666E+04  2.704690E+04
        38   2 -4.146990E+06 -9.500005E+05 -5.192039E+05 -1.461941E+06  8.840341E+04  5.386771E+04
        38   3 -4.303185E+06 -1.097710E+06 -6.681101E+05 -1.335728E+06  1.480247E+05  6.344129E+04
        38   4 -2.690302E+06 -3.447900E+05 -5.796940E+04 -9.773696E+05  3.733701E+04  2.780592E+04
        38   5 -2.621421E+06 -3.683527E+05 -9.793744E+04 -1.043143E+06  8.818366E+04  5.377924E+04
        38   6 -2.713721E+06 -5.073279E+05 -2.311711E+05 -9.156402E+05  1.456235E+05  6.252461E+04
        38   7 -1.225835E+06  2.290978E+05  3.493743E+05 -5.590330E+05  3.930239E+04  2.856696E+04
        38   8 -1.093612E+06  2.134321E+05  3.231142E+05 -6.234147E+05  8.796302E+04  5.369044E+04
        38   9 -1.121832E+06  8.316996E+04  2.055371E+05 -4.945934E+05  1.432150E+05  6.160532E+04
        38  10 -4.152708E+06 -9.185217E+05 -4.655175E+05 -1.394807E+06 -1.567516E-09 -1.464758E-09
        38  11 -4.147000E+06 -9.500057E+05 -5.192241E+05 -1.461945E+06 -1.405259E-09 -6.848424E-09
        38  12 -4.303210E+06 -1.097720E+06 -6.681592E+05 -1.335735E+06 -2.655262E-09 -2.135542E-09
        38  13 -2.690303E+06 -3.447912E+05 -5.797349E+04 -9.773704E+05  2.218291E-09  7.125108E-10
        38  14 -2.621431E+06 -3.683580E+05 -9.795759E+04 -1.043147E+06  7.047382E-10  2.022883E-09
        38  15 -2.713745E+06 -5.073379E+05 -2.312186E+05 -9.156476E+05 -2.922135E-09 -5.887296E-12
        38  16 -1.225837E+06  2.290965E+05  3.493698E+05 -5.590339E+05  3.060212E-09 -1.599912E-10
        38  17 -1.093621E+06  2.134270E+05  3.230942E+05 -6.234185E+05  2.036011E-09  1.621198E-08
        38  18 -1.121855E+06  8.316036E+04  2.054913E+05 -4.946005E+05 -7.953020E-11  1.618684E-09
        38  19 -4.152707E+06 -9.185206E+05 -4.655138E+05 -1.394806E+06 -3.537666E+04 -2.704690E+04
        38  20 -4.146990E+06 -9.500005E+05 -5.192039E+05 -1.461941E+06 -8.840341E+04 -5.386771E+04
        38  21 -4.303185E+06 -1.097710E+06 -6.681101E+05 -1.335728E+06 -1.480247E+05 -6.344129E+04
        38  22 -2.690302E+06 -3.447900E+05 -5.796940E+04 -9.773696E+05 -3.733701E+04 -2.780592E+04
        38  23 -2.621421E+06 -3.683527E+05 -9.793744E+04 -1.043143E+06 -8.818366E+04 -5.377924E+04
        38  24 -2.713721E+06 -5.073279E+05 -2.311711E+05 -9.156402E+05 -1.456235E+05 -6.252461E+04
        38  25 -1.225835E+06  2.290978E+05  3.493743E+05 -5.590330E+05 -3.930239E+04 -2.856696E+04
        38  26 -1.093612E+06  2.134321E+05  3.231142E+05 -6.234147E+05 -8.796302E+04 -5.369044E+04
        38  27 -1.121832E+06  8.316996E+04  2.055371E+05 -4.945934E+05 -1.432150E+05 -6.160532E+04
        39   1 -1.253440E+06  9.070172E+04  1.184146E+05  9.040220E+03  8.073657E+04  1.177935E+00
        39   2 -1.271515E+06 -2.110296E+04  5.054748E+04  2.297529E+03  5.311718E+04  1.969586E-01
        39   3 -1.253503E+06 -3.050075E+03  3.315688E+04 -4.444999E+03  2.549754E+04 -1.829098E-01
        39   4 -1.253440E+06  9.070157E+04  1.184146E+05  3.202031E-09  8.073657E+04  2.068516E-10
        39   5 -1.271515E+06 -2.110297E+04  5.054748E+04 -1.000361E-08  5.311718E+04  1.252947E-09
        39   6 -1.253503E+06 -3.050112E+03  3.315688E+04 -1.682039E-09  2.549754E+04  9.761590E-11
        39   7 -1.253440E+06  9.070172E+04  1.184146E+05 -9.040220E+03  8.073657E+04 -1.177935E+00
        39   8 -1.271515E+06 -2.110296E+04  5.054748E+04 -2.297529E+03  5.311718E+04 -1.969586E-01
        39   9 -1.253503E+06 -3.050075E+03  3.315688E+04  4.444999E+03  2.549754E+04  1.829098E-01
        39  10 -1.253447E+06  9.069997E+04  1.184023E+05  9.040220E+03  4.457828E-10 -5.375623E-10
        39  11 -1.271518E+06 -2.110372E+04  5.054217E+04  2.297529E+03 -4.992011E-10  4.805395E-10
        39  12 -1.253504E+06 -3.050250E+03  3.315566E+04 -4.444999E+03  7.485233E-10 -1.410243E-10
        39  13 -1.253447E+06  9.069981E+04  1.184023E+05 -4.845822E-08  2.068933E-09  2.154615E-10
        39  14 -1.271518E+06 -2.110373E+04  5.054217E+04 -3.583526E-08  1.769203E-09  4.608465E-10
        39  15 -1.253504E+06 -3.050287E+03  3.315565E+04 -3.613593E-08  1.047597E-09  3.000653E-10
        39  16 -1.253447E+06  9.069997E+04  1.184023E+05 -9.040220E+03 -5.046289E-10  5.388398E-10
        39  17 -1.271518E+06 -2.110372E+04  5.054217E+04 -2.297529E+03  1.287867E-09  5.920338E-11
        39  18 -1.253504E+06 -3.050250E+03  3.315566E+04  4.444999E+03  2.858254E-09  3.443566E-10
        39  19 -1.253440E+06  9.070172E+04  1.184146E+05  9.040220E+03 -8.073657E+04 -1.177935E+00
        39  20 -1.271515E+06 -2.110296E+04  5.054748E+04  2.297529E+03 -5.311718E+04 -1.969586E-01
        39  21 -1.253503E+06 -3.050075E+03  3.315688E+04 -4.444999E+03 -2.549754E+04  1.829098E-01
        39  22 -1.253440E+06  9.070157E+04  1.184146E+05  2.044318E-08 -8.073657E+04  2.439452E-10
        39  23 -1.271515E+06 -2.110297E+04  5.054748E+04 -2.722603E-08 -5.311718E+04 -2.104160E-10
        39  24 -1.253503E+06 -3.050112E+03  3.315688E+04  8.656545E-08 -2.549754E+04 -1.650391E-11
        39  25 -1.253440E+06  9.070172E+04  1.184146E+05 -9.040220E+03 -8.073657E+04  1.177935E+00
        39  26 -1.271515E+06 -2.110296E+04  5.054748E+04 -2.297529E+03 -5.311718E+04  1.969586E-01
        39  27 -1.253503E+06 -3.050075E+03  3.315688E+04  4.444999E+03 -2.549754E+04 -1.829098E-01
        40   1 -1.260213E+06  1.375462E+04  2.743152E+04  1.308484E+03  2.002002E+04  4.227708E-02
        40   2 -1.263131E+06 -3.205707E+03  1.307182E+04  3.098308E+02  1.316188E+04  6.581358E-03
        40   3 -1.260224E+06 -4.519849E+02  8.112505E+03 -6.888071E+02  6.303864E+03 -7.007698E-03
        40   4 -1.260213E+06  1.375462E+04  2.743152E+04 -3.749380E-08  2.002002E+04  3.154765E-10
        40   5 -1.263131E+06 -3.205707E+03  1.307182E+04 -7.978134E-09  1.316188E+04  3.456693E-11
        40   6 -1.260224E+06 -4.519858E+02  8.112505E+03  5.813931E-08  6.303864E+03 -2.004909E-11
        40   7 -1.260213E+06  1.375462E+04  2.743152E+04 -1.308484E+03  2.002002E+04 -4.227708E-02
        40   8 -1.263131E+06 -3.205707E+03  1.307182E+04 -3.098308E+02  1.316188E+04 -6.581359E-03
        40   9 -1.260224E+06 -4.519849E+02  8.112505E+03  6.888071E+02  6.303864E+03  7.007698E-03
        40  10 -1.260213E+06  1.375451E+04  2.743076E+04  1.308484E+03  1.143394E-10 -9.944082E-11
        40  11 -1.263132E+06 -3.205754E+03  1.307149E+04  3.098308E+02  1.271644E-09  5.779147E-10
        40  12 -1.260224E+06 -4.519956E+02  8.112430E+03 -6.888071E+02 -3.539788E-11 -3.167142E-10
        40  13 -1.260213E+06  1.375451E+04  2.743076E+04 -5.471323E-08  1.681073E-11  1.683881E-10
        40  14 -1.263132E+06 -3.205754E+03  1.307149E+04  6.337317E-10  1.076439E-09  2.220192E-10
        40  15 -1.260224E+06 -4.519965E+02  8.112430E+03 -6.027172E-08  3.246037E-09  6.541023E-11
        40  16 -1.260213E+06  1.375451E+04  2.743076E+04 -1.308484E+03  1.974643E-09  9.838947E-11
        40  17 -1.263132E+06 -3.205754E+03  1.307149E+04 -3.098308E+02  1.533791E-09  2.309071E-10
        40  18 -1.260224E+06 -4.519956E+02  8.112430E+03  6.888071E+02 -2.010117E-10  4.182785E-10
        40  19 -1.260213E+06  1.375462E+04  2.743152E+04  1.308484E+03 -2.002002E+04 -4.227708E-02
        40  20 -1.263131E+06 -3.205707E+03  1.307182E+04  3.098308E+02 -1.316188E+04 -6.581356E-03
        40  21 -1.260224E+06 -4.519849E+02  8.112505E+03 -6.888071E+02 -6.303864E+03  7.007699E-03
        40  22 -1.260213E+06  1.375462E+04  2.743152E+04  4.862616E-08 -2.002002E+04 -1.732295E-10
        40  23 -1.263131E+06 -3.205707E+03  1.307182E+04 -7.977609E-09 -1.316188E+04 -1.050625E-13
        40  24 -1.260224E+06 -4.519858E+02  8.112505E+03  7.535630E-08 -6.303864E+03  1.543130E-10
        40  25 -1.260213E+06  1.375462E+04  2.743152E+04 -1.308484E+03 -2.002002E+04  4.227708E-02
        40  26 -1.263131E+06 -3.205707E+03  1.307182E+04 -3.098308E+02 -1.316188E+04  6.581357E-03
        40  27 -1.260224E+06 -4.519849E+02  8.112505E+03  6.888071E+02 -6.303864E+03 -7.007699E-03
        41   1 -1.261303E+06  2.074579E+03  6.482781E+03  1.813398E+02  4.983798E+03  1.458562E-03
        41   2 -1.261785E+06 -4.835399E+02  3.281457E+03  3.693353E+01  3.302844E+03  1.968705E-04
        41   3 -1.261305E+06 -7.107784E+01  1.918860E+03 -1.074750E+02  1.621868E+03 -2.813140E-04
        41   4 -1.261303E+06  2.074579E+03  6.482781E+03  1.699886E-08  4.983798E+03  6.369805E-11
        41   5 -1.261785E+06 -4.835399E+02  3.281457E+03 -3.595225E-08  3.302844E+03 -1.913809E-10
        41   6 -1.261305E+06 -7.107786E+01  1.918860E+03  2.304802E-08  1.621868E+03  2.935515E-10
        41   7 -1.261303E+06  2.074579E+03  6.482781E+03 -1.813398E+02  4.983798E+03 -1.458563E-03
        41   8 -1.261785E+06 -4.835399E+02  3.281457E+03 -3.693353E+01  3.302844E+03 -1.968715E-04
        41   9 -1.261305E+06 -7.107784E+01  1.918860E+03  1.074750E+02  1.621868E+03  2.813156E-04
        41  10 -1.261303E+06  2.074573E+03  6.482734E+03  1.813398E+02 -2.881028E-09  2.737744E-10
        41  11 -1.261785E+06 -4.835428E+02  3.281437E+03  3.693353E+01  2.568998E-10  1.873567E-10
        41  12 -1.261305E+06 -7.107855E+01  1.918855E+03 -1.074750E+02 -4.074044E-10  4.903572E-10
        41  13 -1.261303E+06  2.074573E+03  6.482734E+03 -1.744782E-08 -1.681065E-11 -4.258093E-11
        41  14 -1.261785E+06 -4.835428E+02  3.281437E+03 -6.178697E-08 -2.281746E-10 -1.476525E-10
        41  15 -1.261305E+06 -7.107857E+01  1.918855E+03  1.513722E-09 -9.382200E-10  2.034513E-10
        41  16 -1.261303E+06  2.074573E+03  6.482734E+03 -1.813398E+02  1.055018E-09  4.506971E-11
        41  17 -1.261785E+06 -4.835428E+02  3.281437E+03 -3.693353E+01  2.580789E-09  3.290649E-11
        41  18 -1.261305E+06 -7.107855E+01  1.918855E+03  1.074750E+02  1.328394E-10  3.035215E-10
        41  19 -1.261303E+06  2.074579E+03  6.482781E+03  1.813398E+02 -4.983798E+03 -1.458562E-03
        41  20 -1.261785E+06 -4.835399E+02  3.281457E+03  3.693353E+01 -3.302844E+03 -1.968692E-04
        41  21 -1.261305E+06 -7.107784E+01  1.918860E+03 -1.074750E+02 -1.621868E+03  2.813154E-04
        41  22 -1.261303E+06  2.074579E+03  6.482781E+03  5.144370E-08 -4.983798E+03 -2.524006E-10
        41  23 -1.261785E+06 -4.835399E+02  3.281457E+03 -3.595172E-08 -3.302844E+03  4.520325E-11
        41  24 -1.261305E+06 -7.107786E+01  1.918860E+03  5.820214E-09 -1.621868E+03  1.110150E-10
        41  25 -1.261303E+06  2.074579E+03  6.482781E+03 -1.813398E+02 -4.983798E+03  1.458563E-03
        41  26 -1.261785E+06 -4.835399E+02  3.281457E+03 -3.693353E+01 -3.302844E+03  1.968693E-04
        41  27 -1.261305E+06 -7.107784E+01  1.918860E+03  1.074750E+02 -1.621868E+03 -2.813157E-04
        42   1 -1.261488E+06  3.110698E+02  1.459395E+03  2.077601E+01  1.316266E+03  4.413548E-05
        42   2 -1.261558E+06 -6.311262E+01  6.495248E+02  2.978504E+00  9.876662E+02  4.748059E-06
        42   3 -1.261488E+06 -5.007155E+01  1.507207E+02 -1.481901E+01  6.590666E+02 -1.576261E-05
        42   4 -1.261488E+06  3.110698E+02  1.459395E+03  4.576217E-08  1.316266E+03  1.360292E-10
        42   5 -1.261558E+06 -6.311262E+01  6.495248E+02 -9.860736E-09  9.876662E+02 -4.141862E-11
        42   6 -1.261488E+06 -5.007155E+01  1.507207E+02  1.024397E-07  6.590666E+02 -4.218547E-12
        42   7 -1.261488E+06  3.110698E+02  1.459395E+03 -2.077601E+01  1.316266E+03 -4.413476E-05
        42   8 -1.261558E+06 -6.311262E+01  6.495248E+02 -2.978504E+00  9.876662E+02 -4.748146E-06
        42   9 -1.261488E+06 -5.007155E+01  1.507207E+02  1.481901E+01  6.590666E+02  1.576133E-05
        42  10 -1.261488E+06  3.110694E+02  1.459392E+03  2.077601E+01 -4.211859E-10 -6.026438E-11
        42  11 -1.261558E+06 -6.311288E+01  6.495230E+02  2.978504E+00 -1.888179E-09  5.320998E-10
        42  12 -1.261488E+06 -5.007167E+01  1.507199E+02 -1.481901E+01 -2.194231E-09 -8.063280E-10
        42  13 -1.261488E+06  3.110694E+02  1.459392E+03  1.131862E-08  2.693015E-09  2.800614E-10
        42  14 -1.261558E+06 -6.311288E+01  6.495230E+02 -1.249588E-09 -2.380907E-09  2.944231E-10
        42  15 -1.261488E+06 -5.007167E+01  1.507199E+02  8.090880E-08  1.285724E-09 -2.455211E-10
        42  16 -1.261488E+06  3.110694E+02  1.459392E+03 -2.077601E+01 -5.263501E-10  6.208647E-10
        42  17 -1.261558E+06 -6.311288E+01  6.495230E+02 -2.978504E+00 -8.765917E-10  1.921658E-10
        42  18 -1.261488E+06 -5.007167E+01  1.507199E+02  1.481901E+01  1.328431E-09  5.143380E-10
        42  19 -1.261488E+06  3.110698E+02  1.459395E+03  2.077601E+01 -1.316266E+03 -4.413456E-05
        42  20 -1.261558E+06 -6.311262E+01  6.495248E+02  2.978504E+00 -9.876662E+02 -4.745990E-06
        42  21 -1.261488E+06 -5.007155E+01  1.507207E+02 -1.481901E+01 -6.590666E+02  1.576260E-05
        42  22 -1.261488E+06  3.110698E+02  1.459395E+03  9.743168E-08 -1.316266E+03  4.605027E-10
        42  23 -1.261558E+06 -6.311262E+01  6.495248E+02  4.180589E-08 -9.876662E+02  2.593241E-10
        42  24 -1.261488E+06 -5.007155E+01  1.507207E+02  1.863952E-07 -6.590666E+02 -2.538634E-10
        42  25 -1.261488E+06  3.110698E+02  1.459395E+03 -2.077601E+01 -1.316266E+03  4.413468E-05
        42  26 -1.261558E+06 -6.311262E+01  6.495248E+02 -2.978504E+00 -9.876662E+02  4.747518E-06
        42  27 -1.261488E+06 -5.007155E+01  1.507207E+02  1.481901E+01 -6.590666E+02 -1.576276E-05
        43   1 -1.261546E+06  5.374565E+01 -6.268631E+01 -1.286943E+01  6.511005E+02 -1.352212E-05
        43   2 -1.261486E+06  5.471672E+01 -5.443039E+02  2.649714E+00  9.267031E+02  3.964340E-06
        43   3 -1.261546E+06 -2.800624E+02 -1.289564E+03  1.816863E+01  1.202301E+03  3.525594E-05
        43   4 -1.261546E+06  5.374565E+01 -6.268631E+01  1.221853E-07  6.511005E+02 -5.313580E-10
        43   5 -1.261486E+06  5.471672E+01 -5.443039E+02  3.890188E-08  9.267031E+02  5.396082E-10
        43   6 -1.261546E+06 -2.800624E+02 -1.289564E+03  2.450508E-08  1.202301E+03  3.975120E-10
        43   7 -1.261546E+06  5.374565E+01 -6.268631E+01  1.286943E+01  6.511005E+02  1.352292E-05
        43   8 -1.261486E+06  5.471672E+01 -5.443039E+02 -2.649714E+00  9.267031E+02 -3.962588E-06
        43   9 -1.261546E+06 -2.800624E+02 -1.289564E+03 -1.816863E+01  1.202301E+03 -3.525438E-05
        43  10 -1.261546E+06  5.374554E+01 -6.268710E+01 -1.286943E+01 -1.888266E-11 -4.234996E-10
        43  11 -1.261486E+06  5.471649E+01 -5.443055E+02  2.649713E+00  2.756235E-09  3.146731E-10
        43  12 -1.261546E+06 -2.800628E+02 -1.289567E+03  1.816863E+01 -1.425457E-09  1.918485E-10
        43  13 -1.261546E+06  5.374554E+01 -6.268710E+01  1.632031E-09  5.400582E-10 -2.725210E-10
        43  14 -1.261486E+06  5.471649E+01 -5.443055E+02  2.168010E-08 -2.773277E-09  6.864398E-13
        43  15 -1.261546E+06 -2.800628E+02 -1.289567E+03 -5.299635E-08  9.810734E-10  4.415330E-10
        43  16 -1.261546E+06  5.374554E+01 -6.268710E+01  1.286943E+01  5.234747E-10  1.306080E-11
        43  17 -1.261486E+06  5.471649E+01 -5.443055E+02 -2.649714E+00  1.628309E-10 -4.449875E-11
        43  18 -1.261546E+06 -2.800628E+02 -1.289567E+03 -1.816863E+01 -1.449708E-09  5.558215E-10
        43  19 -1.261546E+06  5.374565E+01 -6.268631E+01 -1.286943E+01 -6.511005E+02  1.352188E-05
        43  20 -1.261486E+06  5.471672E+01 -5.443039E+02  2.649714E+00 -9.267031E+02 -3.960952E-06
        43  21 -1.261546E+06 -2.800624E+02 -1.289564E+03  1.816863E+01 -1.202301E+03 -3.525390E-05
        43  22 -1.261546E+06  5.374565E+01 -6.268631E+01  8.775090E-08 -6.511005E+02 -2.252813E-10
        43  23 -1.261486E+06  5.471672E+01 -5.443039E+02 -2.998524E-08 -9.267031E+02  2.563696E-13
        43  24 -1.261546E+06 -2.800624E+02 -1.289564E+03  4.172948E-08 -1.202301E+03  4.582682E-10
        43  25 -1.261546E+06  5.374565E+01 -6.268631E+01  1.286943E+01 -6.511005E+02 -1.352431E-05
        43  26 -1.261486E+06  5.471672E+01 -5.443039E+02 -2.649714E+00 -9.267031E+02  3.961490E-06
        43  27 -1.261546E+06 -2.800624E+02 -1.289564E+03 -1.816863E+01 -1.202301E+03  3.525377E-05
        44   1 -1.261712E+06  6.519106E+01 -1.708364E+03 -9.666815E+01  1.473516E+03 -2.298847E-04
        44   2 -1.261280E+06  4.346991E+02 -2.942072E+03  3.319190E+01  2.980780E+03  1.596746E-04
        44   3 -1.261714E+06 -1.866361E+03 -5.826187E+03  1.630539E+02  4.488063E+03  1.181033E-03
        44   4 -1.261712E+06  6.519105E+01 -1.708364E+03  5.115334E-08  1.473516E+03 -8.425555E-11
        44   5 -1.261280E+06  4.346991E+02 -2.942072E+03  2.677200E-08  2.980780E+03 -1.845437E-10
        44   6 -1.261714E+06 -1.866361E+03 -5.826187E+03 -4.282299E-08  4.488063E+03  3.504082E-10
        44   7 -1.261712E+06  6.519106E+01 -1.708364E+03  9.666815E+01  1.473516E+03  2.298834E-04
        44   8 -1.261280E+06  4.346991E+02 -2.942072E+03 -3.319190E+01  2.980780E+03 -1.596737E-04
        44   9 -1.261714E+06 -1.866361E+03 -5.826187E+03 -1.630539E+02  4.488063E+03 -1.181033E-03
        44  10 -1.261712E+06  6.519048E+01 -1.708368E+03 -9.666815E+01  1.295202E-11 -9.601544E-11
        44  11 -1.261280E+06  4.346967E+02 -2.942089E+03  3.319190E+01 -2.894535E-09 -5.782709E-10
        44  12 -1.261714E+06 -1.866367E+03 -5.826225E+03  1.630539E+02 -7.179811E-10 -2.023798E-10
        44  13 -1.261712E+06  6.519046E+01 -1.708368E+03 -8.663095E-08  1.663452E-09  2.547258E-10
        44  14 -1.261280E+06  4.346967E+02 -2.942089E+03 -4.211942E-08 -4.989366E-09 -1.287227E-13
        44  15 -1.261714E+06 -1.866367E+03 -5.826225E+03 -1.095557E-07 -2.200600E-09 -9.791842E-11
        44  16 -1.261712E+06  6.519048E+01 -1.708368E+03  9.666815E+01  1.212656E-09  3.356977E-10
        44  17 -1.261280E+06  4.346967E+02 -2.942089E+03 -3.319190E+01 -5.941404E-10 -6.213976E-11
        44  18 -1.261714E+06 -1.866367E+03 -5.826225E+03 -1.630539E+02  8.783099E-10 -4.739008E-10
        44  19 -1.261712E+06  6.519106E+01 -1.708364E+03 -9.666815E+01 -1.473516E+03  2.298845E-04
        44  20 -1.261280E+06  4.346991E+02 -2.942072E+03  3.319190E+01 -2.980780E+03 -1.596740E-04
        44  21 -1.261714E+06 -1.866361E+03 -5.826187E+03  1.630539E+02 -4.488063E+03 -1.181033E-03
        44  22 -1.261712E+06  6.519105E+01 -1.708364E+03  1.372586E-07 -1.473516E+03  4.380569E-10
        44  23 -1.261280E+06  4.346991E+02 -2.942072E+03  2.677095E-08 -2.980780E+03 -2.301903E-10
        44  24 -1.261714E+06 -1.866361E+03 -5.826187E+03  8.853145E-09 -4.488063E+03 -6.652196E-10
        44  25 -1.261712E+06  6.519106E+01 -1.708364E+03  9.666815E+01 -1.473516E+03 -2.298842E-04
        44  26 -1.261280E+06  4.346991E+02 -2.942072E+03 -3.319190E+01 -2.980780E+03  1.596720E-04
        44  27 -1.261714E+06 -1.866361E+03 -5.826187E+03 -1.630539E+02 -4.488063E+03  1.181032E-03
        45   1 -1.262684E+06  4.067751E+02 -7.293599E+03 -6.196766E+02  5.674579E+03 -5.675065E-03
        45   2 -1.260069E+06  2.883922E+03 -1.175653E+04  2.787162E+02  1.184313E+04  5.327196E-03
        45   3 -1.262694E+06 -1.237382E+04 -2.467510E+04  1.177108E+03  1.801165E+04  3.421695E-02
        45   4 -1.262684E+06  4.067743E+02 -7.293599E+03  3.132271E-08  5.674579E+03  2.099071E-11
        45   5 -1.260069E+06  2.883922E+03 -1.175653E+04  4.904691E-08  1.184313E+04 -4.473232E-11
        45   6 -1.262694E+06 -1.237383E+04 -2.467510E+04  1.079817E-08  1.801165E+04 -1.578370E-10
        45   7 -1.262684E+06  4.067751E+02 -7.293599E+03  6.196766E+02  5.674579E+03  5.675066E-03
        45   8 -1.260069E+06  2.883922E+03 -1.175653E+04 -2.787162E+02  1.184313E+04 -5.327199E-03
        45   9 -1.262694E+06 -1.237382E+04 -2.467510E+04 -1.177108E+03  1.801165E+04 -3.421695E-02
        45  10 -1.262684E+06  4.067664E+02 -7.293660E+03 -6.196766E+02 -7.144169E-10 -1.579067E-10
        45  11 -1.260069E+06  2.883884E+03 -1.175679E+04  2.787162E+02  1.279440E-09  3.390336E-10
        45  12 -1.262695E+06 -1.237391E+04 -2.467571E+04  1.177108E+03 -2.178851E-09  6.586361E-10
        45  13 -1.262684E+06  4.067657E+02 -7.293660E+03 -3.757063E-08 -1.025988E-09 -8.466399E-11
        45  14 -1.260069E+06  2.883884E+03 -1.175679E+04  5.989516E-09  8.657876E-10 -4.943759E-11
        45  15 -1.262695E+06 -1.237391E+04 -2.467571E+04 -2.365062E-08  3.938014E-09  3.014752E-10
        45  16 -1.262684E+06  4.067664E+02 -7.293660E+03  6.196766E+02 -2.397890E-09  2.561820E-10
        45  17 -1.260069E+06  2.883884E+03 -1.175679E+04 -2.787162E+02 -1.817648E-09 -3.457407E-11
        45  18 -1.262695E+06 -1.237391E+04 -2.467571E+04 -1.177108E+03  2.907264E-09  3.218426E-10
        45  19 -1.262684E+06  4.067751E+02 -7.293599E+03 -6.196766E+02 -5.674579E+03  5.675066E-03
        45  20 -1.260069E+06  2.883922E+03 -1.175653E+04  2.787162E+02 -1.184313E+04 -5.327198E-03
        45  21 -1.262694E+06 -1.237382E+04 -2.467510E+04  1.177108E+03 -1.801165E+04 -3.421695E-02
        45  22 -1.262684E+06  4.067743E+02 -7.293599E+03  6.577214E-08 -5.674579E+03 -7.836138E-11
        45  23 -1.260069E+06  2.883922E+03 -1.175653E+04  3.182579E-08 -1.184313E+04  8.742580E-11
        45  24 -1.262694E+06 -1.237383E+04 -2.467510E+04  1.292074E-07 -1.801165E+04  8.756937E-10
        45  25 -1.262684E+06  4.067751E+02 -7.293599E+03  6.196766E+02 -5.674579E+03 -5.675067E-03
        45  26 -1.260069E+06  2.883922E+03 -1.175653E+04 -2.787162E+02 -1.184313E+04  5.327197E-03
        45  27 -1.262694E+06 -1.237382E+04 -2.467510E+04 -1.177108E+03 -1.801165E+04  3.421695E-02
        46   1 -1.268730E+06  2.744375E+03 -2.982473E+04 -3.998899E+03  2.293799E+04 -1.480374E-01
        46   2 -1.252525E+06  1.898537E+04 -4.546176E+04  2.067138E+03  4.778629E+04  1.594181E-01
        46   3 -1.268782E+06 -8.159697E+04 -1.065043E+05  8.132952E+03  7.263442E+04  9.533703E-01
        46   4 -1.268730E+06  2.744345E+03 -2.982473E+04  2.249713E-08  2.293799E+04 -1.149963E-10
        46   5 -1.252525E+06  1.898536E+04 -4.546176E+04  7.430988E-10  4.778629E+04 -9.937639E-11
        46   6 -1.268782E+06 -8.159710E+04 -1.065043E+05  5.131407E-10  7.263442E+04 -4.526128E-10
        46   7 -1.268730E+06  2.744375E+03 -2.982473E+04  3.998899E+03  2.293799E+04  1.480374E-01
        46   8 -1.252525E+06  1.898537E+04 -4.546176E+04 -2.067138E+03  4.778629E+04 -1.594181E-01
        46   9 -1.268782E+06 -8.159697E+04 -1.065043E+05 -8.132952E+03  7.263442E+04 -9.533704E-01
        46  10 -1.268730E+06  2.744234E+03 -2.982572E+04 -3.998899E+03 -1.284897E-09  4.219784E-10
        46  11 -1.252528E+06  1.898476E+04 -4.546606E+04  2.067138E+03  1.371297E-10 -1.122508E-10
        46  12 -1.268788E+06 -8.159839E+04 -1.065142E+05  8.132952E+03  3.851554E-10 -1.362269E-11
        46  13 -1.268730E+06  2.744204E+03 -2.982572E+04  3.971569E-08 -1.234244E-09  2.211899E-10
        46  14 -1.252528E+06  1.898475E+04 -4.546606E+04  2.657647E-08 -3.229149E-09 -1.446539E-10
        46  15 -1.268788E+06 -8.159852E+04 -1.065142E+05 -2.101245E-08  2.019090E-09 -1.328109E-10
        46  16 -1.268730E+06  2.744234E+03 -2.982572E+04  3.998899E+03  4.188715E-09  8.898510E-11
        46  17 -1.252528E+06  1.898476E+04 -4.546606E+04 -2.067138E+03  1.277399E-09 -1.226804E-10
        46  18 -1.268788E+06 -8.159839E+04 -1.065142E+05 -8.132952E+03 -9.091726E-10  4.210690E-11
        46  19 -1.268730E+06  2.744375E+03 -2.982473E+04 -3.998899E+03 -2.293799E+04  1.480374E-01
        46  20 -1.252525E+06  1.898537E+04 -4.546176E+04  2.067138E+03 -4.778629E+04 -1.594181E-01
        46  21 -1.268782E+06 -8.159697E+04 -1.065043E+05  8.132952E+03 -7.263442E+04 -9.533703E-01
        46  22 -1.268730E+06  2.744345E+03 -2.982473E+04  1.430507E-07 -2.293799E+04  4.592397E-10
        46  23 -1.252525E+06  1.898536E+04 -4.546176E+04 -1.648271E-08 -4.778629E+04 -4.495903E-10
        46  24 -1.268782E+06 -8.159710E+04 -1.065043E+05  5.003380E-08 -7.263442E+04  3.444910E-10
        46  25 -1.268730E+06  2.744375E+03 -2.982473E+04  3.998899E+03 -2.293799E+04 -1.480374E-01
        46  26 -1.252525E+06  1.898537E+04 -4.546176E+04 -2.067138E+03 -4.778629E+04  1.594181E-01
        46  27 -1.268782E+06 -8.159697E+04 -1.065043E+05 -8.132952E+03 -7.263442E+04  9.533704E-01
        47   1 -7.600861E+03 -1.882100E+06 -1.034309E+04  6.425485E+04  6.298173E+02 -7.343905E+03
        47   2  3.242048E+04 -1.764371E+06  2.475167E+04  1.667168E+04  3.691331E+03 -3.823898E+03
        47   3  6.018530E+04 -1.650117E+06  5.448997E+04  6.005689E+04  8.136359E+03 -3.018895E+02
        47   4 -9.683629E+03 -1.890569E+06 -1.226758E+04  6.132662E+04  6.297385E+02 -8.478126E+03
        47   5  1.460998E+03 -1.888879E+06 -5.285088E+03  1.584159E+04  3.691412E+03 -5.620833E+03
        47   6  4.639699E+02 -1.890564E+06 -3.197216E+03  6.132651E+04  8.136709E+03 -2.762193E+03
        47   7 -1.176637E+04 -1.899037E+06 -1.419206E+04  5.839844E+04  6.296704E+02 -9.612333E+03
        47   8 -2.949962E+04 -2.013373E+06 -3.532294E+04  1.501167E+04  3.691498E+03 -7.417407E+03
        47   9 -5.926156E+04 -2.130958E+06 -6.088848E+04  6.259562E+04  8.137049E+03 -5.221545E+03
        47  10 -7.600876E+03 -1.882100E+06 -1.034319E+04  6.425485E+04 -1.927899E-09  4.187558E-09
        47  11  3.242046E+04 -1.764371E+06  2.475161E+04  1.667169E+04 -4.261946E-10 -1.069866E-09
        47  12  6.018523E+04 -1.650117E+06  5.448984E+04  6.005690E+04 -1.394001E-09 -5.304764E-09
        47  13 -9.683649E+03 -1.890569E+06 -1.226771E+04  6.132663E+04 -1.115354E-09 -1.134708E-10
        47  14  1.460974E+03 -1.888879E+06 -5.285173E+03  1.584161E+04 -6.852351E-10  6.432783E-12
        47  15  4.638969E+02 -1.890564E+06 -3.197355E+03  6.132652E+04  6.834514E-10  7.762067E-11
        47  16 -1.176639E+04 -1.899037E+06 -1.419224E+04  5.839844E+04 -7.844369E-12 -4.248548E-09
        47  17 -2.949965E+04 -2.013373E+06 -3.532307E+04  1.501169E+04  2.796213E-10  1.061027E-09
        47  18 -5.926164E+04 -2.130958E+06 -6.088866E+04  6.259566E+04  6.184192E-10  5.201955E-09
        47  19 -7.600861E+03 -1.882100E+06 -1.034309E+04  6.425485E+04 -6.298173E+02  7.343905E+03
        47  20  3.242048E+04 -1.764371E+06  2.475167E+04  1.667168E+04 -3.691331E+03  3.823898E+03
        47  21  6.018530E+04 -1.650117E+06  5.448997E+04  6.005689E+04 -8.136359E+03  3.018895E+02
        47  22 -9.683629E+03 -1.890569E+06 -1.226758E+04  6.132662E+04 -6.297385E+02  8.478126E+03
        47  23  1.460998E+03 -1.888879E+06 -5.285088E+03  1.584159E+04 -3.691412E+03  5.620833E+03
        47  24  4.639699E+02 -1.890564E+06 -3.197216E+03  6.132651E+04 -8.136709E+03  2.762193E+03
        47  25 -1.176637E+04 -1.899037E+06 -1.419206E+04  5.839844E+04 -6.296704E+02  9.612333E+03
        47  26 -2.949962E+04 -2.013373E+06 -3.532294E+04  1.501167E+04 -3.691498E+03  7.417407E+03
        47  27 -5.926156E+04 -2.130958E+06 -6.088848E+04  6.259562E+04 -8.137049E+03  5.221545E+03
        48   1  9.959322E+04 -1.484999E+06  9.536370E+04  6.104128E+04  1.128836E+04  2.357210E+02
        48   2  1.287898E+05 -1.371927E+06  1.238025E+05  1.631556E+04  1.568139E+04 -6.034463E+01
        48   3  1.570614E+05 -1.258569E+06  1.522971E+05  6.034879E+04  1.836924E+04 -3.530186E+02
        48   4 -1.093917E+03 -1.889817E+06 -2.501473E+03  6.083584E+04  1.128929E+04 -2.276681E+03
        48   5  4.659306E+01 -1.889892E+06 -1.020375E+03  1.645428E+04  1.568318E+04 -1.755929E+03
        48   6  1.205513E+02 -1.889836E+06 -5.108919E+01  6.083637E+04  1.837120E+04 -1.231730E+03
        48   7 -1.017931E+05 -2.294485E+06 -1.003784E+05  6.063053E+04  1.129023E+04 -4.787447E+03
        48   8 -1.287162E+05 -2.407611E+06 -1.258624E+05  1.659292E+04  1.568496E+04 -3.450102E+03
        48   9 -1.568495E+05 -2.520736E+06 -1.524278E+05  6.132351E+04  1.837317E+04 -2.109549E+03
        48  10  9.959309E+04 -1.484999E+06  9.536347E+04  6.104128E+04  7.286408E-10 -1.429562E-09
        48  11  1.287895E+05 -1.371927E+06  1.238020E+05  1.631556E+04  3.513644E-09 -1.854968E-09
        48  12  1.570611E+05 -1.258570E+06  1.522965E+05  6.034879E+04 -1.846496E-09  1.789120E-10
        48  13 -1.094055E+03 -1.889817E+06 -2.501722E+03  6.083586E+04 -2.019737E-09  1.099264E-10
        48  14  4.632835E+01 -1.889892E+06 -1.020842E+03  1.645431E+04 -1.398329E-09 -3.824498E-10
        48  15  1.201888E+02 -1.889836E+06 -5.172572E+01  6.083639E+04 -2.509538E-09  9.087744E-12
        48  16 -1.017932E+05 -2.294485E+06 -1.003787E+05  6.063057E+04 -3.011531E-09  1.373728E-09
        48  17 -1.287165E+05 -2.407611E+06 -1.258629E+05  1.659297E+04 -3.007354E-09  1.052779E-09
        48  18 -1.568499E+05 -2.520736E+06 -1.524285E+05  6.132354E+04 -3.623742E-09 -2.032824E-10
        48  19  9.959322E+04 -1.484999E+06  9.536370E+04  6.104128E+04 -1.128836E+04 -2.357210E+02
        48  20  1.287898E+05 -1.371927E+06  1.238025E+05  1.631556E+04 -1.568139E+04  6.034463E+01
        48  21  1.570614E+05 -1.258569E+06  1.522971E+05  6.034879E+04 -1.836924E+04  3.530186E+02
        48  22 -1.093917E+03 -1.889817E+06 -2.501473E+03  6.083584E+04 -1.128929E+04  2.276681E+03
        48  23  4.659306E+01 -1.889892E+06 -1.020375E+03  1.645428E+04 -1.568318E+04  1.755929E+03
        48  24  1.205513E+02 -1.889836E+06 -5.108919E+01  6.083637E+04 -1.837120E+04  1.231730E+03
        48  25 -1.017931E+05 -2.294485E+06 -1.003784E+05  6.063053E+04 -1.129023E+04  4.787447E+03
        48  26 -1.287162E+05 -2.407611E+06 -1.258624E+05  1.659292E+04 -1.568496E+04  3.450102E+03
        48  27 -1.568495E+05 -2.520736E+06 -1.524278E+05  6.132351E+04 -1.837317E+04  2.109549E+03
        49   1  1.957237E+05 -1.100076E+06  1.904726E+05  5.867551E+04  2.412100E+04  5.914544E+03
        49   2  2.218961E+05 -9.948471E+05  2.166283E+05  1.701508E+04  2.797226E+04 -5.361523E+03
        49   3  2.530982E+05 -8.855185E+05  2.516732E+05  5.875814E+04  9.578614E+03 -1.668399E+04
        49   4 -4.300125E+02 -1.889432E+06  3.521484E+02  5.964480E+04  2.413091E+04 -1.256577E+03
        49   5 -6.373841E+02 -1.890565E+06  1.086943E+03  1.794233E+04  2.796899E+04 -1.864693E+03
        49   6  2.334265E+03 -1.889462E+06  3.294438E+03  5.965069E+04  9.547984E+03 -2.517393E+03
        49   7 -1.966293E+05 -2.678216E+06 -1.898127E+05  6.061298E+04  2.414079E+04 -8.418599E+03
        49   8 -2.232295E+05 -2.785547E+06 -2.145117E+05  1.886854E+04  2.796573E+04  1.627106E+03
        49   9 -2.485051E+05 -2.892487E+06 -2.451586E+05  6.054226E+04  9.517371E+03  1.162630E+04
        49  10  1.957231E+05 -1.100076E+06  1.904715E+05  5.867539E+04 -2.110652E-09  1.789875E-09
        49  11  2.218953E+05 -9.948474E+05  2.166268E+05  1.701520E+04 -2.227162E-09 -2.301264E-09
        49  12  2.530980E+05 -8.855188E+05  2.516725E+05  5.875827E+04 -7.221901E-12 -1.709782E-10
        49  13 -4.306377E+02 -1.889432E+06  3.510521E+02  5.964482E+04 -2.120673E-09  1.914374E-10
        49  14 -6.382243E+02 -1.890566E+06  1.085467E+03  1.794237E+04 -1.986774E-09 -1.815015E-09
        49  15  2.334165E+03 -1.889462E+06  3.294255E+03  5.965071E+04 -1.437340E-09  5.660517E-11
        49  16 -1.966299E+05 -2.678216E+06 -1.898139E+05  6.061314E+04 -2.730859E-09 -2.044170E-09
        49  17 -2.232303E+05 -2.785547E+06 -2.145131E+05  1.886850E+04 -1.556459E-09 -4.718996E-10
        49  18 -2.485053E+05 -2.892487E+06 -2.451590E+05  6.054217E+04 -1.819634E-09 -6.117800E-11
        49  19  1.957237E+05 -1.100076E+06  1.904726E+05  5.867551E+04 -2.412100E+04 -5.914544E+03
        49  20  2.218961E+05 -9.948471E+05  2.166283E+05  1.701508E+04 -2.797226E+04  5.361523E+03
        49  21  2.530982E+05 -8.855185E+05  2.516732E+05  5.875814E+04 -9.578614E+03  1.668399E+04
        49  22 -4.300125E+02 -1.889432E+06  3.521484E+02  5.964480E+04 -2.413091E+04  1.256577E+03
        49  23 -6.373841E+02 -1.890565E+06  1.086943E+03  1.794233E+04 -2.796899E+04  1.864693E+03
        49  24  2.334265E+03 -1.889462E+06  3.294438E+03  5.965069E+04 -9.547984E+03  2.517393E+03
        49  25 -1.966293E+05 -2.678216E+06 -1.898127E+05  6.061298E+04 -2.414079E+04  8.418599E+03
        49  26 -2.232295E+05 -2.785547E+06 -2.145117E+05  1.886854E+04 -2.796573E+04 -1.627106E+03
        49  27 -2.485051E+05 -2.892487E+06 -2.451586E+05  6.054226E+04 -9.517371E+03 -1.162630E+04
        50   1 -1.370664E+06 -1.601968E+05  5.073899E+04 -5.240670E+05  4.284469E+04  1.634661E+04
        50   2 -1.385560E+06 -2.180319E+05  1.097217E+04 -5.063545E+05  2.744381E+04  1.106780E+04
        50   3 -1.368858E+06 -2.110648E+05  1.367805E+03 -5.107369E+05  1.227857E+04  5.159921E+03
        50   4 -1.304794E+06 -1.397411E+05  6.800358E+04 -5.107294E+05  4.294892E+04  1.638531E+04
        50   5 -1.323958E+06 -1.959014E+05  2.767543E+04 -4.907845E+05  2.746178E+04  1.107447E+04
        50   6 -1.311509E+06 -1.872469E+05  1.757576E+04 -4.929340E+05  1.221034E+04  5.134416E+03
        50   7 -1.238920E+06 -1.192854E+05  8.526778E+04 -4.973907E+05  4.305317E+04  1.642400E+04
        50   8 -1.262353E+06 -1.737709E+05  4.437835E+04 -4.752132E+05  2.747975E+04  1.108113E+04
        50   9 -1.254158E+06 -1.634286E+05  3.378341E+04 -4.751296E+05  1.214211E+04  5.108907E+03
        50  10 -1.370666E+06 -1.601976E+05  5.073503E+04 -5.240676E+05  3.089872E-10  3.894600E-10
        50  11 -1.385561E+06 -2.180322E+05  1.097052E+04 -5.063547E+05 -1.365829E-09  1.545062E-09
        50  12 -1.368858E+06 -2.110648E+05  1.367471E+03 -5.107370E+05  1.134898E-11 -3.238295E-11
        50  13 -1.304796E+06 -1.397418E+05  6.799960E+04 -5.107300E+05  5.073656E-11  1.599120E-10
        50  14 -1.323959E+06 -1.959018E+05  2.767378E+04 -4.907848E+05  8.483447E-10  9.088612E-10
        50  15 -1.311510E+06 -1.872469E+05  1.757543E+04 -4.929341E+05 -2.573061E-09  3.747143E-10
        50  16 -1.238922E+06 -1.192862E+05  8.526378E+04 -4.973913E+05 -2.381320E-09 -2.236061E-10
        50  17 -1.262354E+06 -1.737713E+05  4.437669E+04 -4.752135E+05 -2.042476E-09  5.501238E-10
        50  18 -1.254158E+06 -1.634287E+05  3.378309E+04 -4.751296E+05 -4.734511E-10  1.096867E-09
        50  19 -1.370664E+06 -1.601968E+05  5.073899E+04 -5.240670E+05 -4.284469E+04 -1.634661E+04
        50  20 -1.385560E+06 -2.180319E+05  1.097217E+04 -5.063545E+05 -2.744381E+04 -1.106780E+04
        50  21 -1.368858E+06 -2.110648E+05  1.367805E+03 -5.107369E+05 -1.227857E+04 -5.159921E+03
        50  22 -1.304794E+06 -1.397411E+05  6.800358E+04 -5.107294E+05 -4.294892E+04 -1.638531E+04
        50  23 -1.323958E+06 -1.959014E+05  2.767543E+04 -4.907845E+05 -2.746178E+04 -1.107447E+04
        50  24 -1.311509E+06 -1.872469E+05  1.757576E+04 -4.929340E+05 -1.221034E+04 -5.134416E+03
        50  25 -1.238920E+06 -1.192854E+05  8.526778E+04 -4.973907E+05 -4.305317E+04 -1.642400E+04
        50  26 -1.262353E+06 -1.737709E+05  4.437835E+04 -4.752132E+05 -2.747975E+04 -1.108113E+04
        50  27 -1.254158E+06 -1.634286E+05  3.378341E+04 -4.751296E+05 -1.214211E+04 -5.108907E+03
        51   1 -1.345276E+06 -1.910777E+05  5.838373E+03 -5.059422E+05  9.587704E+03  3.967379E+03
        51   2 -1.347647E+06 -1.962898E+05 -1.381330E+03 -4.995652E+05  6.156276E+03  2.643247E+03
        51   3 -1.339829E+06 -1.968434E+05 -3.172281E+03 -5.024943E+05  2.773091E+03  1.190250E+03
        51   4 -1.313317E+06 -1.796676E+05  1.449201E+04 -4.979385E+05  9.592145E+03  3.969028E+03
        51   5 -1.318923E+06 -1.856102E+05  6.481458E+03 -4.919344E+05  6.143192E+03  2.638345E+03
        51   6 -1.314337E+06 -1.868909E+05  3.913338E+03 -4.952362E+05  2.742506E+03  1.178802E+03
        51   7 -1.281358E+06 -1.682576E+05  2.314556E+04 -4.899345E+05  9.596586E+03  3.970677E+03
        51   8 -1.290199E+06 -1.749305E+05  1.434416E+04 -4.843032E+05  6.130106E+03  2.633442E+03
        51   9 -1.288845E+06 -1.769383E+05  1.099887E+04 -4.879779E+05  2.711920E+03  1.167353E+03
        51  10 -1.345276E+06 -1.910777E+05  5.838170E+03 -5.059422E+05 -1.765117E-09 -8.204071E-10
        51  11 -1.347647E+06 -1.962898E+05 -1.381414E+03 -4.995652E+05  2.079752E-09  2.412118E-11
        51  12 -1.339829E+06 -1.968434E+05 -3.172298E+03 -5.024943E+05 -8.552418E-10 -1.076773E-09
        51  13 -1.313317E+06 -1.796677E+05  1.449181E+04 -4.979385E+05 -2.120282E-09  1.799367E-10
        51  14 -1.318924E+06 -1.856102E+05  6.481374E+03 -4.919344E+05  3.007851E-09  4.786311E-10
        51  15 -1.314337E+06 -1.868909E+05  3.913321E+03 -4.952362E+05  7.840935E-10 -8.304728E-10
        51  16 -1.281358E+06 -1.682576E+05  2.314536E+04 -4.899345E+05 -3.366186E-09  8.087322E-10
        51  17 -1.290199E+06 -1.749305E+05  1.434408E+04 -4.843032E+05  4.115332E-10 -2.721599E-10
        51  18 -1.288845E+06 -1.769383E+05  1.099886E+04 -4.879779E+05  2.733540E-10  6.642805E-10
        51  19 -1.345276E+06 -1.910777E+05  5.838373E+03 -5.059422E+05 -9.587704E+03 -3.967379E+03
        51  20 -1.347647E+06 -1.962898E+05 -1.381330E+03 -4.995652E+05 -6.156276E+03 -2.643247E+03
        51  21 -1.339829E+06 -1.968434E+05 -3.172281E+03 -5.024943E+05 -2.773091E+03 -1.190250E+03
        51  22 -1.313317E+06 -1.796676E+05  1.449201E+04 -4.979385E+05 -9.592145E+03 -3.969028E+03
        51  23 -1.318923E+06 -1.856102E+05  6.481458E+03 -4.919344E+05 -6.143192E+03 -2.638345E+03
        51  24 -1.314337E+06 -1.868909E+05  3.913338E+03 -4.952362E+05 -2.742506E+03 -1.178802E+03
        51  25 -1.281358E+06 -1.682576E+05  2.314556E+04 -4.899345E+05 -9.596586E+03 -3.970677E+03
        51  26 -1.290199E+06 -1.749305E+05  1.434416E+04 -4.843032E+05 -6.130106E+03 -2.633442E+03
        51  27 -1.288845E+06 -1.769383E+05  1.099887E+04 -4.879779E+05 -2.711920E+03 -1.167353E+03
        52   1 -1.305800E+06 -1.823441E+05  5.578094E+03 -4.935359E+05  2.216561E+03  8.534933E+02
        52   2 -1.306198E+06 -1.794896E+05  4.756496E+03 -4.888146E+05  1.500456E+03  4.291955E+02
        52   3 -1.299719E+06 -1.812400E+05  4.937069E+03 -4.915780E+05  7.824281E+02  1.003881E+01
        52   4 -1.314626E+06 -1.857664E+05  3.123102E+03 -4.960230E+05  2.197745E+03  8.464494E+02
        52   5 -1.318142E+06 -1.840149E+05  1.469341E+03 -4.920746E+05  1.482342E+03  4.224138E+02
        52   6 -1.314782E+06 -1.868684E+05  8.171970E+02 -4.956109E+05  7.650215E+02  3.520935E+00
        52   7 -1.323453E+06 -1.891887E+05  6.680958E+02 -4.985101E+05  2.178930E+03  8.394056E+02
        52   8 -1.330086E+06 -1.885402E+05 -1.817833E+03 -4.953345E+05  1.464229E+03  4.156322E+02
        52   9 -1.329844E+06 -1.924969E+05 -3.302703E+03 -4.996438E+05  7.476154E+02 -2.996782E+00
        52  10 -1.305800E+06 -1.823441E+05  5.578084E+03 -4.935359E+05 -1.937594E-09 -1.055189E-09
        52  11 -1.306198E+06 -1.794896E+05  4.756491E+03 -4.888146E+05 -1.686235E-09  1.159341E-09
        52  12 -1.299719E+06 -1.812400E+05  4.937068E+03 -4.915780E+05  1.708372E-09  4.778530E-10
        52  13 -1.314626E+06 -1.857664E+05  3.123091E+03 -4.960230E+05 -4.252240E-09 -2.428180E-10
        52  14 -1.318142E+06 -1.840149E+05  1.469337E+03 -4.920746E+05  3.002371E-10 -2.397672E-10
        52  15 -1.314782E+06 -1.868684E+05  8.171959E+02 -4.956109E+05  4.921904E-10  5.825724E-10
        52  16 -1.323453E+06 -1.891887E+05  6.680856E+02 -4.985101E+05 -5.947004E-10  1.196858E-10
        52  17 -1.330086E+06 -1.885402E+05 -1.817838E+03 -4.953345E+05 -5.242011E-10  1.499918E-10
        52  18 -1.329844E+06 -1.924969E+05 -3.302704E+03 -4.996438E+05 -8.120407E-10  1.156991E-09
        52  19 -1.305800E+06 -1.823441E+05  5.578094E+03 -4.935359E+05 -2.216561E+03 -8.534933E+02
        52  20 -1.306198E+06 -1.794896E+05  4.756496E+03 -4.888146E+05 -1.500456E+03 -4.291955E+02
        52  21 -1.299719E+06 -1.812400E+05  4.937069E+03 -4.915780E+05 -7.824281E+02 -1.003881E+01
        52  22 -1.314626E+06 -1.857664E+05  3.123102E+03 -4.960230E+05 -2.197745E+03 -8.464494E+02
        52  23 -1.318142E+06 -1.840149E+05  1.469341E+03 -4.920746E+05 -1.482342E+03 -4.224138E+02
        52  24 -1.314782E+06 -1.868684E+05  8.171970E+02 -4.956109E+05 -7.650215E+02 -3.520935E+00
        52  25 -1.323453E+06 -1.891887E+05  6.680958E+02 -4.985101E+05 -2.178930E+03 -8.394056E+02
        52  26 -1.330086E+06 -1.885402E+05 -1.817833E+03 -4.953345E+05 -1.464229E+03 -4.156322E+02
        52  27 -1.329844E+06 -1.924969E+05 -3.302703E+03 -4.996438E+05 -7.476154E+02  2.996782E+00
        53   1 -1.268724E+06 -1.688451E+05  1.338303E+04 -4.827653E+05  7.041374E+02 -1.239876E+02
        53   2 -1.268815E+06 -1.657472E+05  1.361350E+04 -4.793119E+05  6.450602E+02 -3.081028E+02
        53   3 -1.263989E+06 -1.672707E+05  1.398338E+04 -4.813966E+05  5.598789E+02 -4.224461E+02
        53   4 -1.315148E+06 -1.863690E+05  6.094150E+02 -4.953671E+05  6.802890E+02 -1.329202E+02
        53   5 -1.317620E+06 -1.841649E+05  1.976398E+02 -4.925577E+05  6.306098E+02 -3.135190E+02
        53   6 -1.315178E+06 -1.865839E+05 -8.217567E+01 -4.952865E+05  5.548259E+02 -4.243433E+02
        53   7 -1.361569E+06 -2.038927E+05 -1.216436E+04 -5.079679E+05  6.564427E+02 -1.418521E+02
        53   8 -1.366423E+06 -2.025824E+05 -1.321843E+04 -5.058027E+05  6.161606E+02 -3.189348E+02
        53   9 -1.366364E+06 -2.058969E+05 -1.414799E+04 -5.091754E+05  5.497733E+02 -4.262404E+02
        53  10 -1.268724E+06 -1.688451E+05  1.338303E+04 -4.827653E+05 -9.343430E-10 -9.619234E-10
        53  11 -1.268815E+06 -1.657472E+05  1.361350E+04 -4.793119E+05 -3.322403E-09 -1.272913E-09
        53  12 -1.263989E+06 -1.672708E+05  1.398338E+04 -4.813966E+05 -8.002873E-10 -1.255765E-09
        53  13 -1.315148E+06 -1.863690E+05  6.094141E+02 -4.953671E+05 -2.094822E-09  9.284031E-10
        53  14 -1.317620E+06 -1.841649E+05  1.976389E+02 -4.925577E+05 -1.763245E-09  3.083754E-10
        53  15 -1.315178E+06 -1.865839E+05 -8.217659E+01 -4.952865E+05 -9.661700E-10 -5.035787E-10
        53  16 -1.361569E+06 -2.038927E+05 -1.216436E+04 -5.079679E+05  5.216771E-10  7.121895E-10
        53  17 -1.366423E+06 -2.025824E+05 -1.321843E+04 -5.058027E+05  2.015874E-09  4.453687E-10
        53  18 -1.366364E+06 -2.058969E+05 -1.414799E+04 -5.091754E+05  5.778607E-10 -1.143400E-10
        53  19 -1.268724E+06 -1.688451E+05  1.338303E+04 -4.827653E+05 -7.041374E+02  1.239876E+02
        53  20 -1.268815E+06 -1.657472E+05  1.361350E+04 -4.793119E+05 -6.450602E+02  3.081028E+02
        53  21 -1.263989E+06 -1.672707E+05  1.398338E+04 -4.813966E+05 -5.598789E+02  4.224461E+02
        53  22 -1.315148E+06 -1.863690E+05  6.094150E+02 -4.953671E+05 -6.802890E+02  1.329202E+02
        53  23 -1.317620E+06 -1.841649E+05  1.976398E+02 -4.925577E+05 -6.306098E+02  3.135190E+02
        53  24 -1.315178E+06 -1.865839E+05 -8.217567E+01 -4.952865E+05 -5.548259E+02  4.243433E+02
        53  25 -1.361569E+06 -2.038927E+05 -1.216436E+04 -5.079679E+05 -6.564427E+02  1.418521E+02
        53  26 -1.366423E+06 -2.025824E+05 -1.321843E+04 -5.058027E+05 -6.161606E+02  3.189348E+02
        53  27 -1.366364E+06 -2.058969E+05 -1.414799E+04 -5.091754E+05 -5.497733E+02  4.262404E+02
        54   1 -1.245044E+06 -1.591836E+05  1.925390E+04 -4.754226E+05  6.196811E+02 -4.644127E+02
        54   2 -1.245044E+06 -1.577441E+05  1.916573E+04 -4.739667E+05  9.293892E+02 -4.605158E+02
        54   3 -1.243128E+06 -1.587180E+05  1.878359E+04 -4.747076E+05  1.199377E+03 -3.506621E+02
        54   4 -1.315816E+06 -1.858851E+05 -2.073842E+02 -4.946225E+05  5.992784E+02 -4.720662E+02
        54   5 -1.316796E+06 -1.848420E+05 -5.617222E+02 -4.934622E+05  9.232174E+02 -4.628370E+02
        54   6 -1.315863E+06 -1.862152E+05 -1.221348E+03 -4.944987E+05  1.207434E+03 -3.476456E+02
        54   7 -1.386583E+06 -2.125862E+05 -1.966913E+04 -5.138205E+05  5.788782E+02 -4.797186E+02
        54   8 -1.388544E+06 -2.119396E+05 -2.028963E+04 -5.129557E+05  9.170464E+02 -4.651580E+02
        54   9 -1.388592E+06 -2.137122E+05 -2.122675E+04 -5.142877E+05  1.215489E+03 -3.446295E+02
        54  10 -1.245044E+06 -1.591836E+05  1.925390E+04 -4.754226E+05 -3.278845E-10 -1.805959E-10
        54  11 -1.245044E+06 -1.577441E+05  1.916573E+04 -4.739667E+05 -1.009103E-09  1.565828E-09
        54  12 -1.243128E+06 -1.587180E+05  1.878358E+04 -4.747076E+05 -1.294271E-09  1.105013E-09
        54  13 -1.315816E+06 -1.858851E+05 -2.073853E+02 -4.946225E+05 -2.098606E-09 -4.131831E-10
        54  14 -1.316796E+06 -1.848420E+05 -5.617242E+02 -4.934622E+05  7.905638E-10  1.497054E-09
        54  15 -1.315863E+06 -1.862152E+05 -1.221351E+03 -4.944987E+05 -2.234201E-09  1.284761E-09
        54  16 -1.386583E+06 -2.125862E+05 -1.966913E+04 -5.138205E+05 -6.724241E-10  2.293342E-10
        54  17 -1.388544E+06 -2.119396E+05 -2.028964E+04 -5.129557E+05  1.837027E-09  8.656873E-10
        54  18 -1.388592E+06 -2.137122E+05 -2.122675E+04 -5.142877E+05  6.046035E-10  1.133731E-09
        54  19 -1.245044E+06 -1.591836E+05  1.925390E+04 -4.754226E+05 -6.196811E+02  4.644127E+02
        54  20 -1.245044E+06 -1.577441E+05  1.916573E+04 -4.739667E+05 -9.293892E+02  4.605158E+02
        54  21 -1.243128E+06 -1.587180E+05  1.878359E+04 -4.747076E+05 -1.199377E+03  3.506621E+02
        54  22 -1.315816E+06 -1.858851E+05 -2.073842E+02 -4.946225E+05 -5.992784E+02  4.720662E+02
        54  23 -1.316796E+06 -1.848420E+05 -5.617222E+02 -4.934622E+05 -9.232174E+02  4.628370E+02
        54  24 -1.315863E+06 -1.862152E+05 -1.221348E+03 -4.944987E+05 -1.207434E+03  3.476456E+02
        54  25 -1.386583E+06 -2.125862E+05 -1.966913E+04 -5.138205E+05 -5.788782E+02  4.797186E+02
        54  26 -1.388544E+06 -2.119396E+05 -2.028963E+04 -5.129557E+05 -9.170464E+02  4.651580E+02
        54  27 -1.388592E+06 -2.137122E+05 -2.122675E+04 -5.142877E+05 -1.215489E+03  3.446295E+02
        55   1 -1.241858E+06 -1.569453E+05  1.898610E+04 -4.735889E+05  1.452852E+03 -2.622196E+02
        55   2 -1.241502E+06 -1.573082E+05  1.762994E+04 -4.744060E+05  2.881992E+03  2.460906E+02
        55   3 -1.243667E+06 -1.592440E+05  1.444105E+04 -4.729510E+05  4.269588E+03  8.650416E+02
        55   4 -1.316723E+06 -1.851333E+05 -1.583007E+03 -4.938418E+05  1.441980E+03 -2.663074E+02
        55   5 -1.315604E+06 -1.853519E+05 -2.755153E+03 -4.946000E+05  2.885847E+03  2.475313E+02
        55   6 -1.317009E+06 -1.871466E+05 -5.771883E+03 -4.930863E+05  4.288170E+03  8.720170E+02
        55   7 -1.391582E+06 -2.133211E+05 -2.215264E+04 -5.140924E+05  1.431109E+03 -2.703946E+02
        55   8 -1.389700E+06 -2.133954E+05 -2.314076E+04 -5.147919E+05  2.889702E+03  2.489718E+02
        55   9 -1.390346E+06 -2.150489E+05 -2.598531E+04 -5.132194E+05  4.306749E+03  8.789914E+02
        55  10 -1.241858E+06 -1.569453E+05  1.898610E+04 -4.735889E+05  2.763381E-10 -8.350759E-11
        55  11 -1.241502E+06 -1.573082E+05  1.762992E+04 -4.744060E+05  6.796771E-10 -1.520156E-09
        55  12 -1.243667E+06 -1.592440E+05  1.444101E+04 -4.729510E+05 -2.542425E-09  4.378574E-12
        55  13 -1.316723E+06 -1.851333E+05 -1.583011E+03 -4.938418E+05 -1.390642E-10  3.454667E-10
        55  14 -1.315604E+06 -1.853519E+05 -2.755168E+03 -4.946000E+05  3.798415E-10 -2.278305E-10
        55  15 -1.317009E+06 -1.871466E+05 -5.771919E+03 -4.930863E+05 -3.403320E-10 -4.774695E-10
        55  16 -1.391582E+06 -2.133211E+05 -2.215265E+04 -5.140924E+05  2.592331E-09  1.343464E-10
        55  17 -1.389700E+06 -2.133954E+05 -2.314077E+04 -5.147919E+05 -1.672358E-09 -3.108218E-10
        55  18 -1.390346E+06 -2.150489E+05 -2.598534E+04 -5.132194E+05  2.856358E-09 -6.690654E-10
        55  19 -1.241858E+06 -1.569453E+05  1.898610E+04 -4.735889E+05 -1.452852E+03  2.622196E+02
        55  20 -1.241502E+06 -1.573082E+05  1.762994E+04 -4.744060E+05 -2.881992E+03 -2.460906E+02
        55  21 -1.243667E+06 -1.592440E+05  1.444105E+04 -4.729510E+05 -4.269588E+03 -8.650416E+02
        55  22 -1.316723E+06 -1.851333E+05 -1.583007E+03 -4.938418E+05 -1.441980E+03  2.663074E+02
        55  23 -1.315604E+06 -1.853519E+05 -2.755153E+03 -4.946000E+05 -2.885847E+03 -2.475313E+02
        55  24 -1.317009E+06 -1.871466E+05 -5.771883E+03 -4.930863E+05 -4.288170E+03 -8.720170E+02
        55  25 -1.391582E+06 -2.133211E+05 -2.215264E+04 -5.140924E+05 -1.431109E+03  2.703946E+02
        55  26 -1.389700E+06 -2.133954E+05 -2.314076E+04 -5.147919E+05 -2.889702E+03 -2.489718E+02
        55  27 -1.390346E+06 -2.150489E+05 -2.598531E+04 -5.132194E+05 -4.306749E+03 -8.789914E+02
        56   1 -1.260586E+06 -1.630435E+05  8.538771E+03 -4.785185E+05  5.350975E+03  1.324726E+03
        56   2 -1.258157E+06 -1.623506E+05  3.228132E+03 -4.807564E+05  1.169821E+04  3.776213E+03
        56   3 -1.268055E+06 -1.766081E+05 -1.208631E+04 -4.731653E+05  1.801380E+04  6.311690E+03
        56   4 -1.318357E+06 -1.842673E+05 -7.223103E+03 -4.936063E+05  5.352702E+03  1.325378E+03
        56   5 -1.313139E+06 -1.834353E+05 -1.195268E+04 -4.960238E+05  1.171069E+04  3.780899E+03
        56   6 -1.320250E+06 -1.975569E+05 -2.669525E+04 -4.886121E+05  1.803708E+04  6.320402E+03
        56   7 -1.376125E+06 -2.054910E+05 -2.298527E+04 -5.086927E+05  5.354430E+03  1.326029E+03
        56   8 -1.368119E+06 -2.045199E+05 -2.713377E+04 -5.112900E+05  1.172318E+04  3.785583E+03
        56   9 -1.372443E+06 -2.185056E+05 -4.130446E+04 -5.040577E+05  1.806036E+04  6.329114E+03
        56  10 -1.260586E+06 -1.630436E+05  8.538714E+03 -4.785185E+05 -2.095197E-09 -8.441027E-10
        56  11 -1.258157E+06 -1.623506E+05  3.227848E+03 -4.807565E+05 -1.730622E-09 -3.426999E-09
        56  12 -1.268055E+06 -1.766082E+05 -1.208700E+04 -4.731654E+05  1.925631E-10 -2.939762E-10
        56  13 -1.318357E+06 -1.842673E+05 -7.223160E+03 -4.936063E+05 -8.686834E-10 -5.128677E-10
        56  14 -1.313139E+06 -1.834354E+05 -1.195296E+04 -4.960239E+05 -9.981793E-10 -1.871158E-09
        56  15 -1.320251E+06 -1.975571E+05 -2.669594E+04 -4.886122E+05  6.689630E-10 -6.183164E-10
        56  16 -1.376126E+06 -2.054910E+05 -2.298532E+04 -5.086928E+05  1.560324E-09 -1.715138E-09
        56  17 -1.368119E+06 -2.045199E+05 -2.713405E+04 -5.112900E+05 -1.589174E-09 -1.082878E-09
        56  18 -1.372444E+06 -2.185057E+05 -4.130515E+04 -5.040577E+05 -2.446956E-09 -2.077228E-11
        56  19 -1.260586E+06 -1.630435E+05  8.538771E+03 -4.785185E+05 -5.350975E+03 -1.324726E+03
        56  20 -1.258157E+06 -1.623506E+05  3.228132E+03 -4.807564E+05 -1.169821E+04 -3.776213E+03
        56  21 -1.268055E+06 -1.766081E+05 -1.208631E+04 -4.731653E+05 -1.801380E+04 -6.311690E+03
        56  22 -1.318357E+06 -1.842673E+05 -7.223103E+03 -4.936063E+05 -5.352702E+03 -1.325378E+03
        56  23 -1.313139E+06 -1.834353E+05 -1.195268E+04 -4.960238E+05 -1.171069E+04 -3.780899E+03
        56  24 -1.320250E+06 -1.975569E+05 -2.669525E+04 -4.886121E+05 -1.803708E+04 -6.320402E+03
        56  25 -1.376125E+06 -2.054910E+05 -2.298527E+04 -5.086927E+05 -5.354430E+03 -1.326029E+03
        56  26 -1.368119E+06 -2.045199E+05 -2.713377E+04 -5.112900E+05 -1.172318E+04 -3.785583E+03
        56  27 -1.372443E+06 -2.185056E+05 -4.130446E+04 -5.040577E+05 -1.806036E+04 -6.329114E+03
        57   1 -1.298428E+06 -1.764548E+05 -2.593672E+04 -4.934065E+05  2.292031E+04  8.255692E+03
        57   2 -1.283421E+06 -1.567928E+05 -4.536029E+04 -4.926311E+05  5.108887E+04  1.899596E+04
        57   3 -1.325710E+06 -2.572805E+05 -1.204235E+05 -4.520692E+05  7.924405E+04  2.977120E+04
        57   4 -1.324767E+06 -1.823906E+05 -3.236919E+04 -4.964525E+05  2.293391E+04  8.260994E+03
        57   5 -1.302342E+06 -1.660232E+05 -5.097862E+04 -4.999088E+05  5.110636E+04  1.900233E+04
        57   6 -1.337216E+06 -2.698085E+05 -1.252320E+05 -4.635779E+05  7.926580E+04  2.977807E+04
        57   7 -1.351105E+06 -1.883264E+05 -3.880171E+04 -4.994984E+05  2.294751E+04  8.266297E+03
        57   8 -1.321263E+06 -1.752534E+05 -5.659699E+04 -5.071863E+05  5.112385E+04  1.900869E+04
        57   9 -1.348721E+06 -2.823360E+05 -1.300404E+05 -4.750864E+05  7.928755E+04  2.978494E+04
        57  10 -1.298429E+06 -1.764550E+05 -2.593784E+04 -4.934067E+05 -1.984333E-10  1.067026E-09
        57  11 -1.283424E+06 -1.567939E+05 -4.536589E+04 -4.926319E+05 -5.219138E-10 -1.246613E-09
        57  12 -1.325717E+06 -2.572831E+05 -1.204370E+05 -4.520711E+05  4.462212E-10  9.179749E-11
        57  13 -1.324767E+06 -1.823908E+05 -3.237031E+04 -4.964527E+05 -1.900402E-10 -1.933188E-09
        57  14 -1.302345E+06 -1.660243E+05 -5.098422E+04 -4.999096E+05  1.411565E-09 -8.818459E-10
        57  15 -1.337223E+06 -2.698111E+05 -1.252455E+05 -4.635798E+05  8.383690E-10 -9.873812E-10
        57  16 -1.351105E+06 -1.883266E+05 -3.880283E+04 -4.994986E+05 -1.900498E-09 -1.380596E-09
        57  17 -1.321266E+06 -1.752545E+05 -5.660260E+04 -5.071871E+05 -1.011529E-09  1.024587E-10
        57  18 -1.348728E+06 -2.823387E+05 -1.300539E+05 -4.750883E+05  1.292054E-09  3.416789E-11
        57  19 -1.298428E+06 -1.764548E+05 -2.593672E+04 -4.934065E+05 -2.292031E+04 -8.255692E+03
        57  20 -1.283421E+06 -1.567928E+05 -4.536029E+04 -4.926311E+05 -5.108887E+04 -1.899596E+04
        57  21 -1.325710E+06 -2.572805E+05 -1.204235E+05 -4.520692E+05 -7.924405E+04 -2.977120E+04
        57  22 -1.324767E+06 -1.823906E+05 -3.236919E+04 -4.964525E+05 -2.293391E+04 -8.260994E+03
        57  23 -1.302342E+06 -1.660232E+05 -5.097862E+04 -4.999088E+05 -5.110636E+04 -1.900233E+04
        57  24 -1.337216E+06 -2.698085E+05 -1.252320E+05 -4.635779E+05 -7.926580E+04 -2.977807E+04
        57  25 -1.351105E+06 -1.883264E+05 -3.880171E+04 -4.994984E+05 -2.294751E+04 -8.266297E+03
        57  26 -1.321263E+06 -1.752534E+05 -5.659699E+04 -5.071863E+05 -5.112385E+04 -1.900869E+04
        57  27 -1.348721E+06 -2.823360E+05 -1.300404E+05 -4.750864E+05 -7.928755E+04 -2.978494E+04
        58   1 -4.900264E+05  4.063163E+04  5.304340E+04  4.053500E+03  3.619733E+04  2.365174E-01
        58   2 -4.981115E+05 -9.453304E+03  2.264262E+04  1.030174E+03  2.382091E+04  3.955747E-02
        58   3 -4.900376E+05 -1.366892E+03  1.484789E+04 -1.993164E+03  1.144425E+04 -3.676923E-02
        58   4 -4.900265E+05  4.063160E+04  5.304339E+04  3.958807E-08  3.619733E+04 -5.763461E-10
        58   5 -4.981115E+05 -9.453306E+03  2.264262E+04 -1.349699E-08  2.382091E+04 -3.762521E-10
        58   6 -4.900376E+05 -1.366899E+03  1.484789E+04  4.755377E-08  1.144425E+04 -3.694039E-12
        58   7 -4.900264E+05  4.063163E+04  5.304340E+04 -4.053500E+03  3.619733E+04 -2.365174E-01
        58   8 -4.981115E+05 -9.453304E+03  2.264262E+04 -1.030174E+03  2.382091E+04 -3.955747E-02
        58   9 -4.900376E+05 -1.366892E+03  1.484789E+04  1.993164E+03  1.144425E+04  3.676923E-02
        58  10 -4.900278E+05  4.063128E+04  5.304093E+04  4.053500E+03 -9.970053E-10 -8.832625E-11
        58  11 -4.981121E+05 -9.453457E+03  2.264156E+04  1.030174E+03 -1.880560E-09  3.757240E-10
        58  12 -4.900377E+05 -1.366927E+03  1.484765E+04 -1.993164E+03  4.384993E-09 -1.229851E-10
        58  13 -4.900279E+05  4.063125E+04  5.304093E+04  3.958690E-08  3.049373E-09  2.124797E-11
        58  14 -4.981121E+05 -9.453459E+03  2.264156E+04  2.957236E-08  8.957849E-10 -5.505180E-11
        58  15 -4.900377E+05 -1.366934E+03  1.484765E+04  2.386571E-08  2.474948E-09 -8.559968E-11
        58  16 -4.900278E+05  4.063128E+04  5.304093E+04 -4.053500E+03 -1.492567E-10 -7.663072E-11
        58  17 -4.981121E+05 -9.453457E+03  2.264156E+04 -1.030174E+03  1.428068E-09 -8.145882E-11
        58  18 -4.900377E+05 -1.366927E+03  1.484765E+04  1.993164E+03 -1.959489E-09 -6.970364E-11
        58  19 -4.900264E+05  4.063163E+04  5.304340E+04  4.053500E+03 -3.619733E+04 -2.365174E-01
        58  20 -4.981115E+05 -9.453304E+03  2.264262E+04  1.030174E+03 -2.382091E+04 -3.955747E-02
        58  21 -4.900376E+05 -1.366892E+03  1.484789E+04 -1.993164E+03 -1.144425E+04  3.676923E-02
        58  22 -4.900265E+05  4.063160E+04  5.304339E+04  5.681540E-08 -3.619733E+04  5.303766E-10
        58  23 -4.981115E+05 -9.453306E+03  2.264262E+04  7.264195E-08 -2.382091E+04  3.811295E-10
        58  24 -4.900376E+05 -1.366899E+03  1.484789E+04 -2.351002E-08 -1.144425E+04 -1.277858E-10
        58  25 -4.900264E+05  4.063163E+04  5.304340E+04 -4.053500E+03 -3.619733E+04  2.365174E-01
        58  26 -4.981115E+05 -9.453304E+03  2.264262E+04 -1.030174E+03 -2.382091E+04  3.955747E-02
        58  27 -4.900376E+05 -1.366892E+03  1.484789E+04  1.993164E+03 -1.144425E+04 -3.676923E-02
        59   1 -4.930465E+05  6.161652E+03  1.227907E+04  5.865191E+02  8.990435E+03  8.500003E-03
        59   2 -4.943509E+05 -1.435602E+03  5.834134E+03  1.387712E+02  5.928035E+03  1.326069E-03
        59   3 -4.930486E+05 -2.042621E+02  3.591337E+03 -3.089767E+02  2.865640E+03 -1.427260E-03
        59   4 -4.930465E+05  6.161651E+03  1.227907E+04  1.251336E-07  8.990435E+03 -1.987633E-10
        59   5 -4.943509E+05 -1.435602E+03  5.834134E+03 -2.677677E-09  5.928035E+03 -2.565071E-11
        59   6 -4.930486E+05 -2.042623E+02  3.591337E+03  3.963856E-08  2.865640E+03  4.655206E-10
        59   7 -4.930465E+05  6.161652E+03  1.227907E+04 -5.865191E+02  8.990435E+03 -8.500003E-03
        59   8 -4.943509E+05 -1.435602E+03  5.834134E+03 -1.387712E+02  5.928035E+03 -1.326070E-03
        59   9 -4.930486E+05 -2.042621E+02  3.591337E+03  3.089767E+02  2.865640E+03  1.427261E-03
        59  10 -4.930466E+05  6.161630E+03  1.227892E+04  5.865191E+02  1.688231E-09 -1.848918E-11
        59  11 -4.943509E+05 -1.435611E+03  5.834068E+03  1.387712E+02  7.797754E-11 -4.818861E-10
        59  12 -4.930486E+05 -2.042643E+02  3.591321E+03 -3.089767E+02 -5.378877E-10 -4.057975E-12
        59  13 -4.930466E+05  6.161629E+03  1.227892E+04  4.536697E-09  9.061797E-10 -1.186831E-10
        59  14 -4.943509E+05 -1.435611E+03  5.834068E+03  1.179193E-07  2.961798E-09 -1.010207E-10
        59  15 -4.930486E+05 -2.042645E+02  3.591321E+03  3.748688E-08 -8.893547E-10  5.138806E-11
        59  16 -4.930466E+05  6.161630E+03  1.227892E+04 -5.865191E+02 -5.429901E-10  1.173666E-10
        59  17 -4.943509E+05 -1.435611E+03  5.834068E+03 -1.387712E+02  1.919072E-10  7.784942E-11
        59  18 -4.930486E+05 -2.042643E+02  3.591321E+03  3.089767E+02 -6.119006E-10  1.066762E-10
        59  19 -4.930465E+05  6.161652E+03  1.227907E+04  5.865191E+02 -8.990435E+03 -8.500003E-03
        59  20 -4.943509E+05 -1.435602E+03  5.834134E+03  1.387712E+02 -5.928035E+03 -1.326070E-03
        59  21 -4.930486E+05 -2.042621E+02  3.591337E+03 -3.089767E+02 -2.865640E+03  1.427259E-03
        59  22 -4.930465E+05  6.161651E+03  1.227907E+04  4.536698E-09 -8.990435E+03 -1.041342E-10
        59  23 -4.943509E+05 -1.435602E+03  5.834134E+03  1.006918E-07 -5.928035E+03 -1.352644E-10
        59  24 -4.930486E+05 -2.042623E+02  3.591337E+03  4.179444E-08 -2.865640E+03 -4.130592E-10
        59  25 -4.930465E+05  6.161652E+03  1.227907E+04 -5.865191E+02 -8.990435E+03  8.500003E-03
        59  26 -4.943509E+05 -1.435602E+03  5.834134E+03 -1.387712E+02 -5.928035E+03  1.326070E-03
        59  27 -4.930486E+05 -2.042621E+02  3.591337E+03  3.089767E+02 -2.865640E+03 -1.427260E-03
        60   1 -4.935342E+05  9.295937E+02  2.846426E+03  8.040189E+01  2.283055E+03  2.958957E-04
        60   2 -4.937442E+05 -2.134929E+02  1.367729E+03  1.619089E+01  1.580707E+03  4.125496E-05
        60   3 -4.935346E+05 -4.478615E+01  6.745013E+02 -4.801918E+01  8.783694E+02 -6.799007E-05
        60   4 -4.935342E+05  9.295937E+02  2.846426E+03  4.588315E-08  2.283055E+03  3.642769E-10
        60   5 -4.937442E+05 -2.134929E+02  1.367729E+03  8.204360E-08  1.580707E+03 -5.158836E-10
        60   6 -4.935346E+05 -4.478615E+01  6.745013E+02  1.612736E-07  8.783694E+02 -3.278041E-10
        60   7 -4.935342E+05  9.295937E+02  2.846426E+03 -8.040189E+01  2.283055E+03 -2.958957E-04
        60   8 -4.937442E+05 -2.134929E+02  1.367729E+03 -1.619089E+01  1.580707E+03 -4.125602E-05
        60   9 -4.935346E+05 -4.478615E+01  6.745013E+02  4.801918E+01  8.783694E+02  6.798957E-05
        60  10 -4.935342E+05  9.295923E+02  2.846416E+03  8.040189E+01  1.174045E-09  1.337682E-10
        60  11 -4.937442E+05 -2.134935E+02  1.367724E+03  1.619089E+01 -7.520942E-10 -3.847510E-10
        60  12 -4.935346E+05 -4.478636E+01  6.744999E+02 -4.801918E+01  6.670780E-10 -1.261274E-10
        60  13 -4.935342E+05  9.295923E+02  2.846416E+03  6.311012E-08 -9.234483E-10  1.018396E-10
        60  14 -4.937442E+05 -2.134935E+02  1.367724E+03  9.065741E-08  1.076761E-09 -3.405482E-11
        60  15 -4.935346E+05 -4.478636E+01  6.744999E+02 -6.700673E-09 -3.158905E-10 -6.843851E-11
        60  16 -4.935342E+05  9.295923E+02  2.846416E+03 -8.040189E+01  1.516117E-10  3.620206E-11
        60  17 -4.937442E+05 -2.134935E+02  1.367724E+03 -1.619089E+01  2.577033E-10  1.150341E-10
        60  18 -4.935346E+05 -4.478636E+01  6.744999E+02  4.801918E+01 -1.087217E-09 -6.115855E-11
        60  19 -4.935342E+05  9.295937E+02  2.846426E+03  8.040189E+01 -2.283055E+03 -2.958951E-04
        60  20 -4.937442E+05 -2.134929E+02  1.367729E+03  1.619089E+01 -1.580707E+03 -4.125452E-05
        60  21 -4.935346E+05 -4.478615E+01  6.745013E+02 -4.801918E+01 -8.783694E+02  6.799024E-05
        60  22 -4.935342E+05  9.295937E+02  2.846426E+03 -5.803937E-09 -2.283055E+03 -1.533829E-10
        60  23 -4.937442E+05 -2.134929E+02  1.367729E+03  8.204242E-08 -1.580707E+03  5.239265E-10
        60  24 -4.935346E+05 -4.478615E+01  6.745013E+02  4.283119E-08 -8.783694E+02  1.251029E-10
        60  25 -4.935342E+05  9.295937E+02  2.846426E+03 -8.040189E+01 -2.283055E+03  2.958957E-04
        60  26 -4.937442E+05 -2.134929E+02  1.367729E+03 -1.619089E+01 -1.580707E+03  4.125546E-05
        60  27 -4.935346E+05 -4.478615E+01  6.745013E+02  4.801918E+01 -8.783694E+02 -6.799071E-05
        61   1 -4.936272E+05  1.416221E+02  4.116650E+02  3.882611E+00  7.800553E+02  4.882991E-06
        61   2 -4.936286E+05 -6.859246E+00 -1.251760E+02  1.016206E+00  8.409889E+02  1.377944E-06
        61   3 -4.936274E+05 -1.128104E+02 -6.910738E+02 -1.850244E+00  9.019234E+02 -2.691142E-06
        61   4 -4.936272E+05  1.416221E+02  4.116650E+02  3.190816E-08  7.800553E+02  4.089943E-10
        61   5 -4.936286E+05 -6.859246E+00 -1.251760E+02 -4.973498E-08  8.409889E+02  4.854737E-10
        61   6 -4.936274E+05 -1.128104E+02 -6.910738E+02 -2.800929E-08  9.019234E+02 -8.172275E-10
        61   7 -4.936272E+05  1.416221E+02  4.116650E+02 -3.882612E+00  7.800553E+02 -4.882171E-06
        61   8 -4.936286E+05 -6.859246E+00 -1.251760E+02 -1.016206E+00  8.409889E+02 -1.377142E-06
        61   9 -4.936274E+05 -1.128104E+02 -6.910738E+02  1.850244E+00  9.019234E+02  2.689191E-06
        61  10 -4.936272E+05  1.416220E+02  4.116638E+02  3.882611E+00  9.597134E-10  2.153122E-10
        61  11 -4.936286E+05 -6.859436E+00 -1.251773E+02  1.016206E+00 -4.668860E-09  4.033666E-10
        61  12 -4.936274E+05 -1.128106E+02 -6.910753E+02 -1.850244E+00 -4.047390E-10 -7.768251E-10
        61  13 -4.936272E+05  1.416220E+02  4.116638E+02 -1.059121E-07 -2.170342E-09  1.239739E-10
        61  14 -4.936286E+05 -6.859436E+00 -1.251773E+02  1.917596E-08 -2.072726E-09  3.274227E-10
        61  15 -4.936274E+05 -1.128106E+02 -6.910753E+02 -8.400831E-08 -2.202814E-09 -4.631628E-10
        61  16 -4.936272E+05  1.416220E+02  4.116638E+02 -3.882611E+00  5.178628E-10  6.617214E-11
        61  17 -4.936286E+05 -6.859436E+00 -1.251773E+02 -1.016205E+00  2.693749E-09  4.965475E-10
        61  18 -4.936274E+05 -1.128106E+02 -6.910753E+02  1.850244E+00  4.541842E-10 -3.673323E-10
        61  19 -4.936272E+05  1.416221E+02  4.116650E+02  3.882611E+00 -7.800553E+02 -4.881484E-06
        61  20 -4.936286E+05 -6.859246E+00 -1.251760E+02  1.016206E+00 -8.409889E+02 -1.376849E-06
        61  21 -4.936274E+05 -1.128104E+02 -6.910738E+02 -1.850244E+00 -9.019234E+02  2.689744E-06
        61  22 -4.936272E+05  1.416221E+02  4.116650E+02 -1.976673E-08 -7.800553E+02 -1.519694E-10
        61  23 -4.936286E+05 -6.859246E+00 -1.251760E+02  1.397716E-07 -8.409889E+02  2.068384E-10
        61  24 -4.936274E+05 -1.128104E+02 -6.910738E+02  4.304164E-08 -9.019234E+02 -7.696104E-11
        61  25 -4.936272E+05  1.416221E+02  4.116650E+02 -3.882611E+00 -7.800553E+02  4.881865E-06
        61  26 -4.936286E+05 -6.859246E+00 -1.251760E+02 -1.016205E+00 -8.409889E+02  1.377262E-06
        61  27 -4.936274E+05 -1.128104E+02 -6.910738E+02  1.850244E+00 -9.019234E+02 -2.690581E-06
        62   1 -4.937134E+05  4.196362E+01 -1.009717E+03 -3.948793E+01  1.055911E+03 -6.721241E-05
        62   2 -4.935214E+05  1.688018E+02 -1.907407E+03  7.355053E+00  2.019062E+03  2.393905E-05
        62   3 -4.937138E+05 -7.396571E+02 -3.691342E+03  5.419807E+01  2.982213E+03  2.605417E-04
        62   4 -4.937134E+05  4.196361E+01 -1.009717E+03  7.962976E-08  1.055911E+03 -5.509606E-10
        62   5 -4.935214E+05  1.688018E+02 -1.907407E+03  8.820597E-10  2.019062E+03  9.757017E-10
        62   6 -4.937138E+05 -7.396571E+02 -3.691342E+03 -3.390406E-10  2.982213E+03 -7.054399E-10
        62   7 -4.937134E+05  4.196362E+01 -1.009717E+03  3.948793E+01  1.055911E+03  6.721124E-05
        62   8 -4.935214E+05  1.688018E+02 -1.907407E+03 -7.355053E+00  2.019062E+03 -2.393783E-05
        62   9 -4.937138E+05 -7.396571E+02 -3.691342E+03 -5.419807E+01  2.982213E+03 -2.605431E-04
        62  10 -4.937134E+05  4.196332E+01 -1.009719E+03 -3.948793E+01 -1.103762E-09 -3.435129E-10
        62  11 -4.935214E+05  1.688007E+02 -1.907414E+03  7.355053E+00 -2.222510E-09  3.254823E-10
        62  12 -4.937138E+05 -7.396595E+02 -3.691359E+03  5.419807E+01 -3.263824E-09 -3.156124E-10
        62  13 -4.937134E+05  4.196331E+01 -1.009719E+03 -7.541612E-08  7.202516E-10 -4.238344E-10
        62  14 -4.935214E+05  1.688007E+02 -1.907414E+03  4.395316E-08 -3.586782E-09  4.695309E-10
        62  15 -4.937138E+05 -7.396595E+02 -3.691359E+03 -3.049400E-08 -1.959580E-09 -3.637518E-11
        62  16 -4.937134E+05  4.196332E+01 -1.009719E+03  3.948793E+01 -5.581655E-11 -2.349382E-10
        62  17 -4.935214E+05  1.688007E+02 -1.907414E+03 -7.355053E+00 -8.277019E-10  4.479163E-10
        62  18 -4.937138E+05 -7.396595E+02 -3.691359E+03 -5.419807E+01 -1.026428E-09  3.043024E-11
        62  19 -4.937134E+05  4.196362E+01 -1.009717E+03 -3.948793E+01 -1.055911E+03  6.721147E-05
        62  20 -4.935214E+05  1.688018E+02 -1.907407E+03  7.355053E+00 -2.019062E+03 -2.393748E-05
        62  21 -4.937138E+05 -7.396571E+02 -3.691342E+03  5.419807E+01 -2.982213E+03 -2.605421E-04
        62  22 -4.937134E+05  4.196361E+01 -1.009717E+03  6.241723E-08 -1.055911E+03 -2.520226E-10
        62  23 -4.935214E+05  1.688018E+02 -1.907407E+03  1.811260E-08 -2.019062E+03 -1.971288E-10
        62  24 -4.937138E+05 -7.396571E+02 -3.691342E+03 -4.658043E-09 -2.982213E+03  5.096488E-10
        62  25 -4.937134E+05  4.196362E+01 -1.009717E+03  3.948793E+01 -1.055911E+03 -6.721267E-05
        62  26 -4.935214E+05  1.688018E+02 -1.907407E+03 -7.355053E+00 -2.019062E+03  2.393776E-05
        62  27 -4.937138E+05 -7.396571E+02 -3.691342E+03 -5.419807E+01 -2.982213E+03  2.605424E-04
        63   1 -4.941400E+05  1.583971E+02 -4.739373E+03 -2.566427E+02  3.745363E+03 -1.549456E-03
        63   2 -4.929893E+05  1.155431E+03 -7.920323E+03  8.839640E+01  7.802426E+03  1.111782E-03
        63   3 -4.941421E+05 -4.945695E+03 -1.551863E+04  4.334310E+02  1.185941E+04  8.285884E-03
        63   4 -4.941400E+05  1.583970E+02 -4.739373E+03 -7.306916E-08  3.745363E+03 -7.689790E-10
        63   5 -4.929893E+05  1.155431E+03 -7.920323E+03  1.482713E-08  7.802426E+03  8.854644E-10
        63   6 -4.941421E+05 -4.945696E+03 -1.551863E+04  3.811717E-08  1.185941E+04  2.033409E-10
        63   7 -4.941400E+05  1.583971E+02 -4.739373E+03  2.566427E+02  3.745363E+03  1.549455E-03
        63   8 -4.929893E+05  1.155431E+03 -7.920323E+03 -8.839640E+01  7.802426E+03 -1.111782E-03
        63   9 -4.941421E+05 -4.945695E+03 -1.551863E+04 -4.334310E+02  1.185941E+04 -8.285884E-03
        63  10 -4.941401E+05  1.583933E+02 -4.739399E+03 -2.566427E+02 -1.249109E-09 -4.539648E-10
        63  11 -4.929894E+05  1.155415E+03 -7.920438E+03  8.839640E+01 -9.200218E-10  1.941428E-10
        63  12 -4.941422E+05 -4.945733E+03 -1.551889E+04  4.334309E+02 -4.614862E-10 -1.917161E-10
        63  13 -4.941401E+05  1.583932E+02 -4.739399E+03 -1.247506E-07 -3.238677E-09 -1.994493E-10
        63  14 -4.929894E+05  1.155415E+03 -7.920438E+03 -7.992738E-08  3.407956E-09  1.980358E-10
        63  15 -4.941422E+05 -4.945733E+03 -1.551889E+04  9.841355E-08  8.964088E-10  5.599729E-11
        63  16 -4.941401E+05  1.583933E+02 -4.739399E+03  2.566427E+02  8.353252E-10 -7.997562E-11
        63  17 -4.929894E+05  1.155415E+03 -7.920438E+03 -8.839640E+01 -1.777147E-09  2.682561E-10
        63  18 -4.941422E+05 -4.945733E+03 -1.551889E+04 -4.334310E+02  1.020375E-09  2.518096E-10
        63  19 -4.941400E+05  1.583971E+02 -4.739373E+03 -2.566427E+02 -3.745363E+03  1.549456E-03
        63  20 -4.929893E+05  1.155431E+03 -7.920323E+03  8.839640E+01 -7.802426E+03 -1.111781E-03
        63  21 -4.941421E+05 -4.945695E+03 -1.551863E+04  4.334310E+02 -1.185941E+04 -8.285884E-03
        63  22 -4.941400E+05  1.583970E+02 -4.739373E+03 -3.860568E-08 -3.745363E+03  3.683401E-10
        63  23 -4.929893E+05  1.155431E+03 -7.920323E+03 -2.399860E-09 -7.802426E+03 -4.308186E-10
        63  24 -4.941421E+05 -4.945696E+03 -1.551863E+04  1.328680E-07 -1.185941E+04  8.225985E-11
        63  25 -4.941400E+05  1.583971E+02 -4.739373E+03  2.566427E+02 -3.745363E+03 -1.549455E-03
        63  26 -4.929893E+05  1.155431E+03 -7.920323E+03 -8.839640E+01 -7.802426E+03  1.111781E-03
        63  27 -4.941421E+05 -4.945695E+03 -1.551863E+04 -4.334310E+02 -1.185941E+04  8.285884E-03
        64   1 -4.967140E+05  1.076304E+03 -1.939398E+04 -1.643638E+03  1.501897E+04 -3.979274E-02
        64   2 -4.897758E+05  7.642893E+03 -3.120338E+04  7.393897E+02  3.139477E+04  3.741825E-02
        64   3 -4.967236E+05 -3.279160E+04 -6.542920E+04  3.122449E+03  4.777069E+04  2.404430E-01
        64   4 -4.967140E+05  1.076299E+03 -1.939398E+04  3.788126E-08  1.501897E+04 -1.262496E-10
        64   5 -4.897758E+05  7.642892E+03 -3.120338E+04  1.300693E-07  3.139477E+04  3.358823E-10
        64   6 -4.967236E+05 -3.279162E+04 -6.542921E+04  3.274101E-08  4.777069E+04 -7.605559E-10
        64   7 -4.967140E+05  1.076304E+03 -1.939398E+04  1.643638E+03  1.501897E+04  3.979274E-02
        64   8 -4.897758E+05  7.642893E+03 -3.120338E+04 -7.393897E+02  3.139477E+04 -3.741825E-02
        64   9 -4.967236E+05 -3.279160E+04 -6.542920E+04 -3.122449E+03  4.777069E+04 -2.404430E-01
        64  10 -4.967142E+05  1.076243E+03 -1.939441E+04 -1.643638E+03  1.613536E-09 -5.170974E-10
        64  11 -4.897769E+05  7.642628E+03 -3.120524E+04  7.393897E+02  6.317811E-10 -3.361276E-10
        64  12 -4.967261E+05 -3.279222E+04 -6.543350E+04  3.122449E+03 -8.044166E-10  3.650329E-10
        64  13 -4.967142E+05  1.076238E+03 -1.939441E+04  3.787896E-08 -1.072536E-09 -3.252786E-10
        64  14 -4.897769E+05  7.642627E+03 -3.120524E+04  7.838535E-08 -3.225989E-09 -5.206169E-10
        64  15 -4.967261E+05 -3.279224E+04 -6.543350E+04 -6.200800E-08 -8.867846E-10  2.909414E-10
        64  16 -4.967142E+05  1.076243E+03 -1.939441E+04  1.643638E+03 -6.926174E-11 -1.976968E-10
        64  17 -4.897769E+05  7.642628E+03 -3.120524E+04 -7.393897E+02  5.450238E-10 -7.059717E-10
        64  18 -4.967261E+05 -3.279222E+04 -6.543350E+04 -3.122449E+03  1.696856E-09  2.696825E-10
        64  19 -4.967140E+05  1.076304E+03 -1.939398E+04 -1.643638E+03 -1.501897E+04  3.979273E-02
        64  20 -4.897758E+05  7.642893E+03 -3.120338E+04  7.393897E+02 -3.139477E+04 -3.741824E-02
        64  21 -4.967236E+05 -3.279160E+04 -6.542920E+04  3.122449E+03 -4.777069E+04 -2.404430E-01
        64  22 -4.967140E+05  1.076299E+03 -1.939398E+04  5.510529E-08 -1.501897E+04 -5.240922E-10
        64  23 -4.897758E+05  7.642892E+03 -3.120338E+04  2.670143E-08 -3.139477E+04 -1.433524E-09
        64  24 -4.967236E+05 -3.279162E+04 -6.542921E+04  9.951165E-08 -4.777069E+04  1.346750E-09
        64  25 -4.967140E+05  1.076304E+03 -1.939398E+04  1.643638E+03 -1.501897E+04 -3.979273E-02
        64  26 -4.897758E+05  7.642893E+03 -3.120338E+04 -7.393897E+02 -3.139477E+04  3.741824E-02
        64  27 -4.967236E+05 -3.279160E+04 -6.542920E+04 -3.122449E+03 -4.777069E+04  2.404430E-01
        65   1 -5.127325E+05  7.274305E+03 -7.907114E+04 -1.060706E+04  6.083914E+04 -1.040267E+00
        65   2 -4.697582E+05  5.031182E+04 -1.204870E+05  5.483651E+03  1.267258E+05  1.120141E+00
        65   3 -5.127751E+05 -2.162367E+05 -2.822027E+05  2.157343E+04  1.926138E+05  6.698245E+00
        65   4 -5.127326E+05  7.274093E+03 -7.907117E+04 -3.168149E-08  6.083914E+04  5.222299E-10
        65   5 -4.697582E+05  5.031176E+04 -1.204870E+05  4.483387E-08  1.267258E+05  3.794323E-09
        65   6 -5.127756E+05 -2.162375E+05 -2.822028E+05  7.826119E-08  1.926138E+05 -3.426952E-09
        65   7 -5.127325E+05  7.274305E+03 -7.907114E+04  1.060706E+04  6.083914E+04  1.040267E+00
        65   8 -4.697582E+05  5.031182E+04 -1.204870E+05 -5.483651E+03  1.267258E+05 -1.120141E+00
        65   9 -5.127751E+05 -2.162367E+05 -2.822027E+05 -2.157343E+04  1.926138E+05 -6.698245E+00
        65  10 -5.127365E+05  7.273310E+03 -7.907810E+04 -1.060706E+04 -3.035845E-10  8.859127E-11
        65  11 -4.697755E+05  5.030750E+04 -1.205172E+05  5.483651E+03  2.398378E-09 -9.444247E-10
        65  12 -5.128150E+05 -2.162466E+05 -2.822725E+05  2.157343E+04 -1.883546E-09 -3.294961E-10
        65  13 -5.127366E+05  7.273098E+03 -7.907813E+04  2.766839E-09  1.551868E-09  1.113386E-10
        65  14 -4.697755E+05  5.030744E+04 -1.205172E+05  6.206196E-08  5.720376E-10 -9.083982E-10
        65  15 -5.128155E+05 -2.162475E+05 -2.822726E+05 -2.509316E-08 -1.014298E-09 -4.171433E-10
        65  16 -5.127365E+05  7.273310E+03 -7.907810E+04  1.060706E+04  2.033613E-10  8.799425E-11
        65  17 -4.697755E+05  5.030750E+04 -1.205172E+05 -5.483651E+03 -6.789487E-10 -9.819323E-10
        65  18 -5.128150E+05 -2.162466E+05 -2.822725E+05 -2.157343E+04 -1.350096E-10 -4.527451E-10
        65  19 -5.127325E+05  7.274305E+03 -7.907114E+04 -1.060706E+04 -6.083914E+04  1.040267E+00
        65  20 -4.697582E+05  5.031182E+04 -1.204870E+05  5.483651E+03 -1.267258E+05 -1.120141E+00
        65  21 -5.127751E+05 -2.162367E+05 -2.822027E+05  2.157343E+04 -1.926138E+05 -6.698245E+00
        65  22 -5.127326E+05  7.274093E+03 -7.907117E+04  8.889979E-08 -6.083914E+04 -2.972530E-10
        65  23 -4.697582E+05  5.031176E+04 -1.204870E+05  4.483116E-08 -1.267258E+05 -5.622652E-09
        65  24 -5.127756E+05 -2.162375E+05 -2.822028E+05  7.612168E-08 -1.926138E+05  4.180409E-10
        65  25 -5.127325E+05  7.274305E+03 -7.907114E+04  1.060706E+04 -6.083914E+04 -1.040267E+00
        65  26 -4.697582E+05  5.031182E+04 -1.204870E+05 -5.483651E+03 -1.267258E+05  1.120141E+00
        65  27 -5.127751E+05 -2.162367E+05 -2.822027E+05 -2.157343E+04 -1.926138E+05  6.698245E+00
        66   1  5.394102E+04 -4.016870E+05  7.137868E+04  3.879403E+02 -3.271202E+01  4.643303E+04
        66   2 -1.208537E+04 -4.066829E+05  3.369109E+04 -3.568521E+03  2.277484E+00  2.867496E+04
        66   3  2.514578E+03 -3.892038E+05  2.772869E+04  8.758556E+03  2.671099E+02  1.091634E+04
        66   4  5.448525E+04 -3.995089E+05  7.192037E+04  5.928351E+03 -3.229724E+01  4.644455E+04
        66   5 -1.310383E+04 -4.107550E+05  3.267284E+04 -2.213273E+03  2.340199E+00  2.865328E+04
        66   6 -6.072137E+01 -3.995206E+05  2.517343E+04  5.928608E+03  2.670607E+02  1.086165E+04
        66   7  5.502960E+04 -3.973307E+05  7.246207E+04  1.146878E+04 -3.188227E+01  4.645606E+04
        66   8 -1.412229E+04 -4.148271E+05  3.165459E+04 -8.580340E+02  2.402820E+00  2.863160E+04
        66   9 -2.635999E+03 -4.098374E+05  2.261817E+04  3.098707E+03  2.670120E+02  1.080695E+04
        66  10  5.394045E+04 -4.016893E+05  7.137463E+04  3.879416E+02  4.039582E-10 -2.510724E-10
        66  11 -1.208559E+04 -4.066838E+05  3.368954E+04 -3.568521E+03 -1.969683E-09  5.255643E-11
        66  12  2.514546E+03 -3.892039E+05  2.772847E+04  8.758554E+03  1.342712E-09  6.776287E-10
        66  13  5.448467E+04 -3.995112E+05  7.191631E+04  5.928353E+03  1.651824E-09  1.836009E-11
        66  14 -1.310405E+04 -4.107559E+05  3.267129E+04 -2.213273E+03 -2.977390E-09 -2.334902E-13
        66  15 -6.075314E+01 -3.995208E+05  2.517321E+04  5.928606E+03  1.090567E-09 -3.792035E-12
        66  16  5.502902E+04 -3.973330E+05  7.245801E+04  1.146878E+04  9.115076E-10  2.220462E-10
        66  17 -1.412251E+04 -4.148280E+05  3.165304E+04 -8.580341E+02 -2.115341E-09 -4.390922E-11
        66  18 -2.636030E+03 -4.098375E+05  2.261795E+04  3.098705E+03  3.249801E-10 -6.670769E-10
        66  19  5.394102E+04 -4.016870E+05  7.137868E+04  3.879403E+02  3.271202E+01 -4.643303E+04
        66  20 -1.208537E+04 -4.066829E+05  3.369109E+04 -3.568521E+03 -2.277484E+00 -2.867496E+04
        66  21  2.514578E+03 -3.892038E+05  2.772869E+04  8.758556E+03 -2.671099E+02 -1.091634E+04
        66  22  5.448525E+04 -3.995089E+05  7.192037E+04  5.928351E+03  3.229724E+01 -4.644455E+04
        66  23 -1.310383E+04 -4.107550E+05  3.267284E+04 -2.213273E+03 -2.340199E+00 -2.865328E+04
        66  24 -6.072137E+01 -3.995206E+05  2.517343E+04  5.928608E+03 -2.670607E+02 -1.086165E+04
        66  25  5.502960E+04 -3.973307E+05  7.246207E+04  1.146878E+04  3.188227E+01 -4.645606E+04
        66  26 -1.412229E+04 -4.148271E+05  3.165459E+04 -8.580340E+02 -2.402820E+00 -2.863160E+04
        66  27 -2.635999E+03 -4.098374E+05  2.261817E+04  3.098707E+03 -2.670120E+02 -1.080695E+04
        67   1  2.577906E+04 -3.310375E+05  4.105025E+04  4.405699E+03  4.995322E+02  6.536775E+03
        67   2  1.470835E+04 -3.293202E+05  3.820072E+04 -1.972760E+03  7.571784E+02 -3.404079E+03
        67   3  3.240976E+04 -3.190227E+05  4.903731E+04  7.306867E+03  8.154870E+02 -1.334501E+04
        67   4  7.887958E+03 -4.026100E+05  2.319691E+04  5.788580E+03  4.995533E+02  6.484906E+03
        67   5 -4.679441E+03 -4.068968E+05  1.886981E+04 -2.038583E+03  7.571898E+02 -3.426212E+03
        67   6  1.152203E+04 -4.026076E+05  2.820934E+04  5.792450E+03  8.155240E+02 -1.333731E+04
        67   7 -1.000353E+04 -4.741778E+05  5.343180E+03  7.171302E+03  4.995741E+02  6.433044E+03
        67   8 -2.406769E+04 -4.844679E+05 -4.615559E+02 -2.104396E+03  7.572012E+02 -3.448342E+03
        67   9 -9.366214E+03 -4.861861E+05  7.380851E+03  4.278237E+03  8.155610E+02 -1.332962E+04
        67  10  2.577905E+04 -3.310375E+05  4.105017E+04  4.405696E+03  2.619700E-09 -1.866216E-10
        67  11  1.470835E+04 -3.293202E+05  3.820070E+04 -1.972758E+03 -2.107009E-09 -1.776802E-10
        67  12  3.240971E+04 -3.190229E+05  4.903697E+04  7.306876E+03  1.286087E-09  1.457313E-10
        67  13  7.887946E+03 -4.026100E+05  2.319683E+04  5.788578E+03 -1.617640E-09 -8.399879E-11
        67  14 -4.679445E+03 -4.068968E+05  1.886978E+04 -2.038581E+03 -4.866264E-09  3.984393E-11
        67  15  1.152198E+04 -4.026078E+05  2.820901E+04  5.792458E+03  1.379118E-09 -1.574534E-10
        67  16 -1.000354E+04 -4.741778E+05  5.343102E+03  7.171299E+03 -2.161206E-09  2.277767E-10
        67  17 -2.406769E+04 -4.844679E+05 -4.615793E+02 -2.104394E+03 -4.170867E-09  2.320304E-10
        67  18 -9.366262E+03 -4.861863E+05  7.380515E+03  4.278246E+03  1.616555E-09 -6.000132E-10
        67  19  2.577906E+04 -3.310375E+05  4.105025E+04  4.405699E+03 -4.995322E+02 -6.536775E+03
        67  20  1.470835E+04 -3.293202E+05  3.820072E+04 -1.972760E+03 -7.571784E+02  3.404079E+03
        67  21  3.240976E+04 -3.190227E+05  4.903731E+04  7.306867E+03 -8.154870E+02  1.334501E+04
        67  22  7.887958E+03 -4.026100E+05  2.319691E+04  5.788580E+03 -4.995533E+02 -6.484906E+03
        67  23 -4.679441E+03 -4.068968E+05  1.886981E+04 -2.038583E+03 -7.571898E+02  3.426212E+03
        67  24  1.152203E+04 -4.026076E+05  2.820934E+04  5.792450E+03 -8.155240E+02  1.333731E+04
        67  25 -1.000353E+04 -4.741778E+05  5.343180E+03  7.171302E+03 -4.995741E+02 -6.433044E+03
        67  26 -2.406769E+04 -4.844679E+05 -4.615559E+02 -2.104396E+03 -7.572012E+02  3.448342E+03
        67  27 -9.366214E+03 -4.861861E+05  7.380851E+03  4.278237E+03 -8.155610E+02  1.332962E+04
        68   1  3.369875E+04 -2.571581E+05  6.709991E+04  1.421457E+03  1.184317E+03 -1.863876E+04
        68   2  1.797472E+04 -2.677155E+05  8.123499E+04  2.918911E+02  1.618069E+03 -4.338166E+04
        68   3  1.155611E+05 -2.464004E+05  1.398769E+05  1.320094E+04  6.403062E+02 -6.812556E+04
        68   4 -1.368648E+03 -3.974451E+05  3.212522E+04  5.402975E+03  1.184298E+03 -1.879793E+04
        68   5 -1.841572E+04 -4.133568E+05  4.496098E+04 -1.572212E+03  1.618188E+03 -4.333264E+04
        68   6  7.782554E+04 -3.974248E+05  1.021665E+05  5.491338E+03  6.408841E+02 -6.786813E+04
        68   7 -3.643747E+04 -5.377143E+05 -2.850952E+03  9.383594E+03  1.184277E+03 -1.895706E+04
        68   8 -5.480774E+04 -5.589788E+05  8.685377E+03 -3.435873E+03  1.618307E+03 -4.328363E+04
        68   9  4.008843E+04 -5.484284E+05  6.445432E+04 -2.216384E+03  6.414557E+02 -6.761076E+04
        68  10  3.369866E+04 -2.571585E+05  6.709926E+04  1.421475E+03  2.271401E-09 -5.615412E-10
        68  11  1.797422E+04 -2.677175E+05  8.123145E+04  2.919477E+02 -2.414054E-09 -2.718412E-10
        68  12  1.155599E+05 -2.464054E+05  1.398682E+05  1.320098E+04  7.678796E-10 -7.740885E-10
        68  13 -1.368745E+03 -3.974455E+05  3.212455E+04  5.402993E+03  1.694534E-09 -5.539991E-10
        68  14 -1.841623E+04 -4.133588E+05  4.495744E+04 -1.572155E+03  4.324671E-11  3.279579E-11
        68  15  7.782430E+04 -3.974298E+05  1.021578E+05  5.491373E+03 -2.049308E-09 -4.368409E-10
        68  16 -3.643757E+04 -5.377147E+05 -2.851631E+03  9.383612E+03  6.748002E-10  1.204900E-09
        68  17 -5.480825E+04 -5.589808E+05  8.681848E+03 -3.435817E+03 -2.951288E-09  5.137419E-10
        68  18  4.008720E+04 -5.484333E+05  6.444572E+04 -2.216349E+03  2.517731E-10 -4.902516E-10
        68  19  3.369875E+04 -2.571581E+05  6.709991E+04  1.421457E+03 -1.184317E+03  1.863876E+04
        68  20  1.797472E+04 -2.677155E+05  8.123499E+04  2.918911E+02 -1.618069E+03  4.338166E+04
        68  21  1.155611E+05 -2.464004E+05  1.398769E+05  1.320094E+04 -6.403062E+02  6.812556E+04
        68  22 -1.368648E+03 -3.974451E+05  3.212522E+04  5.402975E+03 -1.184298E+03  1.879793E+04
        68  23 -1.841572E+04 -4.133568E+05  4.496098E+04 -1.572212E+03 -1.618188E+03  4.333264E+04
        68  24  7.782554E+04 -3.974248E+05  1.021665E+05  5.491338E+03 -6.408841E+02  6.786813E+04
        68  25 -3.643747E+04 -5.377143E+05 -2.850952E+03  9.383594E+03 -1.184277E+03  1.895706E+04
        68  26 -5.480774E+04 -5.589788E+05  8.685377E+03 -3.435873E+03 -1.618307E+03  4.328363E+04
        68  27  4.008843E+04 -5.484284E+05  6.445432E+04 -2.216384E+03 -6.414557E+02  6.761076E+04
        69   1 -7.423873E+05 -1.208571E+05 -2.075333E+04 -2.740687E+05 -9.707019E+03 -3.548092E+03
        69   2 -7.390727E+05 -1.059275E+05 -1.143622E+04 -2.760100E+05 -6.293012E+03 -2.111144E+03
        69   3 -7.399548E+05 -1.083827E+05 -8.908162E+03 -2.762799E+05 -2.797659E+03 -8.909637E+02
        69   4 -7.230511E+05 -1.125668E+05 -1.523165E+04 -2.677967E+05 -9.674130E+03 -3.535778E+03
        69   5 -7.202054E+05 -9.855725E+04 -6.205745E+03 -2.706264E+05 -6.289222E+03 -2.109726E+03
        69   6 -7.215506E+05 -1.019263E+05 -3.945666E+03 -2.717848E+05 -2.822968E+03 -9.004491E+02
        69   7 -7.037146E+05 -1.042765E+05 -9.710016E+03 -2.615246E+05 -9.641240E+03 -3.523465E+03
        69   8 -7.013379E+05 -9.118695E+04 -9.753093E+02 -2.652428E+05 -6.285431E+03 -2.108309E+03
        69   9 -7.031461E+05 -9.547001E+04  1.016803E+03 -2.672897E+05 -2.848278E+03 -9.099346E+02
        69  10 -7.423874E+05 -1.208571E+05 -2.075353E+04 -2.740687E+05 -1.364680E-09  1.089156E-11
        69  11 -7.390727E+05 -1.059275E+05 -1.143630E+04 -2.760100E+05  4.316135E-10 -9.567548E-10
        69  12 -7.399548E+05 -1.083827E+05 -8.908178E+03 -2.762799E+05 -8.890430E-10 -7.802737E-10
        69  13 -7.230512E+05 -1.125669E+05 -1.523185E+04 -2.677968E+05 -1.295112E-10 -4.676745E-10
        69  14 -7.202055E+05 -9.855726E+04 -6.205827E+03 -2.706265E+05 -6.526152E-10 -9.157934E-10
        69  15 -7.215506E+05 -1.019263E+05 -3.945682E+03 -2.717848E+05 -2.310927E-09 -3.832831E-10
        69  16 -7.037147E+05 -1.042766E+05 -9.710214E+03 -2.615247E+05  5.811883E-10 -3.313075E-10
        69  17 -7.013379E+05 -9.118696E+04 -9.753920E+02 -2.652428E+05  1.303351E-09 -9.841369E-10
        69  18 -7.031461E+05 -9.547002E+04  1.016786E+03 -2.672897E+05  2.437997E-09 -6.098281E-10
        69  19 -7.423873E+05 -1.208571E+05 -2.075333E+04 -2.740687E+05  9.707019E+03  3.548092E+03
        69  20 -7.390727E+05 -1.059275E+05 -1.143622E+04 -2.760100E+05  6.293012E+03  2.111144E+03
        69  21 -7.399548E+05 -1.083827E+05 -8.908162E+03 -2.762799E+05  2.797659E+03  8.909637E+02
        69  22 -7.230511E+05 -1.125668E+05 -1.523165E+04 -2.677967E+05  9.674130E+03  3.535778E+03
        69  23 -7.202054E+05 -9.855725E+04 -6.205745E+03 -2.706264E+05  6.289222E+03  2.109726E+03
        69  24 -7.215506E+05 -1.019263E+05 -3.945666E+03 -2.717848E+05  2.822968E+03  9.004491E+02
        69  25 -7.037146E+05 -1.042765E+05 -9.710016E+03 -2.615246E+05  9.641240E+03  3.523465E+03
        69  26 -7.013379E+05 -9.118695E+04 -9.753093E+02 -2.652428E+05  6.285431E+03  2.108309E+03
        69  27 -7.031461E+05 -9.547001E+04  1.016803E+03 -2.672897E+05  2.848278E+03  9.099346E+02
        70   1 -7.266179E+05 -1.060661E+05 -4.835076E+03 -2.725386E+05 -2.196119E+03 -7.385230E+02
        70   2 -7.261025E+05 -1.024059E+05 -2.735199E+03 -2.714006E+05 -1.395033E+03 -4.660187E+02
        70   3 -7.242449E+05 -1.034209E+05 -1.867001E+03 -2.723333E+05 -5.804887E+02 -2.294034E+02
        70   4 -7.209813E+05 -1.037943E+05 -3.259370E+03 -2.708580E+05 -2.196997E+03 -7.388529E+02
        70   5 -7.215390E+05 -1.006492E+05 -1.475031E+03 -2.701253E+05 -1.400738E+03 -4.681573E+02
        70   6 -7.207535E+05 -1.021785E+05 -9.185356E+02 -2.714633E+05 -5.910224E+02 -2.333515E+02
        70   7 -7.153447E+05 -1.015224E+05 -1.683667E+03 -2.691773E+05 -2.197875E+03 -7.391829E+02
        70   8 -7.169754E+05 -9.889259E+04 -2.148656E+02 -2.688500E+05 -1.406443E+03 -4.702959E+02
        70   9 -7.172621E+05 -1.009360E+05  2.992734E+01 -2.705933E+05 -6.015562E+02 -2.372997E+02
        70  10 -7.266179E+05 -1.060661E+05 -4.835086E+03 -2.725386E+05 -1.500322E-09 -6.509478E-10
        70  11 -7.261025E+05 -1.024059E+05 -2.735203E+03 -2.714006E+05  2.015776E-09 -2.720557E-10
        70  12 -7.242449E+05 -1.034209E+05 -1.867002E+03 -2.723333E+05 -8.368653E-10  4.293256E-10
        70  13 -7.209813E+05 -1.037943E+05 -3.259380E+03 -2.708580E+05 -9.271378E-10 -5.211585E-10
        70  14 -7.215390E+05 -1.006492E+05 -1.475035E+03 -2.701253E+05  2.730354E-09  1.671471E-10
        70  15 -7.207535E+05 -1.021785E+05 -9.185364E+02 -2.714633E+05  7.511790E-10  1.947612E-10
        70  16 -7.153447E+05 -1.015224E+05 -1.683678E+03 -2.691773E+05  9.969556E-10 -8.357788E-11
        70  17 -7.169754E+05 -9.889259E+04 -2.148697E+02 -2.688500E+05  1.369402E-09 -6.357886E-10
        70  18 -7.172621E+05 -1.009360E+05  2.992655E+01 -2.705933E+05  2.998271E-10  3.142059E-10
        70  19 -7.266179E+05 -1.060661E+05 -4.835076E+03 -2.725386E+05  2.196119E+03  7.385230E+02
        70  20 -7.261025E+05 -1.024059E+05 -2.735199E+03 -2.714006E+05  1.395033E+03  4.660187E+02
        70  21 -7.242449E+05 -1.034209E+05 -1.867001E+03 -2.723333E+05  5.804887E+02  2.294034E+02
        70  22 -7.209813E+05 -1.037943E+05 -3.259370E+03 -2.708580E+05  2.196997E+03  7.388529E+02
        70  23 -7.215390E+05 -1.006492E+05 -1.475031E+03 -2.701253E+05  1.400738E+03  4.681573E+02
        70  24 -7.207535E+05 -1.021785E+05 -9.185356E+02 -2.714633E+05  5.910224E+02  2.333515E+02
        70  25 -7.153447E+05 -1.015224E+05 -1.683667E+03 -2.691773E+05  2.197875E+03  7.391829E+02
        70  26 -7.169754E+05 -9.889259E+04 -2.148656E+02 -2.688500E+05  1.406443E+03  4.702959E+02
        70  27 -7.172621E+05 -1.009360E+05  2.992734E+01 -2.705933E+05  6.015562E+02  2.372997E+02
        71   1 -7.111065E+05 -9.883337E+04  1.877927E+03 -2.687101E+05 -4.288717E+02 -2.187707E+02
        71   2 -7.110285E+05 -9.697515E+04  2.506203E+03 -2.671965E+05 -1.882333E+02 -1.888707E+02
        71   3 -7.088769E+05 -9.774441E+04  2.866168E+03 -2.681614E+05  5.070556E+01 -1.544361E+02
        71   4 -7.206904E+05 -1.024282E+05 -7.548249E+02 -2.712899E+05 -4.362932E+02 -2.215526E+02
        71   5 -7.217112E+05 -1.010013E+05 -4.277059E+02 -2.700930E+05 -1.950472E+02 -1.914251E+02
        71   6 -7.206584E+05 -1.022020E+05 -3.693770E+02 -2.713746E+05  4.449865E+01 -1.567633E+02
        71   7 -7.302741E+05 -1.060230E+05 -3.387590E+03 -2.738698E+05 -4.437145E+02 -2.243344E+02
        71   8 -7.323937E+05 -1.050274E+05 -3.361629E+03 -2.729895E+05 -2.018610E+02 -1.939795E+02
        71   9 -7.324398E+05 -1.066595E+05 -3.604938E+03 -2.745878E+05  3.829186E+01 -1.590905E+02
        71  10 -7.111065E+05 -9.883337E+04  1.877927E+03 -2.687101E+05 -2.615060E-09  4.272646E-10
        71  11 -7.110285E+05 -9.697515E+04  2.506203E+03 -2.671965E+05  8.129595E-10 -1.051389E-10
        71  12 -7.088769E+05 -9.774441E+04  2.866168E+03 -2.681614E+05 -6.692743E-10  7.351356E-10
        71  13 -7.206904E+05 -1.024282E+05 -7.548253E+02 -2.712899E+05  1.415818E-09  1.855248E-10
        71  14 -7.217112E+05 -1.010013E+05 -4.277060E+02 -2.700930E+05 -3.145861E-09 -7.622671E-10
        71  15 -7.206584E+05 -1.022020E+05 -3.693771E+02 -2.713746E+05 -8.064838E-10  5.473623E-10
        71  16 -7.302741E+05 -1.060230E+05 -3.387590E+03 -2.738698E+05  3.056806E-09 -6.775540E-10
        71  17 -7.323937E+05 -1.050274E+05 -3.361629E+03 -2.729895E+05  4.604231E-10 -5.381655E-10
        71  18 -7.324398E+05 -1.066595E+05 -3.604938E+03 -2.745878E+05 -2.918396E-09  8.370086E-10
        71  19 -7.111065E+05 -9.883337E+04  1.877927E+03 -2.687101E+05  4.288717E+02  2.187707E+02
        71  20 -7.110285E+05 -9.697515E+04  2.506203E+03 -2.671965E+05  1.882333E+02  1.888707E+02
        71  21 -7.088769E+05 -9.774441E+04  2.866168E+03 -2.681614E+05 -5.070556E+01  1.544361E+02
        71  22 -7.206904E+05 -1.024282E+05 -7.548249E+02 -2.712899E+05  4.362932E+02  2.215526E+02
        71  23 -7.217112E+05 -1.010013E+05 -4.277059E+02 -2.700930E+05  1.950472E+02  1.914251E+02
        71  24 -7.206584E+05 -1.022020E+05 -3.693770E+02 -2.713746E+05 -4.449865E+01  1.567633E+02
        71  25 -7.302741E+05 -1.060230E+05 -3.387590E+03 -2.738698E+05  4.437145E+02  2.243344E+02
        71  26 -7.323937E+05 -1.050274E+05 -3.361629E+03 -2.729895E+05  2.018610E+02  1.939795E+02
        71  27 -7.324398E+05 -1.066595E+05 -3.604938E+03 -2.745878E+05 -3.829186E+01  1.590905E+02
        72   1 -6.975243E+05 -9.336961E+04  6.003726E+03 -2.649533E+05  1.270349E+02 -1.622549E+02
        72   2 -6.974906E+05 -9.204670E+04  6.148308E+03 -2.636762E+05  3.860545E+02 -1.240805E+02
        72   3 -6.957604E+05 -9.276657E+04  6.052673E+03 -2.644154E+05  6.377152E+02 -6.625141E+01
        72   4 -7.207499E+05 -1.021252E+05 -3.794305E+02 -2.712521E+05  1.187494E+02 -1.653619E+02
        72   5 -7.216041E+05 -1.011474E+05 -4.766352E+02 -2.702276E+05  3.804071E+02 -1.261989E+02
        72   6 -7.207623E+05 -1.022128E+05 -8.161584E+02 -2.712193E+05  6.347057E+02 -6.738101E+01
        72   7 -7.439750E+05 -1.108808E+05 -6.762627E+03 -2.775507E+05  1.104644E+02 -1.684687E+02
        72   8 -7.457170E+05 -1.102480E+05 -7.101628E+03 -2.767787E+05  3.747601E+02 -1.283172E+02
        72   9 -7.457636E+05 -1.116590E+05 -7.685051E+03 -2.780229E+05  6.316964E+02 -6.851055E+01
        72  10 -6.975243E+05 -9.336961E+04  6.003726E+03 -2.649533E+05  1.631319E-09  9.627163E-10
        72  11 -6.974906E+05 -9.204670E+04  6.148307E+03 -2.636762E+05 -1.736169E-09  7.716364E-11
        72  12 -6.957604E+05 -9.276657E+04  6.052673E+03 -2.644154E+05 -5.468152E-10  3.441088E-10
        72  13 -7.207499E+05 -1.021252E+05 -3.794306E+02 -2.712521E+05 -3.484529E-09  7.465429E-10
        72  14 -7.216041E+05 -1.011474E+05 -4.766355E+02 -2.702276E+05  1.554492E-09  6.136700E-11
        72  15 -7.207623E+05 -1.022128E+05 -8.161591E+02 -2.712193E+05 -2.226759E-09  3.596557E-10
        72  16 -7.439750E+05 -1.108808E+05 -6.762627E+03 -2.775507E+05 -2.108555E-09  5.694064E-10
        72  17 -7.457170E+05 -1.102480E+05 -7.101628E+03 -2.767787E+05  4.694843E-10  7.623411E-10
        72  18 -7.457636E+05 -1.116591E+05 -7.685051E+03 -2.780229E+05 -2.176431E-10  1.744360E-10
        72  19 -6.975243E+05 -9.336961E+04  6.003726E+03 -2.649533E+05 -1.270349E+02  1.622549E+02
        72  20 -6.974906E+05 -9.204670E+04  6.148308E+03 -2.636762E+05 -3.860545E+02  1.240805E+02
        72  21 -6.957604E+05 -9.276657E+04  6.052673E+03 -2.644154E+05 -6.377152E+02  6.625141E+01
        72  22 -7.207499E+05 -1.021252E+05 -3.794305E+02 -2.712521E+05 -1.187494E+02  1.653619E+02
        72  23 -7.216041E+05 -1.011474E+05 -4.766352E+02 -2.702276E+05 -3.804071E+02  1.261989E+02
        72  24 -7.207623E+05 -1.022128E+05 -8.161584E+02 -2.712193E+05 -6.347057E+02  6.738101E+01
        72  25 -7.439750E+05 -1.108808E+05 -6.762627E+03 -2.775507E+05 -1.104644E+02  1.684687E+02
        72  26 -7.457170E+05 -1.102480E+05 -7.101628E+03 -2.767787E+05 -3.747601E+02  1.283172E+02
        72  27 -7.457636E+05 -1.116590E+05 -7.685051E+03 -2.780229E+05 -6.316964E+02  6.851055E+01
        73   1 -6.877488E+05 -8.942429E+04  8.089003E+03 -2.621286E+05  8.043903E+02 -2.953539E+01
        73   2 -6.875735E+05 -8.843849E+04  7.503651E+03 -2.613037E+05  1.720247E+03  2.689994E+02
        73   3 -6.868674E+05 -8.976271E+04  5.919493E+03 -2.614345E+05  2.625111E+03  5.968567E+02
        73   4 -7.209725E+05 -1.019242E+05 -1.034327E+03 -2.711142E+05  7.970729E+02 -3.228138E+01
        73   5 -7.212958E+05 -1.011812E+05 -1.764256E+03 -2.704817E+05  1.716831E+03  2.677164E+02
        73   6 -7.210892E+05 -1.027489E+05 -3.496126E+03 -2.708050E+05  2.625597E+03  5.970372E+02
        73   7 -7.541952E+05 -1.144241E+05 -1.015775E+04 -2.800994E+05  7.897559E+02 -3.502721E+01
        73   8 -7.550171E+05 -1.139238E+05 -1.103227E+04 -2.796593E+05  1.713416E+03  2.664335E+02
        73   9 -7.553100E+05 -1.157351E+05 -1.291186E+04 -2.801750E+05  2.626083E+03  5.972177E+02
        73  10 -6.877488E+05 -8.942429E+04  8.089002E+03 -2.621286E+05  9.489755E-10  6.492451E-10
        73  11 -6.875735E+05 -8.843849E+04  7.503645E+03 -2.613037E+05 -1.000650E-09  4.092668E-10
        73  12 -6.868674E+05 -8.976271E+04  5.919479E+03 -2.614345E+05 -8.296628E-10  2.597647E-11
        73  13 -7.209725E+05 -1.019242E+05 -1.034328E+03 -2.711142E+05 -5.265931E-10  5.038451E-10
        73  14 -7.212958E+05 -1.011812E+05 -1.764262E+03 -2.704817E+05  1.370842E-09 -8.320746E-11
        73  15 -7.210893E+05 -1.027489E+05 -3.496139E+03 -2.708050E+05 -6.202251E-10  3.255720E-10
        73  16 -7.541952E+05 -1.144241E+05 -1.015775E+04 -2.800994E+05  1.730329E-09  8.209565E-12
        73  17 -7.550171E+05 -1.139238E+05 -1.103227E+04 -2.796593E+05  7.136326E-10 -1.534013E-10
        73  18 -7.553100E+05 -1.157351E+05 -1.291187E+04 -2.801750E+05  3.591649E-10  5.720495E-10
        73  19 -6.877488E+05 -8.942429E+04  8.089003E+03 -2.621286E+05 -8.043903E+02  2.953539E+01
        73  20 -6.875735E+05 -8.843849E+04  7.503651E+03 -2.613037E+05 -1.720247E+03 -2.689994E+02
        73  21 -6.868674E+05 -8.976271E+04  5.919493E+03 -2.614345E+05 -2.625111E+03 -5.968567E+02
        73  22 -7.209725E+05 -1.019242E+05 -1.034327E+03 -2.711142E+05 -7.970729E+02  3.228138E+01
        73  23 -7.212958E+05 -1.011812E+05 -1.764256E+03 -2.704817E+05 -1.716831E+03 -2.677164E+02
        73  24 -7.210892E+05 -1.027489E+05 -3.496126E+03 -2.708050E+05 -2.625597E+03 -5.970372E+02
        73  25 -7.541952E+05 -1.144241E+05 -1.015775E+04 -2.800994E+05 -7.897559E+02  3.502721E+01
        73  26 -7.550171E+05 -1.139238E+05 -1.103227E+04 -2.796593E+05 -1.713416E+03 -2.664335E+02
        73  27 -7.553100E+05 -1.157351E+05 -1.291186E+04 -2.801750E+05 -2.626083E+03 -5.972177E+02
        74   1 -6.835609E+05 -8.753625E+04  5.943061E+03 -2.610357E+05  3.297435E+03  8.373761E+02
        74   2 -6.824676E+05 -8.588441E+04  2.820403E+03 -2.605552E+05  7.264791E+03  2.303492E+03
        74   3 -6.846991E+05 -9.245230E+04 -5.436732E+03 -2.583022E+05  1.121808E+04  3.806944E+03
        74   4 -7.216040E+05 -1.016386E+05 -4.459716E+03 -2.711085E+05  3.292048E+03  8.353542E+02
        74   5 -7.203320E+05 -1.002880E+05 -7.604886E+03 -2.709591E+05  7.264205E+03  2.303268E+03
        74   6 -7.223858E+05 -1.071584E+05 -1.588858E+04 -2.690369E+05  1.122229E+04  3.808514E+03
        74   7 -7.596457E+05 -1.157409E+05 -1.486262E+04 -2.811808E+05  3.286662E+03  8.333324E+02
        74   8 -7.581949E+05 -1.146915E+05 -1.803030E+04 -2.813623E+05  7.263618E+03  2.303044E+03
        74   9 -7.600712E+05 -1.218644E+05 -2.634054E+04 -2.797711E+05  1.122650E+04  3.810084E+03
        74  10 -6.835609E+05 -8.753625E+04  5.943039E+03 -2.610357E+05  9.733784E-10  4.920333E-10
        74  11 -6.824677E+05 -8.588443E+04  2.820293E+03 -2.605553E+05  5.398712E-10  3.161088E-10
        74  12 -6.846992E+05 -9.245235E+04 -5.436996E+03 -2.583022E+05 -1.432883E-09  3.508870E-11
        74  13 -7.216040E+05 -1.016386E+05 -4.459738E+03 -2.711085E+05 -9.631862E-11  3.405981E-10
        74  14 -7.203320E+05 -1.002880E+05 -7.604995E+03 -2.709591E+05  4.779845E-09 -3.830589E-10
        74  15 -7.223860E+05 -1.071584E+05 -1.588884E+04 -2.690370E+05 -6.671074E-10 -2.910146E-10
        74  16 -7.596457E+05 -1.157409E+05 -1.486265E+04 -2.811808E+05 -9.241713E-10  6.574667E-11
        74  17 -7.581950E+05 -1.146915E+05 -1.803041E+04 -2.813623E+05 -1.683534E-09 -9.885282E-10
        74  18 -7.600713E+05 -1.218644E+05 -2.634081E+04 -2.797711E+05 -6.348136E-10 -4.748325E-11
        74  19 -6.835609E+05 -8.753625E+04  5.943061E+03 -2.610357E+05 -3.297435E+03 -8.373761E+02
        74  20 -6.824676E+05 -8.588441E+04  2.820403E+03 -2.605552E+05 -7.264791E+03 -2.303492E+03
        74  21 -6.846991E+05 -9.245230E+04 -5.436732E+03 -2.583022E+05 -1.121808E+04 -3.806944E+03
        74  22 -7.216040E+05 -1.016386E+05 -4.459716E+03 -2.711085E+05 -3.292048E+03 -8.353542E+02
        74  23 -7.203320E+05 -1.002880E+05 -7.604886E+03 -2.709591E+05 -7.264205E+03 -2.303268E+03
        74  24 -7.223858E+05 -1.071584E+05 -1.588858E+04 -2.690369E+05 -1.122229E+04 -3.808514E+03
        74  25 -7.596457E+05 -1.157409E+05 -1.486262E+04 -2.811808E+05 -3.286662E+03 -8.333324E+02
        74  26 -7.581949E+05 -1.146915E+05 -1.803030E+04 -2.813623E+05 -7.263618E+03 -2.303044E+03
        74  27 -7.600712E+05 -1.218644E+05 -2.634054E+04 -2.797711E+05 -1.122650E+04 -3.810084E+03
        75   1 -6.867603E+05 -8.831007E+04 -9.836900E+03 -2.637806E+05  1.420774E+04  4.930459E+03
        75   2 -6.800939E+05 -7.882900E+04 -2.289908E+04 -2.621127E+05  3.172245E+04  1.151130E+04
        75   3 -6.962951E+05 -1.214430E+05 -6.345171E+04 -2.461370E+05  4.921378E+04  1.815492E+04
        75   4 -7.244575E+05 -1.008461E+05 -1.985657E+04 -2.722852E+05  1.420308E+04  4.928758E+03
        75   5 -7.156073E+05 -9.303669E+04 -3.281609E+04 -2.725879E+05  3.172527E+04  1.151231E+04
        75   6 -7.296273E+05 -1.373257E+05 -7.327317E+04 -2.585826E+05  4.922413E+04  1.815848E+04
        75   7 -7.621533E+05 -1.133822E+05 -2.987637E+04 -2.807893E+05  1.419843E+04  4.927056E+03
        75   8 -7.511195E+05 -1.072443E+05 -4.273321E+04 -2.830626E+05  3.172809E+04  1.151332E+04
        75   9 -7.629583E+05 -1.532082E+05 -8.309474E+04 -2.710274E+05  4.923449E+04  1.816205E+04
        75  10 -6.867605E+05 -8.831015E+04 -9.837326E+03 -2.637806E+05  1.257842E-11  3.215721E-10
        75  11 -6.800950E+05 -7.882941E+04 -2.290123E+04 -2.621130E+05 -1.068958E-09  3.461740E-10
        75  12 -6.962978E+05 -1.214440E+05 -6.345689E+04 -2.461377E+05 -2.763223E-09 -3.621867E-11
        75  13 -7.244577E+05 -1.008462E+05 -1.985699E+04 -2.722852E+05  1.282630E-09 -3.619163E-10
        75  14 -7.156084E+05 -9.303710E+04 -3.281823E+04 -2.725882E+05 -3.424519E-09  7.271800E-11
        75  15 -7.296299E+05 -1.373268E+05 -7.327835E+04 -2.585833E+05  2.205358E-09 -1.154237E-09
        75  16 -7.621536E+05 -1.133823E+05 -2.987679E+04 -2.807894E+05  4.394901E-10  1.939749E-10
        75  17 -7.511206E+05 -1.072447E+05 -4.273536E+04 -2.830629E+05 -1.764512E-10 -9.608265E-10
        75  18 -7.629610E+05 -1.532092E+05 -8.309993E+04 -2.710281E+05  6.553727E-10 -7.074481E-10
        75  19 -6.867603E+05 -8.831007E+04 -9.836900E+03 -2.637806E+05 -1.420774E+04 -4.930459E+03
        75  20 -6.800939E+05 -7.882900E+04 -2.289908E+04 -2.621127E+05 -3.172245E+04 -1.151130E+04
        75  21 -6.962951E+05 -1.214430E+05 -6.345171E+04 -2.461370E+05 -4.921378E+04 -1.815492E+04
        75  22 -7.244575E+05 -1.008461E+05 -1.985657E+04 -2.722852E+05 -1.420308E+04 -4.928758E+03
        75  23 -7.156073E+05 -9.303669E+04 -3.281609E+04 -2.725879E+05 -3.172527E+04 -1.151231E+04
        75  24 -7.296273E+05 -1.373257E+05 -7.327317E+04 -2.585826E+05 -4.922413E+04 -1.815848E+04
        75  25 -7.621533E+05 -1.133822E+05 -2.987637E+04 -2.807893E+05 -1.419843E+04 -4.927056E+03
        75  26 -7.511195E+05 -1.072443E+05 -4.273321E+04 -2.830626E+05 -3.172809E+04 -1.151332E+04
        75  27 -7.629583E+05 -1.532082E+05 -8.309474E+04 -2.710274E+05 -4.923449E+04 -1.816205E+04
        76   1 -7.038977E+05 -9.355568E+04 -8.080071E+04 -2.822962E+05  6.277927E+04  2.324389E+04
        76   2 -6.627962E+05 -2.928384E+04 -1.320445E+05 -2.695241E+05  1.402133E+05  5.236755E+04
        76   3 -7.637288E+05 -3.097269E+05 -3.358791E+05 -1.648212E+05  2.175664E+05  8.171151E+04
        76   4 -7.411331E+05 -9.657844E+04 -8.882880E+04 -2.810902E+05  6.276373E+04  2.323945E+04
        76   5 -6.871114E+05 -4.415317E+04 -1.398578E+05 -2.819735E+05  1.402244E+05  5.237010E+04
        76   6 -7.751358E+05 -3.364575E+05 -3.435033E+05 -1.909236E+05  2.176059E+05  8.171646E+04
        76   7 -7.783670E+05 -9.960104E+04 -9.685688E+04 -2.798845E+05  6.274818E+04  2.323501E+04
        76   8 -7.114259E+05 -5.902208E+04 -1.476711E+05 -2.944225E+05  1.402354E+05  5.237265E+04
        76   9 -7.865415E+05 -3.631849E+05 -3.511273E+05 -2.170250E+05  2.176453E+05  8.172141E+04
        76  10 -7.039021E+05 -9.355732E+04 -8.080914E+04 -2.822974E+05 -2.199459E-09  1.199583E-09
        76  11 -6.628181E+05 -2.929208E+04 -1.320866E+05 -2.695300E+05 -8.687878E-10  2.847921E-09
        76  12 -7.637815E+05 -3.097469E+05 -3.359807E+05 -1.648355E+05 -1.328764E-09 -4.362630E-10
        76  13 -7.411375E+05 -9.658008E+04 -8.883722E+04 -2.810914E+05  6.036540E-12 -7.299284E-11
        76  14 -6.871332E+05 -4.416140E+04 -1.398999E+05 -2.819795E+05  2.168511E-10  2.147863E-09
        76  15 -7.751885E+05 -3.364774E+05 -3.436050E+05 -1.909379E+05  2.031629E-09  1.782483E-09
        76  16 -7.783714E+05 -9.960268E+04 -9.686531E+04 -2.798856E+05  1.935588E-09  9.710321E-10
        76  17 -7.114477E+05 -5.903032E+04 -1.477133E+05 -2.944284E+05 -1.915983E-10  1.523222E-09
        76  18 -7.865942E+05 -3.632049E+05 -3.512290E+05 -2.170393E+05  1.177981E-09  4.881474E-10
        76  19 -7.038977E+05 -9.355568E+04 -8.080071E+04 -2.822962E+05 -6.277927E+04 -2.324389E+04
        76  20 -6.627962E+05 -2.928384E+04 -1.320445E+05 -2.695241E+05 -1.402133E+05 -5.236755E+04
        76  21 -7.637288E+05 -3.097269E+05 -3.358791E+05 -1.648212E+05 -2.175664E+05 -8.171151E+04
        76  22 -7.411331E+05 -9.657844E+04 -8.882880E+04 -2.810902E+05 -6.276373E+04 -2.323945E+04
        76  23 -6.871114E+05 -4.415317E+04 -1.398578E+05 -2.819735E+05 -1.402244E+05 -5.237010E+04
        76  24 -7.751358E+05 -3.364575E+05 -3.435033E+05 -1.909236E+05 -2.176059E+05 -8.171646E+04
        76  25 -7.783670E+05 -9.960104E+04 -9.685688E+04 -2.798845E+05 -6.274818E+04 -2.323501E+04
        76  26 -7.114259E+05 -5.902208E+04 -1.476711E+05 -2.944225E+05 -1.402354E+05 -5.237265E+04
        76  27 -7.865415E+05 -3.631849E+05 -3.511273E+05 -2.170250E+05 -2.176453E+05 -8.172141E+04
        77   1  2.529671E+05  1.909194E+06  2.378215E+05 -4.065553E+04  1.367129E+04  1.085879E+05
        77   2  2.275187E+05  1.879527E+06  1.744181E+05 -3.533646E+04  4.764719E+04  5.937106E+04
        77   3  2.154777E+05  1.859654E+06  1.463618E+05 -3.258564E+04  6.143347E+04  1.016087E+04
        77   4  1.238655E+04  9.292050E+05  1.330084E+04 -3.207981E+04  1.368324E+04  8.936856E+03
        77   5  4.090120E+03  9.282701E+05  6.986843E+03 -3.079875E+04  4.766582E+04  5.391222E+03
        77   6  1.295629E+03  9.292233E+05  4.367811E+03 -3.208364E+04  6.144524E+04  1.848661E+03
        77   7 -2.282551E+05 -4.987566E+04 -2.112457E+05 -2.351767E+04  1.369245E+04 -9.055858E+04
        77   8 -2.193862E+05 -2.209809E+04 -1.604665E+05 -2.626812E+04  4.768369E+04 -4.850855E+04
        77   9 -2.129280E+05 -3.431377E+02 -1.376445E+05 -3.158233E+04  6.145700E+04 -6.451605E+03
        77  10  2.529637E+05  1.909181E+06  2.377990E+05 -4.065673E+04 -6.731531E-10 -6.249217E-08
        77  11  2.275153E+05  1.879523E+06  1.744072E+05 -3.533873E+04  2.423699E-09  1.228619E-09
        77  12  2.154736E+05  1.859653E+06  1.463545E+05 -3.258615E+04 -1.963515E-09  6.475465E-08
        77  13  1.238633E+04  9.292049E+05  1.330034E+04 -3.207991E+04  4.745987E-10 -1.365165E-11
        77  14  4.087672E+03  9.282694E+05  6.982517E+03 -3.079896E+04  4.414483E-10  1.805745E-10
        77  15  1.291572E+03  9.292222E+05  4.360707E+03 -3.208373E+04  5.306693E-10 -2.424398E-10
        77  16 -2.282575E+05 -4.988452E+04 -2.112614E+05 -2.351667E+04  1.467973E-09  6.243547E-08
        77  17 -2.193893E+05 -2.210123E+04 -1.604752E+05 -2.626626E+04 -2.217646E-09 -1.281977E-09
        77  18 -2.129320E+05 -3.441969E+02 -1.376517E+05 -3.158201E+04  1.131753E-09 -6.441754E-08
        77  19  2.529671E+05  1.909194E+06  2.378215E+05 -4.065553E+04 -1.367129E+04 -1.085879E+05
        77  20  2.275187E+05  1.879527E+06  1.744181E+05 -3.533646E+04 -4.764719E+04 -5.937106E+04
        77  21  2.154777E+05  1.859654E+06  1.463618E+05 -3.258564E+04 -6.143347E+04 -1.016087E+04
        77  22  1.238655E+04  9.292050E+05  1.330084E+04 -3.207981E+04 -1.368324E+04 -8.936856E+03
        77  23  4.090120E+03  9.282701E+05  6.986843E+03 -3.079875E+04 -4.766582E+04 -5.391222E+03
        77  24  1.295629E+03  9.292233E+05  4.367811E+03 -3.208364E+04 -6.144524E+04 -1.848661E+03
        77  25 -2.282551E+05 -4.987566E+04 -2.112457E+05 -2.351767E+04 -1.369245E+04  9.055858E+04
        77  26 -2.193862E+05 -2.209809E+04 -1.604665E+05 -2.626812E+04 -4.768369E+04  4.850855E+04
        77  27 -2.129280E+05 -3.431377E+02 -1.376445E+05 -3.158233E+04 -6.145700E+04  6.451605E+03
        78   1  2.106741E+05  1.842912E+06  1.396374E+05 -3.334919E+04  6.279452E+04  8.632148E+03
        78   2  2.036659E+05  1.817324E+06  1.315134E+05 -3.062882E+04  6.378773E+04 -3.400816E+03
        78   3  1.996153E+05  1.794080E+06  1.319596E+05 -3.204585E+04  6.021006E+04 -1.543622E+04
        78   4  9.953651E+02  9.289317E+05  3.746503E+03 -3.243306E+04  6.280668E+04  1.229168E+03
        78   5  5.942660E+02  9.286618E+05  3.389632E+03 -3.036424E+04  6.379519E+04 -4.632653E+02
        78   6  1.360679E+03  9.289461E+05  4.437962E+03 -3.243319E+04  6.020945E+04 -2.158582E+03
        78   7 -2.087225E+05  1.578887E+04 -1.321600E+05 -3.151822E+04  6.281884E+04 -6.163382E+03
        78   8 -2.025134E+05  4.079482E+04 -1.247466E+05 -3.009993E+04  6.380266E+04  2.470269E+03
        78   9 -1.969287E+05  6.456373E+04 -1.230964E+05 -3.281984E+04  6.020883E+04  1.110136E+04
        78  10  2.106698E+05  1.842911E+06  1.396299E+05 -3.334963E+04 -1.773314E-09 -2.599409E-10
        78  11  2.036615E+05  1.817323E+06  1.315057E+05 -3.062864E+04  5.024975E-12  6.503930E-11
        78  12  1.996114E+05  1.794079E+06  1.319523E+05 -3.204510E+04  1.151716E-09  1.232580E-10
        78  13  9.911270E+02  9.289306E+05  3.739085E+03 -3.243312E+04  2.112356E-09 -4.368591E-10
        78  14  5.898938E+02  9.286607E+05  3.381980E+03 -3.036421E+04  7.516854E-10  5.116560E-10
        78  15  1.356784E+03  9.289451E+05  4.431138E+03 -3.243309E+04  2.053699E-09 -4.676468E-10
        78  16 -2.087267E+05  1.578777E+04 -1.321675E+05 -3.151790E+04  3.783883E-10  4.186145E-10
        78  17 -2.025178E+05  4.079372E+04 -1.247543E+05 -3.010006E+04 -8.569010E-10 -1.509543E-10
        78  18 -1.969326E+05  6.456263E+04 -1.231035E+05 -3.282038E+04 -2.925791E-10  3.080007E-10
        78  19  2.106741E+05  1.842912E+06  1.396374E+05 -3.334919E+04 -6.279452E+04 -8.632148E+03
        78  20  2.036659E+05  1.817324E+06  1.315134E+05 -3.062882E+04 -6.378773E+04  3.400816E+03
        78  21  1.996153E+05  1.794080E+06  1.319596E+05 -3.204585E+04 -6.021006E+04  1.543622E+04
        78  22  9.953651E+02  9.289317E+05  3.746503E+03 -3.243306E+04 -6.280668E+04 -1.229168E+03
        78  23  5.942660E+02  9.286618E+05  3.389632E+03 -3.036424E+04 -6.379519E+04  4.632653E+02
        78  24  1.360679E+03  9.289461E+05  4.437962E+03 -3.243319E+04 -6.020945E+04  2.158582E+03
        78  25 -2.087225E+05  1.578887E+04 -1.321600E+05 -3.151822E+04 -6.281884E+04  6.163382E+03
        78  26 -2.025134E+05  4.079482E+04 -1.247466E+05 -3.009993E+04 -6.380266E+04 -2.470269E+03
        78  27 -1.969287E+05  6.456373E+04 -1.230964E+05 -3.281984E+04 -6.020883E+04 -1.110136E+04
        79   1  1.974081E+05  1.780332E+06  1.338821E+05 -3.284262E+04  5.719467E+04 -1.695315E+04
        79   2  1.986860E+05  1.751791E+06  1.520629E+05 -2.457472E+04  4.283650E+04 -5.869679E+04
        79   3  2.137997E+05  1.732159E+06  2.008362E+05 -2.176325E+04  1.212070E+04 -1.004582E+05
        79   4  1.805047E+03  9.293843E+05  5.467144E+03 -3.272773E+04  5.719193E+04 -2.908062E+03
        79   5  5.673313E+03  9.281370E+05  9.310415E+03 -2.999323E+04  4.279894E+04 -7.658558E+03
        79   6  1.697347E+04  9.293926E+05  1.810336E+04 -3.271726E+04  1.203911E+04 -1.242706E+04
        79   7 -1.938323E+05  7.916093E+04 -1.229618E+05 -3.261286E+04  5.718920E+04  1.111858E+04
        79   8 -1.873744E+05  1.051524E+05 -1.334559E+05 -3.540419E+04  4.276046E+04  4.331419E+04
        79   9 -1.798927E+05  1.272393E+05 -1.646423E+05 -4.365688E+04  1.195437E+04  7.549153E+04
        79  10  1.974045E+05  1.780331E+06  1.338754E+05 -3.284184E+04  8.299232E-10 -6.611860E-08
        79  11  1.986831E+05  1.751787E+06  1.520530E+05 -2.457270E+04  1.415084E-09 -1.303561E-09
        79  12  2.137969E+05  1.732148E+06  2.008171E+05 -2.176227E+04  5.609451E-10  6.237770E-08
        79  13  1.801530E+03  9.293834E+05  5.460979E+03 -3.272759E+04  4.611017E-09 -6.950462E-10
        79  14  5.671330E+03  9.281364E+05  9.306861E+03 -2.999296E+04  4.337056E-09  8.301482E-10
        79  15  1.697327E+04  9.293924E+05  1.810279E+04 -3.271714E+04 -8.273764E-10 -6.108792E-10
        79  16 -1.938359E+05  7.915992E+04 -1.229682E+05 -3.261337E+04  2.298335E-09  6.582856E-08
        79  17 -1.873768E+05  1.051499E+05 -1.334629E+05 -3.540568E+04  3.558338E-09  1.262783E-09
        79  18 -1.798944E+05  1.272331E+05 -1.646533E+05 -4.365760E+04  1.766294E-09 -6.169311E-08
        79  19  1.974081E+05  1.780332E+06  1.338821E+05 -3.284262E+04 -5.719467E+04  1.695315E+04
        79  20  1.986860E+05  1.751791E+06  1.520629E+05 -2.457472E+04 -4.283650E+04  5.869679E+04
        79  21  2.137997E+05  1.732159E+06  2.008362E+05 -2.176325E+04 -1.212070E+04  1.004582E+05
        79  22  1.805047E+03  9.293843E+05  5.467144E+03 -3.272773E+04 -5.719193E+04  2.908062E+03
        79  23  5.673313E+03  9.281370E+05  9.310415E+03 -2.999323E+04 -4.279894E+04  7.658558E+03
        79  24  1.697347E+04  9.293926E+05  1.810336E+04 -3.271726E+04 -1.203911E+04  1.242706E+04
        79  25 -1.938323E+05  7.916093E+04 -1.229618E+05 -3.261286E+04 -5.718920E+04 -1.111858E+04
        79  26 -1.873744E+05  1.051524E+05 -1.334559E+05 -3.540419E+04 -4.276046E+04 -4.331419E+04
        79  27 -1.798927E+05  1.272393E+05 -1.646423E+05 -4.365688E+04 -1.195437E+04 -7.549153E+04
        80   1 -3.127385E+06 -2.962575E+05 -3.749436E+05 -9.784656E+03 -2.296418E+05 -6.003392E+02
        80   2 -3.105127E+06  1.441263E+04 -1.890914E+05 -3.015449E+04 -1.510506E+05  1.126816E+03
        80   3 -3.185899E+06 -4.401852E+04 -1.469261E+05  2.723389E+04 -7.246089E+04  2.386421E+03
        80   4 -2.975502E+06 -2.578625E+05 -3.368215E+05  1.642516E+04 -2.294535E+05 -6.090172E+02
        80   5 -2.923799E+06  5.993482E+04 -1.437552E+05 -2.306155E+04 -1.509140E+05  1.125767E+03
        80   6 -2.975097E+06  8.693605E+03 -9.431613E+04  1.520772E+04 -7.237232E+04  2.388189E+03
        80   7 -2.823596E+06 -2.194667E+05 -2.987008E+05  4.264139E+04 -2.292652E+05 -6.176772E+02
        80   8 -2.742441E+06  1.054547E+05 -9.842150E+04 -1.596656E+04 -1.507774E+05  1.124722E+03
        80   9 -2.764253E+06  6.140293E+04 -4.170940E+04  3.177420E+03 -7.228371E+04  2.389953E+03
        80  10 -3.127442E+06 -2.962718E+05 -3.750432E+05 -9.784768E+03 -3.312388E-10 -4.608193E-10
        80  11 -3.105151E+06  1.440646E+04 -1.891345E+05 -3.015436E+04 -8.639086E-10  3.897005E-10
        80  12 -3.185905E+06 -4.401994E+04 -1.469360E+05  2.723403E+04  8.196908E-10  1.346917E-09
        80  13 -2.975559E+06 -2.578767E+05 -3.369209E+05  1.642504E+04 -1.472499E-09 -9.603424E-11
        80  14 -2.923823E+06  5.992867E+04 -1.437982E+05 -2.306141E+04 -2.970969E-09  3.213229E-10
        80  15 -2.975102E+06  8.692184E+03 -9.432603E+04  1.520786E+04  1.442993E-09  3.165479E-10
        80  16 -2.823653E+06 -2.194809E+05 -2.988000E+05  4.264128E+04 -1.050267E-09 -3.030552E-10
        80  17 -2.742466E+06  1.054486E+05 -9.846442E+04 -1.596642E+04 -2.107621E-09 -3.199857E-10
        80  18 -2.764259E+06  6.140152E+04 -4.171928E+04  3.177559E+03  4.369771E-09  9.391391E-10
        80  19 -3.127385E+06 -2.962575E+05 -3.749436E+05 -9.784656E+03  2.296418E+05  6.003392E+02
        80  20 -3.105127E+06  1.441263E+04 -1.890914E+05 -3.015449E+04  1.510506E+05 -1.126816E+03
        80  21 -3.185899E+06 -4.401852E+04 -1.469261E+05  2.723389E+04  7.246089E+04 -2.386421E+03
        80  22 -2.975502E+06 -2.578625E+05 -3.368215E+05  1.642516E+04  2.294535E+05  6.090172E+02
        80  23 -2.923799E+06  5.993482E+04 -1.437552E+05 -2.306155E+04  1.509140E+05 -1.125767E+03
        80  24 -2.975097E+06  8.693605E+03 -9.431613E+04  1.520772E+04  7.237232E+04 -2.388189E+03
        80  25 -2.823596E+06 -2.194667E+05 -2.987008E+05  4.264139E+04  2.292652E+05  6.176772E+02
        80  26 -2.742441E+06  1.054547E+05 -9.842150E+04 -1.596656E+04  1.507774E+05 -1.124722E+03
        80  27 -2.764253E+06  6.140293E+04 -4.170940E+04  3.177420E+03  7.228371E+04 -2.389953E+03
        81   1 -3.398943E+06 -1.501919E+05 -1.888457E+05  2.411282E+03 -5.706444E+04  3.171537E+03
        81   2 -3.407199E+06 -1.060137E+05 -1.520649E+05 -1.446551E+04 -3.737638E+04  4.369530E+03
        81   3 -3.429348E+06 -1.175857E+05 -1.415606E+05  8.617014E+03 -1.768465E+04  4.494762E+03
        81   4 -2.955440E+06 -3.894570E+04 -7.788032E+04  7.303459E+03 -5.685392E+04  3.171767E+03
        81   5 -2.948464E+06  9.002250E+03 -3.738788E+04 -1.274248E+04 -3.730753E+04  4.369438E+03
        81   6 -2.955345E+06  1.247705E+03 -2.305992E+04  7.169106E+03 -1.775699E+04  4.494491E+03
        81   7 -2.511757E+06  7.228561E+04  3.307019E+04  1.219899E+04 -5.664324E+04  3.172000E+03
        81   8 -2.489537E+06  1.240022E+05  7.727325E+04 -1.101829E+04 -3.723862E+04  4.369346E+03
        81   9 -2.481136E+06  1.200640E+05  9.542372E+04  5.720008E+03 -1.782938E+04  4.494219E+03
        81  10 -3.398947E+06 -1.501927E+05 -1.888519E+05  2.411428E+03  4.700106E-11  9.780255E-10
        81  11 -3.407200E+06 -1.060141E+05 -1.520676E+05 -1.446538E+04 -1.428628E-09  2.989080E-10
        81  12 -3.429349E+06 -1.175858E+05 -1.415612E+05  8.617078E+03 -1.475559E-09  4.691259E-10
        81  13 -2.955443E+06 -3.894658E+04 -7.788644E+04  7.303605E+03  4.726741E-09 -1.436061E-10
        81  14 -2.948465E+06  9.001854E+03 -3.739055E+04 -1.274235E+04 -2.895939E-09 -2.057194E-10
        81  15 -2.955345E+06  1.247598E+03 -2.306055E+04  7.169170E+03 -3.013452E-09  8.562669E-10
        81  16 -2.511761E+06  7.228473E+04  3.306412E+04  1.219914E+04 -9.890779E-11  9.903021E-10
        81  17 -2.489538E+06  1.240018E+05  7.727060E+04 -1.101816E+04  9.542542E-10 -3.082122E-10
        81  18 -2.481136E+06  1.200639E+05  9.542308E+04  5.720073E+03 -8.706328E-10  4.840153E-10
        81  19 -3.398943E+06 -1.501919E+05 -1.888457E+05  2.411282E+03  5.706444E+04 -3.171537E+03
        81  20 -3.407199E+06 -1.060137E+05 -1.520649E+05 -1.446551E+04  3.737638E+04 -4.369530E+03
        81  21 -3.429348E+06 -1.175857E+05 -1.415606E+05  8.617014E+03  1.768465E+04 -4.494762E+03
        81  22 -2.955440E+06 -3.894570E+04 -7.788032E+04  7.303459E+03  5.685392E+04 -3.171767E+03
        81  23 -2.948464E+06  9.002250E+03 -3.738788E+04 -1.274248E+04  3.730753E+04 -4.369438E+03
        81  24 -2.955345E+06  1.247705E+03 -2.305992E+04  7.169106E+03  1.775699E+04 -4.494491E+03
        81  25 -2.511757E+06  7.228561E+04  3.307019E+04  1.219899E+04  5.664324E+04 -3.172000E+03
        81  26 -2.489537E+06  1.240022E+05  7.727325E+04 -1.101829E+04  3.723862E+04 -4.369346E+03
        81  27 -2.481136E+06  1.200640E+05  9.542372E+04  5.720008E+03  1.782938E+04 -4.494219E+03
        82   1 -3.473689E+06 -1.366785E+05 -1.488523E+05 -6.115076E+03 -1.417742E+04  4.652141E+03
        82   2 -3.468011E+06 -1.279580E+05 -1.386829E+05  2.741429E+03 -9.055511E+03  5.015080E+03
        82   3 -3.461421E+06 -1.274434E+05 -1.331797E+05 -4.387820E+03 -3.934482E+03  4.204923E+03
        82   4 -2.952085E+06 -5.893326E+03 -1.841758E+04 -5.217835E+03 -1.405002E+04  4.651993E+03
        82   5 -2.952555E+06  1.275799E+03 -9.824460E+03  2.772378E+03 -9.092636E+03  5.014822E+03
        82   6 -2.952080E+06  2.728529E+02 -5.779634E+03 -5.222315E+03 -4.136180E+03  4.204969E+03
        82   7 -2.430233E+06  1.248712E+05  1.119965E+05 -4.319889E+03 -1.392251E+04  4.651844E+03
        82   8 -2.436856E+06  1.304895E+05  1.190139E+05  2.803364E+03 -9.129789E+03  5.014564E+03
        82   9 -2.442501E+06  1.279695E+05  1.216008E+05 -6.057422E+03 -4.338042E+03  4.205015E+03
        82  10 -3.473689E+06 -1.366786E+05 -1.488527E+05 -6.115023E+03 -2.026807E-09 -1.207610E-09
        82  11 -3.468011E+06 -1.279581E+05 -1.386831E+05  2.741466E+03 -1.069964E-09 -1.233845E-09
        82  12 -3.461422E+06 -1.274435E+05 -1.331798E+05 -4.387806E+03 -1.907752E-09  7.981832E-11
        82  13 -2.952085E+06 -5.893403E+03 -1.841800E+04 -5.217782E+03 -1.998581E-09  1.681189E-10
        82  14 -2.952555E+06  1.275750E+03 -9.824663E+03  2.772415E+03 -1.088754E-09 -2.593702E-10
        82  15 -2.952080E+06  2.728293E+02 -5.779699E+03 -5.222301E+03 -2.999181E-10 -3.105092E-11
        82  16 -2.430233E+06  1.248711E+05  1.119961E+05 -4.319837E+03 -2.224795E-09  4.963733E-12
        82  17 -2.436856E+06  1.304894E+05  1.190137E+05  2.803401E+03  9.972965E-10 -8.247455E-10
        82  18 -2.442501E+06  1.279694E+05  1.216007E+05 -6.057407E+03 -7.648361E-10  1.095738E-09
        82  19 -3.473689E+06 -1.366785E+05 -1.488523E+05 -6.115076E+03  1.417742E+04 -4.652141E+03
        82  20 -3.468011E+06 -1.279580E+05 -1.386829E+05  2.741429E+03  9.055511E+03 -5.015080E+03
        82  21 -3.461421E+06 -1.274434E+05 -1.331797E+05 -4.387820E+03  3.934482E+03 -4.204923E+03
        82  22 -2.952085E+06 -5.893326E+03 -1.841758E+04 -5.217835E+03  1.405002E+04 -4.651993E+03
        82  23 -2.952555E+06  1.275799E+03 -9.824460E+03  2.772378E+03  9.092636E+03 -5.014822E+03
        82  24 -2.952080E+06  2.728529E+02 -5.779634E+03 -5.222315E+03  4.136180E+03 -4.204969E+03
        82  25 -2.430233E+06  1.248712E+05  1.119965E+05 -4.319889E+03  1.392251E+04 -4.651844E+03
        82  26 -2.436856E+06  1.304895E+05  1.190139E+05  2.803364E+03  9.129789E+03 -5.014564E+03
        82  27 -2.442501E+06  1.279695E+05  1.216008E+05 -6.057422E+03  4.338042E+03 -4.205015E+03
        83   1 -3.300925E+06 -8.837916E+04 -9.193617E+04 -1.552914E+04 -3.183878E+03  3.723533E+03
        83   2 -3.276679E+06 -8.112911E+04 -8.412800E+04  1.672427E+04 -1.555886E+03  3.157164E+03
        83   3 -3.251907E+06 -7.509391E+04 -7.747768E+04 -1.511061E+04  6.879311E+01  1.858696E+03
        83   4 -2.952126E+06 -9.434492E+02 -4.779666E+03 -1.591203E+04 -3.213390E+03  3.723455E+03
        83   5 -2.952408E+06  1.635031E+02 -3.073217E+03  1.613205E+04 -1.689643E+03  3.157394E+03
        83   6 -2.952147E+06  7.452406E+01 -2.451407E+03 -1.591008E+04 -1.692745E+02  1.859405E+03
        83   7 -2.603216E+06  8.648304E+04  8.236763E+04 -1.629508E+04 -3.242919E+03  3.723376E+03
        83   8 -2.628042E+06  8.144814E+04  7.797361E+04  1.553957E+04 -1.823470E+03  3.157625E+03
        83   9 -2.652305E+06  7.523614E+04  7.256805E+04 -1.670987E+04 -4.074575E+02  1.860114E+03
        83  10 -3.300925E+06 -8.837918E+04 -9.193621E+04 -1.552913E+04 -9.151446E-10 -2.674189E-10
        83  11 -3.276679E+06 -8.112912E+04 -8.412803E+04  1.672427E+04  2.495565E-09 -4.350190E-10
        83  12 -3.251907E+06 -7.509392E+04 -7.747769E+04 -1.511061E+04  3.404609E-10 -1.981787E-09
        83  13 -2.952126E+06 -9.434668E+02 -4.779712E+03 -1.591202E+04 -1.723099E-10  3.447539E-10
        83  14 -2.952408E+06  1.634917E+02 -3.073241E+03  1.613205E+04 -3.031732E-11  5.602362E-10
        83  15 -2.952147E+06  7.452035E+01 -2.451413E+03 -1.591008E+04 -1.555249E-09  2.775422E-10
        83  16 -2.603216E+06  8.648302E+04  8.236759E+04 -1.629507E+04 -8.976039E-10 -6.592981E-10
        83  17 -2.628042E+06  8.144813E+04  7.797358E+04  1.553958E+04 -2.111925E-09  1.016381E-09
        83  18 -2.652305E+06  7.523614E+04  7.256805E+04 -1.670987E+04 -8.447964E-10 -3.411753E-10
        83  19 -3.300925E+06 -8.837916E+04 -9.193617E+04 -1.552914E+04  3.183878E+03 -3.723533E+03
        83  20 -3.276679E+06 -8.112911E+04 -8.412800E+04  1.672427E+04  1.555886E+03 -3.157164E+03
        83  21 -3.251907E+06 -7.509391E+04 -7.747768E+04 -1.511061E+04 -6.879311E+01 -1.858696E+03
        83  22 -2.952126E+06 -9.434492E+02 -4.779666E+03 -1.591203E+04  3.213390E+03 -3.723455E+03
        83  23 -2.952408E+06  1.635031E+02 -3.073217E+03  1.613205E+04  1.689643E+03 -3.157394E+03
        83  24 -2.952147E+06  7.452406E+01 -2.451407E+03 -1.591008E+04  1.692745E+02 -1.859405E+03
        83  25 -2.603216E+06  8.648304E+04  8.236763E+04 -1.629508E+04  3.242919E+03 -3.723376E+03
        83  26 -2.628042E+06  8.144814E+04  7.797361E+04  1.553957E+04  1.823470E+03 -3.157625E+03
        83  27 -2.652305E+06  7.523614E+04  7.256805E+04 -1.670987E+04  4.074575E+02 -1.860114E+03
        84   1 -2.960688E+06 -2.062069E+03 -4.520612E+03 -1.979431E+04  4.483895E+02  9.810730E+02
        84   2 -2.928960E+06  5.939318E+03  2.686539E+03  2.087483E+04  1.976719E+03 -2.310087E+02
        84   3 -2.898416E+06  1.268062E+04  8.443088E+03 -1.978656E+04  3.505464E+03 -1.383027E+03
        84   4 -2.952502E+06 -2.779059E+01 -2.559599E+03 -1.974217E+04  2.708962E+02  9.816779E+02
        84   5 -2.951909E+06  1.872626E+02 -3.048571E+03  2.092182E+04  1.807800E+03 -2.304466E+02
        84   6 -2.952503E+06 -8.592403E+02 -4.994111E+03 -1.974490E+04  3.345042E+03 -1.382504E+03
        84   7 -2.944316E+06  2.006483E+03 -5.985906E+02 -1.969003E+04  9.340064E+01  9.822828E+02
        84   8 -2.974858E+06 -5.564832E+03 -8.783721E+03  2.096882E+04  1.638887E+03 -2.298844E+02
        84   9 -3.006587E+06 -1.439932E+04 -1.843153E+04 -1.970323E+04  3.184635E+03 -1.381980E+03
        84  10 -2.960688E+06 -2.062070E+03 -4.520614E+03 -1.979431E+04 -1.924255E-09 -6.247830E-10
        84  11 -2.928960E+06  5.939317E+03  2.686531E+03  2.087483E+04  6.434363E-10  8.298692E-10
        84  12 -2.898416E+06  1.268061E+04  8.443061E+03 -1.978656E+04 -7.405543E-10  2.037386E-09
        84  13 -2.952502E+06 -2.779165E+01 -2.559601E+03 -1.974217E+04  1.968292E-09  3.150062E-10
        84  14 -2.951909E+06  1.872616E+02 -3.048578E+03  2.092182E+04  3.139320E-09  3.852056E-10
        84  15 -2.952503E+06 -8.592454E+02 -4.994135E+03 -1.974489E+04 -2.467939E-09  4.834976E-10
        84  16 -2.944316E+06  2.006482E+03 -5.985925E+02 -1.969003E+04  2.967001E-09 -1.512123E-09
        84  17 -2.974858E+06 -5.564833E+03 -8.783726E+03  2.096882E+04  1.762439E-09 -1.009764E-09
        84  18 -3.006587E+06 -1.439933E+04 -1.843155E+04 -1.970323E+04  4.456820E-10 -1.428447E-09
        84  19 -2.960688E+06 -2.062069E+03 -4.520612E+03 -1.979431E+04 -4.483895E+02 -9.810730E+02
        84  20 -2.928960E+06  5.939318E+03  2.686539E+03  2.087483E+04 -1.976719E+03  2.310087E+02
        84  21 -2.898416E+06  1.268062E+04  8.443088E+03 -1.978656E+04 -3.505464E+03  1.383027E+03
        84  22 -2.952502E+06 -2.779059E+01 -2.559599E+03 -1.974217E+04 -2.708962E+02 -9.816779E+02
        84  23 -2.951909E+06  1.872626E+02 -3.048571E+03  2.092182E+04 -1.807800E+03  2.304466E+02
        84  24 -2.952503E+06 -8.592403E+02 -4.994111E+03 -1.974490E+04 -3.345042E+03  1.382504E+03
        84  25 -2.944316E+06  2.006483E+03 -5.985906E+02 -1.969003E+04 -9.340064E+01 -9.822828E+02
        84  26 -2.974858E+06 -5.564832E+03 -8.783721E+03  2.096882E+04 -1.638887E+03  2.298844E+02
        84  27 -3.006587E+06 -1.439932E+04 -1.843153E+04 -1.970323E+04 -3.184635E+03  1.381980E+03
        85   1 -2.616094E+06  8.470417E+04  7.809928E+04 -1.599367E+04  4.576553E+03 -2.240679E+03
        85   2 -2.592647E+06  9.137722E+04  7.969888E+04  1.435058E+04  9.566100E+03 -3.522361E+03
        85   3 -2.570555E+06  8.952595E+04  7.619510E+04 -1.476959E+04  1.455931E+04 -3.933903E+03
        85   4 -2.952579E+06  3.599502E+02 -6.073698E+03 -1.487985E+04  4.330598E+03 -2.239999E+03
        85   5 -2.951886E+06  1.356941E+03 -1.005841E+04  1.484809E+04  9.442444E+03 -3.522209E+03
        85   6 -2.952570E+06 -6.194899E+03 -1.923396E+04 -1.489056E+04  1.455777E+04 -3.934066E+03
        85   7 -3.288962E+06 -8.399285E+04 -9.025526E+04 -1.376656E+04  4.084775E+03 -2.239319E+03
        85   8 -3.311006E+06 -8.867312E+04 -9.982547E+04  1.534538E+04  9.318858E+03 -3.522057E+03
        85   9 -3.334452E+06 -1.019268E+05 -1.146741E+05 -1.501140E+04  1.455622E+04 -3.934230E+03
        85  10 -2.616094E+06  8.470416E+04  7.809923E+04 -1.599366E+04  4.434794E-10 -5.043432E-10
        85  11 -2.592647E+06  9.137718E+04  7.969869E+04  1.435061E+04  3.605528E-09 -7.514598E-10
        85  12 -2.570556E+06  8.952587E+04  7.619467E+04 -1.476954E+04 -1.268238E-09 -1.706628E-09
        85  13 -2.952579E+06  3.599398E+02 -6.073743E+03 -1.487984E+04 -6.734430E-10 -1.085624E-09
        85  14 -2.951886E+06  1.356904E+03 -1.005860E+04  1.484812E+04 -4.721667E-09 -3.272179E-10
        85  15 -2.952571E+06 -6.194973E+03 -1.923439E+04 -1.489051E+04 -8.479156E-10 -4.413858E-10
        85  16 -3.288962E+06 -8.399286E+04 -9.025530E+04 -1.376655E+04  8.158288E-10 -7.425148E-10
        85  17 -3.311006E+06 -8.867315E+04 -9.982565E+04  1.534540E+04 -3.232402E-09 -6.694195E-10
        85  18 -3.334453E+06 -1.019269E+05 -1.146745E+05 -1.501135E+04  1.516649E-09  9.250531E-10
        85  19 -2.616094E+06  8.470417E+04  7.809928E+04 -1.599367E+04 -4.576553E+03  2.240679E+03
        85  20 -2.592647E+06  9.137722E+04  7.969888E+04  1.435058E+04 -9.566100E+03  3.522361E+03
        85  21 -2.570555E+06  8.952595E+04  7.619510E+04 -1.476959E+04 -1.455931E+04  3.933903E+03
        85  22 -2.952579E+06  3.599502E+02 -6.073698E+03 -1.487985E+04 -4.330598E+03  2.239999E+03
        85  23 -2.951886E+06  1.356941E+03 -1.005841E+04  1.484809E+04 -9.442444E+03  3.522209E+03
        85  24 -2.952570E+06 -6.194899E+03 -1.923396E+04 -1.489056E+04 -1.455777E+04  3.934066E+03
        85  25 -3.288962E+06 -8.399285E+04 -9.025526E+04 -1.376656E+04 -4.084775E+03  2.239319E+03
        85  26 -3.311006E+06 -8.867312E+04 -9.982547E+04  1.534538E+04 -9.318858E+03  3.522057E+03
        85  27 -3.334452E+06 -1.019268E+05 -1.146741E+05 -1.501140E+04 -1.455622E+04  3.934230E+03
        86   1 -2.435903E+06  1.315659E+05  1.059483E+05 -6.094393E+03  1.864313E+04 -4.393408E+03
        86   2 -2.425835E+06  1.403406E+05  9.173839E+04  1.776026E+03  3.873794E+04 -5.129618E+03
        86   3 -2.429108E+06  9.129181E+04  5.071072E+04  7.781327E+02  5.883291E+04 -4.302407E+03
        86   4 -2.955266E+06  1.415963E+03 -2.387044E+04 -3.650477E+03  1.841731E+04 -4.393357E+03
        86   5 -2.948605E+06  9.357423E+03 -3.886197E+04  8.075126E+02  3.872153E+04 -5.129951E+03
        86   6 -2.955338E+06 -4.058883E+04 -8.083361E+04 -3.603361E+03  5.902581E+04 -4.302774E+03
        86   7 -3.474383E+06 -1.287544E+05 -1.537096E+05 -1.208554E+03  1.819167E+04 -4.393309E+03
        86   8 -3.471126E+06 -1.216464E+05 -1.694830E+05 -1.601910E+02  3.870513E+04 -5.130285E+03
        86   9 -3.481315E+06 -1.724904E+05 -2.123989E+05 -7.981203E+03  5.921854E+04 -4.303143E+03
        86  10 -2.435903E+06  1.315658E+05  1.059476E+05 -6.094327E+03 -2.511569E-10 -1.013454E-09
        86  11 -2.425836E+06  1.403401E+05  9.173551E+04  1.776187E+03  2.221751E-09  7.756690E-10
        86  12 -2.429112E+06  9.129085E+04  5.070415E+04  7.783367E+02  1.658102E-09  3.155182E-10
        86  13 -2.955266E+06  1.415851E+03 -2.387111E+04 -3.650412E+03  1.030999E-10  1.369828E-10
        86  14 -2.948606E+06  9.356990E+03 -3.886485E+04  8.076727E+02  2.027562E-09  8.006810E-10
        86  15 -2.955341E+06 -4.058979E+04 -8.084023E+04 -3.603156E+03  2.446641E-09  2.439819E-10
        86  16 -3.474384E+06 -1.287545E+05 -1.537103E+05 -1.208490E+03 -2.609557E-09 -6.637603E-10
        86  17 -3.471127E+06 -1.216469E+05 -1.694859E+05 -1.600308E+02 -6.199010E-10 -2.680717E-10
        86  18 -3.481318E+06 -1.724914E+05 -2.124056E+05 -7.980998E+03  2.696298E-09  5.951726E-10
        86  19 -2.435903E+06  1.315659E+05  1.059483E+05 -6.094393E+03 -1.864313E+04  4.393408E+03
        86  20 -2.425835E+06  1.403406E+05  9.173839E+04  1.776026E+03 -3.873794E+04  5.129618E+03
        86  21 -2.429108E+06  9.129181E+04  5.071072E+04  7.781327E+02 -5.883291E+04  4.302407E+03
        86  22 -2.955266E+06  1.415963E+03 -2.387044E+04 -3.650477E+03 -1.841731E+04  4.393357E+03
        86  23 -2.948605E+06  9.357423E+03 -3.886197E+04  8.075126E+02 -3.872153E+04  5.129951E+03
        86  24 -2.955338E+06 -4.058883E+04 -8.083361E+04 -3.603361E+03 -5.902581E+04  4.302774E+03
        86  25 -3.474383E+06 -1.287544E+05 -1.537096E+05 -1.208554E+03 -1.819167E+04  4.393309E+03
        86  26 -3.471126E+06 -1.216464E+05 -1.694830E+05 -1.601910E+02 -3.870513E+04  5.130285E+03
        86  27 -3.481315E+06 -1.724904E+05 -2.123989E+05 -7.981203E+03 -5.921854E+04  4.303143E+03
        87   1 -2.522765E+06  1.223258E+05  1.526954E+04 -4.005118E+03  7.537740E+04 -4.347973E+03
        87   2 -2.488658E+06  1.712009E+05 -4.076474E+04 -6.905633E+03  1.565231E+05 -4.133819E+03
        87   3 -2.558690E+06 -1.628207E+05 -2.450206E+05  3.732766E+04  2.376568E+05 -5.994654E+02
        87   4 -2.975406E+06  8.965987E+03 -9.780620E+04  8.499985E+03  7.511148E+04 -4.347074E+03
        87   5 -2.923476E+06  6.221000E+04 -1.493824E+05 -1.457316E+04  1.566832E+05 -4.135293E+03
        87   6 -2.975830E+06 -2.676606E+05 -3.495490E+05  9.491710E+03  2.382450E+05 -6.076049E+02
        87   7 -3.427859E+06 -1.044087E+05 -2.108973E+05  2.099585E+04  7.484574E+04 -4.346185E+03
        87   8 -3.358121E+06 -4.679498E+04 -2.580144E+05 -2.223542E+04  1.568431E+05 -4.136771E+03
        87   9 -3.392809E+06 -3.725108E+05 -4.540901E+05 -1.832560E+04  2.388329E+05 -6.158029E+02
        87  10 -2.522771E+06  1.223242E+05  1.525879E+04 -4.004853E+03 -1.334278E-09  6.611387E-10
        87  11 -2.488684E+06  1.711942E+05 -4.081100E+04 -6.905112E+03 -1.168314E-09  2.044349E-09
        87  12 -2.558751E+06 -1.628360E+05 -2.451272E+05  3.732777E+04  1.467555E-10  3.444305E-11
        87  13 -2.975412E+06  8.964443E+03 -9.781689E+04  8.500248E+03 -1.940579E-09  8.075364E-10
        87  14 -2.923502E+06  6.220336E+04 -1.494288E+05 -1.457264E+04  3.134785E-10  5.609937E-10
        87  15 -2.975891E+06 -2.676759E+05 -3.496561E+05  9.491827E+03 -2.000564E-09  3.590916E-10
        87  16 -3.427865E+06 -1.044103E+05 -2.109080E+05  2.099611E+04  3.094565E-09  1.682583E-09
        87  17 -3.358148E+06 -4.680165E+04 -2.580609E+05 -2.223490E+04 -3.290448E-09  2.261882E-09
        87  18 -3.392871E+06 -3.725262E+05 -4.541979E+05 -1.832549E+04  5.225336E-10 -2.663804E-10
        87  19 -2.522765E+06  1.223258E+05  1.526954E+04 -4.005118E+03 -7.537740E+04  4.347973E+03
        87  20 -2.488658E+06  1.712009E+05 -4.076474E+04 -6.905633E+03 -1.565231E+05  4.133819E+03
        87  21 -2.558690E+06 -1.628207E+05 -2.450206E+05  3.732766E+04 -2.376568E+05  5.994654E+02
        87  22 -2.975406E+06  8.965987E+03 -9.780620E+04  8.499985E+03 -7.511148E+04  4.347074E+03
        87  23 -2.923476E+06  6.221000E+04 -1.493824E+05 -1.457316E+04 -1.566832E+05  4.135293E+03
        87  24 -2.975830E+06 -2.676606E+05 -3.495490E+05  9.491710E+03 -2.382450E+05  6.076049E+02
        87  25 -3.427859E+06 -1.044087E+05 -2.108973E+05  2.099585E+04 -7.484574E+04  4.346185E+03
        87  26 -3.358121E+06 -4.679498E+04 -2.580144E+05 -2.223542E+04 -1.568431E+05  4.136771E+03
        87  27 -3.392809E+06 -3.725108E+05 -4.540901E+05 -1.832560E+04 -2.388329E+05  6.158029E+02
        88   1  3.605612E+05  4.289768E+05  4.008574E+05 -6.105167E+04  2.735694E+03  1.252467E+05
        88   2  1.776909E+05  3.473325E+05  2.827962E+05  1.327979E+04  8.664571E+03  8.338657E+04
        88   3  1.922481E+05  3.278146E+05  2.428202E+05 -4.344001E+04  5.674737E+03  4.146984E+04
        88   4  1.378563E+05 -4.613588E+05  1.785739E+05 -4.395181E+04  2.747135E+03  1.236636E+05
        88   5 -3.218582E+04 -4.924245E+05  7.370226E+04  2.119057E+04  8.667554E+03  8.314047E+04
        88   6 -4.895902E+03 -4.615296E+05  4.606470E+04 -4.472794E+04  5.665175E+03  4.255724E+04
        88   7 -8.490749E+04 -1.350975E+06 -4.376925E+04 -2.687548E+04  2.758499E+03  1.220826E+05
        88   8 -2.421154E+05 -1.331542E+06 -1.354446E+05  2.909177E+04  8.670534E+03  8.289463E+04
        88   9 -2.020867E+05 -1.250309E+06 -1.507377E+05 -4.601296E+04  5.655602E+03  4.364323E+04
        88  10  3.605570E+05  4.289599E+05  4.008279E+05 -6.105195E+04  9.755316E-10 -8.968230E-10
        88  11  1.776889E+05  3.473250E+05  2.827830E+05  1.327921E+04 -1.925544E-09 -7.394060E-12
        88  12  1.922476E+05  3.278127E+05  2.428170E+05 -4.344020E+04 -5.285295E-10  1.624290E-09
        88  13  1.378522E+05 -4.613752E+05  1.785451E+05 -4.395208E+04 -2.699924E-09 -1.821268E-11
        88  14 -3.218776E+04 -4.924319E+05  7.368912E+04  2.118999E+04  1.116409E-09 -7.047756E-11
        88  15 -4.896423E+03 -4.615315E+05  4.606123E+04 -4.472813E+04 -4.339836E-09 -6.014081E-11
        88  16 -8.491151E+04 -1.350991E+06 -4.379733E+04 -2.687575E+04 -1.089530E-10  9.061584E-10
        88  17 -2.421174E+05 -1.331549E+06 -1.354577E+05  2.909119E+04 -5.075444E-10 -8.574568E-11
        88  18 -2.020873E+05 -1.250311E+06 -1.507413E+05 -4.601315E+04  1.980601E-09 -1.865578E-09
        88  19  3.605612E+05  4.289768E+05  4.008574E+05 -6.105167E+04 -2.735694E+03 -1.252467E+05
        88  20  1.776909E+05  3.473325E+05  2.827962E+05  1.327979E+04 -8.664571E+03 -8.338657E+04
        88  21  1.922481E+05  3.278146E+05  2.428202E+05 -4.344001E+04 -5.674737E+03 -4.146984E+04
        88  22  1.378563E+05 -4.613588E+05  1.785739E+05 -4.395181E+04 -2.747135E+03 -1.236636E+05
        88  23 -3.218582E+04 -4.924245E+05  7.370226E+04  2.119057E+04 -8.667554E+03 -8.314047E+04
        88  24 -4.895902E+03 -4.615296E+05  4.606470E+04 -4.472794E+04 -5.665175E+03 -4.255724E+04
        88  25 -8.490749E+04 -1.350975E+06 -4.376925E+04 -2.687548E+04 -2.758499E+03 -1.220826E+05
        88  26 -2.421154E+05 -1.331542E+06 -1.354446E+05  2.909177E+04 -8.670534E+03 -8.289463E+04
        88  27 -2.020867E+05 -1.250309E+06 -1.507377E+05 -4.601296E+04 -5.655602E+03 -4.364323E+04
        89   1  8.807390E+04 -2.086732E+05  1.017767E+05 -4.977837E+04  2.853459E+03  3.496896E+04
        89   2  5.012462E+04 -2.639301E+05  6.298744E+04  2.161864E+04  1.775112E+03  2.952501E+04
        89   3  2.980413E+04 -3.169357E+05  3.156890E+04 -4.793539E+04  1.392454E+02  2.407440E+04
        89   4  2.157275E+04 -4.745974E+05  3.555980E+04 -4.646174E+04  2.852551E+03  3.508222E+04
        89   5 -2.846237E+03 -4.757394E+05  1.020071E+04  2.386335E+04  1.773251E+03  2.972117E+04
        89   6 -9.647229E+03 -4.746442E+05 -7.841675E+03 -4.676552E+04  1.363590E+02  2.435299E+04
        89   7 -4.493369E+04 -7.404573E+05 -3.066238E+04 -4.314638E+04  2.851644E+03  3.519542E+04
        89   8 -5.582046E+04 -6.875080E+05 -4.258940E+04  2.610739E+04  1.771393E+03  2.991726E+04
        89   9 -4.910047E+04 -6.323301E+05 -4.725413E+04 -4.559588E+04  1.334733E+02  2.463151E+04
        89  10  8.807356E+04 -2.086745E+05  1.017744E+05 -4.977845E+04 -1.190685E-09  4.859741E-10
        89  11  5.012438E+04 -2.639311E+05  6.298579E+04  2.161860E+04  1.465573E-09 -3.767613E-10
        89  12  2.980398E+04 -3.169364E+05  3.156781E+04 -4.793540E+04 -1.400459E-10 -2.610885E-12
        89  13  2.157241E+04 -4.745987E+05  3.555747E+04 -4.646182E+04  3.153262E-09 -6.536108E-11
        89  14 -2.846478E+03 -4.757404E+05  1.019904E+04  2.386331E+04 -3.195317E-09 -4.135296E-11
        89  15 -9.647388E+03 -4.746449E+05 -7.842791E+03 -4.676552E+04  9.905957E-10 -4.283620E-11
        89  16 -4.493403E+04 -7.404586E+05 -3.066473E+04 -4.314646E+04 -6.478583E-10 -5.956955E-10
        89  17 -5.582070E+04 -6.875090E+05 -4.259109E+04  2.610735E+04  4.514227E-10  3.827540E-10
        89  18 -4.910063E+04 -6.323308E+05 -4.725527E+04 -4.559588E+04 -1.778226E-09 -2.552627E-11
        89  19  8.807390E+04 -2.086732E+05  1.017767E+05 -4.977837E+04 -2.853459E+03 -3.496896E+04
        89  20  5.012462E+04 -2.639301E+05  6.298744E+04  2.161864E+04 -1.775112E+03 -2.952501E+04
        89  21  2.980413E+04 -3.169357E+05  3.156890E+04 -4.793539E+04 -1.392454E+02 -2.407440E+04
        89  22  2.157275E+04 -4.745974E+05  3.555980E+04 -4.646174E+04 -2.852551E+03 -3.508222E+04
        89  23 -2.846237E+03 -4.757394E+05  1.020071E+04  2.386335E+04 -1.773251E+03 -2.972117E+04
        89  24 -9.647229E+03 -4.746442E+05 -7.841675E+03 -4.676552E+04 -1.363590E+02 -2.435299E+04
        89  25 -4.493369E+04 -7.404573E+05 -3.066238E+04 -4.314638E+04 -2.851644E+03 -3.519542E+04
        89  26 -5.582046E+04 -6.875080E+05 -4.258940E+04  2.610739E+04 -1.771393E+03 -2.991726E+04
        89  27 -4.910047E+04 -6.323301E+05 -4.725413E+04 -4.559588E+04 -1.334733E+02 -2.463151E+04
        90   1 -8.882247E+04 -8.606636E+05 -1.093597E+05 -4.019033E+04 -2.383767E+03  2.548540E+04
        90   2 -9.433741E+04 -9.016978E+05 -1.404717E+05  2.466928E+04 -5.365765E+03  4.412866E+04
        90   3 -1.861801E+05 -9.674148E+05 -2.054679E+05 -4.995477E+04 -2.494046E+03  6.282504E+04
        90   4  6.333051E+03 -4.806234E+05 -1.445314E+04 -4.607387E+04 -2.392353E+03  2.632009E+04
        90   5  1.398874E+04 -4.683391E+05 -3.251150E+04  2.336275E+04 -5.365463E+03  4.413270E+04
        90   6 -6.450464E+04 -4.805764E+05 -8.385802E+04 -4.667865E+04 -2.486362E+03  6.200007E+04
        90   7  1.014778E+05 -1.004521E+05  8.044253E+04 -5.196067E+04 -2.400952E+03  2.715528E+04
        90   8  1.223007E+05 -3.480989E+04  7.543460E+04  2.205569E+04 -5.365162E+03  4.413674E+04
        90   9  5.715299E+04  6.477178E+03  3.773404E+04 -4.339949E+04 -2.478689E+03  6.117444E+04
        90  10 -8.882265E+04 -8.606643E+05 -1.093609E+05 -4.019028E+04 -9.040851E-10 -5.272322E-10
        90  11 -9.433796E+04 -9.016999E+05 -1.404754E+05  2.466947E+04 -4.108538E-09 -1.950094E-10
        90  12 -1.861811E+05 -9.674191E+05 -2.054754E+05 -4.995464E+04  3.819549E-10  4.244156E-10
        90  13  6.332859E+03 -4.806242E+05 -1.445445E+04 -4.607382E+04 -4.333055E-09 -1.284377E-10
        90  14  1.398818E+04 -4.683412E+05 -3.251522E+04  2.336294E+04 -3.492861E-09 -1.788927E-10
        90  15 -6.450568E+04 -4.805805E+05 -8.386526E+04 -4.667852E+04 -1.076653E-09 -1.333531E-10
        90  16  1.014776E+05 -1.004529E+05  8.044113E+04 -5.196062E+04 -1.453407E-09  4.408357E-10
        90  17  1.223002E+05 -3.481199E+04  7.543088E+04  2.205588E+04 -4.752776E-09  1.188387E-10
        90  18  5.715198E+04  6.473158E+03  3.772700E+04 -4.339937E+04 -5.357598E-10 -3.888934E-10
        90  19 -8.882247E+04 -8.606636E+05 -1.093597E+05 -4.019033E+04  2.383767E+03 -2.548540E+04
        90  20 -9.433741E+04 -9.016978E+05 -1.404717E+05  2.466928E+04  5.365765E+03 -4.412866E+04
        90  21 -1.861801E+05 -9.674148E+05 -2.054679E+05 -4.995477E+04  2.494046E+03 -6.282504E+04
        90  22  6.333051E+03 -4.806234E+05 -1.445314E+04 -4.607387E+04  2.392353E+03 -2.632009E+04
        90  23  1.398874E+04 -4.683391E+05 -3.251150E+04  2.336275E+04  5.365463E+03 -4.413270E+04
        90  24 -6.450464E+04 -4.805764E+05 -8.385802E+04 -4.667865E+04  2.486362E+03 -6.200007E+04
        90  25  1.014778E+05 -1.004521E+05  8.044253E+04 -5.196067E+04  2.400952E+03 -2.715528E+04
        90  26  1.223007E+05 -3.480989E+04  7.543460E+04  2.205569E+04  5.365162E+03 -4.413674E+04
        90  27  5.715299E+04  6.477178E+03  3.773404E+04 -4.339949E+04  2.478689E+03 -6.117444E+04
        91   1 -6.635642E+06 -2.113858E+06 -1.341715E+06 -2.339535E+06 -6.732197E+05 -2.422058E+05
        91   2 -6.470660E+06 -1.125857E+06 -7.188839E+05 -2.460038E+06 -4.364012E+05 -1.248698E+05
        91   3 -6.677173E+06 -1.111430E+06 -5.418756E+05 -2.354940E+06 -1.897987E+05 -3.324226E+04
        91   4 -5.671500E+06 -1.532456E+06 -1.034313E+06 -1.858847E+06 -6.575324E+05 -2.365352E+05
        91   5 -5.431808E+06 -6.711216E+05 -4.296329E+05 -2.113875E+06 -4.318759E+05 -1.232110E+05
        91   6 -5.560793E+06 -7.802474E+05 -2.613220E+05 -2.143497E+06 -1.964143E+05 -3.571553E+04
        91   7 -4.706333E+06 -9.504768E+05 -7.269966E+05 -1.377337E+06 -6.418175E+05 -2.308401E+05
        91   8 -4.391889E+06 -2.162125E+05 -1.404833E+05 -1.767145E+06 -4.273416E+05 -1.215477E+05
        91   9 -4.443186E+06 -4.490858E+05  1.914081E+04 -1.931758E+06 -2.030428E+05 -3.819126E+04
        91  10 -6.636150E+06 -2.114045E+06 -1.342689E+06 -2.339667E+06  9.102264E-10  2.184547E-10
        91  11 -6.470870E+06 -1.125926E+06 -7.192758E+05 -2.460082E+06 -2.069827E-09  3.049270E-10
        91  12 -6.677212E+06 -1.111441E+06 -5.419462E+05 -2.354945E+06  2.626648E-09 -3.294745E-10
        91  13 -5.671983E+06 -1.532634E+06 -1.035240E+06 -1.858973E+06  1.320497E-09  5.594272E-11
        91  14 -5.432014E+06 -6.711888E+05 -4.300158E+05 -2.113918E+06 -1.620023E-10  1.176266E-10
        91  15 -5.560835E+06 -7.802593E+05 -2.613976E+05 -2.143502E+06  2.135107E-09 -4.451151E-10
        91  16 -4.706793E+06 -9.506461E+05 -7.278781E+05 -1.377457E+06 -3.523086E-09  3.544545E-10
        91  17 -4.392090E+06 -2.162780E+05 -1.408573E+05 -1.767187E+06  7.593732E-10  1.786209E-10
        91  18 -4.443231E+06 -4.490985E+05  1.905994E+04 -1.931764E+06 -5.188524E-10  1.153961E-10
        91  19 -6.635642E+06 -2.113858E+06 -1.341715E+06 -2.339535E+06  6.732197E+05  2.422058E+05
        91  20 -6.470660E+06 -1.125857E+06 -7.188839E+05 -2.460038E+06  4.364012E+05  1.248698E+05
        91  21 -6.677173E+06 -1.111430E+06 -5.418756E+05 -2.354940E+06  1.897987E+05  3.324226E+04
        91  22 -5.671500E+06 -1.532456E+06 -1.034313E+06 -1.858847E+06  6.575324E+05  2.365352E+05
        91  23 -5.431808E+06 -6.711216E+05 -4.296329E+05 -2.113875E+06  4.318759E+05  1.232110E+05
        91  24 -5.560793E+06 -7.802474E+05 -2.613220E+05 -2.143497E+06  1.964143E+05  3.571553E+04
        91  25 -4.706333E+06 -9.504768E+05 -7.269966E+05 -1.377337E+06  6.418175E+05  2.308401E+05
        91  26 -4.391889E+06 -2.162125E+05 -1.404833E+05 -1.767145E+06  4.273416E+05  1.215477E+05
        91  27 -4.443186E+06 -4.490858E+05  1.914081E+04 -1.931758E+06  2.030428E+05  3.819126E+04
        92   1 -6.475840E+06 -1.277738E+06 -4.726243E+05 -2.368956E+06 -1.577072E+05 -2.660818E+04
        92   2 -6.411890E+06 -1.122119E+06 -3.423810E+05 -2.343025E+06 -1.037196E+05 -6.683609E+03
        92   3 -6.353824E+06 -1.116541E+06 -2.820322E+05 -2.336436E+06 -4.869458E+04  1.049978E+04
        92   4 -5.523184E+06 -8.942236E+05 -2.129572E+05 -2.085764E+06 -1.574419E+05 -2.651845E+04
        92   5 -5.514103E+06 -7.765460E+05 -1.012659E+05 -2.092165E+06 -1.045968E+05 -7.018796E+03
        92   6 -5.510610E+06 -8.085757E+05 -5.847116E+04 -2.117923E+06 -5.072020E+04  9.735967E+03
        92   7 -4.569643E+06 -5.106217E+05  4.662651E+04 -1.802164E+06 -1.571760E+05 -2.642846E+04
        92   8 -4.615529E+06 -4.309162E+05  1.397775E+05 -1.840972E+06 -1.054753E+05 -7.354493E+03
        92   9 -4.666702E+06 -5.005791E+05  1.650290E+05 -1.899142E+06 -5.274885E+04  8.971109E+03
        92  10 -6.475867E+06 -1.277746E+06 -4.726729E+05 -2.368959E+06  7.269665E-10 -5.276013E-10
        92  11 -6.411902E+06 -1.122122E+06 -3.424015E+05 -2.343025E+06  2.428657E-09  5.249953E-10
        92  12 -6.353826E+06 -1.116542E+06 -2.820369E+05 -2.336436E+06  3.620815E-09 -2.752099E-10
        92  13 -5.523211E+06 -8.942311E+05 -2.130055E+05 -2.085767E+06  1.214535E-09  1.082763E-10
        92  14 -5.514115E+06 -7.765491E+05 -1.012868E+05 -2.092166E+06 -1.863418E-09  8.495383E-11
        92  15 -5.510613E+06 -8.085765E+05 -5.847621E+04 -2.117922E+06 -3.477681E-09 -6.639476E-10
        92  16 -4.569670E+06 -5.106292E+05  4.657839E+04 -1.802167E+06  1.090573E-09  2.375390E-10
        92  17 -4.615541E+06 -4.309193E+05  1.397563E+05 -1.840973E+06 -2.523517E-10 -4.833814E-11
        92  18 -4.666705E+06 -5.005799E+05  1.650236E+05 -1.899142E+06 -1.592671E-09  5.408283E-10
        92  19 -6.475840E+06 -1.277738E+06 -4.726243E+05 -2.368956E+06  1.577072E+05  2.660818E+04
        92  20 -6.411890E+06 -1.122119E+06 -3.423810E+05 -2.343025E+06  1.037196E+05  6.683609E+03
        92  21 -6.353824E+06 -1.116541E+06 -2.820322E+05 -2.336436E+06  4.869458E+04 -1.049978E+04
        92  22 -5.523184E+06 -8.942236E+05 -2.129572E+05 -2.085764E+06  1.574419E+05  2.651845E+04
        92  23 -5.514103E+06 -7.765460E+05 -1.012659E+05 -2.092165E+06  1.045968E+05  7.018796E+03
        92  24 -5.510610E+06 -8.085757E+05 -5.847116E+04 -2.117923E+06  5.072020E+04 -9.735967E+03
        92  25 -4.569643E+06 -5.106217E+05  4.662651E+04 -1.802164E+06  1.571760E+05  2.642846E+04
        92  26 -4.615529E+06 -4.309162E+05  1.397775E+05 -1.840972E+06  1.054753E+05  7.354493E+03
        92  27 -4.666702E+06 -5.005791E+05  1.650290E+05 -1.899142E+06  5.274885E+04 -8.971109E+03
        93   1 -6.211328E+06 -1.093898E+06 -2.352659E+05 -2.309487E+06 -3.998549E+04  1.111566E+04
        93   2 -6.145347E+06 -1.018747E+06 -1.887195E+05 -2.254141E+06 -2.643024E+04  1.217117E+04
        93   3 -6.028997E+06 -1.012057E+06 -1.545768E+05 -2.259964E+06 -1.266204E+04  1.264664E+04
        93   4 -5.502947E+06 -8.242010E+05 -4.580287E+04 -2.114514E+06 -4.145937E+04  1.055958E+04
        93   5 -5.527423E+06 -7.851011E+05 -2.358578E+04 -2.085753E+06 -2.814871E+04  1.152476E+04
        93   6 -5.501484E+06 -8.143995E+05 -1.356440E+04 -2.118160E+06 -1.462719E+04  1.190937E+04
        93   7 -4.794077E+06 -5.544721E+05  1.436158E+05 -1.919338E+06 -4.293510E+04  1.000279E+04
        93   8 -4.909128E+06 -5.514322E+05  1.415141E+05 -1.917213E+06 -2.986906E+04  1.087763E+04
        93   9 -4.973703E+06 -6.167267E+05  1.274231E+05 -1.976246E+06 -1.659418E+04  1.117142E+04
        93  10 -6.211330E+06 -1.093898E+06 -2.352691E+05 -2.309486E+06 -1.107119E-09  2.035814E-10
        93  11 -6.145347E+06 -1.018748E+06 -1.887211E+05 -2.254141E+06 -4.756788E-09  2.080960E-09
        93  12 -6.028997E+06 -1.012057E+06 -1.545774E+05 -2.259964E+06 -4.971974E-09  3.661091E-10
        93  13 -5.502949E+06 -8.242016E+05 -4.580633E+04 -2.114514E+06 -4.003188E-10 -2.986168E-11
        93  14 -5.527424E+06 -7.851015E+05 -2.358752E+04 -2.085753E+06 -2.964159E-09  1.840437E-09
        93  15 -5.501485E+06 -8.143997E+05 -1.356507E+04 -2.118160E+06 -3.701480E-09  3.166673E-10
        93  16 -4.794079E+06 -5.544727E+05  1.436122E+05 -1.919338E+06 -6.541541E-10 -1.177754E-10
        93  17 -4.909129E+06 -5.514325E+05  1.415122E+05 -1.917212E+06  9.195883E-10  5.487032E-10
        93  18 -4.973703E+06 -6.167269E+05  1.274224E+05 -1.976246E+06  1.641932E-09  1.050342E-09
        93  19 -6.211328E+06 -1.093898E+06 -2.352659E+05 -2.309487E+06  3.998549E+04 -1.111566E+04
        93  20 -6.145347E+06 -1.018747E+06 -1.887195E+05 -2.254141E+06  2.643024E+04 -1.217117E+04
        93  21 -6.028997E+06 -1.012057E+06 -1.545768E+05 -2.259964E+06  1.266204E+04 -1.264664E+04
        93  22 -5.502947E+06 -8.242010E+05 -4.580287E+04 -2.114514E+06  4.145937E+04 -1.055958E+04
        93  23 -5.527423E+06 -7.851011E+05 -2.358578E+04 -2.085753E+06  2.814871E+04 -1.152476E+04
        93  24 -5.501484E+06 -8.143995E+05 -1.356440E+04 -2.118160E+06  1.462719E+04 -1.190937E+04
        93  25 -4.794077E+06 -5.544721E+05  1.436158E+05 -1.919338E+06  4.293510E+04 -1.000279E+04
        93  26 -4.909128E+06 -5.514322E+05  1.415141E+05 -1.917213E+06  2.986906E+04 -1.087763E+04
        93  27 -4.973703E+06 -6.167267E+05  1.274231E+05 -1.976246E+06  1.659418E+04 -1.117142E+04
        94   1 -5.868879E+06 -9.572192E+05 -1.090920E+05 -2.220127E+06 -9.753133E+03  1.081653E+04
        94   2 -5.794560E+06 -8.834229E+05 -7.689977E+04 -2.154318E+06 -4.752344E+03  7.631072E+03
        94   3 -5.656494E+06 -8.759156E+05 -4.761874E+04 -2.162478E+06  3.140386E+02  4.263081E+03
        94   4 -5.499017E+06 -8.177038E+05 -1.068295E+04 -2.119572E+06 -1.169276E+04  1.008969E+04
        94   5 -5.530807E+06 -7.840404E+05 -6.494390E+03 -2.082780E+06 -6.771467E+03  6.875182E+03
        94   6 -5.498850E+06 -8.166487E+05 -5.152094E+03 -2.119958E+06 -1.785265E+03  3.477989E+03
        94   7 -5.129020E+06 -6.781795E+05  8.771462E+04 -2.018961E+06 -1.363368E+04  9.362373E+03
        94   8 -5.266987E+06 -6.846539E+05  6.390478E+04 -2.011214E+06 -8.791538E+03  6.118939E+03
        94   9 -5.341182E+06 -7.573807E+05  3.731204E+04 -2.077429E+06 -3.885144E+03  2.692683E+03
        94  10 -5.868879E+06 -9.572194E+05 -1.090924E+05 -2.220127E+06 -7.337390E-09 -1.588306E-09
        94  11 -5.794560E+06 -8.834230E+05 -7.689992E+04 -2.154318E+06 -1.542237E-09 -2.113942E-10
        94  12 -5.656494E+06 -8.759157E+05 -4.761878E+04 -2.162478E+06  3.162104E-09  1.761778E-09
        94  13 -5.499017E+06 -8.177039E+05 -1.068340E+04 -2.119572E+06 -5.534212E-10 -5.959564E-10
        94  14 -5.530807E+06 -7.840405E+05 -6.494565E+03 -2.082780E+06  9.224685E-10  2.469209E-10
        94  15 -5.498850E+06 -8.166487E+05 -5.152122E+03 -2.119958E+06 -3.280978E-09  3.060179E-10
        94  16 -5.129020E+06 -6.781796E+05  8.771410E+04 -2.018961E+06  4.754680E-09  1.571006E-09
        94  17 -5.266987E+06 -6.846540E+05  6.390457E+04 -2.011214E+06 -4.280187E-10  9.344886E-11
        94  18 -5.341182E+06 -7.573807E+05  3.731199E+04 -2.077429E+06 -1.085059E-09  1.223219E-11
        94  19 -5.868879E+06 -9.572192E+05 -1.090920E+05 -2.220127E+06  9.753133E+03 -1.081653E+04
        94  20 -5.794560E+06 -8.834229E+05 -7.689977E+04 -2.154318E+06  4.752344E+03 -7.631072E+03
        94  21 -5.656494E+06 -8.759156E+05 -4.761874E+04 -2.162478E+06 -3.140386E+02 -4.263081E+03
        94  22 -5.499017E+06 -8.177038E+05 -1.068295E+04 -2.119572E+06  1.169276E+04 -1.008969E+04
        94  23 -5.530807E+06 -7.840404E+05 -6.494390E+03 -2.082780E+06  6.771467E+03 -6.875182E+03
        94  24 -5.498850E+06 -8.166487E+05 -5.152094E+03 -2.119958E+06  1.785265E+03 -3.477989E+03
        94  25 -5.129020E+06 -6.781795E+05  8.771462E+04 -2.018961E+06  1.363368E+04 -9.362373E+03
        94  26 -5.266987E+06 -6.846539E+05  6.390478E+04 -2.011214E+06  8.791538E+03 -6.118939E+03
        94  27 -5.341182E+06 -7.573807E+05  3.731204E+04 -2.077429E+06  3.885144E+03 -2.692683E+03
        95   1 -5.485963E+06 -8.123354E+05 -1.409608E+03 -2.117121E+06  2.194666E+03  1.826404E+03
        95   2 -5.410049E+06 -7.380081E+05  2.584339E+04 -2.049477E+06  7.152185E+03 -1.644490E+03
        95   3 -5.269050E+06 -7.313686E+05  5.026582E+04 -2.057484E+06  1.207682E+04 -5.021131E+03
        95   4 -5.498551E+06 -8.169755E+05 -5.157091E+03 -2.120326E+06  8.999847E+01  1.039469E+03
        95   5 -5.531160E+06 -7.836222E+05 -6.474759E+03 -2.082315E+06  5.088622E+03 -2.416444E+03
        95   6 -5.498702E+06 -8.179668E+05 -1.065518E+04 -2.119961E+06  1.005373E+04 -5.778283E+03
        95   7 -5.511139E+06 -8.216156E+05 -8.904583E+03 -2.123532E+06 -2.014628E+03  2.525469E+02
        95   8 -5.652258E+06 -8.292356E+05 -3.879437E+04 -2.115148E+06  3.025492E+03 -3.188237E+03
        95   9 -5.728306E+06 -9.045625E+05 -7.158130E+04 -2.182418E+06  8.031455E+03 -6.535131E+03
        95  10 -5.485963E+06 -8.123354E+05 -1.409623E+03 -2.117121E+06  2.306094E-09  1.597373E-09
        95  11 -5.410049E+06 -7.380082E+05  2.584329E+04 -2.049477E+06 -2.112240E-09 -1.793586E-09
        95  12 -5.269050E+06 -7.313686E+05  5.026550E+04 -2.057484E+06 -5.160849E-09 -2.002890E-09
        95  13 -5.498551E+06 -8.169755E+05 -5.157093E+03 -2.120326E+06  6.690810E-09  4.983417E-10
        95  14 -5.531160E+06 -7.836222E+05 -6.474819E+03 -2.082315E+06  2.262138E-09 -7.848883E-10
        95  15 -5.498703E+06 -8.179668E+05 -1.065544E+04 -2.119961E+06 -1.353128E-10 -9.423810E-10
        95  16 -5.511139E+06 -8.216156E+05 -8.904591E+03 -2.123532E+06  7.738546E-10 -5.411887E-10
        95  17 -5.652258E+06 -8.292356E+05 -3.879441E+04 -2.115148E+06  2.269162E-09  1.451227E-09
        95  18 -5.728306E+06 -9.045626E+05 -7.158150E+04 -2.182418E+06  1.386557E-09 -9.937012E-11
        95  19 -5.485963E+06 -8.123354E+05 -1.409608E+03 -2.117121E+06 -2.194666E+03 -1.826404E+03
        95  20 -5.410049E+06 -7.380081E+05  2.584339E+04 -2.049477E+06 -7.152185E+03  1.644490E+03
        95  21 -5.269050E+06 -7.313686E+05  5.026582E+04 -2.057484E+06 -1.207682E+04  5.021131E+03
        95  22 -5.498551E+06 -8.169755E+05 -5.157091E+03 -2.120326E+06 -8.999847E+01 -1.039469E+03
        95  23 -5.531160E+06 -7.836222E+05 -6.474759E+03 -2.082315E+06 -5.088622E+03  2.416444E+03
        95  24 -5.498702E+06 -8.179668E+05 -1.065518E+04 -2.119961E+06 -1.005373E+04  5.778283E+03
        95  25 -5.511139E+06 -8.216156E+05 -8.904583E+03 -2.123532E+06  2.014628E+03 -2.525469E+02
        95  26 -5.652258E+06 -8.292356E+05 -3.879437E+04 -2.115148E+06 -3.025492E+03  3.188237E+03
        95  27 -5.728306E+06 -9.045625E+05 -7.158130E+04 -2.182418E+06 -8.031455E+03  6.535131E+03
        96   1 -5.106260E+06 -6.679652E+05  9.184677E+04 -2.013638E+06  1.508239E+04 -6.942696E+03
        96   2 -5.036788E+06 -5.981608E+05  1.077825E+05 -1.950481E+06  2.844719E+04 -6.899598E+03
        96   3 -4.913055E+06 -6.007836E+05  1.116645E+05 -1.953316E+06  4.163601E+04 -6.365918E+03
        96   4 -5.500615E+06 -8.152763E+05 -1.354110E+04 -2.119233E+06  1.302717E+04 -7.712490E+03
        96   5 -5.528443E+06 -7.839077E+05 -2.349793E+04 -2.084424E+06  2.660070E+04 -7.592605E+03
        96   6 -5.502063E+06 -8.250184E+05 -4.568226E+04 -2.115614E+06  3.999618E+04 -6.982749E+03
        96   7 -5.894817E+06 -9.625778E+05 -1.189418E+05 -2.224766E+06  1.097341E+04 -8.481749E+03
        96   8 -6.019860E+06 -9.696391E+05 -1.547990E+05 -2.218270E+06  2.475582E+04 -8.285003E+03
        96   9 -6.090732E+06 -1.049230E+06 -2.030593E+05 -2.277770E+06  3.835805E+04 -7.598926E+03
        96  10 -5.106260E+06 -6.679653E+05  9.184626E+04 -2.013638E+06 -3.765414E-10  2.359925E-10
        96  11 -5.036789E+06 -5.981610E+05  1.077808E+05 -1.950481E+06 -2.576582E-09  3.214068E-10
        96  12 -4.913056E+06 -6.007841E+05  1.116611E+05 -1.953316E+06 -1.008147E-09 -4.116777E-10
        96  13 -5.500615E+06 -8.152764E+05 -1.354153E+04 -2.119233E+06 -4.663294E-09 -6.198912E-10
        96  14 -5.528444E+06 -7.839079E+05 -2.349937E+04 -2.084424E+06 -6.924772E-10  5.494987E-10
        96  15 -5.502064E+06 -8.250189E+05 -4.568538E+04 -2.115613E+06 -8.364622E-10 -7.614695E-11
        96  16 -5.894817E+06 -9.625779E+05 -1.189422E+05 -2.224766E+06 -6.133979E-09 -1.038917E-09
        96  17 -6.019861E+06 -9.696394E+05 -1.548003E+05 -2.218270E+06 -1.828261E-09 -9.369440E-10
        96  18 -6.090734E+06 -1.049231E+06 -2.030622E+05 -2.277770E+06  5.363513E-09 -9.517431E-10
        96  19 -5.106260E+06 -6.679652E+05  9.184677E+04 -2.013638E+06 -1.508239E+04  6.942696E+03
        96  20 -5.036788E+06 -5.981608E+05  1.077825E+05 -1.950481E+06 -2.844719E+04  6.899598E+03
        96  21 -4.913055E+06 -6.007836E+05  1.116645E+05 -1.953316E+06 -4.163601E+04  6.365918E+03
        96  22 -5.500615E+06 -8.152763E+05 -1.354110E+04 -2.119233E+06 -1.302717E+04  7.712490E+03
        96  23 -5.528443E+06 -7.839077E+05 -2.349793E+04 -2.084424E+06 -2.660070E+04  7.592605E+03
        96  24 -5.502063E+06 -8.250184E+05 -4.568226E+04 -2.115614E+06 -3.999618E+04  6.982749E+03
        96  25 -5.894817E+06 -9.625778E+05 -1.189418E+05 -2.224766E+06 -1.097341E+04  8.481749E+03
        96  26 -6.019860E+06 -9.696391E+05 -1.547990E+05 -2.218270E+06 -2.475582E+04  8.285003E+03
        96  27 -6.090732E+06 -1.049230E+06 -2.030593E+05 -2.277770E+06 -3.835805E+04  7.598926E+03
        97   1 -4.771644E+06 -5.423193E+05  1.367933E+05 -1.930024E+06  5.150035E+04 -5.562700E+03
        97   2 -4.713020E+06 -4.657913E+05  1.144246E+05 -1.865523E+06  1.042837E+05  1.027589E+04
        97   3 -4.653595E+06 -5.446901E+05  2.423283E+04 -1.827815E+06  1.560931E+05  2.873826E+04
        97   4 -5.509238E+06 -8.099130E+05 -5.831755E+04 -2.119544E+06  4.931830E+04 -6.383170E+03
        97   5 -5.515744E+06 -7.747683E+05 -1.009566E+05 -2.090137E+06  1.032036E+05  9.865709E+03
        97   6 -5.521737E+06 -8.953718E+05 -2.123704E+05 -2.087522E+06  1.561083E+05  2.873425E+04
        97   7 -6.246305E+06 -1.077485E+06 -2.534757E+05 -2.308864E+06  4.713909E+04 -7.202672E+03
        97   8 -6.317842E+06 -1.083700E+06 -3.163954E+05 -2.314484E+06  1.021250E+05  9.456096E+03
        97   9 -6.389143E+06 -1.245978E+06 -4.490424E+05 -2.346886E+06  1.561234E+05  2.873016E+04
        97  10 -4.771647E+06 -5.423200E+05  1.367882E+05 -1.930023E+06  1.404057E-09  1.011190E-09
        97  11 -4.713032E+06 -4.657943E+05  1.144038E+05 -1.865523E+06  2.822196E-09  7.287949E-10
        97  12 -4.653622E+06 -5.446976E+05  2.418510E+04 -1.827819E+06  1.167881E-09  3.923109E-10
        97  13 -5.509240E+06 -8.099137E+05 -5.832223E+04 -2.119543E+06  4.170435E-09 -2.992533E-10
        97  14 -5.515756E+06 -7.747713E+05 -1.009770E+05 -2.090137E+06  3.070751E-09  1.432463E-10
        97  15 -5.521764E+06 -8.953793E+05 -2.124182E+05 -2.087525E+06  5.487974E-09 -3.256640E-10
        97  16 -6.246307E+06 -1.077486E+06 -2.534800E+05 -2.308864E+06  9.657129E-10 -8.010482E-10
        97  17 -6.317853E+06 -1.083703E+06 -3.164154E+05 -2.314485E+06  2.716024E-09 -1.763399E-10
        97  18 -6.389170E+06 -1.245986E+06 -4.490902E+05 -2.346890E+06 -1.359479E-09  2.062899E-10
        97  19 -4.771644E+06 -5.423193E+05  1.367933E+05 -1.930024E+06 -5.150035E+04  5.562700E+03
        97  20 -4.713020E+06 -4.657913E+05  1.144246E+05 -1.865523E+06 -1.042837E+05 -1.027589E+04
        97  21 -4.653595E+06 -5.446901E+05  2.423283E+04 -1.827815E+06 -1.560931E+05 -2.873826E+04
        97  22 -5.509238E+06 -8.099130E+05 -5.831755E+04 -2.119544E+06 -4.931830E+04  6.383170E+03
        97  23 -5.515744E+06 -7.747683E+05 -1.009566E+05 -2.090137E+06 -1.032036E+05 -9.865709E+03
        97  24 -5.521737E+06 -8.953718E+05 -2.123704E+05 -2.087522E+06 -1.561083E+05 -2.873425E+04
        97  25 -6.246305E+06 -1.077485E+06 -2.534757E+05 -2.308864E+06 -4.713909E+04  7.202672E+03
        97  26 -6.317842E+06 -1.083700E+06 -3.163954E+05 -2.314484E+06 -1.021250E+05 -9.456096E+03
        97  27 -6.389143E+06 -1.245978E+06 -4.490424E+05 -2.346886E+06 -1.561234E+05 -2.873016E+04
        98   1 -4.508863E+06 -4.764881E+05  1.875249E+03 -1.952466E+06  2.017589E+05  4.016001E+04
        98   2 -4.448305E+06 -2.356898E+05 -1.538584E+05 -1.780158E+06  4.259714E+05  1.226691E+05
        98   3 -4.744487E+06 -9.677843E+05 -7.355904E+05 -1.392792E+06  6.406758E+05  2.303805E+05
        98   4 -5.558977E+06 -7.819571E+05 -2.605944E+05 -2.145360E+06  1.950638E+05  3.766514E+04
        98   5 -5.434164E+06 -6.692097E+05 -4.284110E+05 -2.111302E+06  4.301289E+05  1.241867E+05
        98   6 -5.668935E+06 -1.532570E+06 -1.031431E+06 -1.861997E+06  6.556994E+05  2.358003E+05
        98   7 -6.608003E+06 -1.087447E+06 -5.231425E+05 -2.338005E+06  1.883811E+05  3.517247E+04
        98   8 -6.419061E+06 -1.102568E+06 -7.030542E+05 -2.441932E+06  4.342786E+05  1.257003E+05
        98   9 -6.592432E+06 -2.096798E+06 -1.327348E+06 -2.330430E+06  6.706977E+05  2.411972E+05
        98  10 -4.508908E+06 -4.765009E+05  1.795062E+03 -1.952473E+06  4.846079E-10  1.854016E-10
        98  11 -4.448505E+06 -2.357553E+05 -1.542308E+05 -1.780200E+06 -2.876326E-09  4.974183E-10
        98  12 -4.744945E+06 -9.679529E+05 -7.364688E+05 -1.392912E+06  1.055328E-09  7.269053E-10
        98  13 -5.559018E+06 -7.819690E+05 -2.606693E+05 -2.145366E+06 -2.376160E-09  9.630081E-10
        98  14 -5.434369E+06 -6.692767E+05 -4.287915E+05 -2.111346E+06 -4.501031E-09  8.468317E-10
        98  15 -5.669415E+06 -1.532747E+06 -1.032353E+06 -1.862123E+06 -1.407711E-10 -3.591650E-10
        98  16 -6.608042E+06 -1.087458E+06 -5.232124E+05 -2.338010E+06 -2.311790E-09  4.011221E-10
        98  17 -6.419270E+06 -1.102637E+06 -7.034429E+05 -2.441977E+06 -3.232382E-09  6.849076E-10
        98  18 -6.592935E+06 -2.096983E+06 -1.328315E+06 -2.330561E+06 -7.548199E-10  1.314164E-10
        98  19 -4.508863E+06 -4.764881E+05  1.875249E+03 -1.952466E+06 -2.017589E+05 -4.016001E+04
        98  20 -4.448305E+06 -2.356898E+05 -1.538584E+05 -1.780158E+06 -4.259714E+05 -1.226691E+05
        98  21 -4.744487E+06 -9.677843E+05 -7.355904E+05 -1.392792E+06 -6.406758E+05 -2.303805E+05
        98  22 -5.558977E+06 -7.819571E+05 -2.605944E+05 -2.145360E+06 -1.950638E+05 -3.766514E+04
        98  23 -5.434164E+06 -6.692097E+05 -4.284110E+05 -2.111302E+06 -4.301289E+05 -1.241867E+05
        98  24 -5.668935E+06 -1.532570E+06 -1.031431E+06 -1.861997E+06 -6.556994E+05 -2.358003E+05
        98  25 -6.608003E+06 -1.087447E+06 -5.231425E+05 -2.338005E+06 -1.883811E+05 -3.517247E+04
        98  26 -6.419061E+06 -1.102568E+06 -7.030542E+05 -2.441932E+06 -4.342786E+05 -1.257003E+05
        98  27 -6.592432E+06 -2.096798E+06 -1.327348E+06 -2.330430E+06 -6.706977E+05 -2.411972E+05
        99   1 -1.382113E+06 -5.437766E+04 -4.057078E+04  5.761079E+02  3.940453E+04  1.581726E+03
        99   2 -1.392275E+06 -1.101400E+05 -7.428891E+04 -2.552151E+03  2.618419E+04  4.311405E+03
        99   3 -1.382350E+06 -1.011549E+05 -8.276709E+04 -5.425989E+03  1.297526E+04  3.755236E+03
        99   4 -9.841108E+05  4.519051E+04  5.891815E+04 -2.806359E+03  4.005787E+04  1.583787E+03
        99   5 -9.942036E+05 -1.057246E+04  2.496358E+04 -2.849484E+03  2.635749E+04  4.311678E+03
        99   6 -9.841354E+05 -1.525850E+03  1.657155E+04 -2.638260E+03  1.266853E+04  3.754516E+03
        99   7 -5.859648E+05  1.447468E+05  1.583951E+05 -6.191131E+03  4.071162E+04  1.585841E+03
        99   8 -5.959878E+05  8.898317E+04  1.242041E+05 -3.147111E+03  2.653089E+04  4.311950E+03
        99   9 -5.857764E+05  9.809125E+04  1.158982E+05  1.511896E+02  1.236160E+04  3.753794E+03
        99  10 -1.382115E+06 -5.437808E+04 -4.057371E+04  5.760577E+02  6.569334E-11  9.352882E-11
        99  11 -1.392276E+06 -1.101402E+05 -7.429024E+04 -2.552242E+03 -5.839506E-10 -1.743168E-09
        99  12 -1.382351E+06 -1.011550E+05 -8.276743E+04 -5.426028E+03 -2.955488E-09 -1.291646E-10
        99  13 -9.841125E+05  4.519007E+04  5.891513E+04 -2.806410E+03  2.773810E-09 -1.368255E-09
        99  14 -9.942044E+05 -1.057267E+04  2.496223E+04 -2.849576E+03 -1.942426E-09 -6.886895E-10
        99  15 -9.841356E+05 -1.525908E+03  1.657122E+04 -2.638298E+03  1.983828E-09 -5.123656E-10
        99  16 -5.859666E+05  1.447463E+05  1.583920E+05 -6.191183E+03  1.682210E-10  1.384950E-09
        99  17 -5.959885E+05  8.898296E+04  1.242028E+05 -3.147203E+03 -7.341449E-10 -1.694173E-09
        99  18 -5.857765E+05  9.809120E+04  1.158979E+05  1.511522E+02  3.247191E-09 -1.400344E-09
        99  19 -1.382113E+06 -5.437766E+04 -4.057078E+04  5.761079E+02 -3.940453E+04 -1.581726E+03
        99  20 -1.392275E+06 -1.101400E+05 -7.428891E+04 -2.552151E+03 -2.618419E+04 -4.311405E+03
        99  21 -1.382350E+06 -1.011549E+05 -8.276709E+04 -5.425989E+03 -1.297526E+04 -3.755236E+03
        99  22 -9.841108E+05  4.519051E+04  5.891815E+04 -2.806359E+03 -4.005787E+04 -1.583787E+03
        99  23 -9.942036E+05 -1.057246E+04  2.496358E+04 -2.849484E+03 -2.635749E+04 -4.311678E+03
        99  24 -9.841354E+05 -1.525850E+03  1.657155E+04 -2.638260E+03 -1.266853E+04 -3.754516E+03
        99  25 -5.859648E+05  1.447468E+05  1.583951E+05 -6.191131E+03 -4.071162E+04 -1.585841E+03
        99  26 -5.959878E+05  8.898317E+04  1.242041E+05 -3.147111E+03 -2.653089E+04 -4.311950E+03
        99  27 -5.857764E+05  9.809125E+04  1.158982E+05  1.511896E+02 -1.236160E+04 -3.753794E+03
       100   1 -1.359433E+06 -8.623391E+04 -7.908066E+04 -5.681609E+03  9.798962E+03  3.220131E+03
       100   2 -1.356428E+06 -9.331295E+04 -8.500158E+04  1.106172E+03  6.513682E+03  3.553154E+03
       100   3 -1.348662E+06 -9.052844E+04 -8.593902E+04 -6.192626E+03  3.228779E+03  3.118343E+03
       100   4 -9.875406E+05  6.800167E+03  1.371404E+04 -5.884722E+03  9.906819E+03  3.220165E+03
       100   5 -9.899354E+05 -1.635314E+03  6.409714E+03  1.163460E+03  6.509371E+03  3.553017E+03
       100   6 -9.875509E+05 -1.904441E+02  4.164952E+03 -5.874417E+03  3.112328E+03  3.118232E+03
       100   7 -6.155220E+05  9.982380E+04  1.064983E+05 -6.088005E+03  1.001474E+04  3.220199E+03
       100   8 -6.233204E+05  9.003218E+04  9.781089E+04  1.220758E+03  6.505057E+03  3.552880E+03
       100   9 -6.263211E+05  9.013771E+04  9.425909E+04 -5.556021E+03  2.995809E+03  3.118121E+03
       100  10 -1.359434E+06 -8.623394E+04 -7.908086E+04 -5.681635E+03 -2.467875E-09  4.421639E-10
       100  11 -1.356428E+06 -9.331297E+04 -8.500168E+04  1.106154E+03  1.174031E-09  4.192174E-10
       100  12 -1.348662E+06 -9.052846E+04 -8.593905E+04 -6.192634E+03 -1.026347E-10 -1.010449E-10
       100  13 -9.875407E+05  6.800129E+03  1.371384E+04 -5.884748E+03 -1.798524E-09 -9.863053E-10
       100  14 -9.899354E+05 -1.635339E+03  6.409611E+03  1.163441E+03 -2.905588E-10  9.325076E-10
       100  15 -9.875509E+05 -1.904572E+02  4.164915E+03 -5.874425E+03 -1.609271E-09 -4.783320E-10
       100  16 -6.155221E+05  9.982376E+04  1.064981E+05 -6.088031E+03  1.334214E-09  4.365561E-11
       100  17 -6.233205E+05  9.003216E+04  9.781079E+04  1.220739E+03 -8.081935E-10  3.120541E-10
       100  18 -6.263211E+05  9.013770E+04  9.425906E+04 -5.556029E+03  1.407727E-09  8.194362E-10
       100  19 -1.359433E+06 -8.623391E+04 -7.908066E+04 -5.681609E+03 -9.798962E+03 -3.220131E+03
       100  20 -1.356428E+06 -9.331295E+04 -8.500158E+04  1.106172E+03 -6.513682E+03 -3.553154E+03
       100  21 -1.348662E+06 -9.052844E+04 -8.593902E+04 -6.192626E+03 -3.228779E+03 -3.118343E+03
       100  22 -9.875406E+05  6.800167E+03  1.371404E+04 -5.884722E+03 -9.906819E+03 -3.220165E+03
       100  23 -9.899354E+05 -1.635314E+03  6.409714E+03  1.163460E+03 -6.509371E+03 -3.553017E+03
       100  24 -9.875509E+05 -1.904441E+02  4.164952E+03 -5.874417E+03 -3.112328E+03 -3.118232E+03
       100  25 -6.155220E+05  9.982380E+04  1.064983E+05 -6.088005E+03 -1.001474E+04 -3.220199E+03
       100  26 -6.233204E+05  9.003218E+04  9.781089E+04  1.220758E+03 -6.505057E+03 -3.552880E+03
       100  27 -6.263211E+05  9.013771E+04  9.425909E+04 -5.556021E+03 -2.995809E+03 -3.118121E+03
       101   1 -1.271379E+06 -6.983559E+04 -6.728650E+04 -8.407429E+03  2.430218E+03  2.835176E+03
       101   2 -1.262066E+06 -6.857134E+04 -6.642733E+04  4.748402E+03  1.597082E+03  2.599301E+03
       101   3 -1.251299E+06 -6.575655E+04 -6.444486E+04 -8.304062E+03  7.630924E+02  2.063449E+03
       101   4 -9.882704E+05  9.782478E+02  3.314461E+03 -8.570707E+03  2.418567E+03  2.835099E+03
       101   5 -9.890051E+05 -2.684723E+02  1.680196E+03  4.532911E+03  1.541951E+03  2.599282E+03
       101   6 -9.882794E+05  4.274097E+01  1.199203E+03 -8.571045E+03  6.644942E+02  2.063548E+03
       101   7 -7.050888E+05  7.178604E+04  7.390939E+04 -8.734052E+03  2.406911E+03  2.835022E+03
       101   8 -7.158767E+05  6.802877E+04  6.978211E+04  4.317342E+03  1.486795E+03  2.599264E+03
       101   9 -7.251965E+05  6.583681E+04  6.683805E+04 -8.838116E+03  5.658540E+02  2.063647E+03
       101  10 -1.271379E+06 -6.983560E+04 -6.728652E+04 -8.407434E+03 -3.819044E-10 -4.966513E-10
       101  11 -1.262066E+06 -6.857135E+04 -6.642735E+04  4.748398E+03  1.613389E-09 -2.884109E-10
       101  12 -1.251299E+06 -6.575656E+04 -6.444487E+04 -8.304064E+03 -1.896702E-09 -9.567288E-10
       101  13 -9.882704E+05  9.782376E+02  3.314435E+03 -8.570712E+03 -4.358541E-09 -9.459011E-10
       101  14 -9.890051E+05 -2.684801E+02  1.680179E+03  4.532908E+03  2.356665E-09 -2.269294E-10
       101  15 -9.882794E+05  4.273629E+01  1.199194E+03 -8.571046E+03  1.917667E-09  1.119306E-09
       101  16 -7.050888E+05  7.178603E+04  7.390936E+04 -8.734057E+03  8.998969E-10  1.786260E-10
       101  17 -7.158767E+05  6.802877E+04  6.978209E+04  4.317339E+03 -2.352595E-09 -1.118433E-09
       101  18 -7.251965E+05  6.583681E+04  6.683804E+04 -8.838117E+03 -5.722060E-10 -3.665529E-10
       101  19 -1.271379E+06 -6.983559E+04 -6.728650E+04 -8.407429E+03 -2.430218E+03 -2.835176E+03
       101  20 -1.262066E+06 -6.857134E+04 -6.642733E+04  4.748402E+03 -1.597082E+03 -2.599301E+03
       101  21 -1.251299E+06 -6.575655E+04 -6.444486E+04 -8.304062E+03 -7.630924E+02 -2.063449E+03
       101  22 -9.882704E+05  9.782478E+02  3.314461E+03 -8.570707E+03 -2.418567E+03 -2.835099E+03
       101  23 -9.890051E+05 -2.684723E+02  1.680196E+03  4.532911E+03 -1.541951E+03 -2.599282E+03
       101  24 -9.882794E+05  4.274097E+01  1.199203E+03 -8.571045E+03 -6.644942E+02 -2.063548E+03
       101  25 -7.050888E+05  7.178604E+04  7.390939E+04 -8.734052E+03 -2.406911E+03 -2.835022E+03
       101  26 -7.158767E+05  6.802877E+04  6.978211E+04  4.317342E+03 -1.486795E+03 -2.599264E+03
       101  27 -7.251965E+05  6.583681E+04  6.683805E+04 -8.838116E+03 -5.658540E+02 -2.063647E+03
       102   1 -1.135091E+06 -3.651113E+04 -3.554248E+04 -1.007721E+04  5.182420E+02  1.737070E+03
       102   2 -1.122197E+06 -3.347381E+04 -3.256269E+04  6.884009E+03  1.580584E+02  1.267546E+03
       102   3 -1.109086E+06 -3.002805E+04 -2.923285E+04 -1.007679E+04 -2.027441E+02  6.770825E+02
       102   4 -9.885387E+05  1.382482E+02  9.761369E+02 -1.028506E+04  4.593967E+02  1.737151E+03
       102   5 -9.886511E+05 -7.131938E+01  7.442615E+02  6.675745E+03  8.174622E+01  1.267688E+03
       102   6 -9.885439E+05  1.306353E+02  8.745935E+02 -1.028501E+04 -2.965153E+02  6.772972E+02
       102   7 -8.419670E+05  3.678600E+04  3.749314E+04 -1.049295E+04  4.005374E+02  1.737232E+03
       102   8 -8.550893E+05  3.332982E+04  3.404987E+04  6.467445E+03  5.417615E+00  1.267830E+03
       102   9 -8.679886E+05  3.028822E+04  3.098094E+04 -1.049326E+04 -3.903046E+02  6.775119E+02
       102  10 -1.135091E+06 -3.651113E+04 -3.554249E+04 -1.007721E+04  2.280480E-09  5.160614E-10
       102  11 -1.122197E+06 -3.347381E+04 -3.256269E+04  6.884009E+03  3.791002E-09  9.492317E-10
       102  12 -1.109086E+06 -3.002805E+04 -2.923285E+04 -1.007679E+04  6.900424E-10 -7.165941E-10
       102  13 -9.885387E+05  1.382449E+02  9.761308E+02 -1.028506E+04  1.783392E-09 -5.723845E-10
       102  14 -9.886511E+05 -7.132111E+01  7.442585E+02  6.675745E+03  4.022948E-11  1.067946E-09
       102  15 -9.885439E+05  1.306348E+02  8.745924E+02 -1.028501E+04  2.822520E-10 -1.820204E-09
       102  16 -8.419670E+05  3.678600E+04  3.749313E+04 -1.049295E+04 -3.651486E-10  9.245875E-10
       102  17 -8.550893E+05  3.332982E+04  3.404987E+04  6.467445E+03 -3.483265E-09  2.778449E-10
       102  18 -8.679886E+05  3.028822E+04  3.098094E+04 -1.049326E+04 -2.729789E-09 -2.459526E-09
       102  19 -1.135091E+06 -3.651113E+04 -3.554248E+04 -1.007721E+04 -5.182420E+02 -1.737070E+03
       102  20 -1.122197E+06 -3.347381E+04 -3.256269E+04  6.884009E+03 -1.580584E+02 -1.267546E+03
       102  21 -1.109086E+06 -3.002805E+04 -2.923285E+04 -1.007679E+04  2.027441E+02 -6.770825E+02
       102  22 -9.885387E+05  1.382482E+02  9.761369E+02 -1.028506E+04 -4.593967E+02 -1.737151E+03
       102  23 -9.886511E+05 -7.131938E+01  7.442615E+02  6.675745E+03 -8.174622E+01 -1.267688E+03
       102  24 -9.885439E+05  1.306353E+02  8.745935E+02 -1.028501E+04  2.965153E+02 -6.772972E+02
       102  25 -8.419670E+05  3.678600E+04  3.749314E+04 -1.049295E+04 -4.005374E+02 -1.737232E+03
       102  26 -8.550893E+05  3.332982E+04  3.404987E+04  6.467445E+03 -5.417615E+00 -1.267830E+03
       102  27 -8.679886E+05  3.028822E+04  3.098094E+04 -1.049326E+04  3.903046E+02 -6.775119E+02
       103   1 -9.738101E+05  3.744648E+03  4.705024E+03 -1.073100E+04 -3.816475E+02  3.078941E+02
       103   2 -9.600937E+05  6.994479E+03  8.571747E+03  7.174234E+03 -1.122215E+03 -2.693386E+02
       103   3 -9.462706E+05  1.108991E+04  1.309131E+04 -1.083517E+04 -1.862649E+03 -8.128410E+02
       103   4 -9.885644E+05  4.639513E+01  9.836981E+02 -1.072839E+04 -4.673423E+02  3.081040E+02
       103   5 -9.886163E+05 -1.389300E+02  1.458885E+03  7.229527E+03 -1.203030E+03 -2.691479E+02
       103   6 -9.885626E+05  5.204819E+02  2.583509E+03 -1.072729E+04 -1.938567E+03 -8.126683E+02
       103   7 -1.003318E+06 -3.651874E+03 -2.737645E+03 -1.072578E+04 -5.530350E+02  3.083138E+02
       103   8 -1.017138E+06 -7.272400E+03 -5.654038E+03  7.284818E+03 -1.283841E+03 -2.689573E+02
       103   9 -1.030853E+06 -1.004908E+04 -7.924425E+03 -1.061942E+04 -2.014480E+03 -8.124955E+02
       103  10 -9.738101E+05  3.744648E+03  4.705024E+03 -1.073100E+04  6.087258E-11  1.465976E-09
       103  11 -9.600937E+05  6.994478E+03  8.571744E+03  7.174234E+03  2.786832E-09  4.147162E-09
       103  12 -9.462706E+05  1.108991E+04  1.309130E+04 -1.083517E+04 -4.010218E-09 -2.359648E-09
       103  13 -9.885644E+05  4.639497E+01  9.836975E+02 -1.072839E+04  1.827948E-09 -2.097421E-10
       103  14 -9.886163E+05 -1.389304E+02  1.458882E+03  7.229527E+03  3.881121E-09 -3.640730E-10
       103  15 -9.885626E+05  5.204802E+02  2.583501E+03 -1.072730E+04 -1.065533E-09 -3.459143E-10
       103  16 -1.003318E+06 -3.651874E+03 -2.737646E+03 -1.072578E+04  3.065914E-10 -2.665263E-10
       103  17 -1.017138E+06 -7.272400E+03 -5.654041E+03  7.284818E+03 -1.113146E-09  3.264531E-10
       103  18 -1.030853E+06 -1.004908E+04 -7.924434E+03 -1.061942E+04 -4.543069E-10 -5.845971E-10
       103  19 -9.738101E+05  3.744648E+03  4.705024E+03 -1.073100E+04  3.816475E+02 -3.078941E+02
       103  20 -9.600937E+05  6.994479E+03  8.571747E+03  7.174234E+03  1.122215E+03  2.693386E+02
       103  21 -9.462706E+05  1.108991E+04  1.309131E+04 -1.083517E+04  1.862649E+03  8.128410E+02
       103  22 -9.885644E+05  4.639513E+01  9.836981E+02 -1.072839E+04  4.673423E+02 -3.081040E+02
       103  23 -9.886163E+05 -1.389300E+02  1.458885E+03  7.229527E+03  1.203030E+03  2.691479E+02
       103  24 -9.885626E+05  5.204819E+02  2.583509E+03 -1.072729E+04  1.938567E+03  8.126683E+02
       103  25 -1.003318E+06 -3.651874E+03 -2.737645E+03 -1.072578E+04  5.530350E+02 -3.083138E+02
       103  26 -1.017138E+06 -7.272400E+03 -5.654038E+03  7.284818E+03  1.283841E+03  2.689573E+02
       103  27 -1.030853E+06 -1.004908E+04 -7.924425E+03 -1.061942E+04  2.014480E+03  8.124955E+02
       104   1 -8.145816E+05  4.338365E+04  4.662952E+04 -9.944914E+03 -2.373944E+03 -1.178853E+03
       104   2 -8.033233E+05  4.566090E+04  5.169452E+04  5.794066E+03 -5.163085E+03 -1.763923E+03
       104   3 -7.901489E+05  5.282654E+04  5.986486E+04 -1.031347E+04 -7.951425E+03 -2.121192E+03
       104   4 -9.881716E+05 -3.450987E+01  3.300123E+03 -9.825871E+03 -2.474871E+03 -1.178652E+03
       104   5 -9.891221E+05 -8.021073E+02  5.365264E+03  6.100065E+03 -5.230512E+03 -1.763837E+03
       104   6 -9.881620E+05  3.313614E+03  1.051311E+04 -9.821109E+03 -7.985297E+03 -2.121190E+03
       104   7 -1.161734E+06 -4.345495E+04 -4.003155E+04 -9.706846E+03 -2.575771E+03 -1.178451E+03
       104   8 -1.174889E+06 -4.726772E+04 -4.096659E+04  6.405985E+03 -5.297918E+03 -1.763750E+03
       104   9 -1.186139E+06 -4.620226E+04 -3.884160E+04 -9.328891E+03 -8.019157E+03 -2.121189E+03
       104  10 -8.145816E+05  4.338365E+04  4.662951E+04 -9.944916E+03 -3.070336E-09 -2.823814E-09
       104  11 -8.033234E+05  4.566089E+04  5.169447E+04  5.794058E+03  1.008996E-09  2.914999E-10
       104  12 -7.901489E+05  5.282651E+04  5.986473E+04 -1.031348E+04  7.525307E-10  2.615231E-10
       104  13 -9.881716E+05 -3.451301E+01  3.300109E+03 -9.825873E+03 -9.693783E-11 -6.038193E-10
       104  14 -9.891221E+05 -8.021180E+02  5.365206E+03  6.100057E+03 -2.449090E-09 -1.220553E-10
       104  15 -9.881620E+05  3.313592E+03  1.051298E+04 -9.821122E+03  1.236792E-09  2.346733E-10
       104  16 -1.161734E+06 -4.345495E+04 -4.003157E+04 -9.706849E+03  2.766208E-09 -8.788739E-10
       104  17 -1.174890E+06 -4.726773E+04 -4.096665E+04  6.405978E+03 -3.950593E-09  2.139438E-09
       104  18 -1.186140E+06 -4.620228E+04 -3.884173E+04 -9.328905E+03 -1.396925E-09  6.000554E-11
       104  19 -8.145816E+05  4.338365E+04  4.662952E+04 -9.944914E+03  2.373944E+03  1.178853E+03
       104  20 -8.033233E+05  4.566090E+04  5.169452E+04  5.794066E+03  5.163085E+03  1.763923E+03
       104  21 -7.901489E+05  5.282654E+04  5.986486E+04 -1.031347E+04  7.951425E+03  2.121192E+03
       104  22 -9.881716E+05 -3.450987E+01  3.300123E+03 -9.825871E+03  2.474871E+03  1.178652E+03
       104  23 -9.891221E+05 -8.021073E+02  5.365264E+03  6.100065E+03  5.230512E+03  1.763837E+03
       104  24 -9.881620E+05  3.313614E+03  1.051311E+04 -9.821109E+03  7.985297E+03  2.121190E+03
       104  25 -1.161734E+06 -4.345495E+04 -4.003155E+04 -9.706846E+03  2.575771E+03  1.178451E+03
       104  26 -1.174889E+06 -4.726772E+04 -4.096659E+04  6.405985E+03  5.297918E+03  1.763750E+03
       104  27 -1.186139E+06 -4.620226E+04 -3.884160E+04 -9.328891E+03  8.019157E+03  2.121189E+03
       105   1 -6.830816E+05  7.513547E+04  8.880465E+04 -6.886685E+03 -1.001193E+04 -2.478505E+03
       105   2 -6.798376E+05  7.275017E+04  9.872875E+04  2.883901E+03 -2.116866E+04 -3.020151E+03
       105   3 -6.658682E+05  1.022222E+05  1.241488E+05 -9.778165E+03 -3.232482E+04 -2.837872E+03
       105   4 -9.862271E+05 -6.705807E+02  1.318361E+04 -7.732797E+03 -1.014022E+04 -2.478423E+03
       105   5 -9.915712E+05 -5.198197E+03  2.100889E+04  3.482024E+03 -2.118791E+04 -3.020256E+03
       105   6 -9.862044E+05  2.212100E+04  4.425979E+04 -7.736504E+03 -3.223486E+04 -2.838054E+03
       105   7 -1.289289E+06 -7.648356E+04 -6.244434E+04 -8.578471E+03 -1.026845E+04 -2.478341E+03
       105   8 -1.303216E+06 -8.315389E+04 -5.671828E+04  4.079856E+03 -2.120714E+04 -3.020360E+03
       105   9 -1.306447E+06 -5.798795E+04 -3.563700E+04 -5.695903E+03 -3.214495E+04 -2.838235E+03
       105  10 -6.830817E+05  7.513543E+04  8.880445E+04 -6.886705E+03  1.747628E-09 -3.068080E-10
       105  11 -6.798381E+05  7.275004E+04  9.872789E+04  2.883849E+03 -2.041787E-09 -8.600584E-10
       105  12 -6.658693E+05  1.022219E+05  1.241469E+05 -9.778239E+03 -9.822522E-10 -3.329437E-10
       105  13 -9.862272E+05 -6.706150E+02  1.318341E+04 -7.732817E+03 -1.458268E-10  1.250286E-09
       105  14 -9.915717E+05 -5.198328E+03  2.100803E+04  3.481972E+03 -2.898664E-09  1.322477E-09
       105  15 -9.862055E+05  2.212071E+04  4.425781E+04 -7.736578E+03 -1.659272E-09  2.800538E-10
       105  16 -1.289289E+06 -7.648359E+04 -6.244455E+04 -8.578492E+03 -1.528813E-11  4.733571E-10
       105  17 -1.303217E+06 -8.315402E+04 -5.671914E+04  4.079804E+03 -1.411472E-09  2.851187E-10
       105  18 -1.306449E+06 -5.798824E+04 -3.563896E+04 -5.695977E+03  2.839279E-10  4.578009E-10
       105  19 -6.830816E+05  7.513547E+04  8.880465E+04 -6.886685E+03  1.001193E+04  2.478505E+03
       105  20 -6.798376E+05  7.275017E+04  9.872875E+04  2.883901E+03  2.116866E+04  3.020151E+03
       105  21 -6.658682E+05  1.022222E+05  1.241488E+05 -9.778165E+03  3.232482E+04  2.837872E+03
       105  22 -9.862271E+05 -6.705807E+02  1.318361E+04 -7.732797E+03  1.014022E+04  2.478423E+03
       105  23 -9.915712E+05 -5.198197E+03  2.100889E+04  3.482024E+03  2.118791E+04  3.020256E+03
       105  24 -9.862044E+05  2.212100E+04  4.425979E+04 -7.736504E+03  3.223486E+04  2.838054E+03
       105  25 -1.289289E+06 -7.648356E+04 -6.244434E+04 -8.578471E+03  1.026845E+04  2.478341E+03
       105  26 -1.303216E+06 -8.315389E+04 -5.671828E+04  4.079856E+03  2.120714E+04  3.020360E+03
       105  27 -1.306447E+06 -5.798795E+04 -3.563700E+04 -5.695903E+03  3.214495E+04  2.838235E+03
       106   1 -5.938136E+05  9.048136E+04  1.486351E+05  2.541619E+03 -4.077320E+04 -3.486181E+03
       106   2 -6.202881E+05  6.217775E+04  1.772596E+05 -3.420945E+03 -8.574357E+04 -4.246088E+03
       106   3 -5.864547E+05  2.433703E+05  2.879749E+05 -1.902810E+04 -1.307208E+05 -1.712114E+03
       106   4 -9.752284E+05 -4.900641E+03  5.352429E+04 -4.792993E+03 -4.109786E+04 -3.486055E+03
       106   5 -1.005312E+06 -3.407448E+04  8.131073E+04 -1.364770E+02 -8.557021E+04 -4.246508E+03
       106   6 -9.751409E+05  1.462292E+05  1.908775E+05 -5.124308E+03 -1.300491E+05 -1.713716E+03
       106   7 -1.356511E+06 -1.002934E+05 -4.159741E+04 -1.212311E+04 -4.142230E+04 -3.485922E+03
       106   8 -1.390202E+06 -1.303378E+05 -1.464927E+04  3.145902E+03 -8.539694E+04 -4.246927E+03
       106   9 -1.363690E+06  4.907745E+04  9.376885E+04  8.770688E+03 -1.293778E+05 -1.715290E+03
       106  10 -5.938154E+05  9.048090E+04  1.486319E+05  2.541504E+03 -1.470365E-09  1.831046E-10
       106  11 -6.202960E+05  6.217576E+04  1.772457E+05 -3.421239E+03 -7.610865E-10  4.026607E-11
       106  12 -5.864731E+05  2.433657E+05  2.879428E+05 -1.902828E+04 -1.092632E-09 -6.593120E-10
       106  13 -9.752302E+05 -4.901108E+03  5.352109E+04 -4.793109E+03 -2.626975E-10  1.016118E-09
       106  14 -1.005320E+06 -3.407647E+04  8.129691E+04 -1.367697E+02  3.853633E-09  1.606005E-09
       106  15 -9.751591E+05  1.462246E+05  1.908457E+05 -5.124488E+03  3.970355E-10 -5.148189E-10
       106  16 -1.356513E+06 -1.002939E+05 -4.160066E+04 -1.212323E+04  7.145448E-10  5.165627E-10
       106  17 -1.390209E+06 -1.303398E+05 -1.466303E+04  3.145610E+03  1.614928E-09 -1.982691E-11
       106  18 -1.363708E+06  4.907295E+04  9.373732E+04  8.770509E+03  2.486490E-09 -9.128257E-10
       106  19 -5.938136E+05  9.048136E+04  1.486351E+05  2.541619E+03  4.077320E+04  3.486181E+03
       106  20 -6.202881E+05  6.217775E+04  1.772596E+05 -3.420945E+03  8.574357E+04  4.246088E+03
       106  21 -5.864547E+05  2.433703E+05  2.879749E+05 -1.902810E+04  1.307208E+05  1.712114E+03
       106  22 -9.752284E+05 -4.900641E+03  5.352429E+04 -4.792993E+03  4.109786E+04  3.486055E+03
       106  23 -1.005312E+06 -3.407448E+04  8.131073E+04 -1.364770E+02  8.557021E+04  4.246508E+03
       106  24 -9.751409E+05  1.462292E+05  1.908775E+05 -5.124308E+03  1.300491E+05  1.713716E+03
       106  25 -1.356511E+06 -1.002934E+05 -4.159741E+04 -1.212311E+04  4.142230E+04  3.485922E+03
       106  26 -1.390202E+06 -1.303378E+05 -1.464927E+04  3.145902E+03  8.539694E+04  4.246927E+03
       106  27 -1.363690E+06  4.907745E+04  9.376885E+04  8.770688E+03  1.293778E+05  1.715290E+03
       107   1  2.896259E+05  1.946418E+05  3.125436E+05 -2.108343E+05 -2.373525E+02  2.015966E+05
       107   2  8.558274E+04  1.403336E+05  1.600887E+05 -1.179113E+05  1.007828E+03  1.208496E+05
       107   3  2.110584E+04  1.313807E+05  9.509513E+04 -3.095114E+04  2.860241E+02  4.009823E+04
       107   4  2.683897E+05  1.161891E+05  2.933692E+05 -3.599551E+04 -1.664163E+02  1.980205E+05
       107   5  7.348938E+04  9.384691E+04  1.501863E+05 -3.351677E+04  1.023576E+03  1.210146E+05
       107   6  1.748326E+04  1.162007E+05  9.187079E+04 -3.699094E+04  2.700277E+02  4.400008E+04
       107   7  2.472678E+05  3.780756E+04  2.742108E+05  1.388209E+05 -9.748688E+01  1.944448E+05
       107   8  6.142260E+04  4.737749E+04  1.402877E+05  5.087130E+04  1.039369E+03  1.211795E+05
       107   9  1.386081E+04  1.010210E+05  8.864651E+04 -4.303058E+04  2.539552E+02  4.790184E+04
       107  10  2.896149E+05  1.945982E+05  3.124673E+05 -2.108343E+05  1.722888E-09  6.359815E-08
       107  11  8.557882E+04  1.403179E+05  1.600612E+05 -1.179114E+05  2.930453E-09 -5.416238E-09
       107  12  2.110540E+04  1.313789E+05  9.509211E+04 -3.095115E+04 -1.309708E-09 -6.767560E-08
       107  13  2.683791E+05  1.161470E+05  2.932956E+05 -3.599548E+04 -2.550927E-09  4.406778E-11
       107  14  7.348545E+04  9.383119E+04  1.501588E+05 -3.351687E+04 -5.528402E-10 -1.303775E-11
       107  15  1.748274E+04  1.161986E+05  9.186715E+04 -3.699095E+04 -2.113693E-09 -9.436854E-10
       107  16  2.472576E+05  3.776697E+04  2.741398E+05  1.388209E+05  1.002602E-10 -6.293353E-08
       107  17  6.141866E+04  4.736173E+04  1.402601E+05  5.087120E+04  1.633442E-09  4.959176E-09
       107  18  1.386020E+04  1.010185E+05  8.864220E+04 -4.303059E+04 -2.365855E-09  6.925046E-08
       107  19  2.896259E+05  1.946418E+05  3.125436E+05 -2.108343E+05  2.373525E+02 -2.015966E+05
       107  20  8.558274E+04  1.403336E+05  1.600887E+05 -1.179113E+05 -1.007828E+03 -1.208496E+05
       107  21  2.110584E+04  1.313807E+05  9.509513E+04 -3.095114E+04 -2.860241E+02 -4.009823E+04
       107  22  2.683897E+05  1.161891E+05  2.933692E+05 -3.599551E+04  1.664163E+02 -1.980205E+05
       107  23  7.348938E+04  9.384691E+04  1.501863E+05 -3.351677E+04 -1.023576E+03 -1.210146E+05
       107  24  1.748326E+04  1.162007E+05  9.187079E+04 -3.699094E+04 -2.700277E+02 -4.400008E+04
       107  25  2.472678E+05  3.780756E+04  2.742108E+05  1.388209E+05  9.748688E+01 -1.944448E+05
       107  26  6.142260E+04  4.737749E+04  1.402877E+05  5.087130E+04 -1.039369E+03 -1.211795E+05
       107  27  1.386081E+04  1.010210E+05  8.864651E+04 -4.303058E+04 -2.539552E+02 -4.790184E+04
       108   1  1.504421E+04  1.026181E+05  7.715305E+04 -4.622289E+04 -9.242914E+02  2.728110E+04
       108   2 -1.615357E+03  6.594240E+04  5.957917E+04 -3.352644E+04 -2.697456E+03 -5.191665E+03
       108   3  4.680413E+02  3.811949E+04  6.781741E+04 -2.722294E+04 -4.295318E+03 -3.766215E+04
       108   4  1.615502E+04  1.082460E+05  7.752344E+04 -3.698857E+04 -9.391814E+02  3.110580E+04
       108   5  7.168270E+03  1.037905E+05  6.564256E+04 -3.379062E+04 -2.711348E+03 -1.706619E+03
       108   6  1.698259E+04  1.082452E+05  7.980909E+04 -3.698509E+04 -4.307230E+03 -3.451833E+04
       108   7  1.726615E+04  1.138740E+05  7.789393E+04 -2.775416E+04 -9.539576E+02  3.493053E+04
       108   8  1.595183E+04  1.416400E+05  7.170595E+04 -3.405482E+04 -2.725242E+03  1.778632E+03
       108   9  3.349722E+04  1.783759E+05  9.180070E+04 -4.674837E+04 -4.319240E+03 -3.137417E+04
       108  10  1.504401E+04  1.026173E+05  7.715165E+04 -4.622287E+04  1.913075E-10  1.561702E-09
       108  11 -1.615372E+03  6.594237E+04  5.957911E+04 -3.352645E+04 -9.895027E-11 -5.095783E-09
       108  12  4.676407E+02  3.811797E+04  6.781471E+04 -2.722307E+04  5.709829E-10 -4.654523E-09
       108  13  1.615476E+04  1.082449E+05  7.752162E+04 -3.698855E+04  2.019958E-10 -3.042812E-11
       108  14  7.168261E+03  1.037905E+05  6.564254E+04 -3.379063E+04  1.770749E-09  3.125309E-11
       108  15  1.698225E+04  1.082439E+05  7.980682E+04 -3.698521E+04  5.557418E-10 -6.894331E-10
       108  16  1.726582E+04  1.138727E+05  7.789164E+04 -2.775413E+04 -1.113774E-09 -1.116923E-09
       108  17  1.595182E+04  1.416400E+05  7.170593E+04 -3.405482E+04 -3.484300E-09  4.282680E-09
       108  18  3.349694E+04  1.783748E+05  9.179882E+04 -4.674848E+04 -2.674410E-09  6.407847E-09
       108  19  1.504421E+04  1.026181E+05  7.715305E+04 -4.622289E+04  9.242914E+02 -2.728110E+04
       108  20 -1.615357E+03  6.594240E+04  5.957917E+04 -3.352644E+04  2.697456E+03  5.191665E+03
       108  21  4.680413E+02  3.811949E+04  6.781741E+04 -2.722294E+04  4.295318E+03  3.766215E+04
       108  22  1.615502E+04  1.082460E+05  7.752344E+04 -3.698857E+04  9.391814E+02 -3.110580E+04
       108  23  7.168270E+03  1.037905E+05  6.564256E+04 -3.379062E+04  2.711348E+03  1.706619E+03
       108  24  1.698259E+04  1.082452E+05  7.980909E+04 -3.698509E+04  4.307230E+03  3.451833E+04
       108  25  1.726615E+04  1.138740E+05  7.789393E+04 -2.775416E+04  9.539576E+02 -3.493053E+04
       108  26  1.595183E+04  1.416400E+05  7.170595E+04 -3.405482E+04  2.725242E+03 -1.778632E+03
       108  27  3.349722E+04  1.783759E+05  9.180070E+04 -4.674837E+04  4.319240E+03  3.137417E+04
       109   1 -2.922230E+03  2.571248E+04  7.970525E+04 -4.318672E+04 -5.365887E+03 -5.113620E+04
       109   2  4.752982E+04 -2.883301E+04  1.339663E+05  5.563130E+04 -5.004348E+03 -1.250782E+05
       109   3  2.433012E+05 -3.745209E+04  2.727085E+05  1.486384E+05 -1.038762E+03 -1.990008E+05
       109   4  1.837583E+04  1.167348E+05  9.548241E+04 -3.696146E+04 -5.379521E+03 -4.782670E+04
       109   5  7.752528E+04  9.317564E+04  1.577887E+05 -3.353291E+04 -4.971861E+03 -1.287444E+05
       109   6  2.831538E+05  1.167209E+05  3.094056E+05 -3.591647E+04 -9.377644E+02 -2.096471E+05
       109   7  3.967360E+04  2.077653E+05  1.112594E+05 -3.073524E+04 -5.393088E+03 -4.451672E+04
       109   8  1.075496E+05  2.152156E+05  1.816146E+05 -1.227151E+05 -4.938326E+03 -1.324113E+05
       109   9  3.231325E+05  2.709889E+05  3.461196E+05 -2.205177E+05 -8.304547E+02 -2.202961E+05
       109  10 -2.922963E+03  2.570966E+04  7.970028E+04 -4.318694E+04  3.795102E-10  6.592818E-09
       109  11  4.752559E+04 -2.884982E+04  1.339368E+05  5.563080E+04  1.995864E-09 -3.660167E-10
       109  12  2.432906E+05 -3.749461E+04  2.726341E+05  1.486383E+05  2.040175E-09 -1.380348E-09
       109  13  1.837518E+04  1.167323E+05  9.547806E+04 -3.696166E+04 -9.316927E-10  2.340311E-10
       109  14  7.752081E+04  9.315784E+04  1.577575E+05 -3.353343E+04  3.106801E-09  4.642929E-10
       109  15  2.831420E+05  1.166738E+05  3.093230E+05 -3.591663E+04 -9.395214E-10 -5.696165E-10
       109  16  3.967303E+04  2.077631E+05  1.112556E+05 -3.073544E+04 -4.425199E-09 -5.680998E-09
       109  17  1.075449E+05  2.151967E+05  1.815817E+05 -1.227156E+05 -1.490787E-09  4.529289E-10
       109  18  3.231195E+05  2.709368E+05  3.460284E+05 -2.205178E+05  1.798828E-09  3.367373E-09
       109  19 -2.922230E+03  2.571248E+04  7.970525E+04 -4.318672E+04  5.365887E+03  5.113620E+04
       109  20  4.752982E+04 -2.883301E+04  1.339663E+05  5.563130E+04  5.004348E+03  1.250782E+05
       109  21  2.433012E+05 -3.745209E+04  2.727085E+05  1.486384E+05  1.038762E+03  1.990008E+05
       109  22  1.837583E+04  1.167348E+05  9.548241E+04 -3.696146E+04  5.379521E+03  4.782670E+04
       109  23  7.752528E+04  9.317564E+04  1.577887E+05 -3.353291E+04  4.971861E+03  1.287444E+05
       109  24  2.831538E+05  1.167209E+05  3.094056E+05 -3.591647E+04  9.377644E+02  2.096471E+05
       109  25  3.967360E+04  2.077653E+05  1.112594E+05 -3.073524E+04  5.393088E+03  4.451672E+04
       109  26  1.075496E+05  2.152156E+05  1.816146E+05 -1.227151E+05  4.938326E+03  1.324113E+05
       109  27  3.231325E+05  2.709889E+05  3.461196E+05 -2.205177E+05  8.304547E+02  2.202961E+05
       110   1 -5.455612E+06 -1.725292E+06 -1.078601E+06 -1.909896E+06 -4.920817E+05 -1.719461E+05
       110   2 -5.318763E+06 -9.957468E+05 -6.206011E+05 -1.979218E+06 -3.205815E+05 -7.755890E+04
       110   3 -5.432108E+06 -9.830416E+05 -4.861376E+05 -1.905055E+06 -1.384111E+05 -1.128865E+04
       110   4 -4.345200E+06 -1.149193E+06 -7.435926E+05 -1.450004E+06 -4.749383E+05 -1.656000E+05
       110   5 -4.182129E+06 -5.218963E+05 -3.091190E+05 -1.623851E+06 -3.157161E+05 -7.575200E+04
       110   6 -4.266325E+06 -6.082627E+05 -1.879432E+05 -1.654359E+06 -1.458278E+05 -1.407410E+04
       110   7 -3.233535E+06 -5.726654E+05 -4.087072E+05 -9.892583E+05 -4.577604E+05 -1.592299E+05
       110   8 -3.044233E+06 -4.788971E+04  2.243114E+03 -1.267866E+06 -3.108404E+05 -7.394029E+04
       110   9 -3.099216E+06 -2.334850E+05  1.101445E+05 -1.403276E+06 -1.532597E+05 -1.686331E+04
       110  10 -5.455882E+06 -1.725390E+06 -1.079117E+06 -1.909965E+06  3.538697E-11  1.260782E-09
       110  11 -5.318876E+06 -9.957813E+05 -6.208075E+05 -1.979238E+06  2.451850E-09  1.658067E-09
       110  12 -5.432129E+06 -9.830470E+05 -4.861742E+05 -1.905056E+06 -3.207458E-10  4.964808E-10
       110  13 -4.345451E+06 -1.149283E+06 -7.440717E+05 -1.450068E+06 -4.854812E-10  1.046497E-10
       110  14 -4.182238E+06 -5.219296E+05 -3.093186E+05 -1.623871E+06  3.671580E-09  1.092559E-09
       110  15 -4.266348E+06 -6.082687E+05 -1.879838E+05 -1.654361E+06 -1.988622E-09  3.704089E-10
       110  16 -3.233768E+06 -5.727494E+05 -4.091512E+05 -9.893172E+05  1.045176E-09  6.960058E-10
       110  17 -3.044338E+06 -4.792174E+04  2.050169E+03 -1.267884E+06 -6.121397E-10  6.719235E-10
       110  18 -3.099242E+06 -2.334916E+05  1.100996E+05 -1.403279E+06  6.765315E-10 -9.934539E-10
       110  19 -5.455612E+06 -1.725292E+06 -1.078601E+06 -1.909896E+06  4.920817E+05  1.719461E+05
       110  20 -5.318763E+06 -9.957468E+05 -6.206011E+05 -1.979218E+06  3.205815E+05  7.755890E+04
       110  21 -5.432108E+06 -9.830416E+05 -4.861376E+05 -1.905055E+06  1.384111E+05  1.128865E+04
       110  22 -4.345200E+06 -1.149193E+06 -7.435926E+05 -1.450004E+06  4.749383E+05  1.656000E+05
       110  23 -4.182129E+06 -5.218963E+05 -3.091190E+05 -1.623851E+06  3.157161E+05  7.575200E+04
       110  24 -4.266325E+06 -6.082627E+05 -1.879432E+05 -1.654359E+06  1.458278E+05  1.407410E+04
       110  25 -3.233535E+06 -5.726654E+05 -4.087072E+05 -9.892583E+05  4.577604E+05  1.592299E+05
       110  26 -3.044233E+06 -4.788971E+04  2.243114E+03 -1.267866E+06  3.108404E+05  7.394029E+04
       110  27 -3.099216E+06 -2.334850E+05  1.101445E+05 -1.403276E+06  1.532597E+05  1.686331E+04
       111   1 -5.242279E+06 -1.086152E+06 -4.246767E+05 -1.903663E+06 -1.171406E+05 -9.627288E+03
       111   2 -5.175721E+06 -9.536729E+05 -3.228992E+05 -1.866234E+06 -7.769346E+04  4.385670E+03
       111   3 -5.094679E+06 -9.472786E+05 -2.715514E+05 -1.863602E+06 -3.718231E+04  1.557045E+04
       111   4 -4.238792E+06 -6.907143E+05 -1.531839E+05 -1.613482E+06 -1.169627E+05 -9.567920E+03
       111   5 -4.241697E+06 -5.969882E+05 -7.292744E+04 -1.607637E+06 -7.871727E+04  3.996639E+03
       111   6 -4.229834E+06 -6.290263E+05 -4.207782E+04 -1.636598E+06 -3.941344E+04  1.473131E+04
       111   7 -3.234320E+06 -2.951906E+05  1.182192E+05 -1.322864E+06 -1.167845E+05 -9.508359E+03
       111   8 -3.306823E+06 -2.402450E+05  1.769677E+05 -1.348684E+06 -7.974270E+04  3.606983E+03
       111   9 -3.364263E+06 -3.107385E+05  1.873310E+05 -1.409310E+06 -4.164799E+04  1.389095E+04
       111  10 -5.242294E+06 -1.086156E+06 -4.247029E+05 -1.903664E+06 -5.807833E-09 -1.119513E-09
       111  11 -5.175728E+06 -9.536746E+05 -3.229106E+05 -1.866233E+06 -2.000573E-09  1.478909E-09
       111  12 -5.094681E+06 -9.472793E+05 -2.715544E+05 -1.863602E+06 -8.229311E-10 -2.163360E-10
       111  13 -4.238807E+06 -6.907181E+05 -1.532099E+05 -1.613483E+06 -1.937248E-09 -4.988827E-10
       111  14 -4.241704E+06 -5.969899E+05 -7.293919E+04 -1.607637E+06 -5.178246E-09  6.604941E-10
       111  15 -4.229836E+06 -6.290269E+05 -4.208116E+04 -1.636598E+06  5.624338E-10 -7.853726E-10
       111  16 -3.234335E+06 -2.951944E+05  1.181933E+05 -1.322865E+06  2.356737E-09 -1.309193E-10
       111  17 -3.306830E+06 -2.402467E+05  1.769556E+05 -1.348684E+06  1.787595E-09  7.807671E-10
       111  18 -3.364265E+06 -3.107391E+05  1.873273E+05 -1.409310E+06 -8.283527E-10 -1.194298E-09
       111  19 -5.242279E+06 -1.086152E+06 -4.246767E+05 -1.903663E+06  1.171406E+05  9.627288E+03
       111  20 -5.175721E+06 -9.536729E+05 -3.228992E+05 -1.866234E+06  7.769346E+04 -4.385670E+03
       111  21 -5.094679E+06 -9.472786E+05 -2.715514E+05 -1.863602E+06  3.718231E+04 -1.557045E+04
       111  22 -4.238792E+06 -6.907143E+05 -1.531839E+05 -1.613482E+06  1.169627E+05  9.567920E+03
       111  23 -4.241697E+06 -5.969882E+05 -7.292744E+04 -1.607637E+06  7.871727E+04 -3.996639E+03
       111  24 -4.229834E+06 -6.290263E+05 -4.207782E+04 -1.636598E+06  3.941344E+04 -1.473131E+04
       111  25 -3.234320E+06 -2.951906E+05  1.182192E+05 -1.322864E+06  1.167845E+05  9.508359E+03
       111  26 -3.306823E+06 -2.402450E+05  1.769677E+05 -1.348684E+06  7.974270E+04 -3.606983E+03
       111  27 -3.364263E+06 -3.107385E+05  1.873310E+05 -1.409310E+06  4.164799E+04 -1.389095E+04
       112   1 -4.943891E+06 -9.131170E+05 -2.249321E+05 -1.831478E+06 -3.079551E+04  1.503447E+04
       112   2 -4.874356E+06 -8.375127E+05 -1.831190E+05 -1.771940E+06 -2.049647E+04  1.453587E+04
       112   3 -4.749235E+06 -8.303123E+05 -1.502285E+05 -1.778574E+06 -1.001327E+04  1.352980E+04
       112   4 -4.224145E+06 -6.405210E+05 -3.298439E+04 -1.634439E+06 -3.240689E+04  1.442857E+04
       112   5 -4.251429E+06 -6.027803E+05 -1.702094E+04 -1.602676E+06 -2.232409E+04  1.385057E+04
       112   6 -4.223092E+06 -6.333906E+05 -9.798604E+03 -1.637086E+06 -1.205874E+04  1.276478E+04
       112   7 -3.503897E+06 -3.678934E+05  1.589173E+05 -1.437193E+06 -3.402031E+04  1.382190E+04
       112   8 -3.628126E+06 -3.680248E+05  1.490431E+05 -1.433258E+06 -2.415373E+04  1.316452E+04
       112   9 -3.696679E+06 -4.364528E+05  1.306074E+05 -1.495489E+06 -1.410613E+04  1.199905E+04
       112  10 -4.943892E+06 -9.131175E+05 -2.249343E+05 -1.831478E+06 -7.089071E-10 -1.431921E-09
       112  11 -4.874356E+06 -8.375130E+05 -1.831202E+05 -1.771940E+06  2.986553E-09  4.529297E-10
       112  12 -4.749236E+06 -8.303125E+05 -1.502291E+05 -1.778574E+06 -2.999311E-10  1.579047E-09
       112  13 -4.224146E+06 -6.405215E+05 -3.298676E+04 -1.634439E+06  3.321156E-10 -1.085968E-09
       112  14 -4.251430E+06 -6.027806E+05 -1.702224E+04 -1.602676E+06  2.161459E-09  1.486727E-09
       112  15 -4.223093E+06 -6.333908E+05 -9.799183E+03 -1.637086E+06  4.230844E-10 -7.934640E-10
       112  16 -3.503898E+06 -3.678939E+05  1.589148E+05 -1.437193E+06 -5.777847E-10 -1.069034E-09
       112  17 -3.628126E+06 -3.680251E+05  1.490417E+05 -1.433258E+06 -1.682147E-09  2.852773E-10
       112  18 -3.696679E+06 -4.364531E+05  1.306068E+05 -1.495488E+06  1.085782E-09 -1.098823E-09
       112  19 -4.943891E+06 -9.131170E+05 -2.249321E+05 -1.831478E+06  3.079551E+04 -1.503447E+04
       112  20 -4.874356E+06 -8.375127E+05 -1.831190E+05 -1.771940E+06  2.049647E+04 -1.453587E+04
       112  21 -4.749235E+06 -8.303123E+05 -1.502285E+05 -1.778574E+06  1.001327E+04 -1.352980E+04
       112  22 -4.224145E+06 -6.405210E+05 -3.298439E+04 -1.634439E+06  3.240689E+04 -1.442857E+04
       112  23 -4.251429E+06 -6.027803E+05 -1.702094E+04 -1.602676E+06  2.232409E+04 -1.385057E+04
       112  24 -4.223092E+06 -6.333906E+05 -9.798604E+03 -1.637086E+06  1.205874E+04 -1.276478E+04
       112  25 -3.503897E+06 -3.678934E+05  1.589173E+05 -1.437193E+06  3.402031E+04 -1.382190E+04
       112  26 -3.628126E+06 -3.680248E+05  1.490431E+05 -1.433258E+06  2.415373E+04 -1.316452E+04
       112  27 -3.696679E+06 -4.364528E+05  1.306074E+05 -1.495489E+06  1.410613E+04 -1.199905E+04
       113   1 -4.584214E+06 -7.723173E+05 -1.040784E+05 -1.736617E+06 -7.628787E+03  1.139660E+04
       113   2 -4.508082E+06 -6.973871E+05 -7.248387E+04 -1.669208E+06 -3.465713E+03  7.750781E+03
       113   3 -4.366611E+06 -6.896389E+05 -4.302460E+04 -1.677661E+06  7.472287E+02  3.963266E+03
       113   4 -4.221274E+06 -6.358601E+05 -7.747969E+03 -1.638199E+06 -9.637352E+03  1.064626E+04
       113   5 -4.253882E+06 -6.018846E+05 -4.771421E+03 -1.600411E+06 -5.536156E+03  6.978042E+03
       113   6 -4.221151E+06 -6.350764E+05 -3.879003E+03 -1.638486E+06 -1.385613E+03  3.168039E+03
       113   7 -3.858206E+06 -4.993949E+05  8.857121E+04 -1.539729E+06 -1.164722E+04  9.895428E+03
       113   8 -3.999620E+06 -5.063788E+05  6.293509E+04 -1.531588E+06 -7.607527E+03  6.204958E+03
       113   9 -4.075672E+06 -5.805133E+05  3.526433E+04 -1.599302E+06 -3.518985E+03  2.372616E+03
       113  10 -4.584214E+06 -7.723174E+05 -1.040788E+05 -1.736617E+06 -2.274788E-09  3.672316E-10
       113  11 -4.508082E+06 -6.973872E+05 -7.248401E+04 -1.669208E+06  1.110707E-09  1.060170E-09
       113  12 -4.366611E+06 -6.896389E+05 -4.302464E+04 -1.677661E+06 -8.984135E-10  2.922756E-10
       113  13 -4.221274E+06 -6.358602E+05 -7.748356E+03 -1.638199E+06  1.635923E-09 -1.677010E-09
       113  14 -4.253882E+06 -6.018847E+05 -4.771570E+03 -1.600411E+06  1.403351E-09  1.731350E-09
       113  15 -4.221151E+06 -6.350764E+05 -3.879026E+03 -1.638486E+06  4.179829E-09  2.090118E-09
       113  16 -3.858206E+06 -4.993950E+05  8.857077E+04 -1.539729E+06  2.993025E-09 -1.300764E-09
       113  17 -3.999620E+06 -5.063789E+05  6.293491E+04 -1.531588E+06  2.964241E-09  7.402527E-10
       113  18 -4.075672E+06 -5.805133E+05  3.526430E+04 -1.599302E+06  7.468722E-10  2.806522E-10
       113  19 -4.584214E+06 -7.723173E+05 -1.040784E+05 -1.736617E+06  7.628787E+03 -1.139660E+04
       113  20 -4.508082E+06 -6.973871E+05 -7.248387E+04 -1.669208E+06  3.465713E+03 -7.750781E+03
       113  21 -4.366611E+06 -6.896389E+05 -4.302460E+04 -1.677661E+06 -7.472287E+02 -3.963266E+03
       113  22 -4.221274E+06 -6.358601E+05 -7.747969E+03 -1.638199E+06  9.637352E+03 -1.064626E+04
       113  23 -4.253882E+06 -6.018846E+05 -4.771421E+03 -1.600411E+06  5.536156E+03 -6.978042E+03
       113  24 -4.221151E+06 -6.350764E+05 -3.879003E+03 -1.638486E+06  1.385613E+03 -3.168039E+03
       113  25 -3.858206E+06 -4.993949E+05  8.857121E+04 -1.539729E+06  1.164722E+04 -9.895428E+03
       113  26 -3.999620E+06 -5.063788E+05  6.293509E+04 -1.531588E+06  7.607527E+03 -6.204958E+03
       113  27 -4.075672E+06 -5.805133E+05  3.526433E+04 -1.599302E+06  3.518985E+03 -2.372616E+03
       114   1 -4.193751E+06 -6.251168E+05  3.713148E+03 -1.631535E+06  2.431893E+03  1.413587E+03
       114   2 -4.116602E+06 -5.499806E+05  3.154153E+04 -1.562925E+06  6.707673E+03 -2.388207E+03
       114   3 -3.973360E+06 -5.429793E+05  5.715861E+04 -1.571213E+06  1.095411E+04 -6.104466E+03
       114   4 -4.220979E+06 -6.352717E+05 -3.938104E+03 -1.638723E+06  2.959361E+02  6.173298E+02
       114   5 -4.254077E+06 -6.016071E+05 -5.066085E+03 -1.600120E+06  4.609024E+03 -3.171005E+03
       114   6 -4.221102E+06 -6.360879E+05 -8.434895E+03 -1.638423E+06  8.892252E+03 -6.873928E+03
       114   7 -4.248206E+06 -6.454266E+05 -1.158947E+04 -1.645911E+06 -1.839935E+03 -1.788964E+02
       114   8 -4.391535E+06 -6.532328E+05 -4.167561E+04 -1.637309E+06  2.510872E+03 -3.953617E+03
       114   9 -4.468785E+06 -7.291933E+05 -7.403411E+04 -1.705608E+06  6.831291E+03 -7.643055E+03
       114  10 -4.193751E+06 -6.251168E+05  3.713133E+03 -1.631535E+06 -1.606766E-09  1.260805E-09
       114  11 -4.116602E+06 -5.499806E+05  3.154144E+04 -1.562925E+06  4.762462E-09  5.980559E-09
       114  12 -3.973361E+06 -5.429794E+05  5.715832E+04 -1.571213E+06  1.154805E-09  1.214336E-09
       114  13 -4.220979E+06 -6.352717E+05 -3.938105E+03 -1.638723E+06  2.072870E-09  3.603847E-10
       114  14 -4.254077E+06 -6.016071E+05 -5.066144E+03 -1.600120E+06  2.722672E-09  4.216872E-09
       114  15 -4.221102E+06 -6.360879E+05 -8.435132E+03 -1.638423E+06  3.616516E-09  9.651795E-10
       114  16 -4.248206E+06 -6.454266E+05 -1.158948E+04 -1.645911E+06  1.607722E-09  1.223417E-09
       114  17 -4.391535E+06 -6.532328E+05 -4.167565E+04 -1.637309E+06  7.450514E-10 -3.952548E-10
       114  18 -4.468785E+06 -7.291934E+05 -7.403431E+04 -1.705608E+06  1.639793E-10 -3.791786E-10
       114  19 -4.193751E+06 -6.251168E+05  3.713148E+03 -1.631535E+06 -2.431893E+03 -1.413587E+03
       114  20 -4.116602E+06 -5.499806E+05  3.154153E+04 -1.562925E+06 -6.707673E+03  2.388207E+03
       114  21 -3.973360E+06 -5.429793E+05  5.715861E+04 -1.571213E+06 -1.095411E+04  6.104466E+03
       114  22 -4.220979E+06 -6.352717E+05 -3.938104E+03 -1.638723E+06 -2.959361E+02 -6.173298E+02
       114  23 -4.254077E+06 -6.016071E+05 -5.066085E+03 -1.600120E+06 -4.609024E+03  3.171005E+03
       114  24 -4.221102E+06 -6.360879E+05 -8.434895E+03 -1.638423E+06 -8.892252E+03  6.873928E+03
       114  25 -4.248206E+06 -6.454266E+05 -1.158947E+04 -1.645911E+06  1.839935E+03  1.788964E+02
       114  26 -4.391535E+06 -6.532328E+05 -4.167561E+04 -1.637309E+06 -2.510872E+03  3.953617E+03
       114  27 -4.468785E+06 -7.291933E+05 -7.403411E+04 -1.705608E+06 -6.831291E+03  7.643055E+03
       115   1 -3.807093E+06 -4.788047E+05  1.001266E+05 -1.526433E+06  1.357614E+04 -8.227746E+03
       115   2 -3.735292E+06 -4.073487E+05  1.189537E+05 -1.461473E+06  2.456225E+04 -9.221528E+03
       115   3 -3.605966E+06 -4.076957E+05  1.282538E+05 -1.465551E+06  3.538938E+04 -9.768018E+03
       115   4 -4.222626E+06 -6.339123E+05 -1.073611E+04 -1.637810E+06  1.147357E+04 -9.013073E+03
       115   5 -4.251935E+06 -6.018871E+05 -1.869205E+04 -1.601842E+06  2.265094E+04 -9.936895E+03
       115   6 -4.223770E+06 -6.417123E+05 -3.633310E+04 -1.634917E+06  3.366767E+04 -1.041387E+04
       115   7 -4.637988E+06 -7.890089E+05 -1.216128E+05 -1.749119E+06  9.372568E+03 -9.797822E+03
       115   8 -4.768318E+06 -7.964091E+05 -1.563607E+05 -1.742103E+06  2.074138E+04 -1.065160E+04
       115   9 -4.841207E+06 -8.757059E+05 -2.009541E+05 -1.804130E+06  3.194782E+04 -1.105902E+04
       115  10 -3.807094E+06 -4.788048E+05  1.001262E+05 -1.526433E+06 -3.317635E-09 -2.546544E-10
       115  11 -3.735293E+06 -4.073489E+05  1.189524E+05 -1.461473E+06 -5.165357E-10 -2.887395E-09
       115  12 -3.605967E+06 -4.076962E+05  1.282513E+05 -1.465551E+06 -1.867773E-09 -2.401444E-09
       115  13 -4.222626E+06 -6.339124E+05 -1.073651E+04 -1.637810E+06 -8.248863E-11 -4.166650E-10
       115  14 -4.251936E+06 -6.018874E+05 -1.869320E+04 -1.601841E+06 -7.631367E-10 -2.381708E-09
       115  15 -4.223772E+06 -6.417128E+05 -3.633544E+04 -1.634916E+06 -2.354572E-09  7.264299E-10
       115  16 -4.637988E+06 -7.890090E+05 -1.216132E+05 -1.749119E+06  1.181945E-09  1.397528E-12
       115  17 -4.768318E+06 -7.964093E+05 -1.563617E+05 -1.742103E+06 -4.085164E-10 -1.360081E-11
       115  18 -4.841208E+06 -8.757063E+05 -2.009563E+05 -1.804129E+06 -7.523276E-10 -2.048369E-09
       115  19 -3.807093E+06 -4.788047E+05  1.001266E+05 -1.526433E+06 -1.357614E+04  8.227746E+03
       115  20 -3.735292E+06 -4.073487E+05  1.189537E+05 -1.461473E+06 -2.456225E+04  9.221528E+03
       115  21 -3.605966E+06 -4.076957E+05  1.282538E+05 -1.465551E+06 -3.538938E+04  9.768018E+03
       115  22 -4.222626E+06 -6.339123E+05 -1.073611E+04 -1.637810E+06 -1.147357E+04  9.013073E+03
       115  23 -4.251935E+06 -6.018871E+05 -1.869205E+04 -1.601842E+06 -2.265094E+04  9.936895E+03
       115  24 -4.223770E+06 -6.417123E+05 -3.633310E+04 -1.634917E+06 -3.366767E+04  1.041387E+04
       115  25 -4.637988E+06 -7.890089E+05 -1.216128E+05 -1.749119E+06 -9.372568E+03  9.797822E+03
       115  26 -4.768318E+06 -7.964091E+05 -1.563607E+05 -1.742103E+06 -2.074138E+04  1.065160E+04
       115  27 -4.841207E+06 -8.757059E+05 -2.009541E+05 -1.804130E+06 -3.194782E+04  1.105902E+04
       116   1 -3.457058E+06 -3.474871E+05  1.580508E+05 -1.437116E+06  4.366513E+04 -9.742730E+03
       116   2 -3.394280E+06 -2.708096E+05  1.463462E+05 -1.371187E+06  8.577949E+04  1.727406E+03
       116   3 -3.316230E+06 -3.316689E+05  8.107079E+04 -1.342905E+06  1.268904E+05  1.590487E+04
       116   4 -4.229478E+06 -6.296552E+05 -4.637184E+04 -1.637978E+06  4.134066E+04 -1.061485E+04
       116   5 -4.241889E+06 -5.947183E+05 -8.032117E+04 -1.606439E+06  8.460806E+04  1.284118E+03
       116   6 -4.239314E+06 -6.976330E+05 -1.688192E+05 -1.612547E+06  1.268658E+05  1.588795E+04
       116   7 -5.001320E+06 -9.117968E+05 -2.508458E+05 -1.838618E+06  3.901935E+04 -1.148587E+04
       116   8 -5.088799E+06 -9.185783E+05 -3.070516E+05 -1.841397E+06  8.343833E+04  8.414857E+02
       116   9 -5.161566E+06 -1.063521E+06 -4.187853E+05 -1.881814E+06  1.268412E+05  1.587099E+04
       116  10 -3.457060E+06 -3.474877E+05  1.580470E+05 -1.437116E+06  2.347499E-09 -2.452557E-10
       116  11 -3.394288E+06 -2.708116E+05  1.463323E+05 -1.371188E+06  3.759689E-10 -1.093788E-09
       116  12 -3.316247E+06 -3.316735E+05  8.103988E+04 -1.342907E+06 -3.057285E-09 -1.305983E-09
       116  13 -4.229480E+06 -6.296557E+05 -4.637528E+04 -1.637978E+06  3.002787E-11  1.122897E-09
       116  14 -4.241896E+06 -5.947203E+05 -8.033471E+04 -1.606439E+06 -1.207749E-09  4.936391E-11
       116  15 -4.239331E+06 -6.976376E+05 -1.688502E+05 -1.612548E+06 -6.373336E-09  2.061097E-10
       116  16 -5.001322E+06 -9.117974E+05 -2.508490E+05 -1.838617E+06 -7.473957E-10 -1.633496E-09
       116  17 -5.088806E+06 -9.185802E+05 -3.070648E+05 -1.841397E+06 -1.588045E-09 -6.495062E-10
       116  18 -5.161583E+06 -1.063525E+06 -4.188163E+05 -1.881815E+06 -3.167198E-09 -8.691746E-10
       116  19 -3.457058E+06 -3.474871E+05  1.580508E+05 -1.437116E+06 -4.366513E+04  9.742730E+03
       116  20 -3.394280E+06 -2.708096E+05  1.463462E+05 -1.371187E+06 -8.577949E+04 -1.727406E+03
       116  21 -3.316230E+06 -3.316689E+05  8.107079E+04 -1.342905E+06 -1.268904E+05 -1.590487E+04
       116  22 -4.229478E+06 -6.296552E+05 -4.637184E+04 -1.637978E+06 -4.134066E+04  1.061485E+04
       116  23 -4.241889E+06 -5.947183E+05 -8.032117E+04 -1.606439E+06 -8.460806E+04 -1.284118E+03
       116  24 -4.239314E+06 -6.976330E+05 -1.688192E+05 -1.612547E+06 -1.268658E+05 -1.588795E+04
       116  25 -5.001320E+06 -9.117968E+05 -2.508458E+05 -1.838618E+06 -3.901935E+04  1.148587E+04
       116  26 -5.088799E+06 -9.185783E+05 -3.070516E+05 -1.841397E+06 -8.343833E+04 -8.414857E+02
       116  27 -5.161566E+06 -1.063521E+06 -4.187853E+05 -1.881814E+06 -1.268412E+05 -1.587099E+04
       117   1 -3.165403E+06 -2.636795E+05  7.272691E+04 -1.431984E+06  1.658640E+05  2.411312E+04
       117   2 -3.101917E+06 -5.712101E+04 -4.521517E+04 -1.280671E+06  3.413061E+05  8.742325E+04
       117   3 -3.306288E+06 -6.362363E+05 -4.986365E+05 -9.743306E+05  5.064859E+05  1.779829E+05
       117   4 -4.269097E+06 -6.073471E+05 -2.071291E+05 -1.658244E+06  1.584893E+05  2.135529E+04
       117   5 -4.177014E+06 -5.111298E+05 -3.405862E+05 -1.623394E+06  3.457882E+05  8.907766E+04
       117   6 -4.355710E+06 -1.203837E+06 -8.194336E+05 -1.433376E+06  5.228195E+05  1.839885E+05
       117   7 -5.371608E+06 -9.510257E+05 -4.870791E+05 -1.884182E+06  1.511288E+05  1.860065E+04
       117   8 -5.250977E+06 -9.649842E+05 -6.360630E+05 -1.965549E+06  3.502612E+05  9.072773E+04
       117   9 -5.403979E+06 -1.770975E+06 -1.140335E+06 -1.891598E+06  5.391218E+05  1.899709E+05
       117  10 -3.165432E+06 -2.636876E+05  7.267382E+04 -1.431987E+06 -3.031100E-10 -4.025767E-10
       117  11 -3.102045E+06 -5.716077E+04 -4.544981E+04 -1.280695E+06  2.273532E-09 -2.772590E-10
       117  12 -3.306573E+06 -6.363399E+05 -4.991812E+05 -9.744035E+05  1.138257E-09 -7.308944E-10
       117  13 -4.269124E+06 -6.073544E+05 -2.071775E+05 -1.658247E+06 -3.963291E-09 -4.297295E-10
       117  14 -4.177146E+06 -5.111708E+05 -3.408276E+05 -1.623419E+06  5.227774E-09 -2.260635E-09
       117  15 -4.356014E+06 -1.203948E+06 -8.200154E+05 -1.433454E+06 -1.499969E-09 -5.991114E-10
       117  16 -5.371633E+06 -9.510323E+05 -4.871231E+05 -1.884185E+06  6.673289E-10 -2.652576E-09
       117  17 -5.251112E+06 -9.650264E+05 -6.363114E+05 -1.965574E+06  2.229755E-09 -2.437195E-09
       117  18 -5.404304E+06 -1.771093E+06 -1.140955E+06 -1.891681E+06  2.820602E-09 -6.653669E-10
       117  19 -3.165403E+06 -2.636795E+05  7.272691E+04 -1.431984E+06 -1.658640E+05 -2.411312E+04
       117  20 -3.101917E+06 -5.712101E+04 -4.521517E+04 -1.280671E+06 -3.413061E+05 -8.742325E+04
       117  21 -3.306288E+06 -6.362363E+05 -4.986365E+05 -9.743306E+05 -5.064859E+05 -1.779829E+05
       117  22 -4.269097E+06 -6.073471E+05 -2.071291E+05 -1.658244E+06 -1.584893E+05 -2.135529E+04
       117  23 -4.177014E+06 -5.111298E+05 -3.405862E+05 -1.623394E+06 -3.457882E+05 -8.907766E+04
       117  24 -4.355710E+06 -1.203837E+06 -8.194336E+05 -1.433376E+06 -5.228195E+05 -1.839885E+05
       117  25 -5.371608E+06 -9.510257E+05 -4.870791E+05 -1.884182E+06 -1.511288E+05 -1.860065E+04
       117  26 -5.250977E+06 -9.649842E+05 -6.360630E+05 -1.965549E+06 -3.502612E+05 -9.072773E+04
       117  27 -5.403979E+06 -1.770975E+06 -1.140335E+06 -1.891598E+06 -5.391218E+05 -1.899709E+05
       118   1 -9.818683E+05  1.263329E+05  1.803848E+05  1.498677E+04  1.571693E+05  1.110079E+03
       118   2 -1.016942E+06 -9.174722E+04  4.816917E+04  2.812613E+03  1.035380E+05  2.356337E+03
       118   3 -9.810834E+05 -5.646856E+04  1.437881E+04 -1.076002E+04  4.990948E+04  1.964569E+03
       118   4 -7.791326E+05  1.769448E+05  2.310249E+05 -2.287829E+03  1.575209E+05  1.106431E+03
       118   5 -8.146522E+05 -4.118363E+04  9.858550E+04 -1.373973E+03  1.036382E+05  2.355740E+03
       118   6 -7.792174E+05 -5.953978E+03  6.472342E+04 -1.859145E+03  4.975837E+04  1.964997E+03
       118   7 -5.763590E+05  2.275549E+05  2.816620E+05 -1.956810E+04  1.578725E+05  1.102764E+03
       118   8 -6.123250E+05  9.376941E+03  1.489988E+05 -5.561944E+03  1.037384E+05  2.355142E+03
       118   9 -5.773143E+05  4.455782E+04  1.150650E+05  7.044611E+03  4.960721E+04  1.965419E+03
       118  10 -9.818949E+05  1.263262E+05  1.803383E+05  1.498663E+04  3.934439E-10  9.604908E-10
       118  11 -1.016954E+06 -9.175011E+04  4.814898E+04  2.812417E+03 -3.136423E-09 -5.720400E-10
       118  12 -9.810860E+05 -5.646923E+04  1.437412E+04 -1.076010E+04 -4.034420E-09  5.006265E-10
       118  13 -7.791593E+05  1.769382E+05  2.309782E+05 -2.287970E+03 -1.800084E-09  4.883406E-10
       118  14 -8.146638E+05 -4.118653E+04  9.856528E+04 -1.374170E+03  5.808987E-10 -1.993832E-09
       118  15 -7.792201E+05 -5.954648E+03  6.471875E+04 -1.859224E+03 -3.453188E-10  2.502579E-10
       118  16 -5.763858E+05  2.275482E+05  2.816151E+05 -1.956824E+04  5.696096E-10  6.324251E-10
       118  17 -6.123365E+05  9.374043E+03  1.489785E+05 -5.562141E+03 -7.014542E-11  5.365735E-10
       118  18 -5.773169E+05  4.455715E+04  1.150604E+05  7.044533E+03  1.983638E-09 -7.825141E-10
       118  19 -9.818683E+05  1.263329E+05  1.803848E+05  1.498677E+04 -1.571693E+05 -1.110079E+03
       118  20 -1.016942E+06 -9.174722E+04  4.816917E+04  2.812613E+03 -1.035380E+05 -2.356337E+03
       118  21 -9.810834E+05 -5.646856E+04  1.437881E+04 -1.076002E+04 -4.990948E+04 -1.964569E+03
       118  22 -7.791326E+05  1.769448E+05  2.310249E+05 -2.287829E+03 -1.575209E+05 -1.106431E+03
       118  23 -8.146522E+05 -4.118363E+04  9.858550E+04 -1.373973E+03 -1.036382E+05 -2.355740E+03
       118  24 -7.792174E+05 -5.953978E+03  6.472342E+04 -1.859145E+03 -4.975837E+04 -1.964997E+03
       118  25 -5.763590E+05  2.275549E+05  2.816620E+05 -1.956810E+04 -1.578725E+05 -1.102764E+03
       118  26 -6.123250E+05  9.376941E+03  1.489988E+05 -5.561944E+03 -1.037384E+05 -2.355142E+03
       118  27 -5.773143E+05  4.455782E+04  1.150650E+05  7.044611E+03 -4.960721E+04 -1.965419E+03
       119   1 -9.795194E+05 -1.998768E+04  6.862603E+03 -8.596945E+02  3.899834E+04  1.664374E+03
       119   2 -9.828348E+05 -5.241737E+04 -2.051645E+04  6.836338E+02  2.566274E+04  1.806405E+03
       119   3 -9.743093E+05 -4.638330E+04 -2.948950E+04 -4.600572E+03  1.232768E+04  1.590219E+03
       119   4 -7.923317E+05  2.681694E+04  5.355207E+04 -3.225873E+03  3.905510E+04  1.664256E+03
       119   5 -7.982634E+05 -6.263039E+03  2.550454E+04  2.052831E+02  2.566442E+04  1.806348E+03
       119   6 -7.923477E+05 -8.758186E+02  1.589746E+04 -3.190988E+03  1.227432E+04  1.590189E+03
       119   7 -6.051121E+05  7.361894E+04  1.002389E+05 -5.592777E+03  3.911187E+04  1.664139E+03
       119   8 -6.136609E+05  3.988872E+04  7.152296E+04 -2.732170E+02  2.566609E+04  1.806291E+03
       119   9 -6.103560E+05  4.462918E+04  6.128193E+04 -1.780994E+03  1.222095E+04  1.590158E+03
       119  10 -9.795210E+05 -1.998809E+04  6.859735E+03 -8.597468E+02 -1.050718E-09 -8.616210E-10
       119  11 -9.828356E+05 -5.241755E+04 -2.051770E+04  6.835964E+02 -3.688844E-09  5.520037E-10
       119  12 -9.743094E+05 -4.638335E+04 -2.948979E+04 -4.600588E+03 -1.062131E-09 -1.219572E-10
       119  13 -7.923333E+05  2.681653E+04  5.354919E+04 -3.225926E+03 -1.994858E-09 -2.620328E-10
       119  14 -7.982641E+05 -6.263220E+03  2.550329E+04  2.052458E+02 -1.015300E-09 -4.869442E-11
       119  15 -7.923478E+05 -8.758618E+02  1.589717E+04 -3.191004E+03  2.630526E-09 -5.301252E-10
       119  16 -6.051138E+05  7.361853E+04  1.002360E+05 -5.592830E+03  3.688105E-09  1.259937E-10
       119  17 -6.136617E+05  3.988854E+04  7.152172E+04 -2.732543E+02  1.172974E-09 -9.223495E-10
       119  18 -6.103562E+05  4.462913E+04  6.128164E+04 -1.781009E+03  1.691926E-09 -1.602844E-10
       119  19 -9.795194E+05 -1.998768E+04  6.862603E+03 -8.596945E+02 -3.899834E+04 -1.664374E+03
       119  20 -9.828348E+05 -5.241737E+04 -2.051645E+04  6.836338E+02 -2.566274E+04 -1.806405E+03
       119  21 -9.743093E+05 -4.638330E+04 -2.948950E+04 -4.600572E+03 -1.232768E+04 -1.590219E+03
       119  22 -7.923317E+05  2.681694E+04  5.355207E+04 -3.225873E+03 -3.905510E+04 -1.664256E+03
       119  23 -7.982634E+05 -6.263039E+03  2.550454E+04  2.052831E+02 -2.566442E+04 -1.806348E+03
       119  24 -7.923477E+05 -8.758186E+02  1.589746E+04 -3.190988E+03 -1.227432E+04 -1.590189E+03
       119  25 -6.051121E+05  7.361894E+04  1.002389E+05 -5.592777E+03 -3.911187E+04 -1.664139E+03
       119  26 -6.136609E+05  3.988872E+04  7.152296E+04 -2.732170E+02 -2.566609E+04 -1.806291E+03
       119  27 -6.103560E+05  4.462918E+04  6.128193E+04 -1.780994E+03 -1.222095E+04 -1.590158E+03
       120   1 -9.406726E+05 -3.252356E+04 -2.372589E+04 -3.983112E+03  9.685166E+03  1.454228E+03
       120   2 -9.372498E+05 -3.637807E+04 -2.883604E+04  1.651853E+03  6.376638E+03  1.345754E+03
       120   3 -9.316663E+05 -3.441932E+04 -3.028090E+04 -4.475673E+03  3.067923E+03  1.104965E+03
       120   4 -7.944929E+05  4.029249E+03  1.271816E+04 -4.299093E+03  9.680779E+03  1.454199E+03
       120   5 -7.955771E+05 -9.508445E+02  6.490167E+03  1.582674E+03  6.352526E+03  1.345734E+03
       120   6 -7.944976E+05 -1.149670E+02  3.940563E+03 -4.297877E+03  3.024111E+03  1.104963E+03
       120   7 -6.482939E+05  4.058044E+04  4.916060E+04 -4.615151E+03  9.676391E+03  1.454171E+03
       120   8 -6.538863E+05  3.447487E+04  4.181486E+04  1.513479E+03  6.328410E+03  1.345713E+03
       120   9 -6.573119E+05  3.418796E+04  3.816061E+04 -4.120041E+03  2.980290E+03  1.104961E+03
       120  10 -9.406727E+05 -3.252358E+04 -2.372607E+04 -3.983123E+03 -1.666612E-10  2.884647E-10
       120  11 -9.372498E+05 -3.637809E+04 -2.883612E+04  1.651846E+03  2.404367E-09  3.221300E-10
       120  12 -9.316663E+05 -3.441932E+04 -3.028092E+04 -4.475676E+03 -5.497285E-10  3.045928E-10
       120  13 -7.944930E+05  4.029222E+03  1.271798E+04 -4.299105E+03  2.188717E-09 -6.713425E-11
       120  14 -7.955772E+05 -9.508573E+02  6.490088E+03  1.582667E+03 -2.286962E-09  1.091289E-10
       120  15 -7.944977E+05 -1.149707E+02  3.940543E+03 -4.297880E+03  1.667737E-10  7.754859E-11
       120  16 -6.482940E+05  4.058042E+04  4.916042E+04 -4.615162E+03 -1.057006E-09  1.118988E-11
       120  17 -6.538863E+05  3.447486E+04  4.181478E+04  1.513472E+03 -3.274609E-09 -1.447418E-10
       120  18 -6.573120E+05  3.418796E+04  3.816059E+04 -4.120043E+03  7.411875E-10 -4.027154E-11
       120  19 -9.406726E+05 -3.252356E+04 -2.372589E+04 -3.983112E+03 -9.685166E+03 -1.454228E+03
       120  20 -9.372498E+05 -3.637807E+04 -2.883604E+04  1.651853E+03 -6.376638E+03 -1.345754E+03
       120  21 -9.316663E+05 -3.441932E+04 -3.028090E+04 -4.475673E+03 -3.067923E+03 -1.104965E+03
       120  22 -7.944929E+05  4.029249E+03  1.271816E+04 -4.299093E+03 -9.680779E+03 -1.454199E+03
       120  23 -7.955771E+05 -9.508445E+02  6.490167E+03  1.582674E+03 -6.352526E+03 -1.345734E+03
       120  24 -7.944976E+05 -1.149670E+02  3.940563E+03 -4.297877E+03 -3.024111E+03 -1.104963E+03
       120  25 -6.482939E+05  4.058044E+04  4.916060E+04 -4.615151E+03 -9.676391E+03 -1.454171E+03
       120  26 -6.538863E+05  3.447487E+04  4.181486E+04  1.513479E+03 -6.328410E+03 -1.345713E+03
       120  27 -6.573119E+05  3.418796E+04  3.816061E+04 -4.120041E+03 -2.980290E+03 -1.104961E+03
       121   1 -8.801428E+05 -2.072085E+04 -1.815806E+04 -4.975806E+03  2.411639E+03  9.600985E+02
       121   2 -8.745416E+05 -2.001461E+04 -1.814273E+04  2.558273E+03  1.576646E+03  7.512239E+02
       121   3 -8.685448E+05 -1.842019E+04 -1.734823E+04 -5.037007E+03  7.415139E+02  4.836059E+02
       121   4 -7.948859E+05  5.952958E+02  3.085940E+03 -5.046184E+03  2.385987E+03  9.601007E+02
       121   5 -7.950854E+05 -1.461577E+02  1.669273E+03  2.518310E+03  1.542440E+03  7.512376E+02
       121   6 -7.948879E+05  1.994895E+00  1.037658E+03 -5.046434E+03  6.987632E+02  4.836344E+02
       121   7 -7.096224E+05  2.191090E+04  2.432939E+04 -5.116572E+03  2.360331E+03  9.601029E+02
       121   8 -7.156234E+05  1.972182E+04  2.148080E+04  2.478343E+03  1.508230E+03  7.512513E+02
       121   9 -7.212260E+05  1.842377E+04  1.942313E+04 -5.055861E+03  6.560075E+02  4.836630E+02
       121  10 -8.801428E+05 -2.072086E+04 -1.815807E+04 -4.975808E+03 -4.430919E-10  1.897743E-10
       121  11 -8.745416E+05 -2.001461E+04 -1.814274E+04  2.558272E+03  2.718671E-10  3.313911E-10
       121  12 -8.685448E+05 -1.842019E+04 -1.734823E+04 -5.037008E+03  7.342278E-10  5.560598E-10
       121  13 -7.948859E+05  5.952933E+02  3.085927E+03 -5.046186E+03  2.428531E-09  4.489242E-10
       121  14 -7.950854E+05 -1.461589E+02  1.669268E+03  2.518309E+03 -1.258960E-09 -3.158177E-10
       121  15 -7.948879E+05  1.994512E+00  1.037656E+03 -5.046434E+03  8.870957E-10 -4.088274E-10
       121  16 -7.096224E+05  2.191089E+04  2.432938E+04 -5.116573E+03  2.995418E-09 -4.525709E-10
       121  17 -7.156234E+05  1.972182E+04  2.148080E+04  2.478342E+03 -3.714647E-09 -5.618321E-10
       121  18 -7.212260E+05  1.842377E+04  1.942313E+04 -5.055861E+03  6.158901E-10 -7.866427E-10
       121  19 -8.801428E+05 -2.072085E+04 -1.815806E+04 -4.975806E+03 -2.411639E+03 -9.600985E+02
       121  20 -8.745416E+05 -2.001461E+04 -1.814273E+04  2.558273E+03 -1.576646E+03 -7.512239E+02
       121  21 -8.685448E+05 -1.842019E+04 -1.734823E+04 -5.037007E+03 -7.415139E+02 -4.836059E+02
       121  22 -7.948859E+05  5.952958E+02  3.085940E+03 -5.046184E+03 -2.385987E+03 -9.601007E+02
       121  23 -7.950854E+05 -1.461577E+02  1.669273E+03  2.518310E+03 -1.542440E+03 -7.512376E+02
       121  24 -7.948879E+05  1.994895E+00  1.037658E+03 -5.046434E+03 -6.987632E+02 -4.836344E+02
       121  25 -7.096224E+05  2.191090E+04  2.432939E+04 -5.116572E+03 -2.360331E+03 -9.601029E+02
       121  26 -7.156234E+05  1.972182E+04  2.148080E+04  2.478343E+03 -1.508230E+03 -7.512513E+02
       121  27 -7.212260E+05  1.842377E+04  1.942313E+04 -5.055861E+03 -6.560075E+02 -4.836630E+02
       122   1 -8.076680E+05 -3.083649E+03 -2.317445E+03 -5.322739E+03  5.662098E+02  3.189998E+02
       122   2 -8.013948E+05 -1.636657E+03 -1.038881E+03  2.884844E+03  2.865103E+02  5.957798E+01
       122   3 -7.950636E+05  2.739846E+01  4.694962E+02 -5.345642E+03  6.804037E+00 -1.993683E+02
       122   4 -7.949614E+05  8.987567E+01  8.321021E+02 -5.337158E+03  5.288285E+02  3.190294E+02
       122   5 -7.949904E+05 -3.528017E+01  5.580078E+02  2.881858E+03  2.491928E+02  5.960823E+01
       122   6 -7.949616E+05  5.664129E+01  5.137054E+02 -5.337184E+03 -3.044689E+01 -1.993373E+02
       122   7 -7.822545E+05  3.263388E+03  3.981637E+03 -5.351577E+03  4.914464E+02  3.190591E+02
       122   8 -7.885861E+05  1.566094E+03  2.154894E+03  2.878872E+03  2.118748E+02  5.963847E+01
       122   9 -7.948596E+05  8.588411E+01  5.579145E+02 -5.328726E+03 -6.769782E+01 -1.993063E+02
       122  10 -8.076680E+05 -3.083649E+03 -2.317446E+03 -5.322739E+03 -3.760957E-10 -1.283587E-10
       122  11 -8.013948E+05 -1.636657E+03 -1.038881E+03  2.884844E+03  1.262144E-09 -6.070108E-10
       122  12 -7.950636E+05  2.739842E+01  4.694962E+02 -5.345642E+03  1.162210E-10  2.876042E-10
       122  13 -7.949614E+05  8.987549E+01  8.321014E+02 -5.337158E+03  2.148548E-10  7.150657E-10
       122  14 -7.949904E+05 -3.528019E+01  5.580077E+02  2.881858E+03  2.419272E-10  7.131278E-10
       122  15 -7.949616E+05  5.664124E+01  5.137053E+02 -5.337184E+03 -1.153775E-09 -8.395097E-10
       122  16 -7.822546E+05  3.263388E+03  3.981637E+03 -5.351577E+03 -6.215499E-10 -4.700418E-10
       122  17 -7.885861E+05  1.566094E+03  2.154894E+03  2.878872E+03 -5.266713E-10  9.045795E-11
       122  18 -7.948596E+05  8.588407E+01  5.579144E+02 -5.328726E+03 -1.999433E-09  4.075894E-10
       122  19 -8.076680E+05 -3.083649E+03 -2.317445E+03 -5.322739E+03 -5.662098E+02 -3.189998E+02
       122  20 -8.013948E+05 -1.636657E+03 -1.038881E+03  2.884844E+03 -2.865103E+02 -5.957798E+01
       122  21 -7.950636E+05  2.739846E+01  4.694962E+02 -5.345642E+03 -6.804037E+00  1.993683E+02
       122  22 -7.949614E+05  8.987567E+01  8.321021E+02 -5.337158E+03 -5.288285E+02 -3.190294E+02
       122  23 -7.949904E+05 -3.528017E+01  5.580078E+02  2.881858E+03 -2.491928E+02 -5.960823E+01
       122  24 -7.949616E+05  5.664129E+01  5.137054E+02 -5.337184E+03  3.044689E+01  1.993373E+02
       122  25 -7.822545E+05  3.263388E+03  3.981637E+03 -5.351577E+03 -4.914464E+02 -3.190591E+02
       122  26 -7.885861E+05  1.566094E+03  2.154894E+03  2.878872E+03 -2.118748E+02 -5.963847E+01
       122  27 -7.948596E+05  8.588411E+01  5.579145E+02 -5.328726E+03  6.769782E+01  1.993063E+02
       123   1 -7.333464E+05  1.541325E+04  1.591174E+04 -5.148850E+03 -8.086764E+01 -3.698886E+02
       123   2 -7.275103E+05  1.679331E+04  1.751943E+04  2.583728E+03 -4.426136E+02 -6.438706E+02
       123   3 -7.214514E+05  1.872584E+04  1.950836E+04 -5.188977E+03 -8.042339E+02 -8.355877E+02
       123   4 -7.949267E+05  1.211185E+01  5.383499E+02 -5.129990E+03 -1.262355E+02 -3.698549E+02
       123   5 -7.950363E+05 -9.035957E+01  6.841125E+02  2.622791E+03 -4.761128E+02 -6.438534E+02
       123   6 -7.949253E+05  3.575930E+02  1.202865E+03 -5.129817E+03 -8.258609E+02 -8.355829E+02
       123   7 -8.565036E+05 -1.538931E+04 -1.483532E+04 -5.111131E+03 -1.715988E+02 -3.698212E+02
       123   8 -8.625582E+05 -1.697437E+04 -1.615155E+04  2.661850E+03 -5.096084E+02 -6.438362E+02
       123   9 -8.683944E+05 -1.801106E+04 -1.710303E+04 -5.070662E+03 -8.474853E+02 -8.355782E+02
       123  10 -7.333464E+05  1.541325E+04  1.591174E+04 -5.148850E+03  2.536581E-09  1.249961E-09
       123  11 -7.275103E+05  1.679330E+04  1.751943E+04  2.583728E+03  3.813157E-09 -3.580903E-10
       123  12 -7.214514E+05  1.872583E+04  1.950835E+04 -5.188978E+03 -5.080501E-10 -3.202349E-10
       123  13 -7.949267E+05  1.211170E+01  5.383496E+02 -5.129990E+03 -2.478236E-09 -2.965254E-10
       123  14 -7.950363E+05 -9.036008E+01  6.841113E+02  2.622791E+03  3.823524E-09 -1.290047E-09
       123  15 -7.949253E+05  3.575920E+02  1.202863E+03 -5.129817E+03 -2.213518E-09  2.445327E-11
       123  16 -8.565036E+05 -1.538931E+04 -1.483532E+04 -5.111132E+03 -1.027047E-09  1.079578E-09
       123  17 -8.625582E+05 -1.697437E+04 -1.615155E+04  2.661850E+03 -5.219388E-10 -1.062740E-09
       123  18 -8.683944E+05 -1.801106E+04 -1.710303E+04 -5.070663E+03  8.585817E-10 -5.107633E-10
       123  19 -7.333464E+05  1.541325E+04  1.591174E+04 -5.148850E+03  8.086764E+01  3.698886E+02
       123  20 -7.275103E+05  1.679331E+04  1.751943E+04  2.583728E+03  4.426136E+02  6.438706E+02
       123  21 -7.214514E+05  1.872584E+04  1.950836E+04 -5.188977E+03  8.042339E+02  8.355877E+02
       123  22 -7.949267E+05  1.211185E+01  5.383499E+02 -5.129990E+03  1.262355E+02  3.698549E+02
       123  23 -7.950363E+05 -9.035957E+01  6.841125E+02  2.622791E+03  4.761128E+02  6.438534E+02
       123  24 -7.949253E+05  3.575930E+02  1.202865E+03 -5.129817E+03  8.258609E+02  8.355829E+02
       123  25 -8.565036E+05 -1.538931E+04 -1.483532E+04 -5.111131E+03  1.715988E+02  3.698212E+02
       123  26 -8.625582E+05 -1.697437E+04 -1.615155E+04  2.661850E+03  5.096084E+02  6.438362E+02
       123  27 -8.683944E+05 -1.801106E+04 -1.710303E+04 -5.070662E+03  8.474853E+02  8.355782E+02
       124   1 -6.672197E+05  3.180994E+04  3.328581E+04 -4.372037E+03 -1.008916E+03 -1.015563E+03
       124   2 -6.630740E+05  3.249710E+04  3.527868E+04  1.712851E+03 -2.271155E+03 -1.286537E+03
       124   3 -6.576567E+05  3.666793E+04  3.901227E+04 -4.663143E+03 -3.533287E+03 -1.234512E+03
       124   4 -7.946975E+05 -6.598649E+01  1.486019E+03 -4.453368E+03 -1.071056E+03 -1.015552E+03
       124   5 -7.953278E+05 -5.687519E+02  2.309386E+03  1.776968E+03 -2.286591E+03 -1.286553E+03
       124   6 -7.946944E+05  2.404424E+03  4.841265E+03 -4.453743E+03 -3.502009E+03 -1.234525E+03
       124   7 -9.221605E+05 -3.194314E+04 -3.031499E+04 -4.534681E+03 -1.133183E+03 -1.015541E+03
       124   8 -9.275657E+05 -3.363592E+04 -3.066122E+04  1.841071E+03 -2.302023E+03 -1.286569E+03
       124   9 -9.317150E+05 -3.186050E+04 -2.933116E+04 -4.244390E+03 -3.470738E+03 -1.234538E+03
       124  10 -6.672197E+05  3.180994E+04  3.328580E+04 -4.372038E+03  3.718059E-10 -1.861369E-10
       124  11 -6.630741E+05  3.249710E+04  3.527867E+04  1.712849E+03 -1.211922E-10  2.392844E-10
       124  12 -6.576567E+05  3.666793E+04  3.901225E+04 -4.663146E+03 -1.757782E-09  6.202353E-11
       124  13 -7.946975E+05 -6.598790E+01  1.486014E+03 -4.453369E+03 -2.203624E-09  4.779067E-11
       124  14 -7.953278E+05 -5.687551E+02  2.309373E+03  1.776966E+03  4.156219E-09  1.549728E-10
       124  15 -7.946944E+05  2.404419E+03  4.841239E+03 -4.453746E+03  2.442816E-11 -4.022983E-11
       124  16 -9.221605E+05 -3.194314E+04 -3.031500E+04 -4.534682E+03 -6.172505E-10  1.204726E-10
       124  17 -9.275657E+05 -3.363593E+04 -3.066124E+04  1.841069E+03 -7.227097E-10  4.375396E-10
       124  18 -9.317150E+05 -3.186051E+04 -2.933118E+04 -4.244393E+03  1.255965E-09  3.575777E-10
       124  19 -6.672197E+05  3.180994E+04  3.328581E+04 -4.372037E+03  1.008916E+03  1.015563E+03
       124  20 -6.630740E+05  3.249710E+04  3.527868E+04  1.712851E+03  2.271155E+03  1.286537E+03
       124  21 -6.576567E+05  3.666793E+04  3.901227E+04 -4.663143E+03  3.533287E+03  1.234512E+03
       124  22 -7.946975E+05 -6.598649E+01  1.486019E+03 -4.453368E+03  1.071056E+03  1.015552E+03
       124  23 -7.953278E+05 -5.687519E+02  2.309386E+03  1.776968E+03  2.286591E+03  1.286553E+03
       124  24 -7.946944E+05  2.404424E+03  4.841265E+03 -4.453743E+03  3.502009E+03  1.234525E+03
       124  25 -9.221605E+05 -3.194314E+04 -3.031499E+04 -4.534681E+03  1.133183E+03  1.015541E+03
       124  26 -9.275657E+05 -3.363592E+04 -3.066122E+04  1.841071E+03  2.302023E+03  1.286569E+03
       124  27 -9.317150E+05 -3.186050E+04 -2.933116E+04 -4.244390E+03  3.470738E+03  1.234538E+03
       125   1 -6.174754E+05  4.347283E+04  4.974117E+04 -2.572365E+03 -4.306312E+03 -1.566659E+03
       125   2 -6.179202E+05  4.101178E+04  5.344324E+04  1.564470E+02 -9.387148E+03 -1.930435E+03
       125   3 -6.115241E+05  6.145106E+04  6.627161E+04 -4.850880E+03 -1.446944E+04 -6.844450E+02
       125   4 -7.934695E+05 -5.311279E+02  5.855296E+03 -3.398179E+03 -4.473325E+03 -1.566742E+03
       125   5 -7.968664E+05 -3.722801E+03  8.852622E+03  4.610385E+02 -9.321288E+03 -1.930427E+03
       125   6 -7.934611E+05  1.594885E+04  2.081623E+04 -3.416028E+03 -1.417069E+04 -6.841608E+02
       125   7 -9.694355E+05 -4.453742E+04 -3.803291E+04 -4.223761E+03 -4.640289E+03 -1.566825E+03
       125   8 -9.757835E+05 -4.845980E+04 -3.574041E+04  7.655366E+02 -9.255447E+03 -1.930419E+03
       125   9 -9.753681E+05 -2.955586E+04 -2.464165E+04 -1.981606E+03 -1.387202E+04 -6.838753E+02
       125  10 -6.174754E+05  4.347282E+04  4.974113E+04 -2.572370E+03 -5.217002E-10 -2.779992E-10
       125  11 -6.179203E+05  4.101175E+04  5.344307E+04  1.564324E+02  2.592259E-09  3.712922E-10
       125  12 -6.115243E+05  6.145101E+04  6.627122E+04 -4.850888E+03  9.400460E-10  4.882346E-10
       125  13 -7.934695E+05 -5.311359E+02  5.855253E+03 -3.398184E+03  6.273443E-10 -8.618194E-10
       125  14 -7.968665E+05 -3.722828E+03  8.852451E+03  4.610240E+02  5.011737E-11  1.617253E-10
       125  15 -7.934613E+05  1.594879E+04  2.081585E+04 -3.416036E+03  4.328382E-09 -3.877998E-10
       125  16 -9.694355E+05 -4.453742E+04 -3.803295E+04 -4.223767E+03  2.218438E-09 -3.291947E-10
       125  17 -9.757836E+05 -4.845982E+04 -3.574058E+04  7.655222E+02 -2.680805E-09  1.436912E-10
       125  18 -9.753683E+05 -2.955591E+04 -2.464201E+04 -1.981614E+03 -5.849331E-11  7.317295E-10
       125  19 -6.174754E+05  4.347283E+04  4.974117E+04 -2.572365E+03  4.306312E+03  1.566659E+03
       125  20 -6.179202E+05  4.101178E+04  5.344324E+04  1.564470E+02  9.387148E+03  1.930435E+03
       125  21 -6.115241E+05  6.145106E+04  6.627161E+04 -4.850880E+03  1.446944E+04  6.844450E+02
       125  22 -7.934695E+05 -5.311279E+02  5.855296E+03 -3.398179E+03  4.473325E+03  1.566742E+03
       125  23 -7.968664E+05 -3.722801E+03  8.852622E+03  4.610385E+02  9.321288E+03  1.930427E+03
       125  24 -7.934611E+05  1.594885E+04  2.081623E+04 -3.416028E+03  1.417069E+04  6.841608E+02
       125  25 -9.694355E+05 -4.453742E+04 -3.803291E+04 -4.223761E+03  4.640289E+03  1.566825E+03
       125  26 -9.757835E+05 -4.845980E+04 -3.574041E+04  7.655366E+02  9.255447E+03  1.930419E+03
       125  27 -9.753681E+05 -2.955586E+04 -2.464165E+04 -1.981606E+03  1.387202E+04  6.838753E+02
       126   1  1.955451E+05 -1.124199E+06  1.926004E+05 -7.014531E+04  7.058132E+03  1.616704E+04
       126   2  1.576827E+05 -1.265943E+06  1.486238E+05 -1.499133E+04  1.986710E+04  9.543479E+03
       126   3  1.212249E+05 -1.406795E+06  1.092701E+05 -7.007840E+04  1.468593E+04  2.866989E+03
       126   4  1.631394E+03 -1.900333E+06  4.665169E+02 -6.851303E+04  7.087682E+03  5.720514E+03
       126   5  1.282907E+02 -1.900010E+06 -3.951349E+03 -1.339398E+04  1.987416E+04  7.720422E+03
       126   6 -1.467448E+03 -1.900309E+06 -9.742175E+03 -6.852296E+04  1.466237E+04  9.665925E+03
       126   7 -1.923275E+05 -2.675919E+06 -1.917118E+05 -6.688238E+04  7.117197E+03 -4.712946E+03
       126   8 -1.574554E+05 -2.533707E+06 -1.565552E+05 -1.179798E+04  1.988121E+04  5.899220E+03
       126   9 -1.241776E+05 -2.393600E+06 -1.287717E+05 -6.696856E+04  1.463884E+04  1.645946E+04
       126  10  1.955450E+05 -1.124199E+06  1.925998E+05 -7.014541E+04  1.513563E-09  5.154233E-11
       126  11  1.576822E+05 -1.265943E+06  1.486229E+05 -1.499148E+04  3.172353E-09 -4.189128E-09
       126  12  1.212247E+05 -1.406795E+06  1.092697E+05 -7.007843E+04 -1.502769E-09  3.128634E-09
       126  13  1.631331E+03 -1.900333E+06  4.663609E+02 -6.851306E+04  4.907053E-10  8.116792E-11
       126  14  1.278509E+02 -1.900010E+06 -3.952202E+03 -1.339410E+04  8.888296E-09 -3.003154E-09
       126  15 -1.467704E+03 -1.900309E+06 -9.742755E+03 -6.852308E+04  5.518001E-09  3.739462E-10
       126  16 -1.923275E+05 -2.675919E+06 -1.917120E+05 -6.688235E+04  1.996779E-10 -6.427771E-10
       126  17 -1.574559E+05 -2.533707E+06 -1.565560E+05 -1.179808E+04  3.854984E-10 -9.688635E-10
       126  18 -1.241779E+05 -2.393601E+06 -1.287726E+05 -6.696876E+04 -2.860297E-09 -3.210561E-09
       126  19  1.955451E+05 -1.124199E+06  1.926004E+05 -7.014531E+04 -7.058132E+03 -1.616704E+04
       126  20  1.576827E+05 -1.265943E+06  1.486238E+05 -1.499133E+04 -1.986710E+04 -9.543479E+03
       126  21  1.212249E+05 -1.406795E+06  1.092701E+05 -7.007840E+04 -1.468593E+04 -2.866989E+03
       126  22  1.631394E+03 -1.900333E+06  4.665169E+02 -6.851303E+04 -7.087682E+03 -5.720514E+03
       126  23  1.282907E+02 -1.900010E+06 -3.951349E+03 -1.339398E+04 -1.987416E+04 -7.720422E+03
       126  24 -1.467448E+03 -1.900309E+06 -9.742175E+03 -6.852296E+04 -1.466237E+04 -9.665925E+03
       126  25 -1.923275E+05 -2.675919E+06 -1.917118E+05 -6.688238E+04 -7.117197E+03  4.712946E+03
       126  26 -1.574554E+05 -2.533707E+06 -1.565552E+05 -1.179798E+04 -1.988121E+04 -5.899220E+03
       126  27 -1.241776E+05 -2.393600E+06 -1.287717E+05 -6.696856E+04 -1.463884E+04 -1.645946E+04
       127   1  7.323311E+04 -1.613281E+06  5.651093E+04 -6.756181E+04  8.609576E+03  9.719680E+03
       127   2  3.869758E+04 -1.753874E+06  1.174271E+04 -1.415780E+04  4.282504E+03  2.127995E+04
       127   3 -1.731674E+04 -1.902356E+06 -4.615649E+04 -7.413078E+04 -5.240869E+02  3.283409E+04
       127   4  1.500410E+03 -1.901887E+06 -1.307586E+04 -6.919076E+04  8.602598E+03  1.165477E+04
       127   5  2.871476E+03 -1.897924E+06 -2.298228E+04 -1.253684E+04  4.274462E+03  2.344244E+04
       127   6 -1.727615E+04 -1.901906E+06 -4.617645E+04 -6.926234E+04 -5.331748E+02  3.522663E+04
       127   7 -7.023837E+04 -2.190417E+06 -8.266859E+04 -7.081888E+04  8.595608E+03  1.358896E+04
       127   8 -3.295613E+04 -2.041955E+06 -5.770873E+04 -1.091625E+04  4.266429E+03  2.560442E+04
       127   9 -1.723548E+04 -1.901457E+06 -4.619638E+04 -6.439389E+04 -5.422251E+02  3.761917E+04
       127  10  7.323300E+04 -1.613281E+06  5.651061E+04 -6.756188E+04 -4.025766E-09  4.438146E-09
       127  11  3.869743E+04 -1.753875E+06  1.174182E+04 -1.415787E+04 -2.772585E-09 -6.314837E-09
       127  12 -1.731703E+04 -1.902357E+06 -4.615852E+04 -7.413077E+04  5.876685E-11 -3.139413E-09
       127  13  1.500294E+03 -1.901888E+06 -1.307625E+04 -6.919084E+04  1.859140E-09  3.687902E-10
       127  14  2.871308E+03 -1.897925E+06 -2.298335E+04 -1.253692E+04 -9.738550E-10 -4.108176E-09
       127  15 -1.727649E+04 -1.901908E+06 -4.617879E+04 -6.926232E+04  2.177375E-10  2.482429E-10
       127  16 -7.023850E+04 -2.190418E+06 -8.266908E+04 -7.081898E+04 -3.151515E-09 -5.404416E-09
       127  17 -3.295633E+04 -2.041956E+06 -5.771000E+04 -1.091633E+04 -1.881966E-09  4.816765E-10
       127  18 -1.723586E+04 -1.901458E+06 -4.619905E+04 -6.439388E+04 -2.639804E-09  2.807266E-09
       127  19  7.323311E+04 -1.613281E+06  5.651093E+04 -6.756181E+04 -8.609576E+03 -9.719680E+03
       127  20  3.869758E+04 -1.753874E+06  1.174271E+04 -1.415780E+04 -4.282504E+03 -2.127995E+04
       127  21 -1.731674E+04 -1.902356E+06 -4.615649E+04 -7.413078E+04  5.240869E+02 -3.283409E+04
       127  22  1.500410E+03 -1.901887E+06 -1.307586E+04 -6.919076E+04 -8.602598E+03 -1.165477E+04
       127  23  2.871476E+03 -1.897924E+06 -2.298228E+04 -1.253684E+04 -4.274462E+03 -2.344244E+04
       127  24 -1.727615E+04 -1.901906E+06 -4.617645E+04 -6.926234E+04  5.331748E+02 -3.522663E+04
       127  25 -7.023837E+04 -2.190417E+06 -8.266859E+04 -7.081888E+04 -8.595608E+03 -1.358896E+04
       127  26 -3.295613E+04 -2.041955E+06 -5.770873E+04 -1.091625E+04 -4.266429E+03 -2.560442E+04
       127  27 -1.723548E+04 -1.901457E+06 -4.619638E+04 -6.439389E+04  5.422251E+02 -3.761917E+04
       128   1 -4.285135E+04 -2.119961E+06 -1.067520E+05 -4.716685E+04 -5.871195E+03  3.852288E+04
       128   2 -6.210429E+04 -2.234260E+06 -1.747966E+05 -2.600200E+04 -1.143425E+04  9.322403E+04
       128   3 -2.866484E+05 -2.407913E+06 -3.300595E+05 -1.176701E+05 -4.793020E+03  1.479559E+05
       128   4  8.834380E+03 -1.913074E+06 -5.666009E+04 -6.890562E+04 -5.893655E+03  4.402203E+04
       128   5  2.484407E+04 -1.884005E+06 -9.051911E+04 -1.278167E+04 -1.143054E+04  9.290346E+04
       128   6 -1.633612E+05 -1.913252E+06 -2.075034E+05 -6.949692E+04 -4.759994E+03  1.418288E+05
       128   7  6.051872E+04 -1.706148E+06 -6.570881E+03 -9.065163E+04 -5.916498E+03  4.952301E+04
       128   8  1.117842E+05 -1.533637E+06 -6.250219E+03  4.462849E+02 -1.142685E+04  9.258269E+04
       128   9 -4.008332E+04 -1.418363E+06 -8.496411E+04 -2.128502E+04 -4.727940E+03  1.356967E+05
       128  10 -4.285178E+04 -2.119962E+06 -1.067549E+05 -4.716667E+04 -4.223236E-10  1.550894E-09
       128  11 -6.210678E+04 -2.234269E+06 -1.748133E+05 -2.600114E+04  1.355016E-09 -4.647587E-09
       128  12 -2.866544E+05 -2.407936E+06 -3.301009E+05 -1.176695E+05 -3.402930E-10 -2.049542E-10
       128  13  8.833821E+03 -1.913077E+06 -5.666381E+04 -6.890541E+04 -2.939944E-09 -1.235983E-10
       128  14  2.484161E+04 -1.884014E+06 -9.053562E+04 -1.278081E+04 -1.410189E-09 -3.996722E-09
       128  15 -1.633666E+05 -1.913274E+06 -2.075414E+05 -6.949638E+04 -4.113782E-10  9.251711E-11
       128  16  6.051802E+04 -1.706151E+06 -6.575568E+03 -9.065140E+04 -1.849115E-09 -2.524979E-09
       128  17  1.117817E+05 -1.533646E+06 -6.266612E+03  4.471374E+02 -6.422145E-11 -1.111965E-09
       128  18 -4.008830E+04 -1.418383E+06 -8.499883E+04 -2.128451E+04  6.693906E-10  2.114792E-10
       128  19 -4.285135E+04 -2.119961E+06 -1.067520E+05 -4.716685E+04  5.871195E+03 -3.852288E+04
       128  20 -6.210429E+04 -2.234260E+06 -1.747966E+05 -2.600200E+04  1.143425E+04 -9.322403E+04
       128  21 -2.866484E+05 -2.407913E+06 -3.300595E+05 -1.176701E+05  4.793020E+03 -1.479559E+05
       128  22  8.834380E+03 -1.913074E+06 -5.666009E+04 -6.890562E+04  5.893655E+03 -4.402203E+04
       128  23  2.484407E+04 -1.884005E+06 -9.051911E+04 -1.278167E+04  1.143054E+04 -9.290346E+04
       128  24 -1.633612E+05 -1.913252E+06 -2.075034E+05 -6.949692E+04  4.759994E+03 -1.418288E+05
       128  25  6.051872E+04 -1.706148E+06 -6.570881E+03 -9.065163E+04  5.916498E+03 -4.952301E+04
       128  26  1.117842E+05 -1.533637E+06 -6.250219E+03  4.462849E+02  1.142685E+04 -9.258269E+04
       128  27 -4.008332E+04 -1.418363E+06 -8.496411E+04 -2.128502E+04  4.727940E+03 -1.356967E+05
       129   1 -1.948548E+06 -2.546232E+05 -3.020668E+04 -7.336784E+05 -1.331334E+05 -5.347121E+04
       129   2 -1.905194E+06 -1.045285E+05  8.750637E+04 -8.215778E+05 -8.407187E+04 -4.030128E+04
       129   3 -1.999094E+06 -1.104326E+05  1.127817E+05 -7.869582E+05 -3.783505E+04 -1.970513E+04
       129   4 -2.621985E+06 -4.966556E+05 -2.134694E+05 -9.037543E+05 -1.341580E+05 -5.386303E+04
       129   5 -2.542452E+06 -3.439258E+05 -8.752670E+04 -9.932263E+05 -8.414871E+04 -4.033172E+04
       129   6 -2.600456E+06 -3.475177E+05 -5.485609E+04 -9.601522E+05 -3.696233E+04 -1.937148E+04
       129   7 -3.294988E+06 -7.386734E+05 -3.967725E+05 -1.073669E+06 -1.351813E+05 -5.425442E+04
       129   8 -3.179321E+06 -5.833019E+05 -2.625969E+05 -1.164717E+06 -8.422543E+04 -4.036212E+04
       129   9 -3.201471E+06 -5.845749E+05 -2.225280E+05 -1.133192E+06 -3.609053E+04 -1.903820E+04
       129  10 -1.948568E+06 -2.546310E+05 -3.024550E+04 -7.336841E+05 -9.911427E-10 -1.209517E-09
       129  11 -1.905202E+06 -1.045322E+05  8.748998E+04 -8.215805E+05 -5.600912E-10 -1.678564E-09
       129  12 -1.999096E+06 -1.104334E+05  1.127783E+05 -7.869588E+05  3.464118E-10  1.885424E-11
       129  13 -2.622005E+06 -4.966636E+05 -2.135089E+05 -9.037601E+05  2.317834E-09  1.181240E-09
       129  14 -2.542460E+06 -3.439295E+05 -8.754314E+04 -9.932290E+05  3.882898E-09 -6.349318E-09
       129  15 -2.600458E+06 -3.475185E+05 -5.485938E+04 -9.601528E+05 -7.274675E-12  2.888258E-09
       129  16 -3.295008E+06 -7.386816E+05 -3.968126E+05 -1.073675E+06  1.011554E-10  1.920896E-09
       129  17 -3.179329E+06 -5.833056E+05 -2.626134E+05 -1.164720E+06 -2.577469E-09  3.875613E-09
       129  18 -3.201472E+06 -5.845757E+05 -2.225312E+05 -1.133193E+06 -1.085188E-10 -1.051825E-09
       129  19 -1.948548E+06 -2.546232E+05 -3.020668E+04 -7.336784E+05  1.331334E+05  5.347121E+04
       129  20 -1.905194E+06 -1.045285E+05  8.750637E+04 -8.215778E+05  8.407187E+04  4.030128E+04
       129  21 -1.999094E+06 -1.104326E+05  1.127817E+05 -7.869582E+05  3.783505E+04  1.970513E+04
       129  22 -2.621985E+06 -4.966556E+05 -2.134694E+05 -9.037543E+05  1.341580E+05  5.386303E+04
       129  23 -2.542452E+06 -3.439258E+05 -8.752670E+04 -9.932263E+05  8.414871E+04  4.033172E+04
       129  24 -2.600456E+06 -3.475177E+05 -5.485609E+04 -9.601522E+05  3.696233E+04  1.937148E+04
       129  25 -3.294988E+06 -7.386734E+05 -3.967725E+05 -1.073669E+06  1.351813E+05  5.425442E+04
       129  26 -3.179321E+06 -5.833019E+05 -2.625969E+05 -1.164717E+06  8.422543E+04  4.036212E+04
       129  27 -3.201471E+06 -5.845749E+05 -2.225280E+05 -1.133192E+06  3.609053E+04  1.903820E+04
       130   1 -2.430131E+06 -3.013582E+05  1.634061E+03 -8.917795E+05 -2.954124E+04 -1.403195E+04
       130   2 -2.421338E+06 -3.355611E+05  1.450952E+04 -9.631859E+05 -1.919314E+04 -8.974352E+03
       130   3 -2.519009E+06 -3.106528E+05  1.023382E+04 -9.227022E+05 -9.316473E+03 -2.692278E+03
       130   4 -2.603006E+06 -3.654518E+05 -4.565130E+04 -9.374864E+05 -2.948928E+04 -1.401225E+04
       130   5 -2.548081E+06 -3.836316E+05 -2.040624E+04 -9.977747E+05 -1.897967E+04 -8.892625E+03
       130   6 -2.599660E+06 -3.427361E+05 -1.244517E+04 -9.461720E+05 -8.940670E+03 -2.548137E+03
       130   7 -2.775853E+06 -4.295441E+05 -9.293936E+04 -9.831820E+05 -2.943734E+04 -1.399255E+04
       130   8 -2.674810E+06 -4.317011E+05 -5.532348E+04 -1.032357E+06 -1.876625E+04 -8.810917E+03
       130   9 -2.680305E+06 -3.748188E+05 -3.512477E+04 -9.696390E+05 -8.564921E+03 -2.404018E+03
       130  10 -2.430132E+06 -3.013586E+05  1.632042E+03 -8.917799E+05 -1.677363E-09  2.626250E-09
       130  11 -2.421338E+06 -3.355613E+05  1.450868E+04 -9.631860E+05 -1.821112E-09  3.627193E-09
       130  12 -2.519009E+06 -3.106529E+05  1.023364E+04 -9.227022E+05  2.969093E-10  5.633496E-09
       130  13 -2.603007E+06 -3.654523E+05 -4.565331E+04 -9.374868E+05 -1.414301E-09  3.809314E-09
       130  14 -2.548082E+06 -3.836317E+05 -2.040707E+04 -9.977749E+05  7.844688E-10 -5.854934E-09
       130  15 -2.599660E+06 -3.427361E+05 -1.244534E+04 -9.461720E+05 -6.803488E-10  1.486865E-09
       130  16 -2.775854E+06 -4.295446E+05 -9.294137E+04 -9.831823E+05 -1.119581E-09  7.868214E-09
       130  17 -2.674810E+06 -4.317013E+05 -5.532429E+04 -1.032357E+06 -2.261147E-09  7.932704E-09
       130  18 -2.680305E+06 -3.748189E+05 -3.512492E+04 -9.696390E+05 -4.989536E-09  4.731779E-09
       130  19 -2.430131E+06 -3.013582E+05  1.634061E+03 -8.917795E+05  2.954124E+04  1.403195E+04
       130  20 -2.421338E+06 -3.355611E+05  1.450952E+04 -9.631859E+05  1.919314E+04  8.974352E+03
       130  21 -2.519009E+06 -3.106528E+05  1.023382E+04 -9.227022E+05  9.316473E+03  2.692278E+03
       130  22 -2.603006E+06 -3.654518E+05 -4.565130E+04 -9.374864E+05  2.948928E+04  1.401225E+04
       130  23 -2.548081E+06 -3.836316E+05 -2.040624E+04 -9.977747E+05  1.897967E+04  8.892625E+03
       130  24 -2.599660E+06 -3.427361E+05 -1.244517E+04 -9.461720E+05  8.940670E+03  2.548137E+03
       130  25 -2.775853E+06 -4.295441E+05 -9.293936E+04 -9.831820E+05  2.943734E+04  1.399255E+04
       130  26 -2.674810E+06 -4.317011E+05 -5.532348E+04 -1.032357E+06  1.876625E+04  8.810917E+03
       130  27 -2.680305E+06 -3.748188E+05 -3.512477E+04 -9.696390E+05  8.564921E+03  2.404018E+03
       131   1 -3.005513E+06 -5.074040E+05 -1.236557E+05 -1.061687E+06 -8.114478E+03 -3.159044E+02
       131   2 -3.005218E+06 -5.562634E+05 -1.292233E+05 -1.116706E+06 -6.192737E+03  2.809446E+03
       131   3 -3.081402E+06 -5.324891E+05 -1.375063E+05 -1.082430E+06 -3.859247E+03  4.868855E+03
       131   4 -2.594465E+06 -3.494125E+05 -9.759393E+03 -9.475092E+05 -7.766693E+03 -1.827696E+02
       131   5 -2.556008E+06 -3.843757E+05 -5.083440E+03 -9.926636E+05 -5.986443E+03  2.887959E+03
       131   6 -2.593995E+06 -3.466768E+05 -3.007897E+03 -9.485275E+05 -3.794406E+03  4.893188E+03
       131   7 -2.183255E+06 -1.914102E+05  1.041213E+05 -8.332632E+05 -7.418651E+03 -4.953567E+01
       131   8 -2.106603E+06 -2.124756E+05  1.190378E+05 -8.685401E+05 -5.779981E+03  2.966535E+03
       131   9 -2.106359E+06 -1.608504E+05  1.314686E+05 -8.145300E+05 -3.729509E+03  4.917542E+03
       131  10 -3.005513E+06 -5.074040E+05 -1.236558E+05 -1.061687E+06  3.500488E-10  1.270925E-09
       131  11 -3.005218E+06 -5.562634E+05 -1.292234E+05 -1.116706E+06 -5.892477E-10 -3.401417E-09
       131  12 -3.081402E+06 -5.324891E+05 -1.375064E+05 -1.082430E+06  1.855459E-09 -1.162794E-09
       131  13 -2.594465E+06 -3.494125E+05 -9.759507E+03 -9.475092E+05 -2.145263E-09 -3.309417E-09
       131  14 -2.556008E+06 -3.843757E+05 -5.083523E+03 -9.926636E+05 -5.429676E-10  2.115927E-09
       131  15 -2.593995E+06 -3.466768E+05 -3.007969E+03 -9.485274E+05  8.438371E-10 -1.170847E-09
       131  16 -2.183255E+06 -1.914102E+05  1.041212E+05 -8.332632E+05  2.089957E-10 -3.091762E-09
       131  17 -2.106603E+06 -2.124757E+05  1.190377E+05 -8.685400E+05 -1.102946E-09 -1.837451E-09
       131  18 -2.106359E+06 -1.608504E+05  1.314685E+05 -8.145300E+05  1.354368E-10  7.976874E-10
       131  19 -3.005513E+06 -5.074040E+05 -1.236557E+05 -1.061687E+06  8.114478E+03  3.159044E+02
       131  20 -3.005218E+06 -5.562634E+05 -1.292233E+05 -1.116706E+06  6.192737E+03 -2.809446E+03
       131  21 -3.081402E+06 -5.324891E+05 -1.375063E+05 -1.082430E+06  3.859247E+03 -4.868855E+03
       131  22 -2.594465E+06 -3.494125E+05 -9.759393E+03 -9.475092E+05  7.766693E+03  1.827696E+02
       131  23 -2.556008E+06 -3.843757E+05 -5.083440E+03 -9.926636E+05  5.986443E+03 -2.887959E+03
       131  24 -2.593995E+06 -3.466768E+05 -3.007897E+03 -9.485275E+05  3.794406E+03 -4.893188E+03
       131  25 -2.183255E+06 -1.914102E+05  1.041213E+05 -8.332632E+05  7.418651E+03  4.953567E+01
       131  26 -2.106603E+06 -2.124756E+05  1.190378E+05 -8.685401E+05  5.779981E+03 -2.966535E+03
       131  27 -2.106359E+06 -1.608504E+05  1.314686E+05 -8.145300E+05  3.729509E+03 -4.917542E+03
       132   1 -3.352208E+06 -6.535125E+05 -2.154490E+05 -1.174208E+06 -4.158192E+03  5.797139E+03
       132   2 -3.357998E+06 -6.672954E+05 -2.186267E+05 -1.189469E+06 -3.369331E+03  7.761817E+03
       132   3 -3.374220E+06 -6.592933E+05 -2.204739E+05 -1.177566E+06 -1.795683E+03  7.652462E+03
       132   4 -2.579573E+06 -3.589319E+05 -1.979824E+03 -9.620193E+05 -3.824812E+03  5.923028E+03
       132   5 -2.574376E+06 -3.698605E+05 -2.518503E+03 -9.755921E+05 -3.312761E+03  7.782363E+03
       132   6 -2.579546E+06 -3.589427E+05 -1.504602E+03 -9.620021E+05 -2.016379E+03  7.568940E+03
       132   7 -1.806365E+06 -6.431582E+04  2.114341E+05 -7.495919E+05 -3.490971E+03  6.049093E+03
       132   8 -1.790166E+06 -7.239059E+04  2.135329E+05 -7.614716E+05 -3.256112E+03  7.802939E+03
       132   9 -1.784266E+06 -5.855738E+04  2.174063E+05 -7.461894E+05 -2.237389E+03  7.485301E+03
       132  10 -3.352208E+06 -6.535126E+05 -2.154491E+05 -1.174208E+06 -2.388230E-11 -1.455640E-09
       132  11 -3.357998E+06 -6.672955E+05 -2.186268E+05 -1.189469E+06 -3.433831E-09  3.384198E-09
       132  12 -3.374220E+06 -6.592934E+05 -2.204740E+05 -1.177566E+06 -3.196908E-10  3.542331E-10
       132  13 -2.579573E+06 -3.589319E+05 -1.979917E+03 -9.620193E+05  9.098441E-10 -3.184530E-09
       132  14 -2.574376E+06 -3.698606E+05 -2.518638E+03 -9.755920E+05  1.888782E-09  1.856661E-09
       132  15 -2.579546E+06 -3.589428E+05 -1.504717E+03 -9.620021E+05 -1.643522E-10 -1.153777E-09
       132  16 -1.806365E+06 -6.431586E+04  2.114340E+05 -7.495919E+05 -1.426088E-09  1.343711E-09
       132  17 -1.790166E+06 -7.239065E+04  2.135327E+05 -7.614716E+05  1.297961E-09 -1.811683E-09
       132  18 -1.784266E+06 -5.855744E+04  2.174062E+05 -7.461894E+05  1.606603E-09 -2.651322E-09
       132  19 -3.352208E+06 -6.535125E+05 -2.154490E+05 -1.174208E+06  4.158192E+03 -5.797139E+03
       132  20 -3.357998E+06 -6.672954E+05 -2.186267E+05 -1.189469E+06  3.369331E+03 -7.761817E+03
       132  21 -3.374220E+06 -6.592933E+05 -2.204739E+05 -1.177566E+06  1.795683E+03 -7.652462E+03
       132  22 -2.579573E+06 -3.589319E+05 -1.979824E+03 -9.620193E+05  3.824812E+03 -5.923028E+03
       132  23 -2.574376E+06 -3.698605E+05 -2.518503E+03 -9.755921E+05  3.312761E+03 -7.782363E+03
       132  24 -2.579546E+06 -3.589427E+05 -1.504602E+03 -9.620021E+05  2.016379E+03 -7.568940E+03
       132  25 -1.806365E+06 -6.431582E+04  2.114341E+05 -7.495919E+05  3.490971E+03 -6.049093E+03
       132  26 -1.790166E+06 -7.239059E+04  2.135329E+05 -7.614716E+05  3.256112E+03 -7.802939E+03
       132  27 -1.784266E+06 -5.855738E+04  2.174063E+05 -7.461894E+05  2.237389E+03 -7.485301E+03
       133   1 -3.282641E+06 -6.447297E+05 -1.995027E+05 -1.173580E+06 -1.883315E+03  7.342895E+03
       133   2 -3.287086E+06 -6.121679E+05 -1.951595E+05 -1.141157E+06  2.682951E+02  8.074897E+03
       133   3 -3.238180E+06 -6.266939E+05 -1.910698E+05 -1.159040E+06  3.098562E+03  6.969562E+03
       133   4 -2.565293E+06 -3.739404E+05 -1.960834E+03 -9.793137E+05 -1.767739E+03  7.385446E+03
       133   5 -2.592085E+06 -3.508590E+05 -3.997960E+03 -9.540161E+05  1.396040E+02  8.026420E+03
       133   6 -2.565473E+06 -3.748064E+05 -6.092107E+03 -9.790203E+05  2.725154E+03  6.831012E+03
       133   7 -1.847451E+06 -1.031224E+05  1.955341E+05 -7.848441E+05 -1.652017E+03  7.428052E+03
       133   8 -1.896620E+06 -8.952395E+04  1.871196E+05 -7.666862E+05  1.075124E+01  7.977884E+03
       133   9 -1.892332E+06 -1.228954E+05  1.788443E+05 -7.988251E+05  2.351296E+03  6.692296E+03
       133  10 -3.282641E+06 -6.447297E+05 -1.995028E+05 -1.173580E+06 -3.865040E-10 -3.327671E-09
       133  11 -3.287086E+06 -6.121679E+05 -1.951596E+05 -1.141157E+06 -9.212900E-10 -7.589493E-09
       133  12 -3.238180E+06 -6.266940E+05 -1.910699E+05 -1.159040E+06 -2.490709E-09 -2.852474E-09
       133  13 -2.565293E+06 -3.739405E+05 -1.960942E+03 -9.793137E+05 -3.493358E-10 -1.785032E-09
       133  14 -2.592085E+06 -3.508591E+05 -3.998081E+03 -9.540161E+05 -6.450664E-11  9.156127E-10
       133  15 -2.565473E+06 -3.748065E+05 -6.092209E+03 -9.790203E+05 -1.991733E-10 -3.821129E-09
       133  16 -1.847451E+06 -1.031224E+05  1.955340E+05 -7.848441E+05  1.259860E-09 -2.473495E-10
       133  17 -1.896620E+06 -8.952401E+04  1.871194E+05 -7.666862E+05  1.448459E-09  5.950352E-09
       133  18 -1.892332E+06 -1.228955E+05  1.788442E+05 -7.988251E+05  5.029953E-10  3.776612E-09
       133  19 -3.282641E+06 -6.447297E+05 -1.995027E+05 -1.173580E+06  1.883315E+03 -7.342895E+03
       133  20 -3.287086E+06 -6.121679E+05 -1.951595E+05 -1.141157E+06 -2.682951E+02 -8.074897E+03
       133  21 -3.238180E+06 -6.266939E+05 -1.910698E+05 -1.159040E+06 -3.098562E+03 -6.969562E+03
       133  22 -2.565293E+06 -3.739404E+05 -1.960834E+03 -9.793137E+05  1.767739E+03 -7.385446E+03
       133  23 -2.592085E+06 -3.508590E+05 -3.997960E+03 -9.540161E+05 -1.396040E+02 -8.026420E+03
       133  24 -2.565473E+06 -3.748064E+05 -6.092107E+03 -9.790203E+05 -2.725154E+03 -6.831012E+03
       133  25 -1.847451E+06 -1.031224E+05  1.955341E+05 -7.848441E+05  1.652017E+03 -7.428052E+03
       133  26 -1.896620E+06 -8.952395E+04  1.871196E+05 -7.666862E+05 -1.075124E+01 -7.977884E+03
       133  27 -1.892332E+06 -1.228954E+05  1.788443E+05 -7.988251E+05 -2.351296E+03 -6.692296E+03
       134   1 -2.831347E+06 -4.857523E+05 -8.328659E+04 -1.064606E+06  4.512034E+03  6.051797E+03
       134   2 -2.829449E+06 -4.222842E+05 -7.706632E+04 -1.001262E+06  1.251875E+04  7.212521E+03
       134   3 -2.746152E+06 -4.616933E+05 -8.044210E+04 -1.036165E+06  2.069924E+04  7.895877E+03
       134   4 -2.558574E+06 -3.831920E+05 -8.382544E+03 -9.910997E+05  4.333649E+03  5.985836E+03
       134   5 -2.599975E+06 -3.366996E+05 -1.410140E+04 -9.401730E+05  1.227887E+04  7.124062E+03
       134   6 -2.559968E+06 -3.930672E+05 -2.936529E+04 -9.874925E+05  2.039727E+04  7.784782E+03
       134   7 -2.285729E+06 -2.806277E+05  6.651459E+04 -9.175640E+05  4.155177E+03  5.919841E+03
       134   8 -2.370451E+06 -2.511125E+05  4.885870E+04 -8.790634E+05  1.203889E+04  7.035568E+03
       134   9 -2.373752E+06 -3.244397E+05  2.170840E+04 -9.388067E+05  2.009521E+04  7.673651E+03
       134  10 -2.831347E+06 -4.857524E+05 -8.328670E+04 -1.064606E+06  1.487326E-09  3.695864E-10
       134  11 -2.829449E+06 -4.222843E+05 -7.706672E+04 -1.001262E+06  2.549291E-09  9.687611E-09
       134  12 -2.746152E+06 -4.616934E+05 -8.044303E+04 -1.036165E+06 -6.305445E-10  2.821068E-09
       134  13 -2.558574E+06 -3.831920E+05 -8.382647E+03 -9.910997E+05 -2.591009E-09 -1.929998E-09
       134  14 -2.599976E+06 -3.366997E+05 -1.410178E+04 -9.401731E+05  7.107747E-09  7.895937E-09
       134  15 -2.559969E+06 -3.930674E+05 -2.936619E+04 -9.874927E+05  8.242174E-10  6.900311E-09
       134  16 -2.285729E+06 -2.806278E+05  6.651450E+04 -9.175640E+05 -4.434502E-09 -6.021374E-09
       134  17 -2.370452E+06 -2.511126E+05  4.885833E+04 -8.790635E+05 -8.130542E-10 -1.016463E-08
       134  18 -2.373752E+06 -3.244398E+05  2.170752E+04 -9.388069E+05  1.359743E-09  5.321612E-09
       134  19 -2.831347E+06 -4.857523E+05 -8.328659E+04 -1.064606E+06 -4.512034E+03 -6.051797E+03
       134  20 -2.829449E+06 -4.222842E+05 -7.706632E+04 -1.001262E+06 -1.251875E+04 -7.212521E+03
       134  21 -2.746152E+06 -4.616933E+05 -8.044210E+04 -1.036165E+06 -2.069924E+04 -7.895877E+03
       134  22 -2.558574E+06 -3.831920E+05 -8.382544E+03 -9.910997E+05 -4.333649E+03 -5.985836E+03
       134  23 -2.599975E+06 -3.366996E+05 -1.410140E+04 -9.401730E+05 -1.227887E+04 -7.124062E+03
       134  24 -2.559968E+06 -3.930672E+05 -2.936529E+04 -9.874925E+05 -2.039727E+04 -7.784782E+03
       134  25 -2.285729E+06 -2.806277E+05  6.651459E+04 -9.175640E+05 -4.155177E+03 -5.919841E+03
       134  26 -2.370451E+06 -2.511125E+05  4.885870E+04 -8.790634E+05 -1.203889E+04 -7.035568E+03
       134  27 -2.373752E+06 -3.244397E+05  2.170840E+04 -9.388067E+05 -2.009521E+04 -7.673651E+03
       135   1 -2.241122E+06 -2.626290E+05  5.167401E+04 -9.092978E+05  2.695289E+04  8.253457E+03
       135   2 -2.229766E+06 -1.881906E+05  3.852890E+04 -8.467103E+05  6.002870E+04  1.784055E+04
       135   3 -2.175684E+06 -2.933042E+05 -2.496495E+04 -8.539648E+05  9.239432E+04  2.936859E+04
       135   4 -2.564505E+06 -3.802231E+05 -3.659841E+04 -9.922179E+05  2.650568E+04  8.089050E+03
       135   5 -2.590533E+06 -3.245373E+05 -6.077293E+04 -9.446856E+05  5.982390E+04  1.776464E+04
       135   6 -2.573907E+06 -4.484921E+05 -1.355129E+05 -9.669946E+05  9.242962E+04  2.938030E+04
       135   7 -2.887788E+06 -4.978132E+05 -1.248802E+05 -1.075100E+06  2.605872E+04  7.924731E+03
       135   8 -2.951176E+06 -4.608766E+05 -1.600867E+05 -1.042609E+06  5.961922E+04  1.768877E+04
       135   9 -2.971977E+06 -6.036684E+05 -2.460757E+05 -1.079958E+06  9.246487E+04  2.939200E+04
       135  10 -2.241122E+06 -2.626293E+05  5.167252E+04 -9.092979E+05 -1.634040E-09  4.775679E-09
       135  11 -2.229770E+06 -1.881919E+05  3.852150E+04 -8.467112E+05 -9.591762E-10  1.302166E-08
       135  12 -2.175694E+06 -2.933075E+05 -2.498269E+04 -8.539670E+05  1.944878E-09  4.493212E-09
       135  13 -2.564506E+06 -3.802234E+05 -3.659986E+04 -9.922181E+05 -1.512907E-09  5.953439E-09
       135  14 -2.590537E+06 -3.245386E+05 -6.078029E+04 -9.446865E+05 -3.024030E-09 -1.311918E-09
       135  15 -2.573916E+06 -4.484954E+05 -1.355307E+05 -9.669968E+05 -3.201042E-09  3.580951E-09
       135  16 -2.887789E+06 -4.978134E+05 -1.248816E+05 -1.075100E+06 -1.576354E-09  1.039241E-08
       135  17 -2.951180E+06 -4.608779E+05 -1.600940E+05 -1.042610E+06 -1.118090E-09 -7.287257E-09
       135  18 -2.971987E+06 -6.036716E+05 -2.460935E+05 -1.079960E+06 -3.082126E-09 -1.801749E-09
       135  19 -2.241122E+06 -2.626290E+05  5.167401E+04 -9.092978E+05 -2.695289E+04 -8.253457E+03
       135  20 -2.229766E+06 -1.881906E+05  3.852890E+04 -8.467103E+05 -6.002870E+04 -1.784055E+04
       135  21 -2.175684E+06 -2.933042E+05 -2.496495E+04 -8.539648E+05 -9.239432E+04 -2.936859E+04
       135  22 -2.564505E+06 -3.802231E+05 -3.659841E+04 -9.922179E+05 -2.650568E+04 -8.089050E+03
       135  23 -2.590533E+06 -3.245373E+05 -6.077293E+04 -9.446856E+05 -5.982390E+04 -1.776464E+04
       135  24 -2.573907E+06 -4.484921E+05 -1.355129E+05 -9.669946E+05 -9.242962E+04 -2.938030E+04
       135  25 -2.887788E+06 -4.978132E+05 -1.248802E+05 -1.075100E+06 -2.605872E+04 -7.924731E+03
       135  26 -2.951176E+06 -4.608766E+05 -1.600867E+05 -1.042609E+06 -5.961922E+04 -1.768877E+04
       135  27 -2.971977E+06 -6.036684E+05 -2.460757E+05 -1.079958E+06 -9.246487E+04 -2.939200E+04
       136   1 -1.848029E+06 -9.730926E+04  4.017513E+04 -8.127796E+05  1.189416E+05  3.708706E+04
       136   2 -1.777899E+06  4.397347E+04 -5.156545E+04 -7.656608E+05  2.623227E+05  8.812970E+04
       136   3 -1.926291E+06 -4.836288E+05 -4.224604E+05 -5.847772E+05  4.025765E+05  1.475680E+05
       136   4 -2.604654E+06 -3.609459E+05 -1.637588E+05 -9.950243E+05  1.180157E+05  3.674791E+04
       136   5 -2.526671E+06 -2.483571E+05 -2.594399E+05 -9.787523E+05  2.623586E+05  8.813678E+04
       136   6 -2.667698E+06 -8.053281E+05 -6.353070E+05 -8.286375E+05  4.035741E+05  1.479081E+05
       136   7 -3.360732E+06 -6.245714E+05 -3.677429E+05 -1.177078E+06  1.170909E+05  3.640912E+04
       136   8 -3.274905E+06 -5.406456E+05 -4.673664E+05 -1.191608E+06  2.623943E+05  8.814375E+04
       136   9 -3.408569E+06 -1.126945E+06 -8.482067E+05 -1.072217E+06  4.045701E+05  1.482475E+05
       136  10 -1.848044E+06 -9.731456E+04  4.014585E+04 -8.127832E+05  5.789425E-10 -1.156600E-09
       136  11 -1.777975E+06  4.394656E+04 -5.170985E+04 -7.656795E+05 -5.039655E-10 -2.689205E-10
       136  12 -1.926472E+06 -4.836960E+05 -4.228071E+05 -5.848252E+05 -1.433661E-09  8.223489E-10
       136  13 -2.604669E+06 -3.609512E+05 -1.637876E+05 -9.950278E+05  2.431640E-09  9.646761E-09
       136  14 -2.526748E+06 -2.483841E+05 -2.595845E+05 -9.787710E+05 -1.073041E-09  2.143687E-11
       136  15 -2.667880E+06 -8.053957E+05 -6.356558E+05 -8.286858E+05  2.691847E-10  4.702798E-10
       136  16 -3.360747E+06 -6.245765E+05 -3.677713E+05 -1.177081E+06 -1.429032E-09  4.758768E-09
       136  17 -3.274981E+06 -5.406726E+05 -4.675112E+05 -1.191627E+06  2.992940E-09  1.877160E-09
       136  18 -3.408752E+06 -1.127013E+06 -8.485577E+05 -1.072265E+06 -6.400859E-10 -6.074903E-11
       136  19 -1.848029E+06 -9.730926E+04  4.017513E+04 -8.127796E+05 -1.189416E+05 -3.708706E+04
       136  20 -1.777899E+06  4.397347E+04 -5.156545E+04 -7.656608E+05 -2.623227E+05 -8.812970E+04
       136  21 -1.926291E+06 -4.836288E+05 -4.224604E+05 -5.847772E+05 -4.025765E+05 -1.475680E+05
       136  22 -2.604654E+06 -3.609459E+05 -1.637588E+05 -9.950243E+05 -1.180157E+05 -3.674791E+04
       136  23 -2.526671E+06 -2.483571E+05 -2.594399E+05 -9.787523E+05 -2.623586E+05 -8.813678E+04
       136  24 -2.667698E+06 -8.053281E+05 -6.353070E+05 -8.286375E+05 -4.035741E+05 -1.479081E+05
       136  25 -3.360732E+06 -6.245714E+05 -3.677429E+05 -1.177078E+06 -1.170909E+05 -3.640912E+04
       136  26 -3.274905E+06 -5.406456E+05 -4.673664E+05 -1.191608E+06 -2.623943E+05 -8.814375E+04
       136  27 -3.408569E+06 -1.126945E+06 -8.482067E+05 -1.072217E+06 -4.045701E+05 -1.482475E+05
       137   1 -7.798151E+05  7.881290E+03  1.867724E+04  1.865447E+03  3.123688E+04  4.343022E+02
       137   2 -7.859646E+05 -3.536737E+04 -7.425866E+03  5.247630E+02  2.063172E+04  1.180093E+03
       137   3 -7.779347E+05 -2.811571E+04 -1.395890E+04 -3.300012E+03  1.002735E+04  9.951700E+02
       137   4 -6.702339E+05  3.528079E+04  4.605490E+04 -1.556105E+03  3.141673E+04  4.343298E+02
       137   5 -6.773409E+05 -8.212933E+03  1.964281E+04 -2.932606E+02  2.067600E+04  1.180091E+03
       137   6 -6.702472E+05 -1.187491E+03  1.289258E+04 -1.514460E+03  9.936069E+03  9.951227E+02
       137   7 -5.606418E+05  6.267943E+04  7.343166E+04 -4.978265E+03  3.159661E+04  4.343555E+02
       137   8 -5.687064E+05  1.894062E+04  4.671060E+04 -1.111430E+03  2.072028E+04  1.180090E+03
       137   9 -5.625492E+05  2.573987E+04  3.974318E+04  2.713992E+02  9.844774E+03  9.950748E+02
       137  10 -7.798162E+05  7.881027E+03  1.867541E+04  1.865436E+03  8.983120E-10 -1.244748E-09
       137  11 -7.859651E+05 -3.536748E+04 -7.426669E+03  5.247433E+02  1.971984E-10  4.666114E-11
       137  12 -7.779348E+05 -2.811574E+04 -1.395909E+04 -3.300020E+03  4.007352E-09 -1.296305E-09
       137  13 -6.702350E+05  3.528053E+04  4.605305E+04 -1.556116E+03  9.964845E-10  6.971412E-10
       137  14 -6.773414E+05 -8.213049E+03  1.964201E+04 -2.932802E+02  8.948335E-10 -2.833520E-10
       137  15 -6.702473E+05 -1.187519E+03  1.289239E+04 -1.514468E+03  2.643127E-09 -1.448664E-09
       137  16 -5.606429E+05  6.267917E+04  7.342979E+04 -4.978276E+03 -4.781244E-10  1.036108E-09
       137  17 -5.687069E+05  1.894050E+04  4.670979E+04 -1.111450E+03 -6.217590E-10 -8.988913E-11
       137  18 -5.625493E+05  2.573984E+04  3.974300E+04  2.713913E+02 -7.310214E-10  8.161983E-10
       137  19 -7.798151E+05  7.881290E+03  1.867724E+04  1.865447E+03 -3.123688E+04 -4.343022E+02
       137  20 -7.859646E+05 -3.536737E+04 -7.425866E+03  5.247630E+02 -2.063172E+04 -1.180093E+03
       137  21 -7.779347E+05 -2.811571E+04 -1.395890E+04 -3.300012E+03 -1.002735E+04 -9.951700E+02
       137  22 -6.702339E+05  3.528079E+04  4.605490E+04 -1.556105E+03 -3.141673E+04 -4.343298E+02
       137  23 -6.773409E+05 -8.212933E+03  1.964281E+04 -2.932606E+02 -2.067600E+04 -1.180091E+03
       137  24 -6.702472E+05 -1.187491E+03  1.289258E+04 -1.514460E+03 -9.936069E+03 -9.951227E+02
       137  25 -5.606418E+05  6.267943E+04  7.343166E+04 -4.978265E+03 -3.159661E+04 -4.343555E+02
       137  26 -5.687064E+05  1.894062E+04  4.671060E+04 -1.111430E+03 -2.072028E+04 -1.180090E+03
       137  27 -5.625492E+05  2.573987E+04  3.974318E+04  2.713992E+02 -9.844774E+03 -9.950748E+02
       138   1 -7.662107E+05 -1.799338E+04 -1.261852E+04 -1.626806E+03  7.780614E+03  8.217831E+02
       138   2 -7.654754E+05 -2.410338E+04 -1.773928E+04  5.118762E+02  5.155349E+03  8.861482E+02
       138   3 -7.623628E+05 -2.255254E+04 -1.921007E+04 -2.370690E+03  2.530136E+03  7.617455E+02
       138   4 -6.728695E+05  5.344558E+03  1.065865E+04 -2.093585E+03  7.804474E+03  8.217829E+02
       138   5 -6.740619E+05 -1.248316E+03  5.049501E+03  4.185779E+02  5.151701E+03  8.861376E+02
       138   6 -6.728724E+05 -1.761696E+02  3.109068E+03 -2.090460E+03  2.498987E+03  7.617335E+02
       138   7 -5.795204E+05  2.868184E+04  3.393516E+04 -2.560436E+03  7.828338E+03  8.217827E+02
       138   8 -5.826407E+05  2.160612E+04  2.783765E+04  3.252650E+02  5.148052E+03  8.861270E+02
       138   9 -5.833747E+05  2.219959E+04  2.542760E+04 -1.810189E+03  2.467834E+03  7.617215E+02
       138  10 -7.662107E+05 -1.799340E+04 -1.261863E+04 -1.626811E+03  3.857446E-09 -7.242338E-10
       138  11 -7.654754E+05 -2.410339E+04 -1.773933E+04  5.118725E+02  4.595177E-09  1.821035E-10
       138  12 -7.623628E+05 -2.255254E+04 -1.921008E+04 -2.370691E+03 -1.725542E-09  5.111084E-10
       138  13 -6.728696E+05  5.344541E+03  1.065853E+04 -2.093590E+03 -1.258611E-09  5.596201E-10
       138  14 -6.740619E+05 -1.248324E+03  5.049450E+03  4.185742E+02  7.372071E-10  8.941147E-10
       138  15 -6.728724E+05 -1.761719E+02  3.109055E+03 -2.090461E+03 -4.413944E-09 -3.886740E-11
       138  16 -5.795205E+05  2.868182E+04  3.393504E+04 -2.560441E+03 -2.654630E-09  7.274350E-10
       138  17 -5.826407E+05  2.160611E+04  2.783760E+04  3.252614E+02 -5.537368E-09  7.420322E-10
       138  18 -5.833747E+05  2.219959E+04  2.542759E+04 -1.810191E+03  5.640109E-10  1.629315E-10
       138  19 -7.662107E+05 -1.799338E+04 -1.261852E+04 -1.626806E+03 -7.780614E+03 -8.217831E+02
       138  20 -7.654754E+05 -2.410338E+04 -1.773928E+04  5.118762E+02 -5.155349E+03 -8.861482E+02
       138  21 -7.623628E+05 -2.255254E+04 -1.921007E+04 -2.370690E+03 -2.530136E+03 -7.617455E+02
       138  22 -6.728695E+05  5.344558E+03  1.065865E+04 -2.093585E+03 -7.804474E+03 -8.217829E+02
       138  23 -6.740619E+05 -1.248316E+03  5.049501E+03  4.185779E+02 -5.151701E+03 -8.861376E+02
       138  24 -6.728724E+05 -1.761696E+02  3.109068E+03 -2.090460E+03 -2.498987E+03 -7.617335E+02
       138  25 -5.795204E+05  2.868184E+04  3.393516E+04 -2.560436E+03 -7.828338E+03 -8.217827E+02
       138  26 -5.826407E+05  2.160612E+04  2.783765E+04  3.252650E+02 -5.148052E+03 -8.861270E+02
       138  27 -5.833747E+05  2.219959E+04  2.542760E+04 -1.810189E+03 -2.467834E+03 -7.617215E+02
       139   1 -7.396116E+05 -1.577395E+04 -1.407116E+04 -2.471633E+03  2.001128E+03  6.791132E+02
       139   2 -7.371270E+05 -1.608911E+04 -1.470558E+04  9.888395E+02  1.416053E+03  6.037222E+02
       139   3 -7.342284E+05 -1.527284E+04 -1.466487E+04 -2.568404E+03  8.309491E+02  4.702770E+02
       139   4 -6.733077E+05  8.023106E+02  2.454191E+03 -2.535112E+03  1.994610E+03  6.791077E+02
       139   5 -6.735159E+05 -1.851788E+02  1.153065E+03  9.737604E+02  1.401127E+03  6.037187E+02
       139   6 -6.733087E+05 -3.982424E+01  5.328701E+02 -2.535039E+03  8.076165E+02  4.702780E+02
       139   7 -6.069998E+05  1.737824E+04  1.897921E+04 -2.598598E+03  1.988092E+03  6.791022E+02
       139   8 -6.099012E+05  1.571845E+04  1.701140E+04  9.586797E+02  1.386199E+03  6.037152E+02
       139   9 -6.123856E+05  1.519291E+04  1.573033E+04 -2.501670E+03  7.842816E+02  4.702789E+02
       139  10 -7.396116E+05 -1.577396E+04 -1.407117E+04 -2.471635E+03 -3.345541E-09  1.076315E-10
       139  11 -7.371270E+05 -1.608912E+04 -1.470558E+04  9.888388E+02 -1.012702E-09 -1.306618E-10
       139  12 -7.342284E+05 -1.527284E+04 -1.466487E+04 -2.568404E+03  4.956300E-10  2.625456E-10
       139  13 -6.733077E+05  8.023090E+02  2.454183E+03 -2.535114E+03 -1.903525E-09 -6.149087E-13
       139  14 -6.735159E+05 -1.851797E+02  1.153060E+03  9.737597E+02 -5.385104E-09  1.602401E-10
       139  15 -6.733087E+05 -3.982465E+01  5.328684E+02 -2.535039E+03 -7.153396E-10  6.417901E-10
       139  16 -6.069998E+05  1.737824E+04  1.897920E+04 -2.598599E+03  2.642225E-09 -2.102316E-10
       139  17 -6.099012E+05  1.571845E+04  1.701140E+04  9.586790E+02 -6.115230E-10 -1.064124E-11
       139  18 -6.123856E+05  1.519291E+04  1.573033E+04 -2.501670E+03 -1.775240E-09  1.005496E-11
       139  19 -7.396116E+05 -1.577395E+04 -1.407116E+04 -2.471633E+03 -2.001128E+03 -6.791132E+02
       139  20 -7.371270E+05 -1.608911E+04 -1.470558E+04  9.888395E+02 -1.416053E+03 -6.037222E+02
       139  21 -7.342284E+05 -1.527284E+04 -1.466487E+04 -2.568404E+03 -8.309491E+02 -4.702770E+02
       139  22 -6.733077E+05  8.023106E+02  2.454191E+03 -2.535112E+03 -1.994610E+03 -6.791077E+02
       139  23 -6.735159E+05 -1.851788E+02  1.153065E+03  9.737604E+02 -1.401127E+03 -6.037187E+02
       139  24 -6.733087E+05 -3.982424E+01  5.328701E+02 -2.535039E+03 -8.076165E+02 -4.702780E+02
       139  25 -6.069998E+05  1.737824E+04  1.897921E+04 -2.598598E+03 -1.988092E+03 -6.791022E+02
       139  26 -6.099012E+05  1.571845E+04  1.701140E+04  9.586797E+02 -1.386199E+03 -6.037152E+02
       139  27 -6.123856E+05  1.519291E+04  1.573033E+04 -2.501670E+03 -7.842816E+02 -4.702789E+02
       140   1 -7.049883E+05 -7.773586E+03 -7.581292E+03 -2.792671E+03  7.491121E+02  3.891094E+02
       140   2 -7.018375E+05 -7.110161E+03 -7.323287E+03  1.310683E+03  8.668955E+02  2.686514E+02
       140   3 -6.986970E+05 -6.448635E+03 -7.141427E+03 -2.792706E+03  9.846567E+02  1.288497E+02
       140   4 -6.734022E+05  1.216851E+02  2.847815E+02 -2.799251E+03  7.332006E+02  3.891116E+02
       140   5 -6.733975E+05  2.204987E-01 -2.330741E+02  1.304074E+03  8.482042E+02  2.686558E+02
       140   6 -6.734028E+05 -1.226716E+02 -8.251525E+02 -2.799320E+03  9.631850E+02  1.288567E+02
       140   7 -6.418153E+05  8.016881E+03  8.150780E+03 -2.805832E+03  7.172882E+02  3.891139E+02
       140   8 -6.449568E+05  7.110541E+03  6.857078E+03  1.297464E+03  8.295120E+02  2.686603E+02
       140   9 -6.481079E+05  6.203244E+03  5.491073E+03 -2.805935E+03  9.417125E+02  1.288637E+02
       140  10 -7.049883E+05 -7.773586E+03 -7.581293E+03 -2.792671E+03 -4.667959E-10  4.300868E-10
       140  11 -7.018375E+05 -7.110161E+03 -7.323289E+03  1.310683E+03 -8.317084E-10  2.860541E-10
       140  12 -6.986970E+05 -6.448636E+03 -7.141429E+03 -2.792706E+03  1.638395E-10  5.341236E-10
       140  13 -6.734022E+05  1.216848E+02  2.847802E+02 -2.799251E+03 -2.042816E-11  3.061848E-10
       140  14 -6.733975E+05  2.202278E-01 -2.330756E+02  1.304074E+03  1.032693E-10  2.552261E-10
       140  15 -6.734028E+05 -1.226719E+02 -8.251543E+02 -2.799320E+03 -9.298912E-10 -9.725107E-12
       140  16 -6.418153E+05  8.016881E+03  8.150778E+03 -2.805832E+03 -1.242276E-09  2.322916E-10
       140  17 -6.449568E+05  7.110541E+03  6.857077E+03  1.297464E+03 -7.859199E-10  1.948045E-11
       140  18 -6.481079E+05  6.203244E+03  5.491072E+03 -2.805935E+03  7.432052E-10  6.078871E-10
       140  19 -7.049883E+05 -7.773586E+03 -7.581292E+03 -2.792671E+03 -7.491121E+02 -3.891094E+02
       140  20 -7.018375E+05 -7.110161E+03 -7.323287E+03  1.310683E+03 -8.668955E+02 -2.686514E+02
       140  21 -6.986970E+05 -6.448635E+03 -7.141427E+03 -2.792706E+03 -9.846567E+02 -1.288497E+02
       140  22 -6.734022E+05  1.216851E+02  2.847815E+02 -2.799251E+03 -7.332006E+02 -3.891116E+02
       140  23 -6.733975E+05  2.204987E-01 -2.330741E+02  1.304074E+03 -8.482042E+02 -2.686558E+02
       140  24 -6.734028E+05 -1.226716E+02 -8.251525E+02 -2.799320E+03 -9.631850E+02 -1.288567E+02
       140  25 -6.418153E+05  8.016881E+03  8.150780E+03 -2.805832E+03 -7.172882E+02 -3.891139E+02
       140  26 -6.449568E+05  7.110541E+03  6.857078E+03  1.297464E+03 -8.295120E+02 -2.686603E+02
       140  27 -6.481079E+05  6.203244E+03  5.491073E+03 -2.805935E+03 -9.417125E+02 -1.288637E+02
       141   1 -6.667093E+05  1.742043E+03  5.336065E+02 -2.898316E+03  1.164061E+03  4.269196E+01
       141   2 -6.632533E+05  2.695919E+03  3.488085E+02  1.375806E+03  2.248639E+03 -9.579000E+01
       141   3 -6.602346E+05  2.488597E+03 -8.340973E+02 -2.794266E+03  3.333230E+03 -2.257384E+02
       141   4 -6.734975E+05  4.289379E+01 -1.168744E+03 -2.851960E+03  1.143565E+03  4.269931E+01
       141   5 -6.732790E+05  1.894237E+02 -2.150565E+03  1.370006E+03  2.229354E+03 -9.578379E+01
       141   6 -6.734981E+05 -8.254663E+02 -4.131350E+03 -2.852231E+03  3.315151E+03 -2.257334E+02
       141   7 -6.802856E+05 -1.656259E+03 -2.871099E+03 -2.805604E+03  1.123070E+03  4.270665E+01
       141   8 -6.833047E+05 -2.317079E+03 -4.649946E+03  1.364207E+03  2.210070E+03 -9.577758E+01
       141   9 -6.867614E+05 -4.139543E+03 -7.428615E+03 -2.910194E+03  3.297073E+03 -2.257284E+02
       141  10 -6.667093E+05  1.742043E+03  5.336039E+02 -2.898316E+03  4.200947E-10  3.060407E-10
       141  11 -6.632533E+05  2.695918E+03  3.487990E+02  1.375806E+03  2.183020E-09 -9.627190E-10
       141  12 -6.602346E+05  2.488594E+03 -8.341183E+02 -2.794266E+03 -5.210341E-10 -2.887778E-10
       141  13 -6.734975E+05  4.289344E+01 -1.168747E+03 -2.851960E+03 -5.582334E-10 -5.702953E-10
       141  14 -6.732790E+05  1.894223E+02 -2.150574E+03  1.370007E+03  1.644831E-09 -1.128122E-09
       141  15 -6.734981E+05 -8.254693E+02 -4.131371E+03 -2.852230E+03  1.625768E-10 -2.889196E-10
       141  16 -6.802856E+05 -1.656259E+03 -2.871101E+03 -2.805604E+03 -5.138132E-10  8.748635E-11
       141  17 -6.833047E+05 -2.317080E+03 -4.649955E+03  1.364207E+03  6.817669E-10 -7.085800E-10
       141  18 -6.867614E+05 -4.139546E+03 -7.428636E+03 -2.910193E+03 -1.169407E-10  8.311630E-11
       141  19 -6.667093E+05  1.742043E+03  5.336065E+02 -2.898316E+03 -1.164061E+03 -4.269196E+01
       141  20 -6.632533E+05  2.695919E+03  3.488085E+02  1.375806E+03 -2.248639E+03  9.579000E+01
       141  21 -6.602346E+05  2.488597E+03 -8.340973E+02 -2.794266E+03 -3.333230E+03  2.257384E+02
       141  22 -6.734975E+05  4.289379E+01 -1.168744E+03 -2.851960E+03 -1.143565E+03 -4.269931E+01
       141  23 -6.732790E+05  1.894237E+02 -2.150565E+03  1.370006E+03 -2.229354E+03  9.578379E+01
       141  24 -6.734981E+05 -8.254663E+02 -4.131350E+03 -2.852231E+03 -3.315151E+03  2.257334E+02
       141  25 -6.802856E+05 -1.656259E+03 -2.871099E+03 -2.805604E+03 -1.123070E+03 -4.270665E+01
       141  26 -6.833047E+05 -2.317079E+03 -4.649946E+03  1.364207E+03 -2.210070E+03  9.577758E+01
       141  27 -6.867614E+05 -4.139543E+03 -7.428615E+03 -2.910194E+03 -3.297073E+03  2.257284E+02
       142   1 -6.295869E+05  1.127604E+04  5.778666E+03 -2.983265E+03  4.191759E+03 -3.115970E+02
       142   2 -6.253640E+05  1.312185E+04  2.957243E+03  1.257121E+03  8.713427E+03 -4.514615E+02
       142   3 -6.236832E+05  7.048827E+03 -4.784334E+03 -2.206463E+03  1.323507E+04 -5.425061E+02
       142   4 -6.739663E+05  1.788154E+02 -5.295144E+03 -2.687334E+03  4.168084E+03 -3.115900E+02
       142   5 -6.726959E+05  1.288861E+03 -8.842081E+03  1.164430E+03  8.696471E+03 -4.514621E+02
       142   6 -6.739690E+05 -5.521419E+03 -1.731410E+04 -2.687810E+03  1.322481E+04 -5.425184E+02
       142   7 -7.183440E+05 -1.091856E+04 -1.636910E+04 -2.391424E+03  4.144410E+03 -3.115829E+02
       142   8 -7.200258E+05 -1.054430E+04 -2.064157E+04  1.071745E+03  8.679516E+03 -4.514627E+02
       142   9 -7.242525E+05 -1.809186E+04 -2.984406E+04 -3.169118E+03  1.321455E+04 -5.425307E+02
       142  10 -6.295869E+05  1.127604E+04  5.778633E+03 -2.983263E+03 -1.648885E-09 -8.842971E-10
       142  11 -6.253640E+05  1.312183E+04  2.957100E+03  1.257124E+03  3.329938E-10  3.643335E-10
       142  12 -6.236834E+05  7.048780E+03 -4.784665E+03 -2.206457E+03 -3.589339E-10  1.677536E-10
       142  13 -6.739663E+05  1.788106E+02 -5.295177E+03 -2.687333E+03 -1.932306E-11 -6.478848E-11
       142  14 -6.726960E+05  1.288840E+03 -8.842224E+03  1.164433E+03 -1.922148E-09 -5.546853E-11
       142  15 -6.739692E+05 -5.521467E+03 -1.731443E+04 -2.687804E+03  3.103855E-09  2.465586E-11
       142  16 -7.183440E+05 -1.091857E+04 -1.636914E+04 -2.391423E+03  1.289665E-09  5.561693E-10
       142  17 -7.200259E+05 -1.054432E+04 -2.064172E+04  1.071748E+03 -1.629845E-10 -3.163490E-10
       142  18 -7.242527E+05 -1.809190E+04 -2.984439E+04 -3.169112E+03  2.437779E-09 -2.502270E-10
       142  19 -6.295869E+05  1.127604E+04  5.778666E+03 -2.983265E+03 -4.191759E+03  3.115970E+02
       142  20 -6.253640E+05  1.312185E+04  2.957243E+03  1.257121E+03 -8.713427E+03  4.514615E+02
       142  21 -6.236832E+05  7.048827E+03 -4.784334E+03 -2.206463E+03 -1.323507E+04  5.425061E+02
       142  22 -6.739663E+05  1.788154E+02 -5.295144E+03 -2.687334E+03 -4.168084E+03  3.115900E+02
       142  23 -6.726959E+05  1.288861E+03 -8.842081E+03  1.164430E+03 -8.696471E+03  4.514621E+02
       142  24 -6.739690E+05 -5.521419E+03 -1.731410E+04 -2.687810E+03 -1.322481E+04  5.425184E+02
       142  25 -7.183440E+05 -1.091856E+04 -1.636910E+04 -2.391424E+03 -4.144410E+03  3.115829E+02
       142  26 -7.200258E+05 -1.054430E+04 -2.064157E+04  1.071745E+03 -8.679516E+03  4.514627E+02
       142  27 -7.242525E+05 -1.809186E+04 -2.984406E+04 -3.169118E+03 -1.321455E+04  5.425307E+02
       143   1 -5.999894E+05  2.041382E+04 -2.469188E+03 -4.157753E+03  1.678157E+04 -6.320492E+02
       143   2 -5.899697E+05  2.831552E+04 -1.508310E+04  1.542952E+03  3.502604E+04 -7.617100E+02
       143   3 -5.953495E+05 -1.621412E+04 -5.267141E+04  1.193645E+03  5.327070E+04 -7.074465E+02
       143   4 -6.768254E+05  1.203153E+03 -2.163263E+04 -2.323364E+03  1.674820E+04 -6.320046E+02
       143   5 -6.691298E+05  8.525882E+03 -3.481522E+04  7.077520E+02  3.501707E+04 -7.617643E+02
       143   6 -6.768398E+05 -3.659065E+04 -7.299145E+04 -2.311236E+03  5.328606E+04 -7.077466E+02
       143   7 -7.536561E+05 -1.800794E+04 -4.079652E+04 -4.892027E+02  1.671485E+04 -6.319601E+02
       143   8 -7.482842E+05 -1.126423E+04 -5.454782E+04 -1.273413E+02  3.500811E+04 -7.618186E+02
       143   9 -7.583241E+05 -5.696762E+04 -9.331199E+04 -5.815657E+03  5.330142E+04 -7.080469E+02
       143  10 -5.999897E+05  2.041374E+04 -2.469719E+03 -4.157745E+03 -4.342114E-10 -2.394486E-10
       143  11 -5.899711E+05  2.831519E+04 -1.508540E+04  1.542973E+03  1.929384E-09 -1.026649E-09
       143  12 -5.953525E+05 -1.621489E+04 -5.267675E+04  1.193676E+03 -1.347566E-09  3.879909E-10
       143  13 -6.768257E+05  1.203078E+03 -2.163316E+04 -2.323356E+03  9.427376E-12 -3.911935E-10
       143  14 -6.691311E+05  8.525551E+03 -3.481753E+04  7.077735E+02  1.186399E-11 -1.022372E-09
       143  15 -6.768429E+05 -3.659141E+04 -7.299679E+04 -2.311206E+03 -1.995367E-09  2.309858E-10
       143  16 -7.536564E+05 -1.800802E+04 -4.079705E+04 -4.891942E+02  2.971550E-10 -2.318938E-10
       143  17 -7.482855E+05 -1.126456E+04 -5.455013E+04 -1.273198E+02 -1.754585E-09 -5.158204E-10
       143  18 -7.583272E+05 -5.696839E+04 -9.331733E+04 -5.815627E+03 -7.755170E-10  2.539109E-10
       143  19 -5.999894E+05  2.041382E+04 -2.469188E+03 -4.157753E+03 -1.678157E+04  6.320492E+02
       143  20 -5.899697E+05  2.831552E+04 -1.508310E+04  1.542952E+03 -3.502604E+04  7.617100E+02
       143  21 -5.953495E+05 -1.621412E+04 -5.267141E+04  1.193645E+03 -5.327070E+04  7.074465E+02
       143  22 -6.768254E+05  1.203153E+03 -2.163263E+04 -2.323364E+03 -1.674820E+04  6.320046E+02
       143  23 -6.691298E+05  8.525882E+03 -3.481522E+04  7.077520E+02 -3.501707E+04  7.617643E+02
       143  24 -6.768398E+05 -3.659065E+04 -7.299145E+04 -2.311236E+03 -5.328606E+04  7.077466E+02
       143  25 -7.536561E+05 -1.800794E+04 -4.079652E+04 -4.892027E+02 -1.671485E+04  6.319601E+02
       143  26 -7.482842E+05 -1.126423E+04 -5.454782E+04 -1.273413E+02 -3.500811E+04  7.618186E+02
       143  27 -7.583241E+05 -5.696762E+04 -9.331199E+04 -5.815657E+03 -5.330142E+04  7.080469E+02
       144   1 -5.942283E+05  3.321767E+04 -6.316199E+04 -1.360921E+04  6.795857E+04 -8.753396E+02
       144   2 -5.449889E+05  8.159292E+04 -1.090532E+05  6.192494E+03  1.413406E+05 -9.977017E+02
       144   3 -5.915113E+05 -2.153780E+05 -2.890352E+05  2.253979E+04  2.147240E+05 -1.813915E+02
       144   4 -6.946842E+05  8.115917E+03 -8.820725E+04 -1.808804E+03  6.786098E+04 -8.740958E+02
       144   5 -6.468191E+05  5.612952E+04 -1.344284E+05  2.454308E+01  1.413669E+05 -9.990895E+02
       144   6 -6.947532E+05 -2.412559E+05 -3.148423E+05 -1.595434E+03  2.148740E+05 -1.895956E+02
       144   7 -7.951307E+05 -1.698607E+04 -1.132532E+05  9.989694E+03  6.776340E+04 -8.728556E+02
       144   8 -7.486397E+05  3.066548E+04 -1.598043E+05 -6.142397E+03  1.413932E+05 -1.000478E+03
       144   9 -7.979841E+05 -2.671324E+05 -3.406498E+05 -2.572664E+04  2.150239E+05 -1.978126E+02
       144  10 -5.942333E+05  3.321643E+04 -6.317068E+04 -1.360917E+04  1.006148E-09 -4.557758E-10
       144  11 -5.450104E+05  8.158755E+04 -1.090907E+05  6.192608E+03  3.379893E-09 -3.431095E-09
       144  12 -5.915608E+05 -2.153904E+05 -2.891219E+05  2.253982E+04  7.189678E-10 -1.113594E-09
       144  13 -6.946892E+05  8.114678E+03 -8.821592E+04 -1.808756E+03  7.374635E-10 -1.876696E-09
       144  14 -6.468405E+05  5.612415E+04 -1.344660E+05  2.465687E+01  9.801881E-10 -1.104673E-10
       144  15 -6.948028E+05 -2.412683E+05 -3.149291E+05 -1.595401E+03 -4.048253E-11 -5.906276E-10
       144  16 -7.951356E+05 -1.698731E+04 -1.132618E+05  9.989741E+03 -8.803781E-11 -1.933955E-10
       144  17 -7.486612E+05  3.066010E+04 -1.598420E+05 -6.142283E+03 -3.227536E-09 -1.389685E-10
       144  18 -7.980339E+05 -2.671448E+05 -3.407368E+05 -2.572661E+04  7.925777E-11 -1.253621E-09
       144  19 -5.942283E+05  3.321767E+04 -6.316199E+04 -1.360921E+04 -6.795857E+04  8.753396E+02
       144  20 -5.449889E+05  8.159292E+04 -1.090532E+05  6.192494E+03 -1.413406E+05  9.977017E+02
       144  21 -5.915113E+05 -2.153780E+05 -2.890352E+05  2.253979E+04 -2.147240E+05  1.813915E+02
       144  22 -6.946842E+05  8.115917E+03 -8.820725E+04 -1.808804E+03 -6.786098E+04  8.740958E+02
       144  23 -6.468191E+05  5.612952E+04 -1.344284E+05  2.454308E+01 -1.413669E+05  9.990895E+02
       144  24 -6.947532E+05 -2.412559E+05 -3.148423E+05 -1.595434E+03 -2.148740E+05  1.895956E+02
       144  25 -7.951307E+05 -1.698607E+04 -1.132532E+05  9.989694E+03 -6.776340E+04  8.728556E+02
       144  26 -7.486397E+05  3.066548E+04 -1.598043E+05 -6.142397E+03 -1.413932E+05  1.000478E+03
       144  27 -7.979841E+05 -2.671324E+05 -3.406498E+05 -2.572664E+04 -2.150239E+05  1.978126E+02
       145   1  1.838336E+05  3.896511E+04  2.087180E+05 -3.869367E+04  1.429150E+03  7.847297E+04
       145   2  7.120411E+04 -1.079446E+04  1.350701E+05  9.535846E+03  3.944319E+03  5.326497E+04
       145   3  7.806514E+04 -2.607940E+04  1.079729E+05 -2.679829E+04  2.139369E+03  2.804820E+04
       145   4  8.501076E+04 -3.562638E+05  1.100385E+05 -2.988644E+04  1.431336E+03  7.777262E+04
       145   5 -1.942415E+04 -3.734828E+05  4.476021E+04  1.232556E+04  3.944799E+03  5.320085E+04
       145   6 -4.441725E+03 -3.563182E+05  2.561202E+04 -3.002878E+04  2.137524E+03  2.861897E+04
       145   7 -1.382355E+04 -7.513509E+05  1.134734E+04 -2.108477E+04  1.433502E+03  7.707270E+04
       145   8 -1.100623E+05 -7.360518E+05 -4.555954E+04  1.511370E+04  3.945280E+03  5.313676E+04
       145   9 -8.695676E+04 -6.864580E+05 -5.675710E+04 -3.325747E+04  2.135671E+03  2.918943E+04
       145  10  1.838319E+05  3.895850E+04  2.087064E+05 -3.869376E+04 -1.101832E-10 -1.900561E-09
       145  11  7.120333E+04 -1.079751E+04  1.350647E+05  9.535676E+03 -6.490854E-10 -1.103065E-09
       145  12  7.806493E+04 -2.608025E+04  1.079714E+05 -2.679834E+04 -2.841403E-09 -6.277166E-11
       145  13  8.500914E+04 -3.562703E+05  1.100272E+05 -2.988653E+04  4.249753E-10 -1.607965E-09
       145  14 -1.942493E+04 -3.734859E+05  4.475486E+04  1.232539E+04 -1.752820E-09  4.885982E-11
       145  15 -4.441950E+03 -3.563190E+05  2.561047E+04 -3.002883E+04  1.767901E-09 -1.226812E-09
       145  16 -1.382515E+04 -7.513573E+05  1.133616E+04 -2.108486E+04  2.779613E-10  3.525775E-09
       145  17 -1.100631E+05 -7.360548E+05 -4.556488E+04  1.511353E+04  1.781305E-09  1.677313E-09
       145  18 -8.695700E+04 -6.864589E+05 -5.675872E+04 -3.325752E+04 -8.642329E-10 -3.145472E-09
       145  19  1.838336E+05  3.896511E+04  2.087180E+05 -3.869367E+04 -1.429150E+03 -7.847297E+04
       145  20  7.120411E+04 -1.079446E+04  1.350701E+05  9.535846E+03 -3.944319E+03 -5.326497E+04
       145  21  7.806514E+04 -2.607940E+04  1.079729E+05 -2.679829E+04 -2.139369E+03 -2.804820E+04
       145  22  8.501076E+04 -3.562638E+05  1.100385E+05 -2.988644E+04 -1.431336E+03 -7.777262E+04
       145  23 -1.942415E+04 -3.734828E+05  4.476021E+04  1.232556E+04 -3.944799E+03 -5.320085E+04
       145  24 -4.441725E+03 -3.563182E+05  2.561202E+04 -3.002878E+04 -2.137524E+03 -2.861897E+04
       145  25 -1.382355E+04 -7.513509E+05  1.134734E+04 -2.108477E+04 -1.433502E+03 -7.707270E+04
       145  26 -1.100623E+05 -7.360518E+05 -4.555954E+04  1.511370E+04 -3.945280E+03 -5.313676E+04
       145  27 -8.695676E+04 -6.864580E+05 -5.675710E+04 -3.325747E+04 -2.135671E+03 -2.918943E+04
       146   1  1.372634E+04 -3.625570E+05  1.890291E+04 -3.105058E+04  5.133896E+02  2.446623E+04
       146   2 -8.159198E+03 -3.957441E+05 -7.311042E+03  1.247964E+04 -3.870493E+02  2.414440E+04
       146   3 -2.883197E+04 -4.292559E+05 -3.314912E+04 -3.091127E+04 -1.207261E+03  2.382300E+04
       146   4  1.337472E+04 -3.639880E+05  1.859966E+04 -3.045153E+04  5.129711E+02  2.460221E+04
       146   5 -1.868005E+02 -3.638281E+05  6.413538E+02  1.296801E+04 -3.874195E+02  2.426923E+04
       146   6 -1.253324E+04 -3.639911E+05 -1.693249E+04 -3.053328E+04 -1.207588E+03  2.393667E+04
       146   7  1.302311E+04 -3.654190E+05  1.829642E+04 -2.985247E+04  5.125528E+02  2.473818E+04
       146   8  7.785521E+03 -3.319111E+05  8.593673E+03  1.345642E+04 -3.877895E+02  2.439407E+04
       146   9  3.765178E+03 -2.987224E+05 -7.161727E+02 -3.015525E+04 -1.207914E+03  2.405035E+04
       146  10  1.372618E+04 -3.625576E+05  1.890178E+04 -3.105059E+04 -6.818419E-10 -1.526288E-10
       146  11 -8.159355E+03 -3.957447E+05 -7.312138E+03  1.247964E+04 -1.316545E-09 -8.615390E-10
       146  12 -2.883213E+04 -4.292565E+05 -3.315019E+04 -3.091125E+04 -2.020454E-11 -3.945156E-10
       146  13  1.337456E+04 -3.639886E+05  1.859852E+04 -3.045154E+04  3.303835E-09 -3.506627E-09
       146  14 -1.869589E+02 -3.638287E+05  6.402460E+02  1.296802E+04 -4.589488E-10  1.089964E-11
       146  15 -1.253339E+04 -3.639917E+05 -1.693357E+04 -3.053326E+04  2.075133E-09 -1.265492E-09
       146  16  1.302295E+04 -3.654196E+05  1.829527E+04 -2.985248E+04 -2.731221E-09  3.617206E-09
       146  17  7.785361E+03 -3.319118E+05  8.592554E+03  1.345643E+04  1.140740E-09  1.652122E-09
       146  18  3.765021E+03 -2.987230E+05 -7.172629E+02 -3.015523E+04  4.643515E-10 -2.965718E-09
       146  19  1.372634E+04 -3.625570E+05  1.890291E+04 -3.105058E+04 -5.133896E+02 -2.446623E+04
       146  20 -8.159198E+03 -3.957441E+05 -7.311042E+03  1.247964E+04  3.870493E+02 -2.414440E+04
       146  21 -2.883197E+04 -4.292559E+05 -3.314912E+04 -3.091127E+04  1.207261E+03 -2.382300E+04
       146  22  1.337472E+04 -3.639880E+05  1.859966E+04 -3.045153E+04 -5.129711E+02 -2.460221E+04
       146  23 -1.868005E+02 -3.638281E+05  6.413538E+02  1.296801E+04  3.874195E+02 -2.426923E+04
       146  24 -1.253324E+04 -3.639911E+05 -1.693249E+04 -3.053328E+04  1.207588E+03 -2.393667E+04
       146  25  1.302311E+04 -3.654190E+05  1.829642E+04 -2.985247E+04 -5.125528E+02 -2.473818E+04
       146  26  7.785521E+03 -3.319111E+05  8.593673E+03  1.345642E+04  3.877895E+02 -2.439407E+04
       146  27  3.765178E+03 -2.987224E+05 -7.161727E+02 -3.015525E+04  1.207914E+03 -2.405035E+04
       147   1 -9.322775E+04 -7.627613E+05 -1.213739E+05 -2.511109E+04 -2.897368E+03  2.693864E+04
       147   2 -8.797928E+04 -7.803779E+05 -1.481803E+05  1.061605E+04 -4.818771E+03  5.084916E+04
       147   3 -1.944687E+05 -8.269951E+05 -2.180929E+05 -3.739441E+04 -1.849677E+03  7.476717E+04
       147   4  4.907797E+03 -3.703799E+05 -2.347263E+04 -2.974018E+04 -2.899211E+03  2.756982E+04
       147   5  1.810222E+04 -3.559372E+05 -4.244355E+04  1.207811E+04 -4.818287E+03  5.079091E+04
       147   6 -8.027974E+04 -3.703537E+05 -1.040194E+05 -2.983813E+04 -1.847853E+03  7.402076E+04
       147   7  1.030318E+05  2.214129E+04  7.441705E+04 -3.437208E+04 -2.901063E+03  2.820139E+04
       147   8  1.241702E+05  6.866702E+04  6.327968E+04  1.354124E+04 -4.817803E+03  5.073262E+04
       147   9  3.389368E+04  8.647706E+04  1.003844E+04 -2.227623E+04 -1.846049E+03  7.327380E+04
       147  10 -9.322795E+04 -7.627620E+05 -1.213753E+05 -2.511103E+04 -5.548175E-09  8.415884E-10
       147  11 -8.798001E+04 -7.803807E+05 -1.481852E+05  1.061625E+04 -7.003227E-09 -2.517962E-10
       147  12 -1.944702E+05 -8.270011E+05 -2.181034E+05 -3.739429E+04 -2.771041E-09 -1.177830E-09
       147  13  4.907584E+03 -3.703807E+05 -2.347408E+04 -2.974011E+04 -3.262351E-09 -2.942069E-09
       147  14  1.810151E+04 -3.559400E+05 -4.244844E+04  1.207830E+04 -3.915978E-09 -9.775378E-11
       147  15 -8.028121E+04 -3.703596E+05 -1.040297E+05 -2.983802E+04 -1.893766E-10 -4.002438E-10
       147  16  1.030316E+05  2.214043E+04  7.441554E+04 -3.437202E+04 -1.682380E-09  2.231517E-09
       147  17  1.241695E+05  6.866425E+04  6.327480E+04  1.354144E+04 -1.068177E-09  8.975280E-10
       147  18  3.389224E+04  8.647129E+04  1.002834E+04 -2.227612E+04 -1.359148E-09  1.549473E-10
       147  19 -9.322775E+04 -7.627613E+05 -1.213739E+05 -2.511109E+04  2.897368E+03 -2.693864E+04
       147  20 -8.797928E+04 -7.803779E+05 -1.481803E+05  1.061605E+04  4.818771E+03 -5.084916E+04
       147  21 -1.944687E+05 -8.269951E+05 -2.180929E+05 -3.739441E+04  1.849677E+03 -7.476717E+04
       147  22  4.907797E+03 -3.703799E+05 -2.347263E+04 -2.974018E+04  2.899211E+03 -2.756982E+04
       147  23  1.810222E+04 -3.559372E+05 -4.244355E+04  1.207811E+04  4.818287E+03 -5.079091E+04
       147  24 -8.027974E+04 -3.703537E+05 -1.040194E+05 -2.983813E+04  1.847853E+03 -7.402076E+04
       147  25  1.030318E+05  2.214129E+04  7.441705E+04 -3.437208E+04  2.901063E+03 -2.820139E+04
       147  26  1.241702E+05  6.866702E+04  6.327968E+04  1.354124E+04  4.817803E+03 -5.073262E+04
       147  27  3.389368E+04  8.647706E+04  1.003844E+04 -2.227623E+04  1.846049E+03 -7.327380E+04
       148   1 -1.504215E+06 -3.355421E+05 -1.685160E+05 -5.249368E+05 -9.455869E+04 -3.528602E+04
       148   2 -1.471587E+06 -2.043195E+05 -8.030250E+04 -5.593646E+05 -6.107613E+04 -2.208223E+04
       148   3 -1.501734E+06 -2.215667E+05 -5.839834E+04 -5.525333E+05 -2.736647E+04 -9.481001E+03
       148   4 -1.440936E+06 -3.018555E+05 -1.491183E+05 -4.977271E+05 -9.445444E+04 -3.524865E+04
       148   5 -1.402147E+06 -1.755840E+05 -6.071314E+04 -5.379251E+05 -6.104992E+04 -2.207268E+04
       148   6 -1.426111E+06 -1.977570E+05 -3.854999E+04 -5.368661E+05 -2.741795E+04 -9.500096E+03
       148   7 -1.377653E+06 -2.681673E+05 -1.297210E+05 -4.705144E+05 -9.435017E+04 -3.521127E+04
       148   8 -1.332702E+06 -1.468479E+05 -4.112422E+04 -5.164834E+05 -6.102370E+04 -2.206313E+04
       148   9 -1.350482E+06 -1.739474E+05 -1.870210E+04 -5.211974E+05 -2.746943E+04 -9.519192E+03
       148  10 -1.504225E+06 -3.355458E+05 -1.685352E+05 -5.249395E+05  4.794134E-10 -7.013159E-10
       148  11 -1.471591E+06 -2.043210E+05 -8.031045E+04 -5.593657E+05  2.620380E-09 -8.194103E-10
       148  12 -1.501735E+06 -2.215670E+05 -5.839992E+04 -5.525335E+05 -1.123564E-09  1.531732E-09
       148  13 -1.440946E+06 -3.018592E+05 -1.491375E+05 -4.977297E+05  7.688879E-10  1.124711E-09
       148  14 -1.402151E+06 -1.755855E+05 -6.072108E+04 -5.379262E+05 -3.172722E-09  2.545558E-10
       148  15 -1.426112E+06 -1.977573E+05 -3.855157E+04 -5.368663E+05  8.176815E-10  6.894342E-10
       148  16 -1.377662E+06 -2.681711E+05 -1.297401E+05 -4.705171E+05  5.202415E-10  5.969401E-11
       148  17 -1.332706E+06 -1.468494E+05 -4.113216E+04 -5.164845E+05 -2.712058E-09  2.929997E-09
       148  18 -1.350483E+06 -1.739477E+05 -1.870369E+04 -5.211976E+05 -1.230613E-09  2.192145E-09
       148  19 -1.504215E+06 -3.355421E+05 -1.685160E+05 -5.249368E+05  9.455869E+04  3.528602E+04
       148  20 -1.471587E+06 -2.043195E+05 -8.030250E+04 -5.593646E+05  6.107613E+04  2.208223E+04
       148  21 -1.501734E+06 -2.215667E+05 -5.839834E+04 -5.525333E+05  2.736647E+04  9.481001E+03
       148  22 -1.440936E+06 -3.018555E+05 -1.491183E+05 -4.977271E+05  9.445444E+04  3.524865E+04
       148  23 -1.402147E+06 -1.755840E+05 -6.071314E+04 -5.379251E+05  6.104992E+04  2.207268E+04
       148  24 -1.426111E+06 -1.977570E+05 -3.854999E+04 -5.368661E+05  2.741795E+04  9.500096E+03
       148  25 -1.377653E+06 -2.681673E+05 -1.297210E+05 -4.705144E+05  9.435017E+04  3.521127E+04
       148  26 -1.332702E+06 -1.468479E+05 -4.112422E+04 -5.164834E+05  6.102370E+04  2.206313E+04
       148  27 -1.350482E+06 -1.739474E+05 -1.870210E+04 -5.211974E+05  2.746943E+04  9.519192E+03
       149   1 -1.491714E+06 -2.445463E+05 -5.170892E+04 -5.487816E+05 -2.154431E+04 -7.371775E+03
       149   2 -1.486627E+06 -2.231727E+05 -3.392444E+04 -5.525512E+05 -1.394034E+04 -4.414824E+03
       149   3 -1.489325E+06 -2.264747E+05 -2.808759E+04 -5.524452E+05 -6.264268E+03 -1.649651E+03
       149   4 -1.420411E+06 -2.161561E+05 -3.180181E+04 -5.279150E+05 -2.152156E+04 -7.363291E+03
       149   5 -1.415396E+06 -1.959043E+05 -1.426471E+04 -5.328248E+05 -1.394256E+04 -4.415672E+03
       149   6 -1.418160E+06 -2.003214E+05 -8.654375E+03 -5.338593E+05 -6.291449E+03 -1.659852E+03
       149   7 -1.349104E+06 -1.877656E+05 -1.189519E+04 -5.070462E+05 -2.149880E+04 -7.354806E+03
       149   8 -1.344161E+06 -1.686355E+05  5.394548E+03 -5.130964E+05 -1.394477E+04 -4.416519E+03
       149   9 -1.346991E+06 -1.741678E+05  1.077840E+04 -5.152716E+05 -6.318633E+03 -1.670054E+03
       149  10 -1.491715E+06 -2.445465E+05 -5.170990E+04 -5.487817E+05 -6.820563E-10  1.332167E-09
       149  11 -1.486627E+06 -2.231728E+05 -3.392484E+04 -5.525512E+05 -3.079079E-09 -8.103341E-10
       149  12 -1.489325E+06 -2.264747E+05 -2.808767E+04 -5.524452E+05 -1.998266E-09 -1.011704E-09
       149  13 -1.420412E+06 -2.161563E+05 -3.180278E+04 -5.279152E+05 -1.353769E-09  1.151375E-09
       149  14 -1.415396E+06 -1.959043E+05 -1.426512E+04 -5.328248E+05  2.401769E-09 -1.253314E-09
       149  15 -1.418160E+06 -2.003214E+05 -8.654455E+03 -5.338593E+05 -3.380623E-10 -6.316126E-10
       149  16 -1.349105E+06 -1.877658E+05 -1.189616E+04 -5.070464E+05  2.945151E-10  1.158825E-09
       149  17 -1.344161E+06 -1.686355E+05  5.394145E+03 -5.130964E+05  4.471110E-09  4.850212E-10
       149  18 -1.346991E+06 -1.741678E+05  1.077832E+04 -5.152716E+05 -4.002905E-10  3.655134E-11
       149  19 -1.491714E+06 -2.445463E+05 -5.170892E+04 -5.487816E+05  2.154431E+04  7.371775E+03
       149  20 -1.486627E+06 -2.231727E+05 -3.392444E+04 -5.525512E+05  1.394034E+04  4.414824E+03
       149  21 -1.489325E+06 -2.264747E+05 -2.808759E+04 -5.524452E+05  6.264268E+03  1.649651E+03
       149  22 -1.420411E+06 -2.161561E+05 -3.180181E+04 -5.279150E+05  2.152156E+04  7.363291E+03
       149  23 -1.415396E+06 -1.959043E+05 -1.426471E+04 -5.328248E+05  1.394256E+04  4.415672E+03
       149  24 -1.418160E+06 -2.003214E+05 -8.654375E+03 -5.338593E+05  6.291449E+03  1.659852E+03
       149  25 -1.349104E+06 -1.877656E+05 -1.189519E+04 -5.070462E+05  2.149880E+04  7.354806E+03
       149  26 -1.344161E+06 -1.686355E+05  5.394548E+03 -5.130964E+05  1.394477E+04  4.416519E+03
       149  27 -1.346991E+06 -1.741678E+05  1.077840E+04 -5.152716E+05  6.318633E+03  1.670054E+03
       150   1 -1.468587E+06 -2.234489E+05 -2.125980E+04 -5.474276E+05 -4.965826E+03 -1.236071E+03
       150   2 -1.467809E+06 -2.171284E+05 -1.707807E+04 -5.448295E+05 -3.157160E+03 -6.208272E+02
       150   3 -1.463804E+06 -2.190619E+05 -1.517878E+04 -5.467709E+05 -1.314232E+03 -9.701618E+01
       150   4 -1.416699E+06 -2.036399E+05 -6.952216E+03 -5.331132E+05 -4.967470E+03 -1.236694E+03
       150   5 -1.418145E+06 -1.983243E+05 -3.411918E+03 -5.312895E+05 -3.170961E+03 -6.260083E+02
       150   6 -1.416362E+06 -2.012601E+05 -2.144261E+03 -5.340053E+05 -1.340198E+03 -1.067561E+02
       150   7 -1.364808E+06 -1.838307E+05  7.355123E+03 -5.187977E+05 -4.969115E+03 -1.237317E+03
       150   8 -1.368479E+06 -1.795201E+05  1.025400E+04 -5.177486E+05 -3.184763E+03 -6.311899E+02
       150   9 -1.368917E+06 -1.834583E+05  1.089004E+04 -5.212389E+05 -1.366166E+03 -1.164967E+02
       150  10 -1.468587E+06 -2.234489E+05 -2.125985E+04 -5.474276E+05  1.541596E-10 -1.006529E-09
       150  11 -1.467809E+06 -2.171284E+05 -1.707809E+04 -5.448295E+05  2.287488E-09 -6.410052E-10
       150  12 -1.463804E+06 -2.190619E+05 -1.517878E+04 -5.467709E+05  1.468516E-09  4.875934E-10
       150  13 -1.416699E+06 -2.036399E+05 -6.952265E+03 -5.331132E+05  2.541787E-09 -2.376816E-10
       150  14 -1.418145E+06 -1.983243E+05 -3.411937E+03 -5.312895E+05 -2.928437E-09 -3.234776E-11
       150  15 -1.416362E+06 -2.012601E+05 -2.144264E+03 -5.340053E+05 -7.329366E-10  3.438977E-10
       150  16 -1.364809E+06 -1.838307E+05  7.355074E+03 -5.187977E+05  7.573410E-10  6.496381E-11
       150  17 -1.368479E+06 -1.795201E+05  1.025398E+04 -5.177486E+05  3.032270E-09  5.267695E-10
       150  18 -1.368917E+06 -1.834583E+05  1.089003E+04 -5.212389E+05  5.588172E-10  2.666234E-10
       150  19 -1.468587E+06 -2.234489E+05 -2.125980E+04 -5.474276E+05  4.965826E+03  1.236071E+03
       150  20 -1.467809E+06 -2.171284E+05 -1.707807E+04 -5.448295E+05  3.157160E+03  6.208272E+02
       150  21 -1.463804E+06 -2.190619E+05 -1.517878E+04 -5.467709E+05  1.314232E+03  9.701618E+01
       150  22 -1.416699E+06 -2.036399E+05 -6.952216E+03 -5.331132E+05  4.967470E+03  1.236694E+03
       150  23 -1.418145E+06 -1.983243E+05 -3.411918E+03 -5.312895E+05  3.170961E+03  6.260083E+02
       150  24 -1.416362E+06 -2.012601E+05 -2.144261E+03 -5.340053E+05  1.340198E+03  1.067561E+02
       150  25 -1.364808E+06 -1.838307E+05  7.355123E+03 -5.187977E+05  4.969115E+03  1.237317E+03
       150  26 -1.368479E+06 -1.795201E+05  1.025400E+04 -5.177486E+05  3.184763E+03  6.311899E+02
       150  27 -1.368917E+06 -1.834583E+05  1.089004E+04 -5.212389E+05  1.366166E+03  1.164967E+02
       151   1 -1.431529E+06 -2.079131E+05 -6.089444E+03 -5.384652E+05 -9.616319E+02 -7.124768E+01
       151   2 -1.431386E+06 -2.030965E+05 -4.708148E+03 -5.341256E+05 -2.670169E+02  4.192856E+01
       151   3 -1.425336E+06 -2.053181E+05 -4.014599E+03 -5.368002E+05  4.357945E+02  1.332594E+02
       151   4 -1.415905E+06 -2.019790E+05 -1.796001E+03 -5.341842E+05 -9.775550E+02 -7.721912E+01
       151   5 -1.418845E+06 -1.983572E+05 -1.258957E+03 -5.307157E+05 -2.858648E+02  3.486127E+01
       151   6 -1.415876E+06 -2.017728E+05 -1.407341E+03 -5.342615E+05  4.140169E+02  1.250948E+02
       151   7 -1.400281E+06 -1.960450E+05  2.497425E+03 -5.299031E+05 -9.934785E+02 -8.319074E+01
       151   8 -1.406303E+06 -1.936178E+05  2.190219E+03 -5.273058E+05 -3.047131E+02  2.779382E+01
       151   9 -1.406417E+06 -1.982276E+05  1.199903E+03 -5.317228E+05  3.922389E+02  1.169301E+02
       151  10 -1.431529E+06 -2.079131E+05 -6.089445E+03 -5.384652E+05  5.134983E-10  9.825282E-10
       151  11 -1.431386E+06 -2.030965E+05 -4.708148E+03 -5.341256E+05 -7.488421E-10  7.127610E-10
       151  12 -1.425336E+06 -2.053181E+05 -4.014599E+03 -5.368002E+05 -1.927555E-09  3.153843E-10
       151  13 -1.415905E+06 -2.019790E+05 -1.796003E+03 -5.341842E+05 -6.125987E-11  4.126472E-10
       151  14 -1.418845E+06 -1.983572E+05 -1.258957E+03 -5.307157E+05 -6.487390E-11  7.508284E-10
       151  15 -1.415876E+06 -2.017728E+05 -1.407341E+03 -5.342615E+05 -2.076756E-09 -1.253846E-10
       151  16 -1.400281E+06 -1.960450E+05  2.497423E+03 -5.299031E+05 -1.302643E-09  8.322213E-11
       151  17 -1.406303E+06 -1.936178E+05  2.190219E+03 -5.273058E+05 -2.975318E-09  6.954781E-10
       151  18 -1.406417E+06 -1.982276E+05  1.199903E+03 -5.317228E+05  7.506948E-10 -2.825747E-10
       151  19 -1.431529E+06 -2.079131E+05 -6.089444E+03 -5.384652E+05  9.616319E+02  7.124768E+01
       151  20 -1.431386E+06 -2.030965E+05 -4.708148E+03 -5.341256E+05  2.670169E+02 -4.192856E+01
       151  21 -1.425336E+06 -2.053181E+05 -4.014599E+03 -5.368002E+05 -4.357945E+02 -1.332594E+02
       151  22 -1.415905E+06 -2.019790E+05 -1.796001E+03 -5.341842E+05  9.775550E+02  7.721912E+01
       151  23 -1.418845E+06 -1.983572E+05 -1.258957E+03 -5.307157E+05  2.858648E+02 -3.486127E+01
       151  24 -1.415876E+06 -2.017728E+05 -1.407341E+03 -5.342615E+05 -4.140169E+02 -1.250948E+02
       151  25 -1.400281E+06 -1.960450E+05  2.497425E+03 -5.299031E+05  9.934785E+02  8.319074E+01
       151  26 -1.406303E+06 -1.936178E+05  2.190219E+03 -5.273058E+05  3.047131E+02 -2.779382E+01
       151  27 -1.406417E+06 -1.982276E+05  1.199903E+03 -5.317228E+05 -3.922389E+02 -1.169301E+02
       152   1 -1.390301E+06 -1.919242E+05  5.472696E+03 -5.273096E+05  7.260311E+02  1.256709E+02
       152   2 -1.390079E+06 -1.875195E+05  5.482533E+03 -5.230876E+05  1.995036E+03  4.249134E+02
       152   3 -1.384715E+06 -1.906206E+05  4.155053E+03 -5.252319E+05  3.246112E+03  7.720316E+02
       152   4 -1.416004E+06 -2.015749E+05 -1.595844E+03 -5.342309E+05  7.019592E+02  1.166456E+02
       152   5 -1.418646E+06 -1.983205E+05 -2.374876E+03 -5.308608E+05  1.977351E+03  4.182803E+02
       152   6 -1.416146E+06 -2.025732E+05 -4.496337E+03 -5.338570E+05  3.234808E+03  7.677896E+02
       152   7 -1.441707E+06 -2.112256E+05 -8.664451E+03 -5.411520E+05  6.778884E+02  1.076206E+02
       152   8 -1.447211E+06 -2.091215E+05 -1.023237E+04 -5.386337E+05  1.959667E+03  4.116475E+02
       152   9 -1.447575E+06 -2.145257E+05 -1.314784E+04 -5.424817E+05  3.223505E+03  7.635478E+02
       152  10 -1.390301E+06 -1.919242E+05  5.472695E+03 -5.273096E+05 -1.087720E-09 -1.964668E-10
       152  11 -1.390079E+06 -1.875195E+05  5.482525E+03 -5.230876E+05 -1.839877E-09 -4.047147E-10
       152  12 -1.384715E+06 -1.906206E+05  4.155032E+03 -5.252319E+05  1.373676E-09  4.456667E-10
       152  13 -1.416004E+06 -2.015749E+05 -1.595845E+03 -5.342309E+05  4.579291E-10  3.243793E-10
       152  14 -1.418646E+06 -1.983205E+05 -2.374883E+03 -5.308608E+05  7.511545E-10  1.247825E-10
       152  15 -1.416146E+06 -2.025732E+05 -4.496357E+03 -5.338570E+05  2.063936E-09  5.657645E-10
       152  16 -1.441707E+06 -2.112256E+05 -8.664451E+03 -5.411520E+05 -1.154160E-09 -5.248246E-10
       152  17 -1.447211E+06 -2.091215E+05 -1.023238E+04 -5.386337E+05 -1.614666E-09  7.614416E-12
       152  18 -1.447575E+06 -2.145257E+05 -1.314786E+04 -5.424817E+05  1.934739E-10  9.200156E-10
       152  19 -1.390301E+06 -1.919242E+05  5.472696E+03 -5.273096E+05 -7.260311E+02 -1.256709E+02
       152  20 -1.390079E+06 -1.875195E+05  5.482533E+03 -5.230876E+05 -1.995036E+03 -4.249134E+02
       152  21 -1.384715E+06 -1.906206E+05  4.155053E+03 -5.252319E+05 -3.246112E+03 -7.720316E+02
       152  22 -1.416004E+06 -2.015749E+05 -1.595844E+03 -5.342309E+05 -7.019592E+02 -1.166456E+02
       152  23 -1.418646E+06 -1.983205E+05 -2.374876E+03 -5.308608E+05 -1.977351E+03 -4.182803E+02
       152  24 -1.416146E+06 -2.025732E+05 -4.496337E+03 -5.338570E+05 -3.234808E+03 -7.677896E+02
       152  25 -1.441707E+06 -2.112256E+05 -8.664451E+03 -5.411520E+05 -6.778884E+02 -1.076206E+02
       152  26 -1.447211E+06 -2.091215E+05 -1.023237E+04 -5.386337E+05 -1.959667E+03 -4.116475E+02
       152  27 -1.447575E+06 -2.145257E+05 -1.314784E+04 -5.424817E+05 -3.223505E+03 -7.635478E+02
       153   1 -1.357977E+06 -1.789631E+05  1.049168E+04 -5.182605E+05  4.137212E+03  1.015095E+03
       153   2 -1.356630E+06 -1.745101E+05  7.036874E+03 -5.152270E+05  9.190912E+03  2.763113E+03
       153   3 -1.356020E+06 -1.838837E+05 -2.904718E+03 -5.138781E+05  1.420444E+04  4.618091E+03
       153   4 -1.417023E+06 -2.009330E+05 -5.689125E+03 -5.339594E+05  4.112267E+03  1.005736E+03
       153   5 -1.417149E+06 -1.975041E+05 -9.631233E+03 -5.318100E+05  9.179891E+03  2.758969E+03
       153   6 -1.418014E+06 -2.079050E+05 -2.007166E+04 -5.313450E+05  1.420733E+04  4.619155E+03
       153   7 -1.476066E+06 -2.229027E+05 -2.187021E+04 -5.496571E+05  4.087324E+03  9.963770E+02
       153   8 -1.477664E+06 -2.204978E+05 -2.629966E+04 -5.483915E+05  9.168872E+03  2.754826E+03
       153   9 -1.480004E+06 -2.319259E+05 -3.723895E+04 -5.488103E+05  1.421023E+04  4.620220E+03
       153  10 -1.357977E+06 -1.789631E+05  1.049165E+04 -5.182605E+05  6.053848E-10  1.353319E-09
       153  11 -1.356631E+06 -1.745102E+05  7.036700E+03 -5.152270E+05  2.222188E-10 -5.716799E-10
       153  12 -1.356021E+06 -1.838838E+05 -2.905138E+03 -5.138781E+05  9.301821E-10 -6.795501E-10
       153  13 -1.417023E+06 -2.009330E+05 -5.689159E+03 -5.339594E+05 -2.256406E-09  5.321730E-10
       153  14 -1.417149E+06 -1.975041E+05 -9.631407E+03 -5.318100E+05 -7.811258E-10  2.657059E-10
       153  15 -1.418014E+06 -2.079050E+05 -2.007208E+04 -5.313450E+05 -5.402901E-10 -2.184794E-10
       153  16 -1.476066E+06 -2.229027E+05 -2.187025E+04 -5.496571E+05  2.481618E-10  6.063132E-10
       153  17 -1.477664E+06 -2.204978E+05 -2.629983E+04 -5.483916E+05  1.595825E-09 -1.211912E-10
       153  18 -1.480004E+06 -2.319260E+05 -3.723937E+04 -5.488103E+05  1.518144E-09  3.187630E-10
       153  19 -1.357977E+06 -1.789631E+05  1.049168E+04 -5.182605E+05 -4.137212E+03 -1.015095E+03
       153  20 -1.356630E+06 -1.745101E+05  7.036874E+03 -5.152270E+05 -9.190912E+03 -2.763113E+03
       153  21 -1.356020E+06 -1.838837E+05 -2.904718E+03 -5.138781E+05 -1.420444E+04 -4.618091E+03
       153  22 -1.417023E+06 -2.009330E+05 -5.689125E+03 -5.339594E+05 -4.112267E+03 -1.005736E+03
       153  23 -1.417149E+06 -1.975041E+05 -9.631233E+03 -5.318100E+05 -9.179891E+03 -2.758969E+03
       153  24 -1.418014E+06 -2.079050E+05 -2.007166E+04 -5.313450E+05 -1.420733E+04 -4.619155E+03
       153  25 -1.476066E+06 -2.229027E+05 -2.187021E+04 -5.496571E+05 -4.087324E+03 -9.963770E+02
       153  26 -1.477664E+06 -2.204978E+05 -2.629966E+04 -5.483915E+05 -9.168872E+03 -2.754826E+03
       153  27 -1.480004E+06 -2.319259E+05 -3.723895E+04 -5.488103E+05 -1.421023E+04 -4.620220E+03
       154   1 -1.345560E+06 -1.730436E+05 -4.719930E+03 -5.165582E+05  1.800764E+04  5.998971E+03
       154   2 -1.337191E+06 -1.601997E+05 -2.104610E+04 -5.135644E+05  4.012848E+04  1.423224E+04
       154   3 -1.356382E+06 -2.144116E+05 -7.207424E+04 -4.939218E+05  6.217838E+04  2.265487E+04
       154   4 -1.421101E+06 -1.994448E+05 -2.507271E+04 -5.348931E+05  1.798434E+04  5.990288E+03
       154   5 -1.410596E+06 -1.889519E+05 -4.143493E+04 -5.345638E+05  4.012812E+04  1.423201E+04
       154   6 -1.427660E+06 -2.455245E+05 -9.252048E+04 -5.175850E+05  6.220103E+04  2.266286E+04
       154   7 -1.496637E+06 -2.258459E+05 -4.542601E+04 -5.532261E+05  1.796103E+04  5.981605E+03
       154   8 -1.483997E+06 -2.177038E+05 -6.182427E+04 -5.555609E+05  4.012775E+04  1.423179E+04
       154   9 -1.498933E+06 -2.766366E+05 -1.129672E+05 -5.412455E+05  6.222367E+04  2.267084E+04
       154  10 -1.345560E+06 -1.730437E+05 -4.720608E+03 -5.165583E+05 -3.514134E-10 -5.192114E-10
       154  11 -1.337192E+06 -1.602003E+05 -2.104952E+04 -5.135648E+05  1.505269E-09  7.003833E-10
       154  12 -1.356386E+06 -2.144132E+05 -7.208249E+04 -4.939229E+05  1.950624E-10 -5.398646E-10
       154  13 -1.421101E+06 -1.994449E+05 -2.507339E+04 -5.348932E+05  6.106052E-10 -3.473187E-10
       154  14 -1.410598E+06 -1.889526E+05 -4.143835E+04 -5.345642E+05 -3.276215E-10 -2.464275E-10
       154  15 -1.427664E+06 -2.455261E+05 -9.252873E+04 -5.175861E+05 -6.532414E-10 -1.583857E-09
       154  16 -1.496637E+06 -2.258460E+05 -4.542668E+04 -5.532262E+05  4.321080E-10  2.380589E-10
       154  17 -1.483999E+06 -2.177045E+05 -6.182769E+04 -5.555614E+05  1.917323E-09 -1.532414E-09
       154  18 -1.498937E+06 -2.766382E+05 -1.129755E+05 -5.412467E+05  1.081994E-09 -6.696023E-10
       154  19 -1.345560E+06 -1.730436E+05 -4.719930E+03 -5.165582E+05 -1.800764E+04 -5.998971E+03
       154  20 -1.337191E+06 -1.601997E+05 -2.104610E+04 -5.135644E+05 -4.012848E+04 -1.423224E+04
       154  21 -1.356382E+06 -2.144116E+05 -7.207424E+04 -4.939218E+05 -6.217838E+04 -2.265487E+04
       154  22 -1.421101E+06 -1.994448E+05 -2.507271E+04 -5.348931E+05 -1.798434E+04 -5.990288E+03
       154  23 -1.410596E+06 -1.889519E+05 -4.143493E+04 -5.345638E+05 -4.012812E+04 -1.423201E+04
       154  24 -1.427660E+06 -2.455245E+05 -9.252048E+04 -5.175850E+05 -6.220103E+04 -2.266286E+04
       154  25 -1.496637E+06 -2.258459E+05 -4.542601E+04 -5.532261E+05 -1.796103E+04 -5.981605E+03
       154  26 -1.483997E+06 -2.177038E+05 -6.182427E+04 -5.555609E+05 -4.012775E+04 -1.423179E+04
       154  27 -1.498933E+06 -2.766366E+05 -1.129672E+05 -5.412455E+05 -6.222367E+04 -2.267084E+04
       155   1 -1.366230E+06 -1.785481E+05 -9.391309E+04 -5.388921E+05  7.933294E+04  2.906906E+04
       155   2 -1.314370E+06 -9.817053E+04 -1.588019E+05 -5.236274E+05  1.770724E+05  6.583747E+04
       155   3 -1.443173E+06 -4.519687E+05 -4.164332E+05 -3.907916E+05  2.746110E+05  1.031471E+05
       155   4 -1.442703E+06 -1.935226E+05 -1.121645E+05 -5.454055E+05  7.928976E+04  2.905505E+04
       155   5 -1.373937E+06 -1.278873E+05 -1.766169E+05 -5.472136E+05  1.770928E+05  6.584256E+04
       155   6 -1.485867E+06 -4.964676E+05 -4.338766E+05 -4.314442E+05  2.746978E+05  1.031640E+05
       155   7 -1.519169E+06 -2.084973E+05 -1.304161E+05 -5.519186E+05  7.924658E+04  2.904104E+04
       155   8 -1.433502E+06 -1.576030E+05 -1.944322E+05 -5.707975E+05  1.771132E+05  6.584765E+04
       155   9 -1.528558E+06 -5.409604E+05 -4.513198E+05 -4.720930E+05  2.747847E+05  1.031809E+05
       155  10 -1.366237E+06 -1.785507E+05 -9.392654E+04 -5.388940E+05 -1.369682E-09  1.187305E-09
       155  11 -1.314404E+06 -9.818363E+04 -1.588691E+05 -5.236368E+05 -8.399741E-10  3.396582E-09
       155  12 -1.443257E+06 -4.520005E+05 -4.165953E+05 -3.908144E+05  1.039335E-09 -9.503418E-10
       155  13 -1.442710E+06 -1.935252E+05 -1.121779E+05 -5.454073E+05  1.416864E-09 -3.630198E-10
       155  14 -1.373972E+06 -1.279004E+05 -1.766842E+05 -5.472231E+05  1.046865E-09  2.058363E-09
       155  15 -1.485951E+06 -4.964994E+05 -4.340388E+05 -4.314671E+05 -2.894994E-10  2.174245E-09
       155  16 -1.519176E+06 -2.084999E+05 -1.304295E+05 -5.519204E+05 -1.191435E-09  7.047093E-10
       155  17 -1.433537E+06 -1.576161E+05 -1.944995E+05 -5.708069E+05 -1.102413E-10  1.722064E-09
       155  18 -1.528642E+06 -5.409922E+05 -4.514821E+05 -4.721159E+05 -1.058972E-09  4.066848E-10
       155  19 -1.366230E+06 -1.785481E+05 -9.391309E+04 -5.388921E+05 -7.933294E+04 -2.906906E+04
       155  20 -1.314370E+06 -9.817053E+04 -1.588019E+05 -5.236274E+05 -1.770724E+05 -6.583747E+04
       155  21 -1.443173E+06 -4.519687E+05 -4.164332E+05 -3.907916E+05 -2.746110E+05 -1.031471E+05
       155  22 -1.442703E+06 -1.935226E+05 -1.121645E+05 -5.454055E+05 -7.928976E+04 -2.905505E+04
       155  23 -1.373937E+06 -1.278873E+05 -1.766169E+05 -5.472136E+05 -1.770928E+05 -6.584256E+04
       155  24 -1.485867E+06 -4.964676E+05 -4.338766E+05 -4.314442E+05 -2.746978E+05 -1.031640E+05
       155  25 -1.519169E+06 -2.084973E+05 -1.304161E+05 -5.519186E+05 -7.924658E+04 -2.904104E+04
       155  26 -1.433502E+06 -1.576030E+05 -1.944322E+05 -5.707975E+05 -1.771132E+05 -6.584765E+04
       155  27 -1.528558E+06 -5.409604E+05 -4.513198E+05 -4.720930E+05 -2.747847E+05 -1.031809E+05
       156   1  2.019823E+05  1.676473E+06  1.920248E+05 -1.369104E+05  9.183391E+03  7.481343E+04
       156   2  1.620260E+05  1.575725E+06  1.300039E+05 -1.248426E+05  3.069555E+04  3.392797E+04
       156   3  1.344555E+05  1.483379E+06  9.766020E+04 -1.279365E+05  3.610694E+04 -6.964466E+03
       156   4  1.351818E+04  9.106965E+05  1.446941E+04 -1.270387E+05  9.263582E+03  8.092073E+03
       156   5  4.766004E+03  9.096734E+05  8.872797E+03 -1.194654E+05  3.073678E+04  3.615610E+03
       156   6  2.096900E+03  9.107428E+05  7.717902E+03 -1.270533E+05  3.610184E+04 -8.747029E+02
       156   7 -1.749844E+05  1.454704E+05 -1.631086E+05 -1.171792E+05  9.341713E+03 -5.854776E+04
       156   8 -1.525183E+05  2.440542E+05 -1.122726E+05 -1.140940E+05  3.077751E+04 -2.666518E+04
       156   9 -1.302778E+05  3.384324E+05 -8.223227E+04 -1.261708E+05  3.609676E+04  5.209663E+03
       156  10  2.019807E+05  1.676467E+06  1.920142E+05 -1.369109E+05  1.035020E-09  1.511391E-09
       156  11  1.620247E+05  1.575723E+06  1.300000E+05 -1.248434E+05 -5.504581E-10  3.382530E-09
       156  12  1.344541E+05  1.483379E+06  9.765766E+04 -1.279363E+05 -1.613351E-09  4.091599E-09
       156  13  1.351807E+04  9.106964E+05  1.446913E+04 -1.270388E+05 -5.744453E-11 -1.118266E-09
       156  14  4.764986E+03  9.096731E+05  8.870997E+03 -1.194655E+05 -1.039823E-09  1.047671E-09
       156  15  2.095500E+03  9.107424E+05  7.715450E+03 -1.270532E+05  9.184017E-10 -6.975634E-10
       156  16 -1.749854E+05  1.454667E+05 -1.631152E+05 -1.171787E+05 -4.025654E-11 -1.528248E-09
       156  17 -1.525195E+05  2.440532E+05 -1.122758E+05 -1.140933E+05 -1.563602E-09 -3.273142E-09
       156  18 -1.302792E+05  3.384320E+05 -8.223477E+04 -1.261709E+05 -4.623914E-10 -3.102568E-09
       156  19  2.019823E+05  1.676473E+06  1.920248E+05 -1.369104E+05 -9.183391E+03 -7.481343E+04
       156  20  1.620260E+05  1.575725E+06  1.300039E+05 -1.248426E+05 -3.069555E+04 -3.392797E+04
       156  21  1.344555E+05  1.483379E+06  9.766020E+04 -1.279365E+05 -3.610694E+04  6.964466E+03
       156  22  1.351818E+04  9.106965E+05  1.446941E+04 -1.270387E+05 -9.263582E+03 -8.092073E+03
       156  23  4.766004E+03  9.096734E+05  8.872797E+03 -1.194654E+05 -3.073678E+04 -3.615610E+03
       156  24  2.096900E+03  9.107428E+05  7.717902E+03 -1.270533E+05 -3.610184E+04  8.747029E+02
       156  25 -1.749844E+05  1.454704E+05 -1.631086E+05 -1.171792E+05 -9.341713E+03  5.854776E+04
       156  26 -1.525183E+05  2.440542E+05 -1.122726E+05 -1.140940E+05 -3.077751E+04  2.666518E+04
       156  27 -1.302778E+05  3.384324E+05 -8.223227E+04 -1.261708E+05 -3.609676E+04 -5.209663E+03
       157   1  1.197076E+05  1.422343E+06  8.622290E+04 -1.287560E+05  3.386403E+04 -8.913191E+03
       157   2  9.749272E+04  1.324775E+06  7.115957E+04 -1.181129E+05  2.982028E+04 -1.941493E+04
       157   3  7.996728E+04  1.229715E+06  6.408542E+04 -1.237958E+05  2.364148E+04 -2.991902E+04
       157   4  1.899703E+03  9.106589E+05  8.194031E+03 -1.273121E+05  3.385725E+04 -2.152583E+03
       157   5  2.649292E+03  9.098394E+05  1.131825E+04 -1.191455E+05  2.980551E+04 -7.826412E+03
       157   6  7.253164E+03  9.106819E+05  1.908539E+04 -1.273052E+05  2.361806E+04 -1.350409E+04
       157   7 -1.159207E+05  3.992367E+05 -6.984027E+04 -1.258694E+05  3.385050E+04  4.602681E+03
       157   8 -9.220192E+04  4.950774E+05 -4.852530E+04 -1.201773E+05  2.979070E+04  3.754699E+03
       157   9 -6.546531E+04  5.917525E+05 -2.591502E+04 -1.308127E+05  2.359445E+04  2.902782E+03
       157  10  1.197063E+05  1.422342E+06  8.622060E+04 -1.287557E+05 -1.624893E-09  9.543559E-08
       157  11  9.749166E+04  1.324774E+06  7.115720E+04 -1.181125E+05  2.904919E-09 -3.952458E-09
       157  12  7.996644E+04  1.229714E+06  6.408269E+04 -1.237953E+05  5.457888E-09 -1.051560E-07
       157  13  1.898470E+03  9.106585E+05  8.191868E+03 -1.273121E+05 -2.863494E-09 -1.172273E-09
       157  14  2.648321E+03  9.098391E+05  1.131646E+04 -1.191453E+05 -7.237390E-09  1.503769E-09
       157  15  7.252516E+03  9.106816E+05  1.908400E+04 -1.273050E+05 -7.171419E-09 -9.545537E-10
       157  16 -1.159219E+05  3.992364E+05 -6.984247E+04 -1.258695E+05 -5.500864E-10 -9.532661E-08
       157  17 -9.220288E+04  4.950772E+05 -4.852699E+04 -1.201774E+05  4.743447E-10  3.819942E-09
       157  18 -6.546591E+04  5.917524E+05 -2.591608E+04 -1.308128E+05  6.516349E-09  1.060130E-07
       157  19  1.197076E+05  1.422343E+06  8.622290E+04 -1.287560E+05 -3.386403E+04  8.913191E+03
       157  20  9.749272E+04  1.324775E+06  7.115957E+04 -1.181129E+05 -2.982028E+04  1.941493E+04
       157  21  7.996728E+04  1.229715E+06  6.408542E+04 -1.237958E+05 -2.364148E+04  2.991902E+04
       157  22  1.899703E+03  9.106589E+05  8.194031E+03 -1.273121E+05 -3.385725E+04  2.152583E+03
       157  23  2.649292E+03  9.098394E+05  1.131825E+04 -1.191455E+05 -2.980551E+04  7.826412E+03
       157  24  7.253164E+03  9.106819E+05  1.908539E+04 -1.273052E+05 -2.361806E+04  1.350409E+04
       157  25 -1.159207E+05  3.992367E+05 -6.984027E+04 -1.258694E+05 -3.385050E+04 -4.602681E+03
       157  26 -9.220192E+04  4.950774E+05 -4.852530E+04 -1.201773E+05 -2.979070E+04 -3.754699E+03
       157  27 -6.546531E+04  5.917525E+05 -2.591502E+04 -1.308127E+05 -2.359445E+04 -2.902782E+03
       158   1  6.853886E+04  1.172164E+06  6.140834E+04 -1.259383E+05  1.935608E+04 -3.332782E+04
       158   2  6.601117E+04  1.069747E+06  6.920277E+04 -8.990452E+04  1.159414E+04 -5.874466E+04
       158   3  1.005580E+05  9.798632E+05  1.027815E+05 -7.035965E+04  2.860211E+03 -8.415990E+04
       158   4  9.507216E+03  9.130173E+05  2.505462E+04 -1.273479E+05  1.933161E+04 -1.680154E+04
       158   5  2.884423E+04  9.069367E+05  4.546330E+04 -1.190517E+05  1.156817E+04 -4.002505E+04
       158   6  8.487612E+04  9.129936E+05  9.013359E+04 -1.272403E+05  2.834906E+03 -6.325021E+04
       158   7 -4.952726E+04  6.539392E+05 -1.129895E+04 -1.287568E+05  1.930706E+04 -2.818416E+02
       158   8 -8.320547E+03  7.441554E+05  2.172515E+04 -1.481909E+05  1.154045E+04 -2.131015E+04
       158   9  6.920640E+04  8.461361E+05  7.748890E+04 -1.841147E+05  2.805774E+03 -4.234272E+04
       158  10  6.853816E+04  1.172163E+06  6.140555E+04 -1.259378E+05  5.144240E-09  4.539197E-08
       158  11  6.601010E+04  1.069744E+06  6.919605E+04 -8.990397E+04  6.293228E-09  8.109409E-09
       158  12  1.005561E+05  9.798556E+05  1.027682E+05 -7.035945E+04  3.039234E-09 -2.946805E-08
       158  13  9.506739E+03  9.130169E+05  2.505339E+04 -1.273476E+05 -9.003981E-09 -1.647121E-09
       158  14  2.884365E+04  9.069349E+05  4.546004E+04 -1.190513E+05 -2.371912E-09  1.448004E-09
       158  15  8.487504E+04  9.129893E+05  9.012607E+04 -1.272402E+05  1.790299E-09 -8.830622E-10
       158  16 -4.952766E+04  6.539391E+05 -1.129965E+04 -1.287568E+05  8.515376E-09 -4.540811E-08
       158  17 -8.320812E+03  7.441548E+05  2.172405E+04 -1.481907E+05  3.440620E-09 -8.125567E-09
       158  18  6.920591E+04  8.461342E+05  7.748552E+04 -1.841146E+05  1.040800E-10  3.047045E-08
       158  19  6.853886E+04  1.172164E+06  6.140834E+04 -1.259383E+05 -1.935608E+04  3.332782E+04
       158  20  6.601117E+04  1.069747E+06  6.920277E+04 -8.990452E+04 -1.159414E+04  5.874466E+04
       158  21  1.005580E+05  9.798632E+05  1.027815E+05 -7.035965E+04 -2.860211E+03  8.415990E+04
       158  22  9.507216E+03  9.130173E+05  2.505462E+04 -1.273479E+05 -1.933161E+04  1.680154E+04
       158  23  2.884423E+04  9.069367E+05  4.546330E+04 -1.190517E+05 -1.156817E+04  4.002505E+04
       158  24  8.487612E+04  9.129936E+05  9.013359E+04 -1.272403E+05 -2.834906E+03  6.325021E+04
       158  25 -4.952726E+04  6.539392E+05 -1.129895E+04 -1.287568E+05 -1.930706E+04  2.818416E+02
       158  26 -8.320547E+03  7.441554E+05  2.172515E+04 -1.481909E+05 -1.154045E+04  2.131015E+04
       158  27  6.920640E+04  8.461361E+05  7.748890E+04 -1.841147E+05 -2.805774E+03  4.234272E+04
       159   1  1.405853E+06  1.318861E+05  2.538575E+05 -9.850818E+03  3.518443E+05  6.502604E+03
       159   2  1.376380E+06 -3.434106E+05 -2.962644E+04  3.928654E+04  2.324998E+05  1.214913E+04
       159   3  1.520334E+06 -2.500805E+05 -9.014316E+04 -6.231916E+04  1.131957E+05  8.303648E+03
       159   4  2.469683E+06  3.964999E+05  5.187042E+05 -4.365466E+04  3.538779E+05  6.494603E+03
       159   5  2.383101E+06 -9.254218E+04  2.204760E+05  3.317620E+04  2.329797E+05  1.214677E+04
       159   6  2.469959E+06 -1.317565E+04  1.460232E+05 -4.072027E+04  1.121330E+05  8.303139E+03
       159   7  3.534539E+06  6.610339E+05  7.834670E+05 -7.751813E+04  3.559145E+05  6.486400E+03
       159   8  3.390738E+06  1.582506E+05  4.705029E+05  2.705475E+04  2.334601E+05  1.214441E+04
       159   9  3.420400E+06  2.236632E+05  3.821224E+05 -1.908900E+04  1.110686E+05  8.302554E+03
       159  10  1.405720E+06  1.318529E+05  2.536253E+05 -9.852660E+03 -7.764678E-10  1.799926E-10
       159  11  1.376322E+06 -3.434252E+05 -2.972806E+04  3.928427E+04  5.723309E-13  1.449496E-10
       159  12  1.520320E+06 -2.500840E+05 -9.016731E+04 -6.231992E+04 -1.131308E-09  3.065160E-10
       159  13  2.469549E+06  3.964664E+05  5.184697E+05 -4.365651E+04  1.076195E-10  1.255259E-10
       159  14  2.383043E+06 -9.255684E+04  2.203742E+05  3.317393E+04  6.129331E-11  4.884496E-10
       159  15  2.469945E+06 -1.317909E+04  1.459996E+05 -4.072102E+04 -8.259628E-10 -1.683026E-11
       159  16  3.534403E+06  6.610001E+05  7.832302E+05 -7.751999E+04  8.175120E-10  9.545532E-11
       159  17  3.390679E+06  1.582359E+05  4.704008E+05  2.705247E+04  3.182378E-09  3.460185E-10
       159  18  3.420386E+06  2.236599E+05  3.820992E+05 -1.908974E+04 -9.589020E-10 -6.913724E-10
       159  19  1.405853E+06  1.318861E+05  2.538575E+05 -9.850818E+03 -3.518443E+05 -6.502604E+03
       159  20  1.376380E+06 -3.434106E+05 -2.962644E+04  3.928654E+04 -2.324998E+05 -1.214913E+04
       159  21  1.520334E+06 -2.500805E+05 -9.014316E+04 -6.231916E+04 -1.131957E+05 -8.303648E+03
       159  22  2.469683E+06  3.964999E+05  5.187042E+05 -4.365466E+04 -3.538779E+05 -6.494603E+03
       159  23  2.383101E+06 -9.254218E+04  2.204760E+05  3.317620E+04 -2.329797E+05 -1.214677E+04
       159  24  2.469959E+06 -1.317565E+04  1.460232E+05 -4.072027E+04 -1.121330E+05 -8.303139E+03
       159  25  3.534539E+06  6.610339E+05  7.834670E+05 -7.751813E+04 -3.559145E+05 -6.486400E+03
       159  26  3.390738E+06  1.582506E+05  4.705029E+05  2.705475E+04 -2.334601E+05 -1.214441E+04
       159  27  3.420400E+06  2.236632E+05  3.821224E+05 -1.908900E+04 -1.110686E+05 -8.302554E+03
       160   1  1.896657E+06 -7.538675E+04 -1.421202E+04 -2.064765E+04  8.784434E+04  5.434777E+03
       160   2  1.911830E+06 -1.414880E+05 -6.984777E+04  1.424424E+04  5.781602E+04  4.940200E+03
       160   3  1.956094E+06 -1.219528E+05 -8.380097E+04 -2.826665E+04  2.778543E+04  3.831555E+03
       160   4  2.437986E+06  5.949483E+04  1.202963E+05 -2.540732E+04  8.787823E+04  5.433769E+03
       160   5  2.423465E+06 -1.397611E+04  5.729766E+04  1.335788E+04  5.773797E+04  4.939733E+03
       160   6  2.438033E+06 -1.828533E+03  3.603376E+04 -2.527556E+04  2.759685E+04  3.831488E+03
       160   7  2.979580E+06  1.943546E+05  2.547828E+05 -3.017128E+04  8.791212E+04  5.432761E+03
       160   8  2.935336E+06  1.135162E+05  1.844235E+05  1.247071E+04  5.765983E+04  4.939267E+03
       160   9  2.920182E+06  1.182784E+05  1.558511E+05 -2.228214E+04  2.740813E+04  3.831418E+03
       160  10  1.896649E+06 -7.538885E+04 -1.422654E+04 -2.064803E+04  1.308669E-10 -5.743898E-10
       160  11  1.911827E+06 -1.414889E+05 -6.985408E+04  1.424401E+04 -5.728565E-10  5.101604E-10
       160  12  1.956093E+06 -1.219530E+05 -8.380244E+04 -2.826674E+04 -7.692282E-10  2.091570E-10
       160  13  2.437978E+06  5.949273E+04  1.202818E+05 -2.540771E+04 -1.133220E-09 -6.494554E-11
       160  14  2.423461E+06 -1.397703E+04  5.729137E+04  1.335765E+04 -1.215023E-09 -7.600876E-11
       160  15  2.438032E+06 -1.828753E+03  3.603231E+04 -2.527564E+04  3.495108E-10  8.630472E-11
       160  16  2.979572E+06  1.943525E+05  2.547683E+05 -3.017167E+04 -8.259142E-10  3.876466E-10
       160  17  2.935333E+06  1.135153E+05  1.844173E+05  1.247048E+04 -6.049549E-10  2.080909E-10
       160  18  2.920181E+06  1.182781E+05  1.558497E+05 -2.228223E+04 -1.055411E-09 -1.354827E-09
       160  19  1.896657E+06 -7.538675E+04 -1.421202E+04 -2.064765E+04 -8.784434E+04 -5.434777E+03
       160  20  1.911830E+06 -1.414880E+05 -6.984777E+04  1.424424E+04 -5.781602E+04 -4.940200E+03
       160  21  1.956094E+06 -1.219528E+05 -8.380097E+04 -2.826665E+04 -2.778543E+04 -3.831555E+03
       160  22  2.437986E+06  5.949483E+04  1.202963E+05 -2.540732E+04 -8.787823E+04 -5.433769E+03
       160  23  2.423465E+06 -1.397611E+04  5.729766E+04  1.335788E+04 -5.773797E+04 -4.939733E+03
       160  24  2.438033E+06 -1.828533E+03  3.603376E+04 -2.527556E+04 -2.759685E+04 -3.831488E+03
       160  25  2.979580E+06  1.943546E+05  2.547828E+05 -3.017128E+04 -8.791212E+04 -5.432761E+03
       160  26  2.935336E+06  1.135162E+05  1.844235E+05  1.247071E+04 -5.765983E+04 -4.939267E+03
       160  27  2.920182E+06  1.182784E+05  1.558511E+05 -2.228214E+04 -2.740813E+04 -3.831418E+03
       161   1  2.169273E+06 -5.679874E+04 -3.664119E+04 -1.668992E+04  2.183117E+04  3.087119E+03
       161   2  2.183081E+06 -6.369902E+04 -4.647477E+04  3.974978E+03  1.412191E+04  2.241687E+03
       161   3  2.201854E+06 -5.769285E+04 -4.792727E+04 -1.774445E+04  6.412042E+03  1.720607E+03
       161   4  2.432713E+06  8.837289E+03  2.876159E+04 -1.752904E+04  2.169143E+04  3.087060E+03
       161   5  2.430238E+06 -2.107917E+03  1.494646E+04  3.660861E+03  1.402612E+04  2.241710E+03
       161   6  2.432720E+06 -1.569761E+02  9.479594E+03 -1.753250E+04  6.360393E+03  1.720644E+03
       161   7  2.696216E+06  7.446813E+04  9.415920E+04 -1.836851E+04  2.155162E+04  3.087002E+03
       161   8  2.677451E+06  5.947862E+04  7.636313E+04  3.346632E+03  1.393028E+04  2.241733E+03
       161   9  2.663634E+06  5.737491E+04  6.688247E+04 -1.732046E+04  6.308724E+03  1.720680E+03
       161  10  2.169273E+06 -5.679887E+04 -3.664210E+04 -1.668997E+04  6.179000E-10 -3.571852E-10
       161  11  2.183081E+06 -6.369908E+04 -4.647516E+04  3.974952E+03  1.529703E-09 -7.330567E-10
       161  12  2.201854E+06 -5.769287E+04 -4.792735E+04 -1.774446E+04  3.156862E-10 -6.554907E-11
       161  13  2.432713E+06  8.837153E+03  2.876069E+04 -1.752909E+04 -1.132946E-09 -2.216378E-11
       161  14  2.430238E+06 -2.107975E+03  1.494608E+04  3.660836E+03  5.393803E-10  1.440413E-10
       161  15  2.432720E+06 -1.569901E+02  9.479513E+03 -1.753251E+04 -5.531783E-11 -2.542210E-10
       161  16  2.696216E+06  7.446800E+04  9.415831E+04 -1.836857E+04 -6.035125E-10 -8.644717E-10
       161  17  2.677451E+06  5.947856E+04  7.636276E+04  3.346607E+03 -1.249200E-09  8.372468E-10
       161  18  2.663634E+06  5.737490E+04  6.688239E+04 -1.732047E+04  1.632935E-11 -1.947774E-10
       161  19  2.169273E+06 -5.679874E+04 -3.664119E+04 -1.668992E+04 -2.183117E+04 -3.087119E+03
       161  20  2.183081E+06 -6.369902E+04 -4.647477E+04  3.974978E+03 -1.412191E+04 -2.241687E+03
       161  21  2.201854E+06 -5.769285E+04 -4.792727E+04 -1.774445E+04 -6.412042E+03 -1.720607E+03
       161  22  2.432713E+06  8.837289E+03  2.876159E+04 -1.752904E+04 -2.169143E+04 -3.087060E+03
       161  23  2.430238E+06 -2.107917E+03  1.494646E+04  3.660861E+03 -1.402612E+04 -2.241710E+03
       161  24  2.432720E+06 -1.569761E+02  9.479594E+03 -1.753250E+04 -6.360393E+03 -1.720644E+03
       161  25  2.696216E+06  7.446813E+04  9.415920E+04 -1.836851E+04 -2.155162E+04 -3.087002E+03
       161  26  2.677451E+06  5.947862E+04  7.636313E+04  3.346632E+03 -1.393028E+04 -2.241733E+03
       161  27  2.663634E+06  5.737491E+04  6.688247E+04 -1.732046E+04 -6.308724E+03 -1.720680E+03
       162   1  2.327300E+06 -2.473260E+04 -1.822270E+04 -1.381313E+04  4.891814E+03  1.422667E+03
       162   2  2.337095E+06 -2.387193E+04 -1.833626E+04 -5.525139E+02  2.297137E+03  8.441177E+02
       162   3  2.347825E+06 -2.062680E+04 -1.616920E+04 -1.401010E+04 -2.974998E+02  4.613813E+02
       162   4  2.431839E+06  1.307354E+03  7.709346E+03 -1.404845E+04  4.794067E+03  1.422807E+03
       162   5  2.431374E+06 -3.798027E+02  5.091935E+03 -6.902090E+02  2.227292E+03  8.442336E+02
       162   6  2.431838E+06  3.124227E+02  4.735523E+03 -1.404992E+04 -3.394000E+02  4.614604E+02
       162   7  2.536387E+06  2.734649E+04  3.364058E+04 -1.428380E+04  4.696304E+03  1.422946E+03
       162   8  2.525660E+06  2.311166E+04  2.851946E+04 -8.279214E+02  2.157437E+03  8.443495E+02
       162   9  2.515858E+06  2.125112E+04  2.563972E+04 -1.408974E+04 -3.813059E+02  4.615395E+02
       162  10  2.327300E+06 -2.473261E+04 -1.822275E+04 -1.381314E+04 -2.416006E-10 -4.118465E-11
       162  11  2.337095E+06 -2.387193E+04 -1.833627E+04 -5.525154E+02  3.210874E-09  3.804776E-10
       162  12  2.347825E+06 -2.062681E+04 -1.616920E+04 -1.401010E+04  5.752647E-10  1.321894E-10
       162  13  2.431838E+06  1.307346E+03  7.709299E+03 -1.404845E+04 -1.035903E-09 -2.062580E-10
       162  14  2.431374E+06 -3.798048E+02  5.091924E+03 -6.902105E+02 -1.079015E-10  8.774269E-10
       162  15  2.431838E+06  3.124224E+02  4.735523E+03 -1.404992E+04  6.505288E-10  2.782812E-10
       162  16  2.536387E+06  2.734648E+04  3.364054E+04 -1.428380E+04  1.588248E-09 -1.230200E-09
       162  17  2.525660E+06  2.311165E+04  2.851945E+04 -8.279228E+02 -3.615182E-10 -3.302201E-10
       162  18  2.515858E+06  2.125112E+04  2.563972E+04 -1.408974E+04 -1.299676E-09  5.106786E-10
       162  19  2.327300E+06 -2.473260E+04 -1.822270E+04 -1.381313E+04 -4.891814E+03 -1.422667E+03
       162  20  2.337095E+06 -2.387193E+04 -1.833626E+04 -5.525139E+02 -2.297137E+03 -8.441177E+02
       162  21  2.347825E+06 -2.062680E+04 -1.616920E+04 -1.401010E+04  2.974998E+02 -4.613813E+02
       162  22  2.431839E+06  1.307354E+03  7.709346E+03 -1.404845E+04 -4.794067E+03 -1.422807E+03
       162  23  2.431374E+06 -3.798027E+02  5.091935E+03 -6.902090E+02 -2.227292E+03 -8.442336E+02
       162  24  2.431838E+06  3.124227E+02  4.735523E+03 -1.404992E+04  3.394000E+02 -4.614604E+02
       162  25  2.536387E+06  2.734649E+04  3.364058E+04 -1.428380E+04 -4.696304E+03 -1.422946E+03
       162  26  2.525660E+06  2.311166E+04  2.851946E+04 -8.279213E+02 -2.157437E+03 -8.443495E+02
       162  27  2.515858E+06  2.125112E+04  2.563972E+04 -1.408974E+04  3.813059E+02 -4.615395E+02
       163   1  2.439014E+06  1.947250E+03  6.782355E+03 -1.314276E+04 -1.163939E+03  2.698493E+02
       163   2  2.447331E+06  3.468844E+03  1.049476E+04 -1.733001E+03 -4.448551E+03 -1.376432E+02
       163   3  2.456780E+06  8.259070E+03  1.713368E+04 -1.344727E+04 -7.733220E+03 -5.628241E+02
       163   4  2.431886E+06  1.655820E+02  4.980163E+03 -1.325210E+04 -1.222450E+03  2.699683E+02
       163   5  2.431318E+06 -5.211879E+02  6.515859E+03 -1.688210E+03 -4.509547E+03 -1.375225E+02
       163   6  2.431881E+06  2.061168E+03  1.097986E+04 -1.324838E+04 -7.796654E+03 -5.627032E+02
       163   7  2.424758E+06 -1.616090E+03  3.177968E+03 -1.336144E+04 -1.280960E+03  2.700874E+02
       163   8  2.415304E+06 -4.511239E+03  2.536936E+03 -1.643421E+03 -4.570541E+03 -1.374018E+02
       163   9  2.406983E+06 -4.136780E+03  4.825990E+03 -1.304950E+04 -7.860085E+03 -5.625824E+02
       163  10  2.439014E+06  1.947250E+03  6.782353E+03 -1.314276E+04  7.917949E-10 -4.599710E-10
       163  11  2.447331E+06  3.468838E+03  1.049473E+04 -1.733002E+03  1.106899E-10 -1.177101E-09
       163  12  2.456780E+06  8.259053E+03  1.713356E+04 -1.344728E+04 -1.275112E-09  1.158209E-10
       163  13  2.431886E+06  1.655815E+02  4.980160E+03 -1.325210E+04 -8.449766E-11  1.641552E-10
       163  14  2.431318E+06 -5.211934E+02  6.515821E+03 -1.688211E+03  4.297634E-10  2.331638E-10
       163  15  2.431881E+06  2.061151E+03  1.097974E+04 -1.324839E+04 -1.723791E-09  1.355365E-10
       163  16  2.424758E+06 -1.616091E+03  3.177964E+03 -1.336144E+04  1.894911E-10 -3.364535E-10
       163  17  2.415304E+06 -4.511244E+03  2.536897E+03 -1.643421E+03 -3.542034E-09 -7.300003E-10
       163  18  2.406983E+06 -4.136797E+03  4.825873E+03 -1.304951E+04  2.133802E-09 -1.071399E-09
       163  19  2.439014E+06  1.947250E+03  6.782355E+03 -1.314276E+04  1.163939E+03 -2.698493E+02
       163  20  2.447331E+06  3.468844E+03  1.049476E+04 -1.733001E+03  4.448551E+03  1.376432E+02
       163  21  2.456780E+06  8.259070E+03  1.713368E+04 -1.344727E+04  7.733220E+03  5.628241E+02
       163  22  2.431886E+06  1.655820E+02  4.980163E+03 -1.325210E+04  1.222450E+03 -2.699683E+02
       163  23  2.431318E+06 -5.211879E+02  6.515859E+03 -1.688210E+03  4.509547E+03  1.375225E+02
       163  24  2.431881E+06  2.061168E+03  1.097986E+04 -1.324838E+04  7.796654E+03  5.627032E+02
       163  25  2.424758E+06 -1.616090E+03  3.177968E+03 -1.336144E+04  1.280960E+03 -2.700874E+02
       163  26  2.415304E+06 -4.511239E+03  2.536936E+03 -1.643421E+03  4.570541E+03  1.374018E+02
       163  27  2.406983E+06 -4.136780E+03  4.825990E+03 -1.304950E+04  7.860085E+03  5.625824E+02
       164   1  2.555109E+06  3.006036E+04  4.410397E+04 -1.424421E+04 -9.994179E+03 -7.831891E+02
       164   2  2.563351E+06  3.006700E+04  5.554189E+04 -1.847189E+02 -2.143628E+04 -1.187776E+03
       164   3  2.578126E+06  4.980053E+04  7.936277E+04 -1.610263E+04 -3.287844E+04 -1.742510E+03
       164   4  2.433081E+06 -3.445629E+02  1.375703E+04 -1.478081E+04 -1.004341E+04 -7.830952E+02
       164   5  2.429800E+06 -3.206915E+03  2.236098E+04  2.174419E+02 -2.150503E+04 -1.187692E+03
       164   6  2.433058E+06  1.366343E+04  4.336340E+04 -1.476211E+04 -3.296651E+04 -1.742483E+03
       164   7  2.311066E+06 -3.075060E+04 -1.659102E+04 -1.531730E+04 -1.009264E+04 -7.830013E+02
       164   8  2.296265E+06 -3.648216E+04 -1.082127E+04  6.195228E+02 -2.157378E+04 -1.187608E+03
       164   9  2.288008E+06 -2.247525E+04  7.362455E+03 -1.342189E+04 -3.305456E+04 -1.742456E+03
       164  10  2.555109E+06  3.006033E+04  4.410378E+04 -1.424422E+04 -2.913565E-10 -4.584050E-10
       164  11  2.563350E+06  3.006688E+04  5.554103E+04 -1.847394E+02  7.954581E-11 -9.300168E-10
       164  12  2.578125E+06  4.980024E+04  7.936075E+04 -1.610268E+04 -9.746675E-10  1.269843E-10
       164  13  2.433081E+06 -3.445906E+02  1.375684E+04 -1.478082E+04 -1.971911E-09 -9.837379E-10
       164  14  2.429799E+06 -3.207040E+03  2.236011E+04  2.174213E+02 -8.605271E-10 -1.133683E-09
       164  15  2.433056E+06  1.366313E+04  4.336136E+04 -1.476215E+04 -7.359241E-10 -3.247402E-10
       164  16  2.311066E+06 -3.075063E+04 -1.659121E+04 -1.531731E+04  1.018838E-09 -5.202816E-10
       164  17  2.296264E+06 -3.648229E+04 -1.082214E+04  6.195022E+02  2.556329E-11 -8.234880E-10
       164  18  2.288007E+06 -2.247554E+04  7.360404E+03 -1.342194E+04  7.005101E-10 -1.179333E-10
       164  19  2.555109E+06  3.006036E+04  4.410397E+04 -1.424421E+04  9.994179E+03  7.831891E+02
       164  20  2.563351E+06  3.006700E+04  5.554189E+04 -1.847189E+02  2.143628E+04  1.187776E+03
       164  21  2.578126E+06  4.980053E+04  7.936277E+04 -1.610263E+04  3.287844E+04  1.742510E+03
       164  22  2.433081E+06 -3.445629E+02  1.375703E+04 -1.478081E+04  1.004341E+04  7.830952E+02
       164  23  2.429800E+06 -3.206915E+03  2.236098E+04  2.174419E+02  2.150503E+04  1.187692E+03
       164  24  2.433058E+06  1.366343E+04  4.336340E+04 -1.476211E+04  3.296651E+04  1.742483E+03
       164  25  2.311066E+06 -3.075060E+04 -1.659102E+04 -1.531730E+04  1.009264E+04  7.830013E+02
       164  26  2.296265E+06 -3.648216E+04 -1.082127E+04  6.195228E+02  2.157378E+04  1.187608E+03
       164  27  2.288008E+06 -2.247525E+04  7.362455E+03 -1.342189E+04  3.305456E+04  1.742456E+03
       165   1  2.732465E+06  6.985506E+04  1.267672E+05 -1.500943E+04 -4.170266E+04 -2.222693E+03
       165   2  2.731942E+06  5.637713E+04  1.641975E+05  3.759158E+03 -8.740014E+04 -2.935831E+03
       165   3  2.771149E+06  1.731841E+05  2.641139E+05 -2.795598E+04 -1.330997E+05 -3.253002E+03
       165   4  2.440438E+06 -2.888274E+03  5.418613E+04 -1.933260E+04 -4.182709E+04 -2.222322E+03
       165   5  2.420510E+06 -2.120532E+04  8.684290E+04  5.900687E+03 -8.744737E+04 -2.936193E+03
       165   6  2.440318E+06  9.078420E+04  1.819548E+05 -1.935099E+04 -1.330683E+05 -3.254951E+03
       165   7  2.148487E+06 -7.563791E+04 -1.840126E+04 -2.365373E+04 -4.195147E+04 -2.221950E+03
       165   8  2.109165E+06 -9.879501E+04  9.481038E+03  8.041155E+03 -8.749457E+04 -2.936556E+03
       165   9  2.109586E+06  8.376413E+03  9.978758E+04 -1.075056E+04 -1.330369E+05 -3.256900E+03
       165  10  2.732464E+06  6.985459E+04  1.267639E+05 -1.500950E+04 -4.566112E-10 -7.023996E-10
       165  11  2.731934E+06  5.637508E+04  1.641832E+05  3.758951E+03 -5.914039E-10 -2.755414E-10
       165  12  2.771130E+06  1.731793E+05  2.640807E+05 -2.795633E+04 -1.006079E-09 -1.661415E-10
       165  13  2.440436E+06 -2.888746E+03  5.418284E+04 -1.933268E+04  8.606560E-10  2.995526E-10
       165  14  2.420502E+06 -2.120738E+04  8.682857E+04  5.900481E+03  3.343069E-09  1.539133E-10
       165  15  2.440299E+06  9.077946E+04  1.819216E+05 -1.935133E+04  1.240916E-10 -2.856283E-11
       165  16  2.148486E+06 -7.563839E+04 -1.840456E+04 -2.365381E+04  1.653885E-09 -3.620728E-10
       165  17  2.109157E+06 -9.879707E+04  9.466685E+03  8.040948E+03 -3.937692E-10  2.188550E-11
       165  18  2.109567E+06  8.371670E+03  9.975441E+04 -1.075091E+04 -8.103220E-10 -4.143805E-11
       165  19  2.732465E+06  6.985506E+04  1.267672E+05 -1.500943E+04  4.170266E+04  2.222693E+03
       165  20  2.731942E+06  5.637713E+04  1.641975E+05  3.759158E+03  8.740014E+04  2.935831E+03
       165  21  2.771149E+06  1.731841E+05  2.641139E+05 -2.795598E+04  1.330997E+05  3.253002E+03
       165  22  2.440438E+06 -2.888274E+03  5.418613E+04 -1.933260E+04  4.182709E+04  2.222322E+03
       165  23  2.420510E+06 -2.120532E+04  8.684290E+04  5.900687E+03  8.744737E+04  2.936193E+03
       165  24  2.440318E+06  9.078420E+04  1.819548E+05 -1.935099E+04  1.330683E+05  3.254951E+03
       165  25  2.148487E+06 -7.563791E+04 -1.840126E+04 -2.365373E+04  4.195147E+04  2.221950E+03
       165  26  2.109165E+06 -9.879501E+04  9.481038E+03  8.041155E+03  8.749457E+04  2.936556E+03
       165  27  2.109586E+06  8.376413E+03  9.978758E+04 -1.075056E+04  1.330369E+05  3.256900E+03
       166   1  3.079091E+06  1.277501E+05  3.675200E+05  8.847524E+02 -1.689391E+05 -5.079736E+03
       166   2  2.993194E+06  1.703850E+04  4.910099E+05  4.013969E+03 -3.530089E+05 -7.574872E+03
       166   3  3.151603E+06  7.655592E+05  9.499814E+05 -8.941737E+04 -5.370944E+05 -4.231260E+03
       166   4  2.485896E+06 -2.005765E+04  2.201452E+05 -2.897272E+04 -1.695847E+05 -5.072540E+03
       166   5  2.363414E+06 -1.397390E+05  3.347121E+05  1.827513E+04 -3.526511E+05 -7.583186E+03
       166   6  2.485301E+06  6.000933E+05  7.843122E+05 -3.103419E+04 -5.357222E+05 -4.278483E+03
       166   7  1.893020E+06 -1.678885E+05  7.274457E+04 -5.880182E+04 -1.702296E+05 -5.065277E+03
       166   8  1.733992E+06 -2.965452E+05  1.783849E+05  3.252167E+04 -3.522935E+05 -7.591491E+03
       166   9  1.819407E+06  4.346073E+05  6.186118E+05  2.728628E+04 -5.343512E+05 -4.325494E+03
       166  10  3.079060E+06  1.277425E+05  3.674666E+05  8.840623E+02 -8.824797E-10 -1.748318E-10
       166  11  2.993061E+06  1.700520E+04  4.907768E+05  4.011820E+03 -8.899163E-10 -1.060655E-09
       166  12  3.151294E+06  7.654822E+05  9.494419E+05 -8.941921E+04  7.119432E-10 -1.039757E-09
       166  13  2.485865E+06 -2.006536E+04  2.200913E+05 -2.897341E+04  5.071050E-11 -1.419097E-10
       166  14  2.363281E+06 -1.397722E+05  3.344792E+05  1.827298E+04 -1.181271E-09 -1.092345E-09
       166  15  2.484993E+06  6.000166E+05  7.837750E+05 -3.103604E+04 -1.000245E-09 -2.488008E-10
       166  16  1.892989E+06 -1.678962E+05  7.269024E+04 -5.880251E+04  1.489964E-09  1.031774E-11
       166  17  1.733859E+06 -2.965785E+05  1.781523E+05  3.251952E+04 -9.549935E-10 -2.064317E-10
       166  18  1.819101E+06  4.345309E+05  6.180768E+05  2.728442E+04  8.536178E-10 -1.949660E-10
       166  19  3.079091E+06  1.277501E+05  3.675200E+05  8.847524E+02  1.689391E+05  5.079736E+03
       166  20  2.993194E+06  1.703850E+04  4.910099E+05  4.013969E+03  3.530089E+05  7.574872E+03
       166  21  3.151603E+06  7.655592E+05  9.499814E+05 -8.941737E+04  5.370944E+05  4.231260E+03
       166  22  2.485896E+06 -2.005765E+04  2.201452E+05 -2.897272E+04  1.695847E+05  5.072540E+03
       166  23  2.363414E+06 -1.397390E+05  3.347121E+05  1.827513E+04  3.526511E+05  7.583186E+03
       166  24  2.485301E+06  6.000933E+05  7.843122E+05 -3.103419E+04  5.357222E+05  4.278483E+03
       166  25  1.893020E+06 -1.678885E+05  7.274457E+04 -5.880182E+04  1.702296E+05  5.065277E+03
       166  26  1.733992E+06 -2.965452E+05  1.783849E+05  3.252167E+04  3.522935E+05  7.591491E+03
       166  27  1.819407E+06  4.346073E+05  6.186118E+05  2.728628E+04  5.343512E+05  4.325494E+03
       167   1 -9.059044E+04 -2.304228E+05 -6.453309E+04  1.771077E+04 -3.120802E+03  7.200684E+04
       167   2 -1.867328E+05 -2.248710E+05 -1.199701E+05 -1.096045E+04 -7.545929E+03  4.730468E+04
       167   3 -1.630601E+05 -1.789830E+05 -1.279421E+05  2.780991E+04 -5.579314E+03  2.264409E+04
       167   4  8.297825E+04  4.646139E+05  1.089368E+05  2.206596E+04 -3.128585E+03  7.318639E+04
       167   5 -1.958251E+04  4.443615E+05  4.663849E+04 -1.197143E+04 -7.546727E+03  4.753886E+04
       167   6 -2.230655E+03  4.645760E+05  3.242484E+04  2.142793E+04 -5.575726E+03  2.193394E+04
       167   7  2.565107E+05  1.160088E+06  2.823704E+05  2.642685E+04 -3.136347E+03  7.436722E+04
       167   8  1.475341E+05  1.114000E+06  2.132135E+05 -1.298287E+04 -7.547526E+03  4.777328E+04
       167   9  1.585677E+05  1.108510E+06  1.927607E+05  1.503977E+04 -5.572125E+03  2.122305E+04
       167  10 -9.059184E+04 -2.304284E+05 -6.454285E+04  1.771095E+04  1.822332E-09  5.777676E-10
       167  11 -1.867335E+05 -2.248734E+05 -1.199744E+05 -1.096016E+04 -2.273582E-10 -1.732865E-10
       167  12 -1.630602E+05 -1.789835E+05 -1.279431E+05  2.781002E+04 -5.467458E-10 -1.005602E-09
       167  13  8.297680E+04  4.646081E+05  1.089268E+05  2.206614E+04  2.137719E-09 -1.848325E-11
       167  14 -1.958318E+04  4.443590E+05  4.663413E+04 -1.197114E+04  2.561300E-09  3.715428E-11
       167  15 -2.230818E+03  4.645755E+05  3.242388E+04  2.142803E+04 -1.132248E-10 -9.938686E-11
       167  16  2.565092E+05  1.160083E+06  2.823600E+05  2.642704E+04  2.387198E-09 -6.311648E-10
       167  17  1.475335E+05  1.113998E+06  2.132091E+05 -1.298258E+04  9.142870E-09 -1.195548E-10
       167  18  1.585676E+05  1.108510E+06  1.927598E+05  1.503986E+04  3.413266E-10  8.918472E-10
       167  19 -9.059044E+04 -2.304228E+05 -6.453309E+04  1.771077E+04  3.120802E+03 -7.200684E+04
       167  20 -1.867328E+05 -2.248710E+05 -1.199701E+05 -1.096045E+04  7.545929E+03 -4.730468E+04
       167  21 -1.630601E+05 -1.789830E+05 -1.279421E+05  2.780991E+04  5.579314E+03 -2.264409E+04
       167  22  8.297825E+04  4.646139E+05  1.089368E+05  2.206596E+04  3.128585E+03 -7.318639E+04
       167  23 -1.958251E+04  4.443615E+05  4.663849E+04 -1.197143E+04  7.546727E+03 -4.753886E+04
       167  24 -2.230655E+03  4.645760E+05  3.242484E+04  2.142793E+04  5.575726E+03 -2.193394E+04
       167  25  2.565107E+05  1.160088E+06  2.823704E+05  2.642685E+04  3.136347E+03 -7.436722E+04
       167  26  1.475341E+05  1.114000E+06  2.132135E+05 -1.298287E+04  7.547526E+03 -4.777328E+04
       167  27  1.585677E+05  1.108510E+06  1.927607E+05  1.503977E+04  5.572125E+03 -2.122305E+04
       168   1 -9.006444E+04  4.872310E+04 -7.446924E+04  1.937449E+04 -3.943650E+03  1.642169E+04
       168   2 -1.004798E+05  6.609121E+04 -8.083408E+04 -8.560016E+03 -3.782968E+03  8.367323E+03
       168   3 -8.753096E+04  9.287554E+04 -7.560648E+04  2.110749E+04 -2.724341E+03  3.144314E+02
       168   4  1.208865E+04  4.577647E+05  2.739857E+04  1.947380E+04 -3.943675E+03  1.647531E+04
       168   5 -3.837441E+03  4.530354E+05  1.552390E+04 -9.346433E+03 -3.782551E+03  8.286929E+03
       168   6  3.616549E+03  4.577415E+05  1.532967E+04  1.943306E+04 -2.723706E+03  1.003120E+02
       168   7  1.142292E+05  8.669579E+05  1.292538E+05  1.957334E+04 -3.943699E+03  1.652896E+04
       168   8  9.279369E+04  8.401154E+05  1.118706E+05 -1.013323E+04 -3.782133E+03  8.206483E+03
       168   9  9.475404E+04  8.227281E+05  1.062558E+05  1.775771E+04 -2.723069E+03 -1.139332E+02
       168  10 -9.006453E+04  4.872281E+04 -7.446978E+04  1.937454E+04 -2.523071E-09  3.918375E-10
       168  11 -1.004799E+05  6.609113E+04 -8.083423E+04 -8.559990E+03  1.304604E-09 -2.757745E-10
       168  12 -8.753096E+04  9.287554E+04 -7.560649E+04  2.110749E+04  6.347431E-10 -5.537939E-10
       168  13  1.208856E+04  4.577644E+05  2.739803E+04  1.947386E+04 -2.134725E-09 -6.755568E-11
       168  14 -3.837475E+03  4.530353E+05  1.552375E+04 -9.346408E+03  1.322261E-09  1.783746E-11
       168  15  3.616541E+03  4.577415E+05  1.532966E+04  1.943306E+04  4.905591E-10  7.240137E-11
       168  16  1.142291E+05  8.669576E+05  1.292533E+05  1.957339E+04 -1.778212E-09 -3.639948E-10
       168  17  9.279365E+04  8.401153E+05  1.118705E+05 -1.013320E+04 -1.047650E-09  3.846573E-10
       168  18  9.475404E+04  8.227281E+05  1.062558E+05  1.775771E+04 -9.264268E-11  5.757551E-10
       168  19 -9.006444E+04  4.872310E+04 -7.446924E+04  1.937449E+04  3.943650E+03 -1.642169E+04
       168  20 -1.004798E+05  6.609121E+04 -8.083408E+04 -8.560016E+03  3.782968E+03 -8.367323E+03
       168  21 -8.753096E+04  9.287554E+04 -7.560648E+04  2.110749E+04  2.724341E+03 -3.144314E+02
       168  22  1.208865E+04  4.577647E+05  2.739857E+04  1.947380E+04  3.943675E+03 -1.647531E+04
       168  23 -3.837441E+03  4.530354E+05  1.552390E+04 -9.346433E+03  3.782551E+03 -8.286929E+03
       168  24  3.616549E+03  4.577415E+05  1.532967E+04  1.943306E+04  2.723706E+03 -1.003120E+02
       168  25  1.142292E+05  8.669579E+05  1.292538E+05  1.957334E+04  3.943699E+03 -1.652896E+04
       168  26  9.279369E+04  8.401154E+05  1.118706E+05 -1.013323E+04  3.782133E+03 -8.206483E+03
       168  27  9.475404E+04  8.227281E+05  1.062558E+05  1.775771E+04  2.723069E+03  1.139332E+02
       169   1 -3.815592E+04  3.023049E+05 -2.347596E+04  1.721409E+04 -2.061934E+03 -2.590999E+03
       169   2 -4.047124E+04  3.167188E+05 -1.652531E+04 -7.237218E+03 -1.276133E+03 -1.192347E+04
       169   3 -2.289136E+03  3.429773E+05  6.726080E+03  2.135484E+04 -2.887286E+02 -2.125629E+04
       169   4  7.849689E+02  4.583173E+05  1.531545E+04  1.841585E+04 -2.061698E+03 -2.687109E+03
       169   5 -6.589187E+03  4.523865E+05  1.725612E+04 -8.084456E+03 -1.275858E+03 -1.205045E+04
       169   6  2.653495E+04  4.583037E+05  3.551671E+04  1.845783E+04 -2.883757E+02 -2.141384E+04
       169   7  3.972404E+04  6.143517E+05  5.410504E+04  1.961792E+04 -2.061461E+03 -2.783243E+03
       169   8  2.729149E+04  5.880709E+05  5.103616E+04 -8.931871E+03 -1.275583E+03 -1.217746E+04
       169   9  5.535806E+04  5.736422E+05  6.430635E+04  1.556028E+04 -2.880214E+02 -2.157141E+04
       169  10 -3.815593E+04  3.023049E+05 -2.347598E+04  1.721409E+04 -2.958342E-10  2.705471E-10
       169  11 -4.047128E+04  3.167186E+05 -1.652558E+04 -7.237230E+03  2.427605E-09 -1.807475E-11
       169  12 -2.289257E+03  3.429768E+05  6.725231E+03  2.135483E+04  7.862926E-10 -2.936634E-10
       169  13  7.849624E+02  4.583173E+05  1.531543E+04  1.841584E+04  1.387434E-09 -4.062055E-11
       169  14 -6.589228E+03  4.523864E+05  1.725584E+04 -8.084468E+03  1.522706E-09 -1.495906E-11
       169  15  2.653482E+04  4.583032E+05  3.551585E+04  1.845782E+04  2.480285E-10 -1.512164E-11
       169  16  3.972403E+04  6.143516E+05  5.410502E+04  1.961791E+04 -1.147555E-09 -1.910129E-10
       169  17  2.729144E+04  5.880708E+05  5.103588E+04 -8.931884E+03  1.155004E-09 -1.436431E-11
       169  18  5.535793E+04  5.736417E+05  6.430547E+04  1.556028E+04  6.793314E-10  2.046456E-10
       169  19 -3.815592E+04  3.023049E+05 -2.347596E+04  1.721409E+04  2.061934E+03  2.590999E+03
       169  20 -4.047124E+04  3.167188E+05 -1.652531E+04 -7.237218E+03  1.276133E+03  1.192347E+04
       169  21 -2.289136E+03  3.429773E+05  6.726080E+03  2.135484E+04  2.887286E+02  2.125629E+04
       169  22  7.849689E+02  4.583173E+05  1.531545E+04  1.841585E+04  2.061698E+03  2.687109E+03
       169  23 -6.589187E+03  4.523865E+05  1.725612E+04 -8.084456E+03  1.275858E+03  1.205045E+04
       169  24  2.653495E+04  4.583037E+05  3.551671E+04  1.845783E+04  2.883757E+02  2.141384E+04
       169  25  3.972404E+04  6.143517E+05  5.410504E+04  1.961792E+04  2.061461E+03  2.783243E+03
       169  26  2.729149E+04  5.880709E+05  5.103616E+04 -8.931871E+03  1.275583E+03  1.217746E+04
       169  27  5.535806E+04  5.736422E+05  6.430635E+04  1.556028E+04  2.880214E+02  2.157141E+04
       170   1 -1.375356E+06 -2.926108E+05 -2.477022E+05 -4.552273E+05 -3.294378E+05 -1.316594E+05
       170   2 -1.265120E+06  8.351232E+04  4.462948E+04 -6.647569E+05 -2.095307E+05 -9.383909E+04
       170   3 -1.486203E+06  6.575157E+04  1.081478E+05 -5.865108E+05 -9.439755E+04 -4.375082E+04
       170   4 -2.405122E+06 -6.534781E+05 -5.259805E+05 -7.066754E+05 -3.308335E+05 -1.322208E+05
       170   5 -2.211850E+06 -2.731174E+05 -2.154763E+05 -9.210856E+05 -2.094700E+05 -9.382068E+04
       170   6 -2.350539E+06 -2.874287E+05 -1.352507E+05 -8.476241E+05 -9.286583E+04 -4.314990E+04
       170   7 -3.433871E+06 -1.014322E+06 -8.043514E+05 -9.577658E+05 -3.322262E+05 -1.327812E+05
       170   8 -3.157719E+06 -6.296997E+05 -4.756639E+05 -1.177065E+06 -2.094091E+05 -9.380222E+04
       170   9 -3.214155E+06 -6.405360E+05 -3.787209E+05 -1.108399E+06 -9.133640E+04 -4.254997E+04
       170  10 -1.375477E+06 -2.926586E+05 -2.479393E+05 -4.552623E+05 -7.634629E-11 -3.216894E-11
       170  11 -1.265169E+06  8.349102E+04  4.453018E+04 -6.647728E+05 -3.237174E-10  3.590935E-10
       170  12 -1.486213E+06  6.574711E+04  1.081274E+05 -5.865142E+05  3.038363E-09  6.745240E-10
       170  13 -2.405245E+06 -6.535265E+05 -5.262201E+05 -7.067108E+05  1.339811E-09 -3.528017E-10
       170  14 -2.211899E+06 -2.731388E+05 -2.155757E+05 -9.211015E+05  7.728622E-09 -6.613753E-10
       170  15 -2.350548E+06 -2.874330E+05 -1.352705E+05 -8.476273E+05  4.092358E-09 -1.240166E-09
       170  16 -3.433995E+06 -1.014371E+06 -8.045934E+05 -9.578015E+05  1.252289E-09 -2.803692E-10
       170  17 -3.157769E+06 -6.297211E+05 -4.757634E+05 -1.177081E+06  2.902054E-09  4.382419E-10
       170  18 -3.214164E+06 -6.405402E+05 -3.787400E+05 -1.108402E+06 -5.735144E-09 -4.343064E-10
       170  19 -1.375356E+06 -2.926108E+05 -2.477022E+05 -4.552273E+05  3.294378E+05  1.316594E+05
       170  20 -1.265120E+06  8.351232E+04  4.462948E+04 -6.647569E+05  2.095307E+05  9.383909E+04
       170  21 -1.486203E+06  6.575157E+04  1.081478E+05 -5.865108E+05  9.439755E+04  4.375082E+04
       170  22 -2.405122E+06 -6.534781E+05 -5.259805E+05 -7.066754E+05  3.308335E+05  1.322208E+05
       170  23 -2.211850E+06 -2.731174E+05 -2.154763E+05 -9.210856E+05  2.094700E+05  9.382068E+04
       170  24 -2.350539E+06 -2.874287E+05 -1.352507E+05 -8.476241E+05  9.286583E+04  4.314990E+04
       170  25 -3.433871E+06 -1.014322E+06 -8.043514E+05 -9.577658E+05  3.322262E+05  1.327812E+05
       170  26 -3.157719E+06 -6.296997E+05 -4.756639E+05 -1.177065E+06  2.094091E+05  9.380222E+04
       170  27 -3.214155E+06 -6.405360E+05 -3.787209E+05 -1.108399E+06  9.133640E+04  4.254997E+04
       171   1 -2.313197E+06 -3.344128E+05 -1.045646E+05 -7.995889E+05 -7.419843E+04 -3.126359E+04
       171   2 -2.290126E+06 -3.778947E+05 -6.435503E+04 -9.320226E+05 -4.855966E+04 -1.866644E+04
       171   3 -2.471033E+06 -3.358747E+05 -6.689569E+04 -8.599466E+05 -2.345161E+04 -4.719130E+03
       171   4 -2.346159E+06 -3.418535E+05 -1.124778E+05 -8.036574E+05 -7.399066E+04 -3.118308E+04
       171   5 -2.239896E+06 -3.571328E+05 -5.015013E+04 -9.166279E+05 -4.817255E+04 -1.851517E+04
       171   6 -2.337655E+06 -2.869457E+05 -3.071904E+04 -8.250937E+05 -2.288119E+04 -4.496009E+03
       171   7 -2.379119E+06 -3.492942E+05 -1.203911E+05 -8.077259E+05 -7.378290E+04 -3.110257E+04
       171   8 -2.189663E+06 -3.363706E+05 -3.594548E+04 -9.012320E+05 -4.778541E+04 -1.836388E+04
       171   9 -2.204260E+06 -2.380159E+05  5.456051E+03 -7.902342E+05 -2.231063E+04 -4.272840E+03
       171  10 -2.313203E+06 -3.344154E+05 -1.045768E+05 -7.995908E+05  2.864993E-09  1.066929E-09
       171  11 -2.290129E+06 -3.778957E+05 -6.436014E+04 -9.320233E+05 -7.064271E-09 -4.498225E-10
       171  12 -2.471033E+06 -3.358749E+05 -6.689677E+04 -8.599467E+05  5.422349E-11 -2.002306E-09
       171  13 -2.346165E+06 -3.418560E+05 -1.124900E+05 -8.036593E+05  3.301855E-09 -1.781493E-09
       171  14 -2.239898E+06 -3.571338E+05 -5.015516E+04 -9.166286E+05  5.398564E-10 -3.124806E-09
       171  15 -2.337655E+06 -2.869458E+05 -3.072007E+04 -8.250938E+05  2.876518E-09  1.043101E-09
       171  16 -2.379125E+06 -3.492967E+05 -1.204032E+05 -8.077277E+05  2.637078E-09  1.526830E-09
       171  17 -2.189666E+06 -3.363715E+05 -3.595042E+04 -9.012327E+05  3.831743E-09  2.541047E-09
       171  18 -2.204260E+06 -2.380160E+05  5.455077E+03 -7.902343E+05  3.442408E-10  3.247889E-09
       171  19 -2.313197E+06 -3.344128E+05 -1.045646E+05 -7.995889E+05  7.419843E+04  3.126359E+04
       171  20 -2.290126E+06 -3.778947E+05 -6.435503E+04 -9.320226E+05  4.855966E+04  1.866644E+04
       171  21 -2.471033E+06 -3.358747E+05 -6.689569E+04 -8.599466E+05  2.345161E+04  4.719130E+03
       171  22 -2.346159E+06 -3.418535E+05 -1.124778E+05 -8.036574E+05  7.399066E+04  3.118308E+04
       171  23 -2.239896E+06 -3.571328E+05 -5.015013E+04 -9.166279E+05  4.817255E+04  1.851517E+04
       171  24 -2.337655E+06 -2.869457E+05 -3.071904E+04 -8.250937E+05  2.288119E+04  4.496009E+03
       171  25 -2.379119E+06 -3.492942E+05 -1.203911E+05 -8.077259E+05  7.378290E+04  3.110257E+04
       171  26 -2.189663E+06 -3.363706E+05 -3.594548E+04 -9.012320E+05  4.778541E+04  1.836388E+04
       171  27 -2.204260E+06 -2.380159E+05  5.456051E+03 -7.902342E+05  2.231063E+04  4.272840E+03
       172   1 -3.276623E+06 -6.757750E+05 -2.889743E+05 -1.099525E+06 -2.023714E+04 -2.669144E+02
       172   2 -3.281518E+06 -7.501373E+05 -2.945578E+05 -1.187319E+06 -1.503190E+04  5.912460E+03
       172   3 -3.397549E+06 -7.112592E+05 -3.044424E+05 -1.130264E+06 -8.934301E+03  9.829484E+03
       172   4 -2.320844E+06 -3.038311E+05 -2.331232E+04 -8.294782E+05 -1.962214E+04 -2.785647E+01
       172   5 -2.264754E+06 -3.575175E+05 -1.285172E+04 -9.030024E+05 -1.471108E+04  6.035296E+03
       172   6 -2.319703E+06 -2.978893E+05 -6.445678E+03 -8.316936E+05 -8.907649E+03  9.838116E+03
       172   7 -1.364186E+06  6.817542E+04  2.422643E+05 -5.590538E+05 -1.900606E+04  2.116244E+02
       172   8 -1.246996E+06  3.516957E+04  2.687581E+05 -6.182632E+05 -1.438966E+04  6.158364E+03
       172   9 -1.240741E+06  1.155521E+05  2.914433E+05 -5.326540E+05 -8.880940E+03  9.846772E+03
       172  10 -3.276623E+06 -6.757752E+05 -2.889751E+05 -1.099525E+06 -4.219088E-10 -2.990417E-09
       172  11 -3.281519E+06 -7.501374E+05 -2.945583E+05 -1.187319E+06 -6.830101E-09 -5.449301E-09
       172  12 -3.397549E+06 -7.112593E+05 -3.044427E+05 -1.130264E+06  1.283006E-09 -1.538014E-09
       172  13 -2.320845E+06 -3.038312E+05 -2.331304E+04 -8.294782E+05  5.024284E-10 -1.476327E-09
       172  14 -2.264754E+06 -3.575176E+05 -1.285219E+04 -9.030024E+05  8.077151E-10 -9.934571E-10
       172  15 -2.319703E+06 -2.978895E+05 -6.446009E+03 -8.316935E+05 -7.867259E-10 -1.128085E-09
       172  16 -1.364187E+06  6.817532E+04  2.422636E+05 -5.590537E+05  8.139358E-10 -1.777492E-09
       172  17 -1.246996E+06  3.516947E+04  2.687577E+05 -6.182631E+05  6.636305E-09  3.285579E-09
       172  18 -1.240741E+06  1.155520E+05  2.914429E+05 -5.326540E+05  2.952540E-09 -1.983351E-10
       172  19 -3.276623E+06 -6.757750E+05 -2.889743E+05 -1.099525E+06  2.023714E+04  2.669144E+02
       172  20 -3.281518E+06 -7.501373E+05 -2.945578E+05 -1.187319E+06  1.503190E+04 -5.912460E+03
       172  21 -3.397549E+06 -7.112592E+05 -3.044424E+05 -1.130264E+06  8.934301E+03 -9.829484E+03
       172  22 -2.320844E+06 -3.038311E+05 -2.331232E+04 -8.294782E+05  1.962214E+04  2.785647E+01
       172  23 -2.264754E+06 -3.575175E+05 -1.285172E+04 -9.030024E+05  1.471108E+04 -6.035296E+03
       172  24 -2.319703E+06 -2.978893E+05 -6.445678E+03 -8.316936E+05  8.907649E+03 -9.838116E+03
       172  25 -1.364186E+06  6.817542E+04  2.422643E+05 -5.590538E+05  1.900606E+04 -2.116244E+02
       172  26 -1.246996E+06  3.516957E+04  2.687581E+05 -6.182632E+05  1.438966E+04 -6.158364E+03
       172  27 -1.240741E+06  1.155521E+05  2.914433E+05 -5.326540E+05  8.880940E+03 -9.846772E+03
       173   1 -3.773764E+06 -8.875655E+05 -4.135801E+05 -1.265207E+06 -9.490265E+03  1.108699E+04
       173   2 -3.795640E+06 -8.998970E+05 -4.180755E+05 -1.281295E+06 -7.720414E+03  1.425557E+04
       173   3 -3.798576E+06 -8.872046E+05 -4.155612E+05 -1.262767E+06 -4.587339E+03  1.382596E+04
       173   4 -2.291478E+06 -3.197421E+05 -3.515662E+03 -8.554671E+05 -8.964066E+03  1.128556E+04
       173   5 -2.300964E+06 -3.320391E+05 -5.716804E+03 -8.728701E+05 -7.671074E+03  1.427132E+04
       173   6 -2.291348E+06 -3.191692E+05 -5.199490E+02 -8.556551E+05 -5.016398E+03  1.366306E+04
       173   7 -8.070792E+05  2.482169E+05  4.063455E+05 -4.448410E+05 -8.436463E+03  1.148467E+04
       173   8 -8.041414E+05  2.359485E+05  4.064362E+05 -4.635568E+05 -7.621601E+03  1.428712E+04
       173   9 -7.819415E+05  2.489896E+05  4.143128E+05 -4.476523E+05 -5.446614E+03  1.349973E+04
       173  10 -3.773764E+06 -8.875657E+05 -4.135805E+05 -1.265207E+06 -8.611297E-10 -6.901652E-10
       173  11 -3.795641E+06 -8.998973E+05 -4.180760E+05 -1.281295E+06 -4.642356E-10 -9.922620E-10
       173  12 -3.798576E+06 -8.872048E+05 -4.155616E+05 -1.262767E+06  1.799859E-09 -1.358752E-09
       173  13 -2.291478E+06 -3.197422E+05 -3.516052E+03 -8.554670E+05 -1.493670E-10  1.494035E-09
       173  14 -2.300964E+06 -3.320393E+05 -5.717297E+03 -8.728701E+05 -8.891014E-11 -2.318787E-09
       173  15 -2.291348E+06 -3.191694E+05 -5.203466E+02 -8.556550E+05  9.426636E-10 -4.298548E-09
       173  16 -8.070793E+05  2.482168E+05  4.063451E+05 -4.448409E+05  1.803239E-09  8.638059E-10
       173  17 -8.041415E+05  2.359483E+05  4.064357E+05 -4.635567E+05  2.356296E-09  2.162833E-10
       173  18 -7.819416E+05  2.489894E+05  4.143124E+05 -4.476522E+05 -7.958901E-10 -2.525701E-09
       173  19 -3.773764E+06 -8.875655E+05 -4.135801E+05 -1.265207E+06  9.490265E+03 -1.108699E+04
       173  20 -3.795640E+06 -8.998970E+05 -4.180755E+05 -1.281295E+06  7.720414E+03 -1.425557E+04
       173  21 -3.798576E+06 -8.872046E+05 -4.155612E+05 -1.262767E+06  4.587339E+03 -1.382596E+04
       173  22 -2.291478E+06 -3.197421E+05 -3.515662E+03 -8.554671E+05  8.964066E+03 -1.128556E+04
       173  23 -2.300964E+06 -3.320391E+05 -5.716804E+03 -8.728701E+05  7.671074E+03 -1.427132E+04
       173  24 -2.291348E+06 -3.191692E+05 -5.199490E+02 -8.556551E+05  5.016398E+03 -1.366306E+04
       173  25 -8.070792E+05  2.482169E+05  4.063455E+05 -4.448410E+05  8.436463E+03 -1.148467E+04
       173  26 -8.041414E+05  2.359485E+05  4.064362E+05 -4.635568E+05  7.621601E+03 -1.428712E+04
       173  27 -7.819415E+05  2.489896E+05  4.143128E+05 -4.476523E+05  5.446614E+03 -1.349973E+04
       174   1 -3.561475E+06 -8.306460E+05 -3.566430E+05 -1.232174E+06 -5.202858E+03  1.284119E+04
       174   2 -3.576286E+06 -7.666835E+05 -3.472779E+05 -1.168942E+06 -2.829491E+03  1.318320E+04
       174   3 -3.474711E+06 -7.905373E+05 -3.337154E+05 -1.202947E+06  6.278025E+02  1.053275E+04
       174   4 -2.269620E+06 -3.451274E+05 -1.342466E+03 -8.845398E+05 -5.065947E+03  1.288986E+04
       174   5 -2.327876E+06 -3.005897E+05 -4.547853E+03 -8.362267E+05 -3.089649E+03  1.308554E+04
       174   6 -2.269643E+06 -3.437478E+05 -3.235106E+03 -8.851359E+05 -3.066116E+01  1.029158E+04
       174   7 -9.761664E+05  1.404799E+05  3.538049E+05 -5.362541E+05 -4.928724E+03  1.293865E+04
       174   8 -1.077973E+06  1.655827E+05  3.380400E+05 -5.029101E+05 -3.350390E+03  1.298768E+04
       174   9 -1.063186E+06  1.031108E+05  3.271133E+05 -5.667710E+05 -6.905413E+02  1.004991E+04
       174  10 -3.561475E+06 -8.306461E+05 -3.566433E+05 -1.232174E+06 -4.011349E-10 -1.163085E-10
       174  11 -3.576286E+06 -7.666837E+05 -3.472783E+05 -1.168942E+06 -1.629094E-09  3.891280E-09
       174  12 -3.474711E+06 -7.905374E+05 -3.337156E+05 -1.202947E+06 -6.335905E-10  4.174824E-10
       174  13 -2.269620E+06 -3.451276E+05 -1.342826E+03 -8.845397E+05  1.980732E-10 -9.007887E-10
       174  14 -2.327876E+06 -3.005899E+05 -4.548192E+03 -8.362266E+05  6.756235E-10 -4.327990E-10
       174  15 -2.269643E+06 -3.437479E+05 -3.235305E+03 -8.851359E+05 -3.777812E-09  1.911532E-09
       174  16 -9.761664E+05  1.404797E+05  3.538046E+05 -5.362541E+05  1.226252E-09  5.926200E-10
       174  17 -1.077973E+06  1.655825E+05  3.380396E+05 -5.029101E+05  2.207510E-09 -3.018448E-09
       174  18 -1.063186E+06  1.031107E+05  3.271131E+05 -5.667710E+05 -1.277824E-09  1.436632E-09
       174  19 -3.561475E+06 -8.306460E+05 -3.566430E+05 -1.232174E+06  5.202858E+03 -1.284119E+04
       174  20 -3.576286E+06 -7.666835E+05 -3.472779E+05 -1.168942E+06  2.829491E+03 -1.318320E+04
       174  21 -3.474711E+06 -7.905373E+05 -3.337154E+05 -1.202947E+06 -6.278025E+02 -1.053275E+04
       174  22 -2.269620E+06 -3.451274E+05 -1.342466E+03 -8.845398E+05  5.065947E+03 -1.288986E+04
       174  23 -2.327876E+06 -3.005897E+05 -4.547853E+03 -8.362267E+05  3.089649E+03 -1.308554E+04
       174  24 -2.269643E+06 -3.437478E+05 -3.235106E+03 -8.851359E+05  3.066116E+01 -1.029158E+04
       174  25 -9.761664E+05  1.404799E+05  3.538049E+05 -5.362541E+05  4.928724E+03 -1.293865E+04
       174  26 -1.077973E+06  1.655827E+05  3.380400E+05 -5.029101E+05  3.350390E+03 -1.298768E+04
       174  27 -1.063186E+06  1.031108E+05  3.271133E+05 -5.667710E+05  6.905413E+02 -1.004991E+04
       175   1 -2.729100E+06 -5.332987E+05 -1.340969E+05 -1.027618E+06  1.728758E+03  8.329547E+03
       175   2 -2.726971E+06 -4.234004E+05 -1.164969E+05 -9.148673E+05  8.069671E+03  7.288966E+03
       175   3 -2.573998E+06 -4.798577E+05 -1.057538E+05 -9.827111E+05  1.464842E+04  5.568829E+03
       175   4 -2.261402E+06 -3.597882E+05 -6.175627E+03 -9.039992E+05  1.379642E+03  8.202512E+03
       175   5 -2.337270E+06 -2.795521E+05 -9.885775E+03 -8.126761E+05  7.632518E+03  7.130633E+03
       175   6 -2.262286E+06 -3.656418E+05 -2.037948E+04 -9.019425E+05  1.412242E+04  5.379147E+03
       175   7 -1.793494E+06 -1.862671E+05  1.217258E+05 -7.802967E+05  1.030235E+03  8.075370E+03
       175   8 -1.947424E+06 -1.356968E+05  9.671155E+04 -7.104276E+05  7.195062E+03  6.972190E+03
       175   9 -1.950481E+06 -2.514219E+05  6.498596E+04 -8.211378E+05  1.359614E+04  5.189363E+03
       175  10 -2.729100E+06 -5.332987E+05 -1.340970E+05 -1.027618E+06  3.332167E-09 -3.944657E-09
       175  11 -2.726971E+06 -4.234005E+05 -1.164971E+05 -9.148673E+05  3.220503E-09 -6.280795E-09
       175  12 -2.573998E+06 -4.798578E+05 -1.057543E+05 -9.827112E+05  1.740866E-09 -6.258531E-09
       175  13 -2.261402E+06 -3.597882E+05 -6.175757E+03 -9.039992E+05  1.106957E-09 -2.038970E-09
       175  14 -2.337270E+06 -2.795521E+05 -9.885981E+03 -8.126762E+05 -5.732434E-09 -4.488385E-09
       175  15 -2.262286E+06 -3.656418E+05 -2.037991E+04 -9.019426E+05 -4.235808E-09 -2.355829E-09
       175  16 -1.793494E+06 -1.862671E+05  1.217257E+05 -7.802967E+05 -1.657081E-09  2.591270E-09
       175  17 -1.947424E+06 -1.356969E+05  9.671136E+04 -7.104276E+05 -2.465329E-09  6.465707E-09
       175  18 -1.950481E+06 -2.514219E+05  6.498556E+04 -8.211379E+05 -4.145178E-10 -2.221646E-09
       175  19 -2.729100E+06 -5.332987E+05 -1.340969E+05 -1.027618E+06 -1.728758E+03 -8.329547E+03
       175  20 -2.726971E+06 -4.234004E+05 -1.164969E+05 -9.148673E+05 -8.069671E+03 -7.288966E+03
       175  21 -2.573998E+06 -4.798577E+05 -1.057538E+05 -9.827111E+05 -1.464842E+04 -5.568829E+03
       175  22 -2.261402E+06 -3.597882E+05 -6.175627E+03 -9.039992E+05 -1.379642E+03 -8.202512E+03
       175  23 -2.337270E+06 -2.795521E+05 -9.885775E+03 -8.126761E+05 -7.632518E+03 -7.130633E+03
       175  24 -2.262286E+06 -3.656418E+05 -2.037948E+04 -9.019425E+05 -1.412242E+04 -5.379147E+03
       175  25 -1.793494E+06 -1.862671E+05  1.217258E+05 -7.802967E+05 -1.030235E+03 -8.075370E+03
       175  26 -1.947424E+06 -1.356968E+05  9.671155E+04 -7.104276E+05 -7.195062E+03 -6.972190E+03
       175  27 -1.950481E+06 -2.514219E+05  6.498596E+04 -8.211378E+05 -1.359614E+04 -5.189363E+03
       176   1 -1.674271E+06 -1.389066E+05  1.364975E+05 -7.506133E+05  1.972792E+04  3.995462E+03
       176   2 -1.668217E+06 -2.746161E+04  1.388217E+05 -6.430716E+05  4.340635E+04  7.916774E+03
       176   3 -1.540074E+06 -1.275871E+05  1.074733E+05 -6.872249E+05  6.585762E+04  1.526305E+04
       176   4 -2.266019E+06 -3.548184E+05 -2.509749E+04 -9.031433E+05  1.893345E+04  3.708712E+03
       176   5 -2.330183E+06 -2.732878E+05 -4.243592E+04 -8.184042E+05  4.304917E+04  7.786546E+03
       176   6 -2.272376E+06 -4.034769E+05 -9.382414E+04 -8.853699E+05  6.593434E+04  1.528973E+04
       176   7 -2.857433E+06 -5.707164E+05 -1.867242E+05 -1.055544E+06  1.813981E+04  3.422251E+03
       176   8 -2.991730E+06 -5.190926E+05 -2.237334E+05 -9.935693E+05  4.269239E+04  7.656462E+03
       176   9 -3.004166E+06 -6.793367E+05 -2.951707E+05 -1.083304E+06  6.601092E+04  1.531637E+04
       176  10 -1.674272E+06 -1.389067E+05  1.364967E+05 -7.506133E+05  1.346724E-09  2.449176E-09
       176  11 -1.668219E+06 -2.746219E+04  1.388180E+05 -6.430719E+05  9.900465E-09  3.290238E-09
       176  12 -1.540079E+06 -1.275885E+05  1.074647E+05 -6.872257E+05  3.428024E-09 -3.284243E-09
       176  13 -2.266019E+06 -3.548185E+05 -2.509819E+04 -9.031434E+05  2.790691E-09  4.668442E-09
       176  14 -2.330185E+06 -2.732883E+05 -4.243953E+04 -8.184045E+05 -6.897098E-09  5.548058E-09
       176  15 -2.272381E+06 -4.034783E+05 -9.383278E+04 -8.853708E+05 -2.590584E-09  2.356911E-09
       176  16 -2.857433E+06 -5.707165E+05 -1.867249E+05 -1.055544E+06  3.755607E-09 -2.289908E-09
       176  17 -2.991732E+06 -5.190931E+05 -2.237370E+05 -9.935695E+05 -1.444242E-09 -1.083493E-09
       176  18 -3.004171E+06 -6.793381E+05 -2.951794E+05 -1.083305E+06 -5.714251E-10  1.624451E-09
       176  19 -1.674271E+06 -1.389066E+05  1.364975E+05 -7.506133E+05 -1.972792E+04 -3.995462E+03
       176  20 -1.668217E+06 -2.746161E+04  1.388217E+05 -6.430716E+05 -4.340635E+04 -7.916774E+03
       176  21 -1.540074E+06 -1.275871E+05  1.074733E+05 -6.872249E+05 -6.585762E+04 -1.526305E+04
       176  22 -2.266019E+06 -3.548184E+05 -2.509749E+04 -9.031433E+05 -1.893345E+04 -3.708712E+03
       176  23 -2.330183E+06 -2.732878E+05 -4.243592E+04 -8.184042E+05 -4.304917E+04 -7.786546E+03
       176  24 -2.272376E+06 -4.034769E+05 -9.382414E+04 -8.853699E+05 -6.593434E+04 -1.528973E+04
       176  25 -2.857433E+06 -5.707164E+05 -1.867242E+05 -1.055544E+06 -1.813981E+04 -3.422251E+03
       176  26 -2.991730E+06 -5.190926E+05 -2.237334E+05 -9.935693E+05 -4.269239E+04 -7.656462E+03
       176  27 -3.004166E+06 -6.793367E+05 -2.951707E+05 -1.083304E+06 -6.601092E+04 -1.531637E+04
       177   1 -9.290793E+05  1.655776E+05  2.608188E+05 -5.417217E+05  8.579593E+04  1.859785E+04
       177   2 -8.959405E+05  2.900678E+05  1.993372E+05 -4.806657E+05  1.853602E+05  5.080250E+04
       177   3 -9.447724E+05 -8.177680E+04 -4.756083E+04 -3.678964E+05  2.793302E+05  9.810114E+04
       177   4 -2.299431E+06 -3.301898E+05 -1.119449E+05 -8.909598E+05  8.413677E+04  1.799058E+04
       177   5 -2.279646E+06 -2.352664E+05 -1.815940E+05 -8.594491E+05  1.855213E+05  5.085674E+04
       177   6 -2.342596E+06 -6.376844E+05 -4.384445E+05 -7.761391E+05  2.813031E+05  9.882196E+04
       177   7 -3.667990E+06 -8.258894E+05 -4.848765E+05 -1.239518E+06  8.248144E+04  1.738461E+04
       177   8 -3.661519E+06 -7.604868E+05 -5.627012E+05 -1.237470E+06  1.856816E+05  5.091065E+04
       177   9 -3.738547E+06 -1.193426E+06 -8.295129E+05 -1.183533E+06  2.832703E+05  9.954042E+04
       177  10 -9.290873E+05  1.655753E+05  2.608043E+05 -5.417230E+05 -1.377333E-09 -3.084762E-09
       177  11 -8.959781E+05  2.900558E+05  1.992677E+05 -4.806733E+05 -8.142088E-10  1.199999E-10
       177  12 -9.448589E+05 -8.180814E+04 -4.772583E+04 -3.679185E+05 -5.445075E-10  1.273599E-09
       177  13 -2.299439E+06 -3.301920E+05 -1.119588E+05 -8.909610E+05 -2.877498E-09 -1.719900E-10
       177  14 -2.279683E+06 -2.352785E+05 -1.816639E+05 -8.594567E+05  3.197600E-09  3.805465E-09
       177  15 -2.342684E+06 -6.377163E+05 -4.386123E+05 -7.761616E+05 -9.612963E-10  1.387537E-09
       177  16 -3.667998E+06 -8.258916E+05 -4.848899E+05 -1.239519E+06  1.044151E-09 -1.630227E-10
       177  17 -3.661557E+06 -7.604990E+05 -5.627714E+05 -1.237477E+06 -2.186066E-09  2.880747E-09
       177  18 -3.738636E+06 -1.193459E+06 -8.296835E+05 -1.183556E+06 -7.343067E-10  1.681679E-09
       177  19 -9.290793E+05  1.655776E+05  2.608188E+05 -5.417217E+05 -8.579593E+04 -1.859785E+04
       177  20 -8.959405E+05  2.900678E+05  1.993372E+05 -4.806657E+05 -1.853602E+05 -5.080250E+04
       177  21 -9.447724E+05 -8.177680E+04 -4.756083E+04 -3.678964E+05 -2.793302E+05 -9.810114E+04
       177  22 -2.299431E+06 -3.301898E+05 -1.119449E+05 -8.909598E+05 -8.413677E+04 -1.799058E+04
       177  23 -2.279646E+06 -2.352664E+05 -1.815940E+05 -8.594491E+05 -1.855213E+05 -5.085674E+04
       177  24 -2.342596E+06 -6.376844E+05 -4.384445E+05 -7.761391E+05 -2.813031E+05 -9.882196E+04
       177  25 -3.667990E+06 -8.258894E+05 -4.848765E+05 -1.239518E+06 -8.248144E+04 -1.738461E+04
       177  26 -3.661519E+06 -7.604868E+05 -5.627012E+05 -1.237470E+06 -1.856816E+05 -5.091065E+04
       177  27 -3.738547E+06 -1.193426E+06 -8.295129E+05 -1.183533E+06 -2.832703E+05 -9.954042E+04
       178   1 -9.490148E+05  1.609867E+04  5.920481E+04  4.296067E+03  1.245367E+05  2.267427E+03
       178   2 -9.715357E+05 -1.560296E+05 -4.444746E+04  4.067492E+03  8.230046E+04  5.486675E+03
       178   3 -9.345717E+05 -1.261134E+05 -6.936150E+04 -1.532073E+04  4.007719E+04  4.453640E+03
       178   4 -4.491244E+05  1.410107E+05  1.840738E+05 -8.403839E+03  1.253966E+05  2.267575E+03
       178   5 -4.789280E+05 -3.289262E+04  7.830394E+04  1.428280E+03  8.251829E+04  5.486488E+03
       178   6 -4.491768E+05 -4.724208E+03  5.167405E+04 -7.898654E+03  3.965344E+04  4.453238E+03
       178   7  5.099317E+04  2.659046E+05  3.089241E+05 -2.111418E+04  1.262572E+05  2.267689E+03
       178   8  1.390017E+04  9.022615E+04  2.010371E+05 -1.213171E+03  8.273628E+04  5.486299E+03
       178   9  3.643201E+04  1.166474E+05  1.726919E+05 -4.708460E+02  3.922936E+04  4.452826E+03
       178  10 -9.490315E+05  1.609449E+04  5.917561E+04  4.295840E+03  1.593561E-10  2.497768E-10
       178  11 -9.715430E+05 -1.560315E+05 -4.446026E+04  4.067129E+03  2.001781E-09 -1.596941E-09
       178  12 -9.345734E+05 -1.261138E+05 -6.936456E+04 -1.532087E+04  1.645820E-10 -4.980972E-10
       178  13 -4.491413E+05  1.410065E+05  1.840443E+05 -8.404068E+03  1.106412E-09 -1.372388E-09
       178  14 -4.789353E+05 -3.289449E+04  7.829108E+04  1.427915E+03 -1.074727E-09 -6.887422E-10
       178  15 -4.491785E+05 -4.724651E+03  5.167106E+04 -7.898797E+03 -6.843066E-10 -4.082256E-10
       178  16  5.097606E+04  2.659003E+05  3.088942E+05 -2.111442E+04 -6.964045E-10  9.010370E-10
       178  17  1.389282E+04  9.022428E+04  2.010242E+05 -1.213536E+03 -9.003541E-10 -1.318808E-09
       178  18  3.643035E+04  1.166470E+05  1.726890E+05 -4.709867E+02  1.180831E-11 -5.016129E-10
       178  19 -9.490148E+05  1.609867E+04  5.920481E+04  4.296067E+03 -1.245367E+05 -2.267427E+03
       178  20 -9.715357E+05 -1.560296E+05 -4.444746E+04  4.067492E+03 -8.230046E+04 -5.486675E+03
       178  21 -9.345717E+05 -1.261134E+05 -6.936150E+04 -1.532073E+04 -4.007719E+04 -4.453640E+03
       178  22 -4.491244E+05  1.410107E+05  1.840738E+05 -8.403839E+03 -1.253966E+05 -2.267575E+03
       178  23 -4.789280E+05 -3.289262E+04  7.830394E+04  1.428280E+03 -8.251829E+04 -5.486488E+03
       178  24 -4.491768E+05 -4.724208E+03  5.167405E+04 -7.898654E+03 -3.965344E+04 -4.453238E+03
       178  25  5.099317E+04  2.659046E+05  3.089241E+05 -2.111418E+04 -1.262572E+05 -2.267689E+03
       178  26  1.390017E+04  9.022615E+04  2.010371E+05 -1.213171E+03 -8.273628E+04 -5.486299E+03
       178  27  3.643201E+04  1.166474E+05  1.726919E+05 -4.708460E+02 -3.922936E+04 -4.452826E+03
       179   1 -8.594795E+05 -7.861656E+04 -5.692912E+04 -7.943097E+03  3.098244E+04  3.569052E+03
       179   2 -8.549598E+05 -1.023941E+05 -7.686961E+04  3.960743E+03  2.045430E+04  3.769055E+03
       179   3 -8.393101E+05 -9.549168E+04 -8.185844E+04 -1.049693E+04  9.925579E+03  3.178969E+03
       179   4 -4.598990E+05  2.128198E+04  4.270662E+04 -9.666671E+03  3.108311E+04  3.568904E+03
       179   5 -4.654811E+05 -5.021862E+03  2.021933E+04  3.523229E+03  2.043527E+04  3.768887E+03
       179   6 -4.599175E+05 -6.347644E+02  1.276033E+04 -9.647319E+03  9.787018E+03  3.178959E+03
       179   7 -6.017359E+04  1.211685E+05  1.423303E+05 -1.139139E+04  3.118383E+04  3.568755E+03
       179   8 -7.586471E+04  9.233899E+04  1.172969E+05  3.085435E+03  2.041622E+04  3.768721E+03
       179   9 -8.039433E+04  9.421130E+04  1.073683E+05 -8.797166E+03  9.648372E+03  3.178949E+03
       179  10 -8.594805E+05 -7.861683E+04 -5.693095E+04 -7.943186E+03  5.861665E-10  1.136608E-10
       179  11 -8.549603E+05 -1.023943E+05 -7.687042E+04  3.960681E+03  1.223577E-09 -6.698630E-12
       179  12 -8.393102E+05 -9.549172E+04 -8.185864E+04 -1.049695E+04 -1.269137E-09  6.075504E-10
       179  13 -4.599000E+05  2.128171E+04  4.270477E+04 -9.666761E+03  2.238264E-09 -5.864731E-10
       179  14 -4.654816E+05 -5.021990E+03  2.021852E+04  3.523167E+03  1.445882E-09 -2.331646E-10
       179  15 -4.599177E+05 -6.348010E+02  1.276013E+04 -9.647344E+03 -3.787348E-10  4.068323E-10
       179  16 -6.017463E+04  1.211682E+05  1.423285E+05 -1.139148E+04  9.075733E-10 -2.283273E-10
       179  17 -7.586516E+04  9.233886E+04  1.172961E+05  3.085373E+03 -7.362936E-10 -6.044483E-10
       179  18 -8.039443E+04  9.421127E+04  1.073681E+05 -8.797190E+03 -5.427655E-10  4.027112E-10
       179  19 -8.594795E+05 -7.861656E+04 -5.692912E+04 -7.943097E+03 -3.098244E+04 -3.569052E+03
       179  20 -8.549598E+05 -1.023941E+05 -7.686961E+04  3.960743E+03 -2.045430E+04 -3.769055E+03
       179  21 -8.393101E+05 -9.549168E+04 -8.185844E+04 -1.049693E+04 -9.925579E+03 -3.178969E+03
       179  22 -4.598990E+05  2.128198E+04  4.270662E+04 -9.666671E+03 -3.108311E+04 -3.568904E+03
       179  23 -4.654811E+05 -5.021862E+03  2.021933E+04  3.523229E+03 -2.043527E+04 -3.768887E+03
       179  24 -4.599175E+05 -6.347644E+02  1.276033E+04 -9.647319E+03 -9.787018E+03 -3.178959E+03
       179  25 -6.017359E+04  1.211685E+05  1.423303E+05 -1.139139E+04 -3.118383E+04 -3.568755E+03
       179  26 -7.586471E+04  9.233899E+04  1.172969E+05  3.085435E+03 -2.041622E+04 -3.768721E+03
       179  27 -8.039433E+04  9.421130E+04  1.073683E+05 -8.797166E+03 -9.648372E+03 -3.178949E+03
       180   1 -7.292920E+05 -6.369077E+04 -5.647911E+04 -1.042350E+04  7.732268E+03  2.785574E+03
       180   2 -7.181583E+05 -6.456325E+04 -5.843653E+04  5.464606E+03  5.101806E+03  2.408668E+03
       180   3 -7.047451E+05 -6.073597E+04 -5.735199E+04 -1.067274E+04  2.470342E+03  1.830185E+03
       180   4 -4.618604E+05  3.160718E+03  1.016182E+04 -1.090819E+04  7.694364E+03  2.785536E+03
       180   5 -4.630078E+05 -7.775017E+02  5.167125E+03  5.102375E+03  5.033886E+03  2.408714E+03
       180   6 -4.618710E+05 -1.164868E+01  3.234408E+03 -1.091169E+04  2.372458E+03  1.830352E+03
       180   7 -1.943639E+05  7.000682E+04  7.679736E+04 -1.139307E+04  7.656443E+03  2.785499E+03
       180   8 -2.077982E+05  6.300334E+04  6.876588E+04  4.740017E+03  4.965938E+03  2.408761E+03
       180   9 -2.189435E+05  6.070823E+04  6.381636E+04 -1.115071E+04  2.274536E+03  1.830519E+03
       180  10 -7.292921E+05 -6.369079E+04 -5.647924E+04 -1.042352E+04 -1.776696E-09  4.423426E-10
       180  11 -7.181583E+05 -6.456326E+04 -5.843659E+04  5.464596E+03  1.350072E-09 -1.765565E-10
       180  12 -7.047451E+05 -6.073598E+04 -5.735201E+04 -1.067274E+04  5.135887E-10 -4.508893E-10
       180  13 -4.618605E+05  3.160694E+03  1.016169E+04 -1.090821E+04  1.739539E-11  2.688392E-10
       180  14 -4.630078E+05 -7.775147E+02  5.167067E+03  5.102365E+03  1.266847E-10  2.174671E-10
       180  15 -4.618710E+05 -1.165379E+01  3.234391E+03 -1.091170E+04 -1.814486E-10  1.243239E-09
       180  16 -1.943640E+05  7.000679E+04  7.679724E+04 -1.139309E+04  8.296687E-10  1.176358E-10
       180  17 -2.077982E+05  6.300333E+04  6.876583E+04  4.740008E+03  1.233601E-09 -1.301630E-09
       180  18 -2.189435E+05  6.070822E+04  6.381635E+04 -1.115071E+04  8.905535E-10  6.353345E-10
       180  19 -7.292920E+05 -6.369077E+04 -5.647911E+04 -1.042350E+04 -7.732268E+03 -2.785574E+03
       180  20 -7.181583E+05 -6.456325E+04 -5.843653E+04  5.464606E+03 -5.101806E+03 -2.408668E+03
       180  21 -7.047451E+05 -6.073597E+04 -5.735199E+04 -1.067274E+04 -2.470342E+03 -1.830185E+03
       180  22 -4.618604E+05  3.160718E+03  1.016182E+04 -1.090819E+04 -7.694364E+03 -2.785536E+03
       180  23 -4.630078E+05 -7.775017E+02  5.167125E+03  5.102375E+03 -5.033886E+03 -2.408714E+03
       180  24 -4.618710E+05 -1.164868E+01  3.234408E+03 -1.091169E+04 -2.372458E+03 -1.830352E+03
       180  25 -1.943639E+05  7.000682E+04  7.679736E+04 -1.139307E+04 -7.656443E+03 -2.785499E+03
       180  26 -2.077982E+05  6.300334E+04  6.876588E+04  4.740017E+03 -4.965938E+03 -2.408761E+03
       180  27 -2.189435E+05  6.070823E+04  6.381636E+04 -1.115071E+04 -2.274536E+03 -1.830519E+03
       181   1 -5.762050E+05 -2.797984E+04 -2.582083E+04 -1.137429E+04  1.916509E+03  1.477732E+03
       181   2 -5.628281E+05 -2.523649E+04 -2.356285E+04  6.173184E+03  1.184571E+03  9.438357E+02
       181   3 -5.492329E+05 -2.164641E+04 -2.063486E+04 -1.144998E+04  4.522017E+02  3.562613E+02
       181   4 -4.623137E+05  4.825382E+02  2.529715E+03 -1.160871E+04  1.843512E+03  1.477888E+03
       181   5 -4.624256E+05 -1.385940E+02  1.463498E+03  5.975973E+03  1.103730E+03  9.440344E+02
       181   6 -4.623180E+05  8.835930E+01  1.072703E+03 -1.160963E+04  3.635321E+02  3.565067E+02
       181   7 -3.484106E+05  2.894394E+04  3.087929E+04 -1.184316E+04  1.770503E+03  1.478045E+03
       181   8 -3.620140E+05  2.495854E+04  2.648908E+04  5.778736E+03  1.022876E+03  9.442332E+02
       181   9 -3.753962E+05  2.182256E+04  2.277970E+04 -1.176929E+04  2.748502E+02  3.567521E+02
       181  10 -5.762050E+05 -2.797984E+04 -2.582084E+04 -1.137429E+04  1.219712E-09  6.045499E-10
       181  11 -5.628281E+05 -2.523649E+04 -2.356285E+04  6.173183E+03  7.309116E-10  4.246050E-10
       181  12 -5.492329E+05 -2.164641E+04 -2.063486E+04 -1.144998E+04  1.201452E-09 -7.686776E-10
       181  13 -4.623137E+05  4.825349E+02  2.529705E+03 -1.160871E+04 -2.227505E-09 -1.921281E-09
       181  14 -4.624256E+05 -1.385953E+02  1.463494E+03  5.975972E+03 -1.522367E-09 -8.638675E-11
       181  15 -4.623180E+05  8.835912E+01  1.072702E+03 -1.160963E+04 -8.929609E-10 -2.179334E-09
       181  16 -3.484106E+05  2.894394E+04  3.087928E+04 -1.184317E+04  2.647351E-10  1.612099E-09
       181  17 -3.620140E+05  2.495854E+04  2.648908E+04  5.778735E+03  1.055708E-09 -8.615852E-10
       181  18 -3.753962E+05  2.182256E+04  2.277970E+04 -1.176929E+04 -3.863455E-10 -3.177644E-09
       181  19 -5.762050E+05 -2.797984E+04 -2.582083E+04 -1.137429E+04 -1.916509E+03 -1.477732E+03
       181  20 -5.628281E+05 -2.523649E+04 -2.356285E+04  6.173184E+03 -1.184571E+03 -9.438357E+02
       181  21 -5.492329E+05 -2.164641E+04 -2.063486E+04 -1.144998E+04 -4.522017E+02 -3.562613E+02
       181  22 -4.623137E+05  4.825382E+02  2.529715E+03 -1.160871E+04 -1.843512E+03 -1.477888E+03
       181  23 -4.624256E+05 -1.385940E+02  1.463498E+03  5.975973E+03 -1.103730E+03 -9.440344E+02
       181  24 -4.623180E+05  8.835930E+01  1.072703E+03 -1.160963E+04 -3.635321E+02 -3.565067E+02
       181  25 -3.484106E+05  2.894394E+04  3.087929E+04 -1.184316E+04 -1.770503E+03 -1.478045E+03
       181  26 -3.620140E+05  2.495854E+04  2.648908E+04  5.778736E+03 -1.022876E+03 -9.442332E+02
       181  27 -3.753962E+05  2.182256E+04  2.277970E+04 -1.176929E+04 -2.748502E+02 -3.567521E+02
       182   1 -4.135837E+05  1.232183E+04  1.317941E+04 -1.177534E+04  2.625726E+02 -2.821124E+00
       182   2 -3.999739E+05  1.550557E+04  1.653081E+04  5.942558E+03 -2.367815E+02 -5.884621E+02
       182   3 -3.863439E+05  1.924775E+04  2.030906E+04 -1.184662E+04 -7.358706E+02 -1.136158E+03
       182   4 -4.623608E+05  1.214304E+02  9.793973E+02 -1.168429E+04  1.753401E+02 -2.574612E+00
       182   5 -4.623689E+05 -8.997365E+01  9.797940E+02  6.069527E+03 -3.185137E+02 -5.882467E+02
       182   6 -4.623582E+05  2.560909E+02  1.403217E+03 -1.168396E+04 -8.120915E+02 -1.135971E+03
       182   7 -5.111357E+05 -1.207915E+04 -1.122080E+04 -1.159324E+04  8.811453E+01 -2.328116E+00
       182   8 -5.247604E+05 -1.568581E+04 -1.457151E+04  6.196486E+03 -4.002377E+02 -5.880314E+02
       182   9 -5.383671E+05 -1.873600E+04 -1.750306E+04 -1.152132E+04 -8.883031E+02 -1.135784E+03
       182  10 -4.135837E+05  1.232183E+04  1.317941E+04 -1.177534E+04 -6.637514E-10  1.402803E-09
       182  11 -3.999739E+05  1.550557E+04  1.653081E+04  5.942557E+03  1.048496E-09  4.626771E-09
       182  12 -3.863439E+05  1.924775E+04  2.030905E+04 -1.184662E+04  1.058231E-09 -2.554817E-09
       182  13 -4.623608E+05  1.214304E+02  9.793972E+02 -1.168429E+04  1.047060E-09 -2.003435E-10
       182  14 -4.623689E+05 -8.997405E+01  9.797932E+02  6.069527E+03  2.029353E-09 -6.715540E-10
       182  15 -4.623582E+05  2.560893E+02  1.403214E+03 -1.168396E+04  7.958501E-10 -2.490499E-11
       182  16 -5.111357E+05 -1.207915E+04 -1.122080E+04 -1.159324E+04  6.134420E-10 -2.870798E-10
       182  17 -5.247604E+05 -1.568581E+04 -1.457151E+04  6.196486E+03 -1.702179E-09  3.319615E-11
       182  18 -5.383671E+05 -1.873601E+04 -1.750306E+04 -1.152132E+04 -3.314421E-10 -7.533350E-10
       182  19 -4.135837E+05  1.232183E+04  1.317941E+04 -1.177534E+04 -2.625726E+02  2.821124E+00
       182  20 -3.999739E+05  1.550557E+04  1.653081E+04  5.942558E+03  2.367815E+02  5.884621E+02
       182  21 -3.863439E+05  1.924775E+04  2.030906E+04 -1.184662E+04  7.358706E+02  1.136158E+03
       182  22 -4.623608E+05  1.214304E+02  9.793973E+02 -1.168429E+04 -1.753401E+02  2.574612E+00
       182  23 -4.623689E+05 -8.997365E+01  9.797940E+02  6.069527E+03  3.185137E+02  5.882467E+02
       182  24 -4.623582E+05  2.560909E+02  1.403217E+03 -1.168396E+04  8.120915E+02  1.135971E+03
       182  25 -5.111357E+05 -1.207915E+04 -1.122080E+04 -1.159324E+04 -8.811453E+01  2.328116E+00
       182  26 -5.247604E+05 -1.568581E+04 -1.457151E+04  6.196486E+03  4.002377E+02  5.880314E+02
       182  27 -5.383671E+05 -1.873600E+04 -1.750306E+04 -1.152132E+04  8.883031E+02  1.135784E+03
       183   1 -2.545214E+05  5.192797E+04  5.351041E+04 -1.142777E+04 -1.003706E+03 -1.494977E+03
       183   2 -2.425008E+05  5.463885E+04  5.751600E+04  5.033557E+03 -2.390334E+03 -2.082637E+03
       183   3 -2.291908E+05  5.976402E+04  6.312884E+04 -1.151126E+04 -3.776071E+03 -2.484562E+03
       183   4 -4.620899E+05  4.318301E+01  1.738501E+03 -1.112940E+04 -1.101883E+03 -1.494773E+03
       183   5 -4.627278E+05 -4.005582E+02  2.633907E+03  5.375144E+03 -2.461348E+03 -2.082548E+03
       183   6 -4.620810E+05  1.565642E+03  5.118056E+03 -1.112719E+04 -3.819894E+03 -2.484557E+03
       183   7 -6.696193E+05 -5.184485E+04 -5.003665E+04 -1.083111E+04 -1.200028E+03 -1.494570E+03
       183   8 -6.829107E+05 -5.544362E+04 -5.225184E+04  5.716632E+03 -2.532337E+03 -2.082459E+03
       183   9 -6.949219E+05 -5.663682E+04 -5.289680E+04 -1.074324E+04 -3.863699E+03 -2.484552E+03
       183  10 -2.545214E+05  5.192797E+04  5.351040E+04 -1.142777E+04  1.446323E-09 -3.107525E-09
       183  11 -2.425008E+05  5.463884E+04  5.751598E+04  5.033553E+03  1.247684E-09  3.816493E-10
       183  12 -2.291908E+05  5.976401E+04  6.312880E+04 -1.151127E+04 -1.342618E-09  4.294156E-10
       183  13 -4.620899E+05  4.318028E+01  1.738494E+03 -1.112940E+04  2.229403E-09 -7.947203E-10
       183  14 -4.627278E+05 -4.005645E+02  2.633887E+03  5.375140E+03  1.531064E-09 -1.323409E-09
       183  15 -4.620810E+05  1.565632E+03  5.118017E+03 -1.112719E+04  1.270551E-09 -9.013977E-10
       183  16 -6.696193E+05 -5.184485E+04 -5.003666E+04 -1.083111E+04  1.654632E-09 -1.048390E-09
       183  17 -6.829108E+05 -5.544362E+04 -5.225186E+04  5.716628E+03  1.307875E-09  2.140555E-09
       183  18 -6.949219E+05 -5.663683E+04 -5.289684E+04 -1.074324E+04  1.464496E-09  7.333644E-10
       183  19 -2.545214E+05  5.192797E+04  5.351041E+04 -1.142777E+04  1.003706E+03  1.494977E+03
       183  20 -2.425008E+05  5.463885E+04  5.751600E+04  5.033557E+03  2.390334E+03  2.082637E+03
       183  21 -2.291908E+05  5.976402E+04  6.312884E+04 -1.151126E+04  3.776071E+03  2.484562E+03
       183  22 -4.620899E+05  4.318301E+01  1.738501E+03 -1.112940E+04  1.101883E+03  1.494773E+03
       183  23 -4.627278E+05 -4.005582E+02  2.633907E+03  5.375144E+03  2.461348E+03  2.082548E+03
       183  24 -4.620810E+05  1.565642E+03  5.118056E+03 -1.112719E+04  3.819894E+03  2.484557E+03
       183  25 -6.696193E+05 -5.184485E+04 -5.003665E+04 -1.083111E+04  1.200028E+03  1.494570E+03
       183  26 -6.829107E+05 -5.544362E+04 -5.225184E+04  5.716632E+03  2.532337E+03  2.082459E+03
       183  27 -6.949219E+05 -5.663682E+04 -5.289680E+04 -1.074324E+04  3.863699E+03  2.484552E+03
       184   1 -1.112045E+05  8.714117E+04  9.364631E+04 -9.765289E+03 -4.741180E+03 -2.886309E+03
       184   2 -1.036621E+05  8.754985E+04  9.989856E+04  3.621665E+03 -1.017746E+04 -3.485360E+03
       184   3 -8.980697E+04  1.033673E+05  1.138943E+05 -1.087438E+04 -1.561305E+04 -3.317425E+03
       184   4 -4.609918E+05 -2.765962E+02  6.444829E+03 -9.989899E+03 -4.881578E+03 -2.886252E+03
       184   5 -4.641320E+05 -2.529255E+03  1.008176E+04  3.950150E+03 -1.020469E+04 -3.485482E+03
       184   6 -4.609770E+05  1.061160E+04  2.138656E+04 -9.993803E+03 -1.552703E+04 -3.317539E+03
       184   7 -8.106680E+05 -8.770358E+04 -8.076585E+04 -1.021435E+04 -5.021896E+03 -2.886195E+03
       184   8 -8.244839E+05 -9.261815E+04 -7.974479E+04  4.278455E+03 -1.023191E+04 -3.485604E+03
       184   9 -8.320220E+05 -8.215444E+04 -7.113148E+04 -9.113765E+03 -1.544106E+04 -3.317654E+03
       184  10 -1.112046E+05  8.714116E+04  9.364625E+04 -9.765300E+03 -7.907815E-10  4.100735E-10
       184  11 -1.036622E+05  8.754981E+04  9.989834E+04  3.621636E+03  8.738846E-10 -7.484829E-10
       184  12 -8.980723E+04  1.033672E+05  1.138938E+05 -1.087442E+04 -4.698473E-10 -1.812526E-10
       184  13 -4.609918E+05 -2.766116E+02  6.444769E+03 -9.989910E+03  1.068784E-09  1.120949E-10
       184  14 -4.641321E+05 -2.529296E+03  1.008155E+04  3.950122E+03 -1.976825E-09 -2.798123E-10
       184  15 -4.609773E+05  1.061152E+04  2.138609E+04 -9.993845E+03 -2.304725E-09 -1.850161E-10
       184  16 -8.106680E+05 -8.770360E+04 -8.076592E+04 -1.021436E+04  1.440063E-09  4.916251E-10
       184  17 -8.244840E+05 -9.261819E+04 -7.974501E+04  4.278426E+03 -1.621812E-10  4.737016E-12
       184  18 -8.320223E+05 -8.215452E+04 -7.113195E+04 -9.113806E+03 -1.424807E-10  1.027953E-10
       184  19 -1.112045E+05  8.714117E+04  9.364631E+04 -9.765289E+03  4.741180E+03  2.886309E+03
       184  20 -1.036621E+05  8.754985E+04  9.989856E+04  3.621665E+03  1.017746E+04  3.485360E+03
       184  21 -8.980697E+04  1.033673E+05  1.138943E+05 -1.087438E+04  1.561305E+04  3.317425E+03
       184  22 -4.609918E+05 -2.765962E+02  6.444829E+03 -9.989899E+03  4.881578E+03  2.886252E+03
       184  23 -4.641320E+05 -2.529255E+03  1.008176E+04  3.950150E+03  1.020469E+04  3.485482E+03
       184  24 -4.609770E+05  1.061160E+04  2.138656E+04 -9.993803E+03  1.552703E+04  3.317539E+03
       184  25 -8.106680E+05 -8.770358E+04 -8.076585E+04 -1.021435E+04  5.021896E+03  2.886195E+03
       184  26 -8.244839E+05 -9.261815E+04 -7.974479E+04  4.278455E+03  1.023191E+04  3.485604E+03
       184  27 -8.320220E+05 -8.215444E+04 -7.113148E+04 -9.113765E+03  1.544106E+04  3.317654E+03
       185   1  8.498427E+03  1.136031E+05  1.415356E+05 -4.593892E+03 -1.940977E+04 -4.182653E+03
       185   2  7.990622E+02  1.013942E+05  1.565788E+05  8.206537E+02 -4.143952E+04 -5.140995E+03
       185   3  2.443392E+04  1.904861E+05  2.119203E+05 -1.452554E+04 -6.348008E+04 -1.936487E+03
       185   4 -4.554635E+05 -2.343746E+03  2.590912E+04 -8.346764E+03 -1.983424E+04 -4.183132E+03
       185   5 -4.710718E+05 -1.650038E+04  3.906093E+04  1.931278E+03 -4.125021E+04 -5.140993E+03
       185   6 -4.554332E+05  7.057698E+04  9.210587E+04 -8.552205E+03 -6.267668E+04 -1.934957E+03
       185   7 -9.192301E+05 -1.183068E+05 -8.973356E+04 -1.209687E+04 -2.025839E+04 -4.183606E+03
       185   8 -9.427406E+05 -1.344117E+05 -7.847369E+04  3.040961E+03 -4.106104E+04 -5.140991E+03
       185   9 -9.350914E+05 -4.934941E+04 -2.772591E+04 -2.583635E+03 -6.187388E+04 -1.933412E+03
       185  10  8.498017E+03  1.136030E+05  1.415349E+05 -4.593958E+03 -6.298136E-10  1.170803E-10
       185  11  7.972114E+02  1.013937E+05  1.565756E+05  8.204822E+02  2.304572E-09  2.336703E-10
       185  12  2.442959E+04  1.904851E+05  2.119127E+05 -1.452564E+04  6.432231E-10 -7.702067E-10
       185  13 -4.554639E+05 -2.343871E+03  2.590835E+04 -8.346831E+03 -1.225388E-09  1.190093E-09
       185  14 -4.710736E+05 -1.650087E+04  3.905768E+04  1.931107E+03 -2.689829E-10  3.511008E-09
       185  15 -4.554374E+05  7.057592E+04  9.209847E+04 -8.552303E+03 -7.493281E-10 -8.806120E-11
       185  16 -9.192306E+05 -1.183069E+05 -8.973436E+04 -1.209694E+04 -1.991576E-10  3.600127E-10
       185  17 -9.427424E+05 -1.344122E+05 -7.847691E+04  3.040790E+03  3.931813E-10 -5.837191E-10
       185  18 -9.350955E+05 -4.935044E+04 -2.773312E+04 -2.583731E+03 -3.254175E-10 -1.320123E-09
       185  19  8.498427E+03  1.136031E+05  1.415356E+05 -4.593892E+03  1.940977E+04  4.182653E+03
       185  20  7.990622E+02  1.013942E+05  1.565788E+05  8.206537E+02  4.143952E+04  5.140995E+03
       185  21  2.443392E+04  1.904861E+05  2.119203E+05 -1.452554E+04  6.348008E+04  1.936487E+03
       185  22 -4.554635E+05 -2.343746E+03  2.590912E+04 -8.346764E+03  1.983424E+04  4.183132E+03
       185  23 -4.710718E+05 -1.650038E+04  3.906093E+04  1.931278E+03  4.125021E+04  5.140993E+03
       185  24 -4.554332E+05  7.057698E+04  9.210587E+04 -8.552205E+03  6.267668E+04  1.934957E+03
       185  25 -9.192301E+05 -1.183068E+05 -8.973356E+04 -1.209687E+04  2.025839E+04  4.183606E+03
       185  26 -9.427406E+05 -1.344117E+05 -7.847369E+04  3.040961E+03  4.106104E+04  5.140991E+03
       185  27 -9.350914E+05 -4.934941E+04 -2.772591E+04 -2.583635E+03  6.187388E+04  1.933412E+03
       186   1  4.658311E+05  1.209953E+06  5.555448E+05 -1.011927E+05  1.616578E+03  2.570655E+05
       186   2  8.630665E+04  1.077924E+06  3.215347E+05  1.250539E+04  6.124462E+03  1.647460E+05
       186   3  1.320575E+05  1.066818E+06  2.544181E+05 -5.922608E+04  2.787078E+03  7.238876E+04
       186   4  2.922797E+05  5.161153E+05  3.824764E+05 -6.957682E+04  1.634809E+03  2.557230E+05
       186   5 -6.911824E+04  4.556551E+05  1.667517E+05  2.248223E+04  6.127532E+03  1.646254E+05
       186   6 -5.225264E+03  5.160269E+05  1.172056E+05 -7.089543E+04  2.777907E+03  7.347925E+04
       186   7  1.186954E+05 -1.772849E+05  2.093721E+05 -3.799572E+04  1.652920E+03  2.543820E+05
       186   8 -2.245719E+05 -1.662632E+05  1.193966E+04  3.244957E+04  6.130601E+03  1.645049E+05
       186   9 -1.425302E+05 -3.448936E+04 -2.002964E+04 -8.255395E+04  2.768690E+03  7.456875E+04
       186  10  4.658134E+05  1.209882E+06  5.554209E+05 -1.011931E+05  7.861602E-10  1.930340E-10
       186  11  8.629934E+04  1.077895E+06  3.214837E+05  1.250458E+04 -7.380697E-10  1.520585E-09
       186  12  1.320561E+05  1.066813E+06  2.544083E+05 -5.922624E+04 -6.709999E-10  2.250340E-10
       186  13  2.922621E+05  5.160452E+05  3.823536E+05 -6.957716E+04  3.324360E-09  1.113685E-09
       186  14 -6.912555E+04  4.556261E+05  1.667007E+05  2.248142E+04 -1.675506E-09 -1.621031E-09
       186  15 -5.226720E+03  5.160211E+05  1.171954E+05 -7.089560E+04 -1.841101E-09  4.190232E-10
       186  16  1.186781E+05 -1.773544E+05  2.092505E+05 -3.799606E+04  1.596809E-09 -2.798284E-10
       186  17 -2.245792E+05 -1.662923E+05  1.188872E+04  3.244876E+04  6.211910E-09 -4.455946E-09
       186  18 -1.425317E+05 -3.449534E+04 -2.004011E+04 -8.255412E+04  2.388967E-10  3.333823E-10
       186  19  4.658311E+05  1.209953E+06  5.555448E+05 -1.011927E+05 -1.616578E+03 -2.570655E+05
       186  20  8.630665E+04  1.077924E+06  3.215347E+05  1.250539E+04 -6.124462E+03 -1.647460E+05
       186  21  1.320575E+05  1.066818E+06  2.544181E+05 -5.922608E+04 -2.787078E+03 -7.238876E+04
       186  22  2.922797E+05  5.161153E+05  3.824764E+05 -6.957682E+04 -1.634809E+03 -2.557230E+05
       186  23 -6.911824E+04  4.556551E+05  1.667517E+05  2.248223E+04 -6.127532E+03 -1.646254E+05
       186  24 -5.225264E+03  5.160269E+05  1.172056E+05 -7.089543E+04 -2.777907E+03 -7.347925E+04
       186  25  1.186954E+05 -1.772849E+05  2.093721E+05 -3.799572E+04 -1.652920E+03 -2.543820E+05
       186  26 -2.245719E+05 -1.662632E+05  1.193966E+04  3.244957E+04 -6.130601E+03 -1.645049E+05
       186  27 -1.425302E+05 -3.448936E+04 -2.002964E+04 -8.255395E+04 -2.768690E+03 -7.456875E+04
       187   1  7.846774E+03  3.491770E+05  6.489079E+04 -7.400992E+04 -4.021814E+02  5.328286E+04
       187   2 -6.978408E+04  2.660026E+05  9.850658E+03  2.205953E+04 -2.229022E+03  1.994480E+04
       187   3 -4.941076E+04  2.092377E+05  5.140279E+02 -6.394318E+04 -3.584668E+03 -1.338396E+04
       187   4  4.422826E+04  4.951302E+05  1.013419E+05 -6.949049E+04 -4.042126E+02  5.362518E+04
       187   5 -1.585705E+04  4.819495E+05  6.361808E+04  2.145423E+04 -2.230759E+03  2.021157E+04
       187   6  2.205828E+04  4.951794E+05  7.164223E+04 -6.966873E+04 -3.585661E+03 -1.319647E+04
       187   7  8.060824E+04  6.411028E+05  1.377914E+05 -6.496995E+04 -4.062386E+02  5.396758E+04
       187   8  3.806647E+04  6.979386E+05  1.173820E+05  2.084880E+04 -2.232496E+03  2.047843E+04
       187   9  9.352128E+04  7.811953E+05  1.427643E+05 -7.539680E+04 -3.586657E+03 -1.300890E+04
       187  10  7.846013E+03  3.491739E+05  6.488546E+04 -7.400991E+04 -3.230976E-09 -1.534555E-10
       187  11 -6.978419E+04  2.660022E+05  9.849901E+03  2.205956E+04 -9.811882E-10  6.156339E-10
       187  12 -4.941082E+04  2.092375E+05  5.136672E+02 -6.394322E+04 -8.595837E-10 -4.901776E-10
       187  13  4.422749E+04  4.951271E+05  1.013365E+05 -6.949047E+04 -3.137922E-09  1.854213E-09
       187  14 -1.585717E+04  4.819490E+05  6.361730E+04  2.145427E+04 -8.751254E-10 -1.950157E-09
       187  15  2.205822E+04  4.951792E+05  7.164188E+04 -6.966877E+04 -3.674448E-09  3.824962E-10
       187  16  8.060746E+04  6.410997E+05  1.377860E+05 -6.496993E+04 -2.955980E-09  1.092252E-10
       187  17  3.806635E+04  6.979382E+05  1.173812E+05  2.084883E+04 -4.262943E-09 -4.281744E-09
       187  18  9.352122E+04  7.811951E+05  1.427640E+05 -7.539684E+04 -1.496050E-09  8.835251E-10
       187  19  7.846774E+03  3.491770E+05  6.489079E+04 -7.400992E+04  4.021814E+02 -5.328286E+04
       187  20 -6.978408E+04  2.660026E+05  9.850658E+03  2.205953E+04  2.229022E+03 -1.994480E+04
       187  21 -4.941076E+04  2.092377E+05  5.140279E+02 -6.394318E+04  3.584668E+03  1.338396E+04
       187  22  4.422826E+04  4.951302E+05  1.013419E+05 -6.949049E+04  4.042126E+02 -5.362518E+04
       187  23 -1.585705E+04  4.819495E+05  6.361808E+04  2.145423E+04  2.230759E+03 -2.021157E+04
       187  24  2.205828E+04  4.951794E+05  7.164223E+04 -6.966873E+04  3.585661E+03  1.319647E+04
       187  25  8.060824E+04  6.411028E+05  1.377914E+05 -6.496995E+04  4.062386E+02 -5.396758E+04
       187  26  3.806647E+04  6.979386E+05  1.173820E+05  2.084880E+04  2.232496E+03 -2.047843E+04
       187  27  9.352128E+04  7.811953E+05  1.427643E+05 -7.539680E+04  3.586657E+03  1.300890E+04
       188   1 -2.462839E+05 -4.909813E+05 -1.718013E+05 -7.640620E+04 -7.352413E+03 -2.822391E+04
       188   2 -3.061729E+05 -6.051914E+05 -1.735383E+05  3.130608E+04 -1.159280E+04 -7.769072E+04
       188   3 -1.319871E+05 -6.402708E+05 -8.167715E+04 -5.576532E+04 -4.251742E+03 -1.271172E+05
       188   4  2.903234E+03  5.066210E+05  7.688127E+04 -7.256049E+04 -7.360127E+03 -2.677240E+04
       188   5 -3.825132E+04  4.670606E+05  9.344745E+04  2.489659E+04 -1.159009E+04 -7.798280E+04
       188   6  1.547682E+05  5.068287E+05  2.047093E+05 -7.240863E+04 -4.245798E+03 -1.291590E+05
       188   7  2.520156E+05  1.505126E+06  3.254891E+05 -6.870728E+04 -7.367816E+03 -2.531853E+04
       188   8  2.295839E+05  1.540356E+06  3.603469E+05  1.847685E+04 -1.158738E+04 -7.827529E+04
       188   9  4.414252E+05  1.655122E+06  4.909967E+05 -8.908233E+04 -4.239753E+03 -1.312043E+05
       188  10 -2.462842E+05 -4.909821E+05 -1.718029E+05 -7.640637E+04 -1.348774E-09  1.004080E-09
       188  11 -3.061747E+05 -6.051979E+05 -1.735499E+05  3.130536E+04  2.529119E-09  1.065280E-09
       188  12 -1.319915E+05 -6.402882E+05 -8.170758E+04 -5.576575E+04  8.001907E-10 -5.612523E-10
       188  13  2.902984E+03  5.066202E+05  7.687983E+04 -7.256065E+04  7.803223E-10  1.472135E-09
       188  14 -3.825309E+04  4.670540E+05  9.343578E+04  2.489586E+04  1.001189E-09 -9.576920E-10
       188  15  1.547637E+05  5.068108E+05  2.046779E+05 -7.240907E+04 -1.991535E-10 -4.066438E-11
       188  16  2.520154E+05  1.505125E+06  3.254878E+05 -6.870743E+04 -3.837749E-09 -8.393163E-10
       188  17  2.295821E+05  1.540349E+06  3.603352E+05  1.847612E+04  9.538756E-11 -2.897473E-09
       188  18  4.414206E+05  1.655103E+06  4.909644E+05 -8.908277E+04  9.283805E-10  5.353172E-10
       188  19 -2.462839E+05 -4.909813E+05 -1.718013E+05 -7.640620E+04  7.352413E+03  2.822391E+04
       188  20 -3.061729E+05 -6.051914E+05 -1.735383E+05  3.130608E+04  1.159280E+04  7.769072E+04
       188  21 -1.319871E+05 -6.402708E+05 -8.167715E+04 -5.576532E+04  4.251742E+03  1.271172E+05
       188  22  2.903234E+03  5.066210E+05  7.688127E+04 -7.256049E+04  7.360127E+03  2.677240E+04
       188  23 -3.825132E+04  4.670606E+05  9.344745E+04  2.489659E+04  1.159009E+04  7.798280E+04
       188  24  1.547682E+05  5.068287E+05  2.047093E+05 -7.240863E+04  4.245798E+03  1.291590E+05
       188  25  2.520156E+05  1.505126E+06  3.254891E+05 -6.870728E+04  7.367816E+03  2.531853E+04
       188  26  2.295839E+05  1.540356E+06  3.603469E+05  1.847685E+04  1.158738E+04  7.827529E+04
       188  27  4.414252E+05  1.655122E+06  4.909967E+05 -8.908233E+04  4.239753E+03  1.312043E+05
       189   1 -6.065881E+06 -1.921746E+06 -1.208306E+06 -2.127865E+06 -5.709852E+05 -2.015373E+05
       189   2 -5.913110E+06 -1.077143E+06 -6.775720E+05 -2.215242E+06 -3.712274E+05 -9.593623E+04
       189   3 -6.058824E+06 -1.063286E+06 -5.233140E+05 -2.128044E+06 -1.606304E+05 -1.889641E+04
       189   4 -4.956807E+06 -1.320448E+06 -8.683391E+05 -1.642501E+06 -5.536465E+05 -1.951724E+05
       189   5 -4.762938E+06 -5.908387E+05 -3.608648E+05 -1.848979E+06 -3.663188E+05 -9.412325E+04
       189   6 -4.864516E+06 -6.886450E+05 -2.194253E+05 -1.881054E+06 -1.681509E+05 -2.171423E+04
       189   7 -3.846446E+06 -7.186330E+05 -5.284909E+05 -1.156216E+06 -5.362727E+05 -1.887812E+05
       189   8 -3.611466E+06 -1.043584E+05 -4.427996E+04 -1.482063E+06 -3.613996E+05 -9.230516E+04
       189   9 -3.668816E+06 -3.140142E+05  8.435299E+04 -1.633679E+06 -1.756872E+05 -2.453566E+04
       189  10 -6.066246E+06 -1.921879E+06 -1.209003E+06 -2.127959E+06  2.093953E-10  1.194564E-10
       189  11 -5.913262E+06 -1.077191E+06 -6.778513E+05 -2.215271E+06 -2.222158E-09  1.432002E-10
       189  12 -6.058852E+06 -1.063294E+06 -5.233637E+05 -2.128047E+06 -6.936173E-10  9.821547E-10
       189  13 -4.957148E+06 -1.320572E+06 -8.689925E+05 -1.642589E+06  3.862203E-10 -8.933536E-10
       189  14 -4.763085E+06 -5.908847E+05 -3.611360E+05 -1.849007E+06 -3.941290E-10 -7.442733E-10
       189  15 -4.864546E+06 -6.886531E+05 -2.194797E+05 -1.881057E+06  7.292701E-10  5.139762E-10
       189  16 -3.846766E+06 -7.187493E+05 -5.291024E+05 -1.156298E+06 -5.007841E-10  2.543809E-11
       189  17 -3.611609E+06 -1.044030E+05 -4.454320E+04 -1.482090E+06  3.446091E-09 -1.001997E-09
       189  18 -3.668850E+06 -3.140232E+05  8.429347E+04 -1.633682E+06 -8.502344E-10  1.751273E-10
       189  19 -6.065881E+06 -1.921746E+06 -1.208306E+06 -2.127865E+06  5.709852E+05  2.015373E+05
       189  20 -5.913110E+06 -1.077143E+06 -6.775720E+05 -2.215242E+06  3.712274E+05  9.593623E+04
       189  21 -6.058824E+06 -1.063286E+06 -5.233140E+05 -2.128044E+06  1.606304E+05  1.889641E+04
       189  22 -4.956807E+06 -1.320448E+06 -8.683391E+05 -1.642501E+06  5.536465E+05  1.951724E+05
       189  23 -4.762938E+06 -5.908387E+05 -3.608648E+05 -1.848979E+06  3.663188E+05  9.412325E+04
       189  24 -4.864516E+06 -6.886450E+05 -2.194253E+05 -1.881054E+06  1.681509E+05  2.171423E+04
       189  25 -3.846446E+06 -7.186330E+05 -5.284909E+05 -1.156216E+06  5.362727E+05  1.887812E+05
       189  26 -3.611466E+06 -1.043584E+05 -4.427996E+04 -1.482063E+06  3.613996E+05  9.230516E+04
       189  27 -3.668816E+06 -3.140142E+05  8.435299E+04 -1.633679E+06  1.756872E+05  2.453566E+04
       190   1 -5.853432E+06 -1.189749E+06 -4.557291E+05 -2.130827E+06 -1.349637E+05 -1.563704E+04
       190   2 -5.782914E+06 -1.042297E+06 -3.397527E+05 -2.093700E+06 -8.913539E+04  7.297722E+02
       190   3 -5.702090E+06 -1.035682E+06 -2.825859E+05 -2.089931E+06 -4.220123E+04  1.416002E+04
       190   4 -4.832403E+06 -7.849053E+05 -1.788332E+05 -1.833282E+06 -1.348025E+05 -1.558538E+04
       190   5 -4.832466E+06 -6.786437E+05 -8.509372E+04 -1.830084E+06 -9.021213E+04  3.206284E+02
       190   6 -4.821921E+06 -7.128748E+05 -4.909892E+04 -1.860253E+06 -4.452249E+04  1.328745E+04
       190   7 -3.810355E+06 -3.799694E+05  9.796922E+04 -1.535278E+06 -1.346409E+05 -1.553353E+04
       190   8 -3.881136E+06 -3.149287E+05  1.694857E+05 -1.566096E+06 -9.129061E+04 -8.918431E+01
       190   9 -3.940997E+06 -3.900326E+05  1.843210E+05 -1.630284E+06 -4.684737E+04  1.241362E+04
       190  10 -5.853452E+06 -1.189754E+06 -4.557642E+05 -2.130829E+06 -1.346201E-09  7.924629E-10
       190  11 -5.782923E+06 -1.042300E+06 -3.397677E+05 -2.093700E+06 -1.495925E-09 -1.338754E-09
       190  12 -5.702092E+06 -1.035682E+06 -2.825896E+05 -2.089931E+06 -2.051597E-09 -7.199133E-10
       190  13 -4.832423E+06 -7.849105E+05 -1.788681E+05 -1.833283E+06 -2.183436E-09 -1.530027E-11
       190  14 -4.832475E+06 -6.786459E+05 -8.510912E+04 -1.830084E+06  1.951764E-10 -4.604214E-10
       190  15 -4.821923E+06 -7.128755E+05 -4.910300E+04 -1.860253E+06  2.605444E-09  2.625608E-10
       190  16 -3.810374E+06 -3.799746E+05  9.793448E+04 -1.535280E+06 -2.285637E-09 -1.073210E-11
       190  17 -3.881145E+06 -3.149309E+05  1.694699E+05 -1.566096E+06 -1.638695E-09 -3.479599E-10
       190  18 -3.941000E+06 -3.900334E+05  1.843166E+05 -1.630283E+06  3.260168E-10  1.386220E-09
       190  19 -5.853432E+06 -1.189749E+06 -4.557291E+05 -2.130827E+06  1.349637E+05  1.563704E+04
       190  20 -5.782914E+06 -1.042297E+06 -3.397527E+05 -2.093700E+06  8.913539E+04 -7.297722E+02
       190  21 -5.702090E+06 -1.035682E+06 -2.825859E+05 -2.089931E+06  4.220123E+04 -1.416002E+04
       190  22 -4.832403E+06 -7.849053E+05 -1.788332E+05 -1.833282E+06  1.348025E+05  1.558538E+04
       190  23 -4.832466E+06 -6.786437E+05 -8.509372E+04 -1.830084E+06  9.021213E+04 -3.206284E+02
       190  24 -4.821921E+06 -7.128748E+05 -4.909892E+04 -1.860253E+06  4.452249E+04 -1.328745E+04
       190  25 -3.810355E+06 -3.799694E+05  9.796922E+04 -1.535278E+06  1.346409E+05  1.553353E+04
       190  26 -3.881136E+06 -3.149287E+05  1.694857E+05 -1.566096E+06  9.129061E+04  8.918431E+01
       190  27 -3.940997E+06 -3.900326E+05  1.843210E+05 -1.630284E+06  4.684737E+04 -1.241362E+04
       191   1 -5.542486E+06 -1.001963E+06 -2.325721E+05 -2.056886E+06 -3.477096E+04  1.388480E+04
       191   2 -5.468757E+06 -9.210612E+05 -1.865663E+05 -1.994091E+06 -2.295453E+04  1.370952E+04
       191   3 -5.336792E+06 -9.134767E+05 -1.509731E+05 -2.001077E+06 -1.093667E+04  1.298031E+04
       191   4 -4.815295E+06 -7.262574E+05 -3.847400E+04 -1.857693E+06 -3.646945E+04  1.324644E+04
       191   5 -4.843819E+06 -6.854758E+05 -1.981275E+04 -1.824342E+06 -2.488806E+04  1.298487E+04
       191   6 -4.814066E+06 -7.179537E+05 -1.136580E+04 -1.860772E+06 -1.310719E+04  1.216893E+04
       191   7 -4.087590E+06 -4.505190E+05  1.555772E+05 -1.658287E+06 -3.817013E+04  1.260724E+04
       191   8 -4.218500E+06 -4.498671E+05  1.469066E+05 -1.654437E+06 -2.682374E+04  1.225941E+04
       191   9 -4.291074E+06 -5.224150E+05  1.282179E+05 -1.720359E+06 -1.527974E+04  1.135680E+04
       191  10 -5.542488E+06 -1.001964E+06 -2.325748E+05 -2.056885E+06  1.647600E-09  1.121748E-09
       191  11 -5.468758E+06 -9.210615E+05 -1.865677E+05 -1.994091E+06  2.818616E-09 -4.416050E-10
       191  12 -5.336792E+06 -9.134769E+05 -1.509736E+05 -2.001077E+06  2.905281E-09  2.396439E-09
       191  13 -4.815296E+06 -7.262580E+05 -3.847684E+04 -1.857692E+06  2.428854E-09  1.111446E-09
       191  14 -4.843819E+06 -6.854761E+05 -1.981423E+04 -1.824341E+06  6.137437E-09  1.254053E-09
       191  15 -4.814066E+06 -7.179539E+05 -1.136640E+04 -1.860772E+06 -3.460982E-10  4.763152E-11
       191  16 -4.087592E+06 -4.505196E+05  1.555741E+05 -1.658287E+06  9.227266E-10  2.832138E-12
       191  17 -4.218501E+06 -4.498675E+05  1.469049E+05 -1.654436E+06  1.220408E-09 -3.013389E-10
       191  18 -4.291074E+06 -5.224152E+05  1.282172E+05 -1.720359E+06 -6.818759E-10 -1.219762E-09
       191  19 -5.542486E+06 -1.001963E+06 -2.325721E+05 -2.056886E+06  3.477096E+04 -1.388480E+04
       191  20 -5.468757E+06 -9.210612E+05 -1.865663E+05 -1.994091E+06  2.295453E+04 -1.370952E+04
       191  21 -5.336792E+06 -9.134767E+05 -1.509731E+05 -2.001077E+06  1.093667E+04 -1.298031E+04
       191  22 -4.815295E+06 -7.262574E+05 -3.847400E+04 -1.857693E+06  3.646945E+04 -1.324644E+04
       191  23 -4.843819E+06 -6.854758E+05 -1.981275E+04 -1.824342E+06  2.488806E+04 -1.298487E+04
       191  24 -4.814066E+06 -7.179537E+05 -1.136580E+04 -1.860772E+06  1.310719E+04 -1.216893E+04
       191  25 -4.087590E+06 -4.505190E+05  1.555772E+05 -1.658287E+06  3.817013E+04 -1.260724E+04
       191  26 -4.218500E+06 -4.498671E+05  1.469066E+05 -1.654437E+06  2.682374E+04 -1.225941E+04
       191  27 -4.291074E+06 -5.224150E+05  1.282179E+05 -1.720359E+06  1.527974E+04 -1.135680E+04
       192   1 -5.161190E+06 -8.520849E+05 -1.016514E+05 -1.956636E+06 -8.263206E+03  1.076398E+04
       192   2 -5.080218E+06 -7.723232E+05 -6.765753E+04 -1.884991E+06 -3.677848E+03  6.945253E+03
       192   3 -4.929860E+06 -7.640955E+05 -3.608826E+04 -1.894024E+06  9.592697E+02  2.980162E+03
       192   4 -4.812002E+06 -7.207566E+05 -8.944773E+03 -1.861983E+06 -1.039875E+04  9.966587E+03
       192   5 -4.846623E+06 -6.845429E+05 -5.393281E+03 -1.821809E+06 -5.877225E+03  6.124725E+03
       192   6 -4.811859E+06 -7.198484E+05 -4.213165E+03 -1.862315E+06 -1.304538E+03  2.136369E+03
       192   7 -4.462695E+06 -5.894211E+05  8.375121E+04 -1.767281E+06 -1.253563E+04  9.168697E+03
       192   8 -4.612975E+06 -5.967595E+05  5.686612E+04 -1.758605E+06 -8.077514E+03  5.303857E+03
       192   9 -4.693845E+06 -6.756007E+05  2.766062E+04 -1.830601E+06 -3.568815E+03  1.292403E+03
       192  10 -5.161190E+06 -8.520851E+05 -1.016517E+05 -1.956636E+06  7.935864E-10  1.489038E-09
       192  11 -5.080218E+06 -7.723232E+05 -6.765764E+04 -1.884991E+06  2.452418E-11  2.293764E-09
       192  12 -4.929860E+06 -7.640955E+05 -3.608828E+04 -1.894024E+06  2.904892E-11  1.724362E-09
       192  13 -4.812002E+06 -7.207568E+05 -8.945163E+03 -1.861983E+06 -2.947455E-09 -2.657822E-10
       192  14 -4.846623E+06 -6.845429E+05 -5.393416E+03 -1.821809E+06  1.806123E-09  2.612387E-09
       192  15 -4.811859E+06 -7.198484E+05 -4.213177E+03 -1.862315E+06 -6.336313E-10 -1.061676E-09
       192  16 -4.462695E+06 -5.894213E+05  8.375075E+04 -1.767281E+06 -5.492374E-10 -2.563630E-10
       192  17 -4.612975E+06 -5.967596E+05  5.686594E+04 -1.758604E+06  9.454474E-10  2.622551E-10
       192  18 -4.693845E+06 -6.756007E+05  2.766059E+04 -1.830601E+06  3.542026E-11 -9.064624E-10
       192  19 -5.161190E+06 -8.520849E+05 -1.016514E+05 -1.956636E+06  8.263206E+03 -1.076398E+04
       192  20 -5.080218E+06 -7.723232E+05 -6.765753E+04 -1.884991E+06  3.677848E+03 -6.945253E+03
       192  21 -4.929860E+06 -7.640955E+05 -3.608826E+04 -1.894024E+06 -9.592697E+02 -2.980162E+03
       192  22 -4.812002E+06 -7.207566E+05 -8.944773E+03 -1.861983E+06  1.039875E+04 -9.966587E+03
       192  23 -4.846623E+06 -6.845429E+05 -5.393281E+03 -1.821809E+06  5.877225E+03 -6.124725E+03
       192  24 -4.811859E+06 -7.198484E+05 -4.213165E+03 -1.862315E+06  1.304538E+03 -2.136369E+03
       192  25 -4.462695E+06 -5.894211E+05  8.375121E+04 -1.767281E+06  1.253563E+04 -9.168697E+03
       192  26 -4.612975E+06 -5.967595E+05  5.686612E+04 -1.758605E+06  8.077514E+03 -5.303857E+03
       192  27 -4.693845E+06 -6.756007E+05  2.766062E+04 -1.830601E+06  3.568815E+03 -1.292403E+03
       193   1 -4.746503E+06 -6.955142E+05  1.364059E+04 -1.844962E+06  2.753480E+03  2.738229E+02
       193   2 -4.665089E+06 -6.161770E+05  4.323854E+04 -1.772529E+06  7.167267E+03 -3.793051E+03
       193   3 -4.513832E+06 -6.087273E+05  7.059777E+04 -1.781321E+06  1.154050E+04 -7.742505E+03
       193   4 -4.811764E+06 -7.199605E+05 -4.177373E+03 -1.862426E+06  4.880384E+02 -5.705170E+02
       193   5 -4.846736E+06 -6.844191E+05 -5.165001E+03 -1.821660E+06  4.953096E+03 -4.618877E+03
       193   6 -4.811891E+06 -7.207792E+05 -8.432342E+03 -1.862126E+06  9.377043E+03 -8.549941E+03
       193   7 -4.877021E+06 -7.444067E+05 -2.199575E+04 -1.879888E+06 -1.777146E+03 -1.414762E+03
       193   8 -5.028352E+06 -7.526595E+05 -5.357148E+04 -1.870778E+06  2.739638E+03 -5.444437E+03
       193   9 -5.109864E+06 -8.328258E+05 -8.747016E+04 -1.942896E+06  7.214736E+03 -9.356948E+03
       193  10 -4.746503E+06 -6.955142E+05  1.364057E+04 -1.844962E+06 -8.659845E-10 -1.426400E-09
       193  11 -4.665089E+06 -6.161770E+05  4.323841E+04 -1.772529E+06  1.183394E-09  2.055435E-09
       193  12 -4.513832E+06 -6.087274E+05  7.059741E+04 -1.781320E+06  1.107080E-09  6.803988E-10
       193  13 -4.811764E+06 -7.199605E+05 -4.177374E+03 -1.862426E+06 -1.753718E-09 -1.885853E-09
       193  14 -4.846736E+06 -6.844192E+05 -5.165087E+03 -1.821660E+06 -3.267930E-09 -4.488976E-09
       193  15 -4.811891E+06 -7.207793E+05 -8.432644E+03 -1.862126E+06  3.015485E-09  1.637322E-09
       193  16 -4.877021E+06 -7.444067E+05 -2.199576E+04 -1.879888E+06  8.417322E-10 -1.056667E-09
       193  17 -5.028352E+06 -7.526595E+05 -5.357155E+04 -1.870778E+06 -1.974194E-09 -3.060149E-09
       193  18 -5.109864E+06 -8.328259E+05 -8.747042E+04 -1.942896E+06  2.698331E-09  1.012004E-09
       193  19 -4.746503E+06 -6.955142E+05  1.364059E+04 -1.844962E+06 -2.753480E+03 -2.738229E+02
       193  20 -4.665089E+06 -6.161770E+05  4.323854E+04 -1.772529E+06 -7.167267E+03  3.793051E+03
       193  21 -4.513832E+06 -6.087273E+05  7.059777E+04 -1.781321E+06 -1.154050E+04  7.742505E+03
       193  22 -4.811764E+06 -7.199605E+05 -4.177373E+03 -1.862426E+06 -4.880384E+02  5.705170E+02
       193  23 -4.846736E+06 -6.844191E+05 -5.165001E+03 -1.821660E+06 -4.953096E+03  4.618877E+03
       193  24 -4.811891E+06 -7.207792E+05 -8.432342E+03 -1.862126E+06 -9.377043E+03  8.549941E+03
       193  25 -4.877021E+06 -7.444067E+05 -2.199575E+04 -1.879888E+06  1.777146E+03  1.414762E+03
       193  26 -5.028352E+06 -7.526595E+05 -5.357148E+04 -1.870778E+06 -2.739638E+03  5.444437E+03
       193  27 -5.109864E+06 -8.328258E+05 -8.747016E+04 -1.942896E+06 -7.214736E+03  9.356948E+03
       194   1 -4.339779E+06 -5.410966E+05  1.158536E+05 -1.733915E+06  1.420297E+04 -1.000309E+04
       194   2 -4.265666E+06 -4.672573E+05  1.356962E+05 -1.666776E+06  2.514444E+04 -1.122284E+04
       194   3 -4.131725E+06 -4.672497E+05  1.461440E+05 -1.671113E+06  3.589878E+04 -1.191702E+04
       194   4 -4.813746E+06 -7.182468E+05 -1.068134E+04 -1.861088E+06  1.200203E+04 -1.082535E+04
       194   5 -4.844205E+06 -6.851846E+05 -1.854376E+04 -1.823907E+06  2.316867E+04 -1.196272E+04
       194   6 -4.814894E+06 -7.260106E+05 -3.598704E+04 -1.858211E+06  3.414638E+04 -1.257493E+04
       194   7 -5.287494E+06 -8.953843E+05 -1.372357E+05 -1.988173E+06  9.802956E+03 -1.164691E+04
       194   8 -5.422418E+06 -9.030920E+05 -1.728130E+05 -1.980905E+06  2.119492E+04 -1.270184E+04
       194   9 -5.497611E+06 -9.847429E+05 -2.181594E+05 -2.045122E+06  3.239610E+04 -1.323204E+04
       194  10 -4.339779E+06 -5.410968E+05  1.158531E+05 -1.733915E+06  1.904732E-09  3.373227E-09
       194  11 -4.265667E+06 -4.672576E+05  1.356947E+05 -1.666776E+06  8.294700E-10  1.729659E-09
       194  12 -4.131726E+06 -4.672502E+05  1.461413E+05 -1.671113E+06  3.233114E-09 -5.493180E-10
       194  13 -4.813746E+06 -7.182470E+05 -1.068183E+04 -1.861088E+06  4.319596E-09  3.266081E-09
       194  14 -4.844205E+06 -6.851849E+05 -1.854504E+04 -1.823907E+06  2.166742E-09  1.344881E-09
       194  15 -4.814895E+06 -7.260111E+05 -3.598954E+04 -1.858211E+06  7.734442E-10  1.530252E-10
       194  16 -5.287494E+06 -8.953844E+05 -1.372361E+05 -1.988173E+06  6.057944E-09  2.162514E-09
       194  17 -5.422419E+06 -9.030923E+05 -1.728142E+05 -1.980905E+06  2.259612E-09  3.420628E-09
       194  18 -5.497612E+06 -9.847434E+05 -2.181618E+05 -2.045121E+06 -9.681604E-10 -1.163446E-09
       194  19 -4.339779E+06 -5.410966E+05  1.158536E+05 -1.733915E+06 -1.420297E+04  1.000309E+04
       194  20 -4.265666E+06 -4.672573E+05  1.356962E+05 -1.666776E+06 -2.514444E+04  1.122284E+04
       194  21 -4.131725E+06 -4.672497E+05  1.461440E+05 -1.671113E+06 -3.589878E+04  1.191702E+04
       194  22 -4.813746E+06 -7.182468E+05 -1.068134E+04 -1.861088E+06 -1.200203E+04  1.082535E+04
       194  23 -4.844205E+06 -6.851846E+05 -1.854376E+04 -1.823907E+06 -2.316867E+04  1.196272E+04
       194  24 -4.814894E+06 -7.260106E+05 -3.598704E+04 -1.858211E+06 -3.414638E+04  1.257493E+04
       194  25 -5.287494E+06 -8.953843E+05 -1.372357E+05 -1.988173E+06 -9.802956E+03  1.164691E+04
       194  26 -5.422418E+06 -9.030920E+05 -1.728130E+05 -1.980905E+06 -2.119492E+04  1.270184E+04
       194  27 -5.497611E+06 -9.847429E+05 -2.181594E+05 -2.045122E+06 -3.239610E+04  1.323204E+04
       195   1 -3.980921E+06 -4.054781E+05  1.767568E+05 -1.641173E+06  4.413918E+04 -1.196473E+04
       195   2 -3.918904E+06 -3.294367E+05  1.651605E+05 -1.575812E+06  8.576916E+04 -6.832162E+02
       195   3 -3.841506E+06 -3.896463E+05  1.006040E+05 -1.547696E+06  1.263281E+05  1.348490E+04
       195   4 -4.821124E+06 -7.134594E+05 -4.591479E+04 -1.860557E+06  4.176894E+04 -1.285482E+04
       195   5 -4.833559E+06 -6.788509E+05 -7.955378E+04 -1.829332E+06  8.462742E+04 -1.116108E+03
       195   6 -4.830916E+06 -7.808289E+05 -1.671955E+05 -1.835350E+06  1.264087E+05  1.350708E+04
       195   7 -5.660641E+06 -1.021409E+06 -2.686474E+05 -2.079676E+06  3.940222E+04 -1.374367E+04
       195   8 -5.747399E+06 -1.028209E+06 -3.243415E+05 -2.082509E+06  8.348746E+04 -1.548315E+03
       195   9 -5.819370E+06 -1.171926E+06 -4.350824E+05 -2.122577E+06  1.264890E+05  1.352914E+04
       195  10 -3.980923E+06 -4.054787E+05  1.767528E+05 -1.641173E+06 -3.272735E-09 -1.918621E-09
       195  11 -3.918912E+06 -3.294387E+05  1.651466E+05 -1.575812E+06 -2.815660E-09  1.489717E-10
       195  12 -3.841523E+06 -3.896508E+05  1.005734E+05 -1.547697E+06  2.906504E-09  8.288345E-10
       195  13 -4.821125E+06 -7.134601E+05 -4.591840E+04 -1.860557E+06 -2.335505E-09 -5.342211E-10
       195  14 -4.833567E+06 -6.788528E+05 -7.956734E+04 -1.829332E+06 -2.246621E-09  1.068535E-09
       195  15 -4.830933E+06 -7.808334E+05 -1.672261E+05 -1.835352E+06 -8.358591E-10  9.585494E-10
       195  16 -5.660643E+06 -1.021409E+06 -2.686507E+05 -2.079675E+06  1.809854E-09  3.366363E-10
       195  17 -5.747406E+06 -1.028211E+06 -3.243548E+05 -2.082509E+06 -2.149653E-09 -2.751540E-10
       195  18 -5.819387E+06 -1.171930E+06 -4.351132E+05 -2.122579E+06 -4.635104E-09  1.832973E-10
       195  19 -3.980921E+06 -4.054781E+05  1.767568E+05 -1.641173E+06 -4.413918E+04  1.196473E+04
       195  20 -3.918904E+06 -3.294367E+05  1.651605E+05 -1.575812E+06 -8.576916E+04  6.832162E+02
       195  21 -3.841506E+06 -3.896463E+05  1.006040E+05 -1.547696E+06 -1.263281E+05 -1.348490E+04
       195  22 -4.821124E+06 -7.134594E+05 -4.591479E+04 -1.860557E+06 -4.176894E+04  1.285482E+04
       195  23 -4.833559E+06 -6.788509E+05 -7.955378E+04 -1.829332E+06 -8.462742E+04  1.116108E+03
       195  24 -4.830916E+06 -7.808289E+05 -1.671955E+05 -1.835350E+06 -1.264087E+05 -1.350708E+04
       195  25 -5.660641E+06 -1.021409E+06 -2.686474E+05 -2.079676E+06 -3.940222E+04  1.374367E+04
       195  26 -5.747399E+06 -1.028209E+06 -3.243415E+05 -2.082509E+06 -8.348746E+04  1.548315E+03
       195  27 -5.819370E+06 -1.171926E+06 -4.350824E+05 -2.122577E+06 -1.264890E+05 -1.352914E+04
       196   1 -3.696720E+06 -3.229851E+05  9.124836E+04 -1.636055E+06  1.652663E+05  2.162795E+04
       196   2 -3.637864E+06 -1.219771E+05 -2.706540E+04 -1.489637E+06  3.383600E+05  8.435021E+04
       196   3 -3.847527E+06 -6.957628E+05 -4.772835E+05 -1.185648E+06  5.007774E+05  1.753793E+05
       196   4 -4.861106E+06 -6.906538E+05 -2.051409E+05 -1.879795E+06  1.577475E+05  1.881257E+04
       196   5 -4.768410E+06 -5.969731E+05 -3.373850E+05 -1.847223E+06  3.431504E+05  8.612275E+04
       196   6 -4.947264E+06 -1.281459E+06 -8.118304E+05 -1.656930E+06  5.178721E+05  1.816833E+05
       196   7 -6.024174E+06 -1.058331E+06 -5.016361E+05 -2.123165E+06  1.502440E+05  1.600078E+04
       196   8 -5.897700E+06 -1.071804E+06 -6.478217E+05 -2.204186E+06  3.479306E+05  8.789047E+04
       196   9 -6.045742E+06 -1.866679E+06 -1.146493E+06 -2.127332E+06  5.349326E+05  1.879624E+05
       196  10 -3.696750E+06 -3.229930E+05  9.119581E+04 -1.636058E+06 -1.654873E-09  1.721493E-10
       196  11 -3.637989E+06 -1.220158E+05 -2.729548E+04 -1.489660E+06 -3.742126E-09  2.219339E-10
       196  12 -3.847806E+06 -6.958639E+05 -4.778162E+05 -1.185719E+06 -1.881552E-09 -8.270739E-10
       196  13 -4.861133E+06 -6.906609E+05 -2.051887E+05 -1.879798E+06  1.736003E-09  2.759266E-10
       196  14 -4.768539E+06 -5.970130E+05 -3.376223E+05 -1.847247E+06 -1.777646E-09 -2.190775E-09
       196  15 -4.947563E+06 -1.281568E+06 -8.124015E+05 -1.657007E+06  3.512449E-09 -6.151157E-10
       196  16 -6.024198E+06 -1.058337E+06 -5.016794E+05 -2.123167E+06  5.899281E-10 -2.466363E-10
       196  17 -5.897833E+06 -1.071845E+06 -6.480663E+05 -2.204210E+06  2.976298E-09 -1.949965E-09
       196  18 -6.046061E+06 -1.866796E+06 -1.147103E+06 -2.127414E+06  1.238149E-09 -7.403210E-10
       196  19 -3.696720E+06 -3.229851E+05  9.124836E+04 -1.636055E+06 -1.652663E+05 -2.162795E+04
       196  20 -3.637864E+06 -1.219771E+05 -2.706540E+04 -1.489637E+06 -3.383600E+05 -8.435021E+04
       196  21 -3.847527E+06 -6.957628E+05 -4.772835E+05 -1.185648E+06 -5.007774E+05 -1.753793E+05
       196  22 -4.861106E+06 -6.906538E+05 -2.051409E+05 -1.879795E+06 -1.577475E+05 -1.881257E+04
       196  23 -4.768410E+06 -5.969731E+05 -3.373850E+05 -1.847223E+06 -3.431504E+05 -8.612275E+04
       196  24 -4.947264E+06 -1.281459E+06 -8.118304E+05 -1.656930E+06 -5.178721E+05 -1.816833E+05
       196  25 -6.024174E+06 -1.058331E+06 -5.016361E+05 -2.123165E+06 -1.502440E+05 -1.600078E+04
       196  26 -5.897700E+06 -1.071804E+06 -6.478217E+05 -2.204186E+06 -3.479306E+05 -8.789047E+04
       196  27 -6.045742E+06 -1.866679E+06 -1.146493E+06 -2.127332E+06 -5.349326E+05 -1.879624E+05
       197   1 -5.077543E+05 -1.269449E+04  4.505165E+04  3.222908E+04  1.677781E+05  9.111552E+03
       197   2 -4.882925E+05 -2.378980E+05 -8.441751E+04  9.767539E+03  1.145408E+05  2.612175E+04
       197   3 -3.958166E+05 -2.034574E+05 -1.140652E+05 -5.633976E+04  6.135108E+04  2.417681E+04
       197   4  3.805263E+05  2.083727E+05  2.643515E+05 -2.887328E+04  1.807429E+05  9.132546E+03
       197   5  3.432978E+05 -3.169546E+04  1.154014E+05 -6.743729E+03  1.183313E+05  2.612557E+04
       197   6  3.805702E+05 -1.072121E+04  7.254198E+04 -2.825507E+04  5.597305E+04  2.416702E+04
       197   7  1.269533E+06  4.293956E+05  4.835957E+05 -9.006374E+04  1.937262E+05  9.150982E+03
       197   8  1.175522E+06  1.744579E+05  3.151713E+05 -2.327760E+04  1.221267E+05  2.612918E+04
       197   9  1.157510E+06  1.819740E+05  2.591068E+05 -1.353542E+02  5.058828E+04  2.415675E+04
       197  10 -5.077846E+05 -1.270214E+04  4.499856E+04  3.222785E+04 -5.606535E-10  1.325513E-09
       197  11 -4.883068E+05 -2.379023E+05 -8.444346E+04  9.765128E+03  1.413268E-09 -5.311229E-10
       197  12 -3.958208E+05 -2.034591E+05 -1.140733E+05 -5.634096E+04  1.496542E-09 -5.758204E-10
       197  13  3.804912E+05  2.083638E+05  2.642900E+05 -2.887461E+04  1.322146E-09  4.108453E-10
       197  14  3.432826E+05 -3.169995E+04  1.153738E+05 -6.746218E+03 -2.471341E-09 -3.332309E-09
       197  15  3.805667E+05 -1.072268E+04  7.253499E+04 -2.825616E+04 -4.730912E-10 -3.034855E-10
       197  16  1.269493E+06  4.293854E+05  4.835251E+05 -9.006517E+04  1.518048E-09 -4.279426E-10
       197  17  1.175506E+06  1.744532E+05  3.151421E+05 -2.328017E+04 -1.582461E-09 -8.531379E-10
       197  18  1.157508E+06  1.819727E+05  2.591009E+05 -1.363376E+02 -2.109999E-09 -5.787062E-10
       197  19 -5.077543E+05 -1.269449E+04  4.505165E+04  3.222908E+04 -1.677781E+05 -9.111552E+03
       197  20 -4.882925E+05 -2.378980E+05 -8.441751E+04  9.767539E+03 -1.145408E+05 -2.612175E+04
       197  21 -3.958166E+05 -2.034574E+05 -1.140652E+05 -5.633976E+04 -6.135108E+04 -2.417681E+04
       197  22  3.805263E+05  2.083727E+05  2.643515E+05 -2.887328E+04 -1.807429E+05 -9.132546E+03
       197  23  3.432978E+05 -3.169546E+04  1.154014E+05 -6.743729E+03 -1.183313E+05 -2.612557E+04
       197  24  3.805702E+05 -1.072121E+04  7.254198E+04 -2.825507E+04 -5.597305E+04 -2.416702E+04
       197  25  1.269533E+06  4.293956E+05  4.835957E+05 -9.006374E+04 -1.937262E+05 -9.150982E+03
       197  26  1.175522E+06  1.744579E+05  3.151713E+05 -2.327760E+04 -1.221267E+05 -2.612918E+04
       197  27  1.157510E+06  1.819740E+05  2.591068E+05 -1.353542E+02 -5.058828E+04 -2.415675E+04
       198   1 -3.321370E+05 -1.508299E+05 -1.090640E+05 -2.290585E+04  4.456712E+04  2.014210E+04
       198   2 -2.826506E+05 -1.634033E+05 -1.249788E+05 -6.008654E+03  2.991175E+04  1.946888E+04
       198   3 -2.234933E+05 -1.475663E+05 -1.241077E+05 -3.166687E+04  1.525504E+04  1.732021E+04
       198   4  3.662126E+05  2.248017E+04  5.924588E+04 -2.822196E+04  4.464371E+04  2.014031E+04
       198   5  3.613293E+05 -3.628469E+03  2.993920E+04 -6.927522E+03  2.926482E+04  1.946664E+04
       198   6  3.662301E+05 -1.217389E+03  1.790749E+04 -2.818542E+04  1.388588E+04  1.731802E+04
       198   7  1.065008E+06  1.957547E+05  2.275210E+05 -3.354424E+04  4.472036E+04  2.013851E+04
       198   8  1.005689E+06  1.561162E+05  1.848277E+05 -7.847467E+03  2.861720E+04  1.946441E+04
       198   9  9.562717E+05  1.451063E+05  1.598979E+05 -2.470072E+04  1.251541E+04  1.731581E+04
       198  10 -3.321393E+05 -1.508308E+05 -1.090685E+05 -2.290658E+04  2.098111E-10 -1.528817E-09
       198  11 -2.826517E+05 -1.634040E+05 -1.249812E+05 -6.009123E+03 -3.877528E-10  1.372249E-09
       198  12 -2.234936E+05 -1.475667E+05 -1.241087E+05 -3.166709E+04 -1.582304E-09 -7.280264E-10
       198  13  3.662103E+05  2.247920E+04  5.924137E+04 -2.822268E+04  6.193112E-10 -5.305957E-10
       198  14  3.613283E+05 -3.629106E+03  2.993688E+04 -6.927981E+03  2.874305E-09 -1.627414E-10
       198  15  3.662298E+05 -1.217763E+03  1.790657E+04 -2.818562E+04  1.649645E-09 -9.029657E-10
       198  16  1.065006E+06  1.957538E+05  2.275165E+05 -3.354497E+04 -3.111742E-10  9.126851E-10
       198  17  1.005688E+06  1.561156E+05  1.848255E+05 -7.847915E+03 -9.880291E-11 -2.046282E-09
       198  18  9.562715E+05  1.451059E+05  1.598971E+05 -2.470089E+04 -8.089384E-10 -8.482338E-11
       198  19 -3.321370E+05 -1.508299E+05 -1.090640E+05 -2.290585E+04 -4.456712E+04 -2.014210E+04
       198  20 -2.826506E+05 -1.634033E+05 -1.249788E+05 -6.008654E+03 -2.991175E+04 -1.946888E+04
       198  21 -2.234933E+05 -1.475663E+05 -1.241077E+05 -3.166687E+04 -1.525504E+04 -1.732021E+04
       198  22  3.662126E+05  2.248017E+04  5.924588E+04 -2.822196E+04 -4.464371E+04 -2.014031E+04
       198  23  3.613293E+05 -3.628469E+03  2.993920E+04 -6.927522E+03 -2.926482E+04 -1.946664E+04
       198  24  3.662301E+05 -1.217389E+03  1.790749E+04 -2.818542E+04 -1.388588E+04 -1.731802E+04
       198  25  1.065008E+06  1.957547E+05  2.275210E+05 -3.354424E+04 -4.472036E+04 -2.013851E+04
       198  26  1.005689E+06  1.561162E+05  1.848277E+05 -7.847467E+03 -2.861720E+04 -1.946441E+04
       198  27  9.562717E+05  1.451063E+05  1.598979E+05 -2.470072E+04 -1.251541E+04 -1.731581E+04
       199   1 -1.486763E+05 -1.249526E+05 -1.092906E+05 -2.780679E+04  1.199267E+04  1.585155E+04
       199   2 -9.608927E+04 -1.145062E+05 -1.030080E+05 -7.197469E+03  8.232130E+03  1.383217E+04
       199   3 -4.193316E+04 -1.009801E+05 -9.344214E+04 -2.843398E+04  4.469147E+03  1.170880E+04
       199   4  3.644288E+05  2.320518E+03  1.402146E+04 -2.803967E+04  1.105573E+04  1.585005E+04
       199   5  3.636467E+05 -4.509873E+02  7.589527E+03 -7.117032E+03  7.242402E+03  1.383111E+04
       199   6  3.644383E+05 -1.351069E+02  4.475465E+03 -2.803828E+04  3.426950E+03  1.170822E+04
       199   7  8.777748E+05  1.295745E+05  1.373148E+05 -2.827278E+04  1.011802E+04  1.584856E+04
       199   8  8.235761E+05  1.135888E+05  1.181720E+05 -7.036552E+03  6.251943E+03  1.383005E+04
       199   9  7.709608E+05  1.006979E+05  1.023813E+05 -2.764231E+04  2.384073E+03  1.170763E+04
       199  10 -1.486765E+05 -1.249529E+05 -1.092913E+05 -2.780694E+04  4.419105E-10 -2.253000E-10
       199  11 -9.608940E+04 -1.145064E+05 -1.030085E+05 -7.197561E+03 -6.045848E-10  1.949963E-11
       199  12 -4.193321E+04 -1.009803E+05 -9.344244E+04 -2.843403E+04 -8.709242E-11  1.133723E-10
       199  13  3.644286E+05  2.320215E+03  1.402076E+04 -2.803981E+04 -2.019969E-10 -4.257135E-10
       199  14  3.636466E+05 -4.512068E+02  7.589068E+03 -7.117112E+03 -5.888710E-10 -5.405260E-11
       199  15  3.644383E+05 -1.352573E+02  4.475185E+03 -2.803831E+04  1.098899E-09 -1.051837E-10
       199  16  8.777746E+05  1.295742E+05  1.373141E+05 -2.827291E+04  6.991410E-10 -2.721763E-10
       199  17  8.235760E+05  1.135886E+05  1.181716E+05 -7.036621E+03 -1.060809E-09 -5.250093E-10
       199  18  7.709608E+05  1.006977E+05  1.023810E+05 -2.764233E+04 -7.160388E-10 -5.648675E-10
       199  19 -1.486763E+05 -1.249526E+05 -1.092906E+05 -2.780679E+04 -1.199267E+04 -1.585155E+04
       199  20 -9.608927E+04 -1.145062E+05 -1.030080E+05 -7.197469E+03 -8.232130E+03 -1.383217E+04
       199  21 -4.193316E+04 -1.009801E+05 -9.344214E+04 -2.843398E+04 -4.469147E+03 -1.170880E+04
       199  22  3.644288E+05  2.320518E+03  1.402146E+04 -2.803967E+04 -1.105573E+04 -1.585005E+04
       199  23  3.636467E+05 -4.509873E+02  7.589527E+03 -7.117032E+03 -7.242402E+03 -1.383111E+04
       199  24  3.644383E+05 -1.351069E+02  4.475465E+03 -2.803828E+04 -3.426950E+03 -1.170822E+04
       199  25  8.777748E+05  1.295745E+05  1.373148E+05 -2.827278E+04 -1.011802E+04 -1.584856E+04
       199  26  8.235761E+05  1.135888E+05  1.181720E+05 -7.036552E+03 -6.251943E+03 -1.383005E+04
       199  27  7.709608E+05  1.006979E+05  1.023813E+05 -2.764231E+04 -2.384073E+03 -1.170763E+04
       200   1  3.333877E+04 -8.182100E+04 -7.597157E+04 -2.791392E+04  3.720824E+03  1.046045E+04
       200   2  8.595323E+04 -6.903980E+04 -6.490998E+04 -7.232386E+03  2.736787E+03  8.360430E+03
       200   3  1.388630E+05 -5.590808E+04 -5.310418E+04 -2.790719E+04  1.751375E+03  6.259682E+03
       200   4  3.641695E+05  2.159423E+02  3.450084E+03 -2.793006E+04  2.713853E+03  1.046013E+04
       200   5  3.640257E+05 -6.067814E+01  1.978821E+03 -7.252471E+03  1.728952E+03  8.360395E+03
       200   6  3.641747E+05  1.344428E+01  1.252217E+03 -2.793008E+04  7.427583E+02  6.259939E+03
       200   7  6.951003E+05  8.224493E+04  8.286397E+04 -2.794619E+04  1.706348E+03  1.045981E+04
       200   8  6.421689E+05  6.891281E+04  6.886212E+04 -7.272561E+03  7.206669E+02  8.360361E+03
       200   9  5.895328E+05  5.593126E+04  5.560499E+04 -2.795297E+04 -2.662233E+02  6.260195E+03
       200  10  3.333872E+04 -8.182112E+04 -7.597180E+04 -2.791395E+04 -1.194921E-09  1.126266E-10
       200  11  8.595321E+04 -6.903988E+04 -6.491013E+04 -7.232404E+03  4.671765E-10  2.609790E-10
       200  12  1.388630E+05 -5.590812E+04 -5.310426E+04 -2.790720E+04  2.957602E-10  6.715699E-10
       200  13  3.641694E+05  2.158228E+02  3.449865E+03 -2.793008E+04 -1.368727E-10 -1.516062E-11
       200  14  3.640257E+05 -6.075402E+01  1.978684E+03 -7.252482E+03 -9.654746E-10  8.397011E-13
       200  15  3.641747E+05  1.340204E+01  1.252143E+03 -2.793009E+04 -1.066327E-11 -5.317508E-11
       200  16  6.951003E+05  8.224481E+04  8.286376E+04 -2.794621E+04  3.326705E-10 -2.009867E-10
       200  17  6.421689E+05  6.891274E+04  6.886199E+04 -7.272566E+03  2.407722E-09  2.795481E-10
       200  18  5.895328E+05  5.593122E+04  5.560492E+04 -2.795297E+04 -9.715812E-11 -4.458413E-10
       200  19  3.333877E+04 -8.182100E+04 -7.597157E+04 -2.791392E+04 -3.720824E+03 -1.046045E+04
       200  20  8.595323E+04 -6.903980E+04 -6.490998E+04 -7.232386E+03 -2.736787E+03 -8.360430E+03
       200  21  1.388630E+05 -5.590808E+04 -5.310418E+04 -2.790719E+04 -1.751375E+03 -6.259682E+03
       200  22  3.641695E+05  2.159423E+02  3.450084E+03 -2.793006E+04 -2.713853E+03 -1.046013E+04
       200  23  3.640257E+05 -6.067814E+01  1.978821E+03 -7.252471E+03 -1.728952E+03 -8.360395E+03
       200  24  3.641747E+05  1.344428E+01  1.252217E+03 -2.793008E+04 -7.427583E+02 -6.259939E+03
       200  25  6.951003E+05  8.224493E+04  8.286397E+04 -2.794619E+04 -1.706348E+03 -1.045981E+04
       200  26  6.421689E+05  6.891281E+04  6.886212E+04 -7.272561E+03 -7.206669E+02 -8.360361E+03
       200  27  5.895328E+05  5.593126E+04  5.560499E+04 -2.795297E+04  2.662233E+02 -6.260195E+03
       201   1  2.137023E+05 -3.724650E+04 -3.498946E+04 -2.782690E+04  1.542155E+03  5.037665E+03
       201   2  2.661333E+05 -2.430820E+04 -2.275350E+04 -7.290736E+03  1.135540E+03  2.944609E+03
       201   3  3.186115E+05 -1.124688E+04 -1.023087E+04 -2.786179E+04  7.284477E+02  8.590570E+02
       201   4  3.641276E+05  3.316071E+01  1.030562E+03 -2.787488E+04  5.353876E+02  5.038058E+03
       201   5  3.641061E+05 -7.510546E+00  8.108695E+02 -7.321462E+03  1.322691E+02  2.945096E+03
       201   6  3.641294E+05  7.460009E+01  8.757332E+02 -2.787486E+04 -2.712931E+02  8.596469E+02
       201   7  5.145737E+05  3.731118E+04  3.704899E+04 -2.792287E+04 -4.716230E+02  5.038452E+03
       201   8  4.620877E+05  2.429248E+04  2.437456E+04 -7.352191E+03 -8.711598E+02  2.945583E+03
       201   9  4.096492E+05  1.139593E+04  1.198219E+04 -2.788793E+04 -1.271107E+03  8.602369E+02
       201  10  2.137023E+05 -3.724653E+04 -3.498951E+04 -2.782691E+04 -7.746918E-10  6.376754E-10
       201  11  2.661333E+05 -2.430821E+04 -2.275352E+04 -7.290739E+03 -1.986352E-09  7.309876E-12
       201  12  3.186115E+05 -1.124688E+04 -1.023087E+04 -2.786179E+04 -3.101269E-09 -8.459380E-10
       201  13  3.641276E+05  3.313337E+01  1.030513E+03 -2.787488E+04  1.053400E-09  7.842336E-10
       201  14  3.641061E+05 -7.519867E+00  8.108531E+02 -7.321462E+03  1.608636E-09  8.376095E-10
       201  15  3.641294E+05  7.459928E+01  8.757317E+02 -2.787486E+04  1.638089E-09 -1.430540E-09
       201  16  5.145737E+05  3.731116E+04  3.704894E+04 -2.792287E+04  2.155237E-10  4.429889E-11
       201  17  4.620877E+05  2.429247E+04  2.437454E+04 -7.352189E+03  2.318847E-09  9.178287E-10
       201  18  4.096492E+05  1.139593E+04  1.198218E+04 -2.788793E+04  2.176551E-09 -5.971499E-10
       201  19  2.137023E+05 -3.724650E+04 -3.498946E+04 -2.782690E+04 -1.542155E+03 -5.037665E+03
       201  20  2.661333E+05 -2.430820E+04 -2.275350E+04 -7.290736E+03 -1.135540E+03 -2.944609E+03
       201  21  3.186115E+05 -1.124688E+04 -1.023087E+04 -2.786179E+04 -7.284477E+02 -8.590570E+02
       201  22  3.641276E+05  3.316071E+01  1.030562E+03 -2.787488E+04 -5.353876E+02 -5.038058E+03
       201  23  3.641061E+05 -7.510546E+00  8.108695E+02 -7.321462E+03 -1.322691E+02 -2.945096E+03
       201  24  3.641294E+05  7.460009E+01  8.757332E+02 -2.787486E+04  2.712931E+02 -8.596469E+02
       201  25  5.145737E+05  3.731118E+04  3.704899E+04 -2.792287E+04  4.716230E+02 -5.038452E+03
       201  26  4.620877E+05  2.429248E+04  2.437456E+04 -7.352191E+03  8.711598E+02 -2.945583E+03
       201  27  4.096492E+05  1.139593E+04  1.198219E+04 -2.788793E+04  1.271107E+03 -8.602369E+02
       202   1  3.933120E+05  7.272339E+03  8.160093E+03 -2.782473E+04  5.788802E+02 -3.667690E+02
       202   2  4.456569E+05  2.017152E+04  2.108114E+04 -7.369542E+03 -1.862706E+02 -2.455614E+03
       202   3  4.982085E+05  3.365973E+04  3.463753E+04 -2.800857E+04 -9.510912E+02 -4.478420E+03
       202   4  3.641638E+05  1.134604E+01  9.906440E+02 -2.787222E+04 -4.403055E+02 -3.661616E+02
       202   5  3.640640E+05 -6.400672E+01  1.459581E+03 -7.324835E+03 -1.173700E+03 -2.455112E+03
       202   6  3.641621E+05  4.442056E+02  2.541879E+03 -2.787200E+04 -1.906700E+03 -4.478011E+03
       202   7  3.350164E+05 -7.249709E+03 -6.178863E+03 -2.791970E+04 -1.459443E+03 -3.655540E+02
       202   8  2.824772E+05 -2.030002E+04 -1.816244E+04 -7.280134E+03 -2.161001E+03 -2.454611E+03
       202   9  2.301322E+05 -3.277262E+04 -2.955504E+04 -2.773545E+04 -2.862104E+03 -4.477603E+03
       202  10  3.933120E+05  7.272339E+03  8.160092E+03 -2.782473E+04 -1.187664E-09 -3.807325E-11
       202  11  4.456569E+05  2.017151E+04  2.108112E+04 -7.369542E+03 -6.490245E-10  1.353247E-10
       202  12  4.982085E+05  3.365971E+04  3.463749E+04 -2.800857E+04  5.729309E-10 -2.344905E-10
       202  13  3.641638E+05  1.134584E+01  9.906434E+02 -2.787222E+04 -7.708158E-10 -1.157698E-09
       202  14  3.640640E+05 -6.401356E+01  1.459567E+03 -7.324838E+03 -7.480963E-10 -6.171360E-10
       202  15  3.641621E+05  4.441831E+02  2.541834E+03 -2.787200E+04  2.187364E-09  4.449746E-10
       202  16  3.350164E+05 -7.249710E+03 -6.178867E+03 -2.791970E+04  3.072300E-09 -3.362447E-10
       202  17  2.824772E+05 -2.030003E+04 -1.816246E+04 -7.280138E+03 -6.246800E-10 -7.400919E-10
       202  18  2.301322E+05 -3.277264E+04 -2.955509E+04 -2.773546E+04  3.583895E-10  5.491569E-10
       202  19  3.933120E+05  7.272339E+03  8.160093E+03 -2.782473E+04 -5.788802E+02  3.667690E+02
       202  20  4.456569E+05  2.017152E+04  2.108114E+04 -7.369542E+03  1.862706E+02  2.455614E+03
       202  21  4.982085E+05  3.365973E+04  3.463753E+04 -2.800857E+04  9.510912E+02  4.478420E+03
       202  22  3.641638E+05  1.134604E+01  9.906440E+02 -2.787222E+04  4.403055E+02  3.661616E+02
       202  23  3.640640E+05 -6.400672E+01  1.459581E+03 -7.324835E+03  1.173700E+03  2.455112E+03
       202  24  3.641621E+05  4.442056E+02  2.541879E+03 -2.787200E+04  1.906700E+03  4.478011E+03
       202  25  3.350164E+05 -7.249709E+03 -6.178863E+03 -2.791970E+04  1.459443E+03  3.655540E+02
       202  26  2.824772E+05 -2.030002E+04 -1.816244E+04 -7.280134E+03  2.161001E+03  2.454611E+03
       202  27  2.301322E+05 -3.277262E+04 -2.955504E+04 -2.773545E+04  2.862104E+03  4.477603E+03
       203   1  5.734083E+05  5.166077E+04  5.359815E+04 -2.744000E+04 -1.212933E+03 -5.821407E+03
       203   2  6.252794E+05  6.424704E+04  6.822162E+04 -7.587570E+03 -4.358823E+03 -7.900981E+03
       203   3  6.789085E+05  8.197337E+04  8.618846E+04 -2.903493E+04 -7.503742E+03 -9.122019E+03
       203   4  3.644853E+05 -1.778376E+02  3.214664E+03 -2.791822E+04 -2.418037E+03 -5.821014E+03
       203   5  3.636402E+05 -6.323604E+02  5.318065E+03 -7.267516E+03 -5.150494E+03 -7.901004E+03
       203   6  3.644795E+05  3.982892E+03  1.047914E+04 -2.791762E+04 -7.881715E+03 -9.122297E+03
       203   7  1.556023E+05 -5.201963E+04 -4.717193E+04 -2.839628E+04 -3.622737E+03 -5.820619E+03
       203   8  1.020635E+05 -6.551674E+04 -5.759035E+04 -6.947593E+03 -5.941832E+03 -7.901028E+03
       203   9  5.014089E+04 -7.401479E+04 -6.523724E+04 -2.680086E+04 -8.259496E+03 -9.122576E+03
       203  10  5.734083E+05  5.166073E+04  5.359808E+04 -2.744001E+04  8.753767E-11 -8.312127E-10
       203  11  6.252794E+05  6.424697E+04  6.822146E+04 -7.587598E+03  3.109159E-10  2.222233E-10
       203  12  6.789084E+05  8.197327E+04  8.618820E+04 -2.903499E+04 -1.483851E-09 -4.730313E-10
       203  13  3.644853E+05 -1.778756E+02  3.214590E+03 -2.791823E+04  1.174147E-09  2.234099E-10
       203  14  3.636401E+05 -6.324345E+02  5.317898E+03 -7.267549E+03 -2.032000E-09  3.187967E-12
       203  15  3.644794E+05  3.982786E+03  1.047886E+04 -2.791767E+04  1.048312E-09 -5.106348E-10
       203  16  1.556022E+05 -5.201967E+04 -4.717202E+04 -2.839630E+04 -5.349508E-10  6.192860E-10
       203  17  1.020634E+05 -6.551681E+04 -5.759054E+04 -6.947631E+03  1.276155E-09 -3.331826E-10
       203  18  5.014079E+04 -7.401490E+04 -6.523752E+04 -2.680092E+04 -8.401753E-10 -5.529814E-10
       203  19  5.734083E+05  5.166077E+04  5.359815E+04 -2.744000E+04  1.212933E+03  5.821407E+03
       203  20  6.252794E+05  6.424704E+04  6.822162E+04 -7.587570E+03  4.358823E+03  7.900981E+03
       203  21  6.789085E+05  8.197337E+04  8.618846E+04 -2.903493E+04  7.503742E+03  9.122019E+03
       203  22  3.644853E+05 -1.778376E+02  3.214664E+03 -2.791822E+04  2.418037E+03  5.821014E+03
       203  23  3.636402E+05 -6.323604E+02  5.318065E+03 -7.267516E+03  5.150494E+03  7.901004E+03
       203  24  3.644795E+05  3.982892E+03  1.047914E+04 -2.791762E+04  7.881715E+03  9.122297E+03
       203  25  1.556023E+05 -5.201963E+04 -4.717193E+04 -2.839628E+04  3.622737E+03  5.820619E+03
       203  26  1.020635E+05 -6.551674E+04 -5.759035E+04 -6.947593E+03  5.941832E+03  7.901028E+03
       203  27  5.014089E+04 -7.401479E+04 -6.523724E+04 -2.680086E+04  8.259496E+03  9.122576E+03
       204   1  7.570296E+05  9.481488E+04  1.065396E+05 -2.319112E+04 -6.357121E+03 -1.192127E+04
       204   2  8.034083E+05  1.041965E+05  1.267416E+05 -1.029261E+04 -2.264394E+04 -1.380180E+04
       204   3  8.639426E+05  1.606278E+05  1.693555E+05 -3.892558E+04 -3.893719E+04 -4.726812E+03
       204   4  3.670360E+05 -1.876316E+03  1.282970E+04 -2.796433E+04 -9.887447E+03 -1.192181E+04
       204   5  3.604038E+05 -5.616205E+03  2.037660E+04 -7.207771E+03 -2.090313E+04 -1.380200E+04
       204   6  3.670212E+05  3.679726E+04  4.668813E+04 -2.798386E+04 -3.192381E+04 -4.723642E+03
       204   7 -2.281841E+04 -9.857848E+04 -8.089097E+04 -3.273454E+04 -1.341556E+04 -1.192229E+04
       204   8 -8.242122E+04 -1.154432E+05 -8.600229E+04 -4.125158E+03 -1.916355E+04 -1.380218E+04
       204   9 -1.296756E+05 -8.705117E+04 -7.599727E+04 -1.705093E+04 -2.491601E+04 -4.720225E+03
       204  10  7.570296E+05  9.481472E+04  1.065393E+05 -2.319118E+04  6.279542E-10 -6.557950E-10
       204  11  8.034077E+05  1.041962E+05  1.267403E+05 -1.029286E+04  7.562129E-11 -1.219277E-10
       204  12  8.639409E+05  1.606273E+05  1.693526E+05 -3.892573E+04  1.672958E-09  3.515649E-10
       204  13  3.670359E+05 -1.876494E+03  1.282925E+04 -2.796443E+04 -2.443377E-09 -5.719564E-10
       204  14  3.604033E+05 -5.616527E+03  2.037543E+04 -7.208004E+03 -9.769531E-11  9.051222E-11
       204  15  3.670201E+05  3.679696E+04  4.668618E+04 -2.798398E+04 -1.733512E-10 -2.747980E-10
       204  16 -2.281864E+04 -9.857868E+04 -8.089158E+04 -3.273466E+04 -7.489876E-10 -2.919458E-10
       204  17 -8.242166E+04 -1.154435E+05 -8.600334E+04 -4.125371E+03 -1.310926E-09 -1.411962E-10
       204  18 -1.296763E+05 -8.705136E+04 -7.599848E+04 -1.705102E+04 -8.184099E-10  5.295468E-10
       204  19  7.570296E+05  9.481488E+04  1.065396E+05 -2.319112E+04  6.357121E+03  1.192127E+04
       204  20  8.034083E+05  1.041965E+05  1.267416E+05 -1.029261E+04  2.264394E+04  1.380180E+04
       204  21  8.639426E+05  1.606278E+05  1.693555E+05 -3.892558E+04  3.893719E+04  4.726812E+03
       204  22  3.670360E+05 -1.876316E+03  1.282970E+04 -2.796433E+04  9.887447E+03  1.192181E+04
       204  23  3.604038E+05 -5.616205E+03  2.037660E+04 -7.207771E+03  2.090313E+04  1.380200E+04
       204  24  3.670212E+05  3.679726E+04  4.668813E+04 -2.798386E+04  3.192381E+04  4.723642E+03
       204  25 -2.281841E+04 -9.857848E+04 -8.089097E+04 -3.273454E+04  1.341556E+04  1.192229E+04
       204  26 -8.242122E+04 -1.154432E+05 -8.600229E+04 -4.125158E+03  1.916355E+04  1.380218E+04
       204  27 -1.296756E+05 -8.705117E+04 -7.599727E+04 -1.705093E+04  2.491601E+04  4.720225E+03
       205   1  7.954129E+05  2.376630E+06  7.668880E+05 -8.579192E+05  2.922209E+04  2.404664E+05
       205   2  5.403771E+05  1.654082E+06  4.699639E+05 -7.599683E+05  9.089555E+04  8.609985E+04
       205   3  3.527640E+05  9.680980E+05  2.900720E+05 -7.976391E+05  8.550911E+04 -6.829035E+04
       205   4  8.935317E+04 -4.788456E+05  9.165216E+04 -7.934934E+05  3.009403E+04  5.846374E+04
       205   5  2.842026E+04 -4.852726E+05  4.962131E+04 -7.258634E+05  9.118359E+04  3.337901E+04
       205   6  1.266796E+04 -4.778785E+05  3.512854E+04 -7.938490E+05  8.512143E+04  8.088190E+03
       205   7 -6.172598E+05 -3.326765E+06 -5.840234E+05 -7.293518E+05  3.093076E+04 -1.227091E+05
       205   8 -4.838082E+05 -2.620241E+06 -3.709326E+05 -6.918708E+05  9.146648E+04 -1.916453E+04
       205   9 -3.275395E+05 -1.921799E+06 -2.198695E+05 -7.900643E+05  8.473411E+04  8.429426E+04
       205  10  7.953965E+05  2.376568E+06  7.667781E+05 -8.579249E+05 -1.393901E-09  1.723352E-09
       205  11  5.403663E+05  1.654072E+06  4.699345E+05 -7.599746E+05 -3.125650E-09 -2.966974E-09
       205  12  3.527549E+05  9.680910E+05  2.900495E+05 -7.976344E+05 -1.490931E-10  2.914168E-10
       205  13  8.935127E+04 -4.788496E+05  9.164402E+04 -7.934948E+05  1.394313E-09 -2.137407E-10
       205  14  2.841103E+04 -4.852761E+05  4.960357E+04 -7.258659E+05  5.116417E-10 -4.227497E-09
       205  15  1.266016E+04 -4.778805E+05  3.511480E+04 -7.938496E+05  2.204137E-09 -4.316039E-09
       205  16 -6.172649E+05 -3.326781E+06 -5.840536E+05 -7.293487E+05  7.864514E-10 -4.891769E-10
       205  17 -4.838173E+05 -2.620243E+06 -3.709490E+05 -6.918694E+05  5.404725E-09 -1.670355E-09
       205  18 -3.275491E+05 -1.921809E+06 -2.198965E+05 -7.900700E+05  7.912116E-10 -5.914568E-10
       205  19  7.954129E+05  2.376630E+06  7.668880E+05 -8.579192E+05 -2.922209E+04 -2.404664E+05
       205  20  5.403771E+05  1.654082E+06  4.699639E+05 -7.599683E+05 -9.089555E+04 -8.609985E+04
       205  21  3.527640E+05  9.680980E+05  2.900720E+05 -7.976391E+05 -8.550911E+04  6.829035E+04
       205  22  8.935317E+04 -4.788456E+05  9.165216E+04 -7.934934E+05 -3.009403E+04 -5.846374E+04
       205  23  2.842026E+04 -4.852726E+05  4.962131E+04 -7.258634E+05 -9.118359E+04 -3.337901E+04
       205  24  1.266796E+04 -4.778785E+05  3.512854E+04 -7.938490E+05 -8.512143E+04 -8.088190E+03
       205  25 -6.172598E+05 -3.326765E+06 -5.840234E+05 -7.293518E+05 -3.093076E+04  1.227091E+05
       205  26 -4.838082E+05 -2.620241E+06 -3.709326E+05 -6.918708E+05 -9.146648E+04  1.916453E+04
       205  27 -3.275395E+05 -1.921799E+06 -2.198695E+05 -7.900643E+05 -8.473411E+04 -8.429426E+04
       206   1  2.461539E+05  5.140883E+05  2.069115E+05 -8.023189E+05  6.007113E+04 -7.074249E+04
       206   2  7.804406E+04 -1.918506E+05  8.304268E+04 -7.244586E+05  2.133149E+04 -9.175573E+04
       206   3 -7.796827E+04 -8.928817E+05 -2.451595E+04 -7.865818E+05 -1.875577E+04 -1.127602E+05
       206   4  1.253294E+04 -4.798611E+05  3.303162E+04 -7.947924E+05  5.968155E+04  2.581461E+03
       206   5  1.075681E+04 -4.817747E+05  3.656842E+04 -7.247824E+05  2.092179E+04 -1.587316E+04
       206   6  2.065516E+04 -4.797203E+05  5.462930E+04 -7.947520E+05 -1.918622E+04 -3.434114E+04
       206   7 -2.211387E+05 -1.472832E+06 -1.408633E+05 -7.872764E+05  5.929334E+04  7.579161E+04
       206   8 -5.653157E+04 -7.716029E+05 -9.886412E+03 -7.251060E+05  2.051188E+04  5.997524E+04
       206   9  1.192720E+05 -6.638087E+04  1.337899E+05 -8.029275E+05 -1.961856E+04  4.412892E+04
       206  10  2.461487E+05  5.140820E+05  2.068953E+05 -8.023155E+05  6.505551E-10  5.245822E-09
       206  11  7.804131E+04 -1.918597E+05  8.302601E+04 -7.244570E+05  2.423994E-09 -3.174135E-09
       206  12 -7.797207E+04 -8.928955E+05 -2.454055E+04 -7.865835E+05  1.374503E-09 -1.662163E-09
       206  13  1.252911E+04 -4.798621E+05  3.302492E+04 -7.947925E+05  2.980842E-09  9.605258E-10
       206  14  1.075627E+04 -4.817751E+05  3.656713E+04 -7.247822E+05 -4.987549E-09 -4.091064E-09
       206  15  2.065445E+04 -4.797216E+05  5.462639E+04 -7.947525E+05 -7.760125E-10 -4.662085E-09
       206  16 -2.211441E+05 -1.472839E+06 -1.408808E+05 -7.872800E+05  2.096347E-09 -3.682697E-09
       206  17 -5.653299E+04 -7.716068E+05 -9.893977E+03 -7.251070E+05 -1.467179E-09 -3.467285E-09
       206  18  1.192711E+05 -6.638307E+04  1.337855E+05 -8.029268E+05 -8.898873E-10  1.018256E-09
       206  19  2.461539E+05  5.140883E+05  2.069115E+05 -8.023189E+05 -6.007113E+04  7.074249E+04
       206  20  7.804406E+04 -1.918506E+05  8.304268E+04 -7.244586E+05 -2.133149E+04  9.175573E+04
       206  21 -7.796827E+04 -8.928817E+05 -2.451595E+04 -7.865818E+05  1.875577E+04  1.127602E+05
       206  22  1.253294E+04 -4.798611E+05  3.303162E+04 -7.947924E+05 -5.968155E+04 -2.581461E+03
       206  23  1.075681E+04 -4.817747E+05  3.656842E+04 -7.247824E+05 -2.092179E+04  1.587316E+04
       206  24  2.065516E+04 -4.797203E+05  5.462930E+04 -7.947520E+05  1.918622E+04  3.434114E+04
       206  25 -2.211387E+05 -1.472832E+06 -1.408633E+05 -7.872764E+05 -5.929334E+04 -7.579161E+04
       206  26 -5.653157E+04 -7.716029E+05 -9.886412E+03 -7.251060E+05 -2.051188E+04 -5.997524E+04
       206  27  1.192720E+05 -6.638087E+04  1.337899E+05 -8.029275E+05  1.961856E+04 -4.412892E+04
       207   1 -1.831002E+05 -1.336450E+06 -8.954878E+04 -7.962285E+05 -4.520388E+04 -1.244672E+05
       207   2 -3.082666E+05 -2.048056E+06 -1.923894E+05 -6.501549E+05 -6.046159E+04 -8.269664E+04
       207   3 -3.346931E+05 -2.740882E+06 -2.980517E+05 -6.406200E+05 -2.142740E+04 -4.078289E+04
       207   4  2.155404E+04 -4.726529E+05  6.923558E+04 -7.940560E+05 -4.563995E+04 -4.376470E+04
       207   5  6.720306E+04 -4.911177E+05  1.214597E+05 -7.253438E+05 -6.031975E+04 -1.060786E+05
       207   6  2.295295E+05 -4.733203E+05  2.431526E+05 -7.930644E+05 -2.078078E+04 -1.682065E+05
       207   7  2.261694E+05  3.918836E+05  2.280138E+05 -7.918790E+05 -4.607508E+04  3.704729E+04
       207   8  4.425425E+05  1.068149E+06  4.351891E+05 -8.007213E+05 -6.017247E+04 -1.295180E+05
       207   9  7.934716E+05  1.799054E+06  7.840675E+05 -9.460619E+05 -2.007285E+04 -2.960942E+05
       207  10 -1.831066E+05 -1.336467E+06 -8.958183E+04 -7.962330E+05  8.504940E-10  6.530743E-08
       207  11 -3.082724E+05 -2.048065E+06 -1.924091E+05 -6.501589E+05  2.748205E-09 -8.772753E-10
       207  12 -3.346941E+05 -2.740884E+06 -2.980557E+05 -6.406207E+05  3.827950E-10 -5.898910E-08
       207  13  2.155128E+04 -4.726555E+05  6.922805E+04 -7.940576E+05  1.953198E-09 -4.467822E-11
       207  14  6.719612E+04 -4.911308E+05  1.214317E+05 -7.253489E+05 -3.270029E-09 -4.550021E-09
       207  15  2.295215E+05 -4.733508E+05  2.430986E+05 -7.930673E+05  4.360867E-10 -4.109774E-09
       207  16  2.261667E+05  3.918815E+05  2.280073E+05 -7.918777E+05 -2.114204E-09 -6.417331E-08
       207  17  4.425341E+05  1.068130E+06  4.351508E+05 -8.007276E+05 -6.032999E-10 -4.144317E-09
       207  18  7.934477E+05  1.798960E+06  7.839024E+05 -9.460667E+05  1.252963E-09  5.838292E-08
       207  19 -1.831002E+05 -1.336450E+06 -8.954878E+04 -7.962285E+05  4.520388E+04  1.244672E+05
       207  20 -3.082666E+05 -2.048056E+06 -1.923894E+05 -6.501549E+05  6.046159E+04  8.269664E+04
       207  21 -3.346931E+05 -2.740882E+06 -2.980517E+05 -6.406200E+05  2.142740E+04  4.078289E+04
       207  22  2.155404E+04 -4.726529E+05  6.923558E+04 -7.940560E+05  4.563995E+04  4.376470E+04
       207  23  6.720306E+04 -4.911177E+05  1.214597E+05 -7.253438E+05  6.031975E+04  1.060786E+05
       207  24  2.295295E+05 -4.733203E+05  2.431526E+05 -7.930644E+05  2.078078E+04  1.682065E+05
       207  25  2.261694E+05  3.918836E+05  2.280138E+05 -7.918790E+05  4.607508E+04 -3.704729E+04
       207  26  4.425425E+05  1.068149E+06  4.351891E+05 -8.007213E+05  6.017247E+04  1.295180E+05
       207  27  7.934716E+05  1.799054E+06  7.840675E+05 -9.460619E+05  2.007285E+04  2.960942E+05
       208   1 -3.034488E+06 -1.149035E+06 -6.151233E+05 -1.092145E+06 -2.008196E+05 -3.124317E+04
       208   2 -2.836532E+06 -1.083580E+06 -4.662275E+05 -1.029904E+06 -1.318427E+05  9.998058E+04
       208   3 -2.622130E+06 -1.040606E+06 -3.928461E+05 -1.004864E+06 -3.787939E+04  1.653988E+05
       208   4 -3.888887E+05 -1.837826E+05  5.822143E+04 -3.965551E+05  2.288607E+04  5.333301E+04
       208   5 -4.118667E+05 -2.066321E+05  2.718772E+04 -3.694403E+05 -2.589143E+04  1.399318E+05
       208   6 -3.950031E+05 -2.285799E+05  1.431260E+04 -3.795319E+05 -4.977582E+04  1.608476E+05
       208   7  2.263573E+06  7.818320E+05  7.311943E+05  3.016898E+05  2.476342E+05  1.382752E+05
       208   8  2.018862E+06  6.707800E+05  5.203488E+05  2.933978E+05  8.050596E+04  1.800456E+05
       208   9  1.837387E+06  5.839420E+05  4.213018E+05  2.479115E+05 -6.171838E+04  1.562790E+05
       208  10 -3.034531E+06 -1.149046E+06 -6.152013E+05 -1.092150E+06  2.073376E-09  8.283628E-10
       208  11 -2.836553E+06 -1.083595E+06 -4.662790E+05 -1.029894E+06  8.250000E-10 -1.062850E-09
       208  12 -2.622139E+06 -1.040636E+06 -3.929002E+05 -1.004859E+06  7.237607E-10 -2.341205E-09
       208  13 -3.888901E+05 -1.837858E+05  5.821510E+04 -3.965561E+05 -1.162467E-09 -8.378828E-10
       208  14 -4.118727E+05 -2.066533E+05  2.714967E+04 -3.694374E+05 -3.078346E-09 -6.252076E-09
       208  15 -3.950127E+05 -2.286083E+05  1.425934E+04 -3.795255E+05 -4.207612E-10 -3.016077E-10
       208  16  2.263502E+06  7.817951E+05  7.310436E+05  3.016623E+05 -3.842791E-09 -1.024325E-09
       208  17  2.018847E+06  6.707435E+05  5.202758E+05  2.933861E+05  6.892133E-10 -5.737349E-10
       208  18  1.837377E+06  5.839148E+05  4.212488E+05  2.479192E+05  2.122385E-09  9.060222E-10
       208  19 -3.034488E+06 -1.149035E+06 -6.151233E+05 -1.092145E+06  2.008196E+05  3.124317E+04
       208  20 -2.836532E+06 -1.083580E+06 -4.662275E+05 -1.029904E+06  1.318427E+05 -9.998058E+04
       208  21 -2.622130E+06 -1.040606E+06 -3.928461E+05 -1.004864E+06  3.787939E+04 -1.653988E+05
       208  22 -3.888887E+05 -1.837826E+05  5.822143E+04 -3.965551E+05 -2.288607E+04 -5.333301E+04
       208  23 -4.118667E+05 -2.066321E+05  2.718772E+04 -3.694403E+05  2.589143E+04 -1.399318E+05
       208  24 -3.950031E+05 -2.285799E+05  1.431260E+04 -3.795319E+05  4.977582E+04 -1.608476E+05
       208  25  2.263573E+06  7.818320E+05  7.311943E+05  3.016898E+05 -2.476342E+05 -1.382752E+05
       208  26  2.018862E+06  6.707800E+05  5.203488E+05  2.933978E+05 -8.050596E+04 -1.800456E+05
       208  27  1.837387E+06  5.839420E+05  4.213018E+05  2.479115E+05  6.171838E+04 -1.562790E+05
       209   1 -2.496300E+06 -9.906944E+05 -3.677168E+05 -9.677684E+05 -4.423413E+04  1.569357E+05
       209   2 -2.315310E+06 -9.042187E+05 -3.263786E+05 -8.960751E+05 -3.379771E+04  1.540583E+05
       209   3 -2.104817E+06 -8.483761E+05 -2.910979E+05 -8.589896E+05 -2.107020E+04  1.450586E+05
       209   4 -3.958548E+05 -2.291457E+05  1.071827E+04 -3.811545E+05 -4.939067E+04  1.549323E+05
       209   5 -4.116642E+05 -2.157866E+05  5.564845E+03 -3.634637E+05 -4.992110E+04  1.479362E+05
       209   6 -3.958374E+05 -2.308797E+05  3.063034E+03 -3.803872E+05 -4.816712E+04  1.348276E+05
       209   7  1.709249E+06  5.328255E+05  3.890016E+05  2.073157E+05 -5.456606E+04  1.529220E+05
       209   8  1.495821E+06  4.729983E+05  3.373970E+05  1.706762E+05 -6.609734E+04  1.417945E+05
       209   9  1.316233E+06  3.869008E+05  2.971386E+05  9.944707E+04 -7.534341E+04  1.245668E+05
       209  10 -2.496308E+06 -9.907214E+05 -3.677668E+05 -9.677628E+05  7.216701E-09  1.607556E-10
       209  11 -2.315318E+06 -9.042445E+05 -3.264253E+05 -8.960709E+05  5.012997E-10 -3.667733E-09
       209  12 -2.104823E+06 -8.483988E+05 -2.911383E+05 -8.589871E+05  3.813743E-10 -2.903854E-09
       209  13 -3.958638E+05 -2.291722E+05  1.066859E+04 -3.811484E+05 -3.998821E-09 -2.652683E-09
       209  14 -4.116727E+05 -2.158107E+05  5.519047E+03 -3.634578E+05 -5.352304E-09 -3.604244E-09
       209  15 -3.958447E+05 -2.308999E+05  3.024524E+03 -3.803820E+05 -2.249493E-09 -1.161071E-09
       209  16  1.709240E+06  5.327996E+05  3.889521E+05  2.073225E+05 -4.357528E-09 -1.839309E-09
       209  17  1.495811E+06  4.729755E+05  3.373511E+05  1.706838E+05 -2.326301E-09 -8.623039E-10
       209  18  1.316223E+06  3.868826E+05  2.970988E+05  9.945462E+04  6.525113E-09  1.168583E-09
       209  19 -2.496300E+06 -9.906944E+05 -3.677168E+05 -9.677684E+05  4.423413E+04 -1.569357E+05
       209  20 -2.315310E+06 -9.042187E+05 -3.263786E+05 -8.960751E+05  3.379771E+04 -1.540583E+05
       209  21 -2.104817E+06 -8.483761E+05 -2.910979E+05 -8.589896E+05  2.107020E+04 -1.450586E+05
       209  22 -3.958548E+05 -2.291457E+05  1.071827E+04 -3.811545E+05  4.939067E+04 -1.549323E+05
       209  23 -4.116642E+05 -2.157866E+05  5.564845E+03 -3.634637E+05  4.992110E+04 -1.479362E+05
       209  24 -3.958374E+05 -2.308797E+05  3.063034E+03 -3.803872E+05  4.816712E+04 -1.348276E+05
       209  25  1.709249E+06  5.328255E+05  3.890016E+05  2.073157E+05  5.456606E+04 -1.529220E+05
       209  26  1.495821E+06  4.729983E+05  3.373970E+05  1.706762E+05  6.609734E+04 -1.417945E+05
       209  27  1.316233E+06  3.869008E+05  2.971386E+05  9.944707E+04  7.534341E+04 -1.245668E+05
       210   1 -1.978814E+06 -8.021507E+05 -2.688236E+05 -8.235961E+05 -1.872438E+04  1.357331E+05
       210   2 -1.798305E+06 -7.156718E+05 -2.357286E+05 -7.511930E+05 -1.259949E+04  1.208251E+05
       210   3 -1.587046E+06 -6.597940E+05 -2.029139E+05 -7.136279E+05 -6.274213E+03  1.053347E+05
       210   4 -3.958565E+05 -2.308275E+05  2.275963E+03 -3.805892E+05 -4.521938E+04  1.257399E+05
       210   5 -4.111811E+05 -2.154193E+05  1.195958E+03 -3.632000E+05 -4.013898E+04  1.104560E+05
       210   6 -3.956006E+05 -2.304079E+05  6.557627E+02 -3.806609E+05 -3.485864E+04  9.459033E+04
       210   7  1.189788E+06  3.407522E+05  2.733133E+05  6.348293E+04 -7.178675E+04  1.157196E+05
       210   8  9.780015E+05  2.850280E+05  2.380728E+05  2.560905E+04 -6.774423E+04  1.000622E+05
       210   9  7.973585E+05  1.991198E+05  2.041898E+05 -4.709392E+04 -6.350153E+04  8.382404E+04
       210  10 -1.978819E+06 -8.021706E+05 -2.688589E+05 -8.235941E+05  8.262751E-09 -4.473448E-10
       210  11 -1.798309E+06 -7.156875E+05 -2.357563E+05 -7.511918E+05  8.001016E-10 -3.104716E-09
       210  12 -1.587049E+06 -6.598059E+05 -2.029349E+05 -7.136274E+05 -9.475800E-09 -3.025767E-09
       210  13 -3.958629E+05 -2.308450E+05  2.242419E+03 -3.805847E+05 -2.790542E-09 -6.897835E-10
       210  14 -4.111861E+05 -2.154328E+05  1.170010E+03 -3.631964E+05 -9.956298E-09 -1.916707E-09
       210  15 -3.956043E+05 -2.304178E+05  6.366710E+02 -3.806582E+05 -1.480592E-08 -2.979043E-09
       210  16  1.189779E+06  3.407364E+05  2.732785E+05  6.348961E+04 -1.453207E-09 -2.172933E-10
       210  17  9.779939E+05  2.850161E+05  2.380454E+05  2.561451E+04 -7.558853E-09 -1.574252E-09
       210  18  7.973523E+05  1.991111E+05  2.041690E+05 -4.708963E+04 -9.980567E-09 -3.673626E-09
       210  19 -1.978814E+06 -8.021507E+05 -2.688236E+05 -8.235961E+05  1.872438E+04 -1.357331E+05
       210  20 -1.798305E+06 -7.156718E+05 -2.357286E+05 -7.511930E+05  1.259949E+04 -1.208251E+05
       210  21 -1.587046E+06 -6.597940E+05 -2.029139E+05 -7.136279E+05  6.274213E+03 -1.053347E+05
       210  22 -3.958565E+05 -2.308275E+05  2.275963E+03 -3.805892E+05  4.521938E+04 -1.257399E+05
       210  23 -4.111811E+05 -2.154193E+05  1.195958E+03 -3.632000E+05  4.013898E+04 -1.104560E+05
       210  24 -3.956006E+05 -2.304079E+05  6.557627E+02 -3.806609E+05  3.485864E+04 -9.459033E+04
       210  25  1.189788E+06  3.407522E+05  2.733133E+05  6.348293E+04  7.178675E+04 -1.157196E+05
       210  26  9.780015E+05  2.850280E+05  2.380728E+05  2.560905E+04  6.774423E+04 -1.000622E+05
       210  27  7.973585E+05  1.991198E+05  2.041898E+05 -4.709392E+04  6.350153E+04 -8.382404E+04
       211   1 -1.460747E+06 -6.139371E+05 -1.805434E+05 -6.783689E+05 -2.916709E+03  9.599155E+04
       211   2 -1.279683E+06 -5.277201E+05 -1.477500E+05 -6.059274E+05  3.090360E+03  8.005552E+04
       211   3 -1.067883E+06 -4.720862E+05 -1.149415E+05 -5.684773E+05  9.107983E+03  6.405895E+04
       211   4 -3.955674E+05 -2.303328E+05  4.625930E+02 -3.807112E+05 -3.146231E+04  8.527009E+04
       211   5 -4.108431E+05 -2.148877E+05  1.775368E+02 -3.632446E+05 -2.556532E+04  6.930363E+04
       211   6 -3.954060E+05 -2.300070E+05 -1.046948E+01 -3.807829E+05 -1.965777E+04  5.327658E+04
       211   7  6.708117E+05  1.533806E+05  1.814384E+05 -8.257698E+04 -6.005978E+04  7.452916E+04
       211   8  4.588020E+05  9.802005E+04  1.480880E+05 -1.202428E+05 -5.426370E+04  5.853572E+04
       211   9  2.775614E+05  1.212012E+04  1.149135E+05 -1.928957E+05 -4.845697E+04  4.248167E+04
       211  10 -1.460750E+06 -6.139470E+05 -1.805607E+05 -6.783687E+05 -1.256954E-08 -2.527151E-09
       211  11 -1.279685E+06 -5.277270E+05 -1.477621E+05 -6.059276E+05 -4.166254E-09 -5.824440E-10
       211  12 -1.067885E+06 -4.720906E+05 -1.149494E+05 -5.684777E+05 -9.511646E-10 -8.376054E-10
       211  13 -3.955704E+05 -2.303409E+05  4.470737E+02 -3.807090E+05 -1.296226E-08 -2.872982E-09
       211  14 -4.108451E+05 -2.148930E+05  1.672858E+02 -3.632431E+05 -3.951422E-09 -1.440335E-09
       211  15 -3.954072E+05 -2.300101E+05 -1.652780E+01 -3.807821E+05 -3.280434E-10 -6.631423E-10
       211  16  6.708064E+05  1.533736E+05  1.814212E+05 -8.257337E+04 -3.636069E-09 -3.224204E-09
       211  17  4.587979E+05  9.801558E+04  1.480761E+05 -1.202402E+05  1.360474E-09 -2.373557E-09
       211  18  2.775584E+05  1.211756E+04  1.149057E+05 -1.928940E+05  2.248371E-09 -3.458566E-10
       211  19 -1.460747E+06 -6.139371E+05 -1.805434E+05 -6.783689E+05  2.916709E+03 -9.599155E+04
       211  20 -1.279683E+06 -5.277201E+05 -1.477500E+05 -6.059274E+05 -3.090360E+03 -8.005552E+04
       211  21 -1.067883E+06 -4.720862E+05 -1.149415E+05 -5.684773E+05 -9.107983E+03 -6.405895E+04
       211  22 -3.955674E+05 -2.303328E+05  4.625930E+02 -3.807112E+05  3.146231E+04 -8.527009E+04
       211  23 -4.108431E+05 -2.148877E+05  1.775368E+02 -3.632446E+05  2.556532E+04 -6.930363E+04
       211  24 -3.954060E+05 -2.300070E+05 -1.046948E+01 -3.807829E+05  1.965777E+04 -5.327658E+04
       211  25  6.708117E+05  1.533806E+05  1.814384E+05 -8.257698E+04  6.005978E+04 -7.452916E+04
       211  26  4.588020E+05  9.802005E+04  1.480880E+05 -1.202428E+05  5.426370E+04 -5.853572E+04
       211  27  2.775614E+05  1.212012E+04  1.149135E+05 -1.928957E+05  4.845697E+04 -4.248167E+04
       212   1 -9.413064E+05 -4.263145E+05 -9.250211E+04 -5.332378E+05  1.262354E+04  5.473260E+04
       212   2 -7.598601E+05 -3.402409E+05 -5.973886E+04 -4.607880E+05  1.877638E+04  3.876997E+04
       212   3 -5.477572E+05 -2.847637E+05 -2.707627E+04 -4.234072E+05  2.491692E+04  2.282659E+04
       212   4 -3.953882E+05 -2.299632E+05 -1.134680E+02 -3.808055E+05 -1.615156E+04  4.395119E+04
       212   5 -4.106574E+05 -2.145872E+05 -3.638775E+02 -3.632806E+05 -9.967284E+03  2.800473E+04
       212   6 -3.953195E+05 -2.298172E+05 -7.436901E+02 -3.808392E+05 -3.795362E+03  1.207752E+04
       212   7  1.508491E+05 -3.358179E+04  9.227076E+04 -2.282471E+05 -4.495356E+04  3.315971E+04
       212   8 -6.132502E+04 -8.892149E+04  5.901080E+04 -2.657218E+05 -3.872798E+04  1.723310E+04
       212   9 -2.428570E+05 -1.748684E+05  2.559130E+04 -3.382614E+05 -3.251484E+04  1.325738E+03
       212  10 -9.413073E+05 -4.263177E+05 -9.250805E+04 -5.332383E+05  6.259472E-09  5.488895E-10
       212  11 -7.598609E+05 -3.402426E+05 -5.974235E+04 -4.607886E+05 -8.402685E-09 -5.605248E-09
       212  12 -5.477580E+05 -2.847644E+05 -2.707842E+04 -4.234077E+05 -2.265342E-08 -1.006049E-08
       212  13 -3.953890E+05 -2.299654E+05 -1.175871E+02 -3.808049E+05 -3.888670E-10 -5.731619E-10
       212  14 -4.106577E+05 -2.145881E+05 -3.655375E+02 -3.632804E+05 -4.487432E-09 -1.132859E-09
       212  15 -3.953196E+05 -2.298174E+05 -7.439912E+02 -3.808392E+05 -4.882066E-09 -1.403894E-09
       212  16  1.508466E+05 -3.358352E+04  9.226490E+04 -2.282459E+05 -6.731866E-09 -1.630567E-09
       212  17 -6.132671E+04 -8.892221E+04  5.900743E+04 -2.657213E+05  5.651765E-09  3.577718E-09
       212  18 -2.428581E+05 -1.748687E+05  2.558931E+04 -3.382614E+05  2.152733E-08  6.938858E-09
       212  19 -9.413064E+05 -4.263145E+05 -9.250211E+04 -5.332378E+05 -1.262354E+04 -5.473260E+04
       212  20 -7.598601E+05 -3.402409E+05 -5.973886E+04 -4.607880E+05 -1.877638E+04 -3.876997E+04
       212  21 -5.477572E+05 -2.847637E+05 -2.707627E+04 -4.234072E+05 -2.491692E+04 -2.282659E+04
       212  22 -3.953882E+05 -2.299632E+05 -1.134680E+02 -3.808055E+05  1.615156E+04 -4.395119E+04
       212  23 -4.106574E+05 -2.145872E+05 -3.638775E+02 -3.632806E+05  9.967284E+03 -2.800473E+04
       212  24 -3.953195E+05 -2.298172E+05 -7.436901E+02 -3.808392E+05  3.795362E+03 -1.207752E+04
       212  25  1.508491E+05 -3.358179E+04  9.227076E+04 -2.282471E+05  4.495356E+04 -3.315971E+04
       212  26 -6.132502E+04 -8.892149E+04  5.901080E+04 -2.657218E+05  3.872798E+04 -1.723310E+04
       212  27 -2.428570E+05 -1.748684E+05  2.559130E+04 -3.382614E+05  3.251484E+04 -1.325738E+03
       213   1 -4.210187E+05 -2.390339E+05 -4.775981E+03 -3.881708E+05  2.858765E+04  1.357291E+04
       213   2 -2.394272E+05 -1.530327E+05  2.757118E+04 -3.156831E+05  3.491969E+04 -2.123742E+03
       213   3 -2.724914E+04 -9.765074E+04  5.962103E+04 -2.782576E+05  4.113731E+04 -1.750916E+04
       213   4 -3.953485E+05 -2.298024E+05 -1.019749E+03 -3.808533E+05 -1.602318E+02  2.811172E+03
       213   5 -4.105871E+05 -2.145174E+05 -1.902489E+03 -3.632869E+05  6.725146E+03 -1.268049E+04
       213   6 -3.953951E+05 -2.299687E+05 -3.525197E+03 -3.808013E+05  1.349596E+04 -2.786087E+04
       213   7 -3.696755E+05 -2.205701E+05  2.740100E+03 -3.735349E+05 -2.890967E+04 -7.951165E+03
       213   8 -5.817152E+05 -2.759990E+05 -3.137386E+04 -4.108782E+05 -2.146128E+04 -2.323421E+04
       213   9 -7.633957E+05 -3.622728E+05 -6.667203E+04 -4.832878E+05 -1.412798E+04 -3.820608E+04
       213  10 -4.210196E+05 -2.390343E+05 -4.777865E+03 -3.881711E+05  3.283062E-08  1.258392E-08
       213  11 -2.394285E+05 -1.530330E+05  2.756888E+04 -3.156830E+05  5.340850E-09  2.928311E-09
       213  12 -2.725104E+04 -9.765152E+04  5.961728E+04 -2.782570E+05 -2.086123E-08 -1.032998E-08
       213  13 -3.953485E+05 -2.298024E+05 -1.019764E+03 -3.808533E+05 -5.455404E-09 -6.113054E-10
       213  14 -4.105872E+05 -2.145176E+05 -1.902876E+03 -3.632868E+05 -1.339594E-09  1.711151E-09
       213  15 -3.953955E+05 -2.299695E+05 -3.526998E+03 -3.808010E+05  1.163273E-09  6.239243E-09
       213  16 -3.696765E+05 -2.205704E+05  2.738409E+03 -3.735351E+05 -3.602425E-08 -1.548885E-08
       213  17 -5.817159E+05 -2.759997E+05 -3.137575E+04 -4.108786E+05 -5.548746E-09 -6.629482E-09
       213  18 -7.633963E+05 -3.622744E+05 -6.667515E+04 -4.832882E+05  3.019308E-08  5.742844E-09
       213  19 -4.210187E+05 -2.390339E+05 -4.775981E+03 -3.881708E+05 -2.858765E+04 -1.357291E+04
       213  20 -2.394272E+05 -1.530327E+05  2.757118E+04 -3.156831E+05 -3.491969E+04  2.123742E+03
       213  21 -2.724914E+04 -9.765074E+04  5.962103E+04 -2.782576E+05 -4.113731E+04  1.750916E+04
       213  22 -3.953485E+05 -2.298024E+05 -1.019749E+03 -3.808533E+05  1.602318E+02 -2.811172E+03
       213  23 -4.105871E+05 -2.145174E+05 -1.902489E+03 -3.632869E+05 -6.725146E+03  1.268049E+04
       213  24 -3.953951E+05 -2.299687E+05 -3.525197E+03 -3.808013E+05 -1.349596E+04  2.786087E+04
       213  25 -3.696755E+05 -2.205701E+05  2.740100E+03 -3.735349E+05  2.890967E+04  7.951165E+03
       213  26 -5.817152E+05 -2.759990E+05 -3.137386E+04 -4.108782E+05  2.146128E+04  2.323421E+04
       213  27 -7.633957E+05 -3.622728E+05 -6.667203E+04 -4.832878E+05  1.412798E+04  3.820608E+04
       214   1  9.966500E+04 -5.201223E+04  8.129376E+04 -2.432417E+05  4.554945E+04 -2.627073E+04
       214   2  2.803924E+05  3.434417E+04  1.129880E+05 -1.697051E+05  4.912448E+04 -4.077040E+04
       214   3  4.913556E+05  8.902056E+04  1.455487E+05 -1.305484E+05  5.145041E+04 -5.192214E+04
       214   4 -3.956652E+05 -2.299410E+05 -4.710969E+03 -3.808490E+05  1.756455E+04 -3.675412E+04
       214   5 -4.104842E+05 -2.154220E+05 -8.685873E+03 -3.629510E+05  2.715090E+04 -4.900970E+04
       214   6 -3.962977E+05 -2.337810E+05 -1.655886E+04 -3.794513E+05  3.548790E+04 -5.791507E+04
       214   7 -8.907288E+05 -4.078438E+05 -9.071824E+04 -5.183521E+05 -1.039631E+04 -4.722855E+04
       214   8 -1.100855E+06 -4.651412E+05 -1.303727E+05 -5.559958E+05  5.203346E+03 -5.723919E+04
       214   9 -1.283132E+06 -5.565100E+05 -1.786964E+05 -6.280246E+05  1.954957E+04 -6.389882E+04
       214  10  9.966259E+04 -5.201353E+04  8.128857E+04 -2.432407E+05  2.156773E-08  5.268598E-09
       214  11  2.803894E+05  3.434174E+04  1.129803E+05 -1.697035E+05  4.039962E-09  4.539427E-10
       214  12  4.913521E+05  8.901695E+04  1.455387E+05 -1.305462E+05 -8.091933E-09 -3.394697E-09
       214  13 -3.956659E+05 -2.299426E+05 -4.714086E+03 -3.808485E+05  4.180883E-09  7.240559E-09
       214  14 -4.104856E+05 -2.154248E+05 -8.691770E+03 -3.629500E+05 -1.176367E-10  5.002774E-09
       214  15 -3.962999E+05 -2.337850E+05 -1.656753E+04 -3.794497E+05  4.476612E-09  3.067896E-09
       214  16 -8.907295E+05 -4.078462E+05 -9.072264E+04 -5.183525E+05 -1.294766E-08 -7.946904E-09
       214  17 -1.100856E+06 -4.651448E+05 -1.303789E+05 -5.559955E+05 -4.672202E-10 -3.571044E-10
       214  18 -1.283134E+06 -5.565145E+05 -1.787048E+05 -6.280236E+05  1.652690E-08  7.283477E-09
       214  19  9.966500E+04 -5.201223E+04  8.129376E+04 -2.432417E+05 -4.554945E+04  2.627073E+04
       214  20  2.803924E+05  3.434417E+04  1.129880E+05 -1.697051E+05 -4.912448E+04  4.077040E+04
       214  21  4.913556E+05  8.902056E+04  1.455487E+05 -1.305484E+05 -5.145041E+04  5.192214E+04
       214  22 -3.956652E+05 -2.299410E+05 -4.710969E+03 -3.808490E+05 -1.756455E+04  3.675412E+04
       214  23 -4.104842E+05 -2.154220E+05 -8.685873E+03 -3.629510E+05 -2.715090E+04  4.900970E+04
       214  24 -3.962977E+05 -2.337810E+05 -1.655886E+04 -3.794513E+05 -3.548790E+04  5.791507E+04
       214  25 -8.907288E+05 -4.078438E+05 -9.071824E+04 -5.183521E+05  1.039631E+04  4.722855E+04
       214  26 -1.100855E+06 -4.651412E+05 -1.303727E+05 -5.559958E+05 -5.203346E+03  5.723919E+04
       214  27 -1.283132E+06 -5.565100E+05 -1.786964E+05 -6.280246E+05 -1.954957E+04  6.389882E+04
       215   1  6.206027E+05  1.329161E+05  1.660151E+05 -9.944899E+04  6.034239E+04 -5.674187E+04
       215   2  7.839496E+05  2.258841E+05  2.081510E+05 -2.715066E+03  1.479526E+04 -6.573080E+04
       215   3  9.705303E+05  2.615275E+05  2.740184E+05  7.149873E+04 -4.431490E+04 -3.869478E+04
       215   4 -3.992730E+05 -2.334286E+05 -2.206674E+04 -3.800848E+05  4.065222E+04 -6.413672E+04
       215   5 -4.093987E+05 -2.328335E+05 -4.215542E+04 -3.559097E+05  5.994748E+04 -4.880304E+04
       215   6 -4.091897E+05 -3.024589E+05 -8.988863E+04 -3.542744E+05  6.568003E+04  2.599929E+03
       215   7 -1.418066E+06 -5.996836E+05 -2.101878E+05 -6.602953E+05  2.099646E+04 -7.151892E+04
       215   8 -1.601258E+06 -6.913813E+05 -2.925242E+05 -7.084562E+05  1.050056E+05 -3.191467E+04
       215   9 -1.786965E+06 -8.661895E+05 -4.538915E+05 -7.791312E+05  1.754032E+05  4.377150E+04
       215  10  6.205979E+05  1.329116E+05  1.660022E+05 -9.944623E+04  1.013151E-08  1.971987E-09
       215  11  7.839482E+05  2.258794E+05  2.081425E+05 -2.714283E+03  5.723822E-10 -9.032115E-10
       215  12  9.705278E+05  2.615253E+05  2.740119E+05  7.149735E+04 -1.749813E-09 -5.945691E-10
       215  13 -3.992759E+05 -2.334335E+05 -2.207757E+04 -3.800827E+05  5.147517E-09  1.427838E-09
       215  14 -4.094032E+05 -2.328370E+05 -4.216664E+04 -3.559074E+05  6.732727E-10 -7.808749E-10
       215  15 -4.091943E+05 -3.024600E+05 -8.989675E+04 -3.542746E+05 -1.101767E-10 -3.355180E-10
       215  16 -1.418068E+06 -5.996893E+05 -2.101983E+05 -6.602941E+05  1.116691E-09  9.906575E-10
       215  17 -1.601270E+06 -6.913854E+05 -2.925468E+05 -7.084535E+05  2.598192E-10 -2.178376E-10
       215  18 -1.786998E+06 -8.661998E+05 -4.539531E+05 -7.791374E+05  2.220488E-09  4.812308E-10
       215  19  6.206027E+05  1.329161E+05  1.660151E+05 -9.944899E+04 -6.034239E+04  5.674187E+04
       215  20  7.839496E+05  2.258841E+05  2.081510E+05 -2.715066E+03 -1.479526E+04  6.573080E+04
       215  21  9.705303E+05  2.615275E+05  2.740184E+05  7.149873E+04  4.431490E+04  3.869478E+04
       215  22 -3.992730E+05 -2.334286E+05 -2.206674E+04 -3.800848E+05 -4.065222E+04  6.413672E+04
       215  23 -4.093987E+05 -2.328335E+05 -4.215542E+04 -3.559097E+05 -5.994748E+04  4.880304E+04
       215  24 -4.091897E+05 -3.024589E+05 -8.988863E+04 -3.542744E+05 -6.568003E+04 -2.599929E+03
       215  25 -1.418066E+06 -5.996836E+05 -2.101878E+05 -6.602953E+05 -2.099646E+04  7.151892E+04
       215  26 -1.601258E+06 -6.913813E+05 -2.925242E+05 -7.084562E+05 -1.050056E+05  3.191467E+04
       215  27 -1.786965E+06 -8.661895E+05 -4.538915E+05 -7.791312E+05 -1.754032E+05 -4.377150E+04
       216   1 -4.123989E+05 -1.581670E+05 -1.376658E+05 -9.850015E+04 -2.102150E+04  1.227506E+04
       216   2 -2.931950E+05 -1.778079E+05 -1.118607E+05 -1.181386E+05  2.167491E+03  4.086953E+04
       216   3 -1.692596E+05 -1.668197E+05 -9.349664E+04 -1.568411E+05  2.537814E+04  4.833121E+04
       216   4  5.926633E+05  8.938983E+04  9.551812E+04 -1.584974E+05  6.732085E+04  1.231352E+04
       216   5  5.862233E+05  2.998097E+04  4.792844E+04 -1.489558E+05  4.284638E+04  4.087726E+04
       216   6  5.927568E+05  9.446248E+03  2.598302E+04 -1.584733E+05  1.838932E+04  4.832419E+04
       216   7  1.598683E+06  3.368934E+05  3.286655E+05 -2.185926E+05  1.558052E+05  1.233489E+04
       216   8  1.466399E+06  2.377308E+05  2.076935E+05 -1.798179E+05  8.358130E+04  4.088095E+04
       216   9  1.355352E+06  1.856836E+05  1.454488E+05 -1.601076E+05  1.139224E+04  4.831721E+04
       216  10 -4.123994E+05 -1.581673E+05 -1.376669E+05 -9.849994E+04  6.430722E-08  5.714877E-10
       216  11 -2.931955E+05 -1.778097E+05 -1.118639E+05 -1.181386E+05 -4.724322E-09  1.445428E-09
       216  12 -1.692609E+05 -1.668224E+05 -9.350225E+04 -1.568421E+05 -6.833768E-08  7.619360E-10
       216  13  5.926584E+05  8.938845E+04  9.550933E+04 -1.584981E+05 -1.756643E-09  8.785098E-10
       216  14  5.862209E+05  2.997868E+04  4.792185E+04 -1.489572E+05  1.228329E-09  1.126518E-09
       216  15  5.927558E+05  9.443648E+03  2.597800E+04 -1.584740E+05  8.886987E-10 -3.362933E-11
       216  16  1.598657E+06  3.368867E+05  3.286197E+05 -2.185941E+05 -6.283321E-08  8.085619E-10
       216  17  1.466391E+06  2.377272E+05  2.076773E+05 -1.798206E+05  3.738434E-09  1.065357E-09
       216  18  1.355351E+06  1.856811E+05  1.454442E+05 -1.601080E+05  6.896672E-08  2.063431E-10
       216  19 -4.123989E+05 -1.581670E+05 -1.376658E+05 -9.850015E+04  2.102150E+04 -1.227506E+04
       216  20 -2.931950E+05 -1.778079E+05 -1.118607E+05 -1.181386E+05 -2.167491E+03 -4.086953E+04
       216  21 -1.692596E+05 -1.668197E+05 -9.349664E+04 -1.568411E+05 -2.537814E+04 -4.833121E+04
       216  22  5.926633E+05  8.938983E+04  9.551812E+04 -1.584974E+05 -6.732085E+04 -1.231352E+04
       216  23  5.862233E+05  2.998097E+04  4.792844E+04 -1.489558E+05 -4.284638E+04 -4.087726E+04
       216  24  5.927568E+05  9.446248E+03  2.598302E+04 -1.584733E+05 -1.838932E+04 -4.832419E+04
       216  25  1.598683E+06  3.368934E+05  3.286655E+05 -2.185926E+05 -1.558052E+05 -1.233489E+04
       216  26  1.466399E+06  2.377308E+05  2.076935E+05 -1.798179E+05 -8.358130E+04 -4.088095E+04
       216  27  1.355352E+06  1.856836E+05  1.454488E+05 -1.601076E+05 -1.139224E+04 -4.831721E+04
       217   1 -9.499863E+04 -1.507909E+05 -8.481736E+04 -1.548839E+05  2.288468E+04  4.562944E+04
       217   2  2.603539E+04 -1.267953E+05 -7.037442E+04 -1.467319E+05  2.368284E+04  4.079257E+04
       217   3  1.476293E+05 -1.003638E+05 -5.583096E+04 -1.591487E+05  2.448002E+04  3.326960E+04
       217   4  5.902477E+05  7.071482E+03  1.943251E+04 -1.588123E+05  1.501562E+04  4.562340E+04
       217   5  5.894745E+05  2.034480E+03  1.052399E+04 -1.485287E+05  9.748867E+03  4.078796E+04
       217   6  5.902971E+05  4.846877E+02  5.923348E+03 -1.588120E+05  4.481002E+03  3.326772E+04
       217   7  1.275964E+06  1.649114E+05  1.236727E+05 -1.627452E+05  7.138217E+03  4.561746E+04
       217   8  1.153235E+06  1.308500E+05  9.141827E+04 -1.503271E+05 -4.197216E+03  4.078344E+04
       217   9  1.033164E+06  1.013247E+05  6.767671E+04 -1.584751E+05 -1.553164E+04  3.326582E+04
       217  10 -9.499975E+04 -1.507933E+05 -8.482226E+04 -1.548847E+05 -1.086780E-09 -1.806465E-10
       217  11  2.603434E+04 -1.267973E+05 -7.037860E+04 -1.467327E+05 -8.747894E-10 -1.825053E-09
       217  12  1.476283E+05 -1.003652E+05 -5.583417E+04 -1.591493E+05 -1.170646E-09 -2.478930E-09
       217  13  5.902469E+05  7.069185E+03  1.942818E+04 -1.588129E+05  3.428731E-10 -2.093900E-10
       217  14  5.894740E+05  2.032667E+03  1.052069E+04 -1.485290E+05  1.362030E-09 -1.458480E-09
       217  15  5.902967E+05  4.834935E+02  5.921230E+03 -1.588121E+05  3.338549E-09 -1.618943E-09
       217  16  1.275964E+06  1.649092E+05  1.236687E+05 -1.627455E+05  1.091390E-09 -9.930620E-10
       217  17  1.153234E+06  1.308482E+05  9.141511E+04 -1.503269E+05  1.224630E-09 -1.318171E-09
       217  18  1.033164E+06  1.013235E+05  6.767418E+04 -1.584747E+05  2.212291E-09 -5.846388E-10
       217  19 -9.499863E+04 -1.507909E+05 -8.481736E+04 -1.548839E+05 -2.288468E+04 -4.562944E+04
       217  20  2.603539E+04 -1.267953E+05 -7.037442E+04 -1.467319E+05 -2.368284E+04 -4.079257E+04
       217  21  1.476293E+05 -1.003638E+05 -5.583096E+04 -1.591487E+05 -2.448002E+04 -3.326960E+04
       217  22  5.902477E+05  7.071482E+03  1.943251E+04 -1.588123E+05 -1.501562E+04 -4.562340E+04
       217  23  5.894745E+05  2.034480E+03  1.052399E+04 -1.485287E+05 -9.748867E+03 -4.078796E+04
       217  24  5.902971E+05  4.846877E+02  5.923348E+03 -1.588120E+05 -4.481002E+03 -3.326772E+04
       217  25  1.275964E+06  1.649114E+05  1.236727E+05 -1.627452E+05 -7.138217E+03 -4.561746E+04
       217  26  1.153235E+06  1.308500E+05  9.141827E+04 -1.503271E+05  4.197216E+03 -4.078344E+04
       217  27  1.033164E+06  1.013247E+05  6.767671E+04 -1.584751E+05  1.553164E+04 -3.326582E+04
       218   1  2.228372E+05 -8.317820E+04 -4.615546E+04 -1.588817E+05  2.371072E+04  2.799708E+04
       218   2  3.440255E+05 -5.587010E+04 -3.113207E+04 -1.485635E+05  2.323219E+04  1.891513E+04
       218   3  4.653454E+05 -2.840515E+04 -1.575308E+04 -1.589969E+05  2.275241E+04  9.493177E+03
       218   4  5.900098E+05  3.485952E+02  4.471767E+03 -1.588531E+05  3.600998E+03  2.799655E+04
       218   5  5.898945E+05  7.710357E+00  2.517124E+03 -1.484776E+05  2.352675E+03  1.891610E+04
       218   6  5.900307E+05 -4.211339E+01  1.451264E+03 -1.588532E+05  1.103213E+03  9.495700E+03
       218   7  9.573200E+05  8.386968E+04  5.509898E+04 -1.588245E+05 -1.652008E+04  2.799603E+04
       218   8  8.358259E+05  5.588311E+04  3.616731E+04 -1.483917E+05 -1.853473E+04  1.891707E+04
       218   9  7.147327E+05  2.832049E+04  1.865719E+04 -1.587095E+05 -2.055014E+04  9.498213E+03
       218  10  2.228364E+05 -8.317919E+04 -4.615799E+04 -1.588823E+05  5.193186E-10 -2.270881E-09
       218  11  3.440248E+05 -5.587063E+04 -3.113375E+04 -1.485639E+05  4.135631E-10 -1.963053E-09
       218  12  4.653448E+05 -2.840538E+04 -1.575422E+04 -1.589971E+05  1.393421E-09 -1.619541E-09
       218  13  5.900095E+05  3.477498E+02  4.470269E+03 -1.588532E+05  3.090786E-09 -1.161216E-09
       218  14  5.898944E+05  7.324515E+00  2.516441E+03 -1.484777E+05 -1.638539E-09 -8.316049E-10
       218  15  5.900306E+05 -4.221058E+01  1.451092E+03 -1.588532E+05  8.082781E-10 -6.452325E-10
       218  16  9.573195E+05  8.386877E+04  5.509700E+04 -1.588241E+05  7.387953E-10 -3.187324E-11
       218  17  8.358254E+05  5.588264E+04  3.616599E+04 -1.483914E+05 -2.095555E-09  1.769565E-10
       218  18  7.147323E+05  2.832028E+04  1.865622E+04 -1.587094E+05 -1.758814E-09  3.001355E-10
       218  19  2.228372E+05 -8.317820E+04 -4.615546E+04 -1.588817E+05 -2.371072E+04 -2.799708E+04
       218  20  3.440255E+05 -5.587010E+04 -3.113207E+04 -1.485635E+05 -2.323219E+04 -1.891513E+04
       218  21  4.653454E+05 -2.840515E+04 -1.575308E+04 -1.589969E+05 -2.275241E+04 -9.493177E+03
       218  22  5.900098E+05  3.485952E+02  4.471767E+03 -1.588531E+05 -3.600998E+03 -2.799655E+04
       218  23  5.898945E+05  7.710357E+00  2.517124E+03 -1.484776E+05 -2.352675E+03 -1.891610E+04
       218  24  5.900307E+05 -4.211339E+01  1.451264E+03 -1.588532E+05 -1.103213E+03 -9.495700E+03
       218  25  9.573200E+05  8.386968E+04  5.509898E+04 -1.588245E+05  1.652008E+04 -2.799603E+04
       218  26  8.358259E+05  5.588311E+04  3.616731E+04 -1.483917E+05  1.853473E+04 -1.891707E+04
       218  27  7.147327E+05  2.832049E+04  1.865719E+04 -1.587095E+05  2.055014E+04 -9.498213E+03
       219   1  5.406440E+05 -1.121847E+04 -5.491232E+03 -1.589553E+05  2.253847E+04  3.896754E+03
       219   2  6.618774E+05  1.623955E+04  1.023040E+04 -1.485373E+05  2.229701E+04 -5.717019E+03
       219   3  7.831711E+05  4.369918E+04  2.611335E+04 -1.588930E+05  2.205590E+04 -1.536661E+04
       219   4  5.899900E+05 -3.554497E+01  1.108692E+03 -1.588583E+05  8.746902E+02  3.899591E+03
       219   5  5.899584E+05 -4.855949E+01  6.560089E+02 -1.484714E+05  5.500933E+02 -5.714608E+03
       219   6  5.899842E+05 -4.577721E+01  4.204214E+02 -1.588583E+05  2.258836E+02 -1.536465E+04
       219   7  6.393396E+05  1.114752E+04  7.710357E+03 -1.587613E+05 -2.079073E+04  3.902420E+03
       219   8  5.180457E+05 -1.633664E+04 -8.916644E+03 -1.484055E+05 -2.119443E+04 -5.712200E+03
       219   9  3.968363E+05 -4.379207E+04 -2.527102E+04 -1.588237E+05 -2.159766E+04 -1.536269E+04
       219  10  5.406434E+05 -1.121862E+04 -5.492214E+03 -1.589554E+05  2.087815E-09 -1.383351E-09
       219  11  6.618769E+05  1.623938E+04  1.022940E+04 -1.485372E+05  2.520671E-09 -7.691836E-10
       219  12  7.831705E+05  4.369880E+04  2.611199E+04 -1.588927E+05  1.302397E-09 -5.912406E-11
       219  13  5.899900E+05 -3.556151E+01  1.108662E+03 -1.588583E+05  4.332014E-11 -6.037601E-10
       219  14  5.899584E+05 -4.859465E+01  6.559470E+02 -1.484714E+05  2.567908E-09 -5.354633E-10
       219  15  5.899841E+05 -4.603079E+01  4.199776E+02 -1.588583E+05 -6.708507E-10 -3.296854E-10
       219  16  6.393391E+05  1.114739E+04  7.709517E+03 -1.587612E+05 -1.488167E-09  1.721144E-10
       219  17  5.180452E+05 -1.633679E+04 -8.917549E+03 -1.484056E+05 -2.635169E-10 -2.909875E-10
       219  18  3.968357E+05 -4.379245E+04 -2.527234E+04 -1.588239E+05 -7.511937E-10 -6.749143E-10
       219  19  5.406440E+05 -1.121847E+04 -5.491232E+03 -1.589553E+05 -2.253847E+04 -3.896754E+03
       219  20  6.618774E+05  1.623955E+04  1.023040E+04 -1.485373E+05 -2.229701E+04  5.717019E+03
       219  21  7.831711E+05  4.369918E+04  2.611335E+04 -1.588930E+05 -2.205590E+04  1.536661E+04
       219  22  5.899900E+05 -3.554497E+01  1.108692E+03 -1.588583E+05 -8.746902E+02 -3.899591E+03
       219  23  5.899584E+05 -4.855949E+01  6.560089E+02 -1.484714E+05 -5.500933E+02  5.714608E+03
       219  24  5.899842E+05 -4.577721E+01  4.204214E+02 -1.588583E+05 -2.258836E+02  1.536465E+04
       219  25  6.393396E+05  1.114752E+04  7.710357E+03 -1.587613E+05  2.079073E+04 -3.902420E+03
       219  26  5.180457E+05 -1.633664E+04 -8.916644E+03 -1.484055E+05  2.119443E+04  5.712200E+03
       219  27  3.968363E+05 -4.379207E+04 -2.527102E+04 -1.588237E+05  2.159766E+04  1.536269E+04
       220   1  8.585134E+05  6.085813E+04  3.659808E+04 -1.588811E+05  2.198774E+04 -2.099646E+04
       220   2  9.798018E+05  8.829479E+04  5.268030E+04 -1.484497E+05  2.171826E+04 -3.063489E+04
       220   3  1.101170E+06  1.157514E+05  6.894967E+04 -1.587971E+05  2.145077E+04 -4.021787E+04
       220   4  5.899745E+05 -5.284162E+01  3.546419E+02 -1.588596E+05  1.554082E+02 -2.099534E+04
       220   5  5.899368E+05 -8.322169E+01  2.964868E+02 -1.484699E+05  9.187130E+00 -3.063618E+04
       220   6  5.899421E+05 -1.147880E+02  3.387174E+02 -1.588596E+05 -1.349935E+02 -4.022157E+04
       220   7  3.215100E+05 -6.096667E+04 -3.588768E+04 -1.588381E+05 -2.166793E+04 -2.099423E+04
       220   8  2.002274E+05 -8.846750E+04 -5.208692E+04 -1.484900E+05 -2.168690E+04 -3.063747E+04
       220   9  7.898119E+04 -1.159919E+05 -6.827279E+04 -1.589220E+05 -2.170383E+04 -4.022526E+04
       220  10  8.585127E+05  6.085753E+04  3.659634E+04 -1.588807E+05  2.680311E-09 -1.092349E-10
       220  11  9.798011E+05  8.829366E+04  5.267766E+04 -1.484492E+05  2.473764E-09 -1.041327E-09
       220  12  1.101169E+06  1.157495E+05  6.894577E+04 -1.587964E+05  2.225888E-09 -2.355959E-09
       220  13  5.899743E+05 -5.331511E+01  3.538132E+02 -1.588596E+05  1.565578E-09 -5.632428E-10
       220  14  5.899365E+05 -8.422983E+01  2.947226E+02 -1.484699E+05  2.012714E-09 -1.337609E-09
       220  15  5.899417E+05 -1.165257E+02  3.356764E+02 -1.588596E+05 -1.372851E-09 -1.926030E-09
       220  16  3.215093E+05 -6.096727E+04 -3.588939E+04 -1.588384E+05 -2.280509E-09 -1.130259E-09
       220  17  2.002267E+05 -8.846864E+04 -5.208957E+04 -1.484905E+05 -3.626444E-09 -1.942475E-09
       220  18  7.898025E+04 -1.159938E+05 -6.827672E+04 -1.589227E+05 -3.375283E-09 -1.714926E-09
       220  19  8.585134E+05  6.085813E+04  3.659808E+04 -1.588811E+05 -2.198774E+04  2.099646E+04
       220  20  9.798018E+05  8.829479E+04  5.268030E+04 -1.484497E+05 -2.171826E+04  3.063489E+04
       220  21  1.101170E+06  1.157514E+05  6.894967E+04 -1.587971E+05 -2.145077E+04  4.021787E+04
       220  22  5.899745E+05 -5.284162E+01  3.546419E+02 -1.588596E+05 -1.554082E+02  2.099534E+04
       220  23  5.899368E+05 -8.322169E+01  2.964868E+02 -1.484699E+05 -9.187130E+00  3.063618E+04
       220  24  5.899421E+05 -1.147880E+02  3.387174E+02 -1.588596E+05  1.349935E+02  4.022157E+04
       220  25  3.215100E+05 -6.096667E+04 -3.588768E+04 -1.588381E+05  2.166793E+04  2.099423E+04
       220  26  2.002274E+05 -8.846750E+04 -5.208692E+04 -1.484900E+05  2.168690E+04  3.063747E+04
       220  27  7.898119E+04 -1.159919E+05 -6.827279E+04 -1.589220E+05  2.170383E+04  4.022526E+04
       221   1  1.176612E+06  1.329239E+05  7.965183E+04 -1.587558E+05  2.137153E+04 -4.579467E+04
       221   2  1.297902E+06  1.604472E+05  9.649690E+04 -1.483084E+05  1.996722E+04 -5.509617E+04
       221   3  1.419506E+06  1.882204E+05  1.143327E+05 -1.586212E+05  1.856603E+04 -6.390799E+04
       221   4  5.899414E+05 -1.391264E+02  3.976960E+02 -1.588556E+05 -1.996024E+02 -4.580035E+04
       221   5  5.898573E+05 -1.819019E+02  6.082625E+02 -1.484748E+05 -4.987297E+02 -5.510594E+04
       221   6  5.898826E+05 -1.654550E+02  1.042841E+03 -1.588556E+05 -7.945048E+02 -6.392159E+04
       221   7  3.621311E+03 -1.332168E+05 -7.885794E+04 -1.589552E+05 -2.175132E+04 -4.580602E+04
       221   8 -1.176771E+05 -1.608325E+05 -9.528365E+04 -1.486410E+05 -2.094245E+04 -5.511572E+04
       221   9 -2.390413E+05 -1.885811E+05 -1.122529E+05 -1.590896E+05 -2.013038E+04 -6.393519E+04
       221  10  1.176611E+06  1.329216E+05  7.964703E+04 -1.587550E+05  4.097272E-09 -2.662863E-09
       221  11  1.297901E+06  1.604438E+05  9.649044E+04 -1.483075E+05  6.942929E-09 -3.692937E-09
       221  12  1.419504E+06  1.882159E+05  1.143244E+05 -1.586202E+05  8.214099E-09 -2.837872E-09
       221  13  5.899408E+05 -1.413796E+02  3.937529E+02 -1.588556E+05  6.993473E-11 -2.364402E-09
       221  14  5.898565E+05 -1.851637E+02  6.025539E+02 -1.484748E+05  1.347995E-09 -3.235149E-09
       221  15  5.898815E+05 -1.698440E+02  1.035159E+03 -1.588556E+05 -4.403848E-10 -2.759977E-09
       221  16  3.620240E+03 -1.332192E+05 -7.886277E+04 -1.589560E+05 -5.457037E-09 -2.185090E-09
       221  17 -1.176784E+05 -1.608358E+05 -9.529019E+04 -1.486419E+05 -4.652314E-09 -3.062846E-09
       221  18 -2.390429E+05 -1.885856E+05 -1.122613E+05 -1.590906E+05 -7.845251E-09 -2.083222E-09
       221  19  1.176612E+06  1.329239E+05  7.965183E+04 -1.587558E+05 -2.137153E+04  4.579467E+04
       221  20  1.297902E+06  1.604472E+05  9.649690E+04 -1.483084E+05 -1.996722E+04  5.509617E+04
       221  21  1.419506E+06  1.882204E+05  1.143327E+05 -1.586212E+05 -1.856603E+04  6.390799E+04
       221  22  5.899414E+05 -1.391264E+02  3.976960E+02 -1.588556E+05  1.996024E+02  4.580035E+04
       221  23  5.898573E+05 -1.819019E+02  6.082625E+02 -1.484748E+05  4.987297E+02  5.510594E+04
       221  24  5.898826E+05 -1.654550E+02  1.042841E+03 -1.588556E+05  7.945048E+02  6.392159E+04
       221  25  3.621311E+03 -1.332168E+05 -7.885794E+04 -1.589552E+05  2.175132E+04  4.580602E+04
       221  26 -1.176771E+05 -1.608325E+05 -9.528365E+04 -1.486410E+05  2.094245E+04  5.511572E+04
       221  27 -2.390413E+05 -1.885811E+05 -1.122529E+05 -1.590896E+05  2.013038E+04  6.393519E+04
       222   1  1.495330E+06  2.056261E+05  1.260663E+05 -1.584275E+05  1.821075E+04 -6.901679E+04
       222   2  1.615970E+06  2.341557E+05  1.476389E+05 -1.485231E+05  8.249943E+03 -7.557897E+04
       222   3  1.738603E+06  2.649995E+05  1.762912E+05 -1.591110E+05 -1.712377E+03 -7.826589E+04
       222   4  5.899358E+05 -1.686844E+02  1.371676E+03 -1.587961E+05 -9.957792E+02 -6.903320E+04
       222   5  5.896639E+05  1.159108E+02  2.407589E+03 -1.485492E+05 -2.193328E+03 -7.559641E+04
       222   6  5.898512E+05  1.197467E+03  4.448562E+03 -1.587967E+05 -3.390381E+03 -7.828100E+04
       222   7 -3.146263E+05 -2.059992E+05 -1.233308E+05 -1.591641E+05 -2.017561E+04 -6.904960E+04
       222   8 -4.355785E+05 -2.339711E+05 -1.428380E+05 -1.485752E+05 -1.262012E+04 -7.561386E+04
       222   9 -5.575789E+05 -2.626668E+05 -1.674197E+05 -1.584829E+05 -5.065408E+03 -7.829614E+04
       222  10  1.495328E+06  2.056209E+05  1.260567E+05 -1.584265E+05  5.887388E-08 -4.006787E-09
       222  11  1.615969E+06  2.341495E+05  1.476280E+05 -1.485226E+05  2.882359E-08 -1.011553E-08
       222  12  1.738602E+06  2.649929E+05  1.762796E+05 -1.591111E+05 -1.054513E-08 -1.839625E-08
       222  13  5.899345E+05 -1.738035E+02  1.362716E+03 -1.587962E+05  1.221949E-09  2.919375E-09
       222  14  5.896624E+05  1.097711E+02  2.396838E+03 -1.485493E+05 -1.153040E-09  1.959631E-08
       222  15  5.898495E+05  1.190881E+03  4.437022E+03 -1.587969E+05 -5.820481E-10  3.450883E-08
       222  16 -3.146280E+05 -2.060044E+05 -1.233405E+05 -1.591652E+05 -5.744759E-08 -3.204308E-09
       222  17 -4.355802E+05 -2.339773E+05 -1.428491E+05 -1.485760E+05 -2.638783E-08 -8.295161E-09
       222  18 -5.575806E+05 -2.626734E+05 -1.674313E+05 -1.584833E+05  9.083514E-09 -1.719077E-08
       222  19  1.495330E+06  2.056261E+05  1.260663E+05 -1.584275E+05 -1.821075E+04  6.901679E+04
       222  20  1.615970E+06  2.341557E+05  1.476389E+05 -1.485231E+05 -8.249943E+03  7.557897E+04
       222  21  1.738603E+06  2.649995E+05  1.762912E+05 -1.591110E+05  1.712377E+03  7.826589E+04
       222  22  5.899358E+05 -1.686844E+02  1.371676E+03 -1.587961E+05  9.957792E+02  6.903320E+04
       222  23  5.896639E+05  1.159108E+02  2.407589E+03 -1.485492E+05  2.193328E+03  7.559641E+04
       222  24  5.898512E+05  1.197467E+03  4.448562E+03 -1.587967E+05  3.390381E+03  7.828100E+04
       222  25 -3.146263E+05 -2.059992E+05 -1.233308E+05 -1.591641E+05  2.017561E+04  6.904960E+04
       222  26 -4.355785E+05 -2.339711E+05 -1.428380E+05 -1.485752E+05  1.262012E+04  7.561386E+04
       222  27 -5.575789E+05 -2.626668E+05 -1.674197E+05 -1.584829E+05  5.065408E+03  7.829614E+04
       223   1  1.816857E+06  2.844790E+05  1.951227E+05 -1.579749E+05 -3.749865E+03 -7.966482E+04
       223   2  1.931344E+06  3.225278E+05  2.512307E+05 -1.553789E+05 -7.830129E+04 -6.465782E+04
       223   3  2.060912E+06  3.815066E+05  3.610474E+05 -1.710827E+05 -1.529197E+05 -1.915891E+04
       223   4  5.904121E+05  1.704087E+03  5.949972E+03 -1.583065E+05 -4.162926E+03 -7.968017E+04
       223   5  5.887916E+05  6.375656E+03  1.094894E+04 -1.491655E+05 -9.729642E+03 -6.460984E+04
       223   6  5.903021E+05  2.004229E+04  2.184222E+04 -1.583213E+05 -1.534421E+04 -1.901887E+04
       223   7 -6.345333E+05 -2.811438E+05 -1.832568E+05 -1.586374E+05 -4.575199E+03 -7.969554E+04
       223   8 -7.519972E+05 -3.098737E+05 -2.293842E+05 -1.429661E+05  5.869830E+04 -6.456046E+04
       223   9 -8.782728E+05 -3.415625E+05 -3.174358E+05 -1.455905E+05  1.219088E+05 -1.887305E+04
       223  10  1.816856E+06  2.844722E+05  1.951108E+05 -1.579751E+05  1.504224E-08 -1.967106E-08
       223  11  1.931336E+06  3.225216E+05  2.512114E+05 -1.553830E+05 -2.227137E-08 -1.377075E-08
       223  12  2.060887E+06  3.815000E+05  3.610030E+05 -1.710851E+05 -5.493916E-08 -3.500395E-09
       223  13  5.904103E+05  1.697263E+03  5.938005E+03 -1.583067E+05 -3.971596E-10  3.035048E-08
       223  14  5.887904E+05  6.371147E+03  1.094091E+04 -1.491660E+05  5.112833E-10  2.063002E-08
       223  15  5.903017E+05  2.004184E+04  2.184109E+04 -1.583215E+05  3.488583E-10  4.081239E-09
       223  16 -6.345350E+05 -2.811506E+05 -1.832687E+05 -1.586377E+05 -1.619639E-08 -1.876191E-08
       223  17 -7.520020E+05 -3.098791E+05 -2.293985E+05 -1.429630E+05  2.355145E-08 -9.375879E-09
       223  18 -8.782889E+05 -3.415669E+05 -3.174644E+05 -1.455886E+05  5.646308E-08 -3.651124E-09
       223  19  1.816857E+06  2.844790E+05  1.951227E+05 -1.579749E+05  3.749865E+03  7.966482E+04
       223  20  1.931344E+06  3.225278E+05  2.512307E+05 -1.553789E+05  7.830129E+04  6.465782E+04
       223  21  2.060912E+06  3.815066E+05  3.610474E+05 -1.710827E+05  1.529197E+05  1.915891E+04
       223  22  5.904121E+05  1.704087E+03  5.949972E+03 -1.583065E+05  4.162926E+03  7.968017E+04
       223  23  5.887916E+05  6.375656E+03  1.094894E+04 -1.491655E+05  9.729642E+03  6.460984E+04
       223  24  5.903021E+05  2.004229E+04  2.184222E+04 -1.583213E+05  1.534421E+04  1.901887E+04
       223  25 -6.345333E+05 -2.811438E+05 -1.832568E+05 -1.586374E+05  4.575199E+03  7.969554E+04
       223  26 -7.519972E+05 -3.098737E+05 -2.293842E+05 -1.429661E+05 -5.869830E+04  6.456046E+04
       223  27 -8.782728E+05 -3.415625E+05 -3.174358E+05 -1.455905E+05 -1.219088E+05  1.887305E+04
       224   1  3.461540E+05  1.550474E+06  3.310129E+05 -4.621002E+05  1.289713E+04  9.999316E+04
       224   2  2.421013E+05  1.198497E+06  1.993677E+05 -4.290472E+05  3.910945E+04  2.997668E+04
       224   3  1.556555E+05  8.600809E+05  1.176226E+05 -4.525778E+05  3.631689E+04 -4.001680E+04
       224   4  1.427585E+04  2.063572E+05  1.448112E+04 -4.514867E+05  1.303855E+04  8.212697E+03
       224   5  5.522784E+03  2.054209E+05  8.815639E+03 -4.232013E+05  3.915719E+04  3.779011E+03
       224   6  3.029495E+03  2.065846E+05  7.585308E+03 -4.515028E+05  3.625054E+04 -6.711277E+02
       224   7 -3.177263E+05 -1.136082E+06 -3.021433E+05 -4.408950E+05  1.317706E+04 -8.337060E+04
       224   8 -2.311135E+05 -7.867059E+05 -1.817791E+05 -4.173643E+05  3.920450E+04 -2.237779E+04
       224   9 -1.496181E+05 -4.464879E+05 -1.024597E+05 -4.504287E+05  3.618427E+04  3.863452E+04
       224  10  3.461511E+05  1.550463E+06  3.309938E+05 -4.621013E+05  1.554983E-09 -1.048850E-09
       224  11  2.420994E+05  1.198496E+06  1.993632E+05 -4.290481E+05  4.400539E-09 -1.838172E-09
       224  12  1.556537E+05  8.600788E+05  1.176171E+05 -4.525766E+05  2.723093E-09 -6.318410E-10
       224  13  1.427565E+04  2.063571E+05  1.448067E+04 -4.514867E+05  1.364375E-09 -9.032232E-10
       224  14  5.521134E+03  2.054205E+05  8.812730E+03 -4.232014E+05 -1.095175E-09 -4.742533E-10
       224  15  3.028084E+03  2.065842E+05  7.582837E+03 -4.515028E+05  6.995553E-11 -3.040652E-09
       224  16 -3.177284E+05 -1.136089E+06 -3.021568E+05 -4.408941E+05  1.010966E-09  1.220803E-10
       224  17 -2.311153E+05 -7.867069E+05 -1.817829E+05 -4.173636E+05 -7.188553E-10  1.981605E-09
       224  18 -1.496199E+05 -4.464899E+05 -1.024649E+05 -4.504298E+05 -1.615253E-09  1.894939E-09
       224  19  3.461540E+05  1.550474E+06  3.310129E+05 -4.621002E+05 -1.289713E+04 -9.999316E+04
       224  20  2.421013E+05  1.198497E+06  1.993677E+05 -4.290472E+05 -3.910945E+04 -2.997668E+04
       224  21  1.556555E+05  8.600809E+05  1.176226E+05 -4.525778E+05 -3.631689E+04  4.001680E+04
       224  22  1.427585E+04  2.063572E+05  1.448112E+04 -4.514867E+05 -1.303855E+04 -8.212697E+03
       224  23  5.522784E+03  2.054209E+05  8.815639E+03 -4.232013E+05 -3.915719E+04 -3.779011E+03
       224  24  3.029495E+03  2.065846E+05  7.585308E+03 -4.515028E+05 -3.625054E+04  6.711277E+02
       224  25 -3.177263E+05 -1.136082E+06 -3.021433E+05 -4.408950E+05 -1.317706E+04  8.337060E+04
       224  26 -2.311135E+05 -7.867059E+05 -1.817791E+05 -4.173643E+05 -3.920450E+04  2.237779E+04
       224  27 -1.496181E+05 -4.464879E+05 -1.024597E+05 -4.504287E+05 -3.618427E+04 -3.863452E+04
       225   1  1.047980E+05  6.435013E+05  8.082880E+04 -4.533494E+05  2.483379E+04 -4.236788E+04
       225   2  2.453826E+04  2.977546E+05  2.419393E+04 -4.213911E+05  6.702027E+03 -4.891589E+04
       225   3 -5.172278E+04 -4.615205E+04 -2.722354E+04 -4.479353E+05 -1.190298E+04 -5.546200E+04
       225   4  2.870683E+03  2.065023E+05  7.992014E+03 -4.519282E+05  2.476183E+04 -1.944029E+03
       225   5  3.490955E+03  2.057447E+05  1.090924E+04 -4.226734E+05  6.627256E+03 -7.434036E+03
       225   6  7.930410E+03  2.065230E+05  1.830469E+04 -4.519204E+05 -1.198066E+04 -1.292551E+04
       225   7 -9.906568E+04 -2.303047E+05 -6.484448E+04 -4.505079E+05  2.469001E+04  3.845234E+04
       225   8 -1.755581E+04  1.137471E+05 -2.369122E+03 -4.239556E+05  6.552307E+03  3.404193E+04
       225   9  6.758106E+04  4.592642E+05  6.383724E+04 -4.559071E+05 -1.205887E+04  2.962782E+04
       225  10  1.047969E+05  6.434992E+05  8.082427E+04 -4.533486E+05  6.800311E-10  1.235928E-09
       225  11  2.453758E+04  2.977520E+05  2.418935E+04 -4.213908E+05  3.514492E-09 -1.265699E-09
       225  12 -5.172376E+04 -4.615539E+04 -2.722959E+04 -4.479358E+05  1.708397E-09 -1.057017E-09
       225  13  2.870024E+03  2.065022E+05  7.990854E+03 -4.519282E+05  3.469984E-10 -1.163390E-09
       225  14  3.490893E+03  2.057446E+05  1.090905E+04 -4.226734E+05 -9.427280E-11 -5.637647E-10
       225  15  7.930211E+03  2.065228E+05  1.830410E+04 -4.519205E+05 -1.038333E-09 -3.122670E-09
       225  16 -9.906674E+04 -2.303065E+05 -6.484841E+04 -4.505087E+05 -2.014178E-09 -2.476877E-09
       225  17 -1.755617E+04  1.137458E+05 -2.371381E+03 -4.239558E+05 -6.606597E-10  1.300727E-09
       225  18  6.758067E+04  4.592632E+05  6.383532E+04 -4.559068E+05  2.101506E-10  2.576991E-09
       225  19  1.047980E+05  6.435013E+05  8.082880E+04 -4.533494E+05 -2.483379E+04  4.236788E+04
       225  20  2.453826E+04  2.977546E+05  2.419393E+04 -4.213911E+05 -6.702027E+03  4.891589E+04
       225  21 -5.172278E+04 -4.615205E+04 -2.722354E+04 -4.479353E+05  1.190298E+04  5.546200E+04
       225  22  2.870683E+03  2.065023E+05  7.992014E+03 -4.519282E+05 -2.476183E+04  1.944029E+03
       225  23  3.490955E+03  2.057447E+05  1.090924E+04 -4.226734E+05 -6.627256E+03  7.434036E+03
       225  24  7.930410E+03  2.065230E+05  1.830469E+04 -4.519204E+05  1.198066E+04  1.292551E+04
       225  25 -9.906568E+04 -2.303047E+05 -6.484448E+04 -4.505079E+05 -2.469001E+04 -3.845234E+04
       225  26 -1.755581E+04  1.137471E+05 -2.369122E+03 -4.239556E+05 -6.552307E+03 -3.404193E+04
       225  27  6.758106E+04  4.592642E+05  6.383724E+04 -4.559071E+05  1.205887E+04 -2.962782E+04
       226   1 -1.001369E+05 -2.600197E+05 -5.801140E+04 -4.493884E+05 -2.384561E+04 -5.772032E+04
       226   2 -1.652359E+05 -6.056901E+05 -1.149798E+05 -3.941555E+05 -2.974897E+04 -2.296064E+04
       226   3 -2.049343E+05 -9.494796E+05 -1.882617E+05 -3.958227E+05 -1.040429E+04  1.179680E+04
       226   4  1.002999E+04  2.087378E+05  2.400108E+04 -4.515648E+05 -2.391937E+04 -1.610729E+04
       226   5  2.830302E+04  2.028272E+05  4.346505E+04 -4.230722E+05 -2.971902E+04 -3.827869E+04
       226   6  8.184170E+04  2.085456E+05  8.614472E+04 -4.514601E+05 -1.028883E+04 -6.043311E+04
       226   7  1.201859E+05  6.777142E+05  1.060122E+05 -4.537429E+05 -2.399339E+04  2.553622E+04
       226   8  2.218057E+05  1.011974E+06  2.018797E+05 -4.520270E+05 -2.968768E+04 -5.361625E+04
       226   9  3.685355E+05  1.367821E+06  3.604791E+05 -5.072010E+05 -1.016055E+04 -1.327971E+05
       226  10 -1.001384E+05 -2.600234E+05 -5.801874E+04 -4.493895E+05 -1.146391E-09  1.115849E-09
       226  11 -1.652370E+05 -6.056909E+05 -1.149825E+05 -3.941560E+05 -1.256306E-10 -2.109777E-10
       226  12 -2.049345E+05 -9.494797E+05 -1.882621E+05 -3.958226E+05 -2.915623E-10  2.917505E-10
       226  13  1.002930E+04  2.087374E+05  2.399952E+04 -4.515652E+05  8.455624E-10 -1.209741E-09
       226  14  2.830168E+04  2.028254E+05  4.346064E+04 -4.230731E+05 -1.105752E-09 -6.747810E-10
       226  15  8.184061E+04  2.085416E+05  8.613766E+04 -4.514606E+05 -1.867829E-10 -2.495228E-09
       226  16  1.201851E+05  6.777133E+05  1.060099E+05 -4.537424E+05  4.648848E-10 -2.190427E-09
       226  17  2.218040E+05  1.011970E+06  2.018727E+05 -4.520283E+05 -4.998227E-11  4.402661E-10
       226  18  3.685307E+05  1.367802E+06  3.604458E+05 -5.072020E+05 -2.484170E-10  1.004090E-09
       226  19 -1.001369E+05 -2.600197E+05 -5.801140E+04 -4.493884E+05  2.384561E+04  5.772032E+04
       226  20 -1.652359E+05 -6.056901E+05 -1.149798E+05 -3.941555E+05  2.974897E+04  2.296064E+04
       226  21 -2.049343E+05 -9.494796E+05 -1.882617E+05 -3.958227E+05  1.040429E+04 -1.179680E+04
       226  22  1.002999E+04  2.087378E+05  2.400108E+04 -4.515648E+05  2.391937E+04  1.610729E+04
       226  23  2.830302E+04  2.028272E+05  4.346505E+04 -4.230722E+05  2.971902E+04  3.827869E+04
       226  24  8.184170E+04  2.085456E+05  8.614472E+04 -4.514601E+05  1.028883E+04  6.043311E+04
       226  25  1.201859E+05  6.777142E+05  1.060122E+05 -4.537429E+05  2.399339E+04 -2.553622E+04
       226  26  2.218057E+05  1.011974E+06  2.018797E+05 -4.520270E+05  2.968768E+04  5.361625E+04
       226  27  3.685355E+05  1.367821E+06  3.604791E+05 -5.072010E+05  1.016055E+04  1.327971E+05
       227   1 -6.926933E+05 -3.723537E+05 -2.184228E+05 -2.960010E+05 -1.048460E+05 -3.188064E+04
       227   2 -6.479921E+05 -2.635373E+05 -1.308270E+05 -2.756883E+05 -6.519866E+04  1.825939E+02
       227   3 -6.207708E+05 -2.125238E+05 -9.061448E+04 -2.522831E+05 -2.115699E+04  2.057268E+04
       227   4 -2.691886E+05 -1.611641E+05 -9.984141E+04 -1.261409E+05 -6.735551E+04 -1.780712E+04
       227   5 -2.571217E+05 -9.607604E+04 -4.681383E+04 -1.420536E+05 -4.866638E+04  6.387834E+03
       227   6 -2.583672E+05 -8.462074E+04 -2.453844E+04 -1.548802E+05 -2.558810E+04  1.890715E+04
       227   7  1.544948E+05  5.007967E+04  1.872782E+04  4.383587E+04 -2.983783E+04 -3.715377E+03
       227   8  1.339067E+05  7.141441E+04  3.719155E+04 -8.336072E+03 -3.212301E+04  1.259889E+04
       227   9  1.041766E+05  4.329376E+04  4.153361E+04 -5.742448E+04 -3.002200E+04  1.724064E+04
       227  10 -6.927054E+05 -3.723577E+05 -2.184454E+05 -2.960036E+05 -4.509464E-10 -7.950064E-11
       227  11 -6.479967E+05 -2.635385E+05 -1.308350E+05 -2.756882E+05 -2.134896E-09  1.350395E-11
       227  12 -6.207714E+05 -2.125244E+05 -9.061612E+04 -2.522828E+05 -2.497222E-09  2.962854E-10
       227  13 -2.691936E+05 -1.611656E+05 -9.985053E+04 -1.261419E+05 -1.915862E-09 -1.367958E-10
       227  14 -2.571243E+05 -9.607672E+04 -4.681835E+04 -1.420534E+05  2.003876E-09 -1.754169E-10
       227  15 -2.583680E+05 -8.462130E+04 -2.454034E+04 -1.548798E+05 -1.917019E-10 -5.610382E-10
       227  16  1.544938E+05  5.007941E+04  1.872613E+04  4.383578E+04 -2.052859E-09 -4.255300E-11
       227  17  1.339055E+05  7.141396E+04  3.718931E+04 -8.335746E+03  2.524060E-10  9.164738E-10
       227  18  1.041756E+05  4.329320E+04  4.153136E+04 -5.742407E+04  3.454405E-09  9.870308E-10
       227  19 -6.926933E+05 -3.723537E+05 -2.184228E+05 -2.960010E+05  1.048460E+05  3.188064E+04
       227  20 -6.479921E+05 -2.635373E+05 -1.308270E+05 -2.756883E+05  6.519866E+04 -1.825939E+02
       227  21 -6.207708E+05 -2.125238E+05 -9.061448E+04 -2.522831E+05  2.115699E+04 -2.057268E+04
       227  22 -2.691886E+05 -1.611641E+05 -9.984141E+04 -1.261409E+05  6.735551E+04  1.780712E+04
       227  23 -2.571217E+05 -9.607604E+04 -4.681383E+04 -1.420536E+05  4.866638E+04 -6.387834E+03
       227  24 -2.583672E+05 -8.462074E+04 -2.453844E+04 -1.548802E+05  2.558810E+04 -1.890715E+04
       227  25  1.544948E+05  5.007967E+04  1.872782E+04  4.383587E+04  2.983783E+04  3.715377E+03
       227  26  1.339067E+05  7.141441E+04  3.719155E+04 -8.336072E+03  3.212301E+04 -1.259889E+04
       227  27  1.041766E+05  4.329376E+04  4.153361E+04 -5.742448E+04  3.002200E+04 -1.724064E+04
       228   1 -5.808048E+05 -2.044164E+05 -7.759362E+04 -2.464694E+05 -1.896215E+04  1.947190E+04
       228   2 -5.338187E+05 -1.776109E+05 -5.797372E+04 -2.279972E+05 -1.127099E+04  1.969535E+04
       228   3 -4.810518E+05 -1.617424E+05 -4.424734E+04 -2.179501E+05 -3.173030E+03  1.883517E+04
       228   4 -2.554053E+05 -8.476265E+04 -1.841191E+04 -1.537860E+05 -2.218780E+04  1.825930E+04
       228   5 -2.581985E+05 -7.746753E+04 -9.665927E+03 -1.503291E+05 -1.644073E+04  1.775345E+04
       228   6 -2.548266E+05 -8.072329E+04 -5.270274E+03 -1.552981E+05 -1.028747E+04  1.616401E+04
       228   7  7.010229E+04  3.490076E+04  4.076515E+04 -6.105786E+04 -2.541521E+04  1.704601E+04
       228   8  1.750228E+04  2.268349E+04  3.863964E+04 -7.262855E+04 -2.161290E+04  1.581062E+04
       228   9 -2.854466E+04  3.016343E+02  3.370618E+04 -9.262427E+04 -1.740474E+04  1.349180E+04
       228  10 -5.808053E+05 -2.044169E+05 -7.759501E+04 -2.464691E+05  1.338557E-09  9.081347E-10
       228  11 -5.338190E+05 -1.776113E+05 -5.797469E+04 -2.279971E+05 -7.994618E-10 -5.483482E-10
       228  12 -4.810519E+05 -1.617428E+05 -4.424803E+04 -2.179500E+05 -5.207024E-09 -2.700032E-11
       228  13 -2.554059E+05 -8.476314E+04 -1.841346E+04 -1.537857E+05 -9.525930E-10  5.805704E-11
       228  14 -2.581988E+05 -7.746794E+04 -9.667027E+03 -1.503288E+05  1.088757E-09 -5.368926E-11
       228  15 -2.548268E+05 -8.072360E+04 -5.270963E+03 -1.552980E+05  7.362256E-10 -2.800859E-10
       228  16  7.010151E+04  3.490027E+04  4.076339E+04 -6.105751E+04 -1.706412E-09 -5.228642E-10
       228  17  1.750171E+04  2.268310E+04  3.863829E+04 -7.262827E+04  2.410848E-09 -1.341370E-09
       228  18 -2.854503E+04  3.013576E+02  3.370527E+04 -9.262408E+04  3.779459E-09 -3.560192E-10
       228  19 -5.808048E+05 -2.044164E+05 -7.759362E+04 -2.464694E+05  1.896215E+04 -1.947190E+04
       228  20 -5.338187E+05 -1.776109E+05 -5.797372E+04 -2.279972E+05  1.127099E+04 -1.969535E+04
       228  21 -4.810518E+05 -1.617424E+05 -4.424734E+04 -2.179501E+05  3.173030E+03 -1.883517E+04
       228  22 -2.554053E+05 -8.476265E+04 -1.841191E+04 -1.537860E+05  2.218780E+04 -1.825930E+04
       228  23 -2.581985E+05 -7.746753E+04 -9.665927E+03 -1.503291E+05  1.644073E+04 -1.775345E+04
       228  24 -2.548266E+05 -8.072329E+04 -5.270274E+03 -1.552981E+05  1.028747E+04 -1.616401E+04
       228  25  7.010229E+04  3.490076E+04  4.076515E+04 -6.105786E+04  2.541521E+04 -1.704601E+04
       228  26  1.750228E+04  2.268349E+04  3.863964E+04 -7.262855E+04  2.161290E+04 -1.581062E+04
       228  27 -2.854466E+04  3.016343E+02  3.370618E+04 -9.262427E+04  1.740474E+04 -1.349180E+04
       229   1 -4.479991E+05 -1.502705E+05 -3.705222E+04 -2.090902E+05 -1.683872E+03  1.673776E+04
       229   2 -4.013148E+05 -1.280240E+05 -2.658717E+04 -1.905344E+05  1.063605E+03  1.326397E+04
       229   3 -3.470032E+05 -1.138293E+05 -1.710989E+04 -1.809745E+05  3.848531E+03  9.689218E+03
       229   4 -2.545746E+05 -8.075483E+04 -3.956638E+03 -1.552000E+05 -8.687894E+03  1.410842E+04
       229   5 -2.583927E+05 -7.667934E+04 -2.172095E+03 -1.507258E+05 -6.121615E+03  1.056707E+04
       229   6 -2.545502E+05 -8.061981E+04 -1.231645E+03 -1.552483E+05 -3.518006E+03  6.924743E+03
       229   7 -6.111032E+04 -1.123548E+04  2.913809E+04 -1.012942E+05 -1.569423E+04  1.147822E+04
       229   8 -1.154495E+05 -2.533298E+04  2.224241E+04 -1.109089E+05 -1.330855E+04  7.869534E+03
       229   9 -1.620891E+05 -4.740982E+04  1.464631E+04 -1.295189E+05 -1.088563E+04  4.159863E+03
       229  10 -4.479992E+05 -1.502708E+05 -3.705275E+04 -2.090902E+05 -3.741901E-09  2.389307E-10
       229  11 -4.013148E+05 -1.280242E+05 -2.658750E+04 -1.905344E+05  5.414405E-09  2.419560E-09
       229  12 -3.470032E+05 -1.138294E+05 -1.711009E+04 -1.809745E+05  4.727131E-09  2.459496E-09
       229  13 -2.545747E+05 -8.075506E+04 -3.957153E+03 -1.551999E+05  2.977206E-09  1.163261E-09
       229  14 -2.583927E+05 -7.667947E+04 -2.172376E+03 -1.507258E+05  8.809604E-09  3.130651E-09
       229  15 -2.545502E+05 -8.061987E+04 -1.231759E+03 -1.552483E+05  1.337005E-09  2.185100E-09
       229  16 -6.111062E+04 -1.123569E+04  2.913738E+04 -1.012940E+05  1.009989E-08  2.091683E-09
       229  17 -1.154497E+05 -2.533310E+04  2.224196E+04 -1.109088E+05  8.295889E-09  2.861771E-09
       229  18 -1.620892E+05 -4.740987E+04  1.464605E+04 -1.295188E+05  6.613223E-10  1.868136E-09
       229  19 -4.479991E+05 -1.502705E+05 -3.705222E+04 -2.090902E+05  1.683872E+03 -1.673776E+04
       229  20 -4.013148E+05 -1.280240E+05 -2.658717E+04 -1.905344E+05 -1.063605E+03 -1.326397E+04
       229  21 -3.470032E+05 -1.138293E+05 -1.710989E+04 -1.809745E+05 -3.848531E+03 -9.689218E+03
       229  22 -2.545746E+05 -8.075483E+04 -3.956638E+03 -1.552000E+05  8.687894E+03 -1.410842E+04
       229  23 -2.583927E+05 -7.667934E+04 -2.172095E+03 -1.507258E+05  6.121615E+03 -1.056707E+04
       229  24 -2.545502E+05 -8.061981E+04 -1.231645E+03 -1.552483E+05  3.518006E+03 -6.924743E+03
       229  25 -6.111032E+04 -1.123548E+04  2.913809E+04 -1.012942E+05  1.569423E+04 -1.147822E+04
       229  26 -1.154495E+05 -2.533298E+04  2.224241E+04 -1.109089E+05  1.330855E+04 -7.869534E+03
       229  27 -1.620891E+05 -4.740982E+04  1.464631E+04 -1.295189E+05  1.088563E+04 -4.159863E+03
       230   1 -3.144495E+05 -1.021178E+05 -1.104140E+04 -1.719261E+05  4.915903E+03  7.365051E+03
       230   2 -2.678559E+05 -8.005712E+04 -2.221634E+03 -1.533287E+05  6.774128E+03  3.386959E+03
       230   3 -2.134440E+05 -6.586799E+04  6.358664E+03 -1.437360E+05  8.635414E+03 -5.993705E+02
       230   4 -2.545203E+05 -8.062603E+04 -9.537912E+02 -1.552356E+05 -2.440981E+03  4.604343E+03
       230   5 -2.584293E+05 -7.669652E+04 -6.127682E+02 -1.507304E+05 -5.979031E+02  6.205786E+02
       230   6 -2.545210E+05 -8.063640E+04 -4.997573E+02 -1.552314E+05  1.248203E+03 -3.371424E+03
       230   7 -1.945864E+05 -5.913357E+04  9.134132E+03 -1.385434E+05 -9.798699E+03  1.843324E+03
       230   8 -2.490024E+05 -7.333584E+04  9.963433E+02 -1.481321E+05 -7.970094E+03 -2.145861E+03
       230   9 -2.955961E+05 -9.540461E+04 -7.357991E+03 -1.667261E+05 -6.138491E+03 -6.143283E+03
       230  10 -3.144496E+05 -1.021179E+05 -1.104154E+04 -1.719261E+05 -4.458849E-09  2.190219E-10
       230  11 -2.678560E+05 -8.005715E+04 -2.221742E+03 -1.533287E+05 -1.305575E-09  9.791680E-10
       230  12 -2.134441E+05 -6.586801E+04  6.358523E+03 -1.437360E+05 -2.157269E-09  1.086032E-10
       230  13 -2.545203E+05 -8.062605E+04 -9.538422E+02 -1.552356E+05 -3.732260E-09  1.923910E-09
       230  14 -2.584293E+05 -7.669652E+04 -6.127696E+02 -1.507304E+05  1.250406E-09  1.614394E-09
       230  15 -2.545210E+05 -8.063642E+04 -4.997816E+02 -1.552314E+05  1.317618E-09  1.071361E-09
       230  16 -1.945865E+05 -5.913360E+04  9.133945E+03 -1.385434E+05  1.894932E-09  3.253766E-09
       230  17 -2.490025E+05 -7.333587E+04  9.962152E+02 -1.481321E+05  6.742140E-10  2.757912E-09
       230  18 -2.955962E+05 -9.540466E+04 -7.358133E+03 -1.667261E+05  1.715795E-09  2.152047E-09
       230  19 -3.144495E+05 -1.021178E+05 -1.104140E+04 -1.719261E+05 -4.915903E+03 -7.365051E+03
       230  20 -2.678559E+05 -8.005712E+04 -2.221634E+03 -1.533287E+05 -6.774128E+03 -3.386959E+03
       230  21 -2.134440E+05 -6.586799E+04  6.358664E+03 -1.437360E+05 -8.635414E+03  5.993705E+02
       230  22 -2.545203E+05 -8.062603E+04 -9.537912E+02 -1.552356E+05  2.440981E+03 -4.604343E+03
       230  23 -2.584293E+05 -7.669652E+04 -6.127682E+02 -1.507304E+05  5.979031E+02 -6.205786E+02
       230  24 -2.545210E+05 -8.063640E+04 -4.997573E+02 -1.552314E+05 -1.248203E+03  3.371424E+03
       230  25 -1.945864E+05 -5.913357E+04  9.134132E+03 -1.385434E+05  9.798699E+03 -1.843324E+03
       230  26 -2.490024E+05 -7.333584E+04  9.963433E+02 -1.481321E+05  7.970094E+03  2.145861E+03
       230  27 -2.955961E+05 -9.540461E+04 -7.357991E+03 -1.667261E+05  6.138491E+03  6.143283E+03
       231   1 -1.809422E+05 -5.413613E+04  1.213017E+04 -1.346793E+05  9.618084E+03 -2.960662E+03
       231   2 -1.343515E+05 -3.207232E+04  2.043464E+04 -1.160852E+05  1.147374E+04 -6.946997E+03
       231   3 -7.994158E+04 -1.787423E+04  2.850459E+04 -1.064951E+05  1.332553E+04 -1.092199E+04
       231   4 -2.545233E+05 -8.063715E+04 -5.105300E+02 -1.552314E+05  2.230779E+03 -5.732851E+03
       231   5 -2.584312E+05 -7.670002E+04 -6.727142E+02 -1.507305E+05  4.106300E+03 -9.712113E+03
       231   6 -2.545264E+05 -8.063276E+04 -1.085205E+03 -1.552347E+05  5.977953E+03 -1.368006E+04
       231   7 -3.280977E+05 -1.071373E+05 -1.315094E+04 -1.757811E+05 -5.155519E+03 -8.504662E+03
       231   8 -3.824945E+05 -1.213262E+05 -2.178026E+04 -1.853694E+05 -3.259570E+03 -1.247664E+04
       231   9 -4.290806E+05 -1.433889E+05 -3.067609E+04 -2.039620E+05 -1.367508E+03 -1.643734E+04
       231  10 -1.809423E+05 -5.413617E+04  1.212998E+04 -1.346792E+05 -2.510948E-08 -8.024276E-09
       231  11 -1.343517E+05 -3.207241E+04  2.043430E+04 -1.160851E+05  2.125798E-10  4.138720E-09
       231  12 -7.994180E+04 -1.787441E+04  2.850404E+04 -1.064950E+05  3.305193E-08  1.961802E-08
       231  13 -2.545233E+05 -8.063718E+04 -5.106011E+02 -1.552314E+05  7.019711E-10 -1.617481E-09
       231  14 -2.584313E+05 -7.670013E+04 -6.729231E+02 -1.507305E+05  3.104331E-09 -7.086091E-09
       231  15 -2.545265E+05 -8.063297E+04 -1.085624E+03 -1.552347E+05  7.170438E-09 -9.171883E-09
       231  16 -3.280977E+05 -1.071374E+05 -1.315113E+04 -1.757811E+05  2.032901E-08  9.790349E-09
       231  17 -3.824945E+05 -1.213263E+05 -2.178057E+04 -1.853695E+05 -6.457874E-09  1.917736E-09
       231  18 -4.290806E+05 -1.433892E+05 -3.067660E+04 -2.039620E+05 -2.522229E-08 -2.613883E-09
       231  19 -1.809422E+05 -5.413613E+04  1.213017E+04 -1.346793E+05 -9.618084E+03  2.960662E+03
       231  20 -1.343515E+05 -3.207232E+04  2.043464E+04 -1.160852E+05 -1.147374E+04  6.946997E+03
       231  21 -7.994158E+04 -1.787423E+04  2.850459E+04 -1.064951E+05 -1.332553E+04  1.092199E+04
       231  22 -2.545233E+05 -8.063715E+04 -5.105300E+02 -1.552314E+05 -2.230779E+03  5.732851E+03
       231  23 -2.584312E+05 -7.670002E+04 -6.727142E+02 -1.507305E+05 -4.106300E+03  9.712113E+03
       231  24 -2.545264E+05 -8.063276E+04 -1.085205E+03 -1.552347E+05 -5.977953E+03  1.368006E+04
       231  25 -3.280977E+05 -1.071373E+05 -1.315094E+04 -1.757811E+05  5.155519E+03  8.504662E+03
       231  26 -3.824945E+05 -1.213262E+05 -2.178026E+04 -1.853694E+05  3.259570E+03  1.247664E+04
       231  27 -4.290806E+05 -1.433889E+05 -3.067609E+04 -2.039620E+05  1.367508E+03  1.643734E+04
       232   1 -4.745670E+04 -6.155318E+03  3.396725E+04 -9.747489E+04  1.443955E+04 -1.322556E+04
       232   2 -8.302214E+02  1.591656E+04  4.142147E+04 -7.886536E+04  1.698121E+04 -1.687061E+04
       232   3  5.347067E+04  2.999383E+04  4.807831E+04 -6.924625E+04  1.947661E+04 -2.039006E+04
       232   4 -2.545644E+05 -8.062745E+04 -1.412814E+03 -1.552492E+05  7.080200E+03 -1.598841E+04
       232   5 -2.583948E+05 -7.668973E+04 -2.510241E+03 -1.507248E+05  9.846609E+03 -1.954990E+04
       232   6 -2.545979E+05 -8.079173E+04 -4.583424E+03 -1.551921E+05  1.256664E+04 -2.298579E+04
       232   7 -4.616263E+05 -1.550953E+05 -3.679382E+04 -2.130054E+05 -2.765410E+02 -1.875029E+04
       232   8 -5.158874E+05 -1.692889E+05 -4.644316E+04 -2.225559E+05  2.715188E+03 -2.222801E+04
       232   9 -5.625622E+05 -1.915667E+05 -5.724667E+04 -2.410972E+05  5.660392E+03 -2.558013E+04
       232  10 -4.745697E+04 -6.155561E+03  3.396653E+04 -9.747473E+04 -2.770364E-08 -3.165816E-09
       232  11 -8.306074E+02  1.591618E+04  4.142039E+04 -7.886513E+04 -1.808846E-09  3.516924E-09
       232  12  5.347015E+04  2.999328E+04  4.807681E+04 -6.924593E+04  2.368100E-08  1.065892E-08
       232  13 -2.545645E+05 -8.062773E+04 -1.413389E+03 -1.552491E+05  1.201904E-08 -7.702992E-09
       232  14 -2.583951E+05 -7.669016E+04 -2.511141E+03 -1.507246E+05  8.478113E-09 -4.409079E-09
       232  15 -2.545982E+05 -8.079234E+04 -4.584714E+03 -1.551919E+05  2.214124E-09 -8.202611E-10
       232  16 -4.616264E+05 -1.550957E+05 -3.679448E+04 -2.130054E+05  3.969410E-08  2.213829E-08
       232  17 -5.158876E+05 -1.692895E+05 -4.644410E+04 -2.225558E+05  1.140182E-08  6.807907E-09
       232  18 -5.625624E+05 -1.915674E+05 -5.724796E+04 -2.410971E+05 -2.278125E-08 -7.476894E-09
       232  19 -4.745670E+04 -6.155318E+03  3.396725E+04 -9.747489E+04 -1.443955E+04  1.322556E+04
       232  20 -8.302214E+02  1.591656E+04  4.142147E+04 -7.886536E+04 -1.698121E+04  1.687061E+04
       232  21  5.347067E+04  2.999383E+04  4.807831E+04 -6.924625E+04 -1.947661E+04  2.039006E+04
       232  22 -2.545644E+05 -8.062745E+04 -1.412814E+03 -1.552492E+05 -7.080200E+03  1.598841E+04
       232  23 -2.583948E+05 -7.668973E+04 -2.510241E+03 -1.507248E+05 -9.846609E+03  1.954990E+04
       232  24 -2.545979E+05 -8.079173E+04 -4.583424E+03 -1.551921E+05 -1.256664E+04  2.298579E+04
       232  25 -4.616263E+05 -1.550953E+05 -3.679382E+04 -2.130054E+05  2.765410E+02  1.875029E+04
       232  26 -5.158874E+05 -1.692889E+05 -4.644316E+04 -2.225559E+05 -2.715188E+03  2.222801E+04
       232  27 -5.625622E+05 -1.915667E+05 -5.724667E+04 -2.410972E+05 -5.660392E+03  2.558013E+04
       233   1  8.602849E+04  4.150030E+04  5.245690E+04 -6.063334E+04  2.132256E+04 -2.233282E+04
       233   2  1.319441E+05  6.392741E+04  5.689160E+04 -4.043196E+04  2.577617E+04 -2.436517E+04
       233   3  1.842300E+05  7.586812E+04  5.819814E+04 -2.854738E+04  2.972632E+04 -2.505381E+04
       233   4 -2.548897E+05 -8.075422E+04 -6.106704E+03 -1.553021E+05  1.427552E+04 -2.498060E+04
       233   5 -2.581723E+05 -7.761465E+04 -1.120497E+04 -1.502659E+05  2.114111E+04 -2.610825E+04
       233   6 -2.555668E+05 -8.544207E+04 -2.134502E+04 -1.535487E+05  2.750282E+04 -2.589181E+04
       233   7 -5.956883E+05 -2.029990E+05 -6.467444E+04 -2.499233E+05  7.232514E+03 -2.762688E+04
       233   8 -6.481296E+05 -2.191423E+05 -7.930668E+04 -2.600359E+05  1.650913E+04 -2.785015E+04
       233   9 -6.951601E+05 -2.467325E+05 -1.008949E+05 -2.784670E+05  2.528099E+04 -2.672915E+04
       233  10  8.602787E+04  4.149965E+04  5.245511E+04 -6.063295E+04 -4.492164E-10  5.286198E-10
       233  11  1.319432E+05  6.392659E+04  5.688923E+04 -4.043145E+04 -1.313874E-08 -4.631510E-09
       233  12  1.842289E+05  7.586721E+04  5.819530E+04 -2.854678E+04 -3.205765E-08 -1.083936E-08
       233  13 -2.548901E+05 -8.075494E+04 -6.108260E+03 -1.553018E+05  2.025493E-09 -1.297379E-09
       233  14 -2.581729E+05 -7.761550E+04 -1.120710E+04 -1.502655E+05  2.823925E-09 -4.258234E-09
       233  15 -2.555678E+05 -8.544299E+04 -2.134770E+04 -1.535481E+05 -4.369549E-09 -8.746265E-09
       233  16 -5.956886E+05 -2.029998E+05 -6.467597E+04 -2.499232E+05  2.992480E-09  1.374071E-09
       233  17 -6.481301E+05 -2.191432E+05 -7.930865E+04 -2.600355E+05  1.126616E-08  8.003565E-09
       233  18 -6.951609E+05 -2.467334E+05 -1.008975E+05 -2.784664E+05  1.304828E-08  1.011456E-08
       233  19  8.602849E+04  4.150030E+04  5.245690E+04 -6.063334E+04 -2.132256E+04  2.233282E+04
       233  20  1.319441E+05  6.392741E+04  5.689160E+04 -4.043196E+04 -2.577617E+04  2.436517E+04
       233  21  1.842300E+05  7.586812E+04  5.819814E+04 -2.854738E+04 -2.972632E+04  2.505381E+04
       233  22 -2.548897E+05 -8.075422E+04 -6.106704E+03 -1.553021E+05 -1.427552E+04  2.498060E+04
       233  23 -2.581723E+05 -7.761465E+04 -1.120497E+04 -1.502659E+05 -2.114111E+04  2.610825E+04
       233  24 -2.555668E+05 -8.544207E+04 -2.134502E+04 -1.535487E+05 -2.750282E+04  2.589181E+04
       233  25 -5.956883E+05 -2.029990E+05 -6.467444E+04 -2.499233E+05 -7.232514E+03  2.762688E+04
       233  26 -6.481296E+05 -2.191423E+05 -7.930668E+04 -2.600359E+05 -1.650913E+04  2.785015E+04
       233  27 -6.951601E+05 -2.467325E+05 -1.008949E+05 -2.784670E+05 -2.528099E+04  2.672915E+04
       234   1  2.185695E+05  8.376597E+04  5.825316E+04 -2.575530E+04  3.500015E+04 -2.480157E+04
       234   2  2.454620E+05  1.129174E+05  5.263095E+04  2.805253E+04  3.526676E+04 -1.879343E+04
       234   3  2.607837E+05  8.639951E+04  3.198408E+04  8.694709E+04  3.009108E+04  1.688388E+03
       234   4 -2.590100E+05 -8.526745E+04 -2.844726E+04 -1.548047E+05  3.127974E+04 -2.620214E+04
       234   5 -2.569200E+05 -9.920014E+04 -5.427277E+04 -1.406869E+05  5.755974E+04 -1.041907E+04
       234   6 -2.715749E+05 -1.739879E+05 -1.157486E+05 -1.214812E+05  7.839387E+04  1.984279E+04
       234   7 -7.363494E+05 -2.542818E+05 -1.151555E+05 -2.837625E+05  2.756238E+04 -2.760163E+04
       234   8 -7.590296E+05 -3.112674E+05 -1.611856E+05 -3.092888E+05  7.983302E+04 -2.054698E+03
       234   9 -8.036248E+05 -4.342831E+05 -2.634916E+05 -3.297201E+05  1.266501E+05  3.796774E+04
       234  10  2.185680E+05  8.376498E+04  5.824970E+04 -2.575460E+04  1.778952E-08  7.818948E-09
       234  11  2.454606E+05  1.129167E+05  5.262795E+04  2.805306E+04  7.758033E-09  3.251124E-09
       234  12  2.607828E+05  8.639927E+04  3.198237E+04  8.694705E+04 -4.506562E-09 -1.568947E-09
       234  13 -2.590113E+05 -8.526845E+04 -2.845038E+04 -1.548040E+05 -8.424675E-09 -1.115901E-08
       234  14 -2.569236E+05 -9.920115E+04 -5.427920E+04 -1.406864E+05 -6.838961E-09 -4.034862E-09
       234  15 -2.715816E+05 -1.739900E+05 -1.157609E+05 -1.214825E+05 -1.060280E-09 -2.006439E-09
       234  16 -7.363504E+05 -2.542828E+05 -1.151584E+05 -2.837619E+05 -4.167718E-08 -1.134325E-08
       234  17 -7.590365E+05 -3.112691E+05 -1.611976E+05 -3.092886E+05 -2.462604E-08 -6.946784E-09
       234  18 -8.036424E+05 -4.342889E+05 -2.635245E+05 -3.297240E+05  7.295912E-10  6.142193E-10
       234  19  2.185695E+05  8.376597E+04  5.825316E+04 -2.575530E+04 -3.500015E+04  2.480157E+04
       234  20  2.454620E+05  1.129174E+05  5.263095E+04  2.805253E+04 -3.526676E+04  1.879343E+04
       234  21  2.607837E+05  8.639951E+04  3.198408E+04  8.694709E+04 -3.009108E+04 -1.688388E+03
       234  22 -2.590100E+05 -8.526745E+04 -2.844726E+04 -1.548047E+05 -3.127974E+04  2.620214E+04
       234  23 -2.569200E+05 -9.920014E+04 -5.427277E+04 -1.406869E+05 -5.755974E+04  1.041907E+04
       234  24 -2.715749E+05 -1.739879E+05 -1.157486E+05 -1.214812E+05 -7.839387E+04 -1.984279E+04
       234  25 -7.363494E+05 -2.542818E+05 -1.151555E+05 -2.837625E+05 -2.756238E+04  2.760163E+04
       234  26 -7.590296E+05 -3.112674E+05 -1.611856E+05 -3.092888E+05 -7.983302E+04  2.054698E+03
       234  27 -8.036248E+05 -4.342831E+05 -2.634916E+05 -3.297201E+05 -1.266501E+05 -3.796774E+04
       235   1  9.563947E+05  1.312019E+05  1.142357E+05  8.458786E+03  2.991174E+04 -1.076633E+04
       235   2  9.186879E+05  1.556807E+05  9.896345E+04  2.686521E+04  1.063584E+04 -3.736506E+04
       235   3  8.781338E+05  1.586458E+05  9.087906E+04  5.058447E+04 -8.659630E+03 -4.758944E+04
       235   4  1.597285E+05 -6.450731E+04 -6.889657E+04  5.104940E+04 -4.855826E+04 -1.088231E+04
       235   5  1.643711E+05 -2.171166E+04 -3.457524E+04  4.834490E+04 -3.085551E+04 -3.743477E+04
       235   6  1.597422E+05 -6.862389E+03 -1.873374E+04  5.095303E+04 -1.317364E+04 -4.760244E+04
       235   7 -6.363338E+05 -2.602506E+05 -2.520467E+05  9.358478E+04 -1.269285E+05 -1.100913E+04
       235   8 -5.893856E+05 -1.991325E+05 -1.681283E+05  6.979755E+04 -7.229797E+04 -3.750740E+04
       235   9 -5.581332E+05 -1.723954E+05 -1.283575E+05  5.132092E+04 -1.768264E+04 -4.761545E+04
       235  10  9.563937E+05  1.312015E+05  1.142338E+05  8.459045E+03 -5.815986E-08 -1.638848E-09
       235  11  9.186874E+05  1.556791E+05  9.896061E+04  2.686553E+04  4.990455E-09 -5.559323E-09
       235  12  8.781331E+05  1.586433E+05  9.087466E+04  5.058414E+04  6.788318E-08 -2.532062E-09
       235  13  1.597259E+05 -6.450807E+04 -6.890122E+04  5.104898E+04 -6.307905E-10 -1.133485E-10
       235  14  1.643697E+05 -2.171342E+04 -3.457966E+04  4.834397E+04  1.379397E-09 -4.413454E-09
       235  15  1.597414E+05 -6.864869E+03 -1.873832E+04  5.095252E+04  3.869868E-10 -2.343009E-10
       235  16 -6.363512E+05 -2.602550E+05 -2.520772E+05  9.358366E+04  5.641749E-08 -4.578300E-10
       235  17 -5.893916E+05 -1.991354E+05 -1.681408E+05  6.979536E+04 -4.081702E-09 -7.348317E-09
       235  18 -5.581341E+05 -1.723979E+05 -1.283624E+05  5.132024E+04 -6.560433E-08 -5.747052E-09
       235  19  9.563947E+05  1.312019E+05  1.142357E+05  8.458786E+03 -2.991174E+04  1.076633E+04
       235  20  9.186879E+05  1.556807E+05  9.896345E+04  2.686521E+04 -1.063584E+04  3.736506E+04
       235  21  8.781338E+05  1.586458E+05  9.087906E+04  5.058447E+04  8.659630E+03  4.758944E+04
       235  22  1.597285E+05 -6.450731E+04 -6.889657E+04  5.104940E+04  4.855826E+04  1.088231E+04
       235  23  1.643711E+05 -2.171166E+04 -3.457524E+04  4.834490E+04  3.085551E+04  3.743477E+04
       235  24  1.597422E+05 -6.862389E+03 -1.873374E+04  5.095303E+04  1.317364E+04  4.760244E+04
       235  25 -6.363338E+05 -2.602506E+05 -2.520467E+05  9.358478E+04  1.269285E+05  1.100913E+04
       235  26 -5.893856E+05 -1.991325E+05 -1.681283E+05  6.979755E+04  7.229797E+04  3.750740E+04
       235  27 -5.581332E+05 -1.723954E+05 -1.283575E+05  5.132092E+04  1.768264E+04  4.761545E+04
       236   1  8.546635E+05  1.539234E+05  8.858779E+04  4.922518E+04 -6.902434E+03 -4.805993E+04
       236   2  8.158882E+05  1.475739E+05  8.421051E+04  4.753506E+04 -7.795875E+03 -4.872469E+04
       236   3  7.768111E+05  1.395572E+05  8.000024E+04  5.233951E+04 -8.693443E+03 -4.730780E+04
       236   4  1.615602E+05 -5.122612E+03 -1.401240E+04  5.122105E+04 -1.074183E+04 -4.807196E+04
       236   5  1.621276E+05 -1.457914E+03 -7.591466E+03  4.796885E+04 -6.937056E+03 -4.872829E+04
       236   6  1.615766E+05 -2.765507E+02 -4.265348E+03  5.121173E+04 -3.136371E+03 -4.730182E+04
       236   7 -5.310604E+05 -1.641911E+05 -1.166214E+05  5.321437E+04 -1.457712E+04 -4.808402E+04
       236   8 -4.912003E+05 -1.505088E+05 -9.939906E+04  4.840197E+04 -6.079098E+03 -4.873189E+04
       236   9 -4.532735E+05 -1.401268E+05 -8.853488E+04  5.008493E+04  2.415448E+03 -4.729586E+04
       236  10  8.546629E+05  1.539209E+05  8.858336E+04  4.922492E+04  1.096486E-09 -2.243356E-09
       236  11  8.158875E+05  1.475713E+05  8.420594E+04  4.753475E+04  7.489480E-10  2.502395E-09
       236  12  7.768105E+05  1.395548E+05  7.999589E+04  5.233918E+04  5.407357E-09  1.728763E-09
       236  13  1.615595E+05 -5.125125E+03 -1.401696E+04  5.122063E+04  4.686376E-10 -1.532986E-09
       236  14  1.621269E+05 -1.460477E+03 -7.596019E+03  4.796858E+04 -2.387581E-09 -6.581556E-11
       236  15  1.615759E+05 -2.789562E+02 -4.269571E+03  5.121162E+04 -1.263789E-09 -1.955589E-09
       236  16 -5.310613E+05 -1.641936E+05 -1.166261E+05  5.321381E+04  2.193488E-10  8.123088E-11
       236  17 -4.912010E+05 -1.505113E+05 -9.940359E+04  4.840173E+04  1.974700E-09  1.460542E-09
       236  18 -4.532741E+05 -1.401292E+05 -8.853909E+04  5.008502E+04 -2.946991E-09 -7.915299E-11
       236  19  8.546635E+05  1.539234E+05  8.858779E+04  4.922518E+04  6.902434E+03  4.805993E+04
       236  20  8.158882E+05  1.475739E+05  8.421051E+04  4.753506E+04  7.795875E+03  4.872469E+04
       236  21  7.768111E+05  1.395572E+05  8.000024E+04  5.233951E+04  8.693443E+03  4.730780E+04
       236  22  1.615602E+05 -5.122612E+03 -1.401240E+04  5.122105E+04  1.074183E+04  4.807196E+04
       236  23  1.621276E+05 -1.457914E+03 -7.591466E+03  4.796885E+04  6.937056E+03  4.872829E+04
       236  24  1.615766E+05 -2.765507E+02 -4.265348E+03  5.121173E+04  3.136371E+03  4.730182E+04
       236  25 -5.310604E+05 -1.641911E+05 -1.166214E+05  5.321437E+04  1.457712E+04  4.808402E+04
       236  26 -4.912003E+05 -1.505088E+05 -9.939906E+04  4.840197E+04  6.079098E+03  4.873189E+04
       236  27 -4.532735E+05 -1.401268E+05 -8.853488E+04  5.008493E+04 -2.415448E+03  4.729586E+04
       237   1  7.527224E+05  1.340520E+05  7.720838E+04  5.214352E+04 -8.146244E+03 -4.578737E+04
       237   2  7.138808E+05  1.253629E+05  7.275565E+04  4.884491E+04 -7.848025E+03 -4.315744E+04
       237   3  6.749677E+05  1.165948E+05  6.808536E+04  5.218495E+04 -7.551215E+03 -4.026345E+04
       237   4  1.617913E+05 -1.568075E+02 -3.218653E+03  5.124438E+04 -2.504949E+03 -4.578063E+04
       237   5  1.618868E+05  1.069482E+02 -1.808197E+03  4.792452E+04 -1.611286E+03 -4.314855E+04
       237   6  1.618058E+05  1.883821E+02 -1.029031E+03  5.124365E+04 -7.190154E+02 -4.025227E+04
       237   7 -4.287847E+05 -1.343808E+05 -8.364910E+04  5.034595E+04  3.131227E+03 -4.577391E+04
       237   8 -3.897969E+05 -1.251621E+05 -7.637476E+04  4.700482E+04  4.620168E+03 -4.313967E+04
       237   9 -3.510878E+05 -1.162294E+05 -7.014564E+04  5.030302E+04  6.107802E+03 -4.024111E+04
       237  10  7.527217E+05  1.340498E+05  7.720432E+04  5.214322E+04  4.326668E-08  3.321360E-09
       237  11  7.138802E+05  1.253609E+05  7.275203E+04  4.884463E+04  1.568506E-08  4.891213E-09
       237  12  6.749672E+05  1.165931E+05  6.808220E+04  5.218471E+04 -1.684274E-08  5.609409E-09
       237  13  1.617907E+05 -1.590600E+02 -3.222603E+03  5.124428E+04 -1.741611E-09 -4.212850E-09
       237  14  1.618863E+05  1.049481E+02 -1.811701E+03  4.792446E+04  3.040159E-10 -4.819884E-09
       237  15  1.618054E+05  1.866420E+02 -1.032077E+03  5.124363E+04  2.971831E-09 -8.662150E-09
       237  16 -4.287853E+05 -1.343831E+05 -8.365306E+04  5.034607E+04 -4.415839E-08  1.264598E-09
       237  17 -3.897975E+05 -1.251641E+05 -7.637830E+04  4.700498E+04 -1.206171E-08  5.202065E-09
       237  18 -3.510883E+05 -1.162311E+05 -7.014876E+04  5.030322E+04  1.634930E-08  4.605484E-09
       237  19  7.527224E+05  1.340520E+05  7.720838E+04  5.214352E+04  8.146244E+03  4.578737E+04
       237  20  7.138808E+05  1.253629E+05  7.275565E+04  4.884491E+04  7.848025E+03  4.315744E+04
       237  21  6.749677E+05  1.165948E+05  6.808536E+04  5.218495E+04  7.551215E+03  4.026345E+04
       237  22  1.617913E+05 -1.568075E+02 -3.218653E+03  5.124438E+04  2.504949E+03  4.578063E+04
       237  23  1.618868E+05  1.069482E+02 -1.808197E+03  4.792452E+04  1.611286E+03  4.314855E+04
       237  24  1.618058E+05  1.883821E+02 -1.029031E+03  5.124365E+04  7.190154E+02  4.025227E+04
       237  25 -4.287847E+05 -1.343808E+05 -8.364910E+04  5.034595E+04 -3.131227E+03  4.577391E+04
       237  26 -3.897969E+05 -1.251621E+05 -7.637476E+04  4.700482E+04 -4.620168E+03  4.313967E+04
       237  27 -3.510878E+05 -1.162294E+05 -7.014564E+04  5.030302E+04 -6.107802E+03  4.024111E+04
       238   1  6.508382E+05  1.110845E+05  6.490358E+04  5.212749E+04 -7.403043E+03 -3.849128E+04
       238   2  6.120046E+05  1.022733E+05  6.000913E+04  4.873795E+04 -7.265943E+03 -3.544452E+04
       238   3  5.731388E+05  9.349212E+04  5.502585E+04  5.200081E+04 -7.129685E+03 -3.236470E+04
       238   4  1.618391E+05  1.935305E+02 -7.776714E+02  5.124678E+04 -5.612424E+02 -3.847951E+04
       238   5  1.618687E+05  1.959702E+02 -4.386818E+02  4.792042E+04 -3.499154E+02 -3.543170E+04
       238   6  1.618510E+05  2.152884E+02 -2.404288E+02  5.124675E+04 -1.394218E+02 -3.235083E+04
       238   7 -3.269164E+05 -1.107077E+05 -6.646086E+04  5.036665E+04  6.275423E+03 -3.846776E+04
       238   8 -2.880607E+05 -1.018901E+05 -6.088810E+04  4.710340E+04  6.561334E+03 -3.541890E+04
       238   9 -2.492643E+05 -9.306878E+04 -5.550803E+04  5.049310E+04  6.846428E+03 -3.233697E+04
       238  10  6.508378E+05  1.110829E+05  6.490069E+04  5.212726E+04  3.165598E-08  6.417845E-09
       238  11  6.120042E+05  1.022720E+05  6.000667E+04  4.873774E+04  3.249314E-08  8.852679E-09
       238  12  5.731384E+05  9.349098E+04  5.502379E+04  5.200063E+04  2.969614E-08  8.808223E-10
       238  13  1.618387E+05  1.919403E+02 -7.804547E+02  5.124676E+04  5.885718E-10 -8.734348E-09
       238  14  1.618684E+05  1.946219E+02 -4.410413E+02  4.792041E+04  3.099616E-09  8.627692E-09
       238  15  1.618508E+05  2.141645E+02 -2.423957E+02  5.124674E+04  2.829233E-10  1.480241E-08
       238  16 -3.269169E+05 -1.107093E+05 -6.646372E+04  5.036685E+04 -3.115280E-08  5.076440E-09
       238  17 -2.880611E+05 -1.018914E+05 -6.089054E+04  4.710359E+04 -3.376810E-08  2.988411E-09
       238  18 -2.492646E+05 -9.306992E+04 -5.551008E+04  5.049328E+04 -3.009715E-08 -1.585873E-09
       238  19  6.508382E+05  1.110845E+05  6.490358E+04  5.212749E+04  7.403043E+03  3.849128E+04
       238  20  6.120046E+05  1.022733E+05  6.000913E+04  4.873795E+04  7.265943E+03  3.544452E+04
       238  21  5.731388E+05  9.349212E+04  5.502585E+04  5.200081E+04  7.129685E+03  3.236470E+04
       238  22  1.618391E+05  1.935305E+02 -7.776714E+02  5.124678E+04  5.612424E+02  3.847951E+04
       238  23  1.618687E+05  1.959702E+02 -4.386818E+02  4.792042E+04  3.499154E+02  3.543170E+04
       238  24  1.618510E+05  2.152884E+02 -2.404288E+02  5.124675E+04  1.394218E+02  3.235083E+04
       238  25 -3.269164E+05 -1.107077E+05 -6.646086E+04  5.036665E+04 -6.275423E+03  3.846776E+04
       238  26 -2.880607E+05 -1.018901E+05 -6.088810E+04  4.710340E+04 -6.561334E+03  3.541890E+04
       238  27 -2.492643E+05 -9.306878E+04 -5.550803E+04  5.049310E+04 -6.846428E+03  3.233697E+04
       239   1  5.490140E+05  8.799489E+04  5.171221E+04  5.196131E+04 -7.096090E+03 -3.056141E+04
       239   2  5.101979E+05  7.919164E+04  4.665873E+04  4.857042E+04 -7.073017E+03 -2.746317E+04
       239   3  4.713571E+05  7.042302E+04  4.158908E+04  5.183435E+04 -7.050546E+03 -2.436146E+04
       239   4  1.618592E+05  2.175736E+02 -1.736517E+02  5.124728E+04 -1.055167E+02 -3.054707E+04
       239   5  1.618773E+05  2.066756E+02 -7.557124E+01  4.791976E+04 -7.476836E+01 -2.744812E+04
       239   6  1.618684E+05  2.292693E+02  1.045758E+00  5.124727E+04 -4.461954E+01 -2.434570E+04
       239   7 -2.251428E+05 -8.756614E+04 -5.206063E+04  5.053363E+04  6.880903E+03 -3.053274E+04
       239   8 -1.863196E+05 -7.878346E+04 -4.681075E+04  4.726941E+04  6.919739E+03 -2.743308E+04
       239   9 -1.475226E+05 -6.996857E+04 -4.158766E+04  5.066044E+04  6.957978E+03 -2.432994E+04
       239  10  5.490136E+05  8.799388E+04  5.171036E+04  5.196113E+04 -5.073482E-08 -4.971546E-09
       239  11  5.101976E+05  7.919081E+04  4.665722E+04  4.857026E+04 -3.285527E-08 -5.876405E-09
       239  12  4.713569E+05  7.042237E+04  4.158787E+04  5.183422E+04 -7.036176E-09 -2.315808E-09
       239  13  1.618589E+05  2.165715E+02 -1.754054E+02  5.124728E+04 -1.353293E-09  1.895034E-08
       239  14  1.618771E+05  2.058665E+02 -7.698714E+01  4.791976E+04  1.385226E-09  6.281564E-09
       239  15  1.618683E+05  2.286328E+02 -6.815281E-02  5.124727E+04  3.042376E-09 -1.385691E-10
       239  16 -2.251431E+05 -8.756716E+04 -5.206247E+04  5.053380E+04  4.794810E-08 -1.756756E-09
       239  17 -1.863198E+05 -7.878428E+04 -4.681226E+04  4.726956E+04  3.028030E-08 -4.724785E-09
       239  18 -1.475228E+05 -6.996922E+04 -4.158886E+04  5.066058E+04  8.149839E-09 -2.699116E-09
       239  19  5.490140E+05  8.799489E+04  5.171221E+04  5.196131E+04  7.096090E+03  3.056141E+04
       239  20  5.101979E+05  7.919164E+04  4.665873E+04  4.857042E+04  7.073017E+03  2.746317E+04
       239  21  4.713571E+05  7.042302E+04  4.158908E+04  5.183435E+04  7.050546E+03  2.436146E+04
       239  22  1.618592E+05  2.175736E+02 -1.736517E+02  5.124728E+04  1.055167E+02  3.054707E+04
       239  23  1.618773E+05  2.066756E+02 -7.557124E+01  4.791976E+04  7.476836E+01  2.744812E+04
       239  24  1.618684E+05  2.292693E+02  1.045758E+00  5.124727E+04  4.461954E+01  2.434570E+04
       239  25 -2.251428E+05 -8.756614E+04 -5.206063E+04  5.053363E+04 -6.880903E+03  3.053274E+04
       239  26 -1.863196E+05 -7.878346E+04 -4.681075E+04  4.726941E+04 -6.919739E+03  2.743308E+04
       239  27 -1.475226E+05 -6.996857E+04 -4.158766E+04  5.066044E+04 -6.957978E+03  2.432994E+04
       240   1  4.472443E+05  6.493049E+04  3.825244E+04  5.179508E+04 -7.057065E+03 -2.255510E+04
       240   2  4.084391E+05  5.613605E+04  3.319524E+04  4.839611E+04 -7.119718E+03 -1.945304E+04
       240   3  3.696193E+05  4.739170E+04  2.817989E+04  5.164858E+04 -7.182782E+03 -1.635330E+04
       240   4  1.618737E+05  2.323768E+02  3.730442E+01  5.124651E+04 -5.187755E+01 -2.253899E+04
       240   5  1.618846E+05  2.258754E+02  1.225504E+02  4.792068E+04 -1.199552E+02 -1.943646E+04
       240   6  1.618803E+05  2.704324E+02  2.532858E+02  5.124644E+04 -1.884466E+02 -1.633624E+04
       240   7 -1.234138E+05 -6.446920E+04 -3.817835E+04  5.069816E+04  6.950241E+03 -2.252289E+04
       240   8 -8.460784E+04 -5.568688E+04 -3.295048E+04  4.744541E+04  6.877158E+03 -1.941988E+04
       240   9 -4.581470E+04 -4.685266E+04 -2.767352E+04  5.084440E+04  6.803658E+03 -1.631918E+04
       240  10  4.472441E+05  6.492993E+04  3.825139E+04  5.179496E+04  1.074361E-07  9.771488E-10
       240  11  4.084389E+05  5.613563E+04  3.319443E+04  4.839600E+04  7.520015E-09 -4.807504E-09
       240  12  3.696192E+05  4.739140E+04  2.817929E+04  5.164849E+04 -9.931934E-08 -9.770728E-09
       240  13  1.618736E+05  2.318313E+02  3.634970E+01  5.124651E+04  1.750301E-09  4.264430E-09
       240  14  1.618845E+05  2.254697E+02  1.218404E+02  4.792068E+04 -2.336636E-10  1.627744E-08
       240  15  1.618802E+05  2.701458E+02  2.527842E+02  5.124643E+04  6.998237E-10  2.691068E-08
       240  16 -1.234139E+05 -6.446976E+04 -3.817939E+04  5.069828E+04 -1.067455E-07  2.339419E-09
       240  17 -8.460799E+04 -5.568730E+04 -3.295128E+04  4.744552E+04 -5.873812E-09 -1.118184E-08
       240  18 -4.581482E+04 -4.685296E+04 -2.767410E+04  5.084449E+04  9.660363E-08 -1.119155E-08
       240  19  4.472443E+05  6.493049E+04  3.825244E+04  5.179508E+04  7.057065E+03  2.255510E+04
       240  20  4.084391E+05  5.613605E+04  3.319524E+04  4.839611E+04  7.119718E+03  1.945304E+04
       240  21  3.696193E+05  4.739170E+04  2.817989E+04  5.164858E+04  7.182782E+03  1.635330E+04
       240  22  1.618737E+05  2.323768E+02  3.730442E+01  5.124651E+04  5.187755E+01  2.253899E+04
       240  23  1.618846E+05  2.258754E+02  1.225504E+02  4.792068E+04  1.199552E+02  1.943646E+04
       240  24  1.618803E+05  2.704324E+02  2.532858E+02  5.124644E+04  1.884466E+02  1.633624E+04
       240  25 -1.234138E+05 -6.446920E+04 -3.817835E+04  5.069816E+04 -6.950241E+03  2.252289E+04
       240  26 -8.460784E+04 -5.568688E+04 -3.295048E+04  4.744541E+04 -6.877158E+03  1.941988E+04
       240  27 -4.581470E+04 -4.685266E+04 -2.767352E+04  5.084440E+04 -6.803658E+03  1.631918E+04
       241   1  3.455289E+05  4.190872E+04  2.489634E+04  5.162090E+04 -7.236254E+03 -1.454937E+04
       241   2  3.067002E+05  3.320227E+04  2.001931E+04  4.809131E+04 -7.512797E+03 -1.146173E+04
       241   3  2.679283E+05  2.473193E+04  1.536884E+04  5.120939E+04 -7.789519E+03 -8.394120E+03
       241   4  1.618993E+05  2.823034E+02  3.446766E+02  5.124566E+04 -2.432736E+02 -1.453208E+04
       241   5  1.618700E+05  3.657553E+02  6.277670E+02  4.792129E+04 -5.652382E+02 -1.144427E+04
       241   6  1.619031E+05  6.930866E+02  1.168659E+03  5.124465E+04 -8.873949E+02 -8.376493E+03
       241   7 -2.169580E+04 -4.134553E+04 -2.420709E+04  5.087052E+04  6.747735E+03 -1.451480E+04
       241   8  1.706123E+04 -3.247164E+04 -1.876377E+04  4.775129E+04  6.380776E+03 -1.142681E+04
       241   9  5.588949E+04 -2.334621E+04 -1.303144E+04  5.127989E+04  6.013605E+03 -8.358863E+03
       241  10  3.455288E+05  4.190848E+04  2.489584E+04  5.162082E+04  2.005637E-08 -5.015224E-09
       241  11  3.067001E+05  3.320212E+04  2.001896E+04  4.809124E+04 -1.015959E-08 -5.976070E-09
       241  12  2.679282E+05  2.473184E+04  1.536860E+04  5.120933E+04 -3.398990E-08  6.096836E-10
       241  13  1.618992E+05  2.820766E+02  3.442796E+02  5.124566E+04  6.687267E-10  2.695010E-08
       241  14  1.618699E+05  3.656146E+02  6.275203E+02  4.792128E+04  1.312407E-09  1.706027E-08
       241  15  1.619031E+05  6.930111E+02  1.168526E+03  5.124464E+04  6.410748E-10 -1.665076E-09
       241  16 -2.169590E+04 -4.134577E+04 -2.420757E+04  5.087060E+04 -1.996382E-08 -8.927028E-09
       241  17  1.706115E+04 -3.247179E+04 -1.876409E+04  4.775135E+04  1.353037E-08 -6.633575E-09
       241  18  5.588943E+04 -2.334630E+04 -1.303164E+04  5.127993E+04  3.471669E-08 -1.077753E-08
       241  19  3.455289E+05  4.190872E+04  2.489634E+04  5.162090E+04  7.236254E+03  1.454937E+04
       241  20  3.067002E+05  3.320227E+04  2.001931E+04  4.809131E+04  7.512797E+03  1.146173E+04
       241  21  2.679283E+05  2.473193E+04  1.536884E+04  5.120939E+04  7.789519E+03  8.394120E+03
       241  22  1.618993E+05  2.823034E+02  3.446766E+02  5.124566E+04  2.432736E+02  1.453208E+04
       241  23  1.618700E+05  3.657553E+02  6.277670E+02  4.792129E+04  5.652382E+02  1.144427E+04
       241  24  1.619031E+05  6.930866E+02  1.168659E+03  5.124465E+04  8.873949E+02  8.376493E+03
       241  25 -2.169580E+04 -4.134553E+04 -2.420709E+04  5.087052E+04 -6.747735E+03  1.451480E+04
       241  26  1.706123E+04 -3.247164E+04 -1.876377E+04  4.775129E+04 -6.380776E+03  1.142681E+04
       241  27  5.588949E+04 -2.334621E+04 -1.303144E+04  5.127989E+04 -6.013605E+03  8.358863E+03
       242   1  2.439673E+05  1.937659E+04  1.236012E+04  5.129560E+04 -7.990025E+03 -6.609758E+03
       242   2  2.048387E+05  1.177901E+04  8.370463E+03  4.613085E+04 -9.119924E+03 -3.635463E+03
       242   3  1.663950E+05  6.496655E+03  5.681960E+03  4.759873E+04 -1.024947E+04 -8.178817E+02
       242   4  1.620557E+05  8.392711E+02  1.564751E+03  5.124211E+04 -1.094741E+03 -6.592037E+03
       242   5  1.616835E+05  2.065265E+03  2.891102E+03  4.791970E+04 -2.578388E+03 -3.618598E+03
       242   6  1.620565E+05  5.668114E+03  5.764253E+03  5.122985E+04 -4.061744E+03 -8.018846E+02
       242   7  8.015101E+04 -1.769830E+04 -9.230490E+03  5.118862E+04  5.799676E+03 -6.574317E+03
       242   8  1.185302E+05 -7.648519E+03 -2.588103E+03  4.970841E+04  3.962716E+03 -3.601694E+03
       242   9  1.577181E+05  4.839643E+03  5.846699E+03  5.486094E+04  2.125943E+03 -7.858152E+02
       242  10  2.439672E+05  1.937653E+04  1.235992E+04  5.129556E+04 -4.457847E-09  7.246392E-10
       242  11  2.048386E+05  1.177897E+04  8.370282E+03  4.613082E+04 -5.414853E-09 -4.100913E-09
       242  12  1.663949E+05  6.496626E+03  5.681762E+03  4.759872E+04 -3.618152E-09 -1.749729E-09
       242  13  1.620557E+05  8.392241E+02  1.564667E+03  5.124210E+04  4.015006E-09  1.320650E-09
       242  14  1.616834E+05  2.065249E+03  2.891065E+03  4.791969E+04 -1.518276E-09 -9.419644E-09
       242  15  1.620565E+05  5.668109E+03  5.764221E+03  5.122984E+04  4.519585E-10  1.569908E-09
       242  16  8.015096E+04 -1.769836E+04 -9.230634E+03  5.118865E+04  6.737256E-09 -4.113942E-09
       242  17  1.185302E+05 -7.648537E+03 -2.588157E+03  4.970842E+04  6.423394E-09 -2.137098E-09
       242  18  1.577181E+05  4.839641E+03  5.846690E+03  5.486094E+04  4.308584E-09 -2.008680E-09
       242  19  2.439673E+05  1.937659E+04  1.236012E+04  5.129560E+04  7.990025E+03  6.609758E+03
       242  20  2.048387E+05  1.177901E+04  8.370463E+03  4.613085E+04  9.119924E+03  3.635463E+03
       242  21  1.663950E+05  6.496655E+03  5.681960E+03  4.759873E+04  1.024947E+04  8.178817E+02
       242  22  1.620557E+05  8.392711E+02  1.564751E+03  5.124211E+04  1.094741E+03  6.592037E+03
       242  23  1.616835E+05  2.065265E+03  2.891102E+03  4.791970E+04  2.578388E+03  3.618598E+03
       242  24  1.620565E+05  5.668114E+03  5.764253E+03  5.122985E+04  4.061744E+03  8.018846E+02
       242  25  8.015101E+04 -1.769830E+04 -9.230490E+03  5.118862E+04 -5.799676E+03  6.574317E+03
       242  26  1.185302E+05 -7.648519E+03 -2.588103E+03  4.970841E+04 -3.962716E+03  3.601694E+03
       242  27  1.577181E+05  4.839643E+03  5.846699E+03  5.486094E+04 -2.125943E+03  7.858152E+02
       243   1 -1.433827E+04  4.470977E+05 -9.470057E+03 -7.888888E+04 -3.087351E+03 -6.945150E+03
       243   2 -4.028857E+04  3.879726E+05 -2.191016E+04 -6.656151E+04 -1.196716E+04 -7.703047E+03
       243   3 -5.721977E+04  3.311657E+05 -3.161738E+04 -6.603577E+04 -1.811302E+04 -8.456757E+03
       243   4  1.909061E+04  5.841718E+05  2.089814E+04 -6.656877E+04 -3.116566E+03  1.274251E+04
       243   5  5.315018E+03  5.825570E+05  1.173216E+04 -6.068041E+04 -1.198774E+04  6.731437E+03
       243   6  1.468710E+03  5.841688E+05  8.944409E+03 -6.659276E+04 -1.812533E+04  7.244918E+02
       243   7  5.251900E+04  7.212646E+05  5.126670E+04 -5.424590E+04 -3.144996E+03  3.243446E+04
       243   8  5.091681E+04  7.771791E+05  4.537398E+04 -5.479740E+04 -1.200803E+04  2.117030E+04
       243   9  6.015402E+04  8.372356E+05  4.950482E+04 -6.714997E+04 -1.813766E+04  9.909346E+03
       243  10 -1.433829E+04  4.470976E+05 -9.470165E+03 -7.888890E+04 -8.008542E-11  9.880334E-10
       243  11 -4.028874E+04  3.879725E+05 -2.191054E+04 -6.656159E+04 -5.246247E-10 -1.229122E-09
       243  12 -5.722014E+04  3.311656E+05 -3.161813E+04 -6.603589E+04 -2.479103E-10 -2.763724E-09
       243  13  1.909055E+04  5.841716E+05  2.089781E+04 -6.656874E+04  3.755758E-09 -1.401933E-09
       243  14  5.314851E+03  5.825569E+05  1.173180E+04 -6.068035E+04 -2.131771E-09 -2.690224E-09
       243  15  1.468357E+03  5.841687E+05  8.943791E+03 -6.659275E+04 -4.165099E-10 -9.640493E-10
       243  16  5.251871E+04  7.212635E+05  5.126471E+04 -5.424581E+04  1.099334E-10 -1.805634E-10
       243  17  5.091654E+04  7.771786E+05  4.537287E+04 -5.479719E+04 -3.250512E-11 -1.234482E-09
       243  18  6.015364E+04  8.372354E+05  4.950401E+04 -6.714982E+04 -3.033890E-10  2.155959E-09
       243  19 -1.433827E+04  4.470977E+05 -9.470057E+03 -7.888888E+04  3.087351E+03  6.945150E+03
       243  20 -4.028857E+04  3.879726E+05 -2.191016E+04 -6.656151E+04  1.196716E+04  7.703047E+03
       243  21 -5.721977E+04  3.311657E+05 -3.161738E+04 -6.603577E+04  1.811302E+04  8.456757E+03
       243  22  1.909061E+04  5.841718E+05  2.089814E+04 -6.656877E+04  3.116566E+03 -1.274251E+04
       243  23  5.315018E+03  5.825570E+05  1.173216E+04 -6.068041E+04  1.198774E+04 -6.731437E+03
       243  24  1.468710E+03  5.841688E+05  8.944409E+03 -6.659276E+04  1.812533E+04 -7.244918E+02
       243  25  5.251900E+04  7.212646E+05  5.126670E+04 -5.424590E+04  3.144996E+03 -3.243446E+04
       243  26  5.091681E+04  7.771791E+05  4.537398E+04 -5.479740E+04  1.200803E+04 -2.117030E+04
       243  27  6.015402E+04  8.372356E+05  4.950482E+04 -6.714997E+04  1.813766E+04 -9.909346E+03
       244   1 -6.583876E+04  2.939455E+05 -3.746410E+04 -6.724774E+04 -2.087517E+04 -1.006699E+04
       244   2 -7.936060E+04  2.354230E+05 -4.488541E+04 -5.988369E+04 -2.494352E+04 -1.234322E+04
       244   3 -9.031140E+04  1.778177E+05 -5.019017E+04 -6.406965E+04 -2.739089E+04 -1.461652E+04
       244   4  1.356677E+03  5.837707E+05  8.843936E+03 -6.653490E+04 -2.088731E+04 -6.913595E+02
       244   5  1.265489E+03  5.830364E+05  1.077799E+04 -6.075811E+04 -2.495053E+04 -6.083468E+03
       244   6  4.285149E+03  5.837556E+05  1.698988E+04 -6.653077E+04 -2.739321E+04 -1.147286E+04
       244   7  6.854796E+04  8.736795E+05  5.515010E+04 -6.582168E+04 -2.089944E+04  8.688492E+03
       244   8  8.188553E+04  9.307698E+05  6.643835E+04 -6.163299E+04 -2.495755E+04  1.796631E+02
       244   9  9.887320E+04  9.898562E+05  8.416504E+04 -6.899349E+04 -2.739556E+04 -8.327212E+03
       244  10 -6.583926E+04  2.939453E+05 -3.746511E+04 -6.724791E+04 -2.380072E-09  1.674729E-09
       244  11 -7.936130E+04  2.354227E+05 -4.488687E+04 -5.988393E+04  4.244495E-10 -8.999944E-10
       244  12 -9.031226E+04  1.778173E+05 -5.019198E+04 -6.406997E+04  9.846085E-10 -2.276814E-09
       244  13  1.356208E+03  5.837706E+05  8.843115E+03 -6.653491E+04 -1.397223E-09 -1.407116E-09
       244  14  1.264810E+03  5.830362E+05  1.077675E+04 -6.075823E+04 -2.237188E-09 -2.466167E-09
       244  15  4.284308E+03  5.837552E+05  1.698822E+04 -6.653102E+04 -4.104698E-10 -8.824953E-10
       244  16  6.854747E+04  8.736793E+05  5.514914E+04 -6.582153E+04  1.423585E-09 -1.100966E-09
       244  17  8.188486E+04  9.307696E+05  6.643718E+04 -6.163299E+04 -1.309814E-09 -1.412786E-09
       244  18  9.887238E+04  9.898559E+05  8.416350E+04 -6.899368E+04 -1.693429E-09  1.710944E-09
       244  19 -6.583876E+04  2.939455E+05 -3.746410E+04 -6.724774E+04  2.087517E+04  1.006699E+04
       244  20 -7.936060E+04  2.354230E+05 -4.488541E+04 -5.988369E+04  2.494352E+04  1.234322E+04
       244  21 -9.031140E+04  1.778177E+05 -5.019017E+04 -6.406965E+04  2.739089E+04  1.461652E+04
       244  22  1.356677E+03  5.837707E+05  8.843936E+03 -6.653490E+04  2.088731E+04  6.913595E+02
       244  23  1.265489E+03  5.830364E+05  1.077799E+04 -6.075811E+04  2.495053E+04  6.083468E+03
       244  24  4.285149E+03  5.837556E+05  1.698988E+04 -6.653077E+04  2.739321E+04  1.147286E+04
       244  25  6.854796E+04  8.736795E+05  5.515010E+04 -6.582168E+04  2.089944E+04 -8.688492E+03
       244  26  8.188553E+04  9.307698E+05  6.643835E+04 -6.163299E+04  2.495755E+04 -1.796631E+02
       244  27  9.887320E+04  9.898562E+05  8.416504E+04 -6.899349E+04  2.739556E+04  8.327212E+03
       245   1 -9.899758E+04  1.424633E+05 -5.287063E+04 -6.770378E+04 -2.890842E+04 -1.814523E+04
       245   2 -9.914351E+04  8.047068E+04 -5.539999E+04 -3.820738E+04 -2.451478E+04 -1.358462E+04
       245   3 -6.655072E+04  2.606928E+04 -5.271001E+04 -1.936714E+04 -7.374784E+03 -9.012378E+03
       245   4  4.618719E+03  5.860558E+05  2.181694E+04 -6.633928E+04 -2.891128E+04 -1.436532E+04
       245   5  1.965560E+04  5.801238E+05  3.881782E+04 -6.097275E+04 -2.448871E+04 -3.428836E+04
       245   6  7.166274E+04  5.860178E+05  7.802645E+04 -6.626049E+04 -7.324854E+03 -5.419968E+04
       245   7  1.082247E+05  1.029842E+06  9.649834E+04 -6.497370E+04 -2.891412E+04 -1.058279E+04
       245   8  1.384423E+05  1.080020E+06  1.330266E+05 -8.375682E+04 -2.446114E+04 -5.500834E+04
       245   9  2.098633E+05  1.146264E+06  2.087505E+05 -1.131963E+05 -7.268126E+03 -9.942744E+04
       245  10 -9.899856E+04  1.424627E+05 -5.287282E+04 -6.770420E+04  1.479435E-09  9.303328E-10
       245  11 -9.914420E+04  8.047032E+04 -5.540147E+04 -3.820765E+04  1.035750E-10 -4.100612E-10
       245  12 -6.655080E+04  2.606918E+04 -5.271026E+04 -1.936719E+04 -8.644755E-11 -1.323779E-09
       245  13  4.617765E+03  5.860553E+05  2.181498E+04 -6.633961E+04  3.153731E-10 -1.261169E-09
       245  14  1.965465E+04  5.801223E+05  3.881449E+04 -6.097343E+04 -2.362198E-09 -1.994954E-09
       245  15  7.166189E+04  5.860147E+05  7.802083E+04 -6.626081E+04 -1.866751E-09 -4.436852E-10
       245  16  1.082238E+05  1.029842E+06  9.649655E+04 -6.497395E+04 -1.007733E-09 -3.535970E-10
       245  17  1.384409E+05  1.080016E+06  1.330197E+05 -8.375790E+04 -1.940157E-09 -1.440692E-09
       245  18  2.098606E+05  1.146254E+06  2.087318E+05 -1.131969E+05 -1.605643E-09  8.251585E-10
       245  19 -9.899758E+04  1.424633E+05 -5.287063E+04 -6.770378E+04  2.890842E+04  1.814523E+04
       245  20 -9.914351E+04  8.047068E+04 -5.539999E+04 -3.820738E+04  2.451478E+04  1.358462E+04
       245  21 -6.655072E+04  2.606928E+04 -5.271001E+04 -1.936714E+04  7.374784E+03  9.012378E+03
       245  22  4.618719E+03  5.860558E+05  2.181694E+04 -6.633928E+04  2.891128E+04  1.436532E+04
       245  23  1.965560E+04  5.801238E+05  3.881782E+04 -6.097275E+04  2.448871E+04  3.428836E+04
       245  24  7.166274E+04  5.860178E+05  7.802645E+04 -6.626049E+04  7.324854E+03  5.419968E+04
       245  25  1.082247E+05  1.029842E+06  9.649834E+04 -6.497370E+04  2.891412E+04  1.058279E+04
       245  26  1.384423E+05  1.080020E+06  1.330266E+05 -8.375682E+04  2.446114E+04  5.500834E+04
       245  27  2.098633E+05  1.146264E+06  2.087505E+05 -1.131963E+05  7.268126E+03  9.942744E+04
       246   1  9.593117E+05  3.117939E+05  1.466360E+05  3.489124E+05  4.934213E+04  6.734562E+03
       246   2  9.025999E+05  3.101190E+05  1.119271E+05  3.342728E+05  3.251798E+04 -2.794504E+04
       246   3  8.399705E+05  3.063299E+05  9.425870E+04  3.302050E+05  9.370992E+03 -4.581967E+04
       246   4  2.151279E+05  5.428774E+04 -3.793519E+04  1.664494E+05 -2.090769E+04 -1.973154E+04
       246   5  2.236378E+05  7.304961E+04 -1.812323E+04  1.558223E+05 -2.186904E+03 -4.102794E+04
       246   6  2.191869E+05  8.265510E+04 -9.415539E+03  1.557687E+05  1.020385E+04 -4.551098E+04
       246   7 -5.284717E+05 -2.031858E+05 -2.225184E+05 -1.581365E+04 -9.106219E+04 -4.616779E+04
       246   8 -4.548279E+05 -1.639810E+05 -1.481836E+05 -2.244679E+04 -3.685028E+04 -5.409669E+04
       246   9 -4.011845E+05 -1.409800E+05 -1.130989E+05 -1.850392E+04  1.103582E+04 -4.520264E+04
       246  10  9.593091E+05  3.117932E+05  1.466313E+05  3.489122E+05  1.505841E-08  3.971519E-09
       246  11  9.025985E+05  3.101178E+05  1.119236E+05  3.342735E+05  1.592560E-08  1.949700E-09
       246  12  8.399699E+05  3.063276E+05  9.425459E+04  3.302054E+05  1.487656E-08  4.286182E-09
       246  13  2.151273E+05  5.428721E+04 -3.793674E+04  1.664490E+05  5.154977E-11  2.961714E-09
       246  14  2.236373E+05  7.304780E+04 -1.812641E+04  1.558222E+05  1.440802E-09  6.122443E-09
       246  15  2.191862E+05  8.265285E+04 -9.419627E+03  1.557691E+05  7.101679E-09  1.041950E-08
       246  16 -5.284812E+05 -2.031903E+05 -2.225380E+05 -1.581704E+04 -1.423689E-08 -7.616203E-09
       246  17 -4.548301E+05 -1.639846E+05 -1.481916E+05 -2.244840E+04 -1.054932E-08 -1.257459E-08
       246  18 -4.011851E+05 -1.409822E+05 -1.131030E+05 -1.850351E+04 -3.095035E-09 -1.410171E-08
       246  19  9.593117E+05  3.117939E+05  1.466360E+05  3.489124E+05 -4.934213E+04 -6.734562E+03
       246  20  9.025999E+05  3.101190E+05  1.119271E+05  3.342728E+05 -3.251798E+04  2.794504E+04
       246  21  8.399705E+05  3.063299E+05  9.425870E+04  3.302050E+05 -9.370992E+03  4.581967E+04
       246  22  2.151279E+05  5.428774E+04 -3.793519E+04  1.664494E+05  2.090769E+04  1.973154E+04
       246  23  2.236378E+05  7.304961E+04 -1.812323E+04  1.558223E+05  2.186904E+03  4.102794E+04
       246  24  2.191869E+05  8.265510E+04 -9.415539E+03  1.557687E+05 -1.020385E+04  4.551098E+04
       246  25 -5.284717E+05 -2.031858E+05 -2.225184E+05 -1.581365E+04  9.106219E+04  4.616779E+04
       246  26 -4.548279E+05 -1.639810E+05 -1.481836E+05 -2.244679E+04  3.685028E+04  5.409669E+04
       246  27 -4.011845E+05 -1.409800E+05 -1.130989E+05 -1.850392E+04 -1.103582E+04  4.520264E+04
       247   1  8.072753E+05  2.935852E+05  8.846054E+04  3.201486E+05  1.056620E+04 -4.445614E+04
       247   2  7.573130E+05  2.723397E+05  7.885461E+04  3.015430E+05  8.008562E+03 -4.413766E+04
       247   3  7.005137E+05  2.576410E+05  7.071308E+04  2.910962E+05  4.742135E+03 -4.194163E+04
       247   4  2.200394E+05  8.355058E+04 -6.989388E+03  1.561478E+05  1.096168E+04 -4.431202E+04
       247   5  2.240093E+05  8.171468E+04 -3.633022E+03  1.516784E+05  1.237385E+04 -4.249580E+04
       247   6  2.203539E+05  8.563958E+04 -1.956735E+03  1.553674E+05  1.307678E+04 -3.880113E+04
       247   7 -3.668352E+05 -1.264523E+05 -1.024489E+05 -7.710027E+03  1.135677E+04 -4.416804E+04
       247   8 -3.089913E+05 -1.088817E+05 -8.612600E+04  1.933676E+03  1.673522E+04 -4.085543E+04
       247   9 -2.595564E+05 -8.633688E+04 -7.462930E+04  1.973742E+04  2.140464E+04 -3.566321E+04
       247  10  8.072747E+05  2.935830E+05  8.845662E+04  3.201490E+05 -6.935681E-09 -9.196680E-09
       247  11  7.573124E+05  2.723376E+05  7.885083E+04  3.015433E+05 -1.333921E-09 -8.696084E-09
       247  12  7.005132E+05  2.576391E+05  7.070973E+04  2.910964E+05 -4.889921E-09 -9.097344E-09
       247  13  2.200388E+05  8.354844E+04 -6.993304E+03  1.561482E+05  7.907411E-09  1.277650E-08
       247  14  2.240086E+05  8.171270E+04 -3.636703E+03  1.516788E+05  1.144911E-08  7.498296E-09
       247  15  2.203533E+05  8.563792E+04 -1.959886E+03  1.553678E+05  3.349230E-09 -4.488132E-11
       247  16 -3.668359E+05 -1.264545E+05 -1.024528E+05 -7.709623E+03  2.794990E-08 -1.780939E-09
       247  17 -3.089921E+05 -1.088836E+05 -8.612966E+04  1.934227E+03  2.422217E-08  6.296691E-09
       247  18 -2.595573E+05 -8.633837E+04 -7.463255E+04  1.973804E+04  1.302916E-08  3.957679E-09
       247  19  8.072753E+05  2.935852E+05  8.846054E+04  3.201486E+05 -1.056620E+04  4.445614E+04
       247  20  7.573130E+05  2.723397E+05  7.885461E+04  3.015430E+05 -8.008562E+03  4.413766E+04
       247  21  7.005137E+05  2.576410E+05  7.071308E+04  2.910962E+05 -4.742135E+03  4.194163E+04
       247  22  2.200394E+05  8.355058E+04 -6.989388E+03  1.561478E+05 -1.096168E+04  4.431202E+04
       247  23  2.240093E+05  8.171468E+04 -3.633022E+03  1.516784E+05 -1.237385E+04  4.249580E+04
       247  24  2.203539E+05  8.563958E+04 -1.956735E+03  1.553674E+05 -1.307678E+04  3.880113E+04
       247  25 -3.668352E+05 -1.264523E+05 -1.024489E+05 -7.710027E+03 -1.135677E+04  4.416804E+04
       247  26 -3.089913E+05 -1.088817E+05 -8.612600E+04  1.933676E+03 -1.673522E+04  4.085543E+04
       247  27 -2.595564E+05 -8.633688E+04 -7.462930E+04  1.973742E+04 -2.140464E+04  3.566321E+04
       248   1  6.673949E+05  2.456448E+05  6.571602E+04  2.816919E+05  4.166875E+03 -3.946629E+04
       248   2  6.180341E+05  2.232623E+05  5.808390E+04  2.627542E+05  2.599472E+03 -3.546431E+04
       248   3  5.616342E+05  2.079362E+05  5.049224E+04  2.518483E+05  9.522622E+02 -3.125383E+04
       248   4  2.204402E+05  8.570832E+04 -1.459306E+03  1.554165E+05  1.245017E+04 -3.634430E+04
       248   5  2.240245E+05  8.229576E+04 -7.795496E+02  1.513776E+05  1.132338E+04 -3.217477E+04
       248   6  2.204781E+05  8.585225E+04 -4.092602E+02  1.553698E+05  1.011674E+04 -2.779665E+04
       248   7 -2.262923E+05 -7.420434E+04 -6.863523E+04  2.922830E+04  2.072707E+04 -3.322472E+04
       248   8 -1.698166E+05 -5.865380E+04 -5.964445E+04  4.006767E+04  2.004144E+04 -2.888743E+04
       248   9 -1.205558E+05 -3.622049E+04 -5.131288E+04  5.894028E+04  1.927602E+04 -2.434143E+04
       248  10  6.673944E+05  2.456432E+05  6.571306E+04  2.816921E+05  2.511096E-09 -6.273822E-09
       248  11  6.180338E+05  2.232610E+05  5.808153E+04  2.627543E+05  3.739685E-08  4.551417E-09
       248  12  5.616340E+05  2.079351E+05  5.049040E+04  2.518483E+05  6.418017E-08  1.819887E-08
       248  13  2.204397E+05  8.570686E+04 -1.462080E+03  1.554169E+05 -1.971436E-09 -5.123845E-10
       248  14  2.240241E+05  8.229461E+04 -7.817362E+02  1.513779E+05  1.715579E-09  2.265233E-09
       248  15  2.204778E+05  8.585139E+04 -4.109047E+02  1.553701E+05  1.128316E-09  1.462315E-08
       248  16 -2.262931E+05 -7.420564E+04 -6.863812E+04  2.922885E+04 -7.951159E-10  1.384351E-09
       248  17 -1.698173E+05 -5.865481E+04 -5.964678E+04  4.006814E+04 -3.620614E-08 -1.365582E-08
       248  18 -1.205564E+05 -3.622123E+04 -5.131469E+04  5.894066E+04 -5.473085E-08 -2.619106E-08
       248  19  6.673949E+05  2.456448E+05  6.571602E+04  2.816919E+05 -4.166875E+03  3.946629E+04
       248  20  6.180341E+05  2.232623E+05  5.808390E+04  2.627542E+05 -2.599472E+03  3.546431E+04
       248  21  5.616342E+05  2.079362E+05  5.049224E+04  2.518483E+05 -9.522622E+02  3.125383E+04
       248  22  2.204402E+05  8.570832E+04 -1.459306E+03  1.554165E+05 -1.245017E+04  3.634430E+04
       248  23  2.240245E+05  8.229576E+04 -7.795496E+02  1.513776E+05 -1.132338E+04  3.217477E+04
       248  24  2.204781E+05  8.585225E+04 -4.092602E+02  1.553698E+05 -1.011674E+04  2.779665E+04
       248  25 -2.262923E+05 -7.420434E+04 -6.863523E+04  2.922830E+04 -2.072707E+04  3.322472E+04
       248  26 -1.698166E+05 -5.865380E+04 -5.964445E+04  4.006767E+04 -2.004144E+04  2.888743E+04
       248  27 -1.205558E+05 -3.622049E+04 -5.131288E+04  5.894028E+04 -1.927602E+04  2.434143E+04
       249   1  5.285208E+05  1.960454E+05  4.542215E+04  2.424991E+05  6.239780E+01 -2.869987E+04
       249   2  4.792359E+05  1.736433E+05  3.780716E+04  2.235464E+05 -1.561450E+03 -2.435226E+04
       249   3  4.228906E+05  1.583118E+05  3.018374E+04  2.126232E+05 -3.194053E+03 -1.998340E+04
       249   4  2.204920E+05  8.585922E+04 -2.926863E+02  1.553756E+05  9.219452E+03 -2.524481E+04
       249   5  2.240339E+05  8.233594E+04 -1.193079E+02  1.513607E+05  7.640252E+03 -2.087945E+04
       249   6  2.205033E+05  8.587390E+04  9.674064E+00  1.553741E+05  6.052305E+03 -1.649285E+04
       249   7 -8.743346E+04 -2.431643E+04 -4.600814E+04  6.829287E+04  1.837171E+04 -2.179155E+04
       249   8 -3.109551E+04 -8.963615E+03 -3.804565E+04  7.920347E+04  1.683791E+04 -1.740816E+04
       249   9  1.816321E+04  1.344149E+04 -3.016377E+04  9.814331E+04  1.529537E+04 -1.300354E+04
       249  10  5.285206E+05  1.960445E+05  4.542060E+04  2.424991E+05 -1.403676E-07 -5.444707E-08
       249  11  4.792357E+05  1.736427E+05  3.780604E+04  2.235464E+05  1.200876E-08  3.326830E-09
       249  12  4.228905E+05  1.583114E+05  3.018297E+04  2.126231E+05  1.650652E-07  6.427985E-08
       249  13  2.204918E+05  8.585851E+04 -2.940438E+02  1.553757E+05  2.485329E-10  1.506580E-08
       249  14  2.240337E+05  8.233545E+04 -1.202369E+02  1.513608E+05  2.525560E-09  4.519574E-09
       249  15  2.205032E+05  8.587359E+04  9.093980E+00  1.553741E+05  4.857423E-09  2.757468E-09
       249  16 -8.743395E+04 -2.431703E+04 -4.600966E+04  6.829319E+04  1.513940E-07  4.855733E-08
       249  17 -3.109590E+04 -8.964016E+03 -3.804675E+04  7.920371E+04 -1.454630E-09 -1.290080E-09
       249  18  1.816292E+04  1.344125E+04 -3.016452E+04  9.814347E+04 -1.538442E-07 -5.784697E-08
       249  19  5.285208E+05  1.960454E+05  4.542215E+04  2.424991E+05 -6.239780E+01  2.869987E+04
       249  20  4.792359E+05  1.736433E+05  3.780716E+04  2.235464E+05  1.561450E+03  2.435226E+04
       249  21  4.228906E+05  1.583118E+05  3.018374E+04  2.126232E+05  3.194053E+03  1.998340E+04
       249  22  2.204920E+05  8.585922E+04 -2.926863E+02  1.553756E+05 -9.219452E+03  2.524481E+04
       249  23  2.240339E+05  8.233594E+04 -1.193079E+02  1.513607E+05 -7.640252E+03  2.087945E+04
       249  24  2.205033E+05  8.587390E+04  9.674064E+00  1.553741E+05 -6.052305E+03  1.649285E+04
       249  25 -8.743346E+04 -2.431643E+04 -4.600814E+04  6.829287E+04 -1.837171E+04  2.179155E+04
       249  26 -3.109551E+04 -8.963615E+03 -3.804565E+04  7.920347E+04 -1.683791E+04  1.740816E+04
       249  27  1.816321E+04  1.344149E+04 -3.016377E+04  9.814331E+04 -1.529537E+04  1.300354E+04
       250   1  3.897929E+05  1.464351E+05  2.509071E+04  2.032835E+05 -4.160692E+03 -1.743842E+04
       250   2  3.405226E+05  1.240398E+05  1.750093E+04  1.843422E+05 -5.899316E+03 -1.310292E+04
       250   3  2.842018E+05  1.087166E+05  9.978679E+03  1.734318E+05 -7.634663E+03 -8.776977E+03
       250   4  2.205122E+05  8.587586E+04  7.052922E+01  1.553766E+05  5.083940E+03 -1.394813E+04
       250   5  2.240382E+05  8.233824E+04  2.200416E+02  1.513621E+05  3.324880E+03 -9.619908E+03
       250   6  2.205160E+05  8.587705E+04  4.533055E+02  1.553778E+05  1.569097E+03 -5.301264E+03
       250   7  5.126059E+04  2.531904E+04 -2.495018E+04  1.074816E+05  1.432603E+04 -1.045880E+04
       250   8  1.075680E+05  4.063799E+04 -1.706084E+04  1.183878E+05  1.254731E+04 -6.137564E+03
       250   9  1.568347E+05  6.303796E+04 -9.071759E+03  1.373256E+05  1.077186E+04 -1.825928E+03
       250  10  3.897928E+05  1.464348E+05  2.509011E+04  2.032834E+05 -1.480681E-07 -5.807822E-08
       250  11  3.405225E+05  1.240396E+05  1.750054E+04  1.843421E+05 -5.273368E-08 -2.434061E-08
       250  12  2.842018E+05  1.087165E+05  9.978425E+03  1.734318E+05  6.832557E-08  2.522084E-08
       250  13  2.205121E+05  8.587565E+04  7.011499E+01  1.553767E+05  1.201345E-09 -3.995105E-10
       250  14  2.240382E+05  8.233813E+04  2.198469E+02  1.513622E+05 -1.085394E-08 -4.018331E-09
       250  15  2.205160E+05  8.587702E+04  4.532481E+02  1.553778E+05 -3.996355E-09 -1.690144E-09
       250  16  5.126034E+04  2.531887E+04 -2.495077E+04  1.074817E+05  1.491816E-07  5.700806E-08
       250  17  1.075678E+05  4.063790E+04 -1.706121E+04  1.183878E+05  2.955481E-08  1.019558E-08
       250  18  1.568345E+05  6.303793E+04 -9.071984E+03  1.373256E+05 -7.471740E-08 -3.567914E-08
       250  19  3.897929E+05  1.464351E+05  2.509071E+04  2.032835E+05  4.160692E+03  1.743842E+04
       250  20  3.405226E+05  1.240398E+05  1.750093E+04  1.843422E+05  5.899316E+03  1.310292E+04
       250  21  2.842018E+05  1.087166E+05  9.978679E+03  1.734318E+05  7.634663E+03  8.776977E+03
       250  22  2.205122E+05  8.587586E+04  7.052922E+01  1.553766E+05 -5.083940E+03  1.394813E+04
       250  23  2.240382E+05  8.233824E+04  2.200416E+02  1.513621E+05 -3.324880E+03  9.619908E+03
       250  24  2.205160E+05  8.587705E+04  4.533055E+02  1.553778E+05 -1.569097E+03  5.301264E+03
       250  25  5.126059E+04  2.531904E+04 -2.495018E+04  1.074816E+05 -1.432603E+04  1.045880E+04
       250  26  1.075680E+05  4.063799E+04 -1.706084E+04  1.183878E+05 -1.254731E+04  6.137564E+03
       250  27  1.568347E+05  6.303796E+04 -9.071759E+03  1.373256E+05 -1.077186E+04  1.825928E+03
       251   1  2.511149E+05  9.685015E+04  4.978873E+03  1.641163E+05 -8.682999E+03 -6.271823E+03
       251   2  2.018456E+05  7.443977E+04 -2.328439E+03  1.451434E+05 -1.066071E+04 -2.100517E+03
       251   3  1.455987E+05  5.918361E+04 -9.349481E+03  1.341848E+05 -1.259888E+04  1.966499E+03
       251   4  2.205373E+05  8.587536E+04  6.183091E+02  1.553851E+05  5.229060E+02 -2.795211E+03
       251   5  2.240166E+05  8.235454E+04  1.147104E+03  1.513490E+05 -1.675675E+03  1.292596E+03
       251   6  2.205584E+05  8.603111E+04  2.136750E+03  1.553258E+05 -3.834768E+03  5.276122E+03
       251   7  1.899612E+05  7.490089E+04 -3.741791E+03  1.466544E+05  9.728224E+03  6.811768E+02
       251   8  2.461882E+05  9.026944E+04  4.622985E+03  1.575547E+05  7.309697E+03  4.685835E+03
       251   9  2.955253E+05  1.128796E+05  1.362349E+04  1.764694E+05  4.930572E+03  8.586205E+03
       251  10  2.511148E+05  9.685008E+04  4.978657E+03  1.641163E+05 -7.019309E-10  8.501955E-10
       251  11  2.018455E+05  7.443973E+04 -2.328661E+03  1.451434E+05  1.944502E-10 -2.920738E-09
       251  12  1.455985E+05  5.918356E+04 -9.349787E+03  1.341849E+05  3.595853E-09 -3.622899E-09
       251  13  2.205373E+05  8.587535E+04  6.182939E+02  1.553851E+05 -6.441210E-10  3.069469E-09
       251  14  2.240166E+05  8.235454E+04  1.147096E+03  1.513490E+05  8.366005E-10 -2.320761E-09
       251  15  2.205584E+05  8.603108E+04  2.136670E+03  1.553258E+05 -5.751772E-09 -9.546893E-09
       251  16  1.899611E+05  7.490087E+04 -3.741970E+03  1.466544E+05  2.403910E-09 -1.743427E-09
       251  17  2.461881E+05  9.026940E+04  4.622843E+03  1.575547E+05 -3.311469E-09 -2.335648E-09
       251  18  2.955253E+05  1.128795E+05  1.362330E+04  1.764693E+05 -6.912984E-09 -2.585258E-09
       251  19  2.511149E+05  9.685015E+04  4.978873E+03  1.641163E+05  8.682999E+03  6.271823E+03
       251  20  2.018456E+05  7.443977E+04 -2.328439E+03  1.451434E+05  1.066071E+04  2.100517E+03
       251  21  1.455987E+05  5.918361E+04 -9.349481E+03  1.341848E+05  1.259888E+04 -1.966499E+03
       251  22  2.205373E+05  8.587536E+04  6.183091E+02  1.553851E+05 -5.229060E+02  2.795211E+03
       251  23  2.240166E+05  8.235454E+04  1.147104E+03  1.513490E+05  1.675675E+03 -1.292596E+03
       251  24  2.205584E+05  8.603111E+04  2.136750E+03  1.553258E+05  3.834768E+03 -5.276122E+03
       251  25  1.899612E+05  7.490089E+04 -3.741791E+03  1.466544E+05 -9.728224E+03 -6.811768E+02
       251  26  2.461882E+05  9.026944E+04  4.622985E+03  1.575547E+05 -7.309697E+03 -4.685835E+03
       251  27  2.955253E+05  1.128796E+05  1.362349E+04  1.764694E+05 -4.930572E+03 -8.586205E+03
       252   1  1.124839E+05  4.743047E+04 -1.393886E+04  1.250160E+05 -1.393302E+04  4.265096E+03
       252   2  6.377518E+04  2.482047E+04 -2.025560E+04  1.050122E+05 -1.602820E+04  7.692844E+03
       252   3  8.672259E+03  1.060686E+04 -2.567204E+04  9.263577E+04 -1.777000E+04  1.018574E+04
       252   4  2.207201E+05  8.607472E+04  2.863794E+03  1.553561E+05 -5.144704E+03  7.583691E+03
       252   5  2.239323E+05  8.316938E+04  5.305491E+03  1.509800E+05 -9.216061E+03  1.026469E+04
       252   6  2.211386E+05  8.905109E+04  1.021312E+04  1.542297E+05 -1.293414E+04  1.201096E+04
       252   7  3.289690E+05  1.247202E+05  1.966658E+04  1.857012E+05  3.645230E+03  1.090289E+04
       252   8  3.841161E+05  1.415208E+05  3.086600E+04  1.969587E+05 -2.402104E+03  1.283725E+04
       252   9  4.336504E+05  1.674994E+05  4.609646E+04  2.158428E+05 -8.096571E+03  1.383686E+04
       252  10  1.124837E+05  4.743040E+04 -1.393926E+04  1.250160E+05 -9.092608E-09 -7.670816E-09
       252  11  6.377489E+04  2.482033E+04 -2.025619E+04  1.050123E+05 -2.776429E-09 -1.441104E-09
       252  12  8.671892E+03  1.060666E+04 -2.567283E+04  9.263592E+04 -6.266377E-10  4.823309E-09
       252  13  2.207201E+05  8.607465E+04  2.863637E+03  1.553561E+05 -4.716742E-09 -1.486354E-09
       252  14  2.239322E+05  8.316925E+04  5.305134E+03  1.509800E+05 -2.567422E-09 -1.583414E-09
       252  15  2.211384E+05  8.905089E+04  1.021253E+04  1.542298E+05 -1.219052E-08 -1.077529E-08
       252  16  3.289690E+05  1.247201E+05  1.966633E+04  1.857012E+05  8.907012E-09  1.468243E-09
       252  17  3.841161E+05  1.415206E+05  3.086568E+04  1.969587E+05 -3.371405E-09 -2.553340E-09
       252  18  4.336503E+05  1.674992E+05  4.609598E+04  2.158429E+05 -2.131626E-08 -7.902495E-09
       252  19  1.124839E+05  4.743047E+04 -1.393886E+04  1.250160E+05  1.393302E+04 -4.265096E+03
       252  20  6.377518E+04  2.482047E+04 -2.025560E+04  1.050122E+05  1.602820E+04 -7.692844E+03
       252  21  8.672259E+03  1.060686E+04 -2.567204E+04  9.263577E+04  1.777000E+04 -1.018574E+04
       252  22  2.207201E+05  8.607472E+04  2.863794E+03  1.553561E+05  5.144704E+03 -7.583691E+03
       252  23  2.239323E+05  8.316938E+04  5.305491E+03  1.509800E+05  9.216061E+03 -1.026469E+04
       252  24  2.211386E+05  8.905109E+04  1.021312E+04  1.542297E+05  1.293414E+04 -1.201096E+04
       252  25  3.289690E+05  1.247202E+05  1.966658E+04  1.857012E+05 -3.645230E+03 -1.090289E+04
       252  26  3.841161E+05  1.415208E+05  3.086600E+04  1.969587E+05  2.402104E+03 -1.283725E+04
       252  27  4.336504E+05  1.674994E+05  4.609646E+04  2.158428E+05  8.096571E+03 -1.383686E+04
       253   1 -2.463820E+04  4.354747E+02 -2.879842E+04  8.477970E+04 -2.016638E+04  1.119690E+04
       253   2 -6.368505E+04 -2.459016E+04 -3.308513E+04  4.917123E+04 -1.548777E+04  1.092032E+04
       253   3 -1.026510E+05 -2.422129E+04 -3.513405E+04  1.567024E+04 -7.654193E+03  2.280677E+03
       253   4  2.227553E+05  8.995135E+04  1.375900E+04  1.543471E+05 -1.511596E+04  1.310288E+04
       253   5  2.239132E+05  9.622902E+04  2.647061E+04  1.454683E+05 -2.810444E+04  6.156570E+03
       253   6  2.286469E+05  1.313949E+05  5.542073E+04  1.386974E+05 -3.793920E+04 -9.150555E+03
       253   7  4.702185E+05  1.794751E+05  5.631604E+04  2.239417E+05 -1.006332E+04  1.500970E+04
       253   8  5.115976E+05  2.170631E+05  8.602265E+04  2.418092E+05 -4.072733E+04  1.389675E+03
       253   9  5.600491E+05  2.870346E+05  1.459674E+05  2.617878E+05 -6.824110E+04 -2.059199E+04
       253  10 -2.463867E+04  4.352308E+02 -2.879942E+04  8.477988E+04 -2.282699E-08 -1.048970E-08
       253  11 -6.368534E+04 -2.459036E+04 -3.308581E+04  4.917137E+04  1.965429E-09  3.662940E-09
       253  12 -1.026511E+05 -2.422132E+04 -3.513417E+04  1.567025E+04  1.069325E-08  4.256355E-09
       253  13  2.227551E+05  8.995110E+04  1.375825E+04  1.543473E+05 -8.051191E-09 -6.584395E-09
       253  14  2.239123E+05  9.622877E+04  2.646906E+04  1.454684E+05  6.782547E-09  1.184403E-08
       253  15  2.286454E+05  1.313944E+05  5.541787E+04  1.386971E+05  3.587073E-09  2.231344E-09
       253  16  4.702183E+05  1.794748E+05  5.631543E+04  2.239418E+05  9.472853E-09  3.075693E-09
       253  17  5.115958E+05  2.170626E+05  8.601953E+04  2.418092E+05  1.405101E-08  9.398134E-09
       253  18  5.600440E+05  2.870329E+05  1.459579E+05  2.617867E+05 -4.312341E-09  1.129524E-09
       253  19 -2.463820E+04  4.354747E+02 -2.879842E+04  8.477970E+04  2.016638E+04 -1.119690E+04
       253  20 -6.368505E+04 -2.459016E+04 -3.308513E+04  4.917123E+04  1.548777E+04 -1.092032E+04
       253  21 -1.026510E+05 -2.422129E+04 -3.513405E+04  1.567024E+04  7.654193E+03 -2.280677E+03
       253  22  2.227553E+05  8.995135E+04  1.375900E+04  1.543471E+05  1.511596E+04 -1.310288E+04
       253  23  2.239132E+05  9.622902E+04  2.647061E+04  1.454683E+05  2.810444E+04 -6.156570E+03
       253  24  2.286469E+05  1.313949E+05  5.542073E+04  1.386974E+05  3.793920E+04  9.150555E+03
       253  25  4.702185E+05  1.794751E+05  5.631604E+04  2.239417E+05  1.006332E+04 -1.500970E+04
       253  26  5.115976E+05  2.170631E+05  8.602265E+04  2.418092E+05  4.072733E+04 -1.389675E+03
       253  27  5.600491E+05  2.870346E+05  1.459674E+05  2.617878E+05  6.824110E+04  2.059199E+04
       254   1  1.145957E+05  7.057781E+03  7.758204E+02  6.656204E+02 -1.805569E+04 -4.493742E+02
       254   2  1.160092E+05  3.158805E+04  1.534386E+04 -1.187370E+03 -1.195797E+04 -1.189278E+03
       254   3  1.094413E+05  2.692073E+04  1.866715E+04  3.684314E+03 -5.862940E+03 -9.486092E+02
       254   4  4.539186E+03 -2.043455E+04 -2.669637E+04  2.495098E+03 -1.823292E+04 -4.498961E+02
       254   5  8.542380E+03  4.747900E+03 -1.141206E+04 -8.947983E+02 -1.199496E+04 -1.189405E+03
       254   6  4.538322E+03  7.057094E+02 -7.471326E+03  2.440052E+03 -5.759650E+03 -9.482960E+02
       254   7 -1.055063E+05 -4.792779E+04 -5.416946E+04  4.324245E+03 -1.841012E+04 -4.504192E+02
       254   8 -9.891401E+04 -2.209312E+04 -3.816885E+04 -6.022849E+02 -1.203193E+04 -1.189531E+03
       254   9 -1.003547E+05 -2.551014E+04 -3.361063E+04  1.195994E+03 -5.656377E+03 -9.479833E+02
       254  10  1.145953E+05  7.057693E+03  7.752075E+02  6.656139E+02 -2.043810E-11  2.770796E-09
       254  11  1.160091E+05  3.158801E+04  1.534359E+04 -1.187381E+03  1.981845E-09  1.279525E-08
       254  12  1.094413E+05  2.692072E+04  1.866708E+04  3.684309E+03  1.594025E-09  2.973104E-09
       254  13  4.538829E+03 -2.043464E+04 -2.669699E+04  2.495092E+03 -1.082985E-09 -2.112421E-09
       254  14  8.542226E+03  4.747860E+03 -1.141233E+04 -8.948098E+02 -1.094599E-09 -7.631571E-09
       254  15  4.538286E+03  7.056995E+02 -7.471390E+03  2.440048E+03  2.093918E-11  9.308326E-10
       254  16 -1.055067E+05 -4.792788E+04 -5.417010E+04  4.324238E+03  7.000552E-10  7.207251E-10
       254  17 -9.891417E+04 -2.209316E+04 -3.816912E+04 -6.022965E+02  4.820116E-10  1.031257E-08
       254  18 -1.003547E+05 -2.551015E+04 -3.361069E+04  1.195990E+03 -2.315355E-09 -5.860990E-10
       254  19  1.145957E+05  7.057781E+03  7.758204E+02  6.656204E+02  1.805569E+04  4.493742E+02
       254  20  1.160092E+05  3.158805E+04  1.534386E+04 -1.187370E+03  1.195797E+04  1.189278E+03
       254  21  1.094413E+05  2.692073E+04  1.866715E+04  3.684314E+03  5.862940E+03  9.486092E+02
       254  22  4.539186E+03 -2.043455E+04 -2.669637E+04  2.495098E+03  1.823292E+04  4.498961E+02
       254  23  8.542380E+03  4.747900E+03 -1.141206E+04 -8.947983E+02  1.199496E+04  1.189405E+03
       254  24  4.538322E+03  7.057094E+02 -7.471326E+03  2.440052E+03  5.759650E+03  9.482960E+02
       254  25 -1.055063E+05 -4.792779E+04 -5.416946E+04  4.324245E+03  1.841012E+04  4.504192E+02
       254  26 -9.891401E+04 -2.209312E+04 -3.816885E+04 -6.022849E+02  1.203193E+04  1.189531E+03
       254  27 -1.003547E+05 -2.551014E+04 -3.361063E+04  1.195994E+03  5.656377E+03  9.479833E+02
       255   1  8.554226E+04  1.676988E+04  1.362435E+04  2.343982E+03 -4.511815E+03 -7.318519E+02
       255   2  8.361967E+04  1.993730E+04  1.621819E+04 -7.642906E+02 -2.987630E+03 -7.524409E+02
       255   3  8.042571E+04  1.870909E+04  1.672628E+04  2.793065E+03 -1.464004E+03 -6.196169E+02
       255   4  6.035879E+03 -3.090600E+03 -6.183611E+03  2.452904E+03 -4.526124E+03 -7.319049E+02
       255   5  6.673284E+03  7.154644E+02 -2.947816E+03 -8.850178E+02 -2.980020E+03 -7.524218E+02
       255   6  6.035306E+03  1.217727E+02 -1.813205E+03  2.442746E+03 -1.434469E+03 -6.195186E+02
       255   7 -7.346477E+04 -2.295156E+04 -2.599204E+04  2.561807E+03 -4.540432E+03 -7.319579E+02
       255   8 -7.026773E+04 -1.850682E+04 -2.211427E+04 -1.005734E+03 -2.972411E+03 -7.524028E+02
       255   9 -6.835008E+04 -1.846596E+04 -2.035310E+04  2.092464E+03 -1.404938E+03 -6.194204E+02
       255  10  8.554224E+04  1.676988E+04  1.362431E+04  2.343980E+03 -1.402923E-09 -2.053310E-09
       255  11  8.361966E+04  1.993730E+04  1.621818E+04 -7.642924E+02 -3.201835E-09  3.990155E-09
       255  12  8.042571E+04  1.870909E+04  1.672627E+04  2.793064E+03 -4.023223E-11  8.765681E-09
       255  13  6.035857E+03 -3.090606E+03 -6.183650E+03  2.452901E+03 -9.642548E-12  9.496405E-09
       255  14  6.673274E+03  7.154615E+02 -2.947834E+03 -8.850196E+02 -5.193360E-10 -1.790470E-08
       255  15  6.035304E+03  1.217718E+02 -1.813210E+03  2.442745E+03  1.765354E-09  9.935753E-09
       255  16 -7.346479E+04 -2.295156E+04 -2.599208E+04  2.561804E+03  9.972299E-10 -7.603715E-09
       255  17 -7.026774E+04 -1.850682E+04 -2.211429E+04 -1.005736E+03  4.258489E-09 -3.322340E-09
       255  18 -6.835009E+04 -1.846596E+04 -2.035311E+04  2.092463E+03  9.617970E-10  4.038342E-10
       255  19  8.554226E+04  1.676988E+04  1.362435E+04  2.343982E+03  4.511815E+03  7.318519E+02
       255  20  8.361967E+04  1.993730E+04  1.621819E+04 -7.642906E+02  2.987630E+03  7.524409E+02
       255  21  8.042571E+04  1.870909E+04  1.672628E+04  2.793065E+03  1.464004E+03  6.196169E+02
       255  22  6.035879E+03 -3.090600E+03 -6.183611E+03  2.452904E+03  4.526124E+03  7.319049E+02
       255  23  6.673284E+03  7.154644E+02 -2.947816E+03 -8.850178E+02  2.980020E+03  7.524218E+02
       255  24  6.035306E+03  1.217727E+02 -1.813205E+03  2.442746E+03  1.434469E+03  6.195186E+02
       255  25 -7.346477E+04 -2.295156E+04 -2.599204E+04  2.561807E+03  4.540432E+03  7.319579E+02
       255  26 -7.026773E+04 -1.850682E+04 -2.211427E+04 -1.005734E+03  2.972411E+03  7.524028E+02
       255  27 -6.835008E+04 -1.846596E+04 -2.035310E+04  2.092464E+03  1.404938E+03  6.194204E+02
       256   1  5.532721E+04  1.180016E+04  1.077082E+04  2.532050E+03 -1.151681E+03 -5.312081E+02
       256   2  5.289516E+04  1.172110E+04  1.087704E+04 -7.619380E+02 -7.918478E+02 -4.410665E+02
       256   3  5.023097E+04  1.102478E+04  1.058832E+04  2.589155E+03 -4.321215E+02 -3.271627E+02
       256   4  6.268094E+03 -4.545044E+02 -1.444144E+03  2.442844E+03 -1.140534E+03 -5.311713E+02
       256   5  6.384281E+03  1.014980E+02 -7.092988E+02 -8.805915E+02 -7.773044E+02 -4.410156E+02
       256   6  6.267744E+03  3.964071E+01 -3.717641E+02  2.441085E+03 -4.141801E+02 -3.270970E+02
       256   7 -4.278884E+04 -1.270935E+04 -1.365929E+04  2.353643E+03 -1.129388E+03 -5.311344E+02
       256   8 -4.012464E+04 -1.151826E+04 -1.229580E+04 -9.992378E+02 -7.627620E+02 -4.409647E+02
       256   9 -3.769373E+04 -1.094565E+04 -1.133199E+04  2.293024E+03 -3.962399E+02 -3.270313E+02
       256  10  5.532721E+04  1.180016E+04  1.077082E+04  2.532049E+03  1.785846E-09 -2.707942E-09
       256  11  5.289516E+04  1.172110E+04  1.087704E+04 -7.619383E+02 -6.088138E-10 -2.732441E-09
       256  12  5.023097E+04  1.102478E+04  1.058832E+04  2.589155E+03  8.466084E-10 -7.749257E-09
       256  13  6.268092E+03 -4.545051E+02 -1.444147E+03  2.442843E+03  2.159476E-09  6.690513E-10
       256  14  6.384280E+03  1.014976E+02 -7.093003E+02 -8.805917E+02 -1.602536E-09 -5.651979E-09
       256  15  6.267744E+03  3.964055E+01 -3.717646E+02  2.441085E+03 -1.050452E-09 -7.545289E-09
       256  16 -4.278884E+04 -1.270935E+04 -1.365929E+04  2.353642E+03 -1.164689E-09 -5.947104E-09
       256  17 -4.012464E+04 -1.151826E+04 -1.229580E+04 -9.992381E+02  1.403799E-09  5.080200E-09
       256  18 -3.769373E+04 -1.094565E+04 -1.133199E+04  2.293023E+03 -1.514634E-09  8.202143E-09
       256  19  5.532721E+04  1.180016E+04  1.077082E+04  2.532050E+03  1.151681E+03  5.312081E+02
       256  20  5.289516E+04  1.172110E+04  1.087704E+04 -7.619380E+02  7.918478E+02  4.410665E+02
       256  21  5.023097E+04  1.102478E+04  1.058832E+04  2.589155E+03  4.321215E+02  3.271627E+02
       256  22  6.268094E+03 -4.545044E+02 -1.444144E+03  2.442844E+03  1.140534E+03  5.311713E+02
       256  23  6.384281E+03  1.014980E+02 -7.092988E+02 -8.805915E+02  7.773044E+02  4.410156E+02
       256  24  6.267744E+03  3.964071E+01 -3.717641E+02  2.441085E+03  4.141801E+02  3.270970E+02
       256  25 -4.278884E+04 -1.270935E+04 -1.365929E+04  2.353643E+03  1.129388E+03  5.311344E+02
       256  26 -4.012464E+04 -1.151826E+04 -1.229580E+04 -9.992378E+02  7.627620E+02  4.409647E+02
       256  27 -3.769373E+04 -1.094565E+04 -1.133199E+04  2.293024E+03  3.962399E+02  3.270313E+02
       257   1  2.498002E+04  4.609042E+03  4.392733E+03  2.489569E+03 -3.733623E+02 -2.592614E+02
       257   2  2.246449E+04  4.030264E+03  4.005851E+03 -8.327056E+02 -3.673845E+02 -1.525495E+02
       257   3  1.988910E+04  3.454009E+03  3.603515E+03  2.480556E+03 -3.614274E+02 -4.274711E+01
       257   4  6.306696E+03 -5.459022E+01 -2.513847E+02  2.439808E+03 -3.582145E+02 -2.592046E+02
       257   5  6.336602E+03  9.807986E-01 -1.192560E+01 -8.781822E+02 -3.517923E+02 -1.524903E+02
       257   6  6.306574E+03  5.899603E+01  2.117704E+02  2.439375E+03 -3.453908E+02 -4.268547E+01
       257   7 -1.236632E+04 -4.718248E+03 -4.895529E+03  2.390047E+03 -3.430672E+02 -2.591479E+02
       257   8 -9.791048E+03 -4.028322E+03 -4.029722E+03 -9.236578E+02 -3.362005E+02 -1.524311E+02
       257   9 -7.275787E+03 -3.336030E+03 -3.179988E+03  2.398195E+03 -3.293545E+02 -4.262384E+01
       257  10  2.498002E+04  4.609042E+03  4.392733E+03  2.489569E+03 -3.121129E-10 -1.001862E-08
       257  11  2.246449E+04  4.030264E+03  4.005851E+03 -8.327057E+02 -2.951349E-09  5.209982E-09
       257  12  1.988910E+04  3.454009E+03  3.603515E+03  2.480556E+03 -2.272539E-10 -1.143047E-09
       257  13  6.306696E+03 -5.459032E+01 -2.513850E+02  2.439808E+03 -2.154004E-09  1.090981E-09
       257  14  6.336602E+03  9.807405E-01 -1.192588E+01 -8.781822E+02  1.607565E-09 -7.001450E-09
       257  15  6.306574E+03  5.899600E+01  2.117702E+02  2.439375E+03 -1.334389E-09 -7.279849E-09
       257  16 -1.236632E+04 -4.718249E+03 -4.895529E+03  2.390047E+03 -1.844825E-10  2.916805E-09
       257  17 -9.791048E+03 -4.028322E+03 -4.029722E+03 -9.236578E+02  3.691471E-09  1.248530E-08
       257  18 -7.275787E+03 -3.336030E+03 -3.179988E+03  2.398195E+03  6.852065E-10 -7.490606E-10
       257  19  2.498002E+04  4.609042E+03  4.392733E+03  2.489569E+03  3.733623E+02  2.592614E+02
       257  20  2.246449E+04  4.030264E+03  4.005851E+03 -8.327056E+02  3.673845E+02  1.525495E+02
       257  21  1.988910E+04  3.454009E+03  3.603515E+03  2.480556E+03  3.614274E+02  4.274711E+01
       257  22  6.306696E+03 -5.459022E+01 -2.513847E+02  2.439808E+03  3.582145E+02  2.592046E+02
       257  23  6.336602E+03  9.807990E-01 -1.192560E+01 -8.781822E+02  3.517923E+02  1.524903E+02
       257  24  6.306574E+03  5.899603E+01  2.117704E+02  2.439375E+03  3.453908E+02  4.268547E+01
       257  25 -1.236632E+04 -4.718248E+03 -4.895529E+03  2.390047E+03  3.430672E+02  2.591479E+02
       257  26 -9.791048E+03 -4.028322E+03 -4.029722E+03 -9.236578E+02  3.362005E+02  1.524311E+02
       257  27 -7.275787E+03 -3.336030E+03 -3.179988E+03  2.398195E+03  3.293545E+02  4.262384E+01
       258   1 -5.352661E+03 -2.922015E+03 -2.588512E+03  2.419610E+03 -4.109774E+02  2.211075E+01
       258   2 -7.940136E+03 -3.622163E+03 -2.884923E+03 -9.213570E+02 -7.451821E+02  1.306308E+02
       258   3 -1.044227E+04 -3.912877E+03 -2.873761E+03  2.372197E+03 -1.079361E+03  2.361159E+02
       258   4  6.338880E+03  4.571607E-01  3.321583E+02  2.439713E+03 -3.949530E+02  2.217240E+01
       258   5  6.296248E+03 -6.534565E+01  6.617080E+02 -8.780695E+02 -7.296018E+02  1.306901E+02
       258   6  6.338990E+03  2.783489E+02  1.299125E+03  2.438659E+03 -1.064226E+03  2.361728E+02
       258   7  1.803054E+04  2.922919E+03  3.252818E+03  2.459815E+03 -3.789282E+02  2.223404E+01
       258   8  2.053282E+04  3.491457E+03  4.208324E+03 -8.347812E+02 -7.140212E+02  1.307494E+02
       258   9  2.312050E+04  4.469554E+03  5.471990E+03  2.505124E+03 -1.049091E+03  2.362297E+02
       258  10 -5.352661E+03 -2.922015E+03 -2.588512E+03  2.419610E+03 -2.543789E-09 -1.702860E-09
       258  11 -7.940136E+03 -3.622164E+03 -2.884924E+03 -9.213569E+02  8.013677E-10 -3.822730E-09
       258  12 -1.044227E+04 -3.912878E+03 -2.873763E+03  2.372197E+03  8.877003E-10 -5.065176E-09
       258  13  6.338880E+03  4.571180E-01  3.321580E+02  2.439713E+03  1.531958E-12  2.748957E-09
       258  14  6.296247E+03 -6.534581E+01  6.617070E+02 -8.780694E+02  5.552381E-10 -6.540500E-09
       258  15  6.338989E+03  2.783485E+02  1.299123E+03  2.438660E+03  1.244267E-09 -8.457341E-09
       258  16  1.803054E+04  2.922919E+03  3.252818E+03  2.459815E+03  2.589328E-09 -8.232736E-10
       258  17  2.053281E+04  3.491457E+03  4.208323E+03 -8.347811E+02  5.825641E-10 -1.808891E-08
       258  18  2.312050E+04  4.469553E+03  5.471988E+03  2.505124E+03  1.374908E-09 -9.535070E-09
       258  19 -5.352661E+03 -2.922015E+03 -2.588512E+03  2.419610E+03  4.109774E+02 -2.211075E+01
       258  20 -7.940136E+03 -3.622163E+03 -2.884923E+03 -9.213570E+02  7.451821E+02 -1.306308E+02
       258  21 -1.044227E+04 -3.912877E+03 -2.873761E+03  2.372197E+03  1.079361E+03 -2.361159E+02
       258  22  6.338880E+03  4.571604E-01  3.321583E+02  2.439713E+03  3.949530E+02 -2.217240E+01
       258  23  6.296248E+03 -6.534565E+01  6.617080E+02 -8.780695E+02  7.296018E+02 -1.306901E+02
       258  24  6.338990E+03  2.783489E+02  1.299125E+03  2.438659E+03  1.064226E+03 -2.361728E+02
       258  25  1.803054E+04  2.922919E+03  3.252818E+03  2.459815E+03  3.789282E+02 -2.223404E+01
       258  26  2.053282E+04  3.491457E+03  4.208324E+03 -8.347812E+02  7.140212E+02 -1.307494E+02
       258  27  2.312050E+04  4.469554E+03  5.471990E+03  2.505124E+03  1.049091E+03 -2.362297E+02
       259   1 -3.557208E+04 -1.054818E+04 -8.814184E+03  2.413892E+03 -1.351780E+03  3.027716E+02
       259   2 -3.851605E+04 -1.156244E+04 -8.314212E+03 -1.032803E+03 -2.783962E+03  4.102648E+02
       259   3 -4.066771E+04 -1.001927E+04 -6.249373E+03  2.156414E+03 -4.216053E+03  4.946512E+02
       259   4  6.495678E+03 -3.711713E+01  1.674021E+03  2.441854E+03 -1.333930E+03  3.028375E+02
       259   5  6.099425E+03 -4.153886E+02  2.800621E+03 -8.793042E+02 -2.769530E+03  4.103155E+02
       259   6  6.496037E+03  1.764282E+03  5.494391E+03  2.435420E+03 -4.205045E+03  4.946870E+02
       259   7  4.856504E+04  1.047382E+04  1.216209E+04  2.469817E+03 -1.316079E+03  3.029034E+02
       259   8  5.071670E+04  1.073152E+04  1.391530E+04 -7.257962E+02 -2.755096E+03  4.103662E+02
       259   9  5.366180E+04  1.354766E+04  1.723799E+04  2.714446E+03 -4.194036E+03  4.947228E+02
       259  10 -3.557208E+04 -1.054818E+04 -8.814188E+03  2.413892E+03 -1.748909E-09 -7.332363E-10
       259  11 -3.851606E+04 -1.156245E+04 -8.314227E+03 -1.032802E+03  2.039470E-09 -2.643059E-09
       259  12 -4.066773E+04 -1.001927E+04 -6.249407E+03  2.156416E+03  2.037546E-09  1.781870E-09
       259  13  6.495676E+03 -3.711771E+01  1.674017E+03  2.441855E+03  1.091744E-09 -3.958431E-09
       259  14  6.099417E+03 -4.153908E+02  2.800606E+03 -8.793033E+02 -1.091532E-09  7.429308E-10
       259  15  6.496018E+03  1.764277E+03  5.494357E+03  2.435422E+03  6.509276E-10  5.994102E-09
       259  16  4.856504E+04  1.047382E+04  1.216209E+04  2.469818E+03  2.369632E-09  3.924147E-09
       259  17  5.071669E+04  1.073152E+04  1.391529E+04 -7.257953E+02  3.592605E-09 -3.628045E-09
       259  18  5.366179E+04  1.354766E+04  1.723795E+04  2.714448E+03 -3.194459E-09  1.454832E-08
       259  19 -3.557208E+04 -1.054818E+04 -8.814184E+03  2.413892E+03  1.351780E+03 -3.027716E+02
       259  20 -3.851605E+04 -1.156244E+04 -8.314212E+03 -1.032803E+03  2.783962E+03 -4.102648E+02
       259  21 -4.066771E+04 -1.001927E+04 -6.249373E+03  2.156414E+03  4.216053E+03 -4.946512E+02
       259  22  6.495678E+03 -3.711713E+01  1.674021E+03  2.441854E+03  1.333930E+03 -3.028375E+02
       259  23  6.099425E+03 -4.153886E+02  2.800621E+03 -8.793042E+02  2.769530E+03 -4.103155E+02
       259  24  6.496037E+03  1.764282E+03  5.494391E+03  2.435420E+03  4.205045E+03 -4.946870E+02
       259  25  4.856504E+04  1.047382E+04  1.216209E+04  2.469817E+03  1.316079E+03 -3.029034E+02
       259  26  5.071670E+04  1.073152E+04  1.391530E+04 -7.257962E+02  2.755096E+03 -4.103662E+02
       259  27  5.366180E+04  1.354766E+04  1.723799E+04  2.714446E+03  4.194036E+03 -4.947228E+02
       260   1 -6.507387E+04 -1.846994E+04 -1.119602E+04  2.840874E+03 -5.354368E+03  5.780197E+02
       260   2 -7.009506E+04 -2.146264E+04 -7.648017E+03 -1.329274E+03 -1.113112E+04  6.873547E+02
       260   3 -7.017233E+04 -7.776181E+03  3.835382E+03  1.121802E+03 -1.690735E+04  6.478281E+02
       260   4  7.418099E+03 -3.617315E+02  6.870774E+03  2.449616E+03 -5.325443E+03  5.781214E+02
       260   5  4.944901E+03 -2.712505E+03  1.104531E+04 -8.800793E+02 -1.112425E+04  6.873674E+02
       260   6  7.418857E+03  1.161863E+04  2.316988E+04  2.411398E+03 -1.692256E+04  6.477442E+02
       260   7  7.991484E+04  1.774608E+04  2.493718E+04  2.058307E+03 -5.296514E+03  5.782230E+02
       260   8  7.998997E+04  1.603721E+04  2.973822E+04 -4.308345E+02 -1.111738E+04  6.873801E+02
       260   9  8.501551E+04  3.101299E+04  4.250393E+04  3.701152E+03 -1.693776E+04  6.476602E+02
       260  10 -6.507390E+04 -1.846995E+04 -1.119608E+04  2.840877E+03  4.658090E-09 -3.818587E-10
       260  11 -7.009520E+04 -2.146268E+04 -7.648251E+03 -1.329268E+03 -1.294864E-09  5.452951E-09
       260  12 -7.017264E+04 -7.776258E+03  3.834844E+03  1.121811E+03 -2.395740E-09 -4.413967E-09
       260  13  7.418069E+03 -3.617395E+02  6.870721E+03  2.449618E+03 -1.083212E-09 -4.346172E-09
       260  14  4.944768E+03 -2.712539E+03  1.104508E+04 -8.800731E+02  1.083068E-09  2.387430E-10
       260  15  7.418550E+03  1.161855E+04  2.316934E+04  2.411407E+03 -1.726843E-09 -2.072492E-09
       260  16  7.991481E+04  1.774607E+04  2.493712E+04  2.058309E+03 -4.640626E-09  3.008408E-09
       260  17  7.998984E+04  1.603717E+04  2.973799E+04 -4.308284E+02  1.169273E-09 -1.787570E-08
       260  18  8.501520E+04  3.101291E+04  4.250339E+04  3.701161E+03  1.114147E-09  3.749746E-09
       260  19 -6.507387E+04 -1.846994E+04 -1.119602E+04  2.840874E+03  5.354368E+03 -5.780197E+02
       260  20 -7.009506E+04 -2.146264E+04 -7.648017E+03 -1.329274E+03  1.113112E+04 -6.873547E+02
       260  21 -7.017233E+04 -7.776181E+03  3.835382E+03  1.121802E+03  1.690735E+04 -6.478281E+02
       260  22  7.418099E+03 -3.617315E+02  6.870774E+03  2.449616E+03  5.325443E+03 -5.781214E+02
       260  23  4.944901E+03 -2.712505E+03  1.104531E+04 -8.800793E+02  1.112425E+04 -6.873674E+02
       260  24  7.418857E+03  1.161863E+04  2.316988E+04  2.411398E+03  1.692256E+04 -6.477442E+02
       260  25  7.991484E+04  1.774608E+04  2.493718E+04  2.058307E+03  5.296514E+03 -5.782230E+02
       260  26  7.998997E+04  1.603721E+04  2.973822E+04 -4.308345E+02  1.111738E+04 -6.873801E+02
       260  27  8.501551E+04  3.101299E+04  4.250393E+04  3.701152E+03  1.693776E+04 -6.476602E+02
       261   1 -8.988746E+04 -2.826186E+04  2.347739E+03  5.998202E+03 -2.165544E+04  8.456579E+02
       261   2 -1.076951E+05 -4.419543E+04  1.638202E+04 -3.034952E+03 -4.483989E+04  1.007894E+03
       261   3 -9.496858E+04  4.949688E+04  7.294252E+04 -5.581035E+03 -6.802111E+04  2.182596E+02
       261   4  1.310734E+04 -2.556917E+03  2.800628E+04  2.479973E+03 -2.155583E+04  8.460850E+02
       261   5 -2.167924E+03 -1.781840E+04  4.266159E+04 -8.680948E+02 -4.488087E+04  1.007625E+03
       261   6  1.311014E+04  7.656039E+04  9.993556E+04  2.270862E+03 -6.820278E+04  2.169414E+02
       261   7  1.161118E+05  2.314728E+04  5.366403E+04 -1.038848E+03 -2.145620E+04  8.465108E+02
       261   8  1.033693E+05  8.557813E+03  6.894032E+04  1.299124E+03 -4.492185E+04  1.007356E+03
       261   9  1.211996E+05  1.036232E+05  1.269277E+05  1.012412E+04 -6.838448E+04  2.156188E+02
       261  10 -8.988796E+04 -2.826199E+04  2.346856E+03  5.998217E+03  4.234217E-10 -1.647398E-09
       261  11 -1.076972E+05 -4.419597E+04  1.637824E+04 -3.034916E+03 -1.658677E-10 -3.034963E-09
       261  12 -9.497354E+04  4.949564E+04  7.293383E+04 -5.581023E+03 -1.435344E-09  4.995350E-09
       261  13  1.310685E+04 -2.557042E+03  2.800540E+04  2.479987E+03  2.150586E-09  6.958909E-09
       261  14 -2.170088E+03 -1.781894E+04  4.265780E+04 -8.680584E+02  1.064525E-09  8.697434E-09
       261  15  1.310515E+04  7.655914E+04  9.992682E+04  2.270874E+03 -1.997103E-09  3.037391E-09
       261  16  1.161113E+05  2.314716E+04  5.366316E+04 -1.038834E+03 -2.505503E-09  1.140677E-08
       261  17  1.033672E+05  8.557270E+03  6.893653E+04  1.299160E+03 -1.542007E-09  9.140701E-09
       261  18  1.211946E+05  1.036220E+05  1.269190E+05  1.012413E+04 -1.243336E-09 -1.254570E-09
       261  19 -8.988746E+04 -2.826186E+04  2.347739E+03  5.998202E+03  2.165544E+04 -8.456579E+02
       261  20 -1.076951E+05 -4.419543E+04  1.638202E+04 -3.034952E+03  4.483989E+04 -1.007894E+03
       261  21 -9.496858E+04  4.949688E+04  7.294252E+04 -5.581035E+03  6.802111E+04 -2.182596E+02
       261  22  1.310734E+04 -2.556917E+03  2.800628E+04  2.479973E+03  2.155583E+04 -8.460850E+02
       261  23 -2.167924E+03 -1.781840E+04  4.266159E+04 -8.680948E+02  4.488087E+04 -1.007625E+03
       261  24  1.311014E+04  7.656039E+04  9.993556E+04  2.270862E+03  6.820278E+04 -2.169414E+02
       261  25  1.161118E+05  2.314728E+04  5.366403E+04 -1.038848E+03  2.145620E+04 -8.465108E+02
       261  26  1.033693E+05  8.557813E+03  6.894032E+04  1.299124E+03  4.492185E+04 -1.007356E+03
       261  27  1.211996E+05  1.036232E+05  1.269277E+05  1.012412E+04  6.838448E+04 -2.156188E+02
       262   1 -2.430450E+05 -1.124917E+06 -2.780170E+05  8.204407E+04 -3.756266E+03 -1.180141E+05
       262   2 -6.984157E+04 -1.025936E+06 -1.642271E+05  2.387967E+04 -1.121262E+04 -7.172504E+04
       262   3 -6.629176E+04 -9.749418E+05 -1.229415E+05  2.397973E+04 -8.575695E+03 -2.540735E+04
       262   4 -1.334146E+05 -6.868252E+05 -1.695852E+05  4.073520E+04 -3.762322E+03 -1.121196E+05
       262   5  2.027262E+04 -6.632366E+05 -7.700178E+04  1.176212E+04 -1.121319E+04 -7.064364E+04
       262   6  5.195293E+03 -6.867729E+05 -5.354197E+04  4.105656E+04 -8.569013E+03 -2.914501E+04
       262   7 -2.379222E+04 -2.485553E+05 -6.116673E+04 -6.028144E+02 -3.769162E+03 -1.062210E+05
       262   8  1.103777E+05 -3.004168E+05  1.021425E+04 -3.624808E+02 -1.121379E+04 -6.956160E+04
       262   9  7.667741E+04 -3.985273E+05  1.585180E+04  5.814138E+04 -8.562539E+03 -3.288441E+04
       262  10 -2.430487E+05 -1.124932E+06 -2.780432E+05  8.204371E+04  1.166760E-10  4.326023E-09
       262  11 -6.984309E+04 -1.025941E+06 -1.642370E+05  2.387903E+04 -3.793676E-09  7.586305E-09
       262  12 -6.629201E+04 -9.749425E+05 -1.229428E+05  2.397955E+04  2.022836E-09  7.845142E-09
       262  13 -1.334180E+05 -6.868387E+05 -1.696089E+05  4.073486E+04 -9.568901E-10  3.160965E-11
       262  14  2.027114E+04 -6.632420E+05 -7.701140E+04  1.176149E+04 -4.451203E-09 -3.221959E-09
       262  15  5.194986E+03 -6.867739E+05 -5.354371E+04  4.105635E+04  1.667868E-09  3.255566E-09
       262  16 -2.379527E+04 -2.485674E+05 -6.118797E+04 -6.031368E+02  1.147171E-09  4.191388E-09
       262  17  1.103763E+05 -3.004221E+05  1.020492E+04 -3.631091E+02  2.473839E-09 -4.734200E-09
       262  18  7.667704E+04 -3.985285E+05  1.584963E+04  5.814115E+04  4.863886E-10 -7.169051E-09
       262  19 -2.430450E+05 -1.124917E+06 -2.780170E+05  8.204407E+04  3.756266E+03  1.180141E+05
       262  20 -6.984157E+04 -1.025936E+06 -1.642271E+05  2.387967E+04  1.121262E+04  7.172504E+04
       262  21 -6.629176E+04 -9.749418E+05 -1.229415E+05  2.397973E+04  8.575695E+03  2.540735E+04
       262  22 -1.334146E+05 -6.868252E+05 -1.695852E+05  4.073520E+04  3.762322E+03  1.121196E+05
       262  23  2.027262E+04 -6.632366E+05 -7.700178E+04  1.176212E+04  1.121319E+04  7.064364E+04
       262  24  5.195293E+03 -6.867729E+05 -5.354197E+04  4.105656E+04  8.569013E+03  2.914501E+04
       262  25 -2.379222E+04 -2.485553E+05 -6.116673E+04 -6.028144E+02  3.769162E+03  1.062210E+05
       262  26  1.103777E+05 -3.004168E+05  1.021425E+04 -3.624808E+02  1.121379E+04  6.956160E+04
       262  27  7.667741E+04 -3.985273E+05  1.585180E+04  5.814138E+04  8.562539E+03  3.288441E+04
       263   1 -5.884036E+04 -8.590417E+05 -9.082179E+04  4.717437E+04 -5.323810E+03 -1.946106E+04
       263   2 -2.177293E+04 -7.779151E+05 -6.076812E+04  1.177829E+04 -3.162394E+03 -1.017790E+03
       263   3 -1.943838E+04 -7.075891E+05 -5.135739E+04  3.570272E+04 -6.579576E+02  1.742773E+04
       263   4 -1.402161E+04 -6.786912E+05 -4.736343E+04  4.118209E+04 -5.321753E+03 -2.043479E+04
       263   5  4.204716E+03 -6.733015E+05 -3.558172E+04  1.152393E+04 -3.160339E+03 -2.152312E+03
       263   6 -1.227017E+04 -6.786877E+05 -4.432758E+04  4.118636E+04 -6.556076E+02  1.613020E+04
       263   7  3.079489E+04 -4.983109E+05 -3.907365E+03  3.518808E+04 -5.319677E+03 -2.140880E+04
       263   8  3.018157E+04 -5.686779E+05 -1.039610E+04  1.126954E+04 -3.158283E+03 -3.287026E+03
       263   9 -5.101905E+03 -6.497855E+05 -3.729782E+04  4.667026E+04 -6.532806E+02  1.483261E+04
       263  10 -5.884049E+04 -8.590421E+05 -9.082256E+04  4.717429E+04  8.969345E-10 -6.683526E-11
       263  11 -2.177294E+04 -7.779151E+05 -6.076814E+04  1.177829E+04 -1.806610E-09  5.969887E-09
       263  12 -1.943847E+04 -7.075894E+05 -5.135796E+04  3.570273E+04  2.183782E-09  8.223936E-09
       263  13 -1.402175E+04 -6.786917E+05 -4.736427E+04  4.118200E+04  2.655954E-09  2.156638E-09
       263  14  4.204705E+03 -6.733015E+05 -3.558175E+04  1.152393E+04 -4.493594E-09 -3.644632E-09
       263  15 -1.227024E+04 -6.786880E+05 -4.432807E+04  4.118637E+04 -4.311768E-10  6.717066E-10
       263  16  3.079474E+04 -4.983114E+05 -3.908281E+03  3.518799E+04  2.530421E-10  7.494863E-09
       263  17  3.018155E+04 -5.686779E+05 -1.039613E+04  1.126953E+04 -1.130502E-09 -5.799992E-09
       263  18 -5.101965E+03 -6.497857E+05 -3.729823E+04  4.667027E+04 -1.678023E-09 -6.935155E-09
       263  19 -5.884036E+04 -8.590417E+05 -9.082179E+04  4.717437E+04  5.323810E+03  1.946106E+04
       263  20 -2.177293E+04 -7.779151E+05 -6.076812E+04  1.177829E+04  3.162394E+03  1.017790E+03
       263  21 -1.943838E+04 -7.075891E+05 -5.135739E+04  3.570272E+04  6.579576E+02 -1.742773E+04
       263  22 -1.402161E+04 -6.786912E+05 -4.736343E+04  4.118209E+04  5.321753E+03  2.043479E+04
       263  23  4.204716E+03 -6.733015E+05 -3.558172E+04  1.152393E+04  3.160339E+03  2.152312E+03
       263  24 -1.227017E+04 -6.786877E+05 -4.432758E+04  4.118636E+04  6.556076E+02 -1.613020E+04
       263  25  3.079489E+04 -4.983109E+05 -3.907365E+03  3.518808E+04  5.319677E+03  2.140880E+04
       263  26  3.018157E+04 -5.686779E+05 -1.039610E+04  1.126954E+04  3.158283E+03  3.287026E+03
       263  27 -5.101905E+03 -6.497855E+05 -3.729782E+04  4.667026E+04  6.532806E+02 -1.483261E+04
       264   1  2.393017E+04 -6.062791E+05 -3.006332E+04  5.666617E+04  2.039782E+03  2.696400E+04
       264   2  5.650483E+04 -5.098759E+05 -3.187071E+04  1.152917E+03  4.801199E+03  6.138245E+04
       264   3 -6.050230E+04 -4.550428E+05 -9.342429E+04  4.608855E+03  1.763071E+03  9.579454E+04
       264   4  4.273341E+03 -6.856355E+05 -4.925200E+04  4.118716E+04  2.043792E+03  2.421627E+04
       264   5  1.805398E+04 -6.646199E+05 -6.905676E+04  1.158500E+04  4.802246E+03  6.140711E+04
       264   6 -1.182523E+05 -6.856774E+05 -1.505474E+05  4.095476E+04  1.763387E+03  9.858726E+04
       264   7 -1.538304E+04 -7.649856E+05 -6.844097E+04  2.571015E+04  2.047939E+03  2.146889E+04
       264   8 -2.039821E+04 -8.193418E+05 -1.062445E+05  2.201447E+04  4.803295E+03  6.143176E+04
       264   9 -1.760014E+05 -9.162609E+05 -2.076738E+05  7.728717E+04  1.764030E+03  1.013789E+05
       264  10  2.392997E+04 -6.062798E+05 -3.006470E+04  5.666612E+04  1.093108E-09  8.004082E-10
       264  11  5.650379E+04 -5.098800E+05 -3.187784E+04  1.152680E+03  2.235921E-09  6.269485E-09
       264  12 -6.050477E+04 -4.550526E+05 -9.344155E+04  4.608719E+03 -1.291706E-09  5.404667E-09
       264  13  4.273179E+03 -6.856361E+05 -4.925311E+04  4.118712E+04  3.868809E-09  1.128600E-09
       264  14  1.805294E+04 -6.646240E+05 -6.906389E+04  1.158476E+04 -2.430409E-09 -2.441132E-09
       264  15 -1.182549E+05 -6.856879E+05 -1.505657E+05  4.095463E+04  1.684803E-09  1.596075E-09
       264  16 -1.538317E+04 -7.649861E+05 -6.844185E+04  2.571012E+04  1.557174E-09  5.616544E-09
       264  17 -2.039925E+04 -8.193458E+05 -1.062516E+05  2.201423E+04  3.773215E-09 -4.009008E-09
       264  18 -1.760041E+05 -9.162719E+05 -2.076931E+05  7.728702E+04  8.937420E-10 -6.522971E-09
       264  19  2.393017E+04 -6.062791E+05 -3.006332E+04  5.666617E+04 -2.039782E+03 -2.696400E+04
       264  20  5.650483E+04 -5.098759E+05 -3.187071E+04  1.152917E+03 -4.801199E+03 -6.138245E+04
       264  21 -6.050230E+04 -4.550428E+05 -9.342429E+04  4.608855E+03 -1.763071E+03 -9.579454E+04
       264  22  4.273341E+03 -6.856355E+05 -4.925200E+04  4.118716E+04 -2.043792E+03 -2.421627E+04
       264  23  1.805398E+04 -6.646199E+05 -6.905676E+04  1.158500E+04 -4.802246E+03 -6.140711E+04
       264  24 -1.182523E+05 -6.856774E+05 -1.505474E+05  4.095476E+04 -1.763387E+03 -9.858726E+04
       264  25 -1.538304E+04 -7.649856E+05 -6.844097E+04  2.571015E+04 -2.047939E+03 -2.146889E+04
       264  26 -2.039821E+04 -8.193418E+05 -1.062445E+05  2.201447E+04 -4.803295E+03 -6.143176E+04
       264  27 -1.760014E+05 -9.162609E+05 -2.076738E+05  7.728717E+04 -1.764030E+03 -1.013789E+05
       265   1  9.442668E+05  3.206502E+05  2.063873E+05  3.317743E+05  9.002000E+04  3.097867E+04
       265   2  9.116225E+05  1.812046E+05  1.203974E+05  3.371612E+05  5.866425E+04  1.313892E+04
       265   3  9.175491E+05  1.781513E+05  9.316395E+04  3.247222E+05  2.501404E+04  1.372494E+03
       265   4  6.996759E+05  2.003456E+05  1.343285E+05  2.364257E+05  8.627248E+04  2.955718E+04
       265   5  6.736960E+05  8.358834E+04  5.588377E+04  2.638041E+05  5.766064E+04  1.275827E+04
       265   6  6.857617E+05  1.027080E+05  3.403991E+04  2.733519E+05  2.675320E+04  2.030877E+03
       265   7  4.551466E+05  8.005883E+04  6.226457E+04  1.411158E+05  8.252660E+04  2.813673E+04
       265   8  4.358248E+05 -1.402125E+04 -8.634757E+03  1.904735E+05  5.665745E+04  1.237780E+04
       265   9  4.540252E+05  2.726455E+04 -2.508855E+04  2.219972E+05  2.849166E+04  2.689077E+03
       265  10  9.442578E+05  3.206470E+05  2.063703E+05  3.317721E+05 -4.128054E-09  9.197564E-10
       265  11  9.116188E+05  1.812034E+05  1.203906E+05  3.371605E+05 -4.789342E-09  7.298441E-09
       265  12  9.175484E+05  1.781512E+05  9.316277E+04  3.247222E+05 -2.274839E-09  2.853368E-09
       265  13  6.996677E+05  2.003427E+05  1.343129E+05  2.364237E+05 -1.052419E-09 -4.262285E-09
       265  14  6.736924E+05  8.358728E+04  5.587723E+04  2.638035E+05 -4.468162E-09 -9.490429E-09
       265  15  6.857609E+05  1.027078E+05  3.403856E+04  2.733519E+05 -2.116791E-09  1.963113E-09
       265  16  4.551391E+05  8.005616E+04  6.225030E+04  1.411139E+05  2.672337E-09  2.284606E-09
       265  17  4.358213E+05 -1.402227E+04 -8.641072E+03  1.904729E+05 -3.979594E-09  5.933538E-09
       265  18  4.540243E+05  2.726432E+04 -2.509009E+04  2.219971E+05 -2.412129E-09  9.172619E-09
       265  19  9.442668E+05  3.206502E+05  2.063873E+05  3.317743E+05 -9.002000E+04 -3.097867E+04
       265  20  9.116225E+05  1.812046E+05  1.203974E+05  3.371612E+05 -5.866425E+04 -1.313892E+04
       265  21  9.175491E+05  1.781513E+05  9.316395E+04  3.247222E+05 -2.501404E+04 -1.372494E+03
       265  22  6.996759E+05  2.003456E+05  1.343285E+05  2.364257E+05 -8.627248E+04 -2.955718E+04
       265  23  6.736960E+05  8.358834E+04  5.588377E+04  2.638041E+05 -5.766064E+04 -1.275827E+04
       265  24  6.857617E+05  1.027080E+05  3.403991E+04  2.733519E+05 -2.675320E+04 -2.030877E+03
       265  25  4.551466E+05  8.005883E+04  6.226457E+04  1.411158E+05 -8.252660E+04 -2.813673E+04
       265  26  4.358248E+05 -1.402125E+04 -8.634757E+03  1.904735E+05 -5.665745E+04 -1.237780E+04
       265  27  4.540252E+05  2.726455E+04 -2.508855E+04  2.219972E+05 -2.849166E+04 -2.689077E+03
       266   1  8.711165E+05  1.913211E+05  7.870379E+04  3.201464E+05  2.131800E+04  1.561664E+03
       266   2  8.549285E+05  1.635723E+05  5.879481E+04  3.098629E+05  1.407576E+04 -7.989599E+02
       266   3  8.328634E+05  1.621343E+05  4.804614E+04  3.098584E+05  6.642461E+03 -2.654806E+03
       266   4  6.814823E+05  1.167829E+05  2.773788E+04  2.650624E+05  2.134997E+04  1.573505E+03
       266   5  6.836558E+05  9.813176E+04  1.320916E+04  2.620128E+05  1.433691E+04 -7.002251E+02
       266   6  6.799081E+05  1.057486E+05  7.661403E+03  2.692420E+05  7.132551E+03 -2.469256E+03
       266   7  4.918828E+05  4.224770E+04 -2.323121E+04  2.099937E+05  2.138192E+04  1.585343E+03
       266   8  5.124117E+05  3.269331E+04 -3.237898E+04  2.141748E+05  1.459798E+04 -6.015214E+02
       266   9  5.269758E+05  4.936418E+04 -3.272523E+04  2.286346E+05  7.622507E+03 -2.283753E+03
       266  10  8.711160E+05  1.913210E+05  7.870294E+04  3.201464E+05 -2.699903E-09  1.524585E-09
       266  11  8.549283E+05  1.635723E+05  5.879444E+04  3.098629E+05  6.676432E-10  5.876718E-09
       266  12  8.328633E+05  1.621342E+05  4.804605E+04  3.098585E+05  7.143101E-10  5.641676E-09
       266  13  6.814818E+05  1.167828E+05  2.773702E+04  2.650623E+05  4.842773E-10  4.221835E-09
       266  14  6.836556E+05  9.813171E+04  1.320878E+04  2.620128E+05 -2.235936E-09 -2.229765E-08
       266  15  6.799081E+05  1.057485E+05  7.661296E+03  2.692420E+05 -2.759347E-09  1.255377E-09
       266  16  4.918823E+05  4.224757E+04 -2.323207E+04  2.099937E+05 -9.899896E-10  8.906367E-09
       266  17  5.124115E+05  3.269325E+04 -3.237938E+04  2.141748E+05 -9.332175E-10 -1.261520E-10
       266  18  5.269757E+05  4.936416E+04 -3.272535E+04  2.286346E+05 -1.164008E-09  9.892319E-09
       266  19  8.711165E+05  1.913211E+05  7.870379E+04  3.201464E+05 -2.131800E+04 -1.561664E+03
       266  20  8.549285E+05  1.635723E+05  5.879481E+04  3.098629E+05 -1.407576E+04  7.989599E+02
       266  21  8.328634E+05  1.621343E+05  4.804614E+04  3.098584E+05 -6.642461E+03  2.654806E+03
       266  22  6.814823E+05  1.167829E+05  2.773788E+04  2.650624E+05 -2.134997E+04 -1.573505E+03
       266  23  6.836558E+05  9.813176E+04  1.320916E+04  2.620128E+05 -1.433691E+04  7.002251E+02
       266  24  6.799081E+05  1.057486E+05  7.661403E+03  2.692420E+05 -7.132551E+03  2.469256E+03
       266  25  4.918828E+05  4.224770E+04 -2.323121E+04  2.099937E+05 -2.138192E+04 -1.585343E+03
       266  26  5.124117E+05  3.269331E+04 -3.237898E+04  2.141748E+05 -1.459798E+04  6.015214E+02
       266  27  5.269758E+05  4.936418E+04 -3.272523E+04  2.286346E+05 -7.622507E+03  2.283753E+03
       267   1  8.009055E+05  1.534268E+05  3.824071E+04  3.019205E+05  5.469100E+03 -2.458476E+03
       267   2  7.871438E+05  1.386303E+05  3.027281E+04  2.901332E+05  3.576185E+03 -2.279160E+03
       267   3  7.623632E+05  1.372939E+05  2.393112E+04  2.913788E+05  1.669451E+03 -2.063918E+03
       267   4  6.793989E+05  1.072445E+05  5.999589E+03  2.682106E+05  5.813135E+03 -2.328212E+03
       267   5  6.848229E+05  9.990408E+04  3.104189E+03  2.619263E+05  3.936705E+03 -2.142599E+03
       267   6  6.792248E+05  1.060209E+05  1.822335E+03  2.686749E+05  2.046403E+03 -1.921076E+03
       267   7  5.579062E+05  6.106309E+04 -2.624290E+04  2.345066E+05  6.157096E+03 -2.197976E+03
       267   8  5.825120E+05  6.117847E+04 -2.406538E+04  2.337235E+05  4.297160E+03 -2.006062E+03
       267   9  5.960930E+05  7.474827E+04 -2.028705E+04  2.459736E+05  2.423301E+03 -1.778255E+03
       267  10  8.009055E+05  1.534267E+05  3.824064E+04  3.019205E+05  6.264365E-09  1.380483E-09
       267  11  7.871438E+05  1.386303E+05  3.027277E+04  2.901332E+05 -1.234132E-09 -2.916660E-09
       267  12  7.623632E+05  1.372939E+05  2.393111E+04  2.913788E+05 -3.554927E-09 -3.276920E-09
       267  13  6.793989E+05  1.072445E+05  5.999516E+03  2.682106E+05 -7.246787E-10  4.017636E-09
       267  14  6.848229E+05  9.990407E+04  3.104151E+03  2.619263E+05  3.552915E-09 -5.581092E-09
       267  15  6.792248E+05  1.060209E+05  1.822320E+03  2.686749E+05 -2.432018E-09 -1.810237E-09
       267  16  5.579061E+05  6.106307E+04 -2.624298E+04  2.345067E+05 -5.943281E-09  7.799946E-09
       267  17  5.825119E+05  6.117846E+04 -2.406542E+04  2.337235E+05  1.777391E-09 -1.200270E-10
       267  18  5.960930E+05  7.474826E+04 -2.028707E+04  2.459736E+05  3.093146E-09  1.354094E-08
       267  19  8.009055E+05  1.534268E+05  3.824071E+04  3.019205E+05 -5.469100E+03  2.458476E+03
       267  20  7.871438E+05  1.386303E+05  3.027281E+04  2.901332E+05 -3.576185E+03  2.279160E+03
       267  21  7.623632E+05  1.372939E+05  2.393112E+04  2.913788E+05 -1.669451E+03  2.063918E+03
       267  22  6.793989E+05  1.072445E+05  5.999589E+03  2.682106E+05 -5.813135E+03  2.328212E+03
       267  23  6.848229E+05  9.990408E+04  3.104189E+03  2.619263E+05 -3.936705E+03  2.142599E+03
       267  24  6.792248E+05  1.060209E+05  1.822335E+03  2.686749E+05 -2.046403E+03  1.921076E+03
       267  25  5.579062E+05  6.106309E+04 -2.624290E+04  2.345066E+05 -6.157096E+03  2.197976E+03
       267  26  5.825120E+05  6.117847E+04 -2.406538E+04  2.337235E+05 -4.297160E+03  2.006062E+03
       267  27  5.960930E+05  7.474827E+04 -2.028705E+04  2.459736E+05 -2.423301E+03  1.778255E+03
       268   1  7.326074E+05  1.263585E+05  1.556433E+04  2.832580E+05  1.230832E+03 -1.680027E+03
       268   2  7.193158E+05  1.131441E+05  1.006498E+04  2.714270E+05  4.516167E+02 -1.048728E+03
       268   3  6.944829E+05  1.118236E+05  4.972693E+03  2.727585E+05 -3.279316E+02 -4.166903E+02
       268   4  6.791787E+05  1.061486E+05  1.449488E+03  2.685241E+05  1.595137E+03 -1.541954E+03
       268   5  6.849418E+05  1.001464E+05  9.396390E+02  2.619639E+05  8.162906E+02 -9.104998E+02
       268   6  6.791632E+05  1.060381E+05  8.366329E+02  2.685662E+05  3.709322E+01 -2.783105E+02
       268   7  6.257528E+05  8.593895E+04 -1.266556E+04  2.537915E+05  1.959407E+03 -1.403895E+03
       268   8  6.505689E+05  8.714876E+04 -8.185799E+03  2.525014E+05  1.180942E+03 -7.722801E+02
       268   9  6.638436E+05  1.002526E+05 -3.299459E+03  2.643740E+05  4.021090E+02 -1.399341E+02
       268  10  7.326074E+05  1.263585E+05  1.556432E+04  2.832580E+05  4.096045E-09  8.494884E-11
       268  11  7.193158E+05  1.131441E+05  1.006497E+04  2.714270E+05  6.556908E-09  2.925553E-09
       268  12  6.944829E+05  1.118236E+05  4.972693E+03  2.727585E+05 -3.625534E-10 -3.048746E-09
       268  13  6.791787E+05  1.061486E+05  1.449478E+03  2.685241E+05 -5.604565E-10  4.408307E-09
       268  14  6.849418E+05  1.001464E+05  9.396361E+02  2.619639E+05  8.855293E-10 -5.776474E-09
       268  15  6.791632E+05  1.060381E+05  8.366328E+02  2.685662E+05 -4.518552E-09 -1.309586E-08
       268  16  6.257528E+05  8.593895E+04 -1.266557E+04  2.537915E+05 -3.495662E-09  1.060707E-08
       268  17  6.505689E+05  8.714875E+04 -8.185803E+03  2.525014E+05  4.961591E-09  1.526756E-08
       268  18  6.638436E+05  1.002526E+05 -3.299459E+03  2.643740E+05  1.125274E-09  1.576477E-09
       268  19  7.326074E+05  1.263585E+05  1.556433E+04  2.832580E+05 -1.230832E+03  1.680027E+03
       268  20  7.193158E+05  1.131441E+05  1.006498E+04  2.714270E+05 -4.516167E+02  1.048728E+03
       268  21  6.944829E+05  1.118236E+05  4.972693E+03  2.727585E+05  3.279316E+02  4.166903E+02
       268  22  6.791787E+05  1.061486E+05  1.449488E+03  2.685241E+05 -1.595137E+03  1.541954E+03
       268  23  6.849418E+05  1.001464E+05  9.396390E+02  2.619639E+05 -8.162906E+02  9.104998E+02
       268  24  6.791632E+05  1.060381E+05  8.366329E+02  2.685662E+05 -3.709322E+01  2.783105E+02
       268  25  6.257528E+05  8.593895E+04 -1.266556E+04  2.537915E+05 -1.959407E+03  1.403895E+03
       268  26  6.505689E+05  8.714876E+04 -8.185799E+03  2.525014E+05 -1.180942E+03  7.722801E+02
       268  27  6.638436E+05  1.002526E+05 -3.299459E+03  2.643740E+05 -4.021090E+02  1.399341E+02
       269   1  6.650995E+05  1.007273E+05 -2.915986E+03  2.647361E+05 -6.494062E+02  1.558492E+00
       269   2  6.518154E+05  8.761624E+04 -7.567899E+03  2.528520E+05 -1.570696E+03  5.797435E+02
       269   3  6.270454E+05  8.648144E+04 -1.168404E+04  2.541115E+05 -2.491587E+03  1.157202E+03
       269   4  6.791715E+05  1.060289E+05  8.865644E+02  2.685724E+05 -2.844554E+02  1.399109E+02
       269   5  6.849280E+05  1.001348E+05  1.222447E+03  2.619650E+05 -1.206123E+03  7.179351E+02
       269   6  6.791981E+05  1.062168E+05  2.094366E+03  2.685010E+05 -2.127411E+03  1.295226E+03
       269   7  6.932437E+05  1.113305E+05  4.689098E+03  2.724087E+05  8.050451E+01  2.782667E+02
       269   8  7.180415E+05  1.126533E+05  1.001269E+04  2.710784E+05 -8.415281E+02  8.561347E+02
       269   9  7.313534E+05  1.259523E+05  1.587250E+04  2.828915E+05 -1.763202E+03  1.433263E+03
       269  10  6.650995E+05  1.007273E+05 -2.915987E+03  2.647361E+05  7.204545E-10 -1.230554E-08
       269  11  6.518154E+05  8.761624E+04 -7.567904E+03  2.528520E+05 -7.581868E-10 -2.912926E-08
       269  12  6.270454E+05  8.648144E+04 -1.168405E+04  2.541115E+05  2.219891E-10 -1.662284E-08
       269  13  6.791715E+05  1.060289E+05  8.865642E+02  2.685724E+05 -4.806429E-09 -3.662318E-09
       269  14  6.849280E+05  1.001347E+05  1.222444E+03  2.619650E+05  2.226644E-09 -7.258088E-09
       269  15  6.791981E+05  1.062168E+05  2.094354E+03  2.685010E+05  3.162244E-09  1.338181E-09
       269  16  6.932437E+05  1.113305E+05  4.689098E+03  2.724087E+05  2.648274E-10  4.419649E-09
       269  17  7.180415E+05  1.126533E+05  1.001268E+04  2.710784E+05  5.113715E-09 -5.381732E-10
       269  18  7.313534E+05  1.259523E+05  1.587249E+04  2.828915E+05  6.410614E-09  1.205564E-10
       269  19  6.650995E+05  1.007273E+05 -2.915986E+03  2.647361E+05  6.494062E+02 -1.558492E+00
       269  20  6.518154E+05  8.761624E+04 -7.567899E+03  2.528520E+05  1.570696E+03 -5.797435E+02
       269  21  6.270454E+05  8.648144E+04 -1.168404E+04  2.541115E+05  2.491587E+03 -1.157202E+03
       269  22  6.791715E+05  1.060289E+05  8.865644E+02  2.685724E+05  2.844554E+02 -1.399109E+02
       269  23  6.849280E+05  1.001348E+05  1.222447E+03  2.619650E+05  1.206123E+03 -7.179351E+02
       269  24  6.791981E+05  1.062168E+05  2.094366E+03  2.685010E+05  2.127411E+03 -1.295226E+03
       269  25  6.932437E+05  1.113305E+05  4.689098E+03  2.724087E+05 -8.050451E+01 -2.782667E+02
       269  26  7.180415E+05  1.126533E+05  1.001269E+04  2.710784E+05  8.415281E+02 -8.561347E+02
       269  27  7.313534E+05  1.259523E+05  1.587250E+04  2.828915E+05  1.763202E+03 -1.433263E+03
       270   1  5.973601E+05  7.527267E+04 -1.908139E+04  2.464329E+05 -3.079765E+03  1.484404E+03
       270   2  5.837016E+05  6.152615E+04 -2.214429E+04  2.340632E+05 -5.759218E+03  1.406841E+03
       270   3  5.594473E+05  6.207139E+04 -2.277853E+04  2.345318E+05 -8.424762E+03  1.293310E+03
       270   4  6.792904E+05  1.059995E+05  2.691403E+03  2.687102E+05 -2.702957E+03  1.627193E+03
       270   5  6.847200E+05  9.978826E+04  4.686933E+03  2.619359E+05 -5.398998E+03  1.543291E+03
       270   6  6.795570E+05  1.078718E+05  9.124081E+03  2.679999E+05 -8.081208E+03  1.423393E+03
       270   7  7.612273E+05  1.367269E+05  2.446367E+04  2.909902E+05 -2.326093E+03  1.770003E+03
       270   8  7.857484E+05  1.380511E+05  3.151731E+04  2.898128E+05 -5.038713E+03  1.679766E+03
       270   9  7.996806E+05  1.536732E+05  4.102544E+04  3.014739E+05 -7.737581E+03  1.553504E+03
       270  10  5.973601E+05  7.527267E+04 -1.908141E+04  2.464329E+05 -3.269848E-09 -7.669343E-09
       270  11  5.837016E+05  6.152613E+04 -2.214436E+04  2.340632E+05  1.405728E-09 -9.759878E-10
       270  12  5.594472E+05  6.207137E+04 -2.277866E+04  2.345318E+05  8.500873E-09 -4.622106E-09
       270  13  6.792904E+05  1.059995E+05  2.691385E+03  2.687102E+05  1.334339E-09 -4.879096E-09
       270  14  6.847200E+05  9.978825E+04  4.686874E+03  2.619360E+05  1.596587E-09  4.163998E-09
       270  15  6.795569E+05  1.078718E+05  9.123955E+03  2.679999E+05  2.511619E-09  9.759199E-09
       270  16  7.612273E+05  1.367269E+05  2.446365E+04  2.909902E+05  5.748640E-09  6.570657E-09
       270  17  7.857484E+05  1.380511E+05  3.151726E+04  2.898129E+05  1.294296E-10  1.923226E-08
       270  18  7.996805E+05  1.536732E+05  4.102532E+04  3.014739E+05 -4.949536E-09 -8.116073E-09
       270  19  5.973601E+05  7.527267E+04 -1.908139E+04  2.464329E+05  3.079765E+03 -1.484404E+03
       270  20  5.837016E+05  6.152615E+04 -2.214429E+04  2.340632E+05  5.759218E+03 -1.406841E+03
       270  21  5.594473E+05  6.207139E+04 -2.277853E+04  2.345318E+05  8.424762E+03 -1.293310E+03
       270  22  6.792904E+05  1.059995E+05  2.691403E+03  2.687102E+05  2.702957E+03 -1.627193E+03
       270  23  6.847200E+05  9.978826E+04  4.686933E+03  2.619359E+05  5.398998E+03 -1.543291E+03
       270  24  6.795570E+05  1.078718E+05  9.124081E+03  2.679999E+05  8.081208E+03 -1.423393E+03
       270  25  7.612273E+05  1.367269E+05  2.446367E+04  2.909902E+05  2.326093E+03 -1.770003E+03
       270  26  7.857484E+05  1.380511E+05  3.151731E+04  2.898128E+05  5.038713E+03 -1.679766E+03
       270  27  7.996806E+05  1.536732E+05  4.102544E+04  3.014739E+05  7.737581E+03 -1.553504E+03
       271   1  5.282016E+05  5.020493E+04 -2.837503E+04  2.298980E+05 -1.046667E+04  1.160031E+03
       271   2  5.132508E+05  3.191240E+04 -2.510215E+04  2.143271E+05 -2.105434E+04 -1.889954E+03
       271   3  4.956058E+05  4.724807E+04 -8.316115E+03  2.071998E+05 -3.145156E+04 -5.441295E+03
       271   4  6.803709E+05  1.055518E+05  1.166460E+04  2.695313E+05 -9.977849E+03  1.345132E+03
       271   5  6.828979E+05  9.713470E+04  2.013657E+04  2.621213E+05 -2.079392E+04 -1.791517E+03
       271   6  6.827730E+05  1.223868E+05  4.229966E+04  2.631545E+05 -3.141990E+04 -5.429718E+03
       271   7  8.325621E+05  1.608994E+05  5.170215E+04  3.091732E+05 -9.488896E+03  1.530277E+03
       271   8  8.525726E+05  1.623591E+05  6.537277E+04  3.099273E+05 -2.053342E+04 -1.693049E+03
       271   9  8.699746E+05  1.975291E+05  9.291243E+04  3.191250E+05 -3.138824E+04 -5.418135E+03
       271  10  5.282014E+05  5.020490E+04 -2.837523E+04  2.298980E+05  2.038797E-11 -6.698088E-09
       271  11  5.132504E+05  3.191228E+04 -2.510299E+04  2.143271E+05 -4.011681E-09  1.278247E-08
       271  12  4.956047E+05  4.724777E+04 -8.318028E+03  2.071996E+05 -4.894066E-09 -1.281333E-09
       271  13  6.803708E+05  1.055517E+05  1.166441E+04  2.695314E+05 -1.117135E-09 -9.195845E-09
       271  14  6.828974E+05  9.713458E+04  2.013575E+04  2.621213E+05 -3.383072E-10  1.446749E-08
       271  15  6.827720E+05  1.223865E+05  4.229775E+04  2.631544E+05  2.202809E-09  3.493952E-09
       271  16  8.325620E+05  1.608994E+05  5.170198E+04  3.091732E+05  4.334787E-09 -1.620188E-10
       271  17  8.525722E+05  1.623589E+05  6.537197E+04  3.099273E+05  2.228238E-09 -9.464904E-09
       271  18  8.699736E+05  1.975288E+05  9.291053E+04  3.191249E+05  2.974847E-09  1.658375E-08
       271  19  5.282016E+05  5.020493E+04 -2.837503E+04  2.298980E+05  1.046667E+04 -1.160031E+03
       271  20  5.132508E+05  3.191240E+04 -2.510215E+04  2.143271E+05  2.105434E+04  1.889954E+03
       271  21  4.956058E+05  4.724807E+04 -8.316115E+03  2.071998E+05  3.145156E+04  5.441295E+03
       271  22  6.803709E+05  1.055518E+05  1.166460E+04  2.695313E+05  9.977849E+03 -1.345132E+03
       271  23  6.828979E+05  9.713470E+04  2.013657E+04  2.621213E+05  2.079392E+04  1.791517E+03
       271  24  6.827730E+05  1.223868E+05  4.229966E+04  2.631545E+05  3.141990E+04  5.429718E+03
       271  25  8.325621E+05  1.608994E+05  5.170215E+04  3.091732E+05  9.488896E+03 -1.530277E+03
       271  26  8.525726E+05  1.623591E+05  6.537277E+04  3.099273E+05  2.053342E+04  1.693049E+03
       271  27  8.699746E+05  1.975291E+05  9.291243E+04  3.191250E+05  3.138824E+04  5.418135E+03
       272   1  4.543666E+05  3.054282E+04 -6.855272E+03  2.299666E+05 -4.111105E+04 -7.515762E+03
       272   2  4.341383E+05 -2.505177E+04  2.108361E+04  1.885934E+05 -8.535234E+04 -2.328018E+04
       272   3  4.779974E+05  1.194734E+05  1.332023E+05  1.125264E+05 -1.273116E+05 -4.507383E+04
       272   4  6.893443E+05  1.008722E+05  5.191233E+04  2.757399E+05 -3.938272E+04 -6.860576E+03
       272   5  6.676590E+05  7.502238E+04  8.523910E+04  2.649252E+05 -8.635432E+04 -2.366133E+04
       272   6  7.105699E+05  2.497835E+05  2.048832E+05  2.194249E+05 -1.310442E+05 -4.649545E+04
       272   7  9.243759E+05  1.712010E+05  1.106760E+05  3.215265E+05 -3.765368E+04 -6.205243E+03
       272   8  9.012319E+05  1.751041E+05  1.493893E+05  3.412842E+05 -8.735670E+04 -2.404269E+04
       272   9  9.431970E+05  3.801184E+05  2.765584E+05  3.263648E+05 -1.347782E+05 -4.791827E+04
       272  10  4.543648E+05  3.054231E+04 -6.858551E+03  2.299664E+05  8.838210E-11  1.216089E-09
       272  11  4.341304E+05 -2.505430E+04  2.106891E+04  1.885918E+05 -7.953475E-10  6.556125E-09
       272  12  4.779794E+05  1.194668E+05  1.331680E+05  1.125217E+05 -1.299384E-09  2.687947E-09
       272  13  6.893426E+05  1.008718E+05  5.190933E+04  2.757397E+05  2.762899E-09 -2.440214E-09
       272  14  6.676509E+05  7.501978E+04  8.522405E+04  2.649235E+05 -4.258072E-09  8.276065E-10
       272  15  7.105509E+05  2.497766E+05  2.048469E+05  2.194200E+05  2.845810E-09  2.171388E-09
       272  16  9.243744E+05  1.712005E+05  1.106733E+05  3.215263E+05 -4.675859E-10  9.558944E-09
       272  17  9.012236E+05  1.751014E+05  1.493739E+05  3.412825E+05  7.988520E-10 -4.708369E-09
       272  18  9.431769E+05  3.801111E+05  2.765200E+05  3.263597E+05  8.188827E-10 -4.166843E-09
       272  19  4.543666E+05  3.054282E+04 -6.855272E+03  2.299666E+05  4.111105E+04  7.515762E+03
       272  20  4.341383E+05 -2.505177E+04  2.108361E+04  1.885934E+05  8.535234E+04  2.328018E+04
       272  21  4.779974E+05  1.194734E+05  1.332023E+05  1.125264E+05  1.273116E+05  4.507383E+04
       272  22  6.893443E+05  1.008722E+05  5.191233E+04  2.757399E+05  3.938272E+04  6.860576E+03
       272  23  6.676590E+05  7.502238E+04  8.523910E+04  2.649252E+05  8.635432E+04  2.366133E+04
       272  24  7.105699E+05  2.497835E+05  2.048832E+05  2.194249E+05  1.310442E+05  4.649545E+04
       272  25  9.243759E+05  1.712010E+05  1.106760E+05  3.215265E+05  3.765368E+04  6.205243E+03
       272  26  9.012319E+05  1.751041E+05  1.493893E+05  3.412842E+05  8.735670E+04  2.404269E+04
       272  27  9.431970E+05  3.801184E+05  2.765584E+05  3.263648E+05  1.347782E+05  4.791827E+04
       273   1 -2.710692E+04 -6.368996E+05 -3.406799E+04  9.573817E+03 -4.917945E+01 -1.944287E+04
       273   2  1.487870E+03 -6.315395E+05 -1.774691E+04  3.848501E+03 -2.645496E+02 -1.103566E+04
       273   3 -1.670210E+03 -6.352112E+05 -1.484107E+04 -1.261467E+03 -2.558918E+02 -2.627752E+03
       273   4 -2.450459E+04 -6.266659E+05 -3.152887E+04  1.989217E+03 -4.931642E+01 -1.929622E+04
       273   5  3.830694E+03 -6.221557E+05 -1.548804E+04  1.713262E+03 -2.646116E+02 -1.099640E+04
       273   6  4.319210E+02 -6.266586E+05 -1.278767E+04  2.052790E+03 -2.557326E+02 -2.695913E+03
       273   7 -2.190206E+04 -6.164320E+05 -2.898973E+04 -5.595509E+03 -4.945697E+01 -1.914957E+04
       273   8  6.173528E+03 -6.127718E+05 -1.322918E+04 -4.220084E+02 -2.646738E+02 -1.095715E+04
       273   9  2.534089E+03 -6.181059E+05 -1.073428E+04  5.367092E+03 -2.555741E+02 -2.764074E+03
       273  10 -2.710702E+04 -6.369000E+05 -3.406870E+04  9.573816E+03 -2.542788E-10  2.439520E-09
       273  11  1.487837E+03 -6.315396E+05 -1.774714E+04  3.848498E+03 -1.316808E-10 -4.770753E-10
       273  12 -1.670212E+03 -6.352112E+05 -1.484108E+04 -1.261468E+03  1.024860E-09 -4.154336E-09
       273  13 -2.450469E+04 -6.266664E+05 -3.152957E+04  1.989216E+03  2.527668E-09  4.382398E-09
       273  14  3.830661E+03 -6.221558E+05 -1.548827E+04  1.713260E+03  4.935577E-09 -8.745586E-09
       273  15  4.319190E+02 -6.266586E+05 -1.278769E+04  2.052789E+03  3.230110E-09  4.029647E-10
       273  16 -2.190216E+04 -6.164324E+05 -2.899042E+04 -5.595510E+03  2.882083E-10  3.059403E-09
       273  17  6.173495E+03 -6.127719E+05 -1.322940E+04 -4.220108E+02  1.637168E-09 -9.840863E-09
       273  18  2.534086E+03 -6.181059E+05 -1.073429E+04  5.367092E+03 -3.176984E-09  7.657870E-09
       273  19 -2.710692E+04 -6.368996E+05 -3.406799E+04  9.573817E+03  4.917945E+01  1.944287E+04
       273  20  1.487870E+03 -6.315395E+05 -1.774691E+04  3.848501E+03  2.645496E+02  1.103566E+04
       273  21 -1.670210E+03 -6.352112E+05 -1.484107E+04 -1.261467E+03  2.558918E+02  2.627752E+03
       273  22 -2.450459E+04 -6.266659E+05 -3.152887E+04  1.989217E+03  4.931642E+01  1.929622E+04
       273  23  3.830694E+03 -6.221557E+05 -1.548804E+04  1.713262E+03  2.646116E+02  1.099640E+04
       273  24  4.319210E+02 -6.266586E+05 -1.278767E+04  2.052790E+03  2.557326E+02  2.695913E+03
       273  25 -2.190206E+04 -6.164320E+05 -2.898973E+04 -5.595509E+03  4.945697E+01  1.914957E+04
       273  26  6.173528E+03 -6.127718E+05 -1.322918E+04 -4.220084E+02  2.646738E+02  1.095715E+04
       273  27  2.534089E+03 -6.181059E+05 -1.073428E+04  5.367092E+03  2.555741E+02  2.764074E+03
       274   1 -4.119793E+03 -6.328360E+05 -1.433100E+04  3.823718E+03 -2.093777E+02 -4.899461E+02
       274   2 -1.503435E+01 -6.299182E+05 -1.474467E+04  1.389507E+03 -2.092595E+02  6.303930E+03
       274   3 -8.707990E+03 -6.310817E+05 -2.278314E+04 -3.702063E+02 -1.882986E+02  1.309785E+04
       274   4 -2.302372E+03 -6.255636E+05 -1.257520E+04  2.048197E+03 -2.093677E+02 -4.932670E+02
       274   5  1.570269E+03 -6.235250E+05 -1.320605E+04  1.704565E+03 -2.092224E+02  6.290654E+03
       274   6 -7.353020E+03 -6.255659E+05 -2.145474E+04  2.035435E+03 -1.881887E+02  1.307461E+04
       274   7 -4.849434E+02 -6.182912E+05 -1.081939E+04  2.726557E+02 -2.093577E+02 -4.965880E+02
       274   8  3.155569E+03 -6.171317E+05 -1.166743E+04  2.019626E+03 -2.091853E+02  6.277378E+03
       274   9 -5.998031E+03 -6.200501E+05 -2.012634E+04  4.441097E+03 -1.880790E+02  1.305137E+04
       274  10 -4.119793E+03 -6.328360E+05 -1.433100E+04  3.823718E+03  1.226507E-09  1.688677E-08
       274  11 -1.504508E+01 -6.299183E+05 -1.474474E+04  1.389508E+03  2.931261E-09  1.407989E-08
       274  12 -8.708036E+03 -6.310819E+05 -2.278346E+04 -3.702043E+02 -1.977289E-09 -1.017852E-08
       274  13 -2.302372E+03 -6.255636E+05 -1.257520E+04  2.048197E+03  2.518466E-09 -2.196813E-09
       274  14  1.570258E+03 -6.235250E+05 -1.320612E+04  1.704566E+03 -9.643988E-10 -7.797466E-09
       274  15 -7.353066E+03 -6.255661E+05 -2.145506E+04  2.035437E+03 -4.471010E-09 -1.782813E-09
       274  16 -4.849435E+02 -6.182912E+05 -1.081939E+04  2.726557E+02 -4.185904E-09 -1.254052E-08
       274  17  3.155559E+03 -6.171318E+05 -1.166751E+04  2.019627E+03 -3.094017E-09 -1.801773E-08
       274  18 -5.998077E+03 -6.200502E+05 -2.012666E+04  4.441099E+03 -5.051842E-09  1.059687E-08
       274  19 -4.119793E+03 -6.328360E+05 -1.433100E+04  3.823718E+03  2.093777E+02  4.899461E+02
       274  20 -1.503435E+01 -6.299182E+05 -1.474467E+04  1.389507E+03  2.092595E+02 -6.303930E+03
       274  21 -8.707990E+03 -6.310817E+05 -2.278314E+04 -3.702063E+02  1.882986E+02 -1.309785E+04
       274  22 -2.302372E+03 -6.255636E+05 -1.257520E+04  2.048197E+03  2.093677E+02  4.932670E+02
       274  23  1.570269E+03 -6.235250E+05 -1.320605E+04  1.704565E+03  2.092224E+02 -6.290654E+03
       274  24 -7.353020E+03 -6.255659E+05 -2.145474E+04  2.035435E+03  1.881887E+02 -1.307461E+04
       274  25 -4.849434E+02 -6.182912E+05 -1.081939E+04  2.726557E+02  2.093577E+02  4.965880E+02
       274  26  3.155569E+03 -6.171317E+05 -1.166743E+04  2.019626E+03  2.091853E+02 -6.277378E+03
       274  27 -5.998031E+03 -6.200501E+05 -2.012634E+04  4.441097E+03  1.880790E+02 -1.305137E+04
       275   1  2.087349E+03 -6.342415E+05 -2.638117E+04  1.102718E+04 -1.799376E+02  1.711147E+04
       275   2  9.635504E+03 -6.212556E+05 -3.951326E+04 -4.236485E+03 -1.980035E+02  3.802583E+04
       275   3 -6.926509E+04 -6.326086E+05 -8.788164E+04 -1.894759E+04 -1.790923E+02  5.894011E+04
       275   4  3.180738E+03 -6.300623E+05 -2.536709E+04  2.076155E+03 -1.801645E+02  1.710367E+04
       275   5  1.042973E+04 -6.179051E+05 -3.871431E+04  1.709347E+03 -1.975730E+02  3.799990E+04
       275   6 -6.876747E+04 -6.300841E+05 -8.728525E+04  1.894601E+03 -1.770000E+02  5.889604E+04
       275   7  4.274428E+03 -6.258829E+05 -2.435298E+04 -6.874932E+03 -1.803912E+02  1.709587E+04
       275   8  1.122410E+04 -6.145545E+05 -3.791535E+04  7.655212E+03 -1.971431E+02  3.797398E+04
       275   9 -6.826821E+04 -6.275586E+05 -8.668862E+04  2.273688E+04 -1.749107E+02  5.885197E+04
       275  10  2.087270E+03 -6.342418E+05 -2.638172E+04  1.102718E+04 -1.096532E-09  3.701684E-09
       275  11  9.635115E+03 -6.212571E+05 -3.951598E+04 -4.236479E+03  3.461912E-09  4.838227E-09
       275  12 -6.926603E+04 -6.326124E+05 -8.788818E+04 -1.894758E+04  1.049234E-09 -2.896392E-09
       275  13  3.180659E+03 -6.300626E+05 -2.536764E+04  2.076158E+03 -2.536622E-09  4.337942E-09
       275  14  1.042935E+04 -6.179066E+05 -3.871703E+04  1.709353E+03 -1.768256E-09 -5.436886E-09
       275  15 -6.876840E+04 -6.300878E+05 -8.729178E+04  1.894609E+03 -5.825097E-10 -9.351352E-10
       275  16  4.274349E+03 -6.258832E+05 -2.435353E+04 -6.874930E+03 -3.345926E-09 -1.349286E-09
       275  17  1.122371E+04 -6.145560E+05 -3.791806E+04  7.655218E+03  1.786837E-09 -1.125518E-08
       275  18 -6.826914E+04 -6.275623E+05 -8.669514E+04  2.273688E+04  1.225818E-09  3.238609E-09
       275  19  2.087349E+03 -6.342415E+05 -2.638117E+04  1.102718E+04  1.799376E+02 -1.711147E+04
       275  20  9.635504E+03 -6.212556E+05 -3.951326E+04 -4.236485E+03  1.980035E+02 -3.802583E+04
       275  21 -6.926509E+04 -6.326086E+05 -8.788164E+04 -1.894759E+04  1.790923E+02 -5.894011E+04
       275  22  3.180738E+03 -6.300623E+05 -2.536709E+04  2.076155E+03  1.801645E+02 -1.710367E+04
       275  23  1.042973E+04 -6.179051E+05 -3.871431E+04  1.709347E+03  1.975730E+02 -3.799990E+04
       275  24 -6.876747E+04 -6.300841E+05 -8.728525E+04  1.894601E+03  1.770000E+02 -5.889604E+04
       275  25  4.274428E+03 -6.258829E+05 -2.435298E+04 -6.874932E+03  1.803912E+02 -1.709587E+04
       275  26  1.122410E+04 -6.145545E+05 -3.791535E+04  7.655212E+03  1.971431E+02 -3.797398E+04
       275  27 -6.826821E+04 -6.275586E+05 -8.668862E+04  2.273688E+04  1.749107E+02 -5.885197E+04
       276   1  6.779887E+05  4.862740E+04  7.395444E+04  4.765838E+03  7.358255E+04  6.114694E+02
       276   2  6.658998E+05 -5.231499E+04  1.321024E+04  4.554394E+03  4.851893E+04  1.486338E+03
       276   3  6.869688E+05 -3.474272E+04 -1.542540E+03 -7.380763E+03  2.345618E+04  1.143391E+03
       276   4  8.149124E+05  8.278915E+04  1.081028E+05 -3.351661E+03  7.381294E+04  6.108263E+02
       276   5  7.983371E+05 -1.926497E+04  4.615732E+04  2.572894E+03  4.856883E+04  1.486215E+03
       276   6  8.149439E+05 -2.786730E+03  3.032124E+04 -3.226104E+03  2.332578E+04  1.143408E+03
       276   7  9.518533E+05  1.169497E+05  1.422498E+05 -1.147096E+04  7.404337E+04  6.101772E+02
       276   8  9.307903E+05  1.378375E+04  7.910309E+04  5.909660E+02  4.861874E+04  1.486093E+03
       276   9  9.429339E+05  2.916809E+04  6.218379E+04  9.294065E+02  2.319535E+04  1.143423E+03
       276  10  6.779829E+05  4.862595E+04  7.394428E+04  4.765802E+03  8.474915E-11 -1.111707E-10
       276  11  6.658972E+05 -5.231562E+04  1.320582E+04  4.554336E+03  3.685636E-10  1.451578E-10
       276  12  6.869682E+05 -3.474287E+04 -1.543575E+03 -7.380784E+03  8.165904E-10  3.723194E-10
       276  13  8.149066E+05  8.278769E+04  1.080926E+05 -3.351698E+03 -4.215489E-12 -2.975177E-11
       276  14  7.983346E+05 -1.926561E+04  4.615289E+04  2.572835E+03 -3.422513E-10 -5.669616E-11
       276  15  8.149433E+05 -2.786877E+03  3.032021E+04 -3.226126E+03  1.680630E-10  6.569729E-11
       276  16  9.518474E+05  1.169483E+05  1.422395E+05 -1.147099E+04 -5.750979E-10 -8.202586E-11
       276  17  9.307878E+05  1.378311E+04  7.909865E+04  5.909078E+02 -1.297923E-09 -6.413980E-11
       276  18  9.429334E+05  2.916795E+04  6.218278E+04  9.293852E+02 -3.506075E-11  8.170216E-11
       276  19  6.779887E+05  4.862740E+04  7.395444E+04  4.765838E+03 -7.358255E+04 -6.114694E+02
       276  20  6.658998E+05 -5.231499E+04  1.321024E+04  4.554394E+03 -4.851893E+04 -1.486338E+03
       276  21  6.869688E+05 -3.474272E+04 -1.542540E+03 -7.380763E+03 -2.345618E+04 -1.143391E+03
       276  22  8.149124E+05  8.278915E+04  1.081028E+05 -3.351661E+03 -7.381294E+04 -6.108263E+02
       276  23  7.983371E+05 -1.926497E+04  4.615732E+04  2.572894E+03 -4.856883E+04 -1.486215E+03
       276  24  8.149439E+05 -2.786730E+03  3.032124E+04 -3.226104E+03 -2.332578E+04 -1.143408E+03
       276  25  9.518533E+05  1.169497E+05  1.422498E+05 -1.147096E+04 -7.404337E+04 -6.101772E+02
       276  26  9.307903E+05  1.378375E+04  7.910309E+04  5.909660E+02 -4.861874E+04 -1.486093E+03
       276  27  9.429339E+05  2.916809E+04  6.218379E+04  9.294065E+02 -2.319535E+04 -1.143423E+03
       277   1  7.178923E+05 -1.013920E+04  2.468404E+03 -1.349934E+03  1.829308E+04  8.457472E+02
       277   2  7.183286E+05 -2.482409E+04 -9.848250E+03  1.858960E+03  1.202058E+04  8.484679E+02
       277   3  7.241934E+05 -2.152483E+04 -1.356481E+04 -3.136976E+03  5.748128E+03  7.108345E+02
       277   4  8.087712E+05  1.254338E+04  2.509042E+04 -2.490875E+03  1.830613E+04  8.457149E+02
       277   5  8.060583E+05 -2.926218E+03  1.198674E+04  1.616606E+03  1.201259E+04  8.484500E+02
       277   6  8.087768E+05 -4.093961E+02  7.496879E+03 -2.480668E+03  5.719122E+03  7.108217E+02
       277   7  8.996575E+05  3.522534E+04  4.771181E+04 -3.631984E+03  1.831918E+04  8.456825E+02
       277   8  8.937950E+05  1.897108E+04  3.382116E+04  1.374216E+03  1.200460E+04  8.484321E+02
       277   9  8.933668E+05  2.070550E+04  2.855803E+04 -1.824271E+03  5.690111E+03  7.108088E+02
       277  10  7.178920E+05 -1.013929E+04  2.467775E+03 -1.349946E+03 -1.011197E-09 -1.036208E-10
       277  11  7.183284E+05 -2.482413E+04 -9.848523E+03  1.858952E+03  7.108751E-10  2.567605E-10
       277  12  7.241934E+05 -2.152484E+04 -1.356487E+04 -3.136980E+03  8.607593E-10  4.640246E-10
       277  13  8.087708E+05  1.254329E+04  2.508979E+04 -2.490887E+03 -6.111948E-11  1.267801E-11
       277  14  8.060581E+05 -2.926257E+03  1.198647E+04  1.616598E+03 -4.928140E-10 -2.531369E-10
       277  15  8.087768E+05 -4.094054E+02  7.496816E+03 -2.480671E+03 -4.219333E-11  4.819433E-11
       277  16  8.996571E+05  3.522525E+04  4.771118E+04 -3.631996E+03  1.315394E-10 -9.944965E-11
       277  17  8.937948E+05  1.897104E+04  3.382088E+04  1.374208E+03 -2.987919E-10 -2.940889E-10
       277  18  8.933667E+05  2.070549E+04  2.855796E+04 -1.824274E+03 -1.464789E-09 -2.886781E-10
       277  19  7.178923E+05 -1.013920E+04  2.468404E+03 -1.349934E+03 -1.829308E+04 -8.457472E+02
       277  20  7.183286E+05 -2.482409E+04 -9.848250E+03  1.858960E+03 -1.202058E+04 -8.484679E+02
       277  21  7.241934E+05 -2.152483E+04 -1.356481E+04 -3.136976E+03 -5.748128E+03 -7.108345E+02
       277  22  8.087712E+05  1.254338E+04  2.509042E+04 -2.490875E+03 -1.830613E+04 -8.457149E+02
       277  23  8.060583E+05 -2.926218E+03  1.198674E+04  1.616606E+03 -1.201259E+04 -8.484500E+02
       277  24  8.087768E+05 -4.093961E+02  7.496879E+03 -2.480668E+03 -5.719122E+03 -7.108217E+02
       277  25  8.996575E+05  3.522534E+04  4.771181E+04 -3.631984E+03 -1.831918E+04 -8.456825E+02
       277  26  8.937950E+05  1.897108E+04  3.382116E+04  1.374216E+03 -1.200460E+04 -8.484321E+02
       277  27  8.933668E+05  2.070550E+04  2.855803E+04 -1.824271E+03 -5.690111E+03 -7.108088E+02
       278   1  7.498353E+05 -1.257503E+04 -8.391222E+03 -1.841070E+03  4.507521E+03  6.149848E+02
       278   2  7.516660E+05 -1.433498E+04 -1.068615E+04  1.027659E+03  2.886150E+03  5.186010E+02
       278   3  7.544368E+05 -1.335993E+04 -1.123352E+04 -2.094204E+03  1.264771E+03  4.319335E+02
       278   4  8.077788E+05  1.886757E+03  6.024649E+03 -1.992257E+03  4.493293E+03  6.149750E+02
       278   5  8.073093E+05 -4.458247E+02  3.164149E+03  1.003353E+03  2.873189E+03  5.185949E+02
       278   6  8.077797E+05 -4.376856E+01  2.050229E+03 -1.991597E+03  1.253083E+03  4.319300E+02
       278   7  8.657254E+05  1.634830E+04  2.044027E+04 -2.143458E+03  4.479065E+03  6.149653E+02
       278   8  8.629555E+05  1.344309E+04  1.701422E+04  9.790441E+02  2.860228E+03  5.185888E+02
       278   9  8.611252E+05  1.327218E+04  1.533376E+04 -1.888981E+03  1.241395E+03  4.319266E+02
       278  10  7.498353E+05 -1.257504E+04 -8.391261E+03 -1.841072E+03  2.290970E-10 -2.346261E-10
       278  11  7.516660E+05 -1.433498E+04 -1.068617E+04  1.027657E+03 -8.050673E-10 -5.035418E-10
       278  12  7.544368E+05 -1.335993E+04 -1.123352E+04 -2.094204E+03 -1.419978E-10 -6.386405E-11
       278  13  8.077788E+05  1.886751E+03  6.024611E+03 -1.992259E+03 -2.954914E-10 -2.537625E-11
       278  14  8.073093E+05 -4.458272E+02  3.164133E+03  1.003351E+03 -3.332509E-10 -4.837892E-11
       278  15  8.077797E+05 -4.376918E+01  2.050226E+03 -1.991597E+03 -3.024400E-10  2.478845E-11
       278  16  8.657254E+05  1.634829E+04  2.044023E+04 -2.143460E+03 -4.147316E-10 -2.474339E-10
       278  17  8.629555E+05  1.344309E+04  1.701420E+04  9.790429E+02 -2.427875E-10  3.354952E-12
       278  18  8.611252E+05  1.327218E+04  1.533376E+04 -1.888982E+03 -1.041669E-10 -2.184907E-10
       278  19  7.498353E+05 -1.257503E+04 -8.391222E+03 -1.841070E+03 -4.507521E+03 -6.149848E+02
       278  20  7.516660E+05 -1.433498E+04 -1.068615E+04  1.027659E+03 -2.886150E+03 -5.186010E+02
       278  21  7.544368E+05 -1.335993E+04 -1.123352E+04 -2.094204E+03 -1.264771E+03 -4.319335E+02
       278  22  8.077788E+05  1.886757E+03  6.024649E+03 -1.992257E+03 -4.493293E+03 -6.149750E+02
       278  23  8.073093E+05 -4.458247E+02  3.164149E+03  1.003353E+03 -2.873189E+03 -5.185949E+02
       278  24  8.077797E+05 -4.376856E+01  2.050229E+03 -1.991597E+03 -1.253083E+03 -4.319300E+02
       278  25  8.657254E+05  1.634830E+04  2.044027E+04 -2.143458E+03 -4.479065E+03 -6.149653E+02
       278  26  8.629555E+05  1.344309E+04  1.701422E+04  9.790441E+02 -2.860228E+03 -5.185888E+02
       278  27  8.611252E+05  1.327218E+04  1.533376E+04 -1.888981E+03 -1.241395E+03 -4.319266E+02
       279   1  7.742711E+05 -8.046011E+03 -6.578979E+03 -1.668686E+03  9.253806E+02  3.794455E+02
       279   2  7.759382E+05 -7.970478E+03 -6.611973E+03  6.345708E+02  2.955805E+02  2.917002E+02
       279   3  7.778398E+05 -7.339167E+03 -6.093639E+03 -1.713414E+03 -3.342432E+02  2.230691E+02
       279   4  8.076233E+05  2.776439E+02  1.716220E+03 -1.694178E+03  9.113948E+02  3.794433E+02
       279   5  8.075063E+05 -9.082016E+01  1.245803E+03  6.314474E+02  2.843205E+02  2.916993E+02
       279   6  8.076233E+05  9.599844E+01  1.324797E+03 -1.694154E+03 -3.427755E+02  2.230690E+02
       279   7  8.409765E+05  8.601216E+03  1.001134E+04 -1.719670E+03  8.974083E+02  3.794411E+02
       279   8  8.390753E+05  7.788763E+03  9.103504E+03  6.283239E+02  2.730600E+02  2.916984E+02
       279   9  8.374076E+05  7.531097E+03  8.743166E+03 -1.674893E+03 -3.513083E+02  2.230689E+02
       279  10  7.742711E+05 -8.046012E+03 -6.578981E+03 -1.668686E+03  4.419677E-12  5.047390E-10
       279  11  7.759382E+05 -7.970478E+03 -6.611974E+03  6.345707E+02 -3.965333E-10  1.586149E-10
       279  12  7.778398E+05 -7.339167E+03 -6.093639E+03 -1.713414E+03 -4.335005E-10 -8.889117E-11
       279  13  8.076233E+05  2.776436E+02  1.716219E+03 -1.694178E+03  4.487158E-11  7.231628E-11
       279  14  8.075063E+05 -9.082027E+01  1.245803E+03  6.314474E+02  6.280939E-10 -1.879203E-12
       279  15  8.076233E+05  9.599836E+01  1.324797E+03 -1.694154E+03 -8.486980E-10 -1.413073E-10
       279  16  8.409765E+05  8.601215E+03  1.001133E+04 -1.719671E+03  1.730996E-10 -1.967515E-10
       279  17  8.390753E+05  7.788763E+03  9.103504E+03  6.283239E+02 -5.152351E-10  2.188410E-11
       279  18  8.374076E+05  7.531097E+03  8.743166E+03 -1.674893E+03 -3.420512E-10  4.451364E-11
       279  19  7.742711E+05 -8.046011E+03 -6.578979E+03 -1.668686E+03 -9.253806E+02 -3.794455E+02
       279  20  7.759382E+05 -7.970478E+03 -6.611973E+03  6.345708E+02 -2.955805E+02 -2.917002E+02
       279  21  7.778398E+05 -7.339167E+03 -6.093639E+03 -1.713414E+03  3.342432E+02 -2.230691E+02
       279  22  8.076233E+05  2.776439E+02  1.716220E+03 -1.694178E+03 -9.113948E+02 -3.794433E+02
       279  23  8.075063E+05 -9.082016E+01  1.245803E+03  6.314474E+02 -2.843205E+02 -2.916993E+02
       279  24  8.076233E+05  9.599844E+01  1.324797E+03 -1.694154E+03  3.427755E+02 -2.230690E+02
       279  25  8.409765E+05  8.601216E+03  1.001134E+04 -1.719670E+03 -8.974083E+02 -3.794411E+02
       279  26  8.390753E+05  7.788763E+03  9.103504E+03  6.283239E+02 -2.730600E+02 -2.916984E+02
       279  27  8.374076E+05  7.531097E+03  8.743166E+03 -1.674893E+03  3.513083E+02 -2.230689E+02
       280   1  7.940953E+05 -3.364833E+03 -1.894768E+03 -1.503522E+03 -5.855645E+02  1.836054E+02
       280   2  7.954193E+05 -3.179869E+03 -8.962167E+02  4.390922E+02 -1.646777E+03  1.109795E+02
       280   3  7.971502E+05 -1.922322E+03  1.060873E+03 -1.599134E+03 -2.707996E+03  4.862500E+01
       280   4  8.076619E+05  2.039902E+01  1.476688E+03 -1.545217E+03 -5.967954E+02  1.836063E+02
       280   5  8.074583E+05 -1.748717E+02  2.100470E+03  4.452503E+02 -1.656545E+03  1.109805E+02
       280   6  8.076612E+05  7.021757E+02  3.681766E+03 -1.545118E+03 -2.716299E+03  4.862591E+01
       280   7  8.212288E+05  3.405617E+03  4.848129E+03 -1.586913E+03 -6.080264E+02  1.836071E+02
       280   8  8.194974E+05  2.830114E+03  5.097147E+03  4.514086E+02 -1.666314E+03  1.109815E+02
       280   9  8.181724E+05  3.326665E+03  6.302651E+03 -1.491100E+03 -2.724602E+03  4.862683E+01
       280  10  7.940953E+05 -3.364833E+03 -1.894769E+03 -1.503522E+03 -5.330796E-10  6.938507E-12
       280  11  7.954193E+05 -3.179869E+03 -8.962218E+02  4.390923E+02 -2.240983E-10 -5.156658E-11
       280  12  7.971502E+05 -1.922324E+03  1.060860E+03 -1.599134E+03 -3.740579E-10 -2.344671E-11
       280  13  8.076619E+05  2.039889E+01  1.476687E+03 -1.545217E+03 -1.158658E-09 -6.453878E-12
       280  14  8.074583E+05 -1.748724E+02  2.100465E+03  4.452505E+02 -8.130396E-10 -1.628478E-10
       280  15  8.076612E+05  7.021737E+02  3.681753E+03 -1.545118E+03  3.631790E-10  1.650697E-11
       280  16  8.212288E+05  3.405617E+03  4.848129E+03 -1.586913E+03 -7.792241E-10 -2.315229E-10
       280  17  8.194974E+05  2.830114E+03  5.097141E+03  4.514088E+02 -4.629542E-10  1.747840E-11
       280  18  8.181724E+05  3.326663E+03  6.302637E+03 -1.491100E+03 -1.588427E-10  2.746739E-12
       280  19  7.940953E+05 -3.364833E+03 -1.894768E+03 -1.503522E+03  5.855645E+02 -1.836054E+02
       280  20  7.954193E+05 -3.179869E+03 -8.962167E+02  4.390922E+02  1.646777E+03 -1.109795E+02
       280  21  7.971502E+05 -1.922322E+03  1.060873E+03 -1.599134E+03  2.707996E+03 -4.862500E+01
       280  22  8.076619E+05  2.039902E+01  1.476688E+03 -1.545217E+03  5.967954E+02 -1.836063E+02
       280  23  8.074583E+05 -1.748717E+02  2.100470E+03  4.452503E+02  1.656545E+03 -1.109805E+02
       280  24  8.076612E+05  7.021757E+02  3.681766E+03 -1.545118E+03  2.716299E+03 -4.862591E+01
       280  25  8.212288E+05  3.405617E+03  4.848129E+03 -1.586913E+03  6.080264E+02 -1.836071E+02
       280  26  8.194974E+05  2.830114E+03  5.097147E+03  4.514086E+02  1.666314E+03 -1.109815E+02
       280  27  8.181724E+05  3.326665E+03  6.302651E+03 -1.491100E+03  2.724602E+03 -4.862683E+01
       281   1  8.123252E+05  9.239235E+02  5.708092E+03 -1.279854E+03 -3.460505E+03  1.176096E+01
       281   2  8.127161E+05  3.362513E+02  9.047836E+03  3.334844E+02 -7.362757E+03 -5.392441E+01
       281   3  8.153035E+05  6.510204E+03  1.661594E+04 -1.937129E+03 -1.126497E+04 -1.119816E+02
       281   4  8.080594E+05 -1.416908E+02  4.641563E+03 -1.523871E+03 -3.470586E+03  1.176383E+01
       281   5  8.069597E+05 -1.100572E+03  7.615160E+03  4.184112E+02 -7.371706E+03 -5.392423E+01
       281   6  8.080562E+05  4.702018E+03  1.481637E+04 -1.523265E+03 -1.127278E+04 -1.119882E+02
       281   7  8.037936E+05 -1.207306E+03  3.575034E+03 -1.767887E+03 -3.480666E+03  1.176671E+01
       281   8  8.012032E+05 -2.537398E+03  6.182481E+03  5.033371E+02 -7.380654E+03 -5.392405E+01
       281   9  8.008090E+05  2.893828E+03  1.301679E+04 -1.109406E+03 -1.128059E+04 -1.119948E+02
       281  10  8.123252E+05  9.239203E+02  5.708069E+03 -1.279854E+03 -6.932878E-12 -2.539265E-10
       281  11  8.127161E+05  3.362368E+02  9.047734E+03  3.334841E+02  8.677550E-10 -2.397366E-10
       281  12  8.153033E+05  6.510170E+03  1.661570E+04 -1.937130E+03  8.269328E-10 -2.983041E-10
       281  13  8.080594E+05 -1.416940E+02  4.641541E+03 -1.523871E+03 -2.639239E-10 -1.249917E-10
       281  14  8.069596E+05 -1.100587E+03  7.615058E+03  4.184108E+02 -4.299935E-10  3.288400E-10
       281  15  8.080561E+05  4.701984E+03  1.481613E+04 -1.523266E+03  8.449829E-10  5.359255E-10
       281  16  8.037936E+05 -1.207309E+03  3.575011E+03 -1.767887E+03 -5.291382E-10 -2.489604E-10
       281  17  8.012032E+05 -2.537413E+03  6.182379E+03  5.033368E+02 -7.234157E-10 -4.622489E-10
       281  18  8.008089E+05  2.893794E+03  1.301656E+04 -1.109407E+03 -1.287529E-10 -5.559170E-10
       281  19  8.123252E+05  9.239235E+02  5.708092E+03 -1.279854E+03  3.460505E+03 -1.176096E+01
       281  20  8.127161E+05  3.362513E+02  9.047836E+03  3.334844E+02  7.362757E+03  5.392441E+01
       281  21  8.153035E+05  6.510204E+03  1.661594E+04 -1.937129E+03  1.126497E+04  1.119816E+02
       281  22  8.080594E+05 -1.416908E+02  4.641563E+03 -1.523871E+03  3.470586E+03 -1.176383E+01
       281  23  8.069597E+05 -1.100572E+03  7.615160E+03  4.184112E+02  7.371706E+03  5.392423E+01
       281  24  8.080562E+05  4.702018E+03  1.481637E+04 -1.523265E+03  1.127278E+04  1.119882E+02
       281  25  8.037936E+05 -1.207306E+03  3.575034E+03 -1.767887E+03  3.480666E+03 -1.176671E+01
       281  26  8.012032E+05 -2.537398E+03  6.182481E+03  5.033371E+02  7.380654E+03  5.392405E+01
       281  27  8.008090E+05  2.893828E+03  1.301679E+04 -1.109406E+03  1.128059E+04  1.119948E+02
       282   1  8.332164E+05  4.647393E+03  2.415380E+04 -6.386765E+01 -1.427623E+04 -1.603582E+02
       282   2  8.282754E+05 -1.181393E+03  3.578988E+04 -1.578220E+02 -2.988703E+04 -2.350547E+02
       282   3  8.365406E+05  3.767904E+04  6.875397E+04 -4.600234E+03 -4.549820E+04 -2.520455E+02
       282   4  8.105056E+05 -1.021690E+03  1.849657E+04 -1.627171E+03 -1.429101E+04 -1.603210E+02
       282   5  8.038952E+05 -7.266599E+03  2.972260E+04  5.471732E+02 -2.989297E+04 -2.350888E+02
       282   6  8.104901E+05  3.117712E+04  6.227110E+04 -1.626908E+03 -4.549526E+04 -2.522638E+02
       282   7  7.877953E+05 -6.690803E+03  1.283930E+04 -3.190416E+03 -1.430580E+04 -1.602838E+02
       282   8  7.795156E+05 -1.335185E+04  2.365527E+04  1.252141E+03 -2.989892E+04 -2.351229E+02
       282   9  7.844401E+05  2.467517E+04  5.578819E+04  1.346293E+03 -4.549232E+04 -2.524821E+02
       282  10  8.332161E+05  4.647339E+03  2.415341E+04 -6.386949E+01 -7.644994E-10 -4.725744E-10
       282  11  8.282744E+05 -1.181633E+03  3.578821E+04 -1.578277E+02 -1.794302E-10  1.874429E-10
       282  12  8.365384E+05  3.767849E+04  6.875009E+04 -4.600243E+03  3.509083E-10  2.757623E-11
       282  13  8.105054E+05 -1.021745E+03  1.849618E+04 -1.627172E+03 -6.407037E-11  6.059610E-10
       282  14  8.038942E+05 -7.266838E+03  2.972092E+04  5.471675E+02  3.194563E-10  4.143607E-10
       282  15  8.104878E+05  3.117656E+04  6.226722E+04 -1.626917E+03  2.159370E-10  6.251137E-11
       282  16  7.877950E+05 -6.690858E+03  1.283892E+04 -3.190418E+03  9.192660E-10 -4.349491E-10
       282  17  7.795146E+05 -1.335209E+04  2.365359E+04  1.252135E+03  1.939282E-10 -4.871096E-10
       282  18  7.844379E+05  2.467462E+04  5.578431E+04  1.346284E+03 -1.211946E-10 -1.048086E-10
       282  19  8.332164E+05  4.647393E+03  2.415380E+04 -6.386765E+01  1.427623E+04  1.603582E+02
       282  20  8.282754E+05 -1.181393E+03  3.578988E+04 -1.578220E+02  2.988703E+04  2.350547E+02
       282  21  8.365406E+05  3.767904E+04  6.875397E+04 -4.600234E+03  4.549820E+04  2.520455E+02
       282  22  8.105056E+05 -1.021690E+03  1.849657E+04 -1.627171E+03  1.429101E+04  1.603210E+02
       282  23  8.038952E+05 -7.266599E+03  2.972260E+04  5.471732E+02  2.989297E+04  2.350888E+02
       282  24  8.104901E+05  3.117712E+04  6.227110E+04 -1.626908E+03  4.549526E+04  2.522638E+02
       282  25  7.877953E+05 -6.690803E+03  1.283930E+04 -3.190416E+03  1.430580E+04  1.602838E+02
       282  26  7.795156E+05 -1.335185E+04  2.365527E+04  1.252141E+03  2.989892E+04  2.351229E+02
       282  27  7.844401E+05  2.467517E+04  5.578819E+04  1.346293E+03  4.549232E+04  2.524821E+02
       283   1  8.701499E+05  4.169773E+03  8.630871E+04  8.231466E+03 -5.790004E+04 -3.741833E+02
       283   2  8.313371E+05 -3.622548E+04  1.262414E+05 -4.357332E+03 -1.206578E+05 -5.205721E+02
       283   3  8.742806E+05  2.177202E+05  2.805963E+05 -2.245339E+04 -1.834145E+05 -2.171434E+02
       283   4  8.257441E+05 -6.915437E+03  7.525264E+04 -1.870553E+03 -5.795032E+04 -3.732461E+02
       283   5  7.848314E+05 -4.783051E+04  1.146737E+05  8.587052E+02 -1.206395E+05 -5.215853E+02
       283   6  8.256687E+05  2.055943E+05  2.684754E+05 -1.918433E+03 -1.833275E+05 -2.231853E+02
       283   7  7.813403E+05 -1.800041E+04  6.419647E+04 -1.197185E+04 -5.800060E+04 -3.723072E+02
       283   8  7.383276E+05 -5.943559E+04  1.031057E+05  6.074352E+03 -1.206213E+05 -5.225983E+02
       283   9  7.770598E+05  1.934699E+05  2.563545E+05  1.861492E+04 -1.832405E+05 -2.292218E+02
       283  10  8.701463E+05  4.168875E+03  8.630242E+04  8.231448E+03  3.458835E-10 -1.978630E-10
       283  11  8.313215E+05 -3.622938E+04  1.262141E+05 -4.357382E+03  4.272417E-10 -5.082297E-10
       283  12  8.742446E+05  2.177112E+05  2.805332E+05 -2.245342E+04 -3.669559E-10 -4.221546E-10
       283  13  8.257405E+05 -6.916337E+03  7.524634E+04 -1.870570E+03 -2.693446E-10 -1.955478E-10
       283  14  7.848158E+05 -4.783441E+04  1.146463E+05  8.586546E+02 -7.242625E-11 -4.518978E-10
       283  15  8.256326E+05  2.055853E+05  2.684123E+05 -1.918466E+03 -2.252238E-10 -1.917222E-10
       283  16  7.813367E+05 -1.800131E+04  6.419015E+04 -1.197187E+04 -1.564431E-10 -3.151377E-11
       283  17  7.383120E+05 -5.943949E+04  1.030784E+05  6.074301E+03  6.220599E-11 -2.938838E-10
       283  18  7.770238E+05  1.934609E+05  2.562915E+05  1.861489E+04  1.524178E-10 -4.471101E-11
       283  19  8.701499E+05  4.169773E+03  8.630871E+04  8.231466E+03  5.790004E+04  3.741833E+02
       283  20  8.313371E+05 -3.622548E+04  1.262414E+05 -4.357332E+03  1.206578E+05  5.205721E+02
       283  21  8.742806E+05  2.177202E+05  2.805963E+05 -2.245339E+04  1.834145E+05  2.171434E+02
       283  22  8.257441E+05 -6.915437E+03  7.525264E+04 -1.870553E+03  5.795032E+04  3.732461E+02
       283  23  7.848314E+05 -4.783051E+04  1.146737E+05  8.587052E+02  1.206395E+05  5.215853E+02
       283  24  8.256687E+05  2.055943E+05  2.684754E+05 -1.918433E+03  1.833275E+05  2.231853E+02
       283  25  7.813403E+05 -1.800041E+04  6.419647E+04 -1.197185E+04  5.800060E+04  3.723072E+02
       283  26  7.383276E+05 -5.943559E+04  1.031057E+05  6.074352E+03  1.206213E+05  5.225983E+02
       283  27  7.770598E+05  1.934699E+05  2.563545E+05  1.861492E+04  1.832405E+05  2.292218E+02
       284   1  1.170458E+05  9.313678E+05  1.393894E+05 -2.158449E+04  5.392945E+02  6.778885E+04
       284   2  2.179715E+04  9.033797E+05  7.943209E+04  1.000978E+03  1.647822E+03  4.530688E+04
       284   3  3.248365E+04  9.049480E+05  6.061330E+04 -1.074758E+04  9.581942E+02  2.282133E+04
       284   4  7.469446E+04  7.618762E+05  9.711324E+04 -1.395610E+04  5.406183E+02  6.749287E+04
       284   5 -1.720762E+04  7.471283E+05  4.056686E+04  3.143771E+03  1.648052E+03  4.527552E+04
       284   6 -3.206146E+03  7.618986E+05  2.498347E+04 -1.409077E+04  9.575277E+02  2.305409E+04
       284   7  3.234116E+04  5.924107E+05  5.483499E+04 -6.329781E+03  5.419350E+02  6.719697E+04
       284   8 -5.621421E+04  5.908989E+05  1.699801E+03  5.286036E+03  1.648281E+03  4.524416E+04
       284   9 -3.889744E+04  6.188677E+05 -1.064789E+04 -1.743318E+04  9.568586E+02  2.328680E+04
       284  10  1.170446E+05  9.313629E+05  1.393807E+05 -2.158452E+04  2.580931E-10 -6.819965E-11
       284  11  2.179660E+04  9.033775E+05  7.942824E+04  1.000918E+03  1.389184E-10  7.982523E-11
       284  12  3.248351E+04  9.049475E+05  6.061232E+04 -1.074760E+04  1.787879E-09  5.077155E-11
       284  13  7.469323E+04  7.618713E+05  9.710469E+04 -1.395613E+04  5.391795E-10 -1.078173E-10
       284  14 -1.720817E+04  7.471261E+05  4.056301E+04  3.143711E+03 -2.235227E-09  2.917498E-10
       284  15 -3.206290E+03  7.618980E+05  2.498247E+04 -1.409079E+04  1.025338E-09  1.481926E-11
       284  16  3.233995E+04  5.924058E+05  5.482651E+04 -6.329810E+03 -1.120761E-11  2.549913E-11
       284  17 -5.621476E+04  5.908967E+05  1.695953E+03  5.285976E+03 -7.335926E-10  2.063372E-11
       284  18 -3.889758E+04  6.188672E+05 -1.064891E+04 -1.743320E+04  4.689218E-10 -1.556290E-10
       284  19  1.170458E+05  9.313678E+05  1.393894E+05 -2.158449E+04 -5.392945E+02 -6.778885E+04
       284  20  2.179715E+04  9.033797E+05  7.943209E+04  1.000978E+03 -1.647822E+03 -4.530688E+04
       284  21  3.248365E+04  9.049480E+05  6.061330E+04 -1.074758E+04 -9.581942E+02 -2.282133E+04
       284  22  7.469446E+04  7.618762E+05  9.711324E+04 -1.395610E+04 -5.406183E+02 -6.749287E+04
       284  23 -1.720762E+04  7.471283E+05  4.056686E+04  3.143771E+03 -1.648052E+03 -4.527552E+04
       284  24 -3.206146E+03  7.618986E+05  2.498347E+04 -1.409077E+04 -9.575277E+02 -2.305409E+04
       284  25  3.234116E+04  5.924107E+05  5.483499E+04 -6.329781E+03 -5.419350E+02 -6.719697E+04
       284  26 -5.621421E+04  5.908989E+05  1.699801E+03  5.286036E+03 -1.648281E+03 -4.524416E+04
       284  27 -3.889744E+04  6.188677E+05 -1.064789E+04 -1.743318E+04 -9.568586E+02 -2.328680E+04
       285   1  1.599590E+04  7.737787E+05  2.402772E+04 -1.437258E+04  3.237221E+02  1.896987E+04
       285   2 -6.214637E+01  7.602290E+05  7.219273E+03  2.127928E+03  1.492502E+01  1.590374E+04
       285   3 -7.123212E+03  7.491300E+05 -5.385527E+03 -1.347067E+04 -3.070401E+02  1.283763E+04
       285   4  1.152759E+04  7.558829E+05  1.959131E+04 -1.352111E+04  3.236387E+02  1.901427E+04
       285   5 -1.454119E+03  7.546616E+05  5.833194E+03  2.507630E+03  1.482048E+01  1.595019E+04
       285   6 -5.439071E+03  7.558907E+05 -3.722451E+03 -1.356274E+04 -3.071616E+02  1.288607E+04
       285   7  7.059268E+03  7.379874E+05  1.515487E+04 -1.266966E+04  3.235554E+02  1.905867E+04
       285   8 -2.846094E+03  7.490942E+05  4.447112E+03  2.887329E+03  1.471599E+01  1.599664E+04
       285   9 -3.754932E+03  7.626515E+05 -2.059378E+03 -1.365482E+04 -3.072832E+02  1.293451E+04
       285  10  1.599580E+04  7.737783E+05  2.402704E+04 -1.437258E+04  1.402453E-10 -1.832665E-10
       285  11 -6.221417E+01  7.602287E+05  7.218798E+03  2.127928E+03  5.437619E-10 -2.578605E-10
       285  12 -7.123257E+03  7.491298E+05 -5.385836E+03 -1.347066E+04 -8.803354E-10  2.784328E-11
       285  13  1.152750E+04  7.558825E+05  1.959063E+04 -1.352111E+04  1.676679E-10  2.631553E-11
       285  14 -1.454187E+03  7.546613E+05  5.832716E+03  2.507630E+03  1.047294E-09 -1.866447E-10
       285  15 -5.439115E+03  7.558905E+05 -3.722763E+03 -1.356274E+04  1.890257E-09 -2.147496E-10
       285  16  7.059170E+03  7.379871E+05  1.515419E+04 -1.266966E+04  5.369330E-10  2.637426E-10
       285  17 -2.846163E+03  7.490940E+05  4.446632E+03  2.887329E+03 -2.114415E-09  2.388498E-10
       285  18 -3.754977E+03  7.626513E+05 -2.059692E+03 -1.365482E+04  4.049193E-11  3.942791E-11
       285  19  1.599590E+04  7.737787E+05  2.402772E+04 -1.437258E+04 -3.237221E+02 -1.896987E+04
       285  20 -6.214637E+01  7.602290E+05  7.219273E+03  2.127928E+03 -1.492502E+01 -1.590374E+04
       285  21 -7.123212E+03  7.491300E+05 -5.385527E+03 -1.347067E+04  3.070401E+02 -1.283763E+04
       285  22  1.152759E+04  7.558829E+05  1.959131E+04 -1.352111E+04 -3.236387E+02 -1.901427E+04
       285  23 -1.454119E+03  7.546616E+05  5.833194E+03  2.507630E+03 -1.482048E+01 -1.595019E+04
       285  24 -5.439071E+03  7.558907E+05 -3.722451E+03 -1.356274E+04  3.071616E+02 -1.288607E+04
       285  25  7.059268E+03  7.379874E+05  1.515487E+04 -1.266966E+04 -3.235554E+02 -1.905867E+04
       285  26 -2.846094E+03  7.490942E+05  4.447112E+03  2.887329E+03 -1.471599E+01 -1.599664E+04
       285  27 -3.754932E+03  7.626515E+05 -2.059378E+03 -1.365482E+04  3.072832E+02 -1.293451E+04
       286   1 -2.987645E+04  6.212699E+05 -3.997267E+04 -1.222619E+04 -9.347450E+02  1.364895E+04
       286   2 -2.860547E+04  6.144459E+05 -5.254211E+04  2.408405E+03 -1.661525E+03  2.304664E+04
       286   3 -7.306577E+04  5.950760E+05 -8.263794E+04 -1.710748E+04 -6.710971E+02  3.244757E+04
       286   4  2.913581E+03  7.525578E+05 -7.257957E+03 -1.397451E+04 -9.353111E+02  1.387632E+04
       286   5  7.426099E+03  7.588183E+05 -1.662800E+04  3.066900E+03 -1.661431E+03  2.302847E+04
       286   6 -3.374436E+04  7.525784E+05 -4.335099E+04 -1.404177E+04 -6.704441E+02  3.218406E+04
       286   7  3.570233E+04  8.838613E+05  2.545547E+04 -1.572319E+04 -9.358784E+02  1.410375E+04
       286   8  4.345610E+04  9.032097E+05  1.928455E+04  3.725559E+03 -1.661337E+03  2.301030E+04
       286   9  5.575210E+03  9.101033E+05 -4.065901E+03 -1.097528E+04 -6.697939E+02  3.192048E+04
       286  10 -2.987651E+04  6.212697E+05 -3.997302E+04 -1.222617E+04  1.812012E-10 -8.201252E-10
       286  11 -2.860561E+04  6.144454E+05 -5.254311E+04  2.408436E+03  5.793217E-11 -1.907066E-10
       286  12 -7.306605E+04  5.950749E+05 -8.263991E+04 -1.710746E+04 -6.484061E-10  5.511263E-10
       286  13  2.913529E+03  7.525576E+05 -7.258320E+03 -1.397450E+04 -1.301471E-09  1.088267E-10
       286  14  7.425954E+03  7.588178E+05 -1.662900E+04  3.066931E+03  3.441998E-10 -1.253993E-10
       286  15 -3.374464E+04  7.525773E+05 -4.335293E+04 -1.404175E+04 -6.850381E-10  2.481811E-11
       286  16  3.570228E+04  8.838611E+05  2.545509E+04 -1.572318E+04  8.845907E-10  6.649693E-10
       286  17  4.345596E+04  9.032091E+05  1.928355E+04  3.725589E+03 -7.272305E-10  5.023230E-11
       286  18  5.574936E+03  9.101022E+05 -4.067814E+03 -1.097526E+04 -1.181728E-09 -3.891641E-10
       286  19 -2.987645E+04  6.212699E+05 -3.997267E+04 -1.222619E+04  9.347450E+02 -1.364895E+04
       286  20 -2.860547E+04  6.144459E+05 -5.254211E+04  2.408405E+03  1.661525E+03 -2.304664E+04
       286  21 -7.306577E+04  5.950760E+05 -8.263794E+04 -1.710748E+04  6.710971E+02 -3.244757E+04
       286  22  2.913581E+03  7.525578E+05 -7.257957E+03 -1.397451E+04  9.353111E+02 -1.387632E+04
       286  23  7.426099E+03  7.588183E+05 -1.662800E+04  3.066900E+03  1.661431E+03 -2.302847E+04
       286  24 -3.374436E+04  7.525784E+05 -4.335099E+04 -1.404177E+04  6.704441E+02 -3.218406E+04
       286  25  3.570233E+04  8.838613E+05  2.545547E+04 -1.572319E+04  9.358784E+02 -1.410375E+04
       286  26  4.345610E+04  9.032097E+05  1.928455E+04  3.725559E+03  1.661337E+03 -2.301030E+04
       286  27  5.575210E+03  9.101033E+05 -4.065901E+03 -1.097528E+04  6.697939E+02 -3.192048E+04
       287   1 -8.548439E+05 -3.088552E+05 -2.576943E+05 -2.614452E+05 -1.484381E+05 -5.555349E+04
       287   2 -8.036567E+05 -1.013337E+05 -1.189555E+05 -3.139236E+05 -9.582134E+04 -3.499637E+04
       287   3 -8.487283E+05 -1.291144E+05 -8.425959E+04 -3.042124E+05 -4.292183E+04 -1.518910E+04
       287   4 -7.801680E+05 -2.652802E+05 -2.340537E+05 -2.254125E+05 -1.483145E+05 -5.551149E+04
       287   5 -7.204316E+05 -6.597073E+04 -9.530922E+04 -2.872605E+05 -9.579317E+04 -3.498653E+04
       287   6 -7.569234E+05 -1.019262E+05 -6.052189E+04 -2.869230E+05 -4.298832E+04 -1.521348E+04
       287   7 -7.054862E+05 -2.217020E+05 -2.104136E+05 -1.893752E+05 -1.481908E+05 -5.546948E+04
       287   8 -6.371999E+05 -3.060685E+04 -7.166362E+04 -2.605940E+05 -9.576500E+04 -3.497668E+04
       287   9 -6.651102E+05 -7.473814E+04 -3.678482E+04 -2.696317E+05 -4.305482E+04 -1.523785E+04
       287  10 -8.548685E+05 -3.088645E+05 -2.577416E+05 -2.614519E+05  9.068926E-10  5.820862E-11
       287  11 -8.036669E+05 -1.013375E+05 -1.189751E+05 -3.139263E+05 -2.385440E-10  3.179605E-10
       287  12 -8.487304E+05 -1.291152E+05 -8.426349E+04 -3.042129E+05  2.673668E-10  1.058101E-10
       287  13 -7.801925E+05 -2.652894E+05 -2.341009E+05 -2.254192E+05  5.254891E-10  1.965348E-10
       287  14 -7.204418E+05 -6.597451E+04 -9.532879E+04 -2.872632E+05 -5.917635E-12  4.385635E-10
       287  15 -7.569254E+05 -1.019270E+05 -6.052580E+04 -2.869235E+05  4.472936E-10 -6.277934E-11
       287  16 -7.055107E+05 -2.217113E+05 -2.104607E+05 -1.893819E+05  8.873809E-11  1.866981E-10
       287  17 -6.372101E+05 -3.061063E+04 -7.168318E+04 -2.605967E+05  5.353780E-10  2.173501E-10
       287  18 -6.651123E+05 -7.473889E+04 -3.678875E+04 -2.696322E+05 -5.088294E-10  1.608281E-10
       287  19 -8.548439E+05 -3.088552E+05 -2.576943E+05 -2.614452E+05  1.484381E+05  5.555349E+04
       287  20 -8.036567E+05 -1.013337E+05 -1.189555E+05 -3.139236E+05  9.582134E+04  3.499637E+04
       287  21 -8.487283E+05 -1.291144E+05 -8.425959E+04 -3.042124E+05  4.292183E+04  1.518910E+04
       287  22 -7.801680E+05 -2.652802E+05 -2.340537E+05 -2.254125E+05  1.483145E+05  5.551149E+04
       287  23 -7.204316E+05 -6.597073E+04 -9.530922E+04 -2.872605E+05  9.579317E+04  3.498653E+04
       287  24 -7.569234E+05 -1.019262E+05 -6.052189E+04 -2.869230E+05  4.298832E+04  1.521348E+04
       287  25 -7.054862E+05 -2.217020E+05 -2.104136E+05 -1.893752E+05  1.481908E+05  5.546948E+04
       287  26 -6.371999E+05 -3.060685E+04 -7.166362E+04 -2.605940E+05  9.576500E+04  3.497668E+04
       287  27 -6.651102E+05 -7.473814E+04 -3.678482E+04 -2.696317E+05  4.305482E+04  1.523785E+04
       288   1 -8.302393E+05 -1.631142E+05 -7.278872E+04 -2.965014E+05 -3.374960E+04 -1.185622E+04
       288   2 -8.222411E+05 -1.303115E+05 -4.500554E+04 -3.031882E+05 -2.181753E+04 -7.262624E+03
       288   3 -8.275642E+05 -1.351548E+05 -3.595818E+04 -3.025560E+05 -9.817646E+03 -2.849067E+03
       288   4 -7.487283E+05 -1.300494E+05 -4.992533E+04 -2.719995E+05 -3.372830E+04 -1.184836E+04
       288   5 -7.403073E+05 -9.880397E+04 -2.237806E+04 -2.803294E+05 -2.181898E+04 -7.263201E+03
       288   6 -7.452012E+05 -1.051972E+05 -1.354667E+04 -2.813408E+05 -9.841838E+03 -2.858140E+03
       288   7 -6.672109E+05 -9.698398E+04 -2.706260E+04 -2.474946E+05 -3.370699E+04 -1.184051E+04
       288   8 -6.583671E+05 -6.729601E+04  2.488022E+02 -2.574679E+05 -2.182043E+04 -7.263779E+03
       288   9 -6.628317E+05 -7.523931E+04  8.864257E+03 -2.601232E+05 -9.866035E+03 -2.867214E+03
       288  10 -8.302405E+05 -1.631147E+05 -7.279113E+04 -2.965018E+05 -2.522475E-10 -2.521478E-11
       288  11 -8.222416E+05 -1.303117E+05 -4.500653E+04 -3.031883E+05 -9.185639E-10  2.334948E-10
       288  12 -8.275643E+05 -1.351549E+05 -3.595837E+04 -3.025560E+05  3.175935E-10 -1.690352E-10
       288  13 -7.487295E+05 -1.300499E+05 -4.992774E+04 -2.719998E+05 -1.444862E-10 -3.955541E-10
       288  14 -7.403078E+05 -9.880416E+04 -2.237905E+04 -2.803295E+05 -3.535450E-10  4.030972E-11
       288  15 -7.452013E+05 -1.051972E+05 -1.354686E+04 -2.813409E+05 -1.395924E-10  1.359725E-11
       288  16 -6.672122E+05 -9.698444E+04 -2.706500E+04 -2.474949E+05  3.246182E-10 -1.141190E-10
       288  17 -6.583676E+05 -6.729619E+04  2.478071E+02 -2.574680E+05  4.682251E-10 -6.769232E-11
       288  18 -6.628318E+05 -7.523934E+04  8.864059E+03 -2.601232E+05  4.466810E-10  5.105467E-11
       288  19 -8.302393E+05 -1.631142E+05 -7.278872E+04 -2.965014E+05  3.374960E+04  1.185622E+04
       288  20 -8.222411E+05 -1.303115E+05 -4.500554E+04 -3.031882E+05  2.181753E+04  7.262624E+03
       288  21 -8.275642E+05 -1.351548E+05 -3.595818E+04 -3.025560E+05  9.817646E+03  2.849067E+03
       288  22 -7.487283E+05 -1.300494E+05 -4.992533E+04 -2.719995E+05  3.372830E+04  1.184836E+04
       288  23 -7.403073E+05 -9.880397E+04 -2.237806E+04 -2.803294E+05  2.181898E+04  7.263201E+03
       288  24 -7.452012E+05 -1.051972E+05 -1.354667E+04 -2.813408E+05  9.841838E+03  2.858140E+03
       288  25 -6.672109E+05 -9.698398E+04 -2.706260E+04 -2.474946E+05  3.370699E+04  1.184051E+04
       288  26 -6.583671E+05 -6.729601E+04  2.488022E+02 -2.574679E+05  2.182043E+04  7.263779E+03
       288  27 -6.628317E+05 -7.523931E+04  8.864257E+03 -2.601232E+05  9.866035E+03  2.867214E+03
       289   1 -8.100558E+05 -1.352407E+05 -2.920231E+04 -2.978832E+05 -7.786596E+03 -2.149276E+03
       289   2 -8.088267E+05 -1.279880E+05 -2.310791E+04 -2.965458E+05 -5.031686E+03 -1.159866E+03
       289   3 -8.063766E+05 -1.297798E+05 -2.053380E+04 -2.979036E+05 -2.249052E+03 -2.444379E+02
       289   4 -7.435185E+05 -1.097849E+05 -1.085435E+04 -2.794536E+05 -7.787544E+03 -2.149643E+03
       289   5 -7.438642E+05 -1.033858E+05 -5.242232E+03 -2.788109E+05 -5.042312E+03 -1.163860E+03
       289   6 -7.429869E+05 -1.060287E+05 -3.142427E+03 -2.808633E+05 -2.269365E+03 -2.520617E+02
       289   7 -6.769769E+05 -8.432879E+04  7.493198E+03 -2.610224E+05 -7.788493E+03 -2.150009E+03
       289   8 -6.788978E+05 -7.878328E+04  1.262305E+04 -2.610743E+05 -5.052939E+03 -1.167855E+03
       289   9 -6.795935E+05 -8.227751E+04  1.424857E+04 -2.638214E+05 -2.289680E+03 -2.596864E+02
       289  10 -8.100559E+05 -1.352407E+05 -2.920243E+04 -2.978832E+05  4.492803E-10 -2.607361E-10
       289  11 -8.088267E+05 -1.279880E+05 -2.310796E+04 -2.965458E+05 -2.778395E-10 -1.070478E-10
       289  12 -8.063766E+05 -1.297798E+05 -2.053381E+04 -2.979036E+05  1.249540E-11  8.050963E-11
       289  13 -7.435185E+05 -1.097849E+05 -1.085447E+04 -2.794537E+05  2.598213E-11 -8.678282E-11
       289  14 -7.438642E+05 -1.033858E+05 -5.242282E+03 -2.788109E+05 -1.362862E-10  2.266556E-10
       289  15 -7.429869E+05 -1.060287E+05 -3.142437E+03 -2.808633E+05 -1.690953E-10  1.373209E-11
       289  16 -6.769769E+05 -8.432881E+04  7.493075E+03 -2.610224E+05  4.592990E-10  7.342955E-11
       289  17 -6.788978E+05 -7.878329E+04  1.262300E+04 -2.610743E+05 -8.640865E-10 -3.295367E-10
       289  18 -6.795935E+05 -8.227751E+04  1.424856E+04 -2.638214E+05 -6.266048E-10  6.528527E-11
       289  19 -8.100558E+05 -1.352407E+05 -2.920231E+04 -2.978832E+05  7.786596E+03  2.149276E+03
       289  20 -8.088267E+05 -1.279880E+05 -2.310791E+04 -2.965458E+05  5.031686E+03  1.159866E+03
       289  21 -8.063766E+05 -1.297798E+05 -2.053380E+04 -2.979036E+05  2.249052E+03  2.444379E+02
       289  22 -7.435185E+05 -1.097849E+05 -1.085435E+04 -2.794536E+05  7.787544E+03  2.149643E+03
       289  23 -7.438642E+05 -1.033858E+05 -5.242232E+03 -2.788109E+05  5.042312E+03  1.163860E+03
       289  24 -7.429869E+05 -1.060287E+05 -3.142427E+03 -2.808633E+05  2.269365E+03  2.520617E+02
       289  25 -6.769769E+05 -8.432879E+04  7.493198E+03 -2.610224E+05  7.788493E+03  2.150009E+03
       289  26 -6.788978E+05 -7.878328E+04  1.262305E+04 -2.610743E+05  5.052939E+03  1.167855E+03
       289  27 -6.795935E+05 -8.227751E+04  1.424857E+04 -2.638214E+05  2.289680E+03  2.596864E+02
       290   1 -7.818034E+05 -1.218198E+05 -1.332551E+04 -2.915762E+05 -1.761937E+03 -1.392699E+02
       290   2 -7.816102E+05 -1.177207E+05 -1.159854E+04 -2.882953E+05 -9.778212E+02  4.583186E+01
       290   3 -7.769685E+05 -1.194480E+05 -1.068114E+04 -2.903744E+05 -1.808086E+02  1.965143E+02
       290   4 -7.424981E+05 -1.069365E+05 -2.523346E+03 -2.808461E+05 -1.772563E+03 -1.432578E+02
       290   5 -7.446883E+05 -1.037792E+05 -1.452768E+03 -2.782579E+05 -9.930377E+02  4.012450E+01
       290   6 -7.424292E+05 -1.064473E+05 -1.188076E+03 -2.810296E+05 -2.006196E+02  1.890870E+02
       290   7 -7.031913E+05 -9.205320E+04  8.278682E+03 -2.701154E+05 -1.783190E+03 -1.472459E+02
       290   8 -7.077651E+05 -8.983769E+04  8.692888E+03 -2.682200E+05 -1.008255E+03  3.441675E+01
       290   9 -7.078888E+05 -9.344656E+04  8.304876E+03 -2.716844E+05 -2.204318E+02  1.816592E+02
       290  10 -7.818034E+05 -1.218198E+05 -1.332551E+04 -2.915762E+05  6.551535E-11 -9.482389E-11
       290  11 -7.816102E+05 -1.177207E+05 -1.159855E+04 -2.882953E+05  1.637041E-10 -1.595046E-10
       290  12 -7.769685E+05 -1.194480E+05 -1.068114E+04 -2.903744E+05 -2.859710E-10  2.930133E-11
       290  13 -7.424981E+05 -1.069365E+05 -2.523352E+03 -2.808461E+05 -2.504804E-10 -1.729533E-11
       290  14 -7.446883E+05 -1.037792E+05 -1.452770E+03 -2.782579E+05  3.212978E-11 -1.678923E-10
       290  15 -7.424292E+05 -1.064473E+05 -1.188076E+03 -2.810296E+05 -9.189639E-10 -2.477091E-10
       290  16 -7.031913E+05 -9.205320E+04  8.278676E+03 -2.701154E+05  7.951616E-11 -2.603492E-10
       290  17 -7.077651E+05 -8.983769E+04  8.692886E+03 -2.682200E+05  5.993624E-10 -1.548631E-10
       290  18 -7.078888E+05 -9.344656E+04  8.304876E+03 -2.716844E+05 -5.777656E-10 -3.081303E-10
       290  19 -7.818034E+05 -1.218198E+05 -1.332551E+04 -2.915762E+05  1.761937E+03  1.392699E+02
       290  20 -7.816102E+05 -1.177207E+05 -1.159854E+04 -2.882953E+05  9.778212E+02 -4.583186E+01
       290  21 -7.769685E+05 -1.194480E+05 -1.068114E+04 -2.903744E+05  1.808086E+02 -1.965143E+02
       290  22 -7.424981E+05 -1.069365E+05 -2.523346E+03 -2.808461E+05  1.772563E+03  1.432578E+02
       290  23 -7.446883E+05 -1.037792E+05 -1.452768E+03 -2.782579E+05  9.930377E+02 -4.012450E+01
       290  24 -7.424292E+05 -1.064473E+05 -1.188076E+03 -2.810296E+05  2.006196E+02 -1.890870E+02
       290  25 -7.031913E+05 -9.205320E+04  8.278682E+03 -2.701154E+05  1.783190E+03  1.472459E+02
       290  26 -7.077651E+05 -8.983769E+04  8.692888E+03 -2.682200E+05  1.008255E+03 -3.441675E+01
       290  27 -7.078888E+05 -9.344656E+04  8.304876E+03 -2.716844E+05  2.204318E+02 -1.816592E+02
       291   1 -7.477165E+05 -1.086370E+05 -2.664306E+03 -2.826613E+05  4.368671E+01  1.888420E+02
       291   2 -7.475815E+05 -1.046698E+05 -2.174265E+03 -2.788298E+05  8.173513E+02  3.366191E+02
       291   3 -7.424927E+05 -1.070263E+05 -2.476891E+03 -2.809696E+05  1.591064E+03  4.842763E+02
       291   4 -7.423183E+05 -1.065693E+05 -1.184524E+03 -2.811611E+05  2.689988E+01  1.825498E+02
       291   5 -7.448278E+05 -1.036377E+05 -1.419074E+03 -2.780892E+05  8.005514E+02  3.303221E+02
       291   6 -7.423834E+05 -1.070299E+05 -2.446281E+03 -2.809886E+05  1.574248E+03  4.779735E+02
       291   7 -7.369200E+05 -1.045015E+05  2.952535E+02 -2.796608E+05  1.011291E+01  1.762575E+02
       291   8 -7.420740E+05 -1.026057E+05 -6.638834E+02 -2.773485E+05  7.837514E+02  3.240252E+02
       291   9 -7.422740E+05 -1.070335E+05 -2.415671E+03 -2.810075E+05  1.557432E+03  4.716706E+02
       291  10 -7.477165E+05 -1.086370E+05 -2.664306E+03 -2.826613E+05 -6.504917E-10 -5.057969E-10
       291  11 -7.475815E+05 -1.046698E+05 -2.174266E+03 -2.788298E+05 -8.226436E-10 -1.960877E-11
       291  12 -7.424927E+05 -1.070263E+05 -2.476896E+03 -2.809696E+05 -1.242630E-10 -1.408912E-10
       291  13 -7.423183E+05 -1.065693E+05 -1.184524E+03 -2.811611E+05 -1.236196E-09 -2.279589E-10
       291  14 -7.448278E+05 -1.036377E+05 -1.419075E+03 -2.780892E+05 -5.332108E-10 -1.655667E-10
       291  15 -7.423834E+05 -1.070299E+05 -2.446286E+03 -2.809886E+05 -5.043773E-10 -1.200492E-10
       291  16 -7.369200E+05 -1.045015E+05  2.952534E+02 -2.796608E+05 -1.145098E-09 -2.790873E-10
       291  17 -7.420740E+05 -1.026057E+05 -6.638848E+02 -2.773485E+05 -8.947515E-10 -3.290446E-10
       291  18 -7.422740E+05 -1.070335E+05 -2.415676E+03 -2.810075E+05  3.455506E-10  1.787444E-10
       291  19 -7.477165E+05 -1.086370E+05 -2.664306E+03 -2.826613E+05 -4.368671E+01 -1.888420E+02
       291  20 -7.475815E+05 -1.046698E+05 -2.174265E+03 -2.788298E+05 -8.173513E+02 -3.366191E+02
       291  21 -7.424927E+05 -1.070263E+05 -2.476891E+03 -2.809696E+05 -1.591064E+03 -4.842763E+02
       291  22 -7.423183E+05 -1.065693E+05 -1.184524E+03 -2.811611E+05 -2.689988E+01 -1.825498E+02
       291  23 -7.448278E+05 -1.036377E+05 -1.419074E+03 -2.780892E+05 -8.005514E+02 -3.303221E+02
       291  24 -7.423834E+05 -1.070299E+05 -2.446281E+03 -2.809886E+05 -1.574248E+03 -4.779735E+02
       291  25 -7.369200E+05 -1.045015E+05  2.952535E+02 -2.796608E+05 -1.011291E+01 -1.762575E+02
       291  26 -7.420740E+05 -1.026057E+05 -6.638834E+02 -2.773485E+05 -7.837514E+02 -3.240252E+02
       291  27 -7.422740E+05 -1.070335E+05 -2.415671E+03 -2.810075E+05 -1.557432E+03 -4.716706E+02
       292   1 -7.131343E+05 -9.538809E+04  5.044603E+03 -2.733933E+05  2.083814E+03  5.738873E+02
       292   2 -7.124319E+05 -9.092809E+04  3.700907E+03 -2.696177E+05  4.764416E+03  1.427464E+03
       292   3 -7.090333E+05 -9.678644E+04 -1.044341E+03 -2.702807E+05  7.428146E+03  2.326054E+03
       292   4 -7.426660E+05 -1.063578E+05 -3.044206E+03 -2.812329E+05  2.062847E+03  5.660281E+02
       292   5 -7.442692E+05 -1.030093E+05 -5.059026E+03 -2.783348E+05  4.749382E+03  1.421826E+03
       292   6 -7.431774E+05 -1.099805E+05 -1.048024E+04 -2.798752E+05  7.419034E+03  2.322631E+03
       292   7 -7.721969E+05 -1.173275E+05 -1.113309E+04 -2.890721E+05  2.041881E+03  5.581693E+02
       292   8 -7.761055E+05 -1.150904E+05 -1.381905E+04 -2.870514E+05  4.734350E+03  1.416188E+03
       292   9 -7.773204E+05 -1.231744E+05 -1.991623E+04 -2.894693E+05  7.409923E+03  2.319208E+03
       292  10 -7.131343E+05 -9.538810E+04  5.044595E+03 -2.733933E+05 -5.462747E-10 -2.713477E-10
       292  11 -7.124319E+05 -9.092810E+04  3.700860E+03 -2.696177E+05 -8.697168E-11  1.586780E-10
       292  12 -7.090334E+05 -9.678646E+04 -1.044455E+03 -2.702807E+05 -1.704418E-10  1.347345E-10
       292  13 -7.426660E+05 -1.063578E+05 -3.044214E+03 -2.812329E+05 -4.792258E-10 -1.898448E-10
       292  14 -7.442692E+05 -1.030093E+05 -5.059072E+03 -2.783348E+05 -4.265318E-10 -4.564992E-10
       292  15 -7.431775E+05 -1.099805E+05 -1.048035E+04 -2.798753E+05  5.968288E-12  9.407765E-12
       292  16 -7.721969E+05 -1.173275E+05 -1.113310E+04 -2.890721E+05 -1.087652E-10 -1.670075E-11
       292  17 -7.761055E+05 -1.150904E+05 -1.381909E+04 -2.870514E+05  1.131817E-11  1.833127E-11
       292  18 -7.773204E+05 -1.231744E+05 -1.991634E+04 -2.894693E+05 -3.607918E-10 -1.800667E-10
       292  19 -7.131343E+05 -9.538809E+04  5.044603E+03 -2.733933E+05 -2.083814E+03 -5.738873E+02
       292  20 -7.124319E+05 -9.092809E+04  3.700907E+03 -2.696177E+05 -4.764416E+03 -1.427464E+03
       292  21 -7.090333E+05 -9.678644E+04 -1.044341E+03 -2.702807E+05 -7.428146E+03 -2.326054E+03
       292  22 -7.426660E+05 -1.063578E+05 -3.044206E+03 -2.812329E+05 -2.062847E+03 -5.660281E+02
       292  23 -7.442692E+05 -1.030093E+05 -5.059026E+03 -2.783348E+05 -4.749382E+03 -1.421826E+03
       292  24 -7.431774E+05 -1.099805E+05 -1.048024E+04 -2.798752E+05 -7.419034E+03 -2.322631E+03
       292  25 -7.721969E+05 -1.173275E+05 -1.113309E+04 -2.890721E+05 -2.041881E+03 -5.581693E+02
       292  26 -7.761055E+05 -1.150904E+05 -1.381905E+04 -2.870514E+05 -4.734350E+03 -1.416188E+03
       292  27 -7.773204E+05 -1.231744E+05 -1.991623E+04 -2.894693E+05 -7.409923E+03 -2.319208E+03
       293   1 -6.844613E+05 -8.408727E+04  3.248367E+03 -2.666481E+05  9.443880E+03  2.985870E+03
       293   2 -6.801255E+05 -7.490463E+04 -4.760489E+03 -2.625142E+05  2.099998E+04  7.177558E+03
       293   3 -6.864718E+05 -1.042686E+05 -3.082614E+04 -2.538830E+05  3.249476E+04  1.153330E+04
       293   4 -7.446619E+05 -1.056912E+05 -1.307759E+04 -2.818529E+05  9.415268E+03  2.975156E+03
       293   5 -7.410148E+05 -9.841232E+04 -2.159293E+04 -2.796000E+05  2.099236E+04  7.174672E+03
       293   6 -7.480553E+05 -1.296864E+05 -4.818310E+04 -2.728495E+05  3.250811E+04  1.153816E+04
       293   7 -8.048592E+05 -1.272951E+05 -2.940389E+04 -2.970565E+05  9.386659E+03  2.964442E+03
       293   8 -8.019006E+05 -1.219198E+05 -3.842571E+04 -2.966843E+05  2.098474E+04  7.171786E+03
       293   9 -8.096352E+05 -1.551038E+05 -6.554043E+04 -2.918143E+05  3.252146E+04  1.154303E+04
       293  10 -6.844614E+05 -8.408731E+04  3.248183E+03 -2.666481E+05  7.562990E-10  6.196681E-10
       293  11 -6.801259E+05 -7.490480E+04 -4.761416E+03 -2.625143E+05  7.312103E-10  1.377518E-10
       293  12 -6.864730E+05 -1.042690E+05 -3.082838E+04 -2.538833E+05 -4.960054E-10  4.370239E-10
       293  13 -7.446620E+05 -1.056912E+05 -1.307778E+04 -2.818529E+05  2.389975E-10 -6.802597E-12
       293  14 -7.410153E+05 -9.841249E+04 -2.159385E+04 -2.796002E+05 -8.117638E-11 -1.594283E-10
       293  15 -7.480565E+05 -1.296868E+05 -4.818534E+04 -2.728498E+05  2.981116E-10 -4.963645E-10
       293  16 -8.048593E+05 -1.272951E+05 -2.940407E+04 -2.970565E+05  2.850268E-10 -4.180559E-10
       293  17 -8.019011E+05 -1.219199E+05 -3.842664E+04 -2.966845E+05  1.231224E-09  7.799539E-10
       293  18 -8.096364E+05 -1.551042E+05 -6.554267E+04 -2.918146E+05  1.007664E-09  9.587909E-10
       293  19 -6.844613E+05 -8.408727E+04  3.248367E+03 -2.666481E+05 -9.443880E+03 -2.985870E+03
       293  20 -6.801255E+05 -7.490463E+04 -4.760489E+03 -2.625142E+05 -2.099998E+04 -7.177558E+03
       293  21 -6.864718E+05 -1.042686E+05 -3.082614E+04 -2.538830E+05 -3.249476E+04 -1.153330E+04
       293  22 -7.446619E+05 -1.056912E+05 -1.307759E+04 -2.818529E+05 -9.415268E+03 -2.975156E+03
       293  23 -7.410148E+05 -9.841232E+04 -2.159293E+04 -2.796000E+05 -2.099236E+04 -7.174672E+03
       293  24 -7.480553E+05 -1.296864E+05 -4.818310E+04 -2.728495E+05 -3.250811E+04 -1.153816E+04
       293  25 -8.048592E+05 -1.272951E+05 -2.940389E+04 -2.970565E+05 -9.386659E+03 -2.964442E+03
       293  26 -8.019006E+05 -1.219198E+05 -3.842571E+04 -2.966843E+05 -2.098474E+04 -7.171786E+03
       293  27 -8.096352E+05 -1.551038E+05 -6.554043E+04 -2.918143E+05 -3.252146E+04 -1.154303E+04
       294   1 -6.710901E+05 -7.780738E+04 -3.654043E+04 -2.716852E+05  4.153913E+04  1.476448E+04
       294   2 -6.441432E+05 -3.351589E+04 -6.986296E+04 -2.611872E+05  9.243513E+04  3.371625E+04
       294   3 -7.074773E+05 -2.188031E+05 -2.034255E+05 -1.936290E+05  1.430438E+05  5.343530E+04
       294   4 -7.559102E+05 -1.025894E+05 -5.840688E+04 -2.872999E+05  4.146400E+04  1.473686E+04
       294   5 -7.219325E+05 -6.664230E+04 -9.197644E+04 -2.861946E+05  9.245714E+04  3.372381E+04
       294   6 -7.782664E+05 -2.603110E+05 -2.258730E+05 -2.280258E+05  1.431636E+05  5.347605E+04
       294   7 -8.407233E+05 -1.273717E+05 -8.027387E+04 -3.029130E+05  4.138887E+04  1.470925E+04
       294   8 -7.997159E+05 -9.976787E+04 -1.140905E+05 -3.111989E+05  9.247915E+04  3.373138E+04
       294   9 -8.490499E+05 -3.018159E+05 -2.483208E+05 -2.624183E+05  1.432833E+05  5.351679E+04
       294  10 -6.710920E+05 -7.780808E+04 -3.654409E+04 -2.716857E+05  3.092009E-10  1.235686E-09
       294  11 -6.441526E+05 -3.351941E+04 -6.988117E+04 -2.611897E+05  3.052891E-10  9.547429E-10
       294  12 -7.075000E+05 -2.188117E+05 -2.034694E+05 -1.936352E+05 -1.592310E-10  1.635770E-10
       294  13 -7.559121E+05 -1.025901E+05 -5.841052E+04 -2.873004E+05 -5.117116E-10 -3.241230E-10
       294  14 -7.219420E+05 -6.664583E+04 -9.199467E+04 -2.861971E+05  8.247981E-10 -2.584758E-10
       294  15 -7.782892E+05 -2.603196E+05 -2.259169E+05 -2.280320E+05 -3.497766E-10 -2.715276E-11
       294  16 -8.407252E+05 -1.273724E+05 -8.027750E+04 -3.029134E+05 -6.041855E-10  6.718217E-10
       294  17 -7.997254E+05 -9.977139E+04 -1.141087E+05 -3.112015E+05 -3.102335E-11  3.553567E-10
       294  18 -8.490728E+05 -3.018245E+05 -2.483648E+05 -2.624245E+05 -9.476652E-11  7.391525E-11
       294  19 -6.710901E+05 -7.780738E+04 -3.654043E+04 -2.716852E+05 -4.153913E+04 -1.476448E+04
       294  20 -6.441432E+05 -3.351589E+04 -6.986296E+04 -2.611872E+05 -9.243513E+04 -3.371625E+04
       294  21 -7.074773E+05 -2.188031E+05 -2.034255E+05 -1.936290E+05 -1.430438E+05 -5.343530E+04
       294  22 -7.559102E+05 -1.025894E+05 -5.840688E+04 -2.872999E+05 -4.146400E+04 -1.473686E+04
       294  23 -7.219325E+05 -6.664230E+04 -9.197644E+04 -2.861946E+05 -9.245714E+04 -3.372381E+04
       294  24 -7.782664E+05 -2.603110E+05 -2.258730E+05 -2.280258E+05 -1.431636E+05 -5.347605E+04
       294  25 -8.407233E+05 -1.273717E+05 -8.027387E+04 -3.029130E+05 -4.138887E+04 -1.470925E+04
       294  26 -7.997159E+05 -9.976787E+04 -1.140905E+05 -3.111989E+05 -9.247915E+04 -3.373138E+04
       294  27 -8.490499E+05 -3.018159E+05 -2.483208E+05 -2.624183E+05 -1.432833E+05 -5.351679E+04
       295   1  4.636498E+04  6.054691E+04  9.794326E+04  4.181747E+03  1.084081E+05  9.246951E+02
       295   2  3.003075E+04 -8.796650E+04  8.734912E+03  6.000562E+03  7.152315E+04  2.550225E+03
       295   3  6.299959E+04 -6.151310E+04 -1.255939E+04 -1.381626E+04  3.463742E+04  1.941665E+03
       295   4  2.929905E+05  1.221689E+05  1.594988E+05 -7.989856E+03  1.088332E+05  9.225871E+02
       295   5  2.683231E+05 -2.844714E+04  6.805620E+04  2.831799E+03  7.161333E+04  2.549771E+03
       295   6  2.929985E+05 -4.074227E+03  4.474100E+04 -7.981982E+03  3.439319E+04  1.942172E+03
       295   7  5.396714E+05  1.837869E+05  2.210499E+05 -2.016630E+04  1.092585E+05  9.204632E+02
       295   8  5.066671E+05  3.106799E+04  1.273732E+05 -3.381757E+02  7.170354E+04  2.549316E+03
       295   9  5.230455E+05  5.336080E+04  1.020374E+05 -2.145533E+03  3.414886E+04  1.942675E+03
       295  10  4.635236E+04  6.054375E+04  9.792117E+04  4.181666E+03  1.995129E-10  1.379411E-11
       295  11  3.002525E+04 -8.796788E+04  8.725288E+03  6.000415E+03 -5.805847E-11  4.248442E-10
       295  12  6.299831E+04 -6.151343E+04 -1.256166E+04 -1.381631E+04 -2.109891E-10 -8.872139E-11
       295  13  2.929778E+05  1.221658E+05  1.594766E+05 -7.989937E+03  5.150807E-10  1.760078E-11
       295  14  2.683176E+05 -2.844852E+04  6.804656E+04  2.831652E+03  1.718047E-09  1.807925E-10
       295  15  2.929973E+05 -4.074548E+03  4.473877E+04 -7.982036E+03  6.537238E-10  2.006118E-10
       295  16  5.396586E+05  1.837837E+05  2.210275E+05 -2.016638E+04  3.591135E-10 -3.688898E-11
       295  17  5.066615E+05  3.106660E+04  1.273636E+05 -3.383228E+02  3.472495E-10  2.374398E-10
       295  18  5.230443E+05  5.336048E+04  1.020353E+05 -2.145587E+03  1.070083E-10  4.015468E-10
       295  19  4.636498E+04  6.054691E+04  9.794326E+04  4.181747E+03 -1.084081E+05 -9.246951E+02
       295  20  3.003075E+04 -8.796650E+04  8.734912E+03  6.000562E+03 -7.152315E+04 -2.550225E+03
       295  21  6.299959E+04 -6.151310E+04 -1.255939E+04 -1.381626E+04 -3.463742E+04 -1.941665E+03
       295  22  2.929905E+05  1.221689E+05  1.594988E+05 -7.989856E+03 -1.088332E+05 -9.225871E+02
       295  23  2.683231E+05 -2.844714E+04  6.805620E+04  2.831799E+03 -7.161333E+04 -2.549771E+03
       295  24  2.929985E+05 -4.074227E+03  4.474100E+04 -7.981982E+03 -3.439319E+04 -1.942172E+03
       295  25  5.396714E+05  1.837869E+05  2.210499E+05 -2.016630E+04 -1.092585E+05 -9.204632E+02
       295  26  5.066671E+05  3.106799E+04  1.273732E+05 -3.381757E+02 -7.170354E+04 -2.549316E+03
       295  27  5.230455E+05  5.336080E+04  1.020374E+05 -2.145533E+03 -3.414886E+04 -1.942675E+03
       296   1  1.316109E+05 -1.951255E+04 -9.083420E+02 -5.597324E+03  2.696225E+04  1.395353E+03
       296   2  1.350587E+05 -4.047947E+04 -1.837766E+04  2.820223E+03  1.773429E+04  1.377573E+03
       296   3  1.465736E+05 -3.485188E+04 -2.314711E+04 -8.254670E+03  8.505510E+03  1.036213E+03
       296   4  2.838334E+05  1.851275E+04  3.700562E+04 -7.486542E+03  2.698595E+04  1.395227E+03
       296   5  2.797967E+05 -4.327513E+03  1.766735E+04  2.248534E+03  1.770937E+04  1.377576E+03
       296   6  2.838333E+05 -5.682148E+02  1.106048E+04 -7.508514E+03  8.432074E+03  1.036339E+03
       296   7  4.360770E+05  5.653632E+04  7.491785E+04 -9.376218E+03  2.700966E+04  1.395102E+03
       296   8  4.245536E+05  3.182287E+04  5.371079E+04  1.676719E+03  1.768444E+04  1.377579E+03
       296   9  4.211101E+05  3.371404E+04  4.526664E+04 -6.762185E+03  8.358621E+03  1.036465E+03
       296  10  1.316101E+05 -1.951275E+04 -9.097115E+02 -5.597354E+03 -1.739252E-10 -1.731531E-10
       296  11  1.350584E+05 -4.047956E+04 -1.837825E+04  2.820203E+03  1.974606E-10 -4.249379E-10
       296  12  1.465735E+05 -3.485190E+04 -2.314725E+04 -8.254677E+03 -1.250258E-09  8.787863E-10
       296  13  2.838327E+05  1.851255E+04  3.700425E+04 -7.486573E+03 -4.438907E-11  4.918672E-10
       296  14  2.797963E+05 -4.327599E+03  1.766676E+04  2.248514E+03  7.507297E-10 -1.722817E-09
       296  15  2.838332E+05 -5.682350E+02  1.106034E+04 -7.508521E+03 -2.553678E-10  5.920469E-10
       296  16  4.360762E+05  5.653612E+04  7.491647E+04 -9.376249E+03  7.119880E-11 -1.002774E-10
       296  17  4.245533E+05  3.182278E+04  5.371020E+04  1.676699E+03  9.287386E-10 -5.602751E-10
       296  18  4.211100E+05  3.371402E+04  4.526651E+04 -6.762192E+03  7.848622E-10  2.499566E-10
       296  19  1.316109E+05 -1.951255E+04 -9.083420E+02 -5.597324E+03 -2.696225E+04 -1.395353E+03
       296  20  1.350587E+05 -4.047947E+04 -1.837766E+04  2.820223E+03 -1.773429E+04 -1.377573E+03
       296  21  1.465736E+05 -3.485188E+04 -2.314711E+04 -8.254670E+03 -8.505510E+03 -1.036213E+03
       296  22  2.838334E+05  1.851275E+04  3.700562E+04 -7.486542E+03 -2.698595E+04 -1.395227E+03
       296  23  2.797967E+05 -4.327513E+03  1.766735E+04  2.248534E+03 -1.770937E+04 -1.377576E+03
       296  24  2.838333E+05 -5.682148E+02  1.106048E+04 -7.508514E+03 -8.432074E+03 -1.036339E+03
       296  25  4.360770E+05  5.653632E+04  7.491785E+04 -9.376218E+03 -2.700966E+04 -1.395102E+03
       296  26  4.245536E+05  3.182287E+04  5.371079E+04  1.676719E+03 -1.768444E+04 -1.377579E+03
       296  27  4.211101E+05  3.371404E+04  4.526664E+04 -6.762185E+03 -8.358621E+03 -1.036465E+03
       297   1  2.169411E+05 -1.352744E+04 -7.387044E+03 -6.920549E+03  6.658891E+03  8.049298E+02
       297   2  2.233605E+05 -1.523117E+04 -9.860030E+03  2.082135E+03  4.276795E+03  5.428158E+02
       297   3  2.310685E+05 -1.284310E+04 -9.768756E+03 -7.324310E+03  1.894509E+03  2.390923E+02
       297   4  2.823303E+05  2.801401E+03  8.879378E+03 -7.256158E+03  6.623953E+03  8.049868E+02
       297   5  2.816853E+05 -6.638873E+02  4.665504E+03  1.945707E+03  4.235638E+03  5.428935E+02
       297   6  2.823297E+05 -3.651632E+01  3.020013E+03 -7.261448E+03  1.847159E+03  2.391911E+02
       297   7  3.477234E+05  1.912992E+04  2.514548E+04 -7.591799E+03  6.589010E+03  8.050438E+02
       297   8  3.400131E+05  1.390314E+04  1.919078E+04  1.809267E+03  4.194476E+03  5.429712E+02
       297   9  3.335932E+05  1.276987E+04  1.580858E+04 -7.198579E+03  1.799806E+03  2.392899E+02
       297  10  2.169410E+05 -1.352745E+04 -7.387129E+03 -6.920554E+03  1.065275E-09  1.719554E-10
       297  11  2.233605E+05 -1.523117E+04 -9.860065E+03  2.082133E+03  6.992303E-10  4.498050E-11
       297  12  2.310685E+05 -1.284310E+04 -9.768763E+03 -7.324311E+03 -1.939027E-09 -1.134459E-09
       297  13  2.823302E+05  2.801389E+03  8.879294E+03 -7.256162E+03 -5.351675E-10  2.621509E-10
       297  14  2.816853E+05 -6.638924E+02  4.665470E+03  1.945705E+03 -3.579740E-10  7.707742E-10
       297  15  2.823297E+05 -3.651729E+01  3.020006E+03 -7.261448E+03 -7.306902E-11  1.734195E-09
       297  16  3.477233E+05  1.912991E+04  2.514540E+04 -7.591803E+03 -3.075683E-10  3.137014E-10
       297  17  3.400131E+05  1.390313E+04  1.919075E+04  1.809266E+03  1.020484E-09 -1.598252E-09
       297  18  3.335932E+05  1.276987E+04  1.580858E+04 -7.198580E+03  7.177128E-10 -4.497454E-10
       297  19  2.169411E+05 -1.352744E+04 -7.387044E+03 -6.920549E+03 -6.658891E+03 -8.049298E+02
       297  20  2.233605E+05 -1.523117E+04 -9.860030E+03  2.082135E+03 -4.276795E+03 -5.428158E+02
       297  21  2.310685E+05 -1.284310E+04 -9.768756E+03 -7.324310E+03 -1.894509E+03 -2.390923E+02
       297  22  2.823303E+05  2.801401E+03  8.879378E+03 -7.256158E+03 -6.623953E+03 -8.049868E+02
       297  23  2.816853E+05 -6.638873E+02  4.665504E+03  1.945707E+03 -4.235638E+03 -5.428935E+02
       297  24  2.823297E+05 -3.651632E+01  3.020013E+03 -7.261448E+03 -1.847159E+03 -2.391911E+02
       297  25  3.477234E+05  1.912992E+04  2.514548E+04 -7.591799E+03 -6.589010E+03 -8.050438E+02
       297  26  3.400131E+05  1.390314E+04  1.919078E+04  1.809267E+03 -4.194476E+03 -5.429712E+02
       297  27  3.335932E+05  1.276987E+04  1.580858E+04 -7.198579E+03 -1.799806E+03 -2.392899E+02
       298   1  3.003085E+05  4.990328E+03  7.084251E+03 -7.210312E+03  1.385463E+03  5.905503E+01
       298   2  3.071786E+05  6.155659E+03  8.113206E+03  1.862691E+03  4.633526E+02 -2.343114E+02
       298   3  3.143009E+05  8.192152E+03  9.942535E+03 -7.299134E+03 -4.587428E+02 -5.408751E+02
       298   4  2.821000E+05  4.386566E+02  2.527829E+03 -7.220423E+03  1.343840E+03  5.914350E+01
       298   5  2.819740E+05 -1.391193E+02  1.835994E+03  1.896706E+03  4.198547E+02 -2.342222E+02
       298   6  2.821006E+05  1.546387E+02  1.945880E+03 -7.221039E+03 -5.041052E+02 -5.407853E+02
       298   7  2.638919E+05 -4.113040E+03 -2.028618E+03 -7.230534E+03  1.302218E+03  5.923197E+01
       298   8  2.567700E+05 -6.433945E+03 -4.441265E+03  1.930720E+03  3.763586E+02 -2.341330E+02
       298   9  2.499013E+05 -7.882952E+03 -6.050853E+03 -7.142947E+03 -5.494652E+02 -5.406955E+02
       298  10  3.003085E+05  4.990327E+03  7.084248E+03 -7.210312E+03 -1.760559E-10 -2.366149E-10
       298  11  3.071786E+05  6.155659E+03  8.113206E+03  1.862691E+03 -2.429191E-10  1.569758E-10
       298  12  3.143009E+05  8.192152E+03  9.942534E+03 -7.299134E+03  1.704792E-10 -7.908167E-10
       298  13  2.821000E+05  4.386561E+02  2.527826E+03 -7.220423E+03  4.661661E-11 -1.409835E-09
       298  14  2.819740E+05 -1.391194E+02  1.835994E+03  1.896706E+03  2.323346E-10 -3.682654E-10
       298  15  2.821006E+05  1.546383E+02  1.945879E+03 -7.221039E+03  2.208566E-11 -1.955775E-09
       298  16  2.638919E+05 -4.113040E+03 -2.028621E+03 -7.230534E+03  8.351864E-10  5.787446E-10
       298  17  2.567700E+05 -6.433945E+03 -4.441266E+03  1.930720E+03  1.306320E-09 -9.968321E-10
       298  18  2.499013E+05 -7.882953E+03 -6.050854E+03 -7.142948E+03 -2.164233E-10 -3.010255E-09
       298  19  3.003085E+05  4.990328E+03  7.084251E+03 -7.210312E+03 -1.385463E+03 -5.905503E+01
       298  20  3.071786E+05  6.155659E+03  8.113206E+03  1.862691E+03 -4.633526E+02  2.343114E+02
       298  21  3.143009E+05  8.192152E+03  9.942535E+03 -7.299134E+03  4.587428E+02  5.408751E+02
       298  22  2.821000E+05  4.386566E+02  2.527829E+03 -7.220423E+03 -1.343840E+03 -5.914350E+01
       298  23  2.819740E+05 -1.391193E+02  1.835994E+03  1.896706E+03 -4.198547E+02  2.342222E+02
       298  24  2.821006E+05  1.546387E+02  1.945880E+03 -7.221039E+03  5.041052E+02  5.407853E+02
       298  25  2.638919E+05 -4.113040E+03 -2.028618E+03 -7.230534E+03 -1.302218E+03 -5.923197E+01
       298  26  2.567700E+05 -6.433945E+03 -4.441265E+03  1.930720E+03 -3.763586E+02  2.341330E+02
       298  27  2.499013E+05 -7.882952E+03 -6.050853E+03 -7.142947E+03  5.494652E+02  5.406955E+02
       299   1  3.849096E+05  2.572198E+04  2.778298E+04 -7.474918E+03 -8.366974E+02 -7.183903E+02
       299   2  3.918431E+05  2.720547E+04  3.047332E+04  1.948817E+03 -2.391893E+03 -1.020862E+03
       299   3  3.994675E+05  3.030456E+04  3.459626E+04 -7.587796E+03 -3.946983E+03 -1.338553E+03
       299   4  2.821947E+05  6.629490E+01  2.181384E+03 -7.382644E+03 -8.795043E+02 -7.183147E+02
       299   5  2.818501E+05 -2.634824E+02  3.081541E+03  2.098331E+03 -2.436652E+03 -1.020798E+03
       299   6  2.821968E+05  1.022815E+03  5.415811E+03 -7.381251E+03 -3.993675E+03 -1.338500E+03
       299   7  1.794894E+05 -2.559018E+04 -2.342100E+04 -7.290380E+03 -9.223041E+02 -7.182392E+02
       299   8  1.718682E+05 -2.773334E+04 -2.431114E+04  2.247823E+03 -2.481402E+03 -1.020733E+03
       299   9  1.649385E+05 -2.825997E+04 -2.376567E+04 -7.174741E+03 -4.040359E+03 -1.338448E+03
       299  10  3.849096E+05  2.572198E+04  2.778298E+04 -7.474919E+03  6.538747E-10  1.260086E-09
       299  11  3.918431E+05  2.720547E+04  3.047330E+04  1.948815E+03  7.347817E-11  3.516780E-09
       299  12  3.994675E+05  3.030456E+04  3.459623E+04 -7.587800E+03 -1.773425E-10 -1.242589E-09
       299  13  2.821947E+05  6.629414E+01  2.181382E+03 -7.382645E+03  5.428119E-10 -5.115452E-10
       299  14  2.818501E+05 -2.634851E+02  3.081528E+03  2.098329E+03 -2.779491E-10 -2.000491E-10
       299  15  2.821968E+05  1.022809E+03  5.415778E+03 -7.381255E+03 -1.109402E-09 -1.491193E-09
       299  16  1.794894E+05 -2.559019E+04 -2.342101E+04 -7.290381E+03  5.981564E-10 -2.146030E-10
       299  17  1.718682E+05 -2.773335E+04 -2.431115E+04  2.247821E+03  7.408468E-10  7.070171E-10
       299  18  1.649385E+05 -2.825997E+04 -2.376570E+04 -7.174745E+03 -9.560426E-10 -2.660208E-10
       299  19  3.849096E+05  2.572198E+04  2.778298E+04 -7.474918E+03  8.366974E+02  7.183903E+02
       299  20  3.918431E+05  2.720547E+04  3.047332E+04  1.948817E+03  2.391893E+03  1.020862E+03
       299  21  3.994675E+05  3.030456E+04  3.459626E+04 -7.587796E+03  3.946983E+03  1.338553E+03
       299  22  2.821947E+05  6.629490E+01  2.181384E+03 -7.382644E+03  8.795043E+02  7.183147E+02
       299  23  2.818501E+05 -2.634824E+02  3.081541E+03  2.098331E+03  2.436652E+03  1.020798E+03
       299  24  2.821968E+05  1.022815E+03  5.415811E+03 -7.381251E+03  3.993675E+03  1.338500E+03
       299  25  1.794894E+05 -2.559018E+04 -2.342100E+04 -7.290380E+03  9.223041E+02  7.182392E+02
       299  26  1.718682E+05 -2.773334E+04 -2.431114E+04  2.247823E+03  2.481402E+03  1.020733E+03
       299  27  1.649385E+05 -2.825997E+04 -2.376567E+04 -7.174741E+03  4.040359E+03  1.338448E+03
       300   1  4.751953E+05  4.786122E+04  5.477143E+04 -7.589129E+03 -5.059597E+03 -1.538395E+03
       300   2  4.812448E+05  4.837662E+04  6.103590E+04  2.311701E+03 -1.079819E+04 -1.867447E+03
       300   3  4.910342E+05  5.885411E+04  7.362569E+04 -8.419336E+03 -1.653653E+04 -2.156996E+03
       300   4  2.828662E+05 -1.706274E+02  6.854923E+03 -7.755187E+03 -5.109794E+03 -1.538358E+03
       300   5  2.809980E+05 -1.628705E+03  1.117191E+04  2.562630E+03 -1.084107E+04 -1.867450E+03
       300   6  2.828693E+05  6.875749E+03  2.181054E+04 -7.751831E+03 -1.657202E+04 -2.157042E+03
       300   7  9.057057E+04 -4.820526E+04 -4.106436E+04 -7.921183E+03 -5.159975E+03 -1.538320E+03
       300   8  8.078750E+04 -5.163705E+04 -3.869509E+04  2.813485E+03 -1.088394E+04 -1.867453E+03
       300   9  7.474375E+04 -4.510587E+04 -3.000785E+04 -7.084545E+03 -1.660750E+04 -2.157087E+03
       300  10  4.751953E+05  4.786121E+04  5.477138E+04 -7.589135E+03  3.858436E-10 -1.513149E-09
       300  11  4.812447E+05  4.837659E+04  6.103567E+04  2.311685E+03  5.998218E-10  1.367124E-09
       300  12  4.910339E+05  5.885403E+04  7.362516E+04 -8.419365E+03  1.227908E-09 -2.867726E-10
       300  13  2.828662E+05 -1.706370E+02  6.854870E+03 -7.755194E+03 -5.806654E-10 -1.124258E-09
       300  14  2.809979E+05 -1.628740E+03  1.117168E+04  2.562614E+03  2.805581E-10 -4.266668E-10
       300  15  2.828690E+05  6.875671E+03  2.181002E+04 -7.751860E+03  1.212605E-09  3.171637E-11
       300  16  9.057054E+04 -4.820527E+04 -4.106442E+04 -7.921189E+03  3.105570E-10 -7.800114E-10
       300  17  8.078737E+04 -5.163708E+04 -3.869532E+04  2.813469E+03  4.477768E-10  1.691173E-09
       300  18  7.474345E+04 -4.510595E+04 -3.000838E+04 -7.084574E+03 -1.700742E-10  4.560457E-10
       300  19  4.751953E+05  4.786122E+04  5.477143E+04 -7.589129E+03  5.059597E+03  1.538395E+03
       300  20  4.812448E+05  4.837662E+04  6.103590E+04  2.311701E+03  1.079819E+04  1.867447E+03
       300  21  4.910342E+05  5.885411E+04  7.362569E+04 -8.419336E+03  1.653653E+04  2.156996E+03
       300  22  2.828662E+05 -1.706274E+02  6.854923E+03 -7.755187E+03  5.109794E+03  1.538358E+03
       300  23  2.809980E+05 -1.628705E+03  1.117191E+04  2.562630E+03  1.084107E+04  1.867450E+03
       300  24  2.828693E+05  6.875749E+03  2.181054E+04 -7.751831E+03  1.657202E+04  2.157042E+03
       300  25  9.057057E+04 -4.820526E+04 -4.106436E+04 -7.921183E+03  5.159975E+03  1.538320E+03
       300  26  8.078750E+04 -5.163705E+04 -3.869509E+04  2.813485E+03  1.088394E+04  1.867453E+03
       300  27  7.474375E+04 -4.510587E+04 -3.000785E+04 -7.084545E+03  1.660750E+04  2.157087E+03
       301   1  5.780969E+05  7.131367E+04  9.987301E+04 -6.101714E+03 -2.093312E+04 -2.460210E+03
       301   2  5.767147E+05  6.430271E+04  1.184624E+05  2.400817E+03 -4.395232E+04 -2.909133E+03
       301   3  5.960279E+05  1.230663E+05  1.687265E+05 -1.250644E+04 -6.697172E+04 -2.854400E+03
       301   4  2.866230E+05 -1.471914E+03  2.727238E+04 -8.357728E+03 -2.102763E+04 -2.460192E+03
       301   5  2.762786E+05 -1.071469E+04  4.366229E+04  3.322338E+03 -4.396452E+04 -2.909300E+03
       301   6  2.866244E+05  4.581971E+04  9.168046E+04 -8.408083E+03 -6.690128E+04 -2.854878E+03
       301   7 -4.773823E+03 -7.426387E+04 -4.533464E+04 -1.061268E+04 -2.112209E+04 -2.460173E+03
       301   8 -2.407571E+04 -8.573888E+04 -3.114463E+04  4.243404E+03 -4.397671E+04 -2.909467E+03
       301   9 -2.269225E+04 -3.143396E+04  1.462729E+04 -4.311789E+03 -6.683088E+04 -2.855356E+03
       301  10  5.780964E+05  7.131354E+04  9.987218E+04 -6.101755E+03  7.901592E-10 -5.227282E-10
       301  11  5.767126E+05  6.430218E+04  1.184588E+05  2.400714E+03 -9.059489E-11  8.704072E-10
       301  12  5.960230E+05  1.230650E+05  1.687180E+05 -1.250660E+04  1.118297E-10 -3.124665E-10
       301  13  2.866226E+05 -1.472039E+03  2.727153E+04 -8.357769E+03  1.072834E-09 -6.450796E-10
       301  14  2.762765E+05 -1.071522E+04  4.365865E+04  3.322235E+03 -2.309731E-10 -6.013786E-10
       301  15  2.866196E+05  4.581851E+04  9.167203E+04 -8.408237E+03 -8.891437E-10 -4.759266E-10
       301  16 -4.774303E+03 -7.426399E+04 -4.533549E+04 -1.061272E+04 -2.510213E-10 -1.606830E-11
       301  17 -2.407779E+04 -8.573941E+04 -3.114828E+04  4.243300E+03 -1.181048E-09 -2.143420E-10
       301  18 -2.269704E+04 -3.143517E+04  1.461888E+04 -4.311943E+03 -8.168390E-11 -5.671649E-11
       301  19  5.780969E+05  7.131367E+04  9.987301E+04 -6.101714E+03  2.093312E+04  2.460210E+03
       301  20  5.767147E+05  6.430271E+04  1.184624E+05  2.400817E+03  4.395232E+04  2.909133E+03
       301  21  5.960279E+05  1.230663E+05  1.687265E+05 -1.250644E+04  6.697172E+04  2.854400E+03
       301  22  2.866230E+05 -1.471914E+03  2.727238E+04 -8.357728E+03  2.102763E+04  2.460192E+03
       301  23  2.762786E+05 -1.071469E+04  4.366229E+04  3.322338E+03  4.396452E+04  2.909300E+03
       301  24  2.866244E+05  4.581971E+04  9.168046E+04 -8.408083E+03  6.690128E+04  2.854878E+03
       301  25 -4.773823E+03 -7.426387E+04 -4.533464E+04 -1.061268E+04  2.112209E+04  2.460173E+03
       301  26 -2.407571E+04 -8.573888E+04 -3.114463E+04  4.243404E+03  4.397671E+04  2.909467E+03
       301  27 -2.269225E+04 -3.143396E+04  1.462729E+04 -4.311789E+03  6.683088E+04  2.855356E+03
       302   1  7.141064E+05  9.095770E+04  2.116658E+05  6.125786E+03 -8.489317E+04 -3.738344E+03
       302   2  6.633304E+05  3.320511E+04  2.720189E+05 -2.380316E+03 -1.776766E+05 -4.890236E+03
       302   3  7.354790E+05  4.088983E+05  5.016184E+05 -3.936530E+04 -2.704710E+05 -2.430298E+03
       302   4  3.093250E+05 -1.016995E+04  1.108606E+05 -9.189257E+03 -8.525984E+04 -3.737031E+03
       302   5  2.478729E+05 -7.047977E+04  1.686431E+05  4.546122E+03 -1.774695E+05 -4.892117E+03
       302   6  3.093224E+05  3.027081E+05  3.953542E+05 -1.019616E+04 -2.696883E+05 -2.440942E+03
       302   7 -9.530740E+04 -1.113091E+05  1.004332E+04 -2.449438E+04 -8.562626E+04 -3.735699E+03
       302   8 -1.674281E+05 -1.741774E+05  6.525443E+04  1.146783E+04 -1.772625E+05 -4.893995E+03
       302   9 -1.166676E+05  1.965075E+05  2.890768E+05  1.895285E+04 -2.689062E+05 -2.451519E+03
       302  10  7.140987E+05  9.095575E+04  2.116522E+05  6.125531E+03 -1.282593E-10  1.882734E-10
       302  11  6.632966E+05  3.319662E+04  2.719596E+05 -2.381015E+03  1.686082E-10 -1.145362E-10
       302  12  7.354005E+05  4.088787E+05  5.014811E+05 -3.936583E+04  6.256204E-10 -5.049647E-10
       302  13  3.093172E+05 -1.017191E+04  1.108470E+05 -9.189514E+03  6.625463E-10  9.859377E-10
       302  14  2.478391E+05 -7.048825E+04  1.685839E+05  4.545423E+03 -1.069882E-09  3.098948E-09
       302  15  3.092444E+05  3.026886E+05  3.952175E+05 -1.019669E+04 -6.596144E-10 -1.000379E-09
       302  16 -9.531527E+04 -1.113110E+05  1.002952E+04 -2.449463E+04  1.764427E-10  7.082550E-10
       302  17 -1.674619E+05 -1.741859E+05  6.519533E+04  1.146713E+04 -1.161299E-09  1.943491E-10
       302  18 -1.167453E+05  1.964881E+05  2.889409E+05  1.895232E+04 -4.709946E-10 -2.253733E-09
       302  19  7.141064E+05  9.095770E+04  2.116658E+05  6.125786E+03  8.489317E+04  3.738344E+03
       302  20  6.633304E+05  3.320511E+04  2.720189E+05 -2.380316E+03  1.776766E+05  4.890236E+03
       302  21  7.354790E+05  4.088983E+05  5.016184E+05 -3.936530E+04  2.704710E+05  2.430298E+03
       302  22  3.093250E+05 -1.016995E+04  1.108606E+05 -9.189257E+03  8.525984E+04  3.737031E+03
       302  23  2.478729E+05 -7.047977E+04  1.686431E+05  4.546122E+03  1.774695E+05  4.892117E+03
       302  24  3.093224E+05  3.027081E+05  3.953542E+05 -1.019616E+04  2.696883E+05  2.440942E+03
       302  25 -9.530740E+04 -1.113091E+05  1.004332E+04 -2.449438E+04  8.562626E+04  3.735699E+03
       302  26 -1.674281E+05 -1.741774E+05  6.525443E+04  1.146783E+04  1.772625E+05  4.893995E+03
       302  27 -1.166676E+05  1.965075E+05  2.890768E+05  1.895285E+04  2.689062E+05  2.451519E+03
       303   1  2.254495E+05  7.127408E+05  2.634980E+05 -4.002959E+04  1.487021E+03  1.116972E+05
       303   2  6.425784E+04  6.584148E+05  1.627157E+05  6.182183E+03  4.053788E+03  7.298214E+04
       303   3  8.246230E+04  6.556263E+05  1.323031E+05 -2.189868E+04  2.442765E+03  3.426286E+04
       303   4  1.248370E+05  3.099879E+05  1.630174E+05 -2.739726E+04  1.489722E+03  1.109817E+05
       303   5 -2.916714E+04  2.842499E+05  6.961454E+04  9.711558E+03  4.054436E+03  7.289076E+04
       303   6 -3.825834E+03  3.099713E+05  4.618062E+04 -2.747441E+04  2.441386E+03  3.479373E+04
       303   7  2.421287E+04 -9.261776E+04  6.252470E+04 -1.477310E+04  1.492396E+03  1.102667E+05
       303   8 -1.226026E+05 -8.978819E+04 -2.349716E+04  1.323885E+04  4.055084E+03  7.279942E+04
       303   9 -9.012282E+04 -3.557533E+04 -3.995082E+04 -3.304698E+04  2.439997E+03  3.532431E+04
       303  10  2.254462E+05  7.127274E+05  2.634746E+05 -4.002972E+04  2.318110E-10  9.245187E-11
       303  11  6.425639E+04  6.584091E+05  1.627057E+05  6.181945E+03 -8.431647E-10  3.672517E-10
       303  12  8.246197E+04  6.556251E+05  1.323009E+05 -2.189875E+04  1.288035E-09  1.044816E-10
       303  13  1.248337E+05  3.099747E+05  1.629943E+05 -2.739739E+04 -7.411045E-10  1.633342E-11
       303  14 -2.916858E+04  2.842442E+05  6.960453E+04  9.711320E+03 -3.365528E-10 -3.456729E-10
       303  15 -3.826165E+03  3.099700E+05  4.617834E+04 -2.747448E+04  4.375436E-10  1.175766E-10
       303  16  2.420960E+04 -9.263082E+04  6.250184E+04 -1.477323E+04 -1.719922E-10  1.090674E-11
       303  17 -1.226040E+05 -8.979388E+04 -2.350715E+04  1.323861E+04 -8.297437E-10 -9.734619E-10
       303  18 -9.012316E+04 -3.557667E+04 -3.995318E+04 -3.304705E+04  3.219000E-10  6.428849E-12
       303  19  2.254495E+05  7.127408E+05  2.634980E+05 -4.002959E+04 -1.487021E+03 -1.116972E+05
       303  20  6.425784E+04  6.584148E+05  1.627157E+05  6.182183E+03 -4.053788E+03 -7.298214E+04
       303  21  8.246230E+04  6.556263E+05  1.323031E+05 -2.189868E+04 -2.442765E+03 -3.426286E+04
       303  22  1.248370E+05  3.099879E+05  1.630174E+05 -2.739726E+04 -1.489722E+03 -1.109817E+05
       303  23 -2.916714E+04  2.842499E+05  6.961454E+04  9.711558E+03 -4.054436E+03 -7.289076E+04
       303  24 -3.825834E+03  3.099713E+05  4.618062E+04 -2.747441E+04 -2.441386E+03 -3.479373E+04
       303  25  2.421287E+04 -9.261776E+04  6.252470E+04 -1.477310E+04 -1.492396E+03 -1.102667E+05
       303  26 -1.226026E+05 -8.978819E+04 -2.349716E+04  1.323885E+04 -4.055084E+03 -7.279942E+04
       303  27 -9.012282E+04 -3.557533E+04 -3.995082E+04 -3.304698E+04 -2.439997E+03 -3.532431E+04
       304   1  3.607108E+04  3.690772E+05  5.536766E+04 -2.883536E+04  1.004050E+03  2.704314E+04
       304   2  5.571760E+03  3.374270E+05  2.915235E+04  8.568433E+03  3.576788E+02  1.709496E+04
       304   3  4.028054E+03  3.138955E+05  1.656568E+04 -2.587838E+04 -3.872388E+02  7.146848E+03
       304   4  1.891087E+04  3.003753E+05  3.829682E+04 -2.686322E+04  1.003929E+03  2.713088E+04
       304   5 -4.697312E+03  2.963169E+05  1.891544E+04  9.040721E+03  3.574407E+02  1.719792E+04
       304   6  6.487708E+02  3.003750E+05  1.315343E+04 -2.690617E+04 -3.875517E+02  7.264600E+03
       304   7  1.750324E+03  2.316777E+05  2.122563E+04 -2.489131E+04  1.003809E+03  2.721862E+04
       304   8 -1.496651E+04  2.552084E+05  8.678416E+03  9.512979E+03  3.572027E+02  1.730088E+04
       304   9 -2.730522E+03  2.868546E+05  9.741172E+03 -2.793393E+04 -3.878650E+02  7.382349E+03
       304  10  3.607088E+04  3.690764E+05  5.536628E+04 -2.883538E+04  4.340093E-10 -1.231241E-10
       304  11  5.571681E+03  3.374267E+05  2.915180E+04  8.568428E+03  4.166738E-11  4.955552E-10
       304  12  4.028040E+03  3.138954E+05  1.656558E+04 -2.587838E+04 -1.310535E-09 -1.137636E-10
       304  13  1.891067E+04  3.003745E+05  3.829544E+04 -2.686325E+04  6.152115E-10  6.220452E-10
       304  14 -4.697392E+03  2.963166E+05  1.891489E+04  9.040716E+03  2.206701E-09 -8.248275E-10
       304  15  6.487565E+02  3.003749E+05  1.315333E+04 -2.690617E+04  1.934272E-09  1.673770E-10
       304  16  1.750124E+03  2.316769E+05  2.122424E+04 -2.489133E+04  4.931197E-10  5.324659E-11
       304  17 -1.496659E+04  2.552081E+05  8.677853E+03  9.512974E+03 -1.334783E-09 -1.756266E-09
       304  18 -2.730537E+03  2.868546E+05  9.741069E+03 -2.793393E+04  3.826200E-10  4.197334E-10
       304  19  3.607108E+04  3.690772E+05  5.536766E+04 -2.883536E+04 -1.004050E+03 -2.704314E+04
       304  20  5.571760E+03  3.374270E+05  2.915235E+04  8.568433E+03 -3.576788E+02 -1.709496E+04
       304  21  4.028054E+03  3.138955E+05  1.656568E+04 -2.587838E+04  3.872388E+02 -7.146848E+03
       304  22  1.891087E+04  3.003753E+05  3.829682E+04 -2.686322E+04 -1.003929E+03 -2.713088E+04
       304  23 -4.697312E+03  2.963169E+05  1.891544E+04  9.040721E+03 -3.574407E+02 -1.719792E+04
       304  24  6.487708E+02  3.003750E+05  1.315343E+04 -2.690617E+04  3.875517E+02 -7.264600E+03
       304  25  1.750324E+03  2.316777E+05  2.122563E+04 -2.489131E+04 -1.003809E+03 -2.721862E+04
       304  26 -1.496651E+04  2.552084E+05  8.678416E+03  9.512979E+03 -3.572027E+02 -1.730088E+04
       304  27 -2.730522E+03  2.868546E+05  9.741172E+03 -2.793393E+04  3.878650E+02 -7.382349E+03
       305   1 -6.260949E+04  3.809319E+04 -5.387716E+04 -2.736111E+04 -1.733366E+03  4.557183E+03
       305   2 -7.492676E+04  7.348855E+03 -6.416684E+04  9.971051E+03 -3.257161E+03  8.013689E+02
       305   3 -7.161643E+04 -1.817431E+04 -6.794099E+04 -2.599093E+04 -1.245462E+03 -2.948006E+03
       305   4  2.752707E+03  2.997261E+05  1.135748E+04 -2.721168E+04 -1.734460E+03  5.033993E+03
       305   5 -2.563446E+03  2.970845E+05  7.950769E+03  9.435680E+03 -3.257006E+03  7.674555E+02
       305   6  7.833013E+03  2.997500E+05  1.141212E+04 -2.720893E+04 -1.244772E+03 -3.492806E+03
       305   7  6.810975E+04  5.614212E+05  7.658698E+04 -2.706215E+04 -1.735554E+03  5.511003E+03
       305   8  6.979355E+04  5.868964E+05  8.006208E+04  8.900092E+03 -3.256851E+03  7.335262E+02
       305   9  8.727484E+04  6.177658E+05  9.075762E+04 -2.842753E+04 -1.244080E+03 -4.037885E+03
       305  10 -6.260950E+04  3.809316E+04 -5.387720E+04 -2.736110E+04  4.775959E-11 -7.553273E-10
       305  11 -7.492677E+04  7.348852E+03 -6.416686E+04  9.971053E+03  3.027438E-10  3.438098E-10
       305  12 -7.161643E+04 -1.817432E+04 -6.794101E+04 -2.599094E+04 -4.720306E-10  4.221857E-10
       305  13  2.752697E+03  2.997261E+05  1.135743E+04 -2.721167E+04 -9.517468E-10  6.758831E-10
       305  14 -2.563458E+03  2.970845E+05  7.950748E+03  9.435682E+03  2.711251E-10 -4.553247E-10
       305  15  7.833008E+03  2.997499E+05  1.141210E+04 -2.720894E+04 -8.585474E-10  1.025312E-10
       305  16  6.810974E+04  5.614211E+05  7.658691E+04 -2.706215E+04  1.324365E-09  7.787890E-10
       305  17  6.979354E+04  5.868964E+05  8.006206E+04  8.900094E+03 -6.801386E-10 -1.293944E-09
       305  18  8.727484E+04  6.177658E+05  9.075759E+04 -2.842753E+04 -9.574196E-10 -4.020447E-10
       305  19 -6.260949E+04  3.809319E+04 -5.387716E+04 -2.736111E+04  1.733366E+03 -4.557183E+03
       305  20 -7.492676E+04  7.348855E+03 -6.416684E+04  9.971051E+03  3.257161E+03 -8.013689E+02
       305  21 -7.161643E+04 -1.817431E+04 -6.794099E+04 -2.599093E+04  1.245462E+03  2.948006E+03
       305  22  2.752707E+03  2.997261E+05  1.135748E+04 -2.721168E+04  1.734460E+03 -5.033993E+03
       305  23 -2.563446E+03  2.970845E+05  7.950769E+03  9.435680E+03  3.257006E+03 -7.674555E+02
       305  24  7.833013E+03  2.997500E+05  1.141212E+04 -2.720893E+04  1.244772E+03  3.492806E+03
       305  25  6.810975E+04  5.614212E+05  7.658698E+04 -2.706215E+04  1.735554E+03 -5.511003E+03
       305  26  6.979355E+04  5.868964E+05  8.006208E+04  8.900092E+03  3.256851E+03 -7.335262E+02
       305  27  8.727484E+04  6.177658E+05  9.075762E+04 -2.842753E+04  1.244080E+03  4.037885E+03
       306   1 -1.896899E+06 -5.101202E+05 -3.391679E+05 -6.341223E+05 -2.079697E+05 -7.787792E+04
       306   2 -1.825049E+06 -2.206216E+05 -1.448597E+05 -7.094575E+05 -1.340169E+05 -4.977781E+04
       306   3 -1.891062E+06 -2.587980E+05 -9.655842E+04 -6.946089E+05 -5.995560E+04 -2.197294E+04
       306   4 -1.873550E+06 -4.799297E+05 -3.284520E+05 -6.058201E+05 -2.079150E+05 -7.786640E+04
       306   5 -1.788353E+06 -2.013465E+05 -1.336862E+05 -6.939244E+05 -1.340003E+05 -4.977306E+04
       306   6 -1.841004E+06 -2.504201E+05 -8.489194E+04 -6.918477E+05 -5.997540E+04 -2.197908E+04
       306   7 -1.850201E+06 -4.497361E+05 -3.177361E+05 -5.775164E+05 -2.078602E+05 -7.785487E+04
       306   8 -1.751656E+06 -1.820710E+05 -1.225128E+05 -6.783903E+05 -1.339837E+05 -4.976830E+04
       306   9 -1.790943E+06 -2.420422E+05 -7.322555E+04 -6.890866E+05 -5.999520E+04 -2.198523E+04
       306  10 -1.896947E+06 -5.101384E+05 -3.392608E+05 -6.341354E+05  2.412767E-10  3.168275E-10
       306  11 -1.825069E+06 -2.206291E+05 -1.448983E+05 -7.094629E+05  7.990907E-10  1.147258E-09
       306  12 -1.891066E+06 -2.587995E+05 -9.656611E+04 -6.946099E+05 -9.932850E-11  2.157058E-10
       306  13 -1.873599E+06 -4.799479E+05 -3.285450E+05 -6.058332E+05 -4.442815E-10  2.550973E-10
       306  14 -1.788373E+06 -2.013541E+05 -1.337247E+05 -6.939297E+05 -4.042719E-11  8.362544E-10
       306  15 -1.841008E+06 -2.504216E+05 -8.489963E+04 -6.918488E+05  2.621895E-10  1.730758E-10
       306  16 -1.850249E+06 -4.497542E+05 -3.178290E+05 -5.775294E+05  1.335856E-10  3.302742E-10
       306  17 -1.751676E+06 -1.820785E+05 -1.225513E+05 -6.783956E+05 -1.314085E-09  4.256008E-10
       306  18 -1.790947E+06 -2.420437E+05 -7.323325E+04 -6.890877E+05 -4.271106E-10 -1.086386E-10
       306  19 -1.896899E+06 -5.101202E+05 -3.391679E+05 -6.341223E+05  2.079697E+05  7.787792E+04
       306  20 -1.825049E+06 -2.206216E+05 -1.448597E+05 -7.094575E+05  1.340169E+05  4.977781E+04
       306  21 -1.891062E+06 -2.587980E+05 -9.655842E+04 -6.946089E+05  5.995560E+04  2.197294E+04
       306  22 -1.873550E+06 -4.799297E+05 -3.284520E+05 -6.058201E+05  2.079150E+05  7.786640E+04
       306  23 -1.788353E+06 -2.013465E+05 -1.336862E+05 -6.939244E+05  1.340003E+05  4.977306E+04
       306  24 -1.841004E+06 -2.504201E+05 -8.489194E+04 -6.918477E+05  5.997540E+04  2.197908E+04
       306  25 -1.850201E+06 -4.497361E+05 -3.177361E+05 -5.775164E+05  2.078602E+05  7.785487E+04
       306  26 -1.751656E+06 -1.820710E+05 -1.225128E+05 -6.783903E+05  1.339837E+05  4.976830E+04
       306  27 -1.790943E+06 -2.420422E+05 -7.322555E+04 -6.890866E+05  5.999520E+04  2.198523E+04
       307   1 -1.881517E+06 -3.127023E+05 -8.497061E+04 -6.882979E+05 -4.707237E+04 -1.713073E+04
       307   2 -1.870214E+06 -2.686193E+05 -4.637243E+04 -6.996625E+05 -3.034906E+04 -1.074883E+04
       307   3 -1.880573E+06 -2.745445E+05 -3.408285E+04 -6.975484E+05 -1.357137E+04 -4.510732E+03
       307   4 -1.829489E+06 -2.899201E+05 -7.002389E+04 -6.709526E+05 -4.705255E+04 -1.712360E+04
       307   5 -1.816186E+06 -2.474674E+05 -3.136086E+04 -6.842258E+05 -3.034729E+04 -1.074822E+04
       307   6 -1.824539E+06 -2.550167E+05 -1.899041E+04 -6.840209E+05 -1.358759E+04 -4.516770E+03
       307   7 -1.777458E+06 -2.671374E+05 -5.507742E+04 -6.536059E+05 -4.703274E+04 -1.711647E+04
       307   8 -1.762155E+06 -2.263153E+05 -1.634956E+04 -6.687880E+05 -3.034552E+04 -1.074760E+04
       307   9 -1.768503E+06 -2.354889E+05 -3.898252E+03 -6.704923E+05 -1.360382E+04 -4.522808E+03
       307  10 -1.881519E+06 -3.127032E+05 -8.497534E+04 -6.882986E+05  5.016992E-10 -5.636365E-11
       307  11 -1.870215E+06 -2.686197E+05 -4.637438E+04 -6.996628E+05  1.044883E-09 -3.418513E-10
       307  12 -1.880573E+06 -2.745446E+05 -3.408324E+04 -6.975485E+05  2.429629E-10 -5.899936E-10
       307  13 -1.829491E+06 -2.899210E+05 -7.002862E+04 -6.709533E+05  8.915188E-10 -2.266564E-10
       307  14 -1.816187E+06 -2.474678E+05 -3.136282E+04 -6.842261E+05 -1.536542E-10 -6.279577E-10
       307  15 -1.824539E+06 -2.550168E+05 -1.899080E+04 -6.840209E+05  5.542789E-10 -2.690428E-10
       307  16 -1.777461E+06 -2.671383E+05 -5.508215E+04 -6.536066E+05  3.720126E-10 -9.412421E-10
       307  17 -1.762156E+06 -2.263156E+05 -1.635152E+04 -6.687882E+05 -7.821041E-10  1.927886E-10
       307  18 -1.768503E+06 -2.354889E+05 -3.898640E+03 -6.704923E+05  2.774671E-10  1.437621E-11
       307  19 -1.881517E+06 -3.127023E+05 -8.497061E+04 -6.882979E+05  4.707237E+04  1.713073E+04
       307  20 -1.870214E+06 -2.686193E+05 -4.637243E+04 -6.996625E+05  3.034906E+04  1.074883E+04
       307  21 -1.880573E+06 -2.745445E+05 -3.408285E+04 -6.975484E+05  1.357137E+04  4.510732E+03
       307  22 -1.829489E+06 -2.899201E+05 -7.002389E+04 -6.709526E+05  4.705255E+04  1.712360E+04
       307  23 -1.816186E+06 -2.474674E+05 -3.136086E+04 -6.842258E+05  3.034729E+04  1.074822E+04
       307  24 -1.824539E+06 -2.550167E+05 -1.899041E+04 -6.840209E+05  1.358759E+04  4.516770E+03
       307  25 -1.777458E+06 -2.671374E+05 -5.507742E+04 -6.536059E+05  4.703274E+04  1.711647E+04
       307  26 -1.762155E+06 -2.263153E+05 -1.634956E+04 -6.687880E+05  3.034552E+04  1.074760E+04
       307  27 -1.768503E+06 -2.354889E+05 -3.898252E+03 -6.704923E+05  1.360382E+04  4.522808E+03
       308   1 -1.870299E+06 -2.802497E+05 -2.857704E+04 -6.950826E+05 -1.073500E+04 -3.473773E+03
       308   2 -1.868522E+06 -2.716401E+05 -2.032749E+04 -6.948029E+05 -6.898501E+03 -2.045030E+03
       308   3 -1.867379E+06 -2.734523E+05 -1.702813E+04 -6.957334E+05 -3.024742E+03 -7.157265E+02
       308   4 -1.822034E+06 -2.615846E+05 -1.521204E+04 -6.815300E+05 -1.072991E+04 -3.471876E+03
       308   5 -1.821345E+06 -2.537401E+05 -7.333037E+03 -6.819101E+05 -6.906492E+03 -2.048026E+03
       308   6 -1.821287E+06 -2.563143E+05 -4.393531E+03 -6.835006E+05 -3.045827E+03 -7.236190E+02
       308   7 -1.773767E+06 -2.429195E+05 -1.847274E+03 -6.679764E+05 -1.072481E+04 -3.469980E+03
       308   8 -1.774166E+06 -2.358399E+05  5.661215E+03 -6.690165E+05 -6.914483E+03 -2.051023E+03
       308   9 -1.775193E+06 -2.391763E+05  8.240885E+03 -6.712670E+05 -3.066912E+03 -7.315121E+02
       308  10 -1.870299E+06 -2.802497E+05 -2.857728E+04 -6.950826E+05 -2.395267E-10  7.476170E-10
       308  11 -1.868522E+06 -2.716401E+05 -2.032759E+04 -6.948029E+05 -9.806002E-10 -1.323105E-10
       308  12 -1.867379E+06 -2.734523E+05 -1.702815E+04 -6.957334E+05  3.601956E-10 -7.792152E-10
       308  13 -1.822034E+06 -2.615847E+05 -1.521228E+04 -6.815300E+05 -3.391456E-11  1.514328E-10
       308  14 -1.821345E+06 -2.537401E+05 -7.333135E+03 -6.819101E+05 -8.075271E-10 -4.227233E-10
       308  15 -1.821287E+06 -2.563143E+05 -4.393550E+03 -6.835006E+05 -1.069421E-10  1.060451E-09
       308  16 -1.773767E+06 -2.429195E+05 -1.847514E+03 -6.679764E+05 -5.982620E-10 -4.448624E-10
       308  17 -1.774166E+06 -2.358399E+05  5.661117E+03 -6.690165E+05 -4.118126E-10  4.135191E-11
       308  18 -1.775193E+06 -2.391763E+05  8.240866E+03 -6.712670E+05  7.916515E-11 -1.919043E-09
       308  19 -1.870299E+06 -2.802497E+05 -2.857704E+04 -6.950826E+05  1.073500E+04  3.473773E+03
       308  20 -1.868522E+06 -2.716401E+05 -2.032749E+04 -6.948029E+05  6.898501E+03  2.045030E+03
       308  21 -1.867379E+06 -2.734523E+05 -1.702813E+04 -6.957334E+05  3.024742E+03  7.157265E+02
       308  22 -1.822034E+06 -2.615846E+05 -1.521204E+04 -6.815300E+05  1.072991E+04  3.471876E+03
       308  23 -1.821345E+06 -2.537401E+05 -7.333037E+03 -6.819101E+05  6.906492E+03  2.048026E+03
       308  24 -1.821287E+06 -2.563143E+05 -4.393531E+03 -6.835006E+05  3.045827E+03  7.236190E+02
       308  25 -1.773767E+06 -2.429195E+05 -1.847274E+03 -6.679764E+05  1.072481E+04  3.469980E+03
       308  26 -1.774166E+06 -2.358399E+05  5.661215E+03 -6.690165E+05  6.914483E+03  2.051023E+03
       308  27 -1.775193E+06 -2.391763E+05  8.240885E+03 -6.712670E+05  3.066912E+03  7.315121E+02
       309   1 -1.844339E+06 -2.667061E+05 -1.007720E+04 -6.900820E+05 -2.354251E+03 -5.400754E+02
       309   2 -1.844043E+06 -2.623056E+05 -7.903657E+03 -6.868563E+05 -1.289374E+03 -2.385529E+02
       309   3 -1.839483E+06 -2.641091E+05 -6.856363E+03 -6.889312E+05 -2.082648E+02  1.953464E+01
       309   4 -1.820519E+06 -2.576550E+05 -3.519523E+03 -6.835570E+05 -2.362836E+03 -5.432896E+02
       309   5 -1.822602E+06 -2.542084E+05 -2.005761E+03 -6.810357E+05 -1.303761E+03 -2.439371E+02
       309   6 -1.820422E+06 -2.569645E+05 -1.613602E+03 -6.838149E+05 -2.284597E+02  1.197919E+01
       309   7 -1.796699E+06 -2.486038E+05  3.038104E+03 -6.770318E+05 -2.371422E+03 -5.465039E+02
       309   8 -1.801162E+06 -2.461111E+05  3.892091E+03 -6.752149E+05 -1.318149E+03 -2.493215E+02
       309   9 -1.801360E+06 -2.498199E+05  3.629121E+03 -6.786985E+05 -2.486553E+02  4.423486E+00
       309  10 -1.844339E+06 -2.667061E+05 -1.007721E+04 -6.900820E+05  8.668497E-10 -2.987262E-10
       309  11 -1.844043E+06 -2.623056E+05 -7.903660E+03 -6.868563E+05  5.638650E-10  5.300552E-10
       309  12 -1.839483E+06 -2.641091E+05 -6.856363E+03 -6.889312E+05  6.416265E-10 -8.190621E-10
       309  13 -1.820519E+06 -2.576550E+05 -3.519534E+03 -6.835570E+05 -2.360441E-10  3.535000E-10
       309  14 -1.822602E+06 -2.542084E+05 -2.005764E+03 -6.810357E+05 -1.115865E-10  1.420445E-09
       309  15 -1.820422E+06 -2.569645E+05 -1.613602E+03 -6.838149E+05  1.045366E-09  1.567180E-09
       309  16 -1.796699E+06 -2.486038E+05  3.038092E+03 -6.770318E+05 -1.162944E-09 -9.958553E-10
       309  17 -1.801162E+06 -2.461111E+05  3.892088E+03 -6.752149E+05 -1.000263E-10 -4.152605E-10
       309  18 -1.801360E+06 -2.498199E+05  3.629121E+03 -6.786985E+05  1.505768E-09 -1.083227E-09
       309  19 -1.844339E+06 -2.667061E+05 -1.007720E+04 -6.900820E+05  2.354251E+03  5.400754E+02
       309  20 -1.844043E+06 -2.623056E+05 -7.903657E+03 -6.868563E+05  1.289374E+03  2.385529E+02
       309  21 -1.839483E+06 -2.641091E+05 -6.856363E+03 -6.889312E+05  2.082648E+02 -1.953464E+01
       309  22 -1.820519E+06 -2.576550E+05 -3.519523E+03 -6.835570E+05  2.362836E+03  5.432896E+02
       309  23 -1.822602E+06 -2.542084E+05 -2.005761E+03 -6.810357E+05  1.303761E+03  2.439371E+02
       309  24 -1.820422E+06 -2.569645E+05 -1.613602E+03 -6.838149E+05  2.284597E+02 -1.197919E+01
       309  25 -1.796699E+06 -2.486038E+05  3.038104E+03 -6.770318E+05  2.371422E+03  5.465039E+02
       309  26 -1.801162E+06 -2.461111E+05  3.892091E+03 -6.752149E+05  1.318149E+03  2.493215E+02
       309  27 -1.801360E+06 -2.498199E+05  3.629121E+03 -6.786985E+05  2.486553E+02 -4.423486E+00
       310   1 -1.810092E+06 -2.532097E+05  1.232566E+03 -6.811412E+05  8.939584E+01  3.152199E+01
       310   2 -1.809903E+06 -2.493178E+05  1.645454E+03 -6.774709E+05  1.091469E+03  2.627957E+02
       310   3 -1.805137E+06 -2.518022E+05  1.016595E+03 -6.794448E+05  2.083635E+03  5.206354E+02
       310   4 -1.820357E+06 -2.570400E+05 -1.591553E+03 -6.838775E+05  7.066455E+01  2.451444E+01
       310   5 -1.822688E+06 -2.541487E+05 -1.871818E+03 -6.809444E+05  1.076291E+03  2.571165E+02
       310   6 -1.820441E+06 -2.576345E+05 -3.196682E+03 -6.836555E+05  2.072005E+03  5.162832E+02
       310   7 -1.830622E+06 -2.608702E+05 -4.415683E+03 -6.866139E+05  5.193360E+01  1.750700E+01
       310   8 -1.835472E+06 -2.589795E+05 -5.389108E+03 -6.844178E+05  1.061113E+03  2.514376E+02
       310   9 -1.835745E+06 -2.634667E+05 -7.409981E+03 -6.878661E+05  2.060376E+03  5.119310E+02
       310  10 -1.810092E+06 -2.532097E+05  1.232566E+03 -6.811412E+05 -1.209312E-10 -7.975469E-10
       310  11 -1.809903E+06 -2.493178E+05  1.645452E+03 -6.774709E+05 -1.366905E-09 -1.548654E-09
       310  12 -1.805137E+06 -2.518022E+05  1.016587E+03 -6.794448E+05  4.597066E-10 -6.168070E-10
       310  13 -1.820357E+06 -2.570400E+05 -1.591553E+03 -6.838775E+05  3.481499E-10 -5.893616E-10
       310  14 -1.822688E+06 -2.541487E+05 -1.871821E+03 -6.809444E+05  3.184436E-10  1.272272E-09
       310  15 -1.820441E+06 -2.576345E+05 -3.196691E+03 -6.836555E+05  5.101701E-10  3.398852E-10
       310  16 -1.830622E+06 -2.608702E+05 -4.415683E+03 -6.866139E+05  1.504731E-09 -3.852713E-10
       310  17 -1.835472E+06 -2.589795E+05 -5.389110E+03 -6.844178E+05  6.070632E-10  7.925073E-12
       310  18 -1.835745E+06 -2.634667E+05 -7.409989E+03 -6.878661E+05  3.421778E-10 -1.135296E-10
       310  19 -1.810092E+06 -2.532097E+05  1.232566E+03 -6.811412E+05 -8.939584E+01 -3.152199E+01
       310  20 -1.809903E+06 -2.493178E+05  1.645454E+03 -6.774709E+05 -1.091469E+03 -2.627957E+02
       310  21 -1.805137E+06 -2.518022E+05  1.016595E+03 -6.794448E+05 -2.083635E+03 -5.206354E+02
       310  22 -1.820357E+06 -2.570400E+05 -1.591553E+03 -6.838775E+05 -7.066455E+01 -2.451444E+01
       310  23 -1.822688E+06 -2.541487E+05 -1.871818E+03 -6.809444E+05 -1.076291E+03 -2.571165E+02
       310  24 -1.820441E+06 -2.576345E+05 -3.196682E+03 -6.836555E+05 -2.072005E+03 -5.162832E+02
       310  25 -1.830622E+06 -2.608702E+05 -4.415683E+03 -6.866139E+05 -5.193360E+01 -1.750700E+01
       310  26 -1.835472E+06 -2.589795E+05 -5.389108E+03 -6.844178E+05 -1.061113E+03 -2.514376E+02
       310  27 -1.835745E+06 -2.634667E+05 -7.409981E+03 -6.878661E+05 -2.060376E+03 -5.119310E+02
       311   1 -1.780633E+06 -2.414536E+05  7.116651E+03 -6.729306E+05  2.718299E+03  6.727475E+02
       311   2 -1.779709E+06 -2.377716E+05  4.956311E+03 -6.702039E+05  6.182861E+03  1.836211E+03
       311   3 -1.778361E+06 -2.444320E+05 -1.631509E+03 -6.697143E+05  9.613602E+03  3.090115E+03
       311   4 -1.821080E+06 -2.564856E+05 -3.970249E+03 -6.836583E+05  2.696385E+03  6.645466E+02
       311   5 -1.821624E+06 -2.536732E+05 -6.587918E+03 -6.816575E+05  6.172885E+03  1.832473E+03
       311   6 -1.821749E+06 -2.612059E+05 -1.364278E+04 -6.818937E+05  9.615557E+03  3.090837E+03
       311   7 -1.861525E+06 -2.715175E+05 -1.505729E+04 -6.943854E+05  2.674474E+03  6.563461E+02
       311   8 -1.863538E+06 -2.695748E+05 -1.813231E+04 -6.931104E+05  6.162910E+03  1.828736E+03
       311   9 -1.865134E+06 -2.779797E+05 -2.565423E+04 -6.940724E+05  9.617512E+03  3.091559E+03
       311  10 -1.780633E+06 -2.414536E+05  7.116637E+03 -6.729306E+05  6.941114E-10 -1.183754E-09
       311  11 -1.779709E+06 -2.377716E+05  4.956233E+03 -6.702039E+05  8.004104E-10  3.269153E-10
       311  12 -1.778361E+06 -2.444320E+05 -1.631702E+03 -6.697143E+05  1.110927E-09  6.229526E-10
       311  13 -1.821080E+06 -2.564856E+05 -3.970264E+03 -6.836583E+05  3.266264E-10  1.555155E-10
       311  14 -1.821624E+06 -2.536732E+05 -6.587996E+03 -6.816575E+05  9.149825E-11  7.275206E-10
       311  15 -1.821749E+06 -2.612059E+05 -1.364297E+04 -6.818937E+05  4.769023E-10  1.680739E-10
       311  16 -1.861525E+06 -2.715175E+05 -1.505730E+04 -6.943854E+05 -3.422073E-10 -4.757241E-10
       311  17 -1.863538E+06 -2.695748E+05 -1.813239E+04 -6.931104E+05 -2.997020E-10  4.366446E-10
       311  18 -1.865134E+06 -2.779797E+05 -2.565442E+04 -6.940724E+05  1.251387E-09 -1.438563E-11
       311  19 -1.780633E+06 -2.414536E+05  7.116651E+03 -6.729306E+05 -2.718299E+03 -6.727475E+02
       311  20 -1.779709E+06 -2.377716E+05  4.956311E+03 -6.702039E+05 -6.182861E+03 -1.836211E+03
       311  21 -1.778361E+06 -2.444320E+05 -1.631509E+03 -6.697143E+05 -9.613602E+03 -3.090115E+03
       311  22 -1.821080E+06 -2.564856E+05 -3.970249E+03 -6.836583E+05 -2.696385E+03 -6.645466E+02
       311  23 -1.821624E+06 -2.536732E+05 -6.587918E+03 -6.816575E+05 -6.172885E+03 -1.832473E+03
       311  24 -1.821749E+06 -2.612059E+05 -1.364278E+04 -6.818937E+05 -9.615557E+03 -3.090837E+03
       311  25 -1.861525E+06 -2.715175E+05 -1.505729E+04 -6.943854E+05 -2.674474E+03 -6.563461E+02
       311  26 -1.863538E+06 -2.695748E+05 -1.813231E+04 -6.931104E+05 -6.162910E+03 -1.828736E+03
       311  27 -1.865134E+06 -2.779797E+05 -2.565423E+04 -6.940724E+05 -9.617512E+03 -3.091559E+03
       312   1 -1.768380E+06 -2.357320E+05 -2.005476E+03 -6.704858E+05  1.220446E+04  4.017228E+03
       312   2 -1.762693E+06 -2.269441E+05 -1.305016E+04 -6.683729E+05  2.721645E+04  9.568334E+03
       312   3 -1.775586E+06 -2.637879E+05 -4.764286E+04 -6.551313E+05  4.217070E+04  1.527287E+04
       312   4 -1.824031E+06 -2.552800E+05 -1.702599E+04 -6.840796E+05  1.218486E+04  4.009920E+03
       312   5 -1.816956E+06 -2.481018E+05 -2.810856E+04 -6.837896E+05  2.721623E+04  9.568213E+03
       312   6 -1.828465E+06 -2.865616E+05 -6.275612E+04 -6.723705E+05  4.218990E+04  1.527982E+04
       312   7 -1.879679E+06 -2.748279E+05 -3.204678E+04 -6.976724E+05  1.216527E+04  4.002613E+03
       312   8 -1.871215E+06 -2.692593E+05 -4.316724E+04 -6.992051E+05  2.721601E+04  9.568091E+03
       312   9 -1.881341E+06 -3.093350E+05 -7.786965E+04 -6.896084E+05  4.220909E+04  1.528677E+04
       312  10 -1.768380E+06 -2.357321E+05 -2.005788E+03 -6.704859E+05  4.007586E-10  3.254440E-11
       312  11 -1.762694E+06 -2.269444E+05 -1.305172E+04 -6.683731E+05 -1.923102E-10 -7.890451E-10
       312  12 -1.775588E+06 -2.637886E+05 -4.764665E+04 -6.551318E+05 -7.479153E-10 -9.066117E-11
       312  13 -1.824031E+06 -2.552800E+05 -1.702630E+04 -6.840797E+05  1.323792E-09  1.144606E-09
       312  14 -1.816956E+06 -2.481021E+05 -2.811013E+04 -6.837898E+05  6.187856E-10  4.590413E-10
       312  15 -1.828467E+06 -2.865624E+05 -6.275992E+04 -6.723711E+05 -5.653931E-10 -3.059175E-10
       312  16 -1.879679E+06 -2.748279E+05 -3.204709E+04 -6.976724E+05  1.570307E-09 -3.794225E-11
       312  17 -1.871216E+06 -2.692596E+05 -4.316881E+04 -6.992053E+05  1.755001E-09 -5.119060E-11
       312  18 -1.881343E+06 -3.093357E+05 -7.787345E+04 -6.896089E+05  1.295467E-09  3.690761E-10
       312  19 -1.768380E+06 -2.357320E+05 -2.005476E+03 -6.704858E+05 -1.220446E+04 -4.017228E+03
       312  20 -1.762693E+06 -2.269441E+05 -1.305016E+04 -6.683729E+05 -2.721645E+04 -9.568334E+03
       312  21 -1.775586E+06 -2.637879E+05 -4.764286E+04 -6.551313E+05 -4.217070E+04 -1.527287E+04
       312  22 -1.824031E+06 -2.552800E+05 -1.702599E+04 -6.840796E+05 -1.218486E+04 -4.009920E+03
       312  23 -1.816956E+06 -2.481018E+05 -2.810856E+04 -6.837896E+05 -2.721623E+04 -9.568213E+03
       312  24 -1.828465E+06 -2.865616E+05 -6.275612E+04 -6.723705E+05 -4.218990E+04 -1.527982E+04
       312  25 -1.879679E+06 -2.748279E+05 -3.204678E+04 -6.976724E+05 -1.216527E+04 -4.002613E+03
       312  26 -1.871215E+06 -2.692593E+05 -4.316724E+04 -6.992051E+05 -2.721601E+04 -9.568091E+03
       312  27 -1.881341E+06 -3.093350E+05 -7.786965E+04 -6.896084E+05 -4.220909E+04 -1.528677E+04
       313   1 -1.784427E+06 -2.399130E+05 -6.298139E+04 -6.858853E+05  5.380840E+04  1.961841E+04
       313   2 -1.749224E+06 -1.859474E+05 -1.071128E+05 -6.760675E+05  1.201130E+05  4.448116E+04
       313   3 -1.837197E+06 -4.259285E+05 -2.820170E+05 -5.858182E+05  1.862812E+05  6.971411E+04
       313   4 -1.838896E+06 -2.510486E+05 -7.607995E+04 -6.909645E+05  5.378033E+04  1.960892E+04
       313   5 -1.791878E+06 -2.069083E+05 -1.198113E+05 -6.926400E+05  1.201302E+05  4.448643E+04
       313   6 -1.868055E+06 -4.567372E+05 -2.943583E+05 -6.138810E+05  1.863450E+05  6.973079E+04
       313   7 -1.893362E+06 -2.621843E+05 -8.917868E+04 -6.960435E+05  5.375227E+04  1.959942E+04
       313   8 -1.834531E+06 -2.278687E+05 -1.325100E+05 -7.092113E+05  1.201474E+05  4.449169E+04
       313   9 -1.898912E+06 -4.875430E+05 -3.066996E+05 -6.419419E+05  1.864088E+05  6.974746E+04
       313  10 -1.784430E+06 -2.399142E+05 -6.298758E+04 -6.858862E+05 -6.019259E-11 -1.641895E-10
       313  11 -1.749240E+06 -1.859534E+05 -1.071437E+05 -6.760718E+05 -8.223323E-10 -2.345715E-10
       313  12 -1.837236E+06 -4.259431E+05 -2.820915E+05 -5.858287E+05 -6.613867E-10 -2.408272E-10
       313  13 -1.838899E+06 -2.510498E+05 -7.608613E+04 -6.909654E+05 -8.454779E-10 -2.606684E-10
       313  14 -1.791894E+06 -2.069144E+05 -1.198422E+05 -6.926443E+05  4.894160E-10  5.541289E-10
       313  15 -1.868094E+06 -4.567518E+05 -2.944329E+05 -6.138915E+05 -4.024541E-10  1.516662E-10
       313  16 -1.893365E+06 -2.621855E+05 -8.918485E+04 -6.960444E+05  1.058334E-10 -1.329160E-09
       313  17 -1.834547E+06 -2.278747E+05 -1.325410E+05 -7.092156E+05 -9.341034E-10  1.264772E-10
       313  18 -1.898950E+06 -4.875576E+05 -3.067743E+05 -6.419524E+05 -2.718370E-10  1.649251E-10
       313  19 -1.784427E+06 -2.399130E+05 -6.298139E+04 -6.858853E+05 -5.380840E+04 -1.961841E+04
       313  20 -1.749224E+06 -1.859474E+05 -1.071128E+05 -6.760675E+05 -1.201130E+05 -4.448116E+04
       313  21 -1.837197E+06 -4.259285E+05 -2.820170E+05 -5.858182E+05 -1.862812E+05 -6.971411E+04
       313  22 -1.838896E+06 -2.510486E+05 -7.607995E+04 -6.909645E+05 -5.378033E+04 -1.960892E+04
       313  23 -1.791878E+06 -2.069083E+05 -1.198113E+05 -6.926400E+05 -1.201302E+05 -4.448643E+04
       313  24 -1.868055E+06 -4.567372E+05 -2.943583E+05 -6.138810E+05 -1.863450E+05 -6.973079E+04
       313  25 -1.893362E+06 -2.621843E+05 -8.917868E+04 -6.960435E+05 -5.375227E+04 -1.959942E+04
       313  26 -1.834531E+06 -2.278687E+05 -1.325100E+05 -7.092113E+05 -1.201474E+05 -4.449169E+04
       313  27 -1.898912E+06 -4.875430E+05 -3.066996E+05 -6.419419E+05 -1.864088E+05 -6.974746E+04
       314   1  3.637331E+06  7.826495E+05  1.056178E+06  6.728018E+04  7.959244E+05  4.314364E+03
       314   2  3.489809E+06 -3.091221E+05  3.964853E+05  4.250261E+04  5.243942E+05  5.746265E+03
       314   3  3.698982E+06 -1.245752E+05  2.327958E+05 -6.242231E+04  2.528361E+05  3.474153E+03
       314   4  4.076941E+06  8.912825E+05  1.165269E+06 -2.100705E+04  7.969188E+05  4.203589E+03
       314   5  3.899466E+06 -2.073338E+05  4.980200E+05  2.054733E+04  5.246737E+05  5.727686E+03
       314   6  4.078556E+06 -2.997504E+04  3.270160E+05 -1.805463E+04  2.524138E+05  3.491172E+03
       314   7  4.516744E+06  9.999306E+05  1.274351E+06 -1.093566E+05  7.979139E+05  4.092602E+03
       314   8  4.309276E+06 -1.055562E+05  5.995425E+05 -1.422457E+03  5.249533E+05  5.709098E+03
       314   9  4.458264E+06  6.462169E+04  4.212264E+05  2.633999E+04  2.519913E+05  3.508121E+03
       314  10  3.636654E+06  7.824806E+05  1.054994E+06  6.727744E+04 -1.870115E-09  3.208236E-09
       314  11  3.489515E+06 -3.091954E+05  3.959715E+05  4.250019E+04 -1.245356E-09  3.633563E-09
       314  12  3.698913E+06 -1.245923E+05  2.326764E+05 -6.242301E+04  1.082321E-09  1.216171E-10
       314  13  4.076263E+06  8.911134E+05  1.164084E+06 -2.100975E+04 -7.292665E-12  2.194548E-09
       314  14  3.899172E+06 -2.074072E+05  4.975060E+05  2.054492E+04 -2.534354E-09  1.280098E-09
       314  15  4.078488E+06 -2.999202E+04  3.268970E+05 -1.805534E+04  3.906924E-12  5.397268E-10
       314  16  4.516064E+06  9.997612E+05  1.273163E+06 -1.093592E+05  8.000778E-10  1.370708E-09
       314  17  4.308981E+06 -1.056295E+05  5.990283E+05 -1.424866E+03 -1.787020E-09  3.320147E-09
       314  18  4.458197E+06  6.460478E+04  4.211079E+05  2.633928E+04 -2.036047E-09 -3.303175E-10
       314  19  3.637331E+06  7.826495E+05  1.056178E+06  6.728018E+04 -7.959244E+05 -4.314364E+03
       314  20  3.489809E+06 -3.091221E+05  3.964853E+05  4.250261E+04 -5.243942E+05 -5.746265E+03
       314  21  3.698982E+06 -1.245752E+05  2.327958E+05 -6.242231E+04 -2.528361E+05 -3.474153E+03
       314  22  4.076941E+06  8.912825E+05  1.165269E+06 -2.100705E+04 -7.969188E+05 -4.203589E+03
       314  23  3.899466E+06 -2.073338E+05  4.980200E+05  2.054733E+04 -5.246737E+05 -5.727686E+03
       314  24  4.078556E+06 -2.997504E+04  3.270160E+05 -1.805463E+04 -2.524138E+05 -3.491172E+03
       314  25  4.516744E+06  9.999306E+05  1.274351E+06 -1.093566E+05 -7.979139E+05 -4.092602E+03
       314  26  4.309276E+06 -1.055562E+05  5.995425E+05 -1.422457E+03 -5.249533E+05 -5.709098E+03
       314  27  4.458264E+06  6.462169E+04  4.212264E+05  2.633999E+04 -2.519913E+05 -3.508121E+03
       315   1  3.825107E+06  8.868770E+04  2.242674E+05  4.195130E+03  1.981077E+05  2.125161E+03
       315   2  3.809053E+06 -7.475670E+04  8.612531E+04  1.088436E+04  1.302248E+05  1.755618E+03
       315   3  3.850607E+06 -4.458555E+04  4.050048E+04 -1.525306E+04  6.234347E+04  1.283096E+03
       315   4  4.011685E+06  1.350539E+05  2.705217E+05 -8.556898E+03  1.981138E+05  2.121034E+03
       315   5  3.983053E+06 -3.147984E+04  1.292815E+05  7.940028E+03  1.301977E+05  1.754928E+03
       315   6  4.012017E+06 -4.422292E+03  8.056166E+04 -8.389137E+03  6.228438E+04  1.283725E+03
       315   7  4.198294E+06  1.814181E+05  3.167736E+05 -2.131275E+04  1.981199E+05  2.116908E+03
       315   8  4.157080E+06  1.179480E+04  1.724355E+05  4.994866E+03  1.301705E+05  1.754238E+03
       315   9  4.173451E+06  3.573920E+04  1.206209E+05 -1.523441E+03  6.222528E+04  1.284353E+03
       315  10  3.825065E+06  8.867724E+04  2.241941E+05  4.194792E+03 -1.813633E-09 -1.863684E-09
       315  11  3.809035E+06 -7.476122E+04  8.609363E+04  1.088418E+04  1.358360E-09  1.520272E-10
       315  12  3.850602E+06 -4.458659E+04  4.049322E+04 -1.525313E+04  2.235597E-11 -7.991357E-10
       315  13  4.011643E+06  1.350434E+05  2.704484E+05 -8.557236E+03 -3.183662E-11 -1.605419E-09
       315  14  3.983035E+06 -3.148436E+04  1.292499E+05  7.939844E+03  1.682618E-09 -4.666455E-10
       315  15  4.012013E+06 -4.423327E+03  8.055441E+04 -8.389201E+03 -7.963758E-10 -3.729463E-10
       315  16  4.198253E+06  1.814077E+05  3.167003E+05 -2.131309E+04  1.424544E-09 -7.682827E-10
       315  17  4.157062E+06  1.179028E+04  1.724038E+05  4.994682E+03 -1.501498E-09 -1.069120E-09
       315  18  4.173447E+06  3.573817E+04  1.206137E+05 -1.523505E+03  7.366999E-10 -3.817591E-10
       315  19  3.825107E+06  8.868770E+04  2.242674E+05  4.195130E+03 -1.981077E+05 -2.125161E+03
       315  20  3.809053E+06 -7.475670E+04  8.612531E+04  1.088436E+04 -1.302248E+05 -1.755618E+03
       315  21  3.850607E+06 -4.458555E+04  4.050048E+04 -1.525306E+04 -6.234347E+04 -1.283096E+03
       315  22  4.011685E+06  1.350539E+05  2.705217E+05 -8.556898E+03 -1.981138E+05 -2.121034E+03
       315  23  3.983053E+06 -3.147984E+04  1.292815E+05  7.940028E+03 -1.301977E+05 -1.754928E+03
       315  24  4.012017E+06 -4.422292E+03  8.056166E+04 -8.389137E+03 -6.228438E+04 -1.283725E+03
       315  25  4.198294E+06  1.814181E+05  3.167736E+05 -2.131275E+04 -1.981199E+05 -2.116908E+03
       315  26  4.157080E+06  1.179480E+04  1.724355E+05  4.994866E+03 -1.301705E+05 -1.754238E+03
       315  27  4.173451E+06  3.573920E+04  1.206209E+05 -1.523441E+03 -6.222528E+04 -1.284353E+03
       316   1  3.923111E+06  9.080686E+02  4.519103E+04 -2.520241E+03  4.915648E+04  9.971696E+02
       316   2  3.923776E+06 -2.286549E+04  1.529890E+04  3.136552E+03  3.203456E+04  6.543029E+02
       316   3  3.934051E+06 -1.733462E+04  3.845344E+03 -5.351891E+03  1.491237E+04  5.047812E+02
       316   4  4.001293E+06  2.034834E+04  6.455880E+04 -4.293638E+03  4.909790E+04  9.969995E+02
       316   5  3.996525E+06 -4.769781E+03  3.334594E+04  2.782612E+03  3.200204E+04  6.542724E+02
       316   6  4.001361E+06 -5.899487E+02  2.055195E+04 -4.286231E+03  1.490605E+04  5.048028E+02
       316   7  4.079481E+06  3.978816E+04  8.392611E+04 -6.067257E+03  4.903932E+04  9.968298E+02
       316   8  4.069279E+06  1.332554E+04  5.139258E+04  2.428630E+03  3.196951E+04  6.542420E+02
       316   9  4.068675E+06  1.615439E+04  3.725823E+04 -3.220455E+03  1.489973E+04  5.048244E+02
       316  10  3.923108E+06  9.074238E+02  4.518652E+04 -2.520280E+03  1.991025E-09  1.334984E-09
       316  11  3.923775E+06 -2.286577E+04  1.529698E+04  3.136535E+03  1.613738E-09  2.824473E-11
       316  12  3.934051E+06 -1.733468E+04  3.844928E+03 -5.351897E+03 -4.324573E-10  7.576269E-10
       316  13  4.001291E+06  2.034769E+04  6.455429E+04 -4.293677E+03  5.731038E-10  9.863265E-11
       316  14  3.996524E+06 -4.770055E+03  3.334402E+04  2.782595E+03 -1.486686E-10  1.189337E-10
       316  15  4.001361E+06 -5.900082E+02  2.055154E+04 -4.286237E+03  1.227436E-09  4.085164E-10
       316  16  4.079479E+06  3.978752E+04  8.392162E+04 -6.067296E+03 -1.012908E-09  4.824566E-11
       316  17  4.069278E+06  1.332526E+04  5.139067E+04  2.428613E+03 -1.367838E-09 -3.719563E-10
       316  18  4.068675E+06  1.615433E+04  3.725781E+04 -3.220461E+03 -1.304563E-09  1.990862E-09
       316  19  3.923111E+06  9.080686E+02  4.519103E+04 -2.520241E+03 -4.915648E+04 -9.971696E+02
       316  20  3.923776E+06 -2.286549E+04  1.529890E+04  3.136552E+03 -3.203456E+04 -6.543029E+02
       316  21  3.934051E+06 -1.733462E+04  3.845344E+03 -5.351891E+03 -1.491237E+04 -5.047812E+02
       316  22  4.001293E+06  2.034834E+04  6.455880E+04 -4.293638E+03 -4.909790E+04 -9.969995E+02
       316  23  3.996525E+06 -4.769781E+03  3.334594E+04  2.782612E+03 -3.200204E+04 -6.542724E+02
       316  24  4.001361E+06 -5.899487E+02  2.055195E+04 -4.286231E+03 -1.490605E+04 -5.048028E+02
       316  25  4.079481E+06  3.978816E+04  8.392611E+04 -6.067257E+03 -4.903932E+04 -9.968298E+02
       316  26  4.069279E+06  1.332554E+04  5.139258E+04  2.428630E+03 -3.196951E+04 -6.542420E+02
       316  27  4.068675E+06  1.615439E+04  3.725823E+04 -3.220455E+03 -1.489973E+04 -5.048244E+02
       317   1  3.969282E+06 -4.517352E+03  8.948786E+03 -2.364577E+03  1.157602E+04  4.244251E+02
       317   2  3.970892E+06 -7.711754E+03  2.983513E+03  7.221448E+02  6.572022E+03  2.417177E+02
       317   3  3.974374E+06 -6.040042E+03  1.479110E+03 -2.796180E+03  1.568009E+03  1.667700E+02
       317   4  3.999635E+06  3.029527E+03  1.646380E+04 -2.612805E+03  1.154217E+04  4.244191E+02
       317   5  3.998706E+06 -7.933347E+02  9.883745E+03  6.897256E+02  6.553544E+03  2.417176E+02
       317   6  3.999647E+06  2.471274E+02  7.753781E+03 -2.612770E+03  1.564929E+03  1.667704E+02
       317   7  4.029988E+06  1.057634E+04  2.397874E+04 -2.861046E+03  1.150831E+04  4.244131E+02
       317   8  4.026521E+06  6.125027E+03  1.678392E+04  6.573050E+02  6.535065E+03  2.417176E+02
       317   9  4.024920E+06  6.534250E+03  1.402840E+04 -2.429352E+03  1.561849E+03  1.667708E+02
       317  10  3.969282E+06 -4.517388E+03  8.948535E+03 -2.364581E+03  2.448540E-10 -1.419787E-09
       317  11  3.970892E+06 -7.711766E+03  2.983433E+03  7.221435E+02 -1.236964E-09 -2.245885E-09
       317  12  3.974374E+06 -6.040043E+03  1.479105E+03 -2.796180E+03 -1.168531E-09  1.003936E-10
       317  13  3.999635E+06  3.029491E+03  1.646355E+04 -2.612809E+03 -4.319551E-10  5.746233E-11
       317  14  3.998706E+06 -7.933462E+02  9.883665E+03  6.897244E+02  1.543575E-09 -1.358685E-09
       317  15  3.999647E+06  2.471267E+02  7.753776E+03 -2.612770E+03  8.036921E-10  1.980733E-10
       317  16  4.029988E+06  1.057630E+04  2.397849E+04 -2.861050E+03  1.215394E-09  9.029522E-10
       317  17  4.026521E+06  6.125015E+03  1.678384E+04  6.573038E+02 -1.393788E-09 -3.425696E-10
       317  18  4.024920E+06  6.534249E+03  1.402840E+04 -2.429352E+03  2.161222E-09  3.553231E-10
       317  19  3.969282E+06 -4.517352E+03  8.948786E+03 -2.364577E+03 -1.157602E+04 -4.244251E+02
       317  20  3.970892E+06 -7.711754E+03  2.983513E+03  7.221448E+02 -6.572022E+03 -2.417177E+02
       317  21  3.974374E+06 -6.040042E+03  1.479110E+03 -2.796180E+03 -1.568009E+03 -1.667700E+02
       317  22  3.999635E+06  3.029527E+03  1.646380E+04 -2.612805E+03 -1.154217E+04 -4.244191E+02
       317  23  3.998706E+06 -7.933347E+02  9.883745E+03  6.897256E+02 -6.553544E+03 -2.417176E+02
       317  24  3.999647E+06  2.471274E+02  7.753781E+03 -2.612770E+03 -1.564929E+03 -1.667704E+02
       317  25  4.029988E+06  1.057634E+04  2.397874E+04 -2.861046E+03 -1.150831E+04 -4.244131E+02
       317  26  4.026521E+06  6.125027E+03  1.678392E+04  6.573050E+02 -6.535065E+03 -2.417176E+02
       317  27  4.024920E+06  6.534250E+03  1.402840E+04 -2.429352E+03 -1.561849E+03 -1.667708E+02
       318   1  3.993539E+06 -1.117977E+03  5.981516E+03 -1.926711E+03  1.968420E+02  1.329478E+02
       318   2  3.994387E+06 -1.739095E+03  7.207170E+03 -4.639308E+00 -3.994125E+03  3.796968E+01
       318   3  3.996755E+06  1.564254E+03  1.212917E+04 -2.273874E+03 -8.185049E+03 -3.323160E+01
       318   4  3.999569E+06  3.805481E+02  7.470025E+03 -2.076467E+03  1.813034E+02  1.329497E+02
       318   5  3.998805E+06 -6.400059E+02  8.303455E+03  1.932948E+01 -4.006251E+03  3.797117E+01
       318   6  3.999561E+06  2.263309E+03  1.283086E+04 -2.076182E+03 -8.193752E+03 -3.323290E+01
       318   7  4.005600E+06  1.879071E+03  8.958532E+03 -2.226223E+03  1.657647E+02  1.329516E+02
       318   8  4.003224E+06  4.590816E+02  9.399738E+03  4.329843E+01 -4.018378E+03  3.797266E+01
       318   9  4.002368E+06  2.962362E+03  1.353256E+04 -1.878489E+03 -8.202456E+03 -3.323420E+01
       318  10  3.993539E+06 -1.117977E+03  5.981516E+03 -1.926711E+03 -2.589928E-10 -1.430485E-09
       318  11  3.994387E+06 -1.739099E+03  7.207140E+03 -4.639186E+00  1.025512E-09 -1.917645E-09
       318  12  3.996755E+06  1.564237E+03  1.212905E+04 -2.273874E+03 -4.517072E-10 -1.241385E-09
       318  13  3.999569E+06  3.805481E+02  7.470025E+03 -2.076467E+03 -1.510728E-09  8.216476E-10
       318  14  3.998805E+06 -6.400102E+02  8.303425E+03  1.932960E+01 -2.485418E-09  6.992213E-10
       318  15  3.999561E+06  2.263291E+03  1.283074E+04 -2.076182E+03  2.656487E-09  1.841144E-10
       318  16  4.005600E+06  1.879071E+03  8.958532E+03 -2.226223E+03 -4.647648E-10 -8.604484E-11
       318  17  4.003224E+06  4.590773E+02  9.399708E+03  4.329855E+01 -1.404872E-09 -6.863934E-10
       318  18  4.002368E+06  2.962344E+03  1.353243E+04 -1.878489E+03  1.640273E-09 -1.156464E-09
       318  19  3.993539E+06 -1.117977E+03  5.981516E+03 -1.926711E+03 -1.968420E+02 -1.329478E+02
       318  20  3.994387E+06 -1.739095E+03  7.207170E+03 -4.639308E+00  3.994125E+03 -3.796968E+01
       318  21  3.996755E+06  1.564254E+03  1.212917E+04 -2.273874E+03  8.185049E+03  3.323160E+01
       318  22  3.999569E+06  3.805481E+02  7.470025E+03 -2.076467E+03 -1.813034E+02 -1.329497E+02
       318  23  3.998805E+06 -6.400059E+02  8.303455E+03  1.932948E+01  4.006251E+03 -3.797117E+01
       318  24  3.999561E+06  2.263309E+03  1.283086E+04 -2.076182E+03  8.193752E+03  3.323290E+01
       318  25  4.005600E+06  1.879071E+03  8.958532E+03 -2.226223E+03 -1.657647E+02 -1.329516E+02
       318  26  4.003224E+06  4.590816E+02  9.399738E+03  4.329843E+01  4.018378E+03 -3.797266E+01
       318  27  4.002368E+06  2.962362E+03  1.353256E+04 -1.878489E+03  8.202456E+03  3.323420E+01
       319   1  4.014439E+06  2.974382E+03  1.913678E+04 -1.468227E+03 -1.078289E+04 -6.509330E+01
       319   2  4.012774E+06  2.967311E+02  2.898318E+04 -2.512859E+01 -2.365636E+04 -1.374318E+02
       319   3  4.018254E+06  1.956416E+04  5.265783E+04 -3.606544E+03 -3.653022E+04 -2.405648E+02
       319   4  4.000818E+06 -4.142047E+02  1.575299E+04 -2.262024E+03 -1.079121E+04 -6.507848E+01
       319   5  3.997219E+06 -3.572107E+03  2.512495E+04  2.508457E+02 -2.366887E+04 -1.374411E+02
       319   6  4.000767E+06  1.521609E+04  4.832830E+04 -2.260791E+03 -3.654686E+04 -2.406426E+02
       319   7  3.987198E+06 -3.802803E+03  1.236918E+04 -3.055804E+03 -1.079953E+04 -6.506364E+01
       319   8  3.981666E+06 -7.440963E+03  2.126670E+04  5.268132E+02 -2.368137E+04 -1.374504E+02
       319   9  3.983280E+06  1.086801E+04  4.399874E+04 -9.150768E+02 -3.656349E+04 -2.407205E+02
       319  10  4.014438E+06  2.974351E+03  1.913656E+04 -1.468228E+03 -1.266774E-09  8.401134E-10
       319  11  4.012773E+06  2.965820E+02  2.898214E+04 -2.513121E+01  2.298190E-09 -8.031913E-10
       319  12  4.018252E+06  1.956380E+04  5.265534E+04 -3.606551E+03 -4.784967E-10 -3.730019E-10
       319  13  4.000818E+06 -4.142357E+02  1.575277E+04 -2.262025E+03  1.441788E-09  4.584395E-10
       319  14  3.997219E+06 -3.572256E+03  2.512390E+04  2.508431E+02 -5.058251E-10  8.514169E-11
       319  15  4.000765E+06  1.521574E+04  4.832580E+04 -2.260799E+03 -1.542166E-09 -4.306837E-11
       319  16  3.987197E+06 -3.802834E+03  1.236896E+04 -3.055805E+03 -1.941325E-10  8.008923E-10
       319  17  3.981665E+06 -7.441113E+03  2.126565E+04  5.268106E+02  8.171502E-10  2.986454E-10
       319  18  3.983279E+06  1.086766E+04  4.399624E+04 -9.150839E+02  1.638527E-10 -1.319027E-09
       319  19  4.014439E+06  2.974382E+03  1.913678E+04 -1.468227E+03  1.078289E+04  6.509330E+01
       319  20  4.012774E+06  2.967311E+02  2.898318E+04 -2.512859E+01  2.365636E+04  1.374318E+02
       319  21  4.018254E+06  1.956416E+04  5.265783E+04 -3.606544E+03  3.653022E+04  2.405648E+02
       319  22  4.000818E+06 -4.142047E+02  1.575299E+04 -2.262024E+03  1.079121E+04  6.507848E+01
       319  23  3.997219E+06 -3.572107E+03  2.512495E+04  2.508457E+02  2.366887E+04  1.374411E+02
       319  24  4.000767E+06  1.521609E+04  4.832830E+04 -2.260791E+03  3.654686E+04  2.406426E+02
       319  25  3.987198E+06 -3.802803E+03  1.236918E+04 -3.055804E+03  1.079953E+04  6.506364E+01
       319  26  3.981666E+06 -7.440963E+03  2.126670E+04  5.268132E+02  2.368137E+04  1.374504E+02
       319  27  3.983280E+06  1.086801E+04  4.399874E+04 -9.150768E+02  3.656349E+04  2.407205E+02
       320   1  4.052528E+06  7.594547E+03  7.109751E+04  1.770001E+03 -4.638751E+04 -3.238459E+02
       320   2  4.034808E+06 -1.168440E+04  1.083668E+05 -7.170754E+02 -9.712707E+04 -4.559240E+02
       320   3  4.059786E+06  1.136602E+05  2.146846E+05 -1.298189E+04 -1.478680E+05 -5.438112E+02
       320   4  4.008716E+06 -3.303013E+03  6.022425E+04 -3.313811E+03 -4.640775E+04 -3.234689E+02
       320   5  3.987240E+06 -2.351537E+04  9.656994E+04  1.567225E+03 -9.713767E+04 -4.562823E+02
       320   6  4.008461E+06  1.009000E+05  2.019613E+05 -3.329446E+03 -1.478687E+05 -5.461001E+02
       320   7  3.964907E+06 -1.420062E+04  4.935086E+04 -8.397265E+03 -4.642799E+04 -3.230915E+02
       320   8  3.939673E+06 -3.534648E+04  8.477290E+04  3.851351E+03 -9.714827E+04 -4.566407E+02
       320   9  3.957139E+06  8.813998E+04  1.892379E+05  6.322206E+03 -1.478693E+05 -5.483892E+02
       320  10  4.052525E+06  7.593974E+03  7.109349E+04  1.769989E+03  2.190272E-09  1.928253E-10
       320  11  4.034798E+06 -1.168691E+04  1.083492E+05 -7.171110E+02  2.823854E-09 -5.920991E-10
       320  12  4.059763E+06  1.136544E+05  2.146438E+05 -1.298196E+04  4.714463E-10 -8.591222E-10
       320  13  4.008714E+06 -3.303587E+03  6.022023E+04 -3.313823E+03 -1.247602E-09 -4.390028E-10
       320  14  3.987230E+06 -2.351788E+04  9.655232E+04  1.567189E+03 -3.790067E-10 -8.065910E-10
       320  15  4.008438E+06  1.008942E+05  2.019205E+05 -3.329511E+03  6.197930E-10 -5.871508E-11
       320  16  3.964905E+06 -1.420119E+04  4.934684E+04 -8.397277E+03 -3.051262E-09 -1.212420E-09
       320  17  3.939663E+06 -3.534899E+04  8.475528E+04  3.851316E+03  8.678583E-10 -1.814049E-09
       320  18  3.957116E+06  8.813415E+04  1.891970E+05  6.322141E+03  1.710409E-09 -1.119837E-09
       320  19  4.052528E+06  7.594547E+03  7.109751E+04  1.770001E+03  4.638751E+04  3.238459E+02
       320  20  4.034808E+06 -1.168440E+04  1.083668E+05 -7.170754E+02  9.712707E+04  4.559240E+02
       320  21  4.059786E+06  1.136602E+05  2.146846E+05 -1.298189E+04  1.478680E+05  5.438112E+02
       320  22  4.008716E+06 -3.303013E+03  6.022425E+04 -3.313811E+03  4.640775E+04  3.234689E+02
       320  23  3.987240E+06 -2.351537E+04  9.656994E+04  1.567225E+03  9.713767E+04  4.562823E+02
       320  24  4.008461E+06  1.009000E+05  2.019613E+05 -3.329446E+03  1.478687E+05  5.461001E+02
       320  25  3.964907E+06 -1.420062E+04  4.935086E+04 -8.397265E+03  4.642799E+04  3.230915E+02
       320  26  3.939673E+06 -3.534648E+04  8.477290E+04  3.851351E+03  9.714827E+04  4.566407E+02
       320  27  3.957139E+06  8.813998E+04  1.892379E+05  6.322206E+03  1.478693E+05  5.483892E+02
       321   1  4.165814E+06  4.431411E+03  2.707620E+05  2.679238E+04 -1.882517E+05 -9.302874E+02
       321   2  4.041621E+06 -1.258519E+05  4.005920E+05 -1.185291E+04 -3.917285E+05 -1.450794E+03
       321   3  4.181735E+06  6.963535E+05  9.005598E+05 -7.321353E+04 -5.951917E+05 -8.311131E+02
       321   4  4.058063E+06 -2.239023E+04  2.440268E+05 -6.044596E+03 -1.883791E+05 -9.204406E+02
       321   5  3.925263E+06 -1.547710E+05  3.717576E+05  5.062159E+03 -3.916621E+05 -1.461410E+03
       321   6  4.056784E+06  6.653894E+05  8.695422E+05 -6.537966E+03 -5.949286E+05 -8.945105E+02
       321   7  3.950325E+06 -4.920871E+04  2.172913E+05 -3.887591E+04 -1.885064E+05 -9.105790E+02
       321   8  3.808919E+06 -1.836901E+05  3.429224E+05  2.197407E+04 -3.915957E+05 -1.472024E+03
       321   9  3.931856E+06  6.344408E+05  8.385258E+05  6.012426E+04 -5.946657E+05 -9.578628E+02
       321  10  4.165777E+06  4.421975E+03  2.706958E+05  2.679224E+04 -7.102749E-10  5.362884E-10
       321  11  4.041457E+06 -1.258928E+05  4.003055E+05 -1.185337E+04 -2.462713E-10 -2.315111E-10
       321  12  4.181357E+06  6.962592E+05  8.998985E+05 -7.321394E+04  1.575456E-09  2.701762E-10
       321  13  4.058025E+06 -2.239968E+04  2.439605E+05 -6.044735E+03 -1.724994E-09  1.145617E-10
       321  14  3.925099E+06 -1.548119E+05  3.714712E+05  5.061699E+03  9.422836E-10 -9.999452E-11
       321  15  4.056406E+06  6.652951E+05  8.688814E+05 -6.538394E+03  1.801236E-09 -3.942848E-10
       321  16  3.950287E+06 -4.921818E+04  2.172249E+05 -3.887604E+04  3.554301E-10 -3.493105E-10
       321  17  3.808755E+06 -1.837309E+05  3.426361E+05  2.197361E+04 -7.108818E-12 -4.052405E-10
       321  18  3.931478E+06  6.343466E+05  8.378654E+05  6.012381E+04  2.070483E-09  4.622383E-10
       321  19  4.165814E+06  4.431411E+03  2.707620E+05  2.679238E+04  1.882517E+05  9.302874E+02
       321  20  4.041621E+06 -1.258519E+05  4.005920E+05 -1.185291E+04  3.917285E+05  1.450794E+03
       321  21  4.181735E+06  6.963535E+05  9.005598E+05 -7.321353E+04  5.951917E+05  8.311131E+02
       321  22  4.058063E+06 -2.239023E+04  2.440268E+05 -6.044596E+03  1.883791E+05  9.204406E+02
       321  23  3.925263E+06 -1.547710E+05  3.717576E+05  5.062159E+03  3.916621E+05  1.461410E+03
       321  24  4.056784E+06  6.653894E+05  8.695422E+05 -6.537966E+03  5.949286E+05  8.945105E+02
       321  25  3.950325E+06 -4.920871E+04  2.172913E+05 -3.887591E+04  1.885064E+05  9.105790E+02
       321  26  3.808919E+06 -1.836901E+05  3.429224E+05  2.197407E+04  3.915957E+05  1.472024E+03
       321  27  3.931856E+06  6.344408E+05  8.385258E+05  6.012426E+04  5.946657E+05  9.578628E+02
       322   1  3.094015E+05  5.082680E+05  4.255992E+05 -3.247519E+04 -2.055465E+03  3.262028E+05
       322   2 -1.502697E+05  4.384143E+05  1.522219E+05 -1.312717E+04 -3.281988E+03  2.095585E+05
       322   3 -6.858551E+04  5.200455E+05  9.033727E+04  2.231058E+04 -2.420117E+03  9.291370E+04
       322   4  3.729239E+05  7.639172E+05  4.893050E+05  4.410107E+03 -2.037362E+03  3.266818E+05
       322   5 -8.796986E+04  6.882216E+05  2.143664E+05 -4.277024E+03 -3.279140E+03  2.096928E+05
       322   6 -7.566915E+03  7.640099E+05  1.510978E+05  3.127247E+03 -2.422374E+03  9.270428E+04
       322   7  4.364465E+05  1.019629E+06  5.530066E+05  4.131063E+04 -2.019208E+03  3.271610E+05
       322   8 -2.567439E+04  9.380858E+05  2.765062E+05  4.576724E+03 -3.276289E+03  2.098270E+05
       322   9  5.344856E+04  1.008029E+06  2.118540E+05 -1.606359E+04 -2.424617E+03  9.249477E+04
       322  10  3.093730E+05  5.081539E+05  4.253994E+05 -3.247465E+04  2.369303E-10  4.356827E-10
       322  11 -1.502815E+05  4.383671E+05  1.521395E+05 -1.312662E+04 -2.431548E-10  3.747232E-11
       322  12 -6.858783E+04  5.200362E+05  9.032105E+04  2.231076E+04  1.647916E-09  6.735835E-10
       322  13  3.728953E+05  7.638028E+05  4.891047E+05  4.410643E+03  2.042803E-09  1.348227E-10
       322  14 -8.798166E+04  6.881745E+05  2.142838E+05 -4.276470E+03 -4.157558E-09  8.601408E-11
       322  15 -7.569225E+03  7.640007E+05  1.510816E+05  3.127427E+03 -3.744199E-10  3.494185E-11
       322  16  4.364178E+05  1.019514E+06  5.528058E+05  4.131116E+04  3.716969E-10 -4.173335E-10
       322  17 -2.568619E+04  9.380385E+05  2.764236E+05  4.577277E+03 -9.429942E-10  7.210173E-10
       322  18  5.344626E+04  1.008020E+06  2.118379E+05 -1.606341E+04  5.633336E-10 -2.659938E-09
       322  19  3.094015E+05  5.082680E+05  4.255992E+05 -3.247519E+04  2.055465E+03 -3.262028E+05
       322  20 -1.502697E+05  4.384143E+05  1.522219E+05 -1.312717E+04  3.281988E+03 -2.095585E+05
       322  21 -6.858551E+04  5.200455E+05  9.033727E+04  2.231058E+04  2.420117E+03 -9.291370E+04
       322  22  3.729239E+05  7.639172E+05  4.893050E+05  4.410107E+03  2.037362E+03 -3.266818E+05
       322  23 -8.796986E+04  6.882216E+05  2.143664E+05 -4.277024E+03  3.279140E+03 -2.096928E+05
       322  24 -7.566915E+03  7.640099E+05  1.510978E+05  3.127247E+03  2.422374E+03 -9.270428E+04
       322  25  4.364465E+05  1.019629E+06  5.530066E+05  4.131063E+04  2.019208E+03 -3.271610E+05
       322  26 -2.567439E+04  9.380858E+05  2.765062E+05  4.576724E+03  3.276289E+03 -2.098270E+05
       322  27  5.344856E+04  1.008029E+06  2.118540E+05 -1.606359E+04  2.424617E+03 -9.249477E+04
       323   1  5.257678E+03  5.376258E+05  8.145501E+04 -4.822716E+03 -1.916997E+03  6.703280E+04
       323   2 -7.034148E+04  5.216216E+05  3.507438E+04 -2.654043E+03 -1.956173E+03  2.277694E+04
       323   3 -1.739087E+04  5.440812E+05  4.974868E+04  8.019495E+03 -1.582603E+03 -2.147831E+04
       323   4  5.546286E+04  7.388686E+05  1.315543E+05  1.913671E+03 -1.916333E+03  6.709654E+04
       323   5 -2.090763E+04  7.196400E+05  8.436362E+04 -2.376338E+03 -1.956102E+03  2.276854E+04
       323   6  3.126205E+04  7.388760E+05  9.826431E+04  1.838309E+03 -1.582263E+03 -2.155861E+04
       323   7  1.056652E+05  9.401482E+05  1.816506E+05  8.652260E+03 -1.915668E+03  6.716029E+04
       323   8  2.852328E+04  9.176939E+05  1.336499E+05 -2.098528E+03 -1.956030E+03  2.276014E+04
       323   9  7.991225E+04  9.337053E+05  1.467771E+05 -4.344803E+03 -1.581921E+03 -2.163893E+04
       323  10  5.256469E+03  5.376210E+05  8.144657E+04 -4.822612E+03  5.379776E-10  7.929925E-10
       323  11 -7.034163E+04  5.216210E+05  3.507340E+04 -2.654007E+03  6.379853E-10 -1.037585E-09
       323  12 -1.739099E+04  5.440807E+05  4.974781E+04  8.019467E+03 -2.080766E-10 -5.569572E-10
       323  13  5.546165E+04  7.388638E+05  1.315458E+05  1.913775E+03 -4.821805E-10  1.289990E-10
       323  14 -2.090777E+04  7.196394E+05  8.436264E+04 -2.376302E+03  4.069702E-10 -1.881502E-10
       323  15  3.126192E+04  7.388755E+05  9.826343E+04  1.838282E+03  1.263172E-09 -2.462955E-10
       323  16  1.056640E+05  9.401434E+05  1.816421E+05  8.652363E+03  5.939101E-10 -8.898558E-10
       323  17  2.852314E+04  9.176933E+05  1.336489E+05 -2.098493E+03 -1.790575E-09  1.271180E-09
       323  18  7.991212E+04  9.337048E+05  1.467762E+05 -4.344831E+03  4.256363E-10 -6.861658E-10
       323  19  5.257678E+03  5.376258E+05  8.145501E+04 -4.822716E+03  1.916997E+03 -6.703280E+04
       323  20 -7.034148E+04  5.216216E+05  3.507438E+04 -2.654043E+03  1.956173E+03 -2.277694E+04
       323  21 -1.739087E+04  5.440812E+05  4.974868E+04  8.019495E+03  1.582603E+03  2.147831E+04
       323  22  5.546286E+04  7.388686E+05  1.315543E+05  1.913671E+03  1.916333E+03 -6.709654E+04
       323  23 -2.090763E+04  7.196400E+05  8.436362E+04 -2.376338E+03  1.956102E+03 -2.276854E+04
       323  24  3.126205E+04  7.388760E+05  9.826431E+04  1.838309E+03  1.582263E+03  2.155861E+04
       323  25  1.056652E+05  9.401482E+05  1.816506E+05  8.652260E+03  1.915668E+03 -6.716029E+04
       323  26  2.852328E+04  9.176939E+05  1.336499E+05 -2.098528E+03  1.956030E+03 -2.276014E+04
       323  27  7.991225E+04  9.337053E+05  1.467771E+05 -4.344803E+03  1.581921E+03  2.163893E+04
       324   1 -4.201489E+04  5.774773E+05  6.195300E+04 -1.069214E+04 -1.666717E+03 -4.007855E+04
       324   2 -9.571952E+04  5.331548E+05  8.989332E+04  4.574160E+03 -1.731892E+03 -1.120905E+05
       324   3  1.754743E+05  5.798273E+05  2.460142E+05  2.303240E+04 -5.460859E+02 -1.840994E+05
       324   4  1.165327E+03  7.505710E+05  1.050270E+05  6.365002E+02 -1.667533E+03 -3.997584E+04
       324   5 -5.280223E+04  7.050354E+05  1.326646E+05 -9.237754E+02 -1.730820E+03 -1.121861E+05
       324   6  2.181145E+05  7.505049E+05  2.885953E+05  7.069845E+02 -5.393803E+02 -1.843931E+05
       324   7  4.434378E+04  9.236921E+05  1.480989E+05  1.196831E+04 -1.668344E+03 -3.987310E+04
       324   8 -9.887054E+03  8.769428E+05  1.754336E+05 -6.423228E+03 -1.729746E+03 -1.122817E+05
       324   9  2.607544E+05  9.212100E+05  3.311744E+05 -2.162457E+04 -5.326552E+02 -1.846870E+05
       324  10 -4.201532E+04  5.774756E+05  6.194998E+04 -1.069220E+04 -9.924217E-11  2.500331E-10
       324  11 -9.572289E+04  5.331413E+05  8.986972E+04  4.574004E+03 -7.796487E-10 -3.676764E-10
       324  12  1.754652E+05  5.797910E+05  2.459506E+05  2.303232E+04 -6.951040E-10  3.665414E-11
       324  13  1.164896E+03  7.505693E+05  1.050240E+05  6.364465E+02 -2.419019E-10 -1.322065E-10
       324  14 -5.280561E+04  7.050219E+05  1.326409E+05 -9.239317E+02 -1.006110E-09 -1.251317E-10
       324  15  2.181054E+05  7.504685E+05  2.885314E+05  7.069045E+02 -5.594412E-10 -3.698242E-10
       324  16  4.434335E+04  9.236904E+05  1.480959E+05  1.196825E+04  8.446175E-10 -3.037448E-10
       324  17 -9.890436E+03  8.769293E+05  1.754099E+05 -6.423384E+03 -1.431097E-09  8.569209E-10
       324  18  2.607453E+05  9.211734E+05  3.311104E+05 -2.162465E+04 -9.161620E-10 -2.715114E-10
       324  19 -4.201489E+04  5.774773E+05  6.195300E+04 -1.069214E+04  1.666717E+03  4.007855E+04
       324  20 -9.571952E+04  5.331548E+05  8.989332E+04  4.574160E+03  1.731892E+03  1.120905E+05
       324  21  1.754743E+05  5.798273E+05  2.460142E+05  2.303240E+04  5.460859E+02  1.840994E+05
       324  22  1.165327E+03  7.505710E+05  1.050270E+05  6.365002E+02  1.667533E+03  3.997584E+04
       324  23 -5.280223E+04  7.050354E+05  1.326646E+05 -9.237754E+02  1.730820E+03  1.121861E+05
       324  24  2.181145E+05  7.505049E+05  2.885953E+05  7.069845E+02  5.393803E+02  1.843931E+05
       324  25  4.434378E+04  9.236921E+05  1.480989E+05  1.196831E+04  1.668344E+03  3.987310E+04
       324  26 -9.887054E+03  8.769428E+05  1.754336E+05 -6.423228E+03  1.729746E+03  1.122817E+05
       324  27  2.607544E+05  9.212100E+05  3.311744E+05 -2.162457E+04  5.326552E+02  1.846870E+05
       325   1 -4.224996E+06 -1.448513E+06 -7.432621E+05 -1.561919E+06 -3.256824E+05 -8.593711E+04
       325   2 -4.112458E+06 -1.214089E+06 -5.003499E+05 -1.519158E+06 -2.122310E+05  4.599526E+04
       325   3 -4.043326E+06 -1.104715E+06 -3.936283E+05 -1.471623E+06 -7.846761E+04  1.245339E+05
       325   4 -2.165652E+06 -5.685763E+05 -1.953774E+05 -8.902079E+05 -1.390824E+05 -1.534861E+04
       325   5 -2.142693E+06 -4.409742E+05 -9.161890E+04 -9.207305E+05 -1.209148E+05  8.048089E+04
       325   6 -2.143995E+06 -4.192478E+05 -4.796834E+04 -9.465251E+05 -8.250608E+04  1.229600E+05
       325   7 -1.020876E+05  3.119982E+05  3.522715E+05 -2.163376E+05  4.819403E+04  5.557424E+04
       325   8 -1.688856E+05  3.326334E+05  3.169417E+05 -3.204776E+05 -2.928576E+04  1.151029E+05
       325   9 -2.408203E+05  2.665604E+05  2.975710E+05 -4.199182E+05 -8.655786E+04  1.213813E+05
       325  10 -4.225112E+06 -1.448550E+06 -7.434769E+05 -1.561942E+06  9.914052E-10  1.714612E-10
       325  11 -4.112507E+06 -1.214103E+06 -5.004389E+05 -1.519150E+06 -2.158846E-09 -2.511325E-09
       325  12 -4.043337E+06 -1.104733E+06 -3.936690E+05 -1.471615E+06 -9.856507E-10 -3.016733E-09
       325  13 -2.165673E+06 -5.685818E+05 -1.954143E+05 -8.902096E+05  5.850904E-10 -3.508006E-10
       325  14 -2.142710E+06 -4.409851E+05 -9.165856E+04 -9.207226E+05 -3.160614E-09 -7.182612E-09
       325  15 -2.144006E+06 -4.192659E+05 -4.800951E+04 -9.465169E+05 -1.751941E-09 -1.310808E-10
       325  16 -1.020909E+05  3.119942E+05  3.522613E+05 -2.163397E+05 -2.585192E-09 -4.039718E-10
       325  17 -1.688901E+05  3.326189E+05  3.169152E+05 -3.204749E+05 -1.922511E-09  1.461965E-09
       325  18 -2.408323E+05  2.665425E+05  2.975293E+05 -4.199098E+05  5.426829E-09  2.967868E-09
       325  19 -4.224996E+06 -1.448513E+06 -7.432621E+05 -1.561919E+06  3.256824E+05  8.593711E+04
       325  20 -4.112458E+06 -1.214089E+06 -5.003499E+05 -1.519158E+06  2.122310E+05 -4.599526E+04
       325  21 -4.043326E+06 -1.104715E+06 -3.936283E+05 -1.471623E+06  7.846761E+04 -1.245339E+05
       325  22 -2.165652E+06 -5.685763E+05 -1.953774E+05 -8.902079E+05  1.390824E+05  1.534861E+04
       325  23 -2.142693E+06 -4.409742E+05 -9.161890E+04 -9.207305E+05  1.209148E+05 -8.048089E+04
       325  24 -2.143995E+06 -4.192478E+05 -4.796834E+04 -9.465251E+05  8.250608E+04 -1.229600E+05
       325  25 -1.020876E+05  3.119982E+05  3.522715E+05 -2.163376E+05 -4.819403E+04 -5.557424E+04
       325  26 -1.688856E+05  3.326334E+05  3.169417E+05 -3.204776E+05  2.928576E+04 -1.151029E+05
       325  27 -2.408203E+05  2.665604E+05  2.975710E+05 -4.199182E+05  8.655786E+04 -1.213813E+05
       326   1 -3.950222E+06 -1.083076E+06 -3.628906E+05 -1.456437E+06 -7.760683E+04  1.220486E+05
       326   2 -3.838658E+06 -1.019575E+06 -3.145888E+05 -1.412566E+06 -5.852787E+04  1.273313E+05
       326   3 -3.713235E+06 -9.816206E+05 -2.818260E+05 -1.388671E+06 -3.756714E+04  1.276163E+05
       326   4 -2.137782E+06 -4.198695E+05 -3.599995E+04 -9.448483E+05 -7.618712E+04  1.225384E+05
       326   5 -2.144933E+06 -4.039068E+05 -1.893250E+04 -9.363627E+05 -6.600847E+04  1.244663E+05
       326   6 -2.136456E+06 -4.117020E+05 -1.029240E+04 -9.478540E+05 -5.395490E+04  1.214026E+05
       326   7 -3.218590E+05  2.436677E+05  2.907779E+05 -4.318514E+05 -7.476294E+04  1.230301E+05
       326   8 -4.481597E+05  2.120471E+05  2.766350E+05 -4.589370E+05 -7.351092E+04  1.215931E+05
       326   9 -5.570381E+05  1.584568E+05  2.611668E+05 -5.059879E+05 -7.038706E+04  1.151722E+05
       326  10 -3.950232E+06 -1.083094E+06 -3.629298E+05 -1.456430E+06 -2.105014E-08 -1.069145E-08
       326  11 -3.838666E+06 -1.019593E+06 -3.146257E+05 -1.412560E+06 -6.468128E-09 -4.264039E-09
       326  12 -3.713241E+06 -9.816384E+05 -2.818592E+05 -1.388667E+06  1.793337E-08  7.914269E-09
       326  13 -2.137792E+06 -4.198872E+05 -3.603904E+04 -9.448408E+05 -4.590918E-09 -3.612805E-09
       326  14 -2.144942E+06 -4.039246E+05 -1.896976E+04 -9.363561E+05 -9.057807E-09 -5.788985E-09
       326  15 -2.136463E+06 -4.117186E+05 -1.032552E+04 -9.478487E+05 -3.642835E-09 -3.177183E-09
       326  16 -3.218690E+05  2.436499E+05  2.907390E+05 -4.318440E+05  2.125320E-08  7.786633E-09
       326  17 -4.481695E+05  2.120298E+05  2.765971E+05 -4.589298E+05 -6.134832E-09 -3.913809E-09
       326  18 -5.570470E+05  1.584413E+05  2.611326E+05 -5.059814E+05 -2.421538E-08 -1.029176E-08
       326  19 -3.950222E+06 -1.083076E+06 -3.628906E+05 -1.456437E+06  7.760683E+04 -1.220486E+05
       326  20 -3.838658E+06 -1.019575E+06 -3.145888E+05 -1.412566E+06  5.852787E+04 -1.273313E+05
       326  21 -3.713235E+06 -9.816206E+05 -2.818260E+05 -1.388671E+06  3.756714E+04 -1.276163E+05
       326  22 -2.137782E+06 -4.198695E+05 -3.599995E+04 -9.448483E+05  7.618712E+04 -1.225384E+05
       326  23 -2.144933E+06 -4.039068E+05 -1.893250E+04 -9.363627E+05  6.600847E+04 -1.244663E+05
       326  24 -2.136456E+06 -4.117020E+05 -1.029240E+04 -9.478540E+05  5.395490E+04 -1.214026E+05
       326  25 -3.218590E+05  2.436677E+05  2.907779E+05 -4.318514E+05  7.476294E+04 -1.230301E+05
       326  26 -4.481597E+05  2.120471E+05  2.766350E+05 -4.589370E+05  7.351092E+04 -1.215931E+05
       326  27 -5.570381E+05  1.584568E+05  2.611668E+05 -5.059879E+05  7.038706E+04 -1.151722E+05
       327   1 -3.634287E+06 -9.537084E+05 -2.649005E+05 -1.367281E+06 -3.453134E+04  1.225333E+05
       327   2 -3.522263E+06 -8.995824E+05 -2.399407E+05 -1.322405E+06 -2.804476E+04  1.145056E+05
       327   3 -3.391567E+06 -8.648821E+05 -2.172853E+05 -1.299133E+06 -2.137870E+04  1.059730E+05
       327   4 -2.135861E+06 -4.117926E+05 -7.735049E+03 -9.477865E+05 -5.047958E+04  1.164918E+05
       327   5 -2.145174E+06 -4.018998E+05 -4.266746E+03 -9.370559E+05 -4.488937E+04  1.081365E+05
       327   6 -2.135658E+06 -4.112534E+05 -2.390121E+03 -9.479337E+05 -3.912060E+04  9.927682E+04
       327   7 -6.350187E+05  1.303541E+05  2.493730E+05 -5.273329E+05 -6.646918E+04  1.104347E+05
       327   8 -7.660498E+05  9.597544E+04  2.313580E+05 -5.508998E+05 -6.177406E+04  1.017524E+05
       327   9 -8.780624E+05  4.253291E+04  2.124629E+05 -5.960652E+05 -5.690088E+04  9.256621E+04
       327  10 -3.634292E+06 -9.537248E+05 -2.649309E+05 -1.367278E+06  2.686521E-09  5.247919E-10
       327  11 -3.522267E+06 -8.995967E+05 -2.399667E+05 -1.322402E+06 -2.934725E-10 -1.518727E-09
       327  12 -3.391571E+06 -8.648943E+05 -2.173072E+05 -1.299131E+06 -2.988281E-09 -2.462639E-09
       327  13 -2.135867E+06 -4.118078E+05 -7.765302E+03 -9.477817E+05 -8.826004E-10 -8.174142E-11
       327  14 -2.145179E+06 -4.019129E+05 -4.292476E+03 -9.370520E+05 -3.250459E-09 -7.348522E-10
       327  15 -2.135662E+06 -4.112644E+05 -2.411492E+03 -9.479305E+05 -8.402504E-09 -1.812832E-10
       327  16 -6.350267E+05  1.303398E+05  2.493418E+05 -5.273270E+05 -2.296777E-09 -9.801147E-10
       327  17 -7.660567E+05  9.596331E+04  2.313314E+05 -5.508947E+05 -4.242138E-09 -8.078805E-10
       327  18 -8.780681E+05  4.252286E+04  2.124407E+05 -5.960610E+05 -2.299288E-09 -1.776164E-10
       327  19 -3.634287E+06 -9.537084E+05 -2.649005E+05 -1.367281E+06  3.453134E+04 -1.225333E+05
       327  20 -3.522263E+06 -8.995824E+05 -2.399407E+05 -1.322405E+06  2.804476E+04 -1.145056E+05
       327  21 -3.391567E+06 -8.648821E+05 -2.172853E+05 -1.299133E+06  2.137870E+04 -1.059730E+05
       327  22 -2.135861E+06 -4.117926E+05 -7.735049E+03 -9.477865E+05  5.047958E+04 -1.164918E+05
       327  23 -2.145174E+06 -4.018998E+05 -4.266746E+03 -9.370559E+05  4.488937E+04 -1.081365E+05
       327  24 -2.135658E+06 -4.112534E+05 -2.390121E+03 -9.479337E+05  3.912060E+04 -9.927682E+04
       327  25 -6.350187E+05  1.303541E+05  2.493730E+05 -5.273329E+05  6.646918E+04 -1.104347E+05
       327  26 -7.660498E+05  9.597544E+04  2.313580E+05 -5.508998E+05  6.177406E+04 -1.017524E+05
       327  27 -8.780624E+05  4.253291E+04  2.124629E+05 -5.960652E+05  5.690088E+04 -9.256621E+04
       328   1 -3.312759E+06 -8.362971E+05 -2.026338E+05 -1.277171E+06 -1.883367E+04  1.003168E+05
       328   2 -3.199553E+06 -7.821858E+05 -1.811735E+05 -1.231790E+06 -1.435961E+04  9.062607E+04
       328   3 -3.067104E+06 -7.472785E+05 -1.602155E+05 -1.208322E+06 -9.865125E+03  8.085689E+04
       328   4 -2.135524E+06 -4.112573E+05 -1.845668E+03 -9.479765E+05 -3.658826E+04  9.362142E+04
       328   5 -2.145093E+06 -4.015638E+05 -1.174323E+03 -9.370386E+05 -3.225284E+04  8.388688E+04
       328   6 -2.135408E+06 -4.110475E+05 -8.973227E+02 -9.480174E+05 -2.789714E+04  7.407382E+04
       328   7 -9.568202E+05  1.391647E+04  1.989026E+05 -6.181976E+05 -5.437865E+04  8.691263E+04
       328   8 -1.089444E+06 -2.083086E+04  1.787957E+05 -6.418155E+05 -5.017855E+04  7.713550E+04
       328   9 -1.202775E+06 -7.472636E+04  1.584009E+05 -6.873427E+05 -4.595825E+04  6.727983E+04
       328  10 -3.312762E+06 -8.363080E+05 -2.026534E+05 -1.277169E+06 -5.610254E-09 -1.493973E-09
       328  11 -3.199556E+06 -7.821946E+05 -1.811893E+05 -1.231789E+06 -3.945583E-09  9.067877E-10
       328  12 -3.067106E+06 -7.472855E+05 -1.602279E+05 -1.208321E+06 -2.340627E-09  9.132083E-10
       328  13 -2.135528E+06 -4.112670E+05 -1.864632E+03 -9.479738E+05 -6.904977E-09 -7.942766E-10
       328  14 -2.145096E+06 -4.015717E+05 -1.189484E+03 -9.370364E+05 -3.675980E-09  2.590848E-10
       328  15 -2.135411E+06 -4.110536E+05 -9.090821E+02 -9.480157E+05 -1.105896E-09  3.182632E-10
       328  16 -9.568254E+05  1.390757E+04  1.988829E+05 -6.181938E+05  6.000106E-10 -5.244487E-10
       328  17 -1.089449E+06 -2.083792E+04  1.787798E+05 -6.418124E+05  5.683926E-10 -1.962291E-10
       328  18 -1.202778E+06 -7.473178E+04  1.583885E+05 -6.873402E+05  1.340440E-09 -3.332059E-10
       328  19 -3.312759E+06 -8.362971E+05 -2.026338E+05 -1.277171E+06  1.883367E+04 -1.003168E+05
       328  20 -3.199553E+06 -7.821858E+05 -1.811735E+05 -1.231790E+06  1.435961E+04 -9.062607E+04
       328  21 -3.067104E+06 -7.472785E+05 -1.602155E+05 -1.208322E+06  9.865125E+03 -8.085689E+04
       328  22 -2.135524E+06 -4.112573E+05 -1.845668E+03 -9.479765E+05  3.658826E+04 -9.362142E+04
       328  23 -2.145093E+06 -4.015638E+05 -1.174323E+03 -9.370386E+05  3.225284E+04 -8.388688E+04
       328  24 -2.135408E+06 -4.110475E+05 -8.973227E+02 -9.480174E+05  2.789714E+04 -7.407382E+04
       328  25 -9.568202E+05  1.391647E+04  1.989026E+05 -6.181976E+05  5.437865E+04 -8.691263E+04
       328  26 -1.089444E+06 -2.083086E+04  1.787957E+05 -6.418155E+05  5.017855E+04 -7.713550E+04
       328  27 -1.202775E+06 -7.472636E+04  1.584009E+05 -6.873427E+05  4.595825E+04 -6.727983E+04
       329   1 -2.987589E+06 -7.184451E+05 -1.460107E+05 -1.186179E+06 -7.467864E+03  7.505507E+04
       329   2 -2.873329E+06 -6.640224E+05 -1.253837E+05 -1.140506E+06 -3.069656E+03  6.517364E+04
       329   3 -2.739731E+06 -6.289377E+05 -1.051843E+05 -1.116955E+06  1.330219E+03  5.527070E+04
       329   4 -2.135354E+06 -4.110379E+05 -8.949775E+02 -9.480665E+05 -2.554078E+04  6.826079E+04
       329   5 -2.144972E+06 -4.012792E+05 -1.132701E+03 -9.370241E+05 -2.118040E+04  5.837094E+04
       329   6 -2.135263E+06 -4.108514E+05 -1.770259E+03 -9.481082E+05 -1.681848E+04  4.845958E+04
       329   7 -1.282342E+06 -1.035582E+05  1.442024E+05 -7.096459E+05 -4.364018E+04  6.145658E+04
       329   8 -1.416051E+06 -1.384846E+05  1.231040E+05 -7.333184E+05 -3.931372E+04  5.155978E+04
       329   9 -1.530410E+06 -1.927310E+05  1.016333E+05 -7.791083E+05 -3.498585E+04  4.164145E+04
       329  10 -2.987591E+06 -7.184511E+05 -1.460214E+05 -1.186179E+06 -2.168393E-09  1.391690E-10
       329  11 -2.873330E+06 -6.640269E+05 -1.253917E+05 -1.140506E+06 -1.114306E-09  2.039923E-10
       329  12 -2.739732E+06 -6.289410E+05 -1.051901E+05 -1.116955E+06 -1.830808E-09  1.142715E-10
       329  13 -2.135356E+06 -4.110430E+05 -9.049476E+02 -9.480651E+05 -8.639395E-12  3.873179E-10
       329  14 -2.144973E+06 -4.012830E+05 -1.139938E+03 -9.370231E+05 -3.856164E-10  4.227675E-10
       329  15 -2.135264E+06 -4.108539E+05 -1.775198E+03 -9.481076E+05 -7.518685E-10  4.693735E-10
       329  16 -1.282345E+06 -1.035627E+05  1.441917E+05 -7.096438E+05  1.282099E-09  3.213244E-10
       329  17 -1.416053E+06 -1.384879E+05  1.230961E+05 -7.333167E+05  1.340147E-09  4.870119E-10
       329  18 -1.530412E+06 -1.927332E+05  1.016277E+05 -7.791071E+05  5.605019E-10  5.491655E-10
       329  19 -2.987589E+06 -7.184451E+05 -1.460107E+05 -1.186179E+06  7.467864E+03 -7.505507E+04
       329  20 -2.873329E+06 -6.640224E+05 -1.253837E+05 -1.140506E+06  3.069656E+03 -6.517364E+04
       329  21 -2.739731E+06 -6.289377E+05 -1.051843E+05 -1.116955E+06 -1.330219E+03 -5.527070E+04
       329  22 -2.135354E+06 -4.110379E+05 -8.949775E+02 -9.480665E+05  2.554078E+04 -6.826079E+04
       329  23 -2.144972E+06 -4.012792E+05 -1.132701E+03 -9.370241E+05  2.118040E+04 -5.837094E+04
       329  24 -2.135263E+06 -4.108514E+05 -1.770259E+03 -9.481082E+05  1.681848E+04 -4.845958E+04
       329  25 -1.282342E+06 -1.035582E+05  1.442024E+05 -7.096459E+05  4.364018E+04 -6.145658E+04
       329  26 -1.416051E+06 -1.384846E+05  1.231040E+05 -7.333184E+05  3.931372E+04 -5.155978E+04
       329  27 -1.530410E+06 -1.927310E+05  1.016333E+05 -7.791083E+05  3.498585E+04 -4.164145E+04
       330   1 -2.659646E+06 -5.999748E+05 -9.140800E+04 -1.094753E+06  3.919620E+03  4.950120E+04
       330   2 -2.544581E+06 -5.453465E+05 -7.215819E+04 -1.048844E+06  9.609323E+03  4.009429E+04
       330   3 -2.410394E+06 -5.104121E+05 -5.437893E+04 -1.025190E+06  1.526785E+04  3.076223E+04
       330   4 -2.135289E+06 -4.108351E+05 -2.298711E+03 -9.481703E+05 -1.426630E+04  4.267878E+04
       330   5 -2.144819E+06 -4.010427E+05 -4.067857E+03 -9.370066E+05 -8.442605E+03  3.332523E+04
       330   6 -2.135275E+06 -4.109733E+05 -7.416580E+03 -9.481038E+05 -2.650485E+03  2.404637E+04
       330   7 -1.610633E+06 -2.216654E+05  8.680619E+04 -8.014697E+05 -3.246879E+04  3.585013E+04
       330   8 -1.744884E+06 -2.567218E+05  6.402016E+04 -8.251005E+05 -2.650703E+04  2.655146E+04
       330   9 -1.860074E+06 -3.115266E+05  3.954511E+04 -8.709853E+05 -2.057730E+04  1.732731E+04
       330  10 -2.659646E+06 -5.999775E+05 -9.141264E+04 -1.094753E+06 -1.524065E-09  2.550902E-10
       330  11 -2.544581E+06 -5.453483E+05 -7.216139E+04 -1.048844E+06 -1.037797E-09  7.581898E-10
       330  12 -2.410394E+06 -5.104132E+05 -5.438115E+04 -1.025190E+06 -3.941269E-09 -1.245077E-09
       330  13 -2.135290E+06 -4.108371E+05 -2.302512E+03 -9.481698E+05 -1.609718E-10  3.701556E-10
       330  14 -2.144819E+06 -4.010440E+05 -4.070075E+03 -9.370063E+05  7.642369E-10  1.390837E-09
       330  15 -2.135275E+06 -4.109739E+05 -7.417679E+03 -9.481037E+05 -1.232533E-09  7.980048E-10
       330  16 -1.610634E+06 -2.216670E+05  8.680180E+04 -8.014687E+05  1.789964E-09  8.777952E-10
       330  17 -1.744885E+06 -2.567228E+05  6.401752E+04 -8.250999E+05  1.132678E-09  1.617714E-09
       330  18 -1.860074E+06 -3.115270E+05  3.954375E+04 -8.709850E+05  2.798878E-09  3.426332E-09
       330  19 -2.659646E+06 -5.999748E+05 -9.140800E+04 -1.094753E+06 -3.919620E+03 -4.950120E+04
       330  20 -2.544581E+06 -5.453465E+05 -7.215819E+04 -1.048844E+06 -9.609323E+03 -4.009429E+04
       330  21 -2.410394E+06 -5.104121E+05 -5.437893E+04 -1.025190E+06 -1.526785E+04 -3.076223E+04
       330  22 -2.135289E+06 -4.108351E+05 -2.298711E+03 -9.481703E+05  1.426630E+04 -4.267878E+04
       330  23 -2.144819E+06 -4.010427E+05 -4.067857E+03 -9.370066E+05  8.442605E+03 -3.332523E+04
       330  24 -2.135275E+06 -4.109733E+05 -7.416580E+03 -9.481038E+05  2.650485E+03 -2.404637E+04
       330  25 -1.610633E+06 -2.216654E+05  8.680619E+04 -8.014697E+05  3.246879E+04 -3.585013E+04
       330  26 -1.744884E+06 -2.567218E+05  6.402016E+04 -8.251005E+05  2.650703E+04 -2.655146E+04
       330  27 -1.860074E+06 -3.115266E+05  3.954511E+04 -8.709853E+05  2.057730E+04 -1.732731E+04
       331   1 -2.329893E+06 -4.817631E+05 -4.241371E+04 -1.003602E+06  1.894136E+04  2.543602E+04
       331   2 -2.215460E+06 -4.265561E+05 -2.890277E+04 -9.548760E+05  2.994359E+04  1.863134E+04
       331   3 -2.084344E+06 -3.955968E+05 -2.220537E+04 -9.274644E+05  4.058509E+04  1.279053E+04
       331   4 -2.135718E+06 -4.109160E+05 -9.885174E+03 -9.483188E+05  9.097168E+02  1.867886E+04
       331   5 -2.144415E+06 -4.023856E+05 -1.814273E+04 -9.362496E+05  1.363743E+04  1.252118E+04
       331   6 -2.136789E+06 -4.184480E+05 -3.458652E+04 -9.455019E+05  2.600302E+04  7.326659E+03
       331   7 -1.941505E+06 -3.400654E+05  2.264326E+04 -8.930197E+05 -1.712774E+04  1.191944E+04
       331   8 -2.073364E+06 -3.782144E+05 -7.381615E+03 -9.176210E+05 -2.670709E+03  6.410357E+03
       331   9 -2.189232E+06 -4.412986E+05 -4.696710E+04 -9.635379E+05  1.142213E+04  1.863445E+03
       331  10 -2.329893E+06 -4.817639E+05 -4.241560E+04 -1.003602E+06 -1.015817E-09 -1.271425E-09
       331  11 -2.215461E+06 -4.265567E+05 -2.890512E+04 -9.548764E+05 -1.759345E-08 -8.833820E-09
       331  12 -2.084346E+06 -3.955974E+05 -2.220878E+04 -9.274648E+05 -3.174826E-08 -1.277726E-08
       331  13 -2.135718E+06 -4.109164E+05 -9.885831E+03 -9.483188E+05 -1.917040E-09 -1.880987E-10
       331  14 -2.144415E+06 -4.023858E+05 -1.814338E+04 -9.362497E+05 -5.846940E-09 -6.119439E-09
       331  15 -2.136790E+06 -4.184482E+05 -3.458789E+04 -9.455021E+05 -7.132260E-09 -9.840499E-09
       331  16 -1.941505E+06 -3.400657E+05  2.264244E+04 -8.930195E+05 -8.997988E-10  3.380457E-09
       331  17 -2.073364E+06 -3.782145E+05 -7.381706E+03 -9.176210E+05  1.314167E-08  8.043008E-09
       331  18 -2.189232E+06 -4.412987E+05 -4.696735E+04 -9.635380E+05  2.543547E-08  9.740059E-09
       331  19 -2.329893E+06 -4.817631E+05 -4.241371E+04 -1.003602E+06 -1.894136E+04 -2.543602E+04
       331  20 -2.215460E+06 -4.265561E+05 -2.890277E+04 -9.548760E+05 -2.994359E+04 -1.863134E+04
       331  21 -2.084344E+06 -3.955968E+05 -2.220537E+04 -9.274644E+05 -4.058509E+04 -1.279053E+04
       331  22 -2.135718E+06 -4.109160E+05 -9.885174E+03 -9.483188E+05 -9.097168E+02 -1.867886E+04
       331  23 -2.144415E+06 -4.023856E+05 -1.814273E+04 -9.362496E+05 -1.363743E+04 -1.252118E+04
       331  24 -2.136789E+06 -4.184480E+05 -3.458652E+04 -9.455019E+05 -2.600302E+04 -7.326659E+03
       331  25 -1.941505E+06 -3.400654E+05  2.264326E+04 -8.930197E+05  1.712774E+04 -1.191944E+04
       331  26 -2.073364E+06 -3.782144E+05 -7.381615E+03 -9.176210E+05  2.670709E+03 -6.410357E+03
       331  27 -2.189232E+06 -4.412986E+05 -4.696710E+04 -9.635379E+05 -1.142213E+04 -1.863445E+03
       332   1 -2.001383E+06 -3.732999E+05 -1.837255E+04 -9.155736E+05  4.884618E+04  9.827232E+03
       332   2 -1.916425E+06 -3.081518E+05 -3.082103E+04 -8.108325E+05  7.716190E+04  1.644851E+04
       332   3 -1.847510E+06 -3.455739E+05 -8.628795E+04 -7.064081E+05  1.015595E+05  3.353674E+04
       332   4 -2.142230E+06 -4.182752E+05 -4.610125E+04 -9.477086E+05  3.317717E+04  3.956636E+03
       332   5 -2.142554E+06 -4.371745E+05 -8.799286E+04 -9.205747E+05  8.023302E+04  1.759213E+04
       332   6 -2.162688E+06 -5.624128E+05 -1.878068E+05 -8.937725E+05  1.233640E+05  4.168860E+04
       332   7 -2.283057E+06 -4.632500E+05 -7.383003E+04 -9.798375E+05  1.751191E+04 -1.912978E+03
       332   8 -2.368621E+06 -5.661646E+05 -1.451661E+05 -1.030271E+06  8.330287E+04  1.873469E+04
       332   9 -2.477728E+06 -7.791414E+05 -2.893256E+05 -1.081019E+06  1.451556E+05  4.982685E+04
       332  10 -2.001386E+06 -3.733006E+05 -1.837723E+04 -9.155740E+05  2.439067E-08  1.019571E-08
       332  11 -1.916432E+06 -3.081537E+05 -3.083277E+04 -8.108335E+05  1.175095E-08  6.537436E-09
       332  12 -1.847522E+06 -3.455779E+05 -8.630952E+04 -7.064108E+05 -2.475767E-09 -1.255168E-10
       332  13 -2.142231E+06 -4.182755E+05 -4.610335E+04 -9.477088E+05 -6.414182E-09 -9.557711E-09
       332  14 -2.142561E+06 -4.371765E+05 -8.800559E+04 -9.205759E+05 -4.407524E-09 -5.512706E-09
       332  15 -2.162705E+06 -5.624188E+05 -1.878388E+05 -8.937766E+05 -1.395271E-09 -1.417356E-09
       332  16 -2.283057E+06 -4.632501E+05 -7.383062E+04 -9.798375E+05 -3.020665E-08 -1.256664E-08
       332  17 -2.368629E+06 -5.661668E+05 -1.451799E+05 -1.030272E+06 -1.611542E-08 -8.307339E-09
       332  18 -2.477752E+06 -7.791498E+05 -2.893701E+05 -1.081025E+06  6.201850E-10 -5.600305E-10
       332  19 -2.001383E+06 -3.732999E+05 -1.837255E+04 -9.155736E+05 -4.884618E+04 -9.827232E+03
       332  20 -1.916425E+06 -3.081518E+05 -3.082103E+04 -8.108325E+05 -7.716190E+04 -1.644851E+04
       332  21 -1.847510E+06 -3.455739E+05 -8.628795E+04 -7.064081E+05 -1.015595E+05 -3.353674E+04
       332  22 -2.142230E+06 -4.182752E+05 -4.610125E+04 -9.477086E+05 -3.317717E+04 -3.956636E+03
       332  23 -2.142554E+06 -4.371745E+05 -8.799286E+04 -9.205747E+05 -8.023302E+04 -1.759213E+04
       332  24 -2.162688E+06 -5.624128E+05 -1.878068E+05 -8.937725E+05 -1.233640E+05 -4.168860E+04
       332  25 -2.283057E+06 -4.632500E+05 -7.383003E+04 -9.798375E+05 -1.751191E+04  1.912978E+03
       332  26 -2.368621E+06 -5.661646E+05 -1.451661E+05 -1.030271E+06 -8.330287E+04 -1.873469E+04
       332  27 -2.477728E+06 -7.791414E+05 -2.893256E+05 -1.081019E+06 -1.451556E+05 -4.982685E+04
       333   1  5.033380E+05  9.541044E+04  1.355098E+05  3.580250E+04  1.255543E+05  2.140274E+03
       333   2  4.952641E+05 -7.062888E+04  3.540358E+04  1.078712E+04  8.339288E+04  6.105196E+03
       333   3  5.390607E+05 -5.140173E+04  9.069850E+03 -2.812593E+04  4.123218E+04  5.471656E+03
       333   4  7.159785E+05  1.483154E+05  1.879784E+05 -8.985647E+03  1.286123E+05  2.133497E+03
       333   5  6.898858E+05 -2.240372E+04  8.213132E+04 -1.980250E+03  8.422656E+04  6.103886E+03
       333   6  7.160296E+05 -7.505936E+03  5.158202E+04 -8.872223E+03  3.984297E+04  5.472103E+03
       333   7  9.286643E+05  2.012246E+05  2.404447E+05 -5.378915E+04  1.316713E+05  2.126282E+03
       333   8  8.845426E+05  2.581930E+04  1.288565E+05 -1.475164E+04  8.506050E+04  6.102542E+03
       333   9  8.930279E+05  3.638897E+04  9.409217E+04  1.038698E+04  3.845337E+04  5.472463E+03
       333  10  5.033211E+05  9.540621E+04  1.354802E+05  3.580229E+04  1.029063E-09 -1.334503E-09
       333  11  4.952566E+05 -7.063078E+04  3.539046E+04  1.078671E+04  2.443111E-09 -9.121306E-10
       333  12  5.390589E+05 -5.140221E+04  9.066602E+03 -2.812611E+04 -1.332315E-09  7.682960E-11
       333  13  7.159607E+05  1.483110E+05  1.879473E+05 -8.985868E+03 -4.111923E-10  1.123460E-10
       333  14  6.898782E+05 -2.240566E+04  8.211793E+04 -1.980664E+03  9.705498E-10 -9.859035E-10
       333  15  7.160279E+05 -7.506394E+03  5.157898E+04 -8.872399E+03  8.510622E-10 -4.830488E-10
       333  16  9.286457E+05  2.012199E+05  2.404122E+05 -5.378938E+04 -4.855692E-10  1.966373E-10
       333  17  8.845349E+05  2.581732E+04  1.288428E+05 -1.475206E+04  2.532841E-10 -6.128328E-10
       333  18  8.930263E+05  3.638854E+04  9.408934E+04  1.038681E+04  3.006968E-09  7.024580E-10
       333  19  5.033380E+05  9.541044E+04  1.355098E+05  3.580250E+04 -1.255543E+05 -2.140274E+03
       333  20  4.952641E+05 -7.062888E+04  3.540358E+04  1.078712E+04 -8.339288E+04 -6.105196E+03
       333  21  5.390607E+05 -5.140173E+04  9.069850E+03 -2.812593E+04 -4.123218E+04 -5.471656E+03
       333  22  7.159785E+05  1.483154E+05  1.879784E+05 -8.985647E+03 -1.286123E+05 -2.133497E+03
       333  23  6.898858E+05 -2.240372E+04  8.213132E+04 -1.980250E+03 -8.422656E+04 -6.103886E+03
       333  24  7.160296E+05 -7.505936E+03  5.158202E+04 -8.872223E+03 -3.984297E+04 -5.472103E+03
       333  25  9.286643E+05  2.012246E+05  2.404447E+05 -5.378915E+04 -1.316713E+05 -2.126282E+03
       333  26  8.845426E+05  2.581930E+04  1.288565E+05 -1.475164E+04 -8.506050E+04 -6.102542E+03
       333  27  8.930279E+05  3.638897E+04  9.409217E+04  1.038698E+04 -3.845337E+04 -5.472463E+03
       334   1  5.537367E+05 -2.161324E+04  5.507713E+03 -4.448337E+03  3.184649E+04  4.401160E+03
       334   2  5.677045E+05 -3.595314E+04 -1.109535E+04 -1.006929E+03  2.106386E+04  4.077580E+03
       334   3  5.881830E+05 -3.000358E+04 -1.560245E+04 -1.105023E+04  1.028099E+04  3.397932E+03
       334   4  7.058644E+05  1.611287E+04  4.214091E+04 -8.819390E+03  3.178421E+04  4.400834E+03
       334   5  7.025996E+05 -2.508270E+03  2.133261E+04 -2.073500E+03  2.082805E+04  4.077395E+03
       334   6  7.058736E+05 -8.124470E+02  1.273846E+04 -8.812039E+03  9.871969E+03  3.397808E+03
       334   7  8.580133E+05  5.383737E+04  7.877247E+04 -1.319152E+04  3.172191E+04  4.400509E+03
       334   8  8.375114E+05  3.093528E+04  5.375927E+04 -3.140304E+03  2.059220E+04  4.077210E+03
       334   9  8.235768E+05  2.837770E+04  4.107840E+04 -6.573422E+03  9.462871E+03  3.397680E+03
       334  10  5.537356E+05 -2.161353E+04  5.505773E+03 -4.448450E+03  5.593578E-10  5.271196E-10
       334  11  5.677041E+05 -3.595327E+04 -1.109621E+04 -1.006999E+03  4.327077E-10 -1.363001E-10
       334  12  5.881829E+05 -3.000362E+04 -1.560267E+04 -1.105026E+04  6.611140E-10 -3.631408E-10
       334  13  7.058633E+05  1.611258E+04  4.213898E+04 -8.819502E+03  5.355813E-10  1.120271E-09
       334  14  7.025992E+05 -2.508404E+03  2.133176E+04 -2.073568E+03  1.782392E-09  2.190944E-10
       334  15  7.058735E+05 -8.124856E+02  1.273826E+04 -8.812066E+03 -3.924064E-10 -2.790972E-10
       334  16  8.580122E+05  5.383708E+04  7.877054E+04 -1.319163E+04  7.721212E-10  4.461966E-10
       334  17  8.375109E+05  3.093515E+04  5.375844E+04 -3.140372E+03  1.244412E-09 -6.421641E-11
       334  18  8.235767E+05  2.837766E+04  4.107821E+04 -6.573448E+03  2.051930E-10  3.887640E-10
       334  19  5.537367E+05 -2.161324E+04  5.507713E+03 -4.448337E+03 -3.184649E+04 -4.401160E+03
       334  20  5.677045E+05 -3.595314E+04 -1.109535E+04 -1.006929E+03 -2.106386E+04 -4.077580E+03
       334  21  5.881830E+05 -3.000358E+04 -1.560245E+04 -1.105023E+04 -1.028099E+04 -3.397932E+03
       334  22  7.058644E+05  1.611287E+04  4.214091E+04 -8.819390E+03 -3.178421E+04 -4.400834E+03
       334  23  7.025996E+05 -2.508270E+03  2.133261E+04 -2.073500E+03 -2.082805E+04 -4.077395E+03
       334  24  7.058736E+05 -8.124470E+02  1.273846E+04 -8.812039E+03 -9.871969E+03 -3.397808E+03
       334  25  8.580133E+05  5.383737E+04  7.877247E+04 -1.319152E+04 -3.172191E+04 -4.400509E+03
       334  26  8.375114E+05  3.093528E+04  5.375927E+04 -3.140304E+03 -2.059220E+04 -4.077210E+03
       334  27  8.235768E+05  2.837770E+04  4.107840E+04 -6.573422E+03 -9.462871E+03 -3.397680E+03
       335   1  6.111659E+05 -2.144446E+04 -1.243605E+04 -8.414460E+03  8.161943E+03  2.950321E+03
       335   2  6.275786E+05 -1.927625E+04 -1.297014E+04 -2.113089E+03  5.439869E+03  2.303855E+03
       335   3  6.449113E+05 -1.490250E+04 -1.117895E+04 -9.028970E+03  2.717665E+03  1.632974E+03
       335   4  7.046257E+05  1.719027E+03  9.990465E+03 -8.755138E+03  7.858354E+03  2.950210E+03
       335   5  7.041658E+05 -2.874728E+02  5.442921E+03 -2.146352E+03  5.124172E+03  2.303770E+03
       335   6  7.046277E+05 -8.644556E+01  3.228858E+03 -8.754713E+03  2.389933E+03  1.632914E+03
       335   7  7.980935E+05  2.488188E+04  3.241636E+04 -9.095867E+03  7.554720E+03  2.950100E+03
       335   8  7.807583E+05  1.870088E+04  2.385557E+04 -2.179619E+03  4.808436E+03  2.303685E+03
       335   9  7.643475E+05  1.472935E+04  1.763641E+04 -8.480429E+03  2.062170E+03  1.632853E+03
       335  10  6.111658E+05 -2.144449E+04 -1.243619E+04 -8.414480E+03  1.103758E-09 -2.362678E-10
       335  11  6.275786E+05 -1.927627E+04 -1.297021E+04 -2.113099E+03  7.981529E-10 -3.994630E-10
       335  12  6.449112E+05 -1.490251E+04 -1.117897E+04 -9.028974E+03 -1.904601E-09  4.643942E-11
       335  13  7.046256E+05  1.719001E+03  9.990333E+03 -8.755157E+03  9.688520E-10  3.284078E-11
       335  14  7.041658E+05 -2.874855E+02  5.442862E+03 -2.146361E+03 -6.498972E-10  5.149740E-11
       335  15  7.046277E+05 -8.644995E+01  3.228842E+03 -8.754716E+03  6.360817E-10  2.055303E-10
       335  16  7.980934E+05  2.488186E+04  3.241623E+04 -9.095885E+03 -4.888673E-10  3.186292E-10
       335  17  7.807583E+05  1.870087E+04  2.385551E+04 -2.179628E+03  1.330003E-09 -1.285870E-10
       335  18  7.643475E+05  1.472935E+04  1.763640E+04 -8.480432E+03  8.167875E-10  7.201928E-10
       335  19  6.111659E+05 -2.144446E+04 -1.243605E+04 -8.414460E+03 -8.161943E+03 -2.950321E+03
       335  20  6.275786E+05 -1.927625E+04 -1.297014E+04 -2.113089E+03 -5.439869E+03 -2.303855E+03
       335  21  6.449113E+05 -1.490250E+04 -1.117895E+04 -9.028970E+03 -2.717665E+03 -1.632974E+03
       335  22  7.046257E+05  1.719027E+03  9.990465E+03 -8.755138E+03 -7.858354E+03 -2.950210E+03
       335  23  7.041658E+05 -2.874728E+02  5.442921E+03 -2.146352E+03 -5.124172E+03 -2.303770E+03
       335  24  7.046277E+05 -8.644556E+01  3.228858E+03 -8.754713E+03 -2.389933E+03 -1.632914E+03
       335  25  7.980935E+05  2.488188E+04  3.241636E+04 -9.095867E+03 -7.554720E+03 -2.950100E+03
       335  26  7.807583E+05  1.870088E+04  2.385557E+04 -2.179619E+03 -4.808436E+03 -2.303685E+03
       335  27  7.643475E+05  1.472935E+04  1.763641E+04 -8.480429E+03 -2.062170E+03 -1.632853E+03
       336   1  6.686235E+05 -8.700638E+03 -6.040132E+03 -8.721736E+03  2.192287E+03  1.239907E+03
       336   2  6.852573E+05 -4.777111E+03 -3.062234E+03 -2.192323E+03  1.429726E+03  5.748312E+02
       336   3  7.020574E+05 -6.075450E+02  4.743334E+02 -8.760275E+03  6.671057E+02 -9.127118E+01
       336   4  7.044603E+05  1.742722E+02  2.524868E+03 -8.728236E+03  1.873149E+03  1.239858E+03
       336   5  7.043776E+05 -3.663578E+01  1.534572E+03 -2.179556E+03  1.110048E+03  5.747880E+02
       336   6  7.044607E+05 -1.468018E+00  1.103239E+03 -8.728214E+03  3.469092E+02 -9.130780E+01
       336   7  7.402983E+05  9.049089E+03  1.108978E+04 -8.734737E+03  1.553993E+03  1.239809E+03
       336   8  7.234982E+05  4.703812E+03  6.131353E+03 -2.166788E+03  7.903614E+02  5.747447E+02
       336   9  7.068640E+05  6.046086E+02  1.732145E+03 -8.696153E+03  2.671144E+01 -9.134446E+01
       336  10  6.686235E+05 -8.700641E+03 -6.040144E+03 -8.721738E+03 -1.534743E-09  3.736360E-10
       336  11  6.852573E+05 -4.777111E+03 -3.062239E+03 -2.192324E+03  8.668825E-10  8.179354E-10
       336  12  7.020574E+05 -6.075451E+02  4.743326E+02 -8.760275E+03  2.550662E-09  1.662681E-09
       336  13  7.044603E+05  1.742696E+02  2.524859E+03 -8.728238E+03 -9.848827E-10 -2.533182E-11
       336  14  7.043776E+05 -3.663647E+01  1.534569E+03 -2.179556E+03 -2.052191E-10 -1.885086E-09
       336  15  7.044607E+05 -1.468059E+00  1.103239E+03 -8.728214E+03 -9.837551E-11 -2.422011E-09
       336  16  7.402983E+05  9.049087E+03  1.108977E+04 -8.734739E+03  8.440441E-10  7.531176E-10
       336  17  7.234982E+05  4.703812E+03  6.131351E+03 -2.166789E+03  4.832247E-10  2.582579E-10
       336  18  7.068640E+05  6.046085E+02  1.732145E+03 -8.696153E+03 -2.173956E-09  1.759732E-09
       336  19  6.686235E+05 -8.700638E+03 -6.040132E+03 -8.721736E+03 -2.192287E+03 -1.239907E+03
       336  20  6.852573E+05 -4.777111E+03 -3.062234E+03 -2.192323E+03 -1.429726E+03 -5.748312E+02
       336  21  7.020574E+05 -6.075450E+02  4.743334E+02 -8.760275E+03 -6.671057E+02  9.127118E+01
       336  22  7.044603E+05  1.742722E+02  2.524868E+03 -8.728236E+03 -1.873149E+03 -1.239858E+03
       336  23  7.043776E+05 -3.663578E+01  1.534572E+03 -2.179556E+03 -1.110048E+03 -5.747880E+02
       336  24  7.044607E+05 -1.468018E+00  1.103239E+03 -8.728214E+03 -3.469092E+02  9.130780E+01
       336  25  7.402983E+05  9.049089E+03  1.108978E+04 -8.734737E+03 -1.553993E+03 -1.239809E+03
       336  26  7.234982E+05  4.703812E+03  6.131353E+03 -2.166788E+03 -7.903614E+02 -5.747447E+02
       336  27  7.068640E+05  6.046086E+02  1.732145E+03 -8.696153E+03 -2.671144E+01  9.134446E+01
       337   1  7.258382E+05  5.323177E+03  6.211327E+03 -8.719505E+03  4.756509E+02 -4.793264E+02
       337   2  7.425299E+05  9.431709E+03  1.023760E+04 -2.167070E+03 -5.560394E+01 -1.146091E+03
       337   3  7.593350E+05  1.368835E+04  1.464786E+04 -8.735877E+03 -5.868168E+02 -1.812687E+03
       337   4  7.044489E+05  1.005740E+01  1.018058E+03 -8.733541E+03  1.553077E+02 -4.793653E+02
       337   5  7.043922E+05 -2.342178E+01  1.068997E+03 -2.172901E+03 -3.758454E+02 -1.146143E+03
       337   6  7.044485E+05  9.122079E+01  1.503887E+03 -8.733554E+03 -9.069425E+02 -1.812751E+03
       337   7  6.830600E+05 -5.303096E+03 -4.175244E+03 -8.747576E+03 -1.650244E+02 -4.794042E+02
       337   8  6.662558E+05 -9.478659E+03 -8.099711E+03 -2.178733E+03 -6.960673E+02 -1.146195E+03
       337   9  6.495648E+05 -1.350613E+04 -1.164030E+04 -8.731231E+03 -1.227040E+03 -1.812815E+03
       337  10  7.258382E+05  5.323177E+03  6.211326E+03 -8.719505E+03 -3.072941E-09  1.873624E-09
       337  11  7.425299E+05  9.431708E+03  1.023760E+04 -2.167070E+03  9.463546E-10  1.306586E-09
       337  12  7.593350E+05  1.368835E+04  1.464786E+04 -8.735878E+03  4.209991E-09  2.478752E-10
       337  13  7.044489E+05  1.005714E+01  1.018058E+03 -8.733541E+03 -4.615236E-10 -1.954723E-09
       337  14  7.043922E+05 -2.342323E+01  1.068994E+03 -2.172902E+03  1.499698E-09 -1.174913E-09
       337  15  7.044485E+05  9.121704E+01  1.503879E+03 -8.733555E+03 -5.498567E-10 -5.602937E-10
       337  16  6.830600E+05 -5.303096E+03 -4.175244E+03 -8.747576E+03  2.657066E-09  2.339025E-09
       337  17  6.662558E+05 -9.478660E+03 -8.099714E+03 -2.178733E+03  1.328043E-09  1.053719E-09
       337  18  6.495648E+05 -1.350613E+04 -1.164031E+04 -8.731232E+03 -3.887660E-09 -4.210753E-10
       337  19  7.258382E+05  5.323177E+03  6.211327E+03 -8.719505E+03 -4.756509E+02  4.793264E+02
       337  20  7.425299E+05  9.431709E+03  1.023760E+04 -2.167070E+03  5.560394E+01  1.146091E+03
       337  21  7.593350E+05  1.368835E+04  1.464786E+04 -8.735877E+03  5.868168E+02  1.812687E+03
       337  22  7.044489E+05  1.005740E+01  1.018058E+03 -8.733541E+03 -1.553077E+02  4.793653E+02
       337  23  7.043922E+05 -2.342178E+01  1.068997E+03 -2.172901E+03  3.758454E+02  1.146143E+03
       337  24  7.044485E+05  9.122079E+01  1.503887E+03 -8.733554E+03  9.069425E+02  1.812751E+03
       337  25  6.830600E+05 -5.303096E+03 -4.175244E+03 -8.747576E+03  1.650244E+02  4.794042E+02
       337  26  6.662558E+05 -9.478659E+03 -8.099711E+03 -2.178733E+03  6.960673E+02  1.146195E+03
       337  27  6.495648E+05 -1.350613E+04 -1.164030E+04 -8.731231E+03  1.227040E+03  1.812815E+03
       338   1  7.833937E+05  1.951188E+04  2.086046E+04 -8.617529E+03 -8.788902E+02 -2.207498E+03
       338   2  8.001008E+05  2.359738E+04  2.604045E+04 -2.132646E+03 -2.400903E+03 -2.881186E+03
       338   3  8.173245E+05  2.887777E+04  3.251321E+04 -8.939487E+03 -3.922803E+03 -3.528840E+03
       338   4  7.045369E+05 -4.808945E+01  1.852400E+03 -8.771359E+03 -1.208564E+03 -2.207579E+03
       338   5  7.042789E+05 -1.579308E+02  3.005306E+03 -2.125576E+03 -2.717863E+03 -2.881296E+03
       338   6  7.045355E+05  9.251156E+02  5.442399E+03 -8.771641E+03 -4.227007E+03 -3.528978E+03
       338   7  6.256858E+05 -1.960851E+04 -1.715611E+04 -8.925170E+03 -1.538197E+03 -2.207660E+03
       338   8  6.084654E+05 -2.391391E+04 -2.003049E+04 -2.118507E+03 -3.034773E+03 -2.881407E+03
       338   9  5.917581E+05 -2.702847E+04 -2.162931E+04 -8.603827E+03 -4.531155E+03 -3.529116E+03
       338  10  7.833937E+05  1.951187E+04  2.086045E+04 -8.617530E+03  2.830432E-10  1.448197E-10
       338  11  8.001007E+05  2.359737E+04  2.604042E+04 -2.132652E+03 -2.335807E-09 -2.370569E-10
       338  12  8.173245E+05  2.887776E+04  3.251315E+04 -8.939498E+03 -1.756202E-09  7.354641E-10
       338  13  7.045369E+05 -4.809508E+01  1.852388E+03 -8.771361E+03 -2.084375E-09 -2.081408E-10
       338  14  7.042789E+05 -1.579417E+02  3.005276E+03 -2.125582E+03 -1.476379E-09  1.096063E-10
       338  15  7.045355E+05  9.250974E+02  5.442343E+03 -8.771653E+03 -1.001167E-09  3.474706E-10
       338  16  6.256858E+05 -1.960852E+04 -1.715612E+04 -8.925173E+03 -1.513421E-09 -6.291874E-10
       338  17  6.084654E+05 -2.391392E+04 -2.003052E+04 -2.118514E+03  9.577339E-10  2.927678E-10
       338  18  5.917581E+05 -2.702849E+04 -2.162937E+04 -8.603840E+03 -5.076702E-10  2.130417E-10
       338  19  7.833937E+05  1.951188E+04  2.086046E+04 -8.617529E+03  8.788902E+02  2.207498E+03
       338  20  8.001008E+05  2.359738E+04  2.604045E+04 -2.132646E+03  2.400903E+03  2.881186E+03
       338  21  8.173245E+05  2.887777E+04  3.251321E+04 -8.939487E+03  3.922803E+03  3.528840E+03
       338  22  7.045369E+05 -4.808945E+01  1.852400E+03 -8.771359E+03  1.208564E+03  2.207579E+03
       338  23  7.042789E+05 -1.579308E+02  3.005306E+03 -2.125576E+03  2.717863E+03  2.881296E+03
       338  24  7.045355E+05  9.251156E+02  5.442399E+03 -8.771641E+03  4.227007E+03  3.528978E+03
       338  25  6.256858E+05 -1.960851E+04 -1.715611E+04 -8.925170E+03  1.538197E+03  2.207660E+03
       338  26  6.084654E+05 -2.391391E+04 -2.003049E+04 -2.118507E+03  3.034773E+03  2.881407E+03
       338  27  5.917581E+05 -2.702847E+04 -2.162931E+04 -8.603827E+03  4.531155E+03  3.529116E+03
       339   1  8.424155E+05  3.357888E+04  3.994936E+04 -7.604868E+03 -4.903033E+03 -3.983763E+03
       339   2  8.579931E+05  3.695370E+04  4.871229E+04 -2.585607E+03 -1.102903E+04 -4.666542E+03
       339   3  8.771683E+05  5.135319E+04  6.422507E+04 -1.116710E+04 -1.715530E+04 -4.960159E+03
       339   4  7.052123E+05 -4.444543E+02  6.922507E+03 -8.838694E+03 -5.322662E+03 -3.983961E+03
       339   5  7.034269E+05 -1.362110E+03  1.156155E+04 -2.040631E+03 -1.126036E+04 -4.666735E+03
       339   6  7.052068E+05  8.713753E+03  2.282100E+04 -8.843457E+03 -1.719816E+04 -4.960339E+03
       339   7  5.680263E+05 -3.446916E+04 -2.610568E+04 -1.007225E+04 -5.742197E+03 -3.984157E+03
       339   8  5.488824E+05 -3.967966E+04 -2.559088E+04 -1.495793E+03 -1.149163E+04 -4.666928E+03
       339   9  5.332723E+05 -3.392782E+04 -1.858518E+04 -6.520463E+03 -1.724100E+04 -4.960519E+03
       339  10  8.424155E+05  3.357886E+04  3.994928E+04 -7.604883E+03 -5.296775E-10  4.647956E-10
       339  11  8.579930E+05  3.695365E+04  4.871203E+04 -2.585649E+03  4.643044E-10 -7.231338E-10
       339  12  8.771679E+05  5.135309E+04  6.422448E+04 -1.116717E+04 -1.107675E-09 -7.014710E-10
       339  13  7.052123E+05 -4.444790E+02  6.922424E+03 -8.838712E+03 -1.994660E-09  9.842787E-11
       339  14  7.034267E+05 -1.362167E+03  1.156128E+04 -2.040673E+03 -1.870136E-09 -7.117649E-10
       339  15  7.052065E+05  8.713647E+03  2.282040E+04 -8.843526E+03 -2.088128E-09 -4.353492E-10
       339  16  5.680263E+05 -3.446918E+04 -2.610578E+04 -1.007227E+04 -2.091546E-09 -1.412400E-10
       339  17  5.488823E+05 -3.967972E+04 -2.559117E+04 -1.495836E+03 -1.258965E-09  6.731719E-10
       339  18  5.332720E+05 -3.392793E+04 -1.858579E+04 -6.520531E+03  4.393648E-10  8.198100E-11
       339  19  8.424155E+05  3.357888E+04  3.994936E+04 -7.604868E+03  4.903033E+03  3.983763E+03
       339  20  8.579931E+05  3.695370E+04  4.871229E+04 -2.585607E+03  1.102903E+04  4.666542E+03
       339  21  8.771683E+05  5.135319E+04  6.422507E+04 -1.116710E+04  1.715530E+04  4.960159E+03
       339  22  7.052123E+05 -4.444543E+02  6.922507E+03 -8.838694E+03  5.322662E+03  3.983961E+03
       339  23  7.034269E+05 -1.362110E+03  1.156155E+04 -2.040631E+03  1.126036E+04  4.666735E+03
       339  24  7.052068E+05  8.713753E+03  2.282100E+04 -8.843457E+03  1.719816E+04  4.960339E+03
       339  25  5.680263E+05 -3.446916E+04 -2.610568E+04 -1.007225E+04  5.742197E+03  3.984157E+03
       339  26  5.488824E+05 -3.967966E+04 -2.559088E+04 -1.495793E+03  1.149163E+04  4.666928E+03
       339  27  5.332723E+05 -3.392782E+04 -1.858518E+04 -6.520463E+03  1.724100E+04  4.960519E+03
       340   1  9.078059E+05  4.479272E+04  7.526107E+04  1.569170E+03 -2.006847E+04 -6.094009E+03
       340   2  9.114771E+05  4.111989E+04  9.605456E+04 -8.781670E+03 -4.652077E+04 -6.712803E+03
       340   3  9.438831E+05  1.383333E+05  1.592906E+05 -3.314902E+04 -7.297809E+04 -2.300318E+03
       340   4  7.107127E+05 -4.072247E+03  2.793029E+04 -8.911038E+03 -2.156176E+04 -6.094725E+03
       340   5  6.965360E+05 -1.213671E+04  4.445823E+04 -1.938782E+03 -4.558962E+04 -6.712769E+03
       340   6  7.106830E+05  8.028229E+04  1.017566E+05 -8.982437E+03 -6.962159E+04 -2.300240E+03
       340   7  5.136552E+05 -5.293963E+04 -1.940319E+04 -1.938792E+04 -2.305459E+04 -6.095390E+03
       340   8  4.816373E+05 -6.539648E+04 -7.141350E+03  4.901722E+03 -4.465878E+04 -6.712714E+03
       340   9  4.775336E+05  2.222940E+04  4.421907E+04  1.517506E+04 -6.626635E+04 -2.299902E+03
       340  10  9.078055E+05  4.479258E+04  7.526024E+04  1.569072E+03 -7.584745E-10 -1.136737E-09
       340  11  9.114748E+05  4.111926E+04  9.605041E+04 -8.781921E+03 -1.955942E-09 -2.639687E-09
       340  12  9.438774E+05  1.383319E+05  1.592806E+05 -3.314915E+04 -7.994718E-10 -8.453910E-10
       340  13  7.107122E+05 -4.072412E+03  2.792934E+04 -8.911144E+03 -2.566047E-09 -3.009720E-09
       340  14  6.965338E+05 -1.213731E+04  4.445424E+04 -1.939029E+03  1.409063E-09  1.085648E-09
       340  15  7.106778E+05  8.028098E+04  1.017475E+05 -8.982566E+03  9.384204E-10 -1.839568E-10
       340  16  5.136546E+05 -5.293981E+04 -1.940426E+04 -1.938803E+04 -9.552527E-10 -4.438484E-10
       340  17  4.816351E+05 -6.539706E+04 -7.145180E+03  4.901481E+03  3.525209E-09  8.697465E-10
       340  18  4.775289E+05  2.222821E+04  4.421081E+04  1.517493E+04  1.366215E-09 -9.257144E-10
       340  19  9.078059E+05  4.479272E+04  7.526107E+04  1.569170E+03  2.006847E+04  6.094009E+03
       340  20  9.114771E+05  4.111989E+04  9.605456E+04 -8.781670E+03  4.652077E+04  6.712803E+03
       340  21  9.438831E+05  1.383333E+05  1.592906E+05 -3.314902E+04  7.297809E+04  2.300318E+03
       340  22  7.107127E+05 -4.072247E+03  2.793029E+04 -8.911038E+03  2.156176E+04  6.094725E+03
       340  23  6.965360E+05 -1.213671E+04  4.445823E+04 -1.938782E+03  4.558962E+04  6.712769E+03
       340  24  7.106830E+05  8.028229E+04  1.017566E+05 -8.982437E+03  6.962159E+04  2.300240E+03
       340  25  5.136552E+05 -5.293963E+04 -1.940319E+04 -1.938792E+04  2.305459E+04  6.095390E+03
       340  26  4.816373E+05 -6.539648E+04 -7.141350E+03  4.901722E+03  4.465878E+04  6.712714E+03
       340  27  4.775336E+05  2.222940E+04  4.421907E+04  1.517506E+04  6.626635E+04  2.299902E+03
       341   1  1.687811E+06  6.914810E+06  1.715274E+06 -8.201493E+05  5.421078E+04  1.986058E+05
       341   2  1.147951E+06  5.431321E+06  1.226973E+06 -2.321080E+05  1.483052E+05  7.903457E+04
       341   3  8.305172E+05  4.034445E+06  8.741541E+05 -7.630800E+05  9.645164E+04 -4.104050E+04
       341   4  1.483260E+05  7.164243E+05  1.898357E+05 -7.594951E+05  5.452050E+04  1.172627E+05
       341   5 -2.633717E+04  6.811307E+05  9.018450E+04 -1.999792E+05  1.484398E+05  6.883930E+04
       341   6  1.011379E+04  7.188019E+05  7.764223E+04 -7.599452E+05  9.592953E+04  1.963038E+04
       341   7 -1.393994E+06 -5.447263E+06 -1.338409E+06 -6.993943E+05  5.481650E+04  3.671904E+04
       341   8 -1.202254E+06 -4.048514E+06 -1.048197E+06 -1.680632E+05  1.485740E+05  5.871962E+04
       341   9 -8.110852E+05 -2.586818E+06 -7.196365E+05 -7.567986E+05  9.540651E+04  7.997986E+04
       341  10  1.687797E+06  6.914767E+06  1.715195E+06 -8.201579E+05 -2.318361E-09 -1.344318E-09
       341  11  1.147926E+06  5.431309E+06  1.226920E+06 -2.321174E+05 -7.174483E-09  2.724842E-09
       341  12  8.305068E+05  4.034441E+06  8.741335E+05 -7.630769E+05  2.764163E-09 -1.195992E-08
       341  13  1.483191E+05  7.164088E+05  1.898043E+05 -7.595002E+05  1.481950E-10 -2.221658E-09
       341  14 -2.636211E+04  6.811197E+05  9.013417E+04 -1.999874E+05 -3.687836E-09  5.820507E-09
       341  15  1.010380E+04  7.187991E+05  7.762420E+04 -7.599467E+05  6.777303E-10 -3.284054E-09
       341  16 -1.393998E+06 -5.447265E+06 -1.338417E+06 -6.993960E+05 -1.240210E-09 -8.869265E-10
       341  17 -1.202279E+06 -4.048523E+06 -1.048245E+06 -1.680702E+05  9.413722E-10  9.682427E-09
       341  18 -8.110968E+05 -2.586828E+06 -7.196657E+05 -7.568047E+05  1.622289E-10  4.147451E-09
       341  19  1.687811E+06  6.914810E+06  1.715274E+06 -8.201493E+05 -5.421078E+04 -1.986058E+05
       341  20  1.147951E+06  5.431321E+06  1.226973E+06 -2.321080E+05 -1.483052E+05 -7.903457E+04
       341  21  8.305172E+05  4.034445E+06  8.741541E+05 -7.630800E+05 -9.645164E+04  4.104050E+04
       341  22  1.483260E+05  7.164243E+05  1.898357E+05 -7.594951E+05 -5.452050E+04 -1.172627E+05
       341  23 -2.633717E+04  6.811307E+05  9.018450E+04 -1.999792E+05 -1.484398E+05 -6.883930E+04
       341  24  1.011379E+04  7.188019E+05  7.764223E+04 -7.599452E+05 -9.592953E+04 -1.963038E+04
       341  25 -1.393994E+06 -5.447263E+06 -1.338409E+06 -6.993943E+05 -5.481650E+04 -3.671904E+04
       341  26 -1.202254E+06 -4.048514E+06 -1.048197E+06 -1.680632E+05 -1.485740E+05 -5.871962E+04
       341  27 -8.110852E+05 -2.586818E+06 -7.196365E+05 -7.567986E+05 -9.540651E+04 -7.997986E+04
       342   1  3.424321E+05  1.982742E+06  3.803039E+05 -7.774437E+05  4.028190E+04 -1.604134E+04
       342   2 -4.181850E+04  5.542943E+05  4.081857E+04 -1.980400E+05 -4.007779E+03 -5.556193E+04
       342   3 -3.387727E+05 -8.695854E+05 -2.566342E+05 -7.350073E+05 -4.777449E+04 -9.497372E+04
       342   4  2.587864E+04  7.058243E+05  7.405960E+04 -7.590914E+05  4.007077E+04  5.548601E+03
       342   5 -4.541109E+03  7.044303E+05  7.691561E+04 -2.008119E+05 -4.209654E+03 -3.423502E+04
       342   6  5.250400E+04  7.057411E+05  1.220928E+05 -7.588435E+05 -4.797075E+04 -7.399846E+04
       342   7 -2.907921E+05 -5.696025E+05 -2.322985E+05 -7.407723E+05  3.986067E+04  2.709441E+04
       342   8  3.273491E+04  8.545880E+05  1.130128E+05 -2.035845E+05 -4.411694E+03 -1.290297E+04
       342   9  4.436017E+05  2.283341E+06  5.006451E+05 -7.827336E+05 -4.816835E+04 -5.296993E+04
       342  10  3.424303E+05  1.982741E+06  3.803004E+05 -7.774432E+05  1.849112E-09 -1.821687E-08
       342  11 -4.181935E+04  5.542909E+05  4.081274E+04 -1.980401E+05  1.857278E-09 -1.303323E-09
       342  12 -3.387776E+05 -8.695957E+05 -2.566555E+05 -7.350110E+05 -4.512622E-09 -1.372064E-08
       342  13  2.587690E+04  7.058239E+05  7.405652E+04 -7.590916E+05  2.022310E-09 -9.444864E-09
       342  14 -4.541443E+03  7.044291E+05  7.691338E+04 -2.008120E+05  4.404745E-09  9.808142E-09
       342  15  5.250005E+04  7.057346E+05  1.220781E+05 -7.588464E+05  7.422462E-09 -3.721318E-09
       342  16 -2.907940E+05 -5.696037E+05 -2.323028E+05 -7.407732E+05  4.260893E-11  8.860828E-09
       342  17  3.273484E+04  8.545878E+05  1.130124E+05 -2.035845E+05 -8.351748E-09  2.097558E-08
       342  18  4.435984E+05  2.283338E+06  5.006354E+05 -7.827356E+05 -1.817468E-09  6.042042E-09
       342  19  3.424321E+05  1.982742E+06  3.803039E+05 -7.774437E+05 -4.028190E+04  1.604134E+04
       342  20 -4.181850E+04  5.542943E+05  4.081857E+04 -1.980400E+05  4.007779E+03  5.556193E+04
       342  21 -3.387727E+05 -8.695854E+05 -2.566342E+05 -7.350073E+05  4.777449E+04  9.497372E+04
       342  22  2.587864E+04  7.058243E+05  7.405960E+04 -7.590914E+05 -4.007077E+04 -5.548601E+03
       342  23 -4.541109E+03  7.044303E+05  7.691561E+04 -2.008119E+05  4.209654E+03  3.423502E+04
       342  24  5.250400E+04  7.057411E+05  1.220928E+05 -7.588435E+05  4.797075E+04  7.399846E+04
       342  25 -2.907921E+05 -5.696025E+05 -2.322985E+05 -7.407723E+05 -3.986067E+04 -2.709441E+04
       342  26  3.273491E+04  8.545880E+05  1.130128E+05 -2.035845E+05  4.411694E+03  1.290297E+04
       342  27  4.436017E+05  2.283341E+06  5.006451E+05 -7.827336E+05  4.816835E+04  5.296993E+04
       343   1 -9.004553E+05 -2.867706E+06 -7.234363E+05 -7.863512E+05 -1.040896E+05 -1.595558E+05
       343   2 -1.314106E+06 -4.373828E+06 -9.952254E+05 -1.477617E+05 -1.571363E+05 -2.030730E+05
       343   3 -1.231052E+06 -5.728715E+06 -1.110675E+06 -6.299830E+05 -5.736605E+04 -2.457504E+05
       343   4 -5.235903E+03  7.379413E+05  1.459947E+05 -7.603664E+05 -1.046089E+05 -9.801964E+04
       343   5 -6.299998E+04  6.561756E+05  2.157449E+05 -1.997513E+05 -1.569767E+05 -2.153224E+05
       343   6  3.867955E+05  7.353526E+05  4.920934E+05 -7.592248E+05 -5.706336E+04 -3.318984E+05
       343   7  8.890417E+05  4.355521E+06  1.014513E+06 -7.341964E+05 -1.051214E+05 -3.612479E+04
       343   8  1.186267E+06  5.709428E+06  1.424914E+06 -2.521321E+05 -1.568159E+05 -2.276656E+05
       343   9  2.001570E+06  7.237626E+06  2.091782E+06 -8.897774E+05 -5.672693E+04 -4.189342E+05
       343  10 -9.004738E+05 -2.867736E+06 -7.235048E+05 -7.863646E+05  2.526793E-10 -1.541101E-08
       343  11 -1.314144E+06 -4.373879E+06 -9.953498E+05 -1.477874E+05  4.318635E-09  7.632577E-11
       343  12 -1.231072E+06 -5.728781E+06 -1.110796E+06 -6.299944E+05  1.545914E-09  7.699950E-11
       343  13 -5.250252E+03  7.379281E+05  1.459560E+05 -7.603747E+05 -4.713680E-09 -8.113592E-09
       343  14 -6.303889E+04  6.561192E+05  2.156115E+05 -1.997785E+05  2.834469E-09  5.204963E-09
       343  15  3.867624E+05  7.352335E+05  4.918804E+05 -7.592401E+05 -8.520436E-11 -4.478044E-10
       343  16  8.890295E+05  4.355516E+06  1.014490E+06 -7.341995E+05  3.040635E-09  6.974149E-09
       343  17  1.186227E+06  5.709366E+06  1.424771E+06 -2.521608E+05 -8.199639E-10  1.011859E-08
       343  18  2.001520E+06  7.237439E+06  2.091450E+06 -8.897965E+05 -1.706594E-09 -1.205985E-09
       343  19 -9.004553E+05 -2.867706E+06 -7.234363E+05 -7.863512E+05  1.040896E+05  1.595558E+05
       343  20 -1.314106E+06 -4.373828E+06 -9.952254E+05 -1.477617E+05  1.571363E+05  2.030730E+05
       343  21 -1.231052E+06 -5.728715E+06 -1.110675E+06 -6.299830E+05  5.736605E+04  2.457504E+05
       343  22 -5.235903E+03  7.379413E+05  1.459947E+05 -7.603664E+05  1.046089E+05  9.801964E+04
       343  23 -6.299998E+04  6.561756E+05  2.157449E+05 -1.997513E+05  1.569767E+05  2.153224E+05
       343  24  3.867955E+05  7.353526E+05  4.920934E+05 -7.592248E+05  5.706336E+04  3.318984E+05
       343  25  8.890417E+05  4.355521E+06  1.014513E+06 -7.341964E+05  1.051214E+05  3.612479E+04
       343  26  1.186267E+06  5.709428E+06  1.424914E+06 -2.521321E+05  1.568159E+05  2.276656E+05
       343  27  2.001570E+06  7.237626E+06  2.091782E+06 -8.897774E+05  5.672693E+04  4.189342E+05
       344   1 -9.176732E+05 -3.956774E+05 -2.002074E+05 -3.965906E+05 -1.054467E+05 -3.426556E+04
       344   2 -8.818931E+05 -2.871396E+05 -1.132692E+05 -3.778088E+05 -6.484027E+04 -6.702822E+03
       344   3 -8.645502E+05 -2.317972E+05 -7.253728E+04 -3.543180E+05 -2.112673E+04  1.261136E+04
       344   4 -6.110692E+05 -2.189252E+05 -1.105191E+05 -2.489352E+05 -7.400502E+04 -2.246256E+04
       344   5 -5.977184E+05 -1.526648E+05 -5.277586E+04 -2.668333E+05 -5.080012E+04 -1.431680E+03
       344   6 -5.993443E+05 -1.361397E+05 -2.742662E+04 -2.800272E+05 -2.449148E+04  1.134629E+04
       344   7 -3.043668E+05 -4.212327E+04 -2.083621E+04 -1.012033E+05 -4.254710E+04 -1.064555E+04
       344   8 -3.134579E+05 -1.816582E+04  7.714026E+03 -1.558056E+05 -3.675320E+04  3.843777E+03
       344   9 -3.340613E+05 -4.047436E+04  1.768277E+04 -2.057059E+05 -2.785778E+04  1.008064E+04
       344  10 -9.176854E+05 -3.956817E+05 -2.002305E+05 -3.965935E+05  6.519468E-10 -2.670884E-10
       344  11 -8.818977E+05 -2.871407E+05 -1.132772E+05 -3.778092E+05 -1.319554E-09  4.069119E-11
       344  12 -8.645507E+05 -2.317974E+05 -7.253841E+04 -3.543178E+05 -1.617445E-10 -6.412187E-10
       344  13 -6.110753E+05 -2.189272E+05 -1.105303E+05 -2.489366E+05  1.397998E-09  6.241001E-10
       344  14 -5.977212E+05 -1.526655E+05 -5.278071E+04 -2.668334E+05 -3.286649E-09 -6.143062E-10
       344  15 -5.993450E+05 -1.361400E+05 -2.742799E+04 -2.800269E+05 -1.438920E-10 -1.073060E-09
       344  16 -3.043688E+05 -4.212388E+04 -2.083983E+04 -1.012037E+05 -2.521122E-10  1.379662E-10
       344  17 -3.134593E+05 -1.816620E+04  7.711458E+03 -1.558055E+05 -1.785637E-09 -1.776656E-09
       344  18 -3.340622E+05 -4.047468E+04  1.768112E+04 -2.057057E+05 -1.922184E-09  3.260835E-10
       344  19 -9.176732E+05 -3.956774E+05 -2.002074E+05 -3.965906E+05  1.054467E+05  3.426556E+04
       344  20 -8.818931E+05 -2.871396E+05 -1.132692E+05 -3.778088E+05  6.484027E+04  6.702822E+03
       344  21 -8.645502E+05 -2.317972E+05 -7.253728E+04 -3.543180E+05  2.112673E+04 -1.261136E+04
       344  22 -6.110692E+05 -2.189252E+05 -1.105191E+05 -2.489352E+05  7.400502E+04  2.246256E+04
       344  23 -5.977184E+05 -1.526648E+05 -5.277586E+04 -2.668333E+05  5.080012E+04  1.431680E+03
       344  24 -5.993443E+05 -1.361397E+05 -2.742662E+04 -2.800272E+05  2.449148E+04 -1.134629E+04
       344  25 -3.043668E+05 -4.212327E+04 -2.083621E+04 -1.012033E+05  4.254710E+04  1.064555E+04
       344  26 -3.134579E+05 -1.816582E+04  7.714026E+03 -1.558056E+05  3.675320E+04 -3.843777E+03
       344  27 -3.340613E+05 -4.047436E+04  1.768277E+04 -2.057059E+05  2.785778E+04 -1.008064E+04
       345   1 -8.315412E+05 -2.223447E+05 -5.979801E+04 -3.492310E+05 -1.780427E+04  1.248158E+04
       345   2 -7.913484E+05 -1.975771E+05 -4.119449E+04 -3.339029E+05 -9.782209E+03  1.326653E+04
       345   3 -7.478786E+05 -1.823835E+05 -2.905322E+04 -3.243592E+05 -1.413050E+03  1.312822E+04
       345   4 -5.962044E+05 -1.342389E+05 -2.035956E+04 -2.796843E+05 -2.095433E+04  1.129731E+04
       345   5 -5.976096E+05 -1.266549E+05 -1.058159E+04 -2.779132E+05 -1.487861E+04  1.135154E+04
       345   6 -5.953523E+05 -1.282582E+05 -5.720556E+03 -2.819273E+05 -8.456272E+03  1.048242E+04
       345   7 -3.608110E+05 -4.612721E+04  1.907679E+04 -2.101132E+05 -2.410562E+04  1.011254E+04
       345   8 -4.038302E+05 -5.572819E+04  2.003076E+04 -2.219069E+05 -1.997669E+04  9.435873E+03
       345   9 -4.427989E+05 -7.412969E+04  1.761250E+04 -2.394850E+05 -1.550141E+04  7.835910E+03
       345  10 -8.315416E+05 -2.223450E+05 -5.979890E+04 -3.492308E+05 -1.442525E-09 -7.160562E-11
       345  11 -7.913486E+05 -1.975773E+05 -4.119500E+04 -3.339028E+05 -1.532544E-09  4.334298E-11
       345  12 -7.478787E+05 -1.823837E+05 -2.905355E+04 -3.243592E+05 -3.351659E-10  3.266991E-11
       345  13 -5.962049E+05 -1.342391E+05 -2.036062E+04 -2.796841E+05 -8.055442E-10  1.076755E-09
       345  14 -5.976099E+05 -1.266551E+05 -1.058225E+04 -2.779131E+05 -1.094107E-09  7.849099E-10
       345  15 -5.953524E+05 -1.282583E+05 -5.720897E+03 -2.819272E+05 -1.472731E-09 -2.585341E-10
       345  16 -3.608116E+05 -4.612748E+04  1.907550E+04 -2.101130E+05  3.589251E-10  4.925182E-10
       345  17 -4.038307E+05 -5.572839E+04  2.002984E+04 -2.219067E+05 -1.826247E-09  1.173677E-09
       345  18 -4.427992E+05 -7.412982E+04  1.761194E+04 -2.394849E+05 -6.577240E-10 -2.272209E-10
       345  19 -8.315412E+05 -2.223447E+05 -5.979801E+04 -3.492310E+05  1.780427E+04 -1.248158E+04
       345  20 -7.913484E+05 -1.975771E+05 -4.119449E+04 -3.339029E+05  9.782209E+03 -1.326653E+04
       345  21 -7.478786E+05 -1.823835E+05 -2.905322E+04 -3.243592E+05  1.413050E+03 -1.312822E+04
       345  22 -5.962044E+05 -1.342389E+05 -2.035956E+04 -2.796843E+05  2.095433E+04 -1.129731E+04
       345  23 -5.976096E+05 -1.266549E+05 -1.058159E+04 -2.779132E+05  1.487861E+04 -1.135154E+04
       345  24 -5.953523E+05 -1.282582E+05 -5.720556E+03 -2.819273E+05  8.456272E+03 -1.048242E+04
       345  25 -3.608110E+05 -4.612721E+04  1.907679E+04 -2.101132E+05  2.410562E+04 -1.011254E+04
       345  26 -4.038302E+05 -5.572819E+04  2.003076E+04 -2.219069E+05  1.997669E+04 -9.435873E+03
       345  27 -4.427989E+05 -7.412969E+04  1.761250E+04 -2.394850E+05  1.550141E+04 -7.835910E+03
       346   1 -7.204094E+05 -1.728824E+05 -2.326772E+04 -3.170401E+05  7.320408E+01  1.143388E+04
       346   2 -6.802979E+05 -1.543940E+05 -1.476423E+04 -3.017797E+05  2.723489E+03  8.574101E+03
       346   3 -6.347668E+05 -1.419242E+05 -7.366574E+03 -2.930284E+05  5.412459E+03  5.610909E+03
       346   4 -5.950368E+05 -1.281555E+05 -4.278374E+03 -2.818577E+05 -6.947486E+03  8.796753E+03
       346   5 -5.977428E+05 -1.250052E+05 -2.326688E+03 -2.786633E+05 -4.515380E+03  5.855269E+03
       346   6 -5.949879E+05 -1.278303E+05 -1.307796E+03 -2.819785E+05 -2.044699E+03  2.810345E+03
       346   7 -4.696472E+05 -8.342682E+04  1.471097E+04 -2.466687E+05 -1.396967E+04  6.159070E+03
       346   8 -5.151808E+05 -9.561589E+04  1.011084E+04 -2.555440E+05 -1.175522E+04  3.136075E+03
       346   9 -5.552077E+05 -1.137365E+05  4.751057E+03 -2.709280E+05 -9.502269E+03  9.629182E+00
       346  10 -7.204094E+05 -1.728826E+05 -2.326797E+04 -3.170401E+05 -1.240968E-09 -1.056716E-09
       346  11 -6.802979E+05 -1.543941E+05 -1.476438E+04 -3.017797E+05 -1.491979E-09 -4.746152E-10
       346  12 -6.347669E+05 -1.419242E+05 -7.366688E+03 -2.930285E+05  2.322236E-09 -1.319091E-09
       346  13 -5.950369E+05 -1.281556E+05 -4.278610E+03 -2.818577E+05 -7.603070E-10 -7.689847E-10
       346  14 -5.977428E+05 -1.250053E+05 -2.326791E+03 -2.786632E+05  1.341268E-09  5.704052E-10
       346  15 -5.949880E+05 -1.278304E+05 -1.307819E+03 -2.819785E+05  8.458510E-10 -1.224421E-09
       346  16 -4.696474E+05 -8.342692E+04  1.471053E+04 -2.466686E+05  3.130598E-10  1.024689E-10
       346  17 -5.151809E+05 -9.561594E+04  1.011056E+04 -2.555440E+05 -1.273975E-09  4.924898E-12
       346  18 -5.552078E+05 -1.137365E+05  4.750887E+03 -2.709280E+05 -5.915021E-10 -1.539631E-09
       346  19 -7.204094E+05 -1.728824E+05 -2.326772E+04 -3.170401E+05 -7.320408E+01 -1.143388E+04
       346  20 -6.802979E+05 -1.543940E+05 -1.476423E+04 -3.017797E+05 -2.723489E+03 -8.574101E+03
       346  21 -6.347668E+05 -1.419242E+05 -7.366574E+03 -2.930284E+05 -5.412459E+03 -5.610909E+03
       346  22 -5.950368E+05 -1.281555E+05 -4.278374E+03 -2.818577E+05  6.947486E+03 -8.796753E+03
       346  23 -5.977428E+05 -1.250052E+05 -2.326688E+03 -2.786633E+05  4.515380E+03 -5.855269E+03
       346  24 -5.949879E+05 -1.278303E+05 -1.307796E+03 -2.819785E+05  2.044699E+03 -2.810345E+03
       346  25 -4.696472E+05 -8.342682E+04  1.471097E+04 -2.466687E+05  1.396967E+04 -6.159070E+03
       346  26 -5.151808E+05 -9.561589E+04  1.011084E+04 -2.555440E+05  1.175522E+04 -3.136075E+03
       346  27 -5.552077E+05 -1.137365E+05  4.751057E+03 -2.709280E+05  9.502269E+03 -9.629182E+00
       347   1 -6.078344E+05 -1.323456E+05 -2.867069E+03 -2.855121E+05  6.373029E+03  3.620982E+03
       347   2 -5.678157E+05 -1.142420E+05  3.810283E+03 -2.702162E+05  8.034132E+03  2.090395E+02
       347   3 -5.221324E+05 -1.018717E+05  1.023627E+04 -2.614592E+05  9.698824E+03 -3.212236E+03
       347   4 -5.949504E+05 -1.278330E+05 -1.005839E+03 -2.819637E+05 -1.081842E+03  8.213205E+02
       347   5 -5.977839E+05 -1.249707E+05 -6.277502E+02 -2.786928E+05  5.591959E+02 -2.598260E+03
       347   6 -5.949518E+05 -1.278385E+05 -4.856262E+02 -2.819619E+05  2.203794E+03 -6.027177E+03
       347   7 -5.820659E+05 -1.233201E+05  8.556738E+02 -2.784151E+05 -8.536969E+03 -1.978435E+03
       347   8 -6.277512E+05 -1.356993E+05 -5.065608E+03 -2.871690E+05 -6.915408E+03 -5.405433E+03
       347   9 -6.677654E+05 -1.538047E+05 -1.120735E+04 -3.024623E+05 -5.290312E+03 -8.841771E+03
       347  10 -6.078344E+05 -1.323457E+05 -2.867170E+03 -2.855121E+05  1.213858E-10 -2.296105E-09
       347  11 -5.678158E+05 -1.142421E+05  3.810162E+03 -2.702162E+05  8.345790E-10 -1.530687E-09
       347  12 -5.221325E+05 -1.018718E+05  1.023608E+04 -2.614591E+05  8.196231E-10 -5.554326E-10
       347  13 -5.949504E+05 -1.278330E+05 -1.005842E+03 -2.819637E+05 -6.663715E-10 -1.342374E-09
       347  14 -5.977839E+05 -1.249707E+05 -6.277635E+02 -2.786928E+05  4.763035E-10 -9.953166E-10
       347  15 -5.949518E+05 -1.278386E+05 -4.857035E+02 -2.819619E+05  8.280390E-10  5.748493E-10
       347  16 -5.820660E+05 -1.233202E+05  8.555293E+02 -2.784152E+05  5.420883E-10 -1.111843E-09
       347  17 -6.277512E+05 -1.356994E+05 -5.065753E+03 -2.871691E+05  1.006177E-09  8.775089E-11
       347  18 -6.677654E+05 -1.538048E+05 -1.120754E+04 -3.024623E+05 -1.250491E-09  1.068548E-09
       347  19 -6.078344E+05 -1.323456E+05 -2.867069E+03 -2.855121E+05 -6.373029E+03 -3.620982E+03
       347  20 -5.678157E+05 -1.142420E+05  3.810283E+03 -2.702162E+05 -8.034132E+03 -2.090395E+02
       347  21 -5.221324E+05 -1.018717E+05  1.023627E+04 -2.614592E+05 -9.698824E+03  3.212236E+03
       347  22 -5.949504E+05 -1.278330E+05 -1.005839E+03 -2.819637E+05  1.081842E+03 -8.213205E+02
       347  23 -5.977839E+05 -1.249707E+05 -6.277502E+02 -2.786928E+05 -5.591959E+02  2.598260E+03
       347  24 -5.949518E+05 -1.278385E+05 -4.856262E+02 -2.819619E+05 -2.203794E+03  6.027177E+03
       347  25 -5.820659E+05 -1.233201E+05  8.556738E+02 -2.784151E+05  8.536969E+03  1.978435E+03
       347  26 -6.277512E+05 -1.356993E+05 -5.065608E+03 -2.871690E+05  6.915408E+03  5.405433E+03
       347  27 -6.677654E+05 -1.538047E+05 -1.120735E+04 -3.024623E+05  5.290312E+03  8.841771E+03
       348   1 -4.952720E+05 -9.227432E+04  1.442305E+04 -2.539304E+05  1.055542E+04 -5.249705E+03
       348   2 -4.552777E+05 -7.418055E+04  2.058602E+04 -2.386365E+05  1.215100E+04 -8.692099E+03
       348   3 -4.096087E+05 -6.180622E+04  2.655063E+04 -2.298776E+05  1.374062E+04 -1.211772E+04
       348   4 -5.949535E+05 -1.278398E+05 -4.811216E+02 -2.819608E+05  3.061022E+03 -8.064545E+03
       348   5 -5.977888E+05 -1.249810E+05 -6.022967E+02 -2.786921E+05  4.691550E+03 -1.149421E+04
       348   6 -5.949582E+05 -1.278486E+05 -9.495640E+02 -2.819590E+05  6.316107E+03 -1.490713E+04
       348   7 -6.946228E+05 -1.634038E+05 -1.538483E+04 -3.099865E+05 -4.432011E+03 -1.087887E+04
       348   8 -7.402778E+05 -1.757792E+05 -2.179059E+04 -3.187389E+05 -2.766094E+03 -1.429564E+04
       348   9 -7.802726E+05 -1.938881E+05 -2.845052E+04 -3.340263E+05 -1.106159E+03 -1.769569E+04
       348  10 -4.952721E+05 -9.227438E+04  1.442279E+04 -2.539303E+05  1.293244E-09  1.088103E-09
       348  11 -4.552778E+05 -7.418068E+04  2.058560E+04 -2.386364E+05 -8.245621E-10  1.292036E-10
       348  12 -4.096089E+05 -6.180643E+04  2.655000E+04 -2.298775E+05  7.067261E-10 -1.264443E-10
       348  13 -5.949535E+05 -1.278399E+05 -4.812613E+02 -2.819607E+05 -1.469006E-09  1.145346E-09
       348  14 -5.977889E+05 -1.249811E+05 -6.025862E+02 -2.786920E+05 -2.575223E-09  2.085236E-09
       348  15 -5.949583E+05 -1.278488E+05 -9.500564E+02 -2.819589E+05 -2.226094E-09 -1.011137E-09
       348  16 -6.946228E+05 -1.634039E+05 -1.538509E+04 -3.099866E+05 -3.758877E-09  8.813199E-10
       348  17 -7.402779E+05 -1.757794E+05 -2.179099E+04 -3.187389E+05 -4.576735E-09  1.024551E-09
       348  18 -7.802727E+05 -1.938884E+05 -2.845111E+04 -3.340263E+05 -2.330703E-09 -1.042480E-09
       348  19 -4.952720E+05 -9.227432E+04  1.442305E+04 -2.539304E+05 -1.055542E+04  5.249705E+03
       348  20 -4.552777E+05 -7.418055E+04  2.058602E+04 -2.386365E+05 -1.215100E+04  8.692099E+03
       348  21 -4.096087E+05 -6.180622E+04  2.655063E+04 -2.298776E+05 -1.374062E+04  1.211772E+04
       348  22 -5.949535E+05 -1.278398E+05 -4.811216E+02 -2.819608E+05 -3.061022E+03  8.064545E+03
       348  23 -5.977888E+05 -1.249810E+05 -6.022967E+02 -2.786921E+05 -4.691550E+03  1.149421E+04
       348  24 -5.949582E+05 -1.278486E+05 -9.495640E+02 -2.819590E+05 -6.316107E+03  1.490713E+04
       348  25 -6.946228E+05 -1.634038E+05 -1.538483E+04 -3.099865E+05  4.432011E+03  1.087887E+04
       348  26 -7.402778E+05 -1.757792E+05 -2.179059E+04 -3.187389E+05  2.766094E+03  1.429564E+04
       348  27 -7.802726E+05 -1.938881E+05 -2.845052E+04 -3.340263E+05  1.106159E+03  1.769569E+04
       349   1 -3.827750E+05 -5.222578E+04  3.047187E+04 -2.223862E+05  1.469203E+04 -1.410275E+04
       349   2 -3.428193E+05 -3.412247E+04  3.594374E+04 -2.070238E+05  1.675234E+04 -1.725518E+04
       349   3 -2.973287E+05 -2.190351E+04  4.079820E+04 -1.981572E+05  1.875564E+04 -2.025423E+04
       349   4 -5.949975E+05 -1.278479E+05 -1.230158E+03 -2.819704E+05  7.265701E+03 -1.689318E+04
       349   5 -5.977592E+05 -1.250325E+05 -2.181155E+03 -2.786643E+05  9.649008E+03 -1.992498E+04
       349   6 -5.950518E+05 -1.281660E+05 -4.005920E+03 -2.818551E+05  1.197522E+04 -2.280337E+04
       349   7 -8.071709E+05 -2.034651E+05 -3.293243E+04 -3.415352E+05 -1.579442E+02 -1.968260E+04
       349   8 -8.526267E+05 -2.159349E+05 -4.030611E+04 -3.502765E+05  2.548800E+03 -2.259360E+04
       349   9 -8.926749E+05 -2.344174E+05 -4.880988E+04 -3.655140E+05  5.198322E+03 -2.535119E+04
       349  10 -3.827753E+05 -5.222605E+04  3.047109E+04 -2.223861E+05 -1.171173E-09 -2.177150E-09
       349  11 -3.428197E+05 -3.412286E+04  3.594265E+04 -2.070235E+05 -3.050199E-09 -7.066490E-10
       349  12 -2.973292E+05 -2.190405E+04  4.079677E+04 -1.981569E+05 -6.077085E-10 -8.901171E-10
       349  13 -5.949976E+05 -1.278482E+05 -1.230793E+03 -2.819703E+05 -9.404330E-11 -1.252126E-09
       349  14 -5.977594E+05 -1.250330E+05 -2.182076E+03 -2.786641E+05 -1.309986E-09 -6.395025E-10
       349  15 -5.950521E+05 -1.281665E+05 -4.007166E+03 -2.818548E+05 -5.411171E-10 -1.313968E-09
       349  16 -8.071710E+05 -2.034656E+05 -3.293316E+04 -3.415352E+05 -6.320486E-10 -8.394143E-10
       349  17 -8.526268E+05 -2.159354E+05 -4.030709E+04 -3.502765E+05  9.458970E-10 -1.058823E-09
       349  18 -8.926751E+05 -2.344181E+05 -4.881113E+04 -3.655139E+05  1.245065E-09 -2.908091E-10
       349  19 -3.827750E+05 -5.222578E+04  3.047187E+04 -2.223862E+05 -1.469203E+04  1.410275E+04
       349  20 -3.428193E+05 -3.412247E+04  3.594374E+04 -2.070238E+05 -1.675234E+04  1.725518E+04
       349  21 -2.973287E+05 -2.190351E+04  4.079820E+04 -1.981572E+05 -1.875564E+04  2.025423E+04
       349  22 -5.949975E+05 -1.278479E+05 -1.230158E+03 -2.819704E+05 -7.265701E+03  1.689318E+04
       349  23 -5.977592E+05 -1.250325E+05 -2.181155E+03 -2.786643E+05 -9.649008E+03  1.992498E+04
       349  24 -5.950518E+05 -1.281660E+05 -4.005920E+03 -2.818551E+05 -1.197522E+04  2.280337E+04
       349  25 -8.071709E+05 -2.034651E+05 -3.293243E+04 -3.415352E+05  1.579442E+02  1.968260E+04
       349  26 -8.526267E+05 -2.159349E+05 -4.030611E+04 -3.502765E+05 -2.548800E+03  2.259360E+04
       349  27 -8.926749E+05 -2.344174E+05 -4.880988E+04 -3.655140E+05 -5.198322E+03  2.535119E+04
       350   1 -2.705053E+05 -1.256677E+04  4.386466E+04 -1.909418E+05  2.022992E+04 -2.189608E+04
       350   2 -2.316410E+05  5.831562E+03  4.706170E+04 -1.736086E+05  2.331823E+04 -2.364101E+04
       350   3 -1.884466E+05  1.588361E+04  4.793576E+04 -1.620523E+05  2.589615E+04 -2.402615E+04
       350   4 -5.953529E+05 -1.282571E+05 -5.353848E+03 -2.819097E+05  1.341721E+04 -2.445784E+04
       350   5 -5.976354E+05 -1.266019E+05 -9.902367E+03 -2.779702E+05  1.937369E+04 -2.512572E+04
       350   6 -5.961600E+05 -1.338640E+05 -1.904980E+04 -2.798093E+05  2.481949E+04 -2.443340E+04
       350   7 -9.200903E+05 -2.439378E+05 -5.457470E+04 -3.728339E+05  6.608179E+03 -2.701822E+04
       350   8 -9.634875E+05 -2.590214E+05 -6.686919E+04 -3.822742E+05  1.543159E+04 -2.660950E+04
       350   9 -1.003695E+06 -2.835926E+05 -8.603913E+04 -3.974929E+05  2.374357E+04 -2.484036E+04
       350  10 -2.705058E+05 -1.256740E+04  4.386299E+04 -1.909414E+05 -1.596498E-09 -9.324644E-10
       350  11 -2.316417E+05  5.830816E+03  4.705963E+04 -1.736081E+05  3.524850E-09  7.877367E-10
       350  12 -1.884475E+05  1.588281E+04  4.793341E+04 -1.620518E+05  2.514475E-10 -5.941950E-10
       350  13 -5.953533E+05 -1.282578E+05 -5.355310E+03 -2.819094E+05  1.176055E-09 -5.575903E-10
       350  14 -5.976360E+05 -1.266027E+05 -9.904259E+03 -2.779698E+05 -6.345902E-10  3.584436E-10
       350  15 -5.961608E+05 -1.338648E+05 -1.905208E+04 -2.798088E+05  6.543944E-10  9.454243E-11
       350  16 -9.200906E+05 -2.439386E+05 -5.457615E+04 -3.728338E+05  3.035861E-09  1.353194E-10
       350  17 -9.634880E+05 -2.590222E+05 -6.687096E+04 -3.822739E+05 -1.633566E-09  1.809977E-09
       350  18 -1.003696E+06 -2.835935E+05 -8.604135E+04 -3.974924E+05 -1.530978E-09 -1.075388E-09
       350  19 -2.705053E+05 -1.256677E+04  4.386466E+04 -1.909418E+05 -2.022992E+04  2.189608E+04
       350  20 -2.316410E+05  5.831562E+03  4.706170E+04 -1.736086E+05 -2.331823E+04  2.364101E+04
       350  21 -1.884466E+05  1.588361E+04  4.793576E+04 -1.620523E+05 -2.589615E+04  2.402615E+04
       350  22 -5.953529E+05 -1.282571E+05 -5.353848E+03 -2.819097E+05 -1.341721E+04  2.445784E+04
       350  23 -5.976354E+05 -1.266019E+05 -9.902367E+03 -2.779702E+05 -1.937369E+04  2.512572E+04
       350  24 -5.961600E+05 -1.338640E+05 -1.904980E+04 -2.798093E+05 -2.481949E+04  2.443340E+04
       350  25 -9.200903E+05 -2.439378E+05 -5.457470E+04 -3.728339E+05 -6.608179E+03  2.701822E+04
       350  26 -9.634875E+05 -2.590214E+05 -6.686919E+04 -3.822742E+05 -1.543159E+04  2.660950E+04
       350  27 -1.003695E+06 -2.835926E+05 -8.603913E+04 -3.974929E+05 -2.374357E+04  2.484036E+04
       351   1 -1.615147E+05  2.206096E+04  4.769385E+04 -1.573577E+05  2.939618E+04 -2.361783E+04
       351   2 -1.403710E+05  4.453094E+04  4.364838E+04 -1.104342E+05  2.722484E+04 -1.824789E+04
       351   3 -1.280508E+05  2.550509E+04  2.963423E+04 -5.919678E+04  2.048361E+04 -7.316366E+02
       351   4 -5.991515E+05 -1.355912E+05 -2.566101E+04 -2.800684E+05  2.800336E+04 -2.414410E+04
       351   5 -5.976874E+05 -1.510085E+05 -4.938026E+04 -2.676781E+05  5.147296E+04 -9.132673E+03
       351   6 -6.101448E+05 -2.130273E+05 -1.034062E+05 -2.509733E+05  7.037000E+04  1.802921E+04
       351   7 -1.036583E+06 -2.932237E+05 -9.902044E+04 -4.026978E+05  2.661158E+04 -2.466997E+04
       351   8 -1.054773E+06 -3.465012E+05 -1.424136E+05 -4.248031E+05  7.570155E+04 -2.765793E+01
       351   9 -1.091979E+06 -4.514776E+05 -2.364511E+05 -4.425893E+05  1.202125E+05  3.676179E+04
       351  10 -1.615158E+05  2.206013E+04  4.769118E+04 -1.573571E+05 -1.341179E-09 -1.224142E-09
       351  11 -1.403719E+05  4.453039E+04  4.364636E+04 -1.104338E+05  4.199125E-10 -1.630065E-09
       351  12 -1.280513E+05  2.550497E+04  2.963344E+04 -5.919676E+04 -9.694239E-10 -6.435227E-10
       351  13 -5.991525E+05 -1.355921E+05 -2.566358E+04 -2.800679E+05  8.840543E-10 -1.408789E-09
       351  14 -5.976903E+05 -1.510093E+05 -4.938540E+04 -2.676777E+05  9.496571E-10  1.121877E-09
       351  15 -6.101503E+05 -2.130290E+05 -1.034161E+05 -2.509744E+05 -5.849127E-10  1.572389E-09
       351  16 -1.036584E+06 -2.932245E+05 -9.902291E+04 -4.026973E+05  1.346011E-09  1.282554E-10
       351  17 -1.054779E+06 -3.465028E+05 -1.424244E+05 -4.248031E+05  2.383516E-09 -3.980602E-10
       351  18 -1.091995E+06 -4.514830E+05 -2.364808E+05 -4.425928E+05 -3.333551E-10  9.527565E-10
       351  19 -1.615147E+05  2.206096E+04  4.769385E+04 -1.573577E+05 -2.939618E+04  2.361783E+04
       351  20 -1.403710E+05  4.453094E+04  4.364838E+04 -1.104342E+05 -2.722484E+04  1.824789E+04
       351  21 -1.280508E+05  2.550509E+04  2.963423E+04 -5.919678E+04 -2.048361E+04  7.316366E+02
       351  22 -5.991515E+05 -1.355912E+05 -2.566101E+04 -2.800684E+05 -2.800336E+04  2.414410E+04
       351  23 -5.976874E+05 -1.510085E+05 -4.938026E+04 -2.676781E+05 -5.147296E+04  9.132673E+03
       351  24 -6.101448E+05 -2.130273E+05 -1.034062E+05 -2.509733E+05 -7.037000E+04 -1.802921E+04
       351  25 -1.036583E+06 -2.932237E+05 -9.902044E+04 -4.026978E+05 -2.661158E+04  2.466997E+04
       351  26 -1.054773E+06 -3.465012E+05 -1.424136E+05 -4.248031E+05 -7.570155E+04  2.765793E+01
       351  27 -1.091979E+06 -4.514776E+05 -2.364511E+05 -4.425893E+05 -1.202125E+05 -3.676179E+04
       352   1 -2.859462E+05 -5.415059E+04 -9.013131E+04 -3.155206E+04 -1.100148E+05 -3.152422E+03
       352   2 -2.798437E+05  9.342232E+04 -1.992262E+03 -9.578739E+03 -7.365578E+04 -9.293874E+03
       352   3 -3.196161E+05  7.614391E+04  2.128362E+04  2.543636E+04 -3.730611E+04 -8.734500E+03
       352   4 -5.992518E+05 -1.322291E+05 -1.675262E+05  8.205941E+03 -1.145446E+05 -3.164231E+03
       352   5 -5.760050E+05  1.995763E+04 -7.318497E+04  1.609518E+03 -7.498949E+04 -9.297126E+03
       352   6 -5.992129E+05  6.692314E+03 -4.595092E+04  8.055365E+03 -3.544251E+04 -8.731132E+03
       352   7 -9.124646E+05 -2.103089E+05 -2.449275E+05  4.794382E+04 -1.190721E+05 -3.176625E+03
       352   8 -8.720856E+05 -5.351296E+04 -1.443838E+05  1.279239E+04 -7.632255E+04 -9.300428E+03
       352   9 -8.787374E+05 -6.276386E+04 -1.131909E+05 -9.317793E+03 -3.357975E+04 -8.727868E+03
       352  10 -2.859592E+05 -5.415385E+04 -9.015408E+04 -3.155234E+04 -1.371667E-10  1.947960E-10
       352  11 -2.798495E+05  9.342077E+04 -2.002624E+03 -9.579290E+03  2.237535E-09 -9.287194E-10
       352  12 -3.196176E+05  7.614345E+04  2.128086E+04  2.543610E+04 -6.266161E-10 -1.685231E-09
       352  13 -5.992659E+05 -1.322326E+05 -1.675509E+05  8.205649E+03 -7.340146E-10  1.223509E-09
       352  14 -5.760110E+05  1.995603E+04 -7.319571E+04  1.608957E+03 -3.874620E-09  3.005198E-10
       352  15 -5.992143E+05  6.691895E+03 -4.595343E+04  8.055116E+03  1.205011E-09  8.009636E-10
       352  16 -9.124798E+05 -2.103127E+05 -2.449542E+05  4.794352E+04 -8.224140E-10  1.051049E-09
       352  17 -8.720919E+05 -5.351462E+04 -1.443950E+05  1.279182E+04  4.492518E-10 -1.834589E-09
       352  18 -8.787387E+05 -6.276424E+04 -1.131931E+05 -9.318030E+03 -3.147497E-10 -3.389500E-09
       352  19 -2.859462E+05 -5.415059E+04 -9.013131E+04 -3.155206E+04  1.100148E+05  3.152422E+03
       352  20 -2.798437E+05  9.342232E+04 -1.992262E+03 -9.578739E+03  7.365578E+04  9.293874E+03
       352  21 -3.196161E+05  7.614391E+04  2.128362E+04  2.543636E+04  3.730611E+04  8.734500E+03
       352  22 -5.992518E+05 -1.322291E+05 -1.675262E+05  8.205941E+03  1.145446E+05  3.164231E+03
       352  23 -5.760050E+05  1.995763E+04 -7.318497E+04  1.609518E+03  7.498949E+04  9.297126E+03
       352  24 -5.992129E+05  6.692314E+03 -4.595092E+04  8.055365E+03  3.544251E+04  8.731132E+03
       352  25 -9.124646E+05 -2.103089E+05 -2.449275E+05  4.794382E+04  1.190721E+05  3.176625E+03
       352  26 -8.720856E+05 -5.351296E+04 -1.443838E+05  1.279239E+04  7.632255E+04  9.300428E+03
       352  27 -8.787374E+05 -6.276386E+04 -1.131909E+05 -9.317793E+03  3.357975E+04  8.727868E+03
       353   1 -3.349664E+05  4.899406E+04  2.399910E+04  4.603529E+03 -2.822449E+04 -7.371584E+03
       353   2 -3.495504E+05  6.123918E+04  3.821295E+04  7.165055E+02 -1.872220E+04 -7.208305E+03
       353   3 -3.698654E+05  5.545444E+04  4.173442E+04  1.050850E+04 -9.221129E+03 -6.504561E+03
       353   4 -5.901793E+05 -1.436929E+04 -3.754381E+04  8.262253E+03 -2.827470E+04 -7.372037E+03
       353   5 -5.872865E+05  2.226992E+03 -1.900813E+04  1.410885E+03 -1.851673E+04 -7.208180E+03
       353   6 -5.901716E+05  7.450909E+02 -1.134562E+04  8.238906E+03 -8.759709E+03 -6.503856E+03
       353   7 -8.453325E+05 -7.773735E+04 -9.909137E+04  1.191944E+04 -2.832489E+04 -7.372490E+03
       353   8 -8.249708E+05 -5.678932E+04 -7.623325E+04  2.104976E+03 -1.831134E+04 -7.208054E+03
       353   9 -8.104334E+05 -5.396778E+04 -6.442912E+04  5.970103E+03 -8.298452E+03 -6.503154E+03
       353  10 -3.349673E+05  4.899379E+04  2.399750E+04  4.603361E+03 -2.624126E-09 -3.421200E-09
       353  11 -3.495508E+05  6.123903E+04  3.821220E+04  7.163968E+02 -1.609856E-09  6.854300E-10
       353  12 -3.698655E+05  5.545437E+04  4.173418E+04  1.050845E+04 -4.261760E-09  3.463023E-09
       353  13 -5.901802E+05 -1.436956E+04 -3.754542E+04  8.262085E+03 -3.000918E-10 -2.818487E-09
       353  14 -5.872869E+05  2.226844E+03 -1.900888E+04  1.410778E+03  7.331884E-10 -8.156426E-10
       353  15 -5.901717E+05  7.450248E+02 -1.134584E+04  8.238860E+03  3.640631E-09 -5.271426E-10
       353  16 -8.453334E+05 -7.773762E+04 -9.909298E+04  1.191928E+04  2.558612E-09 -1.055559E-09
       353  17 -8.249712E+05 -5.678947E+04 -7.623398E+04  2.104870E+03  2.063177E-09  5.043406E-11
       353  18 -8.104335E+05 -5.396784E+04 -6.442933E+04  5.970059E+03  4.596801E-09  1.812212E-09
       353  19 -3.349664E+05  4.899406E+04  2.399910E+04  4.603529E+03  2.822449E+04  7.371584E+03
       353  20 -3.495504E+05  6.123918E+04  3.821295E+04  7.165055E+02  1.872220E+04  7.208305E+03
       353  21 -3.698654E+05  5.545444E+04  4.173442E+04  1.050850E+04  9.221129E+03  6.504561E+03
       353  22 -5.901793E+05 -1.436929E+04 -3.754381E+04  8.262253E+03  2.827470E+04  7.372037E+03
       353  23 -5.872865E+05  2.226992E+03 -1.900813E+04  1.410885E+03  1.851673E+04  7.208180E+03
       353  24 -5.901716E+05  7.450909E+02 -1.134562E+04  8.238906E+03  8.759709E+03  6.503856E+03
       353  25 -8.453325E+05 -7.773735E+04 -9.909137E+04  1.191944E+04  2.832489E+04  7.372490E+03
       353  26 -8.249708E+05 -5.678932E+04 -7.623325E+04  2.104976E+03  1.831134E+04  7.208054E+03
       353  27 -8.104334E+05 -5.396778E+04 -6.442912E+04  5.970103E+03  8.298452E+03  6.503154E+03
       354   1 -3.940666E+05  4.688446E+04  3.799748E+04  8.296705E+03 -7.280515E+03 -6.013799E+03
       354   2 -4.116562E+05  4.419673E+04  3.774375E+04  1.506659E+03 -4.862640E+03 -5.338098E+03
       354   3 -4.300697E+05  3.959528E+04  3.543017E+04  8.831040E+03 -2.445202E+03 -4.612165E+03
       354   4 -5.890697E+05 -1.516653E+03 -8.904443E+03  8.345272E+03 -6.969096E+03 -6.013345E+03
       354   5 -5.886542E+05  2.555858E+02 -4.865027E+03  1.286376E+03 -4.527816E+03 -5.337536E+03
       354   6 -5.890674E+05  1.096899E+02 -2.902186E+03  8.342166E+03 -2.086903E+03 -4.611491E+03
       354   7 -7.840379E+05 -4.992054E+04 -5.580908E+04  8.393806E+03 -6.657775E+03 -6.012891E+03
       354   8 -7.656236E+05 -4.368784E+04 -4.747604E+04  1.066142E+03 -4.193087E+03 -5.336976E+03
       354   9 -7.480419E+05 -3.937774E+04 -4.123635E+04  7.853405E+03 -1.728695E+03 -4.610819E+03
       354  10 -3.940666E+05  4.688441E+04  3.799732E+04  8.296670E+03 -5.518777E-09  4.374256E-09
       354  11 -4.116562E+05  4.419669E+04  3.774365E+04  1.506638E+03  1.550343E-09  1.321769E-09
       354  12 -4.300697E+05  3.959525E+04  3.543012E+04  8.831031E+03  4.213179E-09 -1.925131E-10
       354  13 -5.890697E+05 -1.516705E+03 -8.904603E+03  8.345238E+03  1.397028E-09 -5.012726E-10
       354  14 -5.886543E+05  2.555497E+02 -4.865119E+03  1.286356E+03 -1.613471E-09  1.563530E-09
       354  15 -5.890674E+05  1.096659E+02 -2.902234E+03  8.342158E+03 -3.445070E-10  4.920981E-09
       354  16 -7.840380E+05 -4.992059E+04 -5.580923E+04  8.393774E+03  5.464604E-09  2.909853E-09
       354  17 -7.656236E+05 -4.368788E+04 -4.747612E+04  1.066124E+03  1.201841E-09  2.861018E-09
       354  18 -7.480419E+05 -3.937777E+04 -4.123640E+04  7.853398E+03 -4.138254E-09  3.008237E-09
       354  19 -3.940666E+05  4.688446E+04  3.799748E+04  8.296705E+03  7.280515E+03  6.013799E+03
       354  20 -4.116562E+05  4.419673E+04  3.774375E+04  1.506659E+03  4.862640E+03  5.338098E+03
       354  21 -4.300697E+05  3.959528E+04  3.543017E+04  8.831040E+03  2.445202E+03  4.612165E+03
       354  22 -5.890697E+05 -1.516653E+03 -8.904443E+03  8.345272E+03  6.969096E+03  6.013345E+03
       354  23 -5.886542E+05  2.555858E+02 -4.865027E+03  1.286376E+03  4.527816E+03  5.337536E+03
       354  24 -5.890674E+05  1.096899E+02 -2.902186E+03  8.342166E+03  2.086903E+03  4.611491E+03
       354  25 -7.840379E+05 -4.992054E+04 -5.580908E+04  8.393806E+03  6.657775E+03  6.012891E+03
       354  26 -7.656236E+05 -4.368784E+04 -4.747604E+04  1.066142E+03  4.193087E+03  5.336976E+03
       354  27 -7.480419E+05 -3.937774E+04 -4.123635E+04  7.853405E+03  1.728695E+03  4.610819E+03
       355   1 -4.559148E+05  3.288588E+04  2.967834E+04  8.614459E+03 -1.969791E+03 -4.181735E+03
       355   2 -4.742126E+05  2.849375E+04  2.615364E+04  1.398476E+03 -1.260359E+03 -3.452247E+03
       355   3 -4.927069E+05  2.393652E+04  2.211208E+04  8.604767E+03 -5.511638E+02 -2.714201E+03
       355   4 -5.889251E+05 -1.252225E+02 -2.288016E+03  8.411795E+03 -1.622384E+03 -4.181048E+03
       355   5 -5.888257E+05  3.871482E+01 -1.438597E+03  1.200399E+03 -9.089891E+02 -3.451511E+03
       355   6 -5.889242E+05  3.678528E+01 -1.108931E+03  8.411444E+03 -1.958088E+02 -2.713414E+03
       355   7 -7.219192E+05 -3.313762E+04 -3.425563E+04  8.209165E+03 -1.275052E+03 -4.180361E+03
       355   8 -7.034268E+05 -2.841728E+04 -2.903177E+04  1.002353E+03 -5.576836E+02 -3.450776E+03
       355   9 -6.851329E+05 -2.386363E+04 -2.433060E+04  8.218145E+03  1.594913E+02 -2.712628E+03
       355  10 -4.559148E+05  3.288586E+04  2.967830E+04  8.614452E+03  3.415651E-09  2.031090E-10
       355  11 -4.742126E+05  2.849374E+04  2.615361E+04  1.398472E+03 -3.788920E-11  5.718290E-09
       355  12 -4.927069E+05  2.393651E+04  2.211206E+04  8.604766E+03 -3.540931E-09  6.168247E-09
       355  13 -5.889251E+05 -1.252420E+02 -2.288054E+03  8.411789E+03  6.508941E-11  2.208982E-09
       355  14 -5.888257E+05  3.870181E+01 -1.438621E+03  1.200397E+03 -2.690536E-09  3.686612E-09
       355  15 -5.889242E+05  3.677736E+01 -1.108945E+03  8.411443E+03 -9.279378E-10  1.457438E-09
       355  16 -7.219192E+05 -3.313764E+04 -3.425567E+04  8.209161E+03 -3.891053E-09  2.350483E-09
       355  17 -7.034268E+05 -2.841729E+04 -2.903179E+04  1.002351E+03  2.110651E-09 -4.300786E-10
       355  18 -6.851329E+05 -2.386363E+04 -2.433061E+04  8.218146E+03  3.632948E-09 -8.626592E-11
       355  19 -4.559148E+05  3.288588E+04  2.967834E+04  8.614459E+03  1.969791E+03  4.181735E+03
       355  20 -4.742126E+05  2.849375E+04  2.615364E+04  1.398476E+03  1.260359E+03  3.452247E+03
       355  21 -4.927069E+05  2.393652E+04  2.211208E+04  8.604767E+03  5.511638E+02  2.714201E+03
       355  22 -5.889251E+05 -1.252225E+02 -2.288016E+03  8.411795E+03  1.622384E+03  4.181048E+03
       355  23 -5.888257E+05  3.871482E+01 -1.438597E+03  1.200399E+03  9.089891E+02  3.451511E+03
       355  24 -5.889242E+05  3.678528E+01 -1.108931E+03  8.411444E+03  1.958088E+02  2.713414E+03
       355  25 -7.219192E+05 -3.313762E+04 -3.425563E+04  8.209165E+03  1.275052E+03  4.180361E+03
       355  26 -7.034268E+05 -2.841728E+04 -2.903177E+04  1.002353E+03  5.576836E+02  3.450776E+03
       355  27 -6.851329E+05 -2.386363E+04 -2.433060E+04  8.218145E+03 -1.594913E+02  2.712628E+03
       356   1 -5.191351E+05  1.734590E+04  1.566999E+04  8.553506E+03 -3.553826E+02 -2.282243E+03
       356   2 -5.376580E+05  1.273962E+04  1.107437E+04  1.236495E+03  2.607591E+02 -1.539269E+03
       356   3 -5.563739E+05  8.011730E+03  6.029337E+03  8.520466E+03  8.768050E+02 -7.953346E+02
       356   4 -5.889219E+05  3.085459E+01 -1.074523E+03  8.451167E+03  1.022966E-01 -2.281434E+03
       356   5 -5.888252E+05  3.582844E+01 -1.244265E+03  1.150773E+03  6.166548E+02 -1.538442E+03
       356   6 -5.889217E+05 -8.078749E+01 -1.863638E+03  8.451434E+03  1.233130E+03 -7.944868E+02
       356   7 -6.587042E+05 -1.728455E+04 -1.781938E+04  8.348838E+03  3.555473E+02 -2.280626E+03
       356   8 -6.399901E+05 -1.266815E+04 -1.356309E+04  1.065056E+03  9.725211E+02 -1.537614E+03
       356   9 -6.214685E+05 -8.173382E+03 -9.756690E+03  8.382406E+03  1.589436E+03 -7.936390E+02
       356  10 -5.191351E+05  1.734590E+04  1.566998E+04  8.553505E+03  2.042438E-09  2.836028E-09
       356  11 -5.376580E+05  1.273962E+04  1.107437E+04  1.236495E+03  2.205270E-09  4.520721E-10
       356  12 -5.563739E+05  8.011729E+03  6.029335E+03  8.520466E+03 -3.593819E-09 -1.490816E-09
       356  13 -5.889219E+05  3.084900E+01 -1.074533E+03  8.451167E+03  1.888267E-09  8.361493E-09
       356  14 -5.888252E+05  3.582580E+01 -1.244270E+03  1.150774E+03 -4.161458E-09  1.225229E-09
       356  15 -5.889217E+05 -8.078857E+01 -1.863642E+03  8.451435E+03  4.415671E-10 -3.861873E-09
       356  16 -6.587042E+05 -1.728455E+04 -1.781939E+04  8.348839E+03 -1.762164E-09  4.282521E-09
       356  17 -6.399901E+05 -1.266816E+04 -1.356309E+04  1.065058E+03  4.908820E-10 -6.770487E-10
       356  18 -6.214685E+05 -8.173384E+03 -9.756696E+03  8.382407E+03  3.126279E-09 -3.606951E-09
       356  19 -5.191351E+05  1.734590E+04  1.566999E+04  8.553506E+03  3.553826E+02  2.282243E+03
       356  20 -5.376580E+05  1.273962E+04  1.107437E+04  1.236495E+03 -2.607591E+02  1.539269E+03
       356  21 -5.563739E+05  8.011730E+03  6.029337E+03  8.520466E+03 -8.768050E+02  7.953346E+02
       356  22 -5.889219E+05  3.085459E+01 -1.074523E+03  8.451167E+03 -1.022966E-01  2.281434E+03
       356  23 -5.888252E+05  3.582844E+01 -1.244265E+03  1.150773E+03 -6.166548E+02  1.538442E+03
       356  24 -5.889217E+05 -8.078749E+01 -1.863638E+03  8.451434E+03 -1.233130E+03  7.944868E+02
       356  25 -6.587042E+05 -1.728455E+04 -1.781938E+04  8.348838E+03 -3.555473E+02  2.280626E+03
       356  26 -6.399901E+05 -1.266815E+04 -1.356309E+04  1.065056E+03 -9.725211E+02  1.537614E+03
       356  27 -6.214685E+05 -8.173382E+03 -9.756690E+03  8.382406E+03 -1.589436E+03  7.936390E+02
       357   1 -5.831146E+05  1.559099E+03 -9.634300E+02  8.284092E+03  1.245881E+03 -3.572432E+02
       357   2 -6.014315E+05 -2.955962E+03 -6.918575E+03  1.150104E+03  3.187464E+03  3.922798E+02
       357   3 -6.204598E+05 -8.958417E+03 -1.452909E+04  8.659002E+03  5.129060E+03  1.119377E+03
       357   4 -5.890362E+05  1.013355E+02 -2.332003E+03  8.459576E+03  1.608558E+03 -3.563748E+02
       357   5 -5.886818E+05  2.094065E+02 -3.849266E+03  1.139648E+03  3.539420E+03  3.931168E+02
       357   6 -5.890372E+05 -1.167994E+03 -7.014367E+03  8.462594E+03  5.470351E+03  1.120183E+03
       357   7 -5.949577E+05 -1.356430E+03 -3.700577E+03  8.635058E+03  1.971232E+03 -3.555062E+02
       357   8 -5.759319E+05  3.374763E+03 -7.799677E+02  1.129192E+03  3.891383E+03  3.939538E+02
       357   9 -5.576137E+05  6.622358E+03  5.002872E+02  8.266175E+03  5.811660E+03  1.120988E+03
       357  10 -5.831146E+05  1.559098E+03 -9.634331E+02  8.284092E+03 -7.755316E-09  1.075783E-09
       357  11 -6.014315E+05 -2.955965E+03 -6.918594E+03  1.150103E+03 -1.984027E-09 -1.598745E-09
       357  12 -6.204599E+05 -8.958425E+03 -1.452914E+04  8.658997E+03  3.538749E-09  2.810534E-10
       357  13 -5.890362E+05  1.013347E+02 -2.332008E+03  8.459576E+03  1.221773E-09 -1.805213E-09
       357  14 -5.886818E+05  2.094030E+02 -3.849290E+03  1.139647E+03 -1.832025E-09 -2.703272E-09
       357  15 -5.890372E+05 -1.168003E+03 -7.014425E+03  8.462589E+03 -1.112457E-09  1.713674E-09
       357  16 -5.949577E+05 -1.356431E+03 -3.700585E+03  8.635058E+03  7.550638E-09 -5.415251E-11
       357  17 -5.759319E+05  3.374759E+03 -7.799964E+02  1.129191E+03  2.907034E-12 -6.731476E-09
       357  18 -5.576137E+05  6.622348E+03  5.002214E+02  8.266169E+03 -4.235748E-09  9.478655E-10
       357  19 -5.831146E+05  1.559099E+03 -9.634300E+02  8.284092E+03 -1.245881E+03  3.572432E+02
       357  20 -6.014315E+05 -2.955962E+03 -6.918575E+03  1.150104E+03 -3.187464E+03 -3.922798E+02
       357  21 -6.204598E+05 -8.958417E+03 -1.452909E+04  8.659002E+03 -5.129060E+03 -1.119377E+03
       357  22 -5.890362E+05  1.013355E+02 -2.332003E+03  8.459576E+03 -1.608558E+03  3.563748E+02
       357  23 -5.886818E+05  2.094065E+02 -3.849266E+03  1.139648E+03 -3.539420E+03 -3.931168E+02
       357  24 -5.890372E+05 -1.167994E+03 -7.014367E+03  8.462594E+03 -5.470351E+03 -1.120183E+03
       357  25 -5.949577E+05 -1.356430E+03 -3.700577E+03  8.635058E+03 -1.971232E+03  3.555062E+02
       357  26 -5.759319E+05  3.374763E+03 -7.799677E+02  1.129192E+03 -3.891383E+03 -3.939538E+02
       357  27 -5.576137E+05  6.622358E+03  5.002872E+02  8.266175E+03 -5.811660E+03 -1.120988E+03
       358   1 -6.478990E+05 -1.381085E+04 -2.294644E+04  6.782419E+03  6.459586E+03  1.595306E+03
       358   2 -6.641408E+05 -1.723781E+04 -3.336554E+04  1.808908E+03  1.426256E+04  2.348918E+03
       358   3 -6.850282E+05 -3.486991E+04 -5.243629E+04  1.139712E+04  2.206589E+04  2.821354E+03
       358   4 -5.899066E+05  6.079513E+02 -8.930136E+03  8.433967E+03  6.880179E+03  1.596306E+03
       358   5 -5.875983E+05  1.762367E+03 -1.494093E+04  1.166621E+03  1.454912E+04  2.349543E+03
       358   6 -5.899120E+05 -1.126408E+04 -2.950940E+04  8.460985E+03  2.221866E+04  2.821562E+03
       358   7 -5.319110E+05  1.502651E+04  5.085923E+03  1.008567E+04  7.300812E+03  1.597307E+03
       358   8 -5.110503E+05  2.076212E+04  3.483261E+03  5.242513E+02  1.483573E+04  2.350167E+03
       358   9 -4.947876E+05  1.234113E+04 -6.583140E+03  5.524395E+03  2.237146E+04  2.821768E+03
       358  10 -6.478990E+05 -1.381086E+04 -2.294652E+04  6.782411E+03 -2.693315E-09  5.875848E-09
       358  11 -6.641411E+05 -1.723788E+04 -3.336593E+04  1.808881E+03 -3.323368E-09  3.643170E-09
       358  12 -6.850287E+05 -3.487005E+04 -5.243722E+04  1.139707E+04 -3.066323E-09  3.698425E-09
       358  13 -5.899066E+05  6.079359E+02 -8.930230E+03  8.433958E+03  1.853496E-10  3.013690E-09
       358  14 -5.875985E+05  1.762304E+03 -1.494134E+04  1.166594E+03 -2.857655E-09  3.439634E-09
       358  15 -5.899126E+05 -1.126422E+04 -2.951034E+04  8.460935E+03  5.108140E-11 -7.935185E-10
       358  16 -5.319111E+05  1.502650E+04  5.085818E+03  1.008566E+04  8.376921E-10  2.569820E-09
       358  17 -5.110506E+05  2.076206E+04  3.482836E+03  5.242232E+02  2.776664E-09 -2.156855E-09
       358  18 -4.947881E+05  1.234098E+04 -6.584096E+03  5.524344E+03  1.592115E-09 -5.651895E-09
       358  19 -6.478990E+05 -1.381085E+04 -2.294644E+04  6.782419E+03 -6.459586E+03 -1.595306E+03
       358  20 -6.641408E+05 -1.723781E+04 -3.336554E+04  1.808908E+03 -1.426256E+04 -2.348918E+03
       358  21 -6.850282E+05 -3.486991E+04 -5.243629E+04  1.139712E+04 -2.206589E+04 -2.821354E+03
       358  22 -5.899066E+05  6.079513E+02 -8.930136E+03  8.433967E+03 -6.880179E+03 -1.596306E+03
       358  23 -5.875983E+05  1.762367E+03 -1.494093E+04  1.166621E+03 -1.454912E+04 -2.349543E+03
       358  24 -5.899120E+05 -1.126408E+04 -2.950940E+04  8.460985E+03 -2.221866E+04 -2.821562E+03
       358  25 -5.319110E+05  1.502651E+04  5.085923E+03  1.008567E+04 -7.300812E+03 -1.597307E+03
       358  26 -5.110503E+05  2.076212E+04  3.483261E+03  5.242513E+02 -1.483573E+04 -2.350167E+03
       358  27 -4.947876E+05  1.234113E+04 -6.583140E+03  5.524395E+03 -2.237146E+04 -2.821768E+03
       359   1 -7.183617E+05 -2.491511E+04 -6.533418E+04 -5.289135E+03  2.669325E+04  3.760515E+03
       359   2 -7.183094E+05 -1.890110E+04 -9.106259E+04  1.002103E+04  5.945125E+04  4.482896E+03
       359   3 -7.551664E+05 -1.431972E+05 -1.707228E+05  3.974263E+04  9.221628E+04  1.686646E+03
       359   4 -5.970144E+05  5.287517E+03 -3.611622E+04  8.337655E+03  2.785257E+04  3.763625E+03
       359   5 -5.787254E+05  1.570039E+04 -5.751090E+04  1.244702E+03  5.892825E+04  4.480854E+03
       359   6 -5.970455E+05 -1.038904E+05 -1.316596E+05  8.563976E+03  9.001200E+04  1.677434E+03
       359   7 -4.756532E+05  3.548976E+04 -6.899214E+03  2.196711E+04  2.901212E+04  3.766785E+03
       359   8 -4.391234E+05  5.030076E+04 -2.396056E+04 -7.533615E+03  5.840513E+04  4.478827E+03
       359   9 -4.388998E+05 -6.458172E+04 -9.259771E+04 -2.262265E+04  8.780716E+04  1.668444E+03
       359  10 -7.183625E+05 -2.491531E+04 -6.533555E+04 -5.289216E+03  9.652509E-10  2.006370E-09
       359  11 -7.183132E+05 -1.890207E+04 -9.106928E+04  1.002081E+04  1.135531E-09 -1.134089E-09
       359  12 -7.551755E+05 -1.431995E+05 -1.707388E+05  3.974251E+04  1.059984E-10 -8.170050E-10
       359  13 -5.970152E+05  5.287293E+03 -3.611771E+04  8.337571E+03  7.517463E-10  3.720033E-09
       359  14 -5.787292E+05  1.569944E+04 -5.751747E+04  1.244489E+03  8.833588E-10 -3.249792E-09
       359  15 -5.970543E+05 -1.038925E+05 -1.316748E+05  8.563855E+03  2.925862E-10  1.804854E-09
       359  16 -4.756541E+05  3.548952E+04 -6.900824E+03  2.196703E+04 -2.520152E-09  1.431539E-09
       359  17 -4.391271E+05  5.029983E+04 -2.396701E+04 -7.533826E+03 -1.231790E-09  1.258848E-09
       359  18 -4.389081E+05 -6.458380E+04 -9.261221E+04 -2.262277E+04  4.123681E-10 -3.358334E-10
       359  19 -7.183617E+05 -2.491511E+04 -6.533418E+04 -5.289135E+03 -2.669325E+04 -3.760515E+03
       359  20 -7.183094E+05 -1.890110E+04 -9.106259E+04  1.002103E+04 -5.945125E+04 -4.482896E+03
       359  21 -7.551664E+05 -1.431972E+05 -1.707228E+05  3.974263E+04 -9.221628E+04 -1.686646E+03
       359  22 -5.970144E+05  5.287517E+03 -3.611622E+04  8.337655E+03 -2.785257E+04 -3.763625E+03
       359  23 -5.787254E+05  1.570039E+04 -5.751090E+04  1.244702E+03 -5.892825E+04 -4.480854E+03
       359  24 -5.970455E+05 -1.038904E+05 -1.316596E+05  8.563976E+03 -9.001200E+04 -1.677434E+03
       359  25 -4.756532E+05  3.548976E+04 -6.899214E+03  2.196711E+04 -2.901212E+04 -3.766785E+03
       359  26 -4.391234E+05  5.030076E+04 -2.396056E+04 -7.533615E+03 -5.840513E+04 -4.478827E+03
       359  27 -4.388998E+05 -6.458172E+04 -9.259771E+04 -2.262265E+04 -8.780716E+04 -1.668444E+03
       360   1  4.756499E+05  2.638215E+06  5.386286E+05 -1.869061E+05  8.252991E+03  2.094724E+05
       360   2  1.485650E+05  2.384113E+06  3.187551E+05 -5.307929E+04  2.317300E+04  1.233256E+05
       360   3  1.249496E+05  2.217016E+06  2.306682E+05 -8.326743E+04  1.561884E+04  3.716916E+04
       360   4  2.369244E+05  1.679715E+06  3.022387E+05 -1.134345E+05  8.294827E+03  1.967568E+05
       360   5 -3.636357E+04  1.637231E+06  1.397597E+05 -3.159946E+04  2.318197E+04  1.215325E+05
       360   6 -7.872225E+03  1.679954E+06  1.016416E+05 -1.137710E+05  1.559741E+04  4.626863E+04
       360   7 -1.849409E+03  7.220578E+05  6.578424E+04 -4.007564E+04  8.333711E+03  1.840606E+05
       360   8 -2.213309E+05  8.908595E+05 -3.927485E+04 -1.014526E+04  2.319083E+04  1.197415E+05
       360   9 -1.407114E+05  1.143158E+06 -2.740471E+04 -1.442480E+05  1.557507E+04  5.536026E+04
       360  10  4.756381E+05  2.638168E+06  5.385464E+05 -1.869075E+05  1.733762E-10  1.504169E-10
       360  11  1.485604E+05  2.384097E+06  3.187257E+05 -5.308159E+04 -2.735619E-09 -2.947027E-09
       360  12  1.249490E+05  2.217015E+06  2.306651E+05 -8.326790E+04  9.890056E-10 -2.493947E-09
       360  13  2.369140E+05  1.679673E+06  3.021660E+05 -1.134358E+05  1.035016E-09 -3.964997E-10
       360  14 -3.636810E+04  1.637215E+06  1.397311E+05 -3.160173E+04 -4.781350E-10 -3.492306E-09
       360  15 -7.873059E+03  1.679952E+06  1.016371E+05 -1.137716E+05  1.752047E-09 -3.120850E-09
       360  16 -1.858565E+03  7.220214E+05  6.572052E+04 -4.007687E+04  1.223607E-09 -8.776246E-11
       360  17 -2.213353E+05  8.908439E+05 -3.930277E+04 -1.014750E+04  2.853761E-09 -2.557138E-09
       360  18 -1.407124E+05  1.143154E+06 -2.741091E+04 -1.442487E+05  8.927541E-10  4.401049E-10
       360  19  4.756499E+05  2.638215E+06  5.386286E+05 -1.869061E+05 -8.252991E+03 -2.094724E+05
       360  20  1.485650E+05  2.384113E+06  3.187551E+05 -5.307929E+04 -2.317300E+04 -1.233256E+05
       360  21  1.249496E+05  2.217016E+06  2.306682E+05 -8.326743E+04 -1.561884E+04 -3.716916E+04
       360  22  2.369244E+05  1.679715E+06  3.022387E+05 -1.134345E+05 -8.294827E+03 -1.967568E+05
       360  23 -3.636357E+04  1.637231E+06  1.397597E+05 -3.159946E+04 -2.318197E+04 -1.215325E+05
       360  24 -7.872225E+03  1.679954E+06  1.016416E+05 -1.137710E+05 -1.559741E+04 -4.626863E+04
       360  25 -1.849409E+03  7.220578E+05  6.578424E+04 -4.007564E+04 -8.333711E+03 -1.840606E+05
       360  26 -2.213309E+05  8.908595E+05 -3.927485E+04 -1.014526E+04 -2.319083E+04 -1.197415E+05
       360  27 -1.407114E+05  1.143158E+06 -2.740471E+04 -1.442480E+05 -1.557507E+04 -5.536026E+04
       361   1  8.411828E+04  1.906641E+06  1.502701E+05 -1.253919E+05  7.326838E+03  2.637067E+04
       361   2 -9.230814E+02  1.687511E+06  8.555231E+04 -3.161930E+04  1.023993E+03 -1.361160E+04
       361   3 -1.035643E+04  1.491599E+06  6.551932E+04 -1.001282E+05 -5.382050E+03 -5.358167E+04
       361   4  2.451796E+04  1.666193E+06  9.257658E+04 -1.132583E+05  7.320244E+03  2.941776E+04
       361   5 -9.069540E+03  1.654604E+06  7.765164E+04 -3.210921E+04  1.016738E+03 -1.050879E+04
       361   6  3.294625E+04  1.666185E+06  1.073796E+05 -1.132379E+05 -5.388488E+03 -5.043626E+04
       361   7 -3.508600E+04  1.425797E+06  3.487905E+04 -1.011294E+05  7.313768E+03  3.246368E+04
       361   8 -1.721607E+04  1.621698E+06  6.975092E+04 -3.259910E+04  1.009477E+03 -7.406140E+03
       361   9  7.624736E+04  1.840800E+06  1.492379E+05 -1.263513E+05 -5.395059E+03 -4.728997E+04
       361  10  8.411803E+04  1.906641E+06  1.502687E+05 -1.253921E+05 -5.328133E-10 -4.582416E-09
       361  11 -9.231321E+02  1.687511E+06  8.555196E+04 -3.161928E+04 -1.657399E-09 -4.185476E-09
       361  12 -1.035723E+04  1.491596E+06  6.551389E+04 -1.001284E+05 -3.260410E-09  1.822161E-09
       361  13  2.451767E+04  1.666192E+06  9.257485E+04 -1.132585E+05 -1.073327E-09 -1.538508E-10
       361  14 -9.069570E+03  1.654604E+06  7.765143E+04 -3.210920E+04  2.574866E-09 -5.555297E-09
       361  15  3.294554E+04  1.666183E+06  1.073748E+05 -1.132381E+05  2.855751E-09 -3.892130E-09
       361  16 -3.508634E+04  1.425796E+06  3.487697E+04 -1.011296E+05  2.602401E-10  4.693506E-09
       361  17 -1.721609E+04  1.621698E+06  6.975082E+04 -3.259909E+04 -1.488880E-09 -3.613334E-09
       361  18  7.624673E+04  1.840797E+06  1.492336E+05 -1.263515E+05 -1.586669E-09 -3.486863E-09
       361  19  8.411828E+04  1.906641E+06  1.502701E+05 -1.253919E+05 -7.326838E+03 -2.637067E+04
       361  20 -9.230815E+02  1.687511E+06  8.555231E+04 -3.161930E+04 -1.023993E+03  1.361160E+04
       361  21 -1.035643E+04  1.491599E+06  6.551932E+04 -1.001282E+05  5.382050E+03  5.358167E+04
       361  22  2.451796E+04  1.666193E+06  9.257658E+04 -1.132583E+05 -7.320244E+03 -2.941776E+04
       361  23 -9.069540E+03  1.654604E+06  7.765164E+04 -3.210921E+04 -1.016738E+03  1.050879E+04
       361  24  3.294625E+04  1.666185E+06  1.073796E+05 -1.132379E+05  5.388488E+03  5.043626E+04
       361  25 -3.508600E+04  1.425797E+06  3.487905E+04 -1.011294E+05 -7.313768E+03 -3.246368E+04
       361  26 -1.721607E+04  1.621698E+06  6.975092E+04 -3.259910E+04 -1.009477E+03  7.406140E+03
       361  27  7.624736E+04  1.840800E+06  1.492379E+05 -1.263513E+05  5.395059E+03  4.728997E+04
       362   1 -1.288331E+05  1.214930E+06  9.437512E+03 -1.536451E+05 -1.344486E+04 -7.909269E+04
       362   2 -2.158002E+05  9.504466E+05  1.545915E+04 -3.879752E+03 -2.103504E+04 -1.651324E+05
       362   3  8.856703E+04  7.949321E+05  1.752869E+05 -1.767623E+04 -7.558368E+03 -2.511008E+05
       362   4 -1.243523E+04  1.685602E+06  1.226074E+05 -1.137153E+05 -1.346960E+04 -7.033861E+04
       362   5 -4.730919E+04  1.630190E+06  1.785038E+05 -3.170418E+04 -2.102369E+04 -1.666046E+05
       362   6  3.106691E+05  1.685310E+06  3.951564E+05 -1.132265E+05 -7.502365E+03 -2.628292E+05
       362   7  1.039527E+05  2.156480E+06  2.357627E+05 -7.375496E+04 -1.349321E+04 -6.157790E+04
       362   8  1.211512E+05  2.310358E+06  3.415161E+05 -5.955894E+04 -2.101221E+04 -1.680783E+05
       362   9  5.327460E+05  2.576427E+06  6.149725E+05 -2.089134E+05 -7.442820E+03 -2.745742E+05
       362  10 -1.288350E+05  1.214923E+06  9.425439E+03 -1.536460E+05 -1.517664E-09 -4.135603E-09
       362  11 -2.158080E+05  9.504172E+05  1.540715E+04 -3.882549E+03  2.590261E-10 -3.422217E-09
       362  12  8.855007E+04  7.948645E+05  1.751684E+05 -1.767776E+04 -8.536313E-11  2.074592E-09
       362  13 -1.243675E+04  1.685597E+06  1.225978E+05 -1.137160E+05  9.449661E-11  2.720299E-10
       362  14 -4.731709E+04  1.630160E+06  1.784509E+05 -3.170700E+04  2.421258E-09 -3.996425E-09
       362  15  3.106505E+05  1.685236E+06  3.950268E+05 -1.132280E+05  1.869991E-10 -1.874679E-09
       362  16  1.039515E+05  2.156476E+06  2.357553E+05 -7.375563E+04 -1.950934E-09  4.262571E-09
       362  17  1.211432E+05  2.310327E+06  3.414624E+05 -5.956178E+04 -2.513470E-09 -2.506421E-09
       362  18  5.327258E+05  2.576346E+06  6.148313E+05 -2.089150E+05 -1.218966E-10 -2.954638E-09
       362  19 -1.288331E+05  1.214930E+06  9.437512E+03 -1.536451E+05  1.344486E+04  7.909269E+04
       362  20 -2.158002E+05  9.504466E+05  1.545915E+04 -3.879752E+03  2.103504E+04  1.651324E+05
       362  21  8.856703E+04  7.949321E+05  1.752869E+05 -1.767623E+04  7.558368E+03  2.511008E+05
       362  22 -1.243523E+04  1.685602E+06  1.226074E+05 -1.137153E+05  1.346960E+04  7.033861E+04
       362  23 -4.730919E+04  1.630190E+06  1.785038E+05 -3.170418E+04  2.102369E+04  1.666046E+05
       362  24  3.106691E+05  1.685310E+06  3.951564E+05 -1.132265E+05  7.502365E+03  2.628292E+05
       362  25  1.039527E+05  2.156480E+06  2.357627E+05 -7.375496E+04  1.349321E+04  6.157790E+04
       362  26  1.211512E+05  2.310358E+06  3.415161E+05 -5.955894E+04  2.101221E+04  1.680783E+05
       362  27  5.327460E+05  2.576427E+06  6.149725E+05 -2.089134E+05  7.442820E+03  2.745742E+05
       363   1 -1.170200E+05 -6.000400E+04 -6.624662E+04 -3.210918E+04 -5.601326E+04 -2.142023E+04
       363   2 -9.769242E+04  1.750491E+04 -1.395667E+04 -5.320935E+04 -3.586109E+04 -1.451787E+04
       363   3 -1.164867E+05  7.532128E+03 -9.991215E+02 -4.875839E+04 -1.598601E+04 -6.880029E+03
       363   4 -2.030995E+05 -8.675313E+04 -8.878688E+04 -4.961694E+04 -5.613701E+04 -2.146744E+04
       363   5 -1.796390E+05 -1.201132E+04 -3.616675E+04 -7.404902E+04 -3.588844E+04 -1.452828E+04
       363   6 -1.943238E+05 -2.477724E+04 -2.295962E+04 -7.292866E+04 -1.591681E+04 -6.853880E+03
       363   7 -2.891717E+05 -1.135023E+05 -1.113277E+05 -6.712272E+04 -5.626074E+04 -2.151465E+04
       363   8 -2.615790E+05 -4.152727E+04 -5.837739E+04 -9.488625E+04 -3.591579E+04 -1.453869E+04
       363   9 -2.721551E+05 -5.708592E+04 -4.492069E+04 -9.709609E+04 -1.584761E+04 -6.827735E+03
       363  10 -1.170235E+05 -6.000534E+04 -6.625338E+04 -3.211015E+04  7.082711E-10 -5.278645E-10
       363  11 -9.769386E+04  1.750434E+04 -1.395948E+04 -5.320977E+04 -1.668241E-09 -1.817333E-09
       363  12 -1.164870E+05  7.532008E+03 -9.996909E+02 -4.875848E+04 -2.057709E-09 -8.606469E-10
       363  13 -2.031031E+05 -8.675447E+04 -8.879367E+04 -4.961791E+04 -7.567536E-10  1.520361E-09
       363  14 -1.796404E+05 -1.201189E+04 -3.616957E+04 -7.404944E+04  3.675480E-10 -1.877476E-09
       363  15 -1.943241E+05 -2.477736E+04 -2.296018E+04 -7.292875E+04  1.483133E-09 -2.896351E-10
       363  16 -2.891752E+05 -1.135036E+05 -1.113345E+05 -6.712370E+04 -5.570207E-10  2.023944E-09
       363  17 -2.615804E+05 -4.152785E+04 -5.838021E+04 -9.488667E+04 -2.955483E-10  1.723933E-10
       363  18 -2.721554E+05 -5.708604E+04 -4.492125E+04 -9.709617E+04 -1.059547E-09  3.321016E-10
       363  19 -1.170200E+05 -6.000400E+04 -6.624662E+04 -3.210918E+04  5.601326E+04  2.142023E+04
       363  20 -9.769242E+04  1.750491E+04 -1.395667E+04 -5.320935E+04  3.586109E+04  1.451787E+04
       363  21 -1.164867E+05  7.532128E+03 -9.991215E+02 -4.875839E+04  1.598601E+04  6.880029E+03
       363  22 -2.030995E+05 -8.675313E+04 -8.878688E+04 -4.961694E+04  5.613701E+04  2.146744E+04
       363  23 -1.796390E+05 -1.201132E+04 -3.616675E+04 -7.404902E+04  3.588844E+04  1.452828E+04
       363  24 -1.943238E+05 -2.477724E+04 -2.295962E+04 -7.292866E+04  1.591681E+04  6.853880E+03
       363  25 -2.891717E+05 -1.135023E+05 -1.113277E+05 -6.712272E+04  5.626074E+04  2.151465E+04
       363  26 -2.615790E+05 -4.152727E+04 -5.837739E+04 -9.488625E+04  3.591579E+04  1.453869E+04
       363  27 -2.721551E+05 -5.708592E+04 -4.492069E+04 -9.709609E+04  1.584761E+04  6.827735E+03
       364   1 -1.232725E+05 -1.017313E+04 -3.520856E+02 -4.917298E+04 -1.245499E+04 -5.391917E+03
       364   2 -1.202365E+05  1.542193E+02  9.760557E+03 -5.387904E+04 -7.922902E+03 -3.740589E+03
       364   3 -1.252960E+05 -7.091998E+02  1.279608E+04 -5.229788E+04 -3.439437E+03 -1.960049E+03
       364   4 -1.915187E+05 -3.514501E+04 -1.893978E+04 -6.692569E+04 -1.246926E+04 -5.397320E+03
       364   5 -1.867998E+05 -2.483532E+04 -8.489366E+03 -7.184447E+04 -7.920242E+03 -3.739595E+03
       364   6 -1.901802E+05 -2.572067E+04 -5.130083E+03 -7.047587E+04 -3.419837E+03 -1.952659E+03
       364   7 -2.597604E+05 -6.011671E+04 -3.752791E+04 -8.467670E+04 -1.248352E+04 -5.402722E+03
       364   8 -2.533588E+05 -4.982463E+04 -2.673970E+04 -8.980817E+04 -7.917582E+03 -3.738602E+03
       364   9 -2.550604E+05 -5.073186E+04 -2.305664E+04 -8.865214E+04 -3.400240E+03 -1.945270E+03
       364  10 -1.232727E+05 -1.017321E+04 -3.524319E+02 -4.917303E+04  3.144390E-09 -1.196227E-09
       364  11 -1.202366E+05  1.541874E+02  9.760413E+03 -5.387907E+04  4.442157E-09 -4.690339E-09
       364  12 -1.252960E+05 -7.092071E+02  1.279606E+04 -5.229788E+04 -1.821026E-09  4.497725E-09
       364  13 -1.915189E+05 -3.514508E+04 -1.894013E+04 -6.692574E+04  2.001254E-09 -9.779050E-10
       364  14 -1.867999E+05 -2.483535E+04 -8.489510E+03 -7.184449E+04 -1.220841E-09 -1.520965E-09
       364  15 -1.901802E+05 -2.572068E+04 -5.130112E+03 -7.047587E+04  1.522949E-09  2.625982E-09
       364  16 -2.597606E+05 -6.011678E+04 -3.752825E+04 -8.467675E+04 -1.095829E-09 -7.049579E-10
       364  17 -2.533589E+05 -4.982466E+04 -2.673984E+04 -8.980820E+04  3.206821E-10  1.212785E-09
       364  18 -2.550604E+05 -5.073187E+04 -2.305667E+04 -8.865215E+04  3.335047E-09 -3.125009E-10
       364  19 -1.232725E+05 -1.017313E+04 -3.520856E+02 -4.917298E+04  1.245499E+04  5.391917E+03
       364  20 -1.202365E+05  1.542193E+02  9.760557E+03 -5.387904E+04  7.922902E+03  3.740589E+03
       364  21 -1.252960E+05 -7.091998E+02  1.279608E+04 -5.229788E+04  3.439437E+03  1.960049E+03
       364  22 -1.915187E+05 -3.514501E+04 -1.893978E+04 -6.692569E+04  1.246926E+04  5.397320E+03
       364  23 -1.867998E+05 -2.483532E+04 -8.489366E+03 -7.184447E+04  7.920242E+03  3.739595E+03
       364  24 -1.901802E+05 -2.572067E+04 -5.130083E+03 -7.047587E+04  3.419837E+03  1.952659E+03
       364  25 -2.597604E+05 -6.011671E+04 -3.752791E+04 -8.467670E+04  1.248352E+04  5.402722E+03
       364  26 -2.533588E+05 -4.982463E+04 -2.673970E+04 -8.980817E+04  7.917582E+03  3.738602E+03
       364  27 -2.550604E+05 -5.073186E+04 -2.305664E+04 -8.865214E+04  3.400240E+03  1.945270E+03
       365   1 -1.391838E+05 -8.174044E+03  9.775765E+03 -5.577475E+04 -2.675507E+03 -1.608965E+03
       365   2 -1.386960E+05 -8.291081E+03  1.153634E+04 -5.821102E+04 -1.672930E+03 -1.177675E+03
       365   3 -1.419102E+05 -7.652567E+03  1.197976E+04 -5.691059E+04 -6.814318E+02 -7.170685E+02
       365   4 -1.897925E+05 -2.721632E+04 -4.106230E+03 -6.947794E+04 -2.671038E+03 -1.607284E+03
       365   5 -1.878394E+05 -2.687902E+04 -1.966157E+03 -7.161592E+04 -1.664590E+03 -1.174532E+03
       365   6 -1.895892E+05 -2.578699E+04 -1.146381E+03 -7.001711E+04 -6.692179E+02 -7.124603E+02
       365   7 -2.403988E+05 -4.625845E+04 -1.798845E+04 -8.318013E+04 -2.666569E+03 -1.605602E+03
       365   8 -2.369805E+05 -4.546682E+04 -1.546887E+04 -8.501986E+04 -1.656251E+03 -1.171388E+03
       365   9 -2.372660E+05 -4.392128E+04 -1.427274E+04 -8.312273E+04 -6.570050E+02 -7.078526E+02
       365  10 -1.391839E+05 -8.174049E+03  9.775747E+03 -5.577475E+04 -3.125007E-10  3.368795E-09
       365  11 -1.386960E+05 -8.291084E+03  1.153633E+04 -5.821102E+04  4.747226E-10 -1.870606E-09
       365  12 -1.419102E+05 -7.652567E+03  1.197976E+04 -5.691059E+04 -1.412200E-09  3.109762E-09
       365  13 -1.897925E+05 -2.721633E+04 -4.106249E+03 -6.947795E+04  2.262531E-10  1.750087E-09
       365  14 -1.878394E+05 -2.687902E+04 -1.966165E+03 -7.161592E+04  4.545466E-09 -7.044365E-09
       365  15 -1.895892E+05 -2.578699E+04 -1.146383E+03 -7.001711E+04  1.470210E-09  1.218163E-09
       365  16 -2.403988E+05 -4.625845E+04 -1.798847E+04 -8.318013E+04 -1.152516E-09  9.291321E-10
       365  17 -2.369805E+05 -4.546683E+04 -1.546888E+04 -8.501986E+04 -4.468630E-10  5.036219E-09
       365  18 -2.372660E+05 -4.392129E+04 -1.427274E+04 -8.312273E+04  1.016744E-09 -2.634033E-10
       365  19 -1.391838E+05 -8.174044E+03  9.775765E+03 -5.577475E+04  2.675507E+03  1.608965E+03
       365  20 -1.386960E+05 -8.291081E+03  1.153634E+04 -5.821102E+04  1.672930E+03  1.177675E+03
       365  21 -1.419102E+05 -7.652567E+03  1.197976E+04 -5.691059E+04  6.814318E+02  7.170685E+02
       365  22 -1.897925E+05 -2.721632E+04 -4.106230E+03 -6.947794E+04  2.671038E+03  1.607284E+03
       365  23 -1.878394E+05 -2.687902E+04 -1.966157E+03 -7.161592E+04  1.664590E+03  1.174532E+03
       365  24 -1.895892E+05 -2.578699E+04 -1.146381E+03 -7.001711E+04  6.692179E+02  7.124603E+02
       365  25 -2.403988E+05 -4.625845E+04 -1.798845E+04 -8.318013E+04  2.666569E+03  1.605602E+03
       365  26 -2.369805E+05 -4.546682E+04 -1.546887E+04 -8.501986E+04  1.656251E+03  1.171388E+03
       365  27 -2.372660E+05 -4.392128E+04 -1.427274E+04 -8.312273E+04  6.570050E+02  7.078526E+02
       366   1 -1.582903E+05 -1.413150E+04  7.693398E+03 -6.127548E+04 -5.251586E+02 -6.059362E+02
       366   2 -1.581951E+05 -1.597575E+04  7.733645E+03 -6.351270E+04 -3.245948E+02 -4.520607E+02
       366   3 -1.613238E+05 -1.504117E+04  7.523344E+03 -6.216603E+04 -1.275893E+02 -2.888043E+02
       366   4 -1.895720E+05 -2.596720E+04 -8.972694E+02 -6.981320E+04 -5.165455E+02 -6.026858E+02
       366   5 -1.879444E+05 -2.724691E+04 -4.441380E+02 -7.164653E+04 -3.147279E+02 -4.483358E+02
       366   6 -1.895409E+05 -2.574807E+04 -2.425618E+02 -6.989599E+04 -1.164682E+02 -2.846045E+02
       366   7 -2.208528E+05 -3.780285E+04 -9.488026E+03 -7.835053E+04 -5.079328E+02 -5.994356E+02
       366   8 -2.176928E+05 -3.851802E+04 -8.621998E+03 -7.978001E+04 -3.048615E+02 -4.446111E+02
       366   9 -2.177572E+05 -3.645491E+04 -8.008534E+03 -7.762562E+04 -1.053476E+02 -2.804050E+02
       366  10 -1.582903E+05 -1.413150E+04  7.693397E+03 -6.127548E+04 -2.837681E-09  5.786217E-09
       366  11 -1.581951E+05 -1.597575E+04  7.733644E+03 -6.351270E+04 -1.223638E-09  3.775442E-09
       366  12 -1.613238E+05 -1.504117E+04  7.523344E+03 -6.216603E+04 -1.242561E-09 -2.393445E-09
       366  13 -1.895720E+05 -2.596720E+04 -8.972706E+02 -6.981320E+04  1.041467E-09  2.945348E-09
       366  14 -1.879444E+05 -2.724691E+04 -4.441386E+02 -7.164653E+04  3.571451E-09  5.875724E-10
       366  15 -1.895409E+05 -2.574807E+04 -2.425619E+02 -6.989599E+04  3.947945E-09 -1.769351E-09
       366  16 -2.208528E+05 -3.780285E+04 -9.488027E+03 -7.835053E+04  6.214516E-10  3.548269E-09
       366  17 -2.176928E+05 -3.851802E+04 -8.621999E+03 -7.978001E+04  4.248828E-10  5.064378E-09
       366  18 -2.177572E+05 -3.645491E+04 -8.008534E+03 -7.762562E+04  2.112592E-09 -1.606526E-09
       366  19 -1.582903E+05 -1.413150E+04  7.693398E+03 -6.127548E+04  5.251586E+02  6.059362E+02
       366  20 -1.581951E+05 -1.597575E+04  7.733645E+03 -6.351270E+04  3.245948E+02  4.520607E+02
       366  21 -1.613238E+05 -1.504117E+04  7.523344E+03 -6.216603E+04  1.275893E+02  2.888043E+02
       366  22 -1.895720E+05 -2.596720E+04 -8.972694E+02 -6.981320E+04  5.165455E+02  6.026858E+02
       366  23 -1.879444E+05 -2.724691E+04 -4.441380E+02 -7.164653E+04  3.147279E+02  4.483358E+02
       366  24 -1.895409E+05 -2.574807E+04 -2.425618E+02 -6.989599E+04  1.164682E+02  2.846045E+02
       366  25 -2.208528E+05 -3.780285E+04 -9.488026E+03 -7.835053E+04  5.079328E+02  5.994356E+02
       366  26 -2.176928E+05 -3.851802E+04 -8.621998E+03 -7.978001E+04  3.048615E+02  4.446111E+02
       366  27 -2.177572E+05 -3.645491E+04 -8.008534E+03 -7.762562E+04  1.053476E+02  2.804050E+02
       367   1 -1.788595E+05 -2.170578E+04  2.755229E+03 -6.691520E+04 -1.091922E+02 -2.288014E+02
       367   2 -1.788250E+05 -2.387662E+04  2.437927E+03 -6.918573E+04 -1.039864E+02 -1.398249E+02
       367   3 -1.820212E+05 -2.285333E+04  2.089093E+03 -6.779965E+04 -9.901653E+01 -5.023293E+01
       367   4 -1.895567E+05 -2.575828E+04 -1.794738E+02 -6.984099E+04 -9.896757E+01 -2.249394E+02
       367   5 -1.879379E+05 -2.733060E+04 -6.744783E+01 -7.167865E+04 -9.367938E+01 -1.359313E+02
       367   6 -1.895497E+05 -2.570880E+04  1.298888E+01 -6.985970E+04 -8.862700E+01 -4.630782E+01
       367   7 -2.002539E+05 -2.981077E+04 -3.114190E+03 -7.276673E+04 -8.874314E+01 -2.210774E+02
       367   8 -1.970507E+05 -3.078458E+04 -2.572831E+03 -7.417154E+04 -8.337252E+01 -1.320378E+02
       367   9 -1.970782E+05 -2.856427E+04 -2.063121E+03 -7.191972E+04 -7.823761E+01 -4.238277E+01
       367  10 -1.788595E+05 -2.170578E+04  2.755229E+03 -6.691520E+04  3.924997E-10  9.553586E-10
       367  11 -1.788250E+05 -2.387662E+04  2.437927E+03 -6.918573E+04  2.055386E-09  8.712849E-10
       367  12 -1.820212E+05 -2.285333E+04  2.089093E+03 -6.779965E+04  1.733117E-09 -5.578833E-09
       367  13 -1.895567E+05 -2.575828E+04 -1.794740E+02 -6.984099E+04  1.140540E-10  2.263461E-09
       367  14 -1.879379E+05 -2.733060E+04 -6.744788E+01 -7.167865E+04 -5.974062E-10 -1.712027E-09
       367  15 -1.895497E+05 -2.570880E+04  1.298886E+01 -6.985970E+04  1.926217E-09  6.270675E-09
       367  16 -2.002539E+05 -2.981077E+04 -3.114190E+03 -7.276673E+04  1.665380E-09 -4.824267E-09
       367  17 -1.970507E+05 -3.078458E+04 -2.572831E+03 -7.417154E+04  2.761100E-09 -4.998788E-09
       367  18 -1.970782E+05 -2.856427E+04 -2.063121E+03 -7.191972E+04  9.008747E-11 -3.132720E-09
       367  19 -1.788595E+05 -2.170578E+04  2.755229E+03 -6.691520E+04  1.091922E+02  2.288014E+02
       367  20 -1.788250E+05 -2.387662E+04  2.437927E+03 -6.918573E+04  1.039864E+02  1.398249E+02
       367  21 -1.820212E+05 -2.285333E+04  2.089093E+03 -6.779965E+04  9.901653E+01  5.023293E+01
       367  22 -1.895567E+05 -2.575828E+04 -1.794738E+02 -6.984099E+04  9.896757E+01  2.249394E+02
       367  23 -1.879379E+05 -2.733060E+04 -6.744783E+01 -7.167865E+04  9.367938E+01  1.359313E+02
       367  24 -1.895497E+05 -2.570880E+04  1.298888E+01 -6.985970E+04  8.862700E+01  4.630782E+01
       367  25 -2.002539E+05 -2.981077E+04 -3.114190E+03 -7.276673E+04  8.874314E+01  2.210774E+02
       367  26 -1.970507E+05 -3.078458E+04 -2.572831E+03 -7.417154E+04  8.337252E+01  1.320378E+02
       367  27 -1.970782E+05 -2.856427E+04 -2.063121E+03 -7.191972E+04  7.823761E+01  4.238277E+01
       368   1 -1.998763E+05 -2.964958E+04 -2.800955E+03 -7.267131E+04 -1.237804E+02 -4.114769E+00
       368   2 -1.998733E+05 -3.187531E+04 -3.143345E+03 -7.493201E+04 -2.211040E+02  5.047514E+01
       368   3 -2.030068E+05 -3.073848E+04 -3.392635E+03 -7.359108E+04 -3.127327E+02  9.000755E+01
       368   4 -1.895377E+05 -2.573441E+04  4.675928E+01 -6.984808E+04 -1.119904E+02  3.393411E-01
       368   5 -1.879614E+05 -2.735788E+04  1.318887E+02 -7.167078E+04 -2.113451E+02  5.416143E+01
       368   6 -1.895211E+05 -2.561842E+04  3.117302E+02 -6.989186E+04 -3.050052E+02  9.292611E+01
       368   7 -1.791991E+05 -2.181922E+04  2.894461E+03 -6.702481E+04 -1.002002E+02  4.793529E+00
       368   8 -1.760493E+05 -2.284044E+04  3.407110E+03 -6.840949E+04 -2.015860E+02  5.784781E+01
       368   9 -1.760352E+05 -2.049834E+04  4.016082E+03 -6.619256E+04 -2.972775E+02  9.584474E+01
       368  10 -1.998763E+05 -2.964958E+04 -2.800955E+03 -7.267131E+04  2.228067E-09 -1.275742E-09
       368  11 -1.998733E+05 -3.187531E+04 -3.143345E+03 -7.493201E+04 -1.460608E-09 -5.198757E-09
       368  12 -2.030068E+05 -3.073848E+04 -3.392635E+03 -7.359108E+04 -4.034323E-09  2.398360E-09
       368  13 -1.895377E+05 -2.573441E+04  4.675926E+01 -6.984808E+04  1.069599E-10  2.229015E-09
       368  14 -1.879614E+05 -2.735788E+04  1.318886E+02 -7.167078E+04  9.782792E-10 -2.761132E-09
       368  15 -1.895211E+05 -2.561842E+04  3.117300E+02 -6.989186E+04 -9.072605E-10 -3.955170E-09
       368  16 -1.791991E+05 -2.181922E+04  2.894461E+03 -6.702481E+04  2.117298E-09 -8.602021E-10
       368  17 -1.760493E+05 -2.284044E+04  3.407110E+03 -6.840949E+04  4.322059E-09  5.728969E-09
       368  18 -1.760352E+05 -2.049834E+04  4.016081E+03 -6.619256E+04  1.184005E-09  3.903118E-09
       368  19 -1.998763E+05 -2.964958E+04 -2.800955E+03 -7.267131E+04  1.237804E+02  4.114769E+00
       368  20 -1.998733E+05 -3.187531E+04 -3.143345E+03 -7.493201E+04  2.211040E+02 -5.047514E+01
       368  21 -2.030068E+05 -3.073848E+04 -3.392635E+03 -7.359108E+04  3.127327E+02 -9.000755E+01
       368  22 -1.895377E+05 -2.573441E+04  4.675928E+01 -6.984808E+04  1.119904E+02 -3.393411E-01
       368  23 -1.879614E+05 -2.735788E+04  1.318887E+02 -7.167078E+04  2.113451E+02 -5.416143E+01
       368  24 -1.895211E+05 -2.561842E+04  3.117302E+02 -6.989186E+04  3.050052E+02 -9.292611E+01
       368  25 -1.791991E+05 -2.181922E+04  2.894461E+03 -6.702481E+04  1.002002E+02 -4.793529E+00
       368  26 -1.760493E+05 -2.284044E+04  3.407110E+03 -6.840949E+04  2.015860E+02 -5.784781E+01
       368  27 -1.760352E+05 -2.049834E+04  4.016082E+03 -6.619256E+04  2.972775E+02 -9.584474E+01
       369   1 -2.203963E+05 -3.747029E+04 -8.110607E+03 -7.828607E+04 -4.034591E+02  1.212967E+02
       369   2 -2.205205E+05 -3.977565E+04 -8.250556E+03 -8.048333E+04 -7.799639E+02  7.822639E+01
       369   3 -2.232347E+05 -3.794030E+04 -7.834998E+03 -7.947206E+04 -1.124144E+03 -5.041024E+01
       369   4 -1.894463E+05 -2.577321E+04  3.975254E+02 -6.985544E+04 -3.860095E+02  1.278863E+02
       369   5 -1.880994E+05 -2.747331E+04  6.646098E+02 -7.159985E+04 -7.740659E+02  8.045206E+01
       369   6 -1.893402E+05 -2.503045E+04  1.496335E+03 -7.013572E+04 -1.129799E+03 -5.254665E+01
       369   7 -1.584954E+05 -1.407608E+04  8.905570E+03 -6.142444E+04 -3.685589E+02  1.344763E+02
       369   8 -1.556773E+05 -1.517092E+04  9.579675E+03 -6.271595E+04 -7.681676E+02  8.267785E+01
       369   9 -1.554446E+05 -1.212054E+04  1.082756E+04 -6.079892E+04 -1.135454E+03 -5.468319E+01
       369  10 -2.203963E+05 -3.747029E+04 -8.110608E+03 -7.828607E+04 -1.695307E-10  1.627292E-09
       369  11 -2.205205E+05 -3.977565E+04 -8.250557E+03 -8.048333E+04 -1.616369E-09 -7.730807E-10
       369  12 -2.232347E+05 -3.794030E+04 -7.835000E+03 -7.947206E+04 -1.595672E-09 -2.696286E-09
       369  13 -1.894463E+05 -2.577321E+04  3.975251E+02 -6.985544E+04 -2.148296E-09 -3.929408E-10
       369  14 -1.880994E+05 -2.747331E+04  6.646087E+02 -7.159985E+04 -1.137553E-09  1.391625E-09
       369  15 -1.893402E+05 -2.503045E+04  1.496333E+03 -7.013572E+04  2.227843E-09 -3.607276E-09
       369  16 -1.584954E+05 -1.407608E+04  8.905570E+03 -6.142444E+04 -4.409086E-10  2.686939E-09
       369  17 -1.556773E+05 -1.517092E+04  9.579674E+03 -6.271595E+04  4.856000E-09  4.121780E-09
       369  18 -1.554446E+05 -1.212054E+04  1.082755E+04 -6.079892E+04  3.433185E-09 -6.446118E-10
       369  19 -2.203963E+05 -3.747029E+04 -8.110607E+03 -7.828607E+04  4.034591E+02 -1.212967E+02
       369  20 -2.205205E+05 -3.977565E+04 -8.250556E+03 -8.048333E+04  7.799639E+02 -7.822639E+01
       369  21 -2.232347E+05 -3.794030E+04 -7.834998E+03 -7.947206E+04  1.124144E+03  5.041024E+01
       369  22 -1.894463E+05 -2.577321E+04  3.975254E+02 -6.985544E+04  3.860095E+02 -1.278863E+02
       369  23 -1.880994E+05 -2.747331E+04  6.646098E+02 -7.159985E+04  7.740659E+02 -8.045206E+01
       369  24 -1.893402E+05 -2.503045E+04  1.496335E+03 -7.013572E+04  1.129799E+03  5.254665E+01
       369  25 -1.584954E+05 -1.407608E+04  8.905570E+03 -6.142444E+04  3.685589E+02 -1.344763E+02
       369  26 -1.556773E+05 -1.517092E+04  9.579675E+03 -6.271595E+04  7.681676E+02 -8.267785E+01
       369  27 -1.554446E+05 -1.212054E+04  1.082756E+04 -6.079892E+04  1.135454E+03  5.468319E+01
       370   1 -2.393986E+05 -4.476952E+04 -1.198489E+04 -8.327382E+04 -1.503153E+03 -5.931813E+01
       370   2 -2.402464E+05 -4.801707E+04 -1.131082E+04 -8.551684E+04 -3.066981E+03 -4.986850E+02
       370   3 -2.409641E+05 -4.140686E+04 -7.558651E+03 -8.642971E+04 -4.440580E+03 -1.442418E+03
       370   4 -1.890413E+05 -2.591688E+04  1.817324E+03 -6.973874E+04 -1.451444E+03 -3.980364E+01
       370   5 -1.887640E+05 -2.840213E+04  2.856299E+03 -7.132781E+04 -3.083376E+03 -5.048748E+02
       370   6 -1.883434E+05 -2.101641E+04  7.027179E+03 -7.158659E+04 -4.525088E+03 -1.474295E+03
       370   7 -1.386815E+05 -7.064087E+03  1.561932E+04 -5.620267E+04 -1.399730E+03 -2.028742E+01
       370   8 -1.372791E+05 -8.787038E+03  1.702317E+04 -5.713773E+04 -3.099771E+03 -5.110651E+02
       370   9 -1.357201E+05 -6.258058E+02  2.161273E+04 -5.674236E+04 -4.609603E+03 -1.506175E+03
       370  10 -2.393986E+05 -4.476952E+04 -1.198489E+04 -8.327382E+04  1.727617E-10 -4.858201E-09
       370  11 -2.402464E+05 -4.801707E+04 -1.131084E+04 -8.551685E+04 -7.671747E-10 -3.134030E-09
       370  12 -2.409642E+05 -4.140687E+04 -7.558692E+03 -8.642971E+04  8.319948E-11 -3.076438E-09
       370  13 -1.890413E+05 -2.591688E+04  1.817320E+03 -6.973874E+04 -8.608593E-10 -4.558160E-09
       370  14 -1.887640E+05 -2.840213E+04  2.856281E+03 -7.132782E+04  1.161875E-09  2.636348E-09
       370  15 -1.883434E+05 -2.101642E+04  7.027136E+03 -7.158660E+04  4.412262E-10  4.088477E-09
       370  16 -1.386815E+05 -7.064087E+03  1.561932E+04 -5.620267E+04  1.287595E-09  1.248829E-09
       370  17 -1.372791E+05 -8.787041E+03  1.702315E+04 -5.713773E+04 -1.738372E-09  5.301205E-09
       370  18 -1.357202E+05 -6.258139E+02  2.161268E+04 -5.674237E+04 -6.235060E-10  3.105616E-09
       370  19 -2.393986E+05 -4.476952E+04 -1.198489E+04 -8.327382E+04  1.503153E+03  5.931813E+01
       370  20 -2.402464E+05 -4.801707E+04 -1.131082E+04 -8.551684E+04  3.066981E+03  4.986850E+02
       370  21 -2.409641E+05 -4.140686E+04 -7.558651E+03 -8.642971E+04  4.440580E+03  1.442418E+03
       370  22 -1.890413E+05 -2.591688E+04  1.817324E+03 -6.973874E+04  1.451444E+03  3.980364E+01
       370  23 -1.887640E+05 -2.840213E+04  2.856299E+03 -7.132781E+04  3.083376E+03  5.048748E+02
       370  24 -1.883434E+05 -2.101641E+04  7.027179E+03 -7.158659E+04  4.525088E+03  1.474295E+03
       370  25 -1.386815E+05 -7.064087E+03  1.561932E+04 -5.620267E+04  1.399730E+03  2.028742E+01
       370  26 -1.372791E+05 -8.787038E+03  1.702317E+04 -5.713773E+04  3.099771E+03  5.110651E+02
       370  27 -1.357201E+05 -6.258058E+02  2.161273E+04 -5.674236E+04  4.609603E+03  1.506175E+03
       371   1 -1.555625E+05  1.389932E+04 -1.889899E+04 -1.747602E+04 -9.495588E+04 -5.325592E+03
       371   2 -1.714616E+05  1.404214E+05  5.321907E+04 -6.045475E+03 -6.498056E+04 -1.553074E+04
       371   3 -2.278679E+05  1.199527E+05  6.912390E+04  3.347171E+04 -3.503309E+04 -1.427875E+04
       371   4 -6.863874E+05 -1.183650E+05 -1.500293E+05  1.749470E+04 -1.025717E+05 -5.347589E+03
       371   5 -6.656175E+05  1.784915E+04 -6.556142E+04  3.311365E+03 -6.712564E+04 -1.553784E+04
       371   6 -6.863416E+05  6.056296E+03 -4.114255E+04  1.721667E+04 -3.170529E+04 -1.426941E+04
       371   7 -1.216953E+06 -2.506457E+05 -2.811797E+05  5.243533E+04 -1.101810E+05 -5.370456E+03
       371   8 -1.159549E+06 -1.047406E+05 -1.843592E+05  1.266059E+04 -6.926899E+04 -1.554501E+04
       371   9 -1.144622E+06 -1.078545E+05 -1.514238E+05  9.735461E+02 -2.837994E+04 -1.426023E+04
       371  10 -1.555722E+05  1.389687E+04 -1.891599E+04 -1.747643E+04 -2.895795E-09  1.937407E-09
       371  11 -1.714662E+05  1.404201E+05  5.321068E+04 -6.046288E+03 -2.598979E-09  9.750643E-09
       371  12 -2.278692E+05  1.199522E+05  6.912121E+04  3.347131E+04 -4.424684E-09  3.600745E-09
       371  13 -6.863987E+05 -1.183679E+05 -1.500492E+05  1.749425E+04  5.379705E-10 -1.218900E-09
       371  14 -6.656224E+05  1.784768E+04 -6.557035E+04  3.310524E+03  4.241143E-10 -6.522946E-09
       371  15 -6.863428E+05  6.055807E+03 -4.114483E+04  1.721630E+04 -4.954855E-10  1.250015E-09
       371  16 -1.216966E+06 -2.506490E+05 -2.812026E+05  5.243486E+04  2.702121E-09 -1.197969E-11
       371  17 -1.159555E+06 -1.047421E+05 -1.843687E+05  1.265972E+04  2.215065E-09  8.722851E-09
       371  18 -1.144623E+06 -1.078549E+05 -1.514257E+05  9.732200E+02  3.258121E-09 -1.144905E-09
       371  19 -1.555625E+05  1.389932E+04 -1.889899E+04 -1.747602E+04  9.495588E+04  5.325592E+03
       371  20 -1.714616E+05  1.404214E+05  5.321907E+04 -6.045475E+03  6.498056E+04  1.553074E+04
       371  21 -2.278679E+05  1.199527E+05  6.912390E+04  3.347171E+04  3.503309E+04  1.427875E+04
       371  22 -6.863874E+05 -1.183650E+05 -1.500293E+05  1.749470E+04  1.025717E+05  5.347589E+03
       371  23 -6.656175E+05  1.784915E+04 -6.556142E+04  3.311365E+03  6.712564E+04  1.553784E+04
       371  24 -6.863416E+05  6.056296E+03 -4.114255E+04  1.721667E+04  3.170529E+04  1.426941E+04
       371  25 -1.216953E+06 -2.506457E+05 -2.811797E+05  5.243533E+04  1.101810E+05  5.370456E+03
       371  26 -1.159549E+06 -1.047406E+05 -1.843592E+05  1.266059E+04  6.926899E+04  1.554501E+04
       371  27 -1.144622E+06 -1.078545E+05 -1.514238E+05  9.735461E+02  2.837994E+04  1.426023E+04
       372   1 -2.720749E+05  8.804012E+04  6.432382E+04  1.493938E+04 -2.534941E+04 -1.177059E+04
       372   2 -3.068102E+05  9.355814E+04  7.175313E+04  2.936970E+03 -1.704893E+04 -1.119395E+04
       372   3 -3.466728E+05  8.311887E+04  6.977716E+04  2.015874E+04 -8.752876E+03 -9.693042E+03
       372   4 -6.782753E+05 -1.280860E+04 -3.361965E+04  1.758732E+04 -2.529496E+04 -1.177108E+04
       372   5 -6.756651E+05  1.995577E+03 -1.702795E+04  2.954285E+03 -1.655616E+04 -1.119286E+04
       372   6 -6.782640E+05  7.606647E+02 -1.015080E+04  1.754672E+04 -7.821297E+03 -9.690206E+03
       372   7 -1.084325E+06 -1.136693E+05 -1.315749E+05  2.023341E+04 -2.524056E+04 -1.177157E+04
       372   8 -1.044395E+06 -8.957691E+04 -1.058187E+05  2.971493E+03 -1.606369E+04 -1.119178E+04
       372   9 -1.009754E+06 -8.160555E+04 -9.008661E+04  1.493601E+04 -6.890213E+03 -9.687377E+03
       372  10 -2.720756E+05  8.803979E+04  6.432235E+04  1.493914E+04  3.494718E-09 -1.643172E-09
       372  11 -3.068105E+05  9.355793E+04  7.175235E+04  2.936816E+03  2.269221E-09  3.227658E-09
       372  12 -3.466729E+05  8.311874E+04  6.977684E+04  2.015867E+04  3.288130E-09  8.342955E-09
       372  13 -6.782760E+05 -1.280892E+04 -3.362111E+04  1.758708E+04  1.029494E-09  6.951627E-09
       372  14 -6.756654E+05  1.995369E+03 -1.702870E+04  2.954136E+03 -7.143164E-10 -1.833490E-08
       372  15 -6.782641E+05  7.605475E+02 -1.015109E+04  1.754666E+04  2.184341E-09  7.039602E-09
       372  16 -1.084325E+06 -1.136697E+05 -1.315764E+05  2.023317E+04 -2.849356E-09 -6.940689E-09
       372  17 -1.044396E+06 -8.957712E+04 -1.058195E+05  2.971348E+03 -1.840851E-09 -3.425852E-09
       372  18 -1.009755E+06 -8.160566E+04 -9.008687E+04  1.493596E+04 -3.340455E-09 -4.026038E-11
       372  19 -2.720749E+05  8.804012E+04  6.432382E+04  1.493938E+04  2.534941E+04  1.177059E+04
       372  20 -3.068102E+05  9.355814E+04  7.175313E+04  2.936970E+03  1.704893E+04  1.119395E+04
       372  21 -3.466728E+05  8.311887E+04  6.977716E+04  2.015874E+04  8.752876E+03  9.693042E+03
       372  22 -6.782753E+05 -1.280860E+04 -3.361965E+04  1.758732E+04  2.529496E+04  1.177108E+04
       372  23 -6.756651E+05  1.995577E+03 -1.702795E+04  2.954285E+03  1.655616E+04  1.119286E+04
       372  24 -6.782640E+05  7.606647E+02 -1.015080E+04  1.754672E+04  7.821297E+03  9.690206E+03
       372  25 -1.084325E+06 -1.136693E+05 -1.315749E+05  2.023341E+04  2.524056E+04  1.177157E+04
       372  26 -1.044395E+06 -8.957691E+04 -1.058187E+05  2.971493E+03  1.606369E+04  1.119178E+04
       372  27 -1.009754E+06 -8.160555E+04 -9.008661E+04  1.493601E+04  6.890213E+03  9.687377E+03
       373   1 -3.996176E+05  6.764824E+04  5.878610E+04  1.816625E+04 -6.897383E+03 -8.679785E+03
       373   2 -4.374054E+05  5.969574E+04  5.329657E+04  3.354471E+03 -4.758524E+03 -7.227076E+03
       373   3 -4.760575E+05  5.019811E+04  4.598486E+04  1.851337E+04 -2.620859E+03 -5.689950E+03
       373   4 -6.772919E+05 -1.270666E+03 -7.968604E+03  1.772903E+04 -6.222451E+03 -8.677685E+03
       373   5 -6.768535E+05  2.453255E+02 -4.349455E+03  2.740699E+03 -4.043990E+03 -7.224663E+03
       373   6 -6.772875E+05  2.090870E+02 -2.580423E+03  1.772378E+04 -1.866593E+03 -5.687206E+03
       373   7 -9.548956E+05 -7.019519E+04 -7.472880E+04  1.729193E+04 -5.547818E+03 -8.675586E+03
       373   8 -9.162491E+05 -5.920927E+04 -6.199957E+04  2.127118E+03 -3.329731E+03 -7.222251E+03
       373   9 -8.784805E+05 -4.978290E+04 -5.114861E+04  1.693442E+04 -1.112571E+03 -5.684464E+03
       373  10 -3.996177E+05  6.764815E+04  5.878587E+04  1.816621E+04  7.747822E-09 -3.468295E-09
       373  11 -4.374054E+05  5.969568E+04  5.329643E+04  3.354443E+03  3.211953E-10 -4.156763E-09
       373  12 -4.760575E+05  5.019808E+04  4.598479E+04  1.851336E+04 -9.325504E-09 -4.376945E-09
       373  13 -6.772920E+05 -1.270757E+03 -7.968818E+03  1.772898E+04  2.959744E-09 -1.202100E-09
       373  14 -6.768535E+05  2.452651E+02 -4.349584E+03  2.740676E+03 -1.116506E-09 -4.794297E-09
       373  15 -6.772875E+05  2.090514E+02 -2.580490E+03  1.772378E+04  6.134505E-10 -1.702140E-09
       373  16 -9.548956E+05 -7.019528E+04 -7.472900E+04  1.729189E+04 -9.503509E-09 -6.717473E-09
       373  17 -9.162491E+05 -5.920933E+04 -6.199969E+04  2.127098E+03  1.134171E-09  7.699038E-09
       373  18 -8.784805E+05 -4.978293E+04 -5.114867E+04  1.693441E+04  8.257827E-09  1.122508E-08
       373  19 -3.996176E+05  6.764824E+04  5.878610E+04  1.816625E+04  6.897383E+03  8.679785E+03
       373  20 -4.374054E+05  5.969574E+04  5.329657E+04  3.354471E+03  4.758524E+03  7.227076E+03
       373  21 -4.760575E+05  5.019811E+04  4.598486E+04  1.851337E+04  2.620859E+03  5.689950E+03
       373  22 -6.772919E+05 -1.270666E+03 -7.968604E+03  1.772903E+04  6.222451E+03  8.677685E+03
       373  23 -6.768535E+05  2.453255E+02 -4.349455E+03  2.740699E+03  4.043990E+03  7.224663E+03
       373  24 -6.772875E+05  2.090870E+02 -2.580423E+03  1.772378E+04  1.866593E+03  5.687206E+03
       373  25 -9.548956E+05 -7.019519E+04 -7.472880E+04  1.729193E+04  5.547818E+03  8.675586E+03
       373  26 -9.162491E+05 -5.920927E+04 -6.199957E+04  2.127118E+03  3.329731E+03  7.222251E+03
       373  27 -8.784805E+05 -4.978290E+04 -5.114861E+04  1.693442E+04  1.112571E+03  5.684464E+03
       374   1 -5.309188E+05  3.628522E+04  3.306678E+04  1.823185E+04 -2.192398E+03 -4.782063E+03
       374   2 -5.694991E+05  2.674880E+04  2.462859E+04  2.946112E+03 -1.581243E+03 -3.241758E+03
       374   3 -6.084326E+05  1.724197E+04  1.573939E+04  1.805126E+04 -9.705367E+02 -1.690445E+03
       374   4 -6.771673E+05 -4.784880E+00 -2.028323E+03  1.781914E+04 -1.457105E+03 -4.779299E+03
       374   5 -6.769887E+05  5.852677E+01 -1.251527E+03  2.623243E+03 -8.408215E+02 -3.238895E+03
       374   6 -6.771656E+05  1.506186E+02 -9.293029E+02  1.781854E+04 -2.249479E+02 -1.687478E+03
       374   7 -8.233961E+05 -3.629635E+04 -3.712494E+04  1.740652E+04 -7.219850E+02 -4.776535E+03
       374   8 -7.844677E+05 -2.663259E+04 -2.713246E+04  2.300420E+03 -1.005276E+02 -3.236032E+03
       374   9 -7.458943E+05 -1.694108E+04 -1.759833E+04  1.758585E+04  5.205586E+02 -1.684510E+03
       374  10 -5.309189E+05  3.628520E+04  3.306673E+04  1.823184E+04 -6.393597E-09 -9.881984E-09
       374  11 -5.694991E+05  2.674878E+04  2.462856E+04  2.946108E+03 -4.526997E-09  1.830115E-09
       374  12 -6.084326E+05  1.724197E+04  1.573938E+04  1.805126E+04 -7.210689E-10  9.244660E-10
       374  13 -6.771673E+05 -4.809970E+00 -2.028370E+03  1.781914E+04  2.024593E-09  2.885841E-09
       374  14 -6.769887E+05  5.851532E+01 -1.251548E+03  2.623241E+03 -1.079678E-09 -1.185786E-08
       374  15 -6.771656E+05  1.506156E+02 -9.293084E+02  1.781854E+04  1.649771E-09 -5.256645E-09
       374  16 -8.233962E+05 -3.629637E+04 -3.712499E+04  1.740652E+04  5.507210E-09  5.746203E-09
       374  17 -7.844677E+05 -2.663260E+04 -2.713248E+04  2.300420E+03  4.790597E-09  1.125151E-08
       374  18 -7.458943E+05 -1.694109E+04 -1.759834E+04  1.758585E+04  1.044780E-09  3.067543E-09
       374  19 -5.309188E+05  3.628522E+04  3.306678E+04  1.823185E+04  2.192398E+03  4.782063E+03
       374  20 -5.694991E+05  2.674880E+04  2.462859E+04  2.946112E+03  1.581243E+03  3.241758E+03
       374  21 -6.084326E+05  1.724197E+04  1.573939E+04  1.805126E+04  9.705367E+02  1.690445E+03
       374  22 -6.771673E+05 -4.784880E+00 -2.028323E+03  1.781914E+04  1.457105E+03  4.779299E+03
       374  23 -6.769887E+05  5.852677E+01 -1.251527E+03  2.623243E+03  8.408215E+02  3.238895E+03
       374  24 -6.771656E+05  1.506186E+02 -9.293029E+02  1.781854E+04  2.249479E+02  1.687478E+03
       374  25 -8.233961E+05 -3.629635E+04 -3.712494E+04  1.740652E+04  7.219850E+02  4.776535E+03
       374  26 -7.844677E+05 -2.663259E+04 -2.713246E+04  2.300420E+03  1.005276E+02  3.236032E+03
       374  27 -7.458943E+05 -1.694108E+04 -1.759833E+04  1.758585E+04 -5.205586E+02  1.684510E+03
       375   1 -6.638807E+05  3.416353E+03  2.199469E+03  1.786647E+04 -8.113320E+02 -7.843413E+02
       375   2 -7.025914E+05 -6.304079E+03 -7.134820E+03  2.516750E+03 -3.324492E+02  7.694784E+02
       375   3 -7.416420E+05 -1.593360E+04 -1.682288E+04  1.765852E+04  1.465069E+02  2.317504E+03
       375   4 -6.771612E+05  1.425086E+02 -8.790638E+02  1.784090E+04 -6.564481E+01 -7.813508E+02
       375   5 -6.769908E+05  5.323113E+01 -9.705266E+02  2.595373E+03  4.104436E+02  7.724356E+02
       375   6 -6.771616E+05  5.531984E+01 -1.413862E+03  1.784125E+04  8.866354E+02  2.320433E+03
       375   7 -6.904415E+05 -3.131348E+03 -3.957607E+03  1.781533E+04  6.800265E+02 -7.783604E+02
       375   8 -6.513895E+05  6.410494E+03  5.193722E+03  2.673999E+03  1.153367E+03  7.753928E+02
       375   9 -6.126774E+05  1.604394E+04  1.399486E+04  1.802399E+04  1.626841E+03  2.323363E+03
       375  10 -6.638807E+05  3.416353E+03  2.199467E+03  1.786647E+04  5.506762E-10  9.156381E-11
       375  11 -7.025914E+05 -6.304080E+03 -7.134821E+03  2.516750E+03 -1.580692E-09 -7.352341E-09
       375  12 -7.416420E+05 -1.593360E+04 -1.682289E+04  1.765851E+04 -7.473341E-09 -6.118593E-09
       375  13 -6.771612E+05  1.425080E+02 -8.790650E+02  1.784090E+04  2.697812E-09  7.985038E-09
       375  14 -6.769908E+05  5.323044E+01 -9.705280E+02  2.595373E+03 -4.257400E-09 -1.055114E-08
       375  15 -6.771616E+05  5.531385E+01 -1.413873E+03  1.784124E+04  1.868481E-09 -3.181736E-09
       375  16 -6.904415E+05 -3.131349E+03 -3.957609E+03  1.781533E+04 -2.158093E-10  3.257636E-09
       375  17 -6.513895E+05  6.410493E+03  5.193718E+03  2.673999E+03  4.277556E-09 -1.462645E-08
       375  18 -6.126775E+05  1.604393E+04  1.399485E+04  1.802399E+04  7.874078E-09 -6.651730E-09
       375  19 -6.638807E+05  3.416353E+03  2.199469E+03  1.786647E+04  8.113320E+02  7.843413E+02
       375  20 -7.025914E+05 -6.304079E+03 -7.134820E+03  2.516750E+03  3.324492E+02 -7.694784E+02
       375  21 -7.416420E+05 -1.593360E+04 -1.682288E+04  1.765852E+04 -1.465069E+02 -2.317504E+03
       375  22 -6.771612E+05  1.425086E+02 -8.790638E+02  1.784090E+04  6.564481E+01  7.813508E+02
       375  23 -6.769908E+05  5.323113E+01 -9.705266E+02  2.595373E+03 -4.104436E+02 -7.724356E+02
       375  24 -6.771616E+05  5.531984E+01 -1.413862E+03  1.784125E+04 -8.866354E+02 -2.320433E+03
       375  25 -6.904415E+05 -3.131348E+03 -3.957607E+03  1.781533E+04 -6.800265E+02  7.783604E+02
       375  26 -6.513895E+05  6.410494E+03  5.193722E+03  2.673999E+03 -1.153367E+03 -7.753928E+02
       375  27 -6.126774E+05  1.604394E+04  1.399486E+04  1.802399E+04 -1.626841E+03 -2.323363E+03
       376   1 -7.970514E+05 -2.958544E+04 -3.072366E+04  1.729472E+04  4.101533E+02  3.229575E+03
       376   2 -8.353026E+05 -3.916247E+04 -4.102305E+04  2.229703E+03  1.882798E+03  4.778373E+03
       376   3 -8.742373E+05 -4.967582E+04 -5.257185E+04  1.742995E+04  3.356172E+03  6.256988E+03
       376   4 -6.772394E+05  1.936777E+02 -1.754006E+03  1.778948E+04  1.167063E+03  3.232520E+03
       376   5 -6.769017E+05  1.751022E+02 -2.879743E+03  2.658910E+03  2.606371E+03  4.781066E+03
       376   6 -6.772423E+05 -7.735474E+02 -5.231207E+03  1.779312E+04  4.046500E+03  6.259442E+03
       376   7 -5.574142E+05  2.997174E+04  2.721462E+04  1.828432E+04  1.924118E+03  3.235467E+03
       376   8 -5.184777E+05  3.951084E+04  3.526178E+04  3.088204E+03  3.330129E+03  4.783760E+03
       376   9 -4.802117E+05  4.812590E+04  4.210668E+04  1.815639E+04  4.737045E+03  6.261896E+03
       376  10 -7.970514E+05 -2.958545E+04 -3.072368E+04  1.729472E+04 -7.545333E-09  5.358157E-10
       376  11 -8.353026E+05 -3.916250E+04 -4.102310E+04  2.229696E+03 -1.997267E-09 -2.911777E-09
       376  12 -8.742374E+05 -4.967587E+04 -5.257194E+04  1.742993E+04 -1.566374E-10  3.405917E-09
       376  13 -6.772394E+05  1.936662E+02 -1.754028E+03  1.778947E+04  2.095826E-09 -2.756830E-09
       376  14 -6.769017E+05  1.750759E+02 -2.879799E+03  2.658899E+03 -3.131970E-09 -2.696642E-10
       376  15 -6.772423E+05 -7.735938E+02 -5.231311E+03  1.779310E+04  1.250883E-09  1.075141E-08
       376  16 -5.574142E+05  2.997173E+04  2.721459E+04  1.828431E+04  4.516799E-09  7.703253E-09
       376  17 -5.184777E+05  3.951082E+04  3.526171E+04  3.088191E+03  3.161815E-09 -5.046833E-09
       376  18 -4.802117E+05  4.812585E+04  4.210656E+04  1.815636E+04 -6.431224E-10  9.144442E-09
       376  19 -7.970514E+05 -2.958544E+04 -3.072366E+04  1.729472E+04 -4.101533E+02 -3.229575E+03
       376  20 -8.353026E+05 -3.916247E+04 -4.102305E+04  2.229703E+03 -1.882798E+03 -4.778373E+03
       376  21 -8.742373E+05 -4.967582E+04 -5.257185E+04  1.742995E+04 -3.356172E+03 -6.256988E+03
       376  22 -6.772394E+05  1.936777E+02 -1.754006E+03  1.778948E+04 -1.167063E+03 -3.232520E+03
       376  23 -6.769017E+05  1.751022E+02 -2.879743E+03  2.658910E+03 -2.606371E+03 -4.781066E+03
       376  24 -6.772423E+05 -7.735474E+02 -5.231207E+03  1.779312E+04 -4.046500E+03 -6.259442E+03
       376  25 -5.574142E+05  2.997174E+04  2.721462E+04  1.828432E+04 -1.924118E+03 -3.235467E+03
       376  26 -5.184777E+05  3.951084E+04  3.526178E+04  3.088204E+03 -3.330129E+03 -4.783760E+03
       376  27 -4.802117E+05  4.812590E+04  4.210668E+04  1.815639E+04 -4.737045E+03 -6.261896E+03
       377   1 -9.294863E+05 -6.196552E+04 -6.734982E+04  1.581236E+04  4.181485E+03  7.261920E+03
       377   2 -9.656139E+05 -7.057233E+04 -8.084363E+04  2.640620E+03  1.027310E+04  8.785151E+03
       377   3 -1.005306E+06 -8.964896E+04 -1.009589E+05  1.919102E+04  1.636787E+04  9.511776E+03
       377   4 -6.778753E+05  5.550242E+02 -6.651706E+03  1.766043E+04  5.093643E+03  7.265075E+03
       377   5 -6.761302E+05  1.317052E+03 -1.113979E+04  2.814623E+03  1.080572E+04  8.786719E+03
       377   6 -6.778835E+05 -8.321827E+03 -2.198316E+04  1.769019E+04  1.652133E+04  9.511893E+03
       377   7 -4.262063E+05  6.307095E+04  5.404188E+04  1.950920E+04  6.006169E+03  7.268235E+03
       377   8 -3.865697E+05  7.320032E+04  5.855806E+04  2.988642E+03  1.133859E+04  8.788287E+03
       377   9 -3.503623E+05  7.299748E+04  5.698495E+04  1.618848E+04  1.667487E+04  9.512008E+03
       377  10 -9.294863E+05 -6.196558E+04 -6.734995E+04  1.581233E+04  4.896173E-09  2.008797E-09
       377  11 -9.656140E+05 -7.057244E+04 -8.084397E+04  2.640547E+03 -3.049019E-09  6.270057E-09
       377  12 -1.005307E+06 -8.964912E+04 -1.009596E+05  1.919089E+04 -1.497746E-09 -5.271121E-09
       377  13 -6.778754E+05  5.549606E+02 -6.651854E+03  1.766040E+04  1.354053E-09 -2.264232E-09
       377  14 -6.761303E+05  1.316938E+03 -1.114016E+04  2.814547E+03 -4.747434E-09  4.337970E-09
       377  15 -6.778838E+05 -8.321997E+03 -2.198384E+04  1.769006E+04  8.378728E-10 -4.832845E-09
       377  16 -4.262064E+05  6.307089E+04  5.404171E+04  1.950917E+04 -5.718931E-09 -4.467751E-09
       377  17 -3.865699E+05  7.320020E+04  5.855768E+04  2.988562E+03  2.109156E-09 -1.838366E-08
       377  18 -3.503626E+05  7.299731E+04  5.698425E+04  1.618836E+04  6.669643E-10  1.153259E-09
       377  19 -9.294863E+05 -6.196552E+04 -6.734982E+04  1.581236E+04 -4.181485E+03 -7.261920E+03
       377  20 -9.656139E+05 -7.057233E+04 -8.084363E+04  2.640620E+03 -1.027310E+04 -8.785151E+03
       377  21 -1.005306E+06 -8.964896E+04 -1.009589E+05  1.919102E+04 -1.636787E+04 -9.511776E+03
       377  22 -6.778753E+05  5.550242E+02 -6.651706E+03  1.766043E+04 -5.093643E+03 -7.265075E+03
       377  23 -6.761302E+05  1.317052E+03 -1.113979E+04  2.814623E+03 -1.080572E+04 -8.786719E+03
       377  24 -6.778835E+05 -8.321827E+03 -2.198316E+04  1.769019E+04 -1.652133E+04 -9.511893E+03
       377  25 -4.262063E+05  6.307095E+04  5.404188E+04  1.950920E+04 -6.006169E+03 -7.268235E+03
       377  26 -3.865697E+05  7.320032E+04  5.855806E+04  2.988642E+03 -1.133859E+04 -8.788287E+03
       377  27 -3.503623E+05  7.299748E+04  5.698495E+04  1.618848E+04 -1.667487E+04 -9.512008E+03
       378   1 -1.063895E+06 -9.061779E+04 -1.185277E+05  6.486202E+03  1.772882E+04  1.179471E+04
       378   2 -1.086876E+06 -9.189631E+04 -1.432231E+05  8.906154E+03  4.561551E+04  1.313078E+04
       378   3 -1.137879E+06 -1.907003E+05 -2.104784E+05  4.010767E+04  7.352698E+04  4.565149E+03
       378   4 -6.831507E+05  4.011124E+03 -2.689806E+04  1.739003E+04  2.070978E+04  1.180396E+04
       378   5 -6.695758E+05  1.167466E+04 -4.286323E+04  3.109740E+03  4.386347E+04  1.312465E+04
       378   6 -6.831829E+05 -7.733035E+04 -9.807905E+04  1.761141E+04  6.704389E+04  4.545063E+03
       378   7 -3.022733E+05  9.862988E+04  6.472135E+04  2.830048E+04  2.369257E+04  1.181331E+04
       378   8 -2.521160E+05  1.152331E+05  5.748422E+04 -2.690707E+03  4.211025E+04  1.311855E+04
       378   9 -2.282976E+05  3.602616E+04  1.430541E+04 -4.901496E+03  6.055603E+04  4.525456E+03
       378  10 -1.063895E+06 -9.061803E+04 -1.185286E+05  6.486034E+03  6.121403E-10 -6.331271E-09
       378  11 -1.086878E+06 -9.189705E+04 -1.432273E+05  8.905672E+03  2.413299E-09  1.273670E-09
       378  12 -1.137885E+06 -1.907018E+05 -2.104886E+05  4.010740E+04  2.781720E-09  5.053116E-09
       378  13 -6.831512E+05  4.010859E+03 -2.689913E+04  1.738983E+04 -4.787918E-10  2.270392E-09
       378  14 -6.695779E+05  1.167396E+04 -4.286718E+04  3.109276E+03 -1.549594E-09 -7.939461E-09
       378  15 -6.831877E+05 -7.733158E+04 -9.808754E+04  1.761116E+04  1.230708E-09  1.629067E-09
       378  16 -3.022740E+05  9.862958E+04  6.472004E+04  2.830025E+04 -2.448353E-09  6.729018E-09
       378  17 -2.521179E+05  1.152324E+05  5.748056E+04 -2.691152E+03 -1.867647E-09  7.585565E-09
       378  18 -2.283015E+05  3.602515E+04  1.429847E+04 -4.901716E+03 -2.667742E-09 -1.468383E-09
       378  19 -1.063895E+06 -9.061779E+04 -1.185277E+05  6.486202E+03 -1.772882E+04 -1.179471E+04
       378  20 -1.086876E+06 -9.189631E+04 -1.432231E+05  8.906154E+03 -4.561551E+04 -1.313078E+04
       378  21 -1.137879E+06 -1.907003E+05 -2.104784E+05  4.010767E+04 -7.352698E+04 -4.565149E+03
       378  22 -6.831507E+05  4.011124E+03 -2.689806E+04  1.739003E+04 -2.070978E+04 -1.180396E+04
       378  23 -6.695758E+05  1.167466E+04 -4.286323E+04  3.109740E+03 -4.386347E+04 -1.312465E+04
       378  24 -6.831829E+05 -7.733035E+04 -9.807905E+04  1.761141E+04 -6.704389E+04 -4.545063E+03
       378  25 -3.022733E+05  9.862988E+04  6.472135E+04  2.830048E+04 -2.369257E+04 -1.181331E+04
       378  26 -2.521160E+05  1.152331E+05  5.748422E+04 -2.690707E+03 -4.211025E+04 -1.311855E+04
       378  27 -2.282976E+05  3.602616E+04  1.430541E+04 -4.901496E+03 -6.055603E+04 -4.525456E+03
       379   1 -1.619592E+05 -6.286104E+05 -1.562222E+05  1.511094E+05 -6.468737E+03 -5.375933E+04
       379   2 -1.144207E+05 -5.020457E+05 -9.730263E+04  1.332948E+05 -2.029999E+04 -2.331943E+04
       379   3 -8.040954E+04 -3.826875E+05 -6.158883E+04  1.390413E+05 -2.053631E+04  7.155114E+03
       379   4 -1.801382E+04 -4.671340E+04 -1.888342E+04  1.391285E+05 -6.536502E+03 -1.428919E+04
       379   5 -5.269797E+03 -4.535096E+04 -8.510433E+03  1.273620E+05 -2.032118E+04 -9.924806E+03
       379   6 -1.517596E+03 -4.667623E+04 -3.220633E+03  1.391570E+05 -2.051493E+04 -5.532719E+03
       379   7  1.259087E+05  5.354988E+05  1.184379E+05  1.271363E+05 -6.605762E+03  2.521777E+04
       379   8  1.038688E+05  4.115446E+05  8.027259E+04  1.214247E+05 -2.034262E+04  3.479462E+03
       379   9  7.736833E+04  2.894461E+05  5.514423E+04  1.392727E+05 -2.049356E+04 -1.822721E+04
       379  10 -1.619600E+05 -6.286135E+05 -1.562277E+05  1.511092E+05 -5.994035E-10  2.492954E-09
       379  11 -1.144213E+05 -5.020464E+05 -9.730443E+04  1.332945E+05 -2.913573E-09  3.035491E-09
       379  12 -8.041000E+04 -3.826877E+05 -6.158972E+04  1.390414E+05 -1.714960E-09 -1.984484E-09
       379  13 -1.801392E+04 -4.671363E+04 -1.888389E+04  1.391284E+05 -4.409264E-10  1.082807E-09
       379  14 -5.270266E+03 -4.535118E+04 -8.511394E+03  1.273618E+05 -1.522741E-09 -5.210599E-09
       379  15 -1.518056E+03 -4.667638E+04 -3.221481E+03  1.391569E+05 -2.675242E-09  2.826155E-09
       379  16  1.259085E+05  5.354981E+05  1.184366E+05  1.271364E+05 -3.389480E-10  3.368235E-09
       379  17  1.038684E+05  4.115445E+05  8.027179E+04  1.214248E+05 -1.067331E-10 -6.802754E-09
       379  18  7.736779E+04  2.894457E+05  5.514281E+04  1.392724E+05 -3.774212E-09  2.867213E-09
       379  19 -1.619592E+05 -6.286104E+05 -1.562222E+05  1.511094E+05  6.468737E+03  5.375933E+04
       379  20 -1.144207E+05 -5.020457E+05 -9.730263E+04  1.332948E+05  2.029999E+04  2.331943E+04
       379  21 -8.040954E+04 -3.826875E+05 -6.158883E+04  1.390413E+05  2.053631E+04 -7.155114E+03
       379  22 -1.801382E+04 -4.671340E+04 -1.888342E+04  1.391285E+05  6.536502E+03  1.428919E+04
       379  23 -5.269797E+03 -4.535096E+04 -8.510433E+03  1.273620E+05  2.032118E+04  9.924806E+03
       379  24 -1.517596E+03 -4.667623E+04 -3.220633E+03  1.391570E+05  2.051493E+04  5.532719E+03
       379  25  1.259087E+05  5.354988E+05  1.184379E+05  1.271363E+05  6.605762E+03 -2.521777E+04
       379  26  1.038688E+05  4.115446E+05  8.027259E+04  1.214247E+05  2.034262E+04 -3.479462E+03
       379  27  7.736833E+04  2.894461E+05  5.514423E+04  1.392727E+05  2.049356E+04  1.822721E+04
       380   1 -6.165282E+04 -3.030140E+05 -4.525929E+04  1.398809E+05 -1.623522E+04  6.805976E+03
       380   2 -3.126277E+04 -1.802244E+05 -1.885583E+04  1.278705E+05 -9.641066E+03  6.709768E+03
       380   3 -4.187609E+02 -5.717866E+04  7.752866E+03  1.403206E+05 -2.421505E+03  6.614048E+03
       380   4 -1.433032E+03 -4.597013E+04 -1.265206E+03  1.393528E+05 -1.621559E+04 -5.251054E+03
       380   5 -1.545681E+02 -4.618979E+04  2.619659E+03  1.271253E+05 -9.620109E+03 -6.548768E+03
       380   6  1.787281E+03 -4.595894E+04  7.544623E+03  1.393580E+05 -2.399313E+03 -7.845982E+03
       380   7  5.878332E+04  2.111390E+05  4.272722E+04  1.388245E+05 -1.619594E+04 -1.731292E+04
       380   8  3.095282E+04  8.786306E+04  2.409533E+04  1.263800E+05 -9.599123E+03 -1.981006E+04
       380   9  3.993440E+03 -3.473862E+04  7.337183E+03  1.383954E+05 -2.377076E+03 -2.230625E+04
       380  10 -6.165312E+04 -3.030141E+05 -4.525987E+04  1.398810E+05  3.849335E-10  3.676163E-09
       380  11 -3.126288E+04 -1.802245E+05 -1.885609E+04  1.278705E+05 -1.005632E-09 -3.433184E-08
       380  12 -4.187790E+02 -5.717871E+04  7.752773E+03  1.403206E+05 -1.788971E-09 -6.706002E-08
       380  13 -1.433321E+03 -4.597023E+04 -1.265752E+03  1.393527E+05  8.040377E-11  1.077107E-09
       380  14 -1.546790E+02 -4.618987E+04  2.619405E+03  1.271253E+05  1.025676E-08 -2.227486E-09
       380  15  1.787259E+03 -4.595901E+04  7.544497E+03  1.393580E+05  1.610454E-08  1.199041E-09
       380  16  5.878295E+04  2.111386E+05  4.272616E+04  1.388243E+05 -3.136374E-09  1.454209E-09
       380  17  3.095262E+04  8.786262E+04  2.409442E+04  1.263799E+05 -2.930347E-10  2.773581E-08
       380  18  3.993300E+03 -3.473916E+04  7.336237E+03  1.383954E+05 -2.922766E-09  6.664646E-08
       380  19 -6.165282E+04 -3.030140E+05 -4.525929E+04  1.398809E+05  1.623522E+04 -6.805976E+03
       380  20 -3.126277E+04 -1.802244E+05 -1.885583E+04  1.278705E+05  9.641066E+03 -6.709768E+03
       380  21 -4.187609E+02 -5.717866E+04  7.752866E+03  1.403206E+05  2.421505E+03 -6.614048E+03
       380  22 -1.433032E+03 -4.597013E+04 -1.265206E+03  1.393528E+05  1.621559E+04  5.251054E+03
       380  23 -1.545681E+02 -4.618979E+04  2.619659E+03  1.271253E+05  9.620109E+03  6.548768E+03
       380  24  1.787281E+03 -4.595894E+04  7.544623E+03  1.393580E+05  2.399313E+03  7.845982E+03
       380  25  5.878332E+04  2.111390E+05  4.272722E+04  1.388245E+05  1.619594E+04  1.731292E+04
       380  26  3.095282E+04  8.786306E+04  2.409533E+04  1.263800E+05  9.599123E+03  1.981006E+04
       380  27  3.993440E+03 -3.473862E+04  7.337183E+03  1.383954E+05  2.377076E+03  2.230625E+04
       381   1  1.824503E+04  2.285941E+04  2.460351E+04  1.381243E+05  2.359388E+03  5.609881E+03
       381   2  5.604422E+04  1.413334E+05  6.026181E+04  1.392626E+05  6.282629E+03 -1.969391E+04
       381   3  1.166069E+05  2.689179E+05  1.181083E+05  1.644529E+05  2.587779E+03 -4.501676E+04
       381   4  1.967310E+03 -4.460152E+04  1.069735E+04  1.392596E+05  2.382130E+03 -9.160497E+03
       381   5  1.035313E+04 -4.788998E+04  2.078496E+04  1.272652E+05  6.283385E+03 -1.983465E+04
       381   6  3.896794E+04 -4.461584E+04  4.290553E+04  1.393210E+05  2.566551E+03 -3.052293E+04
       381   7 -1.431057E+04 -1.120577E+05 -3.208240E+03  1.403948E+05  2.404819E+03 -2.392930E+04
       381   8 -3.533969E+04 -2.370792E+05 -1.869379E+04  1.152716E+05  6.284147E+03 -1.997535E+04
       381   9 -3.867563E+04 -3.580577E+05 -3.230308E+04  1.142018E+05  2.544146E+03 -1.603638E+04
       381  10  1.824501E+04  2.285937E+04  2.460344E+04  1.381243E+05 -1.577788E-09  7.179023E-08
       381  11  5.604408E+04  1.413330E+05  6.026101E+04  1.392627E+05 -3.034000E-10  3.892758E-08
       381  12  1.166063E+05  2.689157E+05  1.181045E+05  1.644530E+05  2.544590E-10 -4.014367E-11
       381  13  1.967281E+03 -4.460162E+04  1.069718E+04  1.392596E+05  1.385931E-08  1.015146E-09
       381  14  1.035298E+04 -4.789041E+04  2.078414E+04  1.272653E+05  1.024103E-08 -3.332875E-09
       381  15  3.896768E+04 -4.461684E+04  4.290377E+04  1.393210E+05  4.352300E-09  3.499381E-09
       381  16 -1.431073E+04 -1.120583E+05 -3.209328E+03  1.403948E+05 -3.250625E-09 -6.497123E-08
       381  17 -3.533984E+04 -2.370796E+05 -1.869462E+04  1.152717E+05  1.857141E-09 -4.619528E-08
       381  18 -3.867571E+04 -3.580580E+05 -3.230357E+04  1.142018E+05  2.975956E-10 -2.471767E-10
       381  19  1.824503E+04  2.285941E+04  2.460351E+04  1.381243E+05 -2.359388E+03 -5.609881E+03
       381  20  5.604422E+04  1.413334E+05  6.026181E+04  1.392626E+05 -6.282629E+03  1.969391E+04
       381  21  1.166069E+05  2.689179E+05  1.181083E+05  1.644529E+05 -2.587779E+03  4.501676E+04
       381  22  1.967310E+03 -4.460152E+04  1.069735E+04  1.392596E+05 -2.382130E+03  9.160497E+03
       381  23  1.035313E+04 -4.788998E+04  2.078496E+04  1.272652E+05 -6.283385E+03  1.983465E+04
       381  24  3.896794E+04 -4.461584E+04  4.290553E+04  1.393210E+05 -2.566551E+03  3.052293E+04
       381  25 -1.431057E+04 -1.120577E+05 -3.208240E+03  1.403948E+05 -2.404819E+03  2.392930E+04
       381  26 -3.533969E+04 -2.370792E+05 -1.869379E+04  1.152716E+05 -6.284147E+03  1.997535E+04
       381  27 -3.867563E+04 -3.580577E+05 -3.230308E+04  1.142018E+05 -2.544146E+03  1.603638E+04
       382   1  1.149558E+06  4.154467E+05  2.791534E+05  3.971307E+05  1.158800E+05  3.916479E+04
       382   2  1.106344E+06  2.361527E+05  1.685101E+05  4.026670E+05  7.576429E+04  1.498974E+04
       382   3  1.111223E+06  2.321593E+05  1.332577E+05  3.869890E+05  3.223616E+04 -1.391993E+02
       382   4  7.786555E+05  2.399008E+05  1.712624E+05  2.594934E+05  1.102393E+05  3.702753E+04
       382   5  7.461514E+05  9.037000E+04  7.124005E+04  2.936207E+05  7.421705E+04  1.440331E+04
       382   6  7.609647E+05  1.153838E+05  4.340170E+04  3.065245E+05  3.478004E+04  8.228747E+02
       382   7  4.078916E+05  6.438888E+04  6.335910E+04  1.219390E+05  1.046024E+05  3.489247E+04
       382   8  3.860849E+05 -5.539887E+04 -2.604131E+04  1.846336E+05  7.267078E+04  1.381731E+04
       382   9  4.108230E+05 -1.390821E+03 -4.646439E+04  2.260977E+05  3.732235E+04  1.784512E+03
       382  10  1.149543E+06  4.154414E+05  2.791253E+05  3.971271E+05 -1.865936E-09  2.397027E-09
       382  11  1.106338E+06  2.361509E+05  1.684989E+05  4.026661E+05 -2.725938E-09  6.195618E-09
       382  12  1.111222E+06  2.321591E+05  1.332557E+05  3.869890E+05 -4.021724E-09  4.307473E-10
       382  13  7.786421E+05  2.398961E+05  1.712370E+05  2.594901E+05  1.610315E-10 -4.719680E-09
       382  14  7.461454E+05  9.036830E+04  7.122933E+04  2.936199E+05 -3.506929E-09 -6.880209E-09
       382  15  7.609634E+05  1.153835E+05  4.339943E+04  3.065245E+05 -5.165822E-09  4.840867E-10
       382  16  4.078795E+05  6.438464E+04  6.333627E+04  1.219361E+05  1.035612E-09  4.088041E-09
       382  17  3.860791E+05 -5.540049E+04 -2.605159E+04  1.846328E+05 -1.148115E-09  8.506627E-09
       382  18  4.108215E+05 -1.391198E+03 -4.646701E+04  2.260976E+05 -1.982677E-09  8.986672E-09
       382  19  1.149558E+06  4.154467E+05  2.791534E+05  3.971307E+05 -1.158800E+05 -3.916479E+04
       382  20  1.106344E+06  2.361527E+05  1.685101E+05  4.026670E+05 -7.576429E+04 -1.498974E+04
       382  21  1.111223E+06  2.321593E+05  1.332577E+05  3.869890E+05 -3.223616E+04  1.391993E+02
       382  22  7.786555E+05  2.399008E+05  1.712624E+05  2.594934E+05 -1.102393E+05 -3.702753E+04
       382  23  7.461514E+05  9.037000E+04  7.124005E+04  2.936207E+05 -7.421705E+04 -1.440331E+04
       382  24  7.609647E+05  1.153838E+05  4.340170E+04  3.065245E+05 -3.478004E+04 -8.228747E+02
       382  25  4.078916E+05  6.438888E+04  6.335910E+04  1.219390E+05 -1.046024E+05 -3.489247E+04
       382  26  3.860849E+05 -5.539887E+04 -2.604131E+04  1.846336E+05 -7.267078E+04 -1.381731E+04
       382  27  4.108230E+05 -1.390821E+03 -4.646439E+04  2.260977E+05 -3.732235E+04 -1.784512E+03
       383   1  1.049106E+06  2.478183E+05  1.140909E+05  3.803253E+05  2.780032E+04  4.810326E+02
       383   2  1.027206E+06  2.112665E+05  8.820981E+04  3.661370E+05  1.853343E+04 -2.578392E+03
       383   3  9.968160E+05  2.093345E+05  7.405476E+04  3.662815E+05  8.983309E+03 -4.889523E+03
       383   4  7.555368E+05  1.332871E+05  3.536354E+04  2.959107E+05  2.779896E+04  4.799881E+02
       383   5  7.588140E+05  1.089793E+05  1.683373E+04  2.914057E+05  1.887294E+04 -2.450247E+03
       383   6  7.535356E+05  1.192289E+05  9.764364E+03  3.012329E+05  9.663238E+03 -4.632278E+03
       383   7  4.620504E+05  1.876290E+04 -4.337145E+04  2.115325E+05  2.779759E+04  4.789427E+02
       383   8  4.904912E+05  6.697014E+03 -5.454851E+04  2.167037E+05  1.921228E+04 -2.322165E+03
       383   9  5.103128E+05  2.912661E+04 -5.453093E+04  2.362071E+05  1.034287E+04 -4.375141E+03
       383  10  1.049106E+06  2.478181E+05  1.140895E+05  3.803253E+05  1.219949E-09  1.245043E-09
       383  11  1.027206E+06  2.112664E+05  8.820915E+04  3.661370E+05  1.334675E-09  3.487229E-09
       383  12  9.968159E+05  2.093345E+05  7.405456E+04  3.662816E+05 -2.714049E-09  6.865732E-09
       383  13  7.555360E+05  1.332869E+05  3.536209E+04  2.959106E+05  6.754977E-10  3.977947E-10
       383  14  7.588136E+05  1.089792E+05  1.683305E+04  2.914057E+05 -6.534369E-10 -1.927820E-08
       383  15  7.535355E+05  1.192289E+05  9.764148E+03  3.012330E+05  7.236642E-10  2.620831E-09
       383  16  4.620495E+05  1.876270E+04 -4.337290E+04  2.115325E+05 -1.449367E-10  8.473299E-09
       383  17  4.904908E+05  6.696909E+03 -5.454921E+04  2.167037E+05  7.233585E-09  8.347919E-10
       383  18  5.103126E+05  2.912656E+04 -5.453117E+04  2.362072E+05  9.008780E-10  1.105751E-08
       383  19  1.049106E+06  2.478183E+05  1.140909E+05  3.803253E+05 -2.780032E+04 -4.810326E+02
       383  20  1.027206E+06  2.112665E+05  8.820981E+04  3.661370E+05 -1.853343E+04  2.578392E+03
       383  21  9.968160E+05  2.093345E+05  7.405476E+04  3.662815E+05 -8.983309E+03  4.889523E+03
       383  22  7.555368E+05  1.332871E+05  3.536354E+04  2.959107E+05 -2.779896E+04 -4.799881E+02
       383  23  7.588140E+05  1.089793E+05  1.683373E+04  2.914057E+05 -1.887294E+04  2.450247E+03
       383  24  7.535356E+05  1.192289E+05  9.764364E+03  3.012329E+05 -9.663238E+03  4.632278E+03
       383  25  4.620504E+05  1.876290E+04 -4.337145E+04  2.115325E+05 -2.779759E+04 -4.789427E+02
       383  26  4.904912E+05  6.697014E+03 -5.454851E+04  2.167037E+05 -1.921228E+04  2.322165E+03
       383  27  5.103128E+05  2.912661E+04 -5.453093E+04  2.362071E+05 -1.034287E+04  4.375141E+03
       384   1  9.536496E+05  1.972723E+05  6.089451E+04  3.554501E+05  7.498471E+03 -4.571307E+03
       384   2  9.350737E+05  1.774248E+05  5.034443E+04  3.395200E+05  5.070492E+03 -4.285284E+03
       384   3  9.015841E+05  1.756310E+05  4.186878E+04  3.412218E+05  2.623014E+03 -3.949075E+03
       384   4  7.529186E+05  1.210946E+05  7.641133E+03  2.998741E+05  7.960427E+03 -4.396514E+03
       384   5  7.602678E+05  1.112938E+05  3.940161E+03  2.913525E+05  5.555708E+03 -4.101563E+03
       384   6  7.526987E+05  1.195431E+05  2.295910E+03  3.004629E+05  3.131398E+03 -3.756452E+03
       384   7  5.522260E+05  4.491917E+04 -4.561588E+04  2.443141E+05  8.422220E+03 -4.221784E+03
       384   8  5.854912E+05  4.516464E+04 -4.246682E+04  2.431972E+05  6.040775E+03 -3.917899E+03
       384   9  6.038345E+05  6.345645E+04 -3.727889E+04  2.597128E+05  3.639648E+03 -3.563880E+03
       384  10  9.536495E+05  1.972723E+05  6.089436E+04  3.554501E+05  2.057269E-09  3.314185E-09
       384  11  9.350737E+05  1.774247E+05  5.034435E+04  3.395200E+05  8.936578E-10 -4.550837E-09
       384  12  9.015841E+05  1.756310E+05  4.186874E+04  3.412218E+05 -7.262232E-09 -6.596906E-09
       384  13  7.529185E+05  1.210945E+05  7.640978E+03  2.998741E+05 -2.755147E-09 -1.765522E-10
       384  14  7.602678E+05  1.112938E+05  3.940071E+03  2.913525E+05  4.679326E-10 -7.826073E-09
       384  15  7.526986E+05  1.195430E+05  2.295865E+03  3.004629E+05 -4.040920E-09  9.169017E-10
       384  16  5.522259E+05  4.491913E+04 -4.561605E+04  2.443141E+05 -1.096130E-08  4.477085E-09
       384  17  5.854911E+05  4.516462E+04 -4.246692E+04  2.431972E+05 -3.815256E-09 -5.605781E-09
       384  18  6.038345E+05  6.345644E+04 -3.727894E+04  2.597128E+05  1.652453E-09  1.752403E-08
       384  19  9.536496E+05  1.972723E+05  6.089451E+04  3.554501E+05 -7.498471E+03  4.571307E+03
       384  20  9.350737E+05  1.774248E+05  5.034443E+04  3.395200E+05 -5.070492E+03  4.285284E+03
       384  21  9.015841E+05  1.756310E+05  4.186878E+04  3.412218E+05 -2.623014E+03  3.949075E+03
       384  22  7.529186E+05  1.210946E+05  7.641133E+03  2.998741E+05 -7.960427E+03  4.396514E+03
       384  23  7.602678E+05  1.112938E+05  3.940161E+03  2.913525E+05 -5.555708E+03  4.101563E+03
       384  24  7.526987E+05  1.195431E+05  2.295910E+03  3.004629E+05 -3.131398E+03  3.756452E+03
       384  25  5.522260E+05  4.491917E+04 -4.561588E+04  2.443141E+05 -8.422220E+03  4.221784E+03
       384  26  5.854912E+05  4.516464E+04 -4.246682E+04  2.431972E+05 -6.040775E+03  3.917899E+03
       384  27  6.038345E+05  6.345645E+04 -3.727889E+04  2.597128E+05 -3.639648E+03  3.563880E+03
       385   1  8.616155E+05  1.608778E+05  3.063610E+04  3.302651E+05  2.059085E+03 -3.422217E+03
       385   2  8.438156E+05  1.431939E+05  2.327227E+04  3.144180E+05  1.081832E+03 -2.550077E+03
       385   3  8.105439E+05  1.414213E+05  1.639931E+04  3.162028E+05  1.051477E+02 -1.680026E+03
       385   4  7.526654E+05  1.196734E+05  1.809237E+03  3.002348E+05  2.548299E+03 -3.236799E+03
       385   5  7.603919E+05  1.116469E+05  1.127405E+03  2.914458E+05  1.570208E+03 -2.364923E+03
       385   6  7.526461E+05  1.195322E+05  9.372261E+02  3.002888E+05  5.926585E+02 -1.495142E+03
       385   7  6.437271E+05  7.846972E+04 -2.701857E+04  2.702094E+05  3.037418E+03 -3.051417E+03
       385   8  6.769750E+05  8.010035E+04 -2.101806E+04  2.684765E+05  2.058513E+03 -2.179796E+03
       385   9  6.947514E+05  9.764318E+04 -1.452519E+04  2.843761E+05  1.080121E+03 -1.310277E+03
       385  10  8.616155E+05  1.608778E+05  3.063607E+04  3.302652E+05 -5.224413E-09 -1.192097E-09
       385  11  8.438156E+05  1.431939E+05  2.327226E+04  3.144180E+05 -2.234648E-09  5.600289E-09
       385  12  8.105439E+05  1.414213E+05  1.639931E+04  3.162028E+05  2.375455E-09 -1.258552E-09
       385  13  7.526654E+05  1.196733E+05  1.809205E+03  3.002349E+05 -3.300338E-09  2.790268E-09
       385  14  7.603919E+05  1.116469E+05  1.127390E+03  2.914458E+05 -7.360764E-09 -1.178967E-08
       385  15  7.526461E+05  1.195322E+05  9.372212E+02  3.002888E+05 -2.383515E-09 -1.133175E-08
       385  16  6.437271E+05  7.846971E+04 -2.701860E+04  2.702094E+05 -4.510815E-09  1.413932E-08
       385  17  6.769750E+05  8.010034E+04 -2.101808E+04  2.684765E+05 -2.960559E-09  1.324466E-08
       385  18  6.947514E+05  9.764318E+04 -1.452520E+04  2.843761E+05 -2.022710E-09 -8.920161E-10
       385  19  8.616155E+05  1.608778E+05  3.063610E+04  3.302651E+05 -2.059085E+03  3.422217E+03
       385  20  8.438156E+05  1.431939E+05  2.327227E+04  3.144180E+05 -1.081832E+03  2.550077E+03
       385  21  8.105439E+05  1.414213E+05  1.639931E+04  3.162028E+05 -1.051477E+02  1.680026E+03
       385  22  7.526654E+05  1.196734E+05  1.809237E+03  3.002348E+05 -2.548299E+03  3.236799E+03
       385  23  7.603919E+05  1.116469E+05  1.127405E+03  2.914458E+05 -1.570208E+03  2.364923E+03
       385  24  7.526461E+05  1.195322E+05  9.372261E+02  3.002888E+05 -5.926585E+02  1.495142E+03
       385  25  6.437271E+05  7.846972E+04 -2.701857E+04  2.702094E+05 -3.037418E+03  3.051417E+03
       385  26  6.769750E+05  8.010035E+04 -2.101806E+04  2.684765E+05 -2.058513E+03  2.179796E+03
       385  27  6.947514E+05  9.764318E+04 -1.452519E+04  2.843761E+05 -1.080121E+03  1.310277E+03
       386   1  7.713497E+05  1.265832E+05  5.825240E+03  3.054482E+05 -2.899927E+02 -1.109035E+03
       386   2  7.536964E+05  1.091540E+05 -5.193330E+02  2.896458E+05 -1.326024E+03 -2.661694E+02
       386   3  7.206884E+05  1.075676E+05 -6.319941E+03  2.913436E+05 -2.360723E+03  5.733950E+02
       386   4  7.526711E+05  1.195037E+05  9.579018E+02  3.002648E+05  1.968423E+02 -9.243892E+02
       386   5  7.603617E+05  1.116737E+05  1.249819E+03  2.914801E+05 -8.406998E+02 -8.210264E+01
       386   6  7.526971E+05  1.196866E+05  2.086883E+03  3.001954E+05 -1.876938E+03  7.568738E+02
       386   7  7.339928E+05  1.124242E+05 -3.909465E+03  2.950816E+05  6.836613E+02 -7.397490E+02
       386   8  7.670270E+05  1.141933E+05  3.018965E+03  2.933145E+05 -3.553708E+02  1.019660E+02
       386   9  7.847067E+05  1.318055E+05  1.049360E+04  3.090475E+05 -1.393127E+03  9.403626E+02
       386  10  7.713497E+05  1.265832E+05  5.825238E+03  3.054482E+05  9.620017E-10 -1.021901E-08
       386  11  7.536964E+05  1.091540E+05 -5.193364E+02  2.896458E+05 -2.714366E-11 -1.794243E-08
       386  12  7.206884E+05  1.075676E+05 -6.319952E+03  2.913436E+05 -9.874932E-10 -1.237312E-08
       386  13  7.526711E+05  1.195037E+05  9.579002E+02  3.002648E+05  3.578697E-10 -5.472491E-09
       386  14  7.603617E+05  1.116737E+05  1.249817E+03  2.914801E+05  5.558580E-11 -1.092734E-08
       386  15  7.526971E+05  1.196866E+05  2.086875E+03  3.001954E+05 -1.009865E-09  4.367978E-09
       386  16  7.339928E+05  1.124242E+05 -3.909467E+03  2.950816E+05  5.513775E-10  7.796846E-09
       386  17  7.670270E+05  1.141933E+05  3.018965E+03  2.933145E+05  6.624131E-10 -4.794411E-09
       386  18  7.847067E+05  1.318055E+05  1.049359E+04  3.090475E+05  1.177705E-09 -1.449911E-09
       386  19  7.713497E+05  1.265832E+05  5.825240E+03  3.054482E+05  2.899927E+02  1.109035E+03
       386  20  7.536964E+05  1.091540E+05 -5.193330E+02  2.896458E+05  1.326024E+03  2.661694E+02
       386  21  7.206884E+05  1.075676E+05 -6.319941E+03  2.913436E+05  2.360723E+03 -5.733950E+02
       386  22  7.526711E+05  1.195037E+05  9.579018E+02  3.002648E+05 -1.968423E+02  9.243892E+02
       386  23  7.603617E+05  1.116737E+05  1.249819E+03  2.914801E+05  8.406998E+02  8.210264E+01
       386  24  7.526971E+05  1.196866E+05  2.086883E+03  3.001954E+05  1.876938E+03 -7.568738E+02
       386  25  7.339928E+05  1.124242E+05 -3.909465E+03  2.950816E+05 -6.836613E+02  7.397490E+02
       386  26  7.670270E+05  1.141933E+05  3.018965E+03  2.933145E+05  3.553708E+02 -1.019660E+02
       386  27  7.847067E+05  1.318055E+05  1.049360E+04  3.090475E+05  1.393127E+03 -9.403626E+02
       387   1  6.813446E+05  9.268742E+04 -1.634657E+04  2.809885E+05 -3.008031E+03  1.056884E+03
       387   2  6.633485E+05  7.465865E+04 -2.108881E+04  2.647299E+05 -5.752747E+03  1.259183E+03
       387   3  6.308912E+05  7.472457E+04 -2.344080E+04  2.656485E+05 -8.480484E+03  1.417692E+03
       387   4  7.527921E+05  1.194688E+05  2.668219E+03  3.003957E+05 -2.509407E+03  1.245967E+03
       387   5  7.601518E+05  1.113391E+05  4.623496E+03  2.914581E+05 -5.274225E+03  1.440576E+03
       387   6  7.530540E+05  1.213079E+05  8.984797E+03  2.996974E+05 -8.022167E+03  1.591359E+03
       387   7  8.242446E+05  1.462505E+05  2.168262E+04  3.198049E+05 -2.010718E+03  1.435074E+03
       387   8  8.569643E+05  1.480203E+05  3.033502E+04  3.181900E+05 -4.795620E+03  1.622001E+03
       387   9  8.752311E+05  1.678923E+05  4.140910E+04  3.337523E+05 -7.563751E+03  1.765065E+03
       387  10  6.813446E+05  9.268742E+04 -1.634659E+04  2.809885E+05 -3.027005E-09 -7.163737E-09
       387  11  6.633485E+05  7.465864E+04 -2.108887E+04  2.647299E+05  7.872779E-10  2.037136E-09
       387  12  6.308911E+05  7.472455E+04 -2.344094E+04  2.656486E+05  1.972643E-09 -4.801478E-10
       387  13  7.527921E+05  1.194688E+05  2.668204E+03  3.003957E+05 -2.959257E-09  4.556408E-10
       387  14  7.601518E+05  1.113391E+05  4.623440E+03  2.914581E+05  6.126887E-10  3.756636E-09
       387  15  7.530539E+05  1.213079E+05  8.984672E+03  2.996974E+05 -6.161394E-10  9.765903E-09
       387  16  8.242446E+05  1.462505E+05  2.168261E+04  3.198049E+05  5.250993E-09  7.005016E-09
       387  17  8.569642E+05  1.480202E+05  3.033497E+04  3.181900E+05  5.578484E-10  2.154550E-08
       387  18  8.752311E+05  1.678923E+05  4.140899E+04  3.337523E+05 -2.376414E-09 -3.515989E-09
       387  19  6.813446E+05  9.268742E+04 -1.634657E+04  2.809885E+05  3.008031E+03 -1.056884E+03
       387  20  6.633485E+05  7.465865E+04 -2.108881E+04  2.647299E+05  5.752747E+03 -1.259183E+03
       387  21  6.308912E+05  7.472457E+04 -2.344080E+04  2.656485E+05  8.480484E+03 -1.417692E+03
       387  22  7.527921E+05  1.194688E+05  2.668219E+03  3.003957E+05  2.509407E+03 -1.245967E+03
       387  23  7.601518E+05  1.113391E+05  4.623496E+03  2.914581E+05  5.274225E+03 -1.440576E+03
       387  24  7.530540E+05  1.213079E+05  8.984797E+03  2.996974E+05  8.022167E+03 -1.591359E+03
       387  25  8.242446E+05  1.462505E+05  2.168262E+04  3.198049E+05  2.010718E+03 -1.435074E+03
       387  26  8.569643E+05  1.480203E+05  3.033502E+04  3.181900E+05  4.795620E+03 -1.622001E+03
       387  27  8.752311E+05  1.678923E+05  4.140910E+04  3.337523E+05  7.563751E+03 -1.765065E+03
       388   1  5.899473E+05  5.920099E+04 -3.169804E+04  2.582986E+05 -1.058858E+04  1.453244E+03
       388   2  5.706022E+05  3.663384E+04 -3.022658E+04  2.388330E+05 -2.106911E+04 -1.250800E+03
       388   3  5.445196E+05  5.123809E+04 -1.549122E+04  2.322915E+05 -3.132302E+04 -4.550583E+03
       388   4  7.538437E+05  1.190404E+05  1.148451E+04  3.012202E+05 -9.957581E+03  1.692334E+03
       388   5  7.583689E+05  1.087086E+05  1.981793E+04  2.916206E+05 -2.070927E+04 -1.114667E+03
       388   6  7.562073E+05  1.355971E+05  4.162679E+04  2.949446E+05 -3.123482E+04 -4.517617E+03
       388   7  9.177655E+05  1.788808E+05  5.466466E+04  3.441517E+05 -9.326400E+03  1.931488E+03
       388   8  9.461696E+05  1.807859E+05  6.985935E+04  3.444226E+05 -2.034930E+04 -9.784871E+02
       388   9  9.679388E+05  2.199606E+05  9.874096E+04  3.576176E+05 -3.114658E+04 -4.484637E+03
       388  10  5.899472E+05  5.920095E+04 -3.169825E+04  2.582987E+05 -5.255707E-09 -6.529777E-09
       388  11  5.706017E+05  3.663372E+04 -3.022741E+04  2.388330E+05 -1.602705E-09  1.338652E-08
       388  12  5.445186E+05  5.123781E+04 -1.549310E+04  2.322914E+05 -2.133347E-09 -5.648551E-11
       388  13  7.538436E+05  1.190403E+05  1.148432E+04  3.012203E+05 -5.248075E-10 -9.291374E-09
       388  14  7.583684E+05  1.087085E+05  1.981712E+04  2.916206E+05 -2.049480E-11  1.464921E-08
       388  15  7.562062E+05  1.355969E+05  4.162492E+04  2.949445E+05 -7.481942E-10 -2.171932E-09
       388  16  9.177654E+05  1.788808E+05  5.466449E+04  3.441517E+05  3.093760E-09 -6.476588E-10
       388  17  9.461692E+05  1.807858E+05  6.985858E+04  3.444226E+05 -1.617212E-09 -2.296917E-09
       388  18  9.679377E+05  2.199603E+05  9.873910E+04  3.576175E+05 -1.397565E-09  1.363801E-08
       388  19  5.899473E+05  5.920099E+04 -3.169804E+04  2.582986E+05  1.058858E+04 -1.453244E+03
       388  20  5.706022E+05  3.663384E+04 -3.022658E+04  2.388330E+05  2.106911E+04  1.250800E+03
       388  21  5.445196E+05  5.123809E+04 -1.549122E+04  2.322915E+05  3.132302E+04  4.550583E+03
       388  22  7.538437E+05  1.190404E+05  1.148451E+04  3.012202E+05  9.957581E+03 -1.692334E+03
       388  23  7.583689E+05  1.087086E+05  1.981793E+04  2.916206E+05  2.070927E+04  1.114667E+03
       388  24  7.562073E+05  1.355971E+05  4.162679E+04  2.949446E+05  3.123482E+04  4.517617E+03
       388  25  9.177655E+05  1.788808E+05  5.466466E+04  3.441517E+05  9.326400E+03 -1.931488E+03
       388  26  9.461696E+05  1.807859E+05  6.985935E+04  3.444226E+05  2.034930E+04  9.784871E+02
       388  27  9.679388E+05  2.199606E+05  9.874096E+04  3.576176E+05  3.114658E+04  4.484637E+03
       389   1  4.934618E+05  3.089521E+04 -1.681649E+04  2.518538E+05 -4.130925E+04 -6.377468E+03
       389   2  4.687645E+05 -2.852114E+04  8.867733E+03  2.068780E+05 -8.439203E+04 -2.140000E+04
       389   3  5.028634E+05  1.130932E+05  1.169565E+05  1.325192E+05 -1.247606E+05 -4.359087E+04
       389   4  7.626485E+05  1.144607E+05  5.108765E+04  3.073663E+05 -3.920363E+04 -5.579204E+03
       389   5  7.433929E+05  8.690893E+04  8.387570E+04  2.943383E+05 -8.553167E+04 -2.183342E+04
       389   6  7.835399E+05  2.609739E+05  2.016098E+05  2.519356E+05 -1.291465E+05 -4.525962E+04
       389   7  1.031906E+06  1.980258E+05  1.189865E+05  3.628981E+05 -3.709698E+04 -4.780712E+03
       389   8  1.018094E+06  2.023484E+05  1.588765E+05  3.818348E+05 -8.667185E+04 -2.226709E+04
       389   9  1.064294E+06  4.088829E+05  2.862547E+05  3.714068E+05 -1.335346E+05 -4.692990E+04
       389  10  4.934600E+05  3.089471E+04 -1.681977E+04  2.518536E+05 -6.468021E-09 -9.964698E-10
       389  11  4.687567E+05 -2.852355E+04  8.853502E+03  2.068766E+05 -2.975399E-09  7.858521E-09
       389  12  5.028461E+05  1.130870E+05  1.169238E+05  1.325148E+05  8.936544E-10  1.039824E-08
       389  13  7.626468E+05  1.144603E+05  5.108471E+04  3.073662E+05 -5.978895E-09 -1.675604E-09
       389  14  7.433850E+05  8.690646E+04  8.386108E+04  2.943367E+05 -1.656749E-09  9.591761E-09
       389  15  7.835214E+05  2.609672E+05  2.015747E+05  2.519309E+05 -1.332435E-09  1.104090E-09
       389  16  1.031904E+06  1.980254E+05  1.189838E+05  3.628980E+05 -1.532032E-09  1.184451E-08
       389  17  1.018085E+06  2.023458E+05  1.588615E+05  3.818333E+05 -7.607308E-09 -2.638538E-09
       389  18  1.064274E+06  4.088757E+05  2.862172E+05  3.714018E+05 -5.392186E-09 -6.507404E-09
       389  19  4.934618E+05  3.089521E+04 -1.681649E+04  2.518538E+05  4.130925E+04  6.377468E+03
       389  20  4.687645E+05 -2.852114E+04  8.867733E+03  2.068780E+05  8.439203E+04  2.140000E+04
       389  21  5.028634E+05  1.130932E+05  1.169565E+05  1.325192E+05  1.247606E+05  4.359087E+04
       389  22  7.626485E+05  1.144607E+05  5.108765E+04  3.073663E+05  3.920363E+04  5.579204E+03
       389  23  7.433929E+05  8.690893E+04  8.387570E+04  2.943383E+05  8.553167E+04  2.183342E+04
       389  24  7.835399E+05  2.609739E+05  2.016098E+05  2.519356E+05  1.291465E+05  4.525962E+04
       389  25  1.031906E+06  1.980258E+05  1.189865E+05  3.628981E+05  3.709698E+04  4.780712E+03
       389  26  1.018094E+06  2.023484E+05  1.588765E+05  3.818348E+05  8.667185E+04  2.226709E+04
       389  27  1.064294E+06  4.088829E+05  2.862547E+05  3.714068E+05  1.335346E+05  4.692990E+04
       390   1 -1.899536E+05 -1.008595E+06 -1.936128E+05  9.094067E+04 -5.983355E+03 -2.520246E+04
       390   2 -1.262348E+05 -8.472417E+05 -1.372701E+05  2.471226E+04 -1.635156E+04 -1.094474E+04
       390   3 -8.998748E+04 -6.936282E+05 -9.691324E+04  8.142710E+04 -1.056304E+04  3.349572E+03
       390   4 -2.051475E+04 -3.300154E+05 -2.571447E+04  8.363076E+04 -6.002622E+03 -1.638477E+04
       390   5  2.952453E+03 -3.267944E+05 -1.218377E+04  2.218476E+04 -1.635276E+04 -9.865519E+03
       390   6  3.069852E+02 -3.299839E+05 -9.249869E+03  8.367692E+04 -1.055193E+04 -3.313495E+03
       390   7  1.488899E+05  3.489830E+05  1.421499E+05  7.631304E+04 -6.022087E+03 -7.557438E+03
       390   8  1.321200E+05  1.939012E+05  1.128833E+05  1.965524E+04 -1.635397E+04 -8.785397E+03
       390   9  9.059184E+04  3.378157E+04  7.840423E+04  8.592811E+04 -1.054088E+04 -9.980454E+03
       390  10 -1.899539E+05 -1.008595E+06 -1.936140E+05  9.094055E+04 -1.540519E-09 -2.108480E-10
       390  11 -1.262351E+05 -8.472419E+05 -1.372708E+05  2.471212E+04 -2.334435E-09  2.636512E-09
       390  12 -8.998760E+04 -6.936282E+05 -9.691347E+04  8.142712E+04  2.004127E-09 -1.116328E-10
       390  13 -2.051486E+04 -3.300157E+05 -2.571504E+04  8.363068E+04 -4.943786E-10  5.860076E-11
       390  14  2.952139E+03 -3.267945E+05 -1.218446E+04  2.218463E+04 -3.989647E-09  1.818918E-09
       390  15  3.068627E+02 -3.299839E+05 -9.250098E+03  8.367689E+04  1.303636E-09 -1.268137E-09
       390  16  1.488898E+05  3.489830E+05  1.421497E+05  7.631300E+04  3.584151E-10  3.273095E-09
       390  17  1.321197E+05  1.939011E+05  1.128826E+05  1.965513E+04  1.093544E-09 -7.883551E-09
       390  18  9.059169E+04  3.378143E+04  7.840383E+04  8.592803E+04  8.361083E-10 -2.217027E-09
       390  19 -1.899536E+05 -1.008595E+06 -1.936128E+05  9.094067E+04  5.983355E+03  2.520246E+04
       390  20 -1.262348E+05 -8.472417E+05 -1.372701E+05  2.471226E+04  1.635156E+04  1.094474E+04
       390  21 -8.998748E+04 -6.936282E+05 -9.691324E+04  8.142710E+04  1.056304E+04 -3.349572E+03
       390  22 -2.051475E+04 -3.300154E+05 -2.571447E+04  8.363076E+04  6.002622E+03  1.638477E+04
       390  23  2.952453E+03 -3.267944E+05 -1.218377E+04  2.218476E+04  1.635276E+04  9.865519E+03
       390  24  3.069852E+02 -3.299839E+05 -9.249869E+03  8.367692E+04  1.055193E+04  3.313495E+03
       390  25  1.488899E+05  3.489830E+05  1.421499E+05  7.631304E+04  6.022087E+03  7.557438E+03
       390  26  1.321200E+05  1.939012E+05  1.128833E+05  1.965524E+04  1.635397E+04  8.785397E+03
       390  27  9.059184E+04  3.378157E+04  7.840423E+04  8.592811E+04  1.054088E+04  9.980454E+03
       391   1 -3.670982E+04 -4.677359E+05 -4.204918E+04  8.514410E+04 -4.379727E+03  6.399128E+02
       391   2  5.631134E+03 -3.089028E+05 -3.490823E+03  2.185453E+04  5.681225E+02  4.767652E+03
       391   3  3.967078E+04 -1.521455E+05  3.040675E+04  8.218371E+04  5.454354E+03  8.896545E+03
       391   4 -2.277975E+03 -3.289956E+05 -8.715693E+03  8.381435E+04 -4.376050E+03 -1.751955E+03
       391   5  9.045324E+02 -3.279442E+05 -8.073133E+03  2.200311E+04  5.718405E+02  2.405283E+03
       391   6 -4.217824E+03 -3.289971E+05 -1.211038E+04  8.381123E+04  5.458060E+03  6.562643E+03
       391   7  3.215248E+04 -1.902376E+05  2.461645E+04  8.248430E+04 -4.372362E+03 -4.144356E+03
       391   8 -3.822093E+03 -3.469853E+05 -1.265545E+04  2.215169E+04  5.755574E+02  4.298603E+01
       391   9 -4.810870E+04 -5.058199E+05 -5.462971E+04  8.543829E+04  5.461755E+03  4.229403E+03
       391  10 -3.670984E+04 -4.677359E+05 -4.204922E+04  8.514410E+04  2.044851E-09  1.918604E-09
       391  11  5.631128E+03 -3.089028E+05 -3.490866E+03  2.185453E+04 -3.199892E-10  3.991629E-09
       391  12  3.967073E+04 -1.521456E+05  3.040655E+04  8.218368E+04 -1.015308E-09 -4.112050E-09
       391  13 -2.277996E+03 -3.289956E+05 -8.715734E+03  8.381434E+04  6.400593E-10  2.169135E-09
       391  14  9.045305E+02 -3.279442E+05 -8.073145E+03  2.200311E+04 -1.625905E-10 -3.205102E-10
       391  15 -4.217867E+03 -3.289971E+05 -1.211052E+04  8.381120E+04  7.034471E-10 -6.289718E-09
       391  16  3.215245E+04 -1.902376E+05  2.461638E+04  8.248429E+04  3.708722E-10  6.101054E-10
       391  17 -3.822093E+03 -3.469853E+05 -1.265545E+04  2.215169E+04  1.726536E-09 -8.374291E-09
       391  18 -4.810873E+04 -5.058200E+05 -5.462980E+04  8.543827E+04 -2.062056E-09  2.109050E-09
       391  19 -3.670982E+04 -4.677359E+05 -4.204918E+04  8.514410E+04  4.379727E+03 -6.399128E+02
       391  20  5.631134E+03 -3.089028E+05 -3.490823E+03  2.185453E+04 -5.681225E+02 -4.767652E+03
       391  21  3.967078E+04 -1.521455E+05  3.040675E+04  8.218371E+04 -5.454354E+03 -8.896545E+03
       391  22 -2.277975E+03 -3.289956E+05 -8.715693E+03  8.381435E+04  4.376050E+03  1.751955E+03
       391  23  9.045324E+02 -3.279442E+05 -8.073133E+03  2.200311E+04 -5.718405E+02 -2.405283E+03
       391  24 -4.217824E+03 -3.289971E+05 -1.211038E+04  8.381123E+04 -5.458060E+03 -6.562643E+03
       391  25  3.215248E+04 -1.902376E+05  2.461645E+04  8.248430E+04  4.372362E+03  4.144356E+03
       391  26 -3.822093E+03 -3.469853E+05 -1.265545E+04  2.215169E+04 -5.755574E+02 -4.298603E+01
       391  27 -4.810870E+04 -5.058199E+05 -5.462971E+04  8.543829E+04 -5.461755E+03 -4.229403E+03
       392   1  1.010709E+05  7.056833E+04  8.274389E+04  8.800576E+04  1.172257E+04  1.567283E+04
       392   2  1.440549E+05  2.334819E+05  1.131284E+05  1.812569E+04  1.750989E+04  1.892035E+04
       392   3  1.414538E+05  3.856452E+05  1.302184E+05  7.107013E+04  6.366159E+03  2.213323E+04
       392   4  1.350855E+03 -3.312749E+05 -1.405505E+04  8.366658E+04  1.173419E+04  8.822384E+03
       392   5  5.460489E+03 -3.251956E+05 -2.106547E+04  2.220555E+04  1.750843E+04  2.019048E+04
       392   6 -3.744574E+04 -3.313114E+05 -4.702054E+04  8.357778E+04  6.344993E+03  3.152287E+04
       392   7 -9.838082E+04 -7.329703E+05 -1.108653E+05  7.933027E+04  1.174592E+04  1.976357E+03
       392   8 -1.331565E+05 -8.835873E+05 -1.552815E+05  2.628187E+04  1.750699E+04  2.145946E+04
       392   9 -2.163831E+05 -1.047800E+06 -2.242973E+05  9.607122E+04  6.324193E+03  4.090166E+04
       392  10  1.010706E+05  7.056803E+04  8.274317E+04  8.800561E+04  1.547001E-09  7.473770E-10
       392  11  1.440544E+05  2.334814E+05  1.131271E+05  1.812543E+04 -3.015634E-10  7.796667E-09
       392  12  1.414537E+05  3.856447E+05  1.302174E+05  7.107001E+04 -8.699551E-10 -2.994945E-09
       392  13  1.350686E+03 -3.312750E+05 -1.405545E+04  8.366650E+04 -2.004130E-09 -4.374858E-09
       392  14  5.460050E+03 -3.251961E+05 -2.106681E+04  2.220527E+04  2.644480E-09 -1.361681E-09
       392  15 -3.744605E+04 -3.313125E+05 -4.702249E+04  8.357762E+04  6.756234E-10  3.708955E-10
       392  16 -9.838097E+04 -7.329703E+05 -1.108656E+05  7.933025E+04  2.361519E-10  2.139461E-09
       392  17 -1.331570E+05 -8.835879E+05 -1.552829E+05  2.628157E+04  2.058421E-09 -1.197015E-08
       392  18 -2.163836E+05 -1.047802E+06 -2.243005E+05  9.607101E+04  6.199320E-10  7.054122E-09
       392  19  1.010709E+05  7.056833E+04  8.274389E+04  8.800576E+04 -1.172257E+04 -1.567283E+04
       392  20  1.440549E+05  2.334819E+05  1.131284E+05  1.812569E+04 -1.750989E+04 -1.892035E+04
       392  21  1.414538E+05  3.856452E+05  1.302184E+05  7.107013E+04 -6.366159E+03 -2.213323E+04
       392  22  1.350855E+03 -3.312749E+05 -1.405505E+04  8.366658E+04 -1.173419E+04 -8.822384E+03
       392  23  5.460489E+03 -3.251956E+05 -2.106547E+04  2.220555E+04 -1.750843E+04 -2.019048E+04
       392  24 -3.744574E+04 -3.313114E+05 -4.702054E+04  8.357778E+04 -6.344993E+03 -3.152287E+04
       392  25 -9.838082E+04 -7.329703E+05 -1.108653E+05  7.933027E+04 -1.174592E+04 -1.976357E+03
       392  26 -1.331565E+05 -8.835873E+05 -1.552815E+05  2.628187E+04 -1.750699E+04 -2.145946E+04
       392  27 -2.163831E+05 -1.047800E+06 -2.242973E+05  9.607122E+04 -6.324193E+03 -4.090166E+04
       393   1  1.007405E+06 -1.077023E+04  1.078004E+02 -2.195284E+03  3.126459E+04  7.283793E+02
       393   2  1.007420E+06 -5.259469E+04 -2.448447E+04  4.721196E+03  2.071434E+04  1.946151E+03
       393   3  1.021958E+06 -4.374143E+04 -2.944913E+04 -7.301584E+03  1.016601E+04  1.476541E+03
       393   4  1.192450E+06  3.540853E+04  4.624605E+04 -5.517629E+03  3.157053E+04  7.286626E+02
       393   5  1.185178E+06 -8.246885E+03  1.972066E+04  3.979661E+03  2.077416E+04  1.946157E+03
       393   6  1.192468E+06 -1.189657E+03  1.298939E+04 -5.461925E+03  9.979836E+03  1.476395E+03
       393   7  1.377527E+06  8.158476E+04  9.238173E+04 -8.840975E+03  3.187657E+04  7.289427E+02
       393   8  1.362965E+06  3.609855E+04  6.392342E+04  3.237905E+03  2.083400E+04  1.946163E+03
       393   9  1.363005E+06  4.135995E+04  5.542573E+04 -3.621766E+03  9.793610E+03  1.476247E+03
       393  10  1.007404E+06 -1.077049E+04  1.059655E+02 -2.195302E+03  7.496407E-10 -1.337662E-10
       393  11  1.007419E+06 -5.259481E+04 -2.448528E+04  4.721163E+03  3.725187E-10 -8.144383E-10
       393  12  1.021958E+06 -4.374146E+04 -2.944933E+04 -7.301596E+03  1.104308E-09 -4.373238E-10
       393  13  1.192449E+06  3.540826E+04  4.624418E+04 -5.517648E+03  8.929247E-10  4.844735E-11
       393  14  1.185178E+06 -8.247004E+03  1.971984E+04  3.979628E+03 -3.030793E-10  4.824734E-11
       393  15  1.192468E+06 -1.189686E+03  1.298920E+04 -5.461937E+03  1.583212E-10  6.850876E-10
       393  16  1.377526E+06  8.158449E+04  9.237983E+04 -8.840994E+03 -7.026504E-10  7.560766E-11
       393  17  1.362965E+06  3.609843E+04  6.392260E+04  3.237873E+03 -9.914097E-10 -6.136817E-10
       393  18  1.363005E+06  4.135992E+04  5.542555E+04 -3.621778E+03 -1.063324E-09 -5.715778E-10
       393  19  1.007405E+06 -1.077023E+04  1.078004E+02 -2.195284E+03 -3.126459E+04 -7.283793E+02
       393  20  1.007420E+06 -5.259469E+04 -2.448447E+04  4.721196E+03 -2.071434E+04 -1.946151E+03
       393  21  1.021958E+06 -4.374143E+04 -2.944913E+04 -7.301584E+03 -1.016601E+04 -1.476541E+03
       393  22  1.192450E+06  3.540853E+04  4.624605E+04 -5.517629E+03 -3.157053E+04 -7.286626E+02
       393  23  1.185178E+06 -8.246885E+03  1.972066E+04  3.979661E+03 -2.077416E+04 -1.946157E+03
       393  24  1.192468E+06 -1.189657E+03  1.298939E+04 -5.461925E+03 -9.979836E+03 -1.476395E+03
       393  25  1.377527E+06  8.158476E+04  9.238173E+04 -8.840975E+03 -3.187657E+04 -7.289427E+02
       393  26  1.362965E+06  3.609855E+04  6.392342E+04  3.237905E+03 -2.083400E+04 -1.946163E+03
       393  27  1.363005E+06  4.135995E+04  5.542573E+04 -3.621766E+03 -9.793610E+03 -1.476247E+03
       394   1  1.077687E+06 -2.261674E+04 -1.714932E+04 -3.581746E+03  7.816393E+03  1.050903E+03
       394   2  1.081248E+06 -2.802582E+04 -2.156659E+04  2.272049E+03  5.146216E+03  1.030551E+03
       394   3  1.087244E+06 -2.575665E+04 -2.229396E+04 -4.316029E+03  2.476028E+03  8.361772E+02
       394   4  1.189775E+06  5.349888E+03  1.073942E+04 -4.037740E+03  7.827203E+03  1.050892E+03
       394   5  1.188556E+06 -1.251544E+03  5.130572E+03  2.184840E+03  5.131504E+03  1.030533E+03
       394   6  1.189778E+06 -1.710133E+02  3.228869E+03 -4.034316E+03  2.435814E+03  8.361621E+02
       394   7  1.301875E+06  3.331557E+04  3.862721E+04 -4.493817E+03  7.838014E+03  1.050880E+03
       394   8  1.295876E+06  2.552187E+04  3.182687E+04  2.097615E+03  5.116789E+03  1.030514E+03
       394   9  1.292320E+06  2.541384E+04  2.875091E+04 -3.752558E+03  2.395594E+03  8.361470E+02
       394  10  1.077687E+06 -2.261676E+04 -1.714944E+04 -3.581753E+03  7.959944E-10  2.940917E-10
       394  11  1.081248E+06 -2.802583E+04 -2.156664E+04  2.272045E+03 -5.992148E-10 -5.854353E-10
       394  12  1.087244E+06 -2.575666E+04 -2.229397E+04 -4.316030E+03 -5.842681E-10  6.600485E-11
       394  13  1.189775E+06  5.349871E+03  1.073930E+04 -4.037746E+03  3.236164E-10  9.148664E-10
       394  14  1.188556E+06 -1.251552E+03  5.130520E+03  2.184836E+03 -1.964340E-10  5.117029E-10
       394  15  1.189778E+06 -1.710157E+02  3.228857E+03 -4.034318E+03  2.719183E-11  1.510885E-10
       394  16  1.301875E+06  3.331556E+04  3.862709E+04 -4.493823E+03 -7.419362E-10 -1.180356E-10
       394  17  1.295875E+06  2.552186E+04  3.182682E+04  2.097611E+03  2.929263E-10  3.949856E-11
       394  18  1.292320E+06  2.541384E+04  2.875089E+04 -3.752560E+03  6.667386E-10  5.415870E-12
       394  19  1.077687E+06 -2.261674E+04 -1.714932E+04 -3.581746E+03 -7.816393E+03 -1.050903E+03
       394  20  1.081248E+06 -2.802582E+04 -2.156659E+04  2.272049E+03 -5.146216E+03 -1.030551E+03
       394  21  1.087244E+06 -2.575665E+04 -2.229396E+04 -4.316029E+03 -2.476028E+03 -8.361772E+02
       394  22  1.189775E+06  5.349888E+03  1.073942E+04 -4.037740E+03 -7.827203E+03 -1.050892E+03
       394  23  1.188556E+06 -1.251544E+03  5.130572E+03  2.184840E+03 -5.131504E+03 -1.030533E+03
       394  24  1.189778E+06 -1.710133E+02  3.228869E+03 -4.034316E+03 -2.435814E+03 -8.361621E+02
       394  25  1.301875E+06  3.331557E+04  3.862721E+04 -4.493817E+03 -7.838014E+03 -1.050880E+03
       394  26  1.295876E+06  2.552187E+04  3.182687E+04  2.097615E+03 -5.116789E+03 -1.030514E+03
       394  27  1.292320E+06  2.541384E+04  2.875091E+04 -3.752558E+03 -2.395594E+03 -8.361470E+02
       395   1  1.126186E+06 -1.495311E+04 -1.310266E+04 -3.129518E+03  1.928965E+03  7.004773E+02
       395   2  1.129297E+06 -1.511682E+04 -1.349535E+04  1.152163E+03  1.215032E+03  5.547173E+02
       395   3  1.132842E+06 -1.410833E+04 -1.312118E+04 -3.230311E+03  5.010661E+02  4.308179E+02
       395   4  1.189333E+06  8.002983E+02  2.598217E+03 -3.195905E+03  1.906510E+03  7.004707E+02
       395   5  1.189117E+06 -1.914481E+02  1.388404E+03  1.136181E+03  1.195666E+03  5.547146E+02
       395   6  1.189333E+06 -1.157126E+01  9.432668E+02 -3.195837E+03  4.847916E+02  4.308181E+02
       395   7  1.252484E+06  1.655340E+04  1.829880E+04 -3.262298E+03  1.884053E+03  7.004641E+02
       395   8  1.248940E+06  1.473366E+04  1.627189E+04  1.120197E+03  1.176297E+03  5.547119E+02
       395   9  1.245828E+06  1.408494E+04  1.500747E+04 -3.161360E+03  4.685156E+02  4.308183E+02
       395  10  1.126186E+06 -1.495311E+04 -1.310267E+04 -3.129519E+03 -1.256465E-10 -3.801619E-10
       395  11  1.129297E+06 -1.511682E+04 -1.349535E+04  1.152162E+03  3.631766E-11  4.262996E-10
       395  12  1.132842E+06 -1.410833E+04 -1.312118E+04 -3.230312E+03 -1.685398E-10  1.917241E-10
       395  13  1.189333E+06  8.002968E+02  2.598209E+03 -3.195906E+03  4.119993E-11 -1.929549E-10
       395  14  1.189117E+06 -1.914488E+02  1.388401E+03  1.136180E+03 -2.275517E-10  8.070527E-11
       395  15  1.189333E+06 -1.157152E+01  9.432660E+02 -3.195838E+03 -9.453862E-11  4.216154E-11
       395  16  1.252484E+06  1.655340E+04  1.829879E+04 -3.262299E+03  9.425692E-11 -5.531692E-11
       395  17  1.248940E+06  1.473365E+04  1.627189E+04  1.120196E+03 -3.724766E-11  3.520284E-10
       395  18  1.245828E+06  1.408494E+04  1.500747E+04 -3.161360E+03  1.740067E-10  8.394903E-11
       395  19  1.126186E+06 -1.495311E+04 -1.310266E+04 -3.129518E+03 -1.928965E+03 -7.004773E+02
       395  20  1.129297E+06 -1.511682E+04 -1.349535E+04  1.152163E+03 -1.215032E+03 -5.547173E+02
       395  21  1.132842E+06 -1.410833E+04 -1.312118E+04 -3.230311E+03 -5.010661E+02 -4.308179E+02
       395  22  1.189333E+06  8.002983E+02  2.598217E+03 -3.195905E+03 -1.906510E+03 -7.004707E+02
       395  23  1.189117E+06 -1.914481E+02  1.388404E+03  1.136181E+03 -1.195666E+03 -5.547146E+02
       395  24  1.189333E+06 -1.157126E+01  9.432668E+02 -3.195837E+03 -4.847916E+02 -4.308181E+02
       395  25  1.252484E+06  1.655340E+04  1.829880E+04 -3.262298E+03 -1.884053E+03 -7.004641E+02
       395  26  1.248940E+06  1.473366E+04  1.627189E+04  1.120197E+03 -1.176297E+03 -5.547119E+02
       395  27  1.245828E+06  1.408494E+04  1.500747E+04 -3.161360E+03 -4.685156E+02 -4.308183E+02
       396   1  1.161540E+06 -6.798944E+03 -6.070767E+03 -2.752226E+03  3.446288E+02  3.577967E+02
       396   2  1.164069E+06 -6.317457E+03 -5.577035E+03  6.100059E+02  1.028932E+00  2.310744E+02
       396   3  1.166718E+06 -5.553055E+03 -4.788359E+03 -2.774796E+03 -3.425864E+02  1.265522E+02
       396   4  1.189264E+06  1.165707E+02  8.178990E+02 -2.769820E+03  3.247538E+02  3.577999E+02
       396   5  1.189205E+06 -4.604434E+01  6.770437E+02  6.036873E+02 -1.565771E+01  2.310782E+02
       396   6  1.189264E+06  7.368805E+01  8.289038E+02 -2.769822E+03 -3.560832E+02  1.265562E+02
       396   7  1.216990E+06  7.032028E+03  7.706508E+03 -2.787415E+03  3.048779E+02  3.578032E+02
       396   8  1.214341E+06  6.225321E+03  6.931075E+03  5.973686E+02 -3.234502E+01  2.310820E+02
       396   9  1.211811E+06  5.700392E+03  6.446128E+03 -2.764847E+03 -3.695805E+02  1.265602E+02
       396  10  1.161540E+06 -6.798944E+03 -6.070768E+03 -2.752226E+03 -4.212360E-10  4.671514E-10
       396  11  1.164069E+06 -6.317457E+03 -5.577035E+03  6.100059E+02  1.723902E-10 -7.082427E-11
       396  12  1.166718E+06 -5.553055E+03 -4.788359E+03 -2.774796E+03 -4.157903E-10 -4.494208E-10
       396  13  1.189264E+06  1.165705E+02  8.178986E+02 -2.769820E+03 -1.253324E-10  6.719944E-11
       396  14  1.189205E+06 -4.604440E+01  6.770436E+02  6.036873E+02 -1.733378E-11 -4.465879E-11
       396  15  1.189264E+06  7.368799E+01  8.289036E+02 -2.769822E+03 -4.266654E-10  1.877306E-11
       396  16  1.216990E+06  7.032028E+03  7.706507E+03 -2.787415E+03  3.655710E-10 -2.485637E-10
       396  17  1.214341E+06  6.225321E+03  6.931075E+03  5.973686E+02  5.935212E-11  2.353303E-11
       396  18  1.211811E+06  5.700392E+03  6.446128E+03 -2.764847E+03  2.618470E-10 -1.234242E-10
       396  19  1.161540E+06 -6.798944E+03 -6.070767E+03 -2.752226E+03 -3.446288E+02 -3.577967E+02
       396  20  1.164069E+06 -6.317457E+03 -5.577035E+03  6.100059E+02 -1.028932E+00 -2.310744E+02
       396  21  1.166718E+06 -5.553055E+03 -4.788359E+03 -2.774796E+03  3.425864E+02 -1.265522E+02
       396  22  1.189264E+06  1.165707E+02  8.178990E+02 -2.769820E+03 -3.247538E+02 -3.577999E+02
       396  23  1.189205E+06 -4.604434E+01  6.770437E+02  6.036873E+02  1.565771E+01 -2.310782E+02
       396  24  1.189264E+06  7.368805E+01  8.289038E+02 -2.769822E+03  3.560832E+02 -1.265562E+02
       396  25  1.216990E+06  7.032028E+03  7.706508E+03 -2.787415E+03 -3.048779E+02 -3.578032E+02
       396  26  1.214341E+06  6.225321E+03  6.931075E+03  5.973686E+02  3.234502E+01 -2.310820E+02
       396  27  1.211811E+06  5.700392E+03  6.446128E+03 -2.764847E+03  3.695805E+02 -1.265602E+02
       397   1  1.191059E+06  4.438910E+02  1.416061E+03 -2.636110E+03 -5.038295E+02  6.911226E+01
       397   2  1.193326E+06  9.153641E+02  2.509504E+03  4.659126E+02 -1.247085E+03 -3.836925E+01
       397   3  1.195875E+06  2.150146E+03  4.275992E+03 -2.705239E+03 -1.990342E+03 -1.465538E+02
       397   4  1.189301E+06  3.552255E+00  9.705323E+02 -2.664583E+03 -5.193115E+02  6.911741E+01
       397   5  1.189159E+06 -1.242535E+02  1.472798E+03  4.720843E+02 -1.262664E+03 -3.836430E+01
       397   6  1.189300E+06  5.112706E+02  2.648181E+03 -2.664424E+03 -2.006015E+03 -1.465491E+02
       397   7  1.187542E+06 -4.367868E+02  5.250036E+02 -2.693057E+03 -5.347935E+02  6.912257E+01
       397   8  1.184992E+06 -1.163872E+03  4.360915E+02  4.782559E+02 -1.278243E+03 -3.835935E+01
       397   9  1.182725E+06 -1.127608E+03  1.020367E+03 -2.623610E+03 -2.021688E+03 -1.465444E+02
       397  10  1.191059E+06  4.438910E+02  1.416060E+03 -2.636110E+03 -4.374127E-10  1.361535E-11
       397  11  1.193326E+06  9.153637E+02  2.509501E+03  4.659125E+02  2.838497E-10 -2.533757E-10
       397  12  1.195875E+06  2.150145E+03  4.275984E+03 -2.705239E+03 -5.111185E-10  7.743935E-11
       397  13  1.189301E+06  3.552178E+00  9.705318E+02 -2.664583E+03 -1.480357E-10  1.717907E-10
       397  14  1.189159E+06 -1.242539E+02  1.472795E+03  4.720842E+02 -1.366740E-10  1.139707E-10
       397  15  1.189300E+06  5.112695E+02  2.648174E+03 -2.664425E+03 -3.666135E-11  1.860001E-11
       397  16  1.187542E+06 -4.367868E+02  5.250030E+02 -2.693057E+03  3.715940E-10 -1.854793E-10
       397  17  1.184992E+06 -1.163873E+03  4.360885E+02  4.782559E+02 -1.519536E-10 -2.837405E-10
       397  18  1.182725E+06 -1.127609E+03  1.020360E+03 -2.623611E+03  3.610506E-10 -2.648277E-10
       397  19  1.191059E+06  4.438910E+02  1.416061E+03 -2.636110E+03  5.038295E+02 -6.911226E+01
       397  20  1.193326E+06  9.153641E+02  2.509504E+03  4.659126E+02  1.247085E+03  3.836925E+01
       397  21  1.195875E+06  2.150146E+03  4.275992E+03 -2.705239E+03  1.990342E+03  1.465538E+02
       397  22  1.189301E+06  3.552255E+00  9.705323E+02 -2.664583E+03  5.193115E+02 -6.911741E+01
       397  23  1.189159E+06 -1.242535E+02  1.472798E+03  4.720843E+02  1.262664E+03  3.836430E+01
       397  24  1.189300E+06  5.112706E+02  2.648181E+03 -2.664424E+03  2.006015E+03  1.465491E+02
       397  25  1.187542E+06 -4.367868E+02  5.250036E+02 -2.693057E+03  5.347935E+02 -6.912257E+01
       397  26  1.184992E+06 -1.163872E+03  4.360915E+02  4.782559E+02  1.278243E+03  3.835935E+01
       397  27  1.182725E+06 -1.127608E+03  1.020367E+03 -2.623610E+03  2.021688E+03  1.465444E+02
       398   1  1.221215E+06  7.787593E+03  1.123129E+04 -2.687245E+03 -2.535115E+03 -2.089473E+02
       398   2  1.223151E+06  7.772323E+03  1.408144E+04  6.470364E+02 -5.369211E+03 -3.184619E+02
       398   3  1.226696E+06  1.267565E+04  2.000611E+04 -3.161966E+03 -8.203267E+03 -4.345443E+02
       398   4  1.189595E+06 -1.028253E+02  3.356508E+03 -2.858107E+03 -2.550458E+03 -2.089428E+02
       398   5  1.188789E+06 -8.007768E+02  5.532362E+03  7.138161E+02 -5.385363E+03 -3.184601E+02
       398   6  1.189592E+06  3.420174E+03  1.078343E+04 -2.857573E+03 -8.220215E+03 -4.345474E+02
       398   7  1.157976E+06 -7.993319E+03 -4.518350E+03 -3.028959E+03 -2.565801E+03 -2.089382E+02
       398   8  1.154428E+06 -9.373965E+03 -3.016805E+03  7.805921E+02 -5.401515E+03 -3.184582E+02
       398   9  1.152489E+06 -5.835405E+03  1.560650E+03 -2.553198E+03 -8.237163E+03 -4.345505E+02
       398  10  1.221215E+06  7.787592E+03  1.123128E+04 -2.687246E+03 -5.956376E-10 -3.982451E-10
       398  11  1.223151E+06  7.772315E+03  1.408139E+04  6.470351E+02  1.512270E-10 -1.413518E-10
       398  12  1.226696E+06  1.267563E+04  2.000598E+04 -3.161969E+03  7.421431E-11  4.856322E-10
       398  13  1.189595E+06 -1.028271E+02  3.356496E+03 -2.858107E+03 -7.970713E-11 -2.523580E-10
       398  14  1.188789E+06 -8.007846E+02  5.532307E+03  7.138147E+02  2.991919E-10 -2.478376E-10
       398  15  1.189592E+06  3.420156E+03  1.078330E+04 -2.857576E+03  1.026192E-10  1.838949E-10
       398  16  1.157976E+06 -7.993321E+03 -4.518362E+03 -3.028960E+03  5.270359E-10 -3.906847E-10
       398  17  1.154428E+06 -9.373973E+03 -3.016860E+03  7.805907E+02 -8.244756E-11 -5.062640E-10
       398  18  1.152489E+06 -5.835423E+03  1.560523E+03 -2.553200E+03 -1.169767E-10 -1.178988E-11
       398  19  1.221215E+06  7.787593E+03  1.123129E+04 -2.687245E+03  2.535115E+03  2.089473E+02
       398  20  1.223151E+06  7.772323E+03  1.408144E+04  6.470364E+02  5.369211E+03  3.184619E+02
       398  21  1.226696E+06  1.267565E+04  2.000611E+04 -3.161966E+03  8.203267E+03  4.345443E+02
       398  22  1.189595E+06 -1.028253E+02  3.356508E+03 -2.858107E+03  2.550458E+03  2.089428E+02
       398  23  1.188789E+06 -8.007768E+02  5.532362E+03  7.138161E+02  5.385363E+03  3.184601E+02
       398  24  1.189592E+06  3.420174E+03  1.078343E+04 -2.857573E+03  8.220215E+03  4.345474E+02
       398  25  1.157976E+06 -7.993319E+03 -4.518350E+03 -3.028959E+03  2.565801E+03  2.089382E+02
       398  26  1.154428E+06 -9.373965E+03 -3.016805E+03  7.805921E+02  5.401515E+03  3.184582E+02
       398  27  1.152489E+06 -5.835405E+03  1.560650E+03 -2.553198E+03  8.237163E+03  4.345505E+02
       399   1  1.259635E+06  1.628692E+04  3.045729E+04 -2.256505E+03 -1.038810E+04 -5.383221E+02
       399   2  1.258454E+06  1.265030E+04  3.952967E+04  8.722962E+02 -2.176967E+04 -6.924711E+02
       399   3  1.266954E+06  4.154726E+04  6.414900E+04 -5.548538E+03 -3.315151E+04 -7.204726E+02
       399   4  1.191387E+06 -7.414401E+02  1.346927E+04 -3.391442E+03 -1.041875E+04 -5.383042E+02
       399   5  1.186540E+06 -5.290894E+03  2.164042E+04  1.380973E+03 -2.178098E+04 -6.924948E+02
       399   6  1.191371E+06  2.269191E+04  4.534639E+04 -3.396281E+03 -3.314340E+04 -7.205916E+02
       399   7  1.123144E+06 -1.777015E+04 -3.519089E+03 -4.526254E+03 -1.044939E+04 -5.382862E+02
       399   8  1.114630E+06 -2.323247E+04  3.750793E+03  1.889591E+03 -2.179228E+04 -6.925186E+02
       399   9  1.115793E+06  3.836151E+03  2.654337E+04 -1.244285E+03 -3.313530E+04 -7.207106E+02
       399  10  1.259634E+06  1.628689E+04  3.045709E+04 -2.256510E+03 -1.339908E-10  1.895320E-10
       399  11  1.258454E+06  1.265017E+04  3.952878E+04  8.722841E+02  2.916098E-10 -1.925374E-10
       399  12  1.266953E+06  4.154696E+04  6.414693E+04 -5.548558E+03  6.604730E-11 -8.513313E-11
       399  13  1.191387E+06 -7.414695E+02  1.346907E+04 -3.391447E+03  1.048457E-10  1.077087E-10
       399  14  1.186539E+06 -5.291022E+03  2.163953E+04  1.380961E+03  1.679603E-10 -2.214365E-10
       399  15  1.191369E+06  2.269162E+04  4.534433E+04 -3.396300E+03  3.828628E-10 -1.550423E-11
       399  16  1.123144E+06 -1.777018E+04 -3.519294E+03 -4.526259E+03 -5.539378E-11 -1.551953E-10
       399  17  1.114630E+06 -2.323260E+04  3.749901E+03  1.889579E+03 -4.040720E-10 -6.448606E-10
       399  18  1.115791E+06  3.835856E+03  2.654131E+04 -1.244304E+03 -1.228428E-10  2.749200E-10
       399  19  1.259635E+06  1.628692E+04  3.045729E+04 -2.256505E+03  1.038810E+04  5.383221E+02
       399  20  1.258454E+06  1.265030E+04  3.952967E+04  8.722962E+02  2.176967E+04  6.924711E+02
       399  21  1.266954E+06  4.154726E+04  6.414900E+04 -5.548538E+03  3.315151E+04  7.204726E+02
       399  22  1.191387E+06 -7.414401E+02  1.346927E+04 -3.391442E+03  1.041875E+04  5.383042E+02
       399  23  1.186540E+06 -5.290894E+03  2.164042E+04  1.380973E+03  2.178098E+04  6.924948E+02
       399  24  1.191371E+06  2.269191E+04  4.534639E+04 -3.396281E+03  3.314340E+04  7.205916E+02
       399  25  1.123144E+06 -1.777015E+04 -3.519089E+03 -4.526254E+03  1.044939E+04  5.382862E+02
       399  26  1.114630E+06 -2.323247E+04  3.750793E+03  1.889591E+03  2.179228E+04  6.925186E+02
       399  27  1.115793E+06  3.836151E+03  2.654337E+04 -1.244285E+03  3.313530E+04  7.207106E+02
       400   1  1.321961E+06  2.477398E+04  8.453218E+04  3.009310E+03 -4.208705E+04 -1.033134E+03
       400   2  1.297456E+06 -3.691397E+03  1.145227E+05 -1.111294E+03 -8.791749E+04 -1.403520E+03
       400   3  1.332694E+06  1.821718E+05  2.279391E+05 -1.938798E+04 -1.337485E+05 -5.911593E+02
       400   4  1.202513E+06 -5.033446E+03  5.480690E+04 -4.377292E+03 -4.221780E+04 -1.032692E+03
       400   5  1.172608E+06 -3.483004E+04  8.348240E+04  2.635783E+03 -8.786982E+04 -1.404046E+03
       400   6  1.202427E+06  1.496935E+05  1.954721E+05 -4.506867E+03 -1.335220E+05 -5.941890E+02
       400   7  1.083077E+06 -3.484174E+04  2.508058E+04 -1.176248E+04 -4.234853E+04 -1.032247E+03
       400   8  1.047774E+06 -6.596979E+04  5.244091E+04  6.382104E+03 -8.782216E+04 -1.404571E+03
       400   9  1.072176E+06  1.172147E+05  1.630039E+05  1.037113E+04 -1.332955E+05 -5.972085E+02
       400  10  1.321959E+06  2.477351E+04  8.452886E+04  3.009275E+03  6.006260E-10  3.594620E-10
       400  11  1.297447E+06 -3.693468E+03  1.145082E+05 -1.111393E+03  7.031108E-11 -2.112933E-10
       400  12  1.332675E+06  1.821670E+05  2.279056E+05 -1.938805E+04 -7.131241E-11 -2.709936E-10
       400  13  1.202511E+06 -5.033924E+03  5.480356E+04 -4.377327E+03  1.861070E-10  2.674036E-10
       400  14  1.172599E+06 -3.483211E+04  8.346791E+04  2.635683E+03 -2.834115E-10 -2.543348E-10
       400  15  1.202408E+06  1.496887E+05  1.954387E+05 -4.506931E+03  2.055084E-10 -9.196061E-11
       400  16  1.083075E+06 -3.484222E+04  2.507721E+04 -1.176251E+04 -5.125356E-10 -2.814055E-11
       400  17  1.047766E+06 -6.597186E+04  5.242644E+04  6.382005E+03 -2.365484E-10  9.589220E-11
       400  18  1.072157E+06  1.172100E+05  1.629706E+05  1.037106E+04  9.022024E-11 -1.109366E-10
       400  19  1.321961E+06  2.477398E+04  8.453218E+04  3.009310E+03  4.208705E+04  1.033134E+03
       400  20  1.297456E+06 -3.691397E+03  1.145227E+05 -1.111294E+03  8.791749E+04  1.403520E+03
       400  21  1.332694E+06  1.821718E+05  2.279391E+05 -1.938798E+04  1.337485E+05  5.911593E+02
       400  22  1.202513E+06 -5.033446E+03  5.480690E+04 -4.377292E+03  4.221780E+04  1.032692E+03
       400  23  1.172608E+06 -3.483004E+04  8.348240E+04  2.635783E+03  8.786982E+04  1.404046E+03
       400  24  1.202427E+06  1.496935E+05  1.954721E+05 -4.506867E+03  1.335220E+05  5.941890E+02
       400  25  1.083077E+06 -3.484174E+04  2.508058E+04 -1.176248E+04  4.234853E+04  1.032247E+03
       400  26  1.047774E+06 -6.596979E+04  5.244091E+04  6.382104E+03  8.782216E+04  1.404571E+03
       400  27  1.072176E+06  1.172147E+05  1.630039E+05  1.037113E+04  1.332955E+05  5.972085E+02
       401   1  2.061978E+05 -2.306727E+04 -1.636651E+04 -2.495238E+03  1.909640E+04  6.729300E+02
       401   2  2.066613E+05 -4.865839E+04 -3.132597E+04  2.433054E+03  1.269589E+04  1.884822E+03
       401   3  2.161839E+05 -4.306892E+04 -3.423790E+04 -5.615478E+03  6.296426E+03  1.496165E+03
       401   4  3.857240E+05  2.178288E+04  2.843777E+04 -4.555914E+03  1.939081E+04  6.730948E+02
       401   5  3.811763E+05 -5.079211E+03  1.211248E+04  1.941373E+03  1.275807E+04  1.884807E+03
       401   6  3.857257E+05 -7.250072E+02  7.993481E+03 -4.537956E+03  6.126443E+03  1.496134E+03
       401   7  5.652794E+05  6.663061E+04  7.323961E+04 -6.617191E+03  1.968530E+04  6.732576E+02
       401   8  5.557189E+05  3.849768E+04  5.554865E+04  1.449550E+03  1.282027E+04  1.884791E+03
       401   9  5.552935E+05  4.161675E+04  5.022271E+04 -3.460140E+03  5.956413E+03  1.496102E+03
       401  10  2.061974E+05 -2.306737E+04 -1.636719E+04 -2.495249E+03  1.078490E-10 -3.376337E-11
       401  11  2.066612E+05 -4.865844E+04 -3.132628E+04  2.433035E+03  1.236256E-10 -3.865808E-10
       401  12  2.161838E+05 -4.306893E+04 -3.423798E+04 -5.615485E+03  4.326552E-10 -1.575631E-10
       401  13  3.857236E+05  2.178278E+04  2.843706E+04 -4.555924E+03  5.470030E-10 -2.249686E-10
       401  14  3.811761E+05 -5.079258E+03  1.211217E+04  1.941353E+03 -4.646643E-10 -1.197308E-10
       401  15  3.857256E+05 -7.250196E+02  7.993406E+03 -4.537963E+03  4.692966E-14  5.337081E-11
       401  16  5.652790E+05  6.663051E+04  7.323889E+04 -6.617202E+03  6.416833E-11  2.504229E-10
       401  17  5.557187E+05  3.849763E+04  5.554833E+04  1.449530E+03 -3.522960E-10 -4.952514E-10
       401  18  5.552935E+05  4.161673E+04  5.022264E+04 -3.460148E+03 -2.829157E-10 -7.045851E-11
       401  19  2.061978E+05 -2.306727E+04 -1.636651E+04 -2.495238E+03 -1.909640E+04 -6.729300E+02
       401  20  2.066613E+05 -4.865839E+04 -3.132597E+04  2.433054E+03 -1.269589E+04 -1.884822E+03
       401  21  2.161839E+05 -4.306892E+04 -3.423790E+04 -5.615478E+03 -6.296426E+03 -1.496165E+03
       401  22  3.857240E+05  2.178288E+04  2.843777E+04 -4.555914E+03 -1.939081E+04 -6.730948E+02
       401  23  3.811763E+05 -5.079211E+03  1.211248E+04  1.941373E+03 -1.275807E+04 -1.884807E+03
       401  24  3.857257E+05 -7.250072E+02  7.993481E+03 -4.537956E+03 -6.126443E+03 -1.496134E+03
       401  25  5.652794E+05  6.663061E+04  7.323961E+04 -6.617191E+03 -1.968530E+04 -6.732576E+02
       401  26  5.557189E+05  3.849768E+04  5.554865E+04  1.449550E+03 -1.282027E+04 -1.884791E+03
       401  27  5.552935E+05  4.161675E+04  5.022271E+04 -3.460140E+03 -5.956413E+03 -1.496102E+03
       402   1  2.594616E+05 -2.782699E+04 -2.442383E+04 -3.740448E+03  4.780624E+03  1.131221E+03
       402   2  2.628129E+05 -3.085476E+04 -2.683773E+04  1.445510E+03  3.152879E+03  1.157837E+03
       402   3  2.677495E+05 -2.914552E+04 -2.696989E+04 -4.171966E+03  1.524967E+03  9.661595E+02
       402   4  3.840611E+05  3.290800E+03  6.608993E+03 -4.059935E+03  4.800814E+03  1.131203E+03
       402   5  3.832656E+05 -7.738248E+02  3.156179E+03  1.341543E+03  3.141331E+03  1.157827E+03
       402   6  3.840605E+05 -9.643463E+01  2.006806E+03 -4.060278E+03  1.481693E+03  9.661739E+02
       402   7  5.086748E+05  3.440742E+04  3.764065E+04 -4.379486E+03  4.821007E+03  1.131185E+03
       402   8  5.037314E+05  2.930602E+04  3.314900E+04  1.237557E+03  3.129781E+03  1.157816E+03
       402   9  5.003837E+05  2.895164E+04  3.098249E+04 -3.948568E+03  1.438410E+03  9.661884E+02
       402  10  2.594616E+05 -2.782699E+04 -2.442387E+04 -3.740452E+03 -3.530556E-11  5.881211E-11
       402  11  2.628129E+05 -3.085476E+04 -2.683775E+04  1.445508E+03  2.860611E-10 -6.580254E-11
       402  12  2.677495E+05 -2.914552E+04 -2.696989E+04 -4.171967E+03 -7.314444E-10  9.031635E-11
       402  13  3.840611E+05  3.290793E+03  6.608947E+03 -4.059939E+03 -1.214490E-10 -9.207851E-11
       402  14  3.832655E+05 -7.738289E+02  3.156158E+03  1.341540E+03  1.587688E-10 -4.844537E-10
       402  15  3.840605E+05 -9.643622E+01  2.006801E+03 -4.060279E+03 -2.391029E-10  2.544660E-11
       402  16  5.086747E+05  3.440741E+04  3.764060E+04 -4.379490E+03 -8.461184E-11 -1.900263E-10
       402  17  5.037314E+05  2.930601E+04  3.314898E+04  1.237554E+03 -2.043058E-10 -2.989962E-11
       402  18  5.003837E+05  2.895163E+04  3.098248E+04 -3.948569E+03  9.092341E-10  5.170400E-11
       402  19  2.594616E+05 -2.782699E+04 -2.442383E+04 -3.740448E+03 -4.780624E+03 -1.131221E+03
       402  20  2.628129E+05 -3.085476E+04 -2.683773E+04  1.445510E+03 -3.152879E+03 -1.157837E+03
       402  21  2.677495E+05 -2.914552E+04 -2.696989E+04 -4.171966E+03 -1.524967E+03 -9.661595E+02
       402  22  3.840611E+05  3.290800E+03  6.608993E+03 -4.059935E+03 -4.800814E+03 -1.131203E+03
       402  23  3.832656E+05 -7.738248E+02  3.156179E+03  1.341543E+03 -3.141331E+03 -1.157827E+03
       402  24  3.840605E+05 -9.643463E+01  2.006806E+03 -4.060278E+03 -1.481693E+03 -9.661739E+02
       402  25  5.086748E+05  3.440742E+04  3.764065E+04 -4.379486E+03 -4.821007E+03 -1.131185E+03
       402  26  5.037314E+05  2.930602E+04  3.314900E+04  1.237557E+03 -3.129781E+03 -1.157816E+03
       402  27  5.003837E+05  2.895164E+04  3.098249E+04 -3.948568E+03 -1.438410E+03 -9.661884E+02
       403   1  3.056451E+05 -1.901652E+04 -1.782595E+04 -3.658342E+03  1.169713E+03  8.326820E+02
       403   2  3.090921E+05 -1.873459E+04 -1.766882E+04  1.001929E+03  7.150182E+02  6.977079E+02
       403   3  3.128394E+05 -1.771059E+04 -1.701910E+04 -3.713588E+03  2.602531E+02  5.481466E+02
       403   4  3.837763E+05  4.933908E+02  1.621346E+03 -3.742590E+03  1.151372E+03  8.326883E+02
       403   5  3.836256E+05 -1.212945E+02  8.920413E+02  9.450964E+02  6.945249E+02  6.977203E+02
       403   6  3.837757E+05  6.421505E+00  6.567761E+02 -3.742934E+03  2.376104E+02  5.481657E+02
       403   7  4.619131E+05  2.000284E+04  2.106819E+04 -3.826848E+03  1.133028E+03  8.326946E+02
       403   8  4.581643E+05  1.849159E+04  1.945248E+04  8.882580E+02  6.740291E+02  6.977326E+02
       403   9  4.547165E+05  1.772306E+04  1.833227E+04 -3.772283E+03  2.149652E+02  5.481849E+02
       403  10  3.056451E+05 -1.901652E+04 -1.782596E+04 -3.658343E+03 -9.713205E-10 -1.037606E-10
       403  11  3.090921E+05 -1.873459E+04 -1.766882E+04  1.001929E+03  2.700877E-10  1.416751E-10
       403  12  3.128394E+05 -1.771059E+04 -1.701910E+04 -3.713588E+03 -1.035263E-09 -5.523375E-10
       403  13  3.837763E+05  4.933897E+02  1.621342E+03 -3.742591E+03 -2.495696E-10  8.626082E-11
       403  14  3.836256E+05 -1.212951E+02  8.920395E+02  9.450960E+02  1.304280E-10  3.665856E-10
       403  15  3.837757E+05  6.421167E+00  6.567754E+02 -3.742934E+03 -2.156671E-10  8.860585E-10
       403  16  4.619131E+05  2.000284E+04  2.106818E+04 -3.826849E+03  7.648386E-10  3.171602E-11
       403  17  4.581643E+05  1.849159E+04  1.945248E+04  8.882576E+02  2.570598E-10 -4.331456E-10
       403  18  4.547165E+05  1.772306E+04  1.833227E+04 -3.772283E+03  1.342728E-09  2.905644E-11
       403  19  3.056451E+05 -1.901652E+04 -1.782595E+04 -3.658342E+03 -1.169713E+03 -8.326820E+02
       403  20  3.090921E+05 -1.873459E+04 -1.766882E+04  1.001929E+03 -7.150182E+02 -6.977079E+02
       403  21  3.128394E+05 -1.771059E+04 -1.701910E+04 -3.713588E+03 -2.602531E+02 -5.481466E+02
       403  22  3.837763E+05  4.933908E+02  1.621346E+03 -3.742590E+03 -1.151372E+03 -8.326883E+02
       403  23  3.836256E+05 -1.212945E+02  8.920413E+02  9.450964E+02 -6.945249E+02 -6.977203E+02
       403  24  3.837757E+05  6.421505E+00  6.567761E+02 -3.742934E+03 -2.376104E+02 -5.481657E+02
       403  25  4.619131E+05  2.000284E+04  2.106819E+04 -3.826848E+03 -1.133028E+03 -8.326946E+02
       403  26  4.581643E+05  1.849159E+04  1.945248E+04  8.882580E+02 -6.740291E+02 -6.977326E+02
       403  27  4.547165E+05  1.772306E+04  1.833227E+04 -3.772283E+03 -2.149652E+02 -5.481849E+02
       404   1  3.467776E+05 -9.151197E+03 -8.591153E+03 -3.526921E+03  1.444380E+02  4.584432E+02
       404   2  3.500271E+05 -8.443833E+03 -7.798125E+03  7.551087E+02 -1.496655E+02  3.135282E+02
       404   3  3.533659E+05 -7.495293E+03 -6.755359E+03 -3.547003E+03 -4.437836E+02  1.748121E+02
       404   4  3.837300E+05  7.463737E+01  6.002306E+02 -3.566885E+03  1.230740E+02  4.584646E+02
       404   5  3.836852E+05 -3.855025E+01  5.836184E+02  7.251855E+02 -1.701509E+02  3.135508E+02
       404   6  3.837296E+05  8.929058E+01  8.161384E+02 -3.566857E+03 -4.633887E+02  1.748356E+02
       404   7  4.206835E+05  9.300369E+03  9.791512E+03 -3.606850E+03  1.017087E+02  4.584861E+02
       404   8  4.173443E+05  8.366647E+03  8.965277E+03  6.952609E+02 -1.906373E+02  3.135733E+02
       404   9  4.140941E+05  7.673805E+03  8.387566E+03 -3.586712E+03 -4.829947E+02  1.748591E+02
       404  10  3.467776E+05 -9.151198E+03 -8.591153E+03 -3.526921E+03 -1.812973E-09  1.558425E-10
       404  11  3.500271E+05 -8.443833E+03 -7.798125E+03  7.551088E+02  5.617968E-10  3.290920E-10
       404  12  3.533659E+05 -7.495293E+03 -6.755359E+03 -3.547003E+03 -5.153066E-10 -7.387028E-10
       404  13  3.837300E+05  7.463714E+01  6.002302E+02 -3.566885E+03 -6.482363E-11 -6.329359E-10
       404  14  3.836852E+05 -3.855036E+01  5.836181E+02  7.251855E+02  3.700244E-10  3.303769E-10
       404  15  3.837296E+05  8.929049E+01  8.161379E+02 -3.566857E+03 -1.580284E-10 -1.133611E-09
       404  16  4.206835E+05  9.300369E+03  9.791512E+03 -3.606850E+03  1.493860E-09  4.949449E-10
       404  17  4.173443E+05  8.366647E+03  8.965276E+03  6.952609E+02 -1.509839E-10 -2.297231E-10
       404  18  4.140941E+05  7.673805E+03  8.387566E+03 -3.586712E+03  8.116580E-10 -1.647089E-09
       404  19  3.467776E+05 -9.151197E+03 -8.591153E+03 -3.526921E+03 -1.444380E+02 -4.584432E+02
       404  20  3.500271E+05 -8.443833E+03 -7.798125E+03  7.551087E+02  1.496655E+02 -3.135282E+02
       404  21  3.533659E+05 -7.495293E+03 -6.755359E+03 -3.547003E+03  4.437836E+02 -1.748121E+02
       404  22  3.837300E+05  7.463737E+01  6.002306E+02 -3.566885E+03 -1.230740E+02 -4.584646E+02
       404  23  3.836852E+05 -3.855025E+01  5.836184E+02  7.251855E+02  1.701509E+02 -3.135508E+02
       404  24  3.837296E+05  8.929058E+01  8.161384E+02 -3.566857E+03  4.633887E+02 -1.748356E+02
       404  25  4.206835E+05  9.300369E+03  9.791512E+03 -3.606850E+03 -1.017087E+02 -4.584861E+02
       404  26  4.173443E+05  8.366647E+03  8.965277E+03  6.952609E+02  1.906373E+02 -3.135733E+02
       404  27  4.140941E+05  7.673805E+03  8.387566E+03 -3.586712E+03  4.829947E+02 -1.748591E+02
       405   1  3.855013E+05  4.344238E+02  1.432854E+03 -3.490823E+03 -6.071166E+02  9.447561E+01
       405   2  3.885701E+05  1.097606E+03  2.807025E+03  6.566754E+02 -1.403376E+03 -4.476351E+01
       405   3  3.919276E+05  2.602262E+03  4.904531E+03 -3.569756E+03 -2.199645E+03 -1.817243E+02
       405   4  3.837742E+05  1.189604E+00  9.925155E+02 -3.520425E+03 -6.274798E+02  9.450095E+01
       405   5  3.836299E+05 -1.360766E+02  1.576850E+03  6.668877E+02 -1.423405E+03 -4.473894E+01
       405   6  3.837740E+05  5.680674E+02  2.884283E+03 -3.519733E+03 -2.219337E+03 -1.817005E+02
       405   7  3.820472E+05 -4.320448E+02  5.521767E+02 -3.550027E+03 -6.478428E+02  9.452630E+01
       405   8  3.786897E+05 -1.369761E+03  3.466730E+02  6.770999E+02 -1.443434E+03 -4.471436E+01
       405   9  3.756205E+05 -1.466132E+03  8.640296E+02 -3.469710E+03 -2.239028E+03 -1.816768E+02
       405  10  3.855013E+05  4.344236E+02  1.432853E+03 -3.490823E+03 -1.811951E-09  4.643484E-10
       405  11  3.885701E+05  1.097605E+03  2.807021E+03  6.566753E+02  8.234179E-10  2.279223E-09
       405  12  3.919276E+05  2.602260E+03  4.904522E+03 -3.569756E+03 -8.383709E-11 -1.149584E-09
       405  13  3.837742E+05  1.189489E+00  9.925147E+02 -3.520425E+03 -6.529254E-10 -2.890615E-10
       405  14  3.836299E+05 -1.360771E+02  1.576846E+03  6.668876E+02  3.038243E-10  3.096318E-11
       405  15  3.837740E+05  5.680660E+02  2.884274E+03 -3.519733E+03 -4.574840E-10 -1.888700E-10
       405  16  3.820472E+05 -4.320449E+02  5.521758E+02 -3.550027E+03  1.698331E-09 -2.575356E-10
       405  17  3.786897E+05 -1.369761E+03  3.466691E+02  6.770999E+02  3.847414E-11  8.020549E-11
       405  18  3.756205E+05 -1.466133E+03  8.640202E+02 -3.469711E+03  4.214876E-10 -5.649021E-10
       405  19  3.855013E+05  4.344238E+02  1.432854E+03 -3.490823E+03  6.071166E+02 -9.447561E+01
       405  20  3.885701E+05  1.097606E+03  2.807025E+03  6.566754E+02  1.403376E+03  4.476351E+01
       405  21  3.919276E+05  2.602262E+03  4.904531E+03 -3.569756E+03  2.199645E+03  1.817243E+02
       405  22  3.837742E+05  1.189604E+00  9.925155E+02 -3.520425E+03  6.274798E+02 -9.450095E+01
       405  23  3.836299E+05 -1.360766E+02  1.576850E+03  6.668877E+02  1.423405E+03  4.473894E+01
       405  24  3.837740E+05  5.680674E+02  2.884283E+03 -3.519733E+03  2.219337E+03  1.817005E+02
       405  25  3.820472E+05 -4.320448E+02  5.521767E+02 -3.550027E+03  6.478428E+02 -9.452630E+01
       405  26  3.786897E+05 -1.369761E+03  3.466730E+02  6.770999E+02  1.443434E+03  4.471436E+01
       405  27  3.756205E+05 -1.466132E+03  8.640296E+02 -3.469710E+03  2.239028E+03  1.816768E+02
       406   1  4.246247E+05  1.001319E+04  1.376917E+04 -3.441491E+03 -2.791442E+03 -2.655943E+02
       406   2  4.270933E+05  1.007404E+04  1.698986E+04  6.625076E+02 -5.901419E+03 -4.057718E+02
       406   3  4.313242E+05  1.555675E+04  2.359012E+04 -3.961776E+03 -9.011373E+03 -5.299854E+02
       406   4  3.841011E+05 -1.075974E+02  3.668141E+03 -3.600324E+03 -2.813187E+03 -2.655686E+02
       406   5  3.832197E+05 -8.819327E+02  6.065027E+03  7.658000E+02 -5.920670E+03 -4.057532E+02
       406   6  3.841003E+05  3.765388E+03  1.183993E+04 -3.596395E+03 -9.028115E+03 -5.299759E+02
       406   7  3.435789E+05 -1.022851E+04 -6.433012E+03 -3.759146E+03 -2.834931E+03 -2.655428E+02
       406   8  3.393478E+05 -1.183805E+04 -4.859950E+03  8.690856E+02 -5.939921E+03 -4.057345E+02
       406   9  3.368784E+05 -8.026141E+03  8.957168E+01 -3.231042E+03 -9.044855E+03 -5.299664E+02
       406  10  4.246247E+05  1.001319E+04  1.376916E+04 -3.441492E+03 -1.600082E-09 -1.667738E-09
       406  11  4.270933E+05  1.007403E+04  1.698979E+04  6.625057E+02  5.377703E-10  3.167477E-10
       406  12  4.313241E+05  1.555673E+04  2.358997E+04 -3.961779E+03 -7.932980E-10  2.585262E-10
       406  13  3.841011E+05 -1.075996E+02  3.668126E+03 -3.600325E+03 -9.729928E-10 -3.107611E-10
       406  14  3.832197E+05 -8.819423E+02  6.064961E+03  7.657981E+02  2.247532E-10  1.513635E-10
       406  15  3.841002E+05  3.765366E+03  1.183978E+04 -3.596399E+03  7.836106E-11 -4.040079E-10
       406  16  3.435789E+05 -1.022852E+04 -6.433027E+03 -3.759147E+03  1.908413E-09 -5.006394E-10
       406  17  3.393478E+05 -1.183806E+04 -4.860017E+03  8.690836E+02  2.015711E-10  2.144403E-09
       406  18  3.368783E+05 -8.026164E+03  8.941750E+01 -3.231046E+03  8.273883E-10 -2.969472E-11
       406  19  4.246247E+05  1.001319E+04  1.376917E+04 -3.441491E+03  2.791442E+03  2.655943E+02
       406  20  4.270933E+05  1.007404E+04  1.698986E+04  6.625076E+02  5.901419E+03  4.057718E+02
       406  21  4.313242E+05  1.555675E+04  2.359012E+04 -3.961776E+03  9.011373E+03  5.299854E+02
       406  22  3.841011E+05 -1.075974E+02  3.668141E+03 -3.600324E+03  2.813187E+03  2.655686E+02
       406  23  3.832197E+05 -8.819327E+02  6.065027E+03  7.658000E+02  5.920670E+03  4.057532E+02
       406  24  3.841003E+05  3.765388E+03  1.183993E+04 -3.596395E+03  9.028115E+03  5.299759E+02
       406  25  3.435789E+05 -1.022851E+04 -6.433012E+03 -3.759146E+03  2.834931E+03  2.655428E+02
       406  26  3.393478E+05 -1.183805E+04 -4.859950E+03  8.690856E+02  5.939921E+03  4.057345E+02
       406  27  3.368784E+05 -8.026141E+03  8.957168E+01 -3.231042E+03  9.044855E+03  5.299664E+02
       407   1  4.681392E+05  1.968261E+04  3.523699E+04 -2.620319E+03 -1.140434E+04 -6.450955E+02
       407   2  4.665229E+05  1.559958E+04  4.512745E+04  4.179446E+02 -2.390910E+04 -8.100391E+02
       407   3  4.755612E+05  4.730372E+04  7.211835E+04 -6.214725E+03 -3.641364E+04 -8.052639E+02
       407   4  3.860754E+05 -8.084321E+02  1.479298E+04 -3.814139E+03 -1.144093E+04 -6.450439E+02
       407   5  3.807472E+05 -5.819825E+03  2.377127E+04  1.028897E+03 -2.391973E+04 -8.100600E+02
       407   6  3.860706E+05  2.495413E+04  4.983368E+04 -3.799096E+03 -3.639824E+04 -8.054195E+02
       407   7  3.040176E+05 -2.129998E+04 -5.651532E+03 -5.007801E+03 -1.147752E+04 -6.449922E+02
       407   8  2.949781E+05 -2.723978E+04  2.414535E+03  1.639766E+03 -2.393036E+04 -8.100809E+02
       407   9  2.965872E+05  2.603952E+03  2.754842E+04 -1.383814E+03 -3.638283E+04 -8.055749E+02
       407  10  4.681390E+05  1.968258E+04  3.523675E+04 -2.620325E+03 -1.095803E-09  4.940039E-10
       407  11  4.665223E+05  1.559943E+04  4.512637E+04  4.179290E+02  5.268806E-10 -8.420777E-10
       407  12  4.755598E+05  4.730336E+04  7.211586E+04 -6.214749E+03 -1.069739E-09 -1.976007E-10
       407  13  3.860752E+05 -8.084677E+02  1.479274E+04 -3.814145E+03 -7.621341E-10  1.650130E-10
       407  14  3.807465E+05 -5.819979E+03  2.377019E+04  1.028881E+03 -2.072496E-10  5.552340E-10
       407  15  3.860691E+05  2.495377E+04  4.983119E+04 -3.799119E+03 -8.443812E-11  8.934759E-11
       407  16  3.040175E+05 -2.130001E+04 -5.651780E+03 -5.007807E+03  6.616161E-10 -5.519797E-11
       407  17  2.949775E+05 -2.723994E+04  2.413458E+03  1.639750E+03 -1.288953E-10  9.055759E-12
       407  18  2.965858E+05  2.603597E+03  2.754593E+04 -1.383837E+03  1.109002E-09  5.386424E-11
       407  19  4.681392E+05  1.968261E+04  3.523699E+04 -2.620319E+03  1.140434E+04  6.450955E+02
       407  20  4.665229E+05  1.559958E+04  4.512745E+04  4.179446E+02  2.390910E+04  8.100391E+02
       407  21  4.755612E+05  4.730372E+04  7.211835E+04 -6.214725E+03  3.641364E+04  8.052639E+02
       407  22  3.860754E+05 -8.084321E+02  1.479298E+04 -3.814139E+03  1.144093E+04  6.450439E+02
       407  23  3.807472E+05 -5.819825E+03  2.377127E+04  1.028897E+03  2.391973E+04  8.100600E+02
       407  24  3.860706E+05  2.495413E+04  4.983368E+04 -3.799096E+03  3.639824E+04  8.054195E+02
       407  25  3.040176E+05 -2.129998E+04 -5.651532E+03 -5.007801E+03  1.147752E+04  6.449922E+02
       407  26  2.949781E+05 -2.723978E+04  2.414535E+03  1.639766E+03  2.393036E+04  8.100809E+02
       407  27  2.965872E+05  2.603952E+03  2.754842E+04 -1.383814E+03  3.638283E+04  8.055749E+02
       408   1  5.274175E+05  2.670519E+04  9.238701E+04  3.856081E+03 -4.623413E+04 -1.101451E+03
       408   2  4.989172E+05 -4.972658E+03  1.249745E+05 -2.708469E+03 -9.658435E+04 -1.424757E+03
       408   3  5.361096E+05  1.990086E+05  2.492918E+05 -2.062272E+04 -1.469348E+05 -5.209771E+02
       408   4  3.983032E+05 -5.527003E+03  6.023283E+04 -4.181642E+03 -4.636552E+04 -1.100807E+03
       408   5  3.654544E+05 -3.829733E+04  9.176088E+04  1.484413E+03 -9.652974E+04 -1.425435E+03
       408   6  3.982794E+05  1.645855E+05  2.149037E+05 -4.198579E+03 -1.466939E+05 -5.248418E+02
       408   7  2.692042E+05 -3.776021E+04  2.807743E+04 -1.221769E+04 -4.649689E+04 -1.100160E+03
       408   8  2.320077E+05 -7.162328E+04  5.854595E+04  5.676394E+03 -9.647514E+04 -1.426111E+03
       408   9  2.604669E+05  1.301620E+05  1.805144E+05  1.222192E+04 -1.464529E+05 -5.286945E+02
       408  10  5.274152E+05  2.670462E+04  9.238299E+04  3.856040E+03 -1.519293E-09  8.822354E-12
       408  11  4.989072E+05 -4.975162E+03  1.249570E+05 -2.708580E+03 -1.623273E-10 -4.108539E-10
       408  12  5.360864E+05  1.990028E+05  2.492513E+05 -2.062278E+04  3.676992E-10 -2.612314E-10
       408  13  3.983009E+05 -5.527581E+03  6.022879E+04 -4.181683E+03 -2.388439E-10 -2.261117E-10
       408  14  3.654444E+05 -3.829984E+04  9.174338E+04  1.484302E+03  2.324240E-10 -7.153701E-10
       408  15  3.982563E+05  1.645797E+05  2.148633E+05 -4.198641E+03  1.788228E-10 -1.992559E-10
       408  16  2.692019E+05 -3.776079E+04  2.807337E+04 -1.221773E+04  1.662245E-09 -3.384803E-10
       408  17  2.319977E+05 -7.162578E+04  5.852846E+04  5.676283E+03  2.645587E-10 -9.423690E-10
       408  18  2.604439E+05  1.301563E+05  1.804741E+05  1.222186E+04 -1.681501E-10 -3.467982E-10
       408  19  5.274175E+05  2.670519E+04  9.238701E+04  3.856081E+03  4.623413E+04  1.101451E+03
       408  20  4.989172E+05 -4.972658E+03  1.249745E+05 -2.708469E+03  9.658435E+04  1.424757E+03
       408  21  5.361096E+05  1.990086E+05  2.492918E+05 -2.062272E+04  1.469348E+05  5.209771E+02
       408  22  3.983032E+05 -5.527003E+03  6.023283E+04 -4.181642E+03  4.636552E+04  1.100807E+03
       408  23  3.654544E+05 -3.829733E+04  9.176088E+04  1.484413E+03  9.652974E+04  1.425435E+03
       408  24  3.982794E+05  1.645855E+05  2.149037E+05 -4.198579E+03  1.466939E+05  5.248418E+02
       408  25  2.692042E+05 -3.776021E+04  2.807743E+04 -1.221769E+04  4.649689E+04  1.100160E+03
       408  26  2.320077E+05 -7.162328E+04  5.854595E+04  5.676394E+03  9.647514E+04  1.426111E+03
       408  27  2.604669E+05  1.301620E+05  1.805144E+05  1.222192E+04  1.464529E+05  5.286945E+02
       409   1 -1.541191E+06 -1.365995E+05 -1.808306E+05 -1.493370E+04 -1.289419E+05 -1.485796E+02
       409   2 -1.512262E+06  4.208695E+04 -7.241229E+04 -4.120855E+03 -8.484533E+04 -3.820200E+02
       409   3 -1.540981E+06  1.325971E+04 -4.462248E+04  6.578144E+03 -4.074946E+04 -3.250747E+02
       409   4 -1.574574E+06 -1.449498E+05 -1.891783E+05 -4.966280E+02 -1.289925E+05 -1.515986E+02
       409   5 -1.545688E+06  3.372580E+04 -8.074928E+04 -4.574720E+02 -8.485654E+04 -3.825275E+02
       409   6 -1.574460E+06  4.874481E+03 -5.297931E+04 -5.325826E+02 -4.072124E+04 -3.245980E+02
       409   7 -1.607955E+06 -1.532994E+05 -1.975260E+05  1.393967E+04 -1.290432E+05 -1.546201E+02
       409   8 -1.579113E+06  2.536461E+04 -8.908634E+04  3.205713E+03 -8.486775E+04 -3.830351E+02
       409   9 -1.607938E+06 -3.510641E+03 -6.133619E+04 -7.642925E+03 -4.069302E+04 -3.241219E+02
       409  10 -1.541209E+06 -1.366040E+05 -1.808620E+05 -1.493372E+04 -7.903769E-11 -3.656068E-10
       409  11 -1.512270E+06  4.208501E+04 -7.242585E+04 -4.120881E+03  9.781621E-11 -5.247577E-10
       409  12 -1.540982E+06  1.325926E+04 -4.462561E+04  6.578133E+03  1.155038E-10  7.198323E-10
       409  13 -1.574592E+06 -1.449542E+05 -1.892097E+05 -4.966438E+02  1.089070E-10 -4.493363E-10
       409  14 -1.545696E+06  3.372386E+04 -8.076285E+04 -4.574981E+02  1.020397E-09 -2.613203E-09
       409  15 -1.574462E+06  4.874034E+03 -5.298243E+04 -5.325932E+02  1.577268E-10 -1.687903E-09
       409  16 -1.607973E+06 -1.533038E+05 -1.975574E+05  1.393965E+04 -2.177263E-11 -4.062010E-10
       409  17 -1.579121E+06  2.536267E+04 -8.909991E+04  3.205687E+03  6.596096E-10 -1.059237E-09
       409  18 -1.607940E+06 -3.511087E+03 -6.133931E+04 -7.642935E+03  4.134144E-10  6.257481E-10
       409  19 -1.541191E+06 -1.365995E+05 -1.808306E+05 -1.493370E+04  1.289419E+05  1.485796E+02
       409  20 -1.512262E+06  4.208695E+04 -7.241229E+04 -4.120855E+03  8.484533E+04  3.820200E+02
       409  21 -1.540981E+06  1.325971E+04 -4.462248E+04  6.578144E+03  4.074946E+04  3.250747E+02
       409  22 -1.574574E+06 -1.449498E+05 -1.891783E+05 -4.966280E+02  1.289925E+05  1.515986E+02
       409  23 -1.545688E+06  3.372580E+04 -8.074928E+04 -4.574720E+02  8.485654E+04  3.825275E+02
       409  24 -1.574460E+06  4.874481E+03 -5.297931E+04 -5.325826E+02  4.072124E+04  3.245980E+02
       409  25 -1.607955E+06 -1.532994E+05 -1.975260E+05  1.393967E+04  1.290432E+05  1.546201E+02
       409  26 -1.579113E+06  2.536461E+04 -8.908634E+04  3.205713E+03  8.486775E+04  3.830351E+02
       409  27 -1.607938E+06 -3.510641E+03 -6.133619E+04 -7.642925E+03  4.069302E+04  3.241219E+02
       410   1 -1.533444E+06 -1.440001E+04 -3.627311E+04 -2.176286E+03 -3.196435E+04 -2.770538E+02
       410   2 -1.529459E+06  1.253508E+04 -1.350858E+04 -1.467409E+03 -2.101049E+04 -2.989246E+02
       410   3 -1.534774E+06  7.968446E+03 -5.761271E+03  1.007593E+03 -1.005680E+04 -2.439587E+02
       410   4 -1.563744E+06 -2.198110E+04 -4.383620E+04 -9.503154E+01 -3.197258E+04 -2.771659E+02
       410   5 -1.559082E+06  5.122557E+03 -2.089998E+04 -9.828639E+02 -2.100816E+04 -2.989412E+02
       410   6 -1.563722E+06  7.218283E+02 -1.298885E+04 -1.045420E+02 -1.004389E+04 -2.439346E+02
       410   7 -1.594044E+06 -2.956225E+04 -5.139935E+04  1.986121E+03 -3.198081E+04 -2.772780E+02
       410   8 -1.588705E+06 -2.290030E+03 -2.829144E+04 -4.983421E+02 -2.100583E+04 -2.989577E+02
       410   9 -1.592670E+06 -6.524848E+03 -2.021648E+04 -1.216625E+03 -1.003099E+04 -2.439105E+02
       410  10 -1.533445E+06 -1.440028E+04 -3.627504E+04 -2.176293E+03  1.097291E-09  8.077707E-10
       410  11 -1.529459E+06  1.253496E+04 -1.350941E+04 -1.467414E+03  1.447231E-10  7.354233E-10
       410  12 -1.534774E+06  7.968418E+03 -5.761461E+03  1.007591E+03  1.048357E-09 -5.418651E-10
       410  13 -1.563746E+06 -2.198138E+04 -4.383812E+04 -9.503868E+01  5.406796E-10 -1.245809E-09
       410  14 -1.559083E+06  5.122439E+03 -2.090081E+04 -9.828690E+02 -3.296593E-10 -7.278119E-10
       410  15 -1.563723E+06  7.218011E+02 -1.298904E+04 -1.045440E+02  5.103566E-10 -9.994766E-11
       410  16 -1.594045E+06 -2.956252E+04 -5.140127E+04  1.986114E+03 -8.182427E-10  1.715982E-09
       410  17 -1.588705E+06 -2.290149E+03 -2.829227E+04 -4.983472E+02  2.022557E-10  1.211118E-10
       410  18 -1.592670E+06 -6.524875E+03 -2.021667E+04 -1.216627E+03 -9.419680E-10  3.471178E-10
       410  19 -1.533444E+06 -1.440001E+04 -3.627311E+04 -2.176286E+03  3.196435E+04  2.770538E+02
       410  20 -1.529459E+06  1.253508E+04 -1.350858E+04 -1.467409E+03  2.101049E+04  2.989246E+02
       410  21 -1.534774E+06  7.968446E+03 -5.761271E+03  1.007593E+03  1.005680E+04  2.439587E+02
       410  22 -1.563744E+06 -2.198110E+04 -4.383620E+04 -9.503154E+01  3.197258E+04  2.771659E+02
       410  23 -1.559082E+06  5.122557E+03 -2.089998E+04 -9.828639E+02  2.100816E+04  2.989412E+02
       410  24 -1.563722E+06  7.218283E+02 -1.298885E+04 -1.045420E+02  1.004389E+04  2.439346E+02
       410  25 -1.594044E+06 -2.956225E+04 -5.139935E+04  1.986121E+03  3.198081E+04  2.772780E+02
       410  26 -1.588705E+06 -2.290030E+03 -2.829144E+04 -4.983421E+02  2.100583E+04  2.989577E+02
       410  27 -1.592670E+06 -6.524848E+03 -2.021648E+04 -1.216625E+03  1.003099E+04  2.439105E+02
       411   1 -1.542742E+06  1.504151E+03 -5.590994E+03 -6.475235E+01 -7.932348E+03 -2.101940E+02
       411   2 -1.543191E+06  5.287246E+03 -8.079341E+02 -1.431565E+03 -5.218350E+03 -1.764456E+02
       411   3 -1.545184E+06  4.315288E+03  1.016057E+03  3.954566E+02 -2.504332E+03 -1.135692E+02
       411   4 -1.562003E+06 -3.314946E+03 -1.039500E+04  2.174109E+02 -7.929647E+03 -2.101966E+02
       411   5 -1.561228E+06  7.736302E+02 -5.308632E+03 -1.380484E+03 -5.211538E+03 -1.764423E+02
       411   6 -1.561998E+06  1.063626E+02 -3.184250E+03  2.154579E+02 -2.493403E+03 -1.135616E+02
       411   7 -1.581263E+06 -8.134070E+03 -1.519904E+04  4.995653E+02 -7.926947E+03 -2.101992E+02
       411   8 -1.579265E+06 -3.740010E+03 -9.809354E+03 -1.329405E+03 -5.204726E+03 -1.764390E+02
       411   9 -1.578812E+06 -4.102584E+03 -7.384579E+03  3.546399E+01 -2.482475E+03 -1.135541E+02
       411  10 -1.542743E+06  1.504134E+03 -5.591113E+03 -6.475369E+01  1.325318E-09 -5.585510E-10
       411  11 -1.543191E+06  5.287239E+03 -8.079854E+02 -1.431566E+03 -2.500125E-10 -1.901680E-10
       411  12 -1.545184E+06  4.315286E+03  1.016045E+03  3.954564E+02  2.837745E-10 -7.453369E-10
       411  13 -1.562003E+06 -3.314963E+03 -1.039512E+04  2.174095E+02  2.548660E-10  1.644774E-10
       411  14 -1.561228E+06  7.736229E+02 -5.308683E+03 -1.380485E+03 -4.423532E-10  6.324926E-10
       411  15 -1.561998E+06  1.063609E+02 -3.184262E+03  2.154576E+02  7.683331E-12  8.239711E-10
       411  16 -1.581263E+06 -8.134087E+03 -1.519916E+04  4.995639E+02 -1.721091E-09 -7.622086E-10
       411  17 -1.579265E+06 -3.740017E+03 -9.809405E+03 -1.329406E+03 -3.730808E-10 -9.253191E-10
       411  18 -1.578812E+06 -4.102585E+03 -7.384590E+03  3.546376E+01  1.800764E-10 -8.780916E-10
       411  19 -1.542742E+06  1.504151E+03 -5.590994E+03 -6.475235E+01  7.932348E+03  2.101940E+02
       411  20 -1.543191E+06  5.287246E+03 -8.079341E+02 -1.431565E+03  5.218350E+03  1.764456E+02
       411  21 -1.545184E+06  4.315288E+03  1.016057E+03  3.954566E+02  2.504332E+03  1.135692E+02
       411  22 -1.562003E+06 -3.314946E+03 -1.039500E+04  2.174109E+02  7.929647E+03  2.101966E+02
       411  23 -1.561228E+06  7.736302E+02 -5.308632E+03 -1.380484E+03  5.211538E+03  1.764423E+02
       411  24 -1.561998E+06  1.063626E+02 -3.184250E+03  2.154579E+02  2.493403E+03  1.135616E+02
       411  25 -1.581263E+06 -8.134070E+03 -1.519904E+04  4.995653E+02  7.926947E+03  2.101992E+02
       411  26 -1.579265E+06 -3.740010E+03 -9.809354E+03 -1.329405E+03  5.204726E+03  1.764390E+02
       411  27 -1.578812E+06 -4.102584E+03 -7.384579E+03  3.546399E+01  2.482475E+03  1.135541E+02
       412   1 -1.558555E+06  2.951132E+02 -1.702522E+03  3.127606E+02 -1.988440E+03 -7.413716E+01
       412   2 -1.559872E+06  5.411559E+02 -8.781771E+02 -1.549308E+03 -1.330436E+03 -1.733778E+01
       412   3 -1.561455E+06  8.841208E+01 -6.589871E+02  3.745203E+02 -6.724360E+02  4.245349E+01
       412   4 -1.561715E+06 -4.948316E+02 -2.487053E+03  3.479305E+02 -1.980548E+03 -7.413211E+01
       412   5 -1.561581E+06  1.134075E+02 -1.304697E+03 -1.545188E+03 -1.322117E+03 -1.733231E+01
       412   6 -1.561714E+06  2.278405E+01 -7.277969E+02  3.475910E+02 -6.636891E+02  4.245933E+01
       412   7 -1.564875E+06 -1.284777E+03 -3.271584E+03  3.831002E+02 -1.972656E+03 -7.412706E+01
       412   8 -1.563290E+06 -3.143412E+02 -1.731218E+03 -1.541068E+03 -1.313799E+03 -1.732684E+01
       412   9 -1.561973E+06 -4.284397E+01 -7.966068E+02  3.206616E+02 -6.549422E+02  4.246518E+01
       412  10 -1.558555E+06  2.951121E+02 -1.702530E+03  3.127605E+02  3.660790E-10 -8.423523E-11
       412  11 -1.559872E+06  5.411555E+02 -8.781804E+02 -1.549308E+03 -8.287927E-11 -6.723041E-10
       412  12 -1.561455E+06  8.841196E+01 -6.589879E+02  3.745204E+02  8.363422E-10  8.310924E-11
       412  13 -1.561715E+06 -4.948327E+02 -2.487060E+03  3.479304E+02  1.036164E-09 -1.400947E-10
       412  14 -1.561581E+06  1.134070E+02 -1.304701E+03 -1.545188E+03 -7.950502E-10  4.393881E-11
       412  15 -1.561714E+06  2.278393E+01 -7.277978E+02  3.475910E+02 -6.472275E-11  2.980379E-10
       412  16 -1.564875E+06 -1.284778E+03 -3.271592E+03  3.831001E+02 -8.630937E-10  4.904089E-10
       412  17 -1.563290E+06 -3.143416E+02 -1.731221E+03 -1.541068E+03  2.855953E-10  9.661819E-11
       412  18 -1.561973E+06 -4.284409E+01 -7.966076E+02  3.206616E+02 -1.195689E-09  4.811957E-10
       412  19 -1.558555E+06  2.951132E+02 -1.702522E+03  3.127606E+02  1.988440E+03  7.413716E+01
       412  20 -1.559872E+06  5.411559E+02 -8.781771E+02 -1.549308E+03  1.330436E+03  1.733778E+01
       412  21 -1.561455E+06  8.841208E+01 -6.589871E+02  3.745203E+02  6.724360E+02 -4.245349E+01
       412  22 -1.561715E+06 -4.948316E+02 -2.487053E+03  3.479305E+02  1.980548E+03  7.413211E+01
       412  23 -1.561581E+06  1.134075E+02 -1.304697E+03 -1.545188E+03  1.322117E+03  1.733231E+01
       412  24 -1.561714E+06  2.278405E+01 -7.277969E+02  3.475910E+02  6.636891E+02 -4.245933E+01
       412  25 -1.564875E+06 -1.284777E+03 -3.271584E+03  3.831002E+02  1.972656E+03  7.412706E+01
       412  26 -1.563290E+06 -3.143412E+02 -1.731218E+03 -1.541068E+03  1.313799E+03  1.732684E+01
       412  27 -1.561973E+06 -4.284397E+01 -7.966068E+02  3.206616E+02  6.549422E+02 -4.246518E+01
       413   1 -1.575431E+06 -3.520455E+03 -3.970861E+03  2.505531E+02 -5.602587E+02  8.204643E+01
       413   2 -1.576715E+06 -3.766413E+03 -3.958527E+03 -1.440934E+03 -4.587425E+02  1.438027E+02
       413   3 -1.578023E+06 -4.041878E+03 -4.020235E+03  2.517984E+02 -3.572116E+02  1.856878E+02
       413   4 -1.561660E+06 -7.326432E+01 -5.298564E+02  2.584884E+02 -5.499730E+02  8.205306E+01
       413   5 -1.561648E+06  4.242370E+00 -1.986821E+02 -1.433659E+03 -4.513112E+02  1.438071E+02
       413   6 -1.561659E+06  5.273437E+01  6.043174E+01  2.584093E+02 -3.526345E+02  1.856902E+02
       413   7 -1.547889E+06  3.373912E+03  2.911134E+03  2.664239E+02 -5.396871E+02  8.205969E+01
       413   8 -1.546581E+06  3.774881E+03  3.561145E+03 -1.426383E+03 -4.438797E+02  1.438115E+02
       413   9 -1.545295E+06  4.147326E+03  4.141078E+03  2.650204E+02 -3.480572E+02  1.856926E+02
       413  10 -1.575431E+06 -3.520455E+03 -3.970861E+03  2.505531E+02  8.482474E-10 -4.826736E-10
       413  11 -1.576715E+06 -3.766413E+03 -3.958527E+03 -1.440934E+03 -2.258590E-10  4.607252E-10
       413  12 -1.578023E+06 -4.041878E+03 -4.020235E+03  2.517985E+02  7.221826E-10 -3.966116E-10
       413  13 -1.561660E+06 -7.326441E+01 -5.298570E+02  2.584885E+02  1.034021E-09 -1.081653E-09
       413  14 -1.561648E+06  4.242292E+00 -1.986825E+02 -1.433659E+03  3.974440E-10 -4.582911E-10
       413  15 -1.561659E+06  5.273430E+01  6.043144E+01  2.584094E+02 -7.953083E-10  7.666264E-10
       413  16 -1.547889E+06  3.373912E+03  2.911133E+03  2.664240E+02 -9.292426E-10 -3.262765E-10
       413  17 -1.546581E+06  3.774881E+03  3.561145E+03 -1.426383E+03  1.734053E-10  1.854105E-10
       413  18 -1.545295E+06  4.147326E+03  4.141078E+03  2.650204E+02 -8.688391E-10 -3.216612E-10
       413  19 -1.575431E+06 -3.520455E+03 -3.970861E+03  2.505531E+02  5.602587E+02 -8.204643E+01
       413  20 -1.576715E+06 -3.766413E+03 -3.958527E+03 -1.440934E+03  4.587425E+02 -1.438027E+02
       413  21 -1.578023E+06 -4.041878E+03 -4.020235E+03  2.517984E+02  3.572116E+02 -1.856878E+02
       413  22 -1.561660E+06 -7.326432E+01 -5.298564E+02  2.584884E+02  5.499730E+02 -8.205306E+01
       413  23 -1.561648E+06  4.242370E+00 -1.986821E+02 -1.433659E+03  4.513112E+02 -1.438071E+02
       413  24 -1.561659E+06  5.273437E+01  6.043174E+01  2.584093E+02  3.526345E+02 -1.856902E+02
       413  25 -1.547889E+06  3.373912E+03  2.911134E+03  2.664239E+02  5.396871E+02 -8.205969E+01
       413  26 -1.546581E+06  3.774881E+03  3.561145E+03 -1.426383E+03  4.438797E+02 -1.438115E+02
       413  27 -1.545295E+06  4.147326E+03  4.141078E+03  2.650204E+02  3.480572E+02 -1.856926E+02
       414   1 -1.588700E+06 -6.798153E+03 -6.584345E+03 -2.280282E+01 -3.843858E+02  2.164060E+02
       414   2 -1.589580E+06 -7.055277E+03 -6.499421E+03 -1.091123E+03 -6.146906E+02  2.668840E+02
       414   3 -1.590304E+06 -6.840367E+03 -6.144670E+03 -6.714974E+01 -8.449738E+02  2.770760E+02
       414   4 -1.561620E+06 -2.027143E+01  1.773024E+02 -2.858939E+01 -3.742288E+02  2.164112E+02
       414   5 -1.561698E+06 -7.747848E+01  4.583255E+02 -1.074815E+03 -6.103329E+02  2.668854E+02
       414   6 -1.561619E+06  3.383487E+02  1.013204E+03 -2.875264E+01 -8.464158E+02  2.770745E+02
       414   7 -1.534539E+06  6.757555E+03  6.938894E+03 -3.437632E+01 -3.640713E+02  2.164163E+02
       414   8 -1.533815E+06  6.900261E+03  7.416013E+03 -1.058506E+03 -6.059750E+02  2.668869E+02
       414   9 -1.532933E+06  7.517002E+03  8.171016E+03  9.646155E+00 -8.478578E+02  2.770730E+02
       414  10 -1.588700E+06 -6.798153E+03 -6.584345E+03 -2.280275E+01  1.196081E-09 -8.079368E-10
       414  11 -1.589580E+06 -7.055277E+03 -6.499421E+03 -1.091123E+03 -4.746037E-10  2.697312E-10
       414  12 -1.590304E+06 -6.840367E+03 -6.144672E+03 -6.714955E+01  4.276578E-10 -6.891879E-11
       414  13 -1.561620E+06 -2.027152E+01  1.773020E+02 -2.858933E+01 -3.454810E-10  4.041031E-10
       414  14 -1.561698E+06 -7.747866E+01  4.583247E+02 -1.074815E+03 -9.493027E-10  6.611656E-10
       414  15 -1.561619E+06  3.383484E+02  1.013202E+03 -2.875245E+01  2.767420E-10 -4.071839E-10
       414  16 -1.534539E+06  6.757555E+03  6.938894E+03 -3.437626E+01 -7.313656E-10 -3.962173E-10
       414  17 -1.533815E+06  6.900261E+03  7.416012E+03 -1.058506E+03 -9.131385E-10  6.052591E-10
       414  18 -1.532933E+06  7.517002E+03  8.171015E+03  9.646344E+00 -7.725496E-10  8.356038E-10
       414  19 -1.588700E+06 -6.798153E+03 -6.584345E+03 -2.280282E+01  3.843858E+02 -2.164060E+02
       414  20 -1.589580E+06 -7.055277E+03 -6.499421E+03 -1.091123E+03  6.146906E+02 -2.668840E+02
       414  21 -1.590304E+06 -6.840367E+03 -6.144670E+03 -6.714974E+01  8.449738E+02 -2.770760E+02
       414  22 -1.561620E+06 -2.027143E+01  1.773024E+02 -2.858939E+01  3.742288E+02 -2.164112E+02
       414  23 -1.561698E+06 -7.747848E+01  4.583255E+02 -1.074815E+03  6.103329E+02 -2.668854E+02
       414  24 -1.561619E+06  3.383487E+02  1.013204E+03 -2.875264E+01  8.464158E+02 -2.770745E+02
       414  25 -1.534539E+06  6.757555E+03  6.938894E+03 -3.437632E+01  3.640713E+02 -2.164163E+02
       414  26 -1.533815E+06  6.900261E+03  7.416013E+03 -1.058506E+03  6.059750E+02 -2.668869E+02
       414  27 -1.532933E+06  7.517002E+03  8.171016E+03  9.646154E+00  8.478578E+02 -2.770730E+02
       415   1 -1.594712E+06 -8.401732E+03 -7.015144E+03 -3.356674E+02 -1.064085E+03  2.943855E+02
       415   2 -1.595288E+06 -8.873334E+03 -6.214954E+03 -6.222139E+02 -2.162007E+03  3.227761E+02
       415   3 -1.594902E+06 -6.133082E+03 -3.892595E+03 -6.580001E+02 -3.259906E+03  2.788891E+02
       415   4 -1.561440E+06 -7.493027E+01  1.289629E+03 -4.376400E+02 -1.054786E+03  2.943885E+02
       415   5 -1.561921E+06 -5.229661E+02  2.111105E+03 -5.633385E+02 -2.163148E+03  3.227745E+02
       415   6 -1.561438E+06  2.242577E+03  4.461957E+03 -4.382776E+02 -3.271487E+03  2.788840E+02
       415   7 -1.528168E+06  8.251788E+03  9.594319E+03 -5.396182E+02 -1.045485E+03  2.943915E+02
       415   8 -1.528553E+06  7.827318E+03  1.043708E+04 -5.044600E+02 -2.164288E+03  3.227728E+02
       415   9 -1.527973E+06  1.061815E+04  1.281642E+04 -2.185433E+02 -3.283068E+03  2.788788E+02
       415  10 -1.594712E+06 -8.401732E+03 -7.015146E+03 -3.356671E+02  1.631077E-10  1.533577E-10
       415  11 -1.595288E+06 -8.873336E+03 -6.214963E+03 -6.222133E+02 -4.109409E-10 -4.290329E-10
       415  12 -1.594902E+06 -6.133085E+03 -3.892616E+03 -6.579994E+02  3.918087E-10 -9.130580E-10
       415  13 -1.561440E+06 -7.493066E+01  1.289627E+03 -4.376397E+02  2.033408E-10 -3.857875E-10
       415  14 -1.561921E+06 -5.229675E+02  2.111096E+03 -5.633379E+02 -4.070526E-10 -2.523550E-10
       415  15 -1.561438E+06  2.242574E+03  4.461937E+03 -4.382769E+02  3.333235E-10 -2.138243E-10
       415  16 -1.528168E+06  8.251787E+03  9.594317E+03 -5.396179E+02 -5.597188E-10 -5.950485E-11
       415  17 -1.528553E+06  7.827317E+03  1.043707E+04 -5.044594E+02  2.229449E-10 -2.428043E-10
       415  18 -1.527973E+06  1.061815E+04  1.281640E+04 -2.185425E+02 -5.455816E-10 -3.397263E-11
       415  19 -1.594712E+06 -8.401732E+03 -7.015144E+03 -3.356674E+02  1.064085E+03 -2.943855E+02
       415  20 -1.595288E+06 -8.873334E+03 -6.214954E+03 -6.222139E+02  2.162007E+03 -3.227761E+02
       415  21 -1.594902E+06 -6.133082E+03 -3.892595E+03 -6.580001E+02  3.259906E+03 -2.788891E+02
       415  22 -1.561440E+06 -7.493027E+01  1.289629E+03 -4.376400E+02  1.054786E+03 -2.943885E+02
       415  23 -1.561921E+06 -5.229661E+02  2.111105E+03 -5.633385E+02  2.163148E+03 -3.227745E+02
       415  24 -1.561438E+06  2.242577E+03  4.461957E+03 -4.382776E+02  3.271487E+03 -2.788840E+02
       415  25 -1.528168E+06  8.251788E+03  9.594319E+03 -5.396182E+02  1.045485E+03 -2.943915E+02
       415  26 -1.528553E+06  7.827318E+03  1.043708E+04 -5.044600E+02  2.164288E+03 -3.227728E+02
       415  27 -1.527973E+06  1.061815E+04  1.281642E+04 -2.185433E+02  3.283068E+03 -2.788788E+02
       416   1 -1.591059E+06 -8.184124E+03 -2.265987E+03 -1.420960E+02 -4.181345E+03  2.999849E+02
       416   2 -1.593365E+06 -1.096812E+04  7.322427E+02 -4.115963E+02 -8.648905E+03  3.154829E+02
       416   3 -1.589780E+06  7.415855E+03  1.193941E+04 -2.338386E+03 -1.311637E+04  1.033381E+02
       416   4 -1.560345E+06 -4.980644E+02  5.397814E+03 -8.612013E+02 -4.162752E+03  2.999931E+02
       416   5 -1.563287E+06 -3.441139E+03  8.235296E+03 -3.338393E+01 -8.663222E+03  3.154743E+02
       416   6 -1.560332E+06  1.478894E+04  1.930433E+04 -8.628614E+02 -1.316359E+04  1.033018E+02
       416   7 -1.529629E+06  7.187926E+03  1.306154E+04 -1.580342E+03 -4.144157E+03  3.000013E+02
       416   8 -1.533208E+06  4.085775E+03  1.573828E+04  3.448467E+02 -8.677540E+03  3.154657E+02
       416   9 -1.530884E+06  2.216197E+04  2.666920E+04  6.127330E+02 -1.321082E+04  1.032653E+02
       416  10 -1.591059E+06 -8.184129E+03 -2.266020E+03 -1.420950E+02  7.026529E-10 -3.774759E-11
       416  11 -1.593366E+06 -1.096814E+04  7.321016E+02 -4.115941E+02  2.480605E-11 -5.754775E-10
       416  12 -1.589780E+06  7.415808E+03  1.193908E+04 -2.338385E+03 -3.241556E-10 -7.079329E-11
       416  13 -1.560345E+06 -4.980692E+02  5.397781E+03 -8.612003E+02  1.305237E-09 -5.489459E-10
       416  14 -1.563287E+06 -3.441159E+03  8.235154E+03 -3.338173E+01 -1.118529E-11 -1.319234E-10
       416  15 -1.560333E+06  1.478889E+04  1.930401E+04 -8.628603E+02  2.245538E-10 -1.997652E-11
       416  16 -1.529629E+06  7.187921E+03  1.306151E+04 -1.580341E+03 -4.403039E-10  4.538009E-10
       416  17 -1.533208E+06  4.085754E+03  1.573814E+04  3.448489E+02  2.904926E-10 -4.731059E-11
       416  18 -1.530884E+06  2.216192E+04  2.666887E+04  6.127341E+02 -2.939339E-10 -6.775224E-10
       416  19 -1.591059E+06 -8.184124E+03 -2.265987E+03 -1.420960E+02  4.181345E+03 -2.999849E+02
       416  20 -1.593365E+06 -1.096812E+04  7.322427E+02 -4.115963E+02  8.648905E+03 -3.154829E+02
       416  21 -1.589780E+06  7.415855E+03  1.193941E+04 -2.338386E+03  1.311637E+04 -1.033381E+02
       416  22 -1.560345E+06 -4.980644E+02  5.397814E+03 -8.612013E+02  4.162752E+03 -2.999931E+02
       416  23 -1.563287E+06 -3.441139E+03  8.235296E+03 -3.338393E+01  8.663222E+03 -3.154743E+02
       416  24 -1.560332E+06  1.478894E+04  1.930433E+04 -8.628614E+02  1.316359E+04 -1.033018E+02
       416  25 -1.529629E+06  7.187926E+03  1.306154E+04 -1.580342E+03  4.144157E+03 -3.000013E+02
       416  26 -1.533208E+06  4.085775E+03  1.573828E+04  3.448467E+02  8.677540E+03 -3.154657E+02
       416  27 -1.530884E+06  2.216197E+04  2.666920E+04  6.127330E+02  1.321082E+04 -1.032653E+02
       417   1  6.230416E+06  1.236782E+06  1.613511E+06  1.282629E+05  1.096396E+06  1.626179E+02
       417   2  5.985245E+06 -2.729120E+05  6.964959E+05  3.110779E+04  7.220014E+05 -3.214561E+02
       417   3  6.225494E+06 -3.057534E+04  4.600348E+05 -5.514716E+04  3.475544E+05 -2.648338E+02
       417   4  6.179019E+06  1.223968E+06  1.600768E+06  5.193978E+03  1.096268E+06 -5.270166E+01
       417   5  5.938061E+06 -2.846409E+05  6.848251E+05 -1.601310E+02  7.219631E+05 -3.574894E+02
       417   6  6.182528E+06 -4.119509E+04  4.494102E+05  5.357036E+03  3.476035E+05 -2.312638E+02
       417   7  6.127657E+06  1.211211E+06  1.588032E+06 -1.178649E+05  1.096140E+06 -2.679863E+02
       417   8  5.890881E+06 -2.963664E+05  6.731548E+05 -3.142569E+04  7.219247E+05 -3.935212E+02
       417   9  6.139573E+06 -5.180135E+04  4.387873E+05  6.585708E+04  3.476527E+05 -1.976824E+02
       417  10  6.229136E+06  1.236463E+06  1.611274E+06  1.282629E+05 -6.493695E-10 -8.216842E-10
       417  11  5.984690E+06 -2.730501E+05  6.955259E+05  3.110798E+04  2.834800E-09 -3.200033E-09
       417  12  6.225365E+06 -3.060736E+04  4.598101E+05 -5.514709E+04 -2.903778E-09 -3.860937E-09
       417  13  6.177740E+06  1.223650E+06  1.598531E+06  5.194027E+03  2.025627E-09 -1.086406E-09
       417  14  5.937506E+06 -2.847791E+05  6.838552E+05 -1.599237E+02  2.025341E-09 -2.931124E-09
       417  15  6.182400E+06 -4.122712E+04  4.491854E+05  5.357100E+03 -2.341315E-09 -2.821190E-09
       417  16  6.126378E+06  1.210892E+06  1.585796E+06 -1.178647E+05  1.270444E-09 -1.284388E-09
       417  17  5.890326E+06 -2.965046E+05  6.721849E+05 -3.142547E+04  2.298107E-09 -2.813218E-09
       417  18  6.139444E+06 -5.183339E+04  4.385624E+05  6.585714E+04  4.843099E-09 -1.325324E-09
       417  19  6.230416E+06  1.236782E+06  1.613511E+06  1.282629E+05 -1.096396E+06 -1.626179E+02
       417  20  5.985245E+06 -2.729120E+05  6.964959E+05  3.110779E+04 -7.220014E+05  3.214561E+02
       417  21  6.225494E+06 -3.057534E+04  4.600348E+05 -5.514716E+04 -3.475544E+05  2.648338E+02
       417  22  6.179019E+06  1.223968E+06  1.600768E+06  5.193978E+03 -1.096268E+06  5.270166E+01
       417  23  5.938061E+06 -2.846409E+05  6.848251E+05 -1.601310E+02 -7.219631E+05  3.574894E+02
       417  24  6.182528E+06 -4.119509E+04  4.494102E+05  5.357036E+03 -3.476035E+05  2.312638E+02
       417  25  6.127657E+06  1.211211E+06  1.588032E+06 -1.178649E+05 -1.096140E+06  2.679863E+02
       417  26  5.890881E+06 -2.963664E+05  6.731548E+05 -3.142569E+04 -7.219247E+05  3.935212E+02
       417  27  6.139573E+06 -5.180135E+04  4.387873E+05  6.585708E+04 -3.476527E+05  1.976824E+02
       418   1  6.108921E+06  1.900661E+05  3.763474E+05  2.145609E+04  2.728424E+05 -8.463933E+01
       418   2  6.068638E+06 -3.917537E+04  1.819640E+05  6.059497E+03  1.793403E+05 -8.236825E+01
       418   3  6.106772E+06 -2.378155E+03  1.145631E+05 -5.665152E+03  8.584221E+04 -7.921400E+01
       418   4  6.091084E+06  1.856246E+05  3.719334E+05  3.641684E+03  2.728435E+05 -9.239340E+01
       418   5  6.052231E+06 -4.325126E+04  1.779032E+05  1.839872E+03  1.793434E+05 -8.357359E+01
       418   6  6.091795E+06 -6.085544E+03  1.108567E+05  3.709867E+03  8.584697E+04 -7.792734E+01
       418   7  6.073249E+06  1.811842E+05  3.675195E+05 -1.417222E+04  2.728446E+05 -1.001477E+02
       418   8  6.035823E+06 -4.732710E+04  1.738423E+05 -2.379641E+03  1.793464E+05 -8.477899E+01
       418   9  6.076818E+06 -9.792623E+03  1.071503E+05  1.308466E+04  8.585174E+04 -7.664050E+01
       418  10  6.108842E+06  1.900464E+05  3.762088E+05  2.145611E+04 -2.662170E-09 -3.713031E-09
       418  11  6.068604E+06 -3.918390E+04  1.819041E+05  6.059509E+03  2.380903E-09  1.257788E-09
       418  12  6.106764E+06 -2.380109E+03  1.145494E+05 -5.665146E+03 -1.854312E-10  1.154651E-09
       418  13  6.091005E+06  1.856048E+05  3.717948E+05  3.641704E+03  2.093581E-09 -8.508018E-10
       418  14  6.052196E+06 -4.325979E+04  1.778433E+05  1.839885E+03  3.294283E-09 -8.462649E-10
       418  15  6.091787E+06 -6.087499E+03  1.108429E+05  3.709873E+03 -2.723674E-09 -3.117212E-10
       418  16  6.073169E+06  1.811644E+05  3.673810E+05 -1.417220E+04  1.353792E-09 -6.582683E-10
       418  17  6.035789E+06 -4.733564E+04  1.737825E+05 -2.379629E+03  7.781944E-10 -4.126987E-10
       418  18  6.076810E+06 -9.794578E+03  1.071366E+05  1.308467E+04 -5.767383E-10 -4.999871E-10
       418  19  6.108921E+06  1.900661E+05  3.763474E+05  2.145609E+04 -2.728424E+05  8.463933E+01
       418  20  6.068638E+06 -3.917537E+04  1.819640E+05  6.059497E+03 -1.793403E+05  8.236825E+01
       418  21  6.106772E+06 -2.378155E+03  1.145631E+05 -5.665152E+03 -8.584221E+04  7.921400E+01
       418  22  6.091084E+06  1.856246E+05  3.719334E+05  3.641684E+03 -2.728435E+05  9.239340E+01
       418  23  6.052231E+06 -4.325126E+04  1.779032E+05  1.839872E+03 -1.793434E+05  8.357359E+01
       418  24  6.091795E+06 -6.085544E+03  1.108567E+05  3.709867E+03 -8.584697E+04  7.792734E+01
       418  25  6.073249E+06  1.811842E+05  3.675195E+05 -1.417222E+04 -2.728446E+05  1.001477E+02
       418  26  6.035823E+06 -4.732710E+04  1.738423E+05 -2.379641E+03 -1.793464E+05  8.477899E+01
       418  27  6.076818E+06 -9.792623E+03  1.071503E+05  1.308466E+04 -8.585174E+04  7.664050E+01
       419   1  6.083595E+06  2.960149E+04  9.047763E+04  5.606205E+03  6.766434E+04 -5.711548E+01
       419   2  6.076657E+06 -5.071541E+03  4.746247E+04  3.041997E+03  4.408189E+04 -3.157785E+01
       419   3  6.082811E+06  5.623399E+02  2.976765E+04  1.675721E+03  2.050031E+04 -3.486200E+01
       419   4  6.077139E+06  2.799724E+04  8.888208E+04  3.127928E+03  6.767120E+04 -5.737994E+01
       419   5  6.070665E+06 -6.559167E+03  4.597917E+04  2.535235E+03  4.408476E+04 -3.161211E+01
       419   6  6.077283E+06 -8.077733E+02  2.839953E+04  3.140461E+03  2.049918E+04 -3.481456E+01
       419   7  6.070683E+06  2.639301E+04  8.728652E+04  6.496758E+02  6.767805E+04 -5.764446E+01
       419   8  6.064673E+06 -8.046794E+03  4.449586E+04  2.028477E+03  4.408763E+04 -3.164638E+01
       419   9  6.071756E+06 -2.177881E+03  2.703141E+04  4.605188E+03  2.049804E+04 -3.476713E+01
       419  10  6.083590E+06  2.960027E+04  9.046911E+04  5.606209E+03 -1.195987E-09 -4.174081E-11
       419  11  6.076655E+06 -5.072057E+03  4.745885E+04  3.041998E+03 -3.951149E-09 -3.369923E-09
       419  12  6.082810E+06  5.622284E+02  2.976687E+04  1.675722E+03 -6.595464E-10  1.436985E-09
       419  13  6.077134E+06  2.799602E+04  8.887355E+04  3.127931E+03 -1.752558E-09 -9.771582E-11
       419  14  6.070663E+06 -6.559683E+03  4.597555E+04  2.535236E+03 -3.898754E-10  5.847123E-10
       419  15  6.077283E+06 -8.078848E+02  2.839875E+04  3.140462E+03 -4.097493E-09 -3.403275E-10
       419  16  6.070678E+06  2.639180E+04  8.727800E+04  6.496790E+02 -1.916235E-09  5.458080E-10
       419  17  6.064671E+06 -8.047310E+03  4.449224E+04  2.028478E+03 -3.703185E-09  1.290046E-09
       419  18  6.071756E+06 -2.177992E+03  2.703063E+04  4.605189E+03  2.960206E-11  2.383349E-09
       419  19  6.083595E+06  2.960149E+04  9.047763E+04  5.606205E+03 -6.766434E+04  5.711548E+01
       419  20  6.076657E+06 -5.071541E+03  4.746247E+04  3.041997E+03 -4.408189E+04  3.157785E+01
       419  21  6.082811E+06  5.623399E+02  2.976765E+04  1.675721E+03 -2.050031E+04  3.486200E+01
       419  22  6.077139E+06  2.799724E+04  8.888208E+04  3.127928E+03 -6.767120E+04  5.737994E+01
       419  23  6.070665E+06 -6.559167E+03  4.597917E+04  2.535235E+03 -4.408476E+04  3.161211E+01
       419  24  6.077283E+06 -8.077733E+02  2.839953E+04  3.140461E+03 -2.049918E+04  3.481456E+01
       419  25  6.070683E+06  2.639301E+04  8.728652E+04  6.496758E+02 -6.767805E+04  5.764446E+01
       419  26  6.064673E+06 -8.046794E+03  4.449586E+04  2.028477E+03 -4.408763E+04  3.164638E+01
       419  27  6.071756E+06 -2.177881E+03  2.703141E+04  4.605188E+03 -2.049804E+04  3.476713E+01
       420   1  6.078037E+06  4.944064E+03  2.357133E+04  3.257932E+03  1.583474E+04 -3.194868E+01
       420   2  6.076683E+06 -3.476432E+02  1.457889E+04  2.860972E+03  8.854539E+03 -2.068664E+01
       420   3  6.077914E+06  1.115167E+03  1.178667E+04  2.655732E+03  1.874284E+03 -3.086026E+01
       420   4  6.074930E+06  4.172861E+03  2.280340E+04  2.911353E+03  1.583834E+04 -3.195576E+01
       420   5  6.073650E+06 -1.100407E+03  1.382804E+04  2.816369E+03  8.855063E+03 -2.068702E+01
       420   6  6.074955E+06  3.813934E+02  1.105504E+04  2.913111E+03  1.871727E+03 -3.086071E+01
       420   7  6.071823E+06  3.401657E+03  2.203546E+04  2.564774E+03  1.584195E+04 -3.196284E+01
       420   8  6.070617E+06 -1.853171E+03  1.307718E+04  2.771766E+03  8.855587E+03 -2.068740E+01
       420   9  6.071997E+06 -3.523809E+02  1.032340E+04  3.170488E+03  1.869170E+03 -3.086116E+01
       420  10  6.078037E+06  4.943998E+03  2.357086E+04  3.257933E+03 -3.360032E-10 -2.187402E-10
       420  11  6.076683E+06 -3.476640E+02  1.457875E+04  2.860972E+03 -3.318018E-10 -6.136745E-10
       420  12  6.077914E+06  1.115166E+03  1.178667E+04  2.655732E+03 -1.037358E-09 -3.271461E-09
       420  13  6.074930E+06  4.172794E+03  2.280293E+04  2.911353E+03  4.514385E-10  1.367833E-09
       420  14  6.073650E+06 -1.100428E+03  1.382789E+04  2.816369E+03 -1.829465E-09  4.142334E-10
       420  15  6.074955E+06  3.813925E+02  1.105503E+04  2.913111E+03  1.954860E-09 -5.888548E-10
       420  16  6.071823E+06  3.401590E+03  2.203500E+04  2.564775E+03  1.733987E-09  4.528317E-10
       420  17  6.070617E+06 -1.853192E+03  1.307703E+04  2.771766E+03 -2.382026E-09  9.991299E-11
       420  18  6.071997E+06 -3.523818E+02  1.032340E+04  3.170488E+03  5.072019E-10 -8.336493E-10
       420  19  6.078037E+06  4.944064E+03  2.357133E+04  3.257932E+03 -1.583474E+04  3.194868E+01
       420  20  6.076683E+06 -3.476432E+02  1.457889E+04  2.860972E+03 -8.854539E+03  2.068664E+01
       420  21  6.077914E+06  1.115167E+03  1.178667E+04  2.655732E+03 -1.874284E+03  3.086026E+01
       420  22  6.074930E+06  4.172861E+03  2.280340E+04  2.911353E+03 -1.583834E+04  3.195576E+01
       420  23  6.073650E+06 -1.100407E+03  1.382804E+04  2.816369E+03 -8.855063E+03  2.068702E+01
       420  24  6.074955E+06  3.813934E+02  1.105504E+04  2.913111E+03 -1.871727E+03  3.086071E+01
       420  25  6.071823E+06  3.401657E+03  2.203546E+04  2.564774E+03 -1.584195E+04  3.196284E+01
       420  26  6.070617E+06 -1.853171E+03  1.307718E+04  2.771766E+03 -8.855587E+03  2.068740E+01
       420  27  6.071997E+06 -3.523809E+02  1.032340E+04  3.170488E+03 -1.869170E+03  3.086116E+01
       421   1  6.078506E+06  1.417533E+03  1.166864E+04  2.963761E+03 -1.173406E+02 -3.260313E+01
       421   2  6.077598E+06  9.877175E+00  1.319563E+04  2.996667E+03 -6.292528E+03 -3.469219E+01
       421   3  6.078936E+06  4.407854E+03  2.016543E+04  2.446656E+03 -1.246773E+04 -6.327837E+01
       421   4  6.074880E+06  5.173763E+02  1.077114E+04  2.740836E+03 -1.152926E+02 -3.260212E+01
       421   5  6.073748E+06 -9.457135E+02  1.224238E+04  3.031575E+03 -6.294292E+03 -3.469342E+01
       421   6  6.074861E+06  3.397507E+03  1.915909E+04  2.739397E+03 -1.247330E+04 -6.328700E+01
       421   7  6.071253E+06 -3.827808E+02  9.873644E+03  2.517911E+03 -1.132445E+02 -3.260112E+01
       421   8  6.069897E+06 -1.901305E+03  1.128913E+04  3.066483E+03 -6.296055E+03 -3.469466E+01
       421   9  6.070787E+06  2.387159E+03  1.815274E+04  3.032136E+03 -1.247887E+04 -6.329563E+01
       421  10  6.078506E+06  1.417533E+03  1.166864E+04  2.963761E+03 -1.774849E-09 -6.204310E-10
       421  11  6.077598E+06  9.866668E+00  1.319555E+04  2.996667E+03  2.056385E-09  4.341988E-09
       421  12  6.078935E+06  4.407813E+03  2.016514E+04  2.446655E+03 -3.703671E-10  1.927602E-09
       421  13  6.074880E+06  5.173763E+02  1.077114E+04  2.740836E+03  4.100752E-09  4.878667E-10
       421  14  6.073747E+06 -9.457240E+02  1.224231E+04  3.031575E+03  3.980344E-09  2.309410E-09
       421  15  6.074861E+06  3.397466E+03  1.915880E+04  2.739396E+03  1.258842E-09  9.689093E-10
       421  16  6.071253E+06 -3.827808E+02  9.873644E+03  2.517911E+03  3.206452E-09  7.382289E-10
       421  17  6.069897E+06 -1.901316E+03  1.128906E+04  3.066483E+03 -1.089169E-09 -2.808963E-09
       421  18  6.070787E+06  2.387118E+03  1.815245E+04  3.032135E+03 -1.812597E-09  3.801705E-09
       421  19  6.078506E+06  1.417533E+03  1.166864E+04  2.963761E+03  1.173406E+02  3.260313E+01
       421  20  6.077598E+06  9.877175E+00  1.319563E+04  2.996667E+03  6.292528E+03  3.469219E+01
       421  21  6.078936E+06  4.407854E+03  2.016543E+04  2.446656E+03  1.246773E+04  6.327837E+01
       421  22  6.074880E+06  5.173763E+02  1.077114E+04  2.740836E+03  1.152926E+02  3.260212E+01
       421  23  6.073748E+06 -9.457135E+02  1.224238E+04  3.031575E+03  6.294292E+03  3.469342E+01
       421  24  6.074861E+06  3.397507E+03  1.915909E+04  2.739397E+03  1.247330E+04  6.328700E+01
       421  25  6.071253E+06 -3.827808E+02  9.873644E+03  2.517911E+03  1.132445E+02  3.260112E+01
       421  26  6.069897E+06 -1.901305E+03  1.128913E+04  3.066483E+03  6.296055E+03  3.469466E+01
       421  27  6.070787E+06  2.387159E+03  1.815274E+04  3.032136E+03  1.247887E+04  6.329563E+01
       422   1  6.085417E+06  1.521400E+03  2.573546E+04  3.608849E+03 -1.636547E+04 -7.398540E+01
       422   2  6.080808E+06 -3.006530E+03  4.007715E+04  3.040285E+03 -3.571310E+04 -9.962937E+01
       422   3  6.086905E+06  2.537238E+04  7.515284E+04  3.795887E+02 -5.506076E+04 -1.695055E+02
       422   4  6.076756E+06 -6.295287E+02  2.359068E+04  2.409285E+03 -1.636441E+04 -7.395368E+01
       422   5  6.071344E+06 -5.354636E+03  3.773473E+04  3.449016E+03 -3.571821E+04 -9.965561E+01
       422   6  6.076639E+06  2.282843E+04  7.261728E+04  2.396580E+03 -5.507202E+04 -1.696893E+02
       422   7  6.068096E+06 -2.780458E+03  2.144591E+04  1.209737E+03 -1.636335E+04 -7.392197E+01
       422   8  6.061880E+06 -7.702749E+03  3.539231E+04  3.857741E+03 -3.572332E+04 -9.968186E+01
       422   9  6.066373E+06  2.028449E+04  7.008170E+04  4.413538E+03 -5.508328E+04 -1.698732E+02
       422  10  6.085416E+06  1.521329E+03  2.573496E+04  3.608848E+03  1.872169E-09  2.534219E-10
       422  11  6.080806E+06 -3.006868E+03  4.007478E+04  3.040282E+03 -5.660693E-09 -1.423222E-10
       422  12  6.086902E+06  2.537157E+04  7.514720E+04  3.795812E+02  7.325268E-10 -2.145077E-09
       422  13  6.076756E+06 -6.295997E+02  2.359019E+04  2.409284E+03  4.065811E-10 -1.191297E-10
       422  14  6.071343E+06 -5.354975E+03  3.773236E+04  3.449013E+03 -1.519602E-09 -1.129986E-09
       422  15  6.076636E+06  2.282763E+04  7.261163E+04  2.396573E+03  6.350752E-10 -7.220930E-10
       422  16  6.068095E+06 -2.780529E+03  2.144541E+04  1.209736E+03 -2.893905E-09 -1.175081E-09
       422  17  6.061879E+06 -7.703087E+03  3.538994E+04  3.857738E+03 -7.213057E-10 -1.423581E-09
       422  18  6.066370E+06  2.028369E+04  7.007605E+04  4.413531E+03  1.388685E-09  1.083385E-09
       422  19  6.085417E+06  1.521400E+03  2.573546E+04  3.608849E+03  1.636547E+04  7.398540E+01
       422  20  6.080808E+06 -3.006530E+03  4.007715E+04  3.040285E+03  3.571310E+04  9.962937E+01
       422  21  6.086905E+06  2.537238E+04  7.515284E+04  3.795887E+02  5.506076E+04  1.695055E+02
       422  22  6.076756E+06 -6.295287E+02  2.359068E+04  2.409285E+03  1.636441E+04  7.395368E+01
       422  23  6.071344E+06 -5.354636E+03  3.773473E+04  3.449016E+03  3.571821E+04  9.965561E+01
       422  24  6.076639E+06  2.282843E+04  7.261728E+04  2.396580E+03  5.507202E+04  1.696893E+02
       422  25  6.068096E+06 -2.780458E+03  2.144591E+04  1.209737E+03  1.636335E+04  7.392197E+01
       422  26  6.061880E+06 -7.702749E+03  3.539231E+04  3.857741E+03  3.572332E+04  9.968186E+01
       422  27  6.066373E+06  2.028449E+04  7.008170E+04  4.413538E+03  5.508328E+04  1.698732E+02
       423   1  6.113053E+06  1.122271E+03  9.656248E+04  9.167696E+03 -6.990770E+04 -2.250699E+02
       423   2  6.083174E+06 -2.860696E+04  1.517658E+05  1.171160E+03 -1.461816E+05 -3.393225E+02
       423   3  6.117257E+06  1.585979E+05  3.105307E+05 -1.310438E+04 -2.224595E+05 -4.534469E+02
       423   4  6.088587E+06 -4.960446E+03  9.050253E+04  1.509090E+03 -6.991611E+04 -2.242219E+02
       423   5  6.056313E+06 -3.526746E+04  1.451204E+05  4.596110E+03 -1.461875E+05 -3.401287E+02
       423   6  6.088004E+06  1.513638E+05  3.033012E+05  1.404395E+03 -2.224625E+05 -4.586055E+02
       423   7  6.064122E+06 -1.104299E+04  8.444258E+04 -6.149218E+03 -6.992452E+04 -2.233736E+02
       423   8  6.029453E+06 -4.192796E+04  1.384748E+05  8.020913E+03 -1.461934E+05 -3.409349E+02
       423   9  6.058752E+06  1.441305E+05  2.960717E+05  1.591249E+04 -2.224656E+05 -4.637644E+02
       423  10  6.113047E+06  1.120974E+03  9.655338E+04  9.167684E+03  5.504426E-10  2.082161E-09
       423  11  6.083151E+06 -2.861263E+04  1.517261E+05  1.171120E+03  2.742275E-10  2.293552E-11
       423  12  6.117204E+06  1.585847E+05  3.104386E+05 -1.310446E+04  7.798500E-10  1.136891E-09
       423  13  6.088582E+06 -4.961742E+03  9.049344E+04  1.509077E+03  1.720656E-09  7.026779E-10
       423  14  6.056290E+06 -3.527313E+04  1.450806E+05  4.596070E+03  3.383197E-11  2.012139E-09
       423  15  6.087951E+06  1.513507E+05  3.032091E+05  1.404313E+03  5.511085E-10 -4.712143E-10
       423  16  6.064117E+06 -1.104429E+04  8.443348E+04 -6.149230E+03  1.621780E-09  5.665567E-10
       423  17  6.029431E+06 -4.193363E+04  1.384350E+05  8.020873E+03  5.736338E-09  4.085687E-09
       423  18  6.058699E+06  1.441173E+05  2.959796E+05  1.591241E+04  2.761660E-09 -5.928979E-10
       423  19  6.113053E+06  1.122271E+03  9.656248E+04  9.167696E+03  6.990770E+04  2.250699E+02
       423  20  6.083174E+06 -2.860696E+04  1.517658E+05  1.171160E+03  1.461816E+05  3.393225E+02
       423  21  6.117257E+06  1.585979E+05  3.105307E+05 -1.310438E+04  2.224595E+05  4.534469E+02
       423  22  6.088587E+06 -4.960446E+03  9.050253E+04  1.509090E+03  6.991611E+04  2.242219E+02
       423  23  6.056313E+06 -3.526746E+04  1.451204E+05  4.596110E+03  1.461875E+05  3.401287E+02
       423  24  6.088004E+06  1.513638E+05  3.033012E+05  1.404395E+03  2.224625E+05  4.586055E+02
       423  25  6.064122E+06 -1.104299E+04  8.444258E+04 -6.149218E+03  6.992452E+04  2.233736E+02
       423  26  6.029453E+06 -4.192796E+04  1.384748E+05  8.020913E+03  1.461934E+05  3.409349E+02
       423  27  6.058752E+06  1.441305E+05  2.960717E+05  1.591249E+04  2.224656E+05  4.637644E+02
       424   1  6.233101E+06 -1.600714E+04  3.839250E+05  4.833542E+04 -2.833296E+05 -7.901398E+02
       424   2  6.040808E+06 -2.128987E+05  5.774603E+05 -1.743707E+04 -5.887657E+05 -1.347620E+03
       424   3  6.244413E+06  1.018870E+06  1.325931E+06 -1.024176E+05 -8.941734E+05 -1.102314E+03
       424   4  6.162580E+06 -3.360055E+04  3.664521E+05 -1.050345E+03 -2.834142E+05 -7.678984E+02
       424   5  5.963161E+06 -2.321127E+05  5.582714E+05  8.006282E+03 -5.887110E+05 -1.371534E+03
       424   6  6.159655E+06  9.980858E+05  1.304979E+06 -2.124735E+03 -8.939758E+05 -1.245298E+03
       424   7  6.092069E+06 -5.118525E+04  3.489802E+05 -5.043054E+04 -2.834988E+05 -7.456416E+02
       424   8  5.885521E+06 -2.513247E+05  5.390824E+05  3.344648E+04 -5.886562E+05 -1.395446E+03
       424   9  6.074926E+06  9.773386E+05  1.284031E+06  9.815459E+04 -8.937782E+05 -1.388236E+03
       424  10  6.233016E+06 -1.602843E+04  3.837756E+05  4.833524E+04 -4.213158E-10 -7.299082E-10
       424  11  6.040439E+06 -2.129906E+05  5.768153E+05 -1.743771E+04 -1.794030E-09 -5.494725E-11
       424  12  6.243561E+06  1.018658E+06  1.324444E+06 -1.024184E+05 -8.880820E-10 -1.858288E-10
       424  13  6.162495E+06 -3.362185E+04  3.663027E+05 -1.050520E+03 -5.379693E-09 -3.054202E-09
       424  14  5.962791E+06 -2.322046E+05  5.576264E+05  8.005634E+03  5.806240E-09  3.605937E-09
       424  15  6.158804E+06  9.978739E+05  1.303491E+06 -2.125629E+03 -4.049454E-10  1.029188E-09
       424  16  6.091983E+06 -5.120657E+04  3.488307E+05 -5.043071E+04  1.474674E-09 -1.077148E-09
       424  17  5.885151E+06 -2.514166E+05  5.384375E+05  3.344582E+04  4.308751E-09  2.744152E-09
       424  18  6.074075E+06  9.771267E+05  1.282544E+06  9.815363E+04 -1.289594E-09 -3.777015E-10
       424  19  6.233101E+06 -1.600714E+04  3.839250E+05  4.833542E+04  2.833296E+05  7.901398E+02
       424  20  6.040808E+06 -2.128987E+05  5.774603E+05 -1.743707E+04  5.887657E+05  1.347620E+03
       424  21  6.244413E+06  1.018870E+06  1.325931E+06 -1.024176E+05  8.941734E+05  1.102314E+03
       424  22  6.162580E+06 -3.360055E+04  3.664521E+05 -1.050345E+03  2.834142E+05  7.678984E+02
       424  23  5.963161E+06 -2.321127E+05  5.582714E+05  8.006282E+03  5.887110E+05  1.371534E+03
       424  24  6.159655E+06  9.980858E+05  1.304979E+06 -2.124735E+03  8.939758E+05  1.245298E+03
       424  25  6.092069E+06 -5.118525E+04  3.489802E+05 -5.043054E+04  2.834988E+05  7.456416E+02
       424  26  5.885521E+06 -2.513247E+05  5.390824E+05  3.344648E+04  5.886562E+05  1.395446E+03
       424  27  6.074926E+06  9.773386E+05  1.284031E+06  9.815459E+04  8.937782E+05  1.388236E+03
       425   1  4.012915E+05  1.618811E+05  1.497836E+05  4.420734E+04  4.737703E+04 -1.015360E+04
       425   2  3.495038E+05  1.570482E+05  1.170856E+05  4.654419E+04  2.110552E+04 -3.456185E+04
       425   3  2.999564E+05  1.474286E+05  1.003115E+05  5.772911E+04 -5.180138E+03 -4.238165E+04
       425   4 -3.367949E+05 -2.003777E+04 -2.195862E+04  5.654977E+04 -1.537065E+04 -1.023098E+04
       425   5 -3.351343E+05 -5.438469E+03 -1.082834E+04  5.211260E+04 -9.772723E+03 -3.460630E+04
       425   6 -3.367699E+05 -1.162175E+03 -5.903587E+03  5.652350E+04 -4.191890E+03 -4.238419E+04
       425   7 -1.074370E+06 -2.019924E+05 -1.937227E+05  6.887726E+04 -7.804428E+04 -1.031092E+04
       425   8 -1.019317E+06 -1.679516E+05 -1.387588E+05  5.767456E+04 -4.061778E+04 -3.465133E+04
       425   9 -9.730960E+05 -1.497740E+05 -1.121311E+05  5.531901E+04 -3.204619E+03 -4.238673E+04
       425  10  4.012891E+05  1.618804E+05  1.497792E+05  4.420772E+04  2.858475E-09 -5.423789E-10
       425  11  3.495030E+05  1.570468E+05  1.170825E+05  4.654478E+04 -4.529535E-10 -3.620786E-09
       425  12  2.999559E+05  1.474266E+05  1.003081E+05  5.772893E+04 -3.718891E-10 -3.324219E-09
       425  13 -3.367952E+05 -2.003795E+04 -2.195926E+04  5.654964E+04 -1.205360E-09  9.865836E-10
       425  14 -3.351347E+05 -5.439781E+03 -1.083077E+04  5.211233E+04 -1.209785E-09 -1.925681E-09
       425  15 -3.367704E+05 -1.164109E+03 -5.906995E+03  5.652335E+04 -3.307294E-10 -6.160675E-10
       425  16 -1.074376E+06 -2.019941E+05 -1.937344E+05  6.887662E+04 -3.604610E-09 -1.808173E-10
       425  17 -1.019319E+06 -1.679533E+05 -1.387642E+05  5.767343E+04 -1.436525E-09 -4.884163E-09
       425  18 -9.730965E+05 -1.497760E+05 -1.121345E+05  5.531890E+04 -4.507703E-10 -4.969168E-09
       425  19  4.012915E+05  1.618811E+05  1.497836E+05  4.420734E+04 -4.737703E+04  1.015360E+04
       425  20  3.495038E+05  1.570482E+05  1.170856E+05  4.654419E+04 -2.110552E+04  3.456185E+04
       425  21  2.999564E+05  1.474286E+05  1.003115E+05  5.772911E+04  5.180138E+03  4.238165E+04
       425  22 -3.367949E+05 -2.003777E+04 -2.195862E+04  5.654977E+04  1.537065E+04  1.023098E+04
       425  23 -3.351343E+05 -5.438469E+03 -1.082834E+04  5.211260E+04  9.772723E+03  3.460630E+04
       425  24 -3.367699E+05 -1.162175E+03 -5.903587E+03  5.652350E+04  4.191890E+03  4.238419E+04
       425  25 -1.074370E+06 -2.019924E+05 -1.937227E+05  6.887726E+04  7.804428E+04  1.031092E+04
       425  26 -1.019317E+06 -1.679516E+05 -1.387588E+05  5.767456E+04  4.061778E+04  3.465133E+04
       425  27 -9.730960E+05 -1.497740E+05 -1.121311E+05  5.531901E+04  3.204619E+03  4.238673E+04
       426   1  2.675135E+05  1.394571E+05  9.448691E+04  5.691964E+04 -3.602762E+03 -4.157601E+04
       426   2  2.167778E+05  1.278866E+05  8.499060E+04  5.223379E+04 -5.759886E+03 -4.061048E+04
       426   3  1.662974E+05  1.162555E+05  7.688178E+04  5.755371E+04 -7.920435E+03 -3.788603E+04
       426   4 -3.361041E+05 -1.056433E+03 -4.457460E+03  5.678339E+04 -3.428445E+03 -4.157950E+04
       426   5 -3.359281E+05 -1.466797E+02 -2.441682E+03  5.177926E+04 -2.207936E+03 -4.060822E+04
       426   6 -3.360851E+05  1.162291E+02 -1.383927E+03  5.678147E+04 -9.909670E+02 -3.787723E+04
       426   7 -9.393609E+05 -1.415887E+05 -1.034123E+05  5.664713E+04 -3.254290E+03 -4.158298E+04
       426   8 -8.883298E+05 -1.281951E+05 -8.988159E+04  5.132502E+04  1.340970E+03 -4.060597E+04
       426   9 -8.382155E+05 -1.160354E+05 -7.965539E+04  5.600976E+04  5.933106E+03 -3.786845E+04
       426  10  2.675130E+05  1.394553E+05  9.448364E+04  5.691952E+04 -3.481014E-09 -3.544864E-09
       426  11  2.167773E+05  1.278848E+05  8.498744E+04  5.223361E+04 -1.826183E-09  9.913551E-10
       426  12  1.662970E+05  1.162539E+05  7.687897E+04  5.755347E+04 -2.388822E-09  1.677231E-09
       426  13 -3.361045E+05 -1.058292E+03 -4.460730E+03  5.678328E+04 -5.105983E-10 -2.432224E-09
       426  14 -3.359285E+05 -1.484514E+02 -2.444789E+03  5.177919E+04  2.609411E-10  2.297258E-10
       426  15 -3.360855E+05  1.146885E+02 -1.386625E+03  5.678144E+04 -9.392105E-10 -8.983518E-10
       426  16 -9.393614E+05 -1.415905E+05 -1.034156E+05  5.664702E+04  3.303800E-09 -4.736376E-10
       426  17 -8.883302E+05 -1.281969E+05 -8.988469E+04  5.132507E+04  7.734896E-10  2.153810E-09
       426  18 -8.382160E+05 -1.160369E+05 -7.965815E+04  5.600995E+04  1.066046E-09  1.306598E-09
       426  19  2.675135E+05  1.394571E+05  9.448691E+04  5.691964E+04  3.602762E+03  4.157601E+04
       426  20  2.167778E+05  1.278866E+05  8.499060E+04  5.223379E+04  5.759886E+03  4.061048E+04
       426  21  1.662974E+05  1.162555E+05  7.688178E+04  5.755371E+04  7.920435E+03  3.788603E+04
       426  22 -3.361041E+05 -1.056433E+03 -4.457460E+03  5.678339E+04  3.428445E+03  4.157950E+04
       426  23 -3.359281E+05 -1.466797E+02 -2.441682E+03  5.177926E+04  2.207936E+03  4.060822E+04
       426  24 -3.360851E+05  1.162291E+02 -1.383927E+03  5.678147E+04  9.909670E+02  3.787723E+04
       426  25 -9.393609E+05 -1.415887E+05 -1.034123E+05  5.664713E+04  3.254290E+03  4.158298E+04
       426  26 -8.883298E+05 -1.281951E+05 -8.988159E+04  5.132502E+04 -1.340970E+03  4.060597E+04
       426  27 -8.382155E+05 -1.160354E+05 -7.965539E+04  5.600976E+04 -5.933106E+03  3.786845E+04
       427   1  1.340619E+05  1.087252E+05  7.183385E+04  5.746864E+04 -7.629029E+03 -3.573202E+04
       427   2  8.341055E+04  9.700899E+04  6.418499E+04  5.234766E+04 -7.695974E+03 -3.207411E+04
       427   3  3.275596E+04  8.535042E+04  5.658603E+04  5.736345E+04 -7.764257E+03 -2.822867E+04
       427   4 -3.360203E+05  1.212447E+02 -1.050638E+03  5.681076E+04 -7.837332E+02 -3.572272E+04
       427   5 -3.359790E+05  1.616630E+02 -6.013522E+02  5.174211E+04 -4.910058E+02 -3.206321E+04
       427   6 -3.360059E+05  1.973352E+02 -3.521826E+02  5.681064E+04 -1.996222E+02 -2.821611E+04
       427   7 -8.058817E+05 -1.084935E+05 -7.394004E+04  5.615330E+04  6.056577E+03 -3.571343E+04
       427   8 -7.551926E+05 -9.669419E+04 -6.539148E+04  5.113691E+04  6.709281E+03 -3.205232E+04
       427   9 -7.046318E+05 -8.496233E+04 -5.729325E+04  5.625809E+04  7.360692E+03 -2.820356E+04
       427  10  1.340615E+05  1.087238E+05  7.183134E+04  5.746842E+04 -3.207752E-09  2.442400E-09
       427  11  8.341022E+04  9.700787E+04  6.418295E+04  5.234746E+04  1.114448E-09  2.452595E-09
       427  12  3.275568E+04  8.534955E+04  5.658442E+04  5.736328E+04  2.103385E-09 -1.446500E-11
       427  13 -3.360207E+05  1.198744E+02 -1.053037E+03  5.681074E+04 -2.907908E-10 -2.019332E-09
       427  14 -3.359792E+05  1.605591E+02 -6.032843E+02  5.174210E+04 -9.195338E-10  3.196902E-09
       427  15 -3.360062E+05  1.964804E+02 -3.536786E+02  5.681063E+04  3.303816E-11  3.518633E-09
       427  16 -8.058821E+05 -1.084949E+05 -7.394250E+04  5.615347E+04  2.790724E-09  1.910756E-09
       427  17 -7.551929E+05 -9.669530E+04 -6.539350E+04  5.113708E+04 -2.305521E-09  3.403204E-09
       427  18 -7.046321E+05 -8.496320E+04 -5.729485E+04  5.625826E+04 -4.085083E-09  3.048560E-10
       427  19  1.340619E+05  1.087252E+05  7.183385E+04  5.746864E+04  7.629029E+03  3.573202E+04
       427  20  8.341055E+04  9.700899E+04  6.418499E+04  5.234766E+04  7.695974E+03  3.207411E+04
       427  21  3.275596E+04  8.535042E+04  5.658603E+04  5.736345E+04  7.764257E+03  2.822867E+04
       427  22 -3.360203E+05  1.212447E+02 -1.050638E+03  5.681076E+04  7.837332E+02  3.572272E+04
       427  23 -3.359790E+05  1.616630E+02 -6.013522E+02  5.174211E+04  4.910058E+02  3.206321E+04
       427  24 -3.360059E+05  1.973352E+02 -3.521826E+02  5.681064E+04  1.996222E+02  2.821611E+04
       427  25 -8.058817E+05 -1.084935E+05 -7.394004E+04  5.615330E+04 -6.056577E+03  3.571343E+04
       427  26 -7.551926E+05 -9.669419E+04 -6.539148E+04  5.113691E+04 -6.709281E+03  3.205232E+04
       427  27 -7.046318E+05 -8.496233E+04 -5.729325E+04  5.625809E+04 -7.360692E+03  2.820356E+04
       428   1  5.261660E+02  7.786921E+04  5.147745E+04  5.731951E+04 -7.704309E+03 -2.592982E+04
       428   2 -5.015011E+04  6.617097E+04  4.383107E+04  5.216738E+04 -7.660876E+03 -2.198390E+04
       428   3 -1.008584E+05  5.451667E+04  3.615568E+04  5.717263E+04 -7.618208E+03 -1.801809E+04
       428   4 -3.359958E+05  2.011309E+02 -2.748120E+02  5.681520E+04 -1.470570E+02 -2.591677E+04
       428   5 -3.359699E+05  1.921450E+02 -1.781745E+02  5.173637E+04 -6.582008E+01 -2.197008E+04
       428   6 -3.359860E+05  2.203977E+02 -1.372121E+02  5.681518E+04  1.465511E+01 -1.800350E+04
       428   7 -6.724043E+05 -7.747241E+04 -5.202937E+04  5.631112E+04  7.406256E+03 -2.590372E+04
       428   8 -6.217078E+05 -6.579061E+04 -4.418903E+04  5.130553E+04  7.525873E+03 -2.195626E+04
       428   9 -5.710581E+05 -5.407853E+04 -3.643113E+04  5.645784E+04  7.644737E+03 -1.798890E+04
       428  10  5.259218E+02  7.786848E+04  5.147608E+04  5.731935E+04  1.438327E-09 -2.395189E-10
       428  11 -5.015030E+04  6.617044E+04  4.383005E+04  5.216725E+04 -4.022689E-10  3.932577E-09
       428  12 -1.008586E+05  5.451630E+04  3.615496E+04  5.717252E+04 -1.519773E-09  3.690798E-09
       428  13 -3.359959E+05  2.004097E+02 -2.760741E+02  5.681520E+04 -5.353486E-10  6.452590E-10
       428  14 -3.359700E+05  1.916267E+02 -1.790814E+02  5.173637E+04 -1.247180E-09  4.082830E-09
       428  15 -3.359861E+05  2.200497E+02 -1.378211E+02  5.681518E+04 -2.913276E-09 -1.578723E-10
       428  16 -6.724045E+05 -7.747314E+04 -5.203074E+04  5.631128E+04 -1.619066E-09  9.154065E-10
       428  17 -6.217080E+05 -6.579115E+04 -4.419004E+04  5.130566E+04 -1.798048E-10  2.506301E-09
       428  18 -5.710583E+05 -5.407889E+04 -3.643185E+04  5.645795E+04 -1.194814E-10 -1.732220E-10
       428  19  5.261660E+02  7.786921E+04  5.147745E+04  5.731951E+04  7.704309E+03  2.592982E+04
       428  20 -5.015011E+04  6.617097E+04  4.383107E+04  5.216738E+04  7.660876E+03  2.198390E+04
       428  21 -1.008584E+05  5.451667E+04  3.615568E+04  5.717263E+04  7.618208E+03  1.801809E+04
       428  22 -3.359958E+05  2.011309E+02 -2.748120E+02  5.681520E+04  1.470570E+02  2.591677E+04
       428  23 -3.359699E+05  1.921450E+02 -1.781745E+02  5.173637E+04  6.582008E+01  2.197008E+04
       428  24 -3.359860E+05  2.203977E+02 -1.372121E+02  5.681518E+04 -1.465511E+01  1.800350E+04
       428  25 -6.724043E+05 -7.747241E+04 -5.202937E+04  5.631112E+04 -7.406256E+03  2.590372E+04
       428  26 -6.217078E+05 -6.579061E+04 -4.418903E+04  5.130553E+04 -7.525873E+03  2.195626E+04
       428  27 -5.710581E+05 -5.407853E+04 -3.643113E+04  5.645784E+04 -7.644737E+03  1.798890E+04
       429   1 -1.331081E+05  4.703551E+04  3.098909E+04  5.712511E+04 -7.598417E+03 -1.570299E+04
       429   2 -1.837998E+05  3.533497E+04  2.324953E+04  5.195865E+04 -7.516425E+03 -1.172932E+04
       429   3 -2.345393E+05  2.367061E+04  1.545128E+04  5.695803E+04 -7.434815E+03 -7.761310E+03
       429   4 -3.359845E+05  2.242715E+02 -1.340689E+02  5.681703E+04  3.487704E+01 -1.568807E+04
       429   5 -3.359581E+05  2.122319E+02 -1.589269E+02  5.173404E+04  1.057566E+02 -1.171406E+04
       429   6 -3.359793E+05  2.385721E+02 -2.346966E+02  5.681702E+04  1.762612E+02 -7.745692E+03
       429   7 -5.388197E+05 -4.658892E+04 -3.125791E+04  5.650904E+04  7.665772E+03 -1.567316E+04
       429   8 -4.880931E+05 -3.491159E+04 -2.356768E+04  5.150946E+04  7.726141E+03 -1.169879E+04
       429   9 -4.374090E+05 -2.319393E+04 -1.592068E+04  5.667602E+04  7.786141E+03 -7.730075E+03
       429  10 -1.331082E+05  4.703523E+04  3.098852E+04  5.712501E+04  6.635916E-09  2.565089E-10
       429  11 -1.837999E+05  3.533480E+04  2.324917E+04  5.195858E+04  1.608253E-09 -1.666312E-09
       429  12 -2.345394E+05  2.367053E+04  1.545106E+04  5.695799E+04 -4.327639E-09 -2.047763E-09
       429  13 -3.359846E+05  2.240073E+02 -1.345313E+02  5.681703E+04 -7.813710E-10  5.610584E-09
       429  14 -3.359582E+05  2.120846E+02 -1.591848E+02  5.173404E+04 -2.788348E-09  9.265915E-11
       429  15 -3.359794E+05  2.385077E+02 -2.348094E+02  5.681702E+04 -1.256194E-09 -2.715299E-09
       429  16 -5.388198E+05 -4.658920E+04 -3.125848E+04  5.650913E+04 -8.076949E-09  1.443306E-09
       429  17 -4.880932E+05 -3.491176E+04 -2.356805E+04  5.150954E+04 -1.796901E-09 -1.389474E-09
       429  18 -4.374090E+05 -2.319401E+04 -1.592091E+04  5.667606E+04  4.136603E-09 -2.812882E-09
       429  19 -1.331081E+05  4.703551E+04  3.098909E+04  5.712511E+04  7.598417E+03  1.570299E+04
       429  20 -1.837998E+05  3.533497E+04  2.324953E+04  5.195865E+04  7.516425E+03  1.172932E+04
       429  21 -2.345393E+05  2.367061E+04  1.545128E+04  5.695803E+04  7.434815E+03  7.761310E+03
       429  22 -3.359845E+05  2.242715E+02 -1.340689E+02  5.681703E+04 -3.487704E+01  1.568807E+04
       429  23 -3.359581E+05  2.122319E+02 -1.589269E+02  5.173404E+04 -1.057566E+02  1.171406E+04
       429  24 -3.359793E+05  2.385721E+02 -2.346966E+02  5.681702E+04 -1.762612E+02  7.745692E+03
       429  25 -5.388197E+05 -4.658892E+04 -3.125791E+04  5.650904E+04 -7.665772E+03  1.567316E+04
       429  26 -4.880931E+05 -3.491159E+04 -2.356768E+04  5.150946E+04 -7.726141E+03  1.169879E+04
       429  27 -4.374090E+05 -2.319393E+04 -1.592068E+04  5.667602E+04 -7.786141E+03  7.730075E+03
       430   1 -2.668069E+05  1.618445E+04  1.020954E+04  5.689776E+04 -7.395580E+03 -5.449835E+03
       430   2 -3.174777E+05  4.464684E+03  2.234295E+03  5.173210E+04 -7.005255E+03 -1.520354E+03
       430   3 -3.682528E+05 -7.276563E+03 -6.015603E+03  5.672880E+04 -6.614857E+03  2.331326E+03
       430   4 -3.359857E+05  2.422862E+02 -2.981396E+02  5.681619E+04  2.195011E+02 -5.434085E+03
       430   5 -3.359449E+05  2.226848E+02 -5.020432E+02  5.173505E+04  4.602009E+02 -1.504868E+03
       430   6 -3.359851E+05  2.076645E+02 -8.767910E+02  5.681627E+04  7.010036E+02  2.346546E+03
       430   7 -4.051596E+05 -1.570007E+04 -1.080570E+04  5.673463E+04  7.833767E+03 -5.418335E+03
       430   8 -3.544117E+05 -4.019301E+03 -3.238178E+03  5.173800E+04  7.925444E+03 -1.489382E+03
       430   9 -3.037163E+05  7.691869E+03  4.262196E+03  5.690375E+04  8.017231E+03  2.361767E+03
       430  10 -2.668069E+05  1.618440E+04  1.020938E+04  5.689773E+04  1.191594E-10  1.277011E-10
       430  11 -3.174777E+05  4.464668E+03  2.234199E+03  5.173209E+04 -7.727129E-10 -1.741143E-09
       430  12 -3.682529E+05 -7.276581E+03 -6.015696E+03  5.672881E+04 -3.885843E-09 -2.186084E-10
       430  13 -3.359857E+05  2.422545E+02 -2.981952E+02  5.681619E+04  1.027413E-11 -1.512764E-09
       430  14 -3.359449E+05  2.226823E+02 -5.020478E+02  5.173505E+04  1.074921E-11 -1.564443E-09
       430  15 -3.359851E+05  2.076585E+02 -8.768023E+02  5.681627E+04  3.325212E-10  2.796743E-10
       430  16 -4.051597E+05 -1.570012E+04 -1.080587E+04  5.673467E+04 -1.097597E-09  4.138556E-10
       430  17 -3.544118E+05 -4.019320E+03 -3.238301E+03  5.173801E+04 -1.852038E-10 -7.697440E-09
       430  18 -3.037164E+05  7.691845E+03  4.262064E+03  5.690374E+04  3.524494E-09 -2.527133E-09
       430  19 -2.668069E+05  1.618445E+04  1.020954E+04  5.689776E+04  7.395580E+03  5.449835E+03
       430  20 -3.174777E+05  4.464684E+03  2.234295E+03  5.173210E+04  7.005255E+03  1.520354E+03
       430  21 -3.682528E+05 -7.276563E+03 -6.015603E+03  5.672880E+04  6.614857E+03 -2.331326E+03
       430  22 -3.359857E+05  2.422862E+02 -2.981396E+02  5.681619E+04 -2.195011E+02  5.434085E+03
       430  23 -3.359449E+05  2.226848E+02 -5.020432E+02  5.173505E+04 -4.602009E+02  1.504868E+03
       430  24 -3.359851E+05  2.076645E+02 -8.767910E+02  5.681627E+04 -7.010036E+02 -2.346546E+03
       430  25 -4.051596E+05 -1.570007E+04 -1.080570E+04  5.673463E+04 -7.833767E+03  5.418335E+03
       430  26 -3.544117E+05 -4.019301E+03 -3.238178E+03  5.173800E+04 -7.925444E+03  1.489382E+03
       430  27 -3.037163E+05  7.691869E+03  4.262196E+03  5.690375E+04 -8.017231E+03 -2.361767E+03
       431   1 -4.006009E+05 -1.478929E+04 -1.155652E+04  5.659222E+04 -6.479991E+03  4.583603E+03
       431   2 -4.510417E+05 -2.678919E+04 -2.076337E+04  5.174540E+04 -4.054597E+03  8.050684E+03
       431   3 -5.020386E+05 -3.956661E+04 -3.175846E+04  5.700999E+04 -1.627766E+03  1.077993E+04
       431   4 -3.360373E+05  2.099927E+02 -1.155018E+03  5.680468E+04  8.717354E+02  4.598830E+03
       431   5 -3.358828E+05 -1.589784E+00 -2.034410E+03  5.175001E+04  1.881170E+03  8.062743E+03
       431   6 -3.360416E+05 -7.447479E+02 -3.718411E+03  5.680664E+04  2.892251E+03  1.078890E+04
       431   7 -2.714696E+05  1.520910E+04  9.246576E+03  5.701717E+04  8.224199E+03  4.614062E+03
       431   8 -2.207107E+05  2.678536E+04  1.669431E+04  5.175461E+04  7.818000E+03  8.074801E+03
       431   9 -1.700173E+05  3.807567E+04  2.432083E+04  5.660322E+04  7.413437E+03  1.079785E+04
       431  10 -4.006009E+05 -1.478933E+04 -1.155664E+04  5.659224E+04  1.668747E-08  2.331833E-09
       431  11 -4.510417E+05 -2.678927E+04 -2.076352E+04  5.174542E+04 -5.747164E-09 -1.738488E-09
       431  12 -5.020386E+05 -3.956673E+04 -3.175868E+04  5.701000E+04 -3.008735E-08 -3.136620E-09
       431  13 -3.360374E+05  2.099698E+02 -1.155059E+03  5.680468E+04 -1.068480E-09  2.825094E-09
       431  14 -3.358828E+05 -1.660529E+00 -2.034539E+03  5.174999E+04 -1.047402E-09  9.203875E-09
       431  15 -3.360416E+05 -7.448751E+02 -3.718645E+03  5.680661E+04  2.552209E-10  1.087496E-08
       431  16 -2.714696E+05  1.520905E+04  9.246409E+03  5.701714E+04 -1.701573E-08  1.183844E-09
       431  17 -2.207108E+05  2.678527E+04  1.669407E+04  5.175456E+04  6.033280E-09 -1.836992E-09
       431  18 -1.700174E+05  3.807553E+04  2.432051E+04  5.660315E+04  2.821365E-08 -1.011152E-08
       431  19 -4.006009E+05 -1.478929E+04 -1.155652E+04  5.659222E+04  6.479991E+03 -4.583603E+03
       431  20 -4.510417E+05 -2.678919E+04 -2.076337E+04  5.174540E+04  4.054597E+03 -8.050684E+03
       431  21 -5.020386E+05 -3.956661E+04 -3.175846E+04  5.700999E+04  1.627766E+03 -1.077993E+04
       431  22 -3.360373E+05  2.099927E+02 -1.155018E+03  5.680468E+04 -8.717354E+02 -4.598830E+03
       431  23 -3.358828E+05 -1.589784E+00 -2.034410E+03  5.175001E+04 -1.881170E+03 -8.062743E+03
       431  24 -3.360416E+05 -7.447479E+02 -3.718411E+03  5.680664E+04 -2.892251E+03 -1.078890E+04
       431  25 -2.714696E+05  1.520910E+04  9.246576E+03  5.701717E+04 -8.224199E+03 -4.614062E+03
       431  26 -2.207107E+05  2.678536E+04  1.669431E+04  5.175461E+04 -7.818000E+03 -8.074801E+03
       431  27 -1.700173E+05  3.807567E+04  2.432083E+04  5.660322E+04 -7.413437E+03 -1.079785E+04
       432   1 -5.352307E+05 -4.739630E+04 -3.902332E+04  5.596765E+04 -1.334990E+03  1.246672E+04
       432   2 -5.834354E+05 -6.358741E+04 -5.671603E+04  5.675741E+04  1.666603E+04  1.155432E+04
       432   3 -6.367628E+05 -9.073011E+04 -8.888027E+04  6.718222E+04  3.467831E+04  3.677973E+03
       432   4 -3.365966E+05 -8.271826E+02 -4.925816E+03  5.669760E+04  3.526512E+03  1.247620E+04
       432   5 -3.352012E+05 -4.401032E+03 -9.030989E+03  5.189548E+04  8.167907E+03  1.153698E+04
       432   6 -3.366075E+05 -1.660312E+04 -1.832317E+04  5.672865E+04  1.282204E+04  3.634762E+03
       432   7 -1.379237E+05  4.573984E+04  2.917045E+04  5.742777E+04  8.389522E+03  1.248568E+04
       432   8 -8.690752E+04  5.478182E+04  3.865150E+04  4.703154E+04 -3.335350E+02  1.151977E+04
       432   9 -3.636796E+04  5.751813E+04  5.222960E+04  4.626995E+04 -9.044736E+03  3.592299E+03
       432  10 -5.352308E+05 -4.739646E+04 -3.902362E+04  5.596766E+04  3.534352E-08 -3.911295E-09
       432  11 -5.834357E+05 -6.358762E+04 -5.671680E+04  5.675726E+04  5.446030E-09 -5.008673E-09
       432  12 -6.367641E+05 -9.073045E+04 -8.888256E+04  6.718212E+04 -2.375276E-08 -2.423007E-09
       432  13 -3.365967E+05 -8.273531E+02 -4.926132E+03  5.669756E+04 -2.705144E-10  1.533879E-08
       432  14 -3.352013E+05 -4.401193E+03 -9.031364E+03  5.189541E+04 -7.572885E-10  1.816062E-09
       432  15 -3.366077E+05 -1.660318E+04 -1.832351E+04  5.672861E+04 -4.082358E-10  4.859794E-09
       432  16 -1.379238E+05  4.573965E+04  2.917002E+04  5.742768E+04 -3.613658E-08 -5.940061E-09
       432  17 -8.690755E+04  5.478168E+04  3.865126E+04  4.703154E+04 -7.432153E-09  1.832332E-11
       432  18 -3.636805E+04  5.751809E+04  5.222942E+04  4.626997E+04  2.169869E-08 -1.214657E-09
       432  19 -5.352307E+05 -4.739630E+04 -3.902332E+04  5.596765E+04  1.334990E+03 -1.246672E+04
       432  20 -5.834354E+05 -6.358741E+04 -5.671603E+04  5.675741E+04 -1.666603E+04 -1.155432E+04
       432  21 -6.367628E+05 -9.073011E+04 -8.888027E+04  6.718222E+04 -3.467831E+04 -3.677973E+03
       432  22 -3.365966E+05 -8.271826E+02 -4.925816E+03  5.669760E+04 -3.526512E+03 -1.247620E+04
       432  23 -3.352012E+05 -4.401032E+03 -9.030989E+03  5.189548E+04 -8.167907E+03 -1.153698E+04
       432  24 -3.366075E+05 -1.660312E+04 -1.832317E+04  5.672865E+04 -1.282204E+04 -3.634762E+03
       432  25 -1.379237E+05  4.573984E+04  2.917045E+04  5.742777E+04 -8.389522E+03 -1.248568E+04
       432  26 -8.690752E+04  5.478182E+04  3.865150E+04  4.703154E+04  3.335350E+02 -1.151977E+04
       432  27 -3.636796E+04  5.751813E+04  5.222960E+04  4.626995E+04  9.044736E+03 -3.592299E+03
       433   1 -3.277993E+05  3.499689E+04  6.570579E+03 -1.331951E+04 -8.024729E+04 -5.464236E+03
       433   2 -3.457540E+05  1.425327E+05  6.690442E+04 -5.073282E+03 -5.542346E+04 -1.607520E+04
       433   3 -3.982997E+05  1.239245E+05  7.959317E+04  3.051887E+04 -3.062584E+04 -1.487623E+04
       433   4 -8.762465E+05 -1.017289E+05 -1.289451E+05  1.664908E+04 -8.814086E+04 -5.484050E+03
       433   5 -8.584191E+05  1.532901E+04 -5.635359E+04  2.864155E+03 -5.767470E+04 -1.608199E+04
       433   6 -8.761956E+05  5.204433E+03 -3.535896E+04  1.642714E+04 -2.723299E+04 -1.486746E+04
       433   7 -1.424418E+06 -2.384738E+05 -2.644824E+05  4.659102E+04 -9.602743E+04 -5.504638E+03
       433   8 -1.370843E+06 -1.118936E+05 -1.796303E+05  1.079487E+04 -5.992407E+04 -1.608885E+04
       433   9 -1.353882E+06 -1.135316E+05 -1.503272E+05  2.346163E+03 -2.384273E+04 -1.485884E+04
       433  10 -3.278062E+05  3.499513E+04  6.558415E+03 -1.331986E+04 -2.737805E-09  2.702684E-09
       433  11 -3.457573E+05  1.425316E+05  6.689816E+04 -5.073999E+03  1.286289E-09  1.046977E-08
       433  12 -3.983008E+05  1.239240E+05  7.959099E+04  3.051850E+04  4.353724E-09  1.193800E-09
       433  13 -8.762549E+05 -1.017311E+05 -1.289598E+05  1.664869E+04  1.144042E-10 -3.244797E-09
       433  14 -8.584228E+05  1.532784E+04 -5.636033E+04  2.863407E+03 -1.832479E-09 -5.745753E-09
       433  15 -8.761965E+05  5.203996E+03 -3.536077E+04  1.642681E+04  8.404427E-10  1.175603E-09
       433  16 -1.424428E+06 -2.384763E+05 -2.644998E+05  4.659059E+04  2.649624E-09  8.649309E-10
       433  17 -1.370847E+06 -1.118948E+05 -1.796375E+05  1.079409E+04 -3.884372E-09  8.385775E-09
       433  18 -1.353883E+06 -1.135320E+05 -1.503287E+05  2.345877E+03 -2.489780E-09  7.102693E-10
       433  19 -3.277993E+05  3.499689E+04  6.570579E+03 -1.331951E+04  8.024729E+04  5.464236E+03
       433  20 -3.457540E+05  1.425327E+05  6.690442E+04 -5.073282E+03  5.542346E+04  1.607520E+04
       433  21 -3.982997E+05  1.239245E+05  7.959317E+04  3.051887E+04  3.062584E+04  1.487623E+04
       433  22 -8.762465E+05 -1.017289E+05 -1.289451E+05  1.664908E+04  8.814086E+04  5.484050E+03
       433  23 -8.584191E+05  1.532901E+04 -5.635359E+04  2.864155E+03  5.767470E+04  1.608199E+04
       433  24 -8.761956E+05  5.204433E+03 -3.535896E+04  1.642714E+04  2.723299E+04  1.486746E+04
       433  25 -1.424418E+06 -2.384738E+05 -2.644824E+05  4.659102E+04  9.602743E+04  5.504638E+03
       433  26 -1.370843E+06 -1.118936E+05 -1.796303E+05  1.079487E+04  5.992407E+04  1.608885E+04
       433  27 -1.353882E+06 -1.135316E+05 -1.503272E+05  2.346163E+03  2.384273E+04  1.485884E+04
       434   1 -4.427701E+05  9.490648E+04  7.396607E+04  1.471573E+04 -2.174775E+04 -1.233626E+04
       434   2 -4.774631E+05  9.843532E+04  7.914342E+04  2.522735E+03 -1.468862E+04 -1.181218E+04
       434   3 -5.165226E+05  8.828377E+04  7.629847E+04  1.922162E+04 -7.633853E+03 -1.032961E+04
       434   4 -8.692702E+05 -1.100933E+04 -2.889605E+04  1.686575E+04 -2.172563E+04 -1.233686E+04
       434   5 -8.670388E+05  1.708410E+03 -1.464420E+04  2.402441E+03 -1.421132E+04 -1.181124E+04
       434   6 -8.692579E+05  6.615596E+02 -8.735181E+03  1.683232E+04 -6.700972E+03 -1.032692E+04
       434   7 -1.295604E+06 -1.169384E+05 -1.317712E+05  1.901417E+04 -2.170351E+04 -1.233746E+04
       434   8 -1.256475E+06 -9.502957E+04 -1.084426E+05  2.282120E+03 -1.373432E+04 -1.181031E+04
       434   9 -1.221879E+06 -8.696973E+04 -9.377772E+04  1.444428E+04 -5.768618E+03 -1.032424E+04
       434  10 -4.427706E+05  9.490619E+04  7.396490E+04  1.471551E+04 -1.378818E-09 -3.165564E-09
       434  11 -4.774634E+05  9.843511E+04  7.914275E+04  2.522595E+03  2.137712E-09  4.751340E-09
       434  12 -5.165227E+05  8.828364E+04  7.629816E+04  1.922156E+04  6.155299E-09  6.276168E-09
       434  13 -8.692708E+05 -1.100962E+04 -2.889723E+04  1.686553E+04 -1.187036E-10  9.607332E-09
       434  14 -8.670390E+05  1.708206E+03 -1.464484E+04  2.402306E+03 -5.215456E-10 -1.555574E-08
       434  15 -8.692580E+05  6.614331E+02 -8.735466E+03  1.683226E+04 -1.578794E-09  7.509824E-09
       434  16 -1.295604E+06 -1.169387E+05 -1.317724E+05  1.901396E+04  2.366126E-09 -5.023657E-09
       434  17 -1.256476E+06 -9.502977E+04 -1.084433E+05  2.281989E+03 -2.914952E-09 -1.837293E-09
       434  18 -1.221879E+06 -8.696985E+04 -9.377798E+04  1.444424E+04 -5.903295E-09  1.682814E-09
       434  19 -4.427701E+05  9.490648E+04  7.396607E+04  1.471573E+04  2.174775E+04  1.233626E+04
       434  20 -4.774631E+05  9.843532E+04  7.914342E+04  2.522735E+03  1.468862E+04  1.181218E+04
       434  21 -5.165226E+05  8.828377E+04  7.629847E+04  1.922162E+04  7.633853E+03  1.032961E+04
       434  22 -8.692702E+05 -1.100933E+04 -2.889605E+04  1.686575E+04  2.172563E+04  1.233686E+04
       434  23 -8.670388E+05  1.708410E+03 -1.464420E+04  2.402441E+03  1.421132E+04  1.181124E+04
       434  24 -8.692579E+05  6.615596E+02 -8.735181E+03  1.683232E+04  6.700972E+03  1.032692E+04
       434  25 -1.295604E+06 -1.169384E+05 -1.317712E+05  1.901417E+04  2.170351E+04  1.233746E+04
       434  26 -1.256475E+06 -9.502957E+04 -1.084426E+05  2.282120E+03  1.373432E+04  1.181031E+04
       434  27 -1.221879E+06 -8.696973E+04 -9.377772E+04  1.444428E+04  5.768618E+03  1.032424E+04
       435   1 -5.692984E+05  7.317531E+04  6.506979E+04  1.758558E+04 -5.994533E+03 -9.318238E+03
       435   2 -6.070788E+05  6.501484E+04  5.906756E+04  2.771342E+03 -4.149447E+03 -7.874067E+03
       435   3 -6.456044E+05  5.555328E+04  5.149951E+04  1.787882E+04 -2.305631E+03 -6.338211E+03
       435   4 -8.684275E+05 -1.085712E+03 -6.866090E+03  1.707476E+04 -5.325127E+03 -9.316263E+03
       435   5 -8.680483E+05  2.082287E+02 -3.772143E+03  2.111296E+03 -3.436900E+03 -7.871756E+03
       435   6 -8.684227E+05  1.933769E+02 -2.274353E+03  1.707035E+04 -1.549830E+03 -6.335544E+03
       435   7 -1.167475E+06 -7.535325E+04 -7.880835E+04  1.656410E+04 -4.656042E+03 -9.314289E+03
       435   8 -1.128955E+06 -6.460336E+04 -6.661670E+04  1.451473E+03 -2.724651E+03 -7.869446E+03
       435   9 -1.091196E+06 -5.517015E+04 -5.605178E+04  1.626212E+04 -7.942987E+02 -6.332878E+03
       435  10 -5.692984E+05  7.317520E+04  6.506956E+04  1.758554E+04  4.580807E-09 -4.686698E-09
       435  11 -6.070789E+05  6.501477E+04  5.906741E+04  2.771316E+03  1.776434E-09 -4.171016E-09
       435  12 -6.456044E+05  5.555323E+04  5.149943E+04  1.787881E+04  9.688181E-10 -4.340384E-09
       435  13 -8.684276E+05 -1.085813E+03 -6.866307E+03  1.707472E+04 -5.803483E-10 -1.426188E-09
       435  14 -8.680483E+05  2.081590E+02 -3.772282E+03  2.111274E+03 -3.455610E-09 -3.643733E-09
       435  15 -8.684227E+05  1.933332E+02 -2.274433E+03  1.707034E+04  2.436284E-10 -3.055476E-09
       435  16 -1.167475E+06 -7.535335E+04 -7.880855E+04  1.656407E+04 -3.909793E-09 -6.878036E-09
       435  17 -1.128955E+06 -6.460342E+04 -6.661683E+04  1.451455E+03 -4.926512E-09  5.864481E-09
       435  18 -1.091196E+06 -5.517020E+04 -5.605185E+04  1.626211E+04  2.135969E-10  1.239956E-08
       435  19 -5.692984E+05  7.317531E+04  6.506979E+04  1.758558E+04  5.994533E+03  9.318238E+03
       435  20 -6.070788E+05  6.501484E+04  5.906756E+04  2.771342E+03  4.149447E+03  7.874067E+03
       435  21 -6.456044E+05  5.555328E+04  5.149951E+04  1.787882E+04  2.305631E+03  6.338211E+03
       435  22 -8.684275E+05 -1.085712E+03 -6.866090E+03  1.707476E+04  5.325127E+03  9.316263E+03
       435  23 -8.680483E+05  2.082287E+02 -3.772143E+03  2.111296E+03  3.436900E+03  7.871756E+03
       435  24 -8.684227E+05  1.933769E+02 -2.274353E+03  1.707035E+04  1.549830E+03  6.335544E+03
       435  25 -1.167475E+06 -7.535325E+04 -7.880835E+04  1.656410E+04  4.656042E+03  9.314289E+03
       435  26 -1.128955E+06 -6.460336E+04 -6.661670E+04  1.451473E+03  2.724651E+03  7.869446E+03
       435  27 -1.091196E+06 -5.517015E+04 -5.605178E+04  1.626212E+04  7.942987E+02  6.332878E+03
       436   1 -7.005994E+05  4.164002E+04  3.845431E+04  1.767288E+04 -1.923357E+03 -5.428263E+03
       436   2 -7.393601E+05  3.203861E+04  2.980596E+04  2.318659E+03 -1.334831E+03 -3.882829E+03
       436   3 -7.784581E+05  2.248424E+04  2.072747E+04  1.749411E+04 -7.468395E+02 -2.323096E+03
       436   4 -8.683247E+05  9.097286E+00 -1.819705E+03  1.720710E+04 -1.186492E+03 -5.425561E+03
       436   5 -8.681538E+05  5.211818E+01 -1.209676E+03  1.941820E+03 -5.912695E+02 -3.880006E+03
       436   6 -8.683228E+05  1.410883E+02 -1.034440E+03  1.720660E+04  3.456240E+00 -2.320146E+03
       436   7 -1.036024E+06 -4.162388E+04 -4.209571E+04  1.674143E+04 -4.498265E+02 -5.422860E+03
       436   8 -9.969323E+05 -3.193558E+04 -3.222649E+04  1.565045E+03  1.521383E+02 -3.877184E+03
       436   9 -9.581801E+05 -2.220266E+04 -2.279693E+04  1.691913E+04  7.536436E+02 -2.317197E+03
       436  10 -7.005994E+05  4.163999E+04  3.845424E+04  1.767287E+04  1.124273E-09 -4.253238E-09
       436  11 -7.393601E+05  3.203859E+04  2.980593E+04  2.318654E+03 -2.592963E-10  8.996732E-09
       436  12 -7.784581E+05  2.248423E+04  2.072746E+04  1.749411E+04 -6.694742E-10  1.005578E-09
       436  13 -8.683247E+05  9.065311E+00 -1.819763E+03  1.720710E+04  2.150166E-09  4.211931E-09
       436  14 -8.681538E+05  5.210192E+01 -1.209705E+03  1.941818E+03 -1.182065E-09 -6.296429E-09
       436  15 -8.683228E+05  1.410826E+02 -1.034450E+03  1.720660E+04  2.062300E-09 -7.142507E-09
       436  16 -1.036024E+06 -4.162391E+04 -4.209577E+04  1.674142E+04 -1.590943E-11  5.955424E-09
       436  17 -9.969323E+05 -3.193560E+04 -3.222652E+04  1.565045E+03 -1.600939E-09  9.649755E-09
       436  18 -9.581801E+05 -2.220266E+04 -2.279695E+04  1.691913E+04  5.731417E-10  1.443275E-09
       436  19 -7.005994E+05  4.164002E+04  3.845431E+04  1.767288E+04  1.923357E+03  5.428263E+03
       436  20 -7.393601E+05  3.203861E+04  2.980596E+04  2.318659E+03  1.334831E+03  3.882829E+03
       436  21 -7.784581E+05  2.248424E+04  2.072747E+04  1.749411E+04  7.468395E+02  2.323096E+03
       436  22 -8.683247E+05  9.097286E+00 -1.819705E+03  1.720710E+04  1.186492E+03  5.425561E+03
       436  23 -8.681538E+05  5.211818E+01 -1.209676E+03  1.941820E+03  5.912695E+02  3.880006E+03
       436  24 -8.683228E+05  1.410883E+02 -1.034440E+03  1.720660E+04 -3.456240E+00  2.320146E+03
       436  25 -1.036024E+06 -4.162388E+04 -4.209571E+04  1.674143E+04  4.498265E+02  5.422860E+03
       436  26 -9.969323E+05 -3.193558E+04 -3.222649E+04  1.565045E+03 -1.521383E+02  3.877184E+03
       436  27 -9.581801E+05 -2.220266E+04 -2.279693E+04  1.691913E+04 -7.536436E+02  2.317197E+03
       437   1 -8.342869E+05  8.574690E+03  7.013100E+03  1.732454E+04 -5.615643E+02 -1.410758E+03
       437   2 -8.732670E+05 -1.212889E+03 -2.606885E+03  1.865094E+03  1.162836E+02  1.550745E+02
       437   3 -9.126332E+05 -1.098347E+04 -1.272925E+04  1.712978E+04  7.941137E+02  1.716361E+03
       437   4 -8.683315E+05  1.433013E+02 -1.065976E+03  1.724969E+04  1.890582E+02 -1.407773E+03
       437   5 -8.681378E+05  6.115240E+01 -1.371615E+03  1.887930E+03  8.647008E+02  1.580442E+02
       437   6 -8.683318E+05 -3.652529E+00 -2.178142E+03  1.725028E+04  1.540368E+03  1.719321E+03
       437   7 -9.023749E+05 -8.288170E+03 -9.145130E+03  1.717485E+04  9.396396E+02 -1.404788E+03
       437   8 -8.630085E+05  1.335192E+03 -1.363455E+02  1.910765E+03  1.613124E+03  1.610140E+02
       437   9 -8.240286E+05  1.097603E+04  8.372828E+03  1.737079E+04  2.286676E+03  1.722281E+03
       437  10 -8.342869E+05  8.574687E+03  7.013096E+03  1.732454E+04 -5.629896E-09 -9.209505E-10
       437  11 -8.732670E+05 -1.212889E+03 -2.606885E+03  1.865094E+03  1.313521E-09 -4.085540E-09
       437  12 -9.126332E+05 -1.098348E+04 -1.272925E+04  1.712978E+04  1.334869E-09 -5.105574E-09
       437  13 -8.683315E+05  1.432992E+02 -1.065979E+03  1.724969E+04 -1.115217E-09  1.015647E-09
       437  14 -8.681378E+05  6.115217E+01 -1.371617E+03  1.887930E+03 -3.197796E-09 -8.360365E-09
       437  15 -8.683318E+05 -3.656340E+00 -2.178152E+03  1.725028E+04  3.145161E-10 -6.172091E-09
       437  16 -9.023749E+05 -8.288173E+03 -9.145135E+03  1.717485E+04  4.514427E-09  2.584422E-09
       437  17 -8.630085E+05  1.335191E+03 -1.363505E+02  1.910765E+03 -2.586166E-09 -1.540319E-08
       437  18 -8.240286E+05  1.097602E+04  8.372813E+03  1.737078E+04  6.676307E-10 -9.855813E-09
       437  19 -8.342869E+05  8.574690E+03  7.013100E+03  1.732454E+04  5.615643E+02  1.410758E+03
       437  20 -8.732670E+05 -1.212889E+03 -2.606885E+03  1.865094E+03 -1.162836E+02 -1.550745E+02
       437  21 -9.126332E+05 -1.098347E+04 -1.272925E+04  1.712978E+04 -7.941137E+02 -1.716361E+03
       437  22 -8.683315E+05  1.433013E+02 -1.065976E+03  1.724969E+04 -1.890582E+02  1.407773E+03
       437  23 -8.681378E+05  6.115240E+01 -1.371615E+03  1.887930E+03 -8.647008E+02 -1.580442E+02
       437  24 -8.683318E+05 -3.652529E+00 -2.178142E+03  1.725028E+04 -1.540368E+03 -1.719321E+03
       437  25 -9.023749E+05 -8.288170E+03 -9.145130E+03  1.717485E+04 -9.396396E+02  1.404788E+03
       437  26 -8.630085E+05  1.335192E+03 -1.363455E+02  1.910765E+03 -1.613124E+03 -1.610140E+02
       437  27 -8.240286E+05  1.097603E+04  8.372828E+03  1.737079E+04 -2.286676E+03 -1.722281E+03
       438   1 -9.685511E+05 -2.466629E+04 -2.698619E+04  1.667350E+04  1.217164E+03  2.636230E+03
       438   2 -1.006942E+06 -3.425073E+04 -3.809396E+04  1.590815E+03  3.565095E+03  4.200648E+03
       438   3 -1.046321E+06 -4.549087E+04 -5.120396E+04  1.700700E+04  5.913644E+03  5.696156E+03
       438   4 -8.684664E+05  2.198122E+02 -2.760873E+03  1.719784E+04  1.979533E+03  2.639214E+03
       438   5 -8.679765E+05  2.668974E+02 -4.624198E+03  1.951570E+03  4.294884E+03  4.203396E+03
       438   6 -8.684699E+05 -1.335507E+03 -8.466472E+03  1.720375E+04  6.610997E+03  5.698678E+03
       438   7 -7.683725E+05  2.510518E+04  2.146372E+04  1.772226E+04  2.742025E+03  2.642199E+03
       438   8 -7.289936E+05  3.478312E+04  2.884419E+04  2.312389E+03  5.024835E+03  4.206144E+03
       438   9 -6.905900E+05  4.281756E+04  3.426877E+04  1.740053E+04  7.308549E+03  5.701200E+03
       438  10 -9.685511E+05 -2.466629E+04 -2.698620E+04  1.667350E+04 -6.674219E-09 -1.955601E-09
       438  11 -1.006942E+06 -3.425076E+04 -3.809402E+04  1.590803E+03  5.897465E-10 -7.982433E-09
       438  12 -1.046321E+06 -4.549092E+04 -5.120409E+04  1.700697E+04  5.900379E-09  4.275366E-10
       438  13 -8.684664E+05  2.198037E+02 -2.760894E+03  1.719784E+04  5.374893E-10 -1.948316E-09
       438  14 -8.679765E+05  2.668735E+02 -4.624266E+03  1.951555E+03 -1.268472E-09  3.838523E-09
       438  15 -8.684700E+05 -1.335553E+03 -8.466616E+03  1.720372E+04  1.801677E-10  2.282391E-09
       438  16 -7.683725E+05  2.510517E+04  2.146369E+04  1.772225E+04  5.864814E-09  5.317090E-09
       438  17 -7.289936E+05  3.478309E+04  2.884411E+04  2.312372E+03  2.696098E-10 -3.682069E-09
       438  18 -6.905901E+05  4.281751E+04  3.426861E+04  1.740049E+04 -4.401749E-09  8.146241E-09
       438  19 -9.685511E+05 -2.466629E+04 -2.698619E+04  1.667350E+04 -1.217164E+03 -2.636230E+03
       438  20 -1.006942E+06 -3.425073E+04 -3.809396E+04  1.590815E+03 -3.565095E+03 -4.200648E+03
       438  21 -1.046321E+06 -4.549087E+04 -5.120396E+04  1.700700E+04 -5.913644E+03 -5.696156E+03
       438  22 -8.684664E+05  2.198122E+02 -2.760873E+03  1.719784E+04 -1.979533E+03 -2.639214E+03
       438  23 -8.679765E+05  2.668974E+02 -4.624198E+03  1.951570E+03 -4.294884E+03 -4.203396E+03
       438  24 -8.684699E+05 -1.335507E+03 -8.466472E+03  1.720375E+04 -6.610997E+03 -5.698678E+03
       438  25 -7.683725E+05  2.510518E+04  2.146372E+04  1.772226E+04 -2.742025E+03 -2.642199E+03
       438  26 -7.289936E+05  3.478312E+04  2.884419E+04  2.312389E+03 -5.024835E+03 -4.206144E+03
       438  27 -6.905900E+05  4.281756E+04  3.426877E+04  1.740053E+04 -7.308549E+03 -5.701200E+03
       439   1 -1.102334E+06 -5.705547E+04 -6.697261E+04  1.452278E+04  7.399388E+03  6.705179E+03
       439   2 -1.137572E+06 -6.514421E+04 -8.330864E+04  2.357373E+03  1.703654E+04  8.249827E+03
       439   3 -1.178512E+06 -9.032740E+04 -1.102382E+05  2.006621E+04  2.667651E+04  9.024067E+03
       439   4 -8.695093E+05  8.181960E+02 -1.078434E+04  1.704528E+04  8.309780E+03  6.708405E+03
       439   5 -8.666969E+05  2.133946E+03 -1.807322E+04  2.133008E+03  1.758126E+04  8.251480E+03
       439   6 -8.695219E+05 -1.357676E+04 -3.569781E+04  1.709433E+04  2.685614E+04  9.024216E+03
       439   7 -6.366347E+05  5.868792E+04  4.540005E+04  1.956869E+04  9.220512E+03  6.711637E+03
       439   8 -5.957544E+05  6.940674E+04  4.715695E+04  1.908485E+03  1.812622E+04  8.253133E+03
       439   9 -5.604439E+05  6.316693E+04  3.883576E+04  1.412088E+04  2.703585E+04  9.024362E+03
       439  10 -1.102334E+06 -5.705553E+04 -6.697280E+04  1.452274E+04  1.055528E-08 -2.558918E-09
       439  11 -1.137572E+06 -6.514436E+04 -8.330931E+04  2.357260E+03  2.394983E-09  6.850571E-09
       439  12 -1.178513E+06 -9.032768E+04 -1.102397E+05  2.006602E+04  1.714338E-09 -9.194761E-09
       439  13 -8.695094E+05  8.181291E+02 -1.078456E+04  1.704524E+04  6.517325E-10 -9.043793E-09
       439  14 -8.666972E+05  2.133790E+03 -1.807393E+04  2.132891E+03 -2.814912E-09  6.679576E-10
       439  15 -8.695227E+05 -1.357705E+04 -3.569932E+04  1.709413E+04 -5.433282E-11 -2.187588E-09
       439  16 -6.366348E+05  5.868785E+04  4.539981E+04  1.956864E+04 -9.807329E-09 -2.044567E-09
       439  17 -5.957548E+05  6.940658E+04  4.715621E+04  1.908364E+03 -2.928149E-09 -1.425530E-08
       439  18 -5.604447E+05  6.316665E+04  3.883423E+04  1.412069E+04  4.290365E-10  7.301853E-09
       439  19 -1.102334E+06 -5.705547E+04 -6.697261E+04  1.452278E+04 -7.399388E+03 -6.705179E+03
       439  20 -1.137572E+06 -6.514421E+04 -8.330864E+04  2.357373E+03 -1.703654E+04 -8.249827E+03
       439  21 -1.178512E+06 -9.032740E+04 -1.102382E+05  2.006621E+04 -2.667651E+04 -9.024067E+03
       439  22 -8.695093E+05  8.181960E+02 -1.078434E+04  1.704528E+04 -8.309780E+03 -6.708405E+03
       439  23 -8.666969E+05  2.133946E+03 -1.807322E+04  2.133008E+03 -1.758126E+04 -8.251480E+03
       439  24 -8.695219E+05 -1.357676E+04 -3.569781E+04  1.709433E+04 -2.685614E+04 -9.024216E+03
       439  25 -6.366347E+05  5.868792E+04  4.540005E+04  1.956869E+04 -9.220512E+03 -6.711637E+03
       439  26 -5.957544E+05  6.940674E+04  4.715695E+04  1.908485E+03 -1.812622E+04 -8.253133E+03
       439  27 -5.604439E+05  6.316693E+04  3.883576E+04  1.412088E+04 -2.703585E+04 -9.024362E+03
       440   1 -1.240466E+06 -8.368356E+04 -1.309290E+05 -3.998160E+02  3.076465E+04  1.126192E+04
       440   2 -1.254942E+06 -8.001603E+04 -1.655522E+05  1.246683E+04  7.291298E+04  1.264950E+04
       440   3 -1.314458E+06 -2.343620E+05 -2.671637E+05  5.419335E+04  1.150850E+05  4.506817E+03
       440   4 -8.780932E+05  6.454144E+03 -4.368716E+04  1.671710E+04  3.366282E+04  1.127167E+04
       440   5 -8.560118E+05  1.898008E+04 -6.959834E+04  2.471648E+03  7.126368E+04  1.264279E+04
       440   6 -8.781532E+05 -1.256648E+05 -1.593065E+05  1.708786E+04  1.088911E+05  4.482674E+03
       440   7 -5.155996E+05  9.658332E+04  4.354543E+04  3.384397E+04  3.656267E+04  1.128157E+04
       440   8 -4.569359E+05  1.179650E+05  2.634424E+04 -7.530103E+03  6.961331E+04  1.263614E+04
       440   9 -4.416723E+05 -1.697662E+04 -5.146254E+04 -2.004390E+04  1.026929E+05  4.459283E+03
       440  10 -1.240467E+06 -8.368395E+04 -1.309310E+05 -4.000952E+02  1.074486E-08 -7.271982E-09
       440  11 -1.254947E+06 -8.001764E+04 -1.655625E+05  1.246609E+04  7.135934E-09  3.072478E-09
       440  12 -1.314472E+06 -2.343656E+05 -2.671887E+05  5.419293E+04  3.784179E-10  7.480996E-09
       440  13 -8.780944E+05  6.453703E+03 -4.368953E+04  1.671679E+04  5.870024E-13  2.455403E-09
       440  14 -8.560173E+05  1.897854E+04 -6.960820E+04  2.470923E+03 -2.651010E-09  1.066596E-08
       440  15 -8.781659E+05 -1.256681E+05 -1.593288E+05  1.708747E+04 -3.238477E-10  6.538484E-10
       440  16 -5.156011E+05  9.658282E+04  4.354268E+04  3.384363E+04 -1.028542E-08  1.217936E-08
       440  17 -4.569412E+05  1.179635E+05  2.633482E+04 -7.530812E+03 -8.138957E-09  8.511744E-09
       440  18 -4.416836E+05 -1.697947E+04 -5.148241E+04 -2.004427E+04 -6.734294E-10 -9.982490E-10
       440  19 -1.240466E+06 -8.368356E+04 -1.309290E+05 -3.998160E+02 -3.076465E+04 -1.126192E+04
       440  20 -1.254942E+06 -8.001603E+04 -1.655522E+05  1.246683E+04 -7.291298E+04 -1.264950E+04
       440  21 -1.314458E+06 -2.343620E+05 -2.671637E+05  5.419335E+04 -1.150850E+05 -4.506817E+03
       440  22 -8.780932E+05  6.454144E+03 -4.368716E+04  1.671710E+04 -3.366282E+04 -1.127167E+04
       440  23 -8.560118E+05  1.898008E+04 -6.959834E+04  2.471648E+03 -7.126368E+04 -1.264279E+04
       440  24 -8.781532E+05 -1.256648E+05 -1.593065E+05  1.708786E+04 -1.088911E+05 -4.482674E+03
       440  25 -5.155996E+05  9.658332E+04  4.354543E+04  3.384397E+04 -3.656267E+04 -1.128157E+04
       440  26 -4.569359E+05  1.179650E+05  2.634424E+04 -7.530103E+03 -6.961331E+04 -1.263614E+04
       440  27 -4.416723E+05 -1.697662E+04 -5.146254E+04 -2.004390E+04 -1.026929E+05 -4.459283E+03
