    1C
    1UUSER                                                              
    1UDATE              11.october.2022                                 
    1UTIME              19:13:47                                        
    1UHOST                                                              
    1UPGM               CalculiX                                        
    1UVERSION           Version 2.20                             
    1UCOMPILETIME       Sun Jul 31 18:08:37 CEST 2022                    
    1UDIR                                                               
    1UDBN                                                               
    1UMAT    1MESH_MATERIAL                                             
    2C                           409                                     1
 -1         1 0.00000E+00 0.00000E+00 0.00000E+00
 -1         2 1.66667E-02 0.00000E+00 0.00000E+00
 -1         3 3.33333E-02 0.00000E+00 0.00000E+00
 -1         5 6.66667E-02 0.00000E+00 0.00000E+00
 -1         8 0.00000E+00 6.25000E-03 0.00000E+00
 -1         9 1.66667E-02 6.25000E-03 0.00000E+00
 -1        10 3.33333E-02 6.25000E-03 0.00000E+00
 -1        12 6.66667E-02 6.25000E-03 0.00000E+00
 -1        15 0.00000E+00 1.25000E-02 0.00000E+00
 -1        16 1.66667E-02 1.25000E-02 0.00000E+00
 -1        17 3.33333E-02 1.25000E-02 0.00000E+00
 -1        18 5.00000E-02 1.25000E-02 0.00000E+00
 -1        19 6.66667E-02 1.25000E-02 0.00000E+00
 -1        20 8.33333E-02 1.25000E-02 0.00000E+00
 -1        21 1.00000E-01 1.25000E-02 0.00000E+00
 -1        24 3.33333E-02 1.87500E-02 0.00000E+00
 -1        25 5.00000E-02 1.87500E-02 0.00000E+00
 -1        26 6.66667E-02 1.87500E-02 0.00000E+00
 -1        27 8.33333E-02 1.87500E-02 0.00000E+00
 -1        28 1.00000E-01 1.87500E-02 0.00000E+00
 -1        32 5.00000E-02 2.50000E-02 0.00000E+00
 -1        33 6.66667E-02 2.50000E-02 0.00000E+00
 -1        34 8.33333E-02 2.50000E-02 0.00000E+00
 -1        35 1.00000E-01 2.50000E-02 0.00000E+00
 -1        51 0.00000E+00 1.04167E-03 0.00000E+00
 -1        52 0.00000E+00 2.08333E-03 0.00000E+00
 -1        53 0.00000E+00 3.12500E-03 0.00000E+00
 -1        54 0.00000E+00 4.16667E-03 0.00000E+00
 -1        55 0.00000E+00 5.20833E-03 0.00000E+00
 -1        56 1.04167E-03 3.90630E-04 0.00000E+00
 -1        57 2.08333E-03 7.81250E-04 0.00000E+00
 -1        58 3.12500E-03 1.17188E-03 0.00000E+00
 -1        59 4.16667E-03 1.56250E-03 0.00000E+00
 -1        60 5.20833E-03 1.95312E-03 0.00000E+00
 -1        61 6.25000E-03 2.34375E-03 0.00000E+00
 -1        62 7.29167E-03 2.73438E-03 0.00000E+00
 -1        63 8.33333E-03 3.12500E-03 0.00000E+00
 -1        64 9.37500E-03 3.51563E-03 0.00000E+00
 -1        65 1.04167E-02 3.90625E-03 0.00000E+00
 -1        66 1.14583E-02 4.29688E-03 0.00000E+00
 -1        67 1.25000E-02 4.68750E-03 0.00000E+00
 -1        68 1.35417E-02 5.07813E-03 0.00000E+00
 -1        69 1.45833E-02 5.46875E-03 0.00000E+00
 -1        70 1.56250E-02 5.85938E-03 0.00000E+00
 -1        86 1.66667E-02 1.04167E-03 0.00000E+00
 -1        87 1.66667E-02 2.08333E-03 0.00000E+00
 -1        88 1.66667E-02 3.12500E-03 0.00000E+00
 -1        89 1.66667E-02 4.16667E-03 0.00000E+00
 -1        90 1.66667E-02 5.20833E-03 0.00000E+00
 -1       121 3.33333E-02 1.04167E-03 0.00000E+00
 -1       122 3.33333E-02 2.08333E-03 0.00000E+00
 -1       123 3.33333E-02 3.12500E-03 0.00000E+00
 -1       124 3.33333E-02 4.16667E-03 0.00000E+00
 -1       125 3.33333E-02 5.20833E-03 0.00000E+00
 -1       191 6.66667E-02 1.04167E-03 0.00000E+00
 -1       192 6.66667E-02 2.08333E-03 0.00000E+00
 -1       193 6.66667E-02 3.12500E-03 0.00000E+00
 -1       194 6.66667E-02 4.16667E-03 0.00000E+00
 -1       195 6.66667E-02 5.20833E-03 0.00000E+00
 -1       251 1.04167E-03 6.25000E-03 0.00000E+00
 -1       252 2.08333E-03 6.25000E-03 0.00000E+00
 -1       253 3.12500E-03 6.25000E-03 0.00000E+00
 -1       254 4.16667E-03 6.25000E-03 0.00000E+00
 -1       255 5.20833E-03 6.25000E-03 0.00000E+00
 -1       256 6.25000E-03 6.25000E-03 0.00000E+00
 -1       257 7.29167E-03 6.25000E-03 0.00000E+00
 -1       258 8.33333E-03 6.25000E-03 0.00000E+00
 -1       259 9.37500E-03 6.25000E-03 0.00000E+00
 -1       260 1.04167E-02 6.25000E-03 0.00000E+00
 -1       261 1.14583E-02 6.25000E-03 0.00000E+00
 -1       262 1.25000E-02 6.25000E-03 0.00000E+00
 -1       263 1.35417E-02 6.25000E-03 0.00000E+00
 -1       264 1.45833E-02 6.25000E-03 0.00000E+00
 -1       265 1.56250E-02 6.25000E-03 0.00000E+00
 -1       266 0.00000E+00 7.29167E-03 0.00000E+00
 -1       267 0.00000E+00 8.33333E-03 0.00000E+00
 -1       268 0.00000E+00 9.37500E-03 0.00000E+00
 -1       269 0.00000E+00 1.04167E-02 0.00000E+00
 -1       270 0.00000E+00 1.14583E-02 0.00000E+00
 -1       271 1.04167E-03 6.64063E-03 0.00000E+00
 -1       272 2.08333E-03 7.03125E-03 0.00000E+00
 -1       273 3.12500E-03 7.42188E-03 0.00000E+00
 -1       274 4.16667E-03 7.81250E-03 0.00000E+00
 -1       275 5.20833E-03 8.20313E-03 0.00000E+00
 -1       276 6.25000E-03 8.59375E-03 0.00000E+00
 -1       277 7.29167E-03 8.98438E-03 0.00000E+00
 -1       278 8.33333E-03 9.37500E-03 0.00000E+00
 -1       279 9.37500E-03 9.76562E-03 0.00000E+00
 -1       280 1.04167E-02 1.01562E-02 0.00000E+00
 -1       281 1.14583E-02 1.05469E-02 0.00000E+00
 -1       282 1.25000E-02 1.09375E-02 0.00000E+00
 -1       283 1.35417E-02 1.13281E-02 0.00000E+00
 -1       284 1.45833E-02 1.17188E-02 0.00000E+00
 -1       285 1.56250E-02 1.21094E-02 0.00000E+00
 -1       301 1.66667E-02 7.29167E-03 0.00000E+00
 -1       302 1.66667E-02 8.33333E-03 0.00000E+00
 -1       303 1.66667E-02 9.37500E-03 0.00000E+00
 -1       304 1.66667E-02 1.04167E-02 0.00000E+00
 -1       305 1.66667E-02 1.14583E-02 0.00000E+00
 -1       306 1.77083E-02 6.64063E-03 0.00000E+00
 -1       307 1.87500E-02 7.03125E-03 0.00000E+00
 -1       308 1.97917E-02 7.42188E-03 0.00000E+00
 -1       309 2.08333E-02 7.81250E-03 0.00000E+00
 -1       310 2.18750E-02 8.20313E-03 0.00000E+00
 -1       311 2.29167E-02 8.59375E-03 0.00000E+00
 -1       312 2.39583E-02 8.98438E-03 0.00000E+00
 -1       313 2.50000E-02 9.37500E-03 0.00000E+00
 -1       314 2.60417E-02 9.76562E-03 0.00000E+00
 -1       315 2.70833E-02 1.01562E-02 0.00000E+00
 -1       316 2.81250E-02 1.05469E-02 0.00000E+00
 -1       317 2.91667E-02 1.09375E-02 0.00000E+00
 -1       318 3.02083E-02 1.13281E-02 0.00000E+00
 -1       319 3.12500E-02 1.17188E-02 0.00000E+00
 -1       320 3.22917E-02 1.21094E-02 0.00000E+00
 -1       336 3.33333E-02 7.29167E-03 0.00000E+00
 -1       337 3.33333E-02 8.33333E-03 0.00000E+00
 -1       338 3.33333E-02 9.37500E-03 0.00000E+00
 -1       339 3.33333E-02 1.04167E-02 0.00000E+00
 -1       340 3.33333E-02 1.14583E-02 0.00000E+00
 -1       406 6.66667E-02 7.29167E-03 0.00000E+00
 -1       407 6.66667E-02 8.33333E-03 0.00000E+00
 -1       408 6.66667E-02 9.37500E-03 0.00000E+00
 -1       409 6.66667E-02 1.04167E-02 0.00000E+00
 -1       410 6.66667E-02 1.14583E-02 0.00000E+00
 -1       521 1.77083E-02 1.28906E-02 0.00000E+00
 -1       522 1.87500E-02 1.32813E-02 0.00000E+00
 -1       523 1.97917E-02 1.36719E-02 0.00000E+00
 -1       524 2.08333E-02 1.40625E-02 0.00000E+00
 -1       525 2.18750E-02 1.44531E-02 0.00000E+00
 -1       526 2.29167E-02 1.48437E-02 0.00000E+00
 -1       527 2.39583E-02 1.52344E-02 0.00000E+00
 -1       528 2.50000E-02 1.56250E-02 0.00000E+00
 -1       529 2.60417E-02 1.60156E-02 0.00000E+00
 -1       530 2.70833E-02 1.64062E-02 0.00000E+00
 -1       531 2.81250E-02 1.67969E-02 0.00000E+00
 -1       532 2.91667E-02 1.71875E-02 0.00000E+00
 -1       533 3.02083E-02 1.75781E-02 0.00000E+00
 -1       534 3.12500E-02 1.79687E-02 0.00000E+00
 -1       535 3.22917E-02 1.83594E-02 0.00000E+00
 -1       536 3.43750E-02 1.25000E-02 0.00000E+00
 -1       537 3.54167E-02 1.25000E-02 0.00000E+00
 -1       538 3.64583E-02 1.25000E-02 0.00000E+00
 -1       539 3.75000E-02 1.25000E-02 0.00000E+00
 -1       540 3.85417E-02 1.25000E-02 0.00000E+00
 -1       541 3.95833E-02 1.25000E-02 0.00000E+00
 -1       542 4.06250E-02 1.25000E-02 0.00000E+00
 -1       543 4.16667E-02 1.25000E-02 0.00000E+00
 -1       544 4.27083E-02 1.25000E-02 0.00000E+00
 -1       545 4.37500E-02 1.25000E-02 0.00000E+00
 -1       546 4.47917E-02 1.25000E-02 0.00000E+00
 -1       547 4.58333E-02 1.25000E-02 0.00000E+00
 -1       548 4.68750E-02 1.25000E-02 0.00000E+00
 -1       549 4.79167E-02 1.25000E-02 0.00000E+00
 -1       550 4.89583E-02 1.25000E-02 0.00000E+00
 -1       551 3.33333E-02 1.35417E-02 0.00000E+00
 -1       552 3.33333E-02 1.45833E-02 0.00000E+00
 -1       553 3.33333E-02 1.56250E-02 0.00000E+00
 -1       554 3.33333E-02 1.66667E-02 0.00000E+00
 -1       555 3.33333E-02 1.77083E-02 0.00000E+00
 -1       556 3.43750E-02 1.28906E-02 0.00000E+00
 -1       557 3.54167E-02 1.32813E-02 0.00000E+00
 -1       558 3.64583E-02 1.36719E-02 0.00000E+00
 -1       559 3.75000E-02 1.40625E-02 0.00000E+00
 -1       560 3.85417E-02 1.44531E-02 0.00000E+00
 -1       561 3.95833E-02 1.48437E-02 0.00000E+00
 -1       562 4.06250E-02 1.52344E-02 0.00000E+00
 -1       563 4.16667E-02 1.56250E-02 0.00000E+00
 -1       564 4.27083E-02 1.60156E-02 0.00000E+00
 -1       565 4.37500E-02 1.64062E-02 0.00000E+00
 -1       566 4.47917E-02 1.67969E-02 0.00000E+00
 -1       567 4.58333E-02 1.71875E-02 0.00000E+00
 -1       568 4.68750E-02 1.75781E-02 0.00000E+00
 -1       569 4.79167E-02 1.79687E-02 0.00000E+00
 -1       570 4.89583E-02 1.83594E-02 0.00000E+00
 -1       571 5.10417E-02 1.25000E-02 0.00000E+00
 -1       572 5.20833E-02 1.25000E-02 0.00000E+00
 -1       573 5.31250E-02 1.25000E-02 0.00000E+00
 -1       574 5.41667E-02 1.25000E-02 0.00000E+00
 -1       575 5.52083E-02 1.25000E-02 0.00000E+00
 -1       576 5.62500E-02 1.25000E-02 0.00000E+00
 -1       577 5.72917E-02 1.25000E-02 0.00000E+00
 -1       578 5.83333E-02 1.25000E-02 0.00000E+00
 -1       579 5.93750E-02 1.25000E-02 0.00000E+00
 -1       580 6.04167E-02 1.25000E-02 0.00000E+00
 -1       581 6.14583E-02 1.25000E-02 0.00000E+00
 -1       582 6.25000E-02 1.25000E-02 0.00000E+00
 -1       583 6.35417E-02 1.25000E-02 0.00000E+00
 -1       584 6.45833E-02 1.25000E-02 0.00000E+00
 -1       585 6.56250E-02 1.25000E-02 0.00000E+00
 -1       586 5.00000E-02 1.35417E-02 0.00000E+00
 -1       587 5.00000E-02 1.45833E-02 0.00000E+00
 -1       588 5.00000E-02 1.56250E-02 0.00000E+00
 -1       589 5.00000E-02 1.66667E-02 0.00000E+00
 -1       590 5.00000E-02 1.77083E-02 0.00000E+00
 -1       591 5.10417E-02 1.28906E-02 0.00000E+00
 -1       592 5.20833E-02 1.32813E-02 0.00000E+00
 -1       593 5.31250E-02 1.36719E-02 0.00000E+00
 -1       594 5.41667E-02 1.40625E-02 0.00000E+00
 -1       595 5.52083E-02 1.44531E-02 0.00000E+00
 -1       596 5.62500E-02 1.48437E-02 0.00000E+00
 -1       597 5.72917E-02 1.52344E-02 0.00000E+00
 -1       598 5.83333E-02 1.56250E-02 0.00000E+00
 -1       599 5.93750E-02 1.60156E-02 0.00000E+00
 -1       600 6.04167E-02 1.64062E-02 0.00000E+00
 -1       601 6.14583E-02 1.67969E-02 0.00000E+00
 -1       602 6.25000E-02 1.71875E-02 0.00000E+00
 -1       603 6.35417E-02 1.75781E-02 0.00000E+00
 -1       604 6.45833E-02 1.79687E-02 0.00000E+00
 -1       605 6.56250E-02 1.83594E-02 0.00000E+00
 -1       606 6.77083E-02 1.25000E-02 0.00000E+00
 -1       607 6.87500E-02 1.25000E-02 0.00000E+00
 -1       608 6.97917E-02 1.25000E-02 0.00000E+00
 -1       609 7.08333E-02 1.25000E-02 0.00000E+00
 -1       610 7.18750E-02 1.25000E-02 0.00000E+00
 -1       611 7.29167E-02 1.25000E-02 0.00000E+00
 -1       612 7.39583E-02 1.25000E-02 0.00000E+00
 -1       613 7.50000E-02 1.25000E-02 0.00000E+00
 -1       614 7.60417E-02 1.25000E-02 0.00000E+00
 -1       615 7.70833E-02 1.25000E-02 0.00000E+00
 -1       616 7.81250E-02 1.25000E-02 0.00000E+00
 -1       617 7.91667E-02 1.25000E-02 0.00000E+00
 -1       618 8.02083E-02 1.25000E-02 0.00000E+00
 -1       619 8.12500E-02 1.25000E-02 0.00000E+00
 -1       620 8.22917E-02 1.25000E-02 0.00000E+00
 -1       621 6.66667E-02 1.35417E-02 0.00000E+00
 -1       622 6.66667E-02 1.45833E-02 0.00000E+00
 -1       623 6.66667E-02 1.56250E-02 0.00000E+00
 -1       624 6.66667E-02 1.66667E-02 0.00000E+00
 -1       625 6.66667E-02 1.77083E-02 0.00000E+00
 -1       626 6.77083E-02 1.28906E-02 0.00000E+00
 -1       627 6.87500E-02 1.32813E-02 0.00000E+00
 -1       628 6.97917E-02 1.36719E-02 0.00000E+00
 -1       629 7.08333E-02 1.40625E-02 0.00000E+00
 -1       630 7.18750E-02 1.44531E-02 0.00000E+00
 -1       631 7.29167E-02 1.48437E-02 0.00000E+00
 -1       632 7.39583E-02 1.52344E-02 0.00000E+00
 -1       633 7.50000E-02 1.56250E-02 0.00000E+00
 -1       634 7.60417E-02 1.60156E-02 0.00000E+00
 -1       635 7.70833E-02 1.64062E-02 0.00000E+00
 -1       636 7.81250E-02 1.67969E-02 0.00000E+00
 -1       637 7.91667E-02 1.71875E-02 0.00000E+00
 -1       638 8.02083E-02 1.75781E-02 0.00000E+00
 -1       639 8.12500E-02 1.79687E-02 0.00000E+00
 -1       640 8.22917E-02 1.83594E-02 0.00000E+00
 -1       656 8.33333E-02 1.35417E-02 0.00000E+00
 -1       657 8.33333E-02 1.45833E-02 0.00000E+00
 -1       658 8.33333E-02 1.56250E-02 0.00000E+00
 -1       659 8.33333E-02 1.66667E-02 0.00000E+00
 -1       660 8.33333E-02 1.77083E-02 0.00000E+00
 -1       661 8.43750E-02 1.28906E-02 0.00000E+00
 -1       662 8.54167E-02 1.32813E-02 0.00000E+00
 -1       663 8.64583E-02 1.36719E-02 0.00000E+00
 -1       664 8.75000E-02 1.40625E-02 0.00000E+00
 -1       665 8.85417E-02 1.44531E-02 0.00000E+00
 -1       666 8.95833E-02 1.48437E-02 0.00000E+00
 -1       667 9.06250E-02 1.52344E-02 0.00000E+00
 -1       668 9.16667E-02 1.56250E-02 0.00000E+00
 -1       669 9.27083E-02 1.60156E-02 0.00000E+00
 -1       670 9.37500E-02 1.64062E-02 0.00000E+00
 -1       671 9.47917E-02 1.67969E-02 0.00000E+00
 -1       672 9.58333E-02 1.71875E-02 0.00000E+00
 -1       673 9.68750E-02 1.75781E-02 0.00000E+00
 -1       674 9.79167E-02 1.79687E-02 0.00000E+00
 -1       675 9.89583E-02 1.83594E-02 0.00000E+00
 -1       676 1.00000E-01 1.35417E-02 0.00000E+00
 -1       677 1.00000E-01 1.45833E-02 0.00000E+00
 -1       678 1.00000E-01 1.56250E-02 0.00000E+00
 -1       679 1.00000E-01 1.66667E-02 0.00000E+00
 -1       680 1.00000E-01 1.77083E-02 0.00000E+00
 -1       771 3.43750E-02 1.91406E-02 0.00000E+00
 -1       772 3.54167E-02 1.95312E-02 0.00000E+00
 -1       773 3.64583E-02 1.99219E-02 0.00000E+00
 -1       774 3.75000E-02 2.03125E-02 0.00000E+00
 -1       775 3.85417E-02 2.07031E-02 0.00000E+00
 -1       776 3.95833E-02 2.10938E-02 0.00000E+00
 -1       777 4.06250E-02 2.14844E-02 0.00000E+00
 -1       778 4.16667E-02 2.18750E-02 0.00000E+00
 -1       779 4.27083E-02 2.22656E-02 0.00000E+00
 -1       780 4.37500E-02 2.26563E-02 0.00000E+00
 -1       781 4.47917E-02 2.30469E-02 0.00000E+00
 -1       782 4.58333E-02 2.34375E-02 0.00000E+00
 -1       783 4.68750E-02 2.38281E-02 0.00000E+00
 -1       784 4.79167E-02 2.42187E-02 0.00000E+00
 -1       785 4.89583E-02 2.46094E-02 0.00000E+00
 -1       786 5.10417E-02 1.87500E-02 0.00000E+00
 -1       787 5.20833E-02 1.87500E-02 0.00000E+00
 -1       788 5.31250E-02 1.87500E-02 0.00000E+00
 -1       789 5.41667E-02 1.87500E-02 0.00000E+00
 -1       790 5.52083E-02 1.87500E-02 0.00000E+00
 -1       791 5.62500E-02 1.87500E-02 0.00000E+00
 -1       792 5.72917E-02 1.87500E-02 0.00000E+00
 -1       793 5.83333E-02 1.87500E-02 0.00000E+00
 -1       794 5.93750E-02 1.87500E-02 0.00000E+00
 -1       795 6.04167E-02 1.87500E-02 0.00000E+00
 -1       796 6.14583E-02 1.87500E-02 0.00000E+00
 -1       797 6.25000E-02 1.87500E-02 0.00000E+00
 -1       798 6.35417E-02 1.87500E-02 0.00000E+00
 -1       799 6.45833E-02 1.87500E-02 0.00000E+00
 -1       800 6.56250E-02 1.87500E-02 0.00000E+00
 -1       801 5.00000E-02 1.97917E-02 0.00000E+00
 -1       802 5.00000E-02 2.08333E-02 0.00000E+00
 -1       803 5.00000E-02 2.18750E-02 0.00000E+00
 -1       804 5.00000E-02 2.29167E-02 0.00000E+00
 -1       805 5.00000E-02 2.39583E-02 0.00000E+00
 -1       806 5.10417E-02 1.91406E-02 0.00000E+00
 -1       807 5.20833E-02 1.95312E-02 0.00000E+00
 -1       808 5.31250E-02 1.99219E-02 0.00000E+00
 -1       809 5.41667E-02 2.03125E-02 0.00000E+00
 -1       810 5.52083E-02 2.07031E-02 0.00000E+00
 -1       811 5.62500E-02 2.10938E-02 0.00000E+00
 -1       812 5.72917E-02 2.14844E-02 0.00000E+00
 -1       813 5.83333E-02 2.18750E-02 0.00000E+00
 -1       814 5.93750E-02 2.22656E-02 0.00000E+00
 -1       815 6.04167E-02 2.26563E-02 0.00000E+00
 -1       816 6.14583E-02 2.30469E-02 0.00000E+00
 -1       817 6.25000E-02 2.34375E-02 0.00000E+00
 -1       818 6.35417E-02 2.38281E-02 0.00000E+00
 -1       819 6.45833E-02 2.42187E-02 0.00000E+00
 -1       820 6.56250E-02 2.46094E-02 0.00000E+00
 -1       821 6.77083E-02 1.87500E-02 0.00000E+00
 -1       822 6.87500E-02 1.87500E-02 0.00000E+00
 -1       823 6.97917E-02 1.87500E-02 0.00000E+00
 -1       824 7.08333E-02 1.87500E-02 0.00000E+00
 -1       825 7.18750E-02 1.87500E-02 0.00000E+00
 -1       826 7.29167E-02 1.87500E-02 0.00000E+00
 -1       827 7.39583E-02 1.87500E-02 0.00000E+00
 -1       828 7.50000E-02 1.87500E-02 0.00000E+00
 -1       829 7.60417E-02 1.87500E-02 0.00000E+00
 -1       830 7.70833E-02 1.87500E-02 0.00000E+00
 -1       831 7.81250E-02 1.87500E-02 0.00000E+00
 -1       832 7.91667E-02 1.87500E-02 0.00000E+00
 -1       833 8.02083E-02 1.87500E-02 0.00000E+00
 -1       834 8.12500E-02 1.87500E-02 0.00000E+00
 -1       835 8.22917E-02 1.87500E-02 0.00000E+00
 -1       836 6.66667E-02 1.97917E-02 0.00000E+00
 -1       837 6.66667E-02 2.08333E-02 0.00000E+00
 -1       838 6.66667E-02 2.18750E-02 0.00000E+00
 -1       839 6.66667E-02 2.29167E-02 0.00000E+00
 -1       840 6.66667E-02 2.39583E-02 0.00000E+00
 -1       856 8.43750E-02 1.87500E-02 0.00000E+00
 -1       857 8.54167E-02 1.87500E-02 0.00000E+00
 -1       858 8.64583E-02 1.87500E-02 0.00000E+00
 -1       859 8.75000E-02 1.87500E-02 0.00000E+00
 -1       860 8.85417E-02 1.87500E-02 0.00000E+00
 -1       861 8.95833E-02 1.87500E-02 0.00000E+00
 -1       862 9.06250E-02 1.87500E-02 0.00000E+00
 -1       863 9.16667E-02 1.87500E-02 0.00000E+00
 -1       864 9.27083E-02 1.87500E-02 0.00000E+00
 -1       865 9.37500E-02 1.87500E-02 0.00000E+00
 -1       866 9.47917E-02 1.87500E-02 0.00000E+00
 -1       867 9.58333E-02 1.87500E-02 0.00000E+00
 -1       868 9.68750E-02 1.87500E-02 0.00000E+00
 -1       869 9.79167E-02 1.87500E-02 0.00000E+00
 -1       870 9.89583E-02 1.87500E-02 0.00000E+00
 -1       871 8.33333E-02 1.97917E-02 0.00000E+00
 -1       872 8.33333E-02 2.08333E-02 0.00000E+00
 -1       873 8.33333E-02 2.18750E-02 0.00000E+00
 -1       874 8.33333E-02 2.29167E-02 0.00000E+00
 -1       875 8.33333E-02 2.39583E-02 0.00000E+00
 -1       876 8.43750E-02 1.91406E-02 0.00000E+00
 -1       877 8.54167E-02 1.95312E-02 0.00000E+00
 -1       878 8.64583E-02 1.99219E-02 0.00000E+00
 -1       879 8.75000E-02 2.03125E-02 0.00000E+00
 -1       880 8.85417E-02 2.07031E-02 0.00000E+00
 -1       881 8.95833E-02 2.10938E-02 0.00000E+00
 -1       882 9.06250E-02 2.14844E-02 0.00000E+00
 -1       883 9.16667E-02 2.18750E-02 0.00000E+00
 -1       884 9.27083E-02 2.22656E-02 0.00000E+00
 -1       885 9.37500E-02 2.26563E-02 0.00000E+00
 -1       886 9.47917E-02 2.30469E-02 0.00000E+00
 -1       887 9.58333E-02 2.34375E-02 0.00000E+00
 -1       888 9.68750E-02 2.38281E-02 0.00000E+00
 -1       889 9.79167E-02 2.42187E-02 0.00000E+00
 -1       890 9.89583E-02 2.46094E-02 0.00000E+00
 -1       891 1.00000E-01 1.97917E-02 0.00000E+00
 -1       892 1.00000E-01 2.08333E-02 0.00000E+00
 -1       893 1.00000E-01 2.18750E-02 0.00000E+00
 -1       894 1.00000E-01 2.29167E-02 0.00000E+00
 -1       895 1.00000E-01 2.39583E-02 0.00000E+00
 -1       956 6.77083E-02 2.50000E-02 0.00000E+00
 -1       957 6.87500E-02 2.50000E-02 0.00000E+00
 -1       958 6.97917E-02 2.50000E-02 0.00000E+00
 -1       959 7.08333E-02 2.50000E-02 0.00000E+00
 -1       960 7.18750E-02 2.50000E-02 0.00000E+00
 -1       961 7.29167E-02 2.50000E-02 0.00000E+00
 -1       962 7.39583E-02 2.50000E-02 0.00000E+00
 -1       963 7.50000E-02 2.50000E-02 0.00000E+00
 -1       964 7.60417E-02 2.50000E-02 0.00000E+00
 -1       965 7.70833E-02 2.50000E-02 0.00000E+00
 -1       966 7.81250E-02 2.50000E-02 0.00000E+00
 -1       967 7.91667E-02 2.50000E-02 0.00000E+00
 -1       968 8.02083E-02 2.50000E-02 0.00000E+00
 -1       969 8.12500E-02 2.50000E-02 0.00000E+00
 -1       970 8.22917E-02 2.50000E-02 0.00000E+00
 -1       971 8.43750E-02 2.50000E-02 0.00000E+00
 -1       972 8.54167E-02 2.50000E-02 0.00000E+00
 -1       973 8.64583E-02 2.50000E-02 0.00000E+00
 -1       974 8.75000E-02 2.50000E-02 0.00000E+00
 -1       975 8.85417E-02 2.50000E-02 0.00000E+00
 -1       976 8.95833E-02 2.50000E-02 0.00000E+00
 -1       977 9.06250E-02 2.50000E-02 0.00000E+00
 -1       978 9.16667E-02 2.50000E-02 0.00000E+00
 -1       979 9.27083E-02 2.50000E-02 0.00000E+00
 -1       980 9.37500E-02 2.50000E-02 0.00000E+00
 -1       981 9.47917E-02 2.50000E-02 0.00000E+00
 -1       982 9.58333E-02 2.50000E-02 0.00000E+00
 -1       983 9.68750E-02 2.50000E-02 0.00000E+00
 -1       984 9.79167E-02 2.50000E-02 0.00000E+00
 -1       985 9.89583E-02 2.50000E-02 0.00000E+00
 -3
    3C                           211                                     1
 -1         1   12    0    1
 -2         1        52        51
 -1         2   12    0    1
 -2        52        54        53
 -1         3   12    0    1
 -2        54         8        55
 -1         4   12    0    1
 -2         1        57        56
 -1         5   12    0    1
 -2        57        59        58
 -1         6   12    0    1
 -2        59        61        60
 -1         7   12    0    1
 -2        61        63        62
 -1         8   12    0    1
 -2        63        65        64
 -1         9   12    0    1
 -2        65        67        66
 -1        10   12    0    1
 -2        67        69        68
 -1        11   12    0    1
 -2        69         9        70
 -1        12   12    0    1
 -2         2        87        86
 -1        13   12    0    1
 -2        87        89        88
 -1        14   12    0    1
 -2        89         9        90
 -1        15   12    0    1
 -2         3       122       121
 -1        16   12    0    1
 -2       122       124       123
 -1        17   12    0    1
 -2       124        10       125
 -1        18   12    0    1
 -2         5       192       191
 -1        19   12    0    1
 -2       192       194       193
 -1        20   12    0    1
 -2       194        12       195
 -1        21   12    0    1
 -2         8       252       251
 -1        22   12    0    1
 -2       252       254       253
 -1        23   12    0    1
 -2       254       256       255
 -1        24   12    0    1
 -2       256       258       257
 -1        25   12    0    1
 -2       258       260       259
 -1        26   12    0    1
 -2       260       262       261
 -1        27   12    0    1
 -2       262       264       263
 -1        28   12    0    1
 -2       264         9       265
 -1        29   12    0    1
 -2         8       267       266
 -1        30   12    0    1
 -2       267       269       268
 -1        31   12    0    1
 -2       269        15       270
 -1        32   12    0    1
 -2         8       272       271
 -1        33   12    0    1
 -2       272       274       273
 -1        34   12    0    1
 -2       274       276       275
 -1        35   12    0    1
 -2       276       278       277
 -1        36   12    0    1
 -2       278       280       279
 -1        37   12    0    1
 -2       280       282       281
 -1        38   12    0    1
 -2       282       284       283
 -1        39   12    0    1
 -2       284        16       285
 -1        40   12    0    1
 -2         9       302       301
 -1        41   12    0    1
 -2       302       304       303
 -1        42   12    0    1
 -2       304        16       305
 -1        43   12    0    1
 -2         9       307       306
 -1        44   12    0    1
 -2       307       309       308
 -1        45   12    0    1
 -2       309       311       310
 -1        46   12    0    1
 -2       311       313       312
 -1        47   12    0    1
 -2       313       315       314
 -1        48   12    0    1
 -2       315       317       316
 -1        49   12    0    1
 -2       317       319       318
 -1        50   12    0    1
 -2       319        17       320
 -1        51   12    0    1
 -2        10       337       336
 -1        52   12    0    1
 -2       337       339       338
 -1        53   12    0    1
 -2       339        17       340
 -1        54   12    0    1
 -2        12       407       406
 -1        55   12    0    1
 -2       407       409       408
 -1        56   12    0    1
 -2       409        19       410
 -1        57   12    0    1
 -2        16       522       521
 -1        58   12    0    1
 -2       522       524       523
 -1        59   12    0    1
 -2       524       526       525
 -1        60   12    0    1
 -2       526       528       527
 -1        61   12    0    1
 -2       528       530       529
 -1        62   12    0    1
 -2       530       532       531
 -1        63   12    0    1
 -2       532       534       533
 -1        64   12    0    1
 -2       534        24       535
 -1        65   12    0    1
 -2        17       537       536
 -1        66   12    0    1
 -2       537       539       538
 -1        67   12    0    1
 -2       539       541       540
 -1        68   12    0    1
 -2       541       543       542
 -1        69   12    0    1
 -2       543       545       544
 -1        70   12    0    1
 -2       545       547       546
 -1        71   12    0    1
 -2       547       549       548
 -1        72   12    0    1
 -2       549        18       550
 -1        73   12    0    1
 -2        17       552       551
 -1        74   12    0    1
 -2       552       554       553
 -1        75   12    0    1
 -2       554        24       555
 -1        76   12    0    1
 -2        17       557       556
 -1        77   12    0    1
 -2       557       559       558
 -1        78   12    0    1
 -2       559       561       560
 -1        79   12    0    1
 -2       561       563       562
 -1        80   12    0    1
 -2       563       565       564
 -1        81   12    0    1
 -2       565       567       566
 -1        82   12    0    1
 -2       567       569       568
 -1        83   12    0    1
 -2       569        25       570
 -1        84   12    0    1
 -2        18       572       571
 -1        85   12    0    1
 -2       572       574       573
 -1        86   12    0    1
 -2       574       576       575
 -1        87   12    0    1
 -2       576       578       577
 -1        88   12    0    1
 -2       578       580       579
 -1        89   12    0    1
 -2       580       582       581
 -1        90   12    0    1
 -2       582       584       583
 -1        91   12    0    1
 -2       584        19       585
 -1        92   12    0    1
 -2        18       587       586
 -1        93   12    0    1
 -2       587       589       588
 -1        94   12    0    1
 -2       589        25       590
 -1        95   12    0    1
 -2        18       592       591
 -1        96   12    0    1
 -2       592       594       593
 -1        97   12    0    1
 -2       594       596       595
 -1        98   12    0    1
 -2       596       598       597
 -1        99   12    0    1
 -2       598       600       599
 -1       100   12    0    1
 -2       600       602       601
 -1       101   12    0    1
 -2       602       604       603
 -1       102   12    0    1
 -2       604        26       605
 -1       103   12    0    1
 -2        19       607       606
 -1       104   12    0    1
 -2       607       609       608
 -1       105   12    0    1
 -2       609       611       610
 -1       106   12    0    1
 -2       611       613       612
 -1       107   12    0    1
 -2       613       615       614
 -1       108   12    0    1
 -2       615       617       616
 -1       109   12    0    1
 -2       617       619       618
 -1       110   12    0    1
 -2       619        20       620
 -1       111   12    0    1
 -2        19       622       621
 -1       112   12    0    1
 -2       622       624       623
 -1       113   12    0    1
 -2       624        26       625
 -1       114   12    0    1
 -2        19       627       626
 -1       115   12    0    1
 -2       627       629       628
 -1       116   12    0    1
 -2       629       631       630
 -1       117   12    0    1
 -2       631       633       632
 -1       118   12    0    1
 -2       633       635       634
 -1       119   12    0    1
 -2       635       637       636
 -1       120   12    0    1
 -2       637       639       638
 -1       121   12    0    1
 -2       639        27       640
 -1       122   12    0    1
 -2        20       657       656
 -1       123   12    0    1
 -2       657       659       658
 -1       124   12    0    1
 -2       659        27       660
 -1       125   12    0    1
 -2        20       662       661
 -1       126   12    0    1
 -2       662       664       663
 -1       127   12    0    1
 -2       664       666       665
 -1       128   12    0    1
 -2       666       668       667
 -1       129   12    0    1
 -2       668       670       669
 -1       130   12    0    1
 -2       670       672       671
 -1       131   12    0    1
 -2       672       674       673
 -1       132   12    0    1
 -2       674        28       675
 -1       133   12    0    1
 -2        21       677       676
 -1       134   12    0    1
 -2       677       679       678
 -1       135   12    0    1
 -2       679        28       680
 -1       136   12    0    1
 -2        24       772       771
 -1       137   12    0    1
 -2       772       774       773
 -1       138   12    0    1
 -2       774       776       775
 -1       139   12    0    1
 -2       776       778       777
 -1       140   12    0    1
 -2       778       780       779
 -1       141   12    0    1
 -2       780       782       781
 -1       142   12    0    1
 -2       782       784       783
 -1       143   12    0    1
 -2       784        32       785
 -1       144   12    0    1
 -2        25       787       786
 -1       145   12    0    1
 -2       787       789       788
 -1       146   12    0    1
 -2       789       791       790
 -1       147   12    0    1
 -2       791       793       792
 -1       148   12    0    1
 -2       793       795       794
 -1       149   12    0    1
 -2       795       797       796
 -1       150   12    0    1
 -2       797       799       798
 -1       151   12    0    1
 -2       799        26       800
 -1       152   12    0    1
 -2        25       802       801
 -1       153   12    0    1
 -2       802       804       803
 -1       154   12    0    1
 -2       804        32       805
 -1       155   12    0    1
 -2        25       807       806
 -1       156   12    0    1
 -2       807       809       808
 -1       157   12    0    1
 -2       809       811       810
 -1       158   12    0    1
 -2       811       813       812
 -1       159   12    0    1
 -2       813       815       814
 -1       160   12    0    1
 -2       815       817       816
 -1       161   12    0    1
 -2       817       819       818
 -1       162   12    0    1
 -2       819        33       820
 -1       163   12    0    1
 -2        26       822       821
 -1       164   12    0    1
 -2       822       824       823
 -1       165   12    0    1
 -2       824       826       825
 -1       166   12    0    1
 -2       826       828       827
 -1       167   12    0    1
 -2       828       830       829
 -1       168   12    0    1
 -2       830       832       831
 -1       169   12    0    1
 -2       832       834       833
 -1       170   12    0    1
 -2       834        27       835
 -1       171   12    0    1
 -2        26       837       836
 -1       172   12    0    1
 -2       837       839       838
 -1       173   12    0    1
 -2       839        33       840
 -1       174   12    0    1
 -2        27       857       856
 -1       175   12    0    1
 -2       857       859       858
 -1       176   12    0    1
 -2       859       861       860
 -1       177   12    0    1
 -2       861       863       862
 -1       178   12    0    1
 -2       863       865       864
 -1       179   12    0    1
 -2       865       867       866
 -1       180   12    0    1
 -2       867       869       868
 -1       181   12    0    1
 -2       869        28       870
 -1       182   12    0    1
 -2        27       872       871
 -1       183   12    0    1
 -2       872       874       873
 -1       184   12    0    1
 -2       874        34       875
 -1       185   12    0    1
 -2        27       877       876
 -1       186   12    0    1
 -2       877       879       878
 -1       187   12    0    1
 -2       879       881       880
 -1       188   12    0    1
 -2       881       883       882
 -1       189   12    0    1
 -2       883       885       884
 -1       190   12    0    1
 -2       885       887       886
 -1       191   12    0    1
 -2       887       889       888
 -1       192   12    0    1
 -2       889        35       890
 -1       193   12    0    1
 -2        28       892       891
 -1       194   12    0    1
 -2       892       894       893
 -1       195   12    0    1
 -2       894        35       895
 -1       196   12    0    1
 -2        33       957       956
 -1       197   12    0    1
 -2       957       959       958
 -1       198   12    0    1
 -2       959       961       960
 -1       199   12    0    1
 -2       961       963       962
 -1       200   12    0    1
 -2       963       965       964
 -1       201   12    0    1
 -2       965       967       966
 -1       202   12    0    1
 -2       967       969       968
 -1       203   12    0    1
 -2       969        34       970
 -1       204   12    0    1
 -2        34       972       971
 -1       205   12    0    1
 -2       972       974       973
 -1       206   12    0    1
 -2       974       976       975
 -1       207   12    0    1
 -2       976       978       977
 -1       208   12    0    1
 -2       978       980       979
 -1       209   12    0    1
 -2       980       982       981
 -1       210   12    0    1
 -2       982       984       983
 -1       211   12    0    1
 -2       984        35       985
 -3
    1PSTEP                         1           1           1          
  100CL  101 2.50000E-01         409                     0    1           1
 -4  DISP        4    1
 -5  D1          1    2    1    0
 -5  D2          1    2    2    0
 -5  D3          1    2    3    0
 -5  ALL         1    2    0    0    1ALL
 -1         1 6.52359E-05 0.00000E+00 0.00000E+00
 -1         2 6.02686E-05 2.10403E-29 0.00000E+00
 -1         3 5.54714E-05-2.38289E-27 3.30872E-24
 -1         5 4.00389E-05 4.79965E-26 0.00000E+00
 -1         8 5.20700E-05-4.68844E-07 0.00000E+00
 -1         9 5.28943E-05 3.09994E-07 0.00000E+00
 -1        10 5.14312E-05-7.59640E-07 0.00000E+00
 -1        12 3.97516E-05 2.72211E-07 0.00000E+00
 -1        15 3.64080E-05-5.01463E-07 0.00000E+00
 -1        16 3.76675E-05 2.49404E-07 0.00000E+00
 -1        17 3.83746E-05-1.59153E-06 0.00000E+00
 -1        18 3.83629E-05 7.28456E-08 0.00000E+00
 -1        19 3.88900E-05 5.42948E-07 0.00000E+00
 -1        20 3.89619E-05 8.11724E-06 0.00000E+00
 -1        21 3.86904E-05 1.53532E-05-8.27181E-25
 -1        24 9.81926E-06-2.11636E-06 0.00000E+00
 -1        25 3.74483E-05 1.35149E-07 0.00000E+00
 -1        26 3.79419E-05 7.56140E-07 0.00000E+00
 -1        27 3.71847E-05 6.90762E-06 0.00000E+00
 -1        28 3.69417E-05 1.51204E-05 0.00000E+00
 -1        32 0.00000E+00 0.00000E+00 0.00000E+00
 -1        33 3.63361E-05 1.01371E-06 0.00000E+00
 -1        34 3.56080E-05 6.89721E-06 0.00000E+00
 -1        35 3.49164E-05 1.49976E-05 0.00000E+00
 -1        51 6.43792E-05-7.81427E-08 0.00000E+00
 -1        52 6.27917E-05-1.53930E-07 0.00000E+00
 -1        53 6.06173E-05-2.29962E-07 0.00000E+00
 -1        54 5.80056E-05-3.06950E-07-1.65436E-24
 -1        55 5.51064E-05-3.85422E-07-2.06795E-24
 -1        56 6.46334E-05-3.64434E-07 1.32349E-23
 -1        57 6.40907E-05-9.55872E-07 0.00000E+00
 -1        58 6.36097E-05-1.70798E-06 1.32349E-23
 -1        59 6.31626E-05-2.56246E-06 1.32349E-23
 -1        60 6.27293E-05-3.45443E-06 0.00000E+00
 -1        61 6.22855E-05-4.32007E-06 0.00000E+00
 -1        62 6.18080E-05-5.09605E-06 0.00000E+00
 -1        63 6.12737E-05-5.72068E-06 0.00000E+00
 -1        64 6.06613E-05-6.13709E-06 0.00000E+00
 -1        65 5.99509E-05-6.29167E-06-1.32349E-23
 -1        66 5.91254E-05-6.13926E-06 2.64698E-23
 -1        67 5.81700E-05-5.63934E-06 1.32349E-23
 -1        68 5.70732E-05-4.76294E-06 1.32349E-23
 -1        69 5.58294E-05-3.48559E-06-6.61744E-24
 -1        70 5.44299E-05-1.79857E-06 0.00000E+00
 -1        86 6.00722E-05 5.52444E-08-1.65436E-24
 -1        87 5.94826E-05 1.10047E-07 8.27181E-25
 -1        88 5.84879E-05 1.64499E-07 8.27181E-25
 -1        89 5.70751E-05 2.16629E-07 0.00000E+00
 -1        90 5.52192E-05 2.68682E-07 0.00000E+00
 -1       121 5.53588E-05-1.26272E-07-3.30872E-24
 -1       122 5.50214E-05-2.52596E-07 0.00000E+00
 -1       123 5.44594E-05-3.79022E-07-3.30872E-24
 -1       124 5.36731E-05-5.05622E-07 1.65436E-24
 -1       125 5.26634E-05-6.32409E-07 0.00000E+00
 -1       191 4.00309E-05 4.53715E-08-1.65436E-24
 -1       192 4.00070E-05 9.07422E-08 0.00000E+00
 -1       193 3.99671E-05 1.36113E-07 1.65436E-24
 -1       194 3.99112E-05 1.81482E-07-8.27181E-25
 -1       195 3.98394E-05 2.26848E-07-1.65436E-24
 -1       251 5.21107E-05 1.69855E-06 1.65436E-24
 -1       252 5.21624E-05 2.99387E-06-5.16988E-26
 -1       253 5.22141E-05 3.56001E-06-8.27181E-25
 -1       254 5.22678E-05 3.53818E-06-8.27181E-25
 -1       255 5.23214E-05 3.05292E-06-1.65436E-24
 -1       256 5.23752E-05 2.22774E-06 0.00000E+00
 -1       257 5.24288E-05 1.17649E-06-1.65436E-24
 -1       258 5.24823E-05 1.24932E-08 8.27181E-25
 -1       259 5.25359E-05-1.15418E-06-1.65436E-24
 -1       260 5.25895E-05-2.21342E-06-8.27181E-25
 -1       261 5.26432E-05-3.05205E-06 0.00000E+00
 -1       262 5.26968E-05-3.55643E-06 0.00000E+00
 -1       263 5.27505E-05-3.60339E-06 0.00000E+00
 -1       264 5.28022E-05-3.06870E-06-1.03398E-25
 -1       265 5.28538E-05-1.81169E-06 1.65436E-24
 -1       266 4.94597E-05-4.80772E-07 0.00000E+00
 -1       267 4.68494E-05-4.85417E-07 0.00000E+00
 -1       268 4.42390E-05-4.90524E-07 8.27181E-25
 -1       269 4.16286E-05-4.94264E-07 0.00000E+00
 -1       270 3.90183E-05-4.97972E-07-2.06795E-25
 -1       271 5.04859E-05 1.47059E-06-1.32349E-23
 -1       272 4.91436E-05 2.69249E-06 0.00000E+00
 -1       273 4.80367E-05 3.29161E-06-2.64698E-23
 -1       274 4.71256E-05 3.35769E-06 1.32349E-23
 -1       275 4.63772E-05 2.98899E-06-2.64698E-23
 -1       276 4.57532E-05 2.28662E-06 0.00000E+00
 -1       277 4.52146E-05 1.35550E-06 0.00000E+00
 -1       278 4.47216E-05 3.02614E-07 0.00000E+00
 -1       279 4.42335E-05-7.63781E-07 0.00000E+00
 -1       280 4.37100E-05-1.73526E-06-1.32349E-23
 -1       281 4.31109E-05-2.50445E-06 0.00000E+00
 -1       282 4.23969E-05-2.96590E-06 0.00000E+00
 -1       283 4.15295E-05-3.01750E-06 2.64698E-23
 -1       284 4.04740E-05-2.56022E-06-1.32349E-23
 -1       285 3.91918E-05-1.50233E-06-1.32349E-23
 -1       301 5.03160E-05 2.96780E-07-3.30872E-24
 -1       302 4.77381E-05 2.91373E-07 0.00000E+00
 -1       303 4.51724E-05 2.86191E-07 0.00000E+00
 -1       304 4.26308E-05 2.80142E-07-1.65436E-24
 -1       305 4.01253E-05 2.72865E-07 6.61744E-24
 -1       306 5.12647E-05 2.18899E-06 0.00000E+00
 -1       307 4.98920E-05 3.30531E-06 1.32349E-23
 -1       308 4.87909E-05 3.70469E-06 2.64698E-23
 -1       309 4.79345E-05 3.43791E-06 0.00000E+00
 -1       310 4.72872E-05 2.61268E-06 2.64698E-23
 -1       311 4.68032E-05 1.34873E-06 0.00000E+00
 -1       312 4.64250E-05-1.98621E-07 2.64698E-23
 -1       313 4.60920E-05-1.86732E-06 1.32349E-23
 -1       314 4.57400E-05-3.48529E-06 0.00000E+00
 -1       315 4.53055E-05-4.88176E-06-1.32349E-23
 -1       316 4.47311E-05-5.90409E-06-2.64698E-23
 -1       317 4.39639E-05-6.40862E-06 1.32349E-23
 -1       318 4.29644E-05-6.29351E-06 2.64698E-23
 -1       319 4.17048E-05-5.47018E-06 0.00000E+00
 -1       320 4.01658E-05-3.91086E-06 0.00000E+00
 -1       336 4.99479E-05-8.97174E-07-3.30872E-24
 -1       337 4.81848E-05-1.03533E-06 1.65436E-24
 -1       338 4.61435E-05-1.17396E-06 3.30872E-24
 -1       339 4.38263E-05-1.31298E-06 0.00000E+00
 -1       340 4.12357E-05-1.45266E-06 0.00000E+00
 -1       406 3.96478E-05 3.17566E-07 0.00000E+00
 -1       407 3.95281E-05 3.62906E-07 0.00000E+00
 -1       408 3.93924E-05 4.08215E-07 1.65436E-24
 -1       409 3.92408E-05 4.53439E-07-8.27181E-25
 -1       410 3.90733E-05 4.98489E-07 1.65436E-24
 -1       521 3.54014E-05 1.64681E-06-2.64698E-23
 -1       522 3.34226E-05 2.13086E-06 0.00000E+00
 -1       523 3.17663E-05 1.76552E-06 0.00000E+00
 -1       524 3.03896E-05 6.27813E-07-2.64698E-23
 -1       525 2.92369E-05-1.10908E-06 0.00000E+00
 -1       526 2.82330E-05-3.24949E-06 0.00000E+00
 -1       527 2.72888E-05-5.55006E-06-5.29396E-23
 -1       528 2.63109E-05-7.76111E-06 2.64698E-23
 -1       529 2.52101E-05-9.64310E-06-5.29396E-23
 -1       530 2.39023E-05-1.09708E-05 0.00000E+00
 -1       531 2.23268E-05-1.15834E-05-5.29396E-23
 -1       532 2.04357E-05-1.13505E-05 0.00000E+00
 -1       533 1.82146E-05-1.02405E-05 0.00000E+00
 -1       534 1.56735E-05-8.25619E-06 0.00000E+00
 -1       535 1.28402E-05-5.50822E-06 0.00000E+00
 -1       536 3.83666E-05 1.07222E-06 0.00000E+00
 -1       537 3.83641E-05 3.07545E-06 4.13590E-25
 -1       538 3.83623E-05 4.48669E-06 0.00000E+00
 -1       539 3.83618E-05 5.37451E-06-1.03398E-25
 -1       540 3.83617E-05 5.80738E-06-1.03398E-25
 -1       541 3.83618E-05 5.85373E-06-2.58494E-26
 -1       542 3.83619E-05 5.58188E-06 0.00000E+00
 -1       543 3.83619E-05 5.06014E-06 1.61559E-27
 -1       544 3.83619E-05 4.35673E-06 0.00000E+00
 -1       545 3.83618E-05 3.53983E-06 0.00000E+00
 -1       546 3.83616E-05 2.67761E-06-2.58494E-26
 -1       547 3.83615E-05 1.83825E-06 0.00000E+00
 -1       548 3.83614E-05 1.08988E-06 5.16988E-26
 -1       549 3.83616E-05 5.00693E-07-5.16988E-26
 -1       550 3.83619E-05 1.38935E-07 2.06795E-25
 -1       551 3.45855E-05-1.67244E-06 0.00000E+00
 -1       552 3.00526E-05-1.75504E-06 1.24077E-24
 -1       553 2.50410E-05-1.83996E-06-3.30872E-24
 -1       554 1.98194E-05-1.92721E-06 0.00000E+00
 -1       555 1.46566E-05-2.01562E-06 0.00000E+00
 -1       556 3.73837E-05 9.81544E-07 0.00000E+00
 -1       557 3.66269E-05 2.94642E-06 0.00000E+00
 -1       558 3.60787E-05 4.35932E-06 0.00000E+00
 -1       559 3.57159E-05 5.28091E-06 0.00000E+00
 -1       560 3.55153E-05 5.77164E-06 0.00000E+00
 -1       561 3.54536E-05 5.89229E-06 0.00000E+00
 -1       562 3.55080E-05 5.70369E-06 0.00000E+00
 -1       563 3.56555E-05 5.26669E-06 0.00000E+00
 -1       564 3.58732E-05 4.64218E-06 0.00000E+00
 -1       565 3.61384E-05 3.89107E-06 0.00000E+00
 -1       566 3.64281E-05 3.07427E-06 0.00000E+00
 -1       567 3.67197E-05 2.25271E-06 1.03398E-25
 -1       568 3.69902E-05 1.48730E-06 0.00000E+00
 -1       569 3.72169E-05 8.38878E-07 0.00000E+00
 -1       570 3.73770E-05 3.68323E-07 0.00000E+00
 -1       571 3.83948E-05 1.22884E-07 4.13590E-25
 -1       572 3.84275E-05 1.51233E-07 1.03398E-25
 -1       573 3.84604E-05 1.61758E-07-8.27181E-25
 -1       574 3.84934E-05 1.58530E-07 0.00000E+00
 -1       575 3.85265E-05 1.45637E-07 8.27181E-25
 -1       576 3.85595E-05 1.27194E-07 0.00000E+00
 -1       577 3.85926E-05 1.07318E-07-8.27181E-25
 -1       578 3.86256E-05 9.01325E-08 0.00000E+00
 -1       579 3.86587E-05 7.97576E-08-1.65436E-24
 -1       580 3.86918E-05 8.03154E-08 0.00000E+00
 -1       581 3.87248E-05 9.59269E-08 0.00000E+00
 -1       582 3.87579E-05 1.30708E-07 0.00000E+00
 -1       583 3.87909E-05 1.88772E-07 1.65436E-24
 -1       584 3.88240E-05 2.74189E-07-1.65436E-24
 -1       585 3.88570E-05 3.91003E-07 0.00000E+00
 -1       586 3.81990E-05 8.38822E-08 8.27181E-25
 -1       587 3.80212E-05 9.46382E-08-2.06795E-25
 -1       588 3.78434E-05 1.05274E-07 0.00000E+00
 -1       589 3.76794E-05 1.15739E-07 0.00000E+00
 -1       590 3.75432E-05 1.25919E-07 0.00000E+00
 -1       591 3.83288E-05 1.39603E-07-2.58494E-26
 -1       592 3.83003E-05 1.88408E-07 0.00000E+00
 -1       593 3.82770E-05 2.22682E-07 2.06795E-25
 -1       594 3.82579E-05 2.45508E-07 0.00000E+00
 -1       595 3.82419E-05 2.60007E-07 0.00000E+00
 -1       596 3.82279E-05 2.69279E-07-1.03398E-25
 -1       597 3.82146E-05 2.76421E-07 0.00000E+00
 -1       598 3.82010E-05 2.84530E-07 0.00000E+00
 -1       599 3.81858E-05 2.96700E-07-2.06795E-25
 -1       600 3.81680E-05 3.16025E-07 0.00000E+00
 -1       601 3.81463E-05 3.45602E-07-2.06795E-25
 -1       602 3.81197E-05 3.88528E-07-5.16988E-26
 -1       603 3.80869E-05 4.47902E-07-1.03398E-25
 -1       604 3.80469E-05 5.26848E-07 5.16988E-26
 -1       605 3.79986E-05 6.28447E-07 0.00000E+00
 -1       606 3.88961E-05 7.70082E-07 0.00000E+00
 -1       607 3.89011E-05 1.04451E-06 0.00000E+00
 -1       608 3.89057E-05 1.36345E-06-1.65436E-24
 -1       609 3.89102E-05 1.72378E-06 0.00000E+00
 -1       610 3.89146E-05 2.12235E-06 0.00000E+00
 -1       611 3.89190E-05 2.55598E-06 0.00000E+00
 -1       612 3.89234E-05 3.02146E-06 0.00000E+00
 -1       613 3.89278E-05 3.51561E-06 0.00000E+00
 -1       614 3.89321E-05 4.03523E-06 0.00000E+00
 -1       615 3.89364E-05 4.57712E-06 0.00000E+00
 -1       616 3.89407E-05 5.13809E-06-8.27181E-25
 -1       617 3.89450E-05 5.71494E-06 0.00000E+00
 -1       618 3.89493E-05 6.30447E-06 0.00000E+00
 -1       619 3.89536E-05 6.90350E-06 0.00000E+00
 -1       620 3.89578E-05 7.50882E-06 0.00000E+00
 -1       621 3.87092E-05 5.78508E-07 0.00000E+00
 -1       622 3.85412E-05 6.14239E-07 0.00000E+00
 -1       623 3.83831E-05 6.49963E-07 8.27181E-25
 -1       624 3.82324E-05 6.85630E-07-4.13590E-25
 -1       625 3.80862E-05 7.21235E-07 0.00000E+00
 -1       626 3.88429E-05 7.81331E-07 0.00000E+00
 -1       627 3.87815E-05 1.05893E-06 0.00000E+00
 -1       628 3.87068E-05 1.37212E-06 0.00000E+00
 -1       629 3.86202E-05 1.71701E-06 0.00000E+00
 -1       630 3.85231E-05 2.08973E-06 0.00000E+00
 -1       631 3.84171E-05 2.48637E-06 0.00000E+00
 -1       632 3.83036E-05 2.90301E-06 1.65436E-24
 -1       633 3.81841E-05 3.33575E-06 0.00000E+00
 -1       634 3.80599E-05 3.78067E-06 0.00000E+00
 -1       635 3.79327E-05 4.23386E-06 0.00000E+00
 -1       636 3.78038E-05 4.69141E-06 0.00000E+00
 -1       637 3.76747E-05 5.14942E-06 0.00000E+00
 -1       638 3.75469E-05 5.60396E-06 0.00000E+00
 -1       639 3.74218E-05 6.05113E-06 4.13590E-25
 -1       640 3.73008E-05 6.48701E-06 0.00000E+00
 -1       656 3.84563E-05 7.92047E-06-3.30872E-24
 -1       657 3.81287E-05 7.71580E-06 0.00000E+00
 -1       658 3.79098E-05 7.51175E-06-3.30872E-24
 -1       659 3.77290E-05 7.30787E-06-1.65436E-24
 -1       660 3.75119E-05 7.10334E-06 3.30872E-24
 -1       661 3.87747E-05 8.71355E-06 4.13590E-25
 -1       662 3.85985E-05 9.28467E-06 4.13590E-25
 -1       663 3.84315E-05 9.83109E-06 0.00000E+00
 -1       664 3.82736E-05 1.03540E-05 0.00000E+00
 -1       665 3.81242E-05 1.08542E-05 0.00000E+00
 -1       666 3.79830E-05 1.13328E-05 0.00000E+00
 -1       667 3.78495E-05 1.17907E-05 8.27181E-25
 -1       668 3.77236E-05 1.22287E-05 4.13590E-25
 -1       669 3.76047E-05 1.26478E-05 0.00000E+00
 -1       670 3.74926E-05 1.30488E-05 0.00000E+00
 -1       671 3.73869E-05 1.34326E-05 8.27181E-25
 -1       672 3.72874E-05 1.38000E-05-4.13590E-25
 -1       673 3.71937E-05 1.41518E-05-8.27181E-25
 -1       674 3.71051E-05 1.44887E-05 0.00000E+00
 -1       675 3.70220E-05 1.48116E-05 2.06795E-25
 -1       676 3.83986E-05 1.53142E-05 0.00000E+00
 -1       677 3.81068E-05 1.52751E-05 0.00000E+00
 -1       678 3.78152E-05 1.52361E-05-8.27181E-25
 -1       679 3.75237E-05 1.51973E-05 0.00000E+00
 -1       680 3.72325E-05 1.51584E-05 8.27181E-25
 -1       771 7.87678E-06 1.55779E-06 1.32349E-23
 -1       772 6.18437E-06 4.55759E-06 1.32349E-23
 -1       773 4.73120E-06 6.92366E-06 0.00000E+00
 -1       774 3.50075E-06 8.69831E-06-1.32349E-23
 -1       775 2.47691E-06 9.92433E-06 2.64698E-23
 -1       776 1.64306E-06 1.06453E-05 0.00000E+00
 -1       777 9.82407E-07 1.09053E-05 0.00000E+00
 -1       778 4.77996E-07 1.07489E-05-6.61744E-24
 -1       779 1.12773E-07 1.02213E-05 1.32349E-23
 -1       780-1.30484E-07 9.36806E-06 0.00000E+00
 -1       781-2.69029E-07 8.23496E-06 0.00000E+00
 -1       782-3.20245E-07 6.86836E-06 6.61744E-24
 -1       783-3.01534E-07 5.31469E-06-1.32349E-23
 -1       784-2.30353E-07 3.62077E-06 0.00000E+00
 -1       785-1.24214E-07 1.83345E-06 0.00000E+00
 -1       786 3.74774E-05 1.35434E-07 0.00000E+00
 -1       787 3.75082E-05 1.36377E-07 4.13590E-25
 -1       788 3.75388E-05 1.38582E-07-8.27181E-25
 -1       789 3.75698E-05 1.42650E-07 0.00000E+00
 -1       790 3.76008E-05 1.49316E-07 8.27181E-25
 -1       791 3.76319E-05 1.59316E-07 0.00000E+00
 -1       792 3.76629E-05 1.73621E-07 0.00000E+00
 -1       793 3.76940E-05 1.93208E-07-4.13590E-25
 -1       794 3.77251E-05 2.19426E-07-8.27181E-25
 -1       795 3.77562E-05 2.53630E-07 0.00000E+00
 -1       796 3.77873E-05 2.97738E-07-8.27181E-25
 -1       797 3.78183E-05 3.53682E-07 0.00000E+00
 -1       798 3.78494E-05 4.24222E-07-8.27181E-25
 -1       799 3.78804E-05 5.12140E-07 0.00000E+00
 -1       800 3.79114E-05 6.21436E-07 8.27181E-25
 -1       801 3.49197E-05 1.38021E-07 0.00000E+00
 -1       802 2.73981E-05 1.16818E-07 4.13590E-25
 -1       803 1.75152E-05 7.67754E-08 1.65436E-24
 -1       804 7.90235E-06 3.56702E-08 0.00000E+00
 -1       805 1.18724E-06 1.71820E-08-6.61744E-24
 -1       806 3.74092E-05 1.14151E-07 0.00000E+00
 -1       807 3.73684E-05 9.31832E-08 0.00000E+00
 -1       808 3.73264E-05 7.47370E-08 1.65436E-24
 -1       809 3.72825E-05 6.09236E-08 8.27181E-25
 -1       810 3.72360E-05 5.38514E-08 8.27181E-25
 -1       811 3.71861E-05 5.55986E-08-4.13590E-25
 -1       812 3.71322E-05 6.82412E-08-8.27181E-25
 -1       813 3.70734E-05 9.38503E-08 4.13590E-25
 -1       814 3.70089E-05 1.34497E-07-8.27181E-25
 -1       815 3.69381E-05 1.92250E-07 0.00000E+00
 -1       816 3.68600E-05 2.69176E-07-8.27181E-25
 -1       817 3.67740E-05 3.67347E-07 0.00000E+00
 -1       818 3.66793E-05 4.88827E-07 1.65436E-24
 -1       819 3.65751E-05 6.35679E-07 0.00000E+00
 -1       820 3.64608E-05 8.09965E-07 8.27181E-25
 -1       821 3.78973E-05 9.20153E-07 4.13590E-25
 -1       822 3.78499E-05 1.11745E-06-4.13590E-25
 -1       823 3.78027E-05 1.35290E-06 0.00000E+00
 -1       824 3.77549E-05 1.63128E-06 0.00000E+00
 -1       825 3.77072E-05 1.95299E-06 1.65436E-24
 -1       826 3.76593E-05 2.31836E-06-8.27181E-25
 -1       827 3.76114E-05 2.72323E-06 0.00000E+00
 -1       828 3.75634E-05 3.16340E-06-8.27181E-25
 -1       829 3.75155E-05 3.63103E-06 0.00000E+00
 -1       830 3.74676E-05 4.11824E-06 0.00000E+00
 -1       831 3.74196E-05 4.61516E-06 0.00000E+00
 -1       832 3.73718E-05 5.11189E-06 0.00000E+00
 -1       833 3.73240E-05 5.59853E-06 0.00000E+00
 -1       834 3.72767E-05 6.06525E-06 4.13590E-25
 -1       835 3.72293E-05 6.50421E-06 4.13590E-25
 -1       836 3.77475E-05 7.99014E-07 0.00000E+00
 -1       837 3.74961E-05 8.42841E-07 0.00000E+00
 -1       838 3.72083E-05 8.86590E-07 0.00000E+00
 -1       839 3.69052E-05 9.30060E-07 0.00000E+00
 -1       840 3.66075E-05 9.73460E-07 2.06795E-25
 -1       856 3.71712E-05 7.32095E-06 1.03398E-25
 -1       857 3.71561E-05 7.78611E-06 1.03398E-25
 -1       858 3.71412E-05 8.29488E-06 0.00000E+00
 -1       859 3.71259E-05 8.83905E-06 0.00000E+00
 -1       860 3.71106E-05 9.41037E-06 0.00000E+00
 -1       861 3.70953E-05 1.00006E-05-2.06795E-25
 -1       862 3.70799E-05 1.06013E-05-4.13590E-25
 -1       863 3.70645E-05 1.12044E-05-2.06795E-25
 -1       864 3.70492E-05 1.18016E-05 0.00000E+00
 -1       865 3.70338E-05 1.23845E-05 0.00000E+00
 -1       866 3.70184E-05 1.29448E-05 0.00000E+00
 -1       867 3.70031E-05 1.34744E-05-2.06795E-25
 -1       868 3.69877E-05 1.39650E-05 0.00000E+00
 -1       869 3.69724E-05 1.44083E-05 0.00000E+00
 -1       870 3.69571E-05 1.47961E-05 0.00000E+00
 -1       871 3.68689E-05 6.90730E-06-2.06795E-25
 -1       872 3.66030E-05 6.90594E-06 0.00000E+00
 -1       873 3.63656E-05 6.90438E-06 0.00000E+00
 -1       874 3.61350E-05 6.90258E-06-5.16988E-26
 -1       875 3.58897E-05 6.90055E-06-3.10193E-25
 -1       876 3.70750E-05 7.32520E-06 0.00000E+00
 -1       877 3.69570E-05 7.76796E-06 0.00000E+00
 -1       878 3.68307E-05 8.23283E-06 0.00000E+00
 -1       879 3.66974E-05 8.71700E-06-8.27181E-25
 -1       880 3.65579E-05 9.21761E-06 0.00000E+00
 -1       881 3.64133E-05 9.73181E-06 8.27181E-25
 -1       882 3.62646E-05 1.02568E-05 0.00000E+00
 -1       883 3.61130E-05 1.07897E-05 8.27181E-25
 -1       884 3.59594E-05 1.13277E-05-1.65436E-24
 -1       885 3.58050E-05 1.18680E-05-8.27181E-25
 -1       886 3.56508E-05 1.24077E-05 1.65436E-24
 -1       887 3.54979E-05 1.29440E-05 0.00000E+00
 -1       888 3.53472E-05 1.34741E-05 0.00000E+00
 -1       889 3.51996E-05 1.39951E-05 0.00000E+00
 -1       890 3.50563E-05 1.45041E-05 4.13590E-25
 -1       891 3.66607E-05 1.50999E-05-8.27181E-25
 -1       892 3.63708E-05 1.50792E-05 0.00000E+00
 -1       893 3.60617E-05 1.50586E-05 0.00000E+00
 -1       894 3.57230E-05 1.50381E-05 1.03398E-25
 -1       895 3.53446E-05 1.50176E-05-3.10193E-25
 -1       956 3.62914E-05 1.27650E-06-8.27181E-25
 -1       957 3.62460E-05 1.56800E-06-4.13590E-25
 -1       958 3.62004E-05 1.88521E-06 1.65436E-24
 -1       959 3.61548E-05 2.22495E-06-4.13590E-25
 -1       960 3.61092E-05 2.58405E-06 0.00000E+00
 -1       961 3.60635E-05 2.95931E-06 0.00000E+00
 -1       962 3.60178E-05 3.34752E-06 1.65436E-24
 -1       963 3.59721E-05 3.74551E-06-8.27181E-25
 -1       964 3.59264E-05 4.15006E-06 0.00000E+00
 -1       965 3.58808E-05 4.55797E-06-8.27181E-25
 -1       966 3.58351E-05 4.96605E-06 0.00000E+00
 -1       967 3.57894E-05 5.37110E-06 8.27181E-25
 -1       968 3.57438E-05 5.76991E-06-1.65436E-24
 -1       969 3.56982E-05 6.15931E-06 0.00000E+00
 -1       970 3.56528E-05 6.53610E-06 0.00000E+00
 -1       971 3.55653E-05 7.26831E-06 8.27181E-25
 -1       972 3.55220E-05 7.67802E-06 4.13590E-25
 -1       973 3.54787E-05 8.12206E-06 8.27181E-25
 -1       974 3.54352E-05 8.59599E-06-4.13590E-25
 -1       975 3.53918E-05 9.09539E-06 1.65436E-24
 -1       976 3.53483E-05 9.61580E-06 4.13590E-25
 -1       977 3.53048E-05 1.01528E-05 0.00000E+00
 -1       978 3.52613E-05 1.07019E-05 8.27181E-25
 -1       979 3.52178E-05 1.12587E-05 0.00000E+00
 -1       980 3.51743E-05 1.18187E-05 0.00000E+00
 -1       981 3.51308E-05 1.23775E-05 0.00000E+00
 -1       982 3.50874E-05 1.29306E-05-8.27181E-25
 -1       983 3.50440E-05 1.34736E-05 0.00000E+00
 -1       984 3.50008E-05 1.40021E-05 0.00000E+00
 -1       985 3.49578E-05 1.45115E-05 0.00000E+00
 -3
    1PSTEP                         2           1           1          
  100CL  101 2.50000E-01         409                     0    1           1
 -4  STRESS      6    1
 -5  SXX         1    4    1    1
 -5  SYY         1    4    2    2
 -5  SZZ         1    4    3    3
 -5  SXY         1    4    1    2
 -5  SYZ         1    4    2    3
 -5  SZX         1    4    3    1
 -1         1-8.63902E+05-3.98584E+05-1.75232E+05-5.58305E+05-1.27329E-11-5.78439E-09
 -1         2 1.44473E+03 1.59920E+05 4.70697E+03 2.67240E+02-8.00071E-11 3.11448E-09
 -1         3-1.82498E+01-3.60959E+05 8.29932E+01-6.58617E+01-7.67297E-11-3.17050E-09
 -1         5-2.15156E+00 1.29812E+05 3.39744E+00-5.16461E-02 6.73949E-11 3.28992E-08
 -1         8-4.07005E+05-1.77336E+05-1.38773E+04-3.08516E+05 1.28239E-10-8.40373E-10
 -1         9-6.98518E+05-1.82661E+05-6.93950E+04-2.42745E+05 2.02563E-09-1.99070E-09
 -1        10-2.67781E+02-3.76047E+05-4.78054E+02-4.36316E+02-1.61617E-09 7.37023E-09
 -1        12-7.56904E-01 1.29819E+05 1.10125E+02-1.07458E-01 9.67990E-11-3.44312E-09
 -1        15 1.07553E+03 5.91059E+02 3.47663E+03 1.21405E+00-1.32859E-08-5.27284E-06
 -1        16-1.96250E+06-6.33012E+05-3.05150E+05-6.44104E+05 5.86685E-09-5.05437E-09
 -1        17-4.32483E+05-2.68031E+05-8.31257E+04-2.53396E+05-2.76559E-09 2.11730E-09
 -1        18 1.64860E+04 1.69234E+03-5.86004E+03-3.05586E+04 4.10353E-10-2.15232E-09
 -1        19 4.06989E+04 4.84900E+04-2.30348E+02 8.00485E+03-3.17596E-10-1.06047E-09
 -1        20-1.68451E+04-1.92196E+05-4.23748E+04 1.43410E+04 1.96436E-09-1.56433E-10
 -1        21-1.82270E+01-1.11628E+05-3.60518E+02-2.23463E+01-2.04705E-09-5.06211E-09
 -1        24-1.72165E+06-6.03027E+05-2.45942E+05-7.35749E+05-8.26306E-09-4.58870E-09
 -1        25 1.43916E+04-3.71171E+03 8.61453E+03-5.52256E+04 2.25555E-10 4.19404E-09
 -1        26-9.69214E+03 3.30169E+04-6.63147E+03-4.69231E+03 8.56380E-10 4.18702E-09
 -1        27-3.09068E+04-1.05484E+05-3.96205E+04 2.38017E+04 3.01638E-09-1.76791E-09
 -1        28 8.62009E+03-3.08441E+04 6.30026E+03 9.88670E+03 1.74806E-09 2.11146E-09
 -1        32-4.12935E+05-6.49288E+04 1.76744E+05-2.77041E+05-8.03993E-09 7.78967E-09
 -1        33-6.08778E+04 3.08262E+04 1.09672E+04-1.81792E+04 4.96982E-10-2.07213E-10
 -1        34-7.84029E+04-7.76758E+03 1.86579E+02 2.40747E+04 1.48050E-09 1.18644E-09
 -1        35-8.77057E+03-1.22736E+04-4.77874E+02 1.94417E+04 1.87382E-09-2.74546E-09
 -1        51 8.24132E+03-2.04644E+05 1.98528E+04-5.03530E+05 0.00000E+00 2.69210E-10
 -1        52 3.99435E+03-2.02593E+05 1.30353E+04-5.87271E+05 2.54659E-11 2.87400E-10
 -1        53 2.40205E+03-2.07360E+05 1.13524E+04-5.01827E+05 4.03816E-10-4.03816E-09
 -1        54 7.88662E+03-2.05269E+05 1.82959E+04-5.89088E+05 1.85537E-10-2.05910E-09
 -1        55 1.81377E+04-2.11869E+05 3.29159E+04-5.01617E+05 4.80213E-10 1.53705E-09
 -1        56-1.65948E+06-1.87754E+05-1.29606E+05-6.40150E+05-6.36646E-10-2.16096E-09
 -1        57-1.71217E+06-3.04312E+05-8.73490E+04-6.34460E+05-1.55978E-10 2.54113E-09
 -1        58-1.68525E+06-2.29056E+05-3.05152E+04-6.32352E+05 2.81943E-10 3.31602E-09
 -1        59-1.68237E+06-2.55894E+05-1.82171E+04-6.43833E+05 5.68377E-10-5.78393E-09
 -1        60-1.68904E+06-2.34792E+05-7.13383E+03-6.31276E+05-9.48148E-11 7.83075E-10
 -1        61-1.67826E+06-2.48900E+05-4.05754E+03-6.44762E+05 1.28694E-10 4.83897E-09
 -1        62-1.68931E+06-2.35876E+05-1.95509E+03-6.31477E+05-1.32184E-09 3.15626E-09
 -1        63-1.67859E+06-2.47156E+05-1.61162E+03-6.43818E+05 3.08660E-10-6.41649E-10
 -1        64-1.68869E+06-2.36531E+05-1.84669E+03-6.32210E+05-7.62270E-10-3.65640E-09
 -1        65-1.68060E+06-2.46310E+05-3.70627E+03-6.41864E+05-1.05274E-09-9.82254E-11
 -1        66-1.68727E+06-2.36758E+05-6.51014E+03-6.33404E+05-1.41961E-09 6.83031E-09
 -1        67-1.68653E+06-2.50400E+05-1.65340E+04-6.38402E+05-1.44374E-09 1.45724E-09
 -1        68-1.68277E+06-2.32619E+05-2.77414E+04-6.35599E+05 2.72394E-10-9.82254E-10
 -1        69-1.71550E+06-2.92459E+05-7.93195E+04-6.27707E+05 7.08269E-10-2.23372E-09
 -1        70-1.65851E+06-1.95954E+05-1.17747E+05-6.43643E+05-1.32786E-10 1.78989E-09
 -1        86-7.23813E+02 1.58520E+05 5.05320E+03-1.33627E+02 6.54609E-10-2.12529E-09
 -1        87 4.80650E+03 1.61556E+05 1.05282E+04 5.46836E+02 1.09139E-09-4.58635E-09
 -1        88-4.07567E+03 1.56885E+05 1.61344E+04-4.13222E+02 1.62436E-09-1.73367E-09
 -1        89 3.03760E+04 1.73452E+05 4.34887E+04 1.16551E+03 2.46382E-09-1.13387E-09
 -1        90-2.62095E+04 1.46629E+05 6.14522E+04-7.52120E+02 2.74304E-09 6.21566E-09
 -1       121-3.46454E+01-3.61076E+05 8.29672E+01 3.29115E+01 1.91552E-10 1.79352E-09
 -1       122 9.02823E+00-3.60941E+05 1.81851E+02-1.31871E+02-6.50548E-10 3.71529E-10
 -1       123-5.46912E+01-3.61096E+05 2.99015E+02 9.88463E+01 5.36971E-10-1.71258E-09
 -1       124 3.44616E+02-3.60733E+05 7.64393E+02-3.26925E+02-1.33127E-09 1.01181E-09
 -1       125-2.73377E+02-3.61286E+05 1.17685E+03 2.27987E+02 8.22865E-10 3.05590E-09
 -1       191-2.37160E+00 1.29823E+05 4.07645E+00 2.56620E-02 8.95306E-11 1.16906E-08
 -1       192-2.46337E+00 1.29812E+05 7.19313E+00 1.57471E-01 1.16712E-10-5.69048E-09
 -1       193-3.20094E+00 1.29823E+05 1.33928E+01-1.84262E-01 1.46074E-10-4.33147E-09
 -1       194-3.46699E+00 1.29813E+05 2.72080E+01 4.96053E-01 9.33515E-11 1.22327E-10
 -1       195-4.79518E+00 1.29822E+05 5.32368E+01-3.14940E-01 2.52307E-10-3.57932E-09
 -1       251 1.43076E+05-2.53691E+04 5.93115E+04 2.15012E+03-1.60867E-10 1.02591E-09
 -1       252 1.69636E+05 2.93657E+04 4.20043E+04-7.51048E+03 2.42295E-10-4.40923E-09
 -1       253 1.53184E+05-3.92934E+03 1.53545E+04 1.62185E+03 2.67903E-10-4.93037E-09
 -1       254 1.57770E+05 4.54290E+03 9.68394E+03-6.67116E+03 9.86788E-10 1.43666E-09
 -1       255 1.54909E+05-6.07504E+02 3.96748E+03 1.31092E+03 2.88111E-10 3.02157E-09
 -1       256 1.55720E+05 7.19781E+02 2.40763E+03-6.21026E+03 8.02345E-11 2.27260E-09
 -1       257 1.55218E+05-1.06558E+02 1.24109E+03 1.16095E+03-5.89537E-11-1.64647E-09
 -1       258 1.55407E+05 2.23303E+02 1.10072E+03-6.05845E+03-3.55827E-10 4.51079E-10
 -1       259 1.55218E+05-1.08819E+02 1.26248E+03 1.15911E+03-8.55636E-11-7.03523E-10
 -1       260 1.55728E+05 7.39610E+02 2.46849E+03-6.20344E+03-2.34024E-10-5.21030E-09
 -1       261 1.54901E+05-6.24853E+02 4.07865E+03 1.30593E+03 5.65706E-10 4.14047E-10
 -1       262 1.57830E+05 4.67379E+03 9.95842E+03-6.65642E+03-7.75472E-10-9.64405E-10
 -1       263 1.53132E+05-4.04212E+03 1.57971E+04 1.61211E+03-6.87521E-10 2.06273E-09
 -1       264 1.70022E+05 3.02102E+04 4.32068E+04-7.48688E+03-1.76973E-09 1.89220E-09
 -1       265 1.42742E+05-2.60970E+04 6.10218E+04 2.13626E+03-1.31763E-10-1.81171E-09
 -1       266-1.94709E+04-9.10521E+03 4.56812E+04-2.59760E+01-2.07656E-08-8.29884E-06
 -1       267 2.25719E+04 1.06113E+04 3.22883E+04 2.99727E+01-4.10605E-08-1.63937E-05
 -1       268-3.02686E+03-1.50291E+03 1.20013E+04-3.81892E+00-3.29569E-08-1.31490E-05
 -1       269 3.57382E+03 1.79861E+03 7.80075E+03 4.44859E+00-2.47582E-08-9.90724E-06
 -1       270-5.36435E+02-2.95528E+02 3.76553E+03-6.03681E-01-1.82799E-08-7.30314E-06
 -1       271-1.91282E+06-2.37684E+05-1.47080E+05-7.43906E+05 4.80213E-10-2.18279E-10
 -1       272-1.95254E+06-3.58187E+05-9.45794E+04-7.57835E+05-1.03705E-09 2.16824E-09
 -1       273-1.94047E+06-2.74337E+05-3.47397E+04-7.37399E+05 2.63003E-09-1.98634E-09
 -1       274-1.92038E+06-3.13123E+05-1.94646E+04-7.67745E+05 2.90675E-09-2.45018E-09
 -1       275-1.94457E+06-2.77863E+05-8.08121E+03-7.35966E+05 3.36286E-09-6.82121E-11
 -1       276-1.91557E+06-3.08937E+05-4.30275E+03-7.70036E+05-1.03091E-09-9.45874E-11
 -1       277-1.94542E+06-2.77908E+05-2.10398E+03-7.35439E+05-6.45741E-11-1.24601E-10
 -1       278-1.91475E+06-3.08807E+05-1.53160E+03-7.70668E+05 3.33387E-10 1.53887E-09
 -1       279-1.94547E+06-2.77900E+05-1.64247E+03-7.35409E+05 7.53289E-10-2.59229E-09
 -1       280-1.91531E+06-3.08812E+05-3.00976E+03-7.70184E+05 9.14042E-11-2.01305E-09
 -1       281-1.94480E+06-2.77971E+05-5.49663E+03-7.35865E+05 1.17325E-10-2.34832E-09
 -1       282-1.91881E+06-3.11321E+05-1.31356E+04-7.68245E+05 1.26420E-10 1.18780E-09
 -1       283-1.94182E+06-2.75843E+05-2.34289E+04-7.37084E+05-2.08274E-10-2.80306E-09
 -1       284-1.94097E+06-3.41103E+05-6.37144E+04-7.60840E+05 6.19593E-11-6.00539E-09
 -1       285-1.92282E+06-2.51545E+05-9.91389E+04-7.41873E+05 1.67074E-09 7.93079E-10
 -1       301 7.33925E+03-4.64639E+03 5.73872E+04-1.42747E+04-2.43745E-10 2.55028E-10
 -1       302 7.87872E+03 9.92608E+03 4.14456E+04-2.09908E+04 1.09389E-09 3.60978E-09
 -1       303 3.29869E+02 5.07475E+02 3.81583E+04-1.42961E+04-3.64707E-10 2.42153E-09
 -1       304 1.48777E+04 1.63791E+04 6.41950E+04-2.09356E+04 6.14818E-10 1.19690E-09
 -1       305 1.47495E+04-1.10695E+04 1.07724E+05-1.42996E+04-7.34872E-10 7.99446E-10
 -1       306-2.06382E+06-2.36044E+05-1.57193E+05-8.03059E+05 6.47560E-10 1.38243E-10
 -1       307-2.13861E+06-3.75283E+05-1.07203E+05-7.83188E+05 9.53605E-10-2.21371E-09
 -1       308-2.09861E+06-2.85765E+05-3.69776E+04-7.89341E+05-1.14596E-10 3.25599E-10
 -1       309-2.09626E+06-3.19517E+05-2.24325E+04-8.01761E+05 2.89020E-10-1.43655E-09
 -1       310-2.10601E+06-2.90854E+05-8.67592E+03-7.84838E+05 1.44560E-11-9.82709E-10
 -1       311-2.08686E+06-3.14520E+05-5.04255E+03-8.08134E+05 3.84148E-09-2.12447E-09
 -1       312-2.10804E+06-2.90585E+05-2.46343E+03-7.83058E+05-7.58234E-10-5.72470E-10
 -1       313-2.08510E+06-3.14528E+05-2.22282E+03-8.09644E+05-3.54184E-10 6.85304E-10
 -1       314-2.10779E+06-2.90814E+05-2.66812E+03-7.83349E+05-2.23540E-09-1.04990E-09
 -1       315-2.08787E+06-3.13788E+05-5.63889E+03-8.07003E+05 3.18465E-10 3.10365E-11
 -1       316-2.10523E+06-2.91372E+05-9.80045E+03-7.85662E+05 1.94927E-09-9.14952E-10
 -1       317-2.09875E+06-3.19254E+05-2.53864E+04-7.99571E+05-7.82165E-11-4.42742E-09
 -1       318-2.09688E+06-2.85544E+05-4.18625E+04-7.90683E+05-2.99133E-09 2.99042E-09
 -1       319-2.14637E+06-3.82824E+05-1.21401E+05-7.79062E+05-1.33514E-09-1.00408E-09
 -1       320-2.05781E+06-2.28867E+05-1.77966E+05-8.05790E+05 4.58022E-09-3.63070E-09
 -1       336 2.93821E+02-3.90889E+05-2.06884E+03 2.08156E+02-3.42675E-09 3.96631E-09
 -1       337-7.41595E+02-3.91490E+05-2.26724E+03-5.87255E+02-6.45321E-09 5.12910E-09
 -1       338 1.94727E+02-3.90951E+05-2.84085E+03 3.78293E+02-4.49336E-09 2.09093E-09
 -1       339-2.93647E+03-3.92829E+05-6.22645E+03-9.25116E+02-8.22558E-09-2.01544E-09
 -1       340 2.00929E+03-3.89560E+05-9.58471E+03 5.44288E+02-5.43992E-09 4.15184E-09
 -1       406 7.66765E+00 1.29817E+05 2.17436E+02 4.17765E-01 2.91678E-10-1.02173E-08
 -1       407 7.50473E+01 1.29857E+05 4.62112E+02-5.67035E+00 3.32534E-11-1.96087E-08
 -1       408 2.37118E+02 1.29784E+05 9.22973E+02 5.30151E+00 3.66981E-10-1.96633E-08
 -1       409 9.97275E+02 1.30152E+05 2.07794E+03-4.75729E+01-3.11502E-11-2.30571E-08
 -1       410 2.86671E+03 1.29521E+05 4.24209E+03 4.31842E+01 3.98359E-10-9.47580E-09
 -1       521-3.88769E+06-4.47700E+05-2.90907E+05-1.51037E+06 3.82715E-09-6.54836E-10
 -1       522-4.02705E+06-6.99868E+05-1.97744E+05-1.47276E+06-8.62201E-10-3.63798E-10
 -1       523-3.95242E+06-5.37712E+05-6.83944E+04-1.48460E+06 1.28239E-09-8.73115E-10
 -1       524-3.94828E+06-5.98670E+05-4.12843E+04-1.50754E+06-9.42691E-10 1.01136E-09
 -1       525-3.96597E+06-5.46696E+05-1.59844E+04-1.47635E+06 4.10068E-10-9.15861E-10
 -1       526-3.93216E+06-5.88668E+05-9.22048E+03-1.51782E+06 1.15540E-09-5.46152E-10
 -1       527-3.96854E+06-5.47335E+05-4.42580E+03-1.47448E+06 2.96950E-10 7.40670E-10
 -1       528-3.93220E+06-5.85203E+05-3.79486E+03-1.51646E+06 2.61423E-10 9.16458E-10
 -1       529-3.96587E+06-5.50150E+05-4.44464E+03-1.47770E+06-1.34492E-09-4.06317E-10
 -1       530-3.94190E+06-5.78427E+05-9.08492E+03-1.50585E+06-6.43922E-10 7.39192E-10
 -1       531-3.95870E+06-5.54250E+05-1.59370E+04-1.48496E+06-2.06512E-10 1.07775E-09
 -1       532-3.96511E+06-5.81219E+05-4.09096E+04-1.48756E+06-5.65166E-10-7.55517E-09
 -1       533-3.94270E+06-5.47714E+05-6.78874E+04-1.49584E+06 8.74024E-10-4.35830E-09
 -1       534-4.04568E+06-6.79782E+05-1.96245E+05-1.45131E+06 1.15779E-09 3.70346E-09
 -1       535-3.87884E+06-4.57727E+05-2.88603E+05-1.52063E+06-5.37693E-09 5.22414E-09
 -1       536-4.77618E+03-1.10456E+04 2.54639E+04 2.62848E+02-1.07840E-09 1.31695E-09
 -1       537 6.86160E+03 1.27817E+04 1.81166E+04-1.00447E+03-3.81151E-09-9.93168E-10
 -1       538-4.28621E+02-1.73099E+03 6.57293E+03 2.41163E+02-1.68825E-10-1.47111E-09
 -1       539 1.74554E+03 1.99905E+03 4.18119E+03-9.79939E+02 1.71453E-09-1.51931E-09
 -1       540 3.35445E+02-2.69441E+02 1.66240E+03 2.38323E+02-8.02913E-11 4.12945E-09
 -1       541 8.18153E+02 3.08780E+02 9.85378E+02-9.76099E+02 1.00293E-11 4.27008E-09
 -1       542 4.96118E+02-4.01283E+01 4.00899E+02 2.37319E+02-3.38769E-10-2.04426E-09
 -1       543 6.08326E+02 3.92578E+01 2.02018E+02-9.74600E+02-2.22048E-10-1.99273E-09
 -1       544 5.43592E+02 1.10909E+00 3.63425E+01 2.36824E+02-1.24890E-10 1.97102E-09
 -1       545 5.31259E+02-4.38959E+01-1.01379E+02-9.74013E+02-5.56929E-10-1.05991E-09
 -1       546 5.72426E+02 4.35241E+01-2.46585E+02 2.36732E+02 6.85851E-11 1.00373E-09
 -1       547 3.99478E+02-3.23914E+02-6.58043E+02-9.74181E+02-1.36705E-09-1.32427E-09
 -1       548 6.75531E+02 2.80815E+02-1.06889E+03 2.36992E+02-1.13630E-09 1.36708E-10
 -1       549-3.64811E+02-2.07084E+03-2.91942E+03-9.74543E+02-8.19952E-10 5.34402E-09
 -1       550 1.33782E+03 1.78831E+03-4.15499E+03 2.37093E+02 1.39053E-11 3.00815E-10
 -1       551 2.97854E+03-2.06459E+05 1.16035E+04-3.54332E+05-1.51922E-08 8.36735E-10
 -1       552 5.83886E+03-2.05794E+05 1.48388E+04-5.04106E+05-1.24892E-08 6.90125E-09
 -1       553 3.57784E+03-2.08513E+05 2.31333E+04-3.53223E+05-1.92158E-08 5.50790E-09
 -1       554 1.69034E+04-1.97804E+05 4.91089E+04-5.04586E+05-1.15851E-08 4.61750E-09
 -1       555 1.78836E+04-2.17986E+05 8.83665E+04-3.53730E+05-1.87683E-08-3.63434E-09
 -1       556 2.80333E+04-6.54509E+04 2.29926E+04-8.82909E+04-3.77258E-09-5.12955E-09
 -1       557 5.46751E+04-8.79715E+04 1.20064E+04-1.10194E+05 6.51198E-10-8.68113E-10
 -1       558 2.85078E+04-6.88373E+04 4.95490E+03-8.53408E+04-8.73115E-10-2.22826E-09
 -1       559 5.17168E+04-9.13245E+04 2.48134E+03-1.11342E+05 1.76078E-09-2.52521E-09
 -1       560 2.81536E+04-6.85833E+04 1.07795E+03-8.55252E+04 7.13408E-09 6.81484E-09
 -1       561 5.10066E+04-9.12370E+04 5.49033E+02-1.11782E+05 1.17452E-08 5.18367E-09
 -1       562 2.78349E+04-6.83541E+04 2.30444E+02-8.57598E+04 4.36921E-09 7.24413E-10
 -1       563 5.06142E+04-9.10716E+04 1.27146E+02-1.12032E+05-1.02591E-09 1.58047E-09
 -1       564 2.76354E+04-6.82209E+04 4.80524E+01-8.59040E+04 2.32467E-09 8.92214E-10
 -1       565 5.04132E+04-9.09876E+04 2.01293E+01-1.12156E+05 2.03181E-09 1.22418E-09
 -1       566 2.75684E+04-6.81734E+04-1.77592E+01-8.59545E+04-3.03271E-09-8.73843E-09
 -1       567 5.03807E+04-9.09712E+04-6.76004E+01-1.12143E+05 3.57329E-09 2.49292E-09
 -1       568 2.76512E+04-6.82297E+04-1.68570E+02-8.59274E+04-7.82165E-10 3.33694E-09
 -1       569 5.01782E+04-9.08589E+04-3.99711E+02-1.11704E+05-4.71118E-10 2.27374E-10
 -1       570 2.81647E+04-6.87488E+04-8.11367E+02-8.60197E+04 3.52884E-10 2.74667E-10
 -1       571 9.42495E+04 3.41787E+03 5.06133E+03-2.36256E+04-1.40767E-09 1.64391E-10
 -1       572 9.50043E+04 1.18908E+03 2.47948E+03-2.58980E+04-1.01886E-09-2.40209E-09
 -1       573 9.45564E+04 2.83542E+02 1.10146E+03-2.35641E+04 6.97810E-10 3.53111E-09
 -1       574 9.46470E+04 9.14645E+01 5.51702E+02-2.59672E+04 7.74889E-10 3.39264E-09
 -1       575 9.45927E+04 1.17329E+01 2.59983E+02-2.35559E+04-7.38635E-09-1.33514E-09
 -1       576 9.45993E+04 2.14729E+00 1.32244E+02-2.59764E+04-1.66820E-08 3.58568E-10
 -1       577 9.45980E+04-2.93360E+00 6.51058E+01-2.35548E+04-8.84734E-09 3.33739E-09
 -1       578 9.45936E+04-1.77195E+00 3.54125E+01-2.59775E+04-1.64897E-09-3.84262E-11
 -1       579 9.46014E+04-2.62887E+00 2.16597E+01-2.35548E+04-1.97792E-09 8.44921E-10
 -1       580 9.45972E+04-2.59396E+00 2.01214E+01-2.59760E+04-1.56342E-09 1.65596E-09
 -1       581 9.46065E+04-3.37735E+00 2.74410E+01-2.35563E+04-1.40153E-09 2.38515E-10
 -1       582 9.46085E+04 2.07500E+00 5.21000E+01-2.59618E+04-7.58973E-10-4.40673E-09
 -1       583 9.46110E+04 1.70150E+01 1.00392E+02-2.35690E+04-3.33785E-10-1.25374E-09
 -1       584 9.46508E+04 9.67513E+01 2.24732E+02-2.58564E+04-9.20863E-10 2.02994E-09
 -1       585 9.45925E+04 2.96513E+02 4.57082E+02-2.36618E+04 2.56478E-10-7.13953E-10
 -1       586-1.18443E+03 3.06519E+04-1.55473E+03-8.05880E+04 2.55568E-10-2.19063E-09
 -1       587-2.71415E+02 3.04464E+04-1.90491E+02-8.86808E+04 4.43833E-10-1.80998E-09
 -1       588 3.05764E+02 3.04853E+04 1.06644E+03-8.05390E+04 2.45109E-10-1.74123E-09
 -1       589 1.58769E+03 3.10655E+04 3.12870E+03-8.86071E+04 3.59250E-10-2.48565E-09
 -1       590 4.59208E+03 3.00824E+04 6.71016E+03-8.06619E+04 1.90312E-10-2.27965E-09
 -1       591-2.04611E+04-5.87548E+03-6.83910E+03-1.06288E+04 3.00588E-10-4.82214E-09
 -1       592-2.11010E+04-7.55578E+03-3.70434E+03-1.24130E+04-2.94506E-10-5.00268E-09
 -1       593-2.11523E+04-5.37171E+03-1.54213E+03-1.11224E+04-4.11433E-10-2.79215E-10
 -1       594-2.01476E+04-6.56187E+03-7.69155E+02-1.24601E+04-3.63315E-10 1.38138E-09
 -1       595-2.12050E+04-5.36958E+03-3.53468E+02-1.11450E+04-4.37024E-09 3.86345E-09
 -1       596-2.00829E+04-6.51639E+03-1.80178E+02-1.24532E+04-1.00307E-08-1.20912E-09
 -1       597-2.12116E+04-5.37401E+03-9.91542E+01-1.11458E+04-3.27987E-09 5.00870E-09
 -1       598-2.00768E+04-6.51464E+03-8.16177E+01-1.24514E+04 6.04075E-10 3.01029E-10
 -1       599-2.12113E+04-5.37394E+03-1.06605E+02-1.11457E+04 4.33221E-09 2.20354E-09
 -1       600-2.00839E+04-6.51689E+03-1.99967E+02-1.24533E+04 3.38878E-09-8.80732E-09
 -1       601-2.12032E+04-5.36897E+03-3.95414E+02-1.11445E+04 3.74632E-09-2.37208E-09
 -1       602-2.01566E+04-6.56772E+03-8.62407E+02-1.24605E+04 1.64385E-09-2.62924E-09
 -1       603-2.11436E+04-5.37203E+03-1.72966E+03-1.11195E+04-2.71598E-10-9.09495E-11
 -1       604-2.12299E+04-7.67856E+03-4.15515E+03-1.24027E+04 4.99654E-10 6.93956E-09
 -1       605-2.03638E+04-5.94044E+03-7.67122E+03-1.05698E+04 1.02449E-09 2.27828E-09
 -1       606 1.34611E+04-4.53157E+03-8.16515E+03 1.32171E+04-3.32420E-09-2.77987E-09
 -1       607 1.20631E+04-1.46154E+03-4.06603E+03 1.48370E+04-1.51249E-09-4.09841E-10
 -1       608 1.28619E+04-2.45436E+02-1.82023E+03 1.31116E+04-8.05630E-09 2.39106E-09
 -1       609 1.27060E+04-6.60100E+01-9.19590E+02 1.49537E+04-2.12713E-08 4.69186E-10
 -1       610 1.27944E+04 9.65101E+00-4.38834E+02 1.30999E+04-1.37361E-08 2.65209E-09
 -1       611 1.27669E+04 1.26358E+01-2.21494E+02 1.49665E+04-6.41671E-09 1.54898E-09
 -1       612 1.27798E+04 1.38507E+01-1.05730E+02 1.30987E+04-9.88894E-09-2.30136E-09
 -1       613 1.27709E+04 1.38120E+01-4.83276E+01 1.49681E+04-1.63934E-08-1.45644E-09
 -1       614 1.27730E+04 1.17614E+01-1.34098E+01 1.30983E+04-7.56700E-09 1.13027E-09
 -1       615 1.27692E+04 1.41999E+01 1.48885E+01 1.49684E+04 3.18323E-10 4.04327E-09
 -1       616 1.27678E+04 1.26333E+01 4.96628E+01 1.30984E+04-4.68958E-09-5.74460E-09
 -1       617 1.27750E+04 2.51109E+01 1.15081E+02 1.49682E+04-2.44074E-09-2.23849E-09
 -1       618 1.27575E+04 4.60587E+01 2.32723E+02 1.30985E+04-3.27191E-10 6.35737E-10
 -1       619 1.28570E+04 2.05348E+02 5.23038E+02 1.49679E+04-7.73866E-10-1.64505E-10
 -1       620 1.26800E+04 5.98562E+02 1.05147E+03 1.30982E+04 1.31757E-09-1.20281E-10
 -1       621 1.61673E+02 1.02342E+05 1.39712E+03 3.28670E+03-1.75547E-10-2.50645E-09
 -1       622 1.85190E+02 1.02688E+05 1.19096E+03 4.79555E+03-1.14284E-10-9.95669E-10
 -1       623 8.33740E+00 1.02441E+05 1.37646E+03 3.27119E+03-1.42734E-10 3.48450E-11
 -1       624 6.25288E+02 1.03092E+05 2.61981E+03 4.81078E+03-7.15659E-11 1.91179E-10
 -1       625 6.27560E+02 1.01936E+05 4.55724E+03 3.27157E+03-2.00089E-11 5.60959E-10
 -1       626 8.46571E+04 2.35226E+04 1.69847E+03 4.58483E+04-3.78054E-09-7.46513E-09
 -1       627 8.34919E+04 2.43798E+04 8.18053E+02 4.77118E+04-1.56979E-09-5.09669E-09
 -1       628 8.47257E+04 2.27172E+04 3.45840E+02 4.61062E+04 1.43791E-09-3.48427E-09
 -1       629 8.32511E+04 2.41855E+04 1.69318E+02 4.78269E+04 3.31420E-09 2.29539E-09
 -1       630 8.47334E+04 2.26771E+04 7.84510E+01 4.61152E+04 7.50788E-10-1.19371E-09
 -1       631 8.32248E+04 2.41799E+04 4.20587E+01 4.78306E+04-1.06866E-09 1.38715E-09
 -1       632 8.47319E+04 2.26787E+04 2.78014E+01 4.61130E+04-2.75122E-09-1.78804E-09
 -1       633 8.32208E+04 2.41815E+04 3.09065E+01 4.78291E+04-2.29375E-09-4.19590E-10
 -1       634 8.47287E+04 2.26782E+04 5.00492E+01 4.61118E+04 4.03338E-09 6.54029E-09
 -1       635 8.32239E+04 2.41819E+04 1.01453E+02 4.78296E+04 7.84439E-11 2.64811E-09
 -1       636 8.47238E+04 2.26775E+04 2.04989E+02 4.61106E+04-2.19705E-09 4.40150E-09
 -1       637 8.32656E+04 2.42146E+04 4.50574E+02 4.78275E+04 4.25310E-10-4.71232E-09
 -1       638 8.47054E+04 2.27784E+04 9.26165E+02 4.60639E+04-8.94477E-09 7.46468E-10
 -1       639 8.37488E+04 2.48926E+04 2.19110E+03 4.76826E+04-2.25260E-08 4.52883E-09
 -1       640 8.46386E+04 2.47965E+04 4.54736E+03 4.52072E+04-1.02903E-08 3.20142E-09
 -1       656 2.29243E+04-5.80288E+05-5.53561E+04-4.99402E+02 2.54659E-10-8.27356E-10
 -1       657-3.02904E+04-6.05298E+05-4.57803E+04 3.81305E+03-5.91172E-12-5.77634E-09
 -1       658 7.26793E+03-5.87427E+05-2.80974E+04-7.81890E+02-7.04290E-11-2.32766E-09
 -1       659-3.24768E+04-6.06325E+05-4.86517E+04 3.99833E+03-1.63709E-10-1.93740E-09
 -1       660 2.51044E+04-5.79263E+05-6.03019E+04-6.84675E+02-5.45697E-11-2.21377E-09
 -1       661 8.25801E+04 8.95915E+03 7.91301E+03 3.22248E+04 1.61185E-09-3.39423E-09
 -1       662 8.66716E+04 1.51953E+04 5.33202E+03 3.08820E+04 1.53682E-09-6.69689E-09
 -1       663 8.41270E+04 1.15046E+04 1.86519E+03 3.17817E+04 3.41913E-10-4.57476E-10
 -1       664 8.48842E+04 1.22129E+04 1.11504E+03 3.14178E+04 1.96303E-09-8.47535E-10
 -1       665 8.43559E+04 1.18579E+04 4.39904E+02 3.17205E+04-1.88669E-09-2.96832E-09
 -1       666 8.46182E+04 1.18040E+04 2.56435E+02 3.14938E+04-4.18401E-09-1.12500E-09
 -1       667 8.43915E+04 1.19029E+04 1.35256E+02 3.17096E+04-6.03990E-10 3.15499E-09
 -1       668 8.45827E+04 1.17651E+04 1.35382E+02 3.15078E+04 1.08841E-09-1.16390E-09
 -1       669 8.43912E+04 1.18959E+04 1.81472E+02 3.17068E+04 1.74622E-09 4.53294E-09
 -1       670 8.46337E+04 1.18557E+04 3.93260E+02 3.15014E+04 4.63794E-09 3.04595E-09
 -1       671 8.43407E+04 1.18141E+04 6.97771E+02 3.17152E+04-6.05564E-10-2.14706E-09
 -1       672 8.50455E+04 1.25294E+04 1.78473E+03 3.13974E+04-2.39057E-09 1.51863E-09
 -1       673 8.39816E+04 1.12392E+04 2.99081E+03 3.18044E+04-1.29506E-09-3.20449E-09
 -1       674 8.78978E+04 1.73296E+04 8.55346E+03 3.05552E+04 9.18874E-11-4.35000E-09
 -1       675 8.15071E+04 7.14818E+03 1.26955E+04 3.25070E+04 7.36918E-10 2.80579E-10
 -1       676 9.35250E+00-1.11598E+05-4.34513E+02 1.11734E+01 2.99721E-10 2.13559E-09
 -1       677-1.15340E+02-1.11703E+05-7.95169E+02-2.23457E+01-2.70865E-09-4.82447E-09
 -1       678 7.70008E+01-1.11523E+05-1.40563E+03 1.11646E+01 5.08180E-10-5.79337E-10
 -1       679-1.40575E+03-1.12551E+05-3.33888E+03-2.23029E+01-2.84876E-09 2.11344E-09
 -1       680 8.38860E+02-1.10750E+05-5.38122E+03 1.10021E+01-5.29781E-10 2.41091E-10
 -1       771-1.20096E+06-2.08275E+05-2.90872E+04-4.96863E+05-4.52928E-09-3.61615E-09
 -1       772-1.19330E+06-2.24804E+05-1.56585E+04-5.15265E+05-3.64525E-09 1.40426E-09
 -1       773-1.20469E+06-2.05395E+05-6.66731E+03-4.98491E+05-1.96451E-09 2.30830E-09
 -1       774-1.18901E+06-2.21228E+05-3.27109E+03-5.16618E+05 2.74849E-09-4.10182E-10
 -1       775-1.20534E+06-2.05025E+05-1.59352E+03-4.98584E+05-6.47560E-10 2.53749E-10
 -1       776-1.18884E+06-2.21171E+05-7.50786E+02-5.17183E+05 2.02090E-09 5.93536E-09
 -1       777-1.20573E+06-2.04764E+05-4.27297E+02-4.98615E+05-3.38332E-10 1.06866E-09
 -1       778-1.18892E+06-2.21240E+05-2.01325E+02-5.17643E+05 7.56700E-10 2.07729E-09
 -1       779-1.20603E+06-2.04540E+05-1.78402E+02-4.98640E+05 2.32103E-09 3.55703E-09
 -1       780-1.18902E+06-2.21306E+05-1.56553E+02-5.18017E+05-1.24510E-09-6.18456E-11
 -1       781-1.20624E+06-2.04357E+05-2.73509E+02-4.98656E+05-4.25280E-09-4.74984E-10
 -1       782-1.18913E+06-2.21384E+05-5.21489E+02-5.18292E+05-5.12500E-09-1.41000E-09
 -1       783-1.20636E+06-2.04241E+05-1.04087E+03-4.98656E+05-1.20144E-09-1.93091E-09
 -1       784-1.18980E+06-2.22081E+05-2.47542E+03-5.18432E+05-3.00906E-09-1.52340E-11
 -1       785-1.20598E+06-2.04510E+05-4.57453E+03-4.98326E+05-5.06088E-09 6.04814E-10
 -1       786 8.68034E+04-4.64739E+03 1.07510E+04 2.01553E+00 4.43240E-08 2.97450E-09
 -1       787 9.14621E+04 5.38018E+03 7.60632E+03-8.53471E+00 8.77117E-08 4.61705E-09
 -1       788 8.86008E+04-7.28525E+02 2.78260E+03 2.53993E+00 1.38604E-07 1.95075E-09
 -1       789 8.93683E+04 8.42944E+02 1.74833E+03-1.01365E+01 1.89519E-07 2.11443E-09
 -1       790 8.88975E+04-1.13807E+02 7.11368E+02 3.61731E+00 2.69955E-07-1.22049E-09
 -1       791 8.90222E+04 1.32226E+02 4.17660E+02-1.29965E+01 3.50487E-07 2.90959E-09
 -1       792 8.89471E+04-1.83401E+01 1.90605E+02 5.40002E+00 5.00810E-07-5.48636E-09
 -1       793 8.89662E+04 2.57534E+01 1.24885E+02-1.75276E+01 6.51845E-07 6.54851E-09
 -1       794 8.89534E+04-7.40283E+00 9.24853E+01 8.14852E+00 9.56581E-07-7.46097E-09
 -1       795 8.89717E+04 3.81884E+01 1.33746E+02-2.43833E+01 1.25907E-06 1.08833E-08
 -1       796 8.89416E+04-3.07665E+01 2.00330E+02 1.22558E+01 6.29599E-07-2.11905E-09
 -1       797 8.90625E+04 2.25524E+02 4.72327E+02-3.45445E+01 1.91947E-09-1.46846E-09
 -1       798 8.88626E+04-1.94601E+02 7.45587E+02 1.83099E+01-1.69975E-10 6.76067E-10
 -1       799 8.96216E+04 1.43682E+03 2.03254E+03-4.95652E+01-5.68974E-10 2.70182E-09
 -1       800 8.83824E+04-1.24108E+03 2.87129E+03 2.72766E+01-9.80775E-11 4.47244E-10
 -1       801-4.62852E+03 9.58624E+03 8.38902E+03 9.21301E+03 5.11045E-09-3.82602E-09
 -1       802 1.28885E+04 4.06470E+04 2.47114E+04-3.79366E+04 1.37320E-08-4.59295E-11
 -1       803-8.00735E+03 1.95350E+04 3.26126E+04 8.87020E+03 1.07848E-08 1.00160E-08
 -1       804 6.29321E+04 6.65075E+04 9.01981E+04-3.82632E+04 1.27256E-08 1.17713E-08
 -1       805-5.46761E+04-1.61835E+04 1.19493E+05 9.53910E+03 4.44561E-09 1.22715E-08
 -1       806-1.04132E+05-2.21772E+04-8.86577E+03-4.33152E+04 7.82620E-10 1.26283E-09
 -1       807-1.04670E+05-2.09832E+04-4.36556E+03-4.56575E+04 7.82450E-11 7.41807E-11
 -1       808-1.04402E+05-1.90490E+04-1.85233E+03-4.47944E+04-1.34150E-11 6.49536E-10
 -1       809-1.03734E+05-1.97873E+04-9.05998E+02-4.57752E+04 4.80213E-10-1.15523E-09
 -1       810-1.04443E+05-1.89423E+04-4.15048E+02-4.48584E+04 6.02881E-10-6.61089E-10
 -1       811-1.03664E+05-1.97408E+04-2.05892E+02-4.57646E+04-6.76209E-10 3.66867E-10
 -1       812-1.04450E+05-1.89505E+04-1.02788E+02-4.48585E+04-4.23711E-09-8.54993E-09
 -1       813-1.03655E+05-1.97419E+04-6.50284E+01-4.57597E+04-4.05180E-10 2.33445E-09
 -1       814-1.04450E+05-1.89531E+04-6.11567E+01-4.48575E+04-7.18273E-10-2.42608E-10
 -1       815-1.03657E+05-1.97427E+04-9.61262E+01-4.57591E+04-6.36646E-10-6.57724E-09
 -1       816-1.04445E+05-1.89515E+04-1.80198E+02-4.48568E+04-8.02765E-09 2.30807E-09
 -1       817-1.03689E+05-1.97592E+04-3.86551E+02-4.57573E+04-1.60528E-08 3.96994E-09
 -1       818-1.04423E+05-1.90020E+04-7.87323E+02-4.48327E+04-7.82165E-09 1.84377E-09
 -1       819-1.04125E+05-2.02257E+04-1.85310E+03-4.56580E+04-2.74667E-10 5.40240E-10
 -1       820-1.04267E+05-2.03670E+04-3.76247E+03-4.42471E+04-2.19370E-09 1.86589E-09
 -1       821-1.33511E+05 7.39192E+03-1.70975E+04-4.77678E-01-3.00663E-10 3.43971E-09
 -1       822-1.40919E+05-8.55740E+03-1.20982E+04-9.60040E+01-1.47131E-09-1.14574E-09
 -1       823-1.36370E+05 1.15879E+03-4.42832E+03-2.45151E+01 8.89160E-10-1.69939E-09
 -1       824-1.37588E+05-1.34125E+03-2.78689E+03-4.44175E+01-8.95684E-10 2.30057E-09
 -1       825-1.36841E+05 1.81456E+02-1.14477E+03-5.20659E+01-1.51054E-09 2.57285E-09
 -1       826-1.37040E+05-2.14015E+02-6.92649E+02 8.29647E+00-2.84381E-09 1.31419E-09
 -1       827-1.36918E+05 3.23825E+01-3.57247E+02-7.72302E+01-3.00121E-09-3.02384E-09
 -1       828-1.36964E+05-6.54699E+01-3.17445E+02 5.09778E+01 2.96773E-08-8.14626E-10
 -1       829-1.36917E+05 3.30251E+01-3.62891E+02-9.47480E+01 9.57074E-06-7.18789E-09
 -1       830-1.37045E+05-2.19486E+02-7.09498E+02 7.47131E+01 1.90499E-05-9.32229E-09
 -1       831-1.36837E+05 1.86305E+02-1.17442E+03-1.00966E+02-1.19116E-06-1.34690E-09
 -1       832-1.37608E+05-1.37726E+03-2.86173E+03 7.47187E+01-2.14250E-05 8.24150E-09
 -1       833-1.36354E+05 1.18995E+03-4.54712E+03-9.47532E+01-1.07617E-05 9.81368E-09
 -1       834-1.41027E+05-8.78760E+03-1.24238E+04 5.18563E+01-3.54567E-08 2.99178E-09
 -1       835-1.33419E+05 7.59080E+03-1.75576E+04-7.81010E+01 2.32544E-09-1.39971E-09
 -1       836-4.42005E+02 1.25531E+05 7.56360E+03-1.09692E+04 9.70886E-10 4.35921E-09
 -1       837 1.65928E+03 1.27877E+05 6.45910E+03-2.20503E+04 1.34730E-09 2.66715E-09
 -1       838-1.65953E+02 1.26186E+05 6.66454E+03-1.09301E+04 1.21167E-09 4.86875E-09
 -1       839 4.27277E+03 1.29831E+05 1.26899E+04-2.20656E+04 1.56342E-09 2.25285E-10
 -1       840-1.29015E+03 1.23568E+05 2.02695E+04-1.09533E+04 1.04865E-09 4.33340E-09
 -1       856-4.17059E+04 3.56267E+03-9.38734E+03-1.96478E+02-1.30646E-09-2.99633E-09
 -1       857-4.55847E+04-4.17942E+03-6.46339E+03 2.15732E+03-9.92458E-10-4.68401E-09
 -1       858-4.32384E+04 4.99419E+02-2.43624E+03-2.02254E+02-8.94175E-10-1.61833E-09
 -1       859-4.38238E+04-5.82034E+02-1.47164E+03 2.16628E+03-1.08878E-09 5.37625E-10
 -1       860-4.34677E+04 6.96229E+01-6.18766E+02-2.05472E+02 4.23825E-10 1.63985E-09
 -1       861-4.35591E+04-7.85707E+01-3.44813E+02 2.17060E+03-2.82809E-09-1.00920E-09
 -1       862-4.35035E+04 9.38417E+00-1.52113E+02-2.06586E+02 2.26424E-09 6.15316E-10
 -1       863-4.35169E+04-7.59866E+00-7.53372E+01 2.17110E+03 5.65178E-09-3.96502E-09
 -1       864-4.35100E+04 1.71787E-01-2.38588E+01-2.05973E+02 3.03532E-09-2.27515E-09
 -1       865-4.35053E+04 8.69744E+00 1.34409E+01 2.16789E+03 2.13583E-09 9.68612E-10
 -1       866-4.35147E+04-6.90484E+00 5.03799E+01-2.03375E+02-1.15470E-09-1.62402E-10
 -1       867-4.34768E+04 5.85731E+01 1.38308E+02 2.16089E+03-1.71894E-09-2.00730E-09
 -1       868-4.35377E+04-4.89752E+01 2.34022E+02-1.98968E+02 1.54714E-09-9.24260E-10
 -1       869-4.33031E+04 4.07896E+02 6.27374E+02 2.14858E+03-1.47260E-09-1.17166E-09
 -1       870-4.36873E+04-3.46972E+02 9.10961E+02-1.91071E+02 1.74950E-09 2.47957E-09
 -1       871-1.92098E+03-3.88778E+03-6.29409E+03 4.13224E+04 2.17733E-09 3.96085E-10
 -1       872-8.28895E+02-5.29228E+03-2.56150E+03 5.35699E+04 2.25077E-09 3.87638E-09
 -1       873-9.80726E+00-4.62468E+03 3.80410E+02 4.12301E+04 6.69729E-10 3.31403E-09
 -1       874 9.86346E+02-3.70628E+03 3.60395E+03 5.35898E+04 2.04273E-09 7.23958E-10
 -1       875 2.32452E+03-5.48683E+03 7.98517E+03 4.13047E+04 1.43473E-09-7.74889E-10
 -1       876 1.03567E+05 1.78237E+04 5.54790E+03 4.19892E+04-1.70274E-09 1.68711E-10
 -1       877 1.03885E+05 1.90407E+04 2.96259E+03 4.36306E+04-3.41470E-09 4.49211E-09
 -1       878 1.04087E+05 1.72088E+04 1.24127E+03 4.24445E+04 1.51397E-09 1.75078E-10
 -1       879 1.03130E+05 1.82895E+04 6.18260E+02 4.36714E+04-2.42494E-10 2.45996E-09
 -1       880 1.04126E+05 1.72012E+04 2.87882E+02 4.24631E+04 1.62800E-10-2.70433E-10
 -1       881 1.03080E+05 1.82578E+04 1.53270E+02 4.36647E+04 1.94319E-09-3.87433E-09
 -1       882 1.04130E+05 1.72052E+04 9.73504E+01 4.24636E+04 4.32755E-09 1.92525E-09
 -1       883 1.03077E+05 1.82564E+04 1.03465E+02 4.36630E+04 3.32628E-09 3.24934E-09
 -1       884 1.04128E+05 1.72039E+04 1.63556E+02 4.24637E+04-8.09365E-10-4.03389E-10
 -1       885 1.03090E+05 1.82588E+04 3.28200E+02 4.36673E+04 2.41074E-09 3.51436E-09
 -1       886 1.04115E+05 1.71943E+04 6.61215E+02 4.24624E+04 2.36849E-09-2.00902E-09
 -1       887 1.03206E+05 1.83349E+04 1.44429E+03 4.36838E+04-1.56763E-09-3.90702E-09
 -1       888 1.04024E+05 1.72107E+04 2.91037E+03 4.24162E+04-6.05681E-10 1.55956E-09
 -1       889 1.04940E+05 2.01355E+04 6.95299E+03 4.36280E+04-1.52401E-10 1.15324E-09
 -1       890 1.02837E+05 1.86201E+04 1.30220E+04 4.13070E+04 2.89583E-09 9.95442E-10
 -1       891-6.07568E+01-5.89110E+04-6.92750E+02 1.12031E+04 7.02244E-10-3.93527E-10
 -1       892-1.06076E+02-5.90802E+04-7.54936E+02 1.69586E+04 9.50422E-11-2.75730E-09
 -1       893-1.27784E+01-5.89351E+04-1.07959E+03 1.12050E+04 1.61845E-09-2.11980E-09
 -1       894-5.81603E+02-5.95014E+04-2.24307E+03 1.68990E+04 5.61613E-10 2.64208E-10
 -1       895-4.52070E+02-5.84737E+04-3.95184E+03 1.12623E+04-3.87047E-10 5.78439E-10
 -1       956-1.30043E+05-1.85625E+03-4.67258E+03 8.49428E+03-6.27028E-09 3.46256E-09
 -1       957-1.30964E+05-6.27615E+02-2.39893E+03 1.02235E+04-8.46467E-09 1.44860E-09
 -1       958-1.30454E+05-5.12527E+01-1.08060E+03 8.43959E+03-2.83489E-09-1.06297E-10
 -1       959-1.30526E+05-1.17195E+01-5.52075E+02 1.02826E+04-2.49747E-09 1.86526E-09
 -1       960-1.30489E+05 1.26701E+01-2.69029E+02 8.43467E+03-3.00497E-09 4.92150E-10
 -1       961-1.30492E+05 1.01827E+01-1.42771E+02 1.02881E+04-4.21539E-09-4.94254E-10
 -1       962-1.30495E+05 9.74024E+00-8.16070E+01 8.43410E+03-1.73009E-09-3.95187E-09
 -1       963-1.30489E+05 9.96667E+00-6.53884E+01 1.02889E+04-2.52351E-09-4.22403E-10
 -1       964-1.30496E+05 1.01662E+01-7.91346E+01 8.43390E+03-2.72848E-10-4.81521E-10
 -1       965-1.30494E+05 1.11603E+01-1.36543E+02 1.02888E+04 2.25583E-09 1.13687E-12
 -1       966-1.30492E+05 1.39085E+01-2.56118E+02 8.43415E+03-1.61072E-09-2.39146E-09
 -1       967-1.30528E+05-8.65926E+00-5.25206E+02 1.02857E+04-7.04063E-10 1.35475E-09
 -1       968-1.30460E+05-4.59307E+01-1.02763E+03 8.43702E+03-8.50378E-11-2.79385E-10
 -1       969-1.30947E+05-5.93547E+02-2.28161E+03 1.02509E+04 4.43947E-10-4.33829E-10
 -1       970-1.30070E+05-1.76204E+03-4.44384E+03 8.46974E+03 1.27568E-09-2.31466E-10
 -1       971-1.23622E+05-6.55414E+02-3.64427E+03 6.11330E+03-3.59864E-09 3.11675E-09
 -1       972-1.24508E+05-4.72271E+02-1.98501E+03 8.52527E+03-2.03772E-09-1.99293E-09
 -1       973-1.24025E+05-5.81496E+00-8.88457E+02 6.06380E+03-3.10592E-10-9.28480E-10
 -1       974-1.24085E+05-8.42779E+00-4.60416E+02 8.57822E+03 2.06740E-09-1.04461E-09
 -1       975-1.24054E+05 9.59510E+00-2.29388E+02 6.06001E+03 1.07343E-09 9.03810E-12
 -1       976-1.24057E+05 9.17685E+00-1.31407E+02 8.58250E+03-1.86458E-09-4.91127E-11
 -1       977-1.24059E+05 8.40335E+00-9.34332E+01 6.05948E+03-1.36640E-09 1.39534E-09
 -1       978-1.24057E+05 1.04346E+01-1.06844E+02 8.58323E+03 4.06158E-09 2.15380E-09
 -1       979-1.24058E+05 1.07730E+01-1.69391E+02 6.05928E+03 2.88514E-09 3.12076E-09
 -1       980-1.24069E+05 1.12494E+01-3.25648E+02 8.58327E+03 5.22052E-09 1.34060E-09
 -1       981-1.24048E+05 1.89523E+01-6.29857E+02 6.05943E+03 4.42412E-10-2.27951E-09
 -1       982-1.24156E+05-3.48278E+01-1.30142E+03 8.58108E+03-4.99085E-10-3.40027E-09
 -1       983-1.23969E+05-2.06577E+01-2.52823E+03 6.06153E+03 9.54856E-10 9.63780E-10
 -1       984-1.25374E+05-1.35396E+03-5.66143E+03 8.54751E+03-1.99589E-09-4.74756E-10
 -1       985-1.22826E+05-1.86988E+03-1.03961E+04 6.09439E+03 1.51749E-09-4.32010E-10
 -3
    1PSTEP                         3           2           1          
  100CL  102 3.12500E-01         409                     0    2           1
 -4  DISP        4    1
 -5  D1          1    2    1    0
 -5  D2          1    2    2    0
 -5  D3          1    2    3    0
 -5  ALL         1    2    0    0    1ALL
 -1         1 8.16624E-05 0.00000E+00 0.00000E+00
 -1         2 7.53882E-05 1.12984E-29 0.00000E+00
 -1         3 6.96216E-05-3.76023E-27 3.30872E-24
 -1         5 5.01423E-05 5.22691E-26 0.00000E+00
 -1         8 6.51890E-05-5.91546E-07 0.00000E+00
 -1         9 6.62407E-05 3.93744E-07 0.00000E+00
 -1        10 6.45267E-05-9.52110E-07 3.30872E-24
 -1        12 4.97865E-05 3.40500E-07-1.65436E-24
 -1        15 4.55889E-05-6.38526E-07 2.06795E-25
 -1        16 4.71605E-05 3.12491E-07 0.00000E+00
 -1        17 4.81103E-05-1.99879E-06 0.00000E+00
 -1        18 4.80602E-05 1.33527E-07 0.00000E+00
 -1        19 4.87192E-05 6.79141E-07 0.00000E+00
 -1        20 4.88086E-05 1.01099E-05 0.00000E+00
 -1        21 4.84710E-05 1.91160E-05 1.65436E-24
 -1        24 1.22976E-05-2.67540E-06 0.00000E+00
 -1        25 4.69302E-05 2.11586E-07 0.00000E+00
 -1        26 4.75490E-05 9.45780E-07 0.00000E+00
 -1        27 4.66014E-05 8.59732E-06 0.00000E+00
 -1        28 4.62973E-05 1.88249E-05 0.00000E+00
 -1        32 0.00000E+00 0.00000E+00 0.00000E+00
 -1        33 4.55555E-05 1.26779E-06 0.00000E+00
 -1        34 4.46451E-05 8.58420E-06 0.00000E+00
 -1        35 4.37799E-05 1.86714E-05 0.00000E+00
 -1        51 8.05907E-05-9.81368E-08 0.00000E+00
 -1        52 7.86045E-05-1.93469E-07 0.00000E+00
 -1        53 7.58840E-05-2.89323E-07 0.00000E+00
 -1        54 7.26162E-05-3.86609E-07 0.00000E+00
 -1        55 6.89885E-05-4.85932E-07-4.85969E-24
 -1        56 8.09136E-05-4.65318E-07 0.00000E+00
 -1        57 8.02467E-05-1.23340E-06 1.32349E-23
 -1        58 7.96623E-05-2.21716E-06-2.64698E-23
 -1        59 7.91240E-05-3.33846E-06 0.00000E+00
 -1        60 7.86041E-05-4.50957E-06 0.00000E+00
 -1        61 7.80694E-05-5.64380E-06 1.32349E-23
 -1        62 7.74888E-05-6.65553E-06 2.64698E-23
 -1        63 7.68312E-05-7.46186E-06-1.32349E-23
 -1        64 7.60686E-05-7.98802E-06 2.64698E-23
 -1        65 7.51751E-05-8.16473E-06 0.00000E+00
 -1        66 7.41298E-05-7.93681E-06 0.00000E+00
 -1        67 7.29154E-05-7.25676E-06 1.32349E-23
 -1        68 7.15202E-05-6.09566E-06 2.64698E-23
 -1        69 6.99406E-05-4.43228E-06 0.00000E+00
 -1        70 6.81707E-05-2.26906E-06 1.32349E-23
 -1        86 7.51474E-05 7.03933E-08 0.00000E+00
 -1        87 7.44243E-05 1.40196E-07 8.27181E-25
 -1        88 7.32001E-05 2.09475E-07 0.00000E+00
 -1        89 7.14547E-05 2.75707E-07 0.00000E+00
 -1        90 6.91487E-05 3.41622E-07-3.30872E-24
 -1       121 6.94796E-05-1.58171E-07-3.30872E-24
 -1       122 6.90539E-05-3.16423E-07 0.00000E+00
 -1       123 6.83448E-05-4.74836E-07-6.61744E-24
 -1       124 6.73531E-05-6.33516E-07 3.30872E-24
 -1       125 6.60799E-05-7.92495E-07 0.00000E+00
 -1       191 5.01324E-05 5.67542E-08 0.00000E+00
 -1       192 5.01028E-05 1.13507E-07 0.00000E+00
 -1       193 5.00534E-05 1.70260E-07-3.30872E-24
 -1       194 4.99842E-05 2.27011E-07-1.65436E-24
 -1       195 4.98952E-05 2.83758E-07 0.00000E+00
 -1       251 6.52406E-05 2.11595E-06 0.00000E+00
 -1       252 6.53065E-05 3.72338E-06 5.16988E-26
 -1       253 6.53726E-05 4.41716E-06-8.27181E-25
 -1       254 6.54412E-05 4.38097E-06 8.27181E-25
 -1       255 6.55097E-05 3.77200E-06-1.65436E-24
 -1       256 6.55784E-05 2.74581E-06-8.27181E-25
 -1       257 6.56468E-05 1.44273E-06 0.00000E+00
 -1       258 6.57150E-05 2.29446E-09 8.27181E-25
 -1       259 6.57833E-05-1.44102E-06 0.00000E+00
 -1       260 6.58517E-05-2.75271E-06 8.27181E-25
 -1       261 6.59203E-05-3.79345E-06 0.00000E+00
 -1       262 6.59888E-05-4.42319E-06 0.00000E+00
 -1       263 6.60574E-05-4.48682E-06 0.00000E+00
 -1       264 6.61234E-05-3.82762E-06 0.00000E+00
 -1       265 6.61893E-05-2.26264E-06-3.30872E-24
 -1       266 6.19223E-05-6.07491E-07-3.30872E-24
 -1       267 5.86557E-05-6.14332E-07-8.27181E-25
 -1       268 5.53889E-05-6.21749E-07 0.00000E+00
 -1       269 5.21222E-05-6.27459E-07 0.00000E+00
 -1       270 4.88556E-05-6.33128E-07 0.00000E+00
 -1       271 6.32040E-05 1.84010E-06 0.00000E+00
 -1       272 6.15202E-05 3.37869E-06 1.32349E-23
 -1       273 6.01314E-05 4.13758E-06 0.00000E+00
 -1       274 5.89892E-05 4.22574E-06 1.32349E-23
 -1       275 5.80527E-05 3.76463E-06 2.64698E-23
 -1       276 5.72736E-05 2.88066E-06 0.00000E+00
 -1       277 5.66030E-05 1.70615E-06-2.64698E-23
 -1       278 5.59903E-05 3.76776E-07 0.00000E+00
 -1       279 5.53839E-05-9.69735E-07 0.00000E+00
 -1       280 5.47325E-05-2.19542E-06 0.00000E+00
 -1       281 5.39849E-05-3.16400E-06 0.00000E+00
 -1       282 5.30918E-05-3.74223E-06 0.00000E+00
 -1       283 5.20045E-05-3.80214E-06 2.64698E-23
 -1       284 5.06801E-05-3.22094E-06 1.32349E-23
 -1       285 4.90714E-05-1.88671E-06-2.64698E-23
 -1       301 6.30084E-05 3.76291E-07 0.00000E+00
 -1       302 5.97774E-05 3.68585E-07 0.00000E+00
 -1       303 5.65625E-05 3.61170E-07-3.30872E-24
 -1       304 5.33782E-05 3.52686E-07-1.65436E-24
 -1       305 5.02394E-05 3.42695E-07 0.00000E+00
 -1       306 6.41940E-05 2.76908E-06 0.00000E+00
 -1       307 6.24610E-05 4.21218E-06-1.32349E-23
 -1       308 6.10714E-05 4.74947E-06 0.00000E+00
 -1       309 6.00008E-05 4.41947E-06 0.00000E+00
 -1       310 5.92067E-05 3.35132E-06 2.64698E-23
 -1       311 5.86313E-05 1.69476E-06-1.32349E-23
 -1       312 5.81977E-05-3.41412E-07 0.00000E+00
 -1       313 5.78233E-05-2.53699E-06 0.00000E+00
 -1       314 5.74201E-05-4.65556E-06 2.64698E-23
 -1       315 5.69011E-05-6.46311E-06 1.32349E-23
 -1       316 5.61903E-05-7.75708E-06 0.00000E+00
 -1       317 5.52186E-05-8.35045E-06 0.00000E+00
 -1       318 5.39402E-05-8.12629E-06 0.00000E+00
 -1       319 5.23265E-05-6.99036E-06 1.32349E-23
 -1       320 5.03667E-05-4.94405E-06 0.00000E+00
 -1       336 6.26579E-05-1.12474E-06-3.30872E-24
 -1       337 6.04379E-05-1.29830E-06 1.65436E-24
 -1       338 5.78694E-05-1.47261E-06-6.61744E-24
 -1       339 5.49559E-05-1.64758E-06 0.00000E+00
 -1       340 5.17014E-05-1.82359E-06 0.00000E+00
 -1       406 4.96580E-05 3.97233E-07 0.00000E+00
 -1       407 4.95097E-05 4.53945E-07 1.65436E-24
 -1       408 4.93416E-05 5.10620E-07 0.00000E+00
 -1       409 4.91538E-05 5.67186E-07 0.00000E+00
 -1       410 4.89463E-05 6.23534E-07 1.65436E-24
 -1       521 4.43442E-05 2.00753E-06 0.00000E+00
 -1       522 4.19361E-05 2.43125E-06-2.64698E-23
 -1       523 3.99840E-05 1.65213E-06 0.00000E+00
 -1       524 3.84310E-05-2.25866E-07 0.00000E+00
 -1       525 3.71870E-05-2.93245E-06 0.00000E+00
 -1       526 3.61337E-05-6.15675E-06-2.64698E-23
 -1       527 3.51290E-05-9.51218E-06-5.29396E-23
 -1       528 3.40264E-05-1.26058E-05 2.64698E-23
 -1       529 3.26937E-05-1.50823E-05 5.29396E-23
 -1       530 3.10105E-05-1.66195E-05-2.64698E-23
 -1       531 2.89055E-05-1.70310E-05 0.00000E+00
 -1       532 2.63321E-05-1.61907E-05-2.64698E-23
 -1       533 2.33071E-05-1.41532E-05 0.00000E+00
 -1       534 1.98848E-05-1.10335E-05-2.64698E-23
 -1       535 1.61531E-05-7.11030E-06 0.00000E+00
 -1       536 4.80971E-05 1.34856E-06-1.65436E-24
 -1       537 4.80913E-05 3.87851E-06 0.00000E+00
 -1       538 4.80867E-05 5.67135E-06-4.13590E-25
 -1       539 4.80839E-05 6.80749E-06 0.00000E+00
 -1       540 4.80817E-05 7.37011E-06 2.06795E-25
 -1       541 4.80798E-05 7.44243E-06 0.00000E+00
 -1       542 4.80779E-05 7.10966E-06 0.00000E+00
 -1       543 4.80758E-05 6.45706E-06 0.00000E+00
 -1       544 4.80736E-05 5.57114E-06 0.00000E+00
 -1       545 4.80713E-05 4.53843E-06 0.00000E+00
 -1       546 4.80690E-05 3.44607E-06 2.58494E-26
 -1       547 4.80667E-05 2.38119E-06-6.46235E-27
 -1       548 4.80645E-05 1.43080E-06 0.00000E+00
 -1       549 4.80626E-05 6.81904E-07 5.16988E-26
 -1       550 4.80609E-05 2.20751E-07-2.06795E-25
 -1       551 4.33600E-05-2.10217E-06 3.30872E-24
 -1       552 3.76779E-05-2.20851E-06 0.00000E+00
 -1       553 3.13951E-05-2.31838E-06-1.65436E-24
 -1       554 2.48474E-05-2.43147E-06-3.30872E-24
 -1       555 1.83705E-05-2.54594E-06 0.00000E+00
 -1       556 4.68659E-05 1.22962E-06 0.00000E+00
 -1       557 4.59152E-05 3.69627E-06 0.00000E+00
 -1       558 4.52261E-05 5.47150E-06 0.00000E+00
 -1       559 4.47696E-05 6.63115E-06 0.00000E+00
 -1       560 4.45163E-05 7.25087E-06 0.00000E+00
 -1       561 4.44373E-05 7.40671E-06 0.00000E+00
 -1       562 4.45039E-05 7.17479E-06 0.00000E+00
 -1       563 4.46873E-05 6.63126E-06 0.00000E+00
 -1       564 4.49588E-05 5.85235E-06 0.00000E+00
 -1       565 4.52899E-05 4.91427E-06 0.00000E+00
 -1       566 4.56520E-05 3.89330E-06 0.00000E+00
 -1       567 4.60166E-05 2.86571E-06 0.00000E+00
 -1       568 4.63552E-05 1.90772E-06 0.00000E+00
 -1       569 4.66392E-05 1.09553E-06 0.00000E+00
 -1       570 4.68402E-05 5.05315E-07 0.00000E+00
 -1       571 4.81002E-05 1.93536E-07-4.13590E-25
 -1       572 4.81410E-05 2.26364E-07-2.06795E-25
 -1       573 4.81822E-05 2.36855E-07-1.24077E-24
 -1       574 4.82234E-05 2.30110E-07-8.27181E-25
 -1       575 4.82647E-05 2.11252E-07 8.27181E-25
 -1       576 4.83061E-05 1.85436E-07 0.00000E+00
 -1       577 4.83474E-05 1.57823E-07 1.65436E-24
 -1       578 4.83887E-05 1.33576E-07-8.27181E-25
 -1       579 4.84301E-05 1.17860E-07 0.00000E+00
 -1       580 4.84714E-05 1.15839E-07 8.27181E-25
 -1       581 4.85127E-05 1.32678E-07 1.65436E-24
 -1       582 4.85541E-05 1.73533E-07-3.30872E-24
 -1       583 4.85954E-05 2.43559E-07 0.00000E+00
 -1       584 4.86367E-05 3.47854E-07 0.00000E+00
 -1       585 4.86780E-05 4.91489E-07 0.00000E+00
 -1       586 4.78577E-05 1.47351E-07 0.00000E+00
 -1       587 4.76377E-05 1.60825E-07-2.06795E-25
 -1       588 4.74176E-05 1.74150E-07 0.00000E+00
 -1       589 4.72147E-05 1.87262E-07 0.00000E+00
 -1       590 4.70466E-05 2.00017E-07 0.00000E+00
 -1       591 4.80185E-05 2.14493E-07 0.00000E+00
 -1       592 4.79837E-05 2.72976E-07 0.00000E+00
 -1       593 4.79556E-05 3.13257E-07 4.13590E-25
 -1       594 4.79327E-05 3.39194E-07 0.00000E+00
 -1       595 4.79136E-05 3.54696E-07-4.13590E-25
 -1       596 4.78970E-05 3.63642E-07-2.06795E-25
 -1       597 4.78814E-05 3.69910E-07-4.13590E-25
 -1       598 4.78653E-05 3.77375E-07-2.06795E-25
 -1       599 4.78473E-05 3.89911E-07-2.06795E-25
 -1       600 4.78260E-05 4.11392E-07 2.06795E-25
 -1       601 4.77998E-05 4.45693E-07 4.13590E-25
 -1       602 4.77675E-05 4.96691E-07 1.55096E-25
 -1       603 4.77274E-05 5.68265E-07 0.00000E+00
 -1       604 4.76784E-05 6.64325E-07-5.16988E-26
 -1       605 4.76189E-05 7.88729E-07-4.13590E-25
 -1       606 4.87269E-05 9.60882E-07 1.65436E-24
 -1       607 4.87331E-05 1.30171E-06 0.00000E+00
 -1       608 4.87389E-05 1.69816E-06 0.00000E+00
 -1       609 4.87445E-05 2.14632E-06 0.00000E+00
 -1       610 4.87500E-05 2.64225E-06 0.00000E+00
 -1       611 4.87554E-05 3.18199E-06 0.00000E+00
 -1       612 4.87609E-05 3.76152E-06 0.00000E+00
 -1       613 4.87663E-05 4.37687E-06 0.00000E+00
 -1       614 4.87717E-05 5.02405E-06 0.00000E+00
 -1       615 4.87770E-05 5.69905E-06 0.00000E+00
 -1       616 4.87824E-05 6.39789E-06 0.00000E+00
 -1       617 4.87877E-05 7.11657E-06 0.00000E+00
 -1       618 4.87930E-05 7.85109E-06 0.00000E+00
 -1       619 4.87983E-05 8.59748E-06 0.00000E+00
 -1       620 4.88035E-05 9.35173E-06 2.06795E-25
 -1       621 4.84955E-05 7.23615E-07-8.27181E-25
 -1       622 4.82879E-05 7.68303E-07 8.27181E-25
 -1       623 4.80928E-05 8.12983E-07-1.65436E-24
 -1       624 4.79070E-05 8.57593E-07 0.00000E+00
 -1       625 4.77268E-05 9.02125E-07-8.27181E-25
 -1       626 4.86612E-05 9.74944E-07 0.00000E+00
 -1       627 4.85853E-05 1.31974E-06-3.30872E-24
 -1       628 4.84927E-05 1.70898E-06 3.30872E-24
 -1       629 4.83853E-05 2.13782E-06 0.00000E+00
 -1       630 4.82648E-05 2.60142E-06-3.30872E-24
 -1       631 4.81332E-05 3.09489E-06-8.27181E-25
 -1       632 4.79921E-05 3.61334E-06 0.00000E+00
 -1       633 4.78436E-05 4.15189E-06 8.27181E-25
 -1       634 4.76893E-05 4.70565E-06 1.65436E-24
 -1       635 4.75311E-05 5.26973E-06 8.27181E-25
 -1       636 4.73709E-05 5.83925E-06 1.65436E-24
 -1       637 4.72104E-05 6.40933E-06 8.27181E-25
 -1       638 4.70516E-05 6.97507E-06 8.27181E-25
 -1       639 4.68961E-05 7.53159E-06-8.27181E-25
 -1       640 4.67457E-05 8.07399E-06 0.00000E+00
 -1       656 4.81786E-05 9.86378E-06 0.00000E+00
 -1       657 4.77708E-05 9.60785E-06-3.30872E-24
 -1       658 4.74991E-05 9.35271E-06 0.00000E+00
 -1       659 4.72760E-05 9.09779E-06 0.00000E+00
 -1       660 4.70079E-05 8.84205E-06 0.00000E+00
 -1       661 4.85754E-05 1.08528E-05 0.00000E+00
 -1       662 4.83561E-05 1.15640E-05 4.13590E-25
 -1       663 4.81483E-05 1.22444E-05-8.27181E-25
 -1       664 4.79519E-05 1.28953E-05 8.27181E-25
 -1       665 4.77661E-05 1.35179E-05-1.65436E-24
 -1       666 4.75905E-05 1.41135E-05 0.00000E+00
 -1       667 4.74247E-05 1.46833E-05-1.65436E-24
 -1       668 4.72681E-05 1.52283E-05 8.27181E-25
 -1       669 4.71204E-05 1.57498E-05 1.65436E-24
 -1       670 4.69811E-05 1.62487E-05-8.27181E-25
 -1       671 4.68499E-05 1.67262E-05-1.65436E-24
 -1       672 4.67263E-05 1.71833E-05-4.13590E-25
 -1       673 4.66099E-05 1.76208E-05 0.00000E+00
 -1       674 4.65000E-05 1.80398E-05 4.13590E-25
 -1       675 4.63969E-05 1.84412E-05 0.00000E+00
 -1       676 4.81081E-05 1.90672E-05 0.00000E+00
 -1       677 4.77453E-05 1.90184E-05 0.00000E+00
 -1       678 4.73828E-05 1.89696E-05 0.00000E+00
 -1       679 4.70205E-05 1.89210E-05-8.27181E-25
 -1       680 4.66587E-05 1.88724E-05 8.27181E-25
 -1       771 9.85622E-06 1.94480E-06 0.00000E+00
 -1       772 7.72880E-06 5.72067E-06 0.00000E+00
 -1       773 5.90204E-06 8.70186E-06 0.00000E+00
 -1       774 4.35543E-06 1.09405E-05 0.00000E+00
 -1       775 3.06892E-06 1.24893E-05-2.64698E-23
 -1       776 2.02175E-06 1.34025E-05 0.00000E+00
 -1       777 1.19294E-06 1.37349E-05 0.00000E+00
 -1       778 5.61209E-07 1.35422E-05 0.00000E+00
 -1       779 1.05152E-07 1.28810E-05 0.00000E+00
 -1       780-1.96903E-07 1.18083E-05 1.32349E-23
 -1       781-3.66680E-07 1.03820E-05 2.64698E-23
 -1       782-4.26107E-07 8.66043E-06 0.00000E+00
 -1       783-3.97146E-07 6.70218E-06 2.64698E-23
 -1       784-3.01849E-07 4.56641E-06-1.32349E-23
 -1       785-1.62349E-07 2.31242E-06 0.00000E+00
 -1       786 4.69666E-05 2.10058E-07 0.00000E+00
 -1       787 4.70052E-05 2.10008E-07 4.13590E-25
 -1       788 4.70436E-05 2.11929E-07 0.00000E+00
 -1       789 4.70825E-05 2.16319E-07 0.00000E+00
 -1       790 4.71213E-05 2.23891E-07 0.00000E+00
 -1       791 4.71603E-05 2.35367E-07-4.13590E-25
 -1       792 4.71992E-05 2.51811E-07 8.27181E-25
 -1       793 4.72382E-05 2.74299E-07-4.13590E-25
 -1       794 4.72772E-05 3.04440E-07 0.00000E+00
 -1       795 4.73162E-05 3.43857E-07 4.13590E-25
 -1       796 4.73551E-05 3.94991E-07 8.27181E-25
 -1       797 4.73941E-05 4.60308E-07 0.00000E+00
 -1       798 4.74330E-05 5.43525E-07 0.00000E+00
 -1       799 4.74719E-05 6.48391E-07 4.13590E-25
 -1       800 4.75107E-05 7.80572E-07 0.00000E+00
 -1       801 4.37611E-05 2.14645E-07 0.00000E+00
 -1       802 3.43305E-05 1.79923E-07 0.00000E+00
 -1       803 2.19402E-05 1.15654E-07 0.00000E+00
 -1       804 9.89075E-06 5.09019E-08 1.65436E-24
 -1       805 1.47758E-06 2.13173E-08 0.00000E+00
 -1       806 4.68821E-05 1.83048E-07 8.27181E-25
 -1       807 4.68320E-05 1.54456E-07 8.27181E-25
 -1       808 4.67804E-05 1.28931E-07 1.65436E-24
 -1       809 4.67265E-05 1.09126E-07 0.00000E+00
 -1       810 4.66693E-05 9.76847E-08 0.00000E+00
 -1       811 4.66080E-05 9.72173E-08 8.27181E-25
 -1       812 4.65416E-05 1.10329E-07 1.65436E-24
 -1       813 4.64691E-05 1.39619E-07 8.27181E-25
 -1       814 4.63896E-05 1.87686E-07-1.65436E-24
 -1       815 4.63020E-05 2.57127E-07-8.27181E-25
 -1       816 4.62055E-05 3.50537E-07 1.65436E-24
 -1       817 4.60990E-05 4.70511E-07 4.13590E-25
 -1       818 4.59816E-05 6.19642E-07 8.27181E-25
 -1       819 4.58524E-05 8.00517E-07 8.27181E-25
 -1       820 4.57105E-05 1.01572E-06 0.00000E+00
 -1       821 4.74932E-05 1.14320E-06 4.13590E-25
 -1       822 4.74339E-05 1.37219E-06-8.27181E-25
 -1       823 4.73748E-05 1.64335E-06 1.65436E-24
 -1       824 4.73151E-05 1.96712E-06-8.27181E-25
 -1       825 4.72554E-05 2.34733E-06 1.65436E-24
 -1       826 4.71955E-05 2.78763E-06 8.27181E-25
 -1       827 4.71355E-05 3.28407E-06 0.00000E+00
 -1       828 4.70755E-05 3.83257E-06-8.27181E-25
 -1       829 4.70155E-05 4.42245E-06 1.65436E-24
 -1       830 4.69555E-05 5.04291E-06 8.27181E-25
 -1       831 4.68955E-05 5.67931E-06 0.00000E+00
 -1       832 4.68356E-05 6.31693E-06 8.27181E-25
 -1       833 4.67758E-05 6.94091E-06 1.65436E-24
 -1       834 4.67166E-05 7.53644E-06 4.13590E-25
 -1       835 4.66572E-05 8.09229E-06 4.13590E-25
 -1       836 4.73084E-05 9.99386E-07 0.00000E+00
 -1       837 4.69964E-05 1.05418E-06 8.27181E-25
 -1       838 4.66390E-05 1.10887E-06 1.65436E-24
 -1       839 4.62623E-05 1.16322E-06 4.13590E-25
 -1       840 4.58925E-05 1.21747E-06 2.06795E-25
 -1       856 4.65845E-05 9.11154E-06 0.00000E+00
 -1       857 4.65657E-05 9.69053E-06-1.03398E-25
 -1       858 4.65470E-05 1.03241E-05 4.13590E-25
 -1       859 4.65279E-05 1.10018E-05 0.00000E+00
 -1       860 4.65088E-05 1.17136E-05 4.13590E-25
 -1       861 4.64895E-05 1.24489E-05 0.00000E+00
 -1       862 4.64703E-05 1.31976E-05 0.00000E+00
 -1       863 4.64511E-05 1.39491E-05-2.06795E-25
 -1       864 4.64318E-05 1.46931E-05 4.13590E-25
 -1       865 4.64126E-05 1.54193E-05 2.06795E-25
 -1       866 4.63933E-05 1.61174E-05 0.00000E+00
 -1       867 4.63741E-05 1.67770E-05-4.13590E-25
 -1       868 4.63549E-05 1.73877E-05 8.27181E-25
 -1       869 4.63358E-05 1.79395E-05-4.13590E-25
 -1       870 4.63166E-05 1.84219E-05 0.00000E+00
 -1       871 4.62091E-05 8.59689E-06-4.13590E-25
 -1       872 4.58791E-05 8.59517E-06 0.00000E+00
 -1       873 4.55848E-05 8.59322E-06 0.00000E+00
 -1       874 4.52991E-05 8.59095E-06-1.03398E-25
 -1       875 4.49948E-05 8.58839E-06 0.00000E+00
 -1       876 4.64652E-05 9.11687E-06 1.65436E-24
 -1       877 4.63186E-05 9.66790E-06 0.00000E+00
 -1       878 4.61617E-05 1.02466E-05-1.65436E-24
 -1       879 4.59958E-05 1.08494E-05 0.00000E+00
 -1       880 4.58223E-05 1.14727E-05 0.00000E+00
 -1       881 4.56424E-05 1.21131E-05 0.00000E+00
 -1       882 4.54574E-05 1.27669E-05-1.65436E-24
 -1       883 4.52688E-05 1.34306E-05-8.27181E-25
 -1       884 4.50777E-05 1.41007E-05 0.00000E+00
 -1       885 4.48856E-05 1.47737E-05 8.27181E-25
 -1       886 4.46937E-05 1.54459E-05 0.00000E+00
 -1       887 4.45033E-05 1.61139E-05 0.00000E+00
 -1       888 4.43158E-05 1.67741E-05 1.65436E-24
 -1       889 4.41322E-05 1.74229E-05-8.27181E-25
 -1       890 4.39540E-05 1.80568E-05 0.00000E+00
 -1       891 4.59485E-05 1.87992E-05 0.00000E+00
 -1       892 4.55884E-05 1.87734E-05-2.06795E-25
 -1       893 4.52043E-05 1.87477E-05-4.13590E-25
 -1       894 4.47834E-05 1.87220E-05 4.13590E-25
 -1       895 4.43128E-05 1.86963E-05 0.00000E+00
 -1       956 4.54997E-05 1.59375E-06-8.27181E-25
 -1       957 4.54429E-05 1.95563E-06 4.13590E-25
 -1       958 4.53860E-05 2.34968E-06 8.27181E-25
 -1       959 4.53289E-05 2.77192E-06 8.27181E-25
 -1       960 4.52718E-05 3.21840E-06 0.00000E+00
 -1       961 4.52147E-05 3.68509E-06 0.00000E+00
 -1       962 4.51576E-05 4.16801E-06-1.65436E-24
 -1       963 4.51005E-05 4.66316E-06-8.27181E-25
 -1       964 4.50433E-05 5.16652E-06 0.00000E+00
 -1       965 4.49862E-05 5.67410E-06 8.27181E-25
 -1       966 4.49291E-05 6.18189E-06 0.00000E+00
 -1       967 4.48719E-05 6.68589E-06 0.00000E+00
 -1       968 4.48149E-05 7.18210E-06 0.00000E+00
 -1       969 4.47579E-05 7.66652E-06 0.00000E+00
 -1       970 4.47011E-05 8.13518E-06 0.00000E+00
 -1       971 4.45917E-05 9.04570E-06 0.00000E+00
 -1       972 4.45376E-05 9.55544E-06 4.13590E-25
 -1       973 4.44833E-05 1.01081E-05 0.00000E+00
 -1       974 4.44290E-05 1.06981E-05 0.00000E+00
 -1       975 4.43747E-05 1.13200E-05 0.00000E+00
 -1       976 4.43203E-05 1.19681E-05 8.27181E-25
 -1       977 4.42658E-05 1.26369E-05 0.00000E+00
 -1       978 4.42114E-05 1.33209E-05-8.27181E-25
 -1       979 4.41570E-05 1.40145E-05 0.00000E+00
 -1       980 4.41026E-05 1.47121E-05 8.27181E-25
 -1       981 4.40482E-05 1.54082E-05 0.00000E+00
 -1       982 4.39938E-05 1.60972E-05-8.27181E-25
 -1       983 4.39395E-05 1.67735E-05 1.65436E-24
 -1       984 4.38855E-05 1.74317E-05-8.27181E-25
 -1       985 4.38317E-05 1.80661E-05-1.65436E-24
 -3
    1PSTEP                         4           2           1          
  100CL  102 3.12500E-01         409                     0    2           1
 -4  STRESS      6    1
 -5  SXX         1    4    1    1
 -5  SYY         1    4    2    2
 -5  SZZ         1    4    3    3
 -5  SXY         1    4    1    2
 -5  SYZ         1    4    2    3
 -5  SZX         1    4    3    1
 -1         1-1.07898E+06-4.96988E+05-2.19386E+05-6.97922E+05 1.05501E-10 7.69796E-09
 -1         2 1.81008E+03 2.03796E+05 5.90843E+03 4.17760E+02-1.00698E-10-1.02835E-09
 -1         3-3.09580E+01-4.52065E+05 1.04472E+02-1.03263E+02-1.00997E-10-9.76161E-09
 -1         5-3.20040E+00 1.62384E+05 4.25168E+00-2.29495E-02 6.36113E-11 1.10622E-08
 -1         8-5.08076E+05-2.21439E+05-1.71914E+04-3.85566E+05-9.45874E-11 1.16052E-09
 -1         9-8.72181E+05-2.25756E+05-8.63353E+04-3.01502E+05 2.38069E-09-4.26953E-09
 -1        10-3.43413E+02-4.70958E+05-6.01758E+02-6.89772E+02-2.06387E-09 3.39203E-09
 -1        12-1.45563E+00 1.62393E+05 1.37842E+02 1.11525E-01 1.32300E-10 7.76026E-10
 -1        15 1.34461E+03 7.38936E+02 4.34644E+03 1.89945E+00-2.16772E-09-6.62247E-07
 -1        16-2.45639E+06-7.89964E+05-3.81899E+05-8.02963E+05 7.37782E-09-3.99693E-09
 -1        17-5.41739E+05-3.34203E+05-1.04239E+05-3.15198E+05-3.77040E-09 2.86527E-09
 -1        18 1.90952E+04 1.75326E+03-7.70232E+03-3.82532E+04 4.86125E-10-6.64159E-10
 -1        19 5.08919E+04 6.06487E+04-2.89179E+02 1.00025E+04-3.30147E-10-3.42116E-09
 -1        20-2.10767E+04-2.40292E+05-5.29841E+04 1.78830E+04 2.80564E-09 5.48971E-09
 -1        21-2.27721E+01-1.39534E+05-4.50667E+02-3.47300E+01-3.08579E-09-2.83052E-09
 -1        24-2.15777E+06-7.49253E+05-3.07977E+05-9.13417E+05-9.68309E-09-6.33493E-09
 -1        25 1.86561E+04-2.53483E+03 1.12812E+04-6.91735E+04 2.95222E-10 1.23691E-09
 -1        26-1.20815E+04 4.13023E+04-8.27835E+03-5.89311E+03 1.05301E-09 3.74733E-09
 -1        27-3.86549E+04-1.31878E+05-4.95376E+04 2.97556E+04 3.90939E-09-1.72652E-09
 -1        28 1.07839E+04-3.85493E+04 7.87720E+03 1.23588E+04 2.11395E-09 7.57005E-10
 -1        32-5.14518E+05-7.50654E+04 2.22471E+05-3.46913E+05-1.01863E-08 8.60396E-09
 -1        33-7.60871E+04 3.85426E+04 1.37110E+04-2.27573E+04 5.57407E-10-1.24419E-09
 -1        34-9.80145E+04-9.70888E+03 2.32098E+02 3.00899E+04 2.66476E-09-1.05820E-09
 -1        35-1.09694E+04-1.53351E+04-5.98132E+02 2.43037E+04 3.50785E-09-3.53975E-09
 -1        51 9.89740E+03-2.54347E+05 2.43957E+04-6.29741E+05 1.89175E-10 1.14233E-09
 -1        52 5.22748E+03-2.52398E+05 1.61618E+04-7.34478E+05 1.38243E-10 3.66708E-09
 -1        53 3.43634E+03-2.59023E+05 1.41182E+04-6.27595E+05 1.52795E-10 1.94996E-09
 -1        54 1.07531E+04-2.56921E+05 2.28851E+04-7.36754E+05 2.61934E-10-6.15182E-09
 -1        55 2.35489E+04-2.65325E+05 4.11778E+04-6.27308E+05-3.63798E-11 6.86850E-09
 -1        56-2.07235E+06-2.34243E+05-1.61932E+05-7.99196E+05-1.49157E-10-1.65892E-09
 -1        57-2.13741E+06-3.80669E+05-1.09140E+05-7.92947E+05 6.48924E-10 1.18780E-09
 -1        58-2.10475E+06-2.85648E+05-3.81190E+04-7.89200E+05-1.10322E-09 6.03904E-10
 -1        59-2.09992E+06-3.20411E+05-2.27561E+04-8.04963E+05 5.95378E-10-3.02862E-10
 -1        60-2.10953E+06-2.92770E+05-8.90868E+03-7.87800E+05-6.28916E-10-5.12136E-09
 -1        61-2.09486E+06-3.11592E+05-5.06603E+03-8.06031E+05-2.98144E-10-3.30016E-09
 -1        62-2.10974E+06-2.94251E+05-2.44238E+03-7.88197E+05-3.29578E-10 2.79606E-09
 -1        63-2.09564E+06-3.09014E+05-2.00817E+03-8.04381E+05-2.75065E-10 3.04567E-09
 -1        64-2.10870E+06-2.95348E+05-2.31025E+03-7.89430E+05-7.59655E-10 2.12799E-09
 -1        65-2.09878E+06-3.07310E+05-4.62113E+03-8.01185E+05-4.35102E-09 1.64675E-09
 -1        66-2.10655E+06-2.96009E+05-8.13694E+03-7.91351E+05-8.02970E-10 5.41650E-09
 -1        67-2.10696E+06-3.11645E+05-2.06444E+04-7.95969E+05-7.13953E-10-2.00089E-09
 -1        68-2.10053E+06-2.91239E+05-3.46585E+04-7.94552E+05 1.14278E-09 1.89539E-09
 -1        69-2.14396E+06-3.63446E+05-9.90974E+04-7.81751E+05 3.85626E-10 1.60981E-09
 -1        70-2.06986E+06-2.45771E+05-1.47107E+05-8.05012E+05-1.42063E-09 3.20142E-10
 -1        86-9.07658E+02 2.01986E+05 6.33210E+03-2.08892E+02 7.96945E-10 1.29697E-09
 -1        87 6.02452E+03 2.05855E+05 1.32083E+04 8.58223E+02 1.33014E-09-1.96165E-09
 -1        88-5.11012E+03 1.99929E+05 2.02241E+04-6.49358E+02 1.98997E-09 1.41711E-10
 -1        89 3.80832E+04 2.20796E+05 5.45380E+04 1.84437E+03 3.04135E-09-3.02680E-09
 -1        90-3.28623E+04 1.87053E+05 7.70412E+04-1.19477E+03 3.44880E-09 3.70960E-09
 -1       121-5.42433E+01-4.52236E+05 9.90119E+01 5.15928E+01 2.38312E-10-1.15506E-09
 -1       122 3.39348E+00-4.52042E+05 2.28191E+02-2.06650E+02-8.08402E-10 7.98764E-09
 -1       123-7.91704E+01-4.52261E+05 3.69453E+02 1.54828E+02 7.10855E-10 5.32873E-09
 -1       124 4.24230E+02-4.51783E+05 9.57296E+02-4.92359E+02-1.63789E-09 3.71574E-09
 -1       125-3.52728E+02-4.52499E+05 1.46815E+03 3.37290E+02 1.05979E-09 8.41283E-10
 -1       191-3.50081E+00 1.62398E+05 5.07569E+00 1.11882E-02 1.00768E-10 1.39876E-08
 -1       192-3.59088E+00 1.62385E+05 9.00287E+00 2.76890E-01 1.53973E-10 2.31535E-09
 -1       193-4.53926E+00 1.62398E+05 1.67372E+01-2.90049E-01 2.04129E-10 3.18778E-09
 -1       194-4.84763E+00 1.62386E+05 3.40558E+01 7.77963E-01 8.12683E-11 2.94972E-09
 -1       195-6.53527E+00 1.62397E+05 6.66101E+01-4.93236E-01 2.61110E-10 2.57478E-09
 -1       251 1.83016E+05-3.18921E+04 7.45114E+04 2.93203E+03 6.77574E-11 5.51518E-09
 -1       252 2.16697E+05 3.69064E+04 5.28207E+04-9.77103E+03 1.16188E-10 5.01313E-09
 -1       253 1.95796E+05-4.93862E+03 1.92867E+04 2.08704E+03 1.90482E-10 7.16682E-10
 -1       254 2.01664E+05 5.70749E+03 1.21807E+04-8.43475E+03 7.29216E-10-3.96767E-10
 -1       255 1.97996E+05-7.63118E+02 4.98339E+03 1.59591E+03-2.77112E-11 9.80208E-10
 -1       256 1.99039E+05 9.05211E+02 3.02770E+03-7.70872E+03-4.83055E-10 1.17097E-09
 -1       257 1.98397E+05-1.33590E+02 1.55916E+03 1.36100E+03-8.93436E-11-1.16756E-10
 -1       258 1.98631E+05 2.81994E+02 1.38212E+03-7.47128E+03 2.82530E-12 1.81490E-09
 -1       259 1.98396E+05-1.36260E+02 1.58441E+03 1.35848E+03-3.32186E-10-3.26577E-09
 -1       260 1.99048E+05 9.28646E+02 3.09945E+03-7.69921E+03 1.97055E-10-3.42470E-09
 -1       261 1.97987E+05-7.83599E+02 5.11464E+03 1.58893E+03 4.87489E-10 9.48830E-10
 -1       262 2.01733E+05 5.86203E+03 1.25044E+04-8.41418E+03-4.88967E-10-3.30147E-10
 -1       263 1.95735E+05-5.07170E+03 1.98091E+04 2.07346E+03-1.11947E-09 5.43423E-09
 -1       264 2.17149E+05 3.79029E+04 5.42392E+04-9.73790E+03-1.49006E-09-9.92259E-10
 -1       265 1.82623E+05-3.27509E+04 7.65304E+04 2.91248E+03-9.83277E-10-5.82077E-10
 -1       266-2.43419E+04-1.13823E+04 5.71129E+04-4.06424E+01-3.30328E-09-1.04771E-06
 -1       267 2.82191E+04 1.32663E+04 4.03666E+04 4.68932E+01-6.48879E-09-2.07226E-06
 -1       268-3.78412E+03-1.87887E+03 1.50041E+04-5.97501E+00-5.18321E-09-1.66110E-06
 -1       269 4.46794E+03 2.24861E+03 9.75242E+03 6.95999E+00-3.83943E-09-1.25611E-06
 -1       270-6.70643E+02-3.69464E+02 4.70763E+03-9.44518E-01-2.88549E-09-9.19320E-07
 -1       271-2.39228E+06-2.97898E+05-1.84092E+05-9.31222E+05-7.27596E-10-5.31145E-10
 -1       272-2.44326E+06-4.47279E+05-1.18358E+05-9.46925E+05 6.29711E-10-5.07680E-09
 -1       273-2.42726E+06-3.43388E+05-4.34839E+04-9.22648E+05-5.31372E-10-8.69477E-10
 -1       274-2.40244E+06-3.91496E+05-2.43459E+04-9.60124E+05 1.58070E-09-3.78350E-10
 -1       275-2.43265E+06-3.47512E+05-1.01148E+04-9.20551E+05-8.41283E-10-1.19690E-09
 -1       276-2.39608E+06-3.86656E+05-5.37825E+03-9.63509E+05-3.98745E-09-4.19141E-09
 -1       277-2.43387E+06-3.47410E+05-2.63046E+03-9.19728E+05-1.48407E-09-1.08344E-09
 -1       278-2.39492E+06-3.86641E+05-1.91345E+03-9.64495E+05 3.53623E-10 6.63533E-10
 -1       279-2.43394E+06-3.47390E+05-2.05296E+03-9.19680E+05 4.33147E-11 4.53883E-09
 -1       280-2.39572E+06-3.86532E+05-3.76159E+03-9.63737E+05-1.73713E-10 4.04521E-09
 -1       281-2.43297E+06-3.47620E+05-6.88124E+03-9.20396E+05 4.96129E-10 1.18644E-09
 -1       282-2.40042E+06-3.89302E+05-1.64290E+04-9.60828E+05 6.79165E-10 2.25691E-09
 -1       283-2.42898E+06-3.45232E+05-2.93328E+04-9.22209E+05-1.27329E-11-2.25737E-09
 -1       284-2.42870E+06-4.25982E+05-7.97342E+04-9.50798E+05 2.97860E-10-7.10861E-09
 -1       285-2.40485E+06-3.15197E+05-1.24111E+05-9.28616E+05 2.73758E-10-3.03407E-09
 -1       301 9.18168E+03-5.60927E+03 7.16393E+04-1.76315E+04-5.23869E-10 1.18655E-09
 -1       302 9.86565E+03 1.25707E+04 5.17637E+04-2.59452E+04 1.02750E-09 6.67114E-09
 -1       303 4.32855E+02 8.20362E+02 4.77002E+04-1.76688E+04-6.62112E-10-3.37718E-09
 -1       304 1.86412E+04 2.06656E+04 8.02925E+04-2.58739E+04 7.33962E-10-4.81305E-09
 -1       305 1.84751E+04-1.36571E+04 1.34772E+05-1.76553E+04-8.22183E-10 2.68710E-09
 -1       306-2.57450E+06-2.96252E+05-1.96289E+05-1.00431E+06 6.14818E-10-7.72707E-09
 -1       307-2.67210E+06-4.65726E+05-1.33840E+05-9.74386E+05 6.06178E-10 6.81393E-09
 -1       308-2.61912E+06-3.57200E+05-4.61845E+04-9.85850E+05-6.50289E-11 3.40151E-10
 -1       309-2.61696E+06-3.98321E+05-2.79771E+04-1.00016E+06-1.19400E-10 2.34650E-10
 -1       310-2.62942E+06-3.62458E+05-1.08390E+04-9.78967E+05-5.50074E-10-3.20142E-09
 -1       311-2.60366E+06-3.93744E+05-6.28330E+03-1.01008E+06 1.08298E-09-7.22821E-09
 -1       312-2.63249E+06-3.61532E+05-3.07207E+03-9.76065E+05 1.25141E-10 3.75735E-10
 -1       313-2.60109E+06-3.94174E+05-2.76984E+03-1.01247E+06-2.18587E-09-1.66484E-09
 -1       314-2.63203E+06-3.61979E+05-3.33076E+03-9.76615E+05-1.70013E-09-1.92711E-09
 -1       315-2.60546E+06-3.92252E+05-7.01916E+03-1.00798E+06-7.50333E-11-6.55677E-09
 -1       316-2.62804E+06-3.63532E+05-1.22462E+04-9.80486E+05 1.11453E-09 1.26965E-09
 -1       317-2.62100E+06-3.97037E+05-3.16530E+04-9.96320E+05 9.95897E-11-5.49335E-10
 -1       318-2.61643E+06-3.57462E+05-5.22716E+04-9.88135E+05-2.47792E-09 4.24188E-09
 -1       319-2.68280E+06-4.74139E+05-1.51541E+05-9.68129E+05-3.43789E-09 5.36602E-10
 -1       320-2.56653E+06-2.87751E+05-2.22166E+05-1.00822E+06 4.11092E-09-7.42148E-10
 -1       336 3.54521E+02-4.89575E+05-2.60484E+03 3.52040E+02-4.31146E-09 2.98223E-09
 -1       337-9.38754E+02-4.90297E+05-2.85343E+03-9.49481E+02-8.01913E-09-1.25510E-10
 -1       338 2.33340E+02-4.89651E+05-3.59146E+03 5.95922E+02-5.95332E-09 2.94858E-09
 -1       339-3.71331E+03-4.91997E+05-7.86412E+03-1.43287E+03-1.04294E-08 7.31961E-09
 -1       340 2.52711E+03-4.87894E+05-1.21162E+04 8.32654E+02-7.03358E-09 8.34643E-09
 -1       406 9.06500E+00 1.62391E+05 2.72134E+02 3.73866E-01 3.43960E-10-1.04455E-09
 -1       407 9.34310E+01 1.62441E+05 5.78412E+02-6.69906E+00 3.00275E-11-5.07816E-09
 -1       408 2.96272E+02 1.62349E+05 1.15522E+03 6.40013E+00 4.61114E-10 1.46320E-08
 -1       409 1.24778E+03 1.62810E+05 2.60083E+03-5.85067E+01 1.33014E-11 2.28399E-08
 -1       410 3.58769E+03 1.62020E+05 5.30953E+03 5.35206E+01 5.21140E-10 7.59474E-09
 -1       521-4.86023E+06-5.61452E+05-3.63965E+05-1.89076E+06 5.17321E-09-9.15315E-09
 -1       522-5.03627E+06-8.74640E+05-2.47316E+05-1.84079E+06 1.83718E-10-7.49060E-09
 -1       523-4.94491E+06-6.70373E+05-8.55747E+04-1.85418E+06 5.93900E-10-1.18234E-09
 -1       524-4.93182E+06-7.54075E+05-5.15778E+04-1.89148E+06 8.81073E-11 3.66708E-09
 -1       525-4.96408E+06-6.79180E+05-1.99760E+04-1.84105E+06 2.09752E-10 1.07775E-09
 -1       526-4.90982E+06-7.43614E+05-1.15131E+04-1.90686E+06 1.02685E-09 3.05226E-09
 -1       527-4.96697E+06-6.80291E+05-5.52744E+03-1.83906E+06 1.80160E-09 1.77829E-09
 -1       528-4.91294E+06-7.35961E+05-4.69423E+03-1.90120E+06-1.68257E-10 3.85802E-09
 -1       529-4.96078E+06-6.86887E+05-5.61367E+03-1.84661E+06 1.52045E-09 2.71257E-09
 -1       530-4.93203E+06-7.20174E+05-1.12555E+04-1.87935E+06 2.50111E-12 6.83485E-10
 -1       531-4.94757E+06-6.96353E+05-2.00066E+04-1.86066E+06-2.15391E-09-4.94765E-10
 -1       532-4.96895E+06-7.15972E+05-5.10887E+04-1.84779E+06-3.60296E-09-7.16409E-09
 -1       533-4.92400E+06-6.91496E+05-8.49240E+04-1.87806E+06 2.02544E-09-4.97676E-09
 -1       534-5.07424E+06-8.35520E+05-2.45583E+05-1.79835E+06-1.74623E-10 4.13274E-09
 -1       535-4.84348E+06-5.79215E+05-3.61040E+05-1.90955E+06-6.75209E-09 5.67525E-09
 -1       536-1.17637E+04-1.35738E+04 3.12664E+04 2.94224E+02-1.05925E-09 5.81349E-09
 -1       537 2.70911E+03 1.57058E+04 2.22767E+04-1.19780E+03-4.99443E-09 1.43336E-09
 -1       538-6.40390E+03-2.12738E+03 8.06487E+03 2.81094E+02-1.69010E-10-2.82807E-09
 -1       539-3.61428E+03 2.45575E+03 5.14990E+03-1.19584E+03 1.84343E-09 8.47137E-10
 -1       540-5.44706E+03-3.31080E+02 2.03611E+03 2.92277E+02 1.59297E-10 2.99440E-09
 -1       541-4.78764E+03 3.78697E+02 1.21651E+03-1.21650E+03 1.39863E-10 1.50700E-09
 -1       542-5.23468E+03-4.89903E+01 4.87593E+02 3.01742E+02-5.14611E-10-1.95945E-09
 -1       543-5.07100E+03 4.67233E+01 2.45237E+02-1.23153E+03-4.52118E-10-3.06772E-09
 -1       544-5.16641E+03 2.61075E+00 3.41048E+01 3.07302E+02-5.92379E-11 3.87644E-10
 -1       545-5.18141E+03-6.15568E+01-1.47463E+02-1.23855E+03-8.75128E-10 1.90407E-09
 -1       546-5.12551E+03 6.01235E+01-3.42812E+02 3.08768E+02-2.69981E-10 1.98486E-09
 -1       547-5.36091E+03-4.45422E+02-9.06203E+02-1.23732E+03-1.12447E-09 9.70189E-10
 -1       548-4.98668E+03 3.86027E+02-1.47089E+03 3.06068E+02-1.40687E-09-1.42683E-09
 -1       549-6.40142E+03-2.84580E+03-4.01122E+03-1.22686E+03-1.02117E-09 5.15729E-09
 -1       550-4.08323E+03 2.45738E+03-5.71409E+03 2.98311E+02 4.55742E-11 2.91175E-09
 -1       551 4.25097E+03-2.57745E+05 1.43324E+04-4.42304E+05-1.93686E-08-2.90311E-09
 -1       552 8.66920E+03-2.57647E+05 1.85554E+04-6.29367E+05-1.45155E-08 3.59432E-09
 -1       553 5.52902E+03-2.61033E+05 2.89322E+04-4.40896E+05-2.30430E-08 6.45014E-09
 -1       554 2.27649E+04-2.48153E+05 6.14501E+04-6.29969E+05-1.41517E-08 5.17684E-09
 -1       555 2.33769E+04-2.72813E+05 1.10493E+05-4.41502E+05-2.36032E-08-2.67755E-09
 -1       556 3.57943E+04-8.22008E+04 2.85984E+04-1.10094E+05-3.53248E-09 2.91038E-10
 -1       557 6.91913E+04-1.10289E+05 1.49592E+04-1.37501E+05 7.13044E-10 2.13868E-09
 -1       558 3.62006E+04-8.63095E+04 6.13772E+03-1.06526E+05-1.35333E-09-3.51065E-10
 -1       559 6.52620E+04-1.14388E+05 3.08572E+03-1.39092E+05 3.85626E-09 2.44563E-09
 -1       560 3.56096E+04-8.58996E+04 1.32201E+03-1.06862E+05 7.80710E-09 8.40009E-09
 -1       561 6.41975E+04-1.14202E+05 6.81569E+02-1.39755E+05 1.29585E-08 5.55110E-09
 -1       562 3.51036E+04-8.55462E+04 2.78514E+02-1.07230E+05 3.37241E-09 1.70076E-09
 -1       563 6.35875E+04-1.13943E+05 1.59515E+02-1.40145E+05-2.22099E-09 8.34802E-10
 -1       564 3.47885E+04-8.53386E+04 5.92337E+01-1.07457E+05 3.01588E-09 7.59428E-10
 -1       565 6.32746E+04-1.13811E+05 2.80594E+01-1.40340E+05 6.94035E-09 5.08771E-09
 -1       566 3.46811E+04-8.52645E+04-2.01355E+01-1.07536E+05 3.83443E-09 9.20227E-09
 -1       567 6.32305E+04-1.13789E+05-8.17636E+01-1.40326E+05 6.90125E-09 8.67658E-10
 -1       568 3.48029E+04-8.53463E+04-2.11894E+02-1.07489E+05 7.11225E-10 1.66801E-09
 -1       569 6.30338E+04-1.13671E+05-5.00168E+02-1.39743E+05-1.88811E-09 9.34961E-10
 -1       570 3.55021E+04-8.60304E+04-1.02930E+03-1.07565E+05 2.11003E-09-2.12458E-09
 -1       571 1.17847E+05 4.27269E+03 6.32886E+03-2.96044E+04-3.42425E-10-2.34513E-09
 -1       572 1.18790E+05 1.48619E+03 3.10051E+03-3.24517E+04 1.31331E-09 7.88100E-09
 -1       573 1.18229E+05 3.54217E+02 1.37735E+03-2.95272E+04 1.42154E-09 1.71667E-09
 -1       574 1.18341E+05 1.14486E+02 6.89944E+02-3.25383E+04 1.48975E-09-4.38536E-09
 -1       575 1.18273E+05 1.49460E+01 3.25136E+02-2.95169E+04-7.91135E-09 4.82032E-10
 -1       576 1.18281E+05 3.16458E+00 1.65415E+02-3.25499E+04-1.92101E-08-1.62572E-10
 -1       577 1.18279E+05-3.30038E+00 8.14404E+01-2.95156E+04-9.81424E-09 9.40645E-10
 -1       578 1.18274E+05-1.92204E+00 4.43138E+01-3.25513E+04-1.67665E-09-3.59728E-09
 -1       579 1.18284E+05-3.37955E+00 2.70720E+01-2.95156E+04-1.77965E-09-3.07568E-09
 -1       580 1.18280E+05-3.70246E+00 2.51394E+01-3.25495E+04-1.57615E-09 1.84900E-09
 -1       581 1.18292E+05-5.33710E+00 3.41635E+01-2.95174E+04-6.31644E-10 1.75760E-10
 -1       582 1.18296E+05 7.94196E-01 6.48989E+01-3.25318E+04 7.27596E-11-3.12821E-09
 -1       583 1.18301E+05 1.85032E+01 1.24834E+02-2.95333E+04-2.71939E-10 3.48189E-09
 -1       584 1.18352E+05 1.16952E+02 2.79587E+02-3.23998E+04-1.47520E-09-4.17162E-09
 -1       585 1.18281E+05 3.64805E+02 5.68341E+02-2.96496E+04-4.43379E-10-1.58525E-09
 -1       586-1.46659E+03 3.84089E+04-1.93399E+03-1.00833E+05 3.08319E-10-2.35525E-09
 -1       587-3.27654E+02 3.81516E+04-2.33298E+02-1.10958E+05 5.48425E-10 8.53788E-10
 -1       588 3.89827E+02 3.82014E+04 1.33462E+03-1.00772E+05 3.01043E-10 2.51021E-09
 -1       589 1.99059E+03 3.89302E+04 3.91054E+03-1.10866E+05 4.65661E-10-6.85077E-10
 -1       590 5.74013E+03 3.77077E+04 8.38401E+03-1.00925E+05 2.36469E-10 8.86757E-10
 -1       591-2.56658E+04-7.36231E+03-8.55950E+03-1.33248E+04-9.96181E-11 1.79762E-09
 -1       592-2.64665E+04-9.46542E+03-4.63618E+03-1.55580E+04 1.13630E-10 1.12180E-09
 -1       593-2.65310E+04-6.73173E+03-1.93007E+03-1.39426E+04-8.33438E-10-1.47702E-09
 -1       594-2.52733E+04-8.22145E+03-9.62632E+02-1.56171E+04-5.09601E-10-3.56789E-09
 -1       595-2.65971E+04-6.72899E+03-4.42381E+02-1.39709E+04-4.65695E-09 7.64631E-09
 -1       596-2.51925E+04-8.16451E+03-2.25493E+02-1.56085E+04-9.74889E-09 1.28942E-09
 -1       597-2.66054E+04-6.73451E+03-1.24088E+02-1.39720E+04-1.58013E-09 4.56723E-09
 -1       598-2.51848E+04-8.16232E+03-1.02135E+02-1.56062E+04 1.03026E-09 2.86764E-09
 -1       599-2.66049E+04-6.73447E+03-1.33409E+02-1.39719E+04 2.39169E-09-2.76430E-09
 -1       600-2.51936E+04-8.16517E+03-2.50235E+02-1.56085E+04 5.34408E-09-3.77585E-09
 -1       601-2.65946E+04-6.72835E+03-4.94838E+02-1.39703E+04 3.78805E-09-1.26079E-09
 -1       602-2.52844E+04-8.22883E+03-1.07921E+03-1.56173E+04 1.99020E-09-2.81443E-09
 -1       603-2.65199E+04-6.73232E+03-2.16452E+03-1.39388E+04-5.79234E-10-2.42608E-10
 -1       604-2.66272E+04-9.61902E+03-5.19973E+03-1.55447E+04-1.17495E-10 3.27782E-09
 -1       605-2.55439E+04-7.44371E+03-9.59974E+03-1.32508E+04-4.39798E-10 2.73394E-09
 -1       606 1.68356E+04-5.66882E+03-1.02126E+04 1.65158E+04-1.29057E-09-9.34051E-10
 -1       607 1.50868E+04-1.82832E+03-5.08550E+03 1.85398E+04-1.14596E-10 1.35515E-10
 -1       608 1.60839E+04-3.07278E+02-2.27685E+03 1.63839E+04 1.09949E-08-1.95803E-09
 -1       609 1.58881E+04-8.15751E+01-1.15019E+03 1.86856E+04 1.90066E-08-2.77214E-09
 -1       610 1.59973E+04 1.31411E+01-5.49047E+02 1.63692E+04 7.36054E-09-4.99085E-10
 -1       611 1.59619E+04 1.81153E+01-2.77065E+02 1.87015E+04-6.11135E-09 5.31509E-09
 -1       612 1.59770E+04 1.95851E+01-1.32368E+02 1.63678E+04-1.83718E-09-1.81876E-09
 -1       613 1.59648E+04 2.06859E+01-6.04672E+01 1.87035E+04-4.80691E-09-3.01736E-09
 -1       614 1.59670E+04 1.79269E+01-1.68479E+01 1.63673E+04-2.84354E-09-1.40437E-09
 -1       615 1.59612E+04 2.20262E+01 1.86126E+01 1.87038E+04 1.76487E-09 6.47447E-10
 -1       616 1.59594E+04 1.97327E+01 6.20744E+01 1.63674E+04-1.15551E-09-1.19485E-10
 -1       617 1.59674E+04 3.62809E+01 1.43925E+02 1.87035E+04 1.36959E-09-2.27760E-09
 -1       618 1.59457E+04 6.20094E+01 2.91031E+02 1.63675E+04 8.39691E-10 1.34082E-09
 -1       619 1.60693E+04 2.62044E+02 6.54104E+02 1.87031E+04 1.06593E-09 7.96717E-10
 -1       620 1.58484E+04 7.53187E+02 1.31493E+03 1.63671E+04 1.20065E-09-6.49152E-10
 -1       621 2.02089E+02 1.28011E+05 1.74985E+03 4.14301E+03-1.67489E-10-2.40868E-09
 -1       622 2.31441E+02 1.28445E+05 1.49131E+03 6.04716E+03-1.56319E-10-1.05274E-10
 -1       623 1.01075E+01 1.28136E+05 1.72314E+03 4.12354E+03-1.13118E-10 2.46916E-09
 -1       624 7.82202E+02 1.28950E+05 3.27922E+03 6.06621E+03-8.91589E-11-1.12937E-09
 -1       625 7.85240E+02 1.27504E+05 5.70410E+03 4.12412E+03-7.61702E-11 1.49288E-09
 -1       626 1.05837E+05 2.94067E+04 2.11895E+03 5.73208E+04-3.46108E-09-8.36462E-09
 -1       627 1.04380E+05 3.04798E+04 1.02070E+03 5.96485E+04-1.27329E-09-5.13126E-09
 -1       628 1.05921E+05 2.84024E+04 4.31388E+02 5.76416E+04 1.31786E-09 9.66111E-10
 -1       629 1.04078E+05 3.02380E+04 2.11278E+02 5.97910E+04 2.82648E-09-3.43695E-09
 -1       630 1.05929E+05 2.83531E+04 9.78279E+01 5.76519E+04-1.72349E-09-1.06236E-08
 -1       631 1.04043E+05 3.02316E+04 5.25029E+01 5.97946E+04-1.32900E-09 4.41439E-10
 -1       632 1.05926E+05 2.83557E+04 3.46947E+01 5.76486E+04-3.30328E-09-4.02594E-09
 -1       633 1.04037E+05 3.02340E+04 3.86404E+01 5.97919E+04-2.53203E-09-1.96997E-09
 -1       634 1.05921E+05 2.83555E+04 6.25732E+01 5.76466E+04-2.50111E-11-1.00098E-08
 -1       635 1.04041E+05 3.02346E+04 1.26865E+02 5.97922E+04 1.31826E-09 4.97062E-09
 -1       636 1.05915E+05 2.83548E+04 2.56308E+02 5.76450E+04-5.73709E-09-9.65224E-09
 -1       637 1.04093E+05 3.02755E+04 5.63360E+02 5.97896E+04-7.70808E-09-1.52168E-08
 -1       638 1.05892E+05 2.84808E+04 1.15794E+03 5.75867E+04-8.84722E-09 5.87806E-09
 -1       639 1.04697E+05 3.11230E+04 2.73941E+03 5.96087E+04-1.19499E-08 9.96670E-09
 -1       640 1.05809E+05 3.10035E+04 5.68522E+03 5.65156E+04-4.05839E-09 9.65611E-09
 -1       656 2.86637E+04-7.25501E+05-6.92097E+04-5.11346E+02 1.00408E-09-1.09992E-09
 -1       657-3.78746E+04-7.56761E+05-5.72370E+04 4.75649E+03 8.46285E-10-1.48313E-09
 -1       658 9.08784E+03-7.34422E+05-3.51273E+04-9.53825E+02 5.21709E-10-1.87937E-09
 -1       659-4.06083E+04-7.58048E+05-6.08272E+04 5.04774E+03-1.29603E-10 5.23862E-10
 -1       660 3.13899E+04-7.24216E+05-7.53913E+04-8.02589E+02-3.12866E-10-4.24413E-09
 -1       661 1.03208E+05 1.12100E+04 9.89094E+03 4.02923E+04 2.38333E-09-5.18412E-11
 -1       662 1.08334E+05 1.89941E+04 6.66481E+03 3.86018E+04 1.10751E-09-5.01313E-09
 -1       663 1.05143E+05 1.43904E+04 2.33141E+03 3.97370E+04 8.30255E-10-1.65551E-09
 -1       664 1.06097E+05 1.52688E+04 1.39379E+03 3.92743E+04 1.50673E-09-2.37748E-10
 -1       665 1.05430E+05 1.48309E+04 5.49856E+02 3.96592E+04-1.59014E-09-9.59673E-10
 -1       666 1.05762E+05 1.47598E+04 3.20561E+02 3.93718E+04-4.05990E-09 1.65995E-09
 -1       667 1.05476E+05 1.48861E+04 1.69055E+02 3.96445E+04-8.64901E-10 1.23406E-09
 -1       668 1.05716E+05 1.47130E+04 1.69242E+02 3.93914E+04 2.10466E-09-2.95445E-09
 -1       669 1.05477E+05 1.48764E+04 2.26824E+02 3.96400E+04 7.75998E-10-2.23550E-09
 -1       670 1.05778E+05 1.48280E+04 4.91574E+02 3.93854E+04 4.11739E-09-1.31209E-09
 -1       671 1.05414E+05 1.47735E+04 8.72175E+02 3.96496E+04-3.18760E-10 2.16448E-09
 -1       672 1.06291E+05 1.56716E+04 2.23083E+03 3.92571E+04-2.55659E-09 1.43714E-09
 -1       673 1.04966E+05 1.40542E+04 3.73834E+03 3.97602E+04-1.41472E-09 2.90038E-09
 -1       674 1.09855E+05 2.16728E+04 1.06912E+04 3.82059E+04-1.67211E-09 4.88569E-09
 -1       675 1.01874E+05 8.94014E+03 1.58686E+04 4.06376E+04 1.22213E-09-3.51520E-09
 -1       676 1.16936E+01-1.39497E+05-5.43167E+02 1.73654E+01-7.21428E-10 1.29129E-09
 -1       677-1.44177E+02-1.39628E+05-9.94019E+02-3.47253E+01-2.35946E-09-9.39769E-10
 -1       678 9.62645E+01-1.39403E+05-1.75714E+03 1.73479E+01 9.26775E-10 8.86782E-10
 -1       679-1.75735E+03-1.40688E+05-4.17392E+03-3.46471E+01-3.89036E-09 2.97686E-09
 -1       680 1.04871E+03-1.38436E+05-6.72702E+03 1.70878E+01-5.71617E-10-4.45013E-11
 -1       771-1.50056E+06-2.60805E+05-3.64850E+04-6.21052E+05-5.94810E-09-4.54747E-09
 -1       772-1.49117E+06-2.81054E+05-1.96142E+04-6.43602E+05-5.57338E-09-1.93631E-09
 -1       773-1.50535E+06-2.57101E+05-8.39941E+03-6.23096E+05-2.78669E-09 3.14867E-09
 -1       774-1.48583E+06-2.76635E+05-4.10722E+03-6.45495E+05 2.58296E-09 4.72937E-10
 -1       775-1.50629E+06-2.56535E+05-2.03470E+03-6.23218E+05-4.96584E-09 2.09729E-09
 -1       776-1.48566E+06-2.76600E+05-9.49079E+02-6.46383E+05-5.04588E-09 8.94624E-09
 -1       777-1.50689E+06-2.56117E+05-5.62499E+02-6.23266E+05-5.27143E-09 2.86400E-09
 -1       778-1.48580E+06-2.76715E+05-2.57737E+02-6.47113E+05-1.76078E-09 2.64527E-09
 -1       779-1.50735E+06-2.55760E+05-2.40161E+02-6.23307E+05 1.85537E-09 8.46740E-10
 -1       780-1.48595E+06-2.76817E+05-1.98704E+02-6.47704E+05 5.52973E-10-1.81899E-12
 -1       781-1.50770E+06-2.55472E+05-3.50792E+02-6.23334E+05-5.75346E-09-3.13321E-10
 -1       782-1.48612E+06-2.76926E+05-6.53680E+02-6.48139E+05-6.62476E-09-1.81376E-09
 -1       783-1.50789E+06-2.55287E+05-1.30646E+03-6.23338E+05-1.35697E-09-2.59348E-09
 -1       784-1.48698E+06-2.77808E+05-3.10101E+03-6.48369E+05-3.93402E-09-3.06500E-10
 -1       785-1.50744E+06-2.55604E+05-5.73222E+03-6.22929E+05-6.32917E-09 6.92580E-10
 -1       786 1.08836E+05-5.81731E+03 1.34577E+04 1.34812E+00 9.79027E-08-7.33053E-10
 -1       787 1.14668E+05 6.73460E+03 9.52125E+03-7.02918E+00 1.94327E-07 7.54846E-09
 -1       788 1.11086E+05-9.11925E+02 3.48318E+03 2.38449E+00 2.73390E-07 1.70508E-09
 -1       789 1.12047E+05 1.05515E+03 2.18852E+03-9.72138E+00 3.52382E-07 3.20347E-09
 -1       790 1.11458E+05-1.42457E+02 8.90503E+02 4.04035E+00 4.77640E-07-3.87956E-09
 -1       791 1.11614E+05 1.65520E+02 5.22874E+02-1.39575E+01 6.03011E-07 5.14456E-09
 -1       792 1.11520E+05-2.29629E+01 2.38699E+02 6.62069E+00 8.40098E-07-6.69421E-09
 -1       793 1.11544E+05 3.22807E+01 1.56551E+02-2.05153E+01 1.07505E-06 1.72572E-09
 -1       794 1.11528E+05-9.30604E+00 1.16170E+02 1.05983E+01 5.37825E-07-6.34975E-09
 -1       795 1.11551E+05 4.80924E+01 1.68340E+02-3.05856E+01 2.00537E-09 3.07865E-09
 -1       796 1.11513E+05-3.87627E+01 2.52345E+02 1.66912E+01 6.31657E-11-5.30815E-09
 -1       797 1.11665E+05 2.84171E+02 5.95143E+02-4.59892E+01 8.47136E-11-4.15866E-09
 -1       798 1.11413E+05-2.45211E+02 9.39488E+02 2.60021E+01-1.00850E-10-4.61131E-09
 -1       799 1.12370E+05 1.81051E+03 2.56122E+03-6.96616E+01-3.89635E-10 5.68207E-10
 -1       800 1.10808E+05-1.56387E+03 3.61806E+03 4.03637E+01-4.66436E-11-8.07177E-11
 -1       801-6.32873E+03 1.05149E+04 9.87185E+03 1.16008E+04 6.39307E-09-6.40455E-09
 -1       802 1.65701E+04 5.70949E+04 3.18602E+04-4.77800E+04 1.71731E-08-6.79407E-10
 -1       803-9.84374E+03 2.70427E+04 4.09316E+04 1.10079E+04 1.35333E-08 9.37816E-09
 -1       804 7.92172E+04 9.03684E+04 1.13931E+05-4.83009E+04 1.59980E-08 1.44513E-08
 -1       805-6.89952E+04-2.26153E+04 1.48594E+05 1.21205E+04 5.71890E-09 1.52253E-08
 -1       806-1.30143E+05-2.77449E+04-1.10940E+04-5.41636E+04-2.89401E-09-9.54424E-09
 -1       807-1.30814E+05-2.62537E+04-5.46279E+03-5.70977E+04-4.66159E-09-9.43368E-09
 -1       808-1.30482E+05-2.38304E+04-2.31786E+03-5.60143E+04 1.30854E-10-1.30979E-09
 -1       809-1.29643E+05-2.47573E+04-1.13368E+03-5.72450E+04 4.55429E-10-3.00332E-09
 -1       810-1.30532E+05-2.36969E+04-5.19357E+02-5.60944E+04-6.43013E-10-9.64064E-11
 -1       811-1.29555E+05-2.46992E+04-2.57628E+02-5.72316E+04-1.10595E-09-5.14342E-09
 -1       812-1.30541E+05-2.37073E+04-1.28631E+02-5.60943E+04-3.05977E-09-4.97892E-09
 -1       813-1.29544E+05-2.47006E+04-8.13553E+01-5.72252E+04-5.56497E-10 7.33962E-10
 -1       814-1.30541E+05-2.37108E+04-7.65254E+01-5.60929E+04 1.47702E-09-2.06205E-09
 -1       815-1.29546E+05-2.47017E+04-1.20200E+02-5.72240E+04 1.21690E-09-8.15874E-09
 -1       816-1.30534E+05-2.37092E+04-2.25353E+02-5.60918E+04 8.36326E-09-3.47382E-09
 -1       817-1.29585E+05-2.47224E+04-4.83275E+02-5.72212E+04 2.18779E-08 8.18363E-09
 -1       818-1.30506E+05-2.37726E+04-9.84387E+02-5.60614E+04 9.69521E-09-3.63138E-09
 -1       819-1.30130E+05-2.53056E+04-2.31672E+03-5.70965E+04 1.20508E-10-1.58423E-09
 -1       820-1.30311E+05-2.54793E+04-4.70392E+03-5.53291E+04-8.56289E-10-2.04739E-09
 -1       821-1.66998E+05 9.24473E+03-2.13822E+04 9.97966E+00-4.38815E-10-2.31012E-10
 -1       822-1.76263E+05-1.07023E+04-1.51303E+04-1.88170E+02-1.52367E-09-3.97449E-10
 -1       823-1.70574E+05 1.44924E+03-5.53809E+03-2.31110E+01 1.12861E-09 1.84082E-09
 -1       824-1.72097E+05-1.67744E+03-3.48513E+03-1.10195E+02 4.59064E-11 6.22998E-09
 -1       825-1.71163E+05 2.26908E+02-1.43174E+03-6.79982E+01-2.43665E-09 1.15307E-09
 -1       826-1.71411E+05-2.67636E+02-8.65979E+02-2.05779E+01-4.74392E-09-1.02108E-09
 -1       827-1.71259E+05 4.04586E+01-4.46866E+02-1.12730E+02-2.75187E-09 1.50075E-09
 -1       828-1.71317E+05-8.18439E+01-3.96828E+02 5.71543E+01-2.45590E-09 3.81355E-09
 -1       829-1.71258E+05 4.12656E+01-4.53849E+02-1.45732E+02-3.08123E-10 3.90230E-11
 -1       830-1.71418E+05-2.74455E+02-8.87228E+02 1.02903E+02 1.40018E-09-3.76677E-09
 -1       831-1.71158E+05 2.32966E+02-1.46867E+03-1.58479E+02-1.08233E-09-1.75055E-09
 -1       832-1.72122E+05-1.72238E+03-3.57879E+03 1.05111E+02 2.56713E-10 1.24032E-09
 -1       833-1.70553E+05 1.48813E+03-5.68653E+03-1.47940E+02-7.17982E-10-2.38970E-10
 -1       834-1.76398E+05-1.09898E+04-1.55371E+04 6.45130E+01 6.03400E-10-1.44973E-09
 -1       835-1.66883E+05 9.49314E+03-2.19573E+04-1.17877E+02 3.94779E-09-7.00311E-11
 -1       836-5.52422E+02 1.56972E+05 9.45884E+03-1.37552E+04 1.30422E-09-5.38375E-09
 -1       837 2.07836E+03 1.59904E+05 8.07736E+03-2.76418E+04 1.63573E-09-4.32044E-09
 -1       838-2.05655E+02 1.57790E+05 8.33323E+03-1.37069E+04 1.50203E-09 1.59787E-09
 -1       839 5.34590E+03 1.62345E+05 1.58661E+04-2.76604E+04 2.07569E-09 3.02062E-09
 -1       840-1.61113E+03 1.54516E+05 2.53424E+04-1.37359E+04 1.41790E-09 2.53090E-09
 -1       856-5.20785E+04 4.45151E+03-1.17298E+04-2.50916E+02-1.67444E-09 2.63617E-09
 -1       857-5.69249E+04-5.22173E+03-8.07607E+03 2.68724E+03-9.75135E-10 2.58717E-09
 -1       858-5.39932E+04 6.23932E+02-3.04418E+03-2.59440E+02-1.80293E-09 1.63197E-09
 -1       859-5.47251E+04-7.26584E+02-1.83880E+03 2.70062E+03 4.22773E-12 3.84946E-09
 -1       860-5.42797E+04 8.69173E+01-7.73163E+02-2.64351E+02 1.34781E-09-3.40208E-11
 -1       861-5.43946E+04-9.74263E+01-4.30829E+02 2.70726E+03-2.24578E-09 4.34733E-09
 -1       862-5.43243E+04 1.16571E+01-1.90042E+02-2.66099E+02 3.34868E-09 1.60718E-09
 -1       863-5.43419E+04-8.73147E+00-9.40863E+01 2.70804E+03 6.04908E-09-4.22438E-09
 -1       864-5.43325E+04 1.35714E-01-2.97343E+01-2.65130E+02 4.39925E-09-3.44223E-09
 -1       865-5.43271E+04 1.16175E+01 1.70036E+01 2.70306E+03 3.91066E-09-8.24450E-09
 -1       866-5.43385E+04-8.76078E+00 6.32385E+01-2.61122E+02 5.53172E-10-8.91568E-10
 -1       867-5.42910E+04 7.41009E+01 1.73666E+02 2.69223E+03 1.39977E-09 3.97119E-09
 -1       868-5.43674E+04-6.15983E+01 2.93596E+02-2.54296E+02 2.50679E-11 1.65005E-09
 -1       869-5.40723E+04 5.12367E+02 7.87464E+02 2.67366E+03-8.99689E-11-3.24803E-10
 -1       870-5.45554E+04-4.35660E+02 1.14299E+03-2.42552E+02 1.92267E-09 1.33412E-10
 -1       871-2.41097E+03-4.86508E+03-7.87093E+03 5.16599E+04 1.64891E-09 4.90763E-09
 -1       872-1.04446E+03-6.62222E+03-3.20305E+03 6.69718E+04 2.73576E-09 1.23755E-08
 -1       873-1.79784E+01-5.79146E+03 4.74940E+02 5.15450E+04 7.34644E-10 8.50071E-09
 -1       874 1.22568E+03-4.64117E+03 4.50462E+03 6.69966E+04 3.14640E-09 3.68618E-09
 -1       875 2.89808E+03-6.86648E+03 9.98036E+03 5.16386E+04 1.59116E-09 1.39562E-09
 -1       876 1.29454E+05 2.22929E+04 6.93487E+03 5.25025E+04-2.40544E-09-2.51475E-09
 -1       877 1.29850E+05 2.38155E+04 3.70327E+03 5.45551E+04-2.50031E-09-5.10772E-09
 -1       878 1.30104E+05 2.15245E+04 1.55157E+03 5.30717E+04 1.82672E-09 3.13025E-09
 -1       879 1.28907E+05 2.28763E+04 7.72842E+02 5.46056E+04 3.95062E-10 4.32067E-09
 -1       880 1.30152E+05 2.15153E+04 3.59843E+02 5.30949E+04 1.80546E-09-1.86765E-09
 -1       881 1.28844E+05 2.28367E+04 1.91598E+02 5.45968E+04 3.23433E-09-3.67707E-09
 -1       882 1.30157E+05 2.15205E+04 1.21691E+02 5.30956E+04 4.03872E-09-1.59291E-09
 -1       883 1.28840E+05 2.28349E+04 1.29348E+02 5.45946E+04 2.43682E-09 1.11973E-09
 -1       884 1.30155E+05 2.15189E+04 2.04466E+02 5.30957E+04-5.50898E-10-3.12170E-09
 -1       885 1.28856E+05 2.28379E+04 4.10288E+02 5.45999E+04 1.18668E-09-1.11015E-10
 -1       886 1.30139E+05 2.15069E+04 8.26579E+02 5.30941E+04 1.68518E-09 5.62807E-09
 -1       887 1.29002E+05 2.29330E+04 1.80548E+03 5.46205E+04-2.76728E-09 2.66232E-09
 -1       888 1.30024E+05 2.15273E+04 3.63815E+03 5.30364E+04 1.38365E-09 6.16183E-11
 -1       889 1.31170E+05 2.51838E+04 8.69159E+03 5.45510E+04 4.95397E-09 3.64798E-09
 -1       890 1.28541E+05 2.32888E+04 1.62783E+04 5.16494E+04 1.98884E-09-4.22915E-10
 -1       891-7.79134E+01-7.36370E+04-8.66455E+02 1.40135E+04 9.58948E-10 1.06888E-09
 -1       892-1.35771E+02-7.38471E+04-9.43948E+02 2.12102E+04 2.56250E-10 2.04045E-09
 -1       893-1.85909E+01-7.36663E+04-1.34979E+03 1.40160E+04-1.33832E-09 3.89514E-09
 -1       894-7.31247E+02-7.43713E+04-2.80408E+03 2.11355E+04-7.03267E-10 4.22733E-09
 -1       895-5.69134E+02-7.30877E+04-4.94058E+03 1.40876E+04 7.48912E-11-1.71849E-09
 -1       956-1.62565E+05-2.32062E+03-5.84308E+03 1.06142E+04-1.28848E-08-2.08843E-09
 -1       957-1.63718E+05-7.83665E+02-2.99981E+03 1.27771E+04-2.14550E-08 7.14635E-10
 -1       958-1.63081E+05-6.30767E+01-1.35132E+03 1.05455E+04-7.73525E-09-2.60741E-09
 -1       959-1.63171E+05-1.29548E+01-6.90349E+02 1.28513E+04-1.27829E-09-8.50036E-10
 -1       960-1.63125E+05 1.73398E+01-3.36440E+02 1.05392E+04-3.76417E-09 3.75076E-09
 -1       961-1.63129E+05 1.48597E+01-1.78518E+02 1.28583E+04-5.58066E-09 7.53300E-09
 -1       962-1.63133E+05 1.40071E+01-1.02043E+02 1.05384E+04-3.09274E-09 1.47031E-09
 -1       963-1.63126E+05 1.48490E+01-8.17366E+01 1.28593E+04-4.70249E-09 1.51601E-09
 -1       964-1.63134E+05 1.47072E+01-9.89155E+01 1.05382E+04-4.15980E-10 1.95348E-09
 -1       965-1.63132E+05 1.64307E+01-1.70667E+02 1.28593E+04 2.71655E-09 5.78609E-09
 -1       966-1.63129E+05 1.93900E+01-3.20145E+02 1.05385E+04-6.04899E-09-2.14686E-09
 -1       967-1.63175E+05-8.42448E+00-6.56513E+02 1.28554E+04-9.34222E-09-3.46620E-09
 -1       968-1.63089E+05-5.55652E+01-1.28459E+03 1.05421E+04-3.73416E-09 2.30273E-09
 -1       969-1.63698E+05-7.39810E+02-2.85214E+03 1.28118E+04 2.68074E-10 1.81473E-10
 -1       970-1.62601E+05-2.20103E+03-5.55511E+03 1.05833E+04 1.47611E-09 3.86990E-10
 -1       971-1.54536E+05-8.18795E+02-4.55555E+03 7.62198E+03-2.22872E-09 2.36156E-10
 -1       972-1.55644E+05-5.88858E+02-2.48127E+03 1.06350E+04-2.90879E-09-1.11868E-09
 -1       973-1.55040E+05-6.25165E+00-1.11069E+03 7.55973E+03-3.30465E-09 5.24892E-10
 -1       974-1.55116E+05-8.46393E+00-5.75526E+02 1.07017E+04 1.14721E-09 1.01682E-09
 -1       975-1.55077E+05 1.35024E+01-2.86788E+02 7.55477E+03 3.75621E-10 3.06045E-09
 -1       976-1.55082E+05 1.39830E+01-1.64253E+02 1.07074E+04-1.48884E-09-3.58926E-09
 -1       977-1.55083E+05 1.23363E+01-1.16801E+02 7.55396E+03 4.63615E-10-1.18104E-09
 -1       978-1.55082E+05 1.58107E+01-1.33541E+02 1.07085E+04 6.04410E-09-3.03231E-09
 -1       979-1.55082E+05 1.54486E+01-2.11732E+02 7.55364E+03 4.79923E-09-3.09058E-10
 -1       980-1.55097E+05 1.68972E+01-4.07058E+02 1.07086E+04 3.27827E-09 1.21474E-10
 -1       981-1.55070E+05 2.56497E+01-7.87352E+02 7.55384E+03 2.82057E-10 2.13623E-09
 -1       982-1.55206E+05-4.08253E+01-1.62686E+03 1.07058E+04-1.45161E-09 4.60080E-09
 -1       983-1.54971E+05-2.40593E+01-3.16052E+03 7.55657E+03 6.63590E-09 2.79658E-09
 -1       984-1.56728E+05-1.69020E+03-7.07734E+03 1.06636E+04 1.06361E-08 8.28129E-09
 -1       985-1.53542E+05-2.33598E+03-1.29962E+04 7.59816E+03 6.64954E-09 5.16957E-09
 -3
    1PSTEP                         5           3           1          
  100CL  103 3.75000E-01         409                     0    3           1
 -4  DISP        4    1
 -5  D1          1    2    1    0
 -5  D2          1    2    2    0
 -5  D3          1    2    3    0
 -5  ALL         1    2    0    0    1ALL
 -1         1 9.81712E-05 0.00000E+00 0.00000E+00
 -1         2 9.05557E-05 9.62086E-30-1.65436E-24
 -1         3 8.39392E-05-1.59120E-27 6.61744E-24
 -1         5 6.03132E-05 5.80573E-26 0.00000E+00
 -1         8 7.83870E-05-7.16262E-07 0.00000E+00
 -1         9 7.96654E-05 4.79536E-07 0.00000E+00
 -1        10 7.77669E-05-1.14664E-06 6.61744E-24
 -1        12 5.98905E-05 4.08895E-07 0.00000E+00
 -1        15 5.48430E-05-7.80103E-07 2.06795E-25
 -1        16 5.67284E-05 3.75037E-07 0.00000E+00
 -1        17 5.79384E-05-2.41208E-06 0.00000E+00
 -1        18 5.78315E-05 2.15622E-07 0.00000E+00
 -1        19 5.86225E-05 8.15539E-07 0.00000E+00
 -1        20 5.87291E-05 1.20838E-05 0.00000E+00
 -1        21 5.83260E-05 2.28400E-05 1.65436E-24
 -1        24 1.47873E-05-3.24947E-06 0.00000E+00
 -1        25 5.64929E-05 3.09518E-07 0.00000E+00
 -1        26 5.72377E-05 1.13569E-06 0.00000E+00
 -1        27 5.60993E-05 1.02681E-05 0.00000E+00
 -1        28 5.57341E-05 2.24907E-05 0.00000E+00
 -1        32 0.00000E+00 0.00000E+00 0.00000E+00
 -1        33 5.48639E-05 1.52217E-06 0.00000E+00
 -1        34 5.37708E-05 1.02522E-05 0.00000E+00
 -1        35 5.27318E-05 2.23063E-05 0.00000E+00
 -1        51 9.68844E-05-1.18285E-07 0.00000E+00
 -1        52 9.44993E-05-2.33370E-07 0.00000E+00
 -1        53 9.12322E-05-3.49342E-07 0.00000E+00
 -1        54 8.73076E-05-4.67316E-07 0.00000E+00
 -1        55 8.29506E-05-5.87952E-07-6.10046E-24
 -1        56 9.72780E-05-5.71427E-07 2.64698E-23
 -1        57 9.64925E-05-1.53130E-06-1.32349E-23
 -1        58 9.58133E-05-2.76960E-06 0.00000E+00
 -1        59 9.51940E-05-4.18554E-06 0.00000E+00
 -1        60 9.45982E-05-5.66496E-06 2.64698E-23
 -1        61 9.39826E-05-7.09461E-06 1.32349E-23
 -1        62 9.33067E-05-8.36312E-06 2.64698E-23
 -1        63 9.25302E-05-9.36333E-06-1.32349E-23
 -1        64 9.16178E-05-1.00008E-05 2.64698E-23
 -1        65 9.05374E-05-1.01897E-05 1.32349E-23
 -1        66 8.92645E-05-9.86581E-06 0.00000E+00
 -1        67 8.77801E-05-8.97659E-06-1.32349E-23
 -1        68 8.60736E-05-7.49728E-06-2.64698E-23
 -1        69 8.41454E-05-5.41484E-06-1.32349E-23
 -1        70 8.19948E-05-2.74942E-06 2.64698E-23
 -1        86 9.02724E-05 8.59937E-08 0.00000E+00
 -1        87 8.94215E-05 1.71236E-07 0.00000E+00
 -1        88 8.79760E-05 2.55756E-07 0.00000E+00
 -1        89 8.59069E-05 3.36450E-07 0.00000E+00
 -1        90 8.31567E-05 4.16497E-07 0.00000E+00
 -1       121 8.37671E-05-1.90370E-07 0.00000E+00
 -1       122 8.32510E-05-3.80857E-07 3.30872E-24
 -1       123 8.23916E-05-5.71580E-07 6.61744E-24
 -1       124 8.11900E-05-7.62683E-07 0.00000E+00
 -1       125 7.96477E-05-9.54228E-07 0.00000E+00
 -1       191 6.03015E-05 6.81546E-08 0.00000E+00
 -1       192 6.02662E-05 1.36308E-07 0.00000E+00
 -1       193 6.02075E-05 2.04460E-07 0.00000E+00
 -1       194 6.01253E-05 2.72610E-07 0.00000E+00
 -1       195 6.00196E-05 3.40756E-07 0.00000E+00
 -1       251 7.84493E-05 2.53026E-06 3.30872E-24
 -1       252 7.85293E-05 4.44512E-06 5.16988E-26
 -1       253 7.86098E-05 5.26121E-06 1.65436E-24
 -1       254 7.86934E-05 5.20738E-06-8.27181E-25
 -1       255 7.87768E-05 4.47397E-06 0.00000E+00
 -1       256 7.88603E-05 3.24895E-06 0.00000E+00
 -1       257 7.89434E-05 1.69838E-06 3.30872E-24
 -1       258 7.90264E-05-1.28378E-08-1.65436E-24
 -1       259 7.91094E-05-1.72700E-06 0.00000E+00
 -1       260 7.91925E-05-3.28636E-06 0.00000E+00
 -1       261 7.92760E-05-4.52629E-06-1.65436E-24
 -1       262 7.93594E-05-5.28106E-06-8.27181E-25
 -1       263 7.94429E-05-5.36327E-06 0.00000E+00
 -1       264 7.95234E-05-4.58319E-06 0.00000E+00
 -1       265 7.96034E-05-2.71288E-06 0.00000E+00
 -1       266 7.44630E-05-7.36640E-07 3.30872E-24
 -1       267 7.05390E-05-7.46093E-07 8.27181E-25
 -1       268 6.66150E-05-7.56238E-07 0.00000E+00
 -1       269 6.26910E-05-7.64334E-07 0.00000E+00
 -1       270 5.87670E-05-7.72382E-07 0.00000E+00
 -1       271 7.59995E-05 2.21073E-06 0.00000E+00
 -1       272 7.39718E-05 4.07171E-06 0.00000E+00
 -1       273 7.22987E-05 4.99634E-06 0.00000E+00
 -1       274 7.09234E-05 5.11125E-06 1.32349E-23
 -1       275 6.97975E-05 4.56028E-06 0.00000E+00
 -1       276 6.88632E-05 3.49488E-06 0.00000E+00
 -1       277 6.80612E-05 2.07509E-06 0.00000E+00
 -1       278 6.73299E-05 4.65899E-07 0.00000E+00
 -1       279 6.66065E-05-1.16472E-06 0.00000E+00
 -1       280 6.58284E-05-2.64842E-06 1.32349E-23
 -1       281 6.49333E-05-3.81929E-06 0.00000E+00
 -1       282 6.38614E-05-4.51590E-06 1.32349E-23
 -1       283 6.25543E-05-4.58444E-06 0.00000E+00
 -1       284 6.09608E-05-3.87900E-06 0.00000E+00
 -1       285 5.90252E-05-2.26871E-06 0.00000E+00
 -1       301 7.57755E-05 4.57396E-07 0.00000E+00
 -1       302 7.18888E-05 4.46940E-07-1.65436E-24
 -1       303 6.80228E-05 4.36850E-07 0.00000E+00
 -1       304 6.41956E-05 4.25501E-07 3.30872E-24
 -1       305 6.04249E-05 4.12382E-07 6.61744E-24
 -1       306 7.71986E-05 3.36091E-06-2.64698E-23
 -1       307 7.50998E-05 5.14732E-06-1.32349E-23
 -1       308 7.34192E-05 5.83174E-06-2.64698E-23
 -1       309 7.21389E-05 5.42889E-06 1.32349E-23
 -1       310 7.12101E-05 4.08746E-06 0.00000E+00
 -1       311 7.05630E-05 1.98825E-06-2.64698E-23
 -1       312 7.00972E-05-5.97475E-07 0.00000E+00
 -1       313 6.97048E-05-3.38080E-06 0.00000E+00
 -1       314 6.92694E-05-6.04894E-06 5.29396E-23
 -1       315 6.86764E-05-8.29343E-06 0.00000E+00
 -1       316 6.78291E-05-9.85665E-06 2.64698E-23
 -1       317 6.66414E-05-1.05059E-05 1.32349E-23
 -1       318 6.50642E-05-1.01171E-05 0.00000E+00
 -1       319 6.30719E-05-8.60171E-06 0.00000E+00
 -1       320 6.06699E-05-6.01045E-06 0.00000E+00
 -1       336 7.55050E-05-1.35484E-06-6.61744E-24
 -1       337 7.28197E-05-1.56434E-06-3.30872E-24
 -1       338 6.97150E-05-1.77495E-06 0.00000E+00
 -1       339 6.61959E-05-1.98658E-06 0.00000E+00
 -1       340 6.22682E-05-2.19969E-06-6.61744E-24
 -1       406 5.97378E-05 4.77022E-07 0.00000E+00
 -1       407 5.95616E-05 5.45124E-07 3.30872E-24
 -1       408 5.93620E-05 6.13180E-07 0.00000E+00
 -1       409 5.91388E-05 6.81105E-07 0.00000E+00
 -1       410 5.88923E-05 7.48767E-07 3.30872E-24
 -1       521 5.34245E-05 2.19804E-06 0.00000E+00
 -1       522 5.07715E-05 2.06698E-06-2.64698E-23
 -1       523 4.88070E-05 1.13071E-07-5.29396E-23
 -1       524 4.74274E-05-3.44911E-06 0.00000E+00
 -1       525 4.64593E-05-8.11935E-06-5.29396E-23
 -1       526 4.56888E-05-1.33303E-05-2.64698E-23
 -1       527 4.48732E-05-1.84204E-05 0.00000E+00
 -1       528 4.37703E-05-2.27366E-05-2.64698E-23
 -1       529 4.21860E-05-2.57592E-05 5.29396E-23
 -1       530 3.99560E-05-2.70523E-05 0.00000E+00
 -1       531 3.70246E-05-2.64777E-05 5.29396E-23
 -1       532 3.33839E-05-2.40172E-05 0.00000E+00
 -1       533 2.91440E-05-1.99771E-05 0.00000E+00
 -1       534 2.44704E-05-1.47597E-05-2.64698E-23
 -1       535 1.95766E-05-8.97934E-06 0.00000E+00
 -1       536 5.79186E-05 1.63220E-06-1.65436E-24
 -1       537 5.79081E-05 4.71198E-06 0.00000E+00
 -1       538 5.78994E-05 6.91348E-06-8.27181E-25
 -1       539 5.78932E-05 8.32315E-06 2.06795E-25
 -1       540 5.78877E-05 9.03617E-06 0.00000E+00
 -1       541 5.78827E-05 9.14785E-06 1.03398E-25
 -1       542 5.78777E-05 8.76000E-06 0.00000E+00
 -1       543 5.78725E-05 7.97451E-06 0.00000E+00
 -1       544 5.78671E-05 6.89757E-06 2.06795E-25
 -1       545 5.78615E-05 5.63539E-06 0.00000E+00
 -1       546 5.78558E-05 4.29620E-06-1.03398E-25
 -1       547 5.78501E-05 2.98823E-06 0.00000E+00
 -1       548 5.78447E-05 1.81937E-06 5.16988E-26
 -1       549 5.78397E-05 8.97484E-07 0.00000E+00
 -1       550 5.78349E-05 3.27849E-07 0.00000E+00
 -1       551 5.22181E-05-2.53891E-06 0.00000E+00
 -1       552 4.53765E-05-2.67033E-06-8.27181E-25
 -1       553 3.78104E-05-2.80675E-06 3.30872E-24
 -1       554 2.99223E-05-2.94743E-06 0.00000E+00
 -1       555 2.21148E-05-3.08971E-06 0.00000E+00
 -1       556 5.64371E-05 1.47912E-06 0.00000E+00
 -1       557 5.52897E-05 4.45395E-06 0.00000E+00
 -1       558 5.44576E-05 6.59686E-06 0.00000E+00
 -1       559 5.39056E-05 7.99897E-06 0.00000E+00
 -1       560 5.35984E-05 8.75117E-06 0.00000E+00
 -1       561 5.35012E-05 8.94485E-06 0.00000E+00
 -1       562 5.35793E-05 8.67149E-06-6.61744E-24
 -1       563 5.37981E-05 8.02263E-06 0.00000E+00
 -1       564 5.41232E-05 7.08990E-06-3.30872E-24
 -1       565 5.45202E-05 5.96494E-06-8.27181E-25
 -1       566 5.49548E-05 4.73942E-06-8.27181E-25
 -1       567 5.53927E-05 3.50505E-06 4.13590E-25
 -1       568 5.57997E-05 2.35349E-06 0.00000E+00
 -1       569 5.61415E-05 1.37632E-06 0.00000E+00
 -1       570 5.63837E-05 6.65141E-07 0.00000E+00
 -1       571 5.78795E-05 2.84295E-07 4.13590E-25
 -1       572 5.79285E-05 3.20267E-07-4.13590E-25
 -1       573 5.79779E-05 3.29366E-07 0.00000E+00
 -1       574 5.80274E-05 3.17728E-07 8.27181E-25
 -1       575 5.80770E-05 2.91516E-07 8.27181E-25
 -1       576 5.81266E-05 2.56932E-07-8.27181E-25
 -1       577 5.81762E-05 2.20184E-07 0.00000E+00
 -1       578 5.82258E-05 1.87485E-07 8.27181E-25
 -1       579 5.82755E-05 1.65048E-07 0.00000E+00
 -1       580 5.83251E-05 1.59084E-07 0.00000E+00
 -1       581 5.83747E-05 1.75808E-07 0.00000E+00
 -1       582 5.84243E-05 2.21423E-07 0.00000E+00
 -1       583 5.84739E-05 3.02130E-07 0.00000E+00
 -1       584 5.85235E-05 4.24063E-07 0.00000E+00
 -1       585 5.85731E-05 5.93324E-07 0.00000E+00
 -1       586 5.75915E-05 2.32246E-07 0.00000E+00
 -1       587 5.73305E-05 2.48452E-07 0.00000E+00
 -1       588 5.70693E-05 2.64479E-07 0.00000E+00
 -1       589 5.68287E-05 2.80252E-07 0.00000E+00
 -1       590 5.66298E-05 2.95596E-07 0.00000E+00
 -1       591 5.77827E-05 3.09521E-07 0.00000E+00
 -1       592 5.77421E-05 3.76391E-07 0.00000E+00
 -1       593 5.77095E-05 4.21376E-07 4.13590E-25
 -1       594 5.76832E-05 4.49112E-07 0.00000E+00
 -1       595 5.76616E-05 4.64294E-07 0.00000E+00
 -1       596 5.76429E-05 4.71585E-07 0.00000E+00
 -1       597 5.76254E-05 4.75643E-07-4.13590E-25
 -1       598 5.76073E-05 4.81126E-07 0.00000E+00
 -1       599 5.75870E-05 4.92687E-07 0.00000E+00
 -1       600 5.75627E-05 5.14982E-07 0.00000E+00
 -1       601 5.75325E-05 5.52666E-07 2.06795E-25
 -1       602 5.74950E-05 6.10400E-07-2.06795E-25
 -1       603 5.74482E-05 6.92843E-07-1.55096E-25
 -1       604 5.73906E-05 8.04693E-07 5.16988E-26
 -1       605 5.73204E-05 9.50585E-07 4.13590E-25
 -1       606 5.86317E-05 1.15079E-06 0.00000E+00
 -1       607 5.86391E-05 1.55690E-06 0.00000E+00
 -1       608 5.86461E-05 2.02973E-06 0.00000E+00
 -1       609 5.86528E-05 2.56457E-06 0.00000E+00
 -1       610 5.86594E-05 3.15671E-06 0.00000E+00
 -1       611 5.86659E-05 3.80139E-06 0.00000E+00
 -1       612 5.86724E-05 4.49379E-06 0.00000E+00
 -1       613 5.86788E-05 5.22916E-06 0.00000E+00
 -1       614 5.86852E-05 6.00270E-06 0.00000E+00
 -1       615 5.86916E-05 6.80960E-06 0.00000E+00
 -1       616 5.86980E-05 7.64509E-06 0.00000E+00
 -1       617 5.87043E-05 8.50439E-06 0.00000E+00
 -1       618 5.87106E-05 9.38268E-06 0.00000E+00
 -1       619 5.87169E-05 1.02752E-05 0.00000E+00
 -1       620 5.87231E-05 1.11772E-05 2.06795E-25
 -1       621 5.83570E-05 8.68936E-07 0.00000E+00
 -1       622 5.81110E-05 9.22592E-07 8.27181E-25
 -1       623 5.78802E-05 9.76240E-07 0.00000E+00
 -1       624 5.76605E-05 1.02980E-06 0.00000E+00
 -1       625 5.74477E-05 1.08327E-06 1.65436E-24
 -1       626 5.85540E-05 1.16766E-06 0.00000E+00
 -1       627 5.84639E-05 1.57853E-06 0.00000E+00
 -1       628 5.83539E-05 2.04270E-06 3.30872E-24
 -1       629 5.82261E-05 2.55434E-06 3.30872E-24
 -1       630 5.80827E-05 3.10766E-06 0.00000E+00
 -1       631 5.79258E-05 3.69678E-06 0.00000E+00
 -1       632 5.77577E-05 4.31584E-06 3.30872E-24
 -1       633 5.75806E-05 4.95900E-06 0.00000E+00
 -1       634 5.73966E-05 5.62038E-06 0.00000E+00
 -1       635 5.72079E-05 6.29412E-06 0.00000E+00
 -1       636 5.70168E-05 6.97438E-06-1.65436E-24
 -1       637 5.68255E-05 7.65529E-06-8.27181E-25
 -1       638 5.66360E-05 8.33098E-06 1.65436E-24
 -1       639 5.64506E-05 8.99560E-06 0.00000E+00
 -1       640 5.62712E-05 9.64327E-06-8.27181E-25
 -1       656 5.79758E-05 1.17883E-05 0.00000E+00
 -1       657 5.74886E-05 1.14811E-05 0.00000E+00
 -1       658 5.71652E-05 1.11748E-05 0.00000E+00
 -1       659 5.69013E-05 1.08688E-05-3.30872E-24
 -1       660 5.65836E-05 1.05618E-05 0.00000E+00
 -1       661 5.84505E-05 1.29720E-05 0.00000E+00
 -1       662 5.81885E-05 1.38221E-05 8.27181E-25
 -1       663 5.79404E-05 1.46351E-05 0.00000E+00
 -1       664 5.77059E-05 1.54127E-05 8.27181E-25
 -1       665 5.74842E-05 1.61563E-05 0.00000E+00
 -1       666 5.72748E-05 1.68676E-05 0.00000E+00
 -1       667 5.70770E-05 1.75479E-05 0.00000E+00
 -1       668 5.68903E-05 1.81987E-05-8.27181E-25
 -1       669 5.67142E-05 1.88212E-05-1.65436E-24
 -1       670 5.65482E-05 1.94169E-05 8.27181E-25
 -1       671 5.63918E-05 1.99869E-05-1.65436E-24
 -1       672 5.62445E-05 2.05324E-05-8.27181E-25
 -1       673 5.61060E-05 2.10546E-05 1.65436E-24
 -1       674 5.59752E-05 2.15544E-05 0.00000E+00
 -1       675 5.58525E-05 2.20332E-05 4.13590E-25
 -1       676 5.78932E-05 2.27815E-05-1.65436E-24
 -1       677 5.74605E-05 2.27229E-05 0.00000E+00
 -1       678 5.70281E-05 2.26644E-05-1.65436E-24
 -1       679 5.65961E-05 2.26061E-05 8.27181E-25
 -1       680 5.61647E-05 2.25477E-05-1.65436E-24
 -1       771 1.18384E-05 2.33616E-06 0.00000E+00
 -1       772 9.26856E-06 6.90544E-06 0.00000E+00
 -1       773 7.06195E-06 1.05167E-05-2.64698E-23
 -1       774 5.19413E-06 1.32315E-05 1.32349E-23
 -1       775 3.64114E-06 1.51126E-05-2.64698E-23
 -1       776 2.37804E-06 1.62246E-05 0.00000E+00
 -1       777 1.37961E-06 1.66329E-05 0.00000E+00
 -1       778 6.20191E-07 1.64047E-05 1.32349E-23
 -1       779 7.39510E-08 1.56077E-05 2.64698E-23
 -1       780-2.85332E-07 1.43112E-05 0.00000E+00
 -1       781-4.83960E-07 1.25850E-05-2.64698E-23
 -1       782-5.48527E-07 1.04996E-05 1.32349E-23
 -1       783-5.05677E-07 8.12647E-06 0.00000E+00
 -1       784-3.82199E-07 5.53728E-06 1.32349E-23
 -1       785-2.04984E-07 2.80421E-06 2.64698E-23
 -1       786 5.65368E-05 3.05068E-07 0.00000E+00
 -1       787 5.65832E-05 3.03117E-07 0.00000E+00
 -1       788 5.66295E-05 3.03966E-07 0.00000E+00
 -1       789 5.66762E-05 3.07924E-07 0.00000E+00
 -1       790 5.67230E-05 3.15632E-07-1.65436E-24
 -1       791 5.67699E-05 3.27739E-07 0.00000E+00
 -1       792 5.68168E-05 3.45364E-07 0.00000E+00
 -1       793 5.68637E-05 3.69639E-07 0.00000E+00
 -1       794 5.69106E-05 4.02409E-07 0.00000E+00
 -1       795 5.69575E-05 4.45534E-07 8.27181E-25
 -1       796 5.70044E-05 5.01986E-07 0.00000E+00
 -1       797 5.70512E-05 5.74765E-07-8.27181E-25
 -1       798 5.70981E-05 6.68618E-07 1.65436E-24
 -1       799 5.71449E-05 7.88335E-07 0.00000E+00
 -1       800 5.71916E-05 9.41482E-07-8.27181E-25
 -1       801 5.26777E-05 3.11973E-07-4.13590E-25
 -1       802 4.13190E-05 2.59656E-07 4.13590E-25
 -1       803 2.63965E-05 1.64551E-07 0.00000E+00
 -1       804 1.18883E-05 6.99246E-08-3.30872E-24
 -1       805 1.76411E-06 2.59452E-08 0.00000E+00
 -1       806 5.64364E-05 2.72205E-07 1.65436E-24
 -1       807 5.63775E-05 2.34722E-07 0.00000E+00
 -1       808 5.63168E-05 2.00830E-07 1.65436E-24
 -1       809 5.62533E-05 1.73721E-07 0.00000E+00
 -1       810 5.61860E-05 1.56583E-07 0.00000E+00
 -1       811 5.61137E-05 1.52558E-07 8.27181E-25
 -1       812 5.60353E-05 1.64786E-07 1.65436E-24
 -1       813 5.59497E-05 1.96397E-07 0.00000E+00
 -1       814 5.58556E-05 2.50523E-07 0.00000E+00
 -1       815 5.57519E-05 3.30290E-07 0.00000E+00
 -1       816 5.56373E-05 4.38824E-07 1.65436E-24
 -1       817 5.55109E-05 5.79249E-07 4.13590E-25
 -1       818 5.53713E-05 7.54690E-07 0.00000E+00
 -1       819 5.52176E-05 9.68258E-07 8.27181E-25
 -1       820 5.50485E-05 1.22307E-06-8.27181E-25
 -1       821 5.71706E-05 1.36155E-06 8.27181E-25
 -1       822 5.70995E-05 1.61000E-06 8.27181E-25
 -1       823 5.70286E-05 1.90021E-06 0.00000E+00
 -1       824 5.69569E-05 2.25119E-06 8.27181E-25
 -1       825 5.68851E-05 2.67284E-06 1.65436E-24
 -1       826 5.68132E-05 3.17479E-06 0.00000E+00
 -1       827 5.67412E-05 3.75458E-06 1.65436E-24
 -1       828 5.66691E-05 4.40952E-06-8.27181E-25
 -1       829 5.65970E-05 5.12558E-06 0.00000E+00
 -1       830 5.65248E-05 5.88854E-06 8.27181E-25
 -1       831 5.64527E-05 6.67712E-06 0.00000E+00
 -1       832 5.63808E-05 7.46994E-06 0.00000E+00
 -1       833 5.63088E-05 8.24498E-06 1.65436E-24
 -1       834 5.62377E-05 8.98032E-06 0.00000E+00
 -1       835 5.61664E-05 9.65995E-06 0.00000E+00
 -1       836 5.69521E-05 1.20003E-06-1.65436E-24
 -1       837 5.65807E-05 1.26580E-06 0.00000E+00
 -1       838 5.61548E-05 1.33144E-06 1.65436E-24
 -1       839 5.57057E-05 1.39666E-06 0.00000E+00
 -1       840 5.52650E-05 1.46178E-06 2.06795E-25
 -1       856 5.60790E-05 1.08819E-05 0.00000E+00
 -1       857 5.60565E-05 1.15735E-05-1.03398E-25
 -1       858 5.60340E-05 1.23305E-05 4.13590E-25
 -1       859 5.60111E-05 1.31407E-05-2.06795E-25
 -1       860 5.59881E-05 1.39916E-05 8.27181E-25
 -1       861 5.59650E-05 1.48709E-05 4.13590E-25
 -1       862 5.59418E-05 1.57661E-05 8.27181E-25
 -1       863 5.59187E-05 1.66648E-05 4.13590E-25
 -1       864 5.58956E-05 1.75545E-05 0.00000E+00
 -1       865 5.58724E-05 1.84229E-05 4.13590E-25
 -1       866 5.58493E-05 1.92574E-05 8.27181E-25
 -1       867 5.58263E-05 2.00457E-05-4.13590E-25
 -1       868 5.58032E-05 2.07755E-05 0.00000E+00
 -1       869 5.57802E-05 2.14344E-05 4.13590E-25
 -1       870 5.57572E-05 2.20102E-05 0.00000E+00
 -1       871 5.56318E-05 1.02675E-05 0.00000E+00
 -1       872 5.52390E-05 1.02654E-05 0.00000E+00
 -1       873 5.48890E-05 1.02631E-05-2.06795E-25
 -1       874 5.45493E-05 1.02603E-05-2.06795E-25
 -1       875 5.41873E-05 1.02573E-05 4.13590E-25
 -1       876 5.59371E-05 1.08883E-05 0.00000E+00
 -1       877 5.57623E-05 1.15464E-05 0.00000E+00
 -1       878 5.55751E-05 1.22376E-05 0.00000E+00
 -1       879 5.53772E-05 1.29578E-05 8.27181E-25
 -1       880 5.51701E-05 1.37027E-05 0.00000E+00
 -1       881 5.49554E-05 1.44679E-05-8.27181E-25
 -1       882 5.47346E-05 1.52493E-05 0.00000E+00
 -1       883 5.45094E-05 1.60426E-05 0.00000E+00
 -1       884 5.42812E-05 1.68436E-05 1.65436E-24
 -1       885 5.40518E-05 1.76480E-05-8.27181E-25
 -1       886 5.38226E-05 1.84515E-05 0.00000E+00
 -1       887 5.35953E-05 1.92500E-05 0.00000E+00
 -1       888 5.33714E-05 2.00391E-05-1.65436E-24
 -1       889 5.31523E-05 2.08145E-05 0.00000E+00
 -1       890 5.29396E-05 2.15720E-05 0.00000E+00
 -1       891 5.53185E-05 2.24598E-05-8.27181E-25
 -1       892 5.48895E-05 2.24289E-05 4.13590E-25
 -1       893 5.44317E-05 2.23979E-05-4.13590E-25
 -1       894 5.39297E-05 2.23671E-05 0.00000E+00
 -1       895 5.33681E-05 2.23362E-05 4.13590E-25
 -1       956 5.47968E-05 1.91003E-06 0.00000E+00
 -1       957 5.47287E-05 2.34103E-06 0.00000E+00
 -1       958 5.46603E-05 2.81069E-06 1.65436E-24
 -1       959 5.45918E-05 3.31422E-06-8.27181E-25
 -1       960 5.45233E-05 3.84685E-06 1.65436E-24
 -1       961 5.44547E-05 4.40379E-06-8.27181E-25
 -1       962 5.43861E-05 4.98022E-06 0.00000E+00
 -1       963 5.43175E-05 5.57134E-06 0.00000E+00
 -1       964 5.42489E-05 6.17234E-06 0.00000E+00
 -1       965 5.41803E-05 6.77840E-06 0.00000E+00
 -1       966 5.41117E-05 7.38472E-06 1.65436E-24
 -1       967 5.40432E-05 7.98649E-06-8.27181E-25
 -1       968 5.39746E-05 8.57890E-06-1.65436E-24
 -1       969 5.39062E-05 9.15715E-06-8.27181E-25
 -1       970 5.38380E-05 9.71647E-06-1.65436E-24
 -1       971 5.37067E-05 1.08029E-05 0.00000E+00
 -1       972 5.36417E-05 1.14114E-05 8.27181E-25
 -1       973 5.35766E-05 1.20714E-05-1.65436E-24
 -1       974 5.35114E-05 1.27763E-05 8.27181E-25
 -1       975 5.34461E-05 1.35194E-05 1.65436E-24
 -1       976 5.33808E-05 1.42939E-05 0.00000E+00
 -1       977 5.33154E-05 1.50934E-05 1.65436E-24
 -1       978 5.32500E-05 1.59110E-05 8.27181E-25
 -1       979 5.31847E-05 1.67401E-05 0.00000E+00
 -1       980 5.31193E-05 1.75741E-05 0.00000E+00
 -1       981 5.30540E-05 1.84063E-05 0.00000E+00
 -1       982 5.29887E-05 1.92299E-05 8.27181E-25
 -1       983 5.29235E-05 2.00384E-05 1.65436E-24
 -1       984 5.28586E-05 2.08250E-05 0.00000E+00
 -1       985 5.27940E-05 2.15832E-05 0.00000E+00
 -3
    1PSTEP                         6           3           1          
  100CL  103 3.75000E-01         409                     0    3           1
 -4  STRESS      6    1
 -5  SXX         1    4    1    1
 -5  SYY         1    4    2    2
 -5  SZZ         1    4    3    3
 -5  SXY         1    4    1    2
 -5  SYZ         1    4    2    3
 -5  SZX         1    4    3    1
 -1         1-1.29409E+06-5.95020E+05-2.63782E+05-8.37617E+05-1.81899E-11-7.40692E-09
 -1         2 2.17683E+03 2.48985E+05 7.11879E+03 6.00610E+02-1.45889E-10 4.44601E-09
 -1         3-4.73499E+01-5.43991E+05 1.26348E+02-1.49839E+02-1.16056E-10-1.55133E-08
 -1         5-4.42353E+00 1.95009E+05 5.10807E+00 2.15373E-02 9.26998E-11 4.12488E-08
 -1         8-6.09129E+05-2.65454E+05-2.05280E+04-4.62464E+05-8.54925E-11 4.13638E-09
 -1         9-1.04583E+06-2.67885E+05-1.03154E+05-3.59556E+05 2.82889E-09 2.37778E-09
 -1        10-4.22815E+02-5.66724E+05-7.28739E+02-1.00600E+03-2.61934E-09-1.74873E-09
 -1        12-2.32845E+00 1.95020E+05 1.65638E+02 4.23454E-01 2.01140E-10 1.04283E-08
 -1        15 1.61342E+03 8.86666E+02 5.21538E+03 2.73779E+00-3.98813E-10-7.53194E-08
 -1        16-2.94999E+06-9.47543E+05-4.58769E+05-9.62445E+05 9.06584E-09-6.66478E-09
 -1        17-6.51502E+05-4.00044E+05-1.25487E+05-3.76200E+05-4.03961E-09 2.35450E-09
 -1        18 2.09166E+04 1.62497E+03-9.74093E+03-4.59763E+04 5.64341E-10 1.95291E-09
 -1        19 6.10941E+04 7.28229E+04-3.48609E+02 1.19987E+04-4.90400E-10-1.57197E-09
 -1        20-2.53211E+04-2.88416E+05-6.36017E+04 2.14055E+04 2.77942E-09 3.25387E-09
 -1        21-2.73089E+01-1.67440E+05-5.40820E+02-4.97113E+01-4.32190E-09-1.19159E-08
 -1        24-2.59867E+06-8.91587E+05-3.70291E+05-1.08617E+06-1.29609E-08-5.96629E-09
 -1        25 2.31211E+04-8.26597E+02 1.40794E+04-8.32066E+04 3.63343E-10 5.54264E-09
 -1        26-1.44600E+04 4.96002E+04-9.92132E+03-7.10455E+03 1.17216E-09-5.63887E-12
 -1        27-4.64103E+04-1.58286E+05-5.94605E+04 3.57123E+04 4.72126E-09 7.69129E-10
 -1        28 1.29510E+04-4.62527E+04 9.45489E+03 1.48302E+04 3.19525E-09 1.26593E-09
 -1        32-6.15576E+05-8.35255E+04 2.68654E+05-4.17134E+05-1.23764E-08 1.07983E-08
 -1        33-9.12952E+04 4.62637E+04 1.64558E+04-2.73470E+04 6.24198E-10-2.02272E-09
 -1        34-1.17633E+05-1.16505E+04 2.77197E+02 3.61052E+04 2.44905E-09-1.74062E-09
 -1        35-1.31705E+04-1.83942E+04-7.18716E+02 2.91663E+04 3.54492E-09-1.40244E-09
 -1        51 1.13956E+04-3.03370E+05 2.87803E+04-7.55958E+05 1.74623E-10-2.35741E-09
 -1        52 6.55569E+03-3.01769E+05 1.92399E+04-8.81695E+05 6.62112E-10 2.44472E-09
 -1        53 4.64428E+03-3.10520E+05 1.68556E+04-7.53362E+05 1.81899E-10-1.49885E-08
 -1        54 1.39775E+04-3.08613E+05 2.74777E+04-8.84428E+05 1.45519E-11-3.52848E-08
 -1        55 2.93083E+04-3.18881E+05 4.94455E+04-7.52988E+05 5.60249E-10-8.26913E-09
 -1        56-2.48522E+06-2.80614E+05-1.94305E+05-9.58125E+05-1.34605E-10-2.67028E-09
 -1        57-2.56227E+06-4.57350E+05-1.30964E+05-9.51756E+05 6.63931E-10 6.35737E-09
 -1        58-2.52437E+06-3.42023E+05-4.57309E+04-9.45787E+05 3.54703E-11-4.88399E-09
 -1        59-2.51695E+06-3.85371E+05-2.72994E+04-9.66589E+05-3.57545E-10-9.64974E-09
 -1        60-2.53017E+06-3.50508E+05-1.06842E+04-9.44033E+05-6.28916E-10 1.42791E-10
 -1        61-2.51098E+06-3.74671E+05-6.07412E+03-9.67736E+05 1.55057E-09-2.90521E-09
 -1        62-2.53025E+06-3.52465E+05-2.93086E+03-9.44713E+05 8.71069E-10-5.93113E-09
 -1        63-2.51244E+06-3.71026E+05-2.40181E+03-9.65103E+05 4.39854E-09 5.31014E-09
 -1        64-2.52863E+06-3.54164E+05-2.77709E+03-9.46628E+05 7.38737E-10-9.13815E-10
 -1        65-2.51705E+06-3.68110E+05-5.53154E+03-9.60252E+05 3.18073E-09 4.84761E-10
 -1        66-2.52557E+06-3.55457E+05-9.76820E+03-9.49502E+05 2.88810E-09 2.97223E-09
 -1        67-2.52786E+06-3.72314E+05-2.47532E+04-9.52853E+05 1.35145E-09-9.53787E-09
 -1        68-2.51784E+06-3.50234E+05-4.15820E+04-9.53916E+05 1.44701E-09-6.30280E-09
 -1        69-2.57320E+06-4.33579E+05-1.18896E+05-9.34792E+05 2.38288E-10 1.35515E-09
 -1        70-2.48063E+06-2.96055E+05-1.76493E+05-9.66916E+05-9.71340E-10-7.85803E-10
 -1        86-1.09244E+03 2.46748E+05 7.61750E+03-3.00323E+02 9.49285E-10 1.41938E-09
 -1        87 7.24856E+03 2.51474E+05 1.59066E+04 1.23904E+03 1.60640E-09-1.74077E-09
 -1        88-6.15036E+03 2.44262E+05 2.43358E+04-9.38766E+02 2.35650E-09-3.74371E-10
 -1        89 4.58340E+04 2.69497E+05 6.56573E+04 2.68566E+03 3.66435E-09 4.48824E-09
 -1        90-3.95545E+04 2.28740E+05 9.27173E+04-1.74656E+03 4.18368E-09 8.43545E-09
 -1       121-7.88015E+01-5.44229E+05 1.13008E+02 7.48506E+01 2.89845E-10 2.13004E-09
 -1       122-5.72667E+00-5.43964E+05 2.75083E+02-2.99739E+02-9.73195E-10-1.10558E-08
 -1       123-1.08526E+02-5.44259E+05 4.38222E+02 2.24480E+02 8.97728E-10-1.81899E-09
 -1       124 5.01516E+02-5.43655E+05 1.15172E+03-6.94415E+02-1.82911E-09 5.31463E-09
 -1       125-4.37208E+02-5.44546E+05 1.75921E+03 4.69439E+02 1.37334E-09-4.57112E-09
 -1       191-4.81301E+00 1.95026E+05 6.06877E+00-1.12276E-02 1.23683E-10 1.48138E-08
 -1       192-4.89303E+00 1.95010E+05 1.08176E+01 4.26293E-01 1.69902E-10-1.00863E-09
 -1       193-6.06138E+00 1.95025E+05 2.00822E+01-4.18176E-01 2.04231E-10 2.44609E-09
 -1       194-6.40397E+00 1.95011E+05 4.09230E+01 1.11876E+00 1.05320E-10-5.24096E-10
 -1       195-8.46068E+00 1.95024E+05 8.00126E+01-7.08771E-01 3.28331E-10 2.22644E-09
 -1       251 2.22994E+05-3.84188E+04 8.96974E+04 3.81002E+03-1.37561E-10 1.35333E-09
 -1       252 2.63927E+05 4.44466E+04 6.36499E+04-1.21787E+04 5.49790E-10 1.34969E-09
 -1       253 2.38484E+05-5.94767E+03 2.32147E+04 2.57318E+03-2.13447E-10-2.60843E-09
 -1       254 2.45672E+05 6.87098E+03 1.46809E+04-1.02319E+04 1.42563E-09-1.08689E-08
 -1       255 2.41172E+05-9.18433E+02 5.99843E+03 1.86342E+03 3.63229E-11 6.44286E-09
 -1       256 2.42453E+05 1.09074E+03 3.64829E+03-9.18555E+03-5.75241E-10 5.45515E-09
 -1       257 2.41668E+05-1.60449E+02 1.87715E+03 1.52683E+03-3.91267E-10 1.54614E-10
 -1       258 2.41948E+05 3.41157E+02 1.66333E+03-8.84583E+03-1.89475E-10 4.84346E-09
 -1       259 2.41667E+05-1.63512E+02 1.90610E+03 1.52370E+03-1.27400E-10-2.66016E-09
 -1       260 2.42464E+05 1.11762E+03 3.73047E+03-9.17365E+03-3.23610E-10 3.46813E-09
 -1       261 2.41162E+05-9.41911E+02 6.14886E+03 1.85465E+03 7.96291E-10 4.86079E-09
 -1       262 2.45750E+05 7.04812E+03 1.50517E+04-1.02060E+04 1.41512E-10 4.54975E-10
 -1       263 2.38414E+05-6.10016E+03 2.38135E+04 2.55605E+03-3.01782E-10 2.37742E-09
 -1       264 2.64443E+05 4.55885E+04 6.52747E+04-1.21367E+04-1.33733E-09 8.11178E-09
 -1       265 2.22547E+05-3.94026E+04 9.20115E+04 3.78516E+03-4.25530E-10 4.33283E-09
 -1       266-2.92079E+04-1.36567E+04 6.85342E+04-5.85835E+01-4.14730E-10-1.26165E-07
 -1       267 3.38605E+04 1.59185E+04 4.84369E+04 6.75897E+01-9.48603E-10-2.63501E-07
 -1       268-4.54061E+03-2.25444E+03 1.80039E+04-8.61232E+00-8.27640E-10-2.13175E-07
 -1       269 5.36115E+03 2.69816E+03 1.17021E+04 1.00318E+01-6.11180E-10-1.52628E-07
 -1       270-8.04715E+02-4.43326E+02 5.64879E+03-1.36140E+00-4.56112E-10-1.05834E-07
 -1       271-2.87144E+06-3.58331E+05-2.21136E+05-1.11877E+06 4.60204E-10 3.09956E-09
 -1       272-2.93428E+06-5.35971E+05-1.42149E+05-1.13548E+06 4.92264E-11-1.51231E-08
 -1       273-2.91391E+06-4.12514E+05-5.22371E+04-1.10795E+06-8.50378E-11-3.15049E-09
 -1       274-2.88454E+06-4.69717E+05-2.92247E+04-1.15229E+06 2.56478E-10 1.57888E-09
 -1       275-2.92071E+06-4.17115E+05-1.21508E+04-1.10506E+06 2.13186E-09 2.90765E-09
 -1       276-2.87648E+06-4.64392E+05-6.45158E+03-1.15699E+06 3.62411E-09 7.71877E-09
 -1       277-2.92236E+06-4.16796E+05-3.15618E+03-1.10387E+06 5.72072E-10 3.73007E-10
 -1       278-2.87493E+06-4.64558E+05-2.29391E+03-1.15842E+06 1.07124E-09 5.48130E-09
 -1       279-2.92245E+06-4.16760E+05-2.46223E+03-1.10380E+06-3.26963E-10 1.12118E-09
 -1       280-2.87601E+06-4.64288E+05-4.51082E+03-1.15733E+06 2.47155E-10-2.98269E-09
 -1       281-2.92113E+06-4.17206E+05-8.26611E+03-1.10484E+06 8.09450E-11-1.56342E-09
 -1       282-2.88204E+06-4.67166E+05-1.97159E+04-1.15325E+06 1.76442E-10-7.02721E-09
 -1       283-2.91603E+06-4.14672E+05-3.52376E+04-1.10736E+06 2.48747E-10-4.53838E-09
 -1       284-2.91666E+06-5.10498E+05-9.57415E+04-1.14029E+06-1.37425E-09 6.25732E-10
 -1       285-2.88662E+06-3.79052E+05-1.49079E+05-1.11555E+06 8.91305E-10 2.56114E-09
 -1       301 1.10307E+04-6.67140E+03 8.58565E+04-2.13699E+04-7.23958E-10-5.19350E-09
 -1       302 1.18642E+04 1.51014E+04 6.20644E+04-3.14677E+04 1.15801E-09 2.18029E-09
 -1       303 5.46693E+02 1.02997E+03 5.72392E+04-2.14276E+04-6.26642E-10 4.41150E-09
 -1       304 2.24235E+04 2.48477E+04 9.63991E+04-3.13766E+04 9.71340E-10 1.64255E-09
 -1       305 2.22153E+04-1.63473E+04 1.61848E+05-2.13927E+04-7.27596E-10 6.01813E-09
 -1       306-3.08208E+06-3.56908E+05-2.35193E+05-1.20545E+06 1.54978E-09-3.60887E-09
 -1       307-3.20430E+06-5.54479E+05-1.60333E+05-1.16323E+06 1.49976E-09-2.19916E-09
 -1       308-3.13704E+06-4.28525E+05-5.53561E+04-1.18169E+06 1.69575E-09-1.77897E-09
 -1       309-3.13530E+06-4.76586E+05-3.34741E+04-1.19742E+06 8.91063E-10-4.95629E-09
 -1       310-3.15078E+06-4.33362E+05-1.29977E+04-1.17176E+06-2.85524E-10-5.69707E-09
 -1       311-3.11730E+06-4.73315E+05-7.51000E+03-1.21193E+06 3.24525E-09 3.94539E-09
 -1       312-3.15516E+06-4.31466E+05-3.67569E+03-1.16738E+06 1.45121E-10 2.44688E-09
 -1       313-3.11377E+06-4.74323E+05-3.31043E+03-1.21538E+06-2.54306E-09-7.92909E-10
 -1       314-3.15436E+06-4.32284E+05-3.99244E+03-1.16836E+06-2.64697E-09-4.25257E-09
 -1       315-3.12037E+06-4.70537E+05-8.37755E+03-1.20824E+06 2.54261E-10-2.21235E-10
 -1       316-3.14844E+06-4.35375E+05-1.46925E+04-1.17442E+06 6.90534E-10 2.12822E-09
 -1       317-3.14168E+06-4.73464E+05-3.78662E+04-1.19099E+06 8.30141E-10-9.54969E-10
 -1       318-3.13295E+06-4.29706E+05-6.26391E+04-1.18542E+06-3.26327E-09 3.04499E-09
 -1       319-3.21870E+06-5.63031E+05-1.81534E+05-1.15404E+06-2.10275E-09-2.68847E-09
 -1       320-3.07184E+06-3.47367E+05-2.66145E+05-1.21086E+06 7.48696E-09 1.04774E-09
 -1       336 4.10250E+02-5.89162E+05-3.15317E+03 5.35669E+02-5.31531E-09-1.71349E-09
 -1       337-1.14174E+03-5.89995E+05-3.45457E+03-1.40474E+03-9.66520E-09-7.22139E-10
 -1       338 2.68781E+02-5.89252E+05-4.36962E+03 8.66493E+02-6.96127E-09-3.08683E-09
 -1       339-4.51863E+03-5.92074E+05-9.56117E+03-2.05919E+03-1.26483E-08-3.53111E-09
 -1       340 3.06048E+03-5.87116E+05-1.47438E+04 1.18601E+03-8.60291E-09 1.37061E-09
 -1       406 1.02859E+01 1.95017E+05 3.26978E+02 2.73222E-01 4.44999E-10 7.18092E-09
 -1       407 1.11695E+02 1.95077E+05 6.95038E+02-7.57288E+00 5.69855E-12 2.93085E-09
 -1       408 3.55415E+02 1.94967E+05 1.38810E+03 7.40543E+00 5.08294E-10 3.81533E-09
 -1       409 1.49882E+03 1.95521E+05 3.12516E+03-6.90103E+01 1.54614E-11 1.80075E-08
 -1       410 4.31053E+03 1.94572E+05 6.37990E+03 6.36220E+01 5.21140E-10 4.80713E-09
 -1       521-5.83621E+06-6.74149E+05-4.37399E+05-2.27030E+06 4.49654E-09-1.08266E-08
 -1       522-6.03936E+06-1.05638E+06-2.96843E+05-2.21685E+06-1.50976E-09-4.53292E-09
 -1       523-5.94545E+06-7.97123E+05-1.02878E+05-2.21724E+06 9.60426E-10 8.65839E-10
 -1       524-5.90368E+06-9.22703E+05-6.18342E+04-2.29130E+06 4.43742E-09 3.14230E-09
 -1       525-5.97148E+06-8.04105E+05-2.39420E+04-2.19730E+06 3.32784E-09 1.49066E-09
 -1       526-5.87735E+06-9.10380E+05-1.37788E+04-2.31032E+06-9.34506E-11-5.55747E-09
 -1       527-5.97197E+06-8.08682E+05-6.67739E+03-2.19862E+06 3.69346E-09 2.78754E-09
 -1       528-5.89156E+06-8.89597E+05-5.42694E+03-2.28953E+06-6.41194E-10 5.53291E-09
 -1       529-5.95659E+06-8.25273E+05-6.98357E+03-2.21763E+06-9.59517E-11-9.54969E-12
 -1       530-5.93162E+06-8.52818E+05-1.32033E+04-2.24249E+06-9.08358E-10-1.35356E-09
 -1       531-5.93126E+06-8.45987E+05-2.42262E+04-2.24516E+06-1.91949E-09 3.31056E-10
 -1       532-5.99144E+06-8.33455E+05-6.12101E+04-2.18897E+06 4.02736E-09-8.69113E-09
 -1       533-5.89743E+06-8.44816E+05-1.01952E+05-2.27135E+06 1.48248E-09-1.26420E-08
 -1       534-6.12106E+06-9.75250E+05-2.95095E+05-2.12814E+06 8.33097E-10 6.99583E-09
 -1       535-5.80366E+06-7.06770E+05-4.33654E+05-2.30573E+06-6.96309E-09 8.44011E-09
 -1       536-2.17623E+04-1.59830E+04 3.67875E+04 2.84122E+02-5.97311E-10 3.82715E-09
 -1       537-4.52711E+03 1.84921E+04 2.62465E+04-1.32296E+03-6.46234E-09 8.28095E-10
 -1       538-1.54407E+04-2.50558E+03 9.48096E+03 2.97730E+02-5.41164E-10 1.58843E-09
 -1       539-1.20038E+04 2.89113E+03 6.07971E+03-1.37805E+03 3.77247E-09 3.10035E-09
 -1       540-1.42948E+04-3.90067E+02 2.38830E+03 3.39206E+02-4.92548E-11 7.55711E-09
 -1       541-1.34253E+04 4.45226E+02 1.44067E+03-1.45157E+03-7.49452E-10 2.25464E-09
 -1       542-1.40251E+04-5.73676E+01 5.67049E+02 3.71239E+02 2.46665E-10-3.69170E-10
 -1       543-1.37939E+04 5.30697E+01 2.85186E+02-1.50243E+03-5.32800E-11 4.62457E-09
 -1       544-1.39303E+04 4.73681E+00 2.58787E+01 3.90065E+02-4.42157E-10 2.46906E-09
 -1       545-1.39467E+04-8.27114E+01-2.04258E+02-1.52629E+03-7.47928E-10-2.50785E-09
 -1       546-1.38742E+04 7.97271E+01-4.57069E+02 3.95101E+02 4.09932E-10-1.72275E-09
 -1       547-1.41820E+04-5.88085E+02-1.19801E+03-1.52239E+03-1.20699E-09-1.76134E-09
 -1       548-1.36947E+04 5.09504E+02-1.94329E+03 3.86168E+02-1.83828E-09 1.73145E-10
 -1       549-1.55426E+04-3.75502E+03-5.29185E+03-1.48927E+03-9.99727E-10-1.54148E-09
 -1       550-1.25109E+04 3.24232E+03-7.54498E+03 3.61969E+02-2.56932E-11 6.91034E-09
 -1       551 5.73210E+03-3.08984E+05 1.69861E+04-5.29877E+05-2.33704E-08-1.55705E-09
 -1       552 1.20524E+04-3.09752E+05 2.22723E+04-7.54096E+05-1.73386E-08 5.96629E-09
 -1       553 7.90857E+03-3.13806E+05 3.47369E+04-5.28157E+05-2.85800E-08 7.61429E-09
 -1       554 2.92970E+04-2.98970E+05 7.38195E+04-7.54820E+05-1.80371E-08 4.38922E-09
 -1       555 2.92978E+04-3.27886E+05 1.32642E+05-5.28848E+05-2.89074E-08-2.95040E-09
 -1       556 4.39058E+04-9.91506E+04 3.41509E+04-1.31830E+05-6.29370E-09-8.46194E-09
 -1       557 8.41127E+04-1.32794E+05 1.78947E+04-1.64768E+05-1.33878E-09-5.07043E-09
 -1       558 4.41669E+04-1.03931E+05 7.29844E+03-1.27693E+05-3.52884E-09-4.92946E-10
 -1       559 7.91165E+04-1.37603E+05 3.68404E+03-1.66865E+05 4.38013E-09-2.29920E-09
 -1       560 4.32776E+04-1.03327E+05 1.55564E+03-1.28224E+05-6.03177E-09-1.09139E-09
 -1       561 7.76241E+04-1.37287E+05 8.12225E+02-1.67802E+05-9.44419E-09 4.86079E-09
 -1       562 4.25395E+04-1.02822E+05 3.22565E+02-1.28759E+05-5.02405E-09-2.01226E-10
 -1       563 7.67464E+04-1.36912E+05 1.92118E+02-1.68363E+05-3.69255E-09-6.45906E-09
 -1       564 4.20811E+04-1.02522E+05 7.00201E+01-1.29086E+05 8.86030E-09 3.34785E-09
 -1       565 7.62953E+04-1.36720E+05 3.71999E+01-1.68645E+05 9.25138E-09 2.18188E-09
 -1       566 4.19229E+04-1.02415E+05-2.16157E+01-1.29202E+05 4.97585E-09 3.54248E-09
 -1       567 7.62374E+04-1.36691E+05-9.46860E+01-1.68632E+05 6.17206E-09-6.84850E-10
 -1       568 4.20908E+04-1.02527E+05-2.55438E+02-1.29131E+05-3.72893E-10 3.56522E-09
 -1       569 7.60689E+04-1.36576E+05-6.00337E+02-1.67891E+05-2.17460E-09 8.14725E-09
 -1       570 4.29989E+04-1.03390E+05-1.25239E+03-1.29174E+05 2.47019E-09-2.78169E-09
 -1       571 1.41463E+05 5.12814E+03 7.59788E+03-3.56169E+04 1.58570E-09-9.10859E-10
 -1       572 1.42594E+05 1.78347E+03 3.72232E+03-3.90423E+04 3.87718E-09 1.31593E-09
 -1       573 1.41919E+05 4.24932E+02 1.65358E+03-3.55239E+04 2.00316E-09 2.12071E-09
 -1       574 1.42054E+05 1.37683E+02 8.28381E+02-3.91465E+04-1.97701E-09 6.82121E-10
 -1       575 1.41971E+05 1.83685E+01 3.90384E+02-3.55116E+04 8.40464E-09 6.39511E-09
 -1       576 1.41981E+05 4.48226E+00 1.98646E+02-3.91604E+04 1.93756E-08 4.64388E-09
 -1       577 1.41979E+05-3.42405E+00 9.78070E+01-3.55099E+04 8.83233E-09 3.09683E-10
 -1       578 1.41973E+05-1.85003E+00 5.32401E+01-3.91621E+04-1.43484E-09 3.40060E-09
 -1       579 1.41986E+05-4.07747E+00 3.24880E+01-3.55099E+04 4.77485E-10-3.48109E-09
 -1       580 1.41981E+05-4.90006E+00 3.01597E+01-3.91599E+04-2.98314E-10 1.72577E-09
 -1       581 1.41997E+05-7.66597E+00 4.08422E+01-3.55121E+04 1.06229E-09-1.01227E-09
 -1       582 1.42004E+05-1.12536E+00 7.76312E+01-3.91387E+04 2.05364E-09-2.72848E-11
 -1       583 1.42011E+05 1.89530E+01 1.49058E+02-3.55311E+04 1.35879E-09 3.32079E-10
 -1       584 1.42075E+05 1.35663E+02 3.34013E+02-3.89800E+04-1.71485E-09-5.54792E-10
 -1       585 1.41991E+05 4.30940E+02 6.78600E+02-3.56710E+04-1.90994E-10-1.13414E-09
 -1       586-1.74304E+03 4.62088E+04-2.30886E+03-1.21135E+05 3.75167E-10-5.20811E-09
 -1       587-3.79349E+02 4.58995E+04-2.73746E+02-1.33299E+05 6.53927E-10-8.35826E-10
 -1       588 4.76818E+02 4.59605E+04 1.60387E+03-1.21061E+05 3.91083E-10 5.08226E-09
 -1       589 2.39598E+03 4.68397E+04 4.69304E+03-1.33188E+05 5.96629E-10-1.20644E-09
 -1       590 6.88895E+03 4.53800E+04 1.00579E+04-1.21246E+05 2.87400E-10 3.40788E-09
 -1       591-3.09089E+04-8.85638E+03-1.02844E+04-1.60368E+04-1.36288E-09-6.38011E-10
 -1       592-3.18709E+04-1.13833E+04-5.57045E+03-1.87201E+04-3.15242E-09 8.76980E-10
 -1       593-3.19487E+04-8.09863E+03-2.31902E+03-1.67793E+04-1.44053E-09-6.01153E-09
 -1       594-3.04375E+04-9.88857E+03-1.15661E+03-1.87913E+04-1.07138E-09 3.34367E-09
 -1       595-3.20282E+04-8.09525E+03-5.31523E+02-1.68133E+04-7.39522E-09 3.38538E-09
 -1       596-3.03404E+04-9.82012E+03-2.70922E+02-1.87811E+04-8.16213E-09 2.41440E-09
 -1       597-3.20383E+04-8.10186E+03-1.49083E+02-1.68147E+04-4.93979E-09 9.29532E-10
 -1       598-3.03312E+04-9.81750E+03-1.22700E+02-1.87783E+04-1.37970E-09 5.65439E-09
 -1       599-3.20376E+04-8.10185E+03-1.60278E+02-1.68144E+04-2.34536E-09 1.69371E-09
 -1       600-3.03417E+04-9.82096E+03-3.00619E+02-1.87809E+04-5.76358E-09 1.54228E-09
 -1       601-3.20251E+04-8.09461E+03-5.94501E+02-1.68125E+04-6.60521E-09-9.53492E-10
 -1       602-3.04506E+04-9.89751E+03-1.29652E+03-1.87912E+04-1.55575E-09-2.10548E-09
 -1       603-3.19351E+04-8.09956E+03-2.60042E+03-1.67746E+04-2.21007E-10 9.98170E-11
 -1       604-3.20634E+04-1.15677E+04-6.24675E+03-1.87038E+04-8.06381E-10-2.74235E-09
 -1       605-3.07623E+04-8.95431E+03-1.15328E+04-1.59477E+04-1.63936E-10-2.48747E-09
 -1       606 2.02125E+04-6.80812E+03-1.22630E+04 1.98108E+04-3.52429E-09 0.00000E+00
 -1       607 1.81124E+04-2.19579E+03-6.10641E+03 2.22386E+04-1.25692E-09-1.94666E-09
 -1       608 1.93073E+04-3.69365E+02-2.73421E+03 1.96527E+04-9.03128E-09-6.24823E-10
 -1       609 1.90711E+04-9.68162E+01-1.38112E+03 2.24132E+04-2.26696E-08 2.66573E-09
 -1       610 1.92005E+04 1.70210E+01-6.59488E+02 1.96350E+04-1.27320E-08-1.06661E-09
 -1       611 1.91568E+04 2.44722E+01-3.32729E+02 2.24323E+04-4.50336E-09-2.03272E-10
 -1       612 1.91739E+04 2.61832E+01-1.59094E+02 1.96333E+04-1.40608E-08 7.83984E-10
 -1       613 1.91580E+04 2.88737E+01-7.26322E+01 2.24346E+04-2.26969E-08-5.12659E-09
 -1       614 1.91600E+04 2.53340E+01-2.03199E+01 1.96327E+04-6.38192E-09-2.00089E-11
 -1       615 1.91519E+04 3.15056E+01 2.23403E+01 2.24350E+04 4.32556E-09 5.49949E-09
 -1       616 1.91495E+04 2.83577E+01 7.44913E+01 1.96328E+04-7.37145E-09-2.85127E-10
 -1       617 1.91579E+04 4.93496E+01 1.72812E+02 2.24346E+04-3.88900E-09-2.24099E-09
 -1       618 1.91322E+04 7.96863E+01 3.49421E+02 1.96329E+04-7.27823E-10-4.61569E-10
 -1       619 1.92795E+04 3.20847E+02 7.85362E+02 2.24342E+04-3.11957E-10 2.83831E-09
 -1       620 1.90149E+04 9.09831E+02 1.57877E+03 1.96323E+04 1.00420E-09 4.19823E-09
 -1       621 2.42475E+02 1.53716E+05 2.10378E+03 5.01748E+03-2.61892E-10-1.41881E-09
 -1       622 2.77652E+02 1.54237E+05 1.79263E+03 7.32606E+03-1.86503E-10-1.84826E-09
 -1       623 1.17547E+01 1.53865E+05 2.07083E+03 4.99399E+03-1.42080E-10-3.82170E-09
 -1       624 9.39383E+02 1.54845E+05 3.94047E+03 7.34895E+03-2.61110E-10-4.26760E-09
 -1       625 9.43266E+02 1.53106E+05 6.85415E+03 4.99482E+03-1.76669E-10-5.91132E-09
 -1       626 1.27028E+05 3.52920E+04 2.53790E+03 6.87982E+04-3.70210E-09-7.16227E-09
 -1       627 1.25279E+05 3.65814E+04 1.22267E+03 7.15894E+04-2.67937E-09 3.52168E-09
 -1       628 1.27126E+05 3.40897E+04 5.16597E+02 6.91813E+04 7.52152E-10 6.36373E-09
 -1       629 1.24914E+05 3.62927E+04 2.53102E+02 7.17586E+04 1.83763E-09 5.84629E-09
 -1       630 1.27134E+05 3.40317E+04 1.17117E+02 6.91926E+04 3.56704E-09 6.32690E-09
 -1       631 1.24872E+05 3.62857E+04 6.29221E+01 7.17616E+04-2.44199E-09-2.44844E-09
 -1       632 1.27130E+05 3.40355E+04 4.15673E+01 6.91878E+04-3.00770E-09-1.95283E-09
 -1       633 1.24863E+05 3.62890E+04 4.63788E+01 7.17576E+04-1.48339E-09 1.87092E-09
 -1       634 1.27123E+05 3.40356E+04 7.51046E+01 6.91850E+04 3.85239E-09 2.39675E-09
 -1       635 1.24867E+05 3.62900E+04 1.52300E+02 7.17576E+04 2.36196E-09-3.88411E-09
 -1       636 1.27115E+05 3.40349E+04 3.07664E+02 6.91828E+04 4.32465E-10 8.08313E-09
 -1       637 1.24930E+05 3.63390E+04 6.76223E+02 7.17543E+04 5.02631E-10 8.35155E-09
 -1       638 1.27088E+05 3.41860E+04 1.38987E+03 6.91130E+04-5.14353E-09-1.69443E-08
 -1       639 1.25656E+05 3.73560E+04 3.28805E+03 7.15376E+04 5.66217E-10-9.16839E-09
 -1       640 1.26989E+05 3.72134E+04 6.82371E+03 6.78275E+04-5.29485E-09-1.52372E-08
 -1       656 3.44071E+04-8.70789E+05-8.30708E+04-4.78591E+02-6.62112E-10-3.02609E-09
 -1       657-4.54644E+04-9.08301E+05-6.86999E+04 5.69435E+03-3.56522E-10-1.76527E-10
 -1       658 1.09092E+04-8.81493E+05-4.21603E+04-1.11737E+03 4.85329E-10 9.84652E-10
 -1       659-4.87457E+04-9.09849E+05-7.30094E+04 6.11636E+03 5.09317E-11 2.00326E-09
 -1       660 3.76798E+04-8.69244E+05-9.04882E+04-9.00587E+02-4.22006E-10-3.32570E-09
 -1       661 1.23822E+05 1.34643E+04 1.18682E+04 4.83611E+04 2.61707E-09-7.85849E-09
 -1       662 1.29985E+05 2.27912E+04 7.99713E+03 4.63181E+04 1.20713E-09-3.08864E-09
 -1       663 1.26145E+05 1.72787E+04 2.79747E+03 4.76929E+04 1.56831E-10-1.80182E-09
 -1       664 1.27298E+05 1.83243E+04 1.67245E+03 4.71284E+04-7.03778E-10 3.38662E-09
 -1       665 1.26491E+05 1.78059E+04 6.59766E+02 4.75981E+04-1.38132E-09 1.11226E-09
 -1       666 1.26894E+05 1.77161E+04 3.84675E+02 4.72482E+04-3.80624E-09 6.04754E-09
 -1       667 1.26547E+05 1.78710E+04 2.02838E+02 4.75791E+04-5.18895E-10 2.93136E-09
 -1       668 1.26836E+05 1.76622E+04 2.03100E+02 4.72743E+04 8.18090E-10-7.76993E-09
 -1       669 1.26549E+05 1.78583E+04 2.72158E+02 4.75725E+04 1.80850E-09-3.82086E-09
 -1       670 1.26909E+05 1.78023E+04 5.89863E+02 4.72694E+04 4.91223E-09 1.09105E-09
 -1       671 1.26475E+05 1.77338E+04 1.04652E+03 4.75828E+04-1.22960E-09 2.46325E-09
 -1       672 1.27522E+05 1.88163E+04 2.67678E+03 4.71176E+04-9.75376E-10 5.24483E-09
 -1       673 1.25938E+05 1.68699E+04 4.48563E+03 4.77146E+04 3.63457E-10 3.94652E-09
 -1       674 1.31797E+05 2.60185E+04 1.28282E+04 4.58580E+04-2.26328E-09-3.99655E-09
 -1       675 1.22228E+05 1.07331E+04 1.90407E+04 4.87666E+04 1.25283E-09-4.56839E-09
 -1       676 1.40361E+01-1.67395E+05-6.51824E+02 2.48563E+01-1.09230E-09-4.08064E-09
 -1       677-1.73009E+02-1.67553E+05-1.19288E+03-4.96990E+01-4.44317E-09-7.09899E-09
 -1       678 1.15533E+02-1.67283E+05-2.10868E+03 2.48255E+01 7.13953E-10-2.81608E-09
 -1       679-2.10899E+03-1.68826E+05-5.00904E+03-4.95704E+01-2.46177E-09-1.85840E-09
 -1       680 1.25860E+03-1.66123E+05-8.07295E+03 2.44426E+01 1.48702E-10 2.84452E-09
 -1       771-1.79985E+06-3.13600E+05-4.39271E+04-7.45320E+05-7.70160E-09-4.79486E-09
 -1       772-1.78878E+06-3.37426E+05-2.35825E+04-7.71859E+05-4.68572E-09 6.45559E-09
 -1       773-1.80575E+06-3.09031E+05-1.01583E+04-7.47779E+05-4.61296E-09 3.62706E-09
 -1       774-1.78241E+06-3.32190E+05-4.95063E+03-7.74377E+05 3.41970E-09 3.45608E-10
 -1       775-1.80703E+06-3.08226E+05-2.49489E+03-7.47934E+05-5.47880E-09 2.33194E-09
 -1       776-1.78225E+06-3.32195E+05-1.15212E+03-7.75665E+05-5.06043E-09 1.01827E-08
 -1       777-1.80790E+06-3.07611E+05-7.10777E+02-7.48001E+05-2.63753E-09 2.52840E-09
 -1       778-1.78246E+06-3.32366E+05-3.16997E+02-7.76733E+05-1.54250E-09 4.26280E-09
 -1       779-1.80857E+06-3.07088E+05-3.09938E+02-7.48062E+05-7.26868E-09-6.18002E-09
 -1       780-1.78268E+06-3.32512E+05-2.42186E+02-7.77596E+05-2.95586E-09 5.82077E-10
 -1       781-1.80908E+06-3.06669E+05-4.32032E+02-7.48105E+05-5.93354E-09-5.83896E-10
 -1       782-1.78292E+06-3.32658E+05-7.86116E+02-7.78232E+05-6.51471E-09-2.83012E-09
 -1       783-1.80938E+06-3.06396E+05-1.57333E+03-7.48118E+05 4.50200E-09-1.31433E-09
 -1       784-1.78398E+06-3.33726E+05-3.72662E+03-7.78577E+05-3.06773E-09-5.02610E-10
 -1       785-1.80887E+06-3.06751E+05-6.89069E+03-7.47630E+05-9.33960E-09 1.46065E-09
 -1       786 1.30993E+05-6.99044E+03 1.61720E+04 1.18627E-01 1.90053E-07 4.85034E-09
 -1       787 1.38000E+05 8.09273E+03 1.14415E+04-4.44622E+00 3.78062E-07 3.55431E-09
 -1       788 1.33696E+05-1.09583E+03 4.18572E+03 1.90125E+00 4.84860E-07 2.31012E-10
 -1       789 1.34851E+05 1.26794E+03 2.62994E+03-8.57759E+00 5.91590E-07 1.08742E-08
 -1       790 1.34143E+05-1.71187E+02 1.07015E+03 4.25003E+00 7.65715E-07-3.12173E-09
 -1       791 1.34330E+05 1.98908E+02 6.28403E+02-1.43759E+01 9.41025E-07 1.07000E-08
 -1       792 1.34217E+05-2.76005E+01 2.86965E+02 7.69970E+00 1.28320E-06-8.96084E-09
 -1       793 1.34246E+05 3.88425E+01 1.88386E+02-2.31391E+01 1.62307E-06 1.17867E-10
 -1       794 1.34227E+05-1.12278E+01 1.40068E+02 1.30133E+01 8.11474E-07-4.83003E-09
 -1       795 1.34255E+05 5.81289E+01 2.03365E+02-3.67922E+01 2.36956E-09 7.93722E-09
 -1       796 1.34209E+05-4.68727E+01 3.05080E+02 2.13530E+01-2.04523E-10 3.50046E-09
 -1       797 1.34393E+05 3.43659E+02 7.19719E+02-5.83266E+01-4.47259E-10-3.10393E-10
 -1       798 1.34088E+05-2.96548E+02 1.13618E+03 3.45481E+01-4.67453E-11 2.72269E-09
 -1       799 1.35245E+05 2.18959E+03 3.09752E+03-9.26719E+01-8.65360E-10-1.14863E-09
 -1       800 1.33356E+05-1.89131E+03 4.37557E+03 5.56986E+01 1.83817E-11 1.26147E-09
 -1       801-8.19379E+03 9.13975E+03 1.09363E+04 1.40477E+04 7.71161E-09-2.37651E-09
 -1       802 2.03612E+04 7.44645E+04 3.92940E+04-5.78240E+04 2.06969E-08-2.80716E-09
 -1       803-1.15887E+04 3.39646E+04 4.92466E+04 1.31376E+04 1.62636E-08 1.22772E-08
 -1       804 9.56556E+04 1.15570E+05 1.38045E+05-5.85838E+04 1.92576E-08 1.60119E-08
 -1       805-8.35297E+04-3.17575E+04 1.77213E+05 1.48056E+04 6.83212E-09 1.87910E-08
 -1       806-1.56152E+05-3.33209E+04-1.33266E+04-6.50199E+04 3.63684E-09 8.72205E-10
 -1       807-1.56954E+05-3.15329E+04-6.56215E+03-6.85480E+04 5.25051E-09 1.03932E-08
 -1       808-1.56558E+05-2.86186E+04-2.78428E+03-6.72428E+04 1.47304E-09-2.03352E-09
 -1       809-1.55547E+05-2.97355E+04-1.36180E+03-6.87250E+04-1.03137E-09 1.85560E-09
 -1       810-1.56619E+05-2.84584E+04-6.23866E+02-6.73388E+04 1.55910E-09 6.34327E-09
 -1       811-1.55441E+05-2.96658E+04-3.09460E+02-6.87087E+04 3.02089E-09 1.30348E-08
 -1       812-1.56629E+05-2.84711E+04-1.54529E+02-6.73386E+04-2.79692E-09-2.31876E-09
 -1       813-1.55427E+05-2.96675E+04-9.77083E+01-6.87007E+04-3.11343E-09-5.52927E-09
 -1       814-1.56628E+05-2.84755E+04-9.19260E+01-6.73367E+04 1.31604E-09-6.82348E-10
 -1       815-1.55429E+05-2.96690E+04-1.44293E+02-6.86987E+04 1.15938E-09-3.46063E-09
 -1       816-1.56619E+05-2.84740E+04-2.70554E+02-6.73352E+04 3.48200E-09 3.32147E-09
 -1       817-1.55476E+05-2.96939E+04-5.80044E+02-6.86948E+04-3.60160E-10 5.14547E-10
 -1       818-1.56585E+05-2.85505E+04-1.18157E+03-6.72984E+04-3.20506E-09-9.93191E-09
 -1       819-1.56129E+05-3.03940E+04-2.78055E+03-6.85443E+04-1.24987E-09-2.92744E-09
 -1       820-1.56350E+05-3.05991E+04-5.64580E+03-6.64191E+04-9.01309E-10-4.62603E-09
 -1       821-2.00530E+05 1.10995E+04-2.56711E+04 2.85382E+01-5.57133E-10 8.24002E-10
 -1       822-2.11654E+05-1.28495E+04-1.81655E+04-3.19261E+02-2.02622E-09 5.61431E-09
 -1       823-2.04823E+05 1.74001E+03-6.64894E+03-1.05411E+01 1.16275E-09 5.54292E-09
 -1       824-2.06651E+05-2.01401E+03-4.18394E+03-2.12680E+02-4.64943E-10 2.61252E-10
 -1       825-2.05532E+05 2.72390E+02-1.71909E+03-7.80465E+01-2.65494E-09-1.66460E-09
 -1       826-2.05826E+05-3.21295E+02-1.03922E+03-7.07021E+01-4.61134E-09 4.79014E-09
 -1       827-2.05647E+05 4.85024E+01-5.36708E+02-1.52521E+02-3.79441E-09-4.05396E-09
 -1       828-2.05714E+05-9.81963E+01-4.76074E+02 6.22964E+01-3.35785E-09 4.51235E-10
 -1       829-2.05645E+05 4.94823E+01-5.44955E+02-2.11048E+02-8.26903E-11-9.21261E-10
 -1       830-2.05836E+05-3.29447E+02-1.06507E+03 1.45412E+02 1.90092E-09 3.10284E-09
 -1       831-2.05525E+05 2.79654E+02-1.76319E+03-2.35638E+02-1.90188E-09 3.64139E-10
 -1       832-2.06682E+05-2.06782E+03-4.29653E+03 1.53475E+02-8.91339E-10-1.44610E-09
 -1       833-2.04799E+05 1.78660E+03-6.82709E+03-2.19110E+02-1.26869E-09 7.72616E-10
 -1       834-2.11814E+05-1.31943E+04-1.86533E+04 8.57884E+01-1.83228E-09 1.48634E-09
 -1       835-2.00394E+05 1.13974E+04-2.63614E+04-1.67946E+02 3.78845E-09 4.13092E-09
 -1       836-6.62854E+02 1.88438E+05 1.13560E+04-1.65568E+04 1.39880E-09 3.53657E-09
 -1       837 2.49913E+03 1.91955E+05 9.69717E+03-3.32613E+04 1.95723E-09 4.08534E-09
 -1       838-2.44673E+02 1.89417E+05 1.00031E+04-1.64996E+04 1.79307E-09 3.94255E-09
 -1       839 6.42104E+03 1.94882E+05 1.90440E+04-3.32828E+04 2.42244E-09 7.03835E-10
 -1       840-1.93155E+03 1.85489E+05 3.04179E+04-1.65343E+04 1.63709E-09 6.51426E-10
 -1       856-6.24221E+04 5.33944E+03-1.40700E+04-3.07379E+02-2.67204E-09 7.10315E-10
 -1       857-6.82351E+04-6.26282E+03-9.68717E+03 3.21347E+03-2.19821E-09 1.45837E-09
 -1       858-6.47187E+04 7.48284E+02-3.65155E+03-3.19172E+02-2.42702E-09 5.42968E-10
 -1       859-6.55970E+04-8.70732E+02-2.20559E+03 3.23214E+03-1.13039E-09-9.54543E-10
 -1       860-6.50622E+04 1.04162E+02-9.27411E+02-3.26130E+02 2.01865E-10-1.95200E-10
 -1       861-6.52010E+04-1.15972E+02-5.16753E+02 3.24160E+03-4.64047E-09 1.00108E-09
 -1       862-6.51157E+04 1.38982E+01-2.27920E+02-3.28653E+02 1.93413E-09-1.89615E-10
 -1       863-6.51378E+04-9.56516E+00-1.12791E+02 3.24272E+03 7.69159E-09-3.11327E-09
 -1       864-6.51255E+04 6.53841E-02-3.55600E+01-3.27250E+02 4.88060E-09-9.81558E-10
 -1       865-6.51198E+04 1.48326E+01 2.06755E+01 3.23559E+03 3.12230E-09-1.27346E-09
 -1       866-6.51329E+04-1.06755E+01 7.62515E+01-3.21529E+02 9.70800E-10-6.04533E-09
 -1       867-6.50757E+04 9.00173E+01 2.09453E+02 3.22010E+03 3.31302E-09 1.73666E-09
 -1       868-6.51679E+04-7.44130E+01 3.53788E+02-3.11760E+02 2.76674E-09-8.82920E-10
 -1       869-6.48112E+04 6.18152E+02 9.49359E+02 3.19400E+03-2.97769E-09-7.64102E-09
 -1       870-6.53947E+04-5.25404E+02 1.37746E+03-2.95429E+02 1.55251E-09-3.66742E-09
 -1       871-2.90481E+03-5.84572E+03-9.44944E+03 6.20030E+04 1.50339E-09-4.03907E-09
 -1       872-1.26321E+03-7.95623E+03-3.84523E+03 8.03812E+04 2.08320E-09-4.79645E-09
 -1       873-2.82932E+01-6.96372E+03 5.69197E+02 6.18655E+04 1.82945E-09-3.14731E-09
 -1       874 1.46232E+03-5.58065E+03 5.40522E+03 8.04108E+04 2.65118E-09-1.19371E-09
 -1       875 3.46880E+03-8.25056E+03 1.19753E+04 6.19784E+04 1.10413E-09 4.80532E-09
 -1       876 1.55342E+05 2.67676E+04 8.32188E+03 6.30230E+04-4.53804E-09-6.28461E-09
 -1       877 1.55816E+05 2.85963E+04 4.44399E+03 6.54870E+04-5.61522E-09-6.63363E-10
 -1       878 1.56121E+05 2.58459E+04 1.86188E+03 6.37062E+04 2.03431E-09-1.64846E-10
 -1       879 1.54684E+05 2.74692E+04 9.27436E+02 6.55470E+04 2.87741E-10 6.97202E-09
 -1       880 1.56178E+05 2.58352E+04 4.31803E+02 6.37340E+04 7.84894E-10 2.53067E-10
 -1       881 1.54609E+05 2.74215E+04 2.29932E+02 6.55361E+04 4.47574E-09 3.81590E-09
 -1       882 1.56184E+05 2.58416E+04 1.46035E+02 6.37348E+04 6.62556E-09 5.97216E-09
 -1       883 1.54604E+05 2.74193E+04 1.55238E+02 6.55332E+04 2.78550E-09 8.01379E-09
 -1       884 1.56182E+05 2.58397E+04 2.45388E+02 6.37349E+04-1.55865E-10-1.78252E-09
 -1       885 1.54623E+05 2.74229E+04 4.92398E+02 6.55395E+04 1.98118E-09-6.46935E-09
 -1       886 1.56163E+05 2.58254E+04 9.91981E+02 6.37330E+04 4.55667E-09-1.21804E-09
 -1       887 1.54798E+05 2.75371E+04 2.16674E+03 6.55644E+04-1.16633E-09 3.49593E-09
 -1       888 1.56025E+05 2.58497E+04 4.36608E+03 6.36637E+04-1.79890E-09-2.79647E-09
 -1       889 1.57400E+05 3.02382E+04 1.04305E+04 6.54812E+04 3.53644E-09 5.21413E-09
 -1       890 1.54246E+05 2.79633E+04 1.95352E+04 6.19987E+04 2.94403E-09 4.89308E-09
 -1       891-9.58209E+01-8.83634E+04-1.04038E+03 1.68274E+04 1.12959E-09 4.02474E-09
 -1       892-1.66681E+02-8.86138E+04-1.13309E+03 2.54661E+04-3.34921E-09 1.13380E-09
 -1       893-2.54126E+01-8.83974E+04-1.62013E+03 1.68305E+04-6.47560E-10 1.76442E-10
 -1       894-8.82541E+02-8.92401E+04-3.36523E+03 2.53760E+04-2.25521E-09-2.29079E-09
 -1       895-6.87786E+02-8.77009E+04-5.92972E+03 1.69164E+04-3.51747E-10-3.05363E-09
 -1       956-1.95096E+05-2.78518E+03-7.01460E+03 1.27336E+04-1.93859E-09-3.91185E-09
 -1       957-1.96481E+05-9.39422E+02-3.60118E+03 1.53309E+04 5.01132E-10-4.63729E-10
 -1       958-1.95716E+05-7.45376E+01-1.62229E+03 1.26508E+04 2.15459E-09 9.00968E-10
 -1       959-1.95826E+05-1.35481E+01-8.28736E+02 1.54203E+04-2.29261E-09 4.66719E-09
 -1       960-1.95770E+05 2.25814E+01-4.03917E+02 1.26431E+04-3.66254E-09 4.33954E-09
 -1       961-1.95777E+05 2.03563E+01-2.14291E+02 1.54289E+04-5.27302E-09 7.30336E-09
 -1       962-1.95780E+05 1.89795E+01-1.22495E+02 1.26421E+04-2.59092E-09 1.41335E-09
 -1       963-1.95773E+05 2.06562E+01-9.80870E+01 1.54303E+04-5.13006E-09 2.78521E-09
 -1       964-1.95782E+05 2.00218E+01-1.18698E+02 1.26417E+04-2.69966E-09-3.10786E-09
 -1       965-1.95781E+05 2.26625E+01-2.04792E+02 1.54303E+04 1.97400E-09 7.82961E-10
 -1       966-1.95776E+05 2.56472E+01-3.84180E+02 1.26421E+04-4.44732E-09 9.87370E-10
 -1       967-1.95832E+05-7.26198E+00-7.87841E+02 1.54256E+04-7.08155E-09 2.78567E-09
 -1       968-1.95728E+05-6.44896E+01-1.54160E+03 1.26465E+04-4.46221E-09-2.06987E-09
 -1       969-1.96458E+05-8.85278E+02-3.42281E+03 1.53730E+04-2.04636E-11-4.83539E-09
 -1       970-1.95142E+05-2.63951E+03-6.66669E+03 1.26963E+04 3.57431E-10-2.30921E-09
 -1       971-1.85455E+05-9.82007E+02-5.46687E+03 9.12287E+03-1.88720E-09-3.03464E-09
 -1       972-1.86784E+05-7.04885E+02-2.97751E+03 1.27361E+04-1.26806E-09-3.17550E-09
 -1       973-1.86060E+05-6.30863E+00-1.33295E+03 9.04775E+03-3.61570E-09 3.21120E-09
 -1       974-1.86152E+05-7.70879E+00-6.90633E+02 1.28167E+04-9.18590E-11 1.77715E-09
 -1       975-1.86106E+05 1.79852E+01-3.44207E+02 9.04150E+03 1.14892E-09 2.87685E-09
 -1       976-1.86113E+05 1.97566E+01-1.97095E+02 1.28240E+04-3.06306E-09-7.83302E-10
 -1       977-1.86114E+05 1.69739E+01-1.40172E+02 9.04035E+03 2.38492E-09-6.49209E-10
 -1       978-1.86114E+05 2.22566E+01-1.60233E+02 1.28256E+04 9.82368E-09 2.15425E-09
 -1       979-1.86113E+05 2.08890E+01-2.54074E+02 9.03988E+03 6.05627E-09 4.82163E-09
 -1       980-1.86132E+05 2.36419E+01-4.88474E+02 1.28258E+04 4.13951E-09-1.94603E-09
 -1       981-1.86098E+05 3.31030E+01-9.44872E+02 9.04014E+03 1.37663E-09 2.87582E-09
 -1       982-1.86262E+05-4.57772E+01-1.95236E+03 1.28223E+04-1.18371E-09 3.60284E-09
 -1       983-1.85979E+05-2.67843E+01-3.79295E+03 9.04355E+03-1.58911E-09 2.56182E-09
 -1       984-1.88088E+05-2.02561E+03-8.49359E+03 1.27714E+04 2.84217E-12-4.53997E-09
 -1       985-1.84264E+05-2.80160E+03-1.55969E+04 9.09408E+03 2.38833E-09-2.41926E-09
 -3
    1PSTEP                         7           4           1          
  100CL  104 4.68750E-01         409                     0    4           1
 -4  DISP        4    1
 -5  D1          1    2    1    0
 -5  D2          1    2    2    0
 -5  D3          1    2    3    0
 -5  ALL         1    2    0    0    1ALL
 -1         1 1.27098E-04 0.00000E+00 0.00000E+00
 -1         2 1.16521E-04 6.10740E-30 0.00000E+00
 -1         3 1.10142E-04-2.28868E-27-6.61744E-24
 -1         5 7.79939E-05 1.90340E-26 0.00000E+00
 -1         8 1.02692E-04-8.86053E-07 0.00000E+00
 -1         9 1.03385E-04 4.52908E-07 0.00000E+00
 -1        10 1.01917E-04-1.50220E-06 0.00000E+00
 -1        12 7.75047E-05 5.12284E-07-1.65436E-24
 -1        15 7.36268E-05-9.77558E-07 4.13590E-25
 -1        16 7.62688E-05 2.98156E-07 0.00000E+00
 -1        17 7.56378E-05-3.17240E-06 0.00000E+00
 -1        18 7.50450E-05 7.81549E-07 0.00000E+00
 -1        19 7.60372E-05 1.02174E-06 0.00000E+00
 -1        20 7.61688E-05 1.46368E-05 0.00000E+00
 -1        21 7.56667E-05 2.75645E-05-1.65436E-24
 -1        24 1.86443E-05-4.31967E-06 0.00000E+00
 -1        25 7.35673E-05 9.00040E-07 0.00000E+00
 -1        26 7.44917E-05 1.42222E-06 0.00000E+00
 -1        27 7.30643E-05 1.23620E-05 0.00000E+00
 -1        28 7.26121E-05 2.71277E-05 0.00000E+00
 -1        32 0.00000E+00 0.00000E+00 0.00000E+00
 -1        33 7.17189E-05 1.90546E-06 0.00000E+00
 -1        34 7.03495E-05 1.23418E-05 0.00000E+00
 -1        35 6.90482E-05 2.68969E-05 0.00000E+00
 -1        51 1.25512E-04-1.45655E-07 0.00000E+00
 -1        52 1.22571E-04-2.87395E-07 0.00000E+00
 -1        53 1.18541E-04-4.30625E-07 0.00000E+00
 -1        54 1.13699E-04-5.76778E-07 3.30872E-24
 -1        55 1.08323E-04-7.26583E-07-4.34270E-24
 -1        56 1.25955E-04-7.43481E-07 0.00000E+00
 -1        57 1.24957E-04-2.00579E-06 1.32349E-23
 -1        58 1.24102E-04-3.64114E-06 0.00000E+00
 -1        59 1.23326E-04-5.51280E-06-2.64698E-23
 -1        60 1.22580E-04-7.46331E-06-5.29396E-23
 -1        61 1.21803E-04-9.33593E-06-2.64698E-23
 -1        62 1.20939E-04-1.09781E-05-5.29396E-23
 -1        63 1.19935E-04-1.22447E-05 0.00000E+00
 -1        64 1.18745E-04-1.30136E-05 0.00000E+00
 -1        65 1.17327E-04-1.31777E-05-2.64698E-23
 -1        66 1.15657E-04-1.26672E-05-5.29396E-23
 -1        67 1.13715E-04-1.14323E-05-2.64698E-23
 -1        68 1.11499E-04-9.46833E-06 2.64698E-23
 -1        69 1.09020E-04-6.79001E-06-1.32349E-23
 -1        70 1.06292E-04-3.46126E-06 0.00000E+00
 -1        86 1.16179E-04 8.33939E-08-1.65436E-24
 -1        87 1.15151E-04 1.65797E-07 8.27181E-25
 -1        88 1.13405E-04 2.47161E-07 0.00000E+00
 -1        89 1.10907E-04 3.23605E-07 0.00000E+00
 -1        90 1.07591E-04 3.98897E-07 0.00000E+00
 -1       121 1.09912E-04-2.49098E-07 0.00000E+00
 -1       122 1.09224E-04-4.98404E-07-3.30872E-24
 -1       123 1.08078E-04-7.48123E-07-6.61744E-24
 -1       124 1.06476E-04-9.98498E-07 3.30872E-24
 -1       125 1.04421E-04-1.24966E-06 0.00000E+00
 -1       191 7.79804E-05 8.53879E-08 3.30872E-24
 -1       192 7.79396E-05 1.70774E-07 0.00000E+00
 -1       193 7.78716E-05 2.56159E-07 0.00000E+00
 -1       194 7.77765E-05 3.41541E-07 0.00000E+00
 -1       195 7.76542E-05 4.26917E-07 0.00000E+00
 -1       251 1.02714E-04 3.14224E-06 3.30872E-24
 -1       252 1.02758E-04 5.56395E-06 8.27181E-25
 -1       253 1.02802E-04 6.63844E-06 0.00000E+00
 -1       254 1.02850E-04 6.62209E-06 0.00000E+00
 -1       255 1.02898E-04 5.74362E-06 0.00000E+00
 -1       256 1.02946E-04 4.23002E-06 8.27181E-25
 -1       257 1.02993E-04 2.29196E-06 0.00000E+00
 -1       258 1.03039E-04 1.39272E-07 8.27181E-25
 -1       259 1.03086E-04-2.02381E-06 0.00000E+00
 -1       260 1.03133E-04-3.99301E-06 0.00000E+00
 -1       261 1.03180E-04-5.55906E-06 0.00000E+00
 -1       262 1.03228E-04-6.51192E-06 0.00000E+00
 -1       263 1.03276E-04-6.62578E-06-5.16988E-26
 -1       264 1.03320E-04-5.67310E-06 0.00000E+00
 -1       265 1.03363E-04-3.39934E-06 0.00000E+00
 -1       266 9.78475E-05-9.13254E-07 0.00000E+00
 -1       267 9.30034E-05-9.27048E-07-1.65436E-24
 -1       268 8.81592E-05-9.41691E-07-1.65436E-24
 -1       269 8.33151E-05-9.53819E-07 0.00000E+00
 -1       270 7.84710E-05-9.65889E-07 0.00000E+00
 -1       271 9.97431E-05 2.76630E-06-2.64698E-23
 -1       272 9.72207E-05 5.15483E-06-1.32349E-23
 -1       273 9.51248E-05 6.41910E-06-5.29396E-23
 -1       274 9.33916E-05 6.69836E-06 0.00000E+00
 -1       275 9.19661E-05 6.15618E-06 5.29396E-23
 -1       276 9.07812E-05 4.96827E-06-2.64698E-23
 -1       277 8.97670E-05 3.32329E-06-5.29396E-23
 -1       278 8.88499E-05 1.41784E-06-2.64698E-23
 -1       279 8.79548E-05-5.46470E-07-5.29396E-23
 -1       280 8.70061E-05-2.36693E-06 2.64698E-23
 -1       281 8.59290E-05-3.84372E-06 0.00000E+00
 -1       282 8.46517E-05-4.78305E-06 0.00000E+00
 -1       283 8.31046E-05-5.00168E-06 0.00000E+00
 -1       284 8.12274E-05-4.32767E-06 2.64698E-23
 -1       285 7.89554E-05-2.60972E-06 0.00000E+00
 -1       301 9.86871E-05 4.20118E-07 0.00000E+00
 -1       302 9.40104E-05 4.02504E-07 0.00000E+00
 -1       303 8.93929E-05 3.85580E-07 0.00000E+00
 -1       304 8.48719E-05 3.67440E-07 0.00000E+00
 -1       305 8.04849E-05 3.47468E-07 1.32349E-23
 -1       306 1.00342E-04 3.85342E-06-2.64698E-23
 -1       307 9.77758E-05 5.83748E-06-2.64698E-23
 -1       308 9.57690E-05 6.34849E-06 0.00000E+00
 -1       309 9.43091E-05 5.37524E-06 0.00000E+00
 -1       310 9.33229E-05 3.13485E-06 0.00000E+00
 -1       311 9.27049E-05-9.88892E-08-2.64698E-23
 -1       312 9.22989E-05-3.90267E-06 0.00000E+00
 -1       313 9.19372E-05-7.82668E-06 0.00000E+00
 -1       314 9.14461E-05-1.14025E-05 0.00000E+00
 -1       315 9.06576E-05-1.41783E-05-2.64698E-23
 -1       316 8.94470E-05-1.58230E-05 0.00000E+00
 -1       317 8.77106E-05-1.60584E-05 0.00000E+00
 -1       318 8.54191E-05-1.48177E-05 5.29396E-23
 -1       319 8.25812E-05-1.21000E-05 2.64698E-23
 -1       320 7.92651E-05-8.13225E-06 2.64698E-23
 -1       336 9.89078E-05-1.77577E-06 0.00000E+00
 -1       337 9.53395E-05-2.05147E-06-3.30872E-24
 -1       338 9.12190E-05-2.32913E-06 0.00000E+00
 -1       339 8.65551E-05-2.60866E-06 0.00000E+00
 -1       340 8.13576E-05-2.89077E-06 0.00000E+00
 -1       406 7.73280E-05 5.97637E-07 6.61744E-24
 -1       407 7.71241E-05 6.82958E-07 0.00000E+00
 -1       408 7.68930E-05 7.68220E-07 0.00000E+00
 -1       409 7.66348E-05 8.53319E-07-1.65436E-24
 -1       410 7.63494E-05 9.38087E-07 0.00000E+00
 -1       521 7.44553E-05-3.55937E-06 0.00000E+00
 -1       522 7.74233E-05-2.08146E-05 0.00000E+00
 -1       523 8.40980E-05-4.85608E-05 0.00000E+00
 -1       524 9.30656E-05-8.30507E-05 0.00000E+00
 -1       525 1.02557E-04-1.19084E-04-1.05879E-22
 -1       526 1.10761E-04-1.51335E-04 5.29396E-23
 -1       527 1.16086E-04-1.75291E-04-1.05879E-22
 -1       528 1.17090E-04-1.87136E-04 0.00000E+00
 -1       529 1.13143E-04-1.85633E-04 0.00000E+00
 -1       530 1.03994E-04-1.70623E-04-5.29396E-23
 -1       531 9.05282E-05-1.44768E-04 0.00000E+00
 -1       532 7.40615E-05-1.11569E-04 5.29396E-23
 -1       533 5.66300E-05-7.60346E-05 0.00000E+00
 -1       534 4.03943E-05-4.33414E-05 0.00000E+00
 -1       535 2.71896E-05-1.81057E-05-5.29396E-23
 -1       536 7.55819E-05 2.31663E-06 0.00000E+00
 -1       537 7.55371E-05 6.83173E-06-8.27181E-25
 -1       538 7.54958E-05 1.03391E-05 1.65436E-24
 -1       539 7.54587E-05 1.28064E-05 0.00000E+00
 -1       540 7.54236E-05 1.42773E-05 0.00000E+00
 -1       541 7.53895E-05 1.47967E-05 0.00000E+00
 -1       542 7.53557E-05 1.44787E-05 8.27181E-25
 -1       543 7.53214E-05 1.34387E-05-4.13590E-25
 -1       544 7.52864E-05 1.18445E-05 8.27181E-25
 -1       545 7.52508E-05 9.86483E-06 4.13590E-25
 -1       546 7.52149E-05 7.69625E-06 0.00000E+00
 -1       547 7.51791E-05 5.53574E-06 0.00000E+00
 -1       548 7.51436E-05 3.57963E-06 0.00000E+00
 -1       549 7.51094E-05 2.02399E-06 0.00000E+00
 -1       550 7.50757E-05 1.03590E-06 0.00000E+00
 -1       551 6.81203E-05-3.34337E-06 6.61744E-24
 -1       552 5.91306E-05-3.52288E-06-1.65436E-24
 -1       553 4.91749E-05-3.71092E-06-4.96308E-24
 -1       554 3.87667E-05-3.90557E-06 3.30872E-24
 -1       555 2.84198E-05-4.10231E-06-1.32349E-23
 -1       556 7.36509E-05 1.97253E-06 0.00000E+00
 -1       557 7.21275E-05 5.92100E-06 0.00000E+00
 -1       558 7.10172E-05 8.78230E-06 0.00000E+00
 -1       559 7.02741E-05 1.06744E-05 0.00000E+00
 -1       560 6.98521E-05 1.17151E-05 0.00000E+00
 -1       561 6.97059E-05 1.20227E-05 0.00000E+00
 -1       562 6.97904E-05 1.17158E-05 0.00000E+00
 -1       563 7.00607E-05 1.09132E-05 3.30872E-24
 -1       564 7.04722E-05 9.73345E-06 0.00000E+00
 -1       565 7.09801E-05 8.29553E-06 0.00000E+00
 -1       566 7.15401E-05 6.71830E-06-8.27181E-25
 -1       567 7.21078E-05 5.12067E-06 0.00000E+00
 -1       568 7.26387E-05 3.62152E-06 0.00000E+00
 -1       569 7.30884E-05 2.33960E-06 0.00000E+00
 -1       570 7.34124E-05 1.39373E-06 0.00000E+00
 -1       571 7.51052E-05 8.33843E-07 0.00000E+00
 -1       572 7.51668E-05 8.45068E-07 0.00000E+00
 -1       573 7.52287E-05 8.22596E-07-8.27181E-25
 -1       574 7.52908E-05 7.74189E-07-8.27181E-25
 -1       575 7.53530E-05 7.07638E-07 1.65436E-24
 -1       576 7.54152E-05 6.30788E-07 0.00000E+00
 -1       577 7.54774E-05 5.51488E-07-1.65436E-24
 -1       578 7.55397E-05 4.77594E-07 0.00000E+00
 -1       579 7.56019E-05 4.16962E-07 3.30872E-24
 -1       580 7.56641E-05 3.77449E-07 0.00000E+00
 -1       581 7.57264E-05 3.66910E-07 0.00000E+00
 -1       582 7.57886E-05 3.93191E-07 0.00000E+00
 -1       583 7.58508E-05 4.64134E-07 3.30872E-24
 -1       584 7.59130E-05 5.87497E-07 0.00000E+00
 -1       585 7.59751E-05 7.70994E-07 0.00000E+00
 -1       586 7.47762E-05 8.02515E-07-8.27181E-25
 -1       587 7.44813E-05 8.22967E-07-4.13590E-25
 -1       588 7.41865E-05 8.43197E-07 0.00000E+00
 -1       589 7.39183E-05 8.63107E-07 0.00000E+00
 -1       590 7.37033E-05 8.82475E-07 0.00000E+00
 -1       591 7.49962E-05 8.66137E-07 0.00000E+00
 -1       592 7.49575E-05 9.17270E-07-4.13590E-25
 -1       593 7.49287E-05 9.41334E-07 0.00000E+00
 -1       594 7.49077E-05 9.44080E-07 2.06795E-25
 -1       595 7.48924E-05 9.31336E-07 0.00000E+00
 -1       596 7.48807E-05 9.08881E-07-2.06795E-25
 -1       597 7.48705E-05 8.82499E-07 4.13590E-25
 -1       598 7.48596E-05 8.57965E-07 2.06795E-25
 -1       599 7.48458E-05 8.41053E-07 0.00000E+00
 -1       600 7.48270E-05 8.37538E-07 0.00000E+00
 -1       601 7.48010E-05 8.53196E-07 0.00000E+00
 -1       602 7.47657E-05 8.93808E-07-1.03398E-25
 -1       603 7.47190E-05 9.65152E-07 2.06795E-25
 -1       604 7.46589E-05 1.07306E-06 0.00000E+00
 -1       605 7.45830E-05 1.22327E-06 0.00000E+00
 -1       606 7.60486E-05 1.41436E-06 0.00000E+00
 -1       607 7.60578E-05 1.89500E-06 1.65436E-24
 -1       608 7.60664E-05 2.45850E-06 3.30872E-24
 -1       609 7.60747E-05 3.09902E-06 0.00000E+00
 -1       610 7.60829E-05 3.81072E-06 3.30872E-24
 -1       611 7.60910E-05 4.58765E-06 0.00000E+00
 -1       612 7.60990E-05 5.42387E-06 0.00000E+00
 -1       613 7.61069E-05 6.31344E-06 0.00000E+00
 -1       614 7.61149E-05 7.25042E-06 0.00000E+00
 -1       615 7.61227E-05 8.22884E-06 0.00000E+00
 -1       616 7.61306E-05 9.24278E-06 0.00000E+00
 -1       617 7.61384E-05 1.02863E-05 0.00000E+00
 -1       618 7.61461E-05 1.13534E-05 0.00000E+00
 -1       619 7.61538E-05 1.24381E-05 0.00000E+00
 -1       620 7.61615E-05 1.35346E-05 4.13590E-25
 -1       621 7.57329E-05 1.08854E-06 1.65436E-24
 -1       622 7.54547E-05 1.15565E-06 0.00000E+00
 -1       623 7.51971E-05 1.22276E-06 0.00000E+00
 -1       624 7.49545E-05 1.28976E-06 0.00000E+00
 -1       625 7.47212E-05 1.35665E-06 1.65436E-24
 -1       626 7.59616E-05 1.43557E-06 3.30872E-24
 -1       627 7.58593E-05 1.92225E-06 0.00000E+00
 -1       628 7.57322E-05 2.47499E-06 0.00000E+00
 -1       629 7.55832E-05 3.08655E-06 0.00000E+00
 -1       630 7.54148E-05 3.74968E-06 0.00000E+00
 -1       631 7.52298E-05 4.45711E-06 0.00000E+00
 -1       632 7.50309E-05 5.20151E-06-3.30872E-24
 -1       633 7.48208E-05 5.97561E-06 1.65436E-24
 -1       634 7.46023E-05 6.77211E-06 0.00000E+00
 -1       635 7.43781E-05 7.58371E-06 0.00000E+00
 -1       636 7.41510E-05 8.40313E-06-1.65436E-24
 -1       637 7.39236E-05 9.22307E-06-8.27181E-25
 -1       638 7.36988E-05 1.00362E-05 1.65436E-24
 -1       639 7.34791E-05 1.08353E-05-8.27181E-25
 -1       640 7.32670E-05 1.16130E-05 0.00000E+00
 -1       656 7.52570E-05 1.42666E-05-6.61744E-24
 -1       657 7.46760E-05 1.38817E-05 0.00000E+00
 -1       658 7.43007E-05 1.34980E-05 0.00000E+00
 -1       659 7.40022E-05 1.31146E-05 0.00000E+00
 -1       660 7.36375E-05 1.27300E-05-6.61744E-24
 -1       661 7.58318E-05 1.57157E-05 8.27181E-25
 -1       662 7.55159E-05 1.67464E-05-8.27181E-25
 -1       663 7.52174E-05 1.77301E-05-1.65436E-24
 -1       664 7.49362E-05 1.86693E-05-8.27181E-25
 -1       665 7.46710E-05 1.95659E-05 1.65436E-24
 -1       666 7.44211E-05 2.04219E-05 8.27181E-25
 -1       667 7.41858E-05 2.12393E-05 0.00000E+00
 -1       668 7.39644E-05 2.20198E-05 8.27181E-25
 -1       669 7.37561E-05 2.27651E-05 0.00000E+00
 -1       670 7.35604E-05 2.34771E-05 0.00000E+00
 -1       671 7.33767E-05 2.41571E-05 0.00000E+00
 -1       672 7.32042E-05 2.48068E-05 8.27181E-25
 -1       673 7.30426E-05 2.54275E-05 0.00000E+00
 -1       674 7.28906E-05 2.60205E-05-8.27181E-25
 -1       675 7.27487E-05 2.65873E-05-4.13590E-25
 -1       676 7.51564E-05 2.74913E-05 1.65436E-24
 -1       677 7.46462E-05 2.74181E-05 0.00000E+00
 -1       678 7.41365E-05 2.73449E-05 1.65436E-24
 -1       679 7.36274E-05 2.72720E-05 0.00000E+00
 -1       680 7.31192E-05 2.71990E-05 0.00000E+00
 -1       771 1.47361E-05 3.22121E-06 0.00000E+00
 -1       772 1.13402E-05 9.39817E-06 0.00000E+00
 -1       773 8.43512E-06 1.42863E-05 2.64698E-23
 -1       774 5.98849E-06 1.79660E-05 0.00000E+00
 -1       775 3.96828E-06 2.05196E-05-2.64698E-23
 -1       776 2.34107E-06 2.20324E-05 0.00000E+00
 -1       777 1.07300E-06 2.25915E-05 0.00000E+00
 -1       778 1.29480E-07 2.22865E-05 1.32349E-23
 -1       779-5.24356E-07 2.12087E-05 0.00000E+00
 -1       780-9.24006E-07 1.94511E-05 1.32349E-23
 -1       781-1.10510E-06 1.71081E-05 0.00000E+00
 -1       782-1.10376E-06 1.42757E-05-1.32349E-23
 -1       783-9.56167E-07 1.10505E-05 2.64698E-23
 -1       784-6.98793E-07 7.53047E-06 1.32349E-23
 -1       785-3.68217E-07 3.81389E-06 2.64698E-23
 -1       786 7.36217E-05 8.58446E-07-4.13590E-25
 -1       787 7.36793E-05 8.23075E-07 4.13590E-25
 -1       788 7.37368E-05 7.93425E-07 0.00000E+00
 -1       789 7.37948E-05 7.69012E-07-8.27181E-25
 -1       790 7.38528E-05 7.50050E-07 0.00000E+00
 -1       791 7.39110E-05 7.36770E-07 0.00000E+00
 -1       792 7.39692E-05 7.30163E-07 0.00000E+00
 -1       793 7.40274E-05 7.31239E-07 0.00000E+00
 -1       794 7.40856E-05 7.42036E-07-1.65436E-24
 -1       795 7.41439E-05 7.64620E-07-8.27181E-25
 -1       796 7.42021E-05 8.02635E-07-1.65436E-24
 -1       797 7.42603E-05 8.59768E-07 8.27181E-25
 -1       798 7.43184E-05 9.42267E-07 1.65436E-24
 -1       799 7.43765E-05 1.05645E-06 0.00000E+00
 -1       800 7.44345E-05 1.21287E-06-1.65436E-24
 -1       801 6.85981E-05 8.40343E-07 0.00000E+00
 -1       802 5.37189E-05 6.84215E-07 0.00000E+00
 -1       803 3.41886E-05 4.55310E-07 0.00000E+00
 -1       804 1.52759E-05 2.31079E-07 3.30872E-24
 -1       805 2.15652E-06 9.28475E-08 0.00000E+00
 -1       806 7.35102E-05 8.16423E-07 0.00000E+00
 -1       807 7.34499E-05 7.33590E-07 0.00000E+00
 -1       808 7.33870E-05 6.56180E-07 0.00000E+00
 -1       809 7.33202E-05 5.88113E-07-1.65436E-24
 -1       810 7.32484E-05 5.33307E-07 0.00000E+00
 -1       811 7.31701E-05 4.95620E-07 1.65436E-24
 -1       812 7.30839E-05 4.78906E-07 1.65436E-24
 -1       813 7.29884E-05 4.87008E-07-8.27181E-25
 -1       814 7.28821E-05 5.23769E-07 1.65436E-24
 -1       815 7.27637E-05 5.93027E-07 8.27181E-25
 -1       816 7.26316E-05 6.98617E-07-1.65436E-24
 -1       817 7.24845E-05 8.44372E-07 8.27181E-25
 -1       818 7.23209E-05 1.03412E-06-1.65436E-24
 -1       819 7.21395E-05 1.27169E-06-8.27181E-25
 -1       820 7.19390E-05 1.56089E-06 0.00000E+00
 -1       821 7.44077E-05 1.65081E-06 8.27181E-25
 -1       822 7.43185E-05 1.86570E-06-8.27181E-25
 -1       823 7.42297E-05 2.10742E-06 0.00000E+00
 -1       824 7.41398E-05 2.41639E-06-1.65436E-24
 -1       825 7.40499E-05 2.82048E-06 0.00000E+00
 -1       826 7.39598E-05 3.34718E-06 1.65436E-24
 -1       827 7.38696E-05 4.00111E-06 0.00000E+00
 -1       828 7.37792E-05 4.78640E-06 0.00000E+00
 -1       829 7.36888E-05 5.68267E-06 0.00000E+00
 -1       830 7.35983E-05 6.66907E-06 0.00000E+00
 -1       831 7.35077E-05 7.70801E-06-3.30872E-24
 -1       832 7.34174E-05 8.76163E-06 1.65436E-24
 -1       833 7.33271E-05 9.78932E-06-1.65436E-24
 -1       834 7.32379E-05 1.07506E-05 0.00000E+00
 -1       835 7.31484E-05 1.16174E-05 0.00000E+00
 -1       836 7.41678E-05 1.50268E-06 0.00000E+00
 -1       837 7.37369E-05 1.58491E-06 0.00000E+00
 -1       838 7.32377E-05 1.66699E-06-1.65436E-24
 -1       839 7.27091E-05 1.74853E-06 0.00000E+00
 -1       840 7.21899E-05 1.82995E-06 4.13590E-25
 -1       856 7.30393E-05 1.30971E-05 2.06795E-25
 -1       857 7.30113E-05 1.39294E-05 0.00000E+00
 -1       858 7.29835E-05 1.48434E-05-4.13590E-25
 -1       859 7.29551E-05 1.58239E-05-4.13590E-25
 -1       860 7.29266E-05 1.68553E-05 8.27181E-25
 -1       861 7.28980E-05 1.79222E-05 4.13590E-25
 -1       862 7.28693E-05 1.90091E-05 0.00000E+00
 -1       863 7.28407E-05 2.01003E-05 0.00000E+00
 -1       864 7.28120E-05 2.11804E-05-8.27181E-25
 -1       865 7.27833E-05 2.22338E-05 4.13590E-25
 -1       866 7.27547E-05 2.32449E-05 0.00000E+00
 -1       867 7.27262E-05 2.41983E-05-4.13590E-25
 -1       868 7.26976E-05 2.50786E-05 8.27181E-25
 -1       869 7.26691E-05 2.58704E-05 0.00000E+00
 -1       870 7.26407E-05 2.65585E-05 0.00000E+00
 -1       871 7.25124E-05 1.23612E-05 0.00000E+00
 -1       872 7.20543E-05 1.23586E-05 0.00000E+00
 -1       873 7.16497E-05 1.23556E-05 0.00000E+00
 -1       874 7.12578E-05 1.23521E-05 0.00000E+00
 -1       875 7.08379E-05 1.23482E-05 4.13590E-25
 -1       876 7.28736E-05 1.31052E-05-1.65436E-24
 -1       877 7.26672E-05 1.38957E-05 1.65436E-24
 -1       878 7.24454E-05 1.47277E-05 0.00000E+00
 -1       879 7.22101E-05 1.55958E-05 0.00000E+00
 -1       880 7.19634E-05 1.64948E-05 3.30872E-24
 -1       881 7.17071E-05 1.74192E-05 1.65436E-24
 -1       882 7.14432E-05 1.83639E-05-3.30872E-24
 -1       883 7.11737E-05 1.93234E-05-1.65436E-24
 -1       884 7.09006E-05 2.02925E-05 0.00000E+00
 -1       885 7.06259E-05 2.12659E-05 1.65436E-24
 -1       886 7.03516E-05 2.22382E-05-1.65436E-24
 -1       887 7.00795E-05 2.32042E-05-8.27181E-25
 -1       888 6.98117E-05 2.41586E-05-1.65436E-24
 -1       889 6.95498E-05 2.50959E-05 0.00000E+00
 -1       890 6.92959E-05 2.60109E-05 8.27181E-25
 -1       891 7.21239E-05 2.70891E-05-8.27181E-25
 -1       892 7.16191E-05 2.70504E-05-4.13590E-25
 -1       893 7.10782E-05 2.70117E-05 0.00000E+00
 -1       894 7.04823E-05 2.69730E-05 0.00000E+00
 -1       895 6.98119E-05 2.69344E-05 4.13590E-25
 -1       956 7.16349E-05 2.36096E-06-1.65436E-24
 -1       957 7.15496E-05 2.87048E-06 1.65436E-24
 -1       958 7.14639E-05 3.42839E-06 1.65436E-24
 -1       959 7.13781E-05 4.02866E-06 0.00000E+00
 -1       960 7.12923E-05 4.66532E-06 0.00000E+00
 -1       961 7.12064E-05 5.33232E-06-8.27181E-25
 -1       962 7.11204E-05 6.02362E-06 0.00000E+00
 -1       963 7.10345E-05 6.73318E-06-1.65436E-24
 -1       964 7.09485E-05 7.45495E-06 0.00000E+00
 -1       965 7.08626E-05 8.18288E-06-1.65436E-24
 -1       966 7.07766E-05 8.91093E-06 0.00000E+00
 -1       967 7.06907E-05 9.63306E-06 0.00000E+00
 -1       968 7.06048E-05 1.03432E-05-3.30872E-24
 -1       969 7.05191E-05 1.10354E-05 0.00000E+00
 -1       970 7.04337E-05 1.17035E-05 0.00000E+00
 -1       971 7.02692E-05 1.29984E-05 0.00000E+00
 -1       972 7.01879E-05 1.37272E-05 8.27181E-25
 -1       973 7.01063E-05 1.45204E-05-1.65436E-24
 -1       974 7.00246E-05 1.53694E-05 1.65436E-24
 -1       975 6.99429E-05 1.62662E-05-3.30872E-24
 -1       976 6.98611E-05 1.72023E-05 0.00000E+00
 -1       977 6.97792E-05 1.81695E-05 3.30872E-24
 -1       978 6.96973E-05 1.91594E-05-8.27181E-25
 -1       979 6.96154E-05 2.01637E-05-3.30872E-24
 -1       980 6.95336E-05 2.11740E-05-1.65436E-24
 -1       981 6.94517E-05 2.21821E-05 6.61744E-24
 -1       982 6.93700E-05 2.31795E-05 0.00000E+00
 -1       983 6.92883E-05 2.41580E-05 3.30872E-24
 -1       984 6.92070E-05 2.51093E-05 8.27181E-25
 -1       985 6.91261E-05 2.60249E-05 1.65436E-24
 -3
    1PSTEP                         8           4           1          
  100CL  104 4.68750E-01         409                     0    4           1
 -4  STRESS      6    1
 -5  SXX         1    4    1    1
 -5  SYY         1    4    2    2
 -5  SZZ         1    4    3    3
 -5  SXY         1    4    1    2
 -5  SYZ         1    4    2    3
 -5  SZX         1    4    3    1
 -1         1-1.66231E+06-7.54122E+05-3.41810E+05-1.05172E+06 6.07542E-10 3.40515E-09
 -1         2 2.65832E+03 2.42311E+05 8.71177E+03 7.05391E+02-1.46912E-10 1.45652E-08
 -1         3-8.82187E+01-7.11560E+05 1.66331E+02-2.59901E+02-1.36186E-10 5.52245E-09
 -1         5-5.87850E+00 2.44328E+05 6.39951E+00 1.10295E-01 9.76212E-11-9.68157E-10
 -1         8-7.84262E+05-3.32714E+05-3.40259E+04-5.65306E+05-1.03682E-10-4.88944E-09
 -1         9-1.37670E+06-3.63501E+05-1.40797E+05-4.61590E+05 3.69764E-09 4.65661E-10
 -1        10-5.77760E+02-7.41295E+05-9.83928E+02-1.75370E+03-3.46517E-09 1.34753E-08
 -1        12-3.25620E+00 2.44341E+05 2.07521E+02 9.99352E-01 2.33545E-10-5.32964E-10
 -1        15 1.97985E+03 1.08805E+03 6.39988E+03 4.14736E+00-1.73912E-10 6.73073E-09
 -1        16-3.52221E+06-1.21075E+06-5.55566E+05-1.24177E+06 1.14427E-08 2.32831E-10
 -1        17-8.49102E+05-5.15055E+05-1.64480E+05-4.75589E+05-5.30417E-09 4.42960E-09
 -1        18 5.84919E+03-2.89917E+03-1.72213E+04-5.81990E+04 8.09678E-10-1.58570E-09
 -1        19 7.65781E+04 9.11591E+04-4.51043E+02 1.50088E+04-4.90400E-10 3.25526E-09
 -1        20-3.21931E+04-3.61415E+05-7.97408E+04 2.64953E+04 3.11305E-09 6.13090E-09
 -1        21-3.40854E+01-2.09299E+05-6.75619E+02-7.32657E+01-7.67375E-09 1.06065E-08
 -1        24-3.25432E+06-1.02221E+06-4.49768E+05-1.25932E+06-2.03727E-08-8.58078E-09
 -1        25 2.22076E+04-3.30087E+04 9.99123E+03-1.05219E+05 4.77576E-10 1.08801E-08
 -1        26-1.85016E+04 6.19558E+04-1.24829E+04-8.71458E+03 1.39662E-09 4.25161E-09
 -1        27-5.79674E+04-1.98273E+05-7.44594E+04 4.47357E+04 4.45145E-09 4.94159E-10
 -1        28 1.62006E+04-5.78535E+04 1.18256E+04 1.84593E+04 2.39754E-09 1.79932E-09
 -1        32-7.84656E+05-1.81689E+05 3.19012E+05-5.24314E+05-1.68438E-08 1.25783E-08
 -1        33-1.14442E+05 5.78848E+04 2.05951E+04-3.40145E+04 9.41156E-10 3.21218E-09
 -1        34-1.47283E+05-1.46065E+04 3.47104E+02 4.52719E+04 3.26634E-09-2.37757E-09
 -1        35-1.64718E+04-2.29973E+04-9.01157E+02 3.64613E+04 3.69037E-09 2.61510E-09
 -1        51 1.40496E+04-3.66904E+05 3.63642E+04-9.31468E+05-2.61934E-10 2.88128E-09
 -1        52 8.82659E+03-3.65873E+05 2.43236E+04-1.08640E+06-2.91038E-11-1.51340E-08
 -1        53 6.64593E+03-3.78220E+05 2.10125E+04-9.28230E+05 1.09867E-09-2.86673E-09
 -1        54 1.90751E+04-3.76899E+05 3.40756E+04-1.08977E+06 4.36557E-11-1.15688E-09
 -1        55 3.79170E+04-3.89892E+05 6.10585E+04-9.27711E+05 7.13044E-10-2.94676E-10
 -1        56-3.19008E+06-3.59186E+05-2.51168E+05-1.22966E+06 4.98403E-10 6.30098E-09
 -1        57-3.28910E+06-5.88301E+05-1.69305E+05-1.22204E+06 2.21917E-10 1.04701E-08
 -1        58-3.24121E+06-4.38059E+05-5.90947E+04-1.21306E+06-6.00267E-11 1.19799E-08
 -1        59-3.22988E+06-4.95834E+05-3.52754E+04-1.24196E+06-1.36424E-09-5.15956E-09
 -1        60-3.24877E+06-4.48944E+05-1.37978E+04-1.21068E+06-4.09727E-10-1.04578E-08
 -1        61-3.22245E+06-4.81682E+05-7.83758E+03-1.24308E+06-1.88584E-09-8.85257E-09
 -1        62-3.24849E+06-4.51883E+05-3.78237E+03-1.21203E+06 1.60048E-09-9.19755E-10
 -1        63-3.22545E+06-4.75794E+05-3.07189E+03-1.23829E+06-8.78231E-10-1.28364E-09
 -1        64-3.24564E+06-4.54868E+05-3.56777E+03-1.21540E+06-2.28215E-09 4.03588E-10
 -1        65-3.23306E+06-4.70299E+05-7.04986E+03-1.23004E+06-1.31445E-09-5.88443E-10
 -1        66-3.24077E+06-4.57490E+05-1.24925E+04-1.22017E+06 1.14233E-09-2.79124E-09
 -1        67-3.24873E+06-4.73866E+05-3.16129E+04-1.21855E+06-6.67569E-10-2.02226E-09
 -1        68-3.23003E+06-4.51640E+05-5.31307E+04-1.22676E+06 8.93579E-10 5.18412E-09
 -1        69-3.30810E+06-5.50926E+05-1.51970E+05-1.19409E+06 3.49701E-10-3.55067E-09
 -1        70-3.18202E+06-3.82774E+05-2.25546E+05-1.24388E+06 5.45697E-11 5.82077E-11
 -1        86-1.33568E+03 2.39462E+05 9.30001E+03-3.52723E+02 1.13687E-09 4.93583E-09
 -1        87 8.85516E+03 2.45358E+05 1.94505E+04 1.45634E+03 1.91835E-09 3.62252E-09
 -1        88-7.51605E+03 2.36418E+05 2.97265E+04-1.10369E+03 2.86309E-09 3.78805E-10
 -1        89 5.60037E+04 2.67406E+05 8.02446E+04 3.17737E+03 4.36557E-09 8.04837E-09
 -1        90-4.83340E+04 2.17439E+05 1.13284E+05-2.07323E+03 5.07862E-09-7.46013E-10
 -1       121-1.38292E+02-7.11953E+05 1.31132E+02 1.29787E+02 4.10651E-10-3.67800E-09
 -1       122-3.28669E+01-7.11526E+05 3.59872E+02-5.19629E+02-1.48135E-09-1.69430E-08
 -1       123-1.76289E+02-7.11992E+05 5.54452E+02 3.88873E+02 1.12169E-09-5.29872E-09
 -1       124 6.33167E+02-7.11128E+05 1.50122E+03-1.16343E+03-2.51055E-09 8.40782E-09
 -1       125-6.04467E+02-7.12368E+05 2.27286E+03 7.73196E+02 1.66210E-09-4.69299E-09
 -1       191-6.38311E+00 2.44348E+05 7.58599E+00-5.58466E-02 1.49170E-10-8.02174E-10
 -1       192-6.46713E+00 2.44328E+05 1.35529E+01 6.63747E-01 1.85981E-10-1.72986E-09
 -1       193-7.94789E+00 2.44348E+05 2.51433E+01-6.12611E-01 2.81618E-10 4.87944E-10
 -1       194-8.36123E+00 2.44330E+05 5.12714E+01 1.63528E+00 2.02104E-10-2.41926E-10
 -1       195-1.09550E+01 2.44346E+05 1.00228E+02-1.03494E+00 3.71323E-10-7.35326E-09
 -1       251 1.19786E+05-4.12645E+04 9.61830E+04 3.90431E+03 1.26647E-10-3.60887E-09
 -1       252 1.64584E+05 4.77126E+04 6.84072E+04-1.37117E+04-2.43290E-10-2.06819E-09
 -1       253 1.36555E+05-6.39030E+03 2.48742E+04 2.96526E+03 6.77801E-10 2.91948E-09
 -1       254 1.44705E+05 7.37331E+03 1.58032E+04-1.22463E+04-2.46956E-10-5.65251E-09
 -1       255 1.39550E+05-9.87227E+02 6.42848E+03 2.43897E+03 4.41503E-10 9.88166E-10
 -1       256 1.41064E+05 1.17660E+03 3.93948E+03-1.14655E+04 3.92220E-12-2.66937E-10
 -1       257 1.40140E+05-1.73382E+02 2.03594E+03 2.18447E+03 6.73737E-11 5.23750E-09
 -1       258 1.40459E+05 3.83676E+02 1.83519E+03-1.12046E+04-2.49317E-10 6.39214E-09
 -1       259 1.40138E+05-1.83898E+02 2.13573E+03 2.17810E+03-1.48503E-10 2.12276E-09
 -1       260 1.41096E+05 1.26925E+03 4.22147E+03-1.14409E+04-5.02510E-10 1.11612E-09
 -1       261 1.39519E+05-1.06789E+03 6.94668E+03 2.42070E+03 1.32417E-09 5.40831E-09
 -1       262 1.44968E+05 7.98309E+03 1.70777E+04-1.21948E+04 2.41272E-10-1.00135E-09
 -1       263 1.36319E+05-6.91485E+03 2.69350E+04 2.93202E+03-6.81780E-10 1.47884E-09
 -1       264 1.66355E+05 5.16412E+04 7.39978E+04-1.36361E+04-3.57954E-09 9.70613E-09
 -1       265 1.18246E+05-4.46498E+04 1.04146E+05 3.86179E+03-1.30422E-09 2.77942E-09
 -1       266-3.58409E+04-1.67566E+04 8.41052E+04-8.87520E+01 1.81899E-11 4.33917E-09
 -1       267 4.15506E+04 1.95342E+04 5.94381E+04 1.02388E+02 4.27463E-11-1.40571E-08
 -1       268-5.57181E+03-2.76636E+03 2.20932E+04-1.30468E+01 4.18368E-11-1.21774E-08
 -1       269 6.57874E+03 3.31099E+03 1.43599E+04 1.51967E+01 2.50111E-11-2.30850E-09
 -1       270-9.87475E+02-5.44011E+02 6.93174E+03-2.06234E+00-1.63709E-11 1.96731E-09
 -1       271-3.50726E+06-4.38837E+05-2.69921E+05-1.36789E+06-4.51109E-10-3.12866E-09
 -1       272-3.58893E+06-6.50480E+05-1.73485E+05-1.38218E+06 2.37060E-09-3.49246E-09
 -1       273-3.55976E+06-5.04323E+05-6.37682E+04-1.35392E+06-9.96806E-10 7.07587E-09
 -1       274-3.52706E+06-5.70778E+05-3.56425E+04-1.40414E+06-8.58563E-10 1.55742E-08
 -1       275-3.56860E+06-5.09369E+05-1.48366E+04-1.34978E+06-1.77533E-09 3.97176E-09
 -1       276-3.51643E+06-5.65148E+05-7.85886E+03-1.41098E+06-2.66664E-09 7.32371E-10
 -1       277-3.57096E+06-5.08598E+05-3.84726E+03-1.34792E+06-8.75389E-10 1.82240E-09
 -1       278-3.51414E+06-5.65818E+05-2.78625E+03-1.41333E+06 9.38826E-10 3.82852E-09
 -1       279-3.57121E+06-5.08413E+05-2.98329E+03-1.34769E+06-5.48766E-10-3.45608E-10
 -1       280-3.51544E+06-5.65505E+05-5.46476E+03-1.41202E+06-4.57021E-11-9.45624E-09
 -1       281-3.56949E+06-5.09078E+05-1.00177E+04-1.34908E+06-6.88487E-10-4.09364E-09
 -1       282-3.52314E+06-5.68561E+05-2.38910E+04-1.40652E+06-2.29693E-09-2.64572E-09
 -1       283-3.56297E+06-5.06359E+05-4.27233E+04-1.35252E+06 1.73259E-10-5.85351E-09
 -1       284-3.56589E+06-6.20299E+05-1.16078E+05-1.38980E+06-2.20552E-10-1.21654E-08
 -1       285-3.52682E+06-4.63672E+05-1.80774E+05-1.36303E+06 1.80444E-09-3.81260E-09
 -1       301 1.44196E+04-1.74687E+04 1.10188E+05-4.48363E+04-5.74801E-10 1.04592E-10
 -1       302 1.55217E+04 1.03985E+04 7.88162E+04-6.60250E+04 1.21145E-09-1.08921E-08
 -1       303 8.64060E+02-7.44167E+03 7.14031E+04-4.49391E+04-9.78616E-10-9.65792E-09
 -1       304 2.78024E+04 2.18412E+04 1.18867E+05-6.57985E+04 1.25328E-09-1.86901E-09
 -1       305 2.74057E+04-2.86573E+04 1.98837E+05-4.49881E+04-6.76664E-10 7.75799E-09
 -1       306-3.92449E+06-4.58122E+05-2.98091E+05-1.53890E+06 9.60426E-10-9.16771E-09
 -1       307-4.08570E+06-7.01488E+05-2.03101E+05-1.47717E+06 1.75351E-09 1.71167E-08
 -1       308-3.99773E+06-5.45442E+05-7.02078E+04-1.50478E+06 8.54925E-11 2.35996E-08
 -1       309-3.99176E+06-6.09286E+05-4.23202E+04-1.52809E+06 1.18541E-09 4.30600E-09
 -1       310-4.01801E+06-5.48468E+05-1.64841E+04-1.48862E+06-1.36561E-09-6.74481E-09
 -1       311-3.96554E+06-6.08953E+05-9.49402E+03-1.55109E+06 2.98053E-09 6.97855E-09
 -1       312-4.02422E+06-5.45253E+05-4.64214E+03-1.48212E+06 7.30886E-10-1.63243E-09
 -1       313-3.96236E+06-6.08862E+05-4.16933E+03-1.55386E+06-1.74623E-09 9.52696E-11
 -1       314-4.02124E+06-5.48488E+05-5.11799E+03-1.48590E+06-1.11413E-10-6.08611E-09
 -1       315-3.97648E+06-5.97772E+05-1.05364E+04-1.53728E+06 2.93767E-10 5.24506E-09
 -1       316-4.00975E+06-5.56626E+05-1.88005E+04-1.49843E+06 3.46733E-09-1.99361E-09
 -1       317-4.01175E+06-5.93298E+05-4.80561E+04-1.50590E+06 6.60293E-10 1.01136E-09
 -1       318-3.98584E+06-5.53434E+05-7.97768E+04-1.51702E+06-5.00404E-09 8.93851E-09
 -1       319-4.11633E+06-7.01629E+05-2.31109E+05-1.45267E+06-3.88536E-09-1.12159E-08
 -1       320-3.90602E+06-4.50126E+05-3.38735E+05-1.55122E+06 9.26229E-09-1.84809E-09
 -1       336 4.96467E+02-7.70730E+05-4.20903E+03 9.78107E+02-6.90852E-09 6.81939E-09
 -1       337-1.53786E+03-7.71747E+05-4.65431E+03-2.48701E+03-1.28438E-08-4.63479E-09
 -1       338 3.34460E+02-7.70835E+05-5.98582E+03 1.50322E+03-8.77912E-09 3.70892E-09
 -1       339-6.20801E+03-7.74652E+05-1.31218E+04-3.52233E+03-1.63732E-08 8.27094E-09
 -1       340 4.17926E+03-7.67901E+05-2.02769E+04 2.00591E+03-1.09503E-08 2.28811E-08
 -1       406 1.25320E+01 2.44337E+05 4.09633E+02 1.74421E-02 5.24409E-10 7.01675E-10
 -1       407 1.39599E+02 2.44413E+05 8.70759E+02-8.08957E+00 2.96154E-11-2.62116E-09
 -1       408 4.44928E+02 2.44274E+05 1.73900E+03 8.22466E+00 4.42014E-10-1.77761E-09
 -1       409 1.87740E+03 2.44968E+05 3.91515E+03-7.90021E+01-1.38471E-10-6.45196E-09
 -1       410 5.39991E+03 2.43779E+05 7.99258E+03 7.37014E+01 5.76620E-10-3.55021E-09
 -1       521-7.36714E+06-7.74908E+05-5.67114E+05-2.72070E+06 3.60160E-10 9.89530E-10
 -1       522-7.08116E+06-1.58115E+06-3.49630E+05-3.07571E+06-2.87273E-08-1.22091E-08
 -1       523-7.58040E+06-7.77244E+05-1.31555E+05-2.48359E+06-9.81345E-10-1.16488E-08
 -1       524-6.87928E+06-1.54678E+06-7.24004E+04-3.37713E+06 2.37948E-08-3.01734E-08
 -1       525-7.60694E+06-7.76660E+05-2.94032E+04-2.44808E+06 2.16023E-08-1.71294E-08
 -1       526-6.89905E+06-1.42042E+06-4.18318E+03-3.23208E+06 2.54076E-08-1.00790E-08
 -1       527-7.53582E+06-9.20938E+05-2.67010E+04-2.61171E+06 1.41699E-08-2.02090E-09
 -1       528-7.12280E+06-1.09219E+06 2.03347E+04-2.79438E+06-2.86382E-08 1.00345E-08
 -1       529-7.34317E+06-1.13350E+06-3.22042E+04-2.85545E+06 1.45519E-11 7.05768E-09
 -1       530-7.56401E+06-7.08920E+05 2.83230E+03-2.38823E+06-5.14956E-09 1.82999E-08
 -1       531-7.11682E+06-1.28792E+06-3.49610E+04-3.03268E+06-2.72375E-08 1.95359E-09
 -1       532-7.90299E+06-5.19517E+05-7.10799E+04-2.20333E+06 2.92266E-08-3.43935E-08
 -1       533-7.04498E+06-1.29472E+06-1.24878E+05-3.07261E+06 1.23910E-08-5.59012E-08
 -1       534-7.89317E+06-8.10945E+05-3.52131E+05-2.23232E+06-1.66146E-08 3.48882E-08
 -1       535-7.11046E+06-1.01312E+06-5.54487E+05-2.98803E+06-1.07830E-08 2.78233E-08
 -1       536-1.05038E+05-1.75057E+04 4.03086E+04-6.44016E+02-1.01636E-09 7.09406E-10
 -1       537-8.60493E+04 2.02645E+04 2.87800E+04 2.02341E+01-8.93005E-09-5.12409E-09
 -1       538-9.83438E+04-2.75535E+03 1.03452E+04-2.49965E+02-9.11484E-11 5.84441E-09
 -1       539-9.39470E+04 3.18105E+03 6.74283E+03-8.15845E+02 4.37433E-09 5.38853E-09
 -1       540-9.71444E+04-4.36254E+02 2.55848E+03 1.92079E+02 4.14076E-10 2.79954E-09
 -1       541-9.55289E+04 4.93585E+02 1.64162E+03-1.63380E+03-1.34893E-09 6.09657E-09
 -1       542-9.67695E+04-6.47458E+01 5.54138E+02 5.67951E+02-1.08130E-10 6.48703E-09
 -1       543-9.61388E+04 4.44436E+01 2.79554E+02-2.25849E+03-4.95536E-10-2.32394E-09
 -1       544-9.65440E+04 1.95984E+01-1.16862E+02 8.16765E+02 6.32028E-11-5.00162E-09
 -1       545-9.65245E+04-1.91979E+02-5.27986E+02-2.59221E+03-8.25127E-10-6.74879E-09
 -1       546-9.63904E+04 1.76357E+02-1.03667E+03 9.01688E+02 2.99313E-10 2.67175E-09
 -1       547-9.70529E+04-1.28308E+03-2.63032E+03-2.58565E+03-2.46395E-09 3.03839E-09
 -1       548-9.60156E+04 1.10980E+03-4.24675E+03 8.10203E+02-3.40169E-09-4.43742E-09
 -1       549-9.99718E+04-8.17778E+03-1.15242E+04-2.23462E+03-1.71383E-09-3.94175E-09
 -1       550-9.34649E+04 7.06069E+03-1.64498E+04 5.50641E+02-9.86233E-11 1.19780E-09
 -1       551 8.69559E+03-3.98636E+05 2.08147E+04-6.75267E+05-3.00715E-08-2.93949E-09
 -1       552 1.91813E+04-4.01754E+05 2.77881E+04-9.61210E+05-2.26864E-08 1.53887E-08
 -1       553 1.30810E+04-4.06954E+05 4.31618E+04-6.72950E+05-3.68382E-08 1.27984E-08
 -1       554 4.15362E+04-3.90363E+05 9.17266E+04-9.62211E+05-2.25773E-08 8.63292E-09
 -1       555 3.97588E+04-4.24594E+05 1.64568E+05-6.73697E+05-3.82424E-08-5.19140E-09
 -1       556 6.10663E+04-1.29099E+05 4.37000E+04-1.68924E+05-1.38753E-08-4.40195E-09
 -1       557 1.13337E+05-1.72423E+05 2.29735E+04-2.11593E+05-1.78115E-08 1.26483E-08
 -1       558 6.08637E+04-1.34914E+05 9.26197E+03-1.63917E+05-1.93104E-08-1.04119E-08
 -1       559 1.06226E+05-1.78379E+05 4.71104E+03-2.14759E+05 1.67347E-09-2.32194E-09
 -1       560 5.92864E+04-1.33867E+05 1.93184E+03-1.64910E+05-1.73168E-09 5.06407E-09
 -1       561 1.03783E+05-1.77748E+05 1.03395E+03-2.16305E+05-5.82077E-09 1.27038E-08
 -1       562 5.80167E+04-1.33018E+05 3.85864E+02-1.65824E+05-2.44472E-09 1.66938E-09
 -1       563 1.02293E+05-1.77108E+05 2.49272E+02-2.17259E+05 3.90355E-09-5.57259E-09
 -1       564 5.72240E+04-1.32506E+05 8.73076E+01-1.66388E+05 6.19548E-09 3.87899E-09
 -1       565 1.01514E+05-1.76774E+05 5.90454E+01-2.17749E+05 4.09091E-09 4.37285E-09
 -1       566 5.69362E+04-1.32315E+05-1.54016E+01-1.66595E+05 3.59614E-09 3.23416E-09
 -1       567 1.01406E+05-1.76721E+05-9.92156E+01-2.17754E+05 1.08448E-08 1.05156E-08
 -1       568 5.71857E+04-1.32480E+05-3.00467E+02-1.66480E+05-7.76708E-10 1.52977E-09
 -1       569 1.01344E+05-1.76611E+05-7.03091E+02-2.16723E+05-1.68075E-09-3.34694E-10
 -1       570 5.84860E+04-1.33651E+05-1.51446E+03-1.66445E+05 2.66300E-09-3.09046E-09
 -1       571 1.77440E+05 6.45494E+03 9.56347E+03-4.50460E+04 4.29281E-10-5.22869E-09
 -1       572 1.78862E+05 2.24632E+03 4.68550E+03-4.93793E+04 5.17275E-10 3.94493E-09
 -1       573 1.78010E+05 5.36867E+02 2.08148E+03-4.49289E+04-8.10360E-10 3.03680E-09
 -1       574 1.78178E+05 1.76605E+02 1.04288E+03-4.95102E+04 5.01132E-10-5.60703E-09
 -1       575 1.78073E+05 2.64819E+01 4.91502E+02-4.49135E+04 1.57706E-09 1.88402E-09
 -1       576 1.78084E+05 9.70881E+00 2.50199E+02-4.95277E+04 1.78113E-09 2.19734E-09
 -1       577 1.78083E+05-8.44876E-01 1.23251E+02-4.49115E+04 7.39192E-10 6.24914E-09
 -1       578 1.78076E+05 1.16395E+00 6.72369E+01-4.95298E+04-1.38823E-09 6.33372E-09
 -1       579 1.78094E+05-2.90702E+00 4.11435E+01-4.49114E+04-2.94358E-09-1.82672E-09
 -1       580 1.78090E+05-4.60118E+00 3.84996E+01-4.95271E+04-3.28873E-09-1.21236E-09
 -1       581 1.78113E+05-9.94656E+00 5.22006E+01-4.49141E+04-2.53294E-09 3.62934E-09
 -1       582 1.78125E+05-2.81046E+00 9.95822E+01-4.95004E+04-2.50839E-09 9.28458E-09
 -1       583 1.78135E+05 2.06586E+01 1.90844E+02-4.49382E+04-9.74796E-09 3.58750E-09
 -1       584 1.78224E+05 1.68790E+02 4.28065E+02-4.92992E+04-2.02708E-08-2.46541E-09
 -1       585 1.78117E+05 5.45498E+02 8.69017E+02-4.51156E+04-9.42964E-09 3.26509E-09
 -1       586-2.12653E+03 5.83322E+04-2.81739E+03-1.53383E+05 4.52928E-10 2.51771E-09
 -1       587-4.43580E+02 5.79536E+04-2.94589E+02-1.68787E+05 7.07587E-10-7.19353E-10
 -1       588 6.16470E+02 5.80257E+04 2.05173E+03-1.53291E+05 2.94676E-10-8.55835E-10
 -1       589 3.03743E+03 5.91506E+04 5.94829E+03-1.68645E+05 5.44787E-10-6.68297E-09
 -1       590 8.70991E+03 5.73167E+04 1.27260E+04-1.53526E+05 1.91903E-10-1.01954E-09
 -1       591-3.89589E+04-1.10832E+04-1.28853E+04-2.01187E+04 4.36324E-09 7.96717E-10
 -1       592-4.01850E+04-1.42283E+04-6.97924E+03-2.34570E+04 8.76463E-09-6.86123E-09
 -1       593-4.02617E+04-1.01339E+04-2.90552E+03-2.10495E+04 3.10422E-09-4.67901E-09
 -1       594-3.83898E+04-1.23551E+04-1.44910E+03-2.35462E+04-1.32928E-09 4.75234E-09
 -1       595-4.03615E+04-1.01296E+04-6.65933E+02-2.10923E+04-3.50121E-09 4.26076E-09
 -1       596-3.82683E+04-1.22693E+04-3.39411E+02-2.35335E+04-2.64362E-09 4.81513E-09
 -1       597-4.03742E+04-1.01378E+04-1.86751E+02-2.10940E+04-1.74418E-09 3.29703E-09
 -1       598-3.82567E+04-1.22660E+04-1.53667E+02-2.35300E+04-4.98997E-09 1.83360E-09
 -1       599-4.03732E+04-1.01379E+04-2.00716E+02-2.10937E+04-1.15366E-08 1.15551E-09
 -1       600-3.82696E+04-1.22704E+04-3.76419E+02-2.35331E+04-2.35307E-08-1.32616E-09
 -1       601-4.03573E+04-1.01290E+04-7.44445E+02-2.10911E+04-1.31654E-08 4.10409E-10
 -1       602-3.84055E+04-1.23664E+04-1.62343E+03-2.35456E+04-9.25525E-10 7.71934E-10
 -1       603-4.02442E+04-1.01355E+04-3.25619E+03-2.10434E+04-3.50906E-09-2.20552E-09
 -1       604-4.04240E+04-1.44582E+04-7.82183E+03-2.34358E+04-6.37783E-11 2.38583E-09
 -1       605-3.87755E+04-1.12057E+04-1.44408E+04-2.00074E+04-8.04448E-10 3.13594E-09
 -1       606 2.51573E+04-8.54493E+03-1.53860E+04 2.46098E+04-4.81668E-09 2.01362E-09
 -1       607 2.25221E+04-2.75677E+03-7.66131E+03 2.76259E+04-1.12686E-09-2.80852E-09
 -1       608 2.40169E+04-4.65084E+02-3.43093E+03 2.44136E+04-7.27232E-09 4.79304E-10
 -1       609 2.37189E+04-1.20593E+02-1.73285E+03 2.78425E+04-2.17115E-08 7.62020E-09
 -1       610 2.38783E+04 2.25543E+01-8.27794E+02 2.43917E+04-1.43591E-08-1.21850E-09
 -1       611 2.38215E+04 3.43418E+01-4.17514E+02 2.78662E+04-8.03539E-09-4.40355E-09
 -1       612 2.38409E+04 3.65310E+01-1.99842E+02 2.43895E+04-1.18353E-08-1.34833E-10
 -1       613 2.38189E+04 4.21532E+01-9.11149E+01 2.78690E+04-2.35782E-08-9.82436E-09
 -1       614 2.38203E+04 3.74509E+01-2.55367E+01 2.43888E+04-1.25410E-08-5.33191E-10
 -1       615 2.38080E+04 4.72349E+01 2.82469E+01 2.78694E+04 7.78073E-10 9.53355E-09
 -1       616 2.38047E+04 4.27356E+01 9.38409E+01 2.43890E+04-6.41921E-09 2.46814E-09
 -1       617 2.38134E+04 7.09684E+01 2.17768E+02 2.78689E+04-2.04795E-09-9.34278E-10
 -1       618 2.37813E+04 1.08380E+02 4.40236E+02 2.43891E+04 4.32010E-11 1.01750E-09
 -1       619 2.39653E+04 4.13771E+02 9.89499E+02 2.78683E+04 2.98883E-10-5.36375E-09
 -1       620 2.36327E+04 1.15475E+03 1.98908E+03 2.43881E+04 6.94058E-10 1.12004E-09
 -1       621 2.98504E+02 1.92292E+05 2.60550E+03 6.74189E+03-2.60670E-10-8.08313E-10
 -1       622 3.42644E+02 1.92937E+05 2.22947E+03 9.84485E+03-1.60810E-10 2.49656E-10
 -1       623 1.40234E+01 1.92475E+05 2.58748E+03 6.71044E+03-1.84002E-10-1.88720E-09
 -1       624 1.17617E+03 1.93701E+05 4.93396E+03 9.87545E+03-2.46274E-10-4.47722E-09
 -1       625 1.18161E+03 1.91523E+05 8.58715E+03 6.71160E+03-2.54204E-10 4.72721E-09
 -1       626 1.59323E+05 4.41310E+04 3.18514E+03 8.61102E+04-2.79488E-09-3.45790E-09
 -1       627 1.57146E+05 4.57318E+04 1.53477E+03 8.95910E+04-7.18910E-09-1.52054E-08
 -1       628 1.59442E+05 4.26246E+04 6.48214E+02 8.65909E+04 3.19869E-09 7.33507E-09
 -1       629 1.56686E+05 4.53692E+04 3.17734E+02 8.97989E+04 3.02316E-09-1.40972E-10
 -1       630 1.59448E+05 4.25537E+04 1.46884E+02 8.66033E+04 1.03228E-09-2.27067E-09
 -1       631 1.56630E+05 4.53613E+04 7.90099E+01 8.98004E+04-3.11411E-09-5.04350E-09
 -1       632 1.59440E+05 4.25596E+04 5.21164E+01 8.65959E+04-2.61616E-09-1.02715E-08
 -1       633 1.56618E+05 4.53662E+04 5.82177E+01 8.97938E+04-1.64437E-09-7.79499E-09
 -1       634 1.59431E+05 4.25605E+04 9.42020E+01 8.65916E+04 4.47335E-09 1.54159E-09
 -1       635 1.56621E+05 4.53678E+04 1.91022E+02 8.97931E+04 2.86627E-09 7.75503E-09
 -1       636 1.59420E+05 4.25599E+04 3.85805E+02 8.65886E+04-3.20972E-09-3.27873E-10
 -1       637 1.56700E+05 4.54293E+04 8.47935E+02 8.97891E+04 8.15831E-10-3.19028E-09
 -1       638 1.59387E+05 4.27491E+04 1.74266E+03 8.65014E+04 1.14596E-10 2.76304E-09
 -1       639 1.57611E+05 4.67040E+04 4.12261E+03 8.95179E+04-4.05930E-09-3.72415E-09
 -1       640 1.59265E+05 4.65440E+04 8.55548E+03 8.48900E+04-2.63617E-09 2.56614E-09
 -1       656 4.30962E+04-1.09081E+06-1.04037E+05-3.66049E+02 1.47338E-09-4.76888E-10
 -1       657-5.69488E+04-1.13777E+06-8.60423E+04 7.04485E+03 8.51287E-10 3.87178E-09
 -1       658 1.36667E+04-1.10420E+06-5.28045E+04-1.36867E+03 1.17291E-09 2.03830E-09
 -1       659-6.10716E+04-1.13972E+06-9.14573E+04 7.71369E+03 4.36557E-11-4.90006E-09
 -1       660 4.72090E+04-1.08886E+06-1.13352E+05-1.03487E+03-1.84809E-09 3.64315E-09
 -1       661 1.53889E+05 1.67527E+04 1.47734E+04 6.01435E+04 3.14435E-09-1.55069E-09
 -1       662 1.61596E+05 2.83283E+04 9.95481E+03 5.75619E+04 3.71034E-09-1.03433E-08
 -1       663 1.56784E+05 2.14976E+04 3.48227E+03 5.93083E+04 3.81124E-09-8.01469E-09
 -1       664 1.58245E+05 2.27737E+04 2.08196E+03 5.85769E+04 1.83391E-09-1.38189E-09
 -1       665 1.57217E+05 2.21514E+04 8.21269E+02 5.91874E+04-2.19381E-09-6.91500E-10
 -1       666 1.57738E+05 2.20214E+04 4.78935E+02 5.87313E+04-5.20622E-09-2.79424E-10
 -1       667 1.57289E+05 2.22302E+04 2.52527E+02 5.91612E+04-2.66169E-09-4.36783E-09
 -1       668 1.57661E+05 2.19586E+04 2.52997E+02 5.87687E+04 1.99328E-09-3.53531E-11
 -1       669 1.57293E+05 2.22124E+04 3.39016E+02 5.91507E+04 1.77252E-09-1.73699E-10
 -1       670 1.57748E+05 2.21368E+04 7.34901E+02 5.87668E+04 7.14957E-09-4.60490E-09
 -1       671 1.57203E+05 2.20555E+04 1.30379E+03 5.91616E+04 1.97282E-10 6.52625E-09
 -1       672 1.58509E+05 2.34034E+04 3.33484E+03 5.85815E+04-4.74367E-09 3.78651E-09
 -1       673 1.56536E+05 2.09777E+04 5.58835E+03 5.93239E+04-2.42937E-09-4.15230E-09
 -1       674 1.63831E+05 3.23786E+04 1.59816E+04 5.70155E+04 2.77061E-09-2.68483E-09
 -1       675 1.51916E+05 1.33313E+04 2.37215E+04 6.06330E+04 2.64208E-09-8.73843E-09
 -1       676 1.75404E+01-2.09243E+05-8.14294E+02 3.66337E+01 1.15128E-09 5.28021E-09
 -1       677-2.16119E+02-2.09440E+05-1.49024E+03-7.32351E+01-2.35715E-09 4.71877E-09
 -1       678 1.44351E+02-2.09103E+05-2.63435E+03 3.65761E+01-5.08635E-10 5.13855E-09
 -1       679-2.63484E+03-2.11030E+05-6.25785E+03-7.30086E+01-4.46823E-09-4.08624E-09
 -1       680 1.57250E+03-2.07653E+05-1.00856E+04 3.59880E+01-4.84761E-10 2.18122E-09
 -1       771-2.24591E+06-3.98066E+05-5.57069E+04-9.36909E+05-8.82574E-09-9.19681E-09
 -1       772-2.23052E+06-4.28586E+05-2.98033E+04-9.71007E+05-6.98856E-09-1.27966E-09
 -1       773-2.25381E+06-3.91908E+05-1.30287E+04-9.40009E+05-2.82307E-09 3.45244E-09
 -1       774-2.22264E+06-4.22195E+05-6.29715E+03-9.74926E+05 9.47330E-09-1.87356E-09
 -1       775-2.25588E+06-3.90531E+05-3.30767E+03-9.40270E+05-2.30648E-09 3.76531E-10
 -1       776-2.22265E+06-4.22280E+05-1.49094E+03-9.77176E+05-2.19734E-09 1.82081E-09
 -1       777-2.25738E+06-3.89436E+05-1.00671E+03-9.40428E+05 2.91038E-10 1.60435E-09
 -1       778-2.22311E+06-4.22540E+05-4.19861E+02-9.79057E+05-5.71163E-10 3.81624E-09
 -1       779-2.25858E+06-3.88504E+05-4.52452E+02-9.40572E+05-1.20781E-09-2.30557E-09
 -1       780-2.22358E+06-4.22750E+05-3.01525E+02-9.80580E+05-3.40151E-10 2.37378E-10
 -1       781-2.25950E+06-3.87761E+05-5.48051E+02-9.40681E+05-8.51287E-09-1.46883E-09
 -1       782-2.22402E+06-4.22945E+05-9.26443E+02-9.81701E+05-9.68612E-09-3.33034E-09
 -1       783-2.26007E+06-3.87269E+05-1.86037E+03-9.40740E+05-1.90630E-09-4.46551E-09
 -1       784-2.22536E+06-4.24209E+05-4.37558E+03-9.82334E+05-4.94038E-09-3.57431E-10
 -1       785-2.25958E+06-3.87601E+05-8.09782E+03-9.40191E+05-1.04947E-08 1.29512E-09
 -1       786 1.62575E+05-8.72630E+03 2.01884E+04-9.46104E+00 9.76088E-07 3.08955E-09
 -1       787 1.71323E+05 1.01024E+04 1.42829E+04 2.24602E+00 1.94416E-06 3.15413E-09
 -1       788 1.65950E+05-1.36795E+03 5.22528E+03-4.80310E+00 2.04443E-06-2.07592E-09
 -1       789 1.67391E+05 1.58280E+03 3.28308E+03-6.66994E+00 2.14113E-06 9.13337E-09
 -1       790 1.66507E+05-2.13694E+02 1.33587E+03-5.45287E-01 2.36708E-06-5.23198E-09
 -1       791 1.66741E+05 2.48276E+02 7.84289E+02-1.61091E+01 2.59545E-06 1.66586E-08
 -1       792 1.66600E+05-3.44318E+01 3.57873E+02 4.63620E+00 3.16915E-06-1.29504E-08
 -1       793 1.66636E+05 4.83175E+01 2.34355E+02-2.88400E+01 3.73785E-06 1.45099E-09
 -1       794 1.66612E+05-1.38679E+01 1.73363E+02 1.21859E+01 1.87035E-06-1.45245E-08
 -1       795 1.66646E+05 7.14586E+01 2.50429E+02-4.83762E+01 6.16291E-09 5.85149E-09
 -1       796 1.66590E+05-5.75560E+01 3.74909E+02 2.41727E+01 3.48330E-10-2.18293E-09
 -1       797 1.66816E+05 4.21919E+02 8.83825E+02-8.00772E+01-9.37230E-10-2.56679E-09
 -1       798 1.66442E+05-3.64070E+02 1.39499E+03 4.38874E+01 1.66381E-10 5.80820E-09
 -1       799 1.67863E+05 2.68819E+03 3.80302E+03-1.32934E+02-2.37714E-10 1.54643E-09
 -1       800 1.65543E+05-2.32200E+03 5.37191E+03 7.70302E+01 1.81329E-10 7.99719E-09
 -1       801-4.95802E+03-1.74013E+05-5.28656E+03 1.88679E+04 1.00326E-08-5.67957E-09
 -1       802 1.77325E+04-7.37926E+04 3.86464E+04-7.27913E+04 2.71589E-08-2.25947E-09
 -1       803-1.19117E+04-1.31427E+05 5.40423E+04 2.11366E+04 2.14277E-08 1.36617E-08
 -1       804 1.12391E+05-1.93313E+04 1.63098E+05-7.31021E+04 2.52512E-08 2.28026E-08
 -1       805-9.97372E+04-2.28111E+05 2.02651E+05 1.91747E+04 8.90577E-09 2.26578E-08
 -1       806-1.95783E+05-4.15710E+04-1.66248E+04-8.13026E+04-8.16044E-10 3.90082E-09
 -1       807-1.96804E+05-3.93199E+04-8.18623E+03-8.56802E+04-4.76268E-09-5.37472E-09
 -1       808-1.96289E+05-3.57063E+04-3.47331E+03-8.40767E+04-1.33741E-09 5.37824E-10
 -1       809-1.95051E+05-3.70764E+04-1.69881E+03-8.58990E+04-5.01359E-11 2.44586E-09
 -1       810-1.96363E+05-3.55068E+04-7.78281E+02-8.41964E+04-1.24655E-08 1.75828E-09
 -1       811-1.94918E+05-3.69893E+04-3.86076E+02-8.58779E+04-2.73149E-08 6.09680E-09
 -1       812-1.96376E+05-3.55231E+04-1.92903E+02-8.41958E+04-8.38827E-09 4.20823E-09
 -1       813-1.94900E+05-3.69916E+04-1.22048E+02-8.58671E+04 1.04737E-08-5.13955E-09
 -1       814-1.96374E+05-3.55291E+04-1.15075E+02-8.41932E+04 4.51837E-09-4.46494E-09
 -1       815-1.94902E+05-3.69936E+04-1.80654E+02-8.58638E+04-4.81577E-10-2.62003E-09
 -1       816-1.96362E+05-3.55278E+04-3.38921E+02-8.41908E+04-3.41515E-09-8.27322E-09
 -1       817-1.94959E+05-3.70250E+04-7.26360E+02-8.58578E+04-2.38879E-09-4.80668E-10
 -1       818-1.96318E+05-3.56243E+04-1.47978E+03-8.41443E+04 5.60885E-09 1.01331E-08
 -1       819-1.95776E+05-3.79020E+04-3.48188E+03-8.56685E+04 1.73804E-09-6.38420E-09
 -1       820-1.96023E+05-3.81897E+04-7.07008E+03-8.30424E+04 3.52884E-10-5.65478E-10
 -1       821-2.51295E+05 1.38969E+04-3.21390E+04 8.87692E+01-3.02422E-10 1.64255E-09
 -1       822-2.65223E+05-1.60880E+04-2.27430E+04-6.17835E+02-2.11432E-09 2.94040E-09
 -1       823-2.56671E+05 2.17869E+03-8.32410E+03 5.83153E+01 1.00652E-09 3.44289E-09
 -1       824-2.58955E+05-2.52175E+03-5.23750E+03-4.73419E+02 2.31743E-10 6.75078E-09
 -1       825-2.57562E+05 3.40956E+02-2.15286E+03-5.56505E+01-2.73273E-09-6.79233E-09
 -1       826-2.57918E+05-4.02132E+02-1.29942E+03-2.06912E+02-4.75195E-09-4.95584E-09
 -1       827-2.57707E+05 6.04758E+01-6.73006E+02-2.08197E+02-4.26965E-09-4.06763E-09
 -1       828-2.57778E+05-1.22725E+02-5.94767E+02 7.87565E+01-4.88146E-09-4.33539E-09
 -1       829-2.57702E+05 6.18053E+01-6.83209E+02-3.41325E+02 2.85208E-10-1.05899E-10
 -1       830-2.57937E+05-4.12619E+02-1.33403E+03 2.74985E+02 1.89862E-09-2.42261E-09
 -1       831-2.57549E+05 3.50348E+02-2.20929E+03-4.04429E+02-2.36377E-09-1.39835E-11
 -1       832-2.58999E+05-2.59100E+03-5.38363E+03 3.07764E+02-8.04783E-10-7.42489E-09
 -1       833-2.56641E+05 2.23865E+03-8.55496E+03-3.74103E+02-1.11896E-09-1.48566E-09
 -1       834-2.65426E+05-1.65335E+04-2.33733E+04 1.66868E+02-2.14770E-11 6.22094E-09
 -1       835-2.51123E+05 1.42820E+04-3.30336E+04-2.63524E+02 6.99726E-09 4.58385E-10
 -1       836-8.30124E+02 2.35657E+05 1.42127E+04-2.05044E+04 1.53432E-09-1.35924E-09
 -1       837 3.13232E+03 2.40056E+05 1.21376E+04-4.11760E+04 2.44268E-09-5.54360E-09
 -1       838-3.03595E+02 2.36879E+05 1.25205E+04-2.04346E+04 2.06182E-09 7.79528E-09
 -1       839 8.04236E+03 2.43716E+05 2.38361E+04-4.12019E+04 2.75804E-09 4.19286E-09
 -1       840-2.41457E+03 2.31963E+05 3.80723E+04-2.04770E+04 1.87538E-09-3.13867E-09
 -1       856-7.70807E+04 6.65086E+03-1.75266E+04-3.92839E+02-2.88742E-09 3.12502E-09
 -1       857-8.43209E+04-7.80034E+03-1.20668E+04 3.99574E+03-2.98839E-09 7.03039E-10
 -1       858-7.99411E+04 9.31892E+02-4.54867E+03-4.10408E+02-4.96408E-09 2.60980E-09
 -1       859-8.10358E+04-1.08333E+03-2.74728E+03 4.02377E+03-1.01231E-09 2.26311E-09
 -1       860-8.03688E+04 1.29586E+02-1.15516E+03-4.21003E+02 6.99046E-10-2.23912E-09
 -1       861-8.05431E+04-1.42987E+02-6.43465E+02 4.03825E+03-5.14210E-09-3.50349E-09
 -1       862-8.04354E+04 1.71587E+01-2.83495E+02-4.24915E+02 4.05643E-09-6.03283E-09
 -1       863-8.04644E+04-1.03192E+01-1.39624E+02 4.03998E+03 8.09285E-09-4.90436E-09
 -1       864-8.04477E+04-1.71917E-01-4.26920E+01-4.22739E+02 5.17737E-09-6.36101E-09
 -1       865-8.04411E+04 2.06817E+01 2.94030E+01 4.02905E+03 6.00113E-09-1.91439E-09
 -1       866-8.04574E+04-1.42234E+01 1.01309E+02-4.13982E+02-2.14297E-09-2.82702E-09
 -1       867-8.03824E+04 1.19309E+02 2.76306E+02 4.00530E+03 3.84944E-10-7.05342E-10
 -1       868-8.05037E+04-9.81631E+01 4.65680E+02-3.98989E+02-1.14881E-10 2.67781E-09
 -1       869-8.00332E+04 8.14151E+02 1.24979E+03 3.96595E+03-1.69666E-09-2.36810E-10
 -1       870-8.08026E+04-6.91859E+02 1.81250E+03-3.74630E+02 1.70763E-09-1.50669E-09
 -1       871-3.65902E+03-7.41306E+03-1.18545E+04 7.78100E+04 2.38470E-09-3.59978E-09
 -1       872-1.59659E+03-1.00639E+04-4.82602E+03 1.00875E+05 4.47335E-09-4.03111E-09
 -1       873-4.40044E+01-8.82639E+03 7.06133E+02 7.76384E+04 1.50817E-09-3.49007E-09
 -1       874 1.81938E+03-7.09187E+03 6.76150E+03 1.00911E+05 4.96811E-09 8.99183E-09
 -1       875 4.32835E+03-1.04307E+04 1.49835E+04 7.77809E+04 8.49468E-10-3.47154E-09
 -1       876 1.94438E+05 3.35182E+04 1.04055E+04 7.89036E+04-4.27474E-09-3.48336E-10
 -1       877 1.95030E+05 3.58051E+04 5.55676E+03 8.19838E+04-3.71267E-09 3.89946E-10
 -1       878 1.95411E+05 3.23664E+04 2.32803E+03 7.97582E+04 3.41038E-09 5.35306E-09
 -1       879 1.93615E+05 3.43955E+04 1.15969E+03 8.20577E+04 8.35598E-11 2.43111E-09
 -1       880 1.95482E+05 3.23535E+04 5.39911E+02 7.97930E+04 8.30369E-10-5.26256E-09
 -1       881 1.93521E+05 3.43357E+04 2.87553E+02 8.20432E+04 5.62068E-09 1.20735E-09
 -1       882 1.95489E+05 3.23619E+04 1.82662E+02 7.97940E+04 9.76945E-09 6.69380E-09
 -1       883 1.93514E+05 3.43329E+04 1.94260E+02 8.20391E+04 6.62180E-09 1.22354E-08
 -1       884 1.95485E+05 3.23597E+04 3.07120E+02 7.97941E+04 1.57860E-09 3.91276E-09
 -1       885 1.93538E+05 3.43373E+04 6.16295E+02 8.20468E+04 5.12043E-09 9.38894E-09
 -1       886 1.95461E+05 3.23417E+04 1.24157E+03 7.97917E+04 3.65648E-09 4.28179E-09
 -1       887 1.93757E+05 3.44803E+04 2.71186E+03 8.20782E+04-6.54117E-09-4.85443E-10
 -1       888 1.95290E+05 3.23720E+04 5.46445E+03 7.97049E+04 8.01890E-10 5.75710E-10
 -1       889 1.97013E+05 3.78608E+04 1.30542E+04 8.19747E+04 2.67514E-09-1.19144E-09
 -1       890 1.93063E+05 3.50166E+04 2.44494E+04 7.76203E+04 3.57613E-09 3.47154E-09
 -1       891-1.23202E+02-1.10543E+05-1.30391E+03 2.10204E+04-3.72665E-10-2.59888E-09
 -1       892-2.13980E+02-1.10854E+05-1.41900E+03 3.18073E+04-2.09502E-09-9.86802E-11
 -1       893-3.64342E+01-1.10584E+05-2.02823E+03 2.10244E+04 3.87104E-09 2.03272E-09
 -1       894-1.11202E+03-1.11633E+05-4.21175E+03 3.16943E+04-5.31827E-10 3.74553E-09
 -1       895-8.68447E+02-1.09708E+05-7.42198E+03 2.11318E+04-4.72141E-10 1.89220E-09
 -1       956-2.44352E+05-3.48460E+03-8.77768E+03 1.59793E+04-3.22871E-09 6.05098E-09
 -1       957-2.46085E+05-1.17383E+03-4.50617E+03 1.92432E+04-2.08229E-09 2.37480E-09
 -1       958-2.45130E+05-9.17394E+01-2.03012E+03 1.58752E+04 3.59478E-09-2.19666E-09
 -1       959-2.45268E+05-1.40283E+01-1.03699E+03 1.93556E+04-1.73623E-09 2.60547E-09
 -1       960-2.45199E+05 3.08917E+01-5.05488E+02 1.58654E+04-5.30281E-09-3.42197E-10
 -1       961-2.45208E+05 2.93680E+01-2.68136E+02 1.93668E+04-7.67000E-09-2.73474E-09
 -1       962-2.45213E+05 2.71344E+01-1.53314E+02 1.58639E+04-2.21689E-09-3.67299E-09
 -1       963-2.45205E+05 3.03240E+01-1.22769E+02 1.93687E+04-3.73484E-09 9.04299E-09
 -1       964-2.45215E+05 2.88079E+01-1.48635E+02 1.58634E+04-3.21268E-09 3.00884E-09
 -1       965-2.45214E+05 3.30168E+01-2.56496E+02 1.93688E+04 7.87495E-11-4.90718E-09
 -1       966-2.45208E+05 3.58363E+01-4.81258E+02 1.58639E+04-7.17853E-09-3.83443E-09
 -1       967-2.45278E+05-4.69219E+00-9.86963E+02 1.93628E+04-7.11862E-09-2.02840E-09
 -1       968-2.45148E+05-7.74788E+01-1.93134E+03 1.58695E+04-2.76941E-09 3.83110E-09
 -1       969-2.46062E+05-1.10528E+03-4.28817E+03 1.92962E+04-2.54659E-11-6.00238E-10
 -1       970-2.44411E+05-3.30409E+03-8.35234E+03 1.59329E+04-1.30058E-10 1.83627E-09
 -1       971-2.32084E+05-1.22656E+03-6.83106E+03 1.13520E+04-5.03314E-09-2.75531E-09
 -1       972-2.33746E+05-8.78327E+02-3.72028E+03 1.58587E+04-3.61410E-09-2.56023E-09
 -1       973-2.32843E+05-6.26610E+00-1.66572E+03 1.12574E+04-1.27329E-09 2.57103E-09
 -1       974-2.32959E+05-5.93277E+00-8.62938E+02 1.59605E+04 2.77259E-09 1.05808E-09
 -1       975-2.32901E+05 2.51816E+01-4.30216E+02 1.12491E+04 2.23554E-09 4.53497E-10
 -1       976-2.32911E+05 2.93669E+01-2.46307E+02 1.59705E+04-2.40721E-09 1.79239E-09
 -1       977-2.32912E+05 2.46409E+01-1.75279E+02 1.12473E+04 2.90538E-09-1.30319E-09
 -1       978-2.32913E+05 3.30630E+01-2.00416E+02 1.59730E+04 1.04826E-08-4.95208E-09
 -1       979-2.32911E+05 2.98769E+01-3.17920E+02 1.12466E+04 5.06236E-09 5.67218E-09
 -1       980-2.32937E+05 3.49487E+01-6.11303E+02 1.59733E+04 3.99262E-09 4.46283E-09
 -1       981-2.32892E+05 4.51133E+01-1.18257E+03 1.12469E+04 6.53711E-09 3.68470E-09
 -1       982-2.33099E+05-5.22081E+01-2.44358E+03 1.59687E+04 8.65555E-09-9.80883E-10
 -1       983-2.32743E+05-3.02698E+01-4.74742E+03 1.12514E+04 4.51269E-09 2.43040E-09
 -1       984-2.35383E+05-2.53101E+03-1.06310E+04 1.59047E+04-1.76010E-09 1.72156E-09
 -1       985-2.30595E+05-3.50384E+03-1.95220E+04 1.13155E+04 3.12548E-09 1.26238E-09
 -3
    1PSTEP                         9           5           1          
  100CL  105 5.03906E-01         409                     0    5           1
 -4  DISP        4    1
 -5  D1          1    2    1    0
 -5  D2          1    2    2    0
 -5  D3          1    2    3    0
 -5  ALL         1    2    0    0    1ALL
 -1         1 1.53000E-04 0.00000E+00 0.00000E+00
 -1         2 1.37940E-04-1.26172E-30 0.00000E+00
 -1         3 1.35481E-04 1.27808E-27-6.61744E-24
 -1         5 9.22418E-05-4.31275E-27 0.00000E+00
 -1         8 1.28014E-04-8.82721E-07 0.00000E+00
 -1         9 1.25464E-04-6.63499E-08 0.00000E+00
 -1        10 1.25017E-04-1.83225E-06 1.32349E-23
 -1        12 9.18451E-05 5.52901E-07 1.65436E-24
 -1        15 9.82311E-05-9.77850E-07 0.00000E+00
 -1        16 1.02027E-04-2.43770E-07 0.00000E+00
 -1        17 9.17531E-05-3.88814E-06 0.00000E+00
 -1        18 8.95763E-05 2.53220E-06 0.00000E+00
 -1        19 9.06552E-05 1.10283E-06 0.00000E+00
 -1        20 9.07945E-05 1.41597E-05 0.00000E+00
 -1        21 9.02474E-05 2.62928E-05 1.65436E-24
 -1        24 2.04412E-05-5.36823E-06 0.00000E+00
 -1        25 8.86733E-05 2.66201E-06 0.00000E+00
 -1        26 8.96137E-05 1.53294E-06 0.00000E+00
 -1        27 8.80725E-05 1.16968E-05 0.00000E+00
 -1        28 8.76072E-05 2.58235E-05 0.00000E+00
 -1        32 0.00000E+00 0.00000E+00 0.00000E+00
 -1        33 8.73054E-05 2.05258E-06 0.00000E+00
 -1        34 8.58232E-05 1.16745E-05 0.00000E+00
 -1        35 8.44195E-05 2.55748E-05 0.00000E+00
 -1        51 1.51378E-04-1.45897E-07 0.00000E+00
 -1        52 1.48368E-04-2.86902E-07 0.00000E+00
 -1        53 1.44243E-04-4.29288E-07 0.00000E+00
 -1        54 1.39287E-04-5.74626E-07 0.00000E+00
 -1        55 1.33782E-04-7.23718E-07-6.46235E-24
 -1        56 1.51637E-04-8.02422E-07 0.00000E+00
 -1        57 1.50397E-04-2.08815E-06 1.32349E-23
 -1        58 1.49286E-04-3.71240E-06 0.00000E+00
 -1        59 1.48242E-04-5.54271E-06 0.00000E+00
 -1        60 1.47218E-04-7.42446E-06 0.00000E+00
 -1        61 1.46153E-04-9.20492E-06 2.64698E-23
 -1        62 1.44996E-04-1.07379E-05 0.00000E+00
 -1        63 1.43695E-04-1.18865E-05 2.64698E-23
 -1        64 1.42209E-04-1.25414E-05 0.00000E+00
 -1        65 1.40503E-04-1.26106E-05 0.00000E+00
 -1        66 1.38558E-04-1.20442E-05 0.00000E+00
 -1        67 1.36366E-04-1.08147E-05 2.64698E-23
 -1        68 1.33931E-04-8.94249E-06 0.00000E+00
 -1        69 1.31277E-04-6.46785E-06 0.00000E+00
 -1        70 1.28426E-04-3.48034E-06 0.00000E+00
 -1        86 1.37592E-04-3.57566E-09 8.27181E-25
 -1        87 1.36550E-04-8.15044E-09 0.00000E+00
 -1        88 1.34815E-04-1.37284E-08 0.00000E+00
 -1        89 1.32387E-04-2.40575E-08 1.65436E-24
 -1        90 1.29269E-04-3.50854E-08 0.00000E+00
 -1       121 1.35188E-04-3.03363E-07 0.00000E+00
 -1       122 1.34312E-04-6.07060E-07-3.30872E-24
 -1       123 1.32853E-04-9.11423E-07-6.61744E-24
 -1       124 1.30814E-04-1.21683E-06 3.30872E-24
 -1       125 1.28200E-04-1.52350E-06 6.61744E-24
 -1       191 9.22308E-05 9.21562E-08 0.00000E+00
 -1       192 9.21977E-05 1.84311E-07 0.00000E+00
 -1       193 9.21426E-05 2.76465E-07-3.30872E-24
 -1       194 9.20655E-05 3.68616E-07-1.65436E-24
 -1       195 9.19663E-05 4.60762E-07 0.00000E+00
 -1       251 1.27842E-04 3.39893E-06 6.61744E-24
 -1       252 1.27681E-04 6.31814E-06-3.30872E-24
 -1       253 1.27523E-04 7.94420E-06 0.00000E+00
 -1       254 1.27368E-04 8.35445E-06 0.00000E+00
 -1       255 1.27212E-04 7.72217E-06 0.00000E+00
 -1       256 1.27056E-04 6.22724E-06 0.00000E+00
 -1       257 1.26899E-04 4.11753E-06 0.00000E+00
 -1       258 1.26741E-04 1.64479E-06 3.30872E-24
 -1       259 1.26583E-04-9.10667E-07 6.61744E-24
 -1       260 1.26425E-04-3.26796E-06 0.00000E+00
 -1       261 1.26268E-04-5.16181E-06-6.61744E-24
 -1       262 1.26112E-04-6.32995E-06-3.30872E-24
 -1       263 1.25956E-04-6.56723E-06 0.00000E+00
 -1       264 1.25798E-04-5.67442E-06-3.30872E-24
 -1       265 1.25639E-04-3.54153E-06 6.61744E-24
 -1       266 1.23051E-04-9.10646E-07 0.00000E+00
 -1       267 1.18087E-04-9.25030E-07 1.65436E-24
 -1       268 1.13123E-04-9.40271E-07 0.00000E+00
 -1       269 1.08159E-04-9.52972E-07-4.13590E-25
 -1       270 1.03195E-04-9.65613E-07 0.00000E+00
 -1       271 1.25017E-04 2.93474E-06 0.00000E+00
 -1       272 1.22421E-04 5.55550E-06-1.32349E-23
 -1       273 1.20234E-04 7.09909E-06 0.00000E+00
 -1       274 1.18400E-04 7.68398E-06 2.64698E-23
 -1       275 1.16873E-04 7.45212E-06 0.00000E+00
 -1       276 1.15592E-04 6.55748E-06 2.64698E-23
 -1       277 1.14497E-04 5.16715E-06-5.29396E-23
 -1       278 1.13522E-04 3.45675E-06 0.00000E+00
 -1       279 1.12598E-04 1.60802E-06-5.29396E-23
 -1       280 1.11657E-04-1.94804E-07-2.64698E-23
 -1       281 1.10630E-04-1.76848E-06 0.00000E+00
 -1       282 1.09452E-04-2.93371E-06 0.00000E+00
 -1       283 1.08057E-04-3.51919E-06 5.29396E-23
 -1       284 1.06388E-04-3.36228E-06 0.00000E+00
 -1       285 1.04385E-04-2.31797E-06 0.00000E+00
 -1       301 1.21245E-04-1.06698E-07 6.61744E-24
 -1       302 1.17070E-04-1.28331E-07 0.00000E+00
 -1       303 1.12999E-04-1.48789E-07 6.61744E-24
 -1       304 1.09094E-04-1.69858E-07-3.30872E-24
 -1       305 1.05417E-04-1.92380E-07 1.32349E-23
 -1       306 1.22474E-04 2.24121E-06-2.64698E-23
 -1       307 1.20297E-04 2.20807E-06 2.64698E-23
 -1       308 1.18947E-04-1.99957E-08 0.00000E+00
 -1       309 1.18311E-04-4.20030E-06 0.00000E+00
 -1       310 1.18177E-04-9.73403E-06 0.00000E+00
 -1       311 1.18292E-04-1.59488E-05-2.64698E-23
 -1       312 1.18364E-04-2.20492E-05 0.00000E+00
 -1       313 1.18103E-04-2.72474E-05-2.64698E-23
 -1       314 1.17274E-04-3.09162E-05 5.29396E-23
 -1       315 1.15674E-04-3.25164E-05 0.00000E+00
 -1       316 1.13235E-04-3.18790E-05 5.29396E-23
 -1       317 1.09937E-04-2.89618E-05-2.64698E-23
 -1       318 1.05912E-04-2.41292E-05 5.29396E-23
 -1       319 1.01348E-04-1.78489E-05-2.64698E-23
 -1       320 9.65053E-05-1.08552E-05-2.64698E-23
 -1       336 1.21195E-04-2.16712E-06-6.61744E-24
 -1       337 1.16667E-04-2.50526E-06 0.00000E+00
 -1       338 1.11444E-04-2.84656E-06 0.00000E+00
 -1       339 1.05541E-04-3.19097E-06 0.00000E+00
 -1       340 9.89713E-05-3.53941E-06 0.00000E+00
 -1       406 9.17019E-05 6.45026E-07 0.00000E+00
 -1       407 9.15365E-05 7.37117E-07 1.65436E-24
 -1       408 9.13492E-05 8.29150E-07 0.00000E+00
 -1       409 9.11398E-05 9.21009E-07 1.65436E-24
 -1       410 9.09084E-05 1.01252E-06-3.30872E-24
 -1       521 1.03561E-04-1.34774E-05 0.00000E+00
 -1       522 1.15256E-04-5.63738E-05-5.29396E-23
 -1       523 1.34185E-04-1.21817E-04 1.05879E-22
 -1       524 1.57132E-04-2.00711E-04 0.00000E+00
 -1       525 1.80481E-04-2.80969E-04 0.00000E+00
 -1       526 2.00601E-04-3.50379E-04 0.00000E+00
 -1       527 2.14208E-04-3.99158E-04 0.00000E+00
 -1       528 2.18119E-04-4.19354E-04 0.00000E+00
 -1       529 2.10774E-04-4.09213E-04 1.05879E-22
 -1       530 1.91488E-04-3.69510E-04 5.29396E-23
 -1       531 1.62415E-04-3.07138E-04 0.00000E+00
 -1       532 1.26932E-04-2.30681E-04 0.00000E+00
 -1       533 9.02084E-05-1.51540E-04 0.00000E+00
 -1       534 5.76079E-05-8.12879E-05-5.29396E-23
 -1       535 3.32935E-05-2.97608E-05 0.00000E+00
 -1       536 9.16035E-05 4.54502E-06-6.61744E-24
 -1       537 9.14430E-05 1.47538E-05 0.00000E+00
 -1       538 9.12762E-05 2.55711E-05-3.30872E-24
 -1       539 9.11160E-05 3.58273E-05 0.00000E+00
 -1       540 9.09701E-05 4.44777E-05 0.00000E+00
 -1       541 9.08430E-05 5.04853E-05 0.00000E+00
 -1       542 9.07289E-05 5.34038E-05 0.00000E+00
 -1       543 9.06188E-05 5.28022E-05 0.00000E+00
 -1       544 9.05023E-05 4.90347E-05 3.30872E-24
 -1       545 9.03719E-05 4.24713E-05 0.00000E+00
 -1       546 9.02290E-05 3.41067E-05 0.00000E+00
 -1       547 9.00796E-05 2.49443E-05 0.00000E+00
 -1       548 8.99335E-05 1.61661E-05 0.00000E+00
 -1       549 8.98005E-05 8.95259E-06 0.00000E+00
 -1       550 8.96806E-05 4.13494E-06 8.27181E-25
 -1       551 8.23433E-05-4.10630E-06 0.00000E+00
 -1       552 7.11239E-05-4.33820E-06-1.65436E-24
 -1       553 5.87051E-05-4.58296E-06 1.65436E-24
 -1       554 4.57061E-05-4.83681E-06 0.00000E+00
 -1       555 3.27464E-05-5.09294E-06 0.00000E+00
 -1       556 8.92361E-05 2.62955E-06 0.00000E+00
 -1       557 8.72907E-05 7.67720E-06 0.00000E+00
 -1       558 8.58554E-05 1.13862E-05 0.00000E+00
 -1       559 8.48744E-05 1.38985E-05 0.00000E+00
 -1       560 8.42920E-05 1.53560E-05 0.00000E+00
 -1       561 8.40532E-05 1.59012E-05 0.00000E+00
 -1       562 8.41034E-05 1.56770E-05 0.00000E+00
 -1       563 8.43883E-05 1.48265E-05 0.00000E+00
 -1       564 8.48541E-05 1.34928E-05-6.61744E-24
 -1       565 8.54470E-05 1.18192E-05 1.65436E-24
 -1       566 8.61133E-05 9.94894E-06 0.00000E+00
 -1       567 8.67994E-05 8.02548E-06-3.10193E-25
 -1       568 8.74519E-05 6.19214E-06 0.00000E+00
 -1       569 8.80173E-05 4.59214E-06 0.00000E+00
 -1       570 8.84419E-05 3.36871E-06 0.00000E+00
 -1       571 8.96418E-05 2.47429E-06 0.00000E+00
 -1       572 8.97087E-05 2.37232E-06-8.27181E-25
 -1       573 8.97761E-05 2.23444E-06-8.27181E-25
 -1       574 8.98436E-05 2.06921E-06 8.27181E-25
 -1       575 8.99112E-05 1.88526E-06 0.00000E+00
 -1       576 8.99789E-05 1.69124E-06 0.00000E+00
 -1       577 9.00465E-05 1.49581E-06 0.00000E+00
 -1       578 9.01142E-05 1.30765E-06-1.65436E-24
 -1       579 9.01819E-05 1.13544E-06 0.00000E+00
 -1       580 9.02495E-05 9.87848E-07 0.00000E+00
 -1       581 9.03172E-05 8.73553E-07 0.00000E+00
 -1       582 9.03849E-05 8.01216E-07 0.00000E+00
 -1       583 9.04526E-05 7.79496E-07 0.00000E+00
 -1       584 9.05202E-05 8.16960E-07 0.00000E+00
 -1       585 9.05878E-05 9.22122E-07 0.00000E+00
 -1       586 8.93953E-05 2.55516E-06 0.00000E+00
 -1       587 8.91873E-05 2.57760E-06 0.00000E+00
 -1       588 8.89815E-05 2.59979E-06 0.00000E+00
 -1       589 8.88077E-05 2.62162E-06 0.00000E+00
 -1       590 8.86954E-05 2.64284E-06 0.00000E+00
 -1       591 8.95657E-05 2.51154E-06-5.16988E-26
 -1       592 8.95651E-05 2.45696E-06 0.00000E+00
 -1       593 8.95745E-05 2.37507E-06 4.13590E-25
 -1       594 8.95917E-05 2.27178E-06 4.13590E-25
 -1       595 8.96146E-05 2.15309E-06 8.27181E-25
 -1       596 8.96410E-05 2.02495E-06-2.06795E-25
 -1       597 8.96687E-05 1.89331E-06 4.13590E-25
 -1       598 8.96954E-05 1.76412E-06 0.00000E+00
 -1       599 8.97190E-05 1.64332E-06 4.13590E-25
 -1       600 8.97373E-05 1.53685E-06-2.06795E-25
 -1       601 8.97479E-05 1.45066E-06 0.00000E+00
 -1       602 8.97488E-05 1.39069E-06 0.00000E+00
 -1       603 8.97377E-05 1.36289E-06 1.03398E-25
 -1       604 8.97126E-05 1.37327E-06 1.03398E-25
 -1       605 8.96712E-05 1.42774E-06 4.13590E-25
 -1       606 9.06674E-05 1.43727E-06 0.00000E+00
 -1       607 9.06771E-05 1.86421E-06 0.00000E+00
 -1       608 9.06862E-05 2.37822E-06 0.00000E+00
 -1       609 9.06950E-05 2.97317E-06 0.00000E+00
 -1       610 9.07037E-05 3.64291E-06 0.00000E+00
 -1       611 9.07122E-05 4.38121E-06 0.00000E+00
 -1       612 9.07207E-05 5.18181E-06 0.00000E+00
 -1       613 9.07291E-05 6.03848E-06 0.00000E+00
 -1       614 9.07374E-05 6.94495E-06 0.00000E+00
 -1       615 9.07458E-05 7.89497E-06 0.00000E+00
 -1       616 9.07541E-05 8.88230E-06 1.65436E-24
 -1       617 9.07623E-05 9.90068E-06 0.00000E+00
 -1       618 9.07705E-05 1.09439E-05 0.00000E+00
 -1       619 9.07787E-05 1.20056E-05 4.13590E-25
 -1       620 9.07868E-05 1.30796E-05 0.00000E+00
 -1       621 9.04193E-05 1.17459E-06 0.00000E+00
 -1       622 9.02181E-05 1.24667E-06 0.00000E+00
 -1       623 9.00442E-05 1.31875E-06 0.00000E+00
 -1       624 8.98904E-05 1.39070E-06 0.00000E+00
 -1       625 8.97494E-05 1.46253E-06 0.00000E+00
 -1       626 9.06075E-05 1.46053E-06 0.00000E+00
 -1       627 9.05319E-05 1.89441E-06 0.00000E+00
 -1       628 9.04305E-05 2.39724E-06 0.00000E+00
 -1       629 9.03061E-05 2.96134E-06 3.30872E-24
 -1       630 9.01617E-05 3.57902E-06 0.00000E+00
 -1       631 9.00000E-05 4.24256E-06 0.00000E+00
 -1       632 8.98241E-05 4.94419E-06 0.00000E+00
 -1       633 8.96367E-05 5.67620E-06 0.00000E+00
 -1       634 8.94408E-05 6.43083E-06 0.00000E+00
 -1       635 8.92394E-05 7.20035E-06 0.00000E+00
 -1       636 8.90352E-05 7.97704E-06 0.00000E+00
 -1       637 8.88312E-05 8.75314E-06 0.00000E+00
 -1       638 8.86303E-05 9.52091E-06 0.00000E+00
 -1       639 8.84352E-05 1.02726E-05-8.27181E-25
 -1       640 8.82487E-05 1.10005E-05-1.65436E-24
 -1       656 8.99170E-05 1.37589E-05 6.61744E-24
 -1       657 8.93924E-05 1.33422E-05 0.00000E+00
 -1       658 8.90884E-05 1.29268E-05 0.00000E+00
 -1       659 8.88692E-05 1.25117E-05 0.00000E+00
 -1       660 8.85813E-05 1.20952E-05 0.00000E+00
 -1       661 9.04704E-05 1.52139E-05-8.27181E-25
 -1       662 9.01694E-05 1.62145E-05-8.27181E-25
 -1       663 8.98877E-05 1.71634E-05 0.00000E+00
 -1       664 8.96250E-05 1.80632E-05-8.27181E-25
 -1       665 8.93798E-05 1.89163E-05 1.65436E-24
 -1       666 8.91514E-05 1.97252E-05 0.00000E+00
 -1       667 8.89388E-05 2.04919E-05-1.65436E-24
 -1       668 8.87413E-05 2.12187E-05 0.00000E+00
 -1       669 8.85579E-05 2.19077E-05 0.00000E+00
 -1       670 8.83881E-05 2.25607E-05 0.00000E+00
 -1       671 8.82309E-05 2.31798E-05 0.00000E+00
 -1       672 8.80858E-05 2.37666E-05-8.27181E-25
 -1       673 8.79520E-05 2.43230E-05 1.65436E-24
 -1       674 8.78283E-05 2.48503E-05 0.00000E+00
 -1       675 8.77151E-05 2.53505E-05-4.13590E-25
 -1       676 8.98062E-05 2.62141E-05 1.65436E-24
 -1       677 8.93652E-05 2.61354E-05 0.00000E+00
 -1       678 8.89246E-05 2.60568E-05 1.65436E-24
 -1       679 8.84846E-05 2.59784E-05-8.27181E-25
 -1       680 8.80454E-05 2.59001E-05 0.00000E+00
 -1       771 1.56519E-05 4.24775E-06 0.00000E+00
 -1       772 1.15196E-05 1.21283E-05-5.29396E-23
 -1       773 8.01572E-06 1.83668E-05 5.29396E-23
 -1       774 5.09871E-06 2.30643E-05 0.00000E+00
 -1       775 2.72748E-06 2.63245E-05 0.00000E+00
 -1       776 8.59172E-07 2.82552E-05 2.64698E-23
 -1       777-5.49554E-07 2.89669E-05 0.00000E+00
 -1       778-1.54302E-06 2.85733E-05 2.64698E-23
 -1       779-2.16585E-06 2.71905E-05 0.00000E+00
 -1       780-2.46349E-06 2.49372E-05-1.32349E-23
 -1       781-2.48152E-06 2.19338E-05 2.64698E-23
 -1       782-2.26615E-06 1.83030E-05 0.00000E+00
 -1       783-1.86368E-06 1.41686E-05-2.64698E-23
 -1       784-1.32078E-06 9.65577E-06 0.00000E+00
 -1       785-6.84205E-07 4.89059E-06-2.64698E-23
 -1       786 8.87285E-05 2.48904E-06 0.00000E+00
 -1       787 8.87871E-05 2.33102E-06 4.13590E-25
 -1       788 8.88455E-05 2.18566E-06 0.00000E+00
 -1       789 8.89045E-05 2.05069E-06-8.27181E-25
 -1       790 8.89636E-05 1.92525E-06 1.65436E-24
 -1       791 8.90228E-05 1.80851E-06-8.27181E-25
 -1       792 8.90820E-05 1.70085E-06 0.00000E+00
 -1       793 8.91412E-05 1.60263E-06 0.00000E+00
 -1       794 8.92004E-05 1.51555E-06-1.65436E-24
 -1       795 8.92597E-05 1.44130E-06 0.00000E+00
 -1       796 8.93189E-05 1.38334E-06-1.65436E-24
 -1       797 8.93781E-05 1.34517E-06 0.00000E+00
 -1       798 8.94373E-05 1.33301E-06 1.65436E-24
 -1       799 8.94963E-05 1.35311E-06 0.00000E+00
 -1       800 8.95554E-05 1.41615E-06 1.65436E-24
 -1       801 8.26701E-05 2.35279E-06 6.61744E-24
 -1       802 6.43821E-05 1.88872E-06-3.30872E-24
 -1       803 4.04882E-05 1.31810E-06-1.32349E-23
 -1       804 1.77442E-05 7.65922E-07 0.00000E+00
 -1       805 2.24647E-06 3.40821E-07-2.64698E-23
 -1       806 8.86595E-05 2.44290E-06 0.00000E+00
 -1       807 8.86402E-05 2.22957E-06-8.27181E-25
 -1       808 8.86165E-05 2.02662E-06 0.00000E+00
 -1       809 8.85872E-05 1.83790E-06 8.27181E-25
 -1       810 8.85509E-05 1.66723E-06 0.00000E+00
 -1       811 8.85064E-05 1.51838E-06 1.65436E-24
 -1       812 8.84524E-05 1.39509E-06 0.00000E+00
 -1       813 8.83873E-05 1.30111E-06 8.27181E-25
 -1       814 8.83098E-05 1.24019E-06 1.65436E-24
 -1       815 8.82185E-05 1.21605E-06 8.27181E-25
 -1       816 8.81121E-05 1.23244E-06 0.00000E+00
 -1       817 8.79890E-05 1.29309E-06-8.27181E-25
 -1       818 8.78480E-05 1.40172E-06-1.65436E-24
 -1       819 8.76878E-05 1.56205E-06 0.00000E+00
 -1       820 8.75070E-05 1.77779E-06 1.65436E-24
 -1       821 8.95230E-05 1.65645E-06 0.00000E+00
 -1       822 8.94267E-05 1.74063E-06-8.27181E-25
 -1       823 8.93307E-05 1.83913E-06-3.30872E-24
 -1       824 8.92338E-05 2.00554E-06 0.00000E+00
 -1       825 8.91367E-05 2.27982E-06 3.30872E-24
 -1       826 8.90394E-05 2.70146E-06 0.00000E+00
 -1       827 8.89420E-05 3.28042E-06 3.30872E-24
 -1       828 8.88445E-05 4.02598E-06 1.65436E-24
 -1       829 8.87468E-05 4.91402E-06 0.00000E+00
 -1       830 8.86491E-05 5.91982E-06-1.65436E-24
 -1       831 8.85513E-05 6.99505E-06 0.00000E+00
 -1       832 8.84537E-05 8.09109E-06 1.65436E-24
 -1       833 8.83562E-05 9.15511E-06 0.00000E+00
 -1       834 8.82599E-05 1.01345E-05-8.27181E-25
 -1       835 8.81633E-05 1.09934E-05-8.27181E-25
 -1       836 8.93789E-05 1.61945E-06-1.65436E-24
 -1       837 8.90319E-05 1.70788E-06 8.27181E-25
 -1       838 8.86117E-05 1.79615E-06 0.00000E+00
 -1       839 8.81577E-05 1.88385E-06 8.27181E-25
 -1       840 8.77092E-05 1.97141E-06-4.13590E-25
 -1       856 8.80468E-05 1.23778E-05 2.06795E-25
 -1       857 8.80181E-05 1.31629E-05 0.00000E+00
 -1       858 8.79895E-05 1.40358E-05 0.00000E+00
 -1       859 8.79603E-05 1.49800E-05 4.13590E-25
 -1       860 8.79310E-05 1.59789E-05 0.00000E+00
 -1       861 8.79015E-05 1.70159E-05-4.13590E-25
 -1       862 8.78720E-05 1.80744E-05-8.27181E-25
 -1       863 8.78425E-05 1.91378E-05-4.13590E-25
 -1       864 8.78130E-05 2.01892E-05 0.00000E+00
 -1       865 8.77835E-05 2.12121E-05-4.13590E-25
 -1       866 8.77541E-05 2.21899E-05-8.27181E-25
 -1       867 8.77247E-05 2.31059E-05 0.00000E+00
 -1       868 8.76953E-05 2.39436E-05 0.00000E+00
 -1       869 8.76660E-05 2.46867E-05 0.00000E+00
 -1       870 8.76368E-05 2.53187E-05 0.00000E+00
 -1       871 8.75902E-05 1.16959E-05 4.13590E-25
 -1       872 8.72098E-05 1.16930E-05 0.00000E+00
 -1       873 8.68874E-05 1.16896E-05 0.00000E+00
 -1       874 8.65784E-05 1.16858E-05-5.16988E-26
 -1       875 8.62383E-05 1.16815E-05 2.06795E-25
 -1       876 8.79090E-05 1.23867E-05 3.30872E-24
 -1       877 8.77286E-05 1.31273E-05 0.00000E+00
 -1       878 8.75316E-05 1.39124E-05 0.00000E+00
 -1       879 8.73204E-05 1.47363E-05-1.65436E-24
 -1       880 8.70967E-05 1.55933E-05 3.30872E-24
 -1       881 8.68628E-05 1.64777E-05 1.65436E-24
 -1       882 8.66207E-05 1.73837E-05-3.30872E-24
 -1       883 8.63727E-05 1.83057E-05-1.65436E-24
 -1       884 8.61207E-05 1.92381E-05 0.00000E+00
 -1       885 8.58670E-05 2.01752E-05-1.65436E-24
 -1       886 8.56136E-05 2.11112E-05 3.30872E-24
 -1       887 8.53626E-05 2.20405E-05-8.27181E-25
 -1       888 8.51162E-05 2.29574E-05 0.00000E+00
 -1       889 8.48761E-05 2.38561E-05 0.00000E+00
 -1       890 8.46445E-05 2.47309E-05 0.00000E+00
 -1       891 8.71891E-05 2.57819E-05-1.65436E-24
 -1       892 8.67532E-05 2.57401E-05 0.00000E+00
 -1       893 8.62787E-05 2.56984E-05-8.27181E-25
 -1       894 8.57453E-05 2.56568E-05-4.13590E-25
 -1       895 8.51323E-05 2.56152E-05 4.13590E-25
 -1       956 8.72145E-05 2.44586E-06 1.65436E-24
 -1       957 8.71221E-05 2.89724E-06 8.27181E-25
 -1       958 8.70294E-05 3.40054E-06 3.30872E-24
 -1       959 8.69365E-05 3.94920E-06 8.27181E-25
 -1       960 8.68436E-05 4.53669E-06 0.00000E+00
 -1       961 8.67506E-05 5.15641E-06-1.65436E-24
 -1       962 8.66576E-05 5.80175E-06 0.00000E+00
 -1       963 8.65646E-05 6.46613E-06 0.00000E+00
 -1       964 8.64715E-05 7.14294E-06 0.00000E+00
 -1       965 8.63785E-05 7.82558E-06 0.00000E+00
 -1       966 8.62855E-05 8.50744E-06 0.00000E+00
 -1       967 8.61925E-05 9.18192E-06 0.00000E+00
 -1       968 8.60996E-05 9.84242E-06 3.30872E-24
 -1       969 8.60068E-05 1.04824E-05 1.65436E-24
 -1       970 8.59143E-05 1.10952E-05 0.00000E+00
 -1       971 8.57366E-05 1.22723E-05 1.65436E-24
 -1       972 8.56488E-05 1.29474E-05 8.27181E-25
 -1       973 8.55609E-05 1.36913E-05 1.65436E-24
 -1       974 8.54727E-05 1.44951E-05 8.27181E-25
 -1       975 8.53845E-05 1.53500E-05 0.00000E+00
 -1       976 8.52963E-05 1.62470E-05 8.27181E-25
 -1       977 8.52080E-05 1.71772E-05 0.00000E+00
 -1       978 8.51197E-05 1.81318E-05-1.65436E-24
 -1       979 8.50313E-05 1.91018E-05 3.30872E-24
 -1       980 8.49430E-05 2.00783E-05 1.65436E-24
 -1       981 8.48547E-05 2.10523E-05 0.00000E+00
 -1       982 8.47665E-05 2.20151E-05-4.96308E-24
 -1       983 8.46785E-05 2.29576E-05-3.30872E-24
 -1       984 8.45908E-05 2.38709E-05 1.65436E-24
 -1       985 8.45035E-05 2.47462E-05 0.00000E+00
 -3
    1PSTEP                        10           5           1          
  100CL  105 5.03906E-01         409                     0    5           1
 -4  STRESS      6    1
 -5  SXX         1    4    1    1
 -5  SYY         1    4    2    2
 -5  SZZ         1    4    3    3
 -5  SXY         1    4    1    2
 -5  SYZ         1    4    2    3
 -5  SZX         1    4    3    1
 -1         1-1.94899E+06-8.55090E+05-4.06926E+05-1.14604E+06-3.34694E-10 8.77480E-09
 -1         2 2.64707E+03-6.51805E+03 8.65548E+03-2.39546E+01-1.28267E-10 2.61849E-08
 -1         3-1.47490E+02-8.66218E+05 2.04834E+02-4.01592E+02-1.90543E-10 8.18363E-09
 -1         5-4.14281E+00 2.63688E+05 6.87821E+00 1.16609E-01 6.07202E-11 1.10681E-08
 -1         8-9.26668E+05-3.63490E+05-6.67380E+04-5.64436E+05 5.67525E-10 1.50612E-09
 -1         9-1.77023E+06-5.22846E+05-2.03604E+05-5.56407E+05 3.78641E-09 3.71947E-09
 -1        10-7.37156E+02-9.02417E+05-1.21940E+03-2.71543E+03-4.70845E-09-7.35997E-09
 -1        12-1.32307E+00 2.63703E+05 2.22885E+02 9.73583E-01 1.80382E-10-6.60566E-09
 -1        15 1.99991E+03 1.09907E+03 6.46470E+03 4.29294E+00-6.13340E-11 1.55295E-08
 -1        16-3.21320E+06-1.25162E+06-5.15977E+05-1.30615E+06 1.11177E-08 6.40284E-09
 -1        17-1.06766E+06-6.25654E+05-2.08897E+05-5.61864E+05-5.64032E-09 1.39698E-09
 -1        18-4.49125E+04-1.55716E+04-3.12936E+04-6.55262E+04 2.29261E-09 2.61934E-09
 -1        19 8.30239E+04 9.81552E+04-5.37505E+02 1.62385E+04-5.08771E-10 5.23141E-09
 -1        20-3.67040E+04-3.91848E+05-8.65833E+04 2.77613E+04 3.25720E-09 5.46485E-09
 -1        21-3.65820E+01-2.24996E+05-7.24421E+02-6.80877E+01-5.85976E-09-1.00497E-08
 -1        24-3.22548E+06-9.05659E+05-4.08902E+05-1.18627E+06-3.03238E-08-1.45907E-08
 -1        25-8.83835E+03-1.78716E+05-2.35195E+04-1.14456E+05 4.61023E-10 1.78188E-08
 -1        26-2.22052E+04 6.60761E+04-1.39304E+04-8.34494E+03 1.49194E-09 1.00651E-08
 -1        27-6.18648E+04-2.14648E+05-8.04814E+04 4.84459E+04 5.62386E-09-7.49727E-10
 -1        28 1.73915E+04-6.23998E+04 1.27259E+04 1.95105E+04 2.42241E-09 8.86723E-09
 -1        32-9.19763E+05-5.49562E+05 2.63096E+05-5.58642E+05-2.01035E-08 1.10290E-08
 -1        33-1.24490E+05 6.23812E+04 2.22331E+04-3.54852E+04 7.01637E-10 8.49832E-09
 -1        34-1.59254E+05-1.58850E+04 3.85316E+02 4.92831E+04 2.72505E-09-7.78224E-10
 -1        35-1.76908E+04-2.47998E+04-9.73600E+02 3.91968E+04 2.55070E-09 4.02360E-09
 -1        51 1.72829E+04-3.62515E+05 4.33948E+04-9.52231E+05 7.27596E-11 1.53086E-08
 -1        52 1.00473E+04-3.60455E+05 2.80266E+04-1.11058E+06 7.85803E-10 5.26052E-09
 -1        53 7.02396E+03-3.73924E+05 2.28997E+04-9.48900E+05 5.82077E-10-1.09139E-08
 -1        54 1.97842E+04-3.72591E+05 3.55823E+04-1.11404E+06-2.40107E-10-3.04935E-08
 -1        55 3.90456E+04-3.86012E+05 6.28092E+04-9.48359E+05 6.40284E-10 1.25874E-09
 -1        56-3.73277E+06-4.18892E+05-2.99231E+05-1.44036E+06-6.98492E-10 8.11997E-09
 -1        57-3.85642E+06-6.86474E+05-2.01752E+05-1.42490E+06 2.16460E-09-1.25729E-08
 -1        58-3.79342E+06-5.13213E+05-7.03865E+04-1.42089E+06-1.63800E-09 4.07090E-09
 -1        59-3.78625E+06-5.75765E+05-4.20181E+04-1.44806E+06-2.95040E-09-6.86987E-09
 -1        60-3.80224E+06-5.26392E+05-1.64246E+04-1.41829E+06-4.60204E-10-3.61069E-10
 -1        61-3.77768E+06-5.58607E+05-9.31902E+03-1.44906E+06 4.13320E-09 7.15124E-09
 -1        62-3.80181E+06-5.29980E+05-4.47225E+03-1.41999E+06 1.81899E-11 3.42581E-09
 -1        63-3.78129E+06-5.51577E+05-3.59987E+03-1.44338E+06 1.93404E-09 4.17799E-09
 -1        64-3.79850E+06-5.33446E+05-4.11113E+03-1.42390E+06-8.97444E-10-2.65550E-09
 -1        65-3.78997E+06-5.45395E+05-8.11711E+03-1.43414E+06-9.06425E-10-1.74202E-08
 -1        66-3.79306E+06-5.36261E+05-1.43097E+04-1.42916E+06-1.84002E-09-6.63931E-10
 -1        67-3.80736E+06-5.50173E+05-3.62946E+04-1.42178E+06 7.85207E-10 2.71075E-09
 -1        68-3.78123E+06-5.29028E+05-6.09131E+04-1.43615E+06 1.54250E-09 1.88084E-09
 -1        69-3.87414E+06-6.40031E+05-1.74412E+05-1.39530E+06 1.13505E-09-7.89260E-09
 -1        70-3.72705E+06-4.49085E+05-2.58748E+05-1.45479E+06 9.53150E-10-1.19326E-09
 -1        86-1.33043E+03-9.39458E+03 9.23278E+03 1.19561E+01 1.15460E-09 7.21417E-09
 -1        87 8.80630E+03-3.54287E+03 1.93125E+04-3.66833E+01 1.92563E-09 5.46089E-09
 -1        88-7.46998E+03-1.23688E+04 2.95310E+04 2.46792E+01 2.83035E-09 8.55994E-09
 -1        89 5.56426E+04 1.81780E+04 7.96664E+04 3.52896E+01 4.25734E-09-8.21774E-09
 -1        90-4.80065E+04-3.10965E+04 1.12561E+05-5.95151E+01 4.51109E-09 9.02816E-09
 -1       121-2.22090E+02-8.66822E+05 1.35082E+02 2.00460E+02 4.75595E-10-3.63798E-12
 -1       122-7.85319E+01-8.66180E+05 4.39751E+02-8.02652E+02-1.73360E-09 3.28873E-09
 -1       123-2.66843E+02-8.66871E+05 6.49411E+02 6.00191E+02 1.43802E-09-6.25369E-09
 -1       124 7.36784E+02-8.65705E+05 1.82554E+03-1.76008E+03-3.37263E-09 6.80211E-09
 -1       125-7.85201E+02-8.67330E+05 2.73581E+03 1.15683E+03 2.10775E-09 1.38061E-09
 -1       191-4.57789E+00 2.63711E+05 8.26346E+00-5.87398E-02 1.10733E-10 1.45701E-09
 -1       192-4.77445E+00 2.63689E+05 1.45611E+01 5.92786E-01 1.54632E-10-2.09479E-09
 -1       193-6.25742E+00 2.63711E+05 2.71204E+01-5.37104E-01 1.97831E-10-5.82168E-09
 -1       194-6.80717E+00 2.63691E+05 5.50712E+01 1.43504E+00 1.07218E-10 4.02270E-09
 -1       195-9.48516E+00 2.63709E+05 1.07763E+02-9.06539E-01 3.05491E-10 5.06134E-09
 -1       251-4.53041E+05-1.95861E+04 4.54588E+04-1.27531E+03 2.83080E-11 1.16052E-09
 -1       252-4.30740E+05 2.26320E+04 3.25371E+04-4.90316E+03-8.06523E-10-1.46629E-08
 -1       253-4.45246E+05-3.05851E+03 1.16837E+04 1.11211E+03-4.82032E-11-3.63843E-09
 -1       254-4.40193E+05 3.50703E+03 7.63108E+03-9.25772E+03-3.93925E-10 8.12361E-09
 -1       255-4.43656E+05-4.83842E+02 3.01203E+03 3.07909E+03 1.29774E-10 4.65536E-09
 -1       256-4.42344E+05 5.82100E+02 1.97653E+03-1.23878E+04 7.92824E-10 8.12864E-09
 -1       257-4.43165E+05-9.26003E+01 1.05684E+03 4.24222E+03-4.42526E-11-2.53809E-09
 -1       258-4.42892E+05 2.52159E+02 1.09865E+03-1.37069E+04-6.00448E-10 1.40333E-09
 -1       259-4.43143E+05-1.28676E+02 1.41921E+03 4.39830E+03-4.68603E-10-3.61808E-10
 -1       260-4.42330E+05 9.14559E+02 2.96388E+03-1.29875E+04 4.90061E-10-2.36696E-09
 -1       261-4.43707E+05-7.67876E+02 4.87297E+03 3.52269E+03 1.20832E-09 9.57243E-10
 -1       262-4.39327E+05 5.68174E+03 1.21636E+04-1.03565E+04-8.22041E-10-1.23628E-08
 -1       263-4.46080E+05-4.92714E+03 1.90365E+04 1.76724E+03-9.67930E-10 1.79261E-09
 -1       264-4.24278E+05 3.66506E+04 5.25121E+04-6.34034E+03-2.04651E-09 4.97676E-09
 -1       265-4.58671E+05-3.16793E+04 7.38339E+04-4.93477E+02-1.46986E-09 5.94082E-09
 -1       266-3.62039E+04-1.69262E+04 8.49574E+04-9.18676E+01 3.63798E-11 8.91873E-09
 -1       267 4.19715E+04 1.97320E+04 6.00401E+04 1.05982E+02 4.54747E-11-1.16201E-08
 -1       268-5.62824E+03-2.79438E+03 2.23170E+04-1.35048E+01-7.27596E-12-2.88355E-09
 -1       269 6.64537E+03 3.34453E+03 1.45053E+04 1.57301E+01 8.70841E-11 9.93915E-10
 -1       270-9.97477E+02-5.49522E+02 7.00195E+03-2.13473E+00 6.20730E-11 6.24117E-09
 -1       271-3.47701E+06-4.35055E+05-2.65959E+05-1.35543E+06 2.10275E-09 2.15368E-09
 -1       272-3.56276E+06-6.38513E+05-1.70969E+05-1.36366E+06 2.61070E-09-1.23291E-08
 -1       273-3.52860E+06-4.99768E+05-6.28337E+04-1.34181E+06 1.35333E-09 2.55750E-09
 -1       274-3.50178E+06-5.59862E+05-3.51256E+04-1.38506E+06-1.59889E-09-1.21763E-08
 -1       275-3.53732E+06-5.04762E+05-1.46283E+04-1.33772E+06 2.19188E-09 3.11411E-09
 -1       276-3.49110E+06-5.54474E+05-7.74173E+03-1.39193E+06 2.30966E-09-2.22462E-09
 -1       277-3.53979E+06-5.03861E+05-3.79818E+03-1.33573E+06-5.74801E-10-1.08873E-08
 -1       278-3.48847E+06-5.55543E+05-2.74046E+03-1.39474E+06-2.11571E-10 2.88449E-09
 -1       279-3.54030E+06-5.03385E+05-2.92528E+03-1.33519E+06-1.37948E-09 2.33376E-09
 -1       280-3.48920E+06-5.55863E+05-5.36411E+03-1.39429E+06 1.11004E-09 5.34510E-09
 -1       281-3.53901E+06-5.03621E+05-9.79388E+03-1.33613E+06 9.71340E-10 4.58658E-09
 -1       282-3.49608E+06-5.59661E+05-2.34247E+04-1.38996E+06-1.88629E-09-3.93402E-09
 -1       283-3.53309E+06-5.00455E+05-4.18103E+04-1.33900E+06 8.79027E-10-9.91349E-09
 -1       284-3.53715E+06-6.11316E+05-1.13752E+05-1.37479E+06 3.53850E-10-7.73252E-09
 -1       285-3.49819E+06-4.58064E+05-1.77034E+05-1.34872E+06-9.93168E-10-8.14907E-10
 -1       301 1.76962E+04-3.51560E+04 1.32234E+05-7.37246E+04-7.02130E-10 4.87989E-09
 -1       302 1.88200E+04-1.71047E+03 9.08649E+04-1.08509E+05 1.38198E-09 8.92214E-10
 -1       303 1.03394E+03-2.25394E+04 7.65281E+04-7.38469E+04-7.03949E-10-9.41691E-09
 -1       304 2.79751E+04 7.10290E+03 1.21029E+05-1.08123E+05 7.42148E-10-9.63337E-09
 -1       305 2.73008E+04-4.33407E+04 1.98976E+05-7.41019E+04-1.01136E-09 1.60435E-09
 -1       306-4.73070E+06-5.45002E+05-3.56693E+05-1.84313E+06 1.83354E-09-6.09725E-09
 -1       307-4.89326E+06-8.62339E+05-2.42408E+05-1.79930E+06-1.60071E-10 6.40284E-09
 -1       308-4.82552E+06-6.41130E+05-8.40212E+04-1.79278E+06-3.24690E-10 1.89902E-09
 -1       309-4.77417E+06-7.61024E+05-5.05388E+04-1.87165E+06 1.69888E-09 8.76753E-09
 -1       310-4.84992E+06-6.43598E+05-1.95661E+04-1.77204E+06-2.14186E-10-5.42877E-09
 -1       311-4.74968E+06-7.54007E+05-1.13529E+04-1.89176E+06 9.38371E-09-1.18234E-09
 -1       312-4.85039E+06-6.47458E+05-5.62376E+03-1.77314E+06-9.35870E-10 7.78627E-10
 -1       313-4.76400E+06-7.33368E+05-4.62287E+03-1.87021E+06-4.12638E-09 1.39962E-08
 -1       314-4.83486E+06-6.64705E+05-6.58713E+03-1.79306E+06-2.31876E-09-8.26458E-09
 -1       315-4.80516E+06-6.94704E+05-1.21080E+04-1.82065E+06-3.95630E-11 8.58313E-09
 -1       316-4.80844E+06-6.86736E+05-2.29528E+04-1.82207E+06-8.86757E-10 1.81899E-12
 -1       317-4.86726E+06-6.71956E+05-5.76124E+04-1.76440E+06 4.85439E-09 1.95450E-09
 -1       318-4.77337E+06-6.87502E+05-9.58674E+04-1.84956E+06-1.03491E-08 6.91216E-09
 -1       319-4.99448E+06-8.03298E+05-2.78283E+05-1.70270E+06-4.78121E-09-1.97178E-09
 -1       320-4.68308E+06-5.57082E+05-4.07408E+05-1.88384E+06 1.19398E-08-2.66300E-09
 -1       336 5.42504E+02-9.38382E+05-5.20245E+03 1.55329E+03-8.71250E-09-5.18958E-09
 -1       337-1.91407E+03-9.39497E+05-5.76273E+03-3.88218E+03-1.63789E-08 9.12678E-09
 -1       338 3.66344E+02-9.38503E+05-7.49895E+03 2.31788E+03-1.16618E-08 7.77982E-09
 -1       339-7.77230E+03-9.43192E+05-1.64229E+04-5.38473E+03-2.08620E-08 5.13501E-09
 -1       340 5.19241E+03-9.34833E+05-2.54245E+04 3.04386E+03-1.39680E-08 1.43955E-08
 -1       406 1.57409E+01 2.63699E+05 4.40070E+02-7.97137E-02 4.17458E-10-7.10497E-09
 -1       407 1.52093E+02 2.63780E+05 9.35212E+02-6.34254E+00 9.16316E-11-1.58616E-09
 -1       408 4.80110E+02 2.63632E+05 1.86786E+03 6.55923E+00 4.27804E-10-4.68253E-09
 -1       409 2.01834E+03 2.64377E+05 4.20498E+03-6.37777E+01-1.85992E-10-1.44491E-08
 -1       410 5.80140E+03 2.63100E+05 8.58434E+03 5.97697E+01 4.83851E-10-4.27917E-10
 -1       521-7.80678E+06-7.58581E+05-6.72479E+05-2.62920E+06-7.07223E-09 1.96160E-08
 -1       522-6.37743E+06-1.92453E+06-2.84346E+05-3.59813E+06-6.44050E-08-8.99308E-09
 -1       523-7.96712E+06-5.12369E+05-1.44115E+05-2.10668E+06 1.03682E-09-4.12329E-08
 -1       524-6.39518E+06-2.03071E+06-5.63090E+04-4.27693E+06 7.58132E-08-8.60164E-08
 -1       525-7.97659E+06-5.10918E+05-3.49594E+04-2.07161E+06 6.52217E-08-5.68270E-08
 -1       526-6.25404E+06-1.76298E+06 5.71700E+04-3.75871E+06 2.81798E-08-2.00598E-08
 -1       527-7.94928E+06-8.95369E+05-1.11374E+05-2.52524E+06-4.86034E-09 7.42148E-09
 -1       528-6.54730E+06-1.01152E+06 1.33850E+05-2.59421E+06-6.14091E-09 1.54687E-08
 -1       529-7.50230E+06-1.39002E+06-1.24538E+05-3.09171E+06 1.77242E-08-5.70071E-09
 -1       530-7.79090E+06-1.15199E+05 7.39249E+04-1.80541E+06-2.75249E-08 4.16876E-08
 -1       531-6.85520E+06-1.68254E+06-4.80435E+04-3.40890E+06-7.59683E-08-4.13638E-09
 -1       532-8.72667E+06 3.07841E+05-5.31001E+04-1.61059E+06 6.04496E-08-7.04767E-08
 -1       533-6.74656E+06-1.68912E+06-1.27348E+05-3.44361E+06 1.98779E-08-1.06949E-07
 -1       534-8.23326E+06-1.66773E+05-2.88832E+05-1.68191E+06-3.15085E-08 8.56089E-08
 -1       535-7.22910E+06-1.29479E+06-6.40596E+05-3.22809E+06-1.66474E-08 5.48607E-08
 -1       536-3.20625E+05-1.37430E+04 3.09136E+04-6.41786E+03-1.41128E-09 1.69202E-08
 -1       537-3.04232E+05 1.58875E+04 2.24019E+04 1.29918E+04-1.71768E-08 2.05473E-08
 -1       538-3.13914E+05-2.05742E+03 8.08051E+03-7.31541E+03 1.07805E-09 1.38084E-08
 -1       539-3.08472E+05 2.54220E+03 5.68365E+03 1.15826E+04 1.86927E-08 1.29940E-08
 -1       540-3.16337E+05-4.45846E+02 1.36020E+03-5.00785E+03-2.87685E-10 1.05057E-08
 -1       541-3.03366E+05 6.74591E+02 2.97360E+03 4.76634E+03-1.96562E-09 1.15996E-08
 -1       542-3.18865E+05-3.20225E+02-8.37855E+02-4.98150E+02 2.24861E-09 4.07258E-09
 -1       543-3.03137E+05 2.91397E+02 1.89815E+03-4.37593E+03-2.48184E-09-2.69677E-09
 -1       544-3.16557E+05-7.44564E+01-1.21383E+03 4.13298E+03-1.91795E-09-6.22279E-09
 -1       545-3.09313E+05-3.86231E+02-5.76332E+02-1.16165E+04-3.22002E-09 5.78780E-09
 -1       546-3.12842E+05 4.82531E+02-2.36589E+03 6.74269E+03 4.15196E-09-1.19422E-08
 -1       547-3.13181E+05-2.84931E+03-5.65269E+03-1.36743E+04-1.14961E-08-1.43916E-08
 -1       548-3.12758E+05 2.44619E+03-9.55156E+03 6.19161E+03-1.42485E-08-1.60981E-08
 -1       549-3.15169E+05-1.75559E+04-2.42617E+04-9.60107E+03-8.09648E-09-1.05624E-08
 -1       550-3.10731E+05 1.50736E+04-3.72059E+04 2.66819E+03 4.38774E-10-5.70981E-09
 -1       551 1.22571E+04-4.85793E+05 2.25425E+04-8.12996E+05-3.83952E-08 2.91038E-09
 -1       552 2.77086E+04-4.92505E+05 2.97447E+04-1.15756E+06-2.97223E-08 2.33231E-08
 -1       553 1.94227E+04-4.98214E+05 4.49516E+04-8.10061E+05-4.77667E-08 1.35551E-08
 -1       554 5.21453E+04-4.84281E+05 9.49208E+04-1.15881E+06-2.97005E-08 1.75532E-10
 -1       555 4.70461E+04-5.16561E+05 1.69559E+05-8.10877E+05-4.72428E-08-7.47605E-09
 -1       556 8.22831E+04-1.55705E+05 5.28827E+04-1.99921E+05-6.17729E-09-2.99042E-09
 -1       557 1.45684E+05-2.07600E+05 2.78882E+04-2.51143E+05 2.58296E-09-2.69210E-10
 -1       558 8.14476E+04-1.62415E+05 1.11084E+04-1.94189E+05-7.68341E-09 1.55705E-09
 -1       559 1.36257E+05-2.14586E+05 5.69263E+03-2.55517E+05 6.11180E-09 4.63297E-09
 -1       560 7.90375E+04-1.60837E+05 2.25721E+03-1.95753E+05-3.69619E-09 1.14596E-08
 -1       561 1.32677E+05-2.13558E+05 1.23977E+03-2.57795E+05-1.72222E-08 1.81635E-08
 -1       562 7.71130E+04-1.59568E+05 4.25061E+02-1.97137E+05-1.33223E-08-1.74168E-09
 -1       563 1.30418E+05-2.12582E+05 3.02600E+02-2.59241E+05 9.31323E-10-1.86020E-09
 -1       564 7.58854E+04-1.58782E+05 9.84687E+01-1.98008E+05 2.11367E-09 5.25142E-09
 -1       565 1.29188E+05-2.12053E+05 8.90890E+01-2.60015E+05 3.86353E-09 3.30328E-09
 -1       566 7.53913E+04-1.58460E+05 8.54418E+00-1.98360E+05 2.31557E-09 1.06229E-09
 -1       567 1.28947E+05-2.11938E+05-6.22938E+01-2.60097E+05 5.66774E-09 1.14615E-08
 -1       568 7.56660E+04-1.58642E+05-2.60383E+02-1.98237E+05-2.12640E-09 4.04361E-09
 -1       569 1.29015E+05-2.11798E+05-6.15118E+02-2.58851E+05-1.36788E-09 8.14907E-09
 -1       570 7.72756E+04-1.60008E+05-1.40705E+03-1.98145E+05 4.47471E-09 2.68938E-09
 -1       571 1.92965E+05 7.09670E+03 1.04991E+04-4.97574E+04 1.20463E-09 4.87648E-09
 -1       572 1.94525E+05 2.47789E+03 5.14400E+03-5.45504E+04 1.69030E-09 1.29057E-09
 -1       573 1.93590E+05 6.00394E+02 2.28521E+03-4.96319E+04 1.07866E-09 3.47427E-09
 -1       574 1.93773E+05 2.06309E+02 1.14503E+03-5.46916E+04-7.29415E-10-1.81990E-09
 -1       575 1.93658E+05 4.03371E+01 5.39730E+02-4.96153E+04-3.47336E-09-3.90946E-09
 -1       576 1.93670E+05 2.29858E+01 2.74908E+02-5.47104E+04-3.71608E-09-2.58569E-09
 -1       577 1.93670E+05 9.84869E+00 1.35665E+02-4.96131E+04-8.48786E-10 5.68252E-09
 -1       578 1.93662E+05 1.27177E+01 7.45200E+01-5.47127E+04 5.73891E-10 6.93490E-09
 -1       579 1.93684E+05 6.31333E+00 4.64286E+01-4.96130E+04 8.29459E-10-4.60204E-09
 -1       580 1.93681E+05 4.80893E+00 4.49253E+01-5.47098E+04-1.10640E-09-1.04960E-08
 -1       581 1.93708E+05-3.11523E+00 6.23700E+01-4.96160E+04 5.39330E-10-6.01221E-09
 -1       582 1.93724E+05 6.17172E+00 1.20263E+02-5.46799E+04 3.54248E-10-1.24833E-08
 -1       583 1.93737E+05 3.32308E+01 2.31004E+02-4.96430E+04 5.36602E-10-4.83942E-09
 -1       584 1.93846E+05 2.13453E+02 5.18643E+02-5.44544E+04 1.00954E-10 4.89842E-09
 -1       585 1.93715E+05 6.68922E+02 1.05295E+03-4.98419E+04 7.58519E-10 5.25688E-10
 -1       586-2.23463E+03 6.39675E+04-2.89202E+03-1.70984E+05-5.91172E-12-2.47928E-09
 -1       587-4.65845E+02 6.35880E+04-1.93433E+02-1.88169E+05 3.55612E-10-1.23005E-08
 -1       588 6.77628E+02 6.36452E+04 2.37235E+03-1.70887E+05 8.18545E-11-6.97582E-10
 -1       589 3.38790E+03 6.49309E+04 6.73090E+03-1.87999E+05 1.89175E-10-4.06317E-09
 -1       590 9.77150E+03 6.28670E+04 1.43472E+04-1.71158E+05 3.36513E-11-1.52704E-09
 -1       591-4.21747E+04-1.17464E+04-1.38822E+04-2.14562E+04-1.03893E-09-7.16773E-09
 -1       592-4.35956E+04-1.50351E+04-7.51922E+03-2.49395E+04-1.11197E-09 1.72474E-09
 -1       593-4.35768E+04-1.07252E+04-3.13029E+03-2.24606E+04 2.32774E-09-2.11253E-09
 -1       594-4.16630E+04-1.30154E+04-1.56121E+03-2.50335E+04-1.06701E-09 3.13480E-09
 -1       595-4.36842E+04-1.07206E+04-7.17415E+02-2.25067E+04 3.86370E-09 1.02078E-08
 -1       596-4.15321E+04-1.29229E+04-3.65612E+02-2.50197E+04 1.27463E-08 7.86088E-09
 -1       597-4.36978E+04-1.07296E+04-2.01073E+02-2.25085E+04 4.26468E-09 4.06862E-09
 -1       598-4.15196E+04-1.29193E+04-1.65282E+02-2.50159E+04-1.33764E-09-7.24356E-10
 -1       599-4.36968E+04-1.07297E+04-2.15684E+02-2.25082E+04-3.05045E-09-2.62685E-09
 -1       600-4.15334E+04-1.29240E+04-4.04320E+02-2.50192E+04-4.67844E-09 1.12755E-08
 -1       601-4.36797E+04-1.07202E+04-7.99552E+02-2.25054E+04-3.80101E-09 7.92795E-09
 -1       602-4.16793E+04-1.30272E+04-1.74353E+03-2.50326E+04 2.52840E-10 3.62297E-09
 -1       603-4.35582E+04-1.07271E+04-3.49708E+03-2.24541E+04-3.06136E-09-3.78282E-09
 -1       604-4.38458E+04-1.52751E+04-8.40046E+03-2.49162E+04-4.27178E-09-3.99086E-09
 -1       605-4.19819E+04-1.18755E+04-1.55090E+04-2.13403E+04 1.97554E-09 6.21185E-10
 -1       606 2.65091E+04-9.28778E+03-1.67162E+04 2.58625E+04-3.27236E-09-2.59479E-09
 -1       607 2.36466E+04-2.99955E+03-8.32369E+03 2.90332E+04-1.97542E-09-4.14320E-09
 -1       608 2.52696E+04-5.09214E+02-3.72760E+03 2.56571E+04 2.10275E-09 5.44674E-09
 -1       609 2.49463E+04-1.35222E+02-1.88267E+03 2.92608E+04-1.30058E-09-2.85354E-09
 -1       610 2.51185E+04 2.08624E+01-8.99369E+02 2.56341E+04-3.17596E-09 1.71804E-09
 -1       611 2.50572E+04 3.33663E+01-4.53555E+02 2.92857E+04-5.34101E-09-4.65275E-09
 -1       612 2.50775E+04 3.62792E+01-2.17021E+02 2.56318E+04-3.75712E-09-6.33463E-10
 -1       613 2.50540E+04 4.20626E+01-9.87426E+01 2.92886E+04-5.46652E-09-6.43922E-10
 -1       614 2.50548E+04 3.74483E+01-2.72597E+01 2.56310E+04 2.10093E-10 2.97655E-09
 -1       615 2.50419E+04 4.77442E+01 3.17124E+01 2.92891E+04 6.03904E-09 7.80415E-09
 -1       616 2.50376E+04 4.33347E+01 1.03963E+02 2.56313E+04-4.82032E-10-4.04816E-09
 -1       617 2.50479E+04 7.39922E+01 2.40819E+02 2.92885E+04-1.35401E-09-8.20592E-09
 -1       618 2.50117E+04 1.15899E+02 4.86647E+02 2.56314E+04-9.80890E-10-3.23166E-09
 -1       619 2.52158E+04 4.52888E+02 1.09371E+03 2.92878E+04-5.17616E-10-1.27329E-09
 -1       620 2.48476E+04 1.27244E+03 2.19851E+03 2.56303E+04 2.49372E-09 2.51657E-09
 -1       621 3.01437E+02 2.06467E+05 2.66531E+03 8.83798E+03-3.56863E-10 6.83940E-09
 -1       622 3.50069E+02 2.07126E+05 2.32241E+03 1.28919E+04-2.79329E-10 1.48749E-08
 -1       623 1.52357E+01 2.06648E+05 2.74926E+03 8.79653E+03-2.36298E-10 9.92941E-09
 -1       624 1.26508E+03 2.07963E+05 5.28910E+03 1.29328E+04-1.89601E-10-4.94265E-09
 -1       625 1.27150E+03 2.05622E+05 9.22712E+03 8.79725E+03-8.45830E-11-6.26113E-09
 -1       626 1.73388E+05 4.74880E+04 3.52325E+03 9.29529E+04-8.15817E-10-2.85218E-09
 -1       627 1.71092E+05 4.91475E+04 1.69777E+03 9.66764E+04 3.56658E-09 5.90796E-09
 -1       628 1.73513E+05 4.58287E+04 7.17076E+02 9.34923E+04 4.28827E-09 5.59567E-09
 -1       629 1.70590E+05 4.87388E+04 3.51437E+02 9.68978E+04 5.84259E-09 9.93805E-09
 -1       630 1.73519E+05 4.57508E+04 1.62422E+02 9.35068E+04-1.71622E-09 5.98016E-09
 -1       631 1.70529E+05 4.87294E+04 8.72603E+01 9.68987E+04-2.34422E-09-6.95890E-09
 -1       632 1.73510E+05 4.57574E+04 5.72736E+01 9.34988E+04-3.59569E-09-7.05671E-09
 -1       633 1.70516E+05 4.87346E+04 6.35927E+01 9.68915E+04 1.65892E-09 4.48517E-09
 -1       634 1.73500E+05 4.57584E+04 1.02528E+02 9.34943E+04 6.95172E-09 3.80419E-09
 -1       635 1.70520E+05 4.87362E+04 2.07638E+02 9.68908E+04 3.76576E-09 4.53815E-09
 -1       636 1.73489E+05 4.57576E+04 4.19236E+02 9.34912E+04 1.18064E-09 7.51129E-09
 -1       637 1.70606E+05 4.88029E+04 9.21359E+02 9.68867E+04-5.36460E-11 6.18456E-11
 -1       638 1.73453E+05 4.59629E+04 1.89346E+03 9.33967E+04 6.20912E-09 8.18545E-09
 -1       639 1.71597E+05 5.01873E+04 4.47937E+03 9.65922E+04 2.57046E-10-1.18689E-09
 -1       640 1.73320E+05 5.00865E+04 9.29575E+03 9.16469E+04-9.86802E-10-7.36418E-09
 -1       656 4.66207E+04-1.18106E+06-1.12543E+05-3.83520E+02 1.01863E-10-6.30675E-09
 -1       657-6.16136E+04-1.23187E+06-9.30922E+04 7.36365E+03 1.00317E-09-4.24935E-09
 -1       658 1.47926E+04-1.19555E+06-5.71509E+04-1.54688E+03 4.18368E-11-3.45489E-09
 -1       659-6.61293E+04-1.23400E+06-9.90235E+04 8.15409E+03-8.69477E-10-3.37581E-09
 -1       660 5.11257E+04-1.17893E+06-1.22745E+05-1.17395E+03 1.89175E-10 2.91058E-09
 -1       661 1.61838E+05 1.75887E+04 1.56241E+04 6.32643E+04 2.19552E-09-1.81899E-12
 -1       662 1.70042E+05 2.97782E+04 1.05281E+04 6.04739E+04 5.10227E-10-3.94755E-09
 -1       663 1.64902E+05 2.26056E+04 3.68278E+03 6.23795E+04-1.10856E-09-9.74796E-09
 -1       664 1.66496E+05 2.39062E+04 2.20193E+03 6.15501E+04 2.94506E-09-5.44480E-09
 -1       665 1.65361E+05 2.32958E+04 8.68596E+02 6.22503E+04 1.97906E-09 1.10290E-09
 -1       666 1.65957E+05 2.31128E+04 5.06677E+02 6.17159E+04-3.39170E-09 5.27979E-09
 -1       667 1.65438E+05 2.33782E+04 2.67296E+02 6.22215E+04 8.50093E-10 9.10230E-10
 -1       668 1.65875E+05 2.30481E+04 2.68156E+02 6.17573E+04 5.72970E-09-4.21752E-09
 -1       669 1.65443E+05 2.33585E+04 3.59603E+02 6.22095E+04 3.35680E-09 6.65625E-09
 -1       670 1.65965E+05 2.32387E+04 7.79820E+02 6.17568E+04 9.13981E-09 5.89324E-09
 -1       671 1.65348E+05 2.31915E+04 1.38356E+03 6.22205E+04-2.69834E-09 1.07826E-09
 -1       672 1.66772E+05 2.45837E+04 3.53894E+03 6.15612E+04-2.57828E-09 1.76351E-09
 -1       673 1.64640E+05 2.20472E+04 5.93038E+03 6.23922E+04-3.41356E-09-5.16570E-09
 -1       674 1.72419E+05 3.41091E+04 1.69596E+04 5.99003E+04 2.53533E-09 9.85892E-10
 -1       675 1.59738E+05 1.39325E+04 2.51734E+04 6.37809E+04 2.72667E-09 2.58569E-09
 -1       676 1.88041E+01-2.24936E+05-8.73114E+02 3.40447E+01 1.26298E-09-4.08908E-10
 -1       677-2.31772E+02-2.25147E+05-1.59790E+03-6.80549E+01-2.38552E-09-1.32078E-08
 -1       678 1.54781E+02-2.24785E+05-2.82466E+03 3.39868E+01-8.90395E-10-2.23543E-09
 -1       679-2.82528E+03-2.26852E+05-6.70999E+03-6.78306E+01-3.09865E-09-8.71757E-09
 -1       680 1.68616E+03-2.23231E+05-1.08143E+04 3.34320E+01-2.27237E-09 7.55550E-09
 -1       771-2.40608E+06-4.43680E+05-6.31966E+04-1.02261E+06-1.31186E-08-1.03610E-08
 -1       772-2.38412E+06-4.81081E+05-3.36387E+04-1.06466E+06-9.07312E-09 8.66567E-09
 -1       773-2.41571E+06-4.36129E+05-1.50211E+04-1.02617E+06-4.87489E-09 5.11864E-09
 -1       774-2.37570E+06-4.74087E+05-7.17483E+03-1.07014E+06 8.78936E-09-1.00954E-09
 -1       775-2.41870E+06-4.34076E+05-3.98494E+03-1.02669E+06-3.95812E-09 1.32786E-09
 -1       776-2.37623E+06-4.74136E+05-1.73775E+03-1.07351E+06-5.14410E-09 2.02272E-09
 -1       777-2.42097E+06-4.32400E+05-1.30770E+03-1.02708E+06 2.05182E-09 3.08137E-09
 -1       778-2.37723E+06-4.74353E+05-4.95665E+02-1.07633E+06 4.00178E-11 4.37467E-09
 -1       779-2.42283E+06-4.30975E+05-5.90085E+02-1.02743E+06-7.26868E-09-1.01936E-08
 -1       780-2.37818E+06-4.74517E+05-2.92746E+02-1.07862E+06 4.91855E-09 9.44510E-09
 -1       781-2.42426E+06-4.29843E+05-5.39674E+02-1.02770E+06-9.89530E-09-1.22054E-09
 -1       782-2.37896E+06-4.74657E+05-7.56847E+02-1.08030E+06-1.40208E-08 5.08180E-10
 -1       783-2.42519E+06-4.29085E+05-1.52999E+03-1.02788E+06-4.85306E-09-9.24297E-09
 -1       784-2.38031E+06-4.75658E+05-3.52407E+03-1.08128E+06-6.38101E-09-2.78305E-10
 -1       785-2.42504E+06-4.29170E+05-6.53753E+03-1.02750E+06-1.31240E-08 1.95450E-09
 -1       786 1.65251E+05-9.20395E+03 2.12935E+04-3.89705E+01 5.84814E-06 2.30248E-08
 -1       787 1.74479E+05 1.06553E+04 1.50647E+04 9.62735E+00 1.16502E-05 1.86792E-08
 -1       788 1.68811E+05-1.44282E+03 5.51113E+03-2.81308E+01 1.07537E-05-1.13278E-08
 -1       789 1.70332E+05 1.66940E+03 3.46242E+03-8.84927E+00 9.83301E-06 2.01890E-08
 -1       790 1.69399E+05-2.25362E+02 1.40825E+03-2.04951E+01 9.24366E-06-2.04215E-08
 -1       791 1.69646E+05 2.61661E+02 8.25641E+02-2.36572E+01 8.64618E-06 1.99847E-08
 -1       792 1.69497E+05-3.61381E+01 3.74485E+02-1.33228E+01 4.32678E-06-1.92117E-10
 -1       793 1.69535E+05 4.96174E+01 2.40640E+02-3.96231E+01 1.30248E-08 9.23771E-09
 -1       794 1.69510E+05-1.34558E+01 1.70982E+02-4.52897E+00 9.96878E-10-2.93702E-10
 -1       795 1.69542E+05 6.66518E+01 2.36815E+02-6.12895E+01-1.15290E-09-5.75016E-09
 -1       796 1.69490E+05-5.31565E+01 3.48366E+02 8.34406E+00 5.83849E-10-1.18455E-08
 -1       797 1.69698E+05 3.89040E+02 8.16153E+02-9.47016E+01-5.01213E-10 8.88082E-09
 -1       798 1.69354E+05-3.35609E+02 1.28654E+03 2.88838E+01 9.27329E-11 8.78129E-09
 -1       799 1.70663E+05 2.47793E+03 3.50588E+03-1.49397E+02 2.24332E-12-6.61998E-09
 -1       800 1.68525E+05-2.14037E+03 4.95174E+03 6.30403E+01-2.47836E-10 3.41743E-09
 -1       801 1.98441E+04-9.12088E+05-7.61854E+04 2.47892E+04 1.21363E-08-2.35741E-09
 -1       802-1.51074E+04-7.90124E+05-7.44939E+03-7.16925E+04 3.32884E-08-6.80296E-09
 -1       803-4.24841E+03-8.52087E+05 2.68397E+04 4.64502E+04 2.63972E-08 2.20973E-08
 -1       804 8.75078E+04-7.30355E+05 1.27770E+05-6.63490E+04 3.00060E-08 2.27430E-08
 -1       805-8.30851E+04-9.71335E+05 1.49414E+05 1.94400E+04 1.09285E-08 2.08120E-08
 -1       806-2.13226E+05-4.41533E+04-1.76118E+04-8.73766E+04 8.64475E-10 9.77843E-09
 -1       807-2.14418E+05-4.16578E+04-8.67231E+03-9.18874E+04-5.21504E-09-2.92613E-09
 -1       808-2.13756E+05-3.79465E+04-3.67958E+03-9.03216E+04 2.00771E-09 9.58065E-09
 -1       809-2.12567E+05-3.92741E+04-1.79977E+03-9.21105E+04-5.20458E-09-9.39980E-09
 -1       810-2.13834E+05-3.77360E+04-8.24637E+02-9.04488E+04-5.96151E-09 4.15935E-09
 -1       811-2.12427E+05-3.91812E+04-4.09245E+02-9.20869E+04-1.57697E-08-8.02584E-09
 -1       812-2.13847E+05-3.77537E+04-2.04872E+02-9.04482E+04-4.67344E-09-4.63547E-09
 -1       813-2.12408E+05-3.91835E+04-1.30182E+02-9.20750E+04-6.27324E-10-4.01496E-09
 -1       814-2.13844E+05-3.77602E+04-1.23754E+02-9.04454E+04-1.16870E-10 3.88354E-09
 -1       815-2.12410E+05-3.91854E+04-1.95150E+02-9.20712E+04-2.50725E-09 1.94177E-09
 -1       816-2.13831E+05-3.77587E+04-3.66742E+02-9.04429E+04-2.28738E-10 7.06359E-09
 -1       817-2.12472E+05-3.92194E+04-7.86129E+02-9.20647E+04-2.09275E-09 2.84917E-08
 -1       818-2.13783E+05-3.78631E+04-1.60172E+03-9.03926E+04-9.04947E-10 1.07320E-08
 -1       819-2.13355E+05-4.01701E+04-3.76868E+03-9.18618E+04-2.78078E-09-5.36238E-09
 -1       820-2.13467E+05-4.06382E+04-7.65250E+03-8.91986E+04-1.80353E-09 4.92264E-09
 -1       821-2.71431E+05 1.49783E+04-3.46395E+04 1.55794E+02 2.61126E-10 2.23372E-09
 -1       822-2.86442E+05-1.73399E+04-2.45125E+04-7.67472E+02-1.44869E-09 4.04862E-09
 -1       823-2.77224E+05 2.34835E+03-8.97164E+03 1.38853E+02 2.74362E-10 1.03955E-09
 -1       824-2.79684E+05-2.71800E+03-5.64456E+03-6.10808E+02 6.65442E-10-6.63545E-09
 -1       825-2.78187E+05 3.67447E+02-2.32097E+03-8.74541E-01-2.13668E-09-2.34070E-09
 -1       826-2.78561E+05-4.33267E+02-1.39935E+03-2.67352E+02-4.62691E-09-1.99471E-09
 -1       827-2.78345E+05 6.50298E+01-7.26747E+02-2.04609E+02-3.92856E-09-9.06186E-09
 -1       828-2.78410E+05-1.32271E+02-6.40772E+02 1.20974E+02-5.22254E-09-6.19145E-10
 -1       829-2.78337E+05 6.67325E+01-7.38853E+02-3.89208E+02-2.01121E-10 3.86086E-09
 -1       830-2.78587E+05-4.46125E+02-1.44201E+03 3.95622E+02 2.15452E-09-7.41454E-09
 -1       831-2.78170E+05 3.78954E+02-2.38916E+03-4.79262E+02-2.53822E-09-1.50862E-09
 -1       832-2.79737E+05-2.80211E+03-5.82211E+03 4.45001E+02-1.37503E-09-9.79298E-10
 -1       833-2.77188E+05 2.42108E+03-9.25230E+03-4.38587E+02-1.18740E-09 2.13277E-09
 -1       834-2.86683E+05-1.78808E+04-2.52772E+04 2.50560E+02 5.20357E-11-1.52477E-09
 -1       835-2.71224E+05 1.54458E+04-3.57265E+04-2.84809E+02 5.81826E-09 2.76486E-09
 -1       836-8.98837E+02 2.53324E+05 1.53128E+04-2.07222E+04 1.38243E-09 4.72710E-09
 -1       837 3.36574E+03 2.58069E+05 1.30847E+04-4.16206E+04 2.03818E-09 1.74259E-09
 -1       838-3.32152E+02 2.54640E+05 1.35080E+04-2.06502E+04 1.67120E-09 3.09956E-09
 -1       839 8.67222E+03 2.62023E+05 2.57264E+04-4.16500E+04 2.26646E-09-7.61531E-10
 -1       840-2.60964E+03 2.49331E+05 4.10968E+04-2.06913E+04 1.61890E-09-8.20592E-10
 -1       856-7.93363E+04 7.06681E+03-1.86230E+04-4.14032E+02-3.53077E-09 5.34601E-09
 -1       857-8.70283E+04-8.28860E+03-1.28214E+04 4.28610E+03-2.77532E-09-3.81806E-09
 -1       858-8.23755E+04 9.90168E+02-4.83315E+03-4.33611E+02-3.78026E-09-4.89467E-09
 -1       859-8.35383E+04-1.15133E+03-2.91889E+03 4.31728E+03-9.39963E-10-6.78995E-10
 -1       860-8.28299E+04 1.37701E+02-1.22704E+03-4.45342E+02-7.83729E-10 5.26654E-10
 -1       861-8.30150E+04-1.52050E+02-6.82909E+02 4.33333E+03-5.47346E-09-7.89039E-09
 -1       862-8.29006E+04 1.82066E+01-2.99697E+02-4.49689E+02 4.51503E-09-1.78657E-09
 -1       863-8.29311E+04-1.06960E+01-1.45085E+02 4.33529E+03 8.88141E-09 4.55085E-10
 -1       864-8.29139E+04-5.41603E-01-3.92596E+01-4.47304E+02 2.68179E-09-2.87195E-09
 -1       865-8.29045E+04 2.49425E+01 4.48499E+01 4.32327E+03 7.13850E-09-5.87593E-09
 -1       866-8.29257E+04-1.78512E+01 1.31883E+02-4.37663E+02 2.86278E-09-4.64127E-11
 -1       867-8.28313E+04 1.49357E+02 3.51322E+02 4.29710E+03 5.95082E-09 8.89341E-09
 -1       868-8.29840E+04-1.23924E+02 5.90141E+02-4.21135E+02 2.47900E-09-8.28081E-09
 -1       869-8.23906E+04 1.02846E+03 1.58129E+03 4.25381E+03-9.63979E-10-7.71448E-09
 -1       870-8.33618E+04-8.74847E+02 2.29336E+03-3.94378E+02 8.43897E-10-9.28821E-11
 -1       871-3.96841E+03-8.35465E+03-1.28939E+04 8.48732E+04 1.16052E-09-4.20823E-09
 -1       872-1.71977E+03-1.12446E+04-5.25929E+03 1.10033E+05 1.62845E-09-2.54477E-09
 -1       873-3.54092E+01-9.89571E+03 7.41843E+02 8.46864E+04 9.64292E-10-1.06536E-09
 -1       874 1.98121E+03-8.02646E+03 7.29277E+03 1.10072E+05 3.56931E-09-1.14896E-08
 -1       875 4.68506E+03-1.16254E+04 1.61782E+04 8.48421E+04 1.56888E-09 3.93766E-09
 -1       876 2.10153E+05 3.61653E+04 1.11988E+04 8.52101E+04-3.77781E-09 1.05165E-08
 -1       877 2.10800E+05 3.86166E+04 5.98043E+03 8.85140E+04-4.17731E-09 7.43694E-09
 -1       878 2.11199E+05 3.49260E+04 2.50552E+03 8.61299E+04 3.63002E-09-5.45606E-09
 -1       879 2.09277E+05 3.70993E+04 1.24815E+03 8.85930E+04 3.40151E-10 1.17396E-08
 -1       880 2.11276E+05 3.49123E+04 5.81119E+02 8.61674E+04 4.60818E-09 1.54757E-08
 -1       881 2.09176E+05 3.70349E+04 3.09600E+02 8.85771E+04 3.76770E-09 2.69333E-09
 -1       882 2.11283E+05 3.49215E+04 1.96825E+02 8.61684E+04-2.21462E-10 8.53036E-09
 -1       883 2.09169E+05 3.70318E+04 2.09589E+02 8.85725E+04-8.29471E-09 5.09903E-09
 -1       884 2.11279E+05 3.49192E+04 3.31589E+02 8.61686E+04-9.79981E-10-5.05867E-09
 -1       885 2.09195E+05 3.70365E+04 6.65546E+02 8.85808E+04 1.84701E-09-1.16631E-09
 -1       886 2.11253E+05 3.48997E+04 1.34085E+03 8.61659E+04 2.80860E-09-2.27817E-09
 -1       887 2.09431E+05 3.71910E+04 2.92873E+03 8.86147E+04-2.86457E-09 5.52473E-09
 -1       888 2.11068E+05 3.49323E+04 5.90144E+03 8.60722E+04 2.49756E-09-2.07365E-10
 -1       889 2.12947E+05 4.08421E+04 1.40981E+04 8.85034E+04 6.98627E-10 8.97330E-09
 -1       890 2.08664E+05 3.77884E+04 2.64046E+04 8.38208E+04 3.17277E-09 1.29367E-08
 -1       891-1.30287E+02-1.19222E+05-1.41176E+03 2.24572E+04 9.74751E-10 4.68413E-09
 -1       892-2.26944E+02-1.19560E+05-1.53417E+03 3.39852E+04-1.61958E-09-4.21267E-09
 -1       893-3.66712E+01-1.19266E+05-2.19071E+03 2.24616E+04 1.75783E-09 1.45474E-09
 -1       894-1.19670E+03-1.20398E+05-4.54745E+03 3.38641E+04 2.15323E-09 9.19681E-09
 -1       895-9.35858E+02-1.18319E+05-8.01318E+03 2.25767E+04-1.58718E-09 2.88310E-10
 -1       956-2.64603E+05-3.75474E+03-9.45200E+03 1.74603E+04-2.81625E-09-1.59957E-09
 -1       957-2.66470E+05-1.26651E+03-4.85229E+03 2.10277E+04-2.05910E-09-3.24894E-09
 -1       958-2.65442E+05-1.00756E+02-2.18609E+03 1.73485E+04 2.84581E-09-4.07886E-09
 -1       959-2.65591E+05-1.70738E+01-1.11664E+03 2.11490E+04-4.76575E-10-2.47064E-09
 -1       960-2.65517E+05 3.17784E+01-5.44369E+02 1.73378E+04-4.92855E-09-4.30282E-09
 -1       961-2.65527E+05 3.00544E+01-2.88818E+02 2.11611E+04-5.96083E-09-1.78647E-09
 -1       962-2.65532E+05 2.80192E+01-1.65290E+02 1.73362E+04-1.87242E-09 3.39287E-09
 -1       963-2.65524E+05 3.12729E+01-1.32618E+02 2.11633E+04-9.60426E-10-1.89266E-09
 -1       964-2.65535E+05 2.99152E+01-1.60906E+02 1.73356E+04 1.03034E-09-5.07191E-09
 -1       965-2.65534E+05 3.41527E+01-2.77966E+02 2.11634E+04 5.62672E-09 1.68427E-09
 -1       966-2.65527E+05 3.73950E+01-5.21738E+02 1.73361E+04 2.25214E-10 2.32262E-09
 -1       967-2.65602E+05-6.98729E+00-1.07008E+03 2.11565E+04 1.76351E-09 9.98284E-10
 -1       968-2.65461E+05-8.58085E+01-2.09409E+03 1.73425E+04 2.32171E-09 7.32763E-09
 -1       969-2.66452E+05-1.20075E+03-4.64951E+03 2.10820E+04 3.88718E-09 7.35122E-09
 -1       970-2.64662E+05-3.58473E+03-9.05625E+03 1.74130E+04 4.31919E-09 4.99949E-09
 -1       971-2.50540E+05-1.31848E+03-7.33140E+03 1.21539E+04-5.50244E-09-4.24885E-09
 -1       972-2.52323E+05-9.44924E+02-3.99269E+03 1.69747E+04-4.91673E-09-7.59121E-09
 -1       973-2.51355E+05-8.37863E+00-1.78780E+03 1.20526E+04-1.35515E-09-9.50195E-10
 -1       974-2.51479E+05-8.19750E+00-9.26187E+02 1.70841E+04 4.62023E-09-8.95500E-09
 -1       975-2.51418E+05 2.57732E+01-4.61882E+02 1.20434E+04 4.94310E-10 2.11924E-09
 -1       976-2.51429E+05 3.00458E+01-2.64588E+02 1.70951E+04-4.57567E-09 3.51690E-09
 -1       977-2.51430E+05 2.54662E+01-1.88619E+02 1.20414E+04 3.11525E-09 2.72166E-09
 -1       978-2.51432E+05 3.42308E+01-2.16097E+02 1.70980E+04 1.09203E-08-2.81602E-09
 -1       979-2.51430E+05 3.12470E+01-3.43197E+02 1.20405E+04 6.30905E-09-1.34378E-10
 -1       980-2.51457E+05 3.63235E+01-6.60162E+02 1.70985E+04 6.22313E-09-1.43967E-08
 -1       981-2.51409E+05 4.76931E+01-1.27725E+03 1.20409E+04-4.93867E-09-1.11828E-09
 -1       982-2.51632E+05-5.79002E+01-2.63929E+03 1.70934E+04-1.06418E-08-2.04643E-10
 -1       983-2.51248E+05-3.38660E+01-5.12774E+03 1.20458E+04 9.99307E-10-3.98961E-09
 -1       984-2.54098E+05-2.73553E+03-1.14828E+04 1.70248E+04-1.77465E-09-1.08855E-09
 -1       985-2.48927E+05-3.78586E+03-2.10860E+04 1.21142E+04 2.85490E-09-5.02314E-09
 -3
    1PSTEP                        11           6           1          
  100CL  106 5.39062E-01         409                     0    6           1
 -4  DISP        4    1
 -5  D1          1    2    1    0
 -5  D2          1    2    2    0
 -5  D3          1    2    3    0
 -5  ALL         1    2    0    0    1ALL
 -1         1 1.83161E-04 0.00000E+00 0.00000E+00
 -1         2 1.62692E-04-1.81706E-30 0.00000E+00
 -1         3 1.63625E-04 7.96072E-27-1.32349E-23
 -1         5 1.07195E-04-2.84580E-27 0.00000E+00
 -1         8 1.57750E-04-8.71083E-07 0.00000E+00
 -1         9 1.51557E-04-6.44708E-07 0.00000E+00
 -1        10 1.50562E-04-2.19902E-06 0.00000E+00
 -1        12 1.06930E-04 5.92372E-07 1.65436E-24
 -1        15 1.27431E-04-9.68851E-07 0.00000E+00
 -1        16 1.32475E-04-8.44176E-07 0.00000E+00
 -1        17 1.09270E-04-4.69315E-06 0.00000E+00
 -1        18 1.04965E-04 4.79405E-06 0.00000E+00
 -1        19 1.06136E-04 1.18165E-06 0.00000E+00
 -1        20 1.06281E-04 1.31654E-05 0.00000E+00
 -1        21 1.05685E-04 2.38979E-05 0.00000E+00
 -1        24 2.23270E-05-6.57095E-06 0.00000E+00
 -1        25 1.04898E-04 4.93395E-06 0.00000E+00
 -1        26 1.05794E-04 1.64029E-06 0.00000E+00
 -1        27 1.04146E-04 1.05062E-05 0.00000E+00
 -1        28 1.03678E-04 2.33961E-05 0.00000E+00
 -1        32 0.00000E+00 0.00000E+00 0.00000E+00
 -1        33 1.04194E-04 2.19683E-06 0.00000E+00
 -1        34 1.02593E-04 1.04816E-05 0.00000E+00
 -1        35 1.01085E-04 2.31293E-05 0.00000E+00
 -1        51 1.81512E-04-1.44911E-07 0.00000E+00
 -1        52 1.78452E-04-2.83858E-07 0.00000E+00
 -1        53 1.74258E-04-4.24033E-07 0.00000E+00
 -1        54 1.69218E-04-5.67140E-07 0.00000E+00
 -1        55 1.63618E-04-7.14067E-07-3.72231E-24
 -1        56 1.81557E-04-8.48028E-07-2.64698E-23
 -1        57 1.80039E-04-2.10835E-06-2.64698E-23
 -1        58 1.78627E-04-3.64281E-06-5.29396E-23
 -1        59 1.77261E-04-5.33059E-06 0.00000E+00
 -1        60 1.75898E-04-7.02960E-06 5.29396E-23
 -1        61 1.74486E-04-8.60161E-06-2.64698E-23
 -1        62 1.72978E-04-9.91810E-06 0.00000E+00
 -1        63 1.71330E-04-1.08616E-05 0.00000E+00
 -1        64 1.69510E-04-1.13454E-05-5.29396E-23
 -1        65 1.67492E-04-1.13015E-05-2.64698E-23
 -1        66 1.65266E-04-1.07057E-05 5.29396E-23
 -1        67 1.62834E-04-9.55586E-06-2.64698E-23
 -1        68 1.60209E-04-7.89647E-06 0.00000E+00
 -1        69 1.57425E-04-5.78930E-06-2.64698E-23
 -1        70 1.54509E-04-3.34021E-06 2.64698E-23
 -1        86 1.62358E-04-1.00661E-07-3.30872E-24
 -1        87 1.61358E-04-2.02276E-07-1.65436E-24
 -1        88 1.59727E-04-3.04760E-07-3.30872E-24
 -1        89 1.57504E-04-4.11663E-07 0.00000E+00
 -1        90 1.54757E-04-5.18686E-07 0.00000E+00
 -1       121 1.63259E-04-3.63417E-07 0.00000E+00
 -1       122 1.62164E-04-7.27354E-07 6.61744E-24
 -1       123 1.60341E-04-1.09232E-06 0.00000E+00
 -1       124 1.57795E-04-1.45889E-06 6.61744E-24
 -1       125 1.54533E-04-1.82743E-06-1.32349E-23
 -1       191 1.07187E-04 9.87333E-08 0.00000E+00
 -1       192 1.07165E-04 1.97465E-07 3.30872E-24
 -1       193 1.07129E-04 2.96197E-07 3.30872E-24
 -1       194 1.07077E-04 3.94927E-07 0.00000E+00
 -1       195 1.07011E-04 4.93653E-07 0.00000E+00
 -1       251 1.57358E-04 3.86196E-06 0.00000E+00
 -1       252 1.56967E-04 7.92278E-06 0.00000E+00
 -1       253 1.56580E-04 1.10108E-05-1.32349E-23
 -1       254 1.56195E-04 1.28408E-05 0.00000E+00
 -1       255 1.55812E-04 1.33635E-05 1.32349E-23
 -1       256 1.55428E-04 1.25504E-05 0.00000E+00
 -1       257 1.55043E-04 1.06237E-05 0.00000E+00
 -1       258 1.54656E-04 7.82303E-06 6.61744E-24
 -1       259 1.54268E-04 4.55216E-06 1.32349E-23
 -1       260 1.53879E-04 1.22226E-06 0.00000E+00
 -1       261 1.53492E-04-1.74443E-06 0.00000E+00
 -1       262 1.53106E-04-3.93141E-06-6.61744E-24
 -1       263 1.52722E-04-5.06858E-06-1.32349E-23
 -1       264 1.52337E-04-4.90228E-06-6.61744E-24
 -1       265 1.51952E-04-3.42374E-06 0.00000E+00
 -1       266 1.52697E-04-8.99481E-07-6.61744E-24
 -1       267 1.47643E-04-9.14301E-07-1.65436E-24
 -1       268 1.42590E-04-9.29980E-07 0.00000E+00
 -1       269 1.37537E-04-9.43112E-07-4.13590E-25
 -1       270 1.32484E-04-9.56184E-07 4.13590E-25
 -1       271 1.54728E-04 3.08638E-06 0.00000E+00
 -1       272 1.52083E-04 5.91587E-06-1.32349E-23
 -1       273 1.49829E-04 7.71763E-06 0.00000E+00
 -1       274 1.47917E-04 8.59001E-06 2.64698E-23
 -1       275 1.46309E-04 8.65384E-06-5.29396E-23
 -1       276 1.44953E-04 8.04161E-06-2.64698E-23
 -1       277 1.43796E-04 6.89890E-06 0.00000E+00
 -1       278 1.42779E-04 5.38026E-06-2.64698E-23
 -1       279 1.41842E-04 3.64728E-06 5.29396E-23
 -1       280 1.40924E-04 1.86535E-06 0.00000E+00
 -1       281 1.39962E-04 2.00603E-07 0.00000E+00
 -1       282 1.38895E-04-1.18269E-06 0.00000E+00
 -1       283 1.37664E-04-2.12574E-06-5.29396E-23
 -1       284 1.36217E-04-2.47584E-06 0.00000E+00
 -1       285 1.34493E-04-2.09478E-06 0.00000E+00
 -1       301 1.48024E-04-6.92417E-07-6.61744E-24
 -1       302 1.44519E-04-7.17701E-07-3.30872E-24
 -1       303 1.41127E-04-7.41469E-07-6.61744E-24
 -1       304 1.37933E-04-7.65394E-07 0.00000E+00
 -1       305 1.35022E-04-7.90607E-07 0.00000E+00
 -1       306 1.49637E-04-2.24922E-06 5.29396E-23
 -1       307 1.50688E-04-1.21101E-05 2.64698E-23
 -1       308 1.54130E-04-2.85617E-05 5.29396E-23
 -1       309 1.59158E-04-4.95113E-05 2.64698E-23
 -1       310 1.64696E-04-7.19056E-05-5.29396E-23
 -1       311 1.69629E-04-9.25940E-05 2.64698E-23
 -1       312 1.72960E-04-1.08788E-04 5.29396E-23
 -1       313 1.73767E-04-1.18015E-04 2.64698E-23
 -1       314 1.71623E-04-1.19273E-04 0.00000E+00
 -1       315 1.66284E-04-1.12106E-04 0.00000E+00
 -1       316 1.58187E-04-9.78182E-05 5.29396E-23
 -1       317 1.47983E-04-7.81850E-05 0.00000E+00
 -1       318 1.36799E-04-5.60894E-05-5.29396E-23
 -1       319 1.25861E-04-3.45659E-05 0.00000E+00
 -1       320 1.16309E-04-1.65477E-05-5.29396E-23
 -1       336 1.45799E-04-2.60266E-06 1.32349E-23
 -1       337 1.40163E-04-3.01119E-06 0.00000E+00
 -1       338 1.33671E-04-3.42457E-06 0.00000E+00
 -1       339 1.26343E-04-3.84285E-06 0.00000E+00
 -1       340 1.18201E-04-4.26724E-06-6.61744E-24
 -1       406 1.06834E-04 6.91078E-07 0.00000E+00
 -1       407 1.06724E-04 7.89751E-07 0.00000E+00
 -1       408 1.06599E-04 8.88363E-07 0.00000E+00
 -1       409 1.06459E-04 9.86795E-07-1.65436E-24
 -1       410 1.06305E-04 1.08486E-06 3.30872E-24
 -1       521 1.36470E-04-2.11485E-05 5.29396E-23
 -1       522 1.54172E-04-8.29881E-05-5.29396E-23
 -1       523 1.81209E-04-1.76194E-04 0.00000E+00
 -1       524 2.13168E-04-2.87724E-04 0.00000E+00
 -1       525 2.45427E-04-4.00389E-04 1.05879E-22
 -1       526 2.73360E-04-4.96891E-04-5.29396E-23
 -1       527 2.92552E-04-5.63613E-04-1.05879E-22
 -1       528 2.98458E-04-5.89677E-04 5.29396E-23
 -1       529 2.88508E-04-5.73052E-04 0.00000E+00
 -1       530 2.61389E-04-5.15343E-04 5.29396E-23
 -1       531 2.20053E-04-4.26528E-04 0.00000E+00
 -1       532 1.69456E-04-3.18821E-04 0.00000E+00
 -1       533 1.17354E-04-2.08099E-04-1.05879E-22
 -1       534 7.17631E-05-1.10421E-04 0.00000E+00
 -1       535 3.86752E-05-3.93577E-05 5.29396E-23
 -1       536 1.09058E-04 7.99255E-06 0.00000E+00
 -1       537 1.08748E-04 2.73798E-05 3.30872E-24
 -1       538 1.08360E-04 5.06433E-05-3.30872E-24
 -1       539 1.07950E-04 7.49374E-05-1.65436E-24
 -1       540 1.07585E-04 9.71467E-05 0.00000E+00
 -1       541 1.07319E-04 1.14167E-04-1.65436E-24
 -1       542 1.07141E-04 1.24228E-04-3.30872E-24
 -1       543 1.07010E-04 1.25595E-04 0.00000E+00
 -1       544 1.06859E-04 1.18736E-04 0.00000E+00
 -1       545 1.06628E-04 1.04169E-04-1.65436E-24
 -1       546 1.06314E-04 8.43680E-05 0.00000E+00
 -1       547 1.05944E-04 6.18397E-05 0.00000E+00
 -1       548 1.05584E-04 3.97934E-05-3.30872E-24
 -1       549 1.05297E-04 2.14365E-05 0.00000E+00
 -1       550 1.05096E-04 9.02853E-06-1.65436E-24
 -1       551 9.77279E-05-4.96719E-06 6.61744E-24
 -1       552 8.40318E-05-5.26185E-06 1.65436E-24
 -1       553 6.89075E-05-5.57489E-06-4.96308E-24
 -1       554 5.30917E-05-5.89998E-06 0.00000E+00
 -1       555 3.73209E-05-6.22721E-06 0.00000E+00
 -1       556 1.06142E-04 3.39436E-06 0.00000E+00
 -1       557 1.03707E-04 9.70730E-06-1.32349E-23
 -1       558 1.01890E-04 1.44009E-05 0.00000E+00
 -1       559 1.00626E-04 1.76434E-05 0.00000E+00
 -1       560 9.98483E-05 1.96026E-05 0.00000E+00
 -1       561 9.94904E-05 2.04476E-05 0.00000E+00
 -1       562 9.94878E-05 2.03475E-05 0.00000E+00
 -1       563 9.97759E-05 1.94720E-05 0.00000E+00
 -1       564 1.00291E-04 1.79908E-05 0.00000E+00
 -1       565 1.00968E-04 1.60736E-05 0.00000E+00
 -1       566 1.01745E-04 1.38906E-05 0.00000E+00
 -1       567 1.02558E-04 1.16118E-05 2.58494E-25
 -1       568 1.03343E-04 9.40720E-06 0.00000E+00
 -1       569 1.04037E-04 7.44667E-06 0.00000E+00
 -1       570 1.04576E-04 5.90012E-06 0.00000E+00
 -1       571 1.05036E-04 4.58680E-06 1.65436E-24
 -1       572 1.05109E-04 4.33359E-06 0.00000E+00
 -1       573 1.05182E-04 4.04332E-06-8.27181E-25
 -1       574 1.05255E-04 3.72534E-06 0.00000E+00
 -1       575 1.05329E-04 3.38905E-06 0.00000E+00
 -1       576 1.05402E-04 3.04388E-06 8.27181E-25
 -1       577 1.05475E-04 2.69928E-06-3.30872E-24
 -1       578 1.05549E-04 2.36472E-06-1.65436E-24
 -1       579 1.05622E-04 2.04964E-06-3.30872E-24
 -1       580 1.05696E-04 1.76351E-06 3.30872E-24
 -1       581 1.05769E-04 1.51578E-06 0.00000E+00
 -1       582 1.05842E-04 1.31590E-06 0.00000E+00
 -1       583 1.05916E-04 1.17330E-06 6.61744E-24
 -1       584 1.05989E-04 1.09734E-06 0.00000E+00
 -1       585 1.06063E-04 1.09728E-06 0.00000E+00
 -1       586 1.04914E-04 4.81886E-06 0.00000E+00
 -1       587 1.04836E-04 4.84309E-06-3.10193E-25
 -1       588 1.04763E-04 4.86705E-06 0.00000E+00
 -1       589 1.04728E-04 4.89060E-06 0.00000E+00
 -1       590 1.04763E-04 4.91344E-06 0.00000E+00
 -1       591 1.05008E-04 4.62974E-06 1.68021E-25
 -1       592 1.05059E-04 4.43301E-06 0.00000E+00
 -1       593 1.05120E-04 4.21045E-06 4.13590E-25
 -1       594 1.05189E-04 3.96789E-06 4.13590E-25
 -1       595 1.05262E-04 3.71127E-06 0.00000E+00
 -1       596 1.05339E-04 3.44646E-06 0.00000E+00
 -1       597 1.05416E-04 3.17934E-06-4.13590E-25
 -1       598 1.05492E-04 2.91577E-06 2.06795E-25
 -1       599 1.05565E-04 2.66162E-06-8.27181E-25
 -1       600 1.05631E-04 2.42276E-06 0.00000E+00
 -1       601 1.05690E-04 2.20505E-06-4.13590E-25
 -1       602 1.05739E-04 2.01436E-06 0.00000E+00
 -1       603 1.05776E-04 1.85658E-06-4.13590E-25
 -1       604 1.05798E-04 1.73762E-06 5.16988E-26
 -1       605 1.05804E-04 1.66332E-06 0.00000E+00
 -1       606 1.06149E-04 1.43098E-06 0.00000E+00
 -1       607 1.06159E-04 1.77627E-06 0.00000E+00
 -1       608 1.06168E-04 2.21190E-06 0.00000E+00
 -1       609 1.06177E-04 2.73151E-06 0.00000E+00
 -1       610 1.06186E-04 3.32872E-06 0.00000E+00
 -1       611 1.06195E-04 3.99704E-06 0.00000E+00
 -1       612 1.06204E-04 4.73001E-06 0.00000E+00
 -1       613 1.06213E-04 5.52113E-06 0.00000E+00
 -1       614 1.06222E-04 6.36393E-06 0.00000E+00
 -1       615 1.06230E-04 7.25191E-06 0.00000E+00
 -1       616 1.06239E-04 8.17858E-06 0.00000E+00
 -1       617 1.06248E-04 9.13747E-06 0.00000E+00
 -1       618 1.06256E-04 1.01221E-05 8.27181E-25
 -1       619 1.06265E-04 1.11259E-05 0.00000E+00
 -1       620 1.06273E-04 1.21425E-05 0.00000E+00
 -1       621 1.05996E-04 1.25821E-06 1.65436E-24
 -1       622 1.05902E-04 1.33507E-06 0.00000E+00
 -1       623 1.05844E-04 1.41192E-06 1.65436E-24
 -1       624 1.05813E-04 1.48864E-06 8.27181E-25
 -1       625 1.05800E-04 1.56522E-06 1.65436E-24
 -1       626 1.06126E-04 1.45652E-06 3.30872E-24
 -1       627 1.06088E-04 1.80989E-06 0.00000E+00
 -1       628 1.06024E-04 2.23414E-06-3.30872E-24
 -1       629 1.05935E-04 2.72119E-06-1.65436E-24
 -1       630 1.05827E-04 3.26296E-06 0.00000E+00
 -1       631 1.05701E-04 3.85130E-06-1.65436E-24
 -1       632 1.05560E-04 4.47808E-06 3.30872E-24
 -1       633 1.05408E-04 5.13517E-06 0.00000E+00
 -1       634 1.05248E-04 5.81442E-06 3.30872E-24
 -1       635 1.05082E-04 6.50770E-06-1.65436E-24
 -1       636 1.04915E-04 7.20688E-06 3.30872E-24
 -1       637 1.04748E-04 7.90382E-06 8.27181E-25
 -1       638 1.04584E-04 8.59037E-06-3.30872E-24
 -1       639 1.04428E-04 9.25841E-06-8.27181E-25
 -1       640 1.04281E-04 9.89978E-06 1.65436E-24
 -1       656 1.05472E-04 1.27327E-05-6.61744E-24
 -1       657 1.05037E-04 1.22828E-05 6.61744E-24
 -1       658 1.04837E-04 1.18342E-05 0.00000E+00
 -1       659 1.04731E-04 1.13860E-05-3.30872E-24
 -1       660 1.04554E-04 1.09364E-05 0.00000E+00
 -1       661 1.05983E-04 1.41592E-05 0.00000E+00
 -1       662 1.05709E-04 1.50937E-05-8.27181E-25
 -1       663 1.05458E-04 1.59707E-05 1.65436E-24
 -1       664 1.05227E-04 1.67936E-05 8.27181E-25
 -1       665 1.05015E-04 1.75653E-05 0.00000E+00
 -1       666 1.04822E-04 1.82886E-05 0.00000E+00
 -1       667 1.04645E-04 1.89661E-05 0.00000E+00
 -1       668 1.04486E-04 1.96004E-05-8.27181E-25
 -1       669 1.04341E-04 2.01940E-05 0.00000E+00
 -1       670 1.04211E-04 2.07493E-05 0.00000E+00
 -1       671 1.04094E-04 2.12685E-05-1.65436E-24
 -1       672 1.03990E-04 2.17539E-05 8.27181E-25
 -1       673 1.03897E-04 2.22076E-05-1.65436E-24
 -1       674 1.03815E-04 2.26313E-05-8.27181E-25
 -1       675 1.03744E-04 2.30275E-05 0.00000E+00
 -1       676 1.05349E-04 2.38138E-05-3.30872E-24
 -1       677 1.05014E-04 2.37297E-05 0.00000E+00
 -1       678 1.04679E-04 2.36456E-05-3.30872E-24
 -1       679 1.04345E-04 2.35618E-05-8.27181E-25
 -1       680 1.04011E-04 2.34781E-05-1.65436E-24
 -1       771 1.66083E-05 5.23028E-06 0.00000E+00
 -1       772 1.16995E-05 1.49081E-05 2.64698E-23
 -1       773 7.56449E-06 2.25744E-05 5.29396E-23
 -1       774 4.15186E-06 2.83511E-05 0.00000E+00
 -1       775 1.41103E-06 3.23638E-05-5.29396E-23
 -1       776-7.10877E-07 3.47436E-05-2.64698E-23
 -1       777-2.26722E-06 3.56249E-05 0.00000E+00
 -1       778-3.31263E-06 3.51468E-05 2.64698E-23
 -1       779-3.90202E-06 3.34510E-05 0.00000E+00
 -1       780-4.09135E-06 3.06833E-05 2.64698E-23
 -1       781-3.93669E-06 2.69913E-05 5.29396E-23
 -1       782-3.49492E-06 2.25260E-05-1.32349E-23
 -1       783-2.82294E-06 1.74394E-05 0.00000E+00
 -1       784-1.97822E-06 1.18859E-05 0.00000E+00
 -1       785-1.01818E-06 6.02066E-06 2.64698E-23
 -1       786 1.04951E-04 4.58885E-06 0.00000E+00
 -1       787 1.05006E-04 4.26996E-06 4.13590E-25
 -1       788 1.05062E-04 3.97281E-06 0.00000E+00
 -1       789 1.05118E-04 3.69295E-06 8.27181E-25
 -1       790 1.05174E-04 3.42821E-06 1.65436E-24
 -1       791 1.05231E-04 3.17644E-06-8.27181E-25
 -1       792 1.05287E-04 2.93715E-06-1.65436E-24
 -1       793 1.05343E-04 2.70993E-06-8.27181E-25
 -1       794 1.05400E-04 2.49588E-06-1.65436E-24
 -1       795 1.05456E-04 2.29618E-06-8.27181E-25
 -1       796 1.05513E-04 2.11384E-06 0.00000E+00
 -1       797 1.05569E-04 1.95194E-06 0.00000E+00
 -1       798 1.05625E-04 1.81618E-06 0.00000E+00
 -1       799 1.05682E-04 1.71235E-06 0.00000E+00
 -1       800 1.05738E-04 1.65038E-06 0.00000E+00
 -1       801 9.76408E-05 4.30204E-06-1.32349E-23
 -1       802 7.51631E-05 3.42894E-06 0.00000E+00
 -1       803 4.61994E-05 2.40683E-06 0.00000E+00
 -1       804 1.96700E-05 1.44159E-06-1.32349E-23
 -1       805 2.15806E-06 6.58022E-07 2.64698E-23
 -1       806 1.04942E-04 4.53863E-06 1.65436E-24
 -1       807 1.04978E-04 4.15609E-06-1.65436E-24
 -1       808 1.05007E-04 3.79075E-06 0.00000E+00
 -1       809 1.05027E-04 3.44617E-06 8.27181E-25
 -1       810 1.05039E-04 3.12591E-06-1.65436E-24
 -1       811 1.05040E-04 2.83343E-06-8.27181E-25
 -1       812 1.05029E-04 2.57220E-06-3.30872E-24
 -1       813 1.05005E-04 2.34570E-06-8.27181E-25
 -1       814 1.04967E-04 2.15736E-06-1.65436E-24
 -1       815 1.04913E-04 2.01064E-06-8.27181E-25
 -1       816 1.04843E-04 1.90898E-06 3.30872E-24
 -1       817 1.04754E-04 1.85582E-06 0.00000E+00
 -1       818 1.04645E-04 1.85462E-06 0.00000E+00
 -1       819 1.04517E-04 1.90878E-06 1.65436E-24
 -1       820 1.04366E-04 2.02173E-06 0.00000E+00
 -1       821 1.05697E-04 1.61839E-06 0.00000E+00
 -1       822 1.05594E-04 1.52219E-06-8.27181E-25
 -1       823 1.05491E-04 1.42188E-06 0.00000E+00
 -1       824 1.05387E-04 1.38763E-06 0.00000E+00
 -1       825 1.05284E-04 1.47551E-06 0.00000E+00
 -1       826 1.05180E-04 1.74101E-06 0.00000E+00
 -1       827 1.05075E-04 2.20173E-06 3.30872E-24
 -1       828 1.04971E-04 2.87436E-06-1.65436E-24
 -1       829 1.04867E-04 3.73039E-06 0.00000E+00
 -1       830 1.04762E-04 4.74044E-06 1.65436E-24
 -1       831 1.04658E-04 5.84231E-06-3.30872E-24
 -1       832 1.04554E-04 6.97334E-06 0.00000E+00
 -1       833 1.04449E-04 8.06463E-06-3.30872E-24
 -1       834 1.04346E-04 9.04751E-06 0.00000E+00
 -1       835 1.04243E-04 9.87635E-06 0.00000E+00
 -1       836 1.05687E-04 1.73294E-06-1.65436E-24
 -1       837 1.05467E-04 1.82766E-06-1.65436E-24
 -1       838 1.05169E-04 1.92221E-06 0.00000E+00
 -1       839 1.04833E-04 2.01615E-06 0.00000E+00
 -1       840 1.04495E-04 2.10993E-06 4.13590E-25
 -1       856 1.04120E-04 1.10958E-05-2.06795E-25
 -1       857 1.04091E-04 1.17964E-05 0.00000E+00
 -1       858 1.04063E-04 1.25905E-05-8.27181E-25
 -1       859 1.04033E-04 1.34608E-05 0.00000E+00
 -1       860 1.04004E-04 1.43894E-05-8.27181E-25
 -1       861 1.03974E-04 1.53588E-05 0.00000E+00
 -1       862 1.03945E-04 1.63512E-05 0.00000E+00
 -1       863 1.03915E-04 1.73489E-05-4.13590E-25
 -1       864 1.03885E-04 1.83341E-05 8.27181E-25
 -1       865 1.03856E-04 1.92890E-05-4.13590E-25
 -1       866 1.03826E-04 2.01960E-05 0.00000E+00
 -1       867 1.03796E-04 2.10373E-05 0.00000E+00
 -1       868 1.03767E-04 2.17954E-05 0.00000E+00
 -1       869 1.03737E-04 2.24528E-05 0.00000E+00
 -1       870 1.03708E-04 2.29922E-05 0.00000E+00
 -1       871 1.03772E-04 1.05052E-05 0.00000E+00
 -1       872 1.03508E-04 1.05019E-05 0.00000E+00
 -1       873 1.03306E-04 1.04982E-05 0.00000E+00
 -1       874 1.03119E-04 1.04940E-05 0.00000E+00
 -1       875 1.02897E-04 1.04892E-05-2.06795E-25
 -1       876 1.04024E-04 1.11057E-05 0.00000E+00
 -1       877 1.03884E-04 1.17591E-05 3.30872E-24
 -1       878 1.03726E-04 1.24599E-05-3.30872E-24
 -1       879 1.03553E-04 1.32022E-05-1.65436E-24
 -1       880 1.03367E-04 1.39797E-05 0.00000E+00
 -1       881 1.03170E-04 1.47864E-05-1.65436E-24
 -1       882 1.02964E-04 1.56164E-05-3.30872E-24
 -1       883 1.02751E-04 1.64634E-05 1.65436E-24
 -1       884 1.02535E-04 1.73215E-05-3.30872E-24
 -1       885 1.02317E-04 1.81847E-05 0.00000E+00
 -1       886 1.02098E-04 1.90470E-05 3.30872E-24
 -1       887 1.01883E-04 1.99021E-05 1.65436E-24
 -1       888 1.01672E-04 2.07442E-05-3.30872E-24
 -1       889 1.01468E-04 2.15670E-05 0.00000E+00
 -1       890 1.01273E-04 2.23646E-05 0.00000E+00
 -1       891 1.03366E-04 2.33515E-05 8.27181E-25
 -1       892 1.03035E-04 2.33067E-05 4.13590E-25
 -1       893 1.02663E-04 2.32619E-05-1.65436E-24
 -1       894 1.02229E-04 2.32172E-05 0.00000E+00
 -1       895 1.01710E-04 2.31726E-05-4.13590E-25
 -1       956 1.04095E-04 2.49742E-06-1.65436E-24
 -1       957 1.03996E-04 2.86008E-06 1.65436E-24
 -1       958 1.03896E-04 3.27807E-06 0.00000E+00
 -1       959 1.03795E-04 3.74423E-06 1.65436E-24
 -1       960 1.03695E-04 4.25144E-06-3.30872E-24
 -1       961 1.03595E-04 4.79249E-06 0.00000E+00
 -1       962 1.03494E-04 5.36019E-06 3.30872E-24
 -1       963 1.03394E-04 5.94736E-06-1.65436E-24
 -1       964 1.03293E-04 6.54678E-06 3.30872E-24
 -1       965 1.03193E-04 7.15125E-06 0.00000E+00
 -1       966 1.03092E-04 7.75358E-06 0.00000E+00
 -1       967 1.02992E-04 8.34656E-06 1.65436E-24
 -1       968 1.02892E-04 8.92299E-06 0.00000E+00
 -1       969 1.02792E-04 9.47571E-06 0.00000E+00
 -1       970 1.02692E-04 9.99754E-06 3.30872E-24
 -1       971 1.02500E-04 1.09837E-05-3.30872E-24
 -1       972 1.02406E-04 1.15680E-05 0.00000E+00
 -1       973 1.02311E-04 1.22255E-05 1.65436E-24
 -1       974 1.02217E-04 1.29468E-05-1.65436E-24
 -1       975 1.02122E-04 1.37223E-05 0.00000E+00
 -1       976 1.02027E-04 1.45427E-05-1.65436E-24
 -1       977 1.01932E-04 1.53985E-05-3.30872E-24
 -1       978 1.01837E-04 1.62802E-05-1.65436E-24
 -1       979 1.01742E-04 1.71783E-05-3.30872E-24
 -1       980 1.01647E-04 1.80834E-05 0.00000E+00
 -1       981 1.01553E-04 1.89860E-05 3.30872E-24
 -1       982 1.01458E-04 1.98765E-05 0.00000E+00
 -1       983 1.01363E-04 2.07456E-05 0.00000E+00
 -1       984 1.01269E-04 2.15837E-05 1.65436E-24
 -1       985 1.01175E-04 2.23813E-05 0.00000E+00
 -3
    1PSTEP                        12           6           1          
  100CL  106 5.39062E-01         409                     0    6           1
 -4  STRESS      6    1
 -5  SXX         1    4    1    1
 -5  SYY         1    4    2    2
 -5  SZZ         1    4    3    3
 -5  SXY         1    4    1    2
 -5  SYZ         1    4    2    3
 -5  SZX         1    4    3    1
 -1         1-2.25489E+06-9.61382E+05-4.76661E+05-1.24200E+06-3.78350E-10-6.17001E-09
 -1         2 2.61629E+03-2.84291E+05 8.52807E+03-8.14927E+02-8.04903E-11 9.63524E-09
 -1         3-2.35155E+02-1.03719E+06 2.48904E+02-5.99530E+02-1.53236E-10-4.87853E-09
 -1         5-2.28684E+00 2.82503E+05 7.29347E+00 9.54731E-02 1.27426E-11 1.56797E-08
 -1         8-1.07864E+06-3.95311E+05-1.02986E+05-5.57650E+05-1.81899E-10 1.41881E-09
 -1         9-2.17560E+06-7.10362E+05-2.71152E+05-6.72824E+05 4.86907E-09 1.74623E-09
 -1        10-9.26733E+02-1.08055E+06-1.48263E+03-4.05703E+03-5.39512E-09-1.75408E-08
 -1        12 7.05351E-01 2.82518E+05 2.36187E+02 7.55925E-01 1.21929E-10-1.84853E-08
 -1        15 2.00529E+03 1.10203E+03 6.48211E+03 4.38185E+00-2.06114E-10-3.68487E-08
 -1        16-2.84377E+06-1.24724E+06-4.62588E+05-1.32291E+06 1.11177E-08 1.28057E-09
 -1        17-1.27162E+06-7.17023E+05-2.45221E+05-6.36608E+05-6.38538E-09 3.73693E-09
 -1        18-4.02555E+04-1.46546E+04-3.18628E+04-7.35559E+04 5.17855E-09-4.41241E-09
 -1        19 8.97341E+04 1.04979E+05-6.44335E+02 1.76176E+04-2.56114E-10 3.46627E-09
 -1        20-4.22346E+04-4.23828E+05-9.38288E+04 2.86855E+04 3.66784E-09 5.57156E-09
 -1        21-3.90438E+01-2.40693E+05-7.72278E+02-5.53714E+01-1.04341E-09-3.81418E-09
 -1        24-3.10117E+06-7.88125E+05-3.53300E+05-1.12240E+06-4.05077E-08-1.84227E-08
 -1        25-5.21829E+04-3.62978E+05-6.65185E+04-1.20272E+05 3.96540E-10 4.57003E-09
 -1        26-2.77721E+04 6.97434E+04-1.58753E+04-7.26240E+03 1.51740E-09 4.05952E-09
 -1        27-6.51888E+04-2.31628E+05-8.66244E+04 5.23340E+04 5.82448E-09 8.84938E-10
 -1        28 1.85674E+04-6.70520E+04 1.36324E+04 2.03943E+04 9.30754E-10 3.09512E-10
 -1        32-1.07945E+06-1.02194E+06 1.82823E+05-5.74737E+05-2.41926E-08 5.25984E-09
 -1        33-1.35328E+05 6.70111E+04 2.39369E+04-3.61480E+04 3.12828E-10-7.88987E-09
 -1        34-1.71683E+05-1.72472E+04 4.29991E+02 5.35965E+04 3.07835E-09-2.28738E-10
 -1        35-1.88991E+04-2.66444E+04-1.04821E+03 4.19325E+04 4.54844E-09-3.13230E-09
 -1        51 2.08110E+04-3.54720E+05 5.09687E+04-9.67206E+05 4.80213E-10 1.29367E-08
 -1        52 1.13128E+04-3.51462E+05 3.19618E+04-1.12801E+06 1.18598E-09 5.60976E-09
 -1        53 7.34836E+03-3.66012E+05 2.48302E+04-9.63801E+05 2.98314E-10 7.27596E-10
 -1        54 2.03252E+04-3.64628E+05 3.69646E+04-1.13153E+06-2.54659E-10-5.06407E-09
 -1        55 3.98908E+04-3.78398E+05 6.42254E+04-9.63243E+05-1.45519E-11-5.89353E-10
 -1        56-4.31099E+06-4.82608E+05-3.50711E+05-1.66520E+06-2.99042E-09-5.41331E-09
 -1        57-4.46209E+06-7.90421E+05-2.36522E+05-1.64015E+06-2.40107E-10-9.94987E-09
 -1        58-4.38155E+06-5.93795E+05-8.24763E+04-1.64300E+06-1.80626E-09 8.42192E-09
 -1        59-4.38060E+06-6.59708E+05-4.92380E+04-1.66626E+06 1.78420E-09-1.81790E-08
 -1        60-4.39157E+06-6.09581E+05-1.92356E+04-1.64032E+06-2.51794E-09-2.71848E-09
 -1        61-4.37090E+06-6.39223E+05-1.09044E+04-1.66702E+06 2.32103E-09-3.63002E-09
 -1        62-4.39102E+06-6.13818E+05-5.20646E+03-1.64235E+06 6.51198E-10-1.30079E-08
 -1        63-4.37492E+06-6.31260E+05-4.16544E+03-1.66075E+06 1.66165E-09-3.59381E-09
 -1        64-4.38744E+06-6.17546E+05-4.68014E+03-1.64654E+06-3.74484E-10-4.63501E-09
 -1        65-4.38407E+06-6.25010E+05-9.25042E+03-1.65121E+06 6.21867E-11-1.93622E-08
 -1        66-4.38183E+06-6.20147E+05-1.62211E+04-1.65184E+06 2.62844E-09-1.14997E-08
 -1        67-4.40232E+06-6.32009E+05-4.12419E+04-1.63900E+06-1.17547E-09-8.05130E-09
 -1        68-4.36938E+06-6.10936E+05-6.91292E+04-1.65866E+06 1.30422E-09 1.40572E-08
 -1        69-4.47584E+06-7.36443E+05-1.98121E+05-1.61154E+06-4.37467E-10 5.68980E-09
 -1        70-4.30922E+06-5.18776E+05-2.93832E+05-1.67835E+06 1.52068E-09 1.04774E-08
 -1        86-1.31436E+03-2.87108E+05 9.10390E+03 4.07451E+02 1.10413E-09-4.55543E-09
 -1        87 8.69250E+03-2.81405E+05 1.90273E+04-1.57484E+03 1.85332E-09 6.44602E-09
 -1        88-7.36792E+03-2.89995E+05 2.91278E+04 1.16738E+03 2.58478E-09 1.58282E-08
 -1        89 5.48804E+04-2.60110E+05 7.85193E+04-2.88982E+03 3.83898E-09-2.40393E-08
 -1        90-4.73360E+04-3.08384E+05 1.11025E+05 1.72287E+03 3.87809E-09-5.36198E-09
 -1       121-3.44430E+02-1.03810E+06 1.26165E+02 2.99110E+02 6.25491E-10-8.43647E-09
 -1       122-1.49812E+02-1.03715E+06 5.29480E+02-1.19793E+03-2.19665E-09 4.37376E-09
 -1       123-3.95387E+02-1.03816E+06 7.41480E+02 8.94920E+02 1.83059E-09 9.16953E-09
 -1       124 8.34458E+02-1.03660E+06 2.18510E+03-2.58403E+03-4.01678E-09 7.91533E-09
 -1       125-1.01106E+03-1.03871E+06 3.23519E+03 1.68283E+03 2.60661E-09-1.41881E-10
 -1       191-2.64430E+00 2.82527E+05 8.86890E+00-4.79322E-02 7.78597E-11 7.73343E-09
 -1       192-2.95553E+00 2.82503E+05 1.54348E+01 4.31158E-01 1.46566E-10-1.97497E-09
 -1       193-4.42281E+00 2.82527E+05 2.88511E+01-3.84713E-01 1.04018E-10 3.73166E-09
 -1       194-5.10769E+00 2.82505E+05 5.83620E+01 1.02880E+00 9.76597E-11 1.61162E-09
 -1       195-7.84084E+00 2.82525E+05 1.14305E+02-6.48820E-01 2.35339E-10-1.56147E-08
 -1       251-1.09321E+06 5.00956E+03-1.19328E+04-9.27060E+03-1.52170E-10 4.22915E-11
 -1       252-1.09720E+06-5.76708E+03-8.19084E+03 1.14350E+04-4.81009E-10-1.64729E-08
 -1       253-1.09576E+06 7.18130E+02-3.22713E+03-4.71904E+03-1.24487E-10-2.38299E-09
 -1       254-1.09414E+06-8.54410E+02-1.58138E+03 7.80632E+02-2.84388E-10-1.24187E-08
 -1       255-1.09619E+06 5.93868E+01-9.23962E+02 1.38382E+03 2.63981E-10 8.76497E-09
 -1       256-1.09419E+06-8.01035E+01-1.28232E+02-1.05212E+04-1.94774E-10 2.22526E-08
 -1       257-1.09575E+06-2.12308E+01-1.07029E+02 6.58260E+03 4.03020E-10 2.48995E-09
 -1       258-1.09506E+06 1.21092E+02 3.07952E+02-1.79124E+04-1.33872E-09 5.95107E-09
 -1       259-1.09542E+06-6.93188E+01 6.10057E+02 8.77534E+03-4.62940E-10-1.23605E-08
 -1       260-1.09493E+06 5.34623E+02 1.51055E+03-1.84112E+04 1.12976E-10-1.94581E-09
 -1       261-1.09589E+06-4.26801E+02 2.51549E+03 7.08155E+03 2.67471E-09-5.67888E-09
 -1       262-1.09275E+06 3.06256E+03 6.55707E+03-1.18205E+04-5.51267E-10 4.23518E-09
 -1       263-1.09750E+06-2.65812E+03 9.97825E+03 2.18430E+03-1.31831E-09 5.22414E-09
 -1       264-1.08453E+06 1.95038E+04 2.80205E+04-8.37983E+02-2.38197E-09 1.29862E-08
 -1       265-1.10404E+06-1.68575E+04 3.90777E+04-3.90091E+03-7.55222E-10 6.28643E-09
 -1       266-3.63013E+04-1.69718E+04 8.51863E+04-9.37703E+01-1.30967E-10-2.11921E-08
 -1       267 4.20845E+04 1.97852E+04 6.02018E+04 1.08177E+02-1.64619E-10-7.63514E-08
 -1       268-5.64339E+03-2.80190E+03 2.23771E+04-1.37845E+01-1.69166E-10-6.08491E-08
 -1       269 6.66326E+03 3.35354E+03 1.45444E+04 1.60559E+01-7.38964E-11-3.61799E-08
 -1       270-1.00016E+03-5.51000E+02 7.02080E+03-2.17894E+00-4.91127E-11-2.46261E-08
 -1       271-3.41253E+06-4.27054E+05-2.59171E+05-1.32960E+06 1.86628E-09-8.04721E-09
 -1       272-3.50087E+06-6.20706E+05-1.66629E+05-1.33232E+06-9.41327E-10-1.17379E-08
 -1       273-3.46266E+06-4.90296E+05-6.12320E+04-1.31648E+06 1.58252E-10-3.64162E-09
 -1       274-3.44147E+06-5.43932E+05-3.42345E+04-1.35293E+06-5.05679E-09-3.55249E-09
 -1       275-3.47115E+06-4.95192E+05-1.42645E+04-1.31249E+06 2.20007E-09 5.12318E-09
 -1       276-3.43087E+06-5.38819E+05-7.54224E+03-1.35973E+06-2.85581E-10 4.77758E-09
 -1       277-3.47369E+06-4.94188E+05-3.71039E+03-1.31040E+06-1.77624E-09 3.69482E-09
 -1       278-3.42794E+06-5.40247E+05-2.66599E+03-1.36294E+06 1.50817E-09-9.96218E-09
 -1       279-3.47446E+06-4.93449E+05-2.84343E+03-1.30959E+06 8.20251E-10 1.76294E-09
 -1       280-3.42812E+06-5.41165E+05-5.21190E+03-1.36328E+06 2.87122E-09-5.15035E-09
 -1       281-3.47358E+06-4.93280E+05-9.48911E+03-1.31008E+06-6.97128E-10 6.20366E-09
 -1       282-3.43412E+06-5.45639E+05-2.27434E+04-1.36010E+06 7.73070E-10 7.67932E-09
 -1       283-3.46828E+06-4.89717E+05-4.05320E+04-1.31236E+06 7.41238E-11-1.52795E-08
 -1       284-3.47315E+06-5.96711E+05-1.10396E+05-1.34658E+06-7.15204E-10-7.02130E-10
 -1       285-3.43494E+06-4.48028E+05-1.71713E+05-1.32122E+06-3.00133E-10 6.98492E-10
 -1       301 2.11558E+04-5.27041E+04 1.56161E+05-1.01351E+05-7.27596E-10 1.96587E-09
 -1       302 2.22476E+04-1.31763E+04 1.03754E+05-1.49015E+05 8.65384E-10 9.45738E-09
 -1       303 1.12109E+03-3.72763E+04 8.16333E+04-1.01441E+05-8.84029E-10 8.03266E-09
 -1       304 2.77425E+04-7.49008E+03 1.22289E+05-1.48555E+05 8.24002E-10 7.51970E-09
 -1       305 2.68098E+04-5.73970E+04 1.97134E+05-1.01852E+05-5.52973E-10-8.03630E-09
 -1       306-5.67783E+06-6.12454E+05-4.29735E+05-2.14089E+06-1.45883E-09 2.91038E-09
 -1       307-5.63036E+06-1.15373E+06-2.79597E+05-2.28991E+06-2.24481E-08 8.61473E-09
 -1       308-5.82742E+06-6.63119E+05-1.00780E+05-2.00879E+06-1.95780E-09 1.34678E-08
 -1       309-5.46816E+06-1.09106E+06-5.84296E+04-2.45918E+06 1.03075E-08 8.54925E-09
 -1       310-5.85148E+06-6.63708E+05-2.27552E+04-1.98123E+06-5.10227E-10 1.80280E-08
 -1       311-5.47592E+06-1.02835E+06-9.34769E+03-2.40967E+06 2.64299E-08 5.62750E-09
 -1       312-5.81395E+06-7.29433E+05-1.23337E+04-2.05445E+06 4.59477E-09 9.01582E-09
 -1       313-5.59532E+06-8.64966E+05 4.33773E+03-2.20346E+06-5.04679E-09-2.88037E-09
 -1       314-5.71901E+06-8.36372E+05-1.60899E+04-2.17772E+06 1.23036E-08-1.77806E-09
 -1       315-5.80874E+06-6.68351E+05-6.72812E+03-1.98089E+06-4.33556E-09 5.83805E-09
 -1       316-5.60446E+06-9.23252E+05-2.96380E+04-2.27951E+06-1.84191E-08-1.72731E-08
 -1       317-5.99629E+06-5.66270E+05-6.68240E+04-1.85204E+06 2.67125E-08-2.34450E-08
 -1       318-5.54504E+06-9.29394E+05-1.12879E+05-2.31682E+06-2.89256E-08 5.60249E-10
 -1       319-6.08802E+06-7.70386E+05-3.27016E+05-1.82996E+06-1.16197E-08-4.91127E-10
 -1       320-5.51206E+06-7.23225E+05-4.88674E+05-2.29941E+06 1.39989E-08-2.44472E-09
 -1       336 5.61697E+02-1.12380E+06-6.32450E+03 2.36344E+03-1.07161E-08-5.98629E-09
 -1       337-2.33613E+03-1.12496E+06-7.00179E+03-5.83151E+03-2.01560E-08 5.56611E-09
 -1       338 3.78039E+02-1.12394E+06-9.21396E+03 3.44782E+03-1.44214E-08 6.67023E-09
 -1       339-9.52234E+03-1.12958E+06-2.01424E+04-7.95427E+03-2.62071E-08 5.89353E-09
 -1       340 6.31721E+03-1.11944E+06-3.12396E+04 4.46810E+03-1.77351E-08 8.82937E-09
 -1       406 1.88915E+01 2.82515E+05 4.66442E+02-1.14039E-01 2.67704E-10-1.22077E-08
 -1       407 1.63263E+02 2.82600E+05 9.91016E+02-4.09338E+00-2.35332E-11-8.17749E-09
 -1       408 5.10938E+02 2.82443E+05 1.97944E+03 4.30700E+00 2.73417E-10 1.09162E-09
 -1       409 2.14069E+03 2.83232E+05 4.45592E+03-4.23956E+01-1.33696E-10-6.99970E-10
 -1       410 6.14930E+03 2.81881E+05 9.09670E+03 3.98965E+01 1.79170E-10-3.13548E-10
 -1       521-8.17528E+06-7.90973E+05-7.90820E+05-2.55326E+06-7.87986E-09 1.73459E-08
 -1       522-5.66675E+06-2.10005E+06-2.02603E+05-3.95284E+06-7.98063E-08-3.60378E-08
 -1       523-8.17383E+06-3.37997E+05-1.55709E+05-1.79648E+06 6.50471E-09-5.46352E-08
 -1       524-6.03666E+06-2.27807E+06-3.55495E+04-4.96032E+06 9.50021E-08-8.65984E-08
 -1       525-8.17374E+06-3.37534E+05-4.32119E+04-1.76551E+06 4.45434E-08-6.02759E-08
 -1       526-5.58120E+06-1.94440E+06 1.34058E+05-4.10032E+06 6.13509E-08-4.77303E-09
 -1       527-8.29506E+06-9.17235E+05-2.15771E+05-2.46078E+06 3.73984E-08-7.61793E-09
 -1       528-5.75599E+06-8.97544E+05 2.71623E+05-2.31232E+06 5.10481E-08-1.39116E-08
 -1       529-7.65722E+06-1.62419E+06-2.34827E+05-3.26905E+06-1.80735E-08-9.76434E-09
 -1       530-7.76727E+06 4.03197E+05 1.58563E+05-1.32081E+06-3.38187E-08 4.80504E-08
 -1       531-6.59808E+06-1.98668E+06-6.21078E+04-3.64359E+06-9.96079E-08-5.81713E-09
 -1       532-9.30353E+06 9.99696E+05-3.02357E+04-1.23146E+06 5.25997E-08-1.07736E-07
 -1       533-6.45597E+06-1.99231E+06-1.30215E+05-3.67161E+06 8.31642E-09-1.53701E-07
 -1       534-8.31139E+06 4.05075E+05-2.06111E+05-1.23346E+06-3.33457E-08 1.07743E-07
 -1       535-7.34903E+06-1.55980E+06-7.40036E+05-3.40716E+06-6.19912E-09 7.48259E-08
 -1       536-3.90533E+05-1.90899E+04 3.32230E+04-1.33896E+04-2.19495E-09 2.40725E-08
 -1       537-3.31342E+05 2.14069E+04 3.13396E+04 3.21079E+04-4.10662E-08 2.65550E-08
 -1       538-3.61768E+05-2.06631E+03 9.95547E+03-1.95815E+04 1.21258E-09 4.49290E-08
 -1       539-3.48685E+05 3.04721E+03 8.21048E+03 3.50213E+04 5.20154E-08 4.64216E-08
 -1       540-3.73426E+05-5.38352E+02 3.32160E+01-1.63100E+04-4.12615E-09 3.17890E-08
 -1       541-3.12118E+05 1.99193E+03 1.10712E+04 2.00374E+04-1.79575E-08 1.25945E-08
 -1       542-3.97350E+05-1.82807E+03-6.90894E+03-4.57762E+03 5.28235E-09 1.68565E-08
 -1       543-2.95806E+05 2.22878E+03 1.30431E+04-5.98377E+03-9.91582E-09-1.21601E-08
 -1       544-3.89318E+05-1.13976E+03-6.25120E+03 9.69191E+03 7.66101E-09-2.57727E-08
 -1       545-3.30667E+05 1.16321E+02 4.52833E+03-2.88606E+04 3.37383E-09-3.04653E-08
 -1       546-3.63389E+05 1.03031E+03-3.10618E+03 1.82953E+04 9.04458E-09-2.27692E-08
 -1       547-3.55155E+05-3.39633E+03-5.29426E+03-3.66943E+04-2.80561E-08-3.55127E-08
 -1       548-3.65429E+05 2.88076E+03-1.17524E+04 1.75406E+04-3.04530E-08-2.66232E-08
 -1       549-3.32111E+05-1.72173E+04-2.09248E+04-2.59671E+04-2.04639E-08-1.71094E-08
 -1       550-3.85656E+05 1.41877E+04-4.80680E+04 7.55016E+03 7.58746E-10-1.32750E-08
 -1       551 1.72619E+04-5.80208E+05 2.43819E+04-9.65344E+05-4.76866E-08 1.20781E-09
 -1       552 3.92008E+04-5.91822E+05 3.18093E+04-1.37495E+06-3.55940E-08 1.99361E-08
 -1       553 2.79395E+04-5.97776E+05 4.65816E+04-9.61709E+05-5.64905E-08 1.29075E-08
 -1       554 6.58431E+04-5.87583E+05 9.75949E+04-1.37639E+06-3.54194E-08 1.72054E-08
 -1       555 5.61197E+04-6.16426E+05 1.73347E+05-9.62653E+05-5.74873E-08-4.02724E-09
 -1       556 1.00518E+05-1.86118E+05 6.21344E+04-2.35222E+05-8.84756E-09-5.23869E-09
 -1       557 1.76064E+05-2.47173E+05 3.28910E+04-2.95766E+05 3.91447E-09 5.60976E-09
 -1       558 9.86967E+04-1.93535E+05 1.29075E+04-2.28930E+05-4.20550E-09-7.93079E-10
 -1       559 1.63855E+05-2.55095E+05 6.67521E+03-3.01695E+05 7.69796E-09-4.68663E-09
 -1       560 9.51585E+04-1.91240E+05 2.53394E+03-2.31281E+05 6.57747E-09 5.93172E-09
 -1       561 1.58772E+05-2.53518E+05 1.43805E+03-3.04952E+05 9.31323E-10 3.71710E-09
 -1       562 9.23464E+04-1.89407E+05 4.34931E+02-2.33301E+05 1.12050E-09 3.01225E-09
 -1       563 1.55470E+05-2.52088E+05 3.52043E+02-3.07069E+05-2.91038E-09-1.19613E-08
 -1       564 9.05180E+04-1.88244E+05 9.58241E+01-2.34595E+05 7.51606E-09 5.33601E-09
 -1       565 1.53608E+05-2.51283E+05 1.13858E+02-3.08246E+05 3.35058E-09 1.03246E-08
 -1       566 8.97213E+04-1.87729E+05 1.68857E+01-2.35159E+05-4.15275E-09-7.97081E-09
 -1       567 1.53145E+05-2.51069E+05-5.75099E+01-3.08459E+05 1.18324E-08 5.91353E-09
 -1       568 8.99963E+04-1.87913E+05-2.92579E+02-2.35045E+05-2.13731E-09 1.03973E-08
 -1       569 1.53309E+05-2.50947E+05-7.03968E+02-3.06988E+05-7.80346E-10 1.37952E-08
 -1       570 9.19816E+04-1.89566E+05-1.65465E+03-2.34833E+05 9.04402E-09 1.28966E-08
 -1       571 2.09399E+05 7.71402E+03 1.13891E+04-5.42707E+04-2.20552E-10 1.60412E-09
 -1       572 2.11089E+05 2.70560E+03 5.58015E+03-5.95091E+04-1.71076E-09 1.13132E-08
 -1       573 2.10076E+05 6.67510E+02 2.47904E+03-5.41397E+04 7.82165E-11 1.41863E-08
 -1       574 2.10272E+05 2.41698E+02 1.24225E+03-5.96577E+04 1.40267E-09-2.91993E-09
 -1       575 2.10150E+05 5.97829E+01 5.85689E+02-5.41224E+04 2.89151E-09 2.98860E-09
 -1       576 2.10162E+05 4.22451E+01 2.98560E+02-5.96775E+04 2.68640E-09 1.11941E-08
 -1       577 2.10164E+05 2.57088E+01 1.47742E+02-5.41201E+04-5.49107E-10 1.03455E-08
 -1       578 2.10155E+05 2.96783E+01 8.20091E+01-5.96799E+04-2.27010E-09-1.54751E-09
 -1       579 2.10182E+05 2.00430E+01 5.25166E+01-5.41200E+04-1.30512E-09 8.22092E-09
 -1       580 2.10180E+05 1.90092E+01 5.32836E+01-5.96768E+04-3.71074E-09-2.89538E-09
 -1       581 2.10212E+05 7.76656E+00 7.64103E+01-5.41233E+04-2.62844E-10-8.22638E-09
 -1       582 2.10234E+05 2.06021E+01 1.49319E+02-5.96436E+04 1.59935E-09 1.99088E-09
 -1       583 2.10248E+05 5.33064E+01 2.87820E+02-5.41532E+04 7.58519E-10 7.86076E-09
 -1       584 2.10385E+05 2.79619E+02 6.46862E+02-5.93923E+04-1.60344E-09-3.59489E-09
 -1       585 2.10220E+05 8.47127E+02 1.31362E+03-5.43750E+04-2.55568E-10 4.36557E-11
 -1       586-2.50019E+03 6.90870E+04-3.15645E+03-1.86679E+05 9.54969E-12-6.56337E-09
 -1       587-5.54175E+02 6.86835E+04-1.57659E+02-2.05457E+05-1.74623E-10 1.48452E-09
 -1       588 7.22973E+02 6.87366E+04 2.71976E+03-1.86581E+05-5.96629E-10-6.35919E-09
 -1       589 3.78606E+03 7.02122E+04 7.65277E+03-2.05258E+05-9.22228E-10-1.19676E-08
 -1       590 1.10301E+04 6.78697E+04 1.62882E+04-1.86886E+05-7.07587E-10 1.25510E-10
 -1       591-4.45141E+04-1.20943E+04-1.48925E+04-2.22079E+04-1.41358E-09-2.67391E-10
 -1       592-4.62205E+04-1.54408E+04-8.06652E+03-2.57376E+04 5.83839E-10 6.54700E-09
 -1       593-4.60153E+04-1.10017E+04-3.35806E+03-2.32883E+04-2.75350E-10 5.80098E-09
 -1       594-4.41501E+04-1.32710E+04-1.67482E+03-2.58346E+04 5.38193E-10 2.67258E-09
 -1       595-4.61302E+04-1.09970E+04-7.69521E+02-2.33378E+04-4.94231E-09-1.92884E-10
 -1       596-4.40096E+04-1.31716E+04-3.92038E+02-2.58195E+04-8.36297E-09-4.76564E-09
 -1       597-4.61448E+04-1.10067E+04-2.15310E+02-2.33397E+04-4.08534E-09-3.68578E-09
 -1       598-4.39961E+04-1.31678E+04-1.76451E+02-2.58152E+04-2.64049E-09-8.22456E-09
 -1       599-4.61436E+04-1.10069E+04-2.29606E+02-2.33394E+04-1.58946E-09-6.84076E-09
 -1       600-4.40107E+04-1.31728E+04-4.29897E+02-2.58187E+04 2.13595E-09 9.05675E-09
 -1       601-4.61255E+04-1.09968E+04-8.49863E+02-2.33364E+04 4.06317E-10 1.98793E-09
 -1       602-4.41658E+04-1.32825E+04-1.85309E+03-2.58331E+04-1.26477E-09 3.86979E-09
 -1       603-4.59966E+04-1.10040E+04-3.71674E+03-2.32819E+04-1.76874E-09-4.77417E-09
 -1       604-4.64664E+04-1.56737E+04-8.92813E+03-2.57121E+04 3.00724E-09 1.84150E-09
 -1       605-4.43233E+04-1.22226E+04-1.64831E+04-2.20962E+04 8.77435E-10 8.10542E-09
 -1       606 2.75858E+04-1.00592E+04-1.80958E+04 2.68338E+04-2.56568E-09 1.49703E-09
 -1       607 2.44877E+04-3.25272E+03-9.01071E+03 3.01251E+04-1.94632E-09 1.13978E-08
 -1       608 2.62441E+04-5.56180E+02-4.03524E+03 2.66217E+04 1.82627E-09-4.12024E-09
 -1       609 2.58950E+04-1.52113E+02-2.03803E+03 3.03613E+04-1.18416E-09-6.58815E-09
 -1       610 2.60807E+04 1.75487E+01-9.73540E+02 2.65979E+04-3.25781E-09 7.58996E-09
 -1       611 2.60152E+04 3.02841E+01-4.90892E+02 3.03871E+04-7.59610E-09 1.03541E-08
 -1       612 2.60364E+04 3.41399E+01-2.34734E+02 2.65955E+04-3.44608E-09 5.42514E-09
 -1       613 2.60119E+04 3.96013E+01-1.06504E+02 3.03901E+04-4.65570E-09 7.57473E-09
 -1       614 2.60120E+04 3.53023E+01-2.87433E+01 2.65947E+04-1.31786E-09 8.73229E-09
 -1       615 2.59990E+04 4.56729E+01 3.58898E+01 3.03905E+04 4.20960E-09 4.56771E-09
 -1       616 2.59934E+04 4.16242E+01 1.15615E+02 2.65950E+04-2.47337E-09-2.59092E-09
 -1       617 2.60061E+04 7.45610E+01 2.67123E+02 3.03900E+04-3.44949E-09-8.57835E-09
 -1       618 2.59650E+04 1.21893E+02 5.39529E+02 2.65951E+04-1.03637E-09-3.51861E-09
 -1       619 2.61924E+04 4.94421E+02 1.21239E+03 3.03892E+04 1.33207E-09-6.89329E-09
 -1       620 2.57832E+04 1.40381E+03 2.43702E+03 2.65940E+04 3.00838E-09-1.80898E-09
 -1       621 2.94919E+02 2.20121E+05 2.65081E+03 1.14275E+04-1.25056E-10-3.97063E-09
 -1       622 3.48827E+02 2.20774E+05 2.36810E+03 1.66525E+04-1.25738E-10 3.43744E-09
 -1       623 1.72894E+01 2.20290E+05 2.87719E+03 1.13734E+04-1.86247E-10-3.08160E-09
 -1       624 1.34614E+03 2.21682E+05 5.59791E+03 1.67068E+04-1.57172E-11-4.87120E-09
 -1       625 1.35326E+03 2.19197E+05 9.79497E+03 1.13731E+04 4.63842E-11-2.10628E-09
 -1       626 1.88458E+05 5.08896E+04 3.94329E+03 9.99792E+04-1.65210E-09-1.26420E-09
 -1       627 1.86068E+05 5.25690E+04 1.90024E+03 1.03944E+05 9.41327E-10-6.42910E-09
 -1       628 1.88589E+05 4.90428E+04 8.02669E+02 1.00595E+05 2.54477E-09-4.76484E-09
 -1       629 1.85519E+05 5.20996E+04 3.93259E+02 1.04180E+05 2.10957E-09-4.53156E-10
 -1       630 1.88596E+05 4.89562E+04 1.81690E+02 1.00613E+05 2.15550E-10-1.81308E-09
 -1       631 1.85453E+05 5.20878E+04 9.73677E+01 1.04180E+05-4.44743E-10 1.50654E-08
 -1       632 1.88587E+05 4.89632E+04 6.33792E+01 1.00605E+05-4.81987E-09 2.22883E-10
 -1       633 1.85439E+05 5.20932E+04 6.95988E+01 1.04172E+05-2.33263E-09-6.77574E-10
 -1       634 1.88576E+05 4.89643E+04 1.11502E+02 1.00600E+05 1.46065E-09-4.67935E-10
 -1       635 1.85443E+05 5.20947E+04 2.25312E+02 1.04172E+05 4.92764E-09 1.03612E-08
 -1       636 1.88565E+05 4.89631E+04 4.54689E+02 1.00597E+05 7.98082E-11-1.78673E-08
 -1       637 1.85537E+05 5.21667E+04 9.99180E+02 1.04168E+05 2.98951E-09-2.74122E-09
 -1       638 1.88527E+05 4.91854E+04 2.05325E+03 1.00495E+05 1.44848E-08 6.98674E-09
 -1       639 1.86613E+05 5.36672E+04 4.85741E+03 1.03848E+05 1.13080E-08-1.51908E-08
 -1       640 1.88383E+05 5.36576E+04 1.00801E+04 9.85988E+04 8.60928E-09-2.93539E-09
 -1       656 5.02775E+04-1.27521E+06-1.21369E+05-4.33286E+02 1.80444E-09-1.42187E-08
 -1       657-6.64570E+04-1.33000E+06-1.00415E+05 7.58013E+03 6.06633E-10-1.56012E-08
 -1       658 1.59648E+04-1.29082E+06-6.16755E+04-1.77126E+03 9.32346E-10 7.25798E-10
 -1       659-7.14075E+04-1.33235E+06-1.06917E+05 8.51067E+03 8.19455E-10-4.47922E-09
 -1       660 5.52165E+04-1.27287E+06-1.32551E+05-1.36382E+03-9.24047E-10 3.00147E-10
 -1       661 1.67992E+05 1.82110E+04 1.63451E+04 6.56849E+04 4.32010E-10 6.60475E-09
 -1       662 1.76648E+05 3.08902E+04 1.10141E+04 6.26825E+04 1.05013E-09-1.95462E-09
 -1       663 1.71198E+05 2.34580E+04 3.85273E+03 6.47576E+04 3.46063E-10-5.80690E-09
 -1       664 1.72936E+05 2.47499E+04 2.30367E+03 6.38114E+04-2.30520E-09-5.02712E-09
 -1       665 1.71680E+05 2.41788E+04 9.08733E+02 6.46210E+04-3.38082E-09 5.35195E-09
 -1       666 1.72369E+05 2.39223E+04 5.30291E+02 6.39874E+04-6.70734E-09 7.02994E-09
 -1       667 1.71761E+05 2.42639E+04 2.79969E+02 6.45896E+04-2.13561E-10 7.92157E-09
 -1       668 1.72281E+05 2.38567E+04 2.81393E+02 6.40328E+04 4.58921E-09 1.32047E-09
 -1       669 1.71767E+05 2.42424E+04 3.77766E+02 6.45762E+04 3.49689E-09 3.93209E-09
 -1       670 1.72374E+05 2.40583E+04 8.19625E+02 6.40337E+04 4.93901E-09 6.42582E-09
 -1       671 1.71668E+05 2.40664E+04 1.45430E+03 6.45871E+04-2.70256E-09 5.66888E-09
 -1       672 1.73222E+05 2.54730E+04 3.72000E+03 6.38290E+04-2.96915E-09 3.07665E-09
 -1       673 1.70924E+05 2.28633E+04 6.23381E+03 6.47673E+04-3.25554E-09-2.70529E-09
 -1       674 1.79157E+05 3.54863E+04 1.78273E+04 6.20840E+04-3.84557E-09 8.07722E-09
 -1       675 1.65771E+05 1.43331E+04 2.64615E+04 6.62266E+04 4.20187E-10 4.62205E-09
 -1       676 2.00425E+01-2.40629E+05-9.30794E+02 2.76864E+01 8.49809E-12 1.91056E-09
 -1       677-2.47136E+02-2.40854E+05-1.70347E+03-5.53412E+01-5.58924E-09 2.23579E-09
 -1       678 1.65009E+02-2.40468E+05-3.01129E+03 2.76359E+01-1.22259E-09-7.02665E-10
 -1       679-3.01206E+03-2.42671E+05-7.15339E+03-5.51473E+01-1.70633E-09 7.68922E-09
 -1       680 1.79762E+03-2.38812E+05-1.15289E+04 2.71779E+01-2.78806E-09 4.59315E-09
 -1       771-2.56521E+06-4.90849E+05-7.15229E+04-1.10885E+06-1.55633E-08-1.29803E-08
 -1       772-2.53629E+06-5.35133E+05-3.78629E+04-1.15891E+06-1.05356E-08 4.40741E-09
 -1       773-2.57682E+06-4.81705E+05-1.72978E+04-1.11302E+06-5.55883E-09 6.23550E-09
 -1       774-2.52747E+06-5.27441E+05-8.16032E+03-1.16626E+06 1.28057E-08-6.51198E-10
 -1       775-2.58095E+06-4.78816E+05-4.79893E+03-1.11391E+06-2.61934E-10 1.32422E-09
 -1       776-2.52875E+06-5.27398E+05-2.02541E+03-1.17101E+06-1.49157E-09 1.90448E-09
 -1       777-2.58421E+06-4.76410E+05-1.68694E+03-1.11465E+06 4.87489E-09 6.95218E-09
 -1       778-2.53051E+06-5.27513E+05-5.87247E+02-1.17501E+06 5.67525E-09 4.48836E-09
 -1       779-2.58690E+06-4.74361E+05-7.66634E+02-1.11529E+06-3.72529E-09-3.50701E-09
 -1       780-2.53211E+06-5.27575E+05-2.76426E+02-1.17826E+06-2.41562E-09 2.75577E-10
 -1       781-2.58899E+06-4.72732E+05-5.21406E+02-1.11579E+06-9.02946E-09-6.20275E-10
 -1       782-2.53338E+06-5.27612E+05-5.17485E+02-1.18064E+06-1.69166E-08-4.02770E-09
 -1       783-2.59039E+06-4.71635E+05-1.06316E+03-1.11614E+06-3.78714E-09-1.06463E-08
 -1       784-2.53475E+06-5.28227E+05-2.32575E+03-1.18206E+06-7.66522E-09-4.93401E-11
 -1       785-2.59069E+06-4.71388E+05-4.34039E+03-1.11601E+06-1.57215E-08 2.63208E-09
 -1       786 1.57089E+05-9.40029E+03 2.17477E+04-7.40392E+01 1.76618E-09-2.43472E-09
 -1       787 1.66515E+05 1.08826E+04 1.53859E+04 1.91805E+01 2.41407E-09 9.59699E-09
 -1       788 1.60725E+05-1.47357E+03 5.62826E+03-5.60080E+01 1.23818E-09 7.04222E-09
 -1       789 1.62279E+05 1.70494E+03 3.53546E+03-1.04345E+01-6.55570E-10-3.19505E-09
 -1       790 1.61325E+05-2.30101E+02 1.43669E+03-4.44266E+01-2.40184E-10-3.14651E-09
 -1       791 1.61578E+05 2.66808E+02 8.39898E+02-3.14369E+01-7.10637E-10 3.68971E-09
 -1       792 1.61426E+05-3.65207E+01 3.76170E+02-3.50057E+01-4.51661E-10-2.28724E-10
 -1       793 1.61463E+05 4.78284E+01 2.31928E+02-5.07800E+01-5.34900E-10-5.66483E-09
 -1       794 1.61440E+05-1.12630E+01 1.49518E+02-2.50832E+01 3.47186E-10 1.02738E-08
 -1       795 1.61462E+05 4.96265E+01 1.84074E+02-7.37677E+01-6.73474E-10 1.43122E-08
 -1       796 1.61427E+05-3.83143E+01 2.56246E+02-1.20175E+01 5.17947E-10 1.12294E-10
 -1       797 1.61573E+05 2.78939E+02 5.88096E+02-1.06491E+02-5.09648E-11 3.62938E-09
 -1       798 1.61329E+05-2.40409E+02 9.23068E+02 7.64063E+00-1.24385E-10-2.51242E-09
 -1       799 1.62264E+05 1.77484E+03 2.51187E+03-1.57714E+02 4.77431E-10-7.06817E-09
 -1       800 1.60736E+05-1.53302E+03 3.54675E+03 3.92064E+01 1.25089E-10 3.01588E-09
 -1       801 5.10329E+04-1.86727E+06-1.68885E+05 3.41823E+04 1.49739E-08-1.36029E-08
 -1       802-5.68513E+04-1.70304E+06-6.56642E+04-6.17425E+04 4.10437E-08-2.86673E-09
 -1       803 5.15681E+03-1.77957E+06-9.75125E+03 8.71750E+04 3.18250E-08 2.56021E-08
 -1       804 5.22293E+04-1.64920E+06 7.79828E+04-4.18873E+04 3.41897E-08 3.10771E-08
 -1       805-5.87674E+04-1.92048E+06 7.70998E+04 1.43192E+04 1.26893E-08 1.93415E-08
 -1       806-2.32306E+05-4.64917E+04-1.83896E+04-9.35688E+04-3.76258E-09-5.80985E-09
 -1       807-2.33702E+05-4.37335E+04-9.05539E+03-9.81041E+04-3.36900E-09-1.09273E-08
 -1       808-2.32851E+05-4.00192E+04-3.84220E+03-9.66523E+04 2.62389E-09 1.67111E-08
 -1       809-2.31779E+05-4.12349E+04-1.87943E+03-9.83251E+04 7.02585E-11 1.52511E-08
 -1       810-2.32931E+05-3.98004E+04-8.61328E+02-9.67858E+04-8.30369E-09-1.88743E-09
 -1       811-2.31633E+05-4.11369E+04-4.27749E+02-9.82989E+04-1.11552E-08 1.14630E-08
 -1       812-2.32944E+05-3.98193E+04-2.14808E+02-9.67854E+04-5.75574E-09 6.97560E-09
 -1       813-2.31614E+05-4.11389E+04-1.37503E+02-9.82859E+04-1.16643E-10 9.84562E-09
 -1       814-2.32940E+05-3.98262E+04-1.32471E+02-9.67825E+04-3.01861E-09-3.85580E-09
 -1       815-2.31616E+05-4.11407E+04-2.10484E+02-9.82818E+04 7.91260E-10-1.48157E-08
 -1       816-2.32926E+05-3.98245E+04-3.96651E+02-9.67801E+04-1.40062E-09-1.25101E-09
 -1       817-2.31684E+05-4.11774E+04-8.50614E+02-9.82752E+04-5.19003E-09 9.15225E-09
 -1       818-2.32876E+05-3.99370E+04-1.73338E+03-9.67259E+04-1.83172E-09-3.42334E-09
 -1       819-2.32637E+05-4.22089E+04-4.07844E+03-9.80595E+04-6.33918E-10-2.64754E-09
 -1       820-2.32536E+05-4.29372E+04-8.28155E+03-9.54313E+04-2.92584E-09-6.95877E-09
 -1       821-2.90264E+05 1.60155E+04-3.70385E+04 2.48635E+02 1.09778E-09 3.62161E-09
 -1       822-3.06311E+05-1.85406E+04-2.62098E+04-9.43618E+02-2.57446E-09 1.63482E-09
 -1       823-2.96456E+05 2.51118E+03-9.59278E+03 2.55673E+02-1.20443E-10-3.84034E-09
 -1       824-2.99083E+05-2.90624E+03-6.03483E+03-7.81308E+02 2.71542E-10 8.59472E-09
 -1       825-2.97490E+05 3.92823E+02-2.48260E+03 8.63231E+01-8.67832E-10-3.06136E-09
 -1       826-2.97875E+05-4.62974E+02-1.49429E+03-3.41593E+02-3.15761E-09 5.76279E-10
 -1       827-2.97663E+05 6.92585E+01-7.79170E+02-1.84049E+02-2.89578E-09-2.24713E-09
 -1       828-2.97714E+05-1.41333E+02-6.84193E+02 1.82834E+02-4.80056E-09 1.03114E-09
 -1       829-2.97651E+05 7.14791E+01-7.93357E+02-4.38113E+02-1.46624E-10 1.59856E-08
 -1       830-2.97910E+05-4.78782E+02-1.54685E+03 5.64174E+02 1.81636E-09 6.09930E-09
 -1       831-2.97467E+05 4.06938E+02-2.56454E+03-5.65397E+02-2.77391E-09-7.15090E-10
 -1       832-2.99147E+05-3.00801E+03-6.24956E+03 6.37211E+02-1.41217E-09 6.76221E-09
 -1       833-2.96415E+05 2.59901E+03-9.93254E+03-5.11150E+02-1.47642E-09 3.00679E-09
 -1       834-3.06598E+05-1.91944E+04-2.71332E+04 3.70667E+02-6.58048E-10 2.16278E-09
 -1       835-2.90018E+05 1.65805E+04-3.83533E+04-2.98841E+02 6.02244E-09-1.98270E-10
 -1       836-9.69291E+02 2.71226E+05 1.64246E+04-1.98143E+04 8.27640E-10 4.90081E-09
 -1       837 3.59713E+03 2.76323E+05 1.40497E+04-3.98093E+04 1.35515E-09-1.35078E-08
 -1       838-3.64081E+02 2.72636E+05 1.45258E+04-1.97430E+04 1.27375E-09-5.75278E-09
 -1       839 9.32110E+03 2.80587E+05 2.76857E+04-3.98429E+04 1.88084E-09 7.43744E-09
 -1       840-2.81396E+03 2.66919E+05 4.42370E+04-1.97795E+04 1.23691E-09-1.13789E-09
 -1       856-7.98419E+04 7.44212E+03-1.96123E+04-4.30131E+02-7.66022E-10 5.09681E-09
 -1       857-8.79411E+04-8.72952E+03-1.35023E+04 4.57386E+03-3.47660E-09-4.56203E-09
 -1       858-8.30424E+04 1.04277E+03-5.08980E+03-4.51495E+02-1.78517E-09-3.75167E-11
 -1       859-8.42662E+04-1.21304E+03-3.07361E+03 4.60777E+03-8.84597E-10-4.37058E-09
 -1       860-8.35208E+04 1.45053E+02-1.29169E+03-4.64158E+02 5.31088E-10-3.74263E-09
 -1       861-8.37153E+04-1.60542E+02-7.18023E+02 4.62511E+03-2.97633E-09-4.30529E-09
 -1       862-8.35952E+04 1.91602E+01-3.13407E+02-4.68860E+02 3.94564E-09-1.24979E-09
 -1       863-8.36266E+04-1.11230E+01-1.48069E+02 4.62727E+03 1.03330E-08-6.90314E-09
 -1       864-8.36097E+04-1.06344E+00-3.25329E+01-4.66327E+02 7.56685E-10-9.10276E-09
 -1       865-8.35961E+04 3.03221E+01 6.68675E+01 4.61442E+03 4.75245E-09-8.01138E-09
 -1       866-8.36242E+04-2.27196E+01 1.73889E+02-4.56005E+02-1.55524E-09-5.14595E-09
 -1       867-8.35035E+04 1.89700E+02 4.53303E+02 4.58638E+03 1.86077E-10 1.45807E-09
 -1       868-8.36987E+04-1.58784E+02 7.59146E+02-4.38287E+02-8.13429E-10-2.77458E-09
 -1       869-8.29390E+04 1.31879E+03 2.03093E+03 4.54001E+03-1.17393E-09-4.51746E-09
 -1       870-8.41834E+04-1.12293E+03 2.94578E+03-4.09637E+02 9.95556E-10 2.10696E-09
 -1       871-4.29095E+03-9.45822E+03-1.40055E+04 9.25490E+04 1.93177E-09 1.04455E-08
 -1       872-1.84067E+03-1.26068E+04-5.72655E+03 1.19986E+05 2.20780E-09 7.19615E-09
 -1       873-1.81676E+01-1.11363E+04 7.70076E+02 9.23455E+04 1.24987E-09 5.28644E-09
 -1       874 2.15942E+03-9.13057E+03 7.83758E+03 1.20026E+05 2.16278E-09 1.01161E-08
 -1       875 5.06152E+03-1.29946E+04 1.74109E+04 9.25156E+04 1.26420E-09-1.75487E-09
 -1       876 2.26438E+05 3.88731E+04 1.19977E+04 9.17040E+04-4.95015E-09-8.64384E-09
 -1       877 2.27147E+05 4.14839E+04 6.40708E+03 9.52270E+04-6.73026E-11 6.15273E-10
 -1       878 2.27559E+05 3.75456E+04 2.68426E+03 9.26895E+04 3.05681E-09-2.91266E-09
 -1       879 2.25515E+05 3.98580E+04 1.33724E+03 9.53109E+04 2.10707E-09 1.35702E-09
 -1       880 2.27640E+05 3.75311E+04 6.22644E+02 9.27297E+04 3.76076E-10 3.83409E-09
 -1       881 2.25407E+05 3.97889E+04 3.31861E+02 9.52935E+04 1.59196E-09-3.64642E-09
 -1       882 2.27648E+05 3.75411E+04 2.11210E+02 9.27308E+04-7.28278E-10 2.90415E-09
 -1       883 2.25399E+05 3.97855E+04 2.25287E+02 9.52883E+04-7.14829E-09 8.19628E-09
 -1       884 2.27643E+05 3.75387E+04 3.56769E+02 9.27310E+04-8.37190E-09-4.64860E-09
 -1       885 2.25427E+05 3.97906E+04 7.16301E+02 9.52972E+04 5.94329E-09 2.66698E-09
 -1       886 2.27616E+05 3.75177E+04 1.44320E+03 9.27281E+04-8.96250E-10-2.68233E-09
 -1       887 2.25681E+05 3.99569E+04 3.15232E+03 9.53338E+04-1.07682E-08 8.74138E-10
 -1       888 2.27416E+05 3.75527E+04 6.35198E+03 9.26272E+04-9.18632E-09 1.39207E-08
 -1       889 2.29465E+05 4.38871E+04 1.51742E+04 9.52146E+04-9.91011E-09 1.40130E-09
 -1       890 2.24829E+05 4.06268E+04 2.84203E+04 9.02039E+04-1.91312E-09-1.46792E-09
 -1       891-1.35737E+02-1.28096E+05-1.52448E+03 2.38205E+04 7.11225E-10 5.05270E-09
 -1       892-2.37451E+02-1.28463E+05-1.65363E+03 3.60549E+04 2.33763E-09-1.06731E-08
 -1       893-3.48731E+01-1.28143E+05-2.35829E+03 2.38254E+04 2.80215E-09-4.00541E-09
 -1       894-1.28073E+03-1.29363E+05-4.89299E+03 3.59259E+04-7.47605E-10 1.37584E-09
 -1       895-1.00312E+03-1.27123E+05-8.62142E+03 2.39479E+04 2.06910E-10 2.96404E-09
 -1       956-2.85817E+05-4.02548E+03-1.01242E+04 1.90624E+04-1.82627E-09-3.30874E-09
 -1       957-2.87815E+05-1.36056E+03-5.19732E+03 2.29580E+04 5.08862E-10-1.30931E-08
 -1       958-2.86716E+05-1.11068E+02-2.34159E+03 1.89430E+04 1.78989E-09-1.00772E-09
 -1       959-2.86875E+05-2.16705E+01-1.19606E+03 2.30880E+04-2.03818E-09 1.60298E-10
 -1       960-2.86797E+05 3.14145E+01-5.83153E+02 1.89315E+04-2.01635E-09-7.96877E-09
 -1       961-2.86807E+05 2.92234E+01-3.09500E+02 2.31012E+04-4.38922E-09-4.89990E-09
 -1       962-2.86814E+05 2.76706E+01-1.77362E+02 1.89297E+04-1.85196E-09-2.85945E-09
 -1       963-2.86804E+05 3.06902E+01-1.42726E+02 2.31036E+04-2.71609E-09-2.34877E-10
 -1       964-2.86817E+05 2.97567E+01-1.73720E+02 1.89291E+04-1.10248E-09 1.73350E-09
 -1       965-2.86815E+05 3.36867E+01-3.00570E+02 2.31035E+04 2.62077E-09 6.07997E-10
 -1       966-2.86808E+05 3.76130E+01-5.64471E+02 1.89297E+04-6.72321E-09-5.60487E-09
 -1       967-2.86888E+05-1.12056E+01-1.15786E+03 2.30958E+04-1.22261E-08 1.96985E-09
 -1       968-2.86736E+05-9.61805E+01-2.26602E+03 1.89369E+04-6.98765E-09-6.69473E-10
 -1       969-2.87806E+05-1.30354E+03-5.03123E+03 2.30119E+04 1.25601E-09-5.11591E-11
 -1       970-2.85870E+05-3.88292E+03-9.79991E+03 1.90156E+04 2.35013E-09 3.52975E-09
 -1       971-2.69521E+05-1.41064E+03-7.82665E+03 1.29403E+04-2.47837E-09-2.27215E-09
 -1       972-2.71423E+05-1.01245E+03-4.26233E+03 1.80647E+04-1.48475E-09-7.47605E-09
 -1       973-2.70391E+05-1.16110E+01-1.90866E+03 1.28324E+04-1.24237E-09-1.90903E-09
 -1       974-2.70523E+05-1.20095E+01-9.88821E+02 1.81816E+04 1.46679E-09-2.80806E-10
 -1       975-2.70459E+05 2.52552E+01-4.93289E+02 1.28225E+04 3.77440E-11 2.29954E-09
 -1       976-2.70470E+05 2.91804E+01-2.82807E+02 1.81937E+04-3.93061E-09 6.89681E-09
 -1       977-2.70472E+05 2.52090E+01-2.02068E+02 1.28201E+04 3.72188E-09 7.48310E-09
 -1       978-2.70473E+05 3.38738E+01-2.32115E+02 1.81970E+04 8.47837E-09-1.07576E-08
 -1       979-2.70472E+05 3.15602E+01-3.69198E+02 1.28191E+04 9.43714E-10 4.67821E-09
 -1       980-2.70500E+05 3.61838E+01-7.10531E+02 1.81976E+04-3.92555E-09 9.19044E-10
 -1       981-2.70450E+05 4.92579E+01-1.37491E+03 1.28195E+04-8.36735E-11 3.02811E-09
 -1       982-2.70689E+05-6.53287E+01-2.84121E+03 1.81921E+04 5.81997E-09-3.11174E-09
 -1       983-2.70276E+05-3.86712E+01-5.52013E+03 1.28248E+04 5.47971E-09-1.57456E-09
 -1       984-2.73344E+05-2.94810E+03-1.23615E+04 1.81189E+04-1.95837E-09-2.57137E-09
 -1       985-2.67778E+05-4.07793E+03-2.26998E+04 1.28972E+04 3.48928E-09 3.41970E-10
 -3
    1PSTEP                        13           7           1          
  100CL  107 5.74219E-01         409                     0    7           1
 -4  DISP        4    1
 -5  D1          1    2    1    0
 -5  D2          1    2    2    0
 -5  D3          1    2    3    0
 -5  ALL         1    2    0    0    1ALL
 -1         1 5.32966E-04 0.00000E+00 0.00000E+00
 -1         2 4.92096E-04 1.05076E-30-1.32349E-23
 -1         3 2.15177E-04-6.73523E-28 0.00000E+00
 -1         5 1.29517E-04 3.71075E-27 0.00000E+00
 -1         8 5.10130E-04-7.45289E-07 0.00000E+00
 -1         9 4.92264E-04-1.89146E-06 0.00000E+00
 -1        10 1.96694E-04-2.81352E-06-1.32349E-23
 -1        12 1.29686E-04 6.38279E-07 0.00000E+00
 -1        15 4.82837E-04-8.26201E-07 2.06795E-25
 -1        16 4.89073E-04-2.33003E-06 0.00000E+00
 -1        17 1.38812E-04-6.08380E-06 0.00000E+00
 -1        18 1.28904E-04 1.10122E-05 0.00000E+00
 -1        19 1.30193E-04 1.27332E-06 0.00000E+00
 -1        20 1.30340E-04 8.48145E-06 0.00000E+00
 -1        21 1.29670E-04 1.36850E-05 0.00000E+00
 -1        24 2.47555E-05-8.58335E-06 0.00000E+00
 -1        25 1.31286E-04 1.11668E-05 0.00000E+00
 -1        26 1.31996E-04 1.76333E-06 0.00000E+00
 -1        27 1.30232E-04 5.58312E-06 0.00000E+00
 -1        28 1.29809E-04 1.31508E-05 0.00000E+00
 -1        32 0.00000E+00 0.00000E+00 0.00000E+00
 -1        33 1.32683E-04 2.36273E-06 0.00000E+00
 -1        34 1.30941E-04 5.55363E-06 0.00000E+00
 -1        35 1.29317E-04 1.28643E-05 0.00000E+00
 -1        51 5.31486E-04-1.27994E-07 0.00000E+00
 -1        52 5.28739E-04-2.47128E-07 0.00000E+00
 -1        53 5.24971E-04-3.66401E-07 0.00000E+00
 -1        54 5.20442E-04-4.87662E-07-3.30872E-24
 -1        55 5.15409E-04-6.12032E-07-3.72231E-24
 -1        56 5.30740E-04-7.27193E-07 0.00000E+00
 -1        57 5.28358E-04-1.28336E-06 2.64698E-23
 -1        58 5.25901E-04-1.62491E-06-5.29396E-23
 -1        59 5.23350E-04-1.75839E-06-2.64698E-23
 -1        60 5.20726E-04-1.70101E-06 0.00000E+00
 -1        61 5.18041E-04-1.48590E-06-2.64698E-23
 -1        62 5.15314E-04-1.16198E-06 0.00000E+00
 -1        63 5.12566E-04-7.84810E-07 0.00000E+00
 -1        64 5.09822E-04-4.15316E-07 0.00000E+00
 -1        65 5.07104E-04-1.14018E-07 2.64698E-23
 -1        66 5.04431E-04 6.57435E-08 5.29396E-23
 -1        67 5.01824E-04 7.77394E-08 2.64698E-23
 -1        68 4.99292E-04-1.07451E-07 0.00000E+00
 -1        69 4.96852E-04-5.03935E-07 0.00000E+00
 -1        70 4.94488E-04-1.11290E-06 0.00000E+00
 -1        86 4.92102E-04-3.11629E-07 0.00000E+00
 -1        87 4.92120E-04-6.23658E-07 0.00000E+00
 -1        88 4.92147E-04-9.35750E-07 0.00000E+00
 -1        89 4.92183E-04-1.25038E-06 0.00000E+00
 -1        90 4.92223E-04-1.56415E-06-1.32349E-23
 -1       121 2.14658E-04-4.62863E-07 0.00000E+00
 -1       122 2.13106E-04-9.26763E-07 6.61744E-24
 -1       123 2.10523E-04-1.39272E-06 0.00000E+00
 -1       124 2.06919E-04-1.86181E-06 0.00000E+00
 -1       125 2.02304E-04-2.33486E-06 0.00000E+00
 -1       191 1.29521E-04 1.06384E-07 0.00000E+00
 -1       192 1.29536E-04 2.12767E-07 0.00000E+00
 -1       193 1.29559E-04 3.19150E-07 0.00000E+00
 -1       194 1.29592E-04 4.25531E-07 0.00000E+00
 -1       195 1.29634E-04 5.31908E-07-3.30872E-24
 -1       251 5.09525E-04-5.40233E-06 0.00000E+00
 -1       252 5.08667E-04-2.83084E-05 0.00000E+00
 -1       253 5.07433E-04-6.48477E-05 0.00000E+00
 -1       254 5.05855E-04-1.10069E-04 0.00000E+00
 -1       255 5.04223E-04-1.56562E-04-1.32349E-23
 -1       256 5.02848E-04-1.96886E-04 6.61744E-24
 -1       257 5.01852E-04-2.25354E-04 1.32349E-23
 -1       258 5.01186E-04-2.36568E-04 0.00000E+00
 -1       259 5.00557E-04-2.29952E-04 1.32349E-23
 -1       260 4.99659E-04-2.05375E-04 6.61744E-24
 -1       261 4.98383E-04-1.67721E-04 0.00000E+00
 -1       262 4.96792E-04-1.22191E-04 0.00000E+00
 -1       263 4.95182E-04-7.62233E-05-1.32349E-23
 -1       264 4.93857E-04-3.72648E-05 6.61744E-24
 -1       265 4.92913E-04-1.07696E-05-2.64698E-23
 -1       266 5.05581E-04-7.69423E-07 3.30872E-24
 -1       267 5.01033E-04-7.81611E-07 0.00000E+00
 -1       268 4.96484E-04-7.94554E-07 0.00000E+00
 -1       269 4.91935E-04-8.05257E-07 2.06795E-25
 -1       270 4.87386E-04-8.15907E-07 0.00000E+00
 -1       271 5.07400E-04 3.02218E-06 0.00000E+00
 -1       272 5.04892E-04 6.08794E-06-1.32349E-23
 -1       273 5.02643E-04 8.47417E-06 2.64698E-23
 -1       274 5.00639E-04 1.01960E-05 0.00000E+00
 -1       275 4.98873E-04 1.12838E-05 0.00000E+00
 -1       276 4.97330E-04 1.17750E-05-1.32349E-23
 -1       277 4.95994E-04 1.17171E-05 0.00000E+00
 -1       278 4.94842E-04 1.11655E-05 0.00000E+00
 -1       279 4.93852E-04 1.01833E-05 2.64698E-23
 -1       280 4.92997E-04 8.84038E-06 1.32349E-23
 -1       281 4.92249E-04 7.21192E-06-2.64698E-23
 -1       282 4.91578E-04 5.37764E-06 0.00000E+00
 -1       283 4.90954E-04 3.42031E-06 0.00000E+00
 -1       284 4.90348E-04 1.42586E-06 1.32349E-23
 -1       285 4.89723E-04-5.22082E-07 0.00000E+00
 -1       301 4.91697E-04-1.98181E-06 0.00000E+00
 -1       302 4.90762E-04-2.04705E-06 0.00000E+00
 -1       303 4.89744E-04-2.11073E-06 0.00000E+00
 -1       304 4.88932E-04-2.17431E-06 0.00000E+00
 -1       305 4.88613E-04-2.23943E-06-1.32349E-23
 -1       306 5.06594E-04-5.28590E-05-5.29396E-23
 -1       307 5.47376E-04-2.00952E-04 0.00000E+00
 -1       308 6.02403E-04-4.21674E-04 5.29396E-23
 -1       309 6.63016E-04-6.83298E-04 0.00000E+00
 -1       310 7.23428E-04-9.43371E-04-5.29396E-23
 -1       311 7.77715E-04-1.15958E-03-2.64698E-23
 -1       312 8.16951E-04-1.30107E-03 0.00000E+00
 -1       313 8.28743E-04-1.34446E-03 2.64698E-23
 -1       314 8.02502E-04-1.28870E-03 0.00000E+00
 -1       315 7.31157E-04-1.14183E-03-5.29396E-23
 -1       316 6.21258E-04-9.29670E-04 0.00000E+00
 -1       317 4.86901E-04-6.81218E-04 0.00000E+00
 -1       318 3.51972E-04-4.31936E-04 0.00000E+00
 -1       319 2.40490E-04-2.17283E-04-2.64698E-23
 -1       320 1.67061E-04-6.65818E-05 5.29396E-23
 -1       336 1.89974E-04-3.33534E-06 1.32349E-23
 -1       337 1.82039E-04-3.86632E-06 6.61744E-24
 -1       338 1.72916E-04-4.40679E-06 0.00000E+00
 -1       339 1.62643E-04-4.95682E-06 0.00000E+00
 -1       340 1.51260E-04-5.51847E-06 0.00000E+00
 -1       406 1.29747E-04 7.44637E-07 3.30872E-24
 -1       407 1.29817E-04 8.50962E-07 0.00000E+00
 -1       408 1.29897E-04 9.57222E-07 0.00000E+00
 -1       409 1.29986E-04 1.06329E-06-1.65436E-24
 -1       410 1.30085E-04 1.16897E-06-3.30872E-24
 -1       521 5.05406E-04-6.23684E-05 0.00000E+00
 -1       522 5.50287E-04-2.33576E-04-5.29396E-23
 -1       523 6.09419E-04-4.88281E-04 1.05879E-22
 -1       524 6.73347E-04-7.89395E-04-5.29396E-23
 -1       525 7.37054E-04-1.08820E-03-1.05879E-22
 -1       526 7.95289E-04-1.33620E-03-5.29396E-23
 -1       527 8.38071E-04-1.49760E-03 0.00000E+00
 -1       528 8.50726E-04-1.54641E-03 0.00000E+00
 -1       529 8.19310E-04-1.48114E-03 1.05879E-22
 -1       530 7.34636E-04-1.31252E-03-5.29396E-23
 -1       531 6.03495E-04-1.06984E-03 0.00000E+00
 -1       532 4.42730E-04-7.86443E-04 0.00000E+00
 -1       533 2.81043E-04-5.01810E-04 0.00000E+00
 -1       534 1.47364E-04-2.55429E-04 0.00000E+00
 -1       535 5.93579E-05-8.10359E-05 0.00000E+00
 -1       536 1.38476E-04 1.37128E-05 0.00000E+00
 -1       537 1.37800E-04 4.71035E-05-3.30872E-24
 -1       538 1.36827E-04 8.89357E-05 0.00000E+00
 -1       539 1.35719E-04 1.34011E-04 1.65436E-24
 -1       540 1.34727E-04 1.76228E-04 0.00000E+00
 -1       541 1.34062E-04 2.09497E-04 0.00000E+00
 -1       542 1.33714E-04 2.30161E-04 3.30872E-24
 -1       543 1.33562E-04 2.34636E-04 0.00000E+00
 -1       544 1.33362E-04 2.23516E-04 3.30872E-24
 -1       545 1.32896E-04 1.97495E-04 0.00000E+00
 -1       546 1.32130E-04 1.61159E-04-3.30872E-24
 -1       547 1.31150E-04 1.19150E-04 0.00000E+00
 -1       548 1.30191E-04 7.76730E-05 3.30872E-24
 -1       549 1.29480E-04 4.29285E-05 0.00000E+00
 -1       550 1.29071E-04 1.92773E-05-1.65436E-24
 -1       551 1.23330E-04-6.44046E-06 0.00000E+00
 -1       552 1.05355E-04-6.83119E-06 0.00000E+00
 -1       553 8.56936E-05-7.25041E-06 9.92617E-24
 -1       554 6.51623E-05-7.68788E-06 0.00000E+00
 -1       555 4.45788E-05-8.12903E-06 2.64698E-23
 -1       556 1.34416E-04 5.24959E-06 2.64698E-23
 -1       557 1.30948E-04 1.42176E-05 0.00000E+00
 -1       558 1.28314E-04 2.10196E-05 0.00000E+00
 -1       559 1.26425E-04 2.58714E-05 0.00000E+00
 -1       560 1.25196E-04 2.89888E-05 0.00000E+00
 -1       561 1.24541E-04 3.05888E-05 0.00000E+00
 -1       562 1.24376E-04 3.08890E-05 0.00000E+00
 -1       563 1.24617E-04 3.01077E-05 0.00000E+00
 -1       564 1.25180E-04 2.84633E-05 0.00000E+00
 -1       565 1.25985E-04 2.61744E-05 3.30872E-24
 -1       566 1.26948E-04 2.34600E-05 3.30872E-24
 -1       567 1.27987E-04 2.05392E-05 0.00000E+00
 -1       568 1.29023E-04 1.76309E-05-1.65436E-24
 -1       569 1.29972E-04 1.49542E-05 0.00000E+00
 -1       570 1.30753E-04 1.27279E-05 0.00000E+00
 -1       571 1.28982E-04 1.03873E-05 0.00000E+00
 -1       572 1.29062E-04 9.71514E-06 4.13590E-25
 -1       573 1.29143E-04 9.00587E-06 1.65436E-24
 -1       574 1.29223E-04 8.27011E-06-1.65436E-24
 -1       575 1.29304E-04 7.51853E-06 1.65436E-24
 -1       576 1.29385E-04 6.76184E-06 3.30872E-24
 -1       577 1.29465E-04 6.01078E-06 3.30872E-24
 -1       578 1.29546E-04 5.27609E-06 0.00000E+00
 -1       579 1.29627E-04 4.56850E-06 3.30872E-24
 -1       580 1.29708E-04 3.89875E-06 0.00000E+00
 -1       581 1.29789E-04 3.27759E-06 0.00000E+00
 -1       582 1.29870E-04 2.71572E-06 0.00000E+00
 -1       583 1.29950E-04 2.22388E-06 0.00000E+00
 -1       584 1.30031E-04 1.81267E-06 0.00000E+00
 -1       585 1.30112E-04 1.49260E-06 0.00000E+00
 -1       586 1.29246E-04 1.10397E-05 0.00000E+00
 -1       587 1.29562E-04 1.10666E-05-3.10193E-25
 -1       588 1.29888E-04 1.10932E-05 0.00000E+00
 -1       589 1.30261E-04 1.11192E-05 0.00000E+00
 -1       590 1.30715E-04 1.11444E-05 0.00000E+00
 -1       591 1.29098E-04 1.04417E-05 1.55096E-25
 -1       592 1.29298E-04 9.84550E-06 0.00000E+00
 -1       593 1.29505E-04 9.22952E-06 0.00000E+00
 -1       594 1.29717E-04 8.59889E-06 0.00000E+00
 -1       595 1.29933E-04 7.95880E-06-8.27181E-25
 -1       596 1.30151E-04 7.31438E-06 4.13590E-25
 -1       597 1.30368E-04 6.67079E-06 4.13590E-25
 -1       598 1.30583E-04 6.03315E-06 2.06795E-25
 -1       599 1.30794E-04 5.40659E-06 0.00000E+00
 -1       600 1.30998E-04 4.79624E-06 2.06795E-25
 -1       601 1.31195E-04 4.20725E-06 0.00000E+00
 -1       602 1.31382E-04 3.64473E-06-1.03398E-25
 -1       603 1.31557E-04 3.11384E-06 2.06795E-25
 -1       604 1.31719E-04 2.61977E-06 5.16988E-26
 -1       605 1.31865E-04 2.16761E-06 0.00000E+00
 -1       606 1.30206E-04 1.23268E-06 0.00000E+00
 -1       607 1.30216E-04 1.28639E-06 0.00000E+00
 -1       608 1.30226E-04 1.42890E-06-3.30872E-24
 -1       609 1.30235E-04 1.65398E-06-1.65436E-24
 -1       610 1.30244E-04 1.95533E-06 0.00000E+00
 -1       611 1.30253E-04 2.32660E-06 0.00000E+00
 -1       612 1.30262E-04 2.76141E-06 0.00000E+00
 -1       613 1.30271E-04 3.25338E-06 0.00000E+00
 -1       614 1.30279E-04 3.79613E-06 0.00000E+00
 -1       615 1.30288E-04 4.38328E-06 0.00000E+00
 -1       616 1.30297E-04 5.00846E-06 0.00000E+00
 -1       617 1.30306E-04 5.66529E-06 0.00000E+00
 -1       618 1.30314E-04 6.34737E-06-8.27181E-25
 -1       619 1.30323E-04 7.04835E-06 0.00000E+00
 -1       620 1.30332E-04 7.76184E-06 0.00000E+00
 -1       621 1.30363E-04 1.35520E-06 1.65436E-24
 -1       622 1.30604E-04 1.43734E-06 0.00000E+00
 -1       623 1.30903E-04 1.51944E-06 1.65436E-24
 -1       624 1.31244E-04 1.60138E-06-8.27181E-25
 -1       625 1.31614E-04 1.68316E-06 0.00000E+00
 -1       626 1.30300E-04 1.26147E-06 3.30872E-24
 -1       627 1.30380E-04 1.32527E-06-1.65436E-24
 -1       628 1.30434E-04 1.45689E-06 3.30872E-24
 -1       629 1.30466E-04 1.64813E-06-1.65436E-24
 -1       630 1.30479E-04 1.89075E-06 0.00000E+00
 -1       631 1.30476E-04 2.17646E-06-3.30872E-24
 -1       632 1.30459E-04 2.49700E-06 0.00000E+00
 -1       633 1.30433E-04 2.84409E-06 1.65436E-24
 -1       634 1.30400E-04 3.20944E-06 3.30872E-24
 -1       635 1.30363E-04 3.58479E-06 0.00000E+00
 -1       636 1.30325E-04 3.96186E-06 0.00000E+00
 -1       637 1.30290E-04 4.33238E-06 0.00000E+00
 -1       638 1.30260E-04 4.68805E-06-3.30872E-24
 -1       639 1.30239E-04 5.02062E-06 0.00000E+00
 -1       640 1.30229E-04 5.32177E-06 1.65436E-24
 -1       656 1.29841E-04 8.00996E-06 6.61744E-24
 -1       657 1.29730E-04 7.51959E-06 0.00000E+00
 -1       658 1.29868E-04 7.03063E-06-1.32349E-23
 -1       659 1.30111E-04 6.54206E-06-6.61744E-24
 -1       660 1.30288E-04 6.05198E-06 0.00000E+00
 -1       661 1.30156E-04 9.16726E-06-8.27181E-25
 -1       662 1.30001E-04 9.78424E-06 8.27181E-25
 -1       663 1.29871E-04 1.03354E-05 0.00000E+00
 -1       664 1.29764E-04 1.08249E-05 0.00000E+00
 -1       665 1.29679E-04 1.12565E-05 1.65436E-24
 -1       666 1.29615E-04 1.16339E-05 0.00000E+00
 -1       667 1.29569E-04 1.19606E-05-1.65436E-24
 -1       668 1.29542E-04 1.22400E-05 0.00000E+00
 -1       669 1.29530E-04 1.24756E-05 0.00000E+00
 -1       670 1.29534E-04 1.26704E-05-8.27181E-25
 -1       671 1.29553E-04 1.28276E-05 0.00000E+00
 -1       672 1.29584E-04 1.29502E-05 0.00000E+00
 -1       673 1.29626E-04 1.30413E-05 1.65436E-24
 -1       674 1.29679E-04 1.31033E-05 8.27181E-25
 -1       675 1.29742E-04 1.31395E-05 0.00000E+00
 -1       676 1.29693E-04 1.35954E-05 3.30872E-24
 -1       677 1.29716E-04 1.35059E-05 0.00000E+00
 -1       678 1.29739E-04 1.34165E-05 0.00000E+00
 -1       679 1.29763E-04 1.33272E-05 0.00000E+00
 -1       680 1.29786E-04 1.32381E-05 0.00000E+00
 -1       771 1.72956E-05 7.44586E-06 0.00000E+00
 -1       772 1.09472E-05 2.05992E-05-2.64698E-23
 -1       773 5.65826E-06 3.10239E-05 0.00000E+00
 -1       774 1.35776E-06 3.88825E-05 0.00000E+00
 -1       775-2.02427E-06 4.43425E-05 0.00000E+00
 -1       776-4.56072E-06 4.75797E-05-2.64698E-23
 -1       777-6.32494E-06 4.87751E-05 0.00000E+00
 -1       778-7.39190E-06 4.81162E-05 0.00000E+00
 -1       779-7.83676E-06 4.57948E-05-5.29396E-23
 -1       780-7.73606E-06 4.20085E-05 2.64698E-23
 -1       781-7.16626E-06 3.69579E-05-5.29396E-23
 -1       782-6.20491E-06 3.08481E-05-2.64698E-23
 -1       783-4.92942E-06 2.38864E-05 0.00000E+00
 -1       784-3.41800E-06 1.62831E-05-2.64698E-23
 -1       785-1.74862E-06 8.24996E-06 2.64698E-23
 -1       786 1.31326E-04 1.03711E-05-1.03398E-25
 -1       787 1.31370E-04 9.62141E-06 4.13590E-25
 -1       788 1.31414E-04 8.91009E-06 8.27181E-25
 -1       789 1.31459E-04 8.22958E-06 0.00000E+00
 -1       790 1.31503E-04 7.57550E-06 1.65436E-24
 -1       791 1.31548E-04 6.94346E-06 0.00000E+00
 -1       792 1.31593E-04 6.33140E-06 0.00000E+00
 -1       793 1.31638E-04 5.73725E-06 0.00000E+00
 -1       794 1.31682E-04 5.16081E-06 0.00000E+00
 -1       795 1.31727E-04 4.60189E-06-8.27181E-25
 -1       796 1.31772E-04 4.06212E-06-1.65436E-24
 -1       797 1.31817E-04 3.54315E-06-8.27181E-25
 -1       798 1.31862E-04 3.04877E-06 1.65436E-24
 -1       799 1.31907E-04 2.58283E-06-8.27181E-25
 -1       800 1.31952E-04 2.15207E-06-1.65436E-24
 -1       801 1.13755E-04 9.69290E-06 0.00000E+00
 -1       802 5.98477E-05 6.92906E-06 0.00000E+00
 -1       803 6.21039E-06 4.17882E-06 0.00000E+00
 -1       804-1.04997E-05 2.66374E-06 0.00000E+00
 -1       805-6.68359E-06 1.33984E-06 2.64698E-23
 -1       806 1.31489E-04 1.03164E-05 1.65436E-24
 -1       807 1.31680E-04 9.49260E-06 8.27181E-25
 -1       808 1.31858E-04 8.69898E-06 3.30872E-24
 -1       809 1.32024E-04 7.93838E-06-8.27181E-25
 -1       810 1.32176E-04 7.21357E-06-1.65436E-24
 -1       811 1.32314E-04 6.52721E-06-1.65436E-24
 -1       812 1.32436E-04 5.88198E-06 1.65436E-24
 -1       813 1.32542E-04 5.28055E-06-8.27181E-25
 -1       814 1.32630E-04 4.72556E-06 1.65436E-24
 -1       815 1.32701E-04 4.21965E-06-8.27181E-25
 -1       816 1.32751E-04 3.76549E-06-3.30872E-24
 -1       817 1.32782E-04 3.36569E-06-1.65436E-24
 -1       818 1.32791E-04 3.02290E-06 1.65436E-24
 -1       819 1.32778E-04 2.73975E-06 8.27181E-25
 -1       820 1.32742E-04 2.51883E-06-1.65436E-24
 -1       821 1.31892E-04 1.32987E-06 0.00000E+00
 -1       822 1.31782E-04 7.66640E-07 0.00000E+00
 -1       823 1.31672E-04 1.69528E-07-3.30872E-24
 -1       824 1.31561E-04-3.65408E-07 1.65436E-24
 -1       825 1.31449E-04-7.56321E-07 3.30872E-24
 -1       826 1.31338E-04-9.22067E-07 0.00000E+00
 -1       827 1.31227E-04-8.32711E-07 3.30872E-24
 -1       828 1.31115E-04-4.59594E-07 1.65436E-24
 -1       829 1.31003E-04 1.61414E-07-3.30872E-24
 -1       830 1.30892E-04 9.93205E-07 0.00000E+00
 -1       831 1.30780E-04 1.95076E-06-3.30872E-24
 -1       832 1.30668E-04 2.94840E-06 0.00000E+00
 -1       833 1.30557E-04 3.89132E-06 0.00000E+00
 -1       834 1.30447E-04 4.68503E-06 0.00000E+00
 -1       835 1.30336E-04 5.26884E-06-8.27181E-25
 -1       836 1.32282E-04 1.86305E-06 0.00000E+00
 -1       837 1.32459E-04 1.96507E-06 1.65436E-24
 -1       838 1.32557E-04 2.06692E-06 0.00000E+00
 -1       839 1.32606E-04 2.16813E-06 8.27181E-25
 -1       840 1.32638E-04 2.26917E-06 4.13590E-25
 -1       856 1.30210E-04 5.82520E-06 4.13590E-25
 -1       857 1.30183E-04 6.18481E-06 0.00000E+00
 -1       858 1.30158E-04 6.64352E-06 4.13590E-25
 -1       859 1.30131E-04 7.18286E-06 0.00000E+00
 -1       860 1.30104E-04 7.78420E-06-8.27181E-25
 -1       861 1.30078E-04 8.42890E-06-4.13590E-25
 -1       862 1.30051E-04 9.09828E-06 0.00000E+00
 -1       863 1.30024E-04 9.77361E-06 0.00000E+00
 -1       864 1.29997E-04 1.04362E-05 0.00000E+00
 -1       865 1.29970E-04 1.10672E-05-4.13590E-25
 -1       866 1.29943E-04 1.16481E-05 0.00000E+00
 -1       867 1.29917E-04 1.21602E-05 0.00000E+00
 -1       868 1.29890E-04 1.25850E-05 8.27181E-25
 -1       869 1.29863E-04 1.29039E-05 0.00000E+00
 -1       870 1.29836E-04 1.30986E-05 0.00000E+00
 -1       871 1.30226E-04 5.58166E-06-4.13590E-25
 -1       872 1.30341E-04 5.57763E-06 0.00000E+00
 -1       873 1.30524E-04 5.57311E-06-4.13590E-25
 -1       874 1.30721E-04 5.56800E-06 1.55096E-25
 -1       875 1.30878E-04 5.56234E-06 4.13590E-25
 -1       876 1.30249E-04 5.83646E-06-3.30872E-24
 -1       877 1.30246E-04 6.14697E-06 0.00000E+00
 -1       878 1.30225E-04 6.50772E-06 3.30872E-24
 -1       879 1.30187E-04 6.91235E-06 0.00000E+00
 -1       880 1.30136E-04 7.35444E-06 0.00000E+00
 -1       881 1.30073E-04 7.82758E-06 1.65436E-24
 -1       882 1.30000E-04 8.32541E-06 3.30872E-24
 -1       883 1.29921E-04 8.84157E-06-1.65436E-24
 -1       884 1.29837E-04 9.36968E-06 0.00000E+00
 -1       885 1.29751E-04 9.90339E-06 0.00000E+00
 -1       886 1.29666E-04 1.04363E-05 0.00000E+00
 -1       887 1.29583E-04 1.09622E-05-1.65436E-24
 -1       888 1.29504E-04 1.14744E-05-3.30872E-24
 -1       889 1.29433E-04 1.19667E-05 0.00000E+00
 -1       890 1.29371E-04 1.24327E-05 0.00000E+00
 -1       891 1.29853E-04 1.31028E-05-1.65436E-24
 -1       892 1.29877E-04 1.30547E-05-8.27181E-25
 -1       893 1.29858E-04 1.30066E-05-1.65436E-24
 -1       894 1.29774E-04 1.29586E-05 0.00000E+00
 -1       895 1.29601E-04 1.29107E-05-8.27181E-25
 -1       956 1.32576E-04 2.33950E-06 3.30872E-24
 -1       957 1.32467E-04 2.38324E-06 0.00000E+00
 -1       958 1.32358E-04 2.48635E-06 1.65436E-24
 -1       959 1.32249E-04 2.64080E-06 0.00000E+00
 -1       960 1.32140E-04 2.83852E-06 3.30872E-24
 -1       961 1.32031E-04 3.07144E-06 0.00000E+00
 -1       962 1.31922E-04 3.33144E-06-3.30872E-24
 -1       963 1.31812E-04 3.61042E-06-1.65436E-24
 -1       964 1.31703E-04 3.90028E-06-3.30872E-24
 -1       965 1.31594E-04 4.19291E-06-1.65436E-24
 -1       966 1.31484E-04 4.48021E-06 0.00000E+00
 -1       967 1.31375E-04 4.75406E-06 0.00000E+00
 -1       968 1.31266E-04 5.00637E-06 3.30872E-24
 -1       969 1.31157E-04 5.22906E-06 0.00000E+00
 -1       970 1.31048E-04 5.41407E-06-3.30872E-24
 -1       971 1.30841E-04 5.70773E-06 3.30872E-24
 -1       972 1.30739E-04 5.94812E-06 1.65436E-24
 -1       973 1.30637E-04 6.26527E-06-1.65436E-24
 -1       974 1.30535E-04 6.64930E-06-1.65436E-24
 -1       975 1.30433E-04 7.09034E-06 0.00000E+00
 -1       976 1.30331E-04 7.57844E-06 1.65436E-24
 -1       977 1.30229E-04 8.10371E-06-3.30872E-24
 -1       978 1.30127E-04 8.65621E-06 1.65436E-24
 -1       979 1.30024E-04 9.22600E-06 3.30872E-24
 -1       980 1.29922E-04 9.80314E-06-1.65436E-24
 -1       981 1.29820E-04 1.03777E-05 0.00000E+00
 -1       982 1.29718E-04 1.09397E-05-1.65436E-24
 -1       983 1.29616E-04 1.14793E-05-3.30872E-24
 -1       984 1.29515E-04 1.19865E-05 0.00000E+00
 -1       985 1.29414E-04 1.24514E-05 1.65436E-24
 -3
    1PSTEP                        14           7           1          
  100CL  107 5.74219E-01         409                     0    7           1
 -4  STRESS      6    1
 -5  SXX         1    4    1    1
 -5  SYY         1    4    2    2
 -5  SZZ         1    4    3    3
 -5  SXY         1    4    1    2
 -5  SYZ         1    4    2    3
 -5  SZX         1    4    3    1
 -1         1-2.94130E+06-1.18348E+06-6.35034E+05-1.37274E+06 3.20142E-10-2.74013E-08
 -1         2 1.99788E+03-8.88695E+05 6.44978E+03 4.49335E+01 7.90692E-11 2.73093E-08
 -1         3-4.84068E+02-1.31954E+06 3.16795E+02-1.07906E+03-3.28473E-10-1.85719E-08
 -1         5-1.42645E+00 3.04394E+05 7.71864E+00-7.40215E-02-6.60091E-11 2.09998E-08
 -1         8-1.03730E+06-3.59082E+05-1.11394E+05-5.12758E+05 7.47605E-10 1.97688E-08
 -1         9-5.27375E+05-8.22117E+05-6.50645E+01-7.79361E+05 1.55298E-08 2.18861E-08
 -1        10-1.33725E+03-1.37479E+06-2.33371E+03-7.29876E+03-8.13543E-09-2.51874E-08
 -1        12 1.74152E+00 3.04410E+05 2.49878E+02-5.60902E-01 1.89999E-11-5.34135E-09
 -1        15 1.76436E+03 9.69622E+02 5.70330E+03 3.47064E+00 7.05995E-11 1.24606E-07
 -1        16 1.17027E+06-9.40754E+05 1.44900E+05-1.20796E+06 1.47944E-08 2.13428E-09
 -1        17-7.75512E+03 8.65702E+04 8.21478E+04 2.05060E+05-2.03727E-11 1.16765E-08
 -1        18 2.21980E+03-4.05528E+03-2.36980E+04-8.52222E+04 8.79686E-09 3.06363E-09
 -1        19 9.81631E+04 1.12667E+05-8.22873E+02 1.92650E+04 1.26602E-10-4.05853E-09
 -1        20-5.26982E+04-4.63894E+05-1.03150E+05 2.79782E+04 2.37257E-09 9.98625E-10
 -1        21-4.13068E+01-2.56389E+05-8.15736E+02 4.08571E+00 5.28242E-10-6.62486E-09
 -1        24-5.37583E+05 8.12671E+05 2.61482E+05 4.77421E+05-7.55390E-08-3.27515E-08
 -1        25-1.03846E+05-5.78399E+05-1.16141E+05-1.83412E+05-8.18864E-10 3.04863E-09
 -1        26-3.89326E+04 7.29431E+04-1.91829E+04-3.80449E+03 1.40099E-09 1.59280E-08
 -1        27-6.73394E+04-2.52296E+05-9.37674E+04 5.70078E+04 5.49054E-09 7.88229E-12
 -1        28 1.96580E+04-7.21983E+04 1.45643E+04 2.05064E+04 8.42476E-10 2.96635E-09
 -1        32-1.39696E+06-2.20906E+06-6.25366E+04-3.84045E+05-2.84399E-08-1.69592E-09
 -1        33-1.49142E+05 7.26579E+04 2.59966E+04-3.46897E+04-3.56749E-10 3.04772E-09
 -1        34-1.86238E+05-1.91192E+04 5.04215E+02 5.94325E+04 9.30228E-10-1.04680E-08
 -1        35-2.00550E+04-2.86812E+04-1.13253E+03 4.46629E+04 1.95433E-09 7.67492E-09
 -1        51 3.00830E+04-3.03827E+05 6.90657E+04-8.67111E+05-4.36557E-11-7.39237E-09
 -1        52 1.34046E+04-2.96027E+05 4.03442E+04-1.01118E+06 2.98314E-10 1.45228E-08
 -1        53 6.56304E+03-3.10766E+05 2.74947E+04-8.64029E+05 3.85626E-10-5.42786E-08
 -1        54 1.74143E+04-3.08562E+05 3.56937E+04-1.01437E+06-4.36557E-10-1.06094E-07
 -1        55 3.48970E+04-3.21027E+05 5.86819E+04-8.63553E+05 1.10595E-09-7.94171E-09
 -1        56-5.59815E+06-6.26502E+05-4.68335E+05-2.17042E+06-8.00355E-10-6.76955E-08
 -1        57-5.82665E+06-1.01170E+06-3.16000E+05-2.10657E+06 6.30826E-09-2.14895E-08
 -1        58-5.68730E+06-7.80366E+05-1.10092E+05-2.14662E+06-2.97587E-09-3.86353E-09
 -1        59-5.72479E+06-8.29682E+05-6.57268E+04-2.13311E+06-2.89492E-09-6.90670E-09
 -1        60-5.69857E+06-8.03562E+05-2.56597E+04-2.14542E+06-1.51840E-09-3.05208E-08
 -1        61-5.71244E+06-8.01779E+05-1.45594E+04-2.13362E+06-6.15228E-09-2.99153E-08
 -1        62-5.69936E+06-8.07605E+05-6.92151E+03-2.14627E+06-5.05304E-09 1.18348E-09
 -1        63-5.71147E+06-7.97681E+05-5.60940E+03-2.13289E+06-1.51095E-09 4.07899E-08
 -1        64-5.69950E+06-8.07582E+05-6.21994E+03-2.14616E+06 1.97895E-09 2.72594E-08
 -1        65-5.71171E+06-8.01461E+05-1.24739E+04-2.13405E+06-8.27640E-11-2.70155E-08
 -1        66-5.69915E+06-8.03890E+05-2.17332E+04-2.14510E+06-3.68800E-10-2.84099E-08
 -1        67-5.72145E+06-8.25648E+05-5.54858E+04-2.13438E+06 3.97949E-09-4.16239E-08
 -1        68-5.69001E+06-7.83958E+05-9.28979E+04-2.14570E+06 3.80169E-10-4.86507E-08
 -1        69-5.80666E+06-9.79901E+05-2.66576E+05-2.11280E+06-1.98452E-09-1.88338E-08
 -1        70-5.61519E+06-6.53838E+05-3.95207E+05-2.16539E+06 1.92813E-09-1.01718E-08
 -1        86-9.96470E+02-8.90421E+05 6.98540E+03-2.24673E+01-3.36513E-11 3.15189E-08
 -1        87 6.63877E+03-8.86450E+05 1.44782E+04 8.22901E+01-1.02546E-10 1.25752E-08
 -1        88-5.62267E+03-8.92659E+05 2.22768E+04-5.98259E+01 4.27463E-11 8.79206E-09
 -1        89 4.19306E+04-8.70073E+05 5.99579E+04 1.36546E+02 5.09317E-11-3.04114E-08
 -1        90-3.61688E+04-9.06758E+05 8.48491E+04-7.67280E+01-2.18279E-11-6.58793E-08
 -1       121-6.86001E+02-1.32127E+06 3.42288E+01 5.37668E+02 8.52253E-10-3.92902E-09
 -1       122-3.65768E+02-1.31952E+06 6.58645E+02-2.15571E+03-3.08491E-09-1.24564E-08
 -1       123-7.41091E+02-1.32136E+06 7.84335E+02 1.60697E+03 2.33058E-09 4.17276E-09
 -1       124 9.12567E+02-1.31888E+06 2.68486E+03-4.56369E+03-6.00676E-09 8.12724E-09
 -1       125-1.50390E+03-1.32207E+06 3.80900E+03 2.93789E+03 4.04088E-09-1.07648E-08
 -1       191-1.75571E+00 3.04421E+05 9.43615E+00 3.71092E-02-6.85147E-11 1.86251E-08
 -1       192-2.13357E+00 3.04394E+05 1.63319E+01-3.01401E-01-9.83282E-11 2.50876E-08
 -1       193-3.63670E+00 3.04420E+05 3.05766E+01 2.65093E-01-1.32591E-10-4.91082E-09
 -1       194-4.40953E+00 3.04397E+05 6.17472E+01-7.09026E-01-6.68283E-11-4.71889E-08
 -1       195-7.25159E+00 3.04418E+05 1.20984E+02 4.46722E-01-1.47402E-10-2.94624E-08
 -1       251-1.83482E+06 9.55350E+03-1.11703E+05 5.11855E+04 1.18234E-10-1.01827E-08
 -1       252-1.52056E+06-1.22519E+04-1.23999E+04-2.00139E+05-1.20963E-09-1.21499E-08
 -1       253-1.71462E+06-1.83409E+03-2.58860E+04 1.49014E+05 2.82580E-09 1.00572E-08
 -1       254-1.67413E+06 1.42288E+04-4.43802E+03-3.05839E+05 6.68592E-09 3.44470E-08
 -1       255-1.69740E+06-3.63239E+03-7.00167E+03 1.57577E+05-1.99634E-10 5.62986E-08
 -1       256-1.54835E+06 1.47796E+04 2.73205E+04-2.31383E+05-8.22365E-09-2.27135E-08
 -1       257-1.82818E+06-1.23503E+04-3.16172E+04 7.39704E+04 4.49290E-09-5.94548E-09
 -1       258-1.38936E+06 1.15961E+04 5.87778E+04-1.48402E+04-6.83394E-09-1.49536E-08
 -1       259-1.84076E+06-1.32062E+04-3.32278E+04-5.86834E+04-6.72298E-09 9.07096E-09
 -1       260-1.52049E+06 1.50697E+04 3.55127E+04 2.11390E+05-1.58657E-08 1.48565E-08
 -1       261-1.70999E+06-5.25223E+03-3.88567E+03-1.51766E+05-3.76695E-08 1.40509E-08
 -1       262-1.67187E+06 2.09179E+04 9.61336E+03 3.06740E+05 1.70102E-08 5.70636E-08
 -1       263-1.70438E+06-6.78110E+03-1.07256E+02-1.54699E+05-1.00558E-08 8.86916E-09
 -1       264-1.52712E+06 3.22010E+04 4.50993E+04 2.22182E+05-7.19051E-08 7.62957E-08
 -1       265-1.84110E+06-2.76255E+04-2.06008E+04-6.65787E+04-2.26100E-08-1.27693E-09
 -1       266-3.19402E+04-1.49337E+04 7.49480E+04-7.42672E+01 1.63709E-10 6.60935E-08
 -1       267 3.70282E+04 1.74079E+04 5.29685E+04 8.56817E+01 2.27374E-10 7.22281E-09
 -1       268-4.96538E+03-2.46532E+03 1.96884E+04-1.09178E+01 1.64619E-10 4.21381E-08
 -1       269 5.86270E+03 2.95060E+03 1.27969E+04 1.27171E+01 2.87400E-10 1.01385E-07
 -1       270-8.79996E+02-4.84800E+02 6.17726E+03-1.72582E+00 1.84627E-10 9.91266E-08
 -1       271-2.92713E+06-3.63419E+05-2.19965E+05-1.13592E+06-1.16779E-09 3.60887E-08
 -1       272-3.02092E+06-5.09818E+05-1.41541E+05-1.11777E+06 4.65275E-09-1.74350E-08
 -1       273-2.96870E+06-4.18236E+05-5.19508E+04-1.12590E+06-5.86203E-09-1.22782E-08
 -1       274-2.97154E+06-4.43222E+05-2.90952E+04-1.13330E+06 2.11412E-09 3.54216E-08
 -1       275-2.97542E+06-4.22968E+05-1.21109E+04-1.12303E+06 2.33103E-09 2.08820E-08
 -1       276-2.96261E+06-4.38549E+05-6.39274E+03-1.13841E+06 3.12866E-10 3.53230E-08
 -1       277-2.97765E+06-4.22098E+05-3.15386E+03-1.12115E+06-3.62525E-09 4.42315E-08
 -1       278-2.95927E+06-4.40497E+05-2.19051E+03-1.14186E+06 9.93168E-09 1.27902E-08
 -1       279-2.97893E+06-4.20841E+05-2.31195E+03-1.11974E+06-2.80761E-09-1.30332E-08
 -1       280-2.95771E+06-4.42998E+05-4.11690E+03-1.14429E+06-2.43267E-09 1.40556E-08
 -1       281-2.97939E+06-4.19522E+05-7.46913E+03-1.11884E+06 2.82034E-09 3.19021E-08
 -1       282-2.96008E+06-4.49107E+05-1.78883E+04-1.14505E+06-1.97724E-09-1.55540E-08
 -1       283-2.97677E+06-4.15096E+05-3.17896E+04-1.11891E+06-3.00315E-09-2.03509E-08
 -1       284-2.98775E+06-4.92561E+05-8.67463E+04-1.13860E+06-4.80577E-09-7.96717E-09
 -1       285-2.95248E+06-3.80359E+05-1.34741E+05-1.12375E+06 1.23509E-09 6.51926E-09
 -1       301 2.31870E+04-1.82030E+05 1.72476E+05-3.46477E+05 5.82077E-11-4.53474E-09
 -1       302 2.46375E+04-1.38746E+05 1.10418E+05-5.07314E+05 4.36557E-11 5.86290E-08
 -1       303 1.04250E+03-1.64912E+05 7.95357E+04-3.45821E+05-1.16415E-10-2.10766E-08
 -1       304 2.37323E+04-1.37374E+05 1.09862E+05-5.06827E+05 5.23869E-10-3.21834E-08
 -1       305 2.15910E+04-1.79970E+05 1.71016E+05-3.47032E+05-2.76486E-10-1.05865E-08
 -1       306-9.95287E+06-1.29558E+06-1.64830E+06-2.03689E+06-2.50002E-08 3.75439E-08
 -1       307 1.78680E+05-1.88273E+06 6.17696E+05-4.78543E+06-3.02607E-07 4.09491E-08
 -1       308-7.60173E+06 2.26193E+05-2.12822E+05-2.61619E+04-7.45349E-08 7.20247E-08
 -1       309-3.74038E+06-2.09374E+06 1.73327E+05-7.44149E+06 1.33186E-07-5.29062E-08
 -1       310-7.68494E+06 1.97684E+05-1.47978E+05-6.85818E+04-1.04192E-08-6.18365E-08
 -1       311 3.84095E+05-1.88888E+06 8.91654E+05-4.58404E+06 1.82437E-07 6.42631E-08
 -1       312-9.97915E+06-1.33359E+06-1.13309E+06-2.14188E+06-5.58794E-08 4.84360E-08
 -1       313 2.16795E+06 5.17331E+05 1.55410E+06 7.64775E+05 1.63564E-08 3.00206E-08
 -1       314-8.22809E+06-3.06809E+06-1.12936E+06-4.07237E+06 1.22847E-07-1.35333E-08
 -1       315-5.24383E+06 3.69572E+06 8.82791E+05 1.61383E+06-2.05182E-07-6.48724E-08
 -1       316-4.21803E+06-3.24655E+06-1.46821E+05-3.90731E+06-3.59141E-07-1.64699E-07
 -1       317-1.04088E+07 4.56483E+06 1.61385E+05-1.39381E+04 2.98003E-07-2.36670E-07
 -1       318-4.15131E+06-3.23721E+06-2.37780E+05-3.89307E+06-3.10276E-07-1.81462E-08
 -1       319-5.46263E+06 3.74204E+06 5.67669E+05 1.56119E+06-7.39383E-08 1.97615E-08
 -1       320-8.12457E+06-3.09073E+06-1.73689E+06-4.08408E+06 7.18865E-08-1.82772E-08
 -1       336 4.70276E+02-1.43033E+06-9.08171E+03 4.32933E+03-1.58116E-08-1.70985E-09
 -1       337-3.42054E+03-1.43160E+06-1.08661E+04-1.05390E+04-2.79379E-08-2.10894E-08
 -1       338 5.48157E+02-1.43031E+06-1.54173E+04 6.15679E+03-2.02831E-08 5.23869E-09
 -1       339-1.62368E+04-1.44001E+06-3.44145E+04-1.41054E+04-3.68855E-08 2.01890E-08
 -1       340 1.08415E+04-1.42257E+06-5.36951E+04 7.85379E+03-2.43781E-08 2.70338E-08
 -1       406 2.10314E+01 3.04407E+05 4.93528E+02 1.18253E-01-9.89075E-11-6.37056E-09
 -1       407 1.73714E+02 3.04496E+05 1.04845E+03 2.50851E+00-8.98126E-11-1.33169E-08
 -1       408 5.41580E+02 3.04331E+05 2.09421E+03-2.69481E+00-2.99053E-10-2.85206E-08
 -1       409 2.26564E+03 3.05165E+05 4.71413E+03 2.69265E+01-8.40714E-11-2.39057E-08
 -1       410 6.50643E+03 3.03736E+05 9.62383E+03-2.54534E+01-3.95175E-10-1.17298E-08
 -1       521-1.21714E+07-1.76272E+06-2.23650E+06-2.28169E+06-4.32483E-08 4.24334E-08
 -1       522 6.54875E+05-2.20498E+06 7.61992E+05-6.29504E+06-2.48547E-07-9.87202E-08
 -1       523-9.18254E+06 2.39579E+05-2.71911E+05 2.05318E+05 1.64873E-08-1.56891E-07
 -1       524-4.88757E+06-2.07259E+06 2.42167E+05-9.71663E+06 2.70403E-07-2.36199E-07
 -1       525-9.31903E+06 1.87727E+05-1.98660E+05 1.39806E+05 2.36672E-07-1.58059E-07
 -1       526 1.04235E+06-2.22744E+06 1.14050E+06-5.95350E+06 2.12691E-07-3.65544E-08
 -1       527-1.22198E+07-1.84137E+06-1.55937E+06-2.44978E+06 1.29337E-07-1.56433E-08
 -1       528 3.62587E+06 7.20134E+05 1.95921E+06 1.35561E+06 3.11120E-08-9.92732E-08
 -1       529-9.94336E+06-4.08891E+06-1.55066E+06-4.92892E+06-4.02797E-08-3.66708E-08
 -1       530-6.44828E+06 5.19297E+06 1.13157E+06 2.19397E+06 4.76721E-08 1.34882E-07
 -1       531-4.87023E+06-4.22782E+06-1.86613E+05-4.73800E+06-4.35117E-07 3.64234E-08
 -1       532-1.32885E+07 6.33145E+06 2.48610E+05-4.36683E+05 1.37705E-07-2.29476E-07
 -1       533-4.76450E+06-4.21491E+06-2.69728E+05-4.71312E+06 2.91766E-08-4.27084E-07
 -1       534-6.79123E+06 5.34644E+06 8.04748E+05 2.07017E+06-8.36953E-08 2.66562E-07
 -1       535-9.80673E+06-4.18768E+06-2.19758E+06-4.94075E+06 1.08266E-08 1.83116E-07
 -1       536-4.74138E+05-2.91371E+04 2.31454E+04-2.47850E+04-3.42652E-09 2.01089E-08
 -1       537-2.75061E+05 3.09063E+04 4.94741E+04 6.09624E+04-5.69113E-08 5.03042E-08
 -1       538-3.78046E+05-1.27955E+03 1.08558E+04-3.75500E+04 1.93481E-08 5.67302E-08
 -1       539-3.39663E+05 3.32366E+03 1.32723E+04 6.97680E+04 8.61072E-08 5.84040E-08
 -1       540-4.10957E+05-4.19002E+02-4.26697E+03-3.36658E+04 2.60648E-08 6.17538E-08
 -1       541-2.13323E+05 5.48638E+03 3.37473E+04 4.40822E+04 6.90613E-09 5.40633E-08
 -1       542-5.01000E+05-6.21509E+03-2.50164E+04-1.17282E+04 3.79794E-08 2.76867E-08
 -1       543-1.41238E+05 8.15703E+03 4.69252E+04-8.36370E+03-2.26255E-08-1.72816E-08
 -1       544-4.81131E+05-4.64966E+03-2.20056E+04 1.86658E+04-2.75631E-08-2.02390E-08
 -1       545-2.58425E+05 2.07049E+03 2.15082E+04-5.56877E+04 1.94781E-08-4.33980E-08
 -1       546-3.86910E+05 2.39775E+03-4.94191E+03 3.55523E+04 5.54996E-09-5.02183E-08
 -1       547-3.49281E+05-4.02030E+03-1.96793E+03-7.17379E+04-8.17138E-08-6.38245E-08
 -1       548-3.92656E+05 3.38731E+03-1.48972E+04 3.48230E+04-6.09955E-08-5.43059E-08
 -1       549-2.50504E+05-9.85698E+03-2.11047E+03-5.24057E+04-3.76808E-08-3.07891E-08
 -1       550-4.82935E+05 5.97497E+03-6.80541E+04 1.61024E+04 2.81625E-09-1.34933E-08
 -1       551 2.46684E+04-6.71211E+05 2.06611E+04-1.06810E+06-6.33809E-08 6.60657E-09
 -1       552 5.48168E+04-6.90346E+05 3.03552E+04-1.52211E+06-4.56203E-08 1.68002E-08
 -1       553 3.99076E+04-6.94757E+05 4.56722E+04-1.06367E+06-7.44112E-08 2.29193E-08
 -1       554 8.44190E+04-6.91479E+05 9.69225E+04-1.52380E+06-4.63333E-08 1.23327E-08
 -1       555 6.89561E+04-7.14723E+05 1.72156E+05-1.06438E+06-7.73798E-08-1.12959E-08
 -1       556 1.36235E+05-2.46708E+05 6.30291E+04-2.96879E+05-1.64728E-08-5.12227E-09
 -1       557 2.31417E+05-3.23319E+05 3.38597E+04-3.76164E+05 7.56700E-10 4.15184E-09
 -1       558 1.30806E+05-2.52092E+05 1.25245E+04-2.91874E+05-7.91624E-09-3.52884E-10
 -1       559 2.14989E+05-3.30639E+05 6.71997E+03-3.85725E+05 1.29803E-08-6.82485E-09
 -1       560 1.24437E+05-2.48022E+05 2.10278E+03-2.96241E+05 5.25324E-09 8.18909E-09
 -1       561 2.06424E+05-3.27625E+05 1.38322E+03-3.91337E+05-1.67347E-09-5.66160E-09
 -1       562 1.19428E+05-2.44826E+05 1.80855E+02-2.99835E+05 1.62981E-09-5.93900E-10
 -1       563 2.00542E+05-3.25066E+05 3.38000E+02-3.95128E+05-8.44011E-10-8.08177E-09
 -1       564 1.16064E+05-2.42706E+05 4.83937E+00-3.02210E+05 6.92671E-09 3.91583E-09
 -1       565 1.97018E+05-3.23535E+05 1.31113E+02-3.97363E+05 8.04721E-09 7.27596E-09
 -1       566 1.14412E+05-2.41650E+05 6.33106E-01-3.03372E+05-3.87445E-09-9.01127E-09
 -1       567 1.95823E+05-3.23003E+05-8.11876E+01-3.98024E+05 1.47556E-08 1.20526E-08
 -1       568 1.14520E+05-2.41733E+05-4.16573E+02-3.03387E+05-3.01588E-09 1.61926E-08
 -1       569 1.96016E+05-3.22928E+05-1.03847E+03-3.96263E+05-1.27566E-08 7.37418E-09
 -1       570 1.17160E+05-2.43930E+05-2.44890E+03-3.02903E+05 2.40107E-09 1.64873E-08
 -1       571 2.30977E+05 8.49519E+03 1.24672E+04-6.16909E+04 6.19366E-10 4.58590E-09
 -1       572 2.32821E+05 3.01832E+03 6.10853E+03-6.76699E+04 1.84809E-09 6.69593E-09
 -1       573 2.31717E+05 7.82313E+02 2.71394E+03-6.15572E+04 1.50249E-09 8.86803E-09
 -1       574 2.31927E+05 3.21147E+02 1.36015E+03-6.78263E+04 2.22826E-10 7.26550E-09
 -1       575 2.31800E+05 1.15982E+02 6.41564E+02-6.15393E+04 4.77598E-10 8.98626E-09
 -1       576 2.31810E+05 1.00838E+02 3.27579E+02-6.78471E+04-9.44283E-10 1.44487E-08
 -1       577 2.31820E+05 7.57872E+01 1.62964E+02-6.15369E+04-1.04728E-09 2.74895E-09
 -1       578 2.31810E+05 8.32225E+01 9.23410E+01-6.78498E+04-1.34060E-09-2.07820E-08
 -1       579 2.31847E+05 6.48406E+01 6.21637E+01-6.15368E+04 1.42973E-09-1.14496E-08
 -1       580 2.31848E+05 6.62051E+01 6.83077E+01-6.78462E+04-2.62708E-09 6.01403E-09
 -1       581 2.31891E+05 4.61570E+01 1.02774E+02-6.15406E+04 2.20098E-09-2.57160E-09
 -1       582 2.31924E+05 6.74243E+01 2.04821E+02-6.78070E+04-1.67165E-09-6.37056E-09
 -1       583 2.31940E+05 1.08682E+02 3.96600E+02-6.15761E+04-2.32649E-09 2.73621E-09
 -1       584 2.32131E+05 4.25160E+02 8.92781E+02-6.75087E+04 2.98314E-10-8.39134E-09
 -1       585 2.31900E+05 1.20594E+03 1.81358E+03-6.18391E+04 2.63753E-10 6.79756E-09
 -1       586-2.93267E+03 7.69708E+04-3.45764E+03-2.06421E+05-2.62116E-09 1.71478E-08
 -1       587-7.64549E+02 7.65589E+04-3.42690E+01-2.27214E+05-2.81943E-09 1.63600E-08
 -1       588 7.17301E+02 7.65850E+04 3.31858E+03-2.06326E+05-9.05857E-10 1.70885E-08
 -1       589 4.34633E+03 7.83824E+04 9.18000E+03-2.26971E+05-1.27693E-09 7.73252E-09
 -1       590 1.30120E+04 7.55694E+04 1.94811E+04-2.06682E+05-2.22099E-09 6.81939E-09
 -1       591-4.76265E+04-1.20543E+04-1.62572E+04-2.25374E+04-1.99350E-09-2.76668E-09
 -1       592-4.99447E+04-1.52532E+04-8.80591E+03-2.58722E+04-3.12207E-09 6.83360E-09
 -1       593-4.92582E+04-1.08685E+04-3.66570E+03-2.37237E+04 1.73139E-09 5.43810E-09
 -1       594-4.76915E+04-1.28770E+04-1.82826E+03-2.59685E+04 4.14389E-11 1.69752E-08
 -1       595-4.93828E+04-1.08641E+04-8.39768E+02-2.37778E+04-1.24311E-09 1.50007E-08
 -1       596-4.75379E+04-1.27682E+04-4.27464E+02-2.59511E+04 4.56392E-09-4.58570E-09
 -1       597-4.93985E+04-1.08749E+04-2.33946E+02-2.37798E+04 2.69037E-09 7.71763E-10
 -1       598-4.75229E+04-1.27640E+04-1.90232E+02-2.59462E+04-2.04295E-09 4.87034E-09
 -1       599-4.93974E+04-1.08752E+04-2.45698E+02-2.37795E+04 1.14017E-09-5.25642E-09
 -1       600-4.75386E+04-1.27692E+04-4.58583E+02-2.59500E+04 1.20576E-09-3.17004E-09
 -1       601-4.93784E+04-1.08643E+04-9.05797E+02-2.37765E+04-1.65983E-11-2.45143E-08
 -1       602-4.77042E+04-1.28861E+04-1.97467E+03-2.59661E+04-4.94424E-10-8.76480E-09
 -1       603-4.92417E+04-1.08713E+04-3.96034E+03-2.37185E+04-1.06797E-09 1.67302E-09
 -1       604-5.01509E+04-1.54395E+04-9.51344E+03-2.58443E+04-1.30490E-09 4.96766E-09
 -1       605-4.74639E+04-1.21650E+04-1.75635E+04-2.24507E+04 1.11169E-09 9.90622E-09
 -1       606 2.74047E+04-1.10840E+04-1.99187E+04 2.63788E+04 6.72117E-10-5.61158E-10
 -1       607 2.39965E+04-3.59466E+03-9.91868E+03 2.96191E+04 1.09139E-09 1.53341E-09
 -1       608 2.59315E+04-6.24702E+02-4.44140E+03 2.61737E+04 1.58252E-09 8.96989E-10
 -1       609 2.55508E+04-1.84042E+02-2.24329E+03 2.98516E+04-1.71985E-09 1.41390E-08
 -1       610 2.57556E+04 4.40257E+00-1.07120E+03 2.61505E+04-2.84672E-09 1.44023E-08
 -1       611 2.56875E+04 1.43534E+01-5.40065E+02 2.98770E+04-4.17867E-09-1.56570E-09
 -1       612 2.57103E+04 2.05221E+01-2.57709E+02 2.61482E+04-5.98448E-10 2.06751E-09
 -1       613 2.56874E+04 2.26160E+01-1.16278E+02 2.98800E+04-4.05998E-09-2.62844E-10
 -1       614 2.56861E+04 2.00255E+01-2.97008E+01 2.61474E+04-3.50792E-09-6.86032E-09
 -1       615 2.56761E+04 2.77406E+01 4.32201E+01 2.98804E+04 2.37378E-09-2.58660E-09
 -1       616 2.56675E+04 2.57178E+01 1.34614E+02 2.61477E+04 5.22505E-10 7.46468E-10
 -1       617 2.56869E+04 5.96880E+01 3.09303E+02 2.98799E+04-5.02496E-11-2.41221E-09
 -1       618 2.56367E+04 1.17387E+02 6.24122E+02 2.61478E+04-3.23598E-09 8.84324E-09
 -1       619 2.59040E+04 5.44307E+02 1.40206E+03 2.98791E+04-1.33628E-09 6.51880E-09
 -1       620 2.54273E+04 1.59919E+03 2.81817E+03 2.61470E+04 2.04523E-09 3.17459E-09
 -1       621 2.73016E+02 2.35298E+05 2.49800E+03 1.77733E+04 1.46201E-10 2.87628E-09
 -1       622 3.40201E+02 2.35904E+05 2.34526E+03 2.58579E+04 2.79442E-10-1.60526E-09
 -1       623 2.76798E+01 2.35433E+05 2.98866E+03 1.76887E+04 1.30910E-10-7.87168E-10
 -1       624 1.45161E+03 2.36904E+05 5.93062E+03 2.59440E+04 1.15477E-10-2.05546E-10
 -1       625 1.45606E+03 2.34261E+05 1.04300E+04 1.76862E+04 2.08729E-10-1.30971E-08
 -1       626 2.08418E+05 5.42906E+04 4.55101E+03 1.07784E+05-5.71617E-09-1.59580E-08
 -1       627 2.06040E+05 5.58505E+04 2.19308E+03 1.11932E+05 2.89583E-09-3.37377E-09
 -1       628 2.08552E+05 5.21814E+04 9.26726E+02 1.08523E+05 8.61928E-09 6.85941E-09
 -1       629 2.05436E+05 5.52816E+04 4.53695E+02 1.12178E+05 2.81489E-10 6.65216E-09
 -1       630 2.08561E+05 5.20815E+04 2.09646E+02 1.08548E+05 6.63113E-09-2.78351E-09
 -1       631 2.05366E+05 5.52640E+04 1.11901E+02 1.12178E+05 1.91794E-08-3.01264E-09
 -1       632 2.08553E+05 5.20880E+04 7.19820E+01 1.08541E+05 2.42881E-09-1.61984E-08
 -1       633 2.05353E+05 5.52687E+04 7.76976E+01 1.12171E+05-4.98153E-09-5.67672E-09
 -1       634 2.08544E+05 5.20883E+04 1.23297E+02 1.08537E+05 3.56272E-09 4.15844E-09
 -1       635 2.05360E+05 5.52694E+04 2.48246E+02 1.12172E+05-2.20939E-09-1.03873E-08
 -1       636 2.08533E+05 5.20860E+04 5.00611E+02 1.08535E+05 1.66645E-09 1.14769E-08
 -1       637 2.05465E+05 5.53481E+04 1.10000E+03 1.12169E+05-1.57775E-09 7.91260E-11
 -1       638 2.08492E+05 5.23301E+04 2.26019E+03 1.08423E+05-2.12822E-10 3.66117E-09
 -1       639 2.06652E+05 5.69987E+04 5.34713E+03 1.11817E+05 8.01265E-10 6.56291E-09
 -1       640 2.08332E+05 5.72553E+04 1.10963E+04 1.06339E+05 5.88898E-10 3.23735E-09
 -1       656 5.46475E+04-1.39002E+06-1.31921E+05-7.59758E+02 4.36557E-10-1.22089E-08
 -1       657-7.22575E+04-1.44959E+06-1.09199E+05 7.24510E+03 4.72937E-10-5.56108E-09
 -1       658 1.73802E+04-1.40697E+06-6.71427E+04-2.29259E+03 6.57110E-10 7.52573E-09
 -1       659-7.78325E+04-1.45224E+06-1.16522E+05 8.36955E+03-1.03682E-10 1.78968E-08
 -1       660 6.02097E+04-1.38739E+06-1.44514E+05-1.88419E+03-3.78350E-10 1.03765E-09
 -1       661 1.65863E+05 1.78353E+04 1.64751E+04 6.48643E+04-2.73303E-10 9.08221E-09
 -1       662 1.74761E+05 3.04449E+04 1.11021E+04 6.16422E+04-8.37417E-10 3.86092E-09
 -1       663 1.69097E+05 2.31226E+04 3.88332E+03 6.39278E+04-3.08182E-09-2.36150E-09
 -1       664 1.71016E+05 2.42588E+04 2.32225E+03 6.27835E+04 7.82961E-10-2.48511E-09
 -1       665 1.69584E+05 2.38476E+04 9.16096E+02 6.37883E+04-3.10791E-09 1.33809E-10
 -1       666 1.70442E+05 2.34274E+04 5.35061E+02 6.29640E+04-5.11930E-09 9.70412E-09
 -1       667 1.69668E+05 2.39322E+04 2.83065E+02 6.37554E+04-1.53659E-09 3.54776E-09
 -1       668 1.70351E+05 2.33636E+04 2.85796E+02 6.30119E+04 1.57726E-09-5.32970E-09
 -1       669 1.69674E+05 2.39095E+04 3.84775E+02 6.37410E+04 4.59579E-10 9.94299E-09
 -1       670 1.70446E+05 2.35702E+04 8.35845E+02 6.30135E+04 2.28919E-09-3.86662E-09
 -1       671 1.69573E+05 2.37298E+04 1.48342E+03 6.37520E+04-2.38746E-09-7.79778E-10
 -1       672 1.71310E+05 2.50133E+04 3.79478E+03 6.28046E+04-5.37852E-09 7.59837E-09
 -1       673 1.68814E+05 2.25028E+04 6.35923E+03 6.39360E+04-1.01340E-09 5.30599E-09
 -1       674 1.77364E+05 3.52283E+04 1.81860E+04 6.10245E+04-1.47134E-09 6.00267E-11
 -1       675 1.63558E+05 1.38007E+04 2.69941E+04 6.54244E+04-6.67569E-10-1.94086E-09
 -1       676 2.11633E+01-2.56321E+05-9.83174E+02-2.04290E+00 1.13263E-09 8.40883E-09
 -1       677-2.61116E+02-2.56559E+05-1.79935E+03 4.08321E+00-4.39684E-11 4.68559E-09
 -1       678 1.74295E+02-2.56152E+05-3.18078E+03-2.03892E+00 8.62883E-11-1.67036E-09
 -1       679-3.18172E+03-2.58479E+05-7.55607E+03 4.06794E+00 9.03697E-10 2.48580E-09
 -1       680 1.89886E+03-2.54402E+05-1.21778E+04-2.00464E+00 2.49202E-10-1.55470E-08
 -1       771-2.71154E+06-5.60859E+05-8.79891E+04-1.21402E+06-2.08674E-08-1.65019E-08
 -1       772-2.66795E+06-6.18123E+05-4.60657E+04-1.27937E+06-1.65892E-08 8.35826E-09
 -1       773-2.72734E+06-5.48382E+05-2.20241E+04-1.21978E+06-8.74570E-09 7.74162E-09
 -1       774-2.65919E+06-6.08881E+05-1.01423E+04-1.29085E+06 1.86265E-08 4.54020E-09
 -1       775-2.73412E+06-5.43577E+05-6.62711E+03-1.22180E+06-3.09956E-09 1.44792E-09
 -1       776-2.66265E+06-6.08360E+05-2.64111E+03-1.29877E+06-6.30826E-09 3.40333E-09
 -1       777-2.73971E+06-5.39470E+05-2.59654E+03-1.22355E+06 1.24419E-08 5.87897E-09
 -1       778-2.66656E+06-6.07992E+05-7.96125E+02-1.30550E+06 8.33097E-09-6.98492E-10
 -1       779-2.74441E+06-5.35953E+05-1.20489E+03-1.22507E+06-4.01633E-09-5.12409E-09
 -1       780-2.67002E+06-6.07604E+05-2.32675E+02-1.31095E+06 2.03727E-10 1.98088E-09
 -1       781-2.74808E+06-5.33153E+05-4.78633E+02-1.22625E+06-1.52359E-08-1.29876E-09
 -1       782-2.67266E+06-6.07239E+05 8.15267E+01-1.31495E+06-2.31485E-08-3.88218E-09
 -1       783-2.75063E+06-5.31242E+05 1.03053E+02-1.22708E+06-6.12636E-09-9.39826E-09
 -1       784-2.67416E+06-6.06797E+05 6.73670E+02-1.31740E+06-1.30549E-08 4.10546E-09
 -1       785-2.75204E+06-5.30176E+05 1.15966E+03-1.22759E+06-2.55241E-08-8.06722E-10
 -1       786 1.24489E+05-8.99926E+03 2.08193E+04-1.33215E+02 1.18814E-09 8.99036E-09
 -1       787 1.33516E+05 1.04183E+04 1.47291E+04 2.44168E+01 2.71244E-09 6.45218E-09
 -1       788 1.27970E+05-1.41063E+03 5.38704E+03-1.06638E+02 1.42168E-09 3.74848E-09
 -1       789 1.29461E+05 1.63203E+03 3.38273E+03-1.84672E+01-2.29601E-11 1.04204E-08
 -1       790 1.28545E+05-2.20098E+02 1.37167E+03-9.03368E+01-9.55518E-10 8.42851E-09
 -1       791 1.28789E+05 2.54410E+02 7.96280E+02-4.67920E+01-3.36785E-09 1.84199E-08
 -1       792 1.28642E+05-3.40411E+01 3.45480E+02-7.83131E+01-1.31333E-09 1.98118E-08
 -1       793 1.28675E+05 3.91820E+01 1.89911E+02-6.94387E+01-4.48465E-10-1.41567E-08
 -1       794 1.28659E+05-5.00681E+00 8.48714E+01-6.76898E+01 1.10863E-09-1.35845E-08
 -1       795 1.28655E+05 4.71474E+00 4.21355E+01-9.15427E+01-1.05093E-09-8.18953E-09
 -1       796 1.28662E+05 4.08987E-01 1.43427E+01-5.62088E+01 7.71827E-10-6.99243E-09
 -1       797 1.28648E+05-7.66597E+00-6.51616E+00-1.17757E+02 1.26577E-09-1.54638E-09
 -1       798 1.28666E+05 7.36332E+00-2.32773E+01-4.14745E+01 3.96763E-10 1.67081E-09
 -1       799 1.28626E+05-5.48429E+01-7.50966E+01-1.53592E+02 1.75162E-09-1.23857E-09
 -1       800 1.28684E+05 4.75377E+01-1.09377E+02-2.03732E+01 5.79474E-11-5.03862E-09
 -1       801 7.58769E+04-4.34574E+06-4.61161E+05 2.21220E+05 3.57250E-08-1.36843E-08
 -1       802-5.35774E+04-2.56373E+06 3.82734E+04-2.08204E+05 1.00285E-07-1.13321E-08
 -1       803-2.45601E+04-4.41100E+06-2.28274E+05 2.21105E+05 4.51764E-08 2.70729E-08
 -1       804-2.49992E+04-3.14960E+06 5.04617E+04 1.71186E+05-6.56792E-09-7.39328E-09
 -1       805 3.81305E+04-3.76508E+06-5.58576E+04-1.57949E+05-3.32693E-09-5.80988E-09
 -1       806-2.57309E+05-4.84138E+04-1.88304E+04-1.00537E+05-2.53340E-09-1.69302E-08
 -1       807-2.59034E+05-4.52915E+04-9.27247E+03-1.04840E+05 2.14186E-09 3.87996E-09
 -1       808-2.57850E+05-4.18019E+04-3.93461E+03-1.03711E+05 1.66028E-09-2.01304E-08
 -1       809-2.57084E+05-4.27137E+04-1.92485E+03-1.05043E+05-4.47289E-09-1.17648E-08
 -1       810-2.57930E+05-4.15797E+04-8.82609E+02-1.03849E+05-6.59384E-11 8.23661E-09
 -1       811-2.56936E+05-4.26110E+04-4.38922E+02-1.05013E+05 1.45519E-10-3.22041E-09
 -1       812-2.57944E+05-4.15996E+04-2.21851E+02-1.03849E+05-4.67026E-09-1.19169E-08
 -1       813-2.56917E+05-4.26121E+04-1.44118E+02-1.04999E+05 2.76486E-10 1.54921E-09
 -1       814-2.57940E+05-4.16063E+04-1.42493E+02-1.03847E+05 1.56069E-09 3.46972E-09
 -1       815-2.56922E+05-4.26132E+04-2.29692E+02-1.04995E+05 2.05728E-09 1.85605E-08
 -1       816-2.57925E+05-4.16038E+04-4.35057E+02-1.03845E+05-6.63931E-11-4.13411E-09
 -1       817-2.56997E+05-4.26529E+04-9.33829E+02-1.04989E+05-1.04774E-09 2.91834E-09
 -1       818-2.57872E+05-4.17262E+04-1.90347E+03-1.03786E+05 2.99133E-09-4.54202E-09
 -1       819-2.58041E+05-4.37909E+04-4.47875E+03-1.04761E+05 5.36602E-11-1.22745E-08
 -1       820-2.57506E+05-4.50154E+04-9.09447E+03-1.02361E+05-2.00998E-10-6.24141E-11
 -1       821-3.10987E+05 1.71549E+04-3.96760E+04 4.59035E+02-1.07610E-07 7.84166E-09
 -1       822-3.28168E+05-1.98595E+04-2.80747E+04-1.15164E+03-2.25318E-07-2.39743E-09
 -1       823-3.17614E+05 2.69009E+03-1.02754E+04 5.08713E+02-1.13172E-07-2.44199E-09
 -1       824-3.20422E+05-3.11266E+03-6.46319E+03-9.86876E+02 2.68869E-10 8.48581E-09
 -1       825-3.18730E+05 4.20493E+02-2.66116E+03 2.94275E+02 9.25457E-10 7.63134E-09
 -1       826-3.19111E+05-4.95078E+02-1.59652E+03-3.93874E+02-3.78401E-10-4.05436E-09
 -1       827-3.18923E+05 7.35845E+01-8.38963E+02-8.42989E+01-1.14937E-09 3.55450E-09
 -1       828-3.18937E+05-1.51241E+02-7.30538E+02 3.52581E+02-3.50846E-09-2.20176E-09
 -1       829-3.18904E+05 7.69516E+01-8.56350E+02-4.52193E+02 7.60885E-11 2.43554E-09
 -1       830-3.19166E+05-5.16590E+02-1.66618E+03 9.07151E+02 1.99931E-09-7.59974E-09
 -1       831-3.18696E+05 4.39519E+02-2.76579E+03-6.38880E+02-3.29761E-09-2.22133E-09
 -1       832-3.20504E+05-3.24492E+03-6.74002E+03 1.01315E+03-1.63513E-09 8.26788E-09
 -1       833-3.17566E+05 2.80355E+03-1.07142E+04-5.58197E+02-1.63637E-09 1.24933E-08
 -1       834-3.28526E+05-2.07026E+04-2.92626E+04 6.18356E+02-3.55840E-10 1.95723E-09
 -1       835-3.10676E+05 1.78831E+04-4.13718E+04-2.44068E+02 5.17853E-09-2.13731E-09
 -1       836-1.06023E+03 2.92093E+05 1.77787E+04-1.60352E+04-9.54969E-10-2.18733E-09
 -1       837 3.86351E+03 2.97628E+05 1.52205E+04-3.22857E+04-7.67500E-10-4.64570E-09
 -1       838-4.10861E+02 2.93621E+05 1.57556E+04-1.59704E+04-4.22006E-10 6.56041E-09
 -1       839 1.00870E+04 3.02267E+05 3.00485E+04-3.23269E+04 1.81899E-11 2.98473E-09
 -1       840-3.06740E+03 2.87411E+05 4.80227E+04-1.59937E+04-3.98359E-10-7.55506E-10
 -1       856-7.23455E+04 7.62717E+03-2.00998E+04-4.20290E+02-1.44439E-09 4.10819E-09
 -1       857-8.06423E+04-8.94942E+03-1.38376E+04 4.86025E+03-2.47226E-09-8.27799E-09
 -1       858-7.56254E+04 1.06890E+03-5.21606E+03-4.42250E+02-2.08411E-09-6.22640E-09
 -1       859-7.68767E+04-1.24603E+03-3.14924E+03 4.89462E+03-2.39459E-09-1.21015E-08
 -1       860-7.61156E+04 1.48897E+02-1.32241E+03-4.54697E+02 1.06786E-09-9.48114E-09
 -1       861-7.63124E+04-1.67113E+02-7.32906E+02 4.91165E+03-4.72571E-09 5.06495E-09
 -1       862-7.61920E+04 1.97282E+01-3.15527E+02-4.59302E+02 3.45700E-09-6.99364E-09
 -1       863-7.62206E+04-1.25579E+01-1.39611E+02 4.91390E+03 4.28620E-09-5.81439E-09
 -1       864-7.62077E+04-2.22326E+00-1.06703E+01-4.56952E+02 1.85028E-09-8.14435E-09
 -1       865-7.61830E+04 4.00581E+01 1.18995E+02 4.90168E+03 1.47691E-09-1.34584E-08
 -1       866-7.62279E+04-3.32024E+01 2.68295E+02-4.47079E+02-2.52811E-09-2.80232E-09
 -1       867-7.60490E+04 2.76479E+02 6.78772E+02 4.87483E+03 6.87237E-10 1.66270E-08
 -1       868-7.63378E+04-2.35239E+02 1.13223E+03-4.30101E+02-3.24860E-10-3.90668E-09
 -1       869-7.52133E+04 1.95669E+03 3.02168E+03 4.83020E+03 2.28428E-09-1.20945E-08
 -1       870-7.70577E+04-1.66903E+03 4.38405E+03-4.02440E+02-3.98018E-10-1.55364E-09
 -1       871-4.66497E+03-1.17312E+04-1.54758E+04 1.03063E+05 6.74845E-10 1.71167E-09
 -1       872-1.93534E+03-1.52374E+04-6.36721E+03 1.33621E+05-4.94765E-10 4.60204E-09
 -1       873 5.29041E+01-1.35883E+04 7.51380E+02 1.02836E+05-4.09727E-10-6.77369E-09
 -1       874 2.42787E+03-1.14464E+04 8.42728E+03 1.33660E+05-4.98403E-10 5.07271E-10
 -1       875 5.53627E+03-1.55890E+04 1.87904E+04 1.03026E+05 3.60160E-10-2.03272E-09
 -1       876 2.45356E+05 4.18642E+04 1.28373E+04 9.90670E+04-1.33230E-09-4.50200E-09
 -1       877 2.46152E+05 4.46201E+04 6.85552E+03 1.02797E+05 1.39153E-09 3.85990E-09
 -1       878 2.46555E+05 4.04438E+04 2.87215E+03 1.00121E+05 1.90084E-09-1.05661E-09
 -1       879 2.44407E+05 4.28797E+04 1.43094E+03 1.02885E+05 1.36959E-09 4.58215E-09
 -1       880 2.46642E+05 4.04285E+04 6.66395E+02 1.00164E+05 3.92993E-09-2.79289E-09
 -1       881 2.44291E+05 4.28055E+04 3.55483E+02 1.02866E+05 3.41254E-09 9.40432E-10
 -1       882 2.46650E+05 4.04393E+04 2.26788E+02 1.00165E+05 3.67390E-09-6.51236E-09
 -1       883 2.44283E+05 4.28018E+04 2.42771E+02 1.02861E+05 8.46893E-09 7.94074E-09
 -1       884 2.46645E+05 4.04368E+04 3.85261E+02 1.00166E+05 2.07575E-09-6.56570E-09
 -1       885 2.44313E+05 4.28072E+04 7.74010E+02 1.02870E+05 3.55266E-09-3.90105E-09
 -1       886 2.46615E+05 4.04141E+04 1.55972E+03 1.00163E+05 3.65014E-09 1.97575E-08
 -1       887 2.44588E+05 4.29870E+04 3.40692E+03 1.02910E+05-8.78129E-09 9.58653E-09
 -1       888 2.46400E+05 4.04520E+04 6.86504E+03 1.00054E+05-7.16361E-09 5.59703E-09
 -1       889 2.48676E+05 4.72357E+04 1.63997E+04 1.02782E+05-3.63577E-09 2.13845E-09
 -1       890 2.43603E+05 4.37753E+04 3.07158E+04 9.74352E+04 2.41653E-09-7.63976E-10
 -1       891-1.30546E+02-1.37872E+05-1.65894E+03 2.48298E+04 5.14319E-10 9.88189E-09
 -1       892-2.31867E+02-1.38281E+05-1.79254E+03 3.76067E+04-2.46018E-10-3.73120E-10
 -1       893-2.03890E+01-1.37924E+05-2.54922E+03 2.48353E+04-2.00544E-10 6.41785E-09
 -1       894-1.35674E+03-1.39250E+05-5.28405E+03 3.74711E+04 8.07631E-10 5.23733E-09
 -1       895-1.06587E+03-1.36823E+05-9.30837E+03 2.49644E+04-1.98679E-09 3.56249E-09
 -1       956-3.11462E+05-4.33558E+03-1.08699E+04 2.15521E+04 2.63753E-11-8.41953E-09
 -1       957-3.13605E+05-1.47631E+03-5.58000E+03 2.59505E+04-3.85808E-09 4.30305E-09
 -1       958-3.12429E+05-1.31802E+02-2.51406E+03 2.14242E+04-2.00089E-11 8.08291E-09
 -1       959-3.12597E+05-3.78660E+01-1.28415E+03 2.60919E+04 1.01863E-09 9.18612E-09
 -1       960-3.12518E+05 2.20198E+01-6.26209E+02 2.14117E+04-5.92991E-10 6.83485E-09
 -1       961-3.12526E+05 1.73902E+01-3.32561E+02 2.61063E+04-1.85992E-09-4.36830E-09
 -1       962-3.12536E+05 1.83682E+01-1.91024E+02 2.14097E+04-3.54362E-09 2.26601E-09
 -1       963-3.12523E+05 1.90882E+01-1.54544E+02 2.61088E+04-3.21143E-09-9.04720E-10
 -1       964-3.12539E+05 2.05313E+01-1.89164E+02 2.14091E+04-9.35643E-10 1.60117E-09
 -1       965-3.12534E+05 2.19424E+01-3.28189E+02 2.61085E+04 3.99697E-09 1.32991E-09
 -1       966-3.12528E+05 2.84775E+01-6.16929E+02 2.14100E+04-9.77025E-10-5.44446E-09
 -1       967-3.12612E+05-2.80452E+01-1.26569E+03 2.60991E+04-9.42782E-09 2.18904E-09
 -1       968-3.12447E+05-1.18894E+02-2.47735E+03 2.14187E+04-7.96672E-09 8.73769E-10
 -1       969-3.13614E+05-1.44210E+03-5.50033E+03 2.59988E+04-3.22348E-09-9.89786E-09
 -1       970-3.11499E+05-4.25996E+03-1.07139E+04 2.15105E+04 4.89763E-10 1.28512E-09
 -1       971-2.90911E+05-1.50282E+03-8.28430E+03 1.36498E+04-8.46740E-10-2.76114E-09
 -1       972-2.92920E+05-1.08473E+03-4.51154E+03 1.90198E+04 1.65755E-09 3.76167E-09
 -1       973-2.91833E+05-2.16240E+01-2.02041E+03 1.35371E+04 3.81033E-09 4.95811E-09
 -1       974-2.91968E+05-2.55398E+01-1.04686E+03 1.91431E+04 6.40193E-09-8.42078E-09
 -1       975-2.91905E+05 1.77097E+01-5.22630E+02 1.35264E+04 2.61434E-09-5.33385E-09
 -1       976-2.91912E+05 1.83281E+01-3.00306E+02 1.91564E+04 3.64707E-10-6.25460E-09
 -1       977-2.91919E+05 1.78995E+01-2.15805E+02 1.35238E+04 4.55839E-09 1.09666E-08
 -1       978-2.91916E+05 2.34910E+01-2.49592E+02 1.91601E+04 7.52971E-09 1.18860E-09
 -1       979-2.91919E+05 2.48648E+01-3.98491E+02 1.35226E+04 3.64844E-09-2.17074E-09
 -1       980-2.91946E+05 2.60284E+01-7.67852E+02 1.91608E+04 9.97957E-10-2.50895E-09
 -1       981-2.91895E+05 4.40151E+01-1.48632E+03 1.35231E+04-5.41718E-10-7.71075E-09
 -1       982-2.92150E+05-8.37410E+01-3.07173E+03 1.91549E+04-1.79557E-09-4.15143E-09
 -1       983-2.91708E+05-5.10891E+01-5.96816E+03 1.35286E+04 1.29421E-09 1.20872E-09
 -1       984-2.95020E+05-3.20060E+03-1.33650E+04 1.90780E+04-2.76941E-09 7.77459E-09
 -1       985-2.89006E+05-4.41823E+03-2.45425E+04 1.36024E+04 2.33285E-09 1.05501E-08
 -3
    1PSTEP                        15           8           1          
  100CL  108 6.09375E-01         409                     0    8           1
 -4  DISP        4    1
 -5  D1          1    2    1    0
 -5  D2          1    2    2    0
 -5  D3          1    2    3    0
 -5  ALL         1    2    0    0    1ALL
 -1         1 1.30195E-03 0.00000E+00 0.00000E+00
 -1         2 1.22690E-03-2.91738E-27 0.00000E+00
 -1         3 2.69066E-04-8.58586E-27 1.32349E-23
 -1         5 1.49518E-04-5.44516E-26 1.65436E-24
 -1         8 1.28242E-03-6.15931E-07 0.00000E+00
 -1         9 1.25091E-03-3.71105E-06 0.00000E+00
 -1        10 2.44810E-04-3.24175E-06 0.00000E+00
 -1        12 1.50384E-04 7.07225E-07 8.27181E-25
 -1        15 1.25900E-03-6.77738E-07 0.00000E+00
 -1        16 1.26582E-03-4.51204E-06 0.00000E+00
 -1        17 1.69328E-04-7.13551E-06 0.00000E+00
 -1        18 1.51564E-04 2.07097E-05 0.00000E+00
 -1        19 1.52980E-04 1.41034E-06 0.00000E+00
 -1        20 1.53126E-04 8.32734E-07 0.00000E+00
 -1        21 1.52370E-04-2.60096E-06-3.30872E-24
 -1        24 2.71927E-05-1.03264E-05 0.00000E+00
 -1        25 1.57444E-04 2.08946E-05 0.00000E+00
 -1        26 1.58132E-04 1.95351E-06 0.00000E+00
 -1        27 1.56192E-04-2.32959E-06 0.00000E+00
 -1        28 1.55818E-04-3.16885E-06 0.00000E+00
 -1        32 0.00000E+00 0.00000E+00 0.00000E+00
 -1        33 1.62216E-04 2.61577E-06 0.00000E+00
 -1        34 1.60325E-04-2.36842E-06 0.00000E+00
 -1        35 1.58580E-04-3.47663E-06 0.00000E+00
 -1        51 1.30069E-03-1.11078E-07 0.00000E+00
 -1        52 1.29834E-03-2.10005E-07 0.00000E+00
 -1        53 1.29513E-03-3.07834E-07 0.00000E+00
 -1        54 1.29125E-03-4.06566E-07 0.00000E+00
 -1        55 1.28694E-03-5.07567E-07 2.89513E-24
 -1        56 1.29893E-03-3.60703E-07-5.29396E-23
 -1        57 1.29531E-03 5.62351E-07 2.64698E-23
 -1        58 1.29126E-03 2.61543E-06-1.05879E-22
 -1        59 1.28687E-03 5.51831E-06-5.29396E-23
 -1        60 1.28231E-03 8.89214E-06 0.00000E+00
 -1        61 1.27772E-03 1.23191E-05 0.00000E+00
 -1        62 1.27327E-03 1.53758E-05 0.00000E+00
 -1        63 1.26911E-03 1.76621E-05 5.29396E-23
 -1        64 1.26536E-03 1.88820E-05 1.05879E-22
 -1        65 1.26209E-03 1.88105E-05-5.29396E-23
 -1        66 1.25933E-03 1.73961E-05 0.00000E+00
 -1        67 1.25705E-03 1.46781E-05 5.29396E-23
 -1        68 1.25519E-03 1.08701E-05 0.00000E+00
 -1        69 1.25363E-03 6.26542E-06 0.00000E+00
 -1        70 1.25223E-03 1.25214E-06-5.29396E-23
 -1        86 1.22796E-03-6.09232E-07 1.32349E-23
 -1        87 1.23113E-03-1.22287E-06-6.61744E-24
 -1        88 1.23577E-03-1.84185E-06 0.00000E+00
 -1        89 1.24121E-03-2.46554E-06 0.00000E+00
 -1        90 1.24656E-03-3.08845E-06 0.00000E+00
 -1       121 2.68385E-04-5.29982E-07 0.00000E+00
 -1       122 2.66345E-04-1.06175E-06-6.61744E-24
 -1       123 2.62953E-04-1.59705E-06 0.00000E+00
 -1       124 2.58221E-04-2.13768E-06 6.61744E-24
 -1       125 2.52166E-04-2.68512E-06-1.32349E-23
 -1       191 1.49542E-04 1.17888E-07-3.30872E-24
 -1       192 1.49614E-04 2.35772E-07-1.65436E-24
 -1       193 1.49734E-04 3.53652E-07-1.65436E-24
 -1       194 1.49903E-04 4.71524E-07 8.27181E-25
 -1       195 1.50119E-04 5.89383E-07-3.30872E-24
 -1       251 1.28174E-03-1.14176E-05 0.00000E+00
 -1       252 1.28035E-03-5.13077E-05 6.61744E-24
 -1       253 1.27795E-03-1.12448E-04 1.32349E-23
 -1       254 1.27471E-03-1.86470E-04 6.61744E-24
 -1       255 1.27142E-03-2.61279E-04 0.00000E+00
 -1       256 1.26888E-03-3.24767E-04 0.00000E+00
 -1       257 1.26735E-03-3.68104E-04 0.00000E+00
 -1       258 1.26661E-03-3.82962E-04 6.61744E-24
 -1       259 1.26588E-03-3.68928E-04 0.00000E+00
 -1       260 1.26437E-03-3.26346E-04 0.00000E+00
 -1       261 1.26187E-03-2.63496E-04 0.00000E+00
 -1       262 1.25862E-03-1.89156E-04-6.61744E-24
 -1       263 1.25540E-03-1.15438E-04-1.32349E-23
 -1       264 1.25301E-03-5.44396E-05-1.32349E-23
 -1       265 1.25161E-03-1.45670E-05 0.00000E+00
 -1       266 1.27852E-03-6.35177E-07 3.30872E-24
 -1       267 1.27461E-03-6.44388E-07-8.27181E-25
 -1       268 1.27071E-03-6.54235E-07-8.27181E-25
 -1       269 1.26681E-03-6.62199E-07 0.00000E+00
 -1       270 1.26290E-03-6.70118E-07 2.06795E-25
 -1       271 1.28002E-03 2.86725E-06 0.00000E+00
 -1       272 1.27766E-03 6.15169E-06 0.00000E+00
 -1       273 1.27540E-03 9.16547E-06-2.64698E-23
 -1       274 1.27327E-03 1.18255E-05 0.00000E+00
 -1       275 1.27130E-03 1.40572E-05 0.00000E+00
 -1       276 1.26952E-03 1.57895E-05-1.32349E-23
 -1       277 1.26795E-03 1.69581E-05 0.00000E+00
 -1       278 1.26661E-03 1.75054E-05-1.32349E-23
 -1       279 1.26553E-03 1.73822E-05 0.00000E+00
 -1       280 1.26471E-03 1.65474E-05-1.32349E-23
 -1       281 1.26417E-03 1.49690E-05 2.64698E-23
 -1       282 1.26392E-03 1.26246E-05-1.32349E-23
 -1       283 1.26396E-03 9.50127E-06 0.00000E+00
 -1       284 1.26429E-03 5.59715E-06 0.00000E+00
 -1       285 1.26491E-03 9.18019E-07-2.64698E-23
 -1       301 1.25358E-03-3.86443E-06 1.32349E-23
 -1       302 1.25549E-03-3.98969E-06 0.00000E+00
 -1       303 1.25715E-03-4.11245E-06 0.00000E+00
 -1       304 1.25908E-03-4.23517E-06 0.00000E+00
 -1       305 1.26180E-03-4.36136E-06 0.00000E+00
 -1       306 1.27732E-03-1.00715E-04 1.05879E-22
 -1       307 1.33744E-03-3.74762E-04 5.29396E-23
 -1       308 1.40519E-03-7.81834E-04 0.00000E+00
 -1       309 1.46962E-03-1.26157E-03 5.29396E-23
 -1       310 1.53455E-03-1.73234E-03-1.05879E-22
 -1       311 1.60220E-03-2.11341E-03-5.29396E-23
 -1       312 1.65739E-03-2.34936E-03-1.05879E-22
 -1       313 1.67104E-03-2.40370E-03 5.29396E-23
 -1       314 1.60961E-03-2.27843E-03 0.00000E+00
 -1       315 1.45067E-03-1.99967E-03 0.00000E+00
 -1       316 1.20406E-03-1.61643E-03 0.00000E+00
 -1       317 9.02153E-04-1.17998E-03 0.00000E+00
 -1       318 6.03798E-04-7.46845E-04-1.05879E-22
 -1       319 3.66871E-04-3.73815E-04 0.00000E+00
 -1       320 2.20107E-04-1.11435E-04-1.05879E-22
 -1       336 2.36009E-04-3.85148E-06 0.00000E+00
 -1       337 2.25629E-04-4.47638E-06 6.61744E-24
 -1       338 2.13713E-04-5.11736E-06 1.32349E-23
 -1       339 2.00316E-04-5.77461E-06 6.61744E-24
 -1       340 1.85499E-04-6.45121E-06-1.32349E-23
 -1       406 1.50696E-04 8.25039E-07 3.30872E-24
 -1       407 1.51057E-04 9.42800E-07 8.27181E-25
 -1       408 1.51466E-04 1.06047E-06-3.30872E-24
 -1       409 1.51923E-04 1.17791E-06 8.27181E-25
 -1       410 1.52428E-04 1.29489E-06 1.65436E-24
 -1       521 1.29347E-03-1.09979E-04-1.05879E-22
 -1       522 1.35453E-03-4.03486E-04 5.29396E-23
 -1       523 1.42090E-03-8.38431E-04 1.05879E-22
 -1       524 1.48184E-03-1.34912E-03-5.29396E-23
 -1       525 1.54362E-03-1.84959E-03 0.00000E+00
 -1       526 1.61052E-03-2.25497E-03 0.00000E+00
 -1       527 1.66658E-03-2.50496E-03-1.05879E-22
 -1       528 1.67983E-03-2.56164E-03-5.29396E-23
 -1       529 1.61189E-03-2.42643E-03 0.00000E+00
 -1       530 1.43783E-03-2.12977E-03-5.29396E-23
 -1       531 1.16736E-03-1.72364E-03 0.00000E+00
 -1       532 8.36437E-04-1.26289E-03-5.29396E-23
 -1       533 5.08896E-04-8.05077E-04 0.00000E+00
 -1       534 2.47608E-04-4.08096E-04 0.00000E+00
 -1       535 8.50927E-05-1.26275E-04-1.05879E-22
 -1       536 1.68827E-04 1.95719E-05 0.00000E+00
 -1       537 1.67643E-04 6.59433E-05 3.30872E-24
 -1       538 1.65844E-04 1.24780E-04 0.00000E+00
 -1       539 1.63739E-04 1.88815E-04-1.65436E-24
 -1       540 1.61843E-04 2.49254E-04 0.00000E+00
 -1       541 1.60595E-04 2.97317E-04 0.00000E+00
 -1       542 1.59995E-04 3.27725E-04 0.00000E+00
 -1       543 1.59812E-04 3.35309E-04 0.00000E+00
 -1       544 1.59558E-04 3.20743E-04 0.00000E+00
 -1       545 1.58786E-04 2.84856E-04-1.65436E-24
 -1       546 1.57410E-04 2.34040E-04 0.00000E+00
 -1       547 1.55586E-04 1.74774E-04-1.65436E-24
 -1       548 1.53789E-04 1.15978E-04-3.30872E-24
 -1       549 1.52482E-04 6.65702E-05 0.00000E+00
 -1       550 1.51781E-04 3.27729E-05 0.00000E+00
 -1       551 1.49748E-04-7.57983E-06 0.00000E+00
 -1       552 1.27370E-04-8.07555E-06-3.30872E-24
 -1       553 1.03051E-04-8.61230E-06 4.05189E-24
 -1       554 7.76668E-05-9.17562E-06-3.30872E-24
 -1       555 5.20909E-05-9.74596E-06-2.64698E-23
 -1       556 1.63564E-04 7.67761E-06 0.00000E+00
 -1       557 1.58955E-04 1.95640E-05 0.00000E+00
 -1       558 1.55389E-04 2.87604E-05 0.00000E+00
 -1       559 1.52759E-04 3.55226E-05 0.00000E+00
 -1       560 1.50962E-04 4.01066E-05 0.00000E+00
 -1       561 1.49894E-04 4.27701E-05 0.00000E+00
 -1       562 1.49454E-04 4.37718E-05 0.00000E+00
 -1       563 1.49541E-04 4.33708E-05 0.00000E+00
 -1       564 1.50057E-04 4.18269E-05 0.00000E+00
 -1       565 1.50902E-04 3.94003E-05 0.00000E+00
 -1       566 1.51979E-04 3.63514E-05 0.00000E+00
 -1       567 1.53191E-04 3.29410E-05 0.00000E+00
 -1       568 1.54440E-04 2.94298E-05-8.27181E-25
 -1       569 1.55629E-04 2.60786E-05 0.00000E+00
 -1       570 1.56662E-04 2.31481E-05 0.00000E+00
 -1       571 1.51650E-04 1.94605E-05-8.27181E-25
 -1       572 1.51738E-04 1.81568E-05 0.00000E+00
 -1       573 1.51826E-04 1.68108E-05 0.00000E+00
 -1       574 1.51915E-04 1.54356E-05 8.27181E-25
 -1       575 1.52003E-04 1.40442E-05 0.00000E+00
 -1       576 1.52092E-04 1.26497E-05 0.00000E+00
 -1       577 1.52180E-04 1.12652E-05-3.30872E-24
 -1       578 1.52269E-04 9.90371E-06 1.65436E-24
 -1       579 1.52358E-04 8.57840E-06 0.00000E+00
 -1       580 1.52446E-04 7.30234E-06 0.00000E+00
 -1       581 1.52535E-04 6.08866E-06 0.00000E+00
 -1       582 1.52624E-04 4.95041E-06 0.00000E+00
 -1       583 1.52713E-04 3.90067E-06 0.00000E+00
 -1       584 1.52802E-04 2.95238E-06 0.00000E+00
 -1       585 1.52891E-04 2.11836E-06 0.00000E+00
 -1       586 1.52494E-04 2.07425E-05 1.65436E-24
 -1       587 1.53392E-04 2.07746E-05-2.06795E-25
 -1       588 1.54298E-04 2.08064E-05-8.27181E-25
 -1       589 1.55249E-04 2.08376E-05 0.00000E+00
 -1       590 1.56285E-04 2.08677E-05 0.00000E+00
 -1       591 1.51981E-04 1.95312E-05-1.03398E-25
 -1       592 1.52402E-04 1.83298E-05 0.00000E+00
 -1       593 1.52830E-04 1.71113E-05-8.27181E-25
 -1       594 1.53261E-04 1.58807E-05-4.13590E-25
 -1       595 1.53696E-04 1.46428E-05 8.27181E-25
 -1       596 1.54131E-04 1.34027E-05-4.13590E-25
 -1       597 1.54565E-04 1.21651E-05 0.00000E+00
 -1       598 1.54996E-04 1.09351E-05 0.00000E+00
 -1       599 1.55423E-04 9.71742E-06-8.27181E-25
 -1       600 1.55843E-04 8.51705E-06-4.13590E-25
 -1       601 1.56255E-04 7.33888E-06 4.13590E-25
 -1       602 1.56657E-04 6.18778E-06 0.00000E+00
 -1       603 1.57047E-04 5.06867E-06 2.06795E-25
 -1       604 1.57424E-04 3.98653E-06-2.58494E-26
 -1       605 1.57785E-04 2.94619E-06 0.00000E+00
 -1       606 1.52993E-04 9.03108E-07-3.30872E-24
 -1       607 1.53003E-04 4.86390E-07 0.00000E+00
 -1       608 1.53013E-04 1.54874E-07 0.00000E+00
 -1       609 1.53022E-04-9.74293E-08 0.00000E+00
 -1       610 1.53031E-04-2.76560E-07 0.00000E+00
 -1       611 1.53039E-04-3.88624E-07 0.00000E+00
 -1       612 1.53048E-04-4.39738E-07 0.00000E+00
 -1       613 1.53057E-04-4.36023E-07 0.00000E+00
 -1       614 1.53066E-04-3.83602E-07 0.00000E+00
 -1       615 1.53075E-04-2.88600E-07 0.00000E+00
 -1       616 1.53083E-04-1.57139E-07 0.00000E+00
 -1       617 1.53092E-04 4.65767E-09-4.13590E-25
 -1       618 1.53101E-04 1.90664E-07 0.00000E+00
 -1       619 1.53109E-04 3.94762E-07 2.06795E-25
 -1       620 1.53118E-04 6.10826E-07 0.00000E+00
 -1       621 1.53643E-04 1.50119E-06 0.00000E+00
 -1       622 1.54415E-04 1.59231E-06 1.65436E-24
 -1       623 1.55272E-04 1.68333E-06-1.65436E-24
 -1       624 1.56192E-04 1.77415E-06 0.00000E+00
 -1       625 1.57153E-04 1.86475E-06 1.65436E-24
 -1       626 1.53270E-04 9.34995E-07 0.00000E+00
 -1       627 1.53535E-04 5.29853E-07 0.00000E+00
 -1       628 1.53777E-04 1.87109E-07 3.30872E-24
 -1       629 1.53999E-04-1.01420E-07 0.00000E+00
 -1       630 1.54203E-04-3.43938E-07 0.00000E+00
 -1       631 1.54393E-04-5.48676E-07 1.65436E-24
 -1       632 1.54573E-04-7.23865E-07 0.00000E+00
 -1       633 1.54744E-04-8.77741E-07 1.65436E-24
 -1       634 1.54910E-04-1.01853E-06 0.00000E+00
 -1       635 1.55075E-04-1.15448E-06 0.00000E+00
 -1       636 1.55240E-04-1.29380E-06 0.00000E+00
 -1       637 1.55410E-04-1.44474E-06-8.27181E-25
 -1       638 1.55588E-04-1.61553E-06-1.65436E-24
 -1       639 1.55775E-04-1.81442E-06 8.27181E-25
 -1       640 1.55976E-04-2.04966E-06 1.65436E-24
 -1       656 1.53129E-04 3.18499E-07-6.61744E-24
 -1       657 1.53533E-04-2.16477E-07 0.00000E+00
 -1       658 1.54198E-04-7.50039E-07-1.32349E-23
 -1       659 1.54979E-04-1.28323E-06 6.61744E-24
 -1       660 1.55702E-04-1.81805E-06 0.00000E+00
 -1       661 1.53129E-04 1.01618E-06-8.27181E-25
 -1       662 1.53164E-04 1.12125E-06 0.00000E+00
 -1       663 1.53228E-04 1.15186E-06-1.65436E-24
 -1       664 1.53317E-04 1.11323E-06 0.00000E+00
 -1       665 1.53431E-04 1.00990E-06-1.65436E-24
 -1       666 1.53568E-04 8.46531E-07-8.27181E-25
 -1       667 1.53726E-04 6.27543E-07 1.65436E-24
 -1       668 1.53902E-04 3.57290E-07 8.27181E-25
 -1       669 1.54097E-04 3.99651E-08 0.00000E+00
 -1       670 1.54307E-04-3.20323E-07-8.27181E-25
 -1       671 1.54532E-04-7.19584E-07 1.65436E-24
 -1       672 1.54770E-04-1.15394E-06-8.27181E-25
 -1       673 1.55020E-04-1.61953E-06 1.65436E-24
 -1       674 1.55279E-04-2.11289E-06 0.00000E+00
 -1       675 1.55547E-04-2.62992E-06-4.13590E-25
 -1       676 1.52947E-04-2.69616E-06 0.00000E+00
 -1       677 1.53523E-04-2.79133E-06-1.65436E-24
 -1       678 1.54099E-04-2.88644E-06 0.00000E+00
 -1       679 1.54673E-04-2.98127E-06-1.65436E-24
 -1       680 1.55247E-04-3.07608E-06 1.65436E-24
 -1       771 1.78604E-05 1.02115E-05 0.00000E+00
 -1       772 9.96644E-06 2.70720E-05 0.00000E+00
 -1       773 3.44234E-06 4.04387E-05 0.00000E+00
 -1       774-1.80478E-06 5.05156E-05 5.29396E-23
 -1       775-5.86622E-06 5.75136E-05 0.00000E+00
 -1       776-8.83696E-06 6.16556E-05 2.64698E-23
 -1       777-1.08122E-05 6.31709E-05 0.00000E+00
 -1       778-1.18893E-05 6.22988E-05 2.64698E-23
 -1       779-1.21654E-05 5.92840E-05-5.29396E-23
 -1       780-1.17393E-05 5.43793E-05 0.00000E+00
 -1       781-1.07095E-05 4.78420E-05 0.00000E+00
 -1       782-9.17586E-06 3.99355E-05 0.00000E+00
 -1       783-7.23776E-06 3.09263E-05 5.29396E-23
 -1       784-4.99561E-06 2.10852E-05 2.64698E-23
 -1       785-2.54932E-06 1.06849E-05 0.00000E+00
 -1       786 1.57483E-04 1.94922E-05 0.00000E+00
 -1       787 1.57526E-04 1.81380E-05-4.13590E-25
 -1       788 1.57568E-04 1.68242E-05 0.00000E+00
 -1       789 1.57611E-04 1.55429E-05 8.27181E-25
 -1       790 1.57654E-04 1.42895E-05 0.00000E+00
 -1       791 1.57697E-04 1.30593E-05 0.00000E+00
 -1       792 1.57741E-04 1.18503E-05-1.65436E-24
 -1       793 1.57784E-04 1.06602E-05 8.27181E-25
 -1       794 1.57827E-04 9.48883E-06 0.00000E+00
 -1       795 1.57871E-04 8.33587E-06 0.00000E+00
 -1       796 1.57914E-04 7.20297E-06 0.00000E+00
 -1       797 1.57958E-04 6.09179E-06 0.00000E+00
 -1       798 1.58001E-04 5.00617E-06-1.65436E-24
 -1       799 1.58045E-04 3.95001E-06 0.00000E+00
 -1       800 1.58089E-04 2.93015E-06 1.65436E-24
 -1       801 1.24895E-04 1.85533E-05-2.64698E-23
 -1       802 2.60022E-05 1.19990E-05-1.32349E-23
 -1       803-6.10843E-05 6.33669E-06 0.00000E+00
 -1       804-5.92034E-05 4.29872E-06 2.64698E-23
 -1       805-2.03949E-05 1.89853E-06 0.00000E+00
 -1       806 1.57866E-04 1.94315E-05 0.00000E+00
 -1       807 1.58275E-04 1.79950E-05 8.27181E-25
 -1       808 1.58672E-04 1.65896E-05 3.30872E-24
 -1       809 1.59055E-04 1.52185E-05 0.00000E+00
 -1       810 1.59424E-04 1.38851E-05-3.30872E-24
 -1       811 1.59778E-04 1.25925E-05 0.00000E+00
 -1       812 1.60115E-04 1.13441E-05 1.65436E-24
 -1       813 1.60435E-04 1.01428E-05-8.27181E-25
 -1       814 1.60735E-04 8.99208E-06-1.65436E-24
 -1       815 1.61016E-04 7.89495E-06-1.65436E-24
 -1       816 1.61275E-04 6.85464E-06 0.00000E+00
 -1       817 1.61512E-04 5.87430E-06 1.65436E-24
 -1       818 1.61726E-04 4.95711E-06 1.65436E-24
 -1       819 1.61915E-04 4.10621E-06-1.65436E-24
 -1       820 1.62078E-04 3.32473E-06 1.65436E-24
 -1       821 1.58018E-04 8.48367E-07 8.27181E-25
 -1       822 1.57896E-04-5.54584E-07-1.65436E-24
 -1       823 1.57774E-04-2.09714E-06 0.00000E+00
 -1       824 1.57651E-04-3.62029E-06 1.65436E-24
 -1       825 1.57528E-04-4.97003E-06-3.30872E-24
 -1       826 1.57405E-04-5.99323E-06 0.00000E+00
 -1       827 1.57282E-04-6.61774E-06 0.00000E+00
 -1       828 1.57160E-04-6.77361E-06-1.65436E-24
 -1       829 1.57038E-04-6.50707E-06 0.00000E+00
 -1       830 1.56915E-04-5.86662E-06-1.65436E-24
 -1       831 1.56792E-04-4.99346E-06-3.30872E-24
 -1       832 1.56670E-04-4.03011E-06 0.00000E+00
 -1       833 1.56547E-04-3.14142E-06 0.00000E+00
 -1       834 1.56427E-04-2.49186E-06-1.65436E-24
 -1       835 1.56305E-04-2.18677E-06 8.27181E-25
 -1       836 1.59002E-04 2.06354E-06 3.30872E-24
 -1       837 1.59756E-04 2.17620E-06-1.65436E-24
 -1       838 1.60424E-04 2.28874E-06 0.00000E+00
 -1       839 1.61036E-04 2.40060E-06-8.27181E-25
 -1       840 1.61623E-04 2.51229E-06-4.13590E-25
 -1       856 1.56172E-04-2.63028E-06 0.00000E+00
 -1       857 1.56149E-04-2.80635E-06 0.00000E+00
 -1       858 1.56126E-04-2.87725E-06 0.00000E+00
 -1       859 1.56103E-04-2.86251E-06-2.06795E-25
 -1       860 1.56079E-04-2.78176E-06-8.27181E-25
 -1       861 1.56056E-04-2.65465E-06 0.00000E+00
 -1       862 1.56032E-04-2.50091E-06 0.00000E+00
 -1       863 1.56009E-04-2.34026E-06 4.13590E-25
 -1       864 1.55985E-04-2.19245E-06 0.00000E+00
 -1       865 1.55962E-04-2.07722E-06 0.00000E+00
 -1       866 1.55938E-04-2.01425E-06 0.00000E+00
 -1       867 1.55915E-04-2.02321E-06-4.13590E-25
 -1       868 1.55891E-04-2.12368E-06 0.00000E+00
 -1       869 1.55867E-04-2.33520E-06 0.00000E+00
 -1       870 1.55843E-04-2.67715E-06 0.00000E+00
 -1       871 1.56749E-04-2.33221E-06 4.13590E-25
 -1       872 1.57438E-04-2.33774E-06 0.00000E+00
 -1       873 1.58200E-04-2.34383E-06 0.00000E+00
 -1       874 1.58975E-04-2.35058E-06-2.58494E-25
 -1       875 1.59703E-04-2.35789E-06 2.06795E-25
 -1       876 1.56420E-04-2.61759E-06-3.30872E-24
 -1       877 1.56627E-04-2.84469E-06 1.65436E-24
 -1       878 1.56816E-04-3.01820E-06 0.00000E+00
 -1       879 1.56986E-04-3.14488E-06 1.65436E-24
 -1       880 1.57142E-04-3.23155E-06-3.30872E-24
 -1       881 1.57285E-04-3.28496E-06-1.65436E-24
 -1       882 1.57419E-04-3.31188E-06 0.00000E+00
 -1       883 1.57545E-04-3.31904E-06 1.65436E-24
 -1       884 1.57666E-04-3.31319E-06-3.30872E-24
 -1       885 1.57785E-04-3.30106E-06 1.65436E-24
 -1       886 1.57904E-04-3.28938E-06 0.00000E+00
 -1       887 1.58026E-04-3.28492E-06 0.00000E+00
 -1       888 1.58152E-04-3.29442E-06 3.30872E-24
 -1       889 1.58286E-04-3.32477E-06 0.00000E+00
 -1       890 1.58429E-04-3.38269E-06 1.65436E-24
 -1       891 1.56411E-04-3.22046E-06-1.65436E-24
 -1       892 1.56983E-04-3.27224E-06 0.00000E+00
 -1       893 1.57509E-04-3.32396E-06 8.27181E-25
 -1       894 1.57966E-04-3.37549E-06 0.00000E+00
 -1       895 1.58331E-04-3.42685E-06-8.27181E-25
 -1       956 1.62100E-04 2.05666E-06 0.00000E+00
 -1       957 1.61982E-04 1.57391E-06-8.27181E-25
 -1       958 1.61863E-04 1.15867E-06 1.65436E-24
 -1       959 1.61745E-04 8.01600E-07 1.65436E-24
 -1       960 1.61626E-04 4.93341E-07-3.30872E-24
 -1       961 1.61508E-04 2.24485E-07 1.65436E-24
 -1       962 1.61389E-04-1.43790E-08 3.30872E-24
 -1       963 1.61271E-04-2.32676E-07 0.00000E+00
 -1       964 1.61152E-04-4.39825E-07 0.00000E+00
 -1       965 1.61033E-04-6.45249E-07 0.00000E+00
 -1       966 1.60915E-04-8.58376E-07 3.30872E-24
 -1       967 1.60796E-04-1.08862E-06 0.00000E+00
 -1       968 1.60678E-04-1.34541E-06 3.30872E-24
 -1       969 1.60559E-04-1.63812E-06-1.65436E-24
 -1       970 1.60441E-04-1.97612E-06 3.30872E-24
 -1       971 1.60217E-04-2.75191E-06-3.30872E-24
 -1       972 1.60108E-04-3.04586E-06 0.00000E+00
 -1       973 1.59998E-04-3.26013E-06 3.30872E-24
 -1       974 1.59889E-04-3.40499E-06 0.00000E+00
 -1       975 1.59779E-04-3.49069E-06 0.00000E+00
 -1       976 1.59669E-04-3.52754E-06 0.00000E+00
 -1       977 1.59560E-04-3.52582E-06 0.00000E+00
 -1       978 1.59450E-04-3.49586E-06 0.00000E+00
 -1       979 1.59340E-04-3.44795E-06 0.00000E+00
 -1       980 1.59231E-04-3.39243E-06-1.65436E-24
 -1       981 1.59121E-04-3.33960E-06-3.30872E-24
 -1       982 1.59011E-04-3.29979E-06 0.00000E+00
 -1       983 1.58902E-04-3.28332E-06 3.30872E-24
 -1       984 1.58793E-04-3.30047E-06 1.65436E-24
 -1       985 1.58684E-04-3.36156E-06 3.30872E-24
 -3
    1PSTEP                        16           8           1          
  100CL  108 6.09375E-01         409                     0    8           1
 -4  STRESS      6    1
 -5  SXX         1    4    1    1
 -5  SYY         1    4    2    2
 -5  SZZ         1    4    3    3
 -5  SXY         1    4    1    2
 -5  SYZ         1    4    2    3
 -5  SZX         1    4    3    1
 -1         1-3.72521E+06-1.43763E+06-8.15162E+05-1.51053E+06 6.54836E-11-4.14730E-08
 -1         2 8.06564E+02-1.73369E+06 2.89041E+03 1.57458E+04 4.28940E-10-3.54580E-08
 -1         3-8.47339E+02-1.50876E+06 3.67458E+02-1.62113E+03-2.72340E-10 3.92538E-09
 -1         5-1.72093E+01 3.37379E+05 8.65615E+00-4.79880E-01-2.40961E-10 1.29730E-08
 -1         8-8.02284E+05-2.74648E+05-7.58867E+04-4.52415E+05 9.18590E-10 3.99268E-08
 -1         9 3.70830E+06-6.98725E+05 6.82264E+05-7.94426E+05 2.81958E-08 9.15257E-08
 -1        10-1.76067E+03-1.57207E+06-3.20856E+03-1.09577E+04-1.08357E-08-4.03048E-08
 -1        12-1.36859E+01 3.37397E+05 2.81289E+02-3.45811E+00-3.04610E-10 5.72982E-10
 -1        15 1.48223E+03 8.14565E+02 4.79128E+03 2.50244E+00-1.11314E-10 1.31183E-07
 -1        16 9.32630E+06-3.93386E+05 1.34352E+06-1.07998E+06 1.27863E-08 1.22469E-07
 -1        17 3.21886E+06 2.11680E+06 8.83550E+05 2.18432E+06 1.05851E-08 1.79338E-08
 -1        18 6.19902E+04 1.18990E+04-1.16857E+04-9.95351E+04 1.10952E-08 1.22782E-10
 -1        19 1.07979E+05 1.24301E+05-8.77208E+02 2.03842E+04 7.71252E-10 2.51639E-09
 -1        20-6.47595E+04-5.08074E+05-1.13463E+05 2.67143E+04 3.36665E-10 1.89229E-08
 -1        21-4.32568E+01-2.72086E+05-8.58190E+02 1.07591E+02 5.82885E-09-2.69729E-08
 -1        24 5.02679E+06 4.51411E+06 1.58549E+06 4.11899E+06-1.16643E-07-4.39468E-08
 -1        25-9.47053E+03-2.23459E+05-2.58069E+04-3.69350E+05-3.34057E-10 9.94587E-09
 -1        26-4.69043E+04 8.03579E+04-2.16689E+04-1.44880E+03 6.34827E-10-6.54296E-09
 -1        27-7.11727E+04-2.75587E+05-1.01774E+05 6.17716E+04 4.62296E-09-2.49838E-09
 -1        28 2.06860E+04-7.74567E+04 1.54935E+04 2.04680E+04-1.01883E-09 2.67999E-09
 -1        32-1.53442E+06-2.69085E+06-1.39260E+05-3.19416E+04-3.36404E-08-8.61883E-09
 -1        33-1.61570E+05 8.06288E+04 2.85268E+04-3.62429E+04-1.79648E-09 7.44270E-09
 -1        34-2.01258E+05-2.14672E+04 5.81287E+02 6.59631E+04-1.73969E-09 4.25689E-09
 -1        35-2.11929E+04-3.07468E+04-1.21898E+03 4.73740E+04-1.57755E-10-8.64990E-09
 -1        51 4.06033E+04-2.52542E+05 8.95618E+04-7.37810E+05 3.49246E-10 5.52100E-08
 -1        52 1.57748E+04-2.39606E+05 4.97395E+04-8.60296E+05 5.16593E-10 2.39888E-08
 -1        53 5.65496E+03-2.54553E+05 3.02717E+04-7.35154E+05 2.72848E-10-9.89530E-10
 -1        54 1.39527E+04-2.51542E+05 3.36941E+04-8.63049E+05 2.91038E-10-8.93815E-08
 -1        55 2.87095E+04-2.62325E+05 5.12819E+04-7.34769E+05 8.36735E-10-4.30591E-08
 -1        56-7.06198E+06-7.95321E+05-6.02297E+05-2.75157E+06-2.22208E-08 9.31323E-09
 -1        57-7.39302E+06-1.25197E+06-4.06194E+05-2.62485E+06-3.33966E-09 7.41056E-09
 -1        58-7.16429E+06-1.00516E+06-1.41528E+05-2.73438E+06-2.37342E-08 1.22578E-07
 -1        59-7.27859E+06-1.00201E+06-8.44029E+04-2.64187E+06 1.94523E-08 1.03016E-07
 -1        60-7.17489E+06-1.03853E+06-3.29198E+04-2.73683E+06-1.70053E-08-9.15643E-08
 -1        61-7.26003E+06-9.68788E+05-1.86644E+04-2.64564E+06 1.09590E-08 6.70807E-08
 -1        62-7.18242E+06-1.03751E+06-8.99077E+03-2.73081E+06-5.95628E-09 5.50881E-09
 -1        63-7.23750E+06-9.83812E+05-7.11807E+03-2.66707E+06 2.49747E-08 3.08554E-08
 -1        64-7.19680E+06-1.02378E+06-8.41140E+03-2.71501E+06-5.20959E-09 4.26490E-08
 -1        65-7.20746E+06-1.01860E+06-1.62232E+04-2.70212E+06 7.52016E-09-5.16224E-09
 -1        66-7.21216E+06-1.00305E+06-2.90014E+04-2.69549E+06 2.93130E-09 3.95794E-08
 -1        67-7.19382E+06-1.07793E+06-7.33511E+04-2.73425E+06-1.43782E-08-3.95303E-08
 -1        68-7.21118E+06-9.64963E+05-1.23176E+05-2.68299E+06 3.25235E-09 1.48793E-08
 -1        69-7.29412E+06-1.29663E+06-3.53572E+05-2.72240E+06-1.61654E-08-5.60940E-08
 -1        70-7.11431E+06-7.89545E+05-5.24018E+05-2.70614E+06 1.05356E-08-4.39468E-08
 -1        86-5.02083E+02-1.74072E+06 1.75848E+03-7.87267E+03-3.48439E-09-5.63466E-08
 -1        87 2.33779E+03-1.73508E+06 5.04993E+03 2.66077E+04-6.35310E-09 1.14527E-07
 -1        88-1.85835E+03-1.73953E+06 7.01527E+03-1.87349E+04-6.46560E-09-4.09091E-09
 -1        89 1.36682E+04-1.73176E+06 1.91436E+04 3.67426E+04-9.65952E-09-5.79064E-08
 -1        90-1.16404E+04-1.74421E+06 2.67908E+04-1.80088E+04-4.89854E-09 6.82464E-08
 -1       121-1.17828E+03-1.51165E+06-1.55351E+02 8.06351E+02 1.09625E-09-2.62771E-08
 -1       122-6.95917E+02-1.50876E+06 7.40080E+02-3.23987E+03-4.13499E-09-1.27602E-08
 -1       123-1.22529E+03-1.51176E+06 6.64718E+02 2.40846E+03 3.21904E-09-1.17980E-08
 -1       124 8.09754E+02-1.50814E+06 2.95992E+03-6.79615E+03-7.43194E-09-1.21872E-10
 -1       125-2.06463E+03-1.51259E+06 3.94846E+03 4.34379E+03 4.97130E-09 1.05829E-08
 -1       191-1.83489E+01 3.37405E+05 9.79236E+00 2.43231E-01-2.82238E-10 2.39270E-08
 -1       192-1.80118E+01 3.37379E+05 1.83541E+01-1.73954E+00-4.01029E-10 1.04028E-08
 -1       193-2.04788E+01 3.37404E+05 3.35940E+01 1.51732E+00-5.30033E-10 5.30508E-09
 -1       194-2.05926E+01 3.37382E+05 6.94866E+01-4.02278E+00-3.06429E-10-3.28509E-09
 -1       195-2.45704E+01 3.37402E+05 1.35376E+02 2.55434E+00-7.68512E-10 2.19270E-08
 -1       251-2.08204E+06-2.07394E+04-1.81039E+05 1.00076E+05-6.18456E-10-1.57306E-08
 -1       252-1.25760E+06 2.29792E+04 3.83689E+04-3.50767E+05-9.47693E-09 4.06144E-08
 -1       253-1.74613E+06-1.13487E+04-3.62625E+04 2.49832E+05-4.82214E-09 5.76283E-08
 -1       254-1.65090E+06 4.66083E+04 5.72254E+03-5.02411E+05 1.40608E-09-8.81291E-08
 -1       255-1.72822E+06-1.18791E+04-1.43350E+04 2.54584E+05 4.71118E-09-3.23826E-08
 -1       256-1.28957E+06 3.96838E+04 8.18705E+04-3.70160E+05-2.51657E-09 2.66321E-08
 -1       257-2.07192E+06-3.35971E+04-8.44880E+04 1.14890E+05-2.33085E-08 3.64277E-08
 -1       258-9.05872E+05 3.05481E+04 1.55069E+05-1.33383E+03-1.84227E-08-6.20730E-10
 -1       259-2.07404E+06-3.37788E+04-8.34434E+04-1.12612E+05 2.24882E-08-3.29123E-10
 -1       260-1.28428E+06 4.06460E+04 8.68794E+04 3.68657E+05-9.02855E-09 7.62338E-09
 -1       261-1.73097E+06-1.30033E+04-7.11388E+03-2.53391E+05-5.59703E-08-2.59632E-08
 -1       262-1.64622E+06 5.52256E+04 2.46791E+04 5.02914E+05 2.51098E-08-8.38367E-08
 -1       263-1.74806E+06-1.87976E+04-5.33153E+03-2.49558E+05-1.82818E-08 6.11708E-08
 -1       264-1.23466E+06 8.11483E+04 1.20652E+05 3.54255E+05-1.06572E-07 1.59382E-07
 -1       265-2.10342E+06-7.09170E+04-6.26595E+04-1.01915E+05-3.48682E-08 1.00124E-07
 -1       266-2.68330E+04-1.25467E+04 6.29597E+04-5.35461E+01 2.11003E-10 3.66788E-08
 -1       267 3.11071E+04 1.46241E+04 4.44981E+04 6.17796E+01-5.91172E-12-1.76058E-07
 -1       268-4.17139E+03-2.07114E+03 1.65398E+04-7.87190E+00-1.35515E-10-5.71985E-08
 -1       269 4.92520E+03 2.47875E+03 1.07505E+04 9.16947E+00 9.97034E-11 5.58847E-08
 -1       270-7.39279E+02-4.07277E+02 5.18944E+03-1.24437E+00-1.00613E-10 2.70832E-08
 -1       271-2.44000E+06-2.98279E+05-1.82327E+05-9.40450E+05-5.93718E-09 4.53292E-09
 -1       272-2.54425E+06-3.93676E+05-1.17394E+05-8.96054E+05 1.19053E-09-6.39429E-08
 -1       273-2.47343E+06-3.44798E+05-4.30373E+04-9.33302E+05-2.73712E-09 6.51380E-09
 -1       274-2.50458E+06-3.36990E+05-2.41440E+04-9.07050E+05 4.48745E-09-2.62735E-08
 -1       275-2.47851E+06-3.49284E+05-1.00327E+04-9.31463E+05 7.58064E-10 2.94813E-08
 -1       276-2.49727E+06-3.32748E+05-5.28550E+03-9.10570E+05-1.63022E-08 1.08559E-07
 -1       277-2.48040E+06-3.48599E+05-2.63242E+03-9.29824E+05 1.13050E-08 4.56134E-08
 -1       278-2.49350E+06-3.35079E+05-1.74081E+03-9.13946E+05-5.57748E-09 3.49473E-10
 -1       279-2.48204E+06-3.47044E+05-1.90097E+03-9.27944E+05 2.97132E-09 1.33928E-08
 -1       280-2.49017E+06-3.38884E+05-3.14570E+03-9.17737E+05 1.04969E-08-1.08340E-07
 -1       281-2.48356E+06-3.44929E+05-5.88539E+03-9.25904E+05-4.39468E-09-7.28166E-08
 -1       282-2.48905E+06-3.46397E+05-1.37403E+04-9.21425E+05 2.54895E-08 5.67738E-08
 -1       283-2.48314E+06-3.39925E+05-2.46462E+04-9.24079E+05-1.35806E-08 4.40468E-09
 -1       284-2.50667E+06-3.83559E+05-6.68203E+04-9.20738E+05 5.55065E-09-1.32572E-08
 -1       285-2.46649E+06-3.11089E+05-1.04025E+05-9.25410E+05-1.14596E-08 8.46230E-08
 -1       301 1.94562E+04-3.44782E+05 1.73021E+05-6.24652E+05 3.49246E-10 8.53106E-09
 -1       302 2.09342E+04-3.01154E+05 1.07672E+05-9.13713E+05-1.58980E-09 1.00201E-07
 -1       303-1.88979E+03-3.28737E+05 7.12175E+04-6.23201E+05 3.92902E-10 1.32588E-07
 -1       304 1.36719E+04-3.02638E+05 8.97011E+04-9.13055E+05-1.01863E-10-6.39848E-08
 -1       305 1.02499E+04-3.35216E+05 1.32701E+05-6.25289E+05 3.20142E-10-7.99773E-08
 -1       306-1.78556E+07-3.25727E+06-4.32292E+06-1.85240E+06-6.52508E-08 3.95812E-09
 -1       307 1.10093E+07-5.64726E+05 2.59293E+06-8.08119E+06-5.80680E-07-1.12050E-07
 -1       308-8.17364E+06 1.07122E+05-4.05669E+05 2.38453E+06-2.89001E-08 2.48419E-07
 -1       309-3.22523E+06 8.15687E+05 8.27086E+05-1.32071E+07 4.84368E-07-5.93554E-08
 -1       310-9.17982E+06-5.52214E+04-6.04186E+05 2.19447E+06-8.49832E-09-1.80080E-09
 -1       311 1.33028E+07-1.25845E+06 3.09355E+06-6.50171E+06 4.68077E-07-3.56886E-08
 -1       312-1.80945E+07-3.23759E+06-3.78778E+06-2.79144E+06 1.41677E-07 1.08150E-07
 -1       313 2.00117E+07 4.42684E+06 5.02787E+06 8.37991E+06-1.20403E-07 1.13039E-07
 -1       314-1.28040E+07-7.79153E+06-3.59155E+06-7.33350E+06 1.25554E-07-3.02680E-09
 -1       315-2.25067E+06 1.24084E+07 2.79924E+06 6.61157E+06-3.09388E-07 1.54541E-08
 -1       316-1.97661E+06-6.26759E+06-3.49805E+05-4.35096E+06-5.17277E-07-3.66796E-07
 -1       317-1.45300E+07 1.20741E+07 8.06986E+05-1.42934E+06 5.94358E-07-3.97737E-07
 -1       318-2.46897E+06-6.54464E+06-6.81631E+05-4.54711E+06-5.97181E-07 2.14204E-08
 -1       319-5.28430E+05 1.27905E+07 2.81412E+06 7.16226E+06-8.25239E-08 7.78673E-08
 -1       320-1.37298E+07-8.09454E+06-4.63618E+06-7.20427E+06 1.30618E-07-3.50410E-08
 -1       336 1.40905E+02-1.63641E+06-1.16908E+04 6.54144E+03-2.04282E-08-8.50559E-09
 -1       337-4.46268E+03-1.63740E+06-1.47915E+04-1.58427E+04-3.75776E-08-1.84518E-08
 -1       338 6.26423E+02-1.63616E+06-2.21514E+04 9.18835E+03-2.60479E-08-7.91988E-09
 -1       339-2.35232E+04-1.65019E+06-5.00044E+04-2.10058E+04-4.72137E-08 1.36479E-08
 -1       340 1.57336E+04-1.62486E+06-7.83518E+04 1.16275E+04-3.08137E-08 4.72573E-09
 -1       406 7.26094E+00 3.37390E+05 5.54757E+02 9.76495E-01-8.74714E-10 2.49111E-09
 -1       407 1.80003E+02 3.37494E+05 1.18025E+03 1.20714E+01-1.96913E-10-1.02732E-08
 -1       408 5.93493E+02 3.37304E+05 2.35644E+03-1.33749E+01-1.10981E-09-7.57609E-09
 -1       409 2.53605E+03 3.38247E+05 5.30609E+03 1.36897E+02-1.94575E-10-7.33598E-09
 -1       410 7.31094E+03 3.36632E+05 1.08316E+04-1.30489E+02-1.42700E-09 1.65710E-09
 -1       521-1.98473E+07-4.07270E+06-5.22998E+06-1.80224E+06-5.83241E-08 9.52277E-08
 -1       522 1.17706E+07-5.10376E+05 2.71877E+06-1.03391E+07-3.45870E-07-7.56700E-08
 -1       523-9.39084E+06-3.89616E+04-4.57113E+05 2.78951E+06-2.54367E-08-1.57252E-07
 -1       524-5.25972E+06 1.98342E+06 9.44048E+05-1.59681E+07 4.76150E-07-2.92475E-07
 -1       525-1.05425E+07-2.84132E+05-6.96616E+05 2.57498E+06 4.02302E-07-2.88361E-07
 -1       526 1.48266E+07-1.42107E+06 3.39045E+06-8.39680E+06 1.77009E-07-5.11645E-08
 -1       527-2.01757E+07-4.16121E+06-4.50693E+06-2.88381E+06 6.08852E-08 1.15586E-07
 -1       528 2.26884E+07 4.90649E+06 5.45625E+06 9.77343E+06 2.24216E-07-3.92756E-08
 -1       529-1.42037E+07-9.30012E+06-4.26666E+06-7.96038E+06 5.79166E-08-8.51578E-08
 -1       530-3.87315E+06 1.51172E+07 3.08119E+06 7.15424E+06-2.10479E-07 3.26894E-07
 -1       531-2.28925E+06-7.44180E+06-3.84749E+05-4.89762E+06-6.86239E-07 1.89524E-07
 -1       532-1.77618E+07 1.44371E+07 9.45122E+05-3.13518E+06 3.13521E-07-3.96380E-07
 -1       533-2.76234E+06-7.71994E+06-7.37073E+05-5.06531E+06-1.11933E-07-6.63305E-07
 -1       534-2.09476E+06 1.55629E+07 3.07251E+06 7.76018E+06-8.98144E-08 4.54951E-07
 -1       535-1.51597E+07-9.68339E+06-5.42196E+06-7.80797E+06 2.60770E-08 2.96161E-07
 -1       536-5.77368E+05-3.84002E+04-3.61635E+03-3.76410E+04-3.48336E-09 5.26197E-08
 -1       537-1.80167E+05 3.87041E+04 6.73504E+04 8.99204E+04-9.16845E-08 6.67205E-08
 -1       538-3.87536E+05 4.71632E+02 8.69298E+03-5.43627E+04 2.48888E-08 6.65536E-08
 -1       539-3.12406E+05 3.11005E+03 1.86129E+04 1.02855E+05 1.12586E-07 8.11118E-08
 -1       540-4.48308E+05-2.04320E+02-1.09500E+04-5.08150E+04 7.37305E-09 7.96464E-08
 -1       541-6.26851E+04 1.02653E+04 6.46580E+04 6.89368E+04-1.13891E-09 6.81515E-08
 -1       542-6.30558E+05-1.22201E+04-5.03198E+04-2.00500E+04 2.67851E-08 3.86457E-08
 -1       543 9.08177E+04 1.64400E+04 9.45149E+04-1.05225E+04-2.15823E-09-1.65132E-08
 -1       544-5.97722E+05-9.74035E+03-4.45926E+04 2.83330E+04-3.76576E-09-3.17700E-08
 -1       545-1.38183E+05 5.12941E+03 4.62854E+04-8.25506E+04 1.09725E-08-5.84023E-08
 -1       546-4.07656E+05 4.10557E+03-7.89127E+03 5.18308E+04 4.22466E-08-5.55574E-08
 -1       547-3.25312E+05-4.52425E+03 3.21460E+03-1.05243E+05-8.98402E-08-8.61404E-08
 -1       548-4.15568E+05 4.02620E+03-1.87698E+04 5.13385E+04-8.72876E-08-9.00259E-08
 -1       549-1.23627E+05 1.15662E+03 2.48161E+04-7.96847E+04-5.29470E-08-4.43874E-08
 -1       550-6.03903E+05-6.07399E+03-9.44087E+04 2.59409E+04 7.58928E-09-2.41325E-08
 -1       551 3.11265E+04-7.30313E+05 7.45576E+03-1.13870E+06-7.87404E-08-2.79397E-09
 -1       552 6.98192E+04-7.59216E+05 2.29756E+04-1.62341E+06-5.52973E-08 2.82598E-08
 -1       553 5.22480E+04-7.60581E+05 4.07006E+04-1.13343E+06-9.21209E-08 1.38534E-08
 -1       554 1.02865E+05-7.66046E+05 9.10642E+04-1.62530E+06-5.81203E-08 8.57835E-09
 -1       555 8.16011E+04-7.81982E+05 1.63197E+05-1.13378E+06-9.57734E-08-3.93629E-09
 -1       556 1.70917E+05-3.02632E+05 5.20446E+04-3.45338E+05-1.79571E-08-1.46392E-08
 -1       557 2.81416E+05-3.91345E+05 2.87627E+04-4.41480E+05-3.49246E-09-2.89219E-10
 -1       558 1.60780E+05-3.03722E+05 9.37599E+03-3.43377E+05-1.01863E-08 8.03993E-09
 -1       559 2.61490E+05-3.96376E+05 5.44479E+03-4.55139E+05 1.83354E-08-8.51287E-09
 -1       560 1.51087E+05-2.97585E+05 9.21181E+02-3.50181E+05 1.72586E-08 9.11314E-09
 -1       561 2.48936E+05-3.91629E+05 9.93279E+02-4.63525E+05 5.31145E-09 9.18590E-09
 -1       562 1.43447E+05-2.92778E+05-3.30942E+02-3.55678E+05 9.03674E-09-2.61207E-09
 -1       563 2.39912E+05-3.87695E+05 2.20128E+02-4.69375E+05 6.41012E-09-1.55574E-08
 -1       564 1.38142E+05-2.89456E+05-2.00726E+02-3.59426E+05 1.16706E-08-8.92624E-09
 -1       565 2.34188E+05-3.85205E+05 9.59411E+01-4.73020E+05 4.50018E-09-4.97403E-09
 -1       566 1.35258E+05-2.87624E+05-9.28705E+01-3.61446E+05-7.02130E-09-1.05756E-08
 -1       567 2.31762E+05-3.84143E+05-2.00763E+02-4.74451E+05 1.56360E-08-4.79849E-09
 -1       568 1.34858E+05-2.87390E+05-7.13672E+02-3.61821E+05 2.77078E-09 4.01633E-09
 -1       569 2.31499E+05-3.84112E+05-1.80105E+03-4.72769E+05-1.90630E-09-3.67436E-10
 -1       570 1.37846E+05-2.90040E+05-4.03094E+03-3.61091E+05 7.94535E-09 1.23664E-08
 -1       571 2.55211E+05 9.29260E+03 1.34926E+04-7.53702E+04 2.98496E-09 1.43909E-08
 -1       572 2.57191E+05 3.37826E+03 6.61152E+03-8.26848E+04 4.00178E-11-4.30555E-09
 -1       573 2.56002E+05 9.49615E+02 2.93754E+03-7.52190E+04 8.94488E-10 2.64527E-09
 -1       574 2.56216E+05 4.62716E+02 1.47259E+03-8.28683E+04 7.13271E-10 7.25959E-09
 -1       575 2.56090E+05 2.29691E+02 6.94786E+02-7.51986E+04-4.93378E-09-2.51930E-09
 -1       576 2.56091E+05 2.23254E+02 3.55173E+02-8.28927E+04-7.80665E-09 8.91760E-09
 -1       577 2.56117E+05 1.82774E+02 1.77017E+02-7.51959E+04-4.62023E-09 8.47649E-09
 -1       578 2.56102E+05 1.98289E+02 1.01229E+02-8.28960E+04-1.55160E-09-2.78487E-09
 -1       579 2.56160E+05 1.62700E+02 6.89893E+01-7.51956E+04 4.07454E-09-3.24599E-09
 -1       580 2.56162E+05 1.69221E+02 7.79314E+01-8.28919E+04-5.89353E-09 2.74849E-09
 -1       581 2.56229E+05 1.29973E+02 1.17884E+02-7.52003E+04 2.79942E-09-3.55976E-09
 -1       582 2.56274E+05 1.57616E+02 2.37102E+02-8.28432E+04 7.71252E-10-3.92902E-09
 -1       583 2.56310E+05 1.88135E+02 4.57696E+02-7.52445E+04 3.80169E-10-4.00405E-09
 -1       584 2.56545E+05 5.56730E+02 1.03252E+03-8.24714E+04 2.07274E-09-5.52677E-09
 -1       585 2.56290E+05 1.44652E+03 2.09490E+03-7.55719E+04 6.91216E-11 5.60976E-09
 -1       586-3.10743E+03 9.32253E+04-3.23185E+03-2.24473E+05-2.27465E-09 8.61405E-09
 -1       587-9.71904E+02 9.28799E+04 3.01501E+02-2.47069E+05-5.54064E-09-8.78117E-10
 -1       588 6.13330E+02 9.28183E+04 3.91907E+03-2.24361E+05-4.04361E-09 8.61291E-09
 -1       589 4.68593E+03 9.48945E+04 1.04987E+04-2.46829E+05-3.60524E-09-2.12276E-08
 -1       590 1.45407E+04 9.16692E+04 2.21541E+04-2.24748E+05-3.82261E-09-1.28166E-08
 -1       591-5.87942E+04-1.36176E+04-1.88107E+04-2.63364E+04-1.56501E-09-1.22636E-08
 -1       592-6.18527E+04-1.69434E+04-1.01892E+04-2.97678E+04 3.68624E-09-1.02835E-08
 -1       593-6.06783E+04-1.22496E+04-4.24140E+03-2.77130E+04-1.50132E-09-1.21911E-08
 -1       594-5.92507E+04-1.41884E+04-2.11534E+03-2.98724E+04-2.80275E-09 1.82793E-08
 -1       595-6.08221E+04-1.22448E+04-9.71380E+02-2.77756E+04 1.82325E-11 1.07578E-08
 -1       596-5.90729E+04-1.40623E+04-4.94021E+02-2.98517E+04 1.31038E-09 2.88520E-09
 -1       597-6.08401E+04-1.22576E+04-2.69455E+02-2.77780E+04-3.26395E-10 9.74876E-09
 -1       598-5.90554E+04-1.40574E+04-2.17433E+02-2.98459E+04-4.13229E-09 4.12456E-09
 -1       599-6.08390E+04-1.22579E+04-2.78766E+02-2.77776E+04 3.29408E-09 4.50086E-09
 -1       600-5.90732E+04-1.40632E+04-5.18676E+02-2.98502E+04 8.94602E-10-1.21875E-08
 -1       601-6.08178E+04-1.22456E+04-1.02365E+03-2.77744E+04 4.37331E-09-3.24690E-09
 -1       602-5.92605E+04-1.41953E+04-2.23116E+03-2.98688E+04-2.69210E-09-4.96698E-09
 -1       603-6.06638E+04-1.22531E+04-4.47451E+03-2.77090E+04-6.18866E-09-1.31695E-09
 -1       604-6.20202E+04-1.70852E+04-1.07487E+04-2.97375E+04 3.79146E-10 1.70912E-08
 -1       605-5.86589E+04-1.37112E+04-1.98437E+04-2.62732E+04 1.23021E-09 4.20005E-09
 -1       606 2.69943E+04-1.24034E+04-2.22616E+04 2.53010E+04 4.25825E-09-5.34783E-09
 -1       607 2.31879E+04-4.03703E+03-1.10858E+04 2.84175E+04 2.05273E-09-1.03212E-08
 -1       608 2.53530E+04-7.15291E+02-4.96337E+03 2.51108E+04-1.58798E-09-1.14824E-08
 -1       609 2.49325E+04-2.28548E+02-2.50714E+03 2.86415E+04 3.66799E-09-1.13005E-09
 -1       610 2.51621E+04-1.56204E+01-1.19670E+03 2.50889E+04 8.32733E-09 4.58499E-09
 -1       611 2.50914E+04-1.01815E+01-6.03353E+02 2.86658E+04 1.59635E-08-2.10503E-09
 -1       612 2.51163E+04-6.30797E-01-2.87376E+02 2.50867E+04 7.35781E-09 1.09230E-09
 -1       613 2.50963E+04-3.75330E+00-1.29224E+02 2.86687E+04 4.32010E-10-6.79552E-09
 -1       614 2.50931E+04-3.65561E+00-3.16678E+01 2.50860E+04 6.91398E-09 9.94100E-09
 -1       615 2.50877E+04-2.14325E-01 5.10672E+01 2.86691E+04 6.14727E-09 8.87212E-09
 -1       616 2.50752E+04 9.03046E-01 1.55945E+02 2.50863E+04 1.02364E-08 7.28051E-10
 -1       617 2.51034E+04 3.48667E+01 3.57016E+02 2.86686E+04 2.28886E-08-1.39653E-09
 -1       618 2.50419E+04 1.05243E+02 7.19999E+02 2.50865E+04 9.30777E-09-1.29921E-09
 -1       619 2.53558E+04 5.92733E+02 1.61712E+03 2.86679E+04-4.00996E-09-8.37281E-09
 -1       620 2.48017E+04 1.81360E+03 3.25041E+03 2.50865E+04-1.10617E-10 9.32050E-09
 -1       621 3.56548E+02 2.61755E+05 3.03339E+03 2.74489E+04 4.69527E-10 9.54697E-09
 -1       622 4.55724E+02 2.62478E+05 2.77650E+03 3.98911E+04 5.99130E-10-1.03319E-08
 -1       623 6.20396E+01 2.61915E+05 3.44911E+03 2.73218E+04 6.44150E-10-1.19589E-08
 -1       624 1.70488E+03 2.63574E+05 6.77667E+03 4.00179E+04 7.53971E-10-3.30970E-08
 -1       625 1.69383E+03 2.60575E+05 1.18859E+04 2.73192E+04 6.34827E-10-1.42816E-08
 -1       626 2.29770E+05 5.71550E+04 4.79571E+03 1.15444E+05 1.19617E-08-9.22228E-09
 -1       627 2.27424E+05 5.86391E+04 2.31100E+03 1.19639E+05 1.50335E-08-1.65999E-08
 -1       628 2.29901E+05 5.49455E+04 9.76943E+02 1.16240E+05 1.12814E-08 8.07859E-10
 -1       629 2.26806E+05 5.80223E+04 4.78208E+02 1.19882E+05 1.89571E-08 4.65647E-10
 -1       630 2.29912E+05 5.48399E+04 2.21399E+02 1.16270E+05 8.32551E-09-1.61597E-08
 -1       631 2.26738E+05 5.80011E+04 1.18616E+02 1.19883E+05 5.60249E-09 9.78204E-09
 -1       632 2.29906E+05 5.48454E+04 7.71265E+01 1.16264E+05 1.32923E-08-1.00601E-08
 -1       633 2.26727E+05 5.80045E+04 8.44862E+01 1.19878E+05 4.96652E-09-9.14906E-09
 -1       634 2.29899E+05 5.48443E+04 1.35251E+02 1.16262E+05 6.83485E-10-2.07770E-08
 -1       635 2.26737E+05 5.80042E+04 2.72940E+02 1.19881E+05-1.62717E-09-3.96894E-08
 -1       636 2.29889E+05 5.48406E+04 5.50799E+02 1.16260E+05-2.05853E-09-2.04313E-08
 -1       637 2.26854E+05 5.80903E+04 1.21063E+03 1.19878E+05-2.19700E-09 8.68317E-09
 -1       638 2.29845E+05 5.51087E+04 2.48747E+03 1.16138E+05 3.46245E-09 2.08138E-09
 -1       639 2.28161E+05 5.99070E+04 5.88509E+03 1.19492E+05 5.92695E-09 0.00000E+00
 -1       640 2.29667E+05 6.05318E+04 1.22126E+04 1.13848E+05 1.13278E-09 1.26188E-08
 -1       656 5.94344E+04-1.51617E+06-1.43475E+05-1.42067E+03 2.18279E-11 5.54317E-09
 -1       657-7.86055E+04-1.58098E+06-1.18811E+05 6.46394E+03-7.27596E-11 1.84144E-08
 -1       658 1.89247E+04-1.53459E+06-7.31125E+04-3.16313E+03 2.60115E-10-1.14584E-09
 -1       659-8.48330E+04-1.58393E+06-1.26993E+05 7.81704E+03-1.05410E-09 2.17030E-09
 -1       660 6.56477E+04-1.51322E+06-1.57543E+05-2.77376E+03-1.20781E-09 5.94858E-09
 -1       661 1.62094E+05 1.72367E+04 1.65067E+04 6.33793E+04 4.86580E-11 1.22418E-08
 -1       662 1.71191E+05 2.96922E+04 1.11238E+04 5.99449E+04 1.20110E-10-9.70715E-09
 -1       663 1.65335E+05 2.25333E+04 3.89070E+03 6.24399E+04-1.99918E-09-4.11706E-09
 -1       664 1.67436E+05 2.34965E+04 2.32699E+03 6.10910E+04-2.70185E-09 1.60296E-09
 -1       665 1.65825E+05 2.32584E+04 9.17984E+02 6.22985E+04-2.72252E-09-2.70015E-09
 -1       666 1.66857E+05 2.26660E+04 5.36665E+02 6.12746E+04 3.36044E-09-1.45535E-09
 -1       667 1.65910E+05 2.33421E+04 2.84499E+02 6.22642E+04-2.15013E-09-3.47505E-09
 -1       668 1.66765E+05 2.26042E+04 2.88577E+02 6.13244E+04 7.29827E-10-1.04866E-08
 -1       669 1.65917E+05 2.33184E+04 3.89634E+02 6.22491E+04-2.00740E-09-8.02171E-09
 -1       670 1.66860E+05 2.28144E+04 8.47437E+02 6.13266E+04-2.45868E-09-1.48834E-08
 -1       671 1.65814E+05 2.31362E+04 1.50435E+03 6.22602E+04-3.45324E-12-7.47718E-09
 -1       672 1.67737E+05 2.42778E+04 3.84859E+03 6.11143E+04 2.15620E-09-8.28749E-09
 -1       673 1.65045E+05 2.18920E+04 6.44952E+03 6.24472E+04 1.75487E-09 4.98721E-09
 -1       674 1.73876E+05 3.46384E+04 1.84442E+04 5.93096E+04-2.92266E-09-9.84596E-09
 -1       675 1.59714E+05 1.30655E+04 2.73776E+04 6.39559E+04-1.46474E-09-9.27503E-09
 -1       676 2.22889E+01-2.72014E+05-1.03434E+03-5.37970E+01 5.58089E-10-7.52683E-09
 -1       677-2.74515E+02-2.72264E+05-1.89301E+03 1.07519E+02 3.82454E-09 6.30852E-09
 -1       678 1.83397E+02-2.71836E+05-3.34636E+03-5.36854E+01 3.10820E-10-1.42956E-09
 -1       679-3.34722E+03-2.74284E+05-7.94946E+03 1.07091E+02 3.27691E-09 7.49247E-09
 -1       680 1.99780E+03-2.69995E+05-1.28118E+04-5.27697E+01-9.54969E-11 1.44750E-09
 -1       771-2.85125E+06-6.36248E+05-1.15584E+05-1.31826E+06-2.83762E-08-2.12167E-08
 -1       772-2.79315E+06-7.07172E+05-6.00199E+04-1.39972E+06-2.06637E-08 1.08266E-08
 -1       773-2.87290E+06-6.19217E+05-2.96789E+04-1.32697E+06-9.08040E-09 1.38825E-08
 -1       774-2.78413E+06-6.94755E+05-1.34363E+04-1.41653E+06 2.53203E-08-1.10595E-09
 -1       775-2.88325E+06-6.11899E+05-9.44109E+03-1.33074E+06-1.21363E-08 7.47968E-09
 -1       776-2.79077E+06-6.93369E+05-3.63115E+03-1.42869E+06-2.06055E-08 4.56930E-09
 -1       777-2.89202E+06-6.05516E+05-3.95573E+03-1.33405E+06 3.52156E-09 8.46558E-09
 -1       778-2.79785E+06-6.92168E+05-1.15362E+03-1.43907E+06 1.19617E-08-1.24055E-09
 -1       779-2.89946E+06-6.00006E+05-1.91097E+03-1.33688E+06-6.47560E-09-1.10122E-08
 -1       780-2.80407E+06-6.91010E+05-3.25857E+02-1.44750E+06-9.92441E-09-3.62525E-09
 -1       781-2.90531E+06-5.95599E+05-7.26112E+02-1.33910E+06-2.54513E-08-1.97542E-09
 -1       782-2.80884E+06-6.90003E+05 2.66308E+02-1.45370E+06-2.59388E-08-4.71573E-10
 -1       783-2.90941E+06-5.92565E+05 4.22993E+02-1.34066E+06-5.21686E-09-1.14464E-08
 -1       784-2.81143E+06-6.88868E+05 1.72353E+03-1.45752E+06-1.49212E-08 8.72660E-10
 -1       785-2.91182E+06-5.90771E+05 3.04413E+03-1.34167E+06-2.85909E-08 5.69889E-09
 -1       786 1.21812E+05-9.24164E+03 2.13804E+04-2.08921E+02 5.04524E-10 4.40741E-09
 -1       787 1.31084E+05 1.06992E+04 1.51259E+04-3.89576E+01 4.99966E-09 1.60496E-08
 -1       788 1.25387E+05-1.44848E+03 5.53191E+03-1.79068E+02 3.02112E-09 1.34887E-08
 -1       789 1.26919E+05 1.67602E+03 3.47322E+03-8.60466E+01 2.38122E-10-5.39194E-09
 -1       790 1.25978E+05-2.25841E+02 1.40731E+03-1.61842E+02-2.63835E-09-4.92281E-09
 -1       791 1.26229E+05 2.60987E+02 8.14917E+02-1.15784E+02-3.40653E-09 4.75234E-09
 -1       792 1.26078E+05-3.45113E+01 3.49486E+02-1.49332E+02-2.55481E-09 2.12653E-09
 -1       793 1.26111E+05 3.79459E+01 1.83365E+02-1.39283E+02-9.38274E-10-1.63257E-09
 -1       794 1.26096E+05-2.94070E+00 6.60043E+01-1.38343E+02 2.75680E-09-9.25741E-09
 -1       795 1.26083E+05-1.05740E+01-5.41830E+00-1.62069E+02-3.97348E-09 7.08199E-09
 -1       796 1.26106E+05 1.39826E+01-6.91432E+01-1.26545E+02 3.35441E-09-6.15839E-09
 -1       797 1.26035E+05-1.07483E+02-2.13495E+02-1.88913E+02 2.55053E-09-7.62979E-09
 -1       798 1.26144E+05 9.38949E+01-3.53263E+02-1.11498E+02 1.19513E-09 8.13576E-09
 -1       799 1.25765E+05-6.93071E+02-9.77593E+02-2.25521E+02 3.72956E-09 9.09040E-10
 -1       800 1.26376E+05 5.99087E+02-1.38508E+03-8.99377E+01 1.51288E-10-4.10046E-09
 -1       801-1.39579E+04-6.79886E+06-8.59936E+05 6.96606E+05 6.71425E-08-3.60596E-08
 -1       802 2.63110E+05 9.76873E+05 9.34050E+05-7.95877E+05 1.85995E-07-2.64163E-08
 -1       803-2.43130E+05-8.58796E+06-9.24473E+05 4.60235E+05 6.03104E-08 2.39652E-08
 -1       804 9.58456E+04-9.35922E+05 6.55930E+05 4.18823E+05-7.40565E-08-6.09289E-08
 -1       805 1.17705E+05-4.89961E+06-1.46717E+05-5.15627E+05-3.06391E-08-4.12242E-08
 -1       806-2.79918E+05-5.31772E+04-2.05785E+04-1.10006E+05 5.81167E-10-5.62977E-10
 -1       807-2.81706E+05-4.98619E+04-1.01333E+04-1.14823E+05 2.27237E-09 6.51809E-09
 -1       808-2.80516E+05-4.59446E+04-4.29985E+03-1.13466E+05 4.46880E-09-2.39140E-09
 -1       809-2.79571E+05-4.70480E+04-2.10353E+03-1.15048E+05 4.18731E-09-9.97261E-10
 -1       810-2.80604E+05-4.57015E+04-9.64614E+02-1.13617E+05 3.77440E-10 3.99018E-09
 -1       811-2.79409E+05-4.69364E+04-4.79782E+02-1.15015E+05 2.47928E-09 1.68836E-09
 -1       812-2.80617E+05-4.57237E+04-2.42754E+02-1.13617E+05-2.50657E-09-5.75665E-09
 -1       813-2.79387E+05-4.69378E+04-1.58049E+02-1.15000E+05 3.95175E-10-3.36240E-09
 -1       814-2.80612E+05-4.57316E+04-1.56926E+02-1.13614E+05-1.84446E-09-4.31783E-09
 -1       815-2.79392E+05-4.69393E+04-2.53386E+02-1.14994E+05-7.19092E-09 2.73803E-09
 -1       816-2.80595E+05-4.57295E+04-4.80388E+02-1.13611E+05 3.02589E-09-3.09183E-09
 -1       817-2.79474E+05-4.69833E+04-1.03101E+03-1.14986E+05-2.10412E-09 3.45358E-09
 -1       818-2.80534E+05-4.58655E+04-2.10178E+03-1.13546E+05 3.81988E-11 3.62888E-10
 -1       819-2.80626E+05-4.82387E+04-4.94495E+03-1.14731E+05 4.67526E-09-1.61640E-09
 -1       820-2.80126E+05-4.95006E+04-1.00413E+04-1.11975E+05 7.72161E-10-4.79190E-09
 -1       821-3.41551E+05 1.88001E+04-4.34987E+04 8.85721E+02 6.47350E-09 9.60972E-09
 -1       822-3.60324E+05-2.17647E+04-3.07683E+04-1.69720E+03 5.00757E-10 1.01572E-08
 -1       823-3.48777E+05 2.94913E+03-1.12626E+04 1.11041E+03-4.20834E-09-4.03861E-09
 -1       824-3.51844E+05-3.41069E+03-7.08114E+03-1.63758E+03 5.86958E-10 4.06533E-09
 -1       825-3.50028E+05 4.59923E+02-2.92160E+03 8.26110E+02 5.85318E-09 1.18691E-08
 -1       826-3.50337E+05-5.39248E+02-1.73244E+03-7.03557E+02 6.96537E-09 1.68211E-09
 -1       827-3.50280E+05 7.74045E+01-9.32139E+02 1.76367E+02 3.23577E-09-1.27752E-08
 -1       828-3.50125E+05-1.62430E+02-7.78554E+02 6.34561E+02-2.10059E-09 3.72631E-09
 -1       829-3.50240E+05 8.30026E+01-9.46172E+02-5.12030E+02 6.77211E-10 1.86627E-08
 -1       830-3.50437E+05-5.66045E+02-1.81501E+03 1.70210E+03 1.13823E-09 1.67481E-08
 -1       831-3.49970E+05 4.83014E+02-3.02696E+03-8.91193E+02-2.26265E-09-1.22157E-09
 -1       832-3.51932E+05-3.55302E+03-7.37354E+03 1.95966E+03-1.78795E-09 1.39867E-08
 -1       833-3.48747E+05 3.06871E+03-1.17284E+04-7.69588E+02-2.47734E-09 2.33922E-09
 -1       834-3.60652E+05-2.26521E+04-3.20094E+04 1.26624E+03-1.66668E-09-3.07000E-09
 -1       835-3.41251E+05 1.95655E+04-4.52893E+04-1.97762E+02 4.94293E-09 5.56611E-09
 -1       836-1.20261E+03 3.23316E+05 1.98477E+04-1.58031E+04-3.60797E-09 1.00667E-08
 -1       837 4.27520E+03 3.29513E+05 1.69016E+04-3.19930E+04-3.90719E-09 1.06477E-08
 -1       838-4.70433E+02 3.25040E+05 1.73706E+04-1.57359E+04-2.94631E-09 1.10583E-08
 -1       839 1.10354E+04 3.34550E+05 3.30076E+04-3.20397E+04-2.60707E-09 7.90965E-09
 -1       840-3.38119E+03 3.18230E+05 5.26995E+04-1.57584E+04-2.86309E-09 3.04593E-09
 -1       856-6.34605E+04 7.76483E+03-2.04623E+04-4.03315E+02 1.18808E-09 8.08723E-09
 -1       857-7.19005E+04-9.11587E+03-1.40867E+04 5.16895E+03 2.08263E-09 5.08226E-09
 -1       858-6.67993E+04 1.08851E+03-5.30984E+03-4.26083E+02 4.04896E-10 1.54944E-08
 -1       859-6.80679E+04-1.27350E+03-3.20516E+03 5.20384E+03-1.29693E-09 7.62861E-09
 -1       860-6.72983E+04 1.51972E+02-1.34474E+03-4.38114E+02 5.01899E-10 1.48253E-08
 -1       861-6.74936E+04-1.74842E+02-7.42859E+02 5.22028E+03-1.56622E-09 1.08445E-08
 -1       862-6.73762E+04 2.03182E+01-3.14985E+02-4.42530E+02 1.15234E-09-1.78369E-09
 -1       863-6.73992E+04-1.59330E+01-1.28792E+02 5.22262E+03 1.44097E-09-8.84476E-10
 -1       864-6.73931E+04-3.37416E+00 1.40469E+01-4.40455E+02-5.10141E-10-4.63049E-09
 -1       865-6.73541E+04 4.87749E+01 1.76583E+02 5.21141E+03 2.60469E-09-1.00710E-08
 -1       866-6.74194E+04-4.45659E+01 3.72102E+02-4.31321E+02-1.43586E-09-6.95607E-09
 -1       867-6.71747E+04 3.69746E+02 9.26345E+02 5.18656E+03 2.12935E-09-4.11922E-09
 -1       868-6.75682E+04-3.19015E+02 1.54180E+03-4.15599E+02-2.11418E-09-7.40783E-10
 -1       869-6.60413E+04 2.65489E+03 4.10918E+03 5.14520E+03-1.67597E-09-1.95217E-08
 -1       870-6.85462E+04-2.26832E+03 5.96278E+03-3.89931E+02-2.64970E-09-4.79167E-09
 -1       871-5.02272E+03-1.55122E+04-1.70967E+04 1.14187E+05-1.89357E-09 5.12046E-09
 -1       872-1.97204E+03-1.94280E+04-7.09162E+03 1.48050E+05-4.70936E-09 6.39739E-09
 -1       873 1.81525E+02-1.75636E+04 6.86185E+02 1.13936E+05-2.25100E-09-1.54330E-09
 -1       874 2.76500E+03-1.53097E+04 8.97337E+03 1.48086E+05-5.15320E-09 9.40599E-09
 -1       875 6.05275E+03-1.96986E+04 2.01118E+04 1.14146E+05-2.37924E-09 2.08365E-09
 -1       876 2.64811E+05 4.49290E+04 1.37325E+04 1.06622E+05-1.27682E-09-2.72939E-09
 -1       877 2.65690E+05 4.78493E+04 7.33363E+03 1.10586E+05-8.61291E-10-1.36174E-09
 -1       878 2.66094E+05 4.34088E+04 3.07245E+03 1.07749E+05-2.14141E-09 1.14574E-09
 -1       879 2.63823E+05 4.59869E+04 1.53080E+03 1.10680E+05-9.62245E-10 3.78566E-09
 -1       880 2.66186E+05 4.33928E+04 7.12976E+02 1.07795E+05 1.37493E-09 1.08945E-08
 -1       881 2.63699E+05 4.59074E+04 3.80548E+02 1.10659E+05 1.58457E-09-9.76750E-09
 -1       882 2.66195E+05 4.34045E+04 2.43147E+02 1.07796E+05 3.26190E-09 1.29117E-08
 -1       883 2.63690E+05 4.59034E+04 2.60883E+02 1.10653E+05-3.39037E-09 1.13556E-08
 -1       884 2.66189E+05 4.34018E+04 4.14549E+02 1.07796E+05-2.34900E-09-8.63531E-09
 -1       885 2.63723E+05 4.59092E+04 8.33193E+02 1.10663E+05-3.75690E-09 4.81441E-09
 -1       886 2.66157E+05 4.33775E+04 1.67914E+03 1.07793E+05-3.12713E-09 9.60654E-10
 -1       887 2.64019E+05 4.61027E+04 3.66782E+03 1.10706E+05 7.49623E-10-1.98539E-08
 -1       888 2.65925E+05 4.34183E+04 7.39078E+03 1.07676E+05 1.90454E-10 8.56835E-09
 -1       889 2.68420E+05 5.06776E+04 1.76555E+04 1.10569E+05 3.13719E-10 1.54796E-08
 -1       890 2.62912E+05 4.69983E+04 3.30680E+04 1.04859E+05 1.36288E-09 3.36877E-09
 -1       891-1.14677E+02-1.47835E+05-1.79564E+03 2.57244E+04-6.80757E-10 9.64451E-09
 -1       892-2.10168E+02-1.48291E+05-1.93430E+03 3.90026E+04 1.12595E-09-5.44242E-09
 -1       893 4.89072E+00-1.47892E+05-2.74467E+03 2.57307E+04-5.95492E-10 3.78532E-09
 -1       894-1.41885E+03-1.49332E+05-5.68477E+03 3.88604E+04 1.12914E-09-4.47835E-09
 -1       895-1.11963E+03-1.46708E+05-1.00125E+04 2.58666E+04-1.39039E-10 9.21318E-10
 -1       956-3.37982E+05-4.75416E+03-1.18483E+04 2.52138E+04-7.57336E-09-4.79167E-09
 -1       957-3.40314E+05-1.64142E+03-6.08197E+03 3.03342E+04-1.28462E-08-9.29049E-10
 -1       958-3.39041E+05-1.69922E+02-2.74042E+03 2.50705E+04-3.40788E-09 2.52135E-09
 -1       959-3.39220E+05-7.14826E+01-1.39960E+03 3.04963E+04 2.64163E-09 1.49505E-08
 -1       960-3.39140E+05-3.22797E-01-6.82536E+02 2.50562E+04 1.18507E-09 8.98945E-09
 -1       961-3.39145E+05-9.70039E+00-3.62307E+02 3.05129E+04 4.78190E-09 2.24190E-10
 -1       962-3.39162E+05-3.21361E+00-2.07964E+02 2.50539E+04 4.85556E-09-7.65272E-09
 -1       963-3.39143E+05-7.17617E+00-1.67961E+02 3.05158E+04 3.47654E-09-6.13045E-09
 -1       964-3.39166E+05-6.54443E-01-2.05340E+02 2.50532E+04-1.51064E-09-6.38306E-09
 -1       965-3.39154E+05-4.30228E+00-3.56052E+02 3.05153E+04-5.95855E-09-7.94216E-10
 -1       966-3.39152E+05 7.30986E+00-6.69322E+02 2.50544E+04 1.39516E-09 2.17165E-09
 -1       967-3.39238E+05-5.96486E+01-1.37309E+03 3.05039E+04-6.36646E-12 5.73596E-09
 -1       968-3.39063E+05-1.54090E+02-2.68777E+03 2.50646E+04-3.84489E-09 8.96102E-09
 -1       969-3.40320E+05-1.59550E+03-5.96722E+03 3.03841E+04-4.09273E-11-7.11404E-09
 -1       970-3.38031E+05-4.64866E+03-1.16238E+04 2.51711E+04-2.63753E-11 3.43516E-09
 -1       971-3.12760E+05-1.59191E+03-8.69229E+03 1.43210E+04 2.89674E-09-6.37947E-09
 -1       972-3.14862E+05-1.15883E+03-4.73374E+03 1.98948E+04 8.23547E-10-1.50264E-08
 -1       973-3.13728E+05-3.74430E+01-2.12007E+03 1.42050E+04 1.58252E-10-5.91626E-10
 -1       974-3.13863E+05-4.73505E+01-1.09871E+03 2.00235E+04-2.59251E-09 1.16870E-08
 -1       975-3.13804E+05 4.07045E+00-5.49006E+02 1.41937E+04 5.48880E-10 2.34934E-09
 -1       976-3.13805E+05-1.12567E+00-3.16368E+02 2.00377E+04 3.71074E-09 1.18002E-08
 -1       977-3.13819E+05 4.46711E+00-2.28961E+02 1.41908E+04-8.20137E-10-2.78396E-09
 -1       978-3.13810E+05 4.45011E+00-2.67038E+02 2.00419E+04-2.29011E-09-5.23721E-09
 -1       979-3.13819E+05 1.20334E+01-4.28277E+02 1.41895E+04 6.79677E-10 8.87212E-09
 -1       980-3.13841E+05 7.19663E+00-8.26466E+02 2.00427E+04-8.50804E-11 8.46512E-09
 -1       981-3.13793E+05 3.26706E+01-1.60042E+03 1.41900E+04 1.04819E-09 2.26743E-09
 -1       982-3.14061E+05-1.11014E+02-3.30789E+03 2.00366E+04 5.64796E-10 6.18386E-09
 -1       983-3.13591E+05-6.97514E+01-6.42717E+03 1.41958E+04-5.43082E-09 3.18346E-09
 -1       984-3.17152E+05-3.46763E+03-1.43932E+04 1.99562E+04-9.32982E-09 9.28412E-09
 -1       985-3.10681E+05-4.77275E+03-2.64304E+04 1.42687E+04-4.96902E-09 5.35329E-09
 -3
    1PSTEP                        17           9           1          
  100CL  109 6.44531E-01         409                     0    9           1
 -4  DISP        4    1
 -5  D1          1    2    1    0
 -5  D2          1    2    2    0
 -5  D3          1    2    3    0
 -5  ALL         1    2    0    0    1ALL
 -1         1 2.12514E-03 0.00000E+00 0.00000E+00
 -1         2 1.84192E-03 2.43758E-26 0.00000E+00
 -1         3 3.16020E-04-1.96654E-27 0.00000E+00
 -1         5 1.67200E-04-1.06302E-26-2.06795E-24
 -1         8 2.10826E-03-5.15370E-07 0.00000E+00
 -1         9 2.06653E-03-1.07426E-05 0.00000E+00
 -1        10 2.86769E-04-3.50896E-06 6.61744E-24
 -1        12 1.68668E-04 7.72745E-07-5.68687E-25
 -1        15 2.08795E-03-5.63570E-07 2.06795E-25
 -1        16 2.09731E-03-1.19354E-05 0.00000E+00
 -1        17 1.96085E-04-7.86583E-06 0.00000E+00
 -1        18 1.71538E-04 2.91676E-05 0.00000E+00
 -1        19 1.73070E-04 1.54010E-06 0.00000E+00
 -1        20 1.73213E-04-5.68170E-06 0.00000E+00
 -1        21 1.72372E-04-1.64995E-05 3.30872E-24
 -1        24 2.95076E-05-1.17348E-05 0.00000E+00
 -1        25 1.80440E-04 2.93788E-05 0.00000E+00
 -1        26 1.81124E-04 2.13272E-06 0.00000E+00
 -1        27 1.79009E-04-9.09669E-06 0.00000E+00
 -1        28 1.78672E-04-1.71024E-05 0.00000E+00
 -1        32 0.00000E+00 0.00000E+00 0.00000E+00
 -1        33 1.88131E-04 2.85358E-06 0.00000E+00
 -1        34 1.86094E-04-9.14538E-06 0.00000E+00
 -1        35 1.84229E-04-1.74322E-05 0.00000E+00
 -1        51 2.12405E-03-9.81697E-08 0.00000E+00
 -1        52 2.12203E-03-1.81345E-07 0.00000E+00
 -1        53 2.11925E-03-2.62439E-07 0.00000E+00
 -1        54 2.11590E-03-3.43602E-07 0.00000E+00
 -1        55 2.11218E-03-4.26402E-07-2.06795E-24
 -1        56 2.12117E-03 5.92756E-07-5.29396E-23
 -1        57 2.11575E-03 4.64691E-06 5.29396E-23
 -1        58 2.10926E-03 1.15228E-05 1.05879E-22
 -1        59 2.10201E-03 2.02955E-05-5.29396E-23
 -1        60 2.09449E-03 2.97607E-05 0.00000E+00
 -1        61 2.08720E-03 3.86507E-05 0.00000E+00
 -1        62 2.08057E-03 4.57903E-05 0.00000E+00
 -1        63 2.07502E-03 5.01397E-05 5.29396E-23
 -1        64 2.07074E-03 5.11006E-05 0.00000E+00
 -1        65 2.06787E-03 4.83416E-05 5.29396E-23
 -1        66 2.06628E-03 4.21225E-05 0.00000E+00
 -1        67 2.06577E-03 3.29792E-05 5.29396E-23
 -1        68 2.06597E-03 2.19137E-05 0.00000E+00
 -1        69 2.06646E-03 1.00894E-05 0.00000E+00
 -1        70 2.06676E-03-1.22261E-06-5.29396E-23
 -1        86 1.85520E-03-1.09381E-06 2.64698E-23
 -1        87 1.89449E-03-2.84500E-06 0.00000E+00
 -1        88 1.94794E-03-5.19456E-06 0.00000E+00
 -1        89 2.00315E-03-7.63538E-06-1.32349E-23
 -1        90 2.04693E-03-9.55927E-06 0.00000E+00
 -1       121 3.15198E-04-5.69924E-07-1.32349E-23
 -1       122 3.12736E-04-1.14244E-06 0.00000E+00
 -1       123 3.08644E-04-1.72010E-06 0.00000E+00
 -1       124 3.02936E-04-2.30546E-06 6.61744E-24
 -1       125 2.95634E-04-2.90071E-06 0.00000E+00
 -1       191 1.67241E-04 1.28833E-07-1.65436E-24
 -1       192 1.67363E-04 2.57658E-07-1.13737E-24
 -1       193 1.67567E-04 3.86470E-07 1.55096E-24
 -1       194 1.67852E-04 5.15262E-07 1.49926E-24
 -1       195 1.68219E-04 6.44023E-07-2.89513E-24
 -1       251 2.10752E-03-1.48888E-05 1.32349E-23
 -1       252 2.10569E-03-6.43576E-05-6.61744E-24
 -1       253 2.10238E-03-1.39312E-04 0.00000E+00
 -1       254 2.09786E-03-2.29502E-04-6.61744E-24
 -1       255 2.09329E-03-3.20186E-04-1.32349E-23
 -1       256 2.08987E-03-3.96616E-04 6.61744E-24
 -1       257 2.08793E-03-4.48251E-04-1.32349E-23
 -1       258 2.08714E-03-4.65166E-04 0.00000E+00
 -1       259 2.08633E-03-4.47081E-04 0.00000E+00
 -1       260 2.08435E-03-3.94658E-04 0.00000E+00
 -1       261 2.08093E-03-3.18114E-04 1.32349E-23
 -1       262 2.07643E-03-2.28263E-04 6.61744E-24
 -1       263 2.07206E-03-1.39854E-04 0.00000E+00
 -1       264 2.06894E-03-6.76079E-05 1.32349E-23
 -1       265 2.06726E-03-2.14700E-05 0.00000E+00
 -1       266 2.10488E-03-5.31001E-07-3.30872E-24
 -1       267 2.10149E-03-5.38108E-07-8.27181E-25
 -1       268 2.09811E-03-5.45755E-07 0.00000E+00
 -1       269 2.09472E-03-5.51803E-07-2.06795E-25
 -1       270 2.09134E-03-5.57814E-07 2.06795E-25
 -1       271 2.10614E-03 2.68644E-06 0.00000E+00
 -1       272 2.10395E-03 5.99720E-06 0.00000E+00
 -1       273 2.10177E-03 9.27751E-06 2.64698E-23
 -1       274 2.09966E-03 1.23759E-05-1.32349E-23
 -1       275 2.09766E-03 1.51461E-05 0.00000E+00
 -1       276 2.09585E-03 1.74440E-05 0.00000E+00
 -1       277 2.09427E-03 1.91305E-05 0.00000E+00
 -1       278 2.09297E-03 2.00728E-05 0.00000E+00
 -1       279 2.09199E-03 2.01463E-05 0.00000E+00
 -1       280 2.09138E-03 1.92352E-05 0.00000E+00
 -1       281 2.09118E-03 1.72343E-05-2.64698E-23
 -1       282 2.09143E-03 1.40498E-05 0.00000E+00
 -1       283 2.09214E-03 9.60050E-06 0.00000E+00
 -1       284 2.09334E-03 3.81939E-06 0.00000E+00
 -1       285 2.09506E-03-3.34819E-06 0.00000E+00
 -1       301 2.07209E-03-1.09651E-05-1.32349E-23
 -1       302 2.07652E-03-1.11545E-05 3.30872E-24
 -1       303 2.08055E-03-1.13397E-05 1.32349E-23
 -1       304 2.08488E-03-1.15251E-05 0.00000E+00
 -1       305 2.09024E-03-1.17170E-05 0.00000E+00
 -1       306 2.10007E-03-1.41999E-04 1.05879E-22
 -1       307 2.16464E-03-5.05698E-04 5.29396E-23
 -1       308 2.22243E-03-1.04406E-03 0.00000E+00
 -1       309 2.26401E-03-1.67505E-03 0.00000E+00
 -1       310 2.30890E-03-2.28837E-03 0.00000E+00
 -1       311 2.37186E-03-2.77536E-03 0.00000E+00
 -1       312 2.43144E-03-3.06314E-03 0.00000E+00
 -1       313 2.44100E-03-3.11052E-03 5.29396E-23
 -1       314 2.34242E-03-2.92312E-03 1.05879E-22
 -1       315 2.09945E-03-2.54815E-03 5.29396E-23
 -1       316 1.72425E-03-2.05204E-03 0.00000E+00
 -1       317 1.26715E-03-1.49962E-03 0.00000E+00
 -1       318 8.20451E-04-9.54085E-04 0.00000E+00
 -1       319 4.73413E-04-4.80323E-04 1.05879E-22
 -1       320 2.65376E-04-1.43766E-04 0.00000E+00
 -1       336 2.76168E-04-4.17849E-06 0.00000E+00
 -1       337 2.63674E-04-4.86960E-06 0.00000E+00
 -1       338 2.49345E-04-5.58391E-06 0.00000E+00
 -1       339 2.33251E-04-6.32182E-06 6.61744E-24
 -1       340 2.15468E-04-7.08728E-06 0.00000E+00
 -1       406 1.69198E-04 9.01414E-07 2.58494E-24
 -1       407 1.69809E-04 1.03000E-06-1.18907E-24
 -1       408 1.70502E-04 1.15845E-06 2.06795E-24
 -1       409 1.71277E-04 1.28661E-06 1.24077E-24
 -1       410 1.72133E-04 1.41422E-06 2.48154E-24
 -1       521 2.13171E-03-1.52015E-04 1.05879E-22
 -1       522 2.19552E-03-5.34732E-04 0.00000E+00
 -1       523 2.24883E-03-1.09942E-03 0.00000E+00
 -1       524 2.28339E-03-1.75807E-03-5.29396E-23
 -1       525 2.32201E-03-2.39740E-03 0.00000E+00
 -1       526 2.38213E-03-2.90600E-03 5.29396E-23
 -1       527 2.44152E-03-3.20531E-03 1.05879E-22
 -1       528 2.44978E-03-3.25297E-03-5.29396E-23
 -1       529 2.34255E-03-3.05408E-03 2.11758E-22
 -1       530 2.08111E-03-2.66187E-03 0.00000E+00
 -1       531 1.67775E-03-2.14608E-03 0.00000E+00
 -1       532 1.18774E-03-1.57465E-03 0.00000E+00
 -1       533 7.08217E-04-1.00968E-03 1.05879E-22
 -1       534 3.33204E-04-5.15036E-04 5.29396E-23
 -1       535 1.07081E-04-1.59973E-04 0.00000E+00
 -1       536 1.95428E-04 2.41257E-05 0.00000E+00
 -1       537 1.93787E-04 7.96664E-05 0.00000E+00
 -1       538 1.91260E-04 1.50196E-04 0.00000E+00
 -1       539 1.88283E-04 2.27075E-04-1.65436E-24
 -1       540 1.85602E-04 2.99725E-04 3.30872E-24
 -1       541 1.83851E-04 3.57584E-04 0.00000E+00
 -1       542 1.83034E-04 3.94383E-04 3.30872E-24
 -1       543 1.82825E-04 4.03989E-04 1.65436E-24
 -1       544 1.82527E-04 3.87139E-04 0.00000E+00
 -1       545 1.81502E-04 3.44768E-04-1.65436E-24
 -1       546 1.79615E-04 2.84420E-04 3.30872E-24
 -1       547 1.77076E-04 2.13752E-04 1.65436E-24
 -1       548 1.74565E-04 1.43496E-04 3.30872E-24
 -1       549 1.72749E-04 8.43846E-05 0.00000E+00
 -1       550 1.71799E-04 4.38399E-05-1.65436E-24
 -1       551 1.72951E-04-8.39468E-06 0.00000E+00
 -1       552 1.46736E-04-8.99259E-06 0.00000E+00
 -1       553 1.18353E-04-9.64439E-06-6.61744E-24
 -1       554 8.87347E-05-1.03314E-05 0.00000E+00
 -1       555 5.88109E-05-1.10293E-05 2.64698E-23
 -1       556 1.89133E-04 9.94432E-06 0.00000E+00
 -1       557 1.83533E-04 2.43435E-05-2.64698E-23
 -1       558 1.79159E-04 3.56004E-05 0.00000E+00
 -1       559 1.75889E-04 4.40056E-05 0.00000E+00
 -1       560 1.73602E-04 4.98494E-05 0.00000E+00
 -1       561 1.72178E-04 5.34248E-05 0.00000E+00
 -1       562 1.71503E-04 5.50256E-05 0.00000E+00
 -1       563 1.71460E-04 5.49466E-05 1.32349E-23
 -1       564 1.71936E-04 5.34832E-05 0.00000E+00
 -1       565 1.72818E-04 5.09314E-05 0.00000E+00
 -1       566 1.73996E-04 4.75878E-05 6.61744E-24
 -1       567 1.75358E-04 4.37492E-05 0.00000E+00
 -1       568 1.76793E-04 3.97125E-05 1.65436E-24
 -1       569 1.78192E-04 3.57747E-05 0.00000E+00
 -1       570 1.79443E-04 3.22326E-05 0.00000E+00
 -1       571 1.71631E-04 2.73758E-05 8.27181E-25
 -1       572 1.71726E-04 2.55225E-05 0.00000E+00
 -1       573 1.71822E-04 2.36220E-05 1.65436E-24
 -1       574 1.71917E-04 2.16895E-05 0.00000E+00
 -1       575 1.72013E-04 1.97402E-05 0.00000E+00
 -1       576 1.72109E-04 1.77892E-05-3.30872E-24
 -1       577 1.72204E-04 1.58518E-05 3.30872E-24
 -1       578 1.72300E-04 1.39433E-05 0.00000E+00
 -1       579 1.72396E-04 1.20789E-05 0.00000E+00
 -1       580 1.72492E-04 1.02738E-05 0.00000E+00
 -1       581 1.72588E-04 8.54341E-06 0.00000E+00
 -1       582 1.72684E-04 6.90283E-06 0.00000E+00
 -1       583 1.72781E-04 5.36733E-06 0.00000E+00
 -1       584 1.72877E-04 3.95197E-06 0.00000E+00
 -1       585 1.72974E-04 2.67167E-06 0.00000E+00
 -1       586 1.72977E-04 2.92048E-05 1.65436E-24
 -1       587 1.74378E-04 2.92415E-05-4.13590E-25
 -1       588 1.75784E-04 2.92778E-05 8.27181E-25
 -1       589 1.77235E-04 2.93135E-05 0.00000E+00
 -1       590 1.78773E-04 2.93480E-05 0.00000E+00
 -1       591 1.72148E-04 2.74609E-05 0.00000E+00
 -1       592 1.72761E-04 2.57332E-05 0.00000E+00
 -1       593 1.73380E-04 2.39903E-05 8.27181E-25
 -1       594 1.74002E-04 2.22370E-05 0.00000E+00
 -1       595 1.74626E-04 2.04781E-05-8.27181E-25
 -1       596 1.75251E-04 1.87184E-05-4.13590E-25
 -1       597 1.75874E-04 1.69627E-05-8.27181E-25
 -1       598 1.76493E-04 1.52158E-05 0.00000E+00
 -1       599 1.77108E-04 1.34825E-05 0.00000E+00
 -1       600 1.77715E-04 1.17676E-05 0.00000E+00
 -1       601 1.78314E-04 1.00758E-05 0.00000E+00
 -1       602 1.78903E-04 8.41187E-06 4.13590E-25
 -1       603 1.79480E-04 6.78070E-06-4.13590E-25
 -1       604 1.80043E-04 5.18712E-06-1.93870E-25
 -1       605 1.80590E-04 3.63583E-06 0.00000E+00
 -1       606 1.73083E-04 6.30204E-07 0.00000E+00
 -1       607 1.73093E-04-1.91581E-07 0.00000E+00
 -1       608 1.73103E-04-9.30431E-07 0.00000E+00
 -1       609 1.73111E-04-1.59217E-06 0.00000E+00
 -1       610 1.73120E-04-2.18270E-06 0.00000E+00
 -1       611 1.73128E-04-2.70795E-06 0.00000E+00
 -1       612 1.73137E-04-3.17388E-06 0.00000E+00
 -1       613 1.73146E-04-3.58646E-06 0.00000E+00
 -1       614 1.73154E-04-3.95164E-06 0.00000E+00
 -1       615 1.73163E-04-4.27538E-06 0.00000E+00
 -1       616 1.73171E-04-4.56366E-06-1.65436E-24
 -1       617 1.73180E-04-4.82243E-06 0.00000E+00
 -1       618 1.73189E-04-5.05766E-06 8.27181E-25
 -1       619 1.73197E-04-5.27531E-06 0.00000E+00
 -1       620 1.73206E-04-5.48134E-06 0.00000E+00
 -1       621 1.74161E-04 1.63933E-06 1.65436E-24
 -1       622 1.75391E-04 1.73882E-06-8.27181E-25
 -1       623 1.76732E-04 1.83815E-06 3.30872E-24
 -1       624 1.78154E-04 1.93720E-06 0.00000E+00
 -1       625 1.79628E-04 2.03600E-06 0.00000E+00
 -1       626 1.73519E-04 6.64893E-07-3.30872E-24
 -1       627 1.73944E-04-1.44063E-07 3.30872E-24
 -1       628 1.74348E-04-8.94650E-07 0.00000E+00
 -1       629 1.74733E-04-1.59509E-06-1.65436E-24
 -1       630 1.75102E-04-2.25363E-06 0.00000E+00
 -1       631 1.75459E-04-2.87853E-06 1.65436E-24
 -1       632 1.75806E-04-3.47805E-06-3.30872E-24
 -1       633 1.76147E-04-4.06048E-06 0.00000E+00
 -1       634 1.76484E-04-4.63408E-06 0.00000E+00
 -1       635 1.76822E-04-5.20710E-06 1.65436E-24
 -1       636 1.77162E-04-5.78783E-06 3.30872E-24
 -1       637 1.77508E-04-6.38452E-06-1.65436E-24
 -1       638 1.77863E-04-7.00546E-06-1.65436E-24
 -1       639 1.78230E-04-7.65892E-06-1.65436E-24
 -1       640 1.78612E-04-8.35320E-06 3.30872E-24
 -1       656 1.73645E-04-6.23685E-06 0.00000E+00
 -1       657 1.74490E-04-6.81450E-06 6.61744E-24
 -1       658 1.75609E-04-7.39075E-06-1.32349E-23
 -1       659 1.76856E-04-7.96664E-06-6.61744E-24
 -1       660 1.78050E-04-8.54427E-06 6.61744E-24
 -1       661 1.73375E-04-5.92484E-06 0.00000E+00
 -1       662 1.73573E-04-6.25508E-06 0.00000E+00
 -1       663 1.73802E-04-6.66763E-06 0.00000E+00
 -1       664 1.74060E-04-7.15648E-06 0.00000E+00
 -1       665 1.74344E-04-7.71625E-06 0.00000E+00
 -1       666 1.74653E-04-8.34147E-06-8.27181E-25
 -1       667 1.74984E-04-9.02694E-06-1.65436E-24
 -1       668 1.75336E-04-9.76753E-06 0.00000E+00
 -1       669 1.75707E-04-1.05582E-05-1.65436E-24
 -1       670 1.76095E-04-1.13942E-05 8.27181E-25
 -1       671 1.76498E-04-1.22707E-05 1.65436E-24
 -1       672 1.76914E-04-1.31831E-05-8.27181E-25
 -1       673 1.77342E-04-1.41266E-05-1.65436E-24
 -1       674 1.77779E-04-1.50972E-05 0.00000E+00
 -1       675 1.78224E-04-1.60900E-05 0.00000E+00
 -1       676 1.73425E-04-1.66006E-05-3.30872E-24
 -1       677 1.74478E-04-1.67016E-05-1.65436E-24
 -1       678 1.75530E-04-1.68026E-05 3.30872E-24
 -1       679 1.76580E-04-1.69032E-05 1.65436E-24
 -1       680 1.77627E-04-1.70039E-05 0.00000E+00
 -1       771 1.85303E-05 1.26937E-05 0.00000E+00
 -1       772 9.27703E-06 3.27575E-05 0.00000E+00
 -1       773 1.66515E-06 4.86696E-05-5.29396E-23
 -1       774-4.41758E-06 6.06680E-05 0.00000E+00
 -1       775-9.08128E-06 6.89998E-05 5.29396E-23
 -1       776-1.24405E-05 7.39269E-05 0.00000E+00
 -1       777-1.46097E-05 7.57200E-05 0.00000E+00
 -1       778-1.57060E-05 7.46620E-05-2.64698E-23
 -1       779-1.58457E-05 7.10433E-05 0.00000E+00
 -1       780-1.51473E-05 6.51643E-05 0.00000E+00
 -1       781-1.37286E-05 5.73314E-05 5.29396E-23
 -1       782-1.17088E-05 4.78586E-05-2.64698E-23
 -1       783-9.20655E-06 3.70642E-05-5.29396E-23
 -1       784-6.34143E-06 2.52718E-05 2.64698E-23
 -1       785-3.23242E-06 1.28076E-05 0.00000E+00
 -1       786 1.80478E-04 2.74505E-05 2.58494E-26
 -1       787 1.80521E-04 2.55719E-05 0.00000E+00
 -1       788 1.80563E-04 2.37347E-05 8.27181E-25
 -1       789 1.80605E-04 2.19308E-05 8.27181E-25
 -1       790 1.80648E-04 2.01556E-05 1.65436E-24
 -1       791 1.80691E-04 1.84043E-05 0.00000E+00
 -1       792 1.80734E-04 1.66748E-05 0.00000E+00
 -1       793 1.80777E-04 1.49647E-05 0.00000E+00
 -1       794 1.80820E-04 1.32739E-05-1.65436E-24
 -1       795 1.80863E-04 1.16023E-05-8.27181E-25
 -1       796 1.80907E-04 9.95149E-06 0.00000E+00
 -1       797 1.80950E-04 8.32337E-06 8.27181E-25
 -1       798 1.80993E-04 6.72201E-06-1.65436E-24
 -1       799 1.81037E-04 5.15159E-06-8.27181E-25
 -1       800 1.81080E-04 3.61937E-06 0.00000E+00
 -1       801 1.39224E-04 2.63211E-05 2.64698E-23
 -1       802 1.44015E-05 1.65793E-05 0.00000E+00
 -1       803-9.30179E-05 8.47378E-06 0.00000E+00
 -1       804-8.38818E-05 5.85541E-06 0.00000E+00
 -1       805-2.78918E-05 2.38247E-06 5.29396E-23
 -1       806 1.81051E-04 2.73839E-05 0.00000E+00
 -1       807 1.81648E-04 2.54152E-05-1.65436E-24
 -1       808 1.82233E-04 2.34775E-05 0.00000E+00
 -1       809 1.82805E-04 2.15749E-05-1.65436E-24
 -1       810 1.83362E-04 1.97112E-05-3.30872E-24
 -1       811 1.83903E-04 1.78902E-05 0.00000E+00
 -1       812 1.84426E-04 1.61156E-05 0.00000E+00
 -1       813 1.84931E-04 1.43913E-05-1.65436E-24
 -1       814 1.85416E-04 1.27209E-05 3.30872E-24
 -1       815 1.85879E-04 1.11083E-05 0.00000E+00
 -1       816 1.86319E-04 9.55715E-06 0.00000E+00
 -1       817 1.86735E-04 8.07119E-06 1.65436E-24
 -1       818 1.87125E-04 6.65415E-06-1.65436E-24
 -1       819 1.87488E-04 5.30976E-06 0.00000E+00
 -1       820 1.87824E-04 4.04168E-06 1.65436E-24
 -1       821 1.80999E-04 3.00685E-07 1.65436E-24
 -1       822 1.80865E-04-2.26366E-06-1.65436E-24
 -1       823 1.80730E-04-5.26201E-06-3.30872E-24
 -1       824 1.80594E-04-8.39339E-06 1.65436E-24
 -1       825 1.80458E-04-1.13219E-05 0.00000E+00
 -1       826 1.80323E-04-1.37127E-05 0.00000E+00
 -1       827 1.80190E-04-1.53740E-05 3.30872E-24
 -1       828 1.80058E-04-1.61183E-05-1.65436E-24
 -1       829 1.79926E-04-1.60018E-05 3.30872E-24
 -1       830 1.79793E-04-1.50859E-05 0.00000E+00
 -1       831 1.79660E-04-1.36444E-05 0.00000E+00
 -1       832 1.79527E-04-1.19543E-05-1.65436E-24
 -1       833 1.79394E-04-1.03587E-05 3.30872E-24
 -1       834 1.79263E-04-9.20003E-06 0.00000E+00
 -1       835 1.79132E-04-8.70513E-06 8.27181E-25
 -1       836 1.82498E-04 2.25234E-06 0.00000E+00
 -1       837 1.83748E-04 2.37492E-06-1.65436E-24
 -1       838 1.84905E-04 2.49742E-06 3.30872E-24
 -1       839 1.86001E-04 2.61922E-06-8.27181E-25
 -1       840 1.87065E-04 2.74085E-06 0.00000E+00
 -1       856 1.78992E-04-9.86222E-06-8.27181E-25
 -1       857 1.78971E-04-1.04960E-05-1.29247E-26
 -1       858 1.78951E-04-1.10185E-05 0.00000E+00
 -1       859 1.78929E-04-1.14503E-05-2.06795E-25
 -1       860 1.78908E-04-1.18121E-05 0.00000E+00
 -1       861 1.78887E-04-1.21246E-05-4.13590E-25
 -1       862 1.78866E-04-1.24085E-05 0.00000E+00
 -1       863 1.78845E-04-1.26847E-05 0.00000E+00
 -1       864 1.78823E-04-1.29739E-05 0.00000E+00
 -1       865 1.78802E-04-1.32969E-05 4.13590E-25
 -1       866 1.78781E-04-1.36744E-05-8.27181E-25
 -1       867 1.78759E-04-1.41272E-05 4.13590E-25
 -1       868 1.78738E-04-1.46759E-05 0.00000E+00
 -1       869 1.78716E-04-1.53410E-05 0.00000E+00
 -1       870 1.78695E-04-1.61430E-05 0.00000E+00
 -1       871 1.80052E-04-9.10058E-06 0.00000E+00
 -1       872 1.81236E-04-9.10769E-06 0.00000E+00
 -1       873 1.82497E-04-9.11545E-06 0.00000E+00
 -1       874 1.83771E-04-9.12392E-06-3.61892E-25
 -1       875 1.84992E-04-9.13296E-06-1.03398E-24
 -1       876 1.79419E-04-9.84831E-06 3.30872E-24
 -1       877 1.79808E-04-1.05353E-05 0.00000E+00
 -1       878 1.80176E-04-1.11654E-05-3.30872E-24
 -1       879 1.80525E-04-1.17457E-05 0.00000E+00
 -1       880 1.80859E-04-1.22835E-05 0.00000E+00
 -1       881 1.81179E-04-1.27858E-05 0.00000E+00
 -1       882 1.81489E-04-1.32599E-05 0.00000E+00
 -1       883 1.81790E-04-1.37128E-05 0.00000E+00
 -1       884 1.82087E-04-1.41517E-05 3.30872E-24
 -1       885 1.82381E-04-1.45837E-05 0.00000E+00
 -1       886 1.82675E-04-1.50159E-05 3.30872E-24
 -1       887 1.82971E-04-1.54554E-05 0.00000E+00
 -1       888 1.83273E-04-1.59094E-05 3.30872E-24
 -1       889 1.83582E-04-1.63852E-05 0.00000E+00
 -1       890 1.83902E-04-1.68898E-05 0.00000E+00
 -1       891 1.79737E-04-1.71577E-05 0.00000E+00
 -1       892 1.80779E-04-1.72133E-05-8.27181E-25
 -1       893 1.81774E-04-1.72687E-05-8.27181E-25
 -1       894 1.82697E-04-1.73239E-05 4.13590E-25
 -1       895 1.83523E-04-1.73789E-05 0.00000E+00
 -1       956 1.88005E-04 1.83162E-06-1.65436E-24
 -1       957 1.87878E-04 8.94850E-07 8.27181E-25
 -1       958 1.87751E-04 3.32866E-08 0.00000E+00
 -1       959 1.87623E-04-7.63606E-07 0.00000E+00
 -1       960 1.87495E-04-1.50641E-06-3.30872E-24
 -1       961 1.87368E-04-2.20573E-06 0.00000E+00
 -1       962 1.87240E-04-2.87218E-06 0.00000E+00
 -1       963 1.87112E-04-3.51641E-06 0.00000E+00
 -1       964 1.86985E-04-4.14906E-06-3.30872E-24
 -1       965 1.86857E-04-4.78074E-06 0.00000E+00
 -1       966 1.86729E-04-5.42211E-06 0.00000E+00
 -1       967 1.86602E-04-6.08380E-06-1.65436E-24
 -1       968 1.86474E-04-6.77642E-06 0.00000E+00
 -1       969 1.86347E-04-7.51058E-06 1.65436E-24
 -1       970 1.86219E-04-8.29685E-06-3.30872E-24
 -1       971 1.85978E-04-9.98991E-06 3.30872E-24
 -1       972 1.85861E-04-1.07414E-05 1.65436E-24
 -1       973 1.85744E-04-1.14100E-05 0.00000E+00
 -1       974 1.85627E-04-1.20064E-05 0.00000E+00
 -1       975 1.85510E-04-1.25414E-05 0.00000E+00
 -1       976 1.85393E-04-1.30256E-05 0.00000E+00
 -1       977 1.85275E-04-1.34697E-05 0.00000E+00
 -1       978 1.85158E-04-1.38844E-05-1.65436E-24
 -1       979 1.85041E-04-1.42805E-05 0.00000E+00
 -1       980 1.84924E-04-1.46687E-05-1.65436E-24
 -1       981 1.84807E-04-1.50597E-05 0.00000E+00
 -1       982 1.84690E-04-1.54643E-05 0.00000E+00
 -1       983 1.84573E-04-1.58931E-05 3.30872E-24
 -1       984 1.84456E-04-1.63570E-05-1.65436E-24
 -1       985 1.84340E-04-1.68665E-05 0.00000E+00
 -3
    1PSTEP                        18           9           1          
  100CL  109 6.44531E-01         409                     0    9           1
 -4  STRESS      6    1
 -5  SXX         1    4    1    1
 -5  SYY         1    4    2    2
 -5  SZZ         1    4    3    3
 -5  SXY         1    4    1    2
 -5  SYZ         1    4    2    3
 -5  SZX         1    4    3    1
 -1         1-4.42962E+06-1.65127E+06-9.74363E+05-1.62388E+06-8.29459E-10-1.81899E-08
 -1         2 3.01993E+04-2.13490E+06 1.25894E+05 3.29451E+05 4.82487E-09-2.83944E-08
 -1         3-1.24268E+03-1.62014E+06 4.06062E+02-2.10238E+03-4.16403E-10 3.31493E-08
 -1         5-4.78675E+01 3.68824E+05 9.51713E+00-9.76176E-01-3.94368E-10-7.09406E-11
 -1         8-6.21586E+05-2.09497E+05-4.91774E+04-4.00596E+05 2.21007E-10 3.76094E-08
 -1         9 8.09547E+06-6.71746E+05 1.35486E+06-1.01666E+06 3.16184E-08 1.65775E-08
 -1        10-2.13266E+03-1.68829E+06-3.86877E+03-1.42066E+04-1.19871E-08-6.26183E-08
 -1        12-4.40643E+01 3.68845E+05 3.11233E+02-6.77940E+00-5.62128E-10 8.29095E-09
 -1        15 1.25876E+03 6.91754E+02 4.06891E+03 1.84231E+00-7.10315E-10 1.59637E-07
 -1        16 1.75964E+07-1.51073E+05 2.47683E+06-1.43395E+06 1.39504E-08 2.42920E-07
 -1        17 6.31882E+06 4.50817E+06 1.70241E+06 4.42720E+06 1.77912E-08 1.74739E-08
 -1        18 1.12935E+05 2.55474E+04-1.67154E+03-1.12269E+05 1.14132E-08 4.97630E-09
 -1        19 1.17265E+05 1.35436E+05-9.26835E+02 2.14770E+04 1.31076E-09 4.12183E-09
 -1        20-7.55082E+04-5.49931E+05-1.23187E+05 2.58455E+04-1.36985E-09 1.03907E-08
 -1        21-4.49508E+01-2.87782E+05-9.01722E+02 2.07945E+02 1.16665E-08-1.93866E-08
 -1        24 1.03404E+07 8.81592E+06 2.92710E+06 8.20059E+06-1.42851E-07-5.02914E-08
 -1        25 7.28809E+04 8.01595E+04 5.19202E+04-5.36472E+05 6.25732E-11-5.59303E-09
 -1        26-5.31804E+04 8.77152E+04-2.37570E+04 3.11951E+02 2.66664E-10 9.87143E-10
 -1        27-7.46883E+04-2.97651E+05-1.09353E+05 6.64089E+04 4.62933E-09 3.30238E-09
 -1        28 2.17218E+04-8.25925E+04 1.64141E+04 2.06237E+04-3.17988E-09 3.61404E-09
 -1        32-1.62980E+06-2.99585E+06-1.74388E+05 2.61927E+05-3.93266E-08-6.62601E-09
 -1        33-1.73377E+05 8.81935E+04 3.09378E+04-3.80868E+04-2.95150E-09 1.32720E-08
 -1        34-2.15718E+05-2.36673E+04 6.50456E+02 7.20892E+04-4.03847E-09-9.08555E-09
 -1        35-2.23371E+04-3.27694E+04-1.30309E+03 5.00838E+04-2.77486E-09 1.09200E-08
 -1        51 4.97306E+04-2.11642E+05 1.07545E+05-6.34965E+05 4.36557E-11 3.03553E-08
 -1        52 1.80157E+04-1.94471E+05 5.80826E+04-7.40302E+05 3.34694E-10-3.29193E-07
 -1        53 5.10289E+03-2.09955E+05 3.28694E+04-6.32651E+05 3.34694E-10-1.66772E-07
 -1        54 1.14770E+04-2.06411E+05 3.23186E+04-7.42701E+05 5.09317E-11-1.98157E-07
 -1        55 2.40535E+04-2.15915E+05 4.55109E+04-6.32333E+05 2.69210E-10 9.78362E-08
 -1        56-8.35201E+06-9.59370E+05-7.22398E+05-3.28204E+06-2.12458E-09 6.20494E-08
 -1        57-8.82284E+06-1.41977E+06-4.85230E+05-3.03449E+06-3.45935E-08 1.72084E-07
 -1        58-8.44553E+06-1.23574E+06-1.69595E+05-3.29028E+06 5.60176E-08-5.74801E-10
 -1        59-8.72214E+06-1.09010E+06-1.00711E+05-3.02494E+06-2.29347E-08-1.06998E-07
 -1        60-8.45394E+06-1.27871E+06-3.92517E+04-3.29670E+06 1.28625E-08-7.32089E-08
 -1        61-8.67886E+06-1.06877E+06-2.17337E+04-3.04841E+06-1.09903E-08-4.17140E-09
 -1        62-8.48678E+06-1.25699E+06-1.17368E+04-3.26595E+06-1.00881E-08-8.89295E-08
 -1        63-8.58680E+06-1.14498E+06-7.09421E+03-3.13494E+06 2.85290E-08 2.18088E-08
 -1        64-8.54138E+06-1.20547E+06-1.18910E+04-3.20682E+06-2.40871E-08-5.83727E-08
 -1        65-8.48343E+06-1.25452E+06-1.82618E+04-3.25489E+06 2.09102E-08-1.97475E-07
 -1        66-8.58997E+06-1.14774E+06-3.60800E+04-3.14586E+06 3.75258E-09 1.22680E-07
 -1        67-8.43126E+06-1.36945E+06-8.86318E+04-3.34904E+06-2.33922E-08 5.23878E-08
 -1        68-8.59857E+06-1.08840E+06-1.49506E+05-3.11579E+06 7.75253E-09 1.27504E-07
 -1        69-8.55763E+06-1.63313E+06-4.29727E+05-3.33379E+06-2.60916E-08 9.30158E-08
 -1        70-8.46796E+06-8.89566E+05-6.37514E+05-3.16061E+06-1.16415E-08 1.73779E-07
 -1        86-3.10291E+04-3.09775E+06-7.37337E+04-1.64008E+05-4.35189E-08 4.55057E-08
 -1        87 3.75664E+04-2.51612E+06 5.14135E+04 4.89027E+05-7.29156E-08-5.29508E-09
 -1        88-1.38276E+03-2.75720E+06-7.80079E+03-3.24536E+05-6.62212E-08 4.58414E-09
 -1        89 3.62873E+04-2.57018E+06 2.03852E+04 5.21266E+05-9.85738E-08 1.34540E-07
 -1        90-2.46459E+04-3.04936E+06-1.13894E+05-1.96515E+05-2.94585E-08 5.01877E-08
 -1       121-1.71143E+03-1.62429E+06-3.80222E+02 1.04379E+03 1.37229E-09-3.37968E-09
 -1       122-1.06114E+03-1.62018E+06 7.91915E+02-4.20434E+03-4.98048E-09-2.21135E-08
 -1       123-1.74345E+03-1.62442E+06 4.73694E+02 3.11658E+03 4.02520E-09-3.68891E-09
 -1       124 6.08153E+02-1.61964E+06 3.09973E+03-8.77841E+03-9.81663E-09-3.41242E-09
 -1       125-2.60768E+03-1.62534E+06 3.86916E+03 5.58365E+03 5.60431E-09-2.35996E-08
 -1       191-5.05494E+01 3.68847E+05 9.30144E+00 5.02794E-01-4.55183E-10-1.23182E-08
 -1       192-4.87693E+01 3.68825E+05 2.02508E+01-3.25604E+00-6.67430E-10-3.54667E-08
 -1       193-5.29323E+01 3.68846E+05 3.56432E+01 2.84401E+00-9.03851E-10-1.38753E-08
 -1       194-5.16646E+01 3.68828E+05 7.68417E+01-7.43336E+00-3.76194E-10-1.50330E-08
 -1       195-5.75077E+01 3.68844E+05 1.48280E+02 4.78387E+00-1.15841E-09-8.28550E-09
 -1       251-2.27309E+06-4.33702E+04-2.34163E+05 1.31199E+05 2.76850E-09-3.29674E-08
 -1       252-1.06784E+06 4.99259E+04 7.56303E+04-4.39997E+05 7.63885E-09 3.44994E-08
 -1       253-1.77391E+06-1.88506E+04-4.40956E+04 3.08649E+05-1.10231E-08 5.89807E-08
 -1       254-1.63755E+06 7.21941E+04 1.37500E+04-6.15114E+05 1.14383E-08-8.48975E-08
 -1       255-1.76011E+06-1.87949E+04-2.06914E+04 3.11393E+05-1.02291E-08-1.38510E-07
 -1       256-1.09291E+06 5.90451E+04 1.24438E+05-4.52216E+05-2.55641E-08 2.61566E-08
 -1       257-2.26480E+06-5.00358E+04-1.25162E+05 1.40839E+05-3.19415E-08 2.09942E-07
 -1       258-5.47065E+05 4.50013E+04 2.27702E+05 9.34027E+03 4.09718E-08-1.36024E-08
 -1       259-2.25194E+06-4.91510E+04-1.20492E+05-1.47041E+05 2.04891E-08 2.17143E-08
 -1       260-1.12030E+06 6.03448E+04 1.24195E+05 4.64616E+05-3.09092E-08-1.12777E-08
 -1       261-1.74849E+06-1.85854E+04-8.46661E+03-3.11636E+05-6.03541E-08 3.84356E-08
 -1       262-1.62896E+06 8.16605E+04 3.72770E+04 6.16474E+05 2.74463E-08 4.28863E-08
 -1       263-1.79394E+06-2.86196E+04-1.00031E+04-3.03521E+05-9.12405E-09-1.09696E-07
 -1       264-1.00487E+06 1.19424E+05 1.82571E+05 4.30926E+05-1.15346E-07 2.33198E-07
 -1       265-2.31308E+06-1.05243E+05-9.22642E+04-1.21037E+05-2.97805E-08 1.48093E-07
 -1       266-2.27877E+04-1.06558E+04 5.34653E+04-3.94190E+01-3.31056E-10-1.53083E-07
 -1       267 2.64172E+04 1.24192E+04 3.77891E+04 4.54825E+01 2.91038E-10 1.61341E-07
 -1       268-3.54250E+03-1.75892E+03 1.40460E+04-5.79522E+00 7.63976E-11 8.87058E-09
 -1       269 4.18265E+03 2.10503E+03 9.12971E+03 6.75061E+00-2.09184E-10-9.56750E-08
 -1       270-6.27821E+02-3.45874E+02 4.40704E+03-9.16103E-01 7.31006E-11 2.88136E-07
 -1       271-2.05174E+06-2.46686E+05-1.52384E+05-7.84896E+05-4.95129E-09-1.14662E-07
 -1       272-2.16179E+06-3.03523E+05-9.81085E+04-7.22011E+05 2.50857E-08-2.64416E-07
 -1       273-2.07917E+06-2.86051E+05-3.59558E+04-7.79533E+05-2.24236E-09 4.32537E-08
 -1       274-2.12935E+06-2.55442E+05-2.01790E+04-7.30357E+05 2.52853E-08 2.02168E-07
 -1       275-2.08321E+06-2.90031E+05-8.38096E+03-7.78215E+05 2.02367E-08 4.09600E-08
 -1       276-2.12309E+06-2.51858E+05-4.39129E+03-7.33048E+05-2.71775E-08 7.09611E-09
 -1       277-2.08489E+06-2.89430E+05-2.22042E+03-7.76694E+05 3.60887E-08 2.95699E-08
 -1       278-2.11899E+06-2.54420E+05-1.36397E+03-7.36216E+05-4.10400E-08-5.73705E-08
 -1       279-2.08665E+06-2.87832E+05-1.59490E+03-7.74602E+05-8.38918E-09-2.40075E-08
 -1       280-2.11450E+06-2.58812E+05-2.32785E+03-7.40368E+05-5.17775E-09 1.11206E-07
 -1       281-2.08865E+06-2.85517E+05-4.67116E+03-7.72022E+05-1.13778E-08 7.85817E-08
 -1       282-2.11105E+06-2.66629E+05-1.03224E+04-7.45150E+05-2.20825E-08 2.22478E-07
 -1       283-2.08945E+06-2.80710E+05-1.89915E+04-7.69251E+05 2.65572E-10-5.43672E-08
 -1       284-2.12126E+06-2.97510E+05-5.05868E+04-7.47431E+05-1.01390E-08-2.78498E-07
 -1       285-2.07829E+06-2.57511E+05-7.93713E+04-7.68476E+05 1.44209E-08 8.52233E-08
 -1       301 1.30141E+04-4.97632E+05 1.73749E+05-8.63597E+05 2.31375E-09-2.51239E-08
 -1       302 1.42532E+04-4.53147E+05 1.05707E+05-1.26237E+06-1.13505E-09 1.56781E-07
 -1       303-6.80879E+03-4.83662E+05 6.42807E+04-8.61441E+05 1.65892E-09 1.32641E-08
 -1       304 1.36517E+03-4.56916E+05 7.25906E+04-1.26160E+06-2.91038E-11-2.66919E-08
 -1       305-2.99032E+03-4.81291E+05 9.96084E+04-8.64142E+05 9.87711E-10 1.14946E-07
 -1       306-2.56807E+07-5.17943E+06-7.03795E+06-1.27219E+06-8.87085E-08-9.99426E-08
 -1       307 2.08626E+07 1.59321E+06 4.52353E+06-1.20485E+07-7.59552E-07 1.31666E-07
 -1       308-7.89510E+06-6.23155E+05-5.56771E+05 4.28134E+06-2.13186E-07 3.08442E-07
 -1       309-3.57573E+06 5.59904E+06 1.65516E+06-1.78926E+07 3.22500E-07 1.99063E-07
 -1       310-1.06951E+07-1.04640E+06-1.28011E+06 4.14139E+06 1.43715E-07-9.59844E-08
 -1       311 2.73277E+07-3.15008E+05 5.48528E+06-8.55325E+06 5.10568E-07-2.79018E-07
 -1       312-2.64887E+07-5.19175E+06-6.59299E+06-3.63006E+06-5.47152E-09-1.17943E-07
 -1       313 3.69210E+07 9.58153E+06 8.50243E+06 1.69526E+07-7.03149E-08 1.01369E-07
 -1       314-1.64433E+07-1.33303E+07-6.07568E+06-1.06300E+07 2.71888E-07-1.68453E-07
 -1       315-7.38025E+05 2.25074E+07 4.67842E+06 1.02777E+07-1.49914E-07 4.57512E-08
 -1       316-2.61872E+04-8.78638E+06-5.15072E+05-3.70934E+06-8.49628E-07-4.06784E-07
 -1       317-1.68264E+07 1.87526E+07 1.62509E+06-5.16000E+06 7.72030E-07-6.08445E-07
 -1       318-1.36887E+06-9.98193E+06-1.33723E+06-4.48162E+06-7.74453E-07 1.14174E-07
 -1       319 4.06070E+06 2.35910E+07 5.24686E+06 1.27294E+07-1.23058E-07 1.75089E-07
 -1       320-1.91327E+07-1.36763E+07-7.71922E+06-1.05256E+07 1.72062E-07-4.08036E-08
 -1       336-3.07982E+02-1.75835E+06-1.36613E+04 8.49510E+03-2.42462E-08 2.34468E-08
 -1       337-5.24175E+03-1.75877E+06-1.77433E+04-2.05462E+04-4.50691E-08 5.82077E-10
 -1       338 5.53056E+02-1.75791E+06-2.74222E+04 1.18599E+04-3.13485E-08 7.49787E-09
 -1       339-2.91198E+04-1.77515E+06-6.21089E+04-2.71116E+04-5.81085E-08 1.79207E-08
 -1       340 1.94386E+04-1.74387E+06-9.75903E+04 1.49483E+04-3.77695E-08 2.57569E-08
 -1       406-2.23118E+01 3.68830E+05 6.12320E+02 2.28631E+00-1.62132E-09 2.65391E-09
 -1       407 1.70414E+02 3.68952E+05 1.30593E+03 1.92529E+01-4.91589E-10 6.87851E-09
 -1       408 6.26774E+02 3.68735E+05 2.60547E+03-2.19480E+01-1.94814E-09 1.82990E-09
 -1       409 2.77945E+03 3.69784E+05 5.86993E+03 2.30531E+02-2.96041E-10 1.04747E-08
 -1       410 8.06463E+03 3.67989E+05 1.19813E+04-2.21413E+02-2.46655E-09 1.33950E-08
 -1       521-2.73152E+07-6.36283E+06-8.24365E+06-9.97143E+05-1.02911E-07 1.06753E-07
 -1       522 2.16495E+07 2.14524E+06 4.60934E+06-1.50111E+07-4.96337E-07-4.41913E-07
 -1       523-8.71332E+06-8.90391E+05-5.80852E+05 4.72777E+06 1.56695E-07-2.25235E-07
 -1       524-6.55975E+06 7.89238E+06 1.80266E+06-2.08045E+07 8.94270E-07-4.11470E-07
 -1       525-1.17115E+07-1.49263E+06-1.41362E+06 4.57552E+06 4.35859E-07-2.09388E-07
 -1       526 2.96855E+07-3.44594E+05 5.79404E+06-1.09537E+07 3.88827E-07 1.77126E-07
 -1       527-2.83109E+07-6.54302E+06-7.60698E+06-3.55111E+06 1.63447E-07 2.93192E-07
 -1       528 4.05042E+07 1.04971E+07 8.90830E+06 1.92364E+07-6.33299E-08-5.75674E-08
 -1       529-1.75267E+07-1.52077E+07-6.98523E+06-1.09002E+07 3.44065E-07-1.00525E-07
 -1       530-2.87703E+06 2.63729E+07 4.96578E+06 1.04107E+07-2.16460E-07 5.32076E-07
 -1       531-1.29979E+05-9.94231E+06-5.24798E+05-3.91844E+06-6.22967E-07 8.24220E-08
 -1       532-1.98716E+07 2.10801E+07 1.79510E+06-8.30424E+06 4.42451E-07-7.42788E-07
 -1       533-1.46898E+06-1.11499E+07-1.41447E+06-4.61582E+06-1.72906E-07-9.30682E-07
 -1       534 2.16408E+06 2.75534E+07 5.49265E+06 1.32610E+07-6.98274E-08 7.09144E-07
 -1       535-2.03194E+07-1.56686E+07-8.83645E+06-1.07789E+07 8.71951E-08 4.16447E-07
 -1       536-6.60014E+05-4.50136E+04-2.87836E+04-4.83627E+04-4.11728E-09 5.28489E-08
 -1       537-9.98781E+04 4.40054E+04 8.01206E+04 1.11682E+05-9.68291E-08 8.80095E-08
 -1       538-3.92384E+05 2.08793E+03 6.20926E+03-6.60143E+04 1.52539E-08 9.47884E-08
 -1       539-2.85457E+05 3.09014E+03 2.30119E+04 1.26157E+05 1.31358E-07 8.62777E-08
 -1       540-4.79028E+05-2.93313E+02-1.71887E+04-6.32557E+04 1.81308E-08 1.00312E-07
 -1       541 6.89694E+04 1.44831E+04 9.10500E+04 8.75103E+04 2.48713E-08 8.61983E-08
 -1       542-7.37275E+05-1.72422E+04-7.17216E+04-2.66854E+04 6.57860E-08 3.60164E-08
 -1       543 2.89555E+05 2.33533E+04 1.34688E+05-1.23179E+04-2.21542E-08 1.12091E-08
 -1       544-6.93713E+05-1.40428E+04-6.37140E+04 3.60466E+04 6.53381E-09-1.76475E-08
 -1       545-3.28686E+04 7.84949E+03 6.74534E+04-1.02521E+05 2.46056E-08-8.29648E-08
 -1       546-4.23484E+05 5.40302E+03-1.05869E+04 6.32515E+04 1.26420E-10-9.39865E-08
 -1       547-3.01595E+05-4.68291E+03 7.82015E+03-1.28868E+05-9.74033E-08-8.63807E-08
 -1       548-4.32184E+05 4.48972E+03-2.20051E+04 6.29331E+04-1.00749E-07-8.61473E-08
 -1       549-1.49563E+04 1.05599E+04 4.74234E+04-1.00100E+05-5.21059E-08-8.09853E-08
 -1       550-7.02444E+05-1.62385E+04-1.16346E+05 3.39208E+04 2.19643E-09-2.93276E-08
 -1       551 3.73332E+04-7.69139E+05-6.29070E+03-1.20996E+06-9.61154E-08-2.24099E-09
 -1       552 8.46341E+04-8.07948E+05 1.53684E+04-1.72546E+06-6.91507E-08 3.81042E-08
 -1       553 6.44882E+04-8.06279E+05 3.57174E+04-1.20383E+06-1.10711E-07 1.28493E-08
 -1       554 1.21234E+05-8.20311E+05 8.54187E+04-1.72742E+06-6.89179E-08 4.55475E-09
 -1       555 9.41252E+04-8.29031E+05 1.54675E+05-1.20387E+06-1.15171E-07-1.91503E-08
 -1       556 2.03327E+05-3.52800E+05 3.88896E+04-3.85232E+05-2.01835E-08-1.40280E-08
 -1       557 3.26982E+05-4.51592E+05 2.25568E+04-4.96285E+05 6.63567E-09-1.21036E-08
 -1       558 1.88428E+05-3.49324E+05 5.71653E+03-3.86772E+05-1.82772E-08 5.20959E-09
 -1       559 3.03657E+05-4.53986E+05 3.92573E+03-5.14062E+05 2.43599E-08 1.49412E-08
 -1       560 1.75349E+05-3.41095E+05-4.05249E+02-3.96111E+05 5.87897E-09-5.33691E-09
 -1       561 2.87041E+05-4.47465E+05 5.39307E+02-5.25305E+05-3.66708E-09-6.28461E-09
 -1       562 1.65014E+05-3.34645E+05-8.97417E+02-4.03577E+05 2.12458E-09-6.62112E-10
 -1       563 2.74784E+05-4.42121E+05 8.14839E+01-5.33289E+05 1.25146E-08-5.18230E-09
 -1       564 1.57700E+05-3.30080E+05-4.31812E+02-4.08754E+05 1.60071E-08 4.07408E-09
 -1       565 2.66766E+05-4.38630E+05 5.65211E+01-5.38406E+05 4.07454E-10 1.05620E-08
 -1       566 1.53517E+05-3.27430E+05-1.91102E+02-4.11682E+05-5.98084E-09-2.25555E-09
 -1       567 2.63019E+05-4.36999E+05-3.00853E+02-5.40665E+05 1.00699E-08 2.54295E-09
 -1       568 1.52543E+05-3.26838E+05-9.69305E+02-4.12459E+05-1.89766E-09 1.58761E-08
 -1       569 2.62250E+05-4.36953E+05-2.45065E+03-5.39121E+05-7.77891E-09 2.35741E-08
 -1       570 1.55800E+05-3.29860E+05-5.39146E+03-4.11540E+05 7.34872E-09-2.54659E-09
 -1       571 2.77957E+05 1.00705E+04 1.44678E+04-8.78836E+04-1.21054E-09-1.39516E-09
 -1       572 2.80064E+05 3.74254E+03 7.08998E+03-9.64165E+04 1.09139E-10 8.83847E-09
 -1       573 2.78796E+05 1.12892E+03 3.15024E+03-8.77162E+04 4.72846E-09 1.88056E-08
 -1       574 2.79012E+05 6.19887E+02 1.57959E+03-9.66257E+04-1.51658E-10 8.46103E-09
 -1       575 2.78888E+05 3.58234E+02 7.45433E+02-8.76934E+04-5.60249E-09-1.86901E-09
 -1       576 2.78879E+05 3.62061E+02 3.81440E+02-9.66536E+04-7.28119E-09 1.86083E-09
 -1       577 2.78923E+05 3.04395E+02 1.90320E+02-8.76903E+04-3.55976E-09 1.40708E-08
 -1       578 2.78902E+05 3.29174E+02 1.09558E+02-9.66574E+04-2.45427E-09 9.41509E-09
 -1       579 2.78983E+05 2.74337E+02 7.50995E+01-8.76900E+04 4.67298E-09 1.43764E-08
 -1       580 2.78987E+05 2.86893E+02 8.63786E+01-9.66528E+04-5.56520E-09-5.30144E-09
 -1       581 2.79079E+05 2.26079E+02 1.30653E+02-8.76955E+04 7.25049E-09 1.76142E-08
 -1       582 2.79138E+05 2.60068E+02 2.64616E+02-9.65959E+04 2.10002E-09 8.68386E-09
 -1       583 2.79196E+05 2.75734E+02 5.09050E+02-8.77475E+04 1.14487E-08 7.74367E-09
 -1       584 2.79473E+05 6.89101E+02 1.15058E+03-9.61580E+04 2.07183E-08 5.18253E-09
 -1       585 2.79203E+05 1.66650E+03 2.33164E+03-8.81329E+04 6.27733E-09 6.35191E-09
 -1       586-3.30446E+03 1.08192E+05-3.04681E+03-2.41433E+05-4.89263E-09-2.65777E-09
 -1       587-1.19197E+03 1.07905E+05 5.94841E+02-2.65722E+05-5.85715E-09 1.88504E-09
 -1       588 4.92142E+02 1.07763E+05 4.45521E+03-2.41305E+05-6.33372E-09 7.00129E-09
 -1       589 4.96142E+03 1.10093E+05 1.16825E+04-2.65485E+05-7.59064E-09-2.70775E-08
 -1       590 1.58871E+04 1.06496E+05 2.45563E+04-2.41720E+05-1.75169E-09-1.03992E-08
 -1       591-6.91118E+04-1.51380E+04-2.11879E+04-2.99441E+04-1.83286E-09 2.82671E-09
 -1       592-7.28216E+04-1.86196E+04-1.14770E+04-3.35081E+04 9.74239E-10-3.12400E-09
 -1       593-7.12318E+04-1.35995E+04-4.77734E+03-3.14967E+04 3.10133E-09 9.21773E-09
 -1       594-6.98943E+04-1.55125E+04-2.38259E+03-3.36213E+04 6.91244E-10 2.50228E-09
 -1       595-7.13935E+04-1.35943E+04-1.09393E+03-3.15673E+04-1.97119E-10 8.87854E-09
 -1       596-6.96940E+04-1.53704E+04-5.56027E+02-3.35977E+04 4.52981E-09-1.42063E-08
 -1       597-7.14137E+04-1.36088E+04-3.02618E+02-3.15700E+04 1.09213E-09-1.12751E-08
 -1       598-6.96743E+04-1.53649E+04-2.42987E+02-3.35910E+04-3.56010E-09 2.96916E-09
 -1       599-7.14125E+04-1.36092E+04-3.10034E+02-3.15696E+04 5.98982E-09-8.21103E-09
 -1       600-6.96942E+04-1.53711E+04-5.75660E+02-3.35957E+04 4.34619E-09-2.17142E-09
 -1       601-7.13891E+04-1.35955E+04-1.13550E+03-3.15662E+04 2.02067E-09 9.97693E-09
 -1       602-6.99020E+04-1.55176E+04-2.47463E+03-3.36166E+04-3.57420E-09-6.43138E-09
 -1       603-7.12186E+04-1.36037E+04-4.96261E+03-3.14937E+04 1.08412E-09 9.05402E-10
 -1       604-7.29593E+04-1.87266E+04-1.19213E+04-3.34755E+04-3.27918E-09 2.55216E-08
 -1       605-6.89974E+04-1.52186E+04-2.20083E+04-2.98993E+04 4.54168E-09 1.75269E-08
 -1       606 2.68954E+04-1.36383E+04-2.44579E+04 2.46204E+04 6.51744E-09 1.24737E-09
 -1       607 2.27154E+04-4.44936E+03-1.21798E+04 2.76618E+04 3.02680E-09-2.04527E-08
 -1       608 2.50959E+04-7.98130E+02-5.45275E+03 2.44422E+04 3.56522E-09-8.67522E-09
 -1       609 2.46374E+04-2.67451E+02-2.75449E+03 2.78808E+04 1.92085E-09 1.60171E-08
 -1       610 2.48901E+04-3.18509E+01-1.31441E+03 2.44213E+04 7.07132E-09 1.18841E-08
 -1       611 2.48163E+04-2.99147E+01-6.62711E+02 2.79045E+04 1.81576E-08 3.21916E-09
 -1       612 2.48432E+04-1.75185E+01-3.15267E+02 2.44192E+04 9.48421E-09 4.81532E-09
 -1       613 2.48252E+04-2.48334E+01-1.41446E+02 2.79073E+04 4.85670E-09-8.21842E-09
 -1       614 2.48204E+04-2.25859E+01-3.36915E+01 2.44185E+04 2.15732E-09 3.18119E-09
 -1       615 2.48185E+04-2.24903E+01 5.81039E+01 2.79077E+04 9.98170E-10-1.55751E-10
 -1       616 2.48027E+04-1.88500E+01 1.75305E+02 2.44188E+04 5.84805E-10 2.95722E-09
 -1       617 2.48384E+04 1.56275E+01 4.00435E+02 2.79072E+04 2.33467E-09-3.48268E-09
 -1       618 2.47670E+04 9.71709E+01 8.07283E+02 2.44190E+04 3.69528E-09 7.18683E-09
 -1       619 2.51226E+04 6.40297E+02 1.81293E+03 2.79065E+04 3.82954E-09-1.44155E-09
 -1       620 2.44984E+04 2.01188E+03 3.64396E+03 2.44199E+04 2.06921E-09 2.76577E-09
 -1       621 4.47152E+02 2.87001E+05 3.55059E+03 3.59893E+04 7.95808E-10 6.74027E-09
 -1       622 5.85368E+02 2.87831E+05 3.19038E+03 5.22679E+04 9.84528E-10 6.61021E-09
 -1       623 1.07902E+02 2.87182E+05 3.88598E+03 3.58254E+04 1.11515E-09 2.45118E-08
 -1       624 1.96517E+03 2.89011E+05 7.57527E+03 5.24299E+04 9.78616E-10 2.01580E-08
 -1       625 1.93288E+03 2.85681E+05 1.32578E+04 3.58226E+04 1.18644E-09 2.84590E-08
 -1       626 2.49801E+05 6.00438E+04 5.01858E+03 1.22903E+05 1.62800E-09 4.27826E-09
 -1       627 2.47458E+05 6.14842E+04 2.41841E+03 1.27169E+05 5.09317E-10 2.84308E-09
 -1       628 2.49930E+05 5.77416E+04 1.02264E+03 1.23748E+05-2.93858E-09-1.96110E-09
 -1       629 2.46826E+05 6.08257E+04 5.00548E+02 1.27411E+05-5.49517E-09 5.88840E-09
 -1       630 2.49944E+05 5.76308E+04 2.32084E+02 1.23782E+05 6.35191E-09 3.16929E-08
 -1       631 2.46758E+05 6.08015E+04 1.24759E+02 1.27413E+05 4.86057E-09 9.52735E-09
 -1       632 2.49939E+05 5.76354E+04 8.18614E+01 1.23777E+05 6.66296E-09-1.17473E-08
 -1       633 2.46749E+05 6.08040E+04 9.08205E+01 1.27409E+05 9.24501E-10-9.87052E-09
 -1       634 2.49933E+05 5.76333E+04 1.46437E+02 1.23776E+05 4.99927E-09 9.92645E-09
 -1       635 2.46762E+05 6.08028E+04 2.96117E+02 1.27413E+05 2.25286E-09 2.63328E-08
 -1       636 2.49924E+05 5.76283E+04 5.97902E+02 1.23775E+05-4.76120E-10 3.18232E-09
 -1       637 2.46890E+05 6.08959E+04 1.31449E+03 1.27412E+05-1.25056E-11-7.03039E-10
 -1       638 2.49877E+05 5.79189E+04 2.70081E+03 1.23644E+05 5.60431E-09 1.16438E-08
 -1       639 2.48309E+05 6.28687E+04 6.39011E+03 1.26993E+05 7.13703E-09-8.16340E-09
 -1       640 2.49682E+05 6.38096E+04 1.32606E+04 1.21160E+05 5.04770E-09 1.22898E-08
 -1       656 6.40110E+04-1.63629E+06-1.54521E+05-2.09220E+03-1.81899E-10 1.46377E-08
 -1       657-8.46736E+04-1.70610E+06-1.27994E+05 5.72234E+03-4.32919E-10-5.90998E-09
 -1       658 2.03978E+04-1.65612E+06-7.88081E+04-4.05489E+03 1.28921E-10-1.08578E-10
 -1       659-9.15054E+04-1.70935E+06-1.36971E+05 7.31299E+03-9.24956E-10-6.23221E-09
 -1       660 7.08274E+04-1.63305E+06-1.69955E+05-3.68283E+03-1.54250E-09 3.86780E-09
 -1       661 1.60424E+05 1.68937E+04 1.66865E+04 6.27184E+04-5.17048E-10 5.94810E-10
 -1       662 1.69771E+05 2.93364E+04 1.12453E+04 5.90742E+04-6.60862E-10 1.56365E-08
 -1       663 1.63701E+05 2.22473E+04 3.93301E+03 6.17676E+04-5.55474E-10-2.51134E-09
 -1       664 1.65972E+05 2.30753E+04 2.35259E+03 6.02352E+04-7.42375E-10-1.02588E-09
 -1       665 1.64198E+05 2.29790E+04 9.28083E+02 6.16232E+04-7.35326E-10-4.93611E-09
 -1       666 1.65385E+05 2.22382E+04 5.43005E+02 6.04233E+04 3.62388E-09 5.50696E-09
 -1       667 1.64284E+05 2.30626E+04 2.88337E+02 6.15873E+04 4.37694E-10 9.03376E-09
 -1       668 1.65289E+05 2.21775E+04 2.93593E+02 6.04754E+04-3.85739E-09-1.45624E-08
 -1       669 1.64292E+05 2.30379E+04 3.97322E+02 6.15714E+04-6.01062E-10 6.47054E-09
 -1       670 1.65386E+05 2.23929E+04 8.65023E+02 6.04781E+04-9.90268E-09-1.02980E-08
 -1       671 1.64188E+05 2.28516E+04 1.53586E+03 6.15826E+04 2.09852E-10-7.44302E-09
 -1       672 1.66281E+05 2.38871E+04 3.92943E+03 6.02614E+04 6.79908E-09 1.00868E-08
 -1       673 1.63402E+05 2.15814E+04 6.58507E+03 6.17737E+04 2.51180E-09-4.31100E-10
 -1       674 1.72549E+05 3.44663E+04 1.88319E+04 5.84197E+04-4.97391E-09-6.60225E-09
 -1       675 1.57960E+05 1.25687E+04 2.79531E+04 6.33131E+04-2.15186E-09-1.79352E-09
 -1       676 2.34791E+01-2.87707E+05-1.08681E+03-1.03975E+02 1.41668E-09-1.57102E-08
 -1       677-2.87951E+02-2.87970E+05-1.98905E+03 2.07791E+02 7.29898E-09-1.09440E-08
 -1       678 1.92765E+02-2.87520E+05-3.51614E+03-1.03747E+02 5.97538E-10-5.26315E-09
 -1       679-3.51662E+03-2.90092E+05-8.35285E+03 2.06918E+02 6.41614E-09 7.38293E-09
 -1       680 2.09928E+03-2.85586E+05-1.34619E+04-1.01952E+02-9.86802E-10 4.36587E-09
 -1       771-2.99236E+06-7.06356E+05-1.44445E+05-1.41457E+06-3.03844E-08-2.78524E-08
 -1       772-2.92209E+06-7.88451E+05-7.46151E+04-1.50929E+06-2.18715E-08 9.66611E-09
 -1       773-3.01986E+06-6.84835E+05-3.77165E+04-1.42660E+06-1.44937E-08 1.15833E-08
 -1       774-2.91288E+06-7.72604E+05-1.68937E+04-1.53149E+06 2.98023E-08-1.13869E-09
 -1       775-3.03386E+06-6.74970E+05-1.24215E+04-1.43228E+06-1.25146E-09 1.28057E-09
 -1       776-2.92290E+06-7.70271E+05-4.67965E+03-1.54805E+06-1.03610E-08 3.55067E-09
 -1       777-3.04593E+06-6.66234E+05-5.41036E+03-1.43730E+06 5.29690E-09 3.62343E-09
 -1       778-2.93341E+06-7.68133E+05-1.54107E+03-1.56225E+06 4.66389E-09 6.53745E-09
 -1       779-3.05625E+06-6.58636E+05-2.67925E+03-1.44159E+06-1.23982E-08-9.84073E-09
 -1       780-2.94265E+06-7.66089E+05-4.46297E+02-1.57380E+06-7.33417E-09 5.21140E-09
 -1       781-3.06443E+06-6.52528E+05-1.03326E+03-1.44494E+06-2.53349E-08-2.61934E-10
 -1       782-2.94976E+06-7.64345E+05 3.78082E+02-1.58232E+06-3.68746E-08-5.35601E-09
 -1       783-3.07018E+06-6.48298E+05 5.92753E+02-1.44730E+06-4.11092E-09-1.50571E-08
 -1       784-2.95367E+06-7.62539E+05 2.43472E+03-1.58758E+06-4.44197E-09 2.70620E-09
 -1       785-3.07357E+06-6.45780E+05 4.29946E+03-1.44880E+06-3.02680E-08 5.73891E-09
 -1       786 1.22889E+05-9.58242E+03 2.21694E+04-2.78740E+02 1.57505E-09-1.30685E-08
 -1       787 1.32504E+05 1.10940E+04 1.56840E+04-9.77744E+01 3.27710E-09 2.38433E-08
 -1       788 1.26596E+05-1.50172E+03 5.73583E+03-2.45551E+02 2.85053E-09 1.48827E-08
 -1       789 1.28185E+05 1.73794E+03 3.60093E+03-1.49169E+02-2.76803E-09 3.46029E-09
 -1       790 1.27209E+05-2.33952E+02 1.45835E+03-2.27360E+02-3.17456E-09-4.23239E-09
 -1       791 1.27470E+05 2.70515E+02 8.43085E+02-1.80402E+02-6.29053E-09-2.34451E-09
 -1       792 1.27312E+05-3.53920E+01 3.58809E+02-2.14321E+02-3.89161E-09-7.89829E-09
 -1       793 1.27346E+05 3.78943E+01 1.82270E+02-2.04913E+02-1.59766E-09-3.56608E-08
 -1       794 1.27332E+05-1.47759E+00 5.41863E+01-2.02848E+02 2.85111E-09-1.40706E-08
 -1       795 1.27312E+05-2.12528E+01-3.84263E+01-2.28788E+02-3.43806E-09 5.48599E-09
 -1       796 1.27346E+05 2.37225E+01-1.28211E+02-1.90446E+02 2.37454E-09-2.71019E-08
 -1       797 1.27235E+05-1.78462E+02-3.60720E+02-2.57158E+02 4.34933E-09-7.73457E-09
 -1       798 1.27410E+05 1.55613E+02-5.88232E+02-1.74478E+02 1.66977E-09 8.17587E-09
 -1       799 1.26788E+05-1.14758E+03-1.62042E+03-2.96396E+02 4.82316E-09-1.64821E-08
 -1       800 1.27793E+05 9.92047E+02-2.29381E+03-1.51208E+02 5.62365E-10 7.57291E-09
 -1       801-1.06153E+05-8.78618E+06-1.18984E+06 1.12786E+06 8.37026E-08-5.10336E-08
 -1       802 5.51834E+05 4.05739E+06 1.70599E+06-1.36176E+06 2.33660E-07-2.49574E-08
 -1       803-4.26545E+05-1.21105E+07-1.52245E+06 7.18245E+05 7.14281E-08 1.58270E-08
 -1       804 2.14454E+05 1.12575E+06 1.20232E+06 5.82296E+05-1.05330E-07-9.00769E-08
 -1       805 1.64466E+05-5.86971E+06-2.32392E+05-8.11588E+05-4.37212E-08-5.26861E-08
 -1       806-3.01276E+05-5.78267E+04-2.23131E+04-1.19101E+05-9.09267E-09 3.76485E-09
 -1       807-3.03115E+05-5.43315E+04-1.09875E+04-1.24442E+05-1.84741E-09 1.45662E-08
 -1       808-3.01932E+05-4.99769E+04-4.66223E+03-1.22844E+05 3.28237E-09 3.78918E-10
 -1       809-3.00796E+05-5.12845E+04-2.28079E+03-1.24690E+05-5.56383E-10-3.39469E-09
 -1       810-3.02027E+05-4.97133E+04-1.04594E+03-1.23006E+05 8.87212E-10-1.24655E-08
 -1       811-3.00619E+05-5.11641E+04-5.20256E+02-1.24655E+05 1.06247E-08 1.12962E-08
 -1       812-3.02041E+05-4.97377E+04-2.63364E+02-1.23006E+05 5.87897E-09-9.62564E-09
 -1       813-3.00595E+05-5.11660E+04-1.71625E+02-1.24637E+05 9.44010E-09-1.05683E-09
 -1       814-3.02034E+05-4.97469E+04-1.70750E+02-1.23002E+05 5.67161E-09 3.36240E-09
 -1       815-3.00599E+05-5.11679E+04-2.75834E+02-1.24630E+05-3.92356E-09-9.25615E-09
 -1       816-3.02014E+05-4.97453E+04-5.23213E+02-1.22999E+05 1.32241E-09-1.43882E-08
 -1       817-3.00688E+05-5.12160E+04-1.12270E+03-1.24620E+05-1.58843E-09-4.21278E-09
 -1       818-3.01947E+05-4.98944E+04-2.28888E+03-1.22927E+05-4.79577E-09-8.90122E-09
 -1       819-3.01942E+05-5.25819E+04-5.38470E+03-1.24339E+05-4.14730E-10 8.74456E-09
 -1       820-3.01498E+05-5.38563E+04-1.09346E+04-1.21220E+05-4.83851E-10 1.76419E-08
 -1       821-3.68844E+05 2.02751E+04-4.70179E+04 1.56735E+03 1.07946E-08 4.69481E-09
 -1       822-3.88692E+05-2.34779E+04-3.31797E+04-3.11461E+03 3.01884E-09-1.48225E-08
 -1       823-3.76431E+05 3.18663E+03-1.21614E+04 2.33016E+03-8.22474E-09 1.54250E-09
 -1       824-3.79678E+05-3.68040E+03-7.63350E+03-3.51766E+03 4.30319E-10 4.34648E-09
 -1       825-3.77859E+05 4.95323E+02-3.16987E+03 1.97045E+03 1.41897E-08 5.80906E-09
 -1       826-3.77751E+05-5.68771E+02-1.79721E+03-1.87503E+03 1.54341E-08 2.82427E-08
 -1       827-3.78345E+05 6.82740E+01-1.06517E+03 6.87467E+02 7.82866E-09 4.85173E-09
 -1       828-3.77359E+05-1.57174E+02-7.34043E+02 9.22114E+02-3.19855E-09-1.33593E-08
 -1       829-3.78246E+05 8.01911E+01-1.06757E+03-8.26729E+02 2.69856E-09-1.70652E-08
 -1       830-3.77974E+05-6.08795E+02-1.90840E+03 3.36043E+03 5.00780E-10 1.14710E-08
 -1       831-3.77741E+05 5.28082E+02-3.26641E+03-1.75088E+03-2.71215E-09 3.43516E-09
 -1       832-3.79766E+05-3.83681E+03-7.93807E+03 4.11848E+03-3.30553E-09 1.10072E-08
 -1       833-3.76461E+05 3.31078E+03-1.26564E+04-1.58480E+03-3.56417E-09 6.18547E-09
 -1       834-3.88900E+05-2.43984E+04-3.44416E+04 2.76169E+03-3.13151E-09-9.75206E-09
 -1       835-3.68601E+05 2.10662E+04-4.88898E+04-3.94051E+02 5.24767E-09-9.37143E-09
 -1       836-1.33675E+03 3.53101E+05 2.18025E+04-1.59942E+04-5.64341E-09 1.47202E-09
 -1       837 4.66564E+03 3.59922E+05 1.84939E+04-3.25601E+04-6.23220E-09 1.27848E-08
 -1       838-5.26141E+02 3.55007E+05 1.89061E+04-1.59239E+04-5.22869E-09 1.61649E-08
 -1       839 1.19412E+04 3.65341E+05 3.58268E+04-3.26113E+04-5.27962E-09 2.35111E-08
 -1       840-3.67939E+03 3.47625E+05 5.71577E+04-1.59472E+04-4.92219E-09 2.22989E-08
 -1       856-5.66595E+04 7.95356E+03-2.09595E+04-3.99086E+02 4.34170E-09 1.23273E-08
 -1       857-6.52984E+04-9.34209E+03-1.44286E+04 5.47161E+03 2.99306E-09 5.58566E-09
 -1       858-6.00792E+04 1.11524E+03-5.43862E+03-4.22814E+02 1.13130E-09 9.66202E-09
 -1       859-6.13735E+04-1.30913E+03-3.28231E+03 5.50732E+03-1.46281E-09 1.78697E-08
 -1       860-6.05902E+04 1.55997E+02-1.37616E+03-4.34597E+02 3.59933E-10-1.94075E-09
 -1       861-6.07856E+04-1.83519E+02-7.58226E+02 5.52340E+03 4.05628E-10-3.37062E-09
 -1       862-6.06701E+04 2.10212E+01-3.17525E+02-4.38876E+02-1.03827E-09 7.84115E-09
 -1       863-6.06881E+04-1.94601E+01-1.20980E+02 5.52579E+03-8.07603E-09 2.94733E-09
 -1       864-6.06881E+04-4.35075E+00 3.48205E+01-4.36995E+02-3.78631E-09 5.52892E-09
 -1       865-6.06362E+04 5.59475E+01 2.26358E+02 5.51530E+03-2.90407E-09-2.66935E-08
 -1       866-6.07199E+04-5.44670E+01 4.62315E+02-4.28383E+02-1.90533E-09-9.96556E-09
 -1       867-6.04171E+04 4.50544E+02 1.14190E+03 5.49189E+03 1.75612E-09 9.68323E-09
 -1       868-6.09025E+04-3.92003E+02 1.89844E+03-4.13583E+02-2.95165E-09 5.11591E-11
 -1       869-5.90241E+04 3.26252E+03 5.05639E+03 5.45314E+03 5.02791E-09-3.41820E-08
 -1       870-6.21055E+04-2.79033E+03 7.33773E+03-3.89567E+02-5.44640E-09 3.46427E-09
 -1       871-5.34882E+03-1.89178E+04-1.86200E+04 1.24584E+05-3.97631E-09-1.16688E-09
 -1       872-1.99153E+03-2.32228E+04-7.76772E+03 1.61537E+05-7.57518E-09-7.17409E-09
 -1       873 3.14306E+02-2.11537E+04 6.35888E+02 1.24310E+05-4.01133E-09 4.90581E-09
 -1       874 3.10291E+03-1.87915E+04 9.51197E+03 1.61569E+05-9.50604E-09 1.13755E-08
 -1       875 6.56250E+03-2.34184E+04 2.14018E+04 1.24538E+05-4.41287E-09-2.23281E-09
 -1       876 2.83609E+05 4.79064E+04 1.46144E+04 1.13940E+05 3.58364E-09-1.41972E-08
 -1       877 2.84567E+05 5.09926E+04 7.80465E+03 1.18139E+05 8.09791E-09-1.66158E-08
 -1       878 2.84975E+05 4.62880E+04 3.26978E+03 1.15138E+05-6.27233E-09-3.05590E-09
 -1       879 2.82580E+05 4.90102E+04 1.62918E+03 1.18238E+05-2.06660E-09 2.07601E-08
 -1       880 2.85073E+05 4.62711E+04 7.58844E+02 1.15187E+05 1.64709E-09 2.59774E-09
 -1       881 2.82448E+05 4.89255E+04 4.05196E+02 1.18215E+05-1.03778E-08-6.38985E-09
 -1       882 2.85082E+05 4.62838E+04 2.59169E+02 1.15188E+05-9.23683E-09-3.53541E-09
 -1       883 2.82439E+05 4.89211E+04 2.78525E+02 1.18208E+05-5.84851E-09 1.27157E-08
 -1       884 2.85076E+05 4.62810E+04 4.42987E+02 1.15189E+05-3.35319E-09 1.42414E-08
 -1       885 2.82474E+05 4.89272E+04 8.90600E+02 1.18219E+05-2.19677E-09 2.94261E-09
 -1       886 2.85041E+05 4.62551E+04 1.79495E+03 1.15185E+05-1.91378E-09 1.38725E-08
 -1       887 2.82790E+05 4.91341E+04 3.92082E+03 1.18265E+05 9.42094E-10 1.47531E-09
 -1       888 2.84794E+05 4.62987E+04 7.90056E+03 1.15060E+05-1.95607E-09-8.78526E-09
 -1       889 2.87493E+05 5.40252E+04 1.88731E+04 1.18120E+05-3.53926E-09 1.92413E-08
 -1       890 2.81570E+05 5.01277E+04 3.53487E+04 1.12051E+05-2.38470E-09-5.12227E-09
 -1       891-1.00035E+02-1.57570E+05-1.92627E+03 2.66960E+04-1.86628E-09 1.68961E-09
 -1       892-1.90323E+02-1.58072E+05-2.07082E+03 4.05142E+04 1.55660E-09 1.05319E-09
 -1       893 2.82905E+01-1.57632E+05-2.93409E+03 2.67029E+04-1.91312E-09 8.24093E-09
 -1       894-1.48098E+03-1.59181E+05-6.07396E+03 4.03652E+04 2.47542E-09 6.43649E-09
 -1       895-1.17332E+03-1.56366E+05-1.06968E+04 2.68461E+04 5.52404E-10-1.49612E-09
 -1       956-3.63364E+05-5.16239E+03-1.27931E+04 2.85983E+04 9.75342E-09-1.14167E-08
 -1       957-3.65877E+05-1.80544E+03-6.56669E+03 3.43827E+04 7.07814E-09-1.58452E-08
 -1       958-3.64511E+05-2.10499E+02-2.95902E+03 2.84407E+04-1.95541E-10-2.00191E-08
 -1       959-3.64700E+05-1.08266E+02-1.51108E+03 3.45644E+04 2.92266E-09-1.29762E-08
 -1       960-3.64621E+05-2.54135E+01-7.36928E+02 2.84246E+04 4.90581E-09 5.13955E-09
 -1       961-3.64622E+05-3.99749E+01-3.91007E+02 3.45832E+04 1.10447E-08 3.79191E-09
 -1       962-3.64646E+05-2.74180E+01-2.24288E+02 2.84220E+04 4.87580E-09 8.20819E-10
 -1       963-3.64621E+05-3.65500E+01-1.80843E+02 3.45866E+04 5.52097E-09 4.11069E-09
 -1       964-3.64651E+05-2.44309E+01-2.20826E+02 2.84213E+04-6.28978E-09 9.44715E-09
 -1       965-3.64633E+05-3.36624E+01-3.82688E+02 3.45859E+04-6.18394E-09-1.69132E-08
 -1       966-3.64636E+05-1.65117E+01-7.19403E+02 2.84227E+04 5.36966E-09-1.41181E-08
 -1       967-3.64721E+05-9.42500E+01-1.47572E+03 3.45727E+04 5.34146E-09-8.38463E-09
 -1       968-3.64537E+05-1.91493E+02-2.88889E+03 2.84344E+04 3.21961E-09 1.11362E-09
 -1       969-3.65881E+05-1.74671E+03-6.41347E+03 3.44351E+04-1.48748E-09-9.60026E-09
 -1       970-3.63424E+05-5.02418E+03-1.24935E+04 2.85538E+04-5.47379E-09 1.02063E-08
 -1       971-3.33990E+05-1.68250E+03-9.11287E+03 1.50341E+04 4.94492E-09-7.36586E-09
 -1       972-3.36187E+05-1.23333E+03-4.96277E+03 2.08289E+04-1.57161E-09-2.71666E-09
 -1       973-3.35005E+05-5.24584E+01-2.22279E+03 1.49144E+04-1.13960E-09-9.96829E-09
 -1       974-3.35141E+05-6.78799E+01-1.15211E+03 2.09635E+04-1.63482E-09-1.07161E-08
 -1       975-3.35085E+05-8.64200E+00-5.76093E+02 1.49023E+04 1.57797E-10 8.53777E-09
 -1       976-3.35080E+05-1.91749E+01-3.32703E+02 2.09787E+04 5.06134E-09-6.21162E-09
 -1       977-3.35101E+05-8.00195E+00-2.42088E+02 1.48991E+04-1.50203E-09-8.90736E-10
 -1       978-3.35085E+05-1.31517E+01-2.84129E+02 2.09834E+04-1.01850E-08 1.79201E-08
 -1       979-3.35101E+05 1.68741E-01-4.57228E+02 1.48977E+04-1.95791E-09-6.97230E-09
 -1       980-3.35120E+05-1.01916E+01-8.83301E+02 2.09843E+04-2.30908E-09-5.50324E-09
 -1       981-3.35073E+05 2.22396E+01-1.71099E+03 1.48982E+04 2.96836E-10 1.27756E-09
 -1       982-3.35354E+05-1.36605E+02-3.53671E+03 2.09778E+04-1.77351E-11-5.65961E-09
 -1       983-3.34857E+05-8.73118E+01-6.87193E+03 1.49042E+04 2.06546E-09 5.68730E-09
 -1       984-3.38660E+05-3.72559E+03-1.53894E+04 2.08939E+04 7.64703E-09 1.31676E-08
 -1       985-3.31746E+05-5.11578E+03-2.82596E+04 1.49767E+04 2.75213E-09 4.35830E-09
 -3
    1PSTEP                        19          10           1          
  100CL  110 6.53320E-01         409                     0   10           1
 -4  DISP        4    1
 -5  D1          1    2    1    0
 -5  D2          1    2    2    0
 -5  D3          1    2    3    0
 -5  ALL         1    2    0    0    1ALL
 -1         1 2.38249E-03 0.00000E+00 0.00000E+00
 -1         2 1.43629E-03 5.82394E-27 0.00000E+00
 -1         3 3.28369E-04-7.59800E-29 1.32349E-23
 -1         5 1.71800E-04-3.32892E-27 2.06795E-24
 -1         8 2.36753E-03-4.76027E-07 0.00000E+00
 -1         9 2.34910E-03-9.02493E-05 0.00000E+00
 -1        10 2.97852E-04-3.47684E-06 6.61744E-24
 -1        12 1.73439E-04 7.89884E-07 9.30578E-25
 -1        15 2.34985E-03-5.15089E-07 0.00000E+00
 -1        16 2.38779E-03-9.16229E-05 0.00000E+00
 -1        17 2.03186E-04-7.85120E-06 0.00000E+00
 -1        18 1.76795E-04 3.15610E-05 0.00000E+00
 -1        19 1.78357E-04 1.57393E-06 0.00000E+00
 -1        20 1.78498E-04-7.56491E-06 0.00000E+00
 -1        21 1.77632E-04-2.05099E-05 0.00000E+00
 -1        24 3.00356E-05-1.18859E-05 0.00000E+00
 -1        25 1.86559E-04 3.17791E-05 0.00000E+00
 -1        26 1.87237E-04 2.17916E-06 0.00000E+00
 -1        27 1.85076E-04-1.10460E-05 0.00000E+00
 -1        28 1.84749E-04-2.11218E-05 0.00000E+00
 -1        32 0.00000E+00 0.00000E+00 0.00000E+00
 -1        33 1.95080E-04 2.91507E-06 0.00000E+00
 -1        34 1.93005E-04-1.10977E-05 0.00000E+00
 -1        35 1.91108E-04-2.14576E-05 0.00000E+00
 -1        51 2.38151E-03-9.33775E-08-6.61744E-24
 -1        52 2.37970E-03-1.70596E-07 0.00000E+00
 -1        53 2.37723E-03-2.45242E-07 0.00000E+00
 -1        54 2.37426E-03-3.19496E-07 0.00000E+00
 -1        55 2.37097E-03-3.95000E-07 6.72084E-25
 -1        56 2.37806E-03 1.20270E-06 0.00000E+00
 -1        57 2.37177E-03 6.90967E-06-5.29396E-23
 -1        58 2.36432E-03 1.56558E-05 0.00000E+00
 -1        59 2.35636E-03 2.56559E-05-5.29396E-23
 -1        60 2.34868E-03 3.49379E-05-1.05879E-22
 -1        61 2.34201E-03 4.15794E-05-5.29396E-23
 -1        62 2.33690E-03 4.40988E-05 1.05879E-22
 -1        63 2.33378E-03 4.13544E-05 5.29396E-23
 -1        64 2.33271E-03 3.30870E-05 0.00000E+00
 -1        65 2.33357E-03 1.95014E-05-5.29396E-23
 -1        66 2.33596E-03 1.70150E-06 0.00000E+00
 -1        67 2.33932E-03-1.88496E-05 0.00000E+00
 -1        68 2.34298E-03-4.02218E-05 1.05879E-22
 -1        69 2.34623E-03-6.04068E-05-5.29396E-23
 -1        70 2.34842E-03-7.76122E-05 0.00000E+00
 -1        86 1.49326E-03-3.30390E-06 0.00000E+00
 -1        87 1.66006E-03-1.85137E-05-1.32349E-23
 -1        88 1.88434E-03-4.41071E-05 2.64698E-23
 -1        89 2.11113E-03-7.02656E-05 1.32349E-23
 -1        90 2.28409E-03-8.64503E-05 0.00000E+00
 -1       121 3.27511E-04-5.63276E-07 0.00000E+00
 -1       122 3.24944E-04-1.12937E-06 0.00000E+00
 -1       123 3.20674E-04-1.70106E-06 0.00000E+00
 -1       124 3.14720E-04-2.28112E-06 0.00000E+00
 -1       125 3.07102E-04-2.87195E-06 1.32349E-23
 -1       191 1.71845E-04 1.31699E-07-6.20385E-25
 -1       192 1.71982E-04 2.63388E-07-5.16988E-25
 -1       193 1.72210E-04 3.95061E-07-1.03398E-24
 -1       194 1.72528E-04 5.26709E-07-1.55096E-24
 -1       195 1.72938E-04 6.58320E-07 1.86116E-24
 -1       251 2.36689E-03-7.14340E-06 0.00000E+00
 -1       252 2.36594E-03-3.29215E-05 0.00000E+00
 -1       253 2.36453E-03-7.33672E-05 0.00000E+00
 -1       254 2.36269E-03-1.23657E-04 0.00000E+00
 -1       255 2.36075E-03-1.76062E-04 0.00000E+00
 -1       256 2.35908E-03-2.22801E-04-6.61744E-24
 -1       257 2.35785E-03-2.57773E-04 2.64698E-23
 -1       258 2.35707E-03-2.75179E-04 6.61744E-24
 -1       259 2.35644E-03-2.74347E-04 2.64698E-23
 -1       260 2.35562E-03-2.55077E-04 0.00000E+00
 -1       261 2.35449E-03-2.22546E-04 0.00000E+00
 -1       262 2.35309E-03-1.82269E-04 0.00000E+00
 -1       263 2.35169E-03-1.42060E-04 0.00000E+00
 -1       264 2.35056E-03-1.09730E-04-1.32349E-23
 -1       265 2.34975E-03-9.07493E-05 0.00000E+00
 -1       266 2.36459E-03-4.89559E-07 0.00000E+00
 -1       267 2.36164E-03-4.95213E-07-8.27181E-25
 -1       268 2.35869E-03-5.01367E-07-8.27181E-25
 -1       269 2.35575E-03-5.06042E-07 0.00000E+00
 -1       270 2.35280E-03-5.10683E-07 2.06795E-25
 -1       271 2.36594E-03 1.58838E-06 0.00000E+00
 -1       272 2.36478E-03 2.41982E-06 0.00000E+00
 -1       273 2.36408E-03 2.03255E-06 0.00000E+00
 -1       274 2.36383E-03 4.42247E-07 1.32349E-23
 -1       275 2.36402E-03-2.32084E-06 0.00000E+00
 -1       276 2.36462E-03-6.21687E-06 0.00000E+00
 -1       277 2.36563E-03-1.11944E-05 0.00000E+00
 -1       278 2.36701E-03-1.71922E-05 0.00000E+00
 -1       279 2.36874E-03-2.41387E-05-2.64698E-23
 -1       280 2.37079E-03-3.19536E-05 1.32349E-23
 -1       281 2.37313E-03-4.05478E-05-2.64698E-23
 -1       282 2.37572E-03-4.98252E-05 0.00000E+00
 -1       283 2.37852E-03-5.96827E-05-2.64698E-23
 -1       284 2.38149E-03-7.00110E-05 0.00000E+00
 -1       285 2.38459E-03-8.06980E-05 0.00000E+00
 -1       301 2.35611E-03-9.05038E-05 0.00000E+00
 -1       302 2.36182E-03-9.07225E-05-6.61744E-24
 -1       303 2.36704E-03-9.09357E-05 0.00000E+00
 -1       304 2.37258E-03-9.11495E-05 0.00000E+00
 -1       305 2.37923E-03-9.13718E-05 0.00000E+00
 -1       306 2.38440E-03-2.30953E-04 0.00000E+00
 -1       307 2.44892E-03-6.17162E-04 0.00000E+00
 -1       308 2.50207E-03-1.18653E-03 0.00000E+00
 -1       309 2.53580E-03-1.85062E-03-5.29396E-23
 -1       310 2.57445E-03-2.49175E-03 0.00000E+00
 -1       311 2.63572E-03-2.99432E-03-5.29396E-23
 -1       312 2.69472E-03-3.28167E-03 0.00000E+00
 -1       313 2.69852E-03-3.31361E-03 5.29396E-23
 -1       314 2.58177E-03-3.09838E-03 0.00000E+00
 -1       315 2.30570E-03-2.69086E-03 0.00000E+00
 -1       316 1.88493E-03-2.16230E-03 0.00000E+00
 -1       317 1.37670E-03-1.58003E-03 0.00000E+00
 -1       318 8.83490E-04-1.00667E-03 0.00000E+00
 -1       319 5.03331E-04-5.07568E-04-5.29396E-23
 -1       320 2.77717E-04-1.52106E-04-1.05879E-22
 -1       336 2.86791E-04-4.14395E-06 0.00000E+00
 -1       337 2.73752E-04-4.83450E-06 6.61744E-24
 -1       338 2.58796E-04-5.55036E-06 0.00000E+00
 -1       339 2.41995E-04-6.29213E-06-6.61744E-24
 -1       340 2.23428E-04-7.06397E-06-1.32349E-23
 -1       406 1.74031E-04 9.21385E-07-2.06795E-25
 -1       407 1.74714E-04 1.05279E-06-5.16988E-25
 -1       408 1.75488E-04 1.18404E-06 1.44757E-24
 -1       409 1.76354E-04 1.31499E-06 3.10193E-25
 -1       410 1.77310E-04 1.44536E-06-2.48154E-24
 -1       521 2.42386E-03-2.41371E-04 0.00000E+00
 -1       522 2.48720E-03-6.46774E-04-5.29396E-23
 -1       523 2.53513E-03-1.24243E-03 1.05879E-22
 -1       524 2.56108E-03-1.93369E-03 5.29396E-23
 -1       525 2.59291E-03-2.60019E-03 1.05879E-22
 -1       526 2.65107E-03-3.12388E-03 0.00000E+00
 -1       527 2.70974E-03-3.42204E-03-2.11758E-22
 -1       528 2.71188E-03-3.45344E-03 0.00000E+00
 -1       529 2.58538E-03-3.22596E-03 0.00000E+00
 -1       530 2.28914E-03-2.80115E-03 0.00000E+00
 -1       531 1.83821E-03-2.25367E-03 1.05879E-22
 -1       532 1.29524E-03-1.65373E-03 0.00000E+00
 -1       533 7.67556E-04-1.06218E-03 1.05879E-22
 -1       534 3.57900E-04-5.42752E-04-5.29396E-23
 -1       535 1.13260E-04-1.68771E-04 0.00000E+00
 -1       536 2.02484E-04 2.55036E-05-6.61744E-24
 -1       537 2.00717E-04 8.33358E-05 0.00000E+00
 -1       538 1.97990E-04 1.56753E-04 0.00000E+00
 -1       539 1.94774E-04 2.36782E-04 0.00000E+00
 -1       540 1.91880E-04 3.12408E-04 0.00000E+00
 -1       541 1.89994E-04 3.72639E-04 0.00000E+00
 -1       542 1.89118E-04 4.10976E-04 3.30872E-24
 -1       543 1.88902E-04 4.21061E-04 1.65436E-24
 -1       544 1.88593E-04 4.03649E-04 0.00000E+00
 -1       545 1.87500E-04 3.59702E-04 0.00000E+00
 -1       546 1.85475E-04 2.97040E-04-3.30872E-24
 -1       547 1.82744E-04 2.23598E-04 0.00000E+00
 -1       548 1.80039E-04 1.50552E-04 0.00000E+00
 -1       549 1.78086E-04 8.90784E-05-1.65436E-24
 -1       550 1.77068E-04 4.68851E-05 0.00000E+00
 -1       551 1.79097E-04-8.39928E-06 0.00000E+00
 -1       552 1.51852E-04-9.02156E-06 0.00000E+00
 -1       553 1.22379E-04-9.70148E-06-1.15805E-23
 -1       554 9.16230E-05-1.04193E-05-3.30872E-24
 -1       555 6.05285E-05-1.11490E-05 0.00000E+00
 -1       556 1.95913E-04 1.07644E-05 0.00000E+00
 -1       557 1.90046E-04 2.58377E-05-2.64698E-23
 -1       558 1.85456E-04 3.76463E-05 0.00000E+00
 -1       559 1.82014E-04 4.64899E-05 0.00000E+00
 -1       560 1.79595E-04 5.26683E-05 0.00000E+00
 -1       561 1.78078E-04 5.64839E-05 0.00000E+00
 -1       562 1.77341E-04 5.82402E-05 0.00000E+00
 -1       563 1.77266E-04 5.82415E-05-1.32349E-23
 -1       564 1.77734E-04 5.67929E-05 0.00000E+00
 -1       565 1.78629E-04 5.42002E-05-6.61744E-24
 -1       566 1.79837E-04 5.07696E-05 0.00000E+00
 -1       567 1.81242E-04 4.68078E-05-3.30872E-24
 -1       568 1.82730E-04 4.26216E-05 8.27181E-25
 -1       569 1.84188E-04 3.85176E-05 0.00000E+00
 -1       570 1.85502E-04 3.48027E-05 0.00000E+00
 -1       571 1.76890E-04 2.96153E-05 0.00000E+00
 -1       572 1.76987E-04 2.76061E-05 4.13590E-25
 -1       573 1.77084E-04 2.55485E-05 1.65436E-24
 -1       574 1.77181E-04 2.34582E-05-1.65436E-24
 -1       575 1.77279E-04 2.13510E-05 0.00000E+00
 -1       576 1.77376E-04 1.92425E-05 1.65436E-24
 -1       577 1.77474E-04 1.71488E-05 0.00000E+00
 -1       578 1.77572E-04 1.50855E-05 0.00000E+00
 -1       579 1.77669E-04 1.30686E-05-6.61744E-24
 -1       580 1.77767E-04 1.11139E-05 0.00000E+00
 -1       581 1.77865E-04 9.23716E-06 0.00000E+00
 -1       582 1.77963E-04 7.45430E-06 3.30872E-24
 -1       583 1.78061E-04 5.78109E-06-6.61744E-24
 -1       584 1.78160E-04 4.23319E-06 0.00000E+00
 -1       585 1.78258E-04 2.82607E-06 0.00000E+00
 -1       586 1.78379E-04 3.15994E-05-1.65436E-24
 -1       587 1.79924E-04 3.16373E-05 0.00000E+00
 -1       588 1.81472E-04 3.16748E-05 8.27181E-25
 -1       589 1.83065E-04 3.17116E-05 0.00000E+00
 -1       590 1.84747E-04 3.17472E-05 0.00000E+00
 -1       591 1.77460E-04 2.97044E-05-1.03398E-25
 -1       592 1.78128E-04 2.78274E-05 0.00000E+00
 -1       593 1.78800E-04 2.59358E-05 8.27181E-25
 -1       594 1.79477E-04 2.40343E-05 4.13590E-25
 -1       595 1.80155E-04 2.21278E-05 0.00000E+00
 -1       596 1.80833E-04 2.02210E-05 0.00000E+00
 -1       597 1.81509E-04 1.83187E-05 0.00000E+00
 -1       598 1.82182E-04 1.64255E-05 0.00000E+00
 -1       599 1.82849E-04 1.45463E-05 0.00000E+00
 -1       600 1.83510E-04 1.26856E-05 0.00000E+00
 -1       601 1.84162E-04 1.08483E-05 0.00000E+00
 -1       602 1.84804E-04 9.03911E-06 2.06795E-25
 -1       603 1.85433E-04 7.26271E-06 0.00000E+00
 -1       604 1.86049E-04 5.52396E-06-5.16988E-26
 -1       605 1.86650E-04 3.82749E-06 0.00000E+00
 -1       606 1.78370E-04 5.49005E-07 0.00000E+00
 -1       607 1.78380E-04-3.88729E-07 0.00000E+00
 -1       608 1.78389E-04-1.24439E-06 0.00000E+00
 -1       609 1.78397E-04-2.02374E-06 0.00000E+00
 -1       610 1.78406E-04-2.73262E-06-3.30872E-24
 -1       611 1.78414E-04-3.37690E-06 0.00000E+00
 -1       612 1.78423E-04-3.96248E-06 0.00000E+00
 -1       613 1.78431E-04-4.49527E-06 0.00000E+00
 -1       614 1.78440E-04-4.98115E-06 0.00000E+00
 -1       615 1.78448E-04-5.42603E-06 8.27181E-25
 -1       616 1.78457E-04-5.83583E-06 0.00000E+00
 -1       617 1.78465E-04-6.21643E-06 0.00000E+00
 -1       618 1.78474E-04-6.57373E-06 0.00000E+00
 -1       619 1.78482E-04-6.91365E-06 0.00000E+00
 -1       620 1.78491E-04-7.24208E-06 0.00000E+00
 -1       621 1.79569E-04 1.67531E-06 1.65436E-24
 -1       622 1.80930E-04 1.77695E-06 0.00000E+00
 -1       623 1.82408E-04 1.87840E-06-1.65436E-24
 -1       624 1.83973E-04 1.97954E-06-1.65436E-24
 -1       625 1.85593E-04 2.08042E-06 0.00000E+00
 -1       626 1.78851E-04 5.84430E-07 3.30872E-24
 -1       627 1.79322E-04-3.40133E-07 6.61744E-24
 -1       628 1.79771E-04-1.20764E-06-6.61744E-24
 -1       629 1.80203E-04-2.02631E-06 0.00000E+00
 -1       630 1.80619E-04-2.80438E-06 0.00000E+00
 -1       631 1.81023E-04-3.55011E-06 0.00000E+00
 -1       632 1.81419E-04-4.27175E-06-3.30872E-24
 -1       633 1.81808E-04-4.97757E-06 0.00000E+00
 -1       634 1.82195E-04-5.67582E-06 0.00000E+00
 -1       635 1.82581E-04-6.37477E-06-1.65436E-24
 -1       636 1.82972E-04-7.08268E-06 0.00000E+00
 -1       637 1.83368E-04-7.80780E-06 0.00000E+00
 -1       638 1.83774E-04-8.55841E-06 1.65436E-24
 -1       639 1.84192E-04-9.34277E-06-1.65436E-24
 -1       640 1.84626E-04-1.01692E-05 0.00000E+00
 -1       656 1.79053E-04-8.13076E-06 0.00000E+00
 -1       657 1.80025E-04-8.71957E-06 6.61744E-24
 -1       658 1.81274E-04-9.30699E-06 0.00000E+00
 -1       659 1.82654E-04-9.89406E-06-6.61744E-24
 -1       660 1.83982E-04-1.04829E-05 0.00000E+00
 -1       661 1.78706E-04-7.93170E-06 0.00000E+00
 -1       662 1.78951E-04-8.38796E-06 8.27181E-25
 -1       663 1.79227E-04-8.92867E-06-1.65436E-24
 -1       664 1.79533E-04-9.54758E-06 0.00000E+00
 -1       665 1.79866E-04-1.02391E-05 0.00000E+00
 -1       666 1.80225E-04-1.09975E-05-8.27181E-25
 -1       667 1.80606E-04-1.18174E-05-1.65436E-24
 -1       668 1.81008E-04-1.26934E-05 0.00000E+00
 -1       669 1.81430E-04-1.36203E-05-1.65436E-24
 -1       670 1.81868E-04-1.45931E-05 0.00000E+00
 -1       671 1.82322E-04-1.56067E-05-1.65436E-24
 -1       672 1.82789E-04-1.66563E-05 8.27181E-25
 -1       673 1.83267E-04-1.77371E-05-1.65436E-24
 -1       674 1.83755E-04-1.88446E-05 8.27181E-25
 -1       675 1.84251E-04-1.99738E-05 0.00000E+00
 -1       676 1.78823E-04-2.06125E-05 0.00000E+00
 -1       677 1.80012E-04-2.07150E-05 0.00000E+00
 -1       678 1.81200E-04-2.08175E-05-3.30872E-24
 -1       679 1.82386E-04-2.09197E-05 0.00000E+00
 -1       680 1.83569E-04-2.10218E-05 0.00000E+00
 -1       771 1.86122E-05 1.35949E-05 0.00000E+00
 -1       772 8.99151E-06 3.45230E-05 0.00000E+00
 -1       773 1.08727E-06 5.11195E-05 0.00000E+00
 -1       774-5.21826E-06 6.36313E-05-2.64698E-23
 -1       775-1.00404E-05 7.23153E-05 0.00000E+00
 -1       776-1.34993E-05 7.74441E-05 2.64698E-23
 -1       777-1.57147E-05 7.92995E-05 0.00000E+00
 -1       778-1.68090E-05 7.81764E-05 2.64698E-23
 -1       779-1.69041E-05 7.43776E-05-5.29396E-23
 -1       780-1.61239E-05 6.82167E-05-2.64698E-23
 -1       781-1.45915E-05 6.00133E-05-5.29396E-23
 -1       782-1.24313E-05 5.00955E-05-5.29396E-23
 -1       783-9.76731E-06 3.87958E-05 0.00000E+00
 -1       784-6.72438E-06 2.64523E-05 2.64698E-23
 -1       785-3.42668E-06 1.34059E-05-5.29396E-23
 -1       786 1.86597E-04 2.97013E-05 0.00000E+00
 -1       787 1.86639E-04 2.76737E-05 4.13590E-25
 -1       788 1.86680E-04 2.56879E-05 8.27181E-25
 -1       789 1.86722E-04 2.37359E-05 0.00000E+00
 -1       790 1.86765E-04 2.18128E-05 1.65436E-24
 -1       791 1.86807E-04 1.99139E-05-8.27181E-25
 -1       792 1.86850E-04 1.80370E-05 0.00000E+00
 -1       793 1.86893E-04 1.61798E-05 0.00000E+00
 -1       794 1.86936E-04 1.43421E-05 1.65436E-24
 -1       795 1.86978E-04 1.25237E-05 0.00000E+00
 -1       796 1.87021E-04 1.07264E-05 1.65436E-24
 -1       797 1.87064E-04 8.95205E-06 0.00000E+00
 -1       798 1.87107E-04 7.20468E-06 0.00000E+00
 -1       799 1.87150E-04 5.48852E-06 8.27181E-25
 -1       800 1.87193E-04 3.81087E-06-1.65436E-24
 -1       801 1.43201E-04 2.85200E-05 0.00000E+00
 -1       802 1.19894E-05 1.78790E-05 0.00000E+00
 -1       803-1.00500E-04 9.08507E-06 5.29396E-23
 -1       804-8.98055E-05 6.30023E-06 0.00000E+00
 -1       805-2.97506E-05 2.52004E-06 0.00000E+00
 -1       806 1.87224E-04 2.96332E-05-1.65436E-24
 -1       807 1.87875E-04 2.75133E-05 0.00000E+00
 -1       808 1.88513E-04 2.54248E-05 0.00000E+00
 -1       809 1.89139E-04 2.33715E-05 1.65436E-24
 -1       810 1.89749E-04 2.13576E-05-3.30872E-24
 -1       811 1.90343E-04 1.93869E-05 0.00000E+00
 -1       812 1.90919E-04 1.74633E-05 3.30872E-24
 -1       813 1.91477E-04 1.55909E-05-1.65436E-24
 -1       814 1.92014E-04 1.37734E-05 3.30872E-24
 -1       815 1.92529E-04 1.20147E-05 0.00000E+00
 -1       816 1.93020E-04 1.03188E-05 0.00000E+00
 -1       817 1.93487E-04 8.68948E-06-8.27181E-25
 -1       818 1.93927E-04 7.13060E-06 3.30872E-24
 -1       819 1.94340E-04 5.64603E-06 8.27181E-25
 -1       820 1.94725E-04 4.23960E-06 1.65436E-24
 -1       821 1.87109E-04 9.65106E-08-1.65436E-24
 -1       822 1.86972E-04-2.92920E-06-1.65436E-24
 -1       823 1.86834E-04-6.53469E-06 3.30872E-24
 -1       824 1.86693E-04-1.03531E-05 1.65436E-24
 -1       825 1.86553E-04-1.39607E-05 0.00000E+00
 -1       826 1.86414E-04-1.69348E-05 0.00000E+00
 -1       827 1.86278E-04-1.90236E-05 0.00000E+00
 -1       828 1.86143E-04-1.99810E-05 1.65436E-24
 -1       829 1.86009E-04-1.98654E-05 0.00000E+00
 -1       830 1.85874E-04-1.87421E-05 0.00000E+00
 -1       831 1.85739E-04-1.69479E-05 0.00000E+00
 -1       832 1.85603E-04-1.48238E-05 0.00000E+00
 -1       833 1.85467E-04-1.27996E-05 0.00000E+00
 -1       834 1.85334E-04-1.13047E-05-1.65436E-24
 -1       835 1.85201E-04-1.06261E-05 0.00000E+00
 -1       836 1.88755E-04 2.30124E-06-3.30872E-24
 -1       837 1.90147E-04 2.42637E-06 0.00000E+00
 -1       838 1.91444E-04 2.55142E-06 0.00000E+00
 -1       839 1.92678E-04 2.67577E-06 0.00000E+00
 -1       840 1.93880E-04 2.79996E-06 0.00000E+00
 -1       856 1.85059E-04-1.19452E-05 0.00000E+00
 -1       857 1.85039E-04-1.27109E-05 0.00000E+00
 -1       858 1.85019E-04-1.33638E-05-4.13590E-25
 -1       859 1.84999E-04-1.39247E-05-2.06795E-25
 -1       860 1.84978E-04-1.44147E-05 4.13590E-25
 -1       861 1.84958E-04-1.48546E-05 0.00000E+00
 -1       862 1.84937E-04-1.52654E-05 8.27181E-25
 -1       863 1.84917E-04-1.56683E-05 0.00000E+00
 -1       864 1.84896E-04-1.60842E-05 0.00000E+00
 -1       865 1.84876E-04-1.65342E-05 0.00000E+00
 -1       866 1.84855E-04-1.70392E-05 0.00000E+00
 -1       867 1.84834E-04-1.76203E-05 4.13590E-25
 -1       868 1.84814E-04-1.82983E-05 0.00000E+00
 -1       869 1.84792E-04-1.90941E-05 4.13590E-25
 -1       870 1.84771E-04-2.00284E-05 0.00000E+00
 -1       871 1.86257E-04-1.10503E-05-8.27181E-25
 -1       872 1.87583E-04-1.10579E-05 0.00000E+00
 -1       873 1.88987E-04-1.10662E-05 0.00000E+00
 -1       874 1.90403E-04-1.10752E-05 0.00000E+00
 -1       875 1.91765E-04-1.10847E-05 1.03398E-24
 -1       876 1.85538E-04-1.19310E-05 3.30872E-24
 -1       877 1.85978E-04-1.27504E-05 0.00000E+00
 -1       878 1.86398E-04-1.35121E-05 0.00000E+00
 -1       879 1.86798E-04-1.42233E-05-1.65436E-24
 -1       880 1.87183E-04-1.48913E-05-3.30872E-24
 -1       881 1.87554E-04-1.55234E-05 0.00000E+00
 -1       882 1.87914E-04-1.61267E-05-3.30872E-24
 -1       883 1.88266E-04-1.67085E-05-1.65436E-24
 -1       884 1.88613E-04-1.72761E-05-3.30872E-24
 -1       885 1.88957E-04-1.78365E-05 1.65436E-24
 -1       886 1.89302E-04-1.83971E-05 0.00000E+00
 -1       887 1.89649E-04-1.89650E-05 0.00000E+00
 -1       888 1.90001E-04-1.95476E-05-3.30872E-24
 -1       889 1.90360E-04-2.01521E-05-1.65436E-24
 -1       890 1.90730E-04-2.07857E-05 0.00000E+00
 -1       891 1.85949E-04-2.11782E-05-1.65436E-24
 -1       892 1.87126E-04-2.12347E-05 0.00000E+00
 -1       893 1.88256E-04-2.12912E-05 0.00000E+00
 -1       894 1.89312E-04-2.13474E-05-4.13590E-25
 -1       895 1.90271E-04-2.14034E-05 4.13590E-25
 -1       956 1.94952E-04 1.76098E-06 1.65436E-24
 -1       957 1.94823E-04 6.94426E-07-8.27181E-25
 -1       958 1.94693E-04-2.94886E-07 0.00000E+00
 -1       959 1.94563E-04-1.21781E-06-1.65436E-24
 -1       960 1.94432E-04-2.08527E-06 0.00000E+00
 -1       961 1.94302E-04-2.90818E-06 0.00000E+00
 -1       962 1.94172E-04-3.69750E-06 0.00000E+00
 -1       963 1.94042E-04-4.46420E-06 0.00000E+00
 -1       964 1.93912E-04-5.21923E-06 0.00000E+00
 -1       965 1.93782E-04-5.97356E-06 0.00000E+00
 -1       966 1.93652E-04-6.73816E-06 0.00000E+00
 -1       967 1.93522E-04-7.52398E-06 0.00000E+00
 -1       968 1.93392E-04-8.34197E-06 3.30872E-24
 -1       969 1.93262E-04-9.20307E-06 0.00000E+00
 -1       970 1.93133E-04-1.01182E-05-3.30872E-24
 -1       971 1.92887E-04-1.20747E-05 3.30872E-24
 -1       972 1.92768E-04-1.29578E-05 0.00000E+00
 -1       973 1.92649E-04-1.37573E-05 3.30872E-24
 -1       974 1.92530E-04-1.44840E-05-1.65436E-24
 -1       975 1.92411E-04-1.51486E-05 0.00000E+00
 -1       976 1.92291E-04-1.57621E-05 0.00000E+00
 -1       977 1.92172E-04-1.63351E-05 0.00000E+00
 -1       978 1.92053E-04-1.68785E-05 0.00000E+00
 -1       979 1.91934E-04-1.74030E-05-3.30872E-24
 -1       980 1.91815E-04-1.79196E-05 0.00000E+00
 -1       981 1.91695E-04-1.84391E-05 0.00000E+00
 -1       982 1.91576E-04-1.89722E-05-1.65436E-24
 -1       983 1.91458E-04-1.95299E-05 0.00000E+00
 -1       984 1.91339E-04-2.01228E-05 1.65436E-24
 -1       985 1.91221E-04-2.07619E-05 3.30872E-24
 -3
    1PSTEP                        20          10           1          
  100CL  110 6.53320E-01         409                     0   10           1
 -4  STRESS      6    1
 -5  SXX         1    4    1    1
 -5  SYY         1    4    2    2
 -5  SZZ         1    4    3    3
 -5  SXY         1    4    1    2
 -5  SYZ         1    4    2    3
 -5  SZX         1    4    3    1
 -1         1-4.75556E+06-1.68005E+06-1.03578E+06-1.59451E+06 4.80213E-10-1.79280E-08
 -1         2 6.12911E+05 8.39979E+06 2.31394E+06 2.77152E+06 1.84955E-08 7.32980E-08
 -1         3-1.35479E+03-1.60042E+06 4.07539E+02-2.16772E+03-4.24965E-10-6.61021E-09
 -1         5-5.94999E+01 3.77073E+05 9.73523E+00-1.13792E+00-4.14106E-10-2.19661E-08
 -1         8-7.90509E+05-2.55861E+05-9.89850E+04-3.33068E+05 1.10958E-09 4.53292E-09
 -1         9 9.58182E+06 1.32225E+06 1.96287E+06-7.20305E+05 1.03842E-08 1.41212E-07
 -1        10-2.21340E+03-1.66776E+06-3.92441E+03-1.46557E+04-1.24473E-08-6.86091E-08
 -1        12-5.56385E+01 3.77094E+05 3.19079E+02-7.83328E+00-6.53891E-10 3.23116E-08
 -1        15 1.16350E+03 6.39406E+02 3.76100E+03 1.48250E+00-2.26663E-10 4.00445E-08
 -1        16 1.99742E+07-2.08459E+05 2.77120E+06-1.73641E+06 6.28643E-09-8.92517E-09
 -1        17 7.26158E+06 5.29498E+06 1.95672E+06 5.13550E+06 1.65659E-08 2.26777E-08
 -1        18 1.26549E+05 2.92242E+04 1.01116E+03-1.15671E+05 1.25647E-08 6.03723E-09
 -1        19 1.19701E+05 1.38341E+05-9.41709E+02 2.17558E+04 1.44864E-09-5.04078E-09
 -1        20-7.84975E+04-5.60893E+05-1.25746E+05 2.55220E+04-1.62466E-09 9.34597E-09
 -1        21-4.52786E+01-2.91706E+05-9.12330E+02 2.38121E+02 1.47766E-08-2.50261E-08
 -1        24 1.19808E+07 1.02238E+07 3.34845E+06 9.49726E+06-1.59402E-07-5.73539E-08
 -1        25 9.60451E+04 1.65468E+05 7.37548E+04-5.85940E+05 1.75669E-09 3.69928E-09
 -1        26-5.46590E+04 8.96876E+04-2.42607E+04 8.25460E+02 1.72440E-10 6.92326E-09
 -1        27-7.52661E+04-3.03343E+05-1.11251E+05 6.76428E+04 5.35222E-09 1.02536E-08
 -1        28 2.19721E+04-8.39069E+04 1.66453E+04 2.06157E+04-2.34482E-09 1.62199E-08
 -1        32-1.65372E+06-3.08009E+06-1.84625E+05 3.49922E+05-4.03597E-08-1.11604E-08
 -1        33-1.76469E+05 9.01852E+04 3.15691E+04-3.84934E+04-2.90576E-09 2.94888E-09
 -1        34-2.19461E+05-2.42566E+04 6.69430E+02 7.37226E+04-4.19076E-09 1.08366E-09
 -1        35-2.26187E+04-3.32874E+04-1.32471E+03 5.07599E+04-1.74600E-09 8.61595E-09
 -1        51 5.34963E+04-1.97562E+05 1.14641E+05-5.77727E+05 0.00000E+00 2.65034E-07
 -1        52 1.89140E+04-1.78599E+05 6.13088E+04-6.73655E+05 3.63798E-10 1.01398E-07
 -1        53 4.83275E+03-1.94009E+05 3.37915E+04-5.75666E+05 8.94943E-10-7.04385E-08
 -1        54 1.02104E+04-1.90122E+05 3.15148E+04-6.75748E+05-4.36557E-11 3.62816E-08
 -1        55 2.17237E+04-1.98888E+05 4.27241E+04-5.75438E+05 2.47383E-10 3.58577E-07
 -1        56-8.84164E+06-1.03603E+06-7.69616E+05-3.50178E+06 3.32657E-08-6.36501E-08
 -1        57-9.48410E+06-1.37811E+06-5.15711E+05-3.07583E+06 2.54004E-08 1.12137E-07
 -1        58-8.93423E+06-1.33168E+06-1.79809E+05-3.51373E+06-8.00355E-10 3.44153E-08
 -1        59-9.35776E+06-1.04757E+06-1.06740E+05-3.08828E+06-2.60329E-08-1.90210E-07
 -1        60-8.96955E+06-1.35532E+06-4.25596E+04-3.49501E+06 7.54335E-09-2.30699E-07
 -1        61-9.23519E+06-1.08852E+06-2.10997E+04-3.17665E+06 2.59070E-08 5.53546E-08
 -1        62-9.04733E+06-1.29566E+06-1.53451E+04-3.41898E+06 1.70621E-09 1.10265E-07
 -1        63-9.06075E+06-1.24206E+06-5.05175E+03-3.35133E+06 3.35094E-08 1.44176E-07
 -1        64-9.13663E+06-1.20666E+06-1.46108E+04-3.31520E+06-8.49468E-09 1.65837E-08
 -1        65-8.92126E+06-1.40070E+06-1.86613E+04-3.54084E+06-2.40834E-08-2.82440E-07
 -1        66-9.19373E+06-1.13244E+06-3.81969E+04-3.23454E+06-2.91730E-08 2.97350E-08
 -1        67-8.88226E+06-1.51447E+06-9.50907E+04-3.63894E+06-6.57656E-09 7.45822E-08
 -1        68-9.18546E+06-1.08750E+06-1.60268E+05-3.22342E+06-1.58070E-09-1.81768E-07
 -1        69-9.06197E+06-1.74166E+06-4.59570E+05-3.54910E+06-7.63976E-10-1.18212E-07
 -1        70-9.01236E+06-9.15593E+05-6.86555E+05-3.31940E+06 4.12620E-08-3.44589E-08
 -1        86-6.22461E+05-8.75353E+06-1.26203E+06-1.32813E+06-1.82297E-07-6.15910E-08
 -1        87 8.96518E+05 1.44233E+06 1.04830E+06 2.93277E+06-2.97183E-07-2.02711E-07
 -1        88-1.27307E+05-2.59928E+06 8.38351E+04-1.57614E+06-2.84776E-07 1.42406E-08
 -1        89 1.21474E+06 1.31029E+06 1.05073E+06 3.00819E+06-4.09391E-07-1.46450E-07
 -1        90-9.07400E+05-8.65200E+06-1.38949E+06-1.41015E+06-8.61946E-08-4.86616E-08
 -1       121-1.86110E+03-1.60492E+06-4.54763E+02 1.07547E+03 1.38890E-09 1.26565E-08
 -1       122-1.17021E+03-1.60047E+06 7.85245E+02-4.33683E+03-5.13069E-09-1.09721E-08
 -1       123-1.88757E+03-1.60505E+06 3.82650E+02 3.21142E+03 4.50098E-09-1.61235E-08
 -1       124 4.93197E+02-1.59997E+06 3.04645E+03-9.06105E+03-9.41554E-09 2.39397E-08
 -1       125-2.73082E+03-1.60596E+06 3.70601E+03 5.76033E+03 6.12090E-09-6.97037E-09
 -1       191-6.27635E+01 3.77093E+05 8.98139E+00 5.89248E-01-5.00361E-10-6.69388E-09
 -1       192-6.04299E+01 3.77073E+05 2.07407E+01-3.72426E+00-7.08487E-10 1.70985E-10
 -1       193-6.52167E+01 3.77093E+05 3.59895E+01 3.25971E+00-9.55410E-10-6.93399E-09
 -1       194-6.34136E+01 3.77076E+05 7.87637E+01-8.47743E+00-5.47757E-10 7.57973E-09
 -1       195-6.99261E+01 3.77091E+05 1.51473E+02 5.48202E+00-1.35273E-09 1.06375E-08
 -1       251-1.92502E+06 2.15208E+04-1.47902E+05 5.14988E+04 3.85808E-09 5.07061E-08
 -1       252-1.58368E+06-2.53330E+04-2.99372E+04-1.84907E+05-6.11180E-09 4.31319E-08
 -1       253-1.80312E+06-1.60096E+03-3.63574E+04 1.62000E+05-6.49379E-10 8.09905E-08
 -1       254-1.75350E+06 1.66006E+04-8.10183E+03-3.09294E+05 1.73616E-08 2.48790E-07
 -1       255-1.77282E+06-4.43877E+03-8.11824E+03 1.76775E+05-1.47538E-08 1.51313E-08
 -1       256-1.63217E+06 1.82938E+04 2.65245E+04-2.38627E+05-8.94624E-09 2.71367E-08
 -1       257-1.91365E+06-1.38084E+04-3.31155E+04 9.06728E+04-1.47120E-08 7.01457E-08
 -1       258-1.45767E+06 1.25849E+04 6.14797E+04-1.03018E+04-5.04183E-08-8.26661E-08
 -1       259-1.93094E+06-1.33550E+04-3.46030E+04-5.14443E+04-3.07227E-09-2.78732E-08
 -1       260-1.59291E+06 1.43060E+04 3.81350E+04 2.32064E+05-2.21653E-08-8.87078E-08
 -1       261-1.79110E+06-3.18406E+03-1.24938E+03-1.51018E+05-2.68742E-08 4.51341E-08
 -1       262-1.74447E+06 2.14502E+04 1.57728E+04 3.30616E+05-5.54394E-09 7.55972E-09
 -1       263-1.79392E+06-7.03722E+03 6.86034E+03-1.50505E+05-9.88030E-09 1.34770E-07
 -1       264-1.57639E+06 4.63629E+04 7.15147E+04 2.30775E+05-6.82530E-08 1.33480E-07
 -1       265-1.94456E+06-4.17994E+04 7.02789E+03-5.06705E+04-2.76505E-08 2.98342E-07
 -1       266-2.10634E+04-9.84971E+03 4.94185E+04-3.17199E+01 1.30967E-10 1.31148E-07
 -1       267 2.44182E+04 1.14793E+04 3.49294E+04 3.65998E+01-1.36424E-10-3.34956E-08
 -1       268-3.27443E+03-1.62583E+03 1.29830E+04-4.66337E+00-1.14596E-10-6.17577E-08
 -1       269 3.86614E+03 1.94573E+03 8.43882E+03 5.43221E+00-1.20394E-10-1.94971E-07
 -1       270-5.80311E+02-3.19699E+02 4.07354E+03-7.37186E-01-6.48015E-12 1.40522E-07
 -1       271-1.83305E+06-2.25464E+05-1.35236E+05-7.06471E+05-2.49483E-08 1.03355E-07
 -1       272-1.88840E+06-3.15297E+05-8.66878E+04-6.95499E+05-3.68263E-08-1.59889E-07
 -1       273-1.85959E+06-2.57950E+05-3.21264E+04-6.99137E+05-1.23073E-08-2.15332E-08
 -1       274-1.85624E+06-2.76538E+05-1.77341E+04-7.07458E+05-2.86809E-08-2.23806E-07
 -1       275-1.86471E+06-2.59818E+05-7.63831E+03-6.96244E+05-5.82259E-09-1.12763E-07
 -1       276-1.84905E+06-2.75583E+05-3.79365E+03-7.13027E+05 2.59461E-08 1.30821E-07
 -1       277-1.86705E+06-2.58255E+05-2.05490E+03-6.93972E+05-1.69239E-08 2.25552E-07
 -1       278-1.84544E+06-2.78595E+05-1.13485E+03-7.17581E+05 1.63272E-08 7.25665E-08
 -1       279-1.86877E+06-2.56484E+05-1.28952E+03-6.92026E+05-1.36351E-08 7.10406E-09
 -1       280-1.84297E+06-2.81759E+05-1.87486E+03-7.21439E+05 1.01268E-08 3.15351E-07
 -1       281-1.87001E+06-2.54795E+05-3.53426E+03-6.90456E+05-4.13302E-08 5.46374E-08
 -1       282-1.84255E+06-2.86342E+05-8.16972E+03-7.24240E+05 1.54978E-09 1.46340E-08
 -1       283-1.86969E+06-2.51815E+05-1.46145E+04-6.89476E+05 1.66574E-08-1.84193E-07
 -1       284-1.85390E+06-3.07788E+05-3.97115E+04-7.23418E+05-9.05948E-09-6.75341E-08
 -1       285-1.85932E+06-2.35113E+05-6.17290E+04-6.90816E+05-3.98795E-08-3.18432E-08
 -1       301 8.34229E+03-5.57908E+05 1.70847E+05-9.73021E+05 9.63337E-09 7.36327E-09
 -1       302 9.35599E+03-5.13635E+05 1.03410E+05-1.42191E+06 1.16415E-10-1.18269E-07
 -1       303-9.98348E+03-5.45737E+05 6.11077E+04-9.70544E+05-4.14730E-09-3.30110E-08
 -1       304-5.21560E+03-5.17713E+05 6.61670E+04-1.42111E+06-3.63798E-09 8.47685E-08
 -1       305-9.80387E+03-5.39328E+05 8.74479E+04-9.73483E+05 1.16415E-09-9.63337E-08
 -1       306-2.77931E+07-5.67688E+06-7.78111E+06-9.85682E+05-7.46222E-08 1.87720E-08
 -1       307 2.31480E+07 2.30414E+06 5.00435E+06-1.34384E+07-7.74395E-07-2.36032E-08
 -1       308-7.55216E+06-8.14325E+05-5.30375E+05 4.73317E+06-8.77480E-08 4.46613E-07
 -1       309-3.47061E+06 7.02435E+06 1.93560E+06-1.91956E+07 4.12794E-07 1.26489E-07
 -1       310-1.14660E+07-1.43060E+06-1.59375E+06 4.63762E+06 1.25496E-07-1.78523E-07
 -1       311 3.22338E+07-1.48944E+05 6.28484E+06-8.77192E+06 4.74858E-07-1.26020E-08
 -1       312-2.89946E+07-5.88923E+06-7.47486E+06-4.20183E+06-6.99656E-08 2.78451E-07
 -1       313 4.10710E+07 1.18599E+07 9.50469E+06 1.99974E+07-5.72472E-08 1.69908E-07
 -1       314-1.69370E+07-1.53041E+07-6.75412E+06-1.15517E+07 4.68281E-07 5.64032E-08
 -1       315-1.10986E+06 2.57988E+07 5.15076E+06 1.06086E+07-6.03453E-07 6.45232E-08
 -1       316 6.41039E+05-9.34476E+06-4.94573E+05-3.23179E+06-1.19828E-06-1.08994E-07
 -1       317-1.70880E+07 2.05127E+07 1.90022E+06-6.75227E+06 6.09514E-07-5.88177E-07
 -1       318-1.20428E+06-1.12237E+07-1.63859E+06-4.39686E+06-9.34844E-07 1.09896E-07
 -1       319 5.54018E+06 2.72881E+07 6.05467E+06 1.45030E+07-4.91927E-08 2.16678E-07
 -1       320-2.07436E+07-1.54665E+07-8.69105E+06-1.15676E+07 1.62167E-07-2.77942E-08
 -1       336-4.97013E+02-1.73738E+06-1.38094E+04 8.74907E+03-2.52221E-08-9.00036E-09
 -1       337-5.33441E+03-1.73744E+06-1.79823E+04-2.11947E+04-4.70852E-08-8.11087E-09
 -1       338 4.41486E+02-1.73691E+06-2.80283E+04 1.22283E+04-3.26791E-08-1.72076E-09
 -1       339-2.97508E+04-1.75429E+06-6.34341E+04-2.79936E+04-5.92827E-08 2.13513E-08
 -1       340 1.97579E+04-1.72256E+06-9.97809E+04 1.54273E+04-4.02651E-08 3.41061E-08
 -1       406-3.38537E+01 3.77076E+05 6.27218E+02 2.74661E+00-1.71234E-09-2.61571E-09
 -1       407 1.64307E+02 3.77204E+05 1.33887E+03 2.11601E+01-3.18330E-10-1.57697E-08
 -1       408 6.31757E+02 3.76979E+05 2.67050E+03-2.42921E+01-2.27965E-09-1.94086E-09
 -1       409 2.83992E+03 3.78057E+05 6.01757E+03 2.57053E+02-4.38263E-10-7.11225E-09
 -1       410 8.25909E+03 3.76212E+05 1.22822E+04-2.47356E+02-2.64299E-09-7.75981E-09
 -1       521-2.93245E+07-6.96756E+06-9.07278E+06-6.56513E+05-9.19681E-08-1.19850E-07
 -1       522 2.38997E+07 3.03585E+06 5.08297E+06-1.66182E+07-4.42669E-07-4.49712E-07
 -1       523-8.25997E+06-1.09744E+06-5.38698E+05 5.17220E+06 4.61587E-08-2.44865E-07
 -1       524-6.68914E+06 9.61736E+06 2.09285E+06-2.21457E+07 6.30651E-07-3.36244E-07
 -1       525-1.23776E+07-1.94841E+06-1.75003E+06 5.06774E+06 6.47618E-07-1.54745E-07
 -1       526 3.49791E+07-2.03908E+05 6.59880E+06-1.12726E+07 5.80389E-07 4.59549E-08
 -1       527-3.07592E+07-7.38057E+06-8.59306E+06-4.08813E+06 5.13392E-08 3.13448E-08
 -1       528 4.48320E+07 1.30442E+07 9.90808E+06 2.26358E+07-6.90925E-08-3.75730E-08
 -1       529-1.79312E+07-1.72855E+07-7.73094E+06-1.16973E+07 2.91097E-07-2.02330E-07
 -1       530-3.41801E+06 3.00067E+07 5.44245E+06 1.04611E+07-2.13840E-07 6.62170E-07
 -1       531 5.80975E+05-1.04601E+07-4.88036E+05-3.33398E+06-6.28832E-07 3.89293E-07
 -1       532-1.99345E+07 2.26899E+07 2.07928E+06-1.03715E+07 3.72267E-07-6.55826E-07
 -1       533-1.27391E+06-1.23645E+07-1.73159E+06-4.39328E+06-3.54892E-07-8.90112E-07
 -1       534 3.56839E+06 3.16560E+07 6.29883E+06 1.50173E+07-2.09839E-08 6.61705E-07
 -1       535-2.18835E+07-1.75903E+07-9.92567E+06-1.17120E+07 9.80217E-08 4.36790E-07
 -1       536-6.81433E+05-4.59755E+04-3.73684E+04-5.12710E+04-1.62754E-09 6.83813E-08
 -1       537-7.89807E+04 4.45036E+04 8.21536E+04 1.17333E+05-1.02561E-07 1.00753E-07
 -1       538-3.93374E+05 2.64416E+03 5.07598E+03-6.89151E+04 4.19154E-08 1.03547E-07
 -1       539-2.77937E+05 2.99601E+03 2.39408E+04 1.32035E+05 1.56048E-07 8.57805E-08
 -1       540-4.87434E+05-3.47265E+02-1.90570E+04-6.64441E+04 1.78416E-08 9.84944E-08
 -1       541 1.04761E+05 1.56281E+04 9.81316E+04 9.23420E+04-3.96528E-08 8.21127E-08
 -1       542-7.65769E+05-1.85806E+04-7.74962E+04-2.84531E+04 5.74501E-08 2.69437E-08
 -1       543 3.43017E+05 2.51919E+04 1.45446E+05-1.28017E+04-4.83669E-09-1.55273E-08
 -1       544-7.19310E+05-1.51951E+04-6.88497E+04 3.81088E+04-4.03156E-08-3.74101E-08
 -1       545-4.36001E+03 8.59902E+03 7.31540E+04-1.07682E+05-4.31618E-08-5.47454E-08
 -1       546-4.27706E+05 5.72880E+03-1.13386E+04 6.61253E+04-2.41535E-08-8.89623E-08
 -1       547-2.94966E+05-4.68179E+03 9.08878E+03-1.34813E+05-1.28874E-07-1.01814E-07
 -1       548-4.36501E+05 4.59966E+03-2.28731E+04 6.58477E+04-1.00798E-07-8.40832E-08
 -1       549 1.42045E+04 1.31006E+04 5.34728E+04-1.05388E+05-5.80172E-08-6.92012E-08
 -1       550-7.28600E+05-1.89640E+04-1.22190E+05 3.60685E+04 1.42045E-08-2.63208E-08
 -1       551 3.89766E+04-7.63967E+05-1.05911E+04-1.22808E+06-9.90403E-08 4.07454E-10
 -1       552 8.86692E+04-8.05618E+05 1.29540E+04-1.75125E+06-6.81321E-08 3.48737E-08
 -1       553 6.78720E+04-8.03051E+05 3.41245E+04-1.22171E+06-1.16692E-07 2.83326E-08
 -1       554 1.26283E+05-8.19540E+05 8.35858E+04-1.75320E+06-7.53498E-08 3.19178E-08
 -1       555 9.75671E+04-8.26195E+05 1.51912E+05-1.22166E+06-1.18707E-07-8.76753E-09
 -1       556 2.12622E+05-3.66946E+05 3.32464E+04-3.95524E+05-2.04018E-08-1.39698E-08
 -1       557 3.39529E+05-4.68336E+05 1.98134E+04-5.10861E+05-2.91038E-10 8.44193E-09
 -1       558 1.96228E+05-3.61830E+05 4.24790E+03-3.98334E+05-2.32831E-08 9.80799E-09
 -1       559 3.15403E+05-4.69718E+05 3.28636E+03-5.29850E+05 2.01399E-08 1.60326E-08
 -1       560 1.82141E+05-3.52981E+05-8.87346E+02-4.08436E+05 5.87897E-09 1.18962E-08
 -1       561 2.97601E+05-4.62665E+05 3.61595E+02-5.41939E+05-1.64437E-09 8.73297E-09
 -1       562 1.71007E+05-3.46046E+05-1.08763E+03-4.16488E+05-1.42754E-08 7.75617E-09
 -1       563 2.84385E+05-4.56903E+05 2.98504E+01-5.50558E+05-9.42964E-09-1.47120E-08
 -1       564 1.63095E+05-3.41112E+05-5.06877E+02-4.22092E+05 7.33417E-09-4.37103E-09
 -1       565 2.75682E+05-4.53114E+05 4.24907E+01-5.56115E+05 9.28776E-09 9.02946E-09
 -1       566 1.58521E+05-3.38217E+05-2.21475E+02-4.25291E+05-4.58385E-10-1.90430E-08
 -1       567 2.71536E+05-4.51309E+05-3.28045E+02-5.58623E+05 2.15296E-08 2.68155E-08
 -1       568 1.57370E+05-3.37514E+05-1.03890E+03-4.26193E+05-8.45648E-09-5.63887E-10
 -1       569 2.70610E+05-4.51252E+05-2.62606E+03-5.57129E+05-1.36715E-08 1.25328E-08
 -1       570 1.60694E+05-3.40634E+05-5.76058E+03-4.25227E+05 9.32778E-09 2.69883E-08
 -1       571 2.83961E+05 1.02797E+04 1.47212E+04-9.12958E+04 4.98130E-09-2.32512E-09
 -1       572 2.86100E+05 3.84510E+03 7.21437E+03-1.00161E+05 6.98310E-09-1.14023E-08
 -1       573 2.84811E+05 1.18272E+03 3.20554E+03-9.11243E+04 2.32194E-09 1.72740E-08
 -1       574 2.85027E+05 6.68719E+02 1.60743E+03-1.00377E+05 1.52068E-09 1.40117E-08
 -1       575 2.84904E+05 3.98837E+02 7.58617E+02-9.11009E+04-7.11992E-10-9.22591E-09
 -1       576 2.84892E+05 4.05993E+02 3.88298E+02-1.00406E+05-1.11024E-08-4.97221E-09
 -1       577 2.84941E+05 3.42952E+02 1.93805E+02-9.10977E+04-8.04448E-09 1.07648E-08
 -1       578 2.84919E+05 3.70672E+02 1.11783E+02-1.00410E+05-7.05222E-09 1.41945E-08
 -1       579 2.85007E+05 3.09807E+02 7.67593E+01-9.10974E+04 6.28461E-09 1.17661E-08
 -1       580 2.85012E+05 3.24342E+02 8.87561E+01-1.00405E+05-5.48971E-09 1.68366E-08
 -1       581 2.85112E+05 2.56803E+02 1.34260E+02-9.11030E+04 1.02609E-08 4.69754E-09
 -1       582 2.85174E+05 2.92817E+02 2.72461E+02-1.00346E+05 6.38920E-09 4.28372E-09
 -1       583 2.85239E+05 3.03652E+02 5.23652E+02-9.11572E+04 1.20235E-08 3.75030E-09
 -1       584 2.85528E+05 7.29985E+02 1.18422E+03-9.98898E+04 2.62171E-08-2.37487E-08
 -1       585 2.85254E+05 1.73190E+03 2.39903E+03-9.15585E+04 1.02882E-08 5.62432E-09
 -1       586-3.36323E+03 1.12247E+05-2.99193E+03-2.45900E+05-3.89127E-09 1.09571E-08
 -1       587-1.26008E+03 1.11978E+05 6.76132E+02-2.70636E+05-5.84077E-09 2.14777E-09
 -1       588 4.50582E+02 1.11812E+05 4.60022E+03-2.45768E+05-3.56158E-09 2.13877E-08
 -1       589 5.02519E+03 1.14211E+05 1.20007E+04-2.70400E+05-4.74392E-09 1.73995E-08
 -1       590 1.62391E+04 1.10514E+05 2.52012E+04-2.46191E+05-3.64162E-09 2.50384E-08
 -1       591-7.18594E+04-1.55221E+04-2.18198E+04-3.08773E+04-6.60748E-09 4.62023E-09
 -1       592-7.57509E+04-1.90366E+04-1.18193E+04-3.44667E+04-2.81398E-09 2.41459E-09
 -1       593-7.40420E+04-1.39384E+04-4.91981E+03-3.24768E+04 3.01691E-10-8.84256E-09
 -1       594-7.27373E+04-1.58358E+04-2.45364E+03-3.45819E+04 4.50297E-09 4.45237E-09
 -1       595-7.42084E+04-1.39331E+04-1.12650E+03-3.25495E+04-1.75116E-09 6.53839E-09
 -1       596-7.25311E+04-1.56894E+04-5.72504E+02-3.45575E+04 6.66148E-09 3.45846E-08
 -1       597-7.42293E+04-1.39480E+04-3.11419E+02-3.25522E+04 3.05477E-10 1.00589E-08
 -1       598-7.25107E+04-1.56837E+04-2.49746E+02-3.45506E+04-2.83080E-10-1.19491E-08
 -1       599-7.42280E+04-1.39485E+04-3.18275E+02-3.25519E+04 1.05126E-09 5.18821E-09
 -1       600-7.25311E+04-1.56900E+04-5.90655E+02-3.45555E+04-2.64527E-09-3.30533E-09
 -1       601-7.42041E+04-1.39344E+04-1.16492E+03-3.25485E+04 5.46311E-09-6.10748E-09
 -1       602-7.27443E+04-1.58403E+04-2.53866E+03-3.45770E+04-5.94355E-10-2.29302E-08
 -1       603-7.40292E+04-1.39427E+04-5.09098E+03-3.24740E+04-3.94175E-09 1.23837E-08
 -1       604-7.58799E+04-1.91333E+04-1.22297E+04-3.44335E+04-7.44535E-10 7.63976E-11
 -1       605-7.17511E+04-1.55989E+04-2.25775E+04-3.08379E+04-1.73543E-10 6.09271E-09
 -1       606 2.67937E+04-1.39659E+04-2.50407E+04 2.43625E+04 5.38239E-09-4.70345E-09
 -1       607 2.25146E+04-4.55869E+03-1.24701E+04 2.73748E+04 1.03591E-09-4.81123E-10
 -1       608 2.49524E+04-8.20036E+02-5.58259E+03 2.41884E+04-2.12640E-09 4.33738E-09
 -1       609 2.44839E+04-2.77777E+02-2.82012E+03 2.75918E+04 2.79761E-09 3.65617E-09
 -1       610 2.47428E+04-3.61745E+01-1.34563E+03 2.41679E+04 3.16140E-09-3.51724E-09
 -1       611 2.46683E+04-3.52430E+01-6.78454E+02 2.76153E+04 7.43785E-09 1.02259E-08
 -1       612 2.46958E+04-2.20963E+01-3.22651E+02 2.41658E+04 6.69297E-09 3.00133E-09
 -1       613 2.46784E+04-3.05929E+01-1.44669E+02 2.76180E+04 3.33239E-09-9.76706E-09
 -1       614 2.46732E+04-2.77708E+01-3.41879E+01 2.41651E+04 6.50471E-09 1.79487E-08
 -1       615 2.46723E+04-2.86247E+01 6.00444E+01 2.76185E+04 1.53705E-08-9.15725E-09
 -1       616 2.46556E+04-2.43006E+01 1.80588E+02 2.41653E+04 9.29913E-09-1.22232E-08
 -1       617 2.46934E+04 1.02826E+01 4.12256E+02 2.76180E+04 5.20913E-10 2.58706E-09
 -1       618 2.46193E+04 9.48700E+01 8.31039E+02 2.41656E+04-2.16278E-09 3.83557E-09
 -1       619 2.49863E+04 6.53109E+02 1.86622E+03 2.76173E+04-1.93836E-09 1.22577E-09
 -1       620 2.43430E+04 2.06572E+03 3.75106E+03 2.41668E+04 1.13573E-09 8.07631E-09
 -1       621 4.73295E+02 2.93599E+05 3.68463E+03 3.84044E+04 6.97128E-10 1.64027E-08
 -1       622 6.24228E+02 2.94455E+05 3.29811E+03 5.57663E+04 1.02045E-09 1.25583E-08
 -1       623 1.23527E+02 2.93784E+05 3.99992E+03 3.82301E+04 1.25999E-09 2.21007E-09
 -1       624 2.03914E+03 2.95655E+05 7.78399E+03 5.59381E+04 1.23043E-09-7.79255E-09
 -1       625 1.99953E+03 2.92240E+05 1.36165E+04 3.82272E+04 1.26693E-09 1.52202E-08
 -1       626 2.55085E+05 6.07534E+04 5.07647E+03 1.24802E+05 7.94216E-09-1.95923E-08
 -1       627 2.52749E+05 6.21767E+04 2.44631E+03 1.29080E+05 5.86124E-09-2.69846E-08
 -1       628 2.55214E+05 5.84274E+04 1.03451E+03 1.25660E+05-4.91946E-09-5.06361E-10
 -1       629 2.52114E+05 6.15069E+04 5.06350E+02 1.29322E+05-1.56056E-08 3.14134E-08
 -1       630 2.55228E+05 5.83153E+04 2.34862E+02 1.25696E+05-2.79942E-09 1.04723E-09
 -1       631 2.52046E+05 6.14819E+04 1.26358E+02 1.29324E+05 7.33553E-09-1.31656E-08
 -1       632 2.55224E+05 5.83196E+04 8.30933E+01 1.25691E+05 4.33738E-09-1.12418E-08
 -1       633 2.52037E+05 6.14841E+04 9.24748E+01 1.29319E+05 9.91304E-09 1.12432E-08
 -1       634 2.55218E+05 5.83172E+04 1.49360E+02 1.25690E+05-2.79726E-09-6.63567E-09
 -1       635 2.52051E+05 6.14826E+04 3.02179E+02 1.29324E+05-9.43874E-09-1.35342E-08
 -1       636 2.55209E+05 5.83118E+04 6.10222E+02 1.25690E+05-6.49652E-09-6.96400E-09
 -1       637 2.52183E+05 6.15776E+04 1.34167E+03 1.29324E+05-9.99603E-09-7.39010E-09
 -1       638 2.55161E+05 5.86083E+04 2.75664E+03 1.25556E+05-5.01177E-09-1.17484E-08
 -1       639 2.53631E+05 6.35912E+04 6.52226E+03 1.28897E+05 6.61748E-09 1.55374E-08
 -1       640 2.54962E+05 6.46215E+04 1.35348E+04 1.23021E+05 5.54519E-09 1.58027E-08
 -1       656 6.51993E+04-1.66760E+06-1.57389E+05-2.30017E+03-5.52973E-10-1.04361E-08
 -1       657-8.62502E+04-1.73871E+06-1.30380E+05 5.47784E+03-5.76620E-10-1.32539E-08
 -1       658 2.07809E+04-1.68780E+06-8.02900E+04-4.32026E+03-4.22233E-10-2.01207E-08
 -1       659-9.32441E+04-1.74203E+06-1.39571E+05 7.13420E+03-8.57654E-10-1.10018E-08
 -1       660 7.21776E+04-1.66429E+06-1.73190E+05-3.95651E+03-2.58296E-09 1.86386E-08
 -1       661 1.59504E+05 1.67480E+04 1.66958E+04 6.23574E+04-3.33966E-09-1.44246E-09
 -1       662 1.68900E+05 2.91544E+04 1.12517E+04 5.86609E+04-2.40470E-09-8.02538E-09
 -1       663 1.62784E+05 2.21043E+04 3.93518E+03 6.14059E+04-1.86390E-09 9.34847E-09
 -1       664 1.65099E+05 2.28903E+04 2.35397E+03 5.98231E+04 5.20657E-10 2.35457E-09
 -1       665 1.63281E+05 2.28362E+04 9.28630E+02 6.12610E+04 3.63235E-09-1.01857E-08
 -1       666 1.64511E+05 2.20532E+04 5.43455E+02 6.00119E+04 9.44377E-09 1.36858E-08
 -1       667 1.63368E+05 2.29196E+04 2.88718E+02 6.12249E+04 1.96059E-09-4.45596E-10
 -1       668 1.64415E+05 2.19930E+04 2.94315E+02 6.00645E+04-4.11990E-09-9.39593E-09
 -1       669 1.63376E+05 2.28946E+04 3.98571E+02 6.12088E+04-2.87113E-09 1.33920E-09
 -1       670 1.64512E+05 2.22093E+04 8.67996E+02 6.00673E+04-8.93988E-09 4.85086E-09
 -1       671 1.63271E+05 2.27078E+04 1.54123E+03 6.12200E+04-1.75486E-09-5.86226E-09
 -1       672 1.65410E+05 2.37088E+04 3.94322E+03 5.98498E+04 6.87083E-09 4.37058E-09
 -1       673 1.62482E+05 2.14331E+04 6.60821E+03 6.14118E+04 2.79113E-09-1.40635E-08
 -1       674 1.71700E+05 3.43253E+04 1.88981E+04 5.80018E+04-4.51905E-10-4.59568E-09
 -1       675 1.57022E+05 1.23885E+04 2.80514E+04 6.29564E+04-2.63799E-09 1.68220E-08
 -1       676 2.37792E+01-2.91630E+05-1.09960E+03-1.19064E+02 8.27356E-11 5.58084E-09
 -1       677-2.91140E+02-2.91896E+05-2.01245E+03 2.37940E+02 7.19476E-09 1.41870E-08
 -1       678 1.95058E+02-2.91441E+05-3.55751E+03-1.18798E+02 2.67846E-09-1.36771E-08
 -1       679-3.55782E+03-2.94044E+05-8.45115E+03 2.36927E+02 7.95512E-09-1.10930E-08
 -1       680 2.12403E+03-2.89484E+05-1.36204E+04-1.16736E+02 2.03909E-09 1.49606E-08
 -1       771-3.02642E+06-7.25261E+05-1.53885E+05-1.43891E+06-3.20724E-08-2.71830E-08
 -1       772-2.95298E+06-8.10433E+05-7.94149E+04-1.53727E+06-2.20462E-08 7.38873E-09
 -1       773-3.05569E+06-7.02382E+05-4.03118E+04-1.45204E+06-1.22818E-08 1.43918E-08
 -1       774-2.94364E+06-7.93419E+05-1.80205E+04-1.56108E+06 1.99070E-08-1.04774E-09
 -1       775-3.07080E+06-6.91764E+05-1.33639E+04-1.45833E+06-4.56930E-09 8.33097E-09
 -1       776-2.95470E+06-7.90778E+05-5.01600E+03-1.57896E+06-1.69966E-08 2.19734E-09
 -1       777-3.08385E+06-6.82327E+05-5.86257E+03-1.46387E+06-3.46336E-09 5.28235E-09
 -1       778-2.96627E+06-7.88339E+05-1.66353E+03-1.59430E+06 6.86850E-09 8.57290E-09
 -1       779-3.09504E+06-6.74101E+05-2.91641E+03-1.46862E+06-1.23546E-08-5.99539E-09
 -1       780-2.97645E+06-7.86011E+05-4.84563E+02-1.60679E+06-1.11468E-08 9.02219E-10
 -1       781-3.10392E+06-6.67480E+05-1.12869E+03-1.47233E+06-3.24508E-08 1.94632E-10
 -1       782-2.98428E+06-7.84028E+05 4.10375E+02-1.61600E+06-3.77768E-08-4.69709E-09
 -1       783-3.11017E+06-6.62886E+05 6.41230E+02-1.47493E+06-5.32600E-09-1.96364E-08
 -1       784-2.98861E+06-7.82011E+05 2.64452E+03-1.62169E+06-1.82918E-08-7.10907E-09
 -1       785-3.11387E+06-6.60150E+05 4.66930E+03-1.47659E+06-3.43243E-08 4.96948E-09
 -1       786 1.22485E+05-9.64578E+03 2.23162E+04-2.97361E+02 3.82465E-09 5.19049E-09
 -1       787 1.32164E+05 1.11675E+04 1.57878E+04-1.13279E+02 7.16168E-09 8.82574E-09
 -1       788 1.26217E+05-1.51159E+03 5.77372E+03-2.63296E+02 3.00251E-09 2.39859E-08
 -1       789 1.27816E+05 1.74947E+03 3.62461E+03-1.65790E+02 3.61162E-10 1.76262E-08
 -1       790 1.26833E+05-2.35426E+02 1.46771E+03-2.44865E+02-2.53156E-09 5.80741E-09
 -1       791 1.27096E+05 2.72273E+02 8.48035E+02-1.97384E+02-4.06892E-09-3.24432E-09
 -1       792 1.26938E+05-3.54952E+01 3.60001E+02-2.31703E+02-4.29559E-09 8.74493E-09
 -1       793 1.26971E+05 3.76647E+01 1.80874E+02-2.22115E+02-2.25575E-09-6.11384E-09
 -1       794 1.26958E+05-9.65438E-01 4.98248E+01-2.20134E+02 4.32947E-09-3.67494E-09
 -1       795 1.26936E+05-2.48012E+01-4.95447E+01-2.46182E+02-6.48632E-09 1.12124E-08
 -1       796 1.26973E+05 2.69360E+01-1.47774E+02-2.07636E+02 2.70543E-09 1.33545E-08
 -1       797 1.26849E+05-2.01836E+02-4.09252E+02-2.74773E+02 4.91875E-09 2.03649E-08
 -1       798 1.27045E+05 1.75937E+02-6.65616E+02-1.91543E+02 1.78605E-09-5.94858E-09
 -1       799 1.26343E+05-1.29722E+03-1.83207E+03-3.14407E+02 4.87546E-09-1.99966E-08
 -1       800 1.27479E+05 1.12143E+03-2.59298E+03-1.68003E+02 1.07823E-10 1.40059E-08
 -1       801-1.34989E+05-9.33885E+06-1.28247E+06 1.25667E+06 8.76316E-08-5.47152E-08
 -1       802 6.35889E+05 4.91980E+06 1.92258E+06-1.53382E+06 2.43461E-07-3.97476E-08
 -1       803-4.76945E+05-1.30935E+07-1.69006E+06 7.98262E+05 7.43785E-08 2.66300E-08
 -1       804 2.47675E+05 1.70430E+06 1.35511E+06 6.25883E+05-1.12923E-07-9.04956E-08
 -1       805 1.76102E+05-6.13824E+06-2.56865E+05-8.97904E+05-4.69518E-08-5.77584E-08
 -1       806-3.06899E+05-5.90218E+04-2.27661E+04-1.21460E+05-1.11413E-09-7.34099E-09
 -1       807-3.08755E+05-5.54763E+04-1.12105E+04-1.26934E+05-5.57066E-10-1.61840E-08
 -1       808-3.07570E+05-5.10109E+04-4.75687E+03-1.25277E+05-1.03319E-09 5.64523E-09
 -1       809-3.06388E+05-5.23682E+04-2.32708E+03-1.27188E+05-2.89219E-09 5.30792E-09
 -1       810-3.07667E+05-5.07418E+04-1.06718E+03-1.25442E+05-6.13682E-09-6.91443E-09
 -1       811-3.06207E+05-5.22455E+04-5.30830E+02-1.27152E+05 3.71074E-10-1.52022E-08
 -1       812-3.07681E+05-5.07669E+04-2.68758E+02-1.25442E+05 1.88720E-09 8.64884E-09
 -1       813-3.06182E+05-5.22476E+04-1.75184E+02-1.27134E+05 2.18279E-09 1.59148E-08
 -1       814-3.07674E+05-5.07764E+04-1.74392E+02-1.25438E+05 1.34514E-09-4.05544E-09
 -1       815-3.06186E+05-5.22496E+04-2.81754E+02-1.27126E+05-4.80213E-09-1.62800E-10
 -1       816-3.07653E+05-5.07750E+04-5.34518E+02-1.25434E+05 3.51156E-09 8.30642E-09
 -1       817-3.06276E+05-5.22988E+04-1.14690E+03-1.27116E+05-2.71757E-09-5.47084E-09
 -1       818-3.07584E+05-5.09276E+04-2.33826E+03-1.25361E+05 5.59157E-09 9.37735E-09
 -1       819-3.07558E+05-5.36939E+04-5.50074E+03-1.26828E+05 1.68620E-09 1.41426E-08
 -1       820-3.07124E+05-5.49758E+04-1.11703E+04-1.23618E+05 1.20781E-09 2.25555E-10
 -1       821-3.74815E+05 2.05974E+04-4.78473E+04 1.84487E+03 1.25552E-08 6.10999E-09
 -1       822-3.94657E+05-2.38556E+04-3.37025E+04-3.79672E+03 4.22765E-09 1.22927E-08
 -1       823-3.82367E+05 3.24178E+03-1.23678E+04 2.88209E+03-1.06373E-08 3.12320E-09
 -1       824-3.85616E+05-3.74137E+03-7.75336E+03-4.45392E+03 2.50269E-09-1.70994E-08
 -1       825-3.83858E+05 5.03763E+02-3.23236E+03 2.50215E+03 1.67379E-08 6.68376E-09
 -1       826-3.83454E+05-5.69567E+02-1.77757E+03-2.49296E+03 2.16787E-08-1.80177E-08
 -1       827-3.84511E+05 5.87492E+01-1.12459E+03 9.21030E+02 9.94325E-09-1.13304E-08
 -1       828-3.82922E+05-1.46293E+02-6.69481E+02 1.00554E+03-9.35785E-10 4.05591E-09
 -1       829-3.84381E+05 7.40592E+01-1.12074E+03-9.96384E+02 1.58515E-09 1.82106E-08
 -1       830-3.83739E+05-6.16644E+02-1.90279E+03 4.12110E+03 2.47877E-09 2.52536E-08
 -1       831-3.83710E+05 5.41599E+02-3.32337E+03-2.19455E+03-3.28696E-09-4.64775E-09
 -1       832-3.85703E+05-3.90421E+03-8.06114E+03 5.14089E+03-3.87020E-09-2.37396E-08
 -1       833-3.82430E+05 3.36731E+03-1.28736E+04-2.01621E+03-3.88741E-09-1.16843E-08
 -1       834-3.94799E+05-2.47849E+04-3.49633E+04 3.47531E+03-3.15922E-09 1.46338E-08
 -1       835-3.74603E+05 2.13945E+04-4.97437E+04-5.28918E+02 5.21410E-09 2.03509E-08
 -1       836-1.37216E+03 3.60908E+05 2.23156E+04-1.59585E+04-6.24550E-09-7.79255E-09
 -1       837 4.76755E+03 3.67893E+05 1.89116E+04-3.25445E+04-6.81052E-09 6.78710E-09
 -1       838-5.41026E+02 3.62862E+05 1.93084E+04-1.58876E+04-5.62068E-09 2.58037E-08
 -1       839 1.21778E+04 3.73412E+05 3.65650E+04-3.25970E+04-6.05723E-09 2.12872E-08
 -1       840-3.75771E+03 3.55330E+05 5.83250E+04-1.59109E+04-5.50426E-09 9.29271E-09
 -1       856-5.44890E+04 7.98936E+03-2.10538E+04-3.98213E+02 2.99872E-09-1.51267E-08
 -1       857-6.31650E+04-9.38554E+03-1.44934E+04 5.54598E+03 2.11890E-09 1.24192E-08
 -1       858-5.79241E+04 1.12033E+03-5.46301E+03-4.22078E+02 1.94768E-09 2.30534E-09
 -1       859-5.92227E+04-1.31643E+03-3.29686E+03 5.58170E+03-1.62214E-09 2.66281E-08
 -1       860-5.84373E+04 1.56797E+02-1.38199E+03-4.33703E+02 7.21627E-10 8.62485E-10
 -1       861-5.86323E+04-1.85684E+02-7.60858E+02 5.59754E+03 3.20910E-09 6.41990E-10
 -1       862-5.85176E+04 2.11768E+01-3.17469E+02-4.37906E+02-1.73431E-09 1.16052E-09
 -1       863-5.85341E+04-2.05132E+01-1.18347E+02 5.59993E+03-2.36321E-09 1.30568E-08
 -1       864-5.85360E+04-4.62950E+00 4.09099E+01-4.36092E+02 2.82867E-10-1.08213E-09
 -1       865-5.84803E+04 5.78851E+01 2.40581E+02 5.58972E+03-1.04581E-09 1.05872E-08
 -1       866-5.85692E+04-5.72706E+01 4.87964E+02-4.27693E+02-2.92403E-10-4.60855E-09
 -1       867-5.82499E+04 4.73372E+02 1.20309E+03 5.56690E+03 1.96974E-09-3.40049E-09
 -1       868-5.87615E+04-4.12703E+02 1.99966E+03-4.13277E+02-2.52976E-09-1.21247E-09
 -1       869-5.67834E+04 3.43484E+03 5.32516E+03 5.52924E+03 7.55307E-10-1.30092E-08
 -1       870-6.00283E+04-2.93843E+03 7.72790E+03-3.89941E+02-3.24576E-09-7.74889E-10
 -1       871-5.42929E+03-1.98656E+04-1.90237E+04 1.27357E+05-3.38332E-09 3.30929E-08
 -1       872-1.98898E+03-2.42756E+04-7.94797E+03 1.65134E+05-9.09858E-09 1.34060E-08
 -1       873 3.55336E+02-2.21504E+04 6.19884E+02 1.27077E+05-5.59885E-09 1.12858E-08
 -1       874 3.19859E+03-1.97625E+04 9.64846E+03 1.65166E+05-9.89712E-09 2.65827E-08
 -1       875 6.69985E+03-2.44478E+04 2.17316E+04 1.27310E+05-2.86673E-09 1.43154E-08
 -1       876 2.88471E+05 4.86656E+04 1.48384E+04 1.15820E+05 4.71300E-09 5.37511E-10
 -1       877 2.89450E+05 5.17927E+04 7.92427E+03 1.20077E+05 6.32417E-09-1.28289E-08
 -1       878 2.89858E+05 4.70222E+04 3.31989E+03 1.17036E+05-1.98906E-09-1.14842E-08
 -1       879 2.87433E+05 4.97798E+04 1.65416E+03 1.20177E+05 6.55405E-09-5.22914E-09
 -1       880 2.89958E+05 4.70052E+04 7.70496E+02 1.17085E+05 7.88259E-09 1.25422E-08
 -1       881 2.87299E+05 4.96937E+04 4.11466E+02 1.20154E+05 2.24065E-09 5.17500E-09
 -1       882 2.89967E+05 4.70181E+04 2.63258E+02 1.17087E+05-5.14137E-09 1.39281E-08
 -1       883 2.87289E+05 4.96892E+04 2.83049E+02 1.20147E+05 3.63798E-12 2.05450E-08
 -1       884 2.89960E+05 4.70154E+04 4.50300E+02 1.17087E+05-2.13856E-09-2.50674E-09
 -1       885 2.87325E+05 4.96955E+04 9.05375E+02 1.20158E+05-8.06494E-09 3.46722E-09
 -1       886 2.89925E+05 4.69889E+04 1.82476E+03 1.17084E+05-3.70698E-09-1.66574E-09
 -1       887 2.87646E+05 4.99058E+04 3.98594E+03 1.20204E+05 6.99481E-09-2.10616E-09
 -1       888 2.89673E+05 4.70333E+04 8.03180E+03 1.16956E+05-6.22248E-09 1.05456E-08
 -1       889 2.92427E+05 5.48783E+04 1.91865E+04 1.20057E+05-7.55839E-09-9.89621E-09
 -1       890 2.86396E+05 5.09266E+04 3.59358E+04 1.13899E+05-7.21047E-09-1.44246E-09
 -1       891-9.53570E+01-1.60059E+05-1.96009E+03 2.69141E+04-1.27147E-09-2.24577E-09
 -1       892-1.83817E+02-1.60572E+05-2.10606E+03 4.08568E+04 3.29533E-09 4.62273E-09
 -1       893 3.52627E+01-1.60122E+05-2.98284E+03 2.69212E+04-7.11225E-10 9.04447E-09
 -1       894-1.49549E+03-1.61700E+05-6.17403E+03 4.07061E+04 1.93040E-10-8.77799E-09
 -1       895-1.18612E+03-1.58835E+05-1.08727E+04 2.70662E+04-8.75389E-10-4.41105E-10
 -1       956-3.69977E+05-5.27016E+03-1.30383E+04 2.95196E+04 4.90218E-10-8.73592E-09
 -1       957-3.72537E+05-1.85011E+03-6.69249E+03 3.54840E+04-1.02882E-08-1.37265E-08
 -1       958-3.71147E+05-2.22748E+02-3.01576E+03 2.93584E+04-1.35014E-08 7.24708E-09
 -1       959-3.71339E+05-1.19831E+02-1.54001E+03 3.56709E+04-1.46520E-09 2.14495E-08
 -1       960-3.71261E+05-3.35682E+01-7.51046E+02 2.93419E+04 4.28463E-09 4.64979E-09
 -1       961-3.71260E+05-4.97943E+01-3.98455E+02 3.56903E+04 1.67074E-08-2.27228E-08
 -1       962-3.71286E+05-3.53062E+01-2.28527E+02 2.93391E+04 4.89899E-09 6.20071E-09
 -1       963-3.71260E+05-4.61183E+01-1.84193E+02 3.56938E+04-1.27511E-09-3.64798E-09
 -1       964-3.71291E+05-3.22105E+01-2.24863E+02 2.93384E+04 2.68507E-09-2.11662E-09
 -1       965-3.71271E+05-4.32500E+01-3.89640E+02 3.56931E+04-2.03494E-09-7.79119E-09
 -1       966-3.71276E+05-2.43437E+01-7.32485E+02 2.93398E+04 2.36901E-09-2.14686E-09
 -1       967-3.71360E+05-1.05267E+02-1.50253E+03 3.56793E+04-3.26008E-09 1.00513E-08
 -1       968-3.71175E+05-2.02951E+02-2.94143E+03 2.93520E+04-1.88766E-09 7.60195E-09
 -1       969-3.72540E+05-1.78827E+03-6.53004E+03 3.55369E+04 1.30694E-09 2.18512E-08
 -1       970-3.70041E+05-5.12406E+03-1.27208E+04 2.94749E+04 9.54060E-10 1.43373E-08
 -1       971-3.39442E+05-1.70524E+03-9.21491E+03 1.52109E+04 2.52658E-09 4.67014E-09
 -1       972-3.41662E+05-1.25246E+03-5.01834E+03 2.10571E+04 3.31102E-09 2.52398E-08
 -1       973-3.40468E+05-5.68562E+01-2.24772E+03 1.50904E+04 5.47880E-09 4.03656E-09
 -1       974-3.40604E+05-7.39174E+01-1.16507E+03 2.11930E+04-2.53294E-10-1.80889E-08
 -1       975-3.40549E+05-1.24832E+01-5.82690E+02 1.50782E+04-3.31647E-09 1.70530E-10
 -1       976-3.40543E+05-2.46138E+01-3.36718E+02 2.12086E+04-1.42427E-09 2.79829E-09
 -1       977-3.40566E+05-1.17840E+01-2.45374E+02 1.50749E+04-8.86530E-10 1.02976E-08
 -1       978-3.40548E+05-1.84820E+01-2.88483E+02 2.12133E+04-5.26154E-09 6.51858E-09
 -1       979-3.40565E+05-3.45985E+00-4.64660E+02 1.50734E+04-3.99717E-09-1.26139E-08
 -1       980-3.40583E+05-1.54683E+01-8.97927E+02 2.12143E+04 2.00129E-09 1.90563E-08
 -1       981-3.40537E+05 1.89814E+01-1.73946E+03 1.50739E+04-1.50067E-10 7.76765E-09
 -1       982-3.40822E+05-1.43991E+02-3.59564E+03 2.12077E+04 1.53136E-10-5.02636E-09
 -1       983-3.40318E+05-9.24008E+01-6.98647E+03 1.50800E+04-5.91626E-09 3.26736E-09
 -1       984-3.44182E+05-3.79282E+03-1.56459E+04 2.11229E+04-7.87986E-09 8.89031E-09
 -1       985-3.37154E+05-5.20468E+03-2.87308E+04 1.51520E+04-8.45466E-09 2.44654E-09
 -3
    1PSTEP                        21          11           1          
  100CL  111 6.62109E-01         409                     0   11           1
 -4  DISP        4    1
 -5  D1          1    2    1    0
 -5  D2          1    2    2    0
 -5  D3          1    2    3    0
 -5  ALL         1    2    0    0    1ALL
 -1         1 2.73512E-03 0.00000E+00 0.00000E+00
 -1         2 1.26383E-03 1.87586E-26 0.00000E+00
 -1         3 3.42250E-04-1.97242E-27 1.32349E-23
 -1         5 1.76928E-04-8.47579E-27 0.00000E+00
 -1         8 2.72485E-03-3.91020E-07 0.00000E+00
 -1         9 2.71753E-03-2.21658E-04 0.00000E+00
 -1        10 3.10360E-04-3.36580E-06 0.00000E+00
 -1        12 1.78772E-04 8.08339E-07 4.13590E-25
 -1        15 2.71324E-03-4.12649E-07 0.00000E+00
 -1        16 2.79610E-03-2.23661E-04 0.00000E+00
 -1        17 2.11243E-04-7.68207E-06 0.00000E+00
 -1        18 1.82715E-04 3.44017E-05 0.00000E+00
 -1        19 1.84307E-04 1.61027E-06 0.00000E+00
 -1        20 1.84446E-04-9.85501E-06 0.00000E+00
 -1        21 1.83552E-04-2.53754E-05 3.30872E-24
 -1        24 3.05435E-05-1.18885E-05 0.00000E+00
 -1        25 1.93509E-04 3.46272E-05 0.00000E+00
 -1        26 1.94175E-04 2.22880E-06 0.00000E+00
 -1        27 1.91964E-04-1.34068E-05 0.00000E+00
 -1        28 1.91651E-04-2.59966E-05 0.00000E+00
 -1        32 0.00000E+00 0.00000E+00 0.00000E+00
 -1        33 2.03023E-04 2.98067E-06 0.00000E+00
 -1        34 2.00906E-04-1.34622E-05 0.00000E+00
 -1        35 1.98976E-04-2.63388E-05 0.00000E+00
 -1        51 2.73442E-03-8.29330E-08-1.65436E-24
 -1        52 2.73316E-03-1.47275E-07 0.00000E+00
 -1        53 2.73144E-03-2.08049E-07 3.30872E-24
 -1        54 2.72940E-03-2.67486E-07 8.27181E-25
 -1        55 2.72716E-03-3.27354E-07-2.48154E-24
 -1        56 2.72614E-03 1.16177E-05-5.29396E-23
 -1        57 2.70734E-03 4.72231E-05 0.00000E+00
 -1        58 2.68154E-03 9.93808E-05 0.00000E+00
 -1        59 2.65237E-03 1.59112E-04 0.00000E+00
 -1        60 2.62440E-03 2.16141E-04-1.05879E-22
 -1        61 2.60195E-03 2.60407E-04 0.00000E+00
 -1        62 2.58798E-03 2.84116E-04 0.00000E+00
 -1        63 2.58431E-03 2.81294E-04 0.00000E+00
 -1        64 2.59055E-03 2.50852E-04 0.00000E+00
 -1        65 2.60539E-03 1.94354E-04-5.29396E-23
 -1        66 2.62624E-03 1.18374E-04 0.00000E+00
 -1        67 2.65028E-03 3.14466E-05 0.00000E+00
 -1        68 2.67440E-03-5.57314E-05 0.00000E+00
 -1        69 2.69550E-03-1.32431E-04 5.29396E-23
 -1        70 2.71070E-03-1.89993E-04 0.00000E+00
 -1        86 1.35532E-03-6.87908E-06 0.00000E+00
 -1        87 1.61914E-03-4.37723E-05 0.00000E+00
 -1        88 1.97398E-03-1.07432E-04 0.00000E+00
 -1        89 2.33407E-03-1.73028E-04 1.32349E-23
 -1        90 2.61051E-03-2.13209E-04 0.00000E+00
 -1       121 3.41355E-04-5.43301E-07-1.32349E-23
 -1       122 3.38672E-04-1.08968E-06 0.00000E+00
 -1       123 3.34212E-04-1.64216E-06 0.00000E+00
 -1       124 3.27990E-04-2.20377E-06 0.00000E+00
 -1       125 3.20029E-04-2.77715E-06 0.00000E+00
 -1       191 1.76979E-04 1.34787E-07 3.30872E-24
 -1       192 1.77133E-04 2.69562E-07 1.24077E-24
 -1       193 1.77389E-04 4.04317E-07-1.65436E-24
 -1       194 1.77748E-04 5.39040E-07-8.27181E-25
 -1       195 1.78209E-04 6.73718E-07-1.65436E-24
 -1       251 2.72455E-03 1.61124E-06-6.61744E-24
 -1       252 2.72423E-03 3.63977E-06 3.30872E-24
 -1       253 2.72392E-03 4.53298E-06 0.00000E+00
 -1       254 2.72361E-03 3.14373E-06 0.00000E+00
 -1       255 2.72329E-03-1.32173E-06 6.61744E-24
 -1       256 2.72294E-03-9.61778E-06 0.00000E+00
 -1       257 2.72256E-03-2.19062E-05 0.00000E+00
 -1       258 2.72211E-03-3.82977E-05 6.61744E-24
 -1       259 2.72161E-03-5.82687E-05 1.32349E-23
 -1       260 2.72104E-03-8.12497E-05 6.61744E-24
 -1       261 2.72043E-03-1.06205E-04-1.32349E-23
 -1       262 2.71980E-03-1.32075E-04-6.61744E-24
 -1       263 2.71917E-03-1.57659E-04 0.00000E+00
 -1       264 2.71857E-03-1.81756E-04 0.00000E+00
 -1       265 2.71803E-03-2.03402E-04 0.00000E+00
 -1       266 2.72292E-03-4.00041E-07 0.00000E+00
 -1       267 2.72098E-03-4.02985E-07 0.00000E+00
 -1       268 2.71905E-03-4.06315E-07 0.00000E+00
 -1       269 2.71711E-03-4.08504E-07-2.06795E-25
 -1       270 2.71518E-03-4.10667E-07-2.06795E-25
 -1       271 2.72416E-03-2.25996E-07 1.32349E-23
 -1       272 2.72456E-03-3.05339E-06 6.61744E-24
 -1       273 2.72600E-03-8.68657E-06 0.00000E+00
 -1       274 2.72840E-03-1.69244E-05 6.61744E-24
 -1       275 2.73166E-03-2.75432E-05 1.32349E-23
 -1       276 2.73570E-03-4.03033E-05 6.61744E-24
 -1       277 2.74042E-03-5.49470E-05 1.32349E-23
 -1       278 2.74572E-03-7.12030E-05-6.61744E-24
 -1       279 2.75149E-03-8.87876E-05 1.32349E-23
 -1       280 2.75763E-03-1.07407E-04 0.00000E+00
 -1       281 2.76404E-03-1.26758E-04 0.00000E+00
 -1       282 2.77059E-03-1.46533E-04 0.00000E+00
 -1       283 2.77718E-03-1.66423E-04 0.00000E+00
 -1       284 2.78370E-03-1.86113E-04 0.00000E+00
 -1       285 2.79004E-03-2.05295E-04 1.32349E-23
 -1       301 2.73179E-03-2.22030E-04-6.61744E-24
 -1       302 2.74430E-03-2.22352E-04 3.30872E-24
 -1       303 2.75604E-03-2.22661E-04 1.32349E-23
 -1       304 2.76794E-03-2.22970E-04 6.61744E-24
 -1       305 2.78098E-03-2.23295E-04 0.00000E+00
 -1       306 2.75596E-03-3.78598E-04 1.05879E-22
 -1       307 2.81983E-03-7.94411E-04-5.29396E-23
 -1       308 2.86648E-03-1.40005E-03 1.05879E-22
 -1       309 2.89082E-03-2.09901E-03 5.29396E-23
 -1       310 2.92299E-03-2.76556E-03-1.05879E-22
 -1       311 2.98302E-03-3.27681E-03 0.00000E+00
 -1       312 3.04021E-03-3.55275E-03 2.11758E-22
 -1       313 3.03318E-03-3.55654E-03 0.00000E+00
 -1       314 2.88823E-03-3.30115E-03-1.05879E-22
 -1       315 2.56516E-03-2.85164E-03 0.00000E+00
 -1       316 2.08341E-03-2.28469E-03-1.05879E-22
 -1       317 1.50976E-03-1.66926E-03 0.00000E+00
 -1       318 9.58790E-04-1.06549E-03-1.05879E-22
 -1       319 5.38384E-04-5.38185E-04 0.00000E+00
 -1       320 2.91943E-04-1.61483E-04 0.00000E+00
 -1       336 2.98794E-04-4.01677E-06 1.32349E-23
 -1       337 2.85155E-04-4.69335E-06-6.61744E-24
 -1       338 2.69503E-04-5.39777E-06-1.32349E-23
 -1       339 2.51912E-04-6.13089E-06 0.00000E+00
 -1       340 2.32461E-04-6.89716E-06 0.00000E+00
 -1       406 1.79439E-04 9.42882E-07-1.65436E-24
 -1       407 1.80208E-04 1.07731E-06 8.27181E-25
 -1       408 1.81079E-04 1.21158E-06-1.24077E-24
 -1       409 1.82053E-04 1.34550E-06 2.06795E-25
 -1       410 1.83129E-04 1.47882E-06 1.65436E-24
 -1       521 2.83509E-03-3.89967E-04-1.05879E-22
 -1       522 2.89710E-03-8.26800E-04-5.29396E-23
 -1       523 2.93700E-03-1.46156E-03 0.00000E+00
 -1       524 2.95163E-03-2.19078E-03 0.00000E+00
 -1       525 2.97553E-03-2.88550E-03 0.00000E+00
 -1       526 3.03193E-03-3.41994E-03 0.00000E+00
 -1       527 3.08877E-03-3.70689E-03-2.11758E-22
 -1       528 3.07928E-03-3.70861E-03 0.00000E+00
 -1       529 2.92148E-03-3.43819E-03 0.00000E+00
 -1       530 2.57285E-03-2.96909E-03 5.29396E-23
 -1       531 2.05373E-03-2.38196E-03 0.00000E+00
 -1       532 1.43766E-03-1.74839E-03-5.29396E-23
 -1       533 8.45122E-04-1.12580E-03-1.05879E-22
 -1       534 3.89621E-04-5.76591E-04 5.29396E-23
 -1       535 1.21020E-04-1.79503E-04 0.00000E+00
 -1       536 2.10489E-04 2.72121E-05 6.61744E-24
 -1       537 2.08574E-04 8.76095E-05-1.65436E-24
 -1       538 2.05614E-04 1.64248E-04 3.30872E-24
 -1       539 2.02122E-04 2.47783E-04 0.00000E+00
 -1       540 1.98980E-04 3.26718E-04 0.00000E+00
 -1       541 1.96938E-04 3.89580E-04-1.65436E-24
 -1       542 1.95995E-04 4.29618E-04 0.00000E+00
 -1       543 1.95770E-04 4.40231E-04 0.00000E+00
 -1       544 1.95448E-04 4.22193E-04 0.00000E+00
 -1       545 1.94276E-04 3.76496E-04 1.65436E-24
 -1       546 1.92094E-04 3.11264E-04 3.30872E-24
 -1       547 1.89139E-04 2.34740E-04 0.00000E+00
 -1       548 1.86211E-04 1.58592E-04 0.00000E+00
 -1       549 1.84098E-04 9.44902E-05 0.00000E+00
 -1       550 1.83001E-04 5.04598E-05 1.65436E-24
 -1       551 1.86069E-04-8.24847E-06 0.00000E+00
 -1       552 1.57653E-04-8.89520E-06 0.00000E+00
 -1       553 1.26934E-04-9.60411E-06-6.61744E-24
 -1       554 9.48723E-05-1.03542E-05 0.00000E+00
 -1       555 6.24243E-05-1.11180E-05 1.32349E-23
 -1       556 2.03603E-04 1.18530E-05 0.00000E+00
 -1       557 1.97431E-04 2.76956E-05 0.00000E+00
 -1       558 1.92593E-04 4.01336E-05 0.00000E+00
 -1       559 1.88955E-04 4.94770E-05 2.64698E-23
 -1       560 1.86388E-04 5.60365E-05 0.00000E+00
 -1       561 1.84764E-04 6.01251E-05 0.00000E+00
 -1       562 1.83957E-04 6.20572E-05 0.00000E+00
 -1       563 1.83845E-04 6.21480E-05 0.00000E+00
 -1       564 1.84305E-04 6.07137E-05 0.00000E+00
 -1       565 1.85216E-04 5.80711E-05 0.00000E+00
 -1       566 1.86459E-04 5.45376E-05 0.00000E+00
 -1       567 1.87915E-04 5.04310E-05 0.00000E+00
 -1       568 1.89466E-04 4.60691E-05 1.65436E-24
 -1       569 1.90994E-04 4.17700E-05-8.27181E-25
 -1       570 1.92380E-04 3.78515E-05 0.00000E+00
 -1       571 1.82811E-04 3.22727E-05-1.65436E-24
 -1       572 1.82910E-04 3.00782E-05 0.00000E+00
 -1       573 1.83009E-04 2.78340E-05 1.65436E-24
 -1       574 1.83108E-04 2.55563E-05 0.00000E+00
 -1       575 1.83208E-04 2.32616E-05 0.00000E+00
 -1       576 1.83307E-04 2.09664E-05 0.00000E+00
 -1       577 1.83407E-04 1.86871E-05 0.00000E+00
 -1       578 1.83506E-04 1.64403E-05 0.00000E+00
 -1       579 1.83606E-04 1.42425E-05-6.61744E-24
 -1       580 1.83706E-04 1.21101E-05 0.00000E+00
 -1       581 1.83805E-04 1.00597E-05 0.00000E+00
 -1       582 1.83906E-04 8.10770E-06 3.30872E-24
 -1       583 1.84006E-04 6.27069E-06 6.61744E-24
 -1       584 1.84106E-04 4.56491E-06 0.00000E+00
 -1       585 1.84207E-04 3.00651E-06 0.00000E+00
 -1       586 1.84472E-04 3.44414E-05 0.00000E+00
 -1       587 1.86188E-04 3.44805E-05-8.27181E-25
 -1       588 1.87907E-04 3.45193E-05 0.00000E+00
 -1       589 1.89671E-04 3.45574E-05 0.00000E+00
 -1       590 1.91525E-04 3.45943E-05 0.00000E+00
 -1       591 1.83444E-04 3.23664E-05-2.06795E-25
 -1       592 1.84177E-04 3.03117E-05 0.00000E+00
 -1       593 1.84915E-04 2.82433E-05 0.00000E+00
 -1       594 1.85655E-04 2.61658E-05 4.13590E-25
 -1       595 1.86397E-04 2.40841E-05-8.27181E-25
 -1       596 1.87139E-04 2.20026E-05-4.13590E-25
 -1       597 1.87879E-04 1.99261E-05-8.27181E-25
 -1       598 1.88615E-04 1.78593E-05-4.13590E-25
 -1       599 1.89346E-04 1.58067E-05 0.00000E+00
 -1       600 1.90070E-04 1.37730E-05 0.00000E+00
 -1       601 1.90785E-04 1.17629E-05-8.27181E-25
 -1       602 1.91489E-04 9.78085E-06 2.06795E-25
 -1       603 1.92182E-04 7.83165E-06 0.00000E+00
 -1       604 1.92861E-04 5.92000E-06-1.55096E-25
 -1       605 1.93525E-04 4.05045E-06 0.00000E+00
 -1       606 1.84321E-04 4.47287E-07 0.00000E+00
 -1       607 1.84330E-04-6.29911E-07 0.00000E+00
 -1       608 1.84339E-04-1.62636E-06 3.30872E-24
 -1       609 1.84347E-04-2.54773E-06 0.00000E+00
 -1       610 1.84356E-04-3.39977E-06 0.00000E+00
 -1       611 1.84364E-04-4.18825E-06 0.00000E+00
 -1       612 1.84372E-04-4.91898E-06 0.00000E+00
 -1       613 1.84380E-04-5.59778E-06 0.00000E+00
 -1       614 1.84389E-04-6.23043E-06-1.65436E-24
 -1       615 1.84397E-04-6.82276E-06 0.00000E+00
 -1       616 1.84405E-04-7.38056E-06 0.00000E+00
 -1       617 1.84414E-04-7.90965E-06 0.00000E+00
 -1       618 1.84422E-04-8.41583E-06 0.00000E+00
 -1       619 1.84430E-04-8.90492E-06 0.00000E+00
 -1       620 1.84439E-04-9.38271E-06 0.00000E+00
 -1       621 1.85665E-04 1.71394E-06 0.00000E+00
 -1       622 1.87182E-04 1.81784E-06 0.00000E+00
 -1       623 1.88826E-04 1.92152E-06 0.00000E+00
 -1       624 1.90561E-04 2.02488E-06 8.27181E-25
 -1       625 1.92356E-04 2.12794E-06-1.65436E-24
 -1       626 1.84855E-04 4.83512E-07 0.00000E+00
 -1       627 1.85381E-04-5.80129E-07 0.00000E+00
 -1       628 1.85886E-04-1.58852E-06 0.00000E+00
 -1       629 1.86373E-04-2.54983E-06 1.65436E-24
 -1       630 1.86846E-04-3.47228E-06-3.30872E-24
 -1       631 1.87307E-04-4.36409E-06 0.00000E+00
 -1       632 1.87760E-04-5.23348E-06-3.30872E-24
 -1       633 1.88208E-04-6.08868E-06-1.65436E-24
 -1       634 1.88654E-04-6.93792E-06-3.30872E-24
 -1       635 1.89100E-04-7.78940E-06-1.65436E-24
 -1       636 1.89550E-04-8.65138E-06 0.00000E+00
 -1       637 1.90008E-04-9.53206E-06 0.00000E+00
 -1       638 1.90475E-04-1.04397E-05-1.65436E-24
 -1       639 1.90955E-04-1.13825E-05-8.27181E-25
 -1       640 1.91451E-04-1.23688E-05 1.65436E-24
 -1       656 1.85151E-04-1.04323E-05 6.61744E-24
 -1       657 1.86275E-04-1.10330E-05 0.00000E+00
 -1       658 1.87680E-04-1.16324E-05-1.32349E-23
 -1       659 1.89219E-04-1.22314E-05 6.61744E-24
 -1       660 1.90708E-04-1.28322E-05 0.00000E+00
 -1       661 1.84710E-04-1.03726E-05-8.27181E-25
 -1       662 1.85011E-04-1.09823E-05 0.00000E+00
 -1       663 1.85345E-04-1.16789E-05 0.00000E+00
 -1       664 1.85709E-04-1.24558E-05 0.00000E+00
 -1       665 1.86101E-04-1.33071E-05-1.65436E-24
 -1       666 1.86519E-04-1.42269E-05 0.00000E+00
 -1       667 1.86961E-04-1.52095E-05 0.00000E+00
 -1       668 1.87424E-04-1.62494E-05 0.00000E+00
 -1       669 1.87906E-04-1.73409E-05 0.00000E+00
 -1       670 1.88405E-04-1.84789E-05 8.27181E-25
 -1       671 1.88920E-04-1.96581E-05 0.00000E+00
 -1       672 1.89448E-04-2.08733E-05 0.00000E+00
 -1       673 1.89988E-04-2.21195E-05 0.00000E+00
 -1       674 1.90536E-04-2.33919E-05 0.00000E+00
 -1       675 1.91093E-04-2.46853E-05-2.06795E-25
 -1       676 1.84907E-04-2.54795E-05 0.00000E+00
 -1       677 1.86260E-04-2.55836E-05 0.00000E+00
 -1       678 1.87612E-04-2.56877E-05 0.00000E+00
 -1       679 1.88962E-04-2.57914E-05 1.65436E-24
 -1       680 1.90309E-04-2.58951E-05-1.65436E-24
 -1       771 1.85974E-05 1.48300E-05 0.00000E+00
 -1       772 8.54783E-06 3.67727E-05 0.00000E+00
 -1       773 3.04059E-07 5.41699E-05-5.29396E-23
 -1       774-6.25824E-06 6.72798E-05 0.00000E+00
 -1       775-1.12607E-05 7.63705E-05 0.00000E+00
 -1       776-1.48300E-05 8.17274E-05 2.64698E-23
 -1       777-1.70923E-05 8.36456E-05-5.29396E-23
 -1       778-1.81766E-05 8.24342E-05 2.64698E-23
 -1       779-1.82111E-05 7.84107E-05-5.29396E-23
 -1       780-1.73263E-05 7.19041E-05 0.00000E+00
 -1       781-1.56513E-05 6.32501E-05-5.29396E-23
 -1       782-1.33173E-05 5.27934E-05 0.00000E+00
 -1       783-1.04540E-05 4.08832E-05 0.00000E+00
 -1       784-7.19296E-06 2.78748E-05 0.00000E+00
 -1       785-3.66426E-06 1.41268E-05 0.00000E+00
 -1       786 1.93546E-04 3.23715E-05-6.46235E-27
 -1       787 1.93587E-04 3.01666E-05 4.13590E-25
 -1       788 1.93628E-04 2.80041E-05-8.27181E-25
 -1       789 1.93670E-04 2.58758E-05 0.00000E+00
 -1       790 1.93711E-04 2.37769E-05 0.00000E+00
 -1       791 1.93753E-04 2.17027E-05 8.27181E-25
 -1       792 1.93795E-04 1.96507E-05-1.65436E-24
 -1       793 1.93837E-04 1.76188E-05 0.00000E+00
 -1       794 1.93879E-04 1.56067E-05 1.65436E-24
 -1       795 1.93921E-04 1.36142E-05 0.00000E+00
 -1       796 1.93963E-04 1.16430E-05 0.00000E+00
 -1       797 1.94005E-04 9.69489E-06-8.27181E-25
 -1       798 1.94047E-04 7.77400E-06 0.00000E+00
 -1       799 1.94090E-04 5.88450E-06 0.00000E+00
 -1       800 1.94132E-04 4.03364E-06 0.00000E+00
 -1       801 1.47738E-04 3.11296E-05 0.00000E+00
 -1       802 9.33798E-06 1.94231E-05 2.64698E-23
 -1       803-1.08867E-04 9.81469E-06 0.00000E+00
 -1       804-9.64776E-05 6.83179E-06-2.64698E-23
 -1       805-3.18750E-05 2.68426E-06 0.00000E+00
 -1       806 1.94238E-04 3.23016E-05 0.00000E+00
 -1       807 1.94954E-04 3.00023E-05 0.00000E+00
 -1       808 1.95656E-04 2.77344E-05 3.30872E-24
 -1       809 1.96345E-04 2.55022E-05-1.65436E-24
 -1       810 1.97019E-04 2.33099E-05 0.00000E+00
 -1       811 1.97677E-04 2.11614E-05 1.65436E-24
 -1       812 1.98316E-04 1.90610E-05-3.30872E-24
 -1       813 1.98936E-04 1.70126E-05 0.00000E+00
 -1       814 1.99536E-04 1.50202E-05 0.00000E+00
 -1       815 2.00112E-04 1.30880E-05-8.27181E-25
 -1       816 2.00665E-04 1.12198E-05 1.65436E-24
 -1       817 2.01193E-04 9.41979E-06-8.27181E-25
 -1       818 2.01694E-04 7.69187E-06-3.30872E-24
 -1       819 2.02166E-04 6.04009E-06 1.65436E-24
 -1       820 2.02609E-04 4.46838E-06 1.65436E-24
 -1       821 1.94045E-04-1.66847E-07-1.65436E-24
 -1       822 1.93904E-04-3.78447E-06-1.65436E-24
 -1       823 1.93761E-04-8.17577E-06 0.00000E+00
 -1       824 1.93615E-04-1.28876E-05-1.65436E-24
 -1       825 1.93469E-04-1.73799E-05 3.30872E-24
 -1       826 1.93327E-04-2.11140E-05 0.00000E+00
 -1       827 1.93187E-04-2.37580E-05 3.30872E-24
 -1       828 1.93051E-04-2.49871E-05-1.65436E-24
 -1       829 1.92915E-04-2.48623E-05 3.30872E-24
 -1       830 1.92778E-04-2.34531E-05 1.65436E-24
 -1       831 1.92639E-04-2.11794E-05 0.00000E+00
 -1       832 1.92500E-04-1.84664E-05 0.00000E+00
 -1       833 1.92361E-04-1.58596E-05 0.00000E+00
 -1       834 1.92225E-04-1.39034E-05 1.65436E-24
 -1       835 1.92090E-04-1.29654E-05 8.27181E-25
 -1       836 1.95866E-04 2.35348E-06 0.00000E+00
 -1       837 1.97428E-04 2.48131E-06 0.00000E+00
 -1       838 1.98894E-04 2.60907E-06-3.30872E-24
 -1       839 2.00295E-04 2.73613E-06 0.00000E+00
 -1       840 2.01661E-04 2.86304E-06 8.27181E-25
 -1       856 1.91948E-04-1.44676E-05 0.00000E+00
 -1       857 1.91928E-04-1.53930E-05 0.00000E+00
 -1       858 1.91909E-04-1.62042E-05 0.00000E+00
 -1       859 1.91890E-04-1.69222E-05 0.00000E+00
 -1       860 1.91870E-04-1.75682E-05-4.13590E-25
 -1       861 1.91851E-04-1.81633E-05 2.06795E-25
 -1       862 1.91831E-04-1.87290E-05 4.13590E-25
 -1       863 1.91812E-04-1.92864E-05-2.06795E-25
 -1       864 1.91792E-04-1.98568E-05 8.27181E-25
 -1       865 1.91773E-04-2.04615E-05 4.13590E-25
 -1       866 1.91753E-04-2.11218E-05 8.27181E-25
 -1       867 1.91733E-04-2.18589E-05 0.00000E+00
 -1       868 1.91713E-04-2.26938E-05 8.27181E-25
 -1       869 1.91693E-04-2.36478E-05-4.13590E-25
 -1       870 1.91673E-04-2.47418E-05-8.27181E-25
 -1       871 1.93312E-04-1.34116E-05 0.00000E+00
 -1       872 1.94808E-04-1.34198E-05 0.00000E+00
 -1       873 1.96383E-04-1.34287E-05 0.00000E+00
 -1       874 1.97971E-04-1.34383E-05 2.32645E-25
 -1       875 1.99501E-04-1.34485E-05 6.20385E-25
 -1       876 1.92488E-04-1.44530E-05 0.00000E+00
 -1       877 1.92991E-04-1.54327E-05 0.00000E+00
 -1       878 1.93472E-04-1.63539E-05-3.30872E-24
 -1       879 1.93934E-04-1.72238E-05 0.00000E+00
 -1       880 1.94380E-04-1.80499E-05 0.00000E+00
 -1       881 1.94813E-04-1.88394E-05-1.65436E-24
 -1       882 1.95234E-04-1.95998E-05-3.30872E-24
 -1       883 1.95647E-04-2.03383E-05 0.00000E+00
 -1       884 1.96055E-04-2.10623E-05 3.30872E-24
 -1       885 1.96460E-04-2.17790E-05-1.65436E-24
 -1       886 1.96865E-04-2.24957E-05 0.00000E+00
 -1       887 1.97273E-04-2.32198E-05 0.00000E+00
 -1       888 1.97686E-04-2.39585E-05 0.00000E+00
 -1       889 1.98106E-04-2.47195E-05-1.65436E-24
 -1       890 1.98537E-04-2.55098E-05-1.65436E-24
 -1       891 1.93014E-04-2.60541E-05-1.65436E-24
 -1       892 1.94353E-04-2.61118E-05-8.27181E-25
 -1       893 1.95644E-04-2.61693E-05-1.65436E-24
 -1       894 1.96861E-04-2.62266E-05 8.27181E-25
 -1       895 1.97980E-04-2.62836E-05-4.13590E-25
 -1       956 2.02893E-04 1.66807E-06-1.65436E-24
 -1       957 2.02760E-04 4.45587E-07-8.27181E-25
 -1       958 2.02628E-04-6.97421E-07 0.00000E+00
 -1       959 2.02495E-04-1.77218E-06 0.00000E+00
 -1       960 2.02362E-04-2.78996E-06 3.30872E-24
 -1       961 2.02230E-04-3.76207E-06 1.65436E-24
 -1       962 2.02097E-04-4.69982E-06 0.00000E+00
 -1       963 2.01964E-04-5.61456E-06 0.00000E+00
 -1       964 2.01832E-04-6.51760E-06 0.00000E+00
 -1       965 2.01699E-04-7.42026E-06 0.00000E+00
 -1       966 2.01566E-04-8.33391E-06 0.00000E+00
 -1       967 2.01434E-04-9.26986E-06 1.65436E-24
 -1       968 2.01301E-04-1.02394E-05-6.61744E-24
 -1       969 2.01169E-04-1.12539E-05 0.00000E+00
 -1       970 2.01037E-04-1.23245E-05 0.00000E+00
 -1       971 2.00786E-04-1.45990E-05 0.00000E+00
 -1       972 2.00665E-04-1.56411E-05 0.00000E+00
 -1       973 2.00544E-04-1.65991E-05 0.00000E+00
 -1       974 2.00423E-04-1.74837E-05 0.00000E+00
 -1       975 2.00301E-04-1.83058E-05-3.30872E-24
 -1       976 2.00180E-04-1.90763E-05 0.00000E+00
 -1       977 2.00059E-04-1.98060E-05 0.00000E+00
 -1       978 1.99937E-04-2.05058E-05 0.00000E+00
 -1       979 1.99816E-04-2.11868E-05 0.00000E+00
 -1       980 1.99695E-04-2.18596E-05 0.00000E+00
 -1       981 1.99574E-04-2.25354E-05 3.30872E-24
 -1       982 1.99453E-04-2.32250E-05 0.00000E+00
 -1       983 1.99332E-04-2.39392E-05-3.30872E-24
 -1       984 1.99211E-04-2.46891E-05 0.00000E+00
 -1       985 1.99091E-04-2.54854E-05 0.00000E+00
 -3
    1PSTEP                        22          11           1          
  100CL  111 6.62109E-01         409                     0   11           1
 -4  STRESS      6    1
 -5  SXX         1    4    1    1
 -5  SYY         1    4    2    2
 -5  SZZ         1    4    3    3
 -5  SXY         1    4    1    2
 -5  SYZ         1    4    2    3
 -5  SZX         1    4    3    1
 -1         1-5.34089E+06-1.49697E+06-1.12537E+06-1.22997E+06 2.91038E-10 1.05938E-08
 -1         2 1.72233E+06 2.50249E+07 5.74916E+06 7.65604E+06 3.09374E-08 6.80739E-08
 -1         3-1.48188E+03-1.54256E+06 4.02448E+02-2.18499E+03-5.74737E-10 2.35741E-09
 -1         5-7.51225E+01 3.85974E+05 9.96539E+00-1.33836E+00-5.61769E-10 1.81590E-08
 -1         8-5.44072E+05-1.98763E+05-6.31890E+04-2.34575E+05 1.54614E-10 2.00122E-07
 -1         9 1.19345E+07 4.40964E+06 2.92936E+06-1.62870E+05-2.97790E-08-6.26547E-08
 -1        10-2.29458E+03-1.60745E+06-3.90638E+03-1.47876E+04-1.37261E-08-5.36064E-08
 -1        12-7.12102E+01 3.85995E+05 3.27587E+02-9.12545E+00-7.07679E-10 1.67456E-08
 -1        15 8.97421E+02 4.93178E+02 2.90088E+03 7.51024E-01-2.53152E-10-3.34981E-08
 -1        16 2.29172E+07-3.60131E+05 3.11200E+06-2.36769E+06 1.84130E-08 2.68299E-07
 -1        17 8.40605E+06 6.28614E+06 2.26865E+06 6.00968E+06 2.14379E-08 2.40980E-08
 -1        18 1.42150E+05 3.34656E+04 4.12335E+03-1.19476E+05 1.24098E-08 2.66346E-09
 -1        19 1.22322E+05 1.41455E+05-9.58993E+02 2.20393E+04 1.62781E-09-1.20344E-09
 -1        20-8.19529E+04-5.72649E+05-1.28508E+05 2.50403E+04-2.10548E-09 7.54638E-09
 -1        21-4.55063E+01-2.95631E+05-9.22526E+02 2.74639E+02 1.70435E-08-2.39303E-08
 -1        24 1.41530E+07 1.21587E+07 3.91270E+06 1.12554E+07-1.71160E-07-5.59958E-08
 -1        25 1.23352E+05 2.66239E+05 9.95071E+04-6.45820E+05-7.81802E-10 9.89876E-09
 -1        26-5.61533E+04 9.18469E+04-2.47709E+04 1.47482E+03-1.45883E-10 3.03680E-09
 -1        27-7.55407E+04-3.09357E+05-1.13195E+05 6.89645E+04 4.41772E-09 8.36826E-09
 -1        28 2.22112E+04-8.52672E+04 1.68783E+04 2.05369E+04-3.47498E-09-3.21212E-09
 -1        32-1.67872E+06-3.17961E+06-1.97789E+05 4.58194E+05-4.25134E-08-9.02139E-09
 -1        33-1.79763E+05 9.23426E+04 3.22465E+04-3.88352E+04-3.71854E-09-7.14438E-09
 -1        34-2.23398E+05-2.49067E+04 6.91001E+02 7.55112E+04-4.51830E-09-1.84264E-08
 -1        35-2.28945E+04-3.38232E+04-1.34723E+03 5.14345E+04-3.71402E-09 1.05732E-08
 -1        51 6.12659E+04-1.66443E+05 1.29380E+05-4.21053E+05-4.36557E-11 1.53734E-07
 -1        52 2.06503E+04-1.43718E+05 6.77255E+04-4.91107E+05 1.89175E-10 1.62676E-07
 -1        53 4.09519E+03-1.59015E+05 3.50016E+04-4.19625E+05 1.78261E-10-6.78556E-08
 -1        54 7.00870E+03-1.54788E+05 2.82261E+04-4.92491E+05-2.29193E-10-5.64196E-08
 -1        55 1.53139E+04-1.61545E+05 3.37053E+04-4.19557E+05 1.30967E-10 2.63935E-08
 -1        56-9.87096E+06-1.48332E+06-9.60497E+05-4.18602E+06 4.16185E-09 2.98023E-08
 -1        57-1.12914E+07-5.52949E+05-5.32107E+05-2.48720E+06 3.55067E-09 3.04979E-07
 -1        58-9.53299E+06-1.98973E+06-2.03723E+05-4.43528E+06 3.62415E-08 1.90339E-08
 -1        59-1.16484E+07 5.64246E+04-1.01971E+05-2.40659E+06-9.19645E-08 2.68774E-08
 -1        60-9.64671E+06-1.99106E+06-6.35661E+04-4.38337E+06 1.59635E-08-1.66634E-07
 -1        61-1.07409E+07-3.90285E+05 4.11373E+04-2.66495E+06 1.03173E-08 8.15053E-08
 -1        62-1.02261E+07-1.68833E+06-1.15557E+05-4.00218E+06-4.65661E-10-3.10691E-07
 -1        63-9.50830E+06-1.31993E+06 9.42053E+04-3.53118E+06 3.07773E-09-9.76434E-08
 -1        64-1.06990E+07-1.19082E+06-1.06768E+05-3.40644E+06 4.35102E-09 9.18953E-09
 -1        65-9.11352E+06-2.07937E+06 3.56273E+04-4.74641E+06-6.93908E-08 9.01441E-08
 -1        66-1.08231E+07-7.88365E+05-5.02930E+04-2.94144E+06 2.17260E-08-1.18300E-07
 -1        67-9.21478E+06-2.37550E+06-9.12842E+04-5.33608E+06-6.18238E-08-7.61665E-08
 -1        68-1.08030E+07-7.48711E+05-1.91504E+05-2.94005E+06-7.70306E-08-3.02418E-07
 -1        69-9.30760E+06-2.41560E+06-4.68627E+05-4.71715E+06-6.46251E-08-3.67312E-07
 -1        70-1.05363E+07-8.97949E+05-8.88103E+05-3.43989E+06 1.22091E-08-8.67294E-08
 -1        86-1.75832E+06-1.71931E+07-3.15133E+06-3.58454E+06-2.86040E-07-1.58267E-07
 -1        87 2.80868E+06 7.37969E+06 2.61914E+06 6.43807E+06-4.75142E-07-1.18278E-07
 -1        88-5.50957E+05-1.76069E+06 2.53031E+05-2.76699E+06-4.44441E-07 4.80113E-08
 -1        89 3.75662E+06 7.01503E+06 2.68782E+06 6.67046E+06-6.40299E-07-8.19709E-08
 -1        90-2.58976E+06-1.69200E+07-3.39497E+06-3.85572E+06-1.61570E-07 1.88244E-07
 -1       121-2.02968E+03-1.54744E+06-5.47009E+02 1.08292E+03 1.48557E-09-3.55067E-09
 -1       122-1.29829E+03-1.54262E+06 7.62347E+02-4.37432E+03-5.54208E-09 2.30648E-08
 -1       123-2.04952E+03-1.54757E+06 2.52554E+02 3.23439E+03 4.28827E-09-7.34872E-10
 -1       124 3.20357E+02-1.54218E+06 2.91937E+03-9.15923E+03-1.02200E-08-9.96079E-09
 -1       125-2.85060E+03-1.54846E+06 3.41831E+03 5.82205E+03 6.42467E-09-2.32576E-08
 -1       191-7.91652E+01 3.85992E+05 8.47426E+00 6.97846E-01-5.88775E-10 1.53777E-08
 -1       192-7.60846E+01 3.85974E+05 2.12659E+01-4.29513E+00-7.49594E-10 1.16343E-08
 -1       193-8.16977E+01 3.85991E+05 3.62055E+01 3.77281E+00-1.18454E-09 2.32394E-08
 -1       194-7.91692E+01 3.85978E+05 8.08433E+01-9.74809E+00-5.49167E-10 2.92812E-08
 -1       195-8.65585E+01 3.85989E+05 1.54777E+02 6.34361E+00-1.41304E-09 2.02344E-08
 -1       251-8.84302E+05 1.75252E+04-4.08906E+04-1.63420E+04-3.15710E-09-4.44561E-08
 -1       252-8.99696E+05-2.02880E+04-2.84357E+04 5.88735E+04 8.00452E-09-1.10373E-07
 -1       253-8.93562E+05 2.71047E+03-1.10432E+04-1.20114E+04-1.00461E-08-1.54847E-07
 -1       254-8.84113E+05-3.30163E+03-4.71995E+03 4.27912E+04 3.05192E-09-2.60054E-07
 -1       255-8.99112E+05 1.36843E+01-4.03965E+03-2.64661E+02-2.15550E-10-5.17058E-08
 -1       256-8.77023E+05-2.96095E+02 1.70910E+03 1.57746E+04-4.63024E-09-1.54811E-07
 -1       257-9.00045E+05-7.46272E+02-1.84192E+03 1.49885E+04 1.01086E-08-2.57238E-07
 -1       258-8.80423E+05 1.09848E+03 3.24317E+03-1.30702E+04-2.56094E-08 1.43471E-07
 -1       259-8.95999E+05-1.15495E+03 1.12050E+03 2.85757E+04 4.10319E-09 2.34450E-08
 -1       260-8.88950E+05 3.32787E+03 5.73916E+03-3.40550E+04-1.60055E-08 1.19084E-07
 -1       261-8.92341E+05-2.33634E+03 8.57807E+03 3.59966E+04 4.55076E-08-2.78442E-09
 -1       262-8.88646E+05 1.22027E+04 2.13777E+04-4.03093E+04-2.67690E-08-1.05872E-07
 -1       263-8.96643E+05-9.73108E+03 3.37639E+04 3.48441E+04 1.53578E-08-8.75407E-08
 -1       264-8.56889E+05 6.70124E+04 9.39147E+04-2.96557E+04 4.09709E-08-5.34183E-08
 -1       265-9.23476E+05-5.73787E+04 1.30027E+05 2.53245E+04 7.88668E-09 1.60704E-07
 -1       266-1.62465E+04-7.59773E+03 3.81149E+04-1.60681E+01 5.27507E-11 3.59767E-07
 -1       267 1.88339E+04 8.85400E+03 2.69411E+04 1.85412E+01 4.45198E-10-1.64491E-07
 -1       268-2.52560E+03-1.25404E+03 1.00138E+04-2.36237E+00 1.26875E-10 1.74838E-08
 -1       269 2.98198E+03 1.50075E+03 6.50890E+03 2.75191E+00-7.27596E-11 1.25447E-07
 -1       270-4.47596E+02-2.46584E+02 3.14194E+03-3.73450E-01 6.10498E-11 1.42047E-07
 -1       271-1.41546E+06-1.82184E+05-1.06905E+05-5.52154E+05 9.53878E-09-8.96616E-08
 -1       272-1.39882E+06-2.99726E+05-6.66274E+04-5.99941E+05 2.81816E-08-1.03324E-07
 -1       273-1.43836E+06-2.04048E+05-2.61198E+04-5.44067E+05-1.36242E-08 1.60184E-07
 -1       274-1.37346E+06-2.73170E+05-1.32888E+04-6.15851E+05 1.22018E-08-3.12502E-08
 -1       275-1.44404E+06-2.03115E+05-6.61834E+03-5.40170E+05-1.62254E-09 3.28582E-08
 -1       276-1.36842E+06-2.74403E+05-2.62479E+03-6.25209E+05 1.51558E-08 3.50918E-07
 -1       277-1.44697E+06-2.00217E+05-1.86205E+03-5.37352E+05 2.65318E-08 2.80230E-07
 -1       278-1.36667E+06-2.77642E+05-6.10539E+02-6.32061E+05-1.43791E-08 8.20075E-08
 -1       279-1.44883E+06-1.97923E+05-7.94638E+02-5.35406E+05 1.46974E-08 3.84725E-08
 -1       280-1.36594E+06-2.79976E+05-8.01422E+02-6.36472E+05-7.80333E-08-1.47309E-07
 -1       281-1.44980E+06-1.96555E+05-1.49378E+03-5.34349E+05 1.47402E-08 3.11450E-08
 -1       282-1.36632E+06-2.81838E+05-3.45694E+03-6.38168E+05-4.75811E-08 4.29887E-07
 -1       283-1.44937E+06-1.95578E+05-6.16469E+03-5.34278E+05 4.26003E-08 1.21952E-07
 -1       284-1.37190E+06-2.89664E+05-1.67700E+04-6.35938E+05-4.91063E-08-2.48423E-07
 -1       285-1.44392E+06-1.89833E+05-2.62960E+04-5.36006E+05 2.42262E-08-4.16112E-08
 -1       301-1.25491E+04-6.57438E+05 1.65944E+05-1.16234E+06 2.46073E-08-6.84522E-08
 -1       302-1.57567E+04-6.09271E+05 9.98860E+04-1.69582E+06-3.47063E-09 1.10420E-07
 -1       303-2.61874E+04-6.51222E+05 5.61511E+04-1.15908E+06 1.11613E-08 1.59280E-07
 -1       304-3.13140E+04-6.17441E+05 5.60042E+04-1.69535E+06 1.03610E-08 1.23011E-07
 -1       305-3.08051E+04-6.39741E+05 6.81864E+04-1.16215E+06 1.91940E-08 1.14655E-07
 -1       306-3.00125E+07-6.18143E+06-8.56688E+06-4.45714E+05-7.25267E-08 1.60071E-08
 -1       307 2.50028E+07 3.28814E+06 5.46422E+06-1.53244E+07-8.60469E-07-8.48668E-08
 -1       308-6.83481E+06-9.75154E+05-4.05574E+05 5.19056E+06-2.58384E-07 1.40426E-07
 -1       309-3.07408E+06 8.64392E+06 2.29555E+06-2.06954E+07 4.34928E-07 2.82424E-07
 -1       310-1.27795E+07-1.95676E+06-2.09801E+06 5.18876E+06-9.30158E-08-1.87865E-08
 -1       311 3.88900E+07-4.61826E+04 7.33991E+06-8.51942E+06 8.06293E-07-1.58703E-07
 -1       312-3.19546E+07-6.86899E+06-8.57322E+06-5.21661E+06 1.72295E-08-7.66886E-08
 -1       313 4.51384E+07 1.53664E+07 1.06772E+07 2.40409E+07-4.75673E-07-3.10101E-07
 -1       314-1.70061E+07-1.79060E+07-7.49981E+06-1.25037E+07 4.53030E-07-2.95695E-08
 -1       315-2.11615E+06 2.97901E+07 5.63347E+06 1.02636E+07-3.44502E-07 1.76893E-07
 -1       316 1.47725E+06-9.77584E+06-4.04505E+05-2.44608E+06-1.22430E-06-2.18948E-07
 -1       317-1.70459E+07 2.23980E+07 2.24624E+06-8.92124E+06 7.50268E-07-5.51510E-07
 -1       318-1.12176E+06-1.29000E+07-2.08833E+06-4.25688E+06-9.91975E-07 2.78640E-07
 -1       319 7.38730E+06 3.21125E+07 7.08741E+06 1.67417E+07 3.89991E-09 2.31666E-07
 -1       320-2.26588E+07-1.76824E+07-9.88611E+06-1.28405E+07 2.15834E-07-5.62577E-08
 -1       336-7.57391E+02-1.67516E+06-1.37151E+04 8.79641E+03-2.64172E-08-6.43922E-09
 -1       337-5.37109E+03-1.67465E+06-1.78834E+04-2.13822E+04-5.02105E-08 3.02043E-08
 -1       338 2.52440E+02-1.67465E+06-2.81838E+04 1.23355E+04-3.44971E-08 2.33194E-09
 -1       339-2.99148E+04-1.69171E+06-6.36748E+04-2.83187E+04-6.19339E-08 6.29370E-09
 -1       340 1.96714E+04-1.66025E+06-1.00320E+05 1.56026E+04-4.08872E-08 2.82016E-08
 -1       406-4.95397E+01 3.85974E+05 6.43216E+02 3.33317E+00-1.97943E-09 4.55657E-09
 -1       407 1.54679E+02 3.86109E+05 1.37459E+03 2.34058E+01-5.81309E-10-2.34104E-08
 -1       408 6.34033E+02 3.85874E+05 2.74083E+03-2.70590E+01-2.46268E-09-2.69938E-08
 -1       409 2.90271E+03 3.86984E+05 6.17757E+03 2.88776E+02-3.30147E-10 4.61478E-09
 -1       410 8.46737E+03 3.85085E+05 1.26082E+04-2.78435E+02-3.06864E-09-3.55067E-09
 -1       521-3.16775E+07-7.67294E+06-1.00640E+07-4.45990E+04-5.29690E-08 3.32773E-07
 -1       522 2.59957E+07 4.37954E+06 5.60464E+06-1.89146E+07-5.42495E-07-2.03931E-07
 -1       523-7.40467E+06-1.29786E+06-3.97084E+05 5.66093E+06 1.01514E-07-1.06913E-07
 -1       524-6.57279E+06 1.17994E+07 2.49922E+06-2.38463E+07 9.86911E-07-9.06297E-07
 -1       525-1.35934E+07-2.62368E+06-2.31969E+06 5.67083E+06 1.02940E-06-1.74477E-07
 -1       526 4.27217E+07-1.58084E+05 7.73850E+06-1.11848E+07 2.12051E-07 3.32744E-07
 -1       527-3.39366E+07-8.61015E+06-9.93368E+06-5.09577E+06 1.20373E-07 1.31055E-07
 -1       528 4.95100E+07 1.72684E+07 1.11910E+07 2.74989E+07 7.49133E-08-1.34081E-07
 -1       529-1.79780E+07-2.02254E+07-8.64331E+06-1.25664E+07 2.52679E-07-2.44821E-07
 -1       530-4.61010E+06 3.47743E+07 5.99465E+06 9.67186E+06-4.01633E-07 7.24103E-07
 -1       531 1.50222E+06-1.08709E+07-3.74905E+05-2.36213E+06-9.21544E-07 3.15486E-07
 -1       532-1.95260E+07 2.44637E+07 2.47113E+06-1.33484E+07 4.65167E-07-7.29167E-07
 -1       533-1.15586E+06-1.41125E+07-2.24049E+06-4.03631E+06-2.50002E-07-1.02143E-06
 -1       534 5.43559E+06 3.74946E+07 7.41560E+06 1.74103E+07-1.54832E-08 7.52974E-07
 -1       535-2.39203E+07-2.01889E+07-1.13943E+07-1.29570E+07 8.55653E-08 4.66069E-07
 -1       536-7.05736E+05-4.64616E+04-4.87037E+04-5.46418E+04-3.11547E-09 5.47161E-08
 -1       537-5.53094E+04 4.43637E+04 8.34517E+04 1.23782E+05-1.12326E-07 1.10258E-07
 -1       538-3.94398E+05 3.38099E+03 3.40123E+03-7.21716E+04 3.07449E-08 1.05657E-07
 -1       539-2.69190E+05 2.80300E+03 2.48021E+04 1.38679E+05 1.57894E-07 9.52094E-08
 -1       540-4.97231E+05-4.18212E+02-2.13388E+04-7.00728E+04 5.04315E-10 8.59857E-08
 -1       541 1.46195E+05 1.69482E+04 1.06273E+05 9.78779E+04-3.96733E-08 9.76097E-08
 -1       542-7.98590E+05-2.01181E+04-8.41779E+04-3.04966E+04 6.18388E-08 4.10670E-08
 -1       543 4.04697E+05 2.73032E+04 1.57837E+05-1.33544E+04 2.89638E-08-3.22984E-08
 -1       544-7.48800E+05-1.65240E+04-7.47790E+04 4.04907E+04 1.08321E-08-4.39211E-08
 -1       545 2.86193E+04 9.47519E+03 7.97418E+04-1.13566E+05 6.80075E-09-8.94925E-08
 -1       546-4.32612E+05 6.09198E+03-1.22211E+04 6.93692E+04 5.95812E-08-1.00702E-07
 -1       547-2.87225E+05-4.65607E+03 1.05713E+04-1.41521E+05-1.32520E-07-1.11257E-07
 -1       548-4.41447E+05 4.71810E+03-2.38706E+04 6.91357E+04-1.19966E-07-1.07210E-07
 -1       549 4.77943E+04 1.60464E+04 6.04493E+04-1.11426E+05-5.70772E-08-7.03867E-08
 -1       550-7.58667E+05-2.21122E+04-1.28896E+05 3.85591E+04 1.28366E-08-2.99333E-08
 -1       551 4.06255E+04-7.44955E+05-1.59596E+04-1.24502E+06-1.03260E-07-1.18162E-08
 -1       552 9.29615E+04-7.89827E+05 9.83666E+03-1.77516E+06-7.53207E-08 2.73576E-08
 -1       553 7.15488E+04-7.86267E+05 3.19310E+04-1.23838E+06-1.19486E-07 1.75496E-08
 -1       554 1.31699E+05-8.05720E+05 8.08442E+04-1.77712E+06-7.58446E-08 1.23691E-10
 -1       555 1.01257E+05-8.09913E+05 1.47670E+05-1.23821E+06-1.24412E-07-1.96160E-08
 -1       556 2.23530E+05-3.83434E+05 2.51655E+04-4.06866E+05-2.26137E-08-1.21363E-08
 -1       557 3.53866E+05-4.87681E+05 1.58404E+04-5.27272E+05 2.32831E-10 3.09956E-09
 -1       558 2.05292E+05-3.76139E+05 2.20036E+03-4.11362E+05-1.84809E-08-6.54836E-10
 -1       559 3.28957E+05-4.87681E+05 2.37751E+03-5.47695E+05 2.85218E-08-7.78527E-10
 -1       560 1.90006E+05-3.66553E+05-1.52998E+03-4.22376E+05 1.13796E-08-6.73754E-09
 -1       561 3.09759E+05-4.79993E+05 1.16440E+02-5.60787E+05-4.07454E-09-2.91038E-10
 -1       562 1.77921E+05-3.59046E+05-1.33102E+03-4.31126E+05 8.29459E-10-1.13068E-08
 -1       563 2.95406E+05-4.73735E+05-3.98310E+01-5.70161E+05 4.56930E-09-1.27238E-08
 -1       564 1.69297E+05-3.53673E+05-6.01225E+02-4.37237E+05 7.98900E-09 1.44109E-09
 -1       565 2.85886E+05-4.69589E+05 2.36835E+01-5.76244E+05 1.42609E-09 1.12032E-08
 -1       566 1.64256E+05-3.50484E+05-2.59015E+02-4.40764E+05-6.16274E-09-6.13181E-09
 -1       567 2.81259E+05-4.67576E+05-3.59798E+02-5.79054E+05 1.14032E-08 5.01313E-09
 -1       568 1.62887E+05-3.49646E+05-1.11936E+03-4.41817E+05-7.31234E-09 2.03836E-08
 -1       569 2.80140E+05-4.67499E+05-2.82780E+03-5.77627E+05-7.13226E-09 8.34552E-09
 -1       570 1.66281E+05-3.52872E+05-6.18501E+03-4.40802E+05 2.59024E-09-1.28211E-08
 -1       571 2.90469E+05 1.05081E+04 1.49895E+04-9.51751E+04 4.88035E-09 1.75146E-08
 -1       572 2.92641E+05 3.96136E+03 7.34605E+03-1.04418E+05 6.61385E-09-7.05859E-09
 -1       573 2.91332E+05 1.24673E+03 3.26410E+03-9.49992E+04 2.90129E-10 8.45830E-10
 -1       574 2.91546E+05 7.28217E+02 1.63692E+03-1.04642E+05 2.60638E-09 8.23729E-09
 -1       575 2.91426E+05 4.48849E+02 7.72593E+02-9.49751E+04-9.18746E-09 6.95309E-09
 -1       576 2.91410E+05 4.60170E+02 3.95589E+02-1.04672E+05-2.74897E-08 1.43064E-08
 -1       577 2.91466E+05 3.90549E+02 1.97525E+02-9.49718E+04-1.60226E-08 9.83891E-09
 -1       578 2.91441E+05 4.21905E+02 1.14208E+02-1.04676E+05-9.67884E-09-2.76304E-09
 -1       579 2.91538E+05 3.53658E+02 7.86085E+01-9.49715E+04 6.29552E-09-1.99079E-08
 -1       580 2.91543E+05 3.70692E+02 9.14966E+01-1.04671E+05-6.33008E-09-2.53349E-08
 -1       581 2.91653E+05 2.94949E+02 1.38453E+02-9.49774E+04 2.90311E-09-3.57250E-09
 -1       582 2.91719E+05 3.33507E+02 2.81639E+02-1.04609E+05 3.16322E-09 1.13860E-08
 -1       583 2.91793E+05 3.38359E+02 5.40727E+02-9.50341E+04 5.12955E-10 1.12559E-08
 -1       584 2.92096E+05 7.80046E+02 1.22360E+03-1.04132E+05 6.26460E-09 2.48383E-09
 -1       585 2.91818E+05 1.81040E+03 2.47789E+03-9.54537E+04-1.43882E-09 7.39601E-09
 -1       586-3.42937E+03 1.16829E+05-2.91983E+03-2.50704E+05-6.62249E-09-1.35485E-08
 -1       587-1.34223E+03 1.16581E+05 7.72113E+02-2.75920E+05-6.12272E-09 5.90012E-09
 -1       588 3.96966E+02 1.16388E+05 4.76429E+03-2.50567E+05-4.43833E-09 1.73568E-08
 -1       589 5.08791E+03 1.18865E+05 1.23568E+04-2.75685E+05-8.21092E-09-2.51748E-09
 -1       590 1.66239E+04 1.15054E+05 2.59209E+04-2.50999E+05-4.09273E-09 7.83075E-09
 -1       591-7.49290E+04-1.59262E+04-2.25182E+04-3.18875E+04-8.81755E-10 1.13023E-08
 -1       592-7.90323E+04-1.94662E+04-1.21976E+04-3.54925E+04 8.91930E-10 1.80444E-08
 -1       593-7.71807E+04-1.42926E+04-5.07726E+03-3.35389E+04 4.55940E-09-3.58500E-09
 -1       594-7.59234E+04-1.61616E+04-2.53215E+03-3.56098E+04 4.57592E-09 6.87149E-09
 -1       595-7.73524E+04-1.42872E+04-1.16249E+03-3.36139E+04 7.21457E-10 6.75820E-09
 -1       596-7.57106E+04-1.60104E+04-5.90703E+02-3.55844E+04 1.19784E-08-4.45311E-09
 -1       597-7.73739E+04-1.43026E+04-3.21121E+02-3.36167E+04 2.49122E-09-1.11791E-08
 -1       598-7.56896E+04-1.60045E+04-2.57164E+02-3.55773E+04-1.54080E-09 1.03974E-08
 -1       599-7.73727E+04-1.43032E+04-3.27275E+02-3.36164E+04 4.73528E-09 8.82233E-09
 -1       600-7.57106E+04-1.60109E+04-6.06994E+02-3.55823E+04 7.44865E-09-3.75093E-09
 -1       601-7.73481E+04-1.42887E+04-1.19696E+03-3.36129E+04 1.53454E-09-8.23252E-09
 -1       602-7.59297E+04-1.61654E+04-2.60838E+03-3.56045E+04-3.07409E-09-1.94939E-09
 -1       603-7.71685E+04-1.42971E+04-5.23074E+03-3.35365E+04-1.94154E-09-1.69848E-09
 -1       604-7.91502E+04-1.95500E+04-1.25654E+04-3.54586E+04 3.33648E-09 8.55994E-09
 -1       605-7.48287E+04-1.59980E+04-2.31973E+04-3.18548E+04 2.54056E-09 1.15779E-08
 -1       606 2.65766E+04-1.43240E+04-2.56780E+04 2.39668E+04 8.56016E-09-3.76758E-09
 -1       607 2.21891E+04-4.67823E+03-1.27875E+04 2.69337E+04 2.77123E-09-2.17028E-09
 -1       608 2.46897E+04-8.43979E+02-5.72455E+03 2.37983E+04-2.63753E-09 6.33190E-09
 -1       609 2.42104E+04-2.89186E+02-2.89189E+03 2.71475E+04 3.53612E-09 3.93084E-09
 -1       610 2.44762E+04-4.10247E+01-1.37975E+03 2.37783E+04 4.53201E-09 9.93418E-09
 -1       611 2.44010E+04-4.13160E+01-6.95661E+02 2.71706E+04 7.09542E-09 8.20637E-09
 -1       612 2.44292E+04-2.73418E+01-3.30701E+02 2.37762E+04 1.70712E-09 1.33059E-09
 -1       613 2.44126E+04-3.72461E+01-1.48168E+02 2.71733E+04 7.72116E-09 7.16614E-09
 -1       614 2.44070E+04-3.37756E+01-3.46766E+01 2.37755E+04 3.04863E-09 1.49041E-08
 -1       615 2.44074E+04-3.57726E+01 6.22632E+01 2.71738E+04-1.42018E-09-7.09838E-09
 -1       616 2.43897E+04-3.06658E+01 1.86558E+02 2.37758E+04-1.01409E-10-1.65405E-08
 -1       617 2.44298E+04 3.97066E+00 4.25580E+02 2.71733E+04-3.03316E-10-2.41928E-08
 -1       618 2.43527E+04 9.20111E+01 8.57804E+02 2.37761E+04 1.34150E-10-2.54340E-09
 -1       619 2.47327E+04 6.67218E+02 1.92625E+03 2.71727E+04-1.49134E-09 1.18612E-08
 -1       620 2.40679E+04 2.12609E+03 3.87171E+03 2.37777E+04-8.11610E-10 1.32477E-08
 -1       621 5.03955E+02 3.00707E+05 3.83057E+03 4.12586E+04 1.02409E-09-1.70985E-09
 -1       622 6.70833E+02 3.01589E+05 3.41547E+03 5.98999E+04 1.17552E-09-1.16211E-08
 -1       623 1.43579E+02 3.00895E+05 4.12377E+03 4.10721E+04 1.34992E-09-1.62290E-08
 -1       624 2.12452E+03 3.02810E+05 8.01079E+03 6.00833E+04 1.19377E-09-2.54770E-08
 -1       625 2.07544E+03 2.99304E+05 1.40060E+04 4.10691E+04 1.26420E-09-1.25165E-08
 -1       626 2.60805E+05 6.14425E+04 5.13599E+03 1.26755E+05 5.31327E-09-4.15821E-09
 -1       627 2.58484E+05 6.28396E+04 2.47499E+03 1.31036E+05 6.74618E-09-9.77946E-09
 -1       628 2.60933E+05 5.90928E+04 1.04674E+03 1.27628E+05 5.30963E-09-5.25915E-10
 -1       629 2.57847E+05 6.21572E+04 5.12313E+02 1.31277E+05 3.18732E-09-1.67847E-08
 -1       630 2.60947E+05 5.89793E+04 2.37730E+02 1.27665E+05 4.39695E-09 7.59428E-11
 -1       631 2.57780E+05 6.21312E+04 1.28018E+02 1.31278E+05 1.03744E-08 1.25005E-08
 -1       632 2.60944E+05 5.89832E+04 8.43874E+01 1.27661E+05 9.38235E-09-9.67225E-09
 -1       633 2.57772E+05 6.21330E+04 9.42375E+01 1.31275E+05 4.35921E-09-3.08889E-08
 -1       634 2.60939E+05 5.89804E+04 1.52490E+02 1.27660E+05 1.80066E-08-2.72707E-08
 -1       635 2.57786E+05 6.21313E+04 3.08686E+02 1.31280E+05 2.73498E-08 3.05135E-09
 -1       636 2.60930E+05 5.89746E+04 6.23452E+02 1.27660E+05 1.67447E-08 2.01680E-09
 -1       637 2.57921E+05 6.22282E+04 1.37087E+03 1.31280E+05-3.42652E-10-1.81344E-08
 -1       638 2.60882E+05 5.92774E+04 2.81661E+03 1.27523E+05 5.14774E-09-1.00822E-08
 -1       639 2.59401E+05 6.42856E+04 6.66426E+03 1.30844E+05 9.20772E-09 7.33348E-09
 -1       640 2.60677E+05 6.54224E+04 1.38295E+04 1.24935E+05 5.12455E-09 8.22934E-09
 -1       656 6.64586E+04-1.70095E+06-1.60429E+05-2.55670E+03-3.63798E-10-2.47110E-09
 -1       657-8.79222E+04-1.77345E+06-1.32911E+05 5.15881E+03-1.10231E-09-8.00628E-09
 -1       658 2.11878E+04-1.72154E+06-8.18648E+04-4.63552E+03-9.09495E-12 1.26799E-08
 -1       659-9.50951E+04-1.77685E+06-1.42338E+05 6.88726E+03-2.12276E-09-6.60352E-09
 -1       660 7.36156E+04-1.69755E+06-1.76635E+05-4.28513E+03-1.52068E-09 1.35643E-09
 -1       661 1.57825E+05 1.65111E+04 1.66513E+04 6.17000E+04 8.13088E-10-3.78805E-09
 -1       662 1.67250E+05 2.88312E+04 1.12219E+04 5.79512E+04-1.22583E-09-6.36828E-09
 -1       663 1.61095E+05 2.18531E+04 3.92468E+03 6.07507E+04-1.25465E-09-1.79755E-08
 -1       664 1.63458E+05 2.25842E+04 2.34780E+03 5.91108E+04-1.49393E-09-3.39652E-08
 -1       665 1.61592E+05 2.25827E+04 9.26196E+02 6.06059E+04 1.70542E-09-2.47193E-08
 -1       666 1.62871E+05 2.17499E+04 5.42191E+02 5.92997E+04 4.85588E-09 4.69414E-09
 -1       667 1.61679E+05 2.26656E+04 2.88227E+02 6.05695E+04 3.55263E-09-6.01332E-11
 -1       668 1.62775E+05 2.16904E+04 2.94230E+02 5.93525E+04-3.94714E-09-1.76756E-08
 -1       669 1.61687E+05 2.26406E+04 3.98799E+02 6.05533E+04-1.32241E-09-6.68015E-09
 -1       670 1.62872E+05 2.19070E+04 8.68809E+02 5.93554E+04-9.76743E-09-9.87482E-09
 -1       671 1.61582E+05 2.24536E+04 1.54278E+03 6.05647E+04 1.55102E-09 1.43176E-08
 -1       672 1.63771E+05 2.34078E+04 3.94728E+03 5.91374E+04 4.76960E-09 2.45832E-08
 -1       673 1.60792E+05 2.11777E+04 6.61505E+03 6.07568E+04 2.12844E-09 1.58743E-08
 -1       674 1.70067E+05 3.40356E+04 1.89177E+04 5.72876E+04-2.24884E-09-4.21664E-09
 -1       675 1.55326E+05 1.21235E+04 2.80805E+04 6.23028E+04-3.98450E-09 2.19734E-09
 -1       676 2.40778E+01-2.95553E+05-1.11189E+03-1.37324E+02-3.31028E-10-6.46327E-09
 -1       677-2.94118E+02-2.95822E+05-2.03494E+03 2.74427E+02 7.34181E-09-6.79175E-09
 -1       678 1.97271E+02-2.95362E+05-3.59728E+03-1.37013E+02 5.90262E-10-1.72661E-08
 -1       679-3.59733E+03-2.97994E+05-8.54564E+03 2.73242E+02 8.92419E-09-6.65653E-09
 -1       680 2.14782E+03-2.93383E+05-1.37726E+04-1.34626E+02-2.65572E-10-1.05213E-08
 -1       771-3.05851E+06-7.46740E+05-1.66388E+05-1.46445E+06-3.66708E-08-2.57860E-08
 -1       772-2.98149E+06-8.35668E+05-8.57985E+04-1.56726E+06-2.67755E-08 2.20898E-08
 -1       773-3.09005E+06-7.22154E+05-4.37109E+04-1.47904E+06-1.75787E-08 1.30822E-08
 -1       774-2.97191E+06-8.17059E+05-1.95075E+04-1.59302E+06 2.22353E-08-2.76486E-10
 -1       775-3.10650E+06-7.10617E+05-1.45744E+04-1.48610E+06-7.47968E-09 2.67028E-09
 -1       776-2.98426E+06-8.14012E+05-5.45319E+03-1.61251E+06-9.89530E-09 4.71482E-09
 -1       777-3.12077E+06-7.00319E+05-6.43346E+03-1.49233E+06 2.47383E-09 4.32192E-09
 -1       778-2.99716E+06-8.11183E+05-1.82005E+03-1.62926E+06 1.23400E-08 1.34169E-08
 -1       779-3.13303E+06-6.91321E+05-3.21308E+03-1.49764E+06-7.85803E-09-9.52423E-09
 -1       780-3.00852E+06-8.08486E+05-5.32958E+02-1.64290E+06-1.05356E-08 2.43745E-10
 -1       781-3.14279E+06-6.84068E+05-1.24742E+03-1.50180E+06-2.35304E-08-3.27054E-09
 -1       782-3.01727E+06-8.06196E+05 4.51050E+02-1.65296E+06-3.02971E-08-9.43510E-09
 -1       783-3.14965E+06-6.79028E+05 7.02912E+02-1.50472E+06 2.40834E-09-1.82586E-08
 -1       784-3.02211E+06-8.03908E+05 2.90896E+03-1.65918E+06-1.22272E-08-8.09723E-09
 -1       785-3.15372E+06-6.76020E+05 5.13588E+03-1.50657E+06-3.34621E-08 5.46424E-09
 -1       786 1.21216E+05-9.68258E+03 2.24015E+04-3.17531E+02 2.46153E-10-2.41107E-09
 -1       787 1.30932E+05 1.12102E+04 1.58482E+04-1.30155E+02 5.60447E-09 1.70921E-08
 -1       788 1.24962E+05-1.51728E+03 5.79570E+03-2.82579E+02 5.57095E-09 1.34003E-08
 -1       789 1.26568E+05 1.75620E+03 3.63827E+03-1.83767E+02-7.76200E-10-4.55066E-09
 -1       790 1.25581E+05-2.36232E+02 1.47292E+03-2.63936E+02-5.59454E-09 4.89649E-10
 -1       791 1.25845E+05 2.73265E+02 8.50424E+02-2.15670E+02-7.58134E-09-1.11272E-08
 -1       792 1.25686E+05-3.54589E+01 3.59773E+02-2.50678E+02-5.05279E-09 1.58441E-09
 -1       793 1.25719E+05 3.71513E+01 1.78040E+02-2.40554E+02-1.87911E-09 7.61388E-09
 -1       794 1.25706E+05-2.67046E-01 4.36201E+01-2.39052E+02 4.47435E-09 1.06415E-08
 -1       795 1.25681E+05-2.95206E+01-6.44530E+01-2.64700E+02-5.18200E-09-5.04328E-09
 -1       796 1.25723E+05 3.11757E+01-1.73694E+02-2.26532E+02 4.09685E-09-2.62840E-09
 -1       797 1.25581E+05-2.32685E+02-4.73334E+02-2.93301E+02 4.96533E-09 1.17083E-08
 -1       798 1.25806E+05 2.02745E+02-7.67726E+02-2.10451E+02 2.23024E-09 3.71418E-09
 -1       799 1.24999E+05-1.49464E+03-2.11129E+03-3.32987E+02 6.78625E-09-4.70664E-10
 -1       800 1.26306E+05 1.29210E+03-2.98765E+03-1.86847E+02 2.68946E-10-3.17630E-09
 -1       801-1.70695E+05-9.98973E+06-1.39206E+06 1.41350E+06 9.12696E-08-5.09426E-08
 -1       802 7.36987E+05 5.93864E+06 2.17872E+06-1.74470E+06 2.60567E-07-3.15631E-08
 -1       803-5.35959E+05-1.42543E+07-1.88850E+06 8.96656E+05 7.78964E-08 2.57205E-08
 -1       804 2.86714E+05 2.38830E+06 1.53523E+06 6.76813E+05-1.20959E-07-9.06512E-08
 -1       805 1.89270E+05-6.45350E+06-2.86444E+05-1.00234E+06-5.01823E-08-6.29307E-08
 -1       806-3.12933E+05-6.02827E+04-2.32469E+04-1.23967E+05-2.44881E-09 2.06364E-09
 -1       807-3.14809E+05-5.66819E+04-1.14473E+04-1.29581E+05-5.11136E-09 9.35472E-09
 -1       808-3.13620E+05-5.21006E+04-4.85733E+03-1.27862E+05 5.84350E-09-1.30464E-08
 -1       809-3.12391E+05-5.35089E+04-2.37622E+03-1.29841E+05 2.66373E-08-9.70908E-09
 -1       810-3.13719E+05-5.18259E+04-1.08973E+03-1.28031E+05 5.73164E-09 5.26052E-09
 -1       811-3.12206E+05-5.33838E+04-5.42063E+02-1.29804E+05-1.11959E-09 1.66006E-08
 -1       812-3.13733E+05-5.18516E+04-2.74500E+02-1.28030E+05 1.07138E-09 2.19870E-09
 -1       813-3.12180E+05-5.33859E+04-1.78991E+02-1.29784E+05 1.37188E-08-3.34330E-09
 -1       814-3.13726E+05-5.18615E+04-1.78317E+02-1.28026E+05 5.19412E-09-6.39284E-09
 -1       815-3.12184E+05-5.33880E+04-2.88158E+02-1.29777E+05-1.05283E-08-1.04490E-08
 -1       816-3.13704E+05-5.18602E+04-5.46762E+02-1.28022E+05-5.06407E-09-1.04874E-08
 -1       817-3.12276E+05-5.34384E+04-1.17311E+03-1.29766E+05-1.98315E-09 1.67338E-08
 -1       818-3.13633E+05-5.20166E+04-2.39175E+03-1.27947E+05-1.28421E-09-1.55624E-08
 -1       819-3.13587E+05-5.48652E+04-5.62645E+03-1.29470E+05 2.67755E-09 5.89057E-09
 -1       820-3.13161E+05-5.61583E+04-1.14256E+04-1.26165E+05 5.42968E-09 1.48541E-08
 -1       821-3.80169E+05 2.08846E+04-4.86546E+04 2.19929E+03 1.44665E-08-5.05679E-09
 -1       822-3.99730E+05-2.41959E+04-3.41628E+04-4.69440E+03 5.66003E-09 4.95811E-09
 -1       823-3.87566E+05 3.29439E+03-1.25636E+04 3.60419E+03-1.35269E-08 1.07480E-08
 -1       824-3.90773E+05-3.79813E+03-7.85933E+03-5.69810E+03 1.61296E-09 7.85815E-09
 -1       825-3.89135E+05 5.12362E+02-3.29659E+03 3.20312E+03 2.24116E-08 9.57209E-09
 -1       826-3.88248E+05-5.64391E+02-1.72396E+03-3.32422E+03 2.75968E-08 6.73242E-09
 -1       827-3.90064E+05 4.21345E+01-1.21051E+03 1.23014E+03 1.07592E-08-6.78142E-09
 -1       828-3.87476E+05-1.25838E+02-5.51569E+02 1.10186E+03-4.36820E-09 5.51500E-09
 -1       829-3.89892E+05 6.23171E+01-1.19793E+03-1.22298E+03 5.54707E-10 1.12260E-08
 -1       830-3.88618E+05-6.21742E+02-1.86837E+03 5.11972E+03 1.29699E-09 1.73023E-08
 -1       831-3.88946E+05 5.57561E+02-3.37958E+03-2.78774E+03-6.30971E-09 1.02018E-08
 -1       832-3.90854E+05-3.97016E+03-8.17045E+03 6.49287E+03-5.76583E-09-1.19098E-09
 -1       833-3.87675E+05 3.42179E+03-1.30829E+04-2.59618E+03-6.27679E-10-6.71753E-09
 -1       834-3.99780E+05-2.51350E+04-3.54178E+04 4.42170E+03-2.90225E-09-9.10222E-09
 -1       835-3.80001E+05 2.16877E+04-5.05786E+04-7.16476E+02 5.00788E-09-1.53887E-09
 -1       836-1.41069E+03 3.69322E+05 2.28713E+04-1.58175E+04-7.01857E-09 4.16003E-09
 -1       837 4.87739E+03 3.76486E+05 1.93627E+04-3.23297E+04-7.80244E-09 1.94775E-08
 -1       838-5.57337E+02 3.71329E+05 1.97412E+04-1.57461E+04-6.22458E-09-1.88902E-09
 -1       839 1.24310E+04 3.82111E+05 3.73574E+04-3.23836E+04-6.54518E-09 1.13994E-09
 -1       840-3.84199E+03 3.63637E+05 5.95772E+04-1.57693E+04-6.30826E-09 9.90548E-09
 -1       856-5.15977E+04 8.00756E+03-2.11016E+04-3.96881E+02 3.48803E-09 5.67616E-09
 -1       857-6.02912E+04-9.40863E+03-1.45262E+04 5.61912E+03 8.21117E-09-1.28018E-08
 -1       858-5.50405E+04 1.12299E+03-5.47534E+03-4.20745E+02 2.18284E-09 1.88352E-08
 -1       859-5.63402E+04-1.32117E+03-3.30409E+03 5.65458E+03-9.34301E-09 2.99927E-08
 -1       860-5.55549E+04 1.57273E+02-1.38468E+03-4.32082E+02 4.03844E-10 3.03129E-09
 -1       861-5.57485E+04-1.87771E+02-7.61621E+02 5.67002E+03 3.24857E-09 1.05544E-09
 -1       862-5.56354E+04 2.12987E+01-3.16347E+02-4.36153E+02-2.18747E-09-1.38434E-08
 -1       863-5.56499E+04-2.17614E+01-1.14671E+02 5.67237E+03-1.93755E-09-1.85392E-09
 -1       864-5.56541E+04-4.96347E+00 4.83722E+01-4.34437E+02-2.95414E-09-7.33446E-09
 -1       865-5.55939E+04 6.01112E+01 2.57529E+02 5.66258E+03-5.53183E-09-1.14104E-08
 -1       866-5.56891E+04-6.05785E+01 5.18352E+02-4.26367E+02-2.35559E-10-1.93413E-09
 -1       867-5.53503E+04 5.00291E+02 1.27544E+03 5.64069E+03-2.47383E-10-3.47359E-09
 -1       868-5.58927E+04-4.37159E+02 2.11932E+03-4.12539E+02-3.76815E-10 1.02755E-08
 -1       869-5.37968E+04 3.63847E+03 5.64284E+03 5.60466E+03 2.02704E-09-4.23734E-09
 -1       870-5.72349E+04-3.11347E+03 8.18910E+03-3.90235E+02-4.74870E-09 6.71571E-09
 -1       871-5.51080E+03-2.09659E+04-1.94628E+04 1.30393E+05-5.04042E-09 2.34286E-09
 -1       872-1.97863E+03-2.54921E+04-8.14568E+03 1.69073E+05-1.07693E-08 4.74392E-09
 -1       873 4.05624E+02-2.33038E+04 5.98383E+02 1.30106E+05-6.47105E-09-2.96302E-09
 -1       874 3.30780E+03-2.08918E+04 9.78736E+03 1.69104E+05-1.17143E-08-5.20049E-09
 -1       875 6.84962E+03-2.56348E+04 2.20720E+04 1.30344E+05-5.44060E-09-6.10817E-09
 -1       876 2.93576E+05 4.94497E+04 1.50678E+04 1.17778E+05 4.61046E-09-5.55883E-09
 -1       877 2.94579E+05 5.26169E+04 8.04681E+03 1.22093E+05 3.23780E-09 7.27596E-12
 -1       878 2.94986E+05 4.77807E+04 3.37122E+03 1.19012E+05-5.96265E-09 3.11729E-09
 -1       879 2.92531E+05 5.05726E+04 1.67976E+03 1.22195E+05 5.51631E-09-5.43162E-09
 -1       880 2.95086E+05 4.77634E+04 7.82440E+02 1.19063E+05-6.85554E-09 1.50455E-08
 -1       881 2.92395E+05 5.04852E+04 4.17903E+02 1.22171E+05-2.35497E-08 2.17190E-09
 -1       882 2.95096E+05 4.77766E+04 2.67476E+02 1.19064E+05-1.37104E-08-3.06676E-09
 -1       883 2.92385E+05 5.04806E+04 2.87747E+02 1.22164E+05-3.72347E-09-1.44037E-08
 -1       884 2.95089E+05 4.77738E+04 4.57921E+02 1.19064E+05 2.50975E-09 1.19422E-08
 -1       885 2.92422E+05 5.04870E+04 9.20790E+02 1.22175E+05-9.98990E-09-2.03964E-08
 -1       886 2.95053E+05 4.77470E+04 1.85587E+03 1.19061E+05-1.18871E-08 6.18911E-10
 -1       887 2.92748E+05 5.07009E+04 4.05392E+03 1.22222E+05 6.52824E-09-5.49824E-09
 -1       888 2.94797E+05 4.77921E+04 8.16877E+03 1.18931E+05-6.05385E-09-1.27447E-08
 -1       889 2.97611E+05 5.57584E+04 1.95137E+04 1.22073E+05-8.55930E-09-2.47364E-08
 -1       890 2.91463E+05 5.17526E+04 3.65486E+04 1.15822E+05-4.31191E-09-9.26411E-09
 -1       891-8.93847E+01-1.62630E+05-1.99578E+03 2.70968E+04-2.33649E-09-2.20143E-09
 -1       892-1.75346E+02-1.63158E+05-2.14300E+03 4.11483E+04 5.83668E-10-8.12634E-09
 -1       893 4.37067E+01-1.62695E+05-3.03371E+03 2.71041E+04-3.52770E-09-1.26784E-09
 -1       894-1.50879E+03-1.64303E+05-6.27829E+03 4.09960E+04 1.14824E-09 2.45823E-08
 -1       895-1.19819E+03-1.61387E+05-1.10558E+04 2.72509E+04-1.01750E-09 1.11759E-08
 -1       956-3.76997E+05-5.38622E+03-1.32984E+04 3.05588E+04 4.39377E-09-5.34465E-09
 -1       957-3.79606E+05-1.89955E+03-6.82589E+03 3.67254E+04-4.12547E-09-4.62433E-09
 -1       958-3.78192E+05-2.37440E+02-3.07594E+03 3.03935E+04-3.73620E-09-1.64800E-09
 -1       959-3.78386E+05-1.34107E+02-1.57069E+03 3.69180E+04 2.43745E-10 1.33209E-08
 -1       960-3.78308E+05-4.38554E+01-7.66016E+02 3.03765E+04 4.51473E-09 7.91465E-09
 -1       961-3.78306E+05-6.21732E+01-4.06350E+02 3.69381E+04 1.31120E-08 1.07766E-08
 -1       962-3.78335E+05-4.52823E+01-2.33021E+02 3.03737E+04 7.59428E-09 7.73434E-09
 -1       963-3.78306E+05-5.82200E+01-1.87746E+02 3.69417E+04 1.21615E-08-7.29165E-09
 -1       964-3.78340E+05-4.20776E+01-2.29151E+02 3.03730E+04 5.81916E-09 4.87807E-09
 -1       965-3.78318E+05-5.53969E+01-3.97031E+02 3.69409E+04-1.29660E-09 1.11681E-08
 -1       966-3.78324E+05-3.43077E+01-7.46401E+02 3.03745E+04 1.53882E-08 5.13637E-10
 -1       967-3.78408E+05-1.18993E+02-1.53105E+03 3.69265E+04 2.31621E-08-8.96216E-09
 -1       968-3.78220E+05-2.16846E+02-2.99734E+03 3.03871E+04 9.48921E-09-1.08014E-09
 -1       969-3.79609E+05-1.83457E+03-6.65404E+03 3.67785E+04 1.97542E-09 1.83169E-08
 -1       970-3.77064E+05-5.23211E+03-1.29625E+04 3.05139E+04-1.73077E-09 1.48357E-08
 -1       971-3.45113E+05-1.72790E+03-9.31201E+03 1.53824E+04 6.29279E-09-8.30808E-09
 -1       972-3.47355E+05-1.27210E+03-5.07122E+03 2.12737E+04 7.02312E-09-5.09726E-09
 -1       973-3.46151E+05-6.20778E+01-2.27145E+03 1.52612E+04 2.18006E-09-9.35597E-09
 -1       974-3.46286E+05-8.11264E+01-1.17743E+03 2.14109E+04-1.31968E-09-1.52393E-08
 -1       975-3.46233E+05-1.71842E+01-5.89005E+02 1.52489E+04-2.05591E-09-9.25718E-09
 -1       976-3.46225E+05-3.12631E+01-3.40620E+02 2.14267E+04-3.13867E-09-1.05740E-08
 -1       977-3.46249E+05-1.64323E+01-2.48664E+02 1.52455E+04-8.50514E-09 3.13162E-09
 -1       978-3.46230E+05-2.50307E+01-2.92960E+02 2.14316E+04-8.54868E-09 8.86939E-09
 -1       979-3.46249E+05-7.95308E+00-4.72389E+02 1.52440E+04-7.03670E-09 3.50769E-09
 -1       980-3.46265E+05-2.19641E+01-9.13187E+02 2.14326E+04-9.51854E-09-1.83463E-08
 -1       981-3.46220E+05 1.48769E+01-1.76919E+03 1.52445E+04 4.82260E-10-1.41540E-09
 -1       982-3.46508E+05-1.52684E+02-3.65719E+03 2.14259E+04 1.11277E-09-2.05769E-08
 -1       983-3.45997E+05-9.84073E+01-7.10610E+03 1.52506E+04-1.79944E-09 7.75822E-09
 -1       984-3.49926E+05-3.86399E+03-1.59139E+04 2.13403E+04 2.28965E-09 1.03355E-08
 -1       985-3.42780E+05-5.29822E+03-2.92228E+04 1.53219E+04-4.83305E-09 7.65249E-09
 -3
    1PSTEP                        23          12           1          
  100CL  112 6.62659E-01         409                     0   12           1
 -4  DISP        4    1
 -5  D1          1    2    1    0
 -5  D2          1    2    2    0
 -5  D3          1    2    3    0
 -5  ALL         1    2    0    0    1ALL
 -1         1 2.73120E-03 0.00000E+00 0.00000E+00
 -1         2 1.30384E-03 5.96938E-27 0.00000E+00
 -1         3 3.42615E-04-2.54537E-28 0.00000E+00
 -1         5 1.77081E-04-2.55870E-27-2.48154E-24
 -1         8 2.72068E-03-3.97031E-07 0.00000E+00
 -1         9 2.71374E-03-2.08700E-04 0.00000E+00
 -1        10 3.10677E-04-3.38334E-06 0.00000E+00
 -1        12 1.78927E-04 8.09069E-07 8.27181E-25
 -1        15 2.70873E-03-4.19484E-07 0.00000E+00
 -1        16 2.78703E-03-2.10624E-04 0.00000E+00
 -1        17 2.11441E-04-7.72003E-06 0.00000E+00
 -1        18 1.82874E-04 3.44341E-05 0.00000E+00
 -1        19 1.84468E-04 1.61172E-06 0.00000E+00
 -1        20 1.84607E-04-9.86590E-06 0.00000E+00
 -1        21 1.83712E-04-2.54016E-05 3.30872E-24
 -1        24 3.05842E-05-1.19372E-05 0.00000E+00
 -1        25 1.93678E-04 3.46598E-05 0.00000E+00
 -1        26 1.94345E-04 2.23083E-06 0.00000E+00
 -1        27 1.92131E-04-1.34206E-05 0.00000E+00
 -1        28 1.91818E-04-2.60234E-05 0.00000E+00
 -1        32 0.00000E+00 0.00000E+00 0.00000E+00
 -1        33 2.03201E-04 2.98337E-06 0.00000E+00
 -1        34 2.01082E-04-1.34761E-05 0.00000E+00
 -1        35 1.99150E-04-2.63658E-05 0.00000E+00
 -1        51 2.73049E-03-8.38118E-08-3.30872E-24
 -1        52 2.72919E-03-1.49098E-07 3.30872E-24
 -1        53 2.72744E-03-2.10852E-07 0.00000E+00
 -1        54 2.72535E-03-2.71307E-07 8.27181E-25
 -1        55 2.72305E-03-3.32229E-07-8.27181E-25
 -1        56 2.72275E-03 1.03249E-05 0.00000E+00
 -1        57 2.70550E-03 4.22438E-05 5.29396E-23
 -1        58 2.68203E-03 8.90316E-05 0.00000E+00
 -1        59 2.65562E-03 1.42563E-04 5.29396E-23
 -1        60 2.63030E-03 1.93555E-04 0.00000E+00
 -1        61 2.60995E-03 2.32929E-04 0.00000E+00
 -1        62 2.59719E-03 2.53677E-04-1.05879E-22
 -1        63 2.59370E-03 2.50445E-04 0.00000E+00
 -1        64 2.59917E-03 2.22293E-04 0.00000E+00
 -1        65 2.61249E-03 1.70661E-04 0.00000E+00
 -1        66 2.63132E-03 1.01483E-04-1.05879E-22
 -1        67 2.65310E-03 2.24444E-05-5.29396E-23
 -1        68 2.67495E-03-5.68358E-05 0.00000E+00
 -1        69 2.69402E-03-1.26707E-04 0.00000E+00
 -1        70 2.70769E-03-1.79367E-04-1.05879E-22
 -1        86 1.39254E-03-6.52966E-06 5.29396E-23
 -1        87 1.64869E-03-4.13314E-05-2.64698E-23
 -1        88 1.99316E-03-1.01278E-04 5.29396E-23
 -1        89 2.34252E-03-1.62972E-04 1.32349E-23
 -1        90 2.61046E-03-2.00744E-04 0.00000E+00
 -1       121 3.41718E-04-5.46173E-07 0.00000E+00
 -1       122 3.39031E-04-1.09543E-06 0.00000E+00
 -1       123 3.34564E-04-1.65081E-06 1.32349E-23
 -1       124 3.28333E-04-2.21535E-06-6.61744E-24
 -1       125 3.20360E-04-2.79169E-06 0.00000E+00
 -1       191 1.77132E-04 1.34909E-07-1.65436E-24
 -1       192 1.77286E-04 2.69805E-07-4.13590E-25
 -1       193 1.77543E-04 4.04683E-07 2.48154E-24
 -1       194 1.77902E-04 5.39527E-07-8.27181E-25
 -1       195 1.78363E-04 6.74327E-07 2.48154E-24
 -1       251 2.72038E-03 1.58679E-06 0.00000E+00
 -1       252 2.72008E-03 3.45474E-06 0.00000E+00
 -1       253 2.71977E-03 4.15280E-06 6.61744E-24
 -1       254 2.71946E-03 2.64151E-06 0.00000E+00
 -1       255 2.71915E-03-1.78356E-06 0.00000E+00
 -1       256 2.71881E-03-9.79038E-06-3.30872E-24
 -1       257 2.71844E-03-2.15041E-05 6.61744E-24
 -1       258 2.71802E-03-3.70035E-05 0.00000E+00
 -1       259 2.71754E-03-5.57942E-05 6.61744E-24
 -1       260 2.71701E-03-7.73403E-05 6.61744E-24
 -1       261 2.71645E-03-1.00688E-04 1.32349E-23
 -1       262 2.71586E-03-1.24862E-04 0.00000E+00
 -1       263 2.71528E-03-1.48762E-04 0.00000E+00
 -1       264 2.71472E-03-1.71289E-04 0.00000E+00
 -1       265 2.71422E-03-1.91555E-04-1.32349E-23
 -1       266 2.71869E-03-4.06278E-07 0.00000E+00
 -1       267 2.71670E-03-4.09349E-07 0.00000E+00
 -1       268 2.71470E-03-4.12811E-07-4.13590E-25
 -1       269 2.71271E-03-4.15115E-07-2.06795E-25
 -1       270 2.71072E-03-4.17392E-07-2.06795E-25
 -1       271 2.71992E-03-9.18140E-08 0.00000E+00
 -1       272 2.72019E-03-2.61522E-06 0.00000E+00
 -1       273 2.72145E-03-7.79444E-06 0.00000E+00
 -1       274 2.72362E-03-1.54431E-05 0.00000E+00
 -1       275 2.72661E-03-2.53533E-05 2.64698E-23
 -1       276 2.73035E-03-3.73011E-05 0.00000E+00
 -1       277 2.73473E-03-5.10456E-05 0.00000E+00
 -1       278 2.73967E-03-6.63326E-05 6.61744E-24
 -1       279 2.74506E-03-8.28955E-05 0.00000E+00
 -1       280 2.75081E-03-1.00458E-04 0.00000E+00
 -1       281 2.75682E-03-1.18735E-04 0.00000E+00
 -1       282 2.76297E-03-1.37437E-04 0.00000E+00
 -1       283 2.76918E-03-1.56271E-04-1.32349E-23
 -1       284 2.77532E-03-1.74941E-04-6.61744E-24
 -1       285 2.78131E-03-1.93156E-04-1.32349E-23
 -1       301 2.72705E-03-2.09057E-04-1.32349E-23
 -1       302 2.73867E-03-2.09366E-04 6.61744E-24
 -1       303 2.74952E-03-2.09663E-04 0.00000E+00
 -1       304 2.76057E-03-2.09960E-04 0.00000E+00
 -1       305 2.77276E-03-2.10272E-04 0.00000E+00
 -1       306 2.75198E-03-3.64847E-04 0.00000E+00
 -1       307 2.81584E-03-7.80316E-04 0.00000E+00
 -1       308 2.86241E-03-1.38631E-03 1.05879E-22
 -1       309 2.88640E-03-2.08642E-03-5.29396E-23
 -1       310 2.91812E-03-2.75478E-03 0.00000E+00
 -1       311 2.97789E-03-3.26835E-03 5.29396E-23
 -1       312 3.03534E-03-3.54678E-03 0.00000E+00
 -1       313 3.02916E-03-3.55287E-03 0.00000E+00
 -1       314 2.88548E-03-3.29927E-03 1.05879E-22
 -1       315 2.56378E-03-2.85095E-03-5.29396E-23
 -1       316 2.08313E-03-2.28466E-03 1.05879E-22
 -1       317 1.51007E-03-1.66951E-03 5.29396E-23
 -1       318 9.59264E-04-1.06582E-03 0.00000E+00
 -1       319 5.38776E-04-5.38449E-04 0.00000E+00
 -1       320 2.92197E-04-1.61610E-04 0.00000E+00
 -1       336 2.99095E-04-4.03759E-06 0.00000E+00
 -1       337 2.85437E-04-4.71751E-06-6.61744E-24
 -1       338 2.69766E-04-5.42533E-06 0.00000E+00
 -1       339 2.52153E-04-6.16190E-06 6.61744E-24
 -1       340 2.32681E-04-6.93168E-06-1.32349E-23
 -1       406 1.79594E-04 9.43733E-07 2.48154E-24
 -1       407 1.80364E-04 1.07828E-06 1.24077E-24
 -1       408 1.81236E-04 1.21267E-06-2.48154E-24
 -1       409 1.82211E-04 1.34672E-06-4.13590E-25
 -1       410 1.83289E-04 1.48015E-06 1.24077E-24
 -1       521 2.82585E-03-3.76100E-04 0.00000E+00
 -1       522 2.88787E-03-8.12287E-04 5.29396E-23
 -1       523 2.92779E-03-1.44689E-03 0.00000E+00
 -1       524 2.94225E-03-2.17661E-03-5.29396E-23
 -1       525 2.96582E-03-2.87254E-03 1.05879E-22
 -1       526 3.02199E-03-3.40884E-03-5.29396E-23
 -1       527 3.07905E-03-3.69811E-03-2.11758E-22
 -1       528 3.07047E-03-3.70223E-03 5.29396E-23
 -1       529 2.91425E-03-3.43393E-03 0.00000E+00
 -1       530 2.56757E-03-2.96641E-03 0.00000E+00
 -1       531 2.05037E-03-2.38033E-03 0.00000E+00
 -1       532 1.43585E-03-1.74741E-03 5.29396E-23
 -1       533 8.44366E-04-1.12527E-03 0.00000E+00
 -1       534 3.89426E-04-5.76407E-04 5.29396E-23
 -1       535 1.21023E-04-1.79502E-04-2.11758E-22
 -1       536 2.10686E-04 2.72048E-05 6.61744E-24
 -1       537 2.08767E-04 8.76498E-05 0.00000E+00
 -1       538 2.05803E-04 1.64347E-04 0.00000E+00
 -1       539 2.02306E-04 2.47945E-04-1.65436E-24
 -1       540 1.99160E-04 3.26938E-04-3.30872E-24
 -1       541 1.97114E-04 3.89846E-04 1.65436E-24
 -1       542 1.96171E-04 4.29914E-04 0.00000E+00
 -1       543 1.95946E-04 4.40537E-04-1.65436E-24
 -1       544 1.95623E-04 4.22488E-04 0.00000E+00
 -1       545 1.94450E-04 3.76763E-04 1.65436E-24
 -1       546 1.92265E-04 3.11487E-04 0.00000E+00
 -1       547 1.89306E-04 2.34911E-04 0.00000E+00
 -1       548 1.86374E-04 1.58711E-04-3.30872E-24
 -1       549 1.84259E-04 9.45644E-05 0.00000E+00
 -1       550 1.83160E-04 5.05036E-05 1.65436E-24
 -1       551 1.86242E-04-8.28807E-06 0.00000E+00
 -1       552 1.57799E-04-8.93655E-06 0.00000E+00
 -1       553 1.27053E-04-9.64729E-06 0.00000E+00
 -1       554 9.49635E-05-1.03992E-05-3.30872E-24
 -1       555 6.24891E-05-1.11649E-05 0.00000E+00
 -1       556 2.03793E-04 1.18347E-05 0.00000E+00
 -1       557 1.97614E-04 2.76939E-05 0.00000E+00
 -1       558 1.92770E-04 4.01456E-05 0.00000E+00
 -1       559 1.89128E-04 4.95000E-05 2.64698E-23
 -1       560 1.86557E-04 5.60680E-05 0.00000E+00
 -1       561 1.84931E-04 6.01629E-05 0.00000E+00
 -1       562 1.84123E-04 6.20993E-05 0.00000E+00
 -1       563 1.84010E-04 6.21928E-05 0.00000E+00
 -1       564 1.84469E-04 6.07596E-05 0.00000E+00
 -1       565 1.85380E-04 5.81169E-05 0.00000E+00
 -1       566 1.86624E-04 5.45822E-05 0.00000E+00
 -1       567 1.88080E-04 5.04737E-05-6.61744E-24
 -1       568 1.89632E-04 4.61095E-05-1.65436E-24
 -1       569 1.91160E-04 4.18077E-05 8.27181E-25
 -1       570 1.92548E-04 3.78866E-05 0.00000E+00
 -1       571 1.82971E-04 3.23031E-05 8.27181E-25
 -1       572 1.83069E-04 3.01067E-05 4.13590E-25
 -1       573 1.83168E-04 2.78603E-05 3.30872E-24
 -1       574 1.83268E-04 2.55806E-05 0.00000E+00
 -1       575 1.83367E-04 2.32838E-05-3.30872E-24
 -1       576 1.83467E-04 2.09864E-05 0.00000E+00
 -1       577 1.83566E-04 1.87050E-05 0.00000E+00
 -1       578 1.83666E-04 1.64560E-05 0.00000E+00
 -1       579 1.83766E-04 1.42561E-05 0.00000E+00
 -1       580 1.83866E-04 1.21217E-05 6.61744E-24
 -1       581 1.83966E-04 1.00693E-05 0.00000E+00
 -1       582 1.84066E-04 8.11546E-06 0.00000E+00
 -1       583 1.84166E-04 6.27668E-06 0.00000E+00
 -1       584 1.84267E-04 4.56925E-06-3.30872E-24
 -1       585 1.84367E-04 3.00933E-06 0.00000E+00
 -1       586 1.84633E-04 3.44738E-05-1.65436E-24
 -1       587 1.86351E-04 3.45130E-05-4.13590E-25
 -1       588 1.88071E-04 3.45518E-05 0.00000E+00
 -1       589 1.89837E-04 3.45900E-05 0.00000E+00
 -1       590 1.91692E-04 3.46269E-05 0.00000E+00
 -1       591 1.83604E-04 3.23970E-05 0.00000E+00
 -1       592 1.84338E-04 3.03403E-05-2.06795E-25
 -1       593 1.85076E-04 2.82700E-05-8.27181E-25
 -1       594 1.85817E-04 2.61906E-05 4.13590E-25
 -1       595 1.86560E-04 2.41069E-05 0.00000E+00
 -1       596 1.87302E-04 2.20235E-05 0.00000E+00
 -1       597 1.88043E-04 1.99450E-05-8.27181E-25
 -1       598 1.88779E-04 1.78762E-05 0.00000E+00
 -1       599 1.89511E-04 1.58217E-05 8.27181E-25
 -1       600 1.90236E-04 1.37860E-05-4.13590E-25
 -1       601 1.90951E-04 1.17739E-05 8.27181E-25
 -1       602 1.91657E-04 9.79004E-06-4.13590E-25
 -1       603 1.92350E-04 7.83898E-06 4.13590E-25
 -1       604 1.93030E-04 5.92551E-06-1.29247E-25
 -1       605 1.93694E-04 4.05419E-06 0.00000E+00
 -1       606 1.84481E-04 4.47585E-07 0.00000E+00
 -1       607 1.84491E-04-6.30692E-07 0.00000E+00
 -1       608 1.84499E-04-1.62815E-06 0.00000E+00
 -1       609 1.84508E-04-2.55047E-06 0.00000E+00
 -1       610 1.84516E-04-3.40339E-06 0.00000E+00
 -1       611 1.84524E-04-4.19271E-06 0.00000E+00
 -1       612 1.84533E-04-4.92422E-06 0.00000E+00
 -1       613 1.84541E-04-5.60376E-06 0.00000E+00
 -1       614 1.84549E-04-6.23711E-06 0.00000E+00
 -1       615 1.84558E-04-6.83010E-06 0.00000E+00
 -1       616 1.84566E-04-7.38854E-06-1.65436E-24
 -1       617 1.84574E-04-7.91825E-06 0.00000E+00
 -1       618 1.84583E-04-8.42502E-06 0.00000E+00
 -1       619 1.84591E-04-8.91468E-06 0.00000E+00
 -1       620 1.84599E-04-9.39304E-06-2.06795E-25
 -1       621 1.85827E-04 1.71548E-06 1.65436E-24
 -1       622 1.87346E-04 1.81948E-06 0.00000E+00
 -1       623 1.88991E-04 1.92326E-06-1.65436E-24
 -1       624 1.90728E-04 2.02671E-06-1.65436E-24
 -1       625 1.92524E-04 2.12987E-06-1.65436E-24
 -1       626 1.85016E-04 4.83838E-07 6.61744E-24
 -1       627 1.85542E-04-5.80873E-07 0.00000E+00
 -1       628 1.86048E-04-1.59028E-06 6.61744E-24
 -1       629 1.86535E-04-2.55258E-06 1.65436E-24
 -1       630 1.87009E-04-3.47598E-06 0.00000E+00
 -1       631 1.87471E-04-4.36871E-06 1.65436E-24
 -1       632 1.87924E-04-5.23900E-06 3.30872E-24
 -1       633 1.88372E-04-6.09509E-06 0.00000E+00
 -1       634 1.88818E-04-6.94521E-06-3.30872E-24
 -1       635 1.89265E-04-7.79757E-06 1.65436E-24
 -1       636 1.89716E-04-8.66043E-06 0.00000E+00
 -1       637 1.90174E-04-9.54202E-06 1.65436E-24
 -1       638 1.90641E-04-1.04506E-05 1.65436E-24
 -1       639 1.91122E-04-1.13943E-05-1.65436E-24
 -1       640 1.91618E-04-1.23816E-05 1.65436E-24
 -1       656 1.85312E-04-1.04437E-05-6.61744E-24
 -1       657 1.86438E-04-1.10449E-05 6.61744E-24
 -1       658 1.87843E-04-1.16448E-05 0.00000E+00
 -1       659 1.89384E-04-1.22443E-05 0.00000E+00
 -1       660 1.90874E-04-1.28456E-05 0.00000E+00
 -1       661 1.84871E-04-1.03841E-05-8.27181E-25
 -1       662 1.85172E-04-1.09945E-05 0.00000E+00
 -1       663 1.85507E-04-1.16918E-05-1.65436E-24
 -1       664 1.85871E-04-1.24695E-05 0.00000E+00
 -1       665 1.86264E-04-1.33217E-05 0.00000E+00
 -1       666 1.86682E-04-1.42424E-05 8.27181E-25
 -1       667 1.87124E-04-1.52260E-05 0.00000E+00
 -1       668 1.87587E-04-1.62668E-05-8.27181E-25
 -1       669 1.88070E-04-1.73594E-05 1.65436E-24
 -1       670 1.88570E-04-1.84985E-05 0.00000E+00
 -1       671 1.89085E-04-1.96788E-05-1.65436E-24
 -1       672 1.89614E-04-2.08952E-05-8.27181E-25
 -1       673 1.90154E-04-2.21425E-05-1.65436E-24
 -1       674 1.90703E-04-2.34162E-05-4.13590E-25
 -1       675 1.91260E-04-2.47108E-05 0.00000E+00
 -1       676 1.85068E-04-2.55058E-05 0.00000E+00
 -1       677 1.86423E-04-2.56100E-05 0.00000E+00
 -1       678 1.87776E-04-2.57141E-05-3.30872E-24
 -1       679 1.89127E-04-2.58180E-05 1.65436E-24
 -1       680 1.90475E-04-2.59218E-05-1.65436E-24
 -1       771 1.86289E-05 1.48005E-05 0.00000E+00
 -1       772 8.57148E-06 3.67596E-05 5.29396E-23
 -1       773 3.20990E-07 5.41706E-05 5.29396E-23
 -1       774-6.24694E-06 6.72916E-05 0.00000E+00
 -1       775-1.12540E-05 7.63910E-05 0.00000E+00
 -1       776-1.48269E-05 8.17542E-05 2.64698E-23
 -1       777-1.70920E-05 8.36764E-05 5.29396E-23
 -1       778-1.81784E-05 8.24670E-05 0.00000E+00
 -1       779-1.82143E-05 7.84436E-05 0.00000E+00
 -1       780-1.73301E-05 7.19355E-05 2.64698E-23
 -1       781-1.56553E-05 6.32786E-05 5.29396E-23
 -1       782-1.33210E-05 5.28177E-05 0.00000E+00
 -1       783-1.04572E-05 4.09023E-05-5.29396E-23
 -1       784-7.19519E-06 2.78880E-05 2.64698E-23
 -1       785-3.66542E-06 1.41335E-05 0.00000E+00
 -1       786 1.93715E-04 3.24023E-05-3.23117E-27
 -1       787 1.93756E-04 3.01955E-05 0.00000E+00
 -1       788 1.93797E-04 2.80311E-05 0.00000E+00
 -1       789 1.93839E-04 2.59009E-05 0.00000E+00
 -1       790 1.93880E-04 2.38002E-05 0.00000E+00
 -1       791 1.93922E-04 2.17239E-05 0.00000E+00
 -1       792 1.93964E-04 1.96700E-05 1.65436E-24
 -1       793 1.94006E-04 1.76361E-05 0.00000E+00
 -1       794 1.94048E-04 1.56220E-05 0.00000E+00
 -1       795 1.94090E-04 1.36275E-05 0.00000E+00
 -1       796 1.94133E-04 1.16543E-05 0.00000E+00
 -1       797 1.94175E-04 9.70428E-06 8.27181E-25
 -1       798 1.94217E-04 7.78145E-06 1.65436E-24
 -1       799 1.94260E-04 5.89006E-06-8.27181E-25
 -1       800 1.94302E-04 4.03738E-06 0.00000E+00
 -1       801 1.47877E-04 3.11595E-05 2.64698E-23
 -1       802 9.38948E-06 1.94397E-05 2.64698E-23
 -1       803-1.08896E-04 9.82037E-06 0.00000E+00
 -1       804-9.65160E-05 6.83575E-06 0.00000E+00
 -1       805-3.18889E-05 2.68573E-06 0.00000E+00
 -1       806 1.94408E-04 3.23323E-05 0.00000E+00
 -1       807 1.95123E-04 3.00310E-05 0.00000E+00
 -1       808 1.95827E-04 2.77612E-05 3.30872E-24
 -1       809 1.96516E-04 2.55270E-05 0.00000E+00
 -1       810 1.97191E-04 2.33326E-05 0.00000E+00
 -1       811 1.97849E-04 2.11822E-05 1.65436E-24
 -1       812 1.98489E-04 1.90798E-05 3.30872E-24
 -1       813 1.99110E-04 1.70294E-05 0.00000E+00
 -1       814 1.99710E-04 1.50351E-05-3.30872E-24
 -1       815 2.00287E-04 1.31009E-05 8.27181E-25
 -1       816 2.00841E-04 1.12309E-05 0.00000E+00
 -1       817 2.01369E-04 9.42905E-06 8.27181E-25
 -1       818 2.01870E-04 7.69938E-06 1.65436E-24
 -1       819 2.02343E-04 6.04591E-06-8.27181E-25
 -1       820 2.02787E-04 4.47260E-06-3.30872E-24
 -1       821 1.94215E-04-1.72969E-07 1.65436E-24
 -1       822 1.94074E-04-3.81165E-06 0.00000E+00
 -1       823 1.93931E-04-8.23305E-06 0.00000E+00
 -1       824 1.93784E-04-1.29801E-05-1.65436E-24
 -1       825 1.93639E-04-1.75074E-05 0.00000E+00
 -1       826 1.93496E-04-2.12708E-05 0.00000E+00
 -1       827 1.93356E-04-2.39348E-05-3.30872E-24
 -1       828 1.93219E-04-2.51708E-05 0.00000E+00
 -1       829 1.93083E-04-2.50400E-05 0.00000E+00
 -1       830 1.92946E-04-2.36120E-05 0.00000E+00
 -1       831 1.92808E-04-2.13104E-05 0.00000E+00
 -1       832 1.92668E-04-1.85644E-05 0.00000E+00
 -1       833 1.92529E-04-1.59246E-05-3.30872E-24
 -1       834 1.92393E-04-1.39409E-05 1.65436E-24
 -1       835 1.92258E-04-1.29846E-05-8.27181E-25
 -1       836 1.96037E-04 2.35562E-06 0.00000E+00
 -1       837 1.97601E-04 2.48356E-06 0.00000E+00
 -1       838 1.99068E-04 2.61144E-06-3.30872E-24
 -1       839 2.00470E-04 2.73861E-06 0.00000E+00
 -1       840 2.01837E-04 2.86563E-06 0.00000E+00
 -1       856 1.92115E-04-1.44824E-05 0.00000E+00
 -1       857 1.92096E-04-1.54088E-05 0.00000E+00
 -1       858 1.92077E-04-1.62208E-05 2.06795E-25
 -1       859 1.92058E-04-1.69396E-05 0.00000E+00
 -1       860 1.92038E-04-1.75862E-05 4.13590E-25
 -1       861 1.92019E-04-1.81820E-05-2.06795E-25
 -1       862 1.91999E-04-1.87483E-05 0.00000E+00
 -1       863 1.91979E-04-1.93063E-05 2.06795E-25
 -1       864 1.91960E-04-1.98774E-05 0.00000E+00
 -1       865 1.91940E-04-2.04828E-05 0.00000E+00
 -1       866 1.91920E-04-2.11437E-05-8.27181E-25
 -1       867 1.91901E-04-2.18815E-05-4.13590E-25
 -1       868 1.91881E-04-2.27174E-05 0.00000E+00
 -1       869 1.91861E-04-2.36723E-05-4.13590E-25
 -1       870 1.91840E-04-2.47673E-05 8.27181E-25
 -1       871 1.93481E-04-1.34254E-05 8.27181E-25
 -1       872 1.94978E-04-1.34336E-05 0.00000E+00
 -1       873 1.96555E-04-1.34425E-05 0.00000E+00
 -1       874 1.98144E-04-1.34522E-05-7.75482E-26
 -1       875 1.99676E-04-1.34624E-05 4.13590E-25
 -1       876 1.92657E-04-1.44679E-05 3.30872E-24
 -1       877 1.93160E-04-1.54486E-05-1.65436E-24
 -1       878 1.93641E-04-1.63706E-05 3.30872E-24
 -1       879 1.94104E-04-1.72414E-05 0.00000E+00
 -1       880 1.94551E-04-1.80683E-05 3.30872E-24
 -1       881 1.94983E-04-1.88587E-05 1.65436E-24
 -1       882 1.95405E-04-1.96199E-05-3.30872E-24
 -1       883 1.95819E-04-2.03592E-05-1.65436E-24
 -1       884 1.96227E-04-2.10839E-05 0.00000E+00
 -1       885 1.96632E-04-2.18013E-05-1.65436E-24
 -1       886 1.97038E-04-2.25188E-05 0.00000E+00
 -1       887 1.97446E-04-2.32436E-05 1.65436E-24
 -1       888 1.97859E-04-2.39831E-05 0.00000E+00
 -1       889 1.98280E-04-2.47448E-05 1.65436E-24
 -1       890 1.98711E-04-2.55360E-05 1.65436E-24
 -1       891 1.93183E-04-2.60809E-05 1.65436E-24
 -1       892 1.94523E-04-2.61386E-05 8.27181E-25
 -1       893 1.95815E-04-2.61962E-05 8.27181E-25
 -1       894 1.97034E-04-2.62535E-05-8.27181E-25
 -1       895 1.98154E-04-2.63106E-05-4.13590E-25
 -1       956 2.03070E-04 1.66943E-06 1.65436E-24
 -1       957 2.02938E-04 4.45696E-07 8.27181E-25
 -1       958 2.02805E-04-6.98488E-07 0.00000E+00
 -1       959 2.02673E-04-1.77435E-06-1.65436E-24
 -1       960 2.02540E-04-2.79319E-06 0.00000E+00
 -1       961 2.02407E-04-3.76630E-06-1.65436E-24
 -1       962 2.02274E-04-4.70501E-06 0.00000E+00
 -1       963 2.02141E-04-5.62069E-06-1.65436E-24
 -1       964 2.02009E-04-6.52465E-06 3.30872E-24
 -1       965 2.01876E-04-7.42823E-06 1.65436E-24
 -1       966 2.01743E-04-8.34280E-06-3.30872E-24
 -1       967 2.01610E-04-9.27968E-06 0.00000E+00
 -1       968 2.01478E-04-1.02502E-05 0.00000E+00
 -1       969 2.01345E-04-1.12657E-05 0.00000E+00
 -1       970 2.01213E-04-1.23373E-05 0.00000E+00
 -1       971 2.00963E-04-1.46140E-05 0.00000E+00
 -1       972 2.00841E-04-1.56571E-05 0.00000E+00
 -1       973 2.00720E-04-1.66160E-05 3.30872E-24
 -1       974 2.00598E-04-1.75015E-05-1.65436E-24
 -1       975 2.00477E-04-1.83245E-05 0.00000E+00
 -1       976 2.00356E-04-1.90957E-05 0.00000E+00
 -1       977 2.00234E-04-1.98262E-05-3.30872E-24
 -1       978 2.00113E-04-2.05268E-05 0.00000E+00
 -1       979 1.99991E-04-2.12084E-05-3.30872E-24
 -1       980 1.99870E-04-2.18820E-05 0.00000E+00
 -1       981 1.99749E-04-2.25585E-05 0.00000E+00
 -1       982 1.99628E-04-2.32488E-05-1.65436E-24
 -1       983 1.99507E-04-2.39638E-05 0.00000E+00
 -1       984 1.99386E-04-2.47144E-05 0.00000E+00
 -1       985 1.99266E-04-2.55115E-05 0.00000E+00
 -3
    1PSTEP                        24          12           1          
  100CL  112 6.62659E-01         409                     0   12           1
 -4  STRESS      6    1
 -5  SXX         1    4    1    1
 -5  SYY         1    4    2    2
 -5  SZZ         1    4    3    3
 -5  SXY         1    4    1    2
 -5  SYZ         1    4    2    3
 -5  SZX         1    4    3    1
 -1         1-5.34835E+06-1.54302E+06-1.13039E+06-1.28830E+06-1.48430E-09 1.73750E-08
 -1         2 1.60626E+06 2.34561E+07 5.42335E+06 7.12950E+06 2.72121E-08 2.24900E-07
 -1         3-1.48634E+03-1.55073E+06 4.04255E+02-2.19979E+03-4.74579E-10-7.34799E-08
 -1         5-7.52692E+01 3.86323E+05 9.97521E+00-1.34195E+00-4.10883E-10-1.09503E-08
 -1         8-5.47859E+05-1.99329E+05-6.25881E+04-2.39328E+05 2.10093E-10 6.04305E-08
 -1         9 1.18672E+07 4.12447E+06 2.86298E+06-2.49543E+05 5.96046E-09 1.02143E-07
 -1        10-2.30079E+03-1.61597E+06-3.92783E+03-1.48864E+04-1.34751E-08-4.22611E-08
 -1        12-7.13535E+01 3.86344E+05 3.27915E+02-9.14769E+00-8.14754E-10 9.66611E-09
 -1        15 9.12113E+02 5.01252E+02 2.94837E+03 7.85855E-01-4.77215E-10-3.01166E-08
 -1        16 2.29354E+07-3.45406E+05 3.11804E+06-2.32690E+06 8.94458E-09 1.60576E-07
 -1        17 8.40419E+06 6.29320E+06 2.26937E+06 6.01818E+06 2.43192E-08 2.83937E-08
 -1        18 1.42447E+05 3.35407E+04 4.17055E+03-1.19582E+05 1.55119E-08 5.43332E-09
 -1        19 1.22424E+05 1.41583E+05-9.59313E+02 2.20558E+04 1.58325E-09 3.46117E-09
 -1        20-8.20181E+04-5.73121E+05-1.28613E+05 2.50603E+04-2.04909E-09-1.55554E-08
 -1        21-4.55419E+01-2.95876E+05-9.23293E+02 2.75131E+02 1.47600E-08 7.41097E-09
 -1        24 1.41170E+07 1.21447E+07 3.90536E+06 1.12433E+07-1.67095E-07-4.67796E-08
 -1        25 1.23778E+05 2.67632E+05 9.98819E+04-6.46535E+05 1.55951E-09 8.29823E-10
 -1        26-5.61399E+04 9.19472E+04-2.47773E+04 1.46439E+03-1.55705E-10 8.27348E-09
 -1        27-7.55766E+04-3.09606E+05-1.13281E+05 6.90243E+04 3.31571E-09 1.45216E-09
 -1        28 2.22293E+04-8.53377E+04 1.68922E+04 2.05545E+04-2.57324E-09-1.30579E-08
 -1        32-1.67986E+06-3.18121E+06-1.97716E+05 4.58932E+05-4.19823E-08-7.58155E-09
 -1        33-1.79903E+05 9.24253E+04 3.22743E+04-3.88809E+04-3.65545E-09 3.17474E-09
 -1        34-2.23582E+05-2.49282E+04 6.91518E+02 7.55742E+04-4.88930E-09-2.17809E-09
 -1        35-2.29134E+04-3.38511E+04-1.34835E+03 5.14771E+04-1.88540E-09 9.60790E-09
 -1        51 6.10580E+04-1.68870E+05 1.29016E+05-4.28473E+05-1.74623E-10 1.14393E-07
 -1        52 2.06141E+04-1.46256E+05 6.75894E+04-4.99744E+05 2.42835E-10 6.59056E-08
 -1        53 4.13056E+03-1.61588E+05 3.50203E+04-4.27011E+05 4.36557E-10-7.74453E-08
 -1        54 7.15369E+03-1.57366E+05 2.84218E+04-5.01169E+05-4.14730E-10-6.48824E-07
 -1        55 1.56133E+04-1.64224E+05 3.41551E+04-4.26932E+05 1.41881E-10-1.31571E-07
 -1        56-9.83762E+06-1.43134E+06-9.39484E+05-4.14158E+06 2.91038E-11 8.52742E-09
 -1        57-1.11984E+07-6.81383E+05-5.40268E+05-2.59579E+06 7.45058E-08-1.58616E-07
 -1        58-9.56916E+06-1.91987E+06-2.02702E+05-4.36440E+06-4.19604E-08 1.91852E-07
 -1        59-1.14690E+07-1.06400E+05-1.05161E+05-2.51667E+06-1.13919E-08-1.50176E-08
 -1        60-9.67355E+06-1.92241E+06-6.06692E+04-4.31419E+06-7.64703E-09 7.53062E-09
 -1        61-1.06827E+07-5.02161E+05 2.88272E+04-2.77427E+06-1.50903E-08 1.31975E-07
 -1        62-1.01790E+07-1.64355E+06-9.66107E+04-3.96484E+06-5.44824E-08-6.78483E-08
 -1        63-9.60513E+06-1.33257E+06 7.48697E+04-3.56774E+06-1.07975E-08 5.21595E-08
 -1        64-1.06059E+07-1.19592E+06-8.90855E+04-3.43024E+06-5.25324E-08 1.69228E-07
 -1        65-9.21314E+06-2.02366E+06 2.45276E+04-4.64108E+06-2.86527E-08 1.78642E-07
 -1        66-1.07362E+07-8.37646E+05-4.87864E+04-3.01707E+06 2.51021E-09 3.33133E-07
 -1        67-9.26903E+06-2.30386E+06-9.44144E+04-5.15688E+06-8.21383E-08 1.89149E-07
 -1        68-1.07163E+07-7.98083E+05-1.89390E+05-3.01609E+06-6.53672E-08-3.85044E-08
 -1        69-9.40684E+06-2.36179E+06-4.78182E+05-4.60983E+06-3.61324E-08-9.44347E-08
 -1        70-1.04424E+07-9.01827E+05-8.65869E+05-3.46465E+06 9.19499E-09-4.12110E-08
 -1        86-1.63934E+06-1.64033E+07-2.97067E+06-3.34328E+06-2.76188E-07-9.37434E-08
 -1        87 2.59794E+06 6.84262E+06 2.46997E+06 6.09130E+06-4.74414E-07-5.65087E-08
 -1        88-4.99514E+05-1.85821E+06 2.36109E+05-2.66669E+06-4.32250E-07-2.04912E-07
 -1        89 3.47664E+06 6.51276E+06 2.53312E+06 6.30341E+06-5.83947E-07-2.04384E-07
 -1        90-2.41307E+06-1.61571E+07-3.20361E+06-3.58912E+06-1.32943E-07-3.21845E-07
 -1       121-2.03591E+03-1.55562E+06-5.47972E+02 1.09028E+03 1.53324E-09-2.76414E-08
 -1       122-1.30156E+03-1.55079E+06 7.66032E+02-4.40381E+03-5.31591E-09-6.27188E-09
 -1       123-2.05566E+03-1.55576E+06 2.55840E+02 3.25627E+03 4.21574E-09-4.01196E-08
 -1       124 3.26311E+02-1.55034E+06 2.93436E+03-9.21794E+03-1.01263E-08-3.23889E-08
 -1       125-2.86064E+03-1.55665E+06 3.43824E+03 5.85848E+03 6.90852E-09-3.21488E-08
 -1       191-7.93195E+01 3.86341E+05 8.47894E+00 6.99725E-01-5.87564E-10-1.89302E-08
 -1       192-7.62323E+01 3.86323E+05 2.12870E+01-4.30379E+00-7.24005E-10-3.10683E-08
 -1       193-8.18546E+01 3.86341E+05 3.62379E+01 3.78010E+00-9.95632E-10-5.75783E-08
 -1       194-7.93202E+01 3.86327E+05 8.09240E+01-9.76655E+00-5.79991E-10-6.86050E-08
 -1       195-8.67206E+01 3.86338E+05 1.54928E+02 6.35583E+00-1.54798E-09-1.11813E-08
 -1       251-8.65594E+05 1.65287E+04-3.85728E+04-1.49990E+04-1.46052E-10 1.26296E-07
 -1       252-8.80077E+05-1.91347E+04-2.68162E+04 5.34733E+04-1.34264E-10-2.21685E-07
 -1       253-8.74313E+05 2.53991E+03-1.04163E+04-1.06302E+04 2.24554E-09-1.67654E-07
 -1       254-8.65913E+05-3.09317E+03-4.53947E+03 3.82159E+04-3.96994E-09 1.49474E-07
 -1       255-8.79082E+05 3.44269E+01-3.69963E+03 2.54072E+02 3.53907E-09 3.58463E-08
 -1       256-8.60004E+05-2.76480E+02 1.38888E+03 1.34668E+04 4.02451E-11 2.80206E-07
 -1       257-8.79730E+05-6.41901E+02-1.54253E+03 1.41055E+04 1.47725E-09 3.10715E-08
 -1       258-8.63104E+05 9.86495E+02 2.90279E+03-1.26133E+04-5.21277E-09 4.05596E-08
 -1       259-8.76251E+05-1.02076E+03 1.29721E+03 2.63313E+04 4.27508E-09 9.25991E-09
 -1       260-8.70255E+05 3.09618E+03 5.65576E+03-3.14541E+04-2.14635E-09-1.05162E-07
 -1       261-8.73283E+05-2.21003E+03 8.67433E+03 3.29651E+04 9.87097E-09 4.57426E-08
 -1       262-8.69259E+05 1.19982E+04 2.15685E+04-3.69955E+04-3.82685E-09 3.25467E-08
 -1       263-8.77530E+05-9.67109E+03 3.41390E+04 3.18838E+04 6.06008E-09 1.56662E-07
 -1       264-8.38176E+05 6.73764E+04 9.46605E+04-2.73168E+04 3.84732E-08 4.41456E-07
 -1       265-9.03823E+05-5.77537E+04 1.31568E+05 2.32721E+04 5.96970E-09 5.00659E-08
 -1       266-1.65125E+04-7.72208E+03 3.87390E+04-1.68133E+01 2.54659E-10 4.46793E-07
 -1       267 1.91422E+04 8.99895E+03 2.73822E+04 1.94009E+01 6.91216E-11-1.33690E-07
 -1       268-2.56695E+03-1.27457E+03 1.01777E+04-2.47192E+00-1.65073E-10 5.67049E-08
 -1       269 3.03080E+03 1.52531E+03 6.61546E+03 2.87953E+00 1.46997E-10 1.75789E-07
 -1       270-4.54924E+02-2.50621E+02 3.19338E+03-3.90770E-01-5.57066E-12-4.05141E-08
 -1       271-1.44633E+06-1.85090E+05-1.09098E+05-5.63486E+05-1.85173E-09-2.09198E-07
 -1       272-1.43586E+06-3.00557E+05-6.82719E+04-6.06617E+05 1.48357E-08-4.20725E-07
 -1       273-1.46953E+06-2.07847E+05-2.65508E+04-5.55434E+05 6.36646E-09 2.61607E-07
 -1       274-1.40978E+06-2.73050E+05-1.36683E+04-6.22129E+05-2.46291E-08 4.14933E-07
 -1       275-1.47516E+06-2.07171E+05-6.66869E+03-5.51607E+05 1.16015E-08 4.78949E-08
 -1       276-1.40444E+06-2.74127E+05-2.73322E+03-6.31094E+05 1.15251E-08 2.99454E-07
 -1       277-1.47804E+06-2.04416E+05-1.86064E+03-5.48839E+05-6.43922E-10 3.20964E-07
 -1       278-1.40247E+06-2.77341E+05-6.61219E+02-6.37667E+05-3.20797E-08 2.31146E-07
 -1       279-1.47986E+06-2.02203E+05-8.27576E+02-5.46913E+05-2.01289E-08-2.01653E-07
 -1       280-1.40160E+06-2.79704E+05-8.93306E+02-6.41937E+05 1.94686E-08 1.06315E-07
 -1       281-1.48082E+06-2.00849E+05-1.65639E+03-5.45851E+05 2.25064E-08 1.18125E-07
 -1       282-1.40198E+06-2.81716E+05-3.84337E+03-6.43627E+05-6.49261E-08 2.24945E-07
 -1       283-1.48035E+06-1.99751E+05-6.84620E+03-5.45757E+05-8.09359E-09 4.07044E-08
 -1       284-1.40815E+06-2.90549E+05-1.86379E+04-6.41417E+05-4.31806E-08-1.35279E-07
 -1       285-1.47446E+06-1.93155E+05-2.91587E+04-5.47516E+05-2.63335E-08 1.11339E-07
 -1       301-9.93492E+03-6.53057E+05 1.66433E+05-1.15113E+06 5.50062E-09 7.39092E-08
 -1       302-1.24262E+04-6.05573E+05 1.00166E+05-1.67981E+06 3.18687E-09-2.62546E-07
 -1       303-2.40412E+04-6.46246E+05 5.64280E+04-1.14793E+06 1.75132E-08-1.52288E-07
 -1       304-2.81380E+04-6.13226E+05 5.64929E+04-1.67929E+06 1.32422E-09 1.69708E-07
 -1       305-2.85476E+04-6.34848E+05 6.90691E+04-1.15101E+06 9.41509E-09 2.37051E-08
 -1       306-3.00974E+07-6.20588E+06-8.59736E+06-4.69133E+05-9.94187E-08-3.47791E-08
 -1       307 2.51840E+07 3.29435E+06 5.49308E+06-1.53067E+07-9.25327E-07 2.42377E-07
 -1       308-6.88064E+06-9.99241E+05-4.23487E+05 5.20545E+06-2.84752E-07 4.98083E-07
 -1       309-3.14285E+06 8.71381E+06 2.29729E+06-2.07115E+07 3.55009E-07 2.35304E-08
 -1       310-1.27106E+07-1.95934E+06-2.07967E+06 5.21077E+06-2.01573E-07-2.46480E-07
 -1       311 3.87988E+07-1.90280E+04 7.33082E+06-8.64158E+06 5.16302E-07 8.32370E-09
 -1       312-3.19926E+07-6.84353E+06-8.57586E+06-5.15636E+06 2.99304E-07 2.15688E-07
 -1       313 4.53302E+07 1.52746E+07 1.06931E+07 2.40030E+07 1.11584E-07-2.18482E-07
 -1       314-1.71013E+07-1.78981E+07-7.52286E+06-1.25322E+07 3.64555E-07-1.12923E-08
 -1       315-2.01088E+06 2.98326E+07 5.65681E+06 1.03789E+07-7.08897E-07-2.08733E-07
 -1       316 1.45660E+06-9.81022E+06-4.18183E+05-2.46921E+06-1.32261E-06-3.18192E-07
 -1       317-1.70750E+07 2.24385E+07 2.24953E+06-8.91551E+06 9.36809E-07-8.80158E-07
 -1       318-1.10025E+06-1.28802E+07-2.07667E+06-4.24747E+06-8.42119E-07 1.69443E-07
 -1       319 7.34344E+06 3.21304E+07 7.08403E+06 1.67262E+07-3.85699E-08 2.40048E-07
 -1       320-2.26638E+07-1.77008E+07-9.89230E+06-1.28501E+07 2.23983E-07-1.97033E-08
 -1       336-7.53705E+02-1.68401E+06-1.37849E+04 8.85825E+03-2.65263E-08-6.25732E-10
 -1       337-5.39189E+03-1.68353E+06-1.79810E+04-2.15257E+04-4.90836E-08 3.54157E-09
 -1       338 2.62473E+02-1.68350E+06-2.83328E+04 1.24164E+04-3.52857E-08-1.11031E-08
 -1       339-3.00692E+04-1.70068E+06-6.40225E+04-2.84977E+04-6.34900E-08 8.26731E-09
 -1       340 1.97886E+04-1.66903E+06-1.00862E+05 1.56996E+04-4.10400E-08 3.35749E-08
 -1       406-4.96650E+01 3.86324E+05 6.43855E+02 3.34477E+00-1.95740E-09-2.55750E-09
 -1       407 1.54762E+02 3.86458E+05 1.37596E+03 2.34113E+01-5.88628E-10-6.94581E-09
 -1       408 6.34592E+02 3.86223E+05 2.74356E+03-2.70760E+01-2.68506E-09-4.26553E-09
 -1       409 2.90555E+03 3.87334E+05 6.18374E+03 2.89037E+02-7.65795E-10-2.07983E-08
 -1       410 8.47577E+03 3.85434E+05 1.26208E+04-2.78711E+02-3.03044E-09 5.32964E-10
 -1       521-3.17166E+07-7.68732E+06-1.00788E+07-7.04492E+04-9.86038E-08-2.02563E-07
 -1       522 2.61291E+07 4.36488E+06 5.62138E+06-1.88704E+07-6.20901E-07-3.15282E-07
 -1       523-7.45078E+06-1.31863E+06-4.14889E+05 5.66732E+06 3.62052E-08-1.91605E-07
 -1       524-6.64816E+06 1.18402E+07 2.49487E+06-2.38292E+07 9.13824E-07-4.61299E-07
 -1       525-1.35160E+07-2.61568E+06-2.29431E+06 5.68120E+06 3.89409E-07-1.81986E-07
 -1       526 4.25206E+07-1.23615E+05 7.71515E+06-1.13038E+07-1.07102E-08-1.00961E-07
 -1       527-3.39238E+07-8.57123E+06-9.91712E+06-5.02798E+06 3.22470E-08 1.59271E-07
 -1       528 4.96339E+07 1.71120E+07 1.11866E+07 2.73947E+07-3.78350E-07-1.39116E-07
 -1       529-1.80609E+07-2.01784E+07-8.65279E+06-1.25800E+07-2.10188E-07-2.66591E-08
 -1       530-4.50335E+06 3.47530E+07 6.00682E+06 9.80068E+06-1.21814E-07 8.38947E-07
 -1       531 1.47245E+06-1.08959E+07-3.89250E+05-2.39500E+06-8.04881E-07 2.11585E-07
 -1       532-1.95640E+07 2.44788E+07 2.46833E+06-1.33029E+07 2.95418E-07-7.15561E-07
 -1       533-1.13769E+06-1.40685E+07-2.22161E+06-4.03447E+06-2.69560E-07-9.68808E-07
 -1       534 5.36780E+06 3.74272E+07 7.39677E+06 1.73586E+07-1.22236E-09 7.90635E-07
 -1       535-2.38943E+07-2.01682E+07-1.13789E+07-1.29465E+07 1.06753E-07 4.68805E-07
 -1       536-7.06220E+05-4.66294E+04-4.85299E+04-5.47049E+04-6.69934E-09 5.87779E-08
 -1       537-5.48226E+04 4.45461E+04 8.37324E+04 1.23897E+05-1.11893E-07 9.04292E-08
 -1       538-3.94419E+05 3.36891E+03 3.46845E+03-7.22277E+04 1.96367E-08 1.14103E-07
 -1       539-2.69014E+05 2.82952E+03 2.48782E+04 1.38793E+05 1.76765E-07 1.24678E-07
 -1       540-4.97410E+05-4.24386E+02-2.13563E+04-7.01363E+04-1.36970E-09 1.14340E-07
 -1       541 1.46943E+05 1.69768E+04 1.06433E+05 9.79734E+04-9.73123E-08 7.84793E-08
 -1       542-7.99168E+05-2.01459E+04-8.42901E+04-3.05325E+04 2.76091E-08 4.20488E-08
 -1       543 4.05788E+05 2.73408E+04 1.58059E+05-1.33655E+04 5.07926E-08-1.88916E-08
 -1       544-7.49313E+05-1.65471E+04-7.48813E+04 4.05323E+04 2.31539E-08-3.47149E-08
 -1       545 2.91995E+04 9.49020E+03 7.98575E+04-1.13669E+05 4.77536E-08-5.30090E-08
 -1       546-4.32693E+05 6.09860E+03-1.22363E+04 6.94248E+04-1.07484E-08-7.35114E-08
 -1       547-2.87085E+05-4.65612E+03 1.05968E+04-1.41637E+05-1.03194E-07-1.04102E-07
 -1       548-4.41532E+05 4.72049E+03-2.38897E+04 6.91920E+04-8.95980E-08-9.39708E-08
 -1       549 4.83895E+04 1.60956E+04 6.05688E+04-1.11531E+05-7.15604E-08-6.68599E-08
 -1       550-7.59191E+05-2.21653E+04-1.29019E+05 3.86019E+04 8.50014E-09-4.87307E-08
 -1       551 4.07309E+04-7.47938E+05-1.59561E+04-1.24633E+06-1.00903E-07 9.60426E-09
 -1       552 9.31636E+04-7.92895E+05 9.86347E+03-1.77706E+06-6.78992E-08 3.26472E-08
 -1       553 7.16971E+04-7.89309E+05 3.19776E+04-1.23968E+06-1.20082E-07 3.22179E-08
 -1       554 1.31943E+05-8.08804E+05 8.09466E+04-1.77901E+06-7.39747E-08 1.76969E-08
 -1       555 1.01426E+05-8.12963E+05 1.47848E+05-1.23951E+06-1.22011E-07-8.54379E-09
 -1       556 2.23735E+05-3.83721E+05 2.54112E+04-4.07172E+05-2.34868E-08-4.65661E-09
 -1       557 3.54231E+05-4.88052E+05 1.59724E+04-5.27637E+05-2.32831E-09 1.23218E-08
 -1       558 2.05484E+05-3.76454E+05 2.24826E+03-4.11654E+05-2.64845E-08 5.92991E-09
 -1       559 3.29254E+05-4.88076E+05 2.40327E+03-5.48091E+05 2.18133E-08-7.09406E-09
 -1       560 1.90174E+05-3.66854E+05-1.52294E+03-4.22687E+05 1.87429E-08 5.46424E-09
 -1       561 3.10022E+05-4.80377E+05 1.21344E+02-5.61206E+05-4.14730E-09 1.42845E-08
 -1       562 1.78070E+05-3.59334E+05-1.33139E+03-4.31452E+05-4.56930E-09-4.72210E-09
 -1       563 2.95645E+05-4.74108E+05-3.89609E+01-5.70596E+05-5.25324E-09-1.88447E-08
 -1       564 1.69430E+05-3.53952E+05-6.02025E+02-4.37574E+05 1.23691E-09-1.48466E-08
 -1       565 2.86108E+05-4.69955E+05 2.38971E+01-5.76690E+05 7.85803E-09 1.45078E-08
 -1       566 1.64379E+05-3.50756E+05-2.59413E+02-4.41107E+05-8.56380E-09 2.53312E-08
 -1       567 2.81471E+05-4.67937E+05-3.60152E+02-5.79506E+05 1.38389E-08 4.54020E-09
 -1       568 1.63006E+05-3.49916E+05-1.12068E+03-4.42162E+05-3.76622E-09 9.21500E-09
 -1       569 2.80349E+05-4.67860E+05-2.83125E+03-5.78079E+05-6.23459E-09 2.07219E-08
 -1       570 1.66403E+05-3.53144E+05-6.19263E+03-4.41146E+05 4.05271E-09-1.12814E-08
 -1       571 2.90708E+05 1.05166E+04 1.50011E+04-9.52686E+04 3.18960E-09 2.09056E-08
 -1       572 2.92882E+05 3.96491E+03 7.35173E+03-1.04521E+05 9.27230E-10 1.39989E-08
 -1       573 2.91571E+05 1.24815E+03 3.26662E+03-9.50926E+04 6.31189E-10-4.78758E-09
 -1       574 2.91785E+05 7.29297E+02 1.63819E+03-1.04745E+05 3.41970E-09 5.85715E-09
 -1       575 2.91665E+05 4.49670E+02 7.73192E+02-9.50685E+04-1.25447E-08 1.07275E-08
 -1       576 2.91650E+05 4.61052E+02 3.95897E+02-1.04774E+05-2.58140E-08 1.32650E-08
 -1       577 2.91706E+05 3.91318E+02 1.97677E+02-9.50652E+04-1.57870E-08 1.73623E-09
 -1       578 2.91681E+05 4.22733E+02 1.14293E+02-1.04779E+05-9.33869E-09 1.70830E-08
 -1       579 2.91778E+05 3.54357E+02 7.86575E+01-9.50648E+04-2.21007E-09-1.10631E-08
 -1       580 2.91783E+05 3.71421E+02 9.15445E+01-1.04774E+05-2.34941E-08-1.66528E-09
 -1       581 2.91893E+05 2.95526E+02 1.38508E+02-9.50708E+04-2.18279E-09 5.61158E-10
 -1       582 2.91959E+05 3.34099E+02 2.81752E+02-1.04712E+05 1.81899E-11-8.12179E-10
 -1       583 2.92033E+05 3.38814E+02 5.40921E+02-9.51274E+04-4.06726E-09 1.42859E-09
 -1       584 2.92337E+05 7.80657E+02 1.22406E+03-1.04235E+05 3.56522E-10 7.60224E-09
 -1       585 2.92059E+05 1.81128E+03 2.47878E+03-9.55474E+04-1.88447E-09-1.63709E-09
 -1       586-3.43194E+03 1.16947E+05-2.92082E+03-2.50894E+05-6.33645E-09-6.56269E-09
 -1       587-1.34375E+03 1.16699E+05 7.73361E+02-2.76129E+05-6.03904E-09-1.73309E-08
 -1       588 3.96640E+02 1.16505E+05 4.76830E+03-2.50757E+05-5.38785E-09 6.78574E-09
 -1       589 5.09112E+03 1.18984E+05 1.23666E+04-2.75894E+05-8.05630E-09 6.11999E-09
 -1       590 1.66361E+04 1.15170E+05 2.59412E+04-2.51189E+05-4.35466E-09 8.35644E-09
 -1       591-7.50108E+04-1.59443E+04-2.25397E+04-3.19237E+04-4.61728E-09-3.67527E-09
 -1       592-7.91174E+04-1.94883E+04-1.22093E+04-3.55329E+04 4.20203E-09-1.04236E-08
 -1       593-7.72648E+04-1.43090E+04-5.08212E+03-3.35766E+04 4.28304E-09 1.70164E-08
 -1       594-7.60056E+04-1.61805E+04-2.53457E+03-3.56504E+04 2.56080E-10 5.18412E-11
 -1       595-7.74366E+04-1.43037E+04-1.16360E+03-3.36517E+04-2.66593E-09 1.62352E-08
 -1       596-7.57925E+04-1.60293E+04-5.91268E+02-3.56250E+04 8.81778E-09-1.06978E-08
 -1       597-7.74581E+04-1.43191E+04-3.21430E+02-3.36546E+04 5.39853E-09-7.37703E-09
 -1       598-7.57715E+04-1.60233E+04-2.57413E+02-3.56179E+04-6.69775E-09 1.19531E-08
 -1       599-7.74569E+04-1.43196E+04-3.27594E+02-3.36542E+04 4.38831E-09-1.49690E-08
 -1       600-7.57925E+04-1.60298E+04-6.07589E+02-3.56228E+04 6.25096E-09-2.74909E-08
 -1       601-7.74323E+04-1.43051E+04-1.19813E+03-3.36508E+04 2.00566E-09-1.83361E-08
 -1       602-7.60118E+04-1.61844E+04-2.61094E+03-3.56451E+04-1.13289E-08-1.06215E-08
 -1       603-7.72525E+04-1.43135E+04-5.23587E+03-3.35742E+04-2.45086E-09-3.94266E-10
 -1       604-7.92355E+04-1.95723E+04-1.25778E+04-3.54990E+04 5.18219E-09 6.42490E-09
 -1       605-7.49104E+04-1.60162E+04-2.32201E+04-3.18909E+04 6.98248E-09 2.87582E-09
 -1       606 2.65997E+04-1.43364E+04-2.57001E+04 2.39873E+04 8.14725E-09 4.50564E-09
 -1       607 2.22084E+04-4.68235E+03-1.27986E+04 2.69567E+04 2.92675E-09-1.26765E-08
 -1       608 2.47111E+04-8.44778E+02-5.72949E+03 2.38186E+04-2.17005E-09 1.31299E-08
 -1       609 2.42314E+04-2.89504E+02-2.89438E+03 2.71707E+04 3.23780E-09-7.08360E-09
 -1       610 2.44974E+04-4.11181E+01-1.38094E+03 2.37986E+04 4.00087E-09 5.96879E-09
 -1       611 2.44222E+04-4.14081E+01-6.96262E+02 2.71938E+04 8.76298E-09 1.39596E-08
 -1       612 2.44503E+04-2.74126E+01-3.30988E+02 2.37965E+04 2.00544E-09 4.35170E-09
 -1       613 2.44338E+04-3.73248E+01-1.48297E+02 2.71965E+04 2.22644E-09-1.86744E-08
 -1       614 2.44282E+04-3.38432E+01-3.47099E+01 2.37958E+04-1.29512E-09 1.60549E-09
 -1       615 2.44285E+04-3.58422E+01 6.23113E+01 2.71970E+04-2.17642E-09 1.68823E-08
 -1       616 2.44108E+04-3.07244E+01 1.86708E+02 2.37961E+04 1.69712E-09-1.04117E-08
 -1       617 2.44510E+04 3.93892E+00 4.25924E+02 2.71965E+04-1.35424E-09-3.23125E-08
 -1       618 2.43738E+04 9.20563E+01 8.58499E+02 2.37964E+04 8.26731E-10-1.11199E-08
 -1       619 2.47540E+04 6.67727E+02 1.92781E+03 2.71959E+04 2.08843E-10 9.46193E-09
 -1       620 2.40887E+04 2.12778E+03 3.87485E+03 2.37980E+04 1.52568E-09-1.39753E-08
 -1       621 5.04778E+02 3.00989E+05 3.83615E+03 4.12983E+04 1.00772E-09-1.38880E-08
 -1       622 6.71898E+02 3.01872E+05 3.41981E+03 5.99573E+04 1.30194E-09-1.23123E-08
 -1       623 1.43835E+02 3.01177E+05 4.12821E+03 4.11116E+04 1.39653E-09 1.20262E-08
 -1       624 2.12676E+03 3.03094E+05 8.01875E+03 6.01409E+04 1.39426E-09-1.20426E-08
 -1       625 2.07757E+03 2.99585E+05 1.40196E+04 4.11086E+04 1.53705E-09-2.22633E-08
 -1       626 2.61015E+05 6.14916E+04 5.13868E+03 1.26858E+05-6.58929E-10-1.89648E-08
 -1       627 2.58693E+05 6.28903E+04 2.47629E+03 1.31142E+05 3.58341E-09 1.09563E-08
 -1       628 2.61144E+05 5.91406E+04 1.04729E+03 1.27732E+05-1.86492E-08-8.16954E-09
 -1       629 2.58055E+05 6.22076E+04 5.12583E+02 1.31383E+05-1.24237E-08 3.99033E-08
 -1       630 2.61158E+05 5.90270E+04 2.37857E+02 1.27768E+05-7.12953E-09 9.57942E-09
 -1       631 2.57988E+05 6.21816E+04 1.28090E+02 1.31385E+05 6.85145E-09-3.07226E-08
 -1       632 2.61154E+05 5.90310E+04 8.44409E+01 1.27764E+05 3.45472E-09-1.82047E-08
 -1       633 2.57980E+05 6.21834E+04 9.43065E+01 1.31381E+05 7.03699E-09 1.37552E-08
 -1       634 2.61150E+05 5.90281E+04 1.52610E+02 1.27764E+05-4.52104E-09 3.62911E-09
 -1       635 2.57994E+05 6.21816E+04 3.08932E+02 1.31387E+05-2.93025E-09-1.38671E-08
 -1       636 2.61141E+05 5.90223E+04 6.23953E+02 1.27763E+05-3.16277E-09-4.48745E-09
 -1       637 2.58130E+05 6.22786E+04 1.37197E+03 1.31386E+05-3.17800E-09 2.91811E-09
 -1       638 2.61092E+05 5.93254E+04 2.81888E+03 1.27627E+05 2.02817E-09 4.83760E-09
 -1       639 2.59611E+05 6.43377E+04 6.66962E+03 1.30950E+05 8.54652E-09 1.74261E-08
 -1       640 2.60887E+05 6.54754E+04 1.38406E+04 1.25036E+05 3.48518E-09 1.02380E-08
 -1       656 6.65137E+04-1.70236E+06-1.60561E+05-2.55957E+03-1.05501E-09-2.54691E-08
 -1       657-8.79949E+04-1.77491E+06-1.33021E+05 5.15994E+03-1.15688E-09-1.92946E-08
 -1       658 2.12053E+04-1.72296E+06-8.19324E+04-4.64190E+03 4.68162E-10-1.11584E-08
 -1       659-9.51736E+04-1.77832E+06-1.42455E+05 6.89133E+03-9.67702E-10-3.71142E-09
 -1       660 7.36764E+04-1.69896E+06-1.76781E+05-4.29095E+03-3.14321E-09 1.60019E-08
 -1       661 1.57962E+05 1.65254E+04 1.66656E+04 6.17534E+04-2.25100E-09-2.93221E-09
 -1       662 1.67395E+05 2.88561E+04 1.12315E+04 5.80015E+04-2.44859E-09-7.66374E-09
 -1       663 1.61235E+05 2.18720E+04 3.92805E+03 6.08034E+04-2.07217E-09-7.96285E-09
 -1       664 1.63600E+05 2.26037E+04 2.34982E+03 5.91621E+04-9.39480E-10-1.51134E-08
 -1       665 1.61732E+05 2.26022E+04 9.26990E+02 6.06584E+04 2.65175E-10 6.96505E-09
 -1       666 1.63012E+05 2.17688E+04 5.42656E+02 5.93512E+04 7.43663E-09 2.24669E-09
 -1       667 1.61819E+05 2.26852E+04 2.88473E+02 6.06220E+04 1.17640E-09 3.15914E-09
 -1       668 1.62916E+05 2.17092E+04 2.94482E+02 5.94041E+04-2.40618E-09-3.10030E-09
 -1       669 1.61827E+05 2.26601E+04 3.99138E+02 6.06058E+04-4.19845E-09 2.51129E-09
 -1       670 1.63013E+05 2.19261E+04 8.69548E+02 5.94069E+04-5.95832E-09-2.31194E-09
 -1       671 1.61722E+05 2.24729E+04 1.54409E+03 6.06171E+04 2.16652E-09-6.99146E-09
 -1       672 1.63913E+05 2.34282E+04 3.95063E+03 5.91888E+04 9.63634E-09-6.46111E-09
 -1       673 1.60932E+05 2.11960E+04 6.62067E+03 6.08093E+04 3.26861E-09 4.15412E-09
 -1       674 1.70214E+05 3.40650E+04 1.89337E+04 5.73375E+04-2.24998E-09 7.58519E-10
 -1       675 1.55461E+05 1.21340E+04 2.81044E+04 6.23566E+04 1.56842E-09-5.65706E-10
 -1       676 2.40980E+01-2.95798E+05-1.11281E+03-1.37570E+02 2.49219E-09-8.56405E-09
 -1       677-2.94361E+02-2.96068E+05-2.03664E+03 2.74918E+02 1.27104E-08-1.83917E-08
 -1       678 1.97436E+02-2.95607E+05-3.60027E+03-1.37258E+02 2.18051E-09-1.23064E-08
 -1       679-3.60032E+03-2.98241E+05-8.55275E+03 2.73730E+02 7.38510E-09-1.02656E-09
 -1       680 2.14961E+03-2.93626E+05-1.37841E+04-1.34866E+02-1.06775E-09 1.42253E-09
 -1       771-3.06107E+06-7.47308E+05-1.66264E+05-1.46561E+06-3.28873E-08-2.89292E-08
 -1       772-2.98395E+06-8.36240E+05-8.57261E+04-1.56843E+06-2.32103E-08 7.27596E-09
 -1       773-3.09261E+06-7.22718E+05-4.36908E+04-1.48019E+06-1.00990E-08 1.08994E-08
 -1       774-2.97440E+06-8.17658E+05-1.94949E+04-1.59422E+06 3.22470E-08-5.45697E-10
 -1       775-3.10908E+06-7.11167E+05-1.45760E+04-1.48726E+06-7.65431E-09-3.41242E-09
 -1       776-2.98676E+06-8.14612E+05-5.45195E+03-1.61373E+06-1.25729E-08 4.68572E-09
 -1       777-3.12336E+06-7.00856E+05-6.43804E+03-1.49349E+06 1.65019E-08 9.09495E-10
 -1       778-2.99968E+06-8.11781E+05-1.82068E+03-1.63050E+06 2.88856E-08 4.98767E-09
 -1       779-3.13565E+06-6.91847E+05-3.21662E+03-1.49881E+06-6.83940E-09-7.33417E-09
 -1       780-3.01105E+06-8.09081E+05-5.33532E+02-1.64416E+06-1.01281E-08 1.83718E-10
 -1       781-3.14541E+06-6.84584E+05-1.24943E+03-1.50298E+06-2.63535E-08-1.06775E-09
 -1       782-3.01981E+06-8.06789E+05 4.50637E+02-1.65424E+06-4.15239E-08-8.46376E-09
 -1       783-3.15229E+06-6.79536E+05 7.01685E+02-1.50590E+06-1.42973E-08-1.35619E-08
 -1       784-3.02467E+06-8.04499E+05 2.90761E+03-1.66046E+06-2.32285E-08 9.52014E-09
 -1       785-3.15636E+06-6.76526E+05 5.13304E+03-1.50775E+06-3.98250E-08 1.25874E-08
 -1       786 1.21453E+05-9.69469E+03 2.24295E+04-3.18327E+02 1.47802E-09-1.86719E-09
 -1       787 1.31181E+05 1.12243E+04 1.58680E+04-1.30796E+02 5.57517E-09 2.52342E-08
 -1       788 1.25204E+05-1.51918E+03 5.80296E+03-2.83316E+02 5.51664E-09 2.34684E-08
 -1       789 1.26812E+05 1.75840E+03 3.64283E+03-1.84490E+02-1.35162E-09 1.59243E-08
 -1       790 1.25823E+05-2.36527E+02 1.47477E+03-2.64651E+02-2.38091E-09 7.32808E-09
 -1       791 1.26088E+05 2.73612E+02 8.51516E+02-2.16431E+02-7.74401E-09 1.42579E-08
 -1       792 1.25928E+05-3.55052E+01 3.60274E+02-2.51377E+02-3.24258E-09 1.48965E-08
 -1       793 1.25962E+05 3.72226E+01 1.78375E+02-2.41348E+02 3.49336E-10-1.78973E-09
 -1       794 1.25949E+05-2.86422E-01 4.38794E+01-2.39734E+02 4.64235E-09 1.00690E-08
 -1       795 1.25924E+05-2.94054E+01-6.40626E+01-2.65539E+02-4.56907E-09-9.66889E-09
 -1       796 1.25966E+05 3.10855E+01-1.73100E+02-2.27186E+02 3.61573E-09-2.22833E-09
 -1       797 1.25825E+05-2.32009E+02-4.71926E+02-2.94215E+02 4.61207E-09 1.72480E-08
 -1       798 1.26049E+05 2.02165E+02-7.65500E+02-2.11057E+02 3.03957E-09-1.14221E-09
 -1       799 1.25244E+05-1.49034E+03-2.10522E+03-3.34035E+02 6.25814E-09-6.43149E-09
 -1       800 1.26547E+05 1.28839E+03-2.97908E+03-1.87368E+02 6.19144E-10 6.65409E-09
 -1       801-1.71219E+05-9.99739E+06-1.39338E+06 1.41528E+06 9.26084E-08-5.89898E-08
 -1       802 7.38204E+05 5.94961E+06 2.18152E+06-1.74713E+06 2.61178E-07-3.07027E-08
 -1       803-5.36587E+05-1.42659E+07-1.89040E+06 8.98076E+05 7.81183E-08 2.32249E-08
 -1       804 2.87136E+05 2.39452E+06 1.53705E+06 6.77150E+05-1.20548E-07-9.06443E-08
 -1       805 1.89367E+05-6.45642E+06-2.86443E+05-1.00334E+06-5.01095E-08-6.44013E-08
 -1       806-3.13176E+05-6.03416E+04-2.32685E+04-1.24078E+05 2.99588E-09-2.94795E-08
 -1       807-3.15052E+05-5.67391E+04-1.14579E+04-1.29698E+05 4.70641E-09-2.94785E-08
 -1       808-3.13864E+05-5.21518E+04-4.86184E+03-1.27976E+05 7.42966E-09-2.37432E-08
 -1       809-3.12632E+05-5.35632E+04-2.37843E+03-1.29958E+05 2.58003E-08-1.21647E-08
 -1       810-3.13963E+05-5.18769E+04-1.09074E+03-1.28145E+05 7.70251E-09-1.02150E-08
 -1       811-3.12447E+05-5.34380E+04-5.42564E+02-1.29921E+05-7.98991E-10 2.07592E-09
 -1       812-3.13977E+05-5.19026E+04-2.74752E+02-1.28144E+05-1.02564E-08-6.04859E-09
 -1       813-3.12421E+05-5.34401E+04-1.79152E+02-1.29902E+05-7.14363E-09 6.86941E-09
 -1       814-3.13970E+05-5.19125E+04-1.78473E+02-1.28140E+05 1.36606E-09-7.92943E-09
 -1       815-3.12425E+05-5.34423E+04-2.88403E+02-1.29894E+05-3.63480E-09-1.92485E-08
 -1       816-3.13948E+05-5.19112E+04-5.47225E+02-1.28136E+05 7.10497E-09-1.57852E-08
 -1       817-3.12517E+05-5.34927E+04-1.17410E+03-1.29883E+05-4.44243E-09-1.99980E-08
 -1       818-3.13877E+05-5.20678E+04-2.39377E+03-1.28061E+05 2.47383E-10 1.42336E-09
 -1       819-3.13829E+05-5.49207E+04-5.63120E+03-1.29587E+05-5.76165E-09 1.93540E-09
 -1       820-3.13405E+05-5.62130E+04-1.14353E+04-1.26277E+05 5.08317E-09 1.61003E-09
 -1       821-3.80367E+05 2.08955E+04-4.86874E+04 2.21297E+03 1.49809E-08-1.42973E-09
 -1       822-3.99908E+05-2.42090E+04-3.41802E+04-4.73745E+03 4.78721E-09 6.88897E-09
 -1       823-3.87754E+05 3.29653E+03-1.25714E+04 3.63510E+03-1.41116E-08 2.70620E-09
 -1       824-3.90958E+05-3.80044E+03-7.86335E+03-5.75771E+03 1.93069E-09-8.01856E-09
 -1       825-3.89326E+05 5.12766E+02-3.29926E+03 3.23337E+03 2.08089E-08 4.03122E-09
 -1       826-3.88415E+05-5.64069E+02-1.72090E+03-3.36530E+03 2.54571E-08-1.39183E-08
 -1       827-3.90269E+05 4.12822E+01-1.21473E+03 1.24252E+03 1.09458E-08-5.05068E-09
 -1       828-3.87630E+05-1.24727E+02-5.45294E+02 1.10337E+03-3.32852E-09-1.27292E-09
 -1       829-3.90096E+05 6.16620E+01-1.20175E+03-1.23533E+03 2.14794E-09-2.06093E-08
 -1       830-3.88789E+05-6.21804E+02-1.86613E+03 5.16309E+03 9.18760E-10-6.21512E-09
 -1       831-3.89135E+05 5.58239E+02-3.38186E+03-2.81721E+03-5.95718E-09 5.88648E-09
 -1       832-3.91039E+05-3.97272E+03-8.17450E+03 6.55306E+03-2.63919E-09 1.42804E-08
 -1       833-3.87865E+05 3.42392E+03-1.30912E+04-2.62535E+03-2.51127E-09-1.24228E-08
 -1       834-3.99954E+05-2.51481E+04-3.54343E+04 4.46375E+03-4.02967E-09 8.29505E-09
 -1       835-3.80201E+05 2.16985E+04-5.06118E+04-7.27809E+02 6.58679E-09 1.30094E-08
 -1       836-1.41208E+03 3.69658E+05 2.28919E+04-1.58470E+04-7.01948E-09-7.31779E-09
 -1       837 4.88159E+03 3.76828E+05 1.93799E+04-3.23902E+04-7.72695E-09-2.46944E-08
 -1       838-5.57908E+02 3.71667E+05 1.97585E+04-1.57755E+04-6.08725E-09 3.80260E-09
 -1       839 1.24415E+04 3.82458E+05 3.73897E+04-3.24441E+04-6.66478E-09 2.02593E-08
 -1       840-3.84538E+03 3.63968E+05 5.96286E+04-1.57988E+04-5.95901E-09 5.15186E-09
 -1       856-5.16482E+04 8.01434E+03-2.11195E+04-3.97149E+02 5.08589E-09 3.95084E-09
 -1       857-6.03490E+04-9.41661E+03-1.45385E+04 5.62388E+03 2.82472E-09-3.31602E-09
 -1       858-5.50939E+04 1.12394E+03-5.47998E+03-4.21052E+02 6.41910E-09 2.43790E-09
 -1       859-5.63947E+04-1.32230E+03-3.30689E+03 5.65941E+03-1.39292E-09 1.23159E-08
 -1       860-5.56087E+04 1.57407E+02-1.38586E+03-4.32408E+02 2.17145E-09 7.51822E-09
 -1       861-5.58025E+04-1.87938E+02-7.62269E+02 5.67486E+03 1.45819E-09-1.58260E-08
 -1       862-5.56893E+04 2.13175E+01-3.16618E+02-4.36487E+02 7.21773E-10-1.43851E-08
 -1       863-5.57038E+04-2.17879E+01-1.14776E+02 5.67722E+03-5.97042E-09-1.71774E-08
 -1       864-5.57080E+04-4.96626E+00 4.83987E+01-4.34767E+02-2.13754E-09 6.54934E-09
 -1       865-5.56477E+04 6.01468E+01 2.57716E+02 5.66742E+03 8.65867E-10 3.64968E-09
 -1       866-5.57431E+04-6.06233E+01 5.18733E+02-4.26683E+02 9.44169E-11 1.48987E-08
 -1       867-5.54040E+04 5.00651E+02 1.27638E+03 5.64548E+03 7.44876E-10-9.00522E-09
 -1       868-5.59468E+04-4.37484E+02 2.12089E+03-4.12831E+02-1.56120E-09-9.49638E-09
 -1       869-5.38493E+04 3.64115E+03 5.64703E+03 5.60940E+03 3.52475E-09-2.97299E-08
 -1       870-5.72900E+04-3.11578E+03 8.19517E+03-3.90490E+02-4.66412E-09-9.28276E-09
 -1       871-5.51508E+03-2.09865E+04-1.94790E+04 1.30500E+05-4.90945E-09 5.26597E-09
 -1       872-1.97982E+03-2.55165E+04-8.15245E+03 1.69211E+05-1.13714E-08 9.92804E-09
 -1       873 4.06315E+02-2.33264E+04 5.98807E+02 1.30212E+05-6.11271E-09-1.37090E-08
 -1       874 3.31096E+03-2.09126E+04 9.79530E+03 1.69242E+05-1.14342E-08-7.42421E-09
 -1       875 6.85549E+03-2.56592E+04 2.20899E+04 1.30451E+05-4.71846E-09-3.42243E-09
 -1       876 2.93818E+05 4.94904E+04 1.50804E+04 1.17875E+05 9.11848E-09-1.30212E-08
 -1       877 2.94821E+05 5.26603E+04 8.05355E+03 1.22194E+05 1.46956E-08-4.87717E-09
 -1       878 2.95229E+05 4.78200E+04 3.37405E+03 1.19110E+05-1.44655E-09 2.09707E-09
 -1       879 2.92772E+05 5.06144E+04 1.68117E+03 1.22296E+05-2.39766E-09 1.75478E-08
 -1       880 2.95330E+05 4.78027E+04 7.83096E+02 1.19161E+05 1.44905E-09-5.50432E-09
 -1       881 2.92636E+05 5.05268E+04 4.18253E+02 1.22272E+05 7.48435E-09-5.21726E-09
 -1       882 2.95339E+05 4.78160E+04 2.67699E+02 1.19162E+05 5.84032E-09 2.02134E-08
 -1       883 2.92626E+05 5.05223E+04 2.87986E+02 1.22265E+05-2.39328E-09 1.98356E-08
 -1       884 2.95332E+05 4.78132E+04 4.58299E+02 1.19163E+05-2.24350E-09-5.68440E-09
 -1       885 2.92662E+05 5.05286E+04 9.21549E+02 1.22276E+05-7.26664E-09-2.15406E-08
 -1       886 2.95296E+05 4.77863E+04 1.85740E+03 1.19159E+05-6.00757E-09-6.66637E-09
 -1       887 2.92989E+05 5.07427E+04 4.05726E+03 1.22323E+05 6.40500E-09 1.13778E-09
 -1       888 2.95040E+05 4.78315E+04 8.17550E+03 1.19029E+05 1.11864E-09 2.43517E-09
 -1       889 2.97856E+05 5.58044E+04 1.95297E+04 1.22174E+05 1.51504E-09 7.94898E-09
 -1       890 2.91703E+05 5.17952E+04 3.65788E+04 1.15918E+05-1.84400E-09 7.04313E-09
 -1       891-8.93893E+01-1.62765E+05-1.99740E+03 2.71191E+04-2.79761E-09 1.32763E-09
 -1       892-1.75390E+02-1.63292E+05-2.14476E+03 4.11823E+04 1.42018E-09 2.93919E-08
 -1       893 4.37971E+01-1.62829E+05-3.03621E+03 2.71265E+04 4.16094E-11 1.74655E-08
 -1       894-1.50996E+03-1.64439E+05-6.28347E+03 4.10299E+04 3.82352E-09 7.36327E-09
 -1       895-1.19914E+03-1.61520E+05-1.10650E+04 2.72734E+04 6.88487E-10 4.08363E-09
 -1       956-3.77307E+05-5.39107E+03-1.33101E+04 3.05868E+04 6.82121E-09 2.95427E-09
 -1       957-3.79918E+05-1.90134E+03-6.83191E+03 3.67589E+04 1.28466E-09-2.11423E-08
 -1       958-3.78503E+05-2.37737E+02-3.07865E+03 3.04214E+04-4.32738E-09 1.70940E-09
 -1       959-3.78697E+05-1.34316E+02-1.57207E+03 3.69518E+04 4.53610E-09-5.87625E-09
 -1       960-3.78619E+05-4.39650E+01-7.66692E+02 3.04044E+04 5.98993E-09 1.28532E-08
 -1       961-3.78617E+05-6.23045E+01-4.06706E+02 3.69719E+04 6.57928E-09 2.67560E-08
 -1       962-3.78646E+05-4.53824E+01-2.33223E+02 3.04015E+04-4.44743E-10-6.76414E-09
 -1       963-3.78617E+05-5.83397E+01-1.87904E+02 3.69754E+04-1.24055E-09-1.82165E-08
 -1       964-3.78651E+05-4.21703E+01-2.29340E+02 3.04008E+04-5.37501E-09-3.96926E-09
 -1       965-3.78629E+05-5.55126E+01-3.97354E+02 3.69747E+04-1.24955E-08 7.12339E-09
 -1       966-3.78635E+05-3.43957E+01-7.47008E+02 3.04023E+04 2.55113E-09 1.98604E-08
 -1       967-3.78718E+05-1.19165E+02-1.53229E+03 3.69603E+04 5.62000E-09 1.52854E-08
 -1       968-3.78531E+05-2.17090E+02-2.99977E+03 3.04150E+04 5.33100E-09-3.69664E-09
 -1       969-3.79921E+05-1.83614E+03-6.65945E+03 3.68121E+04 1.10276E-09 2.41732E-09
 -1       970-3.77373E+05-5.23644E+03-1.29730E+04 3.05418E+04-3.62888E-09 1.29485E-08
 -1       971-3.45398E+05-1.72936E+03-9.31963E+03 1.53953E+04 8.42647E-09-7.14595E-09
 -1       972-3.47641E+05-1.27319E+03-5.07537E+03 2.12915E+04 5.46470E-09 4.95766E-09
 -1       973-3.46436E+05-6.21653E+01-2.27331E+03 1.52740E+04-2.34650E-10-1.49159E-08
 -1       974-3.46571E+05-8.12344E+01-1.17840E+03 2.14288E+04 2.45882E-09-2.20714E-08
 -1       975-3.46518E+05-1.72271E+01-5.89488E+02 1.52617E+04 4.27508E-09-3.67379E-09
 -1       976-3.46510E+05-3.13233E+01-3.40899E+02 2.14446E+04 1.32911E-08-3.34040E-08
 -1       977-3.46535E+05-1.64694E+01-2.48868E+02 1.52583E+04 1.79762E-09-1.58188E-08
 -1       978-3.46515E+05-2.50818E+01-2.93200E+02 2.14495E+04-7.79391E-09-1.71979E-08
 -1       979-3.46534E+05-7.98082E+00-4.72778E+02 1.52568E+04-2.12344E-09-5.37568E-09
 -1       980-3.46551E+05-2.20116E+01-9.13938E+02 2.14505E+04-4.29877E-09-1.90958E-08
 -1       981-3.46505E+05 1.48675E+01-1.77065E+03 1.52573E+04 1.78898E-09 1.99600E-09
 -1       982-3.46794E+05-1.52841E+02-3.66020E+03 2.14439E+04 4.02497E-09 4.97153E-09
 -1       983-3.46282E+05-9.85130E+01-7.11196E+03 1.52634E+04-8.33552E-10 4.21073E-09
 -1       984-3.50214E+05-3.86721E+03-1.59270E+04 2.13582E+04 8.15135E-10-5.86840E-09
 -1       985-3.43062E+05-5.30261E+03-2.92469E+04 1.53348E+04-5.46470E-09 8.99490E-09
 -3
    1PSTEP                        25          13           1          
  100CL  113 6.62796E-01         409                     0   13           1
 -4  DISP        4    1
 -5  D1          1    2    1    0
 -5  D2          1    2    2    0
 -5  D3          1    2    3    0
 -5  ALL         1    2    0    0    1ALL
 -1         1 2.72934E-03 0.00000E+00 0.00000E+00
 -1         2 1.31558E-03-2.50132E-27 0.00000E+00
 -1         3 3.42689E-04-7.33027E-28 1.32349E-23
 -1         5 1.77114E-04-1.60181E-27 2.48154E-24
 -1         8 2.71874E-03-3.98975E-07 0.00000E+00
 -1         9 2.71190E-03-2.04767E-04 0.00000E+00
 -1        10 3.10741E-04-3.38856E-06 6.61744E-24
 -1        12 1.78960E-04 8.09237E-07-1.24077E-24
 -1        15 2.70668E-03-4.21703E-07 0.00000E+00
 -1        16 2.78360E-03-2.06668E-04 0.00000E+00
 -1        17 2.11480E-04-7.73118E-06 0.00000E+00
 -1        18 1.82907E-04 3.44374E-05 0.00000E+00
 -1        19 1.84501E-04 1.61206E-06 0.00000E+00
 -1        20 1.84640E-04-9.86422E-06 0.00000E+00
 -1        21 1.83745E-04-2.53989E-05 0.00000E+00
 -1        24 3.05946E-05-1.19510E-05 0.00000E+00
 -1        25 1.93711E-04 3.46631E-05 0.00000E+00
 -1        26 1.94379E-04 2.23130E-06 0.00000E+00
 -1        27 1.92165E-04-1.34196E-05 0.00000E+00
 -1        28 1.91852E-04-2.60208E-05 0.00000E+00
 -1        32 0.00000E+00 0.00000E+00 0.00000E+00
 -1        33 2.03235E-04 2.98400E-06 0.00000E+00
 -1        34 2.01116E-04-1.34751E-05 0.00000E+00
 -1        35 1.99183E-04-2.63633E-05 0.00000E+00
 -1        51 2.72863E-03-8.40912E-08-1.65436E-24
 -1        52 2.72732E-03-1.49682E-07-3.30872E-24
 -1        53 2.72556E-03-2.11753E-07 0.00000E+00
 -1        54 2.72345E-03-2.72538E-07 0.00000E+00
 -1        55 2.72114E-03-3.33802E-07 8.27181E-25
 -1        56 2.72106E-03 9.91779E-06 0.00000E+00
 -1        57 2.70430E-03 4.06745E-05 0.00000E+00
 -1        58 2.68156E-03 8.57676E-05-1.05879E-22
 -1        59 2.65601E-03 1.37340E-04-5.29396E-23
 -1        60 2.63153E-03 1.86424E-04-1.05879E-22
 -1        61 2.61183E-03 2.24251E-04 5.29396E-23
 -1        62 2.59946E-03 2.44059E-04-1.05879E-22
 -1        63 2.59602E-03 2.40690E-04 0.00000E+00
 -1        64 2.60126E-03 2.13250E-04 1.05879E-22
 -1        65 2.61409E-03 1.63139E-04 0.00000E+00
 -1        66 2.63228E-03 9.60901E-05-1.05879E-22
 -1        67 2.65334E-03 1.95205E-05 0.00000E+00
 -1        68 2.67447E-03-5.72884E-05 1.05879E-22
 -1        69 2.69290E-03-1.25025E-04-5.29396E-23
 -1        70 2.70608E-03-1.76156E-04-5.29396E-23
 -1        86 1.40341E-03-6.42358E-06 0.00000E+00
 -1        87 1.65718E-03-4.05890E-05 0.00000E+00
 -1        88 1.99843E-03-9.94073E-05 0.00000E+00
 -1        89 2.34446E-03-1.59917E-04 0.00000E+00
 -1        90 2.60977E-03-1.96959E-04-5.29396E-23
 -1       121 3.41792E-04-5.47031E-07 0.00000E+00
 -1       122 3.39105E-04-1.09715E-06 0.00000E+00
 -1       123 3.34636E-04-1.65339E-06-1.32349E-23
 -1       124 3.28403E-04-2.21880E-06 0.00000E+00
 -1       125 3.20428E-04-2.79602E-06 0.00000E+00
 -1       191 1.77165E-04 1.34937E-07 0.00000E+00
 -1       192 1.77319E-04 2.69862E-07-8.27181E-25
 -1       193 1.77575E-04 4.04767E-07 1.65436E-24
 -1       194 1.77934E-04 5.39640E-07 1.24077E-24
 -1       195 1.78396E-04 6.74467E-07 2.48154E-24
 -1       251 2.71844E-03 1.59219E-06-6.61744E-24
 -1       252 2.71814E-03 3.44667E-06-3.30872E-24
 -1       253 2.71784E-03 4.13461E-06 0.00000E+00
 -1       254 2.71753E-03 2.64065E-06 3.30872E-24
 -1       255 2.71722E-03-1.72082E-06 0.00000E+00
 -1       256 2.71688E-03-9.59967E-06 0.00000E+00
 -1       257 2.71651E-03-2.11145E-05 0.00000E+00
 -1       258 2.71610E-03-3.63386E-05-3.30872E-24
 -1       259 2.71563E-03-5.47854E-05 0.00000E+00
 -1       260 2.71511E-03-7.59279E-05-6.61744E-24
 -1       261 2.71455E-03-9.88320E-05 0.00000E+00
 -1       262 2.71398E-03-1.22542E-04-6.61744E-24
 -1       263 2.71341E-03-1.45981E-04 1.32349E-23
 -1       264 2.71286E-03-1.68073E-04 0.00000E+00
 -1       265 2.71236E-03-1.87949E-04 1.32349E-23
 -1       266 2.71673E-03-4.08297E-07-1.65436E-24
 -1       267 2.71472E-03-4.11410E-07 0.00000E+00
 -1       268 2.71271E-03-4.14917E-07 0.00000E+00
 -1       269 2.71070E-03-4.17259E-07 0.00000E+00
 -1       270 2.70869E-03-4.19574E-07 0.00000E+00
 -1       271 2.71796E-03-4.98179E-08-1.32349E-23
 -1       272 2.71819E-03-2.47962E-06 0.00000E+00
 -1       273 2.71940E-03-7.51977E-06 0.00000E+00
 -1       274 2.72150E-03-1.49885E-05-6.61744E-24
 -1       275 2.72441E-03-2.46826E-05 2.64698E-23
 -1       276 2.72805E-03-3.63830E-05 0.00000E+00
 -1       277 2.73233E-03-4.98540E-05-2.64698E-23
 -1       278 2.73715E-03-6.48464E-05-6.61744E-24
 -1       279 2.74243E-03-8.10991E-05-1.32349E-23
 -1       280 2.74806E-03-9.83409E-05 0.00000E+00
 -1       281 2.75395E-03-1.16292E-04 1.32349E-23
 -1       282 2.75998E-03-1.34670E-04-6.61744E-24
 -1       283 2.76607E-03-1.53184E-04 0.00000E+00
 -1       284 2.77210E-03-1.71547E-04 0.00000E+00
 -1       285 2.77798E-03-1.89470E-04 0.00000E+00
 -1       301 2.72492E-03-2.05120E-04-6.61744E-24
 -1       302 2.73626E-03-2.05425E-04 3.30872E-24
 -1       303 2.74685E-03-2.05718E-04 1.32349E-23
 -1       304 2.75764E-03-2.06012E-04 0.00000E+00
 -1       305 2.76958E-03-2.06321E-04-2.64698E-23
 -1       306 2.75008E-03-3.60654E-04-1.05879E-22
 -1       307 2.81394E-03-7.75963E-04-5.29396E-23
 -1       308 2.86049E-03-1.38198E-03 0.00000E+00
 -1       309 2.88441E-03-2.08235E-03 5.29396E-23
 -1       310 2.91601E-03-2.75118E-03 0.00000E+00
 -1       311 2.97571E-03-3.26538E-03 0.00000E+00
 -1       312 3.03324E-03-3.54454E-03 0.00000E+00
 -1       313 3.02733E-03-3.55135E-03 5.29396E-23
 -1       314 2.88406E-03-3.29834E-03 1.05879E-22
 -1       315 2.56285E-03-2.85044E-03-5.29396E-23
 -1       316 2.08263E-03-2.28441E-03 0.00000E+00
 -1       317 1.50988E-03-1.66940E-03-5.29396E-23
 -1       318 9.59242E-04-1.06579E-03 0.00000E+00
 -1       319 5.38814E-04-5.38463E-04-5.29396E-23
 -1       320 2.92240E-04-1.61627E-04 0.00000E+00
 -1       336 2.99155E-04-4.04377E-06-1.32349E-23
 -1       337 2.85494E-04-4.72467E-06 0.00000E+00
 -1       338 2.69818E-04-5.43349E-06-1.32349E-23
 -1       339 2.52201E-04-6.17105E-06 6.61744E-24
 -1       340 2.32725E-04-6.94184E-06-1.32349E-23
 -1       406 1.79627E-04 9.43930E-07-3.30872E-24
 -1       407 1.80397E-04 1.07851E-06-1.65436E-24
 -1       408 1.81269E-04 1.21292E-06 1.65436E-24
 -1       409 1.82244E-04 1.34700E-06 6.20385E-25
 -1       410 1.83322E-04 1.48046E-06-2.89513E-24
 -1       521 2.82236E-03-3.71874E-04-1.05879E-22
 -1       522 2.88439E-03-8.07813E-04 0.00000E+00
 -1       523 2.92433E-03-1.44229E-03 0.00000E+00
 -1       524 2.93877E-03-2.17208E-03 0.00000E+00
 -1       525 2.96226E-03-2.86829E-03 0.00000E+00
 -1       526 3.01837E-03-3.40509E-03 0.00000E+00
 -1       527 3.07550E-03-3.69504E-03 0.00000E+00
 -1       528 3.06720E-03-3.69991E-03 1.05879E-22
 -1       529 2.91149E-03-3.43230E-03 2.11758E-22
 -1       530 2.56548E-03-2.96532E-03 0.00000E+00
 -1       531 2.04896E-03-2.37961E-03 1.05879E-22
 -1       532 1.43504E-03-1.74695E-03 0.00000E+00
 -1       533 8.43989E-04-1.12500E-03 0.00000E+00
 -1       534 3.89304E-04-5.76287E-04-5.29396E-23
 -1       535 1.21007E-04-1.79479E-04-2.11758E-22
 -1       536 2.10725E-04 2.71991E-05 0.00000E+00
 -1       537 2.08806E-04 8.76524E-05 0.00000E+00
 -1       538 2.05841E-04 1.64360E-04 0.00000E+00
 -1       539 2.02343E-04 2.47968E-04 1.65436E-24
 -1       540 1.99196E-04 3.26971E-04 0.00000E+00
 -1       541 1.97150E-04 3.89887E-04 0.00000E+00
 -1       542 1.96206E-04 4.29960E-04 0.00000E+00
 -1       543 1.95981E-04 4.40585E-04 1.65436E-24
 -1       544 1.95659E-04 4.22534E-04 0.00000E+00
 -1       545 1.94486E-04 3.76804E-04 1.65436E-24
 -1       546 1.92300E-04 3.11521E-04-3.30872E-24
 -1       547 1.89340E-04 2.34937E-04 0.00000E+00
 -1       548 1.86408E-04 1.58728E-04 3.30872E-24
 -1       549 1.84292E-04 9.45743E-05 0.00000E+00
 -1       550 1.83193E-04 5.05086E-05 0.00000E+00
 -1       551 1.86276E-04-8.29963E-06 0.00000E+00
 -1       552 1.57828E-04-8.94856E-06 0.00000E+00
 -1       553 1.27077E-04-9.65976E-06 1.32349E-23
 -1       554 9.49825E-05-1.04121E-05 3.30872E-24
 -1       555 6.25036E-05-1.11783E-05 0.00000E+00
 -1       556 2.03831E-04 1.18272E-05 0.00000E+00
 -1       557 1.97651E-04 2.76896E-05 2.64698E-23
 -1       558 1.92806E-04 4.01438E-05 0.00000E+00
 -1       559 1.89162E-04 4.95003E-05 0.00000E+00
 -1       560 1.86591E-04 5.60699E-05 0.00000E+00
 -1       561 1.84965E-04 6.01661E-05 0.00000E+00
 -1       562 1.84156E-04 6.21033E-05 0.00000E+00
 -1       563 1.84043E-04 6.21973E-05 0.00000E+00
 -1       564 1.84502E-04 6.07644E-05 0.00000E+00
 -1       565 1.85413E-04 5.81218E-05 0.00000E+00
 -1       566 1.86656E-04 5.45870E-05 0.00000E+00
 -1       567 1.88113E-04 5.04783E-05 0.00000E+00
 -1       568 1.89665E-04 4.61137E-05-1.65436E-24
 -1       569 1.91194E-04 4.18116E-05 8.27181E-25
 -1       570 1.92581E-04 3.78902E-05 0.00000E+00
 -1       571 1.83003E-04 3.23062E-05 3.30872E-24
 -1       572 1.83102E-04 3.01096E-05 1.65436E-24
 -1       573 1.83201E-04 2.78631E-05 1.65436E-24
 -1       574 1.83301E-04 2.55831E-05 0.00000E+00
 -1       575 1.83400E-04 2.32861E-05 3.30872E-24
 -1       576 1.83500E-04 2.09885E-05-1.65436E-24
 -1       577 1.83599E-04 1.87068E-05 0.00000E+00
 -1       578 1.83699E-04 1.64577E-05-6.61744E-24
 -1       579 1.83799E-04 1.42575E-05 0.00000E+00
 -1       580 1.83899E-04 1.21229E-05 0.00000E+00
 -1       581 1.83999E-04 1.00703E-05 0.00000E+00
 -1       582 1.84099E-04 8.11631E-06 0.00000E+00
 -1       583 1.84199E-04 6.27736E-06 6.61744E-24
 -1       584 1.84300E-04 4.56979E-06 0.00000E+00
 -1       585 1.84400E-04 3.00976E-06 6.61744E-24
 -1       586 1.84666E-04 3.44771E-05 0.00000E+00
 -1       587 1.86384E-04 3.45163E-05 0.00000E+00
 -1       588 1.88104E-04 3.45551E-05 0.00000E+00
 -1       589 1.89870E-04 3.45933E-05 0.00000E+00
 -1       590 1.91725E-04 3.46302E-05 0.00000E+00
 -1       591 1.83637E-04 3.24001E-05 2.06795E-25
 -1       592 1.84371E-04 3.03433E-05 0.00000E+00
 -1       593 1.85109E-04 2.82728E-05 0.00000E+00
 -1       594 1.85850E-04 2.61932E-05 4.13590E-25
 -1       595 1.86593E-04 2.41093E-05-8.27181E-25
 -1       596 1.87335E-04 2.20257E-05 0.00000E+00
 -1       597 1.88076E-04 1.99470E-05 8.27181E-25
 -1       598 1.88813E-04 1.78780E-05 4.13590E-25
 -1       599 1.89544E-04 1.58233E-05 8.27181E-25
 -1       600 1.90269E-04 1.37875E-05 0.00000E+00
 -1       601 1.90985E-04 1.17752E-05 0.00000E+00
 -1       602 1.91690E-04 9.79110E-06 0.00000E+00
 -1       603 1.92384E-04 7.83987E-06-4.13590E-25
 -1       604 1.93063E-04 5.92625E-06 0.00000E+00
 -1       605 1.93728E-04 4.05479E-06 0.00000E+00
 -1       606 1.84514E-04 4.47881E-07 0.00000E+00
 -1       607 1.84524E-04-6.30412E-07 0.00000E+00
 -1       608 1.84533E-04-1.62786E-06 0.00000E+00
 -1       609 1.84541E-04-2.55015E-06 0.00000E+00
 -1       610 1.84549E-04-3.40303E-06-3.30872E-24
 -1       611 1.84558E-04-4.19229E-06 0.00000E+00
 -1       612 1.84566E-04-4.92372E-06 0.00000E+00
 -1       613 1.84574E-04-5.60316E-06 0.00000E+00
 -1       614 1.84582E-04-6.23641E-06 0.00000E+00
 -1       615 1.84591E-04-6.82928E-06 0.00000E+00
 -1       616 1.84599E-04-7.38759E-06 1.65436E-24
 -1       617 1.84608E-04-7.91716E-06 4.13590E-25
 -1       618 1.84616E-04-8.42379E-06 8.27181E-25
 -1       619 1.84624E-04-8.91331E-06 0.00000E+00
 -1       620 1.84632E-04-9.39152E-06 0.00000E+00
 -1       621 1.85860E-04 1.71584E-06 1.65436E-24
 -1       622 1.87379E-04 1.81986E-06-8.27181E-25
 -1       623 1.89024E-04 1.92366E-06 0.00000E+00
 -1       624 1.90761E-04 2.02714E-06 0.00000E+00
 -1       625 1.92558E-04 2.13032E-06 0.00000E+00
 -1       626 1.85050E-04 4.84141E-07 0.00000E+00
 -1       627 1.85575E-04-5.80585E-07 0.00000E+00
 -1       628 1.86081E-04-1.58999E-06 6.61744E-24
 -1       629 1.86569E-04-2.55227E-06 0.00000E+00
 -1       630 1.87042E-04-3.47564E-06-3.30872E-24
 -1       631 1.87504E-04-4.36833E-06-1.65436E-24
 -1       632 1.87958E-04-5.23857E-06 0.00000E+00
 -1       633 1.88406E-04-6.09460E-06 0.00000E+00
 -1       634 1.88852E-04-6.94465E-06 0.00000E+00
 -1       635 1.89299E-04-7.79695E-06 0.00000E+00
 -1       636 1.89749E-04-8.65974E-06 0.00000E+00
 -1       637 1.90207E-04-9.54126E-06 0.00000E+00
 -1       638 1.90675E-04-1.04497E-05 1.65436E-24
 -1       639 1.91155E-04-1.13934E-05 0.00000E+00
 -1       640 1.91651E-04-1.23806E-05 3.30872E-24
 -1       656 1.85346E-04-1.04421E-05-6.61744E-24
 -1       657 1.86471E-04-1.10435E-05 6.61744E-24
 -1       658 1.87877E-04-1.16434E-05 0.00000E+00
 -1       659 1.89417E-04-1.22431E-05 0.00000E+00
 -1       660 1.90907E-04-1.28445E-05-6.61744E-24
 -1       661 1.84904E-04-1.03823E-05 0.00000E+00
 -1       662 1.85206E-04-1.09926E-05 0.00000E+00
 -1       663 1.85540E-04-1.16897E-05 0.00000E+00
 -1       664 1.85904E-04-1.24673E-05 0.00000E+00
 -1       665 1.86297E-04-1.33194E-05-1.65436E-24
 -1       666 1.86715E-04-1.42401E-05-8.27181E-25
 -1       667 1.87157E-04-1.52236E-05 0.00000E+00
 -1       668 1.87620E-04-1.62644E-05 0.00000E+00
 -1       669 1.88103E-04-1.73570E-05 1.65436E-24
 -1       670 1.88603E-04-1.84960E-05 0.00000E+00
 -1       671 1.89118E-04-1.96763E-05 1.65436E-24
 -1       672 1.89647E-04-2.08926E-05 0.00000E+00
 -1       673 1.90187E-04-2.21400E-05 0.00000E+00
 -1       674 1.90736E-04-2.34136E-05 0.00000E+00
 -1       675 1.91293E-04-2.47082E-05-2.06795E-25
 -1       676 1.85101E-04-2.55032E-05 0.00000E+00
 -1       677 1.86456E-04-2.56074E-05 0.00000E+00
 -1       678 1.87809E-04-2.57115E-05 3.30872E-24
 -1       679 1.89160E-04-2.58154E-05 1.65436E-24
 -1       680 1.90508E-04-2.59192E-05 0.00000E+00
 -1       771 1.86379E-05 1.47895E-05 0.00000E+00
 -1       772 8.57911E-06 3.67512E-05 5.29396E-23
 -1       773 3.27424E-07 5.41645E-05 0.00000E+00
 -1       774-6.24156E-06 6.72873E-05-2.64698E-23
 -1       775-1.12496E-05 7.63883E-05 0.00000E+00
 -1       776-1.48233E-05 8.17528E-05 2.64698E-23
 -1       777-1.70891E-05 8.36760E-05-5.29396E-23
 -1       778-1.81760E-05 8.24674E-05-2.64698E-23
 -1       779-1.82124E-05 7.84445E-05 0.00000E+00
 -1       780-1.73287E-05 7.19367E-05 2.64698E-23
 -1       781-1.56543E-05 6.32799E-05-5.29396E-23
 -1       782-1.33202E-05 5.28190E-05 2.64698E-23
 -1       783-1.04566E-05 4.09034E-05 5.29396E-23
 -1       784-7.19485E-06 2.78888E-05 0.00000E+00
 -1       785-3.66526E-06 1.41339E-05 0.00000E+00
 -1       786 1.93749E-04 3.24054E-05 3.23117E-27
 -1       787 1.93790E-04 3.01985E-05 0.00000E+00
 -1       788 1.93830E-04 2.80340E-05 0.00000E+00
 -1       789 1.93872E-04 2.59036E-05-4.13590E-25
 -1       790 1.93914E-04 2.38027E-05 1.65436E-24
 -1       791 1.93956E-04 2.17262E-05-8.27181E-25
 -1       792 1.93998E-04 1.96721E-05-1.65436E-24
 -1       793 1.94040E-04 1.76381E-05 0.00000E+00
 -1       794 1.94082E-04 1.56238E-05-1.65436E-24
 -1       795 1.94124E-04 1.36290E-05 8.27181E-25
 -1       796 1.94166E-04 1.16557E-05-1.65436E-24
 -1       797 1.94208E-04 9.70540E-06 0.00000E+00
 -1       798 1.94251E-04 7.78238E-06-1.65436E-24
 -1       799 1.94293E-04 5.89081E-06-8.27181E-25
 -1       800 1.94336E-04 4.03798E-06 0.00000E+00
 -1       801 1.47907E-04 3.11625E-05-2.64698E-23
 -1       802 9.40911E-06 1.94413E-05 2.64698E-23
 -1       803-1.08887E-04 9.82046E-06 5.29396E-23
 -1       804-9.65135E-05 6.83577E-06-2.64698E-23
 -1       805-3.18885E-05 2.68581E-06 0.00000E+00
 -1       806 1.94441E-04 3.23355E-05 0.00000E+00
 -1       807 1.95157E-04 3.00340E-05 0.00000E+00
 -1       808 1.95860E-04 2.77640E-05-3.30872E-24
 -1       809 1.96550E-04 2.55296E-05 0.00000E+00
 -1       810 1.97224E-04 2.33350E-05 3.30872E-24
 -1       811 1.97883E-04 2.11844E-05 1.65436E-24
 -1       812 1.98523E-04 1.90818E-05 0.00000E+00
 -1       813 1.99144E-04 1.70312E-05 0.00000E+00
 -1       814 1.99744E-04 1.50367E-05 0.00000E+00
 -1       815 2.00321E-04 1.31023E-05-1.65436E-24
 -1       816 2.00875E-04 1.12322E-05-1.65436E-24
 -1       817 2.01403E-04 9.43015E-06 1.65436E-24
 -1       818 2.01904E-04 7.70034E-06 1.65436E-24
 -1       819 2.02377E-04 6.04674E-06 8.27181E-25
 -1       820 2.02821E-04 4.47332E-06 1.65436E-24
 -1       821 1.94249E-04-1.74135E-07-1.65436E-24
 -1       822 1.94108E-04-3.81749E-06 0.00000E+00
 -1       823 1.93964E-04-8.24570E-06 0.00000E+00
 -1       824 1.93818E-04-1.30007E-05 0.00000E+00
 -1       825 1.93672E-04-1.75360E-05 3.30872E-24
 -1       826 1.93529E-04-2.13060E-05-1.65436E-24
 -1       827 1.93390E-04-2.39745E-05 3.30872E-24
 -1       828 1.93253E-04-2.52119E-05-1.65436E-24
 -1       829 1.93117E-04-2.50795E-05 0.00000E+00
 -1       830 1.92980E-04-2.36467E-05-1.65436E-24
 -1       831 1.92841E-04-2.13383E-05 0.00000E+00
 -1       832 1.92702E-04-1.85843E-05 1.65436E-24
 -1       833 1.92563E-04-1.59365E-05 3.30872E-24
 -1       834 1.92427E-04-1.39460E-05 1.65436E-24
 -1       835 1.92291E-04-1.29851E-05-8.27181E-25
 -1       836 1.96071E-04 2.35612E-06-3.30872E-24
 -1       837 1.97635E-04 2.48408E-06 0.00000E+00
 -1       838 1.99102E-04 2.61199E-06 3.30872E-24
 -1       839 2.00504E-04 2.73919E-06 0.00000E+00
 -1       840 2.01871E-04 2.86624E-06 0.00000E+00
 -1       856 1.92149E-04-1.44814E-05 0.00000E+00
 -1       857 1.92129E-04-1.54077E-05-2.58494E-26
 -1       858 1.92110E-04-1.62196E-05 0.00000E+00
 -1       859 1.92091E-04-1.69382E-05 0.00000E+00
 -1       860 1.92071E-04-1.75848E-05-4.13590E-25
 -1       861 1.92052E-04-1.81805E-05-2.06795E-25
 -1       862 1.92032E-04-1.87466E-05 0.00000E+00
 -1       863 1.92013E-04-1.93045E-05 2.06795E-25
 -1       864 1.91993E-04-1.98754E-05 0.00000E+00
 -1       865 1.91973E-04-2.04806E-05 4.13590E-25
 -1       866 1.91954E-04-2.11415E-05 0.00000E+00
 -1       867 1.91934E-04-2.18792E-05 0.00000E+00
 -1       868 1.91914E-04-2.27149E-05 0.00000E+00
 -1       869 1.91894E-04-2.36698E-05 0.00000E+00
 -1       870 1.91873E-04-2.47648E-05 0.00000E+00
 -1       871 1.93514E-04-1.34244E-05 8.27181E-25
 -1       872 1.95012E-04-1.34326E-05 0.00000E+00
 -1       873 1.96589E-04-1.34415E-05 0.00000E+00
 -1       874 1.98177E-04-1.34512E-05-2.84343E-25
 -1       875 1.99709E-04-1.34614E-05-8.27181E-25
 -1       876 1.92690E-04-1.44669E-05-3.30872E-24
 -1       877 1.93193E-04-1.54475E-05 0.00000E+00
 -1       878 1.93675E-04-1.63695E-05-3.30872E-24
 -1       879 1.94137E-04-1.72402E-05 0.00000E+00
 -1       880 1.94584E-04-1.80670E-05-3.30872E-24
 -1       881 1.95017E-04-1.88573E-05 0.00000E+00
 -1       882 1.95438E-04-1.96183E-05 0.00000E+00
 -1       883 1.95852E-04-2.03575E-05 0.00000E+00
 -1       884 1.96260E-04-2.10821E-05 3.30872E-24
 -1       885 1.96666E-04-2.17994E-05 0.00000E+00
 -1       886 1.97071E-04-2.25168E-05 0.00000E+00
 -1       887 1.97479E-04-2.32415E-05-1.65436E-24
 -1       888 1.97892E-04-2.39809E-05 0.00000E+00
 -1       889 1.98313E-04-2.47425E-05-1.65436E-24
 -1       890 1.98745E-04-2.55336E-05 1.65436E-24
 -1       891 1.93216E-04-2.60784E-05-1.65436E-24
 -1       892 1.94556E-04-2.61361E-05 8.27181E-25
 -1       893 1.95849E-04-2.61937E-05 8.27181E-25
 -1       894 1.97067E-04-2.62510E-05 8.27181E-25
 -1       895 1.98187E-04-2.63081E-05-4.13590E-25
 -1       956 2.03104E-04 1.67001E-06 0.00000E+00
 -1       957 2.02972E-04 4.46243E-07-8.27181E-25
 -1       958 2.02839E-04-6.97953E-07 3.30872E-24
 -1       959 2.02706E-04-1.77382E-06 0.00000E+00
 -1       960 2.02574E-04-2.79264E-06 3.30872E-24
 -1       961 2.02441E-04-3.76572E-06 0.00000E+00
 -1       962 2.02308E-04-4.70440E-06 3.30872E-24
 -1       963 2.02175E-04-5.62003E-06 0.00000E+00
 -1       964 2.02042E-04-6.52395E-06-3.30872E-24
 -1       965 2.01909E-04-7.42748E-06 0.00000E+00
 -1       966 2.01777E-04-8.34200E-06 0.00000E+00
 -1       967 2.01644E-04-9.27883E-06-1.65436E-24
 -1       968 2.01511E-04-1.02493E-05 0.00000E+00
 -1       969 2.01379E-04-1.12647E-05 3.30872E-24
 -1       970 2.01246E-04-1.23364E-05 3.30872E-24
 -1       971 2.00996E-04-1.46129E-05-3.30872E-24
 -1       972 2.00875E-04-1.56561E-05 1.65436E-24
 -1       973 2.00753E-04-1.66149E-05 3.30872E-24
 -1       974 2.00632E-04-1.75004E-05 1.65436E-24
 -1       975 2.00510E-04-1.83232E-05 3.30872E-24
 -1       976 2.00389E-04-1.90943E-05 0.00000E+00
 -1       977 2.00268E-04-1.98247E-05 0.00000E+00
 -1       978 2.00146E-04-2.05252E-05 0.00000E+00
 -1       979 2.00025E-04-2.12067E-05-3.30872E-24
 -1       980 1.99903E-04-2.18802E-05 0.00000E+00
 -1       981 1.99782E-04-2.25565E-05 0.00000E+00
 -1       982 1.99661E-04-2.32467E-05 0.00000E+00
 -1       983 1.99540E-04-2.39616E-05-3.30872E-24
 -1       984 1.99419E-04-2.47121E-05-1.65436E-24
 -1       985 1.99299E-04-2.55091E-05 0.00000E+00
 -3
    1PSTEP                        26          13           1          
  100CL  113 6.62796E-01         409                     0   13           1
 -4  STRESS      6    1
 -5  SXX         1    4    1    1
 -5  SYY         1    4    2    2
 -5  SZZ         1    4    3    3
 -5  SXY         1    4    1    2
 -5  SYZ         1    4    2    3
 -5  SZX         1    4    3    1
 -1         1-5.34854E+06-1.55669E+06-1.13154E+06-1.30594E+06-4.36557E-11-1.64728E-08
 -1         2 1.57134E+06 2.29772E+07 5.32399E+06 6.97151E+06 2.80270E-08 2.57860E-07
 -1         3-1.48734E+03-1.55317E+06 4.04779E+02-2.20397E+03-7.78673E-10 9.76434E-09
 -1         5-7.52764E+01 3.86403E+05 9.97752E+00-1.34254E+00-4.21154E-10-1.43245E-08
 -1         8-5.49828E+05-1.99713E+05-6.25703E+04-2.40798E+05 5.63887E-11-3.90319E-08
 -1         9 1.18432E+07 4.03742E+06 2.84215E+06-2.74693E+05-3.08501E-09 9.82778E-08
 -1        10-2.30238E+03-1.61852E+06-3.93397E+03-1.49143E+04-1.36661E-08-7.64314E-08
 -1        12-7.13598E+01 3.86425E+05 3.27990E+02-9.15124E+00-6.29900E-10-3.12866E-09
 -1        15 9.17014E+02 5.03944E+02 2.96423E+03 7.97531E-01 1.18760E-10 9.90098E-08
 -1        16 2.29343E+07-3.40890E+05 3.11903E+06-2.31389E+06-6.59687E-10-9.49949E-08
 -1        17 8.40130E+06 6.29309E+06 2.26892E+06 6.01874E+06 2.65078E-08 1.96625E-08
 -1        18 1.42499E+05 3.35532E+04 4.17751E+03-1.19604E+05 1.58025E-08-3.97858E-09
 -1        19 1.22447E+05 1.41613E+05-9.59367E+02 2.20599E+04 1.53850E-09 3.46117E-09
 -1        20-8.20294E+04-5.73230E+05-1.28638E+05 2.50670E+04-2.42214E-09 3.91083E-09
 -1        21-4.55515E+01-2.95937E+05-9.23489E+02 2.75193E+02 1.55575E-08-9.63730E-09
 -1        24 1.41023E+07 1.21366E+07 3.90210E+06 1.12361E+07-1.73556E-07-5.28526E-08
 -1        25 1.23842E+05 2.67817E+05 9.99344E+04-6.46612E+05-6.08998E-10 1.31206E-08
 -1        26-5.61332E+04 9.19711E+04-2.47781E+04 1.46010E+03-1.78625E-10 1.05605E-08
 -1        27-7.55864E+04-3.09665E+05-1.13302E+05 6.90384E+04 3.37044E-09 7.69129E-10
 -1        28 2.22340E+04-8.53548E+04 1.68956E+04 2.05597E+04-4.73341E-09 7.64749E-09
 -1        32-1.68013E+06-3.18145E+06-1.97668E+05 4.58914E+05-4.27608E-08-1.02241E-08
 -1        33-1.79936E+05 9.24443E+04 3.22807E+04-3.88932E+04-3.40814E-09 1.61811E-08
 -1        34-2.23626E+05-2.49329E+04 6.91619E+02 7.55883E+04-5.26615E-09 1.66421E-08
 -1        35-2.29182E+04-3.38579E+04-1.34863E+03 5.14877E+04-3.70650E-09 5.78075E-09
 -1        51 6.09788E+04-1.69649E+05 1.28874E+05-4.30997E+05-2.91038E-11-1.28501E-07
 -1        52 2.05992E+04-1.47076E+05 6.75341E+04-5.02682E+05 1.12777E-10-1.98488E-08
 -1        53 4.14239E+03-1.62418E+05 3.50227E+04-4.29523E+05 5.40240E-10-1.32255E-07
 -1        54 7.20300E+03-1.58199E+05 2.84865E+04-5.04120E+05-4.00178E-11-3.85029E-07
 -1        55 1.57151E+04-1.65090E+05 3.43074E+04-4.29441E+05 8.73115E-11 1.62407E-07
 -1        56-9.82584E+06-1.41527E+06-9.33092E+05-4.12693E+06 8.96398E-09 4.03088E-08
 -1        57-1.11664E+07-7.20630E+05-5.42506E+05-2.62901E+06 3.20142E-08-1.42951E-07
 -1        58-9.57847E+06-1.89775E+06-2.02357E+05-4.34114E+06 1.98997E-08 4.69518E-08
 -1        59-1.14109E+07-1.56565E+05-1.06071E+05-2.55116E+06-3.07136E-08 1.48484E-07
 -1        60-9.68005E+06-1.90068E+06-5.98094E+04-4.29149E+06-7.42875E-09 8.00283E-08
 -1        61-1.06612E+07-5.36464E+05 2.52171E+04-2.80750E+06-6.69024E-09 4.28696E-07
 -1        62-1.01629E+07-1.62961E+06-9.10468E+04-3.95240E+06-2.36614E-08 2.11214E-07
 -1        63-9.63091E+06-1.33594E+06 6.91981E+04-3.57752E+06-4.55184E-08 1.64297E-07
 -1        64-1.05753E+07-1.19770E+06-8.38973E+04-3.43697E+06-1.02445E-08-4.72064E-08
 -1        65-9.24156E+06-2.00516E+06 2.12743E+04-4.60713E+06-5.18630E-08-3.71722E-07
 -1        66-1.07067E+07-8.53171E+05-4.83403E+04-3.03991E+06 2.12603E-08-2.26137E-08
 -1        67-9.28498E+06-2.27984E+06-9.53088E+04-5.10029E+06-6.52235E-08-6.02959E-08
 -1        68-1.06869E+07-8.13638E+05-1.88722E+05-3.03904E+06-3.35931E-08 1.81608E-08
 -1        69-9.43507E+06-2.34377E+06-4.80834E+05-4.57535E+06-2.82762E-08 3.11993E-08
 -1        70-1.04117E+07-9.03305E+05-8.59116E+05-3.47163E+06 1.10740E-08 2.89874E-07
 -1        86-1.60355E+06-1.61621E+07-2.91564E+06-3.27081E+06-2.70058E-07-2.47528E-08
 -1        87 2.53487E+06 6.67760E+06 2.42447E+06 5.98621E+06-4.64264E-07-1.44428E-09
 -1        88-4.84313E+05-1.88734E+06 2.30971E+05-2.63569E+06-4.36674E-07-7.53971E-08
 -1        89 3.39287E+06 6.35801E+06 2.48593E+06 6.19231E+06-6.49954E-07 3.21752E-08
 -1        90-2.35996E+06-1.59238E+07-3.14535E+06-3.50920E+06-1.70599E-07 1.79498E-07
 -1       121-2.03732E+03-1.55807E+06-5.48051E+02 1.09236E+03 1.48772E-09-1.86192E-08
 -1       122-1.30222E+03-1.55323E+06 7.67127E+02-4.41215E+03-5.06476E-09-9.25138E-09
 -1       123-2.05706E+03-1.55820E+06 2.57049E+02 3.26246E+03 4.20846E-09 2.37196E-08
 -1       124 3.28372E+02-1.55278E+06 2.93889E+03-9.23448E+03-1.09267E-08-1.49303E-08
 -1       125-2.86323E+03-1.55910E+06 3.44451E+03 5.86874E+03 6.33372E-09-8.81846E-09
 -1       191-7.93271E+01 3.86422E+05 8.48141E+00 7.00023E-01-5.88694E-10-1.96997E-08
 -1       192-7.62397E+01 3.86404E+05 2.12919E+01-4.30504E+00-7.31188E-10-2.04809E-08
 -1       193-8.18628E+01 3.86421E+05 3.62468E+01 3.78107E+00-1.04519E-09-4.67480E-09
 -1       194-7.93283E+01 3.86407E+05 8.09426E+01-9.76909E+00-7.45723E-10 8.19091E-09
 -1       195-8.67299E+01 3.86419E+05 1.54964E+02 6.35746E+00-1.57787E-09 1.16506E-08
 -1       251-8.62630E+05 1.63216E+04-3.80949E+04-1.47041E+04 6.37592E-09 1.16579E-07
 -1       252-8.76951E+05-1.88937E+04-2.64865E+04 5.22340E+04-6.05024E-09 1.08776E-09
 -1       253-8.71211E+05 2.50523E+03-1.02818E+04-1.03628E+04-4.07454E-09 5.78375E-08
 -1       254-8.63121E+05-3.04841E+03-4.51464E+03 3.72157E+04 6.97389E-09-9.36429E-08
 -1       255-8.75810E+05 4.08655E+01-3.62201E+03 3.10186E+02-1.06411E-09-1.25141E-07
 -1       256-8.57453E+05-2.73706E+02 1.30989E+03 1.29930E+04-3.89991E-09 9.47861E-08
 -1       257-8.76410E+05-6.16772E+02-1.47579E+03 1.38473E+04-6.61657E-10 1.90434E-07
 -1       258-8.60459E+05 9.57815E+02 2.82416E+03-1.24766E+04-9.01434E-09 2.67993E-07
 -1       259-8.73066E+05-9.87967E+02 1.33355E+03 2.57772E+04 6.21526E-09 1.93017E-07
 -1       260-8.67294E+05 3.03813E+03 5.63172E+03-3.08535E+04 1.39182E-08-2.80065E-07
 -1       261-8.70250E+05-2.17681E+03 8.68551E+03 3.22420E+04 1.68475E-08-1.15342E-07
 -1       262-8.66149E+05 1.19359E+04 2.15862E+04-3.62420E+04 8.84456E-09-3.21224E-07
 -1       263-8.74480E+05-9.64404E+03 3.41824E+04 3.11761E+04 4.63962E-09 3.56664E-07
 -1       264-8.35250E+05 6.73759E+04 9.47169E+04-2.67751E+04 1.67767E-08 2.24312E-07
 -1       265-9.00626E+05-5.77680E+04 1.31756E+05 2.27616E+04 9.59244E-09 8.51069E-08
 -1       266-1.66013E+04-7.76360E+03 3.89473E+04-1.70633E+01-1.87356E-10-6.02758E-08
 -1       267 1.92452E+04 9.04733E+03 2.75294E+04 1.96894E+01 1.98270E-10 6.70093E-09
 -1       268-2.58075E+03-1.28142E+03 1.02324E+04-2.50867E+00-3.10138E-10-6.78301E-08
 -1       269 3.04709E+03 1.53351E+03 6.65103E+03 2.92234E+00-2.22030E-10 5.00785E-09
 -1       270-4.57373E+02-2.51972E+02 3.21054E+03-3.96576E-01-6.08225E-11-2.00457E-07
 -1       271-1.45621E+06-1.86040E+05-1.09798E+05-5.67120E+05 1.49885E-09-1.03442E-07
 -1       272-1.44762E+06-3.00885E+05-6.87907E+04-6.08822E+05 1.44482E-08 8.64393E-08
 -1       273-1.47951E+06-2.09075E+05-2.66907E+04-5.59079E+05-1.29112E-08-6.43031E-08
 -1       274-1.42132E+06-2.73077E+05-1.37872E+04-6.24217E+05 5.06989E-08-9.89530E-09
 -1       275-1.48512E+06-2.08477E+05-6.68671E+03-5.55273E+05-1.08594E-08 4.04900E-07
 -1       276-1.41589E+06-2.74105E+05-2.76673E+03-6.33065E+05 5.75346E-08 6.26840E-07
 -1       277-1.48798E+06-2.05765E+05-1.86124E+03-5.52520E+05-3.16231E-08-9.50831E-08
 -1       278-1.41386E+06-2.77311E+05-6.76877E+02-6.39556E+05 6.85968E-08-4.76487E-08
 -1       279-1.48979E+06-2.03577E+05-8.38367E+02-5.50600E+05 6.99038E-09-8.54320E-08
 -1       280-1.41295E+06-2.79684E+05-9.22296E+02-6.43785E+05-8.62201E-09 1.33041E-07
 -1       281-1.49074E+06-2.02226E+05-1.70796E+03-5.49536E+05-1.75969E-08 1.66703E-07
 -1       282-1.41333E+06-2.81744E+05-3.96579E+03-6.45475E+05 5.44533E-08 1.51259E-07
 -1       283-1.49027E+06-2.01088E+05-7.06230E+03-5.49434E+05-8.22229E-09 1.46767E-07
 -1       284-1.41968E+06-2.90896E+05-1.92297E+04-6.43271E+05-7.69660E-10-3.22712E-07
 -1       285-1.48423E+06-1.94223E+05-3.00668E+04-5.51203E+05-8.35644E-09-9.09840E-08
 -1       301-9.14636E+03-6.51563E+05 1.66578E+05-1.14746E+06-1.84809E-09-4.92728E-08
 -1       302-1.14283E+04-6.04279E+05 1.00250E+05-1.67456E+06-1.39335E-08-6.60948E-08
 -1       303-2.33989E+04-6.44565E+05 5.65173E+04-1.14428E+06-1.24273E-08 9.83346E-09
 -1       304-2.71828E+04-6.11770E+05 5.66562E+04-1.67402E+06-1.01427E-08-1.15804E-07
 -1       305-2.78632E+04-6.33202E+05 6.93672E+04-1.14736E+06-7.46331E-09-6.47560E-09
 -1       306-3.01170E+07-6.21177E+06-8.60440E+06-4.77025E+05-1.05705E-07 3.76313E-08
 -1       307 2.52320E+07 3.29390E+06 5.50035E+06-1.52977E+07-8.19316E-07 4.36266E-08
 -1       308-6.89533E+06-1.00576E+06-4.28884E+05 5.20879E+06-3.15806E-07 2.87240E-07
 -1       309-3.16314E+06 8.73016E+06 2.29702E+06-2.07129E+07 4.17276E-07 6.41412E-08
 -1       310-1.26882E+07-1.95892E+06-2.07335E+06 5.21580E+06-3.06289E-07-2.46102E-07
 -1       311 3.87586E+07-1.14271E+04 7.32600E+06-8.67684E+06 1.77533E-07 2.95491E-07
 -1       312-3.19972E+07-6.83426E+06-8.57430E+06-5.13700E+06 7.31088E-08 1.66852E-07
 -1       313 4.53766E+07 1.52408E+07 1.06951E+07 2.39835E+07 8.03266E-08-1.93832E-08
 -1       314-1.71284E+07-1.78902E+07-7.52786E+06-1.25384E+07 5.43543E-07-3.74683E-07
 -1       315-1.97868E+06 2.98362E+07 5.66245E+06 1.04127E+07-5.38857E-07-1.15833E-07
 -1       316 1.44906E+06-9.81927E+06-4.22284E+05-2.47755E+06-1.00052E-06-3.89118E-07
 -1       317-1.70837E+07 2.24463E+07 2.24973E+06-8.90914E+06 7.77763E-07-6.19475E-07
 -1       318-1.09428E+06-1.28709E+07-2.07238E+06-4.24518E+06-9.97505E-07 1.47324E-07
 -1       319 7.32732E+06 3.21250E+07 7.08089E+06 1.67171E+07-7.49205E-08 2.70724E-07
 -1       320-2.26613E+07-1.77013E+07-9.89153E+06-1.28501E+07 1.91038E-07-5.02623E-08
 -1       336-7.52102E+02-1.68666E+06-1.38049E+04 8.87579E+03-2.59206E-08-1.18671E-08
 -1       337-5.39771E+03-1.68618E+06-1.80089E+04-2.15662E+04-4.93219E-08 2.84927E-08
 -1       338 2.65732E+02-1.68615E+06-2.83748E+04 1.24392E+04-3.46008E-08 4.71482E-09
 -1       339-3.01128E+04-1.70337E+06-6.41208E+04-2.85481E+04-6.29971E-08 8.24002E-09
 -1       340 1.98221E+04-1.67165E+06-1.01014E+05 1.57269E+04-4.14148E-08 3.35785E-08
 -1       406-4.96659E+01 3.86404E+05 6.44003E+02 3.34678E+00-1.90386E-09 1.87774E-08
 -1       407 1.54807E+02 3.86538E+05 1.37628E+03 2.34082E+01-4.69868E-10 2.02726E-09
 -1       408 6.34747E+02 3.86304E+05 2.74419E+03-2.70752E+01-2.62298E-09 1.35187E-08
 -1       409 2.90622E+03 3.87415E+05 6.18516E+03 2.89045E+02-5.74119E-11 1.38280E-08
 -1       410 8.47772E+03 3.85514E+05 1.26236E+04-2.78725E+02-2.94858E-09-1.35697E-08
 -1       521-3.17228E+07-7.68991E+06-1.00809E+07-7.91376E+04-9.73232E-08 2.91038E-10
 -1       522 2.61628E+07 4.35775E+06 5.62505E+06-1.88530E+07-4.86325E-07-4.08472E-07
 -1       523-7.46578E+06-1.32411E+06-4.20269E+05 5.66817E+06 1.14960E-07-3.38958E-07
 -1       524-6.66969E+06 1.18471E+07 2.49277E+06-2.38208E+07 8.62914E-07-4.27772E-07
 -1       525-1.34915E+07-2.61193E+06-2.28587E+06 5.68282E+06 7.25966E-07-4.59579E-07
 -1       526 4.24469E+07-1.13832E+05 7.70611E+06-1.13377E+07-4.67408E-08-7.66013E-08
 -1       527-3.39134E+07-8.55763E+06-9.90959E+06-5.00654E+06 7.27596E-08-1.37370E-07
 -1       528 4.96597E+07 1.70583E+07 1.11827E+07 2.73547E+07-4.23577E-07-2.64845E-09
 -1       529-1.80844E+07-2.01588E+07-8.65356E+06-1.25822E+07 6.51926E-08-2.06870E-07
 -1       530-4.47040E+06 3.47368E+07 6.00912E+06 9.83931E+06 3.68615E-07 5.64731E-07
 -1       531 1.46218E+06-1.09024E+07-3.93579E+05-2.40648E+06-8.46252E-07 3.17872E-07
 -1       532-1.95761E+07 2.44797E+07 2.46669E+06-1.32835E+07 4.66913E-07-6.52391E-07
 -1       533-1.13272E+06-1.40523E+07-2.21515E+06-4.03480E+06-3.17435E-07-1.04547E-06
 -1       534 5.34488E+06 3.73954E+07 7.38906E+06 1.73390E+07-3.16650E-08 6.52857E-07
 -1       535-2.38827E+07-2.01568E+07-1.13714E+07-1.29408E+07 1.03260E-07 4.64497E-07
 -1       536-7.06306E+05-4.66762E+04-4.84569E+04-5.47158E+04-5.53428E-09 6.83158E-08
 -1       537-5.47333E+04 4.45983E+04 8.38096E+04 1.23916E+05-1.10651E-07 1.15990E-07
 -1       538-3.94423E+05 3.36394E+03 3.49104E+03-7.22370E+04 1.92344E-08 1.09813E-07
 -1       539-2.68982E+05 2.83743E+03 2.48981E+04 1.38811E+05 1.61529E-07 1.10202E-07
 -1       540-4.97440E+05-4.25965E+02-2.13565E+04-7.01469E+04-2.13140E-08 1.03737E-07
 -1       541 1.47068E+05 1.69822E+04 1.06461E+05 9.79890E+04-6.32447E-08 7.55075E-08
 -1       542-7.99264E+05-2.01506E+04-8.43081E+04-3.05385E+04 3.01698E-08 4.01965E-08
 -1       543 4.05969E+05 2.73471E+04 1.58096E+05-1.33675E+04-3.38387E-08-3.17855E-08
 -1       544-7.49397E+05-1.65509E+04-7.48980E+04 4.05392E+04 2.00175E-08-3.81071E-08
 -1       545 2.92956E+04 9.49264E+03 7.98766E+04-1.13687E+05 3.18971E-09-7.30627E-08
 -1       546-4.32706E+05 6.09973E+03-1.22388E+04 6.94340E+04 2.91736E-08-9.42520E-08
 -1       547-2.87061E+05-4.65621E+03 1.06009E+04-1.41657E+05-1.21353E-07-1.11852E-07
 -1       548-4.41546E+05 4.72093E+03-2.38930E+04 6.92013E+04-1.00942E-07-9.19358E-08
 -1       549 4.84887E+04 1.61034E+04 6.05883E+04-1.11548E+05-5.79794E-08-4.26285E-08
 -1       550-7.59277E+05-2.21738E+04-1.29040E+05 3.86089E+04 6.15728E-09-2.00125E-08
 -1       551 4.07574E+04-7.48825E+05-1.59438E+04-1.24666E+06-1.04395E-07 1.30967E-09
 -1       552 9.32120E+04-7.93800E+05 9.87760E+03-1.77755E+06-7.12607E-08 2.97441E-08
 -1       553 7.17315E+04-7.90209E+05 3.19954E+04-1.24002E+06-1.17754E-07 3.20433E-08
 -1       554 1.32000E+05-8.09710E+05 8.09814E+04-1.77950E+06-7.24103E-08 1.96960E-08
 -1       555 1.01467E+05-8.13864E+05 1.47907E+05-1.23984E+06-1.20897E-07-1.48539E-08
 -1       556 2.23770E+05-3.83768E+05 2.54980E+04-4.07236E+05-2.30502E-08-4.83124E-09
 -1       557 3.54305E+05-4.88116E+05 1.60182E+04-5.27707E+05 1.33878E-09 2.54549E-08
 -1       558 2.05519E+05-3.76514E+05 2.26619E+03-4.11710E+05-1.77533E-08 2.28756E-08
 -1       559 3.29310E+05-4.88151E+05 2.41250E+03-5.48167E+05 2.52039E-08-9.77525E-09
 -1       560 1.90205E+05-3.66911E+05-1.51958E+03-4.22746E+05 1.07393E-08-1.28202E-08
 -1       561 3.10072E+05-4.80449E+05 1.23255E+02-5.61285E+05 9.66247E-09 1.95578E-08
 -1       562 1.78097E+05-3.59389E+05-1.33098E+03-4.31513E+05 5.20959E-09 2.29193E-08
 -1       563 2.95690E+05-4.74179E+05-3.85660E+01-5.70678E+05 3.89264E-09-7.82620E-09
 -1       564 1.69455E+05-3.54004E+05-6.02050E+02-4.37637E+05 9.83709E-09-1.39839E-08
 -1       565 2.86150E+05-4.70024E+05 2.39976E+01-5.76774E+05 5.35510E-09-1.98143E-08
 -1       566 1.64402E+05-3.50808E+05-2.59446E+02-4.41172E+05-3.95084E-09-6.97764E-09
 -1       567 2.81511E+05-4.68006E+05-3.60186E+02-5.79592E+05 1.47265E-08 1.38898E-08
 -1       568 1.63029E+05-3.49967E+05-1.12088E+03-4.42228E+05-6.56200E-09 7.85803E-09
 -1       569 2.80389E+05-4.67929E+05-2.83182E+03-5.78165E+05-1.51767E-08 3.69255E-08
 -1       570 1.66426E+05-3.53196E+05-6.19391E+03-4.41211E+05 6.15546E-09-1.50876E-08
 -1       571 2.90762E+05 1.05185E+04 1.50038E+04-9.52871E+04 1.63163E-09-1.66528E-09
 -1       572 2.92936E+05 3.96566E+03 7.35307E+03-1.04541E+05-2.97950E-09-1.01991E-08
 -1       573 2.91626E+05 1.24841E+03 3.26722E+03-9.51110E+04 1.55160E-09 8.87849E-09
 -1       574 2.91840E+05 7.29477E+02 1.63849E+03-1.04765E+05 4.24916E-09-9.69794E-09
 -1       575 2.91720E+05 4.49796E+02 7.73333E+02-9.50869E+04-1.37572E-08 2.75340E-08
 -1       576 2.91704E+05 4.61187E+02 3.95968E+02-1.04795E+05-3.03580E-08 2.28101E-08
 -1       577 2.91760E+05 3.91434E+02 1.97712E+02-9.50836E+04-1.69221E-08 6.44013E-09
 -1       578 2.91735E+05 4.22858E+02 1.14312E+02-1.04799E+05-2.67300E-09 1.39744E-08
 -1       579 2.91833E+05 3.54462E+02 7.86675E+01-9.50832E+04-1.12796E-08-6.44559E-09
 -1       580 2.91837E+05 3.71529E+02 9.15524E+01-1.04794E+05-4.91482E-08-1.80789E-08
 -1       581 2.91947E+05 2.95608E+02 1.38515E+02-9.50892E+04-1.29567E-08-4.45198E-09
 -1       582 2.92014E+05 3.34180E+02 2.81764E+02-1.04732E+05 2.65936E-09-1.82526E-08
 -1       583 2.92088E+05 3.38869E+02 5.40941E+02-9.51458E+04-1.92449E-09 6.01972E-09
 -1       584 2.92391E+05 7.80724E+02 1.22410E+03-1.04255E+05 3.32693E-09 1.66760E-08
 -1       585 2.92113E+05 1.81137E+03 2.47887E+03-9.55659E+04-3.65981E-09 3.81988E-10
 -1       586-3.43252E+03 1.16971E+05-2.92125E+03-2.50938E+05-6.69615E-09 5.61613E-09
 -1       587-1.34401E+03 1.16722E+05 7.73515E+02-2.76177E+05-7.77254E-09 2.30330E-09
 -1       588 3.96662E+02 1.16529E+05 4.76910E+03-2.50800E+05-4.46016E-09-1.89084E-09
 -1       589 5.09190E+03 1.19008E+05 1.23687E+04-2.75943E+05-6.98128E-09-3.50692E-08
 -1       590 1.66388E+04 1.15194E+05 2.59455E+04-2.51233E+05-8.16544E-09-9.45329E-09
 -1       591-7.50277E+04-1.59486E+04-2.25443E+04-3.19318E+04-1.06911E-09 1.04146E-08
 -1       592-7.91347E+04-1.94937E+04-1.22118E+04-3.55422E+04 2.76421E-09 1.22642E-08
 -1       593-7.72821E+04-1.43130E+04-5.08316E+03-3.35851E+04-8.57810E-10 2.53613E-09
 -1       594-7.60222E+04-1.61852E+04-2.53509E+03-3.56597E+04 3.51008E-11 1.78156E-08
 -1       595-7.74539E+04-1.43076E+04-1.16385E+03-3.36602E+04 3.33873E-09 1.87578E-08
 -1       596-7.58091E+04-1.60339E+04-5.91390E+02-3.56344E+04 7.40121E-09-1.81723E-08
 -1       597-7.74755E+04-1.43230E+04-3.21497E+02-3.36631E+04 3.95227E-09-2.28943E-09
 -1       598-7.57881E+04-1.60280E+04-2.57468E+02-3.56272E+04-5.25949E-09-1.73129E-08
 -1       599-7.74742E+04-1.43236E+04-3.27666E+02-3.36628E+04 3.78873E-09-1.00067E-08
 -1       600-7.58091E+04-1.60344E+04-6.07724E+02-3.56322E+04 6.29399E-09 1.59836E-08
 -1       601-7.74496E+04-1.43090E+04-1.19840E+03-3.36593E+04 6.66887E-09 1.05927E-08
 -1       602-7.60285E+04-1.61891E+04-2.61152E+03-3.56544E+04 2.83751E-09-2.34450E-08
 -1       603-7.72698E+04-1.43175E+04-5.23703E+03-3.35827E+04 7.50333E-09 1.37125E-08
 -1       604-7.92529E+04-1.95778E+04-1.25806E+04-3.55083E+04 2.64890E-09 8.55607E-09
 -1       605-7.49271E+04-1.60205E+04-2.32253E+04-3.18991E+04 6.91392E-09 6.07179E-09
 -1       606 2.66067E+04-1.43392E+04-2.57050E+04 2.39939E+04 4.74665E-09-4.22688E-09
 -1       607 2.22146E+04-4.68326E+03-1.28010E+04 2.69641E+04 3.27418E-10-4.84806E-09
 -1       608 2.47177E+04-8.44954E+02-5.73059E+03 2.38252E+04-3.94721E-09-4.85443E-09
 -1       609 2.42379E+04-2.89570E+02-2.89494E+03 2.71782E+04 3.15413E-09-2.69360E-08
 -1       610 2.45040E+04-4.11347E+01-1.38121E+03 2.38051E+04 6.14909E-09 2.03863E-09
 -1       611 2.44287E+04-4.14219E+01-6.96396E+02 2.72013E+04 1.04792E-08 2.80386E-08
 -1       612 2.44569E+04-2.74220E+01-3.31052E+02 2.38031E+04 2.47383E-10 3.32261E-09
 -1       613 2.44403E+04-3.73335E+01-1.48327E+02 2.72040E+04 4.81668E-09 2.32535E-09
 -1       614 2.44347E+04-3.38501E+01-3.47183E+01 2.38024E+04 5.19049E-09 3.58455E-09
 -1       615 2.44350E+04-3.58474E+01 6.23203E+01 2.72045E+04-4.18822E-10 5.25506E-09
 -1       616 2.44173E+04-3.07280E+01 1.86738E+02 2.38027E+04-6.66660E-10-8.70614E-09
 -1       617 2.44575E+04 3.94278E+00 4.25994E+02 2.72040E+04-5.31622E-09-9.93305E-09
 -1       618 2.43803E+04 9.20749E+01 8.58640E+02 2.38030E+04-2.16687E-09 2.26942E-09
 -1       619 2.47606E+04 6.67842E+02 1.92813E+03 2.72034E+04 7.37487E-10 1.22418E-09
 -1       620 2.40952E+04 2.12814E+03 3.87548E+03 2.38045E+04 1.70712E-09-6.64977E-09
 -1       621 5.04947E+02 3.01054E+05 3.83743E+03 4.13036E+04 1.20235E-09-7.61884E-09
 -1       622 6.72100E+02 3.01938E+05 3.42080E+03 5.99650E+04 1.66165E-09 6.53654E-09
 -1       623 1.43864E+02 3.01242E+05 4.12921E+03 4.11169E+04 1.73850E-09-7.27596E-09
 -1       624 2.12722E+03 3.03159E+05 8.02053E+03 6.01486E+04 1.40705E-09-3.72474E-08
 -1       625 2.07802E+03 2.99649E+05 1.40227E+04 4.11139E+04 1.34150E-09 2.68528E-09
 -1       626 2.61063E+05 6.15041E+04 5.13931E+03 1.26883E+05 7.23958E-09 1.94086E-09
 -1       627 2.58740E+05 6.29033E+04 2.47660E+03 1.31168E+05 3.70528E-09-4.53952E-10
 -1       628 2.61191E+05 5.91528E+04 1.04742E+03 1.27757E+05 1.53796E-09 2.26089E-08
 -1       629 2.58102E+05 6.22205E+04 5.12647E+02 1.31409E+05-2.60889E-09-4.06118E-09
 -1       630 2.61206E+05 5.90392E+04 2.37887E+02 1.27794E+05 8.19773E-09 1.29467E-08
 -1       631 2.58035E+05 6.21945E+04 1.28107E+02 1.31411E+05 9.44897E-09 1.08603E-08
 -1       632 2.61202E+05 5.90431E+04 8.44533E+01 1.27789E+05 3.94039E-09-1.20356E-08
 -1       633 2.58027E+05 6.21963E+04 9.43224E+01 1.31407E+05-2.55272E-09-2.08759E-08
 -1       634 2.61198E+05 5.90403E+04 1.52637E+02 1.27789E+05-5.14581E-09-1.04819E-10
 -1       635 2.58041E+05 6.21946E+04 3.08989E+02 1.31413E+05-6.82621E-09 1.88829E-08
 -1       636 2.61189E+05 5.90345E+04 6.24067E+02 1.27789E+05 5.38876E-11 1.19567E-08
 -1       637 2.58177E+05 6.22916E+04 1.37222E+03 1.31412E+05 3.10047E-09-6.16706E-09
 -1       638 2.61140E+05 5.93376E+04 2.81940E+03 1.27652E+05 3.61797E-09-1.11381E-08
 -1       639 2.59658E+05 6.43510E+04 6.67084E+03 1.30976E+05 9.72796E-09 1.13675E-08
 -1       640 2.60935E+05 6.54887E+04 1.38431E+04 1.25061E+05 3.80169E-10-2.45859E-09
 -1       656 6.65267E+04-1.70269E+06-1.60593E+05-2.55985E+03-7.34872E-10-1.42467E-08
 -1       657-8.80121E+04-1.77525E+06-1.33047E+05 5.16094E+03-5.27507E-10-3.05567E-08
 -1       658 2.12094E+04-1.72329E+06-8.19482E+04-4.64303E+03 2.57387E-10-9.86805E-09
 -1       659-9.51920E+04-1.77866E+06-1.42483E+05 6.89301E+03 1.38243E-10 1.07153E-08
 -1       660 7.36906E+04-1.69928E+06-1.76815E+05-4.29190E+03-2.28465E-09 1.15669E-08
 -1       661 1.58004E+05 1.65300E+04 1.66698E+04 6.17700E+04-7.30324E-10 2.20280E-09
 -1       662 1.67440E+05 2.88638E+04 1.12343E+04 5.80172E+04-2.63310E-09-2.97675E-08
 -1       663 1.61279E+05 2.18779E+04 3.92903E+03 6.08196E+04-1.99714E-09-1.13355E-08
 -1       664 1.63643E+05 2.26099E+04 2.35040E+03 5.91781E+04-2.03647E-09-1.46356E-08
 -1       665 1.61776E+05 2.26083E+04 9.27220E+02 6.06746E+04 3.12440E-09-2.12503E-09
 -1       666 1.63056E+05 2.17748E+04 5.42791E+02 5.93673E+04 5.56273E-09 2.96271E-09
 -1       667 1.61863E+05 2.26913E+04 2.88544E+02 6.06382E+04 2.39822E-10-8.12714E-09
 -1       668 1.62959E+05 2.17152E+04 2.94553E+02 5.94202E+04-5.91712E-10-1.42515E-08
 -1       669 1.61871E+05 2.26662E+04 3.99234E+02 6.06220E+04-2.05523E-09-2.28218E-09
 -1       670 1.63057E+05 2.19321E+04 8.69756E+02 5.94230E+04-9.15919E-09-2.17676E-09
 -1       671 1.61765E+05 2.24789E+04 1.54446E+03 6.06333E+04 3.65618E-09-1.60854E-08
 -1       672 1.63957E+05 2.34346E+04 3.95158E+03 5.92049E+04 8.60572E-09-1.94336E-08
 -1       673 1.60975E+05 2.12017E+04 6.62225E+03 6.08256E+04 2.51919E-09 5.26552E-09
 -1       674 1.70259E+05 3.40740E+04 1.89383E+04 5.73531E+04-2.49520E-09-1.08175E-08
 -1       675 1.55503E+05 1.21376E+04 2.81111E+04 6.23732E+04-2.29102E-09-4.95311E-09
 -1       676 2.41032E+01-2.95860E+05-1.11305E+03-1.37601E+02 1.88882E-09-2.80236E-09
 -1       677-2.94423E+02-2.96129E+05-2.03707E+03 2.74980E+02 1.23990E-08-1.12161E-08
 -1       678 1.97478E+02-2.95668E+05-3.60104E+03-1.37289E+02 2.05796E-09-7.96516E-09
 -1       679-3.60109E+03-2.98303E+05-8.55457E+03 2.73792E+02 5.75221E-09-3.00668E-09
 -1       680 2.15006E+03-2.93687E+05-1.37870E+04-1.34896E+02-4.41105E-10 1.15195E-08
 -1       771-3.06173E+06-7.47424E+05-1.66202E+05-1.46589E+06-3.03553E-08-3.34694E-08
 -1       772-2.98459E+06-8.36349E+05-8.56922E+04-1.56870E+06-1.62836E-08 6.73026E-09
 -1       773-3.09327E+06-7.22836E+05-4.36779E+04-1.48046E+06-1.12923E-08 9.19681E-09
 -1       774-2.97505E+06-8.17779E+05-1.94882E+04-1.59449E+06 3.18105E-08-1.74623E-10
 -1       775-3.10973E+06-7.11283E+05-1.45739E+04-1.48753E+06 1.68802E-09 7.01402E-09
 -1       776-2.98741E+06-8.14734E+05-5.45067E+03-1.61401E+06-9.29867E-09 5.04951E-09
 -1       777-3.12402E+06-7.00971E+05-6.43811E+03-1.49376E+06-6.98492E-10 4.31464E-09
 -1       778-3.00033E+06-8.11903E+05-1.82053E+03-1.63078E+06 2.61934E-09 6.08270E-09
 -1       779-3.13631E+06-6.91960E+05-3.21699E+03-1.49909E+06-8.90577E-09-6.73026E-09
 -1       780-3.01170E+06-8.09203E+05-5.33591E+02-1.64444E+06-9.25502E-09 6.07542E-10
 -1       781-3.14608E+06-6.84695E+05-1.24975E+03-1.50325E+06-3.03262E-08-1.86628E-09
 -1       782-3.02046E+06-8.06911E+05 4.50436E+02-1.65453E+06-4.24916E-08-4.97039E-09
 -1       783-3.15295E+06-6.79647E+05 7.01212E+02-1.50617E+06-1.88593E-08-1.67465E-08
 -1       784-3.02532E+06-8.04621E+05 2.90667E+03-1.66075E+06-1.98233E-08 1.24492E-08
 -1       785-3.15702E+06-6.76636E+05 5.13127E+03-1.50802E+06-4.01742E-08 1.22054E-08
 -1       786 1.21523E+05-9.69804E+03 2.24373E+04-3.18511E+02 2.43369E-09 1.89411E-08
 -1       787 1.31255E+05 1.12282E+04 1.58735E+04-1.30943E+02 8.28155E-09 1.77408E-08
 -1       788 1.25275E+05-1.51971E+03 5.80497E+03-2.83486E+02 3.77736E-09 2.06444E-08
 -1       789 1.26883E+05 1.75901E+03 3.64409E+03-1.84657E+02 1.21308E-09-1.82217E-09
 -1       790 1.25895E+05-2.36608E+02 1.47529E+03-2.64814E+02-5.52022E-09-1.00582E-08
 -1       791 1.26159E+05 2.73708E+02 8.51820E+02-2.16609E+02-9.96411E-09 5.58103E-10
 -1       792 1.26000E+05-3.55184E+01 3.60417E+02-2.51536E+02-4.69276E-09 8.81627E-10
 -1       793 1.26033E+05 3.72439E+01 1.78476E+02-2.41535E+02-5.53711E-10-2.36502E-08
 -1       794 1.26020E+05-2.93370E-01 4.39657E+01-2.39888E+02 4.85433E-09-2.04620E-08
 -1       795 1.25996E+05-2.93630E+01-6.39211E+01-2.65738E+02-4.61607E-09 1.19791E-08
 -1       796 1.26037E+05 3.10512E+01-1.72878E+02-2.27333E+02 4.59404E-09 3.75937E-09
 -1       797 1.25896E+05-2.31754E+02-4.71394E+02-2.94436E+02 3.88576E-09-3.18778E-10
 -1       798 1.26120E+05 2.01946E+02-7.64658E+02-2.11189E+02 2.28282E-09 1.75231E-08
 -1       799 1.25316E+05-1.48872E+03-2.10292E+03-3.34294E+02 6.21903E-09 2.16745E-08
 -1       800 1.26617E+05 1.28699E+03-2.97583E+03-1.87477E+02 2.96664E-10 6.08338E-09
 -1       801-1.71291E+05-9.99821E+06-1.39353E+06 1.41545E+06 9.28703E-08-5.86806E-08
 -1       802 7.38336E+05 5.95060E+06 2.18179E+06-1.74738E+06 2.58973E-07-3.62134E-08
 -1       803-5.36644E+05-1.42667E+07-1.89053E+06 8.98269E+05 7.70124E-08 1.38862E-08
 -1       804 2.87175E+05 2.39487E+06 1.53720E+06 6.77141E+05-1.20519E-07-9.73009E-08
 -1       805 1.89368E+05-6.45659E+06-2.86381E+05-1.00341E+06-5.02769E-08-5.90089E-08
 -1       806-3.13233E+05-6.03556E+04-2.32736E+04-1.24104E+05 1.73259E-10 1.05638E-09
 -1       807-3.15108E+05-5.67528E+04-1.14605E+04-1.29726E+05 1.76192E-09-1.39679E-08
 -1       808-3.13921E+05-5.21641E+04-4.86290E+03-1.28003E+05 9.82391E-09-9.22671E-09
 -1       809-3.12688E+05-5.35762E+04-2.37895E+03-1.29986E+05 8.30005E-09-1.84091E-08
 -1       810-3.14019E+05-5.18890E+04-1.09098E+03-1.28172E+05 1.79398E-09 2.14202E-08
 -1       811-3.12503E+05-5.34510E+04-5.42683E+02-1.29949E+05 8.05312E-09 2.52376E-08
 -1       812-3.14034E+05-5.19148E+04-2.74811E+02-1.28171E+05-5.64069E-09-1.69498E-08
 -1       813-3.12477E+05-5.34531E+04-1.79190E+02-1.29930E+05-8.57199E-10 6.97696E-09
 -1       814-3.14026E+05-5.19246E+04-1.78508E+02-1.28167E+05 2.62844E-10-2.97905E-08
 -1       815-3.12481E+05-5.34553E+04-2.88459E+02-1.29922E+05-6.50471E-09-1.33855E-08
 -1       816-3.14005E+05-5.19234E+04-5.47331E+02-1.28163E+05 8.01265E-10-6.18911E-10
 -1       817-3.12573E+05-5.35057E+04-1.17432E+03-1.29911E+05 7.27596E-12-8.67044E-09
 -1       818-3.13933E+05-5.20800E+04-2.39423E+03-1.28088E+05-2.15823E-09 2.26464E-09
 -1       819-3.13885E+05-5.49340E+04-5.63228E+03-1.29615E+05 1.12323E-10 9.80071E-09
 -1       820-3.13461E+05-5.62260E+04-1.14375E+04-1.26304E+05-1.15506E-10-2.92516E-09
 -1       821-3.80412E+05 2.08981E+04-4.86951E+04 2.21607E+03 1.41911E-08-1.68329E-08
 -1       822-3.99949E+05-2.42121E+04-3.41842E+04-4.74765E+03 5.53143E-09-1.80366E-08
 -1       823-3.87798E+05 3.29704E+03-1.25733E+04 3.64226E+03-1.26967E-08-9.56607E-09
 -1       824-3.91000E+05-3.80098E+03-7.86429E+03-5.77183E+03 1.88625E-09 3.37241E-09
 -1       825-3.89370E+05 5.12863E+02-3.29989E+03 3.24039E+03 2.28927E-08 1.31161E-08
 -1       826-3.88453E+05-5.63994E+02-1.72018E+03-3.37508E+03 2.77596E-08-1.08271E-08
 -1       827-3.90317E+05 4.10814E+01-1.21572E+03 1.24535E+03 1.34890E-08-1.37235E-08
 -1       828-3.87665E+05-1.24463E+02-5.43809E+02 1.10360E+03 5.59538E-10 6.85977E-09
 -1       829-3.90143E+05 6.15059E+01-1.20266E+03-1.23832E+03 2.36497E-09 2.50832E-08
 -1       830-3.88828E+05-6.21814E+02-1.86559E+03 5.17317E+03-4.37410E-10 2.87303E-08
 -1       831-3.89179E+05 5.58396E+02-3.38239E+03-2.82424E+03-7.35532E-09 8.25162E-09
 -1       832-3.91081E+05-3.97331E+03-8.17544E+03 6.56711E+03-3.90396E-09 1.12192E-08
 -1       833-3.87909E+05 3.42441E+03-1.30931E+04-2.63232E+03-4.04395E-09 2.00880E-08
 -1       834-3.99994E+05-2.51512E+04-3.54382E+04 4.47356E+03-3.77858E-09 1.83077E-08
 -1       835-3.80247E+05 2.17011E+04-5.06196E+04-7.30591E+02 5.76085E-09-4.00905E-09
 -1       836-1.41240E+03 3.69736E+05 2.28966E+04-1.58557E+04-6.91216E-09 1.39557E-08
 -1       837 4.88255E+03 3.76907E+05 1.93839E+04-3.24078E+04-7.70234E-09-9.15338E-09
 -1       838-5.58036E+02 3.71745E+05 1.97624E+04-1.57842E+04-6.29052E-09 1.22536E-08
 -1       839 1.24440E+04 3.82539E+05 3.73972E+04-3.24617E+04-7.05040E-09 6.27608E-09
 -1       840-3.84616E+03 3.64045E+05 5.96406E+04-1.58075E+04-6.22094E-09 5.83267E-09
 -1       856-5.16686E+04 8.01623E+03-2.11245E+04-3.97226E+02 4.50370E-09-2.50930E-09
 -1       857-6.03714E+04-9.41883E+03-1.45419E+04 5.62508E+03 6.12860E-09 1.84864E-08
 -1       858-5.51151E+04 1.12420E+03-5.48127E+03-4.21141E+02 2.16590E-09 1.77010E-09
 -1       859-5.64162E+04-1.32261E+03-3.30767E+03 5.66062E+03-7.78499E-10 2.73627E-09
 -1       860-5.56300E+04 1.57444E+02-1.38619E+03-4.32503E+02-1.87384E-10-7.39453E-09
 -1       861-5.58238E+04-1.87981E+02-7.62450E+02 5.67609E+03 1.44286E-09-1.16629E-08
 -1       862-5.57105E+04 2.13226E+01-3.16698E+02-4.36585E+02-2.23023E-09 2.51811E-09
 -1       863-5.57250E+04-2.17928E+01-1.14813E+02 5.67845E+03-4.66235E-09-4.55975E-09
 -1       864-5.57293E+04-4.96636E+00 4.83907E+01-4.34864E+02-3.31119E-09-1.21329E-08
 -1       865-5.56690E+04 6.01523E+01 2.57733E+02 5.66864E+03-6.89170E-10-9.08640E-09
 -1       866-5.57644E+04-6.06291E+01 5.18778E+02-4.26775E+02-2.02061E-09-2.72482E-09
 -1       867-5.54252E+04 5.00697E+02 1.27650E+03 5.64669E+03-5.89239E-10 4.06430E-10
 -1       868-5.59681E+04-4.37525E+02 2.12109E+03-4.12914E+02 5.82475E-10 5.36932E-09
 -1       869-5.38704E+04 3.64149E+03 5.64755E+03 5.61058E+03 3.03226E-09-3.19251E-08
 -1       870-5.73115E+04-3.11607E+03 8.19592E+03-3.90561E+02-6.34884E-09 1.85582E-09
 -1       871-5.51612E+03-2.09900E+04-1.94826E+04 1.30524E+05-4.79304E-09-5.95173E-09
 -1       872-1.98018E+03-2.55209E+04-8.15396E+03 1.69242E+05-8.79118E-09 1.68425E-08
 -1       873 4.06405E+02-2.33304E+04 5.98972E+02 1.30236E+05-5.61931E-09 6.96434E-09
 -1       874 3.31162E+03-2.09161E+04 9.79725E+03 1.69273E+05-1.31176E-08-1.97429E-09
 -1       875 6.85685E+03-2.56636E+04 2.20943E+04 1.30475E+05-4.98221E-09-1.81535E-09
 -1       876 2.93876E+05 4.95004E+04 1.50836E+04 1.17898E+05 3.29601E-09 1.06747E-08
 -1       877 2.94879E+05 5.26709E+04 8.05521E+03 1.22218E+05 5.05293E-09-8.70614E-10
 -1       878 2.95287E+05 4.78296E+04 3.37475E+03 1.19134E+05-5.42741E-09-3.80760E-09
 -1       879 2.92829E+05 5.06245E+04 1.68152E+03 1.22320E+05 9.88894E-09-1.05310E-08
 -1       880 2.95388E+05 4.78123E+04 7.83257E+02 1.19184E+05 2.20507E-09 1.61998E-08
 -1       881 2.92693E+05 5.05370E+04 4.18339E+02 1.22296E+05-8.66112E-09-3.40762E-09
 -1       882 2.95397E+05 4.78255E+04 2.67754E+02 1.19186E+05-6.64022E-09 7.50510E-09
 -1       883 2.92684E+05 5.05324E+04 2.88043E+02 1.22289E+05-5.33731E-09 2.77690E-09
 -1       884 2.95390E+05 4.78227E+04 4.58390E+02 1.19186E+05 4.86466E-10-3.95778E-09
 -1       885 2.92720E+05 5.05388E+04 9.21733E+02 1.22300E+05-3.93754E-09-8.02686E-09
 -1       886 2.95354E+05 4.77958E+04 1.85777E+03 1.19183E+05-5.88354E-09-4.71823E-09
 -1       887 2.93047E+05 5.07529E+04 4.05806E+03 1.22347E+05 1.98256E-09 9.00081E-09
 -1       888 2.95098E+05 4.78410E+04 8.17712E+03 1.19053E+05 5.05469E-09-3.14049E-09
 -1       889 2.97914E+05 5.58156E+04 1.95336E+04 1.22198E+05 6.60009E-10-1.13687E-09
 -1       890 2.91761E+05 5.18055E+04 3.65860E+04 1.15941E+05-3.01361E-09-1.26784E-09
 -1       891-8.94032E+01-1.62797E+05-1.99778E+03 2.71251E+04-1.88788E-09-1.77124E-09
 -1       892-1.75421E+02-1.63325E+05-2.14518E+03 4.11914E+04 1.47315E-09-1.48023E-08
 -1       893 4.38050E+01-1.62862E+05-3.03682E+03 2.71325E+04-4.11364E-09 1.53673E-08
 -1       894-1.51026E+03-1.64472E+05-6.28472E+03 4.10389E+04 2.64572E-09 7.77845E-09
 -1       895-1.19939E+03-1.61552E+05-1.10672E+04 2.72794E+04-1.73873E-09 1.26320E-08
 -1       956-3.77380E+05-5.39220E+03-1.33129E+04 3.05925E+04 1.41254E-08 1.31326E-08
 -1       957-3.79992E+05-1.90174E+03-6.83334E+03 3.67658E+04 1.28484E-08 2.38433E-08
 -1       958-3.78576E+05-2.37790E+02-3.07929E+03 3.04271E+04 1.02955E-09 4.90809E-09
 -1       959-3.78770E+05-1.34344E+02-1.57240E+03 3.69587E+04-2.10957E-09-9.42237E-10
 -1       960-3.78692E+05-4.39741E+01-7.66852E+02 3.04101E+04 3.53612E-09 1.98690E-08
 -1       961-3.78690E+05-6.23153E+01-4.06791E+02 3.69788E+04 1.19260E-08-7.24162E-09
 -1       962-3.78719E+05-4.53894E+01-2.33271E+02 3.04072E+04 9.83164E-10-6.85054E-09
 -1       963-3.78690E+05-5.83478E+01-1.87942E+02 3.69824E+04-1.78261E-09-5.35874E-09
 -1       964-3.78725E+05-4.21755E+01-2.29385E+02 3.04065E+04-7.35426E-10-4.65388E-09
 -1       965-3.78702E+05-5.55194E+01-3.97430E+02 3.69816E+04-7.25345E-09-3.66231E-09
 -1       966-3.78708E+05-3.43993E+01-7.47150E+02 3.04080E+04 1.41858E-08-1.04978E-09
 -1       967-3.78792E+05-1.19185E+02-1.53259E+03 3.69673E+04 1.07577E-08-1.10458E-09
 -1       968-3.78604E+05-2.17129E+02-3.00034E+03 3.04207E+04-9.09495E-13 9.20875E-09
 -1       969-3.79994E+05-1.83649E+03-6.66072E+03 3.68191E+04-8.50014E-09-1.10717E-08
 -1       970-3.77446E+05-5.23744E+03-1.29755E+04 3.05476E+04-4.86125E-09-5.51245E-09
 -1       971-3.45466E+05-1.72973E+03-9.32159E+03 1.53986E+04 5.16957E-09 9.89360E-11
 -1       972-3.47710E+05-1.27346E+03-5.07643E+03 2.12961E+04 3.93084E-09 1.09549E-09
 -1       973-3.46505E+05-6.21792E+01-2.27379E+03 1.52773E+04-1.70439E-09 1.11359E-08
 -1       974-3.46640E+05-8.12499E+01-1.17864E+03 2.14334E+04-6.40512E-10-3.72847E-09
 -1       975-3.46587E+05-1.72294E+01-5.89612E+02 1.52650E+04-1.20053E-10-7.94489E-09
 -1       976-3.46579E+05-3.13264E+01-3.40970E+02 2.14492E+04 3.65685E-09-2.28007E-08
 -1       977-3.46604E+05-1.64702E+01-2.48919E+02 1.52616E+04-5.31486E-09-4.15594E-09
 -1       978-3.46584E+05-2.50825E+01-2.93259E+02 2.14541E+04-9.73523E-09 3.54196E-08
 -1       979-3.46603E+05-7.97926E+00-4.72872E+02 1.52601E+04-2.40050E-10 1.62360E-08
 -1       980-3.46620E+05-2.20114E+01-9.14120E+02 2.14551E+04 1.68909E-09-1.53154E-08
 -1       981-3.46574E+05 1.48735E+01-1.77100E+03 1.52606E+04 6.40296E-09-2.10418E-08
 -1       982-3.46863E+05-1.52867E+02-3.66093E+03 2.14485E+04 1.14320E-08-1.91555E-08
 -1       983-3.46351E+05-9.85304E+01-7.11337E+03 1.52667E+04-1.29603E-10-4.53929E-09
 -1       984-3.50284E+05-3.86797E+03-1.59302E+04 2.13628E+04-5.00495E-09 2.00191E-08
 -1       985-3.43131E+05-5.30366E+03-2.92527E+04 1.53381E+04-8.21228E-09 5.32418E-09
 -3
    1PSTEP                        27          14           1          
  100CL  114 6.62933E-01         409                     0   14           1
 -4  DISP        4    1
 -5  D1          1    2    1    0
 -5  D2          1    2    2    0
 -5  D3          1    2    3    0
 -5  ALL         1    2    0    0    1ALL
 -1         1 2.72663E-03 0.00000E+00 0.00000E+00
 -1         2 1.32895E-03 1.11984E-28 0.00000E+00
 -1         3 3.42748E-04-4.59585E-28 1.32349E-23
 -1         5 1.77141E-04-2.01528E-27 2.48154E-24
 -1         8 2.71593E-03-4.01332E-07 0.00000E+00
 -1         9 2.70918E-03-2.00161E-04 0.00000E+00
 -1        10 3.10790E-04-3.39459E-06 0.00000E+00
 -1        12 1.78987E-04 8.09392E-07 8.27181E-25
 -1        15 2.70373E-03-4.24403E-07 0.00000E+00
 -1        16 2.77904E-03-2.02035E-04 0.00000E+00
 -1        17 2.11509E-04-7.74392E-06 0.00000E+00
 -1        18 1.82933E-04 3.44359E-05 0.00000E+00
 -1        19 1.84527E-04 1.61237E-06 0.00000E+00
 -1        20 1.84666E-04-9.85828E-06 0.00000E+00
 -1        21 1.83771E-04-2.53872E-05-3.30872E-24
 -1        24 3.06054E-05-1.19665E-05 0.00000E+00
 -1        25 1.93736E-04 3.46618E-05 0.00000E+00
 -1        26 1.94404E-04 2.23173E-06 0.00000E+00
 -1        27 1.92189E-04-1.34143E-05 0.00000E+00
 -1        28 1.91876E-04-2.60093E-05 0.00000E+00
 -1        32 0.00000E+00 0.00000E+00 0.00000E+00
 -1        33 2.03259E-04 2.98458E-06 0.00000E+00
 -1        34 2.01139E-04-1.34698E-05 0.00000E+00
 -1        35 1.99206E-04-2.63518E-05 0.00000E+00
 -1        51 2.72591E-03-8.44267E-08-4.96308E-24
 -1        52 2.72460E-03-1.50386E-07 0.00000E+00
 -1        53 2.72281E-03-2.12841E-07 0.00000E+00
 -1        54 2.72069E-03-2.74027E-07 0.00000E+00
 -1        55 2.71835E-03-3.35708E-07-8.27181E-25
 -1        56 2.71855E-03 9.43268E-06 0.00000E+00
 -1        57 2.70237E-03 3.88033E-05 5.29396E-23
 -1        58 2.68050E-03 8.18745E-05 1.05879E-22
 -1        59 2.65597E-03 1.31110E-04 0.00000E+00
 -1        60 2.63248E-03 1.77916E-04 0.00000E+00
 -1        61 2.61356E-03 2.13894E-04-5.29396E-23
 -1        62 2.60165E-03 2.32578E-04 0.00000E+00
 -1        63 2.59829E-03 2.29042E-04 0.00000E+00
 -1        64 2.60324E-03 2.02446E-04 0.00000E+00
 -1        65 2.61550E-03 1.54142E-04 0.00000E+00
 -1        66 2.63292E-03 8.96234E-05-1.05879E-22
 -1        67 2.65311E-03 1.59884E-05 0.00000E+00
 -1        68 2.67338E-03-5.78840E-05 0.00000E+00
 -1        69 2.69104E-03-1.23085E-04 0.00000E+00
 -1        70 2.70365E-03-1.72402E-04 1.05879E-22
 -1        86 1.41576E-03-6.29928E-06 0.00000E+00
 -1        87 1.66669E-03-3.97184E-05 0.00000E+00
 -1        88 2.00413E-03-9.72145E-05 0.00000E+00
 -1        89 2.34622E-03-1.56338E-04 0.00000E+00
 -1        90 2.60841E-03-1.92526E-04 0.00000E+00
 -1       121 3.41850E-04-5.48025E-07 0.00000E+00
 -1       122 3.39162E-04-1.09914E-06 0.00000E+00
 -1       123 3.34692E-04-1.65638E-06 0.00000E+00
 -1       124 3.28457E-04-2.22279E-06 0.00000E+00
 -1       125 3.20479E-04-2.80103E-06-1.32349E-23
 -1       191 1.77192E-04 1.34962E-07 2.48154E-24
 -1       192 1.77346E-04 2.69913E-07 1.24077E-24
 -1       193 1.77603E-04 4.04844E-07-8.27181E-25
 -1       194 1.77962E-04 5.39743E-07 1.65436E-24
 -1       195 1.78423E-04 6.74596E-07 1.65436E-24
 -1       251 2.71563E-03 1.60711E-06 0.00000E+00
 -1       252 2.71533E-03 3.46929E-06 0.00000E+00
 -1       253 2.71503E-03 4.17801E-06 0.00000E+00
 -1       254 2.71472E-03 2.74037E-06 0.00000E+00
 -1       255 2.71441E-03-1.51269E-06 0.00000E+00
 -1       256 2.71408E-03-9.21520E-06 3.30872E-24
 -1       257 2.71371E-03-2.04810E-05 0.00000E+00
 -1       258 2.71330E-03-3.53796E-05-3.30872E-24
 -1       259 2.71284E-03-5.34332E-05 0.00000E+00
 -1       260 2.71233E-03-7.41243E-05 6.61744E-24
 -1       261 2.71178E-03-9.65378E-05-1.32349E-23
 -1       262 2.71122E-03-1.19738E-04-6.61744E-24
 -1       263 2.71066E-03-1.42669E-04 1.32349E-23
 -1       264 2.71013E-03-1.64279E-04-6.61744E-24
 -1       265 2.70964E-03-1.83719E-04 0.00000E+00
 -1       266 2.71390E-03-4.10748E-07-1.65436E-24
 -1       267 2.71186E-03-4.13914E-07 4.13590E-25
 -1       268 2.70983E-03-4.17476E-07 4.13590E-25
 -1       269 2.70779E-03-4.19865E-07 2.06795E-25
 -1       270 2.70576E-03-4.22227E-07-2.06795E-25
 -1       271 2.71512E-03 2.91893E-10 0.00000E+00
 -1       272 2.71531E-03-2.31889E-06 0.00000E+00
 -1       273 2.71645E-03-7.19527E-06 0.00000E+00
 -1       274 2.71846E-03-1.44524E-05-1.32349E-23
 -1       275 2.72128E-03-2.38926E-05-2.64698E-23
 -1       276 2.72481E-03-3.53027E-05 1.32349E-23
 -1       277 2.72896E-03-4.84529E-05-2.64698E-23
 -1       278 2.73366E-03-6.31001E-05 1.32349E-23
 -1       279 2.73881E-03-7.89894E-05-1.32349E-23
 -1       280 2.74430E-03-9.58559E-05 0.00000E+00
 -1       281 2.75004E-03-1.13427E-04 1.32349E-23
 -1       282 2.75594E-03-1.31424E-04 6.61744E-24
 -1       283 2.76189E-03-1.49565E-04 0.00000E+00
 -1       284 2.76778E-03-1.67568E-04-6.61744E-24
 -1       285 2.77353E-03-1.85152E-04 0.00000E+00
 -1       301 2.72187E-03-2.00509E-04 6.61744E-24
 -1       302 2.73289E-03-2.00809E-04 3.30872E-24
 -1       303 2.74318E-03-2.01098E-04 1.32349E-23
 -1       304 2.75367E-03-2.01388E-04 0.00000E+00
 -1       305 2.76531E-03-2.01693E-04 2.64698E-23
 -1       306 2.74728E-03-3.55728E-04 1.05879E-22
 -1       307 2.81114E-03-7.70804E-04 5.29396E-23
 -1       308 2.85770E-03-1.37679E-03 1.05879E-22
 -1       309 2.88155E-03-2.07738E-03 0.00000E+00
 -1       310 2.91303E-03-2.74668E-03-1.05879E-22
 -1       311 2.97266E-03-3.26158E-03 5.29396E-23
 -1       312 3.03027E-03-3.54158E-03-2.11758E-22
 -1       313 3.02468E-03-3.54923E-03 0.00000E+00
 -1       314 2.88193E-03-3.29695E-03 0.00000E+00
 -1       315 2.56135E-03-2.84960E-03 0.00000E+00
 -1       316 2.08173E-03-2.28392E-03 0.00000E+00
 -1       317 1.50943E-03-1.66913E-03 0.00000E+00
 -1       318 9.59083E-04-1.06566E-03 0.00000E+00
 -1       319 5.38795E-04-5.38424E-04-5.29396E-23
 -1       320 2.92262E-04-1.61629E-04 1.05879E-22
 -1       336 2.99201E-04-4.05091E-06 0.00000E+00
 -1       337 2.85537E-04-4.73293E-06 0.00000E+00
 -1       338 2.69857E-04-5.44286E-06-1.32349E-23
 -1       339 2.52237E-04-6.18156E-06-6.61744E-24
 -1       340 2.32757E-04-6.95348E-06 0.00000E+00
 -1       406 1.79654E-04 9.44110E-07-2.48154E-24
 -1       407 1.80424E-04 1.07871E-06 1.24077E-24
 -1       408 1.81296E-04 1.21315E-06-8.27181E-25
 -1       409 1.82271E-04 1.34726E-06 1.44757E-24
 -1       410 1.83348E-04 1.48074E-06-4.13590E-25
 -1       521 2.81773E-03-3.66910E-04-1.05879E-22
 -1       522 2.87977E-03-8.02517E-04-5.29396E-23
 -1       523 2.91976E-03-1.43679E-03 0.00000E+00
 -1       524 2.93419E-03-2.16658E-03 0.00000E+00
 -1       525 2.95761E-03-2.86306E-03-1.05879E-22
 -1       526 3.01365E-03-3.40040E-03-5.29396E-23
 -1       527 3.07086E-03-3.69114E-03 0.00000E+00
 -1       528 3.06290E-03-3.69689E-03 0.00000E+00
 -1       529 2.90781E-03-3.43013E-03 0.00000E+00
 -1       530 2.56263E-03-2.96383E-03 5.29396E-23
 -1       531 2.04701E-03-2.37860E-03 0.00000E+00
 -1       532 1.43388E-03-1.74627E-03 5.29396E-23
 -1       533 8.43430E-04-1.12458E-03-1.05879E-22
 -1       534 3.89112E-04-5.76093E-04 0.00000E+00
 -1       535 1.20976E-04-1.79436E-04-2.11758E-22
 -1       536 2.10754E-04 2.71898E-05 0.00000E+00
 -1       537 2.08835E-04 8.76478E-05 1.65436E-24
 -1       538 2.05869E-04 1.64361E-04 0.00000E+00
 -1       539 2.02371E-04 2.47974E-04 0.00000E+00
 -1       540 1.99224E-04 3.26983E-04-3.30872E-24
 -1       541 1.97178E-04 3.89903E-04-1.65436E-24
 -1       542 1.96234E-04 4.29979E-04-3.30872E-24
 -1       543 1.96008E-04 4.40604E-04 0.00000E+00
 -1       544 1.95686E-04 4.22553E-04 0.00000E+00
 -1       545 1.94513E-04 3.76820E-04 0.00000E+00
 -1       546 1.92327E-04 3.11535E-04 0.00000E+00
 -1       547 1.89367E-04 2.34946E-04 0.00000E+00
 -1       548 1.86434E-04 1.58733E-04 0.00000E+00
 -1       549 1.84318E-04 9.45758E-05-1.65436E-24
 -1       550 1.83219E-04 5.05079E-05 0.00000E+00
 -1       551 1.86303E-04-8.31282E-06 0.00000E+00
 -1       552 1.57851E-04-8.96220E-06 0.00000E+00
 -1       553 1.27096E-04-9.67386E-06-9.92617E-24
 -1       554 9.49980E-05-1.04267E-05 6.61744E-24
 -1       555 6.25162E-05-1.11932E-05-1.32349E-23
 -1       556 2.03859E-04 1.18170E-05-5.29396E-23
 -1       557 1.97678E-04 2.76814E-05 0.00000E+00
 -1       558 1.92832E-04 4.01373E-05 0.00000E+00
 -1       559 1.89189E-04 4.94953E-05 0.00000E+00
 -1       560 1.86617E-04 5.60660E-05 0.00000E+00
 -1       561 1.84990E-04 6.01631E-05 0.00000E+00
 -1       562 1.84181E-04 6.21010E-05 0.00000E+00
 -1       563 1.84068E-04 6.21954E-05 1.32349E-23
 -1       564 1.84527E-04 6.07628E-05 0.00000E+00
 -1       565 1.85438E-04 5.81204E-05 0.00000E+00
 -1       566 1.86681E-04 5.45857E-05 0.00000E+00
 -1       567 1.88138E-04 5.04769E-05 0.00000E+00
 -1       568 1.89690E-04 4.61124E-05 1.65436E-24
 -1       569 1.91218E-04 4.18102E-05 0.00000E+00
 -1       570 1.92606E-04 3.78888E-05 0.00000E+00
 -1       571 1.83029E-04 3.23050E-05-2.48154E-24
 -1       572 1.83128E-04 3.01084E-05 8.27181E-25
 -1       573 1.83227E-04 2.78620E-05 1.65436E-24
 -1       574 1.83327E-04 2.55821E-05 8.27181E-25
 -1       575 1.83426E-04 2.32852E-05 0.00000E+00
 -1       576 1.83526E-04 2.09877E-05 0.00000E+00
 -1       577 1.83625E-04 1.87061E-05 3.30872E-24
 -1       578 1.83725E-04 1.64571E-05 0.00000E+00
 -1       579 1.83825E-04 1.42570E-05 0.00000E+00
 -1       580 1.83925E-04 1.21224E-05-3.30872E-24
 -1       581 1.84025E-04 1.00700E-05 6.61744E-24
 -1       582 1.84125E-04 8.11608E-06 0.00000E+00
 -1       583 1.84225E-04 6.27724E-06 0.00000E+00
 -1       584 1.84326E-04 4.56980E-06 3.30872E-24
 -1       585 1.84427E-04 3.00991E-06-6.61744E-24
 -1       586 1.84692E-04 3.44757E-05 0.00000E+00
 -1       587 1.86409E-04 3.45149E-05-4.13590E-25
 -1       588 1.88129E-04 3.45537E-05 0.00000E+00
 -1       589 1.89895E-04 3.45919E-05 0.00000E+00
 -1       590 1.91750E-04 3.46288E-05 0.00000E+00
 -1       591 1.83663E-04 3.23988E-05-1.03398E-25
 -1       592 1.84397E-04 3.03422E-05 0.00000E+00
 -1       593 1.85135E-04 2.82718E-05 8.27181E-25
 -1       594 1.85876E-04 2.61923E-05 0.00000E+00
 -1       595 1.86619E-04 2.41085E-05 8.27181E-25
 -1       596 1.87361E-04 2.20250E-05 0.00000E+00
 -1       597 1.88101E-04 1.99464E-05 8.27181E-25
 -1       598 1.88838E-04 1.78775E-05-4.13590E-25
 -1       599 1.89570E-04 1.58228E-05 8.27181E-25
 -1       600 1.90295E-04 1.37871E-05 4.13590E-25
 -1       601 1.91010E-04 1.17749E-05 8.27181E-25
 -1       602 1.91716E-04 9.79096E-06-4.13590E-25
 -1       603 1.92409E-04 7.83985E-06-8.27181E-25
 -1       604 1.93089E-04 5.92636E-06-1.03398E-25
 -1       605 1.93753E-04 4.05505E-06 0.00000E+00
 -1       606 1.84540E-04 4.48392E-07 0.00000E+00
 -1       607 1.84550E-04-6.29671E-07 1.65436E-24
 -1       608 1.84559E-04-1.62686E-06 0.00000E+00
 -1       609 1.84567E-04-2.54887E-06-1.65436E-24
 -1       610 1.84576E-04-3.40144E-06 0.00000E+00
 -1       611 1.84584E-04-4.19037E-06 0.00000E+00
 -1       612 1.84592E-04-4.92146E-06 0.00000E+00
 -1       613 1.84600E-04-5.60053E-06 0.00000E+00
 -1       614 1.84609E-04-6.23340E-06 0.00000E+00
 -1       615 1.84617E-04-6.82588E-06 0.00000E+00
 -1       616 1.84626E-04-7.38378E-06 0.00000E+00
 -1       617 1.84634E-04-7.91294E-06 0.00000E+00
 -1       618 1.84642E-04-8.41914E-06 0.00000E+00
 -1       619 1.84651E-04-8.90823E-06 0.00000E+00
 -1       620 1.84659E-04-9.38601E-06 0.00000E+00
 -1       621 1.85886E-04 1.71617E-06 3.30872E-24
 -1       622 1.87405E-04 1.82021E-06-1.65436E-24
 -1       623 1.89050E-04 1.92404E-06-3.30872E-24
 -1       624 1.90787E-04 2.02753E-06-1.65436E-24
 -1       625 1.92583E-04 2.13073E-06 0.00000E+00
 -1       626 1.85076E-04 4.84657E-07 0.00000E+00
 -1       627 1.85602E-04-5.79837E-07 0.00000E+00
 -1       628 1.86107E-04-1.58899E-06 0.00000E+00
 -1       629 1.86595E-04-2.55099E-06-1.65436E-24
 -1       630 1.87068E-04-3.47407E-06 3.30872E-24
 -1       631 1.87530E-04-4.36646E-06 1.65436E-24
 -1       632 1.87983E-04-5.23637E-06 3.30872E-24
 -1       633 1.88431E-04-6.09207E-06 0.00000E+00
 -1       634 1.88877E-04-6.94178E-06 0.00000E+00
 -1       635 1.89324E-04-7.79373E-06 1.65436E-24
 -1       636 1.89775E-04-8.65617E-06 0.00000E+00
 -1       637 1.90232E-04-9.53734E-06-1.65436E-24
 -1       638 1.90700E-04-1.04455E-05 1.65436E-24
 -1       639 1.91180E-04-1.13888E-05 0.00000E+00
 -1       640 1.91676E-04-1.23757E-05 1.65436E-24
 -1       656 1.85372E-04-1.04363E-05-6.61744E-24
 -1       657 1.86496E-04-1.10377E-05 0.00000E+00
 -1       658 1.87902E-04-1.16378E-05-1.32349E-23
 -1       659 1.89442E-04-1.22375E-05-6.61744E-24
 -1       660 1.90933E-04-1.28391E-05-6.61744E-24
 -1       661 1.84930E-04-1.03759E-05 8.27181E-25
 -1       662 1.85232E-04-1.09858E-05-8.27181E-25
 -1       663 1.85566E-04-1.16825E-05-1.65436E-24
 -1       664 1.85930E-04-1.24597E-05 0.00000E+00
 -1       665 1.86323E-04-1.33114E-05 1.65436E-24
 -1       666 1.86741E-04-1.42317E-05 0.00000E+00
 -1       667 1.87182E-04-1.52149E-05 0.00000E+00
 -1       668 1.87646E-04-1.62553E-05 0.00000E+00
 -1       669 1.88128E-04-1.73476E-05-1.65436E-24
 -1       670 1.88628E-04-1.84863E-05-8.27181E-25
 -1       671 1.89143E-04-1.96662E-05 1.65436E-24
 -1       672 1.89672E-04-2.08822E-05 0.00000E+00
 -1       673 1.90212E-04-2.21293E-05 1.65436E-24
 -1       674 1.90761E-04-2.34027E-05-4.13590E-25
 -1       675 1.91318E-04-2.46970E-05 0.00000E+00
 -1       676 1.85127E-04-2.54915E-05-3.30872E-24
 -1       677 1.86482E-04-2.55958E-05-1.65436E-24
 -1       678 1.87835E-04-2.56999E-05 3.30872E-24
 -1       679 1.89185E-04-2.58038E-05-1.65436E-24
 -1       680 1.90533E-04-2.59077E-05-3.30872E-24
 -1       771 1.86479E-05 1.47751E-05 0.00000E+00
 -1       772 8.58840E-06 3.67378E-05 0.00000E+00
 -1       773 3.35996E-07 5.41521E-05-5.29396E-23
 -1       774-6.23371E-06 6.72760E-05-2.64698E-23
 -1       775-1.12424E-05 7.63781E-05 0.00000E+00
 -1       776-1.48169E-05 8.17436E-05 0.00000E+00
 -1       777-1.70834E-05 8.36679E-05 0.00000E+00
 -1       778-1.81710E-05 8.24602E-05 0.00000E+00
 -1       779-1.82080E-05 7.84383E-05-5.29396E-23
 -1       780-1.73249E-05 7.19315E-05 2.64698E-23
 -1       781-1.56512E-05 6.32756E-05 0.00000E+00
 -1       782-1.33178E-05 5.28155E-05 2.64698E-23
 -1       783-1.04548E-05 4.09008E-05 0.00000E+00
 -1       784-7.19363E-06 2.78871E-05 0.00000E+00
 -1       785-3.66465E-06 1.41331E-05-5.29396E-23
 -1       786 1.93773E-04 3.24042E-05 3.23117E-27
 -1       787 1.93814E-04 3.01974E-05 4.13590E-25
 -1       788 1.93855E-04 2.80330E-05-8.27181E-25
 -1       789 1.93897E-04 2.59028E-05 0.00000E+00
 -1       790 1.93939E-04 2.38019E-05 0.00000E+00
 -1       791 1.93981E-04 2.17256E-05 0.00000E+00
 -1       792 1.94023E-04 1.96716E-05-1.65436E-24
 -1       793 1.94065E-04 1.76376E-05 8.27181E-25
 -1       794 1.94107E-04 1.56234E-05 0.00000E+00
 -1       795 1.94149E-04 1.36288E-05 0.00000E+00
 -1       796 1.94191E-04 1.16555E-05 0.00000E+00
 -1       797 1.94234E-04 9.70532E-06 0.00000E+00
 -1       798 1.94276E-04 7.78240E-06-1.65436E-24
 -1       799 1.94318E-04 5.89094E-06 8.27181E-25
 -1       800 1.94361E-04 4.03824E-06 0.00000E+00
 -1       801 1.47932E-04 3.11613E-05 2.64698E-23
 -1       802 9.43528E-06 1.94402E-05-2.64698E-23
 -1       803-1.08864E-04 9.81927E-06 0.00000E+00
 -1       804-9.64993E-05 6.83484E-06 0.00000E+00
 -1       805-3.18844E-05 2.68560E-06 0.00000E+00
 -1       806 1.94466E-04 3.23343E-05 0.00000E+00
 -1       807 1.95181E-04 3.00329E-05 0.00000E+00
 -1       808 1.95885E-04 2.77629E-05 0.00000E+00
 -1       809 1.96574E-04 2.55287E-05 0.00000E+00
 -1       810 1.97249E-04 2.33342E-05 3.30872E-24
 -1       811 1.97907E-04 2.11837E-05 1.65436E-24
 -1       812 1.98547E-04 1.90812E-05-3.30872E-24
 -1       813 1.99168E-04 1.70307E-05 0.00000E+00
 -1       814 1.99768E-04 1.50363E-05 0.00000E+00
 -1       815 2.00345E-04 1.31020E-05 0.00000E+00
 -1       816 2.00899E-04 1.12320E-05-1.65436E-24
 -1       817 2.01427E-04 9.43008E-06 8.27181E-25
 -1       818 2.01928E-04 7.70041E-06-1.65436E-24
 -1       819 2.02401E-04 6.04697E-06-8.27181E-25
 -1       820 2.02844E-04 4.47371E-06 1.65436E-24
 -1       821 1.94274E-04-1.74945E-07-1.65436E-24
 -1       822 1.94133E-04-3.82239E-06-1.65436E-24
 -1       823 1.93989E-04-8.25669E-06-3.30872E-24
 -1       824 1.93843E-04-1.30189E-05 0.00000E+00
 -1       825 1.93697E-04-1.75614E-05 3.30872E-24
 -1       826 1.93554E-04-2.13373E-05 0.00000E+00
 -1       827 1.93415E-04-2.40097E-05-3.30872E-24
 -1       828 1.93278E-04-2.52482E-05 1.65436E-24
 -1       829 1.93142E-04-2.51139E-05 0.00000E+00
 -1       830 1.93004E-04-2.36765E-05 1.65436E-24
 -1       831 1.92866E-04-2.13615E-05 0.00000E+00
 -1       832 1.92727E-04-1.85996E-05 0.00000E+00
 -1       833 1.92587E-04-1.59441E-05 0.00000E+00
 -1       834 1.92451E-04-1.39470E-05 0.00000E+00
 -1       835 1.92316E-04-1.29816E-05 0.00000E+00
 -1       836 1.96096E-04 2.35658E-06 0.00000E+00
 -1       837 1.97660E-04 2.48457E-06 0.00000E+00
 -1       838 1.99127E-04 2.61250E-06-3.30872E-24
 -1       839 2.00528E-04 2.73973E-06-8.27181E-25
 -1       840 2.01895E-04 2.86680E-06-8.27181E-25
 -1       856 1.92173E-04-1.44758E-05 0.00000E+00
 -1       857 1.92154E-04-1.54017E-05 0.00000E+00
 -1       858 1.92135E-04-1.62132E-05-2.06795E-25
 -1       859 1.92116E-04-1.69314E-05 2.06795E-25
 -1       860 1.92096E-04-1.75776E-05 4.13590E-25
 -1       861 1.92077E-04-1.81728E-05 0.00000E+00
 -1       862 1.92057E-04-1.87385E-05-4.13590E-25
 -1       863 1.92037E-04-1.92959E-05-2.06795E-25
 -1       864 1.92018E-04-1.98664E-05-8.27181E-25
 -1       865 1.91998E-04-2.04712E-05 0.00000E+00
 -1       866 1.91978E-04-2.11316E-05 0.00000E+00
 -1       867 1.91958E-04-2.18690E-05 4.13590E-25
 -1       868 1.91939E-04-2.27043E-05-8.27181E-25
 -1       869 1.91918E-04-2.36588E-05 0.00000E+00
 -1       870 1.91898E-04-2.47535E-05 0.00000E+00
 -1       871 1.93539E-04-1.34191E-05 0.00000E+00
 -1       872 1.95036E-04-1.34273E-05 0.00000E+00
 -1       873 1.96613E-04-1.34362E-05 0.00000E+00
 -1       874 1.98201E-04-1.34459E-05-3.10193E-25
 -1       875 1.99733E-04-1.34561E-05 1.65436E-24
 -1       876 1.92715E-04-1.44612E-05 3.30872E-24
 -1       877 1.93218E-04-1.54415E-05 1.65436E-24
 -1       878 1.93699E-04-1.63631E-05 3.30872E-24
 -1       879 1.94162E-04-1.72334E-05 0.00000E+00
 -1       880 1.94608E-04-1.80599E-05 0.00000E+00
 -1       881 1.95041E-04-1.88498E-05-1.65436E-24
 -1       882 1.95462E-04-1.96104E-05 0.00000E+00
 -1       883 1.95876E-04-2.03492E-05 1.65436E-24
 -1       884 1.96284E-04-2.10734E-05 0.00000E+00
 -1       885 1.96689E-04-2.17903E-05 1.65436E-24
 -1       886 1.97095E-04-2.25073E-05-3.30872E-24
 -1       887 1.97502E-04-2.32316E-05 1.65436E-24
 -1       888 1.97916E-04-2.39706E-05-3.30872E-24
 -1       889 1.98336E-04-2.47318E-05-1.65436E-24
 -1       890 1.98768E-04-2.55225E-05 0.00000E+00
 -1       891 1.93240E-04-2.60668E-05-1.65436E-24
 -1       892 1.94581E-04-2.61246E-05 0.00000E+00
 -1       893 1.95872E-04-2.61822E-05 0.00000E+00
 -1       894 1.97091E-04-2.62395E-05 0.00000E+00
 -1       895 1.98210E-04-2.62966E-05-4.13590E-25
 -1       956 2.03128E-04 1.67082E-06-1.65436E-24
 -1       957 2.02996E-04 4.47298E-07 1.65436E-24
 -1       958 2.02863E-04-6.96640E-07 0.00000E+00
 -1       959 2.02730E-04-1.77223E-06 0.00000E+00
 -1       960 2.02597E-04-2.79077E-06 0.00000E+00
 -1       961 2.02464E-04-3.76356E-06-1.65436E-24
 -1       962 2.02331E-04-4.70193E-06-3.30872E-24
 -1       963 2.02199E-04-5.61725E-06 0.00000E+00
 -1       964 2.02066E-04-6.52085E-06 3.30872E-24
 -1       965 2.01933E-04-7.42407E-06 1.65436E-24
 -1       966 2.01800E-04-8.33826E-06 0.00000E+00
 -1       967 2.01667E-04-9.27477E-06 1.65436E-24
 -1       968 2.01534E-04-1.02449E-05 0.00000E+00
 -1       969 2.01402E-04-1.12600E-05 0.00000E+00
 -1       970 2.01270E-04-1.23314E-05 3.30872E-24
 -1       971 2.01019E-04-1.46073E-05 0.00000E+00
 -1       972 2.00898E-04-1.56501E-05 0.00000E+00
 -1       973 2.00777E-04-1.66086E-05-3.30872E-24
 -1       974 2.00655E-04-1.74937E-05-1.65436E-24
 -1       975 2.00534E-04-1.83161E-05 0.00000E+00
 -1       976 2.00412E-04-1.90869E-05 0.00000E+00
 -1       977 2.00291E-04-1.98169E-05-3.30872E-24
 -1       978 2.00169E-04-2.05169E-05-1.65436E-24
 -1       979 2.00048E-04-2.11980E-05-3.30872E-24
 -1       980 1.99926E-04-2.18711E-05 0.00000E+00
 -1       981 1.99805E-04-2.25471E-05-3.30872E-24
 -1       982 1.99684E-04-2.32368E-05 0.00000E+00
 -1       983 1.99563E-04-2.39513E-05-3.30872E-24
 -1       984 1.99442E-04-2.47014E-05 0.00000E+00
 -1       985 1.99322E-04-2.54980E-05 0.00000E+00
 -3
    1PSTEP                        28          14           1          
  100CL  114 6.62933E-01         409                     0   14           1
 -4  STRESS      6    1
 -5  SXX         1    4    1    1
 -5  SYY         1    4    2    2
 -5  SZZ         1    4    3    3
 -5  SXY         1    4    1    2
 -5  SYZ         1    4    2    3
 -5  SZX         1    4    3    1
 -1         1-5.34727E+06-1.57242E+06-1.13263E+06-1.32652E+06 1.84809E-09 5.58503E-08
 -1         2 1.53061E+06 2.24146E+07 5.20731E+06 6.78753E+06 2.72994E-08 6.53672E-08
 -1         3-1.48822E+03-1.55600E+06 4.05373E+02-2.20862E+03-4.24308E-10-5.23869E-09
 -1         5-7.52548E+01 3.86477E+05 9.97968E+00-1.34282E+00-6.02490E-10 4.29864E-08
 -1         8-5.52752E+05-2.00321E+05-6.26750E+04-2.42540E+05 7.54881E-11-1.17972E-07
 -1         9 1.18121E+07 3.93516E+06 2.81724E+06-3.03368E+05-5.29690E-09-6.67293E-08
 -1        10-2.30399E+03-1.62147E+06-3.94086E+03-1.49453E+04-1.35042E-08-5.70878E-09
 -1        12-7.13374E+01 3.86498E+05 3.28058E+02-9.15283E+00-6.89926E-10-1.33250E-08
 -1        15 9.23075E+02 5.07275E+02 2.98382E+03 8.12020E-01-3.62519E-11 1.81614E-07
 -1        16 2.29277E+07-3.35562E+05 3.11953E+06-2.29817E+06-2.87158E-09 2.84597E-07
 -1        17 8.39606E+06 6.29115E+06 2.26786E+06 6.01777E+06 2.38826E-08 3.77186E-08
 -1        18 1.42529E+05 3.35597E+04 4.17975E+03-1.19622E+05 1.36108E-08-4.64343E-09
 -1        19 1.22469E+05 1.41641E+05-9.59396E+02 2.20639E+04 1.72549E-09-1.41048E-08
 -1        20-8.20359E+04-5.73331E+05-1.28660E+05 2.50753E+04-3.19202E-09 5.59946E-09
 -1        21-4.55619E+01-2.95998E+05-9.23690E+02 2.75197E+02 1.69226E-08 1.43018E-08
 -1        24 1.40820E+07 1.21239E+07 3.89744E+06 1.12249E+07-1.65513E-07-5.21347E-08
 -1        25 1.23864E+05 2.67843E+05 9.99470E+04-6.46590E+05 9.84437E-10 2.01868E-08
 -1        26-5.61235E+04 9.19937E+04-2.47782E+04 1.45418E+03-2.41198E-10-7.85774E-09
 -1        27-7.55971E+04-3.09719E+05-1.13321E+05 6.90519E+04 4.26962E-09-5.55580E-09
 -1        28 2.22387E+04-8.53715E+04 1.68991E+04 2.05655E+04-2.89350E-09 6.41576E-09
 -1        32-1.68039E+06-3.18154E+06-1.97590E+05 4.58699E+05-4.28554E-08-1.13778E-08
 -1        33-1.79967E+05 9.24615E+04 3.22867E+04-3.89062E+04-3.78869E-09-2.21711E-08
 -1        34-2.23668E+05-2.49371E+04 6.91694E+02 7.56008E+04-5.28414E-09 6.76998E-09
 -1        35-2.29230E+04-3.38646E+04-1.34889E+03 5.14984E+04-5.24189E-09-3.63313E-09
 -1        51 6.08741E+04-1.70591E+05 1.28685E+05-4.34148E+05-3.49246E-10 1.35493E-07
 -1        52 2.05788E+04-1.48071E+05 6.74589E+04-5.06352E+05 6.54836E-11 6.09361E-09
 -1        53 4.15705E+03-1.63424E+05 3.50230E+04-4.32660E+05 3.34694E-10-2.03690E-07
 -1        54 7.26459E+03-1.59207E+05 2.85659E+04-5.07806E+05-1.20053E-10-1.45092E-07
 -1        55 1.58423E+04-1.66141E+05 3.44971E+04-4.32574E+05 2.58296E-10 4.33829E-09
 -1        56-9.81073E+06-1.39627E+06-9.25591E+05-4.10894E+06 2.47383E-09-1.00437E-07
 -1        57-1.11263E+07-7.66612E+05-5.44944E+05-2.66791E+06 4.79704E-08-5.55301E-08
 -1        58-9.58800E+06-1.87124E+06-2.01915E+05-4.31273E+06 2.54367E-08-1.05741E-07
 -1        59-1.13406E+07-2.15589E+05-1.07079E+05-2.59209E+06 3.97281E-08-7.26941E-08
 -1        60-9.68630E+06-1.87466E+06-5.88046E+04-4.26377E+06 1.79170E-08-2.50875E-08
 -1        61-1.06334E+07-5.76719E+05 2.10863E+04-2.84629E+06-1.47156E-08 1.85639E-07
 -1        62-1.01429E+07-1.61307E+06-8.46639E+04-3.93707E+06-1.98197E-08 1.54629E-07
 -1        63-9.65844E+06-1.33954E+06 6.26985E+04-3.58801E+06 3.46336E-08-1.37879E-07
 -1        64-1.05378E+07-1.19988E+06-7.79469E+04-3.44445E+06 3.50556E-08-1.96895E-07
 -1        65-9.27330E+06-1.98245E+06 1.75591E+04-4.56607E+06-9.30922E-08 1.03391E-08
 -1        66-1.06700E+07-8.71610E+05-4.78095E+04-3.06644E+06 2.67755E-08 1.01136E-08
 -1        67-9.30296E+06-2.25024E+06-9.62945E+04-5.03264E+06-3.19233E-08-2.35537E-07
 -1        68-1.06502E+07-8.32110E+05-1.87904E+05-3.06569E+06-7.89132E-08-1.17696E-07
 -1        69-9.46655E+06-2.32156E+06-4.83748E+05-4.53375E+06-1.10631E-08 2.77658E-07
 -1        70-1.03741E+07-9.05196E+05-8.51196E+05-3.47934E+06-1.21654E-08 6.71716E-08
 -1        86-1.56180E+06-1.58785E+07-2.85106E+06-3.18639E+06-2.67271E-07-5.98666E-08
 -1        87 2.46161E+06 6.48322E+06 2.37107E+06 5.86320E+06-4.58662E-07-1.43124E-07
 -1        88-4.66682E+05-1.92105E+06 2.24981E+05-2.59903E+06-4.20485E-07-3.24024E-07
 -1        89 3.29556E+06 6.17547E+06 2.43056E+06 6.06236E+06-6.15611E-07-2.17120E-07
 -1        90-2.29805E+06-1.56494E+07-3.07700E+06-3.41619E+06-1.54749E-07 2.12385E-07
 -1       121-2.03859E+03-1.56090E+06-5.47972E+02 1.09468E+03 1.55769E-09 1.25874E-09
 -1       122-1.30272E+03-1.55606E+06 7.68391E+02-4.42140E+03-5.31944E-09 2.82598E-08
 -1       123-2.05833E+03-1.56104E+06 2.58633E+02 3.26935E+03 4.22926E-09-4.73665E-09
 -1       124 3.30986E+02-1.55562E+06 2.94417E+03-9.25281E+03-1.07430E-08-2.81234E-08
 -1       125-2.86591E+03-1.56193E+06 3.45203E+03 5.88010E+03 6.53199E-09 6.73026E-10
 -1       191-7.93046E+01 3.86495E+05 8.48517E+00 7.00154E-01-5.79134E-10 2.71648E-08
 -1       192-7.62184E+01 3.86478E+05 2.12964E+01-4.30539E+00-8.22164E-10 1.83718E-09
 -1       193-8.18408E+01 3.86495E+05 3.62563E+01 3.78122E+00-1.13740E-09 2.79033E-09
 -1       194-7.93075E+01 3.86481E+05 8.09595E+01-9.76962E+00-5.45953E-10-2.09002E-08
 -1       195-8.67088E+01 3.86492E+05 1.54998E+02 6.35769E+00-1.52609E-09-1.15142E-08
 -1       251-8.61228E+05 1.61527E+04-3.77078E+04-1.44349E+04-6.60604E-09 1.20617E-08
 -1       252-8.75448E+05-1.86956E+04-2.62243E+04 5.10510E+04 1.74374E-08-4.21005E-08
 -1       253-8.69672E+05 2.47779E+03-1.01671E+04-1.01493E+04-6.43854E-09 1.70708E-08
 -1       254-8.61940E+05-3.00944E+03-4.50938E+03 3.63015E+04 4.86398E-09 7.28104E-08
 -1       255-8.74111E+05 4.94908E+01-3.54874E+03 3.10741E+02 8.55607E-10-1.39959E-07
 -1       256-8.56485E+05-2.72231E+02 1.22684E+03 1.25874E+04-6.87953E-09 1.51926E-07
 -1       257-8.74678E+05-5.90654E+02-1.41247E+03 1.35530E+04 5.77802E-09 5.82587E-08
 -1       258-8.59380E+05 9.27493E+02 2.74586E+03-1.23172E+04-1.57063E-08-1.82254E-07
 -1       259-8.71470E+05-9.54026E+02 1.36515E+03 2.52129E+04-9.25638E-10-8.37131E-08
 -1       260-8.65906E+05 2.97674E+03 5.60238E+03-3.02729E+04-1.82106E-08-5.68247E-09
 -1       261-8.68799E+05-2.14062E+03 8.68494E+03 3.15255E+04 2.81664E-08 5.41240E-08
 -1       262-8.64625E+05 1.18591E+04 2.15757E+04-3.55237E+04-3.35146E-08-2.17128E-07
 -1       263-8.73009E+05-9.60428E+03 3.41800E+04 3.04735E+04 3.49121E-09 6.51507E-08
 -1       264-8.33935E+05 6.72876E+04 9.46510E+04-2.62496E+04 1.28036E-08 3.14691E-07
 -1       265-8.98984E+05-5.77069E+04 1.31766E+05 2.22388E+04 2.00366E-08 1.94115E-07
 -1       266-1.67110E+04-7.81489E+03 3.92048E+04-1.73733E+01-1.18234E-10-4.10941E-08
 -1       267 1.93724E+04 9.10713E+03 2.77114E+04 2.00471E+01 1.31877E-11-5.94415E-08
 -1       268-2.59781E+03-1.28989E+03 1.03001E+04-2.55425E+00 2.23281E-10 1.35053E-08
 -1       269 3.06723E+03 1.54365E+03 6.69499E+03 2.97543E+00-1.08457E-10 3.42559E-08
 -1       270-4.60396E+02-2.53637E+02 3.23176E+03-4.03782E-01 7.49196E-11 1.29496E-07
 -1       271-1.46811E+06-1.87199E+05-1.10640E+05-5.71508E+05-5.85533E-09-8.93488E-08
 -1       272-1.46174E+06-3.01319E+05-6.94116E+04-6.11526E+05 3.34985E-08 8.09232E-08
 -1       273-1.49153E+06-2.10565E+05-2.68606E+04-5.63479E+05-1.12232E-08 3.95103E-08
 -1       274-1.43519E+06-2.73152E+05-1.39287E+04-6.26786E+05 7.77254E-09 2.34382E-07
 -1       275-1.49713E+06-2.10059E+05-6.70947E+03-5.59699E+05 2.56296E-08 1.07282E-07
 -1       276-1.42966E+06-2.74121E+05-2.80626E+03-6.35499E+05-2.49565E-08-1.58983E-07
 -1       277-1.49996E+06-2.07396E+05-1.86245E+03-5.56963E+05 2.32194E-08-1.80658E-07
 -1       278-1.42756E+06-2.77318E+05-6.95234E+02-6.41894E+05-1.56142E-08-1.24295E-07
 -1       279-1.50177E+06-2.05234E+05-8.51342E+02-5.55050E+05-2.85636E-08-8.41706E-08
 -1       280-1.42659E+06-2.79701E+05-9.56791E+02-6.46078E+05-4.34852E-08 1.93963E-07
 -1       281-1.50272E+06-2.03887E+05-1.76963E+03-5.53983E+05-3.55521E-09 1.50922E-08
 -1       282-1.42697E+06-2.81819E+05-4.11242E+03-6.47768E+05-4.42124E-08 1.71521E-07
 -1       283-1.50223E+06-2.02703E+05-7.32140E+03-5.53872E+05-5.00495E-09 1.27088E-07
 -1       284-1.43354E+06-2.91356E+05-1.99394E+04-6.45571E+05-4.37523E-08 1.77528E-07
 -1       285-1.49602E+06-1.95515E+05-3.11563E+04-5.55652E+05-2.42198E-08 9.57407E-08
 -1       301-8.22569E+03-6.49691E+05 1.66746E+05-1.14296E+06-6.51926E-09 7.76927E-08
 -1       302-1.02679E+04-6.02638E+05 1.00350E+05-1.66812E+06-2.13913E-09 1.49521E-07
 -1       303-2.26523E+04-6.42471E+05 5.66260E+04-1.13981E+06-8.07631E-10-1.55134E-07
 -1       304-2.60689E+04-6.09936E+05 5.68585E+04-1.66756E+06 1.33005E-08-3.32831E-07
 -1       305-2.70607E+04-6.31155E+05 6.97386E+04-1.14290E+06 8.04539E-09-2.42537E-07
 -1       306-3.01349E+07-6.21745E+06-8.61086E+06-4.86891E+05-6.42613E-08 1.51573E-07
 -1       307 2.52825E+07 3.29151E+06 5.50767E+06-1.52841E+07-9.27699E-07 3.40398E-07
 -1       308-6.91314E+06-1.01275E+06-4.35164E+05 5.21176E+06-2.66766E-07 5.32556E-07
 -1       309-3.18646E+06 8.74542E+06 2.29607E+06-2.07118E+07 2.44272E-07 3.60196E-08
 -1       310-1.26607E+07-1.95747E+06-2.06536E+06 5.22038E+06-1.83471E-07-1.83354E-09
 -1       311 3.87016E+07-3.07169E+03 7.31871E+06-8.71667E+06 6.23055E-07 2.78204E-07
 -1       312-3.19969E+07-6.82217E+06-8.57057E+06-5.11349E+06-2.02563E-07 2.66256E-07
 -1       313 4.54214E+07 1.51964E+07 1.06953E+07 2.39544E+07-3.26661E-07-2.08820E-07
 -1       314-1.71587E+07-1.78766E+07-7.53210E+06-1.25436E+07 2.59490E-07-2.18453E-07
 -1       315-1.94080E+06 2.98331E+07 5.66790E+06 1.04514E+07-2.94356E-07-3.96743E-07
 -1       316 1.43923E+06-9.82874E+06-4.27037E+05-2.48835E+06-1.10878E-06-1.66357E-07
 -1       317-1.70936E+07 2.24517E+07 2.24933E+06-8.89798E+06 6.80549E-07-5.22763E-07
 -1       318-1.08772E+06-1.28576E+07-2.06676E+06-4.24293E+06-9.51084E-07 1.27242E-07
 -1       319 7.30619E+06 3.21100E+07 7.07553E+06 1.67030E+07-2.15368E-09 2.16329E-07
 -1       320-2.26551E+07-1.76979E+07-9.88854E+06-1.28479E+07 2.02213E-07-6.02158E-08
 -1       336-7.49837E+02-1.68973E+06-1.38275E+04 8.89533E+03-2.62717E-08 7.95262E-09
 -1       337-5.40414E+03-1.68926E+06-1.80403E+04-2.16111E+04-4.92755E-08-2.19025E-08
 -1       338 2.69720E+02-1.68922E+06-2.84215E+04 1.24646E+04-3.49737E-08 6.58474E-09
 -1       339-3.01611E+04-1.70647E+06-6.42302E+04-2.86038E+04-6.26060E-08 2.40561E-08
 -1       340 1.98597E+04-1.67470E+06-1.01184E+05 1.57571E+04-4.17749E-08 2.44145E-08
 -1       406-4.96371E+01 3.86478E+05 6.44140E+02 3.34791E+00-2.03750E-09 4.30737E-09
 -1       407 1.54876E+02 3.86612E+05 1.37657E+03 2.34009E+01-4.62322E-10-4.44743E-10
 -1       408 6.34918E+02 3.86377E+05 2.74476E+03-2.70693E+01-2.57023E-09 1.78952E-08
 -1       409 2.90686E+03 3.87489E+05 6.18645E+03 2.88998E+02-3.54703E-10 2.41052E-08
 -1       410 8.47952E+03 3.85587E+05 1.26263E+04-2.78685E+02-2.62844E-09 2.29102E-08
 -1       521-3.17254E+07-7.69153E+06-1.00814E+07-8.99919E+04-3.73693E-08-1.89757E-08
 -1       522 2.61969E+07 4.34723E+06 5.62822E+06-1.88294E+07-5.11733E-07-4.68688E-07
 -1       523-7.48415E+06-1.32984E+06-4.26546E+05 5.66831E+06 1.70578E-07-1.50947E-07
 -1       524-6.69385E+06 1.18506E+07 2.48968E+06-2.38085E+07 7.00136E-07-6.28352E-07
 -1       525-1.34618E+07-2.60649E+06-2.27540E+06 5.68351E+06 9.50182E-07-9.67120E-08
 -1       526 4.23506E+07-1.02950E+05 7.69395E+06-1.13756E+07 5.17000E-07 1.67405E-07
 -1       527-3.38961E+07-8.54026E+06-9.89874E+06-4.98075E+06 2.12109E-07 5.62868E-08
 -1       528 4.96803E+07 1.69905E+07 1.11760E+07 2.73011E+07 1.33819E-07 1.05327E-07
 -1       529-1.81108E+07-2.01314E+07-8.65276E+06-1.25831E+07 2.39466E-07 8.46339E-08
 -1       530-4.43140E+06 3.47101E+07 6.01071E+06 9.88418E+06-1.84009E-07 6.16361E-07
 -1       531 1.44916E+06-1.09089E+07-3.98625E+05-2.42113E+06-9.66567E-07 3.98490E-07
 -1       532-1.95906E+07 2.44777E+07 2.46415E+06-1.32563E+07 5.27449E-07-8.19418E-07
 -1       533-1.12732E+06-1.40310E+07-2.20699E+06-4.03589E+06-3.11091E-07-1.04302E-06
 -1       534 5.31614E+06 3.73490E+07 7.37844E+06 1.73129E+07-1.90339E-08 7.82311E-07
 -1       535-2.38662E+07-2.01393E+07-1.13604E+07-1.29323E+07 1.05239E-07 4.65021E-07
 -1       536-7.06360E+05-4.67275E+04-4.83552E+04-5.47219E+04-4.92037E-09 5.13382E-08
 -1       537-5.46755E+04 4.46568E+04 8.38936E+04 1.23926E+05-1.04779E-07 1.00685E-07
 -1       538-3.94426E+05 3.35708E+03 3.51926E+03-7.22416E+04 3.55461E-08 1.04541E-07
 -1       539-2.68963E+05 2.84658E+03 2.49187E+04 1.38821E+05 1.61648E-07 1.07287E-07
 -1       540-4.97456E+05-4.27572E+02-2.13527E+04-7.01523E+04-2.34513E-09 9.71967E-08
 -1       541 1.47135E+05 1.69859E+04 1.06479E+05 9.79967E+04 3.35899E-09 7.60633E-08
 -1       542-7.99312E+05-2.01532E+04-8.43163E+04-3.05415E+04 3.31993E-08 4.69819E-08
 -1       543 4.06062E+05 2.73504E+04 1.58116E+05-1.33687E+04-1.79434E-08 1.80489E-09
 -1       544-7.49439E+05-1.65528E+04-7.49061E+04 4.05426E+04-2.49383E-08-3.18475E-08
 -1       545 2.93441E+04 9.49379E+03 7.98863E+04-1.13695E+05-2.84190E-08-5.53518E-08
 -1       546-4.32712E+05 6.10036E+03-1.22399E+04 6.94385E+04 2.51564E-08-9.20893E-08
 -1       547-2.87049E+05-4.65638E+03 1.06029E+04-1.41667E+05-1.04032E-07-1.22969E-07
 -1       548-4.41552E+05 4.72122E+03-2.38949E+04 6.92058E+04-1.12057E-07-9.54333E-08
 -1       549 4.85398E+04 1.61070E+04 6.05976E+04-1.11557E+05-5.78739E-08-5.78375E-08
 -1       550-7.59321E+05-2.21778E+04-1.29051E+05 3.86122E+04 1.73604E-08-3.80314E-08
 -1       551 4.07840E+04-7.49850E+05-1.59205E+04-1.24701E+06-1.03537E-07-2.88128E-09
 -1       552 9.32582E+04-7.94839E+05 9.89893E+03-1.77806E+06-7.23230E-08 3.88900E-08
 -1       553 7.17633E+04-7.91244E+05 3.20191E+04-1.24036E+06-1.16270E-07 2.82744E-08
 -1       554 1.32055E+05-8.10746E+05 8.10250E+04-1.78001E+06-7.16682E-08 1.84227E-08
 -1       555 1.01505E+05-8.14900E+05 1.47981E+05-1.24019E+06-1.23226E-07-6.58474E-09
 -1       556 2.23790E+05-3.83790E+05 2.56094E+04-4.07286E+05-2.30211E-08 1.41154E-08
 -1       557 3.54361E+05-4.88154E+05 1.60765E+04-5.27755E+05-1.58616E-09 1.68693E-08
 -1       558 2.05542E+05-3.76555E+05 2.28989E+03-4.11749E+05-1.53668E-08-5.07134E-09
 -1       559 3.29348E+05-4.88202E+05 2.42444E+03-5.48219E+05 2.88419E-08-5.76256E-09
 -1       560 1.90226E+05-3.66950E+05-1.51466E+03-4.22787E+05 1.33005E-08 5.28235E-09
 -1       561 3.10105E+05-4.80499E+05 1.25830E+02-5.61340E+05 3.78350E-09 1.28348E-08
 -1       562 1.78116E+05-3.59426E+05-1.33007E+03-4.31556E+05 4.10364E-09 9.29867E-09
 -1       563 2.95720E+05-4.74228E+05-3.79989E+01-5.70736E+05 6.86850E-09 7.18865E-09
 -1       564 1.69472E+05-3.54041E+05-6.01907E+02-4.37682E+05 8.76025E-09-2.77532E-09
 -1       565 2.86178E+05-4.70072E+05 2.41437E+01-5.76833E+05 1.54541E-08-3.94948E-09
 -1       566 1.64418E+05-3.50844E+05-2.59414E+02-4.41217E+05 1.89902E-09-2.89219E-09
 -1       567 2.81538E+05-4.68053E+05-3.60169E+02-5.79651E+05 3.04299E-08-1.20745E-08
 -1       568 1.63044E+05-3.50002E+05-1.12097E+03-4.42273E+05 2.99588E-09-8.80391E-09
 -1       569 2.80416E+05-4.67976E+05-2.83209E+03-5.78224E+05-6.55200E-09-8.85484E-09
 -1       570 1.66442E+05-3.53232E+05-6.19458E+03-4.41256E+05 1.06811E-08 3.98359E-10
 -1       571 2.90811E+05 1.05203E+04 1.50064E+04-9.53007E+04 8.91032E-09 2.33113E-08
 -1       572 2.92985E+05 3.96630E+03 7.35432E+03-1.04556E+05 4.15639E-09 6.79938E-09
 -1       573 2.91675E+05 1.24859E+03 3.26777E+03-9.51245E+04 2.00180E-08-5.40786E-09
 -1       574 2.91889E+05 7.29568E+02 1.63877E+03-1.04780E+05 3.63700E-08-4.63297E-09
 -1       575 2.91769E+05 4.49845E+02 7.73465E+02-9.51004E+04 1.54379E-08 1.02973E-08
 -1       576 2.91753E+05 4.61237E+02 3.96036E+02-1.04810E+05-8.08541E-09 3.45935E-08
 -1       577 2.91809E+05 3.91476E+02 1.97744E+02-9.50971E+04-6.49197E-09-6.33554E-09
 -1       578 2.91784E+05 4.22903E+02 1.14328E+02-1.04814E+05-5.54019E-09-2.18424E-08
 -1       579 2.91882E+05 3.54498E+02 7.86754E+01-9.50968E+04 5.30054E-09-3.23416E-09
 -1       580 2.91886E+05 3.71563E+02 9.15563E+01-1.04809E+05-1.16288E-08 1.88265E-09
 -1       581 2.91996E+05 2.95630E+02 1.38515E+02-9.51027E+04 3.98177E-09 5.81713E-09
 -1       582 2.92063E+05 3.34195E+02 2.81762E+02-1.04747E+05 1.63254E-09 1.65601E-08
 -1       583 2.92137E+05 3.38866E+02 5.40932E+02-9.51594E+04 5.76256E-09 4.75120E-09
 -1       584 2.92440E+05 7.80708E+02 1.22409E+03-1.04270E+05 1.05501E-08 6.61271E-09
 -1       585 2.92162E+05 1.81132E+03 2.47883E+03-9.55795E+04-2.25555E-10-1.42099E-08
 -1       586-3.43306E+03 1.16989E+05-2.92186E+03-2.50978E+05-6.77073E-09-5.44583E-09
 -1       587-1.34415E+03 1.16741E+05 7.73516E+02-2.76222E+05-1.14542E-08-1.61899E-08
 -1       588 3.96786E+02 1.16547E+05 4.76969E+03-2.50841E+05-3.96540E-09 7.36782E-09
 -1       589 5.09267E+03 1.19027E+05 1.23703E+04-2.75987E+05-6.74663E-09 2.51921E-08
 -1       590 1.66411E+04 1.15212E+05 2.59490E+04-2.51274E+05-7.27687E-09 8.09086E-09
 -1       591-7.50410E+04-1.59526E+04-2.25483E+04-3.19391E+04-4.28827E-09-2.27828E-09
 -1       592-7.91481E+04-1.94989E+04-1.22140E+04-3.55508E+04 4.16991E-09 1.30223E-08
 -1       593-7.72958E+04-1.43167E+04-5.08405E+03-3.35927E+04-1.09287E-09-7.95262E-09
 -1       594-7.60351E+04-1.61899E+04-2.53554E+03-3.56683E+04-3.35660E-10 1.41068E-08
 -1       595-7.74677E+04-1.43114E+04-1.16405E+03-3.36678E+04-2.65025E-09 1.72900E-08
 -1       596-7.58220E+04-1.60386E+04-5.91494E+02-3.56430E+04 5.34703E-09 8.22772E-09
 -1       597-7.74892E+04-1.43268E+04-3.21555E+02-3.36707E+04 4.81703E-09-1.86208E-09
 -1       598-7.58010E+04-1.60326E+04-2.57516E+02-3.56358E+04-3.87786E-09-1.51512E-08
 -1       599-7.74880E+04-1.43273E+04-3.27730E+02-3.36704E+04-1.37163E-09 8.72649E-09
 -1       600-7.58220E+04-1.60391E+04-6.07844E+02-3.56408E+04 3.15742E-09 4.55395E-09
 -1       601-7.74634E+04-1.43128E+04-1.19864E+03-3.36669E+04 7.17591E-10-4.94219E-09
 -1       602-7.60414E+04-1.61937E+04-2.61204E+03-3.56630E+04-5.94207E-09 4.14730E-10
 -1       603-7.72835E+04-1.43212E+04-5.23808E+03-3.35903E+04 2.66800E-09 3.37686E-08
 -1       604-7.92665E+04-1.95831E+04-1.25831E+04-3.55169E+04 4.55839E-09 8.75980E-09
 -1       605-7.49404E+04-1.60246E+04-2.32299E+04-3.19063E+04-3.68783E-09 1.33568E-08
 -1       606 2.66149E+04-1.43417E+04-2.57094E+04 2.40019E+04 8.08086E-09-1.04610E-08
 -1       607 2.22220E+04-4.68407E+03-1.28032E+04 2.69732E+04 2.47746E-09 9.72932E-10
 -1       608 2.47256E+04-8.45108E+02-5.73157E+03 2.38332E+04-2.12458E-09-1.96064E-09
 -1       609 2.42457E+04-2.89624E+02-2.89543E+03 2.71873E+04 3.22325E-09 1.80125E-09
 -1       610 2.45118E+04-4.11447E+01-1.38145E+03 2.38131E+04 2.34104E-09-5.90217E-09
 -1       611 2.44365E+04-4.14265E+01-6.96515E+02 2.72105E+04 3.25736E-09 4.63115E-09
 -1       612 2.44647E+04-2.74232E+01-3.31110E+02 2.38111E+04 1.70530E-09-3.88695E-09
 -1       613 2.44481E+04-3.73315E+01-1.48353E+02 2.72132E+04 6.78119E-09-1.50817E-08
 -1       614 2.44425E+04-3.38473E+01-3.47268E+01 2.38104E+04 3.11138E-09 1.05492E-08
 -1       615 2.44428E+04-3.58405E+01 6.23264E+01 2.72136E+04 9.31777E-10 2.99974E-09
 -1       616 2.44251E+04-3.07208E+01 1.86761E+02 2.38107E+04 4.63251E-09-2.25100E-10
 -1       617 2.44653E+04 3.95814E+00 4.26048E+02 2.72131E+04-7.84894E-10 1.08917E-08
 -1       618 2.43881E+04 9.21004E+01 8.58750E+02 2.38110E+04 9.34051E-09 1.76396E-09
 -1       619 2.47684E+04 6.67944E+02 1.92838E+03 2.72125E+04 1.83186E-08-1.89011E-08
 -1       620 2.41029E+04 2.12842E+03 3.87598E+03 2.38125E+04 8.66271E-09-3.53430E-09
 -1       621 5.05078E+02 3.01113E+05 3.83859E+03 4.13044E+04 1.09185E-09-3.84534E-09
 -1       622 6.72240E+02 3.01998E+05 3.42169E+03 5.99662E+04 1.36288E-09-1.17279E-08
 -1       623 1.43858E+02 3.01302E+05 4.13011E+03 4.11177E+04 1.41426E-09-1.50640E-08
 -1       624 2.12757E+03 3.03220E+05 8.02212E+03 6.01498E+04 1.29455E-09-2.15150E-08
 -1       625 2.07838E+03 2.99709E+05 1.40254E+04 4.11147E+04 1.47656E-09-3.55810E-08
 -1       626 2.61106E+05 6.15167E+04 5.13992E+03 1.26907E+05 1.01627E-08 1.24401E-08
 -1       627 2.58782E+05 6.29165E+04 2.47689E+03 1.31194E+05-3.01952E-10-1.32475E-08
 -1       628 2.61234E+05 5.91651E+04 1.04754E+03 1.27781E+05-1.18780E-08-2.30868E-08
 -1       629 2.58145E+05 6.22337E+04 5.12708E+02 1.31435E+05-5.78575E-09 1.65469E-08
 -1       630 2.61249E+05 5.90515E+04 2.37915E+02 1.27818E+05-9.93987E-09 1.49595E-09
 -1       631 2.58077E+05 6.22077E+04 1.28123E+02 1.31436E+05 8.70432E-09 6.25710E-09
 -1       632 2.61245E+05 5.90555E+04 8.44649E+01 1.27814E+05 1.08580E-08 5.48994E-09
 -1       633 2.58069E+05 6.22095E+04 9.43370E+01 1.31433E+05 6.14955E-09-4.96675E-09
 -1       634 2.61241E+05 5.90527E+04 1.52662E+02 1.27813E+05-6.74817E-09-2.42289E-08
 -1       635 2.58084E+05 6.22078E+04 3.09040E+02 1.31438E+05-7.03363E-09 7.38692E-09
 -1       636 2.61232E+05 5.90468E+04 6.24171E+02 1.27813E+05 1.27329E-11 2.17779E-09
 -1       637 2.58219E+05 6.23048E+04 1.37245E+03 1.31438E+05-1.21213E-09 2.23840E-08
 -1       638 2.61183E+05 5.93500E+04 2.81986E+03 1.27676E+05-1.70348E-09 7.39783E-09
 -1       639 2.59700E+05 6.43646E+04 6.67195E+03 1.31001E+05 8.21547E-09-2.84551E-08
 -1       640 2.60978E+05 6.55021E+04 1.38454E+04 1.25085E+05 6.83849E-09-5.78939E-09
 -1       656 6.65389E+04-1.70299E+06-1.60622E+05-2.55968E+03 1.67347E-10 4.17970E-10
 -1       657-8.80282E+04-1.77557E+06-1.33071E+05 5.16262E+03-1.14142E-09 2.19551E-09
 -1       658 2.12133E+04-1.72360E+06-8.19631E+04-4.64373E+03-5.47743E-10 5.95814E-09
 -1       659-9.52092E+04-1.77899E+06-1.42509E+05 6.89532E+03-3.63798E-10-2.94016E-08
 -1       660 7.37039E+04-1.69959E+06-1.76847E+05-4.29237E+03-2.64845E-09-6.31277E-09
 -1       661 1.58054E+05 1.65355E+04 1.66744E+04 6.17895E+04-1.37015E-09 1.37316E-08
 -1       662 1.67493E+05 2.88730E+04 1.12374E+04 5.80360E+04 6.84736E-10 9.92350E-09
 -1       663 1.61330E+05 2.18849E+04 3.93013E+03 6.08389E+04-3.73234E-09 6.69911E-09
 -1       664 1.63695E+05 2.26173E+04 2.35106E+03 5.91972E+04-4.27733E-09 1.14704E-08
 -1       665 1.61827E+05 2.26154E+04 9.27481E+02 6.06938E+04-4.60432E-12-2.60050E-09
 -1       666 1.63107E+05 2.17820E+04 5.42943E+02 5.93865E+04 8.60541E-09 8.67264E-10
 -1       667 1.61914E+05 2.26985E+04 2.88624E+02 6.06575E+04-4.93685E-11-2.47994E-09
 -1       668 1.63011E+05 2.17224E+04 2.94633E+02 5.94394E+04-5.96901E-09-2.47888E-08
 -1       669 1.61922E+05 2.26734E+04 3.99340E+02 6.06412E+04-3.39807E-09 2.51219E-09
 -1       670 1.63108E+05 2.19393E+04 8.69986E+02 5.94423E+04-1.21983E-08-2.22618E-08
 -1       671 1.61817E+05 2.24861E+04 1.54487E+03 6.06525E+04-1.01431E-09-9.03901E-09
 -1       672 1.64008E+05 2.34423E+04 3.95262E+03 5.92240E+04 9.46272E-09 5.16030E-09
 -1       673 1.61026E+05 2.12085E+04 6.62400E+03 6.08449E+04-4.76007E-10 1.42763E-08
 -1       674 1.70313E+05 3.40844E+04 1.89433E+04 5.73718E+04-5.65706E-09-1.33507E-08
 -1       675 1.55553E+05 1.21420E+04 2.81185E+04 6.23929E+04-4.83806E-09-4.50018E-09
 -1       676 2.41083E+01-2.95921E+05-1.11329E+03-1.37603E+02 1.71892E-09 9.76110E-09
 -1       677-2.94488E+02-2.96190E+05-2.03751E+03 2.74983E+02 9.84849E-09 2.76660E-09
 -1       678 1.97521E+02-2.95729E+05-3.60182E+03-1.37291E+02 1.48088E-09-7.87036E-09
 -1       679-3.60187E+03-2.98365E+05-8.55642E+03 2.73795E+02 7.26232E-09-1.00971E-09
 -1       680 2.15053E+03-2.93748E+05-1.37900E+04-1.34898E+02 2.93767E-09 2.19290E-08
 -1       771-3.06241E+06-7.47515E+05-1.66111E+05-1.46615E+06-3.87081E-08-2.57569E-08
 -1       772-2.98525E+06-8.36426E+05-8.56428E+04-1.56895E+06-3.14612E-08 1.48575E-08
 -1       773-3.09393E+06-7.22933E+05-4.36574E+04-1.48072E+06-2.31666E-08 1.45083E-08
 -1       774-2.97572E+06-8.17871E+05-1.94780E+04-1.59474E+06 1.42609E-08-2.55386E-09
 -1       775-3.11040E+06-7.11380E+05-1.45693E+04-1.48778E+06-1.28057E-08 3.00497E-09
 -1       776-2.98808E+06-8.14828E+05-5.44845E+03-1.61426E+06-1.70548E-08 2.96495E-09
 -1       777-3.12469E+06-7.01067E+05-6.43716E+03-1.49401E+06-6.34464E-09 2.79397E-09
 -1       778-3.00100E+06-8.11998E+05-1.82007E+03-1.63103E+06 1.49012E-08-1.61162E-09
 -1       779-3.13698E+06-6.92055E+05-3.21686E+03-1.49934E+06 9.98261E-09-3.39423E-09
 -1       780-3.01237E+06-8.09299E+05-5.33567E+02-1.64470E+06-1.44064E-09 3.21961E-10
 -1       781-3.14675E+06-6.84790E+05-1.24988E+03-1.50350E+06-2.85800E-08-1.62436E-09
 -1       782-3.02113E+06-8.07007E+05 4.50141E+02-1.65478E+06-3.47791E-08-7.42421E-09
 -1       783-3.15362E+06-6.79742E+05 7.00578E+02-1.50642E+06-7.82165E-09-1.73472E-08
 -1       784-3.02599E+06-8.04718E+05 2.90516E+03-1.66100E+06-9.33142E-09 2.88310E-09
 -1       785-3.15769E+06-6.76730E+05 5.12846E+03-1.50827E+06-3.39023E-08 5.73527E-09
 -1       786 1.21603E+05-9.70171E+03 2.24458E+04-3.18680E+02-3.16192E-13 1.17743E-08
 -1       787 1.31338E+05 1.12324E+04 1.58795E+04-1.31077E+02 7.24769E-09 1.30040E-08
 -1       788 1.25356E+05-1.52028E+03 5.80716E+03-2.83640E+02 4.93486E-09 1.35537E-08
 -1       789 1.26965E+05 1.75967E+03 3.64547E+03-1.84813E+02 3.87647E-09 6.39488E-11
 -1       790 1.25976E+05-2.36698E+02 1.47585E+03-2.64961E+02-4.05509E-09-1.32697E-08
 -1       791 1.26241E+05 2.73813E+02 8.52154E+02-2.16775E+02-8.15010E-09 1.49637E-08
 -1       792 1.26081E+05-3.55331E+01 3.60576E+02-2.51680E+02-5.87005E-09 4.23275E-09
 -1       793 1.26115E+05 3.72685E+01 1.78593E+02-2.41711E+02-6.68079E-10-3.84303E-08
 -1       794 1.26102E+05-3.02343E-01 4.40729E+01-2.40026E+02 4.31164E-09-1.19947E-08
 -1       795 1.26077E+05-2.93073E+01-6.37370E+01-2.65927E+02-3.51040E-09 8.40004E-11
 -1       796 1.26119E+05 3.10054E+01-1.72585E+02-2.27463E+02 3.73793E-09 2.28576E-09
 -1       797 1.25978E+05-2.31414E+02-4.70688E+02-2.94650E+02 4.47296E-09 4.95296E-09
 -1       798 1.26202E+05 2.01653E+02-7.63539E+02-2.11304E+02 1.84372E-09 6.30331E-09
 -1       799 1.25399E+05-1.48656E+03-2.09986E+03-3.34549E+02 6.12379E-09 6.77434E-09
 -1       800 1.26698E+05 1.28512E+03-2.97151E+03-1.87564E+02 8.62581E-10 1.57518E-08
 -1       801-1.71306E+05-9.99797E+06-1.39350E+06 1.41536E+06 8.96398E-08-5.69271E-08
 -1       802 7.38302E+05 5.94990E+06 2.18162E+06-1.74727E+06 2.57336E-07-2.98805E-08
 -1       803-5.36602E+05-1.42656E+07-1.89032E+06 8.98305E+05 7.69760E-08 2.15077E-08
 -1       804 2.87149E+05 2.39405E+06 1.53704E+06 6.77042E+05-1.20141E-07-1.05397E-07
 -1       805 1.89347E+05-6.45623E+06-2.86261E+05-1.00329E+06-4.98621E-08-6.23850E-08
 -1       806-3.13285E+05-6.03691E+04-2.32784E+04-1.24128E+05-5.84851E-09-1.59262E-08
 -1       807-3.15160E+05-5.67659E+04-1.14628E+04-1.29752E+05-3.21779E-09 1.14965E-08
 -1       808-3.13973E+05-5.21758E+04-4.86391E+03-1.28028E+05 1.23496E-08-6.66660E-10
 -1       809-3.12739E+05-5.35887E+04-2.37944E+03-1.30013E+05 1.33577E-08-4.19561E-08
 -1       810-3.14072E+05-5.19007E+04-1.09121E+03-1.28197E+05 1.22018E-08-5.39421E-09
 -1       811-3.12554E+05-5.34634E+04-5.42795E+02-1.29975E+05 2.36482E-08 1.28202E-08
 -1       812-3.14086E+05-5.19264E+04-2.74867E+02-1.28196E+05 8.38736E-09 1.19826E-08
 -1       813-3.12528E+05-5.34656E+04-1.79225E+02-1.29956E+05 2.77623E-09 2.17613E-08
 -1       814-3.14079E+05-5.19363E+04-1.78541E+02-1.28192E+05 6.71298E-09 3.91083E-09
 -1       815-3.12532E+05-5.34677E+04-2.88510E+02-1.29949E+05-2.93630E-09 2.05714E-08
 -1       816-3.14057E+05-5.19351E+04-5.47427E+02-1.28188E+05 3.94721E-09 2.42612E-08
 -1       817-3.12624E+05-5.35182E+04-1.17453E+03-1.29937E+05-2.19006E-09-2.36560E-09
 -1       818-3.13985E+05-5.20917E+04-2.39465E+03-1.28113E+05-8.04903E-10 6.12908E-09
 -1       819-3.13936E+05-5.49467E+04-5.63326E+03-1.29641E+05 6.27006E-09 3.64100E-08
 -1       820-3.13513E+05-5.62384E+04-1.14395E+04-1.26329E+05 1.87083E-09 9.62677E-09
 -1       821-3.80455E+05 2.09005E+04-4.87023E+04 2.21886E+03 1.44133E-08-3.91083E-09
 -1       822-3.99987E+05-2.42149E+04-3.41880E+04-4.75728E+03 6.13066E-09-1.44200E-09
 -1       823-3.87838E+05 3.29751E+03-1.25750E+04 3.64885E+03-1.26733E-08 2.16551E-08
 -1       824-3.91040E+05-3.80149E+03-7.86517E+03-5.78514E+03 1.34276E-09 1.74564E-08
 -1       825-3.89411E+05 5.12956E+02-3.30047E+03 3.24686E+03 2.14774E-08 1.82274E-09
 -1       826-3.88489E+05-5.63926E+02-1.71950E+03-3.38435E+03 3.00111E-08 1.12166E-08
 -1       827-3.90361E+05 4.08939E+01-1.21666E+03 1.24790E+03 1.04235E-08 9.38272E-09
 -1       828-3.87698E+05-1.24215E+02-5.42415E+02 1.10368E+03 4.33261E-10-5.47736E-09
 -1       829-3.90187E+05 6.13583E+01-1.20350E+03-1.24121E+03 3.92083E-09 8.82750E-09
 -1       830-3.88865E+05-6.21820E+02-1.86509E+03 5.18248E+03 2.59431E-09 1.45419E-08
 -1       831-3.89220E+05 5.58542E+02-3.38288E+03-2.83091E+03-5.45924E-09-1.29419E-08
 -1       832-3.91121E+05-3.97386E+03-8.17632E+03 6.58016E+03-4.61615E-09-9.56709E-09
 -1       833-3.87949E+05 3.42487E+03-1.30949E+04-2.63895E+03-1.84895E-09 8.43102E-10
 -1       834-4.00031E+05-2.51540E+04-3.54417E+04 4.48266E+03-2.66689E-09 1.61576E-08
 -1       835-3.80290E+05 2.17034E+04-5.06268E+04-7.33317E+02 6.44852E-09 6.26096E-09
 -1       836-1.41268E+03 3.69808E+05 2.29008E+04-1.58655E+04-7.06223E-09 1.55055E-08
 -1       837 4.88343E+03 3.76980E+05 1.93875E+04-3.24277E+04-7.69626E-09 6.52653E-09
 -1       838-5.58149E+02 3.71817E+05 1.97661E+04-1.57940E+04-6.24141E-09-5.08498E-09
 -1       839 1.24463E+04 3.82612E+05 3.74042E+04-3.24816E+04-6.75027E-09-5.82361E-09
 -1       840-3.84688E+03 3.64115E+05 5.96516E+04-1.58174E+04-6.16274E-09-1.90118E-08
 -1       856-5.16964E+04 8.01830E+03-2.11299E+04-3.97315E+02 3.37138E-09 1.18325E-09
 -1       857-6.04015E+04-9.42125E+03-1.45456E+04 5.62628E+03 3.92595E-09-2.40191E-08
 -1       858-5.51438E+04 1.12449E+03-5.48269E+03-4.21241E+02 1.47872E-09-2.50930E-09
 -1       859-5.64452E+04-1.32294E+03-3.30853E+03 5.66185E+03-1.41827E-09 8.43420E-09
 -1       860-5.56588E+04 1.57484E+02-1.38655E+03-4.32611E+02-7.02272E-10-1.42011E-08
 -1       861-5.58527E+04-1.88024E+02-7.62652E+02 5.67732E+03-7.54255E-10-8.05393E-09
 -1       862-5.57394E+04 2.13280E+01-3.16788E+02-4.36696E+02-1.62707E-09 4.88288E-09
 -1       863-5.57539E+04-2.17959E+01-1.14862E+02 5.67969E+03-5.03634E-09 6.34879E-09
 -1       864-5.57581E+04-4.96587E+00 4.83684E+01-4.34973E+02-3.49972E-09-1.93099E-08
 -1       865-5.56979E+04 6.01545E+01 2.57723E+02 5.66987E+03-2.23054E-09-2.67647E-08
 -1       866-5.57932E+04-6.06297E+01 5.18773E+02-4.26878E+02-1.96479E-09-2.17816E-08
 -1       867-5.54541E+04 5.00701E+02 1.27650E+03 5.64790E+03-8.87212E-10-2.70416E-09
 -1       868-5.59970E+04-4.37527E+02 2.12109E+03-4.13007E+02-2.00640E-09-1.63254E-09
 -1       869-5.38993E+04 3.64150E+03 5.64757E+03 5.61177E+03 2.92437E-09-1.00226E-08
 -1       870-5.73403E+04-3.11608E+03 8.19595E+03-3.90639E+02-7.33326E-09-4.39832E-09
 -1       871-5.51714E+03-2.09920E+04-1.94859E+04 1.30545E+05-4.38558E-09-2.29738E-09
 -1       872-1.98060E+03-2.55237E+04-8.15528E+03 1.69270E+05-1.21336E-08 1.12850E-08
 -1       873 4.06413E+02-2.33328E+04 5.99194E+02 1.30257E+05-5.49744E-09 1.36222E-08
 -1       874 3.31217E+03-2.09180E+04 9.79919E+03 1.69300E+05-1.14123E-08-2.56750E-09
 -1       875 6.85808E+03-2.56665E+04 2.20985E+04 1.30496E+05-5.42968E-09-2.26892E-08
 -1       876 2.93932E+05 4.95100E+04 1.50866E+04 1.17921E+05 2.18847E-09-1.21481E-08
 -1       877 2.94935E+05 5.26812E+04 8.05684E+03 1.22242E+05 6.68138E-09 1.00341E-08
 -1       878 2.95342E+05 4.78389E+04 3.37543E+03 1.19157E+05-5.17230E-09-2.59183E-09
 -1       879 2.92884E+05 5.06344E+04 1.68186E+03 1.22343E+05 2.72212E-09 1.79346E-08
 -1       880 2.95444E+05 4.78216E+04 7.83415E+02 1.19207E+05 1.20826E-09 1.21987E-08
 -1       881 2.92748E+05 5.05469E+04 4.18423E+02 1.22320E+05-4.64104E-09 9.13906E-09
 -1       882 2.95453E+05 4.78348E+04 2.67807E+02 1.19209E+05-5.07043E-11 3.15325E-09
 -1       883 2.92739E+05 5.05423E+04 2.88099E+02 1.22312E+05-1.06752E-10 1.01033E-08
 -1       884 2.95446E+05 4.78320E+04 4.58479E+02 1.19209E+05 9.04561E-09-5.94639E-10
 -1       885 2.92775E+05 5.05487E+04 9.21909E+02 1.22323E+05 1.56234E-08-2.48247E-09
 -1       886 2.95410E+05 4.78051E+04 1.85812E+03 1.19205E+05 1.72444E-09 1.82276E-08
 -1       887 2.93102E+05 5.07628E+04 4.05884E+03 1.22371E+05 1.06571E-08-1.03842E-08
 -1       888 2.95154E+05 4.78503E+04 8.17868E+03 1.19076E+05 3.91461E-09-4.49609E-09
 -1       889 2.97970E+05 5.58265E+04 1.95373E+04 1.22221E+05-3.80396E-10-9.69521E-09
 -1       890 2.91816E+05 5.18156E+04 3.65930E+04 1.15963E+05-2.12640E-09-1.85701E-08
 -1       891-8.94293E+01-1.62829E+05-1.99815E+03 2.71314E+04-3.03567E-09-1.36629E-09
 -1       892-1.75470E+02-1.63357E+05-2.14558E+03 4.12009E+04 1.69484E-09 7.70956E-09
 -1       893 4.37987E+01-1.62893E+05-3.03740E+03 2.71388E+04-2.62617E-10-5.13637E-09
 -1       894-1.51058E+03-1.64504E+05-6.28593E+03 4.10485E+04 3.91992E-09 1.79607E-08
 -1       895-1.19964E+03-1.61584E+05-1.10693E+04 2.72857E+04-7.31688E-10-7.96535E-09
 -1       956-3.77449E+05-5.39326E+03-1.33155E+04 3.05971E+04 3.74257E-09-1.14142E-09
 -1       957-3.80061E+05-1.90210E+03-6.83469E+03 3.67713E+04-3.84853E-09-1.55346E-08
 -1       958-3.78645E+05-2.37822E+02-3.07990E+03 3.04316E+04-5.22232E-09-1.40203E-08
 -1       959-3.78839E+05-1.34350E+02-1.57271E+03 3.69642E+04 1.71940E-09 6.39284E-09
 -1       960-3.78762E+05-4.39653E+01-7.67004E+02 3.04146E+04 6.83667E-09 2.65118E-10
 -1       961-3.78759E+05-6.23045E+01-4.06871E+02 3.69844E+04 1.00006E-08-5.46220E-09
 -1       962-3.78789E+05-4.53788E+01-2.33316E+02 3.04118E+04 1.14869E-09-1.40085E-09
 -1       963-3.78759E+05-5.83346E+01-1.87977E+02 3.69879E+04-3.55192E-09 2.33119E-08
 -1       964-3.78794E+05-4.21631E+01-2.29427E+02 3.04110E+04-4.15834E-09 6.59452E-09
 -1       965-3.78771E+05-5.55047E+01-3.97502E+02 3.69872E+04-3.71892E-09 8.89509E-09
 -1       966-3.78777E+05-3.43850E+01-7.47285E+02 3.04126E+04 5.62522E-10-1.66858E-08
 -1       967-3.78861E+05-1.19182E+02-1.53286E+03 3.69728E+04-2.91698E-09-9.51786E-10
 -1       968-3.78673E+05-2.17148E+02-3.00088E+03 3.04252E+04 2.84126E-09 6.45497E-09
 -1       969-3.80064E+05-1.83680E+03-6.66192E+03 3.68246E+04 1.03037E-08 6.21372E-09
 -1       970-3.77515E+05-5.23836E+03-1.29778E+04 3.05521E+04 4.35648E-09 2.81334E-08
 -1       971-3.45533E+05-1.73009E+03-9.32360E+03 1.54020E+04 4.04270E-09 1.91040E-08
 -1       972-3.47777E+05-1.27372E+03-5.07753E+03 2.13008E+04 3.33694E-09 1.11249E-08
 -1       973-3.46572E+05-6.21852E+01-2.27428E+03 1.52807E+04 6.57928E-09 1.07209E-08
 -1       974-3.46707E+05-8.12541E+01-1.17890E+03 2.14382E+04 5.73436E-09 1.22581E-08
 -1       975-3.46654E+05-1.72235E+01-5.89738E+02 1.52683E+04 4.39559E-09 8.06801E-09
 -1       976-3.46646E+05-3.13179E+01-3.41042E+02 2.14540E+04 4.51087E-09-1.30269E-08
 -1       977-3.46670E+05-1.64626E+01-2.48970E+02 1.52649E+04 8.75616E-10-1.99229E-08
 -1       978-3.46651E+05-2.50715E+01-2.93317E+02 2.14589E+04-1.13381E-08 1.30644E-08
 -1       979-3.46670E+05-7.96941E+00-4.72963E+02 1.52634E+04-5.94650E-09 2.53292E-08
 -1       980-3.46686E+05-2.19995E+01-9.14294E+02 2.14599E+04-2.08342E-09 2.34173E-08
 -1       981-3.46641E+05 1.48876E+01-1.77133E+03 1.52640E+04 7.53607E-09-1.29048E-08
 -1       982-3.46930E+05-1.52881E+02-3.66162E+03 2.14532E+04 8.08279E-09 6.91912E-10
 -1       983-3.46418E+05-9.85390E+01-7.11472E+03 1.52700E+04 9.07221E-10-9.79753E-10
 -1       984-3.50351E+05-3.86870E+03-1.59332E+04 2.13675E+04-2.23349E-09 1.50410E-08
 -1       985-3.43197E+05-5.30466E+03-2.92583E+04 1.53415E+04-7.61429E-09-3.12866E-10
 -3
    1PSTEP                        29          15           1          
  100CL  115 6.62985E-01         409                     0   15           1
 -4  DISP        4    1
 -5  D1          1    2    1    0
 -5  D2          1    2    2    0
 -5  D3          1    2    3    0
 -5  ALL         1    2    0    0    1ALL
 -1         1 2.72525E-03 0.00000E+00 0.00000E+00
 -1         2 1.33466E-03 3.88447E-28-5.29396E-23
 -1         3 3.42763E-04-5.14648E-28 0.00000E+00
 -1         5 1.77149E-04-1.86931E-27 8.27181E-25
 -1         8 2.71450E-03-4.02394E-07 0.00000E+00
 -1         9 2.70778E-03-1.98144E-04 0.00000E+00
 -1        10 3.10802E-04-3.39719E-06 0.00000E+00
 -1        12 1.78995E-04 8.09444E-07-4.13590E-25
 -1        15 2.70223E-03-4.25622E-07-1.03398E-25
 -1        16 2.77684E-03-2.00007E-04 0.00000E+00
 -1        17 2.11516E-04-7.74939E-06 0.00000E+00
 -1        18 1.82940E-04 3.44334E-05 0.00000E+00
 -1        19 1.84534E-04 1.61247E-06 0.00000E+00
 -1        20 1.84673E-04-9.85421E-06 0.00000E+00
 -1        21 1.83778E-04-2.53790E-05 0.00000E+00
 -1        24 3.06095E-05-1.19729E-05 0.00000E+00
 -1        25 1.93742E-04 3.46592E-05 0.00000E+00
 -1        26 1.94410E-04 2.23188E-06 0.00000E+00
 -1        27 1.92195E-04-1.34105E-05 0.00000E+00
 -1        28 1.91882E-04-2.60011E-05 0.00000E+00
 -1        32 0.00000E+00 0.00000E+00 0.00000E+00
 -1        33 2.03263E-04 2.98478E-06 0.00000E+00
 -1        34 2.01144E-04-1.34659E-05 0.00000E+00
 -1        35 1.99210E-04-2.63437E-05 0.00000E+00
 -1        51 2.72453E-03-8.45767E-08 4.96308E-24
 -1        52 2.72321E-03-1.50701E-07 0.00000E+00
 -1        53 2.72141E-03-2.13330E-07 0.00000E+00
 -1        54 2.71928E-03-2.74697E-07-1.65436E-24
 -1        55 2.71693E-03-3.36566E-07-2.48154E-24
 -1        56 2.71726E-03 9.21752E-06 5.29396E-23
 -1        57 2.70133E-03 3.79729E-05 5.29396E-23
 -1        58 2.67985E-03 8.01466E-05-1.05879E-22
 -1        59 2.65577E-03 1.28344E-04 0.00000E+00
 -1        60 2.63271E-03 1.74139E-04 0.00000E+00
 -1        61 2.61414E-03 2.09295E-04 0.00000E+00
 -1        62 2.60243E-03 2.27480E-04 1.05879E-22
 -1        63 2.59911E-03 2.23869E-04 5.29396E-23
 -1        64 2.60393E-03 1.97646E-04-1.05879E-22
 -1        65 2.61594E-03 1.50141E-04 0.00000E+00
 -1        66 2.63301E-03 8.67424E-05 1.05879E-22
 -1        67 2.65282E-03 1.44064E-05 0.00000E+00
 -1        68 2.67270E-03-5.81664E-05 0.00000E+00
 -1        69 2.69002E-03-1.22246E-04-5.29396E-23
 -1        70 2.70238E-03-1.70760E-04 0.00000E+00
 -1        86 1.42102E-03-6.24485E-06-5.29396E-23
 -1        87 1.67070E-03-3.93369E-05 0.00000E+00
 -1        88 2.00645E-03-9.62537E-05 0.00000E+00
 -1        89 2.34680E-03-1.54770E-04 1.32349E-23
 -1        90 2.60761E-03-1.90585E-04 0.00000E+00
 -1       121 3.41865E-04-5.48456E-07 0.00000E+00
 -1       122 3.39177E-04-1.10000E-06 0.00000E+00
 -1       123 3.34706E-04-1.65768E-06 1.32349E-23
 -1       124 3.28470E-04-2.22452E-06-6.61744E-24
 -1       125 3.20492E-04-2.80319E-06 0.00000E+00
 -1       191 1.77200E-04 1.34971E-07-8.27181E-25
 -1       192 1.77354E-04 2.69931E-07 0.00000E+00
 -1       193 1.77611E-04 4.04870E-07 2.48154E-24
 -1       194 1.77969E-04 5.39778E-07-8.27181E-25
 -1       195 1.78431E-04 6.74640E-07-3.30872E-24
 -1       251 2.71420E-03 1.61674E-06 6.61744E-24
 -1       252 2.71390E-03 3.49073E-06-3.30872E-24
 -1       253 2.71360E-03 4.22026E-06 6.61744E-24
 -1       254 2.71329E-03 2.82019E-06-3.30872E-24
 -1       255 2.71298E-03-1.37325E-06 0.00000E+00
 -1       256 2.71265E-03-8.98905E-06 0.00000E+00
 -1       257 2.71228E-03-2.01401E-05 0.00000E+00
 -1       258 2.71187E-03-3.48951E-05 0.00000E+00
 -1       259 2.71142E-03-5.27799E-05 0.00000E+00
 -1       260 2.71091E-03-7.32810E-05 0.00000E+00
 -1       261 2.71037E-03-9.54901E-05 0.00000E+00
 -1       262 2.70981E-03-1.18478E-04 0.00000E+00
 -1       263 2.70926E-03-1.41199E-04 0.00000E+00
 -1       264 2.70873E-03-1.62609E-04 0.00000E+00
 -1       265 2.70824E-03-1.81864E-04 1.32349E-23
 -1       266 2.71246E-03-4.11852E-07-1.65436E-24
 -1       267 2.71041E-03-4.15043E-07 4.13590E-25
 -1       268 2.70837E-03-4.18630E-07 0.00000E+00
 -1       269 2.70632E-03-4.21041E-07 0.00000E+00
 -1       270 2.70428E-03-4.23425E-07 0.00000E+00
 -1       271 2.71368E-03 2.25767E-08-1.32349E-23
 -1       272 2.71385E-03-2.24782E-06-6.61744E-24
 -1       273 2.71496E-03-7.05214E-06 0.00000E+00
 -1       274 2.71694E-03-1.42163E-05 0.00000E+00
 -1       275 2.71971E-03-2.35451E-05 0.00000E+00
 -1       276 2.72319E-03-3.48278E-05 0.00000E+00
 -1       277 2.72729E-03-4.78374E-05 2.64698E-23
 -1       278 2.73193E-03-6.23333E-05 0.00000E+00
 -1       279 2.73702E-03-7.80635E-05 0.00000E+00
 -1       280 2.74245E-03-9.47657E-05 0.00000E+00
 -1       281 2.74813E-03-1.12170E-04 0.00000E+00
 -1       282 2.75397E-03-1.30001E-04 0.00000E+00
 -1       283 2.75985E-03-1.47980E-04-1.32349E-23
 -1       284 2.76569E-03-1.65826E-04 0.00000E+00
 -1       285 2.77139E-03-1.83260E-04 0.00000E+00
 -1       301 2.72033E-03-1.98490E-04-6.61744E-24
 -1       302 2.73122E-03-1.98788E-04-3.30872E-24
 -1       303 2.74137E-03-1.99076E-04 0.00000E+00
 -1       304 2.75173E-03-1.99364E-04 6.61744E-24
 -1       305 2.76324E-03-1.99666E-04 0.00000E+00
 -1       306 2.74586E-03-3.53565E-04 0.00000E+00
 -1       307 2.80971E-03-7.68524E-04 0.00000E+00
 -1       308 2.85628E-03-1.37447E-03 1.05879E-22
 -1       309 2.88010E-03-2.07513E-03 0.00000E+00
 -1       310 2.91154E-03-2.74461E-03 0.00000E+00
 -1       311 2.97114E-03-3.25980E-03-5.29396E-23
 -1       312 3.02879E-03-3.54016E-03-2.11758E-22
 -1       313 3.02333E-03-3.54818E-03 5.29396E-23
 -1       314 2.88082E-03-3.29624E-03 0.00000E+00
 -1       315 2.56054E-03-2.84915E-03 5.29396E-23
 -1       316 2.08121E-03-2.28364E-03 0.00000E+00
 -1       317 1.50915E-03-1.66896E-03 5.29396E-23
 -1       318 9.58965E-04-1.06557E-03-1.05879E-22
 -1       319 5.38763E-04-5.38388E-04 0.00000E+00
 -1       320 2.92261E-04-1.61624E-04 0.00000E+00
 -1       336 2.99212E-04-4.05399E-06-1.32349E-23
 -1       337 2.85547E-04-4.73649E-06-6.61744E-24
 -1       338 2.69866E-04-5.44691E-06-1.32349E-23
 -1       339 2.52245E-04-6.18608E-06 0.00000E+00
 -1       340 2.32764E-04-6.95848E-06-1.32349E-23
 -1       406 1.79662E-04 9.44171E-07 2.48154E-24
 -1       407 1.80431E-04 1.07878E-06 0.00000E+00
 -1       408 1.81303E-04 1.21323E-06-2.06795E-24
 -1       409 1.82278E-04 1.34734E-06-6.20385E-25
 -1       410 1.83355E-04 1.48084E-06 2.89513E-24
 -1       521 2.81550E-03-3.64731E-04 1.05879E-22
 -1       522 2.87755E-03-8.00177E-04 0.00000E+00
 -1       523 2.91756E-03-1.43433E-03-1.05879E-22
 -1       524 2.93199E-03-2.16410E-03-5.29396E-23
 -1       525 2.95539E-03-2.86067E-03 0.00000E+00
 -1       526 3.01141E-03-3.39824E-03-5.29396E-23
 -1       527 3.06865E-03-3.68931E-03-2.11758E-22
 -1       528 3.06084E-03-3.69545E-03 0.00000E+00
 -1       529 2.90604E-03-3.42907E-03 2.11758E-22
 -1       530 2.56124E-03-2.96309E-03 0.00000E+00
 -1       531 2.04604E-03-2.37809E-03 0.00000E+00
 -1       532 1.43329E-03-1.74592E-03 0.00000E+00
 -1       533 8.43142E-04-1.12436E-03 0.00000E+00
 -1       534 3.89009E-04-5.75989E-04 0.00000E+00
 -1       535 1.20957E-04-1.79410E-04 2.11758E-22
 -1       536 2.10761E-04 2.71847E-05-6.61744E-24
 -1       537 2.08842E-04 8.76430E-05 1.65436E-24
 -1       538 2.05876E-04 1.64356E-04-3.30872E-24
 -1       539 2.02378E-04 2.47970E-04 0.00000E+00
 -1       540 1.99230E-04 3.26979E-04 0.00000E+00
 -1       541 1.97184E-04 3.89898E-04-1.65436E-24
 -1       542 1.96240E-04 4.29974E-04-3.30872E-24
 -1       543 1.96015E-04 4.40600E-04 1.65436E-24
 -1       544 1.95693E-04 4.22549E-04 0.00000E+00
 -1       545 1.94520E-04 3.76816E-04 0.00000E+00
 -1       546 1.92333E-04 3.11531E-04-3.30872E-24
 -1       547 1.89373E-04 2.34942E-04 0.00000E+00
 -1       548 1.86441E-04 1.58729E-04 3.30872E-24
 -1       549 1.84325E-04 9.45728E-05 0.00000E+00
 -1       550 1.83226E-04 5.05051E-05 0.00000E+00
 -1       551 1.86309E-04-8.31845E-06 0.00000E+00
 -1       552 1.57856E-04-8.96801E-06 0.00000E+00
 -1       553 1.27101E-04-9.67984E-06 3.30872E-24
 -1       554 9.50022E-05-1.04328E-05 3.30872E-24
 -1       555 6.25202E-05-1.11996E-05 1.32349E-23
 -1       556 2.03866E-04 1.18119E-05 0.00000E+00
 -1       557 1.97685E-04 2.76767E-05-2.64698E-23
 -1       558 1.92839E-04 4.01329E-05-5.29396E-23
 -1       559 1.89195E-04 4.94911E-05 0.00000E+00
 -1       560 1.86623E-04 5.60621E-05 0.00000E+00
 -1       561 1.84996E-04 6.01593E-05 0.00000E+00
 -1       562 1.84187E-04 6.20974E-05 0.00000E+00
 -1       563 1.84074E-04 6.21919E-05 0.00000E+00
 -1       564 1.84533E-04 6.07595E-05 0.00000E+00
 -1       565 1.85444E-04 5.81171E-05 0.00000E+00
 -1       566 1.86687E-04 5.45825E-05 0.00000E+00
 -1       567 1.88144E-04 5.04739E-05-3.30872E-24
 -1       568 1.89695E-04 4.61094E-05-1.65436E-24
 -1       569 1.91224E-04 4.18074E-05 0.00000E+00
 -1       570 1.92611E-04 3.78861E-05 0.00000E+00
 -1       571 1.83036E-04 3.23026E-05-2.48154E-24
 -1       572 1.83135E-04 3.01063E-05 8.27181E-25
 -1       573 1.83234E-04 2.78600E-05-1.65436E-24
 -1       574 1.83334E-04 2.55803E-05-8.27181E-25
 -1       575 1.83433E-04 2.32835E-05 3.30872E-24
 -1       576 1.83533E-04 2.09862E-05-1.65436E-24
 -1       577 1.83632E-04 1.87048E-05 3.30872E-24
 -1       578 1.83732E-04 1.64559E-05 0.00000E+00
 -1       579 1.83832E-04 1.42560E-05 0.00000E+00
 -1       580 1.83932E-04 1.21216E-05 6.61744E-24
 -1       581 1.84032E-04 1.00693E-05 0.00000E+00
 -1       582 1.84132E-04 8.11553E-06-3.30872E-24
 -1       583 1.84232E-04 6.27685E-06 0.00000E+00
 -1       584 1.84333E-04 4.56957E-06-3.30872E-24
 -1       585 1.84434E-04 3.00985E-06 0.00000E+00
 -1       586 1.84698E-04 3.44732E-05 0.00000E+00
 -1       587 1.86416E-04 3.45124E-05-8.27181E-25
 -1       588 1.88136E-04 3.45512E-05-8.27181E-25
 -1       589 1.89901E-04 3.45894E-05 0.00000E+00
 -1       590 1.91756E-04 3.46263E-05 0.00000E+00
 -1       591 1.83670E-04 3.23965E-05-1.03398E-25
 -1       592 1.84403E-04 3.03400E-05-2.06795E-25
 -1       593 1.85141E-04 2.82698E-05-8.27181E-25
 -1       594 1.85882E-04 2.61904E-05-4.13590E-25
 -1       595 1.86625E-04 2.41068E-05 0.00000E+00
 -1       596 1.87367E-04 2.20234E-05 0.00000E+00
 -1       597 1.88108E-04 1.99450E-05 8.27181E-25
 -1       598 1.88845E-04 1.78763E-05-4.13590E-25
 -1       599 1.89576E-04 1.58218E-05 0.00000E+00
 -1       600 1.90301E-04 1.37862E-05-4.13590E-25
 -1       601 1.91017E-04 1.17742E-05 8.27181E-25
 -1       602 1.91722E-04 9.79039E-06-4.13590E-25
 -1       603 1.92415E-04 7.83945E-06 4.13590E-25
 -1       604 1.93095E-04 5.92614E-06 7.75482E-26
 -1       605 1.93759E-04 4.05501E-06 0.00000E+00
 -1       606 1.84547E-04 4.48677E-07 0.00000E+00
 -1       607 1.84557E-04-6.29194E-07 0.00000E+00
 -1       608 1.84566E-04-1.62618E-06 0.00000E+00
 -1       609 1.84574E-04-2.54797E-06 0.00000E+00
 -1       610 1.84583E-04-3.40032E-06 0.00000E+00
 -1       611 1.84591E-04-4.18901E-06 0.00000E+00
 -1       612 1.84599E-04-4.91985E-06 0.00000E+00
 -1       613 1.84607E-04-5.59867E-06 0.00000E+00
 -1       614 1.84616E-04-6.23128E-06 0.00000E+00
 -1       615 1.84624E-04-6.82349E-06 0.00000E+00
 -1       616 1.84632E-04-7.38112E-06 0.00000E+00
 -1       617 1.84641E-04-7.91000E-06 4.13590E-25
 -1       618 1.84649E-04-8.41592E-06 0.00000E+00
 -1       619 1.84658E-04-8.90473E-06 0.00000E+00
 -1       620 1.84666E-04-9.38222E-06 0.00000E+00
 -1       621 1.85893E-04 1.71628E-06 0.00000E+00
 -1       622 1.87411E-04 1.82033E-06-8.27181E-25
 -1       623 1.89056E-04 1.92416E-06-1.65436E-24
 -1       624 1.90793E-04 2.02766E-06 8.27181E-25
 -1       625 1.92589E-04 2.13087E-06 0.00000E+00
 -1       626 1.85083E-04 4.84943E-07 0.00000E+00
 -1       627 1.85608E-04-5.79357E-07 0.00000E+00
 -1       628 1.86114E-04-1.58831E-06 0.00000E+00
 -1       629 1.86601E-04-2.55010E-06 0.00000E+00
 -1       630 1.87075E-04-3.47296E-06-3.30872E-24
 -1       631 1.87536E-04-4.36511E-06-1.65436E-24
 -1       632 1.87990E-04-5.23479E-06-3.30872E-24
 -1       633 1.88438E-04-6.09024E-06 0.00000E+00
 -1       634 1.88884E-04-6.93971E-06-3.30872E-24
 -1       635 1.89330E-04-7.79141E-06 0.00000E+00
 -1       636 1.89781E-04-8.65359E-06 3.30872E-24
 -1       637 1.90238E-04-9.53451E-06 0.00000E+00
 -1       638 1.90706E-04-1.04424E-05 1.65436E-24
 -1       639 1.91186E-04-1.13855E-05 0.00000E+00
 -1       640 1.91682E-04-1.23721E-05 1.65436E-24
 -1       656 1.85378E-04-1.04322E-05 0.00000E+00
 -1       657 1.86503E-04-1.10337E-05 0.00000E+00
 -1       658 1.87908E-04-1.16338E-05 0.00000E+00
 -1       659 1.89448E-04-1.22336E-05 0.00000E+00
 -1       660 1.90938E-04-1.28352E-05 6.61744E-24
 -1       661 1.84937E-04-1.03716E-05 8.27181E-25
 -1       662 1.85238E-04-1.09811E-05-8.27181E-25
 -1       663 1.85572E-04-1.16776E-05 0.00000E+00
 -1       664 1.85937E-04-1.24545E-05 0.00000E+00
 -1       665 1.86329E-04-1.33060E-05 0.00000E+00
 -1       666 1.86747E-04-1.42260E-05-8.27181E-25
 -1       667 1.87189E-04-1.52089E-05 1.65436E-24
 -1       668 1.87652E-04-1.62491E-05 8.27181E-25
 -1       669 1.88134E-04-1.73411E-05 1.65436E-24
 -1       670 1.88634E-04-1.84795E-05 0.00000E+00
 -1       671 1.89149E-04-1.96592E-05 0.00000E+00
 -1       672 1.89678E-04-2.08750E-05 8.27181E-25
 -1       673 1.90218E-04-2.21218E-05 0.00000E+00
 -1       674 1.90766E-04-2.33949E-05 0.00000E+00
 -1       675 1.91324E-04-2.46890E-05 2.06795E-25
 -1       676 1.85134E-04-2.54833E-05 0.00000E+00
 -1       677 1.86488E-04-2.55875E-05 0.00000E+00
 -1       678 1.87841E-04-2.56917E-05 0.00000E+00
 -1       679 1.89191E-04-2.57956E-05 0.00000E+00
 -1       680 1.90539E-04-2.58995E-05 0.00000E+00
 -1       771 1.86521E-05 1.47682E-05 0.00000E+00
 -1       772 8.59261E-06 3.67307E-05 0.00000E+00
 -1       773 3.40130E-07 5.41448E-05-5.29396E-23
 -1       774-6.22970E-06 6.72688E-05-2.64698E-23
 -1       775-1.12386E-05 7.63710E-05-5.29396E-23
 -1       776-1.48132E-05 8.17368E-05 2.64698E-23
 -1       777-1.70800E-05 8.36614E-05 0.00000E+00
 -1       778-1.81679E-05 8.24542E-05 0.00000E+00
 -1       779-1.82053E-05 7.84329E-05 5.29396E-23
 -1       780-1.73226E-05 7.19267E-05-2.64698E-23
 -1       781-1.56491E-05 6.32715E-05 0.00000E+00
 -1       782-1.33161E-05 5.28122E-05 2.64698E-23
 -1       783-1.04535E-05 4.08983E-05-5.29396E-23
 -1       784-7.19279E-06 2.78854E-05 0.00000E+00
 -1       785-3.66423E-06 1.41322E-05-5.29396E-23
 -1       786 1.93779E-04 3.24018E-05 0.00000E+00
 -1       787 1.93820E-04 3.01952E-05 4.13590E-25
 -1       788 1.93861E-04 2.80310E-05 8.27181E-25
 -1       789 1.93903E-04 2.59010E-05 4.13590E-25
 -1       790 1.93944E-04 2.38003E-05 1.65436E-24
 -1       791 1.93986E-04 2.17241E-05 0.00000E+00
 -1       792 1.94028E-04 1.96703E-05 0.00000E+00
 -1       793 1.94071E-04 1.76365E-05 0.00000E+00
 -1       794 1.94113E-04 1.56224E-05 1.65436E-24
 -1       795 1.94155E-04 1.36279E-05 8.27181E-25
 -1       796 1.94197E-04 1.16548E-05-1.65436E-24
 -1       797 1.94239E-04 9.70477E-06 0.00000E+00
 -1       798 1.94282E-04 7.78202E-06 1.65436E-24
 -1       799 1.94324E-04 5.89073E-06 0.00000E+00
 -1       800 1.94367E-04 4.03820E-06-1.65436E-24
 -1       801 1.47940E-04 3.11589E-05 2.64698E-23
 -1       802 9.44791E-06 1.94387E-05 0.00000E+00
 -1       803-1.08848E-04 9.81828E-06 5.29396E-23
 -1       804-9.64888E-05 6.83409E-06 2.64698E-23
 -1       805-3.18812E-05 2.68540E-06-5.29396E-23
 -1       806 1.94471E-04 3.23319E-05 3.30872E-24
 -1       807 1.95187E-04 3.00307E-05 1.65436E-24
 -1       808 1.95890E-04 2.77609E-05-3.30872E-24
 -1       809 1.96580E-04 2.55268E-05 0.00000E+00
 -1       810 1.97254E-04 2.33325E-05 0.00000E+00
 -1       811 1.97912E-04 2.11822E-05-1.65436E-24
 -1       812 1.98552E-04 1.90798E-05-3.30872E-24
 -1       813 1.99173E-04 1.70295E-05-1.65436E-24
 -1       814 1.99773E-04 1.50353E-05-3.30872E-24
 -1       815 2.00350E-04 1.31012E-05 1.65436E-24
 -1       816 2.00904E-04 1.12313E-05-3.30872E-24
 -1       817 2.01432E-04 9.42955E-06 0.00000E+00
 -1       818 2.01933E-04 7.70005E-06 1.65436E-24
 -1       819 2.02406E-04 6.04679E-06 1.65436E-24
 -1       820 2.02849E-04 4.47372E-06 1.65436E-24
 -1       821 1.94280E-04-1.75094E-07 0.00000E+00
 -1       822 1.94139E-04-3.82383E-06-1.65436E-24
 -1       823 1.93995E-04-8.26009E-06 0.00000E+00
 -1       824 1.93849E-04-1.30247E-05-1.65436E-24
 -1       825 1.93703E-04-1.75695E-05 3.30872E-24
 -1       826 1.93560E-04-2.13474E-05-1.65436E-24
 -1       827 1.93420E-04-2.40210E-05 0.00000E+00
 -1       828 1.93283E-04-2.52597E-05-1.65436E-24
 -1       829 1.93147E-04-2.51247E-05 0.00000E+00
 -1       830 1.93010E-04-2.36856E-05 0.00000E+00
 -1       831 1.92872E-04-2.13681E-05 0.00000E+00
 -1       832 1.92732E-04-1.86035E-05 0.00000E+00
 -1       833 1.92593E-04-1.59451E-05-3.30872E-24
 -1       834 1.92457E-04-1.39456E-05 1.65436E-24
 -1       835 1.92322E-04-1.29785E-05-8.27181E-25
 -1       836 1.96101E-04 2.35673E-06 0.00000E+00
 -1       837 1.97665E-04 2.48473E-06 0.00000E+00
 -1       838 1.99132E-04 2.61267E-06 0.00000E+00
 -1       839 2.00533E-04 2.73991E-06 0.00000E+00
 -1       840 2.01900E-04 2.86699E-06 8.27181E-25
 -1       856 1.92179E-04-1.44717E-05 0.00000E+00
 -1       857 1.92160E-04-1.53974E-05 0.00000E+00
 -1       858 1.92141E-04-1.62086E-05-2.06795E-25
 -1       859 1.92121E-04-1.69265E-05 2.06795E-25
 -1       860 1.92102E-04-1.75724E-05 0.00000E+00
 -1       861 1.92082E-04-1.81673E-05 0.00000E+00
 -1       862 1.92063E-04-1.87327E-05 0.00000E+00
 -1       863 1.92043E-04-1.92899E-05 0.00000E+00
 -1       864 1.92023E-04-1.98600E-05 0.00000E+00
 -1       865 1.92004E-04-2.04646E-05-4.13590E-25
 -1       866 1.91984E-04-2.11247E-05 0.00000E+00
 -1       867 1.91964E-04-2.18618E-05 0.00000E+00
 -1       868 1.91944E-04-2.26968E-05-8.27181E-25
 -1       869 1.91924E-04-2.36511E-05-4.13590E-25
 -1       870 1.91904E-04-2.47455E-05-8.27181E-25
 -1       871 1.93544E-04-1.34153E-05 8.27181E-25
 -1       872 1.95041E-04-1.34235E-05 0.00000E+00
 -1       873 1.96618E-04-1.34324E-05 4.13590E-25
 -1       874 1.98206E-04-1.34420E-05-1.03398E-25
 -1       875 1.99737E-04-1.34523E-05-4.13590E-25
 -1       876 1.92720E-04-1.44571E-05-3.30872E-24
 -1       877 1.93223E-04-1.54371E-05 0.00000E+00
 -1       878 1.93705E-04-1.63585E-05 0.00000E+00
 -1       879 1.94167E-04-1.72286E-05-1.65436E-24
 -1       880 1.94613E-04-1.80547E-05 3.30872E-24
 -1       881 1.95046E-04-1.88443E-05 1.65436E-24
 -1       882 1.95467E-04-1.96047E-05 3.30872E-24
 -1       883 1.95881E-04-2.03432E-05 0.00000E+00
 -1       884 1.96289E-04-2.10671E-05 0.00000E+00
 -1       885 1.96694E-04-2.17838E-05 1.65436E-24
 -1       886 1.97099E-04-2.25005E-05-3.30872E-24
 -1       887 1.97507E-04-2.32245E-05-1.65436E-24
 -1       888 1.97920E-04-2.39633E-05 0.00000E+00
 -1       889 1.98341E-04-2.47242E-05 0.00000E+00
 -1       890 1.98772E-04-2.55146E-05 0.00000E+00
 -1       891 1.93245E-04-2.60587E-05 0.00000E+00
 -1       892 1.94586E-04-2.61164E-05 8.27181E-25
 -1       893 1.95877E-04-2.61740E-05 8.27181E-25
 -1       894 1.97095E-04-2.62313E-05-4.13590E-25
 -1       895 1.98215E-04-2.62884E-05-4.13590E-25
 -1       956 2.03132E-04 1.67123E-06 1.65436E-24
 -1       957 2.03000E-04 4.47911E-07 8.27181E-25
 -1       958 2.02867E-04-6.95813E-07 3.30872E-24
 -1       959 2.02734E-04-1.77119E-06 1.65436E-24
 -1       960 2.02601E-04-2.78950E-06 0.00000E+00
 -1       961 2.02469E-04-3.76206E-06 1.65436E-24
 -1       962 2.02336E-04-4.70021E-06-3.30872E-24
 -1       963 2.02203E-04-5.61529E-06 1.65436E-24
 -1       964 2.02070E-04-6.51866E-06-3.30872E-24
 -1       965 2.01937E-04-7.42164E-06-1.65436E-24
 -1       966 2.01804E-04-8.33560E-06 0.00000E+00
 -1       967 2.01672E-04-9.27187E-06-1.65436E-24
 -1       968 2.01539E-04-1.02418E-05 0.00000E+00
 -1       969 2.01406E-04-1.12567E-05 3.30872E-24
 -1       970 2.01274E-04-1.23278E-05 0.00000E+00
 -1       971 2.01024E-04-1.46032E-05 0.00000E+00
 -1       972 2.00902E-04-1.56458E-05-1.65436E-24
 -1       973 2.00781E-04-1.66040E-05 3.30872E-24
 -1       974 2.00659E-04-1.74888E-05 0.00000E+00
 -1       975 2.00538E-04-1.83110E-05 0.00000E+00
 -1       976 2.00416E-04-1.90815E-05-1.65436E-24
 -1       977 2.00295E-04-1.98112E-05 3.30872E-24
 -1       978 2.00173E-04-2.05110E-05 0.00000E+00
 -1       979 2.00052E-04-2.11918E-05 0.00000E+00
 -1       980 1.99931E-04-2.18646E-05 0.00000E+00
 -1       981 1.99809E-04-2.25403E-05 3.30872E-24
 -1       982 1.99688E-04-2.32297E-05 0.00000E+00
 -1       983 1.99567E-04-2.39439E-05-3.30872E-24
 -1       984 1.99446E-04-2.46938E-05 0.00000E+00
 -1       985 1.99326E-04-2.54901E-05 0.00000E+00
 -3
    1PSTEP                        30          15           1          
  100CL  115 6.62985E-01         409                     0   15           1
 -4  STRESS      6    1
 -5  SXX         1    4    1    1
 -5  SYY         1    4    2    2
 -5  SZZ         1    4    3    3
 -5  SXY         1    4    1    2
 -5  SYZ         1    4    2    3
 -5  SZX         1    4    3    1
 -1         1-5.34617E+06-1.57921E+06-1.13300E+06-1.33549E+06-1.90630E-09 4.94474E-08
 -1         2 1.51284E+06 2.21677E+07 5.15612E+06 6.70735E+06 3.23926E-08-7.81438E-09
 -1         3-1.48851E+03-1.55723E+06 4.05626E+02-2.21057E+03-4.74039E-10-1.12996E-08
 -1         5-7.52344E+01 3.86502E+05 9.98043E+00-1.34280E+00-2.42007E-10-2.94185E-08
 -1         8-5.54264E+05-2.00647E+05-6.27681E+04-2.43312E+05 1.69166E-10-5.73309E-08
 -1         9 1.17974E+07 3.89028E+06 2.80615E+06-3.15646E+05-1.68220E-08-1.21305E-07
 -1        10-2.30461E+03-1.62275E+06-3.94376E+03-1.49582E+04-1.39444E-08-5.28726E-08
 -1        12-7.13166E+01 3.86523E+05 3.28081E+02-9.15258E+00-6.67196E-10-5.35238E-09
 -1        15 9.25847E+02 5.08798E+02 2.99278E+03 8.18666E-01-3.03544E-11 2.29085E-07
 -1        16 2.29228E+07-3.33216E+05 3.11950E+06-2.29110E+06 1.62399E-08 3.34190E-07
 -1        17 8.39309E+06 6.28964E+06 2.26720E+06 6.01675E+06 2.31899E-08 2.49129E-08
 -1        18 1.42531E+05 3.35594E+04 4.17856E+03-1.19627E+05 1.55808E-08 3.73348E-10
 -1        19 1.22476E+05 1.41650E+05-9.59396E+02 2.20654E+04 1.71713E-09-8.56635E-09
 -1        20-8.20362E+04-5.73366E+05-1.28667E+05 2.50791E+04-1.48718E-09 8.38372E-09
 -1        21-4.55661E+01-2.96021E+05-9.23767E+02 2.75173E+02 1.33351E-08-4.60804E-09
 -1        24 1.40721E+07 1.21172E+07 3.89509E+06 1.12190E+07-1.64699E-07-5.05437E-08
 -1        25 1.23854E+05 2.67784E+05 9.99344E+04-6.46538E+05 1.70030E-09-2.27374E-11
 -1        26-5.61185E+04 9.20017E+04-2.47779E+04 1.45126E+03-2.34650E-10 1.69562E-08
 -1        27-7.56015E+04-3.09737E+05-1.13328E+05 6.90566E+04 3.62646E-09-9.12193E-09
 -1        28 2.22405E+04-8.53775E+04 1.69003E+04 2.05681E+04-4.54574E-09-8.00880E-09
 -1        32-1.68048E+06-3.18151E+06-1.97549E+05 4.58533E+05-4.30009E-08-1.34812E-08
 -1        33-1.79978E+05 9.24673E+04 3.22888E+04-3.89114E+04-3.59629E-09-8.10724E-09
 -1        34-2.23683E+05-2.49383E+04 6.91710E+02 7.56048E+04-4.53092E-09-8.17196E-09
 -1        35-2.29248E+04-3.38670E+04-1.34898E+03 5.15024E+04-4.05284E-09-5.04103E-09
 -1        51 6.08239E+04-1.71013E+05 1.28593E+05-4.35601E+05-8.73115E-11-2.18417E-07
 -1        52 2.05689E+04-1.48519E+05 6.74221E+04-5.08044E+05 2.54659E-10-2.63230E-07
 -1        53 4.16376E+03-1.63876E+05 3.50222E+04-4.34107E+05 2.98314E-10-1.31040E-08
 -1        54 7.29300E+03-1.59661E+05 2.86021E+04-5.09505E+05-5.45697E-10 3.66636E-08
 -1        55 1.59010E+04-1.66614E+05 3.45844E+04-4.34019E+05-4.00178E-11-2.13564E-07
 -1        56-9.80364E+06-1.38790E+06-9.22302E+05-4.10077E+06-1.23400E-08-3.13623E-07
 -1        57-1.11077E+07-7.86730E+05-5.45943E+05-2.68492E+06 2.68919E-08-2.24645E-07
 -1        58-9.59164E+06-1.85944E+06-2.01709E+05-4.29989E+06 1.47920E-08-7.89805E-08
 -1        59-1.13089E+07-2.41505E+05-1.07500E+05-2.61016E+06-2.74877E-08-1.10434E-07
 -1        60-9.68851E+06-1.86307E+06-5.83665E+04-4.25123E+06 2.19625E-08-9.86984E-08
 -1        61-1.06202E+07-5.94354E+05 1.93132E+04-2.86319E+06-3.60887E-09-9.03528E-08
 -1        62-1.01336E+07-1.60576E+06-8.19190E+04-3.93009E+06-4.08909E-08-1.75372E-07
 -1        63-9.66950E+06-1.34098E+06 5.99059E+04-3.59223E+06 1.34969E-08-1.31768E-08
 -1        64-1.05208E+07-1.20087E+06-7.53887E+04-3.44757E+06-3.63798E-09-4.07890E-08
 -1        65-9.28660E+06-1.97215E+06 1.59668E+04-4.54764E+06-1.10595E-08-1.97076E-07
 -1        66-1.06531E+07-8.79766E+05-4.75755E+04-3.07795E+06-2.18279E-09 5.21432E-08
 -1        67-9.31054E+06-2.23677E+06-9.67052E+04-5.00256E+06-3.34985E-08-1.45039E-07
 -1        68-1.06334E+07-8.40280E+05-1.87534E+05-3.07725E+06-6.25896E-08 9.90985E-09
 -1        69-9.47972E+06-2.31145E+06-4.84953E+05-4.51510E+06-3.68036E-08-1.85391E-08
 -1        70-1.03571E+07-9.06079E+05-8.47724E+05-3.48254E+06-2.60115E-09 1.34169E-07
 -1        86-1.54358E+06-1.57541E+07-2.82273E+06-3.14958E+06-2.81965E-07 1.12079E-07
 -1        87 2.42973E+06 6.39771E+06 2.34764E+06 5.80937E+06-4.60015E-07 1.87078E-07
 -1        88-4.59025E+05-1.93569E+06 2.22367E+05-2.58286E+06-4.16869E-07-1.28984E-07
 -1        89 3.25321E+06 6.09510E+06 2.40627E+06 6.00552E+06-6.13371E-07-1.65635E-07
 -1        90-2.27103E+06-1.55289E+07-3.04704E+06-3.37567E+06-1.48284E-07 2.77360E-08
 -1       121-2.03901E+03-1.56213E+06-5.47874E+02 1.09565E+03 1.39360E-09-4.94765E-09
 -1       122-1.30284E+03-1.55729E+06 7.68937E+02-4.42526E+03-5.62206E-09-8.02538E-09
 -1       123-2.05875E+03-1.56227E+06 2.59389E+02 3.27223E+03 4.27474E-09 8.62929E-09
 -1       124 3.32205E+02-1.55684E+06 2.94647E+03-9.26044E+03-1.05310E-08-2.75759E-09
 -1       125-2.86695E+03-1.56316E+06 3.45539E+03 5.88484E+03 6.31917E-09 6.52653E-09
 -1       191-7.92832E+01 3.86520E+05 8.48712E+00 7.00130E-01-4.87118E-10-8.57472E-09
 -1       192-7.61980E+01 3.86502E+05 2.12980E+01-4.30513E+00-8.90078E-10-4.00805E-08
 -1       193-8.18196E+01 3.86520E+05 3.62602E+01 3.78092E+00-1.16430E-09-1.60144E-08
 -1       194-7.92874E+01 3.86506E+05 8.09652E+01-9.76895E+00-5.31925E-10-1.79780E-08
 -1       195-8.66879E+01 3.86517E+05 1.55010E+02 6.35718E+00-1.50220E-09-5.96992E-09
 -1       251-8.61396E+05 1.61066E+04-3.76036E+04-1.43446E+04 6.03723E-09-8.25403E-08
 -1       252-8.75605E+05-1.86407E+04-2.61564E+04 5.06295E+04-1.30435E-08-1.57433E-07
 -1       253-8.69789E+05 2.47062E+03-1.01333E+04-1.00916E+04-1.87424E-09 1.53801E-07
 -1       254-8.62213E+05-2.99753E+03-4.51626E+03 3.59935E+04 3.57534E-09 1.14176E-07
 -1       255-8.74172E+05 5.36253E+01-3.52315E+03 2.87700E+02 2.95358E-09 5.50455E-08
 -1       256-8.56828E+05-2.72317E+02 1.19344E+03 1.24632E+04 4.74449E-09-2.73100E-08
 -1       257-8.74733E+05-5.80357E+02-1.38997E+03 1.34271E+04-6.90397E-09-3.91560E-08
 -1       258-8.59673E+05 9.15321E+02 2.71615E+03-1.22477E+04 6.39011E-09-7.84466E-08
 -1       259-8.71577E+05-9.40629E+02 1.37512E+03 2.49963E+04-4.64365E-09-1.63549E-07
 -1       260-8.66086E+05 2.95209E+03 5.58885E+03-3.00627E+04 1.04370E-09-2.45271E-07
 -1       261-8.68958E+05-2.12555E+03 8.67958E+03 3.12584E+04 1.94531E-08-2.26094E-07
 -1       262-8.64757E+05 1.18237E+04 2.15594E+04-3.52679E+04-1.76108E-09-1.44076E-07
 -1       263-8.73157E+05-9.58357E+03 3.41590E+04 3.02110E+04-2.89970E-09 1.16028E-07
 -1       264-8.34159E+05 6.72156E+04 9.45721E+04-2.60585E+04 1.99130E-08 6.72153E-08
 -1       265-8.99057E+05-5.76504E+04 1.31692E+05 2.20367E+04 2.09905E-08 2.57722E-07
 -1       266-1.67611E+04-7.83835E+03 3.93225E+04-1.75155E+01 1.67347E-10 2.62256E-07
 -1       267 1.94305E+04 9.13448E+03 2.77946E+04 2.02112E+01 9.45874E-11-7.11852E-08
 -1       268-2.60561E+03-1.29376E+03 1.03310E+04-2.57516E+00 7.95808E-11 4.49682E-08
 -1       269 3.07644E+03 1.54828E+03 6.71509E+03 2.99978E+00 6.82121E-12-1.17779E-07
 -1       270-4.61778E+02-2.54398E+02 3.24147E+03-4.07087E-01 1.03455E-11 2.09677E-07
 -1       271-1.47345E+06-1.87724E+05-1.11018E+05-5.73478E+05 2.76232E-08 7.22066E-08
 -1       272-1.46806E+06-3.01528E+05-6.96882E+04-6.12755E+05-2.38124E-08-1.76361E-07
 -1       273-1.49692E+06-2.11235E+05-2.69371E+04-5.65455E+05 1.93104E-08-1.60253E-07
 -1       274-1.44139E+06-2.73201E+05-1.39916E+04-6.27957E+05-3.34057E-08-9.03701E-08
 -1       275-1.50252E+06-2.10770E+05-6.72003E+03-5.61686E+05 1.96451E-09-1.25539E-07
 -1       276-1.43582E+06-2.74144E+05-2.82368E+03-6.36611E+05 1.04046E-09 3.66313E-08
 -1       277-1.50534E+06-2.08128E+05-1.86317E+03-5.58957E+05 2.29447E-08-5.31809E-08
 -1       278-1.43368E+06-2.77336E+05-7.03286E+02-6.42965E+05 3.68746E-08-2.60163E-07
 -1       279-1.50714E+06-2.05978E+05-8.57150E+02-5.57048E+05-2.73194E-08-2.31784E-07
 -1       280-1.43270E+06-2.79725E+05-9.72101E+02-6.47129E+05-3.97181E-08 3.69782E-07
 -1       281-1.50809E+06-2.04632E+05-1.79711E+03-5.55979E+05-1.92904E-08-5.92722E-08
 -1       282-1.43307E+06-2.81869E+05-4.17781E+03-6.48820E+05-1.93104E-08-1.73256E-08
 -1       283-1.50760E+06-2.03427E+05-7.43706E+03-5.55863E+05 1.57152E-09 2.41044E-07
 -1       284-1.43974E+06-2.91577E+05-2.02562E+04-6.46626E+05-4.57236E-08-1.55303E-07
 -1       285-1.50131E+06-1.96095E+05-3.16428E+04-5.57648E+05-2.53294E-08 5.28344E-08
 -1       301-7.82367E+03-6.48826E+05 1.66819E+05-1.14092E+06-8.94943E-09-8.66421E-08
 -1       302-9.76285E+03-6.01872E+05 1.00393E+05-1.66520E+06-2.27592E-08 2.23266E-07
 -1       303-2.23275E+04-6.41508E+05 5.66752E+04-1.13778E+06-5.33328E-09-1.49339E-09
 -1       304-2.55829E+04-6.09086E+05 5.69511E+04-1.66463E+06-3.05154E-08-1.41936E-07
 -1       305-2.67090E+04-6.30215E+05 6.99095E+04-1.14087E+06 3.92902E-09 9.21427E-08
 -1       306-3.01409E+07-6.21949E+06-8.61304E+06-4.91438E+05-4.24916E-08-7.01111E-08
 -1       307 2.53026E+07 3.28978E+06 5.51043E+06-1.52771E+07-8.57122E-07 1.99303E-07
 -1       308-6.92115E+06-1.01557E+06-4.37898E+05 5.21271E+06-2.11032E-07 4.89963E-07
 -1       309-3.19651E+06 8.75066E+06 2.29542E+06-2.07103E+07 2.60101E-07 1.93308E-07
 -1       310-1.26482E+07-1.95647E+06-2.06164E+06 5.22191E+06-2.47615E-07 1.90266E-07
 -1       311 3.86730E+07 3.81798E+02 7.31491E+06-8.73357E+06 7.29371E-07 3.95929E-07
 -1       312-3.19948E+07-6.81642E+06-8.56824E+06-5.10289E+06 3.64962E-07-8.58709E-08
 -1       313 4.54376E+07 1.51753E+07 1.06946E+07 2.39394E+07 1.08848E-08-2.26079E-07
 -1       314-1.71714E+07-1.78691E+07-7.53338E+06-1.25452E+07 4.80737E-07-1.90979E-07
 -1       315-1.92415E+06 2.98290E+07 5.66986E+06 1.04680E+07-6.60249E-07-5.41331E-08
 -1       316 1.43455E+06-9.83247E+06-4.29100E+05-2.49346E+06-1.20794E-06-3.45870E-07
 -1       317-1.70979E+07 2.24528E+07 2.24891E+06-8.89173E+06 9.48727E-07-6.99016E-07
 -1       318-1.08501E+06-1.28508E+07-2.06408E+06-4.24212E+06-8.92411E-07 1.07684E-07
 -1       319 7.29611E+06 3.21003E+07 7.07256E+06 1.66955E+07-1.03115E-07 2.23052E-07
 -1       320-2.26512E+07-1.76949E+07-9.88645E+06-1.28461E+07 1.75438E-07-3.25381E-08
 -1       336-7.48703E+02-1.69106E+06-1.38370E+04 8.90351E+03-2.63481E-08-3.45899E-08
 -1       337-5.40681E+03-1.69060E+06-1.80535E+04-2.16299E+04-4.90209E-08-3.61924E-08
 -1       338 2.71529E+02-1.69055E+06-2.84410E+04 1.24752E+04-3.50865E-08 1.74623E-10
 -1       339-3.01812E+04-1.70782E+06-6.42760E+04-2.86270E+04-6.26169E-08 2.78851E-09
 -1       340 1.98755E+04-1.67602E+06-1.01255E+05 1.57697E+04-4.14402E-08 3.35858E-08
 -1       406-4.96136E+01 3.86502E+05 6.44186E+02 3.34796E+00-1.76499E-09 2.35559E-09
 -1       407 1.54913E+02 3.86637E+05 1.37666E+03 2.33963E+01-6.51873E-10-6.38829E-09
 -1       408 6.34989E+02 3.86402E+05 2.74496E+03-2.70650E+01-2.41471E-09 1.69875E-08
 -1       409 2.90709E+03 3.87513E+05 6.18688E+03 2.88956E+02-5.42173E-10 2.91093E-08
 -1       410 8.48013E+03 3.85612E+05 1.26272E+04-2.78647E+02-3.15413E-09 2.53931E-09
 -1       521-3.17249E+07-7.69171E+06-1.00810E+07-9.49930E+04-2.64263E-08-9.92441E-08
 -1       522 2.62098E+07 4.34184E+06 5.62919E+06-1.88179E+07-4.89672E-07-2.87633E-07
 -1       523-7.49248E+06-1.33211E+06-4.29285E+05 5.66805E+06 2.53203E-08-3.01952E-08
 -1       524-6.70404E+06 1.18506E+07 2.48810E+06-2.38021E+07 8.50072E-07-4.10786E-07
 -1       525-1.34485E+07-2.60372E+06-2.27060E+06 5.68336E+06 4.69445E-07-1.06142E-07
 -1       526 4.23047E+07-9.83996E+04 7.68806E+06-1.13916E+07 1.87429E-07-2.05124E-07
 -1       527-3.38866E+07-8.53213E+06-9.89325E+06-4.96920E+06 7.64849E-08 8.17818E-09
 -1       528 4.96858E+07 1.69590E+07 1.11723E+07 2.72752E+07-1.11060E-07-1.32073E-07
 -1       529-1.81219E+07-2.01179E+07-8.65180E+06-1.25828E+07-5.64614E-08-2.64961E-07
 -1       530-4.41416E+06 3.46956E+07 6.01100E+06 9.90368E+06 1.33921E-07 3.93426E-07
 -1       531 1.44310E+06-1.09115E+07-4.00825E+05-2.42798E+06-7.68108E-07 4.17931E-07
 -1       532-1.95971E+07 2.44758E+07 2.46281E+06-1.32428E+07 3.41170E-07-7.50275E-07
 -1       533-1.12512E+06-1.40209E+07-2.20320E+06-4.03662E+06-2.67988E-07-1.07306E-06
 -1       534 5.30287E+06 3.73254E+07 7.37320E+06 1.73004E+07-6.14091E-09 7.11821E-07
 -1       535-2.38579E+07-2.01301E+07-1.13547E+07-1.29278E+07 8.35862E-08 4.71540E-07
 -1       536-7.06367E+05-4.67487E+04-4.83047E+04-5.47222E+04-1.84855E-09 4.68608E-08
 -1       537-5.46675E+04 4.46815E+04 8.39279E+04 1.23925E+05-1.07317E-07 8.67503E-08
 -1       538-3.94427E+05 3.35369E+03 3.53226E+03-7.22413E+04 3.45680E-08 9.43180E-08
 -1       539-2.68961E+05 2.85054E+03 2.49267E+04 1.38820E+05 1.70957E-07 9.66842E-08
 -1       540-4.97457E+05-4.28187E+02-2.13494E+04-7.01520E+04 1.43309E-08 9.93263E-08
 -1       541 1.47135E+05 1.69865E+04 1.06480E+05 9.79961E+04-1.32923E-09 9.23568E-08
 -1       542-7.99310E+05-2.01532E+04-8.43151E+04-3.05414E+04 3.89045E-08 4.00001E-08
 -1       543 4.06059E+05 2.73503E+04 1.58115E+05-1.33688E+04 3.07432E-09-2.55936E-08
 -1       544-7.49436E+05-1.65526E+04-7.49055E+04 4.05424E+04-2.73922E-08-3.47516E-08
 -1       545 2.93418E+04 9.49366E+03 7.98858E+04-1.13695E+05 4.33134E-08-9.54278E-08
 -1       546-4.32711E+05 6.10039E+03-1.22398E+04 6.94382E+04 2.38397E-08-9.16646E-08
 -1       547-2.87049E+05-4.65647E+03 1.06027E+04-1.41666E+05-1.31424E-07-1.03078E-07
 -1       548-4.41551E+05 4.72127E+03-2.38951E+04 6.92055E+04-1.13542E-07-8.77922E-08
 -1       549 4.85381E+04 1.61064E+04 6.05967E+04-1.11557E+05-7.24815E-08-8.23100E-08
 -1       550-7.59318E+05-2.21773E+04-1.29051E+05 3.86119E+04 7.07587E-09-3.96431E-08
 -1       551 4.07940E+04-7.50294E+05-1.59070E+04-1.24714E+06-1.05094E-07-1.87138E-08
 -1       552 9.32746E+04-7.95286E+05 9.91003E+03-1.77825E+06-7.71688E-08 2.56696E-08
 -1       553 7.17740E+04-7.91690E+05 3.20306E+04-1.24049E+06-1.21756E-07 3.24217E-08
 -1       554 1.32074E+05-8.11190E+05 8.10452E+04-1.78020E+06-7.80565E-08-5.77529E-09
 -1       555 1.01518E+05-8.15345E+05 1.48015E+05-1.24032E+06-1.26238E-07-1.88265E-08
 -1       556 2.23790E+05-3.83788E+05 2.56618E+04-4.07300E+05-2.57860E-08-1.53668E-08
 -1       557 3.54375E+05-4.88156E+05 1.61038E+04-5.27764E+05 6.25732E-10 4.51473E-09
 -1       558 2.05546E+05-3.76562E+05 2.30126E+03-4.11757E+05-2.48256E-08 7.42875E-09
 -1       559 3.29355E+05-4.88211E+05 2.43009E+03-5.48228E+05 2.67173E-08 1.26311E-08
 -1       560 1.90229E+05-3.66957E+05-1.51215E+03-4.22794E+05 9.37143E-09 1.39698E-08
 -1       561 3.10111E+05-4.80508E+05 1.27082E+02-5.61351E+05-1.01427E-08 1.72804E-09
 -1       562 1.78118E+05-3.59433E+05-1.32952E+03-4.31564E+05-8.29459E-10-1.36279E-08
 -1       563 2.95726E+05-4.74237E+05-3.77121E+01-5.70746E+05 3.47791E-09-2.45309E-08
 -1       564 1.69474E+05-3.54048E+05-6.01780E+02-4.37690E+05 5.67525E-09-1.12577E-08
 -1       565 2.86183E+05-4.70081E+05 2.42182E+01-5.76843E+05 1.28784E-08 1.45064E-08
 -1       566 1.64420E+05-3.50850E+05-2.59375E+02-4.41225E+05-4.61296E-09-7.96717E-10
 -1       567 2.81543E+05-4.68062E+05-3.60140E+02-5.79662E+05 1.68293E-08 7.78527E-10
 -1       568 1.63047E+05-3.50009E+05-1.12095E+03-4.42281E+05 3.19960E-09 1.24783E-09
 -1       569 2.80420E+05-4.67985E+05-2.83206E+03-5.78234E+05-9.40690E-09-4.47835E-09
 -1       570 1.66445E+05-3.53239E+05-6.19458E+03-4.41264E+05 1.10304E-08 5.09135E-09
 -1       571 2.90827E+05 1.05209E+04 1.50072E+04-9.53037E+04 3.47336E-09 8.88031E-09
 -1       572 2.93001E+05 3.96649E+03 7.35476E+03-1.04559E+05 8.04948E-09-3.47609E-09
 -1       573 2.91691E+05 1.24862E+03 3.26797E+03-9.51276E+04-2.80033E-09 7.30415E-09
 -1       574 2.91905E+05 7.29564E+02 1.63886E+03-1.04783E+05-1.96248E-08 1.69803E-08
 -1       575 2.91785E+05 4.49830E+02 7.73510E+02-9.51035E+04-1.63830E-08 5.08589E-09
 -1       576 2.91769E+05 4.61219E+02 3.96059E+02-1.04813E+05-9.62245E-09-4.90218E-09
 -1       577 2.91825E+05 3.91460E+02 1.97756E+02-9.51001E+04-5.79803E-09-1.21399E-08
 -1       578 2.91800E+05 4.22886E+02 1.14334E+02-1.04817E+05-5.46152E-09-8.37463E-09
 -1       579 2.91898E+05 3.54482E+02 7.86775E+01-9.50998E+04 3.75803E-09 4.69299E-10
 -1       580 2.91902E+05 3.71545E+02 9.15561E+01-1.04812E+05-9.75524E-09 1.81890E-08
 -1       581 2.92012E+05 2.95611E+02 1.38512E+02-9.51057E+04 3.74530E-09 2.95950E-09
 -1       582 2.92079E+05 3.34172E+02 2.81755E+02-1.04751E+05 5.56611E-10-1.08676E-08
 -1       583 2.92153E+05 3.38841E+02 5.40917E+02-9.51624E+04 9.27685E-10-1.79771E-08
 -1       584 2.92456E+05 7.80666E+02 1.22405E+03-1.04273E+05 7.33417E-09 1.83513E-09
 -1       585 2.92178E+05 1.81125E+03 2.47876E+03-9.55826E+04-1.44792E-09-5.34055E-09
 -1       586-3.43323E+03 1.16994E+05-2.92216E+03-2.50992E+05-4.10864E-09 2.58319E-09
 -1       587-1.34415E+03 1.16745E+05 7.73450E+02-2.76237E+05-4.88944E-09-1.39178E-08
 -1       588 3.96876E+02 1.16552E+05 4.76983E+03-2.50854E+05-3.67072E-09 1.42518E-09
 -1       589 5.09295E+03 1.19031E+05 1.23707E+04-2.76002E+05-9.22591E-09 6.39466E-09
 -1       590 1.66418E+04 1.15217E+05 2.59499E+04-2.51287E+05-7.46604E-09-4.96766E-09
 -1       591-7.50445E+04-1.59540E+04-2.25495E+04-3.19415E+04-1.61708E-09-2.01653E-08
 -1       592-7.91515E+04-1.95008E+04-1.22146E+04-3.55537E+04 2.10174E-09-3.77240E-08
 -1       593-7.72994E+04-1.43181E+04-5.08432E+03-3.35952E+04-3.39355E-10-1.86396E-08
 -1       594-7.60384E+04-1.61916E+04-2.53567E+03-3.56712E+04 1.33400E-09-5.69111E-09
 -1       595-7.74713E+04-1.43127E+04-1.16411E+03-3.36703E+04-1.08724E-09 9.90599E-09
 -1       596-7.58252E+04-1.60403E+04-5.91525E+02-3.56459E+04 1.00441E-08 8.79163E-09
 -1       597-7.74928E+04-1.43281E+04-3.21572E+02-3.36731E+04 9.69123E-10-3.64037E-09
 -1       598-7.58042E+04-1.60343E+04-2.57531E+02-3.56387E+04-3.37627E-09-1.05438E-08
 -1       599-7.74916E+04-1.43287E+04-3.27751E+02-3.36728E+04-4.20937E-09-9.08187E-09
 -1       600-7.58252E+04-1.60408E+04-6.07884E+02-3.56437E+04-1.23003E-09 2.09657E-08
 -1       601-7.74670E+04-1.43141E+04-1.19871E+03-3.36693E+04 3.77736E-09-9.01446E-09
 -1       602-7.60446E+04-1.61955E+04-2.61221E+03-3.56659E+04-6.80814E-09-1.44364E-08
 -1       603-7.72871E+04-1.43226E+04-5.23842E+03-3.35928E+04 8.93124E-10 5.30690E-10
 -1       604-7.92699E+04-1.95851E+04-1.25839E+04-3.55198E+04 3.46148E-09-4.77507E-09
 -1       605-7.49438E+04-1.60260E+04-2.32314E+04-3.19087E+04 4.88342E-10 1.58361E-08
 -1       606 2.66184E+04-1.43424E+04-2.57108E+04 2.40056E+04 5.61249E-09 3.55521E-09
 -1       607 2.22254E+04-4.68433E+03-1.28039E+04 2.69773E+04 2.86127E-09 8.02879E-09
 -1       608 2.47291E+04-8.45156E+02-5.73188E+03 2.38368E+04-2.48656E-09 9.75683E-09
 -1       609 2.42491E+04-2.89639E+02-2.89559E+03 2.71915E+04 3.27418E-10 1.44780E-09
 -1       610 2.45153E+04-4.11456E+01-1.38152E+03 2.38167E+04 2.93403E-09-7.83530E-09
 -1       611 2.44399E+04-4.14243E+01-6.96553E+02 2.72146E+04 6.98083E-09-3.93447E-09
 -1       612 2.44681E+04-2.74202E+01-3.31128E+02 2.38147E+04 4.71846E-09-3.51815E-09
 -1       613 2.44515E+04-3.73262E+01-1.48362E+02 2.72173E+04 7.22639E-09-3.24394E-09
 -1       614 2.44459E+04-3.38420E+01-3.47300E+01 2.38140E+04 2.86855E-09 2.60929E-08
 -1       615 2.44462E+04-3.58328E+01 6.23275E+01 2.72178E+04-2.01590E-09 2.66164E-08
 -1       616 2.44285E+04-3.07134E+01 1.86766E+02 2.38143E+04 3.41606E-09 8.89963E-09
 -1       617 2.44687E+04 3.96886E+00 4.26062E+02 2.72173E+04 1.01181E-09-8.99013E-09
 -1       618 2.43915E+04 9.21131E+01 8.58777E+02 2.38146E+04 7.27323E-09-1.37511E-08
 -1       619 2.47719E+04 6.67977E+02 1.92844E+03 2.72167E+04 1.26970E-08 2.30739E-09
 -1       620 2.41063E+04 2.12850E+03 3.87610E+03 2.38162E+04 1.00584E-08-3.50337E-09
 -1       621 5.05112E+02 3.01134E+05 3.83898E+03 4.13028E+04 1.05365E-09 3.83989E-09
 -1       622 6.72266E+02 3.02018E+05 3.42198E+03 5.99638E+04 1.25192E-09 2.80806E-09
 -1       623 1.43842E+02 3.01322E+05 4.13040E+03 4.11161E+04 1.28512E-09 4.14548E-09
 -1       624 2.12766E+03 3.03240E+05 8.02262E+03 6.01474E+04 1.30200E-09-1.45910E-08
 -1       625 2.07847E+03 2.99729E+05 1.40262E+04 4.11131E+04 1.32150E-09 8.34211E-09
 -1       626 2.61120E+05 6.15216E+04 5.14014E+03 1.26916E+05-1.51294E-09-9.91167E-09
 -1       627 2.58796E+05 6.29216E+04 2.47699E+03 1.31203E+05 1.88675E-09-2.47666E-08
 -1       628 2.61249E+05 5.91699E+04 1.04758E+03 1.27790E+05 9.69158E-09 1.74371E-08
 -1       629 2.58158E+05 6.22388E+04 5.12730E+02 1.31444E+05-5.77302E-09-8.84756E-09
 -1       630 2.61263E+05 5.90562E+04 2.37925E+02 1.27827E+05-9.37007E-09-2.81738E-08
 -1       631 2.58091E+05 6.22128E+04 1.28128E+02 1.31446E+05-6.19821E-09-9.48421E-09
 -1       632 2.61259E+05 5.90602E+04 8.44689E+01 1.27823E+05 6.26096E-09 2.84035E-09
 -1       633 2.58083E+05 6.22146E+04 9.43419E+01 1.31442E+05 8.00514E-09-7.04358E-09
 -1       634 2.61255E+05 5.90574E+04 1.52671E+02 1.27822E+05 1.00658E-09 1.00292E-08
 -1       635 2.58097E+05 6.22129E+04 3.09057E+02 1.31448E+05-3.76207E-09-4.22915E-11
 -1       636 2.61246E+05 5.90516E+04 6.24206E+02 1.27822E+05 1.01527E-08 1.22282E-09
 -1       637 2.58233E+05 6.23099E+04 1.37253E+03 1.31447E+05 1.11206E-08-1.60389E-08
 -1       638 2.61197E+05 5.93547E+04 2.82002E+03 1.27685E+05 1.18389E-08-8.63611E-09
 -1       639 2.59714E+05 6.43698E+04 6.67232E+03 1.31011E+05 4.73210E-09 3.01434E-08
 -1       640 2.60992E+05 6.55072E+04 1.38462E+04 1.25093E+05 7.58291E-09 1.37718E-08
 -1       656 6.65431E+04-1.70310E+06-1.60632E+05-2.55943E+03 2.69210E-10-1.34147E-08
 -1       657-8.80338E+04-1.77568E+06-1.33080E+05 5.16355E+03 2.36469E-10-1.64284E-08
 -1       658 2.12146E+04-1.72371E+06-8.19683E+04-4.64380E+03 2.26692E-10 7.26702E-09
 -1       659-9.52152E+04-1.77910E+06-1.42518E+05 6.89647E+03-8.65839E-10 3.21574E-09
 -1       660 7.37085E+04-1.69970E+06-1.76858E+05-4.29233E+03-2.21189E-09-1.97521E-08
 -1       661 1.58077E+05 1.65379E+04 1.66764E+04 6.17982E+04 4.77030E-10 9.42782E-09
 -1       662 1.67516E+05 2.88771E+04 1.12388E+04 5.80443E+04-7.65169E-10-1.27720E-08
 -1       663 1.61352E+05 2.18880E+04 3.93060E+03 6.08475E+04-3.20358E-09 5.65683E-09
 -1       664 1.63718E+05 2.26207E+04 2.35134E+03 5.92057E+04 7.01027E-09 7.21164E-09
 -1       665 1.61849E+05 2.26186E+04 9.27592E+02 6.07024E+04-5.07612E-10 1.78808E-08
 -1       666 1.63130E+05 2.17852E+04 5.43007E+02 5.93950E+04 9.18908E-09-1.80903E-08
 -1       667 1.61937E+05 2.27017E+04 2.88658E+02 6.06660E+04-5.63773E-10-5.13872E-10
 -1       668 1.63033E+05 2.17256E+04 2.94666E+02 5.94479E+04-6.37368E-09-4.32038E-09
 -1       669 1.61945E+05 2.26766E+04 3.99385E+02 6.06497E+04-4.47872E-09 1.06980E-08
 -1       670 1.63131E+05 2.19426E+04 8.70082E+02 5.94508E+04-1.08174E-08-2.97705E-09
 -1       671 1.61839E+05 2.24892E+04 1.54504E+03 6.06611E+04 2.54904E-09-2.00412E-08
 -1       672 1.64031E+05 2.34457E+04 3.95305E+03 5.92326E+04 3.98506E-09 1.79907E-08
 -1       673 1.61049E+05 2.12115E+04 6.62473E+03 6.08534E+04 3.92015E-09-1.61231E-08
 -1       674 1.70336E+05 3.40890E+04 1.89453E+04 5.73801E+04-9.96806E-10-9.09768E-09
 -1       675 1.55575E+05 1.21440E+04 2.81216E+04 6.24016E+04-1.97042E-09-8.19091E-09
 -1       676 2.41103E+01-2.95944E+05-1.11338E+03-1.37591E+02 2.54289E-10 3.82694E-09
 -1       677-2.94513E+02-2.96214E+05-2.03768E+03 2.74959E+02 1.07172E-08 1.88728E-08
 -1       678 1.97537E+02-2.95752E+05-3.60212E+03-1.37279E+02 2.25509E-09-1.08798E-08
 -1       679-3.60217E+03-2.98388E+05-8.55714E+03 2.73771E+02 1.06452E-08-1.60360E-09
 -1       680 2.15071E+03-2.93771E+05-1.37912E+04-1.34886E+02 1.72804E-09-4.60238E-09
 -1       771-3.06267E+06-7.47538E+05-1.66064E+05-1.46624E+06-3.42552E-08-3.23053E-08
 -1       772-2.98550E+06-8.36440E+05-8.56176E+04-1.56903E+06-2.51021E-08 1.21836E-08
 -1       773-3.09419E+06-7.22959E+05-4.36464E+04-1.48080E+06-1.78115E-08 1.22382E-08
 -1       774-2.97598E+06-8.17893E+05-1.94727E+04-1.59482E+06 1.98488E-08 1.71713E-09
 -1       775-3.11066E+06-7.11407E+05-1.45665E+04-1.48787E+06-1.39989E-08 3.95084E-09
 -1       776-2.98834E+06-8.14851E+05-5.44722E+03-1.61434E+06-9.92441E-09-2.07365E-10
 -1       777-3.12495E+06-7.01094E+05-6.43636E+03-1.49410E+06 4.45289E-09 4.68572E-09
 -1       778-3.00126E+06-8.12022E+05-1.81976E+03-1.63111E+06 5.54428E-09 1.24710E-08
 -1       779-3.13723E+06-6.92083E+05-3.21659E+03-1.49942E+06-1.18889E-08-1.23364E-08
 -1       780-3.01263E+06-8.09323E+05-5.33523E+02-1.64478E+06-5.79166E-09-9.53696E-09
 -1       781-3.14700E+06-6.84818E+05-1.24985E+03-1.50359E+06-2.59170E-08-4.10000E-09
 -1       782-3.02139E+06-8.07032E+05 4.49990E+02-1.65486E+06-3.20433E-08-6.72571E-09
 -1       783-3.15388E+06-6.79770E+05 7.00271E+02-1.50651E+06-2.11003E-10-1.27370E-08
 -1       784-3.02625E+06-8.04744E+05 2.90435E+03-1.66108E+06-1.07866E-08 2.52521E-09
 -1       785-3.15795E+06-6.76759E+05 5.12697E+03-1.50836E+06-3.30037E-08 7.98900E-09
 -1       786 1.21637E+05-9.70322E+03 2.24493E+04-3.18737E+02 2.10254E-09 7.54972E-09
 -1       787 1.31374E+05 1.12342E+04 1.58820E+04-1.31121E+02 1.88690E-09 1.46247E-08
 -1       788 1.25391E+05-1.52052E+03 5.80807E+03-2.83692E+02 3.54222E-09 6.98901E-09
 -1       789 1.27001E+05 1.75995E+03 3.64604E+03-1.84865E+02-1.48182E-09-1.08810E-08
 -1       790 1.26011E+05-2.36735E+02 1.47608E+03-2.65010E+02-4.13176E-09 2.67852E-09
 -1       791 1.26276E+05 2.73857E+02 8.52292E+02-2.16832E+02-8.08300E-09 3.70373E-09
 -1       792 1.26116E+05-3.55393E+01 3.60643E+02-2.51727E+02-4.92472E-09-3.36470E-09
 -1       793 1.26150E+05 3.72791E+01 1.78645E+02-2.41772E+02-6.53822E-10-4.82317E-09
 -1       794 1.26137E+05-3.06580E-01 4.41220E+01-2.40071E+02 6.28088E-09-2.01282E-08
 -1       795 1.26112E+05-2.92808E+01-6.36497E+01-2.65994E+02-3.59917E-09-1.68513E-08
 -1       796 1.26154E+05 3.09833E+01-1.72444E+02-2.27504E+02 3.82696E-09-5.59594E-09
 -1       797 1.26013E+05-2.31251E+02-4.70348E+02-2.94726E+02 4.65205E-09-5.00199E-09
 -1       798 1.26237E+05 2.01512E+02-7.63000E+02-2.11338E+02 1.64673E-09-6.96645E-10
 -1       799 1.25434E+05-1.48552E+03-2.09839E+03-3.34643E+02 7.75797E-09 2.67593E-08
 -1       800 1.26733E+05 1.28422E+03-2.96943E+03-1.87588E+02 8.01315E-12 7.68568E-09
 -1       801-1.71286E+05-9.99742E+06-1.39341E+06 1.41521E+06 9.14442E-08-4.92873E-08
 -1       802 7.38218E+05 5.94891E+06 2.18138E+06-1.74708E+06 2.58609E-07-3.69764E-08
 -1       803-5.36544E+05-1.42644E+07-1.89010E+06 8.98251E+05 7.80492E-08 1.90739E-08
 -1       804 2.87111E+05 2.39324E+06 1.53685E+06 6.76966E+05-1.20493E-07-9.54738E-08
 -1       805 1.89329E+05-6.45587E+06-2.86190E+05-1.00317E+06-5.03715E-08-6.69570E-08
 -1       806-3.13302E+05-6.03738E+04-2.32801E+04-1.24137E+05-4.75393E-09-7.72570E-09
 -1       807-3.15178E+05-5.67706E+04-1.14637E+04-1.29761E+05 8.54925E-10 6.85270E-09
 -1       808-3.13991E+05-5.21799E+04-4.86427E+03-1.28037E+05-2.71484E-10 1.01760E-08
 -1       809-3.12757E+05-5.35931E+04-2.37962E+03-1.30022E+05 1.84423E-09 4.38791E-08
 -1       810-3.14089E+05-5.19048E+04-1.09129E+03-1.28206E+05-8.79027E-10 1.21072E-08
 -1       811-3.12571E+05-5.34679E+04-5.42834E+02-1.29985E+05 1.17143E-09-5.32691E-09
 -1       812-3.14104E+05-5.19306E+04-2.74886E+02-1.28205E+05-3.53702E-09-6.62112E-09
 -1       813-3.12546E+05-5.34700E+04-1.79237E+02-1.29965E+05 3.09228E-11-6.96809E-09
 -1       814-3.14096E+05-5.19404E+04-1.78553E+02-1.28201E+05 2.58569E-09 1.07593E-09
 -1       815-3.12550E+05-5.34722E+04-2.88527E+02-1.29958E+05-7.11589E-09 6.55405E-09
 -1       816-3.14075E+05-5.19392E+04-5.47459E+02-1.28197E+05 8.51924E-09-6.65204E-09
 -1       817-3.12641E+05-5.35226E+04-1.17460E+03-1.29947E+05 5.61295E-09 3.40970E-09
 -1       818-3.14003E+05-5.20958E+04-2.39479E+03-1.28122E+05 5.77256E-09-2.31921E-09
 -1       819-3.13954E+05-5.49512E+04-5.63358E+03-1.29651E+05 2.98814E-09 8.46649E-09
 -1       820-3.13531E+05-5.62428E+04-1.14401E+04-1.26338E+05 6.15819E-09 1.16718E-08
 -1       821-3.80470E+05 2.09013E+04-4.87048E+04 2.21976E+03 1.43339E-08-5.08226E-09
 -1       822-4.00000E+05-2.42159E+04-3.41893E+04-4.76064E+03 4.58838E-09-1.34469E-09
 -1       823-3.87852E+05 3.29767E+03-1.25756E+04 3.65108E+03-1.26605E-08 6.63113E-09
 -1       824-3.91054E+05-3.80167E+03-7.86548E+03-5.78978E+03 1.11840E-09 9.68078E-09
 -1       825-3.89425E+05 5.12989E+02-3.30067E+03 3.24904E+03 2.06897E-08 1.53706E-08
 -1       826-3.88501E+05-5.63903E+02-1.71927E+03-3.38761E+03 3.04823E-08 4.97579E-09
 -1       827-3.90377E+05 4.08295E+01-1.21698E+03 1.24874E+03 1.35848E-08 1.62716E-08
 -1       828-3.87709E+05-1.24128E+02-5.41933E+02 1.10365E+03-8.81911E-10-1.69006E-08
 -1       829-3.90202E+05 6.13069E+01-1.20380E+03-1.24225E+03 5.01456E-09 1.02126E-08
 -1       830-3.88877E+05-6.21820E+02-1.86491E+03 5.18564E+03 2.82321E-09 1.64532E-08
 -1       831-3.89234E+05 5.58591E+02-3.38305E+03-2.83326E+03-6.92273E-09 3.09001E-09
 -1       832-3.91135E+05-3.97405E+03-8.17662E+03 6.58461E+03-3.89699E-09 6.85577E-09
 -1       833-3.87963E+05 3.42503E+03-1.30955E+04-2.64128E+03-1.41004E-09-6.91216E-09
 -1       834-4.00044E+05-2.51550E+04-3.54430E+04 4.48577E+03-1.11820E-09 4.92946E-09
 -1       835-3.80305E+05 2.17042E+04-5.06293E+04-7.34314E+02 5.64802E-09-6.73026E-10
 -1       836-1.41277E+03 3.69832E+05 2.29022E+04-1.58698E+04-6.92035E-09-1.77729E-08
 -1       837 4.88372E+03 3.77005E+05 1.93887E+04-3.24362E+04-7.68182E-09-5.45879E-09
 -1       838-5.58185E+02 3.71841E+05 1.97673E+04-1.57983E+04-6.46742E-09-4.78190E-09
 -1       839 1.24471E+04 3.82637E+05 3.74066E+04-3.24901E+04-6.79893E-09 4.06578E-09
 -1       840-3.84713E+03 3.64139E+05 5.96554E+04-1.58216E+04-6.33736E-09-9.58508E-09
 -1       856-5.17100E+04 8.01915E+03-2.11322E+04-3.97352E+02 4.80372E-09-3.63070E-09
 -1       857-6.04160E+04-9.42225E+03-1.45472E+04 5.62673E+03 8.95238E-09-3.70512E-08
 -1       858-5.51578E+04 1.12461E+03-5.48327E+03-4.21284E+02 2.82989E-09-2.78123E-09
 -1       859-5.64593E+04-1.32308E+03-3.30888E+03 5.66231E+03 1.59744E-10 1.68097E-08
 -1       860-5.56729E+04 1.57500E+02-1.38669E+03-4.32657E+02-1.72093E-10 1.68221E-08
 -1       861-5.58668E+04-1.88041E+02-7.62735E+02 5.67779E+03 3.83085E-09-6.45184E-09
 -1       862-5.57535E+04 2.13302E+01-3.16827E+02-4.36743E+02-9.87900E-10-2.46266E-09
 -1       863-5.57680E+04-2.17964E+01-1.14884E+02 5.68015E+03-6.81143E-09-3.12564E-09
 -1       864-5.57722E+04-4.96543E+00 4.83539E+01-4.35020E+02-2.00316E-09 1.02282E-08
 -1       865-5.57120E+04 6.01539E+01 2.57706E+02 5.67033E+03-6.21242E-09-3.51870E-09
 -1       866-5.58073E+04-6.06276E+01 5.18751E+02-4.26922E+02 6.25278E-12-6.08043E-09
 -1       867-5.54682E+04 5.00684E+02 1.27645E+03 5.64836E+03 2.74133E-09 1.57675E-08
 -1       868-5.60111E+04-4.37512E+02 2.12101E+03-4.13047E+02-8.46512E-10 3.48462E-09
 -1       869-5.39134E+04 3.64137E+03 5.64736E+03 5.61221E+03 3.57204E-09-1.20945E-08
 -1       870-5.73544E+04-3.11596E+03 8.19564E+03-3.90671E+02-2.09468E-09-1.47320E-08
 -1       871-5.51751E+03-2.09921E+04-1.94870E+04 1.30551E+05-4.73119E-09-1.19016E-08
 -1       872-1.98078E+03-2.55240E+04-8.15570E+03 1.69278E+05-1.04965E-08-1.13560E-08
 -1       873 4.06381E+02-2.33330E+04 5.99302E+02 1.30264E+05-5.66388E-09-1.61788E-08
 -1       874 3.31232E+03-2.09180E+04 9.79990E+03 1.69309E+05-1.32004E-08-5.51881E-09
 -1       875 6.85850E+03-2.56668E+04 2.21001E+04 1.30503E+05-5.20595E-09-7.82620E-09
 -1       876 2.93951E+05 4.95135E+04 1.50877E+04 1.17929E+05 2.53181E-09-1.26147E-08
 -1       877 2.94955E+05 5.26850E+04 8.05744E+03 1.22250E+05 9.73887E-09-2.10057E-08
 -1       878 2.95362E+05 4.78423E+04 3.37568E+03 1.19165E+05-4.98130E-09 4.87375E-09
 -1       879 2.92904E+05 5.06381E+04 1.68198E+03 1.22352E+05 3.86740E-09 1.97276E-08
 -1       880 2.95463E+05 4.78250E+04 7.83473E+02 1.19215E+05-6.30735E-10 4.43401E-09
 -1       881 2.92768E+05 5.05505E+04 4.18454E+02 1.22328E+05-1.11932E-08 8.22885E-09
 -1       882 2.95472E+05 4.78382E+04 2.67826E+02 1.19217E+05-6.19343E-09 1.35387E-08
 -1       883 2.92758E+05 5.05459E+04 2.88120E+02 1.22321E+05 6.95763E-11 8.26216E-09
 -1       884 2.95466E+05 4.78354E+04 4.58510E+02 1.19217E+05 3.04851E-09 6.13238E-09
 -1       885 2.92795E+05 5.05523E+04 9.21972E+02 1.22332E+05-5.40126E-10 1.22964E-09
 -1       886 2.95430E+05 4.78085E+04 1.85825E+03 1.19214E+05-6.15119E-09-9.64860E-09
 -1       887 2.93121E+05 5.07664E+04 4.05912E+03 1.22379E+05 9.09893E-09-1.96396E-08
 -1       888 2.95173E+05 4.78537E+04 8.17925E+03 1.19084E+05-3.04581E-09-1.05374E-08
 -1       889 2.97990E+05 5.58304E+04 1.95387E+04 1.22230E+05-1.04294E-08 1.31886E-08
 -1       890 2.91835E+05 5.18193E+04 3.65955E+04 1.15971E+05-5.70299E-09-7.06859E-09
 -1       891-8.94445E+01-1.62841E+05-1.99828E+03 2.71339E+04-1.04728E-09 8.62224E-09
 -1       892-1.75496E+02-1.63369E+05-2.14572E+03 4.12047E+04 1.33355E-09-6.78483E-10
 -1       893 4.37902E+01-1.62905E+05-3.03761E+03 2.71413E+04-9.94532E-10-4.46016E-09
 -1       894-1.51070E+03-1.64516E+05-6.28636E+03 4.10522E+04 3.45881E-09 9.28230E-09
 -1       895-1.19974E+03-1.61595E+05-1.10701E+04 2.72882E+04 6.68706E-10 1.72095E-08
 -1       956-3.77473E+05-5.39362E+03-1.33165E+04 3.05983E+04 7.41238E-09-1.52893E-08
 -1       957-3.80085E+05-1.90222E+03-6.83516E+03 3.67728E+04-8.16908E-09-2.43122E-08
 -1       958-3.78669E+05-2.37825E+02-3.08012E+03 3.04328E+04-5.89898E-09 7.67614E-09
 -1       959-3.78863E+05-1.34343E+02-1.57282E+03 3.69657E+04 4.39468E-09 3.47427E-09
 -1       960-3.78786E+05-4.39543E+01-7.67057E+02 3.04158E+04 7.41693E-09 1.42404E-09
 -1       961-3.78783E+05-6.22912E+01-4.06899E+02 3.69858E+04 1.22257E-08 2.03643E-08
 -1       962-3.78813E+05-4.53674E+01-2.33332E+02 3.04130E+04-7.57154E-10 3.71733E-09
 -1       963-3.78783E+05-5.83204E+01-1.87990E+02 3.69894E+04 6.23857E-09-1.20406E-08
 -1       964-3.78818E+05-4.21509E+01-2.29441E+02 3.04122E+04 7.10273E-10-1.50185E-08
 -1       965-3.78795E+05-5.54899E+01-3.97527E+02 3.69886E+04-1.34014E-09-1.60380E-08
 -1       966-3.78801E+05-3.43719E+01-7.47332E+02 3.04138E+04 9.23683E-09-8.50264E-09
 -1       967-3.78885E+05-1.19170E+02-1.53296E+03 3.69743E+04-1.10413E-09 9.68612E-11
 -1       968-3.78697E+05-2.17146E+02-3.00107E+03 3.04264E+04 3.48973E-09 2.02374E-09
 -1       969-3.80088E+05-1.83689E+03-6.66234E+03 3.68261E+04 8.62701E-09-1.06484E-08
 -1       970-3.77539E+05-5.23867E+03-1.29786E+04 3.05533E+04 2.39743E-09 2.04091E-09
 -1       971-3.45557E+05-1.73023E+03-9.32437E+03 1.54033E+04 1.89902E-09 7.24634E-09
 -1       972-3.47801E+05-1.27382E+03-5.07795E+03 2.13027E+04 7.33780E-09 5.92809E-09
 -1       973-3.46596E+05-6.21841E+01-2.27447E+03 1.52820E+04-6.49379E-10 1.66469E-08
 -1       974-3.46731E+05-8.12509E+01-1.17899E+03 2.14400E+04-5.87079E-09 2.51748E-09
 -1       975-3.46678E+05-1.72177E+01-5.89787E+02 1.52696E+04-1.68939E-09-1.10150E-08
 -1       976-3.46670E+05-3.13097E+01-3.41070E+02 2.14558E+04-1.48793E-09-3.05203E-08
 -1       977-3.46694E+05-1.64562E+01-2.48989E+02 1.52662E+04-1.07063E-08-4.34420E-09
 -1       978-3.46675E+05-2.50623E+01-2.93338E+02 2.14607E+04-2.06022E-08 6.48549E-09
 -1       979-3.46694E+05-7.96214E+00-4.72995E+02 1.52647E+04-7.10401E-09-2.13123E-08
 -1       980-3.46710E+05-2.19900E+01-9.14357E+02 2.14617E+04-3.63860E-09-3.31347E-08
 -1       981-3.46665E+05 1.48963E+01-1.77145E+03 1.52652E+04 9.16316E-10 7.85417E-09
 -1       982-3.46954E+05-1.52881E+02-3.66187E+03 2.14551E+04-3.09842E-09 1.87985E-08
 -1       983-3.46442E+05-9.85384E+01-7.11521E+03 1.52713E+04 1.36833E-09-5.20686E-11
 -1       984-3.50376E+05-3.86895E+03-1.59343E+04 2.13693E+04 1.13469E-08 9.18931E-10
 -1       985-3.43220E+05-5.30502E+03-2.92603E+04 1.53428E+04 2.45473E-09 2.92857E-09
 -3
    1PSTEP                        31          16           1          
  100CL  116 6.63036E-01         409                     0   16           1
 -4  DISP        4    1
 -5  D1          1    2    1    0
 -5  D2          1    2    2    0
 -5  D3          1    2    3    0
 -5  ALL         1    2    0    0    1ALL
 -1         1 2.72350E-03 0.00000E+00 0.00000E+00
 -1         2 1.34107E-03-5.12912E-28-5.29396E-23
 -1         3 3.42771E-04-6.03604E-28-1.32349E-23
 -1         5 1.77155E-04-1.81809E-27 8.27181E-25
 -1         8 2.71269E-03-4.03631E-07 0.00000E+00
 -1         9 2.70601E-03-1.95836E-04 0.00000E+00
 -1        10 3.10808E-04-3.40015E-06-6.61744E-24
 -1        12 1.79000E-04 8.09490E-07-8.27181E-25
 -1        15 2.70035E-03-4.27044E-07-1.03398E-25
 -1        16 2.77415E-03-1.97685E-04 0.00000E+00
 -1        17 2.11518E-04-7.75554E-06 0.00000E+00
 -1        18 1.82943E-04 3.44288E-05 0.00000E+00
 -1        19 1.84538E-04 1.61257E-06 0.00000E+00
 -1        20 1.84677E-04-9.84829E-06 0.00000E+00
 -1        21 1.83782E-04-2.53669E-05 3.30872E-24
 -1        24 3.06138E-05-1.19801E-05 0.00000E+00
 -1        25 1.93743E-04 3.46546E-05 0.00000E+00
 -1        26 1.94412E-04 2.23201E-06 0.00000E+00
 -1        27 1.92197E-04-1.34048E-05 0.00000E+00
 -1        28 1.91884E-04-2.59890E-05 0.00000E+00
 -1        32 0.00000E+00 0.00000E+00 0.00000E+00
 -1        33 2.03263E-04 2.98496E-06 0.00000E+00
 -1        34 2.01143E-04-1.34602E-05 0.00000E+00
 -1        35 1.99210E-04-2.63316E-05 0.00000E+00
 -1        51 2.72277E-03-8.47503E-08-3.30872E-24
 -1        52 2.72145E-03-1.51068E-07 0.00000E+00
 -1        53 2.71964E-03-2.13898E-07 0.00000E+00
 -1        54 2.71750E-03-2.75476E-07-1.65436E-24
 -1        55 2.71514E-03-3.37565E-07 1.65436E-24
 -1        56 2.71561E-03 8.96933E-06 0.00000E+00
 -1        57 2.69997E-03 3.70150E-05-5.29396E-23
 -1        58 2.67894E-03 7.81527E-05 0.00000E+00
 -1        59 2.65538E-03 1.25153E-04 0.00000E+00
 -1        60 2.63282E-03 1.69779E-04-1.05879E-22
 -1        61 2.61465E-03 2.03987E-04 5.29396E-23
 -1        62 2.60318E-03 2.21595E-04 0.00000E+00
 -1        63 2.59989E-03 2.17896E-04 5.29396E-23
 -1        64 2.60457E-03 1.92102E-04-1.05879E-22
 -1        65 2.61628E-03 1.45519E-04 5.29396E-23
 -1        66 2.63297E-03 8.34108E-05-1.05879E-22
 -1        67 2.65233E-03 1.25714E-05 5.29396E-23
 -1        68 2.67176E-03-5.85043E-05 1.05879E-22
 -1        69 2.68869E-03-1.21292E-04 0.00000E+00
 -1        70 2.70075E-03-1.68883E-04 5.29396E-23
 -1        86 1.42690E-03-6.18253E-06 0.00000E+00
 -1        87 1.67515E-03-3.88999E-05-2.64698E-23
 -1        88 2.00895E-03-9.51535E-05 0.00000E+00
 -1        89 2.34729E-03-1.52976E-04-1.32349E-23
 -1        90 2.60652E-03-1.88363E-04-5.29396E-23
 -1       121 3.41873E-04-5.48945E-07 1.32349E-23
 -1       122 3.39184E-04-1.10098E-06 6.61744E-24
 -1       123 3.34713E-04-1.65915E-06 1.32349E-23
 -1       124 3.28477E-04-2.22649E-06 6.61744E-24
 -1       125 3.20498E-04-2.80565E-06 1.32349E-23
 -1       191 1.77206E-04 1.34979E-07-8.27181E-25
 -1       192 1.77360E-04 2.69946E-07 1.24077E-24
 -1       193 1.77616E-04 4.04893E-07-1.65436E-24
 -1       194 1.77975E-04 5.39808E-07 1.65436E-24
 -1       195 1.78436E-04 6.74678E-07-8.27181E-25
 -1       251 2.71240E-03 1.63032E-06-6.61744E-24
 -1       252 2.71209E-03 3.52481E-06 0.00000E+00
 -1       253 2.71179E-03 4.28786E-06 0.00000E+00
 -1       254 2.71148E-03 2.94150E-06 0.00000E+00
 -1       255 2.71117E-03-1.17361E-06 6.61744E-24
 -1       256 2.71084E-03-8.68231E-06 0.00000E+00
 -1       257 2.71048E-03-1.96972E-05 6.61744E-24
 -1       258 2.71007E-03-3.42870E-05 0.00000E+00
 -1       259 2.70961E-03-5.19815E-05 0.00000E+00
 -1       260 2.70911E-03-7.22712E-05 0.00000E+00
 -1       261 2.70857E-03-9.42550E-05 0.00000E+00
 -1       262 2.70802E-03-1.17011E-04-6.61744E-24
 -1       263 2.70747E-03-1.39501E-04 0.00000E+00
 -1       264 2.70695E-03-1.60689E-04 0.00000E+00
 -1       265 2.70646E-03-1.79738E-04 0.00000E+00
 -1       266 2.71064E-03-4.13140E-07-1.65436E-24
 -1       267 2.70858E-03-4.16359E-07 0.00000E+00
 -1       268 2.70652E-03-4.19976E-07 0.00000E+00
 -1       269 2.70447E-03-4.22413E-07 2.06795E-25
 -1       270 2.70241E-03-4.24823E-07 0.00000E+00
 -1       271 2.71186E-03 4.83633E-08 1.32349E-23
 -1       272 2.71201E-03-2.16589E-06 0.00000E+00
 -1       273 2.71308E-03-6.88746E-06 1.32349E-23
 -1       274 2.71502E-03-1.39450E-05 0.00000E+00
 -1       275 2.71774E-03-2.31460E-05 2.64698E-23
 -1       276 2.72116E-03-3.42828E-05-1.32349E-23
 -1       277 2.72521E-03-4.71312E-05 2.64698E-23
 -1       278 2.72978E-03-6.14540E-05 0.00000E+00
 -1       279 2.73480E-03-7.70020E-05 0.00000E+00
 -1       280 2.74016E-03-9.35162E-05-6.61744E-24
 -1       281 2.74577E-03-1.10730E-04 0.00000E+00
 -1       282 2.75154E-03-1.28371E-04-6.61744E-24
 -1       283 2.75735E-03-1.46163E-04 0.00000E+00
 -1       284 2.76313E-03-1.63830E-04 6.61744E-24
 -1       285 2.76876E-03-1.81095E-04 1.32349E-23
 -1       301 2.71839E-03-1.96179E-04-1.32349E-23
 -1       302 2.72912E-03-1.96475E-04 6.61744E-24
 -1       303 2.73912E-03-1.96760E-04 0.00000E+00
 -1       304 2.74933E-03-1.97047E-04 0.00000E+00
 -1       305 2.76070E-03-1.97347E-04 0.00000E+00
 -1       306 2.74404E-03-3.51084E-04 0.00000E+00
 -1       307 2.80790E-03-7.65894E-04-5.29396E-23
 -1       308 2.85448E-03-1.37178E-03 1.05879E-22
 -1       309 2.87829E-03-2.07249E-03 0.00000E+00
 -1       310 2.90968E-03-2.74216E-03-1.05879E-22
 -1       311 2.96925E-03-3.25766E-03 5.29396E-23
 -1       312 3.02694E-03-3.53843E-03 0.00000E+00
 -1       313 3.02164E-03-3.54688E-03-5.29396E-23
 -1       314 2.87941E-03-3.29533E-03 1.05879E-22
 -1       315 2.55948E-03-2.84855E-03-5.29396E-23
 -1       316 2.08052E-03-2.28325E-03 1.05879E-22
 -1       317 1.50876E-03-1.66872E-03 0.00000E+00
 -1       318 9.58788E-04-1.06543E-03 0.00000E+00
 -1       319 5.38706E-04-5.38329E-04-5.29396E-23
 -1       320 2.92252E-04-1.61612E-04 1.05879E-22
 -1       336 2.99217E-04-4.05748E-06 0.00000E+00
 -1       337 2.85551E-04-4.74052E-06-6.61744E-24
 -1       338 2.69870E-04-5.45148E-06-1.32349E-23
 -1       339 2.52248E-04-6.19119E-06-6.61744E-24
 -1       340 2.32767E-04-6.96412E-06-1.32349E-23
 -1       406 1.79667E-04 9.44225E-07 8.27181E-25
 -1       407 1.80436E-04 1.07885E-06 1.65436E-24
 -1       408 1.81308E-04 1.21330E-06-4.13590E-25
 -1       409 1.82283E-04 1.34742E-06 0.00000E+00
 -1       410 1.83360E-04 1.48092E-06-2.06795E-24
 -1       521 2.81278E-03-3.62232E-04 0.00000E+00
 -1       522 2.87483E-03-7.97481E-04-5.29396E-23
 -1       523 2.91487E-03-1.43149E-03 1.05879E-22
 -1       524 2.92932E-03-2.16121E-03 0.00000E+00
 -1       525 2.95270E-03-2.85786E-03 0.00000E+00
 -1       526 3.00869E-03-3.39567E-03 0.00000E+00
 -1       527 3.06597E-03-3.68712E-03-2.11758E-22
 -1       528 3.05833E-03-3.69371E-03 5.29396E-23
 -1       529 2.90386E-03-3.42778E-03 2.11758E-22
 -1       530 2.55953E-03-2.96217E-03 5.29396E-23
 -1       531 2.04483E-03-2.37745E-03 0.00000E+00
 -1       532 1.43256E-03-1.74548E-03-5.29396E-23
 -1       533 8.42775E-04-1.12408E-03 1.05879E-22
 -1       534 3.88876E-04-5.75853E-04-5.29396E-23
 -1       535 1.20932E-04-1.79375E-04 0.00000E+00
 -1       536 2.10763E-04 2.71780E-05 6.61744E-24
 -1       537 2.08844E-04 8.76350E-05 0.00000E+00
 -1       538 2.05879E-04 1.64346E-04 0.00000E+00
 -1       539 2.02381E-04 2.47958E-04 0.00000E+00
 -1       540 1.99233E-04 3.26965E-04-3.30872E-24
 -1       541 1.97187E-04 3.89883E-04 1.65436E-24
 -1       542 1.96243E-04 4.29958E-04-3.30872E-24
 -1       543 1.96018E-04 4.40583E-04 1.65436E-24
 -1       544 1.95696E-04 4.22533E-04-3.30872E-24
 -1       545 1.94523E-04 3.76801E-04 0.00000E+00
 -1       546 1.92337E-04 3.11517E-04 0.00000E+00
 -1       547 1.89377E-04 2.34931E-04 0.00000E+00
 -1       548 1.86445E-04 1.58721E-04 0.00000E+00
 -1       549 1.84329E-04 9.45661E-05-1.65436E-24
 -1       550 1.83230E-04 5.04998E-05 1.65436E-24
 -1       551 1.86311E-04-8.32479E-06 0.00000E+00
 -1       552 1.57858E-04-8.97452E-06 0.00000E+00
 -1       553 1.27103E-04-9.68652E-06-9.92617E-24
 -1       554 9.50049E-05-1.04397E-05-3.30872E-24
 -1       555 6.25235E-05-1.12066E-05 0.00000E+00
 -1       556 2.03868E-04 1.18056E-05-5.29396E-23
 -1       557 1.97687E-04 2.76703E-05 0.00000E+00
 -1       558 1.92841E-04 4.01265E-05 0.00000E+00
 -1       559 1.89198E-04 4.94847E-05 0.00000E+00
 -1       560 1.86626E-04 5.60556E-05 0.00000E+00
 -1       561 1.84999E-04 6.01529E-05 0.00000E+00
 -1       562 1.84190E-04 6.20910E-05 0.00000E+00
 -1       563 1.84076E-04 6.21857E-05-1.32349E-23
 -1       564 1.84535E-04 6.07533E-05 0.00000E+00
 -1       565 1.85446E-04 5.81111E-05 0.00000E+00
 -1       566 1.86689E-04 5.45767E-05 0.00000E+00
 -1       567 1.88146E-04 5.04682E-05 0.00000E+00
 -1       568 1.89698E-04 4.61040E-05 0.00000E+00
 -1       569 1.91226E-04 4.18022E-05-8.27181E-25
 -1       570 1.92613E-04 3.78812E-05 0.00000E+00
 -1       571 1.83040E-04 3.22983E-05-1.65436E-24
 -1       572 1.83139E-04 3.01023E-05-4.13590E-25
 -1       573 1.83238E-04 2.78564E-05 0.00000E+00
 -1       574 1.83338E-04 2.55770E-05 8.27181E-25
 -1       575 1.83437E-04 2.32805E-05 0.00000E+00
 -1       576 1.83537E-04 2.09835E-05 1.65436E-24
 -1       577 1.83636E-04 1.87024E-05-3.30872E-24
 -1       578 1.83736E-04 1.64537E-05 0.00000E+00
 -1       579 1.83836E-04 1.42541E-05 0.00000E+00
 -1       580 1.83936E-04 1.21200E-05 0.00000E+00
 -1       581 1.84036E-04 1.00680E-05 0.00000E+00
 -1       582 1.84136E-04 8.11452E-06 3.30872E-24
 -1       583 1.84236E-04 6.27612E-06 6.61744E-24
 -1       584 1.84337E-04 4.56912E-06 3.30872E-24
 -1       585 1.84438E-04 3.00967E-06 0.00000E+00
 -1       586 1.84702E-04 3.44686E-05 0.00000E+00
 -1       587 1.86419E-04 3.45078E-05 4.13590E-25
 -1       588 1.88139E-04 3.45466E-05 0.00000E+00
 -1       589 1.89904E-04 3.45848E-05 0.00000E+00
 -1       590 1.91758E-04 3.46217E-05 0.00000E+00
 -1       591 1.83674E-04 3.23922E-05 2.06795E-25
 -1       592 1.84407E-04 3.03360E-05-2.06795E-25
 -1       593 1.85145E-04 2.82661E-05 8.27181E-25
 -1       594 1.85886E-04 2.61871E-05 0.00000E+00
 -1       595 1.86628E-04 2.41037E-05 0.00000E+00
 -1       596 1.87371E-04 2.20206E-05-4.13590E-25
 -1       597 1.88111E-04 1.99425E-05-8.27181E-25
 -1       598 1.88848E-04 1.78741E-05 4.13590E-25
 -1       599 1.89579E-04 1.58198E-05 0.00000E+00
 -1       600 1.90304E-04 1.37845E-05 4.13590E-25
 -1       601 1.91019E-04 1.17728E-05 0.00000E+00
 -1       602 1.91724E-04 9.78930E-06-2.06795E-25
 -1       603 1.92418E-04 7.83866E-06 8.27181E-25
 -1       604 1.93097E-04 5.92565E-06 0.00000E+00
 -1       605 1.93761E-04 4.05483E-06 0.00000E+00
 -1       606 1.84551E-04 4.49054E-07-3.30872E-24
 -1       607 1.84561E-04-6.28517E-07 0.00000E+00
 -1       608 1.84570E-04-1.62519E-06 3.30872E-24
 -1       609 1.84578E-04-2.54666E-06 0.00000E+00
 -1       610 1.84587E-04-3.39866E-06 0.00000E+00
 -1       611 1.84595E-04-4.18700E-06 0.00000E+00
 -1       612 1.84603E-04-4.91748E-06 0.00000E+00
 -1       613 1.84611E-04-5.59593E-06 0.00000E+00
 -1       614 1.84620E-04-6.22816E-06 0.00000E+00
 -1       615 1.84628E-04-6.81998E-06 0.00000E+00
 -1       616 1.84636E-04-7.37722E-06 0.00000E+00
 -1       617 1.84645E-04-7.90570E-06 0.00000E+00
 -1       618 1.84653E-04-8.41123E-06 0.00000E+00
 -1       619 1.84662E-04-8.89963E-06 0.00000E+00
 -1       620 1.84670E-04-9.37671E-06 0.00000E+00
 -1       621 1.85897E-04 1.71638E-06 3.30872E-24
 -1       622 1.87415E-04 1.82044E-06 1.65436E-24
 -1       623 1.89059E-04 1.92428E-06 1.65436E-24
 -1       624 1.90796E-04 2.02778E-06-8.27181E-25
 -1       625 1.92591E-04 2.13100E-06 1.65436E-24
 -1       626 1.85087E-04 4.85322E-07 3.30872E-24
 -1       627 1.85612E-04-5.78679E-07-3.30872E-24
 -1       628 1.86117E-04-1.58732E-06 0.00000E+00
 -1       629 1.86605E-04-2.54878E-06 0.00000E+00
 -1       630 1.87078E-04-3.47131E-06 0.00000E+00
 -1       631 1.87540E-04-4.36311E-06 0.00000E+00
 -1       632 1.87993E-04-5.23244E-06 0.00000E+00
 -1       633 1.88441E-04-6.08753E-06 0.00000E+00
 -1       634 1.88886E-04-6.93663E-06-3.30872E-24
 -1       635 1.89333E-04-7.78796E-06-1.65436E-24
 -1       636 1.89783E-04-8.64977E-06 0.00000E+00
 -1       637 1.90241E-04-9.53031E-06-1.65436E-24
 -1       638 1.90708E-04-1.04378E-05 3.30872E-24
 -1       639 1.91188E-04-1.13805E-05 8.27181E-25
 -1       640 1.91684E-04-1.23667E-05-1.65436E-24
 -1       656 1.85382E-04-1.04263E-05-6.61744E-24
 -1       657 1.86506E-04-1.10279E-05 6.61744E-24
 -1       658 1.87911E-04-1.16280E-05-1.32349E-23
 -1       659 1.89451E-04-1.22278E-05 0.00000E+00
 -1       660 1.90941E-04-1.28295E-05-6.61744E-24
 -1       661 1.84941E-04-1.03652E-05 0.00000E+00
 -1       662 1.85242E-04-1.09744E-05-8.27181E-25
 -1       663 1.85576E-04-1.16705E-05 0.00000E+00
 -1       664 1.85940E-04-1.24470E-05 0.00000E+00
 -1       665 1.86332E-04-1.32980E-05 1.65436E-24
 -1       666 1.86750E-04-1.42177E-05-8.27181E-25
 -1       667 1.87192E-04-1.52002E-05 0.00000E+00
 -1       668 1.87655E-04-1.62400E-05 0.00000E+00
 -1       669 1.88137E-04-1.73316E-05-1.65436E-24
 -1       670 1.88637E-04-1.84696E-05 0.00000E+00
 -1       671 1.89152E-04-1.96489E-05 1.65436E-24
 -1       672 1.89680E-04-2.08644E-05 0.00000E+00
 -1       673 1.90220E-04-2.21108E-05 1.65436E-24
 -1       674 1.90769E-04-2.33836E-05 0.00000E+00
 -1       675 1.91326E-04-2.46773E-05-2.06795E-25
 -1       676 1.85137E-04-2.54712E-05 3.30872E-24
 -1       677 1.86491E-04-2.55754E-05 0.00000E+00
 -1       678 1.87844E-04-2.56796E-05 0.00000E+00
 -1       679 1.89194E-04-2.57835E-05 1.65436E-24
 -1       680 1.90541E-04-2.58874E-05-1.65436E-24
 -1       771 1.86568E-05 1.47598E-05 0.00000E+00
 -1       772 8.59753E-06 3.67213E-05 0.00000E+00
 -1       773 3.45189E-07 5.41349E-05 5.29396E-23
 -1       774-6.22462E-06 6.72585E-05 2.64698E-23
 -1       775-1.12336E-05 7.63606E-05 5.29396E-23
 -1       776-1.48084E-05 8.17266E-05 5.29396E-23
 -1       777-1.70754E-05 8.36516E-05 0.00000E+00
 -1       778-1.81637E-05 8.24450E-05-2.64698E-23
 -1       779-1.82014E-05 7.84245E-05 0.00000E+00
 -1       780-1.73192E-05 7.19192E-05 0.00000E+00
 -1       781-1.56462E-05 6.32650E-05-5.29396E-23
 -1       782-1.33137E-05 5.28069E-05 0.00000E+00
 -1       783-1.04517E-05 4.08942E-05 0.00000E+00
 -1       784-7.19158E-06 2.78826E-05 0.00000E+00
 -1       785-3.66362E-06 1.41308E-05 5.29396E-23
 -1       786 1.93781E-04 3.23976E-05 3.23117E-27
 -1       787 1.93822E-04 3.01913E-05 0.00000E+00
 -1       788 1.93863E-04 2.80274E-05 0.00000E+00
 -1       789 1.93905E-04 2.58976E-05 4.13590E-25
 -1       790 1.93946E-04 2.37972E-05 0.00000E+00
 -1       791 1.93988E-04 2.17214E-05-8.27181E-25
 -1       792 1.94030E-04 1.96678E-05 0.00000E+00
 -1       793 1.94073E-04 1.76343E-05 0.00000E+00
 -1       794 1.94115E-04 1.56205E-05 0.00000E+00
 -1       795 1.94157E-04 1.36263E-05 8.27181E-25
 -1       796 1.94199E-04 1.16534E-05 0.00000E+00
 -1       797 1.94241E-04 9.70371E-06 8.27181E-25
 -1       798 1.94284E-04 7.78124E-06 0.00000E+00
 -1       799 1.94326E-04 5.89024E-06 0.00000E+00
 -1       800 1.94369E-04 4.03802E-06-1.65436E-24
 -1       801 1.47945E-04 3.11547E-05 0.00000E+00
 -1       802 9.46337E-06 1.94361E-05 0.00000E+00
 -1       803-1.08826E-04 9.81672E-06 5.29396E-23
 -1       804-9.64733E-05 6.83294E-06 0.00000E+00
 -1       805-3.18765E-05 2.68508E-06 0.00000E+00
 -1       806 1.94473E-04 3.23276E-05-1.65436E-24
 -1       807 1.95189E-04 3.00267E-05 0.00000E+00
 -1       808 1.95892E-04 2.77573E-05 3.30872E-24
 -1       809 1.96581E-04 2.55234E-05 1.65436E-24
 -1       810 1.97255E-04 2.33295E-05-3.30872E-24
 -1       811 1.97913E-04 2.11794E-05 0.00000E+00
 -1       812 1.98553E-04 1.90773E-05-3.30872E-24
 -1       813 1.99174E-04 1.70273E-05 1.65436E-24
 -1       814 1.99774E-04 1.50333E-05 0.00000E+00
 -1       815 2.00351E-04 1.30995E-05 1.65436E-24
 -1       816 2.00904E-04 1.12299E-05-1.65436E-24
 -1       817 2.01432E-04 9.42851E-06-1.65436E-24
 -1       818 2.01933E-04 7.69931E-06 1.65436E-24
 -1       819 2.02406E-04 6.04635E-06-1.65436E-24
 -1       820 2.02849E-04 4.47359E-06-1.65436E-24
 -1       821 1.94282E-04-1.75088E-07-1.65436E-24
 -1       822 1.94141E-04-3.82485E-06 0.00000E+00
 -1       823 1.93997E-04-8.26277E-06-3.30872E-24
 -1       824 1.93851E-04-1.30294E-05-1.65436E-24
 -1       825 1.93705E-04-1.75762E-05-3.30872E-24
 -1       826 1.93562E-04-2.13558E-05 0.00000E+00
 -1       827 1.93422E-04-2.40304E-05 0.00000E+00
 -1       828 1.93286E-04-2.52691E-05 1.65436E-24
 -1       829 1.93149E-04-2.51333E-05-3.30872E-24
 -1       830 1.93012E-04-2.36925E-05 1.65436E-24
 -1       831 1.92874E-04-2.13727E-05 0.00000E+00
 -1       832 1.92734E-04-1.86053E-05 1.65436E-24
 -1       833 1.92595E-04-1.59442E-05-3.30872E-24
 -1       834 1.92459E-04-1.39424E-05 1.65436E-24
 -1       835 1.92324E-04-1.29736E-05-8.27181E-25
 -1       836 1.96103E-04 2.35688E-06 3.30872E-24
 -1       837 1.97666E-04 2.48488E-06 1.65436E-24
 -1       838 1.99133E-04 2.61283E-06 0.00000E+00
 -1       839 2.00534E-04 2.74007E-06 8.27181E-25
 -1       840 2.01900E-04 2.86716E-06 8.27181E-25
 -1       856 1.92181E-04-1.44656E-05 0.00000E+00
 -1       857 1.92162E-04-1.53909E-05-2.58494E-26
 -1       858 1.92143E-04-1.62017E-05-2.06795E-25
 -1       859 1.92123E-04-1.69192E-05 2.06795E-25
 -1       860 1.92104E-04-1.75647E-05 0.00000E+00
 -1       861 1.92084E-04-1.81592E-05-2.06795E-25
 -1       862 1.92065E-04-1.87242E-05 0.00000E+00
 -1       863 1.92045E-04-1.92809E-05 2.06795E-25
 -1       864 1.92025E-04-1.98507E-05 8.27181E-25
 -1       865 1.92006E-04-2.04548E-05-4.13590E-25
 -1       866 1.91986E-04-2.11145E-05 8.27181E-25
 -1       867 1.91966E-04-2.18512E-05 4.13590E-25
 -1       868 1.91946E-04-2.26859E-05-8.27181E-25
 -1       869 1.91926E-04-2.36398E-05 0.00000E+00
 -1       870 1.91905E-04-2.47338E-05 0.00000E+00
 -1       871 1.93546E-04-1.34096E-05 8.27181E-25
 -1       872 1.95042E-04-1.34178E-05 0.00000E+00
 -1       873 1.96619E-04-1.34267E-05-4.13590E-25
 -1       874 1.98206E-04-1.34363E-05-1.29247E-25
 -1       875 1.99737E-04-1.34465E-05-1.44757E-24
 -1       876 1.92722E-04-1.44510E-05 0.00000E+00
 -1       877 1.93225E-04-1.54306E-05 1.65436E-24
 -1       878 1.93706E-04-1.63516E-05 3.30872E-24
 -1       879 1.94169E-04-1.72213E-05 0.00000E+00
 -1       880 1.94615E-04-1.80471E-05 0.00000E+00
 -1       881 1.95047E-04-1.88363E-05-1.65436E-24
 -1       882 1.95468E-04-1.95963E-05 0.00000E+00
 -1       883 1.95882E-04-2.03344E-05 0.00000E+00
 -1       884 1.96289E-04-2.10579E-05 0.00000E+00
 -1       885 1.96695E-04-2.17741E-05 1.65436E-24
 -1       886 1.97100E-04-2.24904E-05 0.00000E+00
 -1       887 1.97507E-04-2.32140E-05-1.65436E-24
 -1       888 1.97920E-04-2.39524E-05 0.00000E+00
 -1       889 1.98341E-04-2.47129E-05 1.65436E-24
 -1       890 1.98772E-04-2.55029E-05 0.00000E+00
 -1       891 1.93247E-04-2.60466E-05 1.65436E-24
 -1       892 1.94587E-04-2.61043E-05 8.27181E-25
 -1       893 1.95878E-04-2.61619E-05 0.00000E+00
 -1       894 1.97096E-04-2.62193E-05-4.13590E-25
 -1       895 1.98215E-04-2.62764E-05 0.00000E+00
 -1       956 2.03132E-04 1.67173E-06 0.00000E+00
 -1       957 2.03000E-04 4.48743E-07 1.65436E-24
 -1       958 2.02867E-04-6.94648E-07-3.30872E-24
 -1       959 2.02734E-04-1.76968E-06 1.65436E-24
 -1       960 2.02601E-04-2.78766E-06 0.00000E+00
 -1       961 2.02469E-04-3.75988E-06 0.00000E+00
 -1       962 2.02336E-04-4.69768E-06-3.30872E-24
 -1       963 2.02203E-04-5.61242E-06 0.00000E+00
 -1       964 2.02070E-04-6.51543E-06 3.30872E-24
 -1       965 2.01937E-04-7.41806E-06-1.65436E-24
 -1       966 2.01804E-04-8.33166E-06-3.30872E-24
 -1       967 2.01672E-04-9.26758E-06 1.65436E-24
 -1       968 2.01539E-04-1.02371E-05 0.00000E+00
 -1       969 2.01406E-04-1.12517E-05 3.30872E-24
 -1       970 2.01274E-04-1.23224E-05-3.30872E-24
 -1       971 2.01023E-04-1.45972E-05-3.30872E-24
 -1       972 2.00902E-04-1.56393E-05 1.65436E-24
 -1       973 2.00781E-04-1.65972E-05-3.30872E-24
 -1       974 2.00659E-04-1.74816E-05 1.65436E-24
 -1       975 2.00538E-04-1.83034E-05 3.30872E-24
 -1       976 2.00416E-04-1.90735E-05-1.65436E-24
 -1       977 2.00295E-04-1.98028E-05-3.30872E-24
 -1       978 2.00173E-04-2.05021E-05-1.65436E-24
 -1       979 2.00052E-04-2.11826E-05 0.00000E+00
 -1       980 1.99930E-04-2.18549E-05-1.65436E-24
 -1       981 1.99809E-04-2.25302E-05 3.30872E-24
 -1       982 1.99688E-04-2.32193E-05 0.00000E+00
 -1       983 1.99567E-04-2.39331E-05 3.30872E-24
 -1       984 1.99446E-04-2.46825E-05-1.65436E-24
 -1       985 1.99326E-04-2.54785E-05-3.30872E-24
 -3
    1PSTEP                        32          16           1          
  100CL  116 6.63036E-01         409                     0   16           1
 -4  STRESS      6    1
 -5  SXX         1    4    1    1
 -5  SYY         1    4    2    2
 -5  SZZ         1    4    3    3
 -5  SXY         1    4    1    2
 -5  SYZ         1    4    2    3
 -5  SZX         1    4    3    1
 -1         1-5.34447E+06-1.58688E+06-1.13335E+06-1.34571E+06-6.54836E-10-1.07888E-07
 -1         2 1.49255E+06 2.18847E+07 5.09746E+06 6.61584E+06 2.76486E-08 7.60774E-08
 -1         3-1.48874E+03-1.55863E+06 4.05909E+02-2.21271E+03-6.67573E-10-2.06055E-08
 -1         5-7.52016E+01 3.86524E+05 9.98112E+00-1.34265E+00-4.59121E-10 1.83900E-08
 -1         8-5.56192E+05-2.01069E+05-6.29150E+04-2.44201E+05 5.16593E-10 9.94332E-08
 -1         9 1.17797E+07 3.83883E+06 2.79328E+06-3.29478E+05-1.50292E-08 5.12227E-09
 -1        10-2.30525E+03-1.62421E+06-3.94698E+03-1.49725E+04-1.35078E-08-9.78480E-09
 -1        12-7.12834E+01 3.86545E+05 3.28101E+02-9.15148E+00-6.13472E-10 5.22359E-08
 -1        15 9.29111E+02 5.10592E+02 3.00333E+03 8.26511E-01-3.10649E-10 4.54351E-07
 -1        16 2.29156E+07-3.30518E+05 3.11926E+06-2.28286E+06-4.98646E-09-3.39933E-08
 -1        17 8.38910E+06 6.28734E+06 2.26628E+06 6.01507E+06 2.33122E-08 2.34460E-08
 -1        18 1.42524E+05 3.35566E+04 4.17533E+03-1.19630E+05 1.27175E-08-1.15824E-08
 -1        19 1.22483E+05 1.41659E+05-9.59386E+02 2.20669E+04 1.64782E-09 6.92453E-09
 -1        20-8.20344E+04-5.73396E+05-1.28674E+05 2.50836E+04-2.27359E-09-7.14256E-10
 -1        21-4.55707E+01-2.96044E+05-9.23845E+02 2.75123E+02 1.64984E-08 1.67123E-08
 -1        24 1.40597E+07 1.21086E+07 3.89214E+06 1.12112E+07-1.64757E-07-5.65778E-08
 -1        25 1.23827E+05 2.67657E+05 9.99046E+04-6.46444E+05 1.16343E-09 6.60293E-11
 -1        26-5.61121E+04 9.20091E+04-2.47773E+04 1.44763E+03-3.92174E-10 9.14092E-09
 -1        27-7.56063E+04-3.09754E+05-1.13334E+05 6.90609E+04 3.43956E-09-9.81042E-10
 -1        28 2.22424E+04-8.53834E+04 1.69016E+04 2.05709E+04-2.91072E-09 1.09441E-08
 -1        32-1.68056E+06-3.18142E+06-1.97495E+05 4.58282E+05-4.25425E-08-1.54954E-08
 -1        33-1.79987E+05 9.24723E+04 3.22906E+04-3.89170E+04-3.43554E-09-5.36996E-09
 -1        34-2.23697E+05-2.49394E+04 6.91715E+02 7.56082E+04-5.80642E-09 9.25108E-10
 -1        35-2.29267E+04-3.38693E+04-1.34907E+03 5.15064E+04-4.69837E-09 3.51793E-09
 -1        51 6.07628E+04-1.71504E+05 1.28481E+05-4.37323E+05-2.18279E-10 2.60115E-08
 -1        52 2.05566E+04-1.49041E+05 6.73768E+04-5.10048E+05-9.27685E-11-1.94836E-07
 -1        53 4.17169E+03-1.64403E+05 3.50205E+04-4.35821E+05 4.00178E-10-3.39860E-08
 -1        54 7.32667E+03-1.60190E+05 2.86446E+04-5.11518E+05-8.36735E-11-1.37316E-07
 -1        55 1.59706E+04-1.67166E+05 3.46877E+04-4.35731E+05 4.32919E-10 1.82737E-07
 -1        56-9.79511E+06-1.37827E+06-9.18536E+05-4.09119E+06-6.37374E-09-8.41683E-08
 -1        57-1.10858E+07-8.09731E+05-5.47035E+05-2.70434E+06 2.34068E-08 8.06831E-08
 -1        58-9.59538E+06-1.84579E+06-2.01468E+05-4.28486E+06-3.46481E-08-1.42172E-08
 -1        59-1.12720E+07-2.71208E+05-1.07972E+05-2.63094E+06-1.86265E-09 1.87974E-08
 -1        60-9.69061E+06-1.84967E+06-5.78713E+04-4.23657E+06-1.74259E-08-1.42863E-07
 -1        61-1.06044E+07-6.14530E+05 1.73102E+04-2.88245E+06-3.84462E-08-1.35216E-07
 -1        62-1.01225E+07-1.59733E+06-7.88188E+04-3.92187E+06-5.17175E-08 2.45236E-07
 -1        63-9.68136E+06-1.34253E+06 5.67534E+04-3.59677E+06-1.16415E-10 4.05213E-07
 -1        64-1.05008E+07-1.20203E+06-7.25016E+04-3.45099E+06-1.32277E-08-3.09654E-07
 -1        65-9.30134E+06-1.96009E+06 1.41673E+04-4.52619E+06-5.35692E-08-1.95672E-07
 -1        66-1.06331E+07-8.89170E+05-4.73142E+04-3.09103E+06-8.54197E-09-3.57868E-08
 -1        67-9.31898E+06-2.22099E+06-9.71678E+04-4.96778E+06-3.76403E-08-2.15587E-07
 -1        68-1.06134E+07-8.49702E+05-1.87109E+05-3.09037E+06-4.71973E-08 6.86850E-09
 -1        69-9.49428E+06-2.29959E+06-4.86278E+05-4.49342E+06-1.85464E-08-3.54252E-07
 -1        70-1.03371E+07-9.07131E+05-8.43750E+05-3.48606E+06 2.75741E-08-8.02102E-08
 -1        86-1.52277E+06-1.56114E+07-2.79029E+06-3.10756E+06-2.65758E-07-1.52926E-07
 -1        87 2.39335E+06 6.29950E+06 2.32079E+06 5.74778E+06-4.54114E-07-2.91493E-07
 -1        88-4.50355E+05-1.95240E+06 2.19361E+05-2.56426E+06-4.18597E-07-7.89805E-08
 -1        89 3.20490E+06 6.00270E+06 2.37842E+06 5.94051E+06-5.62221E-07-3.68163E-07
 -1        90-2.24019E+06-1.53907E+07-3.01271E+06-3.32944E+06-1.43573E-07 2.29338E-08
 -1       121-2.03936E+03-1.56353E+06-5.47708E+02 1.09672E+03 1.43596E-09 1.05356E-08
 -1       122-1.30289E+03-1.55869E+06 7.69555E+02-4.42952E+03-5.33349E-09 9.96442E-09
 -1       123-2.05911E+03-1.56366E+06 2.60308E+02 3.27541E+03 4.25109E-09 2.85509E-08
 -1       124 3.33664E+02-1.55824E+06 2.94911E+03-9.26885E+03-1.03710E-08 2.71102E-08
 -1       125-2.86803E+03-1.56456E+06 3.45929E+03 5.89005E+03 6.95218E-09-1.08630E-08
 -1       191-7.92487E+01 3.86542E+05 8.48963E+00 7.00035E-01-5.44639E-10-8.50923E-09
 -1       192-7.61652E+01 3.86524E+05 2.12993E+01-4.30449E+00-8.28910E-10-1.92158E-08
 -1       193-8.17853E+01 3.86541E+05 3.62644E+01 3.78026E+00-1.10305E-09 5.18230E-09
 -1       194-7.92547E+01 3.86528E+05 8.09702E+01-9.76740E+00-5.47232E-10 4.62933E-10
 -1       195-8.66538E+01 3.86539E+05 1.55022E+02 6.35607E+00-1.46363E-09 8.88394E-09
 -1       251-8.62257E+05 1.60779E+04-3.75405E+04-1.42641E+04 5.93705E-09-9.84437E-08
 -1       252-8.76483E+05-1.86055E+04-2.61192E+04 5.02269E+04-7.51425E-09-4.42756E-08
 -1       253-8.70601E+05 2.46649E+03-1.01087E+04-1.00554E+04 3.85717E-09 1.32206E-07
 -1       254-8.63203E+05-2.98845E+03-4.53223E+03 3.57172E+04-3.82261E-09-5.28182E-08
 -1       255-8.74931E+05 5.84992E+01-3.49938E+03 2.41938E+02-5.88807E-09-1.91289E-08
 -1       256-8.57878E+05-2.73293E+02 1.15728E+03 1.23653E+04 3.06045E-09-7.26777E-09
 -1       257-8.75491E+05-5.69760E+02-1.36856E+03 1.32854E+04 2.16028E-09-7.53553E-08
 -1       258-8.60667E+05 9.01901E+02 2.68557E+03-1.21684E+04 8.66351E-09 1.04870E-07
 -1       259-8.72388E+05-9.26814E+02 1.38323E+03 2.47733E+04-7.75844E-09 1.58417E-07
 -1       260-8.66965E+05 2.92518E+03 5.57251E+03-2.98584E+04-8.87235E-09-3.75834E-08
 -1       261-8.69820E+05-2.10926E+03 8.66893E+03 3.09913E+04 1.20866E-08-6.99879E-08
 -1       262-8.65594E+05 1.17810E+04 2.15305E+04-3.50237E+04-2.11787E-08-3.35677E-07
 -1       263-8.74008E+05-9.55735E+03 3.41178E+04 2.99479E+04 4.19163E-09-3.75985E-09
 -1       264-8.35102E+05 6.71040E+04 9.44388E+04-2.58719E+04 1.72303E-08 5.18370E-07
 -1       265-8.99820E+05-5.75606E+04 1.31540E+05 2.18275E+04 2.15474E-08 3.02345E-07
 -1       266-1.68202E+04-7.86598E+03 3.94612E+04-1.76834E+01 1.49157E-10 5.94525E-08
 -1       267 1.94990E+04 9.16668E+03 2.78926E+04 2.04049E+01 1.44155E-10 1.78766E-07
 -1       268-2.61480E+03-1.29833E+03 1.03674E+04-2.59984E+00 4.22915E-11 1.02131E-07
 -1       269 3.08729E+03 1.55374E+03 6.73876E+03 3.02853E+00-5.42286E-11-8.85860E-08
 -1       270-4.63406E+02-2.55296E+02 3.25290E+03-4.10988E-01 1.64050E-10 1.79205E-07
 -1       271-1.47966E+06-1.88336E+05-1.11455E+05-5.75769E+05 3.00442E-08-9.36125E-08
 -1       272-1.47538E+06-3.01780E+05-7.00082E+04-6.14194E+05-4.52419E-08 9.93750E-08
 -1       273-1.50319E+06-2.12017E+05-2.70262E+04-5.67751E+05-2.30102E-08-1.56642E-07
 -1       274-1.44858E+06-2.73268E+05-1.40642E+04-6.29330E+05 3.36295E-08-2.80663E-07
 -1       275-1.50878E+06-2.11597E+05-6.73262E+03-5.63995E+05-1.02773E-08-6.24959E-08
 -1       276-1.44296E+06-2.74181E+05-2.84380E+03-6.37917E+05 1.37770E-08 2.45521E-07
 -1       277-1.51159E+06-2.08981E+05-1.86424E+03-5.61275E+05-1.73532E-08 1.16563E-07
 -1       278-1.44079E+06-2.77368E+05-7.12646E+02-6.44225E+05 2.62680E-08-3.81224E-08
 -1       279-1.51338E+06-2.06844E+05-8.64039E+02-5.59369E+05-3.18323E-10-2.44347E-07
 -1       280-1.43978E+06-2.79763E+05-9.89923E+02-6.48366E+05-2.17369E-08-1.97841E-07
 -1       281-1.51433E+06-2.05498E+05-1.82906E+03-5.58298E+05-8.13543E-09-7.30369E-08
 -1       282-1.44015E+06-2.81937E+05-4.25367E+03-6.50059E+05-1.58707E-10-1.67529E-09
 -1       283-1.51383E+06-2.04269E+05-7.57116E+03-5.58177E+05 2.38086E-08-1.36073E-07
 -1       284-1.44694E+06-2.91845E+05-2.06232E+04-6.47868E+05-1.80156E-08-3.39518E-07
 -1       285-1.50745E+06-1.96771E+05-3.22067E+04-5.59968E+05 3.72233E-08-3.93247E-08
 -1       301-7.36485E+03-6.47801E+05 1.66902E+05-1.13854E+06-4.07454E-09 2.72266E-08
 -1       302-9.18762E+03-6.00960E+05 1.00443E+05-1.66177E+06-2.03363E-08-1.26089E-07
 -1       303-2.19577E+04-6.40368E+05 5.67325E+04-1.13540E+06 9.09495E-09 2.28067E-07
 -1       304-2.50284E+04-6.08075E+05 5.70604E+04-1.66120E+06 9.54606E-09-1.41881E-07
 -1       305-2.63065E+04-6.29105E+05 7.01115E+04-1.13850E+06 6.86850E-09-2.47805E-07
 -1       306-3.01462E+07-6.22144E+06-8.61497E+06-4.96836E+05-1.06869E-07-1.32219E-07
 -1       307 2.53237E+07 3.28721E+06 5.51321E+06-1.52682E+07-7.03323E-07 1.67260E-07
 -1       308-6.93051E+06-1.01859E+06-4.41011E+05 5.21350E+06-4.45580E-07 3.02723E-07
 -1       309-3.20786E+06 8.75543E+06 2.29447E+06-2.07078E+07 9.00509E-08 1.18605E-07
 -1       310-1.26336E+07-1.95503E+06-2.05720E+06 5.22325E+06-2.96859E-09-3.55256E-07
 -1       311 3.86372E+07 4.15299E+03 7.31005E+06-8.75244E+06 7.72532E-07-1.89058E-07
 -1       312-3.19906E+07-6.80944E+06-8.56498E+06-5.09050E+06-6.98492E-08 1.05356E-07
 -1       313 4.54530E+07 1.51496E+07 1.06931E+07 2.39201E+07-1.98954E-07 1.81462E-07
 -1       314-1.71855E+07-1.78591E+07-7.53432E+06-1.25464E+07 5.41389E-07-2.50875E-08
 -1       315-1.90505E+06 2.98220E+07 5.67173E+06 1.04867E+07-4.18499E-07 1.75409E-07
 -1       316 1.42888E+06-9.83638E+06-4.31445E+05-2.49964E+06-1.33556E-06-1.64175E-07
 -1       317-1.71028E+07 2.24528E+07 2.24824E+06-8.88342E+06 6.86814E-07-7.80215E-07
 -1       318-1.08205E+06-1.28422E+07-2.06082E+06-4.24132E+06-9.04634E-07 1.26311E-07
 -1       319 7.28386E+06 3.20865E+07 7.06862E+06 1.66859E+07-4.39177E-08 2.76952E-07
 -1       320-2.26457E+07-1.76902E+07-9.88339E+06-1.28433E+07 1.58674E-07-7.65722E-08
 -1       336-7.47283E+02-1.69258E+06-1.38476E+04 8.91255E+03-2.65136E-08 9.77889E-09
 -1       337-5.40974E+03-1.69212E+06-1.80683E+04-2.16506E+04-4.89890E-08 7.50151E-09
 -1       338 2.73652E+02-1.69206E+06-2.84624E+04 1.24869E+04-3.46072E-08-4.98767E-09
 -1       339-3.02035E+04-1.70935E+06-6.43265E+04-2.86526E+04-6.26496E-08-4.81668E-09
 -1       340 1.98931E+04-1.67752E+06-1.01333E+05 1.57835E+04-4.19968E-08 1.50467E-08
 -1       406-4.95772E+01 3.86524E+05 6.44227E+02 3.34764E+00-1.80437E-09 7.63066E-09
 -1       407 1.54959E+02 3.86659E+05 1.37675E+03 2.33899E+01-5.28566E-10-3.20824E-08
 -1       408 6.35066E+02 3.86424E+05 2.74512E+03-2.70585E+01-2.57569E-09-3.13103E-08
 -1       409 2.90730E+03 3.87535E+05 6.18726E+03 2.88891E+02-3.51520E-10-3.86171E-08
 -1       410 8.48067E+03 3.85634E+05 1.26279E+04-2.78585E+02-2.82489E-09-3.40588E-08
 -1       521-3.17229E+07-7.69148E+06-1.00798E+07-1.00930E+05-1.11642E-07-3.68629E-07
 -1       522 2.62228E+07 4.33498E+06 5.62995E+06-1.88037E+07-4.58065E-07-1.43424E-07
 -1       523-7.50227E+06-1.33449E+06-4.32412E+05 5.66748E+06 4.25498E-08-2.52126E-07
 -1       524-6.71537E+06 1.18491E+07 2.48609E+06-2.37940E+07 1.10894E-06-8.50843E-07
 -1       525-1.34330E+07-2.60021E+06-2.26492E+06 5.68282E+06 4.30329E-07-4.71482E-07
 -1       526 4.22491E+07-9.33815E+04 7.68081E+06-1.14093E+07-1.06927E-07-1.14698E-07
 -1       527-3.38741E+07-8.52236E+06-9.88634E+06-4.95578E+06-4.51342E-07 2.12458E-08
 -1       528 4.96891E+07 1.69213E+07 1.11674E+07 2.72434E+07 2.09606E-07 1.16939E-07
 -1       529-1.81341E+07-2.01010E+07-8.65016E+06-1.25821E+07 1.75205E-07 2.80794E-07
 -1       530-4.39432E+06 3.46765E+07 6.01097E+06 9.92587E+06 6.72298E-08 8.41916E-07
 -1       531 1.43585E+06-1.09141E+07-4.03335E+05-2.43620E+06-7.56205E-07 4.39410E-07
 -1       532-1.96047E+07 2.44726E+07 2.46107E+06-1.32259E+07 4.43149E-07-5.81691E-07
 -1       533-1.12273E+06-1.40086E+07-2.19869E+06-4.03769E+06-2.87255E-07-9.65840E-07
 -1       534 5.28707E+06 3.72954E+07 7.36671E+06 1.72850E+07-6.42030E-08 7.93196E-07
 -1       535-2.38474E+07-2.01183E+07-1.13475E+07-1.29221E+07 1.04075E-07 4.84753E-07
 -1       536-7.06358E+05-4.67719E+04-4.82418E+04-5.47204E+04-4.96630E-09 5.78011E-08
 -1       537-5.46731E+04 4.47089E+04 8.39652E+04 1.23921E+05-1.26387E-07 8.80787E-08
 -1       538-3.94427E+05 3.34949E+03 3.54768E+03-7.22391E+04 2.35319E-08 1.13283E-07
 -1       539-2.68964E+05 2.85504E+03 2.49351E+04 1.38815E+05 1.96211E-07 1.27867E-07
 -1       540-4.97451E+05-4.28816E+02-2.13445E+04-7.01496E+04 2.36178E-08 1.26014E-07
 -1       541 1.47108E+05 1.69863E+04 1.06477E+05 9.79921E+04-2.73189E-08 8.02189E-08
 -1       542-7.99288E+05-2.01522E+04-8.43097E+04-3.05399E+04 1.36670E-08 3.98448E-08
 -1       543 4.06017E+05 2.73490E+04 1.58107E+05-1.33687E+04-5.49026E-08 1.82354E-09
 -1       544-7.49415E+05-1.65517E+04-7.49011E+04 4.05407E+04-3.89923E-08-4.82717E-08
 -1       545 2.93189E+04 9.49298E+03 7.98812E+04-1.13691E+05 8.27970E-09-8.85486E-08
 -1       546-4.32707E+05 6.10019E+03-1.22391E+04 6.94358E+04 2.53588E-08-7.40380E-08
 -1       547-2.87054E+05-4.65660E+03 1.06016E+04-1.41662E+05-1.00716E-07-9.26010E-08
 -1       548-4.41548E+05 4.72124E+03-2.38946E+04 6.92031E+04-1.00450E-07-9.32969E-08
 -1       549 4.85156E+04 1.61040E+04 6.05915E+04-1.11553E+05-6.40665E-08-6.01276E-08
 -1       550-7.59297E+05-2.21748E+04-1.29048E+05 3.86100E+04 7.35326E-09-3.30001E-08
 -1       551 4.08041E+04-7.50797E+05-1.58888E+04-1.24728E+06-1.03842E-07-2.32831E-10
 -1       552 9.32901E+04-7.95791E+05 9.92424E+03-1.77845E+06-7.55535E-08 5.41404E-08
 -1       553 7.17837E+04-7.92195E+05 3.20447E+04-1.24063E+06-1.16910E-07 3.10101E-08
 -1       554 1.32092E+05-8.11691E+05 8.10692E+04-1.78040E+06-7.23812E-08 2.56423E-08
 -1       555 1.01531E+05-8.15849E+05 1.48055E+05-1.24046E+06-1.22913E-07-1.08939E-08
 -1       556 2.23784E+05-3.83776E+05 2.57248E+04-4.07308E+05-2.49420E-08-1.43191E-08
 -1       557 3.54381E+05-4.88147E+05 1.61364E+04-5.27765E+05 4.07454E-10-3.86353E-09
 -1       558 2.05544E+05-3.76561E+05 2.31512E+03-4.11757E+05-1.88884E-08 1.29221E-08
 -1       559 3.29353E+05-4.88210E+05 2.43690E+03-5.48228E+05 1.62836E-08 1.36424E-09
 -1       560 1.90228E+05-3.66956E+05-1.50897E+03-4.22794E+05 7.30506E-09 1.89466E-08
 -1       561 3.10109E+05-4.80508E+05 1.28621E+02-5.61350E+05-9.56061E-09-5.35510E-09
 -1       562 1.78117E+05-3.59433E+05-1.32876E+03-4.31564E+05 2.70666E-09 1.08957E-08
 -1       563 2.95724E+05-4.74236E+05-3.73509E+01-5.70746E+05-4.14730E-10-2.11858E-08
 -1       564 1.69474E+05-3.54047E+05-6.01580E+02-4.37689E+05 7.56700E-09 3.82215E-09
 -1       565 2.86182E+05-4.70080E+05 2.43124E+01-5.76843E+05 9.25502E-09 3.84716E-10
 -1       566 1.64420E+05-3.50850E+05-2.59307E+02-4.41224E+05-6.33736E-09-1.46538E-08
 -1       567 2.81542E+05-4.68062E+05-3.60089E+02-5.79661E+05 1.91576E-08-1.37297E-08
 -1       568 1.63046E+05-3.50009E+05-1.12088E+03-4.42281E+05-1.47702E-08-1.61854E-08
 -1       569 2.80420E+05-4.67984E+05-2.83191E+03-5.78233E+05-1.95814E-08 1.07175E-08
 -1       570 1.66444E+05-3.53239E+05-6.19430E+03-4.41264E+05 6.24277E-09-1.60826E-08
 -1       571 2.90840E+05 1.05214E+04 1.50081E+04-9.53047E+04 1.04901E-08 1.86942E-08
 -1       572 2.93015E+05 3.96662E+03 7.35516E+03-1.04560E+05 2.05628E-08 1.47338E-10
 -1       573 2.91704E+05 1.24861E+03 3.26814E+03-9.51285E+04 2.08620E-08 1.34787E-08
 -1       574 2.91919E+05 7.29521E+02 1.63895E+03-1.04784E+05 2.58196E-08 8.32461E-09
 -1       575 2.91798E+05 4.49781E+02 7.73552E+02-9.51044E+04 1.10366E-08-9.62518E-09
 -1       576 2.91783E+05 4.61165E+02 3.96080E+02-1.04814E+05-1.03194E-08-1.88902E-08
 -1       577 2.91839E+05 3.91411E+02 1.97766E+02-9.51011E+04-1.03937E-08-6.82030E-09
 -1       578 2.91814E+05 4.22834E+02 1.14338E+02-1.04818E+05-8.87349E-09 9.88621E-10
 -1       579 2.91911E+05 3.54436E+02 7.86786E+01-9.51007E+04 7.14135E-09 7.09861E-09
 -1       580 2.91916E+05 3.71495E+02 9.15541E+01-1.04813E+05-6.78119E-09-5.68707E-09
 -1       581 2.92026E+05 2.95567E+02 1.38506E+02-9.51067E+04 7.25231E-09 5.05224E-09
 -1       582 2.92092E+05 3.34122E+02 2.81742E+02-1.04752E+05 3.62252E-09 3.29364E-08
 -1       583 2.92167E+05 3.38790E+02 5.40890E+02-9.51634E+04 3.61251E-09 1.09385E-08
 -1       584 2.92470E+05 7.80588E+02 1.22399E+03-1.04274E+05 7.29233E-09-2.47560E-08
 -1       585 2.92192E+05 1.81112E+03 2.47863E+03-9.55835E+04-2.43563E-09-8.00355E-10
 -1       586-3.43338E+03 1.16996E+05-2.92254E+03-2.51004E+05-6.08725E-09-1.99730E-08
 -1       587-1.34410E+03 1.16747E+05 7.73318E+02-2.76250E+05-8.97307E-09-6.73720E-09
 -1       588 3.97009E+02 1.16554E+05 4.76988E+03-2.50866E+05-5.92263E-09 1.00927E-08
 -1       589 5.09322E+03 1.19034E+05 1.23710E+04-2.76015E+05-7.78164E-09 2.36014E-09
 -1       590 1.66423E+04 1.15219E+05 2.59505E+04-2.51299E+05-6.69934E-09-1.16888E-08
 -1       591-7.50464E+04-1.59553E+04-2.25503E+04-3.19435E+04 1.93040E-10 1.16579E-08
 -1       592-7.91532E+04-1.95026E+04-1.22151E+04-3.55563E+04 5.29496E-09 3.31784E-09
 -1       593-7.73014E+04-1.43193E+04-5.08451E+03-3.35972E+04 6.63661E-10-1.45556E-08
 -1       594-7.60400E+04-1.61933E+04-2.53577E+03-3.56738E+04 3.55350E-09 1.46156E-08
 -1       595-7.74733E+04-1.43139E+04-1.16415E+03-3.36724E+04-8.30046E-09-1.32323E-09
 -1       596-7.58268E+04-1.60420E+04-5.91548E+02-3.56485E+04 2.40392E-09 1.90667E-08
 -1       597-7.74949E+04-1.43294E+04-3.21585E+02-3.36752E+04 6.10157E-09 2.89149E-08
 -1       598-7.58058E+04-1.60360E+04-2.57543E+02-3.56413E+04-1.44382E-10 1.14119E-08
 -1       599-7.74936E+04-1.43299E+04-3.27768E+02-3.36749E+04 2.72985E-09-4.83590E-09
 -1       600-7.58268E+04-1.60425E+04-6.07917E+02-3.56463E+04-1.15904E-09-1.52438E-08
 -1       601-7.74690E+04-1.43154E+04-1.19878E+03-3.36714E+04-4.08795E-09-4.82032E-10
 -1       602-7.60462E+04-1.61972E+04-2.61235E+03-3.56685E+04-7.55290E-09-6.48845E-09
 -1       603-7.72892E+04-1.43238E+04-5.23871E+03-3.35948E+04 4.56862E-09 4.49695E-08
 -1       604-7.92717E+04-1.95870E+04-1.25846E+04-3.55224E+04 3.52975E-09 1.83254E-08
 -1       605-7.49457E+04-1.60274E+04-2.32327E+04-3.19106E+04-1.87401E-09-8.80937E-09
 -1       606 2.66225E+04-1.43431E+04-2.57120E+04 2.40099E+04 6.89670E-09-1.84818E-08
 -1       607 2.22293E+04-4.68454E+03-1.28045E+04 2.69821E+04 3.74712E-10-2.63899E-08
 -1       608 2.47331E+04-8.45195E+02-5.73213E+03 2.38411E+04-5.21868E-09-1.43814E-09
 -1       609 2.42531E+04-2.89649E+02-2.89572E+03 2.71963E+04-2.30557E-09 3.14230E-09
 -1       610 2.45192E+04-4.11436E+01-1.38158E+03 2.38210E+04 4.13183E-09 4.47244E-10
 -1       611 2.44439E+04-4.14182E+01-6.96585E+02 2.72194E+04 7.64703E-09-1.30058E-09
 -1       612 2.44721E+04-2.74137E+01-3.31144E+02 2.38189E+04 2.01635E-09-1.27784E-08
 -1       613 2.44555E+04-3.73162E+01-1.48369E+02 2.72222E+04 6.23322E-09-1.99216E-08
 -1       614 2.44499E+04-3.38325E+01-3.47332E+01 2.38182E+04 3.32147E-09 1.65574E-09
 -1       615 2.44502E+04-3.58199E+01 6.23272E+01 2.72226E+04-3.30601E-10-1.52418E-08
 -1       616 2.44325E+04-3.07015E+01 1.86768E+02 2.38185E+04 1.58570E-09 1.18143E-09
 -1       617 2.44727E+04 3.98454E+00 4.26068E+02 2.72221E+04-9.09495E-11-1.69496E-08
 -1       618 2.43955E+04 9.21287E+01 8.58791E+02 2.38188E+04 2.05318E-09-5.74983E-09
 -1       619 2.47758E+04 6.68005E+02 1.92847E+03 2.72215E+04 2.98655E-10 8.97535E-09
 -1       620 2.41103E+04 2.12855E+03 3.87617E+03 2.38204E+04 6.00267E-11 3.73348E-09
 -1       621 5.05129E+02 3.01151E+05 3.83931E+03 4.12992E+04 9.91349E-10 3.18687E-09
 -1       622 6.72264E+02 3.02036E+05 3.42223E+03 5.99586E+04 1.02500E-09-1.90994E-11
 -1       623 1.43811E+02 3.01340E+05 4.13064E+03 4.11125E+04 1.33400E-09 1.18480E-08
 -1       624 2.12771E+03 3.03258E+05 8.02305E+03 6.01422E+04 1.30939E-09 1.19562E-08
 -1       625 2.07854E+03 2.99747E+05 1.40270E+04 4.11095E+04 1.49066E-09 1.92465E-08
 -1       626 2.61132E+05 6.15265E+04 5.14034E+03 1.26925E+05 2.31012E-09 6.80302E-10
 -1       627 2.58808E+05 6.29269E+04 2.47709E+03 1.31212E+05 2.20098E-09-1.76325E-08
 -1       628 2.61261E+05 5.91747E+04 1.04762E+03 1.27799E+05-5.44242E-09 7.77982E-09
 -1       629 2.58170E+05 6.22440E+04 5.12750E+02 1.31453E+05-3.12184E-09-4.24316E-09
 -1       630 2.61275E+05 5.90611E+04 2.37934E+02 1.27836E+05 6.45286E-10-1.78701E-08
 -1       631 2.58103E+05 6.22180E+04 1.28133E+02 1.31455E+05-1.43223E-09 8.02038E-09
 -1       632 2.61271E+05 5.90650E+04 8.44725E+01 1.27832E+05 1.07507E-08 9.50422E-09
 -1       633 2.58094E+05 6.22199E+04 9.43462E+01 1.31451E+05 3.40174E-09 1.84082E-09
 -1       634 2.61267E+05 5.90622E+04 1.52678E+02 1.27831E+05-4.61625E-09-5.42445E-09
 -1       635 2.58109E+05 6.22181E+04 3.09072E+02 1.31457E+05-8.60882E-09-1.07138E-08
 -1       636 2.61258E+05 5.90564E+04 6.24236E+02 1.27831E+05-7.30620E-09-4.20232E-09
 -1       637 2.58244E+05 6.23152E+04 1.37259E+03 1.31456E+05-2.88674E-09 7.24276E-09
 -1       638 2.61209E+05 5.93595E+04 2.82016E+03 1.27694E+05-2.67255E-09-2.08506E-08
 -1       639 2.59726E+05 6.43752E+04 6.67264E+03 1.31020E+05 4.67116E-09 2.63990E-08
 -1       640 2.61004E+05 6.55123E+04 1.38469E+04 1.25102E+05-1.48793E-09-1.88738E-08
 -1       656 6.65470E+04-1.70319E+06-1.60642E+05-2.55900E+03-2.40107E-10-2.12846E-08
 -1       657-8.80390E+04-1.77578E+06-1.33088E+05 5.16478E+03-3.58341E-10-2.68764E-09
 -1       658 2.12158E+04-1.72381E+06-8.19730E+04-4.64369E+03 6.45514E-10 1.21750E-08
 -1       659-9.52206E+04-1.77920E+06-1.42526E+05 6.89789E+03-1.25328E-09 5.60850E-09
 -1       660 7.37127E+04-1.69979E+06-1.76868E+05-4.29209E+03-1.04774E-09 6.06300E-09
 -1       661 1.58102E+05 1.65408E+04 1.66787E+04 6.18082E+04-1.57934E-09 8.81118E-09
 -1       662 1.67543E+05 2.88818E+04 1.12403E+04 5.80540E+04 3.37911E-09-1.47281E-08
 -1       663 1.61378E+05 2.18916E+04 3.93113E+03 6.08573E+04 1.60378E-09 2.67846E-10
 -1       664 1.63744E+05 2.26245E+04 2.35166E+03 5.92155E+04 3.57147E-10-2.42965E-08
 -1       665 1.61876E+05 2.26223E+04 9.27716E+02 6.07122E+04 2.80380E-09 3.55573E-09
 -1       666 1.63156E+05 2.17890E+04 5.43080E+02 5.94049E+04 9.52537E-09-2.70334E-09
 -1       667 1.61963E+05 2.27054E+04 2.88696E+02 6.06758E+04 3.04169E-10-1.05803E-08
 -1       668 1.63060E+05 2.17294E+04 2.94703E+02 5.94578E+04-4.11919E-09-1.39927E-08
 -1       669 1.61971E+05 2.26802E+04 3.99434E+02 6.06596E+04-5.08075E-09 5.29440E-09
 -1       670 1.63157E+05 2.19464E+04 8.70187E+02 5.94607E+04-3.67530E-09-1.15766E-08
 -1       671 1.61865E+05 2.24929E+04 1.54522E+03 6.06709E+04 3.01312E-09-2.26555E-09
 -1       672 1.64057E+05 2.34497E+04 3.95353E+03 5.92424E+04 5.28685E-09-2.09511E-08
 -1       673 1.61075E+05 2.12150E+04 6.62553E+03 6.08632E+04 3.47791E-09-2.73303E-09
 -1       674 1.70363E+05 3.40943E+04 1.89476E+04 5.73898E+04-4.85625E-09 9.24229E-09
 -1       675 1.55600E+05 1.21464E+04 2.81250E+04 6.24117E+04-2.93994E-09 1.99179E-09
 -1       676 2.41123E+01-2.95967E+05-1.11348E+03-1.37566E+02 1.28227E-09-5.95229E-09
 -1       677-2.94539E+02-2.96237E+05-2.03786E+03 2.74910E+02 1.04988E-08-2.58661E-08
 -1       678 1.97554E+02-2.95775E+05-3.60242E+03-1.37254E+02 2.06001E-10-1.45573E-08
 -1       679-3.60248E+03-2.98411E+05-8.55787E+03 2.73722E+02 6.10021E-09 1.05433E-08
 -1       680 2.15089E+03-2.93794E+05-1.37924E+04-1.34862E+02-1.14687E-09 1.10868E-08
 -1       771-3.06294E+06-7.47550E+05-1.66004E+05-1.46633E+06-3.23344E-08-2.72703E-08
 -1       772-2.98577E+06-8.36441E+05-8.55858E+04-1.56910E+06-2.37487E-08 1.70039E-08
 -1       773-3.09445E+06-7.22977E+05-4.36321E+04-1.48088E+06-7.50879E-09 1.15688E-08
 -1       774-2.97625E+06-8.17903E+05-1.94659E+04-1.59489E+06 4.09782E-08-9.91713E-09
 -1       775-3.11092E+06-7.11425E+05-1.45627E+04-1.48795E+06-3.46336E-09 7.42148E-10
 -1       776-2.98861E+06-8.14862E+05-5.44557E+03-1.61441E+06-4.23461E-09 4.01633E-09
 -1       777-3.12521E+06-7.01114E+05-6.43511E+03-1.49418E+06 9.54606E-09 1.69530E-09
 -1       778-3.00152E+06-8.12035E+05-1.81933E+03-1.63118E+06 7.56700E-09 5.92263E-09
 -1       779-3.13749E+06-6.92103E+05-3.21611E+03-1.49950E+06-1.54250E-08-9.21136E-09
 -1       780-3.01289E+06-8.09337E+05-5.33443E+02-1.64484E+06-4.71482E-09 1.60435E-09
 -1       781-3.14726E+06-6.84839E+05-1.24974E+03-1.50366E+06-2.89874E-08-1.69166E-09
 -1       782-3.02165E+06-8.07046E+05 4.49797E+02-1.65492E+06-4.11819E-08-6.35919E-09
 -1       783-3.15413E+06-6.79791E+05 6.99894E+02-1.50658E+06-4.32192E-09-1.64664E-08
 -1       784-3.02651E+06-8.04758E+05 2.90328E+03-1.66115E+06-8.78936E-09 3.22871E-09
 -1       785-3.15820E+06-6.76781E+05 5.12503E+03-1.50843E+06-3.37823E-08 5.83714E-09
 -1       786 1.21676E+05-9.70487E+03 2.24531E+04-3.18787E+02 2.22023E-09-6.29007E-09
 -1       787 1.31414E+05 1.12361E+04 1.58846E+04-1.31160E+02 5.42548E-09 1.49455E-08
 -1       788 1.25431E+05-1.52078E+03 5.80906E+03-2.83736E+02 4.84355E-09 3.21440E-08
 -1       789 1.27040E+05 1.76025E+03 3.64666E+03-1.84912E+02-2.24137E-09 7.27994E-09
 -1       790 1.26051E+05-2.36775E+02 1.47634E+03-2.65053E+02-4.72922E-09 7.92534E-09
 -1       791 1.26315E+05 2.73904E+02 8.52444E+02-2.16884E+02-7.13473E-09 2.29570E-08
 -1       792 1.26156E+05-3.55462E+01 3.60717E+02-2.51767E+02-4.83332E-09-2.36371E-09
 -1       793 1.26190E+05 3.72912E+01 1.78703E+02-2.41827E+02-2.59075E-10-6.36618E-09
 -1       794 1.26176E+05-3.11705E-01 4.41801E+01-2.40109E+02 5.04067E-09 5.65959E-09
 -1       795 1.26152E+05-2.92485E+01-6.35439E+01-2.66056E+02-5.82231E-09 3.59318E-08
 -1       796 1.26194E+05 3.09563E+01-1.72272E+02-2.27538E+02 2.22251E-09-2.91762E-09
 -1       797 1.26052E+05-2.31051E+02-4.69932E+02-2.94800E+02 4.27633E-09-6.11265E-09
 -1       798 1.26276E+05 2.01340E+02-7.62341E+02-2.11365E+02 2.41941E-09 1.44577E-08
 -1       799 1.25474E+05-1.48424E+03-2.09659E+03-3.34736E+02 6.02811E-09 2.27018E-09
 -1       800 1.26772E+05 1.28313E+03-2.96689E+03-1.87603E+02 2.97756E-10 2.15175E-09
 -1       801-1.71243E+05-9.99641E+06-1.39324E+06 1.41495E+06 9.13569E-08-5.72800E-08
 -1       802 7.38062E+05 5.94718E+06 2.18095E+06-1.74673E+06 2.57627E-07-3.40406E-08
 -1       803-5.36444E+05-1.42623E+07-1.88973E+06 8.98128E+05 7.77000E-08 1.69348E-08
 -1       804 2.87046E+05 2.39192E+06 1.53653E+06 6.76851E+05-1.19751E-07-9.10186E-08
 -1       805 1.89302E+05-6.45527E+06-2.86094E+05-1.00297E+06-5.02405E-08-6.39484E-08
 -1       806-3.13318E+05-6.03783E+04-2.32817E+04-1.24145E+05-6.94854E-09-3.63343E-09
 -1       807-3.15194E+05-5.67750E+04-1.14644E+04-1.29770E+05-4.61114E-09-2.62185E-08
 -1       808-3.14007E+05-5.21838E+04-4.86459E+03-1.28045E+05 7.96445E-09 1.11754E-10
 -1       809-3.12772E+05-5.35973E+04-2.37978E+03-1.30030E+05 1.16097E-08 1.87970E-09
 -1       810-3.14105E+05-5.19087E+04-1.09136E+03-1.28214E+05 8.55107E-09 7.06314E-09
 -1       811-3.12587E+05-5.34721E+04-5.42870E+02-1.29993E+05 7.84939E-09-1.34605E-09
 -1       812-3.14119E+05-5.19344E+04-2.74904E+02-1.28213E+05-5.30054E-09-8.73524E-09
 -1       813-3.12561E+05-5.34742E+04-1.79248E+02-1.29974E+05 4.41560E-10-1.26192E-10
 -1       814-3.14112E+05-5.19443E+04-1.78562E+02-1.28209E+05 3.43516E-09-9.90121E-09
 -1       815-3.12565E+05-5.34764E+04-2.88542E+02-1.29966E+05-7.16591E-09 1.18625E-08
 -1       816-3.14091E+05-5.19431E+04-5.47487E+02-1.28205E+05-6.16637E-10-1.37852E-08
 -1       817-3.12657E+05-5.35268E+04-1.17465E+03-1.29955E+05-5.37693E-09-1.30424E-08
 -1       818-3.14019E+05-5.20997E+04-2.39491E+03-1.28130E+05-3.66799E-09-6.49425E-09
 -1       819-3.13970E+05-5.49555E+04-5.63387E+03-1.29659E+05-2.02317E-09-7.43785E-09
 -1       820-3.13547E+05-5.62469E+04-1.14407E+04-1.26346E+05 6.15000E-09 1.91246E-08
 -1       821-3.80483E+05 2.09021E+04-4.87071E+04 2.22053E+03 1.43748E-08-5.47516E-09
 -1       822-4.00012E+05-2.42168E+04-3.41905E+04-4.76375E+03 6.40409E-09 2.07228E-09
 -1       823-3.87864E+05 3.29783E+03-1.25761E+04 3.65306E+03-1.36165E-08-4.14002E-09
 -1       824-3.91066E+05-3.80183E+03-7.86576E+03-5.79408E+03 1.92072E-09 9.60461E-09
 -1       825-3.89438E+05 5.13021E+02-3.30086E+03 3.25099E+03 2.19079E-08 1.49068E-08
 -1       826-3.88512E+05-5.63883E+02-1.71905E+03-3.39065E+03 2.89769E-08 1.12288E-08
 -1       827-3.90390E+05 4.07710E+01-1.21727E+03 1.24946E+03 1.16263E-08-3.15441E-09
 -1       828-3.87719E+05-1.24049E+02-5.41492E+02 1.10356E+03-2.69984E-09 5.49682E-09
 -1       829-3.90216E+05 6.12593E+01-1.20406E+03-1.24324E+03-5.03064E-11 9.06229E-09
 -1       830-3.88888E+05-6.21819E+02-1.86475E+03 5.18846E+03 4.03588E-10 7.24100E-10
 -1       831-3.89246E+05 5.58635E+02-3.38321E+03-2.83545E+03-9.26850E-09-3.98495E-09
 -1       832-3.91147E+05-3.97422E+03-8.17689E+03 6.58863E+03-5.14691E-09-9.39701E-09
 -1       833-3.87976E+05 3.42517E+03-1.30960E+04-2.64347E+03-1.81922E-09 6.91580E-09
 -1       834-4.00056E+05-2.51559E+04-3.54441E+04 4.48857E+03-4.63146E-10-9.56561E-09
 -1       835-3.80318E+05 2.17050E+04-5.06316E+04-7.35286E+02 6.35529E-09 1.60435E-09
 -1       836-1.41285E+03 3.69853E+05 2.29034E+04-1.58745E+04-7.20229E-09 5.96174E-09
 -1       837 4.88398E+03 3.77027E+05 1.93897E+04-3.24457E+04-7.56728E-09-1.31479E-08
 -1       838-5.58215E+02 3.71863E+05 1.97684E+04-1.58030E+04-6.14864E-09 7.81529E-09
 -1       839 1.24478E+04 3.82660E+05 3.74087E+04-3.24996E+04-7.02494E-09-5.21140E-10
 -1       840-3.84735E+03 3.64160E+05 5.96588E+04-1.58264E+04-5.98811E-09 1.72741E-09
 -1       856-5.17269E+04 8.02008E+03-2.11346E+04-3.97394E+02 2.93483E-09 7.43967E-09
 -1       857-6.04339E+04-9.42335E+03-1.45489E+04 5.62719E+03 3.62255E-09-2.16824E-09
 -1       858-5.51751E+04 1.12474E+03-5.48391E+03-4.21332E+02 1.90636E-09-4.44425E-09
 -1       859-5.64768E+04-1.32323E+03-3.30927E+03 5.66278E+03-4.45863E-09 1.10962E-08
 -1       860-5.56902E+04 1.57518E+02-1.38686E+03-4.32709E+02 7.92795E-10-1.06575E-08
 -1       861-5.58842E+04-1.88059E+02-7.62828E+02 5.67826E+03 1.82135E-09-8.70352E-09
 -1       862-5.57708E+04 2.13326E+01-3.16870E+02-4.36796E+02-2.16706E-09 1.14186E-08
 -1       863-5.57854E+04-2.17961E+01-1.14912E+02 5.68063E+03-5.02951E-09 8.74425E-09
 -1       864-5.57896E+04-4.96474E+00 4.83333E+01-4.35072E+02-2.22552E-09 8.32557E-09
 -1       865-5.57293E+04 6.01519E+01 2.57678E+02 5.67080E+03-4.02849E-09 8.46762E-09
 -1       866-5.58247E+04-6.06233E+01 5.18707E+02-4.26971E+02-9.12109E-10-1.11634E-08
 -1       867-5.54856E+04 5.00648E+02 1.27636E+03 5.64882E+03 4.04583E-09-1.63653E-08
 -1       868-5.60284E+04-4.37479E+02 2.12085E+03-4.13090E+02-3.82045E-09 9.25183E-10
 -1       869-5.39309E+04 3.64109E+03 5.64693E+03 5.61266E+03 1.35321E-09 2.35377E-09
 -1       870-5.73716E+04-3.11573E+03 8.19501E+03-3.90706E+02-3.98336E-09 1.40240E-08
 -1       871-5.51787E+03-2.09915E+04-1.94879E+04 1.30557E+05-4.40923E-09 5.88079E-09
 -1       872-1.98099E+03-2.55235E+04-8.15604E+03 1.69286E+05-1.01718E-08 1.57779E-08
 -1       873 4.06314E+02-2.33325E+04 5.99434E+02 1.30269E+05-6.12545E-09 1.52526E-08
 -1       874 3.31242E+03-2.09173E+04 9.80061E+03 1.69316E+05-1.16634E-08 1.01418E-08
 -1       875 6.85886E+03-2.56665E+04 2.21016E+04 1.30508E+05-4.80759E-09 1.03500E-08
 -1       876 2.93970E+05 4.95169E+04 1.50888E+04 1.17937E+05 4.97880E-09 1.30494E-08
 -1       877 2.94973E+05 5.26886E+04 8.05802E+03 1.22258E+05 9.83891E-09 6.91682E-09
 -1       878 2.95381E+05 4.78455E+04 3.37592E+03 1.19173E+05-1.52113E-09-1.48000E-08
 -1       879 2.92923E+05 5.06416E+04 1.68211E+03 1.22360E+05 2.90856E-09 4.78713E-09
 -1       880 2.95482E+05 4.78282E+04 7.83529E+02 1.19223E+05 4.03588E-10-8.13372E-10
 -1       881 2.92786E+05 5.05540E+04 4.18484E+02 1.22336E+05-6.25312E-09 5.63591E-09
 -1       882 2.95491E+05 4.78415E+04 2.67845E+02 1.19225E+05-5.24938E-09 1.43733E-08
 -1       883 2.92777E+05 5.05494E+04 2.88139E+02 1.22329E+05-2.90902E-09 2.53251E-08
 -1       884 2.95484E+05 4.78387E+04 4.58540E+02 1.19225E+05 9.93850E-10-1.38700E-08
 -1       885 2.92813E+05 5.05558E+04 9.22033E+02 1.22340E+05-2.84410E-09-1.70899E-08
 -1       886 2.95449E+05 4.78118E+04 1.85837E+03 1.19221E+05-3.49578E-09 1.56890E-08
 -1       887 2.93140E+05 5.07699E+04 4.05938E+03 1.22387E+05 1.02073E-08 1.23309E-08
 -1       888 2.95192E+05 4.78570E+04 8.17978E+03 1.19092E+05 9.42961E-10 1.31790E-08
 -1       889 2.98009E+05 5.58343E+04 1.95400E+04 1.22238E+05-3.17250E-09-6.21367E-09
 -1       890 2.91854E+05 5.18228E+04 3.65979E+04 1.15979E+05-3.83852E-09-5.16411E-09
 -1       891-8.94650E+01-1.62852E+05-1.99840E+03 2.71366E+04-1.50362E-09 2.51889E-08
 -1       892-1.75531E+02-1.63380E+05-2.14586E+03 4.12088E+04 2.77669E-09 4.29395E-09
 -1       893 4.37755E+01-1.62916E+05-3.03780E+03 2.71440E+04-3.30101E-09-1.49994E-08
 -1       894-1.51083E+03-1.64527E+05-6.28678E+03 4.10563E+04 1.70985E-09 2.73985E-09
 -1       895-1.19984E+03-1.61607E+05-1.10708E+04 2.72909E+04-3.13776E-10 2.10639E-09
 -1       956-3.77495E+05-5.39395E+03-1.33173E+04 3.05990E+04 9.28867E-09-1.79557E-08
 -1       957-3.80108E+05-1.90231E+03-6.83561E+03 3.67736E+04-4.25825E-09-1.82015E-08
 -1       958-3.78691E+05-2.37820E+02-3.08032E+03 3.04335E+04-6.61930E-09 8.96762E-10
 -1       959-3.78886E+05-1.34325E+02-1.57292E+03 3.69665E+04 5.03132E-09 2.24441E-08
 -1       960-3.78808E+05-4.39356E+01-7.67107E+02 3.04165E+04 5.96992E-09 3.26281E-09
 -1       961-3.78806E+05-6.22687E+01-4.06925E+02 3.69867E+04 9.88052E-09-1.20633E-08
 -1       962-3.78835E+05-4.53483E+01-2.33347E+02 3.04136E+04 3.16322E-09 1.78873E-08
 -1       963-3.78806E+05-5.82971E+01-1.88001E+02 3.69902E+04 7.42148E-09 1.60176E-08
 -1       964-3.78840E+05-4.21312E+01-2.29455E+02 3.04129E+04-5.16081E-10 8.57176E-09
 -1       965-3.78818E+05-5.54658E+01-3.97550E+02 3.69895E+04-6.27608E-09-9.75865E-09
 -1       966-3.78824E+05-3.43511E+01-7.47375E+02 3.04144E+04 1.08730E-09-6.48242E-09
 -1       967-3.78907E+05-1.19149E+02-1.53304E+03 3.69751E+04-3.90605E-09 9.28776E-09
 -1       968-3.78720E+05-2.17135E+02-3.00124E+03 3.04271E+04-5.18912E-09 1.33494E-08
 -1       969-3.80110E+05-1.83697E+03-6.66272E+03 3.68269E+04-3.70164E-09 6.61484E-09
 -1       970-3.77562E+05-5.23895E+03-1.29794E+04 3.05540E+04-4.63297E-09 1.19435E-08
 -1       971-3.45580E+05-1.73037E+03-9.32517E+03 1.54046E+04 4.94310E-09-6.27768E-09
 -1       972-3.47825E+05-1.27391E+03-5.07838E+03 2.13045E+04 7.69069E-09 2.57296E-09
 -1       973-3.46619E+05-6.21796E+01-2.27466E+03 1.52833E+04 4.74483E-09-6.56883E-09
 -1       974-3.46754E+05-8.12428E+01-1.17910E+03 2.14419E+04 7.82347E-09-8.90464E-09
 -1       975-3.46701E+05-1.72084E+01-5.89837E+02 1.52709E+04 2.00998E-10-6.45832E-09
 -1       976-3.46693E+05-3.12965E+01-3.41098E+02 2.14577E+04 8.22615E-09-8.18977E-09
 -1       977-3.46718E+05-1.64462E+01-2.49009E+02 1.52675E+04 2.07569E-09-6.21174E-09
 -1       978-3.46698E+05-2.50481E+01-2.93358E+02 2.14626E+04-8.54288E-09 1.23391E-08
 -1       979-3.46717E+05-7.95130E+00-4.73027E+02 1.52660E+04 6.92808E-10 6.15069E-09
 -1       980-3.46733E+05-2.19754E+01-9.14417E+02 2.14636E+04-3.10189E-09 2.15755E-09
 -1       981-3.46688E+05 1.49086E+01-1.77157E+03 1.52666E+04-2.12890E-09 7.37896E-09
 -1       982-3.46977E+05-1.52875E+02-3.66211E+03 2.14570E+04-2.14925E-09 2.57815E-09
 -1       983-3.46465E+05-9.85340E+01-7.11567E+03 1.52726E+04-4.39832E-09-1.36129E-09
 -1       984-3.50399E+05-3.86919E+03-1.59353E+04 2.13712E+04-1.27977E-08 4.23711E-09
 -1       985-3.43243E+05-5.30535E+03-2.92622E+04 1.53441E+04-1.28084E-08-4.79668E-09
 -3
    1PSTEP                        33          17           1          
  100CL  117 6.63114E-01         409                     0   17           1
 -4  DISP        4    1
 -5  D1          1    2    1    0
 -5  D2          1    2    2    0
 -5  D3          1    2    3    0
 -5  ALL         1    2    0    0    1ALL
 -1         1 2.71942E-03 0.00000E+00 0.00000E+00
 -1         2 1.35341E-03-1.41884E-27 5.29396E-23
 -1         3 3.42755E-04-5.53995E-28 0.00000E+00
 -1         5 1.77154E-04-1.85267E-27-8.27181E-25
 -1         8 2.70850E-03-4.06179E-07 0.00000E+00
 -1         9 2.70186E-03-1.91228E-04 0.00000E+00
 -1        10 3.10791E-04-3.40595E-06 0.00000E+00
 -1        12 1.78998E-04 8.09536E-07 1.65436E-24
 -1        15 2.69600E-03-4.29981E-07 1.03398E-25
 -1        16 2.76820E-03-1.93051E-04 0.00000E+00
 -1        17 2.11505E-04-7.76749E-06 0.00000E+00
 -1        18 1.82938E-04 3.44140E-05 0.00000E+00
 -1        19 1.84532E-04 1.61266E-06 0.00000E+00
 -1        20 1.84672E-04-9.83215E-06 0.00000E+00
 -1        21 1.83777E-04-2.53334E-05 3.30872E-24
 -1        24 3.06207E-05-1.19935E-05 0.00000E+00
 -1        25 1.93732E-04 3.46398E-05 0.00000E+00
 -1        26 1.94401E-04 2.23215E-06 0.00000E+00
 -1        27 1.92186E-04-1.33888E-05 0.00000E+00
 -1        28 1.91872E-04-2.59556E-05 0.00000E+00
 -1        32 0.00000E+00 0.00000E+00 0.00000E+00
 -1        33 2.03245E-04 2.98516E-06 0.00000E+00
 -1        34 2.01126E-04-1.34443E-05 0.00000E+00
 -1        35 1.99192E-04-2.62982E-05 0.00000E+00
 -1        51 2.71869E-03-8.51044E-08-4.96308E-24
 -1        52 2.71735E-03-1.51818E-07 0.00000E+00
 -1        53 2.71553E-03-2.15065E-07 0.00000E+00
 -1        54 2.71336E-03-2.77077E-07 1.65436E-24
 -1        55 2.71097E-03-3.39619E-07 1.65436E-24
 -1        56 2.71173E-03 8.46830E-06 5.29396E-23
 -1        57 2.69669E-03 3.50801E-05 0.00000E+00
 -1        58 2.67655E-03 7.41246E-05-1.05879E-22
 -1        59 2.65404E-03 1.18703E-04 0.00000E+00
 -1        60 2.63250E-03 1.60969E-04-1.05879E-22
 -1        61 2.61513E-03 1.93261E-04 0.00000E+00
 -1        62 2.60413E-03 2.09701E-04 1.05879E-22
 -1        63 2.60092E-03 2.05824E-04 5.29396E-23
 -1        64 2.60532E-03 1.80894E-04 0.00000E+00
 -1        65 2.61643E-03 1.36168E-04-5.29396E-23
 -1        66 2.63231E-03 7.66606E-05 1.05879E-22
 -1        67 2.65077E-03 8.83710E-06 0.00000E+00
 -1        68 2.66930E-03-5.92221E-05 0.00000E+00
 -1        69 2.68542E-03-1.19407E-04 5.29396E-23
 -1        70 2.69689E-03-1.65141E-04 0.00000E+00
 -1        86 1.43820E-03-6.05811E-06 0.00000E+00
 -1        87 1.68354E-03-3.80269E-05-2.64698E-23
 -1        88 2.01342E-03-9.29561E-05 2.64698E-23
 -1        89 2.34772E-03-1.49392E-04 1.32349E-23
 -1        90 2.60376E-03-1.83927E-04-5.29396E-23
 -1       121 3.41858E-04-5.49910E-07 1.32349E-23
 -1       122 3.39168E-04-1.10291E-06 0.00000E+00
 -1       123 3.34697E-04-1.66204E-06 0.00000E+00
 -1       124 3.28461E-04-2.23035E-06 0.00000E+00
 -1       125 3.20482E-04-2.81048E-06 0.00000E+00
 -1       191 1.77205E-04 1.34986E-07 0.00000E+00
 -1       192 1.77359E-04 2.69961E-07 0.00000E+00
 -1       193 1.77615E-04 4.04916E-07 0.00000E+00
 -1       194 1.77974E-04 5.39839E-07 1.24077E-24
 -1       195 1.78435E-04 6.74717E-07-1.65436E-24
 -1       251 2.70820E-03 1.66602E-06 0.00000E+00
 -1       252 2.70789E-03 3.62485E-06-3.30872E-24
 -1       253 2.70759E-03 4.48731E-06 0.00000E+00
 -1       254 2.70728E-03 3.28404E-06-3.30872E-24
 -1       255 2.70697E-03-6.40911E-07 0.00000E+00
 -1       256 2.70664E-03-7.90943E-06-3.30872E-24
 -1       257 2.70628E-03-1.86364E-05 6.61744E-24
 -1       258 2.70587E-03-3.28935E-05 0.00000E+00
 -1       259 2.70542E-03-5.02175E-05 0.00000E+00
 -1       260 2.70493E-03-7.01065E-05 0.00000E+00
 -1       261 2.70440E-03-9.16697E-05-1.32349E-23
 -1       262 2.70385E-03-1.13996E-04 0.00000E+00
 -1       263 2.70331E-03-1.36057E-04 0.00000E+00
 -1       264 2.70279E-03-1.56831E-04 0.00000E+00
 -1       265 2.70231E-03-1.75488E-04 0.00000E+00
 -1       266 2.70642E-03-4.15794E-07 0.00000E+00
 -1       267 2.70433E-03-4.19073E-07 8.27181E-25
 -1       268 2.70225E-03-4.22753E-07 0.00000E+00
 -1       269 2.70017E-03-4.25244E-07 2.06795E-25
 -1       270 2.69809E-03-4.27707E-07 0.00000E+00
 -1       271 2.70764E-03 1.00797E-07 0.00000E+00
 -1       272 2.70774E-03-2.00040E-06 6.61744E-24
 -1       273 2.70875E-03-6.55586E-06 0.00000E+00
 -1       274 2.71060E-03-1.33996E-05 0.00000E+00
 -1       275 2.71322E-03-2.23449E-05 2.64698E-23
 -1       276 2.71653E-03-3.31898E-05 0.00000E+00
 -1       277 2.72045E-03-4.57162E-05 2.64698E-23
 -1       278 2.72490E-03-5.96929E-05 1.32349E-23
 -1       279 2.72978E-03-7.48772E-05 0.00000E+00
 -1       280 2.73500E-03-9.10164E-05 0.00000E+00
 -1       281 2.74047E-03-1.07850E-04 0.00000E+00
 -1       282 2.74609E-03-1.25112E-04 0.00000E+00
 -1       283 2.75177E-03-1.42534E-04-1.32349E-23
 -1       284 2.75741E-03-1.59843E-04-6.61744E-24
 -1       285 2.76292E-03-1.76772E-04 0.00000E+00
 -1       301 2.71392E-03-1.91566E-04 0.00000E+00
 -1       302 2.72434E-03-1.91858E-04-3.30872E-24
 -1       303 2.73404E-03-1.92140E-04 0.00000E+00
 -1       304 2.74396E-03-1.92422E-04 6.61744E-24
 -1       305 2.75504E-03-1.92718E-04 0.00000E+00
 -1       306 2.73982E-03-3.46116E-04-1.05879E-22
 -1       307 2.80368E-03-7.60582E-04 0.00000E+00
 -1       308 2.85030E-03-1.36626E-03 1.05879E-22
 -1       309 2.87409E-03-2.06700E-03 5.29396E-23
 -1       310 2.90541E-03-2.73697E-03 1.05879E-22
 -1       311 2.96492E-03-3.25304E-03-5.29396E-23
 -1       312 3.02269E-03-3.53460E-03 2.11758E-22
 -1       313 3.01772E-03-3.54392E-03-5.29396E-23
 -1       314 2.87608E-03-3.29320E-03 1.05879E-22
 -1       315 2.55693E-03-2.84708E-03 0.00000E+00
 -1       316 2.07878E-03-2.28227E-03 0.00000E+00
 -1       317 1.50774E-03-1.66808E-03 0.00000E+00
 -1       318 9.58290E-04-1.06505E-03 1.05879E-22
 -1       319 5.38522E-04-5.38154E-04 0.00000E+00
 -1       320 2.92203E-04-1.61570E-04-1.05879E-22
 -1       336 2.99200E-04-4.06433E-06 0.00000E+00
 -1       337 2.85533E-04-4.74841E-06-6.61744E-24
 -1       338 2.69852E-04-5.46041E-06 1.32349E-23
 -1       339 2.52231E-04-6.20115E-06-6.61744E-24
 -1       340 2.32752E-04-6.97509E-06 0.00000E+00
 -1       406 1.79665E-04 9.44279E-07-3.30872E-24
 -1       407 1.80433E-04 1.07891E-06 8.27181E-25
 -1       408 1.81305E-04 1.21337E-06 1.24077E-24
 -1       409 1.82279E-04 1.34750E-06 4.13590E-25
 -1       410 1.83355E-04 1.48101E-06-2.48154E-24
 -1       521 2.80675E-03-3.57229E-04 0.00000E+00
 -1       522 2.86882E-03-7.92037E-04 0.00000E+00
 -1       523 2.90894E-03-1.42568E-03-1.05879E-22
 -1       524 2.92344E-03-2.15522E-03-5.29396E-23
 -1       525 2.94679E-03-2.85197E-03-1.05879E-22
 -1       526 3.00274E-03-3.39021E-03-5.29396E-23
 -1       527 3.06009E-03-3.68240E-03 2.11758E-22
 -1       528 3.05280E-03-3.68990E-03-1.05879E-22
 -1       529 2.89903E-03-3.42491E-03-2.11758E-22
 -1       530 2.55568E-03-2.96010E-03-5.29396E-23
 -1       531 2.04209E-03-2.37597E-03-1.05879E-22
 -1       532 1.43086E-03-1.74445E-03 5.29396E-23
 -1       533 8.41914E-04-1.12343E-03 0.00000E+00
 -1       534 3.88556E-04-5.75526E-04-5.29396E-23
 -1       535 1.20868E-04-1.79286E-04-2.11758E-22
 -1       536 2.10750E-04 2.71617E-05 0.00000E+00
 -1       537 2.08832E-04 8.76108E-05 1.65436E-24
 -1       538 2.05867E-04 1.64311E-04-3.30872E-24
 -1       539 2.02370E-04 2.47912E-04 1.65436E-24
 -1       540 1.99223E-04 3.26908E-04-3.30872E-24
 -1       541 1.97178E-04 3.89817E-04-1.65436E-24
 -1       542 1.96234E-04 4.29886E-04-3.30872E-24
 -1       543 1.96009E-04 4.40510E-04 0.00000E+00
 -1       544 1.95687E-04 4.22462E-04-3.30872E-24
 -1       545 1.94514E-04 3.76737E-04 0.00000E+00
 -1       546 1.92328E-04 3.11462E-04 3.30872E-24
 -1       547 1.89370E-04 2.34886E-04 0.00000E+00
 -1       548 1.86438E-04 1.58687E-04 0.00000E+00
 -1       549 1.84323E-04 9.45417E-05-1.65436E-24
 -1       550 1.83224E-04 5.04821E-05 0.00000E+00
 -1       551 1.86300E-04-8.33703E-06 0.00000E+00
 -1       552 1.57850E-04-8.98703E-06 0.00000E+00
 -1       553 1.27098E-04-9.69930E-06 9.92617E-24
 -1       554 9.50028E-05-1.04527E-05-3.30872E-24
 -1       555 6.25254E-05-1.12198E-05 0.00000E+00
 -1       556 2.03856E-04 1.17914E-05 0.00000E+00
 -1       557 1.97676E-04 2.76543E-05 0.00000E+00
 -1       558 1.92830E-04 4.01089E-05 0.00000E+00
 -1       559 1.89187E-04 4.94660E-05 2.64698E-23
 -1       560 1.86616E-04 5.60361E-05 0.00000E+00
 -1       561 1.84989E-04 6.01328E-05 0.00000E+00
 -1       562 1.84180E-04 6.20707E-05 0.00000E+00
 -1       563 1.84066E-04 6.21653E-05 0.00000E+00
 -1       564 1.84525E-04 6.07331E-05 0.00000E+00
 -1       565 1.85436E-04 5.80913E-05 6.61744E-24
 -1       566 1.86679E-04 5.45575E-05 0.00000E+00
 -1       567 1.88136E-04 5.04497E-05 0.00000E+00
 -1       568 1.89687E-04 4.60863E-05 0.00000E+00
 -1       569 1.91215E-04 4.17854E-05 8.27181E-25
 -1       570 1.92602E-04 3.78653E-05 0.00000E+00
 -1       571 1.83034E-04 3.22845E-05 3.30872E-24
 -1       572 1.83133E-04 3.00895E-05 4.13590E-25
 -1       573 1.83232E-04 2.78445E-05 1.65436E-24
 -1       574 1.83332E-04 2.55661E-05 0.00000E+00
 -1       575 1.83431E-04 2.32706E-05 0.00000E+00
 -1       576 1.83531E-04 2.09745E-05 0.00000E+00
 -1       577 1.83631E-04 1.86944E-05-6.61744E-24
 -1       578 1.83730E-04 1.64467E-05-6.61744E-24
 -1       579 1.83830E-04 1.42480E-05-6.61744E-24
 -1       580 1.83930E-04 1.21149E-05-6.61744E-24
 -1       581 1.84030E-04 1.00638E-05-6.61744E-24
 -1       582 1.84130E-04 8.11119E-06 0.00000E+00
 -1       583 1.84231E-04 6.27368E-06 6.61744E-24
 -1       584 1.84331E-04 4.56754E-06-3.30872E-24
 -1       585 1.84432E-04 3.00893E-06 0.00000E+00
 -1       586 1.84695E-04 3.44537E-05-1.65436E-24
 -1       587 1.86411E-04 3.44929E-05-4.13590E-25
 -1       588 1.88130E-04 3.45318E-05 0.00000E+00
 -1       589 1.89894E-04 3.45699E-05 0.00000E+00
 -1       590 1.91747E-04 3.46068E-05 0.00000E+00
 -1       591 1.83668E-04 3.23783E-05 1.03398E-25
 -1       592 1.84400E-04 3.03231E-05 2.06795E-25
 -1       593 1.85138E-04 2.82541E-05-8.27181E-25
 -1       594 1.85879E-04 2.61761E-05-4.13590E-25
 -1       595 1.86621E-04 2.40936E-05 0.00000E+00
 -1       596 1.87363E-04 2.20115E-05 4.13590E-25
 -1       597 1.88103E-04 1.99343E-05-8.27181E-25
 -1       598 1.88839E-04 1.78667E-05-4.13590E-25
 -1       599 1.89570E-04 1.58134E-05 8.27181E-25
 -1       600 1.90294E-04 1.37790E-05 0.00000E+00
 -1       601 1.91010E-04 1.17682E-05 0.00000E+00
 -1       602 1.91715E-04 9.78562E-06 2.06795E-25
 -1       603 1.92407E-04 7.83591E-06 0.00000E+00
 -1       604 1.93087E-04 5.92385E-06 5.16988E-26
 -1       605 1.93750E-04 4.05399E-06 4.13590E-25
 -1       606 1.84546E-04 4.49986E-07 0.00000E+00
 -1       607 1.84555E-04-6.26716E-07-1.65436E-24
 -1       608 1.84564E-04-1.62249E-06-3.30872E-24
 -1       609 1.84573E-04-2.54303E-06 0.00000E+00
 -1       610 1.84581E-04-3.39408E-06 3.30872E-24
 -1       611 1.84589E-04-4.18144E-06 0.00000E+00
 -1       612 1.84597E-04-4.91092E-06 0.00000E+00
 -1       613 1.84606E-04-5.58836E-06 0.00000E+00
 -1       614 1.84614E-04-6.21955E-06-1.65436E-24
 -1       615 1.84623E-04-6.81032E-06 0.00000E+00
 -1       616 1.84631E-04-7.36651E-06-1.65436E-24
 -1       617 1.84639E-04-7.89391E-06 0.00000E+00
 -1       618 1.84648E-04-8.39836E-06 0.00000E+00
 -1       619 1.84656E-04-8.88567E-06 2.06795E-25
 -1       620 1.84664E-04-9.36166E-06 0.00000E+00
 -1       621 1.85890E-04 1.71649E-06-3.30872E-24
 -1       622 1.87407E-04 1.82055E-06 1.65436E-24
 -1       623 1.89051E-04 1.92439E-06-1.65436E-24
 -1       624 1.90787E-04 2.02791E-06 1.65436E-24
 -1       625 1.92581E-04 2.13113E-06-3.30872E-24
 -1       626 1.85081E-04 4.86255E-07 0.00000E+00
 -1       627 1.85606E-04-5.76878E-07 0.00000E+00
 -1       628 1.86111E-04-1.58462E-06-6.61744E-24
 -1       629 1.86598E-04-2.54516E-06 1.65436E-24
 -1       630 1.87071E-04-3.46674E-06 0.00000E+00
 -1       631 1.87532E-04-4.35758E-06 0.00000E+00
 -1       632 1.87985E-04-5.22592E-06-3.30872E-24
 -1       633 1.88432E-04-6.08001E-06 0.00000E+00
 -1       634 1.88878E-04-6.92809E-06 0.00000E+00
 -1       635 1.89324E-04-7.77838E-06-1.65436E-24
 -1       636 1.89774E-04-8.63915E-06 0.00000E+00
 -1       637 1.90231E-04-9.51864E-06 0.00000E+00
 -1       638 1.90698E-04-1.04251E-05 1.65436E-24
 -1       639 1.91178E-04-1.13667E-05 1.65436E-24
 -1       640 1.91673E-04-1.23519E-05 0.00000E+00
 -1       656 1.85375E-04-1.04102E-05 0.00000E+00
 -1       657 1.86499E-04-1.10118E-05 0.00000E+00
 -1       658 1.87903E-04-1.16120E-05 1.32349E-23
 -1       659 1.89442E-04-1.22118E-05-6.61744E-24
 -1       660 1.90930E-04-1.28135E-05-6.61744E-24
 -1       661 1.84935E-04-1.03480E-05-8.27181E-25
 -1       662 1.85236E-04-1.09561E-05-8.27181E-25
 -1       663 1.85569E-04-1.16511E-05 0.00000E+00
 -1       664 1.85933E-04-1.24265E-05-8.27181E-25
 -1       665 1.86325E-04-1.32764E-05 0.00000E+00
 -1       666 1.86742E-04-1.41949E-05 8.27181E-25
 -1       667 1.87183E-04-1.51764E-05 1.65436E-24
 -1       668 1.87646E-04-1.62150E-05 8.27181E-25
 -1       669 1.88128E-04-1.73056E-05-1.65436E-24
 -1       670 1.88627E-04-1.84425E-05 0.00000E+00
 -1       671 1.89142E-04-1.96208E-05 0.00000E+00
 -1       672 1.89670E-04-2.08351E-05 8.27181E-25
 -1       673 1.90209E-04-2.20805E-05-1.65436E-24
 -1       674 1.90758E-04-2.33522E-05-4.13590E-25
 -1       675 1.91314E-04-2.46449E-05 0.00000E+00
 -1       676 1.85131E-04-2.54377E-05 3.30872E-24
 -1       677 1.86484E-04-2.55420E-05 0.00000E+00
 -1       678 1.87835E-04-2.56462E-05 0.00000E+00
 -1       679 1.89184E-04-2.57501E-05 0.00000E+00
 -1       680 1.90530E-04-2.58540E-05 0.00000E+00
 -1       771 1.86656E-05 1.47413E-05 0.00000E+00
 -1       772 8.60776E-06 3.66988E-05 0.00000E+00
 -1       773 3.56412E-07 5.41094E-05 0.00000E+00
 -1       774-6.21279E-06 6.72311E-05 0.00000E+00
 -1       775-1.12215E-05 7.63322E-05-5.29396E-23
 -1       776-1.47964E-05 8.16980E-05-2.64698E-23
 -1       777-1.70638E-05 8.36236E-05 0.00000E+00
 -1       778-1.81527E-05 8.24183E-05-2.64698E-23
 -1       779-1.81913E-05 7.83997E-05-5.29396E-23
 -1       780-1.73101E-05 7.18969E-05 2.64698E-23
 -1       781-1.56385E-05 6.32457E-05 5.29396E-23
 -1       782-1.33074E-05 5.27909E-05-2.64698E-23
 -1       783-1.04468E-05 4.08819E-05-5.29396E-23
 -1       784-7.18826E-06 2.78743E-05-2.64698E-23
 -1       785-3.66195E-06 1.41266E-05 0.00000E+00
 -1       786 1.93769E-04 3.23837E-05 0.00000E+00
 -1       787 1.93810E-04 3.01784E-05 0.00000E+00
 -1       788 1.93851E-04 2.80154E-05 0.00000E+00
 -1       789 1.93893E-04 2.58866E-05-4.13590E-25
 -1       790 1.93935E-04 2.37872E-05 1.65436E-24
 -1       791 1.93977E-04 2.17123E-05 8.27181E-25
 -1       792 1.94019E-04 1.96596E-05 1.65436E-24
 -1       793 1.94061E-04 1.76270E-05 8.27181E-25
 -1       794 1.94103E-04 1.56141E-05 1.65436E-24
 -1       795 1.94145E-04 1.36208E-05 8.27181E-25
 -1       796 1.94188E-04 1.16489E-05-1.65436E-24
 -1       797 1.94230E-04 9.70008E-06 0.00000E+00
 -1       798 1.94272E-04 7.77853E-06-1.65436E-24
 -1       799 1.94315E-04 5.88846E-06 0.00000E+00
 -1       800 1.94357E-04 4.03718E-06 1.65436E-24
 -1       801 1.47945E-04 3.11411E-05-2.64698E-23
 -1       802 9.49770E-06 1.94277E-05 0.00000E+00
 -1       803-1.08767E-04 9.81221E-06 0.00000E+00
 -1       804-9.64301E-05 6.82959E-06-2.64698E-23
 -1       805-3.18630E-05 2.68411E-06 0.00000E+00
 -1       806 1.94461E-04 3.23138E-05-1.65436E-24
 -1       807 1.95176E-04 3.00138E-05-1.65436E-24
 -1       808 1.95879E-04 2.77453E-05 0.00000E+00
 -1       809 1.96568E-04 2.55124E-05 0.00000E+00
 -1       810 1.97242E-04 2.33194E-05 3.30872E-24
 -1       811 1.97899E-04 2.11703E-05 1.65436E-24
 -1       812 1.98539E-04 1.90691E-05-3.30872E-24
 -1       813 1.99159E-04 1.70200E-05 1.65436E-24
 -1       814 1.99759E-04 1.50270E-05 3.30872E-24
 -1       815 2.00335E-04 1.30941E-05 0.00000E+00
 -1       816 2.00888E-04 1.12254E-05-3.30872E-24
 -1       817 2.01416E-04 9.42495E-06 8.27181E-25
 -1       818 2.01917E-04 7.69668E-06 3.30872E-24
 -1       819 2.02389E-04 6.04466E-06 0.00000E+00
 -1       820 2.02832E-04 4.47284E-06 3.30872E-24
 -1       821 1.94271E-04-1.74469E-07 0.00000E+00
 -1       822 1.94130E-04-3.82477E-06 0.00000E+00
 -1       823 1.93986E-04-8.26395E-06 0.00000E+00
 -1       824 1.93839E-04-1.30323E-05-1.65436E-24
 -1       825 1.93694E-04-1.75808E-05-3.30872E-24
 -1       826 1.93551E-04-2.13616E-05 1.65436E-24
 -1       827 1.93411E-04-2.40367E-05 0.00000E+00
 -1       828 1.93274E-04-2.52750E-05 0.00000E+00
 -1       829 1.93138E-04-2.51378E-05 0.00000E+00
 -1       830 1.93001E-04-2.36944E-05 0.00000E+00
 -1       831 1.92862E-04-2.13714E-05 3.30872E-24
 -1       832 1.92723E-04-1.86004E-05 1.65436E-24
 -1       833 1.92584E-04-1.59357E-05-3.30872E-24
 -1       834 1.92448E-04-1.39306E-05 1.65436E-24
 -1       835 1.92312E-04-1.29592E-05 0.00000E+00
 -1       836 1.96091E-04 2.35703E-06-3.30872E-24
 -1       837 1.97653E-04 2.48504E-06 1.65436E-24
 -1       838 1.99118E-04 2.61300E-06 0.00000E+00
 -1       839 2.00518E-04 2.74025E-06 8.27181E-25
 -1       840 2.01883E-04 2.86735E-06 0.00000E+00
 -1       856 1.92170E-04-1.44486E-05 0.00000E+00
 -1       857 1.92150E-04-1.53728E-05 0.00000E+00
 -1       858 1.92131E-04-1.61825E-05 0.00000E+00
 -1       859 1.92112E-04-1.68990E-05 0.00000E+00
 -1       860 1.92092E-04-1.75433E-05-4.13590E-25
 -1       861 1.92073E-04-1.81367E-05-2.06795E-25
 -1       862 1.92053E-04-1.87006E-05-4.13590E-25
 -1       863 1.92033E-04-1.92561E-05 0.00000E+00
 -1       864 1.92014E-04-1.98248E-05 8.27181E-25
 -1       865 1.91994E-04-2.04278E-05 0.00000E+00
 -1       866 1.91974E-04-2.10864E-05 0.00000E+00
 -1       867 1.91954E-04-2.18220E-05 4.13590E-25
 -1       868 1.91934E-04-2.26556E-05 8.27181E-25
 -1       869 1.91914E-04-2.36084E-05-4.13590E-25
 -1       870 1.91894E-04-2.47015E-05 8.27181E-25
 -1       871 1.93533E-04-1.33936E-05 8.27181E-25
 -1       872 1.95029E-04-1.34018E-05 0.00000E+00
 -1       873 1.96604E-04-1.34107E-05 0.00000E+00
 -1       874 1.98191E-04-1.34204E-05-2.32645E-25
 -1       875 1.99721E-04-1.34306E-05-4.13590E-25
 -1       876 1.92710E-04-1.44340E-05-3.30872E-24
 -1       877 1.93213E-04-1.54126E-05 0.00000E+00
 -1       878 1.93694E-04-1.63325E-05 0.00000E+00
 -1       879 1.94155E-04-1.72011E-05 1.65436E-24
 -1       880 1.94601E-04-1.80257E-05 3.30872E-24
 -1       881 1.95033E-04-1.88139E-05-1.65436E-24
 -1       882 1.95454E-04-1.95728E-05 0.00000E+00
 -1       883 1.95867E-04-2.03098E-05 0.00000E+00
 -1       884 1.96274E-04-2.10322E-05-3.30872E-24
 -1       885 1.96679E-04-2.17473E-05 0.00000E+00
 -1       886 1.97084E-04-2.24625E-05 3.30872E-24
 -1       887 1.97491E-04-2.31850E-05 0.00000E+00
 -1       888 1.97904E-04-2.39223E-05 0.00000E+00
 -1       889 1.98324E-04-2.46817E-05-1.65436E-24
 -1       890 1.98754E-04-2.54706E-05 0.00000E+00
 -1       891 1.93234E-04-2.60132E-05 0.00000E+00
 -1       892 1.94573E-04-2.60709E-05 0.00000E+00
 -1       893 1.95863E-04-2.61285E-05-8.27181E-25
 -1       894 1.97080E-04-2.61859E-05 4.13590E-25
 -1       895 1.98198E-04-2.62430E-05-4.13590E-25
 -1       956 2.03115E-04 1.67288E-06-1.65436E-24
 -1       957 2.02982E-04 4.50854E-07 0.00000E+00
 -1       958 2.02850E-04-6.91576E-07 3.30872E-24
 -1       959 2.02717E-04-1.76565E-06-1.65436E-24
 -1       960 2.02584E-04-2.78265E-06 0.00000E+00
 -1       961 2.02451E-04-3.75390E-06 1.65436E-24
 -1       962 2.02318E-04-4.69073E-06 3.30872E-24
 -1       963 2.02185E-04-5.60449E-06 1.65436E-24
 -1       964 2.02052E-04-6.50652E-06 0.00000E+00
 -1       965 2.01920E-04-7.40815E-06-1.65436E-24
 -1       966 2.01787E-04-8.32077E-06 0.00000E+00
 -1       967 2.01654E-04-9.25569E-06-1.65436E-24
 -1       968 2.01521E-04-1.02242E-05 0.00000E+00
 -1       969 2.01388E-04-1.12378E-05 0.00000E+00
 -1       970 2.01256E-04-1.23075E-05 0.00000E+00
 -1       971 2.01006E-04-1.45802E-05 0.00000E+00
 -1       972 2.00884E-04-1.56213E-05 1.65436E-24
 -1       973 2.00763E-04-1.65781E-05 3.30872E-24
 -1       974 2.00642E-04-1.74614E-05-1.65436E-24
 -1       975 2.00520E-04-1.82821E-05 0.00000E+00
 -1       976 2.00399E-04-1.90511E-05 1.65436E-24
 -1       977 2.00277E-04-1.97793E-05 0.00000E+00
 -1       978 2.00156E-04-2.04776E-05 1.65436E-24
 -1       979 2.00034E-04-2.11569E-05 0.00000E+00
 -1       980 1.99913E-04-2.18282E-05 0.00000E+00
 -1       981 1.99791E-04-2.25023E-05 3.30872E-24
 -1       982 1.99670E-04-2.31903E-05 0.00000E+00
 -1       983 1.99549E-04-2.39030E-05 0.00000E+00
 -1       984 1.99428E-04-2.46513E-05-1.65436E-24
 -1       985 1.99308E-04-2.54462E-05 0.00000E+00
 -3
    1PSTEP                        34          17           1          
  100CL  117 6.63114E-01         409                     0   17           1
 -4  STRESS      6    1
 -5  SXX         1    4    1    1
 -5  SYY         1    4    2    2
 -5  SZZ         1    4    3    3
 -5  SXY         1    4    1    2
 -5  SYZ         1    4    2    3
 -5  SZX         1    4    3    1
 -1         1-5.33956E+06-1.60184E+06-1.13375E+06-1.36594E+06-7.27596E-11 4.80213E-08
 -1         2 1.45218E+06 2.13185E+07 4.98012E+06 6.43410E+06 2.26137E-08 7.64849E-08
 -1         3-1.48889E+03-1.56138E+06 4.06451E+02-2.21671E+03-4.98378E-10 1.88593E-08
 -1         5-7.51036E+01 3.86545E+05 9.98190E+00-1.34190E+00-4.66943E-10-2.24827E-08
 -1         8-5.60711E+05-2.02084E+05-6.33469E+04-2.45998E+05 6.82121E-11-1.52795E-07
 -1         9 1.17412E+07 3.73586E+06 2.76705E+06-3.56353E+05-5.55301E-09-1.05845E-07
 -1        10-2.30625E+03-1.62708E+06-3.95309E+03-1.49991E+04-1.33987E-08-6.32662E-08
 -1        12-7.11849E+01 3.86566E+05 3.28120E+02-9.14650E+00-6.90942E-10 8.77117E-09
 -1        15 9.35950E+02 5.14351E+02 3.02543E+03 8.43011E-01-1.19243E-10 5.22267E-08
 -1        16 2.28955E+07-3.25096E+05 3.11805E+06-2.26588E+06 1.49012E-08-1.52426E-07
 -1        17 8.37912E+06 6.28078E+06 2.26386E+06 6.00996E+06 2.53844E-08 3.15253E-08
 -1        18 1.42476E+05 3.35419E+04 4.16245E+03-1.19628E+05 1.47463E-08-5.51881E-09
 -1        19 1.22489E+05 1.41668E+05-9.59328E+02 2.20691E+04 1.66801E-09-2.39706E-09
 -1        20-8.20234E+04-5.73428E+05-1.28680E+05 2.50931E+04-1.33832E-09-8.47710E-09
 -1        21-4.55787E+01-2.96079E+05-9.23971E+02 2.74949E+02 1.12394E-08 1.90279E-09
 -1        24 1.40317E+07 1.20880E+07 3.88535E+06 1.11928E+07-1.74439E-07-5.57629E-08
 -1        25 1.23714E+05 2.67196E+05 9.97917E+04-6.46134E+05 1.39171E-09 1.29943E-08
 -1        26-5.60974E+04 9.20182E+04-2.47752E+04 1.43940E+03-1.06229E-10 7.97517E-09
 -1        27-7.56150E+04-3.09773E+05-1.13342E+05 6.90662E+04 4.17958E-09-2.28132E-09
 -1        28 2.22453E+04-8.53913E+04 1.69035E+04 2.05764E+04-2.93409E-09 1.02173E-08
 -1        32-1.68067E+06-3.18102E+06-1.97363E+05 4.57570E+05-4.25498E-08-7.45467E-09
 -1        33-1.79998E+05 9.24770E+04 3.22925E+04-3.89266E+04-3.65803E-09-3.68436E-09
 -1        34-2.23714E+05-2.49398E+04 6.91676E+02 7.56105E+04-5.53711E-09 1.27648E-09
 -1        35-2.29296E+04-3.38725E+04-1.34920E+03 5.15124E+04-4.93747E-09 1.90751E-09
 -1        51 6.06284E+04-1.72511E+05 1.28234E+05-4.40962E+05 8.73115E-11 2.47383E-08
 -1        52 2.05290E+04-1.50115E+05 6.72755E+04-5.14286E+05-3.72893E-11 5.90080E-09
 -1        53 4.18835E+03-1.65487E+05 3.50144E+04-4.39444E+05 4.01997E-10-2.51232E-07
 -1        54 7.39790E+03-1.61277E+05 2.87333E+04-5.15775E+05 2.29193E-10-3.73226E-07
 -1        55 1.61176E+04-1.68301E+05 3.49057E+04-4.39350E+05 2.87400E-10 7.72015E-08
 -1        56-9.77668E+06-1.35894E+06-9.11006E+05-4.07128E+06 1.39698E-08-1.16270E-07
 -1        57-1.10393E+07-8.55449E+05-5.49020E+05-2.74286E+06 1.37516E-09 1.63927E-08
 -1        58-9.60124E+06-1.81808E+06-2.00948E+05-4.25382E+06-3.42407E-08-8.64384E-09
 -1        59-1.11960E+07-3.30477E+05-1.08854E+05-2.67263E+06 4.62087E-08-3.69517E-07
 -1        60-9.69322E+06-1.82248E+06-5.68846E+04-4.20629E+06 1.24564E-08-7.34799E-08
 -1        61-1.05701E+07-6.54678E+05 1.34151E+04-2.92053E+06-1.52140E-08 6.21440E-08
 -1        62-1.00990E+07-1.58036E+06-7.27725E+04-3.90474E+06 2.93949E-09 5.21759E-08
 -1        63-9.70225E+06-1.34524E+06 5.06129E+04-3.60480E+06 1.84518E-08 2.07176E-07
 -1        64-1.04593E+07-1.20440E+06-6.68726E+04-3.45733E+06-2.07801E-08 1.20290E-07
 -1        65-9.32894E+06-1.93514E+06 1.06769E+04-4.48226E+06-2.51166E-08 1.44756E-07
 -1        66-1.05910E+07-9.08058E+05-4.67830E+04-3.11673E+06-1.01863E-10 6.05760E-08
 -1        67-9.33480E+06-2.18825E+06-9.80251E+04-4.89728E+06-6.04959E-08-2.66984E-07
 -1        68-1.05714E+07-8.68622E+05-1.86222E+05-3.11616E+06-3.43316E-08-1.29090E-07
 -1        69-9.52146E+06-2.27497E+06-4.88719E+05-4.44910E+06-3.10611E-08-3.45230E-07
 -1        70-1.02956E+07-9.09339E+05-8.35808E+05-3.49252E+06 2.27747E-08-2.02795E-07
 -1        86-1.48138E+06-1.53258E+07-2.72541E+06-3.02406E+06-2.57336E-07-1.35246E-07
 -1        87 2.32126E+06 6.10258E+06 2.26710E+06 5.62491E+06-4.69670E-07 2.40807E-07
 -1        88-4.33166E+05-1.98540E+06 2.13396E+05-2.52685E+06-3.86122E-07-6.38256E-08
 -1        89 3.10914E+06 5.81723E+06 2.32275E+06 5.81090E+06-5.75819E-07-2.10339E-07
 -1        90-2.17886E+06-1.51139E+07-2.94409E+06-3.23766E+06-1.51511E-07 1.50889E-07
 -1       121-2.03965E+03-1.56628E+06-5.47189E+02 1.09871E+03 1.46225E-09 3.14321E-09
 -1       122-1.30271E+03-1.56144E+06 7.70769E+02-4.43747E+03-5.25731E-09-2.47674E-08
 -1       123-2.05943E+03-1.56642E+06 2.62325E+02 3.28135E+03 4.43367E-09 1.34023E-08
 -1       124 3.36794E+02-1.56099E+06 2.95433E+03-9.28447E+03-9.81800E-09-5.09317E-11
 -1       125-2.86978E+03-1.56732E+06 3.46725E+03 5.89974E+03 6.92125E-09-1.06011E-08
 -1       191-7.91459E+01 3.86563E+05 8.49556E+00 6.99606E-01-5.70546E-10 3.60524E-09
 -1       192-7.60672E+01 3.86546E+05 2.13008E+01-4.30200E+00-8.49137E-10-4.49654E-09
 -1       193-8.16825E+01 3.86563E+05 3.62719E+01 3.77786E+00-1.11214E-09 1.28875E-08
 -1       194-7.91567E+01 3.86549E+05 8.09750E+01-9.76166E+00-5.89888E-10 1.32450E-08
 -1       195-8.65512E+01 3.86560E+05 1.55036E+02 6.35204E+00-1.52263E-09-1.83354E-09
 -1       251-8.66277E+05 1.61030E+04-3.76079E+04-1.41802E+04 2.32230E-09 8.08086E-08
 -1       252-8.80631E+05-1.86295E+04-2.61832E+04 4.96896E+04-1.69354E-09-2.93301E-07
 -1       253-8.74549E+05 2.47241E+03-1.01082E+04-1.00830E+04-3.20392E-09-4.06660E-07
 -1       254-8.67507E+05-2.98524E+03-4.59185E+03 3.54212E+04-5.36318E-09 1.47583E-07
 -1       255-8.78812E+05 6.95411E+01-3.47024E+03 8.49237E+01 9.29845E-09 3.90741E-08
 -1       256-8.62240E+05-2.77168E+02 1.09181E+03 1.23179E+04-4.19425E-09 7.36191E-08
 -1       257-8.79388E+05-5.51280E+02-1.33974E+03 1.30096E+04-5.32509E-09 2.84155E-08
 -1       258-8.64914E+05 8.78070E+02 2.63603E+03-1.20110E+04 8.56039E-09 1.20291E-07
 -1       259-8.76374E+05-9.02692E+02 1.38897E+03 2.44116E+04-8.05744E-09 1.74143E-08
 -1       260-8.71038E+05 2.87705E+03 5.53721E+03-2.95731E+04-9.03111E-09-1.24376E-07
 -1       261-8.73877E+05-2.07817E+03 8.63284E+03 3.05868E+04 1.65227E-08 2.28708E-07
 -1       262-8.69615E+05 1.16894E+04 2.14383E+04-3.47001E+04-2.81147E-08 3.78373E-09
 -1       263-8.78038E+05-9.49450E+03 3.39772E+04 2.95474E+04 1.96494E-08-4.28354E-08
 -1       264-8.39340E+05 6.67825E+04 9.40253E+04-2.56083E+04 2.71258E-08-7.45258E-08
 -1       265-9.03670E+05-5.72935E+04 1.31007E+05 2.14837E+04 2.35449E-08 1.45927E-07
 -1       266-1.69440E+04-7.92385E+03 3.97516E+04-1.80364E+01 9.45874E-11 4.63669E-08
 -1       267 1.96425E+04 9.23414E+03 2.80978E+04 2.08122E+01 7.45786E-11-1.54426E-07
 -1       268-2.63404E+03-1.30788E+03 1.04437E+04-2.65174E+00 6.59384E-11 3.65196E-07
 -1       269 3.11001E+03 1.56518E+03 6.78836E+03 3.08899E+00 4.14957E-11 2.08997E-07
 -1       270-4.66815E+02-2.57173E+02 3.27683E+03-4.19193E-01 1.29603E-11 5.86248E-08
 -1       271-1.49237E+06-1.89603E+05-1.12350E+05-5.80466E+05-2.13113E-08-1.44355E-08
 -1       272-1.49033E+06-3.02331E+05-7.06589E+04-6.17180E+05-1.98816E-09 1.65445E-07
 -1       273-1.51603E+06-2.13625E+05-2.72093E+04-5.72461E+05-1.09685E-08 5.55556E-08
 -1       274-1.46327E+06-2.73443E+05-1.42112E+04-6.32187E+05 4.91491E-08 2.86091E-07
 -1       275-1.52160E+06-2.13297E+05-6.75917E+03-5.68730E+05-8.29095E-09 2.18432E-07
 -1       276-1.45756E+06-2.74294E+05-2.88416E+03-6.40642E+05 1.63582E-08-1.95723E-08
 -1       277-1.52439E+06-2.10729E+05-1.86675E+03-5.66028E+05 1.19326E-09 1.17155E-07
 -1       278-1.45531E+06-2.77471E+05-7.31270E+02-6.46858E+05-5.85260E-09 1.95115E-07
 -1       279-1.52617E+06-2.08617E+05-8.78011E+02-5.64127E+05-1.63382E-08-1.81785E-07
 -1       280-1.45425E+06-2.79879E+05-1.02591E+03-6.50958E+05 4.46880E-09 1.03778E-07
 -1       281-1.52712E+06-2.07274E+05-1.89393E+03-5.63053E+05-3.28546E-08-1.84835E-09
 -1       282-1.45463E+06-2.82116E+05-4.40800E+03-6.52654E+05-1.06879E-08 1.27679E-07
 -1       283-1.52661E+06-2.05994E+05-7.84433E+03-5.62920E+05 1.77476E-08 1.22106E-07
 -1       284-1.46164E+06-2.92431E+05-2.13711E+04-6.50471E+05 1.01289E-08 1.05534E-07
 -1       285-1.52005E+06-1.98157E+05-3.33563E+04-5.64722E+05-4.01405E-09 2.26410E-08
 -1       301-6.45236E+03-6.45630E+05 1.67066E+05-1.13358E+06-4.96220E-09 2.90209E-07
 -1       302-8.04795E+03-5.99009E+05 1.00544E+05-1.65466E+06-9.00036E-09 1.58616E-09
 -1       303-2.12250E+04-6.37967E+05 5.68514E+04-1.13047E+06-5.63159E-09-1.18540E-07
 -1       304-2.39262E+04-6.05926E+05 5.72900E+04-1.65406E+06-1.02882E-08-3.41570E-08
 -1       305-2.55017E+04-6.26770E+05 7.05376E+04-1.13357E+06 6.91216E-11-1.42347E-07
 -1       306-3.01513E+07-6.22399E+06-8.61689E+06-5.08272E+05-6.68224E-08-1.86963E-07
 -1       307 2.53596E+07 3.28008E+06 5.51745E+06-1.52472E+07-9.25385E-07 4.61005E-08
 -1       308-6.94981E+06-1.02390E+06-4.47167E+05 5.21403E+06-2.08092E-07 3.96278E-07
 -1       309-3.23004E+06 8.76069E+06 2.29189E+06-2.06998E+07 4.34462E-07 2.50002E-07
 -1       310-1.26031E+07-1.95111E+06-2.04770E+06 5.22450E+06 7.36909E-08-1.21669E-07
 -1       311 3.85549E+07 1.10516E+04 7.29856E+06-8.78848E+06 5.90895E-07-7.38073E-08
 -1       312-3.19762E+07-6.79418E+06-8.55642E+06-5.06490E+06 2.53553E-07-5.36675E-08
 -1       313 4.54735E+07 1.50932E+07 1.06877E+07 2.38750E+07 2.45054E-08-3.08471E-07
 -1       314-1.72121E+07-1.78344E+07-7.53446E+06-1.25467E+07 5.24160E-07-2.34577E-07
 -1       315-1.86679E+06 2.97999E+07 5.67420E+06 1.05230E+07-2.16387E-07-1.46218E-07
 -1       316 1.41646E+06-9.84293E+06-4.36065E+05-2.51308E+06-1.07964E-06-1.37283E-07
 -1       317-1.71123E+07 2.24490E+07 2.24619E+06-8.86284E+06 6.87040E-07-6.73172E-07
 -1       318-1.07664E+06-1.28224E+07-2.05368E+06-4.24022E+06-8.77626E-07 1.15950E-07
 -1       319 7.25698E+06 3.20495E+07 7.05895E+06 1.66630E+07-7.78018E-08 2.04658E-07
 -1       320-2.26313E+07-1.76763E+07-9.87500E+06-1.28351E+07 1.74041E-07-4.08909E-08
 -1       336-7.44029E+02-1.69556E+06-1.38678E+04 8.92948E+03-2.58660E-08-2.77578E-08
 -1       337-5.41516E+03-1.69511E+06-1.80962E+04-2.16892E+04-4.97762E-08-9.71886E-09
 -1       338 2.78072E+02-1.69504E+06-2.85025E+04 1.25086E+04-3.46654E-08 2.64336E-08
 -1       339-3.02449E+04-1.71237E+06-6.44210E+04-2.86999E+04-6.29962E-08 1.84009E-08
 -1       340 1.99265E+04-1.68048E+06-1.01479E+05 1.58092E+04-4.03343E-08 3.16104E-08
 -1       406-4.94724E+01 3.86546E+05 6.44269E+02 3.34566E+00-1.89658E-09 1.30658E-08
 -1       407 1.55070E+02 3.86680E+05 1.37682E+03 2.33730E+01-4.00391E-10-4.69572E-09
 -1       408 6.35208E+02 3.86445E+05 2.74529E+03-2.70404E+01-2.39129E-09 6.07906E-09
 -1       409 2.90756E+03 3.87557E+05 6.18761E+03 2.88698E+02-5.34669E-10-2.21034E-08
 -1       410 8.48124E+03 3.85655E+05 1.26287E+04-2.78401E+02-3.07955E-09-8.82574E-09
 -1       521-3.17139E+07-7.68948E+06-1.00755E+07-1.13511E+05-1.33878E-07-1.15717E-07
 -1       522 2.62429E+07 4.31897E+06 5.63022E+06-1.87719E+07-6.46542E-07-1.77912E-07
 -1       523-7.52265E+06-1.33849E+06-4.38619E+05 5.66538E+06 8.75443E-08-4.43499E-07
 -1       524-6.73686E+06 1.18413E+07 2.48140E+06-2.37751E+07 8.81111E-07-6.46738E-07
 -1       525-1.34012E+07-2.59205E+06-2.25295E+06 5.68042E+06 4.07745E-07-2.85479E-07
 -1       526 4.21271E+07-8.40228E+04 7.66466E+06-1.14427E+07-2.38419E-07 7.56118E-08
 -1       527-3.38435E+07-8.50130E+06-9.87035E+06-4.92826E+06-9.68575E-08 2.38273E-07
 -1       528 4.96853E+07 1.68409E+07 1.11554E+07 2.71728E+07 2.41387E-07-5.71308E-08
 -1       529-1.81572E+07-2.00626E+07-8.64505E+06-1.25789E+07 5.68514E-07 1.08615E-07
 -1       530-4.35428E+06 3.46300E+07 6.00970E+06 9.96968E+06-8.88831E-08 6.36035E-07
 -1       531 1.42030E+06-1.09182E+07-4.08312E+05-2.45390E+06-9.87216E-07 4.52972E-07
 -1       532-1.96202E+07 2.44629E+07 2.45692E+06-1.31873E+07 5.07061E-07-6.57485E-07
 -1       533-1.11845E+06-1.39816E+07-2.18904E+06-4.04058E+06-2.18453E-07-1.02672E-06
 -1       534 5.25349E+06 3.72259E+07 7.35201E+06 1.72508E+07-1.14087E-08 7.70669E-07
 -1       535-2.38233E+07-2.00903E+07-1.13308E+07-1.29086E+07 1.01165E-07 4.70434E-07
 -1       536-7.06290E+05-4.68145E+04-4.80987E+04-5.47095E+04 1.75760E-09 5.61276E-08
 -1       537-5.47353E+04 4.47607E+04 8.40326E+04 1.23899E+05-1.22637E-07 7.98341E-08
 -1       538-3.94425E+05 3.33997E+03 3.58035E+03-7.22278E+04 1.45230E-08 1.11914E-07
 -1       539-2.68989E+05 2.86389E+03 2.49489E+04 1.38792E+05 1.95875E-07 1.05095E-07
 -1       540-4.97418E+05-4.29808E+02-2.13300E+04-7.01370E+04 1.25151E-08 1.01854E-07
 -1       541 1.46968E+05 1.69832E+04 1.06453E+05 9.79724E+04-5.08753E-08 8.28492E-08
 -1       542-7.99173E+05-2.01471E+04-8.42849E+04-3.05328E+04 4.65625E-08 4.70761E-08
 -1       543 4.05803E+05 2.73418E+04 1.58065E+05-1.33671E+04-5.43696E-09-2.06560E-08
 -1       544-7.49310E+05-1.65470E+04-7.48799E+04 4.05323E+04-7.31238E-08-5.03792E-08
 -1       545 2.92036E+04 9.48978E+03 7.98581E+04-1.13671E+05-2.66067E-08-7.29219E-08
 -1       546-4.32688E+05 6.09904E+03-1.22359E+04 6.94244E+04 5.26604E-08-1.04193E-07
 -1       547-2.87080E+05-4.65693E+03 1.05962E+04-1.41639E+05-8.76937E-08-1.18216E-07
 -1       548-4.41530E+05 4.72095E+03-2.38915E+04 6.91916E+04-1.01161E-07-1.08132E-07
 -1       549 4.83998E+04 1.60930E+04 6.05663E+04-1.11532E+05-6.52666E-08-6.40655E-08
 -1       550-7.59191E+05-2.21632E+04-1.29026E+05 3.86010E+04-1.39607E-09-3.72856E-08
 -1       551 4.08193E+04-7.51785E+05-1.58427E+04-1.24750E+06-1.01092E-07-6.78119E-09
 -1       552 9.33097E+04-7.96775E+05 9.95780E+03-1.77878E+06-7.21921E-08 2.24463E-08
 -1       553 7.17936E+04-7.93180E+05 3.20759E+04-1.24085E+06-1.17201E-07 2.31812E-08
 -1       554 1.32113E+05-8.12664E+05 8.11204E+04-1.78073E+06-7.42730E-08 2.38360E-08
 -1       555 1.01546E+05-8.16833E+05 1.48139E+05-1.24068E+06-1.22251E-07-1.58070E-08
 -1       556 2.23749E+05-3.83717E+05 2.58611E+04-4.07298E+05-2.60479E-08-8.20728E-09
 -1       557 3.54360E+05-4.88087E+05 1.62065E+04-5.27729E+05-5.55883E-09 2.00307E-08
 -1       558 2.05520E+05-3.76528E+05 2.34572E+03-4.11729E+05-2.05182E-08-1.44792E-09
 -1       559 3.29321E+05-4.88168E+05 2.45172E+03-5.48189E+05 2.25700E-08-2.97696E-08
 -1       560 1.90208E+05-3.66925E+05-1.50156E+03-4.22764E+05-2.91038E-10 1.89684E-08
 -1       561 3.10080E+05-4.80468E+05 1.32057E+02-5.61308E+05-3.05299E-08 2.73212E-08
 -1       562 1.78100E+05-3.59403E+05-1.32678E+03-4.31532E+05-1.89029E-08-1.54396E-08
 -1       563 2.95698E+05-4.74198E+05-3.65164E+01-5.70702E+05 2.24827E-09-2.07956E-08
 -1       564 1.69458E+05-3.54019E+05-6.00992E+02-4.37655E+05 6.72298E-09-1.90030E-08
 -1       565 2.86157E+05-4.70043E+05 2.45314E+01-5.76797E+05 8.52742E-09 7.91078E-09
 -1       566 1.64406E+05-3.50822E+05-2.59097E+02-4.41190E+05 5.74073E-09 5.14046E-09
 -1       567 2.81519E+05-4.68025E+05-3.59923E+02-5.79614E+05 3.16668E-08-2.83108E-08
 -1       568 1.63033E+05-3.49982E+05-1.12058E+03-4.42245E+05 8.90759E-09 4.28190E-09
 -1       569 2.80398E+05-4.67948E+05-2.83118E+03-5.78187E+05-1.05147E-08 2.59388E-09
 -1       570 1.66431E+05-3.53212E+05-6.19287E+03-4.41228E+05 9.38599E-09 4.59659E-09
 -1       571 2.90852E+05 1.05218E+04 1.50090E+04-9.52979E+04 2.81580E-09-4.13820E-10
 -1       572 2.93027E+05 3.96661E+03 7.35562E+03-1.04553E+05 5.21686E-09 7.41784E-09
 -1       573 2.91716E+05 1.24846E+03 3.26835E+03-9.51217E+04 1.32177E-08 2.43845E-08
 -1       574 2.91930E+05 7.29308E+02 1.63905E+03-1.04777E+05 2.39270E-08-4.69936E-09
 -1       575 2.91810E+05 4.49577E+02 7.73600E+02-9.50976E+04 6.10925E-09 1.27175E-08
 -1       576 2.91794E+05 4.60942E+02 3.96103E+02-1.04806E+05-1.16165E-08 1.20544E-08
 -1       577 2.91850E+05 3.91213E+02 1.97776E+02-9.50943E+04-2.83944E-09 5.60431E-09
 -1       578 2.91825E+05 4.22621E+02 1.14341E+02-1.04811E+05-3.04090E-09-8.05358E-09
 -1       579 2.91923E+05 3.54251E+02 7.86767E+01-9.50939E+04 8.70023E-09-1.41918E-08
 -1       580 2.91927E+05 3.71296E+02 9.15444E+01-1.04806E+05-6.70025E-09-9.03765E-09
 -1       581 2.92037E+05 2.95397E+02 1.38486E+02-9.50999E+04 5.81713E-09 8.48377E-09
 -1       582 2.92104E+05 3.33934E+02 2.81696E+02-1.04744E+05 1.31695E-09 1.54405E-08
 -1       583 2.92178E+05 3.38617E+02 5.40801E+02-9.51566E+04-2.01180E-09-4.46744E-09
 -1       584 2.92481E+05 7.80329E+02 1.22379E+03-1.04267E+05 3.46154E-09-4.26280E-09
 -1       585 2.92203E+05 1.81070E+03 2.47822E+03-9.55766E+04-2.41562E-09-6.73026E-09
 -1       586-3.43352E+03 1.16990E+05-2.92342E+03-2.51016E+05-5.20004E-09-2.64799E-08
 -1       587-1.34381E+03 1.16741E+05 7.72859E+02-2.76263E+05-8.82392E-09-1.51786E-08
 -1       588 3.97382E+02 1.16548E+05 4.76961E+03-2.50878E+05-5.35510E-09 2.63090E-08
 -1       589 5.09359E+03 1.19028E+05 1.23707E+04-2.76028E+05-1.01554E-08-3.39969E-09
 -1       590 1.66425E+04 1.15213E+05 2.59501E+04-2.51311E+05-7.10315E-09 1.58871E-08
 -1       591-7.50433E+04-1.59569E+04-2.25504E+04-3.19450E+04-2.71439E-09-1.58443E-08
 -1       592-7.91493E+04-1.95051E+04-1.22151E+04-3.55589E+04 2.18546E-09 4.17481E-09
 -1       593-7.72983E+04-1.43209E+04-5.08453E+03-3.35988E+04 3.75600E-09-6.13159E-09
 -1       594-7.60360E+04-1.61958E+04-2.53578E+03-3.56764E+04-1.92841E-09-1.12320E-08
 -1       595-7.74702E+04-1.43155E+04-1.16416E+03-3.36739E+04-3.15724E-09-1.59994E-09
 -1       596-7.58228E+04-1.60445E+04-5.91552E+02-3.56510E+04 9.49123E-09 1.53781E-08
 -1       597-7.74918E+04-1.43309E+04-3.21589E+02-3.36767E+04 6.15438E-09 9.43083E-09
 -1       598-7.58018E+04-1.60385E+04-2.57550E+02-3.56439E+04-4.76621E-09-1.05438E-08
 -1       599-7.74906E+04-1.43315E+04-3.27780E+02-3.36764E+04 8.43329E-10-8.13623E-09
 -1       600-7.58228E+04-1.60450E+04-6.07944E+02-3.56489E+04 6.07258E-09-1.32100E-08
 -1       601-7.74659E+04-1.43170E+04-1.19884E+03-3.36729E+04 3.53998E-09 4.07272E-09
 -1       602-7.60423E+04-1.61997E+04-2.61247E+03-3.56711E+04 2.49577E-09-5.91444E-09
 -1       603-7.72861E+04-1.43254E+04-5.23895E+03-3.35963E+04 8.24343E-09 3.16618E-08
 -1       604-7.92679E+04-1.95896E+04-1.25852E+04-3.55249E+04 9.01878E-10 6.54450E-09
 -1       605-7.49425E+04-1.60290E+04-2.32338E+04-3.19121E+04 4.08534E-09 2.28092E-08
 -1       606 2.66307E+04-1.43435E+04-2.57127E+04 2.40188E+04 6.38647E-09-2.08308E-08
 -1       607 2.22373E+04-4.68467E+03-1.28048E+04 2.69921E+04 6.65750E-10-3.30670E-09
 -1       608 2.47411E+04-8.45214E+02-5.73230E+03 2.38499E+04-4.94038E-09 2.98928E-09
 -1       609 2.42612E+04-2.89641E+02-2.89581E+03 2.72064E+04 3.23780E-10 2.03381E-08
 -1       610 2.45273E+04-4.11294E+01-1.38163E+03 2.38298E+04 5.08317E-09 1.07714E-08
 -1       611 2.44520E+04-4.13936E+01-6.96606E+02 2.72295E+04 5.75528E-09 6.34395E-09
 -1       612 2.44801E+04-2.73900E+01-3.31155E+02 2.38278E+04 1.94359E-09 2.13754E-09
 -1       613 2.44635E+04-3.72831E+01-1.48376E+02 2.72322E+04 4.85215E-09-1.04587E-08
 -1       614 2.44579E+04-3.38017E+01-3.47383E+01 2.38271E+04 2.41562E-09 7.87395E-10
 -1       615 2.44582E+04-3.57802E+01 6.23219E+01 2.72327E+04-3.84580E-09-7.21707E-09
 -1       616 2.44405E+04-3.06651E+01 1.86760E+02 2.38273E+04 1.67211E-09-1.11745E-08
 -1       617 2.44807E+04 4.02767E+00 4.26052E+02 2.72322E+04-3.12639E-10 3.46427E-09
 -1       618 2.44035E+04 9.21643E+01 8.58758E+02 2.38276E+04-7.07587E-10 1.31877E-10
 -1       619 2.47838E+04 6.68026E+02 1.92839E+03 2.72316E+04-2.17756E-09 1.10549E-08
 -1       620 2.41183E+04 2.12851E+03 3.87602E+03 2.38292E+04 1.40460E-09 6.78392E-09
 -1       621 5.05093E+02 3.01169E+05 3.83962E+03 4.12862E+04 9.66793E-10 5.39330E-10
 -1       622 6.72157E+02 3.02054E+05 3.42244E+03 5.99398E+04 1.18507E-09-3.99814E-09
 -1       623 1.43706E+02 3.01358E+05 4.13082E+03 4.10996E+04 1.32673E-09-1.69675E-08
 -1       624 2.12760E+03 3.03276E+05 8.02334E+03 6.01233E+04 1.35691E-09-3.43916E-08
 -1       625 2.07848E+03 2.99765E+05 1.40274E+04 4.10966E+04 1.45837E-09-1.55858E-08
 -1       626 2.61142E+05 6.15342E+04 5.14058E+03 1.26937E+05 5.79212E-09 1.13396E-08
 -1       627 2.58817E+05 6.29352E+04 2.47721E+03 1.31225E+05 4.88762E-09-2.02788E-08
 -1       628 2.61271E+05 5.91822E+04 1.04767E+03 1.27811E+05-2.77760E-09 1.84091E-08
 -1       629 2.58179E+05 6.22524E+04 5.12775E+02 1.31466E+05-1.25328E-08 2.18310E-08
 -1       630 2.61285E+05 5.90686E+04 2.37945E+02 1.27848E+05 8.13588E-09 1.66231E-08
 -1       631 2.58112E+05 6.22264E+04 1.28139E+02 1.31468E+05 2.98012E-08 4.68742E-09
 -1       632 2.61282E+05 5.90726E+04 8.44764E+01 1.27843E+05 2.06269E-08-1.98947E-08
 -1       633 2.58104E+05 6.22283E+04 9.43505E+01 1.31464E+05 3.97608E-09 2.70234E-09
 -1       634 2.61277E+05 5.90698E+04 1.52685E+02 1.27843E+05 1.16175E-08-2.13715E-08
 -1       635 2.58118E+05 6.22265E+04 3.09086E+02 1.31470E+05 2.49801E-08-4.72846E-09
 -1       636 2.61268E+05 5.90639E+04 6.24263E+02 1.27843E+05 8.24002E-10-2.64927E-08
 -1       637 2.58253E+05 6.23236E+04 1.37265E+03 1.31469E+05-2.89529E-08 6.80575E-09
 -1       638 2.61219E+05 5.93671E+04 2.82028E+03 1.27706E+05-1.32891E-08 2.46587E-08
 -1       639 2.59735E+05 6.43837E+04 6.67293E+03 1.31033E+05 9.80390E-09 2.66339E-08
 -1       640 2.61014E+05 6.55202E+04 1.38475E+04 1.25114E+05 7.42011E-09 2.15807E-08
 -1       656 6.65516E+04-1.70330E+06-1.60653E+05-2.55760E+03 1.38243E-10 6.67455E-10
 -1       657-8.80450E+04-1.77590E+06-1.33097E+05 5.16781E+03-2.68301E-10 5.72204E-09
 -1       658 2.12172E+04-1.72392E+06-8.19784E+04-4.64275E+03 3.99041E-10 7.37946E-09
 -1       659-9.52267E+04-1.77931E+06-1.42535E+05 6.90111E+03-2.29375E-09 5.12431E-09
 -1       660 7.37174E+04-1.69990E+06-1.76879E+05-4.29089E+03-2.02272E-09-1.18811E-09
 -1       661 1.58154E+05 1.65467E+04 1.66830E+04 6.18284E+04-4.58840E-10 1.27175E-08
 -1       662 1.67596E+05 2.88913E+04 1.12432E+04 5.80738E+04-3.42351E-09 8.61883E-09
 -1       663 1.61431E+05 2.18989E+04 3.93214E+03 6.08773E+04 3.94607E-10 9.80890E-10
 -1       664 1.63797E+05 2.26325E+04 2.35226E+03 5.92356E+04-2.20132E-09-2.34158E-08
 -1       665 1.61928E+05 2.26298E+04 9.27955E+02 6.07321E+04-2.77510E-10-1.74147E-08
 -1       666 1.63208E+05 2.17967E+04 5.43218E+02 5.94250E+04 6.26994E-09 9.25359E-09
 -1       667 1.62015E+05 2.27129E+04 2.88767E+02 6.06957E+04-8.37787E-10-9.02892E-09
 -1       668 1.63112E+05 2.17371E+04 2.94773E+02 5.94779E+04 1.67564E-09-9.81218E-09
 -1       669 1.62023E+05 2.26877E+04 3.99525E+02 6.06794E+04-3.28569E-09 1.05808E-09
 -1       670 1.63209E+05 2.19542E+04 8.70384E+02 5.94808E+04-9.31190E-09-2.38454E-08
 -1       671 1.61918E+05 2.25003E+04 1.54557E+03 6.06908E+04-9.22647E-10-1.62133E-08
 -1       672 1.64110E+05 2.34578E+04 3.95442E+03 5.92625E+04 1.11622E-08-1.87578E-09
 -1       673 1.61127E+05 2.12222E+04 6.62702E+03 6.08832E+04-2.59320E-10 2.58660E-09
 -1       674 1.70417E+05 3.41048E+04 1.89519E+04 5.74095E+04-2.34104E-09 3.76531E-10
 -1       675 1.55651E+05 1.21516E+04 2.81313E+04 6.24319E+04-3.45017E-09 6.11180E-10
 -1       676 2.41154E+01-2.96002E+05-1.11363E+03-1.37479E+02 1.65261E-09 2.14101E-08
 -1       677-2.94580E+02-2.96271E+05-2.03813E+03 2.74736E+02 1.14175E-08 1.02148E-08
 -1       678 1.97581E+02-2.95810E+05-3.60291E+03-1.37167E+02-6.58474E-10-7.88413E-09
 -1       679-3.60297E+03-2.98446E+05-8.55903E+03 2.73548E+02 8.98353E-09-8.51239E-09
 -1       680 2.15118E+03-2.93828E+05-1.37942E+04-1.34776E+02 1.99179E-09 1.37316E-08
 -1       771-3.06338E+06-7.47525E+05-1.65864E+05-1.46644E+06-3.37895E-08-3.02098E-08
 -1       772-2.98621E+06-8.36386E+05-8.55118E+04-1.56917E+06-2.96277E-08 7.48696E-09
 -1       773-3.09487E+06-7.22965E+05-4.35977E+04-1.48098E+06-1.11468E-08 8.20728E-09
 -1       774-2.97670E+06-8.17869E+05-1.94498E+04-1.59496E+06 2.64699E-08-4.94765E-10
 -1       775-3.11133E+06-7.11418E+05-1.45528E+04-1.48803E+06-1.36788E-09 6.46833E-09
 -1       776-2.98905E+06-8.14833E+05-5.44151E+03-1.61447E+06-3.43425E-09 4.79849E-09
 -1       777-3.12561E+06-7.01111E+05-6.43147E+03-1.49426E+06 7.91624E-09 2.54659E-09
 -1       778-3.00196E+06-8.12008E+05-1.81816E+03-1.63123E+06 7.39237E-09 4.78758E-09
 -1       779-3.13789E+06-6.92104E+05-3.21454E+03-1.49958E+06-7.58155E-09-1.03901E-08
 -1       780-3.01332E+06-8.09312E+05-5.33182E+02-1.64489E+06-5.88625E-09-2.31557E-09
 -1       781-3.14765E+06-6.84842E+05-1.24927E+03-1.50374E+06-2.29775E-08-3.63434E-09
 -1       782-3.02208E+06-8.07023E+05 4.49347E+02-1.65497E+06-3.13739E-08-9.34233E-09
 -1       783-3.15453E+06-6.79796E+05 6.99054E+02-1.50666E+06-6.83212E-09-1.73145E-08
 -1       784-3.02693E+06-8.04738E+05 2.90070E+03-1.66119E+06-2.12749E-08 2.16505E-09
 -1       785-3.15859E+06-6.76787E+05 5.12036E+03-1.50850E+06-3.67509E-08 7.23230E-09
 -1       786 1.21751E+05-9.70787E+03 2.24601E+04-3.18838E+02 3.60760E-09 8.77480E-09
 -1       787 1.31493E+05 1.12395E+04 1.58896E+04-1.31196E+02 1.06367E-08 3.63684E-09
 -1       788 1.25507E+05-1.52125E+03 5.81086E+03-2.83778E+02 3.93554E-09 6.11453E-09
 -1       789 1.27117E+05 1.76079E+03 3.64779E+03-1.84961E+02 7.63944E-10 2.51331E-08
 -1       790 1.26127E+05-2.36849E+02 1.47680E+03-2.65090E+02-3.40466E-09 2.41189E-08
 -1       791 1.26392E+05 2.73991E+02 8.52722E+02-2.16941E+02-6.39983E-09-3.06768E-09
 -1       792 1.26233E+05-3.55591E+01 3.60856E+02-2.51801E+02-3.31027E-09-4.53298E-10
 -1       793 1.26266E+05 3.73150E+01 1.78818E+02-2.41892E+02-4.98673E-10 1.43295E-08
 -1       794 1.26253E+05-3.22837E-01 4.43028E+01-2.40139E+02 3.97845E-09 1.99748E-10
 -1       795 1.26229E+05-2.91777E+01-6.33129E+01-2.66132E+02-6.13106E-09-1.04317E-08
 -1       796 1.26270E+05 3.08962E+01-1.71894E+02-2.27560E+02 3.75461E-09-6.14381E-09
 -1       797 1.26129E+05-2.30609E+02-4.69013E+02-2.94896E+02 3.99355E-09 5.60959E-10
 -1       798 1.26352E+05 2.00958E+02-7.60881E+02-2.11374E+02 2.09057E-09-1.02234E-08
 -1       799 1.25552E+05-1.48142E+03-2.09260E+03-3.34869E+02 5.90270E-09-8.75281E-09
 -1       800 1.26847E+05 1.28069E+03-2.96125E+03-1.87589E+02 5.15945E-10 1.27384E-08
 -1       801-1.71079E+05-9.99309E+06-1.39269E+06 1.41410E+06 9.02801E-08-6.07688E-08
 -1       802 7.37544E+05 5.94171E+06 2.17958E+06-1.74561E+06 2.55837E-07-4.44506E-08
 -1       803-5.36128E+05-1.42558E+07-1.88860E+06 8.97676E+05 7.64521E-08 1.96742E-08
 -1       804 2.86838E+05 2.38795E+06 1.53553E+06 6.76525E+05-1.20563E-07-9.92609E-08
 -1       805 1.89222E+05-6.45346E+06-2.85850E+05-1.00237E+06-5.02769E-08-6.26851E-08
 -1       806-3.13334E+05-6.03839E+04-2.32836E+04-1.24154E+05-6.61430E-09-2.99633E-09
 -1       807-3.15210E+05-5.67806E+04-1.14654E+04-1.29780E+05 1.61253E-09 2.09612E-08
 -1       808-3.14023E+05-5.21888E+04-4.86499E+03-1.28055E+05-2.63208E-09-1.96225E-08
 -1       809-3.12788E+05-5.36027E+04-2.37997E+03-1.30040E+05 7.46013E-10-2.11685E-09
 -1       810-3.14122E+05-5.19136E+04-1.09145E+03-1.28224E+05-5.18867E-09 1.12213E-08
 -1       811-3.12603E+05-5.34774E+04-5.42914E+02-1.30003E+05 4.14002E-09-1.78331E-08
 -1       812-3.14136E+05-5.19394E+04-2.74925E+02-1.28223E+05-6.08907E-09-1.17011E-08
 -1       813-3.12577E+05-5.34796E+04-1.79260E+02-1.29984E+05-3.99950E-09 1.35369E-08
 -1       814-3.14128E+05-5.19492E+04-1.78572E+02-1.28219E+05-3.13776E-10 3.78350E-09
 -1       815-3.12581E+05-5.34817E+04-2.88556E+02-1.29976E+05-7.47514E-09 2.01362E-08
 -1       816-3.14107E+05-5.19480E+04-5.47511E+02-1.28215E+05 2.75577E-09 3.92629E-09
 -1       817-3.12673E+05-5.35322E+04-1.17471E+03-1.29965E+05-9.12041E-09 1.43859E-09
 -1       818-3.14035E+05-5.21046E+04-2.39502E+03-1.28140E+05 5.96629E-10-4.66252E-09
 -1       819-3.13985E+05-5.49609E+04-5.63412E+03-1.29669E+05 1.05083E-08-7.89350E-09
 -1       820-3.13563E+05-5.62520E+04-1.14412E+04-1.26355E+05 1.43427E-09-1.12291E-08
 -1       821-3.80497E+05 2.09030E+04-4.87097E+04 2.22115E+03 1.40211E-08 7.13044E-10
 -1       822-4.00025E+05-2.42179E+04-3.41919E+04-4.76744E+03 5.65893E-09-1.50385E-09
 -1       823-3.87878E+05 3.29800E+03-1.25768E+04 3.65505E+03-1.31191E-08 1.65196E-08
 -1       824-3.91079E+05-3.80203E+03-7.86608E+03-5.79913E+03 2.59523E-09 1.44369E-08
 -1       825-3.89452E+05 5.13061E+02-3.30107E+03 3.25298E+03 2.16278E-08-1.50362E-09
 -1       826-3.88524E+05-5.63867E+02-1.71882E+03-3.39432E+03 2.68440E-08-2.24538E-08
 -1       827-3.90405E+05 4.07071E+01-1.21760E+03 1.25008E+03 1.00036E-08-2.84444E-09
 -1       828-3.87730E+05-1.23959E+02-5.40996E+02 1.10318E+03 1.46741E-09-1.25458E-08
 -1       829-3.90231E+05 6.12037E+01-1.20437E+03-1.24455E+03 3.29490E-09 2.69350E-09
 -1       830-3.88901E+05-6.21810E+02-1.86456E+03 5.19137E+03-3.12511E-10 1.66948E-08
 -1       831-3.89260E+05 5.58681E+02-3.38338E+03-2.83813E+03-8.06725E-09-1.04437E-08
 -1       832-3.91160E+05-3.97440E+03-8.17720E+03 6.59293E+03-3.57400E-09-1.71082E-08
 -1       833-3.87990E+05 3.42533E+03-1.30967E+04-2.64617E+03-7.68622E-10 1.16261E-08
 -1       834-4.00068E+05-2.51568E+04-3.54453E+04 4.49154E+03-1.92491E-09 3.02221E-08
 -1       835-3.80332E+05 2.17058E+04-5.06341E+04-7.36641E+02 7.04870E-09 1.60253E-08
 -1       836-1.41291E+03 3.69875E+05 2.29044E+04-1.58838E+04-7.00129E-09-8.84484E-10
 -1       837 4.88421E+03 3.77049E+05 1.93907E+04-3.24640E+04-7.63384E-09 6.51539E-09
 -1       838-5.58235E+02 3.71885E+05 1.97696E+04-1.58122E+04-6.34464E-09 2.18386E-08
 -1       839 1.24486E+04 3.82682E+05 3.74109E+04-3.25179E+04-6.64159E-09-1.51931E-09
 -1       840-3.84757E+03 3.64182E+05 5.96625E+04-1.58356E+04-6.14091E-09-1.10849E-08
 -1       856-5.17650E+04 8.02179E+03-2.11391E+04-3.97475E+02 4.45084E-09-9.77070E-09
 -1       857-6.04739E+04-9.42535E+03-1.45520E+04 5.62789E+03 6.01369E-09 2.30102E-08
 -1       858-5.52139E+04 1.12498E+03-5.48508E+03-4.21424E+02 1.43558E-09 6.08702E-09
 -1       859-5.65159E+04-1.32350E+03-3.30997E+03 5.66349E+03 3.59809E-09-1.33304E-08
 -1       860-5.57292E+04 1.57551E+02-1.38716E+03-4.32808E+02-2.57106E-09-4.39138E-09
 -1       861-5.59232E+04-1.88087E+02-7.62999E+02 5.67899E+03 3.75197E-09 1.75520E-09
 -1       862-5.58098E+04 2.13367E+01-3.16954E+02-4.36899E+02-2.44948E-09-2.09643E-08
 -1       863-5.58243E+04-2.17927E+01-1.14971E+02 5.68136E+03-4.59649E-09-2.44228E-08
 -1       864-5.58285E+04-4.96271E+00 4.82781E+01-4.35173E+02-2.04878E-09-5.40199E-09
 -1       865-5.57683E+04 6.01432E+01 2.57587E+02 5.67152E+03-1.09463E-09-8.78072E-09
 -1       866-5.58636E+04-6.06079E+01 5.18557E+02-4.27066E+02 1.24970E-09-1.85699E-09
 -1       867-5.55246E+04 5.00522E+02 1.27601E+03 5.64952E+03 8.94062E-10 1.97501E-08
 -1       868-5.60673E+04-4.37363E+02 2.12027E+03-4.13173E+02-2.85343E-09-6.20821E-09
 -1       869-5.39703E+04 3.64012E+03 5.64542E+03 5.61333E+03 7.19899E-09-2.15535E-08
 -1       870-5.74101E+04-3.11489E+03 8.19282E+03-3.90769E+02-6.48026E-09-7.61247E-10
 -1       871-5.51837E+03-2.09879E+04-1.94886E+04 1.30561E+05-4.85488E-09 9.21409E-09
 -1       872-1.98141E+03-2.55201E+04-8.15625E+03 1.69291E+05-9.35415E-09-2.25555E-10
 -1       873 4.06074E+02-2.33291E+04 5.99730E+02 1.30273E+05-5.02951E-09-1.14720E-08
 -1       874 3.31236E+03-2.09136E+04 9.80162E+03 1.69321E+05-1.13578E-08 4.42196E-09
 -1       875 6.85921E+03-2.56633E+04 2.21037E+04 1.30512E+05-5.57884E-09-1.01372E-08
 -1       876 2.93994E+05 4.95215E+04 1.50904E+04 1.17947E+05 7.03562E-09 1.43627E-08
 -1       877 2.94997E+05 5.26937E+04 8.05885E+03 1.22269E+05 8.08927E-09 1.74873E-09
 -1       878 2.95405E+05 4.78500E+04 3.37627E+03 1.19183E+05-5.01359E-09 3.34580E-09
 -1       879 2.92946E+05 5.06464E+04 1.68228E+03 1.22371E+05 4.99313E-09 1.06847E-08
 -1       880 2.95506E+05 4.78327E+04 7.83609E+02 1.19234E+05 1.05365E-09 1.17886E-08
 -1       881 2.92810E+05 5.05588E+04 4.18526E+02 1.22347E+05-7.86588E-09 6.29626E-09
 -1       882 2.95515E+05 4.78459E+04 2.67871E+02 1.19235E+05-3.90014E-09-3.94053E-10
 -1       883 2.92800E+05 5.05542E+04 2.88165E+02 1.22340E+05-5.05065E-09 2.74066E-08
 -1       884 2.95508E+05 4.78431E+04 4.58581E+02 1.19236E+05-6.70070E-10 1.59537E-08
 -1       885 2.92837E+05 5.05606E+04 9.22112E+02 1.22351E+05-3.11474E-09-2.21380E-08
 -1       886 2.95472E+05 4.78162E+04 1.85853E+03 1.19232E+05-1.18361E-08-8.99672E-09
 -1       887 2.93163E+05 5.07748E+04 4.05973E+03 1.22398E+05 1.22878E-09 4.04816E-09
 -1       888 2.95216E+05 4.78614E+04 8.18048E+03 1.19102E+05 1.27751E-09 1.18293E-08
 -1       889 2.98033E+05 5.58396E+04 1.95416E+04 1.22249E+05-4.41207E-09-4.44379E-09
 -1       890 2.91877E+05 5.18276E+04 3.66011E+04 1.15989E+05 5.66433E-09 1.33878E-09
 -1       891-8.95167E+01-1.62867E+05-1.99854E+03 2.71412E+04-1.83923E-09-4.21437E-09
 -1       892-1.75614E+02-1.63395E+05-2.14603E+03 4.12157E+04 4.12024E-09 1.98497E-10
 -1       893 4.37291E+01-1.62932E+05-3.03806E+03 2.71486E+04-9.48376E-10 2.10835E-08
 -1       894-1.51104E+03-1.64543E+05-6.28733E+03 4.10632E+04 3.97904E-09 2.63608E-08
 -1       895-1.20000E+03-1.61622E+05-1.10718E+04 2.72956E+04 7.90692E-10-3.58796E-09
 -1       956-3.77521E+05-5.39431E+03-1.33184E+04 3.05980E+04 7.47150E-09-1.10413E-09
 -1       957-3.80134E+05-1.90239E+03-6.83614E+03 3.67724E+04 6.07906E-09 1.75760E-09
 -1       958-3.78718E+05-2.37776E+02-3.08056E+03 3.04325E+04-1.02500E-09-9.82391E-09
 -1       959-3.78912E+05-1.34260E+02-1.57305E+03 3.69654E+04 2.03545E-09 1.30713E-08
 -1       960-3.78834E+05-4.38771E+01-7.67167E+02 3.04154E+04 3.38241E-09-5.02041E-10
 -1       961-3.78832E+05-6.21982E+01-4.06957E+02 3.69855E+04 1.06102E-08-8.75434E-09
 -1       962-3.78861E+05-4.52899E+01-2.33365E+02 3.04126E+04 2.51111E-09-1.83036E-09
 -1       963-3.78832E+05-5.82258E+01-1.88015E+02 3.69891E+04 4.16549E-09 9.42919E-09
 -1       964-3.78866E+05-4.20717E+01-2.29471E+02 3.04119E+04-2.08925E-09-7.36895E-09
 -1       965-3.78844E+05-5.53930E+01-3.97577E+02 3.69883E+04-6.51653E-09-4.67617E-09
 -1       966-3.78850E+05-3.42894E+01-7.47425E+02 3.04134E+04 5.18367E-09 6.06769E-09
 -1       967-3.78934E+05-1.19079E+02-1.53315E+03 3.69739E+04-6.78710E-10 2.26280E-08
 -1       968-3.78746E+05-2.17083E+02-3.00144E+03 3.04261E+04 4.77485E-10-6.50289E-09
 -1       969-3.80137E+05-1.83701E+03-6.66316E+03 3.68257E+04 2.54659E-09-6.42575E-09
 -1       970-3.77588E+05-5.23923E+03-1.29802E+04 3.05530E+04-7.37600E-10 6.05633E-09
 -1       971-3.45610E+05-1.73058E+03-9.32645E+03 1.54068E+04-6.82121E-10-2.35308E-08
 -1       972-3.47855E+05-1.27405E+03-5.07908E+03 2.13076E+04-2.62344E-09-1.44510E-08
 -1       973-3.46650E+05-6.21595E+01-2.27497E+03 1.52854E+04-1.45519E-10-1.17500E-08
 -1       974-3.46785E+05-8.12116E+01-1.17926E+03 2.14450E+04-2.43199E-09 1.75132E-08
 -1       975-3.46732E+05-1.71805E+01-5.89917E+02 1.52730E+04-2.08820E-09 5.73527E-09
 -1       976-3.46723E+05-3.12568E+01-3.41142E+02 2.14608E+04 9.36075E-09-2.87679E-08
 -1       977-3.46748E+05-1.64171E+01-2.49037E+02 1.52696E+04-1.55137E-09-1.09737E-08
 -1       978-3.46729E+05-2.50068E+01-2.93387E+02 2.14657E+04-1.15595E-08-1.24604E-08
 -1       979-3.46748E+05-7.92093E+00-4.73069E+02 1.52681E+04-8.13378E-09-1.41881E-10
 -1       980-3.46764E+05-2.19336E+01-9.14495E+02 2.14667E+04-6.42949E-09 1.15714E-08
 -1       981-3.46719E+05 1.49408E+01-1.77172E+03 1.52686E+04 1.64232E-09 4.27406E-10
 -1       982-3.47007E+05-1.52845E+02-3.66243E+03 2.14601E+04 3.99621E-09-1.77706E-08
 -1       983-3.46496E+05-9.85124E+01-7.11628E+03 1.52747E+04-7.98718E-09 3.09728E-09
 -1       984-3.50430E+05-3.86948E+03-1.59367E+04 2.13743E+04-7.84325E-09 1.01154E-08
 -1       985-3.43274E+05-5.30577E+03-2.92647E+04 1.53462E+04-8.89531E-09 1.15324E-08
 -3
    1PSTEP                        35          18           1          
  100CL  118 6.63143E-01         409                     0   18           1
 -4  DISP        4    1
 -5  D1          1    2    1    0
 -5  D2          1    2    2    0
 -5  D3          1    2    3    0
 -5  ALL         1    2    0    0    1ALL
 -1         1 2.71646E-03 0.00000E+00 0.00000E+00
 -1         2 1.36072E-03-3.12105E-28 5.29396E-23
 -1         3 3.42722E-04-5.78033E-28 1.32349E-23
 -1         5 1.77145E-04-1.70825E-27-8.27181E-25
 -1         8 2.70546E-03-4.07814E-07 0.00000E+00
 -1         9 2.69885E-03-1.88372E-04 0.00000E+00
 -1        10 3.10759E-04-3.40947E-06 6.61744E-24
 -1        12 1.78988E-04 8.09531E-07 1.65436E-24
 -1        15 2.69287E-03-4.31873E-07-1.03398E-25
 -1        16 2.76407E-03-1.90179E-04 0.00000E+00
 -1        17 2.11484E-04-7.77464E-06 0.00000E+00
 -1        18 1.82924E-04 3.44005E-05 0.00000E+00
 -1        19 1.84519E-04 1.61265E-06 0.00000E+00
 -1        20 1.84658E-04-9.81892E-06 0.00000E+00
 -1        21 1.83763E-04-2.53058E-05-3.30872E-24
 -1        24 3.06238E-05-1.20012E-05 0.00000E+00
 -1        25 1.93713E-04 3.46264E-05 0.00000E+00
 -1        26 1.94382E-04 2.23215E-06 0.00000E+00
 -1        27 1.92167E-04-1.33756E-05 0.00000E+00
 -1        28 1.91853E-04-2.59280E-05 0.00000E+00
 -1        32 0.00000E+00 0.00000E+00 0.00000E+00
 -1        33 2.03222E-04 2.98516E-06 0.00000E+00
 -1        34 2.01102E-04-1.34310E-05 0.00000E+00
 -1        35 1.99169E-04-2.62707E-05 0.00000E+00
 -1        51 2.71572E-03-8.53292E-08-1.65436E-24
 -1        52 2.71437E-03-1.52297E-07-3.30872E-24
 -1        53 2.71254E-03-2.15810E-07 0.00000E+00
 -1        54 2.71036E-03-2.78103E-07 0.00000E+00
 -1        55 2.70795E-03-3.40936E-07-8.27181E-25
 -1        56 2.70890E-03 8.15432E-06 0.00000E+00
 -1        57 2.69424E-03 3.38670E-05 0.00000E+00
 -1        58 2.67465E-03 7.15985E-05 0.00000E+00
 -1        59 2.65279E-03 1.14658E-04 0.00000E+00
 -1        60 2.63189E-03 1.55442E-04 0.00000E+00
 -1        61 2.61502E-03 1.86532E-04-5.29396E-23
 -1        62 2.60432E-03 2.02240E-04 1.05879E-22
 -1        63 2.60116E-03 1.98250E-04 0.00000E+00
 -1        64 2.60538E-03 1.73861E-04 0.00000E+00
 -1        65 2.61611E-03 1.30297E-04 0.00000E+00
 -1        66 2.63149E-03 7.24166E-05 1.05879E-22
 -1        67 2.64938E-03 6.48012E-06 0.00000E+00
 -1        68 2.66734E-03-5.96923E-05 0.00000E+00
 -1        69 2.68296E-03-1.18251E-04-5.29396E-23
 -1        70 2.69405E-03-1.62823E-04-1.05879E-22
 -1        86 1.44485E-03-5.98095E-06 0.00000E+00
 -1        87 1.68837E-03-3.74850E-05 0.00000E+00
 -1        88 2.01579E-03-9.15927E-05-2.64698E-23
 -1        89 2.34756E-03-1.47170E-04 0.00000E+00
 -1        90 2.60160E-03-1.81176E-04 0.00000E+00
 -1       121 3.41825E-04-5.50499E-07 0.00000E+00
 -1       122 3.39136E-04-1.10409E-06 6.61744E-24
 -1       123 3.34665E-04-1.66381E-06 1.32349E-23
 -1       124 3.28428E-04-2.23270E-06 0.00000E+00
 -1       125 3.20450E-04-2.81342E-06 0.00000E+00
 -1       191 1.77196E-04 1.34985E-07 8.27181E-25
 -1       192 1.77349E-04 2.69959E-07-1.24077E-24
 -1       193 1.77605E-04 4.04913E-07-1.65436E-24
 -1       194 1.77964E-04 5.39835E-07-4.13590E-25
 -1       195 1.78425E-04 6.74712E-07 1.65436E-24
 -1       251 2.70516E-03 1.69443E-06 6.61744E-24
 -1       252 2.70485E-03 3.71024E-06 3.30872E-24
 -1       253 2.70455E-03 4.65807E-06-6.61744E-24
 -1       254 2.70424E-03 3.56975E-06 0.00000E+00
 -1       255 2.70393E-03-2.12564E-07 0.00000E+00
 -1       256 2.70359E-03-7.31282E-06 0.00000E+00
 -1       257 2.70323E-03-1.78496E-05 0.00000E+00
 -1       258 2.70283E-03-3.18981E-05-3.30872E-24
 -1       259 2.70238E-03-4.89993E-05-1.32349E-23
 -1       260 2.70189E-03-6.86552E-05 6.61744E-24
 -1       261 2.70136E-03-8.99787E-05-1.32349E-23
 -1       262 2.70082E-03-1.12062E-04 0.00000E+00
 -1       263 2.70028E-03-1.33883E-04 0.00000E+00
 -1       264 2.69977E-03-1.54419E-04 6.61744E-24
 -1       265 2.69929E-03-1.72848E-04 1.32349E-23
 -1       266 2.70336E-03-4.17499E-07 0.00000E+00
 -1       267 2.70126E-03-4.20817E-07 0.00000E+00
 -1       268 2.69916E-03-4.24539E-07 0.00000E+00
 -1       269 2.69706E-03-4.27065E-07-2.06795E-25
 -1       270 2.69497E-03-4.29564E-07 0.00000E+00
 -1       271 2.70459E-03 1.34011E-07-1.32349E-23
 -1       272 2.70465E-03-1.89636E-06 6.61744E-24
 -1       273 2.70562E-03-6.34815E-06 1.32349E-23
 -1       274 2.70742E-03-1.30588E-05 0.00000E+00
 -1       275 2.70998E-03-2.18450E-05 0.00000E+00
 -1       276 2.71322E-03-3.25085E-05 0.00000E+00
 -1       277 2.71707E-03-4.48349E-05 0.00000E+00
 -1       278 2.72143E-03-5.85969E-05-1.32349E-23
 -1       279 2.72623E-03-7.35557E-05 2.64698E-23
 -1       280 2.73136E-03-8.94625E-05 1.32349E-23
 -1       281 2.73674E-03-1.06061E-04 1.32349E-23
 -1       282 2.74228E-03-1.23089E-04 0.00000E+00
 -1       283 2.74787E-03-1.40281E-04 0.00000E+00
 -1       284 2.75343E-03-1.57370E-04-6.61744E-24
 -1       285 2.75886E-03-1.74091E-04 0.00000E+00
 -1       301 2.71070E-03-1.88706E-04-6.61744E-24
 -1       302 2.72092E-03-1.88996E-04 0.00000E+00
 -1       303 2.73044E-03-1.89275E-04-1.32349E-23
 -1       304 2.74018E-03-1.89555E-04 6.61744E-24
 -1       305 2.75108E-03-1.89848E-04 0.00000E+00
 -1       306 2.73675E-03-3.43024E-04-1.05879E-22
 -1       307 2.80062E-03-7.57240E-04-5.29396E-23
 -1       308 2.84727E-03-1.36274E-03 0.00000E+00
 -1       309 2.87107E-03-2.06344E-03-5.29396E-23
 -1       310 2.90236E-03-2.73354E-03 1.05879E-22
 -1       311 2.96184E-03-3.24992E-03 0.00000E+00
 -1       312 3.01966E-03-3.53195E-03 0.00000E+00
 -1       313 3.01490E-03-3.54183E-03 0.00000E+00
 -1       314 2.87364E-03-3.29165E-03 0.00000E+00
 -1       315 2.55502E-03-2.84598E-03 5.29396E-23
 -1       316 2.07744E-03-2.28151E-03-1.05879E-22
 -1       317 1.50692E-03-1.66756E-03 0.00000E+00
 -1       318 9.57875E-04-1.06473E-03 0.00000E+00
 -1       319 5.38356E-04-5.38002E-04 0.00000E+00
 -1       320 2.92151E-04-1.61531E-04 0.00000E+00
 -1       336 2.99169E-04-4.06848E-06-1.32349E-23
 -1       337 2.85504E-04-4.75318E-06 0.00000E+00
 -1       338 2.69824E-04-5.46580E-06-1.32349E-23
 -1       339 2.52205E-04-6.20714E-06 0.00000E+00
 -1       340 2.32727E-04-6.98168E-06 1.32349E-23
 -1       406 1.79654E-04 9.44273E-07 8.27181E-25
 -1       407 1.80422E-04 1.07890E-06 4.13590E-25
 -1       408 1.81293E-04 1.21337E-06-2.06795E-24
 -1       409 1.82266E-04 1.34749E-06-4.13590E-25
 -1       410 1.83342E-04 1.48100E-06 1.65436E-24
 -1       521 2.80257E-03-3.54116E-04 1.05879E-22
 -1       522 2.86466E-03-7.88617E-04 0.00000E+00
 -1       523 2.90484E-03-1.42198E-03 1.05879E-22
 -1       524 2.91939E-03-2.15136E-03 0.00000E+00
 -1       525 2.94274E-03-2.84812E-03 0.00000E+00
 -1       526 2.99866E-03-3.38658E-03 0.00000E+00
 -1       527 3.05606E-03-3.67922E-03 0.00000E+00
 -1       528 3.04899E-03-3.68729E-03 1.05879E-22
 -1       529 2.89568E-03-3.42291E-03 0.00000E+00
 -1       530 2.55298E-03-2.95863E-03-5.29396E-23
 -1       531 2.04014E-03-2.37492E-03 1.05879E-22
 -1       532 1.42964E-03-1.74370E-03 5.29396E-23
 -1       533 8.41285E-04-1.12294E-03 0.00000E+00
 -1       534 3.88317E-04-5.75280E-04 5.29396E-23
 -1       535 1.20817E-04-1.79216E-04 0.00000E+00
 -1       536 2.10729E-04 2.71495E-05-6.61744E-24
 -1       537 2.08811E-04 8.75895E-05 1.65436E-24
 -1       538 2.05847E-04 1.64279E-04 3.30872E-24
 -1       539 2.02351E-04 2.47867E-04 0.00000E+00
 -1       540 1.99205E-04 3.26851E-04 0.00000E+00
 -1       541 1.97160E-04 3.89751E-04 1.65436E-24
 -1       542 1.96217E-04 4.29814E-04 0.00000E+00
 -1       543 1.95992E-04 4.40435E-04 0.00000E+00
 -1       544 1.95670E-04 4.22390E-04 3.30872E-24
 -1       545 1.94497E-04 3.76671E-04 0.00000E+00
 -1       546 1.92312E-04 3.11406E-04 3.30872E-24
 -1       547 1.89354E-04 2.34842E-04-1.65436E-24
 -1       548 1.86423E-04 1.58654E-04 0.00000E+00
 -1       549 1.84309E-04 9.45184E-05 0.00000E+00
 -1       550 1.83211E-04 5.04658E-05 0.00000E+00
 -1       551 1.86282E-04-8.34431E-06 0.00000E+00
 -1       552 1.57835E-04-8.99443E-06 0.00000E+00
 -1       553 1.27087E-04-9.70679E-06 0.00000E+00
 -1       554 9.49959E-05-1.04603E-05-6.61744E-24
 -1       555 6.25232E-05-1.12274E-05 1.32349E-23
 -1       556 2.03836E-04 1.17814E-05 0.00000E+00
 -1       557 1.97656E-04 2.76418E-05 0.00000E+00
 -1       558 1.92812E-04 4.00946E-05 0.00000E+00
 -1       559 1.89169E-04 4.94500E-05 2.64698E-23
 -1       560 1.86598E-04 5.60191E-05 0.00000E+00
 -1       561 1.84972E-04 6.01150E-05 0.00000E+00
 -1       562 1.84163E-04 6.20524E-05 0.00000E+00
 -1       563 1.84049E-04 6.21468E-05-1.32349E-23
 -1       564 1.84508E-04 6.07148E-05 0.00000E+00
 -1       565 1.85419E-04 5.80732E-05 0.00000E+00
 -1       566 1.86662E-04 5.45399E-05 0.00000E+00
 -1       567 1.88118E-04 5.04328E-05 0.00000E+00
 -1       568 1.89669E-04 4.60701E-05 1.65436E-24
 -1       569 1.91197E-04 4.17701E-05 8.27181E-25
 -1       570 1.92584E-04 3.78509E-05 0.00000E+00
 -1       571 1.83021E-04 3.22720E-05-8.27181E-25
 -1       572 1.83120E-04 3.00778E-05 0.00000E+00
 -1       573 1.83219E-04 2.78338E-05 3.30872E-24
 -1       574 1.83318E-04 2.55562E-05 8.27181E-25
 -1       575 1.83418E-04 2.32616E-05-3.30872E-24
 -1       576 1.83517E-04 2.09664E-05 0.00000E+00
 -1       577 1.83617E-04 1.86872E-05 3.30872E-24
 -1       578 1.83717E-04 1.64404E-05 3.30872E-24
 -1       579 1.83816E-04 1.42425E-05 0.00000E+00
 -1       580 1.83916E-04 1.21102E-05 0.00000E+00
 -1       581 1.84016E-04 1.00599E-05 0.00000E+00
 -1       582 1.84117E-04 8.10815E-06 0.00000E+00
 -1       583 1.84217E-04 6.27142E-06-6.61744E-24
 -1       584 1.84318E-04 4.56605E-06 3.30872E-24
 -1       585 1.84418E-04 3.00820E-06 0.00000E+00
 -1       586 1.84681E-04 3.44403E-05 0.00000E+00
 -1       587 1.86396E-04 3.44795E-05 4.13590E-25
 -1       588 1.88114E-04 3.45183E-05 0.00000E+00
 -1       589 1.89877E-04 3.45565E-05 0.00000E+00
 -1       590 1.91729E-04 3.45934E-05 0.00000E+00
 -1       591 1.83654E-04 3.23658E-05 0.00000E+00
 -1       592 1.84386E-04 3.03114E-05-2.06795E-25
 -1       593 1.85124E-04 2.82433E-05 0.00000E+00
 -1       594 1.85864E-04 2.61661E-05 4.13590E-25
 -1       595 1.86606E-04 2.40845E-05-8.27181E-25
 -1       596 1.87347E-04 2.20031E-05-4.13590E-25
 -1       597 1.88087E-04 1.99268E-05 8.27181E-25
 -1       598 1.88823E-04 1.78600E-05-4.13590E-25
 -1       599 1.89554E-04 1.58075E-05 0.00000E+00
 -1       600 1.90278E-04 1.37740E-05 0.00000E+00
 -1       601 1.90993E-04 1.17640E-05 0.00000E+00
 -1       602 1.91697E-04 9.78223E-06-2.06795E-25
 -1       603 1.92390E-04 7.83335E-06 4.13590E-25
 -1       604 1.93069E-04 5.92213E-06 2.06795E-25
 -1       605 1.93732E-04 4.05312E-06 0.00000E+00
 -1       606 1.84532E-04 4.50697E-07 0.00000E+00
 -1       607 1.84542E-04-6.25265E-07 0.00000E+00
 -1       608 1.84551E-04-1.62028E-06 0.00000E+00
 -1       609 1.84559E-04-2.54004E-06-1.65436E-24
 -1       610 1.84567E-04-3.39030E-06 3.30872E-24
 -1       611 1.84576E-04-4.17685E-06 0.00000E+00
 -1       612 1.84584E-04-4.90551E-06 0.00000E+00
 -1       613 1.84592E-04-5.58211E-06 0.00000E+00
 -1       614 1.84601E-04-6.21245E-06 0.00000E+00
 -1       615 1.84609E-04-6.80237E-06 0.00000E+00
 -1       616 1.84617E-04-7.35769E-06 0.00000E+00
 -1       617 1.84626E-04-7.88422E-06 0.00000E+00
 -1       618 1.84634E-04-8.38778E-06 0.00000E+00
 -1       619 1.84642E-04-8.87421E-06 0.00000E+00
 -1       620 1.84651E-04-9.34932E-06 0.00000E+00
 -1       621 1.85876E-04 1.71648E-06-1.65436E-24
 -1       622 1.87392E-04 1.82054E-06 8.27181E-25
 -1       623 1.89035E-04 1.92439E-06-1.65436E-24
 -1       624 1.90770E-04 2.02790E-06 8.27181E-25
 -1       625 1.92564E-04 2.13113E-06 0.00000E+00
 -1       626 1.85067E-04 4.86965E-07-3.30872E-24
 -1       627 1.85592E-04-5.75429E-07-3.30872E-24
 -1       628 1.86096E-04-1.58241E-06 0.00000E+00
 -1       629 1.86583E-04-2.54218E-06 0.00000E+00
 -1       630 1.87056E-04-3.46296E-06 0.00000E+00
 -1       631 1.87517E-04-4.35300E-06-1.65436E-24
 -1       632 1.87969E-04-5.22051E-06 0.00000E+00
 -1       633 1.88417E-04-6.07377E-06 0.00000E+00
 -1       634 1.88861E-04-6.92100E-06 0.00000E+00
 -1       635 1.89307E-04-7.77044E-06 0.00000E+00
 -1       636 1.89757E-04-8.63035E-06 3.30872E-24
 -1       637 1.90214E-04-9.50895E-06 0.00000E+00
 -1       638 1.90680E-04-1.04145E-05-1.65436E-24
 -1       639 1.91160E-04-1.13553E-05 8.27181E-25
 -1       640 1.91655E-04-1.23395E-05 0.00000E+00
 -1       656 1.85361E-04-1.03970E-05 0.00000E+00
 -1       657 1.86483E-04-1.09986E-05 0.00000E+00
 -1       658 1.87887E-04-1.15988E-05-1.32349E-23
 -1       659 1.89425E-04-1.21986E-05-6.61744E-24
 -1       660 1.90913E-04-1.28003E-05 6.61744E-24
 -1       661 1.84921E-04-1.03339E-05 0.00000E+00
 -1       662 1.85222E-04-1.09411E-05 0.00000E+00
 -1       663 1.85555E-04-1.16351E-05 0.00000E+00
 -1       664 1.85918E-04-1.24097E-05 0.00000E+00
 -1       665 1.86310E-04-1.32587E-05 0.00000E+00
 -1       666 1.86727E-04-1.41763E-05 8.27181E-25
 -1       667 1.87168E-04-1.51568E-05-1.65436E-24
 -1       668 1.87630E-04-1.61946E-05 0.00000E+00
 -1       669 1.88111E-04-1.72842E-05-1.65436E-24
 -1       670 1.88610E-04-1.84203E-05 0.00000E+00
 -1       671 1.89125E-04-1.95976E-05 0.00000E+00
 -1       672 1.89652E-04-2.08111E-05 0.00000E+00
 -1       673 1.90192E-04-2.20556E-05 0.00000E+00
 -1       674 1.90740E-04-2.33264E-05 0.00000E+00
 -1       675 1.91296E-04-2.46182E-05 2.06795E-25
 -1       676 1.85116E-04-2.54101E-05 0.00000E+00
 -1       677 1.86468E-04-2.55144E-05 0.00000E+00
 -1       678 1.87819E-04-2.56186E-05-3.30872E-24
 -1       679 1.89167E-04-2.57225E-05-1.65436E-24
 -1       680 1.90512E-04-2.58264E-05 3.30872E-24
 -1       771 1.86707E-05 1.47285E-05 0.00000E+00
 -1       772 8.61438E-06 3.66820E-05-2.64698E-23
 -1       773 3.64203E-07 5.40895E-05 5.29396E-23
 -1       774-6.20421E-06 6.72091E-05 0.00000E+00
 -1       775-1.12125E-05 7.63089E-05-5.29396E-23
 -1       776-1.47872E-05 8.16741E-05 2.64698E-23
 -1       777-1.70548E-05 8.36000E-05-5.29396E-23
 -1       778-1.81440E-05 8.23956E-05 0.00000E+00
 -1       779-1.81833E-05 7.83784E-05 0.00000E+00
 -1       780-1.73029E-05 7.18777E-05 2.64698E-23
 -1       781-1.56322E-05 6.32290E-05 0.00000E+00
 -1       782-1.33021E-05 5.27771E-05-2.64698E-23
 -1       783-1.04428E-05 4.08713E-05 0.00000E+00
 -1       784-7.18555E-06 2.78671E-05 0.00000E+00
 -1       785-3.66058E-06 1.41230E-05 5.29396E-23
 -1       786 1.93750E-04 3.23711E-05 0.00000E+00
 -1       787 1.93791E-04 3.01667E-05 0.00000E+00
 -1       788 1.93832E-04 2.80046E-05 0.00000E+00
 -1       789 1.93874E-04 2.58766E-05 0.00000E+00
 -1       790 1.93916E-04 2.37780E-05 0.00000E+00
 -1       791 1.93958E-04 2.17039E-05-8.27181E-25
 -1       792 1.94000E-04 1.96521E-05-1.65436E-24
 -1       793 1.94042E-04 1.76203E-05 8.27181E-25
 -1       794 1.94084E-04 1.56083E-05 1.65436E-24
 -1       795 1.94127E-04 1.36158E-05 0.00000E+00
 -1       796 1.94169E-04 1.16447E-05-1.65436E-24
 -1       797 1.94211E-04 9.69671E-06 0.00000E+00
 -1       798 1.94254E-04 7.77598E-06 1.65436E-24
 -1       799 1.94296E-04 5.88675E-06 0.00000E+00
 -1       800 1.94339E-04 4.03632E-06 0.00000E+00
 -1       801 1.47937E-04 3.11288E-05-2.64698E-23
 -1       802 9.52156E-06 1.94203E-05 0.00000E+00
 -1       803-1.08719E-04 9.80836E-06 0.00000E+00
 -1       804-9.63941E-05 6.82676E-06 2.64698E-23
 -1       805-3.18517E-05 2.68328E-06 0.00000E+00
 -1       806 1.94442E-04 3.23012E-05 0.00000E+00
 -1       807 1.95157E-04 3.00021E-05 1.65436E-24
 -1       808 1.95859E-04 2.77345E-05-3.30872E-24
 -1       809 1.96548E-04 2.55024E-05 1.65436E-24
 -1       810 1.97221E-04 2.33102E-05 3.30872E-24
 -1       811 1.97879E-04 2.11619E-05 0.00000E+00
 -1       812 1.98518E-04 1.90616E-05 3.30872E-24
 -1       813 1.99138E-04 1.70134E-05 1.65436E-24
 -1       814 1.99737E-04 1.50212E-05 0.00000E+00
 -1       815 2.00313E-04 1.30892E-05 1.65436E-24
 -1       816 2.00866E-04 1.12213E-05 1.65436E-24
 -1       817 2.01393E-04 9.42164E-06 0.00000E+00
 -1       818 2.01894E-04 7.69420E-06 0.00000E+00
 -1       819 2.02366E-04 6.04300E-06 0.00000E+00
 -1       820 2.02808E-04 4.47201E-06 1.65436E-24
 -1       821 1.94252E-04-1.73634E-07 0.00000E+00
 -1       822 1.94111E-04-3.82315E-06-1.65436E-24
 -1       823 1.93967E-04-8.26159E-06 3.30872E-24
 -1       824 1.93821E-04-1.30292E-05 1.65436E-24
 -1       825 1.93675E-04-1.75770E-05-3.30872E-24
 -1       826 1.93532E-04-2.13571E-05 0.00000E+00
 -1       827 1.93393E-04-2.40315E-05 0.00000E+00
 -1       828 1.93256E-04-2.52691E-05 1.65436E-24
 -1       829 1.93119E-04-2.51310E-05 0.00000E+00
 -1       830 1.92982E-04-2.36868E-05 1.65436E-24
 -1       831 1.92844E-04-2.13629E-05 0.00000E+00
 -1       832 1.92704E-04-1.85910E-05 0.00000E+00
 -1       833 1.92565E-04-1.59252E-05 0.00000E+00
 -1       834 1.92429E-04-1.39192E-05 0.00000E+00
 -1       835 1.92294E-04-1.29469E-05 8.27181E-25
 -1       836 1.96071E-04 2.35702E-06 3.30872E-24
 -1       837 1.97633E-04 2.48504E-06 1.65436E-24
 -1       838 1.99097E-04 2.61299E-06 0.00000E+00
 -1       839 2.00496E-04 2.74025E-06-8.27181E-25
 -1       840 2.01861E-04 2.86735E-06 0.00000E+00
 -1       856 1.92151E-04-1.44345E-05 0.00000E+00
 -1       857 1.92132E-04-1.53578E-05 0.00000E+00
 -1       858 1.92113E-04-1.61666E-05 0.00000E+00
 -1       859 1.92093E-04-1.68821E-05 2.06795E-25
 -1       860 1.92074E-04-1.75255E-05 4.13590E-25
 -1       861 1.92054E-04-1.81181E-05 0.00000E+00
 -1       862 1.92034E-04-1.86810E-05-4.13590E-25
 -1       863 1.92015E-04-1.92357E-05 0.00000E+00
 -1       864 1.91995E-04-1.98034E-05-8.27181E-25
 -1       865 1.91975E-04-2.04055E-05 0.00000E+00
 -1       866 1.91956E-04-2.10633E-05-8.27181E-25
 -1       867 1.91936E-04-2.17979E-05 4.13590E-25
 -1       868 1.91916E-04-2.26306E-05 8.27181E-25
 -1       869 1.91896E-04-2.35826E-05-4.13590E-25
 -1       870 1.91875E-04-2.46747E-05 8.27181E-25
 -1       871 1.93514E-04-1.33804E-05 0.00000E+00
 -1       872 1.95008E-04-1.33886E-05 0.00000E+00
 -1       873 1.96583E-04-1.33975E-05 0.00000E+00
 -1       874 1.98169E-04-1.34071E-05 1.29247E-25
 -1       875 1.99698E-04-1.34174E-05 4.13590E-25
 -1       876 1.92691E-04-1.44199E-05-3.30872E-24
 -1       877 1.93194E-04-1.53976E-05-1.65436E-24
 -1       878 1.93674E-04-1.63166E-05 0.00000E+00
 -1       879 1.94136E-04-1.71843E-05 1.65436E-24
 -1       880 1.94581E-04-1.80080E-05 3.30872E-24
 -1       881 1.95013E-04-1.87953E-05 0.00000E+00
 -1       882 1.95433E-04-1.95533E-05 0.00000E+00
 -1       883 1.95846E-04-2.02894E-05 0.00000E+00
 -1       884 1.96253E-04-2.10109E-05-3.30872E-24
 -1       885 1.96657E-04-2.17251E-05 0.00000E+00
 -1       886 1.97062E-04-2.24394E-05 0.00000E+00
 -1       887 1.97469E-04-2.31610E-05 0.00000E+00
 -1       888 1.97881E-04-2.38974E-05 3.30872E-24
 -1       889 1.98301E-04-2.46559E-05 0.00000E+00
 -1       890 1.98731E-04-2.54439E-05 0.00000E+00
 -1       891 1.93215E-04-2.59856E-05 0.00000E+00
 -1       892 1.94553E-04-2.60433E-05 0.00000E+00
 -1       893 1.95842E-04-2.61009E-05-8.27181E-25
 -1       894 1.97058E-04-2.61583E-05 4.13590E-25
 -1       895 1.98175E-04-2.62154E-05 0.00000E+00
 -1       956 2.03091E-04 1.67370E-06-1.65436E-24
 -1       957 2.02959E-04 4.52494E-07-8.27181E-25
 -1       958 2.02826E-04-6.89118E-07 3.30872E-24
 -1       959 2.02693E-04-1.76237E-06 0.00000E+00
 -1       960 2.02560E-04-2.77856E-06-3.30872E-24
 -1       961 2.02427E-04-3.74900E-06 0.00000E+00
 -1       962 2.02294E-04-4.68501E-06-3.30872E-24
 -1       963 2.02161E-04-5.59795E-06-1.65436E-24
 -1       964 2.02029E-04-6.49916E-06-3.30872E-24
 -1       965 2.01896E-04-7.39997E-06-1.65436E-24
 -1       966 2.01763E-04-8.31175E-06 0.00000E+00
 -1       967 2.01630E-04-9.24584E-06 0.00000E+00
 -1       968 2.01497E-04-1.02136E-05-6.61744E-24
 -1       969 2.01365E-04-1.12262E-05 0.00000E+00
 -1       970 2.01232E-04-1.22951E-05-3.30872E-24
 -1       971 2.00982E-04-1.45661E-05 0.00000E+00
 -1       972 2.00861E-04-1.56063E-05-1.65436E-24
 -1       973 2.00739E-04-1.65622E-05-3.30872E-24
 -1       974 2.00618E-04-1.74447E-05 0.00000E+00
 -1       975 2.00496E-04-1.82645E-05 0.00000E+00
 -1       976 2.00375E-04-1.90326E-05 1.65436E-24
 -1       977 2.00253E-04-1.97598E-05-3.30872E-24
 -1       978 2.00132E-04-2.04572E-05 1.65436E-24
 -1       979 2.00010E-04-2.11356E-05 0.00000E+00
 -1       980 1.99889E-04-2.18060E-05-1.65436E-24
 -1       981 1.99768E-04-2.24792E-05-3.30872E-24
 -1       982 1.99646E-04-2.31663E-05 0.00000E+00
 -1       983 1.99525E-04-2.38781E-05 3.30872E-24
 -1       984 1.99404E-04-2.46255E-05-1.65436E-24
 -1       985 1.99284E-04-2.54195E-05 0.00000E+00
 -3
    1PSTEP                        36          18           1          
  100CL  118 6.63143E-01         409                     0   18           1
 -4  STRESS      6    1
 -5  SXX         1    4    1    1
 -5  SYY         1    4    2    2
 -5  SZZ         1    4    3    3
 -5  SXY         1    4    1    2
 -5  SYZ         1    4    2    3
 -5  SZX         1    4    3    1
 -1         1-5.33542E+06-1.61085E+06-1.13379E+06-1.37834E+06-5.38421E-10 1.64611E-07
 -1         2 1.42725E+06 2.09665E+07 4.90721E+06 6.32203E+06 2.80561E-08-1.22149E-07
 -1         3-1.48875E+03-1.56306E+06 4.06772E+02-2.21899E+03-6.36714E-10-5.22123E-08
 -1         5-7.50187E+01 3.86542E+05 9.98195E+00-1.34111E+00-4.28242E-10-3.77258E-09
 -1         8-5.64011E+05-2.02839E+05-6.37171E+04-2.47130E+05 1.13687E-10 5.46497E-08
 -1         9 1.17149E+07 3.67183E+06 2.75038E+06-3.72495E+05-8.68458E-09-7.33882E-08
 -1        10-2.30669E+03-1.62883E+06-3.95663E+03-1.50141E+04-1.32131E-08-3.55886E-08
 -1        12-7.10998E+01 3.86563E+05 3.28116E+02-9.14134E+00-7.24246E-10-3.51420E-08
 -1        15 9.40422E+02 5.16808E+02 3.03989E+03 8.53858E-01 1.29958E-10 6.73600E-07
 -1        16 2.28788E+07-3.21707E+05 3.11677E+06-2.25497E+06 1.71907E-08 2.22664E-07
 -1        17 8.37144E+06 6.27527E+06 2.26194E+06 6.00550E+06 2.64321E-08 2.98489E-08
 -1        18 1.42421E+05 3.35262E+04 4.14970E+03-1.19620E+05 1.40349E-08 6.98856E-09
 -1        19 1.22488E+05 1.41668E+05-9.59264E+02 2.20698E+04 1.56597E-09 3.07846E-09
 -1        20-8.20111E+04-5.73425E+05-1.28678E+05 2.50994E+04-1.85825E-09 2.56162E-08
 -1        21-4.55829E+01-2.96092E+05-9.24025E+02 2.74785E+02 2.08505E-08-3.12825E-08
 -1        24 1.40118E+07 1.20727E+07 3.88048E+06 1.11791E+07-1.69510E-07-5.89256E-08
 -1        25 1.23603E+05 2.66756E+05 9.96822E+04-6.45851E+05 3.74257E-10 1.05492E-08
 -1        26-5.60867E+04 9.20196E+04-2.47731E+04 1.43358E+03-2.66664E-10 3.50842E-09
 -1        27-7.56198E+04-3.09773E+05-1.13343E+05 6.90670E+04 3.84459E-09-3.83958E-09
 -1        28 2.22466E+04-8.53935E+04 1.69042E+04 2.05797E+04-2.76665E-09-7.80717E-09
 -1        32-1.68069E+06-3.18061E+06-1.97265E+05 4.56973E+05-4.24770E-08-1.21482E-08
 -1        33-1.79999E+05 9.24759E+04 3.22925E+04-3.89316E+04-3.49564E-09-3.25599E-10
 -1        34-2.23717E+05-2.49389E+04 6.91617E+02 7.56087E+04-5.84214E-09-5.75725E-09
 -1        35-2.29307E+04-3.38734E+04-1.34923E+03 5.15147E+04-4.02670E-09-1.15579E-08
 -1        51 6.05359E+04-1.73154E+05 1.28063E+05-4.43367E+05 0.00000E+00 1.03209E-07
 -1        52 2.05097E+04-1.50804E+05 6.72047E+04-5.17087E+05 2.36469E-10-2.26501E-07
 -1        53 4.19929E+03-1.66181E+05 3.50087E+04-4.41839E+05 3.54703E-10-5.64542E-08
 -1        54 7.44501E+03-1.61974E+05 2.87911E+04-5.18587E+05 7.27596E-12-2.78640E-07
 -1        55 1.62149E+04-1.69030E+05 3.50494E+04-4.41742E+05 3.20142E-10 1.61945E-08
 -1        56-9.76421E+06-1.34688E+06-9.06332E+05-4.05837E+06-2.32249E-08 2.91038E-09
 -1        57-1.10087E+07-8.83624E+05-5.50117E+05-2.76651E+06-7.08096E-08 2.36614E-07
 -1        58-9.60370E+06-1.80062E+06-2.00612E+05-4.23386E+06-1.10304E-08-1.32619E-07
 -1        59-1.11474E+07-3.67176E+05-1.09374E+05-2.69854E+06-6.71248E-08-9.56352E-08
 -1        60-9.69366E+06-1.80536E+06-5.62867E+04-4.18682E+06-2.08893E-08-9.41291E-08
 -1        61-1.05470E+07-6.79446E+05 1.10685E+04-2.94379E+06-6.25005E-09 8.34261E-08
 -1        62-1.00834E+07-1.56973E+06-6.91292E+04-3.89360E+06 2.73430E-08-1.26893E-07
 -1        63-9.71314E+06-1.34664E+06 4.69175E+04-3.60901E+06-1.39771E-08 2.52603E-08
 -1        64-1.04323E+07-1.20590E+06-6.34858E+04-3.46087E+06 1.21945E-08-1.99245E-07
 -1        65-9.34470E+06-1.91909E+06 8.57337E+03-4.45425E+06-1.06375E-08-2.47172E-07
 -1        66-1.05634E+07-9.19866E+05-4.64670E+04-3.13232E+06-3.35713E-08 1.21798E-07
 -1        67-9.34383E+06-2.16718E+06-9.85341E+04-4.85288E+06-6.58001E-08 1.43671E-07
 -1        68-1.05439E+07-8.80450E+05-1.85664E+05-3.13179E+06-5.96610E-08 1.73546E-07
 -1        69-9.53692E+06-2.25908E+06-4.90095E+05-4.42089E+06-8.26185E-09 1.55276E-07
 -1        70-1.02686E+07-9.10785E+05-8.30882E+05-3.49611E+06 1.65819E-08 8.50414E-08
 -1        86-1.45583E+06-1.51482E+07-2.68513E+06-2.97256E+06-2.67897E-07-6.99220E-08
 -1        87 2.27681E+06 5.97979E+06 2.23372E+06 5.54878E+06-4.63428E-07-3.90992E-08
 -1        88-4.22706E+05-2.00575E+06 2.09673E+05-2.50345E+06-4.12172E-07-9.13487E-08
 -1        89 3.05011E+06 5.70141E+06 2.28813E+06 5.73064E+06-5.68776E-07-1.67591E-07
 -1        90-2.14102E+06-1.49417E+07-2.90149E+06-3.18110E+06-1.40666E-07-8.86066E-08
 -1       121-2.03952E+03-1.56797E+06-5.46729E+02 1.09985E+03 1.56557E-09-2.17478E-08
 -1       122-1.30237E+03-1.56312E+06 7.71505E+02-4.44198E+03-5.12203E-09 2.09475E-08
 -1       123-2.05932E+03-1.56810E+06 2.63710E+02 3.28472E+03 4.11205E-09 1.84737E-08
 -1       124 3.38895E+02-1.56267E+06 2.95755E+03-9.29329E+03-1.06670E-08-6.24277E-09
 -1       125-2.87057E+03-1.56900E+06 3.47232E+03 5.90521E+03 6.77937E-09 9.25138E-09
 -1       191-7.90569E+01 3.86560E+05 8.49992E+00 6.99165E-01-5.62428E-10 5.36056E-09
 -1       192-7.59823E+01 3.86542E+05 2.13006E+01-4.29956E+00-7.29174E-10 1.33623E-08
 -1       193-8.15934E+01 3.86560E+05 3.62759E+01 3.77557E+00-1.03320E-09 1.10504E-08
 -1       194-7.90717E+01 3.86546E+05 8.09741E+01-9.75612E+00-5.87081E-10 3.21506E-09
 -1       195-8.64618E+01 3.86557E+05 1.55038E+02 6.34820E+00-1.42148E-09-2.49893E-08
 -1       251-8.70474E+05 1.61796E+04-3.77932E+04-1.41841E+04 6.29761E-09 1.51194E-08
 -1       252-8.84979E+05-1.87143E+04-2.63255E+04 4.95495E+04-6.70570E-09-3.69400E-08
 -1       253-8.78722E+05 2.48629E+03-1.01441E+04-1.01738E+04 9.96010E-10-9.79221E-08
 -1       254-8.71903E+05-2.99462E+03-4.64972E+03 3.54236E+04 7.33144E-09-2.28815E-07
 -1       255-8.82970E+05 7.68610E+01-3.46575E+03-6.13453E+01-1.26843E-08 8.26212E-08
 -1       256-8.66626E+05-2.81619E+02 1.05544E+03 1.23967E+04 1.31175E-08 1.78739E-07
 -1       257-8.83572E+05-5.42438E+02-1.33218E+03 1.28428E+04 1.36515E-09 5.76787E-08
 -1       258-8.69228E+05 8.64542E+02 2.61306E+03-1.19144E+04-1.96037E-08-2.06008E-07
 -1       259-8.80598E+05-8.90994E+02 1.38461E+03 2.42473E+04-3.23394E-09-1.53499E-07
 -1       260-8.75282E+05 2.85016E+03 5.51284E+03-2.94864E+04 1.36924E-09-2.52791E-07
 -1       261-8.78124E+05-2.06066E+03 8.59911E+03 3.04296E+04 1.31989E-08-7.35113E-08
 -1       262-8.73852E+05 1.16265E+04 2.13553E+04-3.46200E+04-1.82103E-08-8.32247E-08
 -1       263-8.82268E+05-9.44842E+03 3.38467E+04 2.93897E+04 1.88290E-08 1.52540E-08
 -1       264-8.43715E+05 6.65087E+04 9.36591E+04-2.55252E+04 4.11677E-08-3.94175E-09
 -1       265-9.07782E+05-5.70633E+04 1.30508E+05 2.13236E+04 1.77918E-08 6.87069E-08
 -1       266-1.70250E+04-7.96171E+03 3.99417E+04-1.82685E+01-9.82254E-11 1.06001E-07
 -1       267 1.97364E+04 9.27828E+03 2.82321E+04 2.10800E+01 2.70575E-10-7.87173E-08
 -1       268-2.64663E+03-1.31413E+03 1.04936E+04-2.68586E+00 3.00133E-11-1.31129E-07
 -1       269 3.12487E+03 1.57266E+03 6.82080E+03 3.12873E+00-1.18121E-10 2.09065E-07
 -1       270-4.69048E+02-2.58404E+02 3.29250E+03-4.24585E-01-4.06999E-11 3.31182E-07
 -1       271-1.50049E+06-1.90420E+05-1.12919E+05-5.83469E+05 1.84991E-09-2.98896E-08
 -1       272-1.49985E+06-3.02706E+05-7.10709E+04-6.19114E+05-4.85252E-08-1.07922E-07
 -1       273-1.52422E+06-2.14657E+05-2.73267E+04-5.75470E+05 5.40167E-08 1.50229E-07
 -1       274-1.47262E+06-2.73581E+05-1.43041E+04-6.34042E+05-6.88833E-08 1.52331E-07
 -1       275-1.52979E+06-2.14386E+05-6.77682E+03-5.71756E+05 2.03945E-08 2.48237E-08
 -1       276-1.46685E+06-2.74393E+05-2.90961E+03-6.42417E+05-3.79969E-08-2.02885E-07
 -1       277-1.53257E+06-2.11847E+05-1.86887E+03-5.69064E+05-7.09406E-10 3.14551E-07
 -1       278-1.46456E+06-2.77565E+05-7.43121E+02-6.48578E+05 7.02503E-08 2.17504E-07
 -1       279-1.53434E+06-2.09751E+05-8.87199E+02-5.67167E+05-3.42006E-08 7.38933E-08
 -1       280-1.46347E+06-2.79981E+05-1.04890E+03-6.52651E+05 3.01934E-08-1.73171E-07
 -1       281-1.53529E+06-2.08408E+05-1.93533E+03-5.66090E+05 2.36469E-11-6.54375E-08
 -1       282-1.46384E+06-2.82258E+05-4.50615E+03-6.54351E+05-3.97440E-08 2.31057E-09
 -1       283-1.53477E+06-2.07097E+05-8.01797E+03-5.65950E+05 6.30467E-09 1.14212E-07
 -1       284-1.47100E+06-2.92831E+05-2.18460E+04-6.52172E+05-8.27985E-08 2.70771E-07
 -1       285-1.52810E+06-1.99045E+05-3.40865E+04-5.67759E+05-1.75605E-08 1.94557E-07
 -1       301-5.88977E+03-6.44194E+05 1.67166E+05-1.13037E+06 7.63976E-09-1.24492E-07
 -1       302-7.34815E+03-5.97706E+05 1.00606E+05-1.65005E+06 2.79397E-09 1.88043E-07
 -1       303-2.07754E+04-6.36386E+05 5.69281E+04-1.12728E+06 1.44792E-08 4.92109E-08
 -1       304-2.32466E+04-6.04500E+05 5.74404E+04-1.64944E+06-1.17871E-08 6.87214E-09
 -1       305-2.50021E+04-6.25235E+05 7.08183E+04-1.13038E+06-9.01309E-09 2.58879E-08
 -1       306-3.01504E+07-6.22460E+06-8.61665E+06-5.15849E+05-8.49832E-08-1.65339E-07
 -1       307 2.53773E+07 3.27417E+06 5.51911E+06-1.52317E+07-8.21776E-07 9.11532E-08
 -1       308-6.96223E+06-1.02666E+06-4.50939E+05 5.21359E+06-3.14583E-07 5.47443E-07
 -1       309-3.24342E+06 8.76081E+06 2.28977E+06-2.06926E+07 3.63128E-07 3.80212E-07
 -1       310-1.25832E+07-1.94790E+06-2.04135E+06 5.22424E+06 7.45058E-09 9.31323E-10
 -1       311 3.84959E+07 1.48532E+04 7.29012E+06-8.80962E+06 3.52738E-07 1.91794E-07
 -1       312-3.19627E+07-6.78373E+06-8.54959E+06-5.04839E+06-6.88015E-08 1.50350E-07
 -1       313 4.54785E+07 1.50545E+07 1.06826E+07 2.38419E+07-2.36440E-07-8.12870E-08
 -1       314-1.72274E+07-1.78157E+07-7.53326E+06-1.25452E+07 3.45113E-07 1.11293E-07
 -1       315-1.84298E+06 2.97803E+07 5.67480E+06 1.05446E+07-5.90604E-07 4.85161E-08
 -1       316 1.40795E+06-9.84606E+06-4.38886E+05-2.52224E+06-1.36775E-06-3.33937E-07
 -1       317-1.71181E+07 2.24436E+07 2.24440E+06-8.84712E+06 7.91479E-07-9.49774E-07
 -1       318-1.07364E+06-1.28080E+07-2.04878E+06-4.23990E+06-9.20409E-07 1.08907E-07
 -1       319 7.23850E+06 3.20197E+07 7.05159E+06 1.66460E+07-7.57864E-08 2.82336E-07
 -1       320-2.26198E+07-1.76645E+07-9.86811E+06-1.28283E+07 1.77301E-07-6.62985E-08
 -1       336-7.41700E+02-1.69738E+06-1.38795E+04 8.93914E+03-2.65663E-08 1.34605E-09
 -1       337-5.41820E+03-1.69694E+06-1.81124E+04-2.17111E+04-4.91525E-08-4.40377E-09
 -1       338 2.80947E+02-1.69686E+06-2.85252E+04 1.25210E+04-3.49901E-08 4.86762E-09
 -1       339-3.02684E+04-1.71421E+06-6.44749E+04-2.87266E+04-6.34491E-08 5.93718E-09
 -1       340 1.99458E+04-1.68229E+06-1.01562E+05 1.58237E+04-4.07163E-08 1.92776E-08
 -1       406-4.93834E+01 3.86542E+05 6.44265E+02 3.34346E+00-2.01192E-09-6.88124E-09
 -1       407 1.55152E+02 3.86677E+05 1.37681E+03 2.33595E+01-4.72028E-10-1.01682E-09
 -1       408 6.35287E+02 3.86442E+05 2.74526E+03-2.70253E+01-2.52794E-09-1.89993E-08
 -1       409 2.90760E+03 3.87554E+05 6.18754E+03 2.88532E+02-3.94493E-10-5.61904E-08
 -1       410 8.48121E+03 3.85652E+05 1.26285E+04-2.78242E+02-3.00315E-09-1.90448E-08
 -1       521-3.17047E+07-7.68709E+06-1.00713E+07-1.21852E+05-8.00937E-08-2.45054E-08
 -1       522 2.62509E+07 4.30731E+06 5.62948E+06-1.87496E+07-4.31784E-07-2.98140E-07
 -1       523-7.53591E+06-1.34043E+06-4.42441E+05 5.66337E+06 1.52504E-08-4.38726E-07
 -1       524-6.74934E+06 1.18328E+07 2.47798E+06-2.37614E+07 1.02055E-06-7.51803E-07
 -1       525-1.33808E+07-2.58615E+06-2.24506E+06 5.67797E+06 3.67232E-07-2.10683E-07
 -1       526 4.20435E+07-7.87164E+04 7.65339E+06-1.14620E+07 4.63449E-07 7.09260E-08
 -1       527-3.38204E+07-8.48708E+06-9.85882E+06-4.91067E+06 1.19559E-07 1.96364E-07
 -1       528 4.96752E+07 1.67870E+07 1.11462E+07 2.71237E+07-2.02039E-07-3.60014E-08
 -1       529-1.81705E+07-2.00354E+07-8.64052E+06-1.25756E+07-2.40922E-07-1.08266E-08
 -1       530-4.32917E+06 3.45949E+07 6.00801E+06 9.99648E+06 2.47877E-07 2.94298E-07
 -1       531 1.40985E+06-1.09200E+07-4.11377E+05-2.46583E+06-6.77275E-07 3.67581E-07
 -1       532-1.96300E+07 2.44544E+07 2.45384E+06-1.31599E+07 4.30460E-07-6.55455E-07
 -1       533-1.11616E+06-1.39630E+07-2.18260E+06-4.04293E+06-2.41504E-07-1.03278E-06
 -1       534 5.23114E+06 3.71755E+07 7.34162E+06 1.72271E+07-6.51926E-08 7.40867E-07
 -1       535-2.38059E+07-2.00697E+07-1.13186E+07-1.28986E+07 1.13854E-07 4.69794E-07
 -1       536-7.06209E+05-4.68382E+04-4.79969E+04-5.46974E+04-1.52932E-09 6.38256E-08
 -1       537-5.48116E+04 4.47907E+04 8.40691E+04 1.23876E+05-1.22394E-07 7.80442E-08
 -1       538-3.94422E+05 3.33323E+03 3.60199E+03-7.22158E+04 2.90919E-08 1.09758E-07
 -1       539-2.69019E+05 2.86927E+03 2.49553E+04 1.38767E+05 1.95810E-07 1.04257E-07
 -1       540-4.97382E+05-4.30233E+02-2.13178E+04-7.01236E+04 4.19686E-09 1.00324E-07
 -1       541 1.46816E+05 1.69790E+04 1.06425E+05 9.79516E+04-4.34986E-08 7.36763E-08
 -1       542-7.99051E+05-2.01415E+04-8.42591E+04-3.05252E+04 2.54295E-08 5.01488E-08
 -1       543 4.05574E+05 2.73340E+04 1.58019E+05-1.33652E+04-8.28586E-08-1.96433E-08
 -1       544-7.49200E+05-1.65420E+04-7.48575E+04 4.05233E+04-1.70803E-08-2.32190E-08
 -1       545 2.90804E+04 9.48641E+03 7.98335E+04-1.13649E+05 1.73187E-08-7.62814E-08
 -1       546-4.32669E+05 6.09776E+03-1.22325E+04 6.94124E+04 1.92797E-08-9.70488E-08
 -1       547-2.87109E+05-4.65718E+03 1.05905E+04-1.41614E+05-1.04827E-07-1.05783E-07
 -1       548-4.41511E+05 4.72058E+03-2.38880E+04 6.91793E+04-1.01197E-07-9.86543E-08
 -1       549 4.82754E+04 1.60816E+04 6.05399E+04-1.11509E+05-6.94953E-08-6.81441E-08
 -1       550-7.59079E+05-2.21511E+04-1.29002E+05 3.85916E+04 2.58387E-09-3.66872E-08
 -1       551 4.08251E+04-7.52386E+05-1.58069E+04-1.24759E+06-1.05676E-07-2.04891E-08
 -1       552 9.33134E+04-7.97368E+05 9.98244E+03-1.77892E+06-7.30361E-08 2.02708E-08
 -1       553 7.17928E+04-7.93776E+05 3.20976E+04-1.24095E+06-1.19544E-07 2.46800E-08
 -1       554 1.32116E+05-8.13246E+05 8.11545E+04-1.78087E+06-7.36618E-08 1.84536E-08
 -1       555 1.01549E+05-8.17426E+05 1.48195E+05-1.24078E+06-1.20053E-07-4.61296E-09
 -1       556 2.23709E+05-3.83654E+05 2.59534E+04-4.07273E+05-2.95113E-08-2.72994E-08
 -1       557 3.54324E+05-4.88019E+05 1.62536E+04-5.27680E+05-3.17232E-09 1.79716E-09
 -1       558 2.05491E+05-3.76484E+05 2.36685E+03-4.11691E+05-1.23400E-08 6.54836E-11
 -1       559 3.29279E+05-4.88113E+05 2.46180E+03-5.48135E+05 2.43308E-08-3.09228E-09
 -1       560 1.90183E+05-3.66884E+05-1.49618E+03-4.22722E+05 1.25146E-08 1.36351E-08
 -1       561 3.10042E+05-4.80416E+05 1.34458E+02-5.61252E+05 1.73168E-09-9.37507E-09
 -1       562 1.78078E+05-3.59363E+05-1.32522E+03-4.31488E+05 3.57977E-09-2.39379E-09
 -1       563 2.95663E+05-4.74147E+05-3.59152E+01-5.70643E+05-2.96859E-09-1.96815E-09
 -1       564 1.69439E+05-3.53981E+05-6.00487E+02-4.37610E+05-1.74623E-10 9.84528E-09
 -1       565 2.86126E+05-4.69993E+05 2.46900E+01-5.76736E+05 8.76025E-09 3.15122E-08
 -1       566 1.64388E+05-3.50785E+05-2.58910E+02-4.41143E+05-5.68980E-09-1.56888E-08
 -1       567 2.81489E+05-4.67976E+05-3.59773E+02-5.79552E+05 1.87119E-08-1.54832E-08
 -1       568 1.63016E+05-3.49945E+05-1.12026E+03-4.42198E+05-1.42245E-09 5.55156E-09
 -1       569 2.80369E+05-4.67899E+05-2.83042E+03-5.78124E+05-5.50517E-09 1.26602E-08
 -1       570 1.66414E+05-3.53175E+05-6.19131E+03-4.41181E+05 1.08703E-08 1.87329E-08
 -1       571 2.90847E+05 1.05216E+04 1.50091E+04-9.52872E+04 2.29829E-09-5.43378E-09
 -1       572 2.93022E+05 3.96640E+03 7.35565E+03-1.04541E+05 3.75803E-09-2.71484E-08
 -1       573 2.91711E+05 1.24825E+03 3.26836E+03-9.51111E+04-6.99401E-10 2.75395E-09
 -1       574 2.91925E+05 7.29079E+02 1.63906E+03-1.04765E+05 3.44153E-09 2.12694E-08
 -1       575 2.91805E+05 4.49371E+02 7.73603E+02-9.50870E+04-1.23568E-08-5.94628E-09
 -1       576 2.91789E+05 4.60717E+02 3.96104E+02-1.04795E+05-2.90336E-08-1.97761E-08
 -1       577 2.91845E+05 3.91014E+02 1.97776E+02-9.50837E+04-1.48948E-08 2.34013E-09
 -1       578 2.91820E+05 4.22407E+02 1.14339E+02-1.04799E+05-7.68750E-09 2.06192E-08
 -1       579 2.91918E+05 3.54066E+02 7.86723E+01-9.50833E+04 3.54885E-09-8.02902E-09
 -1       580 2.91922E+05 3.71100E+02 9.15341E+01-1.04794E+05-1.14132E-08-4.48017E-09
 -1       581 2.92032E+05 2.95232E+02 1.38468E+02-9.50892E+04-5.23141E-09-3.55158E-09
 -1       582 2.92099E+05 3.33754E+02 2.81654E+02-1.04732E+05-1.71822E-08 1.04774E-08
 -1       583 2.92173E+05 3.38456E+02 5.40721E+02-9.51459E+04-6.45377E-09-1.15051E-09
 -1       584 2.92476E+05 7.80092E+02 1.22360E+03-1.04255E+05 9.28594E-09-1.66683E-08
 -1       585 2.92198E+05 1.81032E+03 2.47785E+03-9.55659E+04-1.23873E-09-1.21618E-08
 -1       586-3.43348E+03 1.16978E+05-2.92404E+03-2.51014E+05-6.30598E-09 1.28714E-08
 -1       587-1.34350E+03 1.16730E+05 7.72430E+02-2.76261E+05-3.26145E-09-6.39375E-09
 -1       588 3.97692E+02 1.16536E+05 4.76917E+03-2.50877E+05-7.89441E-10-2.95677E-09
 -1       589 5.09370E+03 1.19016E+05 1.23699E+04-2.76026E+05-1.05392E-08-8.40737E-09
 -1       590 1.66419E+04 1.15201E+05 2.59486E+04-2.51310E+05-6.36101E-09 6.32281E-09
 -1       591-7.50362E+04-1.59571E+04-2.25492E+04-3.19442E+04-7.15590E-09-1.15306E-08
 -1       592-7.91413E+04-1.95058E+04-1.22145E+04-3.55586E+04 6.51226E-09-1.93812E-08
 -1       593-7.72912E+04-1.43212E+04-5.08427E+03-3.35978E+04 4.99005E-09-1.82758E-08
 -1       594-7.60282E+04-1.61967E+04-2.53564E+03-3.56761E+04-8.53632E-10 1.37769E-09
 -1       595-7.74630E+04-1.43158E+04-1.16410E+03-3.36729E+04 1.48474E-09 1.08700E-08
 -1       596-7.58150E+04-1.60454E+04-5.91522E+02-3.56508E+04 9.48222E-09 1.99707E-08
 -1       597-7.74846E+04-1.43312E+04-3.21574E+02-3.36758E+04-9.77025E-10 9.70431E-09
 -1       598-7.57940E+04-1.60394E+04-2.57540E+02-3.56436E+04-1.01405E-08-8.77583E-09
 -1       599-7.74834E+04-1.43318E+04-3.27772E+02-3.36754E+04 5.33316E-09-1.48543E-09
 -1       600-7.58150E+04-1.60459E+04-6.07931E+02-3.56486E+04 1.11086E-08-1.17052E-09
 -1       601-7.74587E+04-1.43172E+04-1.19881E+03-3.36720E+04 1.36674E-09-1.40094E-08
 -1       602-7.60345E+04-1.62006E+04-2.61242E+03-3.56708E+04-6.59406E-09 8.14293E-09
 -1       603-7.72789E+04-1.43257E+04-5.23885E+03-3.35954E+04 3.57340E-09 1.79130E-08
 -1       604-7.92600E+04-1.95904E+04-1.25849E+04-3.55246E+04-3.45153E-10 1.83802E-08
 -1       605-7.49353E+04-1.60293E+04-2.32333E+04-3.19112E+04 2.72814E-09 1.35378E-08
 -1       606 2.66357E+04-1.43431E+04-2.57120E+04 2.40246E+04 4.77758E-09-4.83760E-09
 -1       607 2.22424E+04-4.68454E+03-1.28045E+04 2.69985E+04 8.46740E-10-1.86365E-08
 -1       608 2.47462E+04-8.45184E+02-5.73215E+03 2.38556E+04-1.40790E-09-7.64703E-09
 -1       609 2.42663E+04-2.89617E+02-2.89573E+03 2.72129E+04 2.37196E-09-2.19306E-08
 -1       610 2.45324E+04-4.11131E+01-1.38159E+03 2.38355E+04 2.81489E-09-6.36874E-10
 -1       611 2.44570E+04-4.13691E+01-6.96588E+02 2.72361E+04 6.07906E-09-2.72892E-08
 -1       612 2.44852E+04-2.73675E+01-3.31148E+02 2.38335E+04 1.60253E-09-1.08109E-08
 -1       613 2.44686E+04-3.72527E+01-1.48373E+02 2.72388E+04 5.68525E-09 9.32187E-09
 -1       614 2.44630E+04-3.37738E+01-3.47403E+01 2.38328E+04 5.96629E-10 1.29160E-08
 -1       615 2.44633E+04-3.57452E+01 6.23150E+01 2.72392E+04-2.58660E-09 2.29313E-08
 -1       616 2.44456E+04-3.06334E+01 1.86744E+02 2.38331E+04 3.34421E-09-9.15338E-09
 -1       617 2.44857E+04 4.06316E+00 4.26019E+02 2.72387E+04 3.25349E-09-1.88102E-08
 -1       618 2.44085E+04 9.21894E+01 8.58692E+02 2.38334E+04 3.35649E-09 5.99516E-09
 -1       619 2.47888E+04 6.68013E+02 1.92825E+03 2.72381E+04-2.77942E-09 1.03460E-08
 -1       620 2.41234E+04 2.12838E+03 3.87572E+03 2.38349E+04 1.11800E-09 1.68684E-08
 -1       621 5.05018E+02 3.01167E+05 3.83955E+03 4.12738E+04 1.09458E-09-3.20233E-09
 -1       622 6.72012E+02 3.02052E+05 3.42235E+03 5.99218E+04 1.13096E-09 4.78713E-09
 -1       623 1.43610E+02 3.01356E+05 4.13071E+03 4.10872E+04 1.49635E-09 5.62977E-09
 -1       624 2.12739E+03 3.03274E+05 8.02312E+03 6.01052E+04 1.42427E-09-1.76738E-09
 -1       625 2.07832E+03 2.99763E+05 1.40271E+04 4.10842E+04 1.36788E-09-3.91401E-09
 -1       626 2.61138E+05 6.15374E+04 5.14062E+03 1.26940E+05 1.32832E-09 1.13469E-08
 -1       627 2.58812E+05 6.29389E+04 2.47723E+03 1.31229E+05 1.61890E-09-1.44219E-08
 -1       628 2.61266E+05 5.91854E+04 1.04768E+03 1.27814E+05-4.35648E-09 7.98696E-09
 -1       629 2.58175E+05 6.22561E+04 5.12779E+02 1.31470E+05-4.54384E-09 1.83446E-08
 -1       630 2.61281E+05 5.90718E+04 2.37946E+02 1.27851E+05-5.95901E-09 8.17033E-09
 -1       631 2.58107E+05 6.22301E+04 1.28140E+02 1.31472E+05-3.86603E-09 2.37842E-08
 -1       632 2.61277E+05 5.90758E+04 8.44764E+01 1.27847E+05 1.92222E-09 5.90012E-09
 -1       633 2.58099E+05 6.22319E+04 9.43499E+01 1.31468E+05-1.73100E-09-1.58018E-08
 -1       634 2.61273E+05 5.90729E+04 1.52683E+02 1.27846E+05-8.40254E-09-2.67687E-09
 -1       635 2.58113E+05 6.22302E+04 3.09082E+02 1.31474E+05-7.64157E-09 1.21199E-08
 -1       636 2.61264E+05 5.90671E+04 6.24256E+02 1.27846E+05 1.33837E-08 1.71899E-08
 -1       637 2.58249E+05 6.23272E+04 1.37263E+03 1.31473E+05 2.48510E-08 5.70367E-09
 -1       638 2.61215E+05 5.93703E+04 2.82024E+03 1.27709E+05 1.22081E-08-1.28966E-09
 -1       639 2.59730E+05 6.43873E+04 6.67285E+03 1.31037E+05 4.79372E-09 2.14666E-08
 -1       640 2.61010E+05 6.55233E+04 1.38473E+04 1.25117E+05 6.29461E-09-8.26253E-09
 -1       656 6.65521E+04-1.70330E+06-1.60654E+05-2.55635E+03-6.40284E-10-8.80334E-10
 -1       657-8.80455E+04-1.77590E+06-1.33097E+05 5.17010E+03-1.32968E-09-8.43463E-09
 -1       658 2.12173E+04-1.72392E+06-8.19787E+04-4.64166E+03-9.91577E-10-5.31449E-09
 -1       659-9.52270E+04-1.77931E+06-1.42535E+05 6.90339E+03-2.50839E-09-1.21706E-08
 -1       660 7.37175E+04-1.69990E+06-1.76880E+05-4.28962E+03-2.20462E-09 1.30784E-08
 -1       661 1.58186E+05 1.65505E+04 1.66855E+04 6.18411E+04-1.37925E-09-7.34872E-10
 -1       662 1.67630E+05 2.88974E+04 1.12449E+04 5.80863E+04-4.51041E-09-1.79371E-08
 -1       663 1.61464E+05 2.19035E+04 3.93274E+03 6.08899E+04-2.80147E-09 5.91626E-10
 -1       664 1.63830E+05 2.26376E+04 2.35262E+03 5.92483E+04-4.49464E-09-1.62561E-08
 -1       665 1.61961E+05 2.26345E+04 9.28096E+02 6.07447E+04 1.77664E-09-8.33779E-09
 -1       666 1.63241E+05 2.18017E+04 5.43300E+02 5.94377E+04 8.24934E-09 1.28001E-08
 -1       667 1.62049E+05 2.27176E+04 2.88809E+02 6.07082E+04 1.04441E-09 7.00604E-09
 -1       668 1.63145E+05 2.17421E+04 2.94813E+02 5.94907E+04-5.94406E-09-1.70475E-08
 -1       669 1.62057E+05 2.26925E+04 3.99577E+02 6.06920E+04-2.79638E-09-9.22370E-09
 -1       670 1.63242E+05 2.19591E+04 8.70495E+02 5.94936E+04-1.11840E-08-1.01519E-08
 -1       671 1.61951E+05 2.25051E+04 1.54577E+03 6.07033E+04-2.36052E-09 8.40225E-09
 -1       672 1.64143E+05 2.34629E+04 3.95492E+03 5.92753E+04 4.48881E-09-9.39480E-09
 -1       673 1.61160E+05 2.12267E+04 6.62786E+03 6.08957E+04 2.28476E-09-2.94267E-09
 -1       674 1.70451E+05 3.41113E+04 1.89543E+04 5.74220E+04-6.88851E-09-6.49516E-09
 -1       675 1.55684E+05 1.21549E+04 2.81348E+04 6.24447E+04-1.01409E-09-2.82671E-09
 -1       676 2.41166E+01-2.96014E+05-1.11369E+03-1.37397E+02 3.38548E-09-3.78327E-09
 -1       677-2.94599E+02-2.96284E+05-2.03825E+03 2.74572E+02 7.41645E-09-4.61192E-09
 -1       678 1.97592E+02-2.95823E+05-3.60312E+03-1.37085E+02 1.34060E-09-6.91536E-09
 -1       679-3.60318E+03-2.98459E+05-8.55953E+03 2.73385E+02 5.48243E-09 2.80863E-08
 -1       680 2.15131E+03-2.93841E+05-1.37950E+04-1.34696E+02 1.84355E-09 1.15777E-08
 -1       771-3.06357E+06-7.47474E+05-1.65762E+05-1.46645E+06-3.37022E-08-2.94240E-08
 -1       772-2.98641E+06-8.36311E+05-8.54582E+04-1.56916E+06-1.87138E-08 1.15178E-08
 -1       773-3.09505E+06-7.22924E+05-4.35720E+04-1.48098E+06-5.70435E-09 1.65164E-08
 -1       774-2.97691E+06-8.17809E+05-1.94380E+04-1.59494E+06 2.97878E-08-1.12777E-10
 -1       775-3.11150E+06-7.11381E+05-1.45450E+04-1.48804E+06-2.73576E-09 1.00408E-09
 -1       776-2.98926E+06-8.14775E+05-5.43841E+03-1.61444E+06-6.21367E-09 3.84171E-09
 -1       777-3.12578E+06-7.01077E+05-6.42837E+03-1.49426E+06 1.14669E-08 2.19734E-09
 -1       778-3.00215E+06-8.11952E+05-1.81722E+03-1.63120E+06 1.06666E-08 6.02449E-09
 -1       779-3.13805E+06-6.92074E+05-3.21310E+03-1.49957E+06-6.97037E-09-6.78847E-09
 -1       780-3.01351E+06-8.09259E+05-5.32946E+02-1.64485E+06-3.54339E-09-5.58794E-09
 -1       781-3.14781E+06-6.84815E+05-1.24878E+03-1.50373E+06-3.28000E-08-1.22782E-09
 -1       782-3.02226E+06-8.06972E+05 4.49020E+02-1.65492E+06-3.74421E-08-4.78667E-09
 -1       783-3.15468E+06-6.79771E+05 6.98468E+02-1.50665E+06-7.74162E-09-1.12468E-08
 -1       784-3.02711E+06-8.04688E+05 2.89876E+03-1.66114E+06-2.33704E-08 7.05313E-10
 -1       785-3.15875E+06-6.76763E+05 5.11687E+03-1.50849E+06-3.80496E-08 5.98629E-09
 -1       786 1.21797E+05-9.70953E+03 2.24639E+04-3.18831E+02 2.78482E-09 2.01881E-08
 -1       787 1.31540E+05 1.12415E+04 1.58923E+04-1.31187E+02 6.14132E-09 2.62226E-08
 -1       788 1.25553E+05-1.52151E+03 5.81185E+03-2.83769E+02 2.63493E-09-2.69665E-09
 -1       789 1.27163E+05 1.76109E+03 3.64842E+03-1.84958E+02 3.19435E-09-6.50971E-10
 -1       790 1.26173E+05-2.36890E+02 1.47706E+03-2.65078E+02-1.87434E-09 3.86910E-09
 -1       791 1.26438E+05 2.74039E+02 8.52877E+02-2.16941E+02-6.63772E-09-5.93445E-09
 -1       792 1.26279E+05-3.55666E+01 3.60936E+02-2.51787E+02-5.43902E-09 7.22454E-09
 -1       793 1.26312E+05 3.73294E+01 1.78889E+02-2.41896E+02-9.14401E-10-1.76860E-08
 -1       794 1.26299E+05-3.30435E-01 4.43836E+01-2.40123E+02 4.61616E-09-3.04999E-09
 -1       795 1.26275E+05-2.91290E+01-6.31550E+01-2.66143E+02-4.19727E-09-3.99535E-09
 -1       796 1.26316E+05 3.08546E+01-1.71633E+02-2.27540E+02 4.90587E-09-8.08171E-10
 -1       797 1.26176E+05-2.30303E+02-4.68376E+02-2.94919E+02 4.34096E-09 1.23921E-09
 -1       798 1.26398E+05 2.00693E+02-7.59870E+02-2.11346E+02 2.22601E-09-3.52370E-09
 -1       799 1.25599E+05-1.47947E+03-2.08984E+03-3.34913E+02 6.12534E-09-6.90733E-10
 -1       800 1.26893E+05 1.27900E+03-2.95735E+03-1.87548E+02 3.95595E-12 2.90822E-09
 -1       801-1.70922E+05-9.99006E+06-1.39218E+06 1.41335E+06 9.46166E-08-5.13392E-08
 -1       802 7.37070E+05 5.93681E+06 2.17836E+06-1.74459E+06 2.61105E-07-2.94067E-08
 -1       803-5.35844E+05-1.42501E+07-1.88761E+06 8.97242E+05 7.76308E-08 1.69275E-08
 -1       804 2.86651E+05 2.38450E+06 1.53465E+06 6.76251E+05-1.19995E-07-9.86420E-08
 -1       805 1.89154E+05-6.45188E+06-2.85659E+05-1.00184E+06-4.98112E-08-7.07541E-08
 -1       806-3.13333E+05-6.03849E+04-2.32838E+04-1.24155E+05-6.50198E-09-4.34329E-09
 -1       807-3.15209E+05-5.67817E+04-1.14655E+04-1.29781E+05 2.19666E-09-1.34469E-09
 -1       808-3.14022E+05-5.21897E+04-4.86504E+03-1.28056E+05 4.33374E-09-1.15824E-08
 -1       809-3.12787E+05-5.36038E+04-2.37999E+03-1.30042E+05 9.72932E-09-8.86212E-09
 -1       810-3.14120E+05-5.19145E+04-1.09146E+03-1.28225E+05 5.97538E-10 2.14645E-08
 -1       811-3.12602E+05-5.34785E+04-5.42919E+02-1.30004E+05-4.42924E-09-8.50332E-09
 -1       812-3.14135E+05-5.19403E+04-2.74927E+02-1.28224E+05-1.50048E-08-2.35964E-08
 -1       813-3.12576E+05-5.34807E+04-1.79261E+02-1.29985E+05-4.29236E-09 5.11136E-09
 -1       814-3.14127E+05-5.19502E+04-1.78571E+02-1.28220E+05 4.02633E-09 3.65162E-09
 -1       815-3.12580E+05-5.34828E+04-2.88553E+02-1.29978E+05-8.95216E-09-1.10790E-08
 -1       816-3.14106E+05-5.19489E+04-5.47504E+02-1.28216E+05 2.48747E-09 9.24456E-09
 -1       817-3.12672E+05-5.35333E+04-1.17469E+03-1.29966E+05-1.05010E-08-1.36706E-08
 -1       818-3.14034E+05-5.21056E+04-2.39499E+03-1.28141E+05 2.57387E-09-4.20187E-10
 -1       819-3.13984E+05-5.49620E+04-5.63404E+03-1.29670E+05 7.66522E-09-9.02037E-09
 -1       820-3.13562E+05-5.62529E+04-1.14410E+04-1.26356E+05 2.86582E-09-1.37820E-08
 -1       821-3.80497E+05 2.09030E+04-4.87099E+04 2.22084E+03 1.40744E-08 1.22200E-08
 -1       822-4.00025E+05-2.42180E+04-3.41920E+04-4.76784E+03 5.37754E-09-1.33227E-08
 -1       823-3.87878E+05 3.29802E+03-1.25768E+04 3.65484E+03-1.30483E-08-7.60065E-09
 -1       824-3.91079E+05-3.80205E+03-7.86611E+03-5.79966E+03 1.06017E-09-2.80284E-09
 -1       825-3.89452E+05 5.13069E+02-3.30108E+03 3.25279E+03 2.19580E-08 9.47500E-09
 -1       826-3.88524E+05-5.63873E+02-1.71881E+03-3.39484E+03 2.99766E-08 1.36670E-08
 -1       827-3.90405E+05 4.07067E+01-1.21762E+03 1.24985E+03 9.46164E-09-8.91322E-09
 -1       828-3.87730E+05-1.23953E+02-5.40973E+02 1.10279E+03-1.76283E-09 1.12522E-08
 -1       829-3.90231E+05 6.11984E+01-1.20438E+03-1.24487E+03 2.45498E-09 3.89983E-08
 -1       830-3.88901E+05-6.21801E+02-1.86455E+03 5.19116E+03 3.09038E-09 7.08650E-09
 -1       831-3.89260E+05 5.58677E+02-3.38339E+03-2.83852E+03-5.05771E-09-1.26420E-10
 -1       832-3.91160E+05-3.97439E+03-8.17721E+03 6.59284E+03-5.25343E-09-8.69204E-09
 -1       833-3.87990E+05 3.42533E+03-1.30967E+04-2.64661E+03-2.67453E-09 4.58385E-09
 -1       834-4.00068E+05-2.51569E+04-3.54454E+04 4.49146E+03-3.00173E-09 3.40547E-08
 -1       835-3.80333E+05 2.17058E+04-5.06342E+04-7.37049E+02 5.26177E-09 3.69982E-09
 -1       836-1.41288E+03 3.69873E+05 2.29040E+04-1.58893E+04-7.13499E-09 2.00739E-08
 -1       837 4.88416E+03 3.77047E+05 1.93904E+04-3.24748E+04-7.66755E-09 4.32556E-09
 -1       838-5.58218E+02 3.71882E+05 1.97694E+04-1.58178E+04-6.36464E-09 3.00292E-09
 -1       839 1.24486E+04 3.82680E+05 3.74108E+04-3.25288E+04-6.42740E-09 5.94582E-09
 -1       840-3.84755E+03 3.64179E+05 5.96624E+04-1.58412E+04-6.04268E-09-2.57273E-10
 -1       856-5.17918E+04 8.02274E+03-2.11416E+04-3.97523E+02 3.32955E-09-5.20959E-09
 -1       857-6.05018E+04-9.42645E+03-1.45537E+04 5.62816E+03 5.63477E-09 1.66960E-09
 -1       858-5.52411E+04 1.12511E+03-5.48573E+03-4.21478E+02 4.16583E-09 1.58100E-08
 -1       859-5.65433E+04-1.32365E+03-3.31037E+03 5.66378E+03-2.11342E-09 1.84027E-08
 -1       860-5.57565E+04 1.57569E+02-1.38732E+03-4.32868E+02 3.71017E-10 2.91038E-09
 -1       861-5.59505E+04-1.88099E+02-7.63096E+02 5.67928E+03 3.53366E-09-5.45981E-09
 -1       862-5.58371E+04 2.13389E+01-3.17004E+02-4.36960E+02-2.06464E-09-8.19568E-10
 -1       863-5.58516E+04-2.17886E+01-1.15012E+02 5.68165E+03 1.17433E-09-1.01884E-08
 -1       864-5.58558E+04-4.96097E+00 4.82334E+01-4.35234E+02-4.21755E-09-7.86021E-09
 -1       865-5.57956E+04 6.01344E+01 2.57506E+02 5.67181E+03-2.27374E-09-8.54845E-09
 -1       866-5.58909E+04-6.05933E+01 5.18418E+02-4.27122E+02-2.29210E-09 1.23836E-09
 -1       867-5.55520E+04 5.00403E+02 1.27569E+03 5.64980E+03 2.47303E-09-4.00792E-09
 -1       868-5.60946E+04-4.37254E+02 2.11974E+03-4.13221E+02-6.79904E-10-1.86286E-08
 -1       869-5.39981E+04 3.63921E+03 5.64400E+03 5.61359E+03 1.56183E-09-4.90854E-09
 -1       870-5.74370E+04-3.11411E+03 8.19076E+03-3.90805E+02-2.92880E-09 8.34461E-09
 -1       871-5.51851E+03-2.09839E+04-1.94883E+04 1.30558E+05-4.21642E-09 2.64063E-08
 -1       872-1.98168E+03-2.55160E+04-8.15602E+03 1.69287E+05-1.02691E-08-2.32471E-08
 -1       873 4.05848E+02-2.33251E+04 5.99937E+02 1.30270E+05-5.63614E-09-5.79041E-09
 -1       874 3.31214E+03-2.09094E+04 9.80196E+03 1.69317E+05-1.04783E-08 2.57787E-08
 -1       875 6.85915E+03-2.56594E+04 2.21042E+04 1.30509E+05-4.74392E-09 1.52713E-08
 -1       876 2.93998E+05 4.95228E+04 1.50908E+04 1.17949E+05-6.67364E-09-6.97582E-10
 -1       877 2.95002E+05 5.26951E+04 8.05911E+03 1.22272E+05-5.32032E-09 2.39176E-08
 -1       878 2.95409E+05 4.78512E+04 3.37638E+03 1.19186E+05-1.23309E-08 1.01484E-08
 -1       879 2.92951E+05 5.06478E+04 1.68233E+03 1.22373E+05 3.61956E-09 5.45663E-09
 -1       880 2.95511E+05 4.78339E+04 7.83634E+02 1.19236E+05-3.12662E-09-2.83654E-09
 -1       881 2.92814E+05 5.05602E+04 4.18539E+02 1.22350E+05-1.02871E-08-2.59843E-09
 -1       882 2.95520E+05 4.78472E+04 2.67878E+02 1.19238E+05-1.48157E-09-1.79292E-08
 -1       883 2.92805E+05 5.05556E+04 2.88172E+02 1.22342E+05-1.67074E-09-1.93241E-08
 -1       884 2.95513E+05 4.78444E+04 4.58590E+02 1.19238E+05-1.96906E-09-1.28800E-08
 -1       885 2.92841E+05 5.05620E+04 9.22131E+02 1.22353E+05-7.70224E-09 1.08093E-09
 -1       886 2.95477E+05 4.78175E+04 1.85857E+03 1.19234E+05-5.60603E-09 2.07995E-08
 -1       887 2.93168E+05 5.07761E+04 4.05981E+03 1.22401E+05 6.26585E-09-1.00945E-08
 -1       888 2.95221E+05 4.78627E+04 8.18065E+03 1.19105E+05 3.19605E-09 1.33318E-08
 -1       889 2.98038E+05 5.58410E+04 1.95420E+04 1.22251E+05 2.77606E-09 2.41162E-08
 -1       890 2.91882E+05 5.18289E+04 3.66018E+04 1.15991E+05-2.20552E-09-6.74663E-09
 -1       891-8.95569E+01-1.62872E+05-1.99857E+03 2.71436E+04-3.02407E-09-8.01765E-09
 -1       892-1.75677E+02-1.63400E+05-2.14606E+03 4.12191E+04-5.44560E-10 1.00067E-09
 -1       893 4.36878E+01-1.62936E+05-3.03813E+03 2.71509E+04-1.39175E-09 3.03571E-08
 -1       894-1.51114E+03-1.64547E+05-6.28746E+03 4.10666E+04 4.28281E-09 4.84488E-09
 -1       895-1.20008E+03-1.61626E+05-1.10720E+04 2.72979E+04-4.63501E-10 1.03882E-08
 -1       956-3.77524E+05-5.39431E+03-1.33185E+04 3.05956E+04 3.77986E-09 4.79054E-09
 -1       957-3.80137E+05-1.90234E+03-6.83622E+03 3.67696E+04-4.68935E-09 6.99879E-09
 -1       958-3.78721E+05-2.37724E+02-3.08059E+03 3.04301E+04-6.07542E-09-1.93813E-09
 -1       959-3.78915E+05-1.34197E+02-1.57306E+03 3.69625E+04 1.88084E-09 4.05907E-09
 -1       960-3.78837E+05-4.38253E+01-7.67175E+02 3.04131E+04 9.82800E-09 2.58160E-09
 -1       961-3.78835E+05-6.21357E+01-4.06961E+02 3.69826E+04 1.39298E-08-2.44859E-08
 -1       962-3.78864E+05-4.52386E+01-2.33367E+02 3.04102E+04 2.82716E-09-2.31703E-08
 -1       963-3.78835E+05-5.81633E+01-1.88017E+02 3.69862E+04 7.46729E-09 8.69113E-09
 -1       964-3.78869E+05-4.20199E+01-2.29473E+02 3.04095E+04 8.38753E-10 4.43151E-10
 -1       965-3.78847E+05-5.53296E+01-3.97580E+02 3.69854E+04-7.95205E-09-5.22937E-09
 -1       966-3.78853E+05-3.42362E+01-7.47429E+02 3.04110E+04 1.33741E-09 8.17226E-09
 -1       967-3.78936E+05-1.19014E+02-1.53316E+03 3.69711E+04 9.81345E-10-5.66229E-09
 -1       968-3.78749E+05-2.17029E+02-3.00146E+03 3.04237E+04-3.16641E-09-5.48221E-09
 -1       969-3.80139E+05-1.83696E+03-6.66320E+03 3.68229E+04 1.64255E-09-9.41074E-09
 -1       970-3.77591E+05-5.23920E+03-1.29803E+04 3.05506E+04-5.24778E-10 9.80981E-09
 -1       971-3.45618E+05-1.73066E+03-9.32701E+03 1.54077E+04 5.46152E-09 2.24487E-09
 -1       972-3.47863E+05-1.27409E+03-5.07939E+03 2.13090E+04 3.74348E-09 1.70312E-08
 -1       973-3.46657E+05-6.21388E+01-2.27511E+03 1.52863E+04 5.62432E-09 8.05744E-09
 -1       974-3.46793E+05-8.11811E+01-1.17933E+03 2.14464E+04 8.95693E-09 1.67811E-08
 -1       975-3.46740E+05-1.71562E+01-5.89951E+02 1.52739E+04-1.52249E-09 2.68074E-10
 -1       976-3.46731E+05-3.12225E+01-3.41160E+02 2.14622E+04 1.60071E-09-1.40479E-08
 -1       977-3.46756E+05-1.63923E+01-2.49048E+02 1.52705E+04-4.77189E-09-1.24010E-08
 -1       978-3.46736E+05-2.49717E+01-2.93395E+02 2.14671E+04-1.17509E-08-2.01165E-08
 -1       979-3.46756E+05-7.89566E+00-4.73080E+02 1.52690E+04-5.16070E-09-5.97822E-09
 -1       980-3.46772E+05-2.18982E+01-9.14514E+02 2.14681E+04-6.50562E-09-8.87894E-10
 -1       981-3.46727E+05 1.49664E+01-1.77176E+03 1.52695E+04 6.84224E-09 5.07134E-09
 -1       982-3.47015E+05-1.52812E+02-3.66250E+03 2.14615E+04 5.83702E-09-3.04637E-09
 -1       983-3.46503E+05-9.84895E+01-7.11642E+03 1.52756E+04 3.63480E-09-5.01632E-09
 -1       984-3.50438E+05-3.86952E+03-1.59370E+04 2.13757E+04 3.88559E-09 1.37782E-08
 -1       985-3.43281E+05-5.30585E+03-2.92653E+04 1.53471E+04-6.18456E-10-4.82578E-09
 -3
    1PSTEP                        37          19           1          
  100CL  119 6.63172E-01         409                     0   19           1
 -4  DISP        4    1
 -5  D1          1    2    1    0
 -5  D2          1    2    2    0
 -5  D3          1    2    3    0
 -5  ALL         1    2    0    0    1ALL
 -1         1 2.71384E-03 0.00000E+00 0.00000E+00
 -1         2 1.36746E-03 1.03483E-27 5.29396E-23
 -1         3 3.42696E-04-6.63815E-28-1.32349E-23
 -1         5 1.77137E-04-3.42432E-27 1.65436E-24
 -1         8 2.70277E-03-4.09318E-07 0.00000E+00
 -1         9 2.69617E-03-1.85779E-04 0.00000E+00
 -1        10 3.10733E-04-3.41268E-06 6.61744E-24
 -1        12 1.78980E-04 8.09530E-07-8.27181E-25
 -1        15 2.69008E-03-4.33613E-07 0.00000E+00
 -1        16 2.76039E-03-1.87572E-04 0.00000E+00
 -1        17 2.11466E-04-7.78116E-06 0.00000E+00
 -1        18 1.82913E-04 3.43889E-05 0.00000E+00
 -1        19 1.84508E-04 1.61265E-06 0.00000E+00
 -1        20 1.84647E-04-9.80734E-06 0.00000E+00
 -1        21 1.83752E-04-2.52816E-05 0.00000E+00
 -1        24 3.06267E-05-1.20083E-05 0.00000E+00
 -1        25 1.93697E-04 3.46147E-05 0.00000E+00
 -1        26 1.94367E-04 2.23216E-06 0.00000E+00
 -1        27 1.92152E-04-1.33641E-05 0.00000E+00
 -1        28 1.91838E-04-2.59039E-05 0.00000E+00
 -1        32 0.00000E+00 0.00000E+00 0.00000E+00
 -1        33 2.03202E-04 2.98517E-06 0.00000E+00
 -1        34 2.01082E-04-1.34194E-05 0.00000E+00
 -1        35 1.99149E-04-2.62465E-05 0.00000E+00
 -1        51 2.71310E-03-8.55357E-08 0.00000E+00
 -1        52 2.71174E-03-1.52737E-07 3.30872E-24
 -1        53 2.70990E-03-2.16495E-07 0.00000E+00
 -1        54 2.70770E-03-2.79045E-07-1.65436E-24
 -1        55 2.70528E-03-3.42147E-07 0.00000E+00
 -1        56 2.70640E-03 7.86678E-06 0.00000E+00
 -1        57 2.69208E-03 3.27559E-05 0.00000E+00
 -1        58 2.67300E-03 6.92843E-05 0.00000E+00
 -1        59 2.65174E-03 1.10952E-04 0.00000E+00
 -1        60 2.63141E-03 1.50378E-04 1.05879E-22
 -1        61 2.61501E-03 1.80365E-04 0.00000E+00
 -1        62 2.60458E-03 1.95401E-04-1.05879E-22
 -1        63 2.60147E-03 1.91306E-04 0.00000E+00
 -1        64 2.60552E-03 1.67411E-04 1.05879E-22
 -1        65 2.61591E-03 1.24909E-04 5.29396E-23
 -1        66 2.63083E-03 6.85171E-05 0.00000E+00
 -1        67 2.64819E-03 4.30659E-06 0.00000E+00
 -1        68 2.66563E-03-6.01400E-05-1.05879E-22
 -1        69 2.68079E-03-1.17211E-04 5.29396E-23
 -1        70 2.69154E-03-1.60722E-04 1.05879E-22
 -1        86 1.45099E-03-5.91102E-06 5.29396E-23
 -1        87 1.69285E-03-3.69933E-05 0.00000E+00
 -1        88 2.01803E-03-9.03551E-05 0.00000E+00
 -1        89 2.34749E-03-1.45152E-04 0.00000E+00
 -1        90 2.59971E-03-1.78680E-04 5.29396E-23
 -1       121 3.41798E-04-5.51035E-07 0.00000E+00
 -1       122 3.39109E-04-1.10516E-06 6.61744E-24
 -1       123 3.34638E-04-1.66542E-06 0.00000E+00
 -1       124 3.28402E-04-2.23484E-06-6.61744E-24
 -1       125 3.20423E-04-2.81610E-06 1.32349E-23
 -1       191 1.77189E-04 1.34985E-07 8.27181E-25
 -1       192 1.77342E-04 2.69959E-07 1.65436E-24
 -1       193 1.77598E-04 4.04913E-07 2.48154E-24
 -1       194 1.77956E-04 5.39835E-07-1.65436E-24
 -1       195 1.78417E-04 6.74711E-07 2.48154E-24
 -1       251 2.70247E-03 1.72183E-06 6.61744E-24
 -1       252 2.70216E-03 3.79369E-06 0.00000E+00
 -1       253 2.70185E-03 4.82503E-06 0.00000E+00
 -1       254 2.70154E-03 3.84767E-06 3.30872E-24
 -1       255 2.70123E-03 2.01058E-07-6.61744E-24
 -1       256 2.70090E-03-6.74162E-06-3.30872E-24
 -1       257 2.70054E-03-1.71028E-05 0.00000E+00
 -1       258 2.70014E-03-3.09615E-05 0.00000E+00
 -1       259 2.69969E-03-4.78622E-05 0.00000E+00
 -1       260 2.69920E-03-6.73105E-05 0.00000E+00
 -1       261 2.69868E-03-8.84219E-05 0.00000E+00
 -1       262 2.69814E-03-1.10292E-04 6.61744E-24
 -1       263 2.69760E-03-1.31899E-04-1.32349E-23
 -1       264 2.69709E-03-1.52225E-04-6.61744E-24
 -1       265 2.69662E-03-1.70450E-04 0.00000E+00
 -1       266 2.70066E-03-4.19068E-07 3.30872E-24
 -1       267 2.69854E-03-4.22422E-07 0.00000E+00
 -1       268 2.69643E-03-4.26181E-07-8.27181E-25
 -1       269 2.69431E-03-4.28741E-07 2.06795E-25
 -1       270 2.69220E-03-4.31273E-07-2.06795E-25
 -1       271 2.70188E-03 1.64365E-07 0.00000E+00
 -1       272 2.70192E-03-1.80149E-06 0.00000E+00
 -1       273 2.70285E-03-6.15898E-06-1.32349E-23
 -1       274 2.70460E-03-1.27486E-05 0.00000E+00
 -1       275 2.70710E-03-2.13902E-05 0.00000E+00
 -1       276 2.71028E-03-3.18889E-05 0.00000E+00
 -1       277 2.71406E-03-4.40337E-05 0.00000E+00
 -1       278 2.71835E-03-5.76008E-05 0.00000E+00
 -1       279 2.72307E-03-7.23548E-05 0.00000E+00
 -1       280 2.72813E-03-8.80507E-05 1.32349E-23
 -1       281 2.73343E-03-1.04435E-04 0.00000E+00
 -1       282 2.73889E-03-1.21251E-04-6.61744E-24
 -1       283 2.74440E-03-1.38235E-04 1.32349E-23
 -1       284 2.74989E-03-1.55125E-04 0.00000E+00
 -1       285 2.75524E-03-1.71657E-04 1.32349E-23
 -1       301 2.70784E-03-1.86111E-04 0.00000E+00
 -1       302 2.71789E-03-1.86398E-04-3.30872E-24
 -1       303 2.72724E-03-1.86675E-04 1.32349E-23
 -1       304 2.73682E-03-1.86953E-04 0.00000E+00
 -1       305 2.74756E-03-1.87244E-04 0.00000E+00
 -1       306 2.73403E-03-3.40220E-04 0.00000E+00
 -1       307 2.79790E-03-7.54214E-04 0.00000E+00
 -1       308 2.84458E-03-1.35956E-03 1.05879E-22
 -1       309 2.86839E-03-2.06023E-03 0.00000E+00
 -1       310 2.89964E-03-2.73045E-03 0.00000E+00
 -1       311 2.95909E-03-3.24712E-03-5.29396E-23
 -1       312 3.01696E-03-3.52958E-03 1.05879E-22
 -1       313 3.01239E-03-3.53996E-03-5.29396E-23
 -1       314 2.87148E-03-3.29027E-03 0.00000E+00
 -1       315 2.55332E-03-2.84501E-03 0.00000E+00
 -1       316 2.07626E-03-2.28084E-03 0.00000E+00
 -1       317 1.50620E-03-1.66711E-03 5.29396E-23
 -1       318 9.57513E-04-1.06446E-03 0.00000E+00
 -1       319 5.38213E-04-5.37870E-04-5.29396E-23
 -1       320 2.92106E-04-1.61496E-04 1.05879E-22
 -1       336 2.99144E-04-4.07226E-06 0.00000E+00
 -1       337 2.85479E-04-4.75753E-06 0.00000E+00
 -1       338 2.69801E-04-5.47071E-06 0.00000E+00
 -1       339 2.52183E-04-6.21261E-06 0.00000E+00
 -1       340 2.32707E-04-6.98768E-06-1.32349E-23
 -1       406 1.79645E-04 9.44273E-07-3.30872E-24
 -1       407 1.80413E-04 1.07890E-06 1.24077E-24
 -1       408 1.81284E-04 1.21337E-06 2.06795E-24
 -1       409 1.82256E-04 1.34749E-06 4.13590E-25
 -1       410 1.83332E-04 1.48100E-06-3.30872E-24
 -1       521 2.79884E-03-3.51293E-04-1.05879E-22
 -1       522 2.86094E-03-7.85521E-04-5.29396E-23
 -1       523 2.90117E-03-1.41864E-03 0.00000E+00
 -1       524 2.91577E-03-2.14788E-03 0.00000E+00
 -1       525 2.93912E-03-2.84465E-03-1.05879E-22
 -1       526 2.99502E-03-3.38332E-03 0.00000E+00
 -1       527 3.05246E-03-3.67636E-03 0.00000E+00
 -1       528 3.04559E-03-3.68496E-03 0.00000E+00
 -1       529 2.89269E-03-3.42113E-03 0.00000E+00
 -1       530 2.55058E-03-2.95733E-03 0.00000E+00
 -1       531 2.03841E-03-2.37398E-03 0.00000E+00
 -1       532 1.42856E-03-1.74304E-03 5.29396E-23
 -1       533 8.40729E-04-1.12251E-03 0.00000E+00
 -1       534 3.88106E-04-5.75064E-04 5.29396E-23
 -1       535 1.20773E-04-1.79155E-04 0.00000E+00
 -1       536 2.10712E-04 2.71386E-05-6.61744E-24
 -1       537 2.08794E-04 8.75711E-05 1.65436E-24
 -1       538 2.05831E-04 1.64251E-04 3.30872E-24
 -1       539 2.02336E-04 2.47828E-04 0.00000E+00
 -1       540 1.99191E-04 3.26802E-04-3.30872E-24
 -1       541 1.97146E-04 3.89694E-04 1.65436E-24
 -1       542 1.96203E-04 4.29752E-04-3.30872E-24
 -1       543 1.95978E-04 4.40372E-04 0.00000E+00
 -1       544 1.95656E-04 4.22328E-04 3.30872E-24
 -1       545 1.94483E-04 3.76615E-04-1.65436E-24
 -1       546 1.92299E-04 3.11358E-04 0.00000E+00
 -1       547 1.89342E-04 2.34804E-04-1.65436E-24
 -1       548 1.86412E-04 1.58626E-04-3.30872E-24
 -1       549 1.84298E-04 9.44984E-05-1.65436E-24
 -1       550 1.83200E-04 5.04517E-05-1.65436E-24
 -1       551 1.86267E-04-8.35097E-06 0.00000E+00
 -1       552 1.57823E-04-9.00120E-06 0.00000E+00
 -1       553 1.27078E-04-9.71365E-06 0.00000E+00
 -1       554 9.49904E-05-1.04672E-05-3.30872E-24
 -1       555 6.25217E-05-1.12345E-05-1.32349E-23
 -1       556 2.03819E-04 1.17724E-05 5.29396E-23
 -1       557 1.97640E-04 2.76309E-05 0.00000E+00
 -1       558 1.92797E-04 4.00820E-05 5.29396E-23
 -1       559 1.89154E-04 4.94362E-05 0.00000E+00
 -1       560 1.86584E-04 5.60043E-05 0.00000E+00
 -1       561 1.84957E-04 6.00995E-05 0.00000E+00
 -1       562 1.84149E-04 6.20366E-05 0.00000E+00
 -1       563 1.84035E-04 6.21309E-05 0.00000E+00
 -1       564 1.84494E-04 6.06989E-05 0.00000E+00
 -1       565 1.85405E-04 5.80576E-05 0.00000E+00
 -1       566 1.86648E-04 5.45247E-05 0.00000E+00
 -1       567 1.88104E-04 5.04182E-05-3.30872E-24
 -1       568 1.89654E-04 4.60562E-05-1.65436E-24
 -1       569 1.91182E-04 4.17569E-05 8.27181E-25
 -1       570 1.92568E-04 3.78385E-05 0.00000E+00
 -1       571 1.83010E-04 3.22611E-05-8.27181E-25
 -1       572 1.83109E-04 3.00677E-05 4.13590E-25
 -1       573 1.83208E-04 2.78245E-05 1.65436E-24
 -1       574 1.83307E-04 2.55477E-05 8.27181E-25
 -1       575 1.83407E-04 2.32539E-05 3.30872E-24
 -1       576 1.83506E-04 2.09594E-05 0.00000E+00
 -1       577 1.83606E-04 1.86809E-05 0.00000E+00
 -1       578 1.83706E-04 1.64348E-05-3.30872E-24
 -1       579 1.83806E-04 1.42377E-05 0.00000E+00
 -1       580 1.83905E-04 1.21061E-05-3.30872E-24
 -1       581 1.84006E-04 1.00566E-05 0.00000E+00
 -1       582 1.84106E-04 8.10552E-06 0.00000E+00
 -1       583 1.84206E-04 6.26948E-06-6.61744E-24
 -1       584 1.84307E-04 4.56478E-06 3.30872E-24
 -1       585 1.84407E-04 3.00757E-06 0.00000E+00
 -1       586 1.84669E-04 3.44287E-05 0.00000E+00
 -1       587 1.86384E-04 3.44679E-05-8.27181E-25
 -1       588 1.88100E-04 3.45067E-05-8.27181E-25
 -1       589 1.89863E-04 3.45449E-05 0.00000E+00
 -1       590 1.91715E-04 3.45818E-05 0.00000E+00
 -1       591 1.83643E-04 3.23549E-05 0.00000E+00
 -1       592 1.84375E-04 3.03013E-05 0.00000E+00
 -1       593 1.85112E-04 2.82339E-05 0.00000E+00
 -1       594 1.85852E-04 2.61574E-05-4.13590E-25
 -1       595 1.86593E-04 2.40765E-05-8.27181E-25
 -1       596 1.87335E-04 2.19959E-05 4.13590E-25
 -1       597 1.88074E-04 1.99203E-05 8.27181E-25
 -1       598 1.88810E-04 1.78542E-05 4.13590E-25
 -1       599 1.89541E-04 1.58025E-05 8.27181E-25
 -1       600 1.90264E-04 1.37696E-05 0.00000E+00
 -1       601 1.90979E-04 1.17603E-05 8.27181E-25
 -1       602 1.91683E-04 9.77930E-06 0.00000E+00
 -1       603 1.92375E-04 7.83115E-06 4.13590E-25
 -1       604 1.93054E-04 5.92065E-06 1.29247E-25
 -1       605 1.93717E-04 4.05238E-06 0.00000E+00
 -1       606 1.84521E-04 4.51324E-07-3.30872E-24
 -1       607 1.84531E-04-6.23992E-07 0.00000E+00
 -1       608 1.84540E-04-1.61835E-06 0.00000E+00
 -1       609 1.84548E-04-2.53743E-06-1.65436E-24
 -1       610 1.84556E-04-3.38699E-06 3.30872E-24
 -1       611 1.84565E-04-4.17284E-06 0.00000E+00
 -1       612 1.84573E-04-4.90077E-06 0.00000E+00
 -1       613 1.84581E-04-5.57664E-06 0.00000E+00
 -1       614 1.84590E-04-6.20624E-06 0.00000E+00
 -1       615 1.84598E-04-6.79541E-06 8.27181E-25
 -1       616 1.84606E-04-7.34997E-06 1.65436E-24
 -1       617 1.84615E-04-7.87574E-06 0.00000E+00
 -1       618 1.84623E-04-8.37853E-06 0.00000E+00
 -1       619 1.84631E-04-8.86419E-06-2.06795E-25
 -1       620 1.84640E-04-9.33852E-06 0.00000E+00
 -1       621 1.85864E-04 1.71648E-06 3.30872E-24
 -1       622 1.87380E-04 1.82054E-06 8.27181E-25
 -1       623 1.89022E-04 1.92439E-06 3.30872E-24
 -1       624 1.90756E-04 2.02791E-06-1.65436E-24
 -1       625 1.92549E-04 2.13113E-06-3.30872E-24
 -1       626 1.85056E-04 4.87592E-07 0.00000E+00
 -1       627 1.85580E-04-5.74158E-07 3.30872E-24
 -1       628 1.86085E-04-1.58048E-06-6.61744E-24
 -1       629 1.86571E-04-2.53957E-06 1.65436E-24
 -1       630 1.87044E-04-3.45966E-06-3.30872E-24
 -1       631 1.87504E-04-4.34899E-06 1.65436E-24
 -1       632 1.87957E-04-5.21579E-06-3.30872E-24
 -1       633 1.88404E-04-6.06831E-06-1.65436E-24
 -1       634 1.88848E-04-6.91481E-06 3.30872E-24
 -1       635 1.89294E-04-7.76350E-06 0.00000E+00
 -1       636 1.89743E-04-8.62265E-06-3.30872E-24
 -1       637 1.90199E-04-9.50049E-06 0.00000E+00
 -1       638 1.90666E-04-1.04053E-05 0.00000E+00
 -1       639 1.91145E-04-1.13453E-05 8.27181E-25
 -1       640 1.91640E-04-1.23287E-05 1.65436E-24
 -1       656 1.85349E-04-1.03854E-05 0.00000E+00
 -1       657 1.86471E-04-1.09870E-05 0.00000E+00
 -1       658 1.87874E-04-1.15872E-05-1.32349E-23
 -1       659 1.89411E-04-1.21870E-05 0.00000E+00
 -1       660 1.90898E-04-1.27887E-05 0.00000E+00
 -1       661 1.84910E-04-1.03215E-05 0.00000E+00
 -1       662 1.85210E-04-1.09279E-05 0.00000E+00
 -1       663 1.85543E-04-1.16212E-05 1.65436E-24
 -1       664 1.85906E-04-1.23949E-05-8.27181E-25
 -1       665 1.86297E-04-1.32432E-05 0.00000E+00
 -1       666 1.86714E-04-1.41600E-05 8.27181E-25
 -1       667 1.87155E-04-1.51397E-05 0.00000E+00
 -1       668 1.87617E-04-1.61767E-05 8.27181E-25
 -1       669 1.88098E-04-1.72655E-05 0.00000E+00
 -1       670 1.88597E-04-1.84008E-05-8.27181E-25
 -1       671 1.89111E-04-1.95773E-05 0.00000E+00
 -1       672 1.89638E-04-2.07900E-05 8.27181E-25
 -1       673 1.90177E-04-2.20337E-05-1.65436E-24
 -1       674 1.90725E-04-2.33038E-05 0.00000E+00
 -1       675 1.91281E-04-2.45948E-05 0.00000E+00
 -1       676 1.85105E-04-2.53860E-05 3.30872E-24
 -1       677 1.86456E-04-2.54902E-05 0.00000E+00
 -1       678 1.87806E-04-2.55944E-05 0.00000E+00
 -1       679 1.89154E-04-2.56984E-05 0.00000E+00
 -1       680 1.90498E-04-2.58022E-05-3.30872E-24
 -1       771 1.86753E-05 1.47171E-05 0.00000E+00
 -1       772 8.62036E-06 3.66671E-05 0.00000E+00
 -1       773 3.71165E-07 5.40721E-05 0.00000E+00
 -1       774-6.19658E-06 6.71897E-05 2.64698E-23
 -1       775-1.12045E-05 7.62885E-05 0.00000E+00
 -1       776-1.47791E-05 8.16533E-05 0.00000E+00
 -1       777-1.70468E-05 8.35794E-05 0.00000E+00
 -1       778-1.81364E-05 8.23758E-05 0.00000E+00
 -1       779-1.81762E-05 7.83600E-05 5.29396E-23
 -1       780-1.72965E-05 7.18610E-05-2.64698E-23
 -1       781-1.56266E-05 6.32144E-05 0.00000E+00
 -1       782-1.32976E-05 5.27651E-05 2.64698E-23
 -1       783-1.04393E-05 4.08620E-05 0.00000E+00
 -1       784-7.18318E-06 2.78608E-05-2.64698E-23
 -1       785-3.65938E-06 1.41198E-05 5.29396E-23
 -1       786 1.93735E-04 3.23603E-05 0.00000E+00
 -1       787 1.93776E-04 3.01565E-05 0.00000E+00
 -1       788 1.93817E-04 2.79952E-05 0.00000E+00
 -1       789 1.93859E-04 2.58680E-05-4.13590E-25
 -1       790 1.93901E-04 2.37701E-05 0.00000E+00
 -1       791 1.93943E-04 2.16967E-05 0.00000E+00
 -1       792 1.93985E-04 1.96456E-05-1.65436E-24
 -1       793 1.94027E-04 1.76146E-05-8.27181E-25
 -1       794 1.94069E-04 1.56033E-05-1.65436E-24
 -1       795 1.94111E-04 1.36115E-05-8.27181E-25
 -1       796 1.94154E-04 1.16411E-05 0.00000E+00
 -1       797 1.94196E-04 9.69380E-06-8.27181E-25
 -1       798 1.94238E-04 7.77379E-06-1.65436E-24
 -1       799 1.94281E-04 5.88528E-06 8.27181E-25
 -1       800 1.94324E-04 4.03558E-06 0.00000E+00
 -1       801 1.47930E-04 3.11181E-05 2.64698E-23
 -1       802 9.54290E-06 1.94138E-05 0.00000E+00
 -1       803-1.08678E-04 9.80500E-06 0.00000E+00
 -1       804-9.63627E-05 6.82429E-06 2.64698E-23
 -1       805-3.18418E-05 2.68255E-06 0.00000E+00
 -1       806 1.94426E-04 3.22903E-05-1.65436E-24
 -1       807 1.95141E-04 2.99920E-05 0.00000E+00
 -1       808 1.95843E-04 2.77251E-05-3.30872E-24
 -1       809 1.96531E-04 2.54938E-05 0.00000E+00
 -1       810 1.97204E-04 2.33023E-05-3.30872E-24
 -1       811 1.97861E-04 2.11548E-05 0.00000E+00
 -1       812 1.98500E-04 1.90552E-05 0.00000E+00
 -1       813 1.99120E-04 1.70076E-05 0.00000E+00
 -1       814 1.99719E-04 1.50162E-05 3.30872E-24
 -1       815 2.00295E-04 1.30849E-05 0.00000E+00
 -1       816 2.00848E-04 1.12177E-05 0.00000E+00
 -1       817 2.01375E-04 9.41878E-06-1.65436E-24
 -1       818 2.01875E-04 7.69206E-06 1.65436E-24
 -1       819 2.02347E-04 6.04158E-06 8.27181E-25
 -1       820 2.02789E-04 4.47130E-06 0.00000E+00
 -1       821 1.94237E-04-1.72938E-07-1.65436E-24
 -1       822 1.94096E-04-3.82189E-06 0.00000E+00
 -1       823 1.93952E-04-8.25987E-06 3.30872E-24
 -1       824 1.93806E-04-1.30271E-05 1.65436E-24
 -1       825 1.93660E-04-1.75745E-05 0.00000E+00
 -1       826 1.93517E-04-2.13542E-05 0.00000E+00
 -1       827 1.93377E-04-2.40281E-05 0.00000E+00
 -1       828 1.93240E-04-2.52650E-05 1.65436E-24
 -1       829 1.93104E-04-2.51262E-05 0.00000E+00
 -1       830 1.92967E-04-2.36812E-05-1.65436E-24
 -1       831 1.92828E-04-2.13563E-05 0.00000E+00
 -1       832 1.92689E-04-1.85833E-05 0.00000E+00
 -1       833 1.92550E-04-1.59165E-05 0.00000E+00
 -1       834 1.92414E-04-1.39095E-05 0.00000E+00
 -1       835 1.92279E-04-1.29361E-05 0.00000E+00
 -1       836 1.96055E-04 2.35703E-06 0.00000E+00
 -1       837 1.97616E-04 2.48505E-06 1.65436E-24
 -1       838 1.99080E-04 2.61301E-06 0.00000E+00
 -1       839 2.00478E-04 2.74026E-06 0.00000E+00
 -1       840 2.01841E-04 2.86736E-06 0.00000E+00
 -1       856 1.92136E-04-1.44221E-05-8.27181E-25
 -1       857 1.92117E-04-1.53447E-05 0.00000E+00
 -1       858 1.92098E-04-1.61527E-05 2.06795E-25
 -1       859 1.92078E-04-1.68674E-05 0.00000E+00
 -1       860 1.92058E-04-1.75100E-05 4.13590E-25
 -1       861 1.92039E-04-1.81018E-05 2.06795E-25
 -1       862 1.92019E-04-1.86639E-05 0.00000E+00
 -1       863 1.91999E-04-1.92178E-05 2.06795E-25
 -1       864 1.91980E-04-1.97847E-05 0.00000E+00
 -1       865 1.91960E-04-2.03860E-05 0.00000E+00
 -1       866 1.91940E-04-2.10430E-05-8.27181E-25
 -1       867 1.91920E-04-2.17768E-05 0.00000E+00
 -1       868 1.91900E-04-2.26088E-05 0.00000E+00
 -1       869 1.91880E-04-2.35599E-05 0.00000E+00
 -1       870 1.91860E-04-2.46513E-05 0.00000E+00
 -1       871 1.93498E-04-1.33688E-05 0.00000E+00
 -1       872 1.94992E-04-1.33770E-05 0.00000E+00
 -1       873 1.96565E-04-1.33859E-05 0.00000E+00
 -1       874 1.98150E-04-1.33956E-05-1.29247E-25
 -1       875 1.99679E-04-1.34058E-05 1.24077E-24
 -1       876 1.92676E-04-1.44076E-05 3.30872E-24
 -1       877 1.93178E-04-1.53844E-05-1.65436E-24
 -1       878 1.93658E-04-1.63027E-05 3.30872E-24
 -1       879 1.94119E-04-1.71696E-05-1.65436E-24
 -1       880 1.94564E-04-1.79926E-05 0.00000E+00
 -1       881 1.94996E-04-1.87790E-05 1.65436E-24
 -1       882 1.95416E-04-1.95362E-05 3.30872E-24
 -1       883 1.95828E-04-2.02715E-05 1.65436E-24
 -1       884 1.96235E-04-2.09922E-05-3.30872E-24
 -1       885 1.96639E-04-2.17057E-05 1.65436E-24
 -1       886 1.97043E-04-2.24192E-05 3.30872E-24
 -1       887 1.97450E-04-2.31400E-05 1.65436E-24
 -1       888 1.97862E-04-2.38756E-05 3.30872E-24
 -1       889 1.98281E-04-2.46334E-05-1.65436E-24
 -1       890 1.98711E-04-2.54206E-05 0.00000E+00
 -1       891 1.93199E-04-2.59615E-05 0.00000E+00
 -1       892 1.94536E-04-2.60192E-05 0.00000E+00
 -1       893 1.95825E-04-2.60768E-05 1.65436E-24
 -1       894 1.97040E-04-2.61342E-05 4.13590E-25
 -1       895 1.98156E-04-2.61913E-05 0.00000E+00
 -1       956 2.03071E-04 1.67443E-06 0.00000E+00
 -1       957 2.02939E-04 4.53940E-07-8.27181E-25
 -1       958 2.02806E-04-6.86959E-07 0.00000E+00
 -1       959 2.02673E-04-1.75950E-06 0.00000E+00
 -1       960 2.02540E-04-2.77498E-06 0.00000E+00
 -1       961 2.02407E-04-3.74470E-06 1.65436E-24
 -1       962 2.02274E-04-4.68000E-06 0.00000E+00
 -1       963 2.02142E-04-5.59223E-06 1.65436E-24
 -1       964 2.02009E-04-6.49272E-06-3.30872E-24
 -1       965 2.01876E-04-7.39281E-06-1.65436E-24
 -1       966 2.01743E-04-8.30387E-06 3.30872E-24
 -1       967 2.01610E-04-9.23723E-06 0.00000E+00
 -1       968 2.01477E-04-1.02042E-05-6.61744E-24
 -1       969 2.01345E-04-1.12161E-05 0.00000E+00
 -1       970 2.01212E-04-1.22843E-05 3.30872E-24
 -1       971 2.00962E-04-1.45537E-05-3.30872E-24
 -1       972 2.00841E-04-1.55932E-05 0.00000E+00
 -1       973 2.00719E-04-1.65484E-05 0.00000E+00
 -1       974 2.00598E-04-1.74300E-05 1.65436E-24
 -1       975 2.00476E-04-1.82490E-05 0.00000E+00
 -1       976 2.00355E-04-1.90163E-05-1.65436E-24
 -1       977 2.00233E-04-1.97428E-05 3.30872E-24
 -1       978 2.00112E-04-2.04394E-05 0.00000E+00
 -1       979 1.99990E-04-2.11170E-05 3.30872E-24
 -1       980 1.99869E-04-2.17866E-05 0.00000E+00
 -1       981 1.99748E-04-2.24590E-05 0.00000E+00
 -1       982 1.99626E-04-2.31453E-05 1.65436E-24
 -1       983 1.99505E-04-2.38563E-05 0.00000E+00
 -1       984 1.99385E-04-2.46029E-05 1.65436E-24
 -1       985 1.99264E-04-2.53961E-05-3.30872E-24
 -3
    1PSTEP                        38          19           1          
  100CL  119 6.63172E-01         409                     0   19           1
 -4  FORC        4    1
 -5  F1          1    2    1    0
 -5  F2          1    2    2    0
 -5  F3          1    2    3    0
 -5  ALL         1    2    0    0    1ALL
 -1         1 2.44766E-04 0.00000E+00 0.00000E+00
 -1         2 0.00000E+00 0.00000E+00 0.00000E+00
 -1         3 0.00000E+00 0.00000E+00 0.00000E+00
 -1         5 0.00000E+00 0.00000E+00 0.00000E+00
 -1         8 1.39632E-05-1.20632E-05 0.00000E+00
 -1         9-6.71199E-04 4.16164E-05 0.00000E+00
 -1        10-2.09177E-09 1.24028E-08 0.00000E+00
 -1        12 0.00000E+00 0.00000E+00 0.00000E+00
 -1        15 0.00000E+00 0.00000E+00 0.00000E+00
 -1        16-9.61507E-05-9.53515E-04 0.00000E+00
 -1        17-1.45430E-05 8.13502E-06 0.00000E+00
 -1        18 1.35796E-07 1.12147E-07 0.00000E+00
 -1        19 3.85548E-08-8.79820E-09 0.00000E+00
 -1        20-6.38068E-08 7.08528E-09 0.00000E+00
 -1        21 0.00000E+00 2.53850E-08 0.00000E+00
 -1        24-3.93796E-05 1.26662E-05 0.00000E+00
 -1        25 7.37584E-08-7.00095E-08 0.00000E+00
 -1        26-4.12545E-08-2.94600E-08 0.00000E+00
 -1        27-2.11959E-08 4.05105E-08 0.00000E+00
 -1        28-1.97909E-08 1.20760E-08 0.00000E+00
 -1        32 0.00000E+00 0.00000E+00 0.00000E+00
 -1        33-1.96229E-09-5.15542E-08 0.00000E+00
 -1        34-1.51185E-08-5.35644E-08 0.00000E+00
 -1        35-8.98145E-08-5.77406E-08 0.00000E+00
 -1        51 0.00000E+00 0.00000E+00 0.00000E+00
 -1        52 0.00000E+00 0.00000E+00 0.00000E+00
 -1        53 0.00000E+00 0.00000E+00 0.00000E+00
 -1        54 0.00000E+00 0.00000E+00 0.00000E+00
 -1        55 0.00000E+00 0.00000E+00 0.00000E+00
 -1        56 0.00000E+00 0.00000E+00 0.00000E+00
 -1        57 0.00000E+00 0.00000E+00 0.00000E+00
 -1        58 0.00000E+00 0.00000E+00 0.00000E+00
 -1        59 0.00000E+00 0.00000E+00 0.00000E+00
 -1        60 0.00000E+00 0.00000E+00 0.00000E+00
 -1        61 0.00000E+00 0.00000E+00 0.00000E+00
 -1        62 0.00000E+00 0.00000E+00 0.00000E+00
 -1        63 0.00000E+00 0.00000E+00 0.00000E+00
 -1        64 0.00000E+00 0.00000E+00 0.00000E+00
 -1        65 0.00000E+00 0.00000E+00 0.00000E+00
 -1        66 0.00000E+00 0.00000E+00 0.00000E+00
 -1        67 0.00000E+00 0.00000E+00 0.00000E+00
 -1        68 0.00000E+00 0.00000E+00 0.00000E+00
 -1        69 0.00000E+00 0.00000E+00 0.00000E+00
 -1        70 0.00000E+00 0.00000E+00 0.00000E+00
 -1        86 0.00000E+00 0.00000E+00 0.00000E+00
 -1        87 0.00000E+00 0.00000E+00 0.00000E+00
 -1        88 0.00000E+00 0.00000E+00 0.00000E+00
 -1        89 0.00000E+00 0.00000E+00 0.00000E+00
 -1        90 0.00000E+00 0.00000E+00 0.00000E+00
 -1       121 0.00000E+00 0.00000E+00 0.00000E+00
 -1       122 0.00000E+00 0.00000E+00 0.00000E+00
 -1       123 0.00000E+00 0.00000E+00 0.00000E+00
 -1       124 0.00000E+00 0.00000E+00 0.00000E+00
 -1       125 0.00000E+00 0.00000E+00 0.00000E+00
 -1       191 0.00000E+00 0.00000E+00 0.00000E+00
 -1       192 0.00000E+00 0.00000E+00 0.00000E+00
 -1       193 0.00000E+00 0.00000E+00 0.00000E+00
 -1       194 0.00000E+00 0.00000E+00 0.00000E+00
 -1       195 0.00000E+00 0.00000E+00 0.00000E+00
 -1       251 0.00000E+00 0.00000E+00 0.00000E+00
 -1       252 0.00000E+00 0.00000E+00 0.00000E+00
 -1       253 0.00000E+00 0.00000E+00 0.00000E+00
 -1       254 0.00000E+00 0.00000E+00 0.00000E+00
 -1       255 0.00000E+00 0.00000E+00 0.00000E+00
 -1       256 0.00000E+00 0.00000E+00 0.00000E+00
 -1       257 0.00000E+00 0.00000E+00 0.00000E+00
 -1       258 0.00000E+00 0.00000E+00 0.00000E+00
 -1       259 0.00000E+00 0.00000E+00 0.00000E+00
 -1       260 0.00000E+00 0.00000E+00 0.00000E+00
 -1       261 0.00000E+00 0.00000E+00 0.00000E+00
 -1       262 0.00000E+00 0.00000E+00 0.00000E+00
 -1       263 0.00000E+00 0.00000E+00 0.00000E+00
 -1       264 0.00000E+00 0.00000E+00 0.00000E+00
 -1       265 0.00000E+00 0.00000E+00 0.00000E+00
 -1       266 0.00000E+00 0.00000E+00 0.00000E+00
 -1       267 0.00000E+00 0.00000E+00 0.00000E+00
 -1       268 0.00000E+00 0.00000E+00 0.00000E+00
 -1       269 0.00000E+00 0.00000E+00 0.00000E+00
 -1       270 0.00000E+00 0.00000E+00 0.00000E+00
 -1       271 0.00000E+00 0.00000E+00 0.00000E+00
 -1       272 0.00000E+00 0.00000E+00 0.00000E+00
 -1       273 0.00000E+00 0.00000E+00 0.00000E+00
 -1       274 0.00000E+00 0.00000E+00 0.00000E+00
 -1       275 0.00000E+00 0.00000E+00 0.00000E+00
 -1       276 0.00000E+00 0.00000E+00 0.00000E+00
 -1       277 0.00000E+00 0.00000E+00 0.00000E+00
 -1       278 0.00000E+00 0.00000E+00 0.00000E+00
 -1       279 0.00000E+00 0.00000E+00 0.00000E+00
 -1       280 0.00000E+00 0.00000E+00 0.00000E+00
 -1       281 0.00000E+00 0.00000E+00 0.00000E+00
 -1       282 0.00000E+00 0.00000E+00 0.00000E+00
 -1       283 0.00000E+00 0.00000E+00 0.00000E+00
 -1       284 0.00000E+00 0.00000E+00 0.00000E+00
 -1       285 0.00000E+00 0.00000E+00 0.00000E+00
 -1       301 0.00000E+00 0.00000E+00 0.00000E+00
 -1       302 0.00000E+00 0.00000E+00 0.00000E+00
 -1       303 0.00000E+00 0.00000E+00 0.00000E+00
 -1       304 0.00000E+00 0.00000E+00 0.00000E+00
 -1       305 0.00000E+00 0.00000E+00 0.00000E+00
 -1       306 0.00000E+00 0.00000E+00 0.00000E+00
 -1       307 0.00000E+00 0.00000E+00 0.00000E+00
 -1       308 0.00000E+00 0.00000E+00 0.00000E+00
 -1       309 0.00000E+00 0.00000E+00 0.00000E+00
 -1       310 0.00000E+00 0.00000E+00 0.00000E+00
 -1       311 0.00000E+00 0.00000E+00 0.00000E+00
 -1       312 0.00000E+00 0.00000E+00 0.00000E+00
 -1       313 0.00000E+00 0.00000E+00 0.00000E+00
 -1       314 0.00000E+00 0.00000E+00 0.00000E+00
 -1       315 0.00000E+00 0.00000E+00 0.00000E+00
 -1       316 0.00000E+00 0.00000E+00 0.00000E+00
 -1       317 0.00000E+00 0.00000E+00 0.00000E+00
 -1       318 0.00000E+00 0.00000E+00 0.00000E+00
 -1       319 0.00000E+00 0.00000E+00 0.00000E+00
 -1       320 0.00000E+00 0.00000E+00 0.00000E+00
 -1       336 0.00000E+00 0.00000E+00 0.00000E+00
 -1       337 0.00000E+00 0.00000E+00 0.00000E+00
 -1       338 0.00000E+00 0.00000E+00 0.00000E+00
 -1       339 0.00000E+00 0.00000E+00 0.00000E+00
 -1       340 0.00000E+00 0.00000E+00 0.00000E+00
 -1       406 0.00000E+00 0.00000E+00 0.00000E+00
 -1       407 0.00000E+00 0.00000E+00 0.00000E+00
 -1       408 0.00000E+00 0.00000E+00 0.00000E+00
 -1       409 0.00000E+00 0.00000E+00 0.00000E+00
 -1       410 0.00000E+00 0.00000E+00 0.00000E+00
 -1       521 0.00000E+00 0.00000E+00 0.00000E+00
 -1       522 0.00000E+00 0.00000E+00 0.00000E+00
 -1       523 0.00000E+00 0.00000E+00 0.00000E+00
 -1       524 0.00000E+00 0.00000E+00 0.00000E+00
 -1       525 0.00000E+00 0.00000E+00 0.00000E+00
 -1       526 0.00000E+00 0.00000E+00 0.00000E+00
 -1       527 0.00000E+00 0.00000E+00 0.00000E+00
 -1       528 0.00000E+00 0.00000E+00 0.00000E+00
 -1       529 0.00000E+00 0.00000E+00 0.00000E+00
 -1       530 0.00000E+00 0.00000E+00 0.00000E+00
 -1       531 0.00000E+00 0.00000E+00 0.00000E+00
 -1       532 0.00000E+00 0.00000E+00 0.00000E+00
 -1       533 0.00000E+00 0.00000E+00 0.00000E+00
 -1       534 0.00000E+00 0.00000E+00 0.00000E+00
 -1       535 0.00000E+00 0.00000E+00 0.00000E+00
 -1       536 0.00000E+00 0.00000E+00 0.00000E+00
 -1       537 0.00000E+00 0.00000E+00 0.00000E+00
 -1       538 0.00000E+00 0.00000E+00 0.00000E+00
 -1       539 0.00000E+00 0.00000E+00 0.00000E+00
 -1       540 0.00000E+00 0.00000E+00 0.00000E+00
 -1       541 0.00000E+00 0.00000E+00 0.00000E+00
 -1       542 0.00000E+00 0.00000E+00 0.00000E+00
 -1       543 0.00000E+00 0.00000E+00 0.00000E+00
 -1       544 0.00000E+00 0.00000E+00 0.00000E+00
 -1       545 0.00000E+00 0.00000E+00 0.00000E+00
 -1       546 0.00000E+00 0.00000E+00 0.00000E+00
 -1       547 0.00000E+00 0.00000E+00 0.00000E+00
 -1       548 0.00000E+00 0.00000E+00 0.00000E+00
 -1       549 0.00000E+00 0.00000E+00 0.00000E+00
 -1       550 0.00000E+00 0.00000E+00 0.00000E+00
 -1       551 0.00000E+00 0.00000E+00 0.00000E+00
 -1       552 0.00000E+00 0.00000E+00 0.00000E+00
 -1       553 0.00000E+00 0.00000E+00 0.00000E+00
 -1       554 0.00000E+00 0.00000E+00 0.00000E+00
 -1       555 0.00000E+00 0.00000E+00 0.00000E+00
 -1       556 0.00000E+00 0.00000E+00 0.00000E+00
 -1       557 0.00000E+00 0.00000E+00 0.00000E+00
 -1       558 0.00000E+00 0.00000E+00 0.00000E+00
 -1       559 0.00000E+00 0.00000E+00 0.00000E+00
 -1       560 0.00000E+00 0.00000E+00 0.00000E+00
 -1       561 0.00000E+00 0.00000E+00 0.00000E+00
 -1       562 0.00000E+00 0.00000E+00 0.00000E+00
 -1       563 0.00000E+00 0.00000E+00 0.00000E+00
 -1       564 0.00000E+00 0.00000E+00 0.00000E+00
 -1       565 0.00000E+00 0.00000E+00 0.00000E+00
 -1       566 0.00000E+00 0.00000E+00 0.00000E+00
 -1       567 0.00000E+00 0.00000E+00 0.00000E+00
 -1       568 0.00000E+00 0.00000E+00 0.00000E+00
 -1       569 0.00000E+00 0.00000E+00 0.00000E+00
 -1       570 0.00000E+00 0.00000E+00 0.00000E+00
 -1       571 0.00000E+00 0.00000E+00 0.00000E+00
 -1       572 0.00000E+00 0.00000E+00 0.00000E+00
 -1       573 0.00000E+00 0.00000E+00 0.00000E+00
 -1       574 0.00000E+00 0.00000E+00 0.00000E+00
 -1       575 0.00000E+00 0.00000E+00 0.00000E+00
 -1       576 0.00000E+00 0.00000E+00 0.00000E+00
 -1       577 0.00000E+00 0.00000E+00 0.00000E+00
 -1       578 0.00000E+00 0.00000E+00 0.00000E+00
 -1       579 0.00000E+00 0.00000E+00 0.00000E+00
 -1       580 0.00000E+00 0.00000E+00 0.00000E+00
 -1       581 0.00000E+00 0.00000E+00 0.00000E+00
 -1       582 0.00000E+00 0.00000E+00 0.00000E+00
 -1       583 0.00000E+00 0.00000E+00 0.00000E+00
 -1       584 0.00000E+00 0.00000E+00 0.00000E+00
 -1       585 0.00000E+00 0.00000E+00 0.00000E+00
 -1       586 0.00000E+00 0.00000E+00 0.00000E+00
 -1       587 0.00000E+00 0.00000E+00 0.00000E+00
 -1       588 0.00000E+00 0.00000E+00 0.00000E+00
 -1       589 0.00000E+00 0.00000E+00 0.00000E+00
 -1       590 0.00000E+00 0.00000E+00 0.00000E+00
 -1       591 0.00000E+00 0.00000E+00 0.00000E+00
 -1       592 0.00000E+00 0.00000E+00 0.00000E+00
 -1       593 0.00000E+00 0.00000E+00 0.00000E+00
 -1       594 0.00000E+00 0.00000E+00 0.00000E+00
 -1       595 0.00000E+00 0.00000E+00 0.00000E+00
 -1       596 0.00000E+00 0.00000E+00 0.00000E+00
 -1       597 0.00000E+00 0.00000E+00 0.00000E+00
 -1       598 0.00000E+00 0.00000E+00 0.00000E+00
 -1       599 0.00000E+00 0.00000E+00 0.00000E+00
 -1       600 0.00000E+00 0.00000E+00 0.00000E+00
 -1       601 0.00000E+00 0.00000E+00 0.00000E+00
 -1       602 0.00000E+00 0.00000E+00 0.00000E+00
 -1       603 0.00000E+00 0.00000E+00 0.00000E+00
 -1       604 0.00000E+00 0.00000E+00 0.00000E+00
 -1       605 0.00000E+00 0.00000E+00 0.00000E+00
 -1       606 0.00000E+00 0.00000E+00 0.00000E+00
 -1       607 0.00000E+00 0.00000E+00 0.00000E+00
 -1       608 0.00000E+00 0.00000E+00 0.00000E+00
 -1       609 0.00000E+00 0.00000E+00 0.00000E+00
 -1       610 0.00000E+00 0.00000E+00 0.00000E+00
 -1       611 0.00000E+00 0.00000E+00 0.00000E+00
 -1       612 0.00000E+00 0.00000E+00 0.00000E+00
 -1       613 0.00000E+00 0.00000E+00 0.00000E+00
 -1       614 0.00000E+00 0.00000E+00 0.00000E+00
 -1       615 0.00000E+00 0.00000E+00 0.00000E+00
 -1       616 0.00000E+00 0.00000E+00 0.00000E+00
 -1       617 0.00000E+00 0.00000E+00 0.00000E+00
 -1       618 0.00000E+00 0.00000E+00 0.00000E+00
 -1       619 0.00000E+00 0.00000E+00 0.00000E+00
 -1       620 0.00000E+00 0.00000E+00 0.00000E+00
 -1       621 0.00000E+00 0.00000E+00 0.00000E+00
 -1       622 0.00000E+00 0.00000E+00 0.00000E+00
 -1       623 0.00000E+00 0.00000E+00 0.00000E+00
 -1       624 0.00000E+00 0.00000E+00 0.00000E+00
 -1       625 0.00000E+00 0.00000E+00 0.00000E+00
 -1       626 0.00000E+00 0.00000E+00 0.00000E+00
 -1       627 0.00000E+00 0.00000E+00 0.00000E+00
 -1       628 0.00000E+00 0.00000E+00 0.00000E+00
 -1       629 0.00000E+00 0.00000E+00 0.00000E+00
 -1       630 0.00000E+00 0.00000E+00 0.00000E+00
 -1       631 0.00000E+00 0.00000E+00 0.00000E+00
 -1       632 0.00000E+00 0.00000E+00 0.00000E+00
 -1       633 0.00000E+00 0.00000E+00 0.00000E+00
 -1       634 0.00000E+00 0.00000E+00 0.00000E+00
 -1       635 0.00000E+00 0.00000E+00 0.00000E+00
 -1       636 0.00000E+00 0.00000E+00 0.00000E+00
 -1       637 0.00000E+00 0.00000E+00 0.00000E+00
 -1       638 0.00000E+00 0.00000E+00 0.00000E+00
 -1       639 0.00000E+00 0.00000E+00 0.00000E+00
 -1       640 0.00000E+00 0.00000E+00 0.00000E+00
 -1       656 0.00000E+00 0.00000E+00 0.00000E+00
 -1       657 0.00000E+00 0.00000E+00 0.00000E+00
 -1       658 0.00000E+00 0.00000E+00 0.00000E+00
 -1       659 0.00000E+00 0.00000E+00 0.00000E+00
 -1       660 0.00000E+00 0.00000E+00 0.00000E+00
 -1       661 0.00000E+00 0.00000E+00 0.00000E+00
 -1       662 0.00000E+00 0.00000E+00 0.00000E+00
 -1       663 0.00000E+00 0.00000E+00 0.00000E+00
 -1       664 0.00000E+00 0.00000E+00 0.00000E+00
 -1       665 0.00000E+00 0.00000E+00 0.00000E+00
 -1       666 0.00000E+00 0.00000E+00 0.00000E+00
 -1       667 0.00000E+00 0.00000E+00 0.00000E+00
 -1       668 0.00000E+00 0.00000E+00 0.00000E+00
 -1       669 0.00000E+00 0.00000E+00 0.00000E+00
 -1       670 0.00000E+00 0.00000E+00 0.00000E+00
 -1       671 0.00000E+00 0.00000E+00 0.00000E+00
 -1       672 0.00000E+00 0.00000E+00 0.00000E+00
 -1       673 0.00000E+00 0.00000E+00 0.00000E+00
 -1       674 0.00000E+00 0.00000E+00 0.00000E+00
 -1       675 0.00000E+00 0.00000E+00 0.00000E+00
 -1       676 0.00000E+00 0.00000E+00 0.00000E+00
 -1       677 0.00000E+00 0.00000E+00 0.00000E+00
 -1       678 0.00000E+00 0.00000E+00 0.00000E+00
 -1       679 0.00000E+00 0.00000E+00 0.00000E+00
 -1       680 0.00000E+00 0.00000E+00 0.00000E+00
 -1       771 0.00000E+00 0.00000E+00 0.00000E+00
 -1       772 0.00000E+00 0.00000E+00 0.00000E+00
 -1       773 0.00000E+00 0.00000E+00 0.00000E+00
 -1       774 0.00000E+00 0.00000E+00 0.00000E+00
 -1       775 0.00000E+00 0.00000E+00 0.00000E+00
 -1       776 0.00000E+00 0.00000E+00 0.00000E+00
 -1       777 0.00000E+00 0.00000E+00 0.00000E+00
 -1       778 0.00000E+00 0.00000E+00 0.00000E+00
 -1       779 0.00000E+00 0.00000E+00 0.00000E+00
 -1       780 0.00000E+00 0.00000E+00 0.00000E+00
 -1       781 0.00000E+00 0.00000E+00 0.00000E+00
 -1       782 0.00000E+00 0.00000E+00 0.00000E+00
 -1       783 0.00000E+00 0.00000E+00 0.00000E+00
 -1       784 0.00000E+00 0.00000E+00 0.00000E+00
 -1       785 0.00000E+00 0.00000E+00 0.00000E+00
 -1       786 0.00000E+00 0.00000E+00 0.00000E+00
 -1       787 0.00000E+00 0.00000E+00 0.00000E+00
 -1       788 0.00000E+00 0.00000E+00 0.00000E+00
 -1       789 0.00000E+00 0.00000E+00 0.00000E+00
 -1       790 0.00000E+00 0.00000E+00 0.00000E+00
 -1       791 0.00000E+00 0.00000E+00 0.00000E+00
 -1       792 0.00000E+00 0.00000E+00 0.00000E+00
 -1       793 0.00000E+00 0.00000E+00 0.00000E+00
 -1       794 0.00000E+00 0.00000E+00 0.00000E+00
 -1       795 0.00000E+00 0.00000E+00 0.00000E+00
 -1       796 0.00000E+00 0.00000E+00 0.00000E+00
 -1       797 0.00000E+00 0.00000E+00 0.00000E+00
 -1       798 0.00000E+00 0.00000E+00 0.00000E+00
 -1       799 0.00000E+00 0.00000E+00 0.00000E+00
 -1       800 0.00000E+00 0.00000E+00 0.00000E+00
 -1       801 0.00000E+00 0.00000E+00 0.00000E+00
 -1       802 0.00000E+00 0.00000E+00 0.00000E+00
 -1       803 0.00000E+00 0.00000E+00 0.00000E+00
 -1       804 0.00000E+00 0.00000E+00 0.00000E+00
 -1       805 0.00000E+00 0.00000E+00 0.00000E+00
 -1       806 0.00000E+00 0.00000E+00 0.00000E+00
 -1       807 0.00000E+00 0.00000E+00 0.00000E+00
 -1       808 0.00000E+00 0.00000E+00 0.00000E+00
 -1       809 0.00000E+00 0.00000E+00 0.00000E+00
 -1       810 0.00000E+00 0.00000E+00 0.00000E+00
 -1       811 0.00000E+00 0.00000E+00 0.00000E+00
 -1       812 0.00000E+00 0.00000E+00 0.00000E+00
 -1       813 0.00000E+00 0.00000E+00 0.00000E+00
 -1       814 0.00000E+00 0.00000E+00 0.00000E+00
 -1       815 0.00000E+00 0.00000E+00 0.00000E+00
 -1       816 0.00000E+00 0.00000E+00 0.00000E+00
 -1       817 0.00000E+00 0.00000E+00 0.00000E+00
 -1       818 0.00000E+00 0.00000E+00 0.00000E+00
 -1       819 0.00000E+00 0.00000E+00 0.00000E+00
 -1       820 0.00000E+00 0.00000E+00 0.00000E+00
 -1       821 0.00000E+00 0.00000E+00 0.00000E+00
 -1       822 0.00000E+00 0.00000E+00 0.00000E+00
 -1       823 0.00000E+00 0.00000E+00 0.00000E+00
 -1       824 0.00000E+00 0.00000E+00 0.00000E+00
 -1       825 0.00000E+00 0.00000E+00 0.00000E+00
 -1       826 0.00000E+00 0.00000E+00 0.00000E+00
 -1       827 0.00000E+00 0.00000E+00 0.00000E+00
 -1       828 0.00000E+00 0.00000E+00 0.00000E+00
 -1       829 0.00000E+00 0.00000E+00 0.00000E+00
 -1       830 0.00000E+00 0.00000E+00 0.00000E+00
 -1       831 0.00000E+00 0.00000E+00 0.00000E+00
 -1       832 0.00000E+00 0.00000E+00 0.00000E+00
 -1       833 0.00000E+00 0.00000E+00 0.00000E+00
 -1       834 0.00000E+00 0.00000E+00 0.00000E+00
 -1       835 0.00000E+00 0.00000E+00 0.00000E+00
 -1       836 0.00000E+00 0.00000E+00 0.00000E+00
 -1       837 0.00000E+00 0.00000E+00 0.00000E+00
 -1       838 0.00000E+00 0.00000E+00 0.00000E+00
 -1       839 0.00000E+00 0.00000E+00 0.00000E+00
 -1       840 0.00000E+00 0.00000E+00 0.00000E+00
 -1       856 0.00000E+00 0.00000E+00 0.00000E+00
 -1       857 0.00000E+00 0.00000E+00 0.00000E+00
 -1       858 0.00000E+00 0.00000E+00 0.00000E+00
 -1       859 0.00000E+00 0.00000E+00 0.00000E+00
 -1       860 0.00000E+00 0.00000E+00 0.00000E+00
 -1       861 0.00000E+00 0.00000E+00 0.00000E+00
 -1       862 0.00000E+00 0.00000E+00 0.00000E+00
 -1       863 0.00000E+00 0.00000E+00 0.00000E+00
 -1       864 0.00000E+00 0.00000E+00 0.00000E+00
 -1       865 0.00000E+00 0.00000E+00 0.00000E+00
 -1       866 0.00000E+00 0.00000E+00 0.00000E+00
 -1       867 0.00000E+00 0.00000E+00 0.00000E+00
 -1       868 0.00000E+00 0.00000E+00 0.00000E+00
 -1       869 0.00000E+00 0.00000E+00 0.00000E+00
 -1       870 0.00000E+00 0.00000E+00 0.00000E+00
 -1       871 0.00000E+00 0.00000E+00 0.00000E+00
 -1       872 0.00000E+00 0.00000E+00 0.00000E+00
 -1       873 0.00000E+00 0.00000E+00 0.00000E+00
 -1       874 0.00000E+00 0.00000E+00 0.00000E+00
 -1       875 0.00000E+00 0.00000E+00 0.00000E+00
 -1       876 0.00000E+00 0.00000E+00 0.00000E+00
 -1       877 0.00000E+00 0.00000E+00 0.00000E+00
 -1       878 0.00000E+00 0.00000E+00 0.00000E+00
 -1       879 0.00000E+00 0.00000E+00 0.00000E+00
 -1       880 0.00000E+00 0.00000E+00 0.00000E+00
 -1       881 0.00000E+00 0.00000E+00 0.00000E+00
 -1       882 0.00000E+00 0.00000E+00 0.00000E+00
 -1       883 0.00000E+00 0.00000E+00 0.00000E+00
 -1       884 0.00000E+00 0.00000E+00 0.00000E+00
 -1       885 0.00000E+00 0.00000E+00 0.00000E+00
 -1       886 0.00000E+00 0.00000E+00 0.00000E+00
 -1       887 0.00000E+00 0.00000E+00 0.00000E+00
 -1       888 0.00000E+00 0.00000E+00 0.00000E+00
 -1       889 0.00000E+00 0.00000E+00 0.00000E+00
 -1       890 0.00000E+00 0.00000E+00 0.00000E+00
 -1       891 0.00000E+00 0.00000E+00 0.00000E+00
 -1       892 0.00000E+00 0.00000E+00 0.00000E+00
 -1       893 0.00000E+00 0.00000E+00 0.00000E+00
 -1       894 0.00000E+00 0.00000E+00 0.00000E+00
 -1       895 0.00000E+00 0.00000E+00 0.00000E+00
 -1       956 0.00000E+00 0.00000E+00 0.00000E+00
 -1       957 0.00000E+00 0.00000E+00 0.00000E+00
 -1       958 0.00000E+00 0.00000E+00 0.00000E+00
 -1       959 0.00000E+00 0.00000E+00 0.00000E+00
 -1       960 0.00000E+00 0.00000E+00 0.00000E+00
 -1       961 0.00000E+00 0.00000E+00 0.00000E+00
 -1       962 0.00000E+00 0.00000E+00 0.00000E+00
 -1       963 0.00000E+00 0.00000E+00 0.00000E+00
 -1       964 0.00000E+00 0.00000E+00 0.00000E+00
 -1       965 0.00000E+00 0.00000E+00 0.00000E+00
 -1       966 0.00000E+00 0.00000E+00 0.00000E+00
 -1       967 0.00000E+00 0.00000E+00 0.00000E+00
 -1       968 0.00000E+00 0.00000E+00 0.00000E+00
 -1       969 0.00000E+00 0.00000E+00 0.00000E+00
 -1       970 0.00000E+00 0.00000E+00 0.00000E+00
 -1       971 0.00000E+00 0.00000E+00 0.00000E+00
 -1       972 0.00000E+00 0.00000E+00 0.00000E+00
 -1       973 0.00000E+00 0.00000E+00 0.00000E+00
 -1       974 0.00000E+00 0.00000E+00 0.00000E+00
 -1       975 0.00000E+00 0.00000E+00 0.00000E+00
 -1       976 0.00000E+00 0.00000E+00 0.00000E+00
 -1       977 0.00000E+00 0.00000E+00 0.00000E+00
 -1       978 0.00000E+00 0.00000E+00 0.00000E+00
 -1       979 0.00000E+00 0.00000E+00 0.00000E+00
 -1       980 0.00000E+00 0.00000E+00 0.00000E+00
 -1       981 0.00000E+00 0.00000E+00 0.00000E+00
 -1       982 0.00000E+00 0.00000E+00 0.00000E+00
 -1       983 0.00000E+00 0.00000E+00 0.00000E+00
 -1       984 0.00000E+00 0.00000E+00 0.00000E+00
 -1       985 0.00000E+00 0.00000E+00 0.00000E+00
 -3
