
 stresses (elem, integ.pnt.,sxx,syy,szz,sxy,sxz,syz) for set ELALL and time  0.1000000E+01

         1   1 -3.049136E+06 -2.478498E+05 -3.103194E+05 -8.628581E+04 -2.119742E+05  2.959921E+01
         1   2 -3.007386E+06  2.958767E+04 -1.366697E+05 -2.582848E+04 -1.384849E+05  5.788207E+00
         1   3 -3.048760E+06  1.330896E+04 -8.444959E+04  3.463414E+04 -6.499573E+04 -3.643015E+00
         1   4 -3.049144E+06 -2.478638E+05 -3.103214E+05  1.849473E-08 -2.119742E+05 -1.685098E-11
         1   5 -3.007387E+06  2.958641E+04 -1.366698E+05 -1.911748E-08 -1.384849E+05  2.076398E-10
         1   6 -3.048761E+06  1.330669E+04 -8.444992E+04 -2.551192E-10 -6.499573E+04  1.020591E-09
         1   7 -3.049136E+06 -2.478498E+05 -3.103194E+05  8.628581E+04 -2.119742E+05 -2.959921E+01
         1   8 -3.007386E+06  2.958767E+04 -1.366697E+05  2.582848E+04 -1.384849E+05 -5.788207E+00
         1   9 -3.048760E+06  1.330896E+04 -8.444959E+04 -3.463414E+04 -6.499573E+04  3.643015E+00
         1  10 -3.049184E+06 -2.478619E+05 -3.104043E+05 -8.628580E+04  4.866521E-10 -4.317096E-10
         1  11 -3.007407E+06  2.958249E+04 -1.367059E+05 -2.582848E+04 -2.730337E-09 -4.423496E-10
         1  12 -3.048765E+06  1.330782E+04 -8.445757E+04  3.463414E+04 -1.971110E-09  4.747730E-10
         1  13 -3.049192E+06 -2.478759E+05 -3.104063E+05  1.422393E-08 -1.007156E-10  2.286350E-11
         1  14 -3.007408E+06  2.958123E+04 -1.367060E+05 -1.480711E-08 -4.352589E-09  1.729509E-10
         1  15 -3.048766E+06  1.330555E+04 -8.445789E+04 -2.663065E-08 -1.298152E-09  2.988217E-10
         1  16 -3.049184E+06 -2.478619E+05 -3.104043E+05  8.628580E+04  4.849666E-10  3.089586E-10
         1  17 -3.007407E+06  2.958249E+04 -1.367059E+05  2.582848E+04  1.669586E-09  7.208590E-10
         1  18 -3.048765E+06  1.330782E+04 -8.445757E+04 -3.463414E+04  5.184777E-10  2.275556E-10
         1  19 -3.049136E+06 -2.478498E+05 -3.103194E+05 -8.628581E+04  2.119742E+05 -2.959921E+01
         1  20 -3.007386E+06  2.958767E+04 -1.366697E+05 -2.582848E+04  1.384849E+05 -5.788207E+00
         1  21 -3.048760E+06  1.330896E+04 -8.444959E+04  3.463414E+04  6.499573E+04  3.643015E+00
         1  22 -3.049144E+06 -2.478638E+05 -3.103214E+05  1.856819E-08  2.119742E+05  7.811646E-11
         1  23 -3.007387E+06  2.958641E+04 -1.366698E+05 -1.890729E-09  1.384849E+05  6.990258E-12
         1  24 -3.048761E+06  1.330669E+04 -8.444992E+04 -8.898446E-09  6.499573E+04 -4.994551E-10
         1  25 -3.049136E+06 -2.478498E+05 -3.103194E+05  8.628581E+04  2.119742E+05  2.959921E+01
         1  26 -3.007386E+06  2.958767E+04 -1.366697E+05  2.582848E+04  1.384849E+05  5.788207E+00
         1  27 -3.048760E+06  1.330896E+04 -8.444959E+04 -3.463414E+04  6.499573E+04 -3.643015E+00
         2   1 -3.032457E+06 -2.341646E+04 -6.861309E+04 -7.176075E+03 -5.213293E+04  6.054235E-01
         2   2 -3.027736E+06  2.960209E+03 -3.535451E+04 -1.809381E+03 -3.411305E+04  9.988708E-02
         2   3 -3.032400E+06  1.260004E+03 -2.088830E+04  3.557283E+03 -1.609286E+04 -9.264328E-02
         2   4 -3.032458E+06 -2.341655E+04 -6.861310E+04  1.593492E-08 -5.213293E+04 -3.014591E-10
         2   5 -3.027736E+06  2.960203E+03 -3.535451E+04 -7.528347E-09 -3.411305E+04 -2.760920E-09
         2   6 -3.032400E+06  1.259980E+03 -2.088830E+04  6.635810E-09 -1.609286E+04  2.389860E-10
         2   7 -3.032457E+06 -2.341646E+04 -6.861309E+04  7.176075E+03 -5.213293E+04 -6.054235E-01
         2   8 -3.027736E+06  2.960209E+03 -3.535451E+04  1.809381E+03 -3.411305E+04 -9.988709E-02
         2   9 -3.032400E+06  1.260004E+03 -2.088830E+04 -3.557283E+03 -1.609286E+04  9.264328E-02
         2  10 -3.032460E+06 -2.341719E+04 -6.861822E+04 -7.176075E+03  3.369661E-09  2.412836E-10
         2  11 -3.027737E+06  2.959895E+03 -3.535671E+04 -1.809381E+03 -1.240872E-09 -1.235973E-10
         2  12 -3.032400E+06  1.259934E+03 -2.088878E+04  3.557283E+03 -7.166476E-10 -2.412503E-10
         2  13 -3.032460E+06 -2.341729E+04 -6.861823E+04  7.272919E-09 -2.217218E-09 -1.280499E-10
         2  14 -3.027737E+06  2.959888E+03 -3.535671E+04 -9.667186E-09 -4.131786E-09 -8.151773E-10
         2  15 -3.032400E+06  1.259910E+03 -2.088879E+04 -1.152253E-08  2.658647E-09 -8.018991E-12
         2  16 -3.032460E+06 -2.341719E+04 -6.861822E+04  7.176075E+03 -4.075334E-09 -7.776878E-10
         2  17 -3.027737E+06  2.959895E+03 -3.535671E+04  1.809381E+03 -1.486629E-09 -1.424482E-09
         2  18 -3.032400E+06  1.259934E+03 -2.088878E+04 -3.557283E+03  3.123831E-10  1.661230E-10
         2  19 -3.032457E+06 -2.341646E+04 -6.861309E+04 -7.176075E+03  5.213293E+04 -6.054235E-01
         2  20 -3.027736E+06  2.960209E+03 -3.535451E+04 -1.809381E+03  3.411305E+04 -9.988709E-02
         2  21 -3.032400E+06  1.260004E+03 -2.088830E+04  3.557283E+03  1.609286E+04  9.264328E-02
         2  22 -3.032458E+06 -2.341655E+04 -6.861310E+04  7.147020E-09  5.213293E+04  5.305248E-11
         2  23 -3.027736E+06  2.960203E+03 -3.535451E+04 -7.519996E-09  3.411305E+04  1.214757E-09
         2  24 -3.032400E+06  1.259980E+03 -2.088830E+04  1.006006E-08  1.609286E+04 -1.963688E-10
         2  25 -3.032457E+06 -2.341646E+04 -6.861309E+04  7.176075E+03  5.213293E+04  6.054235E-01
         2  26 -3.027736E+06  2.960209E+03 -3.535451E+04  1.809381E+03  3.411305E+04  9.988709E-02
         2  27 -3.032400E+06  1.260004E+03 -2.088830E+04 -3.557283E+03  1.609286E+04 -9.264328E-02
         3   1 -3.030601E+06 -2.158527E+03 -1.629162E+04 -4.178370E+02 -1.282274E+04  8.670596E-03
         3   2 -3.029965E+06  3.154215E+02 -9.044619E+03 -1.207614E+01 -8.305740E+03  1.623180E-04
         3   3 -3.030590E+06  1.169057E+02 -5.417113E+03  3.936773E+02 -3.788780E+03 -2.413797E-03
         3   4 -3.030601E+06 -2.158527E+03 -1.629162E+04  2.066658E-08 -1.282274E+04  1.038510E-09
         3   5 -3.029965E+06  3.154215E+02 -9.044619E+03  7.657382E-09 -8.305740E+03 -9.808554E-11
         3   6 -3.030590E+06  1.169055E+02 -5.417113E+03  9.175893E-09 -3.788780E+03  2.751447E-09
         3   7 -3.030601E+06 -2.158527E+03 -1.629162E+04  4.178370E+02 -1.282274E+04 -8.670595E-03
         3   8 -3.029965E+06  3.154215E+02 -9.044619E+03  1.207614E+01 -8.305740E+03 -1.623186E-04
         3   9 -3.030590E+06  1.169057E+02 -5.417113E+03 -3.936773E+02 -3.788780E+03  2.413802E-03
         3  10 -3.030601E+06 -2.158571E+03 -1.629194E+04 -4.178370E+02  2.492170E-09 -4.850036E-10
         3  11 -3.029965E+06  3.154029E+02 -9.044749E+03 -1.207614E+01  9.267926E-10 -2.117243E-10
         3  12 -3.030590E+06  1.169019E+02 -5.417140E+03  3.936773E+02 -4.551124E-09  3.206619E-12
         3  13 -3.030601E+06 -2.158572E+03 -1.629194E+04  3.363655E-09 -2.250706E-09  1.039343E-10
         3  14 -3.029965E+06  3.154029E+02 -9.044749E+03  5.520745E-09 -2.117727E-09 -3.035809E-10
         3  15 -3.030590E+06  1.169016E+02 -5.417140E+03  2.056476E-08 -3.596592E-09  5.469119E-10
         3  16 -3.030601E+06 -2.158571E+03 -1.629194E+04  4.178370E+02 -5.229279E-10  5.221466E-10
         3  17 -3.029965E+06  3.154029E+02 -9.044749E+03  1.207614E+01 -3.701478E-09 -5.045585E-10
         3  18 -3.030590E+06  1.169019E+02 -5.417140E+03 -3.936773E+02  1.146767E-09  1.193271E-09
         3  19 -3.030601E+06 -2.158527E+03 -1.629162E+04 -4.178370E+02  1.282274E+04 -8.670596E-03
         3  20 -3.029965E+06  3.154215E+02 -9.044619E+03 -1.207614E+01  8.305740E+03 -1.623183E-04
         3  21 -3.030590E+06  1.169057E+02 -5.417113E+03  3.936773E+02  3.788780E+03  2.413797E-03
         3  22 -3.030601E+06 -2.158527E+03 -1.629162E+04  1.624223E-08  1.282274E+04 -7.555986E-10
         3  23 -3.029965E+06  3.154215E+02 -9.044619E+03 -5.206502E-09  8.305740E+03 -3.620694E-10
         3  24 -3.030590E+06  1.169055E+02 -5.417113E+03  2.714461E-08  3.788780E+03 -1.772468E-09
         3  25 -3.030601E+06 -2.158527E+03 -1.629162E+04  4.178370E+02  1.282274E+04  8.670594E-03
         3  26 -3.029965E+06  3.154215E+02 -9.044619E+03  1.207614E+01  8.305740E+03  1.623174E-04
         3  27 -3.030590E+06  1.169057E+02 -5.417113E+03 -3.936773E+02  3.788780E+03 -2.413801E-03
         4   1 -3.030366E+06 -1.846594E+02 -4.290960E+03  1.792969E+01 -2.919302E+03 -8.470369E-05
         4   2 -3.030239E+06  4.379191E+01 -2.828246E+03  2.475580E+01 -1.518377E+03 -6.083176E-05
         4   3 -3.030365E+06 -3.588475E+00 -2.349908E+03  3.158200E+01 -1.174295E+02 -6.001418E-06
         4   4 -3.030366E+06 -1.846594E+02 -4.290960E+03  2.340721E-09 -2.919302E+03  1.895792E-09
         4   5 -3.030239E+06  4.379191E+01 -2.828246E+03 -1.108812E-08 -1.518377E+03 -2.494243E-09
         4   6 -3.030365E+06 -3.588477E+00 -2.349908E+03  8.319998E-09 -1.174295E+02 -7.528874E-10
         4   7 -3.030366E+06 -1.846594E+02 -4.290960E+03 -1.792969E+01 -2.919302E+03  8.470762E-05
         4   8 -3.030239E+06  4.379191E+01 -2.828246E+03 -2.475580E+01 -1.518377E+03  6.082626E-05
         4   9 -3.030365E+06 -3.588475E+00 -2.349908E+03 -3.158200E+01 -1.174295E+02  5.999439E-06
         4  10 -3.030366E+06 -1.846617E+02 -4.290976E+03  1.792969E+01 -1.501165E-09  1.569180E-10
         4  11 -3.030239E+06  4.379129E+01 -2.828251E+03  2.475580E+01 -2.259234E-09  8.224254E-10
         4  12 -3.030365E+06 -3.588479E+00 -2.349908E+03  3.158200E+01 -4.919248E-10  9.542702E-10
         4  13 -3.030366E+06 -1.846617E+02 -4.290976E+03 -2.087812E-09 -4.439579E-09  5.037335E-10
         4  14 -3.030239E+06  4.379129E+01 -2.828251E+03  1.256798E-08 -2.014347E-09 -1.823861E-11
         4  15 -3.030365E+06 -3.588481E+00 -2.349908E+03 -1.823221E-09  1.027973E-09  1.624734E-10
         4  16 -3.030366E+06 -1.846617E+02 -4.290976E+03 -1.792969E+01  1.834884E-09  7.143042E-10
         4  17 -3.030239E+06  4.379129E+01 -2.828251E+03 -2.475580E+01 -1.579054E-09 -7.290360E-10
         4  18 -3.030365E+06 -3.588479E+00 -2.349908E+03 -3.158200E+01  1.111436E-09 -4.566195E-10
         4  19 -3.030366E+06 -1.846594E+02 -4.290960E+03  1.792969E+01  2.919302E+03  8.470439E-05
         4  20 -3.030239E+06  4.379191E+01 -2.828246E+03  2.475580E+01  1.518377E+03  6.083340E-05
         4  21 -3.030365E+06 -3.588475E+00 -2.349908E+03  3.158200E+01  1.174295E+02  6.003518E-06
         4  22 -3.030366E+06 -1.846594E+02 -4.290960E+03  4.511111E-08  2.919302E+03 -8.609929E-10
         4  23 -3.030239E+06  4.379191E+01 -2.828246E+03  6.093045E-09  1.518377E+03  2.086486E-09
         4  24 -3.030365E+06 -3.588477E+00 -2.349908E+03  1.278420E-08  1.174295E+02  1.078310E-09
         4  25 -3.030366E+06 -1.846594E+02 -4.290960E+03 -1.792969E+01  2.919302E+03 -8.470641E-05
         4  26 -3.030239E+06  4.379191E+01 -2.828246E+03 -2.475580E+01  1.518377E+03 -6.082897E-05
         4  27 -3.030365E+06 -3.588475E+00 -2.349908E+03 -3.158200E+01  1.174295E+02 -6.001647E-06
         5   1 -3.030369E+06 -1.155329E+00 -2.382829E+03 -3.935635E+01  3.090516E+02 -1.968301E-05
         5   2 -3.030235E+06  4.725100E+01 -3.007240E+03 -3.059207E+01  1.798802E+03 -8.905406E-05
         5   3 -3.030371E+06 -2.046552E+02 -4.680176E+03 -2.182779E+01  3.288551E+03 -1.161646E-04
         5   4 -3.030369E+06 -1.155332E+00 -2.382829E+03  3.146236E-08  3.090516E+02  4.247209E-10
         5   5 -3.030235E+06  4.725100E+01 -3.007240E+03  6.556216E-09  1.798802E+03 -1.291776E-10
         5   6 -3.030371E+06 -2.046552E+02 -4.680176E+03  2.250833E-08  3.288551E+03  3.120527E-10
         5   7 -3.030369E+06 -1.155329E+00 -2.382829E+03  3.935635E+01  3.090516E+02  1.968396E-05
         5   8 -3.030235E+06  4.725100E+01 -3.007240E+03  3.059207E+01  1.798802E+03  8.905381E-05
         5   9 -3.030371E+06 -2.046552E+02 -4.680176E+03  2.182779E+01  3.288551E+03  1.161651E-04
         5  10 -3.030369E+06 -1.155355E+00 -2.382829E+03 -3.935635E+01  2.201014E-09  6.070409E-10
         5  11 -3.030235E+06  4.725013E+01 -3.007246E+03 -3.059207E+01  2.420224E-09 -7.075526E-10
         5  12 -3.030371E+06 -2.046581E+02 -4.680196E+03 -2.182779E+01 -1.239686E-09 -1.734794E-10
         5  13 -3.030369E+06 -1.155358E+00 -2.382829E+03  5.547927E-09 -1.843815E-09  3.813242E-11
         5  14 -3.030235E+06  4.725013E+01 -3.007246E+03 -2.063746E-09 -9.386936E-10 -3.807210E-10
         5  15 -3.030371E+06 -2.046581E+02 -4.680196E+03 -5.347607E-09 -1.928406E-09  1.326811E-10
         5  16 -3.030369E+06 -1.155355E+00 -2.382829E+03  3.935635E+01 -2.437361E-09 -1.294621E-10
         5  17 -3.030235E+06  4.725013E+01 -3.007246E+03  3.059207E+01 -2.923811E-09 -5.583337E-11
         5  18 -3.030371E+06 -2.046581E+02 -4.680196E+03  2.182779E+01 -3.232709E-10  4.141280E-10
         5  19 -3.030369E+06 -1.155329E+00 -2.382829E+03 -3.935635E+01 -3.090516E+02  1.968379E-05
         5  20 -3.030235E+06  4.725100E+01 -3.007240E+03 -3.059207E+01 -1.798802E+03  8.905307E-05
         5  21 -3.030371E+06 -2.046552E+02 -4.680176E+03 -2.182779E+01 -3.288551E+03  1.161643E-04
         5  22 -3.030369E+06 -1.155332E+00 -2.382829E+03  1.837190E-08 -3.090516E+02 -2.333913E-10
         5  23 -3.030235E+06  4.725100E+01 -3.007240E+03 -1.497375E-08 -1.798802E+03 -7.192676E-10
         5  24 -3.030371E+06 -2.046552E+02 -4.680176E+03  2.265944E-09 -3.288551E+03 -2.631622E-10
         5  25 -3.030369E+06 -1.155329E+00 -2.382829E+03  3.935635E+01 -3.090516E+02 -1.968452E-05
         5  26 -3.030235E+06  4.725100E+01 -3.007240E+03  3.059207E+01 -1.798802E+03 -8.905449E-05
         5  27 -3.030371E+06 -2.046552E+02 -4.680176E+03  2.182779E+01 -3.288551E+03 -1.161650E-04
         6   1 -3.030620E+06  1.294290E+02 -5.944577E+03 -4.373158E+02  4.239957E+03 -3.000668E-03
         6   2 -3.029929E+06  3.490801E+02 -9.984862E+03  1.249623E+01  9.226772E+03  1.865903E-04
         6   3 -3.030632E+06 -2.390321E+03 -1.802333E+04  4.623033E+02  1.421348E+04  1.063380E-02
         6   4 -3.030620E+06  1.294287E+02 -5.944577E+03  8.717586E-09  4.239957E+03  3.465428E-10
         6   5 -3.029929E+06  3.490801E+02 -9.984862E+03  7.323438E-10  9.226772E+03 -1.789200E-10
         6   6 -3.030632E+06 -2.390321E+03 -1.802333E+04 -6.189837E-09  1.421348E+04  7.103415E-10
         6   7 -3.030620E+06  1.294290E+02 -5.944577E+03  4.373158E+02  4.239957E+03  3.000669E-03
         6   8 -3.029929E+06  3.490801E+02 -9.984862E+03 -1.249623E+01  9.226772E+03 -1.865908E-04
         6   9 -3.030632E+06 -2.390321E+03 -1.802333E+04 -4.623033E+02  1.421348E+04 -1.063380E-02
         6  10 -3.030620E+06  1.294242E+02 -5.944611E+03 -4.373158E+02  2.932665E-10  1.876475E-10
         6  11 -3.029929E+06  3.490571E+02 -9.985023E+03  1.249623E+01 -8.995604E-10  1.312973E-10
         6  12 -3.030632E+06 -2.390376E+03 -1.802371E+04  4.623033E+02  8.687986E-10  5.742918E-10
         6  13 -3.030620E+06  1.294238E+02 -5.944611E+03 -1.285438E-08 -3.567879E-09  3.527951E-10
         6  14 -3.029929E+06  3.490571E+02 -9.985023E+03 -1.646567E-08  2.953175E-09  8.870011E-11
         6  15 -3.030632E+06 -2.390376E+03 -1.802371E+04 -2.332072E-08  1.307419E-09  4.095537E-10
         6  16 -3.030620E+06  1.294242E+02 -5.944611E+03  4.373158E+02 -3.455673E-09  3.180363E-10
         6  17 -3.029929E+06  3.490571E+02 -9.985023E+03 -1.249623E+01 -1.525511E-09  4.353322E-11
         6  18 -3.030632E+06 -2.390376E+03 -1.802371E+04 -4.623033E+02 -7.976056E-10  5.107439E-10
         6  19 -3.030620E+06  1.294290E+02 -5.944577E+03 -4.373158E+02 -4.239957E+03  3.000669E-03
         6  20 -3.029929E+06  3.490801E+02 -9.984862E+03  1.249623E+01 -9.226772E+03 -1.865900E-04
         6  21 -3.030632E+06 -2.390321E+03 -1.802333E+04  4.623033E+02 -1.421348E+04 -1.063380E-02
         6  22 -3.030620E+06  1.294287E+02 -5.944577E+03 -4.251191E-09 -4.239957E+03  1.127303E-10
         6  23 -3.029929E+06  3.490801E+02 -9.984862E+03 -2.936733E-08 -9.226772E+03  3.522398E-10
         6  24 -3.030632E+06 -2.390321E+03 -1.802333E+04 -2.006016E-08 -1.421348E+04  5.397435E-11
         6  25 -3.030620E+06  1.294290E+02 -5.944577E+03  4.373158E+02 -4.239957E+03 -3.000669E-03
         6  26 -3.029929E+06  3.490801E+02 -9.984862E+03 -1.249623E+01 -9.226772E+03  1.865907E-04
         6  27 -3.030632E+06 -2.390321E+03 -1.802333E+04 -4.623033E+02 -1.421348E+04  1.063380E-02
         7   1 -3.032624E+06  1.395274E+03 -2.311797E+04 -3.939654E+03  1.783217E+04 -1.136906E-01
         7   2 -3.027460E+06  3.278013E+03 -3.914320E+04  2.003514E+03  3.778346E+04  1.225047E-01
         7   3 -3.032688E+06 -2.593131E+04 -7.597584E+04  7.946807E+03  5.773468E+04  7.424881E-01
         7   4 -3.032624E+06  1.395245E+03 -2.311797E+04  1.670251E-09  1.783217E+04  6.253997E-10
         7   5 -3.027460E+06  3.278005E+03 -3.914320E+04 -2.072672E-08  3.778346E+04 -1.609387E-10
         7   6 -3.032688E+06 -2.593143E+04 -7.597586E+04 -2.699657E-08  5.773468E+04 -4.876499E-10
         7   7 -3.032624E+06  1.395274E+03 -2.311797E+04  3.939654E+03  1.783217E+04  1.136906E-01
         7   8 -3.027460E+06  3.278013E+03 -3.914320E+04 -2.003514E+03  3.778346E+04 -1.225047E-01
         7   9 -3.032688E+06 -2.593131E+04 -7.597584E+04 -7.946807E+03  5.773468E+04 -7.424881E-01
         7  10 -3.032625E+06  1.395189E+03 -2.311857E+04 -3.939654E+03 -2.756350E-10  6.201069E-10
         7  11 -3.027462E+06  3.277627E+03 -3.914589E+04  2.003514E+03 -4.047510E-09 -7.503931E-11
         7  12 -3.032692E+06 -2.593221E+04 -7.598213E+04  7.946807E+03 -2.947556E-09 -1.543518E-10
         7  13 -3.032625E+06  1.395159E+03 -2.311857E+04 -6.970774E-09  1.247986E-09  4.601691E-10
         7  14 -3.027462E+06  3.277620E+03 -3.914589E+04 -1.215066E-08 -3.396977E-09  8.247044E-11
         7  15 -3.032692E+06 -2.593233E+04 -7.598215E+04 -1.194350E-08 -7.031818E-10 -2.082127E-10
         7  16 -3.032625E+06  1.395189E+03 -2.311857E+04  3.939654E+03  1.233765E-09  3.019287E-10
         7  17 -3.027462E+06  3.277627E+03 -3.914589E+04 -2.003514E+03  3.044314E-09  1.728521E-10
         7  18 -3.032692E+06 -2.593221E+04 -7.598213E+04 -7.946807E+03  2.445129E-09 -2.046685E-10
         7  19 -3.032624E+06  1.395274E+03 -2.311797E+04 -3.939654E+03 -1.783217E+04  1.136906E-01
         7  20 -3.027460E+06  3.278013E+03 -3.914320E+04  2.003514E+03 -3.778346E+04 -1.225047E-01
         7  21 -3.032688E+06 -2.593131E+04 -7.597584E+04  7.946807E+03 -5.773468E+04 -7.424881E-01
         7  22 -3.032624E+06  1.395245E+03 -2.311797E+04  5.939337E-09 -1.783217E+04  2.380984E-10
         7  23 -3.027460E+06  3.278005E+03 -3.914320E+04  5.037107E-09 -3.778346E+04  3.013148E-10
         7  24 -3.032688E+06 -2.593143E+04 -7.597586E+04  1.117075E-08 -5.773468E+04  9.843376E-11
         7  25 -3.032624E+06  1.395274E+03 -2.311797E+04  3.939654E+03 -1.783217E+04 -1.136906E-01
         7  26 -3.027460E+06  3.278013E+03 -3.914320E+04 -2.003514E+03 -3.778346E+04  1.225047E-01
         7  27 -3.032688E+06 -2.593131E+04 -7.597584E+04 -7.946807E+03 -5.773468E+04  7.424881E-01
         8   1 -3.050741E+06  1.473832E+04 -9.351338E+04 -3.835313E+04  7.197771E+04 -4.467574E+00
         8   2 -3.004924E+06  3.276496E+04 -1.513394E+05  2.860225E+04  1.533581E+05  7.098191E+00
         8   3 -3.051155E+06 -2.744633E+05 -3.436314E+05  9.555223E+04  2.347401E+05  3.629823E+01
         8   4 -3.050743E+06  1.473554E+04 -9.351378E+04  4.621589E-09  7.197771E+04 -4.600621E-10
         8   5 -3.004925E+06  3.276342E+04 -1.513396E+05 -3.819834E-09  1.533581E+05  1.585480E-10
         8   6 -3.051165E+06 -2.744806E+05 -3.436339E+05 -2.574321E-09  2.347401E+05  1.856624E-11
         8   7 -3.050741E+06  1.473832E+04 -9.351338E+04  3.835313E+04  7.197771E+04  4.467574E+00
         8   8 -3.004924E+06  3.276496E+04 -1.513394E+05 -2.860225E+04  1.533581E+05 -7.098191E+00
         8   9 -3.051155E+06 -2.744633E+05 -3.436314E+05 -9.555223E+04  2.347401E+05 -3.629823E+01
         8  10 -3.050747E+06  1.473692E+04 -9.352317E+04 -3.835313E+04 -2.544296E-09 -5.369717E-11
         8  11 -3.004950E+06  3.275861E+04 -1.513838E+05  2.860225E+04  6.835335E-10 -1.347367E-10
         8  12 -3.051214E+06 -2.744782E+05 -3.437355E+05  9.555222E+04  1.964671E-10 -7.222752E-11
         8  13 -3.050748E+06  1.473414E+04 -9.352356E+04 -2.552113E-08 -2.251837E-09 -4.346767E-10
         8  14 -3.004951E+06  3.275706E+04 -1.513840E+05 -5.960886E-09  1.347507E-10 -4.935250E-10
         8  15 -3.051224E+06 -2.744954E+05 -3.437379E+05 -5.763233E-09 -7.058546E-10 -1.867413E-10
         8  16 -3.050747E+06  1.473692E+04 -9.352317E+04  3.835313E+04  1.165625E-09 -9.457029E-10
         8  17 -3.004950E+06  3.275861E+04 -1.513838E+05 -2.860225E+04 -2.129717E-09 -1.041853E-09
         8  18 -3.051214E+06 -2.744782E+05 -3.437355E+05 -9.555222E+04 -6.666697E-10 -3.507207E-10
         8  19 -3.050741E+06  1.473832E+04 -9.351338E+04 -3.835313E+04 -7.197771E+04  4.467574E+00
         8  20 -3.004924E+06  3.276496E+04 -1.513394E+05  2.860225E+04 -1.533581E+05 -7.098191E+00
         8  21 -3.051155E+06 -2.744633E+05 -3.436314E+05  9.555223E+04 -2.347401E+05 -3.629823E+01
         8  22 -3.050743E+06  1.473554E+04 -9.351378E+04  2.768644E-10 -7.197771E+04 -4.419736E-10
         8  23 -3.004925E+06  3.276342E+04 -1.513396E+05 -1.241111E-08 -1.533581E+05 -1.281505E-09
         8  24 -3.051165E+06 -2.744806E+05 -3.436339E+05 -6.809336E-09 -2.347401E+05 -4.206257E-10
         8  25 -3.050741E+06  1.473832E+04 -9.351338E+04  3.835313E+04 -7.197771E+04 -4.467574E+00
         8  26 -3.004924E+06  3.276496E+04 -1.513394E+05 -2.860225E+04 -1.533581E+05  7.098191E+00
         8  27 -3.051155E+06 -2.744633E+05 -3.436314E+05 -9.555223E+04 -2.347401E+05  3.629823E+01
         9   1  2.090563E+06  7.177250E+06  2.016568E+06 -1.273635E+06  9.604135E+04  7.204000E+05
         9   2  1.618773E+06  6.076242E+06  1.375565E+06 -1.102870E+06  3.165270E+05  3.352210E+05
         9   3  1.317591E+06  5.071676E+06  1.026946E+06 -1.139622E+06  3.579688E+05 -4.913876E+04
         9   4  1.998815E+05 -5.074750E+05  2.186189E+05 -1.130945E+06  9.752288E+04  1.508860E+05
         9   5  4.907289E+04 -5.248020E+05  1.079377E+05 -1.027519E+06  3.176057E+05  9.635222E+04
         9   6  1.279270E+04 -5.030620E+05  6.202361E+04 -1.131560E+06  3.578533E+05  4.189647E+04
         9   7 -1.694742E+06 -8.137436E+06 -1.582141E+06 -9.899417E+05  9.875922E+04 -4.116925E+05
         9   8 -1.523154E+06 -7.084033E+06 -1.161483E+06 -9.529186E+05  3.186351E+05 -1.400576E+05
         9   9 -1.293673E+06 -6.047447E+06 -9.039478E+05 -1.123516E+06  3.577394E+05  1.321431E+05
         9  10  2.090416E+06  7.176695E+06  2.015585E+06 -1.273691E+06 -8.247941E-10  1.363706E-09
         9  11  1.618635E+06  6.076095E+06  1.375167E+06 -1.102955E+06 -2.547089E-09 -1.710310E-09
         9  12  1.317453E+06  5.071639E+06  1.026701E+06 -1.139608E+06 -2.820144E-09 -4.424034E-09
         9  13  1.998651E+05 -5.075020E+05  2.185581E+05 -1.130956E+06  2.443015E-09 -2.111230E-12
         9  14  4.896204E+04 -5.248391E+05  1.077305E+05 -1.027544E+06  3.251111E-09  4.470833E-11
         9  15  1.265471E+04 -5.030983E+05  6.177960E+04 -1.131573E+06 -4.702213E-09  1.053673E-10
         9  16 -1.694798E+06 -8.137623E+06 -1.582482E+06 -9.899089E+05  8.524298E-10 -1.368419E-09
         9  17 -1.523268E+06 -7.084081E+06 -1.161711E+06 -9.528826E+05 -5.759085E-10  1.632501E-09
         9  18 -1.293815E+06 -6.047501E+06 -9.042217E+05 -1.123554E+06 -2.748620E-09  4.004402E-09
         9  19  2.090563E+06  7.177250E+06  2.016568E+06 -1.273635E+06 -9.604135E+04 -7.204000E+05
         9  20  1.618773E+06  6.076242E+06  1.375565E+06 -1.102870E+06 -3.165270E+05 -3.352210E+05
         9  21  1.317591E+06  5.071676E+06  1.026946E+06 -1.139622E+06 -3.579688E+05  4.913876E+04
         9  22  1.998815E+05 -5.074750E+05  2.186189E+05 -1.130945E+06 -9.752288E+04 -1.508860E+05
         9  23  4.907289E+04 -5.248020E+05  1.079377E+05 -1.027519E+06 -3.176057E+05 -9.635222E+04
         9  24  1.279270E+04 -5.030620E+05  6.202361E+04 -1.131560E+06 -3.578533E+05 -4.189647E+04
         9  25 -1.694742E+06 -8.137436E+06 -1.582141E+06 -9.899417E+05 -9.875922E+04  4.116925E+05
         9  26 -1.523154E+06 -7.084033E+06 -1.161483E+06 -9.529186E+05 -3.186351E+05  1.400576E+05
         9  27 -1.293673E+06 -6.047447E+06 -9.039478E+05 -1.123516E+06 -3.577394E+05 -1.321431E+05
        10   1  1.157655E+06  4.379109E+06  8.831789E+05 -1.155084E+06  3.242758E+05 -4.423111E+04
        10   2  9.008975E+05  3.321959E+06  6.641927E+05 -1.039251E+06  2.735808E+05 -9.166354E+04
        10   3  6.604240E+05  2.275625E+06  4.798670E+05 -1.142995E+06  2.058195E+05 -1.392419E+05
        10   4  1.526304E+04 -5.094357E+05  4.876498E+04 -1.134229E+06  3.241219E+05  3.337613E+04
        10   5  9.278322E+03 -5.102786E+05  3.206073E+04 -1.024416E+06  2.731373E+05  1.729521E+04
        10   6  1.424786E+04 -5.067669E+05  2.839061E+04 -1.134256E+06  2.050320E+05  9.919819E+02
        10   7 -1.128394E+06 -5.374568E+06 -7.864206E+05 -1.113496E+06  3.239724E+05  1.103941E+05
        10   8 -8.830909E+05 -4.328012E+06 -6.004612E+05 -1.009645E+06  2.726972E+05  1.256067E+05
        10   9 -6.323109E+05 -3.281455E+06 -4.232274E+05 -1.125541E+06  2.042461E+05  1.406211E+05
        10  10  1.157541E+06  4.379079E+06  8.829777E+05 -1.155072E+06 -2.969755E-09  3.192733E-08
        10  11  9.008150E+05  3.321930E+06  6.640366E+05 -1.039231E+06 -2.531130E-09  6.229852E-10
        10  12  6.603734E+05  2.275593E+06  4.797513E+05 -1.142972E+06 -1.371095E-09 -3.011762E-08
        10  13  1.514993E+04 -5.094652E+05  4.856543E+04 -1.134238E+06 -5.722332E-09  1.432408E-10
        10  14  9.198140E+03 -5.102989E+05  3.191997E+04 -1.024420E+06 -3.970812E-09  3.131735E-10
        10  15  1.420273E+04 -5.067782E+05  2.831163E+04 -1.134257E+06 -1.425141E-09  2.091442E-10
        10  16 -1.128510E+06 -5.374609E+06 -7.866411E+05 -1.113525E+06 -4.739656E-09 -3.178221E-08
        10  17 -8.831751E+05 -4.328049E+06 -6.006310E+05 -1.009673E+06 -2.435045E-09 -5.742230E-10
        10  18 -6.323611E+05 -3.281488E+06 -4.233433E+05 -1.125564E+06 -3.712350E-09  3.025767E-08
        10  19  1.157655E+06  4.379109E+06  8.831789E+05 -1.155084E+06 -3.242758E+05  4.423111E+04
        10  20  9.008975E+05  3.321959E+06  6.641927E+05 -1.039251E+06 -2.735808E+05  9.166354E+04
        10  21  6.604240E+05  2.275625E+06  4.798670E+05 -1.142995E+06 -2.058195E+05  1.392419E+05
        10  22  1.526304E+04 -5.094357E+05  4.876498E+04 -1.134229E+06 -3.241219E+05 -3.337613E+04
        10  23  9.278322E+03 -5.102786E+05  3.206073E+04 -1.024416E+06 -2.731373E+05 -1.729521E+04
        10  24  1.424786E+04 -5.067669E+05  2.839061E+04 -1.134256E+06 -2.050320E+05 -9.919819E+02
        10  25 -1.128394E+06 -5.374568E+06 -7.864206E+05 -1.113496E+06 -3.239724E+05 -1.103941E+05
        10  26 -8.830909E+05 -4.328012E+06 -6.004612E+05 -1.009645E+06 -2.726972E+05 -1.256067E+05
        10  27 -6.323109E+05 -3.281455E+06 -4.232274E+05 -1.125541E+06 -2.042461E+05 -1.406211E+05
        11   1  5.034274E+05  1.601113E+06  3.663610E+05 -1.145525E+06  1.603822E+05 -1.432853E+05
        11   2  2.714820E+05  5.462828E+05  2.023518E+05 -1.007924E+06  8.707799E+04 -1.536588E+05
        11   3  7.671769E+04 -4.990649E+05  5.370894E+04 -1.090673E+06  1.965948E+04 -1.640507E+05
        11   4  1.509486E+04 -5.048332E+05  2.955410E+04 -1.134439E+06  1.595302E+05 -3.860269E+03
        11   5  2.827382E+04 -5.095632E+05  4.063186E+04 -1.024099E+06  8.625321E+04 -2.506472E+04
        11   6  8.056807E+04 -5.040734E+05  7.455081E+04 -1.134082E+06  1.886653E+04 -4.630163E+04
        11   7 -4.734496E+05 -2.606335E+06 -3.072965E+05 -1.123382E+06  1.586813E+05  1.351098E+05
        11   8 -2.149780E+05 -1.564257E+06 -1.210500E+05 -1.040243E+06  8.542081E+04  1.033193E+05
        11   9  8.443302E+04 -5.090480E+05  9.544645E+04 -1.177491E+06  1.805709E+04  7.144821E+04
        11  10  5.033944E+05  1.601084E+06  3.662744E+05 -1.145506E+06 -2.633404E-09 -9.069371E-10
        11  11  2.714676E+05  5.462554E+05  2.022933E+05 -1.007913E+06  7.757639E-10  6.705061E-10
        11  12  7.671005E+04 -4.990939E+05  5.365763E+04 -1.090670E+06 -1.856701E-09  1.592358E-09
        11  13  1.506753E+04 -5.048400E+05  2.950627E+04 -1.134439E+06 -4.416755E-09  3.711226E-10
        11  14  2.826567E+04 -5.095659E+05  4.061672E+04 -1.024097E+06 -2.204468E-09  6.358431E-11
        11  15  8.056712E+04 -5.040758E+05  7.454612E+04 -1.134082E+06 -2.063312E-09 -1.790723E-12
        11  16 -4.734816E+05 -2.606362E+06 -3.073784E+05 -1.123399E+06 -2.477775E-09  1.180587E-09
        11  17 -2.149887E+05 -1.564271E+06 -1.210839E+05 -1.040250E+06 -2.927373E-09 -7.430241E-10
        11  18  8.443130E+04 -5.090536E+05  9.543622E+04 -1.177492E+06 -1.626454E-10 -1.559854E-09
        11  19  5.034274E+05  1.601113E+06  3.663610E+05 -1.145525E+06 -1.603822E+05  1.432853E+05
        11  20  2.714820E+05  5.462828E+05  2.023518E+05 -1.007924E+06 -8.707799E+04  1.536588E+05
        11  21  7.671769E+04 -4.990649E+05  5.370894E+04 -1.090673E+06 -1.965948E+04  1.640507E+05
        11  22  1.509486E+04 -5.048332E+05  2.955410E+04 -1.134439E+06 -1.595302E+05  3.860269E+03
        11  23  2.827382E+04 -5.095632E+05  4.063186E+04 -1.024099E+06 -8.625321E+04  2.506472E+04
        11  24  8.056807E+04 -5.040734E+05  7.455081E+04 -1.134082E+06 -1.886653E+04  4.630163E+04
        11  25 -4.734496E+05 -2.606335E+06 -3.072965E+05 -1.123382E+06 -1.586813E+05 -1.351098E+05
        11  26 -2.149780E+05 -1.564257E+06 -1.210500E+05 -1.040243E+06 -8.542081E+04 -1.033193E+05
        11  27  8.443302E+04 -5.090480E+05  9.544645E+04 -1.177491E+06 -1.805709E+04 -7.144821E+04
        12   1 -3.919933E+06 -1.120042E+06 -6.225300E+05 -1.448406E+06 -3.572807E+05 -1.308036E+05
        12   2 -3.825425E+06 -5.735024E+05 -2.859745E+05 -1.486603E+06 -2.287656E+05 -7.705000E+04
        12   3 -3.911410E+06 -5.408327E+05 -1.816068E+05 -1.422939E+06 -9.777275E+04 -2.987624E+04
        12   4 -3.769222E+06 -9.305479E+05 -5.552326E+05 -1.271054E+06 -3.529128E+05 -1.292626E+05
        12   5 -3.650090E+06 -4.686928E+05 -2.326448E+05 -1.398749E+06 -2.279266E+05 -7.675376E+04
        12   6 -3.710692E+06 -5.199556E+05 -1.393902E+05 -1.424609E+06 -1.004570E+05 -3.087127E+04
        12   7 -3.618445E+06 -7.409326E+05 -4.879293E+05 -1.093642E+06 -3.485437E+05 -1.277188E+05
        12   8 -3.474721E+06 -3.638638E+05 -1.793177E+05 -1.310868E+06 -2.270873E+05 -7.645727E+04
        12   9 -3.509928E+06 -4.990753E+05 -9.717374E+04 -1.426283E+06 -1.031422E+05 -3.186606E+04
        12  10 -3.920076E+06 -1.120095E+06 -6.228041E+05 -1.448443E+06 -6.209260E-10  2.559635E-11
        12  11 -3.825483E+06 -5.735230E+05 -2.860848E+05 -1.486617E+06 -4.740318E-09 -1.700634E-09
        12  12 -3.911420E+06 -5.408362E+05 -1.816266E+05 -1.422942E+06 -1.910499E-09 -3.263459E-09
        12  13 -3.769361E+06 -9.305997E+05 -5.554998E+05 -1.271091E+06  2.788614E-10 -1.301598E-10
        12  14 -3.650148E+06 -4.687132E+05 -2.327542E+05 -1.398763E+06 -3.005021E-09 -7.602298E-10
        12  15 -3.710703E+06 -5.199594E+05 -1.394111E+05 -1.424611E+06 -5.088627E-09 -1.713037E-09
        12  16 -3.618581E+06 -7.409830E+05 -4.881899E+05 -1.093678E+06 -7.652070E-10 -2.349380E-10
        12  17 -3.474778E+06 -3.638840E+05 -1.794263E+05 -1.310882E+06  8.450264E-10  4.078383E-10
        12  18 -3.509940E+06 -4.990793E+05 -9.719578E+04 -1.426286E+06 -2.270993E-09 -1.179787E-10
        12  19 -3.919933E+06 -1.120042E+06 -6.225300E+05 -1.448406E+06  3.572807E+05  1.308036E+05
        12  20 -3.825425E+06 -5.735024E+05 -2.859745E+05 -1.486603E+06  2.287656E+05  7.705000E+04
        12  21 -3.911410E+06 -5.408327E+05 -1.816068E+05 -1.422939E+06  9.777275E+04  2.987624E+04
        12  22 -3.769222E+06 -9.305479E+05 -5.552326E+05 -1.271054E+06  3.529128E+05  1.292626E+05
        12  23 -3.650090E+06 -4.686928E+05 -2.326448E+05 -1.398749E+06  2.279266E+05  7.675376E+04
        12  24 -3.710692E+06 -5.199556E+05 -1.393902E+05 -1.424609E+06  1.004570E+05  3.087127E+04
        12  25 -3.618445E+06 -7.409326E+05 -4.879293E+05 -1.093642E+06  3.485437E+05  1.277188E+05
        12  26 -3.474721E+06 -3.638638E+05 -1.793177E+05 -1.310868E+06  2.270873E+05  7.645727E+04
        12  27 -3.509928E+06 -4.990753E+05 -9.717374E+04 -1.426283E+06  1.031422E+05  3.186606E+04
        13   1 -3.789140E+06 -6.242250E+05 -1.406133E+05 -1.431403E+06 -7.953071E+04 -2.542385E+04
        13   2 -3.747820E+06 -5.440281E+05 -7.058139E+04 -1.412307E+06 -5.032973E+04 -1.631008E+04
        13   3 -3.706043E+06 -5.365326E+05 -3.548459E+04 -1.407427E+06 -2.094974E+04 -7.665343E+03
        13   4 -3.692434E+06 -5.759659E+05 -1.129779E+05 -1.392801E+06 -8.026937E+04 -2.570248E+04
        13   5 -3.689748E+06 -5.191399E+05 -5.478154E+04 -1.393343E+06 -5.131645E+04 -1.667997E+04
        13   6 -3.686552E+06 -5.349623E+05 -3.131705E+04 -1.408102E+06 -2.218652E+04 -8.128227E+03
        13   7 -3.595719E+06 -5.277040E+05 -8.534345E+04 -1.354192E+06 -8.100816E+04 -2.598119E+04
        13   8 -3.631673E+06 -4.942514E+05 -3.898205E+04 -1.374377E+06 -5.230327E+04 -1.704990E+04
        13   9 -3.667061E+06 -5.333919E+05 -2.714952E+04 -1.408778E+06 -2.342334E+04 -8.591095E+03
        13  10 -3.789147E+06 -6.242274E+05 -1.406265E+05 -1.431405E+06  4.563431E-09 -1.789622E-10
        13  11 -3.747823E+06 -5.440290E+05 -7.058668E+04 -1.412307E+06  4.081535E-09  7.356382E-10
        13  12 -3.706043E+06 -5.365328E+05 -3.548553E+04 -1.407427E+06 -2.370299E-09 -7.795911E-10
        13  13 -3.692441E+06 -5.759684E+05 -1.129914E+05 -1.392802E+06 -3.611647E-09 -1.501225E-09
        13  14 -3.689751E+06 -5.191409E+05 -5.478705E+04 -1.393343E+06 -7.999664E-10 -3.702128E-10
        13  15 -3.686553E+06 -5.349625E+05 -3.131810E+04 -1.408102E+06 -1.388498E-09 -7.562340E-10
        13  16 -3.595726E+06 -5.277065E+05 -8.535714E+04 -1.354194E+06 -8.022194E-09 -3.068158E-09
        13  17 -3.631676E+06 -4.942524E+05 -3.898778E+04 -1.374378E+06 -1.433778E-09 -1.391421E-09
        13  18 -3.667062E+06 -5.333921E+05 -2.715070E+04 -1.408778E+06 -3.507950E-10 -3.372882E-10
        13  19 -3.789140E+06 -6.242250E+05 -1.406133E+05 -1.431403E+06  7.953071E+04  2.542385E+04
        13  20 -3.747820E+06 -5.440281E+05 -7.058139E+04 -1.412307E+06  5.032973E+04  1.631008E+04
        13  21 -3.706043E+06 -5.365326E+05 -3.548459E+04 -1.407427E+06  2.094974E+04  7.665343E+03
        13  22 -3.692434E+06 -5.759659E+05 -1.129779E+05 -1.392801E+06  8.026937E+04  2.570248E+04
        13  23 -3.689748E+06 -5.191399E+05 -5.478154E+04 -1.393343E+06  5.131645E+04  1.667997E+04
        13  24 -3.686552E+06 -5.349623E+05 -3.131705E+04 -1.408102E+06  2.218652E+04  8.128227E+03
        13  25 -3.595719E+06 -5.277040E+05 -8.534345E+04 -1.354192E+06  8.100816E+04  2.598119E+04
        13  26 -3.631673E+06 -4.942514E+05 -3.898205E+04 -1.374377E+06  5.230327E+04  1.704990E+04
        13  27 -3.667061E+06 -5.333919E+05 -2.714952E+04 -1.408778E+06  2.342334E+04  8.591095E+03
        14   1 -3.642075E+06 -5.253207E+05 -1.325038E+04 -1.394167E+06 -1.613979E+04 -7.331862E+03
        14   2 -3.607543E+06 -4.920709E+05  9.899907E+03 -1.369553E+06 -8.911013E+03 -6.967335E+03
        14   3 -3.552990E+06 -4.866066E+05  2.686968E+04 -1.369987E+06 -1.680358E+03 -6.605170E+03
        14   4 -3.684390E+06 -5.403663E+05 -2.433117E+04 -1.404758E+06 -1.724012E+04 -7.743938E+03
        14   5 -3.694112E+06 -5.244760E+05 -1.276018E+04 -1.392979E+06 -1.001315E+04 -7.380183E+03
        14   6 -3.683814E+06 -5.363713E+05 -7.367741E+03 -1.406248E+06 -2.784809E+03 -7.018992E+03
        14   7 -3.726702E+06 -5.554120E+05 -3.541220E+04 -1.415348E+06 -1.834038E+04 -8.155990E+03
        14   8 -3.780674E+06 -5.568808E+05 -3.542103E+04 -1.416401E+06 -1.111512E+04 -7.792970E+03
        14   9 -3.814621E+06 -5.861350E+05 -4.160676E+04 -1.442501E+06 -3.889008E+03 -7.432717E+03
        14  10 -3.642076E+06 -5.253209E+05 -1.325097E+04 -1.394167E+06 -3.631722E-09 -1.382437E-09
        14  11 -3.607543E+06 -4.920710E+05  9.899665E+03 -1.369553E+06 -6.472784E-10 -1.711034E-09
        14  12 -3.552990E+06 -4.866067E+05  2.686960E+04 -1.369987E+06  9.119611E-10  1.370847E-09
        14  13 -3.684390E+06 -5.403665E+05 -2.433185E+04 -1.404758E+06 -3.849016E-09 -1.781721E-09
        14  14 -3.694112E+06 -5.244761E+05 -1.276047E+04 -1.392979E+06 -4.730490E-09 -1.671261E-09
        14  15 -3.683814E+06 -5.363713E+05 -7.367849E+03 -1.406248E+06  9.211440E-10  8.573629E-10
        14  16 -3.726703E+06 -5.554121E+05 -3.541296E+04 -1.415349E+06  8.130638E-10 -1.888623E-09
        14  17 -3.780674E+06 -5.568809E+05 -3.542138E+04 -1.416401E+06 -1.214288E-10 -2.361767E-09
        14  18 -3.814621E+06 -5.861350E+05 -4.160689E+04 -1.442501E+06  7.998572E-10  7.488062E-10
        14  19 -3.642075E+06 -5.253207E+05 -1.325038E+04 -1.394167E+06  1.613979E+04  7.331862E+03
        14  20 -3.607543E+06 -4.920709E+05  9.899907E+03 -1.369553E+06  8.911013E+03  6.967335E+03
        14  21 -3.552990E+06 -4.866066E+05  2.686968E+04 -1.369987E+06  1.680358E+03  6.605170E+03
        14  22 -3.684390E+06 -5.403663E+05 -2.433117E+04 -1.404758E+06  1.724012E+04  7.743938E+03
        14  23 -3.694112E+06 -5.244760E+05 -1.276018E+04 -1.392979E+06  1.001315E+04  7.380183E+03
        14  24 -3.683814E+06 -5.363713E+05 -7.367741E+03 -1.406248E+06  2.784809E+03  7.018992E+03
        14  25 -3.726702E+06 -5.554120E+05 -3.541220E+04 -1.415348E+06  1.834038E+04  8.155990E+03
        14  26 -3.780674E+06 -5.568808E+05 -3.542103E+04 -1.416401E+06  1.111512E+04  7.792970E+03
        14  27 -3.814621E+06 -5.861350E+05 -4.160676E+04 -1.442501E+06  3.889008E+03  7.432717E+03
        15   1 -3.497450E+06 -4.665526E+05  4.320189E+04 -1.354904E+06 -1.808511E+02 -7.399355E+03
        15   2 -3.465774E+06 -4.395166E+05  5.619131E+04 -1.331154E+06  2.376722E+03 -8.703627E+03
        15   3 -3.413060E+06 -4.344696E+05  6.769103E+04 -1.331888E+06  4.910774E+03 -9.941685E+03
        15   4 -3.683808E+06 -5.365766E+05 -5.791894E+03 -1.405567E+06 -1.262402E+03 -7.804743E+03
        15   5 -3.694306E+06 -5.254315E+05 -3.694165E+03 -1.393383E+06  1.329980E+03 -9.096256E+03
        15   6 -3.683776E+06 -5.362830E+05 -3.114099E+03 -1.405681E+06  3.898708E+03 -1.032159E+04
        15   7 -3.870132E+06 -6.065981E+05 -5.478835E+04 -1.456217E+06 -2.343588E+03 -8.209996E+03
        15   8 -3.922787E+06 -6.113430E+05 -6.358397E+04 -1.455590E+06  2.836653E+02 -9.488726E+03
        15   9 -3.954420E+06 -6.380921E+05 -7.392560E+04 -1.479446E+06  2.887127E+03 -1.070131E+04
        15  10 -3.497450E+06 -4.665527E+05  4.320179E+04 -1.354904E+06  9.773958E-09  5.457029E-09
        15  11 -3.465774E+06 -4.395167E+05  5.619116E+04 -1.331154E+06 -8.227396E-09 -6.807560E-11
        15  12 -3.413061E+06 -4.344697E+05  6.769080E+04 -1.331888E+06 -1.968424E-08 -7.102795E-09
        15  13 -3.683808E+06 -5.365767E+05 -5.792011E+03 -1.405567E+06 -3.205506E-09  2.452544E-09
        15  14 -3.694306E+06 -5.254316E+05 -3.694324E+03 -1.393383E+06 -3.061299E-10  1.234501E-09
        15  15 -3.683776E+06 -5.362831E+05 -3.114328E+03 -1.405681E+06 -3.505847E-10 -1.705806E-09
        15  16 -3.870132E+06 -6.065982E+05 -5.478849E+04 -1.456217E+06 -8.048431E-09 -1.417212E-09
        15  17 -3.922787E+06 -6.113431E+05 -6.358414E+04 -1.455590E+06  3.170066E-09  2.836609E-09
        15  18 -3.954420E+06 -6.380922E+05 -7.392583E+04 -1.479446E+06  1.380996E-08  3.731858E-09
        15  19 -3.497450E+06 -4.665526E+05  4.320189E+04 -1.354904E+06  1.808511E+02  7.399355E+03
        15  20 -3.465774E+06 -4.395166E+05  5.619131E+04 -1.331154E+06 -2.376722E+03  8.703627E+03
        15  21 -3.413060E+06 -4.344696E+05  6.769103E+04 -1.331888E+06 -4.910774E+03  9.941685E+03
        15  22 -3.683808E+06 -5.365766E+05 -5.791894E+03 -1.405567E+06  1.262402E+03  7.804743E+03
        15  23 -3.694306E+06 -5.254315E+05 -3.694165E+03 -1.393383E+06 -1.329980E+03  9.096256E+03
        15  24 -3.683776E+06 -5.362830E+05 -3.114099E+03 -1.405681E+06 -3.898708E+03  1.032159E+04
        15  25 -3.870132E+06 -6.065981E+05 -5.478835E+04 -1.456217E+06  2.343588E+03  8.209996E+03
        15  26 -3.922787E+06 -6.113430E+05 -6.358397E+04 -1.455590E+06 -2.836653E+02  9.488726E+03
        15  27 -3.954420E+06 -6.380921E+05 -7.392560E+04 -1.479446E+06 -2.887127E+03  1.070131E+04
        16   1 -3.363088E+06 -4.149967E+05  8.110178E+04 -1.317672E+06  5.814165E+03 -1.084109E+04
        16   2 -3.335095E+06 -3.912598E+05  8.963276E+04 -1.296449E+06  8.590989E+03 -1.183267E+04
        16   3 -3.288480E+06 -3.872044E+05  9.644353E+04 -1.296860E+06  1.132745E+04 -1.271219E+04
        16   4 -3.684317E+06 -5.357241E+05 -3.219407E+03 -1.405071E+06  4.827290E+03 -1.121178E+04
        16   5 -3.693661E+06 -5.261247E+05 -4.332893E+03 -1.394162E+06  7.662877E+03 -1.218172E+04
        16   6 -3.684394E+06 -5.362196E+05 -7.213977E+03 -1.404889E+06  1.045795E+04 -1.303961E+04
        16   7 -4.005444E+06 -6.564449E+05 -8.754913E+04 -1.492429E+06  3.840981E+03 -1.158227E+04
        16   8 -4.052101E+06 -6.609818E+05 -9.830949E+04 -1.491824E+06  6.735357E+03 -1.253055E+04
        16   9 -4.080157E+06 -6.852255E+05 -1.108852E+05 -1.512855E+06  9.589070E+03 -1.336680E+04
        16  10 -3.363088E+06 -4.149968E+05  8.110149E+04 -1.317672E+06  4.922539E-09 -7.012049E-10
        16  11 -3.335096E+06 -3.912599E+05  8.963235E+04 -1.296448E+06  1.292649E-09  7.952230E-10
        16  12 -3.288480E+06 -3.872047E+05  9.644299E+04 -1.296860E+06 -4.901839E-09  1.801229E-10
        16  13 -3.684317E+06 -5.357242E+05 -3.219686E+03 -1.405071E+06 -3.033655E-09 -2.747712E-09
        16  14 -3.693661E+06 -5.261249E+05 -4.333281E+03 -1.394162E+06  2.962167E-10 -1.084328E-09
        16  15 -3.684394E+06 -5.362198E+05 -7.214502E+03 -1.404889E+06  1.867228E-09  1.227454E-09
        16  16 -4.005444E+06 -6.564450E+05 -8.754941E+04 -1.492429E+06 -3.600246E-09 -6.205897E-09
        16  17 -4.052101E+06 -6.609819E+05 -9.830987E+04 -1.491824E+06 -3.988556E-09 -3.332972E-09
        16  18 -4.080158E+06 -6.852257E+05 -1.108857E+05 -1.512855E+06  3.010909E-09  3.027405E-09
        16  19 -3.363088E+06 -4.149967E+05  8.110178E+04 -1.317672E+06 -5.814165E+03  1.084109E+04
        16  20 -3.335095E+06 -3.912598E+05  8.963276E+04 -1.296449E+06 -8.590989E+03  1.183267E+04
        16  21 -3.288480E+06 -3.872044E+05  9.644353E+04 -1.296860E+06 -1.132745E+04  1.271219E+04
        16  22 -3.684317E+06 -5.357241E+05 -3.219407E+03 -1.405071E+06 -4.827290E+03  1.121178E+04
        16  23 -3.693661E+06 -5.261247E+05 -4.332893E+03 -1.394162E+06 -7.662877E+03  1.218172E+04
        16  24 -3.684394E+06 -5.362196E+05 -7.213977E+03 -1.404889E+06 -1.045795E+04  1.303961E+04
        16  25 -4.005444E+06 -6.564449E+05 -8.754913E+04 -1.492429E+06 -3.840981E+03  1.158227E+04
        16  26 -4.052101E+06 -6.609818E+05 -9.830949E+04 -1.491824E+06 -6.735357E+03  1.253055E+04
        16  27 -4.080157E+06 -6.852255E+05 -1.108852E+05 -1.512855E+06 -9.589070E+03  1.336680E+04
        17   1 -3.245938E+06 -3.701204E+05  1.059200E+05 -1.285368E+06  1.301140E+04 -1.314720E+04
        17   2 -3.222658E+06 -3.494101E+05  1.067699E+05 -1.266931E+06  2.170684E+04 -1.156563E+04
        17   3 -3.187020E+06 -3.506905E+05  9.986684E+04 -1.264883E+06  3.032325E+04 -9.768732E+03
        17   4 -3.685521E+06 -5.347979E+05 -9.283065E+03 -1.404455E+06  1.215718E+04 -1.346917E+04
        17   5 -3.692065E+06 -5.263806E+05 -1.631470E+04 -1.395289E+06  2.096190E+04 -1.184696E+04
        17   6 -3.686275E+06 -5.399805E+05 -3.119074E+04 -1.402514E+06  2.968713E+04 -1.000955E+04
        17   7 -4.124916E+06 -6.994638E+05 -1.245026E+05 -1.523464E+06  1.130362E+04 -1.379089E+04
        17   8 -4.161256E+06 -7.033370E+05 -1.394179E+05 -1.523559E+06  2.021758E+04 -1.212806E+04
        17   9 -4.185286E+06 -7.292534E+05 -1.622692E+05 -1.540044E+06  2.905156E+04 -1.025016E+04
        17  10 -3.245938E+06 -3.701206E+05  1.059194E+05 -1.285368E+06 -1.401705E-09  1.284585E-09
        17  11 -3.222659E+06 -3.494103E+05  1.067688E+05 -1.266931E+06 -2.880229E-09  9.179707E-10
        17  12 -3.187021E+06 -3.506909E+05  9.986493E+04 -1.264883E+06 -3.010825E-09  1.172563E-10
        17  13 -3.685521E+06 -5.347981E+05 -9.283683E+03 -1.404455E+06 -4.149407E-10  1.548231E-09
        17  14 -3.692065E+06 -5.263809E+05 -1.631579E+04 -1.395289E+06 -3.513630E-09  1.227496E-10
        17  15 -3.686276E+06 -5.399808E+05 -3.119259E+04 -1.402514E+06 -2.661225E-09 -7.747318E-11
        17  16 -4.124916E+06 -6.994641E+05 -1.245032E+05 -1.523464E+06  8.745738E-10  1.350953E-09
        17  17 -4.161257E+06 -7.033373E+05 -1.394189E+05 -1.523559E+06 -1.287609E-09 -7.108029E-10
        17  18 -4.185287E+06 -7.292537E+05 -1.622710E+05 -1.540043E+06  9.150348E-10 -3.472146E-10
        17  19 -3.245938E+06 -3.701204E+05  1.059200E+05 -1.285368E+06 -1.301140E+04  1.314720E+04
        17  20 -3.222658E+06 -3.494101E+05  1.067699E+05 -1.266931E+06 -2.170684E+04  1.156563E+04
        17  21 -3.187020E+06 -3.506905E+05  9.986684E+04 -1.264883E+06 -3.032325E+04  9.768732E+03
        17  22 -3.685521E+06 -5.347979E+05 -9.283065E+03 -1.404455E+06 -1.215718E+04  1.346917E+04
        17  23 -3.692065E+06 -5.263806E+05 -1.631470E+04 -1.395289E+06 -2.096190E+04  1.184696E+04
        17  24 -3.686275E+06 -5.399805E+05 -3.119074E+04 -1.402514E+06 -2.968713E+04  1.000955E+04
        17  25 -4.124916E+06 -6.994638E+05 -1.245026E+05 -1.523464E+06 -1.130362E+04  1.379089E+04
        17  26 -4.161256E+06 -7.033370E+05 -1.394179E+05 -1.523559E+06 -2.021758E+04  1.212806E+04
        17  27 -4.185286E+06 -7.292534E+05 -1.622692E+05 -1.540044E+06 -2.905156E+04  1.025016E+04
        18   1 -3.151035E+06 -3.363078E+05  9.982526E+04 -1.265971E+06  3.663562E+04 -8.374593E+03
        18   2 -3.132554E+06 -3.082867E+05  7.535476E+04 -1.241799E+06  7.277993E+04  4.060820E+03
        18   3 -3.131030E+06 -3.552003E+05  6.910443E+03 -1.214901E+06  1.084602E+05  1.773208E+04
        18   4 -3.689998E+06 -5.320542E+05 -4.016318E+04 -1.405695E+06  3.573015E+04 -8.716659E+03
        18   5 -3.685265E+06 -5.207890E+05 -7.034828E+04 -1.397177E+06  7.250536E+04  3.955184E+03
        18   6 -3.697641E+06 -5.846233E+05 -1.450402E+05 -1.385930E+06  1.088154E+05  1.786139E+04
        18   7 -4.228679E+06 -7.277883E+05 -1.801764E+05 -1.545311E+06  3.482553E+04 -9.058432E+03
        18   8 -4.237679E+06 -7.332693E+05 -2.160779E+05 -1.552428E+06  7.223103E+04  3.849644E+03
        18   9 -4.263937E+06 -8.140127E+05 -2.970194E+05 -1.556813E+06  1.091702E+05  1.799052E+04
        18  10 -3.151037E+06 -3.363083E+05  9.982259E+04 -1.265971E+06  1.085631E-09  1.831881E-10
        18  11 -3.132560E+06 -3.082882E+05  7.534472E+04 -1.241799E+06  1.236588E-09 -1.315926E-09
        18  12 -3.131042E+06 -3.552038E+05  6.887621E+03 -1.214903E+06  1.033190E-09 -8.859127E-10
        18  13 -3.689999E+06 -5.320546E+05 -4.016574E+04 -1.405695E+06  1.221095E-10 -5.579626E-10
        18  14 -3.685271E+06 -5.207905E+05 -7.035825E+04 -1.397177E+06 -1.782696E-09 -1.680053E-09
        18  15 -3.697653E+06 -5.846269E+05 -1.450632E+05 -1.385932E+06  1.330345E-09 -8.667331E-10
        18  16 -4.228680E+06 -7.277887E+05 -1.801788E+05 -1.545311E+06 -2.675546E-09 -1.443096E-09
        18  17 -4.237684E+06 -7.332707E+05 -2.160878E+05 -1.552428E+06  9.787092E-10 -1.578123E-09
        18  18 -4.263950E+06 -8.140163E+05 -2.970425E+05 -1.556814E+06 -6.684323E-10 -1.680883E-10
        18  19 -3.151035E+06 -3.363078E+05  9.982526E+04 -1.265971E+06 -3.663562E+04  8.374593E+03
        18  20 -3.132554E+06 -3.082867E+05  7.535476E+04 -1.241799E+06 -7.277993E+04 -4.060820E+03
        18  21 -3.131030E+06 -3.552003E+05  6.910443E+03 -1.214901E+06 -1.084602E+05 -1.773208E+04
        18  22 -3.689998E+06 -5.320542E+05 -4.016318E+04 -1.405695E+06 -3.573015E+04  8.716659E+03
        18  23 -3.685265E+06 -5.207890E+05 -7.034828E+04 -1.397177E+06 -7.250536E+04 -3.955184E+03
        18  24 -3.697641E+06 -5.846233E+05 -1.450402E+05 -1.385930E+06 -1.088154E+05 -1.786139E+04
        18  25 -4.228679E+06 -7.277883E+05 -1.801764E+05 -1.545311E+06 -3.482553E+04  9.058432E+03
        18  26 -4.237679E+06 -7.332693E+05 -2.160779E+05 -1.552428E+06 -7.223103E+04 -3.849644E+03
        18  27 -4.263937E+06 -8.140127E+05 -2.970194E+05 -1.556813E+06 -1.091702E+05 -1.799052E+04
        19   1 -3.070348E+06 -3.367796E+05 -2.183791E+04 -1.319736E+06  1.387806E+05  2.624752E+04
        19   2 -3.058033E+06 -1.892171E+05 -1.382601E+05 -1.195876E+06  2.932910E+05  8.491336E+04
        19   3 -3.296906E+06 -6.756493E+05 -5.423382E+05 -9.151732E+05  4.419486E+05  1.590732E+05
        19   4 -3.721662E+06 -5.121226E+05 -1.789528E+05 -1.426112E+06  1.346567E+05  2.470651E+04
        19   5 -3.633303E+06 -4.570672E+05 -2.987119E+05 -1.405298E+06  2.973129E+05  8.640332E+04
        19   6 -3.798037E+06 -1.038055E+06 -7.128240E+05 -1.227552E+06  4.541323E+05  1.635326E+05
        19   7 -4.372553E+06 -6.874758E+05 -3.360945E+05 -1.532409E+06  1.305375E+05  2.316613E+04
        19   8 -4.208242E+06 -7.248422E+05 -4.591938E+05 -1.614525E+06  3.013306E+05  8.789083E+04
        19   9 -4.298848E+06 -1.400172E+06 -8.833259E+05 -1.539636E+06  4.663052E+05  1.679793E+05
        19  10 -3.070369E+06 -3.367856E+05 -2.187561E+04 -1.319739E+06  2.864216E-09  2.616339E-10
        19  11 -3.058128E+06 -1.892482E+05 -1.384363E+05 -1.195896E+06  1.418318E-09  1.171170E-10
        19  12 -3.297124E+06 -6.757294E+05 -5.427552E+05 -9.152300E+05  1.694810E-09  3.387101E-10
        19  13 -3.721682E+06 -5.121281E+05 -1.789883E+05 -1.426115E+06  5.516976E-10  9.001345E-10
        19  14 -3.633401E+06 -4.570992E+05 -2.988932E+05 -1.405318E+06  6.479657E-10  1.839758E-09
        19  15 -3.798267E+06 -1.038140E+06 -7.132648E+05 -1.227612E+06  2.974290E-11  1.819027E-11
        19  16 -4.372572E+06 -6.874810E+05 -3.361278E+05 -1.532411E+06 -1.925936E-09  3.010064E-10
        19  17 -4.208342E+06 -7.248752E+05 -4.593804E+05 -1.614546E+06 -5.517048E-09  1.482401E-09
        19  18 -4.299090E+06 -1.400262E+06 -8.837912E+05 -1.539700E+06 -6.680383E-11  1.060353E-10
        19  19 -3.070348E+06 -3.367796E+05 -2.183791E+04 -1.319736E+06 -1.387806E+05 -2.624752E+04
        19  20 -3.058033E+06 -1.892171E+05 -1.382601E+05 -1.195876E+06 -2.932910E+05 -8.491336E+04
        19  21 -3.296906E+06 -6.756493E+05 -5.423382E+05 -9.151732E+05 -4.419486E+05 -1.590732E+05
        19  22 -3.721662E+06 -5.121226E+05 -1.789528E+05 -1.426112E+06 -1.346567E+05 -2.470651E+04
        19  23 -3.633303E+06 -4.570672E+05 -2.987119E+05 -1.405298E+06 -2.973129E+05 -8.640332E+04
        19  24 -3.798037E+06 -1.038055E+06 -7.128240E+05 -1.227552E+06 -4.541323E+05 -1.635326E+05
        19  25 -4.372553E+06 -6.874758E+05 -3.360945E+05 -1.532409E+06 -1.305375E+05 -2.316613E+04
        19  26 -4.208242E+06 -7.248422E+05 -4.591938E+05 -1.614525E+06 -3.013306E+05 -8.789083E+04
        19  27 -4.298848E+06 -1.400172E+06 -8.833259E+05 -1.539636E+06 -4.663052E+05 -1.679793E+05
        20   1 -1.171029E+06  3.547231E+04  4.442623E+04  1.237369E+04  3.038497E+04  6.066962E-01
        20   2 -1.176982E+06 -4.228304E+03  1.957463E+04  3.704059E+03  1.985790E+04  1.186933E-01
        20   3 -1.171051E+06 -1.904736E+03  1.209262E+04 -4.965358E+03  9.330955E+03 -7.476318E-02
        20   4 -1.171029E+06  3.547202E+04  4.442619E+04 -2.639454E-09  3.038497E+04  5.123763E-10
        20   5 -1.176982E+06 -4.228330E+03  1.957463E+04  2.306388E-09  1.985790E+04  8.285692E-10
        20   6 -1.171051E+06 -1.904782E+03  1.209261E+04  2.394380E-08  9.330955E+03 -1.021293E-09
        20   7 -1.171029E+06  3.547231E+04  4.442623E+04 -1.237369E+04  3.038497E+04 -6.066962E-01
        20   8 -1.176982E+06 -4.228304E+03  1.957463E+04 -3.704059E+03  1.985790E+04 -1.186933E-01
        20   9 -1.171051E+06 -1.904736E+03  1.209262E+04  4.965358E+03  9.330955E+03  7.476318E-02
        20  10 -1.171030E+06  3.547206E+04  4.442450E+04  1.237369E+04 -2.950919E-10  4.751004E-10
        20  11 -1.176983E+06 -4.228410E+03  1.957389E+04  3.704059E+03  5.953039E-11  5.730315E-10
        20  12 -1.171051E+06 -1.904759E+03  1.209246E+04 -4.965358E+03  1.592920E-09 -9.526915E-10
        20  13 -1.171030E+06  3.547178E+04  4.442445E+04 -2.607944E-09  3.319307E-09  1.489836E-10
        20  14 -1.176983E+06 -4.228436E+03  1.957389E+04  4.431959E-09 -3.229447E-09  1.650722E-10
        20  15 -1.171051E+06 -1.904806E+03  1.209245E+04  2.864594E-09  4.233793E-10 -5.475754E-10
        20  16 -1.171030E+06  3.547206E+04  4.442450E+04 -1.237369E+04  1.217127E-09 -1.292330E-10
        20  17 -1.176983E+06 -4.228410E+03  1.957389E+04 -3.704059E+03 -8.868714E-11 -1.619445E-10
        20  18 -1.171051E+06 -1.904759E+03  1.209246E+04  4.965358E+03 -1.103791E-11 -2.664243E-10
        20  19 -1.171029E+06  3.547231E+04  4.442623E+04  1.237369E+04 -3.038497E+04 -6.066962E-01
        20  20 -1.176982E+06 -4.228304E+03  1.957463E+04  3.704059E+03 -1.985790E+04 -1.186933E-01
        20  21 -1.171051E+06 -1.904736E+03  1.209262E+04 -4.965358E+03 -9.330955E+03  7.476318E-02
        20  22 -1.171029E+06  3.547202E+04  4.442619E+04 -2.570113E-09 -3.038497E+04 -1.789490E-10
        20  23 -1.176982E+06 -4.228330E+03  1.957463E+04  2.254898E-09 -1.985790E+04 -5.048294E-10
        20  24 -1.171051E+06 -1.904782E+03  1.209261E+04  2.806892E-08 -9.330955E+03 -8.780449E-11
        20  25 -1.171029E+06  3.547231E+04  4.442623E+04 -1.237369E+04 -3.038497E+04  6.066962E-01
        20  26 -1.176982E+06 -4.228304E+03  1.957463E+04 -3.704059E+03 -1.985790E+04  1.186933E-01
        20  27 -1.171051E+06 -1.904736E+03  1.209262E+04  4.965358E+03 -9.330955E+03 -7.476318E-02
        21   1 -1.173390E+06  3.349033E+03  9.822436E+03  1.027989E+03  7.485921E+03  1.241785E-02
        21   2 -1.174062E+06 -4.228191E+02  5.055587E+03  2.587809E+02  4.907643E+03  2.049360E-03
        21   3 -1.173393E+06 -1.801632E+02  2.973387E+03 -5.104392E+02  2.329333E+03 -1.918615E-03
        21   4 -1.173390E+06  3.349031E+03  9.822435E+03  1.182287E-08  7.485921E+03 -1.258791E-09
        21   5 -1.174062E+06 -4.228193E+02  5.055587E+03  9.724525E-09  4.907643E+03  3.854964E-10
        21   6 -1.173393E+06 -1.801637E+02  2.973387E+03 -5.290327E-09  2.329333E+03  1.047997E-09
        21   7 -1.173390E+06  3.349033E+03  9.822436E+03 -1.027989E+03  7.485921E+03 -1.241785E-02
        21   8 -1.174062E+06 -4.228191E+02  5.055587E+03 -2.587809E+02  4.907643E+03 -2.049360E-03
        21   9 -1.173393E+06 -1.801632E+02  2.973387E+03  5.104392E+02  2.329333E+03  1.918617E-03
        21  10 -1.173390E+06  3.349018E+03  9.822330E+03  1.027989E+03 -8.300261E-11 -1.020692E-09
        21  11 -1.174062E+06 -4.228256E+02  5.055541E+03  2.587809E+02 -3.731770E-10  2.014192E-10
        21  12 -1.173393E+06 -1.801646E+02  2.973376E+03 -5.104392E+02 -1.316773E-09 -9.749089E-10
        21  13 -1.173390E+06  3.349016E+03  9.822330E+03  3.297328E-09 -2.007812E-09 -5.463326E-10
        21  14 -1.174062E+06 -4.228257E+02  5.055541E+03 -5.343845E-09 -2.577700E-09 -1.298438E-11
        21  15 -1.173393E+06 -1.801651E+02  2.973376E+03  4.329545E-09 -1.285413E-09 -4.668241E-10
        21  16 -1.173390E+06  3.349018E+03  9.822330E+03 -1.027989E+03  2.416042E-11 -1.921140E-10
        21  17 -1.174062E+06 -4.228256E+02  5.055541E+03 -2.587809E+02 -1.904093E-09 -1.621622E-10
        21  18 -1.173393E+06 -1.801646E+02  2.973376E+03  5.104392E+02  1.666411E-09  2.757143E-11
        21  19 -1.173390E+06  3.349033E+03  9.822436E+03  1.027989E+03 -7.485921E+03 -1.241785E-02
        21  20 -1.174062E+06 -4.228191E+02  5.055587E+03  2.587809E+02 -4.907643E+03 -2.049360E-03
        21  21 -1.173393E+06 -1.801632E+02  2.973387E+03 -5.104392E+02 -2.329333E+03  1.918613E-03
        21  22 -1.173390E+06  3.349031E+03  9.822435E+03 -9.559294E-09 -7.485921E+03  1.756843E-10
        21  23 -1.174062E+06 -4.228193E+02  5.055587E+03 -1.180156E-08 -4.907643E+03 -3.874199E-10
        21  24 -1.173393E+06 -1.801637E+02  2.973387E+03  8.021518E-09 -2.329333E+03 -1.960327E-09
        21  25 -1.173390E+06  3.349033E+03  9.822436E+03 -1.027989E+03 -7.485921E+03  1.241785E-02
        21  26 -1.174062E+06 -4.228191E+02  5.055587E+03 -2.587809E+02 -4.907643E+03  2.049359E-03
        21  27 -1.173393E+06 -1.801632E+02  2.973387E+03  5.104392E+02 -2.329333E+03 -1.918617E-03
        22   1 -1.173651E+06  3.085107E+02  2.307427E+03  5.903805E+01  1.864230E+03  1.776006E-04
        22   2 -1.173740E+06 -4.469987E+01  1.247511E+03  1.960010E-01  1.240540E+03  3.920765E-07
        22   3 -1.173652E+06 -1.667216E+01  6.895314E+02 -5.864607E+01  6.168515E+02 -5.837511E-05
        22   4 -1.173651E+06  3.085107E+02  2.307427E+03  1.720366E-08  1.864230E+03  9.489125E-11
        22   5 -1.173740E+06 -4.469987E+01  1.247511E+03  1.105474E-08  1.240540E+03 -1.192033E-09
        22   6 -1.173652E+06 -1.667216E+01  6.895314E+02  1.566207E-08  6.168515E+02  3.719808E-10
        22   7 -1.173651E+06  3.085107E+02  2.307427E+03 -5.903805E+01  1.864230E+03 -1.776003E-04
        22   8 -1.173740E+06 -4.469987E+01  1.247511E+03 -1.960010E-01  1.240540E+03 -3.946766E-07
        22   9 -1.173652E+06 -1.667216E+01  6.895314E+02  5.864607E+01  6.168515E+02  5.837602E-05
        22  10 -1.173651E+06  3.085097E+02  2.307421E+03  5.903805E+01 -1.374231E-09 -5.505374E-10
        22  11 -1.173740E+06 -4.470028E+01  1.247508E+03  1.960010E-01  2.193890E-09  1.443114E-09
        22  12 -1.173652E+06 -1.667226E+01  6.895307E+02 -5.864607E+01 -6.005140E-10  9.575729E-11
        22  13 -1.173651E+06  3.085097E+02  2.307421E+03  1.301653E-08 -1.009219E-09 -3.603455E-10
        22  14 -1.173740E+06 -4.470028E+01  1.247508E+03  2.467197E-09  3.182963E-10  4.477453E-10
        22  15 -1.173652E+06 -1.667227E+01  6.895307E+02 -4.844345E-09 -1.647027E-09  4.202593E-10
        22  16 -1.173651E+06  3.085097E+02  2.307421E+03 -5.903805E+01  1.867821E-09 -1.697448E-10
        22  17 -1.173740E+06 -4.470028E+01  1.247508E+03 -1.960010E-01 -3.184810E-10 -3.523525E-10
        22  18 -1.173652E+06 -1.667226E+01  6.895307E+02  5.864607E+01  9.773562E-10  6.607637E-10
        22  19 -1.173651E+06  3.085107E+02  2.307427E+03  5.903805E+01 -1.864230E+03 -1.776014E-04
        22  20 -1.173740E+06 -4.469987E+01  1.247511E+03  1.960010E-01 -1.240540E+03 -3.891345E-07
        22  21 -1.173652E+06 -1.667216E+01  6.895314E+02 -5.864607E+01 -6.168515E+02  5.837595E-05
        22  22 -1.173651E+06  3.085107E+02  2.307427E+03  3.035134E-08 -1.864230E+03 -8.007557E-10
        22  23 -1.173740E+06 -4.469987E+01  1.247511E+03 -1.802937E-09 -1.240540E+03  2.203362E-09
        22  24 -1.173652E+06 -1.667216E+01  6.895314E+02  8.557874E-09 -6.168515E+02  4.583870E-10
        22  25 -1.173651E+06  3.085107E+02  2.307427E+03 -5.903805E+01 -1.864230E+03  1.775997E-04
        22  26 -1.173740E+06 -4.469987E+01  1.247511E+03 -1.960010E-01 -1.240540E+03  3.934515E-07
        22  27 -1.173652E+06 -1.667216E+01  6.895314E+02  5.864607E+01 -6.168515E+02 -5.837529E-05
        23   1 -1.173687E+06  2.663574E+01  4.998262E+02 -5.829842E+00  5.103259E+02 -4.799769E-06
        23   2 -1.173697E+06 -4.251339E+00  2.038408E+02 -8.743343E+00  4.090584E+02 -5.769948E-06
        23   3 -1.173687E+06 -4.025445E+00 -1.834612E+01 -1.165680E+01  3.077925E+02 -5.789199E-06
        23   4 -1.173687E+06  2.663574E+01  4.998262E+02  6.714215E-09  5.103259E+02  1.265785E-09
        23   5 -1.173697E+06 -4.251339E+00  2.038408E+02 -9.120242E-09  4.090584E+02  8.187143E-10
        23   6 -1.173687E+06 -4.025445E+00 -1.834612E+01  6.273285E-09  3.077925E+02  4.892491E-10
        23   7 -1.173687E+06  2.663574E+01  4.998262E+02  5.829842E+00  5.103259E+02  4.802275E-06
        23   8 -1.173697E+06 -4.251339E+00  2.038408E+02  8.743343E+00  4.090584E+02  5.771647E-06
        23   9 -1.173687E+06 -4.025445E+00 -1.834612E+01  1.165680E+01  3.077925E+02  5.789998E-06
        23  10 -1.173687E+06  2.663567E+01  4.998257E+02 -5.829842E+00 -5.168693E-10 -5.773472E-10
        23  11 -1.173697E+06 -4.251384E+00  2.038404E+02 -8.743343E+00 -1.267597E-09  8.604680E-11
        23  12 -1.173687E+06 -4.025471E+00 -1.834630E+01 -1.165680E+01 -2.481126E-09  5.479596E-10
        23  13 -1.173687E+06  2.663567E+01  4.998257E+02 -1.996272E-09  8.811222E-10 -9.922872E-11
        23  14 -1.173697E+06 -4.251384E+00  2.038404E+02  1.029290E-08  2.121533E-10 -2.853983E-10
        23  15 -1.173687E+06 -4.025471E+00 -1.834630E+01  2.580936E-08  3.577410E-10  7.625256E-10
        23  16 -1.173687E+06  2.663567E+01  4.998257E+02  5.829842E+00 -4.104853E-10  3.807866E-10
        23  17 -1.173697E+06 -4.251384E+00  2.038404E+02  8.743343E+00  9.415173E-10 -6.567973E-10
        23  18 -1.173687E+06 -4.025471E+00 -1.834630E+01  1.165680E+01  8.875189E-10  1.027607E-09
        23  19 -1.173687E+06  2.663574E+01  4.998262E+02 -5.829842E+00 -5.103259E+02  4.798783E-06
        23  20 -1.173697E+06 -4.251339E+00  2.038408E+02 -8.743343E+00 -4.090584E+02  5.770419E-06
        23  21 -1.173687E+06 -4.025445E+00 -1.834612E+01 -1.165680E+01 -3.077925E+02  5.790368E-06
        23  22 -1.173687E+06  2.663574E+01  4.998262E+02  1.084565E-08 -5.103259E+02 -1.518864E-09
        23  23 -1.173697E+06 -4.251339E+00  2.038408E+02  8.177796E-09 -4.090584E+02 -1.501739E-09
        23  24 -1.173687E+06 -4.025445E+00 -1.834612E+01  1.197819E-08 -3.077925E+02  1.015651E-09
        23  25 -1.173687E+06  2.663574E+01  4.998262E+02  5.829842E+00 -5.103259E+02 -4.802009E-06
        23  26 -1.173697E+06 -4.251339E+00  2.038408E+02  8.743343E+00 -4.090584E+02 -5.773319E-06
        23  27 -1.173687E+06 -4.025445E+00 -1.834612E+01  1.165680E+01 -3.077925E+02 -5.788294E-06
        24   1 -1.173700E+06  3.887587E+00 -1.261198E+02 -1.381433E+01  3.208328E+02 -7.151661E-06
        24   2 -1.173681E+06  7.020443E+00 -3.819216E+02 -1.043994E+01  5.103708E+02 -8.597675E-06
        24   3 -1.173700E+06 -3.844337E+01 -7.734427E+02 -7.065499E+00  6.999115E+02 -7.980395E-06
        24   4 -1.173700E+06  3.887587E+00 -1.261198E+02 -8.931404E-09  3.208328E+02  3.769965E-10
        24   5 -1.173681E+06  7.020443E+00 -3.819216E+02 -2.644936E-09  5.103708E+02  1.652424E-10
        24   6 -1.173700E+06 -3.844337E+01 -7.734427E+02  3.644685E-09  6.999115E+02 -5.218797E-10
        24   7 -1.173700E+06  3.887587E+00 -1.261198E+02  1.381433E+01  3.208328E+02  7.152775E-06
        24   8 -1.173681E+06  7.020443E+00 -3.819216E+02  1.043994E+01  5.103708E+02  8.597817E-06
        24   9 -1.173700E+06 -3.844337E+01 -7.734427E+02  7.065499E+00  6.999115E+02  7.979429E-06
        24  10 -1.173700E+06  3.887559E+00 -1.261200E+02 -1.381433E+01  6.071585E-10  3.033902E-10
        24  11 -1.173681E+06  7.020373E+00 -3.819221E+02 -1.043994E+01 -1.633365E-10 -1.795539E-10
        24  12 -1.173700E+06 -3.844350E+01 -7.734436E+02 -7.065499E+00 -1.660063E-09 -1.985926E-10
        24  13 -1.173700E+06  3.887559E+00 -1.261200E+02  8.151235E-09 -1.110088E-09  7.578189E-10
        24  14 -1.173681E+06  7.020373E+00 -3.819221E+02  1.240246E-08 -1.394659E-09 -3.286942E-10
        24  15 -1.173700E+06 -3.844350E+01 -7.734436E+02  1.581068E-09 -1.667108E-09 -2.084484E-11
        24  16 -1.173700E+06  3.887559E+00 -1.261200E+02  1.381433E+01 -8.029713E-10  1.197073E-09
        24  17 -1.173681E+06  7.020373E+00 -3.819221E+02  1.043994E+01 -9.701146E-10 -5.443847E-10
        24  18 -1.173700E+06 -3.844350E+01 -7.734436E+02  7.065499E+00  5.868734E-10  8.783767E-11
        24  19 -1.173700E+06  3.887587E+00 -1.261198E+02 -1.381433E+01 -3.208328E+02  7.152892E-06
        24  20 -1.173681E+06  7.020443E+00 -3.819216E+02 -1.043994E+01 -5.103708E+02  8.597569E-06
        24  21 -1.173700E+06 -3.844337E+01 -7.734427E+02 -7.065499E+00 -6.999115E+02  7.980372E-06
        24  22 -1.173700E+06  3.887587E+00 -1.261198E+02  7.997827E-09 -3.208328E+02  1.053657E-09
        24  23 -1.173681E+06  7.020443E+00 -3.819216E+02  1.452282E-08 -5.103708E+02 -8.375343E-10
        24  24 -1.173700E+06 -3.844337E+01 -7.734427E+02  1.134491E-08 -6.999115E+02  5.225657E-10
        24  25 -1.173700E+06  3.887587E+00 -1.261198E+02  1.381433E+01 -3.208328E+02 -7.150269E-06
        24  26 -1.173681E+06  7.020443E+00 -3.819216E+02  1.043994E+01 -5.103708E+02 -8.599154E-06
        24  27 -1.173700E+06 -3.844337E+01 -7.734427E+02  7.065498E+00 -6.999115E+02 -7.979505E-06
        25   1 -1.173749E+06  2.416205E+01 -1.036008E+03 -8.395485E+01  8.620579E+02 -1.167871E-04
        25   2 -1.173621E+06  6.487322E+01 -1.827569E+03  8.964548E-01  1.775624E+03  2.568992E-06
        25   3 -1.173750E+06 -4.466357E+02 -3.352797E+03  8.574782E+01  2.689189E+03  3.720980E-04
        25   4 -1.173749E+06  2.416204E+01 -1.036008E+03  6.738060E-09  8.620579E+02 -3.878315E-10
        25   5 -1.173621E+06  6.487322E+01 -1.827569E+03 -3.578946E-09  1.775624E+03  3.408997E-10
        25   6 -1.173750E+06 -4.466357E+02 -3.352797E+03 -1.512399E-09  2.689189E+03  3.241276E-10
        25   7 -1.173749E+06  2.416205E+01 -1.036008E+03  8.395485E+01  8.620579E+02  1.167865E-04
        25   8 -1.173621E+06  6.487322E+01 -1.827569E+03 -8.964548E-01  1.775624E+03 -2.568835E-06
        25   9 -1.173750E+06 -4.466357E+02 -3.352797E+03 -8.574782E+01  2.689189E+03 -3.720971E-04
        25  10 -1.173749E+06  2.416185E+01 -1.036009E+03 -8.395485E+01  1.956180E-10  1.337850E-11
        25  11 -1.173621E+06  6.487237E+01 -1.827575E+03  8.964548E-01  1.830794E-09 -3.916433E-11
        25  12 -1.173750E+06 -4.466376E+02 -3.352811E+03  8.574782E+01 -2.645629E-09 -4.245156E-10
        25  13 -1.173749E+06  2.416184E+01 -1.036009E+03 -6.258328E-09 -8.643957E-10  9.031876E-11
        25  14 -1.173621E+06  6.487237E+01 -1.827575E+03  7.185100E-10 -1.952563E-10 -2.812484E-10
        25  15 -1.173750E+06 -4.466376E+02 -3.352811E+03 -6.307111E-09 -3.069389E-09  8.629311E-11
        25  16 -1.173749E+06  2.416185E+01 -1.036009E+03  8.395485E+01 -2.124298E-10  1.111194E-10
        25  17 -1.173621E+06  6.487237E+01 -1.827575E+03 -8.964548E-01  7.462690E-10 -4.919819E-10
        25  18 -1.173750E+06 -4.466376E+02 -3.352811E+03 -8.574782E+01  7.227824E-10  5.715074E-10
        25  19 -1.173749E+06  2.416205E+01 -1.036008E+03 -8.395485E+01 -8.620579E+02  1.167877E-04
        25  20 -1.173621E+06  6.487322E+01 -1.827569E+03  8.964548E-01 -1.775624E+03 -2.568957E-06
        25  21 -1.173750E+06 -4.466357E+02 -3.352797E+03  8.574782E+01 -2.689189E+03 -3.720984E-04
        25  22 -1.173749E+06  2.416204E+01 -1.036008E+03  6.595160E-09 -8.620579E+02  5.827716E-10
        25  23 -1.173621E+06  6.487322E+01 -1.827569E+03 -7.897417E-09 -1.775624E+03 -9.196197E-10
        25  24 -1.173750E+06 -4.466357E+02 -3.352797E+03  2.011674E-08 -2.689189E+03 -1.566899E-10
        25  25 -1.173749E+06  2.416205E+01 -1.036008E+03  8.395485E+01 -8.620579E+02 -1.167864E-04
        25  26 -1.173621E+06  6.487322E+01 -1.827569E+03 -8.964548E-01 -1.775624E+03  2.567107E-06
        25  27 -1.173750E+06 -4.466357E+02 -3.352797E+03 -8.574782E+01 -2.689189E+03  3.720977E-04
        26   1 -1.174123E+06  2.608902E+02 -4.313876E+03 -7.387240E+02  3.364477E+03 -4.010630E-03
        26   2 -1.173155E+06  6.121738E+02 -7.324114E+03  3.748094E+02  7.099750E+03  4.294034E-03
        26   3 -1.174128E+06 -4.848483E+03 -1.422254E+04  1.488328E+03  1.083495E+04  2.602184E-02
        26   4 -1.174123E+06  2.608892E+02 -4.313877E+03  1.201514E-08  3.364477E+03 -3.224526E-10
        26   5 -1.173155E+06  6.121736E+02 -7.324114E+03  7.192292E-09  7.099750E+03 -6.760737E-10
        26   6 -1.174128E+06 -4.848487E+03 -1.422254E+04  7.213531E-09  1.083495E+04  9.838792E-10
        26   7 -1.174123E+06  2.608902E+02 -4.313876E+03  7.387240E+02  3.364477E+03  4.010629E-03
        26   8 -1.173155E+06  6.121738E+02 -7.324114E+03 -3.748094E+02  7.099750E+03 -4.294035E-03
        26   9 -1.174128E+06 -4.848483E+03 -1.422254E+04 -1.488328E+03  1.083495E+04 -2.602183E-02
        26  10 -1.174123E+06  2.608872E+02 -4.313898E+03 -7.387240E+02  6.995189E-10 -7.027853E-10
        26  11 -1.173155E+06  6.121603E+02 -7.324209E+03  3.748094E+02 -7.497333E-10 -1.446042E-10
        26  12 -1.174128E+06 -4.848515E+03 -1.422276E+04  1.488328E+03 -9.908877E-10  1.588020E-09
        26  13 -1.174123E+06  2.608861E+02 -4.313898E+03  7.603152E-09 -2.085674E-09 -7.296870E-11
        26  14 -1.173155E+06  6.121600E+02 -7.324209E+03  5.066677E-09  4.236076E-10 -5.046122E-10
        26  15 -1.174128E+06 -4.848519E+03 -1.422277E+04 -7.013154E-10 -4.328692E-11  4.934117E-10
        26  16 -1.174123E+06  2.608872E+02 -4.313898E+03  7.387240E+02 -2.327378E-10  4.411342E-10
        26  17 -1.173155E+06  6.121603E+02 -7.324209E+03 -3.748094E+02 -4.324700E-10 -8.334051E-10
        26  18 -1.174128E+06 -4.848515E+03 -1.422276E+04 -1.488328E+03  9.896328E-10 -5.955215E-10
        26  19 -1.174123E+06  2.608902E+02 -4.313876E+03 -7.387240E+02 -3.364477E+03  4.010628E-03
        26  20 -1.173155E+06  6.121738E+02 -7.324114E+03  3.748094E+02 -7.099750E+03 -4.294034E-03
        26  21 -1.174128E+06 -4.848483E+03 -1.422254E+04  1.488328E+03 -1.083495E+04 -2.602183E-02
        26  22 -1.174123E+06  2.608892E+02 -4.313877E+03  2.042303E-08 -3.364477E+03  1.700252E-10
        26  23 -1.173155E+06  6.121736E+02 -7.324114E+03  7.245885E-09 -7.099750E+03 -3.121437E-10
        26  24 -1.174128E+06 -4.848487E+03 -1.422254E+04  1.076130E-08 -1.083495E+04 -3.772386E-11
        26  25 -1.174123E+06  2.608902E+02 -4.313876E+03  7.387240E+02 -3.364477E+03 -4.010628E-03
        26  26 -1.173155E+06  6.121738E+02 -7.324114E+03 -3.748094E+02 -7.099750E+03  4.294033E-03
        26  27 -1.174128E+06 -4.848483E+03 -1.422254E+04 -1.488328E+03 -1.083495E+04  2.602183E-02
        27   1 -1.177513E+06  2.757794E+03 -1.750792E+04 -7.188432E+03  1.350620E+04 -1.566686E-01
        27   2 -1.168926E+06  6.121559E+03 -2.833625E+04  5.362716E+03  2.874710E+04  2.487640E-01
        27   3 -1.177544E+06 -5.135264E+04 -6.430965E+04  1.791386E+04  4.398828E+04  1.271563E+00
        27   4 -1.177513E+06  2.757696E+03 -1.750793E+04  1.164125E-08  1.350620E+04  9.950914E-10
        27   5 -1.168927E+06  6.121505E+03 -2.833626E+04  6.595548E-09  2.874710E+04 -8.784364E-10
        27   6 -1.177544E+06 -5.135324E+04 -6.430973E+04  4.232236E-09  4.398828E+04 -6.062856E-10
        27   7 -1.177513E+06  2.757794E+03 -1.750792E+04  7.188432E+03  1.350620E+04  1.566686E-01
        27   8 -1.168926E+06  6.121559E+03 -2.833625E+04 -5.362716E+03  2.874710E+04 -2.487640E-01
        27   9 -1.177544E+06 -5.135264E+04 -6.430965E+04 -1.791386E+04  4.398828E+04 -1.271563E+00
        27  10 -1.177513E+06  2.757745E+03 -1.750826E+04 -7.188432E+03  8.159891E-10  1.257857E-09
        27  11 -1.168927E+06  6.121337E+03 -2.833781E+04  5.362716E+03  6.105044E-10 -1.055669E-09
        27  12 -1.177546E+06 -5.135316E+04 -6.431329E+04  1.791386E+04  1.530176E-10 -6.351624E-10
        27  13 -1.177513E+06  2.757647E+03 -1.750828E+04  1.581999E-08 -2.573842E-09  5.325188E-10
        27  14 -1.168927E+06  6.121283E+03 -2.833781E+04  8.712811E-09  4.450171E-10 -5.342511E-10
        27  15 -1.177546E+06 -5.135376E+04 -6.431338E+04 -3.772794E-09  8.767524E-10 -2.925628E-10
        27  16 -1.177513E+06  2.757745E+03 -1.750826E+04  7.188432E+03 -2.212358E-09 -1.925145E-10
        27  17 -1.168927E+06  6.121337E+03 -2.833781E+04 -5.362716E+03 -1.470458E-09  8.935614E-11
        27  18 -1.177546E+06 -5.135316E+04 -6.431329E+04 -1.791386E+04 -1.475253E-10  2.423339E-11
        27  19 -1.177513E+06  2.757794E+03 -1.750792E+04 -7.188432E+03 -1.350620E+04  1.566686E-01
        27  20 -1.168926E+06  6.121559E+03 -2.833625E+04  5.362716E+03 -2.874710E+04 -2.487640E-01
        27  21 -1.177544E+06 -5.135264E+04 -6.430965E+04  1.791386E+04 -4.398828E+04 -1.271563E+00
        27  22 -1.177513E+06  2.757696E+03 -1.750793E+04  1.569495E-08 -1.350620E+04  6.124317E-11
        27  23 -1.168927E+06  6.121505E+03 -2.833626E+04  6.524119E-09 -2.874710E+04 -1.066146E-10
        27  24 -1.177544E+06 -5.135324E+04 -6.430973E+04  5.939340E-10 -4.398828E+04  4.078156E-11
        27  25 -1.177513E+06  2.757794E+03 -1.750792E+04  7.188432E+03 -1.350620E+04 -1.566686E-01
        27  26 -1.168926E+06  6.121559E+03 -2.833625E+04 -5.362716E+03 -2.874710E+04  2.487640E-01
        27  27 -1.177544E+06 -5.135264E+04 -6.430965E+04 -1.791386E+04 -4.398828E+04  1.271563E+00
        28   1  5.531329E+05  1.547337E+06  6.388336E+05 -1.258764E+05  9.266779E+03  3.054468E+05
        28   2  1.638751E+05  1.479101E+06  3.929744E+05 -3.884367E+04  2.918009E+04  1.889519E+05
        28   3  1.865419E+05  1.529506E+06  3.259605E+05  4.296695E+04  3.019527E+04  7.245505E+04
        28   4  3.439303E+05  7.067746E+05  4.324893E+05 -4.946464E+03  9.329246E+03  2.882806E+05
        28   5 -4.140824E+04  6.483923E+05  1.965428E+05 -2.402061E+03  2.919718E+04  1.828027E+05
        28   6 -1.646643E+04  7.068736E+05  1.319522E+05 -5.071245E+03  3.018740E+04  7.731854E+04
        28   7  1.347302E+05 -1.331140E+05  2.261019E+05  1.158199E+05  9.385111E+03  2.711374E+05
        28   8 -2.467360E+05 -1.816805E+05  6.416645E+01  3.399071E+04  2.921357E+04  1.766615E+05
        28   9 -2.195143E+05 -1.151326E+05 -6.210144E+04 -5.304541E+04  3.017876E+04  8.217559E+04
        28  10  5.531079E+05  1.547237E+06  6.386586E+05 -1.258787E+05  3.839683E-10 -5.989847E-10
        28  11  1.638646E+05  1.479062E+06  3.929059E+05 -3.884811E+04 -2.571397E-10  2.574333E-09
        28  12  1.865395E+05  1.529500E+06  3.259490E+05  4.296519E+04 -2.137221E-09  4.844493E-09
        28  13  3.439079E+05  7.066854E+05  4.323331E+05 -4.948628E+03  2.487380E-09  5.148260E-11
        28  14 -4.141811E+04  6.483562E+05  1.964784E+05 -2.406357E+03  3.021691E-10  1.485665E-10
        28  15 -1.646901E+04  7.068669E+05  1.319393E+05 -5.073124E+03 -9.585838E-10  1.859746E-12
        28  16  1.347104E+05 -1.331930E+05  2.259636E+05  1.158178E+05 -7.846540E-10  5.905042E-10
        28  17 -2.467453E+05 -1.817143E+05  3.904967E+00  3.398656E+04  2.651958E-11 -2.707964E-09
        28  18 -2.195171E+05 -1.151401E+05 -6.211585E+04 -5.304741E+04 -7.629725E-10 -4.506740E-09
        28  19  5.531329E+05  1.547337E+06  6.388336E+05 -1.258764E+05 -9.266779E+03 -3.054468E+05
        28  20  1.638751E+05  1.479101E+06  3.929744E+05 -3.884367E+04 -2.918009E+04 -1.889519E+05
        28  21  1.865419E+05  1.529506E+06  3.259605E+05  4.296695E+04 -3.019527E+04 -7.245505E+04
        28  22  3.439303E+05  7.067746E+05  4.324893E+05 -4.946464E+03 -9.329246E+03 -2.882806E+05
        28  23 -4.140824E+04  6.483923E+05  1.965428E+05 -2.402061E+03 -2.919718E+04 -1.828027E+05
        28  24 -1.646643E+04  7.068736E+05  1.319522E+05 -5.071245E+03 -3.018740E+04 -7.731854E+04
        28  25  1.347302E+05 -1.331140E+05  2.261019E+05  1.158199E+05 -9.385111E+03 -2.711374E+05
        28  26 -2.467360E+05 -1.816805E+05  6.416645E+01  3.399071E+04 -2.921357E+04 -1.766615E+05
        28  27 -2.195143E+05 -1.151326E+05 -6.210144E+04 -5.304541E+04 -3.017876E+04 -8.217559E+04
        29   1  2.321471E+05  1.499125E+06  3.073355E+05 -1.910589E+04  2.759676E+04  5.759756E+04
        29   2  1.920450E+05  1.480797E+06  2.733302E+05 -4.350902E+03  2.854045E+04  1.400882E+04
        29   3  2.186922E+05  1.485350E+06  2.844636E+05  5.948191E+03  2.723830E+04 -2.958332E+04
        29   4  3.113450E+04  6.859208E+05  1.146666E+05 -4.832274E+03  2.760196E+04  5.638670E+04
        29   5 -7.121905E+03  6.745869E+05  8.274472E+04 -2.606452E+03  2.854272E+04  1.414211E+04
        29   6  2.118492E+04  6.859276E+05  9.506798E+04 -4.836739E+03  2.723810E+04 -2.810637E+04
        29   7 -1.699249E+05 -1.266764E+05 -7.804813E+04  9.422774E+03  2.760710E+04  5.517738E+04
        29   8 -2.063354E+05 -1.310270E+05 -1.078858E+05 -8.640242E+02  2.854500E+04  1.427521E+04
        29   9 -1.763677E+05 -1.129081E+05 -9.437200E+04 -1.560743E+04  2.723785E+04 -2.663130E+04
        29  10  2.321454E+05  1.499121E+06  3.073279E+05 -1.910716E+04  1.191732E-10 -2.037293E-09
        29  11  1.920441E+05  1.480796E+06  2.733283E+05 -4.351224E+03  2.478006E-09 -3.325227E-09
        29  12  2.186911E+05  1.485348E+06  2.844606E+05  5.948840E+03  8.473601E-10 -9.812433E-10
        29  13  3.113283E+04  6.859172E+05  1.146592E+05 -4.833527E+03 -3.067739E-10  3.016974E-10
        29  14 -7.122834E+03  6.745865E+05  8.274282E+04 -2.606777E+03  3.324310E-09  4.124866E-10
        29  15  2.118392E+04  6.859266E+05  9.506510E+04 -4.836122E+03  1.091188E-09  1.179887E-10
        29  16 -1.699265E+05 -1.266799E+05 -7.805529E+04  9.421546E+03 -1.479144E-09  2.070008E-09
        29  17 -2.063363E+05 -1.310274E+05 -1.078877E+05 -8.643525E+02 -5.694429E-10  2.839135E-09
        29  18 -1.763686E+05 -1.129091E+05 -9.437472E+04 -1.560685E+04 -2.398278E-09  1.537758E-09
        29  19  2.321471E+05  1.499125E+06  3.073355E+05 -1.910589E+04 -2.759676E+04 -5.759756E+04
        29  20  1.920450E+05  1.480797E+06  2.733302E+05 -4.350902E+03 -2.854045E+04 -1.400882E+04
        29  21  2.186922E+05  1.485350E+06  2.844636E+05  5.948191E+03 -2.723830E+04  2.958332E+04
        29  22  3.113450E+04  6.859208E+05  1.146666E+05 -4.832274E+03 -2.760196E+04 -5.638670E+04
        29  23 -7.121905E+03  6.745869E+05  8.274472E+04 -2.606452E+03 -2.854272E+04 -1.414211E+04
        29  24  2.118492E+04  6.859276E+05  9.506798E+04 -4.836739E+03 -2.723810E+04  2.810637E+04
        29  25 -1.699249E+05 -1.266764E+05 -7.804813E+04  9.422774E+03 -2.760710E+04 -5.517738E+04
        29  26 -2.063354E+05 -1.310270E+05 -1.078858E+05 -8.640242E+02 -2.854500E+04 -1.427521E+04
        29  27 -1.763677E+05 -1.129081E+05 -9.437200E+04 -1.560743E+04 -2.723785E+04  2.663130E+04
        30   1  1.856508E+05  1.491826E+06  2.908138E+05 -4.092586E+04  2.930705E+04 -4.088268E+04
        30   2  1.646784E+05  1.444576E+06  3.300017E+05  2.115231E+04  2.810673E+04 -1.281424E+05
        30   3  4.378952E+05  1.482675E+06  4.995702E+05  8.009192E+04  9.460156E+03 -2.154570E+05
        30   4 -1.020111E+04  6.995039E+05  1.039036E+05 -4.775847E+03  2.931709E+04 -4.506518E+04
        30   5 -2.957129E+04  6.576303E+05  1.439566E+05 -2.827496E+03  2.809791E+04 -1.221801E+05
        30   6  2.436719E+05  6.994370E+05  3.074551E+05 -4.021161E+03  9.439511E+03 -1.993489E+05
        30   7 -2.060931E+05 -9.223914E+04 -8.304912E+04  3.132820E+04  2.932665E+04 -4.924235E+04
        30   8 -2.238630E+05 -1.287455E+05 -4.213095E+04 -2.677641E+04  2.808863E+04 -1.162252E+05
        30   9  4.943028E+04 -8.322706E+04  1.152999E+05 -8.802775E+04  9.414509E+03 -1.832609E+05
        30  10  1.856494E+05  1.491824E+06  2.908090E+05 -4.092490E+04 -2.179095E-10  2.192219E-09
        30  11  1.646732E+05  1.444558E+06  3.299694E+05  2.115521E+04 -2.892327E-09  6.871341E-10
        30  12  4.378827E+05  1.482625E+06  4.994830E+05  8.009356E+04  5.529746E-10  7.416308E-10
        30  13 -1.020258E+04  6.995015E+05  1.038982E+05 -4.774783E+03  2.359474E-10  6.686042E-10
        30  14 -2.957614E+04  6.576141E+05  1.439271E+05 -2.824733E+03 -2.736027E-09  7.237745E-10
        30  15  2.436611E+05  6.993944E+05  3.073803E+05 -4.019646E+03 -9.365275E-10  2.302640E-10
        30  16 -2.060947E+05 -9.224197E+04 -8.305530E+04  3.132936E+04 -1.447004E-09 -2.206120E-09
        30  17 -2.238675E+05 -1.287602E+05 -4.215782E+04 -2.677378E+04  2.548868E-09 -1.361631E-09
        30  18  4.942117E+04 -8.326314E+04  1.152367E+05 -8.802636E+04  4.294947E-10  1.815162E-10
        30  19  1.856508E+05  1.491826E+06  2.908138E+05 -4.092586E+04 -2.930705E+04  4.088268E+04
        30  20  1.646784E+05  1.444576E+06  3.300017E+05  2.115231E+04 -2.810673E+04  1.281424E+05
        30  21  4.378952E+05  1.482675E+06  4.995702E+05  8.009192E+04 -9.460156E+03  2.154570E+05
        30  22 -1.020111E+04  6.995039E+05  1.039036E+05 -4.775847E+03 -2.931709E+04  4.506518E+04
        30  23 -2.957129E+04  6.576303E+05  1.439566E+05 -2.827496E+03 -2.809791E+04  1.221801E+05
        30  24  2.436719E+05  6.994370E+05  3.074551E+05 -4.021161E+03 -9.439511E+03  1.993489E+05
        30  25 -2.060931E+05 -9.223914E+04 -8.304912E+04  3.132820E+04 -2.932665E+04  4.924235E+04
        30  26 -2.238630E+05 -1.287455E+05 -4.213095E+04 -2.677641E+04 -2.808863E+04  1.162252E+05
        30  27  4.943028E+04 -8.322706E+04  1.152999E+05 -8.802775E+04 -9.414509E+03  1.832609E+05
        31   1 -1.847611E+06 -4.046267E+05 -1.557985E+05 -6.857859E+05 -8.102704E+04 -2.888875E+04
        31   2 -1.821158E+06 -2.784283E+05 -7.841063E+04 -6.902086E+05 -5.205899E+04 -1.519409E+04
        31   3 -1.831315E+06 -2.702307E+05 -5.330531E+04 -6.761552E+05 -2.192642E+04 -4.604026E+03
        31   4 -1.750124E+06 -3.383202E+05 -1.234803E+05 -6.288799E+05 -7.886258E+04 -2.808202E+04
        31   5 -1.725529E+06 -2.338628E+05 -5.177688E+04 -6.552052E+05 -5.156168E+04 -1.500860E+04
        31   6 -1.737207E+06 -2.470659E+05 -3.102590E+04 -6.630567E+05 -2.309632E+04 -5.042038E+03
        31   7 -1.652627E+06 -2.720052E+05 -9.116323E+04 -5.719644E+05 -7.669778E+04 -2.727489E+04
        31   8 -1.629892E+06 -1.892955E+05 -2.514413E+04 -6.201967E+05 -5.106427E+04 -1.482306E+04
        31   9 -1.643089E+06 -2.239014E+05 -8.747015E+03 -6.499569E+05 -2.426641E+04 -5.480065E+03
        31  10 -1.847618E+06 -4.046294E+05 -1.558125E+05 -6.857878E+05 -1.604903E-09 -1.970964E-10
        31  11 -1.821161E+06 -2.784292E+05 -7.841618E+04 -6.902093E+05  1.220442E-09  4.357809E-10
        31  12 -1.831316E+06 -2.702308E+05 -5.330625E+04 -6.761553E+05 -3.176864E-10  3.323282E-10
        31  13 -1.750131E+06 -3.383227E+05 -1.234935E+05 -6.288817E+05  3.766015E-11  2.780951E-10
        31  14 -1.725532E+06 -2.338638E+05 -5.178232E+04 -6.552059E+05  2.556578E-10  8.329900E-10
        31  15 -1.737207E+06 -2.470661E+05 -3.102695E+04 -6.630568E+05 -5.330257E-10  2.104438E-10
        31  16 -1.652633E+06 -2.720076E+05 -9.117572E+04 -5.719661E+05  2.164236E-09  4.260848E-10
        31  17 -1.629895E+06 -1.892965E+05 -2.514946E+04 -6.201973E+05  3.443704E-09  6.033851E-10
        31  18 -1.643090E+06 -2.239016E+05 -8.748181E+03 -6.499570E+05  1.789581E-09 -1.693672E-10
        31  19 -1.847611E+06 -4.046267E+05 -1.557985E+05 -6.857859E+05  8.102704E+04  2.888875E+04
        31  20 -1.821158E+06 -2.784283E+05 -7.841063E+04 -6.902086E+05  5.205899E+04  1.519409E+04
        31  21 -1.831315E+06 -2.702307E+05 -5.330531E+04 -6.761552E+05  2.192642E+04  4.604026E+03
        31  22 -1.750124E+06 -3.383202E+05 -1.234803E+05 -6.288799E+05  7.886258E+04  2.808202E+04
        31  23 -1.725529E+06 -2.338628E+05 -5.177688E+04 -6.552052E+05  5.156168E+04  1.500860E+04
        31  24 -1.737207E+06 -2.470659E+05 -3.102590E+04 -6.630567E+05  2.309632E+04  5.042038E+03
        31  25 -1.652627E+06 -2.720052E+05 -9.116323E+04 -5.719644E+05  7.669778E+04  2.727489E+04
        31  26 -1.629892E+06 -1.892955E+05 -2.514413E+04 -6.201967E+05  5.106427E+04  1.482306E+04
        31  27 -1.643089E+06 -2.239014E+05 -8.747015E+03 -6.499569E+05  2.426641E+04  5.480065E+03
        32   1 -1.794943E+06 -2.853861E+05 -4.184037E+04 -6.755756E+05 -1.818338E+04 -4.213797E+03
        32   2 -1.780278E+06 -2.629520E+05 -2.433191E+04 -6.671980E+05 -1.152996E+04 -2.374678E+03
        32   3 -1.761802E+06 -2.603921E+05 -1.463633E+04 -6.662356E+05 -4.793684E+03 -7.557080E+02
        32   4 -1.733119E+06 -2.595258E+05 -2.514838E+04 -6.559982E+05 -1.843401E+04 -4.307841E+03
        32   5 -1.734390E+06 -2.450482E+05 -1.220661E+04 -6.539936E+05 -1.189845E+04 -2.512797E+03
        32   6 -1.731826E+06 -2.504208E+05 -6.983481E+03 -6.594045E+05 -5.280266E+03 -9.380274E+02
        32   7 -1.671291E+06 -2.336648E+05 -8.456633E+03 -6.364188E+05 -1.868466E+04 -4.401898E+03
        32   8 -1.688500E+06 -2.271442E+05 -8.151365E+01 -6.407884E+05 -1.226697E+04 -2.650929E+03
        32   9 -1.701850E+06 -2.404497E+05  6.692273E+02 -6.525733E+05 -5.766870E+03 -1.120352E+03
        32  10 -1.794943E+06 -2.853862E+05 -4.184103E+04 -6.755757E+05 -2.551386E-11 -2.174293E-10
        32  11 -1.780278E+06 -2.629520E+05 -2.433218E+04 -6.671980E+05  1.316826E-09 -1.022860E-09
        32  12 -1.761802E+06 -2.603921E+05 -1.463638E+04 -6.662356E+05  3.803952E-09 -1.189554E-09
        32  13 -1.733119E+06 -2.595259E+05 -2.514905E+04 -6.559983E+05 -7.812772E-10  1.585875E-10
        32  14 -1.734390E+06 -2.450482E+05 -1.220689E+04 -6.539937E+05  1.053007E-09 -4.125262E-10
        32  15 -1.731826E+06 -2.504208E+05 -6.983536E+03 -6.594045E+05  4.504012E-10 -1.037888E-09
        32  16 -1.671291E+06 -2.336649E+05 -8.457328E+03 -6.364189E+05 -8.119149E-10 -3.562433E-11
        32  17 -1.688500E+06 -2.271443E+05 -8.181053E+01 -6.407884E+05  6.030340E-10 -1.419741E-10
        32  18 -1.701850E+06 -2.404497E+05  6.691623E+02 -6.525733E+05 -6.100667E-10 -1.299945E-09
        32  19 -1.794943E+06 -2.853861E+05 -4.184037E+04 -6.755756E+05  1.818338E+04  4.213797E+03
        32  20 -1.780278E+06 -2.629520E+05 -2.433191E+04 -6.671980E+05  1.152996E+04  2.374678E+03
        32  21 -1.761802E+06 -2.603921E+05 -1.463633E+04 -6.662356E+05  4.793684E+03  7.557080E+02
        32  22 -1.733119E+06 -2.595258E+05 -2.514838E+04 -6.559982E+05  1.843401E+04  4.307841E+03
        32  23 -1.734390E+06 -2.450482E+05 -1.220661E+04 -6.539936E+05  1.189845E+04  2.512797E+03
        32  24 -1.731826E+06 -2.504208E+05 -6.983481E+03 -6.594045E+05  5.280266E+03  9.380274E+02
        32  25 -1.671291E+06 -2.336648E+05 -8.456633E+03 -6.364188E+05  1.868466E+04  4.401898E+03
        32  26 -1.688500E+06 -2.271442E+05 -8.151365E+01 -6.407884E+05  1.226697E+04  2.650929E+03
        32  27 -1.701850E+06 -2.404497E+05  6.692273E+02 -6.525733E+05  5.766870E+03  1.120352E+03
        33   1 -1.738256E+06 -2.544294E+05 -7.217586E+03 -6.607805E+05 -3.670847E+03 -9.064624E+02
        33   2 -1.724945E+06 -2.423105E+05 -1.290763E+02 -6.510648E+05 -1.921743E+03 -1.156559E+03
        33   3 -1.703371E+06 -2.401820E+05  5.576458E+03 -6.512899E+05 -1.680033E+02 -1.418830E+03
        33   4 -1.731323E+06 -2.516434E+05 -5.428387E+03 -6.586870E+05 -4.094762E+03 -1.065306E+03
        33   5 -1.735391E+06 -2.462041E+05 -2.855015E+03 -6.538828E+05 -2.352208E+03 -1.317864E+03
        33   6 -1.731196E+06 -2.507539E+05 -1.659309E+03 -6.590194E+05 -6.050587E+02 -1.582612E+03
        33   7 -1.724390E+06 -2.488573E+05 -3.639184E+03 -6.565936E+05 -4.518683E+03 -1.224152E+03
        33   8 -1.745838E+06 -2.500976E+05 -5.580982E+03 -6.567007E+05 -2.782669E+03 -1.479167E+03
        33   9 -1.759020E+06 -2.613259E+05 -8.895219E+03 -6.667486E+05 -1.042097E+03 -1.746388E+03
        33  10 -1.738256E+06 -2.544295E+05 -7.217613E+03 -6.607805E+05  8.216705E-11 -1.085233E-09
        33  11 -1.724945E+06 -2.423105E+05 -1.290858E+02 -6.510648E+05 -2.706050E-09  3.121289E-10
        33  12 -1.703371E+06 -2.401820E+05  5.576454E+03 -6.512899E+05 -2.052688E-09  6.914362E-10
        33  13 -1.731323E+06 -2.516434E+05 -5.428421E+03 -6.586870E+05  2.951461E-10 -1.121978E-09
        33  14 -1.735391E+06 -2.462041E+05 -2.855029E+03 -6.538828E+05  5.597828E-10  3.729098E-11
        33  15 -1.731196E+06 -2.507539E+05 -1.659315E+03 -6.590194E+05 -9.102068E-10  2.583604E-10
        33  16 -1.724390E+06 -2.488573E+05 -3.639225E+03 -6.565936E+05  1.268575E-10 -1.095034E-09
        33  17 -1.745838E+06 -2.500976E+05 -5.581001E+03 -6.567007E+05  6.084309E-10 -4.070179E-10
        33  18 -1.759020E+06 -2.613259E+05 -8.895227E+03 -6.667486E+05 -4.138440E-10 -7.165258E-10
        33  19 -1.738256E+06 -2.544294E+05 -7.217586E+03 -6.607805E+05  3.670847E+03  9.064624E+02
        33  20 -1.724945E+06 -2.423105E+05 -1.290763E+02 -6.510648E+05  1.921743E+03  1.156559E+03
        33  21 -1.703371E+06 -2.401820E+05  5.576458E+03 -6.512899E+05  1.680033E+02  1.418830E+03
        33  22 -1.731323E+06 -2.516434E+05 -5.428387E+03 -6.586870E+05  4.094762E+03  1.065306E+03
        33  23 -1.735391E+06 -2.462041E+05 -2.855015E+03 -6.538828E+05  2.352208E+03  1.317864E+03
        33  24 -1.731196E+06 -2.507539E+05 -1.659309E+03 -6.590194E+05  6.050587E+02  1.582612E+03
        33  25 -1.724390E+06 -2.488573E+05 -3.639184E+03 -6.565936E+05  4.518683E+03  1.224152E+03
        33  26 -1.745838E+06 -2.500976E+05 -5.580982E+03 -6.567007E+05  2.782669E+03  1.479167E+03
        33  27 -1.759020E+06 -2.613259E+05 -8.895219E+03 -6.667486E+05  1.042097E+03  1.746388E+03
        34   1 -1.681455E+06 -2.321720E+05  1.174673E+04 -6.453759E+05  2.459584E+02 -1.800142E+03
        34   2 -1.668569E+06 -2.212640E+05  1.663025E+04 -6.357011E+05  9.706739E+02 -2.437908E+03
        34   3 -1.647068E+06 -2.192008E+05  2.116325E+04 -6.360037E+05  1.692614E+03 -3.067930E+03
        34   4 -1.731166E+06 -2.508301E+05 -1.312896E+03 -6.589041E+05 -1.851047E+02 -1.961692E+03
        34   5 -1.735468E+06 -2.463730E+05 -8.588832E+02 -6.539283E+05  5.437275E+02 -2.597947E+03
        34   6 -1.731156E+06 -2.507615E+05 -7.585828E+02 -6.589300E+05  1.269773E+03 -3.226461E+03
        34   7 -1.780873E+06 -2.694879E+05 -1.437261E+04 -6.724311E+05 -6.161260E+02 -2.123228E+03
        34   8 -1.802362E+06 -2.714816E+05 -1.834830E+04 -6.721537E+05  1.168339E+02 -2.757967E+03
        34   9 -1.815238E+06 -2.823216E+05 -2.268098E+04 -6.818535E+05  8.469955E+02 -3.384969E+03
        34  10 -1.681455E+06 -2.321720E+05  1.174673E+04 -6.453759E+05 -1.451435E-09 -3.439229E-10
        34  11 -1.668569E+06 -2.212640E+05  1.663023E+04 -6.357011E+05  7.268375E-11 -5.570280E-10
        34  12 -1.647068E+06 -2.192008E+05  2.116323E+04 -6.360037E+05  1.720327E-10  4.770815E-10
        34  13 -1.731166E+06 -2.508301E+05 -1.312903E+03 -6.589041E+05 -1.130684E-10 -3.782653E-10
        34  14 -1.735468E+06 -2.463730E+05 -8.588964E+02 -6.539283E+05  2.228892E-10 -4.699041E-10
        34  15 -1.731156E+06 -2.507615E+05 -7.586053E+02 -6.589300E+05 -2.542904E-09  7.516486E-11
        34  16 -1.780873E+06 -2.694879E+05 -1.437262E+04 -6.724311E+05 -5.818408E-10 -4.415030E-11
        34  17 -1.802362E+06 -2.714816E+05 -1.834831E+04 -6.721537E+05 -3.532231E-09  1.893849E-10
        34  18 -1.815238E+06 -2.823216E+05 -2.268100E+04 -6.818535E+05 -3.307878E-10  3.340570E-11
        34  19 -1.681455E+06 -2.321720E+05  1.174673E+04 -6.453759E+05 -2.459584E+02  1.800142E+03
        34  20 -1.668569E+06 -2.212640E+05  1.663025E+04 -6.357011E+05 -9.706739E+02  2.437908E+03
        34  21 -1.647068E+06 -2.192008E+05  2.116325E+04 -6.360037E+05 -1.692614E+03  3.067930E+03
        34  22 -1.731166E+06 -2.508301E+05 -1.312896E+03 -6.589041E+05  1.851047E+02  1.961692E+03
        34  23 -1.735468E+06 -2.463730E+05 -8.588832E+02 -6.539283E+05 -5.437275E+02  2.597947E+03
        34  24 -1.731156E+06 -2.507615E+05 -7.585828E+02 -6.589300E+05 -1.269773E+03  3.226461E+03
        34  25 -1.780873E+06 -2.694879E+05 -1.437261E+04 -6.724311E+05  6.161260E+02  2.123228E+03
        34  26 -1.802362E+06 -2.714816E+05 -1.834830E+04 -6.721537E+05 -1.168339E+02  2.757967E+03
        34  27 -1.815238E+06 -2.823216E+05 -2.268098E+04 -6.818535E+05 -8.469955E+02  3.384969E+03
        35   1 -1.625928E+06 -2.111600E+05  2.678883E+04 -6.301752E+05  1.988761E+03 -3.476789E+03
        35   2 -1.613592E+06 -2.007687E+05  3.071680E+04 -6.208673E+05  2.825838E+03 -4.040395E+03
        35   3 -1.593028E+06 -1.989055E+05  3.419266E+04 -6.211014E+05  3.655918E+03 -4.584655E+03
        35   4 -1.731241E+06 -2.506740E+05 -8.029634E+02 -6.588403E+05  1.569596E+03 -3.633974E+03
        35   5 -1.735363E+06 -2.464721E+05 -1.116258E+03 -6.540458E+05  2.416944E+03 -4.193790E+03
        35   6 -1.731261E+06 -2.508006E+05 -1.889951E+03 -6.587936E+05  3.257278E+03 -4.734262E+03
        35   7 -1.836544E+06 -2.901875E+05 -2.839579E+04 -6.875012E+05  1.150509E+03 -3.791132E+03
        35   8 -1.857121E+06 -2.921746E+05 -3.295063E+04 -6.872184E+05  2.008139E+03 -4.347153E+03
        35   9 -1.869475E+06 -3.026945E+05 -3.797418E+04 -6.964782E+05  2.858735E+03 -4.883834E+03
        35  10 -1.625928E+06 -2.111600E+05  2.678880E+04 -6.301752E+05 -6.588272E-10  5.264900E-10
        35  11 -1.613592E+06 -2.007688E+05  3.071675E+04 -6.208673E+05  2.296529E-09 -6.446203E-10
        35  12 -1.593028E+06 -1.989055E+05  3.419259E+04 -6.211014E+05 -2.092889E-09 -1.005151E-09
        35  13 -1.731241E+06 -2.506740E+05 -8.029928E+02 -6.588403E+05 -1.002621E-10  3.500697E-11
        35  14 -1.735363E+06 -2.464721E+05 -1.116302E+03 -6.540458E+05  1.403976E-09 -7.864602E-11
        35  15 -1.731261E+06 -2.508006E+05 -1.890013E+03 -6.587936E+05  4.388832E-10 -7.025296E-10
        35  16 -1.836544E+06 -2.901875E+05 -2.839582E+04 -6.875012E+05  2.030272E-10 -2.495210E-10
        35  17 -1.857121E+06 -2.921746E+05 -3.295067E+04 -6.872184E+05 -5.807512E-10 -9.228481E-10
        35  18 -1.869475E+06 -3.026945E+05 -3.797424E+04 -6.964782E+05  3.426841E-10 -1.013775E-09
        35  19 -1.625928E+06 -2.111600E+05  2.678883E+04 -6.301752E+05 -1.988761E+03  3.476789E+03
        35  20 -1.613592E+06 -2.007687E+05  3.071680E+04 -6.208673E+05 -2.825838E+03  4.040395E+03
        35  21 -1.593028E+06 -1.989055E+05  3.419266E+04 -6.211014E+05 -3.655918E+03  4.584655E+03
        35  22 -1.731241E+06 -2.506740E+05 -8.029634E+02 -6.588403E+05 -1.569596E+03  3.633974E+03
        35  23 -1.735363E+06 -2.464721E+05 -1.116258E+03 -6.540458E+05 -2.416944E+03  4.193790E+03
        35  24 -1.731261E+06 -2.508006E+05 -1.889951E+03 -6.587936E+05 -3.257278E+03  4.734262E+03
        35  25 -1.836544E+06 -2.901875E+05 -2.839579E+04 -6.875012E+05 -1.150509E+03  3.791132E+03
        35  26 -1.857121E+06 -2.921746E+05 -3.295063E+04 -6.872184E+05 -2.008139E+03  4.347153E+03
        35  27 -1.869475E+06 -3.026945E+05 -3.797418E+04 -6.964782E+05 -2.858735E+03  4.883834E+03
        36   1 -1.573080E+06 -1.912347E+05  3.899324E+04 -6.158087E+05  4.177239E+03 -4.884653E+03
        36   2 -1.561477E+06 -1.812245E+05  4.108876E+04 -6.068601E+05  6.590756E+03 -4.799189E+03
        36   3 -1.542966E+06 -1.806885E+05  4.113959E+04 -6.064676E+05  8.983342E+03 -4.656985E+03
        36   4 -1.731485E+06 -2.505040E+05 -2.440535E+03 -6.587656E+05  3.774905E+03 -5.035693E+03
        36   5 -1.735033E+06 -2.464441E+05 -4.295614E+03 -6.542330E+05  6.218316E+03 -4.939094E+03
        36   6 -1.731680E+06 -2.518648E+05 -8.219556E+03 -6.582566E+05  8.640742E+03 -4.785768E+03
        36   7 -1.889865E+06 -3.097716E+05 -4.387630E+04 -7.017125E+05  3.372685E+03 -5.186691E+03
        36   8 -1.908560E+06 -3.116618E+05 -4.968254E+04 -7.015939E+05  5.845989E+03 -5.078955E+03
        36   9 -1.920361E+06 -3.230390E+05 -5.758188E+04 -7.100315E+05  8.298255E+03 -4.914507E+03
        36  10 -1.573080E+06 -1.912348E+05  3.899316E+04 -6.158087E+05  7.842909E-11 -1.103267E-09
        36  11 -1.561477E+06 -1.812245E+05  4.108864E+04 -6.068601E+05  1.714350E-09 -7.552992E-10
        36  12 -1.542966E+06 -1.806886E+05  4.113940E+04 -6.064676E+05 -7.566252E-10 -6.781912E-11
        36  13 -1.731485E+06 -2.505040E+05 -2.440609E+03 -6.587656E+05  2.732033E-09 -7.581934E-10
        36  14 -1.735033E+06 -2.464441E+05 -4.295732E+03 -6.542330E+05  1.660106E-09 -3.857382E-10
        36  15 -1.731681E+06 -2.518648E+05 -8.219739E+03 -6.582566E+05 -2.402166E-10  3.236231E-10
        36  16 -1.889865E+06 -3.097716E+05 -4.387638E+04 -7.017125E+05  1.623238E-09 -1.034995E-09
        36  17 -1.908560E+06 -3.116619E+05 -4.968266E+04 -7.015939E+05  9.672712E-10 -2.622299E-10
        36  18 -1.920361E+06 -3.230391E+05 -5.758206E+04 -7.100315E+05 -4.849978E-10  6.341512E-10
        36  19 -1.573080E+06 -1.912347E+05  3.899324E+04 -6.158087E+05 -4.177239E+03  4.884653E+03
        36  20 -1.561477E+06 -1.812245E+05  4.108876E+04 -6.068601E+05 -6.590756E+03  4.799189E+03
        36  21 -1.542966E+06 -1.806885E+05  4.113959E+04 -6.064676E+05 -8.983342E+03  4.656985E+03
        36  22 -1.731485E+06 -2.505040E+05 -2.440535E+03 -6.587656E+05 -3.774905E+03  5.035693E+03
        36  23 -1.735033E+06 -2.464441E+05 -4.295614E+03 -6.542330E+05 -6.218316E+03  4.939094E+03
        36  24 -1.731680E+06 -2.518648E+05 -8.219556E+03 -6.582566E+05 -8.640742E+03  4.785768E+03
        36  25 -1.889865E+06 -3.097716E+05 -4.387630E+04 -7.017125E+05 -3.372685E+03  5.186691E+03
        36  26 -1.908560E+06 -3.116618E+05 -4.968254E+04 -7.015939E+05 -5.845989E+03  5.078955E+03
        36  27 -1.920361E+06 -3.230390E+05 -5.758188E+04 -7.100315E+05 -8.298255E+03  4.914507E+03
        37   1 -1.523887E+06 -1.734078E+05  4.365782E+04 -6.042559E+05  1.079774E+04 -4.498877E+03
        37   2 -1.513021E+06 -1.610465E+05  3.927548E+04 -5.934027E+05  2.036061E+04 -1.624147E+03
        37   3 -1.502575E+06 -1.724177E+05  2.340038E+04 -5.865001E+05  2.973626E+04  1.749977E+03
        37   4 -1.732588E+06 -2.498612E+05 -1.058566E+04 -6.591797E+05  1.032390E+04 -4.676957E+03
        37   5 -1.733336E+06 -2.448775E+05 -1.853013E+04 -6.546127E+05  2.015214E+04 -1.702730E+03
        37   6 -1.734559E+06 -2.636831E+05 -3.818128E+04 -6.539961E+05  2.979292E+04  1.770785E+03
        37   7 -1.941247E+06 -3.263124E+05 -6.483279E+04 -7.140870E+05  9.850231E+03 -4.854974E+03
        37   8 -1.953604E+06 -3.287051E+05 -7.633979E+04 -7.158027E+05  1.994375E+04 -1.781282E+03
        37   9 -1.966490E+06 -3.549436E+05 -9.976741E+04 -7.214686E+05  2.984956E+04  1.791583E+03
        37  10 -1.523887E+06 -1.734078E+05  4.365757E+04 -6.042559E+05  8.710672E-10  1.995757E-10
        37  11 -1.513021E+06 -1.610466E+05  3.927470E+04 -5.934027E+05 -2.746515E-09  1.465057E-10
        37  12 -1.502576E+06 -1.724179E+05  2.339871E+04 -5.865002E+05 -2.011174E-09 -5.002142E-10
        37  13 -1.732588E+06 -2.498612E+05 -1.058591E+04 -6.591797E+05 -1.160829E-10  2.444539E-10
        37  14 -1.733336E+06 -2.448776E+05 -1.853090E+04 -6.546126E+05 -2.472886E-09 -2.456930E-10
        37  15 -1.734560E+06 -2.636834E+05 -3.818295E+04 -6.539962E+05 -1.108047E-09 -4.815817E-10
        37  16 -1.941247E+06 -3.263125E+05 -6.483301E+04 -7.140870E+05 -2.494869E-11  3.978399E-10
        37  17 -1.953604E+06 -3.287052E+05 -7.634055E+04 -7.158027E+05 -1.988808E-09 -3.828602E-10
        37  18 -1.966491E+06 -3.549438E+05 -9.976909E+04 -7.214686E+05 -7.545497E-10 -2.845869E-10
        37  19 -1.523887E+06 -1.734078E+05  4.365782E+04 -6.042559E+05 -1.079774E+04  4.498877E+03
        37  20 -1.513021E+06 -1.610465E+05  3.927548E+04 -5.934027E+05 -2.036061E+04  1.624147E+03
        37  21 -1.502575E+06 -1.724177E+05  2.340038E+04 -5.865001E+05 -2.973626E+04 -1.749977E+03
        37  22 -1.732588E+06 -2.498612E+05 -1.058566E+04 -6.591797E+05 -1.032390E+04  4.676957E+03
        37  23 -1.733336E+06 -2.448775E+05 -1.853013E+04 -6.546127E+05 -2.015214E+04  1.702730E+03
        37  24 -1.734559E+06 -2.636831E+05 -3.818128E+04 -6.539961E+05 -2.979292E+04 -1.770785E+03
        37  25 -1.941247E+06 -3.263124E+05 -6.483279E+04 -7.140870E+05 -9.850231E+03  4.854974E+03
        37  26 -1.953604E+06 -3.287051E+05 -7.633979E+04 -7.158027E+05 -1.994375E+04  1.781282E+03
        37  27 -1.966490E+06 -3.549436E+05 -9.976741E+04 -7.214686E+05 -2.984956E+04 -1.791583E+03
        38   1 -1.476196E+06 -1.636845E+05  1.846923E+04 -6.113340E+05  3.879425E+04  3.691425E+03
        38   2 -1.466422E+06 -1.195890E+05 -9.900724E+03 -5.738237E+05  7.808929E+04  1.823211E+04
        38   3 -1.517896E+06 -2.463890E+05 -1.127072E+05 -5.002306E+05  1.148277E+05  3.957552E+04
        38   4 -1.740868E+06 -2.446605E+05 -4.710670E+04 -6.645958E+05  3.684444E+04  2.959586E+03
        38   5 -1.719729E+06 -2.280529E+05 -7.862215E+04 -6.566310E+05  7.978216E+04  1.886636E+04
        38   6 -1.760591E+06 -3.831115E+05 -1.874908E+05 -6.125761E+05  1.201632E+05  4.157238E+04
        38   7 -2.005472E+06 -3.256373E+05 -1.126880E+05 -7.178398E+05  3.489554E+04  2.227940E+03
        38   8 -1.972973E+06 -3.365074E+05 -1.473494E+05 -7.394059E+05  8.147427E+04  1.950022E+04
        38   9 -2.003223E+06 -5.198049E+05 -2.622798E+05 -7.248746E+05  1.254964E+05  4.356740E+04
        38  10 -1.476197E+06 -1.636850E+05  1.846637E+04 -6.113341E+05 -1.978231E-09 -6.035986E-10
        38  11 -1.466429E+06 -1.195910E+05 -9.912840E+03 -5.738248E+05 -1.097923E-09 -1.529257E-09
        38  12 -1.517911E+06 -2.463942E+05 -1.127350E+05 -5.002343E+05 -1.364290E-09 -1.150744E-09
        38  13 -1.740869E+06 -2.446608E+05 -4.710928E+04 -6.645959E+05 -3.847454E-09 -9.496823E-10
        38  14 -1.719736E+06 -2.280550E+05 -7.863482E+04 -6.566322E+05  1.190938E-09 -1.411329E-09
        38  15 -1.760607E+06 -3.831173E+05 -1.875213E+05 -6.125801E+05 -9.613999E-10 -8.072054E-10
        38  16 -2.005473E+06 -3.256376E+05 -1.126903E+05 -7.178399E+05 -2.691156E-09 -1.501835E-09
        38  17 -1.972980E+06 -3.365096E+05 -1.473627E+05 -7.394071E+05 -1.630602E-10 -1.929945E-09
        38  18 -2.003240E+06 -5.198112E+05 -2.623131E+05 -7.248790E+05  8.714381E-11 -4.526921E-10
        38  19 -1.476196E+06 -1.636845E+05  1.846923E+04 -6.113340E+05 -3.879425E+04 -3.691425E+03
        38  20 -1.466422E+06 -1.195890E+05 -9.900724E+03 -5.738237E+05 -7.808929E+04 -1.823211E+04
        38  21 -1.517896E+06 -2.463890E+05 -1.127072E+05 -5.002306E+05 -1.148277E+05 -3.957552E+04
        38  22 -1.740868E+06 -2.446605E+05 -4.710670E+04 -6.645958E+05 -3.684444E+04 -2.959586E+03
        38  23 -1.719729E+06 -2.280529E+05 -7.862215E+04 -6.566310E+05 -7.978216E+04 -1.886636E+04
        38  24 -1.760591E+06 -3.831115E+05 -1.874908E+05 -6.125761E+05 -1.201632E+05 -4.157238E+04
        38  25 -2.005472E+06 -3.256373E+05 -1.126880E+05 -7.178398E+05 -3.489554E+04 -2.227940E+03
        38  26 -1.972973E+06 -3.365074E+05 -1.473494E+05 -7.394059E+05 -8.147427E+04 -1.950022E+04
        38  27 -2.003223E+06 -5.198049E+05 -2.622798E+05 -7.248746E+05 -1.254964E+05 -4.356740E+04
        39   1 -2.991584E+05  9.321208E+04  1.167492E+05  3.254557E+04  7.989730E+04  4.190402E+00
        39   2 -3.147746E+05 -1.110416E+04  5.145608E+04  9.743298E+03  5.221968E+04  8.199313E-01
        39   3 -2.991763E+05 -5.005680E+03  3.179557E+04 -1.305836E+04  2.454187E+04 -5.164432E-01
        39   4 -2.991596E+05  9.321008E+04  1.167489E+05  1.000607E-08  7.989730E+04 -2.777155E-10
        39   5 -3.147747E+05 -1.110434E+04  5.145605E+04 -2.534080E-10  5.221968E+04 -3.147007E-10
        39   6 -2.991765E+05 -5.006001E+03  3.179552E+04  1.317656E-08  2.454187E+04  7.742220E-11
        39   7 -2.991584E+05  9.321208E+04  1.167492E+05 -3.254557E+04  7.989730E+04 -4.190402E+00
        39   8 -3.147746E+05 -1.110416E+04  5.145608E+04 -9.743298E+03  5.221968E+04 -8.199313E-01
        39   9 -2.991763E+05 -5.005680E+03  3.179557E+04  1.305836E+04  2.454187E+04  5.164432E-01
        39  10 -2.991653E+05  9.321036E+04  1.167372E+05  3.254557E+04  6.061467E-10 -7.272134E-11
        39  11 -3.147775E+05 -1.110489E+04  5.145095E+04  9.743298E+03  6.720897E-10 -1.934854E-10
        39  12 -2.991770E+05 -5.005842E+03  3.179444E+04 -1.305836E+04 -1.013074E-09 -1.322881E-10
        39  13 -2.991664E+05  9.320837E+04  1.167369E+05  9.996627E-09 -2.523574E-11 -3.843286E-11
        39  14 -3.147776E+05 -1.110507E+04  5.145092E+04  4.058034E-09 -3.634057E-10 -9.048645E-11
        39  15 -2.991772E+05 -5.006162E+03  3.179439E+04  1.103763E-08 -2.428639E-10  6.545075E-12
        39  16 -2.991653E+05  9.321036E+04  1.167372E+05 -3.254557E+04 -5.087086E-11 -5.075653E-11
        39  17 -3.147775E+05 -1.110489E+04  5.145095E+04 -9.743298E+03 -5.408131E-10  3.120673E-11
        39  18 -2.991770E+05 -5.005842E+03  3.179444E+04  1.305836E+04  3.002214E-10  2.234294E-10
        39  19 -2.991584E+05  9.321208E+04  1.167492E+05  3.254557E+04 -7.989730E+04 -4.190402E+00
        39  20 -3.147746E+05 -1.110416E+04  5.145608E+04  9.743298E+03 -5.221968E+04 -8.199313E-01
        39  21 -2.991763E+05 -5.005680E+03  3.179557E+04 -1.305836E+04 -2.454187E+04  5.164432E-01
        39  22 -2.991596E+05  9.321008E+04  1.167489E+05  5.681231E-09 -7.989730E+04  1.908233E-10
        39  23 -3.147747E+05 -1.110434E+04  5.145605E+04 -8.862063E-09 -5.221968E+04  1.395179E-10
        39  24 -2.991765E+05 -5.006001E+03  3.179552E+04  1.374232E-08 -2.454187E+04 -7.472897E-11
        39  25 -2.991584E+05  9.321208E+04  1.167492E+05 -3.254557E+04 -7.989730E+04  4.190402E+00
        39  26 -3.147746E+05 -1.110416E+04  5.145608E+04 -9.743298E+03 -5.221968E+04  8.199313E-01
        39  27 -2.991763E+05 -5.005680E+03  3.179557E+04  1.305836E+04 -2.454187E+04 -5.164432E-01
        40   1 -3.053272E+05  8.797924E+03  2.583107E+04  2.703033E+03  1.968673E+04  8.575427E-02
        40   2 -3.070890E+05 -1.110244E+03  1.331084E+04  6.807881E+02  1.289683E+04  1.414901E-02
        40   3 -3.053296E+05 -4.735669E+02  7.849099E+03 -1.341431E+03  6.107063E+03 -1.320172E-02
        40   4 -3.053272E+05  8.797910E+03  2.583107E+04  1.009263E-08  1.968673E+04  5.468455E-10
        40   5 -3.070890E+05 -1.110245E+03  1.331084E+04  5.921363E-09  1.289683E+04  7.593261E-10
        40   6 -3.053296E+05 -4.735703E+02  7.849099E+03  1.952090E-08  6.107063E+03  7.118787E-10
        40   7 -3.053272E+05  8.797924E+03  2.583107E+04 -2.703033E+03  1.968673E+04 -8.575427E-02
        40   8 -3.070890E+05 -1.110244E+03  1.331084E+04 -6.807881E+02  1.289683E+04 -1.414901E-02
        40   9 -3.053296E+05 -4.735669E+02  7.849099E+03  1.341431E+03  6.107063E+03  1.320173E-02
        40  10 -3.053277E+05  8.797820E+03  2.583034E+04  2.703033E+03 -4.043398E-10  8.692463E-11
        40  11 -3.070892E+05 -1.110289E+03  1.331053E+04  6.807881E+02  1.427092E-09  5.184944E-10
        40  12 -3.053297E+05 -4.735770E+02  7.849029E+03 -1.341431E+03  1.421046E-09  1.895777E-10
        40  13 -3.053277E+05  8.797806E+03  2.583034E+04  1.877041E-08  1.076860E-09  3.193608E-10
        40  14 -3.070892E+05 -1.110290E+03  1.331053E+04  3.742715E-09  9.892838E-27  5.403204E-10
        40  15 -3.053297E+05 -4.735803E+02  7.849029E+03 -9.131756E-09  2.171441E-10 -2.651513E-10
        40  16 -3.053277E+05  8.797820E+03  2.583034E+04 -2.703033E+03 -1.746779E-10  5.419148E-10
        40  17 -3.070892E+05 -1.110289E+03  1.331053E+04 -6.807881E+02 -1.668337E-09  6.094449E-10
        40  18 -3.053297E+05 -4.735770E+02  7.849029E+03  1.341431E+03 -2.797321E-09 -7.596988E-10
        40  19 -3.053272E+05  8.797924E+03  2.583107E+04  2.703033E+03 -1.968673E+04 -8.575427E-02
        40  20 -3.070890E+05 -1.110244E+03  1.331084E+04  6.807881E+02 -1.289683E+04 -1.414901E-02
        40  21 -3.053296E+05 -4.735669E+02  7.849099E+03 -1.341431E+03 -6.107063E+03  1.320172E-02
        40  22 -3.053272E+05  8.797910E+03  2.583107E+04  1.882903E-08 -1.968673E+04  1.023104E-10
        40  23 -3.070890E+05 -1.110245E+03  1.331084E+04  5.870882E-09 -1.289683E+04  3.405777E-10
        40  24 -3.053296E+05 -4.735703E+02  7.849099E+03  1.929747E-08 -6.107063E+03 -1.244665E-09
        40  25 -3.053272E+05  8.797924E+03  2.583107E+04 -2.703033E+03 -1.968673E+04  8.575427E-02
        40  26 -3.070890E+05 -1.110244E+03  1.331084E+04 -6.807881E+02 -1.289683E+04  1.414901E-02
        40  27 -3.053296E+05 -4.735669E+02  7.849099E+03  1.341431E+03 -6.107063E+03 -1.320173E-02
        41   1 -3.060077E+05  8.101983E+02  6.107192E+03  1.558553E+02  4.876671E+03  1.224829E-03
        41   2 -3.062423E+05 -1.178578E+02  3.349094E+03  2.288352E+00  3.202241E+03  1.180807E-05
        41   3 -3.060081E+05 -4.387274E+01  1.932071E+03 -1.512810E+02  1.527791E+03 -3.724597E-04
        41   4 -3.060077E+05  8.101983E+02  6.107192E+03  1.951824E-08  4.876671E+03  2.842280E-10
        41   5 -3.062423E+05 -1.178578E+02  3.349094E+03  4.003233E-09  3.202241E+03 -3.840142E-10
        41   6 -3.060081E+05 -4.387278E+01  1.932071E+03 -1.823631E-09  1.527791E+03 -5.939421E-11
        41   7 -3.060077E+05  8.101983E+02  6.107192E+03 -1.558553E+02  4.876671E+03 -1.224829E-03
        41   8 -3.062423E+05 -1.178578E+02  3.349094E+03 -2.288352E+00  3.202241E+03 -1.180893E-05
        41   9 -3.060081E+05 -4.387274E+01  1.932071E+03  1.512810E+02  1.527791E+03  3.724596E-04
        41  10 -3.060077E+05  8.101920E+02  6.107147E+03  1.558553E+02 -1.143242E-10  7.471630E-11
        41  11 -3.062423E+05 -1.178605E+02  3.349074E+03  2.288352E+00  5.720190E-10 -1.087326E-10
        41  12 -3.060081E+05 -4.387336E+01  1.932067E+03 -1.512810E+02  2.006132E-09 -1.008092E-09
        41  13 -3.060077E+05  8.101919E+02  6.107147E+03  1.099841E-08  1.085258E-09 -3.367731E-10
        41  14 -3.062423E+05 -1.178605E+02  3.349074E+03  6.152182E-09  1.021385E-09  1.664525E-10
        41  15 -3.060081E+05 -4.387341E+01  1.932067E+03  3.458579E-09  4.097336E-10 -4.603306E-10
        41  16 -3.060077E+05  8.101920E+02  6.107147E+03 -1.558553E+02  1.150433E-09 -7.526015E-10
        41  17 -3.062423E+05 -1.178605E+02  3.349074E+03 -2.288352E+00 -1.140274E-09  4.643464E-10
        41  18 -3.060081E+05 -4.387336E+01  1.932067E+03  1.512810E+02 -2.884765E-10  1.484238E-10
        41  19 -3.060077E+05  8.101983E+02  6.107192E+03  1.558553E+02 -4.876671E+03 -1.224829E-03
        41  20 -3.062423E+05 -1.178578E+02  3.349094E+03  2.288352E+00 -3.202241E+03 -1.180836E-05
        41  21 -3.060081E+05 -4.387274E+01  1.932071E+03 -1.512810E+02 -1.527791E+03  3.724577E-04
        41  22 -3.060077E+05  8.101983E+02  6.107192E+03  1.108937E-08 -4.876671E+03 -9.747604E-10
        41  23 -3.062423E+05 -1.178578E+02  3.349094E+03 -4.621212E-09 -3.202241E+03  7.268126E-10
        41  24 -3.060081E+05 -4.387278E+01  1.932071E+03 -6.333927E-09 -1.527791E+03 -8.658678E-10
        41  25 -3.060077E+05  8.101983E+02  6.107192E+03 -1.558553E+02 -4.876671E+03  1.224827E-03
        41  26 -3.062423E+05 -1.178578E+02  3.349094E+03 -2.288352E+00 -3.202241E+03  1.180980E-05
        41  27 -3.060081E+05 -4.387274E+01  1.932071E+03  1.512810E+02 -1.527791E+03 -3.724594E-04
        42   1 -3.060955E+05  6.955793E+01  1.470608E+03 -1.112440E+01  1.222546E+03 -2.191657E-05
        42   2 -3.061333E+05 -1.385373E+01  8.072252E+02 -1.612836E+01  8.220177E+02 -2.136487E-05
        42   3 -3.060956E+05 -4.528084E+00  4.278862E+02 -2.113232E+01  4.214894E+02 -1.435485E-05
        42   4 -3.060955E+05  6.955793E+01  1.470608E+03  1.384135E-08  1.222546E+03  2.366638E-10
        42   5 -3.061333E+05 -1.385373E+01  8.072252E+02  1.025897E-08  8.220177E+02 -2.207150E-10
        42   6 -3.060956E+05 -4.528084E+00  4.278862E+02  1.152448E-08  4.214894E+02 -1.478227E-09
        42   7 -3.060955E+05  6.955793E+01  1.470608E+03  1.112440E+01  1.222546E+03  2.191707E-05
        42   8 -3.061333E+05 -1.385373E+01  8.072252E+02  1.612836E+01  8.220177E+02  2.136443E-05
        42   9 -3.060956E+05 -4.528084E+00  4.278862E+02  2.113232E+01  4.214894E+02  1.435190E-05
        42  10 -3.060955E+05  6.955753E+01  1.470605E+03 -1.112440E+01  2.183758E-10 -6.628853E-10
        42  11 -3.061333E+05 -1.385391E+01  8.072239E+02 -1.612836E+01  2.233469E-09  6.811809E-10
        42  12 -3.060956E+05 -4.528131E+00  4.278859E+02 -2.113232E+01  2.602911E-09 -1.452960E-10
        42  13 -3.060955E+05  6.955753E+01  1.470605E+03  1.397462E-08 -2.042983E-09 -3.307438E-10
        42  14 -3.061333E+05 -1.385391E+01  8.072239E+02  8.101609E-09 -5.937721E-10  4.411689E-10
        42  15 -3.060956E+05 -4.528132E+00  4.278859E+02  6.536488E-09  3.044775E-09 -4.139174E-10
        42  16 -3.060955E+05  6.955753E+01  1.470605E+03  1.112440E+01 -2.971966E-10 -1.991298E-11
        42  17 -3.061333E+05 -1.385391E+01  8.072239E+02  1.612836E+01  2.881419E-11  1.756584E-10
        42  18 -3.060956E+05 -4.528131E+00  4.278859E+02  2.113232E+01 -8.666078E-10 -6.986478E-10
        42  19 -3.060955E+05  6.955793E+01  1.470608E+03 -1.112440E+01 -1.222546E+03  2.191529E-05
        42  20 -3.061333E+05 -1.385373E+01  8.072252E+02 -1.612836E+01 -8.220177E+02  2.136631E-05
        42  21 -3.060956E+05 -4.528083E+00  4.278862E+02 -2.113232E+01 -4.214894E+02  1.435462E-05
        42  22 -3.060955E+05  6.955793E+01  1.470608E+03  9.804211E-09 -1.222546E+03 -8.948734E-10
        42  23 -3.061333E+05 -1.385373E+01  8.072252E+02  1.636620E-09 -8.220177E+02  1.070346E-09
        42  24 -3.060956E+05 -4.528084E+00  4.278862E+02  6.391910E-09 -4.214894E+02  6.569902E-10
        42  25 -3.060955E+05  6.955793E+01  1.470608E+03  1.112440E+01 -1.222546E+03 -2.191716E-05
        42  26 -3.061333E+05 -1.385373E+01  8.072252E+02  1.612836E+01 -8.220177E+02 -2.136412E-05
        42  27 -3.060956E+05 -4.528084E+00  4.278862E+02  2.113232E+01 -4.214894E+02 -1.435333E-05
        43   1 -3.061115E+05  5.222419E+00  2.946836E+02 -1.036032E+01  3.562226E+02 -5.947554E-06
        43   2 -3.061135E+05  4.831692E-02  8.336684E+01 -7.625766E+00  3.151694E+02 -3.870905E-06
        43   3 -3.061115E+05 -1.066079E+01 -1.025983E+02 -4.891250E+00  2.741168E+02 -2.161316E-06
        43   4 -3.061115E+05  5.222419E+00  2.946836E+02  2.347994E-08  3.562226E+02 -3.332707E-10
        43   5 -3.061135E+05  4.831681E-02  8.336684E+01  8.346592E-09  3.151694E+02  2.145892E-09
        43   6 -3.061115E+05 -1.066079E+01 -1.025983E+02  1.367270E-08  2.741168E+02 -5.937738E-10
        43   7 -3.061115E+05  5.222419E+00  2.946836E+02  1.036032E+01  3.562226E+02  5.946908E-06
        43   8 -3.061135E+05  4.831692E-02  8.336684E+01  7.625766E+00  3.151694E+02  3.875257E-06
        43   9 -3.061115E+05 -1.066079E+01 -1.025983E+02  4.891250E+00  2.741168E+02  2.160146E-06
        43  10 -3.061115E+05  5.222385E+00  2.946834E+02 -1.036032E+01 -7.505011E-11 -1.221914E-10
        43  11 -3.061135E+05  4.829023E-02  8.336665E+01 -7.625766E+00  1.369707E-09  7.201239E-10
        43  12 -3.061115E+05 -1.066081E+01 -1.025984E+02 -4.891250E+00  1.212254E-09 -3.948018E-10
        43  13 -3.061115E+05  5.222385E+00  2.946834E+02 -2.188652E-09  1.232622E-10 -2.811260E-10
        43  14 -3.061135E+05  4.829012E-02  8.336665E+01  1.885807E-09 -2.043039E-09  7.684710E-10
        43  15 -3.061115E+05 -1.066081E+01 -1.025984E+02  1.651849E-09  1.192705E-09 -2.531146E-10
        43  16 -3.061115E+05  5.222385E+00  2.946834E+02  1.036032E+01  6.218827E-10 -4.276822E-10
        43  17 -3.061135E+05  4.829024E-02  8.336665E+01  7.625766E+00 -2.333380E-10  8.004998E-10
        43  18 -3.061115E+05 -1.066081E+01 -1.025984E+02  4.891250E+00 -1.695736E-09 -8.598832E-11
        43  19 -3.061115E+05  5.222419E+00  2.946836E+02 -1.036032E+01 -3.562226E+02  5.947359E-06
        43  20 -3.061135E+05  4.831692E-02  8.336684E+01 -7.625766E+00 -3.151694E+02  3.872509E-06
        43  21 -3.061115E+05 -1.066079E+01 -1.025983E+02 -4.891250E+00 -2.741168E+02  2.160547E-06
        43  22 -3.061115E+05  5.222419E+00  2.946836E+02  1.952561E-08 -3.562226E+02 -2.165658E-10
        43  23 -3.061135E+05  4.831681E-02  8.336684E+01 -2.665616E-10 -3.151694E+02 -6.078913E-10
        43  24 -3.061115E+05 -1.066079E+01 -1.025983E+02  1.332598E-08 -2.741168E+02  8.591139E-11
        43  25 -3.061115E+05  5.222419E+00  2.946836E+02  1.036032E+01 -3.562226E+02 -5.947789E-06
        43  26 -3.061135E+05  4.831692E-02  8.336684E+01  7.625766E+00 -3.151694E+02 -3.873744E-06
        43  27 -3.061115E+05 -1.066079E+01 -1.025983E+02  4.891250E+00 -2.741168E+02 -2.160478E-06
        44   1 -3.061272E+05  6.503416E+00 -1.999054E+02 -2.483391E+01  3.010798E+02 -1.205036E-05
        44   2 -3.060939E+05  1.724314E+01 -4.497259E+02 -1.097414E+00  5.262257E+02 -9.295957E-07
        44   3 -3.061273E+05 -1.210512E+02 -8.834363E+02  2.263944E+01  7.513750E+02  2.741196E-05
        44   4 -3.061272E+05  6.503415E+00 -1.999054E+02  2.106576E-08  3.010798E+02 -1.131750E-09
        44   5 -3.060939E+05  1.724314E+01 -4.497259E+02 -5.912985E-09  5.262257E+02  8.528078E-10
        44   6 -3.061273E+05 -1.210512E+02 -8.834363E+02  7.490618E-09  7.513750E+02 -7.092346E-10
        44   7 -3.061272E+05  6.503416E+00 -1.999054E+02  2.483391E+01  3.010798E+02  1.204807E-05
        44   8 -3.060939E+05  1.724314E+01 -4.497259E+02  1.097414E+00  5.262257E+02  9.313607E-07
        44   9 -3.061273E+05 -1.210512E+02 -8.834363E+02 -2.263944E+01  7.513750E+02 -2.741343E-05
        44  10 -3.061272E+05  6.503392E+00 -1.999056E+02 -2.483391E+01 -4.926050E-10 -6.733684E-10
        44  11 -3.060939E+05  1.724306E+01 -4.497265E+02 -1.097414E+00 -2.389183E-09  1.687226E-10
        44  12 -3.061273E+05 -1.210513E+02 -8.834374E+02  2.263944E+01 -1.970643E-10 -6.187260E-11
        44  13 -3.061272E+05  6.503391E+00 -1.999056E+02 -3.848499E-10 -1.191646E-09 -6.086587E-10
        44  14 -3.060939E+05  1.724306E+01 -4.497265E+02  4.881981E-09  9.109422E-10  6.504612E-11
        44  15 -3.061273E+05 -1.210513E+02 -8.834374E+02  4.577635E-10 -3.623402E-10  3.215843E-11
        44  16 -3.061272E+05  6.503392E+00 -1.999056E+02  2.483391E+01  1.173480E-09 -5.353857E-10
        44  17 -3.060939E+05  1.724306E+01 -4.497265E+02  1.097414E+00 -1.304099E-09 -3.088902E-11
        44  18 -3.061273E+05 -1.210513E+02 -8.834374E+02 -2.263944E+01  2.128996E-09  1.439365E-10
        44  19 -3.061272E+05  6.503416E+00 -1.999054E+02 -2.483391E+01 -3.010798E+02  1.204905E-05
        44  20 -3.060939E+05  1.724314E+01 -4.497259E+02 -1.097414E+00 -5.262257E+02  9.299944E-07
        44  21 -3.061273E+05 -1.210512E+02 -8.834363E+02  2.263944E+01 -7.513750E+02 -2.741209E-05
        44  22 -3.061272E+05  6.503415E+00 -1.999054E+02  2.985030E-08 -3.010798E+02 -8.085627E-11
        44  23 -3.060939E+05  1.724314E+01 -4.497259E+02  1.136984E-08 -5.262257E+02 -7.041977E-10
        44  24 -3.061273E+05 -1.210512E+02 -8.834363E+02  2.034753E-08 -7.513750E+02  7.778196E-10
        44  25 -3.061272E+05  6.503416E+00 -1.999054E+02  2.483391E+01 -3.010798E+02 -1.204917E-05
        44  26 -3.060939E+05  1.724314E+01 -4.497259E+02  1.097414E+00 -5.262257E+02 -9.314145E-07
        44  27 -3.061273E+05 -1.210512E+02 -8.834363E+02 -2.263944E+01 -7.513750E+02  2.741365E-05
        45   1 -3.062292E+05  7.062910E+01 -1.150763E+03 -2.010175E+02  9.305706E+02 -3.014500E-04
        45   2 -3.059667E+05  1.658081E+02 -1.976233E+03  1.013367E+02  1.938889E+03  3.166287E-04
        45   3 -3.062295E+05 -1.314443E+03 -3.852257E+03  4.036910E+02  2.947206E+03  1.917299E-03
        45   4 -3.062292E+05  7.062902E+01 -1.150763E+03  1.603156E-08  9.305706E+02 -9.763381E-10
        45   5 -3.059667E+05  1.658081E+02 -1.976233E+03  2.379214E-09  1.938889E+03  9.728613E-10
        45   6 -3.062295E+05 -1.314443E+03 -3.852257E+03  8.652123E-09  2.947206E+03  1.281408E-09
        45   7 -3.062292E+05  7.062910E+01 -1.150763E+03  2.010175E+02  9.305706E+02  3.014479E-04
        45   8 -3.059667E+05  1.658081E+02 -1.976233E+03 -1.013367E+02  1.938889E+03 -3.166269E-04
        45   9 -3.062295E+05 -1.314443E+03 -3.852257E+03 -4.036910E+02  2.947206E+03 -1.917296E-03
        45  10 -3.062292E+05  7.062887E+01 -1.150764E+03 -2.010175E+02  2.265591E-09 -4.575548E-10
        45  11 -3.059667E+05  1.658071E+02 -1.976240E+03  1.013367E+02 -1.039502E-09 -3.845852E-10
        45  12 -3.062295E+05 -1.314445E+03 -3.852274E+03  4.036910E+02 -2.609350E-09  1.131618E-10
        45  13 -3.062292E+05  7.062879E+01 -1.150764E+03 -5.532877E-09  1.076840E-09 -2.241138E-10
        45  14 -3.059667E+05  1.658071E+02 -1.976240E+03  1.103733E-08  1.560033E-09 -9.952520E-11
        45  15 -3.062295E+05 -1.314446E+03 -3.852274E+03  1.145384E-08 -2.785281E-09  7.910646E-10
        45  16 -3.062292E+05  7.062887E+01 -1.150764E+03  2.010175E+02 -2.055406E-10  3.038161E-11
        45  17 -3.059667E+05  1.658071E+02 -1.976240E+03 -1.013367E+02  2.318720E-10  1.942769E-10
        45  18 -3.062295E+05 -1.314445E+03 -3.852274E+03 -4.036910E+02  2.000931E-09  1.476239E-09
        45  19 -3.062292E+05  7.062910E+01 -1.150763E+03 -2.010175E+02 -9.305706E+02  3.014491E-04
        45  20 -3.059667E+05  1.658081E+02 -1.976233E+03  1.013367E+02 -1.938889E+03 -3.166297E-04
        45  21 -3.062295E+05 -1.314443E+03 -3.852257E+03  4.036910E+02 -2.947206E+03 -1.917298E-03
        45  22 -3.062292E+05  7.062902E+01 -1.150763E+03  1.598135E-08 -9.305706E+02  5.239772E-10
        45  23 -3.059667E+05  1.658081E+02 -1.976233E+03 -6.149567E-09 -1.938889E+03 -1.210306E-09
        45  24 -3.062295E+05 -1.314443E+03 -3.852257E+03  2.125398E-08 -2.947206E+03  3.011032E-10
        45  25 -3.062292E+05  7.062910E+01 -1.150763E+03  2.010175E+02 -9.305706E+02 -3.014480E-04
        45  26 -3.059667E+05  1.658081E+02 -1.976233E+03 -1.013367E+02 -1.938889E+03  3.166273E-04
        45  27 -3.062295E+05 -1.314443E+03 -3.852257E+03 -4.036910E+02 -2.947206E+03  1.917299E-03
        46   1 -3.071486E+05  7.479279E+02 -4.745109E+03 -1.951187E+03  3.671402E+03 -1.154414E-02
        46   2 -3.048181E+05  1.659071E+03 -7.684336E+03  1.455668E+03  7.805584E+03  1.831036E-02
        46   3 -3.071507E+05 -1.392591E+04 -1.744007E+04  4.862458E+03  1.193971E+04  9.355771E-02
        46   4 -3.071486E+05  7.479207E+02 -4.745110E+03  9.644656E-10  3.671402E+03  1.512100E-10
        46   5 -3.048181E+05  1.659067E+03 -7.684336E+03  1.100103E-09  7.805584E+03 -1.448717E-09
        46   6 -3.071508E+05 -1.392595E+04 -1.744008E+04  1.200277E-08  1.193971E+04 -6.887662E-10
        46   7 -3.071486E+05  7.479279E+02 -4.745109E+03  1.951187E+03  3.671402E+03  1.154414E-02
        46   8 -3.048181E+05  1.659071E+03 -7.684336E+03 -1.455668E+03  7.805584E+03 -1.831036E-02
        46   9 -3.071507E+05 -1.392591E+04 -1.744007E+04 -4.862458E+03  1.193971E+04 -9.355771E-02
        46  10 -3.071486E+05  7.479243E+02 -4.745134E+03 -1.951187E+03 -1.821106E-10  3.599549E-12
        46  11 -3.048181E+05  1.659055E+03 -7.684450E+03  1.455668E+03  1.097724E-09 -6.151850E-10
        46  12 -3.071509E+05 -1.392595E+04 -1.744034E+04  4.862458E+03 -5.649479E-10 -2.983843E-10
        46  13 -3.071486E+05  7.479171E+02 -4.745135E+03  7.596905E-10 -3.006836E-09  4.037350E-10
        46  14 -3.048182E+05  1.659051E+03 -7.684451E+03 -5.399873E-09 -4.307338E-09 -1.063850E-09
        46  15 -3.071509E+05 -1.392599E+04 -1.744035E+04  2.884854E-10  4.956121E-11 -5.301141E-10
        46  16 -3.071486E+05  7.479243E+02 -4.745134E+03  1.951187E+03 -3.077482E-10  8.261319E-10
        46  17 -3.048181E+05  1.659055E+03 -7.684450E+03 -1.455668E+03  1.407455E-09 -1.517715E-09
        46  18 -3.071509E+05 -1.392595E+04 -1.744034E+04 -4.862458E+03  1.792799E-09 -8.052612E-10
        46  19 -3.071486E+05  7.479279E+02 -4.745109E+03 -1.951187E+03 -3.671402E+03  1.154414E-02
        46  20 -3.048181E+05  1.659071E+03 -7.684336E+03  1.455668E+03 -7.805584E+03 -1.831036E-02
        46  21 -3.071507E+05 -1.392591E+04 -1.744007E+04  4.862458E+03 -1.193971E+04 -9.355771E-02
        46  22 -3.071486E+05  7.479207E+02 -4.745110E+03  9.165457E-09 -3.671402E+03  6.480463E-10
        46  23 -3.048181E+05  1.659067E+03 -7.684336E+03 -7.592730E-09 -7.805584E+03 -6.794903E-10
        46  24 -3.071508E+05 -1.392595E+04 -1.744008E+04  1.603063E-08 -1.193971E+04 -3.630518E-10
        46  25 -3.071486E+05  7.479279E+02 -4.745109E+03  1.951187E+03 -3.671402E+03 -1.154414E-02
        46  26 -3.048181E+05  1.659071E+03 -7.684336E+03 -1.455668E+03 -7.805584E+03  1.831036E-02
        46  27 -3.071507E+05 -1.392591E+04 -1.744007E+04 -4.862458E+03 -1.193971E+04  9.355771E-02
        47   1  1.116664E+05 -4.932582E+05  1.006029E+05 -2.701445E+04  6.215867E+03 -2.017690E+04
        47   2  1.326545E+05 -5.628334E+05  1.026775E+05 -1.179482E+04  1.833062E+04 -1.755635E+04
        47   3  1.119663E+05 -6.429758E+05  9.266849E+04 -4.501565E+04  1.612651E+04 -1.493976E+04
        47   4 -3.650816E+04 -1.087325E+06 -4.571110E+04 -3.967988E+04  6.218397E+03 -3.125233E+04
        47   5  4.300808E+03 -1.081299E+06 -2.018350E+04 -1.545310E+04  1.833293E+04 -2.039738E+04
        47   6  1.983435E+03 -1.087287E+06 -1.247318E+04 -3.967005E+04  1.612336E+04 -9.545807E+03
        47   7 -1.847083E+05 -1.681070E+06 -1.920506E+05 -5.233315E+04  6.221381E+03 -4.231716E+04
        47   8 -1.240722E+05 -1.599518E+06 -1.430631E+05 -1.910828E+04  1.833527E+04 -2.323605E+04
        47   9 -1.080135E+05 -1.531417E+06 -1.176284E+05 -3.432827E+04  1.612032E+04 -4.155699E+03
        47  10  1.116662E+05 -4.932587E+05  1.006020E+05 -2.701435E+04  1.077742E-09  1.030649E-09
        47  11  1.326541E+05 -5.628338E+05  1.026763E+05 -1.179456E+04  5.685083E-10  8.619724E-11
        47  12  1.119660E+05 -6.429761E+05  9.266759E+04 -4.501545E+04  4.179075E-09 -1.983628E-10
        47  13 -3.650847E+04 -1.087326E+06 -4.571301E+04 -3.967973E+04  5.483520E-10  8.063379E-11
        47  14  4.300336E+03 -1.081300E+06 -2.018491E+04 -1.545280E+04  2.788069E-09  1.888774E-11
        47  15  1.983131E+03 -1.087288E+06 -1.247384E+04 -3.966993E+04  3.028919E-09  2.012201E-10
        47  16 -1.847089E+05 -1.681072E+06 -1.920540E+05 -5.233293E+04 -5.080029E-10 -9.776558E-10
        47  17 -1.240727E+05 -1.599519E+06 -1.430648E+05 -1.910793E+04  1.678337E-09 -8.941408E-10
        47  18 -1.080138E+05 -1.531417E+06 -1.176290E+05 -3.432822E+04 -1.297233E-09  7.752785E-11
        47  19  1.116664E+05 -4.932582E+05  1.006029E+05 -2.701445E+04 -6.215867E+03  2.017690E+04
        47  20  1.326545E+05 -5.628334E+05  1.026775E+05 -1.179482E+04 -1.833062E+04  1.755635E+04
        47  21  1.119663E+05 -6.429758E+05  9.266849E+04 -4.501565E+04 -1.612651E+04  1.493976E+04
        47  22 -3.650816E+04 -1.087325E+06 -4.571110E+04 -3.967988E+04 -6.218397E+03  3.125233E+04
        47  23  4.300808E+03 -1.081299E+06 -2.018350E+04 -1.545310E+04 -1.833293E+04  2.039738E+04
        47  24  1.983435E+03 -1.087287E+06 -1.247318E+04 -3.967005E+04 -1.612336E+04  9.545807E+03
        47  25 -1.847083E+05 -1.681070E+06 -1.920506E+05 -5.233315E+04 -6.221381E+03  4.231716E+04
        47  26 -1.240722E+05 -1.599518E+06 -1.430631E+05 -1.910828E+04 -1.833527E+04  2.323605E+04
        47  27 -1.080135E+05 -1.531417E+06 -1.176284E+05 -3.432827E+04 -1.612032E+04  4.155699E+03
        48   1  8.469966E+04 -7.291570E+05  7.427342E+04 -3.912205E+04  1.226442E+04 -8.756444E+03
        48   2  6.966539E+04 -8.046922E+05  6.093030E+04 -1.500642E+04  9.934344E+03 -6.517620E+03
        48   3  5.054592E+04 -8.815804E+05  4.509721E+04 -4.071466E+04  6.799969E+03 -4.281366E+03
        48   4 -3.409069E+03 -1.084923E+06 -1.016006E+04 -3.998288E+04  1.226399E+04 -7.645235E+03
        48   5  4.615864E+02 -1.084197E+06 -5.295590E+03 -1.506864E+04  9.933147E+03 -4.945048E+03
        48   6  1.660420E+02 -1.084911E+06 -3.242764E+03 -3.997976E+04  6.797831E+03 -2.247159E+03
        48   7 -9.152692E+04 -1.440573E+06 -9.460237E+04 -4.084319E+04  1.226356E+04 -6.534660E+03
        48   8 -6.874783E+04 -1.363630E+06 -7.152690E+04 -1.513082E+04  9.931950E+03 -3.373180E+03
        48   9 -5.021682E+04 -1.288203E+06 -5.158561E+04 -3.924509E+04  6.795699E+03 -2.136159E+02
        48  10  8.469948E+04 -7.291571E+05  7.427299E+04 -3.912196E+04  2.729909E-09 -7.156815E-10
        48  11  6.966527E+04 -8.046923E+05  6.093003E+04 -1.500637E+04 -4.218466E-10 -2.644073E-09
        48  12  5.054587E+04 -8.815805E+05  4.509709E+04 -4.071464E+04 -9.930803E-10 -1.827485E-09
        48  13 -3.409246E+03 -1.084923E+06 -1.016045E+04 -3.998281E+04  6.399567E-10  4.450812E-10
        48  14  4.614739E+02 -1.084197E+06 -5.295822E+03 -1.506860E+04 -2.471765E-10  1.039336E-10
        48  15  1.659911E+02 -1.084911E+06 -3.242861E+03 -3.997975E+04 -2.349991E-09  4.109639E-10
        48  16 -9.152709E+04 -1.440573E+06 -9.460273E+04 -4.084313E+04 -1.541881E-09  1.158130E-09
        48  17 -6.874794E+04 -1.363630E+06 -7.152711E+04 -1.513079E+04 -2.204267E-09  6.955102E-10
        48  18 -5.021687E+04 -1.288203E+06 -5.158570E+04 -3.924509E+04 -5.515735E-11  1.498190E-09
        48  19  8.469966E+04 -7.291570E+05  7.427342E+04 -3.912205E+04 -1.226442E+04  8.756444E+03
        48  20  6.966539E+04 -8.046922E+05  6.093030E+04 -1.500642E+04 -9.934344E+03  6.517620E+03
        48  21  5.054592E+04 -8.815804E+05  4.509721E+04 -4.071466E+04 -6.799969E+03  4.281366E+03
        48  22 -3.409069E+03 -1.084923E+06 -1.016006E+04 -3.998288E+04 -1.226399E+04  7.645235E+03
        48  23  4.615864E+02 -1.084197E+06 -5.295590E+03 -1.506864E+04 -9.933147E+03  4.945048E+03
        48  24  1.660420E+02 -1.084911E+06 -3.242764E+03 -3.997976E+04 -6.797831E+03  2.247159E+03
        48  25 -9.152692E+04 -1.440573E+06 -9.460237E+04 -4.084319E+04 -1.226356E+04  6.534660E+03
        48  26 -6.874783E+04 -1.363630E+06 -7.152690E+04 -1.513082E+04 -9.931950E+03  3.373180E+03
        48  27 -5.021682E+04 -1.288203E+06 -5.158561E+04 -3.924509E+04 -6.795699E+03  2.136159E+02
        49   1  2.794492E+04 -9.710397E+05  2.418244E+04 -3.994093E+04  4.475665E+03 -4.079571E+03
        49   2  9.370438E+03 -1.047428E+06  7.134837E+03 -1.512505E+04  1.329898E+03 -2.184069E+03
        49   3 -1.100779E+04 -1.124648E+06 -1.163013E+04 -4.049347E+04  3.083979E+01 -2.870067E+02
        49   4 -1.738970E+02 -1.084728E+06 -2.595557E+03 -4.006035E+04  4.472982E+03 -1.739675E+03
        49   5  2.153352E+02 -1.084401E+06 -1.621750E+03 -1.496857E+04  1.328409E+03 -9.068284E+02
        49   6 -1.014423E+03 -1.084727E+06 -1.626521E+03 -4.006130E+04  3.057953E+01 -7.217331E+01
        49   7 -2.829364E+04 -1.198405E+06 -2.937443E+04 -4.017974E+04  4.470299E+03  5.997940E+02
        49   8 -8.939865E+03 -1.121373E+06 -1.037843E+04 -1.481209E+04  1.326920E+03  3.703367E+02
        49   9  8.978822E+03 -1.044805E+06  8.376963E+03 -3.962909E+04  3.031957E+01  1.426739E+02
        49  10  2.794489E+04 -9.710397E+05  2.418237E+04 -3.994091E+04 -8.986535E-10  1.227236E-09
        49  11  9.370435E+03 -1.047428E+06  7.134824E+03 -1.512505E+04 -2.346150E-09 -1.476334E-09
        49  12 -1.100779E+04 -1.124648E+06 -1.163013E+04 -4.049347E+04  1.260413E-09 -1.318916E-09
        49  13 -1.739193E+02 -1.084728E+06 -2.595600E+03 -4.006034E+04 -1.415720E-09  6.280754E-10
        49  14  2.153331E+02 -1.084401E+06 -1.621755E+03 -1.496856E+04  2.280648E-09  5.180876E-11
        49  15 -1.014423E+03 -1.084727E+06 -1.626521E+03 -4.006130E+04  1.694683E-09  3.975425E-10
        49  16 -2.829366E+04 -1.198405E+06 -2.937447E+04 -4.017974E+04 -1.472671E-09 -5.546620E-10
        49  17 -8.939867E+03 -1.121373E+06 -1.037843E+04 -1.481209E+04 -4.884068E-10 -8.366964E-10
        49  18  8.978822E+03 -1.044805E+06  8.376963E+03 -3.962909E+04  1.724712E-09  9.757117E-10
        49  19  2.794492E+04 -9.710397E+05  2.418244E+04 -3.994093E+04 -4.475665E+03  4.079571E+03
        49  20  9.370438E+03 -1.047428E+06  7.134837E+03 -1.512505E+04 -1.329898E+03  2.184069E+03
        49  21 -1.100779E+04 -1.124648E+06 -1.163013E+04 -4.049347E+04 -3.083979E+01  2.870067E+02
        49  22 -1.738970E+02 -1.084728E+06 -2.595557E+03 -4.006035E+04 -4.472982E+03  1.739675E+03
        49  23  2.153352E+02 -1.084401E+06 -1.621750E+03 -1.496857E+04 -1.328409E+03  9.068284E+02
        49  24 -1.014423E+03 -1.084727E+06 -1.626521E+03 -4.006130E+04 -3.057953E+01  7.217331E+01
        49  25 -2.829364E+04 -1.198405E+06 -2.937443E+04 -4.017974E+04 -4.470299E+03 -5.997940E+02
        49  26 -8.939865E+03 -1.121373E+06 -1.037843E+04 -1.481209E+04 -1.326920E+03 -3.703367E+02
        49  27  8.978822E+03 -1.044805E+06  8.376963E+03 -3.962909E+04 -3.031957E+01 -1.426739E+02
        50   1 -8.790788E+05 -1.584184E+05 -3.306591E+04 -3.272693E+05 -6.416333E+03 -1.189769E+03
        50   2 -8.680148E+05 -1.434446E+05 -2.459259E+04 -3.204347E+05 -4.288470E+03  1.926596E+03
        50   3 -8.528113E+05 -1.414599E+05 -1.995176E+04 -3.198890E+05 -1.212692E+03  2.515011E+03
        50   4 -7.830080E+05 -1.206149E+05 -6.678180E+03 -2.995021E+05 -4.640963E+03 -5.240906E+02
        50   5 -7.848647E+05 -1.117874E+05 -2.803075E+03 -2.972824E+05 -3.874552E+03  2.081739E+03
        50   6 -7.823117E+05 -1.156787E+05 -1.680434E+03 -3.013519E+05 -2.160347E+03  2.159761E+03
        50   7 -6.869292E+05 -8.281095E+04  1.970846E+04 -2.717312E+05 -2.865307E+03  1.417060E+02
        50   8 -7.017082E+05 -8.012983E+04  1.898579E+04 -2.741274E+05 -3.460574E+03  2.236906E+03
        50   9 -7.118069E+05 -8.989706E+04  1.659057E+04 -2.828129E+05 -3.108125E+03  1.804467E+03
        50  10 -8.790789E+05 -1.584184E+05 -3.306599E+04 -3.272693E+05 -3.784396E-11 -1.027343E-10
        50  11 -8.680148E+05 -1.434446E+05 -2.459263E+04 -3.204347E+05 -7.519169E-10 -1.014112E-10
        50  12 -8.528113E+05 -1.414599E+05 -1.995177E+04 -3.198890E+05  9.447759E-11  3.276041E-10
        50  13 -7.830080E+05 -1.206149E+05 -6.678221E+03 -2.995021E+05 -2.938726E-11 -1.556934E-11
        50  14 -7.848648E+05 -1.117874E+05 -2.803111E+03 -2.972824E+05 -8.953073E-10  3.302325E-10
        50  15 -7.823117E+05 -1.156787E+05 -1.680452E+03 -3.013519E+05  2.614734E-09  6.927310E-10
        50  16 -6.869292E+05 -8.281096E+04  1.970845E+04 -2.717312E+05 -1.227707E-09  4.283338E-12
        50  17 -7.017082E+05 -8.012984E+04  1.898576E+04 -2.741274E+05  1.336756E-09  5.515609E-10
        50  18 -7.118069E+05 -8.989707E+04  1.659054E+04 -2.828129E+05  1.880050E-09  8.316792E-10
        50  19 -8.790788E+05 -1.584184E+05 -3.306591E+04 -3.272693E+05  6.416333E+03  1.189769E+03
        50  20 -8.680148E+05 -1.434446E+05 -2.459259E+04 -3.204347E+05  4.288470E+03 -1.926596E+03
        50  21 -8.528113E+05 -1.414599E+05 -1.995176E+04 -3.198890E+05  1.212692E+03 -2.515011E+03
        50  22 -7.830080E+05 -1.206149E+05 -6.678180E+03 -2.995021E+05  4.640963E+03  5.240906E+02
        50  23 -7.848647E+05 -1.117874E+05 -2.803075E+03 -2.972824E+05  3.874552E+03 -2.081739E+03
        50  24 -7.823117E+05 -1.156787E+05 -1.680434E+03 -3.013519E+05  2.160347E+03 -2.159761E+03
        50  25 -6.869292E+05 -8.281095E+04  1.970846E+04 -2.717312E+05  2.865307E+03 -1.417060E+02
        50  26 -7.017082E+05 -8.012983E+04  1.898579E+04 -2.741274E+05  3.460574E+03 -2.236906E+03
        50  27 -7.118069E+05 -8.989706E+04  1.659057E+04 -2.828129E+05  3.108125E+03 -1.804467E+03
        51   1 -8.348173E+05 -1.363164E+05 -1.518830E+04 -3.155305E+05 -1.461452E+03  1.604131E+03
        51   2 -8.244252E+05 -1.270321E+05 -1.086879E+04 -3.078528E+05 -8.518325E+02  1.318081E+03
        51   3 -8.073459E+05 -1.253358E+05 -7.043810E+03 -3.080239E+05 -1.758806E+02  8.549067E+02
        51   4 -7.820611E+05 -1.163832E+05 -1.363740E+03 -3.010052E+05 -1.656845E+03  1.530879E+03
        51   5 -7.853791E+05 -1.123518E+05 -6.665987E+02 -2.971733E+05 -1.142606E+03  1.209092E+03
        51   6 -7.819911E+05 -1.158894E+05 -3.883103E+02 -3.011900E+05 -5.620508E+02  7.101837E+02
        51   7 -7.293021E+05 -9.644971E+04  1.246061E+04 -2.864787E+05 -1.852257E+03  1.457620E+03
        51   8 -7.463316E+05 -9.767149E+04  9.535405E+03 -2.864932E+05 -1.433398E+03  1.100095E+03
        51   9 -7.566360E+05 -1.064430E+05  6.267050E+03 -2.943559E+05 -9.482336E+02  5.654561E+02
        51  10 -8.348173E+05 -1.363164E+05 -1.518831E+04 -3.155305E+05  2.081648E-09  2.524857E-10
        51  11 -8.244252E+05 -1.270321E+05 -1.086879E+04 -3.078528E+05  2.008459E-09 -3.135963E-10
        51  12 -8.073459E+05 -1.253358E+05 -7.043811E+03 -3.080239E+05 -2.155852E-09  3.200366E-10
        51  13 -7.820611E+05 -1.163832E+05 -1.363750E+03 -3.010052E+05  3.147141E-09  1.823806E-10
        51  14 -7.853791E+05 -1.123518E+05 -6.666039E+02 -2.971733E+05  1.436366E-09  1.352856E-10
        51  15 -7.819911E+05 -1.158894E+05 -3.883118E+02 -3.011900E+05  1.514147E-09  5.064332E-10
        51  16 -7.293021E+05 -9.644972E+04  1.246060E+04 -2.864787E+05  3.987934E-10 -5.721079E-11
        51  17 -7.463316E+05 -9.767149E+04  9.535398E+03 -2.864932E+05 -1.728651E-09 -2.655441E-10
        51  18 -7.566360E+05 -1.064430E+05  6.267048E+03 -2.943559E+05  7.789306E-10  8.258848E-10
        51  19 -8.348173E+05 -1.363164E+05 -1.518830E+04 -3.155305E+05  1.461452E+03 -1.604131E+03
        51  20 -8.244252E+05 -1.270321E+05 -1.086879E+04 -3.078528E+05  8.518325E+02 -1.318081E+03
        51  21 -8.073459E+05 -1.253358E+05 -7.043810E+03 -3.080239E+05  1.758806E+02 -8.549067E+02
        51  22 -7.820611E+05 -1.163832E+05 -1.363740E+03 -3.010052E+05  1.656845E+03 -1.530879E+03
        51  23 -7.853791E+05 -1.123518E+05 -6.665987E+02 -2.971733E+05  1.142606E+03 -1.209092E+03
        51  24 -7.819911E+05 -1.158894E+05 -3.883103E+02 -3.011900E+05  5.620508E+02 -7.101837E+02
        51  25 -7.293021E+05 -9.644971E+04  1.246061E+04 -2.864787E+05  1.852257E+03 -1.457620E+03
        51  26 -7.463316E+05 -9.767149E+04  9.535405E+03 -2.864932E+05  1.433398E+03 -1.100095E+03
        51  27 -7.566360E+05 -1.064430E+05  6.267050E+03 -2.943559E+05  9.482336E+02 -5.654561E+02
        52   1 -7.899107E+05 -1.189471E+05 -2.339043E+03 -3.033405E+05 -2.298449E+01  4.602546E+02
        52   2 -7.795635E+05 -1.102039E+05  1.353950E+03 -2.955588E+05  3.087457E+02 -1.298394E+02
        52   3 -7.622480E+05 -1.085276E+05  4.957955E+03 -2.957961E+05  6.446555E+02 -7.310157E+02
        52   4 -7.819585E+05 -1.159620E+05 -3.078743E+02 -3.011588E+05 -3.574816E+02  3.349015E+02
        52   5 -7.854397E+05 -1.124054E+05 -1.801066E+02 -2.971580E+05 -3.172879E+01 -2.574388E+02
        52   6 -7.819517E+05 -1.159147E+05 -1.366090E+02 -3.011765E+05  2.982006E+02 -8.608612E+02
        52   7 -7.740061E+05 -1.129769E+05  1.723312E+03 -2.989770E+05 -6.919867E+02  2.095453E+02
        52   8 -7.913159E+05 -1.146070E+05 -1.714180E+03 -2.987572E+05 -3.722027E+02 -3.850380E+02
        52   9 -8.016551E+05 -1.233018E+05 -5.231244E+03 -3.065567E+05 -4.824467E+01 -9.907031E+02
        52  10 -7.899107E+05 -1.189471E+05 -2.339043E+03 -3.033405E+05  3.218255E-10  5.674408E-10
        52  11 -7.795635E+05 -1.102039E+05  1.353950E+03 -2.955588E+05 -1.553961E-09 -3.884387E-10
        52  12 -7.622480E+05 -1.085276E+05  4.957953E+03 -2.957961E+05 -2.063119E-09  8.263504E-11
        52  13 -7.819585E+05 -1.159620E+05 -3.078748E+02 -3.011588E+05 -1.753270E-10  5.789485E-10
        52  14 -7.854397E+05 -1.124054E+05 -1.801068E+02 -2.971580E+05  2.539159E-09  5.292253E-10
        52  15 -7.819517E+05 -1.159147E+05 -1.366106E+02 -3.011765E+05  1.677787E-09  5.185936E-10
        52  16 -7.740061E+05 -1.129769E+05  1.723311E+03 -2.989770E+05 -2.830516E-10  5.173876E-10
        52  17 -7.913159E+05 -1.146070E+05 -1.714180E+03 -2.987572E+05 -8.919085E-10  8.066887E-11
        52  18 -8.016551E+05 -1.233018E+05 -5.231246E+03 -3.065567E+05  1.631115E-09  1.141568E-09
        52  19 -7.899107E+05 -1.189471E+05 -2.339043E+03 -3.033405E+05  2.298449E+01 -4.602546E+02
        52  20 -7.795635E+05 -1.102039E+05  1.353950E+03 -2.955588E+05 -3.087457E+02  1.298394E+02
        52  21 -7.622480E+05 -1.085276E+05  4.957955E+03 -2.957961E+05 -6.446555E+02  7.310157E+02
        52  22 -7.819585E+05 -1.159620E+05 -3.078743E+02 -3.011588E+05  3.574816E+02 -3.349015E+02
        52  23 -7.854397E+05 -1.124054E+05 -1.801066E+02 -2.971580E+05  3.172879E+01  2.574388E+02
        52  24 -7.819517E+05 -1.159147E+05 -1.366090E+02 -3.011765E+05 -2.982006E+02  8.608612E+02
        52  25 -7.740061E+05 -1.129769E+05  1.723312E+03 -2.989770E+05  6.919867E+02 -2.095453E+02
        52  26 -7.913159E+05 -1.146070E+05 -1.714180E+03 -2.987572E+05  3.722027E+02  3.850380E+02
        52  27 -8.016551E+05 -1.233018E+05 -5.231244E+03 -3.065567E+05  4.824467E+01  9.907031E+02
        53   1 -7.449804E+05 -1.020357E+05  9.574199E+03 -2.910897E+05  8.026365E+02 -1.096850E+03
        53   2 -7.347130E+05 -9.340600E+04  1.308349E+04 -2.833517E+05  1.119064E+03 -1.702026E+03
        53   3 -7.175031E+05 -9.174942E+04  1.653055E+04 -2.835889E+05  1.434714E+03 -2.304927E+03
        53   4 -7.819603E+05 -1.159095E+05 -1.333472E+02 -3.011611E+05  4.601140E+02 -1.225229E+03
        53   5 -7.854318E+05 -1.124248E+05 -1.596802E+02 -2.971728E+05  7.777494E+02 -1.829970E+03
        53   6 -7.819611E+05 -1.159134E+05 -2.491766E+02 -3.011597E+05  1.094606E+03 -2.432439E+03
        53   7 -8.189385E+05 -1.297830E+05 -9.840886E+03 -3.112319E+05  1.176180E+02 -1.353597E+03
        53   8 -8.361478E+05 -1.314434E+05 -1.340302E+04 -3.109929E+05  4.364662E+02 -1.957902E+03
        53   9 -8.464153E+05 -1.400772E+05 -1.702934E+04 -3.187290E+05  7.545347E+02 -2.559937E+03
        53  10 -7.449804E+05 -1.020357E+05  9.574195E+03 -2.910897E+05 -1.136250E-09  9.973085E-10
        53  11 -7.347130E+05 -9.340600E+04  1.308348E+04 -2.833517E+05 -9.223974E-10  6.175269E-10
        53  12 -7.175031E+05 -9.174943E+04  1.653054E+04 -2.835889E+05  5.403339E-10 -5.862699E-10
        53  13 -7.819603E+05 -1.159095E+05 -1.333504E+02 -3.011611E+05 -2.338647E-10  5.959164E-10
        53  14 -7.854318E+05 -1.124248E+05 -1.596876E+02 -2.971728E+05 -5.258357E-10 -1.134807E-10
        53  15 -7.819611E+05 -1.159134E+05 -2.491900E+02 -3.011597E+05 -2.259168E-09  1.080557E-10
        53  16 -8.189385E+05 -1.297830E+05 -9.840889E+03 -3.112319E+05  2.655679E-10  3.245689E-10
        53  17 -8.361478E+05 -1.314434E+05 -1.340303E+04 -3.109929E+05  1.040258E-09 -8.090032E-10
        53  18 -8.464153E+05 -1.400772E+05 -1.702936E+04 -3.187290E+05 -2.177702E-09  7.916530E-10
        53  19 -7.449804E+05 -1.020357E+05  9.574199E+03 -2.910897E+05 -8.026365E+02  1.096850E+03
        53  20 -7.347130E+05 -9.340600E+04  1.308349E+04 -2.833517E+05 -1.119064E+03  1.702026E+03
        53  21 -7.175031E+05 -9.174942E+04  1.653055E+04 -2.835889E+05 -1.434714E+03  2.304927E+03
        53  22 -7.819603E+05 -1.159095E+05 -1.333472E+02 -3.011611E+05 -4.601140E+02  1.225229E+03
        53  23 -7.854318E+05 -1.124248E+05 -1.596802E+02 -2.971728E+05 -7.777494E+02  1.829970E+03
        53  24 -7.819611E+05 -1.159134E+05 -2.491766E+02 -3.011597E+05 -1.094606E+03  2.432439E+03
        53  25 -8.189385E+05 -1.297830E+05 -9.840886E+03 -3.112319E+05 -1.176180E+02  1.353597E+03
        53  26 -8.361478E+05 -1.314434E+05 -1.340302E+04 -3.109929E+05 -4.364662E+02  1.957902E+03
        53  27 -8.464153E+05 -1.400772E+05 -1.702934E+04 -3.187290E+05 -7.545347E+02  2.559937E+03
        54   1 -7.004613E+05 -8.530235E+04  2.102041E+04 -2.789271E+05  1.618079E+03 -2.654696E+03
        54   2 -6.903751E+05 -7.681810E+04  2.424897E+04 -2.713159E+05  2.128857E+03 -3.176211E+03
        54   3 -6.735235E+05 -7.526020E+04  2.724813E+04 -2.715172E+05  2.636884E+03 -3.690014E+03
        54   4 -7.819976E+05 -1.158770E+05 -3.194289E+02 -3.011338E+05  1.279168E+03 -2.781780E+03
        54   5 -7.853856E+05 -1.124511E+05 -5.596586E+02 -2.972134E+05  1.794044E+03 -3.301796E+03
        54   6 -7.820090E+05 -1.159525E+05 -1.032521E+03 -3.011058E+05  2.306163E+03 -3.814100E+03
        54   7 -8.635275E+05 -1.464512E+05 -2.165983E+04 -3.233378E+05  9.403049E+02 -2.908846E+03
        54   8 -8.803872E+05 -1.480836E+05 -2.536901E+04 -3.231073E+05  1.459288E+03 -3.427359E+03
        54   9 -8.904829E+05 -1.566440E+05 -2.931407E+04 -3.306896E+05  1.975506E+03 -3.938161E+03
        54  10 -7.004613E+05 -8.530236E+04  2.102039E+04 -2.789271E+05  3.140878E-10 -5.103261E-10
        54  11 -6.903751E+05 -7.681811E+04  2.424894E+04 -2.713159E+05 -3.051925E-09 -2.523153E-10
        54  12 -6.735235E+05 -7.526022E+04  2.724809E+04 -2.715172E+05 -3.239428E-10 -1.023062E-09
        54  13 -7.819976E+05 -1.158770E+05 -3.194465E+02 -3.011338E+05 -1.398376E-09 -3.102038E-11
        54  14 -7.853856E+05 -1.124512E+05 -5.596851E+02 -2.972134E+05 -5.322859E-09 -5.036773E-10
        54  15 -7.820090E+05 -1.159526E+05 -1.032558E+03 -3.011058E+05  5.805294E-10 -7.723865E-10
        54  16 -8.635275E+05 -1.464512E+05 -2.165985E+04 -3.233378E+05 -3.600944E-09  5.629486E-10
        54  17 -8.803872E+05 -1.480836E+05 -2.536903E+04 -3.231073E+05 -3.934568E-09 -9.383252E-10
        54  18 -8.904829E+05 -1.566440E+05 -2.931411E+04 -3.306896E+05  6.684477E-11 -7.154582E-10
        54  19 -7.004613E+05 -8.530235E+04  2.102041E+04 -2.789271E+05 -1.618079E+03  2.654696E+03
        54  20 -6.903751E+05 -7.681810E+04  2.424897E+04 -2.713159E+05 -2.128857E+03  3.176211E+03
        54  21 -6.735235E+05 -7.526020E+04  2.724813E+04 -2.715172E+05 -2.636884E+03  3.690014E+03
        54  22 -7.819976E+05 -1.158770E+05 -3.194289E+02 -3.011338E+05 -1.279168E+03  2.781780E+03
        54  23 -7.853856E+05 -1.124511E+05 -5.596586E+02 -2.972134E+05 -1.794044E+03  3.301796E+03
        54  24 -7.820090E+05 -1.159525E+05 -1.032521E+03 -3.011058E+05 -2.306163E+03  3.814100E+03
        54  25 -8.635275E+05 -1.464512E+05 -2.165983E+04 -3.233378E+05 -9.403049E+02  2.908846E+03
        54  26 -8.803872E+05 -1.480836E+05 -2.536901E+04 -3.231073E+05 -1.459288E+03  3.427359E+03
        54  27 -8.904829E+05 -1.566440E+05 -2.931407E+04 -3.306896E+05 -1.975506E+03  3.938161E+03
        55   1 -6.568689E+05 -6.893837E+04  3.137658E+04 -2.670959E+05  2.974163E+03 -3.975891E+03
        55   2 -6.470220E+05 -6.051992E+04  3.367394E+04 -2.595584E+05  4.408886E+03 -4.129619E+03
        55   3 -6.310420E+05 -5.968293E+04  3.482046E+04 -2.594055E+05  5.830276E+03 -4.247118E+03
        55   4 -7.821105E+05 -1.158099E+05 -1.355185E+03 -3.011195E+05  2.637473E+03 -4.102247E+03
        55   5 -7.852301E+05 -1.124031E+05 -2.422575E+03 -2.972826E+05  4.091417E+03 -4.248819E+03
        55   6 -7.822208E+05 -1.165820E+05 -4.656303E+03 -3.008305E+05  5.531997E+03 -4.359168E+03
        55   7 -9.073372E+05 -1.626806E+05 -3.408839E+04 -3.351371E+05  2.300857E+03 -4.228575E+03
        55   8 -9.234199E+05 -1.642851E+05 -3.852077E+04 -3.349993E+05  3.774024E+03 -4.367990E+03
        55   9 -9.333775E+05 -1.734796E+05 -4.413500E+04 -3.422465E+05  5.233796E+03 -4.471189E+03
        55  10 -6.568689E+05 -6.893839E+04  3.137654E+04 -2.670959E+05  9.294970E-10 -9.194835E-10
        55  11 -6.470221E+05 -6.051995E+04  3.367387E+04 -2.595584E+05  6.612010E-10  1.797706E-10
        55  12 -6.310421E+05 -5.968295E+04  3.482036E+04 -2.594054E+05 -2.773769E-10  2.175273E-10
        55  13 -7.821105E+05 -1.158099E+05 -1.355230E+03 -3.011195E+05  1.322177E-09 -5.171472E-10
        55  14 -7.852301E+05 -1.124031E+05 -2.422641E+03 -2.972826E+05 -3.336089E-09  1.691974E-11
        55  15 -7.822209E+05 -1.165820E+05 -4.656396E+03 -3.008305E+05 -2.778364E-09 -3.410006E-10
        55  16 -9.073372E+05 -1.626806E+05 -3.408843E+04 -3.351370E+05  1.677357E-09 -1.936893E-10
        55  17 -9.234199E+05 -1.642852E+05 -3.852083E+04 -3.349992E+05  2.194844E-09 -2.471368E-10
        55  18 -9.333775E+05 -1.734797E+05 -4.413509E+04 -3.422465E+05 -9.720489E-10 -4.458294E-10
        55  19 -6.568689E+05 -6.893837E+04  3.137658E+04 -2.670959E+05 -2.974163E+03  3.975891E+03
        55  20 -6.470220E+05 -6.051992E+04  3.367394E+04 -2.595584E+05 -4.408886E+03  4.129619E+03
        55  21 -6.310420E+05 -5.968293E+04  3.482046E+04 -2.594055E+05 -5.830276E+03  4.247118E+03
        55  22 -7.821105E+05 -1.158099E+05 -1.355185E+03 -3.011195E+05 -2.637473E+03  4.102247E+03
        55  23 -7.852301E+05 -1.124031E+05 -2.422575E+03 -2.972826E+05 -4.091417E+03  4.248819E+03
        55  24 -7.822208E+05 -1.165820E+05 -4.656303E+03 -3.008305E+05 -5.531997E+03  4.359168E+03
        55  25 -9.073372E+05 -1.626806E+05 -3.408839E+04 -3.351371E+05 -2.300857E+03  4.228575E+03
        55  26 -9.234199E+05 -1.642851E+05 -3.852077E+04 -3.349993E+05 -3.774024E+03  4.367990E+03
        55  27 -9.333775E+05 -1.734796E+05 -4.413500E+04 -3.422465E+05 -5.233796E+03  4.471189E+03
        56   1 -6.145357E+05 -5.346748E+04  3.774489E+04 -2.566506E+05  6.952282E+03 -4.281359E+03
        56   2 -6.048777E+05 -4.351984E+04  3.646083E+04 -2.478561E+05  1.238977E+04 -2.881769E+03
        56   3 -5.930655E+05 -4.937953E+04  2.871744E+04 -2.440150E+05  1.767495E+04 -1.075703E+03
        56   4 -7.827008E+05 -1.154812E+05 -6.001349E+03 -3.013936E+05  6.539031E+03 -4.436590E+03
        56   5 -7.843110E+05 -1.114729E+05 -1.051252E+04 -2.974469E+05  1.219396E+04 -2.955460E+03
        56   6 -7.838114E+05 -1.233168E+05 -2.165692E+04 -2.984536E+05  1.769648E+04 -1.067864E+03
        56   7 -9.508380E+05 -1.774932E+05 -4.974982E+04 -3.461256E+05  6.125904E+03 -4.591777E+03
        56   8 -9.637130E+05 -1.794237E+05 -5.748860E+04 -3.470247E+05  1.199822E+04 -3.029127E+03
        56   9 -9.745227E+05 -1.972515E+05 -7.203457E+04 -3.528770E+05  1.771800E+04 -1.060029E+03
        56  10 -6.145357E+05 -5.346752E+04  3.774477E+04 -2.566506E+05 -5.648368E-10 -3.571582E-10
        56  11 -6.048779E+05 -4.351989E+04  3.646052E+04 -2.478560E+05 -3.033558E-09 -5.530746E-10
        56  12 -5.930658E+05 -4.937962E+04  2.871685E+04 -2.440150E+05 -1.504350E-09 -5.367585E-10
        56  13 -7.827008E+05 -1.154812E+05 -6.001466E+03 -3.013936E+05  1.184861E-09 -3.025543E-10
        56  14 -7.843111E+05 -1.114729E+05 -1.051282E+04 -2.974469E+05 -3.122639E-09 -2.920021E-10
        56  15 -7.838118E+05 -1.233169E+05 -2.165751E+04 -2.984536E+05  4.917900E-11 -4.968705E-10
        56  16 -9.508381E+05 -1.774932E+05 -4.974993E+04 -3.461256E+05 -1.583775E-10  4.119041E-11
        56  17 -9.637132E+05 -1.794238E+05 -5.748889E+04 -3.470247E+05 -1.193943E-09  3.966784E-11
        56  18 -9.745230E+05 -1.972516E+05 -7.203517E+04 -3.528769E+05  1.565098E-10  5.447489E-11
        56  19 -6.145357E+05 -5.346748E+04  3.774489E+04 -2.566506E+05 -6.952282E+03  4.281359E+03
        56  20 -6.048777E+05 -4.351984E+04  3.646083E+04 -2.478561E+05 -1.238977E+04  2.881769E+03
        56  21 -5.930655E+05 -4.937953E+04  2.871744E+04 -2.440150E+05 -1.767495E+04  1.075703E+03
        56  22 -7.827008E+05 -1.154812E+05 -6.001349E+03 -3.013936E+05 -6.539031E+03  4.436590E+03
        56  23 -7.843110E+05 -1.114729E+05 -1.051252E+04 -2.974469E+05 -1.219396E+04  2.955460E+03
        56  24 -7.838114E+05 -1.233168E+05 -2.165692E+04 -2.984536E+05 -1.769648E+04  1.067864E+03
        56  25 -9.508380E+05 -1.774932E+05 -4.974982E+04 -3.461256E+05 -6.125904E+03  4.591777E+03
        56  26 -9.637130E+05 -1.794237E+05 -5.748860E+04 -3.470247E+05 -1.199822E+04  3.029127E+03
        56  27 -9.745227E+05 -1.972515E+05 -7.203457E+04 -3.528770E+05 -1.771800E+04  1.060029E+03
        57   1 -5.720043E+05 -4.219876E+04  2.743697E+04 -2.564788E+05  2.352549E+04 -1.515174E+02
        57   2 -5.627469E+05 -1.406393E+04  1.266710E+04 -2.323831E+05  4.485954E+04  7.583805E+03
        57   3 -5.854627E+05 -8.513321E+04 -4.349186E+04 -1.907223E+05  6.404283E+04  2.104179E+04
        57   4 -7.873640E+05 -1.125655E+05 -2.671963E+04 -3.045003E+05  2.184633E+04 -7.821056E+02
        57   5 -7.766295E+05 -1.018978E+05 -4.459221E+04 -2.985378E+05  4.625598E+04  8.107742E+03
        57   6 -7.984916E+05 -1.910653E+05 -1.063042E+05 -2.750068E+05  6.851434E+04  2.271962E+04
        57   7 -1.002679E+06 -1.829320E+05 -8.087977E+04 -3.525080E+05  2.016781E+04 -1.412525E+03
        57   8 -9.904672E+05 -1.897261E+05 -1.018554E+05 -3.646709E+05  4.765189E+04  8.631435E+03
        57   9 -1.011474E+06 -2.969835E+05 -1.691206E+05 -3.592617E+05  7.298415E+04  2.439633E+04
        57  10 -5.720049E+05 -4.219891E+04  2.743592E+04 -2.564788E+05 -1.403614E-10 -3.182605E-11
        57  11 -5.627491E+05 -1.406453E+04  1.266321E+04 -2.323834E+05 -1.769877E-09  1.820208E-09
        57  12 -5.854673E+05 -8.513479E+04 -4.350041E+04 -1.907234E+05  2.070791E-10  6.343105E-10
        57  13 -7.873645E+05 -1.125657E+05 -2.672053E+04 -3.045003E+05  2.456351E-09 -5.051164E-10
        57  14 -7.766319E+05 -1.018984E+05 -4.459636E+04 -2.985381E+05  1.997476E-09  7.222558E-11
        57  15 -7.984968E+05 -1.910671E+05 -1.063140E+05 -2.750081E+05 -4.811117E-10  8.235189E-10
        57  16 -1.002679E+06 -1.829321E+05 -8.088054E+04 -3.525079E+05  6.226103E-11  2.326256E-10
        57  17 -9.904696E+05 -1.897268E+05 -1.018599E+05 -3.646712E+05 -3.169193E-10 -2.867984E-10
        57  18 -1.011480E+06 -2.969856E+05 -1.691318E+05 -3.592631E+05 -7.270419E-10 -3.711379E-10
        57  19 -5.720043E+05 -4.219876E+04  2.743697E+04 -2.564788E+05 -2.352549E+04  1.515174E+02
        57  20 -5.627469E+05 -1.406393E+04  1.266710E+04 -2.323831E+05 -4.485954E+04 -7.583805E+03
        57  21 -5.854627E+05 -8.513321E+04 -4.349186E+04 -1.907223E+05 -6.404283E+04 -2.104179E+04
        57  22 -7.873640E+05 -1.125655E+05 -2.671963E+04 -3.045003E+05 -2.184633E+04  7.821056E+02
        57  23 -7.766295E+05 -1.018978E+05 -4.459221E+04 -2.985378E+05 -4.625598E+04 -8.107742E+03
        57  24 -7.984916E+05 -1.910653E+05 -1.063042E+05 -2.750068E+05 -6.851434E+04 -2.271962E+04
        57  25 -1.002679E+06 -1.829320E+05 -8.087977E+04 -3.525080E+05 -2.016781E+04  1.412525E+03
        57  26 -9.904672E+05 -1.897261E+05 -1.018554E+05 -3.646709E+05 -4.765189E+04 -8.631435E+03
        57  27 -1.011474E+06 -2.969835E+05 -1.691206E+05 -3.592617E+05 -7.298415E+04 -2.439633E+04
        58   1  3.853150E+03  3.722592E+04  4.662262E+04  1.300228E+04  3.192248E+04  6.685611E-01
        58   2 -2.378688E+03 -4.433862E+03  2.054586E+04  3.892586E+03  2.086886E+04  1.308471E-01
        58   3  3.852718E+03 -1.999331E+03  1.268967E+04 -5.217147E+03  9.815050E+03 -8.247992E-02
        58   4  3.852969E+03  3.722560E+04  4.662258E+04  1.316509E-08  3.192248E+04 -7.660509E-10
        58   5 -2.378705E+03 -4.433891E+03  2.054586E+04  2.642555E-09  2.086886E+04 -1.243524E-09
        58   6  3.852689E+03 -1.999383E+03  1.268966E+04 -7.342119E-09  9.815050E+03  8.802466E-10
        58   7  3.853150E+03  3.722592E+04  4.662262E+04 -1.300228E+04  3.192248E+04 -6.685611E-01
        58   8 -2.378688E+03 -4.433862E+03  2.054586E+04 -3.892586E+03  2.086886E+04 -1.308471E-01
        58   9  3.852718E+03 -1.999331E+03  1.268967E+04  5.217147E+03  9.815050E+03  8.247993E-02
        58  10  3.852056E+03  3.722564E+04  4.662071E+04  1.300228E+04  3.286691E-11 -4.878977E-10
        58  11 -2.379156E+03 -4.433979E+03  2.054504E+04  3.892586E+03  2.623190E-10 -9.782888E-10
        58  12  3.852615E+03 -1.999357E+03  1.268949E+04 -5.217147E+03 -9.837392E-10  3.663842E-10
        58  13  3.851874E+03  3.722532E+04  4.662066E+04  1.550147E-10  1.072872E-09 -3.595428E-10
        58  14 -2.379172E+03 -4.434008E+03  2.054504E+04 -3.777775E-09 -2.692403E-09 -6.235688E-10
        58  15  3.852585E+03 -1.999408E+03  1.268948E+04  1.275112E-08  2.154149E-09  6.136388E-10
        58  16  3.852056E+03  3.722564E+04  4.662071E+04 -1.300228E+04 -2.182623E-09 -2.440360E-10
        58  17 -2.379156E+03 -4.433979E+03  2.054504E+04 -3.892586E+03 -8.058786E-10 -2.755443E-10
        58  18  3.852615E+03 -1.999357E+03  1.268949E+04  5.217147E+03  9.807917E-10  8.674512E-10
        58  19  3.853150E+03  3.722592E+04  4.662262E+04  1.300228E+04 -3.192248E+04 -6.685611E-01
        58  20 -2.378688E+03 -4.433862E+03  2.054586E+04  3.892586E+03 -2.086886E+04 -1.308471E-01
        58  21  3.852718E+03 -1.999331E+03  1.268967E+04 -5.217147E+03 -9.815050E+03  8.247993E-02
        58  22  3.852969E+03  3.722560E+04  4.662258E+04  4.376197E-09 -3.192248E+04  4.631971E-11
        58  23 -2.378705E+03 -4.433891E+03  2.054586E+04 -5.890941E-09 -2.086886E+04  4.794710E-12
        58  24  3.852689E+03 -1.999383E+03  1.268966E+04 -7.542745E-09 -9.815050E+03  3.518899E-10
        58  25  3.853150E+03  3.722592E+04  4.662262E+04 -1.300228E+04 -3.192248E+04  6.685611E-01
        58  26 -2.378688E+03 -4.433862E+03  2.054586E+04 -3.892586E+03 -2.086886E+04  1.308471E-01
        58  27  3.852718E+03 -1.999331E+03  1.268967E+04  5.217147E+03 -9.815050E+03 -8.247992E-02
        59   1  1.395169E+03  3.513293E+03  1.030389E+04  1.079417E+03  7.877563E+03  1.369637E-02
        59   2  6.930030E+02 -4.431432E+02  5.292491E+03  2.711741E+02  5.177133E+03  2.261320E-03
        59   3  1.395146E+03 -1.888758E+02  3.091900E+03 -5.370692E+02  2.476710E+03 -2.142542E-03
        59   4  1.395168E+03  3.513291E+03  1.030389E+04  1.137426E-08  7.877563E+03  1.001565E-09
        59   5  6.930029E+02 -4.431433E+02  5.292491E+03 -6.584245E-09  5.177133E+03 -4.811458E-10
        59   6  1.395146E+03 -1.888764E+02  3.091900E+03  1.476681E-08  2.476710E+03  8.464234E-10
        59   7  1.395169E+03  3.513293E+03  1.030389E+04 -1.079417E+03  7.877563E+03 -1.369637E-02
        59   8  6.930030E+02 -4.431432E+02  5.292491E+03 -2.711741E+02  5.177133E+03 -2.261321E-03
        59   9  1.395146E+03 -1.888758E+02  3.091900E+03  5.370692E+02  2.476710E+03  2.142544E-03
        59  10  1.395102E+03  3.513276E+03  1.030378E+04  1.079417E+03 -1.642634E-10  5.488836E-10
        59  11  6.929742E+02 -4.431504E+02  5.292441E+03  2.711741E+02  7.771573E-10 -3.441072E-10
        59  12  1.395139E+03 -1.888775E+02  3.091889E+03 -5.370692E+02 -2.859402E-09  3.058964E-10
        59  13  1.395101E+03  3.513274E+03  1.030378E+04  2.621487E-09 -2.154590E-09  7.346722E-10
        59  14  6.929741E+02 -4.431505E+02  5.292441E+03  1.995723E-09 -1.077129E-09 -2.863060E-10
        59  15  1.395139E+03 -1.888780E+02  3.091888E+03  9.985837E-09 -6.735368E-10 -1.130157E-10
        59  16  1.395102E+03  3.513276E+03  1.030378E+04 -1.079417E+03 -1.451160E-09  9.174027E-10
        59  17  6.929742E+02 -4.431504E+02  5.292441E+03 -2.711741E+02 -7.773074E-10 -2.325910E-10
        59  18  1.395139E+03 -1.888775E+02  3.091889E+03  5.370692E+02  1.110652E-09 -5.295998E-10
        59  19  1.395169E+03  3.513293E+03  1.030389E+04  1.079417E+03 -7.877563E+03 -1.369637E-02
        59  20  6.930030E+02 -4.431432E+02  5.292491E+03  2.711741E+02 -5.177133E+03 -2.261321E-03
        59  21  1.395146E+03 -1.888758E+02  3.091900E+03 -5.370692E+02 -2.476710E+03  2.142542E-03
        59  22  1.395168E+03  3.513291E+03  1.030389E+04  1.110056E-08 -7.877563E+03  4.672850E-10
        59  23  6.930029E+02 -4.431433E+02  5.292491E+03  1.057578E-08 -5.177133E+03 -9.379272E-11
        59  24  1.395146E+03 -1.888764E+02  3.091900E+03  1.920540E-08 -2.476710E+03 -1.073008E-09
        59  25  1.395169E+03  3.513293E+03  1.030389E+04 -1.079417E+03 -7.877563E+03  1.369637E-02
        59  26  6.930030E+02 -4.431432E+02  5.292491E+03 -2.711741E+02 -5.177133E+03  2.261321E-03
        59  27  1.395146E+03 -1.888758E+02  3.091900E+03  5.370692E+02 -2.476710E+03 -2.142545E-03
        60   1  1.123142E+03  3.235147E+02  2.381903E+03  6.093428E+01  1.994296E+03  1.957394E-04
        60   2  1.032995E+03 -4.632442E+01  1.236940E+03 -1.980955E+00  1.375204E+03 -4.388631E-06
        60   3  1.123141E+03 -1.741461E+01  5.947095E+02 -6.489529E+01  7.561209E+02 -7.903641E-05
        60   4  1.123142E+03  3.235147E+02  2.381903E+03 -2.553155E-10  1.994296E+03  9.295774E-10
        60   5  1.032995E+03 -4.632442E+01  1.236940E+03  1.097594E-09  1.375204E+03 -5.008643E-10
        60   6  1.123141E+03 -1.741462E+01  5.947095E+02  2.022045E-08  7.561209E+02  3.202837E-10
        60   7  1.123142E+03  3.235147E+02  2.381903E+03 -6.093428E+01  1.994296E+03 -1.957376E-04
        60   8  1.032995E+03 -4.632442E+01  1.236940E+03  1.980955E+00  1.375204E+03  4.387642E-06
        60   9  1.123141E+03 -1.741461E+01  5.947095E+02  6.489529E+01  7.561209E+02  7.903706E-05
        60  10  1.123138E+03  3.235137E+02  2.381895E+03  6.093428E+01 -2.342729E-09  3.197961E-10
        60  11  1.032993E+03 -4.632493E+01  1.236936E+03 -1.980955E+00  2.407531E-09 -4.755959E-10
        60  12  1.123141E+03 -1.741476E+01  5.947084E+02 -6.489529E+01  9.155936E-11 -3.608287E-11
        60  13  1.123138E+03  3.235137E+02  2.381895E+03 -4.615664E-09 -1.077132E-09 -4.579873E-11
        60  14  1.032993E+03 -4.632493E+01  1.236936E+03 -1.054110E-09 -2.153951E-09 -3.425354E-10
        60  15  1.123141E+03 -1.741477E+01  5.947084E+02  1.004615E-08  1.339159E-10  7.871083E-12
        60  16  1.123138E+03  3.235137E+02  2.381895E+03 -6.093428E+01  7.270309E-10 -4.117741E-10
        60  17  1.032993E+03 -4.632493E+01  1.236936E+03  1.980955E+00 -2.139220E-09 -2.102057E-10
        60  18  1.123141E+03 -1.741476E+01  5.947084E+02  6.489529E+01 -1.033459E-09  5.215542E-11
        60  19  1.123142E+03  3.235147E+02  2.381903E+03  6.093428E+01 -1.994296E+03 -1.957388E-04
        60  20  1.032995E+03 -4.632442E+01  1.236940E+03 -1.980955E+00 -1.375204E+03  4.387693E-06
        60  21  1.123141E+03 -1.741461E+01  5.947095E+02 -6.489529E+01 -7.561209E+02  7.903636E-05
        60  22  1.123142E+03  3.235147E+02  2.381903E+03  8.255584E-09 -1.994296E+03 -1.020840E-09
        60  23  1.032995E+03 -4.632442E+01  1.236940E+03 -1.612949E-08 -1.375204E+03 -1.841245E-10
        60  24  1.123141E+03 -1.741462E+01  5.947095E+02  2.087286E-08 -7.561209E+02 -3.045167E-10
        60  25  1.123142E+03  3.235147E+02  2.381903E+03 -6.093428E+01 -1.994296E+03  1.957368E-04
        60  26  1.032995E+03 -4.632442E+01  1.236940E+03  1.980955E+00 -1.375204E+03 -4.388095E-06
        60  27  1.123141E+03 -1.741461E+01  5.947095E+02  6.489529E+01 -7.561209E+02 -7.903695E-05
        61   1  1.083012E+03  2.830759E+01  3.536863E+02 -1.090487E+01  6.713653E+02 -1.179153E-05
        61   2  1.083157E+03 -1.494569E+00 -8.480558E+01 -1.687138E+01  7.128272E+02 -1.937080E-05
        61   3  1.083012E+03 -1.087143E+01 -5.451807E+02 -2.283798E+01  7.542898E+02 -2.774685E-05
        61   4  1.083012E+03  2.830759E+01  3.536863E+02  1.262616E-08  6.713653E+02  8.418324E-10
        61   5  1.083157E+03 -1.494570E+00 -8.480558E+01 -8.946894E-09  7.128272E+02  4.847579E-10
        61   6  1.083012E+03 -1.087143E+01 -5.451807E+02  3.404625E-09  7.542898E+02  3.139196E-10
        61   7  1.083012E+03  2.830759E+01  3.536863E+02  1.090487E+01  6.713653E+02  1.179320E-05
        61   8  1.083157E+03 -1.494569E+00 -8.480558E+01  1.687138E+01  7.128272E+02  1.937175E-05
        61   9  1.083012E+03 -1.087143E+01 -5.451807E+02  2.283798E+01  7.542898E+02  2.774749E-05
        61  10  1.083011E+03  2.830747E+01  3.536854E+02 -1.090487E+01  1.071625E-09  3.050172E-10
        61  11  1.083156E+03 -1.494705E+00 -8.480653E+01 -1.687138E+01  1.916629E-11  2.749267E-10
        61  12  1.083011E+03 -1.087159E+01 -5.451818E+02 -2.283798E+01 -8.312501E-10  2.966557E-10
        61  13  1.083011E+03  2.830747E+01  3.536854E+02  4.011168E-09 -1.077090E-09  2.361465E-10
        61  14  1.083156E+03 -1.494706E+00 -8.480653E+01 -8.949809E-09  5.383213E-10  2.235852E-10
        61  15  1.083011E+03 -1.087159E+01 -5.451818E+02 -4.679330E-09  4.145391E-13  1.671306E-10
        61  16  1.083011E+03  2.830747E+01  3.536854E+02  1.090487E+01 -1.071467E-09  1.672141E-10
        61  17  1.083156E+03 -1.494705E+00 -8.480653E+01  1.687138E+01  5.189233E-10  1.722759E-10
        61  18  1.083011E+03 -1.087159E+01 -5.451818E+02  2.283798E+01  1.579595E-10  3.735799E-11
        61  19  1.083012E+03  2.830759E+01  3.536863E+02 -1.090487E+01 -6.713653E+02  1.179214E-05
        61  20  1.083157E+03 -1.494569E+00 -8.480558E+01 -1.687138E+01 -7.128272E+02  1.937136E-05
        61  21  1.083012E+03 -1.087143E+01 -5.451807E+02 -2.283798E+01 -7.542898E+02  2.774744E-05
        61  22  1.083012E+03  2.830759E+01  3.536863E+02  1.262776E-08 -6.713653E+02 -3.695411E-10
        61  23  1.083157E+03 -1.494570E+00 -8.480558E+01 -4.644838E-09 -7.128272E+02 -3.756418E-11
        61  24  1.083012E+03 -1.087143E+01 -5.451807E+02  8.237733E-09 -7.542898E+02  2.031329E-11
        61  25  1.083012E+03  2.830759E+01  3.536863E+02  1.090487E+01 -6.713653E+02 -1.179288E-05
        61  26  1.083157E+03 -1.494569E+00 -8.480558E+01  1.687138E+01 -7.128272E+02 -1.937143E-05
        61  27  1.083012E+03 -1.087143E+01 -5.451807E+02  2.283798E+01 -7.542898E+02 -2.774739E-05
        62   1  1.049741E+03  9.566458E+00 -8.246630E+02 -4.324863E+01  8.780555E+02 -6.116686E-05
        62   2  1.124747E+03  2.765362E+01 -1.603496E+03 -3.300093E+01  1.673799E+03 -8.897208E-05
        62   3  1.049744E+03 -1.398524E+02 -2.946787E+03 -2.275322E+01  2.469542E+03 -9.050742E-05
        62   4  1.049741E+03  9.566455E+00 -8.246630E+02  1.041751E-08  8.780555E+02  1.016963E-10
        62   5  1.124747E+03  2.765362E+01 -1.603496E+03  3.184738E-10  1.673799E+03 -2.786519E-10
        62   6  1.049744E+03 -1.398524E+02 -2.946787E+03  2.791357E-08  2.469542E+03 -2.173363E-10
        62   7  1.049741E+03  9.566458E+00 -8.246630E+02  4.324863E+01  8.780555E+02  6.116708E-05
        62   8  1.124747E+03  2.765362E+01 -1.603496E+03  3.300093E+01  1.673799E+03  8.897149E-05
        62   9  1.049744E+03 -1.398524E+02 -2.946787E+03  2.275322E+01  2.469542E+03  9.050694E-05
        62  10  1.049740E+03  9.566251E+00 -8.246645E+02 -4.324863E+01 -1.586921E-09  3.670713E-10
        62  11  1.124744E+03  2.765287E+01 -1.603502E+03 -3.300093E+01 -2.277111E-10  3.644332E-10
        62  12  1.049738E+03 -1.398540E+02 -2.946799E+03 -2.275322E+01  1.889761E-10  6.738598E-11
        62  13  1.049740E+03  9.566248E+00 -8.246645E+02  1.797490E-09  1.077160E-09  1.287175E-10
        62  14  1.124744E+03  2.765287E+01 -1.603502E+03 -6.149582E-09 -5.374459E-10  6.695906E-11
        62  15  1.049738E+03 -1.398540E+02 -2.946799E+03  1.713563E-08 -1.480904E-09 -1.822767E-11
        62  16  1.049740E+03  9.566251E+00 -8.246645E+02  4.324863E+01  1.588643E-09 -1.100712E-10
        62  17  1.124744E+03  2.765287E+01 -1.603502E+03  3.300093E+01 -8.489855E-10 -2.310687E-10
        62  18  1.049738E+03 -1.398540E+02 -2.946799E+03  2.275322E+01 -2.410293E-09 -1.023970E-10
        62  19  1.049741E+03  9.566458E+00 -8.246630E+02 -4.324863E+01 -8.780555E+02  6.116758E-05
        62  20  1.124747E+03  2.765362E+01 -1.603496E+03 -3.300093E+01 -1.673799E+03  8.897283E-05
        62  21  1.049744E+03 -1.398524E+02 -2.946787E+03 -2.275322E+01 -2.469542E+03  9.050753E-05
        62  22  1.049741E+03  9.566455E+00 -8.246630E+02  6.101154E-09 -8.780555E+02  1.560396E-10
        62  23  1.124747E+03  2.765362E+01 -1.603496E+03 -1.692555E-08 -1.673799E+03  4.128012E-10
        62  24  1.049744E+03 -1.398524E+02 -2.946787E+03 -3.873599E-09 -2.469542E+03  1.747579E-10
        62  25  1.049741E+03  9.566458E+00 -8.246630E+02  4.324863E+01 -8.780555E+02 -6.116732E-05
        62  26  1.124747E+03  2.765362E+01 -1.603496E+03  3.300093E+01 -1.673799E+03 -8.897198E-05
        62  27  1.049744E+03 -1.398524E+02 -2.946787E+03  2.275322E+01 -2.469542E+03 -9.050724E-05
        63   1  8.737561E+02  8.822143E+01 -3.877986E+03 -3.045360E+02  3.081917E+03 -1.511764E-03
        63   2  1.344755E+03  2.369151E+02 -6.732146E+03  4.369568E+00  6.448255E+03  4.538294E-05
        63   3  8.737999E+02 -1.628932E+03 -1.228151E+04  3.132713E+02  9.814526E+03  4.952381E-03
        63   4  8.737560E+02  8.822126E+01 -3.877986E+03  1.157133E-08  3.081917E+03 -6.632300E-10
        63   5  1.344755E+03  2.369151E+02 -6.732146E+03  2.339426E-08  6.448255E+03 -9.983310E-10
        63   6  8.737998E+02 -1.628932E+03 -1.228151E+04  1.044670E-08  9.814526E+03  9.767205E-10
        63   7  8.737561E+02  8.822143E+01 -3.877986E+03  3.045360E+02  3.081917E+03  1.511763E-03
        63   8  1.344755E+03  2.369151E+02 -6.732146E+03 -4.369568E+00  6.448255E+03 -4.538501E-05
        63   9  8.737999E+02 -1.628932E+03 -1.228151E+04 -3.132713E+02  9.814526E+03 -4.952379E-03
        63  10  8.737459E+02  8.821888E+01 -3.878004E+03 -3.045360E+02  1.597743E-09 -5.547907E-10
        63  11  1.344710E+03  2.369040E+02 -6.732224E+03  4.369568E+00 -4.545494E-10 -9.194552E-10
        63  12  8.736964E+02 -1.628958E+03 -1.228169E+04  3.132713E+02 -7.517652E-10  6.954737E-10
        63  13  8.737458E+02  8.821871E+01 -3.878004E+03  2.877115E-09  1.840530E-12 -3.684426E-10
        63  14  1.344710E+03  2.369040E+02 -6.732224E+03  1.480571E-08 -1.616409E-09 -6.679919E-10
        63  15  8.736963E+02 -1.628958E+03 -1.228169E+04  5.194744E-09  1.615495E-09  2.812771E-10
        63  16  8.737459E+02  8.821888E+01 -3.878004E+03  3.045360E+02 -2.136969E-09 -1.824788E-10
        63  17  1.344710E+03  2.369040E+02 -6.732224E+03 -4.369568E+00 -8.945280E-10 -4.112955E-10
        63  18  8.736964E+02 -1.628958E+03 -1.228169E+04 -3.132713E+02 -1.250256E-10 -1.282411E-10
        63  19  8.737561E+02  8.822143E+01 -3.877986E+03 -3.045360E+02 -3.081917E+03  1.511763E-03
        63  20  1.344755E+03  2.369151E+02 -6.732146E+03  4.369568E+00 -6.448255E+03 -4.538456E-05
        63  21  8.737999E+02 -1.628932E+03 -1.228151E+04  3.132713E+02 -9.814526E+03 -4.952380E-03
        63  22  8.737560E+02  8.822126E+01 -3.877986E+03 -5.816823E-09 -3.081917E+03 -7.314548E-11
        63  23  1.344755E+03  2.369151E+02 -6.732146E+03 -2.398453E-09 -6.448255E+03 -3.355875E-10
        63  24  8.737998E+02 -1.628932E+03 -1.228151E+04 -5.700483E-11 -9.814526E+03 -3.860317E-10
        63  25  8.737561E+02  8.822143E+01 -3.877986E+03  3.045360E+02 -3.081917E+03 -1.511763E-03
        63  26  1.344755E+03  2.369151E+02 -6.732146E+03 -4.369568E+00 -6.448255E+03  4.538388E-05
        63  27  8.737999E+02 -1.628932E+03 -1.228151E+04 -3.132713E+02 -9.814526E+03  4.952379E-03
        64   1 -4.898639E+02  9.523654E+02 -1.578564E+04 -2.698302E+03  1.228954E+04 -5.341349E-02
        64   2  3.049686E+03  2.232148E+03 -2.676971E+04  1.369248E+03  2.594731E+04  5.722643E-02
        64   3 -4.891840E+02 -1.769033E+04 -5.194493E+04  5.436875E+03  3.960511E+04  3.468357E-01
        64   4 -4.898717E+02  9.523517E+02 -1.578564E+04 -2.087209E-09  1.228954E+04  1.004198E-09
        64   5  3.049684E+03  2.232144E+03 -2.676971E+04  6.009102E-09  2.594731E+04 -7.730013E-10
        64   6 -4.892157E+02 -1.769038E+04 -5.194494E+04  1.050325E-10  3.960511E+04 -2.763843E-10
        64   7 -4.898639E+02  9.523654E+02 -1.578564E+04  2.698302E+03  1.228954E+04  5.341349E-02
        64   8  3.049686E+03  2.232148E+03 -2.676971E+04 -1.369248E+03  2.594731E+04 -5.722643E-02
        64   9 -4.891840E+02 -1.769033E+04 -5.194493E+04 -5.436875E+03  3.960511E+04 -3.468357E-01
        64  10 -4.900261E+02  9.523248E+02 -1.578592E+04 -2.698302E+03  1.451893E-09  1.124570E-09
        64  11  3.048963E+03  2.231967E+03 -2.677098E+04  1.369248E+03 -1.194402E-10  7.080514E-11
        64  12 -4.908684E+02 -1.769075E+04 -5.194788E+04  5.436875E+03 -2.635998E-09 -4.081804E-10
        64  13 -4.900339E+02  9.523111E+02 -1.578593E+04  1.078145E-08 -2.146558E-09  5.789204E-10
        64  14  3.048961E+03  2.231963E+03 -2.677098E+04 -1.124423E-08 -4.850488E-09  1.077500E-10
        64  15 -4.909002E+02 -1.769080E+04 -5.194789E+04 -1.280668E-08 -9.387783E-10  5.615750E-11
        64  16 -4.900261E+02  9.523248E+02 -1.578592E+04  2.698302E+03  1.641932E-10  3.260059E-11
        64  17  3.048963E+03  2.231967E+03 -2.677098E+04 -1.369248E+03  1.471766E-09  1.264953E-10
        64  18 -4.908684E+02 -1.769075E+04 -5.194788E+04 -5.436875E+03 -1.862220E-10  5.055338E-10
        64  19 -4.898639E+02  9.523654E+02 -1.578564E+04 -2.698302E+03 -1.228954E+04  5.341349E-02
        64  20  3.049686E+03  2.232148E+03 -2.676971E+04  1.369248E+03 -2.594731E+04 -5.722643E-02
        64  21 -4.891840E+02 -1.769033E+04 -5.194493E+04  5.436875E+03 -3.960511E+04 -3.468357E-01
        64  22 -4.898717E+02  9.523517E+02 -1.578564E+04 -6.506440E-09 -1.228954E+04  1.549480E-10
        64  23  3.049684E+03  2.232144E+03 -2.676971E+04  1.657165E-09 -2.594731E+04  9.954963E-10
        64  24 -4.892157E+02 -1.769038E+04 -5.194494E+04  2.543711E-08 -3.960511E+04  3.720291E-10
        64  25 -4.898639E+02  9.523654E+02 -1.578564E+04  2.698302E+03 -1.228954E+04 -5.341349E-02
        64  26  3.049686E+03  2.232148E+03 -2.676971E+04 -1.369248E+03 -2.594731E+04  5.722643E-02
        64  27 -4.891840E+02 -1.769033E+04 -5.194493E+04 -5.436875E+03 -3.960511E+04  3.468357E-01
        65   1 -1.285938E+04  1.006952E+04 -6.393506E+04 -2.626764E+04  4.936854E+04 -2.088832E+00
        65   2  1.851871E+04  2.232647E+04 -1.034432E+05  1.960288E+04  1.050405E+05  3.316554E+00
        65   3 -1.284777E+04 -1.874250E+05 -2.346868E+05  6.547090E+04  1.607134E+05  1.694812E+01
        65   4 -1.286012E+04  1.006823E+04 -6.393525E+04 -4.301823E-10  4.936854E+04  6.161520E-10
        65   5  1.851830E+04  2.232575E+04 -1.034433E+05  3.608890E-09  1.050405E+05  1.068452E-09
        65   6 -1.285238E+04 -1.874331E+05 -2.346880E+05  7.647641E-09  1.607134E+05 -6.521895E-10
        65   7 -1.285938E+04  1.006952E+04 -6.393506E+04  2.626764E+04  4.936854E+04  2.088832E+00
        65   8  1.851871E+04  2.232647E+04 -1.034432E+05 -1.960288E+04  1.050405E+05 -3.316554E+00
        65   9 -1.284777E+04 -1.874250E+05 -2.346868E+05 -6.547090E+04  1.607134E+05 -1.694812E+01
        65  10 -1.286200E+04  1.006887E+04 -6.393965E+04 -2.626764E+04 -1.412130E-09 -3.089901E-10
        65  11  1.850686E+04  2.232351E+04 -1.034639E+05  1.960288E+04 -2.147119E-09  8.607043E-11
        65  12 -1.287551E+04 -1.874320E+05 -2.347353E+05  6.547089E+04 -1.274296E-09  6.173300E-11
        65  13 -1.286274E+04  1.006757E+04 -6.393983E+04 -4.770042E-09  2.120366E-09 -1.215645E-11
        65  14  1.850645E+04  2.232279E+04 -1.034640E+05  1.450303E-09 -3.731433E-09 -2.242257E-10
        65  15 -1.288012E+04 -1.874400E+05 -2.347365E+05 -3.098674E-09 -2.965034E-09 -1.024967E-10
        65  16 -1.286200E+04  1.006887E+04 -6.393965E+04  2.626764E+04 -2.074614E-10  2.619037E-10
        65  17  1.850686E+04  2.232351E+04 -1.034639E+05 -1.960288E+04  3.240771E-09 -5.836287E-10
        65  18 -1.287551E+04 -1.874320E+05 -2.347353E+05 -6.547089E+04  2.242705E-11 -2.031267E-10
        65  19 -1.285938E+04  1.006952E+04 -6.393506E+04 -2.626764E+04 -4.936854E+04  2.088832E+00
        65  20  1.851871E+04  2.232647E+04 -1.034432E+05  1.960288E+04 -1.050405E+05 -3.316554E+00
        65  21 -1.284777E+04 -1.874250E+05 -2.346868E+05  6.547090E+04 -1.607134E+05 -1.694812E+01
        65  22 -1.286012E+04  1.006823E+04 -6.393525E+04  2.105096E-08 -4.936854E+04 -6.390304E-10
        65  23  1.851830E+04  2.232575E+04 -1.034433E+05  1.652639E-08 -1.050405E+05 -1.532313E-09
        65  24 -1.285238E+04 -1.874331E+05 -2.346880E+05  1.523229E-08 -1.607134E+05  2.759074E-11
        65  25 -1.285938E+04  1.006952E+04 -6.393506E+04  2.626764E+04 -4.936854E+04 -2.088832E+00
        65  26  1.851871E+04  2.232647E+04 -1.034432E+05 -1.960288E+04 -1.050405E+05  3.316554E+00
        65  27 -1.284777E+04 -1.874250E+05 -2.346868E+05 -6.547090E+04 -1.607134E+05  1.694812E+01
        66   1  9.274565E+04  1.335359E+05  8.960542E+04 -2.044049E+04  4.265440E+03  3.290776E+02
        66   2  8.993837E+04  9.093944E+04  8.140341E+04 -8.383413E+03  1.271328E+04 -3.132695E+03
        66   3  7.902467E+04  4.686297E+04  7.344882E+04 -2.430575E+04  1.153967E+04 -6.595739E+03
        66   4 -7.890689E+03 -2.702677E+05 -9.751795E+03 -2.312031E+04  4.266379E+03 -7.305597E+03
        66   5  8.898150E+02 -2.690413E+05 -3.832025E+03 -9.129313E+03  1.271436E+04 -5.225222E+03
        66   6  5.992861E+02 -2.702596E+05 -1.514670E+03 -2.311880E+04  1.153840E+04 -3.146259E+03
        66   7 -1.085391E+05 -6.739229E+05 -1.091208E+05 -2.579838E+04  4.267384E+03 -1.493531E+04
        66   8 -8.816804E+04 -6.289030E+05 -8.907645E+04 -9.874770E+03  1.271545E+04 -7.316542E+03
        66   9 -7.783330E+04 -5.872898E+05 -7.648508E+04 -2.193244E+04  1.153715E+04  3.014685E+02
        66  10  9.274563E+04  1.335359E+05  8.960539E+04 -2.044049E+04 -9.954592E-10 -9.581418E-10
        66  11  8.993820E+04  9.093938E+04  8.140309E+04 -8.383381E+03 -2.084769E-09 -1.034672E-09
        66  12  7.902452E+04  4.686289E+04  7.344849E+04 -2.430569E+04 -9.584441E-10  3.679646E-10
        66  13 -7.890723E+03 -2.702678E+05 -9.751929E+03 -2.312029E+04 -4.428133E-10 -3.760812E-12
        66  14  8.896341E+02 -2.690414E+05 -3.832380E+03 -9.129260E+03  3.020801E-10  2.343008E-12
        66  15  5.991404E+02 -2.702597E+05 -1.514939E+03 -2.311877E+04  7.957003E-10 -7.519143E-11
        66  16 -1.085392E+05 -6.739231E+05 -1.091213E+05 -2.579833E+04  7.177123E-11  9.771654E-10
        66  17 -8.816823E+04 -6.289031E+05 -8.907685E+04 -9.874695E+03 -1.045081E-09  6.031440E-10
        66  18 -7.783344E+04 -5.872898E+05 -7.648533E+04 -2.193245E+04 -7.135007E-10  1.139784E-10
        66  19  9.274565E+04  1.335359E+05  8.960542E+04 -2.044049E+04 -4.265440E+03 -3.290776E+02
        66  20  8.993837E+04  9.093944E+04  8.140341E+04 -8.383413E+03 -1.271328E+04  3.132695E+03
        66  21  7.902467E+04  4.686297E+04  7.344882E+04 -2.430575E+04 -1.153967E+04  6.595739E+03
        66  22 -7.890689E+03 -2.702677E+05 -9.751795E+03 -2.312031E+04 -4.266379E+03  7.305597E+03
        66  23  8.898150E+02 -2.690413E+05 -3.832025E+03 -9.129313E+03 -1.271436E+04  5.225222E+03
        66  24  5.992861E+02 -2.702596E+05 -1.514670E+03 -2.311880E+04 -1.153840E+04  3.146259E+03
        66  25 -1.085391E+05 -6.739229E+05 -1.091208E+05 -2.579838E+04 -4.267384E+03  1.493531E+04
        66  26 -8.816804E+04 -6.289030E+05 -8.907645E+04 -9.874770E+03 -1.271545E+04  7.316542E+03
        66  27 -7.783330E+04 -5.872898E+05 -7.648508E+04 -2.193244E+04 -1.153715E+04 -3.014685E+02
        67   1  6.507345E+04 -3.287459E+03  6.252909E+04 -2.337909E+04  9.147556E+03 -3.509258E+03
        67   2  5.497891E+04 -4.704519E+04  5.432246E+04 -8.918706E+03  7.909283E+03 -4.684153E+03
        67   3  4.626281E+04 -9.030659E+04  4.722479E+04 -2.288619E+04  6.035481E+03 -5.860095E+03
        67   4 -8.314473E+02 -2.696130E+05 -6.320210E+02 -2.321967E+04  9.147517E+03 -2.977862E+03
        67   5 -1.323330E+02 -2.698260E+05  1.582885E+03 -9.004486E+03  7.908870E+03 -3.786504E+03
        67   6  1.881951E+03 -2.696081E+05  4.652580E+03 -2.321779E+04  6.034587E+03 -4.596275E+03
        67   7 -6.674144E+04 -5.358734E+05 -6.379807E+04 -2.306031E+04  9.147478E+03 -2.446691E+03
        67   8 -5.524714E+04 -4.925613E+05 -5.116013E+04 -9.090227E+03  7.908456E+03 -2.889175E+03
        67   9 -4.250122E+04 -4.488801E+05 -3.792187E+04 -2.354929E+04  6.033692E+03 -3.332817E+03
        67  10  6.507335E+04 -3.287495E+03  6.252891E+04 -2.337907E+04  3.099388E-10  2.066697E-09
        67  11  5.497884E+04 -4.704523E+04  5.432230E+04 -8.918676E+03  1.310714E-09 -1.092301E-09
        67  12  4.626276E+04 -9.030664E+04  4.722466E+04 -2.288617E+04  1.153526E-09  3.224879E-10
        67  13 -8.315395E+02 -2.696130E+05 -6.321949E+02 -2.321965E+04  1.412225E-09  6.244837E-12
        67  14 -1.324040E+02 -2.698261E+05  1.582741E+03 -9.004462E+03  6.240346E-09  3.362652E-11
        67  15  1.881906E+03 -2.696081E+05  4.652472E+03 -2.321777E+04  3.604824E-09 -9.603753E-11
        67  16 -6.674153E+04 -5.358734E+05 -6.379824E+04 -2.306029E+04 -7.913204E-10 -1.774347E-09
        67  17 -5.524721E+04 -4.925613E+05 -5.116026E+04 -9.090209E+03  1.014993E-09  2.154317E-11
        67  18 -4.250127E+04 -4.488801E+05 -3.792196E+04 -2.354927E+04  1.855696E-09  5.186886E-10
        67  19  6.507345E+04 -3.287459E+03  6.252909E+04 -2.337909E+04 -9.147556E+03  3.509258E+03
        67  20  5.497891E+04 -4.704519E+04  5.432246E+04 -8.918706E+03 -7.909283E+03  4.684153E+03
        67  21  4.626281E+04 -9.030659E+04  4.722479E+04 -2.288619E+04 -6.035481E+03  5.860095E+03
        67  22 -8.314473E+02 -2.696130E+05 -6.320210E+02 -2.321967E+04 -9.147517E+03  2.977862E+03
        67  23 -1.323330E+02 -2.698260E+05  1.582885E+03 -9.004486E+03 -7.908870E+03  3.786504E+03
        67  24  1.881951E+03 -2.696081E+05  4.652580E+03 -2.321779E+04 -6.034587E+03  4.596275E+03
        67  25 -6.674144E+04 -5.358734E+05 -6.379807E+04 -2.306031E+04 -9.147478E+03  2.446691E+03
        67  26 -5.524714E+04 -4.925613E+05 -5.116013E+04 -9.090227E+03 -7.908456E+03  2.889175E+03
        67  27 -4.250122E+04 -4.488801E+05 -3.792187E+04 -2.354929E+04 -6.033692E+03  3.332817E+03
        68   1  3.066982E+04 -1.399395E+05  3.630033E+04 -2.599894E+04  4.895246E+03 -6.468501E+03
        68   2  1.869388E+04 -1.867569E+05  3.039843E+04 -7.026589E+03  3.015664E+03 -1.226645E+04
        68   3  2.940029E+04 -2.272002E+05  3.393103E+04 -1.658875E+04  7.503309E+02 -1.806455E+04
        68   4 -1.064633E+03 -2.682929E+05  6.037494E+03 -2.324781E+04  4.894458E+03 -5.493728E+03
        68   5 -2.256836E+03 -2.714573E+05  1.034577E+04 -8.971559E+03  3.014673E+03 -1.106900E+04
        68   6  1.919596E+04 -2.682884E+05  2.393427E+04 -2.322969E+04  7.491944E+02 -1.664484E+04
        68   7 -3.280024E+04 -3.966311E+05 -2.422647E+04 -2.049725E+04  4.893678E+03 -4.519156E+03
        68   8 -2.320805E+04 -3.561510E+05 -9.707389E+03 -1.091626E+04  3.013675E+03 -9.871725E+03
        68   9  8.991670E+03 -3.093750E+05  1.393742E+04 -2.987018E+04  7.480275E+02 -1.522521E+04
        68  10  3.066978E+04 -1.399396E+05  3.630020E+04 -2.599891E+04 -1.260626E-10  7.744048E-09
        68  11  1.869383E+04 -1.867571E+05  3.039813E+04 -7.026559E+03 -1.872504E-09 -1.682131E-09
        68  12  2.940020E+04 -2.272005E+05  3.393041E+04 -1.658874E+04  5.064248E-10 -6.277145E-09
        68  13 -1.064666E+03 -2.682929E+05  6.037393E+03 -2.324779E+04  3.066785E-09  2.207474E-11
        68  14 -2.256879E+03 -2.714574E+05  1.034552E+04 -8.971532E+03  6.050835E-10  2.015602E-11
        68  15  1.919588E+04 -2.682887E+05  2.393375E+04 -2.322968E+04  2.585440E-09 -1.204803E-10
        68  16 -3.280027E+04 -3.966312E+05 -2.422655E+04 -2.049724E+04  8.914171E-10 -7.247860E-09
        68  17 -2.320809E+04 -3.561511E+05 -9.707589E+03 -1.091624E+04  1.408323E-09  3.219889E-10
        68  18  8.991607E+03 -3.093752E+05  1.393698E+04 -2.987017E+04  9.649068E-10  7.243508E-09
        68  19  3.066982E+04 -1.399395E+05  3.630033E+04 -2.599894E+04 -4.895246E+03  6.468501E+03
        68  20  1.869388E+04 -1.867569E+05  3.039843E+04 -7.026589E+03 -3.015664E+03  1.226645E+04
        68  21  2.940029E+04 -2.272002E+05  3.393103E+04 -1.658875E+04 -7.503309E+02  1.806455E+04
        68  22 -1.064633E+03 -2.682929E+05  6.037494E+03 -2.324781E+04 -4.894458E+03  5.493728E+03
        68  23 -2.256836E+03 -2.714573E+05  1.034577E+04 -8.971559E+03 -3.014673E+03  1.106900E+04
        68  24  1.919596E+04 -2.682884E+05  2.393427E+04 -2.322969E+04 -7.491944E+02  1.664484E+04
        68  25 -3.280024E+04 -3.966311E+05 -2.422647E+04 -2.049725E+04 -4.893678E+03  4.519156E+03
        68  26 -2.320805E+04 -3.561510E+05 -9.707389E+03 -1.091626E+04 -3.013675E+03  9.871725E+03
        68  27  8.991670E+03 -3.093750E+05  1.393742E+04 -2.987018E+04 -7.480275E+02  1.522521E+04
        69   1 -3.162565E+05 -7.645705E+04 -3.130214E+04 -1.189895E+05 -1.272958E+04 -4.205838E+03
        69   2 -3.065558E+05 -5.274872E+04 -1.742688E+04 -1.153739E+05 -8.145962E+03 -1.480856E+03
        69   3 -2.985640E+05 -5.059412E+04 -1.170903E+04 -1.134013E+05 -3.081387E+03 -3.806179E+01
        69   4 -2.721112E+05 -5.540511E+04 -1.844993E+04 -1.024313E+05 -1.190891E+04 -3.898216E+03
        69   5 -2.703659E+05 -3.788121E+04 -7.742729E+03 -1.041649E+05 -8.016255E+03 -1.432248E+03
        69   6 -2.701923E+05 -4.177366E+04 -4.645014E+03 -1.075418E+05 -3.642722E+03 -2.485150E+02
        69   7 -2.279641E+05 -3.435281E+04 -5.597977E+03 -8.587192E+04 -1.108818E+04 -3.590557E+03
        69   8 -2.341747E+05 -2.301357E+04  1.941286E+03 -9.295533E+04 -7.886539E+03 -1.383637E+03
        69   9 -2.418198E+05 -3.295319E+04  2.418961E+03 -1.016822E+05 -4.204086E+03 -4.589751E+02
        69  10 -3.162567E+05 -7.645711E+04 -3.130247E+04 -1.189896E+05 -6.008960E-10  2.985007E-10
        69  11 -3.065559E+05 -5.274874E+04 -1.742701E+04 -1.153739E+05  4.012288E-09  1.466374E-09
        69  12 -2.985640E+05 -5.059412E+04 -1.170905E+04 -1.134013E+05  1.610559E-09  1.409157E-10
        69  13 -2.721113E+05 -5.540516E+04 -1.845022E+04 -1.024313E+05  7.706060E-10  5.566800E-10
        69  14 -2.703659E+05 -3.788123E+04 -7.742853E+03 -1.041649E+05  3.189972E-09  1.412546E-09
        69  15 -2.701923E+05 -4.177366E+04 -4.645039E+03 -1.075418E+05  1.272014E-09  2.431812E-10
        69  16 -2.279643E+05 -3.435286E+04 -5.598232E+03 -8.587195E+04  2.189301E-10  9.685804E-10
        69  17 -2.341748E+05 -2.301359E+04  1.941166E+03 -9.295534E+04  4.804982E-10  1.566818E-09
        69  18 -2.418198E+05 -3.295319E+04  2.418928E+03 -1.016822E+05  1.493561E-09  5.816515E-10
        69  19 -3.162565E+05 -7.645705E+04 -3.130214E+04 -1.189895E+05  1.272958E+04  4.205838E+03
        69  20 -3.065558E+05 -5.274872E+04 -1.742688E+04 -1.153739E+05  8.145962E+03  1.480856E+03
        69  21 -2.985640E+05 -5.059412E+04 -1.170903E+04 -1.134013E+05  3.081387E+03  3.806179E+01
        69  22 -2.721112E+05 -5.540511E+04 -1.844993E+04 -1.024313E+05  1.190891E+04  3.898216E+03
        69  23 -2.703659E+05 -3.788121E+04 -7.742729E+03 -1.041649E+05  8.016255E+03  1.432248E+03
        69  24 -2.701923E+05 -4.177366E+04 -4.645014E+03 -1.075418E+05  3.642722E+03  2.485150E+02
        69  25 -2.279641E+05 -3.435281E+04 -5.597977E+03 -8.587192E+04  1.108818E+04  3.590557E+03
        69  26 -2.341747E+05 -2.301357E+04  1.941286E+03 -9.295533E+04  7.886539E+03  1.383637E+03
        69  27 -2.418198E+05 -3.295319E+04  2.418961E+03 -1.016822E+05  4.204086E+03  4.589751E+02
        70   1 -2.836309E+05 -4.929534E+04 -7.508535E+03 -1.107234E+05 -2.645925E+03 -3.878552E+02
        70   2 -2.757842E+05 -4.119338E+04 -2.929880E+03 -1.052128E+05 -1.503488E+03 -3.878749E+02
        70   3 -2.635459E+05 -3.989431E+04  4.521371E+02 -1.051977E+05 -3.277884E+02 -4.765606E+02
        70   4 -2.695834E+05 -4.363127E+04 -3.768735E+03 -1.064830E+05 -2.824519E+03 -4.548164E+02
        70   5 -2.716881E+05 -3.955503E+04 -1.841946E+03 -1.039900E+05 -1.729862E+03 -4.727470E+02
        70   6 -2.693921E+05 -4.227219E+04 -1.073914E+03 -1.069925E+05 -6.019641E+02 -5.793508E+02
        70   7 -2.555357E+05 -3.796719E+04 -2.895607E+01 -1.022426E+05 -3.003116E+03 -5.217795E+02
        70   8 -2.675921E+05 -3.791668E+04 -7.540168E+02 -1.027671E+05 -1.956237E+03 -5.576195E+02
        70   9 -2.752382E+05 -4.465005E+04 -2.599958E+03 -1.087872E+05 -8.761354E+02 -6.821391E+02
        70  10 -2.836309E+05 -4.929534E+04 -7.508549E+03 -1.107234E+05 -3.888842E-09 -3.264244E-09
        70  11 -2.757842E+05 -4.119338E+04 -2.929884E+03 -1.052128E+05 -6.262237E-12 -1.867604E-09
        70  12 -2.635459E+05 -3.989431E+04  4.521365E+02 -1.051977E+05  9.512154E-09  1.803758E-09
        70  13 -2.695834E+05 -4.363127E+04 -3.768750E+03 -1.064830E+05  1.234765E-09 -1.169299E-09
        70  14 -2.716882E+05 -3.955503E+04 -1.841952E+03 -1.039900E+05  6.703777E-10 -1.593376E-09
        70  15 -2.693921E+05 -4.227219E+04 -1.073915E+03 -1.069925E+05 -6.938757E-10 -5.595609E-10
        70  16 -2.555357E+05 -3.796719E+04 -2.897354E+01 -1.022426E+05  6.028149E-09  1.144225E-09
        70  17 -2.675921E+05 -3.791668E+04 -7.540245E+02 -1.027671E+05 -3.133793E-11 -2.010310E-09
        70  18 -2.752382E+05 -4.465006E+04 -2.599961E+03 -1.087872E+05 -6.385038E-09 -2.711044E-09
        70  19 -2.836309E+05 -4.929534E+04 -7.508535E+03 -1.107234E+05  2.645925E+03  3.878552E+02
        70  20 -2.757842E+05 -4.119338E+04 -2.929880E+03 -1.052128E+05  1.503488E+03  3.878749E+02
        70  21 -2.635459E+05 -3.989431E+04  4.521371E+02 -1.051977E+05  3.277884E+02  4.765606E+02
        70  22 -2.695834E+05 -4.363127E+04 -3.768735E+03 -1.064830E+05  2.824519E+03  4.548164E+02
        70  23 -2.716881E+05 -3.955503E+04 -1.841946E+03 -1.039900E+05  1.729862E+03  4.727470E+02
        70  24 -2.693921E+05 -4.227219E+04 -1.073914E+03 -1.069925E+05  6.019641E+02  5.793508E+02
        70  25 -2.555357E+05 -3.796719E+04 -2.895607E+01 -1.022426E+05  3.003116E+03  5.217795E+02
        70  26 -2.675921E+05 -3.791668E+04 -7.540168E+02 -1.027671E+05  1.956237E+03  5.576195E+02
        70  27 -2.752382E+05 -4.465005E+04 -2.599958E+03 -1.087872E+05  8.761354E+02  6.821391E+02
        71   1 -2.505961E+05 -3.545391E+04  4.066156E+03 -1.018087E+05 -9.226376E+01 -7.135337E+02
        71   2 -2.429818E+05 -2.891992E+04  7.030851E+03 -9.611745E+04  3.351582E+02 -1.080264E+03
        71   3 -2.303262E+05 -2.769228E+04  9.761213E+03 -9.627883E+04  7.646169E+02 -1.452324E+03
        71   4 -2.693213E+05 -4.245080E+04 -8.507824E+02 -1.068810E+05 -3.399111E+02 -8.063810E+02
        71   5 -2.718330E+05 -3.973240E+04 -4.974900E+02 -1.039792E+05  8.462678E+01 -1.174203E+03
        71   6 -2.693029E+05 -4.231978E+04 -3.761902E+02 -1.069301E+05  5.111965E+02 -1.547355E+03
        71   7 -2.880463E+05 -4.944772E+04 -5.767786E+03 -1.119531E+05 -5.875520E+02 -8.992259E+02
        71   8 -3.006837E+05 -5.054490E+04 -8.025944E+03 -1.118406E+05 -1.658932E+02 -1.268138E+03
        71   9 -3.082783E+05 -5.694725E+04 -1.051376E+04 -1.175808E+05  2.577925E+02 -1.642381E+03
        71  10 -2.505961E+05 -3.545391E+04  4.066155E+03 -1.018087E+05  2.840919E-09  1.000852E-09
        71  11 -2.429818E+05 -2.891992E+04  7.030848E+03 -9.611745E+04  8.139379E-10  7.951934E-11
        71  12 -2.303262E+05 -2.769228E+04  9.761208E+03 -9.627883E+04  3.926030E-10  8.346919E-10
        71  13 -2.693213E+05 -4.245080E+04 -8.507839E+02 -1.068810E+05 -1.162508E-09  2.447397E-10
        71  14 -2.718330E+05 -3.973241E+04 -4.974926E+02 -1.039792E+05 -1.362055E-09 -2.772947E-10
        71  15 -2.693029E+05 -4.231979E+04 -3.761951E+02 -1.069301E+05 -2.565044E-09  1.728611E-10
        71  16 -2.880463E+05 -4.944772E+04 -5.767788E+03 -1.119531E+05 -3.561078E-09 -4.788816E-10
        71  17 -3.006837E+05 -5.054490E+04 -8.025947E+03 -1.118406E+05 -2.931849E-09 -2.350120E-11
        71  18 -3.082783E+05 -5.694725E+04 -1.051377E+04 -1.175808E+05  7.419461E-11 -4.339767E-10
        71  19 -2.505961E+05 -3.545391E+04  4.066156E+03 -1.018087E+05  9.226376E+01  7.135337E+02
        71  20 -2.429818E+05 -2.891992E+04  7.030851E+03 -9.611745E+04 -3.351582E+02  1.080264E+03
        71  21 -2.303262E+05 -2.769228E+04  9.761213E+03 -9.627883E+04 -7.646169E+02  1.452324E+03
        71  22 -2.693213E+05 -4.245080E+04 -8.507824E+02 -1.068810E+05  3.399111E+02  8.063810E+02
        71  23 -2.718330E+05 -3.973240E+04 -4.974900E+02 -1.039792E+05 -8.462678E+01  1.174203E+03
        71  24 -2.693029E+05 -4.231978E+04 -3.761902E+02 -1.069301E+05 -5.111965E+02  1.547355E+03
        71  25 -2.880463E+05 -4.944772E+04 -5.767786E+03 -1.119531E+05  5.875520E+02  8.992259E+02
        71  26 -3.006837E+05 -5.054490E+04 -8.025944E+03 -1.118406E+05  1.658932E+02  1.268138E+03
        71  27 -3.082783E+05 -5.694725E+04 -1.051376E+04 -1.175808E+05 -2.577925E+02  1.642381E+03
        72   1 -2.176456E+05 -2.295809E+04  1.315154E+04 -9.283489E+04  9.260989E+02 -1.702839E+03
        72   2 -2.100920E+05 -1.660626E+04  1.567577E+04 -8.715179E+04  1.318749E+03 -2.086817E+03
        72   3 -1.974703E+05 -1.540642E+04  1.802777E+04 -8.731980E+04  1.711088E+03 -2.469762E+03
        72   4 -2.693037E+05 -4.232896E+04 -3.667622E+02 -1.069137E+05  6.747283E+02 -1.797111E+03
        72   5 -2.718381E+05 -3.975583E+04 -4.374088E+02 -1.039871E+05  1.067903E+03 -2.180909E+03
        72   6 -2.693047E+05 -4.233484E+04 -6.807376E+02 -1.069116E+05  1.460763E+03 -2.563677E+03
        72   7 -3.209589E+05 -6.169954E+04 -1.388521E+04 -1.209914E+05  4.233822E+02 -1.891373E+03
        72   8 -3.335804E+05 -6.290513E+04 -1.655088E+04 -1.208208E+05  8.170840E+02 -2.274992E+03
        72   9 -3.411343E+05 -6.926300E+04 -1.938972E+04 -1.265014E+05  1.210469E+03 -2.657580E+03
        72  10 -2.176456E+05 -2.295810E+04  1.315153E+04 -9.283489E+04  1.236424E-09  1.056918E-09
        72  11 -2.100920E+05 -1.660626E+04  1.567576E+04 -8.715178E+04  2.377779E-09 -2.361976E-10
        72  12 -1.974703E+05 -1.540643E+04  1.802775E+04 -8.731980E+04 -1.855452E-09 -9.356452E-10
        72  13 -2.693037E+05 -4.232896E+04 -3.667691E+02 -1.069137E+05  2.546100E-11  3.087705E-10
        72  14 -2.718381E+05 -3.975584E+04 -4.374199E+02 -1.039871E+05  3.412297E-09 -7.613920E-11
        72  15 -2.693047E+05 -4.233485E+04 -6.807540E+02 -1.069116E+05  4.121137E-10 -3.464465E-10
        72  16 -3.209589E+05 -6.169955E+04 -1.388522E+04 -1.209914E+05 -1.387329E-09 -5.986230E-10
        72  17 -3.335804E+05 -6.290514E+04 -1.655089E+04 -1.208208E+05 -2.200875E-09  8.754297E-12
        72  18 -3.411343E+05 -6.926301E+04 -1.938974E+04 -1.265014E+05  2.350384E-09  1.859836E-10
        72  19 -2.176456E+05 -2.295809E+04  1.315154E+04 -9.283489E+04 -9.260989E+02  1.702839E+03
        72  20 -2.100920E+05 -1.660626E+04  1.567577E+04 -8.715179E+04 -1.318749E+03  2.086817E+03
        72  21 -1.974703E+05 -1.540642E+04  1.802777E+04 -8.731980E+04 -1.711088E+03  2.469762E+03
        72  22 -2.693037E+05 -4.232896E+04 -3.667622E+02 -1.069137E+05 -6.747283E+02  1.797111E+03
        72  23 -2.718381E+05 -3.975583E+04 -4.374088E+02 -1.039871E+05 -1.067903E+03  2.180909E+03
        72  24 -2.693047E+05 -4.233484E+04 -6.807376E+02 -1.069116E+05 -1.460763E+03  2.563677E+03
        72  25 -3.209589E+05 -6.169954E+04 -1.388521E+04 -1.209914E+05 -4.233822E+02  1.891373E+03
        72  26 -3.335804E+05 -6.290513E+04 -1.655088E+04 -1.208208E+05 -8.170840E+02  2.274992E+03
        72  27 -3.411343E+05 -6.926300E+04 -1.938972E+04 -1.265014E+05 -1.210469E+03  2.657580E+03
        73   1 -1.849057E+05 -1.067238E+04  2.119250E+04 -8.393038E+04  1.940840E+03 -2.691790E+03
        73   2 -1.773812E+05 -4.342544E+03  2.310964E+04 -7.825787E+04  2.877687E+03 -2.867460E+03
        73   3 -1.649811E+05 -3.342414E+03  2.439157E+04 -7.834920E+04  3.813252E+03 -3.039397E+03
        73   4 -2.693384E+05 -4.230458E+04 -8.731970E+02 -1.069187E+05  1.690651E+03 -2.785669E+03
        73   5 -2.717900E+05 -3.973822E+04 -1.526784E+03 -1.039998E+05  2.629381E+03 -2.960660E+03
        73   6 -2.693666E+05 -4.250196E+04 -2.817142E+03 -1.068448E+05  3.566819E+03 -3.131922E+03
        73   7 -3.537639E+05 -7.393626E+04 -2.293943E+04 -1.299041E+05  1.440500E+03 -2.879535E+03
        73   8 -3.661902E+05 -7.513335E+04 -2.616396E+04 -1.297382E+05  2.381117E+03 -3.053845E+03
        73   9 -3.737418E+05 -8.166097E+04 -3.002686E+04 -1.353362E+05  3.320431E+03 -3.224430E+03
        73  10 -1.849057E+05 -1.067239E+04  2.119248E+04 -8.393037E+04 -1.363063E-09 -6.035496E-10
        73  11 -1.773812E+05 -4.342555E+03  2.310961E+04 -7.825786E+04 -1.845632E-09  4.986421E-10
        73  12 -1.649812E+05 -3.342427E+03  2.439152E+04 -7.834919E+04  1.115314E-09 -2.272574E-10
        73  13 -2.693384E+05 -4.230459E+04 -8.732170E+02 -1.069187E+05  9.067378E-10 -7.948864E-11
        73  14 -2.717900E+05 -3.973823E+04 -1.526814E+03 -1.039998E+05  9.944417E-10  2.598118E-10
        73  15 -2.693666E+05 -4.250198E+04 -2.817184E+03 -1.068448E+05  5.677450E-10  3.472021E-10
        73  16 -3.537639E+05 -7.393627E+04 -2.293945E+04 -1.299041E+05  3.127562E-09  2.306525E-10
        73  17 -3.661902E+05 -7.513336E+04 -2.616399E+04 -1.297382E+05  2.158627E-09  3.432252E-10
        73  18 -3.737418E+05 -8.166098E+04 -3.002690E+04 -1.353361E+05 -1.348422E-09  6.067247E-10
        73  19 -1.849057E+05 -1.067238E+04  2.119250E+04 -8.393038E+04 -1.940840E+03  2.691790E+03
        73  20 -1.773812E+05 -4.342544E+03  2.310964E+04 -7.825787E+04 -2.877687E+03  2.867460E+03
        73  21 -1.649811E+05 -3.342414E+03  2.439157E+04 -7.834920E+04 -3.813252E+03  3.039397E+03
        73  22 -2.693384E+05 -4.230458E+04 -8.731970E+02 -1.069187E+05 -1.690651E+03  2.785669E+03
        73  23 -2.717900E+05 -3.973822E+04 -1.526784E+03 -1.039998E+05 -2.629381E+03  2.960660E+03
        73  24 -2.693666E+05 -4.250196E+04 -2.817142E+03 -1.068448E+05 -3.566819E+03  3.131922E+03
        73  25 -3.537639E+05 -7.393626E+04 -2.293943E+04 -1.299041E+05 -1.440500E+03  2.879535E+03
        73  26 -3.661902E+05 -7.513335E+04 -2.616396E+04 -1.297382E+05 -2.381117E+03  3.053845E+03
        73  27 -3.737418E+05 -8.166097E+04 -3.002686E+04 -1.353362E+05 -3.320431E+03  3.224430E+03
        74   1 -1.524729E+05  1.361827E+03  2.682757E+04 -7.541067E+04  4.455475E+03 -3.106434E+03
        74   2 -1.448570E+05  8.114497E+03  2.645781E+04 -6.939747E+04  7.957496E+03 -2.310995E+03
        74   3 -1.336315E+05  7.248431E+03  2.291087E+04 -6.856455E+04  1.144970E+04 -1.488984E+03
        74   4 -2.695386E+05 -4.222610E+04 -3.699565E+03 -1.070102E+05  4.202733E+03 -3.201346E+03
        74   5 -2.714901E+05 -3.946068E+04 -6.605643E+03 -1.040278E+05  7.718402E+03 -2.400824E+03
        74   6 -2.698348E+05 -4.431719E+04 -1.270019E+04 -1.062258E+05  1.122419E+04 -1.573755E+03
        74   7 -3.865910E+05 -8.581323E+04 -3.422785E+04 -1.386044E+05  3.950044E+03 -3.296240E+03
        74   8 -3.981073E+05 -8.703479E+04 -3.967039E+04 -1.386517E+05  7.479362E+03 -2.490633E+03
        74   9 -4.060197E+05 -9.588142E+04 -4.831270E+04 -1.438795E+05  1.099874E+04 -1.658505E+03
        74  10 -1.524730E+05  1.361811E+03  2.682752E+04 -7.541066E+04  1.052544E-09 -2.845638E-10
        74  11 -1.448571E+05  8.114475E+03  2.645768E+04 -6.939746E+04 -1.845060E-09 -5.608188E-10
        74  12 -1.336316E+05  7.248393E+03  2.291062E+04 -6.856454E+04 -9.103748E-10 -1.199868E-10
        74  13 -2.695386E+05 -4.222611E+04 -3.699617E+03 -1.070102E+05  2.150969E-11 -1.543495E-10
        74  14 -2.714901E+05 -3.946071E+04 -6.605766E+03 -1.040278E+05 -1.152894E-09 -1.082672E-09
        74  15 -2.698349E+05 -4.431723E+04 -1.270043E+04 -1.062258E+05  8.529800E-10 -1.489201E-10
        74  16 -3.865910E+05 -8.581325E+04 -3.422790E+04 -1.386044E+05 -1.900333E-09 -2.386306E-10
        74  17 -3.981074E+05 -8.703481E+04 -3.967050E+04 -1.386517E+05  1.754376E-09 -1.323673E-09
        74  18 -4.060198E+05 -9.588146E+04 -4.831293E+04 -1.438795E+05  7.842384E-10  7.775876E-10
        74  19 -1.524729E+05  1.361827E+03  2.682757E+04 -7.541067E+04 -4.455475E+03  3.106434E+03
        74  20 -1.448570E+05  8.114497E+03  2.645781E+04 -6.939747E+04 -7.957496E+03  2.310995E+03
        74  21 -1.336315E+05  7.248431E+03  2.291087E+04 -6.856455E+04 -1.144970E+04  1.488984E+03
        74  22 -2.695386E+05 -4.222610E+04 -3.699565E+03 -1.070102E+05 -4.202733E+03  3.201346E+03
        74  23 -2.714901E+05 -3.946068E+04 -6.605643E+03 -1.040278E+05 -7.718402E+03  2.400824E+03
        74  24 -2.698348E+05 -4.431719E+04 -1.270019E+04 -1.062258E+05 -1.122419E+04  1.573755E+03
        74  25 -3.865910E+05 -8.581323E+04 -3.422785E+04 -1.386044E+05 -3.950044E+03  3.296240E+03
        74  26 -3.981073E+05 -8.703479E+04 -3.967039E+04 -1.386517E+05 -7.479362E+03  2.490633E+03
        74  27 -4.060197E+05 -9.588142E+04 -4.831270E+04 -1.438795E+05 -1.099874E+04  1.658505E+03
        75   1 -1.200141E+05  1.216818E+04  2.249279E+04 -6.982775E+04  1.400639E+04 -8.817698E+02
        75   2 -1.118779E+05  2.392087E+04  1.269666E+04 -5.963700E+04  2.883069E+04  4.196186E+03
        75   3 -1.103996E+05  4.889877E+03 -1.504280E+04 -4.878868E+04  4.352597E+04  9.619009E+03
        75   4 -2.709957E+05 -4.147154E+04 -1.637022E+04 -1.079341E+05  1.368024E+04 -1.004277E+03
        75   5 -2.691553E+05 -3.672739E+04 -2.866183E+04 -1.042562E+05  2.868663E+04  4.141861E+03
        75   6 -2.740121E+05 -6.280778E+04 -5.904469E+04 -9.992044E+04  4.356380E+04  9.632566E+03
        75   7 -4.219556E+05 -9.511061E+04 -5.523524E+04 -1.460326E+05  1.335418E+04 -1.126757E+03
        75   8 -4.264090E+05 -9.737387E+04 -7.002251E+04 -1.488650E+05  2.854261E+04  4.087552E+03
        75   9 -4.375984E+05 -1.305022E+05 -1.030490E+05 -1.510395E+05  4.360162E+04  9.646117E+03
        75  10 -1.200144E+05  1.216812E+04  2.249242E+04 -6.982774E+04  2.468293E-09  1.194334E-09
        75  11 -1.118788E+05  2.392063E+04  1.269506E+04 -5.963710E+04  8.998692E-11 -6.697476E-11
        75  12 -1.104017E+05  4.889269E+03 -1.504653E+04 -4.878902E+04 -2.247209E-09 -5.429141E-11
        75  13 -2.709959E+05 -4.147159E+04 -1.637058E+04 -1.079341E+05  1.066339E-09 -1.659831E-10
        75  14 -2.691562E+05 -3.672763E+04 -2.866341E+04 -1.042562E+05 -6.183315E-10 -1.015478E-11
        75  15 -2.740141E+05 -6.280839E+04 -5.904844E+04 -9.992078E+04 -4.827943E-10 -6.612916E-10
        75  16 -4.219558E+05 -9.511066E+04 -5.523557E+04 -1.460325E+05 -3.535454E-09  2.416460E-10
        75  17 -4.264099E+05 -9.737411E+04 -7.002408E+04 -1.488651E+05 -3.970480E-09 -1.095548E-09
        75  18 -4.376004E+05 -1.305028E+05 -1.030527E+05 -1.510398E+05  1.989349E-09 -3.745734E-10
        75  19 -1.200141E+05  1.216818E+04  2.249279E+04 -6.982775E+04 -1.400639E+04  8.817698E+02
        75  20 -1.118779E+05  2.392087E+04  1.269666E+04 -5.963700E+04 -2.883069E+04 -4.196186E+03
        75  21 -1.103996E+05  4.889877E+03 -1.504280E+04 -4.878868E+04 -4.352597E+04 -9.619009E+03
        75  22 -2.709957E+05 -4.147154E+04 -1.637022E+04 -1.079341E+05 -1.368024E+04  1.004277E+03
        75  23 -2.691553E+05 -3.672739E+04 -2.866183E+04 -1.042562E+05 -2.868663E+04 -4.141861E+03
        75  24 -2.740121E+05 -6.280778E+04 -5.904469E+04 -9.992044E+04 -4.356380E+04 -9.632566E+03
        75  25 -4.219556E+05 -9.511061E+04 -5.523524E+04 -1.460326E+05 -1.335418E+04  1.126757E+03
        75  26 -4.264090E+05 -9.737387E+04 -7.002251E+04 -1.488650E+05 -2.854261E+04 -4.087552E+03
        75  27 -4.375984E+05 -1.305022E+05 -1.030490E+05 -1.510395E+05 -4.360162E+04 -9.646117E+03
        76   1 -8.245055E+04  1.309027E+04 -2.589326E+04 -9.121145E+04  5.551931E+04  1.305756E+04
        76   2 -7.386418E+04  7.569805E+04 -7.209398E+04 -3.810607E+04  1.192467E+05  3.682454E+04
        76   3 -1.649768E+05 -1.219062E+05 -2.356624E+05  7.581838E+04  1.811235E+05  6.552110E+04
        76   4 -2.834682E+05 -3.374775E+04 -7.284584E+04 -1.166819E+05  5.409037E+04  1.252346E+04
        76   5 -2.484754E+05 -1.032333E+04 -1.215317E+05 -1.068796E+05  1.204531E+05  3.727308E+04
        76   6 -3.137407E+05 -2.476884E+05 -2.897004E+05 -3.624779E+04  1.849675E+05  6.694123E+04
        76   7 -4.844452E+05 -8.058687E+04 -1.198006E+05 -1.421477E+05  5.266193E+04  1.198938E+04
        76   8 -4.230548E+05 -9.633526E+04 -1.709720E+05 -1.756330E+05  1.216592E+05  3.772138E+04
        76   9 -4.624694E+05 -3.734283E+05 -3.437382E+05 -1.482800E+05  1.888105E+05  6.835988E+04
        76  10 -8.245391E+04  1.308926E+04 -2.589937E+04 -9.121203E+04 -3.058637E-09  5.179697E-10
        76  11 -7.387982E+04  7.569278E+04 -7.212325E+04 -3.810961E+04 -1.915585E-10  9.797621E-10
        76  12 -1.650131E+05 -1.219196E+05 -2.357321E+05  7.580882E+04 -1.166565E-09 -4.087531E-12
        76  13 -2.834714E+05 -3.374870E+04 -7.285164E+04 -1.166825E+05  2.329240E-10 -1.673874E-09
        76  14 -2.484913E+05 -1.032872E+04 -1.215616E+05 -1.068832E+05 -1.388103E-09  1.505301E-09
        76  15 -3.137786E+05 -2.477024E+05 -2.897731E+05 -3.625777E+04 -7.793529E-10  6.219587E-10
        76  16 -4.844482E+05 -8.058777E+04 -1.198061E+05 -1.421482E+05  2.752918E-09  3.558743E-10
        76  17 -4.230711E+05 -9.634077E+04 -1.710025E+05 -1.756367E+05 -1.731285E-09  1.916277E-09
        76  18 -4.625089E+05 -3.734430E+05 -3.438141E+05 -1.482904E+05 -3.130828E-10 -7.554351E-10
        76  19 -8.245055E+04  1.309027E+04 -2.589326E+04 -9.121145E+04 -5.551931E+04 -1.305756E+04
        76  20 -7.386418E+04  7.569805E+04 -7.209398E+04 -3.810607E+04 -1.192467E+05 -3.682454E+04
        76  21 -1.649768E+05 -1.219062E+05 -2.356624E+05  7.581838E+04 -1.811235E+05 -6.552110E+04
        76  22 -2.834682E+05 -3.374775E+04 -7.284584E+04 -1.166819E+05 -5.409037E+04 -1.252346E+04
        76  23 -2.484754E+05 -1.032333E+04 -1.215317E+05 -1.068796E+05 -1.204531E+05 -3.727308E+04
        76  24 -3.137407E+05 -2.476884E+05 -2.897004E+05 -3.624779E+04 -1.849675E+05 -6.694123E+04
        76  25 -4.844452E+05 -8.058687E+04 -1.198006E+05 -1.421477E+05 -5.266193E+04 -1.198938E+04
        76  26 -4.230548E+05 -9.633526E+04 -1.709720E+05 -1.756330E+05 -1.216592E+05 -3.772138E+04
        76  27 -4.624694E+05 -3.734283E+05 -3.437382E+05 -1.482800E+05 -1.888105E+05 -6.835988E+04
        77   1  2.421809E+05  2.177376E+06  2.370003E+05 -3.532740E+04  1.147864E+04  1.089789E+05
        77   2  1.931107E+05  2.170247E+06  1.726083E+05 -1.712215E+04  3.988045E+04  6.146430E+04
        77   3  1.799374E+05  2.178304E+06  1.480686E+05  2.452777E+03  5.113422E+04  1.395345E+04
        77   4  5.577278E+04  1.419292E+06  6.149535E+04  6.615752E+02  1.148830E+04  4.133686E+04
        77   5  1.401187E+04  1.414427E+06  3.140975E+04 -3.092394E+01  3.989212E+04  2.520153E+04
        77   6  2.733356E+03  1.419327E+06  1.944622E+04  6.475477E+02  5.114122E+04  9.068279E+03
        77   7 -1.306684E+05  6.617499E+05 -1.140302E+05  3.660642E+04  1.149014E+04 -2.622347E+04
        77   8 -1.651181E+05  6.591622E+05 -1.098083E+05  1.703906E+04  3.990180E+04 -1.101834E+04
        77   9 -1.745011E+05  6.609154E+05 -1.091947E+05 -1.155372E+03  5.114826E+04  4.188864E+03
        77  10  2.421776E+05  2.177363E+06  2.369778E+05 -3.532840E+04  3.172604E-10  1.378080E-09
        77  11  1.931080E+05  2.170242E+06  1.725983E+05 -1.712412E+04  1.843124E-09 -1.438121E-09
        77  12  1.799346E+05  2.178303E+06  1.480633E+05  2.452203E+03 -1.013896E-09 -3.323977E-09
        77  13  5.577218E+04  1.419290E+06  6.149189E+04  6.611930E+02  2.657393E-10 -5.845519E-11
        77  14  1.400999E+04  1.414426E+06  3.140556E+04 -3.173319E+01  7.218794E-10  1.383476E-10
        77  15  2.730524E+03  1.419326E+06  1.944115E+04  6.471744E+02  3.057951E-10  7.462213E-10
        77  16 -1.306687E+05  6.617491E+05 -1.140318E+05  3.660667E+04 -3.221539E-10 -1.337741E-09
        77  17 -1.651198E+05  6.591617E+05 -1.098115E+05  1.703941E+04  2.031437E-10  1.001596E-09
        77  18 -1.745039E+05  6.609146E+05 -1.091997E+05 -1.155545E+03 -2.422980E-09  3.538001E-09
        77  19  2.421809E+05  2.177376E+06  2.370003E+05 -3.532740E+04 -1.147864E+04 -1.089789E+05
        77  20  1.931107E+05  2.170247E+06  1.726083E+05 -1.712215E+04 -3.988045E+04 -6.146430E+04
        77  21  1.799374E+05  2.178304E+06  1.480686E+05  2.452777E+03 -5.113422E+04 -1.395345E+04
        77  22  5.577278E+04  1.419292E+06  6.149535E+04  6.615752E+02 -1.148830E+04 -4.133686E+04
        77  23  1.401187E+04  1.414427E+06  3.140975E+04 -3.092394E+01 -3.989212E+04 -2.520153E+04
        77  24  2.733356E+03  1.419327E+06  1.944622E+04  6.475477E+02 -5.114122E+04 -9.068279E+03
        77  25 -1.306684E+05  6.617499E+05 -1.140302E+05  3.660642E+04 -1.149014E+04  2.622347E+04
        77  26 -1.651181E+05  6.591622E+05 -1.098083E+05  1.703906E+04 -3.990180E+04  1.101834E+04
        77  27 -1.745011E+05  6.609154E+05 -1.091947E+05 -1.155372E+03 -5.114826E+04 -4.188864E+03
        78   1  1.796853E+05  2.176233E+06  1.436924E+05 -1.584625E+03  5.232905E+04  1.261587E+04
        78   2  1.776215E+05  2.175725E+06  1.394882E+05  5.567230E+01  5.408383E+04 -7.351100E+02
        78   3  1.805384E+05  2.178245E+06  1.452146E+05  1.906904E+03  5.245605E+04 -1.408776E+04
        78   4  2.845045E+03  1.417590E+06  1.657165E+04  3.903316E+02  5.233719E+04  6.316910E+03
        78   5  1.080865E+03  1.416610E+06  1.432821E+04  2.846096E+02  5.408996E+04 -8.385004E+02
        78   6  3.227589E+03  1.417589E+06  1.772786E+04  3.898354E+02  5.245816E+04 -7.995556E+03
        78   7 -1.740252E+05  6.595124E+05 -1.105669E+05  2.362852E+03  5.234530E+04  2.536501E+01
        78   8 -1.754894E+05  6.580627E+05 -1.108488E+05  5.133252E+02  5.409608E+04 -9.417686E+02
        78   9 -1.741134E+05  6.575013E+05 -1.097769E+05 -1.125234E+03  5.246023E+04 -1.910542E+03
        78  10  1.796823E+05  2.176232E+06  1.436870E+05 -1.585156E+03 -1.164089E-09  3.359079E-09
        78  11  1.776183E+05  2.175724E+06  1.394827E+05  5.570429E+01  3.334716E-10  9.904622E-10
        78  12  1.805354E+05  2.178244E+06  1.452091E+05  1.907498E+03  7.688692E-10  6.357259E-10
        78  13  2.842091E+03  1.417589E+06  1.656642E+04  3.900655E+02 -3.335527E-09 -4.920248E-11
        78  14  1.077721E+03  1.416609E+06  1.432270E+04  2.846461E+02  1.360143E-11  3.678563E-10
        78  15  3.224615E+03  1.417588E+06  1.772257E+04  3.901730E+02 -7.393832E-11  1.585777E-09
        78  16 -1.740281E+05  6.595116E+05 -1.105721E+05  2.362851E+03 -1.230807E-09 -3.389833E-09
        78  17 -1.754925E+05  6.580620E+05 -1.108543E+05  5.133662E+02 -1.875435E-09 -2.325324E-09
        78  18 -1.741164E+05  6.575005E+05 -1.097820E+05 -1.125154E+03 -7.222447E-10 -1.698461E-10
        78  19  1.796853E+05  2.176233E+06  1.436924E+05 -1.584625E+03 -5.232905E+04 -1.261587E+04
        78  20  1.776215E+05  2.175725E+06  1.394882E+05  5.567230E+01 -5.408383E+04  7.351100E+02
        78  21  1.805384E+05  2.178245E+06  1.452146E+05  1.906904E+03 -5.245605E+04  1.408776E+04
        78  22  2.845045E+03  1.417590E+06  1.657165E+04  3.903316E+02 -5.233719E+04 -6.316910E+03
        78  23  1.080865E+03  1.416610E+06  1.432821E+04  2.846096E+02 -5.408996E+04  8.385004E+02
        78  24  3.227589E+03  1.417589E+06  1.772786E+04  3.898354E+02 -5.245816E+04  7.995556E+03
        78  25 -1.740252E+05  6.595124E+05 -1.105669E+05  2.362852E+03 -5.234530E+04 -2.536501E+01
        78  26 -1.754894E+05  6.580627E+05 -1.108488E+05  5.133252E+02 -5.409608E+04  9.417686E+02
        78  27 -1.741134E+05  6.575013E+05 -1.097769E+05 -1.125234E+03 -5.246023E+04  1.910542E+03
        79   1  1.810797E+05  2.181887E+06  1.504902E+05 -2.561341E+03  5.133834E+04 -1.562380E+04
        79   2  1.962209E+05  2.175222E+06  1.774917E+05  1.935116E+04  4.016490E+04 -6.544334E+04
        79   3  2.513365E+05  2.185059E+06  2.468572E+05  4.032688E+04  1.166644E+04 -1.152841E+05
        79   4  3.090916E+03  1.419606E+06  2.126765E+04  1.283393E+02  5.134073E+04 -1.095716E+04
        79   5  1.589131E+04  1.414073E+06  3.523544E+04  6.190967E+02  4.014116E+04 -2.907414E+04
        79   6  6.319778E+04  1.419565E+06  6.961324E+04  1.717447E+02  1.161028E+04 -4.721033E+04
        79   7 -1.749285E+05  6.578947E+05 -1.079737E+05  2.814717E+03  5.134315E+04 -6.296035E+03
        79   8 -1.644696E+05  6.534863E+05 -1.070406E+05 -1.808938E+04  4.011521E+04  7.251732E+03
        79   9 -1.249735E+05  6.546239E+05 -1.076516E+05 -3.993355E+04  1.154530E+04  2.078042E+04
        79  10  1.810768E+05  2.181886E+06  1.504848E+05 -2.560695E+03 -6.798581E-10 -1.059756E-09
        79  11  1.962181E+05  2.175217E+06  1.774807E+05  1.935327E+04  1.420101E-10 -2.125014E-09
        79  12  2.513328E+05  2.185045E+06  2.468320E+05  4.032796E+04 -4.531823E-10  8.340267E-10
        79  13  3.088051E+03  1.419605E+06  2.126247E+04  1.287921E+02 -7.369394E-10 -4.832627E-11
        79  14  1.588936E+04  1.414072E+06  3.523082E+04  6.200361E+02  1.449490E-09  9.386475E-10
        79  15  6.319704E+04  1.419563E+06  6.960881E+04  1.721859E+02  1.219566E-09  2.457779E-09
        79  16 -1.749313E+05  6.578939E+05 -1.079787E+05  2.814977E+03 -1.339117E-09  1.022007E-09
        79  17 -1.644714E+05  6.534858E+05 -1.070437E+05 -1.808962E+04  1.468779E-09  1.101211E-10
        79  18 -1.249737E+05  6.546234E+05 -1.076527E+05 -3.993375E+04  6.290378E-10  2.268868E-12
        79  19  1.810797E+05  2.181887E+06  1.504902E+05 -2.561341E+03 -5.133834E+04  1.562380E+04
        79  20  1.962209E+05  2.175222E+06  1.774917E+05  1.935116E+04 -4.016490E+04  6.544334E+04
        79  21  2.513365E+05  2.185059E+06  2.468572E+05  4.032688E+04 -1.166644E+04  1.152841E+05
        79  22  3.090916E+03  1.419606E+06  2.126765E+04  1.283393E+02 -5.134073E+04  1.095716E+04
        79  23  1.589131E+04  1.414073E+06  3.523544E+04  6.190967E+02 -4.014116E+04  2.907414E+04
        79  24  6.319778E+04  1.419565E+06  6.961324E+04  1.717447E+02 -1.161028E+04  4.721033E+04
        79  25 -1.749285E+05  6.578947E+05 -1.079737E+05  2.814717E+03 -5.134315E+04  6.296035E+03
        79  26 -1.644696E+05  6.534863E+05 -1.070406E+05 -1.808938E+04 -4.011521E+04 -7.251732E+03
        79  27 -1.249735E+05  6.546239E+05 -1.076516E+05 -3.993355E+04 -1.154530E+04 -2.078042E+04
        80   1 -2.330917E+06 -4.355494E+05 -3.966310E+05 -5.720236E+04  6.158127E+04  2.432391E+04
        80   2 -2.179794E+06 -5.260693E+05 -4.211452E+05 -2.945239E+04  5.531545E+04  7.303272E+04
        80   3 -1.987955E+06 -4.758495E+05 -4.055293E+05 -1.124717E+05  4.927219E+04  6.937724E+04
        80   4 -9.675751E+04  1.215303E+05  1.535950E+05 -9.249916E+04  1.048691E+05  2.450895E+04
        80   5 -1.195895E+05 -1.585465E+04  6.727091E+04 -3.686641E+04  6.842746E+04  7.306068E+04
        80   6 -9.661441E+04 -7.504707E+03  4.193621E+04 -9.197458E+04  3.221141E+04  6.932462E+04
        80   7  2.141963E+06  6.782447E+05  7.034605E+05 -1.279283E+05  1.483123E+05  2.468874E+04
        80   8  1.944524E+06  4.940551E+05  5.553924E+05 -4.430850E+04  8.158257E+04  7.308829E+04
        80   9  1.798022E+06  4.605848E+05  4.891549E+05 -7.141617E+04  1.509869E+04  6.927097E+04
        80  10 -2.330922E+06 -4.355511E+05 -3.966393E+05 -5.720357E+04  2.397759E-09 -7.661811E-12
        80  11 -2.179799E+06 -5.260758E+05 -4.211610E+05 -2.945565E+04  3.043698E-09 -1.615020E-10
        80  12 -1.987959E+06 -4.758553E+05 -4.055430E+05 -1.124745E+05  2.168133E-09 -1.908146E-10
        80  13 -9.676948E+04  1.215267E+05  1.535732E+05 -9.250123E+04 -1.060408E-09  1.133182E-10
        80  14 -1.195959E+05 -1.586164E+04  6.725207E+04 -3.687044E+04  2.645126E-09  6.470010E-11
        80  15 -9.661681E+04 -7.510146E+03  4.192523E+04 -9.197638E+04 -3.304866E-09 -6.751931E-11
        80  16  2.141939E+06  6.782381E+05  7.034182E+05 -1.279313E+05 -2.156085E-09  2.384671E-10
        80  17  1.944516E+06  4.940476E+05  5.553699E+05 -4.431329E+04  6.483461E-10  5.343453E-10
        80  18  1.798021E+06  4.605796E+05  4.891455E+05 -7.141702E+04 -8.519697E-10  3.713014E-11
        80  19 -2.330917E+06 -4.355494E+05 -3.966310E+05 -5.720236E+04 -6.158127E+04 -2.432391E+04
        80  20 -2.179794E+06 -5.260693E+05 -4.211452E+05 -2.945239E+04 -5.531545E+04 -7.303272E+04
        80  21 -1.987955E+06 -4.758495E+05 -4.055293E+05 -1.124717E+05 -4.927219E+04 -6.937724E+04
        80  22 -9.675751E+04  1.215303E+05  1.535950E+05 -9.249916E+04 -1.048691E+05 -2.450895E+04
        80  23 -1.195895E+05 -1.585465E+04  6.727091E+04 -3.686641E+04 -6.842746E+04 -7.306068E+04
        80  24 -9.661441E+04 -7.504707E+03  4.193621E+04 -9.197458E+04 -3.221141E+04 -6.932462E+04
        80  25  2.141963E+06  6.782447E+05  7.034605E+05 -1.279283E+05 -1.483123E+05 -2.468874E+04
        80  26  1.944524E+06  4.940551E+05  5.553924E+05 -4.430850E+04 -8.158257E+04 -7.308829E+04
        80  27  1.798022E+06  4.605848E+05  4.891549E+05 -7.141617E+04 -1.509869E+04 -6.927097E+04
        81   1 -1.796222E+06 -4.082758E+05 -3.675689E+05 -9.127718E+04  2.705569E+04  5.792563E+04
        81   2 -1.628038E+06 -3.782696E+05 -3.426854E+05 -3.672130E+04  2.012906E+04  5.399582E+04
        81   3 -1.453224E+06 -3.347410E+05 -3.094074E+05 -9.434430E+04  1.318595E+04  4.674031E+04
        81   4 -1.050611E+05  1.064373E+04  3.399120E+04 -9.245026E+04  2.580712E+04  5.791268E+04
        81   5 -1.084681E+05 -2.030258E+03  1.735831E+04 -3.636087E+04  1.694737E+04  5.398364E+04
        81   6 -1.049464E+05 -8.616186E+02  1.044797E+04 -9.243294E+04  8.073058E+03  4.673262E+04
        81   7  1.588732E+06  4.293573E+05  4.353518E+05 -9.362755E+04  2.455507E+04  5.789975E+04
        81   8  1.413227E+06  3.740431E+05  3.772415E+05 -3.600004E+04  1.375788E+04  5.397148E+04
        81   9  1.245003E+06  3.328869E+05  3.301768E+05 -9.051735E+04  2.949086E+03  4.672490E+04
        81  10 -1.796224E+06 -4.082796E+05 -3.675766E+05 -9.127844E+04 -1.198941E-09  3.121980E-10
        81  11 -1.628039E+06 -3.782728E+05 -3.426916E+05 -3.672217E+04 -1.241613E-09  1.631988E-09
        81  12 -1.453224E+06 -3.347434E+05 -3.094118E+05 -9.434480E+04  2.958980E-10 -9.964075E-11
        81  13 -1.050627E+05  1.063995E+04  3.398364E+04 -9.245147E+04 -2.160094E-09 -3.193675E-11
        81  14 -1.084692E+05 -2.033465E+03  1.735229E+04 -3.636161E+04 -9.154223E-10  5.724084E-10
        81  15 -1.049471E+05 -8.639812E+02  1.044374E+04 -9.243324E+04  1.303819E-10 -2.785899E-11
        81  16  1.588730E+06  4.293536E+05  4.353444E+05 -9.362869E+04 -5.603027E-10 -1.714613E-10
        81  17  1.413226E+06  3.740399E+05  3.772357E+05 -3.600064E+04 -4.245575E-11  4.914702E-11
        81  18  1.245002E+06  3.328846E+05  3.301727E+05 -9.051746E+04  1.236299E-09 -9.020531E-11
        81  19 -1.796222E+06 -4.082758E+05 -3.675689E+05 -9.127718E+04 -2.705569E+04 -5.792563E+04
        81  20 -1.628038E+06 -3.782696E+05 -3.426854E+05 -3.672130E+04 -2.012906E+04 -5.399582E+04
        81  21 -1.453224E+06 -3.347410E+05 -3.094074E+05 -9.434430E+04 -1.318595E+04 -4.674031E+04
        81  22 -1.050611E+05  1.064373E+04  3.399120E+04 -9.245026E+04 -2.580712E+04 -5.791268E+04
        81  23 -1.084681E+05 -2.030258E+03  1.735831E+04 -3.636087E+04 -1.694737E+04 -5.398364E+04
        81  24 -1.049464E+05 -8.616186E+02  1.044797E+04 -9.243294E+04 -8.073058E+03 -4.673262E+04
        81  25  1.588732E+06  4.293573E+05  4.353518E+05 -9.362755E+04 -2.455507E+04 -5.789975E+04
        81  26  1.413227E+06  3.740431E+05  3.772415E+05 -3.600004E+04 -1.375788E+04 -5.397148E+04
        81  27  1.245003E+06  3.328869E+05  3.301768E+05 -9.051735E+04 -2.949086E+03 -4.672490E+04
        82   1 -1.253704E+06 -2.832543E+05 -2.633378E+05 -9.222030E+04  1.054191E+04  4.192843E+04
        82   2 -1.082373E+06 -2.418005E+05 -2.266682E+05 -3.581676E+04  8.453487E+03  3.465555E+04
        82   3 -9.097177E+05 -1.989039E+05 -1.881358E+05 -9.195047E+04  6.350560E+03  2.716693E+04
        82   4 -1.060590E+05  7.452500E+02  8.081431E+03 -9.251843E+04  6.428529E+03  4.192404E+04
        82   5 -1.066817E+05 -3.041061E+02  4.428971E+03 -3.625535E+04  4.211798E+03  3.465473E+04
        82   6 -1.059844E+05  1.132313E+02  2.728136E+03 -9.251862E+04  1.981143E+03  2.716995E+04
        82   7  1.042798E+06  2.846504E+05  2.794094E+05 -9.281697E+04  2.307562E+03  4.191966E+04
        82   8  8.698850E+05  2.411239E+05  2.354600E+05 -3.669446E+04 -3.653484E+01  3.465393E+04
        82   9  6.983427E+05  1.990839E+05  1.935471E+05 -9.308729E+04 -2.393910E+03  2.717298E+04
        82  10 -1.253705E+06 -2.832563E+05 -2.633413E+05 -9.222066E+04 -4.626377E-10 -6.797812E-10
        82  11 -1.082373E+06 -2.418018E+05 -2.266706E+05 -3.581700E+04 -3.484821E-10 -4.483687E-10
        82  12 -9.097180E+05 -1.989047E+05 -1.881373E+05 -9.195061E+04 -1.631971E-09  1.632836E-10
        82  13 -1.060596E+05  7.433516E+02  8.078051E+03 -9.251865E+04 -3.841015E-12 -7.543150E-10
        82  14 -1.066820E+05 -3.054004E+02  4.426681E+03 -3.625547E+04 -2.224247E-09 -2.814627E-10
        82  15 -1.059846E+05  1.124376E+02  2.726742E+03 -9.251867E+04 -2.488263E-10  7.776232E-10
        82  16  1.042798E+06  2.846485E+05  2.794061E+05 -9.281705E+04  1.562875E-09 -2.335993E-10
        82  17  8.698847E+05  2.411226E+05  2.354578E+05 -3.669446E+04 -7.236994E-11  3.987686E-11
        82  18  6.983425E+05  1.990831E+05  1.935457E+05 -9.308724E+04  6.725941E-10  8.886682E-10
        82  19 -1.253704E+06 -2.832543E+05 -2.633378E+05 -9.222030E+04 -1.054191E+04 -4.192843E+04
        82  20 -1.082373E+06 -2.418005E+05 -2.266682E+05 -3.581676E+04 -8.453487E+03 -3.465555E+04
        82  21 -9.097177E+05 -1.989039E+05 -1.881358E+05 -9.195047E+04 -6.350560E+03 -2.716693E+04
        82  22 -1.060590E+05  7.452500E+02  8.081431E+03 -9.251843E+04 -6.428529E+03 -4.192404E+04
        82  23 -1.066817E+05 -3.041061E+02  4.428971E+03 -3.625535E+04 -4.211798E+03 -3.465473E+04
        82  24 -1.059844E+05  1.132313E+02  2.728136E+03 -9.251862E+04 -1.981143E+03 -2.716995E+04
        82  25  1.042798E+06  2.846504E+05  2.794094E+05 -9.281697E+04 -2.307562E+03 -4.191966E+04
        82  26  8.698850E+05  2.411239E+05  2.354600E+05 -3.669446E+04  3.653484E+01 -3.465393E+04
        82  27  6.983427E+05  1.990839E+05  1.935471E+05 -9.308729E+04  2.393910E+03 -2.717298E+04
        83   1 -7.088178E+05 -1.488049E+05 -1.400691E+05 -9.195941E+04  5.843887E+03  2.276878E+04
        83   2 -5.364861E+05 -1.064114E+05 -1.005241E+05 -3.571569E+04  5.168391E+03  1.527463E+04
        83   3 -3.641993E+05 -6.359920E+04 -6.049571E+04 -9.219375E+04  4.486506E+03  7.765265E+03
        83   4 -1.062186E+05  2.102483E+02  2.111920E+03 -9.256086E+04  1.535495E+03  2.277352E+04
        83   5 -1.061653E+05  6.420080E+01  1.365698E+03 -3.620231E+04  8.500963E+02  1.528095E+04
        83   6 -1.061855E+05  3.397373E+02  1.110342E+03 -9.256069E+04  1.584937E+02  7.773270E+03
        83   7  4.967149E+05  1.491994E+05  1.442679E+05 -9.316274E+04 -2.777060E+03  2.277827E+04
        83   8  3.243257E+05  1.065265E+05  1.032427E+05 -3.668919E+04 -3.471178E+03  1.528727E+04
        83   9  1.518894E+05  6.427387E+04  6.271178E+04 -9.292775E+04 -4.171310E+03  7.781277E+03
        83  10 -7.088180E+05 -1.488055E+05 -1.400701E+05 -9.195952E+04  1.131375E-09  4.512346E-10
        83  11 -5.364861E+05 -1.064116E+05 -1.005246E+05 -3.571575E+04  1.306742E-09  2.621454E-10
        83  12 -3.641994E+05 -6.359927E+04 -6.049586E+04 -9.219378E+04 -7.185563E-10 -4.528231E-10
        83  13 -1.062187E+05  2.096908E+02  2.110941E+03 -9.256088E+04 -2.153825E-09  2.863432E-10
        83  14 -1.061654E+05  6.394987E+01  1.365258E+03 -3.620232E+04 -7.347406E-10 -1.765178E-10
        83  15 -1.061855E+05  3.396724E+02  1.110229E+03 -9.256069E+04 -7.810325E-10  9.371682E-11
        83  16  4.967148E+05  1.491989E+05  1.442669E+05 -9.316269E+04 -2.129829E-09  7.994880E-10
        83  17  3.243257E+05  1.065262E+05  1.032423E+05 -3.668915E+04 -2.000447E-09 -1.040341E-09
        83  18  1.518894E+05  6.427380E+04  6.271163E+04 -9.292773E+04 -4.803864E-10 -2.950682E-10
        83  19 -7.088178E+05 -1.488049E+05 -1.400691E+05 -9.195941E+04 -5.843887E+03 -2.276878E+04
        83  20 -5.364861E+05 -1.064114E+05 -1.005241E+05 -3.571569E+04 -5.168391E+03 -1.527463E+04
        83  21 -3.641993E+05 -6.359920E+04 -6.049571E+04 -9.219375E+04 -4.486506E+03 -7.765265E+03
        83  22 -1.062186E+05  2.102483E+02  2.111920E+03 -9.256086E+04 -1.535495E+03 -2.277352E+04
        83  23 -1.061653E+05  6.420080E+01  1.365698E+03 -3.620231E+04 -8.500963E+02 -1.528095E+04
        83  24 -1.061855E+05  3.397373E+02  1.110342E+03 -9.256069E+04 -1.584937E+02 -7.773270E+03
        83  25  4.967149E+05  1.491994E+05  1.442679E+05 -9.316274E+04  2.777060E+03 -2.277827E+04
        83  26  3.243257E+05  1.065265E+05  1.032427E+05 -3.668919E+04  3.471178E+03 -1.528727E+04
        83  27  1.518894E+05  6.427387E+04  6.271178E+04 -9.292775E+04  4.171310E+03 -7.781277E+03
        84   1 -1.628121E+05 -1.356813E+04 -1.179024E+04 -9.249156E+04  4.277054E+03  3.389723E+03
        84   2  9.747975E+03  2.876767E+04  2.872958E+04 -3.633483E+04  3.607120E+03 -4.118973E+03
        84   3  1.820571E+05  7.154827E+04  6.968748E+04 -9.292690E+04  2.938687E+03 -1.161629E+04
        84   4 -1.062144E+05  3.287646E+02  1.087065E+03 -9.256811E+04 -5.148175E+01  3.398130E+03
        84   5 -1.060791E+05  1.176521E+02  1.313483E+03 -3.619304E+04 -7.153180E+02 -4.111068E+03
        84   6 -1.062233E+05  3.523193E+02  1.975447E+03 -9.256804E+04 -1.377474E+03 -1.160878E+04
        84   7 -4.961369E+04  1.422545E+04  1.396423E+04 -9.264466E+04 -4.380409E+03  3.406537E+03
        84   8 -2.218938E+05 -2.853332E+04 -2.610348E+04 -3.605128E+04 -5.036954E+03 -4.103164E+03
        84   9 -3.944271E+05 -7.084954E+04 -6.574222E+04 -9.220931E+04 -5.691643E+03 -1.160127E+04
        84  10 -1.628121E+05 -1.356815E+04 -1.179030E+04 -9.249157E+04 -1.346191E-09 -3.532767E-10
        84  11  9.747957E+03  2.876765E+04  2.872952E+04 -3.633482E+04  5.492476E-10  1.708270E-10
        84  12  1.820570E+05  7.154812E+04  6.968722E+04 -9.292688E+04  5.117112E-10  2.409262E-10
        84  13 -1.062144E+05  3.287522E+02  1.087043E+03 -9.256811E+04  1.403837E-11  7.402724E-10
        84  14 -1.060791E+05  1.176338E+02  1.313450E+03 -3.619305E+04  1.930250E-09  3.445160E-10
        84  15 -1.062233E+05  3.521741E+02  1.975190E+03 -9.256805E+04 -2.323586E-10  3.365235E-10
        84  16 -4.961372E+04  1.422543E+04  1.396418E+04 -9.264465E+04  1.457435E-09  1.898504E-10
        84  17 -2.218939E+05 -2.853334E+04 -2.610355E+04 -3.605130E+04 -4.676483E-10  4.946713E-11
        84  18 -3.944271E+05 -7.084969E+04 -6.574253E+04 -9.220936E+04 -5.575295E-10 -4.686846E-10
        84  19 -1.628121E+05 -1.356813E+04 -1.179024E+04 -9.249156E+04 -4.277054E+03 -3.389723E+03
        84  20  9.747975E+03  2.876767E+04  2.872958E+04 -3.633483E+04 -3.607120E+03  4.118973E+03
        84  21  1.820571E+05  7.154827E+04  6.968748E+04 -9.292690E+04 -2.938687E+03  1.161629E+04
        84  22 -1.062144E+05  3.287646E+02  1.087065E+03 -9.256811E+04  5.148175E+01 -3.398130E+03
        84  23 -1.060791E+05  1.176521E+02  1.313483E+03 -3.619304E+04  7.153180E+02  4.111068E+03
        84  24 -1.062233E+05  3.523193E+02  1.975447E+03 -9.256804E+04  1.377474E+03  1.160878E+04
        84  25 -4.961369E+04  1.422545E+04  1.396423E+04 -9.264466E+04  4.380409E+03 -3.406537E+03
        84  26 -2.218938E+05 -2.853332E+04 -2.610348E+04 -3.605128E+04  5.036954E+03  4.103164E+03
        84  27 -3.944271E+05 -7.084954E+04 -6.574222E+04 -9.220931E+04  5.691643E+03  1.160127E+04
        85   1  3.836974E+05  1.214596E+05  1.189327E+05 -9.301183E+04  2.578414E+03 -1.601065E+04
        85   2  5.556950E+05  1.635840E+05  1.607961E+05 -3.683704E+04  3.909851E+02 -2.349971E+04
        85   3  7.284094E+05  2.071848E+05  2.044499E+05 -9.331380E+04 -1.787384E+03 -3.080286E+04
        85   4 -1.060532E+05  2.435578E+02  2.519142E+03 -9.254817E+04 -1.792419E+03 -1.600404E+04
        85   5 -1.064155E+05 -1.355136E+02  4.127376E+03 -3.621827E+04 -3.871181E+03 -2.349579E+04
        85   6 -1.061038E+05  9.462498E+02  7.454319E+03 -9.254732E+04 -5.940290E+03 -3.080146E+04
        85   7 -5.955837E+05 -1.209897E+05 -1.139111E+05 -9.208477E+04 -6.159822E+03 -1.599743E+04
        85   8 -7.681233E+05 -1.638865E+05 -1.525717E+05 -3.560002E+04 -8.128828E+03 -2.349189E+04
        85   9 -9.399771E+05 -2.053421E+05 -1.895893E+05 -9.178167E+04 -1.008764E+04 -3.080007E+04
        85  10  3.836974E+05  1.214593E+05  1.189322E+05 -9.301180E+04 -2.312034E-09 -3.180811E-11
        85  11  5.556949E+05  1.635835E+05  1.607950E+05 -3.683704E+04 -3.405485E-10  3.467318E-10
        85  12  7.284092E+05  2.071837E+05  2.044481E+05 -9.331384E+04  9.858043E-10 -5.452351E-10
        85  13 -1.060533E+05  2.432819E+02  2.518655E+03 -9.254819E+04 -1.094996E-09 -3.073427E-10
        85  14 -1.064157E+05 -1.361104E+02  4.126311E+03 -3.621834E+04 -2.321737E-09  1.297415E-10
        85  15 -1.061041E+05  9.452216E+02  7.452470E+03 -9.254747E+04  1.490102E-09 -7.558929E-10
        85  16 -5.955838E+05 -1.209900E+05 -1.139116E+05 -9.208485E+04  1.340697E-09  5.653064E-11
        85  17 -7.681235E+05 -1.638871E+05 -1.525728E+05 -3.560017E+04 -1.088919E-09  2.434139E-10
        85  18 -9.399775E+05 -2.053431E+05 -1.895913E+05 -9.178192E+04 -8.025598E-10 -3.466044E-10
        85  19  3.836974E+05  1.214596E+05  1.189327E+05 -9.301183E+04 -2.578414E+03  1.601065E+04
        85  20  5.556950E+05  1.635840E+05  1.607961E+05 -3.683704E+04 -3.909851E+02  2.349971E+04
        85  21  7.284094E+05  2.071848E+05  2.044499E+05 -9.331380E+04  1.787384E+03  3.080286E+04
        85  22 -1.060532E+05  2.435578E+02  2.519142E+03 -9.254817E+04  1.792419E+03  1.600404E+04
        85  23 -1.064155E+05 -1.355136E+02  4.127376E+03 -3.621827E+04  3.871181E+03  2.349579E+04
        85  24 -1.061038E+05  9.462498E+02  7.454319E+03 -9.254732E+04  5.940290E+03  3.080146E+04
        85  25 -5.955837E+05 -1.209897E+05 -1.139111E+05 -9.208477E+04  6.159822E+03  1.599743E+04
        85  26 -7.681233E+05 -1.638865E+05 -1.525717E+05 -3.560002E+04  8.128828E+03  2.349189E+04
        85  27 -9.399771E+05 -2.053421E+05 -1.895893E+05 -9.178167E+04  1.008764E+04  3.080007E+04
        86   1  9.307078E+05  2.556061E+05  2.551092E+05 -9.143257E+04 -2.434678E+03 -3.555386E+04
        86   2  1.099880E+06  2.969065E+05  3.017665E+05 -3.710755E+04 -1.231862E+04 -4.283352E+04
        86   3  1.274933E+06  3.513819E+05  3.584047E+05 -9.510742E+04 -2.219073E+04 -4.723586E+04
        86   4 -1.051163E+05 -5.494210E+02  9.619705E+03 -9.247608E+04 -7.457375E+03 -3.555419E+04
        86   5 -1.079465E+05 -1.654065E+03  1.605876E+04 -3.630880E+04 -1.566741E+04 -4.283898E+04
        86   6 -1.052074E+05  1.014112E+04  3.133126E+04 -9.247947E+04 -2.386287E+04 -4.724392E+04
        86   7 -1.139956E+06 -2.567819E+05 -2.359443E+05 -9.351760E+04 -1.247174E+04 -3.555451E+04
        86   8 -1.314434E+06 -3.003192E+05 -2.697501E+05 -3.551157E+04 -1.900970E+04 -4.284446E+04
        86   9 -1.483600E+06 -3.312364E+05 -2.958747E+05 -8.985749E+04 -2.553127E+04 -4.725200E+04
        86  10  9.307075E+05  2.556047E+05  2.551068E+05 -9.143264E+04 -1.730294E-09 -5.437242E-10
        86  11  1.099880E+06  2.969044E+05  3.017627E+05 -3.710797E+04  9.356127E-10  6.665993E-10
        86  12  1.274932E+06  3.513794E+05  3.583996E+05 -9.510826E+04  1.322136E-09 -3.304508E-10
        86  13 -1.051167E+05 -5.507933E+02  9.617225E+03 -9.247630E+04 -2.152485E-09 -1.871233E-10
        86  14 -1.079472E+05 -1.656102E+03  1.605485E+04 -3.630934E+04 -1.069639E-09  5.947458E-10
        86  15 -1.052086E+05  1.013857E+04  3.132599E+04 -9.248037E+04 -1.625276E-11 -4.043528E-10
        86  16 -1.139956E+06 -2.567833E+05 -2.359470E+05 -9.351796E+04  1.237361E-09 -3.842684E-10
        86  17 -1.314435E+06 -3.003212E+05 -2.697542E+05 -3.551222E+04  1.453805E-09  4.537849E-10
        86  18 -1.483601E+06 -3.312390E+05 -2.958801E+05 -8.985847E+04  1.094020E-09 -3.850284E-10
        86  19  9.307078E+05  2.556061E+05  2.551092E+05 -9.143257E+04  2.434678E+03  3.555386E+04
        86  20  1.099880E+06  2.969065E+05  3.017665E+05 -3.710755E+04  1.231862E+04  4.283352E+04
        86  21  1.274933E+06  3.513819E+05  3.584047E+05 -9.510742E+04  2.219073E+04  4.723586E+04
        86  22 -1.051163E+05 -5.494210E+02  9.619705E+03 -9.247608E+04  7.457375E+03  3.555419E+04
        86  23 -1.079465E+05 -1.654065E+03  1.605876E+04 -3.630880E+04  1.566741E+04  4.283898E+04
        86  24 -1.052074E+05  1.014112E+04  3.133126E+04 -9.247947E+04  2.386287E+04  4.724392E+04
        86  25 -1.139956E+06 -2.567819E+05 -2.359443E+05 -9.351760E+04  1.247174E+04  3.555451E+04
        86  26 -1.314434E+06 -3.003192E+05 -2.697501E+05 -3.551157E+04  1.900970E+04  4.284446E+04
        86  27 -1.483600E+06 -3.312364E+05 -2.958747E+05 -8.985749E+04  2.553127E+04  4.725200E+04
        87   1  1.483872E+06  3.841342E+05  4.120187E+05 -7.502179E+04 -1.436051E+04 -5.768791E+04
        87   2  1.633241E+06  4.184209E+05  4.763399E+05 -4.595940E+04 -7.400279E+04 -6.192506E+04
        87   3  1.828234E+06  5.914174E+05  6.147582E+05 -1.278844E+05 -1.337837E+05 -2.090023E+04
        87   4 -9.745666E+04 -6.582151E+03  3.864680E+04 -9.209810E+04 -2.977324E+04 -5.771286E+04
        87   5 -1.181004E+05 -1.432664E+04  6.209799E+04 -3.674676E+04 -6.320058E+04 -6.191690E+04
        87   6 -9.757931E+04  1.122992E+05  1.415795E+05 -9.239331E+04 -9.674809E+04 -2.080748E+04
        87   7 -1.676489E+06 -3.974763E+05 -3.348970E+05 -1.091312E+05 -4.514692E+04 -5.773699E+04
        87   8 -1.866627E+06 -4.472936E+05 -3.523560E+05 -2.756149E+04 -5.242842E+04 -6.190841E+04
        87   9 -2.020017E+06 -3.670883E+05 -3.318661E+05 -5.701433E+04 -5.982659E+04 -2.071036E+04
        87  10  1.483871E+06  3.841305E+05  4.120121E+05 -7.502246E+04 -1.322821E-09 -2.195746E-11
        87  11  1.633234E+06  4.184153E+05  4.763224E+05 -4.596309E+04  2.113737E-09  8.487017E-10
        87  12  1.828215E+06  5.914121E+05  6.147238E+05 -1.278867E+05 -1.077205E-09 -7.105407E-11
        87  13 -9.745851E+04 -6.585966E+03  3.863888E+04 -9.209948E+04  2.133402E-09 -4.080800E-10
        87  14 -1.181057E+05 -1.433183E+04  6.208328E+04 -3.674991E+04  2.877038E-10  2.536353E-10
        87  15 -9.758948E+04  1.122962E+05  1.415611E+05 -9.239493E+04 -4.656105E-10  4.288451E-10
        87  16 -1.676492E+06 -3.974804E+05 -3.349071E+05 -1.091333E+05  1.764324E-09 -5.201102E-10
        87  17 -1.866631E+06 -4.472984E+05 -3.523684E+05 -2.756410E+04  1.773457E-09  1.213403E-09
        87  18 -2.020021E+06 -3.670898E+05 -3.318737E+05 -5.701533E+04 -1.522858E-09  3.302900E-10
        87  19  1.483872E+06  3.841342E+05  4.120187E+05 -7.502179E+04  1.436051E+04  5.768791E+04
        87  20  1.633241E+06  4.184209E+05  4.763399E+05 -4.595940E+04  7.400279E+04  6.192506E+04
        87  21  1.828234E+06  5.914174E+05  6.147582E+05 -1.278844E+05  1.337837E+05  2.090023E+04
        87  22 -9.745666E+04 -6.582151E+03  3.864680E+04 -9.209810E+04  2.977324E+04  5.771286E+04
        87  23 -1.181004E+05 -1.432664E+04  6.209799E+04 -3.674676E+04  6.320058E+04  6.191690E+04
        87  24 -9.757931E+04  1.122992E+05  1.415795E+05 -9.239331E+04  9.674809E+04  2.080748E+04
        87  25 -1.676489E+06 -3.974763E+05 -3.348970E+05 -1.091312E+05  4.514692E+04  5.773699E+04
        87  26 -1.866627E+06 -4.472936E+05 -3.523560E+05 -2.756149E+04  5.242842E+04  6.190841E+04
        87  27 -2.020017E+06 -3.670883E+05 -3.318661E+05 -5.701433E+04  5.982659E+04  2.071036E+04
        88   1  2.669321E+05  4.183356E+05  2.875408E+05 -2.009327E+05  5.100373E+03  9.421998E+04
        88   2  7.855182E+04  9.303309E+04  1.382651E+05 -7.564744E+04  1.237843E+04  5.491381E+04
        88   3  9.212404E+03 -1.998701E+05  4.381394E+04 -1.514919E+05  7.393953E+02  1.552402E+04
        88   4  9.915813E+04 -2.526703E+05  1.218302E+05 -1.642834E+05  5.157296E+03  8.465117E+04
        88   5 -1.088327E+04 -2.678847E+05  5.275662E+04 -6.399438E+04  1.237237E+04  5.627510E+04
        88   6 -3.729689E+03 -2.526391E+05  3.096697E+04 -1.648298E+05  6.684832E+02  2.779577E+04
        88   7 -6.864474E+04 -9.232643E+05 -4.391283E+04 -1.276732E+05  5.213123E+03  7.509264E+04
        88   8 -1.003273E+05 -6.286825E+05 -3.276086E+04 -5.234796E+04  1.236635E+04  5.763560E+04
        88   9 -1.667123E+04 -3.054048E+05  1.812046E+04 -1.781667E+05  5.970405E+02  4.006648E+04
        88  10  2.669297E+05  4.183260E+05  2.875241E+05 -2.009331E+05  4.175248E-12  7.238842E-10
        88  11  7.855084E+04  9.302981E+04  1.382592E+05 -7.564799E+04  2.340356E-09  3.025609E-11
        88  12  9.212339E+03 -1.998704E+05  4.381348E+04 -1.514919E+05  5.453708E-10 -8.555667E-11
        88  13  9.915617E+04 -2.526780E+05  1.218167E+05 -1.642838E+05 -1.366137E-09  1.324562E-11
        88  14 -1.088428E+04 -2.678881E+05  5.275038E+04 -6.399494E+04  1.795393E-09 -5.186075E-12
        88  15 -3.729897E+03 -2.526399E+05  3.096551E+04 -1.648298E+05  6.755394E-10 -4.975219E-11
        88  16 -6.864628E+04 -9.232703E+05 -4.392349E+04 -1.276735E+05 -9.956367E-10 -6.852157E-10
        88  17 -1.003283E+05 -6.286861E+05 -3.276740E+04 -5.234853E+04  8.567711E-10 -1.337728E-10
        88  18 -1.667166E+04 -3.054065E+05  1.811744E+04 -1.781667E+05  5.228889E-10 -8.028733E-11
        88  19  2.669321E+05  4.183356E+05  2.875408E+05 -2.009327E+05 -5.100373E+03 -9.421998E+04
        88  20  7.855182E+04  9.303309E+04  1.382651E+05 -7.564744E+04 -1.237843E+04 -5.491381E+04
        88  21  9.212404E+03 -1.998701E+05  4.381394E+04 -1.514919E+05 -7.393953E+02 -1.552402E+04
        88  22  9.915813E+04 -2.526703E+05  1.218302E+05 -1.642834E+05 -5.157296E+03 -8.465117E+04
        88  23 -1.088327E+04 -2.678847E+05  5.275662E+04 -6.399438E+04 -1.237237E+04 -5.627510E+04
        88  24 -3.729689E+03 -2.526391E+05  3.096697E+04 -1.648298E+05 -6.684832E+02 -2.779577E+04
        88  25 -6.864474E+04 -9.232643E+05 -4.391283E+04 -1.276732E+05 -5.213123E+03 -7.509264E+04
        88  26 -1.003273E+05 -6.286825E+05 -3.276086E+04 -5.234796E+04 -1.236635E+04 -5.763560E+04
        88  27 -1.667123E+04 -3.054048E+05  1.812046E+04 -1.781667E+05 -5.970405E+02 -4.006648E+04
        89   1 -6.522363E+04 -5.681184E+05 -4.949890E+04 -1.657217E+05 -1.007184E+04  1.572557E+04
        89   2 -1.529626E+05 -8.772074E+05 -1.377263E+05 -6.244750E+04 -2.199256E+04  1.230661E+04
        89   3 -2.320419E+05 -1.185856E+06 -2.220730E+05 -1.610909E+05 -3.215603E+04  8.912397E+03
        89   4  1.124347E+04 -2.593108E+05  2.399180E+04 -1.647951E+05 -1.011366E+04  2.311435E+04
        89   5 -1.056282E+02 -2.596210E+05  8.550141E+03 -6.388005E+04 -2.202491E+04  1.868301E+04
        89   6 -2.613882E+03 -2.593996E+05 -2.298546E+03 -1.648691E+05 -3.217996E+04  1.427478E+04
        89   7  8.770373E+04  4.958450E+04  9.747603E+04 -1.638680E+05 -1.015544E+04  3.050679E+04
        89   8  1.527240E+05  3.583163E+05  1.548003E+05 -6.531355E+04 -2.205726E+04  2.506571E+04
        89   9  2.267524E+05  6.678469E+05  2.174163E+05 -1.686518E+05 -3.220393E+04  1.964512E+04
        89  10 -6.522380E+04 -5.681187E+05 -4.949955E+04 -1.657215E+05 -3.313857E-10  2.079114E-09
        89  11 -1.529632E+05 -8.772077E+05 -1.377275E+05 -6.244728E+04  2.643861E-09  1.125579E-10
        89  12 -2.320431E+05 -1.185857E+06 -2.220751E+05 -1.610907E+05  1.463443E-09 -8.432291E-10
        89  13  1.124322E+04 -2.593114E+05  2.399061E+04 -1.647949E+05  2.967007E-09  4.800425E-16
        89  14 -1.062427E+02 -2.596215E+05  8.548574E+03 -6.387972E+04  1.743489E-09 -7.923203E-11
        89  15 -2.615048E+03 -2.594001E+05 -2.300875E+03 -1.648687E+05  1.580759E-09  1.281600E-10
        89  16  8.770337E+04  4.958348E+04  9.747409E+04 -1.638677E+05  4.070709E-10 -2.143763E-09
        89  17  1.527233E+05  3.583155E+05  1.547982E+05 -6.531311E+04  1.473772E-09 -3.328282E-10
        89  18  2.267512E+05  6.678462E+05  2.174136E+05 -1.686513E+05 -1.035252E-09  1.024826E-09
        89  19 -6.522363E+04 -5.681184E+05 -4.949890E+04 -1.657217E+05  1.007184E+04 -1.572557E+04
        89  20 -1.529626E+05 -8.772074E+05 -1.377263E+05 -6.244750E+04  2.199256E+04 -1.230661E+04
        89  21 -2.320419E+05 -1.185856E+06 -2.220730E+05 -1.610909E+05  3.215603E+04 -8.912397E+03
        89  22  1.124347E+04 -2.593108E+05  2.399180E+04 -1.647951E+05  1.011366E+04 -2.311435E+04
        89  23 -1.056282E+02 -2.596210E+05  8.550141E+03 -6.388005E+04  2.202491E+04 -1.868301E+04
        89  24 -2.613882E+03 -2.593996E+05 -2.298546E+03 -1.648691E+05  3.217996E+04 -1.427478E+04
        89  25  8.770373E+04  4.958450E+04  9.747603E+04 -1.638680E+05  1.015544E+04 -3.050679E+04
        89  26  1.527240E+05  3.583163E+05  1.548003E+05 -6.531355E+04  2.205726E+04 -2.506571E+04
        89  27  2.267524E+05  6.678469E+05  2.174163E+05 -1.686518E+05  3.220393E+04 -1.964512E+04
        90   1 -3.145307E+05 -1.549295E+06 -3.112288E+05 -1.548683E+05 -4.637460E+04 -4.263586E+03
        90   2 -3.903448E+05 -1.849741E+06 -3.954673E+05 -6.375745E+04 -5.641089E+04  3.220522E+04
        90   3 -5.110788E+05 -2.165727E+06 -5.146791E+05 -1.727659E+05 -1.969246E+04  6.881301E+04
        90   4  4.203087E+03 -2.621550E+05 -6.479894E+03 -1.643942E+05 -4.645843E+04  1.487023E+04
        90   5  4.148689E+03 -2.568084E+05 -1.784476E+04 -6.441502E+04 -5.637167E+04  2.449925E+04
        90   6 -3.608727E+04 -2.623789E+05 -4.547253E+04 -1.645287E+05 -1.958218E+04  3.428636E+04
        90   7  3.228183E+05  1.026511E+06  2.981553E+05 -1.739381E+05 -4.654275E+04  3.404356E+04
        90   8  3.984597E+05  1.338460E+06  3.596014E+05 -6.507198E+04 -5.633250E+04  1.677350E+04
        90   9  4.386350E+05  1.644275E+06  4.234707E+05 -1.562631E+05 -1.947299E+04 -3.464040E+02
        90  10 -3.145330E+05 -1.549295E+06 -3.112329E+05 -1.548685E+05  5.181477E-11  6.443905E-10
        90  11 -3.903485E+05 -1.849743E+06 -3.954752E+05 -6.375598E+04 -3.569735E-10  9.589007E-11
        90  12 -5.110805E+05 -2.165732E+06 -5.146888E+05 -1.727649E+05  1.125466E-09 -5.360473E-11
        90  13  4.200710E+03 -2.621559E+05 -6.484364E+03 -1.643937E+05 -2.876879E-09  4.597268E-11
        90  14  4.145116E+03 -2.568099E+05 -1.785186E+04 -6.441391E+04 -1.254972E-09  5.948557E-11
        90  15 -3.608800E+04 -2.623803E+05 -4.547546E+04 -1.645281E+05 -1.048934E-09 -1.507513E-12
        90  16  3.228157E+05  1.026509E+06  2.981491E+05 -1.739368E+05 -1.039529E-09 -4.847028E-10
        90  17  3.984562E+05  1.338459E+06  3.595949E+05 -6.507122E+04 -3.219940E-10  4.544176E-12
        90  18  4.386346E+05  1.644275E+06  4.234700E+05 -1.562631E+05  7.225902E-10  5.933632E-11
        90  19 -3.145307E+05 -1.549295E+06 -3.112288E+05 -1.548683E+05  4.637460E+04  4.263586E+03
        90  20 -3.903448E+05 -1.849741E+06 -3.954673E+05 -6.375745E+04  5.641089E+04 -3.220522E+04
        90  21 -5.110788E+05 -2.165727E+06 -5.146791E+05 -1.727659E+05  1.969246E+04 -6.881301E+04
        90  22  4.203087E+03 -2.621550E+05 -6.479894E+03 -1.643942E+05  4.645843E+04 -1.487023E+04
        90  23  4.148689E+03 -2.568084E+05 -1.784476E+04 -6.441502E+04  5.637167E+04 -2.449925E+04
        90  24 -3.608727E+04 -2.623789E+05 -4.547253E+04 -1.645287E+05  1.958218E+04 -3.428636E+04
        90  25  3.228183E+05  1.026511E+06  2.981553E+05 -1.739381E+05  4.654275E+04 -3.404356E+04
        90  26  3.984597E+05  1.338460E+06  3.596014E+05 -6.507198E+04  5.633250E+04 -1.677350E+04
        90  27  4.386350E+05  1.644275E+06  4.234707E+05 -1.562631E+05  1.947299E+04  3.464040E+02
        91   1 -4.581987E+06 -1.563362E+06 -9.811407E+05 -1.602855E+06 -3.800764E+05 -1.231431E+05
        91   2 -4.449223E+06 -9.945737E+05 -6.251089E+05 -1.612357E+06 -2.496355E+05 -2.999346E+04
        91   3 -4.467847E+06 -9.546426E+05 -5.091321E+05 -1.550363E+06 -1.037306E+05  2.256373E+04
        91   4 -3.062240E+06 -8.532846E+05 -5.405162E+05 -1.052355E+06 -3.493883E+05 -1.115758E+05
        91   5 -2.959814E+06 -3.921370E+05 -2.268435E+05 -1.163544E+06 -2.404210E+05 -2.652876E+04
        91   6 -3.004043E+06 -4.548839E+05 -1.356722E+05 -1.203367E+06 -1.160212E+05  1.791511E+04
        91   7 -1.540209E+06 -1.427040E+05 -1.001159E+05 -5.005124E+05 -3.186161E+05 -9.996006E+04
        91   8 -1.468232E+06  2.105299E+05  1.712258E+05 -7.137171E+05 -2.311815E+05 -2.305308E+04
        91   9 -1.538147E+06  4.491865E+04  2.376180E+05 -8.556676E+05 -1.283436E+05  1.325712E+04
        91  10 -4.582147E+06 -1.563418E+06 -9.814432E+05 -1.602893E+06  5.085934E-10 -2.263738E-10
        91  11 -4.449291E+06 -9.945916E+05 -6.252286E+05 -1.612363E+06  1.070246E-09 -1.121018E-09
        91  12 -4.467858E+06 -9.546461E+05 -5.091534E+05 -1.550361E+06 -1.072188E-09 -9.904450E-10
        91  13 -3.062375E+06 -8.533311E+05 -5.407704E+05 -1.052387E+06 -2.788023E-09 -2.055205E-10
        91  14 -2.959876E+06 -3.921534E+05 -2.269540E+05 -1.163549E+06 -8.427870E-10 -8.503721E-10
        91  15 -3.004058E+06 -4.548879E+05 -1.356982E+05 -1.203365E+06 -1.893954E-09 -1.355452E-09
        91  16 -1.540321E+06 -1.427421E+05 -1.003260E+05 -5.005381E+05 -2.940603E-10 -1.372598E-10
        91  17 -1.468289E+06  2.105150E+05  1.711241E+05 -7.137214E+05  1.402437E-09 -4.150336E-10
        91  18 -1.538165E+06  4.491403E+04  2.375866E+05 -8.556663E+05  5.670686E-12 -1.436707E-09
        91  19 -4.581987E+06 -1.563362E+06 -9.811407E+05 -1.602855E+06  3.800764E+05  1.231431E+05
        91  20 -4.449223E+06 -9.945737E+05 -6.251089E+05 -1.612357E+06  2.496355E+05  2.999346E+04
        91  21 -4.467847E+06 -9.546426E+05 -5.091321E+05 -1.550363E+06  1.037306E+05 -2.256373E+04
        91  22 -3.062240E+06 -8.532846E+05 -5.405162E+05 -1.052355E+06  3.493883E+05  1.115758E+05
        91  23 -2.959814E+06 -3.921370E+05 -2.268435E+05 -1.163544E+06  2.404210E+05  2.652876E+04
        91  24 -3.004043E+06 -4.548839E+05 -1.356722E+05 -1.203367E+06  1.160212E+05 -1.791511E+04
        91  25 -1.540209E+06 -1.427040E+05 -1.001159E+05 -5.005124E+05  3.186161E+05  9.996006E+04
        91  26 -1.468232E+06  2.105299E+05  1.712258E+05 -7.137171E+05  2.311815E+05  2.305308E+04
        91  27 -1.538147E+06  4.491865E+04  2.376180E+05 -8.556676E+05  1.283436E+05 -1.325712E+04
        92   1 -4.269690E+06 -1.008419E+06 -4.502440E+05 -1.538553E+06 -9.357437E+04  1.688176E+04
        92   2 -4.179037E+06 -8.858348E+05 -3.632156E+05 -1.480828E+06 -6.350413E+04  2.577953E+04
        92   3 -4.051375E+06 -8.692406E+05 -3.109538E+05 -1.476416E+06 -3.227438E+04  3.158538E+04
        92   4 -2.984660E+06 -5.112353E+05 -1.100173E+05 -1.174488E+06 -9.401183E+04  1.670664E+04
        92   5 -3.000405E+06 -4.383197E+05 -5.351116E+04 -1.155382E+06 -6.554182E+04  2.500451E+04
        92   6 -2.978793E+06 -4.710083E+05 -3.043948E+04 -1.189596E+06 -3.591884E+04  3.021024E+04
        92   7 -1.698021E+06 -1.392662E+04  2.300650E+05 -8.097298E+05 -9.445015E+04  1.653121E+04
        92   8 -1.820417E+06  9.287654E+03  2.560743E+05 -8.293728E+05 -6.758371E+04  2.422791E+04
        92   9 -1.905087E+06 -7.271174E+04  2.499784E+05 -9.023282E+05 -3.957024E+04  2.883259E+04
        92  10 -4.269700E+06 -1.008422E+06 -4.502611E+05 -1.538552E+06 -1.928808E-09 -8.201218E-10
        92  11 -4.179041E+06 -8.858366E+05 -3.632244E+05 -1.480827E+06 -5.236782E-10  4.258330E-10
        92  12 -4.051377E+06 -8.692419E+05 -3.109577E+05 -1.476416E+06  9.995060E-11  7.712094E-10
        92  13 -2.984669E+06 -5.112380E+05 -1.100345E+05 -1.174487E+06 -7.282255E-11 -7.135872E-10
        92  14 -3.000409E+06 -4.383215E+05 -5.352043E+04 -1.155381E+06 -9.223514E-10  7.312956E-10
        92  15 -2.978795E+06 -4.710096E+05 -3.044362E+04 -1.189595E+06  1.275743E-09  5.387460E-12
        92  16 -1.698031E+06 -1.392931E+04  2.300477E+05 -8.097285E+05  8.254828E-10 -4.369652E-10
        92  17 -1.820422E+06  9.285798E+03  2.560646E+05 -8.293715E+05  1.551686E-09  1.542604E-09
        92  18 -1.905089E+06 -7.271305E+04  2.499739E+05 -9.023272E+05  3.181353E-10 -5.455243E-10
        92  19 -4.269690E+06 -1.008419E+06 -4.502440E+05 -1.538553E+06  9.357437E+04 -1.688176E+04
        92  20 -4.179037E+06 -8.858348E+05 -3.632156E+05 -1.480828E+06  6.350413E+04 -2.577953E+04
        92  21 -4.051375E+06 -8.692406E+05 -3.109538E+05 -1.476416E+06  3.227438E+04 -3.158538E+04
        92  22 -2.984660E+06 -5.112353E+05 -1.100173E+05 -1.174488E+06  9.401183E+04 -1.670664E+04
        92  23 -3.000405E+06 -4.383197E+05 -5.351116E+04 -1.155382E+06  6.554182E+04 -2.500451E+04
        92  24 -2.978793E+06 -4.710083E+05 -3.043948E+04 -1.189596E+06  3.591884E+04 -3.021024E+04
        92  25 -1.698021E+06 -1.392662E+04  2.300650E+05 -8.097298E+05  9.445015E+04 -1.653121E+04
        92  26 -1.820417E+06  9.287654E+03  2.560743E+05 -8.293728E+05  6.758371E+04 -2.422791E+04
        92  27 -1.905087E+06 -7.271174E+04  2.499784E+05 -9.023282E+05  3.957024E+04 -2.883259E+04
        93   1 -3.892167E+06 -8.236406E+05 -2.637950E+05 -1.438998E+06 -2.733373E+04  2.929562E+04
        93   2 -3.797405E+06 -7.388682E+05 -2.198200E+05 -1.368380E+06 -1.874658E+04  2.619389E+04
        93   3 -3.640498E+06 -7.230462E+05 -1.818630E+05 -1.369983E+06 -1.002296E+04  2.270138E+04
        93   4 -2.975341E+06 -4.778728E+05 -2.370033E+04 -1.188108E+06 -3.022059E+04  2.820742E+04
        93   5 -3.006098E+06 -4.413028E+05 -1.247754E+04 -1.152780E+06 -2.183312E+04  2.503357E+04
        93   6 -2.974687E+06 -4.736330E+05 -7.105393E+03 -1.189673E+06 -1.331076E+04  2.146869E+04
        93   7 -2.057695E+06 -1.320518E+05  2.163228E+05 -9.368802E+05 -3.311213E+04  2.711746E+04
        93   8 -2.214183E+06 -1.436993E+05  1.948113E+05 -9.369312E+05 -2.492399E+04  2.387163E+04
        93   9 -2.308446E+06 -2.241942E+05  1.676138E+05 -1.009189E+06 -1.660243E+04  2.023455E+04
        93  10 -3.892168E+06 -8.236417E+05 -2.637980E+05 -1.438998E+06 -1.415491E-09 -1.713737E-10
        93  11 -3.797405E+06 -7.388690E+05 -2.198219E+05 -1.368380E+06 -9.394378E-10  2.510923E-10
        93  12 -3.640498E+06 -7.230468E+05 -1.818641E+05 -1.369982E+06 -3.494087E-10  8.895083E-10
        93  13 -2.975342E+06 -4.778739E+05 -2.370354E+04 -1.188107E+06  2.103760E-11 -8.200331E-10
        93  14 -3.006099E+06 -4.413036E+05 -1.247961E+04 -1.152780E+06  8.686752E-10  1.981248E-10
        93  15 -2.974687E+06 -4.736335E+05 -7.106591E+03 -1.189673E+06  1.792167E-09  6.604345E-10
        93  16 -2.057696E+06 -1.320529E+05  2.163194E+05 -9.368794E+05  3.345734E-09 -9.024997E-10
        93  17 -2.214183E+06 -1.437001E+05  1.948090E+05 -9.369307E+05  5.830228E-10  3.071498E-10
        93  18 -2.308446E+06 -2.241947E+05  1.676125E+05 -1.009189E+06  1.258501E-09  2.881157E-10
        93  19 -3.892167E+06 -8.236406E+05 -2.637950E+05 -1.438998E+06  2.733373E+04 -2.929562E+04
        93  20 -3.797405E+06 -7.388682E+05 -2.198200E+05 -1.368380E+06  1.874658E+04 -2.619389E+04
        93  21 -3.640498E+06 -7.230462E+05 -1.818630E+05 -1.369983E+06  1.002296E+04 -2.270138E+04
        93  22 -2.975341E+06 -4.778728E+05 -2.370033E+04 -1.188108E+06  3.022059E+04 -2.820742E+04
        93  23 -3.006098E+06 -4.413028E+05 -1.247754E+04 -1.152780E+06  2.183312E+04 -2.503357E+04
        93  24 -2.974687E+06 -4.736330E+05 -7.105393E+03 -1.189673E+06  1.331076E+04 -2.146869E+04
        93  25 -2.057695E+06 -1.320518E+05  2.163228E+05 -9.368802E+05  3.311213E+04 -2.711746E+04
        93  26 -2.214183E+06 -1.436993E+05  1.948113E+05 -9.369312E+05  2.492399E+04 -2.387163E+04
        93  27 -2.308446E+06 -2.241942E+05  1.676138E+05 -1.009189E+06  1.660243E+04 -2.023455E+04
        94   1 -3.474447E+06 -6.629524E+05 -1.362637E+05 -1.326528E+06 -7.668157E+03  1.951595E+04
        94   2 -3.374170E+06 -5.781309E+05 -9.953093E+04 -1.251068E+06 -3.554312E+03  1.404903E+04
        94   3 -3.206269E+06 -5.618030E+05 -6.427617E+04 -1.253585E+06  5.929951E+02  8.478495E+03
        94   4 -2.973636E+06 -4.750492E+05 -5.605197E+03 -1.190364E+06 -1.094102E+04  1.829040E+04
        94   5 -3.007390E+06 -4.405552E+05 -3.513575E+03 -1.151461E+06 -6.881319E+03  1.280460E+04
        94   6 -2.973534E+06 -4.745424E+05 -2.855972E+03 -1.190540E+06 -2.788647E+03  7.215160E+03
        94   7 -2.472577E+06 -2.871298E+05  1.250329E+05 -1.054099E+06 -1.421680E+04  1.706375E+04
        94   8 -2.640479E+06 -3.029716E+05  9.249221E+04 -1.051801E+06 -1.021048E+04  1.155937E+04
        94   9 -2.740747E+06 -3.872794E+05  5.855905E+04 -1.127473E+06 -6.171657E+03  5.951315E+03
        94  10 -3.474447E+06 -6.629528E+05 -1.362645E+05 -1.326528E+06  6.002149E-11  8.666938E-10
        94  11 -3.374170E+06 -5.781312E+05 -9.953132E+04 -1.251068E+06  9.037598E-10  1.653413E-10
        94  12 -3.206269E+06 -5.618031E+05 -6.427631E+04 -1.253585E+06 -6.304046E-10  2.185953E-10
        94  13 -2.973636E+06 -4.750496E+05 -5.606049E+03 -1.190364E+06  1.599958E-09  6.827354E-10
        94  14 -3.007390E+06 -4.405554E+05 -3.513971E+03 -1.151461E+06  2.237126E-09  5.750264E-10
        94  15 -2.973534E+06 -4.745425E+05 -2.856084E+03 -1.190540E+06  1.984446E-10 -2.030532E-10
        94  16 -2.472577E+06 -2.871302E+05  1.250320E+05 -1.054099E+06 -3.242929E-10  9.072108E-10
        94  17 -2.640479E+06 -3.029717E+05  9.249176E+04 -1.051800E+06 -8.309952E-10  1.689080E-10
        94  18 -2.740748E+06 -3.872794E+05  5.855891E+04 -1.127473E+06  1.012837E-10  1.500736E-11
        94  19 -3.474447E+06 -6.629524E+05 -1.362637E+05 -1.326528E+06  7.668157E+03 -1.951595E+04
        94  20 -3.374170E+06 -5.781309E+05 -9.953093E+04 -1.251068E+06  3.554312E+03 -1.404903E+04
        94  21 -3.206269E+06 -5.618030E+05 -6.427617E+04 -1.253585E+06 -5.929951E+02 -8.478495E+03
        94  22 -2.973636E+06 -4.750492E+05 -5.605197E+03 -1.190364E+06  1.094102E+04 -1.829040E+04
        94  23 -3.007390E+06 -4.405552E+05 -3.513575E+03 -1.151461E+06  6.881319E+03 -1.280460E+04
        94  24 -2.973534E+06 -4.745424E+05 -2.855972E+03 -1.190540E+06  2.788647E+03 -7.215160E+03
        94  25 -2.472577E+06 -2.871298E+05  1.250329E+05 -1.054099E+06  1.421680E+04 -1.706375E+04
        94  26 -2.640479E+06 -3.029716E+05  9.249221E+04 -1.051801E+06  1.021048E+04 -1.155937E+04
        94  27 -2.740747E+06 -3.872794E+05  5.855905E+04 -1.127473E+06  6.171657E+03 -5.951315E+03
        95   1 -3.035126E+06 -4.979257E+05 -1.859297E+04 -1.207696E+06  2.452516E+03  4.983093E+03
        95   2 -2.933231E+06 -4.123667E+05  1.562659E+04 -1.130975E+06  6.708333E+03 -6.087207E+02
        95   3 -2.762943E+06 -3.963452E+05  4.824862E+04 -1.133438E+06  1.095441E+04 -6.169708E+03
        95   4 -2.973348E+06 -4.747694E+05 -2.924489E+03 -1.190805E+06 -9.404555E+02  3.715940E+03
        95   5 -3.007567E+06 -4.402113E+05 -3.821592E+03 -1.151131E+06  3.331185E+03 -1.870322E+03
        95   6 -2.973413E+06 -4.751960E+05 -6.327474E+03 -1.190648E+06  7.592606E+03 -7.425857E+03
        95   7 -2.911566E+06 -4.516127E+05  1.274380E+04 -1.173912E+06 -4.333811E+03  2.448643E+03
        95   8 -3.081898E+06 -4.680558E+05 -2.327034E+04 -1.171284E+06 -4.554094E+01 -3.131766E+03
        95   9 -3.183842E+06 -5.540448E+05 -6.090781E+04 -1.247842E+06  4.232027E+03 -8.681551E+03
        95  10 -3.035126E+06 -4.979258E+05 -1.859302E+04 -1.207696E+06 -1.722326E-10 -2.413142E-10
        95  11 -2.933231E+06 -4.123667E+05  1.562650E+04 -1.130975E+06  1.264988E-09 -2.124283E-11
        95  12 -2.762943E+06 -3.963453E+05  4.824832E+04 -1.133438E+06  1.072492E-09 -9.208692E-10
        95  13 -2.973348E+06 -4.747694E+05 -2.924517E+03 -1.190805E+06 -1.364973E-09  5.670308E-11
        95  14 -3.007567E+06 -4.402113E+05 -3.821620E+03 -1.151131E+06 -2.047311E-09 -4.308641E-11
        95  15 -2.973413E+06 -4.751960E+05 -6.327686E+03 -1.190648E+06 -2.917311E-09 -5.809822E-10
        95  16 -2.911566E+06 -4.516127E+05  1.274375E+04 -1.173912E+06  1.178278E-10 -7.491025E-11
        95  17 -3.081898E+06 -4.680558E+05 -2.327036E+04 -1.171284E+06  7.496292E-11  3.347801E-10
        95  18 -3.183842E+06 -5.540449E+05 -6.090799E+04 -1.247842E+06 -2.925846E-09 -9.828521E-10
        95  19 -3.035126E+06 -4.979257E+05 -1.859297E+04 -1.207696E+06 -2.452516E+03 -4.983093E+03
        95  20 -2.933231E+06 -4.123667E+05  1.562659E+04 -1.130975E+06 -6.708333E+03  6.087207E+02
        95  21 -2.762943E+06 -3.963452E+05  4.824862E+04 -1.133438E+06 -1.095441E+04  6.169708E+03
        95  22 -2.973348E+06 -4.747694E+05 -2.924489E+03 -1.190805E+06  9.404555E+02 -3.715940E+03
        95  23 -3.007567E+06 -4.402113E+05 -3.821592E+03 -1.151131E+06 -3.331185E+03  1.870322E+03
        95  24 -2.973413E+06 -4.751960E+05 -6.327474E+03 -1.190648E+06 -7.592606E+03  7.425857E+03
        95  25 -2.911566E+06 -4.516127E+05  1.274380E+04 -1.173912E+06  4.333811E+03 -2.448643E+03
        95  26 -3.081898E+06 -4.680558E+05 -2.327034E+04 -1.171284E+06  4.554094E+01  3.131766E+03
        95  27 -3.183842E+06 -5.540448E+05 -6.090781E+04 -1.247842E+06 -4.232027E+03  8.681551E+03
        96   1 -2.593606E+06 -3.321511E+05  9.182945E+04 -1.087983E+06  1.353428E+04 -9.384285E+03
        96   2 -2.494524E+06 -2.479922E+05  1.197629E+05 -1.012464E+06  2.289785E+04 -1.290370E+04
        96   3 -2.331229E+06 -2.363841E+05  1.409760E+05 -1.012609E+06  3.215989E+04 -1.612659E+04
        96   4 -2.974140E+06 -4.741671E+05 -8.112052E+03 -1.190518E+06  1.014264E+04 -1.065238E+04
        96   5 -3.006581E+06 -4.402371E+05 -1.425570E+04 -1.151808E+06  1.965835E+04 -1.411694E+04
        96   6 -2.974856E+06 -4.788956E+05 -2.724388E+04 -1.188772E+06  2.907086E+04 -1.728541E+04
        96   7 -3.354529E+06 -6.161735E+05 -1.080649E+05 -1.292996E+06  6.753320E+03 -1.191962E+04
        96   8 -3.518380E+06 -6.324649E+05 -1.482958E+05 -1.291048E+06  1.642181E+04 -1.532907E+04
        96   9 -3.618080E+06 -7.213806E+05 -1.954986E+05 -1.364770E+06  2.598536E+04 -1.844291E+04
        96  10 -2.593606E+06 -3.321512E+05  9.182894E+04 -1.087983E+06 -8.642348E-10 -9.389292E-10
        96  11 -2.494524E+06 -2.479925E+05  1.197616E+05 -1.012464E+06 -5.423329E-10  2.762425E-10
        96  12 -2.331230E+06 -2.363847E+05  1.409736E+05 -1.012608E+06 -2.356429E-10 -9.203966E-11
        96  13 -2.974140E+06 -4.741672E+05 -8.112458E+03 -1.190518E+06 -8.223866E-10 -5.310872E-10
        96  14 -3.006581E+06 -4.402374E+05 -1.425680E+04 -1.151808E+06 -6.519963E-10 -4.313635E-10
        96  15 -2.974857E+06 -4.788962E+05 -2.724603E+04 -1.188772E+06 -3.632141E-10  8.181784E-11
        96  16 -3.354529E+06 -6.161736E+05 -1.080653E+05 -1.292996E+06 -1.409780E-09  6.326669E-11
        96  17 -3.518381E+06 -6.324652E+05 -1.482968E+05 -1.291047E+06 -4.061899E-11 -1.665792E-10
        96  18 -3.618081E+06 -7.213811E+05 -1.955005E+05 -1.364769E+06  5.403811E-10  5.972702E-10
        96  19 -2.593606E+06 -3.321511E+05  9.182945E+04 -1.087983E+06 -1.353428E+04  9.384285E+03
        96  20 -2.494524E+06 -2.479922E+05  1.197629E+05 -1.012464E+06 -2.289785E+04  1.290370E+04
        96  21 -2.331229E+06 -2.363841E+05  1.409760E+05 -1.012609E+06 -3.215989E+04  1.612659E+04
        96  22 -2.974140E+06 -4.741671E+05 -8.112052E+03 -1.190518E+06 -1.014264E+04  1.065238E+04
        96  23 -3.006581E+06 -4.402371E+05 -1.425570E+04 -1.151808E+06 -1.965835E+04  1.411694E+04
        96  24 -2.974856E+06 -4.788956E+05 -2.724388E+04 -1.188772E+06 -2.907086E+04  1.728541E+04
        96  25 -3.354529E+06 -6.161735E+05 -1.080649E+05 -1.292996E+06 -6.753320E+03  1.191962E+04
        96  26 -3.518380E+06 -6.324649E+05 -1.482958E+05 -1.291048E+06 -1.642181E+04  1.532907E+04
        96  27 -3.618080E+06 -7.213806E+05 -1.954986E+05 -1.364770E+06 -2.598536E+04  1.844291E+04
        97   1 -2.168192E+06 -1.739033E+05  1.761734E+05 -9.773940E+05  3.925505E+04 -1.779342E+04
        97   2 -2.075615E+06 -8.468257E+04  1.813294E+05 -8.979977E+05  7.176216E+04 -1.201516E+04
        97   3 -1.944633E+06 -1.127889E+05  1.489842E+05 -8.759368E+05  1.032738E+05 -3.536729E+03
        97   4 -2.978274E+06 -4.716581E+05 -3.502972E+04 -1.191200E+06  3.548472E+04 -1.920901E+04
        97   5 -3.000655E+06 -4.359227E+05 -6.146477E+04 -1.153882E+06  6.939433E+04 -1.290888E+04
        97   6 -2.984960E+06 -5.178605E+05 -1.265628E+05 -1.173909E+06  1.023016E+05 -3.910138E+03
        97   7 -3.787721E+06 -7.693809E+05 -2.462887E+05 -1.404758E+06  3.171977E+04 -2.062269E+04
        97   8 -3.924863E+06 -7.871062E+05 -3.043324E+05 -1.409418E+06  6.703033E+04 -1.380114E+04
        97   9 -4.024234E+06 -9.228446E+05 -4.022039E+05 -1.471420E+06  1.013310E+05 -4.282874E+03
        97  10 -2.168194E+06 -1.739041E+05  1.761699E+05 -9.773935E+05 -1.132712E-09 -3.376774E-10
        97  11 -2.075621E+06 -8.468411E+04  1.813194E+05 -8.979970E+05 -1.754000E-09  4.735427E-10
        97  12 -1.944644E+06 -1.127918E+05  1.489640E+05 -8.759365E+05 -7.145720E-10  1.187858E-10
        97  13 -2.978276E+06 -4.716588E+05 -3.503278E+04 -1.191200E+06  1.792063E-11 -1.253997E-10
        97  14 -3.000660E+06 -4.359242E+05 -6.147416E+04 -1.153881E+06 -1.005450E-09  4.418929E-10
        97  15 -2.984972E+06 -5.178633E+05 -1.265826E+05 -1.173908E+06 -1.357692E-09 -2.491870E-11
        97  16 -3.787722E+06 -7.693816E+05 -2.462914E+05 -1.404757E+06  7.585683E-11  3.020560E-10
        97  17 -3.924868E+06 -7.871076E+05 -3.043413E+05 -1.409418E+06  4.146220E-10  4.337027E-10
        97  18 -4.024245E+06 -9.228474E+05 -4.022233E+05 -1.471420E+06 -4.233716E-11  1.206072E-10
        97  19 -2.168192E+06 -1.739033E+05  1.761734E+05 -9.773940E+05 -3.925505E+04  1.779342E+04
        97  20 -2.075615E+06 -8.468257E+04  1.813294E+05 -8.979977E+05 -7.176216E+04  1.201516E+04
        97  21 -1.944633E+06 -1.127889E+05  1.489842E+05 -8.759368E+05 -1.032738E+05  3.536729E+03
        97  22 -2.978274E+06 -4.716581E+05 -3.502972E+04 -1.191200E+06 -3.548472E+04  1.920901E+04
        97  23 -3.000655E+06 -4.359227E+05 -6.146477E+04 -1.153882E+06 -6.939433E+04  1.290888E+04
        97  24 -2.984960E+06 -5.178605E+05 -1.265628E+05 -1.173909E+06 -1.023016E+05  3.910138E+03
        97  25 -3.787721E+06 -7.693809E+05 -2.462887E+05 -1.404758E+06 -3.171977E+04  2.062269E+04
        97  26 -3.924863E+06 -7.871062E+05 -3.043324E+05 -1.409418E+06 -6.703033E+04  1.380114E+04
        97  27 -4.024234E+06 -9.228446E+05 -4.022039E+05 -1.471420E+06 -1.013310E+05  4.282874E+03
        98   1 -1.766209E+06 -4.802331E+04  1.566147E+05 -9.316611E+05  1.384868E+05  5.898948E+02
        98   2 -1.685358E+06  1.410097E+05  7.989504E+04 -7.691732E+05  2.627814E+05  4.391126E+04
        98   3 -1.770517E+06 -2.681321E+05 -2.375587E+05 -5.249349E+05  3.735589E+05  1.230787E+05
        98   4 -3.006682E+06 -4.536715E+05 -1.560875E+05 -1.207849E+06  1.270215E+05 -3.719283E+03
        98   5 -2.954733E+06 -3.817592E+05 -2.607859E+05 -1.162216E+06  2.703079E+05  4.672190E+04
        98   6 -3.073054E+06 -9.125661E+05 -6.217214E+05 -1.034728E+06  4.000514E+05  1.329885E+05
        98   7 -4.245652E+06 -8.593081E+05 -4.689070E+05 -1.483577E+06  1.155813E+05 -8.021869E+03
        98   8 -4.222529E+06 -9.043381E+05 -6.016094E+05 -1.554497E+06  2.778169E+05  4.952457E+04
        98   9 -4.373888E+06 -1.556512E+06 -1.006048E+06 -1.543433E+06  4.264820E+05  1.428585E+05
        98  10 -1.766230E+06 -4.802848E+04  1.565785E+05 -9.316612E+05 -3.892433E-10 -2.332358E-10
        98  11 -1.685433E+06  1.409890E+05  7.976123E+04 -7.691825E+05 -1.415031E-10  4.579906E-10
        98  12 -1.770671E+06 -2.681860E+05 -2.378503E+05 -5.249720E+05  2.812536E-09 -8.660828E-10
        98  13 -3.006699E+06 -4.536759E+05 -1.561180E+05 -1.207849E+06 -8.975055E-10  5.020561E-10
        98  14 -2.954812E+06 -3.817813E+05 -2.609281E+05 -1.162226E+06  3.751167E-09  5.545347E-11
        98  15 -3.073232E+06 -9.126285E+05 -6.220573E+05 -1.034771E+06  2.259576E-09  2.001449E-10
        98  16 -4.245667E+06 -8.593118E+05 -4.689324E+05 -1.483576E+06  2.321008E-09  8.009239E-10
        98  17 -4.222613E+06 -9.043617E+05 -6.017602E+05 -1.554508E+06  2.263552E-09  1.086343E-09
        98  18 -4.374090E+06 -1.556584E+06 -1.006431E+06 -1.543482E+06  8.995558E-10 -1.807306E-10
        98  19 -1.766209E+06 -4.802331E+04  1.566147E+05 -9.316611E+05 -1.384868E+05 -5.898948E+02
        98  20 -1.685358E+06  1.410097E+05  7.989504E+04 -7.691732E+05 -2.627814E+05 -4.391126E+04
        98  21 -1.770517E+06 -2.681321E+05 -2.375587E+05 -5.249349E+05 -3.735589E+05 -1.230787E+05
        98  22 -3.006682E+06 -4.536715E+05 -1.560875E+05 -1.207849E+06 -1.270215E+05  3.719283E+03
        98  23 -2.954733E+06 -3.817592E+05 -2.607859E+05 -1.162216E+06 -2.703079E+05 -4.672190E+04
        98  24 -3.073054E+06 -9.125661E+05 -6.217214E+05 -1.034728E+06 -4.000514E+05 -1.329885E+05
        98  25 -4.245652E+06 -8.593081E+05 -4.689070E+05 -1.483577E+06 -1.155813E+05  8.021869E+03
        98  26 -4.222529E+06 -9.043381E+05 -6.016094E+05 -1.554497E+06 -2.778169E+05 -4.952457E+04
        98  27 -4.373888E+06 -1.556512E+06 -1.006048E+06 -1.543433E+06 -4.264820E+05 -1.428585E+05
        99   1 -1.681024E+06 -2.715459E+05 -2.431907E+05 -2.683421E+04  5.088043E+04  1.590235E+04
        99   2 -1.592588E+06 -3.467533E+05 -2.699448E+05 -1.519766E+04  4.301295E+04  4.795883E+04
        99   3 -1.474474E+06 -3.153597E+05 -2.645540E+05 -7.007077E+04  3.524110E+04  4.594369E+04
        99   4 -2.222433E+05  9.213536E+04  1.159529E+05 -5.590687E+04  7.924072E+04  1.598171E+04
        99   5 -2.387287E+05 -1.155798E+04  5.092350E+04 -2.252694E+04  5.173730E+04  4.797111E+04
        99   6 -2.221957E+05 -5.363112E+03  3.162727E+04 -5.564564E+04  2.433207E+04  4.592129E+04
        99   7  1.238482E+06  4.556620E+05  4.749430E+05 -8.504945E+04  1.076675E+05  1.605833E+04
        99   8  1.116818E+06  3.235059E+05  3.716646E+05 -2.987325E+04  6.048052E+04  4.798317E+04
        99   9  1.031527E+06  3.045218E+05  3.277003E+05 -4.119169E+04  1.340107E+04  4.589840E+04
        99  10 -1.681027E+06 -2.715469E+05 -2.431960E+05 -2.683486E+04 -1.797278E-09  4.098561E-10
        99  11 -1.592591E+06 -3.467563E+05 -2.699526E+05 -1.519932E+04  1.075555E-09 -8.867885E-10
        99  12 -1.474476E+06 -3.153623E+05 -2.645603E+05 -7.007207E+04  1.579498E-09 -5.383086E-11
        99  13 -2.222501E+05  9.213339E+04  1.159406E+05 -5.590789E+04  2.168869E-09 -9.710032E-10
        99  14 -2.387322E+05 -1.156117E+04  5.091414E+04 -2.252894E+04  1.405151E-09 -8.893869E-11
        99  15 -2.221969E+05 -5.365535E+03  3.162219E+04 -5.564654E+04  4.219069E-10 -3.628409E-10
        99  16  1.238469E+06  4.556587E+05  4.749207E+05 -8.505084E+04  5.838448E-10  1.017796E-09
        99  17  1.116813E+06  3.235024E+05  3.716534E+05 -2.987559E+04  4.548835E-10 -1.055898E-09
        99  18  1.031526E+06  3.045195E+05  3.276960E+05 -4.119218E+04  5.013547E-10 -9.127545E-10
        99  19 -1.681024E+06 -2.715459E+05 -2.431907E+05 -2.683421E+04 -5.088043E+04 -1.590235E+04
        99  20 -1.592588E+06 -3.467533E+05 -2.699448E+05 -1.519766E+04 -4.301295E+04 -4.795883E+04
        99  21 -1.474474E+06 -3.153597E+05 -2.645540E+05 -7.007077E+04 -3.524110E+04 -4.594369E+04
        99  22 -2.222433E+05  9.213536E+04  1.159529E+05 -5.590687E+04 -7.924072E+04 -1.598171E+04
        99  23 -2.387287E+05 -1.155798E+04  5.092350E+04 -2.252694E+04 -5.173730E+04 -4.797111E+04
        99  24 -2.221957E+05 -5.363112E+03  3.162727E+04 -5.564564E+04 -2.433207E+04 -4.592129E+04
        99  25  1.238482E+06  4.556620E+05  4.749430E+05 -8.504945E+04 -1.076675E+05 -1.605833E+04
        99  26  1.116818E+06  3.235059E+05  3.716646E+05 -2.987325E+04 -6.048052E+04 -4.798317E+04
        99  27  1.031527E+06  3.045218E+05  3.277003E+05 -4.119169E+04 -1.340107E+04 -4.589840E+04
       100   1 -1.359778E+06 -2.718455E+05 -2.429200E+05 -5.440420E+04  2.011945E+04  3.870960E+04
       100   2 -1.258143E+06 -2.557104E+05 -2.302417E+05 -2.196405E+04  1.466269E+04  3.650081E+04
       100   3 -1.152178E+06 -2.293058E+05 -2.112153E+05 -5.740736E+04  9.199133E+03  3.212011E+04
       100   4 -2.284470E+05  8.344142E+03  2.566671E+04 -5.603146E+04  1.950141E+04  3.870406E+04
       100   5 -2.306902E+05 -1.358856E+03  1.316135E+04 -2.208899E+04  1.278475E+04  3.649547E+04
       100   6 -2.284015E+05 -5.824241E+02  7.871085E+03 -5.602276E+04  6.062186E+03  3.211661E+04
       100   7  9.040615E+05  2.884416E+05  2.941642E+05 -5.766200E+04  1.888222E+04  3.869852E+04
       100   8  7.977341E+05  2.529168E+05  2.564910E+05 -2.221429E+04  1.090370E+04  3.649015E+04
       100   9  6.961596E+05  2.280796E+05  2.268980E+05 -5.463608E+04  2.920584E+03  3.211309E+04
       100  10 -1.359779E+06 -2.718472E+05 -2.429236E+05 -5.440483E+04 -3.549188E-10 -4.624312E-10
       100  11 -1.258144E+06 -2.557119E+05 -2.302446E+05 -2.196448E+04 -1.809420E-09 -1.742627E-10
       100  12 -1.152178E+06 -2.293069E+05 -2.112174E+05 -5.740760E+04 -1.718735E-09 -5.416452E-10
       100  13 -2.284478E+05  8.342431E+03  2.566318E+04 -5.603207E+04  1.103037E-09 -1.033323E-09
       100  14 -2.306907E+05 -1.360330E+03  1.315854E+04 -2.208936E+04 -1.064257E-09  2.227369E-10
       100  15 -2.284018E+05 -5.835415E+02  7.869078E+03 -5.602292E+04 -5.921047E-09 -3.935652E-10
       100  16  9.040607E+05  2.884399E+05  2.941607E+05 -5.766259E+04  1.856499E-09 -3.584011E-10
       100  17  7.977337E+05  2.529154E+05  2.564883E+05 -2.221461E+04  3.463591E-10 -5.612832E-10
       100  18  6.961593E+05  2.280784E+05  2.268961E+05 -5.463615E+04 -2.413281E-09  2.057726E-10
       100  19 -1.359778E+06 -2.718455E+05 -2.429200E+05 -5.440420E+04 -2.011945E+04 -3.870960E+04
       100  20 -1.258143E+06 -2.557104E+05 -2.302417E+05 -2.196405E+04 -1.466269E+04 -3.650081E+04
       100  21 -1.152178E+06 -2.293058E+05 -2.112153E+05 -5.740736E+04 -9.199133E+03 -3.212011E+04
       100  22 -2.284470E+05  8.344142E+03  2.566671E+04 -5.603146E+04 -1.950141E+04 -3.870406E+04
       100  23 -2.306902E+05 -1.358856E+03  1.316135E+04 -2.208899E+04 -1.278475E+04 -3.649547E+04
       100  24 -2.284015E+05 -5.824241E+02  7.871085E+03 -5.602276E+04 -6.062186E+03 -3.211661E+04
       100  25  9.040615E+05  2.884416E+05  2.941642E+05 -5.766200E+04 -1.888222E+04 -3.869852E+04
       100  26  7.977341E+05  2.529168E+05  2.564910E+05 -2.221429E+04 -1.090370E+04 -3.649015E+04
       100  27  6.961596E+05  2.280796E+05  2.268980E+05 -5.463608E+04 -2.920584E+03 -3.211309E+04
       101   1 -1.031219E+06 -1.978144E+05 -1.835994E+05 -5.591523E+04  7.312237E+03  2.918291E+04
       101   2 -9.271432E+05 -1.728507E+05 -1.618350E+05 -2.170770E+04  5.704877E+03  2.477793E+04
       101   3 -8.222360E+05 -1.468255E+05 -1.386837E+05 -5.586976E+04  4.091180E+03  2.022740E+04
       101   4 -2.291668E+05  6.584407E+02  6.117539E+03 -5.613350E+04  4.823953E+03  2.918077E+04
       101   5 -2.295683E+05 -1.972322E+02  3.383807E+03 -2.195116E+04  3.130687E+03  2.477736E+04
       101   6 -2.291346E+05  2.363465E+01  2.095838E+03 -5.613367E+04  1.431353E+03  2.022850E+04
       101   7  5.734778E+05  1.990851E+05  1.957899E+05 -5.635200E+04  2.332465E+03  2.917864E+04
       101   8  4.684542E+05  1.724213E+05  1.685688E+05 -2.219483E+04  5.536156E+02  2.477679E+04
       101   9  3.642902E+05  1.468475E+05  1.428509E+05 -5.639775E+04 -1.231006E+03  2.022960E+04
       101  10 -1.031220E+06 -1.978153E+05 -1.836011E+05 -5.591541E+04 -1.477622E-09 -2.031688E-10
       101  11 -9.271434E+05 -1.728514E+05 -1.618362E+05 -2.170781E+04 -3.125537E-10  1.101624E-10
       101  12 -8.222361E+05 -1.468260E+05 -1.386845E+05 -5.586983E+04 -3.915007E-10 -1.359289E-09
       101  13 -2.291670E+05  6.575201E+02  6.115895E+03 -5.613361E+04 -4.320145E-09  9.486316E-11
       101  14 -2.295685E+05 -1.978940E+02  3.382635E+03 -2.195122E+04 -1.609902E-09  9.387621E-11
       101  15 -2.291347E+05  2.319474E+01  2.095065E+03 -5.613370E+04 -2.463634E-09 -1.982363E-10
       101  16  5.734776E+05  1.990842E+05  1.957883E+05 -5.635206E+04 -1.270804E-09  2.187883E-10
       101  17  4.684540E+05  1.724206E+05  1.685676E+05 -2.219484E+04 -7.080511E-11 -1.349318E-09
       101  18  3.642901E+05  1.468470E+05  1.428501E+05 -5.639773E+04 -1.527550E-10 -6.277001E-10
       101  19 -1.031219E+06 -1.978144E+05 -1.835994E+05 -5.591523E+04 -7.312237E+03 -2.918291E+04
       101  20 -9.271432E+05 -1.728507E+05 -1.618350E+05 -2.170770E+04 -5.704877E+03 -2.477793E+04
       101  21 -8.222360E+05 -1.468255E+05 -1.386837E+05 -5.586976E+04 -4.091180E+03 -2.022740E+04
       101  22 -2.291668E+05  6.584407E+02  6.117539E+03 -5.613350E+04 -4.823953E+03 -2.918077E+04
       101  23 -2.295683E+05 -1.972322E+02  3.383807E+03 -2.195116E+04 -3.130687E+03 -2.477736E+04
       101  24 -2.291346E+05  2.363465E+01  2.095838E+03 -5.613367E+04 -1.431353E+03 -2.022850E+04
       101  25  5.734778E+05  1.990851E+05  1.957899E+05 -5.635200E+04 -2.332465E+03 -2.917864E+04
       101  26  4.684542E+05  1.724213E+05  1.685688E+05 -2.219483E+04 -5.536156E+02 -2.477679E+04
       101  27  3.642902E+05  1.468475E+05  1.428509E+05 -5.639775E+04  1.231006E+03 -2.022960E+04
       102   1 -6.999894E+05 -1.163142E+05 -1.094967E+05 -5.584441E+04  3.710413E+03  1.755052E+04
       102   2 -5.950819E+05 -9.050626E+04 -8.547109E+04 -2.155800E+04  3.145316E+03  1.298869E+04
       102   3 -4.901135E+05 -6.444962E+04 -6.103484E+04 -5.591354E+04  2.576923E+03  8.413893E+03
       102   4 -2.292735E+05  1.121511E+02  1.662821E+03 -5.619459E+04  1.088846E+03  1.755241E+04
       102   5 -2.292917E+05  1.086950E+01  1.147846E+03 -2.187483E+04  5.157411E+02  1.299140E+04
       102   6 -2.292563E+05  1.607630E+02  1.049816E+03 -5.619452E+04 -6.056441E+01  8.417474E+03
       102   7  2.416464E+05  1.165226E+05  1.128071E+05 -5.654498E+04 -1.534700E+03  1.755430E+04
       102   8  1.366216E+05  9.051839E+04  8.775752E+04 -2.219181E+04 -2.115376E+03  1.299411E+04
       102   9  3.166339E+04  6.476624E+04  6.312974E+04 -5.647560E+04 -2.699156E+03  8.421057E+03
       102  10 -6.999895E+05 -1.163145E+05 -1.094973E+05 -5.584446E+04 -3.510711E-10 -6.627490E-10
       102  11 -5.950820E+05 -9.050644E+04 -8.547143E+04 -2.155803E+04  1.278022E-09  1.282972E-09
       102  12 -4.901135E+05 -6.444970E+04 -6.103499E+04 -5.591356E+04  5.193263E-10 -1.357973E-10
       102  13 -2.292736E+05  1.118199E+02  1.662240E+03 -5.619461E+04 -3.805222E-11 -9.724030E-10
       102  14 -2.292917E+05  1.068821E+01  1.147528E+03 -2.187484E+04 -3.342507E-09  1.016158E-09
       102  15 -2.292563E+05  1.606869E+02  1.049683E+03 -5.619452E+04  9.531292E-10 -4.407891E-10
       102  16  2.416463E+05  1.165223E+05  1.128065E+05 -5.654496E+04  4.429600E-10 -7.243672E-11
       102  17  1.366215E+05  9.051821E+04  8.775719E+04 -2.219179E+04 -2.381783E-09  5.105201E-10
       102  18  3.166336E+04  6.476617E+04  6.312959E+04 -5.647558E+04 -1.640041E-09 -9.295474E-10
       102  19 -6.999894E+05 -1.163142E+05 -1.094967E+05 -5.584441E+04 -3.710413E+03 -1.755052E+04
       102  20 -5.950819E+05 -9.050626E+04 -8.547109E+04 -2.155800E+04 -3.145316E+03 -1.298869E+04
       102  21 -4.901135E+05 -6.444962E+04 -6.103484E+04 -5.591354E+04 -2.576923E+03 -8.413893E+03
       102  22 -2.292735E+05  1.121511E+02  1.662821E+03 -5.619459E+04 -1.088846E+03 -1.755241E+04
       102  23 -2.292917E+05  1.086950E+01  1.147846E+03 -2.187483E+04 -5.157411E+02 -1.299140E+04
       102  24 -2.292563E+05  1.607630E+02  1.049816E+03 -5.619452E+04  6.056441E+01 -8.417474E+03
       102  25  2.416464E+05  1.165226E+05  1.128071E+05 -5.654498E+04  1.534700E+03 -1.755430E+04
       102  26  1.366216E+05  9.051839E+04  8.775752E+04 -2.219181E+04  2.115376E+03 -1.299411E+04
       102  27  3.166339E+04  6.476624E+04  6.312974E+04 -5.647560E+04  2.699156E+03 -8.421057E+03
       103   1 -3.673644E+05 -3.395701E+04 -3.127722E+04 -5.604853E+04  2.377923E+03  5.746743E+03
       103   2 -2.622178E+05 -8.115221E+03 -6.321679E+03 -2.179092E+04  1.631682E+03  1.168874E+03
       103   3 -1.571272E+05  1.804816E+04  1.914544E+04 -5.628092E+04  8.850244E+02 -3.403415E+03
       103   4 -2.292703E+05  1.472701E+02  1.101667E+03 -5.621856E+04 -2.601223E+02  5.750635E+03
       103   5 -2.292353E+05  4.494320E+01  1.486976E+03 -2.184478E+04 -1.003412E+03  1.172817E+03
       103   6 -2.292687E+05  2.640621E+02  2.382033E+03 -5.621837E+04 -1.746993E+03 -3.399381E+03
       103   7 -9.115865E+04  3.425020E+04  3.347927E+04 -5.638862E+04 -2.898751E+03  5.754528E+03
       103   8 -1.962518E+05  8.205033E+03  9.295582E+03 -2.189864E+04 -3.638644E+03  1.176761E+03
       103   9 -3.014053E+05 -1.752040E+04 -1.438169E+04 -5.615582E+04 -4.378707E+03 -3.395347E+03
       103  10 -3.673644E+05 -3.395705E+04 -3.127729E+04 -5.604854E+04 -5.842210E-10  3.098503E-10
       103  11 -2.622178E+05 -8.115223E+03 -6.321687E+03 -2.179092E+04 -6.027929E-12  2.188377E-09
       103  12 -1.571272E+05  1.804815E+04  1.914541E+04 -5.628092E+04 -4.027437E-10 -8.165589E-10
       103  13 -2.292703E+05  1.472346E+02  1.101605E+03 -5.621856E+04 -1.066683E-09 -4.439885E-10
       103  14 -2.292353E+05  4.494146E+01  1.486972E+03 -2.184478E+04  1.362038E-09 -9.714262E-10
       103  15 -2.292687E+05  2.640489E+02  2.382006E+03 -5.621837E+04  2.746942E-09  5.858994E-10
       103  16 -9.115867E+04  3.425016E+04  3.347919E+04 -5.638861E+04  1.232061E-09 -2.609861E-10
       103  17 -1.962518E+05  8.205028E+03  9.295554E+03 -2.189864E+04  1.029828E-09 -7.792383E-10
       103  18 -3.014053E+05 -1.752042E+04 -1.438175E+04 -5.615583E+04 -1.550585E-09  6.928030E-10
       103  19 -3.673644E+05 -3.395701E+04 -3.127722E+04 -5.604853E+04 -2.377923E+03 -5.746743E+03
       103  20 -2.622178E+05 -8.115221E+03 -6.321679E+03 -2.179092E+04 -1.631682E+03 -1.168874E+03
       103  21 -1.571272E+05  1.804816E+04  1.914544E+04 -5.628092E+04 -8.850244E+02  3.403415E+03
       103  22 -2.292703E+05  1.472701E+02  1.101667E+03 -5.621856E+04  2.601223E+02 -5.750635E+03
       103  23 -2.292353E+05  4.494320E+01  1.486976E+03 -2.184478E+04  1.003412E+03 -1.172817E+03
       103  24 -2.292687E+05  2.640621E+02  2.382033E+03 -5.621837E+04  1.746993E+03  3.399381E+03
       103  25 -9.115865E+04  3.425020E+04  3.347927E+04 -5.638862E+04  2.898751E+03 -5.754528E+03
       103  26 -1.962518E+05  8.205033E+03  9.295582E+03 -2.189864E+04  3.638644E+03 -1.176761E+03
       103  27 -3.014053E+05 -1.752040E+04 -1.438169E+04 -5.615582E+04  4.378707E+03  3.395347E+03
       104   1 -3.415268E+04  4.839145E+04  4.952105E+04 -5.620209E+04  4.221510E+02 -6.082108E+03
       104   2  7.056667E+04  7.407111E+04  7.615502E+04 -2.215615E+04 -2.217162E+03 -1.064821E+04
       104   3  1.759232E+05  1.014352E+05  1.048953E+05 -5.678293E+04 -4.854191E+03 -1.510888E+04
       104   4 -2.291251E+05  9.817997E+01  3.051960E+03 -5.620283E+04 -2.239962E+03 -6.078236E+03
       104   5 -2.294405E+05 -1.378673E+02  5.141968E+03 -2.186469E+04 -4.817593E+03 -1.064513E+04
       104   6 -2.291388E+05  1.301153E+03  9.296990E+03 -5.620131E+04 -7.392501E+03 -1.510653E+04
       104   7 -4.240627E+05 -4.819783E+04 -4.341977E+04 -5.620355E+04 -4.901244E+03 -6.074364E+03
       104   8 -5.293649E+05 -7.435330E+04 -6.587731E+04 -2.157336E+04 -7.416774E+03 -1.064206E+04
       104   9 -6.340499E+05 -9.884467E+04 -8.631265E+04 -5.562001E+04 -9.929164E+03 -1.510419E+04
       104  10 -3.415269E+04  4.839141E+04  4.952098E+04 -5.620209E+04  1.600804E-09 -1.471350E-09
       104  11  7.056663E+04  7.407099E+04  7.615480E+04 -2.215616E+04  1.556647E-09 -6.083069E-10
       104  12  1.759232E+05  1.014350E+05  1.048948E+05 -5.678299E+04 -1.718679E-09  3.307807E-10
       104  13 -2.291252E+05  9.813896E+01  3.051881E+03 -5.620284E+04  4.143906E-11  3.016847E-10
       104  14 -2.294405E+05 -1.379952E+02  5.141711E+03 -2.186474E+04 -2.362934E-09 -1.487169E-09
       104  15 -2.291389E+05  1.300893E+03  9.296458E+03 -5.620140E+04  1.027383E-09 -3.413275E-10
       104  16 -4.240627E+05 -4.819788E+04 -4.341989E+04 -5.620357E+04 -3.342602E-10  5.800458E-10
       104  17 -5.293649E+05 -7.435344E+04 -6.587763E+04 -2.157342E+04 -8.794948E-10  5.420558E-10
       104  18 -6.340501E+05 -9.884494E+04 -8.631326E+04 -5.562013E+04 -5.040457E-10  4.871433E-10
       104  19 -3.415268E+04  4.839145E+04  4.952105E+04 -5.620209E+04 -4.221510E+02  6.082108E+03
       104  20  7.056667E+04  7.407111E+04  7.615502E+04 -2.215615E+04  2.217162E+03  1.064821E+04
       104  21  1.759232E+05  1.014352E+05  1.048953E+05 -5.678293E+04  4.854191E+03  1.510888E+04
       104  22 -2.291251E+05  9.817997E+01  3.051960E+03 -5.620283E+04  2.239962E+03  6.078236E+03
       104  23 -2.294405E+05 -1.378673E+02  5.141968E+03 -2.186469E+04  4.817593E+03  1.064513E+04
       104  24 -2.291388E+05  1.301153E+03  9.296990E+03 -5.620131E+04  7.392501E+03  1.510653E+04
       104  25 -4.240627E+05 -4.819783E+04 -4.341977E+04 -5.620355E+04  4.901244E+03  6.074364E+03
       104  26 -5.293649E+05 -7.435330E+04 -6.587731E+04 -2.157336E+04  7.416774E+03  1.064206E+04
       104  27 -6.340499E+05 -9.884467E+04 -8.631265E+04 -5.562001E+04  9.929164E+03  1.510419E+04
       105   1  2.996097E+05  1.299284E+05  1.371096E+05 -5.452841E+04 -6.249629E+03 -1.798331E+04
       105   2  4.014263E+05  1.546377E+05  1.698118E+05 -2.327898E+04 -1.748236E+04 -2.242129E+04
       105   3  5.090130E+05  1.956004E+05  2.139330E+05 -6.041880E+04 -2.871109E+04 -2.525088E+04
       105   4 -2.280609E+05 -6.268303E+02  1.194834E+04 -5.614220E+04 -9.271018E+03 -1.798117E+04
       105   5 -2.308772E+05 -1.737996E+03  2.016931E+04 -2.194212E+04 -1.956746E+04 -2.242143E+04
       105   6 -2.280876E+05  1.325227E+04  3.916891E+04 -5.613516E+04 -2.985803E+04 -2.525265E+04
       105   7 -7.554758E+05 -1.312021E+05 -1.132323E+05 -5.775453E+04 -1.228985E+04 -1.797900E+04
       105   8 -8.628133E+05 -1.581424E+05 -1.295009E+05 -2.060656E+04 -2.165043E+04 -2.242158E+04
       105   9 -9.646891E+05 -1.691348E+05 -1.356330E+05 -5.185656E+04 -3.100360E+04 -2.525443E+04
       105  10  2.996096E+05  1.299280E+05  1.371089E+05 -5.452850E+04  1.234159E-09  9.402251E-10
       105  11  4.014258E+05  1.546371E+05  1.698102E+05 -2.327929E+04  2.838808E-09 -5.350113E-10
       105  12  5.090119E+05  1.955994E+05  2.139302E+05 -6.041938E+04  7.169612E-10  6.055946E-10
       105  13 -2.280611E+05 -6.272005E+02  1.194757E+04 -5.614233E+04 -1.055278E-09  5.656082E-10
       105  14 -2.308777E+05 -1.738638E+03  2.016764E+04 -2.194247E+04 -5.305611E-10  9.452956E-11
       105  15 -2.280887E+05  1.325135E+04  3.916603E+04 -5.613577E+04  3.373061E-09  3.056039E-10
       105  16 -7.554761E+05 -1.312024E+05 -1.132332E+05 -5.775471E+04 -1.250184E-09  2.513168E-10
       105  17 -8.628140E+05 -1.581431E+05 -1.295027E+05 -2.060695E+04 -1.060998E-09 -1.235300E-09
       105  18 -9.646903E+05 -1.691357E+05 -1.356360E+05 -5.185719E+04  1.068548E-09  2.309296E-10
       105  19  2.996097E+05  1.299284E+05  1.371096E+05 -5.452841E+04  6.249629E+03  1.798331E+04
       105  20  4.014263E+05  1.546377E+05  1.698118E+05 -2.327898E+04  1.748236E+04  2.242129E+04
       105  21  5.090130E+05  1.956004E+05  2.139330E+05 -6.041880E+04  2.871109E+04  2.525088E+04
       105  22 -2.280609E+05 -6.268303E+02  1.194834E+04 -5.614220E+04  9.271018E+03  1.798117E+04
       105  23 -2.308772E+05 -1.737996E+03  2.016931E+04 -2.194212E+04  1.956746E+04  2.242143E+04
       105  24 -2.280876E+05  1.325227E+04  3.916891E+04 -5.613516E+04  2.985803E+04  2.525265E+04
       105  25 -7.554758E+05 -1.312021E+05 -1.132323E+05 -5.775453E+04  1.228985E+04  1.797900E+04
       105  26 -8.628133E+05 -1.581424E+05 -1.295009E+05 -2.060656E+04  2.165043E+04  2.242158E+04
       105  27 -9.646891E+05 -1.691348E+05 -1.356330E+05 -5.185656E+04  3.100360E+04  2.525443E+04
       106   1  6.406764E+05  2.047560E+05  2.512684E+05 -3.615262E+04 -2.843449E+04 -3.130414E+04
       106   2  7.197070E+05  2.209230E+05  3.057292E+05 -3.673554E+04 -8.496877E+04 -3.400189E+04
       106   3  8.494543E+05  4.071008E+05  4.396476E+05 -1.046896E+05 -1.415335E+05 -1.145239E+04
       106   4 -2.186672E+05 -7.668341E+03  4.823797E+04 -5.588719E+04 -3.723170E+04 -3.130498E+04
       106   5 -2.428016E+05 -1.706867E+04  7.792579E+04 -2.225303E+04 -7.915336E+04 -3.400511E+04
       106   6 -2.186900E+05  1.411438E+05  1.770052E+05 -5.598865E+04 -1.210945E+05 -1.144689E+04
       106   7 -1.077331E+06 -2.201440E+05 -1.548431E+05 -7.559427E+04 -4.601677E+04 -3.130526E+04
       106   8 -1.204459E+06 -2.551260E+05 -1.499416E+05 -7.793146E+03 -7.334682E+04 -3.400807E+04
       106   9 -1.285790E+06 -1.248889E+05 -8.571843E+04 -7.371678E+03 -1.006904E+05 -1.143818E+04
       106  10  6.406753E+05  2.047547E+05  2.512651E+05 -3.615333E+04  2.499118E-09  5.563036E-10
       106  11  7.196990E+05  2.209198E+05  3.057134E+05 -3.673787E+04  3.164429E-09 -7.123510E-10
       106  12  8.494328E+05  4.070953E+05  4.396097E+05 -1.046910E+05  5.643911E-10 -6.067973E-10
       106  13 -2.186689E+05 -7.669766E+03  4.823352E+04 -5.588813E+04  1.018315E-09  6.218316E-10
       106  14 -2.428087E+05 -1.707160E+04  7.791183E+04 -2.225520E+04 -7.345858E-11  2.688909E-10
       106  15 -2.187057E+05  1.411397E+05  1.769774E+05 -5.598977E+04  1.465422E-10 -3.211483E-10
       106  16 -1.077334E+06 -2.201456E+05 -1.548489E+05 -7.559543E+04  1.242579E-10  7.848927E-10
       106  17 -1.204465E+06 -2.551287E+05 -1.499539E+05 -7.795156E+03 -1.355402E-09  3.666090E-10
       106  18 -1.285801E+06 -1.248917E+05 -8.573777E+04 -7.372607E+03  1.529388E-09 -3.697910E-10
       106  19  6.406764E+05  2.047560E+05  2.512684E+05 -3.615262E+04  2.843449E+04  3.130414E+04
       106  20  7.197070E+05  2.209230E+05  3.057292E+05 -3.673554E+04  8.496877E+04  3.400189E+04
       106  21  8.494543E+05  4.071008E+05  4.396476E+05 -1.046896E+05  1.415335E+05  1.145239E+04
       106  22 -2.186672E+05 -7.668341E+03  4.823797E+04 -5.588719E+04  3.723170E+04  3.130498E+04
       106  23 -2.428016E+05 -1.706867E+04  7.792579E+04 -2.225303E+04  7.915336E+04  3.400511E+04
       106  24 -2.186900E+05  1.411438E+05  1.770052E+05 -5.598865E+04  1.210945E+05  1.144689E+04
       106  25 -1.077331E+06 -2.201440E+05 -1.548431E+05 -7.559427E+04  4.601677E+04  3.130526E+04
       106  26 -1.204459E+06 -2.551260E+05 -1.499416E+05 -7.793146E+03  7.334682E+04  3.400807E+04
       106  27 -1.285790E+06 -1.248889E+05 -8.571843E+04 -7.371678E+03  1.006904E+05  1.143818E+04
       107   1  3.244049E+05  7.262947E+05  3.344871E+05 -2.828887E+05  5.478964E+03  1.688931E+05
       107   2  1.485622E+05  5.545956E+05  1.833450E+05 -2.066733E+05  1.769003E+04  9.258069E+04
       107   3  7.457884E+04  4.180568E+05  1.072919E+05 -1.617082E+05  1.580643E+04  1.624206E+04
       107   4  1.795335E+05  1.448152E+05  1.962576E+05 -1.669295E+05  5.634823E+03  1.342185E+05
       107   5  4.611921E+04  1.294904E+05  9.843830E+04 -1.516149E+05  1.773159E+04  8.365511E+04
       107   6  1.012959E+04  1.448674E+05  5.787321E+04 -1.675351E+05  1.574418E+04  3.304505E+04
       107   7  3.468837E+04 -4.363234E+05  5.801607E+04 -5.107913E+04  5.777827E+03  9.957603E+04
       107   8 -5.632369E+04 -2.954358E+05  1.352440E+04 -9.659489E+04  1.777158E+04  7.473551E+04
       107   9 -5.432355E+04 -1.282487E+05  8.452636E+03 -1.733594E+05  1.568160E+04  4.984085E+04
       107  10  3.243972E+05  7.262641E+05  3.344335E+05 -2.828894E+05  5.958609E-10  2.940755E-08
       107  11  1.485596E+05  5.545863E+05  1.833283E+05 -2.066746E+05 -1.549870E-09  1.901217E-09
       107  12  7.457850E+04  4.180564E+05  1.072910E+05 -1.617084E+05 -6.554672E-11 -3.066465E-08
       107  13  1.795287E+05  1.447959E+05  1.962237E+05 -1.669301E+05 -5.878102E-10  9.800464E-10
       107  14  4.611699E+04  1.294828E+05  9.842456E+04 -1.516161E+05 -3.760628E-10  2.429887E-10
       107  15  1.012903E+04  1.448661E+05  5.787069E+04 -1.675356E+05 -9.582700E-10  4.494707E-10
       107  16  3.468567E+04 -4.363340E+05  5.799736E+04 -5.107959E+04  2.645182E-10 -2.874916E-08
       107  17 -5.632553E+04 -2.954419E+05  1.351331E+04 -9.659596E+04  8.433005E-10  1.073263E-09
       107  18 -5.432448E+04 -1.282515E+05  8.447504E+03 -1.733600E+05  9.823482E-11  3.036663E-08
       107  19  3.244049E+05  7.262947E+05  3.344871E+05 -2.828887E+05 -5.478964E+03 -1.688931E+05
       107  20  1.485622E+05  5.545956E+05  1.833450E+05 -2.066733E+05 -1.769003E+04 -9.258069E+04
       107  21  7.457884E+04  4.180568E+05  1.072919E+05 -1.617082E+05 -1.580643E+04 -1.624206E+04
       107  22  1.795335E+05  1.448152E+05  1.962576E+05 -1.669295E+05 -5.634823E+03 -1.342185E+05
       107  23  4.611921E+04  1.294904E+05  9.843830E+04 -1.516149E+05 -1.773159E+04 -8.365511E+04
       107  24  1.012959E+04  1.448674E+05  5.787321E+04 -1.675351E+05 -1.574418E+04 -3.304505E+04
       107  25  3.468837E+04 -4.363234E+05  5.801607E+04 -5.107913E+04 -5.777827E+03 -9.957603E+04
       107  26 -5.632369E+04 -2.954358E+05  1.352440E+04 -9.659489E+04 -1.777158E+04 -7.473551E+04
       107  27 -5.432355E+04 -1.282487E+05  8.452636E+03 -1.733594E+05 -1.568160E+04 -4.984085E+04
       108   1  5.151132E+04  3.122302E+05  7.844798E+04 -1.731389E+05  1.003161E+04  9.270889E+03
       108   2  8.392660E+03  1.555964E+05  3.827448E+04 -1.521161E+05  1.372356E+03 -8.482831E+03
       108   3 -2.491550E+04  3.469737E+03  1.203244E+04 -1.633902E+05 -7.371514E+03 -2.623273E+04
       108   4  1.056864E+04  1.390424E+05  4.710927E+04 -1.677026E+05  9.972479E+03  2.511136E+04
       108   5  4.011464E+03  1.368144E+05  3.517088E+04 -1.515610E+05  1.312483E+03  7.512844E+03
       108   6  7.239702E+03  1.390445E+05  3.705858E+04 -1.677150E+05 -7.431905E+03 -1.008599E+04
       108   7 -3.037549E+04 -3.411553E+04  1.577032E+04 -1.622679E+05  9.913619E+03  4.094753E+04
       108   8 -3.696126E+02  1.180333E+05  3.206823E+04 -1.510059E+05  1.252638E+03  2.350805E+04
       108   9  3.939406E+04  2.746376E+05  6.208495E+04 -1.720409E+05 -7.492513E+03  6.064195E+03
       108  10  5.151119E+04  3.122300E+05  7.844763E+04 -1.731390E+05  2.076217E-09  1.815561E-09
       108  11  8.392639E+03  1.555963E+05  3.827434E+04 -1.521161E+05  2.829559E-09  2.102141E-09
       108  12 -2.491574E+04  3.468984E+03  1.203104E+04 -1.633903E+05  6.098058E-10 -3.269310E-09
       108  13  1.056836E+04  1.390417E+05  4.710789E+04 -1.677028E+05  2.523759E-09  9.921265E-10
       108  14  4.011447E+03  1.368143E+05  3.517077E+04 -1.515610E+05  9.610991E-11  8.446805E-11
       108  15  7.239615E+03  1.390444E+05  3.705828E+04 -1.677151E+05  1.915041E-09  5.016586E-10
       108  16 -3.037605E+04 -3.411735E+04  1.576699E+04 -1.622682E+05 -2.948940E-10 -1.441946E-09
       108  17 -3.697627E+02  1.180327E+05  3.206719E+04 -1.510059E+05 -3.949130E-12  8.994964E-10
       108  18  3.939399E+04  2.746376E+05  6.208477E+04 -1.720408E+05  1.063856E-09  2.852324E-09
       108  19  5.151132E+04  3.122302E+05  7.844798E+04 -1.731389E+05 -1.003161E+04 -9.270889E+03
       108  20  8.392660E+03  1.555964E+05  3.827448E+04 -1.521161E+05 -1.372356E+03  8.482831E+03
       108  21 -2.491550E+04  3.469737E+03  1.203244E+04 -1.633902E+05  7.371514E+03  2.623273E+04
       108  22  1.056864E+04  1.390424E+05  4.710927E+04 -1.677026E+05 -9.972479E+03 -2.511136E+04
       108  23  4.011464E+03  1.368144E+05  3.517088E+04 -1.515610E+05 -1.312483E+03 -7.512844E+03
       108  24  7.239702E+03  1.390445E+05  3.705858E+04 -1.677150E+05  7.431905E+03  1.008599E+04
       108  25 -3.037549E+04 -3.411553E+04  1.577032E+04 -1.622679E+05 -9.913619E+03 -4.094753E+04
       108  26 -3.696126E+02  1.180333E+05  3.206823E+04 -1.510059E+05 -1.252638E+03 -2.350805E+04
       108  27  3.939406E+04  2.746376E+05  6.208495E+04 -1.720409E+05  7.492513E+03 -6.064195E+03
       109   1 -4.864351E+04 -9.304140E+04 -9.884612E+02 -1.707844E+05 -1.320477E+04 -3.324466E+04
       109   2 -6.362933E+04 -2.550195E+05 -1.271730E+04 -1.159400E+05 -1.590258E+04 -4.256234E+04
       109   3 -2.034301E+04 -4.014283E+05 -3.863642E+03 -9.247866E+04 -5.364583E+03 -5.183313E+04
       109   4  7.024301E+03  1.424291E+05  4.204055E+04 -1.675510E+05 -1.326828E+04 -1.620471E+04
       109   5  2.977263E+04  1.325479E+05  6.517457E+04 -1.516710E+05 -1.587336E+04 -4.967520E+04
       109   6  1.149591E+05  1.423840E+05  1.256509E+05 -1.671641E+05 -5.245255E+03 -8.310156E+04
       109   7  6.268918E+04  3.779541E+05  8.506842E+04 -1.643164E+05 -1.333160E+04  8.415278E+02
       109   8  1.231700E+05  5.202613E+05  1.430596E+05 -1.874247E+05 -1.584332E+04 -5.679241E+04
       109   9  2.502609E+05  6.864815E+05  2.551512E+05 -2.419150E+05 -5.118459E+03 -1.143972E+05
       109  10 -4.864399E+04 -9.304263E+04 -9.908667E+02 -1.707847E+05 -8.540242E-10  1.603522E-09
       109  11 -6.363009E+04 -2.550215E+05 -1.272118E+04 -1.159405E+05 -6.247554E-10  2.298693E-09
       109  12 -2.034376E+04 -4.014312E+05 -3.868748E+03 -9.247889E+04 -4.042698E-11 -1.460717E-09
       109  13  7.024041E+03  1.424288E+05  4.203973E+04 -1.675512E+05 -1.839539E-09  8.368898E-10
       109  14  2.977169E+04  1.325452E+05  6.516946E+04 -1.516717E+05 -3.991913E-10  7.636839E-11
       109  15  1.149572E+05  1.423766E+05  1.256378E+05 -1.671644E+05  3.206225E-10  4.023193E-10
       109  16  6.268899E+04  3.779541E+05  8.506808E+04 -1.643164E+05  5.004899E-10 -1.319790E-09
       109  17  1.231689E+05  5.202578E+05  1.430531E+05 -1.874254E+05  3.756122E-10  3.364976E-10
       109  18  2.502574E+05  6.864674E+05  2.551266E+05 -2.419155E+05  1.080115E-09  9.447299E-10
       109  19 -4.864351E+04 -9.304140E+04 -9.884612E+02 -1.707844E+05  1.320477E+04  3.324466E+04
       109  20 -6.362933E+04 -2.550195E+05 -1.271730E+04 -1.159400E+05  1.590258E+04  4.256234E+04
       109  21 -2.034301E+04 -4.014283E+05 -3.863642E+03 -9.247866E+04  5.364583E+03  5.183313E+04
       109  22  7.024301E+03  1.424291E+05  4.204055E+04 -1.675510E+05  1.326828E+04  1.620471E+04
       109  23  2.977263E+04  1.325479E+05  6.517457E+04 -1.516710E+05  1.587336E+04  4.967520E+04
       109  24  1.149591E+05  1.423840E+05  1.256509E+05 -1.671641E+05  5.245255E+03  8.310156E+04
       109  25  6.268918E+04  3.779541E+05  8.506842E+04 -1.643164E+05  1.333160E+04 -8.415278E+02
       109  26  1.231700E+05  5.202613E+05  1.430596E+05 -1.874247E+05  1.584332E+04  5.679241E+04
       109  27  2.502609E+05  6.864815E+05  2.551512E+05 -2.419150E+05  5.118459E+03  1.143972E+05
       110   1 -4.223896E+06 -1.413254E+06 -8.878400E+05 -1.491772E+06 -3.911825E+05 -1.328156E+05
       110   2 -4.109372E+06 -8.320796E+05 -5.244163E+05 -1.521270E+06 -2.548511E+05 -5.027758E+04
       110   3 -4.173487E+06 -7.947936E+05 -4.105882E+05 -1.455323E+06 -1.076073E+05  3.472088E+03
       110   4 -3.177229E+06 -8.770382E+05 -5.751024E+05 -1.064015E+06 -3.693618E+05 -1.246681E+05
       110   5 -3.058881E+06 -3.946844E+05 -2.411771E+05 -1.191756E+06 -2.482751E+05 -4.781959E+04
       110   6 -3.115804E+06 -4.526863E+05 -1.443892E+05 -1.224151E+06 -1.162881E+05  2.056273E+02
       110   7 -2.129443E+06 -3.404542E+05 -2.624696E+05 -6.355103E+05 -3.474999E+05 -1.164926E+05
       110   8 -2.007306E+06  4.284862E+04  4.196337E+04 -8.617099E+05 -2.416864E+05 -4.535573E+04
       110   9 -2.057032E+06 -1.105764E+05  1.217234E+05 -9.926526E+05 -1.249851E+05 -3.064937E+03
       110  10 -4.224067E+06 -1.413315E+06 -8.881632E+05 -1.491814E+06  7.143831E-10  4.150889E-10
       110  11 -4.109443E+06 -8.320999E+05 -5.245440E+05 -1.521280E+06  1.812155E-09  1.571250E-09
       110  12 -4.173499E+06 -7.947967E+05 -4.106101E+05 -1.455323E+06  5.236286E-10  9.101678E-10
       110  13 -3.177380E+06 -8.770918E+05 -5.753896E+05 -1.064052E+06  3.207529E-10  2.493654E-10
       110  14 -3.058948E+06 -3.947035E+05 -2.412979E+05 -1.191765E+06  5.673562E-09  5.054927E-10
       110  15 -3.115819E+06 -4.526900E+05 -1.444147E+05 -1.224151E+06 -1.039413E-09  1.738905E-10
       110  16 -2.129577E+06 -3.405013E+05 -2.627229E+05 -6.355430E+05  4.281313E-09  2.150447E-09
       110  17 -2.007370E+06  4.283065E+04  4.184932E+04 -8.617188E+05  3.768621E-09  2.087541E-09
       110  18 -2.057049E+06 -1.105806E+05  1.216939E+05 -9.926530E+05 -5.701439E-10  6.385961E-10
       110  19 -4.223896E+06 -1.413254E+06 -8.878400E+05 -1.491772E+06  3.911825E+05  1.328156E+05
       110  20 -4.109372E+06 -8.320796E+05 -5.244163E+05 -1.521270E+06  2.548511E+05  5.027758E+04
       110  21 -4.173487E+06 -7.947936E+05 -4.105882E+05 -1.455323E+06  1.076073E+05 -3.472088E+03
       110  22 -3.177229E+06 -8.770382E+05 -5.751024E+05 -1.064015E+06  3.693618E+05  1.246681E+05
       110  23 -3.058881E+06 -3.946844E+05 -2.411771E+05 -1.191756E+06  2.482751E+05  4.781959E+04
       110  24 -3.115804E+06 -4.526863E+05 -1.443892E+05 -1.224151E+06  1.162881E+05 -2.056273E+02
       110  25 -2.129443E+06 -3.404542E+05 -2.624696E+05 -6.355103E+05  3.474999E+05  1.164926E+05
       110  26 -2.007306E+06  4.284862E+04  4.196337E+04 -8.617099E+05  2.416864E+05  4.535573E+04
       110  27 -2.057032E+06 -1.105764E+05  1.217234E+05 -9.926526E+05  1.249851E+05  3.064937E+03
       111   1 -4.012082E+06 -8.698941E+05 -3.602970E+05 -1.455808E+06 -9.372042E+04  2.021335E+03
       111   2 -3.946035E+06 -7.662454E+05 -2.788627E+05 -1.417987E+06 -6.263845E+04  1.207419E+04
       111   3 -3.862645E+06 -7.541614E+05 -2.341549E+05 -1.413063E+06 -3.072921E+04  1.992657E+04
       111   4 -3.095744E+06 -5.119498E+05 -1.170563E+05 -1.192636E+06 -9.399217E+04  1.912803E+03
       111   5 -3.101461E+06 -4.450068E+05 -5.684837E+04 -1.184169E+06 -6.404771E+04  1.154045E+04
       111   6 -3.089583E+06 -4.693529E+05 -3.241835E+04 -1.208605E+06 -3.328048E+04  1.896645E+04
       111   7 -2.178582E+06 -1.539352E+05  1.261119E+05 -9.291033E+05 -9.426428E+04  1.804129E+03
       111   8 -2.256189E+06 -1.237196E+05  1.651052E+05 -9.500605E+05 -6.545904E+04  1.100591E+04
       111   9 -2.315939E+06 -1.845138E+05  1.692679E+05 -1.003918E+06 -3.583525E+04  1.800508E+04
       111  10 -4.012092E+06 -8.698965E+05 -3.603136E+05 -1.455808E+06 -2.235022E-09 -1.088967E-10
       111  11 -3.946039E+06 -7.662466E+05 -2.788704E+05 -1.417986E+06 -2.668708E-09 -9.430960E-10
       111  12 -3.862646E+06 -7.541621E+05 -2.341575E+05 -1.413063E+06 -1.404681E-09 -1.322904E-09
       111  13 -3.095753E+06 -5.119522E+05 -1.170730E+05 -1.192636E+06 -4.608137E-10 -1.301436E-09
       111  14 -3.101465E+06 -4.450081E+05 -5.685636E+04 -1.184169E+06 -4.173710E-09 -1.360131E-09
       111  15 -3.089584E+06 -4.693535E+05 -3.242111E+04 -1.208605E+06  3.508079E-10 -2.666433E-10
       111  16 -2.178592E+06 -1.539376E+05  1.260952E+05 -9.291031E+05 -2.311320E-09 -1.163640E-09
       111  17 -2.256193E+06 -1.237209E+05  1.650969E+05 -9.500599E+05  6.873470E-10 -8.653806E-10
       111  18 -2.315941E+06 -1.845145E+05  1.692649E+05 -1.003917E+06  2.836696E-09  8.852206E-10
       111  19 -4.012082E+06 -8.698941E+05 -3.602970E+05 -1.455808E+06  9.372042E+04 -2.021335E+03
       111  20 -3.946035E+06 -7.662454E+05 -2.788627E+05 -1.417987E+06  6.263845E+04 -1.207419E+04
       111  21 -3.862645E+06 -7.541614E+05 -2.341549E+05 -1.413063E+06  3.072921E+04 -1.992657E+04
       111  22 -3.095744E+06 -5.119498E+05 -1.170563E+05 -1.192636E+06  9.399217E+04 -1.912803E+03
       111  23 -3.101461E+06 -4.450068E+05 -5.684837E+04 -1.184169E+06  6.404771E+04 -1.154045E+04
       111  24 -3.089583E+06 -4.693529E+05 -3.241835E+04 -1.208605E+06  3.328048E+04 -1.896645E+04
       111  25 -2.178582E+06 -1.539352E+05  1.261119E+05 -9.291033E+05  9.426428E+04 -1.804129E+03
       111  26 -2.256189E+06 -1.237196E+05  1.651052E+05 -9.500605E+05  6.545904E+04 -1.100591E+04
       111  27 -2.315939E+06 -1.845138E+05  1.692679E+05 -1.003918E+06  3.583525E+04 -1.800508E+04
       112   1 -3.748864E+06 -7.260930E+05 -1.987388E+05 -1.387868E+06 -2.569280E+04  1.891968E+04
       112   2 -3.682000E+06 -6.650276E+05 -1.638274E+05 -1.338658E+06 -1.740567E+04  1.760771E+04
       112   3 -3.572734E+06 -6.540230E+05 -1.353408E+05 -1.339723E+06 -9.016843E+03  1.601187E+04
       112   4 -3.086291E+06 -4.761304E+05 -2.520760E+04 -1.206460E+06 -2.770923E+04  1.816123E+04
       112   5 -3.107181E+06 -4.489545E+05 -1.322906E+04 -1.182124E+06 -1.956705E+04  1.679637E+04
       112   6 -3.085647E+06 -4.718046E+05 -7.553964E+03 -1.208064E+06 -1.132428E+04  1.514738E+04
       112   7 -2.423293E+06 -2.261407E+05  1.482857E+05 -1.024876E+06 -2.972802E+04  1.740188E+04
       112   8 -2.532041E+06 -2.328610E+05  1.373412E+05 -1.025459E+06 -2.173064E+04  1.598420E+04
       112   9 -2.598327E+06 -2.895718E+05  1.202131E+05 -1.076311E+06 -1.363371E+04  1.428214E+04
       112  10 -3.748865E+06 -7.260936E+05 -1.987407E+05 -1.387867E+06 -4.776734E-09 -2.383525E-09
       112  11 -3.682000E+06 -6.650281E+05 -1.638286E+05 -1.338658E+06 -2.527616E-09 -1.957236E-09
       112  12 -3.572734E+06 -6.540233E+05 -1.353415E+05 -1.339723E+06  5.328023E-09  2.502228E-09
       112  13 -3.086292E+06 -4.761310E+05 -2.520966E+04 -1.206459E+06 -1.173376E-09 -3.125232E-10
       112  14 -3.107182E+06 -4.489549E+05 -1.323031E+04 -1.182124E+06 -1.341126E-09 -1.289959E-09
       112  15 -3.085647E+06 -4.718049E+05 -7.554636E+03 -1.208064E+06  9.430319E-10  1.074199E-10
       112  16 -2.423294E+06 -2.261412E+05  1.482835E+05 -1.024875E+06  5.272540E-09  2.165258E-09
       112  17 -2.532041E+06 -2.328614E+05  1.373398E+05 -1.025458E+06 -1.195368E-09 -1.912160E-09
       112  18 -2.598327E+06 -2.895721E+05  1.202124E+05 -1.076311E+06 -5.551683E-09 -2.475314E-09
       112  19 -3.748864E+06 -7.260930E+05 -1.987388E+05 -1.387868E+06  2.569280E+04 -1.891968E+04
       112  20 -3.682000E+06 -6.650276E+05 -1.638274E+05 -1.338658E+06  1.740567E+04 -1.760771E+04
       112  21 -3.572734E+06 -6.540230E+05 -1.353408E+05 -1.339723E+06  9.016843E+03 -1.601187E+04
       112  22 -3.086291E+06 -4.761304E+05 -2.520760E+04 -1.206460E+06  2.770923E+04 -1.816123E+04
       112  23 -3.107181E+06 -4.489545E+05 -1.322906E+04 -1.182124E+06  1.956705E+04 -1.679637E+04
       112  24 -3.085647E+06 -4.718046E+05 -7.553964E+03 -1.208064E+06  1.132428E+04 -1.514738E+04
       112  25 -2.423293E+06 -2.261407E+05  1.482857E+05 -1.024876E+06  2.972802E+04 -1.740188E+04
       112  26 -2.532041E+06 -2.328610E+05  1.373412E+05 -1.025459E+06  2.173064E+04 -1.598420E+04
       112  27 -2.598327E+06 -2.895718E+05  1.202131E+05 -1.076311E+06  1.363371E+04 -1.428214E+04
       113   1 -3.455837E+06 -6.122386E+05 -1.027607E+05 -1.309355E+06 -6.989208E+03  1.391634E+04
       113   2 -3.385208E+06 -5.524334E+05 -7.613345E+04 -1.256296E+06 -3.496180E+03  1.029935E+04
       113   3 -3.267186E+06 -5.409869E+05 -5.104551E+04 -1.258075E+06  2.408800E+01  6.602027E+03
       113   4 -3.084736E+06 -4.730103E+05 -5.922498E+03 -1.208475E+06 -9.287605E+03  1.305602E+04
       113   5 -3.108391E+06 -4.486108E+05 -3.665128E+03 -1.181135E+06 -5.836539E+03  9.424078E+03
       113   6 -3.084654E+06 -4.725598E+05 -2.912386E+03 -1.208635E+06 -2.358583E+03  5.711756E+03
       113   7 -2.713500E+06 -3.337733E+05  9.090423E+04 -1.107539E+06 -1.158752E+04  1.219514E+04
       113   8 -2.831501E+06 -3.447841E+05  6.879631E+04 -1.105944E+06 -8.178035E+03  8.548385E+03
       113   9 -2.902093E+06 -4.041314E+05  4.521729E+04 -1.159182E+06 -4.741998E+03  4.821209E+03
       113  10 -3.455837E+06 -6.122388E+05 -1.027611E+05 -1.309355E+06  1.267320E-09  1.301113E-09
       113  11 -3.385208E+06 -5.524335E+05 -7.613368E+04 -1.256296E+06 -6.638664E-10  8.350449E-10
       113  12 -3.267186E+06 -5.409870E+05 -5.104559E+04 -1.258075E+06 -2.028896E-09  6.790187E-11
       113  13 -3.084736E+06 -4.730105E+05 -5.922980E+03 -1.208475E+06 -6.554638E-10 -3.550000E-10
       113  14 -3.108391E+06 -4.486109E+05 -3.665359E+03 -1.181135E+06  1.261284E-09  3.577976E-10
       113  15 -3.084655E+06 -4.725598E+05 -2.912458E+03 -1.208635E+06 -1.974407E-09 -2.686714E-10
       113  16 -2.713500E+06 -3.337735E+05  9.090370E+04 -1.107539E+06 -3.089509E-09 -2.395813E-10
       113  17 -2.831501E+06 -3.447842E+05  6.879605E+04 -1.105944E+06 -1.075420E-10  5.634796E-10
       113  18 -2.902093E+06 -4.041315E+05  4.521720E+04 -1.159182E+06 -1.766894E-09 -1.848262E-10
       113  19 -3.455837E+06 -6.122386E+05 -1.027607E+05 -1.309355E+06  6.989208E+03 -1.391634E+04
       113  20 -3.385208E+06 -5.524334E+05 -7.613345E+04 -1.256296E+06  3.496180E+03 -1.029935E+04
       113  21 -3.267186E+06 -5.409869E+05 -5.104551E+04 -1.258075E+06 -2.408800E+01 -6.602027E+03
       113  22 -3.084736E+06 -4.730103E+05 -5.922498E+03 -1.208475E+06  9.287605E+03 -1.305602E+04
       113  23 -3.108391E+06 -4.486108E+05 -3.665128E+03 -1.181135E+06  5.836539E+03 -9.424078E+03
       113  24 -3.084654E+06 -4.725598E+05 -2.912386E+03 -1.208635E+06  2.358583E+03 -5.711756E+03
       113  25 -2.713500E+06 -3.337733E+05  9.090423E+04 -1.107539E+06  1.158752E+04 -1.219514E+04
       113  26 -2.831501E+06 -3.447841E+05  6.879631E+04 -1.105944E+06  8.178035E+03 -8.548385E+03
       113  27 -2.902093E+06 -4.041314E+05  4.521729E+04 -1.159182E+06  4.741998E+03 -4.821209E+03
       114   1 -3.146462E+06 -4.960027E+05 -1.880727E+04 -1.225781E+06  1.482983E+03  4.193426E+03
       114   2 -3.074530E+06 -4.355951E+05  5.163675E+03 -1.171638E+06  5.009870E+03  4.453908E+02
       114   3 -2.954472E+06 -4.244018E+05  2.757770E+04 -1.173350E+06  8.530763E+03 -3.284332E+03
       114   4 -3.084485E+06 -4.727541E+05 -2.934530E+03 -1.208858E+06 -9.089456E+02  3.299938E+03
       114   5 -3.108571E+06 -4.483368E+05 -3.741481E+03 -1.180856E+06  2.627414E+03 -4.446993E+02
       114   6 -3.084541E+06 -4.731375E+05 -6.112671E+03 -1.208715E+06  6.157447E+03 -4.171102E+03
       114   7 -3.022504E+06 -4.495049E+05  1.293810E+04 -1.191932E+06 -3.301161E+03  2.406342E+03
       114   8 -3.142610E+06 -4.610786E+05 -1.264679E+04 -1.190075E+06  2.450823E+02 -1.334744E+03
       114   9 -3.214595E+06 -5.218725E+05 -3.980469E+04 -1.244075E+06  3.784661E+03 -5.057673E+03
       114  10 -3.146462E+06 -4.960027E+05 -1.880731E+04 -1.225781E+06 -1.114302E-10 -3.840507E-10
       114  11 -3.074530E+06 -4.355951E+05  5.163627E+03 -1.171638E+06  1.294973E-09 -7.853434E-10
       114  12 -2.954472E+06 -4.244019E+05  2.757754E+04 -1.173350E+06 -1.343727E-09 -7.832179E-10
       114  13 -3.084485E+06 -4.727541E+05 -2.934552E+03 -1.208858E+06 -9.587975E-10 -2.056056E-10
       114  14 -3.108571E+06 -4.483368E+05 -3.741495E+03 -1.180856E+06  7.744310E-10  1.302747E-09
       114  15 -3.084541E+06 -4.731376E+05 -6.112775E+03 -1.208715E+06  2.715686E-11  8.497604E-10
       114  16 -3.022504E+06 -4.495049E+05  1.293807E+04 -1.191932E+06 -1.924553E-09  1.268122E-10
       114  17 -3.142610E+06 -4.610786E+05 -1.264680E+04 -1.190075E+06 -5.081871E-11 -1.019045E-09
       114  18 -3.214595E+06 -5.218726E+05 -3.980476E+04 -1.244075E+06  3.907429E-11  7.861126E-10
       114  19 -3.146462E+06 -4.960027E+05 -1.880727E+04 -1.225781E+06 -1.482983E+03 -4.193426E+03
       114  20 -3.074530E+06 -4.355951E+05  5.163675E+03 -1.171638E+06 -5.009870E+03 -4.453908E+02
       114  21 -2.954472E+06 -4.244018E+05  2.757770E+04 -1.173350E+06 -8.530763E+03  3.284332E+03
       114  22 -3.084485E+06 -4.727541E+05 -2.934530E+03 -1.208858E+06  9.089456E+02 -3.299938E+03
       114  23 -3.108571E+06 -4.483368E+05 -3.741481E+03 -1.180856E+06 -2.627414E+03  4.446993E+02
       114  24 -3.084541E+06 -4.731375E+05 -6.112671E+03 -1.208715E+06 -6.157447E+03  4.171102E+03
       114  25 -3.022504E+06 -4.495049E+05  1.293810E+04 -1.191932E+06  3.301161E+03 -2.406342E+03
       114  26 -3.142610E+06 -4.610786E+05 -1.264679E+04 -1.190075E+06 -2.450823E+02  1.334744E+03
       114  27 -3.214595E+06 -5.218725E+05 -3.980469E+04 -1.244075E+06 -3.784661E+03  5.057673E+03
       115   1 -2.834833E+06 -3.790863E+05  5.790640E+04 -1.141537E+06  1.066058E+04 -5.439953E+03
       115   2 -2.764577E+06 -3.193004E+05  7.613723E+04 -1.087938E+06  1.911015E+04 -7.243506E+03
       115   3 -2.649781E+06 -3.122248E+05  8.785221E+04 -1.087582E+06  2.748793E+04 -8.842190E+03
       115   4 -3.085130E+06 -4.722962E+05 -7.826958E+03 -1.208748E+06  8.265360E+03 -6.335259E+03
       115   5 -3.107711E+06 -4.481420E+05 -1.369000E+04 -1.181304E+06  1.682045E+04 -8.100325E+03
       115   6 -3.085784E+06 -4.767230E+05 -2.615531E+04 -1.207108E+06  2.530268E+04 -9.660868E+03
       115   7 -3.335363E+06 -5.655015E+05 -7.356481E+04 -1.275933E+06  5.871233E+03 -7.230164E+03
       115   8 -3.450730E+06 -5.769760E+05 -1.035269E+05 -1.274623E+06  1.453216E+04 -8.956620E+03
       115   9 -3.521605E+06 -6.412098E+05 -1.401796E+05 -1.326558E+06  2.311910E+04 -1.047891E+04
       115  10 -2.834833E+06 -3.790864E+05  5.790613E+04 -1.141537E+06 -3.270991E-10  2.934512E-11
       115  11 -2.764577E+06 -3.193006E+05  7.613644E+04 -1.087938E+06  2.242799E-09 -1.037349E-09
       115  12 -2.649782E+06 -3.122251E+05  8.785064E+04 -1.087582E+06  1.073765E-10 -1.294294E-09
       115  13 -3.085130E+06 -4.722963E+05 -7.827162E+03 -1.208748E+06 -1.520165E-09  8.309771E-10
       115  14 -3.107712E+06 -4.481422E+05 -1.369065E+04 -1.181304E+06  1.399453E-10 -1.197258E-09
       115  15 -3.085785E+06 -4.767233E+05 -2.615669E+04 -1.207107E+06 -2.198337E-09 -1.978212E-09
       115  16 -3.335363E+06 -5.655016E+05 -7.356497E+04 -1.275933E+06 -2.313637E-09 -7.616423E-10
       115  17 -3.450730E+06 -5.769761E+05 -1.035274E+05 -1.274623E+06  1.445069E-09  9.203218E-10
       115  18 -3.521605E+06 -6.412101E+05 -1.401808E+05 -1.326558E+06 -8.514873E-11  8.443181E-12
       115  19 -2.834833E+06 -3.790863E+05  5.790640E+04 -1.141537E+06 -1.066058E+04  5.439953E+03
       115  20 -2.764577E+06 -3.193004E+05  7.613723E+04 -1.087938E+06 -1.911015E+04  7.243506E+03
       115  21 -2.649781E+06 -3.122248E+05  8.785221E+04 -1.087582E+06 -2.748793E+04  8.842190E+03
       115  22 -3.085130E+06 -4.722962E+05 -7.826958E+03 -1.208748E+06 -8.265360E+03  6.335259E+03
       115  23 -3.107711E+06 -4.481420E+05 -1.369000E+04 -1.181304E+06 -1.682045E+04  8.100325E+03
       115  24 -3.085784E+06 -4.767230E+05 -2.615531E+04 -1.207108E+06 -2.530268E+04  9.660868E+03
       115  25 -3.335363E+06 -5.655015E+05 -7.356481E+04 -1.275933E+06 -5.871233E+03  7.230164E+03
       115  26 -3.450730E+06 -5.769760E+05 -1.035269E+05 -1.274623E+06 -1.453216E+04  8.956620E+03
       115  27 -3.521605E+06 -6.412098E+05 -1.401796E+05 -1.326558E+06 -2.311910E+04  1.047891E+04
       116   1 -2.533782E+06 -2.679295E+05  1.107537E+05 -1.065259E+06  3.376038E+04 -9.548275E+03
       116   2 -2.467584E+06 -2.018243E+05  1.077940E+05 -1.006619E+06  6.478791E+04 -2.464066E+03
       116   3 -2.380816E+06 -2.328185E+05  6.841587E+04 -9.852859E+05  9.512172E+04  6.495773E+03
       116   4 -3.088848E+06 -4.700897E+05 -3.365187E+04 -1.209776E+06  3.110314E+04 -1.054419E+04
       116   5 -3.102199E+06 -4.435237E+05 -5.895432E+04 -1.182860E+06  6.310635E+04 -3.096830E+03
       116   6 -3.095204E+06 -5.142926E+05 -1.214817E+05 -1.193255E+06  9.441129E+04  6.224385E+03
       116   7 -3.643614E+06 -6.722358E+05 -1.780832E+05 -1.354178E+06  2.844851E+04 -1.153919E+04
       116   8 -3.736420E+06 -6.851949E+05 -2.257368E+05 -1.358936E+06  6.142666E+04 -3.728872E+03
       116   9 -3.809091E+06 -7.957208E+05 -3.114232E+05 -1.401001E+06  9.370170E+04  5.953350E+03
       116  10 -2.533784E+06 -2.679299E+05  1.107514E+05 -1.065259E+06 -1.246958E-09 -1.099040E-09
       116  11 -2.467589E+06 -2.018255E+05  1.077861E+05 -1.006619E+06 -1.264164E-09 -7.967720E-10
       116  12 -2.380826E+06 -2.328209E+05  6.839872E+04 -9.852864E+05  1.910685E-09 -7.217235E-10
       116  13 -3.088849E+06 -4.700901E+05 -3.365390E+04 -1.209776E+06 -2.114861E-09 -4.096815E-10
       116  14 -3.102203E+06 -4.435247E+05 -5.896185E+04 -1.182860E+06 -8.675552E-10  3.695647E-10
       116  15 -3.095213E+06 -5.142950E+05 -1.214986E+05 -1.193256E+06  1.056636E-09 -8.793900E-10
       116  16 -3.643615E+06 -6.722362E+05 -1.780850E+05 -1.354177E+06 -6.462273E-10  2.824196E-10
       116  17 -3.736424E+06 -6.851959E+05 -2.257440E+05 -1.358936E+06  1.959310E-09  1.336144E-09
       116  18 -3.809101E+06 -7.957233E+05 -3.114399E+05 -1.401002E+06 -1.620016E-09 -7.499011E-10
       116  19 -2.533782E+06 -2.679295E+05  1.107537E+05 -1.065259E+06 -3.376038E+04  9.548275E+03
       116  20 -2.467584E+06 -2.018243E+05  1.077940E+05 -1.006619E+06 -6.478791E+04  2.464066E+03
       116  21 -2.380816E+06 -2.328185E+05  6.841587E+04 -9.852859E+05 -9.512172E+04 -6.495773E+03
       116  22 -3.088848E+06 -4.700897E+05 -3.365187E+04 -1.209776E+06 -3.110314E+04  1.054419E+04
       116  23 -3.102199E+06 -4.435237E+05 -5.895432E+04 -1.182860E+06 -6.310635E+04  3.096830E+03
       116  24 -3.095204E+06 -5.142926E+05 -1.214817E+05 -1.193255E+06 -9.441129E+04 -6.224385E+03
       116  25 -3.643614E+06 -6.722358E+05 -1.780832E+05 -1.354178E+06 -2.844851E+04  1.153919E+04
       116  26 -3.736420E+06 -6.851949E+05 -2.257368E+05 -1.358936E+06 -6.142666E+04  3.728872E+03
       116  27 -3.809091E+06 -7.957208E+05 -3.114232E+05 -1.401001E+06 -9.370170E+04 -5.953350E+03
       117   1 -2.246116E+06 -1.849398E+05  6.635323E+04 -1.049602E+06  1.253593E+05  1.146469E+04
       117   2 -2.187486E+06 -2.080432E+04 -1.424471E+04 -9.089168E+05  2.494077E+05  5.557270E+04
       117   3 -2.303724E+06 -4.190447E+05 -3.302975E+05 -6.749085E+05  3.641014E+05  1.245937E+05
       117   4 -3.115726E+06 -4.531063E+05 -1.498502E+05 -1.226317E+06  1.173679E+05  8.473233E+03
       117   5 -3.058466E+06 -3.907653E+05 -2.502169E+05 -1.190164E+06  2.546080E+05  5.750496E+04
       117   6 -3.179028E+06 -8.939457E+05 -5.967974E+05 -1.060617E+06  3.824820E+05  1.314148E+05
       117   7 -3.984602E+06 -7.212799E+05 -3.661101E+05 -1.402835E+06  1.093888E+05  5.484458E+03
       117   8 -3.928699E+06 -7.606182E+05 -4.862566E+05 -1.471031E+06  2.597999E+05  5.943319E+04
       117   9 -4.053527E+06 -1.368517E+06 -8.633674E+05 -1.445748E+06  4.008337E+05  1.382142E+05
       117  10 -2.246133E+06 -1.849442E+05  6.632334E+04 -1.049603E+06  1.279252E-09 -6.834091E-10
       117  11 -2.187554E+06 -2.082444E+04 -1.436791E+04 -9.089280E+05 -9.751362E-10 -2.736429E-11
       117  12 -2.303871E+06 -4.190972E+05 -3.305769E+05 -6.749452E+05  5.550806E-10  2.543062E-11
       117  13 -3.115741E+06 -4.531101E+05 -1.498764E+05 -1.226318E+06  2.760451E-10 -8.407594E-10
       117  14 -3.058537E+06 -3.907864E+05 -2.503456E+05 -1.190176E+06 -7.124035E-10  4.690609E-10
       117  15 -3.179191E+06 -8.940039E+05 -5.971066E+05 -1.060658E+06  2.466812E-09 -3.448014E-10
       117  16 -3.984615E+06 -7.212832E+05 -3.661328E+05 -1.402835E+06  1.800939E-10 -6.867760E-10
       117  17 -3.928773E+06 -7.606403E+05 -4.863911E+05 -1.471044E+06 -3.205505E-09  2.987792E-10
       117  18 -4.053705E+06 -1.368581E+06 -8.637078E+05 -1.445793E+06  4.595167E-10 -5.856335E-11
       117  19 -2.246116E+06 -1.849398E+05  6.635323E+04 -1.049602E+06 -1.253593E+05 -1.146469E+04
       117  20 -2.187486E+06 -2.080432E+04 -1.424471E+04 -9.089168E+05 -2.494077E+05 -5.557270E+04
       117  21 -2.303724E+06 -4.190447E+05 -3.302975E+05 -6.749085E+05 -3.641014E+05 -1.245937E+05
       117  22 -3.115726E+06 -4.531063E+05 -1.498502E+05 -1.226317E+06 -1.173679E+05 -8.473233E+03
       117  23 -3.058466E+06 -3.907653E+05 -2.502169E+05 -1.190164E+06 -2.546080E+05 -5.750496E+04
       117  24 -3.179028E+06 -8.939457E+05 -5.967974E+05 -1.060617E+06 -3.824820E+05 -1.314148E+05
       117  25 -3.984602E+06 -7.212799E+05 -3.661101E+05 -1.402835E+06 -1.093888E+05 -5.484458E+03
       117  26 -3.928699E+06 -7.606182E+05 -4.862566E+05 -1.471031E+06 -2.597999E+05 -5.943319E+04
       117  27 -4.053527E+06 -1.368517E+06 -8.633674E+05 -1.445748E+06 -4.008337E+05 -1.382142E+05
       118   1 -5.348712E+05  4.702272E+04  9.190337E+04  3.814318E+04  1.373726E+05  5.520455E+03
       118   2 -5.234689E+05 -1.342224E+05 -1.417783E+04  9.189309E+03  9.319614E+04  1.631319E+04
       118   3 -4.555152E+05 -1.133298E+05 -4.088753E+04 -4.540537E+04  4.902702E+04  1.540901E+04
       118   4 -3.487271E+04  1.714943E+05  2.148952E+05 -2.136896E+04  1.470645E+05  5.516840E+03
       118   5 -6.371342E+04 -2.049613E+04  9.470111E+04 -8.465891E+03  9.611550E+04  1.631200E+04
       118   6 -3.487563E+04 -9.260505E+03  5.853754E+04 -2.120200E+04  4.517731E+04  1.540813E+04
       118   7  4.653614E+05  2.959608E+05  3.378710E+05 -8.092919E+04  1.567643E+05  5.511371E+03
       118   8  3.962371E+05  9.321618E+04  2.035656E+05 -2.613428E+04  9.903700E+04  1.631065E+04
       118   9  3.859279E+05  9.479834E+04  1.579507E+05  3.017848E+03  4.132499E+04  1.540695E+04
       118  10 -5.348915E+05  4.701761E+04  9.186782E+04  3.814257E+04 -8.068579E-10  1.923251E-10
       118  11 -5.234784E+05 -1.342250E+05 -1.419466E+04  9.188085E+03 -2.387844E-10 -5.174817E-10
       118  12 -4.555178E+05 -1.133307E+05 -4.089250E+04 -4.540598E+04 -3.606854E-10  4.634848E-10
       118  13 -3.489594E+04  1.714885E+05  2.148545E+05 -2.136961E+04  1.043216E-09  1.855208E-10
       118  14 -6.372341E+04 -2.049889E+04  9.468325E+04 -8.467154E+03 -1.478775E-09 -8.250609E-10
       118  15 -3.487789E+04 -9.261308E+03  5.853326E+04 -2.120256E+04  2.260296E-09 -4.689871E-11
       118  16  4.653350E+05  2.959541E+05  3.378247E+05 -8.092988E+04  1.236166E-09  1.217864E-10
       118  17  3.962266E+05  9.321326E+04  2.035466E+05 -2.613558E+04  4.294125E-10  2.939475E-10
       118  18  3.859260E+05  9.479763E+04  1.579471E+05  3.017336E+03 -1.641450E-09 -8.280509E-10
       118  19 -5.348712E+05  4.702272E+04  9.190337E+04  3.814318E+04 -1.373726E+05 -5.520455E+03
       118  20 -5.234689E+05 -1.342224E+05 -1.417783E+04  9.189309E+03 -9.319614E+04 -1.631319E+04
       118  21 -4.555152E+05 -1.133298E+05 -4.088753E+04 -4.540537E+04 -4.902702E+04 -1.540901E+04
       118  22 -3.487271E+04  1.714943E+05  2.148952E+05 -2.136896E+04 -1.470645E+05 -5.516840E+03
       118  23 -6.371342E+04 -2.049613E+04  9.470111E+04 -8.465891E+03 -9.611550E+04 -1.631200E+04
       118  24 -3.487563E+04 -9.260505E+03  5.853754E+04 -2.120200E+04 -4.517731E+04 -1.540813E+04
       118  25  4.653614E+05  2.959608E+05  3.378710E+05 -8.092919E+04 -1.567643E+05 -5.511371E+03
       118  26  3.962371E+05  9.321618E+04  2.035656E+05 -2.613428E+04 -9.903700E+04 -1.631065E+04
       118  27  3.859279E+05  9.479834E+04  1.579507E+05  3.017848E+03 -4.132499E+04 -1.540695E+04
       119   1 -4.206249E+05 -7.651822E+04 -4.126770E+04 -1.645098E+04  3.654191E+04  1.282188E+04
       119   2 -3.843126E+05 -8.490094E+04 -5.475760E+04 -7.184985E+03  2.447412E+04  1.188918E+04
       119   3 -3.414772E+05 -7.395158E+04 -5.552836E+04 -2.377714E+04  1.240516E+04  1.021467E+04
       119   4 -4.621749E+04  1.614334E+04  4.755476E+04 -2.130173E+04  3.623605E+04  1.282094E+04
       119   5 -4.951181E+04 -2.071117E+03  2.450689E+04 -8.370262E+03  2.373426E+04  1.188852E+04
       119   6 -4.621282E+04 -8.841049E+02  1.447408E+04 -2.129588E+04  1.123208E+04  1.021432E+04
       119   7  3.283188E+05  1.087949E+05  1.363675E+05 -2.615543E+04  3.592999E+04  1.282000E+04
       119   8  2.853920E+05  8.075066E+04  1.037636E+05 -9.556188E+03  2.299400E+04  1.188785E+04
       119   9  2.491317E+05  7.217713E+04  8.447046E+04 -1.881344E+04  1.005843E+04  1.021395E+04
       119  10 -4.206264E+05 -7.651875E+04 -4.127052E+04 -1.645136E+04 -1.995650E-09  5.386579E-12
       119  11 -3.843133E+05 -8.490125E+04 -5.475899E+04 -7.185219E+03  3.198998E-10 -2.695493E-10
       119  12 -3.414774E+05 -7.395174E+04 -5.552885E+04 -2.377724E+04 -1.682608E-09 -2.142557E-10
       119  13 -4.621894E+04  1.614281E+04  4.755198E+04 -2.130210E+04  1.072974E-09 -4.090836E-10
       119  14 -4.951246E+04 -2.071420E+03  2.450557E+04 -8.370490E+03 -1.034538E-09 -3.998158E-10
       119  15 -4.621298E+04 -8.842508E+02  1.447364E+04 -2.129598E+04  1.222009E-09 -4.307443E-11
       119  16  3.283174E+05  1.087944E+05  1.363647E+05 -2.615580E+04  9.552307E-10 -7.435181E-10
       119  17  2.853914E+05  8.075037E+04  1.037623E+05 -9.556408E+03 -1.606404E-10 -6.537724E-10
       119  18  2.491315E+05  7.217699E+04  8.447007E+04 -1.881353E+04 -5.859121E-10  1.881125E-10
       119  19 -4.206249E+05 -7.651822E+04 -4.126770E+04 -1.645098E+04 -3.654191E+04 -1.282188E+04
       119  20 -3.843126E+05 -8.490094E+04 -5.475760E+04 -7.184985E+03 -2.447412E+04 -1.188918E+04
       119  21 -3.414772E+05 -7.395158E+04 -5.552836E+04 -2.377714E+04 -1.240516E+04 -1.021467E+04
       119  22 -4.621749E+04  1.614334E+04  4.755476E+04 -2.130173E+04 -3.623605E+04 -1.282094E+04
       119  23 -4.951181E+04 -2.071117E+03  2.450689E+04 -8.370262E+03 -2.373426E+04 -1.188852E+04
       119  24 -4.621282E+04 -8.841049E+02  1.447408E+04 -2.129588E+04 -1.123208E+04 -1.021432E+04
       119  25  3.283188E+05  1.087949E+05  1.363675E+05 -2.615543E+04 -3.592999E+04 -1.282000E+04
       119  26  2.853920E+05  8.075066E+04  1.037636E+05 -9.556188E+03 -2.299400E+04 -1.188785E+04
       119  27  2.491317E+05  7.217713E+04  8.447046E+04 -1.881344E+04 -1.005843E+04 -1.021395E+04
       120   1 -2.964802E+05 -6.010724E+04 -4.757886E+04 -2.102216E+04  9.910142E+03  9.109606E+03
       120   2 -2.573162E+05 -5.202533E+04 -4.336104E+04 -8.333859E+03  6.834113E+03  7.434197E+03
       120   3 -2.172559E+05 -4.209810E+04 -3.667152E+04 -2.155385E+04  3.757170E+03  5.711373E+03
       120   4 -4.747152E+04  1.474319E+03  1.126946E+04 -2.130867E+04  8.961387E+03  9.109372E+03
       120   5 -4.791908E+04 -2.242597E+02  6.209357E+03 -8.354861E+03  5.856883E+03  7.434143E+03
       120   6 -4.746799E+04 -7.308460E+01  3.639854E+03 -2.130878E+04  2.751658E+03  5.711510E+03
       120   7  2.015942E+05  6.305144E+04  7.011348E+04 -2.159529E+04  8.012253E+03  9.109139E+03
       120   8  1.615183E+05  5.157367E+04  5.577671E+04 -8.375868E+03  4.879325E+03  7.434090E+03
       120   9  1.223464E+05  4.194985E+04  4.394922E+04 -2.106364E+04  1.745873E+03  5.711645E+03
       120  10 -2.964803E+05 -6.010736E+04 -4.757920E+04 -2.102223E+04 -9.171305E-10  1.487030E-10
       120  11 -2.573162E+05 -5.202540E+04 -4.336123E+04 -8.333900E+03  1.111340E-09  1.381603E-10
       120  12 -2.172559E+05 -4.209813E+04 -3.667161E+04 -2.155387E+04  5.955402E-10 -1.228739E-10
       120  13 -4.747163E+04  1.474209E+03  1.126915E+04 -2.130873E+04 -1.076965E-09  7.755546E-11
       120  14 -4.791913E+04 -2.243282E+02  6.209188E+03 -8.354896E+03 -1.949021E-11 -1.949167E-10
       120  15 -4.746801E+04 -7.312167E+01  3.639778E+03 -2.130879E+04  1.206236E-09 -9.342752E-11
       120  16  2.015941E+05  6.305133E+04  7.011320E+04 -2.159535E+04 -2.039047E-10  2.010399E-11
       120  17  1.615183E+05  5.157360E+04  5.577656E+04 -8.375897E+03 -1.121199E-09 -4.164680E-10
       120  18  1.223464E+05  4.194982E+04  4.394915E+04 -2.106365E+04  7.944077E-10  3.080534E-10
       120  19 -2.964802E+05 -6.010724E+04 -4.757886E+04 -2.102216E+04 -9.910142E+03 -9.109606E+03
       120  20 -2.573162E+05 -5.202533E+04 -4.336104E+04 -8.333859E+03 -6.834113E+03 -7.434197E+03
       120  21 -2.172559E+05 -4.209810E+04 -3.667152E+04 -2.155385E+04 -3.757170E+03 -5.711373E+03
       120  22 -4.747152E+04  1.474319E+03  1.126946E+04 -2.130867E+04 -8.961387E+03 -9.109372E+03
       120  23 -4.791908E+04 -2.242597E+02  6.209357E+03 -8.354861E+03 -5.856883E+03 -7.434143E+03
       120  24 -4.746799E+04 -7.308460E+01  3.639854E+03 -2.130878E+04 -2.751658E+03 -5.711510E+03
       120  25  2.015942E+05  6.305144E+04  7.011348E+04 -2.159529E+04 -8.012253E+03 -9.109139E+03
       120  26  1.615183E+05  5.157367E+04  5.577671E+04 -8.375868E+03 -4.879325E+03 -7.434090E+03
       120  27  1.223464E+05  4.194985E+04  4.394922E+04 -2.106364E+04 -1.745873E+03 -5.711645E+03
       121   1 -1.711229E+05 -3.039104E+04 -2.630037E+04 -2.130546E+04  3.163530E+03  4.700034E+03
       121   2 -1.315541E+05 -2.076483E+04 -1.817835E+04 -8.357006E+03  2.336634E+03  2.976487E+03
       121   3 -9.184160E+04 -1.094894E+04 -9.473414E+03 -2.133127E+04  1.509409E+03  1.249906E+03
       121   4 -4.763237E+04  1.329479E+02  2.813293E+03 -2.131200E+04  2.171958E+03  4.700252E+03
       121   5 -4.770296E+04 -2.316107E+01  1.670136E+03 -8.350767E+03  1.343136E+03  2.976775E+03
       121   6 -4.763092E+04  1.080731E+01  1.111201E+03 -2.131204E+04  5.140367E+02  1.250270E+03
       121   7  7.587214E+04  3.065584E+04  3.192591E+04 -2.131853E+04  1.180190E+03  4.700470E+03
       121   8  3.615468E+04  2.071800E+04  2.151814E+04 -8.344527E+03  3.495037E+02  2.977062E+03
       121   9 -3.418435E+03  1.097041E+04  1.169568E+04 -2.129281E+04 -4.814067E+02  1.250634E+03
       121  10 -1.711229E+05 -3.039106E+04 -2.630043E+04 -2.130548E+04 -5.306086E-10 -1.479220E-10
       121  11 -1.315541E+05 -2.076484E+04 -1.817838E+04 -8.357011E+03  3.633881E-10  4.536856E-10
       121  12 -9.184161E+04 -1.094894E+04 -9.473421E+03 -2.133127E+04 -2.081104E-10  2.068019E-10
       121  13 -4.763238E+04  1.329229E+02  2.813243E+03 -2.131201E+04  1.096472E-09  3.481756E-10
       121  14 -4.770296E+04 -2.317107E+01  1.670116E+03 -8.350770E+03  1.029768E-09 -1.781452E-10
       121  15 -4.763092E+04  1.080556E+01  1.111197E+03 -2.131204E+04 -1.887887E-09 -3.780120E-10
       121  16  7.587213E+04  3.065582E+04  3.192586E+04 -2.131854E+04  2.803344E-11  2.445473E-11
       121  17  3.615468E+04  2.071799E+04  2.151812E+04 -8.344527E+03 -6.924976E-10 -1.865657E-10
       121  18 -3.418436E+03  1.097041E+04  1.169568E+04 -2.129281E+04  8.920767E-11 -7.653901E-10
       121  19 -1.711229E+05 -3.039104E+04 -2.630037E+04 -2.130546E+04 -3.163530E+03 -4.700034E+03
       121  20 -1.315541E+05 -2.076483E+04 -1.817835E+04 -8.357006E+03 -2.336634E+03 -2.976487E+03
       121  21 -9.184160E+04 -1.094894E+04 -9.473414E+03 -2.133127E+04 -1.509409E+03 -1.249906E+03
       121  22 -4.763237E+04  1.329479E+02  2.813293E+03 -2.131200E+04 -2.171958E+03 -4.700252E+03
       121  23 -4.770296E+04 -2.316107E+01  1.670136E+03 -8.350767E+03 -1.343136E+03 -2.976775E+03
       121  24 -4.763092E+04  1.080731E+01  1.111201E+03 -2.131204E+04 -5.140367E+02 -1.250270E+03
       121  25  7.587214E+04  3.065584E+04  3.192591E+04 -2.131853E+04 -1.180190E+03 -4.700470E+03
       121  26  3.615468E+04  2.071800E+04  2.151814E+04 -8.344527E+03 -3.495037E+02 -2.977062E+03
       121  27 -3.418435E+03  1.097041E+04  1.169568E+04 -2.129281E+04  4.814067E+02 -1.250634E+03
       122   1 -4.554167E+04  5.661024E+02  1.585723E+03 -2.131574E+04  1.321106E+03  2.439102E+02
       122   2 -5.924690E+03  1.032112E+04  1.077311E+04 -8.360909E+03  8.779158E+02 -1.482718E+03
       122   3  3.375295E+04  2.016136E+04  2.026573E+04 -2.133104E+04  4.348425E+02 -3.206683E+03
       122   4 -4.764886E+04  2.094533E+01  9.672426E+02 -2.131260E+04  3.257239E+02  2.442862E+02
       122   5 -4.767900E+04 -6.573343E+00  8.901518E+02 -8.350058E+03 -1.159387E+02 -1.482382E+03
       122   6 -4.764959E+04  5.113172E+01  1.117479E+03 -2.131259E+04 -5.574563E+02 -3.206380E+03
       122   7 -4.975604E+04 -5.242116E+02  3.487657E+02 -2.130946E+04 -6.696549E+02  2.446621E+02
       122   8 -8.943170E+04 -1.033439E+04 -8.992925E+03 -8.339208E+03 -1.109727E+03 -1.482045E+03
       122   9 -1.290460E+05 -2.005957E+04 -1.803123E+04 -2.129414E+04 -1.549626E+03 -3.206078E+03
       122  10 -4.554167E+04  5.661019E+02  1.585719E+03 -2.131574E+04 -2.071581E-09 -2.509760E-10
       122  11 -5.924692E+03  1.032111E+04  1.077311E+04 -8.360908E+03  4.584361E-10 -1.201840E-10
       122  12  3.375295E+04  2.016135E+04  2.026571E+04 -2.133104E+04  1.335952E-09  1.036777E-09
       122  13 -4.764886E+04  2.094524E+01  9.672423E+02 -2.131260E+04  1.828040E-11  5.054393E-11
       122  14 -4.767900E+04 -6.575706E+00  8.901476E+02 -8.350058E+03  5.129303E-10  2.526362E-10
       122  15 -4.764959E+04  5.112059E+01  1.117459E+03 -2.131259E+04 -5.609172E-10  3.676922E-10
       122  16 -4.975604E+04 -5.242118E+02  3.487648E+02 -2.130946E+04 -1.142383E-09 -5.293518E-10
       122  17 -8.943170E+04 -1.033439E+04 -8.992931E+03 -8.339210E+03 -1.611423E-09 -4.341075E-11
       122  18 -1.290460E+05 -2.005958E+04 -1.803125E+04 -2.129414E+04 -2.234969E-09  4.917315E-10
       122  19 -4.554167E+04  5.661024E+02  1.585723E+03 -2.131574E+04 -1.321106E+03 -2.439102E+02
       122  20 -5.924690E+03  1.032112E+04  1.077311E+04 -8.360909E+03 -8.779158E+02  1.482718E+03
       122  21  3.375295E+04  2.016136E+04  2.026573E+04 -2.133104E+04 -4.348425E+02  3.206683E+03
       122  22 -4.764886E+04  2.094533E+01  9.672426E+02 -2.131260E+04 -3.257239E+02 -2.442862E+02
       122  23 -4.767900E+04 -6.573343E+00  8.901518E+02 -8.350058E+03  1.159387E+02  1.482382E+03
       122  24 -4.764959E+04  5.113172E+01  1.117479E+03 -2.131259E+04  5.574563E+02  3.206380E+03
       122  25 -4.975604E+04 -5.242116E+02  3.487657E+02 -2.130946E+04  6.696549E+02 -2.446621E+02
       122  26 -8.943170E+04 -1.033439E+04 -8.992925E+03 -8.339208E+03  1.109727E+03  1.482045E+03
       122  27 -1.290460E+05 -2.005957E+04 -1.803123E+04 -2.129414E+04  1.549626E+03  3.206078E+03
       123   1  8.012045E+04  3.159754E+04  3.168824E+04 -2.125244E+04  2.263794E+02 -4.217557E+03
       123   2  1.196003E+05  4.131641E+04  4.172352E+04 -8.381668E+03 -8.569718E+02 -5.940699E+03
       123   3  1.593900E+05  5.165225E+04  5.262053E+04 -2.142055E+04 -1.939854E+03 -7.620038E+03
       123   4 -4.759796E+04 -1.493253E+01  1.340994E+03 -2.130929E+04 -7.789399E+02 -4.217311E+03
       123   5 -4.775117E+04 -7.389148E+01  2.115524E+03 -8.354213E+03 -1.836837E+03 -5.940607E+03
       123   6 -4.760088E+04  4.797618E+02  3.734238E+03 -2.130921E+04 -2.894196E+03 -7.620089E+03
       123   7 -1.753014E+05 -3.162857E+04 -2.900739E+04 -2.136613E+04 -1.784053E+03 -4.217066E+03
       123   8 -2.150769E+05 -4.146620E+04 -3.749441E+04 -8.326763E+03 -2.816439E+03 -5.940516E+03
       123   9 -2.545523E+05 -5.069579E+04 -4.515501E+04 -2.119790E+04 -3.848221E+03 -7.620141E+03
       123  10  8.012045E+04  3.159752E+04  3.168820E+04 -2.125244E+04  2.898086E-09  1.170458E-09
       123  11  1.196003E+05  4.131637E+04  4.172345E+04 -8.381672E+03  1.094478E-09 -4.319789E-10
       123  12  1.593900E+05  5.165218E+04  5.262042E+04 -2.142056E+04 -2.087050E-09  1.039779E-10
       123  13 -4.759797E+04 -1.495179E+01  1.340959E+03 -2.130929E+04 -1.299903E-11  5.755834E-10
       123  14 -4.775118E+04 -7.393029E+01  2.115451E+03 -8.354222E+03 -1.665831E-09 -4.312814E-10
       123  15 -4.760090E+04  4.796972E+02  3.734114E+03 -2.130923E+04  1.086480E-09 -4.802564E-11
       123  16 -1.753014E+05 -3.162859E+04 -2.900743E+04 -2.136614E+04 -7.115031E-10  9.756703E-10
       123  17 -2.150769E+05 -4.146624E+04 -3.749449E+04 -8.326777E+03  1.480286E-09 -1.924420E-11
       123  18 -2.545524E+05 -5.069586E+04 -4.515515E+04 -2.119793E+04  2.759214E-09 -3.717981E-10
       123  19  8.012045E+04  3.159754E+04  3.168824E+04 -2.125244E+04 -2.263794E+02  4.217557E+03
       123  20  1.196003E+05  4.131641E+04  4.172352E+04 -8.381668E+03  8.569718E+02  5.940699E+03
       123  21  1.593900E+05  5.165225E+04  5.262053E+04 -2.142055E+04  1.939854E+03  7.620038E+03
       123  22 -4.759796E+04 -1.493253E+01  1.340994E+03 -2.130929E+04  7.789399E+02  4.217311E+03
       123  23 -4.775117E+04 -7.389148E+01  2.115524E+03 -8.354213E+03  1.836837E+03  5.940607E+03
       123  24 -4.760088E+04  4.797618E+02  3.734238E+03 -2.130921E+04  2.894196E+03  7.620089E+03
       123  25 -1.753014E+05 -3.162857E+04 -2.900739E+04 -2.136613E+04  1.784053E+03  4.217066E+03
       123  26 -2.150769E+05 -4.146620E+04 -3.749441E+04 -8.326763E+03  2.816439E+03  5.940516E+03
       123  27 -2.545523E+05 -5.069579E+04 -4.515501E+04 -2.119790E+04  3.848221E+03  7.620141E+03
       124   1  2.060998E+05  6.237126E+04  6.481825E+04 -2.050508E+04 -2.483723E+03 -8.716551E+03
       124   2  2.445704E+05  7.173787E+04  7.734026E+04 -8.748605E+03 -6.977499E+03 -1.039170E+04
       124   3  2.853130E+05  8.751833E+04  9.440752E+04 -2.286076E+04 -1.147083E+04 -1.138248E+04
       124   4 -4.718446E+04 -2.896011E+02  4.772470E+03 -2.129993E+04 -3.645036E+03 -8.716722E+03
       124   5 -4.828842E+04 -6.884010E+02  8.031481E+03 -8.365805E+03 -7.742762E+03 -1.039212E+04
       124   6 -4.718935E+04  5.259743E+03  1.556240E+04 -2.130099E+04 -1.183976E+04 -1.138301E+04
       124   7 -3.004098E+05 -6.295506E+04 -5.527777E+04 -2.209446E+04 -4.805877E+03 -8.716890E+03
       124   8 -3.410684E+05 -7.312083E+04 -6.128324E+04 -7.983187E+03 -8.507666E+03 -1.039254E+04
       124   9 -3.795902E+05 -7.700679E+04 -6.329041E+04 -1.974206E+04 -1.220850E+04 -1.138355E+04
       124  10  2.060997E+05  6.237117E+04  6.481810E+04 -2.050510E+04 -1.378927E-10 -3.867116E-11
       124  11  2.445703E+05  7.173774E+04  7.733996E+04 -8.748664E+03 -1.795516E-09 -7.669201E-10
       124  12  2.853128E+05  8.751816E+04  9.440703E+04 -2.286086E+04 -1.959523E-09 -8.819789E-11
       124  13 -4.718449E+04 -2.896862E+02  4.772303E+03 -2.129996E+04  1.081165E-09 -1.660497E-10
       124  14 -4.828851E+04 -6.885331E+02  8.031165E+03 -8.365869E+03  9.927781E-12 -2.575776E-10
       124  15 -4.718954E+04  5.259566E+03  1.556190E+04 -2.130110E+04 -1.344520E-09  2.270586E-10
       124  16 -3.004098E+05 -6.295515E+04 -5.527796E+04 -2.209449E+04 -4.214966E-10 -3.573737E-10
       124  17 -3.410685E+05 -7.312096E+04 -6.128358E+04 -7.983258E+03 -9.547699E-10  1.564956E-10
       124  18 -3.795904E+05 -7.700696E+04 -6.329093E+04 -1.974218E+04  8.264976E-10  8.244227E-10
       124  19  2.060998E+05  6.237126E+04  6.481825E+04 -2.050508E+04  2.483723E+03  8.716551E+03
       124  20  2.445704E+05  7.173787E+04  7.734026E+04 -8.748605E+03  6.977499E+03  1.039170E+04
       124  21  2.853130E+05  8.751833E+04  9.440752E+04 -2.286076E+04  1.147083E+04  1.138248E+04
       124  22 -4.718446E+04 -2.896011E+02  4.772470E+03 -2.129993E+04  3.645036E+03  8.716722E+03
       124  23 -4.828842E+04 -6.884010E+02  8.031481E+03 -8.365805E+03  7.742762E+03  1.039212E+04
       124  24 -4.718935E+04  5.259743E+03  1.556240E+04 -2.130099E+04  1.183976E+04  1.138301E+04
       124  25 -3.004098E+05 -6.295506E+04 -5.527777E+04 -2.209446E+04  4.805877E+03  8.716890E+03
       124  26 -3.410684E+05 -7.312083E+04 -6.128324E+04 -7.983187E+03  8.507666E+03  1.039254E+04
       124  27 -3.795902E+05 -7.700679E+04 -6.329041E+04 -1.974206E+04  1.220850E+04  1.138355E+04
       125   1  3.353587E+05  9.061255E+04  1.086568E+05 -1.325318E+04 -1.113117E+04 -1.383710E+04
       125   2  3.650089E+05  9.662417E+04  1.298943E+05 -1.413916E+04 -3.400694E+04 -1.477642E+04
       125   3  4.147048E+05  1.701664E+05  1.829404E+05 -4.059356E+04 -5.689217E+04 -4.939486E+03
       125   4 -4.347049E+04 -3.047714E+03  1.915337E+04 -2.122163E+04 -1.476576E+04 -1.383885E+04
       125   5 -5.296235E+04 -6.733421E+03  3.095841E+04 -8.458413E+03 -3.142162E+04 -1.477588E+04
       125   6 -4.347566E+04  5.605595E+04  7.026718E+04 -2.126375E+04 -4.808534E+04 -4.934449E+03
       125   7 -4.221676E+05 -9.671802E+04 -7.035994E+04 -2.918519E+04 -1.839816E+04 -1.384050E+04
       125   8 -4.707730E+05 -1.101034E+05 -6.798957E+04 -2.781530E+03 -2.883802E+04 -1.477529E+04
       125   9 -5.014642E+05 -5.806869E+04 -4.242100E+04 -1.948261E+03 -3.928498E+04 -4.928863E+03
       125  10  3.353585E+05  9.061232E+04  1.086562E+05 -1.325330E+04 -2.321795E-09  3.343381E-10
       125  11  3.650076E+05  9.662362E+04  1.298917E+05 -1.413957E+04 -2.830744E-09  1.490600E-10
       125  12  4.147013E+05  1.701655E+05  1.829343E+05 -4.059379E+04  6.052660E-10  3.852919E-10
       125  13 -4.347077E+04 -3.047979E+03  1.915260E+04 -2.122179E+04 -4.249079E-09 -2.844160E-10
       125  14 -5.296346E+04 -6.733921E+03  3.095615E+04 -8.458787E+03 -1.531600E-09  3.019570E-11
       125  15 -4.347815E+04  5.605530E+04  7.026279E+04 -2.126395E+04 -8.118608E-10 -3.978625E-10
       125  16 -4.221681E+05 -9.671832E+04 -7.036094E+04 -2.918540E+04 -9.792451E-10  5.125651E-10
       125  17 -4.707739E+05 -1.101039E+05 -6.799155E+04 -2.781873E+03  1.162359E-09 -5.167341E-10
       125  18 -5.014658E+05 -5.806913E+04 -4.242395E+04 -1.948417E+03  1.963947E-09  5.156053E-10
       125  19  3.353587E+05  9.061255E+04  1.086568E+05 -1.325318E+04  1.113117E+04  1.383710E+04
       125  20  3.650089E+05  9.662417E+04  1.298943E+05 -1.413916E+04  3.400694E+04  1.477642E+04
       125  21  4.147048E+05  1.701664E+05  1.829404E+05 -4.059356E+04  5.689217E+04  4.939486E+03
       125  22 -4.347049E+04 -3.047714E+03  1.915337E+04 -2.122163E+04  1.476576E+04  1.383885E+04
       125  23 -5.296235E+04 -6.733421E+03  3.095841E+04 -8.458413E+03  3.142162E+04  1.477588E+04
       125  24 -4.347566E+04  5.605595E+04  7.026718E+04 -2.126375E+04  4.808534E+04  4.934449E+03
       125  25 -4.221676E+05 -9.671802E+04 -7.035994E+04 -2.918519E+04  1.839816E+04  1.384050E+04
       125  26 -4.707730E+05 -1.101034E+05 -6.798957E+04 -2.781530E+03  2.883802E+04  1.477529E+04
       125  27 -5.014642E+05 -5.806869E+04 -4.242100E+04 -1.948261E+03  3.928498E+04  4.928863E+03
       126   1  5.031054E+05  9.341031E+05  4.957143E+05 -2.347123E+05  1.994003E+04  3.569097E+04
       126   2  3.916612E+05  4.923893E+05  3.716001E+05 -9.287895E+04  5.581193E+04  7.959022E+03
       126   3  2.845500E+05  5.609054E+04  2.667396E+05 -2.360722E+05  4.072264E+04 -1.986886E+04
       126   4 -1.407464E+03 -1.089966E+06 -2.796984E+03 -2.327180E+05  2.000891E+04  3.478550E+02
       126   5  1.711373E+02 -1.089884E+06 -3.135074E+03 -9.017969E+04  5.583667E+04  2.010212E+03
       126   6  9.972499E+02 -1.089657E+06 -4.605620E+03 -2.327134E+05  4.064566E+04  3.557111E+03
       126   7 -5.062250E+05 -3.110305E+06 -5.016064E+05 -2.307278E+05  2.007769E+04 -3.488032E+04
       126   8 -3.914989E+05 -2.669856E+06 -3.780442E+05 -8.748573E+04  5.586140E+04 -3.923529E+03
       126   9 -2.826496E+05 -2.234196E+06 -2.760400E+05 -2.293596E+05  4.056886E+04  2.694007E+04
       126  10  5.031046E+05  9.341016E+05  4.957111E+05 -2.347129E+05 -4.256047E-10  1.081367E-08
       126  11  3.916579E+05  4.923884E+05  3.715941E+05 -9.287930E+04 -1.455438E-09 -4.199587E-09
       126  12  2.845481E+05  5.608968E+04  2.667357E+05 -2.360715E+05 -1.684343E-09 -1.538084E-08
       126  13 -1.407894E+03 -1.089966E+06 -2.797736E+03 -2.327180E+05 -5.105309E-10  7.348718E-10
       126  14  1.677899E+02 -1.089885E+06 -3.140937E+03 -9.017978E+04 -2.897445E-09  1.545996E-10
       126  15  9.954732E+02 -1.089657E+06 -4.608747E+03 -2.327135E+05  6.610431E-11  1.275059E-09
       126  16 -5.062257E+05 -3.110306E+06 -5.016094E+05 -2.307272E+05  1.268686E-09 -1.009024E-08
       126  17 -3.915022E+05 -2.669857E+06 -3.780501E+05 -8.748555E+04  3.791935E-10 -1.000346E-09
       126  18 -2.826515E+05 -2.234197E+06 -2.760445E+05 -2.293605E+05  1.504108E-09  1.448863E-08
       126  19  5.031054E+05  9.341031E+05  4.957143E+05 -2.347123E+05 -1.994003E+04 -3.569097E+04
       126  20  3.916612E+05  4.923893E+05  3.716001E+05 -9.287895E+04 -5.581193E+04 -7.959022E+03
       126  21  2.845500E+05  5.609054E+04  2.667396E+05 -2.360722E+05 -4.072264E+04  1.986886E+04
       126  22 -1.407464E+03 -1.089966E+06 -2.796984E+03 -2.327180E+05 -2.000891E+04 -3.478550E+02
       126  23  1.711373E+02 -1.089884E+06 -3.135074E+03 -9.017969E+04 -5.583667E+04 -2.010212E+03
       126  24  9.972499E+02 -1.089657E+06 -4.605620E+03 -2.327134E+05 -4.064566E+04 -3.557111E+03
       126  25 -5.062250E+05 -3.110305E+06 -5.016064E+05 -2.307278E+05 -2.007769E+04  3.488032E+04
       126  26 -3.914989E+05 -2.669856E+06 -3.780442E+05 -8.748573E+04 -5.586140E+04  3.923529E+03
       126  27 -2.826496E+05 -2.234196E+06 -2.760400E+05 -2.293596E+05 -4.056886E+04 -2.694007E+04
       127   1  1.575237E+05 -4.607441E+05  1.432606E+05 -2.341131E+05  2.224907E+04 -4.404404E+03
       127   2  4.813082E+04 -8.999856E+05  3.482243E+04 -9.017877E+04  6.682912E+03  2.215416E+02
       127   3 -6.740041E+04 -1.343665E+06 -7.873105E+04 -2.348694E+05 -9.427861E+03  4.836169E+03
       127   4  1.627928E+03 -1.090483E+06 -5.968041E+03 -2.334978E+05  2.221741E+04  4.386786E+03
       127   5  1.536983E+03 -1.088133E+06 -9.760979E+03 -8.919452E+04  6.648848E+03  9.322382E+03
       127   6 -4.732769E+03 -1.090451E+06 -1.887160E+04 -2.335220E+05 -9.464991E+03  1.424992E+04
       127   7 -1.542964E+05 -1.719856E+06 -1.552240E+05 -2.328828E+05  2.218575E+04  1.316910E+04
       127   8 -4.505935E+04 -1.276247E+06 -5.434654E+04 -8.821055E+04  6.614807E+03  1.842047E+04
       127   9  5.793032E+04 -8.371786E+05  4.098374E+04 -2.321741E+05 -9.502073E+03  2.366749E+04
       127  10  1.575232E+05 -4.607442E+05  1.432597E+05 -2.341130E+05  3.223729E-10 -3.056319E-09
       127  11  4.813077E+04 -8.999856E+05  3.482235E+04 -9.017877E+04  2.941485E-09 -7.210915E-09
       127  12 -6.740051E+04 -1.343665E+06 -7.873126E+04 -2.348693E+05  4.411442E-10 -3.194119E-09
       127  13  1.627393E+03 -1.090483E+06 -5.969005E+03 -2.334979E+05  2.520961E-09  2.002940E-09
       127  14  1.536912E+03 -1.088133E+06 -9.761226E+03 -8.919457E+04  5.040369E-10  2.239916E-10
       127  15 -4.732920E+03 -1.090452E+06 -1.887215E+04 -2.335219E+05  1.262953E-09  1.413589E-09
       127  16 -1.542969E+05 -1.719857E+06 -1.552253E+05 -2.328831E+05  1.860424E-10  5.077023E-09
       127  17 -4.505949E+04 -1.276247E+06 -5.434727E+04 -8.821065E+04 -3.844577E-10 -4.671312E-10
       127  18  5.793008E+04 -8.371792E+05  4.098251E+04 -2.321739E+05  2.318921E-10  2.308822E-09
       127  19  1.575237E+05 -4.607441E+05  1.432606E+05 -2.341131E+05 -2.224907E+04  4.404404E+03
       127  20  4.813082E+04 -8.999856E+05  3.482243E+04 -9.017877E+04 -6.682912E+03 -2.215416E+02
       127  21 -6.740041E+04 -1.343665E+06 -7.873105E+04 -2.348694E+05  9.427861E+03 -4.836169E+03
       127  22  1.627928E+03 -1.090483E+06 -5.968041E+03 -2.334978E+05 -2.221741E+04 -4.386786E+03
       127  23  1.536983E+03 -1.088133E+06 -9.760979E+03 -8.919452E+04 -6.648848E+03 -9.322382E+03
       127  24 -4.732769E+03 -1.090451E+06 -1.887160E+04 -2.335220E+05  9.464991E+03 -1.424992E+04
       127  25 -1.542964E+05 -1.719856E+06 -1.552240E+05 -2.328828E+05 -2.218575E+04 -1.316910E+04
       127  26 -4.505935E+04 -1.276247E+06 -5.434654E+04 -8.821055E+04 -6.614807E+03 -1.842047E+04
       127  27  5.793032E+04 -8.371786E+05  4.098374E+04 -2.321741E+05  9.502073E+03 -2.366749E+04
       128   1 -1.854109E+05 -1.863925E+06 -2.057475E+05 -2.212049E+05 -2.679075E+04 -3.661796E+03
       128   2 -2.906873E+05 -2.289963E+06 -3.239688E+05 -9.427552E+04 -4.275025E+04  4.102956E+04
       128   3 -4.788517E+05 -2.743158E+06 -4.923021E+05 -2.537299E+05 -1.603124E+04  8.581186E+04
       128   4  5.318090E+03 -1.094660E+06 -2.313805E+04 -2.329412E+05 -2.686995E+04  1.769457E+04
       128   5  8.323576E+03 -1.083291E+06 -3.770374E+04 -8.985603E+04 -4.273462E+04  3.790720E+04
       128   6 -6.719532E+04 -1.094935E+06 -8.527860E+04 -2.331323E+05 -1.595518E+04  5.824353E+04
       128   7  1.960051E+05 -3.248490E+05  1.594319E+05 -2.446916E+05 -2.694990E+04  3.907731E+04
       128   8  3.072296E+05  1.247220E+05  2.484599E+05 -8.542678E+04 -4.271905E+04  3.477874E+04
       128   9  3.442600E+05  5.557691E+05  3.215465E+05 -2.124776E+05 -1.588107E+04  3.060168E+04
       128  10 -1.854116E+05 -1.863925E+06 -2.057489E+05 -2.212049E+05 -7.765524E-10 -1.750669E-09
       128  11 -2.906897E+05 -2.289965E+06 -3.239754E+05 -9.427410E+04 -7.846263E-10 -5.334256E-09
       128  12 -4.788539E+05 -2.743166E+06 -4.923165E+05 -2.537288E+05  5.525537E-12 -7.716776E-10
       128  13  5.317231E+03 -1.094660E+06 -2.314000E+04 -2.329408E+05 -7.951538E-10  1.859837E-09
       128  14  8.321230E+03 -1.083293E+06 -3.770987E+04 -8.985473E+04 -2.628572E-09 -9.892329E-11
       128  15 -6.719651E+04 -1.094939E+06 -8.528546E+04 -2.331315E+05 -2.259036E-11  8.038593E-10
       128  16  1.960039E+05 -3.248508E+05  1.594276E+05 -2.446908E+05  1.306968E-10  3.691375E-09
       128  17  3.072273E+05  1.247202E+05  2.484542E+05 -8.542558E+04 -3.157408E-09 -9.078523E-10
       128  18  3.442595E+05  5.557680E+05  3.215443E+05 -2.124772E+05 -9.466065E-10  1.349184E-10
       128  19 -1.854109E+05 -1.863925E+06 -2.057475E+05 -2.212049E+05  2.679075E+04  3.661796E+03
       128  20 -2.906873E+05 -2.289963E+06 -3.239688E+05 -9.427552E+04  4.275025E+04 -4.102956E+04
       128  21 -4.788517E+05 -2.743158E+06 -4.923021E+05 -2.537299E+05  1.603124E+04 -8.581186E+04
       128  22  5.318090E+03 -1.094660E+06 -2.313805E+04 -2.329412E+05  2.686995E+04 -1.769457E+04
       128  23  8.323576E+03 -1.083291E+06 -3.770374E+04 -8.985603E+04  4.273462E+04 -3.790720E+04
       128  24 -6.719532E+04 -1.094935E+06 -8.527860E+04 -2.331323E+05  1.595518E+04 -5.824353E+04
       128  25  1.960051E+05 -3.248490E+05  1.594319E+05 -2.446916E+05  2.694990E+04 -3.907731E+04
       128  26  3.072296E+05  1.247220E+05  2.484599E+05 -8.542678E+04  4.271905E+04 -3.477874E+04
       128  27  3.442600E+05  5.557691E+05  3.215465E+05 -2.124776E+05  1.588107E+04 -3.060168E+04
       129   1 -2.109847E+06 -5.659605E+05 -2.912849E+05 -7.647687E+05 -1.330781E+05 -4.553738E+04
       129   2 -2.068642E+06 -3.653492E+05 -1.666166E+05 -7.730254E+05 -8.638334E+04 -1.885885E+04
       129   3 -2.087177E+06 -3.523976E+05 -1.269568E+05 -7.505577E+05 -3.640853E+04 -8.927938E+02
       129   4 -1.797239E+06 -4.005400E+05 -1.970041E+05 -6.310693E+05 -1.264837E+05 -4.306939E+04
       129   5 -1.757487E+06 -2.344536E+05 -8.261744E+04 -6.737543E+05 -8.445528E+04 -1.813678E+04
       129   6 -1.776514E+06 -2.550508E+05 -4.950049E+04 -6.857257E+05 -3.914802E+04 -1.921316E+03
       129   7 -1.484531E+06 -2.350821E+05 -1.027327E+05 -4.972997E+05 -1.198856E+05 -4.059876E+04
       129   8 -1.446236E+06 -1.035449E+05  1.373087E+03 -5.744357E+05 -8.252614E+04 -1.741420E+04
       129   9 -1.465755E+06 -1.577041E+05  2.794894E+04 -6.208673E+05 -4.188903E+04 -2.950190E+03
       129  10 -2.109867E+06 -5.659675E+05 -2.913222E+05 -7.647736E+05 -1.737084E-09  1.283809E-10
       129  11 -2.068650E+06 -3.653516E+05 -1.666313E+05 -7.730267E+05  2.570312E-10  8.341046E-10
       129  12 -2.087178E+06 -3.523980E+05 -1.269593E+05 -7.505577E+05 -4.999550E-10  2.011861E-10
       129  13 -1.797257E+06 -4.005463E+05 -1.970377E+05 -6.310736E+05 -2.507626E-10  3.630881E-10
       129  14 -1.757494E+06 -2.344558E+05 -8.263151E+04 -6.737556E+05  1.934291E-09  2.545212E-11
       129  15 -1.776515E+06 -2.550512E+05 -4.950339E+04 -6.857258E+05  1.226499E-10 -1.980534E-10
       129  16 -1.484547E+06 -2.350877E+05 -1.027629E+05 -4.973036E+05 -4.278623E-10  8.248086E-10
       129  17 -1.446244E+06 -1.035470E+05  1.359684E+03 -5.744369E+05  8.971579E-10  3.468689E-10
       129  18 -1.465757E+06 -1.577046E+05  2.794561E+04 -6.208674E+05 -4.526595E-10  5.553583E-10
       129  19 -2.109847E+06 -5.659605E+05 -2.912849E+05 -7.647687E+05  1.330781E+05  4.553738E+04
       129  20 -2.068642E+06 -3.653492E+05 -1.666166E+05 -7.730254E+05  8.638334E+04  1.885885E+04
       129  21 -2.087177E+06 -3.523976E+05 -1.269568E+05 -7.505577E+05  3.640853E+04  8.927938E+02
       129  22 -1.797239E+06 -4.005400E+05 -1.970041E+05 -6.310693E+05  1.264837E+05  4.306939E+04
       129  23 -1.757487E+06 -2.344536E+05 -8.261744E+04 -6.737543E+05  8.445528E+04  1.813678E+04
       129  24 -1.776514E+06 -2.550508E+05 -4.950049E+04 -6.857257E+05  3.914802E+04  1.921316E+03
       129  25 -1.484531E+06 -2.350821E+05 -1.027327E+05 -4.972997E+05  1.198856E+05  4.059876E+04
       129  26 -1.446236E+06 -1.035449E+05  1.373087E+03 -5.744357E+05  8.252614E+04  1.741420E+04
       129  27 -1.465755E+06 -1.577041E+05  2.794894E+04 -6.208673E+05  4.188903E+04  2.950190E+03
       130   1 -2.030333E+06 -3.772566E+05 -1.092248E+05 -7.500830E+05 -3.136339E+04 -1.166923E+03
       130   2 -2.007292E+06 -3.416658E+05 -8.128764E+04 -7.369618E+05 -2.070953E+04  2.137568E+03
       130   3 -1.978344E+06 -3.375966E+05 -6.592496E+04 -7.353745E+05 -9.817533E+03  4.807678E+03
       130   4 -1.769856E+06 -2.750753E+05 -4.012701E+04 -6.746279E+05 -3.152989E+04 -1.230042E+03
       130   5 -1.771807E+06 -2.520826E+05 -1.948850E+04 -6.715852E+05 -2.121304E+04  1.948197E+03
       130   6 -1.767783E+06 -2.605395E+05 -1.115247E+04 -6.800766E+05 -1.065857E+04  4.491865E+03
       130   7 -1.509313E+06 -1.728882E+05  2.896489E+04 -5.991435E+05 -3.169647E+04 -1.293191E+03
       130   8 -1.536270E+06 -1.624957E+05  4.230580E+04 -6.061860E+05 -2.171676E+04  1.758745E+03
       130   9 -1.557179E+06 -1.834805E+05  4.361613E+04 -6.247621E+05 -1.149992E+04  4.175943E+03
       130  10 -2.030335E+06 -3.772569E+05 -1.092267E+05 -7.500830E+05 -3.458586E-10 -2.009994E-10
       130  11 -2.007292E+06 -3.416660E+05 -8.128846E+04 -7.369618E+05  1.090061E-09  7.803248E-10
       130  12 -1.978344E+06 -3.375966E+05 -6.592518E+04 -7.353745E+05 -7.576921E-10 -4.684885E-10
       130  13 -1.769858E+06 -2.750756E+05 -4.012888E+04 -6.746279E+05  1.104833E-09  2.382601E-10
       130  14 -1.771808E+06 -2.520827E+05 -1.948935E+04 -6.715851E+05  5.001736E-10  2.222885E-10
       130  15 -1.767783E+06 -2.605395E+05 -1.115272E+04 -6.800766E+05 -3.594226E-09 -9.752595E-10
       130  16 -1.509315E+06 -1.728884E+05  2.896300E+04 -5.991436E+05  2.415129E-09  6.639587E-10
       130  17 -1.536270E+06 -1.624958E+05  4.230491E+04 -6.061860E+05 -6.117054E-10  8.134040E-12
       130  18 -1.557179E+06 -1.834805E+05  4.361585E+04 -6.247621E+05  2.033218E-11 -1.757064E-09
       130  19 -2.030333E+06 -3.772566E+05 -1.092248E+05 -7.500830E+05  3.136339E+04  1.166923E+03
       130  20 -2.007292E+06 -3.416658E+05 -8.128764E+04 -7.369618E+05  2.070953E+04 -2.137568E+03
       130  21 -1.978344E+06 -3.375966E+05 -6.592496E+04 -7.353745E+05  9.817533E+03 -4.807678E+03
       130  22 -1.769856E+06 -2.750753E+05 -4.012701E+04 -6.746279E+05  3.152989E+04  1.230042E+03
       130  23 -1.771807E+06 -2.520826E+05 -1.948850E+04 -6.715852E+05  2.121304E+04 -1.948197E+03
       130  24 -1.767783E+06 -2.605395E+05 -1.115247E+04 -6.800766E+05  1.065857E+04 -4.491865E+03
       130  25 -1.509313E+06 -1.728882E+05  2.896489E+04 -5.991435E+05  3.169647E+04  1.293191E+03
       130  26 -1.536270E+06 -1.624957E+05  4.230580E+04 -6.061860E+05  2.171676E+04 -1.758745E+03
       130  27 -1.557179E+06 -1.834805E+05  4.361613E+04 -6.247621E+05  1.149992E+04 -4.175943E+03
       131   1 -1.940424E+06 -3.281318E+05 -5.404595E+04 -7.267557E+05 -8.079515E+03  4.501508E+03
       131   2 -1.918587E+06 -3.082380E+05 -4.252176E+04 -7.107782E+05 -5.246555E+03  4.110020E+03
       131   3 -1.883108E+06 -3.047258E+05 -3.322874E+04 -7.111345E+05 -2.390633E+03  3.656524E+03
       131   4 -1.766845E+06 -2.626375E+05 -8.679014E+03 -6.790974E+05 -8.749819E+03  4.249845E+03
       131   5 -1.773565E+06 -2.537331E+05 -4.589575E+03 -6.711982E+05 -5.949566E+03  3.846203E+03
       131   6 -1.766638E+06 -2.612034E+05 -2.704902E+03 -6.796331E+05 -3.126480E+03  3.380516E+03
       131   7 -1.593237E+06 -1.971411E+05  3.668552E+04 -6.314269E+05 -9.420330E+03  3.998103E+03
       131   8 -1.628522E+06 -1.992268E+05  3.334090E+04 -6.316098E+05 -6.652760E+03  3.582318E+03
       131   9 -1.650155E+06 -2.176801E+05  2.781779E+04 -6.481263E+05 -3.862477E+03  3.104452E+03
       131  10 -1.940424E+06 -3.281318E+05 -5.404611E+04 -7.267557E+05 -1.621663E-09 -1.334036E-09
       131  11 -1.918587E+06 -3.082381E+05 -4.252185E+04 -7.107781E+05  1.147290E-09  6.047465E-11
       131  12 -1.883108E+06 -3.047258E+05 -3.322877E+04 -7.111345E+05  9.768426E-10  7.075001E-10
       131  13 -1.766846E+06 -2.626376E+05 -8.679192E+03 -6.790974E+05  3.732566E-10 -1.101739E-09
       131  14 -1.773565E+06 -2.537331E+05 -4.589669E+03 -6.711982E+05  1.886819E-09  7.718852E-11
       131  15 -1.766638E+06 -2.612034E+05 -2.704941E+03 -6.796331E+05  9.346894E-11  5.877129E-10
       131  16 -1.593237E+06 -1.971412E+05  3.668533E+04 -6.314269E+05  2.706327E-09 -1.273479E-09
       131  17 -1.628522E+06 -1.992268E+05  3.334079E+04 -6.316098E+05  2.416085E-09  7.358505E-11
       131  18 -1.650155E+06 -2.176802E+05  2.781774E+04 -6.481263E+05 -3.634080E-10  4.963438E-10
       131  19 -1.940424E+06 -3.281318E+05 -5.404595E+04 -7.267557E+05  8.079515E+03 -4.501508E+03
       131  20 -1.918587E+06 -3.082380E+05 -4.252176E+04 -7.107782E+05  5.246555E+03 -4.110020E+03
       131  21 -1.883108E+06 -3.047258E+05 -3.322874E+04 -7.111345E+05  2.390633E+03 -3.656524E+03
       131  22 -1.766845E+06 -2.626375E+05 -8.679014E+03 -6.790974E+05  8.749819E+03 -4.249845E+03
       131  23 -1.773565E+06 -2.537331E+05 -4.589575E+03 -6.711982E+05  5.949566E+03 -3.846203E+03
       131  24 -1.766638E+06 -2.612034E+05 -2.704902E+03 -6.796331E+05  3.126480E+03 -3.380516E+03
       131  25 -1.593237E+06 -1.971411E+05  3.668552E+04 -6.314269E+05  9.420330E+03 -3.998103E+03
       131  26 -1.628522E+06 -1.992268E+05  3.334090E+04 -6.316098E+05  6.652760E+03 -3.582318E+03
       131  27 -1.650155E+06 -2.176801E+05  2.781779E+04 -6.481263E+05  3.862477E+03 -3.104452E+03
       132   1 -1.846084E+06 -2.913588E+05 -2.288899E+04 -7.013344E+05 -1.701257E+03  3.009677E+03
       132   2 -1.823951E+06 -2.726230E+05 -1.461367E+04 -6.847183E+05 -4.296394E+02  1.937819E+03
       132   3 -1.787021E+06 -2.690825E+05 -6.963145E+03 -6.852383E+05  8.457033E+02  8.556480E+02
       132   4 -1.766455E+06 -2.614685E+05 -2.173957E+03 -6.796126E+05 -2.428999E+03  2.736766E+03
       132   5 -1.773845E+06 -2.538140E+05 -1.512710E+03 -6.710658E+05 -1.162849E+03  1.662901E+03
       132   6 -1.766437E+06 -2.613537E+05 -1.471859E+03 -6.796552E+05  1.069831E+02  5.787125E+02
       132   7 -1.686819E+06 -2.315779E+05  1.854052E+04 -6.578884E+05 -3.156844E+03  2.463817E+03
       132   8 -1.723736E+06 -2.350050E+05  1.158800E+04 -6.574123E+05 -1.896121E+03  1.387959E+03
       132   9 -1.745853E+06 -2.536250E+05  4.019359E+03 -6.740720E+05 -6.317597E+02  3.017686E+02
       132  10 -1.846084E+06 -2.913588E+05 -2.288902E+04 -7.013344E+05 -2.610918E-09  7.387079E-10
       132  11 -1.823951E+06 -2.726230E+05 -1.461368E+04 -6.847183E+05 -7.851104E-10  1.466140E-10
       132  12 -1.787021E+06 -2.690825E+05 -6.963148E+03 -6.852383E+05 -1.747073E-09 -1.951081E-10
       132  13 -1.766455E+06 -2.614685E+05 -2.173982E+03 -6.796126E+05 -3.204284E-09  3.515676E-10
       132  14 -1.773845E+06 -2.538140E+05 -1.512717E+03 -6.710658E+05  1.097915E-09 -1.616541E-11
       132  15 -1.766437E+06 -2.613537E+05 -1.471860E+03 -6.796552E+05  3.168726E-10  2.483563E-10
       132  16 -1.686819E+06 -2.315779E+05  1.854049E+04 -6.578884E+05 -5.330646E-10  1.852937E-11
       132  17 -1.723736E+06 -2.350050E+05  1.158799E+04 -6.574123E+05 -7.991307E-10 -3.285600E-10
       132  18 -1.745853E+06 -2.536250E+05  4.019358E+03 -6.740720E+05 -2.884491E-10  6.963943E-10
       132  19 -1.846084E+06 -2.913588E+05 -2.288899E+04 -7.013344E+05  1.701257E+03 -3.009677E+03
       132  20 -1.823951E+06 -2.726230E+05 -1.461367E+04 -6.847183E+05  4.296394E+02 -1.937819E+03
       132  21 -1.787021E+06 -2.690825E+05 -6.963145E+03 -6.852383E+05 -8.457033E+02 -8.556480E+02
       132  22 -1.766455E+06 -2.614685E+05 -2.173957E+03 -6.796126E+05  2.428999E+03 -2.736766E+03
       132  23 -1.773845E+06 -2.538140E+05 -1.512710E+03 -6.710658E+05  1.162849E+03 -1.662901E+03
       132  24 -1.766437E+06 -2.613537E+05 -1.471859E+03 -6.796552E+05 -1.069831E+02 -5.787125E+02
       132  25 -1.686819E+06 -2.315779E+05  1.854052E+04 -6.578884E+05  3.156844E+03 -2.463817E+03
       132  26 -1.723736E+06 -2.350050E+05  1.158800E+04 -6.574123E+05  1.896121E+03 -1.387959E+03
       132  27 -1.745853E+06 -2.536250E+05  4.019359E+03 -6.740720E+05  6.317597E+02 -3.017686E+02
       133   1 -1.749781E+06 -2.551150E+05  2.831716E+03 -6.751928E+05  1.401835E+03  1.516894E+02
       133   2 -1.727620E+06 -2.364652E+05  9.665453E+03 -6.584952E+05  3.115848E+03 -7.661180E+02
       133   3 -1.690784E+06 -2.331979E+05  1.549937E+04 -6.589125E+05  4.826303E+03 -1.673854E+03
       133   4 -1.766457E+06 -2.613388E+05 -1.630475E+03 -6.796719E+05  6.630326E+02 -1.252760E+02
       133   5 -1.773815E+06 -2.537859E+05 -2.408249E+03 -6.710625E+05  2.382343E+03 -1.041144E+03
       133   6 -1.766497E+06 -2.616168E+05 -4.189923E+03 -6.795685E+05  4.098029E+03 -1.946960E+03
       133   7 -1.783132E+06 -2.675626E+05 -6.092720E+03 -6.841510E+05 -7.575349E+01 -4.022352E+02
       133   8 -1.820007E+06 -2.711067E+05 -1.448220E+04 -6.836291E+05  1.648893E+03 -1.316149E+03
       133   9 -1.842206E+06 -2.900354E+05 -2.387978E+04 -7.002222E+05  3.369850E+03 -2.220030E+03
       133  10 -1.749781E+06 -2.551150E+05  2.831712E+03 -6.751928E+05 -6.387956E-10  3.906418E-10
       133  11 -1.727620E+06 -2.364652E+05  9.665434E+03 -6.584952E+05  4.046046E-09 -5.745448E-10
       133  12 -1.690784E+06 -2.331979E+05  1.549932E+04 -6.589125E+05 -2.706460E-10  5.593433E-11
       133  13 -1.766457E+06 -2.613388E+05 -1.630476E+03 -6.796719E+05 -5.599919E-10 -1.342812E-10
       133  14 -1.773815E+06 -2.537859E+05 -2.408261E+03 -6.710625E+05  1.431125E-09 -8.456552E-10
       133  15 -1.766497E+06 -2.616168E+05 -4.189962E+03 -6.795685E+05 -7.290150E-10  1.217233E-11
       133  16 -1.783132E+06 -2.675626E+05 -6.092721E+03 -6.841510E+05 -3.818084E-11  4.853404E-11
       133  17 -1.820007E+06 -2.711067E+05 -1.448221E+04 -6.836291E+05  1.141405E-09 -3.134613E-10
       133  18 -1.842206E+06 -2.900354E+05 -2.387981E+04 -7.002222E+05  2.741920E-11  3.002713E-10
       133  19 -1.749781E+06 -2.551150E+05  2.831716E+03 -6.751928E+05 -1.401835E+03 -1.516894E+02
       133  20 -1.727620E+06 -2.364652E+05  9.665453E+03 -6.584952E+05 -3.115848E+03  7.661180E+02
       133  21 -1.690784E+06 -2.331979E+05  1.549937E+04 -6.589125E+05 -4.826303E+03  1.673854E+03
       133  22 -1.766457E+06 -2.613388E+05 -1.630475E+03 -6.796719E+05 -6.630326E+02  1.252760E+02
       133  23 -1.773815E+06 -2.537859E+05 -2.408249E+03 -6.710625E+05 -2.382343E+03  1.041144E+03
       133  24 -1.766497E+06 -2.616168E+05 -4.189923E+03 -6.795685E+05 -4.098029E+03  1.946960E+03
       133  25 -1.783132E+06 -2.675626E+05 -6.092720E+03 -6.841510E+05  7.575349E+01  4.022352E+02
       133  26 -1.820007E+06 -2.711067E+05 -1.448220E+04 -6.836291E+05 -1.648893E+03  1.316149E+03
       133  27 -1.842206E+06 -2.900354E+05 -2.387978E+04 -7.002222E+05 -3.369850E+03  2.220030E+03
       134   1 -1.654038E+06 -2.192877E+05  2.406118E+04 -6.495135E+05  5.921457E+03 -2.168907E+03
       134   2 -1.632163E+06 -2.003768E+05  2.730578E+04 -6.326220E+05  1.125772E+04 -1.693439E+03
       134   3 -1.597701E+06 -1.998840E+05  2.593022E+04 -6.316749E+05  1.657167E+04 -1.156435E+03
       134   4 -1.766805E+06 -2.611533E+05 -5.440081E+03 -6.797366E+05  5.184645E+03 -2.445265E+03
       134   5 -1.773314E+06 -2.534653E+05 -9.615535E+03 -6.711941E+05  1.055279E+04 -1.957961E+03
       134   6 -1.767243E+06 -2.642028E+05 -1.843745E+04 -6.785967E+05  1.589841E+04 -1.409208E+03
       134   7 -1.879559E+06 -3.030180E+05 -3.494223E+04 -7.099546E+05  4.447984E+03 -2.721567E+03
       134   8 -1.914444E+06 -3.065525E+05 -4.653847E+04 -7.097583E+05  9.848046E+03 -2.222417E+03
       134   9 -1.936758E+06 -3.285197E+05 -6.280766E+04 -7.255069E+05  1.522535E+04 -1.661905E+03
       134  10 -1.654038E+06 -2.192878E+05  2.406110E+04 -6.495135E+05 -1.074309E-10  8.121808E-10
       134  11 -1.632163E+06 -2.003769E+05  2.730554E+04 -6.326219E+05 -3.894942E-09 -1.877587E-09
       134  12 -1.597701E+06 -1.998841E+05  2.592970E+04 -6.316749E+05 -7.660897E-09 -2.945208E-09
       134  13 -1.766805E+06 -2.611534E+05 -5.440142E+03 -6.797366E+05 -9.031717E-10  4.354157E-10
       134  14 -1.773314E+06 -2.534654E+05 -9.615752E+03 -6.711941E+05 -3.610458E-11 -2.869593E-10
       134  15 -1.767243E+06 -2.642028E+05 -1.843793E+04 -6.785966E+05 -6.210218E-10 -1.307488E-09
       134  16 -1.879559E+06 -3.030180E+05 -3.494229E+04 -7.099546E+05 -2.816331E-09 -4.165767E-12
       134  17 -1.914445E+06 -3.065526E+05 -4.653866E+04 -7.097583E+05 -1.962738E-09  5.965138E-10
       134  18 -1.936758E+06 -3.285198E+05 -6.280810E+04 -7.255069E+05  3.082726E-09  3.731274E-10
       134  19 -1.654038E+06 -2.192877E+05  2.406118E+04 -6.495135E+05 -5.921457E+03  2.168907E+03
       134  20 -1.632163E+06 -2.003768E+05  2.730578E+04 -6.326220E+05 -1.125772E+04  1.693439E+03
       134  21 -1.597701E+06 -1.998840E+05  2.593022E+04 -6.316749E+05 -1.657167E+04  1.156435E+03
       134  22 -1.766805E+06 -2.611533E+05 -5.440081E+03 -6.797366E+05 -5.184645E+03  2.445265E+03
       134  23 -1.773314E+06 -2.534653E+05 -9.615535E+03 -6.711941E+05 -1.055279E+04  1.957961E+03
       134  24 -1.767243E+06 -2.642028E+05 -1.843745E+04 -6.785967E+05 -1.589841E+04  1.409208E+03
       134  25 -1.879559E+06 -3.030180E+05 -3.494223E+04 -7.099546E+05 -4.447984E+03  2.721567E+03
       134  26 -1.914444E+06 -3.065525E+05 -4.653847E+04 -7.097583E+05 -9.848046E+03  2.222417E+03
       134  27 -1.936758E+06 -3.285197E+05 -6.280766E+04 -7.255069E+05 -1.522535E+04  1.661905E+03
       135   1 -1.560512E+06 -1.859786E+05  3.003593E+04 -6.285782E+05  2.044720E+04 -6.609510E+02
       135   2 -1.538814E+06 -1.605643E+05  1.925506E+04 -6.063030E+05  4.210892E+04  6.050444E+03
       135   3 -1.520030E+06 -1.866150E+05 -1.753977E+04 -5.907811E+05  6.353466E+04  1.339395E+04
       135   4 -1.769060E+06 -2.599267E+05 -2.375131E+04 -6.809215E+05  1.960378E+04 -9.775080E+02
       135   5 -1.769778E+06 -2.496704E+05 -4.157896E+04 -6.717289E+05  4.159734E+04  5.857916E+03
       135   6 -1.773483E+06 -2.909551E+05 -8.569198E+04 -6.692893E+05  6.335411E+04  1.332470E+04
       135   7 -1.977566E+06 -3.338730E+05 -7.754195E+04 -7.332492E+05  1.876068E+04 -1.293963E+03
       135   8 -2.000690E+06 -3.387724E+05 -1.024176E+05 -7.371325E+05  4.108597E+04  5.665469E+03
       135   9 -2.026873E+06 -3.952879E+05 -1.538501E+05 -7.477675E+05  6.317363E+04  1.325548E+04
       135  10 -1.560512E+06 -1.859787E+05  3.003514E+04 -6.285782E+05  2.596153E-09  5.201823E-10
       135  11 -1.538816E+06 -1.605648E+05  1.925165E+04 -6.063032E+05 -4.004529E-10  6.360491E-11
       135  12 -1.520034E+06 -1.866163E+05 -1.754771E+04 -5.907818E+05 -1.936708E-09  1.210939E-10
       135  13 -1.769061E+06 -2.599268E+05 -2.375204E+04 -6.809215E+05 -3.501070E-09 -1.681515E-09
       135  14 -1.769780E+06 -2.496709E+05 -4.158228E+04 -6.717291E+05 -3.256596E-11 -1.280022E-09
       135  15 -1.773487E+06 -2.909564E+05 -8.569988E+04 -6.692900E+05 -1.233371E-09  4.305445E-10
       135  16 -1.977566E+06 -3.338731E+05 -7.754262E+04 -7.332492E+05 -8.075269E-09 -3.738364E-09
       135  17 -2.000692E+06 -3.387729E+05 -1.024208E+05 -7.371326E+05 -2.592846E-09 -2.283960E-09
       135  18 -2.026878E+06 -3.952892E+05 -1.538580E+05 -7.477681E+05  1.607698E-09  1.203361E-09
       135  19 -1.560512E+06 -1.859786E+05  3.003593E+04 -6.285782E+05 -2.044720E+04  6.609510E+02
       135  20 -1.538814E+06 -1.605643E+05  1.925506E+04 -6.063030E+05 -4.210892E+04 -6.050444E+03
       135  21 -1.520030E+06 -1.866150E+05 -1.753977E+04 -5.907811E+05 -6.353466E+04 -1.339395E+04
       135  22 -1.769060E+06 -2.599267E+05 -2.375131E+04 -6.809215E+05 -1.960378E+04  9.775080E+02
       135  23 -1.769778E+06 -2.496704E+05 -4.157896E+04 -6.717289E+05 -4.159734E+04 -5.857916E+03
       135  24 -1.773483E+06 -2.909551E+05 -8.569198E+04 -6.692893E+05 -6.335411E+04 -1.332470E+04
       135  25 -1.977566E+06 -3.338730E+05 -7.754195E+04 -7.332492E+05 -1.876068E+04  1.293963E+03
       135  26 -2.000690E+06 -3.387724E+05 -1.024176E+05 -7.371325E+05 -4.108597E+04 -5.665469E+03
       135  27 -2.026873E+06 -3.952879E+05 -1.538501E+05 -7.477675E+05 -6.317363E+04 -1.325548E+04
       136   1 -1.464033E+06 -1.685087E+05 -2.917006E+04 -6.478053E+05  8.154610E+04  1.799368E+04
       136   2 -1.443134E+06 -7.048564E+04 -9.331085E+04 -5.644123E+05  1.733988E+05  5.172240E+04
       136   3 -1.561163E+06 -3.560475E+05 -3.273420E+05 -3.992468E+05  2.619926E+05  9.413599E+04
       136   4 -1.787392E+06 -2.485059E+05 -1.057214E+05 -6.933693E+05  7.880736E+04  1.697077E+04
       136   5 -1.739550E+06 -2.115801E+05 -1.764185E+05 -6.758927E+05  1.752799E+05  5.241890E+04
       136   6 -1.831643E+06 -5.592909E+05 -4.207406E+05 -5.766207E+05  2.684956E+05  9.652857E+04
       136   7 -2.110647E+06 -3.285063E+05 -1.822789E+05 -7.389183E+05  7.607019E+04  1.594799E+04
       136   8 -2.035875E+06 -3.526514E+05 -2.595337E+05 -7.873188E+05  1.771599E+05  5.311478E+04
       136   9 -2.102022E+06 -7.624359E+05 -5.141419E+05 -7.539010E+05  2.749954E+05  9.891727E+04
       136  10 -1.464040E+06 -1.685108E+05 -2.918321E+04 -6.478065E+05  6.003765E-10  1.208468E-09
       136  11 -1.443167E+06 -7.049662E+04 -9.337255E+04 -5.644195E+05  3.721247E-10  7.866510E-10
       136  12 -1.561239E+06 -3.560755E+05 -3.274880E+05 -3.992667E+05  2.987360E-10 -1.786364E-10
       136  13 -1.787399E+06 -2.485079E+05 -1.057336E+05 -6.933703E+05  1.372581E-09  6.404945E-10
       136  14 -1.739583E+06 -2.115913E+05 -1.764816E+05 -6.759001E+05  1.576219E-09 -5.627334E-11
       136  15 -1.831723E+06 -5.593204E+05 -4.208941E+05 -5.766416E+05  7.805061E-10  6.888957E-10
       136  16 -2.110653E+06 -3.285081E+05 -1.822903E+05 -7.389193E+05 -2.531747E-10  8.092304E-10
       136  17 -2.035910E+06 -3.526629E+05 -2.595982E+05 -7.873264E+05 -2.032297E-09  4.694360E-10
       136  18 -2.102106E+06 -7.624668E+05 -5.143030E+05 -7.539229E+05 -4.642456E-10  8.306431E-12
       136  19 -1.464033E+06 -1.685087E+05 -2.917006E+04 -6.478053E+05 -8.154610E+04 -1.799368E+04
       136  20 -1.443134E+06 -7.048564E+04 -9.331085E+04 -5.644123E+05 -1.733988E+05 -5.172240E+04
       136  21 -1.561163E+06 -3.560475E+05 -3.273420E+05 -3.992468E+05 -2.619926E+05 -9.413599E+04
       136  22 -1.787392E+06 -2.485059E+05 -1.057214E+05 -6.933693E+05 -7.880736E+04 -1.697077E+04
       136  23 -1.739550E+06 -2.115801E+05 -1.764185E+05 -6.758927E+05 -1.752799E+05 -5.241890E+04
       136  24 -1.831643E+06 -5.592909E+05 -4.207406E+05 -5.766207E+05 -2.684956E+05 -9.652857E+04
       136  25 -2.110647E+06 -3.285063E+05 -1.822789E+05 -7.389183E+05 -7.607019E+04 -1.594799E+04
       136  26 -2.035875E+06 -3.526514E+05 -2.595337E+05 -7.873188E+05 -1.771599E+05 -5.311478E+04
       136  27 -2.102022E+06 -7.624359E+05 -5.141419E+05 -7.539010E+05 -2.749954E+05 -9.891727E+04
       137   1 -2.430942E+05 -8.679190E+03  1.406010E+04  1.244439E+04  6.588905E+04  4.092524E+03
       137   2 -2.249217E+05 -9.546542E+04 -3.453891E+04  2.016750E+03  4.566842E+04  1.220391E+04
       137   3 -1.789189E+05 -8.204674E+04 -4.488903E+04 -2.911587E+04  2.545300E+04  1.145120E+04
       137   4  1.341790E+05  8.527800E+04  1.068577E+05 -1.711957E+04  7.315291E+04  4.095168E+03
       137   5  1.198335E+05 -1.019733E+04  4.708676E+04 -6.734263E+03  4.781393E+04  1.220419E+04
       137   6  1.341880E+05 -4.611063E+03  2.910244E+04 -1.705242E+04  2.248139E+04  1.144994E+04
       137   7  5.115838E+05  1.792279E+05  1.996454E+05 -4.670155E+04  8.042116E+04  4.097119E+03
       137   8  4.646980E+05  7.506253E+04  1.287042E+05 -1.549018E+04  4.996062E+04  1.220440E+04
       137   9  4.473853E+05  7.281814E+04  1.030872E+05 -4.982855E+03  1.950829E+04  1.144856E+04
       137  10 -2.430989E+05 -8.680374E+03  1.405191E+04  1.244418E+04  1.156191E-09 -7.240829E-10
       137  11 -2.249239E+05 -9.546614E+04 -3.454311E+04  2.016301E+03  1.057742E-09  4.895419E-10
       137  12 -1.789196E+05 -8.204706E+04 -4.489050E+04 -2.911610E+04 -1.803928E-09  2.947209E-11
       137  13  1.341733E+05  8.527654E+04  1.068476E+05 -1.711981E+04 -1.032207E-09  5.836497E-10
       137  14  1.198310E+05 -1.019810E+04  4.708219E+04 -6.734733E+03  1.313939E-10  6.610753E-11
       137  15  1.341874E+05 -4.611340E+03  2.910124E+04 -1.705262E+04  4.594120E-10 -2.344192E-10
       137  16  5.115769E+05  1.792262E+05  1.996332E+05 -4.670181E+04 -1.573861E-09  4.912098E-10
       137  17  4.646953E+05  7.506170E+04  1.286993E+05 -1.549067E+04  2.669786E-09  2.564370E-12
       137  18  4.473849E+05  7.281790E+04  1.030863E+05 -4.983035E+03  1.594222E-09  1.103212E-09
       137  19 -2.430942E+05 -8.679190E+03  1.406010E+04  1.244439E+04 -6.588905E+04 -4.092524E+03
       137  20 -2.249217E+05 -9.546542E+04 -3.453891E+04  2.016750E+03 -4.566842E+04 -1.220391E+04
       137  21 -1.789189E+05 -8.204674E+04 -4.488903E+04 -2.911587E+04 -2.545300E+04 -1.145120E+04
       137  22  1.341790E+05  8.527800E+04  1.068577E+05 -1.711957E+04 -7.315291E+04 -4.095168E+03
       137  23  1.198335E+05 -1.019733E+04  4.708676E+04 -6.734263E+03 -4.781393E+04 -1.220419E+04
       137  24  1.341880E+05 -4.611063E+03  2.910244E+04 -1.705242E+04 -2.248139E+04 -1.144994E+04
       137  25  5.115838E+05  1.792279E+05  1.996454E+05 -4.670155E+04 -8.042116E+04 -4.097119E+03
       137  26  4.646980E+05  7.506253E+04  1.287042E+05 -1.549018E+04 -4.996062E+04 -1.220440E+04
       137  27  4.473853E+05  7.281814E+04  1.030872E+05 -4.982855E+03 -1.950829E+04 -1.144856E+04
       138   1 -1.472456E+05 -6.021660E+04 -4.177215E+04 -1.470193E+04  1.832147E+04  9.444798E+03
       138   2 -1.170147E+05 -6.136245E+04 -4.557081E+04 -6.117300E+03  1.244111E+04  8.658496E+03
       138   3 -8.355372E+04 -5.291868E+04 -4.312871E+04 -1.833948E+04  6.560072E+03  7.311714E+03
       138   4  1.285446E+05  8.022228E+03  2.363659E+04 -1.709620E+04  1.803661E+04  9.444340E+03
       138   5  1.269046E+05 -1.031736E+03  1.216319E+04 -6.691766E+03  1.183094E+04  8.658104E+03
       138   6  1.285488E+05 -4.418012E+02  7.154394E+03 -1.709354E+04  5.624897E+03  7.311456E+03
       138   7  4.044046E+05  7.625561E+04  8.904003E+04 -1.949154E+04  1.775162E+04  9.443883E+03
       138   8  3.708786E+05  5.929471E+04  6.989307E+04 -7.266461E+03  1.122053E+04  8.657713E+03
       138   9  3.406926E+05  5.203185E+04  5.743438E+04 -1.584717E+04  4.689404E+03  7.311193E+03
       138  10 -1.472459E+05 -6.021679E+04 -4.177294E+04 -1.470207E+04 -1.362323E-09 -2.711783E-10
       138  11 -1.170149E+05 -6.136257E+04 -4.557124E+04 -6.117387E+03 -1.419605E-09 -7.564719E-10
       138  12 -8.355378E+04 -5.291875E+04 -4.312889E+04 -1.833952E+04 -1.739289E-11 -4.860820E-10
       138  13  1.285442E+05  8.022045E+03  2.363581E+04 -1.709634E+04 -1.028412E-09  8.363353E-10
       138  14  1.269045E+05 -1.031854E+03  1.216279E+04 -6.691848E+03 -2.588525E-09 -4.086866E-11
       138  15  1.285487E+05 -4.418671E+02  7.154234E+03 -1.709357E+04 -3.549714E-09 -5.634633E-10
       138  16  4.044043E+05  7.625543E+04  8.903927E+04 -1.949168E+04 -2.597349E-10  9.495744E-10
       138  17  3.708785E+05  5.929459E+04  6.989269E+04 -7.266539E+03  1.521830E-09  3.758727E-10
       138  18  3.406926E+05  5.203179E+04  5.743423E+04 -1.584720E+04 -6.477006E-10 -2.878835E-10
       138  19 -1.472456E+05 -6.021660E+04 -4.177215E+04 -1.470193E+04 -1.832147E+04 -9.444798E+03
       138  20 -1.170147E+05 -6.136245E+04 -4.557081E+04 -6.117300E+03 -1.244111E+04 -8.658496E+03
       138  21 -8.355372E+04 -5.291868E+04 -4.312871E+04 -1.833948E+04 -6.560072E+03 -7.311714E+03
       138  22  1.285446E+05  8.022228E+03  2.363659E+04 -1.709620E+04 -1.803661E+04 -9.444340E+03
       138  23  1.269046E+05 -1.031736E+03  1.216319E+04 -6.691766E+03 -1.183094E+04 -8.658104E+03
       138  24  1.285488E+05 -4.418012E+02  7.154394E+03 -1.709354E+04 -5.624897E+03 -7.311456E+03
       138  25  4.044046E+05  7.625561E+04  8.904003E+04 -1.949154E+04 -1.775162E+04 -9.443883E+03
       138  26  3.708786E+05  5.929471E+04  6.989307E+04 -7.266461E+03 -1.122053E+04 -8.657713E+03
       138  27  3.406926E+05  5.203185E+04  5.743438E+04 -1.584717E+04 -4.689404E+03 -7.311193E+03
       139   1 -4.704650E+04 -4.252755E+04 -3.578354E+04 -1.695202E+04  5.269229E+03  6.429525E+03
       139   2 -1.550898E+04 -3.553049E+04 -3.090963E+04 -6.703841E+03  3.796822E+03  5.083727E+03
       139   3  1.646676E+04 -2.762184E+04 -2.484545E+04 -1.721772E+04  2.323990E+03  3.703312E+03
       139   4  1.279207E+05  7.304348E+02  5.545577E+03 -1.708442E+04  4.504905E+03  6.429362E+03
       139   5  1.277013E+05 -1.112026E+02  2.984468E+03 -6.703537E+03  3.012157E+03  5.083660E+03
       139   6  1.279229E+05 -3.768748E+01  1.627645E+03 -1.708441E+04  1.519059E+03  3.703347E+03
       139   7  3.029161E+05  4.398622E+04  4.687257E+04 -1.721686E+04  3.740367E+03  6.429199E+03
       139   8  2.709304E+05  3.530662E+04  3.687714E+04 -6.703233E+03  2.227312E+03  5.083593E+03
       139   9  2.393905E+05  2.754557E+04  2.809987E+04 -1.695108E+04  7.139850E+02  3.703382E+03
       139  10 -4.704654E+04 -4.252760E+04 -3.578367E+04 -1.695205E+04 -6.231893E-10  7.950193E-12
       139  11 -1.550900E+04 -3.553052E+04 -3.090970E+04 -6.703856E+03 -1.620394E-10  4.889019E-10
       139  12  1.646675E+04 -2.762186E+04 -2.484548E+04 -1.721773E+04 -2.393765E-10  7.250714E-10
       139  13  1.279207E+05  7.303849E+02  5.545461E+03 -1.708444E+04 -3.273872E-09 -2.336086E-10
       139  14  1.277013E+05 -1.112328E+02  2.984402E+03 -6.703549E+03 -2.691247E-09  5.031861E-11
       139  15  1.279229E+05 -3.770283E+01  1.627615E+03 -1.708441E+04  2.194772E-09  6.239450E-10
       139  16  3.029161E+05  4.398618E+04  4.687247E+04 -1.721688E+04 -5.523477E-10 -4.430305E-10
       139  17  2.709303E+05  3.530659E+04  3.687708E+04 -6.703242E+03  8.349387E-10 -3.358397E-10
       139  18  2.393905E+05  2.754556E+04  2.809984E+04 -1.695108E+04 -7.684125E-11  1.495839E-10
       139  19 -4.704650E+04 -4.252755E+04 -3.578354E+04 -1.695202E+04 -5.269229E+03 -6.429525E+03
       139  20 -1.550898E+04 -3.553049E+04 -3.090963E+04 -6.703841E+03 -3.796822E+03 -5.083727E+03
       139  21  1.646676E+04 -2.762184E+04 -2.484545E+04 -1.721772E+04 -2.323990E+03 -3.703312E+03
       139  22  1.279207E+05  7.304348E+02  5.545577E+03 -1.708442E+04 -4.504905E+03 -6.429362E+03
       139  23  1.277013E+05 -1.112026E+02  2.984468E+03 -6.703537E+03 -3.012157E+03 -5.083660E+03
       139  24  1.279229E+05 -3.768748E+01  1.627645E+03 -1.708441E+04 -1.519059E+03 -3.703347E+03
       139  25  3.029161E+05  4.398622E+04  4.687257E+04 -1.721686E+04 -3.740367E+03 -6.429199E+03
       139  26  2.709304E+05  3.530662E+04  3.687714E+04 -6.703233E+03 -2.227312E+03 -5.083593E+03
       139  27  2.393905E+05  2.754557E+04  2.809987E+04 -1.695108E+04 -7.139850E+02 -3.703382E+03
       140   1  5.344128E+04 -1.831454E+04 -1.635346E+04 -1.708862E+04  2.063053E+03  2.894068E+03
       140   2  8.513710E+04 -1.056248E+04 -9.689973E+03 -6.729299E+03  1.859972E+03  1.514759E+03
       140   3  1.168746E+05 -2.736363E+03 -2.876806E+03 -1.710812E+04  1.656765E+03  1.336081E+02
       140   4  1.278357E+05  6.518123E+01  1.157946E+03 -1.707914E+04  1.269112E+03  2.894145E+03
       140   5  1.278158E+05 -7.676301E+00  4.103215E+02 -6.710119E+03  1.064913E+03  1.514864E+03
       140   6  1.278364E+05 -6.350605E+00 -1.869541E+02 -1.707915E+04  8.605972E+02  1.337448E+02
       140   7  2.022352E+05  1.844450E+04  1.866898E+04 -1.706966E+04  4.750775E+02  2.894223E+03
       140   8  1.704962E+05  1.054699E+04  1.051049E+04 -6.690939E+03  2.697989E+02  1.514969E+03
       140   9  1.387982E+05  2.723653E+03  2.502891E+03 -1.705018E+04  6.441499E+01  1.338815E+02
       140  10  5.344127E+04 -1.831455E+04 -1.635349E+04 -1.708862E+04 -5.940641E-10  3.443656E-10
       140  11  8.513710E+04 -1.056248E+04 -9.689984E+03 -6.729301E+03  8.557739E-10  5.935062E-11
       140  12  1.168746E+05 -2.736364E+03 -2.876811E+03 -1.710812E+04 -3.594616E-09  1.192155E-09
       140  13  1.278357E+05  6.517180E+01  1.157927E+03 -1.707914E+04  2.122610E-12  2.207819E-10
       140  14  1.278158E+05 -7.679070E+00  4.103151E+02 -6.710121E+03  1.036181E-09  1.194437E-11
       140  15  1.278364E+05 -6.350823E+00 -1.869555E+02 -1.707915E+04  8.621519E-10  6.899891E-10
       140  16  2.022352E+05  1.844450E+04  1.866896E+04 -1.706966E+04 -4.439521E-10  7.617320E-11
       140  17  1.704962E+05  1.054699E+04  1.051049E+04 -6.690939E+03  9.585090E-10  7.267491E-11
       140  18  1.387982E+05  2.723653E+03  2.502891E+03 -1.705018E+04  3.541252E-09  6.815074E-10
       140  19  5.344128E+04 -1.831454E+04 -1.635346E+04 -1.708862E+04 -2.063053E+03 -2.894068E+03
       140  20  8.513710E+04 -1.056248E+04 -9.689973E+03 -6.729299E+03 -1.859972E+03 -1.514759E+03
       140  21  1.168746E+05 -2.736363E+03 -2.876806E+03 -1.710812E+04 -1.656765E+03 -1.336081E+02
       140  22  1.278357E+05  6.518123E+01  1.157946E+03 -1.707914E+04 -1.269112E+03 -2.894145E+03
       140  23  1.278158E+05 -7.676301E+00  4.103215E+02 -6.710119E+03 -1.064913E+03 -1.514864E+03
       140  24  1.278364E+05 -6.350605E+00 -1.869541E+02 -1.707915E+04 -8.605972E+02 -1.337448E+02
       140  25  2.022352E+05  1.844450E+04  1.866898E+04 -1.706966E+04 -4.750775E+02 -2.894223E+03
       140  26  1.704962E+05  1.054699E+04  1.051049E+04 -6.690939E+03 -2.697989E+02 -1.514969E+03
       140  27  1.387982E+05  2.723653E+03  2.502891E+03 -1.705018E+04 -6.441499E+01 -1.338815E+02
       141   1  1.538811E+05  6.484962E+03  5.775701E+03 -1.712461E+04  1.717962E+03 -6.708991E+02
       141   2  1.856637E+05  1.431804E+04  1.243088E+04 -6.745892E+03  2.336325E+03 -2.052126E+03
       141   3  2.173262E+05  2.200028E+04  1.864502E+04 -1.710695E+04  2.954871E+03 -3.431578E+03
       141   4  1.278003E+05  1.606083E+01 -4.920084E+02 -1.707955E+04  9.217125E+02 -6.707659E+02
       141   5  1.278605E+05  2.368101E+01 -1.247944E+03 -6.709615E+03  1.541020E+03 -2.052035E+03
       141   6  1.277996E+05 -1.196666E+02 -2.445571E+03 -1.707957E+04  2.160479E+03 -3.431525E+03
       141   7  1.017201E+05 -6.452890E+03 -6.759764E+03 -1.703450E+04  1.254960E+02 -6.706327E+02
       141   8  7.006041E+04 -1.427092E+04 -1.492699E+04 -6.673342E+03  7.457886E+02 -2.051944E+03
       141   9  3.828023E+04 -2.224018E+04 -2.353671E+04 -1.705220E+04  1.366202E+03 -3.431472E+03
       141  10  1.538811E+05  6.484961E+03  5.775694E+03 -1.712461E+04 -6.287095E-09  7.255897E-10
       141  11  1.856637E+05  1.431804E+04  1.243086E+04 -6.745888E+03  4.998872E-10 -1.645534E-09
       141  12  2.173262E+05  2.200026E+04  1.864498E+04 -1.710694E+04  6.192274E-09 -1.302227E-09
       141  13  1.278003E+05  1.606012E+01 -4.920109E+02 -1.707955E+04 -9.839187E-10  2.486728E-10
       141  14  1.278605E+05  2.367585E+01 -1.247957E+03 -6.709613E+03 -4.593855E-10 -1.456293E-09
       141  15  1.277995E+05 -1.196805E+02 -2.445601E+03 -1.707957E+04 -1.058208E-09 -1.189676E-09
       141  16  1.017201E+05 -6.452890E+03 -6.759764E+03 -1.703450E+04  7.356422E-09  3.511507E-10
       141  17  7.006041E+04 -1.427093E+04 -1.492700E+04 -6.673341E+03  3.490378E-11 -7.681290E-10
       141  18  3.828023E+04 -2.224019E+04 -2.353674E+04 -1.705220E+04 -7.510262E-09 -8.948441E-10
       141  19  1.538811E+05  6.484962E+03  5.775701E+03 -1.712461E+04 -1.717962E+03  6.708991E+02
       141  20  1.856637E+05  1.431804E+04  1.243088E+04 -6.745892E+03 -2.336325E+03  2.052126E+03
       141  21  2.173262E+05  2.200028E+04  1.864502E+04 -1.710695E+04 -2.954871E+03  3.431578E+03
       141  22  1.278003E+05  1.606083E+01 -4.920084E+02 -1.707955E+04 -9.217125E+02  6.707659E+02
       141  23  1.278605E+05  2.368101E+01 -1.247944E+03 -6.709615E+03 -1.541020E+03  2.052035E+03
       141  24  1.277996E+05 -1.196666E+02 -2.445571E+03 -1.707957E+04 -2.160479E+03  3.431525E+03
       141  25  1.017201E+05 -6.452890E+03 -6.759764E+03 -1.703450E+04 -1.254960E+02  6.706327E+02
       141  26  7.006041E+04 -1.427092E+04 -1.492699E+04 -6.673342E+03 -7.457886E+02  2.051944E+03
       141  27  3.828023E+04 -2.224018E+04 -2.353671E+04 -1.705220E+04 -1.366202E+03  3.431472E+03
       142   1  2.542548E+05  3.140244E+04  2.679820E+04 -1.735565E+04  3.477771E+03 -4.241053E+03
       142   2  2.864144E+05  3.935921E+04  3.175997E+04 -6.694246E+03  6.315968E+03 -5.621197E+03
       142   3  3.177997E+05  4.559984E+04  3.445028E+04 -1.680416E+04  9.154668E+03 -6.965063E+03
       142   4  1.276513E+05  7.651422E+01 -3.255506E+03 -1.708664E+04  2.671752E+03 -4.241049E+03
       142   5  1.280397E+05  1.965595E+02 -5.716406E+03 -6.700779E+03  5.530180E+03 -5.621306E+03
       142   6  1.276494E+05 -1.403164E+03 -1.046313E+04 -1.708658E+04  8.388968E+03 -6.965280E+03
       142   7  1.062638E+03 -3.125057E+04 -3.331033E+04 -1.681769E+04  1.865897E+03 -4.241045E+03
       142   8 -3.031200E+04 -3.896789E+04 -4.319452E+04 -6.707310E+03  4.744592E+03 -5.621415E+03
       142   9 -6.246762E+04 -4.840876E+04 -5.537903E+04 -1.736890E+04  7.623501E+03 -6.965497E+03
       142  10  2.542547E+05  3.140242E+04  2.679814E+04 -1.735564E+04 -1.149473E-09 -1.455853E-10
       142  11  2.864143E+05  3.935916E+04  3.175984E+04 -6.694217E+03 -8.410310E-10  1.039552E-09
       142  12  3.177996E+05  4.559977E+04  3.445003E+04 -1.680411E+04 -1.274376E-09  5.601747E-10
       142  13  1.276513E+05  7.649299E+01 -3.255554E+03 -1.708663E+04 -1.062304E-09 -8.098487E-11
       142  14  1.280396E+05  1.965174E+02 -5.716522E+03 -6.700754E+03 -1.658860E-09  1.029842E-09
       142  15  1.276493E+05 -1.403235E+03 -1.046335E+04 -1.708653E+04 -3.174809E-11  5.747834E-11
       142  16  1.062630E+03 -3.125059E+04 -3.331037E+04 -1.681768E+04 -4.023133E-10  3.078887E-12
       142  17 -3.031204E+04 -3.896793E+04 -4.319462E+04 -6.707288E+03  8.776649E-10  9.449313E-10
       142  18 -6.246770E+04 -4.840883E+04 -5.537923E+04 -1.736886E+04 -1.619522E-09 -2.411818E-10
       142  19  2.542548E+05  3.140244E+04  2.679820E+04 -1.735565E+04 -3.477771E+03  4.241053E+03
       142  20  2.864144E+05  3.935921E+04  3.175997E+04 -6.694246E+03 -6.315968E+03  5.621197E+03
       142  21  3.177997E+05  4.559984E+04  3.445028E+04 -1.680416E+04 -9.154668E+03  6.965063E+03
       142  22  1.276513E+05  7.651422E+01 -3.255506E+03 -1.708664E+04 -2.671752E+03  4.241049E+03
       142  23  1.280397E+05  1.965595E+02 -5.716406E+03 -6.700779E+03 -5.530180E+03  5.621306E+03
       142  24  1.276494E+05 -1.403164E+03 -1.046313E+04 -1.708658E+04 -8.388968E+03  6.965280E+03
       142  25  1.062638E+03 -3.125057E+04 -3.331033E+04 -1.681769E+04 -1.865897E+03  4.241045E+03
       142  26 -3.031200E+04 -3.896789E+04 -4.319452E+04 -6.707310E+03 -4.744592E+03  5.621415E+03
       142  27 -6.246762E+04 -4.840876E+04 -5.537903E+04 -1.736890E+04 -7.623501E+03  6.965497E+03
       143   1  3.538119E+05  5.702591E+04  4.041529E+04 -1.937332E+04  1.144231E+04 -7.849272E+03
       143   2  3.886377E+05  6.596844E+04  3.848334E+04 -5.460968E+03  2.276242E+04 -9.188007E+03
       143   3  4.175599E+05  5.687712E+04  2.469338E+04 -1.235234E+04  3.408355E+04 -9.940758E+03
       143   4  1.264924E+05  8.015838E+02 -1.345483E+04 -1.709559E+04  1.049805E+04 -7.849569E+03
       143   5  1.294745E+05  1.885873E+03 -2.284081E+04 -6.690399E+03  2.215139E+04 -9.188490E+03
       143   6  1.264908E+05 -1.512600E+04 -4.432000E+04 -1.708972E+04  3.380518E+04 -9.941444E+03
       143   7 -1.007797E+05 -5.542643E+04 -6.732854E+04 -1.481871E+04  9.554137E+03 -7.849872E+03
       143   8 -1.296269E+05 -6.220150E+04 -8.416961E+04 -7.919320E+03  2.154061E+04 -9.188972E+03
       143   9 -1.645006E+05 -8.713513E+04 -1.133393E+05 -2.182487E+04  3.352693E+04 -9.942127E+03
       143  10  3.538117E+05  5.702581E+04  4.041493E+04 -1.937325E+04  1.860351E-10 -1.822178E-10
       143  11  3.886371E+05  6.596821E+04  3.848221E+04 -5.460799E+03 -8.231660E-10 -6.163394E-10
       143  12  4.175586E+05  5.687670E+04  2.469102E+04 -1.235207E+04  5.976510E-11 -9.032754E-11
       143  13  1.264922E+05  8.014880E+02 -1.345516E+04 -1.709553E+04 -1.070653E-09 -2.990079E-10
       143  14  1.294740E+05  1.885651E+03 -2.284189E+04 -6.690235E+03 -2.648854E-09 -8.079562E-12
       143  15  1.264895E+05 -1.512642E+04 -4.432233E+04 -1.708945E+04 -1.060252E-09 -5.276414E-10
       143  16 -1.007798E+05 -5.542652E+04 -6.732883E+04 -1.481865E+04 -7.053509E-10 -2.560497E-10
       143  17 -1.296275E+05 -6.220172E+04 -8.417065E+04 -7.919160E+03 -1.205273E-09  1.285513E-09
       143  18 -1.645018E+05 -8.713554E+04 -1.133416E+05 -2.182460E+04 -9.622731E-10 -8.785719E-10
       143  19  3.538119E+05  5.702591E+04  4.041529E+04 -1.937332E+04 -1.144231E+04  7.849272E+03
       143  20  3.886377E+05  6.596844E+04  3.848334E+04 -5.460968E+03 -2.276242E+04  9.188007E+03
       143  21  4.175599E+05  5.687712E+04  2.469338E+04 -1.235234E+04 -3.408355E+04  9.940758E+03
       143  22  1.264924E+05  8.015838E+02 -1.345483E+04 -1.709559E+04 -1.049805E+04  7.849569E+03
       143  23  1.294745E+05  1.885873E+03 -2.284081E+04 -6.690399E+03 -2.215139E+04  9.188490E+03
       143  24  1.264908E+05 -1.512600E+04 -4.432000E+04 -1.708972E+04 -3.380518E+04  9.941444E+03
       143  25 -1.007797E+05 -5.542643E+04 -6.732854E+04 -1.481871E+04 -9.554137E+03  7.849872E+03
       143  26 -1.296269E+05 -6.220150E+04 -8.416961E+04 -7.919320E+03 -2.154061E+04  9.188972E+03
       143  27 -1.645006E+05 -8.713513E+04 -1.133393E+05 -2.182487E+04 -3.352693E+04  9.942127E+03
       144   1  4.444485E+05  8.972764E+04  2.304389E+04 -3.935834E+04  4.521399E+04 -1.198447E+04
       144   2  5.027204E+05  1.080689E+05 -3.052696E+03  1.018472E+04  8.742467E+04 -1.265187E+04
       144   3  5.085640E+05 -6.202287E+04 -1.036793E+05  3.922053E+04  1.296306E+05 -4.078774E+03
       144   4  1.159453E+05  8.558179E+03 -5.454894E+04 -1.706748E+04  4.213643E+04 -1.198487E+04
       144   5  1.426429E+05  1.900697E+04 -8.827845E+04 -6.744105E+03  8.964594E+04 -1.265312E+04
       144   6  1.159564E+05 -1.599615E+05 -2.002482E+05 -1.692881E+04  1.371480E+05 -4.083829E+03
       144   7 -2.124577E+05 -7.261712E+04 -1.321489E+05  5.211518E+03  3.906049E+04 -1.198549E+04
       144   8 -2.173150E+05 -7.006315E+04 -1.735130E+05 -2.366308E+04  9.186592E+04 -1.265449E+04
       144   9 -2.765042E+05 -2.578998E+05 -2.968266E+05 -7.304263E+04  1.446607E+05 -4.090248E+03
       144  10  4.444462E+05  8.972693E+04  2.303979E+04 -3.935791E+04  4.005320E-10 -9.162700E-10
       144  11  5.027122E+05  1.080666E+05 -3.067349E+03  1.018561E+04  1.940605E-09 -3.229544E-09
       144  12  5.085459E+05 -6.202740E+04 -1.037108E+05  3.922096E+04  5.476121E-10 -1.123440E-09
       144  13  1.159433E+05  8.557548E+03 -5.455255E+04 -1.706707E+04 -1.216805E-10 -3.068221E-09
       144  14  1.426342E+05  1.900464E+04 -8.829385E+04 -6.743191E+03 -1.349483E-09  8.728904E-10
       144  15  1.159362E+05 -1.599666E+05 -2.002835E+05 -1.692836E+04 -1.371879E-10 -1.174390E-10
       144  16 -2.124594E+05 -7.261769E+04 -1.321521E+05  5.211895E+03  9.690604E-11 -1.681512E-09
       144  17 -2.173241E+05 -7.006559E+04 -1.735292E+05 -2.366215E+04  8.730666E-10  9.492861E-10
       144  18 -2.765267E+05 -2.579055E+05 -2.968659E+05 -7.304216E+04  1.189759E-09 -6.847374E-10
       144  19  4.444485E+05  8.972764E+04  2.304389E+04 -3.935834E+04 -4.521399E+04  1.198447E+04
       144  20  5.027204E+05  1.080689E+05 -3.052696E+03  1.018472E+04 -8.742467E+04  1.265187E+04
       144  21  5.085640E+05 -6.202287E+04 -1.036793E+05  3.922053E+04 -1.296306E+05  4.078774E+03
       144  22  1.159453E+05  8.558179E+03 -5.454894E+04 -1.706748E+04 -4.213643E+04  1.198487E+04
       144  23  1.426429E+05  1.900697E+04 -8.827845E+04 -6.744105E+03 -8.964594E+04  1.265312E+04
       144  24  1.159564E+05 -1.599615E+05 -2.002482E+05 -1.692881E+04 -1.371480E+05  4.083829E+03
       144  25 -2.124577E+05 -7.261712E+04 -1.321489E+05  5.211518E+03 -3.906049E+04  1.198549E+04
       144  26 -2.173150E+05 -7.006315E+04 -1.735130E+05 -2.366308E+04 -9.186592E+04  1.265449E+04
       144  27 -2.765042E+05 -2.578998E+05 -2.968266E+05 -7.304263E+04 -1.446607E+05  4.090248E+03
       145   1  3.582630E+05  1.102139E+06  3.599370E+05 -1.751088E+05  1.303940E+04  4.526839E+04
       145   2  2.512978E+05  7.872598E+05  2.555834E+05 -6.886309E+04  3.620010E+04  1.907219E+04
       145   3  1.772723E+05  4.841861E+05  1.765211E+05 -1.632538E+05  2.546743E+04 -7.167822E+03
       145   4  2.473830E+04 -2.365124E+05  3.036696E+04 -1.652530E+05  1.307385E+04  2.213098E+04
       145   5 -2.878240E+03 -2.406183E+05  1.229127E+04 -6.494535E+04  3.621079E+04  1.550152E+04
       145   6 -9.118785E+02 -2.363748E+05  5.959132E+03 -1.652917E+05  2.543002E+04  8.815184E+03
       145   7 -3.089191E+05 -1.573533E+06 -2.993333E+05 -1.554178E+05  1.310762E+04 -9.567225E+02
       145   8 -2.571301E+05 -1.267526E+06 -2.310741E+05 -6.103363E+04  3.622144E+04  1.193672E+04
       145   9 -1.791332E+05 -9.564582E+05 -1.646379E+05 -1.673268E+05  2.539249E+04  2.477974E+04
       145  10  3.582622E+05  1.102136E+06  3.599329E+05 -1.751092E+05  2.137806E-09  1.639421E-09
       145  11  2.512963E+05  7.872591E+05  2.555802E+05 -6.886365E+04  2.325351E-09 -4.402911E-09
       145  12  1.772716E+05  4.841858E+05  1.765198E+05 -1.632536E+05 -1.253854E-09 -3.463016E-09
       145  13  2.473798E+04 -2.365129E+05  3.036571E+04 -1.652533E+05 -4.360421E-10  3.194812E-11
       145  14 -2.879713E+03 -2.406189E+05  1.228836E+04 -6.494580E+04  1.908036E-09  2.657902E-11
       145  15 -9.125938E+02 -2.363751E+05  5.957770E+03 -1.652918E+05  4.323437E-10 -2.597229E-10
       145  16 -3.089193E+05 -1.573533E+06 -2.993337E+05 -1.554178E+05  2.217202E-10 -1.053105E-09
       145  17 -2.571315E+05 -1.267527E+06 -2.310769E+05 -6.103398E+04  6.421956E-10  1.603607E-09
       145  18 -1.791340E+05 -9.564590E+05 -1.646403E+05 -1.673273E+05 -1.205344E-09  5.818100E-09
       145  19  3.582630E+05  1.102139E+06  3.599370E+05 -1.751088E+05 -1.303940E+04 -4.526839E+04
       145  20  2.512978E+05  7.872598E+05  2.555834E+05 -6.886309E+04 -3.620010E+04 -1.907219E+04
       145  21  1.772723E+05  4.841861E+05  1.765211E+05 -1.632538E+05 -2.546743E+04  7.167822E+03
       145  22  2.473830E+04 -2.365124E+05  3.036696E+04 -1.652530E+05 -1.307385E+04 -2.213098E+04
       145  23 -2.878240E+03 -2.406183E+05  1.229127E+04 -6.494535E+04 -3.621079E+04 -1.550152E+04
       145  24 -9.118785E+02 -2.363748E+05  5.959132E+03 -1.652917E+05 -2.543002E+04 -8.815184E+03
       145  25 -3.089191E+05 -1.573533E+06 -2.993333E+05 -1.554178E+05 -1.310762E+04  9.567225E+02
       145  26 -2.571301E+05 -1.267526E+06 -2.310741E+05 -6.103363E+04 -3.622144E+04 -1.193672E+04
       145  27 -1.791332E+05 -9.564582E+05 -1.646379E+05 -1.673268E+05 -2.539249E+04 -2.477974E+04
       146   1  9.211073E+04  1.207682E+05  8.856055E+04 -1.663196E+05  1.276585E+04  1.706669E+03
       146   2  1.297319E+04 -1.874153E+05  9.733222E+03 -6.517546E+04  1.777204E+03  2.707634E+03
       146   3 -6.710453E+04 -4.970770E+05 -7.025679E+04 -1.658996E+05 -9.356765E+03  3.706601E+03
       146   4  3.250387E+03 -2.384765E+05  3.533651E+03 -1.655417E+05  1.274980E+04  7.991069E+03
       146   5  5.334854E+02 -2.376845E+05 -2.168489E+03 -6.461528E+04  1.760801E+03  9.075439E+03
       146   6 -3.130617E+03 -2.384708E+05 -9.083376E+03 -1.655581E+05 -9.373825E+03  1.015831E+04
       146   7 -8.561919E+04 -5.976025E+05 -8.150205E+04 -1.647642E+05  1.273376E+04  1.427185E+04
       146   8 -1.190638E+04 -2.879514E+05 -1.407022E+04 -6.405515E+04  1.744408E+03  1.544273E+04
       146   9  6.083852E+04  2.019696E+04  5.208556E+04 -1.652164E+05 -9.390873E+03  1.661270E+04
       146  10  9.211055E+04  1.207681E+05  8.856023E+04 -1.663196E+05 -6.051424E-10  2.827428E-09
       146  11  1.297319E+04 -1.874153E+05  9.733202E+03 -6.517546E+04  4.311623E-10 -5.573092E-09
       146  12 -6.710463E+04 -4.970771E+05 -7.025698E+04 -1.658996E+05 -1.718077E-09 -3.280963E-09
       146  13  3.250196E+03 -2.384766E+05  3.533225E+03 -1.655418E+05 -1.556153E-09  4.918145E-11
       146  14  5.334599E+02 -2.376846E+05 -2.168650E+03 -6.461529E+04  1.322242E-09  8.079891E-11
       146  15 -3.130739E+03 -2.384710E+05 -9.083735E+03 -1.655580E+05 -1.019151E-09 -3.127310E-10
       146  16 -8.561942E+04 -5.976028E+05 -8.150274E+04 -1.647644E+05 -2.419629E-09 -1.523123E-09
       146  17 -1.190645E+04 -2.879516E+05 -1.407068E+04 -6.405517E+04  7.982453E-10  1.503760E-09
       146  18  6.083835E+04  2.019664E+04  5.208487E+04 -1.652163E+05 -1.838344E-09  5.897149E-09
       146  19  9.211073E+04  1.207682E+05  8.856055E+04 -1.663196E+05 -1.276585E+04 -1.706669E+03
       146  20  1.297319E+04 -1.874153E+05  9.733222E+03 -6.517546E+04 -1.777204E+03 -2.707634E+03
       146  21 -6.710453E+04 -4.970770E+05 -7.025679E+04 -1.658996E+05  9.356765E+03 -3.706601E+03
       146  22  3.250387E+03 -2.384765E+05  3.533651E+03 -1.655417E+05 -1.274980E+04 -7.991069E+03
       146  23  5.334854E+02 -2.376845E+05 -2.168489E+03 -6.461528E+04 -1.760801E+03 -9.075439E+03
       146  24 -3.130617E+03 -2.384708E+05 -9.083376E+03 -1.655581E+05  9.373825E+03 -1.015831E+04
       146  25 -8.561919E+04 -5.976025E+05 -8.150205E+04 -1.647642E+05 -1.273376E+04 -1.427185E+04
       146  26 -1.190638E+04 -2.879514E+05 -1.407022E+04 -6.405515E+04 -1.744408E+03 -1.544273E+04
       146  27  6.083852E+04  2.019696E+04  5.208556E+04 -1.652164E+05  9.390873E+03 -1.661270E+04
       147   1 -1.502534E+05 -8.607431E+05 -1.589575E+05 -1.585293E+05 -2.173957E+04 -3.535966E+03
       147   2 -2.245847E+05 -1.161264E+06 -2.411338E+05 -6.777258E+04 -3.275138E+04  2.625910E+04
       147   3 -3.483769E+05 -1.478117E+06 -3.551612E+05 -1.778671E+05 -1.206786E+04  5.609706E+04
       147   4  3.153446E+03 -2.411429E+05 -1.210547E+04 -1.652974E+05 -2.177741E+04  1.188482E+04
       147   5  4.802596E+03 -2.345949E+05 -2.153973E+04 -6.491431E+04 -3.274238E+04  2.346571E+04
       147   6 -3.979646E+04 -2.412751E+05 -5.013407E+04 -1.653690E+05 -1.203202E+04  3.510492E+04
       147   7  1.565330E+05  3.788110E+05  1.347208E+05 -1.720721E+05 -2.181557E+04  2.732093E+04
       147   8  2.341282E+05  6.928640E+05  1.979947E+05 -6.205131E+04 -3.273342E+04  2.066815E+04
       147   9  2.686708E+05  9.969615E+05  2.547816E+05 -1.528451E+05 -1.199706E+04  1.407089E+04
       147  10 -1.502539E+05 -8.607433E+05 -1.589584E+05 -1.585293E+05 -1.432044E-09  2.034297E-09
       147  11 -2.245860E+05 -1.161265E+06 -2.411372E+05 -6.777189E+04 -2.633540E-09 -3.995001E-09
       147  12 -3.483779E+05 -1.478120E+06 -3.551674E+05 -1.778666E+05 -7.018061E-10 -1.504178E-09
       147  13  3.152899E+03 -2.411432E+05 -1.210663E+04 -1.652972E+05 -1.546680E-09 -4.243669E-11
       147  14  4.801297E+03 -2.345958E+05 -2.154277E+04 -6.491369E+04 -1.397033E-09 -2.622064E-11
       147  15 -3.979694E+04 -2.412764E+05 -5.013666E+04 -1.653686E+05  1.017593E-09 -2.116402E-10
       147  16  1.565322E+05  3.788100E+05  1.347185E+05 -1.720716E+05 -8.905269E-10 -8.210250E-10
       147  17  2.341269E+05  6.928633E+05  1.979919E+05 -6.205076E+04  3.410194E-10  1.067675E-09
       147  18  2.686706E+05  9.969613E+05  2.547810E+05 -1.528450E+05  1.428043E-09  2.798042E-09
       147  19 -1.502534E+05 -8.607431E+05 -1.589575E+05 -1.585293E+05  2.173957E+04  3.535966E+03
       147  20 -2.245847E+05 -1.161264E+06 -2.411338E+05 -6.777258E+04  3.275138E+04 -2.625910E+04
       147  21 -3.483769E+05 -1.478117E+06 -3.551612E+05 -1.778671E+05  1.206786E+04 -5.609706E+04
       147  22  3.153446E+03 -2.411429E+05 -1.210547E+04 -1.652974E+05  2.177741E+04 -1.188482E+04
       147  23  4.802596E+03 -2.345949E+05 -2.153973E+04 -6.491431E+04  3.274238E+04 -2.346571E+04
       147  24 -3.979646E+04 -2.412751E+05 -5.013407E+04 -1.653690E+05  1.203202E+04 -3.510492E+04
       147  25  1.565330E+05  3.788110E+05  1.347208E+05 -1.720721E+05  2.181557E+04 -2.732093E+04
       147  26  2.341282E+05  6.928640E+05  1.979947E+05 -6.205131E+04  3.273342E+04 -2.066815E+04
       147  27  2.686708E+05  9.969615E+05  2.547816E+05 -1.528451E+05  1.199706E+04 -1.407089E+04
       148   1 -1.151962E+06 -3.578569E+05 -2.068420E+05 -4.139483E+05 -8.506300E+04 -2.800328E+04
       148   2 -1.115453E+06 -2.236309E+05 -1.244206E+05 -4.110322E+05 -5.534879E+04 -8.973038E+03
       148   3 -1.109150E+06 -2.137938E+05 -9.598482E+04 -3.972471E+05 -2.267463E+04  2.190103E+03
       148   4 -8.636040E+05 -2.195340E+05 -1.227524E+05 -3.051125E+05 -7.926077E+04 -2.582716E+04
       148   5 -8.425025E+05 -1.124423E+05 -5.149766E+04 -3.275719E+05 -5.377117E+04 -8.381544E+03
       148   6 -8.507500E+05 -1.288740E+05 -3.085832E+04 -3.391682E+05 -2.532346E+04  1.195500E+03
       148   7 -5.751627E+05 -8.118946E+04 -3.867035E+04 -1.962255E+05 -7.345556E+04 -2.364923E+04
       148   8 -5.694791E+05 -1.245145E+03  2.141887E+04 -2.440770E+05 -5.219278E+04 -7.789705E+03
       148   9 -5.922855E+05 -4.395355E+04  3.426306E+04 -2.810692E+05 -2.797351E+04  2.005728E+02
       148  10 -1.151970E+06 -3.578597E+05 -2.068571E+05 -4.139502E+05  1.036680E-09 -1.852397E-10
       148  11 -1.115456E+06 -2.236319E+05 -1.244265E+05 -4.110326E+05 -1.213006E-10  6.189296E-10
       148  12 -1.109150E+06 -2.137940E+05 -9.598580E+04 -3.972471E+05  1.708396E-09  8.355761E-10
       148  13 -8.636109E+05 -2.195364E+05 -1.227654E+05 -3.051141E+05 -1.656600E-09  1.371312E-09
       148  14 -8.425056E+05 -1.124431E+05 -5.150323E+04 -3.275723E+05  4.863465E-10  1.803319E-09
       148  15 -8.507507E+05 -1.288742E+05 -3.085953E+04 -3.391682E+05  4.436017E-10  7.975546E-10
       148  16 -5.751687E+05 -8.119151E+04 -3.868155E+04 -1.962269E+05  1.388085E-09  6.187703E-10
       148  17 -5.694820E+05 -1.245942E+03  2.141364E+04 -2.440773E+05  1.010701E-09  1.500938E-09
       148  18 -5.922864E+05 -4.395376E+04  3.426159E+04 -2.810692E+05  1.235951E-10  6.118113E-12
       148  19 -1.151962E+06 -3.578569E+05 -2.068420E+05 -4.139483E+05  8.506300E+04  2.800328E+04
       148  20 -1.115453E+06 -2.236309E+05 -1.244206E+05 -4.110322E+05  5.534879E+04  8.973038E+03
       148  21 -1.109150E+06 -2.137938E+05 -9.598482E+04 -3.972471E+05  2.267463E+04 -2.190103E+03
       148  22 -8.636040E+05 -2.195340E+05 -1.227524E+05 -3.051125E+05  7.926077E+04  2.582716E+04
       148  23 -8.425025E+05 -1.124423E+05 -5.149766E+04 -3.275719E+05  5.377117E+04  8.381544E+03
       148  24 -8.507500E+05 -1.288740E+05 -3.085832E+04 -3.391682E+05  2.532346E+04 -1.195500E+03
       148  25 -5.751627E+05 -8.118946E+04 -3.867035E+04 -1.962255E+05  7.345556E+04  2.364923E+04
       148  26 -5.694791E+05 -1.245145E+03  2.141887E+04 -2.440770E+05  5.219278E+04  7.789705E+03
       148  27 -5.922855E+05 -4.395355E+04  3.426306E+04 -2.810692E+05  2.797351E+04 -2.005728E+02
       149   1 -1.056111E+06 -2.226262E+05 -8.035792E+04 -3.920961E+05 -1.998980E+04  1.027782E+03
       149   2 -1.031391E+06 -1.917351E+05 -5.931354E+04 -3.761152E+05 -1.307976E+04  2.655805E+03
       149   3 -9.959879E+05 -1.875177E+05 -4.617345E+04 -3.753612E+05 -5.961434E+03  3.728588E+03
       149   4 -8.466407E+05 -1.413064E+05 -2.501776E+04 -3.322048E+05 -2.030052E+04  9.108151E+02
       149   5 -8.513700E+05 -1.234706E+05 -1.215770E+04 -3.262897E+05 -1.368741E+04  2.427560E+03
       149   6 -8.453556E+05 -1.322474E+05 -6.964179E+03 -3.356019E+05 -6.866359E+03  3.388972E+03
       149   7 -6.371287E+05 -5.998338E+04  3.031843E+04 -2.722952E+05 -2.061135E+04  7.938022E+02
       149   8 -6.713172E+05 -5.520398E+04  3.499540E+04 -2.764510E+05 -1.429525E+04  2.199240E+03
       149   9 -6.947009E+05 -7.697579E+04  3.224332E+04 -2.958339E+05 -7.771528E+03  3.049269E+03
       149  10 -1.056111E+06 -2.226263E+05 -8.035867E+04 -3.920961E+05  4.650606E-12 -1.361238E-10
       149  11 -1.031392E+06 -1.917351E+05 -5.931388E+04 -3.761152E+05  3.028454E-09 -7.621367E-10
       149  12 -9.959880E+05 -1.875177E+05 -4.617354E+04 -3.753611E+05 -5.272611E-10 -4.108280E-10
       149  13 -8.466412E+05 -1.413065E+05 -2.501854E+04 -3.322048E+05 -1.201940E-09 -1.816681E-10
       149  14 -8.513702E+05 -1.234707E+05 -1.215806E+04 -3.262896E+05  1.315357E-09 -1.516606E-09
       149  15 -8.453557E+05 -1.322474E+05 -6.964289E+03 -3.356019E+05 -3.404910E-09 -1.263189E-10
       149  16 -6.371292E+05 -5.998350E+04  3.031763E+04 -2.722951E+05  2.375968E-10 -9.980768E-10
       149  17 -6.713174E+05 -5.520404E+04  3.499500E+04 -2.764510E+05 -2.014097E-09 -1.157832E-09
       149  18 -6.947010E+05 -7.697582E+04  3.224319E+04 -2.958339E+05 -1.380949E-09  1.194200E-10
       149  19 -1.056111E+06 -2.226262E+05 -8.035792E+04 -3.920961E+05  1.998980E+04 -1.027782E+03
       149  20 -1.031391E+06 -1.917351E+05 -5.931354E+04 -3.761152E+05  1.307976E+04 -2.655805E+03
       149  21 -9.959879E+05 -1.875177E+05 -4.617345E+04 -3.753612E+05  5.961434E+03 -3.728588E+03
       149  22 -8.466407E+05 -1.413064E+05 -2.501776E+04 -3.322048E+05  2.030052E+04 -9.108151E+02
       149  23 -8.513700E+05 -1.234706E+05 -1.215770E+04 -3.262897E+05  1.368741E+04 -2.427560E+03
       149  24 -8.453556E+05 -1.322474E+05 -6.964179E+03 -3.356019E+05  6.866359E+03 -3.388972E+03
       149  25 -6.371287E+05 -5.998338E+04  3.031843E+04 -2.722952E+05  2.061135E+04 -7.938022E+02
       149  26 -6.713172E+05 -5.520398E+04  3.499540E+04 -2.764510E+05  1.429525E+04 -2.199240E+03
       149  27 -6.947009E+05 -7.697579E+04  3.224332E+04 -2.958339E+05  7.771528E+03 -3.049269E+03
       150   1 -9.553725E+05 -1.751703E+05 -3.423663E+04 -3.652953E+05 -4.781923E+03  3.130009E+03
       150   2 -9.317333E+05 -1.543558E+05 -2.360889E+04 -3.477848E+05 -2.773095E+03  2.281025E+03
       150   3 -8.928100E+05 -1.505446E+05 -1.438303E+04 -3.482351E+05 -7.483418E+02  1.388966E+03
       150   4 -8.448217E+05 -1.335047E+05 -5.424519E+03 -3.349346E+05 -5.527472E+03  2.850258E+03
       150   5 -8.524017E+05 -1.245592E+05 -2.882706E+03 -3.261211E+05 -3.541576E+03  1.992742E+03
       150   6 -8.446939E+05 -1.326121E+05 -1.724233E+03 -3.352685E+05 -1.539840E+03  1.092126E+03
       150   7 -7.342590E+05 -9.183820E+04  2.338656E+04 -3.045690E+05 -6.273166E+03  2.570452E+03
       150   8 -7.730642E+05 -9.476218E+04  1.784291E+04 -3.044549E+05 -4.310163E+03  1.704419E+03
       150   9 -7.965758E+05 -1.146795E+05  1.093433E+04 -3.223010E+05 -2.331404E+03  7.952632E+02
       150  10 -9.553725E+05 -1.751703E+05 -3.423669E+04 -3.652953E+05  6.845778E-10 -3.818298E-11
       150  11 -9.317333E+05 -1.543558E+05 -2.360891E+04 -3.477848E+05  1.638784E-09 -6.188620E-10
       150  12 -8.928100E+05 -1.505446E+05 -1.438303E+04 -3.482351E+05 -1.029261E-09  6.014884E-10
       150  13 -8.448217E+05 -1.335047E+05 -5.424591E+03 -3.349346E+05 -3.259090E-09 -1.085315E-10
       150  14 -8.524017E+05 -1.245592E+05 -2.882737E+03 -3.261210E+05  1.377632E-09 -6.957525E-10
       150  15 -8.446939E+05 -1.326121E+05 -1.724240E+03 -3.352685E+05  3.879282E-10  3.884323E-10
       150  16 -7.342590E+05 -9.183822E+04  2.338648E+04 -3.045690E+05 -3.828831E-09 -2.197074E-10
       150  17 -7.730642E+05 -9.476219E+04  1.784287E+04 -3.044549E+05 -1.865316E-09 -4.216203E-10
       150  18 -7.965758E+05 -1.146795E+05  1.093431E+04 -3.223010E+05  9.156986E-10  2.788875E-10
       150  19 -9.553725E+05 -1.751703E+05 -3.423663E+04 -3.652953E+05  4.781923E+03 -3.130009E+03
       150  20 -9.317333E+05 -1.543558E+05 -2.360889E+04 -3.477848E+05  2.773095E+03 -2.281025E+03
       150  21 -8.928100E+05 -1.505446E+05 -1.438303E+04 -3.482351E+05  7.483418E+02 -1.388966E+03
       150  22 -8.448217E+05 -1.335047E+05 -5.424519E+03 -3.349346E+05  5.527472E+03 -2.850258E+03
       150  23 -8.524017E+05 -1.245592E+05 -2.882706E+03 -3.261211E+05  3.541576E+03 -1.992742E+03
       150  24 -8.446939E+05 -1.326121E+05 -1.724233E+03 -3.352685E+05  1.539840E+03 -1.092126E+03
       150  25 -7.342590E+05 -9.183820E+04  2.338656E+04 -3.045690E+05  6.273166E+03 -2.570452E+03
       150  26 -7.730642E+05 -9.476218E+04  1.784291E+04 -3.044549E+05  4.310163E+03 -1.704419E+03
       150  27 -7.965758E+05 -1.146795E+05  1.093433E+04 -3.223010E+05  2.331404E+03 -7.952632E+02
       151   1 -8.532321E+05 -1.359554E+05 -3.537320E+03 -3.375748E+05 -1.829463E+02  6.301041E+02
       151   2 -8.296921E+05 -1.160965E+05  4.932313E+03 -3.198733E+05  8.774423E+02 -6.262617E+02
       151   3 -7.903352E+05 -1.123193E+05  1.297986E+04 -3.204128E+05  1.938268E+03 -1.883477E+03
       151   4 -8.446221E+05 -1.327347E+05 -1.404595E+03 -3.352082E+05 -9.638548E+02  3.372535E+02
       151   5 -8.525255E+05 -1.246629E+05 -1.031043E+03 -3.260991E+05  9.603876E+01 -9.193225E+02
       151   6 -8.446138E+05 -1.326731E+05 -1.079333E+03 -3.352315E+05  1.156333E+03 -2.176751E+03
       151   7 -8.360119E+05 -1.295140E+05  7.281401E+02 -3.328415E+05 -1.744779E+03  4.439683E+01
       151   8 -8.753584E+05 -1.332292E+05 -6.994429E+03 -3.323246E+05 -6.853318E+02 -1.212371E+03
       151   9 -8.988891E+05 -1.530265E+05 -1.513863E+04 -3.500489E+05  3.744811E+02 -2.469994E+03
       151  10 -8.532321E+05 -1.359554E+05 -3.537321E+03 -3.375748E+05  2.378258E-10  1.451791E-09
       151  11 -8.296921E+05 -1.160965E+05  4.932311E+03 -3.198733E+05  9.518113E-10  3.209649E-10
       151  12 -7.903352E+05 -1.123193E+05  1.297984E+04 -3.204127E+05  7.821050E-10  5.794993E-10
       151  13 -8.446221E+05 -1.327347E+05 -1.404597E+03 -3.352082E+05 -1.038222E-09  8.465856E-10
       151  14 -8.525255E+05 -1.246629E+05 -1.031045E+03 -3.260991E+05  1.326485E-09  5.982363E-10
       151  15 -8.446138E+05 -1.326731E+05 -1.079344E+03 -3.352315E+05 -2.389195E-10  7.917111E-10
       151  16 -8.360119E+05 -1.295140E+05  7.281343E+02 -3.328415E+05  3.330570E-10  1.429158E-10
       151  17 -8.753584E+05 -1.332292E+05 -6.994433E+03 -3.323246E+05  6.696739E-10  3.995988E-10
       151  18 -8.988891E+05 -1.530265E+05 -1.513864E+04 -3.500489E+05  1.548004E-09  1.057523E-09
       151  19 -8.532321E+05 -1.359554E+05 -3.537320E+03 -3.375748E+05  1.829463E+02 -6.301041E+02
       151  20 -8.296921E+05 -1.160965E+05  4.932313E+03 -3.198733E+05 -8.774423E+02  6.262617E+02
       151  21 -7.903352E+05 -1.123193E+05  1.297986E+04 -3.204128E+05 -1.938268E+03  1.883477E+03
       151  22 -8.446221E+05 -1.327347E+05 -1.404595E+03 -3.352082E+05  9.638548E+02 -3.372535E+02
       151  23 -8.525255E+05 -1.246629E+05 -1.031043E+03 -3.260991E+05 -9.603876E+01  9.193225E+02
       151  24 -8.446138E+05 -1.326731E+05 -1.079333E+03 -3.352315E+05 -1.156333E+03  2.176751E+03
       151  25 -8.360119E+05 -1.295140E+05  7.281401E+02 -3.328415E+05  1.744779E+03 -4.439683E+01
       151  26 -8.753584E+05 -1.332292E+05 -6.994429E+03 -3.323246E+05  6.853318E+02  1.212371E+03
       151  27 -8.988891E+05 -1.530265E+05 -1.513863E+04 -3.500489E+05 -3.744811E+02  2.469994E+03
       152   1 -7.510397E+05 -9.752388E+04  2.333149E+04 -3.097346E+05  2.444748E+03 -2.657009E+03
       152   2 -7.276973E+05 -7.787608E+04  3.069515E+04 -2.921239E+05  3.925466E+03 -3.747705E+03
       152   3 -6.887718E+05 -7.434585E+04  3.728129E+04 -2.925610E+05  5.401940E+03 -4.825688E+03
       152   4 -8.446594E+05 -1.326250E+05 -1.229182E+03 -3.352104E+05  1.663827E+03 -2.949947E+03
       152   5 -8.524673E+05 -1.246823E+05 -1.888200E+03 -3.261427E+05  3.151136E+03 -4.038291E+03
       152   6 -8.446940E+05 -1.328587E+05 -3.329927E+03 -3.351235E+05  4.634150E+03 -5.113938E+03
       152   7 -9.382710E+05 -1.677257E+05 -2.579070E+04 -3.606828E+05  8.830331E+02 -3.242839E+03
       152   8 -9.772232E+05 -1.714878E+05 -3.447310E+04 -3.601556E+05  2.376971E+03 -4.328816E+03
       152   9 -1.000594E+06 -1.913706E+05 -4.394363E+04 -3.776767E+05  3.866565E+03 -5.402111E+03
       152  10 -7.510397E+05 -9.752388E+04  2.333147E+04 -3.097346E+05  1.420053E-09  8.993132E-10
       152  11 -7.276973E+05 -7.787610E+04  3.069509E+04 -2.921239E+05  1.539533E-09  1.902789E-11
       152  12 -6.887718E+05 -7.434588E+04  3.728119E+04 -2.925610E+05 -5.720495E-11 -4.552334E-10
       152  13 -8.446594E+05 -1.326250E+05 -1.229204E+03 -3.352104E+05  1.358910E-09  1.000330E-09
       152  14 -8.524673E+05 -1.246823E+05 -1.888250E+03 -3.261427E+05 -1.897474E-09  5.015220E-10
       152  15 -8.446941E+05 -1.328587E+05 -3.330017E+03 -3.351234E+05 -2.060204E-09 -6.030285E-10
       152  16 -9.382710E+05 -1.677257E+05 -2.579072E+04 -3.606828E+05 -1.285559E-09  1.050586E-09
       152  17 -9.772232E+05 -1.714879E+05 -3.447315E+04 -3.601556E+05 -1.806794E-09  5.759581E-10
       152  18 -1.000594E+06 -1.913706E+05 -4.394371E+04 -3.776767E+05 -2.305132E-09 -9.407868E-10
       152  19 -7.510397E+05 -9.752388E+04  2.333149E+04 -3.097346E+05 -2.444748E+03  2.657009E+03
       152  20 -7.276973E+05 -7.787608E+04  3.069515E+04 -2.921239E+05 -3.925466E+03  3.747705E+03
       152  21 -6.887718E+05 -7.434585E+04  3.728129E+04 -2.925610E+05 -5.401940E+03  4.825688E+03
       152  22 -8.446594E+05 -1.326250E+05 -1.229182E+03 -3.352104E+05 -1.663827E+03  2.949947E+03
       152  23 -8.524673E+05 -1.246823E+05 -1.888200E+03 -3.261427E+05 -3.151136E+03  4.038291E+03
       152  24 -8.446940E+05 -1.328587E+05 -3.329927E+03 -3.351235E+05 -4.634150E+03  5.113938E+03
       152  25 -9.382710E+05 -1.677257E+05 -2.579070E+04 -3.606828E+05 -8.830331E+02  3.242839E+03
       152  26 -9.772232E+05 -1.714878E+05 -3.447310E+04 -3.601556E+05 -2.376971E+03  4.328816E+03
       152  27 -1.000594E+06 -1.913706E+05 -4.394363E+04 -3.776767E+05 -3.866565E+03  5.402111E+03
       153   1 -6.500614E+05 -5.969874E+04  4.660795E+04 -2.824780E+05  6.356782E+03 -5.423003E+03
       153   2 -6.270236E+05 -3.987673E+04  5.110793E+04 -2.647482E+05  1.074153E+04 -5.388255E+03
       153   3 -5.900893E+05 -3.856260E+04  5.193536E+04 -2.640794E+05  1.510139E+04 -5.284763E+03
       153   4 -8.449462E+05 -1.324785E+05 -4.334289E+03 -3.352488E+05  5.576699E+03 -5.715972E+03
       153   5 -8.520656E+05 -1.244433E+05 -7.685256E+03 -3.262603E+05  9.996990E+03 -5.668081E+03
       153   6 -8.452967E+05 -1.349238E+05 -1.473786E+04 -3.343329E+05  1.439220E+04 -5.551512E+03
       153   7 -1.039792E+06 -2.052554E+05 -5.527925E+04 -3.880043E+05  4.796891E+03 -6.008840E+03
       153   8 -1.077057E+06 -2.090062E+05 -6.648240E+04 -3.877519E+05  9.252750E+03 -5.947795E+03
       153   9 -1.100441E+06 -2.312806E+05 -8.141651E+04 -4.045603E+05  1.368333E+04 -5.818138E+03
       153  10 -6.500615E+05 -5.969878E+04  4.660782E+04 -2.824779E+05 -3.227143E-10 -5.442489E-10
       153  11 -6.270238E+05 -3.987679E+04  5.110765E+04 -2.647482E+05  3.662018E-10  1.068899E-09
       153  12 -5.900895E+05 -3.856269E+04  5.193488E+04 -2.640793E+05 -9.882897E-10  5.780398E-11
       153  13 -8.449462E+05 -1.324786E+05 -4.334409E+03 -3.352488E+05 -2.291178E-10 -1.664010E-10
       153  14 -8.520657E+05 -1.244433E+05 -7.685504E+03 -3.262602E+05 -4.635939E-09  1.285808E-09
       153  15 -8.452969E+05 -1.349239E+05 -1.473831E+04 -3.343329E+05 -1.647434E-09 -1.286274E-09
       153  16 -1.039792E+06 -2.052554E+05 -5.527936E+04 -3.880043E+05 -1.436921E-09 -2.453725E-10
       153  17 -1.077057E+06 -2.090063E+05 -6.648262E+04 -3.877518E+05 -8.946447E-10  4.182598E-10
       153  18 -1.100441E+06 -2.312807E+05 -8.141692E+04 -4.045602E+05 -1.756718E-09 -1.045229E-09
       153  19 -6.500614E+05 -5.969874E+04  4.660795E+04 -2.824780E+05 -6.356782E+03  5.423003E+03
       153  20 -6.270236E+05 -3.987673E+04  5.110793E+04 -2.647482E+05 -1.074153E+04  5.388255E+03
       153  21 -5.900893E+05 -3.856260E+04  5.193536E+04 -2.640794E+05 -1.510139E+04  5.284763E+03
       153  22 -8.449462E+05 -1.324785E+05 -4.334289E+03 -3.352488E+05 -5.576699E+03  5.715972E+03
       153  23 -8.520656E+05 -1.244433E+05 -7.685256E+03 -3.262603E+05 -9.996990E+03  5.668081E+03
       153  24 -8.452967E+05 -1.349238E+05 -1.473786E+04 -3.343329E+05 -1.439220E+04  5.551512E+03
       153  25 -1.039792E+06 -2.052554E+05 -5.527925E+04 -3.880043E+05 -4.796891E+03  6.008840E+03
       153  26 -1.077057E+06 -2.090062E+05 -6.648240E+04 -3.877519E+05 -9.252750E+03  5.947795E+03
       153  27 -1.100441E+06 -2.312806E+05 -8.141651E+04 -4.045603E+05 -1.368333E+04  5.818138E+03
       154   1 -5.509440E+05 -2.392005E+04  5.770641E+04 -2.590281E+05  1.837946E+04 -5.094523E+03
       154   2 -5.279880E+05  1.188320E+03  5.103787E+04 -2.369225E+05  3.567367E+04 -1.083836E+02
       154   3 -5.033878E+05 -1.860678E+04  2.373548E+04 -2.245769E+05  5.267232E+04  5.669017E+03
       154   4 -8.467280E+05 -1.315210E+05 -1.898506E+04 -3.362040E+05  1.744710E+04 -5.445178E+03
       154   5 -8.492677E+05 -1.214099E+05 -3.324469E+04 -3.266689E+05  3.515858E+04 -3.026964E+02
       154   6 -8.502539E+05 -1.562967E+05 -6.847787E+04 -3.268944E+05  5.257365E+04  5.630593E+03
       154   7 -1.142428E+06 -2.391182E+05 -9.568406E+04 -4.133475E+05  1.651523E+04 -5.795666E+03
       154   8 -1.170448E+06 -2.440011E+05 -1.175362E+05 -4.163733E+05  3.464378E+04 -4.968972E+02
       154   9 -1.197003E+06 -2.939755E+05 -1.607017E+05 -4.291588E+05  5.247504E+04  5.592192E+03
       154  10 -5.509443E+05 -2.392016E+04  5.770572E+04 -2.590280E+05 -2.661597E-09 -9.265620E-10
       154  11 -5.279893E+05  1.187978E+03  5.103548E+04 -2.369225E+05 -1.170139E-09  4.966801E-10
       154  12 -5.033908E+05 -1.860756E+04  2.373020E+04 -2.245772E+05  4.938662E-10  5.875872E-10
       154  13 -8.467283E+05 -1.315211E+05 -1.898569E+04 -3.362039E+05 -1.952295E-09 -2.063106E-09
       154  14 -8.492690E+05 -1.214102E+05 -3.324702E+04 -3.266689E+05 -2.876474E-09  5.708228E-10
       154  15 -8.502568E+05 -1.562975E+05 -6.848314E+04 -3.268946E+05  4.535521E-10 -8.805331E-10
       154  16 -1.142429E+06 -2.391183E+05 -9.568464E+04 -4.133474E+05 -1.087744E-09 -9.161474E-10
       154  17 -1.170449E+06 -2.440014E+05 -1.175385E+05 -4.163733E+05  3.763481E-10  6.145415E-10
       154  18 -1.197006E+06 -2.939763E+05 -1.607070E+05 -4.291590E+05 -1.511269E-09 -8.857453E-10
       154  19 -5.509440E+05 -2.392005E+04  5.770641E+04 -2.590281E+05 -1.837946E+04  5.094523E+03
       154  20 -5.279880E+05  1.188320E+03  5.103787E+04 -2.369225E+05 -3.567367E+04  1.083836E+02
       154  21 -5.033878E+05 -1.860678E+04  2.373548E+04 -2.245769E+05 -5.267232E+04 -5.669017E+03
       154  22 -8.467280E+05 -1.315210E+05 -1.898506E+04 -3.362040E+05 -1.744710E+04  5.445178E+03
       154  23 -8.492677E+05 -1.214099E+05 -3.324469E+04 -3.266689E+05 -3.515858E+04  3.026964E+02
       154  24 -8.502539E+05 -1.562967E+05 -6.847787E+04 -3.268944E+05 -5.257365E+04 -5.630593E+03
       154  25 -1.142428E+06 -2.391182E+05 -9.568406E+04 -4.133475E+05 -1.651523E+04  5.795666E+03
       154  26 -1.170448E+06 -2.440011E+05 -1.175362E+05 -4.163733E+05 -3.464378E+04  4.968972E+02
       154  27 -1.197003E+06 -2.939755E+05 -1.607017E+05 -4.291588E+05 -5.247504E+04 -5.592192E+03
       155   1 -4.488338E+05 -6.120307E+02  1.681020E+04 -2.674665E+05  6.862430E+04  9.045639E+03
       155   2 -4.264836E+05  8.271641E+04 -3.235667E+04 -1.964099E+05  1.398261E+05  3.506388E+04
       155   3 -5.106121E+05 -1.436152E+05 -2.153483E+05 -6.438309E+04  2.068457E+05  7.219750E+04
       155   4 -8.613352E+05 -1.224407E+05 -8.448004E+04 -3.461770E+05  6.522792E+04  7.770816E+03
       155   5 -8.251345E+05 -9.099402E+04 -1.409741E+05 -3.299551E+05  1.423673E+05  3.601373E+04
       155   6 -8.966760E+05 -3.705192E+05 -3.360711E+05 -2.527421E+05  2.153236E+05  7.535939E+04
       155   7 -1.273670E+06 -2.442719E+05 -1.857822E+05 -4.248473E+05  6.183401E+04  6.496468E+03
       155   8 -1.223627E+06 -2.646776E+05 -2.496052E+05 -4.634165E+05  1.449066E+05  3.696265E+04
       155   9 -1.282575E+06 -5.973349E+05 -4.568061E+05 -4.409724E+05  2.237956E+05  7.851627E+04
       155  10 -4.488389E+05 -6.133843E+02  1.680119E+04 -2.674670E+05 -1.197340E-09  3.932750E-11
       155  11 -4.265049E+05  8.270983E+04 -3.239576E+04 -1.964139E+05 -9.565223E-10  7.778586E-10
       155  12 -5.106595E+05 -1.436323E+05 -2.154386E+05 -6.439513E+04 -7.332481E-10 -3.690435E-11
       155  13 -8.613397E+05 -1.224419E+05 -8.448816E+04 -3.461774E+05  2.184456E-09 -3.582549E-09
       155  14 -8.251567E+05 -9.100087E+04 -1.410147E+05 -3.299592E+05 -2.438398E-09  1.788307E-09
       155  15 -8.967274E+05 -3.705378E+05 -3.361691E+05 -2.527552E+05  7.126105E-10  8.135552E-10
       155  16 -1.273674E+06 -2.442729E+05 -1.857895E+05 -4.248476E+05 -9.997482E-10 -1.542936E-11
       155  17 -1.223650E+06 -2.646847E+05 -2.496473E+05 -4.634208E+05 -4.203006E-09  2.702157E-09
       155  18 -1.282630E+06 -5.973551E+05 -4.569120E+05 -4.409866E+05 -1.344682E-09 -1.371612E-09
       155  19 -4.488338E+05 -6.120307E+02  1.681020E+04 -2.674665E+05 -6.862430E+04 -9.045639E+03
       155  20 -4.264836E+05  8.271641E+04 -3.235667E+04 -1.964099E+05 -1.398261E+05 -3.506388E+04
       155  21 -5.106121E+05 -1.436152E+05 -2.153483E+05 -6.438309E+04 -2.068457E+05 -7.219750E+04
       155  22 -8.613352E+05 -1.224407E+05 -8.448004E+04 -3.461770E+05 -6.522792E+04 -7.770816E+03
       155  23 -8.251345E+05 -9.099402E+04 -1.409741E+05 -3.299551E+05 -1.423673E+05 -3.601373E+04
       155  24 -8.966760E+05 -3.705192E+05 -3.360711E+05 -2.527421E+05 -2.153236E+05 -7.535939E+04
       155  25 -1.273670E+06 -2.442719E+05 -1.857822E+05 -4.248473E+05 -6.183401E+04 -6.496468E+03
       155  26 -1.223627E+06 -2.646776E+05 -2.496052E+05 -4.634165E+05 -1.449066E+05 -3.696265E+04
       155  27 -1.282575E+06 -5.973349E+05 -4.568061E+05 -4.409724E+05 -2.237956E+05 -7.851627E+04
       156   1  2.561573E+05  2.193715E+06  2.510937E+05 -8.953777E+04  1.136930E+04  1.065689E+05
       156   2  1.953533E+05  2.138137E+06  1.773314E+05 -6.640573E+04  3.884619E+04  5.544884E+04
       156   3  1.709818E+05  2.098327E+06  1.459069E+05 -5.189255E+04  4.762815E+04  4.317241E+03
       156   4  5.564576E+04  1.379491E+06  6.156923E+04 -5.282568E+04  1.145127E+04  3.930553E+04
       156   5  1.404065E+04  1.374592E+06  3.303073E+04 -4.855147E+04  3.889257E+04  2.239761E+04
       156   6  2.964683E+03  1.379548E+06  2.314039E+04 -5.289417E+04  4.763150E+04  5.472642E+03
       156   7 -1.449051E+05  5.658900E+05 -1.279824E+05 -1.616174E+04  1.152537E+04 -2.787049E+04
       156   8 -1.673042E+05  6.116095E+05 -1.112915E+05 -3.071944E+04  3.893708E+04 -1.061408E+04
       156   9 -1.650799E+05  6.612747E+05 -9.964332E+04 -5.389440E+04  4.763486E+04  6.626748E+03
       156  10  2.561541E+05  2.193703E+06  2.510722E+05 -8.953874E+04 -9.351410E-10  4.757919E-09
       156  11  1.953509E+05  2.138134E+06  1.773228E+05 -6.640747E+04  7.263323E-10 -1.294763E-08
       156  12  1.709794E+05  2.098326E+06  1.459026E+05 -5.189271E+04  2.281131E-09 -2.505282E-08
       156  13  5.564520E+04  1.379490E+06  6.156608E+04 -5.282605E+04  2.600948E-11  1.236046E-11
       156  14  1.403889E+04  1.374591E+06  3.302694E+04 -4.855217E+04  2.913255E-10  1.048447E-09
       156  15  2.962238E+03  1.379547E+06  2.313607E+04 -5.289438E+04 -1.096836E-09  3.219667E-09
       156  16 -1.449054E+05  5.658891E+05 -1.279841E+05 -1.616149E+04 -4.810034E-10 -4.994256E-09
       156  17 -1.673059E+05  6.116090E+05 -1.112945E+05 -3.071911E+04  8.354330E-10  1.039739E-08
       156  18 -1.650823E+05  6.612740E+05 -9.964766E+04 -5.389466E+04  5.089719E-10  2.585716E-08
       156  19  2.561573E+05  2.193715E+06  2.510937E+05 -8.953777E+04 -1.136930E+04 -1.065689E+05
       156  20  1.953533E+05  2.138137E+06  1.773314E+05 -6.640573E+04 -3.884619E+04 -5.544884E+04
       156  21  1.709818E+05  2.098327E+06  1.459069E+05 -5.189255E+04 -4.762815E+04 -4.317241E+03
       156  22  5.564576E+04  1.379491E+06  6.156923E+04 -5.282568E+04 -1.145127E+04 -3.930553E+04
       156  23  1.404065E+04  1.374592E+06  3.303073E+04 -4.855147E+04 -3.889257E+04 -2.239761E+04
       156  24  2.964683E+03  1.379548E+06  2.314039E+04 -5.289417E+04 -4.763150E+04 -5.472642E+03
       156  25 -1.449051E+05  5.658900E+05 -1.279824E+05 -1.616174E+04 -1.152537E+04  2.787049E+04
       156  26 -1.673042E+05  6.116095E+05 -1.112915E+05 -3.071944E+04 -3.893708E+04  1.061408E+04
       156  27 -1.650799E+05  6.612747E+05 -9.964332E+04 -5.389440E+04 -4.763486E+04 -6.626748E+03
       157   1  1.634337E+05  2.065457E+06  1.375634E+05 -5.624191E+04  4.682705E+04  2.281275E+03
       157   2  1.508191E+05  2.016207E+06  1.291452E+05 -4.830260E+04  4.560351E+04 -1.476323E+04
       157   3  1.455739E+05  1.971014E+06  1.336431E+05 -5.022756E+04  4.152977E+04 -3.181199E+04
       157   4  3.038898E+03  1.378064E+06  2.166692E+04 -5.316565E+04  4.683222E+04  1.956330E+03
       157   5  2.030069E+03  1.376494E+06  2.365873E+04 -4.823040E+04  4.560029E+04 -9.864569E+03
       157   6  7.490071E+03  1.378078E+06  3.495343E+04 -5.315983E+04  4.151684E+04 -2.169090E+04
       157   7 -1.573807E+05  6.911347E+05 -9.424460E+04 -5.009271E+04  4.683739E+04  1.631732E+03
       157   8 -1.467800E+05  7.371843E+05 -8.183970E+04 -4.815812E+04  4.559707E+04 -4.970768E+03
       157   9 -1.306119E+05  7.854874E+05 -6.374655E+04 -5.608906E+04  4.150382E+04 -1.157913E+04
       157  10  1.634314E+05  2.065457E+06  1.375592E+05 -5.624199E+04  1.769707E-09  2.529920E-08
       157  11  1.508168E+05  2.016207E+06  1.291408E+05 -4.830206E+04 -3.958662E-11  8.047298E-09
       157  12  1.455718E+05  1.971013E+06  1.336379E+05 -5.022649E+04 -4.718215E-10 -4.939941E-09
       157  13  3.036541E+03  1.378063E+06  2.166279E+04 -5.316572E+04  2.487565E-11 -8.523002E-11
       157  14  2.027808E+03  1.376493E+06  2.365464E+04 -4.823004E+04  6.415530E-10  1.579576E-09
       157  15  7.488093E+03  1.378077E+06  3.494930E+04 -5.315910E+04 -6.990923E-10  4.006204E-09
       157  16 -1.573830E+05  6.911341E+05 -9.424873E+04 -5.009277E+04  6.047215E-11 -2.538005E-08
       157  17 -1.467822E+05  7.371837E+05 -8.184365E+04 -4.815794E+04  5.544932E-10 -1.157641E-08
       157  18 -1.306138E+05  7.854868E+05 -6.375004E+04 -5.608867E+04  5.468616E-10  5.965899E-09
       157  19  1.634337E+05  2.065457E+06  1.375634E+05 -5.624191E+04 -4.682705E+04 -2.281275E+03
       157  20  1.508191E+05  2.016207E+06  1.291452E+05 -4.830260E+04 -4.560351E+04  1.476323E+04
       157  21  1.455739E+05  1.971014E+06  1.336431E+05 -5.022756E+04 -4.152977E+04  3.181199E+04
       157  22  3.038898E+03  1.378064E+06  2.166692E+04 -5.316565E+04 -4.683222E+04 -1.956330E+03
       157  23  2.030069E+03  1.376494E+06  2.365873E+04 -4.823040E+04 -4.560029E+04  9.864569E+03
       157  24  7.490071E+03  1.378078E+06  3.495343E+04 -5.315983E+04 -4.151684E+04  2.169090E+04
       157  25 -1.573807E+05  6.911347E+05 -9.424460E+04 -5.009271E+04 -4.683739E+04 -1.631732E+03
       157  26 -1.467800E+05  7.371843E+05 -8.183970E+04 -4.815812E+04 -4.559707E+04  4.970768E+03
       157  27 -1.306119E+05  7.854874E+05 -6.374655E+04 -5.608906E+04 -4.150382E+04  1.157913E+04
       158   1  1.385046E+05  1.945968E+06  1.386137E+05 -5.934527E+04  3.878469E+04 -3.682455E+04
       158   2  1.572867E+05  1.885487E+06  1.715894E+05 -6.109237E+03  2.867398E+04 -9.540744E+04
       158   3  2.560309E+05  1.852577E+06  2.626140E+05  3.661465E+04  8.202378E+03 -1.540085E+05
       158   4  7.151598E+03  1.382788E+06  4.406773E+04 -5.333154E+04  3.877181E+04 -2.761247E+04
       158   5  3.576254E+04  1.370605E+06  7.699675E+04 -4.796354E+04  2.863205E+04 -6.724254E+04
       158   6  1.410768E+05  1.382714E+06  1.548529E+05 -5.310585E+04  8.136453E+03 -1.068926E+05
       158   7 -1.242178E+05  8.199198E+05 -5.048792E+04 -4.732329E+04  3.875911E+04 -1.840845E+04
       158   8 -8.576958E+04  8.559841E+05 -1.760285E+04 -8.978221E+04  2.858632E+04 -3.910031E+04
       158   9  2.613888E+04  9.130776E+05  4.709006E+04 -1.427580E+05  8.056925E+03 -5.981194E+04
       158  10  1.385026E+05  1.945967E+06  1.386084E+05 -5.934412E+04 -1.270671E-09 -7.930300E-11
       158  11  1.572834E+05  1.885477E+06  1.715708E+05 -6.107036E+03 -5.033615E-10 -3.385619E-09
       158  12  2.560245E+05  1.852552E+06  2.625694E+05  3.661567E+04 -3.824524E-10  9.473661E-10
       158  13  7.149779E+03  1.382787E+06  4.406348E+04 -5.333068E+04 -5.726610E-10  2.559306E-10
       158  14  3.576044E+04  1.370600E+06  7.698673E+04 -4.796200E+04 -2.226221E-09  2.049725E-09
       158  15  1.410737E+05  1.382702E+06  1.548314E+05 -5.310515E+04 -1.443286E-09  4.558034E-09
       158  16 -1.242195E+05  8.199190E+05 -5.049138E+04 -4.732271E+04 -2.597094E-10  2.995800E-10
       158  17 -8.577087E+04  8.559822E+05 -1.760726E+04 -8.978131E+04 -1.020347E-09 -6.139760E-10
       158  18  2.613785E+04  9.130738E+05  4.708323E+04 -1.427576E+05 -1.609451E-10  2.935171E-10
       158  19  1.385046E+05  1.945968E+06  1.386137E+05 -5.934527E+04 -3.878469E+04  3.682455E+04
       158  20  1.572867E+05  1.885487E+06  1.715894E+05 -6.109237E+03 -2.867398E+04  9.540744E+04
       158  21  2.560309E+05  1.852577E+06  2.626140E+05  3.661465E+04 -8.202378E+03  1.540085E+05
       158  22  7.151598E+03  1.382788E+06  4.406773E+04 -5.333154E+04 -3.877181E+04  2.761247E+04
       158  23  3.576254E+04  1.370605E+06  7.699675E+04 -4.796354E+04 -2.863205E+04  6.724254E+04
       158  24  1.410768E+05  1.382714E+06  1.548529E+05 -5.310585E+04 -8.136453E+03  1.068926E+05
       158  25 -1.242178E+05  8.199198E+05 -5.048792E+04 -4.732329E+04 -3.875911E+04  1.840845E+04
       158  26 -8.576958E+04  8.559841E+05 -1.760285E+04 -8.978221E+04 -2.858632E+04  3.910031E+04
       158  27  2.613888E+04  9.130776E+05  4.709006E+04 -1.427580E+05 -8.056925E+03  5.981194E+04
       159   1 -3.264379E+04 -1.127201E+05 -5.241997E+04  1.108357E+04  1.641793E+05  1.465632E+04
       159   2  5.417139E+04 -3.276646E+05 -1.658602E+05 -2.358191E+03  1.166493E+05  4.312650E+04
       159   3  2.137238E+05 -2.830240E+05 -1.831266E+05 -9.549233E+04  6.916989E+04  4.005871E+04
       159   4  1.309527E+06  2.210805E+05  2.774433E+05 -6.414829E+04  1.900035E+05  1.468977E+04
       159   5  1.271761E+06 -2.677961E+04  1.221959E+05 -2.408771E+04  1.241818E+05  4.312823E+04
       159   6  1.309733E+06 -1.216841E+04  7.566151E+04 -6.370255E+04  5.842222E+04  4.004790E+04
       159   7  2.653350E+06  5.547697E+05  6.071799E+05 -1.395438E+05  2.158831E+05  1.471694E+04
       159   8  2.490714E+06  2.740011E+05  4.101498E+05 -4.586056E+04  1.317289E+05  4.312945E+04
       159   9  2.406847E+06  2.586051E+05  3.343676E+05 -3.185655E+04  4.765562E+04  4.003601E+04
       159  10 -3.267279E+04 -1.127276E+05 -5.247103E+04  1.108163E+04  8.968042E-11 -5.105558E-11
       159  11  5.415628E+04 -3.276702E+05 -1.658892E+05 -2.362244E+03  1.304501E-09 -2.440264E-10
       159  12  2.137182E+05 -2.830270E+05 -1.831386E+05 -9.549456E+04  4.634003E-10 -6.283040E-11
       159  13  1.309488E+06  2.210706E+05  2.773752E+05 -6.415053E+04 -5.597363E-10 -7.062934E-11
       159  14  1.271744E+06 -2.678573E+04  1.221635E+05 -2.409202E+04 -1.603901E-09 -1.602235E-10
       159  15  1.309729E+06 -1.217105E+04  7.565209E+04 -6.370443E+04 -7.868014E-10  3.100715E-11
       159  16  2.653300E+06  5.547570E+05  6.070923E+05 -1.395464E+05 -3.597723E-10 -3.670789E-11
       159  17  2.490694E+06  2.739945E+05  4.101138E+05 -4.586513E+04  9.913594E-10 -4.507357E-11
       159  18  2.406844E+06  2.586027E+05  3.343603E+05 -3.185809E+04  3.594141E-10  2.204605E-10
       159  19 -3.264379E+04 -1.127201E+05 -5.241997E+04  1.108357E+04 -1.641793E+05 -1.465632E+04
       159  20  5.417139E+04 -3.276646E+05 -1.658602E+05 -2.358191E+03 -1.166493E+05 -4.312650E+04
       159  21  2.137238E+05 -2.830240E+05 -1.831266E+05 -9.549233E+04 -6.916989E+04 -4.005871E+04
       159  22  1.309527E+06  2.210805E+05  2.774433E+05 -6.414829E+04 -1.900035E+05 -1.468977E+04
       159  23  1.271761E+06 -2.677961E+04  1.221959E+05 -2.408771E+04 -1.241818E+05 -4.312823E+04
       159  24  1.309733E+06 -1.216841E+04  7.566151E+04 -6.370255E+04 -5.842222E+04 -4.004790E+04
       159  25  2.653350E+06  5.547697E+05  6.071799E+05 -1.395438E+05 -2.158831E+05 -1.471694E+04
       159  26  2.490714E+06  2.740011E+05  4.101498E+05 -4.586056E+04 -1.317289E+05 -4.312945E+04
       159  27  2.406847E+06  2.586051E+05  3.343676E+05 -3.185655E+04 -4.765562E+04 -4.003601E+04
       160   1  3.391703E+05 -2.156603E+05 -1.650199E+05 -5.729712E+04  4.798418E+04  3.272979E+04
       160   2  4.528506E+05 -2.097762E+05 -1.664100E+05 -2.321468E+04  3.296489E+04  2.969758E+04
       160   3  5.753730E+05 -1.790126E+05 -1.516643E+05 -6.627055E+04  1.793638E+04  2.472539E+04
       160   4  1.294950E+06  2.061479E+04  6.144728E+04 -6.326720E+04  4.684846E+04  3.272528E+04
       160   5  1.290476E+06 -2.791678E+03  3.166389E+04 -2.469738E+04  3.068852E+04  2.969443E+04
       160   6  1.295015E+06 -1.139808E+03  1.878935E+04 -6.325855E+04  1.452218E+04  2.472461E+04
       160   7  2.251567E+06  2.568245E+05  2.878510E+05 -6.924659E+04  4.571096E+04  3.272080E+04
       160   8  2.128745E+06  2.041426E+05  2.296893E+05 -2.618211E+04  2.840907E+04  2.969130E+04
       160   9  2.015132E+06  1.766959E+05  1.892071E+05 -6.024300E+04  1.110405E+04  2.472379E+04
       160  10  3.391675E+05 -2.156621E+05 -1.650262E+05 -5.729838E+04 -6.161468E-10  6.298105E-11
       160  11  4.528492E+05 -2.097774E+05 -1.664137E+05 -2.321547E+04  8.539819E-11  2.482421E-10
       160  12  5.753725E+05 -1.790134E+05 -1.516660E+05 -6.627090E+04 -1.895837E-10 -1.958303E-10
       160  13  1.294947E+06  2.061305E+04  6.144115E+04 -6.326843E+04 -5.678988E-10  3.110351E-11
       160  14  1.290475E+06 -2.792877E+03  3.166047E+04 -2.469811E+04 -3.419442E-10  1.561087E-10
       160  15  1.295015E+06 -1.140522E+03  1.878781E+04 -6.325884E+04  1.848745E-10  5.520805E-11
       160  16  2.251564E+06  2.568228E+05  2.878451E+05 -6.924780E+04  6.038908E-10  2.195180E-10
       160  17  2.128744E+06  2.041415E+05  2.296861E+05 -2.618278E+04 -8.985185E-11 -3.311204E-11
       160  18  2.015132E+06  1.766952E+05  1.892057E+05 -6.024322E+04  4.634762E-10  4.349166E-10
       160  19  3.391703E+05 -2.156603E+05 -1.650199E+05 -5.729712E+04 -4.798418E+04 -3.272979E+04
       160  20  4.528506E+05 -2.097762E+05 -1.664100E+05 -2.321468E+04 -3.296489E+04 -2.969758E+04
       160  21  5.753730E+05 -1.790126E+05 -1.516643E+05 -6.627055E+04 -1.793638E+04 -2.472539E+04
       160  22  1.294950E+06  2.061479E+04  6.144728E+04 -6.326720E+04 -4.684846E+04 -3.272528E+04
       160  23  1.290476E+06 -2.791678E+03  3.166389E+04 -2.469738E+04 -3.068852E+04 -2.969443E+04
       160  24  1.295015E+06 -1.139808E+03  1.878935E+04 -6.325855E+04 -1.452218E+04 -2.472461E+04
       160  25  2.251567E+06  2.568245E+05  2.878510E+05 -6.924659E+04 -4.571096E+04 -3.272080E+04
       160  26  2.128745E+06  2.041426E+05  2.296893E+05 -2.618211E+04 -2.840907E+04 -2.969130E+04
       160  27  2.015132E+06  1.766959E+05  1.892071E+05 -6.024300E+04 -1.110405E+04 -2.472379E+04
       161   1  7.094621E+05 -1.423160E+05 -1.230992E+05 -6.227943E+04  1.435544E+04  2.150667E+04
       161   2  8.240456E+05 -1.160797E+05 -1.026560E+05 -2.496907E+04  1.033564E+04  1.661182E+04
       161   3  9.398454E+05 -8.738655E+04 -7.897047E+04 -6.292644E+04  6.310675E+03  1.162458E+04
       161   4  1.293327E+06  1.878709E+03  1.463985E+04 -6.284499E+04  1.156584E+04  2.150671E+04
       161   5  1.292734E+06 -2.890574E+02  8.148210E+03 -2.521350E+04  7.489042E+03  1.661302E+04
       161   6  1.293355E+06  9.902876E+00  4.936910E+03 -6.284620E+04  3.407821E+03  1.162703E+04
       161   7  1.877504E+06  1.460491E+05  1.523555E+05 -6.341102E+04  8.773625E+03  2.150675E+04
       161   8  1.761623E+06  1.154859E+05  1.189372E+05 -2.545809E+04  4.640308E+03  1.661423E+04
       161   9  1.646979E+06  8.739739E+04  8.883562E+04 -6.276588E+04  5.033236E+02  1.162947E+04
       161  10  7.094617E+05 -1.423165E+05 -1.231005E+05 -6.227968E+04  2.837103E-10 -1.394807E-10
       161  11  8.240455E+05 -1.160800E+05 -1.026567E+05 -2.496921E+04  1.483670E-10  3.115034E-11
       161  12  9.398453E+05 -8.738671E+04 -7.897080E+04 -6.292650E+04  1.407496E-09 -4.179340E-10
       161  13  1.293326E+06  1.878176E+03  1.463873E+04 -6.284519E+04  4.928265E-10  1.642798E-10
       161  14  1.292734E+06 -2.893689E+02  8.147586E+03 -2.521360E+04 -1.077522E-09  4.682407E-11
       161  15  1.293355E+06  9.754504E+00  4.936634E+03 -6.284623E+04  2.986636E-10 -2.587110E-10
       161  16  1.877504E+06  1.460485E+05  1.523545E+05 -6.341117E+04  4.842874E-10  5.096243E-10
       161  17  1.761623E+06  1.154856E+05  1.189367E+05 -2.545815E+04 -6.212765E-10 -9.303993E-11
       161  18  1.646979E+06  8.739724E+04  8.883536E+04 -6.276588E+04 -1.843021E-09 -1.743530E-10
       161  19  7.094621E+05 -1.423160E+05 -1.230992E+05 -6.227943E+04 -1.435544E+04 -2.150667E+04
       161  20  8.240456E+05 -1.160797E+05 -1.026560E+05 -2.496907E+04 -1.033564E+04 -1.661182E+04
       161  21  9.398454E+05 -8.738655E+04 -7.897047E+04 -6.292644E+04 -6.310675E+03 -1.162458E+04
       161  22  1.293327E+06  1.878709E+03  1.463985E+04 -6.284499E+04 -1.156584E+04 -2.150671E+04
       161  23  1.292734E+06 -2.890574E+02  8.148210E+03 -2.521350E+04 -7.489042E+03 -1.661302E+04
       161  24  1.293355E+06  9.902876E+00  4.936910E+03 -6.284620E+04 -3.407821E+03 -1.162703E+04
       161  25  1.877504E+06  1.460491E+05  1.523555E+05 -6.341102E+04 -8.773625E+03 -2.150675E+04
       161  26  1.761623E+06  1.154859E+05  1.189372E+05 -2.545809E+04 -4.640308E+03 -1.661423E+04
       161  27  1.646979E+06  8.739739E+04  8.883562E+04 -6.276588E+04 -5.033236E+02 -1.162947E+04
       162   1  1.072984E+06 -5.404571E+04 -4.776768E+04 -6.251125E+04  5.463329E+03  8.713987E+03
       162   2  1.186870E+06 -2.621953E+04 -2.244613E+04 -2.537927E+04  4.140769E+03  3.761169E+03
       162   3  1.300851E+06  1.979379E+03  3.787232E+03 -6.268486E+04  2.816947E+03 -1.191472E+03
       162   4  1.293124E+06  2.636476E+02  3.925453E+03 -6.266185E+04  2.606321E+03  8.716870E+03
       162   5  1.293086E+06  1.569952E+01  2.659277E+03 -2.544355E+04  1.283217E+03  3.764291E+03
       162   6  1.293130E+06  1.409240E+02  2.305246E+03 -6.266202E+04 -4.090954E+01 -1.188063E+03
       162   7  1.513308E+06  5.456957E+04  5.561530E+04 -6.281249E+04 -2.516939E+02  8.719754E+03
       162   8  1.399312E+06  2.625013E+04  2.776393E+04 -2.550784E+04 -1.574820E+03  3.767414E+03
       162   9  1.285409E+06 -1.697530E+03  8.232877E+02 -6.263919E+04 -2.898731E+03 -1.184653E+03
       162  10  1.072984E+06 -5.404580E+04 -4.776788E+04 -6.251129E+04 -1.053232E-09 -1.742902E-10
       162  11  1.186870E+06 -2.621955E+04 -2.244619E+04 -2.537928E+04  1.507361E-13  3.303478E-10
       162  12  1.300851E+06  1.979375E+03  3.787214E+03 -6.268485E+04  2.063761E-10 -8.444814E-11
       162  13  1.293124E+06  2.635642E+02  3.925297E+03 -6.266187E+04  4.131201E-11 -3.031943E-10
       162  14  1.293086E+06  1.568385E+01  2.659247E+03 -2.544356E+04 -5.799625E-11  4.183448E-10
       162  15  1.293130E+06  1.409225E+02  2.305243E+03 -6.266202E+04  4.589803E-10  3.074863E-10
       162  16  1.513308E+06  5.456949E+04  5.561515E+04 -6.281249E+04 -3.365408E-10 -1.725407E-10
       162  17  1.399312E+06  2.625011E+04  2.776390E+04 -2.550784E+04  3.972794E-10 -9.438615E-11
       162  18  1.285409E+06 -1.697534E+03  8.232693E+02 -6.263919E+04 -4.819611E-10  2.112126E-10
       162  19  1.072984E+06 -5.404571E+04 -4.776768E+04 -6.251125E+04 -5.463329E+03 -8.713987E+03
       162  20  1.186870E+06 -2.621953E+04 -2.244613E+04 -2.537927E+04 -4.140769E+03 -3.761169E+03
       162  21  1.300851E+06  1.979379E+03  3.787232E+03 -6.268486E+04 -2.816947E+03  1.191472E+03
       162  22  1.293124E+06  2.636476E+02  3.925453E+03 -6.266185E+04 -2.606321E+03 -8.716870E+03
       162  23  1.293086E+06  1.569952E+01  2.659277E+03 -2.544355E+04 -1.283217E+03 -3.764291E+03
       162  24  1.293130E+06  1.409240E+02  2.305246E+03 -6.266202E+04  4.090954E+01  1.188063E+03
       162  25  1.513308E+06  5.456957E+04  5.561530E+04 -6.281249E+04  2.516939E+02 -8.719754E+03
       162  26  1.399312E+06  2.625013E+04  2.776393E+04 -2.550784E+04  1.574820E+03 -3.767414E+03
       162  27  1.285409E+06 -1.697530E+03  8.232877E+02 -6.263919E+04  2.898731E+03  1.184653E+03
       163   1  1.433727E+06  3.492456E+04  3.595870E+04 -6.279618E+04  2.389768E+03 -4.074643E+03
       163   2  1.547921E+06  6.293015E+04  6.334940E+04 -2.553106E+04  8.417063E+02 -9.035337E+03
       163   3  1.662315E+06  9.135948E+04  9.182298E+04 -6.291679E+04 -7.042287E+02 -1.400633E+04
       163   4  1.293148E+06  1.385649E+02  2.394336E+03 -6.271001E+04 -4.706739E+02 -4.071355E+03
       163   5  1.293047E+06 -9.678184E+00  3.120110E+03 -2.538355E+04 -2.024379E+03 -9.032698E+03
       163   6  1.293134E+06  2.678085E+02  4.933751E+03 -6.270983E+04 -3.575678E+03 -1.400429E+04
       163   7  1.152588E+06 -3.464885E+04 -3.117138E+04 -6.262386E+04 -3.330472E+03 -4.068068E+03
       163   8  1.038232E+06 -6.295415E+04 -5.711364E+04 -2.523609E+04 -4.889297E+03 -9.030060E+03
       163   9  9.240788E+05 -9.083357E+04 -8.196481E+04 -6.250296E+04 -6.445434E+03 -1.400226E+04
       163  10  1.433727E+06  3.492454E+04  3.595866E+04 -6.279617E+04  4.362929E-10 -4.702179E-10
       163  11  1.547921E+06  6.293007E+04  6.334924E+04 -2.553105E+04  1.245565E-09 -1.204051E-10
       163  12  1.662315E+06  9.135927E+04  9.182261E+04 -6.291679E+04 -4.435374E-10  3.265162E-10
       163  13  1.293148E+06  1.385471E+02  2.394305E+03 -6.271001E+04 -1.503486E-10  3.373787E-10
       163  14  1.293047E+06 -9.766948E+00  3.119948E+03 -2.538357E+04 -5.970951E-10  6.141397E-11
       163  15  1.293134E+06  2.675944E+02  4.933359E+03 -6.270987E+04 -1.093137E-09 -1.093803E-10
       163  16  1.152588E+06 -3.464888E+04 -3.117143E+04 -6.262387E+04 -1.195352E-09  1.765240E-10
       163  17  1.038232E+06 -6.295424E+04 -5.711384E+04 -2.523613E+04 -4.159951E-10  1.971530E-10
       163  18  9.240787E+05 -9.083379E+04 -8.196525E+04 -6.250303E+04 -6.024865E-10 -4.389748E-10
       163  19  1.433727E+06  3.492456E+04  3.595870E+04 -6.279618E+04 -2.389768E+03  4.074643E+03
       163  20  1.547921E+06  6.293015E+04  6.334940E+04 -2.553106E+04 -8.417063E+02  9.035337E+03
       163  21  1.662315E+06  9.135948E+04  9.182298E+04 -6.291679E+04  7.042287E+02  1.400633E+04
       163  22  1.293148E+06  1.385649E+02  2.394336E+03 -6.271001E+04  4.706739E+02  4.071355E+03
       163  23  1.293047E+06 -9.678184E+00  3.120110E+03 -2.538355E+04  2.024379E+03  9.032698E+03
       163  24  1.293134E+06  2.678085E+02  4.933751E+03 -6.270983E+04  3.575678E+03  1.400429E+04
       163  25  1.152588E+06 -3.464885E+04 -3.117138E+04 -6.262386E+04  3.330472E+03  4.068068E+03
       163  26  1.038232E+06 -6.295415E+04 -5.711364E+04 -2.523609E+04  4.889297E+03  9.030060E+03
       163  27  9.240788E+05 -9.083357E+04 -8.196481E+04 -6.250296E+04  6.445434E+03  1.400226E+04
       164   1  1.796863E+06  1.243023E+05  1.255942E+05 -6.282981E+04 -1.664649E+03 -1.693481E+04
       164   2  1.912250E+06  1.525708E+05  1.569807E+05 -2.520751E+04 -7.019144E+03 -2.195726E+04
       164   3  2.029402E+06  1.840174E+05  1.926912E+05 -6.351081E+04 -1.236863E+04 -2.688462E+04
       164   4  1.293449E+06 -6.159767E+01  6.311044E+03 -6.299406E+04 -4.590999E+03 -1.693347E+04
       164   5  1.292557E+06 -4.253615E+02  1.057347E+04 -2.502861E+04 -9.886066E+03 -2.195754E+04
       164   6  1.293412E+06  2.382142E+03  1.912339E+04 -6.299337E+04 -1.517514E+04 -2.688643E+04
       164   7  7.902667E+05 -1.244437E+05 -1.129897E+05 -6.315813E+04 -7.514992E+03 -1.693213E+04
       164   8  6.732164E+05 -1.534490E+05 -1.358603E+05 -2.484984E+04 -1.275014E+04 -2.195781E+04
       164   9  5.579178E+05 -1.792918E+05 -1.544818E+05 -6.247651E+04 -1.797834E+04 -2.688824E+04
       164  10  1.796863E+06  1.243020E+05  1.255937E+05 -6.282983E+04 -2.893263E-10  3.132143E-10
       164  11  1.912250E+06  1.525703E+05  1.569797E+05 -2.520763E+04  5.104440E-10 -2.335582E-10
       164  12  2.029402E+06  1.840166E+05  1.926896E+05 -6.351107E+04 -7.024756E-10 -7.924410E-10
       164  13  1.293449E+06 -6.191143E+01  6.310465E+03 -6.299413E+04 -4.054190E-10 -3.267135E-10
       164  14  1.292557E+06 -4.259057E+02  1.057238E+04 -2.502878E+04 -9.442183E-10 -2.981788E-10
       164  15  1.293411E+06  2.381303E+03  1.912160E+04 -6.299370E+04 -8.386506E-10 -8.611846E-11
       164  16  7.902665E+05 -1.244440E+05 -1.129904E+05 -6.315823E+04 -6.961788E-10 -4.704427E-10
       164  17  6.732161E+05 -1.534495E+05 -1.358615E+05 -2.485006E+04 -5.502719E-10 -1.705983E-10
       164  18  5.579173E+05 -1.792927E+05 -1.544837E+05 -6.247689E+04 -3.592438E-10 -7.403951E-11
       164  19  1.796863E+06  1.243023E+05  1.255942E+05 -6.282981E+04  1.664649E+03  1.693481E+04
       164  20  1.912250E+06  1.525708E+05  1.569807E+05 -2.520751E+04  7.019144E+03  2.195726E+04
       164  21  2.029402E+06  1.840174E+05  1.926912E+05 -6.351081E+04  1.236863E+04  2.688462E+04
       164  22  1.293449E+06 -6.159767E+01  6.311044E+03 -6.299406E+04  4.590999E+03  1.693347E+04
       164  23  1.292557E+06 -4.253615E+02  1.057347E+04 -2.502861E+04  9.886066E+03  2.195754E+04
       164  24  1.293412E+06  2.382142E+03  1.912339E+04 -6.299337E+04  1.517514E+04  2.688643E+04
       164  25  7.902667E+05 -1.244437E+05 -1.129897E+05 -6.315813E+04  7.514992E+03  1.693213E+04
       164  26  6.732164E+05 -1.534490E+05 -1.358603E+05 -2.484984E+04  1.275014E+04  2.195781E+04
       164  27  5.579178E+05 -1.792918E+05 -1.544818E+05 -6.247651E+04  1.797834E+04  2.688824E+04
       165   1  2.169129E+06  2.141145E+05  2.312024E+05 -5.924937E+04 -1.553057E+04 -3.016918E+04
       165   2  2.282976E+06  2.415023E+05  2.760827E+05 -2.597611E+04 -3.796201E+04 -3.520149E+04
       165   3  2.408970E+06  3.018424E+05  3.439719E+05 -7.092331E+04 -6.039169E+04 -3.807882E+04
       165   4  1.295620E+06 -1.573069E+03  2.456878E+04 -6.349687E+04 -1.903750E+04 -3.017234E+04
       165   5  1.289614E+06 -3.693324E+03  4.144268E+04 -2.439688E+04 -4.019399E+04 -3.520689E+04
       165   6  1.295539E+06  2.694838E+04  8.046920E+04 -6.352393E+04 -6.134442E+04 -3.808528E+04
       165   7  4.228089E+05 -2.173152E+05 -1.821177E+05 -6.773837E+04 -2.253952E+04 -3.017546E+04
       165   8  2.971552E+05 -2.489594E+05 -1.932655E+05 -2.282032E+04 -4.242239E+04 -3.521230E+04
       165   9  1.832438E+05 -2.480341E+05 -1.831194E+05 -5.613813E+04 -6.229538E+04 -3.809178E+04
       165  10  2.169129E+06  2.141135E+05  2.312003E+05 -5.924975E+04  6.585521E-10 -6.293109E-10
       165  11  2.282974E+06  2.415005E+05  2.760776E+05 -2.597718E+04  2.247976E-09  1.846170E-10
       165  12  2.408965E+06  3.018399E+05  3.439624E+05 -7.092516E+04 -2.624771E-11  4.735124E-10
       165  13  1.295619E+06 -1.574144E+03  2.456638E+04 -6.349733E+04 -1.830203E-10 -3.845715E-10
       165  14  1.289612E+06 -3.695088E+03  4.143732E+04 -2.439802E+04 -1.575292E-09  3.414505E-11
       165  15  1.295535E+06  2.694581E+04  8.045942E+04 -6.352581E+04 -1.581522E-09  4.909472E-10
       165  16  4.228081E+05 -2.173163E+05 -1.821203E+05 -6.773892E+04 -1.280604E-09 -3.417069E-11
       165  17  2.971529E+05 -2.489612E+05 -1.932712E+05 -2.282152E+04 -2.232474E-10 -5.541501E-10
       165  18  1.832392E+05 -2.480367E+05 -1.831294E+05 -5.614004E+04 -7.843006E-11  7.927347E-10
       165  19  2.169129E+06  2.141145E+05  2.312024E+05 -5.924937E+04  1.553057E+04  3.016918E+04
       165  20  2.282976E+06  2.415023E+05  2.760827E+05 -2.597611E+04  3.796201E+04  3.520149E+04
       165  21  2.408970E+06  3.018424E+05  3.439719E+05 -7.092331E+04  6.039169E+04  3.807882E+04
       165  22  1.295620E+06 -1.573069E+03  2.456878E+04 -6.349687E+04  1.903750E+04  3.017234E+04
       165  23  1.289614E+06 -3.693324E+03  4.144268E+04 -2.439688E+04  4.019399E+04  3.520689E+04
       165  24  1.295539E+06  2.694838E+04  8.046920E+04 -6.352393E+04  6.134442E+04  3.808528E+04
       165  25  4.228089E+05 -2.173152E+05 -1.821177E+05 -6.773837E+04  2.253952E+04  3.017546E+04
       165  26  2.971552E+05 -2.489594E+05 -1.932655E+05 -2.282032E+04  4.242239E+04  3.521230E+04
       165  27  1.832438E+05 -2.480341E+05 -1.831194E+05 -5.613813E+04  6.229538E+04  3.809178E+04
       166   1  2.571101E+06  2.940929E+05  3.952654E+05 -2.179604E+04 -6.479583E+04 -4.595456E+04
       166   2  2.645664E+06  3.054739E+05  4.861265E+05 -5.169817E+04 -1.713941E+05 -4.899254E+04
       166   3  2.822766E+06  6.637005E+05  7.333245E+05 -1.630608E+05 -2.781159E+05 -1.687610E+04
       166   4  1.314883E+06 -1.599168E+04  9.908427E+04 -6.399041E+04 -7.649790E+04 -4.597438E+04
       166   5  1.265158E+06 -3.507460E+04  1.600547E+05 -2.367394E+04 -1.626200E+05 -4.898811E+04
       166   6  1.314630E+06  2.895383E+05  3.634001E+05 -6.480898E+04 -2.488403E+05 -1.683690E+04
       166   7  6.011558E+04 -3.261823E+05 -1.972042E+05 -1.060997E+05 -8.817639E+04 -4.599264E+04
       166   8 -1.135999E+05 -3.757560E+05 -1.661481E+05  4.286900E+03 -1.538649E+05 -4.898289E+04
       166   9 -1.914198E+05 -8.475459E+04 -6.682299E+03  3.320334E+04 -2.196348E+05 -1.678846E+04
       166  10  2.571096E+06  2.940895E+05  3.952536E+05 -2.179844E+04  2.942965E-10  9.374900E-10
       166  11  2.645632E+06  3.054635E+05  4.860671E+05 -5.170492E+04  2.092935E-09  6.105430E-11
       166  12  2.822683E+06  6.636796E+05  7.331793E+05 -1.630646E+05 -2.617408E-10 -5.084255E-10
       166  13  1.314876E+06 -1.599551E+04  9.906932E+04 -6.399324E+04  5.462029E-10  6.165046E-10
       166  14  1.265130E+06 -3.508426E+04  1.600006E+05 -2.368036E+04 -1.663378E-09 -4.303660E-10
       166  15  1.314563E+06  2.895214E+05  3.632834E+05 -6.481235E+04 -1.942533E-09 -6.032873E-11
       166  16  6.010666E+04 -3.261866E+05 -1.972228E+05 -1.061030E+05 -4.492664E-10  6.912887E-10
       166  17 -1.136260E+05 -3.757650E+05 -1.661971E+05  4.280828E+03 -8.954012E-10  5.053384E-10
       166  18 -1.914717E+05 -8.476785E+04 -6.773504E+03  3.320037E+04  2.407168E-10 -1.955930E-10
       166  19  2.571101E+06  2.940929E+05  3.952654E+05 -2.179604E+04  6.479583E+04  4.595456E+04
       166  20  2.645664E+06  3.054739E+05  4.861265E+05 -5.169817E+04  1.713941E+05  4.899254E+04
       166  21  2.822766E+06  6.637005E+05  7.333245E+05 -1.630608E+05  2.781159E+05  1.687610E+04
       166  22  1.314883E+06 -1.599168E+04  9.908427E+04 -6.399041E+04  7.649790E+04  4.597438E+04
       166  23  1.265158E+06 -3.507460E+04  1.600547E+05 -2.367394E+04  1.626200E+05  4.898811E+04
       166  24  1.314630E+06  2.895383E+05  3.634001E+05 -6.480898E+04  2.488403E+05  1.683690E+04
       166  25  6.011558E+04 -3.261823E+05 -1.972042E+05 -1.060997E+05  8.817639E+04  4.599264E+04
       166  26 -1.135999E+05 -3.757560E+05 -1.661481E+05  4.286900E+03  1.538649E+05  4.898289E+04
       166  27 -1.914198E+05 -8.475459E+04 -6.682299E+03  3.320334E+04  2.196348E+05  1.678846E+04
       167   1  7.259319E+04  3.766464E+05  8.770537E+04 -6.336594E+04 -9.135725E+01  5.141166E+04
       167   2 -1.470619E+04  2.896058E+05  2.679440E+04 -2.336386E+04 -1.182243E+03  3.196472E+04
       167   3 -2.947014E+04  2.229213E+05 -3.392776E+03 -3.345515E+04 -4.268978E+03  1.251506E+04
       167   4  6.088823E+04  3.303384E+05  7.612247E+04 -4.203445E+04 -8.980989E+01  5.149425E+04
       167   5 -7.166278E+03  3.202653E+05  3.403578E+04 -1.706874E+04 -1.185019E+03  3.319841E+04
       167   6 -2.885733E+03  3.303464E+05  2.187672E+04 -4.219435E+04 -4.275109E+03  1.489751E+04
       167   7  4.918481E+04  2.840333E+05  6.453966E+04 -2.070456E+04 -8.825676E+01  5.157683E+04
       167   8  3.737151E+02  3.509258E+05  4.127712E+04 -1.077330E+04 -1.187769E+03  3.443216E+04
       167   9  2.369814E+04  4.377823E+05  4.714548E+04 -5.093506E+04 -4.281306E+03  1.728037E+04
       167  10  7.259248E+04  3.766435E+05  8.770041E+04 -6.336594E+04  7.627431E-10  8.284101E-10
       167  11 -1.470646E+04  2.896047E+05  2.679248E+04 -2.336383E+04  5.008311E-10 -1.528148E-10
       167  12 -2.947021E+04  2.229211E+05 -3.393105E+03 -3.345511E+04 -2.303770E-10 -1.466482E-09
       167  13  6.088752E+04  3.303355E+05  7.611749E+04 -4.203445E+04  1.167922E-09 -9.006554E-11
       167  14 -7.166576E+03  3.202641E+05  3.403371E+04 -1.706871E+04  9.606496E-10 -3.360803E-11
       167  15 -2.885812E+03  3.303462E+05  2.187626E+04 -4.219430E+04 -2.777060E-11  3.172857E-12
       167  16  4.918410E+04  2.840304E+05  6.453466E+04 -2.070455E+04  1.036162E-09 -9.083451E-10
       167  17  3.733956E+02  3.509245E+05  4.127489E+04 -1.077327E+04  3.038786E-09  1.174029E-10
       167  18  2.369804E+04  4.377820E+05  4.714488E+04 -5.093500E+04  1.056309E-09  1.368782E-09
       167  19  7.259319E+04  3.766464E+05  8.770537E+04 -6.336594E+04  9.135725E+01 -5.141166E+04
       167  20 -1.470619E+04  2.896058E+05  2.679440E+04 -2.336386E+04  1.182243E+03 -3.196472E+04
       167  21 -2.947014E+04  2.229213E+05 -3.392776E+03 -3.345515E+04  4.268978E+03 -1.251506E+04
       167  22  6.088823E+04  3.303384E+05  7.612247E+04 -4.203445E+04  8.980989E+01 -5.149425E+04
       167  23 -7.166278E+03  3.202653E+05  3.403578E+04 -1.706874E+04  1.185019E+03 -3.319841E+04
       167  24 -2.885733E+03  3.303464E+05  2.187672E+04 -4.219435E+04  4.275109E+03 -1.489751E+04
       167  25  4.918481E+04  2.840333E+05  6.453966E+04 -2.070456E+04  8.825676E+01 -5.157683E+04
       167  26  3.737151E+02  3.509258E+05  4.127712E+04 -1.077330E+04  1.187769E+03 -3.443216E+04
       167  27  2.369814E+04  4.377823E+05  4.714548E+04 -5.093506E+04  4.281306E+03 -1.728037E+04
       168   1 -4.299737E+04  1.291211E+05 -2.848051E+04 -4.387661E+04 -6.610373E+03  9.448107E+03
       168   2 -6.876005E+04  5.063639E+04 -5.356841E+04 -1.684838E+04 -9.744079E+03  4.084484E+03
       168   3 -8.523342E+04 -2.504304E+04 -7.289203E+04 -4.017387E+04 -1.210047E+04 -1.275152E+03
       168   4  5.829137E+03  3.264977E+05  1.837895E+04 -4.219607E+04 -6.615250E+03  1.148779E+04
       168   5 -8.992682E+02  3.250550E+05  1.137192E+04 -1.702501E+04 -9.747463E+03  5.674612E+03
       168   6  1.738068E+03  3.264893E+05  1.044052E+04 -4.220606E+04 -1.210250E+04 -1.352265E+02
       168   7  5.465286E+04  5.239101E+05  6.523570E+04 -4.051496E+04 -6.620116E+03  1.352811E+04
       168   8  6.695612E+04  5.995428E+05  7.630704E+04 -1.720167E+04 -9.750847E+03  7.265438E+03
       168   9  8.870069E+04  6.781351E+05  9.376447E+04 -4.423934E+04 -1.210454E+04  1.005341E+03
       168  10 -4.299744E+04  1.291210E+05 -2.848076E+04 -4.387656E+04 -1.343754E-09 -9.635242E-11
       168  11 -6.876016E+04  5.063635E+04 -5.356862E+04 -1.684835E+04 -2.272356E-10  5.690213E-11
       168  12 -8.523358E+04 -2.504308E+04 -7.289231E+04 -4.017388E+04  2.869124E-11  7.781148E-11
       168  13  5.829054E+03  3.264975E+05  1.837862E+04 -4.219600E+04 -8.839611E-10  2.104048E-11
       168  14 -8.993789E+02  3.250549E+05  1.137168E+04 -1.702496E+04 -1.091673E-09 -4.923860E-11
       168  15  1.737911E+03  3.264892E+05  1.044024E+04 -4.220606E+04 -5.474200E-11 -5.375657E-12
       168  16  5.465276E+04  5.239099E+05  6.523527E+04 -4.051489E+04 -7.880400E-10  2.009641E-10
       168  17  6.695600E+04  5.995427E+05  7.630676E+04 -1.720161E+04 -1.358605E-09  6.549745E-11
       168  18  8.870054E+04  6.781350E+05  9.376420E+04 -4.423933E+04 -1.985933E-10 -8.910924E-11
       168  19 -4.299737E+04  1.291211E+05 -2.848051E+04 -4.387661E+04  6.610373E+03 -9.448107E+03
       168  20 -6.876005E+04  5.063639E+04 -5.356841E+04 -1.684838E+04  9.744079E+03 -4.084484E+03
       168  21 -8.523342E+04 -2.504304E+04 -7.289203E+04 -4.017387E+04  1.210047E+04  1.275152E+03
       168  22  5.829137E+03  3.264977E+05  1.837895E+04 -4.219607E+04  6.615250E+03 -1.148779E+04
       168  23 -8.992682E+02  3.250550E+05  1.137192E+04 -1.702501E+04  9.747463E+03 -5.674612E+03
       168  24  1.738068E+03  3.264893E+05  1.044052E+04 -4.220606E+04  1.210250E+04  1.352265E+02
       168  25  5.465286E+04  5.239101E+05  6.523570E+04 -4.051496E+04  6.620116E+03 -1.352811E+04
       168  26  6.695612E+04  5.995428E+05  7.630704E+04 -1.720167E+04  9.750847E+03 -7.265438E+03
       168  27  8.870069E+04  6.781351E+05  9.376447E+04 -4.423934E+04  1.210454E+04 -1.005341E+03
       169   1 -1.096521E+05 -1.144957E+05 -9.391742E+04 -4.441840E+04 -1.600160E+04 -7.411404E+03
       169   2 -1.308096E+05 -1.949708E+05 -1.100999E+05 -1.425345E+04 -1.830273E+04 -5.920528E+03
       169   3 -1.286698E+05 -2.697920E+05 -1.214260E+05 -3.432470E+04 -6.214799E+03 -4.406632E+03
       169   4 -4.021604E+02  3.274049E+05  1.053744E+04 -4.218835E+04 -1.601216E+04 -1.945844E+03
       169   5 -2.471910E+03  3.238542E+05  1.273426E+04 -1.705530E+04 -1.829668E+04 -8.745084E+03
       169   6  2.018423E+04  3.273841E+05  2.553887E+04 -4.215526E+04 -6.197476E+03 -1.552106E+04
       169   7  1.088338E+05  7.694851E+05  1.149789E+05 -3.995661E+04 -1.602267E+04  3.523586E+03
       169   8  1.258464E+05  8.429265E+05  1.355498E+05 -1.985939E+04 -1.829060E+04 -1.157199E+04
       169   9  1.690120E+05  9.248851E+05  1.724780E+05 -4.999324E+04 -6.179883E+03 -2.664617E+04
       169  10 -1.096524E+05 -1.144958E+05 -9.391801E+04 -4.441849E+04 -1.567185E-10  2.595160E-10
       169  11 -1.308099E+05 -1.949709E+05 -1.101006E+05 -1.425354E+04  6.994516E-10  1.349640E-10
       169  12 -1.286698E+05 -2.697920E+05 -1.214261E+05 -3.432472E+04  3.130135E-10 -2.589347E-10
       169  13 -4.024368E+02  3.274049E+05  1.053696E+04 -4.218838E+04  5.329572E-10 -2.856237E-11
       169  14 -2.472290E+03  3.238540E+05  1.273349E+04 -1.705543E+04  1.147748E-10  6.798933E-11
       169  15  2.018412E+04  3.273839E+05  2.553835E+04 -4.215534E+04 -4.611768E-12  2.377264E-11
       169  16  1.088335E+05  7.694850E+05  1.149784E+05 -3.995657E+04 -7.648264E-10 -1.344873E-10
       169  17  1.258460E+05  8.429263E+05  1.355489E+05 -1.985956E+04  1.045014E-09 -1.693523E-10
       169  18  1.690118E+05  9.248843E+05  1.724766E+05 -4.999337E+04  5.253492E-10  1.525510E-10
       169  19 -1.096521E+05 -1.144957E+05 -9.391742E+04 -4.441840E+04  1.600160E+04  7.411404E+03
       169  20 -1.308096E+05 -1.949708E+05 -1.100999E+05 -1.425345E+04  1.830273E+04  5.920528E+03
       169  21 -1.286698E+05 -2.697920E+05 -1.214260E+05 -3.432470E+04  6.214799E+03  4.406632E+03
       169  22 -4.021604E+02  3.274049E+05  1.053744E+04 -4.218835E+04  1.601216E+04  1.945844E+03
       169  23 -2.471910E+03  3.238542E+05  1.273426E+04 -1.705530E+04  1.829668E+04  8.745084E+03
       169  24  2.018423E+04  3.273841E+05  2.553887E+04 -4.215526E+04  6.197476E+03  1.552106E+04
       169  25  1.088338E+05  7.694851E+05  1.149789E+05 -3.995661E+04  1.602267E+04 -3.523586E+03
       169  26  1.258464E+05  8.429265E+05  1.355498E+05 -1.985939E+04  1.829060E+04  1.157199E+04
       169  27  1.690120E+05  9.248851E+05  1.724780E+05 -4.999324E+04  6.179883E+03  2.664617E+04
       170   1 -1.942421E+06 -7.160618E+05 -4.800174E+05 -6.750566E+05 -2.054350E+05 -6.882619E+04
       170   2 -1.879235E+06 -4.106770E+05 -2.891077E+05 -6.875069E+05 -1.340896E+05 -2.404577E+04
       170   3 -1.906694E+06 -3.907130E+05 -2.286382E+05 -6.533129E+05 -5.647516E+04  4.153291E+03
       170   4 -1.329202E+06 -4.117053E+05 -2.991189E+05 -4.336668E+05 -1.927049E+05 -6.404883E+04
       170   5 -1.269004E+06 -1.595931E+05 -1.254893E+05 -4.985949E+05 -1.302191E+05 -2.259314E+04
       170   6 -1.297591E+06 -1.909924E+05 -7.516711E+04 -5.169100E+05 -6.146892E+04  2.272927E+03
       170   7 -7.156076E+05 -1.072399E+05 -1.182572E+05 -1.920353E+05 -1.799609E+05 -5.926249E+04
       170   8 -6.584098E+05  9.153422E+04  3.809595E+04 -3.095077E+05 -1.263445E+05 -2.113857E+04
       170   9 -6.881262E+05  8.731399E+03  7.827578E+04 -3.803954E+05 -6.646807E+04  3.911327E+02
       170  10 -1.942468E+06 -7.160783E+05 -4.801059E+05 -6.750680E+05  3.008451E-10  1.002235E-10
       170  11 -1.879255E+06 -4.106825E+05 -2.891427E+05 -6.875095E+05 -1.063594E-09  1.712924E-10
       170  12 -1.906698E+06 -3.907138E+05 -2.286442E+05 -6.533127E+05 -1.556353E-10  4.142910E-11
       170  13 -1.329243E+06 -4.117197E+05 -2.991965E+05 -4.336768E+05  1.528853E-10  4.195315E-12
       170  14 -1.269022E+06 -1.595982E+05 -1.255222E+05 -4.985973E+05 -1.065350E-09  1.934983E-12
       170  15 -1.297595E+06 -1.909935E+05 -7.517424E+04 -5.169099E+05  1.449256E-09  3.452655E-10
       170  16 -7.156433E+05 -1.072524E+05 -1.183247E+05 -1.920438E+05 -9.256146E-10 -2.343758E-10
       170  17 -6.584271E+05  9.152945E+04  3.806507E+04 -3.095098E+05  3.431443E-10 -1.337666E-10
       170  18 -6.881309E+05  8.730211E+03  7.826746E+04 -3.803953E+05  2.571046E-10  5.800245E-10
       170  19 -1.942421E+06 -7.160618E+05 -4.800174E+05 -6.750566E+05  2.054350E+05  6.882619E+04
       170  20 -1.879235E+06 -4.106770E+05 -2.891077E+05 -6.875069E+05  1.340896E+05  2.404577E+04
       170  21 -1.906694E+06 -3.907130E+05 -2.286382E+05 -6.533129E+05  5.647516E+04 -4.153291E+03
       170  22 -1.329202E+06 -4.117053E+05 -2.991189E+05 -4.336668E+05  1.927049E+05  6.404883E+04
       170  23 -1.269004E+06 -1.595931E+05 -1.254893E+05 -4.985949E+05  1.302191E+05  2.259314E+04
       170  24 -1.297591E+06 -1.909924E+05 -7.516711E+04 -5.169100E+05  6.146892E+04 -2.272927E+03
       170  25 -7.156076E+05 -1.072399E+05 -1.182572E+05 -1.920353E+05  1.799609E+05  5.926249E+04
       170  26 -6.584098E+05  9.153422E+04  3.809595E+04 -3.095077E+05  1.263445E+05  2.113857E+04
       170  27 -6.881262E+05  8.731399E+03  7.827578E+04 -3.803954E+05  6.646807E+04 -3.911327E+02
       171   1 -1.819559E+06 -4.281534E+05 -2.016703E+05 -6.522168E+05 -4.963377E+04  2.892948E+03
       171   2 -1.784244E+06 -3.736099E+05 -1.589870E+05 -6.319176E+05 -3.341620E+04  8.187285E+03
       171   3 -1.739464E+06 -3.672554E+05 -1.354476E+05 -6.294027E+05 -1.674826E+04  1.228353E+04
       171   4 -1.287514E+06 -2.213763E+05 -6.093441E+04 -5.000325E+05 -4.972045E+04  2.858364E+03
       171   5 -1.290733E+06 -1.863066E+05 -2.960030E+04 -4.952899E+05 -3.413449E+04  7.915751E+03
       171   6 -1.284354E+06 -1.992859E+05 -1.689559E+04 -5.083334E+05 -1.809936E+04  1.177481E+04
       171   7 -7.551950E+05 -1.457726E+04  7.977657E+04 -3.477287E+05 -4.980721E+04  2.823754E+03
       171   8 -7.969849E+05  1.013030E+03  9.976568E+04 -3.585635E+05 -3.485340E+04  7.643980E+03
       171   9 -8.290413E+05 -3.130502E+04  1.016394E+05 -3.871842E+05 -1.945156E+04  1.126570E+04
       171  10 -1.819562E+06 -4.281541E+05 -2.016750E+05 -6.522167E+05 -6.680705E-10  3.664843E-10
       171  11 -1.784245E+06 -3.736103E+05 -1.589893E+05 -6.319174E+05 -9.804496E-10  4.000416E-10
       171  12 -1.739464E+06 -3.672557E+05 -1.354484E+05 -6.294026E+05 -9.631293E-10 -5.837629E-10
       171  13 -1.287517E+06 -2.213770E+05 -6.093908E+04 -5.000324E+05 -9.665741E-10  5.511007E-10
       171  14 -1.290734E+06 -1.863070E+05 -2.960261E+04 -4.952897E+05 -5.542486E-10  1.413703E-10
       171  15 -1.284354E+06 -1.992862E+05 -1.689647E+04 -5.083332E+05 -6.091441E-10 -1.762847E-10
       171  16 -7.551977E+05 -1.457793E+04  7.977189E+04 -3.477286E+05  2.158469E-10  6.966549E-10
       171  17 -7.969862E+05  1.012640E+03  9.976329E+04 -3.585633E+05  9.148184E-10  3.136642E-10
       171  18 -8.290418E+05 -3.130525E+04  1.016384E+05 -3.871841E+05  1.597808E-09  4.022849E-10
       171  19 -1.819559E+06 -4.281534E+05 -2.016703E+05 -6.522168E+05  4.963377E+04 -2.892948E+03
       171  20 -1.784244E+06 -3.736099E+05 -1.589870E+05 -6.319176E+05  3.341620E+04 -8.187285E+03
       171  21 -1.739464E+06 -3.672554E+05 -1.354476E+05 -6.294027E+05  1.674826E+04 -1.228353E+04
       171  22 -1.287514E+06 -2.213763E+05 -6.093441E+04 -5.000325E+05  4.972045E+04 -2.858364E+03
       171  23 -1.290733E+06 -1.863066E+05 -2.960030E+04 -4.952899E+05  3.413449E+04 -7.915751E+03
       171  24 -1.284354E+06 -1.992859E+05 -1.689559E+04 -5.083334E+05  1.809936E+04 -1.177481E+04
       171  25 -7.551950E+05 -1.457726E+04  7.977657E+04 -3.477287E+05  4.980721E+04 -2.823754E+03
       171  26 -7.969849E+05  1.013030E+03  9.976568E+04 -3.585635E+05  3.485340E+04 -7.643980E+03
       171  27 -8.290413E+05 -3.130502E+04  1.016394E+05 -3.871842E+05  1.945156E+04 -1.126570E+04
       172   1 -1.681113E+06 -3.525859E+05 -1.172034E+05 -6.160794E+05 -1.416681E+04  1.174269E+04
       172   2 -1.647451E+06 -3.218278E+05 -9.945482E+04 -5.913524E+05 -9.891319E+03  1.112097E+04
       172   3 -1.592551E+06 -3.163307E+05 -8.504029E+04 -5.918335E+05 -5.573419E+03  1.038215E+04
       172   4 -1.282925E+06 -2.024940E+05 -1.312889E+04 -5.068652E+05 -1.519011E+04  1.135746E+04
       172   5 -1.293389E+06 -1.887658E+05 -6.881672E+03 -4.946741E+05 -1.097530E+04  1.071340E+04
       172   6 -1.282603E+06 -2.002844E+05 -3.918450E+03 -5.076904E+05 -6.718371E+03  9.952172E+03
       172   7 -8.845835E+05 -5.239199E+04  9.093220E+04 -3.975877E+05 -1.621413E+04  1.097196E+04
       172   8 -9.392053E+05 -5.569631E+04  8.568070E+04 -3.979460E+05 -1.205995E+04  1.030558E+04
       172   9 -9.725631E+05 -8.423270E+04  7.719497E+04 -4.235097E+05 -7.863948E+03  9.521959E+03
       172  10 -1.681113E+06 -3.525861E+05 -1.172041E+05 -6.160792E+05 -6.613593E-09 -3.312955E-09
       172  11 -1.647452E+06 -3.218279E+05 -9.945523E+04 -5.913523E+05 -2.982644E-09 -2.216758E-09
       172  12 -1.592551E+06 -3.163309E+05 -8.504055E+04 -5.918334E+05  4.864116E-09  1.618416E-09
       172  13 -1.282925E+06 -2.024942E+05 -1.312957E+04 -5.068651E+05 -4.948651E-10 -1.152354E-09
       172  14 -1.293389E+06 -1.887660E+05 -6.882114E+03 -4.946740E+05 -3.227766E-09 -2.199844E-09
       172  15 -1.282603E+06 -2.002845E+05 -3.918721E+03 -5.076904E+05 -1.727543E-09 -4.576834E-10
       172  16 -8.845838E+05 -5.239219E+04  9.093148E+04 -3.975875E+05  4.469948E-09  1.012115E-09
       172  17 -9.392055E+05 -5.569646E+04  8.568022E+04 -3.979459E+05 -4.572185E-09 -2.005773E-09
       172  18 -9.725632E+05 -8.423281E+04  7.719469E+04 -4.235096E+05 -7.183335E-09 -2.382024E-09
       172  19 -1.681113E+06 -3.525859E+05 -1.172034E+05 -6.160794E+05  1.416681E+04 -1.174269E+04
       172  20 -1.647451E+06 -3.218278E+05 -9.945482E+04 -5.913524E+05  9.891319E+03 -1.112097E+04
       172  21 -1.592551E+06 -3.163307E+05 -8.504029E+04 -5.918335E+05  5.573419E+03 -1.038215E+04
       172  22 -1.282925E+06 -2.024940E+05 -1.312889E+04 -5.068652E+05  1.519011E+04 -1.135746E+04
       172  23 -1.293389E+06 -1.887658E+05 -6.881672E+03 -4.946741E+05  1.097530E+04 -1.071340E+04
       172  24 -1.282603E+06 -2.002844E+05 -3.918450E+03 -5.076904E+05  6.718371E+03 -9.952172E+03
       172  25 -8.845835E+05 -5.239199E+04  9.093220E+04 -3.975877E+05  1.621413E+04 -1.097196E+04
       172  26 -9.392053E+05 -5.569631E+04  8.568070E+04 -3.979460E+05  1.205995E+04 -1.030558E+04
       172  27 -9.725631E+05 -8.423270E+04  7.719497E+04 -4.235097E+05  7.863948E+03 -9.521959E+03
       173   1 -1.535083E+06 -2.956240E+05 -6.896245E+04 -5.766598E+05 -4.554981E+03  9.357337E+03
       173   2 -1.500605E+06 -2.663880E+05 -5.588059E+04 -5.507326E+05 -2.822183E+03  7.597752E+03
       173   3 -1.442950E+06 -2.608053E+05 -4.356616E+04 -5.515233E+05 -1.080338E+03  5.811295E+03
       173   4 -1.282282E+06 -2.007452E+05 -3.054616E+03 -5.077163E+05 -5.685128E+03  8.933166E+03
       173   5 -1.293851E+06 -1.888097E+05 -1.850338E+03 -4.943974E+05 -3.966383E+03  7.168579E+03
       173   6 -1.282246E+06 -2.005245E+05 -1.402246E+03 -5.077968E+05 -2.238674E+03  5.377106E+03
       173   7 -1.029417E+06 -1.058622E+05  6.284806E+04 -4.387472E+05 -6.815784E+03  8.508805E+03
       173   8 -1.087056E+06 -1.112286E+05  5.217640E+04 -4.380451E+05 -5.111004E+03  6.739248E+03
       173   9 -1.121516E+06 -1.402421E+05  4.075947E+04 -4.640601E+05 -3.397340E+03  4.942793E+03
       173  10 -1.535083E+06 -2.956241E+05 -6.896266E+04 -5.766598E+05  1.507283E-09  9.604435E-10
       173  11 -1.500605E+06 -2.663881E+05 -5.588072E+04 -5.507325E+05  1.291314E-10  3.575529E-10
       173  12 -1.442950E+06 -2.608053E+05 -4.356622E+04 -5.515233E+05 -7.265393E-11 -2.141209E-10
       173  13 -1.282282E+06 -2.007453E+05 -3.054827E+03 -5.077163E+05 -1.440211E-10  6.627389E-11
       173  14 -1.293851E+06 -1.888098E+05 -1.850464E+03 -4.943974E+05 -1.119301E-09  2.240915E-13
       173  15 -1.282246E+06 -2.005245E+05 -1.402310E+03 -5.077968E+05  3.857314E-10  1.062203E-10
       173  16 -1.029417E+06 -1.058623E+05  6.284784E+04 -4.387472E+05 -1.738006E-09 -3.664158E-10
       173  17 -1.087056E+06 -1.112287E+05  5.217626E+04 -4.380451E+05 -4.865011E-10 -2.436199E-11
       173  18 -1.121516E+06 -1.402421E+05  4.075941E+04 -4.640601E+05 -3.273852E-10  4.787446E-10
       173  19 -1.535083E+06 -2.956240E+05 -6.896245E+04 -5.766598E+05  4.554981E+03 -9.357337E+03
       173  20 -1.500605E+06 -2.663880E+05 -5.588059E+04 -5.507326E+05  2.822183E+03 -7.597752E+03
       173  21 -1.442950E+06 -2.608053E+05 -4.356616E+04 -5.515233E+05  1.080338E+03 -5.811295E+03
       173  22 -1.282282E+06 -2.007452E+05 -3.054616E+03 -5.077163E+05  5.685128E+03 -8.933166E+03
       173  23 -1.293851E+06 -1.888097E+05 -1.850338E+03 -4.943974E+05  3.966383E+03 -7.168579E+03
       173  24 -1.282246E+06 -2.005245E+05 -1.402246E+03 -5.077968E+05  2.238674E+03 -5.377106E+03
       173  25 -1.029417E+06 -1.058622E+05  6.284806E+04 -4.387472E+05  6.815784E+03 -8.508805E+03
       173  26 -1.087056E+06 -1.112286E+05  5.217640E+04 -4.380451E+05  5.111004E+03 -6.739248E+03
       173  27 -1.121516E+06 -1.402421E+05  4.075947E+04 -4.640601E+05  3.397340E+03 -4.942793E+03
       174   1 -1.384448E+06 -2.389843E+05 -2.792965E+04 -5.357953E+05 -3.771573E+02  4.642985E+03
       174   2 -1.349386E+06 -2.094997E+05 -1.615354E+04 -5.093837E+05  1.267353E+03  2.795777E+03
       174   3 -1.290797E+06 -2.040083E+05 -5.067763E+03 -5.101567E+05  2.912584E+03  9.459606E+02
       174   4 -1.282166E+06 -2.006172E+05 -1.373760E+03 -5.078924E+05 -1.539248E+03  4.207514E+03
       174   5 -1.293938E+06 -1.886931E+05 -1.664321E+03 -4.942724E+05  1.039166E+02  2.359873E+03
       174   6 -1.282185E+06 -2.007621E+05 -2.644022E+03 -5.078378E+05  1.747733E+03  5.096054E+02
       174   7 -1.179873E+06 -1.622496E+05  2.518118E+04 -4.799854E+05 -2.701546E+03  3.771964E+03
       174   8 -1.238487E+06 -1.678864E+05  1.282464E+04 -4.791599E+05 -1.059634E+03  1.923926E+03
       174   9 -1.273573E+06 -1.975159E+05 -2.202755E+02 -5.055188E+05  5.828613E+02  7.324227E+01
       174  10 -1.384448E+06 -2.389843E+05 -2.792970E+04 -5.357953E+05 -4.158983E-10 -2.233165E-10
       174  11 -1.349386E+06 -2.094997E+05 -1.615356E+04 -5.093838E+05 -6.114780E-10 -4.342237E-11
       174  12 -1.290797E+06 -2.040083E+05 -5.067780E+03 -5.101567E+05  1.022642E-09  3.727847E-10
       174  13 -1.282166E+06 -2.006172E+05 -1.373798E+03 -5.078924E+05  2.107179E-10 -3.990485E-11
       174  14 -1.293938E+06 -1.886931E+05 -1.664332E+03 -4.942724E+05  3.244180E-13 -1.847039E-11
       174  15 -1.282185E+06 -2.007621E+05 -2.644028E+03 -5.078378E+05  1.531800E-09  3.678307E-10
       174  16 -1.179873E+06 -1.622496E+05  2.518114E+04 -4.799854E+05 -4.523789E-10  1.428249E-10
       174  17 -1.238487E+06 -1.678864E+05  1.282464E+04 -4.791599E+05  2.249008E-10  2.425540E-10
       174  18 -1.273573E+06 -1.975159E+05 -2.202761E+02 -5.055188E+05  1.756412E-09  3.432374E-10
       174  19 -1.384448E+06 -2.389843E+05 -2.792965E+04 -5.357953E+05  3.771573E+02 -4.642985E+03
       174  20 -1.349386E+06 -2.094997E+05 -1.615354E+04 -5.093837E+05 -1.267353E+03 -2.795777E+03
       174  21 -1.290797E+06 -2.040083E+05 -5.067763E+03 -5.101567E+05 -2.912584E+03 -9.459606E+02
       174  22 -1.282166E+06 -2.006172E+05 -1.373760E+03 -5.078924E+05  1.539248E+03 -4.207514E+03
       174  23 -1.293938E+06 -1.886931E+05 -1.664321E+03 -4.942724E+05 -1.039166E+02 -2.359873E+03
       174  24 -1.282185E+06 -2.007621E+05 -2.644022E+03 -5.078378E+05 -1.747733E+03 -5.096054E+02
       174  25 -1.179873E+06 -1.622496E+05  2.518118E+04 -4.799854E+05  2.701546E+03 -3.771964E+03
       174  26 -1.238487E+06 -1.678864E+05  1.282464E+04 -4.791599E+05  1.059634E+03 -1.923926E+03
       174  27 -1.273573E+06 -1.975159E+05 -2.202755E+02 -5.055188E+05 -5.828613E+02 -7.324227E+01
       175   1 -1.231938E+06 -1.818839E+05  9.917219E+03 -4.945698E+05  3.896444E+03 -1.337778E+02
       175   2 -1.196812E+06 -1.520663E+05  1.946927E+04 -4.678555E+05  7.633117E+03 -1.196639E+03
       175   3 -1.139245E+06 -1.482156E+05  2.622516E+04 -4.678096E+05  1.134684E+04 -2.196345E+03
       175   4 -1.282333E+06 -2.005203E+05 -3.369827E+03 -5.079789E+05  2.716495E+03 -5.758077E+02
       175   5 -1.293681E+06 -1.884555E+05 -5.848865E+03 -4.942998E+05  6.486591E+03 -1.626285E+03
       175   6 -1.282597E+06 -2.023649E+05 -1.115081E+04 -5.072901E+05  1.023349E+04 -2.613688E+03
       175   7 -1.332725E+06 -2.191565E+05 -1.665708E+04 -5.213870E+05  1.536651E+03 -1.017800E+03
       175   8 -1.390541E+06 -2.248441E+05 -3.116775E+04 -5.207403E+05  5.340263E+03 -2.055857E+03
       175   9 -1.425929E+06 -2.565127E+05 -4.852838E+04 -5.467622E+05  9.120425E+03 -3.030922E+03
       175  10 -1.231938E+06 -1.818839E+05  9.917191E+03 -4.945698E+05  1.809049E-09  2.378010E-10
       175  11 -1.196812E+06 -1.520663E+05  1.946916E+04 -4.678555E+05  4.899421E-10 -3.227499E-10
       175  12 -1.139246E+06 -1.482156E+05  2.622491E+04 -4.678096E+05  4.412483E-10 -1.518766E-10
       175  13 -1.282333E+06 -2.005203E+05 -3.369842E+03 -5.079789E+05  1.568334E-09  1.904933E-10
       175  14 -1.293681E+06 -1.884555E+05 -5.848949E+03 -4.942998E+05  3.714537E-10 -4.991469E-10
       175  15 -1.282597E+06 -2.023649E+05 -1.115102E+04 -5.072901E+05 -1.175152E-10  7.070469E-12
       175  16 -1.332725E+06 -2.191565E+05 -1.665709E+04 -5.213870E+05  1.326822E-09  2.400399E-10
       175  17 -1.390541E+06 -2.248441E+05 -3.116781E+04 -5.207403E+05 -7.468146E-12 -1.913084E-10
       175  18 -1.425929E+06 -2.565127E+05 -4.852856E+04 -5.467622E+05 -1.924243E-10  2.618171E-10
       175  19 -1.231938E+06 -1.818839E+05  9.917219E+03 -4.945698E+05 -3.896444E+03  1.337778E+02
       175  20 -1.196812E+06 -1.520663E+05  1.946927E+04 -4.678555E+05 -7.633117E+03  1.196639E+03
       175  21 -1.139245E+06 -1.482156E+05  2.622516E+04 -4.678096E+05 -1.134684E+04  2.196345E+03
       175  22 -1.282333E+06 -2.005203E+05 -3.369827E+03 -5.079789E+05 -2.716495E+03  5.758077E+02
       175  23 -1.293681E+06 -1.884555E+05 -5.848865E+03 -4.942998E+05 -6.486591E+03  1.626285E+03
       175  24 -1.282597E+06 -2.023649E+05 -1.115081E+04 -5.072901E+05 -1.023349E+04  2.613688E+03
       175  25 -1.332725E+06 -2.191565E+05 -1.665708E+04 -5.213870E+05 -1.536651E+03  1.017800E+03
       175  26 -1.390541E+06 -2.248441E+05 -3.116775E+04 -5.207403E+05 -5.340263E+03  2.055857E+03
       175  27 -1.425929E+06 -2.565127E+05 -4.852838E+04 -5.467622E+05 -9.120425E+03  3.030922E+03
       176   1 -1.080021E+06 -1.259802E+05  3.851973E+04 -4.559154E+05  1.412897E+04 -2.697235E+03
       176   2 -1.045122E+06 -9.231478E+04  3.954999E+04 -4.260088E+05  2.748261E+04 -6.508045E+01
       176   3 -9.970980E+05 -1.044303E+05  2.507523E+04 -4.171370E+05  4.053980E+04  3.363917E+03
       176   4 -1.283701E+06 -1.997683E+05 -1.434754E+04 -5.086717E+05  1.279114E+04 -3.198808E+03
       176   5 -1.291549E+06 -1.861995E+05 -2.509830E+04 -4.946449E+05  2.656837E+04 -4.083082E+02
       176   6 -1.286362E+06 -2.185036E+05 -5.169564E+04 -5.016547E+05  4.004813E+04  3.178634E+03
       176   7 -1.487342E+06 -2.735548E+05 -6.721844E+04 -5.614128E+05  1.145378E+04 -3.700216E+03
       176   8 -1.537918E+06 -2.800802E+05 -8.975188E+04 -5.632564E+05  2.565452E+04 -7.513825E+02
       176   9 -1.575545E+06 -3.325693E+05 -1.284738E+05 -5.861359E+05  3.955671E+04  2.993454E+03
       176  10 -1.080021E+06 -1.259803E+05  3.851934E+04 -4.559153E+05  1.020318E-09  6.169008E-11
       176  11 -1.045123E+06 -9.231498E+04  3.954857E+04 -4.260088E+05  1.502659E-10 -9.167506E-11
       176  12 -9.970998E+05 -1.044308E+05  2.507212E+04 -4.171371E+05  3.569203E-10 -1.697562E-10
       176  13 -1.283702E+06 -1.997683E+05 -1.434787E+04 -5.086716E+05  1.272139E-09  1.222574E-10
       176  14 -1.291550E+06 -1.861997E+05 -2.509963E+04 -4.946449E+05  2.153316E-10  1.283083E-11
       176  15 -1.286364E+06 -2.185040E+05 -5.169868E+04 -5.016548E+05  6.133215E-10 -1.630521E-10
       176  16 -1.487342E+06 -2.735548E+05 -6.721871E+04 -5.614128E+05 -6.090192E-10 -1.424044E-11
       176  17 -1.537919E+06 -2.800804E+05 -8.975312E+04 -5.632564E+05 -4.852327E-10 -5.992742E-12
       176  18 -1.575547E+06 -3.325697E+05 -1.284768E+05 -5.861360E+05  2.478775E-10 -2.637974E-11
       176  19 -1.080021E+06 -1.259802E+05  3.851973E+04 -4.559154E+05 -1.412897E+04  2.697235E+03
       176  20 -1.045122E+06 -9.231478E+04  3.954999E+04 -4.260088E+05 -2.748261E+04  6.508045E+01
       176  21 -9.970980E+05 -1.044303E+05  2.507523E+04 -4.171370E+05 -4.053980E+04 -3.363917E+03
       176  22 -1.283701E+06 -1.997683E+05 -1.434754E+04 -5.086717E+05 -1.279114E+04  3.198808E+03
       176  23 -1.291549E+06 -1.861995E+05 -2.509830E+04 -4.946449E+05 -2.656837E+04  4.083082E+02
       176  24 -1.286362E+06 -2.185036E+05 -5.169564E+04 -5.016547E+05 -4.004813E+04 -3.178634E+03
       176  25 -1.487342E+06 -2.735548E+05 -6.721844E+04 -5.614128E+05 -1.145378E+04  3.700216E+03
       176  26 -1.537918E+06 -2.800802E+05 -8.975188E+04 -5.632564E+05 -2.565452E+04  7.513825E+02
       176  27 -1.575545E+06 -3.325693E+05 -1.284738E+05 -5.861359E+05 -3.955671E+04 -2.993454E+03
       177   1 -9.269981E+05 -7.974949E+04  2.747426E+04 -4.414873E+05  5.377933E+04  5.201797E+03
       177   2 -8.931784E+05 -2.743743E+03 -3.780088E+03 -3.750942E+05  1.063825E+05  2.331188E+04
       177   3 -9.278996E+05 -1.707886E+05 -1.348972E+05 -2.759105E+05  1.547924E+05  5.259770E+04
       177   4 -1.294840E+06 -1.928097E+05 -6.377108E+04 -5.160635E+05  4.997634E+04  3.776378E+03
       177   5 -1.273247E+06 -1.633707E+05 -1.064319E+05 -4.972753E+05  1.085614E+05  2.412583E+04
       177   6 -1.321445E+06 -3.802662E+05 -2.537519E+05 -4.456843E+05  1.629503E+05  5.564476E+04
       177   7 -1.662549E+06 -3.058706E+05 -1.550260E+05 -5.906043E+05  4.617583E+04  2.351504E+03
       177   8 -1.653175E+06 -3.239776E+05 -2.090965E+05 -6.193849E+05  1.107388E+05  2.493906E+04
       177   9 -1.714832E+06 -5.896828E+05 -3.726214E+05 -6.153459E+05  1.711025E+05  5.868766E+04
       177  10 -9.270012E+05 -7.975030E+04  2.746876E+04 -4.414875E+05 -2.875602E-11 -2.211268E-10
       177  11 -8.931907E+05 -2.747372E+03 -3.802413E+03 -3.750962E+05  1.946641E-10 -1.085166E-10
       177  12 -9.279261E+05 -1.707981E+05 -1.349475E+05 -2.759170E+05 -8.937119E-11  5.513444E-11
       177  13 -1.294843E+06 -1.928104E+05 -6.377581E+04 -5.160636E+05 -3.486953E-10 -1.141801E-10
       177  14 -1.273260E+06 -1.633745E+05 -1.064552E+05 -4.972775E+05 -1.756563E-10  2.207020E-10
       177  15 -1.321475E+06 -3.802767E+05 -2.538077E+05 -4.456916E+05 -2.554085E-10 -8.091415E-11
       177  16 -1.662551E+06 -3.058712E+05 -1.550300E+05 -5.906044E+05  5.568324E-10  3.495518E-11
       177  17 -1.653188E+06 -3.239815E+05 -2.091208E+05 -6.193871E+05 -7.750392E-10  2.766452E-11
       177  18 -1.714864E+06 -5.896944E+05 -3.726831E+05 -6.153540E+05 -3.003135E-10 -8.147137E-11
       177  19 -9.269981E+05 -7.974949E+04  2.747426E+04 -4.414873E+05 -5.377933E+04 -5.201797E+03
       177  20 -8.931784E+05 -2.743743E+03 -3.780088E+03 -3.750942E+05 -1.063825E+05 -2.331188E+04
       177  21 -9.278996E+05 -1.707886E+05 -1.348972E+05 -2.759105E+05 -1.547924E+05 -5.259770E+04
       177  22 -1.294840E+06 -1.928097E+05 -6.377108E+04 -5.160635E+05 -4.997634E+04 -3.776378E+03
       177  23 -1.273247E+06 -1.633707E+05 -1.064319E+05 -4.972753E+05 -1.085614E+05 -2.412583E+04
       177  24 -1.321445E+06 -3.802662E+05 -2.537519E+05 -4.456843E+05 -1.629503E+05 -5.564476E+04
       177  25 -1.662549E+06 -3.058706E+05 -1.550260E+05 -5.906043E+05 -4.617583E+04 -2.351504E+03
       177  26 -1.653175E+06 -3.239776E+05 -2.090965E+05 -6.193849E+05 -1.107388E+05 -2.493906E+04
       177  27 -1.714832E+06 -5.896828E+05 -3.726214E+05 -6.153459E+05 -1.711025E+05 -5.868766E+04
       178   1 -1.329292E+06 -2.880227E+05 -2.487092E+05 -2.705190E+04  8.118989E+04  1.837312E+04
       178   2 -1.219514E+06 -4.010780E+05 -2.949704E+05 -1.584821E+04  6.450349E+04  5.503925E+04
       178   3 -1.066445E+06 -3.600834E+05 -2.913532E+05 -8.943266E+04  4.792265E+04  5.220389E+04
       178   4  3.581049E+05  1.323738E+05  1.665187E+05 -6.977055E+04  1.138732E+05  1.845996E+04
       178   5  3.345952E+05 -1.651372E+04  7.316548E+04 -2.720271E+04  7.438333E+04  5.504988E+04
       178   6  3.582144E+05 -7.599950E+03  4.542727E+04 -6.940580E+04  3.500451E+04  5.218043E+04
       178   7  2.048102E+06  5.525665E+05  5.815419E+05 -1.126075E+05  1.466450E+05  1.854220E+04
       178   8  1.890926E+06  3.678778E+05  4.411341E+05 -3.858697E+04  8.428763E+04  5.506013E+04
       178   9  1.784742E+06  3.447396E+05  3.820680E+05 -4.933317E+04  2.205679E+04  5.215616E+04
       178  10 -1.329299E+06 -2.880248E+05 -2.487223E+05 -2.705310E+04  1.395645E-10  3.137145E-10
       178  11 -1.219519E+06 -4.010824E+05 -2.949840E+05 -1.585107E+04  1.711065E-09 -1.114718E-09
       178  12 -1.066448E+06 -3.600870E+05 -2.913627E+05 -8.943468E+04 -1.020564E-09 -3.311668E-10
       178  13  3.580909E+05  1.323700E+05  1.664937E+05 -6.977225E+04  5.148891E-10 -9.763650E-10
       178  14  3.345884E+05 -1.651845E+04  7.314939E+04 -2.720601E+04  5.264461E-12 -3.416859E-10
       178  15  3.582124E+05 -7.603203E+03  4.541985E+04 -6.940727E+04 -2.644040E-10 -5.512076E-10
       178  16  2.048079E+06  5.525604E+05  5.815010E+05 -1.126096E+05  5.904484E-10  9.883688E-10
       178  17  1.890918E+06  3.678726E+05  4.411151E+05 -3.859070E+04 -8.334055E-10 -1.095304E-09
       178  18  1.784740E+06  3.447365E+05  3.820620E+05 -4.933409E+04  1.258192E-09 -4.733529E-10
       178  19 -1.329292E+06 -2.880227E+05 -2.487092E+05 -2.705190E+04 -8.118989E+04 -1.837312E+04
       178  20 -1.219514E+06 -4.010780E+05 -2.949704E+05 -1.584821E+04 -6.450349E+04 -5.503925E+04
       178  21 -1.066445E+06 -3.600834E+05 -2.913532E+05 -8.943266E+04 -4.792265E+04 -5.220389E+04
       178  22  3.581049E+05  1.323738E+05  1.665187E+05 -6.977055E+04 -1.138732E+05 -1.845996E+04
       178  23  3.345952E+05 -1.651372E+04  7.316548E+04 -2.720271E+04 -7.438333E+04 -5.504988E+04
       178  24  3.582144E+05 -7.599950E+03  4.542727E+04 -6.940580E+04 -3.500451E+04 -5.218043E+04
       178  25  2.048102E+06  5.525665E+05  5.815419E+05 -1.126075E+05 -1.466450E+05 -1.854220E+04
       178  26  1.890926E+06  3.678778E+05  4.411341E+05 -3.858697E+04 -8.428763E+04 -5.506013E+04
       178  27  1.784742E+06  3.447396E+05  3.820680E+05 -4.933317E+04 -2.205679E+04 -5.215616E+04
       179   1 -9.234252E+05 -3.029320E+05 -2.650911E+05 -6.652345E+04  2.900943E+04  4.355339E+04
       179   2 -7.971454E+05 -2.847465E+05 -2.517670E+05 -2.654868E+04  2.079685E+04  4.058697E+04
       179   3 -6.648454E+05 -2.517053E+05 -2.291153E+05 -7.110431E+04  1.257311E+04  3.513926E+04
       179   4  3.492330E+05  1.208001E+04  3.686508E+04 -6.945774E+04  2.805919E+04  4.354638E+04
       179   5  3.461456E+05 -1.880252E+03  1.892279E+04 -2.719341E+04  1.840112E+04  4.058114E+04
       179   6  3.493021E+05 -7.485093E+02  1.129813E+04 -6.944935E+04  8.733576E+03  3.513665E+04
       179   7  1.623380E+06  3.269756E+05  3.387084E+05 -7.239833E+04  2.710695E+04  4.353940E+04
       179   8  1.490638E+06  2.808921E+05  2.895219E+05 -2.783941E+04  1.600097E+04  4.057533E+04
       179   9  1.364395E+06  2.501344E+05  2.516400E+05 -6.779154E+04  4.887791E+03  3.513402E+04
       179  10 -9.234266E+05 -3.029342E+05 -2.650962E+05 -6.652447E+04 -8.412628E-10 -3.610731E-10
       179  11 -7.971463E+05 -2.847483E+05 -2.517709E+05 -2.654936E+04  1.537958E-09  9.800165E-12
       179  12 -6.648459E+05 -2.517066E+05 -2.291179E+05 -7.110467E+04 -7.261705E-10  5.268702E-11
       179  13  3.492317E+05  1.207777E+04  3.686003E+04 -6.945872E+04 -6.024511E-10 -8.014239E-10
       179  14  3.461447E+05 -1.882112E+03  1.891906E+04 -2.719401E+04 -1.218395E-09  3.165280E-10
       179  15  3.493017E+05 -7.498558E+02  1.129567E+04 -6.944960E+04 -4.035974E-10  2.509466E-10
       179  16  1.623378E+06  3.269733E+05  3.387035E+05 -7.239928E+04  8.403333E-10 -1.911166E-11
       179  17  1.490638E+06  2.808903E+05  2.895183E+05 -2.783993E+04  5.315573E-10 -1.992701E-10
       179  18  1.364394E+06  2.501331E+05  2.516377E+05 -6.779168E+04  7.867036E-11  2.281577E-10
       179  19 -9.234252E+05 -3.029320E+05 -2.650911E+05 -6.652345E+04 -2.900943E+04 -4.355339E+04
       179  20 -7.971454E+05 -2.847465E+05 -2.517670E+05 -2.654868E+04 -2.079685E+04 -4.058697E+04
       179  21 -6.648454E+05 -2.517053E+05 -2.291153E+05 -7.110431E+04 -1.257311E+04 -3.513926E+04
       179  22  3.492330E+05  1.208001E+04  3.686508E+04 -6.945774E+04 -2.805919E+04 -4.354638E+04
       179  23  3.461456E+05 -1.880252E+03  1.892279E+04 -2.719341E+04 -1.840112E+04 -4.058114E+04
       179  24  3.493021E+05 -7.485093E+02  1.129813E+04 -6.944935E+04 -8.733576E+03 -3.513665E+04
       179  25  1.623380E+06  3.269756E+05  3.387084E+05 -7.239833E+04 -2.710695E+04 -4.353940E+04
       179  26  1.490638E+06  2.808921E+05  2.895219E+05 -2.783941E+04 -1.600097E+04 -4.057533E+04
       179  27  1.364395E+06  2.501344E+05  2.516400E+05 -6.779154E+04 -4.887791E+03 -3.513402E+04
       180   1 -5.157086E+05 -2.126083E+05 -1.954002E+05 -6.873155E+04  1.002952E+04  3.153677E+04
       180   2 -3.880331E+05 -1.822227E+05 -1.692983E+05 -2.688383E+04  7.682872E+03  2.611395E+04
       180   3 -2.593581E+05 -1.502645E+05 -1.412145E+05 -6.887016E+04  5.327853E+03  2.054742E+04
       180   4  3.482113E+05  1.035438E+03  8.779390E+03 -6.929697E+04  6.954746E+03  3.153565E+04
       180   5  3.477334E+05 -2.289949E+02  4.858082E+03 -2.738338E+04  4.522001E+03  2.611488E+04
       180   6  3.482538E+05  9.421120E+01  2.977243E+03 -6.929769E+04  2.081367E+03  2.055053E+04
       180   7  1.212817E+06  2.146257E+05  2.129074E+05 -6.986305E+04  3.875707E+03  3.153454E+04
       180   8  1.083997E+06  1.817259E+05  1.789769E+05 -2.788340E+04  1.357401E+03  2.611582E+04
       180   9  9.562048E+05  1.504263E+05  1.471433E+05 -6.972552E+04 -1.168282E+03  2.055365E+04
       180  10 -5.157090E+05 -2.126094E+05 -1.954023E+05 -6.873180E+04  5.372432E-10  2.500696E-10
       180  11 -3.880334E+05 -1.822235E+05 -1.692997E+05 -2.688399E+04 -6.960526E-10  2.496440E-10
       180  12 -2.593583E+05 -1.502649E+05 -1.412153E+05 -6.887024E+04  1.338594E-09 -9.801642E-10
       180  13  3.482109E+05  1.034356E+03  8.777430E+03 -6.929715E+04 -5.300588E-10 -9.259793E-11
       180  14  3.477332E+05 -2.297328E+02  4.856762E+03 -2.738348E+04 -9.382773E-11  3.758550E-10
       180  15  3.482537E+05  9.375645E+01  2.976441E+03 -6.929773E+04 -5.352490E-10  6.024245E-10
       180  16  1.212817E+06  2.146247E+05  2.129055E+05 -6.986315E+04 -5.457656E-10  4.531366E-11
       180  17  1.083997E+06  1.817252E+05  1.789757E+05 -2.788343E+04  1.698996E-09 -7.187750E-10
       180  18  9.562047E+05  1.504259E+05  1.471425E+05 -6.972550E+04 -4.667371E-10 -2.094339E-10
       180  19 -5.157086E+05 -2.126083E+05 -1.954002E+05 -6.873155E+04 -1.002952E+04 -3.153677E+04
       180  20 -3.880331E+05 -1.822227E+05 -1.692983E+05 -2.688383E+04 -7.682872E+03 -2.611395E+04
       180  21 -2.593581E+05 -1.502645E+05 -1.412145E+05 -6.887016E+04 -5.327853E+03 -2.054742E+04
       180  22  3.482113E+05  1.035438E+03  8.779390E+03 -6.929697E+04 -6.954746E+03 -3.153565E+04
       180  23  3.477334E+05 -2.289949E+02  4.858082E+03 -2.738338E+04 -4.522001E+03 -2.611488E+04
       180  24  3.482538E+05  9.421120E+01  2.977243E+03 -6.929769E+04 -2.081367E+03 -2.055053E+04
       180  25  1.212817E+06  2.146257E+05  2.129074E+05 -6.986305E+04 -3.875707E+03 -3.153454E+04
       180  26  1.083997E+06  1.817259E+05  1.789769E+05 -2.788340E+04 -1.357401E+03 -2.611582E+04
       180  27  9.562048E+05  1.504263E+05  1.471433E+05 -6.972552E+04  1.168282E+03 -2.055365E+04
       181   1 -1.103220E+05 -1.130625E+05 -1.057495E+05 -6.870845E+04  4.790330E+03  1.728575E+04
       181   2  1.725996E+04 -8.176562E+04 -7.670387E+04 -2.711025E+04  3.999437E+03  1.173654E+04
       181   3  1.448160E+05 -5.008459E+04 -4.710140E+04 -6.892244E+04  3.204882E+03  6.184370E+03
       181   4  3.480658E+05  2.256654E+02  2.349908E+03 -6.920399E+04  1.595155E+03  1.728979E+04
       181   5  3.480946E+05  4.754911E+01  1.585637E+03 -2.750017E+04  8.017826E+02  1.174148E+04
       181   6  3.480847E+05  2.555154E+02  1.381021E+03 -6.920398E+04  4.907372E+00  6.190261E+03
       181   7  8.066468E+05  1.134988E+05  1.104348E+05 -6.969981E+04 -1.602366E+03  1.729384E+04
       181   8  6.790298E+05  8.185288E+04  7.986759E+04 -2.789025E+04 -2.397567E+03  1.174642E+04
       181   9  5.513912E+05  5.059264E+04  4.986058E+04 -6.948559E+04 -3.196110E+03  6.196153E+03
       181  10 -1.103221E+05 -1.130628E+05 -1.057501E+05 -6.870852E+04  5.948385E-10 -3.291880E-10
       181  11  1.725990E+04 -8.176578E+04 -7.670416E+04 -2.711028E+04  8.844759E-10  4.470627E-10
       181  12  1.448159E+05 -5.008463E+04 -4.710149E+04 -6.892246E+04  1.248500E-09 -4.864939E-10
       181  13  3.480657E+05  2.253436E+02  2.349341E+03 -6.920401E+04  6.211309E-10 -1.220050E-09
       181  14  3.480946E+05  4.740087E+01  1.585376E+03 -2.750017E+04 -8.705840E-10  3.815082E-10
       181  15  3.480846E+05  2.554743E+02  1.380949E+03 -6.920398E+04  9.799061E-11 -9.344053E-10
       181  16  8.066467E+05  1.134985E+05  1.104343E+05 -6.969979E+04 -9.278961E-10  1.314904E-10
       181  17  6.790298E+05  8.185273E+04  7.986732E+04 -2.789023E+04 -1.305252E-10 -1.438397E-10
       181  18  5.513912E+05  5.059259E+04  4.986048E+04 -6.948558E+04 -2.125273E-09 -1.507105E-09
       181  19 -1.103220E+05 -1.130625E+05 -1.057495E+05 -6.870845E+04 -4.790330E+03 -1.728575E+04
       181  20  1.725996E+04 -8.176562E+04 -7.670387E+04 -2.711025E+04 -3.999437E+03 -1.173654E+04
       181  21  1.448160E+05 -5.008459E+04 -4.710140E+04 -6.892244E+04 -3.204882E+03 -6.184370E+03
       181  22  3.480658E+05  2.256654E+02  2.349908E+03 -6.920399E+04 -1.595155E+03 -1.728979E+04
       181  23  3.480946E+05  4.754911E+01  1.585637E+03 -2.750017E+04 -8.017826E+02 -1.174148E+04
       181  24  3.480847E+05  2.555154E+02  1.381021E+03 -6.920398E+04 -4.907372E+00 -6.190261E+03
       181  25  8.066468E+05  1.134988E+05  1.104348E+05 -6.969981E+04  1.602366E+03 -1.729384E+04
       181  26  6.790298E+05  8.185288E+04  7.986759E+04 -2.789025E+04  2.397567E+03 -1.174642E+04
       181  27  5.513912E+05  5.059264E+04  4.986058E+04 -6.948559E+04  3.196110E+03 -6.196153E+03
       182   1  2.936204E+05 -1.314219E+04 -1.107743E+04 -6.908875E+04  2.942673E+03  2.952508E+03
       182   2  4.211268E+05  1.811935E+04  1.912004E+04 -2.760526E+04  2.011016E+03 -2.593878E+03
       182   3  5.485170E+05  4.982191E+04  4.995219E+04 -6.943019E+04  1.079942E+03 -8.133725E+03
       182   4  3.480738E+05  2.446969E+02  1.421777E+03 -6.918212E+04 -2.562490E+02  2.958639E+03
       182   5  3.481385E+05  7.427194E+01  1.852117E+03 -2.752752E+04 -1.184375E+03 -2.587987E+03
       182   6  3.480695E+05  3.449027E+02  2.915169E+03 -6.918191E+04 -2.111730E+03 -8.128013E+03
       182   7  4.025299E+05  1.363138E+04  1.392083E+04 -6.927550E+04 -3.455449E+03  2.964770E+03
       182   8  2.751551E+05 -1.797119E+04 -1.541614E+04 -2.744979E+04 -4.379392E+03 -2.582095E+03
       182   9  1.476590E+05 -4.913495E+04 -4.412456E+04 -6.893369E+04 -5.302379E+03 -8.122302E+03
       182  10  2.936204E+05 -1.314220E+04 -1.107747E+04 -6.908875E+04 -8.550048E-10  7.714785E-10
       182  11  4.211268E+05  1.811934E+04  1.912002E+04 -2.760526E+04 -1.043615E-09  3.131480E-09
       182  12  5.485169E+05  4.982183E+04  4.995206E+04 -6.943018E+04  2.453076E-09 -1.020352E-09
       182  13  3.480738E+05  2.446875E+02  1.421761E+03 -6.918212E+04 -1.760058E-13 -1.001941E-10
       182  14  3.481385E+05  7.426437E+01  1.852102E+03 -2.752753E+04 -1.749402E-10 -7.060777E-10
       182  15  3.480695E+05  3.448305E+02  2.915037E+03 -6.918192E+04 -4.065704E-11  2.653159E-10
       182  16  4.025299E+05  1.363137E+04  1.392079E+04 -6.927550E+04 -1.348984E-09  2.968761E-13
       182  17  2.751550E+05 -1.797120E+04 -1.541619E+04 -2.744980E+04 -1.241851E-09 -5.895246E-10
       182  18  1.476590E+05 -4.913503E+04 -4.412474E+04 -6.893373E+04 -1.738046E-09 -2.836851E-10
       182  19  2.936204E+05 -1.314219E+04 -1.107743E+04 -6.908875E+04 -2.942673E+03 -2.952508E+03
       182  20  4.211268E+05  1.811935E+04  1.912004E+04 -2.760526E+04 -2.011016E+03  2.593878E+03
       182  21  5.485170E+05  4.982191E+04  4.995219E+04 -6.943019E+04 -1.079942E+03  8.133725E+03
       182  22  3.480738E+05  2.446969E+02  1.421777E+03 -6.918212E+04  2.562490E+02 -2.958639E+03
       182  23  3.481385E+05  7.427194E+01  1.852117E+03 -2.752752E+04  1.184375E+03  2.587987E+03
       182  24  3.480695E+05  3.449027E+02  2.915169E+03 -6.918191E+04  2.111730E+03  8.128013E+03
       182  25  4.025299E+05  1.363138E+04  1.392083E+04 -6.927550E+04  3.455449E+03 -2.964770E+03
       182  26  2.751551E+05 -1.797119E+04 -1.541614E+04 -2.744979E+04  4.379392E+03  2.582095E+03
       182  27  1.476590E+05 -4.913495E+04 -4.412456E+04 -6.893369E+04  5.302379E+03  8.122302E+03
       183   1  6.976811E+05  8.660128E+04  8.676309E+04 -6.942738E+04  5.183859E+02 -1.138248E+04
       183   2  8.250704E+05  1.177780E+05  1.191192E+05 -2.798350E+04 -2.686656E+03 -1.692699E+04
       183   3  9.533122E+05  1.510234E+05  1.540509E+05 -7.005831E+04 -5.887158E+03 -2.234645E+04
       183   4  3.482609E+05  1.522339E+02  3.728552E+03 -6.923015E+04 -2.716202E+03 -1.137721E+04
       183   5  3.478341E+05 -1.816984E+02  6.239925E+03 -2.746786E+04 -5.847255E+03 -1.692319E+04
       183   6  3.482330E+05  1.542324E+03  1.127812E+04 -6.922818E+04 -8.973121E+03 -2.234403E+04
       183   7 -1.047321E+03 -8.630559E+04 -7.931448E+04 -6.903296E+04 -5.948981E+03 -1.137194E+04
       183   8 -1.291931E+05 -1.181577E+05 -1.066551E+05 -2.695254E+04 -9.005439E+03 -1.691940E+04
       183   9 -2.565100E+05 -1.479649E+05 -1.315199E+05 -6.839874E+04 -1.205609E+04 -2.234162E+04
       183  10  6.976811E+05  8.660114E+04  8.676285E+04 -6.942738E+04  5.117138E-11 -1.663868E-09
       183  11  8.250703E+05  1.177777E+05  1.191186E+05 -2.798354E+04 -5.463032E-10 -2.902147E-10
       183  12  9.533121E+05  1.510228E+05  1.540499E+05 -7.005841E+04 -2.484921E-10  3.553426E-10
       183  13  3.482609E+05  1.520929E+02  3.728295E+03 -6.923017E+04 -6.759855E-11  5.726386E-11
       183  14  3.478340E+05 -1.820152E+02  6.239323E+03 -2.746794E+04 -1.019108E-09 -8.921564E-10
       183  15  3.482328E+05  1.541767E+03  1.127703E+04 -6.922834E+04 -1.338723E-10 -3.107153E-10
       183  16 -1.047393E+03 -8.630574E+04 -7.931479E+04 -6.903302E+04 -1.694363E-10 -2.460034E-11
       183  17 -1.291933E+05 -1.181580E+05 -1.066558E+05 -2.695266E+04  2.216224E-09  1.825785E-09
       183  18 -2.565103E+05 -1.479655E+05 -1.315211E+05 -6.839895E+04  1.007284E-11  5.588092E-10
       183  19  6.976811E+05  8.660128E+04  8.676309E+04 -6.942738E+04 -5.183859E+02  1.138248E+04
       183  20  8.250704E+05  1.177780E+05  1.191192E+05 -2.798350E+04  2.686656E+03  1.692699E+04
       183  21  9.533122E+05  1.510234E+05  1.540509E+05 -7.005831E+04  5.887158E+03  2.234645E+04
       183  22  3.482609E+05  1.522339E+02  3.728552E+03 -6.923015E+04  2.716202E+03  1.137721E+04
       183  23  3.478341E+05 -1.816984E+02  6.239925E+03 -2.746786E+04  5.847255E+03  1.692319E+04
       183  24  3.482330E+05  1.542324E+03  1.127812E+04 -6.922818E+04  8.973121E+03  2.234403E+04
       183  25 -1.047321E+03 -8.630559E+04 -7.931448E+04 -6.903296E+04  5.948981E+03  1.137194E+04
       183  26 -1.291931E+05 -1.181577E+05 -1.066551E+05 -2.695254E+04  9.005439E+03  1.691940E+04
       183  27 -2.565100E+05 -1.479649E+05 -1.315199E+05 -6.839874E+04  1.205609E+04  2.234162E+04
       184   1  1.104370E+06  1.858126E+05  1.933333E+05 -6.748278E+04 -7.519411E+03 -2.587827E+04
       184   2  1.229406E+06  2.161270E+05  2.333322E+05 -2.891677E+04 -2.122676E+04 -3.130589E+04
       184   3  1.361731E+06  2.661472E+05  2.872832E+05 -7.435363E+04 -3.492768E+04 -3.462796E+04
       184   4  3.495676E+05 -7.816472E+02  1.450177E+04 -6.933982E+04 -1.125527E+04 -2.587642E+04
       184   5  3.460038E+05 -2.174189E+03  2.443068E+04 -2.733243E+04 -2.373206E+04 -3.130753E+04
       184   6  3.495130E+05  1.594324E+04  4.747394E+04 -6.933466E+04 -3.619963E+04 -3.463186E+04
       184   7 -4.047117E+05 -1.874168E+05 -1.643693E+05 -7.119443E+04 -1.498661E+04 -2.587454E+04
       184   8 -5.366821E+05 -2.205312E+05 -1.845249E+05 -2.575024E+04 -2.623380E+04 -3.130919E+04
       184   9 -6.617650E+05 -2.343341E+05 -1.924065E+05 -6.432382E+04 -3.746948E+04 -3.463578E+04
       184  10  1.104369E+06  1.858119E+05  1.933320E+05 -6.748293E+04  7.391064E-10  7.702602E-10
       184  11  1.229405E+06  2.161258E+05  2.333295E+05 -2.891731E+04  4.988547E-10 -9.582085E-10
       184  12  1.361729E+06  2.661456E+05  2.872786E+05 -7.435461E+04 -3.739266E-11 -7.368487E-11
       184  13  3.495673E+05 -7.824004E+02  1.450027E+04 -6.934005E+04 -1.080978E-09  5.592322E-10
       184  14  3.460029E+05 -2.175393E+03  2.442778E+04 -2.733303E+04 -1.739171E-09  2.682153E-10
       184  15  3.495112E+05  1.594160E+04  4.746923E+04 -6.933567E+04  3.153218E-12 -2.143233E-10
       184  16 -4.047121E+05 -1.874176E+05 -1.643710E+05 -7.119474E+04 -3.442279E-10  3.570410E-10
       184  17 -5.366831E+05 -2.205325E+05 -1.845280E+05 -2.575090E+04  2.778268E-10  1.487745E-11
       184  18 -6.617668E+05 -2.343358E+05 -1.924114E+05 -6.432487E+04  4.942532E-10  8.019000E-11
       184  19  1.104370E+06  1.858126E+05  1.933333E+05 -6.748278E+04  7.519411E+03  2.587827E+04
       184  20  1.229406E+06  2.161270E+05  2.333322E+05 -2.891677E+04  2.122676E+04  3.130589E+04
       184  21  1.361731E+06  2.661472E+05  2.872832E+05 -7.435363E+04  3.492768E+04  3.462796E+04
       184  22  3.495676E+05 -7.816472E+02  1.450177E+04 -6.933982E+04  1.125527E+04  2.587642E+04
       184  23  3.460038E+05 -2.174189E+03  2.443068E+04 -2.733243E+04  2.373206E+04  3.130753E+04
       184  24  3.495130E+05  1.594324E+04  4.747394E+04 -6.933466E+04  3.619963E+04  3.463186E+04
       184  25 -4.047117E+05 -1.874168E+05 -1.643693E+05 -7.119443E+04  1.498661E+04  2.587454E+04
       184  26 -5.366821E+05 -2.205312E+05 -1.845249E+05 -2.575024E+04  2.623380E+04  3.130919E+04
       184  27 -6.617650E+05 -2.343341E+05 -1.924065E+05 -6.432382E+04  3.746948E+04  3.463578E+04
       185   1  1.524432E+06  2.779751E+05  3.331067E+05 -4.508474E+04 -3.368933E+04 -4.242722E+04
       185   2  1.623718E+06  2.984211E+05  3.999815E+05 -4.436782E+04 -1.038937E+05 -4.566121E+04
       185   3  1.785301E+06  5.251500E+05  5.643843E+05 -1.277949E+05 -1.741631E+05 -1.541360E+04
       185   4  3.609803E+05 -9.401530E+03  5.847706E+04 -6.930588E+04 -4.514387E+04 -4.243365E+04
       185   5  3.314117E+05 -2.082957E+04  9.438377E+04 -2.735124E+04 -9.593037E+04 -4.566321E+04
       185   6  3.608812E+05  1.708831E+05  2.144775E+05 -6.953976E+04 -1.467648E+05 -1.538964E+04
       185   7 -8.012271E+05 -2.968727E+05 -2.162453E+05 -9.348148E+04 -5.657704E+04 -4.243920E+04
       185   8 -9.593616E+05 -3.401987E+05 -2.113293E+05 -1.037052E+04 -8.798332E+04 -4.566479E+04
       185   9 -1.061686E+06 -1.835210E+05 -1.355738E+05 -1.141881E+04 -1.194288E+05 -1.536054E+04
       185  10  1.524430E+06  2.779728E+05  3.331012E+05 -4.508589E+04  9.648803E-10  4.562543E-11
       185  11  1.623706E+06  2.984160E+05  3.999574E+05 -4.437164E+04  1.168616E-09  2.587168E-10
       185  12  1.785269E+06  5.251416E+05  5.643270E+05 -1.277971E+05 -5.475142E-10 -1.290008E-10
       185  13  3.609777E+05 -9.404011E+03  5.846985E+04 -6.930743E+04  1.184626E-09  8.178795E-10
       185  14  3.314012E+05 -2.083427E+04  9.436257E+04 -2.735477E+04  1.745495E-10  1.955939E-09
       185  15  3.608581E+05  1.708770E+05  2.144366E+05 -6.954158E+04  9.359527E-10 -2.027583E-10
       185  16 -8.012310E+05 -2.968755E+05 -2.162547E+05 -9.348341E+04 -2.061858E-10  7.268821E-10
       185  17 -9.593705E+05 -3.402030E+05 -2.113478E+05 -1.037376E+04 -1.679221E-09  6.109288E-10
       185  18 -1.061702E+06 -1.835251E+05 -1.356011E+05 -1.142029E+04  7.673732E-12 -5.708186E-10
       185  19  1.524432E+06  2.779751E+05  3.331067E+05 -4.508474E+04  3.368933E+04  4.242722E+04
       185  20  1.623718E+06  2.984211E+05  3.999815E+05 -4.436782E+04  1.038937E+05  4.566121E+04
       185  21  1.785301E+06  5.251500E+05  5.643843E+05 -1.277949E+05  1.741631E+05  1.541360E+04
       185  22  3.609803E+05 -9.401530E+03  5.847706E+04 -6.930588E+04  4.514387E+04  4.243365E+04
       185  23  3.314117E+05 -2.082957E+04  9.438377E+04 -2.735124E+04  9.593037E+04  4.566321E+04
       185  24  3.608812E+05  1.708831E+05  2.144775E+05 -6.953976E+04  1.467648E+05  1.538964E+04
       185  25 -8.012271E+05 -2.968727E+05 -2.162453E+05 -9.348148E+04  5.657704E+04  4.243920E+04
       185  26 -9.593616E+05 -3.401987E+05 -2.113293E+05 -1.037052E+04  8.798332E+04  4.566479E+04
       185  27 -1.061686E+06 -1.835210E+05 -1.355738E+05 -1.141881E+04  1.194288E+05  1.536054E+04
       186   1  1.972489E+05  5.708590E+05  2.246796E+05 -1.609268E+05  1.962071E+03  9.905524E+04
       186   2  1.327918E+04  3.290546E+05  9.040901E+04 -6.009849E+04  3.519848E+03  5.827422E+04
       186   3 -3.308641E+04  1.257538E+05  1.681404E+04 -1.041799E+05 -5.104401E+03  1.747168E+04
       186   4  1.145671E+05  2.406981E+05  1.429840E+05 -1.201360E+05  1.981933E+03  9.528654E+04
       186   5 -1.330979E+04  2.219759E+05  6.502602E+04 -4.789293E+04  3.513477E+03  6.039001E+04
       186   6 -4.582107E+03  2.407180E+05  4.368733E+04 -1.205505E+05 -5.134136E+03  2.545745E+04
       186   7  3.188322E+04 -8.936035E+04  6.128117E+04 -7.936684E+04  2.001307E+03  9.151984E+04
       186   8 -3.989903E+04  1.149081E+05  3.964233E+04 -3.568947E+04  3.507188E+03  6.250544E+04
       186   9  2.392229E+04  3.556951E+05  7.056010E+04 -1.369241E+05 -5.164288E+03  3.344470E+04
       186  10  1.972463E+05  5.708484E+05  2.246612E+05 -1.609270E+05  1.612613E-09  1.694265E-09
       186  11  1.327826E+04  3.290510E+05  9.040261E+04 -6.009865E+04  1.305858E-09  9.578804E-11
       186  12 -3.308652E+04  1.257535E+05  1.681342E+04 -1.041799E+05  9.447365E-11  3.590609E-10
       186  13  1.145646E+05  2.406883E+05  1.429669E+05 -1.201362E+05  9.356825E-10  8.768162E-10
       186  14 -1.331078E+04  2.219720E+05  6.501915E+04 -4.789310E+04  7.526378E-10  9.333964E-10
       186  15 -4.582309E+03  2.407173E+05  4.368607E+04 -1.205504E+05  2.589636E-10  2.596501E-10
       186  16  3.188097E+04 -8.936935E+04  6.126542E+04 -7.936698E+04  1.041654E-09 -1.601956E-09
       186  17 -3.990009E+04  1.149039E+05  3.963496E+04 -3.568965E+04  4.343592E-09 -8.261564E-10
       186  18  2.392196E+04  3.556939E+05  7.055795E+04 -1.369240E+05 -2.534427E-10  5.588416E-10
       186  19  1.972489E+05  5.708590E+05  2.246796E+05 -1.609268E+05 -1.962071E+03 -9.905524E+04
       186  20  1.327918E+04  3.290546E+05  9.040901E+04 -6.009849E+04 -3.519848E+03 -5.827422E+04
       186  21 -3.308641E+04  1.257538E+05  1.681404E+04 -1.041799E+05  5.104401E+03 -1.747168E+04
       186  22  1.145671E+05  2.406981E+05  1.429840E+05 -1.201360E+05 -1.981933E+03 -9.528654E+04
       186  23 -1.330979E+04  2.219759E+05  6.502602E+04 -4.789293E+04 -3.513477E+03 -6.039001E+04
       186  24 -4.582107E+03  2.407180E+05  4.368733E+04 -1.205505E+05  5.134136E+03 -2.545745E+04
       186  25  3.188322E+04 -8.936035E+04  6.128117E+04 -7.936684E+04 -2.001307E+03 -9.151984E+04
       186  26 -3.989903E+04  1.149081E+05  3.964233E+04 -3.568947E+04 -3.507188E+03 -6.250544E+04
       186  27  2.392229E+04  3.556951E+05  7.056010E+04 -1.369241E+05  5.164288E+03 -3.344470E+04
       187   1 -8.165836E+04 -1.413453E+05 -5.112696E+04 -1.239956E+05 -1.243745E+04  1.292080E+04
       187   2 -1.499804E+05 -3.674069E+05 -1.140349E+05 -4.661188E+04 -2.121289E+04 -1.609961E+02
       187   3 -1.955049E+05 -5.868349E+05 -1.629132E+05 -1.147800E+05 -2.829782E+04 -1.322311E+04
       187   4  1.117411E+04  2.338569E+05  3.801590E+04 -1.205510E+05 -1.245693E+04  1.849703E+04
       187   5 -2.087541E+03  2.304508E+05  2.748907E+04 -4.778731E+04 -2.122634E+04  4.432106E+03
       187   6  7.611477E+03  2.337980E+05  3.167077E+04 -1.205653E+05 -2.830594E+04 -9.617734E+03
       187   7  1.039965E+05  6.091885E+05  1.271491E+05 -1.171041E+05 -1.247634E+04  2.407661E+04
       187   8  1.457797E+05  8.286370E+05  1.689883E+05 -4.896361E+04 -2.123980E+04  9.029607E+03
       187   9  2.106796E+05  1.055050E+06  2.262080E+05 -1.263577E+05 -2.831412E+04 -6.007605E+03
       187  10 -8.165857E+04 -1.413455E+05 -5.112757E+04 -1.239955E+05 -1.640370E-09  1.105498E-09
       187  11 -1.499808E+05 -3.674070E+05 -1.140357E+05 -4.661188E+04  1.785176E-10 -3.440833E-10
       187  12 -1.955058E+05 -5.868353E+05 -1.629151E+05 -1.147803E+05  1.641993E-10  7.410919E-10
       187  13  1.117386E+04  2.338565E+05  3.801497E+04 -1.205508E+05  1.310403E-10  9.375912E-10
       187  14 -2.088030E+03  2.304506E+05  2.748819E+04 -4.778723E+04  8.858077E-11  8.601904E-10
       187  15  7.610592E+03  2.337977E+05  3.166909E+04 -1.205655E+05 -4.940749E-10  1.087132E-10
       187  16  1.039962E+05  6.091878E+05  1.271477E+05 -1.171039E+05 -8.306610E-10 -1.090002E-09
       187  17  1.457791E+05  8.286368E+05  1.689873E+05 -4.896345E+04 -2.131279E-09 -2.731948E-10
       187  18  2.106787E+05  1.055050E+06  2.262064E+05 -1.263578E+05 -8.470210E-10  1.223866E-10
       187  19 -8.165836E+04 -1.413453E+05 -5.112696E+04 -1.239956E+05  1.243745E+04 -1.292080E+04
       187  20 -1.499804E+05 -3.674069E+05 -1.140349E+05 -4.661188E+04  2.121289E+04  1.609961E+02
       187  21 -1.955049E+05 -5.868349E+05 -1.629132E+05 -1.147800E+05  2.829782E+04  1.322311E+04
       187  22  1.117411E+04  2.338569E+05  3.801590E+04 -1.205510E+05  1.245693E+04 -1.849703E+04
       187  23 -2.087541E+03  2.304508E+05  2.748907E+04 -4.778731E+04  2.122634E+04 -4.432106E+03
       187  24  7.611477E+03  2.337980E+05  3.167077E+04 -1.205653E+05  2.830594E+04  9.617734E+03
       187  25  1.039965E+05  6.091885E+05  1.271491E+05 -1.171041E+05  1.247634E+04 -2.407661E+04
       187  26  1.457797E+05  8.286370E+05  1.689883E+05 -4.896361E+04  2.123980E+04 -9.029607E+03
       187  27  2.106796E+05  1.055050E+06  2.262080E+05 -1.263577E+05  2.831412E+04  6.007605E+03
       188   1 -2.703340E+05 -8.428365E+05 -2.210583E+05 -1.299344E+05 -3.900619E+04 -2.998660E+04
       188   2 -3.326530E+05 -1.079186E+06 -2.607933E+05 -3.753494E+04 -4.594934E+04 -3.428532E+04
       188   3 -2.997009E+05 -1.290266E+06 -2.737367E+05 -9.015399E+04 -1.573217E+04 -3.852344E+04
       188   4 -2.874721E+03  2.385850E+05  3.472586E+04 -1.204909E+05 -3.904148E+04 -1.531772E+04
       188   5 -1.006664E+04  2.240759E+05  4.794435E+04 -4.792976E+04 -4.592932E+04 -4.103470E+04
       188   6  8.162592E+04  2.384475E+05  1.027815E+05 -1.203621E+05 -1.569106E+04 -6.669312E+04
       188   7  2.645012E+05  1.321083E+06  2.904298E+05 -1.110300E+05 -3.907629E+04 -6.233825E+02
       188   8  3.123981E+05  1.528900E+06  3.565642E+05 -5.834574E+04 -4.590910E+04 -4.779812E+04
       188   9  4.627824E+05  1.769293E+06  4.791306E+05 -1.506439E+05 -1.564727E+04 -9.493201E+04
       188  10 -2.703359E+05 -8.428378E+05 -2.210628E+05 -1.299354E+05 -3.910214E-10  1.074736E-09
       188  11 -3.326556E+05 -1.079188E+06 -2.607995E+05 -3.753621E+04  1.460435E-09  2.378767E-11
       188  12 -2.997016E+05 -1.290268E+06 -2.737399E+05 -9.015448E+04  3.725522E-11  4.804081E-11
       188  13 -2.876421E+03  2.385843E+05  3.472255E+04 -1.204914E+05  1.011966E-10  6.757663E-10
       188  14 -1.006936E+04  2.240735E+05  4.793722E+04 -4.793128E+04  3.638031E-10  4.755608E-10
       188  15  8.162446E+04  2.384427E+05  1.027727E+05 -1.203629E+05  7.908371E-11  6.821339E-11
       188  16  2.644996E+05  1.321082E+06  2.904270E+05 -1.110300E+05 -1.833503E-09 -9.251244E-10
       188  17  3.123953E+05  1.528897E+06  3.565560E+05 -5.834751E+04  6.687142E-10 -6.412858E-10
       188  18  4.627797E+05  1.769283E+06  4.791133E+05 -1.506451E+05  1.429166E-10  8.282719E-11
       188  19 -2.703340E+05 -8.428365E+05 -2.210583E+05 -1.299344E+05  3.900619E+04  2.998660E+04
       188  20 -3.326530E+05 -1.079186E+06 -2.607933E+05 -3.753494E+04  4.594934E+04  3.428532E+04
       188  21 -2.997009E+05 -1.290266E+06 -2.737367E+05 -9.015399E+04  1.573217E+04  3.852344E+04
       188  22 -2.874721E+03  2.385850E+05  3.472586E+04 -1.204909E+05  3.904148E+04  1.531772E+04
       188  23 -1.006664E+04  2.240759E+05  4.794435E+04 -4.792976E+04  4.592932E+04  4.103470E+04
       188  24  8.162592E+04  2.384475E+05  1.027815E+05 -1.203621E+05  1.569106E+04  6.669312E+04
       188  25  2.645012E+05  1.321083E+06  2.904298E+05 -1.110300E+05  3.907629E+04  6.233825E+02
       188  26  3.123981E+05  1.528900E+06  3.565642E+05 -5.834574E+04  4.590910E+04  4.779812E+04
       188  27  4.627824E+05  1.769293E+06  4.791306E+05 -1.506439E+05  1.564727E+04  9.493201E+04
       189   1 -3.740428E+06 -1.313099E+06 -8.468857E+05 -1.308004E+06 -3.490753E+05 -1.155154E+05
       189   2 -3.624441E+06 -7.896565E+05 -5.200827E+05 -1.322202E+06 -2.282164E+05 -3.611954E+04
       189   3 -3.654880E+06 -7.541723E+05 -4.147480E+05 -1.264454E+06 -9.538766E+04  1.169590E+04
       189   4 -2.571639E+06 -7.476392E+05 -5.044191E+05 -8.640023E+05 -3.252149E+05 -1.065727E+05
       189   5 -2.473376E+06 -3.194804E+05 -2.116292E+05 -9.701710E+05 -2.211049E+05 -3.345649E+04
       189   6 -2.517884E+06 -3.754586E+05 -1.266645E+05 -1.004486E+06 -1.050441E+05  8.059490E+03
       189   7 -1.401483E+06 -1.818233E+05 -1.620835E+05 -4.191539E+05 -3.013044E+05 -9.759914E+04
       189   8 -1.321015E+06  1.508431E+05  9.670692E+04 -6.175235E+05 -2.139786E+05 -3.078675E+04
       189   9 -1.379631E+06  3.269519E+03  1.613171E+05 -7.441179E+05 -1.147200E+05  4.417740E+03
       189  10 -3.740563E+06 -1.313146E+06 -8.471415E+05 -1.308037E+06 -5.761337E-10  9.768078E-11
       189  11 -3.624497E+06 -7.896720E+05 -5.201837E+05 -1.322209E+06  2.269773E-09 -8.374528E-10
       189  12 -3.654890E+06 -7.541749E+05 -4.147655E+05 -1.264453E+06  1.104947E-09  9.679311E-11
       189  13 -2.571756E+06 -7.476800E+05 -5.046403E+05 -8.640303E+05  2.132527E-09 -5.684541E-10
       189  14 -2.473429E+06 -3.194948E+05 -2.117236E+05 -9.701770E+05  7.034971E-10 -1.307626E-09
       189  15 -2.517896E+06 -3.754616E+05 -1.266854E+05 -1.004486E+06  1.108496E-09 -4.321855E-10
       189  16 -1.401583E+06 -1.818580E+05 -1.622725E+05 -4.191776E+05 -1.191382E-10  1.016681E-09
       189  17 -1.321064E+06  1.508297E+05  9.661888E+04 -6.175288E+05 -7.408796E-10  3.635608E-10
       189  18 -1.379645E+06  3.265957E+03  1.612923E+05 -7.441174E+05 -2.850926E-10  2.874763E-10
       189  19 -3.740428E+06 -1.313099E+06 -8.468857E+05 -1.308004E+06  3.490753E+05  1.155154E+05
       189  20 -3.624441E+06 -7.896565E+05 -5.200827E+05 -1.322202E+06  2.282164E+05  3.611954E+04
       189  21 -3.654880E+06 -7.541723E+05 -4.147480E+05 -1.264454E+06  9.538766E+04 -1.169590E+04
       189  22 -2.571639E+06 -7.476392E+05 -5.044191E+05 -8.640023E+05  3.252149E+05  1.065727E+05
       189  23 -2.473376E+06 -3.194804E+05 -2.116292E+05 -9.701710E+05  2.211049E+05  3.345649E+04
       189  24 -2.517884E+06 -3.754586E+05 -1.266645E+05 -1.004486E+06  1.050441E+05 -8.059490E+03
       189  25 -1.401483E+06 -1.818233E+05 -1.620835E+05 -4.191539E+05  3.013044E+05  9.759914E+04
       189  26 -1.321015E+06  1.508431E+05  9.670692E+04 -6.175235E+05  2.139786E+05  3.078675E+04
       189  27 -1.379631E+06  3.269519E+03  1.613171E+05 -7.441179E+05  1.147200E+05 -4.417740E+03
       190   1 -3.487242E+06 -8.102485E+05 -3.640032E+05 -1.257766E+06 -8.454133E+04  8.283556E+03
       190   2 -3.413963E+06 -7.061823E+05 -2.870497E+05 -1.212865E+06 -5.683395E+04  1.669247E+04
       190   3 -3.314771E+06 -6.929353E+05 -2.424390E+05 -1.208808E+06 -2.823930E+04  2.273548E+04
       190   4 -2.500279E+06 -4.274695E+05 -1.026984E+05 -9.768931E+05 -8.493717E+04  8.128214E+03
       190   5 -2.510667E+06 -3.634928E+05 -4.990399E+04 -9.634827E+05 -5.845891E+04  1.607755E+04
       190   6 -2.494878E+06 -3.900435E+05 -2.843377E+04 -9.909197E+05 -3.109810E+04  2.166026E+04
       190   7 -1.512363E+06 -4.461304E+04  1.585227E+05 -6.956076E+05 -8.533363E+04  7.972632E+03
       190   8 -1.606575E+06 -2.074859E+04  1.871724E+05 -7.137688E+05 -6.008645E+04  1.546166E+04
       190   9 -1.674331E+06 -8.711634E+04  1.855148E+05 -7.727730E+05 -3.396104E+04  2.058354E+04
       190  10 -3.487250E+06 -8.102505E+05 -3.640168E+05 -1.257765E+06 -6.881216E-10  2.792427E-11
       190  11 -3.413966E+06 -7.061835E+05 -2.870563E+05 -1.212865E+06  1.466095E-11 -2.779177E-10
       190  12 -3.314772E+06 -6.929361E+05 -2.424415E+05 -1.208807E+06 -1.438247E-09 -4.026758E-10
       190  13 -2.500287E+06 -4.274715E+05 -1.027122E+05 -9.768925E+05  1.116465E-09 -6.469618E-10
       190  14 -2.510671E+06 -3.634940E+05 -4.991091E+04 -9.634819E+05 -5.600124E-10 -3.967596E-10
       190  15 -2.494879E+06 -3.900443E+05 -2.843647E+04 -9.909192E+05 -1.238909E-09 -8.099012E-10
       190  16 -1.512371E+06 -4.461507E+04  1.585089E+05 -6.956071E+05  1.249259E-10 -4.661290E-10
       190  17 -1.606579E+06 -2.074981E+04  1.871652E+05 -7.137681E+05 -1.324969E-10 -1.273535E-10
       190  18 -1.674333E+06 -8.711710E+04  1.855119E+05 -7.727725E+05  1.026107E-09 -2.049930E-11
       190  19 -3.487242E+06 -8.102485E+05 -3.640032E+05 -1.257766E+06  8.454133E+04 -8.283556E+03
       190  20 -3.413963E+06 -7.061823E+05 -2.870497E+05 -1.212865E+06  5.683395E+04 -1.669247E+04
       190  21 -3.314771E+06 -6.929353E+05 -2.424390E+05 -1.208808E+06  2.823930E+04 -2.273548E+04
       190  22 -2.500279E+06 -4.274695E+05 -1.026984E+05 -9.768931E+05  8.493717E+04 -8.128214E+03
       190  23 -2.510667E+06 -3.634928E+05 -4.990399E+04 -9.634827E+05  5.845891E+04 -1.607755E+04
       190  24 -2.494878E+06 -3.900435E+05 -2.843377E+04 -9.909197E+05  3.109810E+04 -2.166026E+04
       190  25 -1.512363E+06 -4.461304E+04  1.585227E+05 -6.956076E+05  8.533363E+04 -7.972632E+03
       190  26 -1.606575E+06 -2.074859E+04  1.871724E+05 -7.137688E+05  6.008645E+04 -1.546166E+04
       190  27 -1.674331E+06 -8.711634E+04  1.855148E+05 -7.727730E+05  3.396104E+04 -2.058354E+04
       191   1 -3.189125E+06 -6.585621E+05 -2.044786E+05 -1.179643E+06 -2.372094E+04  2.118572E+04
       191   2 -3.115144E+06 -5.920709E+05 -1.685400E+05 -1.124891E+06 -1.609610E+04  1.911651E+04
       191   3 -2.993506E+06 -5.798675E+05 -1.382238E+05 -1.126181E+06 -8.373978E+03  1.677237E+04
       191   4 -2.492035E+06 -3.959785E+05 -2.211268E+04 -9.890212E+05 -2.597920E+04  2.033696E+04
       191   5 -2.515586E+06 -3.669298E+05 -1.159680E+04 -9.617115E+05 -1.849512E+04  1.821669E+04
       191   6 -2.491459E+06 -3.921351E+05 -6.585839E+03 -9.904445E+05 -1.091482E+04  1.582126E+04
       191   7 -1.794475E+06 -1.333651E+05  1.602114E+05 -7.982054E+05 -2.824025E+04  1.948716E+04
       191   8 -1.915678E+06 -1.417666E+05  1.453158E+05 -7.983889E+05 -2.089668E+04  1.731592E+04
       191   9 -1.989166E+06 -2.043874E+05  1.250311E+05 -8.546083E+05 -1.345793E+04  1.486930E+04
       191  10 -3.189126E+06 -6.585628E+05 -2.044805E+05 -1.179643E+06 -2.615948E-10 -7.511992E-10
       191  11 -3.115145E+06 -5.920714E+05 -1.685411E+05 -1.124891E+06  3.270227E-10 -2.372581E-10
       191  12 -2.993506E+06 -5.798678E+05 -1.382245E+05 -1.126181E+06  6.571458E-10  1.660758E-09
       191  13 -2.492036E+06 -3.959791E+05 -2.211473E+04 -9.890208E+05  1.269709E-09  1.388938E-10
       191  14 -2.515586E+06 -3.669302E+05 -1.159807E+04 -9.617112E+05 -4.468689E-10 -2.174132E-11
       191  15 -2.491459E+06 -3.921354E+05 -6.586533E+03 -9.904443E+05  8.408839E-10  1.219243E-09
       191  16 -1.794475E+06 -1.333657E+05  1.602092E+05 -7.982049E+05  2.307223E-10  3.406380E-10
       191  17 -1.915678E+06 -1.417671E+05  1.453145E+05 -7.983887E+05 -2.963869E-10  2.668498E-10
       191  18 -1.989167E+06 -2.043877E+05  1.250304E+05 -8.546082E+05 -6.800890E-10 -1.882547E-10
       191  19 -3.189125E+06 -6.585621E+05 -2.044786E+05 -1.179643E+06  2.372094E+04 -2.118572E+04
       191  20 -3.115144E+06 -5.920709E+05 -1.685400E+05 -1.124891E+06  1.609610E+04 -1.911651E+04
       191  21 -2.993506E+06 -5.798675E+05 -1.382238E+05 -1.126181E+06  8.373978E+03 -1.677237E+04
       191  22 -2.492035E+06 -3.959785E+05 -2.211268E+04 -9.890212E+05  2.597920E+04 -2.033696E+04
       191  23 -2.515586E+06 -3.669298E+05 -1.159680E+04 -9.617115E+05  1.849512E+04 -1.821669E+04
       191  24 -2.491459E+06 -3.921351E+05 -6.585839E+03 -9.904445E+05  1.091482E+04 -1.582126E+04
       191  25 -1.794475E+06 -1.333651E+05  1.602114E+05 -7.982054E+05  2.824025E+04 -1.948716E+04
       191  26 -1.915678E+06 -1.417666E+05  1.453158E+05 -7.983889E+05  2.089668E+04 -1.731592E+04
       191  27 -1.989166E+06 -2.043874E+05  1.250311E+05 -8.546083E+05  1.345793E+04 -1.486930E+04
       192   1 -2.865415E+06 -5.336011E+05 -1.028072E+05 -1.092579E+06 -6.406538E+03  1.437337E+04
       192   2 -2.788268E+06 -4.684482E+05 -7.418570E+04 -1.034622E+06 -3.042410E+03  1.024399E+04
       192   3 -2.659313E+06 -4.559332E+05 -4.687601E+04 -1.036580E+06  3.433439E+02  6.048556E+03
       192   4 -2.490705E+06 -3.931681E+05 -5.145928E+03 -9.907693E+05 -8.929262E+03  1.342992E+04
       192   5 -2.516569E+06 -3.666448E+05 -3.119409E+03 -9.608854E+05 -5.599621E+03  9.288450E+03
       192   6 -2.490630E+06 -3.927509E+05 -2.375821E+03 -9.909175E+05 -2.248670E+03  5.080867E+03
       192   7 -2.115859E+06 -2.527265E+05  9.250347E+04 -8.889042E+05 -1.145366E+04  1.248585E+04
       192   8 -2.244799E+06 -2.648371E+05  6.794052E+04 -8.871194E+05 -8.158060E+03  8.332447E+03
       192   9 -2.321919E+06 -3.295673E+05  4.212180E+04 -9.452441E+05 -4.841450E+03  4.112892E+03
       192  10 -2.865415E+06 -5.336013E+05 -1.028076E+05 -1.092579E+06 -3.531716E-11  1.137315E-09
       192  11 -2.788268E+06 -4.684483E+05 -7.418591E+04 -1.034622E+06  3.621368E-10  1.029026E-09
       192  12 -2.659313E+06 -4.559332E+05 -4.687608E+04 -1.036580E+06 -6.366743E-11  3.988457E-10
       192  13 -2.490705E+06 -3.931683E+05 -5.146416E+03 -9.907692E+05 -1.233461E-09 -2.204793E-10
       192  14 -2.516569E+06 -3.666449E+05 -3.119630E+03 -9.608854E+05  9.893220E-10  7.536043E-10
       192  15 -2.490630E+06 -3.927510E+05 -2.375879E+03 -9.909175E+05  2.329157E-10 -1.867823E-10
       192  16 -2.115859E+06 -2.527267E+05  9.250293E+04 -8.889041E+05 -3.783524E-10 -1.865353E-10
       192  17 -2.244800E+06 -2.648372E+05  6.794027E+04 -8.871193E+05 -1.021244E-09  7.704278E-10
       192  18 -2.321919E+06 -3.295673E+05  4.212172E+04 -9.452440E+05 -3.810691E-10 -1.557126E-10
       192  19 -2.865415E+06 -5.336011E+05 -1.028072E+05 -1.092579E+06  6.406538E+03 -1.437337E+04
       192  20 -2.788268E+06 -4.684482E+05 -7.418570E+04 -1.034622E+06  3.042410E+03 -1.024399E+04
       192  21 -2.659313E+06 -4.559332E+05 -4.687601E+04 -1.036580E+06 -3.433439E+02 -6.048556E+03
       192  22 -2.490705E+06 -3.931681E+05 -5.145928E+03 -9.907693E+05  8.929262E+03 -1.342992E+04
       192  23 -2.516569E+06 -3.666448E+05 -3.119409E+03 -9.608854E+05  5.599621E+03 -9.288450E+03
       192  24 -2.490630E+06 -3.927509E+05 -2.375821E+03 -9.909175E+05  2.248670E+03 -5.080867E+03
       192  25 -2.115859E+06 -2.527265E+05  9.250347E+04 -8.889042E+05  1.145366E+04 -1.248585E+04
       192  26 -2.244799E+06 -2.648371E+05  6.794052E+04 -8.871194E+05  8.158060E+03 -8.332447E+03
       192  27 -2.321919E+06 -3.295673E+05  4.212180E+04 -9.452441E+05  4.841450E+03 -4.112892E+03
       193   1 -2.528300E+06 -4.070355E+05 -1.183485E+04 -1.001402E+06  1.787879E+03  3.381325E+03
       193   2 -2.450256E+06 -3.415884E+05  1.451696E+04 -9.426797E+05  5.007575E+03 -9.120871E+02
       193   3 -2.319884E+06 -3.292945E+05  3.968456E+04 -9.445874E+05  8.219995E+03 -5.183092E+03
       193   4 -2.490512E+06 -3.928926E+05 -2.336869E+03 -9.910648E+05 -8.103260E+02  2.411543E+03
       193   5 -2.516691E+06 -3.664603E+05 -2.852927E+03 -9.606931E+05  2.420954E+03 -1.877780E+03
       193   6 -2.490557E+06 -3.931857E+05 -4.562370E+03 -9.909574E+05  5.644678E+03 -6.144743E+03
       193   7 -2.452722E+06 -3.787496E+05  7.161059E+03 -9.807265E+05 -3.408713E+03  1.441692E+03
       193   8 -2.583123E+06 -3.913321E+05 -2.022319E+04 -9.787049E+05 -1.653669E+02 -2.843360E+03
       193   9 -2.661202E+06 -4.570750E+05 -4.881171E+04 -1.037316E+06  3.070137E+03 -7.106103E+03
       193  10 -2.528300E+06 -4.070355E+05 -1.183488E+04 -1.001402E+06  1.213177E-10  4.103940E-10
       193  11 -2.450256E+06 -3.415884E+05  1.451691E+04 -9.426797E+05  1.091422E-09  7.140018E-10
       193  12 -2.319884E+06 -3.292946E+05  3.968438E+04 -9.445873E+05  7.618689E-10 -6.094854E-11
       193  13 -2.490512E+06 -3.928926E+05 -2.336881E+03 -9.910648E+05  1.287525E-09  5.893434E-11
       193  14 -2.516691E+06 -3.664603E+05 -2.852945E+03 -9.606931E+05  9.119378E-10  1.992619E-09
       193  15 -2.490557E+06 -3.931857E+05 -4.562501E+03 -9.909574E+05  1.668967E-09  8.602673E-10
       193  16 -2.452722E+06 -3.787496E+05  7.161033E+03 -9.807265E+05  6.404113E-10 -2.201356E-11
       193  17 -2.583123E+06 -3.913321E+05 -2.022321E+04 -9.787049E+05 -3.131718E-11 -1.177673E-09
       193  18 -2.661202E+06 -4.570751E+05 -4.881182E+04 -1.037316E+06  2.166270E-10 -5.465541E-11
       193  19 -2.528300E+06 -4.070355E+05 -1.183485E+04 -1.001402E+06 -1.787879E+03 -3.381325E+03
       193  20 -2.450256E+06 -3.415884E+05  1.451696E+04 -9.426797E+05 -5.007575E+03  9.120871E+02
       193  21 -2.319884E+06 -3.292945E+05  3.968456E+04 -9.445874E+05 -8.219995E+03  5.183092E+03
       193  22 -2.490512E+06 -3.928926E+05 -2.336869E+03 -9.910648E+05  8.103260E+02 -2.411543E+03
       193  23 -2.516691E+06 -3.664603E+05 -2.852927E+03 -9.606931E+05 -2.420954E+03  1.877780E+03
       193  24 -2.490557E+06 -3.931857E+05 -4.562370E+03 -9.909574E+05 -5.644678E+03  6.144743E+03
       193  25 -2.452722E+06 -3.787496E+05  7.161059E+03 -9.807265E+05  3.408713E+03 -1.441692E+03
       193  26 -2.583123E+06 -3.913321E+05 -2.022319E+04 -9.787049E+05  1.653669E+02  2.843360E+03
       193  27 -2.661202E+06 -4.570750E+05 -4.881171E+04 -1.037316E+06 -3.070137E+03  7.106103E+03
       194   1 -2.190108E+06 -2.801965E+05  7.317515E+04 -9.097665E+05  1.014293E+04 -7.665486E+03
       194   2 -2.113901E+06 -2.156364E+05  9.503699E+04 -8.518047E+05  1.692192E+04 -1.052024E+04
       194   3 -1.988252E+06 -2.064390E+05  1.121301E+05 -8.520991E+05  2.362570E+04 -1.315868E+04
       194   4 -2.491053E+06 -3.924802E+05 -5.808059E+03 -9.908870E+05  7.541800E+03 -8.637261E+03
       194   5 -2.516005E+06 -3.664452E+05 -1.012732E+04 -9.611419E+05  1.443301E+04 -1.145131E+04
       194   6 -2.491548E+06 -3.958000E+05 -1.930649E+04 -9.896594E+05  2.124810E+04 -1.404929E+04
       194   7 -2.791909E+06 -5.047584E+05 -8.479871E+04 -1.071972E+06  4.942062E+03 -9.608520E+03
       194   8 -2.917952E+06 -5.172441E+05 -1.153053E+05 -1.070415E+06  1.194587E+04 -1.238173E+04
       194   9 -2.994599E+06 -5.851457E+05 -1.507649E+05 -1.127119E+06  1.887261E+04 -1.493911E+04
       194  10 -2.190108E+06 -2.801966E+05  7.317485E+04 -9.097664E+05  1.512300E-09  1.719140E-10
       194  11 -2.113901E+06 -2.156366E+05  9.503625E+04 -8.518046E+05  8.424866E-10  9.143930E-10
       194  12 -1.988253E+06 -2.064393E+05  1.121287E+05 -8.520988E+05  6.190666E-10  1.804129E-10
       194  13 -2.491053E+06 -3.924803E+05 -5.808306E+03 -9.908869E+05  7.778192E-10  9.505461E-10
       194  14 -2.516005E+06 -3.664454E+05 -1.012796E+04 -9.611417E+05 -1.272114E-09 -3.255805E-10
       194  15 -2.491549E+06 -3.958003E+05 -1.930771E+04 -9.896592E+05  5.937273E-10 -4.567642E-10
       194  16 -2.791909E+06 -5.047585E+05 -8.479892E+04 -1.071972E+06 -1.229232E-09 -7.025286E-10
       194  17 -2.917952E+06 -5.172443E+05 -1.153059E+05 -1.070415E+06 -6.080513E-11  1.954082E-09
       194  18 -2.994600E+06 -5.851461E+05 -1.507660E+05 -1.127119E+06  1.253800E-09  8.519022E-10
       194  19 -2.190108E+06 -2.801965E+05  7.317515E+04 -9.097665E+05 -1.014293E+04  7.665486E+03
       194  20 -2.113901E+06 -2.156364E+05  9.503699E+04 -8.518047E+05 -1.692192E+04  1.052024E+04
       194  21 -1.988252E+06 -2.064390E+05  1.121301E+05 -8.520991E+05 -2.362570E+04  1.315868E+04
       194  22 -2.491053E+06 -3.924802E+05 -5.808059E+03 -9.908870E+05 -7.541800E+03  8.637261E+03
       194  23 -2.516005E+06 -3.664452E+05 -1.012732E+04 -9.611419E+05 -1.443301E+04  1.145131E+04
       194  24 -2.491548E+06 -3.958000E+05 -1.930649E+04 -9.896594E+05 -2.124810E+04  1.404929E+04
       194  25 -2.791909E+06 -5.047584E+05 -8.479871E+04 -1.071972E+06 -4.942062E+03  9.608520E+03
       194  26 -2.917952E+06 -5.172441E+05 -1.153053E+05 -1.070415E+06 -1.194587E+04  1.238173E+04
       194  27 -2.994599E+06 -5.851457E+05 -1.507649E+05 -1.127119E+06 -1.887261E+04  1.493911E+04
       195   1 -1.862539E+06 -1.584712E+05  1.397575E+05 -8.244934E+05  2.880242E+04 -1.456284E+04
       195   2 -1.790479E+06 -9.002397E+04  1.456269E+05 -7.635070E+05  5.186727E+04 -1.089913E+04
       195   3 -1.687035E+06 -1.089053E+05  1.250029E+05 -7.481767E+05  7.416443E+04 -5.160101E+03
       195   4 -2.493925E+06 -3.907473E+05 -2.482063E+04 -9.914480E+05  2.588592E+04 -1.565606E+04
       195   5 -2.511842E+06 -3.632871E+05 -4.351094E+04 -9.625131E+05  5.004008E+04 -1.158681E+04
       195   6 -2.498617E+06 -4.234081E+05 -8.958507E+04 -9.792400E+05  7.342265E+04 -5.442934E+03
       195   7 -3.124925E+06 -6.230031E+05 -1.894323E+05 -1.158251E+06  2.297268E+04 -1.674811E+04
       195   8 -3.232697E+06 -6.365154E+05 -2.326928E+05 -1.161308E+06  4.821520E+04 -1.227360E+04
       195   9 -3.309556E+06 -7.378583E+05 -3.042293E+05 -1.210025E+06  7.268190E+04 -5.725361E+03
       195  10 -1.862540E+06 -1.584716E+05  1.397556E+05 -8.244931E+05  1.369528E-09  1.017689E-09
       195  11 -1.790482E+06 -9.002482E+04  1.456216E+05 -7.635066E+05  2.199338E-10  4.722972E-11
       195  12 -1.687041E+06 -1.089068E+05  1.249924E+05 -7.481764E+05  5.399082E-10  2.976654E-10
       195  13 -2.493926E+06 -3.907477E+05 -2.482235E+04 -9.914477E+05  1.453881E-09  9.623525E-10
       195  14 -2.511844E+06 -3.632879E+05 -4.351591E+04 -9.625126E+05  6.355201E-10  7.820533E-10
       195  15 -2.498623E+06 -4.234096E+05 -8.959529E+04 -9.792397E+05  5.801926E-10 -2.730021E-10
       195  16 -3.124925E+06 -6.230035E+05 -1.894338E+05 -1.158250E+06  5.568375E-10  9.783647E-10
       195  17 -3.232700E+06 -6.365162E+05 -2.326974E+05 -1.161308E+06 -1.032373E-09  9.705119E-10
       195  18 -3.309562E+06 -7.378597E+05 -3.042393E+05 -1.210024E+06 -1.801029E-10 -3.297729E-10
       195  19 -1.862539E+06 -1.584712E+05  1.397575E+05 -8.244934E+05 -2.880242E+04  1.456284E+04
       195  20 -1.790479E+06 -9.002397E+04  1.456269E+05 -7.635070E+05 -5.186727E+04  1.089913E+04
       195  21 -1.687035E+06 -1.089053E+05  1.250029E+05 -7.481767E+05 -7.416443E+04  5.160101E+03
       195  22 -2.493925E+06 -3.907473E+05 -2.482063E+04 -9.914480E+05 -2.588592E+04  1.565606E+04
       195  23 -2.511842E+06 -3.632871E+05 -4.351094E+04 -9.625131E+05 -5.004008E+04  1.158681E+04
       195  24 -2.498617E+06 -4.234081E+05 -8.958507E+04 -9.792400E+05 -7.342265E+04  5.442934E+03
       195  25 -3.124925E+06 -6.230031E+05 -1.894323E+05 -1.158251E+06 -2.297268E+04  1.674811E+04
       195  26 -3.232697E+06 -6.365154E+05 -2.326928E+05 -1.161308E+06 -4.821520E+04  1.227360E+04
       195  27 -3.309556E+06 -7.378583E+05 -3.042293E+05 -1.210025E+06 -7.268190E+04  5.725361E+03
       196   1 -1.549590E+06 -5.896262E+04  1.332240E+05 -7.847353E+05  1.001206E+05 -2.561972E+03
       196   2 -1.485034E+06  8.046450E+04  8.140737E+04 -6.644610E+05  1.867831E+05  2.716654E+04
       196   3 -1.533019E+06 -2.080888E+05 -1.396909E+05 -4.920809E+05  2.629294E+05  8.485660E+04
       196   4 -2.513969E+06 -3.780462E+05 -1.104872E+05 -1.003306E+06  9.116246E+04 -5.923863E+03
       196   5 -2.479397E+06 -3.248283E+05 -1.845683E+05 -9.682711E+05  1.927126E+05  2.938224E+04
       196   6 -2.560587E+06 -7.029748E+05 -4.399820E+05 -8.810800E+05  2.837300E+05  9.264313E+04
       196   7 -3.477449E+06 -6.971217E+05 -3.542718E+05 -1.221592E+06  8.221954E+04 -9.281624E+03
       196   8 -3.472791E+06 -7.300109E+05 -4.506307E+05 -1.271622E+06  1.986314E+05  3.159316E+04
       196   9 -3.587095E+06 -1.197586E+06 -7.403720E+05 -1.269428E+06  3.044923E+05  1.004062E+05
       196  10 -1.549601E+06 -5.896533E+04  1.332051E+05 -7.847351E+05 -1.060530E-10 -1.460737E-10
       196  11 -1.485072E+06  8.045431E+04  8.134024E+04 -6.644651E+05  2.312361E-09  5.088266E-10
       196  12 -1.533095E+06 -2.081152E+05 -1.398348E+05 -4.920989E+05  2.446272E-09  3.051599E-10
       196  13 -2.513978E+06 -3.780485E+05 -1.105030E+05 -1.003305E+06  1.200335E-09  4.079381E-10
       196  14 -2.479437E+06 -3.248392E+05 -1.846400E+05 -9.682756E+05  5.738242E-09 -3.478676E-10
       196  15 -2.560676E+06 -7.030058E+05 -4.401502E+05 -8.811013E+05  3.981578E-10  2.416032E-10
       196  16 -3.477456E+06 -6.971236E+05 -3.542847E+05 -1.221592E+06  1.008350E-09  8.048679E-10
       196  17 -3.472834E+06 -7.300226E+05 -4.507072E+05 -1.271627E+06  1.861899E-10  1.949203E-09
       196  18 -3.587198E+06 -1.197622E+06 -7.405665E+05 -1.269452E+06  2.627056E-10 -4.287838E-10
       196  19 -1.549590E+06 -5.896262E+04  1.332240E+05 -7.847353E+05 -1.001206E+05  2.561972E+03
       196  20 -1.485034E+06  8.046450E+04  8.140737E+04 -6.644610E+05 -1.867831E+05 -2.716654E+04
       196  21 -1.533019E+06 -2.080888E+05 -1.396909E+05 -4.920809E+05 -2.629294E+05 -8.485660E+04
       196  22 -2.513969E+06 -3.780462E+05 -1.104872E+05 -1.003306E+06 -9.116246E+04  5.923863E+03
       196  23 -2.479397E+06 -3.248283E+05 -1.845683E+05 -9.682711E+05 -1.927126E+05 -2.938224E+04
       196  24 -2.560587E+06 -7.029748E+05 -4.399820E+05 -8.810800E+05 -2.837300E+05 -9.264313E+04
       196  25 -3.477449E+06 -6.971217E+05 -3.542718E+05 -1.221592E+06 -8.221954E+04  9.281624E+03
       196  26 -3.472791E+06 -7.300109E+05 -4.506307E+05 -1.271622E+06 -1.986314E+05 -3.159316E+04
       196  27 -3.587095E+06 -1.197586E+06 -7.403720E+05 -1.269428E+06 -3.044923E+05 -1.004062E+05
       197   1  3.015765E+05  9.749882E+04  1.720831E+05  6.805755E+04  2.308026E+05  8.571789E+03
       197   2  3.143756E+05 -2.067099E+05 -7.120866E+03  1.793640E+04  1.560295E+05  2.484743E+04
       197   3  4.218516E+05 -1.734751E+05 -5.316055E+04 -7.112235E+04  8.127505E+04  2.344507E+04
       197   4  1.060743E+06  2.860735E+05  3.585834E+05 -3.098821E+04  2.455704E+05  8.559539E+03
       197   5  1.012654E+06 -3.421141E+04  1.580605E+05 -1.128295E+04  1.605097E+05  2.484423E+04
       197   6  1.060900E+06 -1.549233E+04  9.772390E+04 -3.051194E+04  7.547675E+04  2.344293E+04
       197   7  1.820456E+06  4.746428E+05  5.450475E+05 -1.301554E+05  2.603560E+05  8.542606E+03
       197   8  1.711382E+06  1.382554E+05  3.232086E+05 -4.053548E+04  1.649949E+05  2.484062E+04
       197   9  1.700328E+06  1.424674E+05  2.485811E+05  1.014038E+04  6.967249E+04  2.344002E+04
       197  10  3.015193E+05  9.748445E+04  1.719829E+05  6.805596E+04 -4.558122E-10  8.231908E-10
       197  11  3.143493E+05 -2.067171E+05 -7.167748E+03  1.793328E+04  1.669661E-09 -9.403681E-11
       197  12  4.218443E+05 -1.734775E+05 -5.317399E+04 -7.112388E+04  1.071446E-09 -8.887600E-11
       197  13  1.060679E+06  2.860573E+05  3.584701E+05 -3.098990E+04  5.214635E-10  2.788112E-10
       197  14  1.012626E+06 -3.421897E+04  1.580110E+05 -1.128617E+04 -2.689932E-09 -1.661500E-09
       197  15  1.060894E+06 -1.549444E+04  9.771218E+04 -3.051337E+04  1.468052E-09  2.709306E-10
       197  16  1.820384E+06  4.746246E+05  5.449204E+05 -1.301572E+05  4.723026E-10 -2.606754E-10
       197  17  1.711353E+06  1.382475E+05  3.231564E+05 -4.053878E+04  7.071529E-10 -2.821460E-10
       197  18  1.700322E+06  1.424655E+05  2.485710E+05  1.013907E+04 -1.566667E-10 -2.137569E-11
       197  19  3.015765E+05  9.749882E+04  1.720831E+05  6.805755E+04 -2.308026E+05 -8.571789E+03
       197  20  3.143756E+05 -2.067099E+05 -7.120866E+03  1.793640E+04 -1.560295E+05 -2.484743E+04
       197  21  4.218516E+05 -1.734751E+05 -5.316055E+04 -7.112235E+04 -8.127505E+04 -2.344507E+04
       197  22  1.060743E+06  2.860735E+05  3.585834E+05 -3.098821E+04 -2.455704E+05 -8.559539E+03
       197  23  1.012654E+06 -3.421141E+04  1.580605E+05 -1.128295E+04 -1.605097E+05 -2.484423E+04
       197  24  1.060900E+06 -1.549233E+04  9.772390E+04 -3.051194E+04 -7.547675E+04 -2.344293E+04
       197  25  1.820456E+06  4.746428E+05  5.450475E+05 -1.301554E+05 -2.603560E+05 -8.542606E+03
       197  26  1.711382E+06  1.382554E+05  3.232086E+05 -4.053548E+04 -1.649949E+05 -2.484062E+04
       197  27  1.700328E+06  1.424674E+05  2.485811E+05  1.014038E+04 -6.967249E+04 -2.344002E+04
       198   1  4.711705E+05 -1.142119E+05 -5.586527E+04 -2.242003E+04  6.094239E+04  1.954887E+04
       198   2  5.232379E+05 -1.302949E+05 -8.043166E+04 -9.693560E+03  4.070189E+04  1.821604E+04
       198   3  5.862864E+05 -1.141357E+05 -8.370427E+04 -3.455195E+04  2.045880E+04  1.579320E+04
       198   4  1.041943E+06  2.688443E+04  7.939141E+04 -3.036102E+04  6.053520E+04  1.954653E+04
       198   5  1.036420E+06 -3.474485E+03  4.093036E+04 -1.155991E+04  3.964890E+04  1.821430E+04
       198   6  1.041978E+06 -1.494548E+03  2.419692E+04 -3.034122E+04  1.876188E+04  1.579209E+04
       198   7  1.613014E+06  1.679577E+05  2.146255E+05 -3.830939E+04  6.012762E+04  1.954420E+04
       198   8  1.549844E+06  1.233271E+05  1.622742E+05 -1.342784E+04  3.859503E+04  1.821258E+04
       198   9  1.497860E+06  1.111318E+05  1.320837E+05 -2.612740E+04  1.706371E+04  1.579097E+04
       198  10  4.711665E+05 -1.142133E+05 -5.587297E+04 -2.242099E+04  2.529470E-10 -8.855082E-10
       198  11  5.232361E+05 -1.302957E+05 -8.043540E+04 -9.694157E+03  7.215516E-10  2.549800E-10
       198  12  5.862859E+05 -1.141361E+05 -8.370552E+04 -3.455221E+04 -8.364830E-10 -1.832852E-10
       198  13  1.041939E+06  2.688303E+04  7.938382E+04 -3.036197E+04  8.631280E-12 -2.692834E-10
       198  14  1.036419E+06 -3.475263E+03  4.092679E+04 -1.156049E+04 -5.470104E-10 -2.228266E-10
       198  15  1.041977E+06 -1.494910E+03  2.419579E+04 -3.034146E+04 -2.162681E-09 -1.695662E-10
       198  16  1.613010E+06  1.679563E+05  2.146180E+05 -3.831034E+04  5.679140E-10  6.500734E-10
       198  17  1.549843E+06  1.233264E+05  1.622707E+05 -1.342841E+04 -5.528711E-11 -1.061572E-09
       198  18  1.497859E+06  1.111315E+05  1.320827E+05 -2.612762E+04 -9.432419E-10  1.554770E-10
       198  19  4.711705E+05 -1.142119E+05 -5.586527E+04 -2.242003E+04 -6.094239E+04 -1.954887E+04
       198  20  5.232379E+05 -1.302949E+05 -8.043166E+04 -9.693560E+03 -4.070189E+04 -1.821604E+04
       198  21  5.862864E+05 -1.141357E+05 -8.370427E+04 -3.455195E+04 -2.045880E+04 -1.579320E+04
       198  22  1.041943E+06  2.688443E+04  7.939141E+04 -3.036102E+04 -6.053520E+04 -1.954653E+04
       198  23  1.036420E+06 -3.474485E+03  4.093036E+04 -1.155991E+04 -3.964890E+04 -1.821430E+04
       198  24  1.041978E+06 -1.494548E+03  2.419692E+04 -3.034122E+04 -1.876188E+04 -1.579209E+04
       198  25  1.613014E+06  1.679577E+05  2.146255E+05 -3.830939E+04 -6.012762E+04 -1.954420E+04
       198  26  1.549844E+06  1.233271E+05  1.622742E+05 -1.342784E+04 -3.859503E+04 -1.821258E+04
       198  27  1.497860E+06  1.111318E+05  1.320837E+05 -2.612740E+04 -1.706371E+04 -1.579097E+04
       199   1  6.503185E+05 -9.379715E+04 -7.312328E+04 -2.970412E+04  1.630851E+04  1.420323E+04
       199   2  7.055647E+05 -8.280341E+04 -6.845247E+04 -1.181835E+04  1.113152E+04  1.182930E+04
       199   3  7.623542E+05 -6.873755E+04 -5.962446E+04 -3.054586E+04  5.952489E+03  9.404464E+03
       199   4  1.039871E+06  2.436006E+03  1.884896E+04 -3.013127E+04  1.496125E+04  1.420242E+04
       199   5  1.039105E+06 -3.849550E+02  1.041669E+04 -1.182519E+04  9.751867E+03  1.182890E+04
       199   6  1.039884E+06 -1.293958E+02  6.161945E+03 -3.013113E+04  4.540912E+03  9.404476E+03
       199   7  1.429563E+06  9.865831E+04  1.108107E+05 -3.055869E+04  1.361314E+04  1.420162E+04
       199   8  1.372748E+06  8.202553E+04  8.927815E+04 -1.183204E+04  8.371478E+03  1.182849E+04
       199   9  1.317484E+06  6.847323E+04  7.194301E+04 -2.971622E+04  3.128707E+03  9.404487E+03
       199  10  6.503181E+05 -9.379743E+04 -7.312415E+04 -2.970430E+04 -4.524505E-11  5.089168E-11
       199  11  7.055645E+05 -8.280359E+04 -6.845297E+04 -1.181845E+04  9.298265E-10 -6.180505E-11
       199  12  7.623542E+05 -6.873765E+04 -5.962469E+04 -3.054590E+04 -4.778184E-10  4.537081E-10
       199  13  1.039871E+06  2.435730E+03  1.884817E+04 -3.013144E+04 -1.633019E-09  9.254069E-11
       199  14  1.039105E+06 -3.851308E+02  1.041625E+04 -1.182528E+04  7.260776E-10 -2.215104E-11
       199  15  1.039884E+06 -1.294963E+02  6.161740E+03 -3.013117E+04 -4.989994E-10  1.188596E-10
       199  16  1.429563E+06  9.865805E+04  1.108100E+05 -3.055885E+04 -1.939223E-09  2.575422E-10
       199  17  1.372748E+06  8.202537E+04  8.927776E+04 -1.183212E+04 -1.240343E-10  1.524455E-10
       199  18  1.317484E+06  6.847314E+04  7.194282E+04 -2.971624E+04 -1.623786E-09  1.991026E-10
       199  19  6.503185E+05 -9.379715E+04 -7.312328E+04 -2.970412E+04 -1.630851E+04 -1.420323E+04
       199  20  7.055647E+05 -8.280341E+04 -6.845247E+04 -1.181835E+04 -1.113152E+04 -1.182930E+04
       199  21  7.623542E+05 -6.873755E+04 -5.962446E+04 -3.054586E+04 -5.952489E+03 -9.404464E+03
       199  22  1.039871E+06  2.436006E+03  1.884896E+04 -3.013127E+04 -1.496125E+04 -1.420242E+04
       199  23  1.039105E+06 -3.849550E+02  1.041669E+04 -1.182519E+04 -9.751867E+03 -1.182890E+04
       199  24  1.039884E+06 -1.293958E+02  6.161945E+03 -3.013113E+04 -4.540912E+03 -9.404476E+03
       199  25  1.429563E+06  9.865831E+04  1.108107E+05 -3.055869E+04 -1.361314E+04 -1.420162E+04
       199  26  1.372748E+06  8.202553E+04  8.927815E+04 -1.183204E+04 -8.371478E+03 -1.182849E+04
       199  27  1.317484E+06  6.847323E+04  7.194301E+04 -2.971622E+04 -3.128707E+03 -9.404487E+03
       200   1  8.268277E+05 -5.232903E+04 -4.533974E+04 -2.998984E+04  4.939550E+03  7.989715E+03
       200   2  8.818365E+05 -3.899271E+04 -3.430312E+04 -1.198507E+04  3.463756E+03  5.589543E+03
       200   3  9.371139E+05 -2.533480E+04 -2.222804E+04 -3.001479E+04  1.987115E+03  3.194429E+03
       200   4  1.039608E+06  2.120129E+02  4.803848E+03 -3.000266E+04  3.554706E+03  7.989918E+03
       200   5  1.039478E+06 -4.352994E+01  2.968782E+03 -1.198573E+04  2.081324E+03  5.589928E+03
       200   6  1.039613E+06  2.219663E+01  2.170352E+03 -3.000274E+04  6.072227E+02  3.195008E+03
       200   7  1.252430E+06  5.274983E+04  5.494433E+04 -3.001548E+04  2.169391E+03  7.990120E+03
       200   8  1.197142E+06  3.890387E+04  4.023897E+04 -1.198640E+04  6.985423E+02  5.590314E+03
       200   9  1.142121E+06  2.537843E+04  2.656802E+04 -2.999069E+04 -7.728961E+02  3.195586E+03
       200  10  8.268277E+05 -5.232911E+04 -4.533991E+04 -2.998988E+04 -9.576058E-10  5.024696E-10
       200  11  8.818365E+05 -3.899275E+04 -3.430320E+04 -1.198508E+04  4.371650E-10  2.288876E-10
       200  12  9.371139E+05 -2.533481E+04 -2.222807E+04 -3.001480E+04 -5.080982E-10 -3.436148E-10
       200  13  1.039608E+06  2.119409E+02  4.803704E+03 -3.000268E+04 -1.974574E-09  4.779326E-10
       200  14  1.039478E+06 -4.356467E+01  2.968715E+03 -1.198574E+04 -8.898100E-10 -2.936284E-10
       200  15  1.039613E+06  2.218557E+01  2.170332E+03 -3.000274E+04  1.500405E-10 -6.590226E-10
       200  16  1.252429E+06  5.274976E+04  5.494420E+04 -3.001549E+04 -3.463420E-10 -3.456557E-10
       200  17  1.197142E+06  3.890384E+04  4.023891E+04 -1.198640E+04 -9.398581E-10 -7.258672E-11
       200  18  1.142121E+06  2.537842E+04  2.656800E+04 -2.999068E+04  4.214264E-10 -7.823149E-10
       200  19  8.268277E+05 -5.232903E+04 -4.533974E+04 -2.998984E+04 -4.939550E+03 -7.989715E+03
       200  20  8.818365E+05 -3.899271E+04 -3.430312E+04 -1.198507E+04 -3.463756E+03 -5.589543E+03
       200  21  9.371139E+05 -2.533480E+04 -2.222804E+04 -3.001479E+04 -1.987115E+03 -3.194429E+03
       200  22  1.039608E+06  2.120129E+02  4.803848E+03 -3.000266E+04 -3.554706E+03 -7.989918E+03
       200  23  1.039478E+06 -4.352994E+01  2.968782E+03 -1.198573E+04 -2.081324E+03 -5.589928E+03
       200  24  1.039613E+06  2.219663E+01  2.170352E+03 -3.000274E+04 -6.072227E+02 -3.195008E+03
       200  25  1.252430E+06  5.274983E+04  5.494433E+04 -3.001548E+04 -2.169391E+03 -7.990120E+03
       200  26  1.197142E+06  3.890387E+04  4.023897E+04 -1.198640E+04 -6.985423E+02 -5.590314E+03
       200  27  1.142121E+06  2.537843E+04  2.656802E+04 -2.999069E+04  7.728961E+02 -3.195586E+03
       201   1  1.001190E+06 -9.423518E+03 -6.886283E+03 -2.994042E+04  1.604894E+03  1.802916E+03
       201   2  1.056004E+06  4.053400E+03  6.099162E+03 -1.202486E+04  5.116754E+02 -5.850710E+02
       201   3  1.110981E+06  1.775191E+04  1.984223E+04 -2.997760E+04 -5.815469E+02 -2.970633E+03
       201   4  1.039592E+06  3.078701E+01  2.026892E+03 -2.996594E+04  2.267250E+02  1.803551E+03
       201   5  1.039511E+06 -2.122278E+01  2.199988E+03 -1.203174E+04 -8.651367E+02 -5.844623E+02
       201   6  1.039591E+06  1.485461E+02  3.130158E+03 -2.996588E+04 -1.956907E+03 -2.970039E+03
       201   7  1.077995E+06  9.484989E+03  1.093997E+04 -2.999147E+04 -1.151528E+03  1.804186E+03
       201   8  1.023018E+06 -4.095864E+03 -1.699197E+03 -1.203861E+04 -2.241913E+03 -5.838535E+02
       201   9  9.682055E+05 -1.745518E+04 -1.358225E+04 -2.995416E+04 -3.332110E+03 -2.969445E+03
       201  10  1.001190E+06 -9.423522E+03 -6.886294E+03 -2.994042E+04 -3.301852E-10 -4.333240E-10
       201  11  1.056004E+06  4.053400E+03  6.099161E+03 -1.202486E+04  1.885895E-09 -2.253774E-10
       201  12  1.110981E+06  1.775190E+04  1.984221E+04 -2.997760E+04  1.999793E-10  1.355095E-10
       201  13  1.039592E+06  3.078350E+01  2.026886E+03 -2.996594E+04 -8.973714E-10  1.196244E-10
       201  14  1.039511E+06 -2.122335E+01  2.199986E+03 -1.203174E+04 -1.435926E-09  6.011706E-10
       201  15  1.039591E+06  1.485356E+02  3.130134E+03 -2.996589E+04  8.624415E-10 -5.832390E-10
       201  16  1.077995E+06  9.484985E+03  1.093997E+04 -2.999147E+04  5.965564E-10 -4.127568E-10
       201  17  1.023018E+06 -4.095866E+03 -1.699207E+03 -1.203861E+04 -2.235223E-09  4.359412E-10
       201  18  9.682055E+05 -1.745519E+04 -1.358229E+04 -2.995417E+04 -1.865512E-10 -5.547392E-12
       201  19  1.001190E+06 -9.423518E+03 -6.886283E+03 -2.994042E+04 -1.604894E+03 -1.802916E+03
       201  20  1.056004E+06  4.053400E+03  6.099162E+03 -1.202486E+04 -5.116754E+02  5.850710E+02
       201  21  1.110981E+06  1.775191E+04  1.984223E+04 -2.997760E+04  5.815469E+02  2.970633E+03
       201  22  1.039592E+06  3.078701E+01  2.026892E+03 -2.996594E+04 -2.267250E+02 -1.803551E+03
       201  23  1.039511E+06 -2.122278E+01  2.199988E+03 -1.203174E+04  8.651367E+02  5.844623E+02
       201  24  1.039591E+06  1.485461E+02  3.130158E+03 -2.996588E+04  1.956907E+03  2.970039E+03
       201  25  1.077995E+06  9.484989E+03  1.093997E+04 -2.999147E+04  1.151528E+03 -1.804186E+03
       201  26  1.023018E+06 -4.095864E+03 -1.699197E+03 -1.203861E+04  2.241913E+03  5.838535E+02
       201  27  9.682055E+05 -1.745518E+04 -1.358225E+04 -2.995416E+04  3.332110E+03  2.969445E+03
       202   1  1.175317E+06  3.346415E+04  3.610125E+04 -2.979067E+04 -1.193960E+03 -4.370184E+03
       202   2  1.230143E+06  4.692360E+04  5.149254E+04 -1.201385E+04 -4.412886E+03 -6.765087E+03
       202   3  1.285866E+06  6.225709E+04  6.944561E+04 -3.034357E+04 -7.631274E+03 -9.113742E+03
       202   4  1.039749E+06 -5.783792E+01  3.890328E+03 -3.001913E+04 -2.589025E+03 -4.369664E+03
       202   5  1.039301E+06 -2.188096E+02  6.380235E+03 -1.196531E+04 -5.780452E+03 -6.764813E+03
       202   6  1.039742E+06  1.489910E+03  1.141350E+04 -3.001870E+04 -8.971058E+03 -9.113698E+03
       202   7  9.041985E+05 -3.358115E+04 -2.832187E+04 -3.024753E+04 -3.983787E+03 -4.369144E+03
       202   8  8.484928E+05 -4.736383E+04 -3.873458E+04 -1.191678E+04 -7.147600E+03 -6.764539E+03
       202   9  7.936741E+05 -5.928159E+04 -4.662278E+04 -2.969395E+04 -1.031032E+04 -9.113655E+03
       202  10  1.175317E+06  3.346413E+04  3.610122E+04 -2.979067E+04 -9.367483E-10  8.012526E-10
       202  11  1.230143E+06  4.692355E+04  5.149242E+04 -1.201387E+04  7.995067E-10  3.073086E-10
       202  12  1.285866E+06  6.225698E+04  6.944535E+04 -3.034363E+04 -2.754228E-10 -2.776174E-10
       202  13  1.039749E+06 -5.786023E+01  3.890280E+03 -3.001914E+04 -7.696465E-10 -4.469807E-11
       202  14  1.039301E+06 -2.188677E+02  6.380086E+03 -1.196534E+04  5.626975E-10 -1.901246E-11
       202  15  1.039742E+06  1.489799E+03  1.141319E+04 -3.001876E+04  2.687394E-10 -1.852403E-10
       202  16  9.041985E+05 -3.358117E+04 -2.832194E+04 -3.024755E+04  1.452988E-10  4.885272E-10
       202  17  8.484928E+05 -4.736389E+04 -3.873477E+04 -1.191682E+04  1.725693E-09  2.695110E-10
       202  18  7.936739E+05 -5.928171E+04 -4.662314E+04 -2.969402E+04  5.975808E-10 -1.900514E-10
       202  19  1.175317E+06  3.346415E+04  3.610125E+04 -2.979067E+04  1.193960E+03  4.370184E+03
       202  20  1.230143E+06  4.692360E+04  5.149254E+04 -1.201385E+04  4.412886E+03  6.765087E+03
       202  21  1.285866E+06  6.225709E+04  6.944561E+04 -3.034357E+04  7.631274E+03  9.113742E+03
       202  22  1.039749E+06 -5.783792E+01  3.890328E+03 -3.001913E+04  2.589025E+03  4.369664E+03
       202  23  1.039301E+06 -2.188096E+02  6.380235E+03 -1.196531E+04  5.780452E+03  6.764813E+03
       202  24  1.039742E+06  1.489910E+03  1.141350E+04 -3.001870E+04  8.971058E+03  9.113698E+03
       202  25  9.041985E+05 -3.358115E+04 -2.832187E+04 -3.024753E+04  3.983787E+03  4.369144E+03
       202  26  8.484928E+05 -4.736383E+04 -3.873458E+04 -1.191678E+04  7.147600E+03  6.764539E+03
       202  27  7.936741E+05 -5.928159E+04 -4.662278E+04 -2.969395E+04  1.031032E+04  9.113655E+03
       203   1  1.352128E+06  7.599760E+04  8.830271E+04 -2.770966E+04 -9.649049E+03 -1.064571E+04
       203   2  1.405051E+06  8.865778E+04  1.115179E+05 -1.302380E+04 -2.276374E+04 -1.301899E+04
       203   3  1.464699E+06  1.208978E+05  1.481780E+05 -3.507981E+04 -3.587835E+04 -1.450720E+04
       203   4  1.041011E+06 -8.778267E+02  1.462132E+04 -3.015949E+04 -1.127026E+04 -1.064582E+04
       203   5  1.037682E+06 -2.081948E+03  2.468440E+04 -1.178955E+04 -2.386765E+04 -1.301964E+04
       203   6  1.040988E+06  1.621105E+04  4.783983E+04 -3.016249E+04 -3.646379E+04 -1.450830E+04
       203   7  7.299832E+05 -7.776017E+04 -5.906678E+04 -3.260810E+04 -1.289066E+04 -1.064591E+04
       203   8  6.704357E+05 -9.283133E+04 -6.215847E+04 -1.055603E+04 -2.497091E+04 -1.302029E+04
       203   9  6.174429E+05 -8.848849E+04 -5.251078E+04 -2.524855E+04 -3.704882E+04 -1.450940E+04
       203  10  1.352128E+06  7.599745E+04  8.830233E+04 -2.770974E+04  7.366477E-11 -1.032512E-09
       203  11  1.405051E+06  8.865746E+04  1.115166E+05 -1.302404E+04  2.953701E-09 -6.403373E-10
       203  12  1.464697E+06  1.208972E+05  1.481752E+05 -3.508023E+04  4.311305E-09  8.143630E-10
       203  13  1.041011E+06 -8.779825E+02  1.462087E+04 -3.015959E+04  3.370194E-11 -8.330217E-10
       203  14  1.037681E+06 -2.082283E+03  2.468302E+04 -1.178980E+04 -3.520289E-10 -3.580871E-10
       203  15  1.040987E+06  1.621047E+04  4.783694E+04 -3.016292E+04  5.286494E-11  9.299685E-10
       203  16  7.299830E+05 -7.776033E+04 -5.906730E+04 -3.260821E+04  3.247515E-10 -7.606754E-10
       203  17  6.704350E+05 -9.283168E+04 -6.215996E+04 -1.055629E+04 -4.105352E-09 -4.249272E-10
       203  18  6.174413E+05 -8.848909E+04 -5.251375E+04 -2.524898E+04 -4.042344E-09  1.667725E-09
       203  19  1.352128E+06  7.599760E+04  8.830271E+04 -2.770966E+04  9.649049E+03  1.064571E+04
       203  20  1.405051E+06  8.865778E+04  1.115179E+05 -1.302380E+04  2.276374E+04  1.301899E+04
       203  21  1.464699E+06  1.208978E+05  1.481780E+05 -3.507981E+04  3.587835E+04  1.450720E+04
       203  22  1.041011E+06 -8.778267E+02  1.462132E+04 -3.015949E+04  1.127026E+04  1.064582E+04
       203  23  1.037682E+06 -2.081948E+03  2.468440E+04 -1.178955E+04  2.386765E+04  1.301964E+04
       203  24  1.040988E+06  1.621105E+04  4.783983E+04 -3.016249E+04  3.646379E+04  1.450830E+04
       203  25  7.299832E+05 -7.776017E+04 -5.906678E+04 -3.260810E+04  1.289066E+04  1.064591E+04
       203  26  6.704357E+05 -9.283133E+04 -6.215847E+04 -1.055603E+04  2.497091E+04  1.302029E+04
       203  27  6.174429E+05 -8.848849E+04 -5.251078E+04 -2.524855E+04  3.704882E+04  1.450940E+04
       204   1  1.542746E+06  1.117717E+05  1.745849E+05 -5.955695E+03 -4.052698E+04 -1.788578E+04
       204   2  1.571133E+06  1.146589E+05  2.247059E+05 -2.936573E+04 -1.000395E+05 -1.937315E+04
       204   3  1.658937E+06  3.231342E+05  3.649672E+05 -9.034496E+04 -1.595698E+05 -6.574036E+03
       204   4  1.052413E+06 -9.317715E+03  5.888034E+04 -3.030007E+04 -4.546711E+04 -1.788709E+04
       204   5  1.023347E+06 -2.060915E+04  9.521146E+04 -1.159476E+04 -9.669847E+04 -1.937487E+04
       204   6  1.052311E+06  1.723439E+05  2.159940E+05 -3.045524E+04 -1.479413E+05 -6.578654E+03
       204   7  5.623020E+05 -1.304221E+05 -5.684037E+04 -5.462516E+04 -5.040336E+04 -1.788801E+04
       204   8  4.758369E+05 -1.558974E+05 -3.430349E+04  6.160446E+03 -9.336032E+04 -1.937640E+04
       204   9  4.460280E+05  2.153991E+04  6.699625E+04  2.937594E+04 -1.363240E+05 -6.581041E+03
       204  10  1.542745E+06  1.117709E+05  1.745812E+05 -5.956278E+03 -3.749500E-09  7.656641E-10
       204  11  1.571123E+06  1.146558E+05  2.246864E+05 -2.936729E+04 -1.764202E-09 -4.549370E-10
       204  12  1.658909E+06  3.231273E+05  3.649194E+05 -9.034580E+04  1.252277E-10  1.162895E-10
       204  13  1.052411E+06 -9.318613E+03  5.887586E+04 -3.030072E+04  3.511706E-10  3.348564E-10
       204  14  1.023337E+06 -2.061206E+04  9.519322E+04 -1.159626E+04 -5.470601E-10 -1.596489E-10
       204  15  1.052288E+06  1.723380E+05  2.159529E+05 -3.045602E+04  2.126568E-09 -6.143776E-10
       204  16  5.622991E+05 -1.304231E+05 -5.684574E+04 -5.462589E+04  3.201426E-09  1.357865E-09
       204  17  4.758274E+05 -1.559002E+05 -3.432057E+04  6.158990E+03  2.910796E-09 -4.492021E-10
       204  18  4.460080E+05  2.153488E+04  6.696127E+04  2.937522E+04 -4.516274E-11  6.210630E-10
       204  19  1.542746E+06  1.117717E+05  1.745849E+05 -5.955695E+03  4.052698E+04  1.788578E+04
       204  20  1.571133E+06  1.146589E+05  2.247059E+05 -2.936573E+04  1.000395E+05  1.937315E+04
       204  21  1.658937E+06  3.231342E+05  3.649672E+05 -9.034496E+04  1.595698E+05  6.574036E+03
       204  22  1.052413E+06 -9.317715E+03  5.888034E+04 -3.030007E+04  4.546711E+04  1.788709E+04
       204  23  1.023347E+06 -2.060915E+04  9.521146E+04 -1.159476E+04  9.669847E+04  1.937487E+04
       204  24  1.052311E+06  1.723439E+05  2.159940E+05 -3.045524E+04  1.479413E+05  6.578654E+03
       204  25  5.623020E+05 -1.304221E+05 -5.684037E+04 -5.462516E+04  5.040336E+04  1.788801E+04
       204  26  4.758369E+05 -1.558974E+05 -3.430349E+04  6.160446E+03  9.336032E+04  1.937640E+04
       204  27  4.460280E+05  2.153991E+04  6.699625E+04  2.937594E+04  1.363240E+05  6.581041E+03
       205   1  5.596625E+05  1.661250E+06  5.451140E+05 -5.787621E+05  2.034149E+04  1.759415E+05
       205   2  3.681373E+05  1.160541E+06  3.307124E+05 -5.022281E+05  6.212982E+04  6.810531E+04
       205   3  2.345123E+05  6.882035E+05  2.008323E+05 -5.244715E+05  5.719887E+04 -3.972926E+04
       205   4  8.002315E+04 -2.774471E+05  8.554372E+04 -5.247894E+05  2.069699E+04  5.737921E+04
       205   5  2.184676E+04 -2.839254E+05  4.379674E+04 -4.755086E+05  6.224483E+04  3.501161E+04
       205   6  6.844615E+03 -2.769992E+05  2.736683E+04 -5.249977E+05  5.703275E+04  1.255761E+04
       205   7 -3.998685E+05 -2.212661E+06 -3.742342E+05 -4.709820E+05  2.103261E+04 -6.081570E+04
       205   8 -3.245681E+05 -1.726396E+06 -2.432182E+05 -4.488503E+05  6.235717E+04  1.993147E+03
       205   9 -2.208735E+05 -1.241289E+06 -1.461244E+05 -5.255219E+05  5.686637E+04  6.476553E+04
       205  10  5.596538E+05  1.661216E+06  5.450552E+05 -5.787649E+05  3.388645E-10 -3.898068E-11
       205  11  3.681319E+05  1.160535E+06  3.306964E+05 -5.022315E+05  1.987557E-10 -1.221834E-09
       205  12  2.345083E+05  6.882010E+05  2.008232E+05 -5.244697E+05  1.341284E-09 -1.839646E-09
       205  13  8.002180E+04 -2.774507E+05  8.553672E+04 -5.247903E+05  1.895235E-09  2.695501E-11
       205  14  2.184227E+04 -2.839278E+05  4.378715E+04 -4.755103E+05 -7.924265E-11  1.214995E-10
       205  15  6.841079E+03 -2.770002E+05  2.736042E+04 -5.249982E+05  1.115528E-09 -5.457698E-10
       205  16 -3.998700E+05 -2.212665E+06 -3.742420E+05 -4.709810E+05 -7.029528E-10  4.649325E-10
       205  17 -3.245723E+05 -1.726397E+06 -2.432256E+05 -4.488504E+05  1.059115E-09  1.015666E-09
       205  18 -2.208781E+05 -1.241294E+06 -1.461384E+05 -5.255249E+05 -9.494266E-10 -3.066900E-10
       205  19  5.596625E+05  1.661250E+06  5.451140E+05 -5.787621E+05 -2.034149E+04 -1.759415E+05
       205  20  3.681373E+05  1.160541E+06  3.307124E+05 -5.022281E+05 -6.212982E+04 -6.810531E+04
       205  21  2.345123E+05  6.882035E+05  2.008323E+05 -5.244715E+05 -5.719887E+04  3.972926E+04
       205  22  8.002315E+04 -2.774471E+05  8.554372E+04 -5.247894E+05 -2.069699E+04 -5.737921E+04
       205  23  2.184676E+04 -2.839254E+05  4.379674E+04 -4.755086E+05 -6.224483E+04 -3.501161E+04
       205  24  6.844615E+03 -2.769992E+05  2.736683E+04 -5.249977E+05 -5.703275E+04 -1.255761E+04
       205  25 -3.998685E+05 -2.212661E+06 -3.742342E+05 -4.709820E+05 -2.103261E+04  6.081570E+04
       205  26 -3.245681E+05 -1.726396E+06 -2.432182E+05 -4.488503E+05 -6.235717E+04 -1.993147E+03
       205  27 -2.208735E+05 -1.241289E+06 -1.461244E+05 -5.255219E+05 -5.686637E+04 -6.476553E+04
       206   1  1.604918E+05  3.709711E+05  1.397719E+05 -5.296308E+05  3.909747E+04 -4.044245E+04
       206   2  4.276540E+04 -1.164729E+05  4.774114E+04 -4.750254E+05  1.188958E+04 -5.215129E+04
       206   3 -6.858673E+04 -6.011697E+05 -3.525441E+04 -5.221561E+05 -1.605137E+04 -6.385660E+04
       206   4  7.145861E+03 -2.793739E+05  2.345784E+04 -5.256367E+05  3.893371E+04  8.595742E+03
       206   5  4.533572E+03 -2.804897E+05  2.063254E+04 -4.747679E+05  1.171885E+04 -1.788494E+03
       206   6  8.076949E+03 -2.793205E+05  2.592211E+04 -5.256341E+05 -1.622945E+04 -1.217778E+04
       206   7 -1.462223E+05 -9.293013E+05 -9.286333E+04 -5.216465E+05  3.877048E+04  5.758404E+04
       206   8 -3.369828E+04 -4.444744E+05 -6.467328E+03 -4.745104E+05  1.154813E+04  4.856144E+04
       206   9  8.473602E+04  4.263434E+04  8.710403E+04 -5.291138E+05 -1.640805E+04  3.952720E+04
       206  10  1.604898E+05  3.709690E+05  1.397660E+05 -5.296295E+05  1.206098E-09 -1.633070E-09
       206  11  4.276452E+04 -1.164759E+05  4.773577E+04 -4.750249E+05 -1.905589E-10 -2.072016E-09
       206  12 -6.858811E+04 -6.011741E+05 -3.526256E+04 -5.221569E+05 -6.586796E-10 -9.220660E-10
       206  13  7.144213E+03 -2.793744E+05  2.345485E+04 -5.256370E+05  5.287919E-10  2.078129E-11
       206  14  4.533424E+03 -2.804897E+05  2.063227E+04 -4.747679E+05 -3.360710E-09  3.823565E-10
       206  15  8.076626E+03 -2.793208E+05  2.592133E+04 -5.256343E+05 -6.401612E-10 -1.644560E-10
       206  16 -1.462248E+05 -9.293052E+05 -9.287240E+04 -5.216483E+05 -6.759846E-10  2.381792E-09
       206  17 -3.369906E+04 -4.444769E+05 -6.472015E+03 -4.745109E+05 -2.485208E-09  9.728741E-10
       206  18  8.473532E+04  4.263259E+04  8.710059E+04 -5.291133E+05  1.686974E-10 -6.436265E-10
       206  19  1.604918E+05  3.709711E+05  1.397719E+05 -5.296308E+05 -3.909747E+04  4.044245E+04
       206  20  4.276540E+04 -1.164729E+05  4.774114E+04 -4.750254E+05 -1.188958E+04  5.215129E+04
       206  21 -6.858673E+04 -6.011697E+05 -3.525441E+04 -5.221561E+05  1.605137E+04  6.385660E+04
       206  22  7.145861E+03 -2.793739E+05  2.345784E+04 -5.256367E+05 -3.893371E+04 -8.595742E+03
       206  23  4.533572E+03 -2.804897E+05  2.063254E+04 -4.747679E+05 -1.171885E+04  1.788494E+03
       206  24  8.076949E+03 -2.793205E+05  2.592211E+04 -5.256341E+05  1.622945E+04  1.217778E+04
       206  25 -1.462223E+05 -9.293013E+05 -9.286333E+04 -5.216465E+05 -3.877048E+04 -5.758404E+04
       206  26 -3.369828E+04 -4.444744E+05 -6.467328E+03 -4.745104E+05 -1.154813E+04 -4.856144E+04
       206  27  8.473602E+04  4.263434E+04  8.710403E+04 -5.291138E+05  1.640805E+04 -3.952720E+04
       207   1 -1.430166E+05 -9.123058E+05 -8.641641E+04 -5.270078E+05 -3.464719E+04 -7.087485E+04
       207   2 -2.425551E+05 -1.399912E+06 -1.737279E+05 -4.445783E+05 -4.495502E+04 -2.591530E+04
       207   3 -3.028391E+05 -1.883739E+06 -2.806509E+05 -4.614900E+05 -1.592869E+04  1.909031E+04
       207   4  7.777968E+03 -2.763375E+05  3.124113E+04 -5.251202E+05 -3.483006E+04 -1.658505E+04
       207   5  2.610141E+04 -2.844918E+05  5.195492E+04 -4.753380E+05 -4.489206E+04 -4.327592E+04
       207   6  9.609208E+04 -2.766797E+05  1.028386E+05 -5.248605E+05 -1.565711E+04 -6.988579E+04
       207   7  1.585509E+05  3.600298E+05  1.488929E+05 -5.232303E+05 -3.501247E+04  3.775900E+04
       207   8  2.946841E+05  8.321179E+05  2.775749E+05 -5.061527E+05 -4.482745E+04 -6.066713E+04
       207   9  4.948549E+05  1.332779E+06  4.861781E+05 -5.883935E+05 -1.536776E+04 -1.590915E+05
       207  10 -1.430192E+05 -9.123115E+05 -8.642813E+04 -5.270097E+05  8.230995E-10  1.877870E-09
       207  11 -2.425575E+05 -1.399913E+06 -1.737330E+05 -4.445793E+05  2.520525E-09 -1.502774E-09
       207  12 -3.028395E+05 -1.883740E+06 -2.806521E+05 -4.614898E+05  6.208926E-10 -3.740676E-09
       207  13  7.776591E+03 -2.763381E+05  3.123833E+04 -5.251207E+05  1.693220E-09  3.984111E-10
       207  14  2.609874E+04 -2.844943E+05  5.194760E+04 -4.753395E+05 -1.433085E-09  2.952418E-10
       207  15  9.609051E+04 -2.766850E+05  1.028289E+05 -5.248614E+05  4.578550E-10 -3.390148E-10
       207  16  1.585493E+05  3.600279E+05  1.488879E+05 -5.232292E+05  8.514595E-11 -7.367199E-10
       207  17  2.946809E+05  8.321134E+05  2.775642E+05 -5.061549E+05  1.541427E-09  1.176492E-09
       207  18  4.948479E+05  1.332752E+06  4.861302E+05 -5.883954E+05  7.647998E-10  2.174870E-09
       207  19 -1.430166E+05 -9.123058E+05 -8.641641E+04 -5.270078E+05  3.464719E+04  7.087485E+04
       207  20 -2.425551E+05 -1.399912E+06 -1.737279E+05 -4.445783E+05  4.495502E+04  2.591530E+04
       207  21 -3.028391E+05 -1.883739E+06 -2.806509E+05 -4.614900E+05  1.592869E+04 -1.909031E+04
       207  22  7.777968E+03 -2.763375E+05  3.124113E+04 -5.251202E+05  3.483006E+04  1.658505E+04
       207  23  2.610141E+04 -2.844918E+05  5.195492E+04 -4.753380E+05  4.489206E+04  4.327592E+04
       207  24  9.609208E+04 -2.766797E+05  1.028386E+05 -5.248605E+05  1.565711E+04  6.988579E+04
       207  25  1.585509E+05  3.600298E+05  1.488929E+05 -5.232303E+05  3.501247E+04 -3.775900E+04
       207  26  2.946841E+05  8.321179E+05  2.775749E+05 -5.061527E+05  4.482745E+04  6.066713E+04
       207  27  4.948549E+05  1.332779E+06  4.861781E+05 -5.883935E+05  1.536776E+04  1.590915E+05
       208   1 -2.405229E+06 -9.326700E+05 -4.938709E+05 -9.103970E+05 -1.815094E+05 -3.944615E+04
       208   2 -2.260238E+06 -8.047842E+05 -3.476393E+05 -8.583414E+05 -1.157693E+05  5.235482E+04
       208   3 -2.118974E+06 -7.395637E+05 -2.775359E+05 -8.251658E+05 -3.339541E+04  1.001604E+05
       208   4 -7.150264E+05 -2.700459E+05 -5.338094E+04 -4.192297E+05 -4.418520E+04  1.227530E+04
       208   5 -7.176296E+05 -2.256312E+05 -2.492357E+04 -4.174774E+05 -5.327577E+04  7.585331E+04
       208   6 -7.090548E+05 -2.289614E+05 -1.307925E+04 -4.346237E+05 -4.578070E+04  9.547732E+04
       208   7  9.779620E+05  3.928265E+05  3.869348E+05  7.317358E+04  9.354591E+04  6.416537E+04
       208   8  8.274227E+05  3.537505E+05  2.976771E+05  2.441027E+04  9.385037E+03  9.941801E+04
       208   9  7.029675E+05  2.818281E+05  2.513048E+05 -4.325073E+04 -5.819637E+04  9.078298E+04
       208  10 -2.405265E+06 -9.326806E+05 -4.939360E+05 -9.104028E+05 -1.662993E-09 -5.848380E-10
       208  11 -2.260253E+06 -8.047907E+05 -3.476697E+05 -8.583365E+05 -3.557830E-10  2.091330E-11
       208  12 -2.118978E+06 -7.395748E+05 -2.775569E+05 -8.251631E+05  4.758553E-10  1.591536E-10
       208  13 -7.150285E+05 -2.700466E+05 -5.338489E+04 -4.192293E+05  3.726931E-10  1.003616E-09
       208  14 -7.176341E+05 -2.256381E+05 -2.493971E+04 -4.174742E+05  8.069495E-10  1.361173E-09
       208  15 -7.090595E+05 -2.289718E+05 -1.310031E+04 -4.346202E+05  9.317235E-11 -1.454086E-10
       208  16  9.779515E+05  3.928198E+05  3.869107E+05  7.316875E+04  1.852495E-09  9.900562E-10
       208  17  8.274199E+05  3.537398E+05  2.976584E+05  2.440952E+04  1.984639E-10  9.109626E-10
       208  18  7.029616E+05  2.818183E+05  2.512830E+05 -4.324647E+04 -9.378303E-10  5.595610E-10
       208  19 -2.405229E+06 -9.326700E+05 -4.938709E+05 -9.103970E+05  1.815094E+05  3.944615E+04
       208  20 -2.260238E+06 -8.047842E+05 -3.476393E+05 -8.583414E+05  1.157693E+05 -5.235482E+04
       208  21 -2.118974E+06 -7.395637E+05 -2.775359E+05 -8.251658E+05  3.339541E+04 -1.001604E+05
       208  22 -7.150264E+05 -2.700459E+05 -5.338094E+04 -4.192297E+05  4.418520E+04 -1.227530E+04
       208  23 -7.176296E+05 -2.256312E+05 -2.492357E+04 -4.174774E+05  5.327577E+04 -7.585331E+04
       208  24 -7.090548E+05 -2.289614E+05 -1.307925E+04 -4.346237E+05  4.578070E+04 -9.547732E+04
       208  25  9.779620E+05  3.928265E+05  3.869348E+05  7.317358E+04 -9.354591E+04 -6.416537E+04
       208  26  8.274227E+05  3.537505E+05  2.976771E+05  2.441027E+04 -9.385037E+03 -9.941801E+04
       208  27  7.029675E+05  2.818281E+05  2.513048E+05 -4.325073E+04  5.819637E+04 -9.078298E+04
       209   1 -2.015066E+06 -7.058539E+05 -2.530708E+05 -7.999196E+05 -3.553243E+04  9.365640E+04
       209   2 -1.876601E+06 -6.355210E+05 -2.143067E+05 -7.443703E+05 -2.413422E+04  9.113248E+04
       209   3 -1.715697E+06 -5.922167E+05 -1.829979E+05 -7.163762E+05 -1.130117E+04  8.477283E+04
       209   4 -7.070103E+05 -2.297009E+05 -9.858630E+03 -4.344013E+05 -4.242824E+04  9.104172E+04
       209   5 -7.186433E+05 -2.157031E+05 -5.210007E+03 -4.210195E+05 -3.755379E+04  8.607270E+04
       209   6 -7.065658E+05 -2.274341E+05 -2.831836E+03 -4.351977E+05 -3.124838E+04  7.727112E+04
       209   7  6.028417E+05  2.466133E+05  2.332878E+05 -6.816376E+04 -4.933965E+04  8.842120E+04
       209   8  4.407229E+05  2.042410E+05  2.038392E+05 -9.710624E+04 -5.100008E+04  8.100289E+04
       209   9  3.036318E+05  1.374421E+05  1.772992E+05 -1.535946E+05 -5.123004E+04  6.975651E+04
       209  10 -2.015070E+06 -7.058636E+05 -2.530896E+05 -7.999170E+05 -2.155042E-09 -2.513011E-10
       209  11 -1.876603E+06 -6.355301E+05 -2.143234E+05 -7.443685E+05 -5.385758E-10  1.454276E-10
       209  12 -1.715699E+06 -5.922244E+05 -1.830117E+05 -7.163754E+05  1.653626E-10 -1.079881E-09
       209  13 -7.070145E+05 -2.297103E+05 -9.877580E+03 -4.343982E+05  5.890022E-10 -6.469403E-10
       209  14 -7.186468E+05 -2.157114E+05 -5.226572E+03 -4.210169E+05 -1.737661E-09  3.050913E-11
       209  15 -7.065684E+05 -2.274408E+05 -2.844886E+03 -4.351958E+05 -1.232048E-09 -2.222957E-10
       209  16  6.028370E+05  2.466043E+05  2.332685E+05 -6.816025E+04  1.862117E-09  1.152658E-09
       209  17  4.407184E+05  2.042333E+05  2.038220E+05 -9.710292E+04  2.100262E-09 -1.522184E-10
       209  18  3.036276E+05  1.374362E+05  1.772851E+05 -1.535917E+05 -5.468877E-10  7.453066E-10
       209  19 -2.015066E+06 -7.058539E+05 -2.530708E+05 -7.999196E+05  3.553243E+04 -9.365640E+04
       209  20 -1.876601E+06 -6.355210E+05 -2.143067E+05 -7.443703E+05  2.413422E+04 -9.113248E+04
       209  21 -1.715697E+06 -5.922167E+05 -1.829979E+05 -7.163762E+05  1.130117E+04 -8.477283E+04
       209  22 -7.070103E+05 -2.297009E+05 -9.858630E+03 -4.344013E+05  4.242824E+04 -9.104172E+04
       209  23 -7.186433E+05 -2.157031E+05 -5.210007E+03 -4.210195E+05  3.755379E+04 -8.607270E+04
       209  24 -7.065658E+05 -2.274341E+05 -2.831836E+03 -4.351977E+05  3.124838E+04 -7.727112E+04
       209  25  6.028417E+05  2.466133E+05  2.332878E+05 -6.816376E+04  4.933965E+04 -8.842120E+04
       209  26  4.407229E+05  2.042410E+05  2.038392E+05 -9.710624E+04  5.100008E+04 -8.100289E+04
       209  27  3.036318E+05  1.374421E+05  1.772992E+05 -1.535946E+05  5.123004E+04 -6.975651E+04
       210   1 -1.617530E+06 -5.567777E+05 -1.639455E+05 -6.892755E+05 -8.781607E+03  7.786324E+04
       210   2 -1.479368E+06 -4.898384E+05 -1.360889E+05 -6.332382E+05 -3.240700E+03  6.669709E+04
       210   3 -1.316698E+06 -4.476868E+05 -1.091308E+05 -6.053543E+05  2.421208E+03  5.518758E+04
       210   4 -7.063739E+05 -2.274644E+05 -2.137825E+03 -4.352174E+05 -2.827003E+04  7.053884E+04
       210   5 -7.186108E+05 -2.149982E+05 -1.194600E+03 -4.211670E+05 -2.331374E+04  5.916016E+04
       210   6 -7.062542E+05 -2.272058E+05 -6.893562E+02 -4.352779E+05 -1.823686E+04  4.743829E+04
       210   7  2.056704E+05  1.019326E+05  1.596470E+05 -1.808077E+05 -4.778920E+04  6.320291E+04
       210   8  4.276353E+04  5.989949E+04  1.336838E+05 -2.088514E+05 -4.341315E+04  5.161335E+04
       210   9 -9.541487E+04 -6.688680E+03  1.077418E+05 -2.650448E+05 -3.891662E+04  3.968087E+04
       210  10 -1.617532E+06 -5.567842E+05 -1.639570E+05 -6.892749E+05 -2.548292E-08 -1.114345E-08
       210  11 -1.479369E+06 -4.898432E+05 -1.360973E+05 -6.332381E+05 -8.744485E-09 -3.204770E-09
       210  12 -1.316699E+06 -4.476901E+05 -1.091365E+05 -6.053544E+05  2.079685E-08  9.357460E-09
       210  13 -7.063761E+05 -2.274699E+05 -2.148672E+03 -4.352158E+05 -3.648424E-09 -1.941428E-09
       210  14 -7.186123E+05 -2.150021E+05 -1.202195E+03 -4.211659E+05 -6.949060E-09 -3.221902E-09
       210  15 -7.062552E+05 -2.272083E+05 -6.942080E+02 -4.352772E+05  2.274718E-09  5.367338E-10
       210  16  2.056669E+05  1.019277E+05  1.596352E+05 -1.808052E+05  1.891683E-08  7.263889E-09
       210  17  4.276079E+04  5.989613E+04  1.336752E+05 -2.088496E+05 -3.193453E-09 -3.550063E-09
       210  18 -9.541692E+04 -6.690776E+03  1.077360E+05 -2.650436E+05 -1.602139E-08 -7.961780E-09
       210  19 -1.617530E+06 -5.567777E+05 -1.639455E+05 -6.892755E+05  8.781607E+03 -7.786324E+04
       210  20 -1.479368E+06 -4.898384E+05 -1.360889E+05 -6.332382E+05  3.240700E+03 -6.669709E+04
       210  21 -1.316698E+06 -4.476868E+05 -1.091308E+05 -6.053543E+05 -2.421208E+03 -5.518758E+04
       210  22 -7.063739E+05 -2.274644E+05 -2.137825E+03 -4.352174E+05  2.827003E+04 -7.053884E+04
       210  23 -7.186108E+05 -2.149982E+05 -1.194600E+03 -4.211670E+05  2.331374E+04 -5.916016E+04
       210  24 -7.062542E+05 -2.272058E+05 -6.893562E+02 -4.352779E+05  1.823686E+04 -4.743829E+04
       210  25  2.056704E+05  1.019326E+05  1.596470E+05 -1.808077E+05  4.778920E+04 -6.320291E+04
       210  26  4.276353E+04  5.989949E+04  1.336838E+05 -2.088514E+05  4.341315E+04 -5.161335E+04
       210  27 -9.541487E+04 -6.688680E+03  1.077418E+05 -2.650448E+05  3.891662E+04 -3.968087E+04
       211   1 -1.218705E+06 -4.121543E+05 -9.085856E+04 -5.781272E+05  5.143172E+03  4.815324E+04
       211   2 -1.080275E+06 -3.454062E+05 -6.438933E+04 -5.219846E+05  9.947724E+03  3.613436E+04
       211   3 -9.171786E+05 -3.033238E+05 -3.810944E+04 -4.940864E+05  1.476044E+04  2.408289E+04
       211   4 -7.062157E+05 -2.271888E+05 -5.541908E+02 -4.352930E+05 -1.548652E+04  4.041771E+04
       211   5 -7.185174E+05 -2.148117E+05 -4.097811E+02 -4.211769E+05 -1.073895E+04  2.838088E+04
       211   6 -7.061657E+05 -2.270911E+05 -4.114842E+02 -4.353138E+05 -5.983268E+03  1.631139E+04
       211   7 -1.934529E+05 -4.219956E+04  8.974230E+04 -2.923497E+05 -3.613417E+04  3.267545E+04
       211   8 -3.566203E+05 -8.420430E+04  6.356740E+04 -3.203140E+05 -3.143848E+04  2.062258E+04
       211   9 -4.951026E+05 -1.508530E+05  3.728741E+04 -3.765216E+05 -2.673470E+04  8.537001E+03
       211  10 -1.218705E+06 -4.121568E+05 -9.086297E+04 -5.781274E+05  9.256715E-09  4.696894E-09
       211  11 -1.080276E+06 -3.454076E+05 -6.439197E+04 -5.219849E+05  3.022174E-10  7.685167E-10
       211  12 -9.171790E+05 -3.033245E+05 -3.811094E+04 -4.940867E+05 -1.479207E-09 -2.177672E-10
       211  13 -7.062164E+05 -2.271906E+05 -5.577098E+02 -4.352925E+05  5.105738E-09  1.944170E-09
       211  14 -7.185177E+05 -2.148126E+05 -4.115107E+02 -4.211767E+05  7.245895E-11  4.795407E-10
       211  15 -7.061658E+05 -2.270914E+05 -4.120512E+02 -4.353137E+05 -2.513175E-09  3.901985E-10
       211  16 -1.934546E+05 -4.220106E+04  8.973784E+04 -2.923488E+05  3.540363E-10 -4.926220E-10
       211  17 -3.566215E+05 -8.420502E+04  6.356475E+04 -3.203135E+05 -1.728490E-09 -1.731239E-11
       211  18 -4.951034E+05 -1.508533E+05  3.728593E+04 -3.765214E+05 -1.647352E-09  7.520613E-10
       211  19 -1.218705E+06 -4.121543E+05 -9.085856E+04 -5.781272E+05 -5.143172E+03 -4.815324E+04
       211  20 -1.080275E+06 -3.454062E+05 -6.438933E+04 -5.219846E+05 -9.947724E+03 -3.613436E+04
       211  21 -9.171786E+05 -3.033238E+05 -3.810944E+04 -4.940864E+05 -1.476044E+04 -2.408289E+04
       211  22 -7.062157E+05 -2.271888E+05 -5.541908E+02 -4.352930E+05  1.548652E+04 -4.041771E+04
       211  23 -7.185174E+05 -2.148117E+05 -4.097811E+02 -4.211769E+05  1.073895E+04 -2.838088E+04
       211  24 -7.061657E+05 -2.270911E+05 -4.114842E+02 -4.353138E+05  5.983268E+03 -1.631139E+04
       211  25 -1.934529E+05 -4.219956E+04  8.974230E+04 -2.923497E+05  3.613417E+04 -3.267545E+04
       211  26 -3.566203E+05 -8.420430E+04  6.356740E+04 -3.203140E+05  3.143848E+04 -2.062258E+04
       211  27 -4.951026E+05 -1.508530E+05  3.728741E+04 -3.765216E+05  2.673470E+04 -8.537001E+03
       212   1 -8.190684E+05 -2.677876E+05 -2.003205E+04 -4.668325E+05  1.749084E+04  1.703038E+04
       212   2 -6.804911E+05 -2.010847E+05  6.006993E+03 -4.106619E+05  2.237054E+04  5.000617E+03
       212   3 -5.172634E+05 -1.590490E+05  3.180520E+04 -3.827638E+05  2.724248E+04 -7.007772E+03
       212   4 -7.061639E+05 -2.270835E+05 -4.689063E+02 -4.353214E+05 -3.257226E+03  9.258124E+03
       212   5 -7.184753E+05 -2.147388E+05 -7.221920E+02 -4.211840E+05  1.656298E+03 -2.759304E+03
       212   6 -7.061672E+05 -2.270706E+05 -1.244380E+03 -4.353285E+05  6.561966E+03 -1.475535E+04
       212   7 -5.932449E+05 -1.863778E+05  1.909569E+04 -4.038047E+05 -2.400930E+04  1.484366E+03
       212   8 -7.564569E+05 -2.283924E+05 -7.449526E+03 -4.317052E+05 -1.905648E+04 -1.051868E+04
       212   9 -8.950303E+05 -2.950878E+05 -3.429269E+04 -4.878775E+05 -1.411164E+04 -2.250035E+04
       212  10 -8.190688E+05 -2.677880E+05 -2.003317E+04 -4.668327E+05  1.102713E-09  9.294676E-10
       212  11 -6.804917E+05 -2.010848E+05  6.006005E+03 -4.106620E+05  5.265645E-10  1.718679E-10
       212  12 -5.172642E+05 -1.590492E+05  3.180372E+04 -3.827637E+05 -2.005266E-10 -5.620398E-10
       212  13 -7.061639E+05 -2.270836E+05 -4.690872E+02 -4.353214E+05 -1.117292E-09  1.630591E-10
       212  14 -7.184754E+05 -2.147388E+05 -7.222115E+02 -4.211840E+05 -5.849969E-10 -6.221366E-10
       212  15 -7.061673E+05 -2.270709E+05 -1.244870E+03 -4.353284E+05 -1.272182E-09 -2.178677E-10
       212  16 -5.932456E+05 -1.863780E+05  1.909461E+04 -4.038047E+05 -2.265224E-09 -2.470983E-10
       212  17 -7.564573E+05 -2.283926E+05 -7.450418E+03 -4.317053E+05 -4.877285E-12 -9.212200E-10
       212  18 -8.950307E+05 -2.950884E+05 -3.429401E+04 -4.878778E+05  1.712604E-10 -2.838364E-10
       212  19 -8.190684E+05 -2.677876E+05 -2.003205E+04 -4.668325E+05 -1.749084E+04 -1.703038E+04
       212  20 -6.804911E+05 -2.010847E+05  6.006993E+03 -4.106619E+05 -2.237054E+04 -5.000617E+03
       212  21 -5.172634E+05 -1.590490E+05  3.180520E+04 -3.827638E+05 -2.724248E+04  7.007772E+03
       212  22 -7.061639E+05 -2.270835E+05 -4.689063E+02 -4.353214E+05  3.257226E+03 -9.258124E+03
       212  23 -7.184753E+05 -2.147388E+05 -7.221920E+02 -4.211840E+05 -1.656298E+03  2.759304E+03
       212  24 -7.061672E+05 -2.270706E+05 -1.244380E+03 -4.353285E+05 -6.561966E+03  1.475535E+04
       212  25 -5.932449E+05 -1.863778E+05  1.909569E+04 -4.038047E+05  2.400930E+04 -1.484366E+03
       212  26 -7.564569E+05 -2.283924E+05 -7.449526E+03 -4.317052E+05  1.905648E+04  1.051868E+04
       212  27 -8.950303E+05 -2.950878E+05 -3.429269E+04 -4.878775E+05  1.411164E+04  2.250035E+04
       213   1 -4.191362E+05 -1.235333E+05  4.955528E+04 -3.555200E+05  3.016095E+04 -1.397516E+04
       213   2 -2.805847E+05 -5.687871E+04  7.467517E+04 -2.993374E+05  3.567056E+04 -2.559090E+04
       213   3 -1.175087E+05 -1.496056E+04  9.902630E+04 -2.713840E+05  4.108105E+04 -3.692933E+04
       213   4 -7.062180E+05 -2.270688E+05 -1.643015E+03 -4.353370E+05  9.449806E+03 -2.173553E+04
       213   5 -7.184613E+05 -2.147745E+05 -2.967153E+03 -4.211805E+05  1.542760E+04 -3.317994E+04
       213   6 -7.062998E+05 -2.273150E+05 -5.433484E+03 -4.352655E+05  2.130596E+04 -4.434699E+04
       213   7 -9.932148E+05 -3.305972E+05 -5.284302E+04 -5.151201E+05 -1.125133E+04 -2.949216E+04
       213   8 -1.156137E+06 -3.726527E+05 -8.061459E+04 -5.429439E+05 -4.800254E+03 -4.076333E+04
       213   9 -1.294724E+06 -4.396363E+05 -1.099029E+05 -5.990018E+05  1.550843E+03 -5.175717E+04
       213  10 -4.191373E+05 -1.235337E+05  4.955320E+04 -3.555196E+05  2.258591E-09 -1.970923E-10
       213  11 -2.805863E+05 -5.687975E+04  7.467155E+04 -2.993366E+05  9.762444E-10 -6.514022E-10
       213  12 -1.175108E+05 -1.496247E+04  9.902056E+04 -2.713828E+05  2.804887E-10 -7.499382E-10
       213  13 -7.062182E+05 -2.270693E+05 -1.644071E+03 -4.353368E+05 -9.856122E-10 -2.356106E-10
       213  14 -7.184619E+05 -2.147758E+05 -2.969667E+03 -4.211801E+05 -1.460510E-09 -7.112945E-10
       213  15 -7.063008E+05 -2.273173E+05 -5.438030E+03 -4.352647E+05 -1.672722E-10 -4.656590E-10
       213  16 -9.932151E+05 -3.305982E+05 -5.284490E+04 -5.151204E+05 -2.169440E-09 -2.890370E-10
       213  17 -1.156137E+06 -3.726545E+05 -8.061775E+04 -5.429440E+05 -3.663736E-09 -1.348476E-09
       213  18 -1.294725E+06 -4.396392E+05 -1.099080E+05 -5.990017E+05 -9.348312E-10 -5.823520E-10
       213  19 -4.191362E+05 -1.235333E+05  4.955528E+04 -3.555200E+05 -3.016095E+04  1.397516E+04
       213  20 -2.805847E+05 -5.687871E+04  7.467517E+04 -2.993374E+05 -3.567056E+04  2.559090E+04
       213  21 -1.175087E+05 -1.496056E+04  9.902630E+04 -2.713840E+05 -4.108105E+04  3.692933E+04
       213  22 -7.062180E+05 -2.270688E+05 -1.643015E+03 -4.353370E+05 -9.449806E+03  2.173553E+04
       213  23 -7.184613E+05 -2.147745E+05 -2.967153E+03 -4.211805E+05 -1.542760E+04  3.317994E+04
       213  24 -7.062998E+05 -2.273150E+05 -5.433484E+03 -4.352655E+05 -2.130596E+04  4.434699E+04
       213  25 -9.932148E+05 -3.305972E+05 -5.284302E+04 -5.151201E+05  1.125133E+04  2.949216E+04
       213  26 -1.156137E+06 -3.726527E+05 -8.061459E+04 -5.429439E+05  4.800254E+03  4.076333E+04
       213  27 -1.294724E+06 -4.396363E+05 -1.099029E+05 -5.990018E+05 -1.550843E+03  5.175717E+04
       214   1 -1.932284E+04  2.035665E+04  1.155530E+05 -2.445866E+05  4.506344E+04 -4.333461E+04
       214   2  1.181062E+05  8.743570E+04  1.379800E+05 -1.868650E+05  5.026691E+04 -5.306007E+04
       214   3  2.789628E+05  1.275153E+05  1.587206E+05 -1.564661E+05  5.430315E+04 -5.965686E+04
       214   4 -7.066737E+05 -2.272424E+05 -7.239545E+03 -4.353726E+05  2.490612E+04 -5.089893E+04
       214   5 -7.182622E+05 -2.158500E+05 -1.328621E+04 -4.207350E+05  3.544170E+04 -5.863146E+04
       214   6 -7.075043E+05 -2.325206E+05 -2.524942E+04 -4.334315E+05  4.480883E+04 -6.323310E+04
       214   7 -1.393519E+06 -4.747943E+05 -1.300443E+05 -6.259597E+05  4.772796E+03 -5.845432E+04
       214   8 -1.553894E+06 -5.190684E+05 -1.645759E+05 -6.543108E+05  2.063780E+04 -6.419482E+04
       214   9 -1.692962E+06 -5.924671E+05 -2.092596E+05 -7.099891E+05  3.533053E+04 -6.680325E+04
       214  10 -1.932553E+04  2.035409E+04  1.155457E+05 -2.445850E+05 -4.327897E-10 -6.725175E-10
       214  11  1.181028E+05  8.743200E+04  1.379699E+05 -1.868629E+05  1.927057E-09 -9.652394E-11
       214  12  2.789587E+05  1.275107E+05  1.587083E+05 -1.564635E+05 -2.346267E-09  5.307997E-10
       214  13 -7.066751E+05 -2.272453E+05 -7.245576E+03 -4.353715E+05  4.140142E-10  4.035713E-11
       214  14 -7.182644E+05 -2.158540E+05 -1.329503E+04 -4.207333E+05 -1.421332E-09  6.290056E-10
       214  15 -7.075075E+05 -2.325255E+05 -2.526070E+04 -4.334292E+05 -5.166889E-09 -1.276986E-09
       214  16 -1.393520E+06 -4.747979E+05 -1.300508E+05 -6.259595E+05  8.282513E-10  5.217196E-10
       214  17 -1.553896E+06 -5.190729E+05 -1.645845E+05 -6.543098E+05 -2.296019E-09  4.272126E-10
       214  18 -1.692965E+06 -5.924722E+05 -2.092703E+05 -7.099872E+05 -9.032460E-09 -2.604309E-09
       214  19 -1.932284E+04  2.035665E+04  1.155530E+05 -2.445866E+05 -4.506344E+04  4.333461E+04
       214  20  1.181062E+05  8.743570E+04  1.379800E+05 -1.868650E+05 -5.026691E+04  5.306007E+04
       214  21  2.789628E+05  1.275153E+05  1.587206E+05 -1.564661E+05 -5.430315E+04  5.965686E+04
       214  22 -7.066737E+05 -2.272424E+05 -7.239545E+03 -4.353726E+05 -2.490612E+04  5.089893E+04
       214  23 -7.182622E+05 -2.158500E+05 -1.328621E+04 -4.207350E+05 -3.544170E+04  5.863146E+04
       214  24 -7.075043E+05 -2.325206E+05 -2.524942E+04 -4.334315E+05 -4.480883E+04  6.323310E+04
       214  25 -1.393519E+06 -4.747943E+05 -1.300443E+05 -6.259597E+05 -4.772796E+03  5.845432E+04
       214  26 -1.553894E+06 -5.190684E+05 -1.645759E+05 -6.543108E+05 -2.063780E+04  6.419482E+04
       214  27 -1.692962E+06 -5.924671E+05 -2.092596E+05 -7.099891E+05 -3.533053E+04  6.680325E+04
       215   1  3.803903E+05  1.592541E+05  1.711479E+05 -1.372709E+05  6.461947E+04 -6.192632E+04
       215   2  4.936964E+05  2.359452E+05  1.933194E+05 -4.205633E+04  3.286978E+04 -6.268401E+04
       215   3  6.128963E+05  2.359957E+05  2.213538E+05  4.358823E+04 -1.240098E+04 -2.754419E+04
       215   4 -7.118371E+05 -2.313377E+05 -3.352196E+04 -4.350281E+05  5.061784E+04 -6.719785E+04
       215   5 -7.162059E+05 -2.396299E+05 -6.377140E+04 -4.104685E+05  8.020129E+04 -4.491395E+04
       215   6 -7.268986E+05 -3.368016E+05 -1.367979E+05 -3.954829E+05  9.625343E+04  1.330919E+04
       215   7 -1.802819E+06 -6.218295E+05 -2.382383E+05 -7.323021E+05  3.664253E+04 -7.245985E+04
       215   8 -1.924590E+06 -7.150166E+05 -3.209319E+05 -7.781927E+05  1.274333E+05 -2.718748E+04
       215   9 -2.064886E+06 -9.093117E+05 -4.950517E+05 -8.336304E+05  2.046502E+05  5.403466E+04
       215  10  3.803848E+05  1.592488E+05  1.711328E+05 -1.372677E+05 -1.019269E-08 -9.372346E-10
       215  11  4.936942E+05  2.359407E+05  1.933100E+05 -4.205467E+04 -2.838936E-09  3.693546E-09
       215  12  6.128959E+05  2.359949E+05  2.213521E+05  4.358796E+04  2.801709E-09  2.612513E-09
       215  13 -7.118410E+05 -2.313433E+05 -3.353526E+04 -4.350253E+05 -4.352635E-09 -1.424232E-09
       215  14 -7.162133E+05 -2.396338E+05 -6.378728E+04 -4.104656E+05 -6.935729E-10  5.150398E-10
       215  15 -7.269086E+05 -3.368043E+05 -1.368157E+05 -3.954839E+05  1.301575E-09  9.097572E-10
       215  16 -1.802822E+06 -6.218355E+05 -2.382507E+05 -7.323000E+05 -1.117178E-10 -6.993516E-10
       215  17 -1.924608E+06 -7.150218E+05 -3.209638E+05 -7.781899E+05  9.105175E-10 -7.311240E-10
       215  18 -2.064932E+06 -9.093262E+05 -4.951362E+05 -8.336393E+05 -1.604025E-09 -1.333499E-10
       215  19  3.803903E+05  1.592541E+05  1.711479E+05 -1.372709E+05 -6.461947E+04  6.192632E+04
       215  20  4.936964E+05  2.359452E+05  1.933194E+05 -4.205633E+04 -3.286978E+04  6.268401E+04
       215  21  6.128963E+05  2.359957E+05  2.213538E+05  4.358823E+04  1.240098E+04  2.754419E+04
       215  22 -7.118371E+05 -2.313377E+05 -3.352196E+04 -4.350281E+05 -5.061784E+04  6.719785E+04
       215  23 -7.162059E+05 -2.396299E+05 -6.377140E+04 -4.104685E+05 -8.020129E+04  4.491395E+04
       215  24 -7.268986E+05 -3.368016E+05 -1.367979E+05 -3.954829E+05 -9.625343E+04 -1.330919E+04
       215  25 -1.802819E+06 -6.218295E+05 -2.382383E+05 -7.323021E+05 -3.664253E+04  7.245985E+04
       215  26 -1.924590E+06 -7.150166E+05 -3.209319E+05 -7.781927E+05 -1.274333E+05  2.718748E+04
       215  27 -2.064886E+06 -9.093117E+05 -4.950517E+05 -8.336304E+05 -2.046502E+05 -5.403466E+04
       216   1 -5.450076E+05 -1.800419E+05 -1.479051E+05 -6.607862E+04  1.455091E+04  1.786296E+04
       216   2 -4.010864E+05 -2.462169E+05 -1.461060E+05 -1.031596E+05  2.941783E+04  5.886126E+04
       216   3 -2.403945E+05 -2.384936E+05 -1.354961E+05 -1.699909E+05  4.432349E+04  6.834145E+04
       216   4  8.075965E+05  1.536026E+05  1.689711E+05 -1.637352E+05  1.181507E+05  1.793889E+04
       216   5  7.943461E+05  3.853410E+04  8.280236E+04 -1.488245E+05  7.551718E+04  5.887696E+04
       216   6  8.077714E+05  7.252861E+03  4.532785E+04 -1.636533E+05  3.292129E+04  6.832724E+04
       216   7  2.161930E+06  4.871591E+05  4.857680E+05 -2.616061E+05  2.219746E+05  1.798216E+04
       216   8  1.991164E+06  3.232099E+05  3.116547E+05 -1.945795E+05  1.217031E+05  5.888588E+04
       216   9  1.857016E+06  2.529406E+05  2.261147E+05 -1.573046E+05  2.150039E+04  6.831280E+04
       216  10 -5.450080E+05 -1.800423E+05 -1.479061E+05 -6.607883E+04  2.489705E-09 -1.015578E-09
       216  11 -4.010883E+05 -2.462209E+05 -1.461142E+05 -1.031610E+05  1.370599E-09  4.447603E-11
       216  12 -2.403979E+05 -2.384991E+05 -1.355086E+05 -1.699933E+05 -2.850948E-09 -6.087420E-10
       216  13  8.075814E+05  1.535985E+05  1.689443E+05 -1.637369E+05  2.930546E-10  5.450142E-10
       216  14  7.943391E+05  3.852884E+04  8.278514E+04 -1.488281E+05  4.830433E-11 -3.743402E-10
       216  15  8.077689E+05  7.247555E+03  4.531704E+04 -1.636551E+05  3.888343E-10 -9.618667E-10
       216  16  2.161877E+06  4.871456E+05  4.856751E+05 -2.616093E+05 -2.034119E-09  4.278621E-10
       216  17  1.991147E+06  3.232022E+05  3.116204E+05 -1.945852E+05  1.471363E-09 -3.275697E-10
       216  18  1.857014E+06  2.529354E+05  2.261051E+05 -1.573058E+05  3.143519E-09  4.142951E-10
       216  19 -5.450076E+05 -1.800419E+05 -1.479051E+05 -6.607862E+04 -1.455091E+04 -1.786296E+04
       216  20 -4.010864E+05 -2.462169E+05 -1.461060E+05 -1.031596E+05 -2.941783E+04 -5.886126E+04
       216  21 -2.403945E+05 -2.384936E+05 -1.354961E+05 -1.699909E+05 -4.432349E+04 -6.834145E+04
       216  22  8.075965E+05  1.536026E+05  1.689711E+05 -1.637352E+05 -1.181507E+05 -1.793889E+04
       216  23  7.943461E+05  3.853410E+04  8.280236E+04 -1.488245E+05 -7.551718E+04 -5.887696E+04
       216  24  8.077714E+05  7.252861E+03  4.532785E+04 -1.636533E+05 -3.292129E+04 -6.832724E+04
       216  25  2.161930E+06  4.871591E+05  4.857680E+05 -2.616061E+05 -2.219746E+05 -1.798216E+04
       216  26  1.991164E+06  3.232099E+05  3.116547E+05 -1.945795E+05 -1.217031E+05 -5.888588E+04
       216  27  1.857016E+06  2.529406E+05  2.261147E+05 -1.573046E+05 -2.150039E+04 -6.831280E+04
       217   1 -1.466711E+05 -2.143027E+05 -1.270439E+05 -1.608239E+05  3.608215E+04  6.386331E+04
       217   2  4.233237E+03 -1.842284E+05 -1.122696E+05 -1.471828E+05  3.240489E+04  5.732325E+04
       217   3  1.567487E+05 -1.501107E+05 -9.406303E+04 -1.652619E+05  2.872340E+04  4.765734E+04
       217   4  8.024486E+05  7.728862E+03  3.432319E+04 -1.641078E+05  2.703642E+04  6.385175E+04
       217   5  8.012043E+05  1.315092E+03  1.881785E+04 -1.482489E+05  1.764473E+04  5.731406E+04
       217   6  8.025354E+05 -6.696941E+01  1.070361E+04 -1.641071E+05  8.249739E+03  4.765256E+04
       217   7  1.752454E+06  2.297128E+05  1.956612E+05 -1.673968E+05  1.797728E+04  6.384030E+04
       217   8  1.598804E+06  1.868261E+05  1.498876E+05 -1.493164E+05  2.866273E+03  5.730493E+04
       217   9  1.448736E+06  1.499558E+05  1.154603E+05 -1.629511E+05 -1.224447E+04  4.764770E+04
       217  10 -1.466736E+05 -2.143074E+05 -1.270541E+05 -1.608258E+05 -8.121693E-09 -4.636958E-10
       217  11  4.231226E+03 -1.842322E+05 -1.122778E+05 -1.471843E+05  2.195854E-08  1.125017E-10
       217  12  1.567472E+05 -1.501134E+05 -9.406885E+04 -1.652630E+05  4.538599E-08  1.182987E-09
       217  13  8.024467E+05  7.724286E+03  3.431415E+04 -1.641092E+05 -8.411828E-10  3.473642E-10
       217  14  8.012031E+05  1.311479E+03  1.881109E+04 -1.482497E+05  8.662390E-10  3.901201E-10
       217  15  8.025347E+05 -6.942711E+01  1.069921E+04 -1.641075E+05  2.732344E-10  1.311834E-09
       217  16  1.752453E+06  2.297083E+05  1.956529E+05 -1.673977E+05  8.411257E-09  6.900231E-11
       217  17  1.598803E+06  1.868225E+05  1.498814E+05 -1.493165E+05 -1.774916E-08  3.926617E-10
       217  18  1.448735E+06  1.499534E+05  1.154557E+05 -1.629506E+05 -4.584980E-08  1.755003E-09
       217  19 -1.466711E+05 -2.143027E+05 -1.270439E+05 -1.608239E+05 -3.608215E+04 -6.386331E+04
       217  20  4.233237E+03 -1.842284E+05 -1.122696E+05 -1.471828E+05 -3.240489E+04 -5.732325E+04
       217  21  1.567487E+05 -1.501107E+05 -9.406303E+04 -1.652619E+05 -2.872340E+04 -4.765734E+04
       217  22  8.024486E+05  7.728862E+03  3.432319E+04 -1.641078E+05 -2.703642E+04 -6.385175E+04
       217  23  8.012043E+05  1.315092E+03  1.881785E+04 -1.482489E+05 -1.764473E+04 -5.731406E+04
       217  24  8.025354E+05 -6.696941E+01  1.070361E+04 -1.641071E+05 -8.249739E+03 -4.765256E+04
       217  25  1.752454E+06  2.297128E+05  1.956612E+05 -1.673968E+05 -1.797728E+04 -6.384030E+04
       217  26  1.598804E+06  1.868261E+05  1.498876E+05 -1.493164E+05 -2.866273E+03 -5.730493E+04
       217  27  1.448736E+06  1.499558E+05  1.154603E+05 -1.629511E+05  1.224447E+04 -4.764770E+04
       218   1  2.536755E+05 -1.272142E+05 -8.016144E+04 -1.645665E+05  2.685085E+04  4.104287E+04
       218   2  4.050370E+05 -9.223213E+04 -5.914817E+04 -1.485301E+05  2.513494E+04  2.979701E+04
       218   3  5.567221E+05 -5.706411E+04 -3.696267E+04 -1.643767E+05  2.341569E+04  1.824354E+04
       218   4  8.020743E+05  5.762952E+01  8.116250E+03 -1.641442E+05  6.616067E+03  4.104047E+04
       218   5  8.018949E+05 -1.620491E+02  4.610878E+03 -1.482034E+05  4.334788E+03  2.979737E+04
       218   6  8.021157E+05 -9.670476E+01  2.668339E+03 -1.641444E+05  2.050574E+03  1.824678E+04
       218   7  1.350772E+06  1.273145E+05  9.638738E+04 -1.637214E+05 -1.363594E+04  4.103805E+04
       218   8  1.198910E+06  9.190035E+04  6.836734E+04 -1.478764E+05 -1.647818E+04  2.979771E+04
       218   9  1.047570E+06  5.686791E+04  4.229942E+04 -1.639120E+05 -1.932269E+04  1.824999E+04
       218  10  2.536743E+05 -1.272162E+05 -8.016596E+04 -1.645674E+05 -4.601282E-08  1.205401E-09
       218  11  4.050361E+05 -9.223326E+04 -5.915103E+04 -1.485307E+05 -1.965297E-08 -1.156332E-10
       218  12  5.567214E+05 -5.706462E+04 -3.696433E+04 -1.643771E+05  8.697368E-09 -7.987667E-11
       218  13  8.020738E+05  5.580834E+01  8.113001E+03 -1.641444E+05 -3.196253E-10  1.627813E-09
       218  14  8.018946E+05 -1.630079E+02  4.609173E+03 -1.482035E+05 -1.119892E-09  4.482903E-10
       218  15  8.021156E+05 -9.706356E+01  2.667705E+03 -1.641444E+05 -2.729844E-10  1.414209E-10
       218  16  1.350772E+06  1.273126E+05  9.638386E+04 -1.637210E+05  4.604266E-08  2.117956E-09
       218  17  1.198909E+06  9.189932E+04  6.836517E+04 -1.478760E+05  1.876301E-08  1.041236E-09
       218  18  1.047569E+06  5.686745E+04  4.229810E+04 -1.639117E+05 -9.230757E-09  1.165736E-10
       218  19  2.536755E+05 -1.272142E+05 -8.016144E+04 -1.645665E+05 -2.685085E+04 -4.104287E+04
       218  20  4.050370E+05 -9.223213E+04 -5.914817E+04 -1.485301E+05 -2.513494E+04 -2.979701E+04
       218  21  5.567221E+05 -5.706411E+04 -3.696267E+04 -1.643767E+05 -2.341569E+04 -1.824354E+04
       218  22  8.020743E+05  5.762952E+01  8.116250E+03 -1.641442E+05 -6.616067E+03 -4.104047E+04
       218  23  8.018949E+05 -1.620491E+02  4.610878E+03 -1.482034E+05 -4.334788E+03 -2.979737E+04
       218  24  8.021157E+05 -9.670476E+01  2.668339E+03 -1.641444E+05 -2.050574E+03 -1.824678E+04
       218  25  1.350772E+06  1.273145E+05  9.638738E+04 -1.637214E+05  1.363594E+04 -4.103805E+04
       218  26  1.198910E+06  9.190035E+04  6.836734E+04 -1.478764E+05  1.647818E+04 -2.979771E+04
       218  27  1.047570E+06  5.686791E+04  4.229942E+04 -1.639120E+05  1.932269E+04 -1.824999E+04
       219   1  6.538522E+05 -3.436982E+04 -2.141055E+04 -1.643130E+05  2.296592E+04  1.142307E+04
       219   2  8.052927E+05  7.058940E+02  1.697002E+03 -1.483140E+05  2.242210E+04 -2.807487E+02
       219   3  9.568407E+05  3.578208E+04  2.516126E+04 -1.642056E+05  2.187818E+04 -1.201162E+04
       219   4  8.020543E+05 -6.406604E+01  2.038024E+03 -1.641463E+05  1.624615E+03  1.142713E+04
       219   5  8.020089E+05 -4.867751E+01  1.204363E+03 -1.482011E+05  1.028612E+03 -2.767163E+02
       219   6  8.020542E+05 -2.372658E+01  7.615675E+02 -1.641464E+05  4.326339E+02 -1.200760E+04
       219   7  9.502792E+05  3.424084E+04  2.548776E+04 -1.639797E+05 -1.972160E+04  1.143117E+04
       219   8  7.987260E+05 -8.030041E+02  7.134416E+02 -1.480882E+05 -2.036477E+04 -2.726918E+02
       219   9  6.472926E+05 -3.583047E+04 -2.363699E+04 -1.640872E+05 -2.100777E+04 -1.200359E+04
       219  10  6.538516E+05 -3.437010E+04 -2.141179E+04 -1.643132E+05 -1.255552E-09  1.570362E-10
       219  11  8.052922E+05  7.057591E+02  1.696058E+03 -1.483140E+05  1.427818E-09 -2.384582E-10
       219  12  9.568401E+05  3.578179E+04  2.516009E+04 -1.642053E+05 -1.868924E-09 -7.141058E-10
       219  13  8.020542E+05 -6.420703E+01  2.037773E+03 -1.641463E+05 -1.085733E-09 -6.473445E-11
       219  14  8.020089E+05 -4.867788E+01  1.204361E+03 -1.482011E+05 -1.780091E-09 -1.307861E-10
       219  15  8.020542E+05 -2.388151E+01  7.612961E+02 -1.641464E+05 -1.885145E-09 -5.227112E-10
       219  16  9.502788E+05  3.424060E+04  2.548678E+04 -1.639795E+05  1.117501E-11 -1.639622E-10
       219  17  7.987256E+05 -8.031154E+02  7.126631E+02 -1.480882E+05 -1.174547E-09  3.677867E-11
       219  18  6.472920E+05 -3.583074E+04 -2.363809E+04 -1.640874E+05 -2.780148E-10 -8.504032E-11
       219  19  6.538522E+05 -3.436982E+04 -2.141055E+04 -1.643130E+05 -2.296592E+04 -1.142307E+04
       219  20  8.052927E+05  7.058940E+02  1.697002E+03 -1.483140E+05 -2.242210E+04  2.807487E+02
       219  21  9.568407E+05  3.578208E+04  2.516126E+04 -1.642056E+05 -2.187818E+04  1.201162E+04
       219  22  8.020543E+05 -6.406604E+01  2.038024E+03 -1.641463E+05 -1.624615E+03 -1.142713E+04
       219  23  8.020089E+05 -4.867751E+01  1.204363E+03 -1.482011E+05 -1.028612E+03  2.767163E+02
       219  24  8.020542E+05 -2.372658E+01  7.615675E+02 -1.641464E+05 -4.326339E+02  1.200760E+04
       219  25  9.502792E+05  3.424084E+04  2.548776E+04 -1.639797E+05  1.972160E+04 -1.143117E+04
       219  26  7.987260E+05 -8.030041E+02  7.134416E+02 -1.480882E+05  2.036477E+04  2.726918E+02
       219  27  6.472926E+05 -3.583047E+04 -2.363699E+04 -1.640872E+05  2.100777E+04  1.200359E+04
       220   1  1.054042E+06  5.842708E+04  4.118935E+04 -1.642028E+05  2.175499E+04 -1.884903E+04
       220   2  1.205596E+06  9.345179E+04  6.498976E+04 -1.481984E+05  2.144420E+04 -3.057603E+04
       220   3  1.357249E+06  1.284819E+05  8.900110E+04 -1.640973E+05  2.113649E+04 -4.226996E+04
       220   4  8.020408E+05 -3.009551E+01  6.342390E+02 -1.641495E+05  3.043975E+02 -1.884587E+04
       220   5  8.019881E+05 -7.183671E+01  5.104710E+02 -1.481972E+05  5.165145E+01 -3.057577E+04
       220   6  8.020000E+05 -1.175829E+02  5.562427E+02 -1.641495E+05 -1.979301E+02 -4.227257E+04
       220   7  5.501040E+05 -5.849022E+04 -3.992085E+04 -1.640963E+05 -2.113781E+04 -1.884272E+04
       220   8  3.985425E+05 -9.360337E+04 -6.397137E+04 -1.481960E+05 -2.132751E+04 -3.057551E+04
       220   9  2.470578E+05 -1.287322E+05 -8.789489E+04 -1.642017E+05 -2.151400E+04 -4.227519E+04
       220  10  1.054041E+06  5.842657E+04  4.118779E+04 -1.642025E+05 -1.537329E-09 -3.338387E-10
       220  11  1.205596E+06  9.345066E+04  6.498714E+04 -1.481979E+05  6.929077E-10  6.362669E-10
       220  12  1.357248E+06  1.284798E+05  8.899691E+04 -1.640966E+05  1.911865E-09  5.630784E-10
       220  13  8.020407E+05 -3.047706E+01  6.335711E+02 -1.641495E+05 -4.641090E-10 -3.445585E-10
       220  14  8.019879E+05 -7.284099E+01  5.087135E+02 -1.481972E+05 -2.695798E-09  3.097710E-10
       220  15  8.019995E+05 -1.195025E+02  5.528833E+02 -1.641496E+05 -1.297658E-09  1.948989E-10
       220  16  5.501034E+05 -5.849072E+04 -3.992236E+04 -1.640966E+05  2.162292E-09 -1.442286E-10
       220  17  3.985417E+05 -9.360450E+04 -6.397398E+04 -1.481966E+05 -5.372053E-10 -1.321668E-10
       220  18  2.470568E+05 -1.287342E+05 -8.789912E+04 -1.642024E+05 -1.819529E-09 -3.529060E-10
       220  19  1.054042E+06  5.842708E+04  4.118935E+04 -1.642028E+05 -2.175499E+04  1.884903E+04
       220  20  1.205596E+06  9.345179E+04  6.498976E+04 -1.481984E+05 -2.144420E+04  3.057603E+04
       220  21  1.357249E+06  1.284819E+05  8.900110E+04 -1.640973E+05 -2.113649E+04  4.226996E+04
       220  22  8.020408E+05 -3.009551E+01  6.342390E+02 -1.641495E+05 -3.043975E+02  1.884587E+04
       220  23  8.019881E+05 -7.183671E+01  5.104710E+02 -1.481972E+05 -5.165145E+01  3.057577E+04
       220  24  8.020000E+05 -1.175829E+02  5.562427E+02 -1.641495E+05  1.979301E+02  4.227257E+04
       220  25  5.501040E+05 -5.849022E+04 -3.992085E+04 -1.640963E+05  2.113781E+04  1.884272E+04
       220  26  3.985425E+05 -9.360337E+04 -6.397137E+04 -1.481960E+05  2.132751E+04  3.057551E+04
       220  27  2.470578E+05 -1.287322E+05 -8.789489E+04 -1.642017E+05  2.151400E+04  4.227519E+04
       221   1  1.454609E+06  1.511271E+05  1.052907E+05 -1.640571E+05  2.106902E+04 -4.908654E+04
       221   2  1.606301E+06  1.861910E+05  1.298331E+05 -1.479593E+05  1.988012E+04 -6.058481E+04
       221   3  1.758308E+06  2.214214E+05  1.552142E+05 -1.637830E+05  1.869695E+04 -7.168888E+04
       221   4  8.020009E+05 -1.527789E+02  6.422380E+02 -1.641539E+05 -3.051363E+02 -4.909171E+04
       221   5  8.018751E+05 -2.435886E+02  9.560755E+02 -1.481918E+05 -7.751778E+02 -6.059556E+04
       221   6  8.019191E+05 -2.909875E+02  1.610309E+03 -1.641538E+05 -1.239231E+03 -7.170494E+04
       221   7  1.498159E+05 -1.514538E+05 -1.040158E+05 -1.642504E+05 -2.165767E+04 -4.909686E+04
       221   8 -1.908144E+03 -1.867104E+05 -1.279365E+05 -1.484240E+05 -2.140473E+04 -6.060629E+04
       221   9 -1.535622E+05 -2.220491E+05 -1.520166E+05 -1.645240E+05 -2.114587E+04 -7.172099E+04
       221  10  1.454608E+06  1.511244E+05  1.052853E+05 -1.640563E+05  6.012298E-10  4.104756E-10
       221  11  1.606299E+06  1.861870E+05  1.298254E+05 -1.479583E+05 -1.256303E-09 -1.171889E-09
       221  12  1.758306E+06  2.214158E+05  1.552039E+05 -1.637820E+05  1.601208E-09 -1.843674E-09
       221  13  8.020002E+05 -1.553678E+02  6.377072E+02 -1.641539E+05 -2.196767E-09  6.259940E-11
       221  14  8.018741E+05 -2.475331E+02  9.491716E+02 -1.481918E+05  1.432399E-10 -4.830458E-10
       221  15  8.019178E+05 -2.965112E+02  1.600640E+03 -1.641539E+05  5.482145E-10 -1.492068E-09
       221  16  1.498148E+05 -1.514566E+05 -1.040212E+05 -1.642513E+05  4.506748E-10 -3.733964E-10
       221  17 -1.909623E+03 -1.867145E+05 -1.279442E+05 -1.484250E+05 -1.191441E-09 -1.563819E-10
       221  18 -1.535641E+05 -2.220548E+05 -1.520271E+05 -1.645252E+05 -2.754774E-09 -5.692145E-10
       221  19  1.454609E+06  1.511271E+05  1.052907E+05 -1.640571E+05 -2.106902E+04  4.908654E+04
       221  20  1.606301E+06  1.861910E+05  1.298331E+05 -1.479593E+05 -1.988012E+04  6.058481E+04
       221  21  1.758308E+06  2.214214E+05  1.552142E+05 -1.637830E+05 -1.869695E+04  7.168888E+04
       221  22  8.020009E+05 -1.527789E+02  6.422380E+02 -1.641539E+05  3.051363E+02  4.909171E+04
       221  23  8.018751E+05 -2.435886E+02  9.560755E+02 -1.481918E+05  7.751778E+02  6.059556E+04
       221  24  8.019191E+05 -2.909875E+02  1.610309E+03 -1.641538E+05  1.239231E+03  7.170494E+04
       221  25  1.498159E+05 -1.514538E+05 -1.040158E+05 -1.642504E+05  2.165767E+04  4.909686E+04
       221  26 -1.908144E+03 -1.867104E+05 -1.279365E+05 -1.484240E+05  2.140473E+04  6.060629E+04
       221  27 -1.535622E+05 -2.220491E+05 -1.520166E+05 -1.645240E+05  2.114587E+04  7.172099E+04
       222   1  1.856157E+06  2.441850E+05  1.723185E+05 -1.634975E+05  1.869733E+04 -7.824031E+04
       222   2  2.007420E+06  2.800217E+05  2.009233E+05 -1.478274E+05  9.510810E+03 -8.730483E+04
       222   3  2.160666E+06  3.180994E+05  2.361079E+05 -1.638677E+05  3.253313E+02 -9.233589E+04
       222   4  8.019954E+05 -3.623536E+02  2.105363E+03 -1.641070E+05 -1.556983E+03 -7.826052E+04
       222   5  8.015932E+05 -2.031473E+02  3.642813E+03 -1.482502E+05 -3.364406E+03 -8.732826E+04
       222   6  8.018727E+05  9.208512E+02  6.648112E+03 -1.641076E+05 -5.168511E+03 -9.235855E+04
       222   7 -2.510650E+05 -2.449656E+05 -1.681366E+05 -1.647153E+05 -2.177820E+04 -7.828072E+04
       222   8 -4.027974E+05 -2.805022E+05 -1.936787E+05 -1.486723E+05 -1.621554E+04 -8.735170E+04
       222   9 -5.551071E+05 -3.163548E+05 -2.228707E+05 -1.643471E+05 -1.065074E+04 -9.238123E+04
       222  10  1.856154E+06  2.441784E+05  1.723063E+05 -1.634963E+05 -8.121533E-10 -1.351895E-09
       222  11  2.007418E+06  2.800135E+05  2.009088E+05 -1.478268E+05  2.338238E-09  3.067963E-10
       222  12  2.160664E+06  3.180903E+05  2.360919E+05 -1.638677E+05  1.978894E-09 -3.460509E-10
       222  13  8.019937E+05 -3.689337E+02  2.093844E+03 -1.641071E+05  9.339342E-11 -1.136324E-09
       222  14  8.015912E+05 -2.113428E+02  3.628455E+03 -1.482505E+05 -1.848480E-09 -1.105189E-10
       222  15  8.018703E+05  9.116807E+02  6.632026E+03 -1.641080E+05  1.646160E-10 -5.401306E-10
       222  16 -2.510671E+05 -2.449723E+05 -1.681490E+05 -1.647167E+05  1.012585E-09 -6.597548E-10
       222  17 -4.027997E+05 -2.805105E+05 -1.936936E+05 -1.486734E+05 -3.032799E-09  1.372559E-09
       222  18 -5.551095E+05 -3.163640E+05 -2.228870E+05 -1.643479E+05 -3.066993E-09 -5.048726E-10
       222  19  1.856157E+06  2.441850E+05  1.723185E+05 -1.634975E+05 -1.869733E+04  7.824031E+04
       222  20  2.007420E+06  2.800217E+05  2.009233E+05 -1.478274E+05 -9.510810E+03  8.730483E+04
       222  21  2.160666E+06  3.180994E+05  2.361079E+05 -1.638677E+05 -3.253313E+02  9.233589E+04
       222  22  8.019954E+05 -3.623536E+02  2.105363E+03 -1.641070E+05  1.556983E+03  7.826052E+04
       222  23  8.015932E+05 -2.031473E+02  3.642813E+03 -1.482502E+05  3.364406E+03  8.732826E+04
       222  24  8.018727E+05  9.208512E+02  6.648112E+03 -1.641076E+05  5.168511E+03  9.235855E+04
       222  25 -2.510650E+05 -2.449656E+05 -1.681366E+05 -1.647153E+05  2.177820E+04  7.828072E+04
       222  26 -4.027974E+05 -2.805022E+05 -1.936787E+05 -1.486723E+05  1.621554E+04  8.735170E+04
       222  27 -5.551071E+05 -3.163548E+05 -2.228707E+05 -1.643471E+05  1.065074E+04  9.238123E+04
       223   1  2.261744E+06  3.419969E+05  2.586885E+05 -1.612017E+05  2.258263E+03 -9.612597E+04
       223   2  2.405586E+06  3.882561E+05  3.210814E+05 -1.564795E+05 -8.041063E+04 -8.055238E+04
       223   3  2.567821E+06  4.637746E+05  4.445492E+05 -1.808560E+05 -1.631858E+05 -2.429637E+04
       223   4  8.028922E+05  7.649347E+02  8.781825E+03 -1.635205E+05 -6.306569E+03 -9.615422E+04
       223   5  8.000581E+05  6.760794E+03  1.599021E+04 -1.489889E+05 -1.450666E+04 -8.049080E+04
       223   6  8.027254E+05  2.915190E+04  3.268999E+04 -1.635527E+05 -2.278760E+04 -2.409941E+04
       223   7 -6.538742E+05 -3.405803E+05 -2.411960E+05 -1.658338E+05 -1.485195E+04 -9.618244E+04
       223   8 -8.029827E+05 -3.748827E+05 -2.892003E+05 -1.415185E+05  5.123150E+04 -8.042757E+04
       223   9 -9.594645E+05 -4.056792E+05 -3.793064E+05 -1.462994E+05  1.172154E+05 -2.389441E+04
       223  10  2.261741E+06  3.419870E+05  2.586711E+05 -1.612016E+05  9.250793E-10 -2.145459E-09
       223  11  2.405577E+06  3.882474E+05  3.210571E+05 -1.564847E+05 -2.579745E-09 -4.869587E-09
       223  12  2.567793E+06  4.637669E+05  4.444983E+05 -1.808592E+05 -3.366732E-09 -1.551371E-09
       223  13  8.028897E+05  7.549919E+02  8.764369E+03 -1.635210E+05 -8.898296E-10 -5.469335E-09
       223  14  8.000562E+05  6.753777E+03  1.597764E+04 -1.489898E+05  4.640651E-10  1.984196E-09
       223  15  8.027247E+05  2.915114E+04  3.268793E+04 -1.635532E+05  1.008888E-09 -1.200492E-10
       223  16 -6.538770E+05 -3.405903E+05 -2.412138E+05 -1.658350E+05 -2.376872E-09 -1.525292E-09
       223  17 -8.029873E+05 -3.748904E+05 -2.892173E+05 -1.415151E+05  8.397415E-10  1.940350E-09
       223  18 -9.594795E+05 -4.056835E+05 -3.793333E+05 -1.462972E+05  4.363984E-09 -1.444887E-09
       223  19  2.261744E+06  3.419969E+05  2.586885E+05 -1.612017E+05 -2.258263E+03  9.612597E+04
       223  20  2.405586E+06  3.882561E+05  3.210814E+05 -1.564795E+05  8.041063E+04  8.055238E+04
       223  21  2.567821E+06  4.637746E+05  4.445492E+05 -1.808560E+05  1.631858E+05  2.429637E+04
       223  22  8.028922E+05  7.649347E+02  8.781825E+03 -1.635205E+05  6.306569E+03  9.615422E+04
       223  23  8.000581E+05  6.760794E+03  1.599021E+04 -1.489889E+05  1.450666E+04  8.049080E+04
       223  24  8.027254E+05  2.915190E+04  3.268999E+04 -1.635527E+05  2.278760E+04  2.409941E+04
       223  25 -6.538742E+05 -3.405803E+05 -2.411960E+05 -1.658338E+05  1.485195E+04  9.618244E+04
       223  26 -8.029827E+05 -3.748827E+05 -2.892003E+05 -1.415185E+05 -5.123150E+04  8.042757E+04
       223  27 -9.594645E+05 -4.056792E+05 -3.793064E+05 -1.462994E+05 -1.172154E+05  2.389441E+04
       224   1  5.449343E+05  2.231370E+06  5.251462E+05 -6.114297E+05  2.169516E+04  1.441996E+05
       224   2  3.755603E+05  1.674609E+06  3.216270E+05 -5.458122E+05  6.502964E+04  4.361305E+04
       224   3  2.380326E+05  1.138996E+06  1.913691E+05 -5.912054E+05  5.803057E+04 -5.693618E+04
       224   4  2.952311E+04  1.462177E+05  3.069855E+04 -5.902246E+05  2.197468E+04  1.931305E+04
       224   5  8.743731E+03  1.440100E+05  1.673202E+04 -5.347430E+05  6.512100E+04  1.084177E+04
       224   6  3.911846E+03  1.467640E+05  1.222767E+04 -5.902799E+05  5.787993E+04  2.317649E+03
       224   7 -4.861905E+05 -1.934917E+06 -4.639932E+05 -5.690871E+05  2.224632E+04 -1.051574E+05
       224   8 -3.582152E+05 -1.384352E+06 -2.882761E+05 -5.236994E+05  6.521135E+04 -2.185054E+04
       224   9 -2.302621E+05 -8.445037E+05 -1.669392E+05 -5.893549E+05  5.772930E+04  6.147954E+04
       224  10  5.449282E+05  2.231348E+06  5.251064E+05 -6.114322E+05  2.153001E-10 -1.679516E-10
       224  11  3.755553E+05  1.674605E+06  3.216154E+05 -5.458145E+05 -4.973586E-10 -3.917937E-09
       224  12  2.380281E+05  1.138992E+06  1.913567E+05 -5.912028E+05  7.093740E-11 -2.933628E-09
       224  13  2.952249E+04  1.462171E+05  3.069694E+04 -5.902250E+05  7.361045E-10 -1.001493E-11
       224  14  8.739144E+03  1.440088E+05  1.672383E+04 -5.347436E+05 -1.605737E-09  1.066117E-10
       224  15  3.908246E+03  1.467631E+05  1.222137E+04 -5.902800E+05 -1.039081E-09 -2.942874E-09
       224  16 -4.861940E+05 -1.934929E+06 -4.640150E+05 -5.690852E+05 -3.201333E-10 -1.031711E-09
       224  17 -3.582199E+05 -1.384354E+06 -2.882850E+05 -5.236983E+05  2.241820E-09  2.574271E-09
       224  18 -2.302667E+05 -8.445087E+05 -1.669525E+05 -5.893578E+05 -1.675752E-09  3.684736E-09
       224  19  5.449343E+05  2.231370E+06  5.251462E+05 -6.114297E+05 -2.169516E+04 -1.441996E+05
       224  20  3.755603E+05  1.674609E+06  3.216270E+05 -5.458122E+05 -6.502964E+04 -4.361305E+04
       224  21  2.380326E+05  1.138996E+06  1.913691E+05 -5.912054E+05 -5.803057E+04  5.693618E+04
       224  22  2.952311E+04  1.462177E+05  3.069855E+04 -5.902246E+05 -2.197468E+04 -1.931305E+04
       224  23  8.743731E+03  1.440100E+05  1.673202E+04 -5.347430E+05 -6.512100E+04 -1.084177E+04
       224  24  3.911846E+03  1.467640E+05  1.222767E+04 -5.902799E+05 -5.787993E+04 -2.317649E+03
       224  25 -4.861905E+05 -1.934917E+06 -4.639932E+05 -5.690871E+05 -2.224632E+04  1.051574E+05
       224  26 -3.582152E+05 -1.384352E+06 -2.882761E+05 -5.236994E+05 -6.521135E+04  2.185054E+04
       224  27 -2.302621E+05 -8.445037E+05 -1.669392E+05 -5.893549E+05 -5.772930E+04 -6.147954E+04
       225   1  1.548974E+05  7.851666E+05  1.269471E+05 -5.933648E+05  3.758467E+04 -5.541321E+04
       225   2  2.529457E+04  2.388550E+05  2.882478E+04 -5.336366E+05  6.844126E+03 -6.290377E+04
       225   3 -1.001144E+05 -3.055889E+05 -6.351890E+04 -5.880305E+05 -2.431248E+04 -7.039097E+04
       225   4  4.095932E+03  1.460906E+05  1.171086E+04 -5.909651E+05  3.743397E+04  3.541204E+02
       225   5  3.519371E+03  1.453853E+05  1.338024E+04 -5.339009E+05  6.689972E+03 -6.398511E+03
       225   6  7.020839E+03  1.461242E+05  2.031055E+04 -5.909577E+05 -2.447058E+04 -1.315394E+04
       225   7 -1.467267E+05 -4.925813E+05 -1.035297E+05 -5.885676E+05  3.728360E+04  5.606570E+04
       225   8 -1.825457E+04  5.193096E+04 -2.052558E+03 -5.341651E+05  6.535754E+03  5.009853E+04
       225   9  1.141462E+05  5.980420E+05  1.041437E+05 -5.938869E+05 -2.462914E+04  4.412368E+04
       225  10  1.548951E+05  7.851630E+05  1.269387E+05 -5.933631E+05  4.849915E-10  5.104557E-09
       225  11  2.529346E+04  2.388508E+05  2.881726E+04 -5.336363E+05  2.267597E-09 -1.367080E-08
       225  12 -1.001164E+05 -3.055944E+05 -6.352933E+04 -5.880319E+05  1.117666E-09 -2.400829E-08
       225  13  4.094427E+03  1.460903E+05  1.170823E+04 -5.909651E+05  1.835393E-10  1.022698E-10
       225  14  3.519312E+03  1.453852E+05  1.338008E+04 -5.339009E+05 -6.209279E-10  2.701970E-11
       225  15  7.020149E+03  1.461238E+05  2.030910E+04 -5.909580E+05  1.312475E-09 -3.170013E-09
       225  16 -1.467290E+05 -4.925851E+05 -1.035382E+05 -5.885693E+05 -1.637832E-09 -7.045320E-09
       225  17 -1.825529E+04  5.192826E+04 -2.057356E+03 -5.341654E+05 -1.541114E-09  1.108452E-08
       225  18  1.141450E+05  5.980398E+05  1.041389E+05 -5.938860E+05 -4.778717E-10  2.490614E-08
       225  19  1.548974E+05  7.851666E+05  1.269471E+05 -5.933648E+05 -3.758467E+04  5.541321E+04
       225  20  2.529457E+04  2.388550E+05  2.882478E+04 -5.336366E+05 -6.844126E+03  6.290377E+04
       225  21 -1.001144E+05 -3.055889E+05 -6.351890E+04 -5.880305E+05  2.431248E+04  7.039097E+04
       225  22  4.095932E+03  1.460906E+05  1.171086E+04 -5.909651E+05 -3.743397E+04 -3.541204E+02
       225  23  3.519371E+03  1.453853E+05  1.338024E+04 -5.339009E+05 -6.689972E+03  6.398511E+03
       225  24  7.020839E+03  1.461242E+05  2.031055E+04 -5.909577E+05  2.447058E+04  1.315394E+04
       225  25 -1.467267E+05 -4.925813E+05 -1.035297E+05 -5.885676E+05 -3.728360E+04 -5.606570E+04
       225  26 -1.825457E+04  5.193096E+04 -2.052558E+03 -5.341651E+05 -6.535754E+03 -5.009853E+04
       225  27  1.141462E+05  5.980420E+05  1.041437E+05 -5.938869E+05  2.462914E+04 -4.412368E+04
       226   1 -1.836610E+05 -6.552798E+05 -1.215908E+05 -5.920216E+05 -4.503759E+04 -7.700190E+04
       226   2 -2.998163E+05 -1.200398E+06 -2.248696E+05 -5.073888E+05 -5.524566E+04 -1.608532E+04
       226   3 -3.847274E+05 -1.745538E+06 -3.601080E+05 -5.341003E+05 -1.927514E+04  4.483166E+04
       226   4  6.683171E+03  1.488918E+05  2.576932E+04 -5.903483E+05 -4.519768E+04 -1.667044E+04
       226   5  2.289572E+04  1.415140E+05  4.519244E+04 -5.346101E+05 -5.517697E+04 -3.988289E+04
       226   6  8.493334E+04  1.484079E+05  9.109278E+04 -5.901764E+05 -1.902915E+04 -6.304122E+04
       226   7  1.969926E+05  9.536996E+05  1.731168E+05 -5.886720E+05 -4.535730E+04  4.373715E+04
       226   8  3.454993E+05  1.485147E+06  3.151649E+05 -5.618897E+05 -5.510629E+04 -6.373090E+04
       226   9  5.543524E+05  2.045682E+06  5.420873E+05 -6.464215E+05 -1.876415E+04 -1.712421E+05
       226  10 -1.836648E+05 -6.552867E+05 -1.216058E+05 -5.920244E+05  8.134632E-10  2.430375E-08
       226  11 -2.998197E+05 -1.200399E+06 -2.248759E+05 -5.073895E+05  2.117583E-09  6.971483E-09
       226  12 -3.847283E+05 -1.745540E+06 -3.601124E+05 -5.340996E+05 -3.635901E-10 -6.088736E-09
       226  13  6.680902E+03  1.488909E+05  2.576496E+04 -5.903489E+05  2.757702E-09 -1.607293E-11
       226  14  2.289202E+04  1.415114E+05  4.518372E+04 -5.346118E+05 -4.158078E-10 -6.431207E-11
       226  15  8.493188E+04  1.484035E+05  9.108463E+04 -5.901773E+05  4.546822E-11 -2.324698E-09
       226  16  1.969899E+05  9.536970E+05  1.731093E+05 -5.886704E+05 -1.576431E-10 -2.609880E-08
       226  17  3.454950E+05  1.485142E+06  3.151516E+05 -5.618925E+05 -2.180516E-09 -8.598853E-09
       226  18  5.543442E+05  2.045650E+06  5.420317E+05 -6.464241E+05 -6.640616E-10  6.757957E-09
       226  19 -1.836610E+05 -6.552798E+05 -1.215908E+05 -5.920216E+05  4.503759E+04  7.700190E+04
       226  20 -2.998163E+05 -1.200398E+06 -2.248696E+05 -5.073888E+05  5.524566E+04  1.608532E+04
       226  21 -3.847274E+05 -1.745538E+06 -3.601080E+05 -5.341003E+05  1.927514E+04 -4.483166E+04
       226  22  6.683171E+03  1.488918E+05  2.576932E+04 -5.903483E+05  4.519768E+04  1.667044E+04
       226  23  2.289572E+04  1.415140E+05  4.519244E+04 -5.346101E+05  5.517697E+04  3.988289E+04
       226  24  8.493334E+04  1.484079E+05  9.109278E+04 -5.901764E+05  1.902915E+04  6.304122E+04
       226  25  1.969926E+05  9.536996E+05  1.731168E+05 -5.886720E+05  4.535730E+04 -4.373715E+04
       226  26  3.454993E+05  1.485147E+06  3.151649E+05 -5.618897E+05  5.510629E+04  6.373090E+04
       226  27  5.543524E+05  2.045682E+06  5.420873E+05 -6.464215E+05  1.876415E+04  1.712421E+05
       227   1 -1.231411E+06 -5.847620E+05 -3.318274E+05 -5.057536E+05 -1.498331E+05 -4.339729E+04
       227   2 -1.155756E+06 -4.319344E+05 -2.057488E+05 -4.735500E+05 -9.351194E+04  7.298684E+03
       227   3 -1.102089E+06 -3.615638E+05 -1.477279E+05 -4.401746E+05 -2.955743E+04  3.775288E+04
       227   4 -4.965085E+05 -2.421942E+05 -1.299284E+05 -2.359704E+05 -8.852503E+04 -2.036346E+04
       227   5 -4.818450E+05 -1.543392E+05 -6.056155E+04 -2.553545E+05 -6.669294E+04  1.737048E+04
       227   6 -4.822976E+05 -1.420600E+05 -3.185312E+04 -2.735808E+05 -3.724175E+04  3.486097E+04
       227   7  2.389317E+05  1.004970E+05  7.193491E+04  3.412969E+04 -2.713863E+04  2.716505E+03
       227   8  1.925347E+05  1.233277E+05  8.460215E+04 -3.692880E+04 -3.984272E+04  2.745735E+04
       227   9  1.378997E+05  7.747560E+04  8.400783E+04 -1.068332E+05 -4.493435E+04  3.196613E+04
       227  10 -1.231436E+06 -5.847701E+05 -3.318732E+05 -5.057588E+05  2.586567E-08  9.329771E-09
       227  11 -1.155766E+06 -4.319368E+05 -2.057653E+05 -4.735494E+05  5.409503E-09  2.814818E-09
       227  12 -1.102091E+06 -3.615656E+05 -1.477322E+05 -4.401737E+05 -2.159384E-08 -9.037068E-09
       227  13 -4.965170E+05 -2.421967E+05 -1.299439E+05 -2.359719E+05  3.068457E-09  1.025837E-09
       227  14 -4.818498E+05 -1.543407E+05 -6.057048E+04 -2.553536E+05  5.513532E-09  2.968112E-09
       227  15 -4.822994E+05 -1.420617E+05 -3.185801E+04 -2.735797E+05  3.079936E-09 -1.733646E-10
       227  16  2.389309E+05  1.004968E+05  7.193351E+04  3.412975E+04 -2.117132E-08 -7.148006E-09
       227  17  1.925327E+05  1.233265E+05  8.459775E+04 -3.692792E+04  5.845009E-09  3.749425E-09
       227  18  1.378972E+05  7.747397E+04  8.400212E+04 -1.068320E+05  2.606149E-08  1.128852E-08
       227  19 -1.231411E+06 -5.847620E+05 -3.318274E+05 -5.057536E+05  1.498331E+05  4.339729E+04
       227  20 -1.155756E+06 -4.319344E+05 -2.057488E+05 -4.735500E+05  9.351194E+04 -7.298684E+03
       227  21 -1.102089E+06 -3.615638E+05 -1.477279E+05 -4.401746E+05  2.955743E+04 -3.775288E+04
       227  22 -4.965085E+05 -2.421942E+05 -1.299284E+05 -2.359704E+05  8.852503E+04  2.036346E+04
       227  23 -4.818450E+05 -1.543392E+05 -6.056155E+04 -2.553545E+05  6.669294E+04 -1.737048E+04
       227  24 -4.822976E+05 -1.420600E+05 -3.185312E+04 -2.735808E+05  3.724175E+04 -3.486097E+04
       227  25  2.389317E+05  1.004970E+05  7.193491E+04  3.412969E+04  2.713863E+04 -2.716505E+03
       227  26  1.925347E+05  1.233277E+05  8.460215E+04 -3.692880E+04  3.984272E+04 -2.745735E+04
       227  27  1.378997E+05  7.747560E+04  8.400783E+04 -1.068332E+05  4.493435E+04 -3.196613E+04
       228   1 -1.037211E+06 -3.480402E+05 -1.283707E+05 -4.297187E+05 -2.737796E+04  3.518445E+04
       228   2 -9.599834E+05 -3.052437E+05 -9.882591E+04 -3.988781E+05 -1.655785E+04  3.480571E+04
       228   3 -8.718476E+05 -2.800419E+05 -7.729927E+04 -3.829212E+05 -5.076634E+03  3.266528E+04
       228   4 -4.783525E+05 -1.430605E+05 -2.399095E+04 -2.718692E+05 -3.252581E+04  3.324647E+04
       228   5 -4.837437E+05 -1.321218E+05 -1.262638E+04 -2.653361E+05 -2.470445E+04  3.174302E+04
       228   6 -4.776363E+05 -1.381809E+05 -6.896829E+03 -2.736891E+05 -1.622349E+04  2.847811E+04
       228   7  8.082811E+04  6.194772E+04  8.037516E+04 -1.138881E+05 -3.767858E+04  3.130660E+04
       228   8 -7.264801E+03  4.102215E+04  7.356550E+04 -1.316982E+05 -3.285771E+04  2.867781E+04
       228   9 -8.325696E+04  3.696004E+03  6.350203E+04 -1.643912E+05 -2.737801E+04  2.428810E+04
       228  10 -1.037212E+06 -3.480417E+05 -1.283744E+05 -4.297179E+05 -6.755474E-09 -3.252761E-09
       228  11 -9.599840E+05 -3.052450E+05 -9.882870E+04 -3.988777E+05  6.192284E-09  3.423675E-09
       228  12 -8.718479E+05 -2.800430E+05 -7.730132E+04 -3.829211E+05  2.093537E-08  9.262795E-09
       228  13 -4.783540E+05 -1.430620E+05 -2.399502E+04 -2.718683E+05 -1.761740E-09 -7.673915E-10
       228  14 -4.837446E+05 -1.321230E+05 -1.262942E+04 -2.653354E+05 -3.145262E-09 -4.793161E-10
       228  15 -4.776368E+05 -1.381819E+05 -6.898847E+03 -2.736887E+05  3.028404E-09  1.966240E-09
       228  16  8.082632E+04  6.194628E+04  8.037065E+04 -1.138872E+05  3.981284E-09  3.026920E-09
       228  17 -7.266180E+03  4.102098E+04  7.356193E+04 -1.316974E+05 -8.728769E-09 -1.041575E-09
       228  18 -8.325792E+04  3.695169E+03  6.349951E+04 -1.643907E+05 -1.739540E-08 -4.726378E-09
       228  19 -1.037211E+06 -3.480402E+05 -1.283707E+05 -4.297187E+05  2.737796E+04 -3.518445E+04
       228  20 -9.599834E+05 -3.052437E+05 -9.882591E+04 -3.988781E+05  1.655785E+04 -3.480571E+04
       228  21 -8.718476E+05 -2.800419E+05 -7.729927E+04 -3.829212E+05  5.076634E+03 -3.266528E+04
       228  22 -4.783525E+05 -1.430605E+05 -2.399095E+04 -2.718692E+05  3.252581E+04 -3.324647E+04
       228  23 -4.837437E+05 -1.321218E+05 -1.262638E+04 -2.653361E+05  2.470445E+04 -3.174302E+04
       228  24 -4.776363E+05 -1.381809E+05 -6.896829E+03 -2.736891E+05  1.622349E+04 -2.847811E+04
       228  25  8.082811E+04  6.194772E+04  8.037516E+04 -1.138881E+05  3.767858E+04 -3.130660E+04
       228  26 -7.264801E+03  4.102215E+04  7.356550E+04 -1.316982E+05  3.285771E+04 -2.867781E+04
       228  27 -8.325696E+04  3.696004E+03  6.350203E+04 -1.643912E+05  2.737801E+04 -2.428810E+04
       229   1 -8.168618E+05 -2.607520E+05 -6.543502E+04 -3.680786E+05 -2.897921E+03  2.910864E+04
       229   2 -7.400657E+05 -2.236130E+05 -4.825646E+04 -3.370415E+05  1.224530E+03  2.325751E+04
       229   3 -6.499005E+05 -2.003678E+05 -3.238811E+04 -3.216358E+05  5.403786E+03  1.725142E+04
       229   4 -4.773106E+05 -1.382546E+05 -5.183336E+03 -2.735599E+05 -1.382893E+04  2.500359E+04
       229   5 -4.839984E+05 -1.312530E+05 -2.853675E+03 -2.657699E+05 -9.970414E+03  1.905468E+04
       229   6 -4.772723E+05 -1.380931E+05 -1.624895E+03 -2.736136E+05 -6.055351E+03  1.295078E+04
       229   7 -1.376376E+05 -1.574622E+04  5.506507E+04 -1.789929E+05 -2.476632E+04  2.089615E+04
       229   8 -2.278629E+05 -3.888729E+04  4.254714E+04 -1.944713E+05 -2.117022E+04  1.485003E+04
       229   9 -3.046141E+05 -7.581609E+04  2.913741E+04 -2.255794E+05 -1.751777E+04  8.648908E+03
       229  10 -8.168620E+05 -2.607530E+05 -6.543662E+04 -3.680785E+05 -6.506376E-09 -2.397650E-09
       229  11 -7.400658E+05 -2.236135E+05 -4.825748E+04 -3.370415E+05 -3.098080E-08 -1.141685E-08
       229  12 -6.499007E+05 -2.003681E+05 -3.238872E+04 -3.216359E+05 -4.135663E-08 -1.690462E-08
       229  13 -4.773110E+05 -1.382554E+05 -5.184870E+03 -2.735596E+05  1.671440E-09  1.810444E-09
       229  14 -4.839986E+05 -1.312534E+05 -2.854544E+03 -2.657698E+05  4.959895E-10  1.496430E-10
       229  15 -4.772724E+05 -1.380933E+05 -1.625279E+03 -2.736136E+05  2.509673E-09 -1.173564E-09
       229  16 -1.376383E+05 -1.574686E+04  5.506310E+04 -1.789925E+05  1.167751E-08  5.864830E-09
       229  17 -2.278634E+05 -3.888765E+04  4.254589E+04 -1.944710E+05  2.934022E-08  9.777446E-09
       229  18 -3.046144E+05 -7.581625E+04  2.913669E+04 -2.255793E+05  4.491172E-08  1.486232E-08
       229  19 -8.168618E+05 -2.607520E+05 -6.543502E+04 -3.680786E+05  2.897921E+03 -2.910864E+04
       229  20 -7.400657E+05 -2.236130E+05 -4.825646E+04 -3.370415E+05 -1.224530E+03 -2.325751E+04
       229  21 -6.499005E+05 -2.003678E+05 -3.238811E+04 -3.216358E+05 -5.403786E+03 -1.725142E+04
       229  22 -4.773106E+05 -1.382546E+05 -5.183336E+03 -2.735599E+05  1.382893E+04 -2.500359E+04
       229  23 -4.839984E+05 -1.312530E+05 -2.853675E+03 -2.657699E+05  9.970414E+03 -1.905468E+04
       229  24 -4.772723E+05 -1.380931E+05 -1.624895E+03 -2.736136E+05  6.055351E+03 -1.295078E+04
       229  25 -1.376376E+05 -1.574622E+04  5.506507E+04 -1.789929E+05  2.476632E+04 -2.089615E+04
       229  26 -2.278629E+05 -3.888729E+04  4.254714E+04 -1.944713E+05  2.117022E+04 -1.485003E+04
       229  27 -3.046141E+05 -7.581609E+04  2.913741E+04 -2.255794E+05  1.751777E+04 -8.648908E+03
       230   1 -5.955376E+05 -1.807196E+05 -2.198440E+04 -3.065409E+05  7.094312E+03  1.342307E+04
       230   2 -5.188241E+05 -1.437922E+05 -6.984850E+03 -2.754374E+05  1.004783E+04  6.874576E+03
       230   3 -4.284962E+05 -1.205443E+05  7.690274E+03 -2.599809E+05  1.300573E+04  3.139332E+02
       230   4 -4.772325E+05 -1.380997E+05 -1.264595E+03 -2.736001E+05 -4.348053E+03  9.129164E+03
       230   5 -4.840364E+05 -1.312655E+05 -8.297309E+02 -2.657726E+05 -1.416059E+03  2.572744E+03
       230   6 -4.772310E+05 -1.381082E+05 -7.032700E+02 -2.735957E+05  1.520235E+03 -3.995833E+03
       230   7 -3.589111E+05 -9.547785E+04  1.945568E+04 -2.406529E+05 -1.579286E+04  4.834350E+03
       230   8 -4.492469E+05 -1.187385E+05  5.325965E+03 -2.561072E+05 -1.288070E+04 -1.729365E+03
       230   9 -5.259631E+05 -1.556717E+05 -9.096321E+03 -2.872094E+05 -9.964302E+03 -8.305240E+03
       230  10 -5.955377E+05 -1.807198E+05 -2.198484E+04 -3.065410E+05  4.818562E-08  1.619804E-08
       230  11 -5.188242E+05 -1.437923E+05 -6.985129E+03 -2.754375E+05  1.996876E-08  6.314477E-09
       230  12 -4.284964E+05 -1.205443E+05  7.689956E+03 -2.599810E+05 -1.048579E-08 -3.620252E-09
       230  13 -4.772326E+05 -1.380998E+05 -1.264787E+03 -2.736000E+05  3.789623E-09 -1.119321E-09
       230  14 -4.840364E+05 -1.312655E+05 -8.297471E+02 -2.657726E+05  5.652988E-10 -4.316487E-10
       230  15 -4.772311E+05 -1.381082E+05 -7.033043E+02 -2.735957E+05 -1.578276E-10  3.044485E-10
       230  16 -3.589114E+05 -9.547794E+04  1.945517E+04 -2.406529E+05 -4.178484E-08 -1.817075E-08
       230  17 -4.492470E+05 -1.187386E+05  5.325647E+03 -2.561072E+05 -1.680679E-08 -7.664248E-09
       230  18 -5.259632E+05 -1.556718E+05 -9.096638E+03 -2.872094E+05  1.006808E-08  4.673981E-09
       230  19 -5.955376E+05 -1.807196E+05 -2.198440E+04 -3.065409E+05 -7.094312E+03 -1.342307E+04
       230  20 -5.188241E+05 -1.437922E+05 -6.984850E+03 -2.754374E+05 -1.004783E+04 -6.874576E+03
       230  21 -4.284962E+05 -1.205443E+05  7.690274E+03 -2.599809E+05 -1.300573E+04 -3.139332E+02
       230  22 -4.772325E+05 -1.380997E+05 -1.264595E+03 -2.736001E+05  4.348053E+03 -9.129164E+03
       230  23 -4.840364E+05 -1.312655E+05 -8.297309E+02 -2.657726E+05  1.416059E+03 -2.572744E+03
       230  24 -4.772310E+05 -1.381082E+05 -7.032700E+02 -2.735957E+05 -1.520235E+03  3.995833E+03
       230  25 -3.589111E+05 -9.547785E+04  1.945568E+04 -2.406529E+05  1.579286E+04 -4.834350E+03
       230  26 -4.492469E+05 -1.187385E+05  5.325965E+03 -2.561072E+05  1.288070E+04  1.729365E+03
       230  27 -5.259631E+05 -1.556717E+05 -9.096321E+03 -2.872094E+05  9.964302E+03  8.305240E+03
       231   1 -3.741905E+05 -1.008726E+05  1.769348E+04 -2.448722E+05  1.459597E+04 -3.558498E+03
       231   2 -2.974821E+05 -6.395205E+04  3.197115E+04 -2.137726E+05  1.759001E+04 -1.010188E+04
       231   3 -2.071646E+05 -4.070284E+04  4.589855E+04 -1.983177E+05  2.057896E+04 -1.662876E+04
       231   4 -4.772362E+05 -1.381095E+05 -7.338821E+02 -2.735956E+05  3.110525E+03 -7.868465E+03
       231   5 -4.840398E+05 -1.312720E+05 -1.000971E+03 -2.657735E+05  6.131433E+03 -1.440271E+04
       231   6 -4.772466E+05 -1.381119E+05 -1.639806E+03 -2.735991E+05  9.147198E+03 -2.092050E+04
       231   7 -5.802694E+05 -1.753448E+05 -1.916075E+04 -3.023143E+05 -8.372773E+03 -1.217763E+04
       231   8 -6.705604E+05 -1.985885E+05 -3.397364E+04 -3.177597E+05 -5.323475E+03 -1.870216E+04
       231   9 -7.472539E+05 -2.355149E+05 -4.918064E+04 -3.488506E+05 -2.279378E+03 -2.521031E+04
       231  10 -3.741907E+05 -1.008727E+05  1.769305E+04 -2.448722E+05 -2.267048E-10  1.018312E-09
       231  11 -2.974824E+05 -6.395224E+04  3.197038E+04 -2.137724E+05 -1.894387E-09  1.440586E-09
       231  12 -2.071651E+05 -4.070325E+04  4.589723E+04 -1.983175E+05 -9.309692E-10  9.638312E-10
       231  13 -4.772362E+05 -1.381095E+05 -7.340166E+02 -2.735956E+05  2.300293E-10  8.464267E-10
       231  14 -4.840399E+05 -1.312722E+05 -1.001431E+03 -2.657734E+05 -1.077192E-09  2.887663E-10
       231  15 -4.772468E+05 -1.381124E+05 -1.640785E+03 -2.735990E+05 -2.060717E-10 -4.901874E-10
       231  16 -5.802695E+05 -1.753450E+05 -1.916116E+04 -3.023143E+05 -9.040358E-10  6.275727E-10
       231  17 -6.705605E+05 -1.985888E+05 -3.397436E+04 -3.177598E+05  1.383547E-09  3.481752E-10
       231  18 -7.472541E+05 -2.355156E+05 -4.918184E+04 -3.488507E+05  1.147919E-09 -3.611756E-10
       231  19 -3.741905E+05 -1.008726E+05  1.769348E+04 -2.448722E+05 -1.459597E+04  3.558498E+03
       231  20 -2.974821E+05 -6.395205E+04  3.197115E+04 -2.137726E+05 -1.759001E+04  1.010188E+04
       231  21 -2.071646E+05 -4.070284E+04  4.589855E+04 -1.983177E+05 -2.057896E+04  1.662876E+04
       231  22 -4.772362E+05 -1.381095E+05 -7.338821E+02 -2.735956E+05 -3.110525E+03  7.868465E+03
       231  23 -4.840398E+05 -1.312720E+05 -1.000971E+03 -2.657735E+05 -6.131433E+03  1.440271E+04
       231  24 -4.772466E+05 -1.381119E+05 -1.639806E+03 -2.735991E+05 -9.147198E+03  2.092050E+04
       231  25 -5.802694E+05 -1.753448E+05 -1.916075E+04 -3.023143E+05  8.372773E+03  1.217763E+04
       231  26 -6.705604E+05 -1.985885E+05 -3.397364E+04 -3.177597E+05  5.323475E+03  1.870216E+04
       231  27 -7.472539E+05 -2.355149E+05 -4.918064E+04 -3.488506E+05  2.279378E+03  2.521031E+04
       232   1 -1.529029E+05 -2.105519E+04  5.543475E+04 -1.832582E+05  2.237885E+04 -2.041074E+04
       232   2 -7.617750E+04  1.585484E+04  6.840444E+04 -1.521567E+05  2.645519E+04 -2.642664E+04
       232   3  1.394255E+04  3.892719E+04  8.014927E+04 -1.366749E+05  3.046459E+04 -3.225766E+04
       232   4 -4.773060E+05 -1.381063E+05 -2.141881E+03 -2.736176E+05  1.092761E+04 -2.471072E+04
       232   5 -4.839978E+05 -1.312684E+05 -3.818912E+03 -2.657693E+05  1.531697E+04 -3.061117E+04
       232   6 -4.773638E+05 -1.383317E+05 -6.969581E+03 -2.735444E+05  1.963913E+04 -3.632674E+04
       232   7 -8.015977E+05 -2.551472E+05 -5.972135E+04 -3.639328E+05 -5.172557E+02 -2.900831E+04
       232   8 -8.916400E+05 -2.783748E+05 -7.604650E+04 -3.793116E+05  4.186601E+03 -3.479276E+04
       232   9 -9.684100E+05 -3.155656E+05 -9.409437E+04 -4.103115E+05  8.822907E+03 -4.039236E+04
       232  10 -1.529035E+05 -2.105578E+04  5.543303E+04 -1.832578E+05 -3.431206E-10 -4.213327E-10
       232  11 -7.617844E+04  1.585390E+04  6.840181E+04 -1.521561E+05  1.021360E-09 -6.574090E-10
       232  12  1.394128E+04  3.892583E+04  8.014557E+04 -1.366741E+05  1.773245E-09 -6.261371E-10
       232  13 -4.773063E+05 -1.381070E+05 -2.143252E+03 -2.736174E+05 -8.789809E-11  7.349971E-11
       232  14 -4.839983E+05 -1.312694E+05 -3.821113E+03 -2.657689E+05  1.024427E-10  7.432183E-10
       232  15 -4.773645E+05 -1.383332E+05 -6.972785E+03 -2.735439E+05  4.242052E-10 -4.928606E-10
       232  16 -8.015979E+05 -2.551481E+05 -5.972293E+04 -3.639328E+05  1.051595E-09 -1.262671E-10
       232  17 -8.916404E+05 -2.783761E+05 -7.604881E+04 -3.793115E+05 -1.724442E-10  1.912150E-11
       232  18 -9.684105E+05 -3.155674E+05 -9.409759E+04 -4.103112E+05 -1.411437E-09  6.288517E-11
       232  19 -1.529029E+05 -2.105519E+04  5.543475E+04 -1.832582E+05 -2.237885E+04  2.041074E+04
       232  20 -7.617750E+04  1.585484E+04  6.840444E+04 -1.521567E+05 -2.645519E+04  2.642664E+04
       232  21  1.394255E+04  3.892719E+04  8.014927E+04 -1.366749E+05 -3.046459E+04  3.225766E+04
       232  22 -4.773060E+05 -1.381063E+05 -2.141881E+03 -2.736176E+05 -1.092761E+04  2.471072E+04
       232  23 -4.839978E+05 -1.312684E+05 -3.818912E+03 -2.657693E+05 -1.531697E+04  3.061117E+04
       232  24 -4.773638E+05 -1.383317E+05 -6.969581E+03 -2.735444E+05 -1.963913E+04  3.632674E+04
       232  25 -8.015977E+05 -2.551472E+05 -5.972135E+04 -3.639328E+05  5.172557E+02  2.900831E+04
       232  26 -8.916400E+05 -2.783748E+05 -7.604650E+04 -3.793116E+05 -4.186601E+03  3.479276E+04
       232  27 -9.684100E+05 -3.155656E+05 -9.409437E+04 -4.103115E+05 -8.822907E+03  4.039236E+04
       233   1  6.829228E+04  5.826987E+04  8.800106E+04 -1.222558E+05  3.343970E+04 -3.549037E+04
       233   2  1.440100E+05  9.569997E+04  9.629070E+04 -8.899815E+04  4.048682E+04 -3.905224E+04
       233   3  2.311985E+05  1.156857E+05  9.982093E+04 -7.036022E+04  4.675178E+04 -4.052375E+04
       233   4 -4.777964E+05 -1.382340E+05 -9.280091E+03 -2.737184E+05  2.235749E+04 -3.965740E+04
       233   5 -4.836579E+05 -1.324402E+05 -1.700300E+04 -2.651812E+05  3.296533E+04 -4.188431E+04
       233   6 -4.787651E+05 -1.448026E+05 -3.231303E+04 -2.712688E+05  4.278987E+04 -4.201994E+04
       233   7 -1.023576E+06 -3.347121E+05 -1.065721E+05 -4.250586E+05  1.128556E+04 -4.382060E+04
       233   8 -1.110914E+06 -3.605433E+05 -1.303110E+05 -4.411989E+05  2.545192E+04 -4.471333E+04
       233   9 -1.188201E+06 -4.052412E+05 -1.644664E+05 -4.719627E+05  3.883280E+04 -4.351429E+04
       233  10  6.829074E+04  5.826821E+04  8.799659E+04 -1.222548E+05 -1.885060E-09 -3.999242E-10
       233  11  1.440078E+05  9.569790E+04  9.628476E+04 -8.899688E+04 -1.762387E-09  7.198009E-10
       233  12  2.311958E+05  1.156833E+05  9.981374E+04 -7.035869E+04  3.463507E-10 -2.071124E-09
       233  13 -4.777974E+05 -1.382358E+05 -9.283985E+03 -2.737177E+05 -2.932640E-09 -1.709293E-09
       233  14 -4.836595E+05 -1.324424E+05 -1.700834E+04 -2.651801E+05  1.103113E-09  5.224450E-10
       233  15 -4.787675E+05 -1.448050E+05 -3.231979E+04 -2.712674E+05  3.131361E-10  5.162022E-10
       233  16 -1.023577E+06 -3.347142E+05 -1.065760E+05 -4.250582E+05 -1.168597E-09  2.533951E-10
       233  17 -1.110915E+06 -3.605456E+05 -1.303160E+05 -4.411980E+05  2.378056E-10  4.073969E-10
       233  18 -1.188203E+06 -4.052436E+05 -1.644728E+05 -4.719613E+05 -9.475398E-10  1.052961E-09
       233  19  6.829228E+04  5.826987E+04  8.800106E+04 -1.222558E+05 -3.343970E+04  3.549037E+04
       233  20  1.440100E+05  9.569997E+04  9.629070E+04 -8.899815E+04 -4.048682E+04  3.905224E+04
       233  21  2.311985E+05  1.156857E+05  9.982093E+04 -7.036022E+04 -4.675178E+04  4.052375E+04
       233  22 -4.777964E+05 -1.382340E+05 -9.280091E+03 -2.737184E+05 -2.235749E+04  3.965740E+04
       233  23 -4.836579E+05 -1.324402E+05 -1.700300E+04 -2.651812E+05 -3.296533E+04  4.188431E+04
       233  24 -4.787651E+05 -1.448026E+05 -3.231303E+04 -2.712688E+05 -4.278987E+04  4.201994E+04
       233  25 -1.023576E+06 -3.347121E+05 -1.065721E+05 -4.250586E+05 -1.128556E+04  4.382060E+04
       233  26 -1.110914E+06 -3.605433E+05 -1.303110E+05 -4.411989E+05 -2.545192E+04  4.471333E+04
       233  27 -1.188201E+06 -4.052412E+05 -1.644664E+05 -4.719627E+05 -3.883280E+04  4.351429E+04
       234   1  2.890481E+05  1.296284E+05  1.009861E+05 -6.617896E+04  5.566629E+04 -4.035103E+04
       234   2  3.362921E+05  1.784246E+05  9.436143E+04  1.754454E+04  5.420459E+04 -3.183321E+04
       234   3  3.667556E+05  1.382202E+05  6.549389E+04  1.080806E+05  4.370168E+04  6.955359E+02
       234   4 -4.840396E+05 -1.434878E+05 -4.290294E+04 -2.736153E+05  4.868742E+04 -4.298218E+04
       234   5 -4.811470E+05 -1.623025E+05 -8.157115E+04 -2.516856E+05  8.821541E+04 -1.904782E+04
       234   6 -5.032105E+05 -2.783220E+05 -1.750034E+05 -2.229393E+05  1.186930E+05  2.891220E+04
       234   7 -1.256502E+06 -4.165569E+05 -1.868147E+05 -4.808147E+05  4.171785E+04 -4.561005E+04
       234   8 -1.297878E+06 -5.029096E+05 -2.575325E+05 -5.205640E+05  1.221776E+05 -6.286425E+03
       234   9 -1.372376E+06 -6.946475E+05 -4.155363E+05 -5.534785E+05  1.935675E+05  5.705746E+04
       234  10  2.890443E+05  1.296259E+05  1.009772E+05 -6.617715E+04  1.148967E-09 -9.316888E-10
       234  11  3.362887E+05  1.784227E+05  9.435401E+04  1.754593E+04 -6.811952E-09 -9.175537E-11
       234  12  3.667535E+05  1.382196E+05  6.549030E+04  1.080806E+05 -5.392445E-09 -1.440615E-09
       234  13 -4.840426E+05 -1.434904E+05 -4.291087E+04 -2.736136E+05 -2.000902E-09 -2.634673E-09
       234  14 -4.811555E+05 -1.623049E+05 -8.158646E+04 -2.516843E+05 -1.105631E-08  4.306367E-10
       234  15 -5.032258E+05 -2.783267E+05 -1.750314E+05 -2.229421E+05 -2.208700E-09  7.448541E-10
       234  16 -1.256505E+06 -4.165596E+05 -1.868219E+05 -4.808132E+05 -6.483330E-09 -1.636766E-09
       234  17 -1.297894E+06 -5.029136E+05 -2.575606E+05 -5.205633E+05 -8.098557E-09 -1.943255E-09
       234  18 -1.372417E+06 -6.946611E+05 -4.156131E+05 -5.534875E+05  3.929749E-10 -4.864175E-10
       234  19  2.890481E+05  1.296284E+05  1.009861E+05 -6.617896E+04 -5.566629E+04  4.035103E+04
       234  20  3.362921E+05  1.784246E+05  9.436143E+04  1.754454E+04 -5.420459E+04  3.183321E+04
       234  21  3.667556E+05  1.382202E+05  6.549389E+04  1.080806E+05 -4.370168E+04 -6.955359E+02
       234  22 -4.840396E+05 -1.434878E+05 -4.290294E+04 -2.736153E+05 -4.868742E+04  4.298218E+04
       234  23 -4.811470E+05 -1.623025E+05 -8.157115E+04 -2.516856E+05 -8.821541E+04  1.904782E+04
       234  24 -5.032105E+05 -2.783220E+05 -1.750034E+05 -2.229393E+05 -1.186930E+05 -2.891220E+04
       234  25 -1.256502E+06 -4.165569E+05 -1.868147E+05 -4.808147E+05 -4.171785E+04  4.561005E+04
       234  26 -1.297878E+06 -5.029096E+05 -2.575325E+05 -5.205640E+05 -1.221776E+05  6.286425E+03
       234  27 -1.372376E+06 -6.946475E+05 -4.155363E+05 -5.534785E+05 -1.935675E+05 -5.705746E+04
       235   1  1.190323E+06  1.584196E+05  1.367489E+05  1.168024E+03  1.728224E+04 -1.409601E+04
       235   2  1.143934E+06  2.005931E+05  1.306598E+05  2.554876E+04 -2.953534E+02 -4.810178E+04
       235   3  1.090141E+06  2.037974E+05  1.263111E+05  5.876617E+04 -1.791078E+04 -5.952477E+04
       235   4  2.014482E+05 -8.499282E+04 -9.344162E+04  5.412376E+04 -6.533372E+04 -1.425777E+04
       235   5  2.087465E+05 -2.146468E+04 -4.580682E+04  4.961656E+04 -4.167515E+04 -4.819523E+04
       235   6  2.014691E+05 -4.095472E+03 -2.505755E+04  5.394629E+04 -1.805530E+04 -5.953269E+04
       235   7 -7.865043E+05 -3.284599E+05 -3.236710E+05  1.069943E+05 -1.478191E+05 -1.443374E+04
       235   8 -7.255925E+05 -2.435701E+05 -2.223052E+05  7.364682E+04 -8.299419E+04 -4.829196E+04
       235   9 -6.864273E+05 -2.120302E+05 -1.764522E+05  4.913306E+04 -1.819961E+04 -5.954061E+04
       235  10  1.190322E+06  1.584193E+05  1.367480E+05  1.168220E+03  3.718940E-09 -8.411533E-10
       235  11  1.143933E+06  2.005906E+05  1.306555E+05  2.554875E+04  1.243640E-09 -4.345455E-09
       235  12  1.090140E+06  2.037935E+05  1.263038E+05  5.876532E+04  2.666525E-10 -3.442645E-09
       235  13  2.014436E+05 -8.499419E+04 -9.345002E+04  5.412301E+04  5.412904E-11  1.157803E-09
       235  14  2.087440E+05 -2.146764E+04 -4.581444E+04  4.961494E+04 -2.694965E-09 -2.902316E-09
       235  15  2.014678E+05 -4.099365E+03 -2.506482E+04  5.394542E+04 -7.061008E-11 -1.498844E-11
       235  16 -7.865279E+05 -3.284660E+05 -3.237125E+05  1.069926E+05 -4.052877E-09  3.941257E-11
       235  17 -7.256005E+05 -2.435745E+05 -2.223225E+05  7.364359E+04 -1.746914E-10 -7.282263E-09
       235  18 -6.864287E+05 -2.120341E+05 -1.764595E+05  4.913218E+04  2.393931E-09 -6.189244E-09
       235  19  1.190323E+06  1.584196E+05  1.367489E+05  1.168024E+03 -1.728224E+04  1.409601E+04
       235  20  1.143934E+06  2.005931E+05  1.306598E+05  2.554876E+04  2.953534E+02  4.810178E+04
       235  21  1.090141E+06  2.037974E+05  1.263111E+05  5.876617E+04  1.791078E+04  5.952477E+04
       235  22  2.014482E+05 -8.499282E+04 -9.344162E+04  5.412376E+04  6.533372E+04  1.425777E+04
       235  23  2.087465E+05 -2.146468E+04 -4.580682E+04  4.961656E+04  4.167515E+04  4.819523E+04
       235  24  2.014691E+05 -4.095472E+03 -2.505755E+04  5.394629E+04  1.805530E+04  5.953269E+04
       235  25 -7.865043E+05 -3.284599E+05 -3.236710E+05  1.069943E+05  1.478191E+05  1.443374E+04
       235  26 -7.255925E+05 -2.435701E+05 -2.223052E+05  7.364682E+04  8.299419E+04  4.829196E+04
       235  27 -6.864273E+05 -2.120302E+05 -1.764522E+05  4.913306E+04  1.819961E+04  5.954061E+04
       236   1  1.059960E+06  1.954027E+05  1.247533E+05  5.384683E+04 -1.295504E+04 -5.897465E+04
       236   2  1.010562E+06  1.865156E+05  1.209329E+05  4.997121E+04 -1.183956E+04 -5.887233E+04
       236   3  9.605167E+05  1.756218E+05  1.158895E+05  5.639483E+04 -1.073074E+04 -5.652860E+04
       236   4  2.044169E+05 -4.316152E+03 -1.897718E+04  5.429123E+04 -1.480497E+04 -5.898645E+04
       236   5  2.051092E+05 -7.272280E+02 -1.041113E+04  4.913541E+04 -9.601420E+03 -5.887385E+04
       236   6  2.044422E+05  1.441695E+02 -5.907371E+03  5.427971E+04 -4.404374E+03 -5.651838E+04
       236   7 -6.504057E+05 -2.040733E+05 -1.627307E+05  5.473456E+04 -1.665242E+04 -5.899826E+04
       236   8 -5.997015E+05 -1.880031E+05 -1.417735E+05  4.830031E+04 -7.366079E+03 -5.887538E+04
       236   9 -5.510652E+05 -1.753623E+05 -1.277196E+05  5.216688E+04  1.914573E+03 -5.650819E+04
       236  10  1.059959E+06  1.953989E+05  1.247464E+05  5.384622E+04 -5.168660E-09 -4.152719E-09
       236  11  1.010561E+06  1.865118E+05  1.209261E+05  4.997065E+04 -3.756144E-10  1.381032E-09
       236  12  9.605157E+05  1.756184E+05  1.158833E+05  5.639435E+04 -1.252662E-09  2.045444E-09
       236  13  2.044157E+05 -4.319948E+03 -1.898413E+04  5.429053E+04  2.163063E-09 -2.684502E-09
       236  14  2.051081E+05 -7.309751E+02 -1.041781E+04  4.913495E+04 -1.052863E-10 -2.582467E-10
       236  15  2.044414E+05  1.407339E+02 -5.913411E+03  5.427951E+04 -7.103790E-10 -3.254858E-09
       236  16 -6.504069E+05 -2.040771E+05 -1.627377E+05  5.473377E+04  4.815876E-09  6.992804E-10
       236  17 -5.997025E+05 -1.880068E+05 -1.417801E+05  4.829997E+04  1.768447E-09  2.424518E-09
       236  18 -5.510661E+05 -1.753657E+05 -1.277256E+05  5.216697E+04  1.602641E-10  1.368751E-10
       236  19  1.059960E+06  1.954027E+05  1.247533E+05  5.384683E+04  1.295504E+04  5.897465E+04
       236  20  1.010562E+06  1.865156E+05  1.209329E+05  4.997121E+04  1.183956E+04  5.887233E+04
       236  21  9.605167E+05  1.756218E+05  1.158895E+05  5.639483E+04  1.073074E+04  5.652860E+04
       236  22  2.044169E+05 -4.316152E+03 -1.897718E+04  5.429123E+04  1.480497E+04  5.898645E+04
       236  23  2.051092E+05 -7.272280E+02 -1.041113E+04  4.913541E+04  9.601420E+03  5.887385E+04
       236  24  2.044422E+05  1.441695E+02 -5.907371E+03  5.427971E+04  4.404374E+03  5.651838E+04
       236  25 -6.504057E+05 -2.040733E+05 -1.627307E+05  5.473456E+04  1.665242E+04  5.899826E+04
       236  26 -5.997015E+05 -1.880031E+05 -1.417735E+05  4.830031E+04  7.366079E+03  5.887538E+04
       236  27 -5.510652E+05 -1.753623E+05 -1.277196E+05  5.216688E+04 -1.914573E+03  5.650819E+04
       237   1  9.287895E+05  1.680850E+05  1.117926E+05  5.600984E+04 -9.660784E+03 -5.445277E+04
       237   2  8.792317E+05  1.566468E+05  1.054576E+05  5.070992E+04 -8.812680E+03 -5.097165E+04
       237   3  8.295296E+05  1.451842E+05  9.855694E+04  5.584042E+04 -7.966909E+03 -4.726937E+04
       237   4  2.047052E+05  1.058317E+02 -4.477513E+03  5.431033E+04 -3.506721E+03 -5.444207E+04
       237   5  2.048247E+05  2.472499E+02 -2.538545E+03  4.909453E+04 -2.256237E+03 -5.095839E+04
       237   6  2.047274E+05  2.943271E+02 -1.445198E+03  5.430981E+04 -1.008022E+03 -4.725342E+04
       237   7 -5.188590E+05 -1.678997E+05 -1.207615E+05  5.261252E+04  2.640432E+03 -5.443140E+04
       237   8 -4.691308E+05 -1.561751E+05 -1.105465E+05  4.748064E+04  4.293349E+03 -5.094516E+04
       237   9 -4.196872E+05 -1.446151E+05 -1.014574E+05  5.278050E+04  5.944121E+03 -4.723750E+04
       237  10  9.287886E+05  1.680818E+05  1.117869E+05  5.600941E+04 -3.733562E-09  3.690743E-09
       237  11  8.792309E+05  1.566440E+05  1.054526E+05  5.070956E+04  5.451196E-09  3.011203E-09
       237  12  8.295289E+05  1.451817E+05  9.855262E+04  5.584012E+04  7.685650E-09  2.174090E-10
       237  13  2.047043E+05  1.026454E+02 -4.483106E+03  5.431018E+04 -1.553717E-10 -4.039846E-09
       237  14  2.048240E+05  2.444598E+02 -2.543435E+03  4.909444E+04 -2.060419E-10  3.938773E-09
       237  15  2.047268E+05  2.919288E+02 -1.449396E+03  5.430977E+04  1.377728E-09  5.462258E-09
       237  16 -5.188598E+05 -1.679029E+05 -1.207671E+05  5.261263E+04  4.154790E-09  1.421418E-09
       237  17 -4.691315E+05 -1.561779E+05 -1.105514E+05  4.748081E+04 -1.974699E-09  4.604517E-09
       237  18 -4.196878E+05 -1.446175E+05 -1.014617E+05  5.278072E+04 -7.793541E-09  1.151975E-11
       237  19  9.287895E+05  1.680850E+05  1.117926E+05  5.600984E+04  9.660784E+03  5.445277E+04
       237  20  8.792317E+05  1.566468E+05  1.054576E+05  5.070992E+04  8.812680E+03  5.097165E+04
       237  21  8.295296E+05  1.451842E+05  9.855694E+04  5.584042E+04  7.966909E+03  4.726937E+04
       237  22  2.047052E+05  1.058317E+02 -4.477513E+03  5.431033E+04  3.506721E+03  5.444207E+04
       237  23  2.048247E+05  2.472499E+02 -2.538545E+03  4.909453E+04  2.256237E+03  5.095839E+04
       237  24  2.047274E+05  2.943271E+02 -1.445198E+03  5.430981E+04  1.008022E+03  4.725342E+04
       237  25 -5.188590E+05 -1.678997E+05 -1.207615E+05  5.261252E+04 -2.640432E+03  5.443140E+04
       237  26 -4.691308E+05 -1.561751E+05 -1.105465E+05  4.748064E+04 -4.293349E+03  5.094516E+04
       237  27 -4.196872E+05 -1.446151E+05 -1.014574E+05  5.278050E+04 -5.944121E+03  4.723750E+04
       238   1  7.977294E+05  1.377580E+05  9.360055E+04  5.575441E+04 -7.724273E+03 -4.504549E+04
       238   2  7.481908E+05  1.262557E+05  8.622389E+04  5.043159E+04 -7.470796E+03 -4.123400E+04
       238   3  6.985873E+05  1.148210E+05  7.868464E+04  5.554059E+04 -7.218799E+03 -3.740176E+04
       238   4  2.047664E+05  2.924635E+02 -1.089922E+03  5.431021E+04 -7.846008E+02 -4.502877E+04
       238   5  2.048127E+05  2.700773E+02 -6.076388E+02  4.909404E+04 -4.938264E+02 -4.121589E+04
       238   6  2.047844E+05  3.086428E+02 -3.143349E+02  5.431021E+04 -2.045144E+02 -3.738227E+04
       238   7 -3.878474E+05 -1.371906E+05 -9.578940E+04  5.286718E+04  6.148690E+03 -4.501206E+04
       238   8 -3.382720E+05 -1.257303E+05 -8.744672E+04  4.775747E+04  6.477262E+03 -4.119781E+04
       238   9 -2.887764E+05 -1.142159E+05 -7.931954E+04  5.308064E+04  6.804397E+03 -3.736280E+04
       238  10  7.977288E+05  1.377558E+05  9.359662E+04  5.575413E+04  3.228569E-08  4.752486E-10
       238  11  7.481903E+05  1.262538E+05  8.622059E+04  5.043134E+04  3.264589E-09  8.794968E-09
       238  12  6.985869E+05  1.148194E+05  7.868191E+04  5.554037E+04 -3.377300E-08  8.904400E-09
       238  13  2.047658E+05  2.902859E+02 -1.093734E+03  5.431018E+04 -1.061293E-09  1.466787E-10
       238  14  2.048123E+05  2.682529E+02 -6.108318E+02  4.909402E+04 -1.170681E-09  9.490890E-09
       238  15  2.047840E+05  3.071420E+02 -3.169613E+02  5.431020E+04 -3.555483E-09  3.064058E-09
       238  16 -3.878479E+05 -1.371928E+05 -9.579327E+04  5.286740E+04 -3.129408E-08 -1.025348E-09
       238  17 -3.382725E+05 -1.257321E+05 -8.744999E+04  4.775768E+04 -6.331894E-10  2.596901E-09
       238  18 -2.887768E+05 -1.142174E+05 -7.932225E+04  5.308085E+04  3.181993E-08  1.603284E-09
       238  19  7.977294E+05  1.377580E+05  9.360055E+04  5.575441E+04  7.724273E+03  4.504549E+04
       238  20  7.481908E+05  1.262557E+05  8.622389E+04  5.043159E+04  7.470796E+03  4.123400E+04
       238  21  6.985873E+05  1.148210E+05  7.868464E+04  5.554059E+04  7.218799E+03  3.740176E+04
       238  22  2.047664E+05  2.924635E+02 -1.089922E+03  5.431021E+04  7.846008E+02  4.502877E+04
       238  23  2.048127E+05  2.700773E+02 -6.076388E+02  4.909404E+04  4.938264E+02  4.121589E+04
       238  24  2.047844E+05  3.086428E+02 -3.143349E+02  5.431021E+04  2.045144E+02  3.738227E+04
       238  25 -3.878474E+05 -1.371906E+05 -9.578940E+04  5.286718E+04 -6.148690E+03  4.501206E+04
       238  26 -3.382720E+05 -1.257303E+05 -8.744672E+04  4.775747E+04 -6.477262E+03  4.119781E+04
       238  27 -2.887764E+05 -1.142159E+05 -7.931954E+04  5.308064E+04 -6.804397E+03  3.736280E+04
       239   1  6.668027E+05  1.074143E+05  7.350103E+04  5.547286E+04 -7.173722E+03 -3.516530E+04
       239   2  6.173035E+05  9.592574E+04  6.585234E+04  5.015356E+04 -7.161530E+03 -3.132485E+04
       239   3  5.677533E+05  8.450872E+04  5.819357E+04  5.526334E+04 -7.150404E+03 -2.748422E+04
       239   4  2.047951E+05  3.133787E+02 -2.115068E+02  5.430958E+04 -1.629337E+02 -3.514516E+04
       239   5  2.048283E+05  2.865744E+02 -4.749171E+01  4.909483E+04 -1.506491E+02 -3.130374E+04
       239   6  2.048088E+05  3.315526E+02  1.064625E+02  5.430956E+04 -1.394277E+02 -2.746214E+04
       239   7 -2.570003E+05 -1.067982E+05 -7.392941E+04  5.314703E+04  6.842830E+03 -3.512504E+04
       239   8 -2.074778E+05 -9.536109E+04 -6.595159E+04  4.803670E+04  6.855746E+03 -3.128265E+04
       239   9 -1.580048E+05 -8.385219E+04 -5.798393E+04  5.335625E+04  6.867600E+03 -2.744008E+04
       239  10  6.668023E+05  1.074130E+05  7.349861E+04  5.547265E+04  1.601361E-08  3.166913E-09
       239  11  6.173032E+05  9.592467E+04  6.585040E+04  5.015338E+04  5.656231E-09 -1.812217E-09
       239  12  5.677530E+05  8.450789E+04  5.819205E+04  5.526318E+04 -7.764832E-09 -3.794484E-09
       239  13  2.047948E+05  3.120522E+02 -2.138282E+02  5.430957E+04  1.355282E-10  9.449220E-09
       239  14  2.048280E+05  2.855221E+02 -4.933339E+01  4.909483E+04 -2.486065E-10  4.796136E-11
       239  15  2.048086E+05  3.307427E+02  1.050451E+02  5.430956E+04  9.174521E-10 -5.755993E-09
       239  16 -2.570007E+05 -1.067995E+05 -7.393182E+04  5.314722E+04 -1.591903E-08  3.467635E-09
       239  17 -2.074781E+05 -9.536215E+04 -6.595351E+04  4.803687E+04 -3.839246E-09 -2.515717E-09
       239  18 -1.580051E+05 -8.385301E+04 -5.798543E+04  5.335641E+04  1.014370E-08 -4.380551E-09
       239  19  6.668027E+05  1.074143E+05  7.350103E+04  5.547286E+04  7.173722E+03  3.516530E+04
       239  20  6.173035E+05  9.592574E+04  6.585234E+04  5.015356E+04  7.161530E+03  3.132485E+04
       239  21  5.677533E+05  8.450872E+04  5.819357E+04  5.526334E+04  7.150404E+03  2.748422E+04
       239  22  2.047951E+05  3.133787E+02 -2.115068E+02  5.430958E+04  1.629337E+02  3.514516E+04
       239  23  2.048283E+05  2.865744E+02 -4.749171E+01  4.909483E+04  1.506491E+02  3.130374E+04
       239  24  2.048088E+05  3.315526E+02  1.064625E+02  5.430956E+04  1.394277E+02  2.746214E+04
       239  25 -2.570003E+05 -1.067982E+05 -7.392941E+04  5.314703E+04 -6.842830E+03  3.512504E+04
       239  26 -2.074778E+05 -9.536109E+04 -6.595159E+04  4.803670E+04 -6.855746E+03  3.128265E+04
       239  27 -1.580048E+05 -8.385219E+04 -5.798393E+04  5.335625E+04 -6.867600E+03  2.744008E+04
       240   1  5.359961E+05  7.710607E+04  5.299646E+04  5.519375E+04 -7.183339E+03 -2.524865E+04
       240   2  4.865197E+05  6.562208E+04  4.540690E+04  4.986919E+04 -7.380695E+03 -2.141386E+04
       240   3  4.370145E+05  5.423509E+04  3.794652E+04  5.496517E+04 -7.578727E+03 -1.758956E+04
       240   4  2.048185E+05  3.346297E+02  1.908032E+02  5.430766E+04 -1.731707E+02 -2.522609E+04
       240   5  2.048372E+05  3.063017E+02  4.126365E+02  4.909720E+04 -3.898656E+02 -2.139071E+04
       240   6  2.048278E+05  3.784125E+02  7.769807E+02  5.430754E+04 -6.072506E+02 -1.756583E+04
       240   7 -1.262500E+05 -7.644227E+04 -5.261752E+04  5.342197E+04  6.833396E+03 -2.520355E+04
       240   8 -7.676648E+04 -6.501342E+04 -4.458352E+04  4.832551E+04  6.597909E+03 -2.136758E+04
       240   9 -2.730521E+04 -5.348094E+04 -3.639380E+04  5.365012E+04  6.361714E+03 -1.754210E+04
       240  10  5.359959E+05  7.710538E+04  5.299517E+04  5.519360E+04  2.084871E-09  3.669770E-09
       240  11  4.865196E+05  6.562157E+04  4.540594E+04  4.986906E+04 -1.352296E-08  1.892242E-09
       240  12  4.370144E+05  5.423474E+04  3.794583E+04  5.496506E+04 -3.202565E-08  3.231328E-09
       240  13  2.048183E+05  3.339463E+02  1.896072E+02  5.430766E+04  2.154520E-09 -8.621603E-10
       240  14  2.048370E+05  3.058102E+02  4.117763E+02  4.909719E+04 -3.666197E-10 -1.123957E-09
       240  15  2.048277E+05  3.780811E+02  7.764001E+02  5.430753E+04 -8.639756E-10  2.307529E-09
       240  16 -1.262502E+05 -7.644297E+04 -5.261880E+04  5.342211E+04 -9.579852E-10  1.440907E-09
       240  17 -7.676665E+04 -6.501393E+04 -4.458446E+04  4.832562E+04  1.340479E-08 -9.995139E-09
       240  18 -2.730534E+04 -5.348128E+04 -3.639445E+04  5.365021E+04  2.991877E-08 -1.219203E-09
       240  19  5.359961E+05  7.710607E+04  5.299646E+04  5.519375E+04  7.183339E+03  2.524865E+04
       240  20  4.865197E+05  6.562208E+04  4.540690E+04  4.986919E+04  7.380695E+03  2.141386E+04
       240  21  4.370145E+05  5.423509E+04  3.794652E+04  5.496517E+04  7.578727E+03  1.758956E+04
       240  22  2.048185E+05  3.346297E+02  1.908032E+02  5.430766E+04  1.731707E+02  2.522609E+04
       240  23  2.048372E+05  3.063017E+02  4.126365E+02  4.909720E+04  3.898656E+02  2.139071E+04
       240  24  2.048278E+05  3.784125E+02  7.769807E+02  5.430754E+04  6.072506E+02  1.756583E+04
       240  25 -1.262500E+05 -7.644227E+04 -5.261752E+04  5.342197E+04 -6.833396E+03  2.520355E+04
       240  26 -7.676648E+04 -6.501342E+04 -4.458352E+04  4.832551E+04 -6.597909E+03  2.136758E+04
       240  27 -2.730521E+04 -5.348094E+04 -3.639380E+04  5.365012E+04 -6.361714E+03  1.754210E+04
       241   1  4.053102E+05  4.682486E+04  3.291880E+04  5.495028E+04 -7.750300E+03 -1.536212E+04
       241   2  3.557703E+05  3.547429E+04  2.584996E+04  4.938456E+04 -8.500599E+03 -1.159156E+04
       241   3  3.063767E+05  2.466096E+04  1.937828E+04  5.422707E+04 -9.250873E+03 -7.922141E+03
       241   4  2.048756E+05  3.728073E+02  1.037320E+03  5.430517E+04 -7.721709E+02 -1.533806E+04
       241   5  2.047905E+05  4.867893E+02  1.846290E+03  4.909960E+04 -1.707164E+03 -1.156781E+04
       241   6  2.048804E+05  1.169989E+03  3.380342E+03  5.430239E+04 -2.642184E+03 -7.898704E+03
       241   7  4.481060E+03 -4.608122E+04 -3.084501E+04  5.366023E+04  6.203788E+03 -1.531401E+04
       241   8  5.383341E+04 -3.450183E+04 -2.215779E+04  4.881470E+04  5.084679E+03 -1.154406E+04
       241   9  1.033946E+05 -2.232147E+04 -1.261768E+04  5.437769E+04  3.965464E+03 -7.875263E+03
       241  10  4.053100E+05  4.682459E+04  3.291824E+04  5.495019E+04  2.228709E-08  9.321519E-09
       241  11  3.557701E+05  3.547413E+04  2.584957E+04  4.938448E+04  2.868255E-09  5.147804E-10
       241  12  3.063766E+05  2.466087E+04  1.937800E+04  5.422701E+04 -1.868278E-08  4.365655E-09
       241  13  2.048755E+05  3.725545E+02  1.036877E+03  5.430516E+04 -3.268624E-09  3.574752E-09
       241  14  2.047904E+05  4.866448E+02  1.846033E+03  4.909959E+04 -4.040646E-10  4.520878E-09
       241  15  2.048804E+05  1.169920E+03  3.380212E+03  5.430238E+04  1.665435E-09 -6.132476E-10
       241  16  4.480956E+03 -4.608149E+04 -3.084552E+04  5.366031E+04 -2.473150E-08  2.137662E-09
       241  17  5.383335E+04 -3.450198E+04 -2.215809E+04  4.881475E+04 -3.338739E-09  1.286247E-09
       241  18  1.033945E+05 -2.232154E+04 -1.261783E+04  5.437772E+04  1.775399E-08 -8.557259E-09
       241  19  4.053102E+05  4.682486E+04  3.291880E+04  5.495028E+04  7.750300E+03  1.536212E+04
       241  20  3.557703E+05  3.547429E+04  2.584996E+04  4.938456E+04  8.500599E+03  1.159156E+04
       241  21  3.063767E+05  2.466096E+04  1.937828E+04  5.422707E+04  9.250873E+03  7.922141E+03
       241  22  2.048756E+05  3.728073E+02  1.037320E+03  5.430517E+04  7.721709E+02  1.533806E+04
       241  23  2.047905E+05  4.867893E+02  1.846290E+03  4.909960E+04  1.707164E+03  1.156781E+04
       241  24  2.048804E+05  1.169989E+03  3.380342E+03  5.430239E+04  2.642184E+03  7.898704E+03
       241  25  4.481060E+03 -4.608122E+04 -3.084501E+04  5.366023E+04 -6.203788E+03  1.531401E+04
       241  26  5.383341E+04 -3.450183E+04 -2.215779E+04  4.881470E+04 -5.084679E+03  1.154406E+04
       241  27  1.033946E+05 -2.232147E+04 -1.261768E+04  5.437769E+04 -3.965464E+03  7.875263E+03
       242   1  2.751068E+05  1.719424E+04  1.508314E+04  5.506660E+04 -9.913382E+03 -5.765961E+03
       242   2  2.245684E+05  8.641526E+03  1.020988E+04  4.459766E+04 -1.227722E+04 -2.618135E+03
       242   3  1.762506E+05  8.096546E+03  8.852025E+03  4.444946E+04 -1.463749E+04 -4.848539E+02
       242   4  2.054070E+05  1.129071E+03  4.466696E+03  5.428906E+04 -3.229092E+03 -5.742124E+03
       242   5  2.041369E+05  4.186626E+03  8.168095E+03  4.910336E+04 -7.444193E+03 -2.600965E+03
       242   6  2.054065E+05  1.557343E+04  1.667012E+04  5.423806E+04 -1.165592E+04 -4.744042E+02
       242   7  1.357122E+05 -1.493631E+04 -6.149679E+03  5.351160E+04  3.454479E+03 -5.718301E+03
       242   8  1.837059E+05 -2.681987E+02  6.126415E+03  5.360890E+04 -2.611314E+03 -2.583723E+03
       242   9  2.345634E+05  2.305060E+04  2.448824E+04  6.402712E+04 -8.674208E+03 -4.638607E+02
       242  10  2.751067E+05  1.719418E+04  1.508289E+04  5.506656E+04  2.038972E-08  5.823880E-09
       242  11  2.245682E+05  8.641478E+03  1.020959E+04  4.459764E+04  1.236212E-08  6.604756E-10
       242  12  1.762504E+05  8.096488E+03  8.851622E+03  4.444945E+04 -2.464856E-09 -9.088672E-10
       242  13  2.054070E+05  1.129033E+03  4.466614E+03  5.428904E+04  1.035501E-10  6.326920E-09
       242  14  2.041368E+05  4.186603E+03  8.167978E+03  4.910334E+04 -3.770140E-09 -5.626767E-09
       242  15  2.054064E+05  1.557339E+04  1.666987E+04  5.423805E+04 -1.147570E-09  6.257057E-09
       242  16  1.357122E+05 -1.493635E+04 -6.149763E+03  5.351162E+04 -2.031333E-08  1.374256E-09
       242  17  1.837059E+05 -2.682077E+02  6.126389E+03  5.360889E+04 -1.241155E-08  1.439958E-09
       242  18  2.345633E+05  2.305058E+04  2.448809E+04  6.402711E+04  3.103557E-09  8.273315E-11
       242  19  2.751068E+05  1.719424E+04  1.508314E+04  5.506660E+04  9.913382E+03  5.765961E+03
       242  20  2.245684E+05  8.641526E+03  1.020988E+04  4.459766E+04  1.227722E+04  2.618135E+03
       242  21  1.762506E+05  8.096546E+03  8.852025E+03  4.444946E+04  1.463749E+04  4.848539E+02
       242  22  2.054070E+05  1.129071E+03  4.466696E+03  5.428906E+04  3.229092E+03  5.742124E+03
       242  23  2.041369E+05  4.186626E+03  8.168095E+03  4.910336E+04  7.444193E+03  2.600965E+03
       242  24  2.054065E+05  1.557343E+04  1.667012E+04  5.423806E+04  1.165592E+04  4.744042E+02
       242  25  1.357122E+05 -1.493631E+04 -6.149679E+03  5.351160E+04 -3.454479E+03  5.718301E+03
       242  26  1.837059E+05 -2.681987E+02  6.126415E+03  5.360890E+04  2.611314E+03  2.583723E+03
       242  27  2.345634E+05  2.305060E+04  2.448824E+04  6.402712E+04  8.674208E+03  4.638607E+02
       243   1  7.800204E+04  9.976049E+05  8.086853E+04 -1.664275E+05  2.658776E+02  2.412135E+04
       243   2  1.979091E+04  8.622498E+05  3.314608E+04 -1.410483E+05 -1.629456E+03  4.827564E+03
       243   3 -1.809384E+04  7.343744E+05  3.022435E+03 -1.429799E+05 -8.209320E+03 -1.447065E+04
       243   4  3.464252E+04  8.241393E+05  3.790227E+04 -1.440285E+05  2.682769E+02  2.337665E+04
       243   5  9.088336E+03  8.211547E+05  2.094914E+04 -1.304056E+05 -1.645450E+03  1.263787E+04
       243   6  2.379619E+03  8.241547E+05  1.566364E+04 -1.440913E+05 -8.243133E+03  1.890861E+03
       243   7 -8.717382E+03  6.507020E+05 -5.065958E+03 -1.216357E+05  2.706230E+02  2.263215E+04
       243   8 -1.613936E+03  7.800614E+05  8.752323E+03 -1.197636E+05 -1.661176E+03  2.044766E+04
       243   9  2.285286E+04  9.139437E+05  2.830575E+04 -1.452029E+05 -8.277002E+03  1.825463E+04
       243  10  7.800188E+04  9.976042E+05  8.086744E+04 -1.664275E+05  2.521550E-10  8.841348E-10
       243  11  1.979090E+04  8.622498E+05  3.314604E+04 -1.410483E+05 -1.055682E-10 -3.348267E-09
       243  12 -1.809397E+04  7.343742E+05  3.021915E+03 -1.429800E+05  1.530891E-09  5.392046E-10
       243  13  3.464238E+04  8.241387E+05  3.790125E+04 -1.440285E+05  7.616186E-10 -2.327574E-10
       243  14  9.088290E+03  8.211545E+05  2.094883E+04 -1.304056E+05 -1.925517E-10  2.348009E-09
       243  15  2.379545E+03  8.241547E+05  1.566351E+04 -1.440913E+05  1.090782E-09  4.558291E-09
       243  16 -8.717519E+03  6.507015E+05 -5.066919E+03 -1.216357E+05  4.866912E-10 -8.669233E-10
       243  17 -1.614051E+03  7.800609E+05  8.751533E+03 -1.197635E+05  1.171602E-09 -1.030860E-09
       243  18  2.285270E+04  9.139434E+05  2.830500E+04 -1.452028E+05 -1.417877E-11  1.439088E-09
       243  19  7.800204E+04  9.976049E+05  8.086853E+04 -1.664275E+05 -2.658776E+02 -2.412135E+04
       243  20  1.979091E+04  8.622498E+05  3.314608E+04 -1.410483E+05  1.629456E+03 -4.827564E+03
       243  21 -1.809384E+04  7.343744E+05  3.022435E+03 -1.429799E+05  8.209320E+03  1.447065E+04
       243  22  3.464252E+04  8.241393E+05  3.790227E+04 -1.440285E+05 -2.682769E+02 -2.337665E+04
       243  23  9.088336E+03  8.211547E+05  2.094914E+04 -1.304056E+05  1.645450E+03 -1.263787E+04
       243  24  2.379619E+03  8.241547E+05  1.566364E+04 -1.440913E+05  8.243133E+03 -1.890861E+03
       243  25 -8.717382E+03  6.507020E+05 -5.065958E+03 -1.216357E+05 -2.706230E+02 -2.263215E+04
       243  26 -1.613936E+03  7.800614E+05  8.752323E+03 -1.197636E+05  1.661176E+03 -2.044766E+04
       243  27  2.285286E+04  9.139437E+05  2.830575E+04 -1.452029E+05  8.277002E+03 -1.825463E+04
       244   1 -3.796030E+04  6.487545E+05 -1.206546E+04 -1.455274E+05 -1.364124E+04 -1.671343E+04
       244   2 -6.928589E+04  5.161424E+05 -3.235571E+04 -1.292721E+05 -2.178501E+04 -2.330315E+04
       244   3 -9.600661E+04  3.854450E+05 -4.723901E+04 -1.405582E+05 -2.856141E+04 -2.988758E+04
       244   4  2.393219E+03  8.233373E+05  1.530152E+04 -1.441368E+05 -1.367420E+04 -5.772093E+02
       244   5  1.979530E+03  8.221574E+05  1.816462E+04 -1.303625E+05 -2.181126E+04 -9.667782E+03
       244   6  6.603550E+03  8.233069E+05  2.816702E+04 -1.441282E+05 -2.858127E+04 -1.875439E+04
       244   7  4.274539E+04  9.979510E+05  4.266874E+04 -1.427459E+05 -1.370708E+04  1.556338E+04
       244   8  7.324022E+04  1.128265E+06  6.868288E+04 -1.314534E+05 -2.183755E+04  3.974072E+03
       244   9  1.092035E+05  1.261357E+06  1.035670E+05 -1.477006E+05 -2.860126E+04 -7.613596E+03
       244  10 -3.796058E+04  6.487541E+05 -1.206634E+04 -1.455276E+05  1.756783E-09 -1.631411E-08
       244  11 -6.928654E+04  5.161417E+05 -3.235762E+04 -1.292725E+05 -6.806332E-10  2.665047E-08
       244  12 -9.600772E+04  3.854439E+05 -4.724223E+04 -1.405588E+05 -1.769681E-09  7.344927E-08
       244  13  2.393018E+03  8.233372E+05  1.530117E+04 -1.441368E+05 -1.876687E-10  2.715089E-10
       244  14  1.978994E+03  8.221572E+05  1.816355E+04 -1.303627E+05 -4.321376E-10  1.805680E-09
       244  15  6.602578E+03  8.233063E+05  2.816483E+04 -1.441286E+05 -2.291525E-09  4.351566E-09
       244  16  4.274512E+04  9.979507E+05  4.266793E+04 -1.427457E+05  8.176251E-10  1.639646E-08
       244  17  7.323970E+04  1.128265E+06  6.868196E+04 -1.314534E+05 -4.154482E-09 -3.067739E-08
       244  18  1.092027E+05  1.261357E+06  1.035654E+05 -1.477008E+05 -2.469935E-09 -7.192450E-08
       244  19 -3.796030E+04  6.487545E+05 -1.206546E+04 -1.455274E+05  1.364124E+04  1.671343E+04
       244  20 -6.928589E+04  5.161424E+05 -3.235571E+04 -1.292721E+05  2.178501E+04  2.330315E+04
       244  21 -9.600661E+04  3.854450E+05 -4.723901E+04 -1.405582E+05  2.856141E+04  2.988758E+04
       244  22  2.393219E+03  8.233373E+05  1.530152E+04 -1.441368E+05  1.367420E+04  5.772093E+02
       244  23  1.979530E+03  8.221574E+05  1.816462E+04 -1.303625E+05  2.181126E+04  9.667782E+03
       244  24  6.603550E+03  8.233069E+05  2.816702E+04 -1.441282E+05  2.858127E+04  1.875439E+04
       244  25  4.274539E+04  9.979510E+05  4.266874E+04 -1.427459E+05  1.370708E+04 -1.556338E+04
       244  26  7.324022E+04  1.128265E+06  6.868288E+04 -1.314534E+05  2.183755E+04 -3.974072E+03
       244  27  1.092035E+05  1.261357E+06  1.035670E+05 -1.477006E+05  2.860126E+04  7.613596E+03
       245   1 -1.166010E+05  3.038515E+05 -5.549530E+04 -1.475657E+05 -3.305040E+04 -3.603899E+04
       245   2 -1.259297E+05  1.649241E+05 -6.305207E+04 -9.460064E+04 -3.061110E+04 -3.474698E+04
       245   3 -7.746368E+04  4.024386E+04 -5.700742E+04 -6.794327E+04 -9.568265E+03 -3.342794E+04
       245   4  6.280148E+03  8.272424E+05  3.593393E+04 -1.438737E+05 -3.307206E+04 -2.354621E+04
       245   5  2.990721E+04  8.171449E+05  6.352121E+04 -1.306259E+05 -3.056804E+04 -5.621545E+04
       245   6  1.171803E+05  8.271420E+05  1.282610E+05 -1.436774E+05 -9.469609E+03 -8.885844E+04
       245   7  1.291466E+05  1.350902E+06  1.273540E+05 -1.401783E+05 -3.309356E+04 -1.104321E+04
       245   8  1.857237E+05  1.469778E+06  1.900768E+05 -1.666896E+05 -3.052252E+04 -7.770594E+04
       245   9  3.118031E+05  1.614628E+06  3.135014E+05 -2.195078E+05 -9.357509E+03 -1.443587E+05
       245  10 -1.166025E+05  3.038498E+05 -5.549979E+04 -1.475667E+05 -2.913137E-10 -7.180535E-08
       245  11 -1.259310E+05  1.649226E+05 -6.305610E+04 -9.460150E+04  2.493944E-09 -3.434968E-08
       245  12 -7.746408E+04  4.024263E+04 -5.700970E+04 -6.794353E+04  7.519933E-10  1.438478E-08
       245  13  6.278825E+03  8.272415E+05  3.593083E+04 -1.438743E+05 -6.833973E-10 -3.493036E-11
       245  14  2.990536E+04  8.171412E+05  6.351352E+04 -1.306273E+05 -2.577391E-10  1.552377E-09
       245  15  1.171781E+05  8.271335E+05  1.282460E+05 -1.436781E+05  9.467504E-10  3.499318E-09
       245  16  1.291454E+05  1.350901E+06  1.273517E+05 -1.401786E+05 -2.277470E-09  7.231742E-08
       245  17  1.857211E+05  1.469771E+06  1.900638E+05 -1.666915E+05 -2.600030E-09  3.077346E-08
       245  18  3.117974E+05  1.614606E+06  3.134621E+05 -2.195089E+05 -5.830367E-10 -1.265759E-08
       245  19 -1.166010E+05  3.038515E+05 -5.549530E+04 -1.475657E+05  3.305040E+04  3.603899E+04
       245  20 -1.259297E+05  1.649241E+05 -6.305207E+04 -9.460064E+04  3.061110E+04  3.474698E+04
       245  21 -7.746368E+04  4.024386E+04 -5.700742E+04 -6.794327E+04  9.568265E+03  3.342794E+04
       245  22  6.280148E+03  8.272424E+05  3.593393E+04 -1.438737E+05  3.307206E+04  2.354621E+04
       245  23  2.990721E+04  8.171449E+05  6.352121E+04 -1.306259E+05  3.056804E+04  5.621545E+04
       245  24  1.171803E+05  8.271420E+05  1.282610E+05 -1.436774E+05  9.469609E+03  8.885844E+04
       245  25  1.291466E+05  1.350902E+06  1.273540E+05 -1.401783E+05  3.309356E+04  1.104321E+04
       245  26  1.857237E+05  1.469778E+06  1.900768E+05 -1.666896E+05  3.052252E+04  7.770594E+04
       245  27  3.118031E+05  1.614628E+06  3.135014E+05 -2.195078E+05  9.357509E+03  1.443587E+05
       246   1  1.323606E+06  4.274781E+05  2.087308E+05  4.723303E+05  5.858806E+04  5.459776E+03
       246   2  1.249262E+06  4.193013E+05  1.660146E+05  4.493569E+05  3.893154E+04 -4.087076E+04
       246   3  1.164169E+06  4.105221E+05  1.441832E+05  4.432642E+05  9.940036E+03 -6.242349E+04
       246   4  3.366086E+05  7.781697E+04 -4.061081E+04  2.226168E+05 -2.086550E+04 -2.451818E+04
       246   5  3.484323E+05  9.793019E+04 -1.894505E+04  2.082906E+05  1.873390E+03 -5.486693E+04
       246   6  3.411052E+05  1.090398E+05 -9.957192E+03  2.108478E+05  1.526479E+04 -6.042111E+04
       246   7 -6.493937E+05 -2.717893E+05 -2.899927E+05 -2.673722E+04 -1.001779E+05 -5.444959E+04
       246   8 -5.515472E+05 -2.233760E+05 -2.039360E+05 -3.245326E+04 -3.512617E+04 -6.884242E+04
       246   9 -4.812486E+05 -1.923761E+05 -1.641237E+05 -2.128132E+04  2.058201E+04 -5.842162E+04
       246  10  1.323603E+06  4.274771E+05  2.087243E+05  4.723300E+05 -1.202587E-09 -1.106771E-10
       246  11  1.249260E+06  4.192991E+05  1.660086E+05  4.493582E+05  5.700650E-10 -1.637188E-09
       246  12  1.164167E+06  4.105179E+05  1.441757E+05  4.432647E+05  1.225034E-09 -4.076008E-10
       246  13  3.366080E+05  7.781621E+04 -4.061276E+04  2.226164E+05  4.549533E-10  2.165970E-09
       246  14  3.484315E+05  9.792695E+04 -1.895071E+04  2.082907E+05 -3.109494E-09 -2.449542E-09
       246  15  3.411040E+05  1.090359E+05 -9.964492E+03  2.108486E+05  2.329817E-09  4.634302E-09
       246  16 -6.494053E+05 -2.717952E+05 -2.900171E+05 -2.674161E+04  2.578231E-10  2.549402E-10
       246  17 -5.515498E+05 -2.233814E+05 -2.039472E+05 -3.245521E+04 -2.952389E-10 -1.683849E-09
       246  18 -4.812500E+05 -1.923798E+05 -1.641309E+05 -2.128036E+04 -1.077601E-09 -1.914108E-09
       246  19  1.323606E+06  4.274781E+05  2.087308E+05  4.723303E+05 -5.858806E+04 -5.459776E+03
       246  20  1.249262E+06  4.193013E+05  1.660146E+05  4.493569E+05 -3.893154E+04  4.087076E+04
       246  21  1.164169E+06  4.105221E+05  1.441832E+05  4.432642E+05 -9.940036E+03  6.242349E+04
       246  22  3.366086E+05  7.781697E+04 -4.061081E+04  2.226168E+05  2.086550E+04  2.451818E+04
       246  23  3.484323E+05  9.793019E+04 -1.894505E+04  2.082906E+05 -1.873390E+03  5.486693E+04
       246  24  3.411052E+05  1.090398E+05 -9.957192E+03  2.108478E+05 -1.526479E+04  6.042111E+04
       246  25 -6.493937E+05 -2.717893E+05 -2.899927E+05 -2.673722E+04  1.001779E+05  5.444959E+04
       246  26 -5.515472E+05 -2.233760E+05 -2.039360E+05 -3.245326E+04  3.512617E+04  6.884242E+04
       246  27 -4.812486E+05 -1.923761E+05 -1.641237E+05 -2.128132E+04 -2.058201E+04  5.842162E+04
       247   1  1.118387E+06  3.909210E+05  1.361170E+05  4.287089E+05  1.333926E+04 -5.858420E+04
       247   2  1.051535E+06  3.596396E+05  1.225923E+05  4.019098E+05  1.076646E+04 -5.686012E+04
       247   3  9.730392E+05  3.398113E+05  1.102314E+05  3.886792E+05  7.379794E+03 -5.298846E+04
       247   4  3.420103E+05  1.090811E+05 -7.499662E+03  2.117579E+05  1.554614E+04 -5.775846E+04
       247   5  3.483274E+05  1.045107E+05 -3.948737E+03  2.046815E+05  1.664584E+04 -5.464504E+04
       247   6  3.422690E+05  1.106663E+05 -2.143318E+03  2.111728E+05  1.693103E+04 -4.938271E+04
       247   7 -4.337436E+05 -1.727055E+05 -1.511414E+05 -4.943608E+03  1.775010E+04 -5.693383E+04
       247   8 -3.543635E+05 -1.505720E+05 -1.305077E+05  7.660009E+03  2.251815E+04 -5.243263E+04
       247   9 -2.880819E+05 -1.184396E+05 -1.145308E+05  3.383456E+04  2.647193E+04 -4.578088E+04
       247  10  1.118386E+06  3.909172E+05  1.361103E+05  4.287095E+05  2.268566E-09 -1.037313E-09
       247  11  1.051534E+06  3.596361E+05  1.225860E+05  4.019103E+05  1.539307E-09 -1.678070E-09
       247  12  9.730384E+05  3.398083E+05  1.102260E+05  3.886795E+05 -1.516562E-10  2.340167E-09
       247  13  3.420091E+05  1.090775E+05 -7.506386E+03  2.117587E+05  2.472537E-09 -3.635135E-09
       247  14  3.483263E+05  1.045074E+05 -3.954870E+03  2.046822E+05 -1.284136E-09 -1.414860E-08
       247  15  3.422681E+05  1.106636E+05 -2.148441E+03  2.111735E+05 -1.160011E-09 -8.601445E-10
       247  16 -4.337448E+05 -1.727090E+05 -1.511481E+05 -4.942793E+03  1.007288E-09 -5.252180E-10
       247  17 -3.543648E+05 -1.505751E+05 -1.305138E+05  7.660960E+03  1.444625E-09  4.453244E-09
       247  18 -2.880832E+05 -1.184420E+05 -1.145361E+05  3.383554E+04  1.095690E-09 -1.940807E-09
       247  19  1.118387E+06  3.909210E+05  1.361170E+05  4.287089E+05 -1.333926E+04  5.858420E+04
       247  20  1.051535E+06  3.596396E+05  1.225923E+05  4.019098E+05 -1.076646E+04  5.686012E+04
       247  21  9.730392E+05  3.398113E+05  1.102314E+05  3.886792E+05 -7.379794E+03  5.298846E+04
       247  22  3.420103E+05  1.090811E+05 -7.499662E+03  2.117579E+05 -1.554614E+04  5.775846E+04
       247  23  3.483274E+05  1.045107E+05 -3.948737E+03  2.046815E+05 -1.664584E+04  5.464504E+04
       247  24  3.422690E+05  1.106663E+05 -2.143318E+03  2.111728E+05 -1.693103E+04  4.938271E+04
       247  25 -4.337436E+05 -1.727055E+05 -1.511414E+05 -4.943608E+03 -1.775010E+04  5.693383E+04
       247  26 -3.543635E+05 -1.505720E+05 -1.305077E+05  7.660009E+03 -2.251815E+04  5.243263E+04
       247  27 -2.880819E+05 -1.184396E+05 -1.145308E+05  3.383456E+04 -2.647193E+04  4.578088E+04
       248   1  9.261262E+05  3.225756E+05  1.019402E+05  3.754380E+05  6.711065E+03 -4.948642E+04
       248   2  8.598642E+05  2.905077E+05  8.973354E+04  3.484196E+05  4.744456E+03 -4.392806E+04
       248   3  7.817543E+05  2.703203E+05  7.745100E+04  3.348534E+05  2.706123E+03 -3.818679E+04
       248   4  3.423486E+05  1.106812E+05 -1.604296E+03  2.112376E+05  1.598585E+04 -4.598368E+04
       248   5  3.483287E+05  1.048232E+05 -8.615253E+02  2.044988E+05  1.433184E+04 -4.030490E+04
       248   6  3.423917E+05  1.107840E+05 -4.434367E+02  2.112112E+05  1.260608E+04 -3.444309E+04
       248   7 -2.410635E+05 -1.011774E+05 -1.051579E+05  4.718260E+04  2.525126E+04 -4.248449E+04
       248   8 -1.629305E+05 -8.083538E+04 -9.146464E+04  6.068863E+04  2.391081E+04 -3.668493E+04
       248   9 -9.677148E+04 -4.873500E+04 -7.834492E+04  8.764941E+04  2.249867E+04 -3.070218E+04
       248  10  9.261254E+05  3.225730E+05  1.019356E+05  3.754383E+05  3.576498E-11  2.661049E-09
       248  11  8.598637E+05  2.905056E+05  8.972987E+04  3.484198E+05 -4.319748E-09  7.130768E-10
       248  12  7.817539E+05  2.703188E+05  7.744825E+04  3.348535E+05 -9.720525E-10  5.003329E-09
       248  13  3.423478E+05  1.106789E+05 -1.608751E+03  2.112381E+05 -1.794297E-10  2.640084E-09
       248  14  3.483280E+05  1.048214E+05 -8.649647E+02  2.044993E+05  1.055996E-09  1.402428E-09
       248  15  3.423912E+05  1.107826E+05 -4.459652E+02  2.112115E+05 -1.818533E-09  2.982917E-09
       248  16 -2.410646E+05 -1.011795E+05 -1.051625E+05  4.718347E+04 -2.905897E-09  2.777899E-09
       248  17 -1.629315E+05 -8.083697E+04 -9.146824E+04  6.068933E+04 -2.385644E-09  5.711254E-09
       248  18 -9.677227E+04 -4.873615E+04 -7.834764E+04  8.764996E+04 -1.852223E-09  1.451454E-10
       248  19  9.261262E+05  3.225756E+05  1.019402E+05  3.754380E+05 -6.711065E+03  4.948642E+04
       248  20  8.598642E+05  2.905077E+05  8.973354E+04  3.484196E+05 -4.744456E+03  4.392806E+04
       248  21  7.817543E+05  2.703203E+05  7.745100E+04  3.348534E+05 -2.706123E+03  3.818679E+04
       248  22  3.423486E+05  1.106812E+05 -1.604296E+03  2.112376E+05 -1.598585E+04  4.598368E+04
       248  23  3.483287E+05  1.048232E+05 -8.615253E+02  2.044988E+05 -1.433184E+04  4.030490E+04
       248  24  3.423917E+05  1.107840E+05 -4.434367E+02  2.112112E+05 -1.260608E+04  3.444309E+04
       248  25 -2.410635E+05 -1.011774E+05 -1.051579E+05  4.718260E+04 -2.525126E+04  4.248449E+04
       248  26 -1.629305E+05 -8.083538E+04 -9.146464E+04  6.068863E+04 -2.391081E+04  3.668493E+04
       248  27 -9.677148E+04 -4.873500E+04 -7.834492E+04  8.764941E+04 -2.249867E+04  3.070218E+04
       249   1  7.348827E+05  2.532488E+05  6.891235E+04  3.216902E+05  1.520615E+03 -3.478079E+04
       249   2  6.687482E+05  2.212067E+05  5.654056E+04  2.946849E+05 -6.364536E+02 -2.898888E+04
       249   3  5.907582E+05  2.010373E+05  4.415063E+04  2.811190E+05 -2.800010E+03 -2.318396E+04
       249   4  3.424089E+05  1.107908E+05 -3.101635E+02  2.112125E+05  1.139279E+04 -3.104650E+04
       249   5  3.483518E+05  1.048711E+05 -1.042488E+02  2.044920E+05  9.257694E+03 -2.524485E+04
       249   6  3.424286E+05  1.108190E+05  6.529781E+01  2.112087E+05  7.116119E+03 -1.943020E+04
       249   7 -4.990184E+04 -3.165178E+04 -6.953711E+04  1.008000E+05  2.125831E+04 -2.731472E+04
       249   8  2.806573E+04 -1.145369E+04 -5.675145E+04  1.143429E+05  1.914635E+04 -2.150290E+04
       249   9  9.416692E+04  2.060790E+04 -4.402091E+04  1.413253E+05  1.702792E+04 -1.567808E+04
       249  10  7.348823E+05  2.532475E+05  6.891007E+04  3.216902E+05  3.748677E-09  1.265077E-08
       249  11  6.687480E+05  2.212058E+05  5.653898E+04  2.946849E+05  8.862294E-10  8.837470E-09
       249  12  5.907580E+05  2.010367E+05  4.414960E+04  2.811190E+05  5.001555E-10  5.067728E-09
       249  13  3.424085E+05  1.107898E+05 -3.122191E+02  2.112128E+05  6.883486E-11  3.710807E-09
       249  14  3.483516E+05  1.048703E+05 -1.056078E+02  2.044922E+05 -1.267633E-09 -2.609832E-09
       249  15  3.424285E+05  1.108186E+05  6.449302E+01  2.112089E+05 -7.387221E-10 -5.531485E-10
       249  16 -4.990252E+04 -3.165270E+04 -6.953936E+04  1.008005E+05 -5.132704E-09 -3.736171E-09
       249  17  2.806521E+04 -1.145429E+04 -5.675301E+04  1.143433E+05  5.261191E-10  1.841921E-09
       249  18  9.416654E+04  2.060755E+04 -4.402192E+04  1.413255E+05  2.096596E-09 -8.340260E-09
       249  19  7.348827E+05  2.532488E+05  6.891235E+04  3.216902E+05 -1.520615E+03  3.478079E+04
       249  20  6.687482E+05  2.212067E+05  5.654056E+04  2.946849E+05  6.364536E+02  2.898888E+04
       249  21  5.907582E+05  2.010373E+05  4.415063E+04  2.811190E+05  2.800010E+03  2.318396E+04
       249  22  3.424089E+05  1.107908E+05 -3.101635E+02  2.112125E+05 -1.139279E+04  3.104650E+04
       249  23  3.483518E+05  1.048711E+05 -1.042488E+02  2.044920E+05 -9.257694E+03  2.524485E+04
       249  24  3.424286E+05  1.108190E+05  6.529781E+01  2.112087E+05 -7.116119E+03  1.943020E+04
       249  25 -4.990184E+04 -3.165178E+04 -6.953711E+04  1.008000E+05 -2.125831E+04  2.731472E+04
       249  26  2.806573E+04 -1.145369E+04 -5.675145E+04  1.143429E+05 -1.914635E+04  2.150290E+04
       249  27  9.416692E+04  2.060790E+04 -4.402091E+04  1.413253E+05 -1.702792E+04  1.567808E+04
       250   1  5.439395E+05  1.839804E+05  3.558245E+04  2.679697E+05 -4.092970E+03 -1.981313E+04
       250   2  4.778491E+05  1.519471E+05  2.326243E+04  2.409914E+05 -6.459064E+03 -1.408303E+04
       250   3  3.999235E+05  1.317845E+05  1.107121E+04  2.274493E+05 -8.822545E+03 -8.361434E+03
       250   4  3.424411E+05  1.108227E+05  1.509937E+02  2.112097E+05  5.819536E+03 -1.606015E+04
       250   5  3.483619E+05  1.048846E+05  3.759856E+02  2.044941E+05  3.438562E+03 -1.033508E+04
       250   6  3.424464E+05  1.108200E+05  7.416345E+02  2.112132E+05  1.060185E+03 -4.618536E+03
       250   7  1.409837E+05  3.766844E+04 -3.528189E+04  1.544664E+05  1.572871E+04 -1.230843E+04
       250   8  2.188920E+05  5.782350E+04 -2.251077E+04  1.680038E+05  1.333404E+04 -6.587943E+03
       250   9  2.849730E+05  8.985602E+04 -9.587643E+03  1.949786E+05  1.094194E+04 -8.760081E+02
       250  10  5.439394E+05  1.839799E+05  3.558168E+04  2.679696E+05 -5.993980E-09 -9.792190E-10
       250  11  4.778490E+05  1.519469E+05  2.326198E+04  2.409913E+05 -2.837597E-09  3.646904E-09
       250  12  3.999234E+05  1.317844E+05  1.107094E+04  2.274492E+05  3.421658E-09 -1.565801E-09
       250  13  3.424410E+05  1.108225E+05  1.504452E+02  2.112098E+05  1.103850E-09  3.899027E-12
       250  14  3.483619E+05  1.048845E+05  3.757626E+02  2.044941E+05 -3.549572E-09  7.228519E-09
       250  15  3.424464E+05  1.108200E+05  7.415923E+02  2.112132E+05  7.153209E-10  6.409937E-10
       250  16  1.409834E+05  3.766821E+04 -3.528264E+04  1.544665E+05  6.084660E-09 -1.061602E-09
       250  17  2.188918E+05  5.782340E+04 -2.251118E+04  1.680039E+05 -1.049424E-09  3.485990E-09
       250  18  2.849728E+05  8.985599E+04 -9.587870E+03  1.949786E+05 -5.368851E-09 -3.611750E-09
       250  19  5.439395E+05  1.839804E+05  3.558245E+04  2.679697E+05  4.092970E+03  1.981313E+04
       250  20  4.778491E+05  1.519471E+05  2.326243E+04  2.409914E+05  6.459064E+03  1.408303E+04
       250  21  3.999235E+05  1.317845E+05  1.107121E+04  2.274493E+05  8.822545E+03  8.361434E+03
       250  22  3.424411E+05  1.108227E+05  1.509937E+02  2.112097E+05 -5.819536E+03  1.606015E+04
       250  23  3.483619E+05  1.048846E+05  3.759856E+02  2.044941E+05 -3.438562E+03  1.033508E+04
       250  24  3.424464E+05  1.108200E+05  7.416345E+02  2.112132E+05 -1.060185E+03  4.618536E+03
       250  25  1.409837E+05  3.766844E+04 -3.528189E+04  1.544664E+05 -1.572871E+04  1.230843E+04
       250  26  2.188920E+05  5.782350E+04 -2.251077E+04  1.680038E+05 -1.333404E+04  6.587943E+03
       250  27  2.849730E+05  8.985602E+04 -9.587643E+03  1.949786E+05 -1.094194E+04  8.760081E+02
       251   1  3.531350E+05  1.147394E+05  2.678277E+03  2.143363E+05 -1.025583E+04 -5.048979E+03
       251   2  2.869969E+05  8.269027E+04 -9.093164E+03  1.873684E+05 -1.317460E+04  4.088745E+02
       251   3  2.091355E+05  6.259597E+04 -2.028773E+04  1.738363E+05 -1.605456E+04  5.765530E+03
       251   4  3.424743E+05  1.108144E+05  1.003877E+03  2.112251E+05 -3.612326E+02 -1.301504E+03
       251   5  3.483249E+05  1.048555E+05  1.843590E+03  2.044942E+05 -3.453767E+03  4.090253E+03
       251   6  3.424807E+05  1.108848E+05  3.397413E+03  2.111968E+05 -6.507605E+03  9.380811E+03
       251   7  3.318140E+05  1.068896E+05 -6.700742E+02  2.081140E+05  9.533094E+03  2.445862E+03
       251   8  4.096571E+05  1.270211E+05  1.278063E+04  2.216217E+05  6.268092E+03  7.772015E+03
       251   9  4.758462E+05  1.591759E+05  2.708273E+04  2.485652E+05  3.041631E+03  1.299695E+04
       251  10  3.531348E+05  1.147393E+05  2.678032E+03  2.143363E+05 -9.522163E-09 -4.346304E-09
       251  11  2.869967E+05  8.269023E+04 -9.093490E+03  1.873684E+05 -6.639916E-09 -5.714960E-09
       251  12  2.091353E+05  6.259586E+04 -2.028827E+04  1.738363E+05 -4.148818E-09  4.707286E-09
       251  13  3.424743E+05  1.108144E+05  1.003874E+03  2.112251E+05 -9.395900E-10 -7.844932E-09
       251  14  3.483249E+05  1.048554E+05  1.843536E+03  2.044942E+05  4.923816E-09 -4.061344E-10
       251  15  3.424807E+05  1.108847E+05  3.397168E+03  2.111968E+05 -3.233098E-09 -2.313395E-09
       251  16  3.318139E+05  1.068895E+05 -6.702561E+02  2.081140E+05  8.221395E-09  3.600073E-09
       251  17  4.096570E+05  1.270210E+05  1.278044E+04  2.216217E+05  5.933806E-09  7.407714E-09
       251  18  4.758462E+05  1.591757E+05  2.708239E+04  2.485651E+05  1.311535E-09  4.967102E-09
       251  19  3.531350E+05  1.147394E+05  2.678277E+03  2.143363E+05  1.025583E+04  5.048979E+03
       251  20  2.869969E+05  8.269027E+04 -9.093164E+03  1.873684E+05  1.317460E+04 -4.088745E+02
       251  21  2.091355E+05  6.259597E+04 -2.028773E+04  1.738363E+05  1.605456E+04 -5.765530E+03
       251  22  3.424743E+05  1.108144E+05  1.003877E+03  2.112251E+05  3.612326E+02  1.301504E+03
       251  23  3.483249E+05  1.048555E+05  1.843590E+03  2.044942E+05  3.453767E+03 -4.090253E+03
       251  24  3.424807E+05  1.108848E+05  3.397413E+03  2.111968E+05  6.507605E+03 -9.380811E+03
       251  25  3.318140E+05  1.068896E+05 -6.700742E+02  2.081140E+05 -9.533094E+03 -2.445862E+03
       251  26  4.096571E+05  1.270211E+05  1.278063E+04  2.216217E+05 -6.268092E+03 -7.772015E+03
       251  27  4.758462E+05  1.591759E+05  2.708273E+04  2.485652E+05 -3.041631E+03 -1.299695E+04
       252   1  1.622462E+05  4.568638E+04 -2.788820E+04  1.610448E+05 -1.808726E+04  8.795085E+03
       252   2  9.649073E+04  1.333010E+04 -3.751657E+04  1.330377E+05 -2.219511E+04  1.306041E+04
       252   3  1.992859E+04 -5.335591E+03 -4.501276E+04  1.180024E+05 -2.585911E+04  1.615679E+04
       252   4  3.426871E+05  1.108285E+05  4.533195E+03  2.112900E+05 -8.392827E+03  1.246583E+04
       252   5  3.481135E+05  1.053520E+05  8.308556E+03  2.042096E+05 -1.450004E+04  1.597305E+04
       252   6  3.431231E+05  1.139606E+05  1.579979E+04  2.100983E+05 -2.016375E+04  1.831150E+04
       252   7  5.231624E+05  1.759737E+05  3.695386E+04  2.615488E+05  1.304613E+03  1.613770E+04
       252   8  5.998015E+05  1.973797E+05  5.413130E+04  2.754081E+05 -6.801684E+03  1.888695E+04
       252   9  6.664236E+05  2.332660E+05  7.660740E+04  3.022381E+05 -1.446528E+04  2.046741E+04
       252  10  1.622458E+05  4.568620E+04 -2.788896E+04  1.610449E+05 -1.622394E-08 -6.290268E-09
       252  11  9.649016E+04  1.332978E+04 -3.751782E+04  1.330379E+05 -7.310956E-09 -6.776098E-09
       252  12  1.992780E+04 -5.336051E+03 -4.501451E+04  1.180027E+05  1.406858E-08  7.498978E-09
       252  13  3.426870E+05  1.108283E+05  4.532771E+03  2.112901E+05 -3.876851E-09 -1.237466E-09
       252  14  3.481132E+05  1.053517E+05  8.307681E+03  2.042098E+05 -2.658924E-09 -3.679484E-09
       252  15  3.431226E+05  1.139601E+05  1.579840E+04  2.100986E+05 -2.320439E-09  1.157084E-09
       252  16  5.231623E+05  1.759734E+05  3.695336E+04  2.615488E+05  1.055106E-08  6.900442E-09
       252  17  5.998014E+05  1.973794E+05  5.413054E+04  2.754082E+05 -4.862149E-09 -7.591416E-09
       252  18  6.664233E+05  2.332655E+05  7.660622E+04  3.022383E+05 -1.791627E-08 -1.532254E-08
       252  19  1.622462E+05  4.568638E+04 -2.788820E+04  1.610448E+05  1.808726E+04 -8.795085E+03
       252  20  9.649073E+04  1.333010E+04 -3.751657E+04  1.330377E+05  2.219511E+04 -1.306041E+04
       252  21  1.992859E+04 -5.335591E+03 -4.501276E+04  1.180024E+05  2.585911E+04 -1.615679E+04
       252  22  3.426871E+05  1.108285E+05  4.533195E+03  2.112900E+05  8.392827E+03 -1.246583E+04
       252  23  3.481135E+05  1.053520E+05  8.308556E+03  2.042096E+05  1.450004E+04 -1.597305E+04
       252  24  3.431231E+05  1.139606E+05  1.579979E+04  2.100983E+05  2.016375E+04 -1.831150E+04
       252  25  5.231624E+05  1.759737E+05  3.695386E+04  2.615488E+05 -1.304613E+03 -1.613770E+04
       252  26  5.998015E+05  1.973797E+05  5.413130E+04  2.754081E+05  6.801684E+03 -1.888695E+04
       252  27  6.664236E+05  2.332660E+05  7.660740E+04  3.022381E+05  1.446528E+04 -2.046741E+04
       253   1 -2.886112E+04 -1.966039E+04 -4.948301E+04  1.101795E+05 -3.096208E+04  1.736985E+04
       253   2 -8.065601E+04 -5.780549E+04 -5.304958E+04  5.768324E+04 -2.778854E+04  1.581852E+04
       253   3 -1.298292E+05 -4.781953E+04 -4.808099E+04  7.591033E+03 -1.951980E+04  7.933524E+02
       253   4  3.457004E+05  1.132939E+05  2.098125E+04  2.112432E+05 -2.357947E+04  2.016280E+04
       253   5  3.468098E+05  1.198451E+05  3.987430E+04  1.975889E+05 -4.342331E+04  9.899486E+03
       253   6  3.550873E+05  1.790688E+05  8.554250E+04  1.863393E+05 -5.817483E+04 -1.383281E+04
       253   7  7.204137E+05  2.462614E+05  9.144160E+04  3.123642E+05 -1.619198E+04  2.295749E+04
       253   8  7.744640E+05  2.975256E+05  1.327884E+05  3.375883E+05 -5.906963E+04  3.974816E+03
       253   9  8.402330E+05  4.060093E+05  2.191486E+05  3.652244E+05 -9.686211E+04 -2.847807E+04
       253  10 -2.886223E+04 -1.966097E+04 -4.948538E+04  1.101800E+05  8.877000E-10  8.799507E-09
       253  11 -8.065690E+04 -5.780597E+04 -5.305150E+04  5.768359E+04  1.233064E-09  3.604108E-09
       253  12 -1.298296E+05 -4.781964E+04 -4.808171E+04  7.591046E+03  1.961648E-09 -1.974145E-09
       253  13  3.456997E+05  1.132933E+05  2.097944E+04  2.112436E+05  9.704039E-10 -4.537321E-09
       253  14  3.468078E+05  1.198445E+05  3.987057E+04  1.975892E+05  3.620892E-09  1.827324E-09
       253  15  3.550836E+05  1.790677E+05  8.553578E+04  1.863387E+05  8.562276E-10 -2.511228E-11
       253  16  7.204133E+05  2.462607E+05  9.144012E+04  3.123645E+05 -4.130245E-10  1.031574E-09
       253  17  7.744603E+05  2.975247E+05  1.327819E+05  3.375885E+05 -1.237637E-09  2.768890E-09
       253  18  8.402227E+05  4.060059E+05  2.191295E+05  3.652222E+05 -1.301783E-09  6.919124E-10
       253  19 -2.886112E+04 -1.966039E+04 -4.948301E+04  1.101795E+05  3.096208E+04 -1.736985E+04
       253  20 -8.065601E+04 -5.780549E+04 -5.304958E+04  5.768324E+04  2.778854E+04 -1.581852E+04
       253  21 -1.298292E+05 -4.781953E+04 -4.808099E+04  7.591033E+03  1.951980E+04 -7.933524E+02
       253  22  3.457004E+05  1.132939E+05  2.098125E+04  2.112432E+05  2.357947E+04 -2.016280E+04
       253  23  3.468098E+05  1.198451E+05  3.987430E+04  1.975889E+05  4.342331E+04 -9.899486E+03
       253  24  3.550873E+05  1.790688E+05  8.554250E+04  1.863393E+05  5.817483E+04  1.383281E+04
       253  25  7.204137E+05  2.462614E+05  9.144160E+04  3.123642E+05  1.619198E+04 -2.295749E+04
       253  26  7.744640E+05  2.975256E+05  1.327884E+05  3.375883E+05  5.906963E+04 -3.974816E+03
       253  27  8.402330E+05  4.060093E+05  2.191486E+05  3.652244E+05  9.686211E+04  2.847807E+04
       254   1  1.986561E+05  2.780984E+04  2.239257E+04  2.639973E+03 -1.270123E+04 -2.052824E+03
       254   2  1.853713E+05  4.466874E+04  3.007993E+04  1.973739E+03 -9.584082E+03 -6.088352E+03
       254   3  1.661144E+05  3.952772E+04  3.023448E+04  1.181404E+04 -6.482771E+03 -5.700115E+03
       254   4  1.072361E+04 -1.896073E+04 -2.382067E+04  8.785161E+03 -1.630354E+04 -2.065737E+03
       254   5  1.393242E+04  2.284078E+03 -1.050157E+04  3.495957E+03 -1.063914E+04 -6.092317E+03
       254   6  1.072497E+04  1.083397E+03 -6.485776E+03  8.713555E+03 -4.990470E+03 -5.694636E+03
       254   7 -1.771766E+05 -6.573377E+04 -7.003644E+04  1.492846E+04 -1.990476E+04 -2.078724E+03
       254   8 -1.574794E+05 -4.010268E+04 -5.108510E+04  5.017728E+03 -1.169391E+04 -6.096287E+03
       254   9 -1.446423E+05 -3.736262E+04 -4.320769E+04  5.613829E+03 -3.498540E+03 -5.689172E+03
       254  10  1.986559E+05  2.780979E+04  2.239226E+04  2.639952E+03 -5.575767E-09  3.335136E-09
       254  11  1.853712E+05  4.466868E+04  3.007969E+04  1.973692E+03  2.988640E-09  1.824350E-08
       254  12  1.661144E+05  3.952767E+04  3.023434E+04  1.181401E+04 -1.952257E-09  7.146863E-09
       254  13  1.072332E+04 -1.896081E+04 -2.382118E+04  8.785134E+03 -1.365892E-11 -4.317947E-09
       254  14  1.393229E+04  2.284008E+03 -1.050185E+04  3.495905E+03 -1.102110E-09 -7.853911E-09
       254  15  1.072493E+04  1.083355E+03 -6.485883E+03  8.713532E+03 -2.788118E-10  2.909348E-09
       254  16 -1.771771E+05 -6.573388E+04 -7.003719E+04  1.492843E+04  3.877053E-09  8.083993E-10
       254  17 -1.574796E+05 -4.010276E+04 -5.108543E+04  5.017671E+03  1.172494E-10  1.054682E-08
       254  18 -1.446423E+05 -3.736266E+04 -4.320777E+04  5.613813E+03  5.172591E-10 -3.026110E-10
       254  19  1.986561E+05  2.780984E+04  2.239257E+04  2.639973E+03  1.270123E+04  2.052824E+03
       254  20  1.853713E+05  4.466874E+04  3.007993E+04  1.973739E+03  9.584082E+03  6.088352E+03
       254  21  1.661144E+05  3.952772E+04  3.023448E+04  1.181404E+04  6.482771E+03  5.700115E+03
       254  22  1.072361E+04 -1.896073E+04 -2.382067E+04  8.785161E+03  1.630354E+04  2.065737E+03
       254  23  1.393242E+04  2.284078E+03 -1.050157E+04  3.495957E+03  1.063914E+04  6.092317E+03
       254  24  1.072497E+04  1.083397E+03 -6.485776E+03  8.713555E+03  4.990470E+03  5.694636E+03
       254  25 -1.771766E+05 -6.573377E+04 -7.003644E+04  1.492846E+04  1.990476E+04  2.078724E+03
       254  26 -1.574794E+05 -4.010268E+04 -5.108510E+04  5.017728E+03  1.169391E+04  6.096287E+03
       254  27 -1.446423E+05 -3.736262E+04 -4.320769E+04  5.613829E+03  3.498540E+03  5.689172E+03
       255   1  1.484386E+05  3.202506E+04  2.709122E+04  8.589393E+03 -4.155953E+03 -4.686187E+03
       255   2  1.326270E+05  2.999170E+04  2.574898E+04  3.670299E+03 -2.935174E+03 -4.278353E+03
       255   3  1.160583E+05  2.591704E+04  2.308339E+04  9.327265E+03 -1.715652E+03 -3.589677E+03
       255   4  1.197758E+04 -1.733271E+03 -5.268713E+03  8.755624E+03 -4.003957E+03 -4.685688E+03
       255   5  1.237094E+04  2.500021E+02 -2.712371E+03  3.463929E+03 -2.621661E+03 -4.277212E+03
       255   6  1.197849E+04  1.636540E+02 -1.591809E+03  8.748435E+03 -1.240593E+03 -3.587869E+03
       255   7 -1.244663E+05 -3.549294E+04 -3.762994E+04  8.921803E+03 -3.851994E+03 -4.685189E+03
       255   8 -1.078718E+05 -2.949273E+04 -3.117472E+04  3.257585E+03 -2.308209E+03 -4.276070E+03
       255   9 -9.209138E+04 -2.559051E+04 -2.626776E+04  8.169693E+03 -7.656141E+02 -3.586063E+03
       255  10  1.484385E+05  3.202503E+04  2.709115E+04  8.589377E+03 -1.407093E-08 -5.804929E-09
       255  11  1.326270E+05  2.999168E+04  2.574893E+04  3.670289E+03  8.718379E-10 -3.251983E-09
       255  12  1.160583E+05  2.591703E+04  2.308336E+04  9.327260E+03  1.181632E-08  9.363872E-09
       255  13  1.197755E+04 -1.733298E+03 -5.268784E+03  8.755609E+03 -3.457684E-11  1.174355E-08
       255  14  1.237092E+04  2.499807E+02 -2.712418E+03  3.463920E+03 -5.722261E-10 -2.900287E-08
       255  15  1.197848E+04  1.636398E+02 -1.591836E+03  8.748431E+03 -1.243096E-09  1.236284E-08
       255  16 -1.244663E+05 -3.549297E+04 -3.763001E+04  8.921788E+03  1.323908E-08 -9.421255E-09
       255  17 -1.078718E+05 -2.949275E+04 -3.117477E+04  3.257577E+03 -1.552052E-09 -7.370431E-09
       255  18 -9.209138E+04 -2.559053E+04 -2.626779E+04  8.169690E+03 -1.367481E-08  2.793427E-09
       255  19  1.484386E+05  3.202506E+04  2.709122E+04  8.589393E+03  4.155953E+03  4.686187E+03
       255  20  1.326270E+05  2.999170E+04  2.574898E+04  3.670299E+03  2.935174E+03  4.278353E+03
       255  21  1.160583E+05  2.591704E+04  2.308339E+04  9.327265E+03  1.715652E+03  3.589677E+03
       255  22  1.197758E+04 -1.733271E+03 -5.268713E+03  8.755624E+03  4.003957E+03  4.685688E+03
       255  23  1.237094E+04  2.500021E+02 -2.712371E+03  3.463929E+03  2.621661E+03  4.277212E+03
       255  24  1.197849E+04  1.636540E+02 -1.591809E+03  8.748435E+03  1.240593E+03  3.587869E+03
       255  25 -1.244663E+05 -3.549294E+04 -3.762994E+04  8.921803E+03  3.851994E+03  4.685189E+03
       255  26 -1.078718E+05 -2.949273E+04 -3.117472E+04  3.257585E+03  2.308209E+03  4.276070E+03
       255  27 -9.209138E+04 -2.559051E+04 -2.626776E+04  8.169693E+03  7.656141E+02  3.586063E+03
       256   1  9.729220E+04  2.095979E+04  1.888363E+04  8.970755E+03 -1.383209E+03 -3.140438E+03
       256   2  8.119903E+04  1.711594E+04  1.566848E+04  3.666760E+03 -1.065220E+03 -2.453580E+03
       256   3  6.493428E+04  1.315285E+04  1.219475E+04  8.941544E+03 -7.473963E+02 -1.748936E+03
       256   4  1.211554E+04 -9.878332E+01 -1.233728E+03  8.751683E+03 -9.932941E+02 -3.138940E+03
       256   5  1.220248E+04  5.045111E+01 -6.613988E+02  3.461904E+03 -6.651029E+02 -2.452018E+03
       256   6  1.211606E+04  7.873003E+01 -3.546972E+02  8.750978E+03 -3.370688E+02 -1.747309E+03
       256   7 -7.305445E+04 -2.115788E+04 -2.135158E+04  8.532635E+03 -6.034327E+02 -3.137442E+03
       256   8 -5.678968E+04 -1.701538E+04 -1.699161E+04  3.257067E+03 -2.650303E+02 -2.450456E+03
       256   9 -4.069960E+04 -1.299559E+04 -1.290434E+04  8.560424E+03  7.322392E+01 -1.745682E+03
       256  10  9.729219E+04  2.095978E+04  1.888360E+04  8.970752E+03  7.344405E-09 -2.449363E-09
       256  11  8.119902E+04  1.711593E+04  1.566847E+04  3.666758E+03  2.380806E-09 -2.323155E-09
       256  12  6.493427E+04  1.315284E+04  1.219475E+04  8.941543E+03 -6.680214E-09 -5.541741E-09
       256  13  1.211553E+04 -9.879416E+01 -1.233749E+03  8.751681E+03 -1.077093E-09  2.322166E-09
       256  14  1.220248E+04  5.044454E+01 -6.614109E+02  3.461903E+03 -2.136493E-09 -6.545816E-09
       256  15  1.211606E+04  7.872672E+01 -3.547032E+02  8.750977E+03 -4.029951E-10 -3.265136E-09
       256  16 -7.305446E+04 -2.115789E+04 -2.135160E+04  8.532634E+03 -8.414555E-09 -5.172788E-09
       256  17 -5.678969E+04 -1.701539E+04 -1.699162E+04  3.257067E+03 -1.306761E-09  1.140714E-08
       256  18 -4.069960E+04 -1.299559E+04 -1.290435E+04  8.560425E+03  4.648412E-09  1.348192E-08
       256  19  9.729220E+04  2.095979E+04  1.888363E+04  8.970755E+03  1.383209E+03  3.140438E+03
       256  20  8.119903E+04  1.711594E+04  1.566848E+04  3.666760E+03  1.065220E+03  2.453580E+03
       256  21  6.493428E+04  1.315285E+04  1.219475E+04  8.941544E+03  7.473963E+02  1.748936E+03
       256  22  1.211554E+04 -9.878332E+01 -1.233728E+03  8.751683E+03  9.932941E+02  3.138940E+03
       256  23  1.220248E+04  5.045111E+01 -6.613988E+02  3.461904E+03  6.651029E+02  2.452018E+03
       256  24  1.211606E+04  7.873003E+01 -3.546972E+02  8.750978E+03  3.370688E+02  1.747309E+03
       256  25 -7.305445E+04 -2.115788E+04 -2.135158E+04  8.532635E+03  6.034327E+02  3.137442E+03
       256  26 -5.678968E+04 -1.701538E+04 -1.699161E+04  3.257067E+03  2.650303E+02  2.450456E+03
       256  27 -4.069960E+04 -1.299559E+04 -1.290434E+04  8.560424E+03 -7.322392E+01  1.745682E+03
       257   1  4.605416E+04  8.435402E+03  7.731539E+03  8.856468E+03 -6.896489E+02 -1.336172E+03
       257   2  2.992413E+04  4.418649E+03  4.125304E+03  3.521321E+03 -6.560286E+02 -6.325566E+02
       257   3  1.370139E+04  4.707104E+02  4.914368E+02  8.763113E+03 -6.224372E+02  7.209351E+01
       257   4  1.213435E+04  5.519611E+01 -2.482116E+02  8.750815E+03 -2.847215E+02 -1.334556E+03
       257   5  1.218094E+04  2.988130E+01 -7.422967E+01  3.462295E+03 -2.505133E+02 -6.309326E+02
       257   6  1.213448E+04  7.329417E+01  7.172188E+01  8.750732E+03 -2.163330E+02  7.372662E+01
       257   7 -2.178441E+04 -8.325092E+03 -8.228041E+03  8.645166E+03  1.201839E+02 -1.332940E+03
       257   8 -5.561953E+03 -4.358909E+03 -4.273784E+03  3.403269E+03  1.549905E+02 -6.293087E+02
       257   9  1.056758E+04 -3.241222E+02 -3.479926E+02  8.738350E+03  1.897701E+02  7.535972E+01
       257  10  4.605416E+04  8.435400E+03  7.731535E+03  8.856468E+03  1.623195E-10 -8.645186E-09
       257  11  2.992413E+04  4.418649E+03  4.125302E+03  3.521321E+03 -6.106340E-09  5.506058E-09
       257  12  1.370139E+04  4.707103E+02  4.914361E+02  8.763113E+03 -1.339884E-08 -3.412899E-09
       257  13  1.213435E+04  5.519417E+01 -2.482151E+02  8.750814E+03 -2.166967E-09  3.201028E-09
       257  14  1.218094E+04  2.988086E+01 -7.423054E+01  3.462295E+03 -1.616130E-09 -1.174564E-08
       257  15  1.213448E+04  7.329415E+01  7.172178E+01  8.750732E+03 -1.225660E-09 -7.651601E-09
       257  16 -2.178441E+04 -8.325094E+03 -8.228044E+03  8.645166E+03 -4.490214E-10  8.037026E-09
       257  17 -5.561953E+03 -4.358910E+03 -4.273785E+03  3.403270E+03  6.611886E-09  1.519877E-08
       257  18  1.056758E+04 -3.241222E+02 -3.479927E+02  8.738350E+03  1.295264E-08  2.532139E-09
       257  19  4.605416E+04  8.435402E+03  7.731539E+03  8.856468E+03  6.896489E+02  1.336172E+03
       257  20  2.992413E+04  4.418649E+03  4.125304E+03  3.521321E+03  6.560286E+02  6.325566E+02
       257  21  1.370139E+04  4.707104E+02  4.914368E+02  8.763113E+03  6.224372E+02 -7.209351E+01
       257  22  1.213435E+04  5.519611E+01 -2.482116E+02  8.750815E+03  2.847215E+02  1.334556E+03
       257  23  1.218094E+04  2.988130E+01 -7.422967E+01  3.462295E+03  2.505133E+02  6.309326E+02
       257  24  1.213448E+04  7.329417E+01  7.172188E+01  8.750732E+03  2.163330E+02 -7.372662E+01
       257  25 -2.178441E+04 -8.325092E+03 -8.228041E+03  8.645166E+03 -1.201839E+02  1.332940E+03
       257  26 -5.561953E+03 -4.358909E+03 -4.273784E+03  3.403269E+03 -1.549905E+02  6.293087E+02
       257  27  1.056758E+04 -3.241222E+02 -3.479926E+02  8.738350E+03 -1.897701E+02 -7.535972E+01
       258   1 -5.185775E+03 -4.228472E+03 -4.001372E+03  8.709160E+03 -6.440838E+02  4.824427E+02
       258   2 -2.133648E+04 -8.266077E+03 -7.584230E+03  3.369730E+03 -8.180576E+02  1.186291E+03
       258   3 -3.753749E+04 -1.217814E+04 -1.104515E+04  8.607720E+03 -9.919749E+02  1.889008E+03
       258   4  1.214382E+04  6.769197E+01  1.491580E+02  8.750896E+03 -2.379562E+02  4.840741E+02
       258   5  1.216903E+04  2.156065E+01  3.462042E+02  3.462131E+03 -4.125986E+02  1.187907E+03
       258   6  1.214356E+04  1.010444E+02  6.655969E+02  8.750750E+03 -5.871888E+02  1.890611E+03
       258   7  2.947369E+04  4.363835E+03  4.299668E+03  8.792633E+03  1.681826E+02  4.857054E+02
       258   8  4.567557E+04  8.309118E+03  8.276561E+03  3.554537E+03 -7.117769E+00  1.189524E+03
       258   9  6.182689E+04  1.238005E+04  1.237617E+04  8.893790E+03 -1.823705E+02  1.892213E+03
       258  10 -5.185776E+03 -4.228473E+03 -4.001374E+03  8.709160E+03 -2.133630E-09  6.727385E-10
       258  11 -2.133648E+04 -8.266079E+03 -7.584234E+03  3.369730E+03  4.711052E-09 -2.927097E-09
       258  12 -3.753750E+04 -1.217814E+04 -1.104516E+04  8.607721E+03 -6.920783E-09 -1.436292E-09
       258  13  1.214382E+04  6.769171E+01  1.491575E+02  8.750896E+03 -1.934361E-11  4.944518E-09
       258  14  1.216903E+04  2.155909E+01  3.462012E+02  3.462132E+03 -1.052182E-09 -1.049466E-08
       258  15  1.214356E+04  1.010405E+02  6.655895E+02  8.750751E+03  4.524849E-10 -4.539954E-09
       258  16  2.947369E+04  4.363834E+03  4.299667E+03  8.792633E+03  1.308856E-09 -4.765180E-09
       258  17  4.567557E+04  8.309116E+03  8.276558E+03  3.554537E+03 -2.770955E-09 -2.450306E-08
       258  18  6.182689E+04  1.238004E+04  1.237617E+04  8.893790E+03  5.808783E-09 -1.329737E-08
       258  19 -5.185775E+03 -4.228472E+03 -4.001372E+03  8.709160E+03  6.440838E+02 -4.824427E+02
       258  20 -2.133648E+04 -8.266077E+03 -7.584230E+03  3.369730E+03  8.180576E+02 -1.186291E+03
       258  21 -3.753749E+04 -1.217814E+04 -1.104515E+04  8.607720E+03  9.919749E+02 -1.889008E+03
       258  22  1.214382E+04  6.769197E+01  1.491580E+02  8.750896E+03  2.379562E+02 -4.840741E+02
       258  23  1.216903E+04  2.156065E+01  3.462042E+02  3.462131E+03  4.125986E+02 -1.187907E+03
       258  24  1.214356E+04  1.010444E+02  6.655969E+02  8.750750E+03  5.871888E+02 -1.890611E+03
       258  25  2.947369E+04  4.363835E+03  4.299668E+03  8.792633E+03 -1.681826E+02 -4.857054E+02
       258  26  4.567557E+04  8.309118E+03  8.276561E+03  3.554537E+03  7.117769E+00 -1.189524E+03
       258  27  6.182689E+04  1.238005E+04  1.237617E+04  8.893790E+03  1.823705E+02 -1.892213E+03
       259   1 -5.639359E+04 -1.692372E+04 -1.539685E+04  8.616639E+03 -1.138478E+03  2.301204E+03
       259   2 -7.264059E+04 -2.099395E+04 -1.851661E+04  3.211995E+03 -1.902684E+03  3.001632E+03
       259   3 -8.874931E+04 -2.451941E+04 -2.102385E+04  8.383577E+03 -2.666696E+03  3.682905E+03
       259   4  1.218537E+04  4.888288E+01  8.837847E+02  8.751038E+03 -7.278769E+02  2.302815E+03
       259   5  1.211497E+04 -2.871050E+01  1.544910E+03  3.462201E+03 -1.503213E+03  3.003169E+03
       259   6  1.218473E+04  4.404162E+02  2.826288E+03  8.749499E+03 -2.278373E+03  3.684370E+03
       259   7  8.076865E+04  1.702115E+04  1.716409E+04  8.885448E+03 -3.172311E+02  2.304426E+03
       259   8  9.687712E+04  2.093601E+04  2.160593E+04  3.712434E+03 -1.103687E+03  3.004706E+03
       259   9  1.131281E+05  2.539952E+04  2.667572E+04  9.115471E+03 -1.889988E+03  3.685835E+03
       259  10 -5.639359E+04 -1.692373E+04 -1.539686E+04  8.616641E+03 -2.841332E-08 -6.372430E-09
       259  11 -7.264060E+04 -2.099396E+04 -1.851663E+04  3.212000E+03 -6.702119E-09 -1.291736E-08
       259  12 -8.874932E+04 -2.451943E+04 -2.102389E+04  8.383585E+03  1.142910E-08 -6.327405E-09
       259  13  1.218537E+04  4.887705E+01  8.837737E+02  8.751039E+03  1.212582E-11 -3.074057E-09
       259  14  1.211496E+04 -2.872080E+01  1.544889E+03  3.462204E+03 -5.945106E-10  2.477842E-09
       259  15  1.218472E+04  4.404002E+02  2.826253E+03  8.749505E+03  2.394076E-10  5.424851E-09
       259  16  8.076865E+04  1.702115E+04  1.716408E+04  8.885448E+03  2.794979E-08  5.423669E-09
       259  17  9.687712E+04  2.093600E+04  2.160591E+04  3.712437E+03  7.930013E-09 -1.294025E-08
       259  18  1.131281E+05  2.539950E+04  2.667569E+04  9.115476E+03 -1.281255E-08  1.262264E-08
       259  19 -5.639359E+04 -1.692372E+04 -1.539685E+04  8.616639E+03  1.138478E+03 -2.301204E+03
       259  20 -7.264059E+04 -2.099395E+04 -1.851661E+04  3.211995E+03  1.902684E+03 -3.001632E+03
       259  21 -8.874931E+04 -2.451941E+04 -2.102385E+04  8.383577E+03  2.666696E+03 -3.682905E+03
       259  22  1.218537E+04  4.888288E+01  8.837847E+02  8.751038E+03  7.278769E+02 -2.302815E+03
       259  23  1.211497E+04 -2.871050E+01  1.544910E+03  3.462201E+03  1.503213E+03 -3.003169E+03
       259  24  1.218473E+04  4.404162E+02  2.826288E+03  8.749499E+03  2.278373E+03 -3.684370E+03
       259  25  8.076865E+04  1.702115E+04  1.716409E+04  8.885448E+03  3.172311E+02 -2.304426E+03
       259  26  9.687712E+04  2.093601E+04  2.160593E+04  3.712434E+03  1.103687E+03 -3.004706E+03
       259  27  1.131281E+05  2.539952E+04  2.667572E+04  9.115471E+03  1.889988E+03 -3.685835E+03
       260   1 -1.073411E+05 -2.980066E+04 -2.477209E+04  9.026803E+03 -3.330034E+03  4.131475E+03
       260   2 -1.242881E+05 -3.413822E+04 -2.602934E+04  2.763446E+03 -6.302935E+03  4.803013E+03
       260   3 -1.396972E+05 -3.353996E+04 -2.413496E+04  7.060918E+03 -9.274474E+03  5.171734E+03
       260   4  1.250081E+04 -1.535421E+02  3.635146E+03  8.751994E+03 -2.849932E+03  4.133269E+03
       260   5  1.171649E+04 -4.919275E+02  6.165000E+03  3.463659E+03 -5.997853E+03  4.804088E+03
       260   6  1.249984E+04  4.135280E+03  1.196752E+04  8.735985E+03 -9.144489E+03  5.172111E+03
       260   7  1.323560E+05  2.949255E+04  3.204138E+04  8.477119E+03 -2.369738E+03  4.135063E+03
       260   8  1.477381E+05  3.315304E+04  3.835806E+04  4.164011E+03 -5.692704E+03  4.805164E+03
       260   9  1.647182E+05  4.180886E+04  4.806839E+04  1.041144E+04 -9.014472E+03  5.172488E+03
       260  10 -1.073412E+05 -2.980069E+04 -2.477214E+04  9.026814E+03  7.757762E-09 -7.999030E-10
       260  11 -1.242882E+05 -3.413825E+04 -2.602946E+04  2.763470E+03  1.816757E-09  1.490763E-08
       260  12 -1.396973E+05 -3.354001E+04 -2.413517E+04  7.060957E+03 -5.349651E-09  3.304453E-09
       260  13  1.250080E+04 -1.535627E+02  3.635099E+03  8.752003E+03  6.997943E-12 -7.847769E-09
       260  14  1.171645E+04 -4.919619E+02  6.164889E+03  3.463682E+03  1.671028E-12  1.208828E-08
       260  15  1.249974E+04  4.135229E+03  1.196731E+04  8.736023E+03 -1.330011E-10  3.118781E-09
       260  16  1.323559E+05  2.949253E+04  3.204134E+04  8.477127E+03 -8.341074E-09  4.803271E-09
       260  17  1.477381E+05  3.315300E+04  3.835795E+04  4.164033E+03  1.656480E-09 -1.343783E-08
       260  18  1.647181E+05  4.180881E+04  4.806818E+04  1.041148E+04  3.823614E-09  2.362341E-09
       260  19 -1.073411E+05 -2.980066E+04 -2.477209E+04  9.026803E+03  3.330034E+03 -4.131475E+03
       260  20 -1.242881E+05 -3.413822E+04 -2.602934E+04  2.763446E+03  6.302935E+03 -4.803013E+03
       260  21 -1.396972E+05 -3.353996E+04 -2.413496E+04  7.060918E+03  9.274474E+03 -5.171734E+03
       260  22  1.250081E+04 -1.535421E+02  3.635146E+03  8.751994E+03  2.849932E+03 -4.133269E+03
       260  23  1.171649E+04 -4.919275E+02  6.165000E+03  3.463659E+03  5.997853E+03 -4.804088E+03
       260  24  1.249984E+04  4.135280E+03  1.196752E+04  8.735985E+03  9.144489E+03 -5.172111E+03
       260  25  1.323560E+05  2.949255E+04  3.204138E+04  8.477119E+03  2.369738E+03 -4.135063E+03
       260  26  1.477381E+05  3.315304E+04  3.835806E+04  4.164011E+03  5.692704E+03 -4.805164E+03
       260  27  1.647182E+05  4.180886E+04  4.806839E+04  1.041144E+04  9.014472E+03 -5.172488E+03
       261   1 -1.558466E+05 -4.454067E+04 -2.571388E+04  1.432176E+04 -1.297473E+04  6.211371E+03
       261   2 -1.789810E+05 -5.145935E+04 -2.048060E+04 -1.511293E+03 -2.304637E+04  6.528634E+03
       261   3 -1.881717E+05 -7.614869E+03  3.990320E+03 -7.026390E+03 -3.310091E+04  2.071563E+03
       261   4  1.535336E+04 -2.259449E+03  1.473182E+04  8.741210E+03 -1.139853E+04  6.217134E+03
       261   5  8.144768E+03 -5.126514E+03  2.383489E+04  3.502988E+03 -2.422307E+04  6.524159E+03
       261   6  1.535263E+04  4.323886E+04  5.408314E+04  8.582260E+03 -3.703082E+04  2.057143E+03
       261   7  1.865803E+05  4.001980E+04  5.517553E+04  3.159085E+03 -9.821886E+03  6.222868E+03
       261   8  1.953027E+05  4.120390E+04  6.814798E+04  8.518760E+03 -2.540013E+04  6.519666E+03
       261   9  2.189152E+05  9.409040E+04  1.041731E+05  2.419601E+04 -4.096202E+04  2.042528E+03
       261  10 -1.558468E+05 -4.454076E+04 -2.571427E+04  1.432183E+04  5.625195E-09  6.670966E-10
       261  11 -1.789815E+05 -5.145954E+04 -2.048168E+04 -1.511172E+03  8.426654E-09  5.211095E-09
       261  12 -1.881729E+05 -7.615168E+03  3.988252E+03 -7.026335E+03  2.034992E-09  6.621786E-09
       261  13  1.535321E+04 -2.259526E+03  1.473151E+04  8.741267E+03  1.051105E-09  4.960521E-09
       261  14  8.144126E+03 -5.126718E+03  2.383371E+04  3.503115E+03  1.609050E-09  8.937069E-10
       261  15  1.535116E+04  4.323848E+04  5.408056E+04  8.582322E+03 -5.221203E-10  2.067879E-09
       261  16  1.865802E+05  4.001974E+04  5.517527E+04  3.159134E+03 -6.257697E-09  6.515836E-09
       261  17  1.953020E+05  4.120368E+04  6.814668E+04  8.518893E+03 -7.795838E-09  1.721641E-09
       261  18  2.189134E+05  9.408994E+04  1.041699E+05  2.419607E+04 -2.430203E-09  1.773268E-09
       261  19 -1.558466E+05 -4.454067E+04 -2.571388E+04  1.432176E+04  1.297473E+04 -6.211371E+03
       261  20 -1.789810E+05 -5.145935E+04 -2.048060E+04 -1.511293E+03  2.304637E+04 -6.528634E+03
       261  21 -1.881717E+05 -7.614869E+03  3.990320E+03 -7.026390E+03  3.310091E+04 -2.071563E+03
       261  22  1.535336E+04 -2.259449E+03  1.473182E+04  8.741210E+03  1.139853E+04 -6.217134E+03
       261  23  8.144768E+03 -5.126514E+03  2.383489E+04  3.502988E+03  2.422307E+04 -6.524159E+03
       261  24  1.535263E+04  4.323886E+04  5.408314E+04  8.582260E+03  3.703082E+04 -2.057143E+03
       261  25  1.865803E+05  4.001980E+04  5.517553E+04  3.159085E+03  9.821886E+03 -6.222868E+03
       261  26  1.953027E+05  4.120390E+04  6.814798E+04  8.518760E+03  2.540013E+04 -6.519666E+03
       261  27  2.189152E+05  9.409040E+04  1.041731E+05  2.419601E+04  4.096202E+04 -2.042528E+03
       262   1 -3.053578E+05 -1.341165E+06 -3.330539E+05  1.170638E+05 -7.154487E+03 -1.125427E+05
       262   2 -1.364228E+05 -1.186428E+06 -2.127119E+05  4.408691E+04 -2.127126E+04 -6.516812E+04
       262   3 -1.122417E+05 -1.073094E+06 -1.592870E+05  5.789228E+04 -1.696866E+04 -1.772495E+04
       262   4 -1.197641E+05 -5.987904E+05 -1.499924E+05  7.342608E+04 -7.189539E+03 -9.928721E+04
       262   5  1.407887E+04 -5.789859E+05 -6.872236E+04  3.023142E+04 -2.127658E+04 -6.246553E+04
       262   6  5.079702E+03 -5.987199E+05 -4.698044E+04  7.382181E+04 -1.694767E+04 -2.558630E+04
       262   7  6.579547E+04  1.440902E+05  3.302994E+04  2.973639E+04 -7.226440E+03 -8.601581E+04
       262   8  1.645547E+05  2.879594E+04  7.524157E+04  1.636252E+04 -2.128201E+04 -5.976028E+04
       262   9  1.223860E+05 -1.241377E+05  6.531084E+04  8.976373E+04 -1.692709E+04 -3.345363E+04
       262  10 -3.053612E+05 -1.341178E+06 -3.330779E+05  1.170631E+05  2.147461E-09 -2.572201E-09
       262  11 -1.364244E+05 -1.186433E+06 -2.127207E+05  4.408579E+04 -5.341199E-10 -3.220645E-09
       262  12 -1.122421E+05 -1.073095E+06 -1.592881E+05  5.789204E+04  7.434261E-10  1.088913E-09
       262  13 -1.197668E+05 -5.988010E+05 -1.500110E+05  7.342550E+04 -5.497101E-12  1.132185E-09
       262  14  1.407734E+04 -5.789902E+05 -6.873055E+04  3.023035E+04 -8.772680E-10 -4.945130E-09
       262  15  5.079218E+03 -5.987206E+05 -4.698221E+04  7.382147E+04  8.859274E-10  1.108634E-09
       262  16  6.579343E+04  1.440822E+05  3.301594E+04  2.973588E+04  1.362787E-09 -1.958378E-09
       262  17  1.645532E+05  2.879198E+04  7.523401E+04  1.636150E+04  4.383098E-09 -3.891940E-09
       262  18  1.223854E+05 -1.241390E+05  6.530820E+04  8.976327E+04  9.861095E-10 -1.793491E-09
       262  19 -3.053578E+05 -1.341165E+06 -3.330539E+05  1.170638E+05  7.154487E+03  1.125427E+05
       262  20 -1.364228E+05 -1.186428E+06 -2.127119E+05  4.408691E+04  2.127126E+04  6.516812E+04
       262  21 -1.122417E+05 -1.073094E+06 -1.592870E+05  5.789228E+04  1.696866E+04  1.772495E+04
       262  22 -1.197641E+05 -5.987904E+05 -1.499924E+05  7.342608E+04  7.189539E+03  9.928721E+04
       262  23  1.407887E+04 -5.789859E+05 -6.872236E+04  3.023142E+04  2.127658E+04  6.246553E+04
       262  24  5.079702E+03 -5.987199E+05 -4.698044E+04  7.382181E+04  1.694767E+04  2.558630E+04
       262  25  6.579547E+04  1.440902E+05  3.302994E+04  2.973639E+04  7.226440E+03  8.601581E+04
       262  26  1.645547E+05  2.879594E+04  7.524157E+04  1.636252E+04  2.128201E+04  5.976028E+04
       262  27  1.223860E+05 -1.241377E+05  6.531084E+04  8.976373E+04  1.692709E+04  3.345363E+04
       263   1 -8.960944E+04 -9.084755E+05 -1.165689E+05  7.958921E+04 -1.099385E+04 -1.558866E+04
       263   2 -4.250319E+04 -7.696122E+05 -7.476044E+04  3.037099E+04 -6.463226E+03  8.786127E+02
       263   3 -2.138882E+04 -6.387919E+05 -5.005892E+04  6.927534E+04 -1.408890E+03  1.734892E+04
       263   4 -1.113874E+04 -5.916873E+05 -4.143323E+04  7.399045E+04 -1.098714E+04 -1.807397E+04
       263   5  2.531997E+03 -5.876787E+05 -3.166420E+04  2.993165E+04 -6.456318E+03 -1.902389E+03
       263   6 -9.732060E+03 -5.916757E+05 -3.879078E+04  7.399493E+04 -1.401643E+03  1.426871E+04
       263   7  6.732486E+04 -2.748066E+05  3.369550E+04  6.838888E+04 -1.098038E+04 -2.056054E+04
       263   8  4.756481E+04 -4.057148E+05  1.142977E+04  2.949220E+04 -6.449407E+03 -4.684203E+03
       263   9  1.924627E+03 -5.445574E+05 -2.752276E+04  7.871488E+04 -1.394444E+03  1.118828E+04
       263  10 -8.960964E+04 -9.084758E+05 -1.165696E+05  7.958907E+04 -5.758100E-10 -5.102688E-09
       263  11 -4.250323E+04 -7.696122E+05 -7.476052E+04  3.037099E+04 -2.241744E-10 -3.737010E-09
       263  12 -2.138890E+04 -6.387923E+05 -5.005949E+04  6.927536E+04  1.225822E-09 -8.860146E-10
       263  13 -1.113896E+04 -5.916876E+05 -4.143408E+04  7.399029E+04 -2.155125E-10  7.833526E-12
       263  14  2.531951E+03 -5.876788E+05 -3.166428E+04  2.993164E+04 -2.610990E-09 -5.079490E-09
       263  15 -9.732116E+03 -5.916760E+05 -3.879117E+04  7.399495E+04 -1.092803E-09 -4.681092E-09
       263  16  6.732461E+04 -2.748071E+05  3.369448E+04  6.838870E+04 -8.621499E-10 -1.688195E-09
       263  17  4.756476E+04 -4.057148E+05  1.142966E+04  2.949218E+04 -8.694175E-10 -3.417391E-09
       263  18  1.924591E+03 -5.445576E+05 -2.752300E+04  7.871490E+04 -1.449202E-09 -2.700611E-09
       263  19 -8.960944E+04 -9.084755E+05 -1.165689E+05  7.958921E+04  1.099385E+04  1.558866E+04
       263  20 -4.250319E+04 -7.696122E+05 -7.476044E+04  3.037099E+04  6.463226E+03 -8.786127E+02
       263  21 -2.138882E+04 -6.387919E+05 -5.005892E+04  6.927534E+04  1.408890E+03 -1.734892E+04
       263  22 -1.113874E+04 -5.916873E+05 -4.143323E+04  7.399045E+04  1.098714E+04  1.807397E+04
       263  23  2.531997E+03 -5.876787E+05 -3.166420E+04  2.993165E+04  6.456318E+03  1.902389E+03
       263  24 -9.732060E+03 -5.916757E+05 -3.879078E+04  7.399493E+04  1.401643E+03 -1.426871E+04
       263  25  6.732486E+04 -2.748066E+05  3.369550E+04  6.838888E+04  1.098038E+04  2.056054E+04
       263  26  4.756481E+04 -4.057148E+05  1.142977E+04  2.949220E+04  6.449407E+03  4.684203E+03
       263  27  1.924627E+03 -5.445574E+05 -2.752276E+04  7.871488E+04  1.394444E+03 -1.118828E+04
       264   1  3.166742E+04 -4.869151E+05 -1.685797E+04  8.879693E+04  3.538145E+03  2.709627E+04
       264   2  7.332883E+04 -3.349296E+05 -3.534191E+03  1.847697E+04  8.502527E+03  5.426077E+04
       264   3 -1.099801E+04 -2.173403E+05 -3.926386E+04  3.576937E+04  3.221894E+03  8.140559E+04
       264   4  4.293580E+03 -5.977721E+05 -4.322153E+04  7.397593E+04  3.551083E+03  2.124709E+04
       264   5  1.259174E+04 -5.800659E+05 -6.162552E+04  3.002399E+04  8.503635E+03  5.429720E+04
       264   6 -1.061509E+05 -5.978169E+05 -1.331896E+05  7.369102E+04  3.211672E+03  8.732147E+04
       264   7 -2.308029E+04 -7.086172E+05 -6.958571E+04  5.915760E+04  3.564302E+03  1.539896E+04
       264   8 -4.814918E+04 -8.251467E+05 -1.197210E+05  4.156645E+04  8.504745E+03  5.433361E+04
       264   9 -2.013092E+05 -9.781588E+05 -2.271252E+05  1.115895E+05  3.202172E+03  9.323372E+04
       264  10  3.166721E+04 -4.869159E+05 -1.685937E+04  8.879685E+04  1.419307E-09 -4.280864E-09
       264  11  7.332796E+04 -3.349328E+05 -3.539862E+03  1.847660E+04  1.572547E-10 -3.201513E-09
       264  12 -1.099980E+04 -2.173474E+05 -3.927633E+04  3.576916E+04  2.402652E-10 -3.395219E-10
       264  13  4.293445E+03 -5.977725E+05 -4.322241E+04  7.397587E+04  1.106011E-09  5.770859E-11
       264  14  1.259087E+04 -5.800691E+05 -6.163120E+04  3.002362E+04 -1.364942E-09 -5.144126E-09
       264  15 -1.061529E+05 -5.978251E+05 -1.332040E+05  7.369080E+04  6.169463E-10 -2.363499E-09
       264  16 -2.308037E+04 -7.086174E+05 -6.958618E+04  5.915756E+04 -8.510340E-10 -2.147180E-09
       264  17 -4.815005E+04 -8.251499E+05 -1.197267E+05  4.156608E+04  3.596891E-09 -3.104064E-09
       264  18 -2.013115E+05 -9.781681E+05 -2.271416E+05  1.115892E+05  1.720262E-09 -1.924938E-09
       264  19  3.166742E+04 -4.869151E+05 -1.685797E+04  8.879693E+04 -3.538145E+03 -2.709627E+04
       264  20  7.332883E+04 -3.349296E+05 -3.534191E+03  1.847697E+04 -8.502527E+03 -5.426077E+04
       264  21 -1.099801E+04 -2.173403E+05 -3.926386E+04  3.576937E+04 -3.221894E+03 -8.140559E+04
       264  22  4.293580E+03 -5.977721E+05 -4.322153E+04  7.397593E+04 -3.551083E+03 -2.124709E+04
       264  23  1.259174E+04 -5.800659E+05 -6.162552E+04  3.002399E+04 -8.503635E+03 -5.429720E+04
       264  24 -1.061509E+05 -5.978169E+05 -1.331896E+05  7.369102E+04 -3.211672E+03 -8.732147E+04
       264  25 -2.308029E+04 -7.086172E+05 -6.958571E+04  5.915760E+04 -3.564302E+03 -1.539896E+04
       264  26 -4.814918E+04 -8.251467E+05 -1.197210E+05  4.156645E+04 -8.504745E+03 -5.433361E+04
       264  27 -2.013092E+05 -9.781588E+05 -2.271252E+05  1.115895E+05 -3.202172E+03 -9.323372E+04
       265   1  6.853133E+05  2.310347E+05  1.429607E+05  2.492506E+05  6.893181E+04  2.425970E+04
       265   2  6.625851E+05  1.249979E+05  7.761222E+04  2.528077E+05  4.454703E+04  1.132519E+04
       265   3  6.702902E+05  1.179280E+05  5.641032E+04  2.411069E+05  1.875723E+04  2.099371E+03
       265   4  5.570212E+05  1.573932E+05  1.032310E+05  1.885260E+05  6.617985E+04  2.321312E+04
       265   5  5.365478E+05  7.008045E+04  4.331745E+04  2.105747E+05  4.380099E+04  1.104163E+04
       265   6  5.461174E+05  8.134743E+04  2.596777E+04  2.173636E+05  2.001663E+04  2.577246E+03
       265   7  4.287480E+05  8.376110E+04  6.350021E+04  1.278155E+05  6.342854E+04  2.216707E+04
       265   8  4.105264E+05  1.516577E+04  9.021359E+03  1.683502E+05  4.305512E+04  1.075815E+04
       265   9  4.219591E+05  4.476641E+04 -4.475998E+03  1.936238E+05  2.127575E+04  3.055071E+03
       265  10  6.853080E+05  2.310328E+05  1.429507E+05  2.492492E+05  1.493405E-09  8.241283E-09
       265  11  6.625829E+05  1.249972E+05  7.760826E+04  2.528073E+05  4.259437E-09  1.500944E-08
       265  12  6.702898E+05  1.179280E+05  5.640965E+04  2.411069E+05  1.899440E-09 -7.792975E-09
       265  13  5.570164E+05  1.573915E+05  1.032218E+05  1.885248E+05  6.683583E-10 -9.104806E-09
       265  14  5.365457E+05  7.007980E+04  4.331362E+04  2.105743E+05 -1.661859E-10 -1.379520E-08
       265  15  5.461170E+05  8.134731E+04  2.596701E+04  2.173636E+05  3.306877E-10 -1.607041E-09
       265  16  4.287436E+05  8.375950E+04  6.349173E+04  1.278144E+05 -1.045638E-10  5.184701E-10
       265  17  4.105244E+05  1.516515E+04  9.017661E+03  1.683498E+05 -4.080025E-09 -1.514140E-08
       265  18  4.219586E+05  4.476628E+04 -4.476865E+03  1.936237E+05 -1.934564E-09  5.223875E-09
       265  19  6.853133E+05  2.310347E+05  1.429607E+05  2.492506E+05 -6.893181E+04 -2.425970E+04
       265  20  6.625851E+05  1.249979E+05  7.761222E+04  2.528077E+05 -4.454703E+04 -1.132519E+04
       265  21  6.702902E+05  1.179280E+05  5.641032E+04  2.411069E+05 -1.875723E+04 -2.099371E+03
       265  22  5.570212E+05  1.573932E+05  1.032310E+05  1.885260E+05 -6.617985E+04 -2.321312E+04
       265  23  5.365478E+05  7.008045E+04  4.331745E+04  2.105747E+05 -4.380099E+04 -1.104163E+04
       265  24  5.461174E+05  8.134743E+04  2.596777E+04  2.173636E+05 -2.001663E+04 -2.577246E+03
       265  25  4.287480E+05  8.376110E+04  6.350021E+04  1.278155E+05 -6.342854E+04 -2.216707E+04
       265  26  4.105264E+05  1.516577E+04  9.021359E+03  1.683502E+05 -4.305512E+04 -1.075815E+04
       265  27  4.219591E+05  4.476641E+04 -4.475998E+03  1.936238E+05 -2.127575E+04 -3.055071E+03
       266   1  6.395445E+05  1.304096E+05  4.679722E+04  2.402751E+05  1.589715E+04  2.052665E+03
       266   2  6.272941E+05  1.115898E+05  3.212234E+04  2.332703E+05  1.031591E+04  3.961720E+02
       266   3  6.118026E+05  1.094410E+05  2.400574E+04  2.324050E+05  4.638938E+03 -1.007636E+03
       266   4  5.428059E+05  9.162987E+04  2.104891E+04  2.113155E+05  1.604459E+04  2.108472E+03
       266   5  5.438970E+05  7.952065E+04  1.022688E+04  2.096832E+05  1.060052E+04  5.040860E+02
       266   6  5.417202E+05  8.405610E+04  5.855223E+03  2.141899E+05  5.060599E+03 -8.476792E+02
       266   7  4.460764E+05  5.285106E+04 -4.700202E+03  1.823602E+05  1.619200E+04  2.164267E+03
       266   8  4.605068E+05  4.745209E+04 -1.166914E+04  1.860989E+05  1.088509E+04  6.119831E+02
       266   9  4.716428E+05  5.867149E+04 -1.229564E+04  1.959768E+05  5.482206E+03 -6.877411E+02
       266  10  6.395442E+05  1.304095E+05  4.679673E+04  2.402751E+05 -3.882116E-11 -3.463752E-09
       266  11  6.272940E+05  1.115898E+05  3.212214E+04  2.332703E+05  2.018478E-09  1.007398E-08
       266  12  6.118026E+05  1.094410E+05  2.400570E+04  2.324050E+05  4.079975E-10  1.686258E-08
       266  13  5.428056E+05  9.162980E+04  2.104842E+04  2.113155E+05 -2.203332E-09  2.798217E-09
       266  14  5.438969E+05  7.952062E+04  1.022666E+04  2.096831E+05 -4.368713E-09 -1.385640E-08
       266  15  5.417202E+05  8.405609E+04  5.855174E+03  2.141899E+05 -3.756785E-09  1.214519E-08
       266  16  4.460762E+05  5.285098E+04 -4.700703E+03  1.823602E+05 -8.559796E-10  8.337340E-09
       266  17  4.605066E+05  4.745206E+04 -1.166936E+04  1.860989E+05 -4.236406E-09 -1.547973E-08
       266  18  4.716427E+05  5.867148E+04 -1.229570E+04  1.959768E+05 -4.188295E-09  5.589406E-09
       266  19  6.395445E+05  1.304096E+05  4.679722E+04  2.402751E+05 -1.589715E+04 -2.052665E+03
       266  20  6.272941E+05  1.115898E+05  3.212234E+04  2.332703E+05 -1.031591E+04 -3.961720E+02
       266  21  6.118026E+05  1.094410E+05  2.400574E+04  2.324050E+05 -4.638938E+03  1.007636E+03
       266  22  5.428059E+05  9.162987E+04  2.104891E+04  2.113155E+05 -1.604459E+04 -2.108472E+03
       266  23  5.438970E+05  7.952065E+04  1.022688E+04  2.096832E+05 -1.060052E+04 -5.040860E+02
       266  24  5.417202E+05  8.405610E+04  5.855223E+03  2.141899E+05 -5.060599E+03  8.476792E+02
       266  25  4.460764E+05  5.285106E+04 -4.700202E+03  1.823602E+05 -1.619200E+04 -2.164267E+03
       266  26  4.605068E+05  4.745209E+04 -1.166914E+04  1.860989E+05 -1.088509E+04 -6.119831E+02
       266  27  4.716428E+05  5.867149E+04 -1.229564E+04  1.959768E+05 -5.482206E+03  6.877411E+02
       267   1  5.924409E+05  1.044998E+05  1.788834E+04  2.278181E+05  3.718180E+03 -8.728129E+02
       267   2  5.815311E+05  9.445516E+04  1.202328E+04  2.198150E+05  2.251639E+03 -6.901331E+02
       267   3  5.637684E+05  9.270658E+04  7.318115E+03  2.199238E+05  7.789841E+02 -4.914604E+02
       267   4  5.413323E+05  8.504157E+04  4.551866E+03  2.135508E+05  4.062421E+03 -7.422198E+02
       267   5  5.447067E+05  8.052503E+04  2.398097E+03  2.096351E+05  2.604616E+03 -5.562089E+02
       267   6  5.412267E+05  8.430297E+04  1.397484E+03  2.138313E+05  1.140669E+03 -3.542159E+02
       267   7  4.902259E+05  6.558349E+04 -8.784879E+03  1.992844E+05  4.406632E+03 -6.116384E+02
       267   8  5.078835E+05  6.659497E+04 -7.227218E+03  1.994557E+05  2.957571E+03 -4.222933E+02
       267   9  5.186854E+05  7.589938E+04 -4.523190E+03  2.077390E+05  1.502340E+03 -2.169766E+02
       267  10  5.924409E+05  1.044998E+05  1.788832E+04  2.278181E+05  6.208141E-09  9.937122E-09
       267  11  5.815311E+05  9.445516E+04  1.202327E+04  2.198150E+05  1.226124E-10 -1.929886E-09
       267  12  5.637684E+05  9.270658E+04  7.318113E+03  2.199238E+05 -1.183922E-08 -3.679292E-09
       267  13  5.413322E+05  8.504156E+04  4.551834E+03  2.135508E+05 -1.341579E-09  3.293972E-09
       267  14  5.447067E+05  8.052503E+04  2.398084E+03  2.096351E+05  2.099493E-09  5.903142E-09
       267  15  5.412267E+05  8.430297E+04  1.397482E+03  2.138313E+05 -2.784298E-09  1.741320E-09
       267  16  4.902259E+05  6.558349E+04 -8.784916E+03  1.992844E+05 -8.586742E-09 -5.863957E-09
       267  17  5.078835E+05  6.659496E+04 -7.227234E+03  1.994557E+05  6.390241E-10  4.509166E-09
       267  18  5.186854E+05  7.589938E+04 -4.523194E+03  2.077390E+05  4.093696E-09  1.792481E-08
       267  19  5.924409E+05  1.044998E+05  1.788834E+04  2.278181E+05 -3.718180E+03  8.728129E+02
       267  20  5.815311E+05  9.445516E+04  1.202328E+04  2.198150E+05 -2.251639E+03  6.901331E+02
       267  21  5.637684E+05  9.270658E+04  7.318115E+03  2.199238E+05 -7.789841E+02  4.914604E+02
       267  22  5.413323E+05  8.504157E+04  4.551866E+03  2.135508E+05 -4.062421E+03  7.422198E+02
       267  23  5.447067E+05  8.052503E+04  2.398097E+03  2.096351E+05 -2.604616E+03  5.562089E+02
       267  24  5.412267E+05  8.430297E+04  1.397484E+03  2.138313E+05 -1.140669E+03  3.542159E+02
       267  25  4.902259E+05  6.558349E+04 -8.784879E+03  1.992844E+05 -4.406632E+03  6.116384E+02
       267  26  5.078835E+05  6.659497E+04 -7.227218E+03  1.994557E+05 -2.957571E+03  4.222933E+02
       267  27  5.186854E+05  7.589938E+04 -4.523190E+03  2.077390E+05 -1.502340E+03  2.169766E+02
       268   1  5.456848E+05  8.609026E+04  2.233336E+03  2.150161E+05  4.315523E+02 -1.797449E+02
       268   2  5.349596E+05  7.691427E+04 -1.840515E+03  2.069204E+05 -1.858753E+02  3.420617E+02
       268   3  5.169770E+05  7.519257E+04 -5.613507E+03  2.070993E+05 -8.038516E+02  8.654103E+02
       268   4  5.411768E+05  8.439116E+04  1.108218E+03  2.137632E+05  7.878626E+02 -4.453648E+01
       268   5  5.448012E+05  8.063376E+04  7.313394E+02  2.096374E+05  1.712613E+02  4.775785E+02
       268   6  5.411680E+05  8.433047E+04  6.546937E+02  2.137862E+05 -4.458998E+02  1.001233E+03
       268   7  5.366687E+05  8.269206E+04 -1.689671E+01  2.125103E+05  1.144169E+03  9.067041E+01
       268   8  5.546430E+05  8.435325E+04  3.303186E+03  2.123545E+05  5.284041E+02  6.130976E+02
       268   9  5.653597E+05  9.346843E+04  6.922866E+03  2.204734E+05 -8.793161E+01  1.137063E+03
       268  10  5.456848E+05  8.609026E+04  2.233335E+03  2.150161E+05  3.009411E-09  2.853949E-09
       268  11  5.349596E+05  7.691427E+04 -1.840516E+03  2.069204E+05  2.733543E-09 -5.612994E-09
       268  12  5.169770E+05  7.519257E+04 -5.613509E+03  2.070993E+05 -2.807125E-09 -8.474430E-09
       268  13  5.411768E+05  8.439116E+04  1.108217E+03  2.137632E+05 -5.233318E-09  8.172829E-09
       268  14  5.448012E+05  8.063376E+04  7.313389E+02  2.096374E+05  1.363910E-09  1.460987E-08
       268  15  5.411680E+05  8.433046E+04  6.546915E+02  2.137862E+05 -2.343959E-09 -6.527385E-09
       268  16  5.366687E+05  8.269206E+04 -1.689918E+01  2.125103E+05 -1.206329E-08  6.512469E-09
       268  17  5.546430E+05  8.435325E+04  3.303185E+03  2.123545E+05 -8.447921E-09  2.003338E-09
       268  18  5.653597E+05  9.346843E+04  6.922864E+03  2.204734E+05  2.279713E-09  5.835913E-09
       268  19  5.456848E+05  8.609026E+04  2.233336E+03  2.150161E+05 -4.315523E+02  1.797449E+02
       268  20  5.349596E+05  7.691427E+04 -1.840515E+03  2.069204E+05  1.858753E+02 -3.420617E+02
       268  21  5.169770E+05  7.519257E+04 -5.613507E+03  2.070993E+05  8.038516E+02 -8.654103E+02
       268  22  5.411768E+05  8.439116E+04  1.108218E+03  2.137632E+05 -7.878626E+02  4.453648E+01
       268  23  5.448012E+05  8.063376E+04  7.313394E+02  2.096374E+05 -1.712613E+02 -4.775785E+02
       268  24  5.411680E+05  8.433047E+04  6.546937E+02  2.137862E+05  4.458998E+02 -1.001233E+03
       268  25  5.366687E+05  8.269206E+04 -1.689671E+01  2.125103E+05 -1.144169E+03 -9.067041E+01
       268  26  5.546430E+05  8.435325E+04  3.303186E+03  2.123545E+05 -5.284041E+02 -6.130976E+02
       268  27  5.653597E+05  9.346843E+04  6.922866E+03  2.204734E+05  8.793161E+01 -1.137063E+03
       269   1  4.989810E+05  6.841343E+04 -1.037373E+04  2.021892E+05 -1.062948E+03  1.209036E+03
       269   2  4.881928E+05  5.924199E+04 -1.381214E+04  1.940190E+05 -1.804711E+03  1.687957E+03
       269   3  4.701476E+05  5.761540E+04 -1.684372E+04  1.941636E+05 -2.546683E+03  2.167765E+03
       269   4  5.411656E+05  8.433557E+04  6.987077E+02  2.138007E+05 -7.044593E+02  1.345054E+03
       269   5  5.448014E+05  8.061397E+04  9.771378E+02  2.096240E+05 -1.445807E+03  1.824108E+03
       269   6  5.411798E+05  8.443704E+04  1.662028E+03  2.137619E+05 -2.187376E+03  2.304044E+03
       269   7  5.833520E+05  1.002578E+05  1.177099E+04  2.254128E+05 -3.459438E+02  1.481082E+03
       269   8  6.014130E+05  1.019861E+05  1.576612E+04  2.252302E+05 -1.086868E+03  1.960272E+03
       269   9  6.122167E+05  1.112589E+05  2.016729E+04  2.333622E+05 -1.828025E+03  2.440341E+03
       269  10  4.989810E+05  6.841343E+04 -1.037373E+04  2.021892E+05 -5.303187E-10 -6.939948E-09
       269  11  4.881928E+05  5.924198E+04 -1.381215E+04  1.940190E+05 -3.750123E-09 -2.529707E-09
       269  12  4.701476E+05  5.761540E+04 -1.684374E+04  1.941636E+05 -8.654332E-09 -6.801199E-09
       269  13  5.411656E+05  8.433556E+04  6.987034E+02  2.138007E+05 -1.599764E-09  1.690839E-10
       269  14  5.448014E+05  8.061396E+04  9.771277E+02  2.096240E+05  6.243314E-09  2.698451E-09
       269  15  5.411798E+05  8.443704E+04  1.662009E+03  2.137619E+05 -1.759845E-10  5.343478E-09
       269  16  5.833520E+05  1.002578E+05  1.177099E+04  2.254128E+05 -9.230802E-10  8.395281E-09
       269  17  6.014130E+05  1.019861E+05  1.576611E+04  2.252302E+05  3.732164E-09  1.532061E-09
       269  18  6.122167E+05  1.112589E+05  2.016727E+04  2.333622E+05  9.176715E-09 -5.218399E-09
       269  19  4.989810E+05  6.841343E+04 -1.037373E+04  2.021892E+05  1.062948E+03 -1.209036E+03
       269  20  4.881928E+05  5.924199E+04 -1.381214E+04  1.940190E+05  1.804711E+03 -1.687957E+03
       269  21  4.701476E+05  5.761540E+04 -1.684372E+04  1.941636E+05  2.546683E+03 -2.167765E+03
       269  22  5.411656E+05  8.433557E+04  6.987077E+02  2.138007E+05  7.044593E+02 -1.345054E+03
       269  23  5.448014E+05  8.061397E+04  9.771378E+02  2.096240E+05  1.445807E+03 -1.824108E+03
       269  24  5.411798E+05  8.443704E+04  1.662028E+03  2.137619E+05  2.187376E+03 -2.304044E+03
       269  25  5.833520E+05  1.002578E+05  1.177099E+04  2.254128E+05  3.459438E+02 -1.481082E+03
       269  26  6.014130E+05  1.019861E+05  1.576612E+04  2.252302E+05  1.086868E+03 -1.960272E+03
       269  27  6.122167E+05  1.112589E+05  2.016729E+04  2.333622E+05  1.828025E+03 -2.440341E+03
       270   1  4.519235E+05  5.076393E+04 -2.120636E+04  1.894580E+05 -3.017347E+03  2.439056E+03
       270   2  4.408753E+05  4.119330E+04 -2.334573E+04  1.809474E+05 -5.171060E+03  2.390395E+03
       270   3  4.231604E+05  4.058915E+04 -2.367023E+04  1.805777E+05 -7.316575E+03  2.320617E+03
       270   4  5.412473E+05  8.431294E+04  2.149397E+03  2.138900E+05 -2.649340E+03  2.578614E+03
       270   5  5.446632E+05  8.041605E+04  3.777242E+03  2.095964E+05 -4.814783E+03  2.525459E+03
       270   6  5.414147E+05  8.548784E+04  7.229115E+03  2.134437E+05 -6.972074E+03  2.451170E+03
       270   7  6.305790E+05  1.178625E+05  2.550456E+04  2.383252E+05 -2.281272E+03  2.718193E+03
       270   8  6.484618E+05  1.196396E+05  3.089935E+04  2.382498E+05 -4.458439E+03  2.660548E+03
       270   9  6.596826E+05  1.303875E+05  3.812728E+04  2.463154E+05 -6.627501E+03  2.581751E+03
       270  10  4.519235E+05  5.076392E+04 -2.120639E+04  1.894580E+05 -3.059740E-09  7.653576E-09
       270  11  4.408753E+05  4.119329E+04 -2.334580E+04  1.809474E+05  1.381545E-09  7.183207E-10
       270  12  4.231603E+05  4.058913E+04 -2.367034E+04  1.805778E+05 -1.401108E-09  1.615339E-08
       270  13  5.412473E+05  8.431293E+04  2.149372E+03  2.138900E+05  9.388509E-10 -1.652039E-09
       270  14  5.446632E+05  8.041603E+04  3.777186E+03  2.095964E+05  5.288661E-09  1.840176E-08
       270  15  5.414147E+05  8.548782E+04  7.229012E+03  2.134437E+05 -2.169626E-09 -5.368464E-09
       270  16  6.305790E+05  1.178625E+05  2.550454E+04  2.383252E+05  5.337046E-09 -5.827276E-09
       270  17  6.484617E+05  1.196395E+05  3.089930E+04  2.382498E+05  3.275341E-09 -1.642746E-08
       270  18  6.596826E+05  1.303875E+05  3.812718E+04  2.463154E+05 -5.320941E-10 -1.653892E-08
       270  19  4.519235E+05  5.076393E+04 -2.120636E+04  1.894580E+05  3.017347E+03 -2.439056E+03
       270  20  4.408753E+05  4.119330E+04 -2.334573E+04  1.809474E+05  5.171060E+03 -2.390395E+03
       270  21  4.231604E+05  4.058915E+04 -2.367023E+04  1.805777E+05  7.316575E+03 -2.320617E+03
       270  22  5.412473E+05  8.431294E+04  2.149397E+03  2.138900E+05  2.649340E+03 -2.578614E+03
       270  23  5.446632E+05  8.041605E+04  3.777242E+03  2.095964E+05  4.814783E+03 -2.525459E+03
       270  24  5.414147E+05  8.548784E+04  7.229115E+03  2.134437E+05  6.972074E+03 -2.451170E+03
       270  25  6.305790E+05  1.178625E+05  2.550456E+04  2.383252E+05  2.281272E+03 -2.718193E+03
       270  26  6.484618E+05  1.196396E+05  3.089935E+04  2.382498E+05  4.458439E+03 -2.660548E+03
       270  27  6.596826E+05  1.303875E+05  3.812728E+04  2.463154E+05  6.627501E+03 -2.581751E+03
       271   1  4.038657E+05  3.349771E+04 -2.649997E+04  1.781662E+05 -8.930928E+03  2.221024E+03
       271   2  3.922175E+05  2.082728E+04 -2.338054E+04  1.670685E+05 -1.741061E+04 -2.303505E+02
       271   3  3.795489E+05  3.044050E+04 -1.013809E+04  1.610241E+05 -2.575155E+04 -3.046793E+03
       271   4  5.420265E+05  8.392776E+04  9.312307E+03  2.144732E+05 -8.473369E+03  2.394431E+03
       271   5  5.433811E+05  7.880167E+04  1.628302E+04  2.096585E+05 -1.715213E+04 -1.325277E+02
       271   6  5.437531E+05  9.599600E+04  3.353257E+04  2.098970E+05 -2.569238E+04 -3.024677E+03
       271   7  6.802053E+05  1.343586E+05  4.512288E+04  2.507873E+05 -8.015699E+03  2.567877E+03
       271   8  6.945669E+05  1.367777E+05  5.594463E+04  2.522579E+05 -1.689359E+04 -3.467757E+01
       271   9  7.079840E+05  1.615543E+05  7.720102E+04  2.587820E+05 -2.563320E+04 -3.002554E+03
       271  10  4.038656E+05  3.349769E+04 -2.650013E+04  1.781662E+05 -4.232722E-09  9.130923E-09
       271  11  3.922172E+05  2.082720E+04 -2.338111E+04  1.670685E+05  1.005639E-11  3.032662E-09
       271  12  3.795481E+05  3.044032E+04 -1.013935E+04  1.610241E+05  3.112164E-09  1.053759E-08
       271  13  5.420264E+05  8.392774E+04  9.312162E+03  2.144732E+05 -2.546018E-09 -6.456610E-09
       271  14  5.433808E+05  7.880159E+04  1.628247E+04  2.096585E+05 -4.195091E-10  7.518966E-09
       271  15  5.437524E+05  9.599581E+04  3.353131E+04  2.098969E+05 -6.626422E-10 -2.056459E-09
       271  16  6.802053E+05  1.343585E+05  4.512275E+04  2.507873E+05  1.950612E-09 -2.200571E-09
       271  17  6.945666E+05  1.367776E+05  5.594410E+04  2.522579E+05 -3.608262E-09 -1.667707E-09
       271  18  7.079833E+05  1.615541E+05  7.719977E+04  2.587819E+05 -7.198892E-09 -5.436991E-09
       271  19  4.038657E+05  3.349771E+04 -2.649997E+04  1.781662E+05  8.930928E+03 -2.221024E+03
       271  20  3.922175E+05  2.082728E+04 -2.338054E+04  1.670685E+05  1.741061E+04  2.303505E+02
       271  21  3.795489E+05  3.044050E+04 -1.013809E+04  1.610241E+05  2.575155E+04  3.046793E+03
       271  22  5.420265E+05  8.392776E+04  9.312307E+03  2.144732E+05  8.473369E+03 -2.394431E+03
       271  23  5.433811E+05  7.880167E+04  1.628302E+04  2.096585E+05  1.715213E+04  1.325277E+02
       271  24  5.437531E+05  9.599600E+04  3.353257E+04  2.098970E+05  2.569238E+04  3.024677E+03
       271  25  6.802053E+05  1.343586E+05  4.512288E+04  2.507873E+05  8.015699E+03 -2.567877E+03
       271  26  6.945669E+05  1.367777E+05  5.594463E+04  2.522579E+05  1.689359E+04  3.467757E+01
       271  27  7.079840E+05  1.615543E+05  7.720102E+04  2.587820E+05  2.563320E+04  3.002554E+03
       272   1  3.513998E+05  2.143134E+04 -7.063257E+03  1.818071E+05 -3.358537E+04 -4.696515E+03
       272   2  3.392336E+05 -2.052343E+04  1.656125E+04  1.461547E+05 -6.843451E+04 -1.741008E+04
       272   3  3.785631E+05  8.989041E+04  1.057146E+05  8.150797E+04 -1.012452E+05 -3.550368E+04
       272   4  5.490334E+05  7.961163E+04  4.137197E+04  2.195297E+05 -3.191080E+04 -4.061273E+03
       272   5  5.316760E+05  6.375467E+04  6.901651E+04  2.110732E+05 -6.967587E+04 -1.788193E+04
       272   6  5.663710E+05  2.008116E+05  1.644847E+05  1.736280E+05 -1.054025E+05 -3.708551E+04
       272   7  7.467055E+05  1.377914E+05  8.980456E+04  2.572616E+05 -3.023564E+04 -3.425918E+03
       272   8  7.241539E+05  1.480385E+05  1.214682E+05  2.760109E+05 -7.091764E+04 -1.835399E+04
       272   9  7.542150E+05  3.117521E+05  2.232509E+05  2.657771E+05 -1.095610E+05 -3.866850E+04
       272  10  3.513986E+05  2.143102E+04 -7.065417E+03  1.818070E+05 -8.563294E-09  5.558976E-10
       272  11  3.392285E+05 -2.052501E+04  1.655188E+04  1.461538E+05 -3.139156E-09 -6.718780E-09
       272  12  3.785518E+05  8.988631E+04  1.056929E+05  8.150507E+04  5.048009E-09  3.745583E-09
       272  13  5.490323E+05  7.961134E+04  4.137003E+04  2.195296E+05  2.282799E-10 -7.800458E-09
       272  14  5.316707E+05  6.375303E+04  6.900679E+04  2.110722E+05 -3.580347E-09  3.528751E-09
       272  15  5.663588E+05  2.008071E+05  1.644612E+05  1.736249E+05 -6.885116E-10  1.493643E-09
       272  16  7.467045E+05  1.377912E+05  8.980283E+04  2.572616E+05  4.743295E-09  3.541106E-09
       272  17  7.241484E+05  1.480368E+05  1.214581E+05  2.760098E+05 -3.259907E-09 -1.614001E-09
       272  18  7.542017E+05  3.117473E+05  2.232256E+05  2.657737E+05 -5.667821E-09  1.327758E-10
       272  19  3.513998E+05  2.143134E+04 -7.063257E+03  1.818071E+05  3.358537E+04  4.696515E+03
       272  20  3.392336E+05 -2.052343E+04  1.656125E+04  1.461547E+05  6.843451E+04  1.741008E+04
       272  21  3.785631E+05  8.989041E+04  1.057146E+05  8.150797E+04  1.012452E+05  3.550368E+04
       272  22  5.490334E+05  7.961163E+04  4.137197E+04  2.195297E+05  3.191080E+04  4.061273E+03
       272  23  5.316760E+05  6.375467E+04  6.901651E+04  2.110732E+05  6.967587E+04  1.788193E+04
       272  24  5.663710E+05  2.008116E+05  1.644847E+05  1.736280E+05  1.054025E+05  3.708551E+04
       272  25  7.467055E+05  1.377914E+05  8.980456E+04  2.572616E+05  3.023564E+04  3.425918E+03
       272  26  7.241539E+05  1.480385E+05  1.214682E+05  2.760109E+05  7.091764E+04  1.835399E+04
       272  27  7.542150E+05  3.117521E+05  2.232509E+05  2.657771E+05  1.095610E+05  3.866850E+04
       273   1 -9.393117E+04 -7.151579E+05 -1.046874E+05  3.202941E+04 -1.919872E+03 -4.016076E+04
       273   2 -3.692373E+04 -6.807103E+05 -6.651375E+04  1.244840E+04 -5.948488E+03 -2.343593E+04
       273   3 -3.380626E+04 -6.617538E+05 -5.268575E+04  1.007211E+04 -5.194174E+03 -6.694229E+03
       273   4 -4.455643E+04 -5.177154E+05 -5.603510E+04  1.589416E+04 -1.931077E+03 -3.650516E+04
       273   5  5.319412E+03 -5.102036E+05 -2.610937E+04  7.368544E+03 -5.951167E+03 -2.252909E+04
       273   6  1.790561E+03 -5.177017E+05 -1.861410E+04  1.604816E+04 -5.188311E+03 -8.536969E+03
       273   7  4.816364E+03 -3.202368E+05 -7.385493E+03 -2.462001E+02 -1.942471E+03 -3.284841E+04
       273   8  4.756056E+04 -3.396701E+05  1.429300E+04  2.287305E+03 -5.953860E+03 -2.162200E+04
       273   9  3.738603E+04 -3.736304E+05  1.545614E+04  2.202561E+04 -5.182485E+03 -1.038013E+04
       273  10 -9.393161E+04 -7.151596E+05 -1.046904E+05  3.202935E+04  7.587502E-10  6.750503E-09
       273  11 -3.692392E+04 -6.807109E+05 -6.651485E+04  1.244829E+04  6.341301E-10  3.769651E-09
       273  12 -3.380630E+04 -6.617539E+05 -5.268588E+04  1.007208E+04 -1.345848E-10 -9.083030E-10
       273  13 -4.455679E+04 -5.177168E+05 -5.603761E+04  1.589411E+04  3.001003E-09  4.174905E-11
       273  14  5.319237E+03 -5.102042E+05 -2.611039E+04  7.368436E+03  2.025153E-09 -2.477565E-09
       273  15  1.790512E+03 -5.177018E+05 -1.861429E+04  1.604812E+04 -3.101228E-09 -1.493761E-08
       273  16  4.816070E+03 -3.202380E+05 -7.387529E+03 -2.462515E+02  1.610019E-09 -1.040003E-08
       273  17  4.756039E+04 -3.396706E+05  1.429205E+04  2.287201E+03  7.286222E-09 -1.106380E-08
       273  18  3.738598E+04 -3.736305E+05  1.545589E+04  2.202557E+04 -3.598448E-09  5.517763E-09
       273  19 -9.393117E+04 -7.151579E+05 -1.046874E+05  3.202941E+04  1.919872E+03  4.016076E+04
       273  20 -3.692373E+04 -6.807103E+05 -6.651375E+04  1.244840E+04  5.948488E+03  2.343593E+04
       273  21 -3.380626E+04 -6.617538E+05 -5.268575E+04  1.007211E+04  5.194174E+03  6.694229E+03
       273  22 -4.455643E+04 -5.177154E+05 -5.603510E+04  1.589416E+04  1.931077E+03  3.650516E+04
       273  23  5.319412E+03 -5.102036E+05 -2.610937E+04  7.368544E+03  5.951167E+03  2.252909E+04
       273  24  1.790561E+03 -5.177017E+05 -1.861410E+04  1.604816E+04  5.188311E+03  8.536969E+03
       273  25  4.816364E+03 -3.202368E+05 -7.385493E+03 -2.462001E+02  1.942471E+03  3.284841E+04
       273  26  4.756056E+04 -3.396701E+05  1.429300E+04  2.287305E+03  5.953860E+03  2.162200E+04
       273  27  3.738603E+04 -3.736304E+05  1.545614E+04  2.202561E+04  5.182485E+03  1.038013E+04
       274   1 -3.189249E+04 -6.277548E+05 -4.360315E+04  1.847147E+04 -3.866674E+03 -5.096987E+03
       274   2 -2.001718E+04 -5.989448E+05 -3.461400E+04  7.392835E+03 -3.047080E+03  2.362843E+03
       274   3 -1.980561E+04 -5.738793E+05 -3.337045E+04  1.390722E+04 -1.981859E+03  9.823579E+03
       274   4 -4.007526E+03 -5.151933E+05 -1.689692E+04  1.608467E+04 -3.865308E+03 -5.512121E+03
       274   5  1.171202E+03 -5.133329E+05 -1.433744E+04  7.286304E+03 -3.045332E+03  1.807322E+03
       274   6 -5.288499E+03 -5.151928E+05 -1.942518E+04  1.608091E+04 -1.979690E+03  9.127352E+03
       274   7  2.387655E+04 -4.026201E+05  9.808431E+03  1.369744E+04 -3.863939E+03 -5.927329E+03
       274   8  2.235906E+04 -4.277142E+05  5.938610E+03  7.179763E+03 -3.043583E+03  1.251724E+03
       274   9  9.228380E+03 -4.565031E+05 -5.480160E+03  1.825481E+04 -1.977527E+03  8.431059E+03
       274  10 -3.189252E+04 -6.277548E+05 -4.360323E+04  1.847145E+04 -1.481109E-09  6.769306E-09
       274  11 -2.001719E+04 -5.989448E+05 -3.461403E+04  7.392841E+03  6.070863E-10 -1.435026E-09
       274  12 -1.980564E+04 -5.738794E+05 -3.337063E+04  1.390724E+04 -7.082127E-10  1.233167E-09
       274  13 -4.007550E+03 -5.151933E+05 -1.689701E+04  1.608465E+04 -3.242564E-09 -2.172968E-09
       274  14  1.171192E+03 -5.133329E+05 -1.433747E+04  7.286308E+03  5.219582E-12 -1.360159E-09
       274  15 -5.288526E+03 -5.151928E+05 -1.942535E+04  1.608093E+04 -2.414042E-09 -1.804214E-08
       274  16  2.387652E+04 -4.026201E+05  9.808337E+03  1.369742E+04 -3.691340E-09 -1.662245E-08
       274  17  2.235905E+04 -4.277142E+05  5.938589E+03  7.179766E+03  3.789582E-09 -3.030263E-09
       274  18  9.228357E+03 -4.565031E+05 -5.480301E+03  1.825482E+04 -1.230423E-09  3.195036E-09
       274  19 -3.189249E+04 -6.277548E+05 -4.360315E+04  1.847147E+04  3.866674E+03  5.096987E+03
       274  20 -2.001718E+04 -5.989448E+05 -3.461400E+04  7.392835E+03  3.047080E+03 -2.362843E+03
       274  21 -1.980561E+04 -5.738793E+05 -3.337045E+04  1.390722E+04  1.981859E+03 -9.823579E+03
       274  22 -4.007526E+03 -5.151933E+05 -1.689692E+04  1.608467E+04  3.865308E+03  5.512121E+03
       274  23  1.171202E+03 -5.133329E+05 -1.433744E+04  7.286304E+03  3.045332E+03 -1.807322E+03
       274  24 -5.288499E+03 -5.151928E+05 -1.942518E+04  1.608091E+04  1.979690E+03 -9.127352E+03
       274  25  2.387655E+04 -4.026201E+05  9.808431E+03  1.369744E+04  3.863939E+03  5.927329E+03
       274  26  2.235906E+04 -4.277142E+05  5.938610E+03  7.179763E+03  3.043583E+03 -1.251724E+03
       274  27  9.228380E+03 -4.565031E+05 -5.480160E+03  1.825481E+04  1.977527E+03 -8.431059E+03
       275   1 -4.141188E+03 -5.456976E+05 -2.859906E+04  2.429871E+04 -1.137445E+03  1.355723E+04
       275   2  6.867641E+03 -5.091425E+05 -3.291033E+04  1.272624E+03 -1.038831E+02  3.066941E+04
       275   3 -5.063078E+04 -4.918113E+05 -6.546583E+04 -4.255404E+03 -1.179247E+01  4.777927E+04
       275   4  2.602884E+03 -5.186553E+05 -2.223317E+04  1.612252E+04 -1.134904E+03  1.266145E+04
       275   5  6.856029E+03 -5.090029E+05 -3.288853E+04  7.281941E+03 -1.025095E+02  3.031508E+04
       275   6 -5.749306E+04 -5.186704E+05 -7.216487E+04  1.593958E+04 -1.080631E+01  4.796564E+04
       275   7  9.347155E+03 -4.916121E+05 -1.586730E+04  7.945968E+03 -1.132339E+03  1.176563E+04
       275   8  6.844553E+03 -5.088633E+05 -3.286670E+04  1.329126E+04 -1.011427E+02  2.996075E+04
       275   9 -6.435387E+04 -5.455279E+05 -7.886374E+04  3.613369E+04 -9.807975E+00  4.815201E+04
       275  10 -4.141239E+03 -5.456978E+05 -2.859940E+04  2.429872E+04  2.683339E-10  1.217691E-08
       275  11  6.867388E+03 -5.091435E+05 -3.291210E+04  1.272627E+03  2.172861E-09 -1.204245E-09
       275  12 -5.063139E+04 -4.918137E+05 -6.547013E+04 -4.255404E+03  6.823477E-10  5.565748E-10
       275  13  2.602840E+03 -5.186555E+05 -2.223348E+04  1.612253E+04 -1.484985E-09  4.392332E-11
       275  14  6.855782E+03 -5.090039E+05 -3.289026E+04  7.281943E+03  2.603349E-09 -1.135775E-09
       275  15 -5.749368E+04 -5.186728E+05 -7.216919E+04  1.593958E+04  1.102566E-09 -6.905792E-09
       275  16  9.347116E+03 -4.916123E+05 -1.586757E+04  7.945979E+03 -3.219784E-09 -1.431713E-08
       275  17  6.844312E+03 -5.088643E+05 -3.286839E+04  1.329126E+04  1.552158E-09 -4.128400E-09
       275  18 -6.435449E+04 -5.455304E+05 -7.886810E+04  3.613370E+04  7.147359E-13  3.509462E-09
       275  19 -4.141188E+03 -5.456976E+05 -2.859906E+04  2.429871E+04  1.137445E+03 -1.355723E+04
       275  20  6.867641E+03 -5.091425E+05 -3.291033E+04  1.272624E+03  1.038831E+02 -3.066941E+04
       275  21 -5.063078E+04 -4.918113E+05 -6.546583E+04 -4.255404E+03  1.179247E+01 -4.777927E+04
       275  22  2.602884E+03 -5.186553E+05 -2.223317E+04  1.612252E+04  1.134904E+03 -1.266145E+04
       275  23  6.856029E+03 -5.090029E+05 -3.288853E+04  7.281941E+03  1.025095E+02 -3.031508E+04
       275  24 -5.749306E+04 -5.186704E+05 -7.216487E+04  1.593958E+04  1.080631E+01 -4.796564E+04
       275  25  9.347155E+03 -4.916121E+05 -1.586730E+04  7.945968E+03  1.132339E+03 -1.176563E+04
       275  26  6.844553E+03 -5.088633E+05 -3.286670E+04  1.329126E+04  1.011427E+02 -2.996075E+04
       275  27 -6.435387E+04 -5.455279E+05 -7.886374E+04  3.613369E+04  9.807975E+00 -4.815201E+04
       276   1 -1.211842E+04 -8.097446E+04 -6.605723E+04 -4.061444E+03  3.440348E+04  5.779773E+03
       276   2  2.131058E+04 -1.279593E+05 -8.768833E+04 -3.258880E+03  2.611353E+04  1.739816E+04
       276   3  7.124496E+04 -1.143638E+05 -8.872576E+04 -2.928948E+04  1.783763E+04  1.651186E+04
       276   4  5.222644E+05  5.209741E+04  6.533956E+04 -2.179311E+04  4.472908E+04  5.791262E+03
       276   5  5.134053E+05 -6.285094E+03  2.878315E+04 -8.346398E+03  2.922546E+04  1.740010E+04
       276   6  5.222871E+05 -2.861886E+03  1.781447E+04 -2.173078E+04  1.373654E+04  1.650830E+04
       276   7  1.056908E+06  1.851493E+05  1.967159E+05 -3.954014E+04  5.506354E+04  5.802156E+03
       276   8  1.005723E+06  1.153719E+05  1.452379E+05 -1.343802E+04  3.233983E+04  1.740198E+04
       276   9  9.735162E+05  1.086257E+05  1.243407E+05 -1.416660E+04  9.632483E+03  1.650464E+04
       276  10 -1.211970E+04 -8.097481E+04 -6.605951E+04 -4.061604E+03 -1.021929E-09  2.591502E-11
       276  11  2.130977E+04 -1.279598E+05 -8.769018E+04 -3.259246E+03 -1.341408E-10  4.019177E-11
       276  12  7.124454E+04 -1.143642E+05 -8.872687E+04 -2.928971E+04  1.549420E-10 -2.098582E-12
       276  13  5.222623E+05  5.209684E+04  6.533574E+04 -2.179332E+04  1.464399E-11  6.682636E-11
       276  14  5.134043E+05 -6.285648E+03  2.878098E+04 -8.346807E+03  1.442121E-10  1.187460E-10
       276  15  5.222868E+05 -2.862230E+03  1.781361E+04 -2.173097E+04 -4.295360E-11 -7.528853E-11
       276  16  1.056905E+06  1.851485E+05  1.967102E+05 -3.954040E+04  1.399526E-10  1.773139E-10
       276  17  1.005721E+06  1.153713E+05  1.452354E+05 -1.343848E+04 -2.368794E-10  2.047068E-10
       276  18  9.735161E+05  1.086254E+05  1.243400E+05 -1.416673E+04 -6.130710E-10 -2.225381E-10
       276  19 -1.211842E+04 -8.097446E+04 -6.605723E+04 -4.061444E+03 -3.440348E+04 -5.779773E+03
       276  20  2.131058E+04 -1.279593E+05 -8.768833E+04 -3.258880E+03 -2.611353E+04 -1.739816E+04
       276  21  7.124496E+04 -1.143638E+05 -8.872576E+04 -2.928948E+04 -1.783763E+04 -1.651186E+04
       276  22  5.222644E+05  5.209741E+04  6.533956E+04 -2.179311E+04 -4.472908E+04 -5.791262E+03
       276  23  5.134053E+05 -6.285094E+03  2.878315E+04 -8.346398E+03 -2.922546E+04 -1.740010E+04
       276  24  5.222871E+05 -2.861886E+03  1.781447E+04 -2.173078E+04 -1.373654E+04 -1.650830E+04
       276  25  1.056908E+06  1.851493E+05  1.967159E+05 -3.954014E+04 -5.506354E+04 -5.802156E+03
       276  26  1.005723E+06  1.153719E+05  1.452379E+05 -1.343802E+04 -3.233983E+04 -1.740198E+04
       276  27  9.735162E+05  1.086257E+05  1.243407E+05 -1.416660E+04 -9.632483E+03 -1.650464E+04
       277   1  1.158678E+05 -9.480680E+04 -8.106581E+04 -2.037793E+04  1.131881E+04  1.378009E+04
       277   2  1.556190E+05 -9.019792E+04 -7.822408E+04 -8.126248E+03  7.964153E+03  1.284993E+04
       277   3  1.974042E+05 -7.977709E+04 -7.171516E+04 -2.250193E+04  4.608593E+03  1.113653E+04
       277   4  5.188214E+05  4.862673E+03  1.447289E+04 -2.170490E+04  1.101450E+04  1.377928E+04
       277   5  5.177708E+05 -6.561120E+02  7.463646E+03 -8.390414E+03  7.206398E+03  1.284911E+04
       277   6  5.188300E+05 -2.861284E+02  4.434615E+03 -2.170226E+04  3.397617E+03  1.113589E+04
       277   7  9.219240E+05  1.045205E+05  1.100003E+05 -2.303275E+04  1.070998E+04  1.377848E+04
       277   8  8.800431E+05  8.887629E+04  9.314228E+04 -8.654746E+03  6.448202E+03  1.284829E+04
       277   9  8.403507E+05  7.919742E+04  8.057722E+04 -2.090218E+04  2.186017E+03  1.113525E+04
       277  10  1.158676E+05 -9.480703E+04 -8.106641E+04 -2.037805E+04 -3.022039E-10 -8.973655E-11
       277  11  1.556189E+05 -9.019811E+04 -7.822451E+04 -8.126330E+03  9.671478E-11 -1.153979E-10
       277  12  1.974041E+05 -7.977722E+04 -7.171543E+04 -2.250197E+04  6.681577E-11  2.538671E-10
       277  13  5.188212E+05  4.862436E+03  1.447230E+04 -2.170502E+04 -1.352581E-11 -4.714674E-11
       277  14  5.177707E+05 -6.563033E+02  7.463238E+03 -8.390489E+03  2.254133E-10 -4.998521E-11
       277  15  5.188300E+05 -2.862647E+02  4.434360E+03 -2.170229E+04 -4.024302E-11  9.653800E-11
       277  16  9.219238E+05  1.045203E+05  1.099997E+05 -2.303287E+04 -2.952510E-10 -2.014401E-10
       277  17  8.800430E+05  8.887610E+04  9.314189E+04 -8.654813E+03  1.514810E-10  1.388655E-10
       277  18  8.403507E+05  7.919728E+04  8.057697E+04 -2.090220E+04  2.299387E-10  1.103248E-10
       277  19  1.158678E+05 -9.480680E+04 -8.106581E+04 -2.037793E+04 -1.131881E+04 -1.378009E+04
       277  20  1.556190E+05 -9.019792E+04 -7.822408E+04 -8.126248E+03 -7.964153E+03 -1.284993E+04
       277  21  1.974042E+05 -7.977709E+04 -7.171516E+04 -2.250193E+04 -4.608593E+03 -1.113653E+04
       277  22  5.188214E+05  4.862673E+03  1.447289E+04 -2.170490E+04 -1.101450E+04 -1.377928E+04
       277  23  5.177708E+05 -6.561120E+02  7.463646E+03 -8.390414E+03 -7.206398E+03 -1.284911E+04
       277  24  5.188300E+05 -2.861284E+02  4.434615E+03 -2.170226E+04 -3.397617E+03 -1.113589E+04
       277  25  9.219240E+05  1.045205E+05  1.100003E+05 -2.303275E+04 -1.070998E+04 -1.377848E+04
       277  26  8.800431E+05  8.887629E+04  9.314228E+04 -8.654746E+03 -6.448202E+03 -1.284829E+04
       277  27  8.403507E+05  7.919742E+04  8.057722E+04 -2.090218E+04 -2.186017E+03 -1.113525E+04
       278   1  2.442548E+05 -6.733987E+04 -6.130149E+04 -2.157092E+04  3.667291E+03  1.000385E+04
       278   2  2.843275E+05 -5.791864E+04 -5.340017E+04 -8.483630E+03  2.718172E+03  8.302081E+03
       278   3  3.247135E+05 -4.794100E+04 -4.473159E+04 -2.169132E+04  1.768233E+03  6.556866E+03
       278   4  5.184388E+05  4.276668E+02  3.464942E+03 -2.162925E+04  2.700132E+03  1.000343E+04
       278   5  5.182828E+05 -7.793120E+01  1.949864E+03 -8.482061E+03  1.725569E+03  8.301862E+03
       278   6  5.184433E+05 -2.259058E+01  1.219683E+03 -2.162923E+04  7.502471E+02  6.556856E+03
       278   7  7.926919E+05  6.818983E+04  6.822618E+04 -2.168762E+04  1.732548E+03  1.000302E+04
       278   8  7.522883E+05  5.775886E+04  5.729611E+04 -8.480490E+03  7.325937E+02  8.301643E+03
       278   9  7.122077E+05  4.789313E+04  4.716835E+04 -2.156711E+04 -2.680546E+02  6.556846E+03
       278  10  2.442547E+05 -6.733998E+04 -6.130170E+04 -2.157095E+04 -2.270352E-11  4.926973E-11
       278  11  2.843275E+05 -5.791872E+04 -5.340032E+04 -8.483649E+03 -1.342676E-10 -1.422235E-10
       278  12  3.247135E+05 -4.794105E+04 -4.473168E+04 -2.169133E+04 -4.041274E-10  1.983345E-10
       278  13  5.184388E+05  4.275573E+02  3.464740E+03 -2.162928E+04 -2.011901E-11  2.587639E-11
       278  14  5.182828E+05 -7.800603E+01  1.949729E+03 -8.482072E+03 -2.583907E-10 -1.288958E-10
       278  15  5.184433E+05 -2.263691E+01  1.219602E+03 -2.162923E+04 -7.715356E-10 -7.025727E-11
       278  16  7.926919E+05  6.818972E+04  6.822598E+04 -2.168763E+04 -5.991887E-11 -2.720151E-11
       278  17  7.522883E+05  5.775879E+04  5.729598E+04 -8.480495E+03 -2.013174E-10 -6.912346E-11
       278  18  7.122076E+05  4.789308E+04  4.716827E+04 -2.156711E+04 -3.690581E-10 -4.800069E-11
       278  19  2.442548E+05 -6.733987E+04 -6.130149E+04 -2.157092E+04 -3.667291E+03 -1.000385E+04
       278  20  2.843275E+05 -5.791864E+04 -5.340017E+04 -8.483630E+03 -2.718172E+03 -8.302081E+03
       278  21  3.247135E+05 -4.794100E+04 -4.473159E+04 -2.169132E+04 -1.768233E+03 -6.556866E+03
       278  22  5.184388E+05  4.276668E+02  3.464942E+03 -2.162925E+04 -2.700132E+03 -1.000343E+04
       278  23  5.182828E+05 -7.793120E+01  1.949864E+03 -8.482061E+03 -1.725569E+03 -8.301862E+03
       278  24  5.184433E+05 -2.259058E+01  1.219683E+03 -2.162923E+04 -7.502471E+02 -6.556856E+03
       278  25  7.926919E+05  6.818983E+04  6.822618E+04 -2.168762E+04 -1.732548E+03 -1.000302E+04
       278  26  7.522883E+05  5.775886E+04  5.729611E+04 -8.480490E+03 -7.325937E+02 -8.301643E+03
       278  27  7.122077E+05  4.789313E+04  4.716835E+04 -2.156711E+04  2.680546E+02 -6.556846E+03
       279   1  3.714146E+05 -3.627356E+04 -3.364939E+04 -2.157044E+04  1.551064E+03  5.535375E+03
       279   2  4.113070E+05 -2.647386E+04 -2.456503E+04 -8.520846E+03  1.174149E+03  3.798479E+03
       279   3  4.512654E+05 -1.660232E+04 -1.521815E+04 -2.157161E+04  7.968494E+02  2.061711E+03
       279   4  5.183915E+05  3.755034E+01  1.001009E+03 -2.158606E+04  5.501648E+02  5.535464E+03
       279   5  5.183604E+05 -9.102163E+00  7.600993E+02 -8.536017E+03  1.732152E+02  3.798657E+03
       279   6  5.183934E+05  1.604015E+01  7.816152E+02 -2.158606E+04 -2.040951E+02  2.061985E+03
       279   7  6.653882E+05  3.634712E+04  3.564992E+04 -2.160167E+04 -4.509702E+02  5.535552E+03
       279   8  6.254244E+05  2.645484E+04  2.608443E+04 -8.551191E+03 -8.278903E+02  3.798836E+03
       279   9  5.855255E+05  1.663408E+04  1.678107E+04 -2.160051E+04 -1.205147E+03  2.062260E+03
       279  10  3.714146E+05 -3.627360E+04 -3.364945E+04 -2.157045E+04 -9.792162E-11  2.702109E-10
       279  11  4.113070E+05 -2.647388E+04 -2.456506E+04 -8.520849E+03 -3.910426E-10  8.464195E-11
       279  12  4.512654E+05 -1.660233E+04 -1.521816E+04 -2.157161E+04 -1.917494E-10 -5.658447E-11
       279  13  5.183915E+05  3.751734E+01  1.000951E+03 -2.158606E+04 -1.053778E-09  7.300609E-11
       279  14  5.183604E+05 -9.117670E+00  7.600721E+02 -8.536018E+03 -6.134355E-10  1.203822E-10
       279  15  5.183934E+05  1.603558E+01  7.816072E+02 -2.158606E+04 -3.044069E-10  6.833129E-11
       279  16  6.653882E+05  3.634709E+04  3.564986E+04 -2.160167E+04 -4.280574E-10 -4.281159E-11
       279  17  6.254244E+05  2.645482E+04  2.608441E+04 -8.551188E+03 -1.178230E-10 -2.096694E-11
       279  18  5.855255E+05  1.663407E+04  1.678106E+04 -2.160051E+04 -1.512180E-10 -4.215398E-11
       279  19  3.714146E+05 -3.627356E+04 -3.364939E+04 -2.157044E+04 -1.551064E+03 -5.535375E+03
       279  20  4.113070E+05 -2.647386E+04 -2.456503E+04 -8.520846E+03 -1.174149E+03 -3.798479E+03
       279  21  4.512654E+05 -1.660232E+04 -1.521815E+04 -2.157161E+04 -7.968494E+02 -2.061711E+03
       279  22  5.183915E+05  3.755034E+01  1.001009E+03 -2.158606E+04 -5.501648E+02 -5.535464E+03
       279  23  5.183604E+05 -9.102163E+00  7.600993E+02 -8.536017E+03 -1.732152E+02 -3.798657E+03
       279  24  5.183934E+05  1.604015E+01  7.816152E+02 -2.158606E+04  2.040951E+02 -2.061985E+03
       279  25  6.653882E+05  3.634712E+04  3.564992E+04 -2.160167E+04  4.509702E+02 -5.535552E+03
       279  26  6.254244E+05  2.645484E+04  2.608443E+04 -8.551191E+03  8.278903E+02 -3.798836E+03
       279  27  5.855255E+05  1.663408E+04  1.678107E+04 -2.160051E+04  1.205147E+03 -2.062260E+03
       280   1  4.978089E+05 -5.058517E+03 -3.874537E+03 -2.154723E+04  6.458614E+02  1.051226E+03
       280   2  5.376076E+05  4.744205E+03  5.837004E+03 -8.536072E+03  8.298986E+00 -6.832310E+02
       280   3  5.775104E+05  1.469153E+04  1.599564E+04 -2.157246E+04 -6.292400E+02 -2.415761E+03
       280   4  5.184030E+05  8.257009E+00  8.767929E+02 -2.157440E+04 -3.544633E+02  1.051526E+03
       280   5  5.183515E+05 -1.572683E+01  1.282035E+03 -8.550589E+03 -9.909263E+02 -6.829510E+02
       280   6  5.184025E+05  1.048159E+02  2.133723E+03 -2.157437E+04 -1.627326E+03 -2.415495E+03
       280   7  5.389975E+05  5.075002E+03  5.628099E+03 -2.160158E+04 -1.354821E+03  1.051826E+03
       280   8  4.990958E+05 -4.775685E+03 -3.272955E+03 -8.565105E+03 -1.990121E+03 -6.826709E+02
       280   9  4.592979E+05 -1.448214E+04 -1.172843E+04 -2.157628E+04 -2.625317E+03 -2.415229E+03
       280  10  4.978089E+05 -5.058518E+03 -3.874540E+03 -2.154723E+04  6.361153E-11  1.976387E-11
       280  11  5.376076E+05  4.744205E+03  5.837003E+03 -8.536072E+03 -8.098922E-11  3.873490E-11
       280  12  5.775104E+05  1.469152E+04  1.599563E+04 -2.157246E+04 -4.926582E-10  1.027781E-10
       280  13  5.184030E+05  8.255788E+00  8.767906E+02 -2.157440E+04 -4.706600E-12  1.209356E-10
       280  14  5.183515E+05 -1.572759E+01  1.282033E+03 -8.550590E+03 -7.641161E-10  2.220762E-10
       280  15  5.184025E+05  1.048089E+02  2.133707E+03 -2.157438E+04 -4.511935E-11  1.897059E-10
       280  16  5.389975E+05  5.075000E+03  5.628093E+03 -2.160158E+04 -1.173722E-10  7.856610E-12
       280  17  4.990958E+05 -4.775686E+03 -3.272963E+03 -8.565106E+03  1.933188E-10  3.720795E-11
       280  18  4.592979E+05 -1.448215E+04 -1.172845E+04 -2.157629E+04  1.367845E-10  7.871053E-11
       280  19  4.978089E+05 -5.058517E+03 -3.874537E+03 -2.154723E+04 -6.458614E+02 -1.051226E+03
       280  20  5.376076E+05  4.744205E+03  5.837004E+03 -8.536072E+03 -8.298986E+00  6.832310E+02
       280  21  5.775104E+05  1.469153E+04  1.599564E+04 -2.157246E+04  6.292400E+02  2.415761E+03
       280  22  5.184030E+05  8.257009E+00  8.767929E+02 -2.157440E+04  3.544633E+02 -1.051526E+03
       280  23  5.183515E+05 -1.572683E+01  1.282035E+03 -8.550589E+03  9.909263E+02  6.829510E+02
       280  24  5.184025E+05  1.048159E+02  2.133723E+03 -2.157437E+04  1.627326E+03  2.415495E+03
       280  25  5.389975E+05  5.075002E+03  5.628099E+03 -2.160158E+04  1.354821E+03 -1.051826E+03
       280  26  4.990958E+05 -4.775685E+03 -3.272955E+03 -8.565105E+03  1.990121E+03  6.826709E+02
       280  27  4.592979E+05 -1.448214E+04 -1.172843E+04 -2.157628E+04  2.625317E+03  2.415229E+03
       281   1  6.242128E+05  2.609683E+04  2.787104E+04 -2.140911E+04 -1.054938E+03 -3.431929E+03
       281   2  6.638805E+05  3.584549E+04  3.914605E+04 -8.544341E+03 -3.421198E+03 -5.168027E+03
       281   3  7.042150E+05  4.699188E+04  5.231106E+04 -2.182369E+04 -5.787096E+03 -6.866414E+03
       281   4  5.185249E+05 -5.070213E+01  2.753112E+03 -2.159597E+04 -2.066626E+03 -3.431708E+03
       281   5  5.181919E+05 -1.648257E+02  4.686410E+03 -8.523646E+03 -4.410671E+03 -5.167940E+03
       281   6  5.185213E+05  1.115427E+03  8.494938E+03 -2.159580E+04 -6.754202E+03 -6.866454E+03
       281   7  4.128472E+05 -2.619903E+04 -2.236560E+04 -2.178281E+04 -3.078144E+03 -3.431486E+03
       281   8  3.725229E+05 -3.617666E+04 -2.977469E+04 -8.502955E+03 -5.399913E+03 -5.167853E+03
       281   9  3.328594E+05 -4.476349E+04 -3.532356E+04 -2.136798E+04 -7.721021E+03 -6.866494E+03
       281  10  6.242128E+05  2.609681E+04  2.787102E+04 -2.140911E+04 -2.590802E-10  5.956811E-12
       281  11  6.638805E+05  3.584546E+04  3.914597E+04 -8.544355E+03 -3.121319E-11 -2.205899E-10
       281  12  7.042149E+05  4.699182E+04  5.231091E+04 -2.182372E+04 -3.990391E-11 -2.493130E-10
       281  13  5.185249E+05 -5.071592E+01  2.753082E+03 -2.159598E+04 -7.611615E-10 -1.231879E-11
       281  14  5.181919E+05 -1.648596E+02  4.686323E+03 -8.523664E+03 -1.252898E-10 -2.207197E-10
       281  15  5.185213E+05  1.115364E+03  8.494764E+03 -2.159584E+04 -3.268981E-10 -2.628655E-10
       281  16  4.128472E+05 -2.619905E+04 -2.236564E+04 -2.178282E+04 -1.291847E-10  4.634652E-11
       281  17  3.725228E+05 -3.617670E+04 -2.977480E+04 -8.502977E+03  7.058520E-10 -1.186845E-10
       281  18  3.328593E+05 -4.476355E+04 -3.532377E+04 -2.136802E+04 -2.945834E-10 -1.484616E-10
       281  19  6.242128E+05  2.609683E+04  2.787104E+04 -2.140911E+04  1.054938E+03  3.431929E+03
       281  20  6.638805E+05  3.584549E+04  3.914605E+04 -8.544341E+03  3.421198E+03  5.168027E+03
       281  21  7.042150E+05  4.699188E+04  5.231106E+04 -2.182369E+04  5.787096E+03  6.866414E+03
       281  22  5.185249E+05 -5.070213E+01  2.753112E+03 -2.159597E+04  2.066626E+03  3.431708E+03
       281  23  5.181919E+05 -1.648257E+02  4.686410E+03 -8.523646E+03  4.410671E+03  5.167940E+03
       281  24  5.185213E+05  1.115427E+03  8.494938E+03 -2.159580E+04  6.754202E+03  6.866454E+03
       281  25  4.128472E+05 -2.619903E+04 -2.236560E+04 -2.178281E+04  3.078144E+03  3.431486E+03
       281  26  3.725229E+05 -3.617666E+04 -2.977469E+04 -8.502955E+03  5.399913E+03  5.167853E+03
       281  27  3.328594E+05 -4.476349E+04 -3.532356E+04 -2.136798E+04  7.721021E+03  6.866494E+03
       282   1  7.520585E+05  5.684723E+04  6.602385E+04 -1.979280E+04 -7.296294E+03 -7.973165E+03
       282   2  7.899364E+05  6.590473E+04  8.302269E+04 -9.379392E+03 -1.709962E+04 -9.679887E+03
       282   3  8.328306E+05  8.963329E+04  1.100809E+05 -2.533427E+04 -2.690309E+04 -1.073239E+04
       282   4  5.194697E+05 -6.600998E+02  1.090874E+04 -2.164512E+04 -8.466632E+03 -7.973297E+03
       282   5  5.169894E+05 -1.555504E+03  1.846629E+04 -8.461932E+03 -1.788909E+04 -9.680288E+03
       282   6  5.194598E+05  1.215778E+04  3.582220E+04 -2.164754E+04 -2.731106E+04 -1.073302E+04
       282   7  2.869305E+05 -5.817130E+04 -4.421013E+04 -2.349674E+04 -9.636533E+03 -7.973421E+03
       282   8  2.441107E+05 -6.902107E+04 -4.609527E+04 -7.544879E+03 -1.867821E+04 -9.680692E+03
       282   9  2.061792E+05 -6.532473E+04 -3.844331E+04 -1.796267E+04 -2.771882E+04 -1.073365E+04
       282  10  7.520584E+05  5.684715E+04  6.602363E+04 -1.979285E+04 -4.342124E-10 -5.695190E-11
       282  11  7.899361E+05  6.590455E+04  8.302197E+04 -9.379525E+03 -3.732184E-10  3.001035E-10
       282  12  8.328298E+05  8.963297E+04  1.100793E+05 -2.533450E+04 -1.562249E-10 -3.694580E-11
       282  13  5.194696E+05 -6.601873E+02  1.090848E+04 -2.164518E+04 -5.892091E-10 -8.776620E-11
       282  14  5.169890E+05 -1.555690E+03  1.846551E+04 -8.462072E+03 -2.069389E-10  2.079740E-10
       282  15  5.194590E+05  1.215746E+04  3.582058E+04 -2.164777E+04 -1.394377E-10 -8.847108E-11
       282  16  2.869304E+05 -5.817139E+04 -4.421042E+04 -2.349680E+04  2.817999E-10 -9.684620E-11
       282  17  2.441103E+05 -6.902127E+04 -4.609610E+04 -7.545025E+03 -5.510065E-10  3.778274E-11
       282  18  2.061783E+05 -6.532506E+04 -3.844497E+04 -1.796291E+04 -1.235833E-10 -1.014264E-10
       282  19  7.520585E+05  5.684723E+04  6.602385E+04 -1.979280E+04  7.296294E+03  7.973165E+03
       282  20  7.899364E+05  6.590473E+04  8.302269E+04 -9.379392E+03  1.709962E+04  9.679887E+03
       282  21  8.328306E+05  8.963329E+04  1.100809E+05 -2.533427E+04  2.690309E+04  1.073239E+04
       282  22  5.194697E+05 -6.600998E+02  1.090874E+04 -2.164512E+04  8.466632E+03  7.973297E+03
       282  23  5.169894E+05 -1.555504E+03  1.846629E+04 -8.461932E+03  1.788909E+04  9.680288E+03
       282  24  5.194598E+05  1.215778E+04  3.582220E+04 -2.164754E+04  2.731106E+04  1.073302E+04
       282  25  2.869305E+05 -5.817130E+04 -4.421013E+04 -2.349674E+04  9.636533E+03  7.973421E+03
       282  26  2.441107E+05 -6.902107E+04 -4.609527E+04 -7.544879E+03  1.867821E+04  9.680692E+03
       282  27  2.061792E+05 -6.532473E+04 -3.844331E+04 -1.796267E+04  2.771882E+04  1.073365E+04
       283   1  8.889116E+05  8.221148E+04  1.293130E+05 -3.446722E+03 -3.046905E+04 -1.317345E+04
       283   2  9.078083E+05  8.379179E+04  1.663089E+05 -2.177698E+04 -7.488249E+04 -1.420472E+04
       283   3  9.711492E+05  2.394022E+05  2.707350E+05 -6.666826E+04 -1.193066E+05 -4.797316E+03
       283   4  5.280083E+05 -6.971587E+03  4.409418E+04 -2.166183E+04 -3.404949E+04 -1.317433E+04
       283   5  5.062773E+05 -1.542951E+04  7.132496E+04 -8.429242E+03 -7.242370E+04 -1.420556E+04
       283   6  5.279694E+05  1.291453E+05  1.618244E+05 -2.175545E+04 -1.108051E+05 -4.799636E+03
       283   7  1.672253E+05 -9.616272E+04 -4.113340E+04 -3.986632E+04 -3.762786E+04 -1.317500E+04
       283   8  1.048947E+05 -1.146617E+05 -2.367006E+04  4.909808E+03 -6.996648E+04 -1.420629E+04
       283   9  8.497261E+04  1.888142E+04  5.290074E+04  2.312526E+04 -1.023097E+05 -4.800731E+03
       283  10  8.889106E+05  8.221104E+04  1.293109E+05 -3.447045E+03 -4.616558E-10  9.971903E-12
       283  11  9.078022E+05  8.379007E+04  1.662980E+05 -2.177784E+04 -3.457991E-10  2.264270E-10
       283  12  9.711339E+05  2.393983E+05  2.707083E+05 -6.666872E+04 -1.766589E-10  3.839909E-11
       283  13  5.280070E+05 -6.972084E+03  4.409168E+04 -2.166219E+04 -4.197590E-12  4.344563E-12
       283  14  5.062716E+05 -1.543113E+04  7.131473E+04 -8.430070E+03 -1.208987E-10  1.690008E-10
       283  15  5.279562E+05  1.291419E+05  1.618013E+05 -2.175588E+04 -3.777247E-10  1.430489E-10
       283  16  1.672238E+05 -9.616329E+04 -4.113639E+04 -3.986672E+04  2.088607E-10  2.222384E-11
       283  17  1.048894E+05 -1.146632E+05 -2.367964E+04  4.909007E+03 -1.484969E-10  5.420799E-10
       283  18  8.496137E+04  1.887859E+04  5.288103E+04  2.312487E+04 -3.983402E-10  1.480238E-10
       283  19  8.889116E+05  8.221148E+04  1.293130E+05 -3.446722E+03  3.046905E+04  1.317345E+04
       283  20  9.078083E+05  8.379179E+04  1.663089E+05 -2.177698E+04  7.488249E+04  1.420472E+04
       283  21  9.711492E+05  2.394022E+05  2.707350E+05 -6.666826E+04  1.193066E+05  4.797316E+03
       283  22  5.280083E+05 -6.971587E+03  4.409418E+04 -2.166183E+04  3.404949E+04  1.317433E+04
       283  23  5.062773E+05 -1.542951E+04  7.132496E+04 -8.429242E+03  7.242370E+04  1.420556E+04
       283  24  5.279694E+05  1.291453E+05  1.618244E+05 -2.175545E+04  1.108051E+05  4.799636E+03
       283  25  1.672253E+05 -9.616272E+04 -4.113340E+04 -3.986632E+04  3.762786E+04  1.317500E+04
       283  26  1.048947E+05 -1.146617E+05 -2.367006E+04  4.909808E+03  6.996648E+04  1.420629E+04
       283  27  8.497261E+04  1.888142E+04  5.290074E+04  2.312526E+04  1.023097E+05  4.800731E+03
       284   1  1.215026E+05  8.091110E+05  1.347947E+05 -6.149896E+04  2.354090E+03  5.366413E+04
       284   2  3.854819E+04  7.236837E+05  7.400334E+04 -2.300662E+04  6.388938E+03  3.322112E+04
       284   3  2.344855E+04  6.577210E+05  4.344296E+04 -3.369858E+04  3.671996E+03  1.277004E+04
       284   4  5.691979E+04  5.501376E+05  7.100103E+04 -4.140593E+04  2.362120E+03  4.939756E+04
       284   5 -6.692490E+03  5.407523E+05  3.071423E+04 -1.685852E+04  6.389949E+03  3.285355E+04
       284   6 -3.114458E+03  5.501595E+05  1.796230E+04 -4.149460E+04  3.666023E+03  1.629896E+04
       284   7 -7.666510E+03  2.912261E+05  7.202698E+03 -2.132126E+04  2.369877E+03  4.513275E+04
       284   8 -5.193543E+04  3.578516E+05 -1.257718E+04 -1.071222E+04  6.390954E+03  3.248609E+04
       284   9 -2.967805E+04  4.426088E+05 -7.519091E+03 -4.928925E+04  3.659961E+03  1.982727E+04
       284  10  1.215018E+05  8.091079E+05  1.347893E+05 -6.149906E+04  2.212369E-11 -1.891306E-10
       284  11  3.854785E+04  7.236825E+05  7.400119E+04 -2.300679E+04 -2.234648E-10 -3.736557E-11
       284  12  2.344849E+04  6.577208E+05  4.344263E+04 -3.369862E+04  1.002884E-09  1.325245E-10
       284  13  5.691913E+04  5.501350E+05  7.099644E+04 -4.140603E+04  5.133509E-10 -7.104601E-11
       284  14 -6.692823E+03  5.407511E+05  3.071213E+04 -1.685869E+04 -1.241103E-09  2.219101E-10
       284  15 -3.114544E+03  5.501592E+05  1.796177E+04 -4.149464E+04  7.790921E-10 -3.093262E-12
       284  16 -7.667063E+03  2.912239E+05  7.198861E+03 -2.132135E+04  2.166747E-11  1.509175E-10
       284  17 -5.193576E+04  3.578505E+05 -1.257923E+04 -1.071239E+04 -6.989400E-10  7.911223E-11
       284  18 -2.967817E+04  4.426084E+05 -7.519854E+03 -4.928930E+04  1.181535E-10 -1.364036E-10
       284  19  1.215026E+05  8.091110E+05  1.347947E+05 -6.149896E+04 -2.354090E+03 -5.366413E+04
       284  20  3.854819E+04  7.236837E+05  7.400334E+04 -2.300662E+04 -6.388938E+03 -3.322112E+04
       284  21  2.344855E+04  6.577210E+05  4.344296E+04 -3.369858E+04 -3.671996E+03 -1.277004E+04
       284  22  5.691979E+04  5.501376E+05  7.100103E+04 -4.140593E+04 -2.362120E+03 -4.939756E+04
       284  23 -6.692490E+03  5.407523E+05  3.071423E+04 -1.685852E+04 -6.389949E+03 -3.285355E+04
       284  24 -3.114458E+03  5.501595E+05  1.796230E+04 -4.149460E+04 -3.666023E+03 -1.629896E+04
       284  25 -7.666510E+03  2.912261E+05  7.202698E+03 -2.132126E+04 -2.369877E+03 -4.513275E+04
       284  26 -5.193543E+04  3.578516E+05 -1.257718E+04 -1.071222E+04 -6.390954E+03 -3.248609E+04
       284  27 -2.967805E+04  4.426088E+05 -7.519091E+03 -4.928925E+04 -3.659961E+03 -1.982727E+04
       285   1  1.036678E+04  5.654970E+05  1.837675E+04 -4.283506E+04  7.655411E+02  1.197467E+04
       285   2 -1.426300E+04  4.893881E+05 -8.502265E+03 -1.733821E+04 -2.011415E+03  9.605443E+03
       285   3 -3.489918E+04  4.143976E+05 -3.288444E+04 -4.118485E+04 -4.629680E+03  7.237075E+03
       285   4  5.607390E+03  5.462339E+05  1.385759E+04 -4.149552E+04  7.628014E+02  1.362352E+04
       285   5 -3.525220E+02  5.456697E+05  4.811275E+03 -1.683040E+04 -2.013931E+03  1.116312E+04
       285   6 -2.302472E+03  5.462353E+05 -1.673886E+03 -4.150840E+04 -4.631989E+03  8.703305E+03
       285   7  8.479778E+02  5.269711E+05  9.338427E+03 -4.015602E+04  7.600688E+02  1.527231E+04
       285   8  1.355774E+04  6.019544E+05  1.812460E+04 -1.632254E+04 -2.016444E+03  1.272094E+04
       285   9  3.029299E+04  6.780891E+05  2.953547E+04 -4.183200E+04 -4.634300E+03  1.016985E+04
       285  10  1.036675E+04  5.654969E+05  1.837648E+04 -4.283507E+04  6.459633E-11 -5.124891E-10
       285  11 -1.426303E+04  4.893880E+05 -8.502446E+03 -1.733820E+04  2.349017E-10 -3.056849E-10
       285  12 -3.489921E+04  4.143975E+05 -3.288458E+04 -4.118482E+04 -7.585715E-10  1.197976E-10
       285  13  5.607340E+03  5.462337E+05  1.385724E+04 -4.149553E+04  3.610765E-10  5.926200E-11
       285  14 -3.525598E+02  5.456696E+05  4.811033E+03 -1.683038E+04  9.631110E-10 -1.303364E-10
       285  15 -2.302515E+03  5.462352E+05 -1.674068E+03 -4.150836E+04  1.151361E-09 -1.399902E-10
       285  16  8.479146E+02  5.269708E+05  9.337988E+03 -4.015603E+04  2.800370E-10  5.348644E-10
       285  17  1.355769E+04  6.019542E+05  1.812429E+04 -1.632252E+04 -1.060971E-09  2.827177E-10
       285  18  3.029294E+04  6.780890E+05  2.953524E+04 -4.183197E+04 -3.763184E-10 -6.454897E-11
       285  19  1.036678E+04  5.654970E+05  1.837675E+04 -4.283506E+04 -7.655411E+02 -1.197467E+04
       285  20 -1.426300E+04  4.893881E+05 -8.502265E+03 -1.733821E+04  2.011415E+03 -9.605443E+03
       285  21 -3.489918E+04  4.143976E+05 -3.288444E+04 -4.118485E+04  4.629680E+03 -7.237075E+03
       285  22  5.607390E+03  5.462339E+05  1.385759E+04 -4.149552E+04 -7.628014E+02 -1.362352E+04
       285  23 -3.525220E+02  5.456697E+05  4.811275E+03 -1.683040E+04  2.013931E+03 -1.116312E+04
       285  24 -2.302472E+03  5.462353E+05 -1.673886E+03 -4.150840E+04  4.631989E+03 -8.703305E+03
       285  25  8.479778E+02  5.269711E+05  9.338427E+03 -4.015602E+04 -7.600688E+02 -1.527231E+04
       285  26  1.355774E+04  6.019544E+05  1.812460E+04 -1.632254E+04  2.016444E+03 -1.272094E+04
       285  27  3.029299E+04  6.780891E+05  2.953547E+04 -4.183200E+04  4.634300E+03 -1.016985E+04
       286   1 -5.262244E+04  3.241039E+05 -5.634668E+04 -3.814623E+04 -7.856450E+03  4.998985E+03
       286   2 -7.045986E+04  2.522838E+05 -8.093405E+04 -1.889077E+04 -1.044977E+04  1.629821E+04
       286   3 -1.152911E+05  1.721594E+05 -1.196453E+05 -4.897141E+04 -3.738570E+03  2.760820E+04
       286   4  1.833150E+03  5.443353E+05 -4.255489E+03 -4.149139E+04 -7.862810E+03  9.166573E+03
       286   5  2.653079E+03  5.480220E+05 -1.094270E+04 -1.683950E+04 -1.044772E+04  1.510754E+04
       286   6 -2.258372E+04  5.443325E+05 -2.803008E+04 -4.152303E+04 -3.729870E+03  2.106081E+04
       286   7  5.628532E+04  7.646112E+05  4.783241E+04 -4.483772E+04 -7.869214E+03  1.333563E+04
       286   8  7.575977E+04  8.438405E+05  5.904260E+04 -1.478722E+04 -1.044568E+04  1.391631E+04
       286   9  7.011359E+04  9.166318E+05  6.357509E+04 -3.407014E+04 -3.721331E+03  1.450949E+04
       286  10 -5.262252E+04  3.241039E+05 -5.634685E+04 -3.814619E+04  3.321517E-11 -2.675494E-10
       286  11 -7.046005E+04  2.522834E+05 -8.093476E+04 -1.889064E+04  2.914791E-10 -9.165216E-11
       286  12 -1.152913E+05  1.721586E+05 -1.196467E+05 -4.897133E+04 -2.497737E-10  1.088038E-10
       286  13  1.833061E+03  5.443352E+05 -4.255763E+03 -4.149133E+04 -1.121687E-09  7.323184E-11
       286  14  2.652900E+03  5.480217E+05 -1.094333E+04 -1.683937E+04  4.267849E-10 -9.078792E-11
       286  15 -2.258385E+04  5.443321E+05 -2.803094E+04 -4.152297E+04 -3.940303E-10  1.274077E-11
       286  16  5.628520E+04  7.646110E+05  4.783196E+04 -4.483764E+04  4.014991E-10  1.399721E-10
       286  17  7.575960E+04  8.438402E+05  5.904203E+04 -1.478710E+04 -1.629851E-10 -2.301141E-11
       286  18  7.011351E+04  9.166315E+05  6.357467E+04 -3.407009E+04 -5.807538E-10 -8.829142E-11
       286  19 -5.262244E+04  3.241039E+05 -5.634668E+04 -3.814623E+04  7.856450E+03 -4.998985E+03
       286  20 -7.045986E+04  2.522838E+05 -8.093405E+04 -1.889077E+04  1.044977E+04 -1.629821E+04
       286  21 -1.152911E+05  1.721594E+05 -1.196453E+05 -4.897141E+04  3.738570E+03 -2.760820E+04
       286  22  1.833150E+03  5.443353E+05 -4.255489E+03 -4.149139E+04  7.862810E+03 -9.166573E+03
       286  23  2.653079E+03  5.480220E+05 -1.094270E+04 -1.683950E+04  1.044772E+04 -1.510754E+04
       286  24 -2.258372E+04  5.443325E+05 -2.803008E+04 -4.152303E+04  3.729870E+03 -2.106081E+04
       286  25  5.628532E+04  7.646112E+05  4.783241E+04 -4.483772E+04  7.869214E+03 -1.333563E+04
       286  26  7.575977E+04  8.438405E+05  5.904260E+04 -1.478722E+04  1.044568E+04 -1.391631E+04
       286  27  7.011359E+04  9.166318E+05  6.357509E+04 -3.407014E+04  3.721331E+03 -1.450949E+04
       287   1 -8.155795E+05 -3.442442E+05 -2.496231E+05 -2.780039E+05 -1.081782E+05 -3.629505E+04
       287   2 -7.823305E+05 -1.832504E+05 -1.490935E+05 -2.844828E+05 -7.054121E+04 -1.310688E+04
       287   3 -7.969163E+05 -1.727821E+05 -1.172256E+05 -2.664603E+05 -2.973686E+04  1.673843E+03
       287   4 -5.047008E+05 -1.888726E+05 -1.577957E+05 -1.542557E+05 -1.016913E+05 -3.386133E+04
       287   5 -4.729775E+05 -5.583029E+04 -6.620496E+04 -1.884177E+05 -6.856791E+04 -1.236645E+04
       287   6 -4.881672E+05 -7.237901E+04 -3.967101E+04 -1.980872E+05 -3.227833E+04  7.185737E+02
       287   7 -1.937264E+05 -3.347235E+04 -6.597793E+04 -3.044483E+04 -9.520084E+04 -3.142527E+04
       287   8 -1.635317E+05  7.160096E+04  1.667499E+04 -9.230754E+04 -6.659353E+04 -1.162552E+04
       287   9 -1.793249E+05  2.802481E+04  3.787649E+04 -1.296858E+05 -3.482119E+04 -2.370581E+02
       287  10 -8.155924E+05 -3.442488E+05 -2.496476E+05 -2.780071E+05 -2.126131E-10 -5.860672E-11
       287  11 -7.823359E+05 -1.832519E+05 -1.491032E+05 -2.844835E+05 -6.749395E-11 -9.310200E-11
       287  12 -7.969172E+05 -1.727823E+05 -1.172273E+05 -2.664602E+05 -1.710681E-10  7.741972E-11
       287  13 -5.047122E+05 -1.888766E+05 -1.578173E+05 -1.542584E+05  4.717771E-10 -3.194146E-11
       287  14 -4.729826E+05 -5.583172E+04 -6.621409E+04 -1.884184E+05  1.211515E-10 -1.373768E-10
       287  15 -4.881683E+05 -7.237929E+04 -3.967297E+04 -1.980872E+05 -5.583763E-10 -4.504424E-12
       287  16 -1.937364E+05 -3.347585E+04 -6.599682E+04 -3.044724E+04 -2.270835E-10 -6.056096E-11
       287  17 -1.635364E+05  7.159962E+04  1.666640E+04 -9.230816E+04 -1.609054E-10 -1.418618E-10
       287  18 -1.793262E+05  2.802448E+04  3.787421E+04 -1.296858E+05 -4.292880E-11 -7.094372E-11
       287  19 -8.155795E+05 -3.442442E+05 -2.496231E+05 -2.780039E+05  1.081782E+05  3.629505E+04
       287  20 -7.823305E+05 -1.832504E+05 -1.490935E+05 -2.844828E+05  7.054121E+04  1.310688E+04
       287  21 -7.969163E+05 -1.727821E+05 -1.172256E+05 -2.664603E+05  2.973686E+04 -1.673843E+03
       287  22 -5.047008E+05 -1.888726E+05 -1.577957E+05 -1.542557E+05  1.016913E+05  3.386133E+04
       287  23 -4.729775E+05 -5.583029E+04 -6.620496E+04 -1.884177E+05  6.856791E+04  1.236645E+04
       287  24 -4.881672E+05 -7.237901E+04 -3.967101E+04 -1.980872E+05  3.227833E+04 -7.185737E+02
       287  25 -1.937264E+05 -3.347235E+04 -6.597793E+04 -3.044483E+04  9.520084E+04  3.142527E+04
       287  26 -1.635317E+05  7.160096E+04  1.667499E+04 -9.230754E+04  6.659353E+04  1.162552E+04
       287  27 -1.793249E+05  2.802481E+04  3.787649E+04 -1.296858E+05  3.482119E+04  2.370581E+02
       288   1 -7.518910E+05 -1.927600E+05 -1.032187E+05 -2.660421E+05 -2.605563E+04  1.101706E+03
       288   2 -7.340672E+05 -1.647698E+05 -8.101497E+04 -2.559948E+05 -1.751960E+04  3.906752E+03
       288   3 -7.119186E+05 -1.615993E+05 -6.890720E+04 -2.546860E+05 -8.761530E+03  6.120663E+03
       288   4 -4.829476E+05 -8.828709E+04 -3.215797E+04 -1.890509E+05 -2.609393E+04  1.086802E+03
       288   5 -4.843176E+05 -7.009316E+04 -1.562062E+04 -1.868662E+05 -1.787295E+04  3.773653E+03
       288   6 -4.812980E+05 -7.665266E+04 -8.925968E+03 -1.934206E+05 -9.430231E+03  5.869302E+03
       288   7 -2.139348E+05  1.619128E+04  3.889625E+04 -1.120293E+05 -2.613224E+04  1.071891E+03
       288   8 -2.345075E+05  2.458766E+04  4.976843E+04 -1.177124E+05 -1.822645E+04  3.640494E+03
       288   9 -2.506252E+05  8.296987E+03  5.105101E+04 -1.321347E+05 -1.009921E+04  5.617843E+03
       288  10 -7.518917E+05 -1.927602E+05 -1.032199E+05 -2.660421E+05  3.740028E-10  1.583557E-10
       288  11 -7.340676E+05 -1.647699E+05 -8.101557E+04 -2.559948E+05  6.649658E-12 -7.631121E-11
       288  12 -7.119187E+05 -1.615994E+05 -6.890741E+04 -2.546859E+05  8.008314E-10  9.582850E-11
       288  13 -4.829483E+05 -8.828728E+04 -3.215925E+04 -1.890509E+05 -4.621905E-11  7.878221E-11
       288  14 -4.843180E+05 -7.009326E+04 -1.562125E+04 -1.868662E+05 -1.363126E-10 -1.898828E-11
       288  15 -4.812981E+05 -7.665273E+04 -8.926199E+03 -1.934205E+05  6.875637E-11  4.478613E-11
       288  16 -2.139356E+05  1.619109E+04  3.889496E+04 -1.120293E+05 -5.658450E-10 -1.277131E-11
       288  17 -2.345079E+05  2.458755E+04  4.976778E+04 -1.177123E+05 -2.442090E-10  5.663390E-12
       288  18 -2.506254E+05  8.296925E+03  5.105076E+04 -1.321346E+05 -2.948713E-10 -1.484829E-10
       288  19 -7.518910E+05 -1.927600E+05 -1.032187E+05 -2.660421E+05  2.605563E+04 -1.101706E+03
       288  20 -7.340672E+05 -1.647698E+05 -8.101497E+04 -2.559948E+05  1.751960E+04 -3.906752E+03
       288  21 -7.119186E+05 -1.615993E+05 -6.890720E+04 -2.546860E+05  8.761530E+03 -6.120663E+03
       288  22 -4.829476E+05 -8.828709E+04 -3.215797E+04 -1.890509E+05  2.609393E+04 -1.086802E+03
       288  23 -4.843176E+05 -7.009316E+04 -1.562062E+04 -1.868662E+05  1.787295E+04 -3.773653E+03
       288  24 -4.812980E+05 -7.665266E+04 -8.925968E+03 -1.934206E+05  9.430231E+03 -5.869302E+03
       288  25 -2.139348E+05  1.619128E+04  3.889625E+04 -1.120293E+05  2.613224E+04 -1.071891E+03
       288  26 -2.345075E+05  2.458766E+04  4.976843E+04 -1.177124E+05  1.822645E+04 -3.640494E+03
       288  27 -2.506252E+05  8.296987E+03  5.105101E+04 -1.321347E+05  1.009921E+04 -5.617843E+03
       289   1 -6.832535E+05 -1.545520E+05 -5.983372E+04 -2.481179E+05 -7.411858E+03  5.884173E+03
       289   2 -6.669394E+05 -1.396009E+05 -5.098819E+04 -2.361960E+05 -5.191245E+03  5.638960E+03
       289   3 -6.404705E+05 -1.369654E+05 -4.390570E+04 -2.364285E+05 -2.953187E+03  5.346203E+03
       289   4 -4.806286E+05 -7.824836E+04 -6.935023E+03 -1.925398E+05 -7.909743E+03  5.697030E+03
       289   5 -4.856260E+05 -7.151847E+04 -3.636539E+03 -1.866780E+05 -5.714120E+03  5.442546E+03
       289   6 -4.804640E+05 -7.709847E+04 -2.080751E+03 -1.929703E+05 -3.501126E+03  5.140499E+03
       289   7 -2.779638E+05 -1.942175E+03  4.596020E+04 -1.369453E+05 -8.407806E+03  5.509819E+03
       289   8 -3.042810E+05 -3.434082E+03  4.371225E+04 -1.371470E+05 -6.237160E+03  5.246069E+03
       289   9 -3.204331E+05 -1.723018E+04  3.974189E+04 -1.495022E+05 -4.049219E+03  4.934738E+03
       289  10 -6.832536E+05 -1.545520E+05 -5.983389E+04 -2.481178E+05 -2.005362E-10  2.816909E-12
       289  11 -6.669394E+05 -1.396010E+05 -5.098830E+04 -2.361960E+05 -3.186296E-10  4.583880E-11
       289  12 -6.404706E+05 -1.369655E+05 -4.390577E+04 -2.364285E+05 -1.440463E-10  3.737142E-11
       289  13 -4.806286E+05 -7.824842E+04 -6.935202E+03 -1.925398E+05  2.704920E-10  8.130958E-11
       289  14 -4.856260E+05 -7.151851E+04 -3.636656E+03 -1.866779E+05  7.779859E-11  2.219143E-10
       289  15 -4.804640E+05 -7.709850E+04 -2.080823E+03 -1.929703E+05  2.393270E-11  1.555568E-10
       289  16 -2.779639E+05 -1.942226E+03  4.596001E+04 -1.369453E+05 -3.812675E-11  3.666376E-11
       289  17 -3.042810E+05 -3.434122E+03  4.371213E+04 -1.371470E+05 -5.727283E-11  2.068772E-10
       289  18 -3.204332E+05 -1.723021E+04  3.974182E+04 -1.495022E+05 -4.899122E-11  1.145676E-10
       289  19 -6.832535E+05 -1.545520E+05 -5.983372E+04 -2.481179E+05  7.411858E+03 -5.884173E+03
       289  20 -6.669394E+05 -1.396009E+05 -5.098819E+04 -2.361960E+05  5.191245E+03 -5.638960E+03
       289  21 -6.404705E+05 -1.369654E+05 -4.390570E+04 -2.364285E+05  2.953187E+03 -5.346203E+03
       289  22 -4.806286E+05 -7.824836E+04 -6.935023E+03 -1.925398E+05  7.909743E+03 -5.697030E+03
       289  23 -4.856260E+05 -7.151847E+04 -3.636539E+03 -1.866780E+05  5.714120E+03 -5.442546E+03
       289  24 -4.804640E+05 -7.709847E+04 -2.080751E+03 -1.929703E+05  3.501126E+03 -5.140499E+03
       289  25 -2.779638E+05 -1.942175E+03  4.596020E+04 -1.369453E+05  8.407806E+03 -5.509819E+03
       289  26 -3.042810E+05 -3.434082E+03  4.371225E+04 -1.371470E+05  6.237160E+03 -5.246069E+03
       289  27 -3.204331E+05 -1.723018E+04  3.974189E+04 -1.495022E+05  4.049219E+03 -4.934738E+03
       290   1 -6.131048E+05 -1.270784E+05 -3.620753E+04 -2.291412E+05 -2.439091E+03  4.868565E+03
       290   2 -5.967834E+05 -1.132492E+05 -2.996999E+04 -2.168819E+05 -1.560103E+03  4.056399E+03
       290   3 -5.695269E+05 -1.106206E+05 -2.414471E+04 -2.172497E+05 -6.787414E+02  3.237214E+03
       290   4 -4.803498E+05 -7.727856E+04 -1.625190E+03 -1.929144E+05 -2.976774E+03  4.666772E+03
       290   5 -4.858091E+05 -7.162549E+04 -9.978917E+02 -1.866204E+05 -2.101457E+03  3.853297E+03
       290   6 -4.803335E+05 -7.717228E+04 -7.799765E+02 -1.929537E+05 -1.223787E+03  3.032798E+03
       290   7 -3.475773E+05 -2.747749E+04  3.295578E+04 -1.566806E+05 -3.514586E+03  4.464931E+03
       290   8 -3.748226E+05 -3.000095E+04  2.797322E+04 -1.563540E+05 -2.642918E+03  3.650155E+03
       290   9 -3.911324E+05 -4.372346E+04  2.258409E+04 -1.686546E+05 -1.768919E+03  2.828350E+03
       290  10 -6.131048E+05 -1.270784E+05 -3.620758E+04 -2.291412E+05 -2.251208E-10  1.510865E-10
       290  11 -5.967835E+05 -1.132492E+05 -2.997003E+04 -2.168819E+05 -2.248274E-10 -6.368889E-11
       290  12 -5.695269E+05 -1.106206E+05 -2.414473E+04 -2.172497E+05 -2.221623E-11 -2.408567E-10
       290  13 -4.803498E+05 -7.727859E+04 -1.625248E+03 -1.929144E+05 -1.547969E-10  6.646550E-11
       290  14 -4.858091E+05 -7.162550E+04 -9.979279E+02 -1.866204E+05  4.218075E-11 -6.721428E-11
       290  15 -4.803335E+05 -7.717229E+04 -7.799966E+02 -1.929537E+05 -3.333784E-10 -5.793531E-11
       290  16 -3.475773E+05 -2.747752E+04  3.295572E+04 -1.566806E+05  2.594073E-10  9.207593E-11
       290  17 -3.748226E+05 -3.000096E+04  2.797318E+04 -1.563540E+05  5.831586E-11  3.731503E-11
       290  18 -3.911324E+05 -4.372347E+04  2.258407E+04 -1.686546E+05  9.570776E-11 -7.485192E-11
       290  19 -6.131048E+05 -1.270784E+05 -3.620753E+04 -2.291412E+05  2.439091E+03 -4.868565E+03
       290  20 -5.967834E+05 -1.132492E+05 -2.996999E+04 -2.168819E+05  1.560103E+03 -4.056399E+03
       290  21 -5.695269E+05 -1.106206E+05 -2.414471E+04 -2.172497E+05  6.787414E+02 -3.237214E+03
       290  22 -4.803498E+05 -7.727856E+04 -1.625190E+03 -1.929144E+05  2.976774E+03 -4.666772E+03
       290  23 -4.858091E+05 -7.162549E+04 -9.978917E+02 -1.866204E+05  2.101457E+03 -3.853297E+03
       290  24 -4.803335E+05 -7.717228E+04 -7.799765E+02 -1.929537E+05  1.223787E+03 -3.032798E+03
       290  25 -3.475773E+05 -2.747749E+04  3.295578E+04 -1.566806E+05  3.514586E+03 -4.464931E+03
       290  26 -3.748226E+05 -3.000095E+04  2.797322E+04 -1.563540E+05  2.642918E+03 -3.650155E+03
       290  27 -3.911324E+05 -4.372346E+04  2.258409E+04 -1.686546E+05  1.768919E+03 -2.828350E+03
       291   1 -5.420725E+05 -1.003566E+05 -1.681884E+04 -2.098368E+05 -3.285707E+02  2.696417E+03
       291   2 -5.256289E+05 -8.653162E+04 -1.136203E+04 -1.974511E+05  5.373076E+02  1.866145E+03
       291   3 -4.981795E+05 -8.398286E+04 -6.306313E+03 -1.977942E+05  1.403146E+03  1.035725E+03
       291   4 -4.803171E+05 -7.719236E+04 -7.763348E+02 -1.929746E+05 -8.742293E+02  2.491805E+03
       291   5 -4.858259E+05 -7.159919E+04 -9.704084E+02 -1.865932E+05 -8.400553E+00  1.661539E+03
       291   6 -4.803295E+05 -7.728221E+04 -1.565504E+03 -1.929408E+05  8.573709E+02  8.311200E+02
       291   7 -4.185581E+05 -5.402800E+04  1.526580E+04 -1.761109E+05 -1.419946E+03  2.287171E+03
       291   8 -4.460214E+05 -5.666666E+04  9.421084E+03 -1.757347E+05 -5.541471E+02  1.456919E+03
       291   9 -4.624791E+05 -7.058152E+04  3.175294E+03 -1.880873E+05  3.115769E+02  6.265079E+02
       291  10 -5.420726E+05 -1.003566E+05 -1.681885E+04 -2.098368E+05 -8.742085E-11 -2.374458E-10
       291  11 -5.256289E+05 -8.653163E+04 -1.136204E+04 -1.974511E+05  7.706347E-11  2.620700E-10
       291  12 -4.981795E+05 -8.398286E+04 -6.306318E+03 -1.977942E+05 -3.889347E-10  6.297844E-11
       291  13 -4.803171E+05 -7.719237E+04 -7.763479E+02 -1.929746E+05 -2.239392E-10 -7.520972E-11
       291  14 -4.858259E+05 -7.159919E+04 -9.704136E+02 -1.865932E+05  3.683057E-11  1.236993E-10
       291  15 -4.803295E+05 -7.728221E+04 -1.565506E+03 -1.929408E+05 -3.598915E-10  1.400989E-10
       291  16 -4.185581E+05 -5.402800E+04  1.526579E+04 -1.761109E+05  1.547796E-10  3.352108E-11
       291  17 -4.460214E+05 -5.666666E+04  9.421079E+03 -1.757347E+05 -2.882099E-10  2.392869E-11
       291  18 -4.624791E+05 -7.058152E+04  3.175293E+03 -1.880873E+05  2.365788E-11  6.129751E-11
       291  19 -5.420725E+05 -1.003566E+05 -1.681884E+04 -2.098368E+05  3.285707E+02 -2.696417E+03
       291  20 -5.256289E+05 -8.653162E+04 -1.136203E+04 -1.974511E+05 -5.373076E+02 -1.866145E+03
       291  21 -4.981795E+05 -8.398286E+04 -6.306313E+03 -1.977942E+05 -1.403146E+03 -1.035725E+03
       291  22 -4.803171E+05 -7.719236E+04 -7.763348E+02 -1.929746E+05  8.742293E+02 -2.491805E+03
       291  23 -4.858259E+05 -7.159919E+04 -9.704084E+02 -1.865932E+05  8.400553E+00 -1.661539E+03
       291  24 -4.803295E+05 -7.728221E+04 -1.565504E+03 -1.929408E+05 -8.573709E+02 -8.311200E+02
       291  25 -4.185581E+05 -5.402800E+04  1.526580E+04 -1.761109E+05  1.419946E+03 -2.287171E+03
       291  26 -4.460214E+05 -5.666666E+04  9.421084E+03 -1.757347E+05  5.541471E+02 -1.456919E+03
       291  27 -4.624791E+05 -7.058152E+04  3.175294E+03 -1.880873E+05 -3.115769E+02 -6.265079E+02
       292   1 -4.706053E+05 -7.363200E+04  6.063735E+02 -1.905489E+05  1.925777E+03  5.539031E+02
       292   2 -4.540578E+05 -5.955369E+04  4.775684E+03 -1.779410E+05  4.056917E+03  1.972320E+02
       292   3 -4.271195E+05 -5.797098E+04  7.274666E+03 -1.778038E+05  6.178824E+03 -1.344939E+02
       292   4 -4.804095E+05 -7.714772E+04 -2.002270E+03 -1.930357E+05  1.372916E+03  3.466435E+02
       292   5 -4.856806E+05 -7.144432E+04 -3.484985E+03 -1.865958E+05  3.517391E+03 -5.050181E+00
       292   6 -4.805641E+05 -7.823925E+04 -6.648632E+03 -1.926269E+05  5.652561E+03 -3.318229E+02
       292   7 -4.902136E+05 -8.066344E+04 -4.610920E+03 -1.955224E+05  8.200645E+02  1.393872E+02
       292   8 -5.173024E+05 -8.333487E+04 -1.174572E+04 -1.952503E+05  2.977895E+03 -2.073207E+02
       292   9 -5.340056E+05 -9.850725E+04 -2.057212E+04 -2.074489E+05  5.126349E+03 -5.291321E+02
       292  10 -4.706053E+05 -7.363201E+04  6.063659E+02 -1.905489E+05 -1.475217E-10  4.041394E-11
       292  11 -4.540578E+05 -5.955370E+04  4.775653E+03 -1.779410E+05 -2.850916E-10 -1.367158E-10
       292  12 -4.271196E+05 -5.797099E+04  7.274595E+03 -1.778038E+05 -1.669206E-10 -9.784897E-11
       292  13 -4.804095E+05 -7.714773E+04 -2.002274E+03 -1.930357E+05 -1.087675E-10  4.397418E-11
       292  14 -4.856806E+05 -7.144432E+04 -3.485009E+03 -1.865958E+05  8.746532E-11 -2.020574E-10
       292  15 -4.805641E+05 -7.823926E+04 -6.648692E+03 -1.926269E+05  1.775952E-10 -1.255379E-10
       292  16 -4.902136E+05 -8.066344E+04 -4.610921E+03 -1.955224E+05  5.024170E-11  5.767926E-11
       292  17 -5.173025E+05 -8.333487E+04 -1.174574E+04 -1.952503E+05 -9.784891E-11 -6.795507E-11
       292  18 -5.340057E+05 -9.850726E+04 -2.057217E+04 -2.074489E+05  2.002799E-10 -4.771686E-11
       292  19 -4.706053E+05 -7.363200E+04  6.063735E+02 -1.905489E+05 -1.925777E+03 -5.539031E+02
       292  20 -4.540578E+05 -5.955369E+04  4.775684E+03 -1.779410E+05 -4.056917E+03 -1.972320E+02
       292  21 -4.271195E+05 -5.797098E+04  7.274666E+03 -1.778038E+05 -6.178824E+03  1.344939E+02
       292  22 -4.804095E+05 -7.714772E+04 -2.002270E+03 -1.930357E+05 -1.372916E+03 -3.466435E+02
       292  23 -4.856806E+05 -7.144432E+04 -3.484985E+03 -1.865958E+05 -3.517391E+03  5.050181E+00
       292  24 -4.805641E+05 -7.823925E+04 -6.648632E+03 -1.926269E+05 -5.652561E+03  3.318229E+02
       292  25 -4.902136E+05 -8.066344E+04 -4.610920E+03 -1.955224E+05 -8.200645E+02 -1.393872E+02
       292  26 -5.173024E+05 -8.333487E+04 -1.174572E+04 -1.952503E+05 -2.977895E+03  2.073207E+02
       292  27 -5.340056E+05 -9.850725E+04 -2.057212E+04 -2.074489E+05 -5.126349E+03  5.291321E+02
       293   1 -3.989646E+05 -4.748086E+04  1.267659E+04 -1.727265E+05  7.743717E+03 -2.738250E+02
       293   2 -3.821944E+05 -3.083395E+04  1.188698E+04 -1.579697E+05  1.568000E+04  1.572617E+03
       293   3 -3.603965E+05 -3.872841E+04  1.799431E+03 -1.526013E+05  2.348608E+04  3.767990E+03
       293   4 -4.811764E+05 -7.674561E+04 -8.557928E+03 -1.935093E+05  7.115291E+03 -5.094656E+02
       293   5 -4.844576E+05 -7.002845E+04 -1.496514E+04 -1.867257E+05  1.523826E+04  1.406869E+03
       293   6 -4.827498E+05 -8.789171E+04 -3.081973E+04 -1.893310E+05  2.323074E+04  3.671990E+03
       293   7 -5.633820E+05 -1.060102E+05 -2.979307E+04 -2.142898E+05  6.486955E+03 -7.450767E+02
       293   8 -5.867108E+05 -1.092222E+05 -4.181821E+04 -2.154774E+05  1.479660E+04  1.241153E+03
       293   9 -6.050887E+05 -1.370535E+05 -6.344020E+04 -2.260538E+05  2.297545E+04  3.576013E+03
       293  10 -3.989646E+05 -4.748088E+04  1.267648E+04 -1.727265E+05  3.563675E-11 -2.448601E-11
       293  11 -3.821946E+05 -3.083402E+04  1.188652E+04 -1.579697E+05 -9.365998E-11 -2.022281E-10
       293  12 -3.603971E+05 -3.872857E+04  1.798367E+03 -1.526014E+05  4.357461E-11 -4.988774E-11
       293  13 -4.811765E+05 -7.674562E+04 -8.558024E+03 -1.935093E+05 -9.532514E-11 -1.651178E-10
       293  14 -4.844578E+05 -7.002851E+04 -1.496558E+04 -1.867257E+05  6.458020E-11 -2.091859E-10
       293  15 -4.827504E+05 -8.789187E+04 -3.082077E+04 -1.893310E+05 -8.854932E-11 -2.730307E-11
       293  16 -5.633820E+05 -1.060102E+05 -2.979316E+04 -2.142897E+05  2.375532E-10 -1.387702E-10
       293  17 -5.867110E+05 -1.092223E+05 -4.181863E+04 -2.154774E+05  1.406567E-10 -1.396229E-10
       293  18 -6.050892E+05 -1.370537E+05 -6.344121E+04 -2.260539E+05 -8.473411E-11  1.097118E-10
       293  19 -3.989646E+05 -4.748086E+04  1.267659E+04 -1.727265E+05 -7.743717E+03  2.738250E+02
       293  20 -3.821944E+05 -3.083395E+04  1.188698E+04 -1.579697E+05 -1.568000E+04 -1.572617E+03
       293  21 -3.603965E+05 -3.872841E+04  1.799431E+03 -1.526013E+05 -2.348608E+04 -3.767990E+03
       293  22 -4.811764E+05 -7.674561E+04 -8.557928E+03 -1.935093E+05 -7.115291E+03  5.094656E+02
       293  23 -4.844576E+05 -7.002845E+04 -1.496514E+04 -1.867257E+05 -1.523826E+04 -1.406869E+03
       293  24 -4.827498E+05 -8.789171E+04 -3.081973E+04 -1.893310E+05 -2.323074E+04 -3.671990E+03
       293  25 -5.633820E+05 -1.060102E+05 -2.979307E+04 -2.142898E+05 -6.486955E+03  7.450767E+02
       293  26 -5.867108E+05 -1.092222E+05 -4.181821E+04 -2.154774E+05 -1.479660E+04 -1.241153E+03
       293  27 -6.050887E+05 -1.370535E+05 -6.344020E+04 -2.260538E+05 -2.297545E+04 -3.576013E+03
       294   1 -3.249540E+05 -2.654346E+04  1.590112E+03 -1.690016E+05  3.076200E+04  5.047146E+03
       294   2 -3.081335E+05  1.645666E+04 -1.823867E+04 -1.319939E+05  6.295925E+04  1.629962E+04
       294   3 -3.347014E+05 -8.448782E+04 -9.829742E+04 -7.284474E+04  9.328413E+04  3.254614E+04
       294   4 -4.877222E+05 -7.268176E+04 -3.802122E+04 -1.980306E+05  2.901916E+04  4.394051E+03
       294   5 -4.736391E+05 -5.629029E+04 -6.343881E+04 -1.881422E+05  6.389841E+04  1.665061E+04
       294   6 -5.034927E+05 -1.844008E+05 -1.512254E+05 -1.561095E+05  9.690459E+04  3.389839E+04
       294   7 -6.504644E+05 -1.188206E+05 -7.763431E+04 -2.270539E+05  2.727683E+04  3.741039E+03
       294   8 -6.391169E+05 -1.290322E+05 -1.086412E+05 -2.442757E+05  6.483728E+04  1.700146E+04
       294   9 -6.722514E+05 -2.842960E+05 -2.041555E+05 -2.393490E+05  1.005239E+05  3.524969E+04
       294  10 -3.249550E+05 -2.654374E+04  1.588285E+03 -1.690017E+05  4.053972E-10  3.868189E-11
       294  11 -3.081379E+05  1.645531E+04 -1.824662E+04 -1.319948E+05  4.168514E-11 -8.778290E-11
       294  12 -3.347110E+05 -8.449130E+04 -9.831578E+04 -7.284718E+04 -4.176836E-10 -3.475108E-11
       294  13 -4.877231E+05 -7.268200E+04 -3.802284E+04 -1.980307E+05 -4.599888E-10 -8.531625E-11
       294  14 -4.736436E+05 -5.629169E+04 -6.344701E+04 -1.881431E+05 -2.973045E-10  1.489592E-11
       294  15 -5.035031E+05 -1.844046E+05 -1.512453E+05 -1.561122E+05 -5.787528E-10 -8.610872E-11
       294  16 -6.504652E+05 -1.188208E+05 -7.763574E+04 -2.270540E+05 -3.925576E-10  2.588949E-11
       294  17 -6.391215E+05 -1.290336E+05 -1.086496E+05 -2.442766E+05  1.007844E-10  1.659388E-11
       294  18 -6.722626E+05 -2.843000E+05 -2.041768E+05 -2.393518E+05 -9.472135E-11 -7.091937E-11
       294  19 -3.249540E+05 -2.654346E+04  1.590112E+03 -1.690016E+05 -3.076200E+04 -5.047146E+03
       294  20 -3.081335E+05  1.645666E+04 -1.823867E+04 -1.319939E+05 -6.295925E+04 -1.629962E+04
       294  21 -3.347014E+05 -8.448782E+04 -9.829742E+04 -7.284474E+04 -9.328413E+04 -3.254614E+04
       294  22 -4.877222E+05 -7.268176E+04 -3.802122E+04 -1.980306E+05 -2.901916E+04 -4.394051E+03
       294  23 -4.736391E+05 -5.629029E+04 -6.343881E+04 -1.881422E+05 -6.389841E+04 -1.665061E+04
       294  24 -5.034927E+05 -1.844008E+05 -1.512254E+05 -1.561095E+05 -9.690459E+04 -3.389839E+04
       294  25 -6.504644E+05 -1.188206E+05 -7.763431E+04 -2.270539E+05 -2.727683E+04 -3.741039E+03
       294  26 -6.391169E+05 -1.290322E+05 -1.086412E+05 -2.442757E+05 -6.483728E+04 -1.700146E+04
       294  27 -6.722514E+05 -2.842960E+05 -2.041555E+05 -2.393490E+05 -1.005239E+05 -3.524969E+04
       295   1 -4.888987E+05 -1.136188E+05 -8.330646E+04 -7.575369E+03  7.601064E+04  9.535465E+03
       295   2 -4.220389E+05 -2.124548E+05 -1.309542E+05 -6.631726E+03  5.593610E+04  2.847122E+04
       295   3 -3.202591E+05 -1.845757E+05 -1.337177E+05 -6.010618E+04  3.587017E+04  2.635746E+04
       295   4  4.024102E+05  1.084420E+05  1.359648E+05 -4.504854E+04  9.306917E+04  9.541296E+03
       295   5  3.839476E+05 -1.308703E+04  5.987736E+04 -1.781428E+04  6.083715E+04  2.846901E+04
       295   6  4.024602E+05 -5.881570E+03  3.706864E+04 -4.499167E+04  2.861740E+04  2.635760E+04
       295   7  1.294446E+06  3.304493E+05  3.551794E+05 -8.257572E+04  1.101521E+05  9.545066E+03
       295   8  1.190531E+06  1.862346E+05  2.506640E+05 -2.901146E+04  6.574450E+04  2.846662E+04
       295   9  1.125660E+06  1.727760E+05  2.078191E+05 -2.985943E+04  2.135621E+04  2.635738E+04
       295  10 -4.889049E+05 -1.136204E+05 -8.331750E+04 -7.575953E+03 -6.284139E-10  1.612983E-10
       295  11 -4.220424E+05 -2.124565E+05 -1.309616E+05 -6.633009E+03 -7.804926E-11 -6.106105E-11
       295  12 -3.202607E+05 -1.845768E+05 -1.337214E+05 -6.010694E+04 -3.913638E-11 -2.896786E-10
       295  13  4.024008E+05  1.084396E+05  1.359484E+05 -4.504926E+04  2.354462E-10 -1.658313E-10
       295  14  3.839434E+05 -1.308890E+04  5.986889E+04 -1.781567E+04  4.923784E-10  7.461336E-12
       295  15  4.024591E+05 -5.882536E+03  3.706580E+04 -4.499228E+04 -5.089722E-10 -1.497716E-10
       295  16  1.294433E+06  3.304459E+05  3.551565E+05 -8.257657E+04  4.540937E-10  3.069991E-10
       295  17  1.190526E+06  1.862326E+05  2.506544E+05 -2.901297E+04  8.879354E-11 -7.077705E-11
       295  18  1.125660E+06  1.727752E+05  2.078170E+05 -2.985988E+04  2.277509E-10  4.175431E-11
       295  19 -4.888987E+05 -1.136188E+05 -8.330646E+04 -7.575369E+03 -7.601064E+04 -9.535465E+03
       295  20 -4.220389E+05 -2.124548E+05 -1.309542E+05 -6.631726E+03 -5.593610E+04 -2.847122E+04
       295  21 -3.202591E+05 -1.845757E+05 -1.337177E+05 -6.010618E+04 -3.587017E+04 -2.635746E+04
       295  22  4.024102E+05  1.084420E+05  1.359648E+05 -4.504854E+04 -9.306917E+04 -9.541296E+03
       295  23  3.839476E+05 -1.308703E+04  5.987736E+04 -1.781428E+04 -6.083715E+04 -2.846901E+04
       295  24  4.024602E+05 -5.881570E+03  3.706864E+04 -4.499167E+04 -2.861740E+04 -2.635760E+04
       295  25  1.294446E+06  3.304493E+05  3.551794E+05 -8.257572E+04 -1.101521E+05 -9.545066E+03
       295  26  1.190531E+06  1.862346E+05  2.506640E+05 -2.901146E+04 -6.574450E+04 -2.846662E+04
       295  27  1.125660E+06  1.727760E+05  2.078191E+05 -2.985943E+04 -2.135621E+04 -2.635738E+04
       296   1 -2.297447E+05 -1.444415E+05 -1.180960E+05 -4.167571E+04  2.381585E+04  2.140245E+04
       296   2 -1.486536E+05 -1.353134E+05 -1.126950E+05 -1.677076E+04  1.666625E+04  1.920962E+04
       296   3 -6.339064E+04 -1.139472E+05 -9.954055E+04 -4.621963E+04  9.511593E+03  1.569333E+04
       296   4  3.952277E+05  1.018847E+04  3.010652E+04 -4.498819E+04  2.294777E+04  2.140123E+04
       296   5  3.930927E+05 -1.331699E+03  1.551821E+04 -1.781560E+04  1.502874E+04  1.920954E+04
       296   6  3.952509E+05 -4.864307E+02  9.211610E+03 -4.499356E+04  7.105596E+03  1.569488E+04
       296   7  1.020559E+06  1.647904E+05  1.782818E+05 -4.830398E+04  2.207881E+04  2.140001E+04
       296   8  9.351086E+05  1.326289E+05  1.437111E+05 -1.886132E+04  1.338981E+04  1.920947E+04
       296   9  8.540856E+05  1.129593E+05  1.179492E+05 -4.376653E+04  4.697830E+03  1.569642E+04
       296  10 -2.297454E+05 -1.444421E+05 -1.180979E+05 -4.167612E+04 -4.025254E-11 -1.768305E-10
       296  11 -1.486540E+05 -1.353138E+05 -1.126962E+05 -1.677102E+04 -3.351778E-10  4.915103E-11
       296  12 -6.339080E+04 -1.139475E+05 -9.954118E+04 -4.621975E+04  3.686720E-10  4.759940E-10
       296  13  3.952270E+05  1.018784E+04  3.010467E+04 -4.498859E+04 -5.361768E-11  1.122011E-11
       296  14  3.930923E+05 -1.332156E+03  1.551709E+04 -1.781584E+04 -4.253771E-10 -5.340933E-10
       296  15  3.952508E+05 -4.867088E+02  9.211052E+03 -4.499365E+04  4.357191E-11  3.087575E-10
       296  16  1.020558E+06  1.647898E+05  1.782801E+05 -4.830436E+04  4.755820E-11 -1.101661E-10
       296  17  9.351083E+05  1.326285E+05  1.437101E+05 -1.886153E+04  1.523191E-10 -3.222230E-10
       296  18  8.540855E+05  1.129590E+05  1.179486E+05 -4.376659E+04 -2.932665E-10  5.562137E-11
       296  19 -2.297447E+05 -1.444415E+05 -1.180960E+05 -4.167571E+04 -2.381585E+04 -2.140245E+04
       296  20 -1.486536E+05 -1.353134E+05 -1.126950E+05 -1.677076E+04 -1.666625E+04 -1.920962E+04
       296  21 -6.339064E+04 -1.139472E+05 -9.954055E+04 -4.621963E+04 -9.511593E+03 -1.569333E+04
       296  22  3.952277E+05  1.018847E+04  3.010652E+04 -4.498819E+04 -2.294777E+04 -2.140123E+04
       296  23  3.930927E+05 -1.331699E+03  1.551821E+04 -1.781560E+04 -1.502874E+04 -1.920954E+04
       296  24  3.952509E+05 -4.864307E+02  9.211610E+03 -4.499356E+04 -7.105596E+03 -1.569488E+04
       296  25  1.020559E+06  1.647904E+05  1.782818E+05 -4.830398E+04 -2.207881E+04 -2.140001E+04
       296  26  9.351086E+05  1.326289E+05  1.437111E+05 -1.886132E+04 -1.338981E+04 -1.920947E+04
       296  27  8.540856E+05  1.129593E+05  1.179492E+05 -4.376653E+04 -4.697830E+03 -1.569642E+04
       297   1  3.253116E+04 -8.845304E+04 -7.823581E+04 -4.445107E+04  7.653321E+03  1.341430E+04
       297   2  1.149089E+05 -6.916788E+04 -6.206441E+04 -1.765681E+04  5.687168E+03  9.904827E+03
       297   3  1.977791E+05 -4.860633E+04 -4.431384E+04 -4.488207E+04  3.718769E+03  6.316915E+03
       297   4  3.944274E+05  9.952109E+02  7.184669E+03 -4.491710E+04  5.655172E+03  1.341593E+04
       297   5  3.941859E+05 -1.104616E+02  4.019036E+03 -1.790866E+04  3.642634E+03  9.906999E+03
       297   6  3.944382E+05  6.834441E+01  2.464330E+03 -4.491820E+04  1.628109E+03  6.319662E+03
       297   7  7.564440E+05  9.043409E+04  9.259612E+04 -4.538337E+04  3.655864E+03  1.341757E+04
       297   8  6.735346E+05  6.894137E+04  7.009709E+04 -1.816059E+04  1.597186E+03  9.909173E+03
       297   9  5.911328E+05  4.874023E+04  4.923981E+04 -4.495432E+04 -4.632106E+02  6.322409E+03
       297  10  3.253104E+04 -8.845325E+04 -7.823626E+04 -4.445115E+04  1.513944E-09 -2.791965E-11
       297  11  1.149088E+05 -6.916799E+04 -6.206465E+04 -1.765686E+04  4.874641E-10  1.859689E-10
       297  12  1.977791E+05 -4.860637E+04 -4.431394E+04 -4.488209E+04  1.759913E-10 -5.988291E-10
       297  13  3.944273E+05  9.950090E+02  7.184270E+03 -4.491716E+04  2.651201E-10  7.649736E-11
       297  14  3.941859E+05 -1.105706E+02  4.018826E+03 -1.790869E+04 -5.451622E-10  6.020585E-10
       297  15  3.944382E+05  6.830080E+01  2.464250E+03 -4.491820E+04  1.382000E-10  1.051440E-09
       297  16  7.564439E+05  9.043390E+04  9.259576E+04 -4.538341E+04 -9.746441E-10  9.132518E-12
       297  17  6.735345E+05  6.894126E+04  7.009690E+04 -1.816061E+04  2.792635E-10 -9.429412E-10
       297  18  5.911328E+05  4.874019E+04  4.923973E+04 -4.495432E+04 -2.597397E-10 -2.903378E-10
       297  19  3.253116E+04 -8.845304E+04 -7.823581E+04 -4.445107E+04 -7.653321E+03 -1.341430E+04
       297  20  1.149089E+05 -6.916788E+04 -6.206441E+04 -1.765681E+04 -5.687168E+03 -9.904827E+03
       297  21  1.977791E+05 -4.860633E+04 -4.431384E+04 -4.488207E+04 -3.718769E+03 -6.316915E+03
       297  22  3.944274E+05  9.952109E+02  7.184669E+03 -4.491710E+04 -5.655172E+03 -1.341593E+04
       297  23  3.941859E+05 -1.104616E+02  4.019036E+03 -1.790866E+04 -3.642634E+03 -9.906999E+03
       297  24  3.944382E+05  6.834441E+01  2.464330E+03 -4.491820E+04 -1.628109E+03 -6.319662E+03
       297  25  7.564440E+05  9.043409E+04  9.259612E+04 -4.538337E+04 -3.655864E+03 -1.341757E+04
       297  26  6.735346E+05  6.894137E+04  7.009709E+04 -1.816059E+04 -1.597186E+03 -9.909173E+03
       297  27  5.911328E+05  4.874023E+04  4.923981E+04 -4.495432E+04  4.632106E+02 -6.322409E+03
       298   1  2.939795E+05 -2.456722E+04 -2.150903E+04 -4.479283E+04  3.288564E+03  4.215722E+03
       298   2  3.764264E+05 -4.399246E+03 -2.824558E+03 -1.793337E+04  2.585631E+03  6.321862E+02
       298   3  4.588509E+05  1.602458E+04  1.634029E+04 -4.496176E+04  1.882488E+03 -2.955972E+03
       298   4  3.943301E+05  1.945570E+02  1.986472E+03 -4.488884E+04  1.224467E+03  4.218613E+03
       298   5  3.943440E+05  3.055766E+01  1.414476E+03 -1.794502E+04  5.186786E+02  6.351007E+02
       298   6  3.943308E+05  1.236416E+02  1.325446E+03 -4.488895E+04 -1.872281E+02 -2.953009E+03
       298   7  4.946900E+05  2.495563E+04  2.548131E+04 -4.498487E+04 -8.399618E+02  4.221504E+03
       298   8  4.122619E+05  4.460341E+03  5.653505E+03 -1.795667E+04 -1.548333E+03  6.380152E+02
       298   9  3.298147E+05 -1.577758E+04 -1.368966E+04 -4.481615E+04 -2.256731E+03 -2.950046E+03
       298  10  2.939795E+05 -2.456725E+04 -2.150909E+04 -4.479284E+04  1.622654E-09 -6.048228E-11
       298  11  3.764264E+05 -4.399249E+03 -2.824572E+03 -1.793337E+04  7.216750E-10  1.280136E-10
       298  12  4.588508E+05  1.602456E+04  1.634027E+04 -4.496176E+04  4.217487E-10 -4.913690E-10
       298  13  3.943301E+05  1.945375E+02  1.986435E+03 -4.488885E+04  7.042807E-11 -9.335748E-10
       298  14  3.943440E+05  3.055715E+01  1.414475E+03 -1.794502E+04 -1.107149E-09  3.732841E-10
       298  15  3.943308E+05  1.236322E+02  1.325430E+03 -4.488895E+04  7.261217E-10 -6.321846E-10
       298  16  4.946900E+05  2.495561E+04  2.548127E+04 -4.498487E+04 -1.320330E-09  2.785633E-10
       298  17  4.122619E+05  4.460340E+03  5.653500E+03 -1.795667E+04 -1.172581E-10 -4.483035E-10
       298  18  3.298146E+05 -1.577759E+04 -1.368969E+04 -4.481615E+04 -1.188989E-13 -9.548483E-10
       298  19  2.939795E+05 -2.456722E+04 -2.150903E+04 -4.479283E+04 -3.288564E+03 -4.215722E+03
       298  20  3.764264E+05 -4.399246E+03 -2.824558E+03 -1.793337E+04 -2.585631E+03 -6.321862E+02
       298  21  4.588509E+05  1.602458E+04  1.634029E+04 -4.496176E+04 -1.882488E+03  2.955972E+03
       298  22  3.943301E+05  1.945570E+02  1.986472E+03 -4.488884E+04 -1.224467E+03 -4.218613E+03
       298  23  3.943440E+05  3.055765E+01  1.414476E+03 -1.794502E+04 -5.186786E+02 -6.351007E+02
       298  24  3.943308E+05  1.236416E+02  1.325446E+03 -4.488895E+04  1.872281E+02  2.953009E+03
       298  25  4.946900E+05  2.495563E+04  2.548131E+04 -4.498487E+04  8.399618E+02 -4.221504E+03
       298  26  4.122619E+05  4.460341E+03  5.653505E+03 -1.795667E+04  1.548333E+03 -6.380152E+02
       298  27  3.298147E+05 -1.577758E+04 -1.368966E+04 -4.481615E+04  2.256731E+03  2.950046E+03
       299   1  5.551758E+05  3.992632E+04  3.972654E+04 -4.505175E+04  1.630878E+03 -5.046586E+03
       299   2  6.377288E+05  6.017587E+04  5.956074E+04 -1.811554E+04  6.437091E+02 -8.638254E+03
       299   3  7.203863E+05  8.074813E+04  8.009187E+04 -4.516364E+04 -3.419327E+02 -1.222910E+04
       299   4  3.943526E+05  1.201784E+02  1.433865E+03 -4.491071E+04 -4.403417E+02 -5.043758E+03
       299   5  3.942995E+05  1.725913E+00  1.978096E+03 -1.791783E+04 -1.426840E+03 -8.635877E+03
       299   6  3.943435E+05  2.061030E+02  3.219066E+03 -4.491058E+04 -2.411681E+03 -1.222715E+04
       299   7  2.335531E+05 -3.968783E+04 -3.686061E+04 -4.476969E+04 -2.511028E+03 -5.040931E+03
       299   8  1.509247E+05 -6.017666E+04 -5.560864E+04 -1.772019E+04 -3.496582E+03 -8.633501E+03
       299   9  6.839828E+04 -8.034351E+04 -7.366105E+04 -4.465761E+04 -4.480350E+03 -1.222520E+04
       299  10  5.551758E+05  3.992629E+04  3.972649E+04 -4.505174E+04  5.494447E-10  4.530473E-10
       299  11  6.377288E+05  6.017579E+04  5.956060E+04 -1.811553E+04 -4.618034E-10  2.066986E-09
       299  12  7.203863E+05  8.074797E+04  8.009159E+04 -4.516364E+04  1.373645E-09 -8.674557E-10
       299  13  3.943526E+05  1.201510E+02  1.433817E+03 -4.491071E+04 -8.441134E-12 -1.891284E-11
       299  14  3.942995E+05  1.645267E+00  1.977952E+03 -1.791784E+04  1.890244E-10 -4.329915E-10
       299  15  3.943434E+05  2.059409E+02  3.218774E+03 -4.491060E+04  4.817490E-10  2.385630E-10
       299  16  2.335531E+05 -3.968786E+04 -3.686067E+04 -4.476970E+04 -3.621294E-10  2.686057E-10
       299  17  1.509247E+05 -6.017674E+04 -5.560880E+04 -1.772021E+04  4.223835E-11 -7.848360E-10
       299  18  6.839822E+04 -8.034368E+04 -7.366137E+04 -4.465766E+04 -8.830610E-10  1.128935E-10
       299  19  5.551758E+05  3.992632E+04  3.972654E+04 -4.505175E+04 -1.630878E+03  5.046586E+03
       299  20  6.377288E+05  6.017587E+04  5.956074E+04 -1.811554E+04 -6.437091E+02  8.638254E+03
       299  21  7.203863E+05  8.074813E+04  8.009187E+04 -4.516364E+04  3.419327E+02  1.222910E+04
       299  22  3.943526E+05  1.201784E+02  1.433865E+03 -4.491071E+04  4.403417E+02  5.043758E+03
       299  23  3.942995E+05  1.725913E+00  1.978096E+03 -1.791783E+04  1.426840E+03  8.635877E+03
       299  24  3.943435E+05  2.061030E+02  3.219066E+03 -4.491058E+04  2.411681E+03  1.222715E+04
       299  25  2.335531E+05 -3.968783E+04 -3.686061E+04 -4.476969E+04  2.511028E+03  5.040931E+03
       299  26  1.509247E+05 -6.017666E+04 -5.560864E+04 -1.772019E+04  3.496582E+03  8.633501E+03
       299  27  6.839828E+04 -8.034351E+04 -7.366105E+04 -4.465761E+04  4.480350E+03  1.222520E+04
       300   1  8.173072E+05  1.045256E+05  1.043804E+05 -4.501102E+04 -9.716904E+02 -1.434039E+04
       300   2  8.998706E+05  1.247621E+05  1.266332E+05 -1.810205E+04 -4.526544E+03 -1.794306E+04
       300   3  9.835679E+05  1.471592E+05  1.517622E+05 -4.551006E+04 -8.078357E+03 -2.145233E+04
       300   4  3.945513E+05 -1.408825E+01  4.143028E+03 -4.498526E+04 -3.076432E+03 -1.433886E+04
       300   5  3.939820E+05 -2.703743E+02  6.985373E+03 -1.782489E+04 -6.574992E+03 -1.794251E+04
       300   6  3.945315E+05  1.625849E+03  1.266697E+04 -4.498421E+04 -1.007004E+04 -2.145270E+04
       300   7 -2.804077E+04 -1.045666E+05 -9.610677E+04 -4.495947E+04 -5.179748E+03 -1.433733E+04
       300   8 -1.116717E+05 -1.253211E+05 -1.126802E+05 -1.754791E+04 -8.621781E+03 -1.794195E+04
       300   9 -1.941862E+05 -1.439323E+05 -1.264522E+05 -4.445881E+04 -1.205985E+04 -2.145307E+04
       300  10  8.173072E+05  1.045254E+05  1.043800E+05 -4.501104E+04  5.838379E-10 -9.485846E-10
       300  11  8.998705E+05  1.247617E+05  1.266326E+05 -1.810212E+04 -7.078568E-10 -4.757137E-11
       300  12  9.835677E+05  1.471587E+05  1.517612E+05 -4.551020E+04 -1.300900E-09 -5.878056E-11
       300  13  3.945512E+05 -1.431162E+01  4.142624E+03 -4.498530E+04  2.065132E-10  4.146493E-10
       300  14  3.939819E+05 -2.707316E+02  6.984687E+03 -1.782499E+04 -6.519776E-10  1.915911E-11
       300  15  3.945313E+05  1.625328E+03  1.266591E+04 -4.498438E+04 -2.575487E-10  1.046032E-10
       300  16 -2.804085E+04 -1.045669E+05 -9.610721E+04 -4.495953E+04 -4.667489E-10  1.969990E-10
       300  17 -1.116719E+05 -1.253215E+05 -1.126809E+05 -1.754804E+04  6.393106E-10  9.566898E-10
       300  18 -1.941865E+05 -1.439328E+05 -1.264534E+05 -4.445902E+04  5.628198E-10  4.275423E-10
       300  19  8.173072E+05  1.045256E+05  1.043804E+05 -4.501102E+04  9.716904E+02  1.434039E+04
       300  20  8.998706E+05  1.247621E+05  1.266332E+05 -1.810205E+04  4.526544E+03  1.794306E+04
       300  21  9.835679E+05  1.471592E+05  1.517622E+05 -4.551006E+04  8.078357E+03  2.145233E+04
       300  22  3.945513E+05 -1.408825E+01  4.143028E+03 -4.498526E+04  3.076432E+03  1.433886E+04
       300  23  3.939820E+05 -2.703743E+02  6.985373E+03 -1.782489E+04  6.574992E+03  1.794251E+04
       300  24  3.945315E+05  1.625849E+03  1.266697E+04 -4.498421E+04  1.007004E+04  2.145270E+04
       300  25 -2.804077E+04 -1.045666E+05 -9.610677E+04 -4.495947E+04  5.179748E+03  1.433733E+04
       300  26 -1.116717E+05 -1.253211E+05 -1.126802E+05 -1.754791E+04  8.621781E+03  1.794195E+04
       300  27 -1.941862E+05 -1.439323E+05 -1.264522E+05 -4.445881E+04  1.205985E+04  2.145307E+04
       301   1  1.082581E+06  1.687113E+05  1.788539E+05 -4.250019E+04 -1.012543E+04 -2.379257E+04
       301   2  1.162620E+06  1.879939E+05  2.096991E+05 -1.899636E+04 -2.511545E+04 -2.732146E+04
       301   3  1.250633E+06  2.292364E+05  2.558905E+05 -5.034837E+04 -4.010319E+04 -2.920731E+04
       301   4  3.959863E+05 -1.004092E+03  1.627698E+04 -4.510350E+04 -1.262698E+04 -2.379351E+04
       301   5  3.920636E+05 -2.422612E+03  2.748051E+04 -1.767681E+04 -2.665365E+04 -2.732397E+04
       301   6  3.959523E+05  1.796789E+04  5.337645E+04 -4.510971E+04 -4.067603E+04 -2.921064E+04
       301   7 -2.901758E+05 -1.707533E+05 -1.463327E+05 -4.770388E+04 -1.512579E+04 -2.379443E+04
       301   8 -3.779480E+05 -1.928816E+05 -1.547792E+05 -1.635891E+04 -2.818993E+04 -2.732649E+04
       301   9 -4.580579E+05 -1.933529E+05 -1.491884E+05 -3.987836E+04 -4.124806E+04 -2.921398E+04
       301  10  1.082581E+06  1.687107E+05  1.788527E+05 -4.250039E+04  1.481380E-10 -2.412468E-10
       301  11  1.162619E+06  1.879929E+05  2.096965E+05 -1.899691E+04  2.595189E-10  5.106605E-10
       301  12  1.250631E+06  2.292350E+05  2.558859E+05 -5.034931E+04 -1.641193E-10 -4.040021E-10
       301  13  3.959860E+05 -1.004743E+03  1.627561E+04 -4.510375E+04 -5.301077E-10 -4.066858E-11
       301  14  3.920626E+05 -2.423604E+03  2.747778E+04 -1.767739E+04 -1.033349E-09 -2.567460E-10
       301  15  3.959503E+05  1.796653E+04  5.337174E+04 -4.511067E+04 -9.284468E-10 -3.323195E-10
       301  16 -2.901762E+05 -1.707540E+05 -1.463342E+05 -4.770417E+04 -1.810833E-10  1.499316E-10
       301  17 -3.779491E+05 -1.928827E+05 -1.547820E+05 -1.635953E+04  1.223341E-10 -4.781813E-10
       301  18 -4.580600E+05 -1.933543E+05 -1.491932E+05 -3.987933E+04 -1.631786E-10 -4.344491E-10
       301  19  1.082581E+06  1.687113E+05  1.788539E+05 -4.250019E+04  1.012543E+04  2.379257E+04
       301  20  1.162620E+06  1.879939E+05  2.096991E+05 -1.899636E+04  2.511545E+04  2.732146E+04
       301  21  1.250633E+06  2.292364E+05  2.558905E+05 -5.034837E+04  4.010319E+04  2.920731E+04
       301  22  3.959863E+05 -1.004092E+03  1.627698E+04 -4.510350E+04  1.262698E+04  2.379351E+04
       301  23  3.920636E+05 -2.422612E+03  2.748051E+04 -1.767681E+04  2.665365E+04  2.732397E+04
       301  24  3.959523E+05  1.796789E+04  5.337645E+04 -4.510971E+04  4.067603E+04  2.921064E+04
       301  25 -2.901758E+05 -1.707533E+05 -1.463327E+05 -4.770388E+04  1.512579E+04  2.379443E+04
       301  26 -3.779480E+05 -1.928816E+05 -1.547792E+05 -1.635891E+04  2.818993E+04  2.732649E+04
       301  27 -4.580579E+05 -1.933529E+05 -1.491884E+05 -3.987836E+04  4.124806E+04  2.921398E+04
       302   1  1.362363E+06  2.250635E+05  2.908068E+05 -1.752324E+04 -4.217654E+04 -3.489768E+04
       302   2  1.413952E+06  2.332076E+05  3.516829E+05 -3.674967E+04 -1.145174E+05 -3.675820E+04
       302   3  1.533669E+06  4.719571E+05  5.174627E+05 -1.111991E+05 -1.869172E+05 -1.240614E+04
       302   4  4.087533E+05 -1.053479E+04  6.572040E+04 -4.509281E+04 -5.072153E+04 -3.490608E+04
       302   5  3.759227E+05 -2.322027E+04  1.061981E+05 -1.764965E+04 -1.078559E+05 -3.675707E+04
       302   6  4.086828E+05  1.922615E+05  2.411425E+05 -4.542530E+04 -1.650371E+05 -1.238693E+04
       302   7 -5.440198E+05 -2.461953E+05 -1.594282E+05 -7.262000E+04 -5.925345E+04 -3.491372E+04
       302   8 -6.611176E+05 -2.797238E+05 -1.393610E+05  1.418007E+03 -1.012053E+05 -3.675552E+04
       302   9 -7.151430E+05 -8.751121E+04 -3.526653E+04  2.022886E+04 -1.431962E+05 -1.236308E+04
       302  10  1.362361E+06  2.250617E+05  2.908012E+05 -1.752443E+04 -5.395146E-10  2.000034E-10
       302  11  1.413938E+06  2.332026E+05  3.516558E+05 -3.675305E+04 -6.764986E-10  2.916235E-10
       302  12  1.533632E+06  4.719476E+05  5.173969E+05 -1.112010E+05 -2.978663E-10 -3.675568E-10
       302  13  4.087502E+05 -1.053679E+04  6.571327E+04 -4.509424E+04  4.202115E-10  1.306819E-09
       302  14  3.759098E+05 -2.322484E+04  1.061737E+05 -1.765284E+04  2.098373E-11  2.745241E-09
       302  15  4.086536E+05  1.922540E+05  2.410910E+05 -4.542695E+04 -1.829787E-10  3.333076E-11
       302  16 -5.440239E+05 -2.461976E+05 -1.594371E+05 -7.262167E+04  5.926103E-10  3.865315E-10
       302  17 -6.611290E+05 -2.797281E+05 -1.393828E+05  1.415010E+03 -7.718295E-11  8.303811E-10
       302  18 -7.151651E+05 -8.751689E+04 -3.530539E+04  2.022743E+04 -3.196925E-10 -3.780665E-10
       302  19  1.362363E+06  2.250635E+05  2.908068E+05 -1.752324E+04  4.217654E+04  3.489768E+04
       302  20  1.413952E+06  2.332076E+05  3.516829E+05 -3.674967E+04  1.145174E+05  3.675820E+04
       302  21  1.533669E+06  4.719571E+05  5.174627E+05 -1.111991E+05  1.869172E+05  1.240614E+04
       302  22  4.087533E+05 -1.053479E+04  6.572040E+04 -4.509281E+04  5.072153E+04  3.490608E+04
       302  23  3.759227E+05 -2.322027E+04  1.061981E+05 -1.764965E+04  1.078559E+05  3.675707E+04
       302  24  4.086828E+05  1.922615E+05  2.411425E+05 -4.542530E+04  1.650371E+05  1.238693E+04
       302  25 -5.440198E+05 -2.461953E+05 -1.594282E+05 -7.262000E+04  5.925345E+04  3.491372E+04
       302  26 -6.611176E+05 -2.797238E+05 -1.393610E+05  1.418007E+03  1.012053E+05  3.675552E+04
       302  27 -7.151430E+05 -8.751121E+04 -3.526653E+04  2.022886E+04  1.431962E+05  1.236308E+04
       303   1  2.242861E+05  7.997738E+05  2.417656E+05 -1.183925E+05  5.498068E+03  7.543241E+04
       303   2  9.515468E+04  6.168259E+05  1.421682E+05 -4.451118E+04  1.478688E+04  4.374212E+04
       303   3  5.869098E+04  4.610041E+05  8.631333E+04 -8.073710E+04  8.694127E+03  1.204098E+04
       303   4  7.680403E+04  2.081025E+05  9.601962E+04 -9.110182E+04  5.512603E+03  6.562838E+04
       303   5 -9.083487E+03  1.953284E+05  4.240689E+04 -3.609455E+04  1.478931E+04  4.282649E+04
       303   6 -3.806757E+03  2.081410E+05  2.639777E+04 -9.119386E+04  8.681735E+03  2.000499E+04
       303   7 -7.070134E+04 -3.832489E+05 -4.975142E+04 -6.383708E+04  5.526285E+03  5.583364E+04
       303   8 -1.133341E+05 -2.260058E+05 -5.736670E+04 -2.768360E+04  1.479171E+04  4.191148E+04
       303   9 -6.630863E+04 -4.466298E+04 -3.352193E+04 -1.016463E+05  8.669071E+03  2.796578E+04
       303  10  2.242846E+05  7.997676E+05  2.417548E+05 -1.183928E+05  1.372295E-10  3.168096E-12
       303  11  9.515393E+04  6.168238E+05  1.421642E+05 -4.451170E+04 -4.610283E-10  7.754585E-11
       303  12  5.869086E+04  4.610039E+05  8.631291E+04 -8.073719E+04  8.436571E-10  7.609233E-10
       303  13  7.680284E+04  2.080979E+05  9.601147E+04 -9.110211E+04  3.047004E-10  2.530902E-10
       303  14 -9.084214E+03  1.953264E+05  4.240303E+04 -3.609506E+04 -9.668778E-10  3.422757E-10
       303  15 -3.806945E+03  2.081405E+05  2.639687E+04 -9.119400E+04  7.750537E-10  1.020111E-10
       303  16 -7.070221E+04 -3.832523E+05 -4.975734E+04 -6.383733E+04  1.541771E-11  1.649311E-11
       303  17 -1.133348E+05 -2.260077E+05 -5.737041E+04 -2.768409E+04  2.835016E-10 -2.969038E-10
       303  18 -6.630892E+04 -4.466384E+04 -3.352355E+04 -1.016465E+05 -1.672501E-10 -4.500209E-10
       303  19  2.242861E+05  7.997738E+05  2.417656E+05 -1.183925E+05 -5.498068E+03 -7.543241E+04
       303  20  9.515468E+04  6.168259E+05  1.421682E+05 -4.451118E+04 -1.478688E+04 -4.374212E+04
       303  21  5.869098E+04  4.610041E+05  8.631333E+04 -8.073710E+04 -8.694127E+03 -1.204098E+04
       303  22  7.680403E+04  2.081025E+05  9.601962E+04 -9.110182E+04 -5.512603E+03 -6.562838E+04
       303  23 -9.083487E+03  1.953284E+05  4.240689E+04 -3.609455E+04 -1.478931E+04 -4.282649E+04
       303  24 -3.806757E+03  2.081410E+05  2.639777E+04 -9.119386E+04 -8.681735E+03 -2.000499E+04
       303  25 -7.070134E+04 -3.832489E+05 -4.975142E+04 -6.383708E+04 -5.526285E+03 -5.583364E+04
       303  26 -1.133341E+05 -2.260058E+05 -5.736670E+04 -2.768360E+04 -1.479171E+04 -4.191148E+04
       303  27 -6.630863E+04 -4.466298E+04 -3.352193E+04 -1.016463E+05 -8.669071E+03 -2.796578E+04
       304   1  2.110179E+04  2.582068E+05  3.452244E+04 -9.358617E+04  2.149228E+03  1.227559E+04
       304   2 -2.904930E+04  8.770556E+04 -1.549477E+04 -3.640101E+04 -4.053822E+03  6.591467E+03
       304   3 -6.974915E+04 -8.004201E+04 -5.953663E+04 -8.970625E+04 -9.934752E+03  9.107632E+02
       304   4  7.478014E+03  2.030830E+05  2.155705E+04 -9.124252E+04  2.143385E+03  1.594774E+04
       304   5 -8.603987E+02  2.016989E+05  1.148228E+04 -3.600369E+04 -4.059006E+03  1.007831E+04
       304   6  2.863768E+02  2.030754E+05  7.514538E+03 -9.125346E+04 -9.939358E+03  4.210779E+03
       304   7 -6.145952E+03  1.479621E+05  8.591511E+03 -8.889908E+04  2.137569E+03  1.961957E+04
       304   8  2.732758E+04  3.157042E+05  3.845847E+04 -3.560628E+04 -4.064185E+03  1.356579E+04
       304   9  7.031616E+04  4.862666E+05  7.456018E+04 -9.280136E+04 -9.943979E+03  7.512291E+03
       304  10  2.110175E+04  2.582066E+05  3.452215E+04 -9.358619E+04  1.395319E-10 -2.342292E-10
       304  11 -2.904933E+04  8.770551E+04 -1.549488E+04 -3.640099E+04  2.717145E-10 -3.992941E-10
       304  12 -6.974925E+04 -8.004204E+04 -5.953682E+04 -8.970624E+04 -5.862891E-10  6.514769E-10
       304  13  7.477941E+03  2.030827E+05  2.155657E+04 -9.124255E+04  2.648232E-10  3.583170E-10
       304  14 -8.604437E+02  2.016988E+05  1.148206E+04 -3.600365E+04  6.802294E-10  3.826515E-10
       304  15  2.862660E+02  2.030754E+05  7.514319E+03 -9.125343E+04  1.072654E-09  5.941613E-11
       304  16 -6.146060E+03  1.479616E+05  8.590779E+03 -8.889911E+04  1.418896E-10  1.981779E-10
       304  17  2.732751E+04  3.157040E+05  3.845810E+04 -3.560623E+04 -1.133144E-09 -6.341048E-11
       304  18  7.031604E+04  4.862665E+05  7.455989E+04 -9.280130E+04 -2.489690E-10 -2.154757E-10
       304  19  2.110179E+04  2.582068E+05  3.452244E+04 -9.358617E+04 -2.149228E+03 -1.227559E+04
       304  20 -2.904930E+04  8.770556E+04 -1.549477E+04 -3.640101E+04  4.053822E+03 -6.591467E+03
       304  21 -6.974915E+04 -8.004201E+04 -5.953663E+04 -8.970625E+04  9.934752E+03 -9.107632E+02
       304  22  7.478014E+03  2.030830E+05  2.155705E+04 -9.124252E+04 -2.143385E+03 -1.594774E+04
       304  23 -8.603987E+02  2.016989E+05  1.148228E+04 -3.600369E+04  4.059006E+03 -1.007831E+04
       304  24  2.863768E+02  2.030754E+05  7.514538E+03 -9.125346E+04  9.939358E+03 -4.210779E+03
       304  25 -6.145952E+03  1.479621E+05  8.591511E+03 -8.889908E+04 -2.137569E+03 -1.961957E+04
       304  26  2.732758E+04  3.157042E+05  3.845847E+04 -3.560628E+04  4.064185E+03 -1.356579E+04
       304  27  7.031616E+04  4.862666E+05  7.456018E+04 -9.280136E+04  9.943979E+03 -7.512291E+03
       305   1 -1.183109E+05 -2.779742E+05 -1.074804E+05 -9.147627E+04 -1.711797E+04 -6.255176E+03
       305   2 -1.613513E+05 -4.475712E+05 -1.490441E+05 -3.512532E+04 -2.291108E+04  3.090115E+03
       305   3 -1.995544E+05 -6.170252E+05 -1.954668E+05 -8.889925E+04 -8.160369E+03  1.245030E+04
       305   4  6.298552E+02  2.029034E+05  6.323548E+03 -9.116878E+04 -1.712975E+04  2.988895E+03
       305   5 -6.986912E+02  2.017951E+05  4.734218E+03 -3.610859E+04 -2.290693E+04  5.064554E+02
       305   6  4.862458E+03  2.028543E+05  6.501324E+03 -9.116586E+04 -8.149823E+03 -1.958342E+03
       305   7  1.195541E+05  6.839937E+05  1.201118E+05 -9.086097E+04 -1.714152E+04  1.224009E+04
       305   8  1.599236E+05  8.515490E+05  1.584832E+05 -3.709278E+04 -2.290278E+04 -2.079894E+03
       305   9  2.092294E+05  1.023346E+06  2.084206E+05 -9.343532E+04 -8.139179E+03 -1.638600E+04
       305  10 -1.183113E+05 -2.779743E+05 -1.074811E+05 -9.147636E+04 -8.257652E-11  6.129412E-11
       305  11 -1.613518E+05 -4.475713E+05 -1.490451E+05 -3.512526E+04  2.521695E-10 -1.824142E-10
       305  12 -1.995545E+05 -6.170254E+05 -1.954672E+05 -8.889917E+04 -7.898242E-12  2.327595E-10
       305  13  6.295377E+02  2.029033E+05  6.322980E+03 -9.116874E+04 -6.478415E-10  3.448694E-10
       305  14 -6.992548E+02  2.017950E+05  4.733231E+03 -3.610858E+04  2.860231E-10  1.258249E-10
       305  15  4.862386E+03  2.028542E+05  6.501192E+03 -9.116587E+04 -2.907425E-10  9.835404E-11
       305  16  1.195538E+05  6.839934E+05  1.201110E+05 -9.086080E+04  2.660075E-10 -2.029078E-10
       305  17  1.599231E+05  8.515489E+05  1.584822E+05 -3.709282E+04 -1.416652E-10 -2.040379E-10
       305  18  2.092293E+05  1.023346E+06  2.084200E+05 -9.343543E+04 -4.998220E-10 -9.602914E-11
       305  19 -1.183109E+05 -2.779742E+05 -1.074804E+05 -9.147627E+04  1.711797E+04  6.255176E+03
       305  20 -1.613513E+05 -4.475712E+05 -1.490441E+05 -3.512532E+04  2.291108E+04 -3.090115E+03
       305  21 -1.995544E+05 -6.170252E+05 -1.954668E+05 -8.889925E+04  8.160369E+03 -1.245030E+04
       305  22  6.298552E+02  2.029034E+05  6.323548E+03 -9.116878E+04  1.712975E+04 -2.988895E+03
       305  23 -6.986912E+02  2.017951E+05  4.734218E+03 -3.610859E+04  2.290693E+04 -5.064554E+02
       305  24  4.862458E+03  2.028543E+05  6.501324E+03 -9.116586E+04  8.149823E+03  1.958342E+03
       305  25  1.195541E+05  6.839937E+05  1.201118E+05 -9.086097E+04  1.714152E+04 -1.224009E+04
       305  26  1.599236E+05  8.515490E+05  1.584832E+05 -3.709278E+04  2.290278E+04  2.079894E+03
       305  27  2.092294E+05  1.023346E+06  2.084206E+05 -9.343532E+04  8.139179E+03  1.638600E+04
       306   1 -1.563033E+06 -5.243560E+05 -3.325942E+05 -5.539343E+05 -1.551121E+05 -5.337766E+04
       306   2 -1.518938E+06 -2.931187E+05 -1.885149E+05 -5.665170E+05 -1.006721E+05 -2.292774E+04
       306   3 -1.547288E+06 -2.786033E+05 -1.435041E+05 -5.401131E+05 -4.270042E+04 -1.867259E+03
       306   4 -1.226912E+06 -3.421564E+05 -2.304309E+05 -4.055898E+05 -1.479279E+05 -5.069457E+04
       306   5 -1.179135E+06 -1.492244E+05 -9.665339E+04 -4.570331E+05 -9.851752E+04 -2.212214E+04
       306   6 -1.202762E+06 -1.719531E+05 -5.791229E+04 -4.695025E+05 -4.557657E+04 -2.945749E+03
       306   7 -8.906736E+05 -1.599085E+05 -1.282780E+05 -2.571606E+05 -1.407394E+05 -4.800824E+04
       306   8 -8.392198E+05 -5.314138E+03 -4.802326E+03 -3.474919E+05 -9.636162E+04 -2.131591E+04
       306   9 -8.581217E+05 -6.530410E+04  2.767050E+04 -3.988607E+05 -4.845446E+04 -4.024628E+03
       306  10 -1.563060E+06 -5.243655E+05 -3.326450E+05 -5.539409E+05 -4.244941E-10  2.758166E-11
       306  11 -1.518949E+06 -2.931220E+05 -1.885350E+05 -5.665189E+05  4.822776E-10  4.245464E-10
       306  12 -1.547290E+06 -2.786038E+05 -1.435075E+05 -5.401132E+05 -3.115603E-10  4.971142E-10
       306  13 -1.226937E+06 -3.421651E+05 -2.304769E+05 -4.055959E+05  1.108895E-09  5.523159E-11
       306  14 -1.179146E+06 -1.492275E+05 -9.667259E+04 -4.570349E+05  6.926876E-11  1.369197E-10
       306  15 -1.202764E+06 -1.719537E+05 -5.791622E+04 -4.695026E+05 -4.429593E-10  3.610232E-10
       306  16 -8.906955E+05 -1.599163E+05 -1.283196E+05 -2.571661E+05  1.736442E-10  3.905012E-10
       306  17 -8.392299E+05 -5.317125E+03 -4.820658E+03 -3.474936E+05 -6.630912E-10  4.442223E-10
       306  18 -8.581242E+05 -6.530475E+04  2.766605E+04 -3.988609E+05 -1.902727E-10  3.562864E-10
       306  19 -1.563033E+06 -5.243560E+05 -3.325942E+05 -5.539343E+05  1.551121E+05  5.337766E+04
       306  20 -1.518938E+06 -2.931187E+05 -1.885149E+05 -5.665170E+05  1.006721E+05  2.292774E+04
       306  21 -1.547288E+06 -2.786033E+05 -1.435041E+05 -5.401131E+05  4.270042E+04  1.867259E+03
       306  22 -1.226912E+06 -3.421564E+05 -2.304309E+05 -4.055898E+05  1.479279E+05  5.069457E+04
       306  23 -1.179135E+06 -1.492244E+05 -9.665339E+04 -4.570331E+05  9.851752E+04  2.212214E+04
       306  24 -1.202762E+06 -1.719531E+05 -5.791229E+04 -4.695025E+05  4.557657E+04  2.945749E+03
       306  25 -8.906736E+05 -1.599085E+05 -1.282780E+05 -2.571606E+05  1.407394E+05  4.800824E+04
       306  26 -8.392198E+05 -5.314138E+03 -4.802326E+03 -3.474919E+05  9.636162E+04  2.131591E+04
       306  27 -8.581217E+05 -6.530410E+04  2.767050E+04 -3.988607E+05  4.845446E+04  4.024628E+03
       307   1 -1.488194E+06 -3.103374E+05 -1.246773E+05 -5.414709E+05 -3.666510E+04 -1.835027E+03
       307   2 -1.465902E+06 -2.726469E+05 -9.362681E+04 -5.296233E+05 -2.432235E+04  2.237479E+03
       307   3 -1.439855E+06 -2.686438E+05 -7.724687E+04 -5.276603E+05 -1.172630E+04  5.635676E+03
       307   4 -1.195063E+06 -1.952771E+05 -4.694331E+04 -4.564111E+05 -3.675864E+04 -1.870880E+03
       307   5 -1.195772E+06 -1.699716E+05 -2.279208E+04 -4.546533E+05 -2.477343E+04  2.067862E+03
       307   6 -1.192651E+06 -1.782767E+05 -1.302225E+04 -4.627809E+05 -1.253550E+04  5.332065E+03
       307   7 -9.018479E+05 -8.020892E+04  3.078346E+04 -3.713139E+05 -3.685222E+04 -1.906752E+03
       307   8 -9.255699E+05 -6.729125E+04  4.803656E+04 -3.796535E+05 -2.522473E+04  1.898163E+03
       307   9 -9.453876E+05 -8.790667E+04  5.119728E+04 -3.978784E+05 -1.334506E+04  5.028330E+03
       307  10 -1.488196E+06 -3.103378E+05 -1.246798E+05 -5.414710E+05 -3.564171E-10  2.580932E-10
       307  11 -1.465903E+06 -2.726471E+05 -9.362794E+04 -5.296232E+05  4.617806E-11 -3.743550E-10
       307  12 -1.439855E+06 -2.686439E+05 -7.724719E+04 -5.276602E+05 -8.531226E-11 -3.161940E-10
       307  13 -1.195065E+06 -1.952774E+05 -4.694586E+04 -4.564112E+05  3.481209E-10 -6.257435E-11
       307  14 -1.195772E+06 -1.699718E+05 -2.279324E+04 -4.546532E+05  7.431099E-11 -2.377631E-10
       307  15 -1.192651E+06 -1.782768E+05 -1.302260E+04 -4.627808E+05 -2.935061E-10 -5.537151E-10
       307  16 -9.018494E+05 -8.020929E+04  3.078090E+04 -3.713139E+05 -4.254665E-10  2.057573E-11
       307  17 -9.255706E+05 -6.729143E+04  4.803536E+04 -3.796535E+05 -1.019104E-11 -1.126500E-10
       307  18 -9.453878E+05 -8.790674E+04  5.119690E+04 -3.978784E+05 -1.148851E-10 -1.900341E-10
       307  19 -1.488194E+06 -3.103374E+05 -1.246773E+05 -5.414709E+05  3.666510E+04  1.835027E+03
       307  20 -1.465902E+06 -2.726469E+05 -9.362681E+04 -5.296233E+05  2.432235E+04 -2.237479E+03
       307  21 -1.439855E+06 -2.686438E+05 -7.724687E+04 -5.276603E+05  1.172630E+04 -5.635676E+03
       307  22 -1.195063E+06 -1.952771E+05 -4.694331E+04 -4.564111E+05  3.675864E+04  1.870880E+03
       307  23 -1.195772E+06 -1.699716E+05 -2.279208E+04 -4.546533E+05  2.477343E+04 -2.067862E+03
       307  24 -1.192651E+06 -1.782767E+05 -1.302225E+04 -4.627809E+05  1.253550E+04 -5.332065E+03
       307  25 -9.018479E+05 -8.020892E+04  3.078346E+04 -3.713139E+05  3.685222E+04  1.906752E+03
       307  26 -9.255699E+05 -6.729125E+04  4.803656E+04 -3.796535E+05  2.522473E+04 -1.898163E+03
       307  27 -9.453876E+05 -8.790667E+04  5.119728E+04 -3.978784E+05  1.334506E+04 -5.028330E+03
       308   1 -1.403819E+06 -2.606321E+05 -6.555352E+04 -5.197638E+05 -9.753527E+03  5.465649E+03
       308   2 -1.383325E+06 -2.416337E+05 -5.378869E+04 -5.048868E+05 -6.595855E+03  5.297594E+03
       308   3 -1.350306E+06 -2.383378E+05 -4.459709E+04 -5.051836E+05 -3.415061E+03  5.066671E+03
       308   4 -1.191612E+06 -1.806684E+05 -1.011557E+04 -4.615649E+05 -1.037626E+04  5.232017E+03
       308   5 -1.197756E+06 -1.719814E+05 -5.295857E+03 -4.542914E+05 -7.251508E+03  5.051771E+03
       308   6 -1.191371E+06 -1.789896E+05 -3.022524E+03 -4.621919E+05 -4.103752E+03  4.808620E+03
       308   7 -9.793611E+05 -1.007021E+05  4.531839E+04 -4.033481E+05 -1.099923E+04  4.998297E+03
       308   8 -1.012155E+06 -1.023269E+05  4.319406E+04 -4.036823E+05 -7.907376E+03  4.805868E+03
       308   9 -1.032411E+06 -1.196398E+05  3.855004E+04 -4.191902E+05 -4.792638E+03  4.550496E+03
       308  10 -1.403819E+06 -2.606321E+05 -6.555375E+04 -5.197638E+05 -7.966961E-11 -1.645141E-10
       308  11 -1.383325E+06 -2.416338E+05 -5.378882E+04 -5.048868E+05 -3.128391E-10  3.509280E-11
       308  12 -1.350306E+06 -2.383378E+05 -4.459716E+04 -5.051836E+05  2.832699E-11  5.105743E-10
       308  13 -1.191612E+06 -1.806685E+05 -1.011582E+04 -4.615648E+05 -1.352908E-10 -1.873987E-10
       308  14 -1.197756E+06 -1.719814E+05 -5.296004E+03 -4.542914E+05 -2.056109E-10 -8.905659E-11
       308  15 -1.191371E+06 -1.789896E+05 -3.022599E+03 -4.621919E+05 -7.379185E-11  4.037686E-10
       308  16 -9.793612E+05 -1.007022E+05  4.531812E+04 -4.033480E+05 -1.929179E-11 -1.176757E-10
       308  17 -1.012155E+06 -1.023269E+05  4.319390E+04 -4.036823E+05  1.229454E-10  9.366642E-11
       308  18 -1.032411E+06 -1.196398E+05  3.854996E+04 -4.191902E+05  9.764170E-11 -6.526335E-11
       308  19 -1.403819E+06 -2.606321E+05 -6.555352E+04 -5.197638E+05  9.753527E+03 -5.465649E+03
       308  20 -1.383325E+06 -2.416337E+05 -5.378869E+04 -5.048868E+05  6.595855E+03 -5.297594E+03
       308  21 -1.350306E+06 -2.383378E+05 -4.459709E+04 -5.051836E+05  3.415061E+03 -5.066671E+03
       308  22 -1.191612E+06 -1.806684E+05 -1.011557E+04 -4.615649E+05  1.037626E+04 -5.232017E+03
       308  23 -1.197756E+06 -1.719814E+05 -5.295857E+03 -4.542914E+05  7.251508E+03 -5.051771E+03
       308  24 -1.191371E+06 -1.789896E+05 -3.022524E+03 -4.621919E+05  4.103752E+03 -4.808620E+03
       308  25 -9.793611E+05 -1.007021E+05  4.531839E+04 -4.033481E+05  1.099923E+04 -4.998297E+03
       308  26 -1.012155E+06 -1.023269E+05  4.319406E+04 -4.036823E+05  7.907376E+03 -4.805868E+03
       308  27 -1.032411E+06 -1.196398E+05  3.855004E+04 -4.191902E+05  4.792638E+03 -4.550496E+03
       309   1 -1.315688E+06 -2.259629E+05 -3.478231E+04 -4.960620E+05 -2.706307E+03  4.486823E+03
       309   2 -1.294977E+06 -2.084252E+05 -2.673665E+04 -4.805344E+05 -1.512221E+03  3.488492E+03
       309   3 -1.260451E+06 -2.050967E+05 -1.928361E+04 -4.810267E+05 -3.137663E+02  2.477682E+03
       309   4 -1.191170E+06 -1.792831E+05 -2.352921E+03 -4.621449E+05 -3.385638E+03  4.232353E+03
       309   5 -1.198066E+06 -1.721021E+05 -1.422944E+03 -4.541634E+05 -2.198113E+03  3.231641E+03
       309   6 -1.191147E+06 -1.791289E+05 -1.080187E+03 -4.622019E+05 -1.006259E+03  2.218442E+03
       309   7 -1.066638E+06 -1.326023E+05  3.007516E+04 -4.282217E+05 -4.065118E+03  3.977827E+03
       309   8 -1.101147E+06 -1.357786E+05  2.388993E+04 -4.277888E+05 -2.884122E+03  2.974747E+03
       309   9 -1.121839E+06 -1.531609E+05  1.712277E+04 -4.433751E+05 -1.698834E+03  1.959172E+03
       309  10 -1.315688E+06 -2.259630E+05 -3.478236E+04 -4.960619E+05  1.780502E-10  2.577453E-10
       309  11 -1.294977E+06 -2.084252E+05 -2.673668E+04 -4.805344E+05  1.695290E-10  2.111201E-10
       309  12 -1.260451E+06 -2.050967E+05 -1.928363E+04 -4.810267E+05 -3.618727E-10  1.857330E-10
       309  13 -1.191170E+06 -1.792831E+05 -2.352976E+03 -4.621449E+05 -1.218967E-10 -2.551348E-10
       309  14 -1.198066E+06 -1.721021E+05 -1.422973E+03 -4.541634E+05 -1.991155E-10  1.584839E-10
       309  15 -1.191147E+06 -1.791289E+05 -1.080198E+03 -4.622019E+05  7.890439E-12 -6.581875E-11
       309  16 -1.066638E+06 -1.326023E+05  3.007510E+04 -4.282217E+05 -3.030422E-10 -4.247038E-10
       309  17 -1.101147E+06 -1.357786E+05  2.388990E+04 -4.277888E+05 -6.109601E-12  9.225027E-12
       309  18 -1.121839E+06 -1.531609E+05  1.712276E+04 -4.433751E+05  1.264223E-10  1.552195E-10
       309  19 -1.315688E+06 -2.259629E+05 -3.478231E+04 -4.960620E+05  2.706307E+03 -4.486823E+03
       309  20 -1.294977E+06 -2.084252E+05 -2.673665E+04 -4.805344E+05  1.512221E+03 -3.488492E+03
       309  21 -1.260451E+06 -2.050967E+05 -1.928361E+04 -4.810267E+05  3.137663E+02 -2.477682E+03
       309  22 -1.191170E+06 -1.792831E+05 -2.352921E+03 -4.621449E+05  3.385638E+03 -4.232353E+03
       309  23 -1.198066E+06 -1.721021E+05 -1.422944E+03 -4.541634E+05  2.198113E+03 -3.231641E+03
       309  24 -1.191147E+06 -1.791289E+05 -1.080187E+03 -4.622019E+05  1.006259E+03 -2.218442E+03
       309  25 -1.066638E+06 -1.326023E+05  3.007516E+04 -4.282217E+05  4.065118E+03 -3.977827E+03
       309  26 -1.101147E+06 -1.357786E+05  2.388993E+04 -4.277888E+05  2.884122E+03 -2.974747E+03
       309  27 -1.121839E+06 -1.531609E+05  1.712277E+04 -4.433751E+05  1.698834E+03 -1.959172E+03
       310   1 -1.225504E+06 -1.920571E+05 -9.937024E+03 -4.716237E+05  1.446495E+02  1.794346E+03
       310   2 -1.204603E+06 -1.745061E+05 -2.976268E+03 -4.558935E+05  1.265691E+03  7.458226E+02
       310   3 -1.169742E+06 -1.712721E+05  3.456643E+03 -4.563529E+05  2.386117E+03 -3.010129E+02
       310   4 -1.191116E+06 -1.791637E+05 -1.055683E+03 -4.622354E+05 -5.491306E+02  1.534654E+03
       310   5 -1.198103E+06 -1.720638E+05 -1.277422E+03 -4.541183E+05  5.728067E+02  4.864668E+02
       310   6 -1.191132E+06 -1.792813E+05 -2.027826E+03 -4.621914E+05  1.694094E+03 -5.600397E+02
       310   7 -1.156726E+06 -1.662703E+05  7.825593E+03 -4.528466E+05 -1.242955E+03  1.274944E+03
       310   8 -1.191604E+06 -1.696215E+05  4.214251E+02 -4.523432E+05 -1.200866E+02  2.271075E+02
       310   9 -1.212522E+06 -1.872905E+05 -7.512331E+03 -4.680297E+05  1.002098E+03 -8.190567E+02
       310  10 -1.225504E+06 -1.920571E+05 -9.937030E+03 -4.716237E+05  6.198318E-11  3.817988E-10
       310  11 -1.204603E+06 -1.745061E+05 -2.976272E+03 -4.558935E+05  4.955541E-10  5.517080E-10
       310  12 -1.169742E+06 -1.712721E+05  3.456632E+03 -4.563529E+05 -1.930911E-10 -1.769405E-10
       310  13 -1.191116E+06 -1.791637E+05 -1.055688E+03 -4.622354E+05  2.893948E-10  1.452643E-10
       310  14 -1.198103E+06 -1.720638E+05 -1.277423E+03 -4.541183E+05  8.100651E-10  9.496756E-10
       310  15 -1.191132E+06 -1.792813E+05 -2.027832E+03 -4.621914E+05  2.801323E-10  3.212398E-10
       310  16 -1.156726E+06 -1.662703E+05  7.825587E+03 -4.528466E+05 -3.108499E-11  1.007058E-10
       310  17 -1.191604E+06 -1.696215E+05  4.214250E+02 -4.523432E+05 -8.723452E-10 -5.842563E-10
       310  18 -1.212522E+06 -1.872905E+05 -7.512334E+03 -4.680297E+05  7.082091E-11 -2.669589E-10
       310  19 -1.225504E+06 -1.920571E+05 -9.937024E+03 -4.716237E+05 -1.446495E+02 -1.794346E+03
       310  20 -1.204603E+06 -1.745061E+05 -2.976268E+03 -4.558935E+05 -1.265691E+03 -7.458226E+02
       310  21 -1.169742E+06 -1.712721E+05  3.456643E+03 -4.563529E+05 -2.386117E+03  3.010129E+02
       310  22 -1.191116E+06 -1.791637E+05 -1.055683E+03 -4.622354E+05  5.491306E+02 -1.534654E+03
       310  23 -1.198103E+06 -1.720638E+05 -1.277422E+03 -4.541183E+05 -5.728067E+02 -4.864668E+02
       310  24 -1.191132E+06 -1.792813E+05 -2.027826E+03 -4.621914E+05 -1.694094E+03  5.600397E+02
       310  25 -1.156726E+06 -1.662703E+05  7.825593E+03 -4.528466E+05  1.242955E+03 -1.274944E+03
       310  26 -1.191604E+06 -1.696215E+05  4.214251E+02 -4.523432E+05  1.200866E+02 -2.271075E+02
       310  27 -1.212522E+06 -1.872905E+05 -7.512331E+03 -4.680297E+05 -1.002098E+03  8.190567E+02
       311   1 -1.134784E+06 -1.581234E+05  1.222892E+04 -4.471558E+05  3.056039E+03 -9.105936E+02
       311   2 -1.113916E+06 -1.403766E+05  1.745917E+04 -4.312545E+05  5.782457E+03 -1.350329E+03
       311   3 -1.079969E+06 -1.384068E+05  2.054555E+04 -4.310853E+05  8.493294E+03 -1.747451E+03
       311   4 -1.191257E+06 -1.790837E+05 -2.583448E+03 -4.622859E+05  2.354742E+03 -1.173112E+03
       311   5 -1.197893E+06 -1.718976E+05 -4.482716E+03 -4.541565E+05  5.103738E+03 -1.604465E+03
       311   6 -1.191458E+06 -1.804934E+05 -8.544007E+03 -4.617595E+05  7.837049E+03 -1.993241E+03
       311   7 -1.247726E+06 -2.000436E+05 -1.739603E+04 -4.774147E+05  1.653517E+03 -1.435604E+03
       311   8 -1.281864E+06 -2.034182E+05 -2.642520E+04 -4.770556E+05  4.425119E+03 -1.858563E+03
       311   9 -1.302934E+06 -2.225792E+05 -3.763471E+04 -4.924289E+05  7.180931E+03 -2.238983E+03
       311  10 -1.134784E+06 -1.581234E+05  1.222890E+04 -4.471558E+05 -1.346687E-10  8.804941E-11
       311  11 -1.113916E+06 -1.403766E+05  1.745911E+04 -4.312545E+05  3.626186E-10  4.604307E-10
       311  12 -1.079970E+06 -1.384068E+05  2.054541E+04 -4.310853E+05 -7.724169E-10 -9.105852E-11
       311  13 -1.191257E+06 -1.790837E+05 -2.583461E+03 -4.622859E+05  1.799222E-11  4.400310E-10
       311  14 -1.197893E+06 -1.718976E+05 -4.482770E+03 -4.541564E+05 -6.051332E-11  1.143014E-10
       311  15 -1.191458E+06 -1.804934E+05 -8.544130E+03 -4.617595E+05 -6.911106E-10 -4.093101E-10
       311  16 -1.247726E+06 -2.000436E+05 -1.739604E+04 -4.774147E+05  4.870865E-10 -1.692897E-10
       311  17 -1.281864E+06 -2.034182E+05 -2.642524E+04 -4.770556E+05  5.996339E-10  1.101740E-09
       311  18 -1.302934E+06 -2.225792E+05 -3.763482E+04 -4.924288E+05  5.209786E-10  2.124183E-10
       311  19 -1.134784E+06 -1.581234E+05  1.222892E+04 -4.471558E+05 -3.056039E+03  9.105936E+02
       311  20 -1.113916E+06 -1.403766E+05  1.745917E+04 -4.312545E+05 -5.782457E+03  1.350329E+03
       311  21 -1.079969E+06 -1.384068E+05  2.054555E+04 -4.310853E+05 -8.493294E+03  1.747451E+03
       311  22 -1.191257E+06 -1.790837E+05 -2.583448E+03 -4.622859E+05 -2.354742E+03  1.173112E+03
       311  23 -1.197893E+06 -1.718976E+05 -4.482716E+03 -4.541565E+05 -5.103738E+03  1.604465E+03
       311  24 -1.191458E+06 -1.804934E+05 -8.544007E+03 -4.617595E+05 -7.837049E+03  1.993241E+03
       311  25 -1.247726E+06 -2.000436E+05 -1.739603E+04 -4.774147E+05 -1.653517E+03  1.435604E+03
       311  26 -1.281864E+06 -2.034182E+05 -2.642520E+04 -4.770556E+05 -4.425119E+03  1.858563E+03
       311  27 -1.302934E+06 -2.225792E+05 -3.763471E+04 -4.924289E+05 -7.180931E+03  2.238983E+03
       312   1 -1.044755E+06 -1.252099E+05  2.724985E+04 -4.247561E+05  1.051187E+04 -1.911003E+03
       312   2 -1.023986E+06 -1.044721E+05  2.597245E+04 -4.063717E+05  2.065580E+04  4.884223E+02
       312   3 -9.972688E+05 -1.147477E+05  1.277102E+04 -3.994653E+05  3.060739E+04  3.403381E+03
       312   4 -1.192300E+06 -1.785147E+05 -1.099489E+04 -4.628286E+05  9.710582E+03 -2.211144E+03
       312   5 -1.196260E+06 -1.701504E+05 -1.922825E+04 -4.544058E+05  2.012929E+04  2.909907E+02
       312   6 -1.194329E+06 -1.928577E+05 -3.960631E+04 -4.574615E+05  3.035520E+04  3.308445E+03
       312   7 -1.339823E+06 -2.318184E+05 -4.924143E+04 -5.008931E+05  8.909500E+03 -2.511213E+03
       312   8 -1.368505E+06 -2.358265E+05 -6.443139E+04 -5.024278E+05  1.960294E+04  9.362164E+01
       312   9 -1.391352E+06 -2.709638E+05 -9.198685E+04 -5.154405E+05  3.010309E+04  3.213546E+03
       312  10 -1.044755E+06 -1.252100E+05  2.724964E+04 -4.247561E+05 -4.380471E-10 -1.712755E-10
       312  11 -1.023987E+06 -1.044722E+05  2.597164E+04 -4.063717E+05 -1.474551E-10 -5.727268E-10
       312  12 -9.972698E+05 -1.147480E+05  1.276924E+04 -3.994654E+05  2.141579E-10 -4.630461E-10
       312  13 -1.192300E+06 -1.785147E+05 -1.099507E+04 -4.628286E+05 -1.491354E-10  1.849976E-10
       312  14 -1.196261E+06 -1.701505E+05 -1.922901E+04 -4.544058E+05 -6.417531E-11  3.935744E-10
       312  15 -1.194330E+06 -1.928579E+05 -3.960806E+04 -4.574616E+05  1.140873E-10 -1.279820E-10
       312  16 -1.339823E+06 -2.318185E+05 -4.924159E+04 -5.008930E+05  6.462726E-10  3.925926E-10
       312  17 -1.368506E+06 -2.358266E+05 -6.443212E+04 -5.024278E+05  8.714870E-11  6.031991E-10
       312  18 -1.391352E+06 -2.709641E+05 -9.198857E+04 -5.154406E+05 -1.973404E-10 -3.948726E-10
       312  19 -1.044755E+06 -1.252099E+05  2.724985E+04 -4.247561E+05 -1.051187E+04  1.911003E+03
       312  20 -1.023986E+06 -1.044721E+05  2.597245E+04 -4.063717E+05 -2.065580E+04 -4.884223E+02
       312  21 -9.972688E+05 -1.147477E+05  1.277102E+04 -3.994653E+05 -3.060739E+04 -3.403381E+03
       312  22 -1.192300E+06 -1.785147E+05 -1.099489E+04 -4.628286E+05 -9.710582E+03  2.211144E+03
       312  23 -1.196260E+06 -1.701504E+05 -1.922825E+04 -4.544058E+05 -2.012929E+04 -2.909907E+02
       312  24 -1.194329E+06 -1.928577E+05 -3.960631E+04 -4.574615E+05 -3.035520E+04 -3.308445E+03
       312  25 -1.339823E+06 -2.318184E+05 -4.924143E+04 -5.008931E+05 -8.909500E+03  2.511213E+03
       312  26 -1.368505E+06 -2.358265E+05 -6.443139E+04 -5.024278E+05 -1.960294E+04 -9.362164E+01
       312  27 -1.391352E+06 -2.709638E+05 -9.198685E+04 -5.154405E+05 -3.010309E+04 -3.213546E+03
       313   1 -9.534987E+05 -9.959502E+04  1.201882E+04 -4.208914E+05  4.021343E+04  5.055794E+03
       313   2 -9.332549E+05 -4.550118E+04 -1.393154E+04 -3.743718E+05  8.111481E+04  1.946197E+04
       313   3 -9.696083E+05 -1.754443E+05 -1.169715E+05 -2.983387E+05  1.193055E+05  4.110494E+04
       313   4 -1.200806E+06 -1.732020E+05 -4.886052E+04 -4.685297E+05  3.781632E+04  4.158469E+03
       313   5 -1.182263E+06 -1.526027E+05 -8.153799E+04 -4.563660E+05  8.259619E+04  2.001502E+04
       313   6 -1.221117E+06 -3.168597E+05 -1.944071E+05 -4.146834E+05  1.246642E+05  4.310416E+04
       313   7 -1.448055E+06 -2.468102E+05 -1.097445E+05 -5.161535E+05  3.542025E+04  3.261347E+03
       313   8 -1.431209E+06 -2.596946E+05 -1.491499E+05 -5.383284E+05  8.407692E+04  2.056773E+04
       313   9 -1.472558E+06 -4.582429E+05 -2.718479E+05 -5.309769E+05  1.300205E+05  4.510144E+04
       313  10 -9.535004E+05 -9.959548E+04  1.201573E+04 -4.208916E+05 -1.586974E-10 -4.951682E-10
       313  11 -9.332621E+05 -4.550335E+04 -1.394464E+04 -3.743731E+05  2.098638E-10  1.525865E-11
       313  12 -9.696240E+05 -1.754499E+05 -1.170014E+05 -2.983426E+05  1.513302E-11  5.824993E-11
       313  13 -1.200808E+06 -1.732024E+05 -4.886325E+04 -4.685298E+05  3.831555E-11 -1.597916E-10
       313  14 -1.182270E+06 -1.526050E+05 -8.155159E+04 -4.563674E+05  9.213562E-10  6.628082E-10
       313  15 -1.221135E+06 -3.168659E+05 -1.944398E+05 -4.146877E+05  1.241815E-11  7.848055E-11
       313  16 -1.448056E+06 -2.468106E+05 -1.097469E+05 -5.161536E+05  3.292022E-10 -3.254919E-10
       313  17 -1.431217E+06 -2.596970E+05 -1.491640E+05 -5.383298E+05 -5.326355E-10  7.361611E-11
       313  18 -1.472576E+06 -4.582497E+05 -2.718836E+05 -5.309817E+05 -4.287383E-11  2.717953E-11
       313  19 -9.534987E+05 -9.959502E+04  1.201882E+04 -4.208914E+05 -4.021343E+04 -5.055794E+03
       313  20 -9.332549E+05 -4.550118E+04 -1.393154E+04 -3.743718E+05 -8.111481E+04 -1.946197E+04
       313  21 -9.696083E+05 -1.754443E+05 -1.169715E+05 -2.983387E+05 -1.193055E+05 -4.110494E+04
       313  22 -1.200806E+06 -1.732020E+05 -4.886052E+04 -4.685297E+05 -3.781632E+04 -4.158469E+03
       313  23 -1.182263E+06 -1.526027E+05 -8.153799E+04 -4.563660E+05 -8.259619E+04 -2.001502E+04
       313  24 -1.221117E+06 -3.168597E+05 -1.944071E+05 -4.146834E+05 -1.246642E+05 -4.310416E+04
       313  25 -1.448055E+06 -2.468102E+05 -1.097445E+05 -5.161535E+05 -3.542025E+04 -3.261347E+03
       313  26 -1.431209E+06 -2.596946E+05 -1.491499E+05 -5.383284E+05 -8.407692E+04 -2.056773E+04
       313  27 -1.472558E+06 -4.582429E+05 -2.718479E+05 -5.309769E+05 -1.300205E+05 -4.510144E+04
       314   1  1.066028E+06  2.302198E+05  3.432687E+05  1.175205E+05  3.596310E+05  9.723443E+03
       314   2  1.062332E+06 -2.416425E+05  6.054791E+04  3.332828E+04  2.408212E+05  2.741951E+04
       314   3  1.204026E+06 -1.965302E+05 -1.546684E+04 -9.565147E+04  1.220269E+05  2.569018E+04
       314   4  1.903234E+06  4.377030E+05  5.487036E+05 -3.443353E+04  3.759600E+05  9.665523E+03
       314   5  1.829869E+06 -5.226144E+04  2.419415E+05 -1.163414E+04  2.457675E+05  2.740714E+04
       314   6  1.903646E+06 -2.366814E+04  1.495772E+05 -3.362107E+04  1.156067E+05  2.569312E+04
       314   7  2.741127E+06  6.452217E+05  7.541006E+05 -1.865927E+05  3.923107E+05  9.599711E+03
       314   8  2.597950E+06  1.370853E+05  4.232956E+05 -5.665255E+04  2.507197E+05  2.739407E+04
       314   9  2.603724E+06  1.491734E+05  3.145897E+05  2.847937E+04  1.091792E+05  2.569476E+04
       314  10  1.065889E+06  2.301851E+05  3.430259E+05  1.175177E+05 -2.125099E-09  7.546215E-10
       314  11  1.062270E+06 -2.416588E+05  6.043772E+04  3.332297E+04 -1.074826E-09 -1.547365E-10
       314  12  1.204010E+06 -1.965349E+05 -1.549601E+04 -9.565399E+04  1.099017E-10  1.803320E-10
       314  13  1.903083E+06  4.376651E+05  5.484386E+05 -3.443646E+04 -4.293015E-11  3.943087E-10
       314  14  1.829804E+06 -5.227839E+04  2.418269E+05 -1.163956E+04 -1.459117E-09 -1.647355E-09
       314  15  1.903632E+06 -2.367242E+04  1.495509E+05 -3.362347E+04 -3.893774E-10 -3.196914E-11
       314  16  2.740963E+06  6.451805E+05  7.538124E+05 -1.865957E+05  7.662876E-10 -3.672561E-12
       314  17  2.597882E+06  1.370677E+05  4.231766E+05 -5.665807E+04 -2.429326E-10  3.274328E-11
       314  18  2.603711E+06  1.491695E+05  3.145661E+05  2.847712E+04 -9.636854E-10 -7.080332E-10
       314  19  1.066028E+06  2.302198E+05  3.432687E+05  1.175205E+05 -3.596310E+05 -9.723443E+03
       314  20  1.062332E+06 -2.416425E+05  6.054791E+04  3.332828E+04 -2.408212E+05 -2.741951E+04
       314  21  1.204026E+06 -1.965302E+05 -1.546684E+04 -9.565147E+04 -1.220269E+05 -2.569018E+04
       314  22  1.903234E+06  4.377030E+05  5.487036E+05 -3.443353E+04 -3.759600E+05 -9.665523E+03
       314  23  1.829869E+06 -5.226144E+04  2.419415E+05 -1.163414E+04 -2.457675E+05 -2.740714E+04
       314  24  1.903646E+06 -2.366814E+04  1.495772E+05 -3.362107E+04 -1.156067E+05 -2.569312E+04
       314  25  2.741127E+06  6.452217E+05  7.541006E+05 -1.865927E+05 -3.923107E+05 -9.599711E+03
       314  26  2.597950E+06  1.370853E+05  4.232956E+05 -5.665255E+04 -2.507197E+05 -2.739407E+04
       314  27  2.603724E+06  1.491734E+05  3.145897E+05  2.847937E+04 -1.091792E+05 -2.569476E+04
       315   1  1.251796E+06 -1.126604E+05 -2.593015E+04 -2.095371E+04  9.317760E+04  2.135009E+04
       315   2  1.307493E+06 -1.432438E+05 -6.933299E+04 -9.373776E+03  6.188911E+04  1.982941E+04
       315   3  1.379939E+06 -1.244664E+05 -7.997690E+04 -3.960850E+04  3.059713E+04  1.713672E+04
       315   4  1.874627E+06  4.115539E+04  1.215244E+05 -3.321572E+04  9.271768E+04  2.134634E+04
       315   5  1.866240E+06 -5.288223E+03  6.268531E+04 -1.229275E+04  6.072351E+04  1.982715E+04
       315   6  1.874703E+06 -2.274751E+03  3.707020E+04 -3.318119E+04  2.872904E+04  1.713550E+04
       315   7  2.497814E+06  1.949440E+05  2.689522E+05 -4.549015E+04  9.225727E+04  2.134261E+04
       315   8  2.425273E+06  1.326451E+05  1.946820E+05 -1.521440E+04  5.955684E+04  1.982490E+04
       315   9  2.369692E+06  1.198996E+05  1.541004E+05 -2.674875E+04  2.685946E+04  1.713423E+04
       315  10  1.251786E+06 -1.126632E+05 -2.594729E+04 -2.095531E+04 -1.490497E-09 -9.529588E-10
       315  11  1.307488E+06 -1.432453E+05 -6.934092E+04 -9.374764E+03 -1.309473E-09  3.921625E-10
       315  12  1.379938E+06 -1.244670E+05 -7.997921E+04 -3.960892E+04 -6.783912E-10 -2.470971E-10
       315  13  1.874618E+06  4.115260E+04  1.215075E+05 -3.321731E+04 -5.047339E-10 -4.608053E-10
       315  14  1.866236E+06 -5.289631E+03  6.267766E+04 -1.229372E+04 -3.517653E-10 -1.864954E-10
       315  15  1.874702E+06 -2.275288E+03  3.706811E+04 -3.318158E+04 -9.610114E-10 -2.424746E-10
       315  16  2.497804E+06  1.949413E+05  2.689354E+05 -4.549173E+04  1.540829E-09 -2.629094E-11
       315  17  2.425269E+06  1.326437E+05  1.946747E+05 -1.521535E+04 -1.000780E-09 -9.925337E-10
       315  18  2.369691E+06  1.198991E+05  1.540985E+05 -2.674912E+04 -2.664542E-10  4.410673E-11
       315  19  1.251796E+06 -1.126604E+05 -2.593015E+04 -2.095371E+04 -9.317760E+04 -2.135009E+04
       315  20  1.307493E+06 -1.432438E+05 -6.933299E+04 -9.373776E+03 -6.188911E+04 -1.982941E+04
       315  21  1.379939E+06 -1.244664E+05 -7.997690E+04 -3.960850E+04 -3.059713E+04 -1.713672E+04
       315  22  1.874627E+06  4.115539E+04  1.215244E+05 -3.321572E+04 -9.271768E+04 -2.134634E+04
       315  23  1.866240E+06 -5.288223E+03  6.268531E+04 -1.229275E+04 -6.072351E+04 -1.982715E+04
       315  24  1.874703E+06 -2.274751E+03  3.707020E+04 -3.318119E+04 -2.872904E+04 -1.713550E+04
       315  25  2.497814E+06  1.949440E+05  2.689522E+05 -4.549015E+04 -9.225727E+04 -2.134261E+04
       315  26  2.425273E+06  1.326451E+05  1.946820E+05 -1.521440E+04 -5.955684E+04 -1.982490E+04
       315  27  2.369692E+06  1.198996E+05  1.541004E+05 -2.674875E+04 -2.685946E+04 -1.713423E+04
       316   1  1.449417E+06 -1.004318E+05 -7.066263E+04 -3.210383E+04  2.437594E+04  1.538739E+04
       316   2  1.509316E+06 -8.970863E+04 -6.927866E+04 -1.281803E+04  1.639517E+04  1.279257E+04
       316   3  1.571550E+06 -7.428776E+04 -6.150741E+04 -3.342087E+04  8.411797E+03  1.015871E+04
       316   4  1.871488E+06  3.739385E+03  2.889277E+04 -3.276363E+04  2.290094E+04  1.538637E+04
       316   5  1.870332E+06 -5.816865E+02  1.600988E+04 -1.281987E+04  1.489262E+04  1.279204E+04
       316   6  1.871509E+06 -2.023250E+02  9.529829E+03 -3.276325E+04  6.882466E+03  1.015867E+04
       316   7  2.293723E+06  1.078979E+05  1.284359E+05 -3.342388E+04  2.142495E+04  1.538536E+04
       316   8  2.231468E+06  8.853595E+04  1.012894E+05 -1.282172E+04  1.338921E+04  1.279151E+04
       316   9  2.171551E+06  7.387667E+04  8.056084E+04 -3.210530E+04  5.352400E+03  1.015863E+04
       316  10  1.449416E+06 -1.004322E+05 -7.066419E+04 -3.210413E+04  8.565026E-11  2.375067E-10
       316  11  1.509316E+06 -8.970888E+04 -6.927947E+04 -1.281820E+04  6.878453E-11  3.344595E-10
       316  12  1.571550E+06 -7.428789E+04 -6.150774E+04 -3.342094E+04 -6.750115E-10  4.336470E-10
       316  13  1.871487E+06  3.738990E+03  2.889135E+04 -3.276391E+04 -7.746507E-10  1.834910E-11
       316  14  1.870332E+06 -5.819217E+02  1.600915E+04 -1.282003E+04  3.393515E-10  1.573808E-11
       316  15  1.871509E+06 -2.024486E+02  9.529546E+03 -3.276331E+04 -2.699965E-10  1.420319E-10
       316  16  2.293722E+06  1.078975E+05  1.284346E+05 -3.342415E+04 -7.545413E-10 -1.497113E-10
       316  17  2.231468E+06  8.853572E+04  1.012888E+05 -1.282185E+04 -1.122354E-11 -3.124659E-10
       316  18  2.171551E+06  7.387655E+04  8.056059E+04 -3.210534E+04 -3.119693E-10  3.692219E-10
       316  19  1.449417E+06 -1.004318E+05 -7.066263E+04 -3.210383E+04 -2.437594E+04 -1.538739E+04
       316  20  1.509316E+06 -8.970863E+04 -6.927866E+04 -1.281803E+04 -1.639517E+04 -1.279257E+04
       316  21  1.571550E+06 -7.428776E+04 -6.150741E+04 -3.342087E+04 -8.411797E+03 -1.015871E+04
       316  22  1.871488E+06  3.739385E+03  2.889277E+04 -3.276363E+04 -2.290094E+04 -1.538637E+04
       316  23  1.870332E+06 -5.816865E+02  1.600988E+04 -1.281987E+04 -1.489262E+04 -1.279204E+04
       316  24  1.871509E+06 -2.023250E+02  9.529829E+03 -3.276325E+04 -6.882466E+03 -1.015867E+04
       316  25  2.293723E+06  1.078979E+05  1.284359E+05 -3.342388E+04 -2.142495E+04 -1.538536E+04
       316  26  2.231468E+06  8.853595E+04  1.012894E+05 -1.282172E+04 -1.338921E+04 -1.279151E+04
       316  27  2.171551E+06  7.387667E+04  8.056084E+04 -3.210530E+04 -5.352400E+03 -1.015863E+04
       317   1  1.641125E+06 -5.641232E+04 -4.666284E+04 -3.251249E+04  6.847097E+03  8.629734E+03
       317   2  1.700267E+06 -4.218787E+04 -3.554183E+04 -1.314393E+04  4.476973E+03  6.043981E+03
       317   3  1.759840E+06 -2.747202E+04 -2.275917E+04 -3.254113E+04  2.105794E+03  3.471681E+03
       317   4  1.871095E+06  3.214745E+02  7.481291E+03 -3.251395E+04  5.351707E+03  8.629912E+03
       317   5  1.870886E+06 -7.082072E+01  4.761490E+03 -1.313146E+04  2.988515E+03  6.044371E+03
       317   6  1.871102E+06  2.714312E+01  3.698197E+03 -3.251407E+04  6.244914E+02  3.472294E+03
       317   7  2.101114E+06  5.705151E+04  6.162180E+04 -3.251540E+04  3.855768E+03  8.630091E+03
       317   8  2.041531E+06  4.204415E+04  4.506281E+04 -1.311897E+04  1.499651E+03  6.044761E+03
       317   9  1.982376E+06  2.752542E+04  3.015471E+04 -3.248699E+04 -8.570750E+02  3.472906E+03
       317  10  1.641125E+06 -5.641242E+04 -4.666307E+04 -3.251253E+04  2.404285E-10  2.767241E-10
       317  11  1.700267E+06 -4.218792E+04 -3.554193E+04 -1.314395E+04 -7.863423E-10  4.264046E-10
       317  12  1.759840E+06 -2.747204E+04 -2.275920E+04 -3.254114E+04 -6.716341E-10  6.339581E-10
       317  13  1.871095E+06  3.213868E+02  7.481097E+03 -3.251398E+04 -6.585762E-10  4.230972E-10
       317  14  1.870886E+06 -7.086237E+01  4.761405E+03 -1.313147E+04  5.458446E-10 -1.286132E-10
       317  15  1.871102E+06  2.713006E+01  3.698174E+03 -3.251407E+04  1.062612E-09  3.211573E-11
       317  16  2.101114E+06  5.705142E+04  6.162163E+04 -3.251543E+04  6.864122E-10 -1.239405E-10
       317  17  2.041531E+06  4.204411E+04  4.506273E+04 -1.311898E+04  5.738223E-10 -7.186776E-11
       317  18  1.982376E+06  2.752541E+04  3.015469E+04 -3.248699E+04  1.474523E-09 -2.596289E-10
       317  19  1.641125E+06 -5.641232E+04 -4.666284E+04 -3.251249E+04 -6.847097E+03 -8.629734E+03
       317  20  1.700267E+06 -4.218787E+04 -3.554183E+04 -1.314393E+04 -4.476973E+03 -6.043981E+03
       317  21  1.759840E+06 -2.747202E+04 -2.275917E+04 -3.254113E+04 -2.105794E+03 -3.471681E+03
       317  22  1.871095E+06  3.214745E+02  7.481291E+03 -3.251395E+04 -5.351707E+03 -8.629912E+03
       317  23  1.870886E+06 -7.082072E+01  4.761490E+03 -1.313146E+04 -2.988515E+03 -6.044371E+03
       317  24  1.871102E+06  2.714312E+01  3.698197E+03 -3.251407E+04 -6.244914E+02 -3.472294E+03
       317  25  2.101114E+06  5.705151E+04  6.162180E+04 -3.251540E+04 -3.855768E+03 -8.630091E+03
       317  26  2.041531E+06  4.204415E+04  4.506281E+04 -1.311897E+04 -1.499651E+03 -6.044761E+03
       317  27  1.982376E+06  2.752542E+04  3.015471E+04 -3.248699E+04  8.570750E+02 -3.472906E+03
       318   1  1.828538E+06 -1.043429E+04 -6.275415E+03 -3.238737E+04  1.441372E+03  1.980578E+03
       318   2  1.887233E+06  3.976051E+03  8.076960E+03 -1.319264E+04 -6.557526E+02 -5.777897E+02
       318   3  1.946270E+06  1.880896E+04  2.388802E+04 -3.243795E+04 -2.752964E+03 -3.134134E+03
       318   4  1.871086E+06  3.232967E+01  3.596761E+03 -3.244185E+04 -3.667141E+01  1.981255E+03
       318   5  1.870915E+06 -5.142691E+01  4.222892E+03 -1.322173E+04 -2.132664E+03 -5.771400E+02
       318   6  1.871084E+06  2.876780E+02  6.307400E+03 -3.244172E+04 -4.228550E+03 -3.133499E+03
       318   7  1.913636E+06  1.049882E+04  1.346882E+04 -3.249633E+04 -1.514815E+03  1.981933E+03
       318   8  1.854598E+06 -4.078923E+03  3.688138E+02 -1.325083E+04 -3.609538E+03 -5.764901E+02
       318   9  1.795904E+06 -1.823400E+04 -1.127360E+04 -3.244549E+04 -5.703958E+03 -3.132864E+03
       318  10  1.828538E+06 -1.043429E+04 -6.275426E+03 -3.238737E+04  1.691027E-09 -7.796143E-11
       318  11  1.887233E+06  3.976051E+03  8.076959E+03 -1.319264E+04 -1.926059E-10 -3.288383E-10
       318  12  1.946270E+06  1.880895E+04  2.388799E+04 -3.243795E+04  6.893462E-11  1.762847E-10
       318  13  1.871086E+06  3.232545E+01  3.596754E+03 -3.244185E+04 -6.585548E-10  6.404293E-10
       318  14  1.870915E+06 -5.142848E+01  4.222883E+03 -1.322173E+04  2.646443E-11  3.555074E-10
       318  15  1.871084E+06  2.876627E+02  6.307348E+03 -3.244173E+04  1.368524E-09 -3.452098E-10
       318  16  1.913636E+06  1.049881E+04  1.346881E+04 -3.249633E+04  2.376570E-10  2.123958E-10
       318  17  1.854598E+06 -4.078927E+03  3.687888E+02 -1.325083E+04 -3.348660E-10  2.932378E-10
       318  18  1.795904E+06 -1.823402E+04 -1.127368E+04 -3.244551E+04  4.818247E-10  3.092473E-10
       318  19  1.828538E+06 -1.043429E+04 -6.275415E+03 -3.238737E+04 -1.441372E+03 -1.980578E+03
       318  20  1.887233E+06  3.976051E+03  8.076960E+03 -1.319264E+04  6.557526E+02  5.777897E+02
       318  21  1.946270E+06  1.880896E+04  2.388802E+04 -3.243795E+04  2.752964E+03  3.134134E+03
       318  22  1.871086E+06  3.232967E+01  3.596761E+03 -3.244185E+04  3.667141E+01 -1.981255E+03
       318  23  1.870915E+06 -5.142691E+01  4.222892E+03 -1.322173E+04  2.132664E+03  5.771400E+02
       318  24  1.871084E+06  2.876780E+02  6.307400E+03 -3.244172E+04  4.228550E+03  3.133499E+03
       318  25  1.913636E+06  1.049882E+04  1.346882E+04 -3.249633E+04  1.514815E+03 -1.981933E+03
       318  26  1.854598E+06 -4.078923E+03  3.688138E+02 -1.325083E+04  3.609538E+03  5.764901E+02
       318  27  1.795904E+06 -1.823400E+04 -1.127360E+04 -3.244549E+04  5.703958E+03  3.132864E+03
       319   1  2.015447E+06  3.543935E+04  4.212686E+04 -3.202021E+04 -4.011861E+03 -4.634939E+03
       319   2  2.074107E+06  4.979776E+04  6.126861E+04 -1.315003E+04 -1.063149E+04 -7.209516E+03
       319   3  2.134606E+06  6.802229E+04  8.567723E+04 -3.317762E+04 -1.725089E+04 -9.743329E+03
       319   4  1.871412E+06 -1.433615E+02  7.934825E+03 -3.254392E+04 -5.510654E+03 -4.634386E+03
       319   5  1.870488E+06 -4.540396E+02  1.318099E+04 -1.309425E+04 -1.210487E+04 -7.209244E+03
       319   6  1.871397E+06  3.097974E+03  2.367790E+04 -3.254307E+04 -1.869823E+04 -9.743331E+03
       319   7  1.727395E+06 -3.572756E+04 -2.625865E+04 -3.306750E+04 -7.009102E+03 -4.633830E+03
       319   8  1.666908E+06 -5.070880E+04 -3.490950E+04 -1.303847E+04 -1.357777E+04 -7.208972E+03
       319   9  1.608251E+06 -6.183128E+04 -3.832620E+04 -3.190878E+04 -2.014496E+04 -9.743336E+03
       319  10  2.015447E+06  3.543932E+04  4.212679E+04 -3.202022E+04  7.058792E-10  6.562547E-10
       319  11  2.074107E+06  4.979767E+04  6.126831E+04 -1.315009E+04  8.770972E-10 -4.364944E-10
       319  12  2.134605E+06  6.802211E+04  8.567650E+04 -3.317776E+04  5.600565E-12  7.296055E-10
       319  13  1.871412E+06 -1.433927E+02  7.934728E+03 -3.254394E+04  1.213736E-09 -1.433931E-10
       319  14  1.870488E+06 -4.541346E+02  1.318061E+04 -1.309432E+04  4.069392E-10 -7.110626E-10
       319  15  1.871396E+06  3.097779E+03  2.367706E+04 -3.254321E+04 -1.164630E-10  4.301150E-10
       319  16  1.727395E+06 -3.572760E+04 -2.625878E+04 -3.306753E+04 -1.246294E-09  2.956749E-10
       319  17  1.666908E+06 -5.070890E+04 -3.490994E+04 -1.303855E+04  4.382481E-10 -5.045088E-10
       319  18  1.608251E+06 -6.183149E+04 -3.832714E+04 -3.190894E+04  1.104472E-09 -2.840294E-11
       319  19  2.015447E+06  3.543935E+04  4.212686E+04 -3.202021E+04  4.011861E+03  4.634939E+03
       319  20  2.074107E+06  4.979776E+04  6.126861E+04 -1.315003E+04  1.063149E+04  7.209516E+03
       319  21  2.134606E+06  6.802229E+04  8.567723E+04 -3.317762E+04  1.725089E+04  9.743329E+03
       319  22  1.871412E+06 -1.433615E+02  7.934825E+03 -3.254392E+04  5.510654E+03  4.634386E+03
       319  23  1.870488E+06 -4.540396E+02  1.318099E+04 -1.309425E+04  1.210487E+04  7.209244E+03
       319  24  1.871397E+06  3.097974E+03  2.367790E+04 -3.254307E+04  1.869823E+04  9.743331E+03
       319  25  1.727395E+06 -3.572756E+04 -2.625865E+04 -3.306750E+04  7.009102E+03  4.633830E+03
       319  26  1.666908E+06 -5.070880E+04 -3.490950E+04 -1.303847E+04  1.357777E+04  7.208972E+03
       319  27  1.608251E+06 -6.183128E+04 -3.832620E+04 -3.190878E+04  2.014496E+04  9.743336E+03
       320   1  2.207628E+06  8.053201E+04  1.092859E+05 -2.768724E+04 -2.171398E+04 -1.140347E+04
       320   2  2.262259E+06  9.320383E+04  1.445972E+05 -1.533003E+04 -4.845577E+04 -1.399074E+04
       320   3  2.330640E+06  1.464325E+05  2.074432E+05 -4.311648E+04 -7.519919E+04 -1.563606E+04
       320   4  1.874020E+06 -1.823308E+03  3.035249E+04 -3.281852E+04 -2.347215E+04 -1.140350E+04
       320   5  1.867159E+06 -4.293569E+03  5.129749E+04 -1.275015E+04 -4.965525E+04 -1.399168E+04
       320   6  1.873959E+06  3.371139E+04  9.940392E+04 -3.282632E+04 -7.583737E+04 -1.563827E+04
       320   7  1.540514E+06 -8.418648E+04 -4.858857E+04 -3.794702E+04 -2.522937E+04 -1.140351E+04
       320   8  1.472202E+06 -1.018021E+05 -4.201295E+04 -1.017192E+04 -5.085397E+04 -1.399262E+04
       320   9  1.417469E+06 -7.902419E+04 -8.649776E+03 -2.254376E+04 -7.647507E+04 -1.564051E+04
       320  10  2.207628E+06  8.053174E+04  1.092847E+05 -2.768744E+04  1.480914E-09  5.057962E-10
       320  11  2.262256E+06  9.320299E+04  1.445924E+05 -1.533058E+04 -7.538677E-10 -4.759315E-10
       320  12  2.330634E+06  1.464307E+05  2.074322E+05 -4.311743E+04 -6.254081E-10 -4.794085E-10
       320  13  1.874019E+06 -1.823595E+03  3.035121E+04 -3.281873E+04 -6.739964E-11  3.062699E-10
       320  14  1.867156E+06 -4.294439E+03  5.129250E+04 -1.275071E+04 -9.684960E-10 -4.386992E-10
       320  15  1.873952E+06  3.370959E+04  9.939268E+04 -3.282728E+04 -2.337119E-10 -4.695186E-10
       320  16  1.540513E+06 -8.418679E+04 -4.859001E+04 -3.794725E+04 -1.042678E-09 -8.047355E-11
       320  17  1.472199E+06 -1.018030E+05 -4.201817E+04 -1.017249E+04 -3.502277E-10 -8.060165E-10
       320  18  1.417462E+06 -7.902602E+04 -8.661201E+03 -2.254472E+04 -4.083222E-11 -2.033749E-10
       320  19  2.207628E+06  8.053201E+04  1.092859E+05 -2.768724E+04  2.171398E+04  1.140347E+04
       320  20  2.262259E+06  9.320383E+04  1.445972E+05 -1.533003E+04  4.845577E+04  1.399074E+04
       320  21  2.330640E+06  1.464325E+05  2.074432E+05 -4.311648E+04  7.519919E+04  1.563606E+04
       320  22  1.874020E+06 -1.823308E+03  3.035249E+04 -3.281852E+04  2.347215E+04  1.140350E+04
       320  23  1.867159E+06 -4.293569E+03  5.129749E+04 -1.275015E+04  4.965525E+04  1.399168E+04
       320  24  1.873959E+06  3.371139E+04  9.940392E+04 -3.282632E+04  7.583737E+04  1.563827E+04
       320  25  1.540514E+06 -8.418648E+04 -4.858857E+04 -3.794702E+04  2.522937E+04  1.140351E+04
       320  26  1.472202E+06 -1.018021E+05 -4.201295E+04 -1.017192E+04  5.085397E+04  1.399262E+04
       320  27  1.417469E+06 -7.902419E+04 -8.649776E+03 -2.254376E+04  7.647507E+04  1.564051E+04
       321   1  2.427779E+06  1.115098E+05  2.473094E+05  1.731983E+04 -8.917363E+04 -1.934887E+04
       321   2  2.431815E+06  1.039007E+05  3.382535E+05 -4.946972E+04 -2.046845E+05 -2.106597E+04
       321   3  2.557495E+06  5.218092E+05  6.106662E+05 -1.584149E+05 -3.202202E+05 -7.261107E+03
       321   4  1.897687E+06 -1.930789E+04  1.223418E+05 -3.316415E+04 -9.455934E+04 -1.934522E+04
       321   5  1.837424E+06 -4.270370E+04  1.978823E+05 -1.227348E+04 -2.010306E+05 -2.107679E+04
       321   6  1.897344E+06  3.580446E+05  4.487458E+05 -3.352400E+04 -3.075129E+05 -7.312360E+03
       321   7  1.367857E+06 -1.501360E+05 -2.643602E+03 -8.360494E+04 -9.994047E+04 -1.934068E+04
       321   8  1.243359E+06 -1.893281E+05  5.748744E+04  2.488701E+04 -1.973801E+05 -2.108718E+04
       321   9  1.237623E+06  1.943065E+05  2.868024E+05  9.123425E+04 -2.948188E+05 -7.358571E+03
       321  10  2.427770E+06  1.115072E+05  2.472938E+05  1.731844E+04  2.910725E-10 -1.787574E-10
       321  11  2.431770E+06  1.038890E+05  3.381743E+05 -4.947319E+04  1.366428E-10  7.749777E-11
       321  12  2.557386E+06  5.217817E+05  6.104742E+05 -1.584168E+05  6.699859E-10  5.121994E-10
       321  13  1.897677E+06 -1.931069E+04  1.223244E+05 -3.316562E+04 -1.843563E-09 -9.231302E-10
       321  14  1.837381E+06 -4.271499E+04  1.978057E+05 -1.227689E+04 -1.123643E-09  1.751396E-10
       321  15  1.897243E+06  3.580192E+05  4.485685E+05 -3.352581E+04 -6.344798E-10 -4.324541E-10
       321  16  1.367847E+06 -1.501391E+05 -2.663034E+03 -8.360650E+04 -1.479255E-09  4.737772E-11
       321  17  1.243317E+06 -1.893390E+05  5.741355E+04  2.488366E+04 -1.141027E-09 -3.986855E-10
       321  18  1.237529E+06  1.942832E+05  2.866393E+05  9.123251E+04 -4.740579E-10  9.668767E-10
       321  19  2.427779E+06  1.115098E+05  2.473094E+05  1.731983E+04  8.917363E+04  1.934887E+04
       321  20  2.431815E+06  1.039007E+05  3.382535E+05 -4.946972E+04  2.046845E+05  2.106597E+04
       321  21  2.557495E+06  5.218092E+05  6.106662E+05 -1.584149E+05  3.202202E+05  7.261107E+03
       321  22  1.897687E+06 -1.930789E+04  1.223418E+05 -3.316415E+04  9.455934E+04  1.934522E+04
       321  23  1.837424E+06 -4.270370E+04  1.978823E+05 -1.227348E+04  2.010306E+05  2.107679E+04
       321  24  1.897344E+06  3.580446E+05  4.487458E+05 -3.352400E+04  3.075129E+05  7.312360E+03
       321  25  1.367857E+06 -1.501360E+05 -2.643602E+03 -8.360494E+04  9.994047E+04  1.934068E+04
       321  26  1.243359E+06 -1.893281E+05  5.748744E+04  2.488701E+04  1.973801E+05  2.108718E+04
       321  27  1.237623E+06  1.943065E+05  2.868024E+05  9.123425E+04  2.948188E+05  7.358571E+03
       322   1  1.515928E+05  2.803338E+05  2.062132E+05 -1.024604E+05 -3.383682E+03  1.706017E+05
       322   2 -9.700878E+04  1.925419E+05  5.164879E+04 -3.371271E+04 -1.049366E+04  1.086676E+05
       322   3 -9.488716E+04  1.754003E+05  6.027083E+01  7.937509E+02 -1.293658E+04  4.674702E+04
       322   4  2.105616E+05  5.188252E+05  2.646052E+05 -2.897864E+04 -3.375173E+03  1.761823E+05
       322   5 -2.522356E+04  4.832982E+05  1.204334E+05 -1.208500E+04 -1.049508E+04  1.115322E+05
       322   6 -9.882796E+03  5.188627E+05  8.109735E+04 -2.942459E+04 -1.293860E+04  4.689098E+04
       322   7  2.695465E+05  7.573802E+05  3.229961E+05  4.453141E+04 -3.365348E+03  1.817651E+05
       322   8  4.655741E+04  7.741331E+05  1.892125E+05  9.552939E+03 -1.049631E+04  1.143982E+05
       322   9  7.511652E+04  8.624353E+05  1.621268E+05 -5.965969E+04 -1.294064E+04  4.703502E+04
       322  10  1.515850E+05  2.803026E+05  2.061585E+05 -1.024599E+05 -6.093433E-10 -9.457144E-10
       322  11 -9.701207E+04  1.925292E+05  5.162640E+04 -3.371180E+04 -1.140998E-09 -3.259687E-09
       322  12 -9.488793E+04  1.753979E+05  5.585102E+01  7.942379E+02  7.173359E-10 -1.004222E-10
       322  13  2.105532E+05  5.187919E+05  2.645469E+05 -2.897816E+04  9.912340E-10  1.165788E-09
       322  14 -2.522701E+04  4.832848E+05  1.204099E+05 -1.208405E+04 -2.192284E-10 -6.879929E-11
       322  15 -9.883565E+03  5.188603E+05  8.109291E+04 -2.942410E+04  9.486099E-10  1.029522E-09
       322  16  2.695377E+05  7.573447E+05  3.229341E+05  4.453190E+04  1.565428E-11  2.202500E-09
       322  17  4.655378E+04  7.741190E+05  1.891878E+05  9.553906E+03  6.110351E-10 -1.019772E-09
       322  18  7.511575E+04  8.624329E+05  1.621223E+05 -5.965920E+04 -1.450666E-10 -2.420425E-10
       322  19  1.515928E+05  2.803338E+05  2.062132E+05 -1.024604E+05  3.383682E+03 -1.706017E+05
       322  20 -9.700878E+04  1.925419E+05  5.164879E+04 -3.371271E+04  1.049366E+04 -1.086676E+05
       322  21 -9.488716E+04  1.754003E+05  6.027083E+01  7.937509E+02  1.293658E+04 -4.674702E+04
       322  22  2.105616E+05  5.188252E+05  2.646052E+05 -2.897864E+04  3.375173E+03 -1.761823E+05
       322  23 -2.522356E+04  4.832982E+05  1.204334E+05 -1.208500E+04  1.049508E+04 -1.115322E+05
       322  24 -9.882796E+03  5.188627E+05  8.109735E+04 -2.942459E+04  1.293860E+04 -4.689098E+04
       322  25  2.695465E+05  7.573802E+05  3.229961E+05  4.453141E+04  3.365348E+03 -1.817651E+05
       322  26  4.655741E+04  7.741331E+05  1.892125E+05  9.552939E+03  1.049631E+04 -1.143982E+05
       322  27  7.511652E+04  8.624353E+05  1.621268E+05 -5.965969E+04  1.294064E+04 -4.703502E+04
       323   1 -8.111569E+04  1.006414E+05 -2.552909E+04 -3.724469E+04 -1.376603E+04  3.215228E+04
       323   2 -1.178058E+05  4.040542E+04 -5.703932E+04 -1.190455E+04 -1.628063E+04  6.604396E+03
       323   3 -1.131065E+05 -6.094965E+03 -6.155808E+04 -2.140940E+04 -1.750761E+04 -1.893760E+04
       323   4  1.915825E+04  5.061198E+05  7.065716E+04 -2.941374E+04 -1.376817E+04  3.401332E+04
       323   5 -4.362785E+03  4.991876E+05  5.151993E+04 -1.199854E+04 -1.628142E+04  7.707486E+03
       323   6  1.362052E+04  5.061107E+05  5.988818E+04 -2.942607E+04 -1.750684E+04 -1.859461E+04
       323   7  1.194206E+05  9.117493E+05  1.668320E+05 -2.157759E+04 -1.377026E+04  3.587556E+04
       323   8  1.090651E+05  9.581632E+05  1.600646E+05 -1.209253E+04 -1.628221E+04  8.811385E+03
       323   9  1.403289E+05  1.018557E+06  1.813162E+05 -3.744931E+04 -1.750607E+04 -1.825134E+04
       323  10 -8.111617E+04  1.006402E+05 -2.553139E+04 -3.724433E+04  3.522819E-10 -9.928464E-10
       323  11 -1.178061E+05  4.040530E+04 -5.703990E+04 -1.190446E+04  6.433668E-10 -2.582413E-09
       323  12 -1.131069E+05 -6.095433E+03 -6.155933E+04 -2.140967E+04 -3.353592E-10 -6.986172E-11
       323  13  1.915773E+04  5.061185E+05  7.065463E+04 -2.941336E+04  7.244596E-10  1.302902E-09
       323  14 -4.363085E+03  4.991875E+05  5.151932E+04 -1.199844E+04  1.015906E-09  4.082037E-10
       323  15  1.362010E+04  5.061102E+05  5.988695E+04 -2.942633E+04  1.207330E-09  6.551896E-10
       323  16  1.194201E+05  9.117478E+05  1.668292E+05 -2.157719E+04  4.605366E-10  2.102890E-09
       323  17  1.090648E+05  9.581630E+05  1.600639E+05 -1.209241E+04 -5.090986E-10  1.217634E-10
       323  18  1.403285E+05  1.018557E+06  1.813150E+05 -3.744957E+04 -3.516033E-10 -3.727905E-11
       323  19 -8.111569E+04  1.006414E+05 -2.552909E+04 -3.724469E+04  1.376603E+04 -3.215228E+04
       323  20 -1.178058E+05  4.040542E+04 -5.703932E+04 -1.190455E+04  1.628063E+04 -6.604396E+03
       323  21 -1.131065E+05 -6.094965E+03 -6.155808E+04 -2.140940E+04  1.750761E+04  1.893760E+04
       323  22  1.915825E+04  5.061198E+05  7.065716E+04 -2.941374E+04  1.376817E+04 -3.401332E+04
       323  23 -4.362785E+03  4.991876E+05  5.151993E+04 -1.199854E+04  1.628142E+04 -7.707486E+03
       323  24  1.362052E+04  5.061107E+05  5.988818E+04 -2.942607E+04  1.750684E+04  1.859461E+04
       323  25  1.194206E+05  9.117493E+05  1.668320E+05 -2.157759E+04  1.377026E+04 -3.587556E+04
       323  26  1.090651E+05  9.581632E+05  1.600646E+05 -1.209253E+04  1.628221E+04 -8.811385E+03
       323  27  1.403289E+05  1.018557E+06  1.813162E+05 -3.744931E+04  1.750607E+04  1.825134E+04
       324   1 -1.486417E+05 -6.034897E+04 -7.016532E+04 -5.116131E+04 -2.097391E+04 -3.459210E+04
       324   2 -1.743954E+05 -1.406727E+05 -5.733519E+04  4.685143E+03 -2.214763E+04 -7.436579E+04
       324   3 -1.510797E+04 -1.692525E+05  2.772649E+04  2.552256E+04 -7.304687E+03 -1.141267E+05
       324   4 -6.504301E+03  5.148643E+05  6.571032E+04 -2.949567E+04 -2.097942E+04 -2.930053E+04
       324   5 -1.883953E+04  4.881935E+05  9.153130E+04 -1.195044E+04 -2.214134E+04 -7.834311E+04
       324   6  1.553688E+05  5.148147E+05  1.959652E+05 -2.941028E+04 -7.288880E+03 -1.273771E+05
       324   7  1.356112E+05  1.090383E+06  2.015635E+05 -7.809755E+03 -2.098456E+04 -2.400408E+04
       324   8  1.366890E+05  1.117424E+06  2.403706E+05 -2.860291E+04 -2.213484E+04 -8.232440E+04
       324   9  3.258223E+05  1.199314E+06  3.641717E+05 -8.440370E+04 -7.270741E+03 -1.406420E+05
       324  10 -1.486425E+05 -6.035037E+04 -7.016840E+04 -5.116189E+04  5.106708E-11 -5.974339E-10
       324  11 -1.743974E+05 -1.406788E+05 -5.734651E+04  4.683816E+03 -1.028011E-10 -1.333422E-09
       324  12 -1.511152E+04 -1.692665E+05  2.770191E+04  2.552189E+04 -1.845354E-10  6.765083E-12
       324  13 -6.505004E+03  5.148632E+05  6.570788E+04 -2.949616E+04 -3.134551E-10  7.607575E-10
       324  14 -1.884170E+04  4.881867E+05  9.151886E+04 -1.195184E+04  1.002661E-11  2.489234E-10
       324  15  1.553644E+05  5.147972E+05  1.959346E+05 -2.941103E+04 -3.978129E-10  8.690689E-11
       324  16  1.356106E+05  1.090382E+06  2.015615E+05 -7.810160E+03  4.485161E-10  1.179514E-09
       324  17  1.366867E+05  1.117416E+06  2.403569E+05 -2.860437E+04 -1.173011E-10 -1.444263E-10
       324  18  3.258169E+05  1.199293E+06  3.641345E+05 -8.440453E+04 -2.983162E-10  7.575789E-11
       324  19 -1.486417E+05 -6.034897E+04 -7.016532E+04 -5.116131E+04  2.097391E+04  3.459210E+04
       324  20 -1.743954E+05 -1.406727E+05 -5.733519E+04  4.685143E+03  2.214763E+04  7.436579E+04
       324  21 -1.510797E+04 -1.692525E+05  2.772649E+04  2.552256E+04  7.304687E+03  1.141267E+05
       324  22 -6.504301E+03  5.148643E+05  6.571032E+04 -2.949567E+04  2.097942E+04  2.930053E+04
       324  23 -1.883953E+04  4.881935E+05  9.153130E+04 -1.195044E+04  2.214134E+04  7.834311E+04
       324  24  1.553688E+05  5.148147E+05  1.959652E+05 -2.941028E+04  7.288880E+03  1.273771E+05
       324  25  1.356112E+05  1.090383E+06  2.015635E+05 -7.809755E+03  2.098456E+04  2.400408E+04
       324  26  1.366890E+05  1.117424E+06  2.403706E+05 -2.860291E+04  2.213484E+04  8.232440E+04
       324  27  3.258223E+05  1.199314E+06  3.641717E+05 -8.440370E+04  7.270741E+03  1.406420E+05
       325   1 -2.860683E+06 -1.071597E+06 -5.758397E+05 -1.093069E+06 -2.754326E+05 -8.190672E+04
       325   2 -2.792712E+06 -8.140355E+05 -3.602689E+05 -1.061226E+06 -1.765893E+05  7.055367E+03
       325   3 -2.778677E+06 -7.012686E+05 -2.673990E+05 -1.011569E+06 -6.561883E+04  6.397777E+04
       325   4 -1.701697E+06 -5.051978E+05 -2.533290E+05 -6.415704E+05 -1.713251E+05 -4.271433E+04
       325   5 -1.666226E+06 -3.407332E+05 -1.180433E+05 -6.871655E+05 -1.269191E+05  2.574516E+04
       325   6 -1.673765E+06 -3.101126E+05 -6.206906E+04 -7.149803E+05 -7.041179E+04  6.215758E+04
       325   7 -5.413503E+05  6.158197E+04  6.909951E+04 -1.892163E+05 -6.700731E+04 -3.387340E+03
       325   8 -5.384172E+05  1.327920E+05  1.241204E+05 -3.124357E+05 -7.715180E+04  4.448357E+04
       325   9 -5.675561E+05  8.114564E+04  1.432181E+05 -4.179009E+05 -7.521394E+04  6.033417E+04
       325  10 -2.860766E+06 -1.071624E+06 -5.759957E+05 -1.093087E+06 -2.392258E-09 -3.849630E-10
       325  11 -2.792746E+06 -8.140439E+05 -3.603278E+05 -1.061225E+06 -4.862845E-10  5.117399E-10
       325  12 -2.778683E+06 -7.012741E+05 -2.674148E+05 -1.011566E+06  2.315120E-09  2.403321E-10
       325  13 -1.701729E+06 -5.052077E+05 -2.533877E+05 -6.415763E+05  5.259145E-10  1.320613E-09
       325  14 -1.666244E+06 -3.407383E+05 -1.180749E+05 -6.871629E+05 -7.321060E-10 -1.736922E-09
       325  15 -1.673771E+06 -3.101180E+05 -6.208564E+04 -7.149768E+05  9.241442E-11 -9.305997E-10
       325  16 -5.413552E+05  6.158075E+04  6.909104E+04 -1.892165E+05  1.580122E-09  1.122992E-09
       325  17 -5.384242E+05  1.327883E+05  1.241055E+05 -3.124329E+05 -4.090205E-10  5.865434E-10
       325  18 -5.675632E+05  8.114022E+04  1.432006E+05 -4.178972E+05 -2.892240E-09 -6.985953E-10
       325  19 -2.860683E+06 -1.071597E+06 -5.758397E+05 -1.093069E+06  2.754326E+05  8.190672E+04
       325  20 -2.792712E+06 -8.140355E+05 -3.602689E+05 -1.061226E+06  1.765893E+05 -7.055367E+03
       325  21 -2.778677E+06 -7.012686E+05 -2.673990E+05 -1.011569E+06  6.561883E+04 -6.397777E+04
       325  22 -1.701697E+06 -5.051978E+05 -2.533290E+05 -6.415704E+05  1.713251E+05  4.271433E+04
       325  23 -1.666226E+06 -3.407332E+05 -1.180433E+05 -6.871655E+05  1.269191E+05 -2.574516E+04
       325  24 -1.673765E+06 -3.101126E+05 -6.206906E+04 -7.149803E+05  7.041179E+04 -6.215758E+04
       325  25 -5.413503E+05  6.158197E+04  6.909951E+04 -1.892163E+05  6.700731E+04  3.387340E+03
       325  26 -5.384172E+05  1.327920E+05  1.241204E+05 -3.124357E+05  7.715180E+04 -4.448357E+04
       325  27 -5.675561E+05  8.114564E+04  1.432181E+05 -4.179009E+05  7.521394E+04 -6.033417E+04
       326   1 -2.707602E+06 -6.949624E+05 -2.403549E+05 -1.006420E+06 -6.179327E+04  6.293119E+04
       326   2 -2.634568E+06 -6.489473E+05 -1.987427E+05 -9.775431E+05 -4.396366E+04  6.753428E+04
       326   3 -2.553728E+06 -6.232763E+05 -1.718929E+05 -9.619500E+05 -2.507889E+04  6.933175E+04
       326   4 -1.666139E+06 -3.120248E+05 -4.674680E+04 -7.115670E+05 -6.258791E+04  6.261699E+04
       326   5 -1.669806E+06 -2.975804E+05 -2.460020E+04 -7.066952E+05 -4.950962E+04  6.543387E+04
       326   6 -1.664721E+06 -3.025255E+05 -1.342272E+04 -7.151076E+05 -3.537948E+04  6.544651E+04
       326   7 -6.235335E+05  7.102097E+04  1.468198E+05 -4.162491E+05 -6.338395E+04  6.230227E+04
       326   8 -7.040645E+05  5.387585E+04  1.495088E+05 -4.354535E+05 -5.506478E+04  6.332999E+04
       326   9 -7.748852E+05  1.829648E+04  1.450192E+05 -4.679371E+05 -4.569575E+04  6.155545E+04
       326  10 -2.707607E+06 -6.949676E+05 -2.403696E+05 -1.006417E+06 -2.191578E-09 -1.249801E-09
       326  11 -2.634572E+06 -6.489527E+05 -1.987548E+05 -9.775407E+05 -1.357258E-09  2.775792E-10
       326  12 -2.553730E+06 -6.232816E+05 -1.719031E+05 -9.619486E+05  7.405534E-10  5.133344E-10
       326  13 -1.666144E+06 -3.120301E+05 -4.676152E+04 -7.115639E+05  7.413544E-10 -1.446393E-09
       326  14 -1.669810E+06 -2.975856E+05 -2.461285E+04 -7.066926E+05 -1.566531E-09  1.053756E-10
       326  15 -1.664723E+06 -3.025304E+05 -1.343312E+04 -7.151058E+05 -5.020723E-10  5.444098E-10
       326  16 -6.235388E+05  7.101573E+04  1.468049E+05 -4.162459E+05  1.315838E-09  1.024689E-09
       326  17 -7.040689E+05  5.387073E+04  1.494956E+05 -4.354507E+05  5.556923E-10 -1.695011E-10
       326  18 -7.748884E+05  1.829186E+04  1.450082E+05 -4.679348E+05 -1.257417E-09  9.533239E-10
       326  19 -2.707602E+06 -6.949624E+05 -2.403549E+05 -1.006420E+06  6.179327E+04 -6.293119E+04
       326  20 -2.634568E+06 -6.489473E+05 -1.987427E+05 -9.775431E+05  4.396366E+04 -6.753428E+04
       326  21 -2.553728E+06 -6.232763E+05 -1.718929E+05 -9.619500E+05  2.507889E+04 -6.933175E+04
       326  22 -1.666139E+06 -3.120248E+05 -4.674680E+04 -7.115670E+05  6.258791E+04 -6.261699E+04
       326  23 -1.669806E+06 -2.975804E+05 -2.460020E+04 -7.066952E+05  4.950962E+04 -6.543387E+04
       326  24 -1.664721E+06 -3.025255E+05 -1.342272E+04 -7.151076E+05  3.537948E+04 -6.544651E+04
       326  25 -6.235335E+05  7.102097E+04  1.468198E+05 -4.162491E+05  6.338395E+04 -6.230227E+04
       326  26 -7.040645E+05  5.387585E+04  1.495088E+05 -4.354535E+05  5.506478E+04 -6.332999E+04
       326  27 -7.748852E+05  1.829648E+04  1.450192E+05 -4.679371E+05  4.569575E+04 -6.155545E+04
       327   1 -2.501095E+06 -6.054000E+05 -1.588631E+05 -9.481771E+05 -2.219444E+04  6.633638E+04
       327   2 -2.428222E+06 -5.698886E+05 -1.400032E+05 -9.187689E+05 -1.673397E+04  6.154721E+04
       327   3 -2.342875E+06 -5.477874E+05 -1.236188E+05 -9.041906E+05 -1.117857E+04  5.649562E+04
       327   4 -1.664076E+06 -3.026847E+05 -1.008405E+04 -7.148782E+05 -3.217747E+04  6.257294E+04
       327   5 -1.670305E+06 -2.958504E+05 -5.538899E+03 -7.075170E+05 -2.715964E+04  5.762092E+04
       327   6 -1.663980E+06 -3.023381E+05 -3.116633E+03 -7.149873E+05 -2.204741E+04  5.240649E+04
       327   7 -8.263067E+05  1.012598E+02  1.386749E+05 -4.812822E+05 -4.217500E+04  5.880408E+04
       327   8 -9.117749E+05 -2.175547E+04  1.289084E+05 -4.960224E+05 -3.759898E+04  5.368950E+04
       327   9 -9.845959E+05 -5.684434E+04  1.173712E+05 -5.255901E+05 -3.292896E+04  4.831260E+04
       327  10 -2.501096E+06 -6.054049E+05 -1.588723E+05 -9.481759E+05 -5.370167E-10  4.767401E-10
       327  11 -2.428224E+06 -5.698927E+05 -1.400109E+05 -9.187680E+05  6.201871E-10  6.982807E-10
       327  12 -2.342876E+06 -5.477909E+05 -1.236251E+05 -9.041901E+05  1.515906E-09  4.516609E-11
       327  13 -1.664078E+06 -3.026892E+05 -1.009335E+04 -7.148766E+05  4.390243E-10 -2.845510E-10
       327  14 -1.670307E+06 -2.958542E+05 -5.546518E+03 -7.075158E+05  1.626604E-09  1.765368E-10
       327  15 -1.663981E+06 -3.023412E+05 -3.122702E+03 -7.149864E+05 -7.036635E-10 -8.285989E-11
       327  16 -8.263095E+05  9.707347E+01  1.386651E+05 -4.812802E+05 -3.446889E-10  5.848917E-10
       327  17 -9.117772E+05 -2.175894E+04  1.289003E+05 -4.960208E+05 -3.792123E-11 -2.530103E-10
       327  18 -9.845977E+05 -5.684714E+04  1.173648E+05 -5.255888E+05 -8.497836E-10 -9.529412E-10
       327  19 -2.501095E+06 -6.054000E+05 -1.588631E+05 -9.481771E+05  2.219444E+04 -6.633638E+04
       327  20 -2.428222E+06 -5.698886E+05 -1.400032E+05 -9.187689E+05  1.673397E+04 -6.154721E+04
       327  21 -2.342875E+06 -5.477874E+05 -1.236188E+05 -9.041906E+05  1.117857E+04 -5.649562E+04
       327  22 -1.664076E+06 -3.026847E+05 -1.008405E+04 -7.148782E+05  3.217747E+04 -6.257294E+04
       327  23 -1.670305E+06 -2.958504E+05 -5.538899E+03 -7.075170E+05  2.715964E+04 -5.762092E+04
       327  24 -1.663980E+06 -3.023381E+05 -3.116633E+03 -7.149873E+05  2.204741E+04 -5.240649E+04
       327  25 -8.263067E+05  1.012598E+02  1.386749E+05 -4.812822E+05  4.217500E+04 -5.880408E+04
       327  26 -9.117749E+05 -2.175547E+04  1.289084E+05 -4.960224E+05  3.759898E+04 -5.368950E+04
       327  27 -9.845959E+05 -5.684434E+04  1.173712E+05 -5.255901E+05  3.292896E+04 -4.831260E+04
       328   1 -2.291072E+06 -5.290749E+05 -1.133145E+05 -8.898432E+05 -9.326708E+03  5.294034E+04
       328   2 -2.217835E+06 -4.937262E+05 -9.845337E+04 -8.601444E+05 -6.114636E+03  4.684369E+04
       328   3 -2.131597E+06 -4.714677E+05 -8.418558E+04 -8.454075E+05 -2.892159E+03  4.071095E+04
       328   4 -1.663874E+06 -3.023576E+05 -2.398365E+03 -7.149824E+05 -2.019104E+04  4.885483E+04
       328   5 -1.670360E+06 -2.957959E+05 -1.500422E+03 -7.075027E+05 -1.703958E+04  4.273815E+04
       328   6 -1.663840E+06 -3.023125E+05 -1.148150E+03 -7.149869E+05 -1.387781E+04  3.658532E+04
       328   7 -1.036266E+06 -7.560475E+04  1.085040E+05 -5.399577E+05 -3.106701E+04  4.476496E+04
       328   8 -1.122568E+06 -9.783654E+04  9.544340E+04 -5.547347E+05 -2.797483E+04  3.862874E+04
       328   9 -1.195846E+06 -1.331345E+05  8.188398E+04 -5.844730E+05 -2.487242E+04  3.245633E+04
       328  10 -2.291073E+06 -5.290779E+05 -1.133199E+05 -8.898428E+05 -3.749874E-10 -7.017093E-10
       328  11 -2.217835E+06 -4.937286E+05 -9.845756E+04 -8.601442E+05 -1.269891E-09 -2.491756E-10
       328  12 -2.131597E+06 -4.714695E+05 -8.418871E+04 -8.454074E+05 -7.445427E-10 -1.736673E-10
       328  13 -1.663876E+06 -3.023603E+05 -2.403612E+03 -7.149816E+05 -4.150267E-10 -2.814954E-10
       328  14 -1.670361E+06 -2.957979E+05 -1.504396E+03 -7.075021E+05  1.060807E-09 -3.353891E-10
       328  15 -1.663840E+06 -3.023140E+05 -1.151024E+03 -7.149865E+05  1.419553E-10  2.466468E-11
       328  16 -1.036267E+06 -7.560716E+04  1.084984E+05 -5.399566E+05  3.544766E-10 -2.855576E-10
       328  17 -1.122569E+06 -9.783835E+04  9.543913E+04 -5.547338E+05  1.120594E-09 -1.548957E-10
       328  18 -1.195847E+06 -1.331358E+05  8.188084E+04 -5.844723E+05  7.908626E-10  1.588591E-10
       328  19 -2.291072E+06 -5.290749E+05 -1.133145E+05 -8.898432E+05  9.326708E+03 -5.294034E+04
       328  20 -2.217835E+06 -4.937262E+05 -9.845337E+04 -8.601444E+05  6.114636E+03 -4.684369E+04
       328  21 -2.131597E+06 -4.714677E+05 -8.418558E+04 -8.454075E+05  2.892159E+03 -4.071095E+04
       328  22 -1.663874E+06 -3.023576E+05 -2.398365E+03 -7.149824E+05  2.019104E+04 -4.885483E+04
       328  23 -1.670360E+06 -2.957959E+05 -1.500422E+03 -7.075027E+05  1.703958E+04 -4.273815E+04
       328  24 -1.663840E+06 -3.023125E+05 -1.148150E+03 -7.149869E+05  1.387781E+04 -3.658532E+04
       328  25 -1.036266E+06 -7.560475E+04  1.085040E+05 -5.399577E+05  3.106701E+04 -4.476496E+04
       328  26 -1.122568E+06 -9.783654E+04  9.544340E+04 -5.547347E+05  2.797483E+04 -3.862874E+04
       328  27 -1.195846E+06 -1.331345E+05  8.188398E+04 -5.844730E+05  2.487242E+04 -3.245633E+04
       329   1 -2.079563E+06 -4.525973E+05 -7.453873E+04 -8.309625E+05 -1.274830E+03  3.702915E+04
       329   2 -2.005898E+06 -4.170864E+05 -6.082106E+04 -8.011374E+05  1.861443E+03  3.083257E+04
       329   3 -1.919177E+06 -3.947212E+05 -4.762915E+04 -7.863625E+05  4.997622E+03  2.463096E+04
       329   4 -1.663817E+06 -3.023141E+05 -1.133900E+03 -7.150066E+05 -1.227628E+04  3.289888E+04
       329   5 -1.670327E+06 -2.957034E+05 -1.411168E+03 -7.074910E+05 -9.148353E+03  2.670086E+04
       329   6 -1.663788E+06 -3.022367E+05 -2.208137E+03 -7.150274E+05 -6.020628E+03  2.049778E+04
       329   7 -1.247889E+06 -1.520141E+05  7.226591E+04 -5.989779E+05 -2.328559E+04  2.876567E+04
       329   8 -1.334639E+06 -1.743100E+05  5.799513E+04 -6.137976E+05 -2.016445E+04  2.256679E+04
       329   9 -1.408331E+06 -2.097468E+05  4.321054E+04 -6.436655E+05 -1.704361E+04  1.636283E+04
       329  10 -2.079563E+06 -4.525988E+05 -7.454131E+04 -8.309624E+05 -6.733546E-10  1.023794E-10
       329  11 -2.005898E+06 -4.170875E+05 -6.082286E+04 -8.011375E+05 -3.375935E-10  5.047096E-10
       329  12 -1.919177E+06 -3.947219E+05 -4.763034E+04 -7.863626E+05 -4.673189E-10  4.111958E-11
       329  13 -1.663818E+06 -3.023153E+05 -1.136215E+03 -7.150063E+05 -3.746591E-10  2.726914E-10
       329  14 -1.670328E+06 -2.957042E+05 -1.412663E+03 -7.074908E+05 -8.079397E-10  4.001122E-10
       329  15 -1.663788E+06 -3.022372E+05 -2.208994E+03 -7.150273E+05 -1.196859E-10  7.640262E-11
       329  16 -1.247889E+06 -1.520152E+05  7.226334E+04 -5.989774E+05  7.502188E-10  3.796216E-10
       329  17 -1.334640E+06 -1.743106E+05  5.799341E+04 -6.137972E+05 -1.418075E-10  2.739340E-10
       329  18 -1.408331E+06 -2.097472E+05  4.320949E+04 -6.436652E+05 -6.501646E-10 -9.109793E-11
       329  19 -2.079563E+06 -4.525973E+05 -7.453873E+04 -8.309625E+05  1.274830E+03 -3.702915E+04
       329  20 -2.005898E+06 -4.170864E+05 -6.082106E+04 -8.011374E+05 -1.861443E+03 -3.083257E+04
       329  21 -1.919177E+06 -3.947212E+05 -4.762915E+04 -7.863625E+05 -4.997622E+03 -2.463096E+04
       329  22 -1.663817E+06 -3.023141E+05 -1.133900E+03 -7.150066E+05  1.227628E+04 -3.289888E+04
       329  23 -1.670327E+06 -2.957034E+05 -1.411168E+03 -7.074910E+05  9.148353E+03 -2.670086E+04
       329  24 -1.663788E+06 -3.022367E+05 -2.208137E+03 -7.150274E+05  6.020628E+03 -2.049778E+04
       329  25 -1.247889E+06 -1.520141E+05  7.226591E+04 -5.989779E+05  2.328559E+04 -2.876567E+04
       329  26 -1.334639E+06 -1.743100E+05  5.799513E+04 -6.137976E+05  2.016445E+04 -2.256679E+04
       329  27 -1.408331E+06 -2.097468E+05  4.321054E+04 -6.436655E+05  1.704361E+04 -1.636283E+04
       330   1 -1.866935E+06 -3.758077E+05 -3.860202E+04 -7.719384E+05  6.850079E+03  2.102347E+04
       330   2 -1.792873E+06 -3.402067E+05 -2.671392E+04 -7.420149E+05  1.165869E+04  1.547751E+04
       330   3 -1.706058E+06 -3.180819E+05 -1.668082E+04 -7.271956E+05  1.643942E+04  1.000491E+04
       330   4 -1.663845E+06 -3.022240E+05 -2.858770E+03 -7.150728E+05 -4.186925E+03  1.688394E+04
       330   5 -1.670215E+06 -2.955726E+05 -5.046822E+03 -7.074808E+05  7.462934E+02  1.138529E+04
       330   6 -1.663868E+06 -3.024235E+05 -9.189975E+03 -7.149960E+05  5.651287E+03  5.959899E+03
       330   7 -1.460708E+06 -2.286354E+05  3.288429E+04 -6.581891E+05 -1.522789E+04  1.274292E+04
       330   8 -1.547541E+06 -2.509366E+05  1.662050E+04 -6.729400E+05 -1.016847E+04  7.292179E+03
       330   9 -1.621675E+06 -2.867648E+05 -1.698680E+03 -7.027956E+05 -5.137633E+03  1.914571E+03
       330  10 -1.866935E+06 -3.758082E+05 -3.860294E+04 -7.719385E+05 -2.137043E-11 -5.119174E-10
       330  11 -1.792873E+06 -3.402070E+05 -2.671463E+04 -7.420150E+05  1.408945E-10 -8.420129E-10
       330  12 -1.706059E+06 -3.180821E+05 -1.668152E+04 -7.271957E+05 -1.328643E-09 -3.478037E-10
       330  13 -1.663845E+06 -3.022243E+05 -2.859338E+03 -7.150727E+05 -1.672756E-10 -3.282105E-10
       330  14 -1.670215E+06 -2.955728E+05 -5.047067E+03 -7.074808E+05  6.390937E-10 -3.788617E-10
       330  15 -1.663868E+06 -3.024236E+05 -9.190102E+03 -7.149960E+05  2.298140E-10  2.117885E-10
       330  16 -1.460709E+06 -2.286357E+05  3.288355E+04 -6.581889E+05  2.410929E-10 -2.550073E-10
       330  17 -1.547541E+06 -2.509367E+05  1.662020E+04 -6.729399E+05 -4.170325E-10 -4.170302E-10
       330  18 -1.621675E+06 -2.867648E+05 -1.698736E+03 -7.027956E+05  1.314974E-09  5.966305E-10
       330  19 -1.866935E+06 -3.758077E+05 -3.860202E+04 -7.719384E+05 -6.850079E+03 -2.102347E+04
       330  20 -1.792873E+06 -3.402067E+05 -2.671392E+04 -7.420149E+05 -1.165869E+04 -1.547751E+04
       330  21 -1.706058E+06 -3.180819E+05 -1.668082E+04 -7.271956E+05 -1.643942E+04 -1.000491E+04
       330  22 -1.663845E+06 -3.022240E+05 -2.858770E+03 -7.150728E+05  4.186925E+03 -1.688394E+04
       330  23 -1.670215E+06 -2.955726E+05 -5.046822E+03 -7.074808E+05 -7.462934E+02 -1.138529E+04
       330  24 -1.663868E+06 -3.024235E+05 -9.189975E+03 -7.149960E+05 -5.651287E+03 -5.959899E+03
       330  25 -1.460708E+06 -2.286354E+05  3.288429E+04 -6.581891E+05  1.522789E+04 -1.274292E+04
       330  26 -1.547541E+06 -2.509366E+05  1.662050E+04 -6.729400E+05  1.016847E+04 -7.292179E+03
       330  27 -1.621675E+06 -2.867648E+05 -1.698680E+03 -7.027956E+05  5.137633E+03 -1.914571E+03
       331   1 -1.653587E+06 -2.995994E+05 -9.978331E+03 -7.136405E+05  1.964715E+04  6.942689E+03
       331   2 -1.580410E+06 -2.633530E+05 -5.475655E+03 -6.806385E+05  3.163806E+04  4.650706E+03
       331   3 -1.497520E+06 -2.460601E+05 -9.793407E+03 -6.615935E+05  4.329551E+04  3.251809E+03
       331   4 -1.664407E+06 -3.023016E+05 -1.223556E+04 -7.152665E+05  8.745337E+03  2.855149E+03
       331   5 -1.669722E+06 -2.969545E+05 -2.240398E+04 -7.066857E+05  2.225469E+04  1.132009E+03
       331   6 -1.665634E+06 -3.108645E+05 -4.260059E+04 -7.120653E+05  3.542937E+04  3.014627E+02
       331   7 -1.675226E+06 -3.050037E+05 -1.449226E+04 -7.168924E+05 -2.156167E+03 -1.232332E+03
       331   8 -1.759025E+06 -3.305551E+05 -3.933225E+04 -7.327293E+05  1.287277E+04 -2.386101E+03
       331   9 -1.833719E+06 -3.756661E+05 -7.540920E+04 -7.625244E+05  2.756544E+04 -2.647938E+03
       331  10 -1.653588E+06 -2.995995E+05 -9.979150E+03 -7.136406E+05 -8.860494E-11  4.838932E-10
       331  11 -1.580412E+06 -2.633533E+05 -5.477582E+03 -6.806386E+05 -5.354132E-10  4.806197E-11
       331  12 -1.497522E+06 -2.460606E+05 -9.796958E+03 -6.615936E+05  6.090409E-10 -5.793588E-12
       331  13 -1.664407E+06 -3.023016E+05 -1.223572E+04 -7.152665E+05 -3.221821E-10  4.947294E-10
       331  14 -1.669723E+06 -2.969547E+05 -2.240491E+04 -7.066858E+05 -1.812437E-09 -4.644474E-10
       331  15 -1.665635E+06 -3.108649E+05 -4.260295E+04 -7.120653E+05 -2.233811E-10 -3.095458E-10
       331  16 -1.675226E+06 -3.050037E+05 -1.449228E+04 -7.168924E+05  1.949143E-10  5.388530E-10
       331  17 -1.759026E+06 -3.305552E+05 -3.933257E+04 -7.327293E+05  1.392027E-10  3.567880E-10
       331  18 -1.833720E+06 -3.756663E+05 -7.541065E+04 -7.625243E+05 -2.748951E-10 -7.736698E-10
       331  19 -1.653587E+06 -2.995994E+05 -9.978331E+03 -7.136405E+05 -1.964715E+04 -6.942689E+03
       331  20 -1.580410E+06 -2.633530E+05 -5.475655E+03 -6.806385E+05 -3.163806E+04 -4.650706E+03
       331  21 -1.497520E+06 -2.460601E+05 -9.793407E+03 -6.615935E+05 -4.329551E+04 -3.251809E+03
       331  22 -1.664407E+06 -3.023016E+05 -1.223556E+04 -7.152665E+05 -8.745337E+03 -2.855149E+03
       331  23 -1.669722E+06 -2.969545E+05 -2.240398E+04 -7.066857E+05 -2.225469E+04 -1.132009E+03
       331  24 -1.665634E+06 -3.108645E+05 -4.260059E+04 -7.120653E+05 -3.542937E+04 -3.014627E+02
       331  25 -1.675226E+06 -3.050037E+05 -1.449226E+04 -7.168924E+05  2.156167E+03  1.232332E+03
       331  26 -1.759025E+06 -3.305551E+05 -3.933225E+04 -7.327293E+05 -1.287277E+04  2.386101E+03
       331  27 -1.833719E+06 -3.756661E+05 -7.540920E+04 -7.625244E+05 -2.756544E+04  2.647938E+03
       332   1 -1.441181E+06 -2.354619E+05 -1.333531E+04 -6.620195E+05  5.221129E+04  2.828303E+03
       332   2 -1.403342E+06 -1.854593E+05 -4.282417E+04 -5.600726E+05  9.082598E+04  1.706764E+04
       332   3 -1.398704E+06 -2.567393E+05 -1.307255E+05 -4.450502E+05  1.255848E+05  4.160231E+04
       332   4 -1.672354E+06 -3.093182E+05 -5.656771E+04 -7.154351E+05  4.305337E+04 -6.056694E+02
       332   5 -1.666618E+06 -3.359545E+05 -1.075602E+05 -6.886116E+05  9.917937E+04  2.019079E+04
       332   6 -1.697604E+06 -4.874075E+05 -2.308882E+05 -6.487167E+05  1.514438E+05  5.127296E+04
       332   7 -1.903471E+06 -3.831730E+05 -9.980222E+04 -7.688339E+05  3.389906E+04 -4.038673E+03
       332   8 -1.929810E+06 -4.864054E+05 -1.722978E+05 -8.170880E+05  1.075288E+05  2.331062E+04
       332   9 -1.996365E+06 -7.179363E+05 -3.310473E+05 -8.522571E+05  1.772882E+05  6.092568E+04
       332  10 -1.441184E+06 -2.354627E+05 -1.334046E+04 -6.620196E+05 -3.001081E-10 -2.585903E-10
       332  11 -1.403351E+06 -1.854618E+05 -4.284026E+04 -5.600738E+05 -3.460620E-10 -1.670444E-10
       332  12 -1.398722E+06 -2.567454E+05 -1.307584E+05 -4.450544E+05 -2.875642E-10 -6.612090E-11
       332  13 -1.672356E+06 -3.093187E+05 -5.657120E+04 -7.154351E+05  9.396088E-10 -2.308774E-10
       332  14 -1.666629E+06 -3.359576E+05 -1.075795E+05 -6.886132E+05  9.731411E-10 -1.735616E-10
       332  15 -1.697629E+06 -4.874165E+05 -2.309364E+05 -6.487230E+05 -1.150966E-10 -6.331942E-11
       332  16 -1.903473E+06 -3.831733E+05 -9.980442E+04 -7.688338E+05  6.254242E-11 -7.657967E-10
       332  17 -1.929822E+06 -4.864091E+05 -1.723206E+05 -8.170900E+05 -2.986583E-10 -3.540535E-10
       332  18 -1.996400E+06 -7.179488E+05 -3.311135E+05 -8.522658E+05 -9.240471E-10 -2.373831E-10
       332  19 -1.441181E+06 -2.354619E+05 -1.333531E+04 -6.620195E+05 -5.221129E+04 -2.828303E+03
       332  20 -1.403342E+06 -1.854593E+05 -4.282417E+04 -5.600726E+05 -9.082598E+04 -1.706764E+04
       332  21 -1.398704E+06 -2.567393E+05 -1.307255E+05 -4.450502E+05 -1.255848E+05 -4.160231E+04
       332  22 -1.672354E+06 -3.093182E+05 -5.656771E+04 -7.154351E+05 -4.305337E+04  6.056694E+02
       332  23 -1.666618E+06 -3.359545E+05 -1.075602E+05 -6.886116E+05 -9.917937E+04 -2.019079E+04
       332  24 -1.697604E+06 -4.874075E+05 -2.308882E+05 -6.487167E+05 -1.514438E+05 -5.127296E+04
       332  25 -1.903471E+06 -3.831730E+05 -9.980222E+04 -7.688339E+05 -3.389906E+04  4.038673E+03
       332  26 -1.929810E+06 -4.864054E+05 -1.722978E+05 -8.170880E+05 -1.075288E+05 -2.331062E+04
       332  27 -1.996365E+06 -7.179363E+05 -3.310473E+05 -8.522571E+05 -1.772882E+05 -6.092568E+04
       333   1  6.794263E+05  1.228247E+05  1.814548E+05  5.971481E+04  1.868604E+05  4.707888E+03
       333   2  6.796462E+05 -1.213639E+05  3.520524E+04  1.653351E+04  1.250594E+05  1.358162E+04
       333   3  7.551359E+05 -9.737744E+04 -3.740991E+03 -5.115408E+04  6.326249E+04  1.261319E+04
       333   4  1.099413E+06  2.271387E+05  2.846199E+05 -1.935251E+04  1.949548E+05  4.693009E+03
       333   5  1.061373E+06 -2.708802E+04  1.254836E+05 -6.973673E+03  1.274330E+05  1.357853E+04
       333   6  1.099537E+06 -1.224912E+04  7.756683E+04 -1.909977E+04  5.991985E+04  1.261351E+04
       333   7  1.519573E+06  3.314633E+05  3.877758E+05 -9.847339E+04  2.030545E+05  4.676082E+03
       333   8  1.443235E+06  6.717951E+04  2.157521E+05 -3.049540E+04  1.298081E+05  1.357525E+04
       333   9  1.444050E+06  7.287456E+04  1.588671E+05  1.297238E+04  5.657535E+04  1.261348E+04
       333  10  6.793889E+05  1.228153E+05  1.813892E+05  5.971410E+04  3.765527E-10 -1.245485E-09
       333  11  6.796293E+05 -1.213683E+05  3.517554E+04  1.653214E+04  7.084446E-10  1.856485E-11
       333  12  7.551316E+05 -9.737868E+04 -3.748802E+03 -5.115472E+04 -1.515994E-09 -7.894451E-10
       333  13  1.099372E+06  2.271285E+05  2.845486E+05 -1.935325E+04  3.765296E-10  7.303841E-10
       333  14  1.061356E+06 -2.709257E+04  1.254527E+05 -6.975066E+03  1.169926E-09 -1.252981E-10
       333  15  1.099533E+06 -1.225026E+04  7.755980E+04 -1.910038E+04  4.157229E-10 -9.360974E-10
       333  16  1.519529E+06  3.314522E+05  3.876984E+05 -9.847415E+04 -7.549264E-10  7.288429E-10
       333  17  1.443217E+06  6.717480E+04  2.157202E+05 -3.049682E+04  6.468421E-10  1.767089E-10
       333  18  1.444046E+06  7.287353E+04  1.588608E+05  1.297181E+04  1.635257E-09  1.543976E-09
       333  19  6.794263E+05  1.228247E+05  1.814548E+05  5.971481E+04 -1.868604E+05 -4.707888E+03
       333  20  6.796462E+05 -1.213639E+05  3.520524E+04  1.653351E+04 -1.250594E+05 -1.358162E+04
       333  21  7.551359E+05 -9.737744E+04 -3.740991E+03 -5.115408E+04 -6.326249E+04 -1.261319E+04
       333  22  1.099413E+06  2.271387E+05  2.846199E+05 -1.935251E+04 -1.949548E+05 -4.693009E+03
       333  23  1.061373E+06 -2.708802E+04  1.254836E+05 -6.973673E+03 -1.274330E+05 -1.357853E+04
       333  24  1.099537E+06 -1.224912E+04  7.756683E+04 -1.909977E+04 -5.991985E+04 -1.261351E+04
       333  25  1.519573E+06  3.314633E+05  3.877758E+05 -9.847339E+04 -2.030545E+05 -4.676082E+03
       333  26  1.443235E+06  6.717951E+04  2.157521E+05 -3.049540E+04 -1.298081E+05 -1.357525E+04
       333  27  1.444050E+06  7.287456E+04  1.588671E+05  1.297238E+04 -5.657535E+04 -1.261348E+04
       334   1  7.832007E+05 -5.307611E+04 -8.359985E+03 -1.257452E+04  4.840046E+04  1.033645E+04
       334   2  8.153043E+05 -6.817118E+04 -3.012757E+04 -5.569840E+03  3.217324E+04  9.405096E+03
       334   3  8.560139E+05 -5.765527E+04 -3.491611E+04 -2.233798E+04  1.594496E+04  7.865288E+03
       334   4  1.084508E+06  2.138953E+04  6.302104E+04 -1.901877E+04  4.806048E+04  1.033538E+04
       334   5  1.080188E+06 -2.725310E+03  3.250220E+04 -7.126292E+03  3.147498E+04  9.404387E+03
       334   6  1.084530E+06 -1.173584E+03  1.920475E+04 -1.900569E+04  1.488936E+04  7.864799E+03
       334   7  1.385898E+06  9.584882E+04  1.343958E+05 -2.546617E+04  4.772033E+04  1.033433E+04
       334   8  1.345136E+06  6.271555E+04  9.512713E+04 -8.683417E+03  3.077642E+04  9.403683E+03
       334   9  1.313095E+06  5.530440E+04  7.332200E+04 -1.567217E+04  1.383338E+04  7.864300E+03
       334  10  7.831981E+05 -5.307685E+04 -8.364583E+03 -1.257492E+04 -5.674323E-10 -6.546667E-10
       334  11  8.153031E+05 -6.817155E+04 -3.012968E+04 -5.570084E+03 -5.364688E-10  9.103809E-11
       334  12  8.560136E+05 -5.765540E+04 -3.491670E+04 -2.233808E+04 -8.442914E-10  2.435382E-10
       334  13  1.084505E+06  2.138880E+04  6.301651E+04 -1.901917E+04  9.685936E-10  1.120362E-09
       334  14  1.080187E+06 -2.725671E+03  3.250018E+04 -7.126530E+03 -8.171297E-11  7.765828E-10
       334  15  1.084530E+06 -1.173710E+03  1.920422E+04 -1.900579E+04 -1.981776E-09 -5.802089E-10
       334  16  1.385896E+06  9.584810E+04  1.343913E+05 -2.546657E+04 -6.648166E-10  1.063740E-09
       334  17  1.345135E+06  6.271520E+04  9.512519E+04 -8.683650E+03  4.285299E-10  4.466713E-10
       334  18  1.313094E+06  5.530428E+04  7.332152E+04 -1.567226E+04  4.617962E-11 -5.126846E-10
       334  19  7.832007E+05 -5.307611E+04 -8.359985E+03 -1.257452E+04 -4.840046E+04 -1.033645E+04
       334  20  8.153043E+05 -6.817118E+04 -3.012757E+04 -5.569840E+03 -3.217324E+04 -9.405096E+03
       334  21  8.560139E+05 -5.765527E+04 -3.491611E+04 -2.233798E+04 -1.594496E+04 -7.865288E+03
       334  22  1.084508E+06  2.138953E+04  6.302104E+04 -1.901877E+04 -4.806048E+04 -1.033538E+04
       334  23  1.080188E+06 -2.725310E+03  3.250220E+04 -7.126292E+03 -3.147498E+04 -9.404387E+03
       334  24  1.084530E+06 -1.173584E+03  1.920475E+04 -1.900569E+04 -1.488936E+04 -7.864799E+03
       334  25  1.385898E+06  9.584882E+04  1.343958E+05 -2.546617E+04 -4.772033E+04 -1.033433E+04
       334  26  1.345136E+06  6.271555E+04  9.512713E+04 -8.683417E+03 -3.077642E+04 -9.403683E+03
       334  27  1.313095E+06  5.530440E+04  7.332200E+04 -1.567217E+04 -1.383338E+04 -7.864300E+03
       335   1  8.962877E+05 -4.412854E+04 -2.905504E+04 -1.856170E+04  1.273441E+04  6.869203E+03
       335   2  9.313147E+05 -3.759423E+04 -2.741539E+04 -7.283210E+03  8.613934E+03  5.355431E+03
       335   3  9.675188E+05 -2.863416E+04 -2.248231E+04 -1.927353E+04  4.492873E+03  3.811367E+03
       335   4  1.082870E+06  1.950929E+03  1.496471E+04 -1.889799E+04  1.187322E+04  6.868802E+03
       335   5  1.082283E+06 -2.955395E+02  8.277085E+03 -7.263506E+03  7.734112E+03  5.355145E+03
       335   6  1.082876E+06 -1.132673E+02  4.895180E+03 -1.889747E+04  3.594657E+03  3.811199E+03
       335   7  1.269484E+06  4.802791E+04  5.898205E+04 -1.923439E+04  1.101177E+04  6.868402E+03
       335   8  1.233273E+06  3.700152E+04  4.396799E+04 -7.243797E+03  6.854078E+03  5.354859E+03
       335   9  1.198245E+06  2.840667E+04  3.227175E+04 -1.852133E+04  2.696274E+03  3.811030E+03
       335  10  8.962875E+05 -4.412863E+04 -2.905543E+04 -1.856178E+04 -9.033952E-10  1.750168E-10
       335  11  9.313146E+05 -3.759428E+04 -2.741558E+04 -7.283247E+03 -9.570911E-10 -2.424595E-10
       335  12  9.675188E+05 -2.863419E+04 -2.248238E+04 -1.927355E+04 -6.900473E-10 -1.473033E-10
       335  13  1.082870E+06  1.950841E+03  1.496435E+04 -1.889806E+04 -8.955368E-10 -2.721996E-10
       335  14  1.082283E+06 -2.955864E+02  8.276919E+03 -7.263539E+03 -7.398771E-10  3.079618E-10
       335  15  1.082876E+06 -1.132863E+02  4.895128E+03 -1.889748E+04  2.060926E-11 -3.041573E-10
       335  16  1.269484E+06  4.802783E+04  5.898173E+04 -1.923445E+04 -1.654964E-10 -3.884960E-10
       335  17  1.233273E+06  3.700148E+04  4.396785E+04 -7.243827E+03 -4.855816E-10  9.257281E-11
       335  18  1.198245E+06  2.840666E+04  3.227171E+04 -1.852134E+04 -4.357743E-10 -3.031674E-12
       335  19  8.962877E+05 -4.412854E+04 -2.905504E+04 -1.856170E+04 -1.273441E+04 -6.869203E+03
       335  20  9.313147E+05 -3.759423E+04 -2.741539E+04 -7.283210E+03 -8.613934E+03 -5.355431E+03
       335  21  9.675188E+05 -2.863416E+04 -2.248231E+04 -1.927353E+04 -4.492873E+03 -3.811367E+03
       335  22  1.082870E+06  1.950929E+03  1.496471E+04 -1.889799E+04 -1.187322E+04 -6.868802E+03
       335  23  1.082283E+06 -2.955395E+02  8.277085E+03 -7.263506E+03 -7.734112E+03 -5.355145E+03
       335  24  1.082876E+06 -1.132673E+02  4.895180E+03 -1.889747E+04 -3.594657E+03 -3.811199E+03
       335  25  1.269484E+06  4.802791E+04  5.898205E+04 -1.923439E+04 -1.101177E+04 -6.868402E+03
       335  26  1.233273E+06  3.700152E+04  4.396799E+04 -7.243797E+03 -6.854078E+03 -5.354859E+03
       335  27  1.198245E+06  2.840667E+04  3.227175E+04 -1.852133E+04 -2.696274E+03 -3.811030E+03
       336   1  1.008587E+06 -1.811869E+04 -1.358440E+04 -1.887531E+04  3.695344E+03  2.910244E+03
       336   2  1.043737E+06 -9.629001E+03 -6.803991E+03 -7.359613E+03  2.518478E+03  1.376756E+03
       336   3  1.079109E+06 -9.057015E+02  8.018212E+02 -1.888365E+04  1.341417E+03 -1.567306E+02
       336   4  1.082665E+06  1.610316E+02  3.822331E+03 -1.884680E+04  2.811229E+03  2.910124E+03
       336   5  1.082555E+06 -3.917526E+01  2.372858E+03 -7.326969E+03  1.634208E+03  1.376665E+03
       336   6  1.082666E+06 -5.833763E+00  1.748727E+03 -1.884679E+04  4.570577E+02 -1.567904E+02
       336   7  1.156747E+06  1.844037E+04  2.122869E+04 -1.881828E+04  1.927010E+03  2.910005E+03
       336   8  1.121375E+06  9.550543E+03  1.154961E+04 -7.294322E+03  7.498834E+02  1.376573E+03
       336   9  1.086222E+06  8.940334E+02  2.695635E+03 -1.880993E+04 -4.273068E+02 -1.568503E+02
       336  10  1.008587E+06 -1.811871E+04 -1.358444E+04 -1.887532E+04 -4.048784E-10 -1.537291E-10
       336  11  1.043737E+06 -9.629005E+03 -6.804007E+03 -7.359616E+03 -1.153302E-09 -2.358059E-10
       336  12  1.079109E+06 -9.057021E+02  8.018178E+02 -1.888365E+04  1.815327E-10 -1.482374E-10
       336  13  1.082665E+06  1.610204E+02  3.822300E+03 -1.884681E+04  4.103697E-14 -2.659068E-10
       336  14  1.082555E+06 -3.917801E+01  2.372850E+03 -7.326971E+03 -9.699214E-10 -3.588338E-10
       336  15  1.082666E+06 -5.833845E+00  1.748727E+03 -1.884679E+04  8.908159E-11  2.873205E-11
       336  16  1.156747E+06  1.844036E+04  2.122866E+04 -1.881829E+04  5.228559E-10 -1.163351E-10
       336  17  1.121375E+06  9.550541E+03  1.154960E+04 -7.294323E+03 -4.728154E-10 -3.028063E-10
       336  18  1.086222E+06  8.940334E+02  2.695635E+03 -1.880993E+04  3.573056E-10 -1.352435E-10
       336  19  1.008587E+06 -1.811869E+04 -1.358440E+04 -1.887531E+04 -3.695344E+03 -2.910244E+03
       336  20  1.043737E+06 -9.629001E+03 -6.803991E+03 -7.359613E+03 -2.518478E+03 -1.376756E+03
       336  21  1.079109E+06 -9.057015E+02  8.018212E+02 -1.888365E+04 -1.341417E+03  1.567306E+02
       336  22  1.082665E+06  1.610316E+02  3.822331E+03 -1.884680E+04 -2.811229E+03 -2.910124E+03
       336  23  1.082555E+06 -3.917526E+01  2.372858E+03 -7.326969E+03 -1.634208E+03 -1.376665E+03
       336  24  1.082666E+06 -5.833763E+00  1.748727E+03 -1.884679E+04 -4.570577E+02  1.567904E+02
       336  25  1.156747E+06  1.844037E+04  2.122869E+04 -1.881828E+04 -1.927010E+03 -2.910005E+03
       336  26  1.121375E+06  9.550543E+03  1.154961E+04 -7.294322E+03 -7.498834E+02 -1.376573E+03
       336  27  1.086222E+06  8.940334E+02  2.695635E+03 -1.880993E+04  4.273068E+02  1.568503E+02
       337   1  1.120211E+06  9.301059E+03  1.062935E+04 -1.884168E+04  1.034923E+03 -1.049279E+03
       337   2  1.155454E+06  1.797510E+04  1.903754E+04 -7.297230E+03  1.393010E+02 -2.584384E+03
       337   3  1.190866E+06  2.680531E+04  2.806955E+04 -1.883357E+04 -7.561581E+02 -4.121411E+03
       337   4  1.082654E+06  1.999169E+00  1.645108E+03 -1.885597E+04  1.500797E+02 -1.049348E+03
       337   5  1.082569E+06 -2.951901E+01  1.808266E+03 -7.315497E+03 -7.465930E+02 -2.584511E+03
       337   6  1.082653E+06  9.542278E+01  2.596084E+03 -1.885598E+04 -1.643052E+03 -4.121592E+03
       337   7  1.045098E+06 -9.297162E+03 -7.339235E+03 -1.887026E+04 -7.347110E+02 -1.049417E+03
       337   8  1.009689E+06 -1.803452E+04 -1.542138E+04 -7.333762E+03 -1.632384E+03 -2.584638E+03
       337   9  9.744502E+05 -2.661530E+04 -2.287818E+04 -1.887839E+04 -2.529792E+03 -4.121772E+03
       337  10  1.120211E+06  9.301058E+03  1.062935E+04 -1.884168E+04 -5.273128E-10  1.303863E-10
       337  11  1.155454E+06  1.797509E+04  1.903753E+04 -7.297230E+03  8.485363E-10  3.546528E-10
       337  12  1.190866E+06  2.680529E+04  2.806951E+04 -1.883357E+04 -1.103879E-10 -7.118875E-10
       337  13  1.082654E+06  1.997980E+00  1.645106E+03 -1.885597E+04  8.493592E-10  4.603222E-10
       337  14  1.082569E+06 -2.952633E+01  1.808253E+03 -7.315499E+03  2.437967E-09  7.224046E-10
       337  15  1.082653E+06  9.540381E+01  2.596047E+03 -1.885599E+04 -7.201614E-10 -2.440809E-11
       337  16  1.045098E+06 -9.297164E+03 -7.339239E+03 -1.887026E+04  8.673491E-10  1.515885E-11
       337  17  1.009689E+06 -1.803452E+04 -1.542139E+04 -7.333765E+03  7.942810E-10  1.142476E-10
       337  18  9.744502E+05 -2.661532E+04 -2.287822E+04 -1.887840E+04 -2.179894E-10  8.368543E-11
       337  19  1.120211E+06  9.301059E+03  1.062935E+04 -1.884168E+04 -1.034923E+03  1.049279E+03
       337  20  1.155454E+06  1.797510E+04  1.903754E+04 -7.297230E+03 -1.393010E+02  2.584384E+03
       337  21  1.190866E+06  2.680531E+04  2.806955E+04 -1.883357E+04  7.561581E+02  4.121411E+03
       337  22  1.082654E+06  1.999169E+00  1.645108E+03 -1.885597E+04 -1.500797E+02  1.049348E+03
       337  23  1.082569E+06 -2.951901E+01  1.808266E+03 -7.315497E+03  7.465930E+02  2.584511E+03
       337  24  1.082653E+06  9.542278E+01  2.596084E+03 -1.885598E+04  1.643052E+03  4.121592E+03
       337  25  1.045098E+06 -9.297162E+03 -7.339235E+03 -1.887026E+04  7.347110E+02  1.049417E+03
       337  26  1.009689E+06 -1.803452E+04 -1.542138E+04 -7.333762E+03  1.632384E+03  2.584638E+03
       337  27  9.744502E+05 -2.661530E+04 -2.287818E+04 -1.887839E+04  2.529792E+03  4.121772E+03
       338   1  1.232435E+06  3.691045E+04  3.871341E+04 -1.867802E+04 -1.264315E+03 -5.026066E+03
       338   2  1.267857E+06  4.561745E+04  4.915487E+04 -7.191195E+03 -3.941509E+03 -6.576669E+03
       338   3  1.304058E+06  5.585930E+04  6.173021E+04 -1.910148E+04 -6.618288E+03 -8.095699E+03
       338   4  1.082785E+06 -7.688801E+01  3.233968E+03 -1.892619E+04 -2.167214E+03 -5.026317E+03
       338   5  1.082394E+06 -1.940746E+02  5.316140E+03 -7.227643E+03 -4.825499E+03 -6.577062E+03
       338   6  1.082780E+06  1.220871E+03  9.519796E+03 -1.892663E+04 -7.483218E+03 -8.096227E+03
       338   7  9.331554E+05 -3.706584E+04 -3.224703E+04 -1.917431E+04 -3.069895E+03 -5.026567E+03
       338   8  8.969633E+05 -4.600806E+04 -3.852497E+04 -7.264082E+03 -5.709227E+03 -6.577454E+03
       338   9  8.615466E+05 -5.342106E+04 -4.269399E+04 -1.875184E+04 -8.347842E+03 -8.096755E+03
       338  10  1.232435E+06  3.691043E+04  3.871336E+04 -1.867802E+04 -7.603811E-10 -4.399541E-10
       338  11  1.267857E+06  4.561739E+04  4.915476E+04 -7.191216E+03 -3.659887E-09 -5.750715E-10
       338  12  1.304058E+06  5.585922E+04  6.173000E+04 -1.910153E+04  3.219031E-10  3.267052E-10
       338  13  1.082785E+06 -7.691641E+01  3.233912E+03 -1.892620E+04 -3.362676E-11 -5.843338E-11
       338  14  1.082394E+06 -1.941273E+02  5.316015E+03 -7.227668E+03  2.350859E-10 -1.254319E-10
       338  15  1.082780E+06  1.220785E+03  9.519567E+03 -1.892668E+04 -6.728907E-10 -8.523142E-11
       338  16  9.331554E+05 -3.706587E+04 -3.224710E+04 -1.917432E+04  2.531436E-10 -1.040575E-10
       338  17  8.969632E+05 -4.600811E+04 -3.852511E+04 -7.264112E+03 -3.923682E-10 -1.477565E-11
       338  18  8.615465E+05 -5.342114E+04 -4.269425E+04 -1.875189E+04 -9.629748E-12  6.283854E-11
       338  19  1.232435E+06  3.691045E+04  3.871341E+04 -1.867802E+04  1.264315E+03  5.026066E+03
       338  20  1.267857E+06  4.561745E+04  4.915487E+04 -7.191195E+03  3.941509E+03  6.576669E+03
       338  21  1.304058E+06  5.585930E+04  6.173021E+04 -1.910148E+04  6.618288E+03  8.095699E+03
       338  22  1.082785E+06 -7.688801E+01  3.233968E+03 -1.892619E+04  2.167214E+03  5.026317E+03
       338  23  1.082394E+06 -1.940746E+02  5.316140E+03 -7.227643E+03  4.825499E+03  6.577062E+03
       338  24  1.082780E+06  1.220871E+03  9.519796E+03 -1.892663E+04  7.483218E+03  8.096227E+03
       338  25  9.331554E+05 -3.706584E+04 -3.224703E+04 -1.917431E+04  3.069895E+03  5.026567E+03
       338  26  8.969633E+05 -4.600806E+04 -3.852497E+04 -7.264082E+03  5.709227E+03  6.577454E+03
       338  27  8.615466E+05 -5.342106E+04 -4.269399E+04 -1.875184E+04  8.347842E+03  8.096755E+03
       339   1  1.347366E+06  6.435668E+04  7.457618E+04 -1.689050E+04 -8.323656E+03 -9.104772E+03
       339   2  1.381292E+06  7.241589E+04  9.156119E+04 -7.977633E+03 -1.921930E+04 -1.065097E+04
       339   3  1.420824E+06  9.678024E+04  1.197289E+05 -2.303829E+04 -3.011550E+04 -1.153676E+04
       339   4  1.083835E+06 -7.564011E+02  1.219573E+04 -1.905150E+04 -9.400342E+03 -9.105495E+03
       339   5  1.081056E+06 -1.740088E+03  2.059648E+04 -7.069521E+03 -1.991046E+04 -1.065177E+04
       339   6  1.083818E+06  1.351902E+04  3.991655E+04 -1.906157E+04 -3.042048E+04 -1.153762E+04
       339   7  8.203666E+05 -6.587444E+04 -5.018952E+04 -2.121158E+04 -1.047657E+04 -9.106210E+03
       339   8  7.809018E+05 -7.590251E+04 -5.037445E+04 -6.161862E+03 -2.060128E+04 -1.065258E+04
       339   9  7.469157E+05 -6.975028E+04 -3.990367E+04 -1.508703E+04 -3.072529E+04 -1.153847E+04
       339  10  1.347366E+06  6.435657E+04  7.457590E+04 -1.689056E+04 -5.271743E-10 -3.428219E-11
       339  11  1.381291E+06  7.241567E+04  9.156028E+04 -7.977797E+03  7.479400E-10 -7.828765E-10
       339  12  1.420823E+06  9.677986E+04  1.197270E+05 -2.303857E+04  7.260712E-10 -8.744496E-10
       339  13  1.083835E+06 -7.565138E+02  1.219541E+04 -1.905157E+04  5.219133E-10 -1.866778E-10
       339  14  1.081055E+06 -1.740316E+03  2.059553E+04 -7.069691E+03  1.253509E-09 -5.107897E-10
       339  15  1.083817E+06  1.351863E+04  3.991457E+04 -1.906185E+04  2.208899E-10 -7.103152E-10
       339  16  8.203664E+05 -6.587456E+04 -5.018988E+04 -2.121166E+04 -5.067209E-10  4.546058E-11
       339  17  7.809013E+05 -7.590274E+04 -5.037546E+04 -6.162038E+03 -1.208104E-09  1.642394E-09
       339  18  7.469147E+05 -6.975067E+04 -3.990569E+04 -1.508732E+04 -8.761569E-10 -2.194949E-10
       339  19  1.347366E+06  6.435668E+04  7.457618E+04 -1.689050E+04  8.323656E+03  9.104772E+03
       339  20  1.381292E+06  7.241589E+04  9.156119E+04 -7.977633E+03  1.921930E+04  1.065097E+04
       339  21  1.420824E+06  9.678024E+04  1.197289E+05 -2.303829E+04  3.011550E+04  1.153676E+04
       339  22  1.083835E+06 -7.564011E+02  1.219573E+04 -1.905150E+04  9.400342E+03  9.105495E+03
       339  23  1.081056E+06 -1.740088E+03  2.059648E+04 -7.069521E+03  1.991046E+04  1.065177E+04
       339  24  1.083818E+06  1.351902E+04  3.991655E+04 -1.906157E+04  3.042048E+04  1.153762E+04
       339  25  8.203666E+05 -6.587444E+04 -5.018952E+04 -2.121158E+04  1.047657E+04  9.106210E+03
       339  26  7.809018E+05 -7.590251E+04 -5.037445E+04 -6.161862E+03  2.060128E+04  1.065258E+04
       339  27  7.469157E+05 -6.975028E+04 -3.990367E+04 -1.508703E+04  3.072529E+04  1.153847E+04
       340   1  1.473953E+06  8.623594E+04  1.389348E+05  1.277758E+03 -3.436514E+04 -1.393255E+04
       340   2  1.487474E+06  8.611104E+04  1.783444E+05 -2.162040E+04 -8.331046E+04 -1.483747E+04
       340   3  1.550396E+06  2.573846E+05  2.924611E+05 -6.923163E+04 -1.322726E+05 -5.047045E+03
       340   4  1.093342E+06 -7.782842E+03  4.912563E+04 -1.916434E+04 -3.793096E+04 -1.393515E+04
       340   5  1.069121E+06 -1.718035E+04  7.944825E+04 -6.902406E+03 -8.068180E+04 -1.483723E+04
       340   6  1.093257E+06  1.438045E+05  1.802159E+05 -1.935094E+04 -1.234459E+05 -5.046319E+03
       340   7  7.128645E+05 -1.018104E+05 -4.069322E+04 -3.959388E+04 -4.149461E+04 -1.393751E+04
       340   8  6.509286E+05 -1.204834E+05 -1.945990E+04  7.805594E+03 -7.805487E+04 -1.483687E+04
       340   9  6.363136E+05  3.021840E+04  6.795689E+04  3.049298E+04 -1.146256E+05 -5.044180E+03
       340  10  1.473951E+06  8.623541E+04  1.389322E+05  1.277372E+03  7.762996E-10 -1.459354E-09
       340  11  1.487467E+06  8.610894E+04  1.783310E+05 -2.162139E+04  5.610023E-11 -3.608255E-09
       340  12  1.550377E+06  2.573799E+05  2.924283E+05 -6.923216E+04 -7.732806E-10 -1.131274E-09
       340  13  1.093340E+06 -7.783436E+03  4.912257E+04 -1.916476E+04 -6.283493E-10 -4.425524E-09
       340  14  1.069114E+06 -1.718233E+04  7.943562E+04 -6.903370E+03  1.713482E-09  1.652792E-09
       340  15  1.093241E+06  1.438004E+05  1.801872E+05 -1.935144E+04  1.878465E-10 -5.058814E-10
       340  16  7.128626E+05 -1.018111E+05 -4.069682E+04 -3.959435E+04  4.211186E-11 -1.347978E-09
       340  17  6.509220E+05 -1.204853E+05 -1.947175E+04  7.804662E+03  9.677622E-10  9.836187E-10
       340  18  6.362995E+05  3.021485E+04  6.793218E+04  3.049251E+04  6.830358E-10 -1.264757E-09
       340  19  1.473953E+06  8.623594E+04  1.389348E+05  1.277758E+03  3.436514E+04  1.393255E+04
       340  20  1.487474E+06  8.611104E+04  1.783444E+05 -2.162040E+04  8.331046E+04  1.483747E+04
       340  21  1.550396E+06  2.573846E+05  2.924611E+05 -6.923163E+04  1.322726E+05  5.047045E+03
       340  22  1.093342E+06 -7.782842E+03  4.912563E+04 -1.916434E+04  3.793096E+04  1.393515E+04
       340  23  1.069121E+06 -1.718035E+04  7.944825E+04 -6.902406E+03  8.068180E+04  1.483723E+04
       340  24  1.093257E+06  1.438045E+05  1.802159E+05 -1.935094E+04  1.234459E+05  5.046319E+03
       340  25  7.128645E+05 -1.018104E+05 -4.069322E+04 -3.959388E+04  4.149461E+04  1.393751E+04
       340  26  6.509286E+05 -1.204834E+05 -1.945990E+04  7.805594E+03  7.805487E+04  1.483687E+04
       340  27  6.363136E+05  3.021840E+04  6.795689E+04  3.049298E+04  1.146256E+05  5.044180E+03
       341   1  1.018318E+06  4.052601E+06  1.037810E+06 -5.448667E+05  3.430774E+04  1.573955E+05
       341   2  6.480926E+05  3.102804E+06  7.052277E+05 -2.162363E+05  9.416891E+04  6.596392E+04
       341   3  4.362760E+05  2.206560E+06  4.717292E+05 -4.862752E+05  6.185716E+04 -2.564371E+04
       341   4  1.198790E+05  4.397658E+05  1.500153E+05 -4.957917E+05  3.449102E+04  9.589924E+04
       341   5 -1.467231E+04  4.184357E+05  7.093246E+04 -1.965653E+05  9.422731E+04  5.804584E+04
       341   6  3.484115E+02  4.408841E+05  5.418251E+04 -4.961254E+05  6.162288E+04  1.987852E+04
       341   7 -7.795183E+05 -3.161232E+06 -7.387243E+05 -4.469891E+05  3.466531E+04  3.475721E+04
       341   8 -6.779517E+05 -2.259332E+06 -5.638612E+05 -1.769723E+05  9.428539E+04  5.016126E+04
       341   9 -4.358007E+05 -1.321930E+06 -3.635723E+05 -5.059426E+05  6.138679E+04  6.527228E+04
       341  10  1.018310E+06  4.052574E+06  1.037761E+06 -5.448711E+05 -3.917245E-12  9.166001E-10
       341  11  6.480819E+05  3.102797E+06  7.052029E+05 -2.162413E+05 -2.087001E-10 -7.793570E-09
       341  12  4.362718E+05  2.206559E+06  4.717208E+05 -4.862739E+05  1.919689E-09 -2.572511E-09
       341  13  1.198753E+05  4.397556E+05  1.499958E+05 -4.957944E+05  1.403880E-09 -3.207936E-11
       341  14 -1.468276E+04  4.184297E+05  7.090943E+04 -1.965697E+05 -2.865133E-09  1.068432E-10
       341  15  3.442256E+02  4.408827E+05  5.417462E+04 -4.961264E+05 -5.824564E-10 -6.311922E-10
       341  16 -7.795200E+05 -3.161234E+06 -7.387288E+05 -4.469901E+05  5.326697E-10  3.513874E-11
       341  17 -6.779619E+05 -2.259337E+06 -5.638826E+05 -1.769761E+05  2.740302E-09  2.671010E-09
       341  18 -4.358059E+05 -1.321935E+06 -3.635874E+05 -5.059459E+05 -3.279688E-09  7.185661E-09
       341  19  1.018318E+06  4.052601E+06  1.037810E+06 -5.448667E+05 -3.430774E+04 -1.573955E+05
       341  20  6.480926E+05  3.102804E+06  7.052277E+05 -2.162363E+05 -9.416891E+04 -6.596392E+04
       341  21  4.362760E+05  2.206560E+06  4.717292E+05 -4.862752E+05 -6.185716E+04  2.564371E+04
       341  22  1.198790E+05  4.397658E+05  1.500153E+05 -4.957917E+05 -3.449102E+04 -9.589924E+04
       341  23 -1.467231E+04  4.184357E+05  7.093246E+04 -1.965653E+05 -9.422731E+04 -5.804584E+04
       341  24  3.484115E+02  4.408841E+05  5.418251E+04 -4.961254E+05 -6.162288E+04 -1.987852E+04
       341  25 -7.795183E+05 -3.161232E+06 -7.387243E+05 -4.469891E+05 -3.466531E+04 -3.475721E+04
       341  26 -6.779517E+05 -2.259332E+06 -5.638612E+05 -1.769723E+05 -9.428539E+04 -5.016126E+04
       341  27 -4.358007E+05 -1.321930E+06 -3.635723E+05 -5.059426E+05 -6.138679E+04 -6.527228E+04
       342   1  1.855851E+05  1.123594E+06  2.135014E+05 -5.053981E+05  2.512061E+04 -8.687829E+03
       342   2 -5.831720E+04  2.013121E+05 -6.567699E+03 -1.946711E+05 -7.932165E+03 -3.270772E+04
       342   3 -2.597979E+05 -7.136657E+05 -2.021024E+05 -4.840047E+05 -4.033066E+04 -5.667444E+04
       342   4  1.494427E+04  4.333143E+05  5.047291E+04 -4.962837E+05  2.501044E+04  1.062706E+04
       342   5 -1.764002E+03  4.299761E+05  4.753783E+04 -1.962437E+05 -8.034795E+03 -1.377970E+04
       342   6  2.406509E+04  4.332184E+05  6.944891E+04 -4.962361E+05 -4.042777E+04 -3.816796E+04
       342   7 -1.557302E+05 -2.565268E+05 -1.125871E+05 -4.871787E+05  2.490078E+04  2.992061E+04
       342   8  5.478564E+04  6.586889E+05  1.016411E+05 -1.978168E+05 -8.137500E+03  5.155240E+03
       342   9  3.078343E+05  1.581312E+06  3.409102E+05 -5.084881E+05 -4.052552E+04 -1.962740E+04
       342  10  1.855844E+05  1.123594E+06  2.135001E+05 -5.053979E+05 -5.333496E-10  3.136354E-09
       342  11 -5.831755E+04  2.013109E+05 -6.569827E+03 -1.946713E+05  1.068606E-09 -1.062839E-08
       342  12 -2.598005E+05 -7.136696E+05 -2.021115E+05 -4.840065E+05 -5.706197E-10 -2.845128E-09
       342  13  1.494357E+04  4.333141E+05  5.047152E+04 -4.962839E+05 -1.015531E-09  6.475648E-11
       342  14 -1.764122E+03  4.299759E+05  4.753735E+04 -1.962438E+05  4.271005E-09 -6.339277E-11
       342  15  2.406294E+04  4.332164E+05  6.944309E+04 -4.962373E+05  4.111504E-09 -8.235868E-10
       342  16 -1.557311E+05 -2.565280E+05 -1.125900E+05 -4.871793E+05 -2.628699E-09 -3.946581E-10
       342  17  5.478556E+04  6.586888E+05  1.016409E+05 -1.978168E+05 -1.590191E-09  2.415067E-09
       342  18  3.078324E+05  1.581312E+06  3.409064E+05 -5.084887E+05 -1.981717E-09  7.987566E-09
       342  19  1.855851E+05  1.123594E+06  2.135014E+05 -5.053981E+05 -2.512061E+04  8.687829E+03
       342  20 -5.831720E+04  2.013121E+05 -6.567699E+03 -1.946711E+05  7.932165E+03  3.270772E+04
       342  21 -2.597979E+05 -7.136657E+05 -2.021024E+05 -4.840047E+05  4.033066E+04  5.667444E+04
       342  22  1.494427E+04  4.333143E+05  5.047291E+04 -4.962837E+05 -2.501044E+04 -1.062706E+04
       342  23 -1.764002E+03  4.299761E+05  4.753783E+04 -1.962437E+05  8.034795E+03  1.377970E+04
       342  24  2.406509E+04  4.332184E+05  6.944891E+04 -4.962361E+05  4.042777E+04  3.816796E+04
       342  25 -1.557302E+05 -2.565268E+05 -1.125871E+05 -4.871787E+05 -2.490078E+04 -2.992061E+04
       342  26  5.478564E+04  6.586889E+05  1.016411E+05 -1.978168E+05  8.137500E+03 -5.155240E+03
       342  27  3.078343E+05  1.581312E+06  3.409102E+05 -5.084881E+05  4.052552E+04  1.962740E+04
       343   1 -5.554328E+05 -1.771498E+06 -4.443561E+05 -5.183613E+05 -7.810927E+04 -9.915645E+04
       343   2 -8.037553E+05 -2.726592E+06 -6.215755E+05 -1.670163E+05 -1.103170E+05 -1.054668E+05
       343   3 -7.976263E+05 -3.611569E+06 -7.301761E+05 -4.149033E+05 -3.972541E+04 -1.114938E+05
       343   4 -6.207080E+03  4.484048E+05  8.151840E+04 -4.962181E+05 -7.833660E+04 -5.128104E+04
       343   5 -2.703327E+04  4.081391E+05  1.217425E+05 -1.965011E+05 -1.102397E+05 -1.168857E+05
       343   6  2.162476E+05  4.470827E+05  2.714728E+05 -4.957587E+05 -3.957214E+04 -1.822209E+05
       343   7  5.426685E+05  2.672848E+06  6.070597E+05 -4.739876E+05 -7.856006E+04 -3.234723E+03
       343   8  7.489846E+05  3.551920E+06  8.643775E+05 -2.261277E+05 -1.101616E+05 -1.283609E+05
       343   9  1.228917E+06  4.520788E+06  1.271924E+06 -5.771338E+05 -3.940110E+04 -2.534085E+05
       343  10 -5.554420E+05 -1.771510E+06 -4.443861E+05 -5.183676E+05  1.328077E-09  2.013480E-09
       343  11 -8.037714E+05 -2.726607E+06 -6.216193E+05 -1.670256E+05  5.153307E-10 -5.006317E-09
       343  12 -7.976313E+05 -3.611583E+06 -7.302026E+05 -4.149069E+05 -3.004379E-10 -8.533101E-10
       343  13 -6.214381E+03  4.484003E+05  8.150192E+04 -4.962213E+05 -2.753984E-09  8.361937E-11
       343  14 -2.704999E+04  4.081211E+05  1.216940E+05 -1.965115E+05  1.941651E-09 -4.878679E-11
       343  15  2.162370E+05  4.470467E+05  2.714075E+05 -4.957646E+05 -7.233801E-11 -9.944611E-11
       343  16  5.426619E+05  2.672847E+06  6.070481E+05 -4.739878E+05  6.004410E-10  1.186407E-10
       343  17  7.489672E+05  3.551899E+06  8.643239E+05 -2.261391E+05  1.672362E-09  5.139089E-11
       343  18  1.228899E+06  4.520719E+06  1.271801E+06 -5.771418E+05  6.938983E-11  1.883234E-09
       343  19 -5.554328E+05 -1.771498E+06 -4.443561E+05 -5.183613E+05  7.810927E+04  9.915645E+04
       343  20 -8.037553E+05 -2.726592E+06 -6.215755E+05 -1.670163E+05  1.103170E+05  1.054668E+05
       343  21 -7.976263E+05 -3.611569E+06 -7.301761E+05 -4.149033E+05  3.972541E+04  1.114938E+05
       343  22 -6.207080E+03  4.484048E+05  8.151840E+04 -4.962181E+05  7.833660E+04  5.128104E+04
       343  23 -2.703327E+04  4.081391E+05  1.217425E+05 -1.965011E+05  1.102397E+05  1.168857E+05
       343  24  2.162476E+05  4.470827E+05  2.714728E+05 -4.957587E+05  3.957214E+04  1.822209E+05
       343  25  5.426685E+05  2.672848E+06  6.070597E+05 -4.739876E+05  7.856006E+04  3.234723E+03
       343  26  7.489846E+05  3.551920E+06  8.643775E+05 -2.261277E+05  1.101616E+05  1.283609E+05
       343  27  1.228917E+06  4.520788E+06  1.271924E+06 -5.771338E+05  3.940110E+04  2.534085E+05
       344   1 -1.569009E+06 -6.609385E+05 -3.528055E+05 -6.472514E+05 -1.708426E+05 -5.302617E+04
       344   2 -1.500718E+06 -4.731523E+05 -2.082300E+05 -6.154978E+05 -1.062648E+05 -3.289758E+03
       344   3 -1.464188E+06 -3.886375E+05 -1.427954E+05 -5.762280E+05 -3.498292E+04  2.868630E+04
       344   4 -9.493390E+05 -3.377865E+05 -1.759549E+05 -3.846535E+05 -1.177590E+05 -3.308788E+04
       344   5 -9.268358E+05 -2.213694E+05 -8.199641E+04 -4.138778E+05 -8.343161E+04  5.285949E+03
       344   6 -9.300548E+05 -2.021801E+05 -4.312636E+04 -4.356012E+05 -4.241335E+04  2.588977E+04
       344   7 -3.292556E+05 -1.448254E+04  8.761958E+02 -1.217767E+05 -6.461697E+04 -1.310802E+04
       344   8 -3.526035E+05  3.048632E+04  4.422175E+04 -2.120695E+05 -6.057559E+04  1.387410E+04
       344   9 -3.956231E+05 -1.570218E+04  5.653177E+04 -2.948642E+05 -4.985062E+04  2.309090E+04
       344  10 -1.569042E+06 -6.609494E+05 -3.528658E+05 -6.472587E+05  5.271723E-10 -2.950070E-10
       344  11 -1.500731E+06 -4.731553E+05 -2.082513E+05 -6.154981E+05 -3.632691E-10  1.149692E-09
       344  12 -1.464190E+06 -3.886387E+05 -1.427993E+05 -5.762272E+05 -1.163664E-09  1.111824E-09
       344  13 -9.493542E+05 -3.377914E+05 -1.759831E+05 -3.846566E+05 -3.441947E-10 -2.137197E-11
       344  14 -9.268433E+05 -2.213713E+05 -8.200956E+04 -4.138775E+05 -1.555538E-09  4.756767E-10
       344  15 -9.300569E+05 -2.021813E+05 -4.313100E+04 -4.356004E+05 -2.841781E-10 -9.523973E-10
       344  16 -3.292601E+05 -1.448385E+04  8.680218E+02 -1.217774E+05 -2.302319E-10  3.953517E-10
       344  17 -3.526075E+05  3.048513E+04  4.421449E+04 -2.120688E+05 -6.678347E-10 -3.616213E-09
       344  18 -3.956259E+05 -1.570342E+04  5.652610E+04 -2.948632E+05  5.786689E-10  1.591058E-10
       344  19 -1.569009E+06 -6.609385E+05 -3.528055E+05 -6.472514E+05  1.708426E+05  5.302617E+04
       344  20 -1.500718E+06 -4.731523E+05 -2.082300E+05 -6.154978E+05  1.062648E+05  3.289758E+03
       344  21 -1.464188E+06 -3.886375E+05 -1.427954E+05 -5.762280E+05  3.498292E+04 -2.868630E+04
       344  22 -9.493390E+05 -3.377865E+05 -1.759549E+05 -3.846535E+05  1.177590E+05  3.308788E+04
       344  23 -9.268358E+05 -2.213694E+05 -8.199641E+04 -4.138778E+05  8.343161E+04 -5.285949E+03
       344  24 -9.300548E+05 -2.021801E+05 -4.312636E+04 -4.356012E+05  4.241335E+04 -2.588977E+04
       344  25 -3.292556E+05 -1.448254E+04  8.761958E+02 -1.217767E+05  6.461697E+04  1.310802E+04
       344  26 -3.526035E+05  3.048632E+04  4.422175E+04 -2.120695E+05  6.057559E+04 -1.387410E+04
       344  27 -3.956231E+05 -1.570218E+04  5.653177E+04 -2.948642E+05  4.985062E+04 -2.309090E+04
       345   1 -1.399527E+06 -3.787361E+05 -1.214652E+05 -5.683543E+05 -3.126908E+04  2.684230E+04
       345   2 -1.327020E+06 -3.365072E+05 -8.924631E+04 -5.394515E+05 -1.859893E+04  2.724400E+04
       345   3 -1.245121E+06 -3.121924E+05 -6.675747E+04 -5.242563E+05 -5.347128E+03  2.609828E+04
       345   4 -9.248211E+05 -2.034480E+05 -3.248016E+04 -4.331611E+05 -3.647427E+04  2.488279E+04
       345   5 -9.293000E+05 -1.914693E+05 -1.708835E+04 -4.275341E+05 -2.643566E+04  2.429688E+04
       345   6 -9.238666E+05 -1.968801E+05 -9.332780E+03 -4.356170E+05 -1.581698E+04  2.216349E+04
       345   7 -4.498833E+05 -2.813869E+04  5.649482E+04 -2.978721E+05 -4.168367E+04  2.292163E+04
       345   8 -5.314126E+05 -4.641579E+04  5.506431E+04 -3.155496E+05 -3.427775E+04  2.134771E+04
       345   9 -6.025000E+05 -8.155702E+04  4.808980E+04 -3.469340E+05 -2.629272E+04  1.822652E+04
       345  10 -1.399528E+06 -3.787371E+05 -1.214684E+05 -5.683536E+05  1.290709E-09  1.163557E-09
       345  11 -1.327021E+06 -3.365081E+05 -8.924835E+04 -5.394511E+05  6.944432E-10 -4.661435E-10
       345  12 -1.245121E+06 -3.121931E+05 -6.675881E+04 -5.242562E+05 -4.037646E-10 -6.367835E-10
       345  13 -9.248227E+05 -2.034490E+05 -3.248383E+04 -4.331604E+05 -8.255661E-10 -5.304434E-10
       345  14 -9.293009E+05 -1.914701E+05 -1.709077E+04 -4.275336E+05  5.332616E-10 -1.741211E-09
       345  15 -9.238670E+05 -1.968806E+05 -9.334173E+03 -4.356167E+05 -1.291723E-10 -9.564954E-10
       345  16 -4.498853E+05 -2.813972E+04  5.649057E+04 -2.978714E+05 -1.750362E-09 -7.244758E-10
       345  17 -5.314140E+05 -4.641659E+04  5.506124E+04 -3.155490E+05 -7.326051E-10  1.198409E-09
       345  18 -6.025009E+05 -8.155756E+04  4.808788E+04 -3.469336E+05  1.224104E-10 -3.208772E-10
       345  19 -1.399527E+06 -3.787361E+05 -1.214652E+05 -5.683543E+05  3.126908E+04 -2.684230E+04
       345  20 -1.327020E+06 -3.365072E+05 -8.924631E+04 -5.394515E+05  1.859893E+04 -2.724400E+04
       345  21 -1.245121E+06 -3.121924E+05 -6.675747E+04 -5.242563E+05  5.347128E+03 -2.609828E+04
       345  22 -9.248211E+05 -2.034480E+05 -3.248016E+04 -4.331611E+05  3.647427E+04 -2.488279E+04
       345  23 -9.293000E+05 -1.914693E+05 -1.708835E+04 -4.275341E+05  2.643566E+04 -2.429688E+04
       345  24 -9.238666E+05 -1.968801E+05 -9.332780E+03 -4.356170E+05  1.581698E+04 -2.216349E+04
       345  25 -4.498833E+05 -2.813869E+04  5.649482E+04 -2.978721E+05  4.168367E+04 -2.292163E+04
       345  26 -5.314126E+05 -4.641579E+04  5.506431E+04 -3.155496E+05  3.427775E+04 -2.134771E+04
       345  27 -6.025000E+05 -8.155702E+04  4.808980E+04 -3.469340E+05  2.629272E+04 -1.822652E+04
       346   1 -1.193291E+06 -2.942763E+05 -5.491947E+04 -5.104422E+05 -2.889922E+03  2.291172E+04
       346   2 -1.121205E+06 -2.593801E+05 -3.784560E+04 -4.813487E+05  1.555602E+03  1.762248E+04
       346   3 -1.036675E+06 -2.376058E+05 -2.244647E+04 -4.669260E+05  6.051636E+03  1.219651E+04
       346   4 -9.234370E+05 -1.969786E+05 -7.011388E+03 -4.354304E+05 -1.317259E+04  1.904806E+04
       346   5 -9.296600E+05 -1.903442E+05 -3.852831E+03 -4.281277E+05 -8.959790E+03  1.367231E+04
       346   6 -9.233980E+05 -1.967855E+05 -2.184107E+03 -4.354977E+05 -4.696781E+03  8.159771E+03
       346   7 -6.535064E+05 -9.967398E+04  4.089475E+04 -3.603882E+05 -2.346003E+04  1.518262E+04
       346   8 -7.380767E+05 -1.213051E+05  3.013893E+04 -3.748916E+05 -1.947859E+04  9.720881E+03
       346   9 -8.101084E+05 -1.559644E+05  1.807799E+04 -4.040642E+05 -1.544719E+04  4.122297E+03
       346  10 -1.193291E+06 -2.942768E+05 -5.492047E+04 -5.104421E+05 -7.458378E-10 -5.417351E-10
       346  11 -1.121206E+06 -2.593805E+05 -3.784618E+04 -4.813487E+05 -1.613452E-10  7.454473E-11
       346  12 -1.036675E+06 -2.376060E+05 -2.244681E+04 -4.669261E+05 -1.137582E-10  6.812974E-10
       346  13 -9.234373E+05 -1.969790E+05 -7.012395E+03 -4.354302E+05  6.392794E-11 -4.128077E-11
       346  14 -9.296602E+05 -1.903444E+05 -3.853333E+03 -4.281276E+05  2.496785E-09  1.810056E-10
       346  15 -9.233981E+05 -1.967856E+05 -2.184274E+03 -4.354976E+05 -4.186652E-10  8.529635E-10
       346  16 -6.535071E+05 -9.967437E+04  4.089328E+04 -3.603879E+05 -4.498416E-11  4.397428E-11
       346  17 -7.380771E+05 -1.213053E+05  3.013804E+04 -3.748914E+05  9.307637E-10 -2.532370E-10
       346  18 -8.101087E+05 -1.559645E+05  1.807751E+04 -4.040642E+05 -8.028776E-10  1.914813E-11
       346  19 -1.193291E+06 -2.942763E+05 -5.491947E+04 -5.104422E+05  2.889922E+03 -2.291172E+04
       346  20 -1.121205E+06 -2.593801E+05 -3.784560E+04 -4.813487E+05 -1.555602E+03 -1.762248E+04
       346  21 -1.036675E+06 -2.376058E+05 -2.244647E+04 -4.669260E+05 -6.051636E+03 -1.219651E+04
       346  22 -9.234370E+05 -1.969786E+05 -7.011388E+03 -4.354304E+05  1.317259E+04 -1.904806E+04
       346  23 -9.296600E+05 -1.903442E+05 -3.852831E+03 -4.281277E+05  8.959790E+03 -1.367231E+04
       346  24 -9.233980E+05 -1.967855E+05 -2.184107E+03 -4.354977E+05  4.696781E+03 -8.159771E+03
       346  25 -6.535064E+05 -9.967398E+04  4.089475E+04 -3.603882E+05  2.346003E+04 -1.518262E+04
       346  26 -7.380767E+05 -1.213051E+05  3.013893E+04 -3.748916E+05  1.947859E+04 -9.720881E+03
       346  27 -8.101084E+05 -1.559644E+05  1.807799E+04 -4.040642E+05  1.544719E+04 -4.122297E+03
       347   1 -9.856512E+05 -2.191783E+05 -1.252538E+04 -4.527655E+05  7.736659E+03  8.640479E+03
       347   2 -9.136925E+05 -1.845324E+05  1.747676E+03 -4.235903E+05  1.065969E+04  2.551037E+03
       347   3 -8.289739E+05 -1.627338E+05  1.560416E+04 -4.090963E+05  1.358656E+04 -3.548263E+03
       347   4 -9.233454E+05 -1.967967E+05 -1.690459E+03 -4.354762E+05 -2.997382E+03  4.609396E+03
       347   5 -9.297247E+05 -1.903857E+05 -1.084300E+03 -4.281297E+05 -9.197184E+01 -1.486770E+03
       347   6 -9.233490E+05 -1.968199E+05 -8.816171E+02 -4.354676E+05  2.817192E+03 -7.592805E+03
       347   7 -8.610347E+05 -1.744143E+05  9.145016E+03 -4.181851E+05 -1.373268E+04  5.778463E+02
       347   8 -9.457566E+05 -1.962388E+05 -3.915811E+03 -4.326690E+05 -1.084339E+04 -5.524483E+03
       347   9 -1.017714E+06 -2.309052E+05 -1.736718E+04 -4.618351E+05 -7.950433E+03 -1.163669E+04
       347  10 -9.856513E+05 -2.191784E+05 -1.252563E+04 -4.527656E+05  8.756613E-10  5.219957E-10
       347  11 -9.136926E+05 -1.845324E+05  1.747449E+03 -4.235903E+05 -5.485551E-11  7.343981E-10
       347  12 -8.289741E+05 -1.627338E+05  1.560379E+04 -4.090963E+05  4.390872E-10 -5.975781E-10
       347  13 -9.233455E+05 -1.967967E+05 -1.690516E+03 -4.354762E+05 -3.333281E-10  8.301227E-10
       347  14 -9.297247E+05 -1.903857E+05 -1.084304E+03 -4.281297E+05  7.216631E-10 -1.892394E-10
       347  15 -9.233490E+05 -1.968200E+05 -8.817403E+02 -4.354676E+05 -1.147044E-11  1.556787E-10
       347  16 -8.610349E+05 -1.744144E+05  9.144661E+03 -4.181851E+05 -7.591048E-10  6.193332E-10
       347  17 -9.457567E+05 -1.962389E+05 -3.916090E+03 -4.326690E+05  4.568192E-10 -3.165107E-10
       347  18 -1.017715E+06 -2.309053E+05 -1.736755E+04 -4.618351E+05  5.418084E-10  1.064046E-09
       347  19 -9.856512E+05 -2.191783E+05 -1.252538E+04 -4.527655E+05 -7.736659E+03 -8.640479E+03
       347  20 -9.136925E+05 -1.845324E+05  1.747676E+03 -4.235903E+05 -1.065969E+04 -2.551037E+03
       347  21 -8.289739E+05 -1.627338E+05  1.560416E+04 -4.090963E+05 -1.358656E+04  3.548263E+03
       347  22 -9.233454E+05 -1.967967E+05 -1.690459E+03 -4.354762E+05  2.997382E+03 -4.609396E+03
       347  23 -9.297247E+05 -1.903857E+05 -1.084300E+03 -4.281297E+05  9.197184E+01  1.486770E+03
       347  24 -9.233490E+05 -1.968199E+05 -8.816171E+02 -4.354676E+05 -2.817192E+03  7.592805E+03
       347  25 -8.610347E+05 -1.744143E+05  9.145016E+03 -4.181851E+05  1.373268E+04 -5.778463E+02
       347  26 -9.457566E+05 -1.962388E+05 -3.915811E+03 -4.326690E+05  1.084339E+04  5.524483E+03
       347  27 -1.017714E+06 -2.309052E+05 -1.736718E+04 -4.618351E+05  7.950433E+03  1.163669E+04
       348   1 -7.780456E+05 -1.442718E+05  2.500337E+04 -3.949191E+05  1.511415E+04 -7.167989E+03
       348   2 -7.061400E+05 -1.096398E+05  3.836121E+04 -3.657616E+05  1.804081E+04 -1.326054E+04
       348   3 -6.214788E+05 -8.783871E+04  5.130381E+04 -3.512731E+05  2.096184E+04 -1.933476E+04
       348   4 -9.233551E+05 -1.968211E+05 -8.990747E+02 -4.354650E+05  4.346407E+03 -1.121225E+04
       348   5 -9.297328E+05 -1.904043E+05 -1.183090E+03 -4.281310E+05  7.303035E+03 -1.729462E+04
       348   6 -9.233670E+05 -1.968250E+05 -1.906242E+03 -4.354686E+05  1.025397E+04 -2.335870E+04
       348   7 -1.068641E+06 -2.493679E+05 -2.680132E+04 -4.760016E+05 -6.418539E+03 -1.525547E+04
       348   8 -1.153272E+06 -2.711639E+05 -4.072850E+04 -4.904794E+05 -3.430614E+03 -2.132715E+04
       348   9 -1.225161E+06 -3.058035E+05 -5.511952E+04 -5.196265E+05 -4.484431E+02 -2.738060E+04
       348  10 -7.780459E+05 -1.442719E+05  2.500284E+04 -3.949190E+05  1.277092E-09  6.698419E-10
       348  11 -7.061404E+05 -1.096400E+05  3.836026E+04 -3.657614E+05  5.787503E-10  4.894218E-10
       348  12 -6.214794E+05 -8.783922E+04  5.130228E+04 -3.512727E+05  6.886818E-10  2.658686E-10
       348  13 -9.233552E+05 -1.968213E+05 -8.993463E+02 -4.354650E+05  4.040518E-10  3.741790E-10
       348  14 -9.297329E+05 -1.904046E+05 -1.183752E+03 -4.281309E+05 -1.126664E-09 -1.049867E-10
       348  15 -9.233673E+05 -1.968256E+05 -1.907464E+03 -4.354684E+05  3.523507E-10 -7.729304E-10
       348  16 -1.068641E+06 -2.493681E+05 -2.680183E+04 -4.760017E+05 -1.503193E-09  3.381645E-10
       348  17 -1.153273E+06 -2.711644E+05 -4.072937E+04 -4.904794E+05 -9.720842E-10  7.016022E-10
       348  18 -1.225162E+06 -3.058043E+05 -5.512093E+04 -5.196266E+05 -7.279922E-10  5.032160E-10
       348  19 -7.780456E+05 -1.442718E+05  2.500337E+04 -3.949191E+05 -1.511415E+04  7.167989E+03
       348  20 -7.061400E+05 -1.096398E+05  3.836121E+04 -3.657616E+05 -1.804081E+04  1.326054E+04
       348  21 -6.214788E+05 -8.783871E+04  5.130381E+04 -3.512731E+05 -2.096184E+04  1.933476E+04
       348  22 -9.233551E+05 -1.968211E+05 -8.990747E+02 -4.354650E+05 -4.346407E+03  1.121225E+04
       348  23 -9.297328E+05 -1.904043E+05 -1.183090E+03 -4.281310E+05 -7.303035E+03  1.729462E+04
       348  24 -9.233670E+05 -1.968250E+05 -1.906242E+03 -4.354686E+05 -1.025397E+04  2.335870E+04
       348  25 -1.068641E+06 -2.493679E+05 -2.680132E+04 -4.760016E+05  6.418539E+03  1.525547E+04
       348  26 -1.153272E+06 -2.711639E+05 -4.072850E+04 -4.904794E+05  3.430614E+03  2.132715E+04
       348  27 -1.225161E+06 -3.058035E+05 -5.511952E+04 -5.196265E+05  4.484431E+02  2.738060E+04
       349   1 -5.706451E+05 -6.941529E+04  6.014238E+04 -3.371639E+05  2.271700E+04 -2.285387E+04
       349   2 -4.987878E+05 -3.482753E+04  7.194116E+04 -3.080343E+05  2.692924E+04 -2.833631E+04
       349   3 -4.144427E+05 -1.326036E+04  8.228792E+04 -2.935326E+05  3.107426E+04 -3.363321E+04
       349   4 -9.234372E+05 -1.968150E+05 -2.480908E+03 -4.354872E+05  1.199357E+04 -2.688461E+04
       349   5 -9.296779E+05 -1.903980E+05 -4.408094E+03 -4.281304E+05  1.651957E+04 -3.225119E+04
       349   6 -9.234991E+05 -1.970653E+05 -8.036970E+03 -4.354049E+05  2.097804E+04 -3.743225E+04
       349   7 -1.276097E+06 -3.242026E+05 -6.510772E+04 -5.337583E+05  1.276650E+03 -3.091291E+04
       349   8 -1.360369E+06 -3.459497E+05 -8.076225E+04 -5.481481E+05  6.117645E+03 -3.616318E+04
       349   9 -1.432276E+06 -3.808434E+05 -9.836840E+04 -5.771672E+05  1.089075E+04 -4.122796E+04
       349  10 -5.706458E+05 -6.941599E+04  6.014043E+04 -3.371635E+05  2.704696E-09  6.728383E-13
       349  11 -4.987888E+05 -3.482859E+04  7.193829E+04 -3.080337E+05  1.675781E-10 -8.618978E-11
       349  12 -4.144441E+05 -1.326183E+04  8.228398E+04 -2.935318E+05 -3.043281E-10  6.099494E-11
       349  13 -9.234376E+05 -1.968158E+05 -2.482536E+03 -4.354870E+05 -1.623297E-10  5.588771E-10
       349  14 -9.296785E+05 -1.903992E+05 -4.410560E+03 -4.281300E+05 -1.223703E-10 -1.502646E-09
       349  15 -9.234999E+05 -1.970669E+05 -8.040428E+03 -4.354043E+05  1.819488E-10  1.865484E-10
       349  16 -1.276098E+06 -3.242036E+05 -6.510952E+04 -5.337583E+05 -2.191751E-09 -4.356147E-10
       349  17 -1.360370E+06 -3.459511E+05 -8.076478E+04 -5.481479E+05  6.142376E-10 -3.487202E-10
       349  18 -1.432277E+06 -3.808452E+05 -9.837182E+04 -5.771668E+05  8.975912E-10  4.693923E-10
       349  19 -5.706451E+05 -6.941529E+04  6.014238E+04 -3.371639E+05 -2.271700E+04  2.285387E+04
       349  20 -4.987878E+05 -3.482753E+04  7.194116E+04 -3.080343E+05 -2.692924E+04  2.833631E+04
       349  21 -4.144427E+05 -1.326036E+04  8.228792E+04 -2.935326E+05 -3.107426E+04  3.363321E+04
       349  22 -9.234372E+05 -1.968150E+05 -2.480908E+03 -4.354872E+05 -1.199357E+04  2.688461E+04
       349  23 -9.296779E+05 -1.903980E+05 -4.408094E+03 -4.281304E+05 -1.651957E+04  3.225119E+04
       349  24 -9.234991E+05 -1.970653E+05 -8.036970E+03 -4.354049E+05 -2.097804E+04  3.743225E+04
       349  25 -1.276097E+06 -3.242026E+05 -6.510772E+04 -5.337583E+05 -1.276650E+03  3.091291E+04
       349  26 -1.360369E+06 -3.459497E+05 -8.076225E+04 -5.481481E+05 -6.117645E+03  3.616318E+04
       349  27 -1.432276E+06 -3.808434E+05 -9.836840E+04 -5.771672E+05 -1.089075E+04  4.122796E+04
       350   1 -3.635817E+05  4.776797E+03  8.914718E+04 -2.801894E+05  3.414425E+04 -3.654582E+04
       350   2 -2.929515E+05  3.989650E+04  9.529393E+04 -2.485881E+05  4.238607E+04 -3.918159E+04
       350   3 -2.121681E+05  5.772988E+04  9.548446E+04 -2.304629E+05  4.985396E+04 -3.975083E+04
       350   4 -9.239973E+05 -1.969493E+05 -1.069982E+04 -4.356066E+05  2.379990E+04 -4.043960E+04
       350   5 -9.292763E+05 -1.917311E+05 -1.960115E+04 -4.274557E+05  3.555816E+04 -4.175566E+04
       350   6 -9.251099E+05 -2.045032E+05 -3.725427E+04 -4.327855E+05  4.654121E+04 -4.100433E+04
       350   7 -1.484087E+06 -3.986483E+05 -1.105584E+05 -5.908946E+05  1.346540E+04 -4.432972E+04
       350   8 -1.565178E+06 -4.233202E+05 -1.345110E+05 -6.061526E+05  2.873768E+04 -4.432690E+04
       350   9 -1.637519E+06 -4.666854E+05 -1.700126E+05 -6.348904E+05  4.323252E+04 -4.225627E+04
       350  10 -3.635833E+05  4.775051E+03  8.914248E+04 -2.801884E+05  7.612840E-10  1.081359E-09
       350  11 -2.929538E+05  3.989438E+04  9.528767E+04 -2.485868E+05  2.231417E-09  1.498588E-09
       350  12 -2.121711E+05  5.772751E+04  9.547682E+04 -2.304613E+05 -1.894971E-09 -7.845223E-10
       350  13 -9.239984E+05 -1.969513E+05 -1.070396E+04 -4.356058E+05  1.875510E-10 -1.214314E-09
       350  14 -9.292781E+05 -1.917333E+05 -1.960680E+04 -4.274545E+05 -1.004490E-09  1.899384E-09
       350  15 -9.251127E+05 -2.045056E+05 -3.726150E+04 -4.327839E+05 -4.978054E-09  1.710502E-10
       350  16 -1.484088E+06 -3.986505E+05 -1.105624E+05 -5.908941E+05 -5.092108E-10  1.774317E-09
       350  17 -1.565179E+06 -4.233226E+05 -1.345162E+05 -6.061516E+05 -4.587910E-09  1.356035E-09
       350  18 -1.637521E+06 -4.666878E+05 -1.700195E+05 -6.348890E+05 -8.030075E-09 -1.412972E-09
       350  19 -3.635817E+05  4.776797E+03  8.914718E+04 -2.801894E+05 -3.414425E+04  3.654582E+04
       350  20 -2.929515E+05  3.989650E+04  9.529393E+04 -2.485881E+05 -4.238607E+04  3.918159E+04
       350  21 -2.121681E+05  5.772988E+04  9.548446E+04 -2.304629E+05 -4.985396E+04  3.975083E+04
       350  22 -9.239973E+05 -1.969493E+05 -1.069982E+04 -4.356066E+05 -2.379990E+04  4.043960E+04
       350  23 -9.292763E+05 -1.917311E+05 -1.960115E+04 -4.274557E+05 -3.555816E+04  4.175566E+04
       350  24 -9.251099E+05 -2.045032E+05 -3.725427E+04 -4.327855E+05 -4.654121E+04  4.100433E+04
       350  25 -1.484087E+06 -3.986483E+05 -1.105584E+05 -5.908946E+05 -1.346540E+04  4.432972E+04
       350  26 -1.565178E+06 -4.233202E+05 -1.345110E+05 -6.061526E+05 -2.873768E+04  4.432690E+04
       350  27 -1.637519E+06 -4.666854E+05 -1.700126E+05 -6.348904E+05 -4.323252E+04  4.225627E+04
       351   1 -1.575047E+05  6.935103E+04  9.434650E+04 -2.290408E+05  5.937299E+04 -3.907326E+04
       351   2 -1.195030E+05  1.173357E+05  8.058882E+04 -1.388954E+05  6.486680E+04 -2.764804E+04
       351   3 -1.050335E+05  6.409274E+04  3.576117E+04 -3.768604E+04  6.142926E+04  7.479659E+03
       351   4 -9.311507E+05 -2.030162E+05 -4.946454E+04 -4.355400E+05  5.308670E+04 -4.144613E+04
       351   5 -9.264311E+05 -2.260789E+05 -9.405138E+04 -4.118385E+05  9.900749E+04 -1.480302E+04
       351   6 -9.533228E+05 -3.584816E+05 -2.018128E+05 -3.770667E+05  1.359866E+05  3.555488E+04
       351   7 -1.704170E+06 -4.753373E+05 -1.932983E+05 -6.418034E+05  4.680879E+04 -4.381607E+04
       351   8 -1.732666E+06 -5.693648E+05 -2.687193E+05 -6.844260E+05  1.331000E+05 -1.982752E+03
       351   9 -1.800840E+06 -7.808133E+05 -4.394194E+05 -7.159588E+05  2.104307E+05  6.355593E+04
       351  10 -1.575089E+05  6.934844E+04  9.433701E+04 -2.290390E+05 -8.523684E-09 -1.545264E-09
       351  11 -1.195078E+05  1.173338E+05  8.057948E+04 -1.388940E+05 -4.787953E-10  1.915931E-09
       351  12 -1.050376E+05  6.409166E+04  3.575397E+04 -3.768641E+04  7.541109E-10  2.583361E-09
       351  13 -9.311542E+05 -2.030188E+05 -4.947306E+04 -4.355382E+05 -3.008391E-09 -2.960661E-09
       351  14 -9.264417E+05 -2.260817E+05 -9.407023E+04 -4.118374E+05 -2.868387E-09  8.867764E-09
       351  15 -9.533430E+05 -3.584879E+05 -2.018500E+05 -3.770706E+05  6.739344E-10  1.680527E-09
       351  16 -1.704173E+06 -4.753400E+05 -1.933060E+05 -6.418018E+05 -2.249721E-09 -1.153236E-09
       351  17 -1.732685E+06 -5.693696E+05 -2.687527E+05 -6.844258E+05  1.604671E-09  7.928341E-10
       351  18 -1.800889E+06 -7.808296E+05 -4.395105E+05 -7.159696E+05 -5.535880E-10 -5.735111E-10
       351  19 -1.575047E+05  6.935103E+04  9.434650E+04 -2.290408E+05 -5.937299E+04  3.907326E+04
       351  20 -1.195030E+05  1.173357E+05  8.058882E+04 -1.388954E+05 -6.486680E+04  2.764804E+04
       351  21 -1.050335E+05  6.409274E+04  3.576117E+04 -3.768604E+04 -6.142926E+04 -7.479659E+03
       351  22 -9.311507E+05 -2.030162E+05 -4.946454E+04 -4.355400E+05 -5.308670E+04  4.144613E+04
       351  23 -9.264311E+05 -2.260789E+05 -9.405138E+04 -4.118385E+05 -9.900749E+04  1.480302E+04
       351  24 -9.533228E+05 -3.584816E+05 -2.018128E+05 -3.770667E+05 -1.359866E+05 -3.555488E+04
       351  25 -1.704170E+06 -4.753373E+05 -1.932983E+05 -6.418034E+05 -4.680879E+04  4.381607E+04
       351  26 -1.732666E+06 -5.693648E+05 -2.687193E+05 -6.844260E+05 -1.331000E+05  1.982752E+03
       351  27 -1.800840E+06 -7.808133E+05 -4.394194E+05 -7.159588E+05 -2.104307E+05 -6.355593E+04
       352   1 -2.146902E+05 -2.872364E+04 -6.897928E+04 -3.817115E+04 -1.219044E+05 -5.623584E+03
       352   2 -2.195977E+05  1.347896E+05  2.676710E+04 -1.030679E+04 -8.294684E+04 -1.679796E+04
       352   3 -2.746193E+05  1.176654E+05  5.203314E+04  3.682801E+04 -4.401109E+04 -1.629794E+04
       352   4 -7.163810E+05 -1.536087E+05 -1.923863E+05  1.489620E+04 -1.316569E+05 -5.649292E+03
       352   5 -6.906919E+05  1.827798E+04 -8.480833E+04  5.127921E+03 -8.601156E+04 -1.680637E+04
       352   6 -7.163223E+05  8.285955E+03 -5.239845E+04  1.463160E+04 -4.038551E+04 -1.628985E+04
       352   7 -1.217836E+06 -2.785018E+05 -3.158099E+05  6.792049E+04 -1.414016E+05 -5.676683E+03
       352   8 -1.161581E+06 -9.824864E+04 -1.963990E+05  2.055076E+04 -8.907394E+04 -1.681494E+04
       352   9 -1.157845E+06 -1.011057E+05 -1.568433E+05 -7.549023E+03 -3.676250E+04 -1.628202E+04
       352  10 -2.147062E+05 -2.872766E+04 -6.900727E+04 -3.817170E+04 -9.601794E-10  3.273234E-10
       352  11 -2.196052E+05  1.347874E+05  2.675364E+04 -1.030791E+04 -6.222336E-10 -2.137973E-09
       352  12 -2.746214E+05  1.176646E+05  5.202900E+04  3.682743E+04  1.346490E-09 -3.960897E-09
       352  13 -7.163997E+05 -1.536134E+05 -1.924189E+05  1.489560E+04 -7.957511E-10  2.095693E-09
       352  14 -6.906999E+05  1.827569E+04 -8.482278E+04  5.126756E+03 -3.395642E-10 -3.776627E-10
       352  15 -7.163241E+05  8.285232E+03 -5.240202E+04  1.463107E+04 -2.616759E-09 -3.498865E-10
       352  16 -1.217858E+06 -2.785072E+05 -3.158476E+05  6.791985E+04  6.980737E-10  1.357785E-09
       352  17 -1.161590E+06 -9.825107E+04 -1.964145E+05  2.054956E+04 -2.052309E-09 -3.374958E-09
       352  18 -1.157846E+06 -1.011064E+05 -1.568463E+05 -7.549505E+03 -2.885634E-09 -5.043630E-09
       352  19 -2.146902E+05 -2.872364E+04 -6.897928E+04 -3.817115E+04  1.219044E+05  5.623584E+03
       352  20 -2.195977E+05  1.347896E+05  2.676710E+04 -1.030679E+04  8.294684E+04  1.679796E+04
       352  21 -2.746193E+05  1.176654E+05  5.203314E+04  3.682801E+04  4.401109E+04  1.629794E+04
       352  22 -7.163810E+05 -1.536087E+05 -1.923863E+05  1.489620E+04  1.316569E+05  5.649292E+03
       352  23 -6.906919E+05  1.827798E+04 -8.480833E+04  5.127921E+03  8.601156E+04  1.680637E+04
       352  24 -7.163223E+05  8.285955E+03 -5.239845E+04  1.463160E+04  4.038551E+04  1.628985E+04
       352  25 -1.217836E+06 -2.785018E+05 -3.158099E+05  6.792049E+04  1.414016E+05  5.676683E+03
       352  26 -1.161581E+06 -9.824864E+04 -1.963990E+05  2.055076E+04  8.907394E+04  1.681494E+04
       352  27 -1.157845E+06 -1.011057E+05 -1.568433E+05 -7.549023E+03  3.676250E+04  1.628202E+04
       353   1 -2.999370E+05  8.609141E+04  5.383946E+04  1.112404E+04 -3.249867E+04 -1.394256E+04
       353   2 -3.278703E+05  9.473528E+04  6.694972E+04  4.383139E+03 -2.172762E+04 -1.338322E+04
       353   3 -3.615003E+05  8.618269E+04  6.874856E+04  1.776698E+04 -1.095937E+04 -1.206664E+04
       353   4 -7.062059E+05 -1.446866E+04 -4.257784E+04  1.492762E+04 -3.239357E+04 -1.394317E+04
       353   5 -7.033114E+05  1.827471E+03 -2.196317E+04  4.847655E+03 -2.119316E+04 -1.338255E+04
       353   6 -7.061926E+05  8.465700E+02 -1.296357E+04  1.489331E+04 -9.995013E+03 -1.206459E+04
       353   7 -1.112323E+06 -1.150406E+05 -1.390066E+05  1.872862E+04 -3.228854E+04 -1.394379E+04
       353   8 -1.078623E+06 -9.109047E+04 -1.108859E+05  5.311813E+03 -2.065902E+04 -1.338188E+04
       353   9 -1.050776E+06 -8.449807E+04 -9.468397E+04  1.202118E+04 -9.031185E+03 -1.206255E+04
       353  10 -2.999382E+05  8.609092E+04  5.383711E+04  1.112367E+04 -3.793355E-09 -5.200853E-09
       353  11 -3.278709E+05  9.473497E+04  6.694850E+04  4.382905E+03 -5.419022E-10  2.228051E-09
       353  12 -3.615005E+05  8.618251E+04  6.874806E+04  1.776687E+04 -2.591580E-09  4.079627E-09
       353  13 -7.062071E+05 -1.446915E+04 -4.258018E+04  1.492726E+04 -1.581268E-09 -4.273086E-09
       353  14 -7.033119E+05  1.827158E+03 -2.196435E+04  4.847427E+03 -7.211667E-10 -6.281981E-12
       353  15 -7.061927E+05  8.463869E+02 -1.296403E+04  1.489322E+04 -5.770511E-10 -9.237285E-10
       353  16 -1.112324E+06 -1.150410E+05 -1.390090E+05  1.872826E+04  1.307030E-09 -1.373580E-09
       353  17 -1.078623E+06 -9.109078E+04 -1.108870E+05  5.311590E+03 -7.667301E-11  5.514477E-10
       353  18 -1.050776E+06 -8.449825E+04 -9.468439E+04  1.202109E+04  1.785849E-09  2.250809E-09
       353  19 -2.999370E+05  8.609141E+04  5.383946E+04  1.112404E+04  3.249867E+04  1.394256E+04
       353  20 -3.278703E+05  9.473528E+04  6.694972E+04  4.383139E+03  2.172762E+04  1.338322E+04
       353  21 -3.615003E+05  8.618269E+04  6.874856E+04  1.776698E+04  1.095937E+04  1.206664E+04
       353  22 -7.062059E+05 -1.446866E+04 -4.257784E+04  1.492762E+04  3.239357E+04  1.394317E+04
       353  23 -7.033114E+05  1.827471E+03 -2.196317E+04  4.847655E+03  2.119316E+04  1.338255E+04
       353  24 -7.061926E+05  8.465700E+02 -1.296357E+04  1.489331E+04  9.995013E+03  1.206459E+04
       353  25 -1.112323E+06 -1.150406E+05 -1.390066E+05  1.872862E+04  3.228854E+04  1.394379E+04
       353  26 -1.078623E+06 -9.109047E+04 -1.108859E+05  5.311813E+03  2.065902E+04  1.338188E+04
       353  27 -1.050776E+06 -8.449807E+04 -9.468397E+04  1.202118E+04  9.031185E+03  1.206255E+04
       354   1 -3.968640E+05  7.499280E+04  6.281301E+04  1.537307E+04 -8.709479E+03 -1.117073E+04
       354   2 -4.280132E+05  6.868278E+04  5.991773E+04  5.269525E+03 -5.944351E+03 -9.844780E+03
       354   3 -4.599807E+05  6.084465E+04  5.482265E+04  1.580682E+04 -3.180232E+03 -8.460324E+03
       354   4 -7.050872E+05 -1.273387E+03 -1.010899E+04  1.502121E+04 -7.964537E+03 -1.116913E+04
       354   5 -7.046717E+05  2.105950E+02 -5.604628E+03  4.698531E+03 -5.166993E+03 -9.842908E+03
       354   6 -7.050818E+05  1.603881E+02 -3.323389E+03  1.501728E+04 -2.370321E+03 -8.458164E+03
       354   7 -1.013223E+06 -7.754640E+04 -8.303757E+04  1.466945E+04 -7.219961E+03 -1.116753E+04
       354   8 -9.812598E+05 -6.826708E+04 -7.113230E+04  4.127745E+03 -4.389980E+03 -9.841037E+03
       354   9 -9.501275E+05 -6.052820E+04 -6.147361E+04  1.422802E+04 -1.560728E+03 -8.456006E+03
       354  10 -3.968641E+05  7.499265E+04  6.281263E+04  1.537300E+04 -3.314587E-09  5.206094E-09
       354  11 -4.280132E+05  6.868266E+04  5.991748E+04  5.269477E+03 -8.391418E-10  2.862169E-09
       354  12 -4.599808E+05  6.084457E+04  5.482250E+04  1.580680E+04  8.846542E-10 -3.838586E-10
       354  13 -7.050873E+05 -1.273538E+03 -1.010934E+04  1.502113E+04 -5.534596E-10 -1.432115E-09
       354  14 -7.046718E+05  2.104838E+02 -5.604860E+03  4.698490E+03 -1.690224E-09  3.559722E-09
       354  15 -7.050818E+05  1.603098E+02 -3.323534E+03  1.501726E+04 -1.047674E-09  7.325181E-09
       354  16 -1.013223E+06 -7.754654E+04 -8.303790E+04  1.466939E+04  1.592923E-09  4.285579E-09
       354  17 -9.812599E+05 -6.826719E+04 -7.113252E+04  4.127711E+03 -2.609518E-09  4.405010E-09
       354  18 -9.501276E+05 -6.052828E+04 -6.147375E+04  1.422801E+04 -1.889601E-09  4.400151E-09
       354  19 -3.968640E+05  7.499280E+04  6.281301E+04  1.537307E+04  8.709479E+03  1.117073E+04
       354  20 -4.280132E+05  6.868278E+04  5.991773E+04  5.269525E+03  5.944351E+03  9.844780E+03
       354  21 -4.599807E+05  6.084465E+04  5.482265E+04  1.580682E+04  3.180232E+03  8.460324E+03
       354  22 -7.050872E+05 -1.273387E+03 -1.010899E+04  1.502121E+04  7.964537E+03  1.116913E+04
       354  23 -7.046717E+05  2.105950E+02 -5.604628E+03  4.698531E+03  5.166993E+03  9.842908E+03
       354  24 -7.050818E+05  1.603881E+02 -3.323389E+03  1.501728E+04  2.370321E+03  8.458164E+03
       354  25 -1.013223E+06 -7.754640E+04 -8.303757E+04  1.466945E+04  7.219961E+03  1.116753E+04
       354  26 -9.812598E+05 -6.826708E+04 -7.113230E+04  4.127745E+03  4.389980E+03  9.841037E+03
       354  27 -9.501275E+05 -6.052820E+04 -6.147361E+04  1.422802E+04  1.560728E+03  8.456006E+03
       355   1 -4.971040E+05  5.139596E+04  4.652052E+04  1.557946E+04 -2.639566E+03 -7.643941E+03
       355   2 -5.290868E+05  4.355234E+04  3.996096E+04  5.023753E+03 -1.825276E+03 -6.249108E+03
       355   3 -5.613186E+05  3.567282E+04  3.283267E+04  1.546703E+04 -1.011539E+03 -4.844275E+03
       355   4 -7.049497E+05 -2.889825E+01 -2.612131E+03  1.509828E+04 -1.840512E+03 -7.641708E+03
       355   5 -7.048226E+05  5.511989E+01 -1.661901E+03  4.598372E+03 -1.020731E+03 -6.246737E+03
       355   6 -7.049469E+05  1.021851E+02 -1.284431E+03  1.509782E+04 -2.014624E+02 -4.841761E+03
       355   7 -9.127557E+05 -5.145685E+04 -5.174778E+04  1.461722E+04 -1.041723E+03 -7.639475E+03
       355   8 -8.805300E+05 -4.344432E+04 -4.328691E+04  4.173091E+03 -2.164130E+02 -6.244366E+03
       355   9 -8.485563E+05 -3.546994E+04 -3.540297E+04  1.472868E+04  6.084279E+02 -4.839247E+03
       355  10 -4.971040E+05  5.139589E+04  4.652040E+04  1.557945E+04  3.159425E-09 -2.044139E-10
       355  11 -5.290868E+05  4.355229E+04  3.996088E+04  5.023744E+03 -1.981589E-09  8.512117E-09
       355  12 -5.613186E+05  3.567280E+04  3.283262E+04  1.546702E+04 -1.840149E-09  6.934937E-09
       355  13 -7.049497E+05 -2.896184E+01 -2.612247E+03  1.509826E+04 -1.074047E-09  1.949828E-09
       355  14 -7.048226E+05  5.507773E+01 -1.661976E+03  4.598367E+03 -7.766231E-10  5.876108E-09
       355  15 -7.049469E+05  1.021600E+02 -1.284475E+03  1.509782E+04 -1.375314E-09  9.567499E-10
       355  16 -9.127557E+05 -5.145692E+04 -5.174789E+04  1.461721E+04 -3.451168E-09  3.602174E-09
       355  17 -8.805300E+05 -4.344436E+04 -4.328698E+04  4.173090E+03 -9.549348E-10 -1.280417E-10
       355  18 -8.485563E+05 -3.546996E+04 -3.540301E+04  1.472869E+04  1.376407E-09 -2.667587E-09
       355  19 -4.971040E+05  5.139596E+04  4.652052E+04  1.557946E+04  2.639566E+03  7.643941E+03
       355  20 -5.290868E+05  4.355234E+04  3.996096E+04  5.023753E+03  1.825276E+03  6.249108E+03
       355  21 -5.613186E+05  3.567282E+04  3.283267E+04  1.546703E+04  1.011539E+03  4.844275E+03
       355  22 -7.049497E+05 -2.889825E+01 -2.612131E+03  1.509828E+04  1.840512E+03  7.641708E+03
       355  23 -7.048226E+05  5.511989E+01 -1.661901E+03  4.598372E+03  1.020731E+03  6.246737E+03
       355  24 -7.049469E+05  1.021851E+02 -1.284431E+03  1.509782E+04  2.014624E+02  4.841761E+03
       355  25 -9.127557E+05 -5.145685E+04 -5.174778E+04  1.461722E+04  1.041723E+03  7.639475E+03
       355  26 -8.805300E+05 -4.344432E+04 -4.328691E+04  4.173091E+03  2.164130E+02  6.244366E+03
       355  27 -8.485563E+05 -3.546994E+04 -3.540297E+04  1.472868E+04 -6.084279E+02  4.839247E+03
       356   1 -5.990730E+05  2.628506E+04  2.372944E+04  1.538421E+04 -7.868619E+02 -4.023426E+03
       356   2 -6.313497E+05  1.824362E+04  1.593461E+04  4.710126E+03 -6.511281E+01 -2.610410E+03
       356   3 -6.638890E+05  1.019752E+04  7.631763E+03  1.523696E+04  6.564058E+02 -1.195833E+03
       356   4 -7.049470E+05  9.813189E+01 -1.250523E+03  1.514267E+04  2.463845E+01 -4.020847E+03
       356   5 -7.048150E+05  5.884916E+01 -1.466616E+03  4.542246E+03  7.471911E+02 -2.607779E+03
       356   6 -7.049461E+05  1.494996E+01 -2.191130E+03  1.514290E+04  1.469551E+03 -1.193145E+03
       356   7 -8.108107E+05 -2.608960E+04 -2.623126E+04  1.490115E+04  8.360011E+02 -4.018269E+03
       356   8 -7.782752E+05 -1.812631E+04 -1.886821E+04  4.374381E+03  1.559399E+03 -2.605148E+03
       356   9 -7.460016E+05 -1.016774E+04 -1.201414E+04  1.504885E+04  2.282642E+03 -1.190458E+03
       356  10 -5.990730E+05  2.628505E+04  2.372941E+04  1.538421E+04  4.344138E-09  2.046013E-09
       356  11 -6.313497E+05  1.824362E+04  1.593459E+04  4.710126E+03  2.174323E-09 -1.082510E-09
       356  12 -6.638890E+05  1.019752E+04  7.631759E+03  1.523696E+04 -1.321684E-09 -3.577001E-09
       356  13 -7.049470E+05  9.811454E+01 -1.250553E+03  1.514267E+04 -3.571618E-12  8.415236E-09
       356  14 -7.048150E+05  5.884171E+01 -1.466630E+03  4.542247E+03 -1.867369E-10  7.049561E-10
       356  15 -7.049461E+05  1.494785E+01 -2.191137E+03  1.514290E+04 -8.002029E-10 -5.826306E-09
       356  16 -8.108107E+05 -2.608962E+04 -2.623129E+04  1.490115E+04 -4.107553E-09  3.828479E-09
       356  17 -7.782752E+05 -1.812632E+04 -1.886823E+04  4.374384E+03 -3.082180E-09 -3.105295E-09
       356  18 -7.460016E+05 -1.016775E+04 -1.201415E+04  1.504885E+04 -3.328192E-10 -5.518968E-09
       356  19 -5.990730E+05  2.628506E+04  2.372944E+04  1.538421E+04  7.868619E+02  4.023426E+03
       356  20 -6.313497E+05  1.824362E+04  1.593461E+04  4.710126E+03  6.511281E+01  2.610410E+03
       356  21 -6.638890E+05  1.019752E+04  7.631763E+03  1.523696E+04 -6.564058E+02  1.195833E+03
       356  22 -7.049470E+05  9.813189E+01 -1.250523E+03  1.514267E+04 -2.463845E+01  4.020847E+03
       356  23 -7.048150E+05  5.884916E+01 -1.466616E+03  4.542246E+03 -7.471911E+02  2.607779E+03
       356  24 -7.049461E+05  1.494996E+01 -2.191130E+03  1.514290E+04 -1.469551E+03  1.193145E+03
       356  25 -8.108107E+05 -2.608960E+04 -2.623126E+04  1.490115E+04 -8.360011E+02  4.018269E+03
       356  26 -7.782752E+05 -1.812631E+04 -1.886821E+04  4.374381E+03 -1.559399E+03  2.605148E+03
       356  27 -7.460016E+05 -1.016774E+04 -1.201414E+04  1.504885E+04 -2.282642E+03  1.190458E+03
       357   1 -7.019611E+05  9.121496E+02 -2.120498E+03  1.495802E+04  1.089513E+03 -3.668085E+02
       357   2 -7.340352E+05 -7.071872E+03 -1.153923E+04  4.466279E+03  3.391199E+03  1.054290E+03
       357   3 -7.668850E+05 -1.626748E+04 -2.279855E+04  1.521163E+04  5.692925E+03  2.448594E+03
       357   4 -7.050591E+05  1.664370E+02 -2.756378E+03  1.514951E+04  1.910712E+03 -3.640828E+02
       357   5 -7.046730E+05  1.965831E+02 -4.583879E+03  4.532881E+03  4.197064E+03  1.056942E+03
       357   6 -7.050608E+05 -9.820470E+02 -8.241124E+03  1.515329E+04  6.483575E+03  2.451175E+03
       357   7 -7.081571E+05 -5.792756E+02 -3.392256E+03  1.534100E+04  2.731907E+03 -3.613566E+02
       357   8 -6.753100E+05  7.464976E+03  2.371412E+03  4.599486E+03  5.002966E+03  1.059594E+03
       357   9 -6.432331E+05  1.430311E+04  6.316041E+03  1.509494E+04  7.274303E+03  2.453756E+03
       357  10 -7.019611E+05  9.121492E+02 -2.120500E+03  1.495802E+04 -7.259542E-09  5.742534E-10
       357  11 -7.340352E+05 -7.071876E+03 -1.153925E+04  4.466276E+03 -2.344299E-09 -5.235558E-10
       357  12 -7.668850E+05 -1.626749E+04 -2.279862E+04  1.521162E+04 -1.191792E-10  3.573527E-10
       357  13 -7.050591E+05  1.664359E+02 -2.756385E+03  1.514951E+04 -4.829629E-10 -2.581377E-09
       357  14 -7.046730E+05  1.965772E+02 -4.583914E+03  4.532878E+03  1.139675E-09  7.586351E-10
       357  15 -7.050609E+05 -9.820648E+02 -8.241214E+03  1.515328E+04 -4.845822E-10  1.547809E-09
       357  16 -7.081571E+05 -5.792778E+02 -3.392270E+03  1.534100E+04  5.549146E-09  1.470524E-09
       357  17 -6.753100E+05  7.464968E+03  2.371363E+03  4.599481E+03  1.354342E-09 -6.856108E-09
       357  18 -6.432331E+05  1.430309E+04  6.315930E+03  1.509493E+04 -2.086461E-11 -7.794681E-10
       357  19 -7.019611E+05  9.121496E+02 -2.120498E+03  1.495802E+04 -1.089513E+03  3.668085E+02
       357  20 -7.340352E+05 -7.071872E+03 -1.153923E+04  4.466279E+03 -3.391199E+03 -1.054290E+03
       357  21 -7.668850E+05 -1.626748E+04 -2.279855E+04  1.521163E+04 -5.692925E+03 -2.448594E+03
       357  22 -7.050591E+05  1.664370E+02 -2.756378E+03  1.514951E+04 -1.910712E+03  3.640828E+02
       357  23 -7.046730E+05  1.965831E+02 -4.583879E+03  4.532881E+03 -4.197064E+03 -1.056942E+03
       357  24 -7.050608E+05 -9.820470E+02 -8.241124E+03  1.515329E+04 -6.483575E+03 -2.451175E+03
       357  25 -7.081571E+05 -5.792756E+02 -3.392256E+03  1.534100E+04 -2.731907E+03  3.613566E+02
       357  26 -6.753100E+05  7.464976E+03  2.371412E+03  4.599486E+03 -5.002966E+03 -1.059594E+03
       357  27 -6.432331E+05  1.430311E+04  6.316041E+03  1.509494E+04 -7.274303E+03 -2.453756E+03
       358   1 -8.056546E+05 -2.396998E+04 -3.426830E+04  1.307158E+04  7.225596E+03  3.330215E+03
       358   2 -8.354977E+05 -3.113573E+04 -4.912581E+04  5.169599E+03  1.656925E+04  4.738603E+03
       358   3 -8.702251E+05 -5.235432E+04 -7.361891E+04  1.839261E+04  2.591382E+04  5.736371E+03
       358   4 -7.059660E+05  7.408855E+02 -1.056180E+04  1.511385E+04  8.137746E+03  3.333177E+03
       358   5 -7.035486E+05  1.522557E+03 -1.786811E+04  4.571004E+03  1.724683E+04  4.740670E+03
       358   6 -7.059747E+05 -1.170610E+04 -3.464533E+04  1.515304E+04  2.635731E+04  5.737505E+03
       358   7 -6.062682E+05  2.545105E+04  1.314401E+04  1.715644E+04  9.050042E+03  3.336144E+03
       358   8 -5.715834E+05  3.417960E+04  1.338838E+04  3.972269E+03  1.792455E+04  4.742735E+03
       358   9 -5.416994E+05  2.894023E+04  4.326383E+03  1.191259E+04  2.680092E+04  5.738633E+03
       358  10 -8.056546E+05 -2.397001E+04 -3.426842E+04  1.307156E+04 -7.181029E-09  5.477767E-09
       358  11 -8.354980E+05 -3.113583E+04 -4.912637E+04  5.169535E+03 -4.175608E-09  3.324478E-09
       358  12 -8.702258E+05 -5.235454E+04 -7.362023E+04  1.839249E+04 -1.990044E-09  3.535060E-09
       358  13 -7.059661E+05  7.408558E+02 -1.056195E+04  1.511382E+04 -5.596696E-10  2.485293E-09
       358  14 -7.035489E+05  1.522452E+03 -1.786871E+04  4.570938E+03 -2.331522E-10  2.718492E-09
       358  15 -7.059754E+05 -1.170632E+04 -3.464669E+04  1.515292E+04 -1.901614E-09 -1.803754E-09
       358  16 -6.062683E+05  2.545102E+04  1.314383E+04  1.715641E+04  5.466078E-09 -1.327552E-09
       358  17 -5.715838E+05  3.417948E+04  1.338773E+04  3.972201E+03  2.678419E-09 -1.175165E-09
       358  18 -5.417002E+05  2.894000E+04  4.324970E+03  1.191247E+04  1.550716E-09 -7.502135E-09
       358  19 -8.056546E+05 -2.396998E+04 -3.426830E+04  1.307158E+04 -7.225596E+03 -3.330215E+03
       358  20 -8.354977E+05 -3.113573E+04 -4.912581E+04  5.169599E+03 -1.656925E+04 -4.738603E+03
       358  21 -8.702251E+05 -5.235432E+04 -7.361891E+04  1.839261E+04 -2.591382E+04 -5.736371E+03
       358  22 -7.059660E+05  7.408855E+02 -1.056180E+04  1.511385E+04 -8.137746E+03 -3.333177E+03
       358  23 -7.035486E+05  1.522557E+03 -1.786811E+04  4.571004E+03 -1.724683E+04 -4.740670E+03
       358  24 -7.059747E+05 -1.170610E+04 -3.464533E+04  1.515304E+04 -2.635731E+04 -5.737505E+03
       358  25 -6.062682E+05  2.545105E+04  1.314401E+04  1.715644E+04 -9.050042E+03 -3.336144E+03
       358  26 -5.715834E+05  3.417960E+04  1.338838E+04  3.972269E+03 -1.792455E+04 -4.742735E+03
       358  27 -5.416994E+05  2.894023E+04  4.326383E+03  1.191259E+04 -2.680092E+04 -5.738633E+03
       359   1 -9.158957E+05 -4.324553E+04 -9.038367E+04 -3.003583E+03  3.048863E+04  7.419998E+03
       359   2 -9.266842E+05 -4.277754E+04 -1.242871E+05  1.724147E+04  7.126595E+04  8.459122E+03
       359   3 -9.800611E+05 -1.909155E+05 -2.219391E+05  5.839698E+04  1.120601E+05  3.111427E+03
       359   4 -7.142109E+05  6.807579E+03 -4.263570E+04  1.496394E+04  3.286004E+04  7.427973E+03
       359   5 -6.932664E+05  1.491704E+04 -6.898965E+04  4.696623E+03  6.997299E+04  8.453615E+03
       359   6 -7.142584E+05 -1.249155E+05 -1.565285E+05  1.534147E+04  1.071051E+05  3.089483E+03
       359   7 -5.124878E+05  5.685895E+04  5.109628E+03  3.293731E+04  3.523220E+04  7.436085E+03
       359   8 -4.597980E+05  7.260832E+04 -1.369589E+04 -7.853010E+03  6.867954E+04  8.448162E+03
       359   9 -4.483871E+05 -5.891360E+04 -9.112202E+04 -2.773256E+04  1.021480E+05  3.068234E+03
       359  10 -9.158967E+05 -4.324583E+04 -9.038552E+04 -3.003765E+03  9.032166E-10  6.748430E-10
       359  11 -9.266897E+05 -4.277899E+04 -1.242968E+05  1.724099E+04  3.238150E-09 -1.075702E-09
       359  12 -9.800746E+05 -1.909189E+05 -2.219628E+05  5.839670E+04 -1.575821E-10 -8.473290E-10
       359  13 -7.142120E+05  6.807230E+03 -4.263783E+04  1.496374E+04 -5.129236E-10  3.278686E-09
       359  14 -6.932717E+05  1.491565E+04 -6.899900E+04  4.696146E+03  7.479982E-10 -4.197820E-09
       359  15 -7.142707E+05 -1.249186E+05 -1.565501E+05  1.534120E+04 -1.100184E-09  3.355839E-09
       359  16 -5.124892E+05  5.685856E+04  5.107190E+03  3.293710E+04 -3.987788E-09  1.722819E-09
       359  17 -4.598031E+05  7.260697E+04 -1.370490E+04 -7.853478E+03 -2.671585E-09  3.404937E-09
       359  18 -4.483983E+05 -5.891641E+04 -9.114166E+04 -2.773281E+04 -1.240813E-09 -1.092394E-09
       359  19 -9.158957E+05 -4.324553E+04 -9.038367E+04 -3.003583E+03 -3.048863E+04 -7.419998E+03
       359  20 -9.266842E+05 -4.277754E+04 -1.242871E+05  1.724147E+04 -7.126595E+04 -8.459122E+03
       359  21 -9.800611E+05 -1.909155E+05 -2.219391E+05  5.839698E+04 -1.120601E+05 -3.111427E+03
       359  22 -7.142109E+05  6.807579E+03 -4.263570E+04  1.496394E+04 -3.286004E+04 -7.427973E+03
       359  23 -6.932664E+05  1.491704E+04 -6.898965E+04  4.696623E+03 -6.997299E+04 -8.453615E+03
       359  24 -7.142584E+05 -1.249155E+05 -1.565285E+05  1.534147E+04 -1.071051E+05 -3.089483E+03
       359  25 -5.124878E+05  5.685895E+04  5.109628E+03  3.293731E+04 -3.523220E+04 -7.436085E+03
       359  26 -4.597980E+05  7.260832E+04 -1.369589E+04 -7.853010E+03 -6.867954E+04 -8.448162E+03
       359  27 -4.483871E+05 -5.891360E+04 -9.112202E+04 -2.773256E+04 -1.021480E+05 -3.068234E+03
       360   1  6.321903E+05  3.269403E+06  6.911746E+05 -2.835572E+05  1.461341E+04  2.303325E+05
       360   2  2.638536E+05  2.870406E+06  4.256857E+05 -1.074408E+05  4.147291E+04  1.300773E+05
       360   3  1.965790E+05  2.559539E+06  3.004626E+05 -1.614283E+05  2.941996E+04  2.978868E+04
       360   4  2.474598E+05  1.723155E+06  3.113272E+05 -1.940723E+05  1.470120E+04  2.033757E+05
       360   5 -2.971926E+04  1.681193E+06  1.448121E+05 -7.929577E+04  4.149438E+04  1.257937E+05
       360   6 -9.434920E+03  1.723541E+06  1.030976E+05 -1.946117E+05  2.936189E+04  4.811923E+04
       360   7 -1.374180E+05  1.790900E+05 -6.868911E+04 -1.048083E+05  1.478140E+04  1.764851E+05
       360   8 -3.233903E+05  4.932760E+05 -1.361588E+05 -5.120390E+04  4.151550E+04  1.215181E+05
       360   9 -2.154941E+05  8.881863E+05 -9.431383E+04 -2.277496E+05  2.930183E+04  6.642528E+04
       360  10  6.321759E+05  3.269346E+06  6.910750E+05 -2.835599E+05 -7.301576E-10  1.591048E-09
       360  11  2.638472E+05  2.870387E+06  4.256508E+05 -1.074451E+05 -3.676988E-09 -3.250102E-09
       360  12  1.965778E+05  2.559538E+06  3.004593E+05 -1.614290E+05  2.574309E-10 -2.342068E-09
       360  13  2.474485E+05  1.723110E+06  3.112492E+05 -1.940747E+05  8.560551E-10 -2.463381E-09
       360  14 -2.972535E+04  1.681176E+06  1.447792E+05 -7.929998E+04 -5.109694E-09 -2.129910E-09
       360  15 -9.436466E+03  1.723538E+06  1.030916E+05 -1.946128E+05 -1.017180E-09 -5.282289E-10
       360  16 -1.374266E+05  1.790565E+05 -6.874804E+04 -1.048104E+05  6.970223E-11 -2.060914E-09
       360  17 -3.233961E+05  4.932597E+05 -1.361898E+05 -5.120796E+04  8.926491E-11 -2.555172E-09
       360  18 -2.154962E+05  8.881813E+05 -9.432373E+04 -2.277512E+05 -1.982696E-09 -1.308009E-09
       360  19  6.321903E+05  3.269403E+06  6.911746E+05 -2.835572E+05 -1.461341E+04 -2.303325E+05
       360  20  2.638536E+05  2.870406E+06  4.256857E+05 -1.074408E+05 -4.147291E+04 -1.300773E+05
       360  21  1.965790E+05  2.559539E+06  3.004626E+05 -1.614283E+05 -2.941996E+04 -2.978868E+04
       360  22  2.474598E+05  1.723155E+06  3.113272E+05 -1.940723E+05 -1.470120E+04 -2.033757E+05
       360  23 -2.971926E+04  1.681193E+06  1.448121E+05 -7.929577E+04 -4.149438E+04 -1.257937E+05
       360  24 -9.434920E+03  1.723541E+06  1.030976E+05 -1.946117E+05 -2.936189E+04 -4.811923E+04
       360  25 -1.374180E+05  1.790900E+05 -6.868911E+04 -1.048083E+05 -1.478140E+04 -1.764851E+05
       360  26 -3.233903E+05  4.932760E+05 -1.361588E+05 -5.120390E+04 -4.151550E+04 -1.215181E+05
       360  27 -2.154941E+05  8.881863E+05 -9.431383E+04 -2.277496E+05 -2.930183E+04 -6.642528E+04
       361   1  1.278311E+05  2.134111E+06  1.936634E+05 -2.068388E+05  1.495468E+04  2.421337E+04
       361   2  1.215351E+04  1.773388E+06  9.603106E+04 -7.941281E+04  2.670097E+03 -1.607377E+04
       361   3 -3.929208E+04  1.432270E+06  4.022693E+04 -1.808998E+05 -9.817417E+03 -5.634137E+04
       361   4  2.286579E+04  1.709227E+06  9.329641E+04 -1.941549E+05  1.493158E+04  3.131543E+04
       361   5 -6.085074E+03  1.699494E+06  7.857524E+04 -7.969015E+04  2.645843E+03 -8.843566E+03
       361   6  2.918669E+04  1.709231E+06  1.056086E+05 -1.941328E+05 -9.841589E+03 -4.900527E+04
       361   7 -8.211187E+04  1.284509E+06 -7.082770E+03 -1.814795E+05  1.490877E+04  3.841266E+04
       361   8 -2.432402E+04  1.625605E+06  6.111923E+04 -7.996746E+04  2.621582E+03 -1.614211E+03
       361   9  9.766064E+04  1.986263E+06  1.709853E+05 -2.073717E+05 -9.866067E+03 -4.166592E+04
       361  10  1.278307E+05  2.134110E+06  1.936619E+05 -2.068391E+05  4.827230E-10  1.423493E-09
       361  11  1.215343E+04  1.773387E+06  9.603057E+04 -7.941277E+04  1.846051E-09 -6.261777E-09
       361  12 -3.929303E+04  1.432266E+06  4.022079E+04 -1.809002E+05 -2.077817E-09 -4.897569E-09
       361  13  2.286528E+04  1.709226E+06  9.329415E+04 -1.941553E+05 -2.149653E-10 -3.350811E-09
       361  14 -6.085102E+03  1.699494E+06  7.857508E+04 -7.969013E+04  3.079598E-09 -4.182500E-09
       361  15  2.918594E+04  1.709228E+06  1.056039E+05 -1.941332E+05  2.080870E-09 -1.070924E-09
       361  16 -8.211251E+04  1.284508E+06 -7.085956E+03 -1.814800E+05 -1.371826E-09 -1.014852E-09
       361  17 -2.432402E+04  1.625605E+06  6.111921E+04 -7.996745E+04 -2.420832E-09 -3.197951E-09
       361  18  9.766007E+04  1.986261E+06  1.709819E+05 -2.073720E+05 -2.348600E-09  6.520352E-10
       361  19  1.278311E+05  2.134111E+06  1.936634E+05 -2.068388E+05 -1.495468E+04 -2.421337E+04
       361  20  1.215351E+04  1.773388E+06  9.603106E+04 -7.941281E+04 -2.670097E+03  1.607377E+04
       361  21 -3.929208E+04  1.432270E+06  4.022693E+04 -1.808998E+05  9.817417E+03  5.634137E+04
       361  22  2.286579E+04  1.709227E+06  9.329641E+04 -1.941549E+05 -1.493158E+04 -3.131543E+04
       361  23 -6.085074E+03  1.699494E+06  7.857524E+04 -7.969015E+04 -2.645843E+03  8.843566E+03
       361  24  2.918669E+04  1.709231E+06  1.056086E+05 -1.941328E+05  9.841589E+03  4.900527E+04
       361  25 -8.211187E+04  1.284509E+06 -7.082770E+03 -1.814795E+05 -1.490877E+04 -3.841266E+04
       361  26 -2.432402E+04  1.625605E+06  6.111923E+04 -7.996746E+04 -2.621582E+03  1.614211E+03
       361  27  9.766064E+04  1.986263E+06  1.709853E+05 -2.073717E+05  9.866067E+03  4.166592E+04
       362   1 -1.826770E+05  1.040941E+06 -4.174234E+04 -2.366941E+05 -2.376266E+04 -8.574439E+04
       362   2 -2.939180E+05  6.366271E+05 -6.787243E+04 -4.487770E+04 -3.612838E+04 -1.606074E+05
       362   3 -3.711475E+04  3.337666E+05  4.664706E+04 -8.258245E+04 -1.293926E+04 -2.353309E+05
       362   4 -1.330145E+04  1.728114E+06  1.206927E+05 -1.945374E+05 -2.382526E+04 -6.829811E+04
       362   5 -3.701690E+04  1.675574E+06  1.778593E+05 -7.942758E+04 -3.610726E+04 -1.638082E+05
       362   6  3.105292E+05  1.727701E+06  3.897929E+05 -1.937783E+05 -1.284229E+04 -2.592236E+05
       362   7  1.560474E+05  2.415725E+06  2.830972E+05 -1.523333E+05 -2.388545E+04 -5.083261E+04
       362   8  2.198112E+05  2.715512E+06  4.235168E+05 -1.140348E+05 -3.608580E+04 -1.670142E+05
       362   9  6.580748E+05  3.123428E+06  7.328041E+05 -3.052227E+05 -1.273693E+04 -2.831692E+05
       362  10 -1.826795E+05  1.040933E+06 -4.175720E+04 -2.366958E+05 -8.232914E-10  1.539185E-09
       362  11 -2.939263E+05  6.365991E+05 -6.792330E+04 -4.488238E+04  1.920720E-09 -3.586465E-09
       362  12 -3.712979E+04  3.337072E+05  4.654273E+04 -8.258490E+04  3.112849E-10 -2.062007E-10
       362  13 -1.330330E+04  1.728109E+06  1.206828E+05 -1.945387E+05 -1.398568E-09 -2.678915E-09
       362  14 -3.702548E+04  1.675545E+06  1.778065E+05 -7.943234E+04  3.317434E-09 -2.929338E-09
       362  15  3.105111E+05  1.727629E+06  3.896667E+05 -1.937809E+05  4.458601E-11 -2.594976E-10
       362  16  1.560461E+05  2.415722E+06  2.830913E+05 -1.523343E+05  6.563102E-10 -1.845217E-09
       362  17  2.198023E+05  2.715482E+06  4.234622E+05 -1.140397E+05  2.887954E-09 -4.007597E-09
       362  18  6.580532E+05  3.123342E+06  7.326538E+05 -3.052256E+05  6.864953E-10 -1.610745E-09
       362  19 -1.826770E+05  1.040941E+06 -4.174234E+04 -2.366941E+05  2.376266E+04  8.574439E+04
       362  20 -2.939180E+05  6.366271E+05 -6.787243E+04 -4.487770E+04  3.612838E+04  1.606074E+05
       362  21 -3.711475E+04  3.337666E+05  4.664706E+04 -8.258245E+04  1.293926E+04  2.353309E+05
       362  22 -1.330145E+04  1.728114E+06  1.206927E+05 -1.945374E+05  2.382526E+04  6.829811E+04
       362  23 -3.701690E+04  1.675574E+06  1.778593E+05 -7.942758E+04  3.610726E+04  1.638082E+05
       362  24  3.105292E+05  1.727701E+06  3.897929E+05 -1.937783E+05  1.284229E+04  2.592236E+05
       362  25  1.560474E+05  2.415725E+06  2.830972E+05 -1.523333E+05  2.388545E+04  5.083261E+04
       362  26  2.198112E+05  2.715512E+06  4.235168E+05 -1.140348E+05  3.608580E+04  1.670142E+05
       362  27  6.580748E+05  3.123428E+06  7.328041E+05 -3.052227E+05  1.273693E+04  2.831692E+05
       363   1  2.369016E+05  6.991071E+04  2.903937E+04  6.211325E+04 -4.972074E+04 -2.470354E+04
       363   2  2.248268E+05  1.397036E+05  7.186178E+04  3.544123E+04 -3.005000E+04 -2.945319E+04
       363   3  1.652725E+05  1.411360E+05  8.035607E+04  4.697037E+04 -1.466765E+04 -2.282630E+04
       363   4 -2.378298E+05 -8.650913E+04 -9.517791E+04 -4.410877E+04 -5.849968E+04 -2.801381E+04
       363   5 -2.084754E+05 -1.658648E+04 -3.995140E+04 -7.644535E+04 -3.270664E+04 -3.045628E+04
       363   6 -2.278392E+05 -1.627212E+04 -2.392617E+04 -7.057355E+04 -1.120194E+04 -2.151893E+04
       363   7 -7.123394E+05 -2.429261E+05 -2.194119E+05 -1.502624E+05 -6.727111E+04 -3.132207E+04
       363   8 -6.415931E+05 -1.728676E+05 -1.517793E+05 -1.882625E+05 -3.536123E+04 -3.145867E+04
       363   9 -6.208002E+05 -1.736647E+05 -1.282217E+05 -1.880481E+05 -7.738625E+03 -2.021260E+04
       363  10  2.368988E+05  6.990939E+04  2.903358E+04  6.211227E+04 -1.370350E-09 -1.106465E-09
       363  11  2.248256E+05  1.397024E+05  7.185845E+04  3.544052E+04 -7.673380E-10 -1.683996E-09
       363  12  1.652721E+05  1.411354E+05  8.035469E+04  4.697010E+04 -1.257921E-09  1.607370E-09
       363  13 -2.378337E+05 -8.651089E+04 -9.518582E+04 -4.411009E+04  7.139274E-10  4.379354E-09
       363  14 -2.084768E+05 -1.658776E+04 -3.995516E+04 -7.644615E+04 -3.569942E-09  8.409345E-10
       363  15 -2.278395E+05 -1.627265E+04 -2.392727E+04 -7.057375E+04 -1.340704E-09  2.886601E-09
       363  16 -7.123445E+05 -2.429284E+05 -2.194222E+05 -1.502641E+05  2.977677E-10  4.330655E-09
       363  17 -6.415947E+05 -1.728690E+05 -1.517835E+05 -1.882634E+05  2.482495E-09 -1.233727E-09
       363  18 -6.208004E+05 -1.736652E+05 -1.282226E+05 -1.880482E+05 -9.143728E-10  5.005674E-10
       363  19  2.369016E+05  6.991071E+04  2.903937E+04  6.211325E+04  4.972074E+04  2.470354E+04
       363  20  2.248268E+05  1.397036E+05  7.186178E+04  3.544123E+04  3.005000E+04  2.945319E+04
       363  21  1.652725E+05  1.411360E+05  8.035607E+04  4.697037E+04  1.466765E+04  2.282630E+04
       363  22 -2.378298E+05 -8.650913E+04 -9.517791E+04 -4.410877E+04  5.849968E+04  2.801381E+04
       363  23 -2.084754E+05 -1.658648E+04 -3.995140E+04 -7.644535E+04  3.270664E+04  3.045628E+04
       363  24 -2.278392E+05 -1.627212E+04 -2.392617E+04 -7.057355E+04  1.120194E+04  2.151893E+04
       363  25 -7.123394E+05 -2.429261E+05 -2.194119E+05 -1.502624E+05  6.727111E+04  3.132207E+04
       363  26 -6.415931E+05 -1.728676E+05 -1.517793E+05 -1.882625E+05  3.536123E+04  3.145867E+04
       363  27 -6.208002E+05 -1.736647E+05 -1.282217E+05 -1.880481E+05  7.738625E+03  2.021260E+04
       364   1  1.402020E+05  1.097548E+05  7.579165E+04  3.313317E+04 -8.818224E+03 -1.793645E+04
       364   2  1.196195E+05  1.002007E+05  7.791179E+04  1.563943E+04 -4.559119E+03 -1.574055E+04
       364   3  8.057301E+04  9.709620E+04  7.445392E+04  1.709035E+04 -6.000279E+02 -1.275318E+04
       364   4 -2.248693E+05 -2.569539E+04 -1.939588E+04 -6.493218E+04 -8.748022E+03 -1.791064E+04
       364   5 -2.150903E+05 -2.536313E+04 -9.425695E+03 -7.573061E+04 -4.064657E+03 -1.555434E+04
       364   6 -2.238622E+05 -1.866783E+04 -5.372429E+03 -6.758363E+04  3.188545E+02 -1.240630E+04
       364   7 -5.898128E+05 -1.611386E+05 -1.145949E+05 -1.629463E+05 -8.677863E+03 -1.788484E+04
       364   8 -5.496920E+05 -1.509203E+05 -9.677279E+04 -1.670565E+05 -3.570484E+03 -1.536824E+04
       364   9 -5.282077E+05 -1.344256E+05 -8.520668E+04 -1.522200E+05  1.237243E+03 -1.205960E+04
       364  10  1.402019E+05  1.097544E+05  7.579090E+04  3.313305E+04  4.000230E-10  1.506464E-09
       364  11  1.196194E+05  1.002004E+05  7.791129E+04  1.563937E+04 -4.284540E-10  4.136765E-09
       364  12  8.057296E+04  9.709602E+04  7.445362E+04  1.709035E+04 -4.442861E-09 -5.983127E-10
       364  13 -2.248695E+05 -2.569575E+04 -1.939663E+04 -6.493231E+04 -7.170719E-11 -2.806652E-09
       364  14 -2.150903E+05 -2.536339E+04 -9.426180E+03 -7.573066E+04 -4.388381E-10 -1.568887E-08
       364  15 -2.238623E+05 -1.866799E+04 -5.372719E+03 -6.758363E+04 -8.026874E-10 -1.721978E-09
       364  16 -5.898130E+05 -1.611390E+05 -1.145957E+05 -1.629464E+05 -1.526529E-09 -3.105962E-09
       364  17 -5.496921E+05 -1.509206E+05 -9.677325E+04 -1.670565E+05  6.193659E-10 -8.012730E-09
       364  18 -5.282077E+05 -1.344257E+05 -8.520696E+04 -1.522200E+05  3.350309E-09  2.392882E-09
       364  19  1.402020E+05  1.097548E+05  7.579165E+04  3.313317E+04  8.818224E+03  1.793645E+04
       364  20  1.196195E+05  1.002007E+05  7.791179E+04  1.563943E+04  4.559119E+03  1.574055E+04
       364  21  8.057301E+04  9.709620E+04  7.445392E+04  1.709035E+04  6.000279E+02  1.275318E+04
       364  22 -2.248693E+05 -2.569539E+04 -1.939588E+04 -6.493218E+04  8.748022E+03  1.791064E+04
       364  23 -2.150903E+05 -2.536313E+04 -9.425695E+03 -7.573061E+04  4.064657E+03  1.555434E+04
       364  24 -2.238622E+05 -1.866783E+04 -5.372429E+03 -6.758363E+04 -3.188545E+02  1.240630E+04
       364  25 -5.898128E+05 -1.611386E+05 -1.145949E+05 -1.629463E+05  8.677863E+03  1.788484E+04
       364  26 -5.496920E+05 -1.509203E+05 -9.677279E+04 -1.670565E+05  3.570484E+03  1.536824E+04
       364  27 -5.282077E+05 -1.344256E+05 -8.520668E+04 -1.522200E+05 -1.237243E+03  1.205960E+04
       365   1  4.506044E+04  8.152369E+04  6.589763E+04  6.697668E+03  6.179742E+01 -1.148000E+04
       365   2  2.328902E+04  6.383983E+04  6.029776E+04 -9.996022E+03  6.391154E+02 -9.778033E+03
       365   3 -1.388853E+04  6.031826E+04  5.368756E+04 -9.493832E+03  1.193597E+03 -8.017949E+03
       365   4 -2.235347E+05 -1.956559E+04 -4.171197E+03 -6.697649E+04  7.472783E+02 -1.122119E+04
       365   5 -2.157753E+05 -2.628980E+04 -2.173088E+03 -7.570768E+04  1.355543E+03 -9.507319E+03
       365   6 -2.234298E+05 -1.885759E+04 -1.210204E+03 -6.724264E+04  1.941023E+03 -7.735299E+03
       365   7 -4.920590E+05 -1.206500E+05 -7.424588E+04 -1.406217E+05  1.432432E+03 -1.096249E+04
       365   8 -4.547842E+05 -1.164158E+05 -6.464877E+04 -1.413965E+05  2.071667E+03 -9.236720E+03
       365   9 -4.329291E+05 -9.803086E+04 -5.611187E+04 -1.249740E+05  2.688175E+03 -7.452752E+03
       365  10  4.506040E+04  8.152355E+04  6.589739E+04  6.697668E+03 -1.393847E-09  3.129090E-09
       365  11  2.328899E+04  6.383973E+04  6.029758E+04 -9.996017E+03 -5.924443E-11 -3.953428E-09
       365  12 -1.388855E+04  6.031819E+04  5.368743E+04 -9.493824E+03 -2.926367E-11  3.722342E-10
       365  13 -2.235347E+05 -1.956572E+04 -4.171435E+03 -6.697648E+04 -9.473109E-12 -4.247252E-09
       365  14 -2.157753E+05 -2.628989E+04 -2.173261E+03 -7.570767E+04 -2.576084E-09 -6.455907E-09
       365  15 -2.234298E+05 -1.885766E+04 -1.210324E+03 -6.724263E+04 -1.627447E-10  2.968522E-09
       365  16 -4.920591E+05 -1.206501E+05 -7.424611E+04 -1.406217E+05  2.345245E-09  1.027710E-09
       365  17 -4.547842E+05 -1.164159E+05 -6.464893E+04 -1.413965E+05 -4.048357E-10  1.291989E-09
       365  18 -4.329291E+05 -9.803092E+04 -5.611199E+04 -1.249740E+05  1.945954E-09 -9.490747E-11
       365  19  4.506044E+04  8.152369E+04  6.589763E+04  6.697668E+03 -6.179742E+01  1.148000E+04
       365  20  2.328902E+04  6.383983E+04  6.029776E+04 -9.996022E+03 -6.391154E+02  9.778033E+03
       365  21 -1.388853E+04  6.031826E+04  5.368756E+04 -9.493832E+03 -1.193597E+03  8.017949E+03
       365  22 -2.235347E+05 -1.956559E+04 -4.171197E+03 -6.697649E+04 -7.472783E+02  1.122119E+04
       365  23 -2.157753E+05 -2.628980E+04 -2.173088E+03 -7.570768E+04 -1.355543E+03  9.507319E+03
       365  24 -2.234298E+05 -1.885759E+04 -1.210204E+03 -6.724264E+04 -1.941023E+03  7.735299E+03
       365  25 -4.920590E+05 -1.206500E+05 -7.424588E+04 -1.406217E+05 -1.432432E+03  1.096249E+04
       365  26 -4.547842E+05 -1.164158E+05 -6.464877E+04 -1.413965E+05 -2.071667E+03  9.236720E+03
       365  27 -4.329291E+05 -9.803086E+04 -5.611187E+04 -1.249740E+05 -2.688175E+03  7.452752E+03
       366   1 -5.071214E+04  4.620573E+04  4.410481E+04 -1.964277E+04  1.080420E+03 -7.145879E+03
       366   2 -7.272288E+04  2.760369E+04  3.690841E+04 -3.634664E+04  8.114947E+02 -5.692459E+03
       366   3 -1.098879E+05  2.402463E+04  2.951017E+04 -3.593916E+04  5.398764E+02 -4.233208E+03
       366   4 -2.234061E+05 -1.892665E+04 -9.227522E+02 -6.716096E+04  1.812596E+03 -6.868886E+03
       366   5 -2.158214E+05 -2.639863E+04 -4.973222E+02 -7.573097E+04  1.546773E+03 -5.414171E+03
       366   6 -2.233930E+05 -1.884824E+04 -2.762755E+02 -6.718985E+04  1.278268E+03 -3.953618E+03
       366   7 -3.960711E+05 -8.405712E+04 -4.595282E+04 -1.146672E+05  2.544549E+03 -6.591978E+03
       366   8 -3.588999E+05 -8.039954E+04 -3.790472E+04 -1.151070E+05  2.281865E+03 -5.135955E+03
       366   9 -3.368852E+05 -6.172016E+04 -3.006372E+04 -9.843529E+04  2.016510E+03 -3.674085E+03
       366  10 -5.071215E+04  4.620568E+04  4.410472E+04 -1.964276E+04 -8.313393E-09 -6.051450E-09
       366  11 -7.272289E+04  2.760366E+04  3.690835E+04 -3.634664E+04 -1.944239E-09  1.525941E-09
       366  12 -1.098879E+05  2.402461E+04  2.951013E+04 -3.593915E+04  1.030668E-08  6.140307E-09
       366  13 -2.234061E+05 -1.892671E+04 -9.228470E+02 -6.716095E+04 -1.802767E-09  3.882865E-09
       366  14 -2.158215E+05 -2.639866E+04 -4.973818E+02 -7.573096E+04 -2.859465E-09  4.405920E-09
       366  15 -2.233930E+05 -1.884826E+04 -2.763080E+02 -6.718985E+04 -1.383453E-09  3.260190E-09
       366  16 -3.960711E+05 -8.405717E+04 -4.595292E+04 -1.146672E+05  5.589784E-09  1.217909E-08
       366  17 -3.588999E+05 -8.039957E+04 -3.790478E+04 -1.151070E+05 -2.835102E-09  7.865507E-09
       366  18 -3.368852E+05 -6.172017E+04 -3.006375E+04 -9.843529E+04 -9.602889E-09 -5.350279E-09
       366  19 -5.071214E+04  4.620573E+04  4.410481E+04 -1.964277E+04 -1.080420E+03  7.145879E+03
       366  20 -7.272288E+04  2.760369E+04  3.690841E+04 -3.634664E+04 -8.114947E+02  5.692459E+03
       366  21 -1.098879E+05  2.402463E+04  2.951017E+04 -3.593916E+04 -5.398764E+02  4.233208E+03
       366  22 -2.234061E+05 -1.892665E+04 -9.227522E+02 -6.716096E+04 -1.812596E+03  6.868886E+03
       366  23 -2.158214E+05 -2.639863E+04 -4.973222E+02 -7.573097E+04 -1.546773E+03  5.414171E+03
       366  24 -2.233930E+05 -1.884824E+04 -2.762755E+02 -6.718985E+04 -1.278268E+03  3.953618E+03
       366  25 -3.960711E+05 -8.405712E+04 -4.595282E+04 -1.146672E+05 -2.544549E+03  6.591978E+03
       366  26 -3.588999E+05 -8.039954E+04 -3.790472E+04 -1.151070E+05 -2.281865E+03  5.135955E+03
       366  27 -3.368852E+05 -6.172016E+04 -3.006372E+04 -9.843529E+04 -2.016510E+03  3.674085E+03
       367   1 -1.469672E+05  9.985711E+03  1.965778E+04 -4.612163E+04  2.781161E+02 -3.420820E+03
       367   2 -1.690453E+05 -8.760841E+03  1.210512E+04 -6.286820E+04 -1.789938E+02 -2.028907E+03
       367   3 -2.062945E+05 -1.236035E+04  4.503551E+03 -6.247203E+04 -6.357781E+02 -6.382564E+02
       367   4 -2.233979E+05 -1.884646E+04 -2.113670E+02 -6.717205E+04  1.016481E+03 -3.141184E+03
       367   5 -2.158113E+05 -2.641575E+04 -1.213096E+02 -7.574494E+04  5.586866E+02 -1.749490E+03
       367   6 -2.233961E+05 -1.883762E+04 -7.941138E+01 -6.717519E+04  1.012194E+02 -3.590552E+02
       367   7 -2.998231E+05 -4.767835E+04 -2.008107E+04 -8.822019E+04  1.754749E+03 -2.861585E+03
       367   8 -2.625753E+05 -4.407054E+04 -1.234794E+04 -8.862082E+04  1.296307E+03 -1.470096E+03
       367   9 -2.404974E+05 -2.531486E+04 -4.662397E+03 -7.187823E+04  8.381946E+02 -7.986236E+01
       367  10 -1.469672E+05  9.985698E+03  1.965776E+04 -4.612163E+04  9.954420E-10  4.237843E-09
       367  11 -1.690453E+05 -8.760845E+03  1.210511E+04 -6.286820E+04 -2.607414E-09  5.488450E-10
       367  12 -2.062945E+05 -1.236035E+04  4.503549E+03 -6.247203E+04 -2.782489E-10 -6.896947E-09
       367  13 -2.233979E+05 -1.884647E+04 -2.113875E+02 -6.717205E+04  3.091072E-10 -2.209718E-09
       367  14 -2.158113E+05 -2.641575E+04 -1.213159E+02 -7.574494E+04 -3.019590E-09  4.604403E-09
       367  15 -2.233961E+05 -1.883762E+04 -7.941164E+01 -6.717519E+04 -2.295819E-09  4.095368E-09
       367  16 -2.998231E+05 -4.767836E+04 -2.008109E+04 -8.822019E+04  2.091676E-09 -6.596836E-09
       367  17 -2.625753E+05 -4.407054E+04 -1.234795E+04 -8.862082E+04  5.043680E-09  5.890537E-10
       367  18 -2.404974E+05 -2.531486E+04 -4.662399E+03 -7.187823E+04 -7.633827E-10  4.145402E-09
       367  19 -1.469672E+05  9.985711E+03  1.965778E+04 -4.612163E+04 -2.781161E+02  3.420820E+03
       367  20 -1.690453E+05 -8.760841E+03  1.210512E+04 -6.286820E+04  1.789938E+02  2.028907E+03
       367  21 -2.062945E+05 -1.236035E+04  4.503551E+03 -6.247203E+04  6.357781E+02  6.382564E+02
       367  22 -2.233979E+05 -1.884646E+04 -2.113670E+02 -6.717205E+04 -1.016481E+03  3.141184E+03
       367  23 -2.158113E+05 -2.641575E+04 -1.213096E+02 -7.574494E+04 -5.586866E+02  1.749490E+03
       367  24 -2.233961E+05 -1.883762E+04 -7.941138E+01 -6.717519E+04 -1.012194E+02  3.590552E+02
       367  25 -2.998231E+05 -4.767835E+04 -2.008107E+04 -8.822019E+04 -1.754749E+03  2.861585E+03
       367  26 -2.625753E+05 -4.407054E+04 -1.234794E+04 -8.862082E+04 -1.296307E+03  1.470096E+03
       367  27 -2.404974E+05 -2.531486E+04 -4.662397E+03 -7.187823E+04 -8.381946E+02  7.986236E+01
       368   1 -2.434229E+05 -2.641811E+04 -5.417771E+03 -7.268421E+04 -9.372041E+02  1.648423E+02
       368   2 -2.655023E+05 -4.517053E+04 -1.305860E+04 -8.942254E+04 -1.403024E+03  1.552834E+03
       368   3 -3.027509E+05 -4.878824E+04 -2.074413E+04 -8.901623E+04 -1.855853E+03  2.907027E+03
       368   4 -2.233945E+05 -1.883656E+04 -6.956124E+01 -6.717602E+04 -1.904726E+02  4.477294E+02
       368   5 -2.158131E+05 -2.641486E+04 -6.799068E+01 -7.574477E+04 -6.745456E+02  1.828760E+03
       368   6 -2.233979E+05 -1.885499E+04 -9.655155E+01 -6.716937E+04 -1.145628E+03  3.176001E+03
       368   7 -2.033658E+05 -1.125501E+04  5.278599E+03 -6.166769E+04  5.562831E+02  7.306257E+02
       368   8 -1.661215E+05 -7.659033E+03  1.292241E+04 -6.206602E+04  5.399670E+01  2.104711E+03
       368   9 -1.440385E+05  1.107876E+04  2.055056E+04 -4.531991E+04 -4.353011E+02  3.445013E+03
       368  10 -2.434229E+05 -2.641811E+04 -5.417773E+03 -7.268421E+04  3.583498E-09 -3.275527E-09
       368  11 -2.655023E+05 -4.517053E+04 -1.305861E+04 -8.942254E+04 -1.434222E-10 -8.314652E-09
       368  12 -3.027509E+05 -4.878825E+04 -2.074415E+04 -8.901623E+04 -1.884928E-09  4.231940E-09
       368  13 -2.233945E+05 -1.883656E+04 -6.956168E+01 -6.717602E+04 -8.849602E-10  4.444835E-10
       368  14 -2.158131E+05 -2.641486E+04 -6.799782E+01 -7.574477E+04 -1.022622E-09 -1.936411E-09
       368  15 -2.233979E+05 -1.885500E+04 -9.657297E+01 -6.716936E+04 -1.409314E-09  8.404590E-10
       368  16 -2.033658E+05 -1.125501E+04  5.278597E+03 -6.166769E+04 -5.897954E-09  6.884498E-09
       368  17 -1.661215E+05 -7.659038E+03  1.292240E+04 -6.206602E+04 -2.608011E-10 -2.659199E-09
       368  18 -1.440385E+05  1.107875E+04  2.055054E+04 -4.531991E+04 -2.727218E-09  3.264297E-09
       368  19 -2.434229E+05 -2.641811E+04 -5.417771E+03 -7.268421E+04  9.372041E+02 -1.648423E+02
       368  20 -2.655023E+05 -4.517053E+04 -1.305860E+04 -8.942254E+04  1.403024E+03 -1.552834E+03
       368  21 -3.027509E+05 -4.878824E+04 -2.074413E+04 -8.901623E+04  1.855853E+03 -2.907027E+03
       368  22 -2.233945E+05 -1.883656E+04 -6.956124E+01 -6.717602E+04  1.904726E+02 -4.477294E+02
       368  23 -2.158131E+05 -2.641486E+04 -6.799068E+01 -7.574477E+04  6.745456E+02 -1.828760E+03
       368  24 -2.233979E+05 -1.885499E+04 -9.655155E+01 -6.716937E+04  1.145628E+03 -3.176001E+03
       368  25 -2.033658E+05 -1.125501E+04  5.278599E+03 -6.166769E+04 -5.562831E+02 -7.306257E+02
       368  26 -1.661215E+05 -7.659033E+03  1.292241E+04 -6.206602E+04 -5.399670E+01 -2.104711E+03
       368  27 -1.440385E+05  1.107876E+04  2.055056E+04 -4.531991E+04  4.353011E+02 -3.445013E+03
       369   1 -3.398013E+05 -6.282479E+04 -3.065502E+04 -9.924990E+04 -2.308068E+03  3.721977E+03
       369   2 -3.618206E+05 -8.147359E+04 -3.835838E+04 -1.158920E+05 -2.456705E+03  5.199261E+03
       369   3 -3.990373E+05 -8.523923E+04 -4.638122E+04 -1.154014E+05 -2.422937E+03  6.195917E+03
       369   4 -2.233878E+05 -1.884627E+04 -1.150520E+02 -6.719341E+04 -1.455450E+03  4.044821E+03
       369   5 -2.158263E+05 -2.638978E+04 -1.945445E+02 -7.573091E+04 -1.863193E+03  5.423864E+03
       369   6 -2.234115E+05 -1.899903E+04 -3.878776E+02 -6.713634E+04 -2.088534E+03  6.322345E+03
       369   7 -1.069613E+05  2.513310E+04  3.042376E+04 -3.513149E+04 -6.026562E+02  4.367732E+03
       369   8 -6.981154E+04  2.869530E+04  3.796743E+04 -3.556134E+04 -1.269529E+03  5.648524E+03
       369   9 -4.775628E+04  4.724291E+04  4.560270E+04 -1.885909E+04 -1.754028E+03  6.448811E+03
       369  10 -3.398013E+05 -6.282480E+04 -3.065506E+04 -9.924990E+04  1.950387E-09  4.207698E-09
       369  11 -3.618206E+05 -8.147362E+04 -3.835845E+04 -1.158920E+05 -6.584411E-10 -3.340208E-09
       369  12 -3.990373E+05 -8.523927E+04 -4.638131E+04 -1.154014E+05 -3.343103E-09 -8.854648E-09
       369  13 -2.233878E+05 -1.884629E+04 -1.150867E+02 -6.719340E+04 -1.895706E-10 -6.329120E-09
       369  14 -2.158263E+05 -2.638981E+04 -1.946063E+02 -7.573090E+04 -1.619137E-10  1.591479E-08
       369  15 -2.234115E+05 -1.899907E+04 -3.879609E+02 -6.713633E+04 -9.658693E-10 -9.330312E-10
       369  16 -1.069613E+05  2.513308E+04  3.042373E+04 -3.513149E+04 -3.708215E-09  2.777582E-09
       369  17 -6.981155E+04  2.869527E+04  3.796736E+04 -3.556133E+04  2.765471E-09  3.907799E-09
       369  18 -4.775630E+04  4.724287E+04  4.560261E+04 -1.885908E+04  1.601311E-09  5.116636E-09
       369  19 -3.398013E+05 -6.282479E+04 -3.065502E+04 -9.924990E+04  2.308068E+03 -3.721977E+03
       369  20 -3.618206E+05 -8.147359E+04 -3.835838E+04 -1.158920E+05  2.456705E+03 -5.199261E+03
       369  21 -3.990373E+05 -8.523923E+04 -4.638122E+04 -1.154014E+05  2.422937E+03 -6.195917E+03
       369  22 -2.233878E+05 -1.884627E+04 -1.150520E+02 -6.719341E+04  1.455450E+03 -4.044821E+03
       369  23 -2.158263E+05 -2.638978E+04 -1.945445E+02 -7.573091E+04  1.863193E+03 -5.423864E+03
       369  24 -2.234115E+05 -1.899903E+04 -3.878776E+02 -6.713634E+04  2.088534E+03 -6.322345E+03
       369  25 -1.069613E+05  2.513310E+04  3.042376E+04 -3.513149E+04  6.026562E+02 -4.367732E+03
       369  26 -6.981154E+04  2.869530E+04  3.796743E+04 -3.556134E+04  1.269529E+03 -5.648524E+03
       369  27 -4.775628E+04  4.724291E+04  4.560270E+04 -1.885909E+04  1.754028E+03 -6.448811E+03
       370   1 -4.358265E+05 -9.917608E+04 -5.597123E+04 -1.259247E+05 -5.086465E+03  7.188308E+03
       370   2 -4.575844E+05 -1.172271E+05 -6.394651E+04 -1.420192E+05 -1.292431E+03  9.757368E+03
       370   3 -4.955487E+05 -1.228040E+05 -7.564501E+04 -1.408374E+05  5.121483E+03  5.397807E+03
       370   4 -2.234122E+05 -1.885980E+04 -4.741661E+02 -6.730347E+04 -2.684913E+03  8.096906E+03
       370   5 -2.157810E+05 -2.616869E+04 -8.012073E+02 -7.567689E+04 -2.624604E+03  9.253170E+03
       370   6 -2.236153E+05 -2.026210E+04 -1.888564E+03 -6.677431E+04  5.522083E+01  3.482191E+03
       370   7 -1.095314E+04  6.145980E+04  5.501937E+04 -8.663842E+03 -2.824474E+02  9.005852E+03
       370   8  2.607881E+04  6.489337E+04  6.233910E+04 -9.311362E+03 -3.957345E+03  8.748758E+03
       370   9  4.838737E+04  8.228340E+04  7.186089E+04  7.317413E+03 -5.013457E+03  1.565672E+03
       370  10 -4.358266E+05 -9.917614E+04 -5.597137E+04 -1.259247E+05  8.340588E-09  3.786840E-10
       370  11 -4.575844E+05 -1.172272E+05 -6.394669E+04 -1.420191E+05  7.079988E-09  1.740973E-08
       370  12 -4.955487E+05 -1.228040E+05 -7.564511E+04 -1.408374E+05 -8.729210E-10  5.689373E-09
       370  13 -2.234122E+05 -1.885987E+04 -4.743029E+02 -6.730345E+04  2.356047E-09  2.732636E-09
       370  14 -2.157811E+05 -2.616878E+04 -8.013811E+02 -7.567687E+04  4.842764E-09  5.008139E-09
       370  15 -2.236153E+05 -2.026211E+04 -1.888586E+03 -6.677431E+04  2.322090E-09  3.308311E-09
       370  16 -1.095316E+04  6.145971E+04  5.501922E+04 -8.663840E+03 -7.538044E-09  2.486480E-10
       370  17  2.607877E+04  6.489329E+04  6.233893E+04 -9.311335E+03  2.272398E-09  2.877687E-09
       370  18  4.838734E+04  8.228339E+04  7.186084E+04  7.317419E+03  4.393184E-09  2.918702E-09
       370  19 -4.358265E+05 -9.917608E+04 -5.597123E+04 -1.259247E+05  5.086465E+03 -7.188308E+03
       370  20 -4.575844E+05 -1.172271E+05 -6.394651E+04 -1.420192E+05  1.292431E+03 -9.757368E+03
       370  21 -4.955487E+05 -1.228040E+05 -7.564501E+04 -1.408374E+05 -5.121483E+03 -5.397807E+03
       370  22 -2.234122E+05 -1.885980E+04 -4.741661E+02 -6.730347E+04  2.684913E+03 -8.096906E+03
       370  23 -2.157810E+05 -2.616869E+04 -8.012073E+02 -7.567689E+04  2.624604E+03 -9.253170E+03
       370  24 -2.236153E+05 -2.026210E+04 -1.888564E+03 -6.677431E+04 -5.522083E+01 -3.482191E+03
       370  25 -1.095314E+04  6.145980E+04  5.501937E+04 -8.663842E+03  2.824474E+02 -9.005852E+03
       370  26  2.607881E+04  6.489337E+04  6.233910E+04 -9.311362E+03  3.957345E+03 -8.748758E+03
       370  27  4.838737E+04  8.228340E+04  7.186089E+04  7.317413E+03  5.013457E+03 -1.565672E+03
       371   1 -3.244107E+04  3.021351E+04  4.289868E+03 -1.326515E+04 -7.297395E+04 -5.680954E+03
       371   2 -5.591174E+04  1.276274E+05  5.787146E+04 -2.387593E+03 -5.110727E+04 -1.675171E+04
       371   3 -1.104634E+05  1.120701E+05  6.900224E+04  3.369186E+04 -2.927727E+04 -1.587842E+04
       371   4 -5.417027E+05 -9.649813E+04 -1.209661E+05  1.936981E+04 -8.277845E+04 -5.713295E+03
       371   5 -5.255356E+05  1.150504E+04 -5.333477E+04  6.616886E+03 -5.405353E+04 -1.676252E+04
       371   6 -5.416684E+05  5.297259E+03 -3.294407E+04  1.906779E+04 -2.536352E+04 -1.586537E+04
       371   7 -1.050726E+06 -2.232249E+05 -2.462403E+05  5.197780E+04 -9.257489E+04 -5.746683E+03
       371   8 -9.949564E+05 -1.046328E+05 -1.645562E+05  1.561436E+04 -5.699755E+04 -1.677343E+04
       371   9 -9.727020E+05 -1.014881E+05 -1.349031E+05  4.453799E+03 -2.145247E+04 -1.585250E+04
       371  10 -3.244680E+04  3.021205E+04  4.279799E+03 -1.326549E+04 -5.828419E-09  3.704756E-09
       371  11 -5.591462E+04  1.276264E+05  5.786603E+04 -2.388282E+03  3.778170E-10  9.822342E-09
       371  12 -1.104644E+05  1.120696E+05  6.900015E+04  3.369148E+04  2.448265E-09  3.436888E-09
       371  13 -5.417101E+05 -9.650001E+04 -1.209791E+05  1.936943E+04 -7.003251E-10 -3.388914E-09
       371  14 -5.255388E+05  1.150396E+04 -5.334079E+04  6.616156E+03  1.488662E-09 -1.106359E-08
       371  15 -5.416692E+05  5.296816E+03 -3.294575E+04  1.906747E+04 -4.707325E-10 -3.754839E-10
       371  16 -1.050735E+06 -2.232272E+05 -2.462565E+05  5.197737E+04  5.501541E-09  3.299256E-09
       371  17 -9.949600E+05 -1.046340E+05 -1.645629E+05  1.561359E+04 -1.700952E-09  1.040899E-08
       371  18 -9.727025E+05 -1.014885E+05 -1.349044E+05  4.453525E+03 -3.873379E-09 -1.895698E-09
       371  19 -3.244107E+04  3.021351E+04  4.289868E+03 -1.326515E+04  7.297395E+04  5.680954E+03
       371  20 -5.591174E+04  1.276274E+05  5.787146E+04 -2.387593E+03  5.110727E+04  1.675171E+04
       371  21 -1.104634E+05  1.120701E+05  6.900224E+04  3.369186E+04  2.927727E+04  1.587842E+04
       371  22 -5.417027E+05 -9.649813E+04 -1.209661E+05  1.936981E+04  8.277845E+04  5.713295E+03
       371  23 -5.255356E+05  1.150504E+04 -5.333477E+04  6.616886E+03  5.405353E+04  1.676252E+04
       371  24 -5.416684E+05  5.297259E+03 -3.294407E+04  1.906779E+04  2.536352E+04  1.586537E+04
       371  25 -1.050726E+06 -2.232249E+05 -2.462403E+05  5.197780E+04  9.257489E+04  5.746683E+03
       371  26 -9.949564E+05 -1.046328E+05 -1.645562E+05  1.561436E+04  5.699755E+04  1.677343E+04
       371  27 -9.727020E+05 -1.014881E+05 -1.349031E+05  4.453799E+03  2.145247E+04  1.585250E+04
       372   1 -1.499047E+05  8.637096E+04  6.467041E+04  1.752619E+04 -2.065040E+04 -1.325379E+04
       372   2 -1.876038E+05  8.675003E+04  6.807875E+04  6.632637E+03 -1.404858E+04 -1.232971E+04
       372   3 -2.289544E+05  7.647859E+04  6.449943E+04  2.156792E+04 -7.450984E+03 -1.063650E+04
       372   4 -5.353163E+05 -9.008577E+03 -2.677140E+04  1.932336E+04 -2.034448E+04 -1.325337E+04
       372   5 -5.334451E+05  1.179506E+03 -1.381062E+04  6.391233E+03 -1.330370E+04 -1.232746E+04
       372   6 -5.353061E+05  6.371855E+02 -8.145850E+03  1.928900E+04 -6.266747E+03 -1.063228E+04
       372   7 -9.205913E+05 -1.043988E+05 -1.182236E+05  2.111930E+04 -2.003874E+04 -1.325294E+04
       372   8 -8.791763E+05 -8.439961E+04 -9.570830E+04  6.149864E+03 -1.255924E+04 -1.232521E+04
       372   9 -8.415714E+05 -7.521095E+04 -8.079765E+04  1.701112E+04 -5.083091E+03 -1.062806E+04
       372  10 -1.499052E+05  8.637066E+04  6.466928E+04  1.752597E+04 -2.412839E-09 -4.284042E-09
       372  11 -1.876041E+05  8.674981E+04  6.807809E+04  6.632497E+03 -1.233952E-09  7.531283E-10
       372  12 -2.289545E+05  7.647845E+04  6.449911E+04  2.156786E+04  9.417355E-10  1.030557E-08
       372  13 -5.353167E+05 -9.008876E+03 -2.677251E+04  1.932315E+04 -4.308237E-10  7.634259E-09
       372  14 -5.334453E+05  1.179295E+03 -1.381124E+04  6.391101E+03  2.182516E-09 -2.626816E-08
       372  15 -5.353061E+05  6.370536E+02 -8.146136E+03  1.928894E+04 -1.853519E-09  9.128215E-09
       372  16 -9.205918E+05 -1.043991E+05 -1.182246E+05  2.111909E+04  3.043073E-09 -1.166377E-08
       372  17 -8.791765E+05 -8.439981E+04 -9.570889E+04  6.149740E+03  8.214671E-10 -6.087054E-09
       372  18 -8.415715E+05 -7.521108E+04 -8.079792E+04  1.701108E+04 -2.186909E-09  1.782272E-09
       372  19 -1.499047E+05  8.637096E+04  6.467041E+04  1.752619E+04  2.065040E+04  1.325379E+04
       372  20 -1.876038E+05  8.675003E+04  6.807875E+04  6.632637E+03  1.404858E+04  1.232971E+04
       372  21 -2.289544E+05  7.647859E+04  6.449943E+04  2.156792E+04  7.450984E+03  1.063650E+04
       372  22 -5.353163E+05 -9.008577E+03 -2.677140E+04  1.932336E+04  2.034448E+04  1.325337E+04
       372  23 -5.334451E+05  1.179506E+03 -1.381062E+04  6.391233E+03  1.330370E+04  1.232746E+04
       372  24 -5.353061E+05  6.371855E+02 -8.145850E+03  1.928900E+04  6.266747E+03  1.063228E+04
       372  25 -9.205913E+05 -1.043988E+05 -1.182236E+05  2.111930E+04  2.003874E+04  1.325294E+04
       372  26 -8.791763E+05 -8.439961E+04 -9.570830E+04  6.149864E+03  1.255924E+04  1.232521E+04
       372  27 -8.415714E+05 -7.521095E+04 -8.079765E+04  1.701112E+04  5.083091E+03  1.062806E+04
       373   1 -2.747787E+05  6.358064E+04  5.507599E+04  1.998257E+04 -5.951509E+03 -9.519845E+03
       373   2 -3.144750E+05  5.456815E+04  4.853694E+04  6.950497E+03 -4.232611E+03 -7.824533E+03
       373   3 -3.548217E+05  4.473302E+04  4.062458E+04  2.009530E+04 -2.514740E+03 -6.074284E+03
       373   4 -5.346161E+05 -6.971170E+02 -6.351333E+03  1.937920E+04 -4.993708E+03 -9.516344E+03
       373   5 -5.342852E+05  1.724508E+02 -3.514010E+03  6.288632E+03 -3.243867E+03 -7.820723E+03
       373   6 -5.346114E+05  2.139807E+02 -2.071734E+03  1.937551E+04 -1.494942E+03 -6.070150E+03
       373   7 -7.943915E+05 -6.497972E+04 -6.778333E+04  1.877602E+04 -4.036306E+03 -9.512844E+03
       373   8 -7.540510E+05 -5.422672E+04 -5.556831E+04  5.626958E+03 -2.255471E+03 -7.816914E+03
       373   9 -7.143713E+05 -4.430739E+04 -4.477030E+04  1.865591E+04 -4.754384E+02 -6.066019E+03
       373  10 -2.747788E+05  6.358054E+04  5.507575E+04  1.998252E+04  3.685341E-09 -2.989742E-09
       373  11 -3.144750E+05  5.456808E+04  4.853679E+04  6.950470E+03  8.035792E-10 -5.045656E-09
       373  12 -3.548218E+05  4.473298E+04  4.062450E+04  2.009528E+04 -1.490668E-09 -5.458101E-09
       373  13 -5.346162E+05 -6.972209E+02 -6.351550E+03  1.937916E+04 -7.415972E-12 -2.419021E-09
       373  14 -5.342853E+05  1.723823E+02 -3.514145E+03  6.288611E+03  1.022587E-09 -8.059837E-09
       373  15 -5.346114E+05  2.139405E+02 -2.071807E+03  1.937550E+04 -6.213526E-10 -6.802236E-09
       373  16 -7.943915E+05 -6.497982E+04 -6.778353E+04  1.877599E+04 -5.095239E-09 -4.611752E-09
       373  17 -7.540511E+05 -5.422679E+04 -5.556844E+04  5.626943E+03 -2.195097E-09  6.299851E-09
       373  18 -7.143713E+05 -4.430743E+04 -4.477037E+04  1.865590E+04 -5.103753E-10  9.093669E-09
       373  19 -2.747787E+05  6.358064E+04  5.507599E+04  1.998257E+04  5.951509E+03  9.519845E+03
       373  20 -3.144750E+05  5.456815E+04  4.853694E+04  6.950497E+03  4.232611E+03  7.824533E+03
       373  21 -3.548217E+05  4.473302E+04  4.062458E+04  2.009530E+04  2.514740E+03  6.074284E+03
       373  22 -5.346161E+05 -6.971170E+02 -6.351333E+03  1.937920E+04  4.993708E+03  9.516344E+03
       373  23 -5.342852E+05  1.724508E+02 -3.514010E+03  6.288632E+03  3.243867E+03  7.820723E+03
       373  24 -5.346114E+05  2.139807E+02 -2.071734E+03  1.937551E+04  1.494942E+03  6.070150E+03
       373  25 -7.943915E+05 -6.497972E+04 -6.778333E+04  1.877602E+04  4.036306E+03  9.512844E+03
       373  26 -7.540510E+05 -5.422672E+04 -5.556831E+04  5.626958E+03  2.255471E+03  7.816914E+03
       373  27 -7.143713E+05 -4.430739E+04 -4.477030E+04  1.865591E+04  4.754384E+02  6.066019E+03
       374   1 -4.017266E+05  3.293661E+04  2.970969E+04  1.984603E+04 -2.175281E+03 -5.046642E+03
       374   2 -4.418801E+05  2.296933E+04  2.090071E+04  6.543575E+03 -1.687872E+03 -3.292860E+03
       374   3 -4.823384E+05  1.311936E+04  1.174443E+04  1.960379E+04 -1.200829E+03 -1.533402E+03
       374   4 -5.345297E+05  9.428233E+01 -1.619614E+03  1.941805E+04 -1.168289E+03 -5.042470E+03
       374   5 -5.343753E+05  7.781085E+01 -1.003774E+03  6.236399E+03 -6.777369E+02 -3.288595E+03
       374   6 -5.345278E+05  1.781975E+02 -7.374060E+02  1.941765E+04 -1.875190E+02 -1.529040E+03
       374   7 -6.673164E+05 -3.274931E+04 -3.295013E+04  1.899015E+04 -1.615106E+02 -5.038298E+03
       374   8 -6.268625E+05 -2.281432E+04 -2.290885E+04  5.929262E+03  3.322488E+02 -3.284331E+03
       374   9 -5.867147E+05 -1.276317E+04 -1.321943E+04  1.923153E+04  8.257064E+02 -1.524678E+03
       374  10 -4.017267E+05  3.293659E+04  2.970963E+04  1.984602E+04 -2.137154E-09 -1.172390E-08
       374  11 -4.418801E+05  2.296932E+04  2.090069E+04  6.543570E+03 -2.094042E-09 -4.610975E-10
       374  12 -4.823384E+05  1.311936E+04  1.174442E+04  1.960379E+04 -2.610853E-09 -1.481114E-09
       374  13 -5.345297E+05  9.425467E+01 -1.619664E+03  1.941805E+04  5.551079E-10 -1.226578E-10
       374  14 -5.343753E+05  7.779912E+01 -1.003795E+03  6.236398E+03  7.292157E-10 -7.865304E-09
       374  15 -5.345278E+05  1.781950E+02 -7.374104E+02  1.941765E+04  5.103476E-10 -6.565403E-09
       374  16 -6.673164E+05 -3.274934E+04 -3.295018E+04  1.899015E+04  2.471795E-10  1.162233E-09
       374  17 -6.268625E+05 -2.281433E+04 -2.290887E+04  5.929262E+03  7.568873E-10  1.434998E-08
       374  18 -5.867147E+05 -1.276317E+04 -1.321944E+04  1.923153E+04  1.313728E-09  1.718359E-09
       374  19 -4.017266E+05  3.293661E+04  2.970969E+04  1.984603E+04  2.175281E+03  5.046642E+03
       374  20 -4.418801E+05  2.296933E+04  2.090071E+04  6.543575E+03  1.687872E+03  3.292860E+03
       374  21 -4.823384E+05  1.311936E+04  1.174443E+04  1.960379E+04  1.200829E+03  1.533402E+03
       374  22 -5.345297E+05  9.428233E+01 -1.619614E+03  1.941805E+04  1.168289E+03  5.042470E+03
       374  23 -5.343753E+05  7.781085E+01 -1.003774E+03  6.236399E+03  6.777369E+02  3.288595E+03
       374  24 -5.345278E+05  1.781975E+02 -7.374060E+02  1.941765E+04  1.875190E+02  1.529040E+03
       374  25 -6.673164E+05 -3.274931E+04 -3.295013E+04  1.899015E+04  1.615106E+02  5.038298E+03
       374  26 -6.268625E+05 -2.281432E+04 -2.290885E+04  5.929262E+03 -3.322488E+02  3.284331E+03
       374  27 -5.867147E+05 -1.276317E+04 -1.321943E+04  1.923153E+04 -8.257064E+02  1.524678E+03
       375   1 -5.295148E+05  1.389768E+03  3.709100E+02  1.943525E+04 -1.076399E+03 -5.078939E+02
       375   2 -5.697245E+05 -8.673192E+03 -9.132594E+03  6.108580E+03 -7.044063E+02  1.252649E+03
       375   3 -6.102244E+05 -1.858508E+04 -1.890187E+04  1.917955E+04 -3.323094E+02  3.009571E+03
       375   4 -5.345237E+05  1.745076E+02 -6.933676E+02  1.942539E+04 -6.288805E+01 -5.035134E+02
       375   5 -5.343781E+05  7.532916E+01 -7.612925E+02  6.226723E+03  3.069967E+02  1.256987E+03
       375   6 -5.345244E+05  1.275473E+02 -1.093579E+03  1.942560E+04  6.770099E+02  3.013872E+03
       375   7 -5.395326E+05 -1.040754E+03 -1.757643E+03  1.941553E+04  9.506150E+02 -4.991329E+02
       375   8 -4.990306E+05  8.823761E+03  7.609926E+03  6.344871E+03  1.318457E+03  1.261324E+03
       375   9 -4.588192E+05  1.883977E+04  1.671432E+04  1.967166E+04  1.686452E+03  3.018172E+03
       375  10 -5.295148E+05  1.389768E+03  3.709073E+02  1.943525E+04 -1.056320E-08 -9.029844E-10
       375  11 -5.697245E+05 -8.673194E+03 -9.132597E+03  6.108581E+03 -5.797451E-09 -7.346442E-09
       375  12 -6.102244E+05 -1.858509E+04 -1.890189E+04  1.917955E+04 -1.035105E-08 -2.655281E-09
       375  13 -5.345237E+05  1.745073E+02 -6.933681E+02  1.942539E+04  1.605017E-10  7.213178E-09
       375  14 -5.343781E+05  7.532744E+01 -7.612957E+02  6.226723E+03  1.163585E-09 -5.808144E-09
       375  15 -5.345244E+05  1.275374E+02 -1.093597E+03  1.942559E+04 -4.225636E-10 -1.376364E-08
       375  16 -5.395326E+05 -1.040755E+03 -1.757645E+03  1.941553E+04  8.167077E-09 -1.715202E-09
       375  17 -4.990306E+05  8.823759E+03  7.609919E+03  6.344870E+03  5.595658E-09 -2.025318E-08
       375  18 -4.588192E+05  1.883976E+04  1.671430E+04  1.967166E+04  9.674413E-09 -1.295196E-08
       375  19 -5.295148E+05  1.389768E+03  3.709100E+02  1.943525E+04  1.076399E+03  5.078939E+02
       375  20 -5.697245E+05 -8.673192E+03 -9.132594E+03  6.108580E+03  7.044063E+02 -1.252649E+03
       375  21 -6.102244E+05 -1.858508E+04 -1.890187E+04  1.917955E+04  3.323094E+02 -3.009571E+03
       375  22 -5.345237E+05  1.745076E+02 -6.933676E+02  1.942539E+04  6.288805E+01  5.035134E+02
       375  23 -5.343781E+05  7.532916E+01 -7.612925E+02  6.226723E+03 -3.069967E+02 -1.256987E+03
       375  24 -5.345244E+05  1.275473E+02 -1.093579E+03  1.942560E+04 -6.770099E+02 -3.013872E+03
       375  25 -5.395326E+05 -1.040754E+03 -1.757643E+03  1.941553E+04 -9.506150E+02  4.991329E+02
       375  26 -4.990306E+05  8.823761E+03  7.609926E+03  6.344871E+03 -1.318457E+03 -1.261324E+03
       375  27 -4.588192E+05  1.883977E+04  1.671432E+04  1.967166E+04 -1.686452E+03 -3.018172E+03
       376   1 -6.573728E+05 -3.021767E+04 -3.056597E+04  1.890773E+04 -1.284902E+02  4.038865E+03
       376   2 -6.972891E+05 -4.020424E+04 -4.084168E+04  5.756648E+03  1.012179E+03  5.793763E+03
       376   3 -7.377135E+05 -5.063421E+04 -5.202619E+04  1.888152E+04  2.153529E+03  7.500508E+03
       376   4 -5.345741E+05  2.027122E+02 -1.359881E+03  1.939762E+04  8.926924E+02  4.043156E+03
       376   5 -5.343238E+05  1.337217E+02 -2.242601E+03  6.261065E+03  2.005892E+03  5.797793E+03
       376   6 -5.345776E+05 -3.735089E+02 -4.014585E+03  1.940003E+04  3.119847E+03  7.504288E+03
       376   7 -4.117616E+05  3.062200E+04  2.784516E+04  1.988760E+04  1.914076E+03  4.047449E+03
       376   8 -3.713340E+05  4.046977E+04  3.635464E+04  6.765590E+03  2.999866E+03  5.801824E+03
       376   9 -3.314037E+05  4.988423E+04  4.399416E+04  1.991868E+04  4.086479E+03  7.508068E+03
       376  10 -6.573728E+05 -3.021768E+04 -3.056600E+04  1.890773E+04 -1.015023E-08 -1.969544E-09
       376  11 -6.972891E+05 -4.020427E+04 -4.084175E+04  5.756643E+03 -2.697364E-09 -8.446363E-09
       376  12 -7.377135E+05 -5.063427E+04 -5.202630E+04  1.888151E+04  1.836272E-09  1.824917E-09
       376  13 -5.345741E+05  2.026944E+02 -1.359913E+03  1.939762E+04 -1.081951E-09 -5.247427E-09
       376  14 -5.343238E+05  1.336845E+02 -2.242671E+03  6.261056E+03  1.366242E-09 -6.363103E-09
       376  15 -5.345776E+05 -3.735720E+02 -4.014709E+03  1.940001E+04 -5.379676E-10  3.710863E-09
       376  16 -4.117616E+05  3.062199E+04  2.784512E+04  1.988759E+04  8.709916E-09 -6.406755E-10
       376  17 -3.713341E+05  4.046973E+04  3.635456E+04  6.765576E+03  1.024030E-09 -7.749631E-09
       376  18 -3.314037E+05  4.988417E+04  4.399403E+04  1.991866E+04 -2.524062E-09  1.336230E-08
       376  19 -6.573728E+05 -3.021767E+04 -3.056597E+04  1.890773E+04  1.284902E+02 -4.038865E+03
       376  20 -6.972891E+05 -4.020424E+04 -4.084168E+04  5.756648E+03 -1.012179E+03 -5.793763E+03
       376  21 -7.377135E+05 -5.063421E+04 -5.202619E+04  1.888152E+04 -2.153529E+03 -7.500508E+03
       376  22 -5.345741E+05  2.027122E+02 -1.359881E+03  1.939762E+04 -8.926924E+02 -4.043156E+03
       376  23 -5.343238E+05  1.337217E+02 -2.242601E+03  6.261065E+03 -2.005892E+03 -5.797793E+03
       376  24 -5.345776E+05 -3.735089E+02 -4.014585E+03  1.940003E+04 -3.119847E+03 -7.504288E+03
       376  25 -4.117616E+05  3.062200E+04  2.784516E+04  1.988760E+04 -1.914076E+03 -4.047449E+03
       376  26 -3.713340E+05  4.046977E+04  3.635464E+04  6.765590E+03 -2.999866E+03 -5.801824E+03
       376  27 -3.314037E+05  4.988423E+04  4.399416E+04  1.991868E+04 -4.086479E+03 -7.508068E+03
       377   1 -7.848849E+05 -6.141660E+04 -6.443231E+04  1.770092E+04  2.752394E+03  8.609119E+03
       377   2 -8.234051E+05 -7.092146E+04 -7.729752E+04  5.950552E+03  7.575746E+03  1.031418E+04
       377   3 -8.644158E+05 -8.716696E+04 -9.503035E+04  2.020088E+04  1.240224E+04  1.133036E+04
       377   4 -5.350091E+05  4.666668E+02 -5.138324E+03  1.933023E+04  3.921812E+03  8.613584E+03
       377   5 -5.338020E+05  7.633644E+02 -8.697631E+03  6.341684E+03  8.350627E+03  1.031683E+04
       377   6 -5.350170E+05 -5.610030E+03 -1.684858E+04  1.935316E+04  1.278289E+04  1.133133E+04
       377   7 -2.850760E+05  6.234545E+04  5.415131E+04  2.096014E+04  5.091698E+03  8.618054E+03
       377   8 -2.441218E+05  7.244216E+04  5.989643E+04  6.732926E+03  9.125866E+03  1.031949E+04
       377   9 -2.055183E+05  7.593910E+04  6.132564E+04  1.850489E+04  1.316374E+04  1.133231E+04
       377  10 -7.848849E+05 -6.141669E+04 -6.443246E+04  1.770090E+04  4.263006E-09  4.706783E-09
       377  11 -8.234052E+05 -7.092159E+04 -7.729783E+04  5.950489E+03 -7.462690E-10  5.729357E-09
       377  12 -8.644160E+05 -8.716714E+04 -9.503088E+04  2.020076E+04  4.658832E-10 -5.979814E-09
       377  13 -5.350092E+05  4.665830E+02 -5.138492E+03  1.933020E+04 -6.611131E-10 -3.575710E-09
       377  14 -5.338021E+05  7.632314E+02 -8.697962E+03  6.341615E+03  4.369213E-10  9.895442E-09
       377  15 -5.350172E+05 -5.610212E+03 -1.684912E+04  1.935304E+04 -1.949790E-09  4.095733E-10
       377  16 -2.850760E+05  6.234536E+04  5.415113E+04  2.096010E+04 -5.257273E-09 -1.608538E-09
       377  17 -2.441219E+05  7.244203E+04  5.989608E+04  6.732850E+03 -1.553728E-09 -1.768515E-08
       377  18 -2.055185E+05  7.593891E+04  6.132507E+04  1.850477E+04 -1.848808E-09 -1.694125E-10
       377  19 -7.848849E+05 -6.141660E+04 -6.443231E+04  1.770092E+04 -2.752394E+03 -8.609119E+03
       377  20 -8.234051E+05 -7.092146E+04 -7.729752E+04  5.950552E+03 -7.575746E+03 -1.031418E+04
       377  21 -8.644158E+05 -8.716696E+04 -9.503035E+04  2.020088E+04 -1.240224E+04 -1.133036E+04
       377  22 -5.350091E+05  4.666668E+02 -5.138324E+03  1.933023E+04 -3.921812E+03 -8.613584E+03
       377  23 -5.338020E+05  7.633644E+02 -8.697631E+03  6.341684E+03 -8.350627E+03 -1.031683E+04
       377  24 -5.350170E+05 -5.610030E+03 -1.684858E+04  1.935316E+04 -1.278289E+04 -1.133133E+04
       377  25 -2.850760E+05  6.234545E+04  5.415131E+04  2.096014E+04 -5.091698E+03 -8.618054E+03
       377  26 -2.441218E+05  7.244216E+04  5.989643E+04  6.732926E+03 -9.125866E+03 -1.031949E+04
       377  27 -2.055183E+05  7.593910E+04  6.132564E+04  1.850489E+04 -1.316374E+04 -1.133231E+04
       378   1 -9.145562E+05 -8.962519E+04 -1.095647E+05  9.617809E+03  1.232318E+04  1.376912E+04
       378   2 -9.431461E+05 -9.526395E+04 -1.317262E+05  1.184033E+04  3.652872E+04  1.476850E+04
       378   3 -9.931820E+05 -1.737722E+05 -1.878956E+05  3.947863E+04  6.076658E+04  5.052725E+03
       378   4 -5.390088E+05  3.390746E+03 -2.072987E+04  1.914395E+04  1.593787E+04  1.378174E+04
       378   5 -5.288390E+05  7.251996E+03 -3.356282E+04  6.539973E+03  3.398916E+04  1.475891E+04
       378   6 -5.390331E+05 -6.066131E+04 -7.611164E+04  1.935215E+04  5.207460E+04  5.022926E+03
       378   7 -1.633315E+05  9.639688E+04  6.809529E+04  2.867578E+04  1.955474E+04  1.379447E+04
       378   8 -1.143738E+05  1.097557E+05  6.458872E+04  1.235920E+03  3.144789E+04  1.474936E+04
       378   9 -8.469526E+04  5.243582E+04  3.565759E+04 -7.892410E+02  4.337626E+04  4.993702E+03
       378  10 -9.145564E+05 -8.962544E+04 -1.095654E+05  9.617672E+03  1.230472E-09 -4.864190E-09
       378  11 -9.431476E+05 -9.526455E+04 -1.317292E+05  1.183990E+04  4.160640E-09 -6.604379E-09
       378  12 -9.931860E+05 -1.737732E+05 -1.879026E+05  3.947838E+04  2.279388E-09  4.894641E-09
       378  13 -5.390092E+05  3.390474E+03 -2.073071E+04  1.914377E+04 -1.074157E-09 -1.701207E-09
       378  14 -5.288403E+05  7.251452E+03 -3.356540E+04  6.539568E+03  8.906837E-10 -1.758406E-09
       378  15 -5.390361E+05 -6.066207E+04 -7.611679E+04  1.935194E+04 -1.004182E-09  6.971348E-09
       378  16 -1.633319E+05  9.639657E+04  6.809422E+04  2.867556E+04 -3.423066E-09  4.408888E-09
       378  17 -1.143749E+05  1.097552E+05  6.458645E+04  1.235547E+03 -5.959020E-09  8.166863E-09
       378  18 -8.469729E+04  5.243529E+04  3.565401E+04 -7.894154E+02 -3.366598E-09  4.514877E-10
       378  19 -9.145562E+05 -8.962519E+04 -1.095647E+05  9.617809E+03 -1.232318E+04 -1.376912E+04
       378  20 -9.431461E+05 -9.526395E+04 -1.317262E+05  1.184033E+04 -3.652872E+04 -1.476850E+04
       378  21 -9.931820E+05 -1.737722E+05 -1.878956E+05  3.947863E+04 -6.076658E+04 -5.052725E+03
       378  22 -5.390088E+05  3.390746E+03 -2.072987E+04  1.914395E+04 -1.593787E+04 -1.378174E+04
       378  23 -5.288390E+05  7.251996E+03 -3.356282E+04  6.539973E+03 -3.398916E+04 -1.475891E+04
       378  24 -5.390331E+05 -6.066131E+04 -7.611164E+04  1.935215E+04 -5.207460E+04 -5.022926E+03
       378  25 -1.633315E+05  9.639688E+04  6.809529E+04  2.867578E+04 -1.955474E+04 -1.379447E+04
       378  26 -1.143738E+05  1.097557E+05  6.458872E+04  1.235920E+03 -3.144789E+04 -1.474936E+04
       378  27 -8.469526E+04  5.243582E+04  3.565759E+04 -7.892410E+02 -4.337626E+04 -4.993702E+03
       379   1 -1.720908E+05 -6.640897E+05 -1.659977E+05  1.697305E+05 -6.815693E+03 -5.271143E+04
       379   2 -1.194325E+05 -5.140055E+05 -1.023254E+05  1.492030E+05 -2.102729E+04 -2.125527E+04
       379   3 -8.030776E+04 -3.711685E+05 -6.251378E+04  1.583568E+05 -2.015670E+04  1.025109E+04
       379   4 -1.684986E+04 -3.706503E+04 -1.741111E+04  1.584372E+05 -6.911783E+03 -1.321216E+04
       379   5 -4.815299E+03 -3.579703E+04 -7.757387E+03  1.436152E+05 -2.105464E+04 -9.236666E+03
       379   6 -1.533908E+03 -3.701899E+04 -2.864458E+03  1.584747E+05 -2.012006E+04 -5.219308E+03
       379   7  1.383641E+05  5.903247E+05  1.311541E+05  1.471327E+05 -7.009266E+03  2.632682E+04
       379   8  1.097882E+05  4.426308E+05  8.679988E+04  1.380232E+05 -2.108220E+04  2.791007E+03
       379   9  7.723389E+04  2.972400E+05  5.678153E+04  1.585927E+05 -2.008345E+04 -2.069780E+04
       379  10 -1.720916E+05 -6.640927E+05 -1.660030E+05  1.697302E+05 -5.880783E-10  3.114295E-08
       379  11 -1.194331E+05 -5.140061E+05 -1.023270E+05  1.492026E+05 -4.467372E-10  8.545358E-09
       379  12 -8.030822E+04 -3.711687E+05 -6.251474E+04  1.583570E+05 -3.925530E-10 -3.146224E-08
       379  13 -1.684996E+04 -3.706523E+04 -1.741152E+04  1.584372E+05  8.475447E-10 -4.780621E-09
       379  14 -4.815798E+03 -3.579724E+04 -7.758380E+03  1.436151E+05 -3.871102E-09  1.428467E-08
       379  15 -1.534350E+03 -3.701913E+04 -2.865270E+03  1.584746E+05  3.651169E-10  4.171046E-10
       379  16  1.383639E+05  5.903239E+05  1.311527E+05  1.471328E+05 -4.376000E-10 -3.515871E-08
       379  17  1.097877E+05  4.426306E+05  8.679903E+04  1.380232E+05 -4.099694E-10 -4.670775E-09
       379  18  7.723334E+04  2.972394E+05  5.677997E+04  1.585924E+05 -9.551215E-10  2.445438E-08
       379  19 -1.720908E+05 -6.640897E+05 -1.659977E+05  1.697305E+05  6.815693E+03  5.271143E+04
       379  20 -1.194325E+05 -5.140055E+05 -1.023254E+05  1.492030E+05  2.102729E+04  2.125527E+04
       379  21 -8.030776E+04 -3.711685E+05 -6.251378E+04  1.583568E+05  2.015670E+04 -1.025109E+04
       379  22 -1.684986E+04 -3.706503E+04 -1.741111E+04  1.584372E+05  6.911783E+03  1.321216E+04
       379  23 -4.815299E+03 -3.579703E+04 -7.757387E+03  1.436152E+05  2.105464E+04  9.236666E+03
       379  24 -1.533908E+03 -3.701899E+04 -2.864458E+03  1.584747E+05  2.012006E+04  5.219308E+03
       379  25  1.383641E+05  5.903247E+05  1.311541E+05  1.471327E+05  7.009266E+03 -2.632682E+04
       379  26  1.097882E+05  4.426308E+05  8.679988E+04  1.380232E+05  2.108220E+04 -2.791007E+03
       379  27  7.723389E+04  2.972400E+05  5.678153E+04  1.585927E+05  2.008345E+04  2.069780E+04
       380   1 -5.793806E+04 -2.756910E+05 -4.338507E+04  1.592076E+05 -1.476499E+04  9.436968E+03
       380   2 -2.212101E+04 -1.294692E+05 -1.271964E+04  1.439521E+05 -6.652651E+03  8.903832E+03
       380   3  1.412473E+04  1.715157E+04  1.845116E+04  1.593445E+05  1.875039E+03  8.371083E+03
       380   4 -1.589348E+03 -3.634207E+04 -1.044219E+03  1.586839E+05 -1.473167E+04 -4.975529E+03
       380   5 -4.718229E+02 -3.659259E+04  2.626351E+03  1.433633E+05 -6.618067E+03 -6.267531E+03
       380   6  1.207307E+03 -3.633289E+04  7.329741E+03  1.586903E+05  1.910818E+03 -7.559030E+03
       380   7  5.475632E+04  2.030633E+05  4.129530E+04  1.581600E+05 -1.469833E+04 -1.939342E+04
       380   8  2.117704E+04  5.629302E+04  1.797295E+04  1.427745E+05 -6.583458E+03 -2.144109E+04
       380   9 -1.171016E+04 -8.981409E+04 -3.790877E+03  1.580362E+05  1.946633E+03 -2.348779E+04
       380  10 -5.793831E+04 -2.756912E+05 -4.338565E+04  1.592077E+05  7.830378E-10  3.589564E-09
       380  11 -2.212108E+04 -1.294693E+05 -1.271987E+04  1.439521E+05  3.502490E-09  7.210047E-09
       380  12  1.412471E+04  1.715149E+04  1.845102E+04  1.593445E+05 -3.893230E-10 -7.108364E-09
       380  13 -1.589588E+03 -3.634216E+04 -1.044673E+03  1.586838E+05  3.086679E-10 -5.465205E-09
       380  14 -4.718805E+02 -3.659265E+04  2.626195E+03  1.433633E+05  4.757211E-09  1.092180E-08
       380  15  1.207287E+03 -3.633295E+04  7.329626E+03  1.586903E+05  2.337029E-09 -2.276502E-09
       380  16  5.475599E+04  2.030629E+05  4.129418E+04  1.581597E+05 -2.212195E-10 -7.952349E-09
       380  17  2.117687E+04  5.629251E+04  1.797201E+04  1.427743E+05  1.078780E-09  3.903129E-10
       380  18 -1.171031E+04 -8.981468E+04 -3.791921E+03  1.580363E+05  1.716568E-09  2.295542E-09
       380  19 -5.793806E+04 -2.756910E+05 -4.338507E+04  1.592076E+05  1.476499E+04 -9.436968E+03
       380  20 -2.212101E+04 -1.294692E+05 -1.271964E+04  1.439521E+05  6.652651E+03 -8.903832E+03
       380  21  1.412473E+04  1.715157E+04  1.845116E+04  1.593445E+05 -1.875039E+03 -8.371083E+03
       380  22 -1.589348E+03 -3.634207E+04 -1.044219E+03  1.586839E+05  1.473167E+04  4.975529E+03
       380  23 -4.718229E+02 -3.659259E+04  2.626351E+03  1.433633E+05  6.618067E+03  6.267531E+03
       380  24  1.207307E+03 -3.633289E+04  7.329741E+03  1.586903E+05 -1.910818E+03  7.559030E+03
       380  25  5.475632E+04  2.030633E+05  4.129530E+04  1.581600E+05  1.469833E+04  1.939342E+04
       380  26  2.117704E+04  5.629302E+04  1.797295E+04  1.427745E+05  6.583458E+03  2.144109E+04
       380  27 -1.171016E+04 -8.981409E+04 -3.790877E+03  1.580362E+05 -1.946633E+03  2.348779E+04
       381   1  3.632190E+04  1.131256E+05  3.836389E+04  1.567670E+05  7.549597E+03  7.816767E+03
       381   2  7.934708E+04  2.546652E+05  7.979347E+04  1.543376E+05  1.131808E+04 -2.224110E+04
       381   3  1.461828E+05  4.062910E+05  1.467847E+05  1.819558E+05  4.239313E+03 -5.233471E+04
       381   4  1.086391E+03 -3.497464E+04  1.032491E+04  1.585452E+05  7.587314E+03 -8.826159E+03
       381   5  8.854783E+03 -3.830751E+04  1.995403E+04  1.435655E+05  1.131161E+04 -1.909050E+04
       381   6  3.700597E+04 -3.500178E+04  4.140648E+04  1.586315E+05  4.187506E+03 -2.938348E+04
       381   7 -3.415024E+04 -1.830531E+05 -1.771400E+04  1.603230E+05  7.624939E+03 -2.546521E+04
       381   8 -6.164243E+04 -3.311983E+05 -3.988983E+04  1.327986E+05  1.130502E+04 -1.594135E+04
       381   9 -7.218257E+04 -4.761138E+05 -6.398313E+04  1.353239E+05  4.133958E+03 -6.448482E+03
       381  10  3.632182E+04  1.131255E+05  3.836367E+04  1.567670E+05 -5.875121E-11  4.272886E-09
       381  11  7.934681E+04  2.546646E+05  7.979230E+04  1.543378E+05  2.024009E-09  1.007466E-08
       381  12  1.461820E+05  4.062881E+05  1.467795E+05  1.819560E+05  3.224389E-10 -3.015484E-09
       381  13  1.086308E+03 -3.497474E+04  1.032465E+04  1.585453E+05 -1.207878E-09 -3.282306E-09
       381  14  8.854547E+03 -3.830794E+04  1.995311E+04  1.435657E+05  3.500412E-09  1.491627E-08
       381  15  3.700572E+04 -3.500271E+04  4.140482E+04  1.586316E+05  4.678622E-10 -5.367681E-10
       381  16 -3.415048E+04 -1.830538E+05 -1.771533E+04  1.603232E+05  3.649975E-10 -9.142179E-09
       381  17 -6.164264E+04 -3.311987E+05 -3.989055E+04  1.327988E+05  2.469087E-09 -6.117691E-09
       381  18 -7.218260E+04 -4.761138E+05 -6.398324E+04  1.353239E+05 -2.655786E-10 -1.863392E-09
       381  19  3.632190E+04  1.131256E+05  3.836389E+04  1.567670E+05 -7.549597E+03 -7.816767E+03
       381  20  7.934708E+04  2.546652E+05  7.979347E+04  1.543376E+05 -1.131808E+04  2.224110E+04
       381  21  1.461828E+05  4.062910E+05  1.467847E+05  1.819558E+05 -4.239313E+03  5.233471E+04
       381  22  1.086391E+03 -3.497464E+04  1.032491E+04  1.585452E+05 -7.587314E+03  8.826159E+03
       381  23  8.854783E+03 -3.830751E+04  1.995403E+04  1.435655E+05 -1.131161E+04  1.909050E+04
       381  24  3.700597E+04 -3.500178E+04  4.140648E+04  1.586315E+05 -4.187506E+03  2.938348E+04
       381  25 -3.415024E+04 -1.830531E+05 -1.771400E+04  1.603230E+05 -7.624939E+03  2.546521E+04
       381  26 -6.164243E+04 -3.311983E+05 -3.988983E+04  1.327986E+05 -1.130502E+04  1.594135E+04
       381  27 -7.218257E+04 -4.761138E+05 -6.398313E+04  1.353239E+05 -4.133958E+03  6.448482E+03
       382   1  9.678780E+05  3.574149E+05  2.352026E+05  3.394757E+05  9.555416E+04  3.146419E+04
       382   2  9.315620E+05  2.113914E+05  1.446334E+05  3.398808E+05  6.244281E+04  9.509419E+03
       382   3  9.322993E+05  2.011250E+05  1.144558E+05  3.244749E+05  2.592191E+04 -3.426472E+03
       382   4  6.300067E+05  1.963773E+05  1.370844E+05  2.129492E+05  8.863160E+04  2.883924E+04
       382   5  6.047404E+05  7.845048E+04  5.751230E+04  2.399779E+05  6.040629E+04  8.736952E+03
       382   6  6.155840E+05  9.535061E+04  3.448574E+04  2.511890E+05  2.876933E+04 -2.347989E+03
       382   7  2.922518E+05  3.536927E+04  3.895632E+04  8.649267E+04  8.171322E+04  2.621679E+04
       382   8  2.780235E+05 -5.447838E+04 -2.961785E+04  1.401244E+05  5.837094E+04  7.965007E+03
       382   9  2.989645E+05 -1.042283E+04 -4.549250E+04  1.779341E+05  3.161516E+04 -1.269950E+03
       382  10  9.678680E+05  3.574114E+05  2.351836E+05  3.394733E+05  2.162514E-10  6.647853E-09
       382  11  9.315578E+05  2.113903E+05  1.446259E+05  3.398803E+05  3.546489E-10  1.528205E-08
       382  12  9.322985E+05  2.011248E+05  1.144545E+05  3.244749E+05  2.865565E-09 -2.587621E-09
       382  13  6.299981E+05  1.963743E+05  1.370681E+05  2.129471E+05  6.548015E-10 -8.779385E-09
       382  14  6.047364E+05  7.844942E+04  5.750531E+04  2.399774E+05  5.651840E-10 -1.123736E-08
       382  15  6.155832E+05  9.535038E+04  3.448418E+04  2.511890E+05 -2.006083E-09 -5.622538E-09
       382  16  2.922444E+05  3.536674E+04  3.894249E+04  8.649095E+04 -2.029866E-10  2.039590E-10
       382  17  2.780198E+05 -5.447936E+04 -2.962437E+04  1.401240E+05  1.080291E-09 -1.225296E-08
       382  18  2.989634E+05 -1.042310E+04 -4.549438E+04  1.779342E+05 -2.363910E-09  2.231167E-09
       382  19  9.678780E+05  3.574149E+05  2.352026E+05  3.394757E+05 -9.555416E+04 -3.146419E+04
       382  20  9.315620E+05  2.113914E+05  1.446334E+05  3.398808E+05 -6.244281E+04 -9.509419E+03
       382  21  9.322993E+05  2.011250E+05  1.144558E+05  3.244749E+05 -2.592191E+04  3.426472E+03
       382  22  6.300067E+05  1.963773E+05  1.370844E+05  2.129492E+05 -8.863160E+04 -2.883924E+04
       382  23  6.047404E+05  7.845048E+04  5.751230E+04  2.399779E+05 -6.040629E+04 -8.736952E+03
       382  24  6.155840E+05  9.535061E+04  3.448574E+04  2.511890E+05 -2.876933E+04  2.347989E+03
       382  25  2.922518E+05  3.536927E+04  3.895632E+04  8.649267E+04 -8.171322E+04 -2.621679E+04
       382  26  2.780235E+05 -5.447838E+04 -2.961785E+04  1.401244E+05 -5.837094E+04 -7.965007E+03
       382  27  2.989645E+05 -1.042283E+04 -4.549250E+04  1.779341E+05 -3.161516E+04  1.269950E+03
       383   1  8.821046E+05  2.141742E+05  9.941151E+04  3.207753E+05  2.306179E+04 -2.251734E+03
       383   2  8.603523E+05  1.845902E+05  7.792558E+04  3.073819E+05  1.548648E+04 -4.463550E+03
       383   3  8.306728E+05  1.808867E+05  6.527662E+04  3.063553E+05  7.679604E+03 -6.064673E+03
       383   4  6.112033E+05  1.089766E+05  2.795043E+04  2.431248E+05  2.320155E+04 -2.199261E+03
       383   5  6.144820E+05  9.104559E+04  1.357321E+04  2.388463E+05  1.595902E+04 -4.284777E+03
       383   6  6.097690E+05  9.893247E+04  7.772294E+03  2.469341E+05  8.484567E+03 -5.759662E+03
       383   7  3.403732E+05  3.784815E+03 -4.351695E+04  1.655053E+05  2.334123E+04 -2.146816E+03
       383   8  3.686707E+05 -2.494706E+03 -5.078418E+04  1.703353E+05  1.643135E+04 -4.106083E+03
       383   9  3.889131E+05  1.698123E+04 -4.973593E+04  1.875319E+05  9.289213E+03 -5.454767E+03
       383  10  8.821040E+05  2.141740E+05  9.941050E+04  3.207754E+05 -2.749599E-10  1.091733E-09
       383  11  8.603520E+05  1.845901E+05  7.792509E+04  3.073820E+05 -6.242367E-10  1.447361E-08
       383  12  8.306727E+05  1.808866E+05  6.527644E+04  3.063554E+05  1.828818E-09  1.485659E-08
       383  13  6.112028E+05  1.089764E+05  2.794941E+04  2.431249E+05  3.905325E-10 -3.055531E-10
       383  14  6.144817E+05  9.104550E+04  1.357269E+04  2.388463E+05 -4.185141E-09 -1.338806E-08
       383  15  6.097689E+05  9.893241E+04  7.772096E+03  2.469341E+05 -1.358627E-09  1.054590E-08
       383  16  3.403726E+05  3.784664E+03 -4.351798E+04  1.655054E+05 -3.318839E-09  6.370879E-09
       383  17  3.686704E+05 -2.494796E+03 -5.078472E+04  1.703354E+05 -3.000096E-09 -1.968178E-08
       383  18  3.889130E+05  1.698117E+04 -4.973615E+04  1.875319E+05 -4.534187E-09  5.035137E-09
       383  19  8.821046E+05  2.141742E+05  9.941151E+04  3.207753E+05 -2.306179E+04  2.251734E+03
       383  20  8.603523E+05  1.845902E+05  7.792558E+04  3.073819E+05 -1.548648E+04  4.463550E+03
       383  21  8.306728E+05  1.808867E+05  6.527662E+04  3.063553E+05 -7.679604E+03  6.064673E+03
       383  22  6.112033E+05  1.089766E+05  2.795043E+04  2.431248E+05 -2.320155E+04  2.199261E+03
       383  23  6.144820E+05  9.104559E+04  1.357321E+04  2.388463E+05 -1.595902E+04  4.284777E+03
       383  24  6.097690E+05  9.893247E+04  7.772294E+03  2.469341E+05 -8.484567E+03  5.759662E+03
       383  25  3.403732E+05  3.784815E+03 -4.351695E+04  1.655053E+05 -2.334123E+04  2.146816E+03
       383  26  3.686707E+05 -2.494706E+03 -5.078418E+04  1.703353E+05 -1.643135E+04  4.106083E+03
       383  27  3.889131E+05  1.698123E+04 -4.973593E+04  1.875319E+05 -9.289213E+03  5.454767E+03
       384   1  7.961408E+05  1.709449E+05  5.480207E+04  2.977902E+05  6.457180E+03 -5.623257E+03
       384   2  7.764901E+05  1.532497E+05  4.522093E+04  2.832660E+05  4.395628E+03 -5.079501E+03
       384   3  7.442328E+05  1.501077E+05  3.718599E+04  2.835091E+05  2.320468E+03 -4.500990E+03
       384   4  6.092877E+05  1.001989E+05  6.037225E+03  2.460402E+05  7.072604E+03 -5.390026E+03
       384   5  6.155245E+05  9.243950E+04  3.168673E+03  2.388408E+05  5.030329E+03 -4.838839E+03
       384   6  6.091508E+05  9.923006E+04  1.831589E+03  2.464088E+05  2.974372E+03 -4.252918E+03
       384   7  4.224678E+05  2.945493E+04 -4.273073E+04  1.943041E+05  7.687828E+03 -5.156872E+03
       384   8  4.545838E+05  3.163089E+04 -3.888585E+04  1.944259E+05  5.664850E+03 -4.598245E+03
       384   9  4.740864E+05  4.835360E+04 -3.352436E+04  2.093158E+05  3.628121E+03 -4.004904E+03
       384  10  7.961407E+05  1.709448E+05  5.480193E+04  2.977902E+05  5.924800E-09  5.863389E-09
       384  11  7.764901E+05  1.532497E+05  4.522085E+04  2.832660E+05 -3.743434E-09 -5.706350E-09
       384  12  7.442327E+05  1.501076E+05  3.718594E+04  2.835091E+05 -1.052081E-08 -8.746288E-10
       384  13  6.092876E+05  1.001988E+05  6.037077E+03  2.460402E+05  1.280326E-10  3.958083E-09
       384  14  6.155245E+05  9.243947E+04  3.168582E+03  2.388408E+05  3.290706E-09  3.335161E-09
       384  15  6.091507E+05  9.923004E+04  1.831538E+03  2.464088E+05 -3.774143E-09  6.094297E-09
       384  16  4.224677E+05  2.945488E+04 -4.273089E+04  1.943041E+05 -7.729182E-09 -6.289295E-09
       384  17  4.545837E+05  3.163086E+04 -3.888595E+04  1.944259E+05 -5.804549E-10  5.301340E-09
       384  18  4.740864E+05  4.835358E+04 -3.352442E+04  2.093158E+05  7.915280E-09  2.230552E-08
       384  19  7.961408E+05  1.709449E+05  5.480207E+04  2.977902E+05 -6.457180E+03  5.623257E+03
       384  20  7.764901E+05  1.532497E+05  4.522093E+04  2.832660E+05 -4.395628E+03  5.079501E+03
       384  21  7.442328E+05  1.501077E+05  3.718599E+04  2.835091E+05 -2.320468E+03  4.500990E+03
       384  22  6.092877E+05  1.001989E+05  6.037225E+03  2.460402E+05 -7.072604E+03  5.390026E+03
       384  23  6.155245E+05  9.243950E+04  3.168673E+03  2.388408E+05 -5.030329E+03  4.838839E+03
       384  24  6.091508E+05  9.923006E+04  1.831589E+03  2.464088E+05 -2.974372E+03  4.252918E+03
       384  25  4.224678E+05  2.945493E+04 -4.273073E+04  1.943041E+05 -7.687828E+03  5.156872E+03
       384  26  4.545838E+05  3.163089E+04 -3.888585E+04  1.944259E+05 -5.664850E+03  4.598245E+03
       384  27  4.740864E+05  4.835360E+04 -3.352436E+04  2.093158E+05 -3.628121E+03  4.004904E+03
       385   1  7.118010E+05  1.380914E+05  2.816889E+04  2.746283E+05  1.801359E+03 -3.898610E+03
       385   2  6.926293E+05  1.217179E+05  2.102639E+04  2.601366E+05  8.979631E+02 -2.886894E+03
       385   3  6.604261E+05  1.186299E+05  1.425837E+04  2.604542E+05 -5.217854E+00 -1.876249E+03
       385   4  6.091116E+05  9.931303E+04  1.437051E+03  2.462810E+05  2.440750E+03 -3.655985E+03
       385   5  6.156227E+05  9.263222E+04  9.085678E+02  2.388911E+05  1.536852E+03 -2.644404E+03
       385   6  6.091017E+05  9.923710E+04  7.550468E+02  2.463104E+05  6.331463E+02 -1.633899E+03
       385   7  5.064327E+05  6.053550E+04 -2.529558E+04  2.179381E+05  3.080023E+03 -3.413405E+03
       385   8  5.386218E+05  6.354689E+04 -1.920976E+04  2.176480E+05  2.175655E+03 -2.401948E+03
       385   9  5.577798E+05  7.984437E+04 -1.274854E+04  2.321676E+05  1.271454E+03 -1.391571E+03
       385  10  7.118010E+05  1.380913E+05  2.816885E+04  2.746283E+05 -1.019015E-08 -5.298858E-09
       385  11  6.926292E+05  1.217179E+05  2.102638E+04  2.601366E+05 -2.185685E-09 -1.255358E-08
       385  12  6.604261E+05  1.186299E+05  1.425836E+04  2.604542E+05  6.221299E-09 -7.907277E-09
       385  13  6.091116E+05  9.931301E+04  1.437015E+03  2.462810E+05 -5.300295E-09  2.328420E-09
       385  14  6.156227E+05  9.263222E+04  9.085502E+02  2.388911E+05 -3.872834E-09  1.715296E-08
       385  15  6.091017E+05  9.923710E+04  7.550411E+02  2.463104E+05 -2.340596E-09 -7.315110E-09
       385  16  5.064326E+05  6.053549E+04 -2.529562E+04  2.179381E+05  3.759386E-09  1.158818E-08
       385  17  5.386218E+05  6.354688E+04 -1.920978E+04  2.176480E+05 -8.832641E-09 -2.056667E-09
       385  18  5.577798E+05  7.984437E+04 -1.274855E+04  2.321676E+05 -1.151504E-08 -2.828413E-09
       385  19  7.118010E+05  1.380914E+05  2.816889E+04  2.746283E+05 -1.801359E+03  3.898610E+03
       385  20  6.926293E+05  1.217179E+05  2.102639E+04  2.601366E+05 -8.979631E+02  2.886894E+03
       385  21  6.604261E+05  1.186299E+05  1.425837E+04  2.604542E+05  5.217854E+00  1.876249E+03
       385  22  6.091116E+05  9.931303E+04  1.437051E+03  2.462810E+05 -2.440750E+03  3.655985E+03
       385  23  6.156227E+05  9.263222E+04  9.085678E+02  2.388911E+05 -1.536852E+03  2.644404E+03
       385  24  6.091017E+05  9.923710E+04  7.550468E+02  2.463104E+05 -6.331463E+02  1.633899E+03
       385  25  5.064327E+05  6.053550E+04 -2.529558E+04  2.179381E+05 -3.080023E+03  3.413405E+03
       385  26  5.386218E+05  6.354689E+04 -1.920976E+04  2.176480E+05 -2.175655E+03  2.401948E+03
       385  27  5.577798E+05  7.984437E+04 -1.274854E+04  2.321676E+05 -1.271454E+03  1.391571E+03
       386   1  6.284108E+05  1.065171E+05  5.723402E+03  2.516519E+05 -3.922026E+02 -1.236172E+03
       386   2  6.093266E+05  9.027887E+04 -6.171802E+02  2.371805E+05 -1.351028E+03 -2.497952E+02
       386   3  5.772713E+05  8.729946E+04 -6.536124E+03  2.374551E+05 -2.309103E+03  7.347976E+02
       386   4  6.091146E+05  9.922343E+04  7.747745E+02  2.462995E+05  2.453928E+02 -9.940952E+02
       386   5  6.156077E+05  9.264522E+04  1.022669E+03  2.389071E+05 -7.144253E+02 -8.102020E+00
       386   6  6.091292E+05  9.932589E+04  1.692974E+03  2.462605E+05 -1.673516E+03  9.761005E+02
       386   7  5.898188E+05  9.192978E+04 -4.173881E+03  2.409472E+05  8.829664E+02 -7.520266E+02
       386   8  6.218889E+05  9.501157E+04  2.662514E+03  2.406338E+05 -7.781655E+01  2.335934E+02
       386   9  6.409880E+05  1.113524E+05  9.921962E+03  2.550663E+05 -1.037895E+03  1.217416E+03
       386  10  6.284108E+05  1.065171E+05  5.723399E+03  2.516519E+05  9.054849E-09 -5.758834E-09
       386  11  6.093265E+05  9.027887E+04 -6.171838E+02  2.371805E+05 -5.080584E-10 -3.123068E-09
       386  12  5.772713E+05  8.729946E+04 -6.536135E+03  2.374551E+05 -9.858545E-09 -1.251941E-08
       386  13  6.091146E+05  9.922343E+04  7.747725E+02  2.462995E+05  1.195485E-09 -4.612345E-09
       386  14  6.156077E+05  9.264522E+04  1.022668E+03  2.389071E+05 -4.635018E-10  2.778052E-09
       386  15  6.091292E+05  9.932589E+04  1.692967E+03  2.462605E+05  2.421010E-10  6.725772E-09
       386  16  5.898188E+05  9.192978E+04 -4.173884E+03  2.409472E+05 -5.034031E-09  1.415324E-09
       386  17  6.218889E+05  9.501157E+04  2.662514E+03  2.406338E+05  7.323578E-09 -2.707497E-09
       386  18  6.409880E+05  1.113523E+05  9.921957E+03  2.550663E+05  1.227304E-08 -2.998084E-09
       386  19  6.284108E+05  1.065171E+05  5.723402E+03  2.516519E+05  3.922026E+02  1.236172E+03
       386  20  6.093266E+05  9.027887E+04 -6.171802E+02  2.371805E+05  1.351028E+03  2.497952E+02
       386  21  5.772713E+05  8.729946E+04 -6.536124E+03  2.374551E+05  2.309103E+03 -7.347976E+02
       386  22  6.091146E+05  9.922343E+04  7.747745E+02  2.462995E+05 -2.453928E+02  9.940952E+02
       386  23  6.156077E+05  9.264522E+04  1.022669E+03  2.389071E+05  7.144253E+02  8.102020E+00
       386  24  6.091292E+05  9.932589E+04  1.692974E+03  2.462605E+05  1.673516E+03 -9.761005E+02
       386  25  5.898188E+05  9.192978E+04 -4.173881E+03  2.409472E+05 -8.829664E+02  7.520266E+02
       386  26  6.218889E+05  9.501157E+04  2.662514E+03  2.406338E+05  7.781655E+01 -2.335934E+02
       386  27  6.409880E+05  1.113524E+05  9.921962E+03  2.550663E+05  1.037895E+03 -1.217416E+03
       387   1  5.451721E+05  7.517822E+04 -1.461237E+04  2.289126E+05 -2.900634E+03  1.302545E+03
       387   2  5.258754E+05  5.857829E+04 -1.960608E+04  2.141356E+05 -5.258854E+03  1.760857E+03
       387   3  4.942312E+05  5.663105E+04 -2.277681E+04  2.138942E+05 -7.605361E+03  2.189174E+03
       387   4  6.092040E+05  9.919432E+04  2.177685E+03  2.463811E+05 -2.254120E+03  1.547972E+03
       387   5  6.154601E+05  9.245540E+04  3.807338E+03  2.388894E+05 -4.628850E+03  1.999950E+03
       387   6  6.093717E+05  1.003723E+05  7.272999E+03  2.459331E+05 -6.991949E+03  2.421903E+03
       387   7  6.732401E+05  1.232107E+05  1.896745E+04  2.638513E+05 -1.607531E+03  1.793428E+03
       387   8  7.050526E+05  1.263331E+05  2.722012E+04  2.636465E+05 -3.998744E+03  2.239081E+03
       387   9  7.245250E+05  1.441145E+05  3.732169E+04  2.779773E+05 -6.378413E+03  2.654680E+03
       387  10  5.451721E+05  7.517822E+04 -1.461239E+04  2.289126E+05  2.149055E-10  9.245828E-09
       387  11  5.258754E+05  5.857828E+04 -1.960613E+04  2.141356E+05  2.874925E-09  5.437861E-09
       387  12  4.942311E+05  5.663103E+04 -2.277693E+04  2.138942E+05 -5.789566E-09  1.590952E-08
       387  13  6.092040E+05  9.919432E+04  2.177671E+03  2.463811E+05 -2.557716E-10  2.846292E-09
       387  14  6.154600E+05  9.245539E+04  3.807291E+03  2.388894E+05  2.276325E-09  2.477814E-08
       387  15  6.093716E+05  1.003723E+05  7.272896E+03  2.459331E+05 -6.151132E-10  8.644973E-10
       387  16  6.732401E+05  1.232107E+05  1.896744E+04  2.638513E+05  1.682286E-09 -7.671286E-09
       387  17  7.050526E+05  1.263331E+05  2.722008E+04  2.636465E+05  1.877264E-09 -1.632678E-08
       387  18  7.245249E+05  1.441145E+05  3.732160E+04  2.779773E+05  3.515785E-09 -1.425680E-08
       387  19  5.451721E+05  7.517822E+04 -1.461237E+04  2.289126E+05  2.900634E+03 -1.302545E+03
       387  20  5.258754E+05  5.857829E+04 -1.960608E+04  2.141356E+05  5.258854E+03 -1.760857E+03
       387  21  4.942312E+05  5.663105E+04 -2.277681E+04  2.138942E+05  7.605361E+03 -2.189174E+03
       387  22  6.092040E+05  9.919432E+04  2.177685E+03  2.463811E+05  2.254120E+03 -1.547972E+03
       387  23  6.154601E+05  9.245540E+04  3.807338E+03  2.388894E+05  4.628850E+03 -1.999950E+03
       387  24  6.093717E+05  1.003723E+05  7.272999E+03  2.459331E+05  6.991949E+03 -2.421903E+03
       387  25  6.732401E+05  1.232107E+05  1.896745E+04  2.638513E+05  1.607531E+03 -1.793428E+03
       387  26  7.050526E+05  1.263331E+05  2.722012E+04  2.636465E+05  3.998744E+03 -2.239081E+03
       387  27  7.245250E+05  1.441145E+05  3.732169E+04  2.779773E+05  6.378413E+03 -2.654680E+03
       388   1  4.610538E+05  4.428912E+04 -2.929825E+04  2.076764E+05 -9.385661E+03  2.387043E+03
       388   2  4.411101E+05  2.454475E+04 -2.901574E+04  1.902774E+05 -1.803572E+04  4.481023E+02
       388   3  4.144757E+05  3.285031E+04 -1.860656E+04  1.843399E+05 -2.649926E+04 -1.980448E+03
       388   4  6.099833E+05  9.881082E+04  9.367100E+03  2.469748E+05 -8.621093E+03  2.677091E+03
       388   5  6.141710E+05  9.082221E+04  1.637217E+04  2.389437E+05 -1.753784E+04  6.367869E+02
       388   6  6.117187E+05  1.109331E+05  3.371297E+04  2.423735E+05 -2.626845E+04 -1.893285E+03
       388   7  7.589337E+05  1.533334E+05  4.803048E+04  2.862814E+05 -7.856325E+03  2.967210E+03
       388   8  7.872609E+05  1.571018E+05  6.175754E+04  2.876223E+05 -1.703979E+04  8.255314E+02
       388   9  8.090000E+05  1.890196E+05  8.602930E+04  3.004244E+05 -2.603756E+04 -1.806088E+03
       388  10  4.610537E+05  4.428909E+04 -2.929842E+04  2.076764E+05 -6.461493E-10  1.111277E-08
       388  11  4.411097E+05  2.454466E+04 -2.901635E+04  1.902774E+05  1.444436E-09  2.707181E-09
       388  12  4.144750E+05  3.285012E+04 -1.860788E+04  1.843398E+05  5.008326E-10  3.821297E-09
       388  13  6.099832E+05  9.881080E+04  9.366947E+03  2.469748E+05  2.943995E-10 -6.524522E-09
       388  14  6.141707E+05  9.082212E+04  1.637160E+04  2.389437E+05  1.366242E-09  1.241897E-08
       388  15  6.117179E+05  1.109329E+05  3.371167E+04  2.423735E+05 -3.310074E-10 -4.352086E-10
       388  16  7.589336E+05  1.533334E+05  4.803035E+04  2.862814E+05  1.034566E-09 -8.890864E-10
       388  17  7.872606E+05  1.571017E+05  6.175699E+04  2.876223E+05 -3.665808E-09 -1.092139E-09
       388  18  8.089993E+05  1.890194E+05  8.602802E+04  3.004244E+05  8.434464E-10 -2.260170E-09
       388  19  4.610538E+05  4.428912E+04 -2.929825E+04  2.076764E+05  9.385661E+03 -2.387043E+03
       388  20  4.411101E+05  2.454475E+04 -2.901574E+04  1.902774E+05  1.803572E+04 -4.481023E+02
       388  21  4.144757E+05  3.285031E+04 -1.860656E+04  1.843399E+05  2.649926E+04  1.980448E+03
       388  22  6.099833E+05  9.881082E+04  9.367100E+03  2.469748E+05  8.621093E+03 -2.677091E+03
       388  23  6.141710E+05  9.082221E+04  1.637217E+04  2.389437E+05  1.753784E+04 -6.367869E+02
       388  24  6.117187E+05  1.109331E+05  3.371297E+04  2.423735E+05  2.626845E+04  1.893285E+03
       388  25  7.589337E+05  1.533334E+05  4.803048E+04  2.862814E+05  7.856325E+03 -2.967210E+03
       388  26  7.872609E+05  1.571018E+05  6.175754E+04  2.876223E+05  1.703979E+04 -8.255314E+02
       388  27  8.090000E+05  1.890196E+05  8.602930E+04  3.004244E+05  2.603756E+04  1.806088E+03
       389   1  3.722383E+05  1.856613E+04 -1.913548E+04  2.014069E+05 -3.512398E+04 -3.297730E+03
       389   2  3.516820E+05 -3.069350E+04  1.696270E+03  1.592798E+05 -6.934075E+04 -1.529579E+04
       389   3  3.770482E+05  7.874422E+04  8.764439E+04  9.443579E+04 -1.008243E+05 -3.450263E+04
       389   4  6.170171E+05  9.447899E+04  4.159559E+04  2.520764E+05 -3.272890E+04 -2.388902E+03
       389   5  6.024024E+05  7.567397E+04  6.938167E+04  2.403489E+05 -7.085184E+04 -1.587030E+04
       389   6  6.344572E+05  2.162984E+05  1.653587E+05  2.059106E+05 -1.062425E+05 -3.656294E+04
       389   7  8.618546E+05  1.703917E+05  1.023224E+05  3.027619E+05 -3.033277E+04 -1.479838E+03
       389   8  8.531831E+05  1.820498E+05  1.370611E+05  3.214488E+05 -7.236358E+04 -1.644512E+04
       389   9  8.919314E+05  3.538774E+05  2.430659E+05  3.174324E+05 -1.116631E+05 -3.862503E+04
       389  10  3.722370E+05  1.856578E+04 -1.913782E+04  2.014068E+05 -4.944318E-09  2.447786E-09
       389  11  3.516768E+05 -3.069504E+04  1.686801E+03  1.592789E+05 -6.008755E-10 -5.115608E-09
       389  12  3.770370E+05  7.874021E+04  8.762306E+04  9.443299E+04  5.094336E-09  8.723433E-09
       389  13  6.170159E+05  9.447869E+04  4.159357E+04  2.520763E+05 -1.059160E-09 -4.776337E-09
       389  14  6.023970E+05  7.567236E+04  6.937177E+04  2.403480E+05  3.461183E-10  1.220528E-08
       389  15  6.344447E+05  2.162939E+05  1.653350E+05  2.059075E+05 -2.101649E-09  2.759293E-11
       389  16  8.618536E+05  1.703914E+05  1.023207E+05  3.027619E+05  4.845099E-09 -9.921712E-10
       389  17  8.531774E+05  1.820481E+05  1.370508E+05  3.214479E+05 -6.811027E-09 -2.853724E-09
       389  18  8.919176E+05  3.538725E+05  2.430397E+05  3.174289E+05 -8.270382E-09 -4.082873E-09
       389  19  3.722383E+05  1.856613E+04 -1.913548E+04  2.014069E+05  3.512398E+04  3.297730E+03
       389  20  3.516820E+05 -3.069350E+04  1.696270E+03  1.592798E+05  6.934075E+04  1.529579E+04
       389  21  3.770482E+05  7.874422E+04  8.764439E+04  9.443579E+04  1.008243E+05  3.450263E+04
       389  22  6.170171E+05  9.447899E+04  4.159559E+04  2.520764E+05  3.272890E+04  2.388902E+03
       389  23  6.024024E+05  7.567397E+04  6.938167E+04  2.403489E+05  7.085184E+04  1.587030E+04
       389  24  6.344572E+05  2.162984E+05  1.653587E+05  2.059106E+05  1.062425E+05  3.656294E+04
       389  25  8.618546E+05  1.703917E+05  1.023224E+05  3.027619E+05  3.033277E+04  1.479838E+03
       389  26  8.531831E+05  1.820498E+05  1.370611E+05  3.214488E+05  7.236358E+04  1.644512E+04
       389  27  8.919314E+05  3.538774E+05  2.430659E+05  3.174324E+05  1.116631E+05  3.862503E+04
       390   1 -1.663102E+05 -8.695834E+05 -1.686108E+05  8.965470E+04 -5.672991E+03 -2.406891E+04
       390   2 -1.076379E+05 -7.142793E+05 -1.152293E+05  3.561391E+04 -1.558209E+04 -9.742336E+03
       390   3 -7.181138E+04 -5.656929E+05 -7.674878E+04  8.037749E+04 -1.020721E+04  4.629336E+03
       390   4 -1.781033E+04 -2.744538E+05 -2.187169E+04  8.228151E+04 -5.700928E+03 -1.400096E+04
       390   5  1.880839E+03 -2.718341E+05 -1.040428E+04  3.290612E+04 -1.558469E+04 -8.463087E+03
       390   6  2.635559E+02 -2.744215E+05 -7.721963E+03  8.233197E+04 -1.018908E+04 -2.883844E+03
       390   7  1.306633E+05  3.209985E+05  1.248416E+05  7.490144E+04 -5.729093E+03 -3.923350E+03
       390   8  1.113855E+05  1.707912E+05  9.440715E+04  3.019649E+04 -1.558730E+04 -7.182929E+03
       390   9  7.233244E+04  1.692798E+04  6.129917E+04  8.428740E+04 -1.017100E+04 -1.040053E+04
       390  10 -1.663104E+05 -8.695840E+05 -1.686119E+05  8.965459E+04  1.249233E-09  4.117255E-09
       390  11 -1.076382E+05 -7.142795E+05 -1.152299E+05  3.561379E+04  3.433854E-09  3.856092E-09
       390  12 -7.181149E+04 -5.656930E+05 -7.674902E+04  8.037753E+04  1.798097E-09  7.294261E-11
       390  13 -1.781041E+04 -2.744541E+05 -2.187212E+04  8.228145E+04  3.241339E-09 -4.259454E-09
       390  14  1.880559E+03 -2.718342E+05 -1.040487E+04  3.290601E+04  7.111952E-10 -5.215212E-09
       390  15  2.634422E+02 -2.744216E+05 -7.722174E+03  8.233194E+04 -8.143329E-10 -1.448297E-08
       390  16  1.306633E+05  3.209984E+05  1.248415E+05  7.490142E+04  2.351430E-09 -9.482174E-09
       390  17  1.113853E+05  1.707911E+05  9.440660E+04  3.019640E+04  5.612054E-09 -7.408438E-09
       390  18  7.233230E+04  1.692783E+04  6.129877E+04  8.428732E+04 -3.997192E-09 -1.772519E-09
       390  19 -1.663102E+05 -8.695834E+05 -1.686108E+05  8.965470E+04  5.672991E+03  2.406891E+04
       390  20 -1.076379E+05 -7.142793E+05 -1.152293E+05  3.561391E+04  1.558209E+04  9.742336E+03
       390  21 -7.181138E+04 -5.656929E+05 -7.674878E+04  8.037749E+04  1.020721E+04 -4.629336E+03
       390  22 -1.781033E+04 -2.744538E+05 -2.187169E+04  8.228151E+04  5.700928E+03  1.400096E+04
       390  23  1.880839E+03 -2.718341E+05 -1.040428E+04  3.290612E+04  1.558469E+04  8.463087E+03
       390  24  2.635559E+02 -2.744215E+05 -7.721963E+03  8.233197E+04  1.018908E+04  2.883844E+03
       390  25  1.306633E+05  3.209985E+05  1.248416E+05  7.490144E+04  5.729093E+03  3.923350E+03
       390  26  1.113855E+05  1.707912E+05  9.440715E+04  3.019649E+04  1.558730E+04  7.182929E+03
       390  27  7.233244E+04  1.692798E+04  6.129917E+04  8.428740E+04  1.017100E+04  1.040053E+04
       391   1 -2.996504E+04 -3.870315E+05 -3.405921E+04  8.359455E+04 -4.134461E+03  1.600274E+03
       391   2  9.956977E+03 -2.343270E+05  2.421239E+03  3.259250E+04  1.356719E+03  4.974537E+03
       391   3  4.396751E+04 -8.290269E+04  3.535355E+04  8.095492E+04  6.737958E+03  8.349767E+03
       391   4 -1.884595E+03 -2.735375E+05 -7.222783E+03  8.244198E+04 -4.127041E+03 -1.597721E+03
       391   5  4.172437E+02 -2.728825E+05 -6.707397E+03  3.275782E+04  1.364141E+03  1.839573E+03
       391   6 -3.201981E+03 -2.735404E+05 -9.782723E+03  8.243881E+04  6.745321E+03  5.277026E+03
       391   7  2.619493E+04 -1.600316E+05  1.961279E+04  8.128922E+04 -4.119609E+03 -4.796298E+03
       391   8 -9.122591E+03 -3.114367E+05 -1.583610E+04  3.292312E+04  1.371562E+03 -1.295198E+03
       391   9 -5.037407E+04 -4.641446E+05 -5.492148E+04  8.392226E+04  6.752670E+03  2.205223E+03
       391  10 -2.996506E+04 -3.870315E+05 -3.405925E+04  8.359455E+04  4.032357E-10  8.539100E-09
       391  11  9.956969E+03 -2.343270E+05  2.421189E+03  3.259249E+04  5.654593E-10  6.093663E-09
       391  12  4.396744E+04 -8.290278E+04  3.535333E+04  8.095487E+04 -3.617636E-09 -1.489663E-09
       391  13 -1.884614E+03 -2.735375E+05 -7.222820E+03  8.244198E+04 -1.692941E-09 -1.554299E-11
       391  14  4.172408E+02 -2.728825E+05 -6.707406E+03  3.275781E+04  2.918750E-09 -5.826227E-09
       391  15 -3.202038E+03 -2.735404E+05 -9.782861E+03  8.243878E+04 -1.649586E-10 -1.137384E-08
       391  16  2.619491E+04 -1.600317E+05  1.961272E+04  8.128920E+04 -2.777753E-09 -1.446202E-08
       391  17 -9.122594E+03 -3.114367E+05 -1.583610E+04  3.292313E+04  1.874903E-09 -8.224681E-09
       391  18 -5.037412E+04 -4.641446E+05 -5.492158E+04  8.392225E+04 -2.266091E-09  4.742511E-09
       391  19 -2.996504E+04 -3.870315E+05 -3.405921E+04  8.359455E+04  4.134461E+03 -1.600274E+03
       391  20  9.956977E+03 -2.343270E+05  2.421239E+03  3.259250E+04 -1.356719E+03 -4.974537E+03
       391  21  4.396751E+04 -8.290269E+04  3.535355E+04  8.095492E+04 -6.737958E+03 -8.349767E+03
       391  22 -1.884595E+03 -2.735375E+05 -7.222783E+03  8.244198E+04  4.127041E+03  1.597721E+03
       391  23  4.172437E+02 -2.728825E+05 -6.707397E+03  3.275782E+04 -1.364141E+03 -1.839573E+03
       391  24 -3.201981E+03 -2.735404E+05 -9.782723E+03  8.243881E+04 -6.745321E+03 -5.277026E+03
       391  25  2.619493E+04 -1.600316E+05  1.961279E+04  8.128922E+04  4.119609E+03  4.796298E+03
       391  26 -9.122591E+03 -3.114367E+05 -1.583610E+04  3.292312E+04 -1.371562E+03  1.295198E+03
       391  27 -5.037407E+04 -4.641446E+05 -5.492148E+04  8.392226E+04 -6.752670E+03 -2.205223E+03
       392   1  9.219260E+04  9.310797E+04  7.585463E+04  8.592678E+04  1.300248E+04  1.502733E+04
       392   2  1.319503E+05  2.489330E+05  1.057606E+05  2.866373E+04  1.828704E+04  1.452096E+04
       392   3  1.367544E+05  3.970459E+05  1.274534E+05  7.005855E+04  6.563648E+03  1.396640E+04
       392   4  1.067023E+03 -2.753722E+05 -1.137928E+04  8.231437E+04  1.302222E+04  7.080249E+03
       392   5  3.399858E+03 -2.706711E+05 -1.727238E+04  3.293537E+04  1.828308E+04  1.636714E+04
       392   6 -3.093561E+04 -2.754117E+05 -3.818665E+04  8.222106E+04  6.529674E+03  2.560569E+04
       392   7 -9.006821E+04 -6.437275E+05 -9.862238E+04  7.870418E+04  1.304206E+04 -8.621448E+02
       392   8 -1.251699E+05 -7.900271E+05 -1.403241E+05  3.720359E+04  1.827914E+04  1.821178E+04
       392   9 -1.986587E+05 -9.474574E+05 -2.038595E+05  9.437065E+04  6.496138E+03  3.723239E+04
       392  10  9.219236E+04  9.310768E+04  7.585389E+04  8.592662E+04 -1.724164E-09  8.195743E-09
       392  11  1.319499E+05  2.489327E+05  1.057596E+05  2.866351E+04  2.455735E-09  4.977099E-09
       392  12  1.367543E+05  3.970457E+05  1.274529E+05  7.005848E+04  4.581063E-10  1.218892E-09
       392  13  1.066827E+03 -2.753723E+05 -1.137970E+04  8.231429E+04 -3.536482E-09 -5.947433E-11
       392  14  3.399427E+03 -2.706715E+05 -1.727351E+04  3.293513E+04  3.496820E-09 -4.104463E-09
       392  15 -3.093583E+04 -2.754124E+05 -3.818797E+04  8.222092E+04  8.124684E-10 -7.757658E-09
       392  16 -9.006840E+04 -6.437275E+05 -9.862270E+04  7.870419E+04 -2.630300E-09 -9.868511E-09
       392  17 -1.251703E+05 -7.900276E+05 -1.403253E+05  3.720332E+04  2.726232E-09 -7.415436E-09
       392  18 -1.986592E+05 -9.474589E+05 -2.038622E+05  9.437046E+04  5.367301E-10  4.612298E-09
       392  19  9.219260E+04  9.310797E+04  7.585463E+04  8.592678E+04 -1.300248E+04 -1.502733E+04
       392  20  1.319503E+05  2.489330E+05  1.057606E+05  2.866373E+04 -1.828704E+04 -1.452096E+04
       392  21  1.367544E+05  3.970459E+05  1.274534E+05  7.005855E+04 -6.563648E+03 -1.396640E+04
       392  22  1.067023E+03 -2.753722E+05 -1.137928E+04  8.231437E+04 -1.302222E+04 -7.080249E+03
       392  23  3.399858E+03 -2.706711E+05 -1.727238E+04  3.293537E+04 -1.828308E+04 -1.636714E+04
       392  24 -3.093561E+04 -2.754117E+05 -3.818665E+04  8.222106E+04 -6.529674E+03 -2.560569E+04
       392  25 -9.006821E+04 -6.437275E+05 -9.862238E+04  7.870418E+04 -1.304206E+04  8.621448E+02
       392  26 -1.251699E+05 -7.900271E+05 -1.403241E+05  3.720359E+04 -1.827914E+04 -1.821178E+04
       392  27 -1.986587E+05 -9.474574E+05 -2.038595E+05  9.437065E+04 -6.496138E+03 -3.723239E+04
       393   1  4.281208E+05 -7.556790E+04 -6.821407E+04 -6.735109E+03  1.277976E+04  4.312539E+03
       393   2  4.535040E+05 -9.434765E+04 -7.434055E+04 -3.197395E+03  1.103687E+04  1.306778E+04
       393   3  4.861292E+05 -8.570073E+04 -7.244814E+04 -1.828868E+04  9.303237E+03  1.250705E+04
       393   4  8.276030E+05  2.389017E+04  2.997169E+04 -1.478885E+04  2.051975E+04  4.320264E+03
       393   5  8.235266E+05 -2.890409E+03  1.320273E+04 -5.462701E+03  1.340460E+04  1.306924E+04
       393   6  8.276181E+05 -1.321341E+03  8.176017E+03 -1.476461E+04  6.298790E+03  1.250467E+04
       393   7  1.227231E+06  1.233367E+05  1.281460E+05 -2.284781E+04  2.826471E+04  4.327786E+03
       393   8  1.193675E+06  8.855705E+04  1.007365E+05 -7.729389E+03  1.577374E+04  1.307068E+04
       393   9  1.169214E+06  8.304976E+04  8.879216E+04 -1.123860E+04  3.292700E+03  1.250226E+04
       393  10  4.281206E+05 -7.556796E+04 -6.821442E+04 -6.735154E+03 -6.544223E-11  8.271752E-11
       393  11  4.535038E+05 -9.434787E+04 -7.434110E+04 -3.197511E+03 -7.259723E-10  7.269039E-11
       393  12  4.861291E+05 -8.570092E+04 -7.244860E+04 -1.828878E+04 -1.628907E-11  1.286357E-10
       393  13  8.276026E+05  2.389004E+04  2.997086E+04 -1.478892E+04  6.170064E-10  6.341176E-11
       393  14  8.235264E+05 -2.890640E+03  1.320207E+04 -5.462842E+03  2.786711E-10  2.139877E-10
       393  15  8.276180E+05 -1.321520E+03  8.175648E+03 -1.476467E+04  1.511489E-10  1.073840E-11
       393  16  1.227230E+06  1.233364E+05  1.281444E+05 -2.284791E+04 -1.781486E-10  4.728427E-11
       393  17  1.193675E+06  8.855680E+04  1.007358E+05 -7.729555E+03  5.349868E-10  4.799762E-11
       393  18  1.169214E+06  8.304959E+04  8.879185E+04 -1.123863E+04  1.181411E-10 -1.369648E-10
       393  19  4.281208E+05 -7.556790E+04 -6.821407E+04 -6.735109E+03 -1.277976E+04 -4.312539E+03
       393  20  4.535040E+05 -9.434765E+04 -7.434055E+04 -3.197395E+03 -1.103687E+04 -1.306778E+04
       393  21  4.861292E+05 -8.570073E+04 -7.244814E+04 -1.828868E+04 -9.303237E+03 -1.250705E+04
       393  22  8.276030E+05  2.389017E+04  2.997169E+04 -1.478885E+04 -2.051975E+04 -4.320264E+03
       393  23  8.235266E+05 -2.890409E+03  1.320273E+04 -5.462701E+03 -1.340460E+04 -1.306924E+04
       393  24  8.276181E+05 -1.321341E+03  8.176017E+03 -1.476461E+04 -6.298790E+03 -1.250467E+04
       393  25  1.227231E+06  1.233367E+05  1.281460E+05 -2.284781E+04 -2.826471E+04 -4.327786E+03
       393  26  1.193675E+06  8.855705E+04  1.007365E+05 -7.729389E+03 -1.577374E+04 -1.307068E+04
       393  27  1.169214E+06  8.304976E+04  8.879216E+04 -1.123860E+04 -3.292700E+03 -1.250226E+04
       394   1  5.177568E+05 -7.399840E+04 -6.641933E+04 -1.412918E+04  5.220000E+03  1.052948E+04
       394   2  5.452643E+05 -6.957575E+04 -6.285805E+04 -5.474143E+03  3.804326E+03  9.940065E+03
       394   3  5.737043E+05 -6.251271E+04 -5.769695E+04 -1.508228E+04  2.388298E+03  8.771754E+03
       394   4  8.260264E+05  2.222161E+03  6.643795E+03 -1.469117E+04  5.049248E+03  1.052903E+04
       394   5  8.255343E+05 -3.062195E+02  3.429915E+03 -5.559274E+03  3.299152E+03  9.939554E+03
       394   6  8.260314E+05 -1.368407E+02  2.047319E+03 -1.469002E+04  1.548764E+03  8.771298E+03
       394   7  1.134383E+06  7.843591E+04  7.970032E+04 -1.525346E+04  4.878412E+03  1.052858E+04
       394   8  1.105876E+06  6.895768E+04  6.971244E+04 -5.644452E+03  2.793750E+03  9.939042E+03
       394   9  1.078417E+06  6.223446E+04  6.178717E+04 -1.429760E+04  7.088903E+02  8.770840E+03
       394  10  5.177567E+05 -7.399853E+04 -6.641959E+04 -1.412923E+04 -1.622060E-10 -4.107917E-11
       394  11  5.452643E+05 -6.957586E+04 -6.285826E+04 -5.474173E+03 -3.860876E-10 -3.151636E-11
       394  12  5.737043E+05 -6.251279E+04 -5.769711E+04 -1.508229E+04  2.372377E-11  3.256699E-11
       394  13  8.260264E+05  2.222035E+03  6.643539E+03 -1.469122E+04  2.878725E-10 -1.266968E-11
       394  14  8.255342E+05 -3.063286E+02  3.429709E+03 -5.559301E+03  9.644409E-11 -1.297121E-10
       394  15  8.260314E+05 -1.369240E+02  2.047170E+03 -1.469003E+04  7.182575E-11 -3.105871E-11
       394  16  1.134383E+06  7.843578E+04  7.970007E+04 -1.525350E+04 -2.462950E-11 -1.062560E-10
       394  17  1.105876E+06  6.895758E+04  6.971224E+04 -5.644474E+03  2.118704E-10  5.343093E-11
       394  18  1.078417E+06  6.223438E+04  6.178703E+04 -1.429760E+04  6.094267E-11 -1.222102E-10
       394  19  5.177568E+05 -7.399840E+04 -6.641933E+04 -1.412918E+04 -5.220000E+03 -1.052948E+04
       394  20  5.452643E+05 -6.957575E+04 -6.285805E+04 -5.474143E+03 -3.804326E+03 -9.940065E+03
       394  21  5.737043E+05 -6.251271E+04 -5.769695E+04 -1.508228E+04 -2.388298E+03 -8.771754E+03
       394  22  8.260264E+05  2.222161E+03  6.643795E+03 -1.469117E+04 -5.049248E+03 -1.052903E+04
       394  23  8.255343E+05 -3.062195E+02  3.429915E+03 -5.559274E+03 -3.299152E+03 -9.939554E+03
       394  24  8.260314E+05 -1.368407E+02  2.047319E+03 -1.469002E+04 -1.548764E+03 -8.771298E+03
       394  25  1.134383E+06  7.843591E+04  7.970032E+04 -1.525346E+04 -4.878412E+03 -1.052858E+04
       394  26  1.105876E+06  6.895768E+04  6.971244E+04 -5.644452E+03 -2.793750E+03 -9.939042E+03
       394  27  1.078417E+06  6.223446E+04  6.178717E+04 -1.429760E+04 -7.088903E+02 -8.770840E+03
       395   1  6.057340E+05 -5.419638E+04 -5.038295E+04 -1.458861E+04  1.882031E+03  7.992951E+03
       395   2  6.329496E+05 -4.769339E+04 -4.468045E+04 -5.691117E+03  1.438241E+03  6.840142E+03
       395   3  6.603234E+05 -4.093789E+04 -3.861827E+04 -1.462905E+04  9.940102E+02  5.658800E+03
       395   4  8.258511E+05  1.902289E+02  1.605849E+03 -1.459536E+04  1.226080E+03  7.992637E+03
       395   5  8.257720E+05 -3.941847E+01  9.214897E+02 -5.677801E+03  7.656898E+02  6.839936E+03
       395   6  8.258537E+05 -1.358253E+01  6.083838E+02 -1.459533E+04  3.048773E+02  5.658709E+03
       395   7  1.046013E+06  5.457337E+04  5.359130E+04 -1.460210E+04  5.698975E+02  7.992323E+03
       395   8  1.018629E+06  4.761189E+04  4.652086E+04 -5.664481E+03  9.293048E+01  6.839730E+03
       395   9  9.914091E+05  4.090876E+04  3.983313E+04 -1.456160E+04 -3.844383E+02  5.658617E+03
       395  10  6.057340E+05 -5.419645E+04 -5.038307E+04 -1.458863E+04 -1.811729E-10 -6.304190E-11
       395  11  6.329496E+05 -4.769344E+04 -4.468054E+04 -5.691125E+03 -1.072714E-10  1.010944E-10
       395  12  6.603234E+05 -4.093793E+04 -3.861833E+04 -1.462905E+04  3.769630E-11 -6.945632E-11
       395  13  8.258511E+05  1.901599E+02  1.605726E+03 -1.459536E+04  4.802459E-11  7.600686E-11
       395  14  8.257720E+05 -3.946889E+01  9.214007E+02 -5.677805E+03  1.443366E-11  2.162763E-10
       395  15  8.258537E+05 -1.361695E+01  6.083234E+02 -1.459533E+04  1.166269E-10  2.020460E-11
       395  16  1.046013E+06  5.457330E+04  5.359118E+04 -1.460211E+04  9.773599E-11 -3.757344E-11
       395  17  1.018629E+06  4.761184E+04  4.652077E+04 -5.664481E+03  9.924647E-12 -2.782261E-11
       395  18  9.914091E+05  4.090873E+04  3.983307E+04 -1.456160E+04 -1.463048E-11  3.925407E-11
       395  19  6.057340E+05 -5.419638E+04 -5.038295E+04 -1.458861E+04 -1.882031E+03 -7.992951E+03
       395  20  6.329496E+05 -4.769339E+04 -4.468045E+04 -5.691117E+03 -1.438241E+03 -6.840142E+03
       395  21  6.603234E+05 -4.093789E+04 -3.861827E+04 -1.462905E+04 -9.940102E+02 -5.658800E+03
       395  22  8.258511E+05  1.902289E+02  1.605849E+03 -1.459536E+04 -1.226080E+03 -7.992637E+03
       395  23  8.257720E+05 -3.941847E+01  9.214897E+02 -5.677801E+03 -7.656898E+02 -6.839936E+03
       395  24  8.258537E+05 -1.358253E+01  6.083838E+02 -1.459533E+04 -3.048773E+02 -5.658709E+03
       395  25  1.046013E+06  5.457337E+04  5.359130E+04 -1.460210E+04 -5.698975E+02 -7.992323E+03
       395  26  1.018629E+06  4.761189E+04  4.652086E+04 -5.664481E+03 -9.293048E+01 -6.839730E+03
       395  27  9.914091E+05  4.090876E+04  3.983313E+04 -1.456160E+04  3.844383E+02 -5.658617E+03
       396   1  6.918663E+05 -3.307686E+04 -3.107662E+04 -1.452867E+04  8.779700E+02  4.968760E+03
       396   2  7.187102E+05 -2.647391E+04 -2.486795E+04 -5.744181E+03  6.488898E+02  3.798994E+03
       396   3  7.456000E+05 -1.983417E+04 -1.849980E+04 -1.452000E+04  4.195574E+02  2.631959E+03
       396   4  8.258303E+05  1.345339E+01  5.230395E+02 -1.453423E+04  2.028570E+02  4.968728E+03
       396   5  8.258087E+05 -7.058956E+00  4.591742E+02 -5.754169E+03 -2.470597E+01  3.799023E+03
       396   6  8.258316E+05  8.891040E+00  5.536475E+02 -1.453423E+04 -2.525113E+02  2.632051E+03
       396   7  9.598109E+05  3.310248E+04  3.212146E+04 -1.453979E+04 -4.724007E+02  4.968696E+03
       396   8  9.329177E+05  2.645897E+04  2.578550E+04 -5.764159E+03 -6.984172E+02  3.799052E+03
       396   9  9.060691E+05  1.985149E+04  1.960665E+04 -1.454846E+04 -9.246663E+02  2.632144E+03
       396  10  6.918663E+05 -3.307689E+04 -3.107667E+04 -1.452867E+04 -1.166209E-12 -5.923691E-11
       396  11  7.187102E+05 -2.647392E+04 -2.486798E+04 -5.744183E+03  2.959729E-10  7.825964E-12
       396  12  7.456000E+05 -1.983418E+04 -1.849981E+04 -1.452000E+04  1.662206E-10 -2.084372E-10
       396  13  8.258303E+05  1.342685E+01  5.229930E+02 -1.453423E+04 -2.156481E-11  1.124318E-10
       396  14  8.258086E+05 -7.074460E+00  4.591470E+02 -5.754169E+03 -1.870865E-10 -5.443634E-12
       396  15  8.258316E+05  8.883581E+00  5.536344E+02 -1.453423E+04 -1.130890E-10  3.022495E-11
       396  16  9.598109E+05  3.310246E+04  3.212142E+04 -1.453979E+04 -7.522761E-11 -7.415263E-11
       396  17  9.329177E+05  2.645895E+04  2.578548E+04 -5.764156E+03 -2.066368E-10  7.261088E-11
       396  18  9.060690E+05  1.985148E+04  1.960663E+04 -1.454846E+04 -1.640408E-10 -1.023930E-10
       396  19  6.918663E+05 -3.307686E+04 -3.107662E+04 -1.452867E+04 -8.779700E+02 -4.968760E+03
       396  20  7.187102E+05 -2.647391E+04 -2.486795E+04 -5.744181E+03 -6.488898E+02 -3.798994E+03
       396  21  7.456000E+05 -1.983417E+04 -1.849980E+04 -1.452000E+04 -4.195574E+02 -2.631959E+03
       396  22  8.258303E+05  1.345339E+01  5.230395E+02 -1.453423E+04 -2.028570E+02 -4.968728E+03
       396  23  8.258087E+05 -7.058956E+00  4.591742E+02 -5.754169E+03  2.470597E+01 -3.799023E+03
       396  24  8.258316E+05  8.891040E+00  5.536475E+02 -1.453423E+04  2.525113E+02 -2.632051E+03
       396  25  9.598109E+05  3.310248E+04  3.212146E+04 -1.453979E+04  4.724007E+02 -4.968696E+03
       396  26  9.329177E+05  2.645897E+04  2.578550E+04 -5.764159E+03  6.984172E+02 -3.799052E+03
       396  27  9.060691E+05  1.985149E+04  1.960665E+04 -1.454846E+04  9.246663E+02 -2.632144E+03
       397   1  7.768223E+05 -1.209714E+04 -1.085284E+04 -1.447936E+04  3.083821E+02  1.954266E+03
       397   2  8.034619E+05 -5.534333E+03 -4.248825E+03 -5.768338E+03 -2.058491E+02  7.923422E+02
       397   3  8.301908E+05  1.144829E+03  2.717019E+03 -1.449571E+04 -7.201515E+02 -3.670666E+02
       397   4  8.258423E+05  4.146642E-01  6.584053E+02 -1.450717E+04 -3.623104E+02  1.954383E+03
       397   5  8.257982E+05 -1.473086E+01  1.033078E+03 -5.787988E+03 -8.751199E+02  7.924715E+02
       397   6  8.258423E+05  8.628119E+01  1.768636E+03 -1.450715E+04 -1.387979E+03 -3.669234E+02
       397   7  8.748646E+05  1.209780E+04  1.216949E+04 -1.453499E+04 -1.033055E+03  1.954501E+03
       397   8  8.481349E+05  5.504836E+03  6.314948E+03 -5.807638E+03 -1.544415E+03  7.926008E+02
       397   9  8.214940E+05 -9.722673E+02  8.202534E+02 -1.451859E+04 -2.055801E+03 -3.667801E+02
       397  10  7.768223E+05 -1.209714E+04 -1.085285E+04 -1.447936E+04 -1.202078E-10 -2.520278E-10
       397  11  8.034619E+05 -5.534334E+03 -4.248826E+03 -5.768338E+03  2.514362E-10  1.819272E-11
       397  12  8.301908E+05  1.144828E+03  2.717017E+03 -1.449571E+04  4.717407E-11  2.757969E-11
       397  13  8.258423E+05  4.105259E-01  6.583979E+02 -1.450717E+04 -2.800030E-11  1.177147E-10
       397  14  8.257982E+05 -1.473174E+01  1.033076E+03 -5.787987E+03 -2.191548E-10  1.710003E-10
       397  15  8.258423E+05  8.628053E+01  1.768632E+03 -1.450715E+04 -2.771953E-10  3.220339E-11
       397  16  8.748646E+05  1.209779E+04  1.216948E+04 -1.453499E+04  9.222271E-11 -1.969476E-11
       397  17  8.481349E+05  5.504835E+03  6.314943E+03 -5.807637E+03 -1.674774E-10  1.834195E-10
       397  18  8.214939E+05 -9.722685E+02  8.202453E+02 -1.451860E+04 -6.773913E-11  1.209525E-10
       397  19  7.768223E+05 -1.209714E+04 -1.085284E+04 -1.447936E+04 -3.083821E+02 -1.954266E+03
       397  20  8.034619E+05 -5.534333E+03 -4.248825E+03 -5.768338E+03  2.058491E+02 -7.923422E+02
       397  21  8.301908E+05  1.144829E+03  2.717019E+03 -1.449571E+04  7.201515E+02  3.670666E+02
       397  22  8.258423E+05  4.146642E-01  6.584053E+02 -1.450717E+04  3.623104E+02 -1.954383E+03
       397  23  8.257982E+05 -1.473086E+01  1.033078E+03 -5.787988E+03  8.751199E+02 -7.924715E+02
       397  24  8.258423E+05  8.628119E+01  1.768636E+03 -1.450715E+04  1.387979E+03  3.669234E+02
       397  25  8.748646E+05  1.209780E+04  1.216949E+04 -1.453499E+04  1.033055E+03 -1.954501E+03
       397  26  8.481349E+05  5.504836E+03  6.314948E+03 -5.807638E+03  1.544415E+03 -7.926008E+02
       397  27  8.214940E+05 -9.722673E+02  8.202534E+02 -1.451859E+04  2.055801E+03  3.667801E+02
       398   1  8.614315E+05  8.739684E+03  1.076611E+04 -1.434593E+04 -1.077426E+03 -1.045926E+03
       398   2  8.878998E+05  1.524098E+04  1.864529E+04 -5.788112E+03 -3.056285E+03 -2.206524E+03
       398   3  9.149154E+05  2.291503E+04  2.810360E+04 -1.470555E+04 -5.035062E+03 -3.344996E+03
       398   4  8.259435E+05 -4.542980E+01  2.294782E+03 -1.451543E+04 -1.753149E+03 -1.045789E+03
       398   5  8.256700E+05 -1.360776E+02  3.930381E+03 -5.777678E+03 -3.719076E+03 -2.206427E+03
       398   6  8.259415E+05  9.440399E+02  7.136455E+03 -1.451527E+04 -5.684838E+03 -3.344937E+03
       398   7  7.904567E+05 -8.830634E+03 -6.176633E+03 -1.468493E+04 -2.428834E+03 -1.045651E+03
       398   8  7.634438E+05 -1.551341E+04 -1.078479E+04 -5.767244E+03 -4.381801E+03 -2.206329E+03
       398   9  7.369748E+05 -2.102752E+04 -1.383124E+04 -1.432503E+04 -6.334521E+03 -3.344878E+03
       398  10  8.614315E+05  8.739682E+03  1.076611E+04 -1.434593E+04 -1.695150E-10 -1.057192E-10
       398  11  8.878998E+05  1.524097E+04  1.864526E+04 -5.788118E+03  2.280354E-10  8.370174E-13
       398  12  9.149154E+05  2.291501E+04  2.810354E+04 -1.470556E+04  6.097204E-11 -1.170081E-10
       398  13  8.259435E+05 -4.543180E+01  2.294774E+03 -1.451544E+04 -1.323462E-10  4.898966E-11
       398  14  8.256700E+05 -1.360866E+02  3.930346E+03 -5.777684E+03  6.826944E-11 -6.253795E-12
       398  15  8.259414E+05  9.440192E+02  7.136373E+03 -1.451529E+04 -9.544985E-12 -6.291563E-11
       398  16  7.904567E+05 -8.830637E+03 -6.176646E+03 -1.468494E+04  9.554557E-11 -1.206952E-10
       398  17  7.634438E+05 -1.551342E+04 -1.078484E+04 -5.767252E+03 -2.087105E-10 -5.594149E-11
       398  18  7.369748E+05 -2.102754E+04 -1.383134E+04 -1.432504E+04 -1.336841E-10  8.311482E-11
       398  19  8.614315E+05  8.739684E+03  1.076611E+04 -1.434593E+04  1.077426E+03  1.045926E+03
       398  20  8.878998E+05  1.524098E+04  1.864529E+04 -5.788112E+03  3.056285E+03  2.206524E+03
       398  21  9.149154E+05  2.291503E+04  2.810360E+04 -1.470555E+04  5.035062E+03  3.344996E+03
       398  22  8.259435E+05 -4.542980E+01  2.294782E+03 -1.451543E+04  1.753149E+03  1.045789E+03
       398  23  8.256700E+05 -1.360776E+02  3.930381E+03 -5.777678E+03  3.719076E+03  2.206427E+03
       398  24  8.259415E+05  9.440399E+02  7.136455E+03 -1.451527E+04  5.684838E+03  3.344937E+03
       398  25  7.904567E+05 -8.830634E+03 -6.176633E+03 -1.468493E+04  2.428834E+03  1.045651E+03
       398  26  7.634438E+05 -1.551341E+04 -1.078479E+04 -5.767244E+03  4.381801E+03  2.206329E+03
       398  27  7.369748E+05 -2.102752E+04 -1.383124E+04 -1.432503E+04  6.334521E+03  3.344878E+03
       399   1  9.470611E+05  2.919572E+04  3.768787E+04 -1.300219E+04 -6.352590E+03 -4.078140E+03
       399   2  9.720270E+05  3.511375E+04  5.036913E+04 -6.522662E+03 -1.450044E+04 -5.222799E+03
       399   3  1.001149E+06  5.334970E+04  7.143207E+04 -1.770069E+04 -2.264852E+04 -5.980195E+03
       399   4  8.267344E+05 -5.498157E+02  9.165795E+03 -1.455589E+04 -7.123749E+03 -4.078091E+03
       399   5  8.246713E+05 -1.296462E+03  1.552623E+04 -5.727122E+03 -1.504661E+04 -5.222886E+03
       399   6  8.267259E+05  1.023746E+04  3.011379E+04 -1.455604E+04 -2.296935E+04 -5.980436E+03
       399   7  7.064211E+05 -3.029638E+04 -1.935729E+04 -1.610930E+04 -7.894759E+03 -4.078038E+03
       399   8  6.773356E+05 -3.770822E+04 -1.931817E+04 -4.931772E+03 -1.559265E+04 -5.222974E+03
       399   9  6.523303E+05 -3.287693E+04 -1.120661E+04 -1.141227E+04 -2.329010E+04 -5.980680E+03
       399  10  9.470611E+05  2.919569E+04  3.768777E+04 -1.300221E+04 -4.701374E-11  4.469168E-11
       399  11  9.720267E+05  3.511366E+04  5.036869E+04 -6.522723E+03  3.991647E-10  1.316881E-10
       399  12  1.001149E+06  5.334952E+04  7.143105E+04 -1.770080E+04  1.279657E-10  1.731452E-10
       399  13  8.267344E+05 -5.498471E+02  9.165668E+03 -1.455592E+04 -1.816370E-11  7.543476E-11
       399  14  8.246710E+05 -1.296552E+03  1.552576E+04 -5.727185E+03 -1.917349E-10  1.085686E-10
       399  15  8.267253E+05  1.023728E+04  3.011273E+04 -1.455615E+04  9.428432E-11  2.303501E-10
       399  16  7.064210E+05 -3.029641E+04 -1.935744E+04 -1.610932E+04 -2.059014E-12  1.300677E-11
       399  17  6.773353E+05 -3.770832E+04 -1.931867E+04 -4.931838E+03 -4.290075E-10  2.261403E-11
       399  18  6.523297E+05 -3.287711E+04 -1.120769E+04 -1.141238E+04  5.823180E-11  2.401356E-10
       399  19  9.470611E+05  2.919572E+04  3.768787E+04 -1.300219E+04  6.352590E+03  4.078140E+03
       399  20  9.720270E+05  3.511375E+04  5.036913E+04 -6.522662E+03  1.450044E+04  5.222799E+03
       399  21  1.001149E+06  5.334970E+04  7.143207E+04 -1.770069E+04  2.264852E+04  5.980195E+03
       399  22  8.267344E+05 -5.498157E+02  9.165795E+03 -1.455589E+04  7.123749E+03  4.078091E+03
       399  23  8.246713E+05 -1.296462E+03  1.552623E+04 -5.727122E+03  1.504661E+04  5.222886E+03
       399  24  8.267259E+05  1.023746E+04  3.011379E+04 -1.455604E+04  2.296935E+04  5.980436E+03
       399  25  7.064211E+05 -3.029638E+04 -1.935729E+04 -1.610930E+04  7.894759E+03  4.078038E+03
       399  26  6.773356E+05 -3.770822E+04 -1.931817E+04 -4.931772E+03  1.559265E+04  5.222974E+03
       399  27  6.523303E+05 -3.287693E+04 -1.120661E+04 -1.141227E+04  2.329010E+04  5.980680E+03
       400   1  1.040219E+06  4.512374E+04  8.577439E+04  6.545446E+02 -2.642587E+04 -7.509825E+03
       400   2  1.049358E+06  4.479135E+04  1.152297E+05 -1.700265E+04 -6.228065E+04 -8.253091E+03
       400   3  1.095507E+06  1.736785E+05  2.003173E+05 -5.253435E+04 -9.813895E+04 -2.789475E+03
       400   4  8.339065E+05 -5.841720E+03  3.706553E+04 -1.459436E+04 -2.863510E+04 -7.509569E+03
       400   5  8.156829E+05 -1.294225E+04  5.996463E+04 -5.675061E+03 -6.090100E+04 -8.254119E+03
       400   6  8.338589E+05  1.085782E+05  1.360207E+05 -1.462865E+04 -9.316858E+04 -2.793819E+03
       400   7  6.276335E+05 -5.680935E+04 -1.164612E+04 -2.983818E+04 -3.084361E+04 -7.509204E+03
       400   8  5.820578E+05 -7.067927E+04  4.695874E+03  5.648249E+03 -5.952186E+04 -8.255096E+03
       400   9  5.722763E+05  4.347820E+04  7.171984E+04  2.326107E+04 -8.820029E+04 -2.797558E+03
       400  10  1.040218E+06  4.512349E+04  8.577298E+04  6.543848E+02  1.162446E-10  1.426387E-10
       400  11  1.049354E+06  4.479023E+04  1.152223E+05 -1.700307E+04 -1.690916E-10 -3.168155E-11
       400  12  1.095496E+06  1.736759E+05  2.002992E+05 -5.253457E+04  1.549364E-10  7.518868E-11
       400  13  8.339056E+05 -5.842001E+03  3.706389E+04 -1.459454E+04  2.213960E-10  1.632026E-10
       400  14  8.156789E+05 -1.294332E+04  5.995754E+04 -5.675466E+03 -1.115208E-10  1.841227E-10
       400  15  8.338496E+05  1.085759E+05  1.360044E+05 -1.462886E+04  1.758327E-11  1.422345E-11
       400  16  6.276325E+05 -5.680967E+04 -1.164801E+04 -2.983837E+04  3.098160E-11  3.172407E-10
       400  17  5.820539E+05 -7.068029E+04  4.689095E+03  5.647854E+03  2.876404E-10  4.834314E-10
       400  18  5.722680E+05  4.347610E+04  7.170522E+04  2.326087E+04 -5.685849E-11  9.923574E-11
       400  19  1.040219E+06  4.512374E+04  8.577439E+04  6.545446E+02  2.642587E+04  7.509825E+03
       400  20  1.049358E+06  4.479135E+04  1.152297E+05 -1.700265E+04  6.228065E+04  8.253091E+03
       400  21  1.095507E+06  1.736785E+05  2.003173E+05 -5.253435E+04  9.813895E+04  2.789475E+03
       400  22  8.339065E+05 -5.841720E+03  3.706553E+04 -1.459436E+04  2.863510E+04  7.509569E+03
       400  23  8.156829E+05 -1.294225E+04  5.996463E+04 -5.675061E+03  6.090100E+04  8.254119E+03
       400  24  8.338589E+05  1.085782E+05  1.360207E+05 -1.462865E+04  9.316858E+04  2.793819E+03
       400  25  6.276335E+05 -5.680935E+04 -1.164612E+04 -2.983818E+04  3.084361E+04  7.509204E+03
       400  26  5.820578E+05 -7.067927E+04  4.695874E+03  5.648249E+03  5.952186E+04  8.255096E+03
       400  27  5.722763E+05  4.347820E+04  7.171984E+04  2.326107E+04  8.820029E+04  2.797558E+03
       401   1 -1.519839E+05 -8.678305E+04 -8.268190E+04 -1.305969E+04  1.998539E+03  4.215169E+03
       401   2 -1.218260E+05 -9.063652E+04 -7.929355E+04 -5.569720E+03  3.993515E+03  1.274673E+04
       401   3 -8.872044E+04 -8.214500E+04 -7.409420E+04 -1.841787E+04  5.991211E+03  1.205787E+04
       401   4  2.410427E+05  1.115094E+04  1.399028E+04 -1.686882E+04  9.570632E+03  4.217433E+03
       401   5  2.391122E+05 -1.362617E+03  6.156557E+03 -6.698701E+03  6.254251E+03  1.274655E+04
       401   6  2.410491E+05 -6.128584E+02  3.820441E+03 -1.686593E+04  2.940595E+03  1.205762E+04
       401   7  6.342099E+05  1.090735E+05  1.106513E+05 -2.068037E+04  1.714751E+04  4.219604E+03
       401   8  6.001702E+05  8.790195E+04  9.159765E+04 -7.828345E+03  8.516294E+03  1.274635E+04
       401   9  5.709186E+05  8.091151E+04  8.172760E+04 -1.531316E+04 -1.116342E+02  1.205737E+04
       401  10 -1.519839E+05 -8.678307E+04 -8.268194E+04 -1.305970E+04  1.959443E-10  1.392518E-10
       401  11 -1.218261E+05 -9.063670E+04 -7.929389E+04 -5.569761E+03  1.251687E-10  3.428835E-11
       401  12 -8.872052E+04 -8.214517E+04 -7.409454E+04 -1.841793E+04 -2.280533E-10  1.255758E-11
       401  13  2.410426E+05  1.115090E+04  1.399007E+04 -1.686885E+04  3.048148E-10  1.899924E-11
       401  14  2.391121E+05 -1.362802E+03  6.156178E+03 -6.698765E+03  4.471460E-11  3.260589E-11
       401  15  2.410490E+05 -6.130169E+02  3.820152E+03 -1.686596E+04 -1.544169E-10 -2.084486E-11
       401  16  6.342096E+05  1.090734E+05  1.106507E+05 -2.068043E+04 -1.541598E-10  9.930284E-11
       401  17  6.001701E+05  8.790175E+04  9.159720E+04 -7.828432E+03 -9.313942E-11 -1.049777E-10
       401  18  5.709186E+05  8.091135E+04  8.172733E+04 -1.531316E+04 -3.797120E-11  2.571295E-11
       401  19 -1.519839E+05 -8.678305E+04 -8.268190E+04 -1.305969E+04 -1.998539E+03 -4.215169E+03
       401  20 -1.218260E+05 -9.063652E+04 -7.929355E+04 -5.569720E+03 -3.993515E+03 -1.274673E+04
       401  21 -8.872044E+04 -8.214500E+04 -7.409420E+04 -1.841787E+04 -5.991211E+03 -1.205787E+04
       401  22  2.410427E+05  1.115094E+04  1.399028E+04 -1.686882E+04 -9.570632E+03 -4.217433E+03
       401  23  2.391122E+05 -1.362617E+03  6.156557E+03 -6.698701E+03 -6.254251E+03 -1.274655E+04
       401  24  2.410491E+05 -6.128584E+02  3.820441E+03 -1.686593E+04 -2.940595E+03 -1.205762E+04
       401  25  6.342099E+05  1.090735E+05  1.106513E+05 -2.068037E+04 -1.714751E+04 -4.219604E+03
       401  26  6.001702E+05  8.790195E+04  9.159765E+04 -7.828345E+03 -8.516294E+03 -1.274635E+04
       401  27  5.709186E+05  8.091151E+04  8.172760E+04 -1.531316E+04  1.116342E+02 -1.205737E+04
       402   1 -5.272261E+04 -7.145664E+04 -6.638622E+04 -1.653410E+04  2.610981E+03  1.002124E+04
       402   2 -2.165091E+04 -6.486973E+04 -6.033348E+04 -6.535911E+03  2.126791E+03  9.285742E+03
       402   3  9.836643E+03 -5.706010E+04 -5.364988E+04 -1.697344E+04  1.641836E+03  7.968331E+03
       402   4  2.403005E+05  1.040986E+03  3.104741E+03 -1.688823E+04  2.355650E+03  1.002096E+04
       402   5  2.400661E+05 -1.439954E+02  1.606235E+03 -6.670752E+03  1.535953E+03  9.285645E+03
       402   6  2.403043E+05 -4.836794E+01  9.712131E+02 -1.688845E+04  7.155108E+02  7.968529E+03
       402   7  5.334024E+05  7.353245E+04  7.258973E+04 -1.724251E+04  2.100199E+03  1.002068E+04
       402   8  5.018461E+05  6.457683E+04  6.354120E+04 -6.805646E+03  9.448671E+02  9.285549E+03
       402   9  4.708208E+05  5.695955E+04  5.558862E+04 -1.680343E+04 -2.111566E+02  7.968726E+03
       402  10 -5.272264E+04 -7.145675E+04 -6.638643E+04 -1.653412E+04 -7.962925E-11  1.831698E-11
       402  11 -2.165094E+04 -6.486982E+04 -6.033365E+04 -6.535927E+03  4.845874E-10 -1.759228E-11
       402  12  9.836623E+03 -5.706017E+04 -5.365001E+04 -1.697345E+04 -1.618033E-10  2.206197E-10
       402  13  2.403004E+05  1.040877E+03  3.104542E+03 -1.688824E+04 -3.851811E-10 -6.641708E-11
       402  14  2.400661E+05 -1.440886E+02  1.606068E+03 -6.670764E+03 -4.989492E-11 -2.249490E-10
       402  15  2.403043E+05 -4.843627E+01  9.710928E+02 -1.688846E+04 -9.771740E-11  4.720168E-11
       402  16  5.334024E+05  7.353234E+04  7.258953E+04 -1.724253E+04 -1.028860E-11 -1.959997E-11
       402  17  5.018461E+05  6.457673E+04  6.354103E+04 -6.805653E+03 -4.443407E-10 -1.793700E-10
       402  18  4.708208E+05  5.695948E+04  5.558850E+04 -1.680342E+04  2.094208E-10 -1.635991E-10
       402  19 -5.272261E+04 -7.145664E+04 -6.638622E+04 -1.653410E+04 -2.610981E+03 -1.002124E+04
       402  20 -2.165091E+04 -6.486973E+04 -6.033348E+04 -6.535911E+03 -2.126791E+03 -9.285742E+03
       402  21  9.836643E+03 -5.706010E+04 -5.364988E+04 -1.697344E+04 -1.641836E+03 -7.968331E+03
       402  22  2.403005E+05  1.040986E+03  3.104741E+03 -1.688823E+04 -2.355650E+03 -1.002096E+04
       402  23  2.400661E+05 -1.439954E+02  1.606235E+03 -6.670752E+03 -1.535953E+03 -9.285645E+03
       402  24  2.403043E+05 -4.836794E+01  9.712131E+02 -1.688845E+04 -7.155108E+02 -7.968529E+03
       402  25  5.334024E+05  7.353245E+04  7.258973E+04 -1.724251E+04 -2.100199E+03 -1.002068E+04
       402  26  5.018461E+05  6.457683E+04  6.354120E+04 -6.805646E+03 -9.448671E+02 -9.285549E+03
       402  27  4.708208E+05  5.695955E+04  5.558862E+04 -1.680343E+04  2.111566E+02 -7.968726E+03
       403   1  4.616441E+04 -4.787039E+04 -4.507476E+04 -1.677693E+04  1.309123E+03  7.099338E+03
       403   2  7.723603E+04 -4.030975E+04 -3.809848E+04 -6.628855E+03  1.097225E+03  5.783367E+03
       403   3  1.083660E+05 -3.260919E+04 -3.095049E+04 -1.681474E+04  8.848800E+02  4.432487E+03
       403   4  2.402170E+05  1.030311E+02  7.685998E+02 -1.686577E+04  5.611909E+02  7.099556E+03
       403   5  2.401876E+05 -1.247994E+01  4.635382E+02 -6.698981E+03  3.291034E+02  5.783703E+03
       403   6  2.402192E+05  1.548494E+01  3.442294E+02 -1.686582E+04  9.657908E+01  4.432948E+03
       403   7  4.343041E+05  4.807376E+04  4.660935E+04 -1.695464E+04 -1.869733E+02  7.099775E+03
       403   8  4.031636E+05  4.028289E+04  3.902372E+04 -6.769122E+03 -4.392187E+02  5.784039E+03
       403   9  3.720884E+05  3.263891E+04  3.163774E+04 -1.691691E+04 -6.918884E+02  4.433408E+03
       403  10  4.616440E+04 -4.787044E+04 -4.507485E+04 -1.677694E+04  7.200235E-11  1.223547E-10
       403  11  7.723602E+04 -4.030979E+04 -3.809855E+04 -6.628860E+03  6.912496E-10  1.591928E-10
       403  12  1.083660E+05 -3.260921E+04 -3.095053E+04 -1.681475E+04 -1.447984E-11 -2.536602E-10
       403  13  2.402169E+05  1.029769E+02  7.685045E+02 -1.686578E+04 -1.149676E-10  6.196538E-11
       403  14  2.401876E+05 -1.251589E+01  4.634751E+02 -6.698983E+03 -3.464686E-10  3.780955E-10
       403  15  2.402192E+05  1.546384E+01  3.441925E+02 -1.686582E+04 -8.550935E-11  4.711126E-10
       403  16  4.343041E+05  4.807370E+04  4.660926E+04 -1.695464E+04  2.558058E-10 -1.256947E-10
       403  17  4.031636E+05  4.028285E+04  3.902366E+04 -6.769120E+03 -2.753229E-10 -3.908987E-10
       403  18  3.720884E+05  3.263888E+04  3.163770E+04 -1.691690E+04 -3.632645E-10 -2.174293E-10
       403  19  4.616441E+04 -4.787039E+04 -4.507476E+04 -1.677693E+04 -1.309123E+03 -7.099338E+03
       403  20  7.723603E+04 -4.030975E+04 -3.809848E+04 -6.628855E+03 -1.097225E+03 -5.783367E+03
       403  21  1.083660E+05 -3.260919E+04 -3.095049E+04 -1.681474E+04 -8.848800E+02 -4.432487E+03
       403  22  2.402170E+05  1.030311E+02  7.685998E+02 -1.686577E+04 -5.611909E+02 -7.099556E+03
       403  23  2.401876E+05 -1.247994E+01  4.635382E+02 -6.698981E+03 -3.291034E+02 -5.783703E+03
       403  24  2.402192E+05  1.548494E+01  3.442294E+02 -1.686582E+04 -9.657908E+01 -4.432948E+03
       403  25  4.343041E+05  4.807376E+04  4.660935E+04 -1.695464E+04  1.869733E+02 -7.099775E+03
       403  26  4.031636E+05  4.028289E+04  3.902372E+04 -6.769122E+03  4.392187E+02 -5.784039E+03
       403  27  3.720884E+05  3.263891E+04  3.163774E+04 -1.691691E+04  6.918884E+02 -4.433408E+03
       404   1  1.446089E+05 -2.359457E+04 -2.220661E+04 -1.680047E+04  8.123348E+02  3.640659E+03
       404   2  1.756157E+05 -1.596764E+04 -1.493277E+04 -6.677055E+03  6.380902E+02  2.292208E+03
       404   3  2.066254E+05 -8.292928E+03 -7.540761E+03 -1.682575E+04  4.636721E+02  9.424224E+02
       404   4  2.402085E+05  2.726137E+01  3.228196E+02 -1.685210E+04  3.579701E+01  3.641163E+03
       404   5  2.402076E+05  4.746414E+00  3.517808E+02 -6.716113E+03 -1.392464E+02  2.292755E+03
       404   6  2.402094E+05  3.032104E+01  4.996269E+02 -1.685210E+04 -3.144547E+02  9.430152E+02
       404   7  3.358164E+05  2.364844E+04  2.285162E+04 -1.690375E+04 -7.408597E+02  3.641667E+03
       404   8  3.048034E+05  1.597683E+04  1.563604E+04 -6.755175E+03 -9.166634E+02  2.293302E+03
       404   9  2.737944E+05  8.353488E+03  8.539937E+03 -1.687845E+04 -1.092623E+03  9.436080E+02
       404  10  1.446089E+05 -2.359459E+04 -2.220663E+04 -1.680047E+04  5.608998E-11 -4.657502E-11
       404  11  1.756157E+05 -1.596764E+04 -1.493278E+04 -6.677057E+03  7.252541E-10 -3.874253E-11
       404  12  2.066254E+05 -8.292929E+03 -7.540763E+03 -1.682575E+04  2.318382E-10 -1.033359E-10
       404  13  2.402085E+05  2.724713E+01  3.227947E+02 -1.685210E+04 -1.934659E-10 -5.488350E-10
       404  14  2.402076E+05  4.740763E+00  3.517709E+02 -6.716113E+03 -3.034158E-10  1.387916E-10
       404  15  2.402094E+05  3.032006E+01  4.996250E+02 -1.685210E+04 -1.011325E-11 -3.352269E-10
       404  16  3.358164E+05  2.364843E+04  2.285159E+04 -1.690374E+04  1.743460E-10  1.643526E-11
       404  17  3.048034E+05  1.597682E+04  1.563603E+04 -6.755173E+03 -6.194185E-10 -1.302191E-10
       404  18  2.737944E+05  8.353487E+03  8.539934E+03 -1.687845E+04 -4.563407E-10 -6.153448E-10
       404  19  1.446089E+05 -2.359457E+04 -2.220661E+04 -1.680047E+04 -8.123348E+02 -3.640659E+03
       404  20  1.756157E+05 -1.596764E+04 -1.493277E+04 -6.677055E+03 -6.380902E+02 -2.292208E+03
       404  21  2.066254E+05 -8.292928E+03 -7.540761E+03 -1.682575E+04 -4.636721E+02 -9.424224E+02
       404  22  2.402085E+05  2.726137E+01  3.228196E+02 -1.685210E+04 -3.579701E+01 -3.641163E+03
       404  23  2.402076E+05  4.746414E+00  3.517808E+02 -6.716113E+03  1.392464E+02 -2.292755E+03
       404  24  2.402094E+05  3.032104E+01  4.996269E+02 -1.685210E+04  3.144547E+02 -9.430152E+02
       404  25  3.358164E+05  2.364844E+04  2.285162E+04 -1.690375E+04  7.408597E+02 -3.641667E+03
       404  26  3.048034E+05  1.597683E+04  1.563604E+04 -6.755175E+03  9.166634E+02 -2.293302E+03
       404  27  2.737944E+05  8.353488E+03  8.539937E+03 -1.687845E+04  1.092623E+03 -9.436080E+02
       405   1  2.428344E+05  6.851354E+02  1.336018E+03 -1.682928E+04  3.612331E+02  1.564324E+02
       405   2  2.737978E+05  8.302571E+03  8.985284E+03 -6.719011E+03 -1.532923E+02 -1.192697E+03
       405   3  3.048290E+05  1.606121E+04  1.699682E+04 -1.687259E+04 -6.677633E+02 -2.540245E+03
       405   4  2.402238E+05  2.094800E+01  6.247841E+02 -1.685033E+04 -4.167728E+02  1.570322E+02
       405   5  2.401904E+05 -7.391218E+00  1.033157E+03 -6.718342E+03 -9.303839E+02 -1.192122E+03
       405   6  2.402232E+05  1.052721E+02  1.803129E+03 -1.685027E+04 -1.443915E+03 -2.539692E+03
       405   7  2.376132E+05 -6.432396E+02 -8.644826E+01 -1.687139E+04 -1.194776E+03  1.576320E+02
       405   8  2.065840E+05 -8.317434E+03 -6.919045E+03 -6.717672E+03 -1.707434E+03 -1.191547E+03
       405   9  1.756214E+05 -1.585096E+04 -1.339085E+04 -1.682794E+04 -2.219987E+03 -2.539139E+03
       405  10  2.428344E+05  6.851353E+02  1.336018E+03 -1.682928E+04 -1.891453E-10  5.008905E-10
       405  11  2.737978E+05  8.302569E+03  8.985282E+03 -6.719011E+03  9.745914E-10  1.070923E-09
       405  12  3.048290E+05  1.606120E+04  1.699681E+04 -1.687259E+04  9.011710E-10 -6.626252E-10
       405  13  2.402238E+05  2.094793E+01  6.247837E+02 -1.685033E+04 -5.239538E-10  5.371422E-11
       405  14  2.401904E+05 -7.392976E+00  1.033153E+03 -6.718343E+03  1.314193E-12 -2.864845E-10
       405  15  2.402232E+05  1.052646E+02  1.803113E+03 -1.685027E+04 -3.375097E-10  7.213534E-13
       405  16  2.376132E+05 -6.432400E+02 -8.645099E+01 -1.687139E+04  4.416328E-10 -4.247575E-11
       405  17  2.065840E+05 -8.317436E+03 -6.919053E+03 -6.717674E+03 -9.407551E-10 -2.680158E-10
       405  18  1.756213E+05 -1.585097E+04 -1.339087E+04 -1.682795E+04 -1.040255E-09 -7.590154E-11
       405  19  2.428344E+05  6.851354E+02  1.336018E+03 -1.682928E+04 -3.612331E+02 -1.564324E+02
       405  20  2.737978E+05  8.302571E+03  8.985284E+03 -6.719011E+03  1.532923E+02  1.192697E+03
       405  21  3.048290E+05  1.606121E+04  1.699682E+04 -1.687259E+04  6.677633E+02  2.540245E+03
       405  22  2.402238E+05  2.094800E+01  6.247841E+02 -1.685033E+04  4.167728E+02 -1.570322E+02
       405  23  2.401904E+05 -7.391218E+00  1.033157E+03 -6.718342E+03  9.303839E+02  1.192122E+03
       405  24  2.402232E+05  1.052721E+02  1.803129E+03 -1.685027E+04  1.443915E+03  2.539692E+03
       405  25  2.376132E+05 -6.432396E+02 -8.644826E+01 -1.687139E+04  1.194776E+03 -1.576320E+02
       405  26  2.065840E+05 -8.317434E+03 -6.919045E+03 -6.717672E+03  1.707434E+03  1.191547E+03
       405  27  1.756214E+05 -1.585096E+04 -1.339085E+04 -1.682794E+04  2.219987E+03  2.539139E+03
       406   1  3.411660E+05  2.492097E+04  2.630122E+04 -1.673371E+04 -1.030518E+03 -3.330770E+03
       406   2  3.719553E+05  3.247670E+04  3.524710E+04 -6.770409E+03 -3.069844E+03 -4.679117E+03
       406   3  4.033020E+05  4.126236E+04  4.582370E+04 -1.711499E+04 -5.108917E+03 -5.995123E+03
       406   4  2.403299E+05 -2.964713E+01  2.349865E+03 -1.686033E+04 -1.817402E+03 -3.330247E+03
       406   5  2.400521E+05 -1.366371E+02  4.038184E+03 -6.705950E+03 -3.837720E+03 -4.678698E+03
       406   6  2.403277E+05  9.832515E+02  7.344379E+03 -1.685971E+04 -5.857685E+03 -5.994802E+03
       406   7  1.395032E+05 -2.498099E+04 -2.160219E+04 -1.698693E+04 -2.604159E+03 -3.329724E+03
       406   8  1.081649E+05 -3.275122E+04 -2.717193E+04 -6.641503E+03 -4.605434E+03 -4.678279E+03
       406   9  7.737785E+04 -3.929776E+04 -3.113677E+04 -1.660450E+04 -6.606258E+03 -5.994482E+03
       406  10  3.411660E+05  2.492096E+04  2.630119E+04 -1.673371E+04  1.835524E-10 -8.843873E-10
       406  11  3.719553E+05  3.247668E+04  3.524704E+04 -6.770421E+03  6.090445E-10 -2.556820E-11
       406  12  4.033020E+05  4.126232E+04  4.582358E+04 -1.711501E+04 -2.706267E-10  2.915232E-10
       406  13  2.403299E+05 -2.965992E+01  2.349838E+03 -1.686033E+04 -6.756632E-10 -2.118158E-11
       406  14  2.400521E+05 -1.366646E+02  4.038116E+03 -6.705965E+03 -2.553833E-10 -3.105636E-10
       406  15  2.403277E+05  9.832037E+02  7.344247E+03 -1.685974E+04 -1.858387E-10 -2.002958E-10
       406  16  1.395032E+05 -2.498101E+04 -2.160223E+04 -1.698693E+04 -8.372496E-11 -7.881677E-11
       406  17  1.081649E+05 -3.275125E+04 -2.717201E+04 -6.641520E+03 -5.449466E-10  6.809938E-10
       406  18  7.737779E+04 -3.929781E+04 -3.113692E+04 -1.660453E+04  2.916972E-10  1.359082E-10
       406  19  3.411660E+05  2.492097E+04  2.630122E+04 -1.673371E+04  1.030518E+03  3.330770E+03
       406  20  3.719553E+05  3.247670E+04  3.524710E+04 -6.770409E+03  3.069844E+03  4.679117E+03
       406  21  4.033020E+05  4.126236E+04  4.582370E+04 -1.711499E+04  5.108917E+03  5.995123E+03
       406  22  2.403299E+05 -2.964713E+01  2.349865E+03 -1.686033E+04  1.817402E+03  3.330247E+03
       406  23  2.400521E+05 -1.366371E+02  4.038184E+03 -6.705950E+03  3.837720E+03  4.678698E+03
       406  24  2.403277E+05  9.832515E+02  7.344379E+03 -1.685971E+04  5.857685E+03  5.994802E+03
       406  25  1.395032E+05 -2.498099E+04 -2.160219E+04 -1.698693E+04  2.604159E+03  3.329724E+03
       406  26  1.081649E+05 -3.275122E+04 -2.717193E+04 -6.641503E+03  4.605434E+03  4.678279E+03
       406  27  7.737785E+04 -3.929776E+04 -3.113677E+04 -1.660450E+04  6.606258E+03  5.994482E+03
       407   1  4.404901E+05  4.874456E+04  5.667975E+04 -1.534710E+04 -6.425328E+03 -6.856278E+03
       407   2  4.695574E+05  5.566111E+04  7.053090E+04 -7.564544E+03 -1.489367E+04 -8.171539E+03
       407   3  5.029344E+05  7.530347E+04  9.307905E+04 -2.017386E+04 -2.336165E+04 -8.951015E+03
       407   4  2.411475E+05 -5.552651E+02  9.436419E+03 -1.687999E+04 -7.338448E+03 -6.855938E+03
       407   5  2.390163E+05 -1.338352E+03  1.598576E+04 -6.682063E+03 -1.549530E+04 -8.171530E+03
       407   6  2.411424E+05  1.055323E+04  3.101849E+04 -1.687639E+04 -2.365137E+04 -8.951311E+03
       407   7  4.184140E+04 -4.985794E+04 -3.780967E+04 -1.841239E+04 -8.251277E+03 -6.855592E+03
       407   8  8.524135E+03 -5.834162E+04 -3.856305E+04 -5.799907E+03 -1.609670E+04 -8.171522E+03
       407   9 -2.058665E+04 -5.420190E+04 -3.104683E+04 -1.358031E+04 -2.394097E+04 -8.951609E+03
       407  10  4.404900E+05  4.874450E+04  5.667958E+04 -1.534714E+04  1.628860E-10  4.328297E-10
       407  11  4.695571E+05  5.566098E+04  7.053036E+04 -7.564642E+03  6.653577E-10 -7.988937E-10
       407  12  5.029338E+05  7.530324E+04  9.307788E+04 -2.017402E+04 -1.870567E-10 -1.939484E-10
       407  13  2.411474E+05 -5.553300E+02  9.436230E+03 -1.688003E+04 -2.624328E-10  2.210139E-10
       407  14  2.390161E+05 -1.338488E+03  1.598519E+04 -6.682165E+03 -4.613225E-11  2.140411E-10
       407  15  2.411418E+05  1.055299E+04  3.101729E+04 -1.687656E+04 -1.338270E-10 -1.293490E-10
       407  16  4.184131E+04 -4.985801E+04 -3.780989E+04 -1.841243E+04  3.698377E-12  1.057897E-10
       407  17  8.523839E+03 -5.834177E+04 -3.856367E+04 -5.800013E+03 -2.094992E-10  4.213036E-11
       407  18 -2.058729E+04 -5.420214E+04 -3.104805E+04 -1.358049E+04  1.014995E-10  5.108932E-11
       407  19  4.404901E+05  4.874456E+04  5.667975E+04 -1.534710E+04  6.425328E+03  6.856278E+03
       407  20  4.695574E+05  5.566111E+04  7.053090E+04 -7.564544E+03  1.489367E+04  8.171539E+03
       407  21  5.029344E+05  7.530347E+04  9.307905E+04 -2.017386E+04  2.336165E+04  8.951015E+03
       407  22  2.411475E+05 -5.552651E+02  9.436419E+03 -1.687999E+04  7.338448E+03  6.855938E+03
       407  23  2.390163E+05 -1.338352E+03  1.598576E+04 -6.682063E+03  1.549530E+04  8.171530E+03
       407  24  2.411424E+05  1.055323E+04  3.101849E+04 -1.687639E+04  2.365137E+04  8.951311E+03
       407  25  4.184140E+04 -4.985794E+04 -3.780967E+04 -1.841239E+04  8.251277E+03  6.855592E+03
       407  26  8.524135E+03 -5.834162E+04 -3.856305E+04 -5.799907E+03  1.609670E+04  8.171522E+03
       407  27 -2.058665E+04 -5.420190E+04 -3.104683E+04 -1.358031E+04  2.394097E+04  8.951609E+03
       408   1  5.469971E+05  6.774102E+04  1.086734E+05 -1.214657E+03 -2.661744E+04 -1.089128E+04
       408   2  5.593416E+05  6.813830E+04  1.397661E+05 -1.841452E+04 -6.476121E+04 -1.162997E+04
       408   3  6.100783E+05  2.019149E+05  2.290412E+05 -5.593410E+04 -1.029086E+05 -3.870000E+03
       408   4  2.485402E+05 -6.015396E+03  3.818194E+04 -1.686057E+04 -2.948603E+04 -1.089042E+04
       408   5  2.297533E+05 -1.334976E+04  6.177021E+04 -6.706931E+03 -6.271719E+04 -1.163162E+04
       408   6  2.485242E+05  1.118780E+05  1.401513E+05 -1.687098E+04 -9.594961E+04 -3.875515E+03
       408   7 -4.983428E+04 -7.977726E+04 -3.231553E+04 -3.249893E+04 -3.235325E+04 -1.088942E+04
       408   8 -9.973503E+04 -9.484509E+04 -1.623307E+04  4.994411E+03 -6.067424E+04 -1.163319E+04
       408   9 -1.129076E+05  2.183728E+04  5.125280E+04  2.216936E+04 -8.899466E+04 -3.880159E+03
       408  10  5.469963E+05  6.774070E+04  1.086719E+05 -1.214891E+03  1.119690E-10 -2.025588E-10
       408  11  5.593371E+05  6.813703E+04  1.397579E+05 -1.841512E+04  6.804255E-11 -2.555552E-10
       408  12  6.100669E+05  2.019120E+05  2.290212E+05 -5.593442E+04 -1.463161E-10 -1.782127E-10
       408  13  2.485393E+05 -6.015757E+03  3.818009E+04 -1.686083E+04 -2.913030E-10 -6.691229E-11
       408  14  2.297490E+05 -1.335096E+04  6.176257E+04 -6.707518E+03 -2.124621E-10 -4.133812E-10
       408  15  2.485143E+05  1.118756E+05  1.401340E+05 -1.687128E+04  8.130292E-11 -1.159050E-11
       408  16 -4.983544E+04 -7.977767E+04 -3.231772E+04 -3.249921E+04 -9.751312E-11  1.348418E-10
       408  17 -9.973902E+04 -9.484622E+04 -1.624025E+04  4.993842E+03  3.448289E-12 -1.525936E-11
       408  18 -1.129162E+05  2.183514E+04  5.123789E+04  2.216909E+04  6.892847E-11 -5.737794E-11
       408  19  5.469971E+05  6.774102E+04  1.086734E+05 -1.214657E+03  2.661744E+04  1.089128E+04
       408  20  5.593416E+05  6.813830E+04  1.397661E+05 -1.841452E+04  6.476121E+04  1.162997E+04
       408  21  6.100783E+05  2.019149E+05  2.290412E+05 -5.593410E+04  1.029086E+05  3.870000E+03
       408  22  2.485402E+05 -6.015396E+03  3.818194E+04 -1.686057E+04  2.948603E+04  1.089042E+04
       408  23  2.297533E+05 -1.334976E+04  6.177021E+04 -6.706931E+03  6.271719E+04  1.163162E+04
       408  24  2.485242E+05  1.118780E+05  1.401513E+05 -1.687098E+04  9.594961E+04  3.875515E+03
       408  25 -4.983428E+04 -7.977726E+04 -3.231553E+04 -3.249893E+04  3.235325E+04  1.088942E+04
       408  26 -9.973503E+04 -9.484509E+04 -1.623307E+04  4.994411E+03  6.067424E+04  1.163319E+04
       408  27 -1.129076E+05  2.183728E+04  5.125280E+04  2.216936E+04  8.899466E+04  3.880159E+03
       409   1 -1.072686E+06 -1.058403E+05 -1.322477E+05 -3.722504E+04 -8.985490E+04  2.459452E+01
       409   2 -1.054312E+06  1.167763E+04 -5.860774E+04 -1.137084E+04 -5.868634E+04  1.026080E+02
       409   3 -1.071057E+06  5.021941E+03 -3.632571E+04  1.398682E+04 -2.751797E+04  8.106254E+01
       409   4 -1.068629E+06 -1.048081E+05 -1.312431E+05 -6.589399E+02 -8.978288E+04  1.931092E+01
       409   5 -1.051045E+06  1.249285E+04 -5.783221E+04 -4.235002E+02 -5.867288E+04  1.015747E+02
       409   6 -1.068572E+06  5.628253E+03 -3.573855E+04 -6.854295E+02 -2.756311E+04  8.170325E+01
       409   7 -1.064569E+06 -1.037708E+05 -1.302379E+05  3.590740E+04 -8.971085E+04  1.403585E+01
       409   8 -1.047779E+06  1.330853E+04 -5.705661E+04  1.052389E+04 -5.865942E+04  1.005419E+02
       409   9 -1.066087E+06  6.235375E+03 -3.515128E+04 -1.535773E+04 -2.760826E+04  8.234609E+01
       409  10 -1.072694E+06 -1.058425E+05 -1.322629E+05 -3.722504E+04  1.156139E-10  3.367172E-11
       409  11 -1.054315E+06  1.167670E+04 -5.861423E+04 -1.137083E+04  1.106005E-10 -1.358974E-10
       409  12 -1.071058E+06  5.021738E+03 -3.632714E+04  1.398682E+04 -4.168687E-10 -1.930572E-10
       409  13 -1.068637E+06 -1.048102E+05 -1.312583E+05 -6.589385E+02  2.476122E-10 -1.368921E-10
       409  14 -1.051049E+06  1.249193E+04 -5.783869E+04 -4.234954E+02  7.682656E-10 -6.507795E-10
       409  15 -1.068573E+06  5.628049E+03 -3.573998E+04 -6.854277E+02  1.632285E-10 -1.108746E-10
       409  16 -1.064578E+06 -1.037730E+05 -1.302531E+05  3.590740E+04  8.691701E-12 -1.256766E-10
       409  17 -1.047782E+06  1.330760E+04 -5.706309E+04  1.052390E+04  2.838313E-10 -1.780574E-10
       409  18 -1.066088E+06  6.235170E+03 -3.515271E+04 -1.535773E+04  2.610492E-10 -1.262664E-10
       409  19 -1.072686E+06 -1.058403E+05 -1.322477E+05 -3.722504E+04  8.985490E+04 -2.459452E+01
       409  20 -1.054312E+06  1.167763E+04 -5.860774E+04 -1.137084E+04  5.868634E+04 -1.026080E+02
       409  21 -1.071057E+06  5.021941E+03 -3.632571E+04  1.398682E+04  2.751797E+04 -8.106254E+01
       409  22 -1.068629E+06 -1.048081E+05 -1.312431E+05 -6.589399E+02  8.978288E+04 -1.931092E+01
       409  23 -1.051045E+06  1.249285E+04 -5.783221E+04 -4.235002E+02  5.867288E+04 -1.015747E+02
       409  24 -1.068572E+06  5.628253E+03 -3.573855E+04 -6.854295E+02  2.756311E+04 -8.170325E+01
       409  25 -1.064569E+06 -1.037708E+05 -1.302379E+05  3.590740E+04  8.971085E+04 -1.403585E+01
       409  26 -1.047779E+06  1.330853E+04 -5.705661E+04  1.052389E+04  5.865942E+04 -1.005419E+02
       409  27 -1.066087E+06  6.235375E+03 -3.515128E+04 -1.535773E+04  2.760826E+04 -8.234609E+01
       410   1 -1.063200E+06 -1.027788E+04 -2.940067E+04 -3.720193E+03 -2.209569E+04  4.902610E+01
       410   2 -1.060410E+06  1.067393E+03 -1.513698E+04 -1.186295E+03 -1.446063E+04  2.260917E+01
       410   3 -1.061583E+06  5.504408E+02 -8.815499E+03  8.228528E+02 -6.825617E+03 -1.026114E+01
       410   4 -1.061663E+06 -9.895476E+03 -2.903592E+04 -6.818307E+02 -2.211003E+04  4.891440E+01
       410   5 -1.059678E+06  1.249249E+03 -1.496329E+04 -4.207058E+02 -1.447870E+04  2.258705E+01
       410   6 -1.061654E+06  5.323887E+02 -8.830246E+03 -6.842948E+02 -6.847417E+03 -1.024968E+01
       410   7 -1.060126E+06 -9.513033E+03 -2.867116E+04  2.356539E+03 -2.212437E+04  4.880255E+01
       410   8 -1.058945E+06  1.431108E+03 -1.478959E+04  3.448845E+02 -1.449676E+04  2.256487E+01
       410   9 -1.061725E+06  5.143451E+02 -8.844992E+03 -2.191442E+03 -6.869218E+03 -1.023811E+01
       410  10 -1.063200E+06 -1.027802E+04 -2.940159E+04 -3.720192E+03 -1.773411E-10 -1.582903E-10
       410  11 -1.060411E+06  1.067337E+03 -1.513738E+04 -1.186295E+03 -8.265638E-10  1.059326E-10
       410  12 -1.061583E+06  5.504282E+02 -8.815587E+03  8.228527E+02  4.595002E-12 -1.460656E-10
       410  13 -1.061663E+06 -9.895607E+03 -2.903684E+04 -6.818299E+02  9.406253E-11  2.760335E-12
       410  14 -1.059678E+06  1.249193E+03 -1.496368E+04 -4.207056E+02  1.310228E-10 -6.881987E-13
       410  15 -1.061654E+06  5.323761E+02 -8.830334E+03 -6.842948E+02  2.613075E-10 -1.359528E-10
       410  16 -1.060126E+06 -9.513165E+03 -2.867209E+04  2.356540E+03 -9.536010E-11  1.186404E-10
       410  17 -1.058946E+06  1.431051E+03 -1.478999E+04  3.448848E+02  5.888413E-10 -3.327877E-10
       410  18 -1.061726E+06  5.143324E+02 -8.845081E+03 -2.191442E+03  1.001081E-11  1.322094E-10
       410  19 -1.063200E+06 -1.027788E+04 -2.940067E+04 -3.720193E+03  2.209569E+04 -4.902610E+01
       410  20 -1.060410E+06  1.067393E+03 -1.513698E+04 -1.186295E+03  1.446063E+04 -2.260917E+01
       410  21 -1.061583E+06  5.504408E+02 -8.815499E+03  8.228528E+02  6.825617E+03  1.026114E+01
       410  22 -1.061663E+06 -9.895476E+03 -2.903592E+04 -6.818307E+02  2.211003E+04 -4.891440E+01
       410  23 -1.059678E+06  1.249249E+03 -1.496329E+04 -4.207058E+02  1.447870E+04 -2.258705E+01
       410  24 -1.061654E+06  5.323887E+02 -8.830246E+03 -6.842948E+02  6.847417E+03  1.024968E+01
       410  25 -1.060126E+06 -9.513033E+03 -2.867116E+04  2.356539E+03  2.212437E+04 -4.880255E+01
       410  26 -1.058945E+06  1.431108E+03 -1.478959E+04  3.448845E+02  1.449676E+04 -2.256487E+01
       410  27 -1.061725E+06  5.143451E+02 -8.844992E+03 -2.191442E+03  6.869218E+03  1.023811E+01
       411   1 -1.059879E+06 -6.602811E+02 -6.634156E+03 -8.590757E+02 -5.443719E+03 -3.124130E+01
       411   2 -1.058810E+06  5.826382E+02 -3.357827E+03 -4.241143E+02 -3.550085E+03 -6.542590E+01
       411   3 -1.058271E+06  6.975379E+02 -1.597857E+03 -5.144636E+02 -1.656416E+03 -9.990454E+01
       411   4 -1.060892E+06 -9.117112E+02 -6.876681E+03 -6.835225E+02 -5.463547E+03 -3.124752E+01
       411   5 -1.060627E+06  1.327202E+02 -3.788372E+03 -4.209794E+02 -3.570085E+03 -6.543067E+01
       411   6 -1.060891E+06  4.915805E+01 -2.216304E+03 -6.837494E+02 -1.676590E+03 -9.990891E+01
       411   7 -1.061906E+06 -1.163141E+03 -7.119206E+03 -5.079697E+02 -5.483375E+03 -3.125375E+01
       411   8 -1.062444E+06 -3.171979E+02 -4.218917E+03 -4.178444E+02 -3.590085E+03 -6.543544E+01
       411   9 -1.063511E+06 -5.992222E+02 -2.834751E+03 -8.530345E+02 -1.696764E+03 -9.991328E+01
       411  10 -1.059879E+06 -6.602891E+02 -6.634211E+03 -8.590758E+02 -1.875372E-10  7.531082E-11
       411  11 -1.058810E+06  5.826348E+02 -3.357851E+03 -4.241145E+02 -2.636864E-10  5.133757E-11
       411  12 -1.058271E+06  6.975371E+02 -1.597862E+03 -5.144637E+02  4.832548E-11 -2.272757E-10
       411  13 -1.060892E+06 -9.117192E+02 -6.876737E+03 -6.835227E+02 -1.417641E-10 -3.264717E-10
       411  14 -1.060627E+06  1.327168E+02 -3.788396E+03 -4.209796E+02 -3.294529E-10 -1.681231E-10
       411  15 -1.060891E+06  4.915728E+01 -2.216309E+03 -6.837495E+02 -1.400625E-11 -2.312988E-10
       411  16 -1.061906E+06 -1.163149E+03 -7.119263E+03 -5.079698E+02 -2.776722E-10 -6.688846E-11
       411  17 -1.062444E+06 -3.172014E+02 -4.218941E+03 -4.178446E+02  5.339750E-11 -5.195575E-10
       411  18 -1.063511E+06 -5.992229E+02 -2.834757E+03 -8.530347E+02  5.582980E-10 -4.532690E-10
       411  19 -1.059879E+06 -6.602811E+02 -6.634156E+03 -8.590757E+02  5.443719E+03  3.124130E+01
       411  20 -1.058810E+06  5.826382E+02 -3.357827E+03 -4.241143E+02  3.550085E+03  6.542590E+01
       411  21 -1.058271E+06  6.975379E+02 -1.597857E+03 -5.144636E+02  1.656416E+03  9.990454E+01
       411  22 -1.060892E+06 -9.117112E+02 -6.876681E+03 -6.835225E+02  5.463547E+03  3.124752E+01
       411  23 -1.060627E+06  1.327202E+02 -3.788372E+03 -4.209794E+02  3.570085E+03  6.543067E+01
       411  24 -1.060891E+06  4.915805E+01 -2.216304E+03 -6.837494E+02  1.676590E+03  9.990891E+01
       411  25 -1.061906E+06 -1.163141E+03 -7.119206E+03 -5.079697E+02  5.483375E+03  3.125375E+01
       411  26 -1.062444E+06 -3.171979E+02 -4.218917E+03 -4.178444E+02  3.590085E+03  6.543544E+01
       411  27 -1.063511E+06 -5.992222E+02 -2.834751E+03 -8.530345E+02  1.696764E+03  9.991328E+01
       412   1 -1.057240E+06  8.022287E+02 -8.681855E+02 -6.706813E+02 -1.304271E+03 -1.201603E+02
       412   2 -1.056402E+06  1.092704E+03  1.675099E+01 -4.068883E+02 -8.020279E+02 -1.546617E+02
       412   3 -1.055656E+06  1.274229E+03  5.471214E+02 -6.611660E+02 -2.997832E+02 -1.889198E+02
       412   4 -1.060794E+06 -7.835129E+01 -1.712806E+03 -6.820561E+02 -1.324252E+03 -1.201651E+02
       412   5 -1.060748E+06  1.655872E+01 -1.013046E+03 -4.230303E+02 -8.218709E+02 -1.546665E+02
       412   6 -1.060794E+06  2.495154E+00 -6.679491E+02 -6.820755E+02 -3.194894E+02 -1.889247E+02
       412   7 -1.064348E+06 -9.589322E+02 -2.557427E+03 -6.934308E+02 -1.344232E+03 -1.201699E+02
       412   8 -1.065093E+06 -1.059588E+03 -2.042845E+03 -4.391722E+02 -8.417138E+02 -1.546713E+02
       412   9 -1.065931E+06 -1.269241E+03 -1.883021E+03 -7.029847E+02 -3.391955E+02 -1.889296E+02
       412  10 -1.057240E+06  8.022282E+02 -8.681887E+02 -6.706815E+02  1.383452E-10 -2.546225E-10
       412  11 -1.056402E+06  1.092703E+03  1.674974E+01 -4.068884E+02  1.564179E-10 -2.700752E-10
       412  12 -1.055656E+06  1.274229E+03  5.471212E+02 -6.611661E+02  3.028886E-10 -1.421349E-10
       412  13 -1.060794E+06 -7.835177E+01 -1.712809E+03 -6.820562E+02  4.282150E-10 -3.784981E-10
       412  14 -1.060748E+06  1.655851E+01 -1.013048E+03 -4.230304E+02 -2.571765E-11  1.150271E-10
       412  15 -1.060794E+06  2.495089E+00 -6.679493E+02 -6.820755E+02 -2.770032E-10  2.342093E-10
       412  16 -1.064348E+06 -9.589327E+02 -2.557431E+03 -6.934309E+02 -5.930370E-10  2.745470E-10
       412  17 -1.065093E+06 -1.059588E+03 -2.042846E+03 -4.391723E+02  1.282916E-10  1.053510E-10
       412  18 -1.065931E+06 -1.269241E+03 -1.883022E+03 -7.029848E+02 -2.528582E-10  3.493179E-10
       412  19 -1.057240E+06  8.022287E+02 -8.681855E+02 -6.706813E+02  1.304271E+03  1.201603E+02
       412  20 -1.056402E+06  1.092704E+03  1.675099E+01 -4.068883E+02  8.020279E+02  1.546617E+02
       412  21 -1.055656E+06  1.274229E+03  5.471214E+02 -6.611660E+02  2.997832E+02  1.889198E+02
       412  22 -1.060794E+06 -7.835129E+01 -1.712806E+03 -6.820561E+02  1.324252E+03  1.201651E+02
       412  23 -1.060748E+06  1.655872E+01 -1.013046E+03 -4.230303E+02  8.218709E+02  1.546665E+02
       412  24 -1.060794E+06  2.495154E+00 -6.679491E+02 -6.820755E+02  3.194894E+02  1.889247E+02
       412  25 -1.064348E+06 -9.589322E+02 -2.557427E+03 -6.934308E+02  1.344232E+03  1.201699E+02
       412  26 -1.065093E+06 -1.059588E+03 -2.042845E+03 -4.391722E+02  8.417138E+02  1.546713E+02
       412  27 -1.065931E+06 -1.269241E+03 -1.883021E+03 -7.029847E+02  3.391955E+02  1.889296E+02
       413   1 -1.054730E+06  1.495241E+03  8.590730E+02 -6.766169E+02 -1.874461E+02 -2.087852E+02
       413   2 -1.053937E+06  1.696949E+03  1.094667E+03 -4.247458E+02  7.105769E+01 -2.425397E+02
       413   3 -1.053188E+06  1.856479E+03  1.151281E+03 -6.775807E+02  3.295583E+02 -2.757985E+02
       413   4 -1.060783E+06 -4.127058E+00 -5.776731E+02 -6.791005E+02 -2.070417E+02 -2.087902E+02
       413   5 -1.060761E+06  7.109659E+00 -5.224049E+02 -4.267448E+02  5.174504E+01 -2.425447E+02
       413   6 -1.060783E+06 -2.387756E+01 -6.463115E+02 -6.790955E+02  3.105282E+02 -2.758036E+02
       413   7 -1.066836E+06 -1.503498E+03 -2.014422E+03 -6.815841E+02 -2.266370E+02 -2.087951E+02
       413   8 -1.067585E+06 -1.682733E+03 -2.139480E+03 -4.287438E+02  3.243261E+01 -2.425497E+02
       413   9 -1.068378E+06 -1.904239E+03 -2.443908E+03 -6.806102E+02  2.914984E+02 -2.758086E+02
       413  10 -1.054730E+06  1.495241E+03  8.590728E+02 -6.766169E+02  7.802446E-11  3.643405E-11
       413  11 -1.053937E+06  1.696949E+03  1.094667E+03 -4.247458E+02 -5.311276E-10  1.400933E-10
       413  12 -1.053188E+06  1.856479E+03  1.151281E+03 -6.775806E+02 -7.134386E-11 -5.839928E-12
       413  13 -1.060783E+06 -4.127116E+00 -5.776733E+02 -6.791005E+02  7.007296E-10 -3.208302E-10
       413  14 -1.060761E+06  7.109595E+00 -5.224050E+02 -4.267448E+02  4.842109E-10 -3.565466E-10
       413  15 -1.060783E+06 -2.387767E+01 -6.463118E+02 -6.790954E+02 -4.988869E-10  4.318203E-10
       413  16 -1.066836E+06 -1.503498E+03 -2.014422E+03 -6.815841E+02 -1.915797E-10  2.126119E-11
       413  17 -1.067585E+06 -1.682733E+03 -2.139480E+03 -4.287438E+02  6.389454E-10 -2.925457E-10
       413  18 -1.068378E+06 -1.904239E+03 -2.443908E+03 -6.806102E+02 -1.186891E-10  1.384214E-10
       413  19 -1.054730E+06  1.495241E+03  8.590730E+02 -6.766169E+02  1.874461E+02  2.087852E+02
       413  20 -1.053937E+06  1.696949E+03  1.094667E+03 -4.247458E+02 -7.105769E+01  2.425397E+02
       413  21 -1.053188E+06  1.856479E+03  1.151281E+03 -6.775807E+02 -3.295583E+02  2.757985E+02
       413  22 -1.060783E+06 -4.127058E+00 -5.776731E+02 -6.791005E+02  2.070417E+02  2.087902E+02
       413  23 -1.060761E+06  7.109658E+00 -5.224049E+02 -4.267448E+02 -5.174504E+01  2.425447E+02
       413  24 -1.060783E+06 -2.387756E+01 -6.463115E+02 -6.790955E+02 -3.105282E+02  2.758036E+02
       413  25 -1.066836E+06 -1.503498E+03 -2.014422E+03 -6.815841E+02  2.266370E+02  2.087951E+02
       413  26 -1.067585E+06 -1.682733E+03 -2.139480E+03 -4.287438E+02 -3.243261E+01  2.425497E+02
       413  27 -1.068378E+06 -1.904239E+03 -2.443908E+03 -6.806102E+02 -2.914984E+02  2.758086E+02
       414   1 -1.052328E+06  2.115615E+03  1.241112E+03 -7.225220E+02  4.570667E+02 -2.951857E+02
       414   2 -1.051504E+06  2.324807E+03  9.727557E+02 -4.278135E+02  1.061841E+03 -3.275411E+02
       414   3 -1.050846E+06  2.187899E+03  2.237313E+02 -6.182170E+02  1.666625E+03 -3.580045E+02
       414   4 -1.060810E+06  1.494550E+01 -7.709923E+02 -6.747690E+02  4.378165E+02 -2.951908E+02
       414   5 -1.060727E+06  4.093052E+01 -1.212775E+03 -4.321737E+02  1.043671E+03 -3.275462E+02
       414   6 -1.060810E+06 -2.793785E+02 -2.135985E+03 -6.746917E+02  1.649535E+03 -3.580096E+02
       414   7 -1.069291E+06 -2.085729E+03 -2.783102E+03 -6.270167E+02  4.185666E+02 -2.951960E+02
       414   8 -1.069950E+06 -2.242952E+03 -3.398312E+03 -4.365339E+02  1.025502E+03 -3.275512E+02
       414   9 -1.070775E+06 -2.746663E+03 -4.495709E+03 -7.311656E+02  1.632445E+03 -3.580146E+02
       414  10 -1.052328E+06  2.115615E+03  1.241112E+03 -7.225219E+02  6.372329E-10 -2.408989E-10
       414  11 -1.051504E+06  2.324807E+03  9.727533E+02 -4.278132E+02 -3.973380E-10  2.205790E-10
       414  12 -1.050846E+06  2.187898E+03  2.237258E+02 -6.182165E+02  1.011175E-10 -1.560824E-10
       414  13 -1.060810E+06  1.494536E+01 -7.709929E+02 -6.747689E+02 -1.954786E-10  3.955761E-10
       414  14 -1.060727E+06  4.093011E+01 -1.212778E+03 -4.321734E+02 -4.713814E-10  3.472399E-10
       414  15 -1.060810E+06 -2.793794E+02 -2.135991E+03 -6.746913E+02  2.477909E-10 -2.838880E-10
       414  16 -1.069291E+06 -2.085729E+03 -2.783102E+03 -6.270166E+02 -1.728811E-10  6.704953E-11
       414  17 -1.069950E+06 -2.242952E+03 -3.398314E+03 -4.365336E+02 -4.131676E-10  2.755749E-10
       414  18 -1.070775E+06 -2.746664E+03 -4.495714E+03 -7.311651E+02 -2.182575E-10  1.464875E-10
       414  19 -1.052328E+06  2.115615E+03  1.241112E+03 -7.225220E+02 -4.570667E+02  2.951857E+02
       414  20 -1.051504E+06  2.324807E+03  9.727557E+02 -4.278135E+02 -1.061841E+03  3.275411E+02
       414  21 -1.050846E+06  2.187899E+03  2.237313E+02 -6.182170E+02 -1.666625E+03  3.580045E+02
       414  22 -1.060810E+06  1.494550E+01 -7.709923E+02 -6.747690E+02 -4.378165E+02  2.951908E+02
       414  23 -1.060727E+06  4.093052E+01 -1.212775E+03 -4.321737E+02 -1.043671E+03  3.275462E+02
       414  24 -1.060810E+06 -2.793785E+02 -2.135985E+03 -6.746917E+02 -1.649535E+03  3.580096E+02
       414  25 -1.069291E+06 -2.085729E+03 -2.783102E+03 -6.270167E+02 -4.185666E+02  2.951960E+02
       414  26 -1.069950E+06 -2.242952E+03 -3.398312E+03 -4.365339E+02 -1.025502E+03  3.275512E+02
       414  27 -1.070775E+06 -2.746663E+03 -4.495709E+03 -7.311656E+02 -1.632445E+03  3.580146E+02
       415   1 -1.050231E+06  2.840292E+03 -1.631743E+02 -1.127946E+03  2.101291E+03 -3.790866E+02
       415   2 -1.048924E+06  3.233860E+03 -1.866671E+03 -2.020940E+02  4.432165E+03 -4.079025E+02
       415   3 -1.048827E+06 -2.868965E+00 -5.997043E+03  2.647279E+02  6.763032E+03 -4.150299E+02
       415   4 -1.061043E+06  1.629675E+02 -2.726854E+03 -6.692159E+02  2.078091E+03 -3.790916E+02
       415   5 -1.060437E+06  3.825075E+02 -4.595165E+03 -4.392580E+02  4.421400E+03 -4.079076E+02
       415   6 -1.061046E+06 -3.030452E+03 -8.899032E+03 -6.683320E+02  6.764698E+03 -4.150401E+02
       415   7 -1.071855E+06 -2.514364E+03 -5.290541E+03 -2.104940E+02  2.054891E+03 -3.790968E+02
       415   8 -1.071951E+06 -2.468854E+03 -7.323669E+03 -6.764176E+02  4.410634E+03 -4.079127E+02
       415   9 -1.073264E+06 -6.058042E+03 -1.180103E+04 -1.601373E+03  6.766365E+03 -4.150504E+02
       415  10 -1.050231E+06  2.840290E+03 -1.631829E+02 -1.127945E+03 -1.225524E-10 -9.378166E-11
       415  11 -1.048924E+06  3.233855E+03 -1.866708E+03 -2.020925E+02 -3.305360E-10  6.614487E-12
       415  12 -1.048827E+06 -2.881454E+00 -5.997129E+03  2.647301E+02 -3.306477E-10  8.943204E-11
       415  13 -1.061043E+06  1.629662E+02 -2.726862E+03 -6.692153E+02  1.276478E-10 -2.124119E-10
       415  14 -1.060438E+06  3.825021E+02 -4.595202E+03 -4.392565E+02 -2.017261E-10 -1.448550E-10
       415  15 -1.061046E+06 -3.030464E+03 -8.899118E+03 -6.683297E+02  1.875848E-10  5.088645E-11
       415  16 -1.071855E+06 -2.514365E+03 -5.290549E+03 -2.104934E+02 -3.115598E-10 -1.674971E-10
       415  17 -1.071951E+06 -2.468860E+03 -7.323706E+03 -6.764162E+02  2.109999E-10 -4.459766E-10
       415  18 -1.073264E+06 -6.058055E+03 -1.180112E+04 -1.601371E+03  3.394231E-10  1.801259E-10
       415  19 -1.050231E+06  2.840292E+03 -1.631743E+02 -1.127946E+03 -2.101291E+03  3.790866E+02
       415  20 -1.048924E+06  3.233860E+03 -1.866671E+03 -2.020940E+02 -4.432165E+03  4.079025E+02
       415  21 -1.048827E+06 -2.868965E+00 -5.997043E+03  2.647279E+02 -6.763032E+03  4.150299E+02
       415  22 -1.061043E+06  1.629675E+02 -2.726854E+03 -6.692159E+02 -2.078091E+03  3.790916E+02
       415  23 -1.060437E+06  3.825075E+02 -4.595165E+03 -4.392580E+02 -4.421400E+03  4.079076E+02
       415  24 -1.061046E+06 -3.030452E+03 -8.899032E+03 -6.683320E+02 -6.764698E+03  4.150401E+02
       415  25 -1.071855E+06 -2.514364E+03 -5.290541E+03 -2.104940E+02 -2.054891E+03  3.790968E+02
       415  26 -1.071951E+06 -2.468854E+03 -7.323669E+03 -6.764176E+02 -4.410634E+03  4.079127E+02
       415  27 -1.073264E+06 -6.058042E+03 -1.180103E+04 -1.601373E+03 -6.766365E+03  4.150504E+02
       416   1 -1.050140E+06  4.943569E+03 -7.870651E+03 -5.151767E+03  8.533826E+03 -4.763020E+02
       416   2 -1.044133E+06  7.211016E+03 -1.447538E+04  2.904740E+03  1.787128E+04 -4.780398E+02
       416   3 -1.048845E+06 -2.851089E+04 -3.666381E+04  1.054911E+04  2.720854E+04 -1.484881E+02
       416   4 -1.063162E+06  1.723324E+03 -1.094983E+04 -6.614645E+02  8.435860E+03 -4.762686E+02
       416   5 -1.057794E+06  3.825493E+03 -1.771395E+04 -4.505069E+02  1.796358E+04 -4.781103E+02
       416   6 -1.063179E+06 -3.209544E+04 -4.019435E+04 -6.515013E+02  2.749108E+04 -1.488957E+02
       416   7 -1.076183E+06 -1.496856E+03 -1.402902E+04  3.828743E+03  8.337896E+03 -4.762366E+02
       416   8 -1.071455E+06  4.399993E+02 -2.095254E+04 -3.805679E+03  1.805587E+04 -4.781819E+02
       416   9 -1.077513E+06 -3.567954E+04 -4.372483E+04 -1.185186E+04  2.777362E+04 -1.493135E+02
       416  10 -1.050140E+06  4.943549E+03 -7.870789E+03 -5.151764E+03  9.262792E-11  1.676853E-10
       416  11 -1.044133E+06  7.210930E+03 -1.447598E+04  2.904747E+03 -3.336181E-10  9.739357E-11
       416  12 -1.048846E+06 -2.851109E+04 -3.666521E+04  1.054912E+04 -1.994147E-10  2.594195E-10
       416  13 -1.063162E+06  1.723305E+03 -1.094997E+04 -6.614613E+02  9.493848E-10 -2.920111E-10
       416  14 -1.057795E+06  3.825406E+03 -1.771456E+04 -4.505000E+02  5.318455E-11  1.081489E-10
       416  15 -1.063180E+06 -3.209564E+04 -4.019577E+04 -6.514980E+02  1.949111E-10 -1.466749E-10
       416  16 -1.076183E+06 -1.496875E+03 -1.402915E+04  3.828746E+03 -7.750514E-11  2.896867E-10
       416  17 -1.071456E+06  4.399113E+02 -2.095316E+04 -3.805672E+03  5.170637E-10 -1.496358E-10
       416  18 -1.077514E+06 -3.567974E+04 -4.372628E+04 -1.185185E+04 -1.785881E-10  2.224182E-10
       416  19 -1.050140E+06  4.943569E+03 -7.870651E+03 -5.151767E+03 -8.533826E+03  4.763020E+02
       416  20 -1.044133E+06  7.211016E+03 -1.447538E+04  2.904740E+03 -1.787128E+04  4.780398E+02
       416  21 -1.048845E+06 -2.851089E+04 -3.666381E+04  1.054911E+04 -2.720854E+04  1.484881E+02
       416  22 -1.063162E+06  1.723324E+03 -1.094983E+04 -6.614645E+02 -8.435860E+03  4.762686E+02
       416  23 -1.057794E+06  3.825493E+03 -1.771395E+04 -4.505069E+02 -1.796358E+04  4.781103E+02
       416  24 -1.063179E+06 -3.209544E+04 -4.019435E+04 -6.515013E+02 -2.749108E+04  1.488957E+02
       416  25 -1.076183E+06 -1.496856E+03 -1.402902E+04  3.828743E+03 -8.337896E+03  4.762366E+02
       416  26 -1.071455E+06  4.399993E+02 -2.095254E+04 -3.805679E+03 -1.805587E+04  4.781819E+02
       416  27 -1.077513E+06 -3.567954E+04 -4.372483E+04 -1.185186E+04 -2.777362E+04  1.493135E+02
       417   1  2.398732E+06  5.331076E+05  6.707919E+05  1.836762E+05  4.664250E+05  6.800852E+02
       417   2  2.321741E+06 -7.205770E+04  2.935112E+05  5.481011E+04  3.053788E+05  1.167511E+03
       417   3  2.426522E+06 -3.335898E+04  1.818544E+05 -8.296431E+04  1.443199E+05  5.763283E+02
       417   4  2.442507E+06  5.437958E+05  6.815244E+05 -6.743731E+03  4.671500E+05  5.377370E+02
       417   5  2.351902E+06 -6.465985E+04  3.006267E+05 -2.200828E+03  3.054300E+05  1.139575E+03
       417   6  2.443133E+06 -2.922036E+04  1.857961E+05 -6.582512E+03  1.437010E+05  5.938613E+02
       417   7  2.486362E+06  5.546197E+05  6.922762E+05 -1.971770E+05  4.678750E+05  3.949544E+02
       417   8  2.382071E+06 -5.724988E+04  3.077439E+05 -5.921454E+04  3.054813E+05  1.111631E+03
       417   9  2.459757E+06 -2.505991E+04  1.897408E+05  6.980134E+04  1.430822E+05  6.112422E+02
       417  10  2.398499E+06  5.330495E+05  6.703846E+05  1.836759E+05 -1.584536E-11 -4.328953E-10
       417  11  2.321641E+06 -7.208261E+04  2.933366E+05  5.480983E+04  8.384295E-10 -3.571754E-11
       417  12  2.426500E+06 -3.336455E+04  1.818154E+05 -8.296438E+04 -1.198247E-09 -2.224210E-10
       417  13  2.442274E+06  5.437375E+05  6.811159E+05 -6.743933E+03  9.082170E-10  1.343404E-10
       417  14  2.351802E+06 -6.468477E+04  3.004521E+05 -2.201108E+03  8.914744E-10  4.909019E-11
       417  15  2.443111E+06 -2.922588E+04  1.857574E+05 -6.582581E+03 -9.000994E-10 -4.391217E-11
       417  16  2.486128E+06  5.545613E+05  6.918665E+05 -1.971772E+05  4.177652E-10 -3.608212E-11
       417  17  2.381971E+06 -5.727481E+04  3.075692E+05 -5.921482E+04  1.192416E-09  8.527253E-11
       417  18  2.459735E+06 -2.506538E+04  1.897025E+05  6.980127E+04  2.088973E-09  1.171649E-09
       417  19  2.398732E+06  5.331076E+05  6.707919E+05  1.836762E+05 -4.664250E+05 -6.800852E+02
       417  20  2.321741E+06 -7.205770E+04  2.935112E+05  5.481011E+04 -3.053788E+05 -1.167511E+03
       417  21  2.426522E+06 -3.335898E+04  1.818544E+05 -8.296431E+04 -1.443199E+05 -5.763283E+02
       417  22  2.442507E+06  5.437958E+05  6.815244E+05 -6.743731E+03 -4.671500E+05 -5.377370E+02
       417  23  2.351902E+06 -6.465985E+04  3.006267E+05 -2.200828E+03 -3.054300E+05 -1.139575E+03
       417  24  2.443133E+06 -2.922036E+04  1.857961E+05 -6.582512E+03 -1.437010E+05 -5.938613E+02
       417  25  2.486362E+06  5.546197E+05  6.922762E+05 -1.971770E+05 -4.678750E+05 -3.949544E+02
       417  26  2.382071E+06 -5.724988E+04  3.077439E+05 -5.921454E+04 -3.054813E+05 -1.111631E+03
       417  27  2.459757E+06 -2.505991E+04  1.897408E+05  6.980134E+04 -1.430822E+05 -6.112422E+02
       418   1  2.406124E+06  5.104027E+04  1.507395E+05  9.187191E+03  1.155233E+05  9.525478E+01
       418   2  2.409370E+06 -3.390399E+03  8.084871E+04  1.770692E+03  7.579697E+04 -4.210531E+02
       418   3  2.433121E+06  3.606692E+03  5.211389E+04 -1.442958E+04  3.607127E+04 -1.012092E+03
       418   4  2.407135E+06  5.127735E+04  1.509656E+05 -6.608904E+03  1.152535E+05  9.225939E+01
       418   5  2.396928E+06 -6.462142E+03  7.791141E+04 -2.210290E+03  7.548290E+04 -4.216186E+02
       418   6  2.407232E+06 -2.766478E+03  4.604315E+04 -6.595056E+03  3.571376E+04 -1.011735E+03
       418   7  2.408147E+06  5.151536E+04  1.511918E+05 -2.240503E+04  1.149837E+05  8.927769E+01
       418   8  2.384486E+06 -9.533836E+03  7.497411E+04 -6.191193E+03  7.516884E+04 -4.221802E+02
       418   9  2.381344E+06 -9.139465E+03  3.997239E+04  1.239136E+03  3.535627E+04 -1.011386E+03
       418  10  2.406109E+06  5.103670E+04  1.507145E+05  9.187182E+03 -6.344484E-10 -2.172257E-10
       418  11  2.409364E+06 -3.391934E+03  8.083796E+04  1.770718E+03  6.392474E-10  4.998411E-10
       418  12  2.433119E+06  3.606343E+03  5.211145E+04 -1.442955E+04  2.613542E-10 -3.217655E-10
       418  13  2.407121E+06  5.127380E+04  1.509407E+05 -6.608913E+03  9.511523E-10  6.841425E-10
       418  14  2.396922E+06 -6.463664E+03  7.790075E+04 -2.210265E+03  1.413807E-09  4.600376E-10
       418  15  2.407231E+06 -2.766819E+03  4.604076E+04 -6.595027E+03 -8.513153E-10 -3.714741E-10
       418  16  2.408132E+06  5.151183E+04  1.511671E+05 -2.240503E+04  3.336623E-10  6.452483E-10
       418  17  2.384480E+06 -9.535346E+03  7.496354E+04 -6.191167E+03  6.572555E-10 -1.691718E-10
       418  18  2.381343E+06 -9.139800E+03  3.997005E+04  1.239165E+03 -2.726091E-10 -5.843845E-11
       418  19  2.406124E+06  5.104027E+04  1.507395E+05  9.187191E+03 -1.155233E+05 -9.525478E+01
       418  20  2.409370E+06 -3.390399E+03  8.084871E+04  1.770692E+03 -7.579697E+04  4.210531E+02
       418  21  2.433121E+06  3.606692E+03  5.211389E+04 -1.442958E+04 -3.607127E+04  1.012092E+03
       418  22  2.407135E+06  5.127735E+04  1.509656E+05 -6.608904E+03 -1.152535E+05 -9.225939E+01
       418  23  2.396928E+06 -6.462142E+03  7.791141E+04 -2.210290E+03 -7.548290E+04  4.216186E+02
       418  24  2.407232E+06 -2.766478E+03  4.604315E+04 -6.595056E+03 -3.571376E+04  1.011735E+03
       418  25  2.408147E+06  5.151536E+04  1.511918E+05 -2.240503E+04 -1.149837E+05 -8.927769E+01
       418  26  2.384486E+06 -9.533836E+03  7.497411E+04 -6.191193E+03 -7.516884E+04  4.221802E+02
       418  27  2.381344E+06 -9.139465E+03  3.997239E+04  1.239136E+03 -3.535627E+04  1.011386E+03
       419   1  2.444929E+06  1.499756E+04  4.576647E+04 -5.720751E+03  2.880971E+04 -1.364925E+03
       419   2  2.457285E+06  1.297076E+04  3.296761E+04 -2.127026E+03  1.886261E+04 -1.955074E+03
       419   3  2.472397E+06  1.677430E+04  2.808583E+04 -7.492908E+03  8.915635E+03 -2.558085E+03
       419   4  2.403275E+06  4.714470E+03  3.589582E+04 -6.639505E+03  2.847257E+04 -1.365065E+03
       419   5  2.401906E+06 -6.896942E+02  1.989552E+04 -2.158976E+03  1.851856E+04 -1.955190E+03
       419   6  2.403293E+06 -2.620439E+02  1.181731E+04 -6.638092E+03  8.564898E+03 -2.558207E+03
       419   7  2.361623E+06 -5.568741E+03  2.602506E+04 -7.558196E+03  2.813545E+04 -1.365203E+03
       419   8  2.346529E+06 -1.435037E+04  6.823219E+03 -2.190924E+03  1.817454E+04 -1.955307E+03
       419   9  2.334194E+06 -1.729872E+04 -4.451540E+03 -5.783371E+03  8.214199E+03 -2.558330E+03
       419  10  2.444928E+06  1.499734E+04  4.576491E+04 -5.720720E+03 -8.542872E-10 -4.384681E-10
       419  11  2.457285E+06  1.297066E+04  3.296694E+04 -2.126996E+03 -2.238630E-09 -9.383125E-10
       419  12  2.472397E+06  1.677427E+04  2.808567E+04 -7.492890E+03 -1.518435E-10 -2.822333E-11
       419  13  2.403275E+06  4.714251E+03  3.589430E+04 -6.639473E+03 -8.472461E-10 -1.547724E-10
       419  14  2.401905E+06 -6.897900E+02  1.989487E+04 -2.158947E+03 -5.013085E-11  3.380709E-10
       419  15  2.403293E+06 -2.620705E+02  1.181716E+04 -6.638074E+03 -1.747183E-09 -5.102815E-10
       419  16  2.361622E+06 -5.568954E+03  2.602357E+04 -7.558165E+03 -4.454486E-10  4.277833E-11
       419  17  2.346529E+06 -1.435046E+04  6.822594E+03 -2.190896E+03 -6.487686E-10  1.295537E-11
       419  18  2.334194E+06 -1.729875E+04 -4.451679E+03 -5.783354E+03 -2.960508E-10  3.557989E-10
       419  19  2.444929E+06  1.499756E+04  4.576647E+04 -5.720751E+03 -2.880971E+04  1.364925E+03
       419  20  2.457285E+06  1.297076E+04  3.296761E+04 -2.127026E+03 -1.886261E+04  1.955074E+03
       419  21  2.472397E+06  1.677430E+04  2.808583E+04 -7.492908E+03 -8.915635E+03  2.558085E+03
       419  22  2.403275E+06  4.714470E+03  3.589582E+04 -6.639505E+03 -2.847257E+04  1.365065E+03
       419  23  2.401906E+06 -6.896942E+02  1.989552E+04 -2.158976E+03 -1.851856E+04  1.955190E+03
       419  24  2.403293E+06 -2.620439E+02  1.181731E+04 -6.638092E+03 -8.564898E+03  2.558207E+03
       419  25  2.361623E+06 -5.568741E+03  2.602506E+04 -7.558196E+03 -2.813545E+04  1.365203E+03
       419  26  2.346529E+06 -1.435037E+04  6.823219E+03 -2.190924E+03 -1.817454E+04  1.955307E+03
       419  27  2.334194E+06 -1.729872E+04 -4.451540E+03 -5.783371E+03 -8.214199E+03  2.558330E+03
       420   1  2.488208E+06  2.147278E+04  2.947492E+04 -6.757040E+03  7.020680E+03 -2.912639E+03
       420   2  2.502306E+06  2.451495E+04  2.942661E+04 -2.077711E+03  4.112344E+03 -3.531065E+03
       420   3  2.516945E+06  2.813397E+04  3.141435E+04 -6.774355E+03  1.204032E+03 -4.163482E+03
       420   4  2.402800E+06  3.973994E+02  9.274123E+03 -6.731203E+03  6.667350E+03 -2.912790E+03
       420   5  2.402530E+06 -9.605611E+01  5.875450E+03 -2.043104E+03  3.751274E+03 -3.531250E+03
       420   6  2.402802E+06 -1.131288E+01  4.518272E+03 -6.731069E+03  8.352888E+02 -4.163701E+03
       420   7  2.317398E+06 -2.067850E+04 -1.092717E+04 -6.705371E+03  6.314068E+03 -2.912940E+03
       420   8  2.302764E+06 -2.470777E+04 -1.767640E+04 -2.008503E+03  3.390262E+03 -3.531435E+03
       420   9  2.288671E+06 -2.815752E+04 -2.237870E+04 -6.687793E+03  4.666132E+02 -4.163921E+03
       420  10  2.488208E+06  2.147275E+04  2.947481E+04 -6.757023E+03  3.203851E-10 -2.520704E-10
       420  11  2.502306E+06  2.451493E+04  2.942656E+04 -2.077699E+03 -6.769106E-10 -5.797270E-10
       420  12  2.516945E+06  2.813395E+04  3.141431E+04 -6.774351E+03 -1.046715E-09 -6.332639E-10
       420  13  2.402800E+06  3.973784E+02  9.274024E+03 -6.731187E+03  6.312925E-11 -1.147806E-10
       420  14  2.402530E+06 -9.607328E+01  5.875400E+03 -2.043093E+03 -3.204486E-10 -4.589148E-10
       420  15  2.402802E+06 -1.133171E+01  4.518238E+03 -6.731067E+03  8.859288E-10  3.376347E-10
       420  16  2.317398E+06 -2.067852E+04 -1.092726E+04 -6.705356E+03  3.208555E-11  1.776504E-10
       420  17  2.302764E+06 -2.470779E+04 -1.767644E+04 -2.008493E+03 -8.246333E-10 -7.885907E-10
       420  18  2.288671E+06 -2.815754E+04 -2.237873E+04 -6.687791E+03  6.872146E-10  1.616847E-10
       420  19  2.488208E+06  2.147278E+04  2.947492E+04 -6.757040E+03 -7.020680E+03  2.912639E+03
       420  20  2.502306E+06  2.451495E+04  2.942661E+04 -2.077711E+03 -4.112344E+03  3.531065E+03
       420  21  2.516945E+06  2.813397E+04  3.141435E+04 -6.774355E+03 -1.204032E+03  4.163482E+03
       420  22  2.402800E+06  3.973994E+02  9.274123E+03 -6.731203E+03 -6.667350E+03  2.912790E+03
       420  23  2.402530E+06 -9.605611E+01  5.875450E+03 -2.043104E+03 -3.751274E+03  3.531250E+03
       420  24  2.402802E+06 -1.131288E+01  4.518272E+03 -6.731069E+03 -8.352888E+02  4.163701E+03
       420  25  2.317398E+06 -2.067850E+04 -1.092717E+04 -6.705371E+03 -6.314068E+03  2.912940E+03
       420  26  2.302764E+06 -2.470777E+04 -1.767640E+04 -2.008503E+03 -3.390262E+03  3.531435E+03
       420  27  2.288671E+06 -2.815752E+04 -2.237870E+04 -6.687793E+03 -4.666132E+02  4.163921E+03
       421   1  2.534199E+06  3.242264E+04  3.543256E+04 -6.782367E+03  4.060345E+02 -4.538480E+03
       421   2  2.549347E+06  3.612525E+04  3.972434E+04 -1.754123E+03 -2.101896E+03 -5.198791E+03
       421   3  2.564970E+06  4.029335E+04  4.576735E+04 -6.768733E+03 -4.609695E+03 -5.877307E+03
       421   4  2.402787E+06  6.052691E-02  4.371723E+03 -6.879276E+03  3.050620E+01 -4.538730E+03
       421   5  2.402547E+06 -8.406399E+01  5.074471E+03 -1.857872E+03 -2.487438E+03 -5.199095E+03
       421   6  2.402784E+06  2.991479E+02  7.535670E+03 -6.879469E+03 -5.005189E+03 -5.877665E+03
       421   7  2.271390E+06 -3.242375E+04 -2.669031E+04 -6.976167E+03 -3.449433E+02 -4.538979E+03
       421   8  2.255767E+06 -3.629492E+04 -2.957689E+04 -1.961600E+03 -2.872889E+03 -5.199398E+03
       421   9  2.240621E+06 -3.969693E+04 -3.069782E+04 -6.990179E+03 -5.400579E+03 -5.878023E+03
       421  10  2.534199E+06  3.242262E+04  3.543252E+04 -6.782365E+03 -1.287705E-09 -4.950786E-10
       421  11  2.549347E+06  3.612522E+04  3.972428E+04 -1.754132E+03  5.783454E-10  4.367079E-10
       421  12  2.564970E+06  4.029331E+04  4.576724E+04 -6.768755E+03  2.899266E-11 -4.746579E-10
       421  13  2.402787E+06  3.838094E-02  4.371684E+03 -6.879276E+03  1.840390E-09  1.355581E-09
       421  14  2.402547E+06 -8.409470E+01  5.074409E+03 -1.857883E+03  1.959808E-09  1.434494E-09
       421  15  2.402784E+06  2.991041E+02  7.535558E+03 -6.879492E+03  2.910272E-10  1.642544E-10
       421  16  2.271390E+06 -3.242377E+04 -2.669035E+04 -6.976169E+03  1.127158E-09  9.314309E-10
       421  17  2.255766E+06 -3.629495E+04 -2.957695E+04 -1.961612E+03 -2.019815E-10  2.841340E-10
       421  18  2.240621E+06 -3.969697E+04 -3.069794E+04 -6.990205E+03 -3.872889E-10 -4.045004E-10
       421  19  2.534199E+06  3.242264E+04  3.543256E+04 -6.782367E+03 -4.060345E+02  4.538480E+03
       421  20  2.549347E+06  3.612525E+04  3.972434E+04 -1.754123E+03  2.101896E+03  5.198791E+03
       421  21  2.564970E+06  4.029335E+04  4.576735E+04 -6.768733E+03  4.609695E+03  5.877307E+03
       421  22  2.402787E+06  6.052690E-02  4.371723E+03 -6.879276E+03 -3.050620E+01  4.538730E+03
       421  23  2.402547E+06 -8.406399E+01  5.074471E+03 -1.857872E+03  2.487438E+03  5.199095E+03
       421  24  2.402784E+06  2.991479E+02  7.535670E+03 -6.879469E+03  5.005189E+03  5.877665E+03
       421  25  2.271390E+06 -3.242375E+04 -2.669031E+04 -6.976167E+03  3.449433E+02  4.538979E+03
       421  26  2.255767E+06 -3.629492E+04 -2.957689E+04 -1.961600E+03  2.872889E+03  5.199398E+03
       421  27  2.240621E+06 -3.969693E+04 -3.069782E+04 -6.990179E+03  5.400579E+03  5.878023E+03
       422   1  2.584045E+06  4.440818E+04  5.220054E+04 -6.313261E+03 -6.121082E+03 -6.287912E+03
       422   2  2.599743E+06  4.820865E+04  6.235760E+04 -1.496078E+03 -1.397827E+04 -7.009978E+03
       422   3  2.617655E+06  5.656726E+04  7.876579E+04 -7.655297E+03 -2.183537E+04 -7.728486E+03
       422   4  2.403168E+06 -2.154733E+02  9.463192E+03 -7.085797E+03 -6.534748E+03 -6.288316E+03
       422   5  2.402054E+06 -5.513430E+02  1.569766E+04 -1.599149E+03 -1.438768E+04 -7.010457E+03
       422   6  2.403153E+06  3.671225E+03  2.818184E+04 -7.089114E+03 -2.224031E+04 -7.729056E+03
       422   7  2.222322E+06 -4.484146E+04 -3.327642E+04 -7.858114E+03 -6.948294E+03 -6.288720E+03
       422   8  2.204401E+06 -4.931412E+04 -3.096497E+04 -1.702194E+03 -1.479696E+04 -7.010937E+03
       422   9  2.188693E+06 -4.922808E+04 -2.240528E+04 -6.523136E+03 -2.264511E+04 -7.729626E+03
       422  10  2.584045E+06  4.440813E+04  5.220040E+04 -6.313291E+03 -2.930323E-10  8.339409E-10
       422  11  2.599743E+06  4.820854E+04  6.235714E+04 -1.496156E+03 -2.678087E-09 -7.766911E-10
       422  12  2.617655E+06  5.656707E+04  7.876479E+04 -7.655433E+03  8.412065E-10  5.870126E-10
       422  13  2.403168E+06 -2.155272E+02  9.463038E+03 -7.085830E+03  1.499455E-10  4.856950E-10
       422  14  2.402054E+06 -5.514511E+02  1.569718E+04 -1.599230E+03 -7.810004E-10  5.808157E-10
       422  15  2.403153E+06  3.671029E+03  2.818080E+04 -7.089252E+03 -1.962867E-10  8.656657E-11
       422  16  2.222322E+06 -4.484151E+04 -3.327658E+04 -7.858149E+03 -3.716520E-10 -5.833306E-10
       422  17  2.204400E+06 -4.931423E+04 -3.096547E+04 -1.702278E+03 -6.008605E-10  7.142199E-10
       422  18  2.188693E+06 -4.922828E+04 -2.240636E+04 -6.523277E+03 -4.844490E-10  8.964098E-10
       422  19  2.584045E+06  4.440818E+04  5.220054E+04 -6.313261E+03  6.121082E+03  6.287912E+03
       422  20  2.599743E+06  4.820865E+04  6.235760E+04 -1.496078E+03  1.397827E+04  7.009978E+03
       422  21  2.617655E+06  5.656726E+04  7.876579E+04 -7.655297E+03  2.183537E+04  7.728486E+03
       422  22  2.403168E+06 -2.154733E+02  9.463192E+03 -7.085797E+03  6.534748E+03  6.288316E+03
       422  23  2.402054E+06 -5.513430E+02  1.569766E+04 -1.599149E+03  1.438768E+04  7.010457E+03
       422  24  2.403153E+06  3.671225E+03  2.818184E+04 -7.089114E+03  2.224031E+04  7.729056E+03
       422  25  2.222322E+06 -4.484146E+04 -3.327642E+04 -7.858114E+03  6.948294E+03  6.288720E+03
       422  26  2.204401E+06 -4.931412E+04 -3.096497E+04 -1.702194E+03  1.479696E+04  7.010937E+03
       422  27  2.188693E+06 -4.922808E+04 -2.240528E+04 -6.523136E+03  2.264511E+04  7.729626E+03
       423   1  2.641347E+06  5.581931E+04  9.164119E+04 -1.035930E+03 -2.735657E+04 -8.248735E+03
       423   2  2.651919E+06  5.750490E+04  1.209389E+05 -4.168479E+03 -5.879071E+04 -9.044068E+03
       423   3  2.678679E+06  1.073282E+05  1.826946E+05 -1.951585E+04 -9.022735E+04 -9.382595E+03
       423   4  2.406256E+06 -2.187108E+03  3.611456E+04 -7.347174E+03 -2.792281E+04 -8.249225E+03
       423   5  2.398143E+06 -5.079210E+03  6.104377E+04 -1.264732E+03 -5.908216E+04 -9.044931E+03
       423   6  2.406177E+06  4.012969E+04  1.182501E+05 -7.397100E+03 -9.024306E+04 -9.384676E+03
       423   7  2.171215E+06 -6.019732E+04 -1.941587E+04 -1.365604E+04 -2.848884E+04 -8.249703E+03
       423   8  2.144425E+06 -6.766788E+04  1.144181E+03  1.637809E+03 -5.937349E+04 -9.045796E+03
       423   9  2.133742E+06 -2.707360E+04  5.380053E+04  4.716305E+03 -9.025876E+04 -9.386759E+03
       423  10  2.641346E+06  5.581904E+04  9.163967E+04 -1.036112E+03 -5.042492E-11 -2.857560E-10
       423  11  2.651916E+06  5.750389E+04  1.209323E+05 -4.168907E+03 -3.950064E-10 -1.181564E-09
       423  12  2.678671E+06  1.073260E+05  1.826792E+05 -1.951653E+04  5.408062E-10 -1.432740E-09
       423  13  2.406255E+06 -2.187390E+03  3.611297E+04 -7.347360E+03  4.005102E-10 -8.126089E-11
       423  14  2.398139E+06 -5.080231E+03  6.103708E+04 -1.265162E+03  3.443414E-11 -8.022314E-10
       423  15  2.406168E+06  4.012742E+04  1.182347E+05 -7.397781E+03  1.481963E-10 -1.120831E-09
       423  16  2.171214E+06 -6.019761E+04 -1.941751E+04 -1.365623E+04  3.652241E-11  3.163132E-10
       423  17  2.144422E+06 -6.766891E+04  1.137426E+03  1.637377E+03  2.248280E-09  2.756515E-09
       423  18  2.133733E+06 -2.707587E+04  5.378510E+04  4.715624E+03  6.750605E-10  1.726131E-11
       423  19  2.641347E+06  5.581931E+04  9.164119E+04 -1.035930E+03  2.735657E+04  8.248735E+03
       423  20  2.651919E+06  5.750490E+04  1.209389E+05 -4.168479E+03  5.879071E+04  9.044068E+03
       423  21  2.678679E+06  1.073282E+05  1.826946E+05 -1.951585E+04  9.022735E+04  9.382595E+03
       423  22  2.406256E+06 -2.187108E+03  3.611456E+04 -7.347174E+03  2.792281E+04  8.249225E+03
       423  23  2.398143E+06 -5.079210E+03  6.104377E+04 -1.264732E+03  5.908216E+04  9.044931E+03
       423  24  2.406177E+06  4.012969E+04  1.182501E+05 -7.397100E+03  9.024306E+04  9.384676E+03
       423  25  2.171215E+06 -6.019732E+04 -1.941587E+04 -1.365604E+04  2.848884E+04  8.249703E+03
       423  26  2.144425E+06 -6.766788E+04  1.144181E+03  1.637809E+03  5.937349E+04  9.045796E+03
       423  27  2.133742E+06 -2.707360E+04  5.380053E+04  4.716305E+03  9.025876E+04  9.386759E+03
       424   1  2.729776E+06  5.011081E+04  2.151359E+05  5.255642E+04 -1.101197E+05 -1.098006E+04
       424   2  2.679328E+06  2.722690E+04  3.100984E+05 -4.519084E+04 -2.413279E+05 -1.147461E+04
       424   3  2.772157E+06  5.093324E+05  6.165324E+05 -1.570650E+05 -3.725504E+05 -4.172506E+03
       424   4  2.434376E+06 -2.292035E+04  1.455229E+05 -7.574942E+03 -1.125220E+05 -1.097302E+04
       424   5  2.362854E+06 -5.067295E+04  2.354165E+05 -8.753718E+02 -2.391932E+05 -1.148909E+04
       424   6  2.433873E+06  4.258755E+05  5.337073E+05 -8.286738E+03 -3.658728E+05 -4.250733E+03
       424   7  2.139064E+06 -9.594425E+04  7.590591E+04 -6.767766E+04 -1.149232E+05 -1.096551E+04
       424   8  2.046475E+06 -1.285725E+05  1.607287E+05  4.341745E+04 -2.370595E+05 -1.150328E+04
       424   9  2.095740E+06  3.424933E+05  4.508858E+05  1.404106E+05 -3.591987E+05 -4.325812E+03
       424  10  2.729763E+06  5.010745E+04  2.151130E+05  5.255544E+04  7.718861E-10 -2.572609E-09
       424  11  2.679266E+06  2.721121E+04  3.099892E+05 -4.519307E+04 -2.690712E-09 -4.969694E-09
       424  12  2.772009E+06  5.092954E+05  6.162727E+05 -1.570662E+05 -1.745794E-09 -1.142875E-09
       424  13  2.434362E+06 -2.292386E+04  1.454990E+05 -7.575936E+03 -2.866564E-09 -7.127693E-09
       424  14  2.362793E+06 -5.068838E+04  2.353091E+05 -8.775827E+02  2.541353E-09  2.906441E-09
       424  15  2.433730E+06  4.258398E+05  5.334567E+05 -8.287989E+03  3.521465E-10 -3.580855E-10
       424  16  2.139050E+06 -9.594791E+04  7.588095E+04 -6.767867E+04 -9.873357E-10 -1.783911E-09
       424  17  2.046415E+06 -1.285877E+05  1.606232E+05  4.341525E+04  2.903005E-09  1.489811E-09
       424  18  2.095601E+06  3.424588E+05  4.506441E+05  1.404094E+05  1.825845E-09 -1.648699E-09
       424  19  2.729776E+06  5.011081E+04  2.151359E+05  5.255642E+04  1.101197E+05  1.098006E+04
       424  20  2.679328E+06  2.722690E+04  3.100984E+05 -4.519084E+04  2.413279E+05  1.147461E+04
       424  21  2.772157E+06  5.093324E+05  6.165324E+05 -1.570650E+05  3.725504E+05  4.172506E+03
       424  22  2.434376E+06 -2.292035E+04  1.455229E+05 -7.574942E+03  1.125220E+05  1.097302E+04
       424  23  2.362854E+06 -5.067295E+04  2.354165E+05 -8.753718E+02  2.391932E+05  1.148909E+04
       424  24  2.433873E+06  4.258755E+05  5.337073E+05 -8.286738E+03  3.658728E+05  4.250733E+03
       424  25  2.139064E+06 -9.594425E+04  7.590591E+04 -6.767766E+04  1.149232E+05  1.096551E+04
       424  26  2.046475E+06 -1.285725E+05  1.607287E+05  4.341745E+04  2.370595E+05  1.150328E+04
       424  27  2.095740E+06  3.424933E+05  4.508858E+05  1.404106E+05  3.591987E+05  4.325812E+03
       425   1  5.945336E+05  1.943838E+05  1.795316E+05  5.002217E+04  5.186352E+04 -1.249879E+04
       425   2  5.310317E+05  1.918285E+05  1.433271E+05  5.371009E+04  2.187696E+04 -4.244195E+04
       425   3  4.692975E+05  1.806552E+05  1.245194E+05  6.900250E+04 -8.139625E+03 -5.164915E+04
       425   4 -3.073007E+05 -2.796039E+04 -3.091606E+04  6.670866E+04 -2.159721E+04 -1.263655E+04
       425   5 -3.048772E+05 -6.986298E+03 -1.515949E+04  6.087861E+04 -1.372985E+04 -4.251818E+04
       425   6 -3.072637E+05 -1.208155E+03 -8.288219E+03  6.665325E+04 -5.896429E+03 -5.165011E+04
       425   7 -1.208373E+06 -2.503581E+05 -2.413984E+05  8.337040E+04 -9.495199E+04 -1.277837E+04
       425   8 -1.140109E+06 -2.058410E+05 -1.736724E+05  6.803689E+04 -4.928988E+04 -4.259528E+04
       425   9 -1.083232E+06 -1.831037E+05 -1.411159E+05  6.430669E+04 -3.655945E+03 -5.165109E+04
       425  10  5.945307E+05  1.943829E+05  1.795263E+05  5.002269E+04  4.069393E-09 -1.366446E-09
       425  11  5.310307E+05  1.918264E+05  1.433228E+05  5.371083E+04  2.869282E-09 -5.024684E-09
       425  12  4.692968E+05  1.806524E+05  1.245142E+05  6.900217E+04  4.442213E-10 -4.413611E-09
       425  13 -3.073012E+05 -2.796069E+04 -3.091723E+04  6.670844E+04 -1.007443E-10  8.060847E-10
       425  14 -3.048779E+05 -6.988290E+03 -1.516324E+04  6.087814E+04  1.436092E-09 -3.789595E-09
       425  15 -3.072644E+05 -1.211029E+03 -8.293296E+03  6.665300E+04  1.415928E-09 -3.769731E-10
       425  16 -1.208383E+06 -2.503607E+05 -2.414157E+05  8.336942E+04 -4.849275E-09  2.811372E-10
       425  17 -1.140112E+06 -2.058436E+05 -1.736804E+05  6.803520E+04  2.874293E-10 -6.574253E-09
       425  18 -1.083233E+06 -1.831065E+05 -1.411209E+05  6.430654E+04 -5.156213E-11 -6.004684E-09
       425  19  5.945336E+05  1.943838E+05  1.795316E+05  5.002217E+04 -5.186352E+04  1.249879E+04
       425  20  5.310317E+05  1.918285E+05  1.433271E+05  5.371009E+04 -2.187696E+04  4.244195E+04
       425  21  4.692975E+05  1.806552E+05  1.245194E+05  6.900250E+04  8.139625E+03  5.164915E+04
       425  22 -3.073007E+05 -2.796039E+04 -3.091606E+04  6.670866E+04  2.159721E+04  1.263655E+04
       425  23 -3.048772E+05 -6.986298E+03 -1.515949E+04  6.087861E+04  1.372985E+04  4.251818E+04
       425  24 -3.072637E+05 -1.208155E+03 -8.288219E+03  6.665325E+04  5.896429E+03  5.165011E+04
       425  25 -1.208373E+06 -2.503581E+05 -2.413984E+05  8.337040E+04  9.495199E+04  1.277837E+04
       425  26 -1.140109E+06 -2.058410E+05 -1.736724E+05  6.803689E+04  4.928988E+04  4.259528E+04
       425  27 -1.083232E+06 -1.831037E+05 -1.411159E+05  6.430669E+04  3.655945E+03  5.165109E+04
       426   1  4.290611E+05  1.705855E+05  1.177220E+05  6.755778E+04 -5.509332E+03 -5.038708E+04
       426   2  3.664455E+05  1.563963E+05  1.065121E+05  6.142397E+04 -7.547412E+03 -4.898825E+04
       426   3  3.040178E+05  1.420100E+05  9.657427E+04  6.830263E+04 -9.591413E+03 -4.552851E+04
       426   4 -3.062876E+05 -1.269514E+03 -6.278451E+03  6.697246E+04 -4.824206E+03 -5.039099E+04
       426   5 -3.060394E+05 -8.655126E+01 -3.448021E+03  6.046398E+04 -3.102434E+03 -4.898276E+04
       426   6 -3.062592E+05  2.466892E+02 -1.956494E+03  6.696885E+04 -1.386721E+03 -4.551248E+04
       426   7 -1.041103E+06 -1.731530E+05 -1.302961E+05  6.638755E+04 -4.139862E+03 -5.039489E+04
       426   8 -9.780764E+05 -1.565925E+05 -1.134210E+05  5.950478E+04  1.337899E+03 -4.897728E+04
       426   9 -9.161665E+05 -1.415354E+05 -1.004972E+05  6.563619E+04  6.810194E+03 -4.549648E+04
       426  10  4.290604E+05  1.705828E+05  1.177171E+05  6.755756E+04 -7.098855E-09 -4.970124E-09
       426  11  3.664448E+05  1.563937E+05  1.065075E+05  6.142368E+04 -1.430933E-09  1.744616E-09
       426  12  3.040172E+05  1.420077E+05  9.657021E+04  6.830228E+04  1.202798E-09  2.935463E-09
       426  13 -3.062883E+05 -1.272247E+03 -6.283266E+03  6.697227E+04  7.533104E-13 -2.117539E-09
       426  14 -3.060400E+05 -8.912990E+01 -3.452547E+03  6.046385E+04  9.341334E-10  1.768040E-09
       426  15 -3.062598E+05  2.444647E+02 -1.960389E+03  6.696880E+04  2.298610E-09 -1.707795E-09
       426  16 -1.041104E+06 -1.731558E+05 -1.303009E+05  6.638738E+04  5.764225E-09  4.995774E-10
       426  17 -9.780771E+05 -1.565951E+05 -1.134255E+05  5.950484E+04  3.749154E-09  2.261502E-09
       426  18 -9.161671E+05 -1.415376E+05 -1.005011E+05  6.563644E+04 -1.552982E-09  1.638731E-09
       426  19  4.290611E+05  1.705855E+05  1.177220E+05  6.755778E+04  5.509332E+03  5.038708E+04
       426  20  3.664455E+05  1.563963E+05  1.065121E+05  6.142397E+04  7.547412E+03  4.898825E+04
       426  21  3.040178E+05  1.420100E+05  9.657427E+04  6.830263E+04  9.591413E+03  4.552851E+04
       426  22 -3.062876E+05 -1.269514E+03 -6.278451E+03  6.697246E+04  4.824206E+03  5.039099E+04
       426  23 -3.060394E+05 -8.655126E+01 -3.448021E+03  6.046398E+04  3.102434E+03  4.898276E+04
       426  24 -3.062592E+05  2.466892E+02 -1.956494E+03  6.696885E+04  1.386721E+03  4.551248E+04
       426  25 -1.041103E+06 -1.731530E+05 -1.302961E+05  6.638755E+04  4.139862E+03  5.039489E+04
       426  26 -9.780764E+05 -1.565925E+05 -1.134210E+05  5.950478E+04 -1.337899E+03  4.897728E+04
       426  27 -9.161665E+05 -1.415354E+05 -1.004972E+05  6.563619E+04 -6.810194E+03  4.549648E+04
       427   1  2.638565E+05  1.325808E+05  9.015805E+04  6.815642E+04 -9.145909E+03 -4.285673E+04
       427   2  2.013014E+05  1.180416E+05  8.050750E+04  6.147263E+04 -9.110421E+03 -3.834101E+04
       427   3  1.387073E+05  1.035857E+05  7.083822E+04  6.795235E+04 -9.077048E+03 -3.361919E+04
       427   4 -3.061702E+05  2.428769E+02 -1.485590E+03  6.700282E+04 -1.093593E+03 -4.284011E+04
       427   5 -3.061054E+05  2.815032E+02 -8.489493E+02  6.042064E+04 -6.827526E+02 -3.832202E+04
       427   6 -3.061488E+05  3.382341E+02 -4.920450E+02  6.700260E+04 -2.740232E+02 -3.359774E+04
       427   7 -8.758740E+05 -1.321114E+05 -9.313769E+04  6.585010E+04  6.951596E+03 -4.282352E+04
       427   8 -8.132562E+05 -1.174915E+05 -8.221196E+04  5.936937E+04  7.738276E+03 -3.830305E+04
       427   9 -7.508082E+05 -1.029191E+05 -7.182726E+04  6.605342E+04  8.522921E+03 -3.357631E+04
       427  10  2.638559E+05  1.325788E+05  9.015444E+04  6.815611E+04 -3.379349E-09  3.895688E-09
       427  11  2.013009E+05  1.180400E+05  8.050459E+04  6.147235E+04  9.494495E-10  2.353693E-09
       427  12  1.387069E+05  1.035844E+05  7.083594E+04  6.795210E+04  5.103804E-09  5.751743E-10
       427  13 -3.061707E+05  2.409061E+02 -1.489040E+03  6.700278E+04 -4.169345E-11 -3.110777E-09
       427  14 -3.061058E+05  2.799263E+02 -8.517096E+02  6.042062E+04  5.289138E-10  4.355333E-09
       427  15 -3.061491E+05  3.370221E+02 -4.941661E+02  6.700259E+04  2.219475E-09  5.385011E-09
       427  16 -8.758745E+05 -1.321134E+05 -9.314123E+04  6.585033E+04  2.200320E-09  2.263824E-09
       427  17 -8.132567E+05 -1.174931E+05 -8.221483E+04  5.936961E+04  1.064201E-09  3.133082E-09
       427  18 -7.508086E+05 -1.029203E+05 -7.182952E+04  6.605365E+04 -4.829095E-09  4.725746E-10
       427  19  2.638565E+05  1.325808E+05  9.015805E+04  6.815642E+04  9.145909E+03  4.285673E+04
       427  20  2.013014E+05  1.180416E+05  8.050750E+04  6.147263E+04  9.110421E+03  3.834101E+04
       427  21  1.387073E+05  1.035857E+05  7.083822E+04  6.795235E+04  9.077048E+03  3.361919E+04
       427  22 -3.061702E+05  2.428769E+02 -1.485590E+03  6.700282E+04  1.093593E+03  4.284011E+04
       427  23 -3.061054E+05  2.815032E+02 -8.489493E+02  6.042064E+04  6.827526E+02  3.832202E+04
       427  24 -3.061488E+05  3.382341E+02 -4.920450E+02  6.700260E+04  2.740232E+02  3.359774E+04
       427  25 -8.758740E+05 -1.321114E+05 -9.313769E+04  6.585010E+04 -6.951596E+03  4.282352E+04
       427  26 -8.132562E+05 -1.174915E+05 -8.221196E+04  5.936937E+04 -7.738276E+03  3.830305E+04
       427  27 -7.508082E+05 -1.029191E+05 -7.182726E+04  6.605342E+04 -8.522921E+03  3.357631E+04
       428   1  9.853647E+04  9.421464E+04  6.424758E+04  6.787347E+04 -8.991980E+03 -3.080511E+04
       428   2  3.594713E+04  7.968260E+04  5.446937E+04  6.115162E+04 -8.924900E+03 -2.597653E+04
       428   3 -2.670519E+04  6.522782E+04  4.464444E+04  6.761701E+04 -8.858995E+03 -2.112730E+04
       428   4 -3.061348E+05  3.436847E+02 -3.799198E+02  6.700786E+04 -2.023489E+02 -3.078295E+04
       428   5 -3.060904E+05  3.220132E+02 -2.354420E+02  6.041401E+04 -9.813763E+01 -2.595327E+04
       428   6 -3.061204E+05  3.710222E+02 -1.639891E+02  6.700781E+04  4.905033E+00 -2.110292E+04
       428   7 -7.106430E+05 -9.353544E+04 -6.501141E+04  6.614272E+04  8.581760E+03 -3.076082E+04
       428   8 -6.480114E+05 -7.904440E+04 -5.494303E+04  5.967674E+04  8.723937E+03 -2.593002E+04
       428   9 -5.854578E+05 -6.448966E+04 -4.497420E+04  6.639884E+04  8.864959E+03 -2.107855E+04
       428  10  9.853613E+04  9.421360E+04  6.424565E+04  6.787325E+04  1.220006E-09 -9.568598E-11
       428  11  3.594687E+04  7.968186E+04  5.446795E+04  6.115143E+04  1.013976E-09  7.707603E-09
       428  12 -2.670540E+04  6.522732E+04  4.464346E+04  6.761686E+04 -1.836294E-09  6.969308E-09
       428  13 -3.061350E+05  3.426673E+02 -3.817003E+02  6.700785E+04 -2.846744E-10  1.106906E-09
       428  14 -3.060906E+05  3.212900E+02 -2.367076E+02  6.041401E+04  6.768687E-10  8.303203E-09
       428  15 -3.061205E+05  3.705440E+02 -1.648258E+02  6.700781E+04  2.173679E-09  1.962298E-09
       428  16 -7.106433E+05 -9.353647E+04 -6.501332E+04  6.614293E+04 -2.187355E-09  8.371341E-10
       428  17 -6.480117E+05 -7.904514E+04 -5.494444E+04  5.967692E+04  2.242021E-09  2.520716E-09
       428  18 -5.854580E+05 -6.449016E+04 -4.497518E+04  6.639899E+04  1.846462E-09  1.196506E-09
       428  19  9.853647E+04  9.421464E+04  6.424758E+04  6.787347E+04  8.991980E+03  3.080511E+04
       428  20  3.594713E+04  7.968260E+04  5.446937E+04  6.115162E+04  8.924900E+03  2.597653E+04
       428  21 -2.670519E+04  6.522782E+04  4.464444E+04  6.761701E+04  8.858995E+03  2.112730E+04
       428  22 -3.061348E+05  3.436847E+02 -3.799198E+02  6.700786E+04  2.023489E+02  3.078295E+04
       428  23 -3.060904E+05  3.220132E+02 -2.354420E+02  6.041401E+04  9.813763E+01  2.595327E+04
       428  24 -3.061204E+05  3.710222E+02 -1.639891E+02  6.700781E+04 -4.905033E+00  2.110292E+04
       428  25 -7.106430E+05 -9.353544E+04 -6.501141E+04  6.614272E+04 -8.581760E+03  3.076082E+04
       428  26 -6.480114E+05 -7.904440E+04 -5.494303E+04  5.967674E+04 -8.723937E+03  2.593002E+04
       428  27 -5.854578E+05 -6.448966E+04 -4.497420E+04  6.639884E+04 -8.864959E+03  2.107855E+04
       429   1 -6.690101E+04  5.585484E+04  3.796879E+04  6.753282E+04 -8.838477E+03 -1.829779E+04
       429   2 -1.295085E+05  4.131613E+04  2.806679E+04  6.079265E+04 -8.763367E+03 -1.344056E+04
       429   3 -1.921951E+05  2.684825E+04  1.810717E+04  6.725010E+04 -8.688823E+03 -8.589606E+03
       429   4 -3.061177E+05  3.762635E+02 -1.498218E+02  6.701007E+04  2.562158E+01 -1.827295E+04
       429   5 -3.060739E+05  3.488214E+02 -1.552865E+02  6.041114E+04  8.892477E+01 -1.341524E+04
       429   6 -3.061102E+05  3.946230E+02 -2.100873E+02  6.701004E+04  1.516704E+02 -8.563789E+03
       429   7 -5.452772E+05 -5.510513E+04 -3.826962E+04  6.648749E+04  8.886428E+03 -1.824812E+04
       429   8 -4.826081E+05 -4.062001E+04 -2.837788E+04  6.002972E+04  8.938789E+03 -1.338991E+04
       429   9 -4.200123E+05 -2.605961E+04 -1.852740E+04  6.677001E+04  8.990599E+03 -8.537975E+03
       429  10 -6.690118E+04  5.585446E+04  3.796802E+04  6.753269E+04  1.160058E-08  3.763273E-10
       429  11 -1.295086E+05  4.131591E+04  2.806630E+04  6.079255E+04  3.854391E-09 -2.401413E-09
       429  12 -1.921952E+05  2.684815E+04  1.810689E+04  6.725004E+04 -5.488870E-09 -2.927249E-09
       429  13 -3.061178E+05  3.759050E+02 -1.504492E+02  6.701007E+04  5.307278E-11  8.553328E-09
       429  14 -3.060739E+05  3.486282E+02 -1.556246E+02  6.041114E+04  1.126649E-09 -1.348440E-09
       429  15 -3.061103E+05  3.945443E+02 -2.102251E+02  6.701004E+04  2.103374E-09 -4.871633E-09
       429  16 -5.452774E+05 -5.510551E+04 -3.827039E+04  6.648762E+04 -1.249333E-08  3.836847E-09
       429  17 -4.826082E+05 -4.062022E+04 -2.837837E+04  6.002982E+04 -1.255694E-09 -2.900047E-09
       429  18 -4.200124E+05 -2.605971E+04 -1.852769E+04  6.677007E+04  5.448826E-09 -2.254970E-09
       429  19 -6.690101E+04  5.585484E+04  3.796879E+04  6.753282E+04  8.838477E+03  1.829779E+04
       429  20 -1.295085E+05  4.131613E+04  2.806679E+04  6.079265E+04  8.763367E+03  1.344056E+04
       429  21 -1.921951E+05  2.684825E+04  1.810717E+04  6.725010E+04  8.688823E+03  8.589606E+03
       429  22 -3.061177E+05  3.762635E+02 -1.498218E+02  6.701007E+04 -2.562158E+01  1.827295E+04
       429  23 -3.060739E+05  3.488214E+02 -1.552865E+02  6.041114E+04 -8.892477E+01  1.341524E+04
       429  24 -3.061102E+05  3.946230E+02 -2.100873E+02  6.701004E+04 -1.516704E+02  8.563789E+03
       429  25 -5.452772E+05 -5.510513E+04 -3.826962E+04  6.648749E+04 -8.886428E+03  1.824812E+04
       429  26 -4.826081E+05 -4.062001E+04 -2.837788E+04  6.002972E+04 -8.938789E+03  1.338991E+04
       429  27 -4.200123E+05 -2.605961E+04 -1.852740E+04  6.677001E+04 -8.990599E+03  8.537975E+03
       430   1 -2.324086E+05  1.746839E+04  1.135773E+04  6.715229E+04 -8.661352E+03 -5.763476E+03
       430   2 -2.949957E+05  2.909224E+03  1.232752E+03  6.040909E+04 -8.299451E+03 -9.550108E+02
       430   3 -3.577153E+05 -1.162988E+04 -9.150408E+03  6.685968E+04 -7.937375E+03  3.764215E+03
       430   4 -3.061150E+05  3.984794E+02 -2.609269E+02  6.700912E+04  1.859183E+02 -5.737474E+03
       430   5 -3.060607E+05  3.631440E+02 -4.294788E+02  6.041225E+04  3.846767E+02 -9.294564E+02
       430   6 -3.061146E+05  3.763248E+02 -7.430666E+02  6.700919E+04  5.836459E+02  3.789323E+03
       430   7 -3.798159E+05 -1.667166E+04 -1.187942E+04  6.686596E+04  9.032177E+03 -5.711475E+03
       430   8 -3.171255E+05 -2.182902E+03 -2.091429E+03  6.041542E+04  9.068656E+03 -9.039017E+02
       430   9 -2.545111E+05  1.238244E+04  7.664472E+03  6.715871E+04  9.105351E+03  3.814434E+03
       430  10 -2.324087E+05  1.746833E+04  1.135752E+04  6.715225E+04 -4.386818E-09  3.067241E-09
       430  11 -2.949958E+05  2.909205E+03  1.232621E+03  6.040908E+04 -2.023205E-09  3.222492E-09
       430  12 -3.577154E+05 -1.162992E+04 -9.150553E+03  6.685970E+04 -1.924278E-09  2.323526E-09
       430  13 -3.061150E+05  3.984441E+02 -2.609888E+02  6.700912E+04 -2.662823E-10 -6.386869E-10
       430  14 -3.060607E+05  3.631430E+02 -4.294807E+02  6.041225E+04  1.117389E-09  1.370610E-09
       430  15 -3.061146E+05  3.763092E+02 -7.430942E+02  6.700919E+04  1.936368E-09  4.074470E-09
       430  16 -3.798160E+05 -1.667171E+04 -1.187963E+04  6.686600E+04  3.342043E-09  4.379764E-09
       430  17 -3.171255E+05 -2.182925E+03 -2.091585E+03  6.041543E+04  5.079208E-09 -5.639470E-09
       430  18 -2.545112E+05  1.238240E+04  7.664289E+03  6.715868E+04  1.836939E-09  5.790912E-10
       430  19 -2.324086E+05  1.746839E+04  1.135773E+04  6.715229E+04  8.661352E+03  5.763476E+03
       430  20 -2.949957E+05  2.909224E+03  1.232752E+03  6.040909E+04  8.299451E+03  9.550108E+02
       430  21 -3.577153E+05 -1.162988E+04 -9.150408E+03  6.685968E+04  7.937375E+03 -3.764215E+03
       430  22 -3.061150E+05  3.984794E+02 -2.609269E+02  6.700912E+04 -1.859183E+02  5.737474E+03
       430  23 -3.060607E+05  3.631440E+02 -4.294788E+02  6.041225E+04 -3.846767E+02  9.294564E+02
       430  24 -3.061146E+05  3.763248E+02 -7.430666E+02  6.700919E+04 -5.836459E+02 -3.789323E+03
       430  25 -3.798159E+05 -1.667166E+04 -1.187942E+04  6.686596E+04 -9.032177E+03  5.711475E+03
       430  26 -3.171255E+05 -2.182902E+03 -2.091429E+03  6.041542E+04 -9.068656E+03  9.039017E+02
       430  27 -2.545111E+05  1.238244E+04  7.664472E+03  6.715871E+04 -9.105351E+03 -3.814434E+03
       431   1 -3.980050E+05 -2.103328E+04 -1.616645E+04  6.669145E+04 -7.863471E+03  6.529664E+03
       431   2 -4.603616E+05 -3.583157E+04 -2.747927E+04  6.020366E+04 -5.374873E+03  1.079684E+04
       431   3 -5.232956E+05 -5.129904E+04 -4.060604E+04  6.684848E+04 -2.883643E+03  1.416196E+04
       431   4 -3.061576E+05  3.830779E+02 -9.764976E+02  6.699525E+04  7.247229E+02  6.554848E+03
       431   5 -3.060127E+05  2.051874E+02 -1.714672E+03  6.043012E+04  1.568717E+03  1.081681E+04
       431   6 -3.061642E+05 -3.562046E+02 -3.124353E+03  6.699739E+04  2.415608E+03  1.417683E+04
       431   7 -2.143016E+05  2.179904E+04  1.421348E+04  6.729910E+04  9.314145E+03  6.580039E+03
       431   8 -1.516401E+05  3.624073E+04  2.404938E+04  6.065662E+04  8.513977E+03  1.083678E+04
       431   9 -8.898653E+04  5.058411E+04  3.435582E+04  6.714632E+04  7.716655E+03  1.419171E+04
       431  10 -3.980051E+05 -2.103334E+04 -1.616664E+04  6.669149E+04 -5.141030E-09  6.729214E-09
       431  11 -4.603616E+05 -3.583170E+04 -2.747955E+04  6.020371E+04  9.967336E-10 -2.462943E-10
       431  12 -5.232956E+05 -5.129926E+04 -4.060644E+04  6.684851E+04  6.363187E-09  2.147549E-09
       431  13 -3.061576E+05  3.830316E+02 -9.765793E+02  6.699525E+04 -2.658030E-10  3.314404E-09
       431  14 -3.060127E+05  2.050612E+02 -1.714896E+03  6.043010E+04  8.281078E-10  2.006714E-09
       431  15 -3.061643E+05 -3.564219E+02 -3.124742E+03  6.699736E+04  2.180179E-09 -5.219636E-09
       431  16 -2.143017E+05  2.179897E+04  1.421323E+04  6.729905E+04  4.004967E-09  3.593134E-09
       431  17 -1.516402E+05  3.624058E+04  2.404902E+04  6.065654E+04  1.628864E-09  1.069633E-09
       431  18 -8.898665E+04  5.058388E+04  3.435533E+04  6.714623E+04 -6.319867E-09 -7.036160E-09
       431  19 -3.980050E+05 -2.103328E+04 -1.616645E+04  6.669145E+04  7.863471E+03 -6.529664E+03
       431  20 -4.603616E+05 -3.583157E+04 -2.747927E+04  6.020366E+04  5.374873E+03 -1.079684E+04
       431  21 -5.232956E+05 -5.129904E+04 -4.060604E+04  6.684848E+04  2.883643E+03 -1.416196E+04
       431  22 -3.061576E+05  3.830779E+02 -9.764976E+02  6.699525E+04 -7.247229E+02 -6.554848E+03
       431  23 -3.060127E+05  2.051874E+02 -1.714672E+03  6.043012E+04 -1.568717E+03 -1.081681E+04
       431  24 -3.061642E+05 -3.562046E+02 -3.124353E+03  6.699739E+04 -2.415608E+03 -1.417683E+04
       431  25 -2.143016E+05  2.179904E+04  1.421348E+04  6.729910E+04 -9.314145E+03 -6.580039E+03
       431  26 -1.516401E+05  3.624073E+04  2.404938E+04  6.065662E+04 -8.513977E+03 -1.083678E+04
       431  27 -8.898653E+04  5.058411E+04  3.435582E+04  6.714632E+04 -7.716655E+03 -1.419171E+04
       432   1 -5.644502E+05 -6.093593E+04 -4.923211E+04  6.575868E+04 -3.036516E+03  1.630845E+04
       432   2 -6.244843E+05 -7.942733E+04 -6.946359E+04  6.414404E+04  1.740297E+04  1.510594E+04
       432   3 -6.898598E+05 -1.083389E+05 -1.056287E+05  7.505428E+04  3.786418E+04  4.820208E+03
       432   4 -3.066499E+05 -3.227720E+02 -4.124766E+03  6.685800E+04  2.944057E+03  1.632499E+04
       432   5 -3.054244E+05 -3.222332E+03 -7.541139E+03  6.061412E+04  6.830693E+03  1.507550E+04
       432   6 -3.066650E+05 -1.366337E+04 -1.538720E+04  6.689530E+04  1.074113E+04  4.744611E+03
       432   7 -4.878437E+04  6.028679E+04  4.098034E+04  6.795774E+04  8.927041E+03  1.634155E+04
       432   8  1.373371E+04  7.297669E+04  5.437695E+04  5.708228E+04 -3.746900E+03  1.504518E+04
       432   9  7.666686E+04  8.100237E+04  7.484697E+04  5.873115E+04 -1.639858E+04  4.669752E+03
       432  10 -5.644503E+05 -6.093622E+04 -4.923263E+04  6.575872E+04 -5.686957E-09  2.312931E-09
       432  11 -6.244847E+05 -7.942765E+04 -6.946459E+04  6.414382E+04 -3.281008E-10 -4.442191E-09
       432  12 -6.898614E+05 -1.083394E+05 -1.056314E+05  7.505413E+04  2.398412E-09 -1.369059E-09
       432  13 -3.066500E+05 -3.230604E+02 -4.125283E+03  6.685796E+04 -2.251886E-10  2.048753E-09
       432  14 -3.054245E+05 -3.222589E+03 -7.541653E+03  6.061404E+04  1.414422E-09 -9.704885E-09
       432  15 -3.066651E+05 -1.366343E+04 -1.538746E+04  6.689525E+04  2.232521E-09  4.035799E-09
       432  16 -4.878453E+04  6.028649E+04  4.097969E+04  6.795762E+04  4.586046E-09  1.636752E-10
       432  17  1.373364E+04  7.297644E+04  5.437650E+04  5.708233E+04  3.338509E-09  1.303847E-10
       432  18  7.666656E+04  8.100228E+04  7.484643E+04  5.873121E+04 -2.407192E-09 -5.826065E-10
       432  19 -5.644502E+05 -6.093593E+04 -4.923211E+04  6.575868E+04  3.036516E+03 -1.630845E+04
       432  20 -6.244843E+05 -7.942733E+04 -6.946359E+04  6.414404E+04 -1.740297E+04 -1.510594E+04
       432  21 -6.898598E+05 -1.083389E+05 -1.056287E+05  7.505428E+04 -3.786418E+04 -4.820208E+03
       432  22 -3.066499E+05 -3.227720E+02 -4.124766E+03  6.685800E+04 -2.944057E+03 -1.632499E+04
       432  23 -3.054244E+05 -3.222332E+03 -7.541139E+03  6.061412E+04 -6.830693E+03 -1.507550E+04
       432  24 -3.066650E+05 -1.366337E+04 -1.538720E+04  6.689530E+04 -1.074113E+04 -4.744611E+03
       432  25 -4.878437E+04  6.028679E+04  4.098034E+04  6.795774E+04 -8.927041E+03 -1.634155E+04
       432  26  1.373371E+04  7.297669E+04  5.437695E+04  5.708228E+04  3.746900E+03 -1.504518E+04
       432  27  7.666686E+04  8.100237E+04  7.484697E+04  5.873115E+04  1.639858E+04 -4.669752E+03
       433   1 -2.163344E+05  4.578327E+04  2.379637E+04 -9.756945E+03 -5.946735E+04 -5.644902E+03
       433   2 -2.397953E+05  1.262389E+05  6.700314E+04 -1.814466E+03 -4.224481E+04 -1.678806E+04
       433   3 -2.890676E+05  1.123116E+05  7.542945E+04  2.958055E+04 -2.505679E+04 -1.603692E+04
       433   4 -7.247718E+05 -8.079377E+04 -1.012850E+05  1.743184E+04 -6.929624E+04 -5.674838E+03
       433   5 -7.112422E+05  9.626431E+03 -4.466009E+04  5.583495E+03 -4.524180E+04 -1.679842E+04
       433   6 -7.247342E+05  4.436571E+03 -2.758387E+04  1.718942E+04 -2.122054E+04 -1.602480E+04
       433   7 -1.232972E+06 -2.073871E+05 -2.263846E+05  4.459815E+04 -7.911708E+04 -5.705649E+03
       433   8 -1.182485E+06 -1.070017E+05 -1.563387E+05  1.297565E+04 -4.823651E+04 -1.680886E+04
       433   9 -1.160226E+06 -1.034516E+05 -1.306102E+05  4.806894E+03 -1.738696E+04 -1.601282E+04
       433  10 -2.163382E+05  4.578229E+04  2.378966E+04 -9.757215E+03 -6.012552E-09  2.472958E-09
       433  11 -2.397973E+05  1.262381E+05  6.699925E+04 -1.815037E+03 -2.320672E-09  1.528169E-08
       433  12 -2.890684E+05  1.123112E+05  7.542779E+04  2.958022E+04  2.973308E-09  7.715193E-09
       433  13 -7.247769E+05 -8.079509E+04 -1.012941E+05  1.743152E+04  1.684840E-09 -3.959437E-09
       433  14 -7.112445E+05  9.625578E+03 -4.466447E+04  5.582883E+03  2.740984E-09 -8.871140E-09
       433  15 -7.247347E+05  4.436174E+03 -2.758520E+04  1.718914E+04  5.209383E-10 -2.937801E-10
       433  16 -1.232979E+06 -2.073888E+05 -2.263964E+05  4.459779E+04  5.089743E-09  8.599830E-10
       433  17 -1.182487E+06 -1.070027E+05 -1.563436E+05  1.297500E+04  1.557149E-09  1.222834E-08
       433  18 -1.160226E+06 -1.034519E+05 -1.306113E+05  4.806669E+03 -2.046330E-09  1.886520E-09
       433  19 -2.163344E+05  4.578327E+04  2.379637E+04 -9.756945E+03  5.946735E+04  5.644902E+03
       433  20 -2.397953E+05  1.262389E+05  6.700314E+04 -1.814466E+03  4.224481E+04  1.678806E+04
       433  21 -2.890676E+05  1.123116E+05  7.542945E+04  2.958055E+04  2.505679E+04  1.603692E+04
       433  22 -7.247718E+05 -8.079377E+04 -1.012850E+05  1.743184E+04  6.929624E+04  5.674838E+03
       433  23 -7.112422E+05  9.626431E+03 -4.466009E+04  5.583495E+03  4.524180E+04  1.679842E+04
       433  24 -7.247342E+05  4.436571E+03 -2.758387E+04  1.718942E+04  2.122054E+04  1.602480E+04
       433  25 -1.232972E+06 -2.073871E+05 -2.263846E+05  4.459815E+04  7.911708E+04  5.705649E+03
       433  26 -1.182485E+06 -1.070017E+05 -1.563387E+05  1.297565E+04  4.823651E+04  1.680886E+04
       433  27 -1.160226E+06 -1.034516E+05 -1.306102E+05  4.806894E+03  1.738696E+04  1.601282E+04
       434   1 -3.266890E+05  8.967442E+04  7.078323E+04  1.611373E+04 -1.726664E+04 -1.348528E+04
       434   2 -3.623550E+05  8.896289E+04  7.262239E+04  5.659661E+03 -1.180808E+04 -1.266574E+04
       434   3 -4.010571E+05  7.936266E+04  6.866357E+04  1.950407E+04 -6.353538E+03 -1.107656E+04
       434   4 -7.194193E+05 -7.541150E+03 -2.241734E+04  1.747099E+04 -1.701968E+04 -1.348508E+04
       434   5 -7.178558E+05  9.836472E+02 -1.157108E+04  5.307322E+03 -1.112136E+04 -1.266381E+04
       434   6 -7.194088E+05  5.402117E+02 -6.831272E+03  1.744314E+04 -5.226742E+03 -1.107272E+04
       434   7 -1.112008E+06 -1.047678E+05 -1.156287E+05  1.882726E+04 -1.677287E+04 -1.348488E+04
       434   8 -1.073240E+06 -8.700467E+04 -9.577335E+04  4.955084E+03 -1.043504E+04 -1.266187E+04
       434   9 -1.037667E+06 -7.828951E+04 -8.233317E+04  1.538318E+04 -4.100521E+03 -1.106888E+04
       434  10 -3.266894E+05  8.967415E+04  7.078233E+04  1.611354E+04 -5.956314E-10  1.234654E-09
       434  11 -3.623552E+05  8.896268E+04  7.262183E+04  5.659541E+03 -6.547463E-09  5.401426E-09
       434  12 -4.010572E+05  7.936251E+04  6.866327E+04  1.950401E+04 -3.155115E-09  8.830289E-09
       434  13 -7.194196E+05 -7.541423E+03 -2.241822E+04  1.747080E+04  1.290777E-09  1.109043E-08
       434  14 -7.178560E+05  9.834418E+02 -1.157162E+04  5.307209E+03  2.395446E-09 -2.266301E-08
       434  15 -7.194088E+05  5.400727E+02 -6.831553E+03  1.744309E+04  1.976028E-10  8.262092E-09
       434  16 -1.112008E+06 -1.047681E+05 -1.156295E+05  1.882707E+04  8.326769E-10 -9.795048E-09
       434  17 -1.073240E+06 -8.700488E+04 -9.577385E+04  4.954977E+03  5.627288E-09 -5.444682E-09
       434  18 -1.037667E+06 -7.828965E+04 -8.233343E+04  1.538315E+04  3.353130E-09  4.506388E-10
       434  19 -3.266890E+05  8.967442E+04  7.078323E+04  1.611373E+04  1.726664E+04  1.348528E+04
       434  20 -3.623550E+05  8.896289E+04  7.262239E+04  5.659661E+03  1.180808E+04  1.266574E+04
       434  21 -4.010571E+05  7.936266E+04  6.866357E+04  1.950407E+04  6.353538E+03  1.107656E+04
       434  22 -7.194193E+05 -7.541150E+03 -2.241734E+04  1.747099E+04  1.701968E+04  1.348508E+04
       434  23 -7.178558E+05  9.836472E+02 -1.157108E+04  5.307322E+03  1.112136E+04  1.266381E+04
       434  24 -7.194088E+05  5.402117E+02 -6.831272E+03  1.744314E+04  5.226742E+03  1.107272E+04
       434  25 -1.112008E+06 -1.047678E+05 -1.156287E+05  1.882726E+04  1.677287E+04  1.348488E+04
       434  26 -1.073240E+06 -8.700467E+04 -9.577335E+04  4.955084E+03  1.043504E+04  1.266187E+04
       434  27 -1.037667E+06 -7.828951E+04 -8.233317E+04  1.538318E+04  4.100521E+03  1.106888E+04
       435   1 -4.444100E+05  6.732461E+04  5.956708E+04  1.821366E+04 -5.061829E+03 -1.001734E+04
       435   2 -4.820323E+05  5.868557E+04  5.304638E+04  5.861041E+03 -3.615139E+03 -8.416847E+03
       435   3 -5.202050E+05  4.937806E+04  4.537372E+04  1.829920E+04 -2.169476E+03 -6.758648E+03
       435   4 -7.188336E+05 -5.774494E+02 -5.333818E+03  1.756297E+04 -4.159053E+03 -1.001418E+04
       435   5 -7.185526E+05  1.434404E+02 -2.972373E+03  5.165765E+03 -2.679752E+03 -8.413371E+03
       435   6 -7.188286E+05  1.901877E+02 -1.785737E+03  1.755992E+04 -1.201392E+03 -6.754842E+03
       435   7 -9.931879E+05 -6.848491E+04 -7.023994E+04  1.691251E+04 -3.256674E+03 -1.001102E+04
       435   8 -9.550214E+05 -5.840271E+04 -5.899501E+04  4.470704E+03 -1.744720E+03 -8.409897E+03
       435   9 -9.174160E+05 -4.900053E+04 -4.894794E+04  1.682084E+04 -2.336155E+02 -6.751038E+03
       435  10 -4.444100E+05  6.732449E+04  5.956684E+04  1.821362E+04  2.381701E-09 -7.679990E-09
       435  11 -4.820324E+05  5.868549E+04  5.304622E+04  5.861017E+03 -2.501064E-09 -9.392684E-09
       435  12 -5.202050E+05  4.937801E+04  4.537362E+04  1.829919E+04  1.434784E-09 -3.949688E-09
       435  13 -7.188336E+05 -5.775617E+02 -5.334039E+03  1.756294E+04  1.504501E-09 -4.532959E-09
       435  14 -7.185526E+05  1.433624E+02 -2.972519E+03  5.165746E+03  1.437465E-09 -6.913754E-09
       435  15 -7.188287E+05  1.901383E+02 -1.785826E+03  1.755991E+04  1.061239E-09 -5.790402E-09
       435  16 -9.931879E+05 -6.848502E+04 -7.024014E+04  1.691249E+04 -2.699016E-09 -7.679065E-09
       435  17 -9.550214E+05 -5.840278E+04 -5.899515E+04  4.470692E+03  1.341964E-09  4.841155E-09
       435  18 -9.174160E+05 -4.900058E+04 -4.894803E+04  1.682083E+04 -1.673560E-09  1.464219E-08
       435  19 -4.444100E+05  6.732461E+04  5.956708E+04  1.821366E+04  5.061829E+03  1.001734E+04
       435  20 -4.820323E+05  5.868557E+04  5.304638E+04  5.861041E+03  3.615139E+03  8.416847E+03
       435  21 -5.202050E+05  4.937806E+04  4.537372E+04  1.829920E+04  2.169476E+03  6.758648E+03
       435  22 -7.188336E+05 -5.774494E+02 -5.333818E+03  1.756297E+04  4.159053E+03  1.001418E+04
       435  23 -7.185526E+05  1.434404E+02 -2.972373E+03  5.165765E+03  2.679752E+03  8.413371E+03
       435  24 -7.188286E+05  1.901877E+02 -1.785737E+03  1.755992E+04  1.201392E+03  6.754842E+03
       435  25 -9.931879E+05 -6.848491E+04 -7.023994E+04  1.691251E+04  3.256674E+03  1.001102E+04
       435  26 -9.550214E+05 -5.840271E+04 -5.899501E+04  4.470704E+03  1.744720E+03  8.409897E+03
       435  27 -9.174160E+05 -4.900053E+04 -4.894794E+04  1.682084E+04  2.336155E+02  6.751038E+03
       436   1 -5.647518E+05  3.818924E+04  3.494053E+04  1.810628E+04 -1.873850E+03 -5.782732E+03
       436   2 -6.029435E+05  2.870199E+04  2.643921E+04  5.456503E+03 -1.408721E+03 -4.115860E+03
       436   3 -6.414156E+05  1.933065E+04  1.760949E+04  1.788111E+04 -9.440214E+02 -2.441382E+03
       436   4 -7.187635E+05  8.969474E+01 -1.424564E+03  1.762395E+04 -9.175649E+02 -5.778874E+03
       436   5 -7.186211E+05  6.773863E+01 -9.605064E+02  5.086433E+03 -4.481853E+02 -4.111890E+03
       436   6 -7.187613E+05  1.610402E+02 -8.277887E+02  1.762358E+04  2.079373E+01 -2.437295E+03
       436   7 -8.727533E+05 -3.801155E+04 -3.779129E+04  1.714172E+04  3.848395E+01 -5.775018E+03
       436   8 -8.342864E+05 -2.856747E+04 -2.836115E+04  4.716420E+03  5.121721E+02 -4.107922E+03
       436   9 -7.961015E+05 -1.900900E+04 -1.926548E+04  1.736608E+04  9.854891E+02 -2.433209E+03
       436  10 -5.647518E+05  3.818921E+04  3.494046E+04  1.810627E+04  3.761087E-09 -8.063561E-09
       436  11 -6.029435E+05  2.870197E+04  2.643917E+04  5.456498E+03 -1.285953E-08  2.695472E-09
       436  12 -6.414156E+05  1.933064E+04  1.760947E+04  1.788111E+04 -1.603059E-08  1.746041E-09
       436  13 -7.187635E+05  8.965866E+01 -1.424628E+03  1.762395E+04  1.624623E-09  1.832129E-09
       436  14 -7.186211E+05  6.772042E+01 -9.605385E+02  5.086431E+03  2.046201E-09 -7.729936E-09
       436  15 -7.187613E+05  1.610338E+02 -8.277999E+02  1.762358E+04  9.594685E-10 -6.915976E-09
       436  16 -8.727533E+05 -3.801159E+04 -3.779135E+04  1.714172E+04 -4.891186E-09  1.138114E-08
       436  17 -8.342864E+05 -2.856749E+04 -2.836118E+04  4.716421E+03  1.090360E-08  1.659890E-08
       436  18 -7.961015E+05 -1.900901E+04 -1.926549E+04  1.736608E+04  1.656951E-08  4.174770E-09
       436  19 -5.647518E+05  3.818924E+04  3.494053E+04  1.810628E+04  1.873850E+03  5.782732E+03
       436  20 -6.029435E+05  2.870199E+04  2.643921E+04  5.456503E+03  1.408721E+03  4.115860E+03
       436  21 -6.414156E+05  1.933065E+04  1.760949E+04  1.788111E+04  9.440214E+02  2.441382E+03
       436  22 -7.187635E+05  8.969474E+01 -1.424564E+03  1.762395E+04  9.175649E+02  5.778874E+03
       436  23 -7.186211E+05  6.773863E+01 -9.605064E+02  5.086433E+03  4.481853E+02  4.111890E+03
       436  24 -7.187613E+05  1.610402E+02 -8.277887E+02  1.762358E+04 -2.079373E+01  2.437295E+03
       436  25 -8.727533E+05 -3.801155E+04 -3.779129E+04  1.714172E+04 -3.848395E+01  5.775018E+03
       436  26 -8.342864E+05 -2.856747E+04 -2.836115E+04  4.716420E+03 -5.121721E+02  4.107922E+03
       436  27 -7.961015E+05 -1.900900E+04 -1.926548E+04  1.736608E+04 -9.854891E+02  2.433209E+03
       437   1 -6.863635E+05  8.160499E+03  6.701382E+03  1.773036E+04 -7.967567E+02 -1.464364E+03
       437   2 -7.246718E+05 -1.426053E+03 -2.555316E+03  5.029777E+03 -2.473139E+02  2.143200E+02
       437   3 -7.632931E+05 -1.091604E+04 -1.220397E+04  1.749281E+04  3.021162E+02  1.890520E+03
       437   4 -7.187671E+05  1.624653E+02 -8.580746E+02  1.764331E+04  1.687033E+02 -1.460243E+03
       437   5 -7.186099E+05  7.472240E+01 -1.119340E+03  5.061676E+03  7.166847E+02  2.184270E+02
       437   6 -7.187674E+05  8.375731E+01 -1.771605E+03  1.764363E+04  1.264687E+03  1.894618E+03
       437   7 -7.511697E+05 -7.835643E+03 -8.417599E+03  1.755626E+04  1.134113E+03 -1.456122E+03
       437   8 -7.125480E+05  1.575495E+03  3.166373E+02  5.093574E+03  1.680693E+03  2.225340E+02
       437   9 -6.742398E+05  1.108342E+04  8.660633E+03  1.779447E+04  2.227327E+03  1.898717E+03
       437  10 -6.863635E+05  8.160497E+03  6.701377E+03  1.773036E+04  8.236790E-09  1.077688E-09
       437  11 -7.246718E+05 -1.426053E+03 -2.555316E+03  5.029777E+03  1.820031E-09 -1.080700E-08
       437  12 -7.632931E+05 -1.091605E+04 -1.220398E+04  1.749281E+04 -6.730602E-09 -5.012557E-09
       437  13 -7.187671E+05  1.624630E+02 -8.580786E+02  1.764331E+04  1.464075E-09  8.029804E-09
       437  14 -7.186099E+05  7.472221E+01 -1.119341E+03  5.061675E+03  7.541077E-10 -4.516388E-09
       437  15 -7.187674E+05  8.375302E+01 -1.771614E+03  1.764363E+04  8.728465E-10 -5.266118E-09
       437  16 -7.511697E+05 -7.835645E+03 -8.417605E+03  1.755626E+04 -9.721071E-09  7.848555E-10
       437  17 -7.125480E+05  1.575495E+03  3.166319E+02  5.093574E+03 -2.650828E-09 -1.624776E-08
       437  18 -6.742398E+05  1.108341E+04  8.660617E+03  1.779446E+04  7.313922E-09 -8.118781E-09
       437  19 -6.863635E+05  8.160499E+03  6.701382E+03  1.773036E+04  7.967567E+02  1.464364E+03
       437  20 -7.246718E+05 -1.426053E+03 -2.555316E+03  5.029777E+03  2.473139E+02 -2.143200E+02
       437  21 -7.632931E+05 -1.091604E+04 -1.220397E+04  1.749281E+04 -3.021162E+02 -1.890520E+03
       437  22 -7.187671E+05  1.624653E+02 -8.580746E+02  1.764331E+04 -1.687033E+02  1.460243E+03
       437  23 -7.186099E+05  7.472240E+01 -1.119340E+03  5.061676E+03 -7.166847E+02 -2.184270E+02
       437  24 -7.187674E+05  8.375731E+01 -1.771605E+03  1.764363E+04 -1.264687E+03 -1.894618E+03
       437  25 -7.511697E+05 -7.835643E+03 -8.417599E+03  1.755626E+04 -1.134113E+03  1.456122E+03
       437  26 -7.125480E+05  1.575495E+03  3.166373E+02  5.093574E+03 -1.680693E+03 -2.225340E+02
       437  27 -6.742398E+05  1.108342E+04  8.660633E+03  1.779447E+04 -2.227327E+03 -1.898717E+03
       438   1 -8.083046E+05 -2.195670E+04 -2.356273E+04  1.716421E+04  6.487471E+02  2.872522E+03
       438   2 -8.462391E+05 -3.143956E+04 -3.406957E+04  4.697859E+03  2.569961E+03  4.549642E+03
       438   3 -8.849008E+05 -4.184632E+04 -4.611340E+04  1.728629E+04  4.491667E+03  6.182915E+03
       438   4 -7.188598E+05  2.116620E+02 -2.257899E+03  1.761791E+04  1.621915E+03  2.876627E+03
       438   5 -7.184997E+05  1.849024E+02 -3.808329E+03  5.092716E+03  3.518235E+03  4.553533E+03
       438   6 -7.188632E+05 -7.610060E+02 -6.877933E+03  1.762199E+04  5.415164E+03  6.186600E+03
       438   7 -6.294077E+05  2.237945E+04  1.904637E+04  1.807167E+04  2.595222E+03  2.880734E+03
       438   8 -5.907454E+05  3.180819E+04  2.645178E+04  5.487640E+03  4.466703E+03  4.557425E+03
       438   9 -5.528002E+05  4.032233E+04  3.235563E+04  1.795775E+04  6.338908E+03  6.190285E+03
       438  10 -8.083046E+05 -2.195671E+04 -2.356274E+04  1.716421E+04 -6.165303E-09  6.934339E-11
       438  11 -8.462391E+05 -3.143959E+04 -3.406962E+04  4.697849E+03 -5.423682E-09 -7.110726E-09
       438  12 -8.849008E+05 -4.184636E+04 -4.611351E+04  1.728626E+04  2.187077E-09 -5.746803E-10
       438  13 -7.188598E+05  2.116524E+02 -2.257919E+03  1.761791E+04  1.957871E-09 -3.218609E-09
       438  14 -7.184998E+05  1.848768E+02 -3.808391E+03  5.092703E+03  9.822357E-10  2.477294E-09
       438  15 -7.188632E+05 -7.610550E+02 -6.878060E+03  1.762196E+04  5.158747E-10  2.097044E-09
       438  16 -6.294077E+05  2.237944E+04  1.904634E+04  1.807166E+04  4.419923E-09  9.028057E-09
       438  17 -5.907454E+05  3.180817E+04  2.645170E+04  5.487623E+03  5.730546E-09 -7.539454E-09
       438  18 -5.528002E+05  4.032227E+04  3.235548E+04  1.795772E+04 -1.658849E-09  9.246856E-09
       438  19 -8.083046E+05 -2.195670E+04 -2.356273E+04  1.716421E+04 -6.487471E+02 -2.872522E+03
       438  20 -8.462391E+05 -3.143956E+04 -3.406957E+04  4.697859E+03 -2.569961E+03 -4.549642E+03
       438  21 -8.849008E+05 -4.184632E+04 -4.611340E+04  1.728629E+04 -4.491667E+03 -6.182915E+03
       438  22 -7.188598E+05  2.116620E+02 -2.257899E+03  1.761791E+04 -1.621915E+03 -2.876627E+03
       438  23 -7.184997E+05  1.849024E+02 -3.808329E+03  5.092716E+03 -3.518235E+03 -4.553533E+03
       438  24 -7.188632E+05 -7.610060E+02 -6.877933E+03  1.762199E+04 -5.415164E+03 -6.186600E+03
       438  25 -6.294077E+05  2.237945E+04  1.904637E+04  1.807167E+04 -2.595222E+03 -2.880734E+03
       438  26 -5.907454E+05  3.180819E+04  2.645178E+04  5.487640E+03 -4.466703E+03 -4.557425E+03
       438  27 -5.528002E+05  4.032233E+04  3.235563E+04  1.795775E+04 -6.338908E+03 -6.190285E+03
       439   1 -9.301887E+05 -5.148827E+04 -5.881194E+04  1.539511E+04  5.689528E+03  7.236490E+03
       439   2 -9.659648E+05 -6.020594E+04 -7.378990E+04  5.217092E+03  1.365695E+04  8.876306E+03
       439   3 -1.005893E+06 -8.062094E+04 -9.692672E+04  1.979946E+04  2.162693E+04  9.897674E+03
       439   4 -7.196150E+05  6.815055E+02 -8.820724E+03  1.754157E+04  6.794089E+03  7.240818E+03
       439   5 -7.175752E+05  1.284771E+03 -1.494240E+04  5.181677E+03  1.440843E+04  8.878993E+03
       439   6 -7.196252E+05 -9.745047E+03 -2.897490E+04  1.758169E+04  2.202580E+04  9.898776E+03
       439   7 -5.090005E+05  5.284810E+04  4.116740E+04  1.968872E+04  7.899024E+03  7.245153E+03
       439   8 -4.691288E+05  6.277105E+04  4.390082E+04  5.146192E+03  1.516020E+04  8.881678E+03
       439   9 -4.332822E+05  6.112497E+04  3.897121E+04  1.536281E+04  2.242485E+04  9.899876E+03
       439  10 -9.301888E+05 -5.148834E+04 -5.881209E+04  1.539508E+04  1.023632E-08 -2.378572E-09
       439  11 -9.659651E+05 -6.020608E+04 -7.379040E+04  5.216994E+03  2.249303E-09  1.152102E-08
       439  12 -1.005893E+06 -8.062117E+04 -9.692778E+04  1.979929E+04  2.673136E-09 -4.382945E-09
       439  13 -7.196151E+05  6.814368E+02 -8.820909E+03  1.754153E+04  2.300063E-09 -8.711790E-09
       439  14 -7.175755E+05  1.284631E+03 -1.494294E+04  5.181573E+03  1.453136E-10  7.075428E-09
       439  15 -7.196257E+05 -9.745282E+03 -2.897599E+04  1.758151E+04  6.523968E-10 -5.577999E-09
       439  16 -5.090006E+05  5.284803E+04  4.116718E+04  1.968867E+04 -1.148580E-08 -3.428426E-09
       439  17 -4.691291E+05  6.277090E+04  4.390024E+04  5.146083E+03 -3.532020E-09 -1.781161E-08
       439  18 -4.332827E+05  6.112473E+04  3.897008E+04  1.536264E+04 -1.727549E-09  8.323518E-09
       439  19 -9.301887E+05 -5.148827E+04 -5.881194E+04  1.539511E+04 -5.689528E+03 -7.236490E+03
       439  20 -9.659648E+05 -6.020594E+04 -7.378990E+04  5.217092E+03 -1.365695E+04 -8.876306E+03
       439  21 -1.005893E+06 -8.062094E+04 -9.692672E+04  1.979946E+04 -2.162693E+04 -9.897674E+03
       439  22 -7.196150E+05  6.815055E+02 -8.820724E+03  1.754157E+04 -6.794089E+03 -7.240818E+03
       439  23 -7.175752E+05  1.284771E+03 -1.494240E+04  5.181677E+03 -1.440843E+04 -8.878993E+03
       439  24 -7.196252E+05 -9.745047E+03 -2.897490E+04  1.758169E+04 -2.202580E+04 -9.898776E+03
       439  25 -5.090005E+05  5.284810E+04  4.116740E+04  1.968872E+04 -7.899024E+03 -7.245153E+03
       439  26 -4.691288E+05  6.277105E+04  4.390082E+04  5.146192E+03 -1.516020E+04 -8.881678E+03
       439  27 -4.332822E+05  6.112497E+04  3.897121E+04  1.536281E+04 -2.242485E+04 -9.899876E+03
       440   1 -1.056565E+06 -7.609319E+04 -1.137644E+05  1.771189E+03  2.417039E+04  1.214253E+04
       440   2 -1.075902E+06 -7.827908E+04 -1.446518E+05  1.534728E+04  6.071211E+04  1.318424E+04
       440   3 -1.131273E+06 -2.051085E+05 -2.305400E+05  5.317032E+04  9.728311E+04  4.643701E+03
       440   4 -7.265059E+05  5.739721E+03 -3.565705E+04  1.732658E+04  2.745908E+04  1.215483E+04
       440   5 -7.089978E+05  1.247503E+04 -5.771337E+04  5.388794E+03  5.850362E+04  1.317494E+04
       440   6 -7.265506E+05 -1.044403E+05 -1.309275E+05  1.769973E+04  8.958007E+04  4.612293E+03
       440   7 -3.963457E+05  8.756568E+04  4.244288E+04  3.289020E+04  3.074949E+04  1.216729E+04
       440   8 -3.419698E+05  1.032199E+05  2.921581E+04 -4.575728E+03  5.629381E+04  1.316571E+04
       440   9 -3.216757E+05 -3.779458E+03 -3.132608E+04 -1.779418E+04  8.187199E+04  4.581777E+03
       440  10 -1.056566E+06 -7.609351E+04 -1.137658E+05  1.770953E+03 -1.440455E-08 -6.535852E-09
       440  11 -1.075906E+06 -7.828026E+04 -1.446591E+05  1.534664E+04 -5.670025E-09 -1.404675E-09
       440  12 -1.131284E+06 -2.051111E+05 -2.305579E+05  5.316996E+04  9.465624E-09  1.193071E-08
       440  13 -7.265068E+05  5.739360E+03 -3.565875E+04  1.732631E+04  2.242333E-09  3.183508E-09
       440  14 -7.090015E+05  1.247392E+04 -5.772013E+04  5.388174E+03  7.526075E-10  4.483280E-09
       440  15 -7.265593E+05 -1.044425E+05 -1.309426E+05  1.769940E+04  4.500763E-10  5.097329E-09
       440  16 -3.963467E+05  8.756526E+04  4.244082E+04  3.288989E+04  1.354085E-08  1.139002E-08
       440  17 -3.419733E+05  1.032188E+05  2.920953E+04 -4.576325E+03  4.107413E-09  1.067826E-08
       440  18 -3.216829E+05 -3.781282E+03 -3.133873E+04 -1.779448E+04 -9.688405E-09 -2.649229E-09
       440  19 -1.056565E+06 -7.609319E+04 -1.137644E+05  1.771189E+03 -2.417039E+04 -1.214253E+04
       440  20 -1.075902E+06 -7.827908E+04 -1.446518E+05  1.534728E+04 -6.071211E+04 -1.318424E+04
       440  21 -1.131273E+06 -2.051085E+05 -2.305400E+05  5.317032E+04 -9.728311E+04 -4.643701E+03
       440  22 -7.265059E+05  5.739721E+03 -3.565705E+04  1.732658E+04 -2.745908E+04 -1.215483E+04
       440  23 -7.089978E+05  1.247503E+04 -5.771337E+04  5.388794E+03 -5.850362E+04 -1.317494E+04
       440  24 -7.265506E+05 -1.044403E+05 -1.309275E+05  1.769973E+04 -8.958007E+04 -4.612293E+03
       440  25 -3.963457E+05  8.756568E+04  4.244288E+04  3.289020E+04 -3.074949E+04 -1.216729E+04
       440  26 -3.419698E+05  1.032199E+05  2.921581E+04 -4.575728E+03 -5.629381E+04 -1.316571E+04
       440  27 -3.216757E+05 -3.779458E+03 -3.132608E+04 -1.779418E+04 -8.187199E+04 -4.581777E+03
