    1C
    1UUSER                                                              
    1UDATE              11.october.2022                                 
    1UTIME              17:55:11                                        
    1UHOST                                                              
    1UPGM               CalculiX                                        
    1UVERSION           Version 2.20                             
    1UCOMPILETIME       Sun Jul 31 18:08:37 CEST 2022                    
    1UDIR                                                               
    1UDBN                                                               
    1UMAT    1MESH_MATERIAL                                             
    2C                           568                                     1
 -1         1 0.00000E+00 0.00000E+00 0.00000E+00
 -1         2 1.66667E-02 0.00000E+00 0.00000E+00
 -1         3 3.33333E-02 0.00000E+00 0.00000E+00
 -1         4 5.00000E-02 0.00000E+00 0.00000E+00
 -1         5 6.66667E-02 0.00000E+00 0.00000E+00
 -1         8 0.00000E+00 6.25000E-03 0.00000E+00
 -1         9 1.66667E-02 6.25000E-03 0.00000E+00
 -1        10 3.33333E-02 6.25000E-03 0.00000E+00
 -1        11 5.00000E-02 6.25000E-03 0.00000E+00
 -1        12 6.66667E-02 6.25000E-03 0.00000E+00
 -1        15 0.00000E+00 1.25000E-02 0.00000E+00
 -1        16 1.66667E-02 1.25000E-02 0.00000E+00
 -1        17 3.33333E-02 1.25000E-02 0.00000E+00
 -1        18 5.00000E-02 1.25000E-02 0.00000E+00
 -1        19 6.66667E-02 1.25000E-02 0.00000E+00
 -1        20 8.33333E-02 1.25000E-02 0.00000E+00
 -1        21 1.00000E-01 1.25000E-02 0.00000E+00
 -1        23 1.66667E-02 1.87500E-02 0.00000E+00
 -1        24 3.33333E-02 1.87500E-02 0.00000E+00
 -1        25 5.00000E-02 1.87500E-02 0.00000E+00
 -1        26 6.66667E-02 1.87500E-02 0.00000E+00
 -1        27 8.33333E-02 1.87500E-02 0.00000E+00
 -1        28 1.00000E-01 1.87500E-02 0.00000E+00
 -1        31 3.33333E-02 2.50000E-02 0.00000E+00
 -1        32 5.00000E-02 2.50000E-02 0.00000E+00
 -1        33 6.66667E-02 2.50000E-02 0.00000E+00
 -1        34 8.33333E-02 2.50000E-02 0.00000E+00
 -1        35 1.00000E-01 2.50000E-02 0.00000E+00
 -1        36 1.04167E-03 0.00000E+00 0.00000E+00
 -1        37 2.08333E-03 0.00000E+00 0.00000E+00
 -1        38 3.12500E-03 0.00000E+00 0.00000E+00
 -1        39 4.16667E-03 0.00000E+00 0.00000E+00
 -1        40 5.20833E-03 0.00000E+00 0.00000E+00
 -1        41 6.25000E-03 0.00000E+00 0.00000E+00
 -1        42 7.29167E-03 0.00000E+00 0.00000E+00
 -1        43 8.33333E-03 0.00000E+00 0.00000E+00
 -1        44 9.37500E-03 0.00000E+00 0.00000E+00
 -1        45 1.04167E-02 0.00000E+00 0.00000E+00
 -1        46 1.14583E-02 0.00000E+00 0.00000E+00
 -1        47 1.25000E-02 0.00000E+00 0.00000E+00
 -1        48 1.35417E-02 0.00000E+00 0.00000E+00
 -1        49 1.45833E-02 0.00000E+00 0.00000E+00
 -1        50 1.56250E-02 0.00000E+00 0.00000E+00
 -1        51 0.00000E+00 1.04167E-03 0.00000E+00
 -1        52 0.00000E+00 2.08333E-03 0.00000E+00
 -1        53 0.00000E+00 3.12500E-03 0.00000E+00
 -1        54 0.00000E+00 4.16667E-03 0.00000E+00
 -1        55 0.00000E+00 5.20833E-03 0.00000E+00
 -1        56 1.04167E-03 3.90630E-04 0.00000E+00
 -1        57 2.08333E-03 7.81250E-04 0.00000E+00
 -1        58 3.12500E-03 1.17188E-03 0.00000E+00
 -1        59 4.16667E-03 1.56250E-03 0.00000E+00
 -1        60 5.20833E-03 1.95312E-03 0.00000E+00
 -1        61 6.25000E-03 2.34375E-03 0.00000E+00
 -1        62 7.29167E-03 2.73438E-03 0.00000E+00
 -1        63 8.33333E-03 3.12500E-03 0.00000E+00
 -1        64 9.37500E-03 3.51563E-03 0.00000E+00
 -1        65 1.04167E-02 3.90625E-03 0.00000E+00
 -1        66 1.14583E-02 4.29688E-03 0.00000E+00
 -1        67 1.25000E-02 4.68750E-03 0.00000E+00
 -1        68 1.35417E-02 5.07813E-03 0.00000E+00
 -1        69 1.45833E-02 5.46875E-03 0.00000E+00
 -1        70 1.56250E-02 5.85938E-03 0.00000E+00
 -1        86 1.66667E-02 1.04167E-03 0.00000E+00
 -1        87 1.66667E-02 2.08333E-03 0.00000E+00
 -1        88 1.66667E-02 3.12500E-03 0.00000E+00
 -1        89 1.66667E-02 4.16667E-03 0.00000E+00
 -1        90 1.66667E-02 5.20833E-03 0.00000E+00
 -1       121 3.33333E-02 1.04167E-03 0.00000E+00
 -1       122 3.33333E-02 2.08333E-03 0.00000E+00
 -1       123 3.33333E-02 3.12500E-03 0.00000E+00
 -1       124 3.33333E-02 4.16667E-03 0.00000E+00
 -1       125 3.33333E-02 5.20833E-03 0.00000E+00
 -1       161 5.10417E-02 3.90630E-04 0.00000E+00
 -1       162 5.20833E-02 7.81250E-04 0.00000E+00
 -1       163 5.31250E-02 1.17188E-03 0.00000E+00
 -1       164 5.41667E-02 1.56250E-03 0.00000E+00
 -1       165 5.52083E-02 1.95312E-03 0.00000E+00
 -1       166 5.62500E-02 2.34375E-03 0.00000E+00
 -1       167 5.72917E-02 2.73438E-03 0.00000E+00
 -1       168 5.83333E-02 3.12500E-03 0.00000E+00
 -1       169 5.93750E-02 3.51563E-03 0.00000E+00
 -1       170 6.04167E-02 3.90625E-03 0.00000E+00
 -1       171 6.14583E-02 4.29688E-03 0.00000E+00
 -1       172 6.25000E-02 4.68750E-03 0.00000E+00
 -1       173 6.35417E-02 5.07813E-03 0.00000E+00
 -1       174 6.45833E-02 5.46875E-03 0.00000E+00
 -1       175 6.56250E-02 5.85938E-03 0.00000E+00
 -1       191 6.66667E-02 1.04167E-03 0.00000E+00
 -1       192 6.66667E-02 2.08333E-03 0.00000E+00
 -1       193 6.66667E-02 3.12500E-03 0.00000E+00
 -1       194 6.66667E-02 4.16667E-03 0.00000E+00
 -1       195 6.66667E-02 5.20833E-03 0.00000E+00
 -1       251 1.04167E-03 6.25000E-03 0.00000E+00
 -1       252 2.08333E-03 6.25000E-03 0.00000E+00
 -1       253 3.12500E-03 6.25000E-03 0.00000E+00
 -1       254 4.16667E-03 6.25000E-03 0.00000E+00
 -1       255 5.20833E-03 6.25000E-03 0.00000E+00
 -1       256 6.25000E-03 6.25000E-03 0.00000E+00
 -1       257 7.29167E-03 6.25000E-03 0.00000E+00
 -1       258 8.33333E-03 6.25000E-03 0.00000E+00
 -1       259 9.37500E-03 6.25000E-03 0.00000E+00
 -1       260 1.04167E-02 6.25000E-03 0.00000E+00
 -1       261 1.14583E-02 6.25000E-03 0.00000E+00
 -1       262 1.25000E-02 6.25000E-03 0.00000E+00
 -1       263 1.35417E-02 6.25000E-03 0.00000E+00
 -1       264 1.45833E-02 6.25000E-03 0.00000E+00
 -1       265 1.56250E-02 6.25000E-03 0.00000E+00
 -1       266 0.00000E+00 7.29167E-03 0.00000E+00
 -1       267 0.00000E+00 8.33333E-03 0.00000E+00
 -1       268 0.00000E+00 9.37500E-03 0.00000E+00
 -1       269 0.00000E+00 1.04167E-02 0.00000E+00
 -1       270 0.00000E+00 1.14583E-02 0.00000E+00
 -1       271 1.04167E-03 6.64063E-03 0.00000E+00
 -1       272 2.08333E-03 7.03125E-03 0.00000E+00
 -1       273 3.12500E-03 7.42188E-03 0.00000E+00
 -1       274 4.16667E-03 7.81250E-03 0.00000E+00
 -1       275 5.20833E-03 8.20313E-03 0.00000E+00
 -1       276 6.25000E-03 8.59375E-03 0.00000E+00
 -1       277 7.29167E-03 8.98438E-03 0.00000E+00
 -1       278 8.33333E-03 9.37500E-03 0.00000E+00
 -1       279 9.37500E-03 9.76562E-03 0.00000E+00
 -1       280 1.04167E-02 1.01562E-02 0.00000E+00
 -1       281 1.14583E-02 1.05469E-02 0.00000E+00
 -1       282 1.25000E-02 1.09375E-02 0.00000E+00
 -1       283 1.35417E-02 1.13281E-02 0.00000E+00
 -1       284 1.45833E-02 1.17188E-02 0.00000E+00
 -1       285 1.56250E-02 1.21094E-02 0.00000E+00
 -1       286 1.77083E-02 6.25000E-03 0.00000E+00
 -1       287 1.87500E-02 6.25000E-03 0.00000E+00
 -1       288 1.97917E-02 6.25000E-03 0.00000E+00
 -1       289 2.08333E-02 6.25000E-03 0.00000E+00
 -1       290 2.18750E-02 6.25000E-03 0.00000E+00
 -1       291 2.29167E-02 6.25000E-03 0.00000E+00
 -1       292 2.39583E-02 6.25000E-03 0.00000E+00
 -1       293 2.50000E-02 6.25000E-03 0.00000E+00
 -1       294 2.60417E-02 6.25000E-03 0.00000E+00
 -1       295 2.70833E-02 6.25000E-03 0.00000E+00
 -1       296 2.81250E-02 6.25000E-03 0.00000E+00
 -1       297 2.91667E-02 6.25000E-03 0.00000E+00
 -1       298 3.02083E-02 6.25000E-03 0.00000E+00
 -1       299 3.12500E-02 6.25000E-03 0.00000E+00
 -1       300 3.22917E-02 6.25000E-03 0.00000E+00
 -1       301 1.66667E-02 7.29167E-03 0.00000E+00
 -1       302 1.66667E-02 8.33333E-03 0.00000E+00
 -1       303 1.66667E-02 9.37500E-03 0.00000E+00
 -1       304 1.66667E-02 1.04167E-02 0.00000E+00
 -1       305 1.66667E-02 1.14583E-02 0.00000E+00
 -1       306 1.77083E-02 6.64063E-03 0.00000E+00
 -1       307 1.87500E-02 7.03125E-03 0.00000E+00
 -1       308 1.97917E-02 7.42188E-03 0.00000E+00
 -1       309 2.08333E-02 7.81250E-03 0.00000E+00
 -1       310 2.18750E-02 8.20313E-03 0.00000E+00
 -1       311 2.29167E-02 8.59375E-03 0.00000E+00
 -1       312 2.39583E-02 8.98438E-03 0.00000E+00
 -1       313 2.50000E-02 9.37500E-03 0.00000E+00
 -1       314 2.60417E-02 9.76562E-03 0.00000E+00
 -1       315 2.70833E-02 1.01562E-02 0.00000E+00
 -1       316 2.81250E-02 1.05469E-02 0.00000E+00
 -1       317 2.91667E-02 1.09375E-02 0.00000E+00
 -1       318 3.02083E-02 1.13281E-02 0.00000E+00
 -1       319 3.12500E-02 1.17188E-02 0.00000E+00
 -1       320 3.22917E-02 1.21094E-02 0.00000E+00
 -1       336 3.33333E-02 7.29167E-03 0.00000E+00
 -1       337 3.33333E-02 8.33333E-03 0.00000E+00
 -1       338 3.33333E-02 9.37500E-03 0.00000E+00
 -1       339 3.33333E-02 1.04167E-02 0.00000E+00
 -1       340 3.33333E-02 1.14583E-02 0.00000E+00
 -1       356 5.10417E-02 6.25000E-03 0.00000E+00
 -1       357 5.20833E-02 6.25000E-03 0.00000E+00
 -1       358 5.31250E-02 6.25000E-03 0.00000E+00
 -1       359 5.41667E-02 6.25000E-03 0.00000E+00
 -1       360 5.52083E-02 6.25000E-03 0.00000E+00
 -1       361 5.62500E-02 6.25000E-03 0.00000E+00
 -1       362 5.72917E-02 6.25000E-03 0.00000E+00
 -1       363 5.83333E-02 6.25000E-03 0.00000E+00
 -1       364 5.93750E-02 6.25000E-03 0.00000E+00
 -1       365 6.04167E-02 6.25000E-03 0.00000E+00
 -1       366 6.14583E-02 6.25000E-03 0.00000E+00
 -1       367 6.25000E-02 6.25000E-03 0.00000E+00
 -1       368 6.35417E-02 6.25000E-03 0.00000E+00
 -1       369 6.45833E-02 6.25000E-03 0.00000E+00
 -1       370 6.56250E-02 6.25000E-03 0.00000E+00
 -1       376 5.10417E-02 6.64063E-03 0.00000E+00
 -1       377 5.20833E-02 7.03125E-03 0.00000E+00
 -1       378 5.31250E-02 7.42188E-03 0.00000E+00
 -1       379 5.41667E-02 7.81250E-03 0.00000E+00
 -1       380 5.52083E-02 8.20313E-03 0.00000E+00
 -1       381 5.62500E-02 8.59375E-03 0.00000E+00
 -1       382 5.72917E-02 8.98438E-03 0.00000E+00
 -1       383 5.83333E-02 9.37500E-03 0.00000E+00
 -1       384 5.93750E-02 9.76562E-03 0.00000E+00
 -1       385 6.04167E-02 1.01562E-02 0.00000E+00
 -1       386 6.14583E-02 1.05469E-02 0.00000E+00
 -1       387 6.25000E-02 1.09375E-02 0.00000E+00
 -1       388 6.35417E-02 1.13281E-02 0.00000E+00
 -1       389 6.45833E-02 1.17188E-02 0.00000E+00
 -1       390 6.56250E-02 1.21094E-02 0.00000E+00
 -1       406 6.66667E-02 7.29167E-03 0.00000E+00
 -1       407 6.66667E-02 8.33333E-03 0.00000E+00
 -1       408 6.66667E-02 9.37500E-03 0.00000E+00
 -1       409 6.66667E-02 1.04167E-02 0.00000E+00
 -1       410 6.66667E-02 1.14583E-02 0.00000E+00
 -1       501 1.77083E-02 1.25000E-02 0.00000E+00
 -1       502 1.87500E-02 1.25000E-02 0.00000E+00
 -1       503 1.97917E-02 1.25000E-02 0.00000E+00
 -1       504 2.08333E-02 1.25000E-02 0.00000E+00
 -1       505 2.18750E-02 1.25000E-02 0.00000E+00
 -1       506 2.29167E-02 1.25000E-02 0.00000E+00
 -1       507 2.39583E-02 1.25000E-02 0.00000E+00
 -1       508 2.50000E-02 1.25000E-02 0.00000E+00
 -1       509 2.60417E-02 1.25000E-02 0.00000E+00
 -1       510 2.70833E-02 1.25000E-02 0.00000E+00
 -1       511 2.81250E-02 1.25000E-02 0.00000E+00
 -1       512 2.91667E-02 1.25000E-02 0.00000E+00
 -1       513 3.02083E-02 1.25000E-02 0.00000E+00
 -1       514 3.12500E-02 1.25000E-02 0.00000E+00
 -1       515 3.22917E-02 1.25000E-02 0.00000E+00
 -1       521 1.77083E-02 1.28906E-02 0.00000E+00
 -1       522 1.87500E-02 1.32813E-02 0.00000E+00
 -1       523 1.97917E-02 1.36719E-02 0.00000E+00
 -1       524 2.08333E-02 1.40625E-02 0.00000E+00
 -1       525 2.18750E-02 1.44531E-02 0.00000E+00
 -1       526 2.29167E-02 1.48437E-02 0.00000E+00
 -1       527 2.39583E-02 1.52344E-02 0.00000E+00
 -1       528 2.50000E-02 1.56250E-02 0.00000E+00
 -1       529 2.60417E-02 1.60156E-02 0.00000E+00
 -1       530 2.70833E-02 1.64062E-02 0.00000E+00
 -1       531 2.81250E-02 1.67969E-02 0.00000E+00
 -1       532 2.91667E-02 1.71875E-02 0.00000E+00
 -1       533 3.02083E-02 1.75781E-02 0.00000E+00
 -1       534 3.12500E-02 1.79687E-02 0.00000E+00
 -1       535 3.22917E-02 1.83594E-02 0.00000E+00
 -1       536 3.43750E-02 1.25000E-02 0.00000E+00
 -1       537 3.54167E-02 1.25000E-02 0.00000E+00
 -1       538 3.64583E-02 1.25000E-02 0.00000E+00
 -1       539 3.75000E-02 1.25000E-02 0.00000E+00
 -1       540 3.85417E-02 1.25000E-02 0.00000E+00
 -1       541 3.95833E-02 1.25000E-02 0.00000E+00
 -1       542 4.06250E-02 1.25000E-02 0.00000E+00
 -1       543 4.16667E-02 1.25000E-02 0.00000E+00
 -1       544 4.27083E-02 1.25000E-02 0.00000E+00
 -1       545 4.37500E-02 1.25000E-02 0.00000E+00
 -1       546 4.47917E-02 1.25000E-02 0.00000E+00
 -1       547 4.58333E-02 1.25000E-02 0.00000E+00
 -1       548 4.68750E-02 1.25000E-02 0.00000E+00
 -1       549 4.79167E-02 1.25000E-02 0.00000E+00
 -1       550 4.89583E-02 1.25000E-02 0.00000E+00
 -1       551 3.33333E-02 1.35417E-02 0.00000E+00
 -1       552 3.33333E-02 1.45833E-02 0.00000E+00
 -1       553 3.33333E-02 1.56250E-02 0.00000E+00
 -1       554 3.33333E-02 1.66667E-02 0.00000E+00
 -1       555 3.33333E-02 1.77083E-02 0.00000E+00
 -1       556 3.43750E-02 1.28906E-02 0.00000E+00
 -1       557 3.54167E-02 1.32813E-02 0.00000E+00
 -1       558 3.64583E-02 1.36719E-02 0.00000E+00
 -1       559 3.75000E-02 1.40625E-02 0.00000E+00
 -1       560 3.85417E-02 1.44531E-02 0.00000E+00
 -1       561 3.95833E-02 1.48437E-02 0.00000E+00
 -1       562 4.06250E-02 1.52344E-02 0.00000E+00
 -1       563 4.16667E-02 1.56250E-02 0.00000E+00
 -1       564 4.27083E-02 1.60156E-02 0.00000E+00
 -1       565 4.37500E-02 1.64062E-02 0.00000E+00
 -1       566 4.47917E-02 1.67969E-02 0.00000E+00
 -1       567 4.58333E-02 1.71875E-02 0.00000E+00
 -1       568 4.68750E-02 1.75781E-02 0.00000E+00
 -1       569 4.79167E-02 1.79687E-02 0.00000E+00
 -1       570 4.89583E-02 1.83594E-02 0.00000E+00
 -1       571 5.10417E-02 1.25000E-02 0.00000E+00
 -1       572 5.20833E-02 1.25000E-02 0.00000E+00
 -1       573 5.31250E-02 1.25000E-02 0.00000E+00
 -1       574 5.41667E-02 1.25000E-02 0.00000E+00
 -1       575 5.52083E-02 1.25000E-02 0.00000E+00
 -1       576 5.62500E-02 1.25000E-02 0.00000E+00
 -1       577 5.72917E-02 1.25000E-02 0.00000E+00
 -1       578 5.83333E-02 1.25000E-02 0.00000E+00
 -1       579 5.93750E-02 1.25000E-02 0.00000E+00
 -1       580 6.04167E-02 1.25000E-02 0.00000E+00
 -1       581 6.14583E-02 1.25000E-02 0.00000E+00
 -1       582 6.25000E-02 1.25000E-02 0.00000E+00
 -1       583 6.35417E-02 1.25000E-02 0.00000E+00
 -1       584 6.45833E-02 1.25000E-02 0.00000E+00
 -1       585 6.56250E-02 1.25000E-02 0.00000E+00
 -1       586 5.00000E-02 1.35417E-02 0.00000E+00
 -1       587 5.00000E-02 1.45833E-02 0.00000E+00
 -1       588 5.00000E-02 1.56250E-02 0.00000E+00
 -1       589 5.00000E-02 1.66667E-02 0.00000E+00
 -1       590 5.00000E-02 1.77083E-02 0.00000E+00
 -1       591 5.10417E-02 1.28906E-02 0.00000E+00
 -1       592 5.20833E-02 1.32813E-02 0.00000E+00
 -1       593 5.31250E-02 1.36719E-02 0.00000E+00
 -1       594 5.41667E-02 1.40625E-02 0.00000E+00
 -1       595 5.52083E-02 1.44531E-02 0.00000E+00
 -1       596 5.62500E-02 1.48437E-02 0.00000E+00
 -1       597 5.72917E-02 1.52344E-02 0.00000E+00
 -1       598 5.83333E-02 1.56250E-02 0.00000E+00
 -1       599 5.93750E-02 1.60156E-02 0.00000E+00
 -1       600 6.04167E-02 1.64062E-02 0.00000E+00
 -1       601 6.14583E-02 1.67969E-02 0.00000E+00
 -1       602 6.25000E-02 1.71875E-02 0.00000E+00
 -1       603 6.35417E-02 1.75781E-02 0.00000E+00
 -1       604 6.45833E-02 1.79687E-02 0.00000E+00
 -1       605 6.56250E-02 1.83594E-02 0.00000E+00
 -1       606 6.77083E-02 1.25000E-02 0.00000E+00
 -1       607 6.87500E-02 1.25000E-02 0.00000E+00
 -1       608 6.97917E-02 1.25000E-02 0.00000E+00
 -1       609 7.08333E-02 1.25000E-02 0.00000E+00
 -1       610 7.18750E-02 1.25000E-02 0.00000E+00
 -1       611 7.29167E-02 1.25000E-02 0.00000E+00
 -1       612 7.39583E-02 1.25000E-02 0.00000E+00
 -1       613 7.50000E-02 1.25000E-02 0.00000E+00
 -1       614 7.60417E-02 1.25000E-02 0.00000E+00
 -1       615 7.70833E-02 1.25000E-02 0.00000E+00
 -1       616 7.81250E-02 1.25000E-02 0.00000E+00
 -1       617 7.91667E-02 1.25000E-02 0.00000E+00
 -1       618 8.02083E-02 1.25000E-02 0.00000E+00
 -1       619 8.12500E-02 1.25000E-02 0.00000E+00
 -1       620 8.22917E-02 1.25000E-02 0.00000E+00
 -1       621 6.66667E-02 1.35417E-02 0.00000E+00
 -1       622 6.66667E-02 1.45833E-02 0.00000E+00
 -1       623 6.66667E-02 1.56250E-02 0.00000E+00
 -1       624 6.66667E-02 1.66667E-02 0.00000E+00
 -1       625 6.66667E-02 1.77083E-02 0.00000E+00
 -1       626 6.77083E-02 1.28906E-02 0.00000E+00
 -1       627 6.87500E-02 1.32813E-02 0.00000E+00
 -1       628 6.97917E-02 1.36719E-02 0.00000E+00
 -1       629 7.08333E-02 1.40625E-02 0.00000E+00
 -1       630 7.18750E-02 1.44531E-02 0.00000E+00
 -1       631 7.29167E-02 1.48437E-02 0.00000E+00
 -1       632 7.39583E-02 1.52344E-02 0.00000E+00
 -1       633 7.50000E-02 1.56250E-02 0.00000E+00
 -1       634 7.60417E-02 1.60156E-02 0.00000E+00
 -1       635 7.70833E-02 1.64062E-02 0.00000E+00
 -1       636 7.81250E-02 1.67969E-02 0.00000E+00
 -1       637 7.91667E-02 1.71875E-02 0.00000E+00
 -1       638 8.02083E-02 1.75781E-02 0.00000E+00
 -1       639 8.12500E-02 1.79687E-02 0.00000E+00
 -1       640 8.22917E-02 1.83594E-02 0.00000E+00
 -1       641 8.43750E-02 1.25000E-02 0.00000E+00
 -1       642 8.54167E-02 1.25000E-02 0.00000E+00
 -1       643 8.64583E-02 1.25000E-02 0.00000E+00
 -1       644 8.75000E-02 1.25000E-02 0.00000E+00
 -1       645 8.85417E-02 1.25000E-02 0.00000E+00
 -1       646 8.95833E-02 1.25000E-02 0.00000E+00
 -1       647 9.06250E-02 1.25000E-02 0.00000E+00
 -1       648 9.16667E-02 1.25000E-02 0.00000E+00
 -1       649 9.27083E-02 1.25000E-02 0.00000E+00
 -1       650 9.37500E-02 1.25000E-02 0.00000E+00
 -1       651 9.47917E-02 1.25000E-02 0.00000E+00
 -1       652 9.58333E-02 1.25000E-02 0.00000E+00
 -1       653 9.68750E-02 1.25000E-02 0.00000E+00
 -1       654 9.79167E-02 1.25000E-02 0.00000E+00
 -1       655 9.89583E-02 1.25000E-02 0.00000E+00
 -1       656 8.33333E-02 1.35417E-02 0.00000E+00
 -1       657 8.33333E-02 1.45833E-02 0.00000E+00
 -1       658 8.33333E-02 1.56250E-02 0.00000E+00
 -1       659 8.33333E-02 1.66667E-02 0.00000E+00
 -1       660 8.33333E-02 1.77083E-02 0.00000E+00
 -1       661 8.43750E-02 1.28906E-02 0.00000E+00
 -1       662 8.54167E-02 1.32813E-02 0.00000E+00
 -1       663 8.64583E-02 1.36719E-02 0.00000E+00
 -1       664 8.75000E-02 1.40625E-02 0.00000E+00
 -1       665 8.85417E-02 1.44531E-02 0.00000E+00
 -1       666 8.95833E-02 1.48437E-02 0.00000E+00
 -1       667 9.06250E-02 1.52344E-02 0.00000E+00
 -1       668 9.16667E-02 1.56250E-02 0.00000E+00
 -1       669 9.27083E-02 1.60156E-02 0.00000E+00
 -1       670 9.37500E-02 1.64062E-02 0.00000E+00
 -1       671 9.47917E-02 1.67969E-02 0.00000E+00
 -1       672 9.58333E-02 1.71875E-02 0.00000E+00
 -1       673 9.68750E-02 1.75781E-02 0.00000E+00
 -1       674 9.79167E-02 1.79687E-02 0.00000E+00
 -1       675 9.89583E-02 1.83594E-02 0.00000E+00
 -1       676 1.00000E-01 1.35417E-02 0.00000E+00
 -1       677 1.00000E-01 1.45833E-02 0.00000E+00
 -1       678 1.00000E-01 1.56250E-02 0.00000E+00
 -1       679 1.00000E-01 1.66667E-02 0.00000E+00
 -1       680 1.00000E-01 1.77083E-02 0.00000E+00
 -1       716 1.77083E-02 1.87500E-02 0.00000E+00
 -1       717 1.87500E-02 1.87500E-02 0.00000E+00
 -1       718 1.97917E-02 1.87500E-02 0.00000E+00
 -1       719 2.08333E-02 1.87500E-02 0.00000E+00
 -1       720 2.18750E-02 1.87500E-02 0.00000E+00
 -1       721 2.29167E-02 1.87500E-02 0.00000E+00
 -1       722 2.39583E-02 1.87500E-02 0.00000E+00
 -1       723 2.50000E-02 1.87500E-02 0.00000E+00
 -1       724 2.60417E-02 1.87500E-02 0.00000E+00
 -1       725 2.70833E-02 1.87500E-02 0.00000E+00
 -1       726 2.81250E-02 1.87500E-02 0.00000E+00
 -1       727 2.91667E-02 1.87500E-02 0.00000E+00
 -1       728 3.02083E-02 1.87500E-02 0.00000E+00
 -1       729 3.12500E-02 1.87500E-02 0.00000E+00
 -1       730 3.22917E-02 1.87500E-02 0.00000E+00
 -1       766 3.33333E-02 1.97917E-02 0.00000E+00
 -1       767 3.33333E-02 2.08333E-02 0.00000E+00
 -1       768 3.33333E-02 2.18750E-02 0.00000E+00
 -1       769 3.33333E-02 2.29167E-02 0.00000E+00
 -1       770 3.33333E-02 2.39583E-02 0.00000E+00
 -1       771 3.43750E-02 1.91406E-02 0.00000E+00
 -1       772 3.54167E-02 1.95312E-02 0.00000E+00
 -1       773 3.64583E-02 1.99219E-02 0.00000E+00
 -1       774 3.75000E-02 2.03125E-02 0.00000E+00
 -1       775 3.85417E-02 2.07031E-02 0.00000E+00
 -1       776 3.95833E-02 2.10938E-02 0.00000E+00
 -1       777 4.06250E-02 2.14844E-02 0.00000E+00
 -1       778 4.16667E-02 2.18750E-02 0.00000E+00
 -1       779 4.27083E-02 2.22656E-02 0.00000E+00
 -1       780 4.37500E-02 2.26563E-02 0.00000E+00
 -1       781 4.47917E-02 2.30469E-02 0.00000E+00
 -1       782 4.58333E-02 2.34375E-02 0.00000E+00
 -1       783 4.68750E-02 2.38281E-02 0.00000E+00
 -1       784 4.79167E-02 2.42187E-02 0.00000E+00
 -1       785 4.89583E-02 2.46094E-02 0.00000E+00
 -1       786 5.10417E-02 1.87500E-02 0.00000E+00
 -1       787 5.20833E-02 1.87500E-02 0.00000E+00
 -1       788 5.31250E-02 1.87500E-02 0.00000E+00
 -1       789 5.41667E-02 1.87500E-02 0.00000E+00
 -1       790 5.52083E-02 1.87500E-02 0.00000E+00
 -1       791 5.62500E-02 1.87500E-02 0.00000E+00
 -1       792 5.72917E-02 1.87500E-02 0.00000E+00
 -1       793 5.83333E-02 1.87500E-02 0.00000E+00
 -1       794 5.93750E-02 1.87500E-02 0.00000E+00
 -1       795 6.04167E-02 1.87500E-02 0.00000E+00
 -1       796 6.14583E-02 1.87500E-02 0.00000E+00
 -1       797 6.25000E-02 1.87500E-02 0.00000E+00
 -1       798 6.35417E-02 1.87500E-02 0.00000E+00
 -1       799 6.45833E-02 1.87500E-02 0.00000E+00
 -1       800 6.56250E-02 1.87500E-02 0.00000E+00
 -1       801 5.00000E-02 1.97917E-02 0.00000E+00
 -1       802 5.00000E-02 2.08333E-02 0.00000E+00
 -1       803 5.00000E-02 2.18750E-02 0.00000E+00
 -1       804 5.00000E-02 2.29167E-02 0.00000E+00
 -1       805 5.00000E-02 2.39583E-02 0.00000E+00
 -1       806 5.10417E-02 1.91406E-02 0.00000E+00
 -1       807 5.20833E-02 1.95312E-02 0.00000E+00
 -1       808 5.31250E-02 1.99219E-02 0.00000E+00
 -1       809 5.41667E-02 2.03125E-02 0.00000E+00
 -1       810 5.52083E-02 2.07031E-02 0.00000E+00
 -1       811 5.62500E-02 2.10938E-02 0.00000E+00
 -1       812 5.72917E-02 2.14844E-02 0.00000E+00
 -1       813 5.83333E-02 2.18750E-02 0.00000E+00
 -1       814 5.93750E-02 2.22656E-02 0.00000E+00
 -1       815 6.04167E-02 2.26563E-02 0.00000E+00
 -1       816 6.14583E-02 2.30469E-02 0.00000E+00
 -1       817 6.25000E-02 2.34375E-02 0.00000E+00
 -1       818 6.35417E-02 2.38281E-02 0.00000E+00
 -1       819 6.45833E-02 2.42187E-02 0.00000E+00
 -1       820 6.56250E-02 2.46094E-02 0.00000E+00
 -1       821 6.77083E-02 1.87500E-02 0.00000E+00
 -1       822 6.87500E-02 1.87500E-02 0.00000E+00
 -1       823 6.97917E-02 1.87500E-02 0.00000E+00
 -1       824 7.08333E-02 1.87500E-02 0.00000E+00
 -1       825 7.18750E-02 1.87500E-02 0.00000E+00
 -1       826 7.29167E-02 1.87500E-02 0.00000E+00
 -1       827 7.39583E-02 1.87500E-02 0.00000E+00
 -1       828 7.50000E-02 1.87500E-02 0.00000E+00
 -1       829 7.60417E-02 1.87500E-02 0.00000E+00
 -1       830 7.70833E-02 1.87500E-02 0.00000E+00
 -1       831 7.81250E-02 1.87500E-02 0.00000E+00
 -1       832 7.91667E-02 1.87500E-02 0.00000E+00
 -1       833 8.02083E-02 1.87500E-02 0.00000E+00
 -1       834 8.12500E-02 1.87500E-02 0.00000E+00
 -1       835 8.22917E-02 1.87500E-02 0.00000E+00
 -1       836 6.66667E-02 1.97917E-02 0.00000E+00
 -1       837 6.66667E-02 2.08333E-02 0.00000E+00
 -1       838 6.66667E-02 2.18750E-02 0.00000E+00
 -1       839 6.66667E-02 2.29167E-02 0.00000E+00
 -1       840 6.66667E-02 2.39583E-02 0.00000E+00
 -1       841 6.77083E-02 1.91406E-02 0.00000E+00
 -1       842 6.87500E-02 1.95312E-02 0.00000E+00
 -1       843 6.97917E-02 1.99219E-02 0.00000E+00
 -1       844 7.08333E-02 2.03125E-02 0.00000E+00
 -1       845 7.18750E-02 2.07031E-02 0.00000E+00
 -1       846 7.29167E-02 2.10938E-02 0.00000E+00
 -1       847 7.39583E-02 2.14844E-02 0.00000E+00
 -1       848 7.50000E-02 2.18750E-02 0.00000E+00
 -1       849 7.60417E-02 2.22656E-02 0.00000E+00
 -1       850 7.70833E-02 2.26563E-02 0.00000E+00
 -1       851 7.81250E-02 2.30469E-02 0.00000E+00
 -1       852 7.91667E-02 2.34375E-02 0.00000E+00
 -1       853 8.02083E-02 2.38281E-02 0.00000E+00
 -1       854 8.12500E-02 2.42187E-02 0.00000E+00
 -1       855 8.22917E-02 2.46094E-02 0.00000E+00
 -1       856 8.43750E-02 1.87500E-02 0.00000E+00
 -1       857 8.54167E-02 1.87500E-02 0.00000E+00
 -1       858 8.64583E-02 1.87500E-02 0.00000E+00
 -1       859 8.75000E-02 1.87500E-02 0.00000E+00
 -1       860 8.85417E-02 1.87500E-02 0.00000E+00
 -1       861 8.95833E-02 1.87500E-02 0.00000E+00
 -1       862 9.06250E-02 1.87500E-02 0.00000E+00
 -1       863 9.16667E-02 1.87500E-02 0.00000E+00
 -1       864 9.27083E-02 1.87500E-02 0.00000E+00
 -1       865 9.37500E-02 1.87500E-02 0.00000E+00
 -1       866 9.47917E-02 1.87500E-02 0.00000E+00
 -1       867 9.58333E-02 1.87500E-02 0.00000E+00
 -1       868 9.68750E-02 1.87500E-02 0.00000E+00
 -1       869 9.79167E-02 1.87500E-02 0.00000E+00
 -1       870 9.89583E-02 1.87500E-02 0.00000E+00
 -1       871 8.33333E-02 1.97917E-02 0.00000E+00
 -1       872 8.33333E-02 2.08333E-02 0.00000E+00
 -1       873 8.33333E-02 2.18750E-02 0.00000E+00
 -1       874 8.33333E-02 2.29167E-02 0.00000E+00
 -1       875 8.33333E-02 2.39583E-02 0.00000E+00
 -1       876 8.43750E-02 1.91406E-02 0.00000E+00
 -1       877 8.54167E-02 1.95312E-02 0.00000E+00
 -1       878 8.64583E-02 1.99219E-02 0.00000E+00
 -1       879 8.75000E-02 2.03125E-02 0.00000E+00
 -1       880 8.85417E-02 2.07031E-02 0.00000E+00
 -1       881 8.95833E-02 2.10938E-02 0.00000E+00
 -1       882 9.06250E-02 2.14844E-02 0.00000E+00
 -1       883 9.16667E-02 2.18750E-02 0.00000E+00
 -1       884 9.27083E-02 2.22656E-02 0.00000E+00
 -1       885 9.37500E-02 2.26563E-02 0.00000E+00
 -1       886 9.47917E-02 2.30469E-02 0.00000E+00
 -1       887 9.58333E-02 2.34375E-02 0.00000E+00
 -1       888 9.68750E-02 2.38281E-02 0.00000E+00
 -1       889 9.79167E-02 2.42187E-02 0.00000E+00
 -1       890 9.89583E-02 2.46094E-02 0.00000E+00
 -1       891 1.00000E-01 1.97917E-02 0.00000E+00
 -1       892 1.00000E-01 2.08333E-02 0.00000E+00
 -1       893 1.00000E-01 2.18750E-02 0.00000E+00
 -1       894 1.00000E-01 2.29167E-02 0.00000E+00
 -1       895 1.00000E-01 2.39583E-02 0.00000E+00
 -1       926 3.43750E-02 2.50000E-02 0.00000E+00
 -1       927 3.54167E-02 2.50000E-02 0.00000E+00
 -1       928 3.64583E-02 2.50000E-02 0.00000E+00
 -1       929 3.75000E-02 2.50000E-02 0.00000E+00
 -1       930 3.85417E-02 2.50000E-02 0.00000E+00
 -1       931 3.95833E-02 2.50000E-02 0.00000E+00
 -1       932 4.06250E-02 2.50000E-02 0.00000E+00
 -1       933 4.16667E-02 2.50000E-02 0.00000E+00
 -1       934 4.27083E-02 2.50000E-02 0.00000E+00
 -1       935 4.37500E-02 2.50000E-02 0.00000E+00
 -1       936 4.47917E-02 2.50000E-02 0.00000E+00
 -1       937 4.58333E-02 2.50000E-02 0.00000E+00
 -1       938 4.68750E-02 2.50000E-02 0.00000E+00
 -1       939 4.79167E-02 2.50000E-02 0.00000E+00
 -1       940 4.89583E-02 2.50000E-02 0.00000E+00
 -1       956 6.77083E-02 2.50000E-02 0.00000E+00
 -1       957 6.87500E-02 2.50000E-02 0.00000E+00
 -1       958 6.97917E-02 2.50000E-02 0.00000E+00
 -1       959 7.08333E-02 2.50000E-02 0.00000E+00
 -1       960 7.18750E-02 2.50000E-02 0.00000E+00
 -1       961 7.29167E-02 2.50000E-02 0.00000E+00
 -1       962 7.39583E-02 2.50000E-02 0.00000E+00
 -1       963 7.50000E-02 2.50000E-02 0.00000E+00
 -1       964 7.60417E-02 2.50000E-02 0.00000E+00
 -1       965 7.70833E-02 2.50000E-02 0.00000E+00
 -1       966 7.81250E-02 2.50000E-02 0.00000E+00
 -1       967 7.91667E-02 2.50000E-02 0.00000E+00
 -1       968 8.02083E-02 2.50000E-02 0.00000E+00
 -1       969 8.12500E-02 2.50000E-02 0.00000E+00
 -1       970 8.22917E-02 2.50000E-02 0.00000E+00
 -1       971 8.43750E-02 2.50000E-02 0.00000E+00
 -1       972 8.54167E-02 2.50000E-02 0.00000E+00
 -1       973 8.64583E-02 2.50000E-02 0.00000E+00
 -1       974 8.75000E-02 2.50000E-02 0.00000E+00
 -1       975 8.85417E-02 2.50000E-02 0.00000E+00
 -1       976 8.95833E-02 2.50000E-02 0.00000E+00
 -1       977 9.06250E-02 2.50000E-02 0.00000E+00
 -1       978 9.16667E-02 2.50000E-02 0.00000E+00
 -1       979 9.27083E-02 2.50000E-02 0.00000E+00
 -1       980 9.37500E-02 2.50000E-02 0.00000E+00
 -1       981 9.47917E-02 2.50000E-02 0.00000E+00
 -1       982 9.58333E-02 2.50000E-02 0.00000E+00
 -1       983 9.68750E-02 2.50000E-02 0.00000E+00
 -1       984 9.79167E-02 2.50000E-02 0.00000E+00
 -1       985 9.89583E-02 2.50000E-02 0.00000E+00
 -3
    3C                           294                                     1
 -1         1   12    0    1
 -2         1        37        36
 -1         2   12    0    1
 -2        37        39        38
 -1         3   12    0    1
 -2        39        41        40
 -1         4   12    0    1
 -2        41        43        42
 -1         5   12    0    1
 -2        43        45        44
 -1         6   12    0    1
 -2        45        47        46
 -1         7   12    0    1
 -2        47        49        48
 -1         8   12    0    1
 -2        49         2        50
 -1         9   12    0    1
 -2         1        52        51
 -1        10   12    0    1
 -2        52        54        53
 -1        11   12    0    1
 -2        54         8        55
 -1        12   12    0    1
 -2         1        57        56
 -1        13   12    0    1
 -2        57        59        58
 -1        14   12    0    1
 -2        59        61        60
 -1        15   12    0    1
 -2        61        63        62
 -1        16   12    0    1
 -2        63        65        64
 -1        17   12    0    1
 -2        65        67        66
 -1        18   12    0    1
 -2        67        69        68
 -1        19   12    0    1
 -2        69         9        70
 -1        20   12    0    1
 -2         2        87        86
 -1        21   12    0    1
 -2        87        89        88
 -1        22   12    0    1
 -2        89         9        90
 -1        23   12    0    1
 -2         3       122       121
 -1        24   12    0    1
 -2       122       124       123
 -1        25   12    0    1
 -2       124        10       125
 -1        26   12    0    1
 -2         4       162       161
 -1        27   12    0    1
 -2       162       164       163
 -1        28   12    0    1
 -2       164       166       165
 -1        29   12    0    1
 -2       166       168       167
 -1        30   12    0    1
 -2       168       170       169
 -1        31   12    0    1
 -2       170       172       171
 -1        32   12    0    1
 -2       172       174       173
 -1        33   12    0    1
 -2       174        12       175
 -1        34   12    0    1
 -2         5       192       191
 -1        35   12    0    1
 -2       192       194       193
 -1        36   12    0    1
 -2       194        12       195
 -1        37   12    0    1
 -2         8       252       251
 -1        38   12    0    1
 -2       252       254       253
 -1        39   12    0    1
 -2       254       256       255
 -1        40   12    0    1
 -2       256       258       257
 -1        41   12    0    1
 -2       258       260       259
 -1        42   12    0    1
 -2       260       262       261
 -1        43   12    0    1
 -2       262       264       263
 -1        44   12    0    1
 -2       264         9       265
 -1        45   12    0    1
 -2         8       267       266
 -1        46   12    0    1
 -2       267       269       268
 -1        47   12    0    1
 -2       269        15       270
 -1        48   12    0    1
 -2         8       272       271
 -1        49   12    0    1
 -2       272       274       273
 -1        50   12    0    1
 -2       274       276       275
 -1        51   12    0    1
 -2       276       278       277
 -1        52   12    0    1
 -2       278       280       279
 -1        53   12    0    1
 -2       280       282       281
 -1        54   12    0    1
 -2       282       284       283
 -1        55   12    0    1
 -2       284        16       285
 -1        56   12    0    1
 -2         9       287       286
 -1        57   12    0    1
 -2       287       289       288
 -1        58   12    0    1
 -2       289       291       290
 -1        59   12    0    1
 -2       291       293       292
 -1        60   12    0    1
 -2       293       295       294
 -1        61   12    0    1
 -2       295       297       296
 -1        62   12    0    1
 -2       297       299       298
 -1        63   12    0    1
 -2       299        10       300
 -1        64   12    0    1
 -2         9       302       301
 -1        65   12    0    1
 -2       302       304       303
 -1        66   12    0    1
 -2       304        16       305
 -1        67   12    0    1
 -2         9       307       306
 -1        68   12    0    1
 -2       307       309       308
 -1        69   12    0    1
 -2       309       311       310
 -1        70   12    0    1
 -2       311       313       312
 -1        71   12    0    1
 -2       313       315       314
 -1        72   12    0    1
 -2       315       317       316
 -1        73   12    0    1
 -2       317       319       318
 -1        74   12    0    1
 -2       319        17       320
 -1        75   12    0    1
 -2        10       337       336
 -1        76   12    0    1
 -2       337       339       338
 -1        77   12    0    1
 -2       339        17       340
 -1        78   12    0    1
 -2        11       357       356
 -1        79   12    0    1
 -2       357       359       358
 -1        80   12    0    1
 -2       359       361       360
 -1        81   12    0    1
 -2       361       363       362
 -1        82   12    0    1
 -2       363       365       364
 -1        83   12    0    1
 -2       365       367       366
 -1        84   12    0    1
 -2       367       369       368
 -1        85   12    0    1
 -2       369        12       370
 -1        86   12    0    1
 -2        11       377       376
 -1        87   12    0    1
 -2       377       379       378
 -1        88   12    0    1
 -2       379       381       380
 -1        89   12    0    1
 -2       381       383       382
 -1        90   12    0    1
 -2       383       385       384
 -1        91   12    0    1
 -2       385       387       386
 -1        92   12    0    1
 -2       387       389       388
 -1        93   12    0    1
 -2       389        19       390
 -1        94   12    0    1
 -2        12       407       406
 -1        95   12    0    1
 -2       407       409       408
 -1        96   12    0    1
 -2       409        19       410
 -1        97   12    0    1
 -2        16       502       501
 -1        98   12    0    1
 -2       502       504       503
 -1        99   12    0    1
 -2       504       506       505
 -1       100   12    0    1
 -2       506       508       507
 -1       101   12    0    1
 -2       508       510       509
 -1       102   12    0    1
 -2       510       512       511
 -1       103   12    0    1
 -2       512       514       513
 -1       104   12    0    1
 -2       514        17       515
 -1       105   12    0    1
 -2        16       522       521
 -1       106   12    0    1
 -2       522       524       523
 -1       107   12    0    1
 -2       524       526       525
 -1       108   12    0    1
 -2       526       528       527
 -1       109   12    0    1
 -2       528       530       529
 -1       110   12    0    1
 -2       530       532       531
 -1       111   12    0    1
 -2       532       534       533
 -1       112   12    0    1
 -2       534        24       535
 -1       113   12    0    1
 -2        17       537       536
 -1       114   12    0    1
 -2       537       539       538
 -1       115   12    0    1
 -2       539       541       540
 -1       116   12    0    1
 -2       541       543       542
 -1       117   12    0    1
 -2       543       545       544
 -1       118   12    0    1
 -2       545       547       546
 -1       119   12    0    1
 -2       547       549       548
 -1       120   12    0    1
 -2       549        18       550
 -1       121   12    0    1
 -2        17       552       551
 -1       122   12    0    1
 -2       552       554       553
 -1       123   12    0    1
 -2       554        24       555
 -1       124   12    0    1
 -2        17       557       556
 -1       125   12    0    1
 -2       557       559       558
 -1       126   12    0    1
 -2       559       561       560
 -1       127   12    0    1
 -2       561       563       562
 -1       128   12    0    1
 -2       563       565       564
 -1       129   12    0    1
 -2       565       567       566
 -1       130   12    0    1
 -2       567       569       568
 -1       131   12    0    1
 -2       569        25       570
 -1       132   12    0    1
 -2        18       572       571
 -1       133   12    0    1
 -2       572       574       573
 -1       134   12    0    1
 -2       574       576       575
 -1       135   12    0    1
 -2       576       578       577
 -1       136   12    0    1
 -2       578       580       579
 -1       137   12    0    1
 -2       580       582       581
 -1       138   12    0    1
 -2       582       584       583
 -1       139   12    0    1
 -2       584        19       585
 -1       140   12    0    1
 -2        18       587       586
 -1       141   12    0    1
 -2       587       589       588
 -1       142   12    0    1
 -2       589        25       590
 -1       143   12    0    1
 -2        18       592       591
 -1       144   12    0    1
 -2       592       594       593
 -1       145   12    0    1
 -2       594       596       595
 -1       146   12    0    1
 -2       596       598       597
 -1       147   12    0    1
 -2       598       600       599
 -1       148   12    0    1
 -2       600       602       601
 -1       149   12    0    1
 -2       602       604       603
 -1       150   12    0    1
 -2       604        26       605
 -1       151   12    0    1
 -2        19       607       606
 -1       152   12    0    1
 -2       607       609       608
 -1       153   12    0    1
 -2       609       611       610
 -1       154   12    0    1
 -2       611       613       612
 -1       155   12    0    1
 -2       613       615       614
 -1       156   12    0    1
 -2       615       617       616
 -1       157   12    0    1
 -2       617       619       618
 -1       158   12    0    1
 -2       619        20       620
 -1       159   12    0    1
 -2        19       622       621
 -1       160   12    0    1
 -2       622       624       623
 -1       161   12    0    1
 -2       624        26       625
 -1       162   12    0    1
 -2        19       627       626
 -1       163   12    0    1
 -2       627       629       628
 -1       164   12    0    1
 -2       629       631       630
 -1       165   12    0    1
 -2       631       633       632
 -1       166   12    0    1
 -2       633       635       634
 -1       167   12    0    1
 -2       635       637       636
 -1       168   12    0    1
 -2       637       639       638
 -1       169   12    0    1
 -2       639        27       640
 -1       170   12    0    1
 -2        20       642       641
 -1       171   12    0    1
 -2       642       644       643
 -1       172   12    0    1
 -2       644       646       645
 -1       173   12    0    1
 -2       646       648       647
 -1       174   12    0    1
 -2       648       650       649
 -1       175   12    0    1
 -2       650       652       651
 -1       176   12    0    1
 -2       652       654       653
 -1       177   12    0    1
 -2       654        21       655
 -1       178   12    0    1
 -2        20       657       656
 -1       179   12    0    1
 -2       657       659       658
 -1       180   12    0    1
 -2       659        27       660
 -1       181   12    0    1
 -2        20       662       661
 -1       182   12    0    1
 -2       662       664       663
 -1       183   12    0    1
 -2       664       666       665
 -1       184   12    0    1
 -2       666       668       667
 -1       185   12    0    1
 -2       668       670       669
 -1       186   12    0    1
 -2       670       672       671
 -1       187   12    0    1
 -2       672       674       673
 -1       188   12    0    1
 -2       674        28       675
 -1       189   12    0    1
 -2        21       677       676
 -1       190   12    0    1
 -2       677       679       678
 -1       191   12    0    1
 -2       679        28       680
 -1       192   12    0    1
 -2        23       717       716
 -1       193   12    0    1
 -2       717       719       718
 -1       194   12    0    1
 -2       719       721       720
 -1       195   12    0    1
 -2       721       723       722
 -1       196   12    0    1
 -2       723       725       724
 -1       197   12    0    1
 -2       725       727       726
 -1       198   12    0    1
 -2       727       729       728
 -1       199   12    0    1
 -2       729        24       730
 -1       200   12    0    1
 -2        24       767       766
 -1       201   12    0    1
 -2       767       769       768
 -1       202   12    0    1
 -2       769        31       770
 -1       203   12    0    1
 -2        24       772       771
 -1       204   12    0    1
 -2       772       774       773
 -1       205   12    0    1
 -2       774       776       775
 -1       206   12    0    1
 -2       776       778       777
 -1       207   12    0    1
 -2       778       780       779
 -1       208   12    0    1
 -2       780       782       781
 -1       209   12    0    1
 -2       782       784       783
 -1       210   12    0    1
 -2       784        32       785
 -1       211   12    0    1
 -2        25       787       786
 -1       212   12    0    1
 -2       787       789       788
 -1       213   12    0    1
 -2       789       791       790
 -1       214   12    0    1
 -2       791       793       792
 -1       215   12    0    1
 -2       793       795       794
 -1       216   12    0    1
 -2       795       797       796
 -1       217   12    0    1
 -2       797       799       798
 -1       218   12    0    1
 -2       799        26       800
 -1       219   12    0    1
 -2        25       802       801
 -1       220   12    0    1
 -2       802       804       803
 -1       221   12    0    1
 -2       804        32       805
 -1       222   12    0    1
 -2        25       807       806
 -1       223   12    0    1
 -2       807       809       808
 -1       224   12    0    1
 -2       809       811       810
 -1       225   12    0    1
 -2       811       813       812
 -1       226   12    0    1
 -2       813       815       814
 -1       227   12    0    1
 -2       815       817       816
 -1       228   12    0    1
 -2       817       819       818
 -1       229   12    0    1
 -2       819        33       820
 -1       230   12    0    1
 -2        26       822       821
 -1       231   12    0    1
 -2       822       824       823
 -1       232   12    0    1
 -2       824       826       825
 -1       233   12    0    1
 -2       826       828       827
 -1       234   12    0    1
 -2       828       830       829
 -1       235   12    0    1
 -2       830       832       831
 -1       236   12    0    1
 -2       832       834       833
 -1       237   12    0    1
 -2       834        27       835
 -1       238   12    0    1
 -2        26       837       836
 -1       239   12    0    1
 -2       837       839       838
 -1       240   12    0    1
 -2       839        33       840
 -1       241   12    0    1
 -2        26       842       841
 -1       242   12    0    1
 -2       842       844       843
 -1       243   12    0    1
 -2       844       846       845
 -1       244   12    0    1
 -2       846       848       847
 -1       245   12    0    1
 -2       848       850       849
 -1       246   12    0    1
 -2       850       852       851
 -1       247   12    0    1
 -2       852       854       853
 -1       248   12    0    1
 -2       854        34       855
 -1       249   12    0    1
 -2        27       857       856
 -1       250   12    0    1
 -2       857       859       858
 -1       251   12    0    1
 -2       859       861       860
 -1       252   12    0    1
 -2       861       863       862
 -1       253   12    0    1
 -2       863       865       864
 -1       254   12    0    1
 -2       865       867       866
 -1       255   12    0    1
 -2       867       869       868
 -1       256   12    0    1
 -2       869        28       870
 -1       257   12    0    1
 -2        27       872       871
 -1       258   12    0    1
 -2       872       874       873
 -1       259   12    0    1
 -2       874        34       875
 -1       260   12    0    1
 -2        27       877       876
 -1       261   12    0    1
 -2       877       879       878
 -1       262   12    0    1
 -2       879       881       880
 -1       263   12    0    1
 -2       881       883       882
 -1       264   12    0    1
 -2       883       885       884
 -1       265   12    0    1
 -2       885       887       886
 -1       266   12    0    1
 -2       887       889       888
 -1       267   12    0    1
 -2       889        35       890
 -1       268   12    0    1
 -2        28       892       891
 -1       269   12    0    1
 -2       892       894       893
 -1       270   12    0    1
 -2       894        35       895
 -1       271   12    0    1
 -2        31       927       926
 -1       272   12    0    1
 -2       927       929       928
 -1       273   12    0    1
 -2       929       931       930
 -1       274   12    0    1
 -2       931       933       932
 -1       275   12    0    1
 -2       933       935       934
 -1       276   12    0    1
 -2       935       937       936
 -1       277   12    0    1
 -2       937       939       938
 -1       278   12    0    1
 -2       939        32       940
 -1       279   12    0    1
 -2        33       957       956
 -1       280   12    0    1
 -2       957       959       958
 -1       281   12    0    1
 -2       959       961       960
 -1       282   12    0    1
 -2       961       963       962
 -1       283   12    0    1
 -2       963       965       964
 -1       284   12    0    1
 -2       965       967       966
 -1       285   12    0    1
 -2       967       969       968
 -1       286   12    0    1
 -2       969        34       970
 -1       287   12    0    1
 -2        34       972       971
 -1       288   12    0    1
 -2       972       974       973
 -1       289   12    0    1
 -2       974       976       975
 -1       290   12    0    1
 -2       976       978       977
 -1       291   12    0    1
 -2       978       980       979
 -1       292   12    0    1
 -2       980       982       981
 -1       293   12    0    1
 -2       982       984       983
 -1       294   12    0    1
 -2       984        35       985
 -3
    1PSTEP                         1           1           1          
  100CL  101 2.50000E-01         568                     0    1           1
 -4  DISP        4    1
 -5  D1          1    2    1    0
 -5  D2          1    2    2    0
 -5  D3          1    2    3    0
 -5  ALL         1    2    0    0    1ALL
 -1         1 3.65915E-05 0.00000E+00 0.00000E+00
 -1         2 3.65830E-05 0.00000E+00 0.00000E+00
 -1         3 2.46319E-05-3.53461E-28 0.00000E+00
 -1         4 1.85269E-05-4.33873E-30 1.26218E-29
 -1         5 1.87521E-05 1.81063E-26 0.00000E+00
 -1         8 2.90759E-05-3.53084E-07 0.00000E+00
 -1         9 2.28154E-05-1.33402E-06 0.00000E+00
 -1        10 2.26358E-05-7.28148E-07 0.00000E+00
 -1        11 1.84129E-05-2.06096E-06 0.00000E+00
 -1        12 1.84163E-05 3.05311E-07 0.00000E+00
 -1        15 2.10475E-05-3.68712E-07 0.00000E+00
 -1        16 1.80506E-05-1.37961E-06 0.00000E+00
 -1        17 1.68849E-05-1.45531E-06 0.00000E+00
 -1        18 1.68897E-05-2.03566E-07 0.00000E+00
 -1        19 1.74140E-05 6.08579E-07 0.00000E+00
 -1        20 1.76036E-05 7.15760E-06 0.00000E+00
 -1        21 1.75798E-05 1.58967E-05 0.00000E+00
 -1        23 6.55306E-06-2.30270E-05 0.00000E+00
 -1        24 6.52211E-06-1.77285E-06 0.00000E+00
 -1        25 1.57175E-05-1.16086E-07 0.00000E+00
 -1        26 1.61392E-05 8.12696E-07 0.00000E+00
 -1        27 1.55869E-05 6.85870E-06 0.00000E+00
 -1        28 1.51218E-05 1.56012E-05 0.00000E+00
 -1        31 1.85459E-08-1.79351E-06 0.00000E+00
 -1        32 0.00000E+00 0.00000E+00 0.00000E+00
 -1        33 1.46931E-05 1.13880E-06 0.00000E+00
 -1        34 1.40577E-05 6.83361E-06 0.00000E+00
 -1        35 1.32395E-05 1.54759E-05 0.00000E+00
 -1        36 3.65869E-05-1.05631E-19-1.65436E-24
 -1        37 3.65865E-05-6.01758E-20-4.13590E-25
 -1        38 3.65859E-05-6.52236E-20 4.13590E-25
 -1        39 3.65861E-05-1.05916E-19 1.03398E-25
 -1        40 3.65863E-05-1.42139E-19 0.00000E+00
 -1        41 3.65866E-05-2.07158E-19-2.58494E-26
 -1        42 3.65870E-05-4.74373E-19 1.29247E-26
 -1        43 3.65874E-05-5.97814E-19 0.00000E+00
 -1        44 3.65878E-05-4.75994E-19 1.29247E-26
 -1        45 3.65882E-05-2.83547E-19 0.00000E+00
 -1        46 3.65885E-05 5.48940E-20 1.03398E-25
 -1        47 3.65887E-05 3.71420E-19 0.00000E+00
 -1        48 3.65889E-05 2.73591E-19-4.13590E-25
 -1        49 3.65882E-05 1.49463E-19-4.13590E-25
 -1        50 3.65878E-05 7.06187E-20 0.00000E+00
 -1        51 3.60236E-05-5.94202E-08 0.00000E+00
 -1        52 3.50828E-05-1.16886E-07 0.00000E+00
 -1        53 3.38416E-05-1.74089E-07 0.00000E+00
 -1        54 3.23758E-05-2.31710E-07 0.00000E+00
 -1        55 3.07617E-05-2.90460E-07 2.48154E-24
 -1        56 3.58451E-05-3.06727E-07 1.32349E-23
 -1        57 3.50860E-05-6.65080E-07 0.00000E+00
 -1        58 3.43372E-05-1.04580E-06 0.00000E+00
 -1        59 3.35852E-05-1.43275E-06-1.32349E-23
 -1        60 3.28275E-05-1.80516E-06 0.00000E+00
 -1        61 3.20565E-05-2.14467E-06-1.32349E-23
 -1        62 3.12668E-05-2.43447E-06 0.00000E+00
 -1        63 3.04525E-05-2.65914E-06 0.00000E+00
 -1        64 2.96093E-05-2.80693E-06-2.64698E-23
 -1        65 2.87336E-05-2.86772E-06 1.32349E-23
 -1        66 2.78235E-05-2.83655E-06 0.00000E+00
 -1        67 2.68787E-05-2.71016E-06 1.32349E-23
 -1        68 2.58992E-05-2.49134E-06 0.00000E+00
 -1        69 2.48914E-05-2.18290E-06-1.32349E-23
 -1        70 2.38527E-05-1.79688E-06 0.00000E+00
 -1        86 3.59358E-05-2.16409E-07-6.61744E-24
 -1        87 3.39883E-05-4.38800E-07-3.30872E-24
 -1        88 3.10620E-05-6.63119E-07 0.00000E+00
 -1        89 2.74884E-05-8.89697E-07 3.30872E-24
 -1        90 2.43728E-05-1.11513E-06-6.61744E-24
 -1       121 2.45762E-05-1.21322E-07 0.00000E+00
 -1       122 2.44094E-05-2.42652E-07-1.65436E-24
 -1       123 2.41316E-05-3.64005E-07 3.30872E-24
 -1       124 2.37430E-05-4.85374E-07 1.65436E-24
 -1       125 2.32442E-05-6.06792E-07 0.00000E+00
 -1       161 1.85279E-05-2.64447E-09 0.00000E+00
 -1       162 1.85309E-05-1.05685E-08 0.00000E+00
 -1       163 1.85352E-05-2.20225E-08 0.00000E+00
 -1       164 1.85401E-05-3.52567E-08-1.00974E-28
 -1       165 1.85451E-05-4.85212E-08-4.03897E-28
 -1       166 1.85495E-05-6.00666E-08 0.00000E+00
 -1       167 1.85525E-05-6.81429E-08 0.00000E+00
 -1       168 1.85536E-05-7.09997E-08-1.61559E-27
 -1       169 1.85520E-05-6.68875E-08-6.46235E-27
 -1       170 1.85472E-05-5.40522E-08 0.00000E+00
 -1       171 1.85385E-05-3.07476E-08 5.16988E-26
 -1       172 1.85253E-05 4.80098E-09 0.00000E+00
 -1       173 1.85068E-05 5.43178E-08 2.06795E-25
 -1       174 1.84829E-05 1.19694E-07 2.06795E-25
 -1       175 1.84522E-05 2.02497E-07 0.00000E+00
 -1       191 1.87428E-05 5.08953E-08 0.00000E+00
 -1       192 1.87148E-05 1.01789E-07 0.00000E+00
 -1       193 1.86681E-05 1.52682E-07 0.00000E+00
 -1       194 1.86027E-05 2.03571E-07 8.27181E-25
 -1       195 1.85187E-05 2.54452E-07 0.00000E+00
 -1       251 2.86941E-05 4.49469E-07 0.00000E+00
 -1       252 2.83026E-05 1.76686E-07-6.61744E-24
 -1       253 2.79115E-05-5.39818E-07-1.32349E-23
 -1       254 2.75187E-05-1.06029E-06 6.61744E-24
 -1       255 2.71259E-05-1.06443E-06 1.32349E-23
 -1       256 2.67324E-05-2.41191E-07 0.00000E+00
 -1       257 2.63390E-05 3.78173E-07-1.32349E-23
 -1       258 2.59455E-05-2.33953E-07-6.61744E-24
 -1       259 2.55519E-05-1.10727E-06-1.32349E-23
 -1       260 2.51587E-05-1.26675E-06 0.00000E+00
 -1       261 2.47655E-05-8.95467E-07 0.00000E+00
 -1       262 2.43725E-05-1.86001E-07 0.00000E+00
 -1       263 2.39797E-05 1.20159E-07 1.32349E-23
 -1       264 2.35885E-05-7.11226E-07 0.00000E+00
 -1       265 2.31967E-05-1.56707E-06 6.61744E-24
 -1       266 2.77379E-05-3.60915E-07 0.00000E+00
 -1       267 2.63998E-05-3.62880E-07 0.00000E+00
 -1       268 2.50617E-05-3.65225E-07-4.13590E-25
 -1       269 2.37237E-05-3.66461E-07 0.00000E+00
 -1       270 2.23856E-05-3.67675E-07 2.06795E-25
 -1       271 2.80346E-05 5.82192E-07 1.32349E-23
 -1       272 2.70910E-05 1.19513E-06 0.00000E+00
 -1       273 2.62529E-05 1.52904E-06 0.00000E+00
 -1       274 2.55025E-05 1.62002E-06 6.61744E-24
 -1       275 2.48281E-05 1.50769E-06 2.64698E-23
 -1       276 2.42144E-05 1.23184E-06 2.64698E-23
 -1       277 2.36465E-05 8.33327E-07 0.00000E+00
 -1       278 2.31090E-05 3.53647E-07 0.00000E+00
 -1       279 2.25861E-05-1.65277E-07 0.00000E+00
 -1       280 2.20623E-05-6.81267E-07 0.00000E+00
 -1       281 2.15217E-05-1.15221E-06 1.32349E-23
 -1       282 2.09489E-05-1.53617E-06 0.00000E+00
 -1       283 2.03283E-05-1.79180E-06 0.00000E+00
 -1       284 1.96469E-05-1.87771E-06 0.00000E+00
 -1       285 1.88868E-05-1.75520E-06 1.32349E-23
 -1       286 2.27989E-05-6.58306E-07-1.65436E-24
 -1       287 2.27877E-05-1.87633E-07 8.27181E-25
 -1       288 2.27762E-05 8.80617E-08 0.00000E+00
 -1       289 2.27658E-05 1.78921E-07 2.06795E-25
 -1       290 2.27554E-05 1.11525E-07 0.00000E+00
 -1       291 2.27452E-05-8.74753E-08-2.06795E-25
 -1       292 2.27350E-05-3.79837E-07 4.13590E-25
 -1       293 2.27248E-05-7.27281E-07 0.00000E+00
 -1       294 2.27146E-05-1.08668E-06-4.13590E-25
 -1       295 2.27043E-05-1.41490E-06 2.06795E-25
 -1       296 2.26941E-05-1.67156E-06 4.13590E-25
 -1       297 2.26838E-05-1.81630E-06 0.00000E+00
 -1       298 2.26734E-05-1.81862E-06 0.00000E+00
 -1       299 2.26622E-05-1.64808E-06 4.13590E-25
 -1       300 2.26512E-05-1.28959E-06-1.65436E-24
 -1       301 2.20182E-05-1.34446E-06 0.00000E+00
 -1       302 2.12144E-05-1.34908E-06-8.27181E-25
 -1       303 2.04098E-05-1.35298E-06 0.00000E+00
 -1       304 1.96103E-05-1.35735E-06 8.27181E-25
 -1       305 1.88220E-05-1.36339E-06 3.30872E-24
 -1       306 2.22599E-05-8.25972E-07 0.00000E+00
 -1       307 2.17936E-05-5.80250E-07 0.00000E+00
 -1       308 2.14100E-05-5.54229E-07-1.32349E-23
 -1       309 2.10925E-05-7.07923E-07 0.00000E+00
 -1       310 2.08268E-05-1.00001E-06 0.00000E+00
 -1       311 2.05971E-05-1.38911E-06 6.61744E-24
 -1       312 2.03882E-05-1.83351E-06 0.00000E+00
 -1       313 2.01842E-05-2.29137E-06-6.61744E-24
 -1       314 1.99696E-05-2.72078E-06-1.32349E-23
 -1       315 1.97287E-05-3.07992E-06 0.00000E+00
 -1       316 1.94459E-05-3.32722E-06-1.32349E-23
 -1       317 1.91061E-05-3.42138E-06-3.30872E-24
 -1       318 1.86937E-05-3.32160E-06-6.61744E-24
 -1       319 1.81950E-05-2.98721E-06-3.30872E-24
 -1       320 1.75932E-05-2.37929E-06 0.00000E+00
 -1       336 2.19184E-05-8.49558E-07 0.00000E+00
 -1       337 2.10973E-05-9.71099E-07 0.00000E+00
 -1       338 2.01779E-05-1.09268E-06 3.30872E-24
 -1       339 1.91656E-05-1.21407E-06 1.65436E-24
 -1       340 1.80660E-05-1.33558E-06 0.00000E+00
 -1       356 1.84129E-05-1.90676E-06 5.04871E-29
 -1       357 1.84129E-05-1.74992E-06 0.00000E+00
 -1       358 1.84129E-05-1.59118E-06 0.00000E+00
 -1       359 1.84128E-05-1.43129E-06 0.00000E+00
 -1       360 1.84128E-05-1.27100E-06 0.00000E+00
 -1       361 1.84128E-05-1.11106E-06 8.07794E-28
 -1       362 1.84128E-05-9.52200E-07 0.00000E+00
 -1       363 1.84128E-05-7.95181E-07 3.23117E-27
 -1       364 1.84128E-05-6.40743E-07 0.00000E+00
 -1       365 1.84128E-05-4.89634E-07 0.00000E+00
 -1       366 1.84128E-05-3.42601E-07 0.00000E+00
 -1       367 1.84129E-05-2.00387E-07 0.00000E+00
 -1       368 1.84131E-05-6.37412E-08 0.00000E+00
 -1       369 1.84136E-05 6.65894E-08-2.06795E-25
 -1       370 1.84139E-05 1.89857E-07 8.27181E-25
 -1       376 1.83560E-05-1.90940E-06-2.52435E-29
 -1       377 1.83002E-05-1.76046E-06 0.00000E+00
 -1       378 1.82449E-05-1.61314E-06 0.00000E+00
 -1       379 1.81899E-05-1.46645E-06 0.00000E+00
 -1       380 1.81347E-05-1.31938E-06 0.00000E+00
 -1       381 1.80791E-05-1.17096E-06 0.00000E+00
 -1       382 1.80225E-05-1.02016E-06 0.00000E+00
 -1       383 1.79647E-05-8.66013E-07 1.61559E-27
 -1       384 1.79052E-05-7.07503E-07 6.46235E-27
 -1       385 1.78438E-05-5.43637E-07 0.00000E+00
 -1       386 1.77800E-05-3.73422E-07 2.58494E-26
 -1       387 1.77134E-05-1.95843E-07 2.58494E-26
 -1       388 1.76438E-05-9.91954E-09-1.03398E-25
 -1       389 1.75708E-05 1.85431E-07 0.00000E+00
 -1       390 1.74939E-05 3.91092E-07 0.00000E+00
 -1       406 1.82957E-05 3.56161E-07 1.65436E-24
 -1       407 1.81566E-05 4.07004E-07 8.27181E-25
 -1       408 1.79988E-05 4.57812E-07 3.30872E-24
 -1       409 1.78225E-05 5.08502E-07 0.00000E+00
 -1       410 1.76275E-05 5.58953E-07 0.00000E+00
 -1       501 1.79726E-05-2.56624E-08 0.00000E+00
 -1       502 1.78992E-05 2.53682E-06 0.00000E+00
 -1       503 1.78249E-05 5.30086E-06 0.00000E+00
 -1       504 1.77536E-05 7.25898E-06 0.00000E+00
 -1       505 1.76840E-05 7.81501E-06 0.00000E+00
 -1       506 1.76137E-05 6.37713E-06-8.27181E-25
 -1       507 1.75403E-05 3.37421E-06 1.65436E-24
 -1       508 1.74631E-05-7.60008E-07 0.00000E+00
 -1       509 1.73854E-05-5.01109E-06-1.65436E-24
 -1       510 1.73111E-05-8.36423E-06 0.00000E+00
 -1       511 1.72402E-05-1.02658E-05 1.65436E-24
 -1       512 1.71710E-05-1.01666E-05-8.27181E-25
 -1       513 1.71008E-05-8.54174E-06-1.65436E-24
 -1       514 1.70283E-05-5.87083E-06 8.27181E-25
 -1       515 1.69557E-05-3.16997E-06 1.65436E-24
 -1       521 1.71976E-05-1.00026E-06-1.32349E-23
 -1       522 1.64142E-05-8.58710E-07 0.00000E+00
 -1       523 1.57045E-05-9.12255E-07 0.00000E+00
 -1       524 1.50514E-05-1.12447E-06 0.00000E+00
 -1       525 1.44428E-05-1.45622E-06 2.64698E-23
 -1       526 1.38640E-05-1.86847E-06 1.32349E-23
 -1       527 1.33003E-05-2.32161E-06 0.00000E+00
 -1       528 1.27370E-05-2.77589E-06 1.32349E-23
 -1       529 1.21592E-05-3.19150E-06-2.64698E-23
 -1       530 1.15521E-05-3.52891E-06-1.32349E-23
 -1       531 1.09012E-05-3.74901E-06 2.64698E-23
 -1       532 1.01923E-05-3.81331E-06-6.61744E-24
 -1       533 9.41117E-06-3.68432E-06 1.32349E-23
 -1       534 8.54636E-06-3.32491E-06 0.00000E+00
 -1       535 7.58170E-06-2.70101E-06 0.00000E+00
 -1       536 1.68811E-05-3.79526E-07-1.65436E-24
 -1       537 1.68808E-05 4.37217E-07 0.00000E+00
 -1       538 1.68806E-05 1.02179E-06 0.00000E+00
 -1       539 1.68810E-05 1.40125E-06 0.00000E+00
 -1       540 1.68815E-05 1.60265E-06 0.00000E+00
 -1       541 1.68822E-05 1.65299E-06 0.00000E+00
 -1       542 1.68828E-05 1.57934E-06 0.00000E+00
 -1       543 1.68835E-05 1.40870E-06 0.00000E+00
 -1       544 1.68842E-05 1.16813E-06 0.00000E+00
 -1       545 1.68848E-05 8.84651E-07 3.23117E-27
 -1       546 1.68855E-05 5.85294E-07 0.00000E+00
 -1       547 1.68862E-05 2.97095E-07-1.03398E-25
 -1       548 1.68869E-05 4.70822E-08 0.00000E+00
 -1       549 1.68876E-05-1.37714E-07 0.00000E+00
 -1       550 1.68884E-05-2.30246E-07 0.00000E+00
 -1       551 1.53454E-05-1.50646E-06 4.13590E-25
 -1       552 1.36176E-05-1.55681E-06 4.13590E-25
 -1       553 1.17858E-05-1.60741E-06 1.65436E-24
 -1       554 9.93563E-06-1.65885E-06 0.00000E+00
 -1       555 8.15291E-06-1.71172E-06 0.00000E+00
 -1       556 1.64550E-05-4.28183E-07 6.61744E-24
 -1       557 1.61169E-05 3.60115E-07 0.00000E+00
 -1       558 1.58605E-05 9.32048E-07 0.00000E+00
 -1       559 1.56763E-05 1.31214E-06 0.00000E+00
 -1       560 1.55550E-05 1.52489E-06 0.00000E+00
 -1       561 1.54873E-05 1.59497E-06 0.00000E+00
 -1       562 1.54639E-05 1.54706E-06 0.00000E+00
 -1       563 1.54754E-05 1.40588E-06 0.00000E+00
 -1       564 1.55127E-05 1.19614E-06 1.65436E-24
 -1       565 1.55664E-05 9.42539E-07 0.00000E+00
 -1       566 1.56273E-05 6.69817E-07 8.27181E-25
 -1       567 1.56861E-05 4.02695E-07 4.13590E-25
 -1       568 1.57336E-05 1.65893E-07-1.80946E-25
 -1       569 1.57606E-05-1.58948E-08 4.13590E-25
 -1       570 1.57579E-05-1.17984E-07 8.27181E-25
 -1       571 1.69213E-05-1.36398E-07-4.13590E-25
 -1       572 1.69538E-05-9.09793E-08 4.13590E-25
 -1       573 1.69865E-05-6.33082E-08 0.00000E+00
 -1       574 1.70193E-05-4.91807E-08 4.13590E-25
 -1       575 1.70522E-05-4.43744E-08 8.27181E-25
 -1       576 1.70851E-05-4.46401E-08 0.00000E+00
 -1       577 1.71180E-05-4.57261E-08 8.27181E-25
 -1       578 1.71509E-05-4.33771E-08 8.27181E-25
 -1       579 1.71838E-05-3.33377E-08-1.65436E-24
 -1       580 1.72167E-05-1.13525E-08 0.00000E+00
 -1       581 1.72497E-05 2.68332E-08 0.00000E+00
 -1       582 1.72826E-05 8.54696E-08 1.65436E-24
 -1       583 1.73155E-05 1.68803E-07 1.65436E-24
 -1       584 1.73484E-05 2.81035E-07-8.27181E-25
 -1       585 1.73812E-05 4.26343E-07 0.00000E+00
 -1       586 1.67230E-05-1.88679E-07 0.00000E+00
 -1       587 1.65301E-05-1.73724E-07 0.00000E+00
 -1       588 1.63221E-05-1.58793E-07 4.13590E-25
 -1       589 1.61100E-05-1.43999E-07-5.16988E-26
 -1       590 1.59048E-05-1.29500E-07 0.00000E+00
 -1       591 1.68387E-05-1.24253E-07 0.00000E+00
 -1       592 1.67918E-05-6.01552E-08 0.00000E+00
 -1       593 1.67491E-05-8.18163E-09 0.00000E+00
 -1       594 1.67097E-05 3.44205E-08 0.00000E+00
 -1       595 1.66728E-05 7.04129E-08-8.27181E-25
 -1       596 1.66373E-05 1.02534E-07 0.00000E+00
 -1       597 1.66022E-05 1.33520E-07 0.00000E+00
 -1       598 1.65665E-05 1.66103E-07 2.06795E-25
 -1       599 1.65292E-05 2.03017E-07-4.13590E-25
 -1       600 1.64892E-05 2.46992E-07-2.06795E-25
 -1       601 1.64456E-05 3.00762E-07-4.13590E-25
 -1       602 1.63973E-05 3.67061E-07 2.06795E-25
 -1       603 1.63433E-05 4.48626E-07-2.06795E-25
 -1       604 1.62827E-05 5.48211E-07 1.55096E-25
 -1       605 1.62146E-05 6.68564E-07-1.03398E-25
 -1       606 1.74271E-05 8.56966E-07 0.00000E+00
 -1       607 1.74393E-05 1.13650E-06 0.00000E+00
 -1       608 1.74513E-05 1.44534E-06 0.00000E+00
 -1       609 1.74631E-05 1.78138E-06 0.00000E+00
 -1       610 1.74749E-05 2.14254E-06 0.00000E+00
 -1       611 1.74867E-05 2.52665E-06 8.27181E-25
 -1       612 1.74984E-05 2.93158E-06 0.00000E+00
 -1       613 1.75102E-05 3.35517E-06 0.00000E+00
 -1       614 1.75219E-05 3.79527E-06 0.00000E+00
 -1       615 1.75336E-05 4.24972E-06 0.00000E+00
 -1       616 1.75454E-05 4.71639E-06 0.00000E+00
 -1       617 1.75571E-05 5.19312E-06 0.00000E+00
 -1       618 1.75688E-05 5.67775E-06 0.00000E+00
 -1       619 1.75805E-05 6.16814E-06 0.00000E+00
 -1       620 1.75921E-05 6.66214E-06-4.13590E-25
 -1       621 1.71844E-05 6.42813E-07 8.27181E-25
 -1       622 1.69575E-05 6.77142E-07 4.13590E-25
 -1       623 1.67364E-05 7.11455E-07 0.00000E+00
 -1       624 1.65242E-05 7.45666E-07 0.00000E+00
 -1       625 1.63241E-05 7.79694E-07-8.27181E-25
 -1       626 1.73475E-05 8.73129E-07 0.00000E+00
 -1       627 1.72685E-05 1.17045E-06 0.00000E+00
 -1       628 1.71784E-05 1.49741E-06 1.65436E-24
 -1       629 1.70784E-05 1.85057E-06 1.65436E-24
 -1       630 1.69699E-05 2.22645E-06 0.00000E+00
 -1       631 1.68541E-05 2.62156E-06 8.27181E-25
 -1       632 1.67325E-05 3.03240E-06 1.65436E-24
 -1       633 1.66062E-05 3.45546E-06 0.00000E+00
 -1       634 1.64767E-05 3.88723E-06-8.27181E-25
 -1       635 1.63453E-05 4.32420E-06 0.00000E+00
 -1       636 1.62131E-05 4.76287E-06 0.00000E+00
 -1       637 1.60817E-05 5.19973E-06-4.13590E-25
 -1       638 1.59522E-05 5.63127E-06-4.13590E-25
 -1       639 1.58259E-05 6.05397E-06 2.06795E-25
 -1       640 1.57039E-05 6.46431E-06 2.06795E-25
 -1       641 1.76028E-05 7.65727E-06 0.00000E+00
 -1       642 1.76015E-05 8.18455E-06 0.00000E+00
 -1       643 1.76003E-05 8.73501E-06-1.61559E-27
 -1       644 1.75990E-05 9.30421E-06 0.00000E+00
 -1       645 1.75977E-05 9.88751E-06-2.58494E-26
 -1       646 1.75963E-05 1.04803E-05-1.29247E-26
 -1       647 1.75950E-05 1.10777E-05 0.00000E+00
 -1       648 1.75936E-05 1.16752E-05 0.00000E+00
 -1       649 1.75923E-05 1.22679E-05 0.00000E+00
 -1       650 1.75909E-05 1.28511E-05-2.58494E-26
 -1       651 1.75895E-05 1.34202E-05 1.03398E-25
 -1       652 1.75881E-05 1.39705E-05-5.16988E-26
 -1       653 1.75867E-05 1.44977E-05-2.06795E-25
 -1       654 1.75849E-05 1.49971E-05 0.00000E+00
 -1       655 1.75833E-05 1.54648E-05-8.27181E-25
 -1       656 1.71697E-05 7.10936E-06-8.27181E-25
 -1       657 1.68117E-05 7.05871E-06 0.00000E+00
 -1       658 1.65020E-05 7.00818E-06-8.27181E-25
 -1       659 1.62130E-05 6.95764E-06-4.13590E-25
 -1       660 1.59172E-05 6.90700E-06 0.00000E+00
 -1       661 1.74537E-05 7.66800E-06 8.27181E-25
 -1       662 1.72986E-05 8.19621E-06 0.00000E+00
 -1       663 1.71381E-05 8.73855E-06-8.27181E-25
 -1       664 1.69737E-05 9.29183E-06-4.13590E-25
 -1       665 1.68065E-05 9.85277E-06 0.00000E+00
 -1       666 1.66377E-05 1.04181E-05 0.00000E+00
 -1       667 1.64684E-05 1.09847E-05 8.27181E-25
 -1       668 1.62999E-05 1.15492E-05-4.13590E-25
 -1       669 1.61333E-05 1.21084E-05 0.00000E+00
 -1       670 1.59700E-05 1.26590E-05-4.13590E-25
 -1       671 1.58111E-05 1.31979E-05-8.27181E-25
 -1       672 1.56577E-05 1.37218E-05 0.00000E+00
 -1       673 1.55112E-05 1.42274E-05-8.27181E-25
 -1       674 1.53724E-05 1.47114E-05 0.00000E+00
 -1       675 1.52430E-05 1.51707E-05 4.13590E-25
 -1       676 1.71660E-05 1.58471E-05 1.65436E-24
 -1       677 1.67529E-05 1.57974E-05 8.27181E-25
 -1       678 1.63412E-05 1.57478E-05 1.65436E-24
 -1       679 1.59316E-05 1.56984E-05 0.00000E+00
 -1       680 1.55250E-05 1.56490E-05 0.00000E+00
 -1       716 6.55221E-06-2.16986E-05 2.01948E-28
 -1       717 6.55137E-06-2.03702E-05 2.01948E-28
 -1       718 6.55052E-06-1.90418E-05 8.07794E-28
 -1       719 6.54967E-06-1.77134E-05 8.07794E-28
 -1       720 6.54882E-06-1.63850E-05-3.23117E-27
 -1       721 6.54797E-06-1.50567E-05 0.00000E+00
 -1       722 6.54711E-06-1.37283E-05 0.00000E+00
 -1       723 6.54623E-06-1.23999E-05-1.29247E-26
 -1       724 6.54534E-06-1.10715E-05 5.16988E-26
 -1       725 6.54437E-06-9.74313E-06 0.00000E+00
 -1       726 6.54335E-06-8.41474E-06-2.06795E-25
 -1       727 6.54196E-06-7.08635E-06 2.06795E-25
 -1       728 6.54052E-06-5.75798E-06 0.00000E+00
 -1       729 6.53721E-06-4.42959E-06-8.27181E-25
 -1       730 6.53454E-06-3.10121E-06 0.00000E+00
 -1       766 5.22382E-06-1.78523E-06 3.30872E-24
 -1       767 3.98580E-06-1.78780E-06 8.27181E-25
 -1       768 2.82716E-06-1.79090E-06-8.27181E-25
 -1       769 1.76704E-06-1.79204E-06 0.00000E+00
 -1       770 8.24500E-07-1.79300E-06-2.06795E-25
 -1       771 5.76515E-06-7.20587E-07 1.32349E-23
 -1       772 5.08721E-06 1.10899E-07 6.61744E-24
 -1       773 4.48413E-06 7.41541E-07-1.32349E-23
 -1       774 3.94847E-06 1.19169E-06 0.00000E+00
 -1       775 3.47280E-06 1.48176E-06-1.32349E-23
 -1       776 3.04947E-06 1.63225E-06 0.00000E+00
 -1       777 2.67078E-06 1.66372E-06 0.00000E+00
 -1       778 2.32900E-06 1.59677E-06 0.00000E+00
 -1       779 2.01640E-06 1.45204E-06-1.32349E-23
 -1       780 1.72523E-06 1.25020E-06 0.00000E+00
 -1       781 1.44774E-06 1.01193E-06 0.00000E+00
 -1       782 1.17620E-06 7.57948E-07 0.00000E+00
 -1       783 9.02912E-07 5.08975E-07-1.32349E-23
 -1       784 6.20352E-07 2.85763E-07 0.00000E+00
 -1       785 3.20964E-07 1.09041E-07-6.61744E-24
 -1       786 1.57423E-05-6.69516E-09 0.00000E+00
 -1       787 1.57685E-05 7.65866E-08 0.00000E+00
 -1       788 1.57948E-05 1.37884E-07 0.00000E+00
 -1       789 1.58213E-05 1.81334E-07-4.13590E-25
 -1       790 1.58478E-05 2.11066E-07 0.00000E+00
 -1       791 1.58744E-05 2.31208E-07 0.00000E+00
 -1       792 1.59010E-05 2.45884E-07 0.00000E+00
 -1       793 1.59276E-05 2.59217E-07 0.00000E+00
 -1       794 1.59542E-05 2.75331E-07 0.00000E+00
 -1       795 1.59808E-05 2.98349E-07 0.00000E+00
 -1       796 1.60073E-05 3.32396E-07 0.00000E+00
 -1       797 1.60339E-05 3.81601E-07 4.13590E-25
 -1       798 1.60605E-05 4.50095E-07 0.00000E+00
 -1       799 1.60869E-05 5.42014E-07-4.13590E-25
 -1       800 1.61134E-05 6.61505E-07 0.00000E+00
 -1       801 1.44023E-05-9.23673E-08 0.00000E+00
 -1       802 1.15111E-05-7.02498E-08 0.00000E+00
 -1       803 7.83397E-06-5.05819E-08 0.00000E+00
 -1       804 4.16239E-06-3.24348E-08 0.00000E+00
 -1       805 1.28770E-06-1.18754E-08 6.61744E-24
 -1       806 1.56477E-05-1.87544E-08 0.00000E+00
 -1       807 1.55818E-05 6.52053E-08 0.00000E+00
 -1       808 1.55198E-05 1.38199E-07 0.00000E+00
 -1       809 1.54610E-05 2.02545E-07 0.00000E+00
 -1       810 1.54045E-05 2.60556E-07 0.00000E+00
 -1       811 1.53494E-05 3.14536E-07-4.13590E-25
 -1       812 1.52950E-05 3.66789E-07 0.00000E+00
 -1       813 1.52404E-05 4.19616E-07 0.00000E+00
 -1       814 1.51847E-05 4.75320E-07 8.27181E-25
 -1       815 1.51271E-05 5.36201E-07 0.00000E+00
 -1       816 1.50667E-05 6.04559E-07-4.13590E-25
 -1       817 1.50026E-05 6.82697E-07 0.00000E+00
 -1       818 1.49340E-05 7.72912E-07-8.27181E-25
 -1       819 1.48600E-05 8.77493E-07-4.13590E-25
 -1       820 1.47799E-05 9.98724E-07-4.13590E-25
 -1       821 1.61066E-05 1.00873E-06 4.13590E-25
 -1       822 1.60721E-05 1.25332E-06 0.00000E+00
 -1       823 1.60377E-05 1.54132E-06-8.27181E-25
 -1       824 1.60029E-05 1.86752E-06-4.13590E-25
 -1       825 1.59680E-05 2.22673E-06 8.27181E-25
 -1       826 1.59332E-05 2.61371E-06 0.00000E+00
 -1       827 1.58982E-05 3.02324E-06-8.27181E-25
 -1       828 1.58633E-05 3.45009E-06 4.13590E-25
 -1       829 1.58284E-05 3.88901E-06 0.00000E+00
 -1       830 1.57934E-05 4.33475E-06-4.13590E-25
 -1       831 1.57585E-05 4.78207E-06-8.27181E-25
 -1       832 1.57237E-05 5.22572E-06 0.00000E+00
 -1       833 1.56888E-05 5.66044E-06-8.27181E-25
 -1       834 1.56543E-05 6.08100E-06-4.13590E-25
 -1       835 1.56197E-05 6.48216E-06 4.13590E-25
 -1       836 1.59334E-05 8.66230E-07-8.27181E-25
 -1       837 1.56858E-05 9.21582E-07-8.27181E-25
 -1       838 1.54171E-05 9.76855E-07 1.65436E-24
 -1       839 1.51481E-05 1.03193E-06-4.13590E-25
 -1       840 1.48999E-05 1.08702E-06 0.00000E+00
 -1       841 1.60740E-05 1.01676E-06 0.00000E+00
 -1       842 1.59853E-05 1.28315E-06 0.00000E+00
 -1       843 1.58778E-05 1.59971E-06 0.00000E+00
 -1       844 1.57560E-05 1.95431E-06 0.00000E+00
 -1       845 1.56230E-05 2.33886E-06 0.00000E+00
 -1       846 1.54818E-05 2.74523E-06 0.00000E+00
 -1       847 1.53346E-05 3.16763E-06-4.13590E-25
 -1       848 1.51835E-05 3.60024E-06 2.06795E-25
 -1       849 1.50304E-05 4.03828E-06-2.06795E-25
 -1       850 1.48771E-05 4.47696E-06 0.00000E+00
 -1       851 1.47252E-05 4.91163E-06 0.00000E+00
 -1       852 1.45766E-05 5.33758E-06 1.03398E-25
 -1       853 1.44333E-05 5.74926E-06 0.00000E+00
 -1       854 1.42972E-05 6.14099E-06 2.58494E-26
 -1       855 1.41716E-05 6.50521E-06 0.00000E+00
 -1       856 1.55595E-05 7.25368E-06 0.00000E+00
 -1       857 1.55306E-05 7.70423E-06 0.00000E+00
 -1       858 1.55016E-05 8.20284E-06 0.00000E+00
 -1       859 1.54724E-05 8.74192E-06 0.00000E+00
 -1       860 1.54432E-05 9.31387E-06 0.00000E+00
 -1       861 1.54138E-05 9.91110E-06 0.00000E+00
 -1       862 1.53845E-05 1.05260E-05 8.27181E-25
 -1       863 1.53551E-05 1.11510E-05-4.13590E-25
 -1       864 1.53258E-05 1.17785E-05 0.00000E+00
 -1       865 1.52964E-05 1.24008E-05 0.00000E+00
 -1       866 1.52671E-05 1.30104E-05 0.00000E+00
 -1       867 1.52378E-05 1.35996E-05-4.13590E-25
 -1       868 1.52085E-05 1.41609E-05-8.27181E-25
 -1       869 1.51794E-05 1.46866E-05 4.13590E-25
 -1       870 1.51502E-05 1.51692E-05 8.27181E-25
 -1       871 1.52852E-05 6.85532E-06 0.00000E+00
 -1       872 1.50216E-05 6.85145E-06 0.00000E+00
 -1       873 1.47818E-05 6.84747E-06 4.13590E-25
 -1       874 1.45509E-05 6.84332E-06 1.03398E-25
 -1       875 1.43144E-05 6.83896E-06 2.06795E-25
 -1       876 1.54885E-05 7.26319E-06-8.27181E-25
 -1       877 1.53760E-05 7.71110E-06 0.00000E+00
 -1       878 1.52494E-05 8.19644E-06-1.65436E-24
 -1       879 1.51110E-05 8.71391E-06 8.27181E-25
 -1       880 1.49626E-05 9.25809E-06 0.00000E+00
 -1       881 1.48063E-05 9.82362E-06 0.00000E+00
 -1       882 1.46439E-05 1.04052E-05 1.65436E-24
 -1       883 1.44776E-05 1.09973E-05-8.27181E-25
 -1       884 1.43093E-05 1.15948E-05-1.65436E-24
 -1       885 1.41409E-05 1.21923E-05 0.00000E+00
 -1       886 1.39746E-05 1.27844E-05 1.65436E-24
 -1       887 1.38122E-05 1.33657E-05 0.00000E+00
 -1       888 1.36558E-05 1.39310E-05 0.00000E+00
 -1       889 1.35072E-05 1.44748E-05 0.00000E+00
 -1       890 1.33685E-05 1.49919E-05 0.00000E+00
 -1       891 1.47734E-05 1.55805E-05 8.27181E-25
 -1       892 1.44819E-05 1.55594E-05 0.00000E+00
 -1       893 1.42150E-05 1.55384E-05-4.13590E-25
 -1       894 1.39405E-05 1.55174E-05 2.06795E-25
 -1       895 1.36260E-05 1.54964E-05 4.13590E-25
 -1       926 1.81777E-08-1.12657E-06 5.16988E-26
 -1       927 1.80162E-08-6.00845E-07 0.00000E+00
 -1       928 1.79028E-08-2.01947E-07 0.00000E+00
 -1       929 1.78494E-08 8.45407E-08 0.00000E+00
 -1       930 1.78179E-08 2.73027E-07-6.46235E-27
 -1       931 1.77989E-08 3.77920E-07 0.00000E+00
 -1       932 1.77803E-08 4.13636E-07 0.00000E+00
 -1       933 1.77456E-08 3.94590E-07 0.00000E+00
 -1       934 1.76927E-08 3.35197E-07 5.16988E-26
 -1       935 1.75580E-08 2.49875E-07 0.00000E+00
 -1       936 1.73756E-08 1.53042E-07 0.00000E+00
 -1       937 1.68128E-08 5.91140E-08 0.00000E+00
 -1       938 1.61979E-08-1.75054E-08 0.00000E+00
 -1       939 1.36873E-08-6.24114E-08 0.00000E+00
 -1       940 1.18166E-08-6.13349E-08 3.30872E-24
 -1       956 1.46543E-05 1.34367E-06-8.27181E-25
 -1       957 1.46147E-05 1.59156E-06-2.06795E-25
 -1       958 1.45750E-05 1.87779E-06 4.13590E-25
 -1       959 1.45352E-05 2.19743E-06-4.13590E-25
 -1       960 1.44953E-05 2.54555E-06 1.65436E-24
 -1       961 1.44554E-05 2.91718E-06 0.00000E+00
 -1       962 1.44155E-05 3.30734E-06 0.00000E+00
 -1       963 1.43756E-05 3.71108E-06 0.00000E+00
 -1       964 1.43357E-05 4.12343E-06-8.27181E-25
 -1       965 1.42958E-05 4.53940E-06 0.00000E+00
 -1       966 1.42559E-05 4.95404E-06 0.00000E+00
 -1       967 1.42160E-05 5.36237E-06-8.27181E-25
 -1       968 1.41762E-05 5.75943E-06 0.00000E+00
 -1       969 1.41364E-05 6.14026E-06 0.00000E+00
 -1       970 1.40967E-05 6.49991E-06 0.00000E+00
 -1       971 1.40076E-05 7.17775E-06 8.27181E-25
 -1       972 1.39564E-05 7.58277E-06-8.27181E-25
 -1       973 1.39052E-05 8.04134E-06-1.65436E-24
 -1       974 1.38539E-05 8.54600E-06-8.27181E-25
 -1       975 1.38024E-05 9.08928E-06 1.65436E-24
 -1       976 1.37510E-05 9.66373E-06 8.27181E-25
 -1       977 1.36995E-05 1.02619E-05 0.00000E+00
 -1       978 1.36480E-05 1.08762E-05 8.27181E-25
 -1       979 1.35965E-05 1.14992E-05 0.00000E+00
 -1       980 1.35450E-05 1.21235E-05 0.00000E+00
 -1       981 1.34935E-05 1.27415E-05 0.00000E+00
 -1       982 1.34421E-05 1.33458E-05 0.00000E+00
 -1       983 1.33907E-05 1.39288E-05 0.00000E+00
 -1       984 1.33396E-05 1.44832E-05 0.00000E+00
 -1       985 1.32886E-05 1.50013E-05-8.27181E-25
 -3
    1PSTEP                         2           1           1          
  100CL  101 2.50000E-01         568                     0    1           1
 -4  STRESS      6    1
 -5  SXX         1    4    1    1
 -5  SYY         1    4    2    2
 -5  SZZ         1    4    3    3
 -5  SXY         1    4    1    2
 -5  SYZ         1    4    2    3
 -5  SZX         1    4    3    1
 -1         1-6.81891E+05-2.68728E+05-1.30320E+05-3.51286E+05-1.09139E-10 2.07122E-09
 -1         2-3.51141E+04-2.80980E+05-6.23586E+02 1.78165E+03 6.43922E-10 3.89994E-10
 -1         3-9.12517E+00-3.46969E+05-5.13023E+01-4.06254E+01 2.75723E-10-3.97790E-09
 -1         4 3.40932E+00-3.72713E+00-3.84677E-01-4.30035E+00 1.18954E-09-4.84357E-09
 -1         5-2.36648E+00 1.45620E+05 7.85725E+00-1.59066E+00 1.09543E-10-4.36103E-09
 -1         8-6.54259E+05-2.19765E+05-9.16834E+04-2.40044E+05 3.60160E-10 9.82254E-10
 -1         9-6.75777E+05-2.81353E+05-1.11159E+05-1.51696E+05-4.79304E-10 5.27022E-09
 -1        10-7.37643E+03-2.04759E+05 2.53225E+04-1.08840E+03-1.16654E-09 1.88065E-09
 -1        11 8.44562E-01-1.56744E+00-5.53160E-01 2.54303E-01 4.38759E-10 2.01126E-09
 -1        12-3.38182E+03 5.51479E+04-1.84870E+04 2.64577E+03 3.67245E-09 9.53566E-11
 -1        15 9.07503E+02 4.90748E+02 2.81646E+03 5.35341E-01-6.48015E-12 6.20275E-10
 -1        16-8.24877E+05-2.17578E+05-7.28461E+04-2.69172E+05-4.99028E-10-3.84443E-09
 -1        17-1.81683E+05-1.25720E+05-1.77296E+04-1.09099E+05-1.74866E-09 6.05117E-10
 -1        18 1.15877E+04 3.80772E+03-4.18911E+03-3.10877E+04 1.22554E-10 2.58751E-10
 -1        19 3.28222E+04 3.83840E+04-3.87250E+03 3.91394E+03 1.17810E-09-2.58145E-10
 -1        20 2.09117E+04-3.07012E+04-7.00440E+03 1.51551E+04 1.20053E-09 6.05041E-10
 -1        21-4.36593E+02-5.42809E+04 1.58289E+04-1.88029E+02 8.98692E-09-2.78894E-09
 -1        23 2.19914E-01 1.04762E-01 4.02871E+00 1.46715E-04 1.32483E-09 1.98597E-09
 -1        24-4.20075E+05-1.26292E+05 2.88300E+04-2.26443E+05-1.49448E-09 3.92902E-11
 -1        25 9.34874E+02 1.03943E+04 7.82632E+03-1.31982E+05 3.70437E-10 1.89175E-10
 -1        26-4.30526E+02 3.52856E+04 7.24303E+02-6.08019E+03-2.44803E-10 2.62290E-10
 -1        27-8.52890E+03-2.28387E+04-1.01644E+04 2.52082E+04 1.63906E-09-4.82942E-10
 -1        28-4.12206E+03-4.25656E+04-2.13036E+03 1.55095E+04 3.62968E-09-1.20946E-09
 -1        31 1.39299E+03 1.60778E+03 2.38898E+03-6.08523E+01 1.33313E-09-6.27836E-10
 -1        32-1.84103E+05 3.01810E+04 1.09678E+05-2.69806E+05-1.38139E-09 1.74623E-10
 -1        33-4.22688E+04 4.36451E+04 1.33267E+04-1.29629E+04 8.10587E-11-1.06623E-09
 -1        34-5.40241E+04-2.77751E+03 3.62935E+03 1.82790E+04 1.24227E-09-3.28669E-10
 -1        35-1.05254E+04-1.21901E+04-4.00947E+02 2.45316E+04 1.13939E-09-4.15336E-10
 -1        36-4.12010E+03-1.16119E+04 2.67763E+04-7.63065E-09-1.95182E-10-8.31278E-10
 -1        37 7.51603E+03 1.34405E+04 1.89588E+04 6.75965E-08-1.78514E-10-1.74850E-10
 -1        38 3.57611E+02-1.82584E+03 6.93382E+03 1.30697E-07-1.12636E-10 1.09685E-09
 -1        39 2.29696E+03 2.11307E+03 4.36925E+03-2.66286E-07-3.24706E-11-3.83397E-09
 -1        40 1.09797E+03-2.86852E+02 1.79263E+03-2.75491E-11-3.44995E-11-1.85992E-09
 -1        41 1.43537E+03 3.38402E+02 1.08695E+03-5.73468E-07-3.28721E-11-1.32842E-09
 -1        42 1.21915E+03-5.15035E+01 5.60506E+02-1.73479E-07-6.17137E-12-2.90176E-09
 -1        43 1.31500E+03 1.04431E+02 5.00505E+02 7.54374E-08 3.59115E-11 3.03982E-09
 -1        44 1.21833E+03-5.29172E+01 5.73042E+02-6.20685E-07-1.64912E-11 1.91999E-09
 -1        45 1.44187E+03 3.50529E+02 1.12327E+03 3.72746E-08 1.55796E-11-1.20200E-09
 -1        46 1.09228E+03-2.97564E+02 1.85791E+03-1.59619E-07 4.29350E-11 2.26055E-09
 -1        47 2.33621E+03 2.19244E+03 4.53246E+03-4.95226E-07 7.17257E-11 4.43924E-09
 -1        48 3.24043E+02-1.89449E+03 7.19410E+03-1.12186E-07-1.78009E-10-2.30511E-09
 -1        49 7.75159E+03 1.39460E+04 1.96715E+04 2.44679E-08 3.05392E-10-1.91540E-09
 -1        50-4.32201E+03-1.20486E+04 2.77834E+04-3.26504E-07 2.19826E-09-1.13505E-09
 -1        51 9.80356E+03-1.58000E+05 1.60473E+04-4.13212E+05-6.54836E-11 3.92902E-10
 -1        52 4.30195E+03-1.56148E+05 1.02624E+04-4.55732E+05 2.00089E-10-4.75848E-09
 -1        53 2.87760E+03-1.58949E+05 9.19327E+03-4.12153E+05-7.27596E-11-1.41154E-09
 -1        54 7.64178E+03-1.56785E+05 1.51055E+04-4.56893E+05-1.27329E-10-8.25821E-10
 -1        55 1.93068E+04-1.61486E+05 2.81717E+04-4.11995E+05-8.00355E-11 1.14596E-10
 -1        56-1.93552E+06-2.12841E+05-1.64491E+05-7.50989E+05 6.11180E-10-7.63976E-10
 -1        57-2.01531E+06-3.54954E+05-1.11889E+05-7.29442E+05 4.94765E-10-9.53150E-10
 -1        58-1.96816E+06-2.67736E+05-3.86809E+04-7.41074E+05 4.27463E-11 1.96451E-10
 -1        59-1.97758E+06-2.90835E+05-2.34071E+04-7.41032E+05 1.65414E-10-1.57706E-09
 -1        60-1.97299E+06-2.75773E+05-9.04815E+03-7.39806E+05 3.77440E-11 3.84489E-09
 -1        61-1.97218E+06-2.81295E+05-5.22373E+03-7.42281E+05-1.00226E-09 9.57812E-11
 -1        62-1.97351E+06-2.77116E+05-2.49601E+03-7.39873E+05-4.87660E-10 2.38174E-10
 -1        63-1.97196E+06-2.79604E+05-2.11913E+03-7.41851E+05 8.40146E-10 2.66397E-09
 -1        64-1.97320E+06-2.77447E+05-2.41503E+03-7.40240E+05-1.69834E-10-1.04535E-09
 -1        65-1.97337E+06-2.79970E+05-4.97879E+03-7.40863E+05-1.13118E-11-1.23407E-10
 -1        66-1.97211E+06-2.76768E+05-8.59476E+03-7.40855E+05 6.71207E-10-1.37743E-09
 -1        67-1.97953E+06-2.87969E+05-2.22092E+04-7.38478E+05 1.78818E-09 1.55296E-10
 -1        68-1.96708E+06-2.69600E+05-3.66979E+04-7.42579E+05 6.48470E-10 2.91220E-09
 -1        69-2.01603E+06-3.48094E+05-1.06142E+05-7.26682E+05 3.31511E-10 1.57161E-09
 -1        70-1.93586E+06-2.17770E+05-1.56050E+05-7.52266E+05-2.03727E-10-5.89353E-10
 -1        86 1.23952E+04-6.28546E+05-2.94867E+04 9.45074E+01 1.81535E-09 8.27804E-10
 -1        87-1.57490E+04-6.39814E+05-2.29334E+04 5.99996E+02-1.12391E-09 4.43199E-10
 -1        88 3.34028E+03-6.32039E+05-1.24545E+04 3.05764E+03 3.96597E-09-1.26363E-09
 -1        89-1.23648E+04-6.37915E+05-1.85153E+04-9.75292E+02-3.41061E-10 1.13223E-09
 -1        90 9.01547E+03-6.30444E+05-2.21052E+04 1.66984E+03 2.30011E-09 8.08342E-10
 -1       121-3.31646E+00-3.47011E+05-6.46924E+01 2.03116E+01-4.24505E-10-3.81078E-10
 -1       122-2.92495E+01-3.46982E+05-1.15226E+02-8.10121E+01-3.32481E-10 1.79534E-09
 -1       123 1.38670E+01-3.46998E+05-2.01734E+02 6.06918E+01-1.08066E-09 5.83213E-10
 -1       124-2.48690E+02-3.47110E+05-4.87388E+02-1.82091E+02-7.70569E-10-7.83075E-10
 -1       125 1.78886E+02-3.46884E+05-7.59129E+02 1.21358E+02-1.83852E-09 1.97088E-09
 -1       161-1.24300E+00 8.75217E-01-5.05075E-01 9.19081E-01 5.51261E-07-2.07500E-07
 -1       162 3.33136E+00-3.79506E+00-9.31676E-01-4.30445E+00 1.10246E-06-4.15000E-07
 -1       163-1.16500E+00 9.43325E-01-1.80751E+00 9.23110E-01 5.44088E-07-2.05218E-07
 -1       164 2.93125E+00-4.27078E+00-4.03363E+00-4.27124E+00-1.38140E-08 7.83243E-09
 -1       165-8.42937E-01 1.35100E+00-7.85499E+00 8.85821E-01-6.28654E-07 2.35726E-07
 -1       166 7.44484E-01-7.31771E+00-1.81770E+01-3.89551E+00-1.24275E-06 4.65749E-07
 -1       167 1.02190E+00 3.99002E+00-3.44419E+01 5.47545E-01-1.86465E-06 6.98142E-07
 -1       168-1.20493E+01-2.68578E+01-8.26442E+01-9.50899E-01-2.48677E-06 9.32822E-07
 -1       169 1.19509E+01 2.08890E+01-1.50617E+02-2.05781E+00-3.08954E-06 1.15754E-06
 -1       170-8.87072E+01-1.51640E+02-3.79712E+02 2.00527E+01-3.69223E-06 1.38328E-06
 -1       171 7.76796E+01 1.28757E+02-6.55252E+02-2.04497E+01-4.19871E-06 1.57305E-06
 -1       172-5.54971E+02-9.45619E+02-1.76887E+03 1.63114E+02-4.70393E-06 1.76390E-06
 -1       173 4.78217E+02 8.14758E+02-2.82891E+03-1.45071E+02-4.75813E-06 1.78304E-06
 -1       174-3.42212E+03-5.98566E+03-8.38797E+03 1.11172E+03-4.80965E-06 1.80344E-06
 -1       175 2.94497E+03 5.16808E+03-1.20729E+04-9.68693E+02-2.40381E-06 8.99977E-07
 -1       191-2.34163E+00 1.45632E+05 9.53199E+00 7.95151E-01-7.15232E-11 2.17824E-09
 -1       192 1.58645E-01 1.45621E+05 1.74365E+01-7.22505E+00-6.39346E-11 3.30715E-09
 -1       193 5.66722E+00 1.45631E+05 3.31929E+01 6.42994E+00-2.37151E-10-7.13953E-11
 -1       194 3.26986E+01 1.45632E+05 7.41392E+01-5.59948E+01-1.89914E-10 1.73804E-09
 -1       195 9.88899E+01 1.45621E+05 1.50751E+02 4.95861E+01-3.96085E-10-8.98808E-10
 -1       251-1.11247E+06 2.71218E+04-6.27450E+04-8.01877E+02-1.77403E-09 1.80444E-09
 -1       252-1.13845E+06-3.14259E+04-4.42330E+04-7.05329E+02 1.02614E-10 2.39106E-09
 -1       253-1.12238E+06 4.29910E+03-1.62094E+04 1.60907E+03 1.61981E-09 1.55978E-09
 -1       254-1.12648E+06-4.97319E+03-1.01578E+04-3.60116E+02-1.47123E-09 3.25485E-10
 -1       255-1.12443E+06 6.72089E+02-4.25062E+03-1.14704E+03-1.78406E-09-5.45924E-10
 -1       256-1.12373E+06-7.55343E+02-2.32380E+03 1.30901E+03-3.50567E-09 9.38201E-11
 -1       257-1.12512E+06 8.29670E+01-1.45177E+03-6.00900E+01-7.78556E-10 2.65743E-11
 -1       258-1.12353E+06-2.14966E+02-9.64316E+02-1.17122E+03 2.70362E-09-1.29742E-09
 -1       259-1.12462E+06 1.31668E+02-1.36497E+03 1.33323E+03-1.72415E-09-1.41503E-09
 -1       260-1.12452E+06-8.45631E+02-2.53813E+03 2.67150E+02-8.51578E-10-1.65585E-10
 -1       261-1.12414E+06 7.12547E+02-4.27432E+03-1.49849E+03-7.95312E-10-1.07866E-09
 -1       262-1.12619E+06-5.04327E+03-1.02901E+04 9.39882E+02 2.84066E-09 7.38055E-10
 -1       263-1.12296E+06 4.32923E+03-1.66631E+04 6.60499E+02 1.21131E-06-1.21872E-10
 -1       264-1.13812E+06-3.20173E+04-4.49950E+04-1.30774E+03 2.32835E-06 2.86536E-09
 -1       265-1.11223E+06 2.76837E+04-6.40075E+04 7.49160E+02 1.20374E-06 1.97106E-08
 -1       266-1.59554E+04-7.37997E+03 3.68182E+04-1.10156E+01 3.27418E-11 7.34850E-10
 -1       267 1.84771E+04 8.61566E+03 2.61210E+04 1.26674E+01-4.09273E-12 7.22805E-10
 -1       268-2.51777E+03-1.23364E+03 9.66799E+03-1.64952E+00-7.73070E-12-8.10892E-10
 -1       269 2.97200E+03 1.47912E+03 6.31872E+03 1.91767E+00 1.13687E-11-1.22576E-09
 -1       270-4.53687E+02-2.45374E+02 3.03375E+03-2.67587E-01-1.18234E-11 9.73661E-10
 -1       271-1.54833E+06-1.97037E+05-1.20033E+05-5.98974E+05-1.96451E-10-1.51340E-09
 -1       272-1.58650E+06-2.75864E+05-7.52520E+04-6.03544E+05-5.42286E-11-2.04636E-09
 -1       273-1.56908E+06-2.22808E+05-2.83074E+04-5.96011E+05 3.34012E-10 3.76531E-09
 -1       274-1.56245E+06-2.41825E+05-1.54477E+04-6.09170E+05 3.54589E-10-2.62730E-09
 -1       275-1.57161E+06-2.25285E+05-6.57476E+03-5.95549E+05 1.45428E-09 2.95086E-09
 -1       276-1.55948E+06-2.38678E+05-3.45537E+03-6.10021E+05-1.78375E-10 1.69280E-09
 -1       277-1.57203E+06-2.25423E+05-1.75518E+03-5.95383E+05 3.98813E-10 3.31460E-09
 -1       278-1.55903E+06-2.38532E+05-1.32921E+03-6.10272E+05-1.83036E-11 6.15103E-10
 -1       279-1.57208E+06-2.25380E+05-1.53564E+03-5.95332E+05-2.53607E-10 2.75236E-10
 -1       280-1.55925E+06-2.38780E+05-2.85633E+03-6.10248E+05 1.41313E-10-1.77124E-10
 -1       281-1.57181E+06-2.25201E+05-5.34690E+03-5.95397E+05 3.20483E-10-6.30735E-10
 -1       282-1.56157E+06-2.41428E+05-1.25264E+04-6.09684E+05 7.60110E-10-1.41836E-09
 -1       283-1.56980E+06-2.23153E+05-2.29280E+04-5.95726E+05 4.54520E-10-1.42154E-09
 -1       284-1.58099E+06-2.69062E+05-6.09534E+04-6.05206E+05 1.68711E-10-6.37556E-10
 -1       285-1.55303E+06-2.02258E+05-9.72222E+04-5.98101E+05 1.42791E-10 5.56611E-10
 -1       286-3.55325E+04-1.43002E+04 3.29684E+04-6.65706E+00 1.10735E-09 1.65528E-10
 -1       287-2.11440E+04 1.65524E+04 2.33522E+04-5.63768E+01 5.86080E-10-1.81899E-10
 -1       288-3.00150E+04-2.24875E+03 8.53308E+03 1.28885E+01-3.80194E-11-2.69665E-10
 -1       289-2.75835E+04 2.60208E+03 5.38130E+03-9.69933E+01 1.64803E-10 1.94404E-11
 -1       290-2.90951E+04-3.52955E+02 2.19865E+03 3.39612E+01 2.82442E-10-4.34511E-10
 -1       291-2.86609E+04 4.14417E+02 1.32500E+03-1.30870E+02 8.05161E-10 6.78867E-10
 -1       292-2.89379E+04-6.13982E+01 6.61545E+02 4.67658E+01 2.56553E-07-6.06235E-11
 -1       293-2.88236E+04 1.14980E+02 5.53886E+02-1.45319E+02 5.08846E-07 2.95919E-10
 -1       294-2.89324E+04-5.35289E+01 5.92299E+02 4.84107E+01-2.69818E-06-2.98866E-09
 -1       295-2.87002E+04 3.47139E+02 1.12315E+03-1.37138E+02-5.90636E-06-5.34229E-10
 -1       296-2.90613E+04-2.93541E+02 1.83742E+03 3.85844E+01-2.96085E-06-2.04636E-10
 -1       297-2.78054E+04 2.16217E+03 4.47621E+03-1.08197E+02-1.95062E-09 1.64550E-09
 -1       298-2.98270E+04-1.86831E+03 7.09163E+03 1.94689E+01 3.75563E-10-1.89493E-09
 -1       299-2.24519E+04 1.37519E+04 1.94029E+04-6.86618E+01 6.01818E-10-1.96633E-09
 -1       300-3.44134E+04-1.18809E+04 2.73890E+04-9.52049E-01 1.51022E-09 1.40062E-10
 -1       301 1.56710E+04-8.84555E+03 4.35416E+04-1.52927E+04 7.02130E-10 3.73103E-09
 -1       302 5.71256E+03 2.45374E+01 2.84833E+04-1.86997E+04 1.26977E-09 8.83826E-09
 -1       303 1.23888E+03-5.73438E+03 2.50019E+04-1.52880E+04 5.72982E-10 4.41230E-09
 -1       304 9.38517E+03 2.74252E+03 3.98790E+04-1.86801E+04 1.02227E-09-1.34719E-11
 -1       305 2.66683E+04-1.15549E+04 7.06647E+04-1.53029E+04 5.92991E-10 1.97304E-09
 -1       306-8.12352E+05-1.08924E+05-4.69108E+04-3.15450E+05-1.43564E-09-6.50834E-09
 -1       307-8.19223E+05-1.47663E+05-2.93952E+04-3.26379E+05 3.11502E-11-2.82353E-09
 -1       308-8.20492E+05-1.18936E+05-1.10688E+04-3.14265E+05 1.05933E-09 4.74893E-09
 -1       309-8.09841E+05-1.34397E+05-6.04445E+03-3.28623E+05 3.08319E-10 2.06137E-09
 -1       310-8.21477E+05-1.19903E+05-2.58574E+03-3.14096E+05-5.04770E-11-2.32819E-09
 -1       311-8.08723E+05-1.33137E+05-1.38480E+03-3.28930E+05 8.60553E-10-4.60858E-10
 -1       312-8.21618E+05-1.19978E+05-7.55057E+02-3.14057E+05 1.24754E-09 2.58021E-09
 -1       313-8.08609E+05-1.33031E+05-6.71149E+02-3.28958E+05 4.60119E-10 2.23397E-09
 -1       314-8.21595E+05-1.19994E+05-9.08100E+02-3.14076E+05-3.76758E-10-3.95175E-10
 -1       315-8.08825E+05-1.33125E+05-1.80235E+03-3.28839E+05-9.75888E-10 1.91721E-09
 -1       316-8.21375E+05-1.19917E+05-3.43895E+03-3.14150E+05-2.88196E-09-1.55296E-09
 -1       317-8.10349E+05-1.34786E+05-8.07838E+03-3.28394E+05-1.56558E-09 2.61934E-09
 -1       318-8.20050E+05-1.18628E+05-1.48094E+04-3.14382E+05-2.83103E-09 1.00044E-09
 -1       319-8.22898E+05-1.52555E+05-3.93369E+04-3.25410E+05-1.90903E-09-2.83762E-09
 -1       320-8.09174E+05-1.05206E+05-6.27725E+04-3.15946E+05-4.84761E-10-7.56700E-10
 -1       336 2.09587E+02-3.46858E+05-1.33161E+03-5.02191E+02-2.42727E-09-1.76919E-09
 -1       337-6.26535E+02-3.47385E+05-2.08526E+03-2.99370E+03-1.77678E-09 2.14641E-10
 -1       338 3.18239E+02-3.46762E+05-3.17682E+03-4.44633E+02-2.99667E-09 4.12683E-10
 -1       339-3.81804E+03-3.49251E+05-7.61276E+03-3.10008E+03-1.97088E-09 1.08957E-09
 -1       340 2.86071E+03-3.44999E+05-1.17155E+04-3.96474E+02-3.36740E-09 2.35354E-09
 -1       356-2.51506E-01 9.80505E-02-8.25898E-01-6.74552E-01-7.15200E-08-7.80074E-10
 -1       357-4.52615E-01-1.82928E-01-1.74602E+00 2.71499E+00-1.43371E-07-5.46309E-10
 -1       358-2.09890E-01 8.52893E-02-3.30689E+00-6.74442E-01-8.49994E-08-2.78970E-10
 -1       359-8.43932E-01-5.76693E-01-6.94042E+00 2.71491E+00-2.66542E-08 1.45039E-09
 -1       360 1.39774E-01 4.91870E-01-1.32595E+01-6.74468E-01 2.52728E-08 2.54203E-09
 -1       361-3.06522E+00-3.74088E+00-2.83576E+01 2.71497E+00 7.72629E-08 6.09345E-10
 -1       362 2.01145E+00 3.24934E+00-5.30831E+01-6.74498E-01 1.02475E-07 1.78580E-09
 -1       363-1.53083E+01-2.43965E+01-1.16926E+02 2.71609E+00 1.27587E-07 3.91616E-10
 -1       364 1.23832E+01 2.11451E+01-2.11737E+02-6.75590E-01 1.25064E-07 2.12044E-09
 -1       365-8.53069E+01-1.57206E+02-4.87991E+02 2.72423E+00 1.23517E-07 2.28832E-09
 -1       366 7.20123E+01 1.36040E+02-8.39569E+02-6.82638E-01 9.47627E-08-1.25027E-09
 -1       367-4.97731E+02-1.00527E+03-2.07266E+03 2.77254E+00 6.67633E-08-2.52712E-09
 -1       368 4.24830E+02 8.69067E+02-3.29713E+03-7.23874E-01 2.30129E-08-4.24734E-10
 -1       369-2.98248E+03-6.39787E+03-9.02290E+03 3.04833E+00-2.24167E-08 2.09184E-10
 -1       370 2.55706E+03 5.52765E+03-1.27432E+04-9.58293E-01-9.32709E-09 2.52840E-10
 -1       376-3.80393E-01 6.07343E-01-3.60602E-01 6.19098E-01 2.20572E-07-8.26226E-08
 -1       377 2.12814E+00-2.20536E+00-6.42296E-01-2.33258E+00 4.41062E-07-1.65717E-07
 -1       378-3.65966E-01 5.92012E-01-1.14586E+00 6.31947E-01 1.20179E-07-4.44517E-08
 -1       379 1.90173E+00-2.43949E+00-2.54820E+00-2.32910E+00-2.00877E-07 7.65934E-08
 -1       380-1.53963E-01 8.41503E-01-4.93156E+00 6.15610E-01-5.83323E-07 2.20827E-07
 -1       381 5.33710E-01-4.34575E+00-1.14217E+01-2.09390E+00-9.64051E-07 3.63484E-07
 -1       382 1.00208E+00 2.49813E+00-2.16270E+01 3.96809E-01-1.32396E-06 4.96811E-07
 -1       383-7.40971E+00-1.66009E+01-5.18815E+01-2.10892E-01-1.68417E-06 6.33574E-07
 -1       384 7.78940E+00 1.30954E+01-9.45941E+01-1.26682E+00-1.99913E-06 7.48526E-07
 -1       385-5.55604E+01-9.49553E+01-2.38425E+02 1.29780E+01-2.31375E-06 8.66790E-07
 -1       386 4.91524E+01 8.08433E+01-4.11457E+02-1.27881E+01-2.54163E-06 9.53732E-07
 -1       387-3.48464E+02-5.93521E+02-1.11076E+03 1.02798E+02-2.76723E-06 1.03913E-06
 -1       388 3.00691E+02 5.11591E+02-1.77639E+03-9.10573E+01-2.72454E-06 1.02061E-06
 -1       389-2.14900E+03-3.75826E+03-5.26718E+03 6.98587E+02-2.68002E-06 1.00520E-06
 -1       390 1.84973E+03 3.24512E+03-7.58120E+03-6.08362E+02-1.33905E-06 5.01315E-07
 -1       406 1.14739E+02 1.45614E+05 3.79950E+02-4.96067E+01-5.82986E-10-4.36557E-11
 -1       407 1.37294E+02 1.45693E+05 6.80705E+02 5.03842E+01-3.64594E-10-2.70984E-09
 -1       408 3.28499E+02 1.45577E+05 1.30102E+03-7.03380E-01-7.82393E-10-1.52750E-09
 -1       409 1.36846E+03 1.46098E+05 2.90254E+03-4.71734E+01-5.41149E-10-2.21007E-10
 -1       410 3.94877E+03 1.45209E+05 5.90933E+03 4.93260E+01-9.60426E-10-6.48924E-10
 -1       501-2.06496E+05-1.85223E+04 4.24429E+04-1.14435E+03-4.07937E-06 8.51287E-10
 -1       502-1.86250E+05 2.14242E+04 3.03534E+04 2.89119E+03-8.08692E-06 2.74858E-08
 -1       503-1.98932E+05-2.82854E+03 1.09766E+04-1.31630E+03-4.06962E-06 1.36861E-08
 -1       504-1.93348E+05 3.42552E+03 7.37071E+03 1.75009E+03-2.66211E-09 1.07616E-09
 -1       505-1.99425E+05-5.67498E+02 2.41755E+03-3.36596E+00 8.16144E-10 4.81805E-10
 -1       506-1.94411E+05 6.23251E+02 2.14768E+03-1.03388E+03 4.53700E-09-1.22961E-09
 -1       507-1.97834E+05 4.42974E+00 6.23251E+02 1.46725E+03 2.87498E-09-2.23903E-09
 -1       508-1.96178E+05 8.60815E+01 6.00257E+02-2.61426E+03 1.45924E-09-3.27208E-09
 -1       509-1.97564E+05 8.73688E+01 1.66829E+02 1.57633E+03 3.78873E-09-2.83576E-09
 -1       510-1.94897E+05 1.13137E+02 6.34146E+02-1.35892E+03 3.89081E-09-2.56637E-09
 -1       511-1.99209E+05-1.36736E+02-2.19465E+02 2.12611E+02-3.57588E-10-1.42093E-09
 -1       512-1.94698E+05 2.43636E+02 8.35295E+02 1.44039E+03-1.50758E-09 1.27892E-09
 -1       513-1.97800E+05-8.18814E+01 4.28016E+02-1.22257E+03-1.28444E-09 2.81992E-09
 -1       514-1.95785E+05 1.01479E+03 1.58135E+03 2.90402E+03-1.48652E-09 2.56415E-09
 -1       515-1.98103E+05-8.66718E+02 1.85305E+03-1.25090E+03-2.06492E-09 1.76146E-09
 -1       521-1.58822E+06-2.06229E+05-1.00757E+05-6.11358E+05-8.36735E-10 6.25732E-10
 -1       522-1.61831E+06-2.74355E+05-6.31694E+04-6.17445E+05 6.81553E-10-3.60978E-09
 -1       523-1.60558E+06-2.27908E+05-2.37573E+04-6.08918E+05-2.34536E-10-1.78170E-09
 -1       524-1.59821E+06-2.45683E+05-1.29740E+04-6.22044E+05 3.74769E-10 7.36463E-10
 -1       525-1.60764E+06-2.30046E+05-5.52590E+03-6.08590E+05 1.14710E-10 4.75893E-10
 -1       526-1.59583E+06-2.42918E+05-2.92604E+03-6.22602E+05 2.73900E-10 3.74575E-09
 -1       527-1.60792E+06-2.30240E+05-1.52237E+03-6.08531E+05 1.64675E-09 3.74456E-09
 -1       528-1.59559E+06-2.42649E+05-1.22652E+03-6.22619E+05-1.72935E-09-2.94733E-09
 -1       529-1.60788E+06-2.30290E+05-1.51371E+03-6.08582E+05-1.59162E-09-1.39255E-09
 -1       530-1.59599E+06-2.42738E+05-2.89791E+03-6.22379E+05-1.68302E-09-7.26914E-10
 -1       531-1.60750E+06-2.30195E+05-5.47320E+03-6.08741E+05 4.93174E-10 2.51794E-09
 -1       532-1.59851E+06-2.45298E+05-1.28383E+04-6.21607E+05 3.11047E-10 5.87306E-10
 -1       533-1.60537E+06-2.28175E+05-2.35148E+04-6.09165E+05 7.72843E-10 1.80808E-09
 -1       534-1.61857E+06-2.73483E+05-6.25068E+04-6.16830E+05-2.48986E-09-1.83081E-09
 -1       535-1.58809E+06-2.06826E+05-9.97107E+04-6.11688E+05-2.57387E-10 1.12777E-09
 -1       536-1.47791E+03-4.99029E+03 2.02083E+04-3.79064E+03 3.01497E-10-1.36970E-09
 -1       537 6.01041E+03 6.53620E+03 1.30417E+04-1.63610E+04-1.56433E-09-1.03228E-09
 -1       538 1.58981E+03-5.45732E+02 5.23247E+03-3.73450E+03 1.96451E-10 1.49612E-10
 -1       539 2.52460E+03 6.51153E+02 2.94194E+03-1.64213E+04 8.25594E-10-1.91039E-09
 -1       540 1.94079E+03-6.84220E+01 1.31644E+03-3.72921E+03 1.59616E-10-5.88216E-10
 -1       541 2.08209E+03 6.26589E+01 6.94792E+02-1.64260E+04-2.24190E-10 3.30658E-10
 -1       542 1.98324E+03-9.86900E+00 3.16645E+02-3.72983E+03 1.59162E-12 5.77870E-10
 -1       543 2.00233E+03 1.02309E+01 1.44940E+02-1.64250E+04-6.82121E-12 7.38993E-10
 -1       544 1.98905E+03 1.35094E+00 3.10400E+01-3.73019E+03 2.69438E-10 5.20885E-10
 -1       545 1.97452E+03-1.03141E+00-6.61227E+01-1.64246E+04-5.21027E-10 1.51570E-09
 -1       546 1.99713E+03 1.09500E+01-1.84775E+02-3.73023E+03 1.96394E-10-2.59945E-10
 -1       547 1.91277E+03-9.61668E+01-4.45561E+02-1.64227E+04-3.15765E-10-3.16788E-10
 -1       548 2.05441E+03 8.08026E+01-8.09551E+02-3.73216E+03-4.48608E-10 7.63350E-10
 -1       549 1.39609E+03-1.01753E+03-2.01998E+03-1.63918E+04-2.76486E-10 9.99535E-10
 -1       550 2.53500E+03 7.61231E+02-3.14205E+03-3.76108E+03 1.22782E-10 1.07991E-09
 -1       551 3.74179E+03-1.38899E+05 1.06970E+04-2.21387E+05 3.56522E-10-2.40107E-09
 -1       552 2.24136E+03-1.36995E+05 1.05653E+04-2.70136E+05-2.44654E-09-5.20231E-10
 -1       553 1.49152E+03-1.38874E+05 1.48257E+04-2.20965E+05 2.63753E-10-2.73576E-09
 -1       554 8.53680E+03-1.32440E+05 2.99793E+04-2.70195E+05-2.67028E-09-7.09451E-09
 -1       555 2.25430E+04-1.43630E+05 5.69053E+04-2.21296E+05 1.96451E-10-5.06498E-09
 -1       556-5.46175E+04-4.62698E+04 1.10666E+04-7.74818E+04-1.82263E-09-3.16504E-10
 -1       557-4.39596E+04-5.67399E+04 5.56484E+03-8.58291E+04-1.17143E-09 1.50840E-09
 -1       558-5.45325E+04-4.91194E+04 2.34133E+03-7.55953E+04-1.30240E-09-5.68889E-10
 -1       559-4.50355E+04-5.84191E+04 1.15377E+03-8.62121E+04 4.43833E-10 4.27349E-10
 -1       560-5.46001E+04-4.91164E+04 5.16077E+02-7.55764E+04-2.67391E-10 1.55978E-10
 -1       561-4.52130E+04-5.84465E+04 2.48935E+02-8.63326E+04 4.36557E-11 5.64114E-10
 -1       562-5.46682E+04-4.90605E+04 9.88150E+01-7.56259E+04-4.54747E-11 9.81288E-10
 -1       563-4.52955E+04-5.84122E+04 2.26031E+01-8.63895E+04 8.18545E-11-8.12861E-12
 -1       564-5.47087E+04-4.90285E+04-5.00854E+01-7.56564E+04-4.24734E-10-6.38011E-10
 -1       565-4.53416E+04-5.83953E+04-1.51183E+02-8.64170E+04-1.51317E-09-8.24457E-10
 -1       566-5.47122E+04-4.90138E+04-3.34284E+02-7.56654E+04-8.92214E-10 4.07454E-10
 -1       567-4.54046E+04-5.84181E+04-7.42537E+02-8.64113E+04-1.60071E-10 1.24783E-09
 -1       568-5.46444E+04-4.90906E+04-1.52418E+03-7.56245E+04-3.25144E-10 5.72982E-11
 -1       569-4.63092E+04-5.91986E+04-3.59394E+03-8.61558E+04-7.28960E-10-4.41105E-10
 -1       570-5.41226E+04-5.13292E+04-7.17420E+03-7.47065E+04-1.79170E-10-5.74346E-10
 -1       571 9.37315E+04 4.14408E+03 6.20479E+03-2.38958E+04 2.34195E-11-9.49740E-10
 -1       572 9.46665E+04 1.43254E+03 3.04214E+03-2.62463E+04 8.18545E-11-1.76169E-09
 -1       573 9.41129E+04 3.34809E+02 1.35205E+03-2.38341E+04 1.18234E-10-1.19871E-09
 -1       574 9.42259E+04 1.06373E+02 6.77605E+02-2.63154E+04 1.55069E-10-3.00588E-10
 -1       575 9.41580E+04 1.17822E+01 3.19545E+02-2.38259E+04 3.38787E-11-5.40695E-10
 -1       576 9.41683E+04 9.35751E-01 1.62372E+02-2.63246E+04 8.70628E-11-9.53150E-10
 -1       577 9.41649E+04-4.74390E+00 7.95724E+01-2.38249E+04-1.65414E-10-7.87395E-10
 -1       578 9.41614E+04-3.29766E+00 4.24400E+01-2.63256E+04-4.09273E-12-1.06002E-09
 -1       579 9.41689E+04-4.03639E+00 2.44275E+01-2.38249E+04-2.22599E-10-1.72804E-10
 -1       580 9.41650E+04-4.13582E+00 2.01391E+01-2.63241E+04 1.03682E-10 2.58933E-09
 -1       581 9.41745E+04-5.14240E+00 2.46692E+01-2.38264E+04-1.68257E-10-7.02357E-10
 -1       582 9.41762E+04-1.25731E+00 4.47221E+01-2.63095E+04-5.45697E-12-2.15778E-10
 -1       583 9.41803E+04 1.03632E+01 8.48435E+01-2.38395E+04 2.31012E-10 7.19751E-10
 -1       584 9.42144E+04 7.60304E+01 1.89317E+02-2.61998E+04-4.46562E-10 7.63748E-10
 -1       585 9.41666E+04 2.42370E+02 3.84207E+02-2.39362E+04 2.48747E-10 3.39242E-10
 -1       586 4.91533E+02 4.30376E+04 1.02637E+03-5.77597E+04 1.81217E-10-4.82942E-10
 -1       587 2.94435E+02 4.32247E+04 1.15815E+03-6.41170E+04-3.61979E-10 8.17181E-10
 -1       588 4.20488E+02 4.30113E+04 1.83028E+03-5.76832E+04 1.64619E-10 8.63906E-10
 -1       589 1.70882E+03 4.37333E+04 3.87704E+03-6.41377E+04-4.09273E-10-3.34296E-10
 -1       590 4.96619E+03 4.25183E+04 7.77269E+03-5.77383E+04 2.50111E-10 6.24141E-10
 -1       591-4.71321E+04-1.40073E+04-9.18403E+03-2.25865E+04 3.29123E-11 6.12545E-10
 -1       592-4.77116E+04-1.34953E+04-4.60552E+03-2.50682E+04 3.35376E-12 1.57979E-09
 -1       593-4.75723E+04-1.13302E+04-1.95531E+03-2.39086E+04 4.13820E-11-6.78028E-10
 -1       594-4.66749E+04-1.23444E+04-9.60195E+02-2.51599E+04 2.44199E-10-7.19002E-10
 -1       595-4.76219E+04-1.12576E+04-4.43100E+02-2.39589E+04 2.34701E-09 7.98067E-09
 -1       596-4.66033E+04-1.23041E+04-2.24100E+02-2.51494E+04-8.87212E-10-9.01309E-10
 -1       597-4.76302E+04-1.12655E+04-1.20759E+02-2.39589E+04-4.97380E-11 6.01517E-10
 -1       598-4.65959E+04-1.23046E+04-9.42293E+01-2.51461E+04-4.16236E-11 1.16569E-09
 -1       599-4.76299E+04-1.12658E+04-1.16668E+02-2.39587E+04 1.21474E-10 1.48782E-09
 -1       600-4.66024E+04-1.23046E+04-2.13398E+02-2.51485E+04 5.92081E-10-4.35307E-10
 -1       601-4.76211E+04-1.12588E+04-4.19934E+02-2.39583E+04-4.95220E-10-5.56383E-10
 -1       602-4.66705E+04-1.23420E+04-9.09319E+02-2.51568E+04 4.09727E-10-1.59366E-09
 -1       603-4.75730E+04-1.13291E+04-1.85111E+03-2.39114E+04-3.99950E-10-2.16232E-10
 -1       604-4.76625E+04-1.34202E+04-4.35965E+03-2.50563E+04 1.50578E-09 6.76573E-09
 -1       605-4.71444E+04-1.38730E+04-8.69327E+03-2.26713E+04-1.97588E-10-4.53838E-10
 -1       606 3.42900E+04-3.86326E+03-6.05637E+03 1.11721E+04-1.98315E-09-7.09861E-10
 -1       607 3.33339E+04-1.30388E+03-2.97989E+03 1.22497E+04-8.56744E-10-4.25189E-11
 -1       608 3.38922E+04-2.80551E+02-1.32706E+03 1.10955E+04 6.64386E-10-3.73632E-10
 -1       609 3.37691E+04-8.25128E+01-6.66174E+02 1.23352E+04-2.21007E-09-2.07137E-10
 -1       610 3.38416E+04-1.54372E+00-3.14822E+02 1.10858E+04-2.90947E-09 2.34922E-09
 -1       611 3.38183E+04 7.51382E+00-1.58395E+02 1.23458E+04-4.16026E-09 1.14676E-09
 -1       612 3.38313E+04 1.08788E+01-7.48142E+01 1.10847E+04-1.10817E-08-3.00588E-10
 -1       613 3.38230E+04 1.05564E+01-3.35018E+01 1.23472E+04-2.23024E-08-1.19735E-09
 -1       614 3.38272E+04 9.15099E+00-7.66673E+00 1.10844E+04-1.00674E-08 9.96579E-10
 -1       615 3.38231E+04 1.06227E+01 1.44036E+01 1.23474E+04 1.80671E-09 5.69344E-10
 -1       616 3.38238E+04 1.07069E+01 4.29584E+01 1.10845E+04-2.22053E-09-3.99154E-10
 -1       617 3.38296E+04 2.43805E+01 9.86695E+01 1.23470E+04-4.40195E-10-1.93131E-09
 -1       618 3.38154E+04 5.31005E+01 2.00082E+02 1.10848E+04-4.61228E-10-5.45583E-10
 -1       619 3.38954E+04 2.09721E+02 4.51455E+02 1.23452E+04-2.88821E-10 2.52442E-09
 -1       620 3.37550E+04 5.96617E+02 9.18378E+02 1.10860E+04 2.43233E-10 7.06791E-10
 -1       621 3.11904E+02 9.84347E+04 1.10848E+03-8.11329E+03 4.90729E-10-5.41490E-10
 -1       622 1.39241E+02 9.86583E+04 1.18139E+03-9.93118E+03-2.18620E-10 1.05655E-09
 -1       623 8.84605E+01 9.84587E+04 1.75623E+03-8.11502E+03 4.54747E-10-2.21576E-10
 -1       624 9.25008E+02 9.92410E+04 3.62072E+03-9.89951E+03-1.65073E-10 8.29800E-10
 -1       625 2.66433E+03 9.78550E+04 6.91238E+03-8.14454E+03 4.22233E-10 1.16074E-09
 -1       626 6.10405E+04 2.00086E+04-9.11365E+02 3.89681E+04-3.86081E-10-1.33105E-09
 -1       627 5.97145E+04 2.15355E+04-4.33580E+02 4.01818E+04 7.94444E-10 2.32285E-09
 -1       628 6.10936E+04 2.04045E+04-1.82069E+02 3.87047E+04 8.13543E-10 1.26761E-09
 -1       629 5.97356E+04 2.17623E+04-8.64485E+01 4.02183E+04 1.18007E-09 8.49468E-10
 -1       630 6.10939E+04 2.04296E+04-3.64975E+01 3.86814E+04 1.87492E-09-4.35477E-10
 -1       631 5.97324E+04 2.17803E+04-1.26307E+01 4.02227E+04 3.25008E-09 6.22526E-09
 -1       632 6.10906E+04 2.04303E+04 5.12710E+00 3.86785E+04 1.44200E-09 5.21254E-11
 -1       633 5.97316E+04 2.17815E+04 2.55328E+01 4.02232E+04-1.46656E-11-9.15747E-10
 -1       634 6.10870E+04 2.04278E+04 5.91766E+01 3.86779E+04 5.90035E-10 9.28367E-10
 -1       635 5.97379E+04 2.17825E+04 1.31496E+02 4.02248E+04 3.20597E-10-2.50793E-10
 -1       636 6.10812E+04 2.04319E+04 2.71664E+02 3.86744E+04-1.71573E-09 4.55657E-10
 -1       637 5.98004E+04 2.18490E+04 6.04802E+02 4.02155E+04-9.68100E-10-8.45830E-11
 -1       638 6.10641E+04 2.06345E+04 1.25140E+03 3.85850E+04-3.35069E-09-7.55108E-09
 -1       639 6.04384E+04 2.29239E+04 2.97444E+03 3.99580E+04-3.27077E-10-3.32420E-10
 -1       640 6.10696E+04 2.37673E+04 6.25410E+03 3.72786E+04-9.81345E-10-7.41124E-10
 -1       641-2.87456E+03 1.09655E+03-2.52770E+03-5.81140E+00 4.47836E-06-1.53148E-09
 -1       642-3.97219E+03-1.26913E+03-1.78847E+03 1.46747E+01 8.94897E-06-4.22017E-09
 -1       643-3.29738E+03 1.72339E+02-6.51198E+02-5.97621E+00 8.25485E-06-5.11830E-09
 -1       644-3.47920E+03-1.98910E+02-4.04898E+02 1.50313E+01 7.55533E-06-3.68663E-09
 -1       645-3.36757E+03 2.65435E+01-1.54580E+02-6.16814E+00 5.25546E-06-3.36649E-09
 -1       646-3.39553E+03-2.77950E+01-7.11518E+01 1.52925E+01 2.95034E-06 4.22423E-10
 -1       647-3.38105E+03 1.25383E+00 6.02710E+00-6.23747E+00-2.31260E-07 1.23595E-09
 -1       648-3.37055E+03 1.72452E+01 8.26149E+01 1.52813E+01-3.41520E-06 1.74933E-09
 -1       649-3.39254E+03-1.84911E+01 1.81061E+02-6.15689E+00-7.23069E-06 4.16296E-09
 -1       650-3.30460E+03 1.41524E+02 4.35998E+02 1.49479E+01-1.10459E-05 6.72383E-09
 -1       651-3.44700E+03-1.23007E+02 7.57073E+02-5.90415E+00-1.50247E-05 1.05595E-08
 -1       652-2.93061E+03 9.09588E+02 1.87429E+03 1.41807E+01-1.89994E-05 7.74310E-09
 -1       653-3.76653E+03-7.86416E+02 2.98292E+03-5.38966E+00-2.10599E-05 1.16091E-08
 -1       654-6.81537E+02 5.78949E+03 8.16485E+03 1.23992E+01-2.31114E-05 9.18601E-09
 -1       655-5.69589E+03-5.00197E+03 1.15323E+04-4.12292E+00-1.15643E-05 4.87171E-09
 -1       656 3.87481E+03-1.43732E+05-1.64339E+04 3.87994E+03 1.27329E-11 4.66116E-11
 -1       657-5.61072E+03-1.49825E+05-1.21671E+04 1.67810E+04 3.48109E-10 1.60321E-09
 -1       658 7.94415E+02-1.45848E+05-7.87804E+03 3.85275E+03-2.95728E-11 2.04091E-09
 -1       659-5.45429E+03-1.49740E+05-1.18996E+04 1.67961E+04-1.29512E-09 3.80414E-10
 -1       660 3.74951E+03-1.43824E+05-1.59296E+04 3.86495E+03-7.57609E-10 1.74327E-09
 -1       661 9.33756E+04 1.28913E+04 7.36320E+03 3.65308E+04 2.57251E-09 5.77529E-11
 -1       662 9.50005E+04 1.71278E+04 4.43416E+03 3.75683E+04 3.06947E-10 5.21197E-10
 -1       663 9.45072E+04 1.39883E+04 1.72815E+03 3.65362E+04-1.17339E-10 1.86674E-10
 -1       664 9.36778E+04 1.53500E+04 9.11964E+02 3.77769E+04 2.19370E-09-1.02500E-09
 -1       665 9.46160E+04 1.40880E+04 4.03609E+02 3.65403E+04 1.44745E-09-1.60018E-09
 -1       666 9.35513E+04 1.52022E+04 2.14881E+02 3.77861E+04-1.39977E-11-3.55376E-09
 -1       667 9.46280E+04 1.40980E+04 1.25274E+02 3.65412E+04-2.07496E-09 6.76408E-10
 -1       668 9.35403E+04 1.51919E+04 1.20568E+02 3.77863E+04-1.17624E-09 3.72093E-09
 -1       669 9.46269E+04 1.40967E+04 1.76268E+02 3.65408E+04-4.38874E-09-2.73516E-09
 -1       670 9.35633E+04 1.52130E+04 3.52710E+02 3.77885E+04-1.55946E-09-1.41443E-09
 -1       671 9.46058E+04 1.40786E+04 6.90493E+02 3.65386E+04 6.30820E-10 2.46075E-10
 -1       672 9.37829E+04 1.54703E+04 1.57686E+03 3.77740E+04 3.07500E-09 5.72982E-11
 -1       673 9.44172E+04 1.39049E+04 2.99419E+03 3.65310E+04 1.34220E-09-2.56864E-09
 -1       674 9.60757E+04 1.85549E+04 7.68776E+03 3.74144E+04 6.91030E-09 4.98153E-09
 -1       675 9.24558E+04 1.20015E+04 1.27666E+04 3.65203E+04 3.61251E-09 2.79852E-09
 -1       676 2.07388E+02-1.41898E+05-1.22381E+03-4.20083E+01 1.54721E-10-1.73536E-09
 -1       677-5.61048E+02-1.42402E+05-1.80855E+03-3.76837E+02 2.04430E-09 3.81803E-10
 -1       678 2.69491E+02-1.41837E+05-2.66436E+03-4.22729E+01 1.47691E-09 8.20872E-10
 -1       679-3.17353E+03-1.43924E+05-6.33100E+03-3.75733E+02-2.42039E-10-6.80913E-11
 -1       680 2.37414E+03-1.40376E+05-9.72096E+03-4.32828E+01-4.24279E-10-1.52302E-09
 -1       716-1.09959E-01-5.24243E-02 4.92018E+00-7.34869E-05 1.62772E-09-7.88166E-10
 -1       717 5.41488E-01 3.94886E-01 8.66536E+00 1.86765E-04 2.28724E-09-3.12531E-10
 -1       718-4.31537E-01-3.42606E-01 1.60805E+01-1.13525E-04 8.78892E-10-1.09692E-09
 -1       719 2.55686E+00 2.68980E+00 3.33540E+01-1.69527E-04-2.21787E-09-1.21486E-09
 -1       720-2.12536E+00-2.34748E+00 6.36152E+01 2.83239E-04-3.21087E-09-1.40550E-09
 -1       721 1.32333E+01 1.79223E+01 1.35957E+02-5.97977E-03-1.91280E-09-1.73529E-10
 -1       722-1.11081E+01-1.55745E+01 2.54466E+02 5.69569E-03-2.20456E-09-1.16925E-09
 -1       723 7.19481E+01 1.16944E+02 5.60499E+02-5.73813E-02 5.39396E-11-8.97195E-10
 -1       724-6.08399E+01-1.01358E+02 1.01497E+03 5.16709E-02-1.97567E-09-1.15307E-09
 -1       725 4.07529E+02 7.53569E+02 2.33920E+03-4.41287E-01-1.39041E-09-8.46597E-10
 -1       726-3.46674E+02-6.52096E+02 4.02456E+03 3.89490E-01-1.77309E-09-8.74024E-10
 -1       727 2.38461E+03 4.81876E+03 9.93544E+03-3.10415E+00-2.45021E-09-4.01656E-10
 -1       728-2.03761E+03-4.16578E+03 1.58059E+04 2.71396E+00-1.22218E-09-3.53793E-10
 -1       729 1.42954E+04 3.06677E+04 4.32526E+04-2.08788E+01 1.02009E-09 2.76486E-10
 -1       730-1.22520E+04-2.64947E+04 6.11046E+04 1.81631E+01 2.47565E-09-6.33008E-10
 -1       766-2.65000E+04-1.22646E+04 6.10941E+04-2.23415E+00-9.05493E-09-8.39600E-06
 -1       767 3.07111E+04 1.43102E+04 4.32469E+04-4.69193E+01-1.73623E-08-1.67764E-05
 -1       768-4.20398E+03-2.06614E+03 1.57553E+04 1.43756E+01-9.60335E-09-8.39659E-06
 -1       769 5.09913E+03 2.50237E+03 9.93708E+03-6.59048E+01 1.60435E-09-4.48788E-09
 -1       770-8.94133E+02-4.62243E+02 3.79753E+03 1.67502E+01-1.56660E-10 4.41117E-10
 -1       771-7.74264E+05-1.50682E+05-2.21290E+04-3.33882E+05-2.92221E-09-6.87578E-10
 -1       772-7.70816E+05-1.54143E+05-1.10832E+04-3.45250E+05-9.38599E-10 1.56160E-09
 -1       773-7.75636E+05-1.43971E+05-4.72111E+03-3.36861E+05-4.43288E-09 1.58161E-09
 -1       774-7.68180E+05-1.51598E+05-2.31192E+03-3.45851E+05-6.02540E-09 3.58159E-09
 -1       775-7.75864E+05-1.43714E+05-1.07483E+03-3.37002E+05-3.11775E-09 9.63610E-10
 -1       776-7.68059E+05-1.51505E+05-5.40131E+02-3.45935E+05 3.27418E-10-4.18595E-10
 -1       777-7.75960E+05-1.43686E+05-2.94509E+02-3.37031E+05-8.36735E-11 4.75893E-10
 -1       778-7.68087E+05-1.51493E+05-2.24506E+02-3.45990E+05-8.63565E-10 2.93426E-10
 -1       779-7.76009E+05-1.43656E+05-2.79459E+02-3.37052E+05 5.36602E-11-8.02629E-11
 -1       780-7.68134E+05-1.51486E+05-5.06785E+02-3.46034E+05-3.16504E-10-2.38742E-11
 -1       781-7.76012E+05-1.43623E+05-9.99561E+02-3.37061E+05-4.38376E-10-4.85670E-10
 -1       782-7.68309E+05-1.51571E+05-2.16514E+03-3.46064E+05-1.93722E-10-3.61524E-10
 -1       783-7.75894E+05-1.43792E+05-4.41092E+03-3.36952E+05-8.60950E-10-8.36735E-10
 -1       784-7.70698E+05-1.54115E+05-1.03938E+04-3.45778E+05-1.09674E-09-1.37061E-09
 -1       785-7.74824E+05-1.49898E+05-2.07302E+04-3.34021E+05 3.63798E-12 4.87489E-10
 -1       786 7.44444E+04-2.36320E+03 9.65565E+03-5.71127E+02 3.17755E-11-4.91127E-10
 -1       787 7.79681E+04 3.13676E+03 6.22443E+03-2.50208E+03-3.08319E-10-2.30114E-09
 -1       788 7.59126E+04-2.49754E+02 2.50408E+03-5.66829E+02-2.28795E-11-1.50351E-09
 -1       789 7.63285E+04 3.19890E+02 1.40610E+03-2.50564E+03 3.06457E-10 3.86649E-10
 -1       790 7.60833E+04-2.73916E+01 6.36562E+02-5.67512E+02-5.86908E-11-1.41128E-09
 -1       791 7.61352E+04 3.23274E+01 3.42617E+02-2.50461E+03 4.07638E-11-3.93186E-10
 -1       792 7.61055E+04-3.40859E+00 1.74899E+02-5.67857E+02-5.08749E-12-1.22098E-09
 -1       793 7.61109E+04 4.43749E+00 1.16087E+02-2.50448E+03 1.23173E-11 2.82583E-11
 -1       794 7.61075E+04-1.83603E+00 1.06593E+02-5.67643E+02 1.18035E-10-8.85088E-11
 -1       795 7.61180E+04 1.38338E+01 1.62061E+02-2.50558E+03-2.90328E-10 1.01503E-09
 -1       796 7.60987E+04-1.18174E+01 2.78493E+02-5.66758E+02 3.88837E-10-6.22343E-10
 -1       797 7.61999E+04 1.35656E+02 6.01631E+02-2.50727E+03-1.72264E-10-5.45953E-10
 -1       798 7.60263E+04-1.06403E+02 1.06602E+03-5.65946E+02-8.95056E-10-7.03778E-10
 -1       799 7.68972E+04 1.33253E+03 2.64618E+03-2.50311E+03-5.13637E-10-1.74919E-09
 -1       800 7.54025E+04-1.00477E+03 4.10345E+03-5.70955E+02 7.40101E-10-8.35144E-10
 -1       801-3.36186E+03 7.63676E+04 1.25070E+04-1.09899E+05 2.02817E-10 2.68847E-09
 -1       802 8.49988E+03 8.04275E+04 1.63535E+04-4.80502E+05 5.56793E-09 1.11686E-09
 -1       803-1.21966E+03 7.57833E+04 2.08726E+04-1.09514E+05 2.98678E-09 1.57280E-09
 -1       804 2.65287E+04 9.09822E+04 4.75926E+04-4.80478E+05 3.78350E-09-1.53796E-09
 -1       805-1.83441E+04 6.58711E+04 7.12096E+04-1.09925E+05 2.82307E-09 2.54659E-11
 -1       806-6.97101E+04-2.06586E+04-5.82265E+03-3.51694E+04 4.11447E-10 1.85537E-10
 -1       807-6.94856E+04-1.95083E+04-2.76900E+03-3.72491E+04-2.61707E-10-1.51596E-09
 -1       808-6.97044E+04-1.77442E+04-1.16535E+03-3.63914E+04-4.65775E-10-6.65636E-11
 -1       809-6.88988E+04-1.85020E+04-5.63466E+02-3.74856E+04-3.28782E-10 9.54401E-10
 -1       810-6.97213E+04-1.75549E+04-2.54388E+02-3.64760E+04-6.39716E-10 1.27307E-09
 -1       811-6.88425E+04-1.84393E+04-1.25602E+02-3.74945E+04-5.36318E-10-8.54868E-10
 -1       812-6.97264E+04-1.75507E+04-6.18661E+01-3.64794E+04-1.38402E-09-6.24937E-10
 -1       813-6.88362E+04-1.84383E+04-3.83269E+01-3.74928E+04-2.36265E-09 2.16937E-09
 -1       814-6.97268E+04-1.75525E+04-3.46371E+01-3.64789E+04 2.79840E-10 8.50366E-09
 -1       815-6.88378E+04-1.84397E+04-5.33306E+01-3.74920E+04-1.89448E-09-8.40373E-10
 -1       816-6.97236E+04-1.75553E+04-9.93156E+01-3.64771E+04-1.79659E-08 6.26346E-09
 -1       817-6.88610E+04-1.84612E+04-2.15865E+02-3.74841E+04-2.85366E-08 2.70138E-08
 -1       818-6.97137E+04-1.76313E+04-4.44434E+02-3.64473E+04-1.75949E-08 5.18207E-09
 -1       819-6.91091E+04-1.88186E+04-1.05473E+03-3.73629E+04-1.73532E-09 1.86776E-09
 -1       820-6.96897E+04-1.87641E+04-2.21708E+03-3.60079E+04-2.09229E-09 2.17437E-09
 -1       821-9.76516E+04 2.92943E+03-1.19732E+04 7.04479E+02-9.73614E-10-7.58973E-10
 -1       822-1.02018E+05-3.88941E+03-7.71856E+03 3.11523E+03-6.83997E-10-1.65994E-09
 -1       823-9.94724E+04 3.09253E+02-3.10657E+03 6.89023E+02 1.30353E-09-8.69932E-10
 -1       824-9.99874E+04-3.95312E+02-1.74622E+03 3.13454E+03-4.46875E-10-1.00692E-09
 -1       825-9.96843E+04 3.40869E+01-7.95246E+02 6.85082E+02-2.07331E-09-9.02219E-10
 -1       826-9.97500E+04-3.81500E+01-4.36747E+02 3.14072E+03-3.77622E-09 2.28727E-09
 -1       827-9.97115E+04 4.90477E+00-2.40534E+02 6.82817E+02-1.38175E-09 1.10921E-09
 -1       828-9.97233E+04-4.93532E+00-1.92835E+02 3.14432E+03-2.61862E-09 7.09932E-10
 -1       829-9.97120E+04 4.74328E+00-2.27218E+02 6.81478E+02-1.12087E-09 2.33401E-10
 -1       830-9.97478E+04-3.41098E+01-4.01735E+02 3.14577E+03 1.39922E-09 6.45652E-10
 -1       831-9.96875E+04 3.14941E+01-7.25569E+02 6.81371E+02-8.66869E-10 5.67127E-10
 -1       832-9.99647E+04-3.58651E+02-1.59012E+03 3.14464E+03-3.48201E-10 1.17359E-09
 -1       833-9.94949E+04 2.82139E+02-2.82711E+03 6.82625E+02-9.48717E-11 1.01375E-09
 -1       834-1.01813E+05-3.53784E+03-7.02399E+03 3.13568E+03 9.87328E-10 4.23825E-10
 -1       835-9.78382E+04 2.66670E+03-1.08949E+04 6.90519E+02 8.67260E-10-4.90672E-10
 -1       836-1.53127E+03 1.58148E+05 1.30410E+04-7.85273E+03-6.19366E-10 5.40922E-10
 -1       837 3.30957E+03 1.62452E+05 1.00606E+04-1.86707E+04-6.40171E-10 3.05363E-10
 -1       838-3.67741E+02 1.59559E+05 8.35976E+03-7.82969E+03-8.28095E-10 3.27621E-09
 -1       839 5.33145E+03 1.63845E+05 1.43797E+04-1.86706E+04-6.06633E-10 5.99550E-09
 -1       840-2.65301E+03 1.56755E+05 2.16144E+04-7.85267E+03-7.94898E-10 2.48008E-09
 -1       841 2.48484E+04 3.58753E+03-2.47616E+02 9.27018E+03-4.60387E-06 1.72606E-06
 -1       842 2.46837E+04 3.39374E+03-1.71036E+02 9.35241E+03-9.20066E-06 3.45369E-06
 -1       843 2.47939E+04 3.50284E+03-5.68538E+01 9.29235E+03-7.53749E-06 2.82939E-06
 -1       844 2.47487E+04 3.49013E+03-3.32900E+01 9.32454E+03-5.86611E-06 2.20399E-06
 -1       845 2.47833E+04 3.49116E+03-7.82806E+00 9.29803E+03-4.22184E-06 1.58522E-06
 -1       846 2.47634E+04 3.50441E+03 5.21267E+00 9.31649E+03-2.57953E-06 9.65900E-07
 -1       847 2.47792E+04 3.48856E+03 2.15847E+01 9.30041E+03-1.59515E-06 5.97268E-07
 -1       848 2.47760E+04 3.51898E+03 5.74513E+01 9.31166E+03-6.09576E-07 2.30336E-07
 -1       849 2.47707E+04 3.47659E+03 1.07136E+02 9.30286E+03-1.92699E-07 7.27022E-08
 -1       850 2.48314E+04 3.60866E+03 2.71483E+02 9.29653E+03 2.24571E-07-8.40478E-08
 -1       851 2.47239E+04 3.39889E+03 4.68964E+02 9.31552E+03 1.59582E-07-6.15011E-08
 -1       852 2.51640E+04 4.17878E+03 1.26642E+03 9.19607E+03 9.39154E-08-3.63843E-08
 -1       853 2.44380E+04 2.90655E+03 2.02525E+03 9.40329E+03-3.57013E-07 1.35037E-07
 -1       854 2.72138E+04 7.79065E+03 6.00546E+03 8.52116E+03-8.11365E-07 3.04445E-07
 -1       855 2.26742E+04-2.12393E+02 8.64399E+03 9.99022E+03-4.03791E-07 1.52085E-07
 -1       856-8.19595E+04 1.20697E+03-9.61289E+03 2.81800E+03-1.47634E-09-5.68434E-11
 -1       857-8.51002E+04-2.32614E+03-5.87181E+03 6.70748E+03-8.10701E-10-4.41105E-10
 -1       858-8.33160E+04 1.09923E+02-2.46803E+03 2.78932E+03-1.25465E-09-7.24299E-10
 -1       859-8.36223E+04-1.69125E+02-1.32834E+03 6.73917E+03 2.13731E-11-4.16946E-10
 -1       860-8.34441E+04 1.49630E+01-6.23265E+02 2.78599E+03 1.21781E-09-8.68056E-10
 -1       861-8.34826E+04-5.08352E+00-3.28204E+02 6.74332E+03-2.01396E-09-5.63602E-11
 -1       862-8.34600E+04 5.37977E+00-1.71799E+02 2.78514E+03 2.36463E-09-1.95826E-11
 -1       863-8.34669E+04 6.96458E+00-1.14665E+02 6.74431E+03 7.30308E-09-1.66227E-09
 -1       864-8.34615E+04 4.63972E+00-1.09314E+02 2.78500E+03 2.77585E-09-9.66480E-10
 -1       865-8.34716E+04 2.00955E+00-1.66507E+02 6.74361E+03 2.91777E-09 2.41315E-10
 -1       866-8.34544E+04 8.65131E+00-2.94687E+02 2.78584E+03-1.56444E-09-1.38822E-09
 -1       867-8.35346E+04-7.39435E+01-6.15806E+02 6.74027E+03-1.70508E-09 1.32272E-09
 -1       868-8.33951E+04 5.18888E+01-1.13916E+03 2.78836E+03 2.31933E-09 5.54223E-12
 -1       869-8.42137E+04-1.06850E+03-2.70636E+03 6.71150E+03-8.27299E-10 1.02710E-09
 -1       870-8.27694E+04 5.56548E+02-4.43009E+03 2.81477E+03 1.24828E-10 5.03860E-10
 -1       871-1.32559E+03-1.10424E+04-2.88597E+03 4.04195E+04 7.10315E-10-7.77618E-10
 -1       872-4.31691E+02-1.16037E+04-8.94623E+02 4.87643E+04 1.73259E-10 1.82285E-09
 -1       873 2.39500E+01-1.13761E+04 7.64224E+02 4.03352E+04 6.67114E-10 8.33325E-11
 -1       874 8.61174E+02-1.07017E+04 2.98464E+03 4.87976E+04 1.14937E-09-1.14676E-09
 -1       875 2.64970E+03-1.19609E+04 6.38984E+03 4.03879E+04 4.44743E-10-2.00544E-10
 -1       876 1.19872E+05 1.71808E+04 1.07104E+04 4.75665E+04-2.91686E-09 1.36970E-09
 -1       877 1.21848E+05 2.31141E+04 6.36529E+03 4.94878E+04-6.35919E-09 4.62023E-10
 -1       878 1.21460E+05 1.85143E+04 2.50572E+03 4.76521E+04-7.36009E-10-3.33807E-09
 -1       879 1.19975E+05 2.06858E+04 1.30843E+03 4.97549E+04 4.91701E-09-2.15425E-09
 -1       880 1.21605E+05 1.86336E+04 5.81602E+02 4.76642E+04 4.44055E-09 8.10473E-10
 -1       881 1.19805E+05 2.04960E+04 3.03841E+02 4.97608E+04 2.43062E-09 7.82769E-09
 -1       882 1.21620E+05 1.86470E+04 1.69411E+02 4.76668E+04 1.29472E-09-4.14806E-09
 -1       883 1.19791E+05 2.04816E+04 1.48445E+02 4.97580E+04-4.43457E-09-1.10652E-09
 -1       884 1.21618E+05 1.86468E+04 2.02885E+02 4.76669E+04-2.18635E-09-1.68367E-09
 -1       885 1.19814E+05 2.05002E+04 3.93783E+02 4.97598E+04 3.22713E-09-1.98413E-09
 -1       886 1.21597E+05 1.86301E+04 7.69946E+02 4.76643E+04 1.21125E-09 3.04539E-09
 -1       887 1.20041E+05 2.07523E+04 1.74114E+03 4.97502E+04-3.01475E-09-2.69347E-09
 -1       888 1.21403E+05 1.84716E+04 3.33780E+03 4.76481E+04-4.25241E-09-7.57836E-10
 -1       889 1.22531E+05 2.39952E+04 8.48165E+03 4.94011E+04 3.12445E-09-7.61702E-10
 -1       890 1.19292E+05 1.66880E+04 1.42717E+04 4.75257E+04 9.03924E-10-1.39335E-09
 -1       891 2.79309E+02-6.00177E+04-2.45244E+03 1.20984E+04-1.68370E-10-7.57154E-10
 -1       892-6.34002E+02-6.08163E+04-1.86483E+03 2.88319E+04-9.60654E-10-2.99650E-10
 -1       893 6.09934E+01-6.02921E+04-1.51026E+03 1.20625E+04-4.52474E-11 1.01272E-09
 -1       894-9.56338E+02-6.10342E+04-2.55050E+03 2.88247E+04 1.87583E-11 1.25669E-09
 -1       895 4.55077E+02-5.97943E+04-3.81407E+03 1.21055E+04-3.18778E-10-1.23691E-10
 -1       926-1.79918E+02-3.43333E+02 7.90490E+02 1.31759E+01 2.69499E-10-3.58455E-10
 -1       927 1.89641E+02 3.97627E+02 5.70095E+02-5.25997E+01-9.51637E-10-4.68674E-10
 -1       928-4.44083E+01-5.42844E+01 2.18983E+02 1.30299E+01-2.80975E-11-2.20616E-10
 -1       929 3.12338E+01 6.50557E+01 1.64006E+02-5.24537E+01-2.60036E-11-2.28804E-10
 -1       930-2.15493E+01-1.07987E+01 1.16144E+02 1.30298E+01-8.02276E-07 1.46190E-11
 -1       931 1.19113E+01 2.79388E+01 1.69759E+02-5.24520E+01-1.60333E-06 4.64073E-11
 -1       932-2.51151E+01-1.71547E+01 2.72406E+02 1.30282E+01-1.29576E-06-5.28644E-12
 -1       933 6.44435E+01 1.20719E+02 5.79319E+02-5.24462E+01-9.86566E-07 2.07478E-11
 -1       934-7.41005E+01-1.03556E+02 1.03862E+03 1.30240E+01-5.85386E-07-1.98952E-12
 -1       935 4.04587E+02 7.68887E+02 2.38808E+03-5.24239E+01-1.84321E-07 1.07974E-10
 -1       936-3.65252E+02-6.65214E+02 4.10641E+03 1.30060E+01-6.41605E-08 7.34417E-11
 -1       937 2.42149E+03 4.91580E+03 1.01359E+04-5.24803E+01 5.72293E-08 1.52795E-10
 -1       938-2.09067E+03-4.24964E+03 1.61242E+04 1.30804E+01-3.33459E-08-4.72937E-11
 -1       939 1.45742E+04 3.12855E+04 4.41240E+04-5.50698E+01-1.27769E-07-1.95541E-11
 -1       940-1.25121E+04-2.70286E+04 6.23340E+04 1.55952E+01-6.50295E-08 2.51021E-10
 -1       956-1.13444E+05-1.92584E+03-4.97893E+03 1.28229E+04 3.58841E-09-5.09090E-10
 -1       957-1.14440E+05-6.60491E+02-2.56228E+03 1.55176E+04 9.54697E-09 4.13820E-11
 -1       958-1.13892E+05-5.10521E+01-1.15445E+03 1.27425E+04 5.77893E-09 1.61322E-10
 -1       959-1.13972E+05-1.05230E+01-5.89684E+02 1.56048E+04-4.25871E-10-2.87628E-10
 -1       960-1.13931E+05 1.49214E+01-2.87065E+02 1.27354E+04-8.94943E-10 2.55454E-10
 -1       961-1.13938E+05 1.35761E+01-1.51263E+02 1.56126E+04-2.90447E-09-4.58158E-11
 -1       962-1.13939E+05 1.27612E+01-8.46071E+01 1.27346E+04-1.21941E-09 2.14754E-10
 -1       963-1.13937E+05 1.40862E+01-6.44571E+01 1.56136E+04-2.28965E-09 3.97563E-10
 -1       964-1.13941E+05 1.33630E+01-7.39588E+01 1.27344E+04-1.20281E-09-1.53705E-10
 -1       965-1.13941E+05 1.52258E+01-1.24238E+02 1.56135E+04 1.17920E-09-2.56478E-10
 -1       966-1.13937E+05 1.65250E+01-2.31184E+02 1.27348E+04-5.14319E-10 1.08571E-09
 -1       967-1.13970E+05-2.56894E+00-4.72859E+02 1.56086E+04 8.54584E-10-9.37007E-10
 -1       968-1.13908E+05-3.49687E+01-9.24464E+02 1.27393E+04 1.56660E-10-1.48742E-09
 -1       969-1.14348E+05-5.21900E+02-2.05187E+03 1.55525E+04 2.64890E-11-3.93811E-10
 -1       970-1.13551E+05-1.53554E+03-3.98666E+03 1.27914E+04 1.66210E-10-2.31921E-10
 -1       971-1.45817E+05 6.41179E+02-6.75338E+03 3.28782E+03-1.74805E-09 7.96263E-10
 -1       972-1.47952E+05-1.51504E+03-4.07220E+03 7.14990E+03-1.66744E-09-1.89516E-10
 -1       973-1.46750E+05 5.98790E+01-1.72947E+03 3.25087E+03-1.66574E-09 3.06727E-10
 -1       974-1.46943E+05-9.93603E+01-9.26534E+02 7.19169E+03 3.28782E-10 1.51340E-09
 -1       975-1.46835E+05 1.02012E+01-4.44166E+02 3.24582E+03 4.35193E-10 4.69356E-10
 -1       976-1.46854E+05 8.35034E-01-2.46044E+02 7.19853E+03-1.95513E-09 1.16066E-09
 -1       977-1.46845E+05 5.45098E+00-1.54600E+02 3.24399E+03 1.90346E-09 4.02480E-10
 -1       978-1.46847E+05 7.59066E+00-1.50783E+02 7.20103E+03 5.77312E-09 8.65299E-10
 -1       979-1.46844E+05 6.59395E+00-2.15519E+02 3.24331E+03 2.73711E-09 1.91420E-10
 -1       980-1.46866E+05-3.52928E+00-4.03496E+02 7.20108E+03 3.50582E-09 7.10429E-10
 -1       981-1.46827E+05 1.68306E+01-7.64968E+02 3.24394E+03 1.98838E-10 1.45872E-09
 -1       982-1.47027E+05-1.77294E+02-1.61856E+03 7.19771E+03-1.34105E-09 6.77460E-10
 -1       983-1.46680E+05 1.05998E+02-3.02984E+03 3.24674E+03 4.87262E-10-1.42495E-09
 -1       984-1.48804E+05-2.65871E+03-7.14285E+03 7.16808E+03-5.94355E-10-6.17604E-10
 -1       985-1.45044E+05 1.12840E+03-1.18457E+04 3.27412E+03 1.96633E-09 7.28505E-10
 -3
    1PSTEP                         3           2           1          
  100CL  102 3.12500E-01         568                     0    2           1
 -4  DISP        4    1
 -5  D1          1    2    1    0
 -5  D2          1    2    2    0
 -5  D3          1    2    3    0
 -5  ALL         1    2    0    0    1ALL
 -1         1 4.57559E-05 0.00000E+00 0.00000E+00
 -1         2 4.57482E-05 0.00000E+00 0.00000E+00
 -1         3 3.08236E-05-8.06488E-29 0.00000E+00
 -1         4 2.31559E-05-2.95823E-31-2.52435E-29
 -1         5 2.34368E-05 3.61086E-27 0.00000E+00
 -1         8 3.63602E-05-4.42939E-07 0.00000E+00
 -1         9 2.85376E-05-1.69741E-06 0.00000E+00
 -1        10 2.83144E-05-9.09002E-07 0.00000E+00
 -1        11 2.30134E-05-2.57179E-06 0.00000E+00
 -1        12 2.30176E-05 3.81735E-07 0.00000E+00
 -1        15 2.63223E-05-4.64085E-07 2.06795E-25
 -1        16 2.25867E-05-1.75526E-06 0.00000E+00
 -1        17 2.11077E-05-1.81751E-06 0.00000E+00
 -1        18 2.11110E-05-2.48135E-07 0.00000E+00
 -1        19 2.17663E-05 7.60893E-07 0.00000E+00
 -1        20 2.20029E-05 8.94206E-06 0.00000E+00
 -1        21 2.19740E-05 1.98613E-05 0.00000E+00
 -1        23 8.19726E-06-2.87973E-05 0.00000E+00
 -1        24 8.15432E-06-2.21675E-06 0.00000E+00
 -1        25 1.96468E-05-1.38730E-07 0.00000E+00
 -1        26 2.01747E-05 1.01607E-06 0.00000E+00
 -1        27 1.94839E-05 8.56831E-06 0.00000E+00
 -1        28 1.89018E-05 1.94918E-05 0.00000E+00
 -1        31 2.33396E-08-2.24366E-06 0.00000E+00
 -1        32 0.00000E+00 0.00000E+00 0.00000E+00
 -1        33 1.83686E-05 1.42368E-06 0.00000E+00
 -1        34 1.75741E-05 8.53689E-06 0.00000E+00
 -1        35 1.65506E-05 1.93352E-05 0.00000E+00
 -1        36 4.57503E-05 6.57987E-20 0.00000E+00
 -1        37 4.57500E-05 2.19940E-19 0.00000E+00
 -1        38 4.57494E-05 3.74954E-19 4.13590E-25
 -1        39 4.57498E-05 6.84375E-19 1.03398E-25
 -1        40 4.57503E-05 1.05461E-18-1.03398E-25
 -1        41 4.57509E-05 1.35244E-18-2.58494E-26
 -1        42 4.57516E-05 1.20740E-18-1.29247E-26
 -1        43 4.57523E-05 9.36611E-19-3.23117E-27
 -1        44 4.57530E-05 9.00938E-19-1.29247E-26
 -1        45 4.57537E-05 8.63201E-19 2.58494E-26
 -1        46 4.57543E-05 1.04267E-18 0.00000E+00
 -1        47 4.57547E-05 1.25471E-18 0.00000E+00
 -1        48 4.57551E-05 9.83058E-19-4.13590E-25
 -1        49 4.57545E-05 6.51742E-19 4.13590E-25
 -1        50 4.57542E-05 2.78533E-19 1.65436E-24
 -1        51 4.50460E-05-7.44306E-08 0.00000E+00
 -1        52 4.38699E-05-1.46450E-07 0.00000E+00
 -1        53 4.23181E-05-2.18192E-07 0.00000E+00
 -1        54 4.04857E-05-2.90515E-07 0.00000E+00
 -1        55 3.84677E-05-3.64293E-07-2.79173E-24
 -1        56 4.48253E-05-3.91322E-07-1.32349E-23
 -1        57 4.38843E-05-8.61579E-07 0.00000E+00
 -1        58 4.29599E-05-1.37004E-06 0.00000E+00
 -1        59 4.20336E-05-1.89194E-06-1.32349E-23
 -1        60 4.11005E-05-2.39623E-06 2.64698E-23
 -1        61 4.01491E-05-2.85500E-06 1.32349E-23
 -1        62 3.91711E-05-3.24314E-06 2.64698E-23
 -1        63 3.81578E-05-3.53788E-06 1.32349E-23
 -1        64 3.71034E-05-3.72305E-06-2.64698E-23
 -1        65 3.60032E-05-3.78544E-06 0.00000E+00
 -1        66 3.48554E-05-3.72084E-06 0.00000E+00
 -1        67 3.36606E-05-3.52811E-06 0.00000E+00
 -1        68 3.24212E-05-3.21606E-06-2.64698E-23
 -1        69 3.11473E-05-2.79426E-06 0.00000E+00
 -1        70 2.98382E-05-2.28516E-06 1.32349E-23
 -1        86 4.52170E-05-2.73805E-07 0.00000E+00
 -1        87 4.36090E-05-5.54230E-07 3.30872E-24
 -1        88 4.04988E-05-8.37786E-07 0.00000E+00
 -1        89 3.54807E-05-1.12906E-06 0.00000E+00
 -1        90 3.07599E-05-1.41936E-06 0.00000E+00
 -1       121 3.07536E-05-1.51433E-07 0.00000E+00
 -1       122 3.05437E-05-3.02879E-07 0.00000E+00
 -1       123 3.01943E-05-4.54362E-07-3.30872E-24
 -1       124 2.97057E-05-6.05878E-07 0.00000E+00
 -1       125 2.90788E-05-7.57469E-07 0.00000E+00
 -1       161 2.31571E-05-3.29458E-09-2.52435E-29
 -1       162 2.31608E-05-1.31666E-08 2.52435E-29
 -1       163 2.31662E-05-2.74340E-08 0.00000E+00
 -1       164 2.31724E-05-4.39144E-08-1.00974E-28
 -1       165 2.31786E-05-6.04255E-08 4.03897E-28
 -1       166 2.31840E-05-7.47851E-08-4.03897E-28
 -1       167 2.31877E-05-8.48110E-08-3.23117E-27
 -1       168 2.31890E-05-8.83197E-08 0.00000E+00
 -1       169 2.31871E-05-8.31295E-08 1.29247E-26
 -1       170 2.31811E-05-6.70526E-08 0.00000E+00
 -1       171 2.31702E-05-3.79111E-08 0.00000E+00
 -1       172 2.31537E-05 6.50866E-09 5.16988E-26
 -1       173 2.31306E-05 6.83573E-08 2.06795E-25
 -1       174 2.31007E-05 1.49994E-07 0.00000E+00
 -1       175 2.30624E-05 2.53378E-07 0.00000E+00
 -1       191 2.34251E-05 6.36357E-08 0.00000E+00
 -1       192 2.33902E-05 1.27270E-07-3.30872E-24
 -1       193 2.33319E-05 1.90902E-07 0.00000E+00
 -1       194 2.32503E-05 2.54530E-07-1.65436E-24
 -1       195 2.31455E-05 3.18146E-07 0.00000E+00
 -1       251 3.58831E-05 4.55958E-07 0.00000E+00
 -1       252 3.53937E-05-1.98714E-07 6.61744E-24
 -1       253 3.49049E-05-1.22794E-06 1.32349E-23
 -1       254 3.44141E-05-1.44400E-06-6.61744E-24
 -1       255 3.39234E-05-1.11465E-06 1.32349E-23
 -1       256 3.34320E-05-5.19869E-07-6.61744E-24
 -1       257 3.29407E-05-4.13759E-07-1.32349E-23
 -1       258 3.24487E-05-1.53948E-06 0.00000E+00
 -1       259 3.19568E-05-2.43918E-06 0.00000E+00
 -1       260 3.14652E-05-1.66005E-06 0.00000E+00
 -1       261 3.09735E-05-7.48932E-07 1.32349E-23
 -1       262 3.04826E-05-1.25557E-06 0.00000E+00
 -1       263 2.99915E-05-2.19632E-06 1.32349E-23
 -1       264 2.95032E-05-2.57788E-06 0.00000E+00
 -1       265 2.90141E-05-2.40563E-06 0.00000E+00
 -1       266 3.46872E-05-4.52995E-07-3.30872E-24
 -1       267 3.30142E-05-4.55719E-07 8.27181E-25
 -1       268 3.13412E-05-4.58920E-07 8.27181E-25
 -1       269 2.96682E-05-4.60733E-07 2.06795E-25
 -1       270 2.79953E-05-4.62520E-07 0.00000E+00
 -1       271 3.50575E-05 7.27897E-07-1.32349E-23
 -1       272 3.38766E-05 1.49715E-06 0.00000E+00
 -1       273 3.28276E-05 1.91747E-06-2.64698E-23
 -1       274 3.18888E-05 2.03302E-06 1.32349E-23
 -1       275 3.10456E-05 1.89276E-06-2.64698E-23
 -1       276 3.02789E-05 1.54625E-06 0.00000E+00
 -1       277 2.95702E-05 1.04471E-06 2.64698E-23
 -1       278 2.89000E-05 4.40355E-07 0.00000E+00
 -1       279 2.82484E-05-2.13891E-07-2.64698E-23
 -1       280 2.75956E-05-8.64723E-07-1.32349E-23
 -1       281 2.69217E-05-1.45891E-06 2.64698E-23
 -1       282 2.62074E-05-1.94353E-06 0.00000E+00
 -1       283 2.54328E-05-2.26656E-06 0.00000E+00
 -1       284 2.45817E-05-2.37616E-06-1.32349E-23
 -1       285 2.36318E-05-2.22413E-06 0.00000E+00
 -1       286 2.85169E-05-8.47845E-07 0.00000E+00
 -1       287 2.85030E-05-2.43655E-07-8.27181E-25
 -1       288 2.84887E-05 1.20027E-07 0.00000E+00
 -1       289 2.84758E-05 2.48193E-07 0.00000E+00
 -1       290 2.84629E-05 1.71579E-07-4.13590E-25
 -1       291 2.84502E-05-7.89619E-08 0.00000E+00
 -1       292 2.84376E-05-4.53735E-07 0.00000E+00
 -1       293 2.84249E-05-9.02982E-07 0.00000E+00
 -1       294 2.84122E-05-1.36888E-06 0.00000E+00
 -1       295 2.83996E-05-1.79361E-06-2.06795E-25
 -1       296 2.83869E-05-2.12380E-06 4.13590E-25
 -1       297 2.83741E-05-2.30612E-06 0.00000E+00
 -1       298 2.83612E-05-2.30328E-06 8.27181E-25
 -1       299 2.83473E-05-2.07807E-06 0.00000E+00
 -1       300 2.83336E-05-1.61757E-06-3.30872E-24
 -1       301 2.75418E-05-1.71061E-06 3.30872E-24
 -1       302 2.65378E-05-1.71653E-06 8.27181E-25
 -1       303 2.55329E-05-1.72155E-06 0.00000E+00
 -1       304 2.45346E-05-1.72716E-06-1.65436E-24
 -1       305 2.35501E-05-1.73485E-06 0.00000E+00
 -1       306 2.78427E-05-1.06229E-06 1.32349E-23
 -1       307 2.72592E-05-7.54179E-07 0.00000E+00
 -1       308 2.67790E-05-7.20324E-07 0.00000E+00
 -1       309 2.63813E-05-9.11025E-07 0.00000E+00
 -1       310 2.60483E-05-1.27477E-06 1.32349E-23
 -1       311 2.57605E-05-1.75983E-06 0.00000E+00
 -1       312 2.54984E-05-2.31396E-06 0.00000E+00
 -1       313 2.52426E-05-2.88472E-06 0.00000E+00
 -1       314 2.49734E-05-3.41958E-06 0.00000E+00
 -1       315 2.46711E-05-3.86614E-06 0.00000E+00
 -1       316 2.43163E-05-4.17237E-06 0.00000E+00
 -1       317 2.38899E-05-4.28667E-06-6.61744E-24
 -1       318 2.33727E-05-4.15827E-06 1.32349E-23
 -1       319 2.27477E-05-3.73669E-06 6.61744E-24
 -1       320 2.19940E-05-2.97388E-06 0.00000E+00
 -1       336 2.74137E-05-1.06062E-06 3.30872E-24
 -1       337 2.63834E-05-1.21244E-06 1.65436E-24
 -1       338 2.52304E-05-1.36432E-06-3.30872E-24
 -1       339 2.39618E-05-1.51599E-06 1.65436E-24
 -1       340 2.25851E-05-1.66785E-06 0.00000E+00
 -1       356 2.30134E-05-2.37932E-06 0.00000E+00
 -1       357 2.30133E-05-2.18355E-06 0.00000E+00
 -1       358 2.30133E-05-1.98542E-06 0.00000E+00
 -1       359 2.30133E-05-1.78586E-06 0.00000E+00
 -1       360 2.30133E-05-1.58580E-06 8.07794E-28
 -1       361 2.30133E-05-1.38617E-06 0.00000E+00
 -1       362 2.30133E-05-1.18790E-06-3.23117E-27
 -1       363 2.30132E-05-9.91921E-07-3.23117E-27
 -1       364 2.30132E-05-7.99162E-07-1.29247E-26
 -1       365 2.30132E-05-6.10556E-07 1.29247E-26
 -1       366 2.30133E-05-4.27034E-07 5.16988E-26
 -1       367 2.30134E-05-2.49524E-07 0.00000E+00
 -1       368 2.30135E-05-7.89586E-08-2.06795E-25
 -1       369 2.30142E-05 8.37293E-08 0.00000E+00
 -1       370 2.30146E-05 2.37606E-07-8.27181E-25
 -1       376 2.29424E-05-2.38261E-06 0.00000E+00
 -1       377 2.28727E-05-2.19669E-06-2.52435E-29
 -1       378 2.28037E-05-2.01280E-06 0.00000E+00
 -1       379 2.27350E-05-1.82968E-06 0.00000E+00
 -1       380 2.26661E-05-1.64610E-06 0.00000E+00
 -1       381 2.25966E-05-1.46080E-06 4.03897E-28
 -1       382 2.25260E-05-1.27255E-06 0.00000E+00
 -1       383 2.24538E-05-1.08011E-06 0.00000E+00
 -1       384 2.23796E-05-8.82218E-07 0.00000E+00
 -1       385 2.23029E-05-6.77639E-07 6.46235E-27
 -1       386 2.22232E-05-4.65130E-07 0.00000E+00
 -1       387 2.21401E-05-2.43426E-07 0.00000E+00
 -1       388 2.20531E-05-1.13038E-08 0.00000E+00
 -1       389 2.19621E-05 2.32590E-07-1.03398E-25
 -1       390 2.18660E-05 4.89357E-07 0.00000E+00
 -1       406 2.28670E-05 4.45311E-07 0.00000E+00
 -1       407 2.26933E-05 5.08880E-07 0.00000E+00
 -1       408 2.24964E-05 5.72402E-07 0.00000E+00
 -1       409 2.22762E-05 6.35777E-07 0.00000E+00
 -1       410 2.20328E-05 6.98851E-07-1.65436E-24
 -1       501 2.24984E-05 8.34761E-07 0.00000E+00
 -1       502 2.24058E-05 6.72648E-06-1.65436E-24
 -1       503 2.23084E-05 1.33739E-05 0.00000E+00
 -1       504 2.22226E-05 1.82290E-05 0.00000E+00
 -1       505 2.21462E-05 1.97139E-05 3.30872E-24
 -1       506 2.20655E-05 1.62624E-05 0.00000E+00
 -1       507 2.19657E-05 8.96581E-06 1.65436E-24
 -1       508 2.18431E-05-1.07171E-06 0.00000E+00
 -1       509 2.17193E-05-1.12540E-05-1.65436E-24
 -1       510 2.16165E-05-1.89844E-05 0.00000E+00
 -1       511 2.15339E-05-2.30021E-05-1.65436E-24
 -1       512 2.14585E-05-2.20584E-05 0.00000E+00
 -1       513 2.13749E-05-1.75755E-05 1.65436E-24
 -1       514 2.12798E-05-1.09874E-05 0.00000E+00
 -1       515 2.11875E-05-4.87498E-06 0.00000E+00
 -1       521 2.15198E-05-1.28122E-06-1.32349E-23
 -1       522 2.05398E-05-1.10377E-06 0.00000E+00
 -1       523 1.96518E-05-1.17024E-06 0.00000E+00
 -1       524 1.88348E-05-1.43541E-06 0.00000E+00
 -1       525 1.80736E-05-1.85040E-06-2.64698E-23
 -1       526 1.73496E-05-2.36628E-06 0.00000E+00
 -1       527 1.66445E-05-2.93318E-06 2.64698E-23
 -1       528 1.59397E-05-3.50101E-06-1.32349E-23
 -1       529 1.52165E-05-4.01964E-06-2.64698E-23
 -1       530 1.44563E-05-4.43933E-06 0.00000E+00
 -1       531 1.36407E-05-4.71102E-06 0.00000E+00
 -1       532 1.27522E-05-4.78665E-06-1.32349E-23
 -1       533 1.17730E-05-4.61972E-06-2.64698E-23
 -1       534 1.06891E-05-4.16452E-06-1.32349E-23
 -1       535 9.48062E-06-3.37957E-06-1.32349E-23
 -1       536 2.11026E-05-4.72421E-07 0.00000E+00
 -1       537 2.11020E-05 5.48915E-07-4.13590E-25
 -1       538 2.11016E-05 1.28007E-06 0.00000E+00
 -1       539 2.11019E-05 1.75487E-06 0.00000E+00
 -1       540 2.11024E-05 2.00709E-06 2.06795E-25
 -1       541 2.11030E-05 2.07051E-06 0.00000E+00
 -1       542 2.11037E-05 1.97891E-06 0.00000E+00
 -1       543 2.11044E-05 1.76606E-06 0.00000E+00
 -1       544 2.11051E-05 1.46575E-06 2.58494E-26
 -1       545 2.11058E-05 1.11176E-06-3.23117E-27
 -1       546 2.11064E-05 7.37852E-07 5.16988E-26
 -1       547 2.11071E-05 3.77821E-07 0.00000E+00
 -1       548 2.11079E-05 6.54356E-08-2.06795E-25
 -1       549 2.11087E-05-1.65530E-07 0.00000E+00
 -1       550 2.11095E-05-2.81277E-07 0.00000E+00
 -1       551 1.91833E-05-1.88175E-06-8.27181E-25
 -1       552 1.70238E-05-1.94507E-06 2.06795E-25
 -1       553 1.47342E-05-2.00875E-06 0.00000E+00
 -1       554 1.24216E-05-2.07350E-06-3.30872E-24
 -1       555 1.01932E-05-2.13999E-06 0.00000E+00
 -1       556 2.05699E-05-5.33261E-07 0.00000E+00
 -1       557 2.01471E-05 4.52520E-07 0.00000E+00
 -1       558 1.98263E-05 1.16789E-06 0.00000E+00
 -1       559 1.95960E-05 1.64348E-06 0.00000E+00
 -1       560 1.94442E-05 1.90989E-06 0.00000E+00
 -1       561 1.93594E-05 1.99796E-06-1.65436E-24
 -1       562 1.93300E-05 1.93852E-06 0.00000E+00
 -1       563 1.93443E-05 1.76246E-06 0.00000E+00
 -1       564 1.93908E-05 1.50064E-06 0.00000E+00
 -1       565 1.94579E-05 1.18396E-06 8.27181E-25
 -1       566 1.95339E-05 8.43323E-07-1.65436E-24
 -1       567 1.96074E-05 5.09626E-07-4.13590E-25
 -1       568 1.96667E-05 2.13765E-07-2.32645E-25
 -1       569 1.97005E-05-1.33974E-08-2.06795E-25
 -1       570 1.96972E-05-1.41013E-07 0.00000E+00
 -1       571 2.11505E-05-1.64480E-07 4.13590E-25
 -1       572 2.11911E-05-1.08037E-07-2.06795E-25
 -1       573 2.12320E-05-7.37993E-08-4.13590E-25
 -1       574 2.12730E-05-5.65099E-08-8.27181E-25
 -1       575 2.13141E-05-5.08879E-08-8.27181E-25
 -1       576 2.13552E-05-5.16182E-08 8.27181E-25
 -1       577 2.13964E-05-5.33836E-08 1.65436E-24
 -1       578 2.14375E-05-5.08620E-08 0.00000E+00
 -1       579 2.14786E-05-3.87312E-08 0.00000E+00
 -1       580 2.15198E-05-1.16687E-08-8.27181E-25
 -1       581 2.15609E-05 3.56465E-08-3.30872E-24
 -1       582 2.16020E-05 1.08531E-07 0.00000E+00
 -1       583 2.16431E-05 2.12295E-07-3.30872E-24
 -1       584 2.16842E-05 3.52194E-07 0.00000E+00
 -1       585 2.17253E-05 5.33454E-07 0.00000E+00
 -1       586 2.09028E-05-2.29517E-07 0.00000E+00
 -1       587 2.06620E-05-2.10814E-07 0.00000E+00
 -1       588 2.04021E-05-1.92142E-07 0.00000E+00
 -1       589 2.01370E-05-1.73641E-07 5.16988E-26
 -1       590 1.98807E-05-1.55509E-07 0.00000E+00
 -1       591 2.10474E-05-1.49296E-07 0.00000E+00
 -1       592 2.09887E-05-6.95013E-08 0.00000E+00
 -1       593 2.09355E-05-4.88208E-09 8.27181E-25
 -1       594 2.08864E-05 4.80047E-08 0.00000E+00
 -1       595 2.08403E-05 9.26139E-08 8.27181E-25
 -1       596 2.07961E-05 1.32372E-07 0.00000E+00
 -1       597 2.07523E-05 1.70701E-07 0.00000E+00
 -1       598 2.07078E-05 2.11020E-07 0.00000E+00
 -1       599 2.06613E-05 2.56747E-07-8.27181E-25
 -1       600 2.06115E-05 3.11302E-07-2.06795E-25
 -1       601 2.05571E-05 3.78100E-07-4.13590E-25
 -1       602 2.04968E-05 4.60565E-07 0.00000E+00
 -1       603 2.04295E-05 5.62120E-07 4.13590E-25
 -1       604 2.03539E-05 6.86208E-07-1.03398E-25
 -1       605 2.02689E-05 8.36269E-07 2.06795E-25
 -1       606 2.17826E-05 1.07105E-06-1.65436E-24
 -1       607 2.17979E-05 1.42014E-06 8.27181E-25
 -1       608 2.18128E-05 1.80587E-06 0.00000E+00
 -1       609 2.18276E-05 2.22561E-06 0.00000E+00
 -1       610 2.18424E-05 2.67674E-06 0.00000E+00
 -1       611 2.18571E-05 3.15656E-06 0.00000E+00
 -1       612 2.18717E-05 3.66240E-06 0.00000E+00
 -1       613 2.18864E-05 4.19156E-06 0.00000E+00
 -1       614 2.19010E-05 4.74137E-06 0.00000E+00
 -1       615 2.19157E-05 5.30912E-06 0.00000E+00
 -1       616 2.19303E-05 5.89214E-06 0.00000E+00
 -1       617 2.19449E-05 6.48774E-06 0.00000E+00
 -1       618 2.19595E-05 7.09321E-06 0.00000E+00
 -1       619 2.19740E-05 7.70588E-06 0.00000E+00
 -1       620 2.19886E-05 8.32306E-06 0.00000E+00
 -1       621 2.14796E-05 8.03688E-07 1.65436E-24
 -1       622 2.11963E-05 8.46604E-07 8.27181E-25
 -1       623 2.09202E-05 8.89500E-07-1.65436E-24
 -1       624 2.06554E-05 9.32270E-07 4.13590E-25
 -1       625 2.04056E-05 9.74811E-07 0.00000E+00
 -1       626 2.16833E-05 1.09125E-06-1.65436E-24
 -1       627 2.15847E-05 1.46257E-06 0.00000E+00
 -1       628 2.14721E-05 1.87095E-06 0.00000E+00
 -1       629 2.13472E-05 2.31206E-06 0.00000E+00
 -1       630 2.12116E-05 2.78158E-06 0.00000E+00
 -1       631 2.10671E-05 3.27514E-06-1.65436E-24
 -1       632 2.09151E-05 3.78835E-06-1.65436E-24
 -1       633 2.07574E-05 4.31684E-06 8.27181E-25
 -1       634 2.05956E-05 4.85622E-06 0.00000E+00
 -1       635 2.04313E-05 5.40210E-06 0.00000E+00
 -1       636 2.02663E-05 5.95011E-06 0.00000E+00
 -1       637 2.01020E-05 6.49586E-06-4.13590E-25
 -1       638 1.99403E-05 7.03496E-06 0.00000E+00
 -1       639 1.97824E-05 7.56302E-06 2.06795E-25
 -1       640 1.96301E-05 8.07564E-06 8.27181E-25
 -1       641 2.20020E-05 9.56632E-06-1.03398E-25
 -1       642 2.20005E-05 1.02251E-05 0.00000E+00
 -1       643 2.19990E-05 1.09128E-05 0.00000E+00
 -1       644 2.19974E-05 1.16240E-05 1.29247E-26
 -1       645 2.19958E-05 1.23529E-05-2.58494E-26
 -1       646 2.19941E-05 1.30936E-05 0.00000E+00
 -1       647 2.19925E-05 1.38403E-05-5.16988E-26
 -1       648 2.19908E-05 1.45869E-05-2.58494E-26
 -1       649 2.19892E-05 1.53276E-05 0.00000E+00
 -1       650 2.19875E-05 1.60563E-05 0.00000E+00
 -1       651 2.19859E-05 1.67674E-05-1.03398E-25
 -1       652 2.19841E-05 1.74549E-05 0.00000E+00
 -1       653 2.19824E-05 1.81133E-05 2.06795E-25
 -1       654 2.19803E-05 1.87373E-05-2.06795E-25
 -1       655 2.19783E-05 1.93216E-05 0.00000E+00
 -1       656 2.14609E-05 8.88173E-06 0.00000E+00
 -1       657 2.10136E-05 8.81840E-06 0.00000E+00
 -1       658 2.06268E-05 8.75522E-06 1.65436E-24
 -1       659 2.02660E-05 8.69203E-06 8.27181E-25
 -1       660 1.98965E-05 8.62871E-06 8.27181E-25
 -1       661 2.18156E-05 9.57974E-06 0.00000E+00
 -1       662 2.16218E-05 1.02397E-05 8.27181E-25
 -1       663 2.14213E-05 1.09173E-05-1.65436E-24
 -1       664 2.12159E-05 1.16086E-05 0.00000E+00
 -1       665 2.10069E-05 1.23094E-05-1.65436E-24
 -1       666 2.07959E-05 1.30158E-05 0.00000E+00
 -1       667 2.05844E-05 1.37236E-05 0.00000E+00
 -1       668 2.03738E-05 1.44289E-05-8.27181E-25
 -1       669 2.01658E-05 1.51276E-05-1.65436E-24
 -1       670 1.99617E-05 1.58157E-05 8.27181E-25
 -1       671 1.97631E-05 1.64890E-05 0.00000E+00
 -1       672 1.95714E-05 1.71436E-05-8.27181E-25
 -1       673 1.93883E-05 1.77753E-05-1.65436E-24
 -1       674 1.92149E-05 1.83801E-05 4.13590E-25
 -1       675 1.90532E-05 1.89540E-05 0.00000E+00
 -1       676 2.14567E-05 1.97993E-05-1.65436E-24
 -1       677 2.09403E-05 1.97372E-05-8.27181E-25
 -1       678 2.04257E-05 1.96752E-05 0.00000E+00
 -1       679 1.99138E-05 1.96134E-05 0.00000E+00
 -1       680 1.94055E-05 1.95517E-05 0.00000E+00
 -1       716 8.19594E-06-2.71360E-05 0.00000E+00
 -1       717 8.19461E-06-2.54747E-05 0.00000E+00
 -1       718 8.19329E-06-2.38134E-05-8.07794E-28
 -1       719 8.19196E-06-2.21522E-05 0.00000E+00
 -1       720 8.19063E-06-2.04909E-05-3.23117E-27
 -1       721 8.18930E-06-1.88296E-05 0.00000E+00
 -1       722 8.18796E-06-1.71683E-05 0.00000E+00
 -1       723 8.18660E-06-1.55070E-05 0.00000E+00
 -1       724 8.18522E-06-1.38457E-05 0.00000E+00
 -1       725 8.18374E-06-1.21844E-05 0.00000E+00
 -1       726 8.18220E-06-1.05231E-05 0.00000E+00
 -1       727 8.18019E-06-8.86186E-06 0.00000E+00
 -1       728 8.17812E-06-7.20058E-06-8.27181E-25
 -1       729 8.17373E-06-5.53929E-06 0.00000E+00
 -1       730 8.17012E-06-3.87800E-06 0.00000E+00
 -1       766 6.53078E-06-2.23249E-06 0.00000E+00
 -1       767 4.98281E-06-2.23593E-06-8.27181E-25
 -1       768 3.53427E-06-2.24001E-06 0.00000E+00
 -1       769 2.20903E-06-2.24161E-06 0.00000E+00
 -1       770 1.03082E-06-2.24293E-06 0.00000E+00
 -1       771 7.20748E-06-9.00536E-07 1.32349E-23
 -1       772 6.35947E-06 1.39767E-07 0.00000E+00
 -1       773 5.60513E-06 9.28971E-07 0.00000E+00
 -1       774 4.93514E-06 1.49245E-06-6.61744E-24
 -1       775 4.34024E-06 1.85565E-06 1.32349E-23
 -1       776 3.81085E-06 2.04420E-06 0.00000E+00
 -1       777 3.33734E-06 2.08376E-06 0.00000E+00
 -1       778 2.91007E-06 2.00010E-06 0.00000E+00
 -1       779 2.51933E-06 1.81902E-06-1.32349E-23
 -1       780 2.15544E-06 1.56638E-06 0.00000E+00
 -1       781 1.80871E-06 1.26808E-06 0.00000E+00
 -1       782 1.46946E-06 9.50031E-07 0.00000E+00
 -1       783 1.12804E-06 6.38178E-07 1.32349E-23
 -1       784 7.75043E-07 3.58497E-07 0.00000E+00
 -1       785 4.01011E-07 1.36933E-07 0.00000E+00
 -1       786 1.96778E-05-2.19056E-09 0.00000E+00
 -1       787 1.97107E-05 1.01658E-07 0.00000E+00
 -1       788 1.97435E-05 1.77981E-07-8.27181E-25
 -1       789 1.97767E-05 2.31957E-07 0.00000E+00
 -1       790 1.98099E-05 2.68755E-07-8.27181E-25
 -1       791 1.98432E-05 2.93538E-07-4.13590E-25
 -1       792 1.98765E-05 3.11468E-07-8.27181E-25
 -1       793 1.99098E-05 3.27701E-07-4.13590E-25
 -1       794 1.99431E-05 3.47398E-07 0.00000E+00
 -1       795 1.99764E-05 3.75715E-07 0.00000E+00
 -1       796 2.00096E-05 4.17814E-07 0.00000E+00
 -1       797 2.00429E-05 4.78862E-07 4.13590E-25
 -1       798 2.00762E-05 5.64029E-07 0.00000E+00
 -1       799 2.01093E-05 6.78494E-07 0.00000E+00
 -1       800 2.01424E-05 8.27449E-07-8.27181E-25
 -1       801 1.80027E-05-1.09351E-07 0.00000E+00
 -1       802 1.43886E-05-8.28355E-08 0.00000E+00
 -1       803 9.79209E-06-6.00523E-08 0.00000E+00
 -1       804 5.20259E-06-3.91641E-08 0.00000E+00
 -1       805 1.60929E-06-1.45832E-08 0.00000E+00
 -1       806 1.95595E-05-1.72664E-08 0.00000E+00
 -1       807 1.94773E-05 8.74414E-08-8.27181E-25
 -1       808 1.94000E-05 1.78404E-07 0.00000E+00
 -1       809 1.93265E-05 2.58523E-07 0.00000E+00
 -1       810 1.92560E-05 3.30691E-07 1.65436E-24
 -1       811 1.91873E-05 3.97794E-07 0.00000E+00
 -1       812 1.91195E-05 4.62714E-07 0.00000E+00
 -1       813 1.90514E-05 5.28331E-07-4.13590E-25
 -1       814 1.89819E-05 5.97528E-07 0.00000E+00
 -1       815 1.89101E-05 6.73184E-07 0.00000E+00
 -1       816 1.88347E-05 7.58177E-07-8.27181E-25
 -1       817 1.87548E-05 8.55388E-07 2.06795E-25
 -1       818 1.86692E-05 9.67694E-07-4.13590E-25
 -1       819 1.85769E-05 1.09796E-06-2.06795E-25
 -1       820 1.84769E-05 1.24904E-06 0.00000E+00
 -1       821 2.01340E-05 1.26074E-06 0.00000E+00
 -1       822 2.00908E-05 1.56609E-06-4.13590E-25
 -1       823 2.00477E-05 1.92569E-06 0.00000E+00
 -1       824 2.00043E-05 2.33306E-06 0.00000E+00
 -1       825 1.99607E-05 2.78169E-06 0.00000E+00
 -1       826 1.99171E-05 3.26506E-06 0.00000E+00
 -1       827 1.98734E-05 3.77664E-06-1.65436E-24
 -1       828 1.98297E-05 4.30988E-06 0.00000E+00
 -1       829 1.97860E-05 4.85822E-06 0.00000E+00
 -1       830 1.97423E-05 5.41510E-06 0.00000E+00
 -1       831 1.96986E-05 5.97397E-06 0.00000E+00
 -1       832 1.96550E-05 6.52825E-06 0.00000E+00
 -1       833 1.96114E-05 7.07137E-06 0.00000E+00
 -1       834 1.95682E-05 7.59679E-06 0.00000E+00
 -1       835 1.95250E-05 8.09794E-06-4.13590E-25
 -1       836 1.99178E-05 1.08299E-06 0.00000E+00
 -1       837 1.96085E-05 1.15217E-06-8.27181E-25
 -1       838 1.92728E-05 1.22126E-06-1.65436E-24
 -1       839 1.89368E-05 1.29010E-06 8.27181E-25
 -1       840 1.86267E-05 1.35896E-06 0.00000E+00
 -1       841 2.00928E-05 1.27193E-06 0.00000E+00
 -1       842 1.99809E-05 1.60792E-06 0.00000E+00
 -1       843 1.98451E-05 2.00734E-06 0.00000E+00
 -1       844 1.96917E-05 2.45350E-06 0.00000E+00
 -1       845 1.95248E-05 2.93592E-06 4.13590E-25
 -1       846 1.93481E-05 3.44414E-06 0.00000E+00
 -1       847 1.91644E-05 3.97110E-06 4.13590E-25
 -1       848 1.89763E-05 4.50974E-06 2.06795E-25
 -1       849 1.87859E-05 5.05450E-06 0.00000E+00
 -1       850 1.85953E-05 5.59979E-06-2.06795E-25
 -1       851 1.84066E-05 6.14018E-06 0.00000E+00
 -1       852 1.82216E-05 6.67020E-06 0.00000E+00
 -1       853 1.80431E-05 7.18306E-06-2.06795E-25
 -1       854 1.78733E-05 7.67185E-06 0.00000E+00
 -1       855 1.77163E-05 8.12671E-06-2.06795E-25
 -1       856 1.94497E-05 9.06173E-06-2.06795E-25
 -1       857 1.94135E-05 9.62460E-06 0.00000E+00
 -1       858 1.93772E-05 1.02475E-05 0.00000E+00
 -1       859 1.93407E-05 1.09211E-05-4.13590E-25
 -1       860 1.93040E-05 1.16357E-05 8.27181E-25
 -1       861 1.92673E-05 1.23820E-05 0.00000E+00
 -1       862 1.92306E-05 1.31503E-05-8.27181E-25
 -1       863 1.91939E-05 1.39313E-05 4.13590E-25
 -1       864 1.91571E-05 1.47153E-05 0.00000E+00
 -1       865 1.91203E-05 1.54929E-05 4.13590E-25
 -1       866 1.90836E-05 1.62546E-05 0.00000E+00
 -1       867 1.90469E-05 1.69909E-05 0.00000E+00
 -1       868 1.90103E-05 1.76922E-05-8.27181E-25
 -1       869 1.89738E-05 1.83491E-05 0.00000E+00
 -1       870 1.89373E-05 1.89521E-05 0.00000E+00
 -1       871 1.91071E-05 8.56407E-06 0.00000E+00
 -1       872 1.87779E-05 8.55923E-06 0.00000E+00
 -1       873 1.84783E-05 8.55424E-06 0.00000E+00
 -1       874 1.81900E-05 8.54904E-06-1.03398E-25
 -1       875 1.78947E-05 8.54359E-06 2.06795E-25
 -1       876 1.93611E-05 9.07365E-06-1.65436E-24
 -1       877 1.92204E-05 9.63326E-06 0.00000E+00
 -1       878 1.90622E-05 1.02397E-05-1.65436E-24
 -1       879 1.88893E-05 1.08862E-05-8.27181E-25
 -1       880 1.87039E-05 1.15662E-05 0.00000E+00
 -1       881 1.85085E-05 1.22728E-05 8.27181E-25
 -1       882 1.83056E-05 1.29994E-05 1.65436E-24
 -1       883 1.80978E-05 1.37393E-05 8.27181E-25
 -1       884 1.78874E-05 1.44859E-05 0.00000E+00
 -1       885 1.76770E-05 1.52324E-05 8.27181E-25
 -1       886 1.74692E-05 1.59722E-05 0.00000E+00
 -1       887 1.72663E-05 1.66986E-05 8.27181E-25
 -1       888 1.70708E-05 1.74049E-05 1.65436E-24
 -1       889 1.68851E-05 1.80844E-05 8.27181E-25
 -1       890 1.67118E-05 1.87304E-05 0.00000E+00
 -1       891 1.84665E-05 1.94659E-05-8.27181E-25
 -1       892 1.81024E-05 1.94396E-05 0.00000E+00
 -1       893 1.77691E-05 1.94133E-05 0.00000E+00
 -1       894 1.74263E-05 1.93870E-05 0.00000E+00
 -1       895 1.70335E-05 1.93607E-05-4.13590E-25
 -1       926 2.28124E-08-1.40991E-06 0.00000E+00
 -1       927 2.25687E-08-7.52600E-07 1.29247E-26
 -1       928 2.24028E-08-2.53763E-07 0.00000E+00
 -1       929 2.23235E-08 1.04603E-07 0.00000E+00
 -1       930 2.22787E-08 3.40493E-07-6.46235E-27
 -1       931 2.22532E-08 4.71904E-07 6.46235E-27
 -1       932 2.22298E-08 5.16843E-07 0.00000E+00
 -1       933 2.21863E-08 4.93313E-07 1.29247E-26
 -1       934 2.21196E-08 4.19324E-07-5.16988E-26
 -1       935 2.19503E-08 3.12882E-07 0.00000E+00
 -1       936 2.17209E-08 1.91997E-07 2.06795E-25
 -1       937 2.10162E-08 7.46799E-08 2.06795E-25
 -1       938 2.02468E-08-2.10849E-08 0.00000E+00
 -1       939 1.71085E-08-7.73069E-08-8.27181E-25
 -1       940 1.47702E-08-7.62083E-08 3.30872E-24
 -1       956 1.83201E-05 1.67934E-06 1.24077E-24
 -1       957 1.82706E-05 1.98878E-06 6.20385E-25
 -1       958 1.82209E-05 2.34618E-06-8.27181E-25
 -1       959 1.81711E-05 2.74536E-06 0.00000E+00
 -1       960 1.81213E-05 3.18014E-06-8.27181E-25
 -1       961 1.80714E-05 3.64433E-06-4.13590E-25
 -1       962 1.80216E-05 4.13170E-06 0.00000E+00
 -1       963 1.79717E-05 4.63605E-06-8.27181E-25
 -1       964 1.79218E-05 5.15117E-06-1.65436E-24
 -1       965 1.78719E-05 5.67083E-06-8.27181E-25
 -1       966 1.78220E-05 6.18884E-06-1.65436E-24
 -1       967 1.77721E-05 6.69897E-06 0.00000E+00
 -1       968 1.77222E-05 7.19500E-06 1.65436E-24
 -1       969 1.76725E-05 7.67076E-06 0.00000E+00
 -1       970 1.76229E-05 8.12005E-06 1.65436E-24
 -1       971 1.75115E-05 8.96675E-06-1.65436E-24
 -1       972 1.74475E-05 9.47271E-06 0.00000E+00
 -1       973 1.73834E-05 1.00456E-05-1.65436E-24
 -1       974 1.73192E-05 1.06761E-05 8.27181E-25
 -1       975 1.72548E-05 1.13549E-05 0.00000E+00
 -1       976 1.71905E-05 1.20727E-05 0.00000E+00
 -1       977 1.71260E-05 1.28201E-05 1.65436E-24
 -1       978 1.70616E-05 1.35877E-05-8.27181E-25
 -1       979 1.69972E-05 1.43663E-05 0.00000E+00
 -1       980 1.69327E-05 1.51463E-05 0.00000E+00
 -1       981 1.68683E-05 1.59186E-05 1.65436E-24
 -1       982 1.68040E-05 1.66737E-05-8.27181E-25
 -1       983 1.67398E-05 1.74022E-05 1.65436E-24
 -1       984 1.66758E-05 1.80948E-05-8.27181E-25
 -1       985 1.66120E-05 1.87422E-05 0.00000E+00
 -3
    1PSTEP                         4           2           1          
  100CL  102 3.12500E-01         568                     0    2           1
 -4  STRESS      6    1
 -5  SXX         1    4    1    1
 -5  SYY         1    4    2    2
 -5  SZZ         1    4    3    3
 -5  SXY         1    4    1    2
 -5  SYZ         1    4    2    3
 -5  SZX         1    4    3    1
 -1         1-8.52332E+05-3.35895E+05-1.63196E+05-4.39259E+05 6.79089E-11 1.45519E-10
 -1         2-4.43492E+04-3.56163E+05-9.30249E+02 4.30057E+03 9.56788E-10 2.71874E-10
 -1         3-1.27506E+01-4.33048E+05-6.37524E+01-6.34062E+01 3.17383E-10 3.04226E-09
 -1         4 4.25920E+00-4.64729E+00-4.79392E-01-5.36084E+00 1.50757E-09 3.91469E-10
 -1         5-3.70185E+00 1.82080E+05 9.81751E+00-1.93079E+00 1.71028E-10-2.20643E-09
 -1         8-8.17309E+05-2.74579E+05-1.14548E+05-2.99917E+05 6.13909E-10 1.51704E-09
 -1         9-8.45319E+05-3.52814E+05-1.39260E+05-1.88673E+05-5.49335E-10 1.70864E-09
 -1        10-9.11092E+03-2.55533E+05 3.16302E+04-1.39649E+03-1.51791E-09 6.36836E-10
 -1        11 1.05571E+00-1.95686E+00-6.91215E-01 3.16795E-01 9.13621E-10-4.17890E-11
 -1        12-4.22876E+03 6.89563E+04-2.31150E+04 3.30879E+03 4.77297E-09-1.03323E-09
 -1        15 1.13399E+03 6.13224E+02 3.51936E+03 8.36383E-01-3.28839E-11 2.77489E-09
 -1        16-1.01998E+06-2.69182E+05-8.83203E+04-3.35505E+05 3.56465E-10 6.95672E-09
 -1        17-2.19774E+05-1.55204E+05-2.03914E+04-1.35719E+05-2.20704E-09 1.40002E-09
 -1        18 1.43741E+04 4.74120E+03-5.25910E+03-3.88794E+04 1.58821E-10 1.33014E-10
 -1        19 4.10308E+04 4.79926E+04-4.84208E+03 4.88994E+03 1.45125E-09 1.21145E-09
 -1        20 2.62114E+04-3.83549E+04-8.73913E+03 1.89499E+04 1.67375E-09 4.29281E-10
 -1        21-4.01991E+02-6.78159E+04 1.98199E+04-2.33556E+02 8.63858E-09-2.06701E-09
 -1        23 2.74904E-01 1.30961E-01 5.03607E+00 2.29712E-04 4.45228E-09 9.19633E-10
 -1        24-5.25266E+05-1.57845E+05 3.59708E+04-2.82868E+05-1.88084E-09-3.72529E-10
 -1        25 1.24037E+03 1.34572E+04 9.76657E+03-1.65008E+05 4.81032E-10 1.20053E-10
 -1        26-5.30276E+02 4.41149E+04 9.06954E+02-7.61815E+03-2.56951E-10 1.90682E-09
 -1        27-1.06718E+04-2.85435E+04-1.27068E+04 3.15097E+04 2.21712E-09-1.50067E-09
 -1        28-5.15564E+03-5.32002E+04-2.66358E+03 1.93904E+04 4.27144E-09 5.96181E-10
 -1        31 1.74496E+03 2.01325E+03 2.98750E+03-7.58965E+01 1.51302E-09-7.86088E-10
 -1        32-2.30082E+05 3.84626E+04 1.37060E+05-3.37316E+05-1.82631E-09 1.74623E-10
 -1        33-5.28223E+04 5.45591E+04 1.66579E+04-1.62251E+04 9.78844E-11-8.59169E-10
 -1        34-6.75429E+04-3.47407E+03 4.53207E+03 2.28353E+04 1.41430E-09 1.03682E-09
 -1        35-1.31634E+04-1.52276E+04-5.02058E+02 3.06644E+04 6.55357E-11-3.32269E-10
 -1        36-4.58645E+03-1.45094E+04 3.34588E+04 1.13379E-07 3.87037E-11-7.00311E-10
 -1        37 9.95289E+03 1.67943E+04 2.36898E+04 5.00506E-08-2.04930E-10 1.59707E-09
 -1        38 1.00828E+03-2.28144E+03 8.66422E+03 2.38505E-07-1.77965E-10-3.51520E-09
 -1        39 3.43151E+03 2.64037E+03 5.45977E+03-5.46260E-07-5.41087E-11-2.78544E-09
 -1        40 1.93335E+03-3.58448E+02 2.24045E+03-3.57635E-07-2.75247E-11 3.92902E-10
 -1        41 2.35501E+03 4.22984E+02 1.35924E+03 5.37852E-07-5.90872E-11 1.33643E-09
 -1        42 2.08470E+03-6.44764E+01 7.02350E+02 7.95736E-08 2.13435E-11 1.70527E-09
 -1        43 2.20507E+03 1.31399E+02 6.29757E+02-8.97267E-07-9.76415E-11 2.43834E-09
 -1        44 2.08329E+03-6.69101E+01 7.23930E+02-1.55268E-07 5.13601E-11 1.40929E-09
 -1        45 2.36621E+03 4.43858E+02 1.42176E+03-6.37454E-07-6.37286E-11-1.04311E-09
 -1        46 1.92357E+03-3.76887E+02 2.35282E+03-4.43480E-07 4.87774E-11-2.24907E-09
 -1        47 3.49909E+03 2.77701E+03 5.74074E+03 6.61522E-08 2.76606E-10 1.74884E-09
 -1        48 9.50494E+02-2.39962E+03 9.11226E+03 1.97192E-08-1.78423E-10-2.67300E-09
 -1        49 1.03584E+04 1.76645E+04 2.49167E+04-2.52412E-07 1.61397E-10 5.89807E-10
 -1        50-4.93402E+03-1.52610E+04 3.51926E+04 3.27622E-07 2.00931E-09-5.23869E-10
 -1        51 1.21334E+04-1.96786E+05 1.98971E+04-5.16469E+05 1.45519E-11-3.28873E-09
 -1        52 5.49928E+03-1.94742E+05 1.27749E+04-5.69613E+05-8.36735E-11-5.23869E-10
 -1        53 3.81353E+03-1.98509E+05 1.14657E+04-5.15138E+05-3.27418E-11-5.96629E-10
 -1        54 9.93517E+03-1.96009E+05 1.88835E+04-5.71064E+05-4.72937E-11 4.31828E-09
 -1        55 2.45241E+04-2.01962E+05 3.52167E+04-5.14929E+05-1.52795E-10 4.35830E-09
 -1        56-2.41983E+06-2.65916E+05-2.05729E+05-9.38771E+05-8.84029E-10-8.44011E-10
 -1        57-2.51903E+06-4.44347E+05-1.39957E+05-9.12508E+05 6.81212E-10 1.03319E-09
 -1        58-2.46074E+06-3.34519E+05-4.83685E+04-9.26260E+05-4.92946E-10 3.40151E-10
 -1        59-2.47175E+06-3.64187E+05-2.92701E+04-9.27086E+05-1.04774E-09-4.23643E-09
 -1        60-2.46676E+06-3.44590E+05-1.13108E+04-9.24690E+05 3.28328E-10-1.78852E-09
 -1        61-2.46511E+06-3.52125E+05-6.52941E+03-9.28503E+05-5.53882E-10 2.04511E-09
 -1        62-2.46730E+06-3.46381E+05-3.11921E+03-9.24899E+05-7.72786E-10 2.48929E-09
 -1        63-2.46512E+06-3.49727E+05-2.64692E+03-9.27640E+05 6.38693E-10 2.73802E-09
 -1        64-2.46674E+06-3.46967E+05-3.01752E+03-9.25556E+05 3.99893E-10 8.82892E-10
 -1        65-2.46724E+06-3.49828E+05-6.22037E+03-9.25996E+05 7.46038E-10-7.23844E-10
 -1        66-2.46520E+06-3.46303E+05-1.07403E+04-9.26537E+05-6.59156E-10-2.66073E-09
 -1        67-2.47528E+06-3.59506E+05-2.77602E+04-9.22641E+05 7.90465E-10-4.22460E-10
 -1        68-2.45876E+06-3.37480E+05-4.58703E+04-9.28857E+05-1.42791E-10 2.21735E-09
 -1        69-2.52113E+06-4.34506E+05-1.32714E+05-9.07667E+05-1.67302E-09 2.43017E-09
 -1        70-2.41968E+06-2.72710E+05-1.95093E+05-9.41042E+05-5.31145E-10-1.11322E-09
 -1        86 1.58081E+04-7.95134E+05-3.72723E+04-1.11421E+03 1.51158E-09-2.95427E-09
 -1        87-2.00056E+04-8.08925E+05-2.89404E+04 2.85466E+03-1.90039E-09-2.88403E-08
 -1        88 4.16844E+03-8.01552E+05-1.62140E+04 4.63180E+03-1.34558E-07-3.57867E-05
 -1        89-1.56951E+04-8.04567E+05-2.31755E+04-1.74061E+03-4.09575E-07-7.15000E-05
 -1        90 1.15097E+04-7.99486E+05-2.88386E+04 3.48120E+03-1.16485E-07-3.57916E-05
 -1       121-6.04476E+00-4.33106E+05-8.17464E+01 3.17007E+01-5.45391E-10-2.01544E-09
 -1       122-3.78178E+01-4.33064E+05-1.43583E+02-1.26444E+02-4.01137E-10-1.67017E-09
 -1       123 1.54382E+01-4.33090E+05-2.52880E+02 9.47259E+01-1.37504E-09 1.55569E-09
 -1       124-3.11541E+02-4.33225E+05-6.08331E+02-2.77756E+02-1.00701E-09 1.70462E-09
 -1       125 2.21462E+02-4.32947E+05-9.49033E+02 1.82957E+02-2.25660E-09 4.50200E-10
 -1       161-1.55381E+00 1.09097E+00-6.32297E-01 1.14501E+00 8.57491E-07-3.22734E-07
 -1       162 4.15845E+00-4.73293E+00-1.16411E+00-5.36708E+00 1.71536E-06-6.44991E-07
 -1       163-1.45302E+00 1.17685E+00-2.26004E+00 1.15115E+00 8.44828E-07-3.14353E-07
 -1       164 3.65499E+00-5.32848E+00-5.04339E+00-5.32663E+00-2.52654E-08 8.23258E-09
 -1       165-1.05041E+00 1.68662E+00-9.82148E+00 1.10448E+00-9.83391E-07 3.65755E-07
 -1       166 9.24021E-01-9.13779E+00-2.27268E+01-4.85559E+00-1.93996E-06 7.27299E-07
 -1       167 1.27814E+00 4.98586E+00-4.30649E+01 6.80330E-01-2.91003E-06 1.09056E-06
 -1       168-1.50631E+01-3.35682E+01-1.03331E+02-1.17016E+00-3.87969E-06 1.45477E-06
 -1       169 1.49368E+01 2.61143E+01-1.88325E+02-2.57970E+00-4.81912E-06 1.80590E-06
 -1       170-1.10897E+02-1.89586E+02-4.74764E+02 2.50984E+01-5.75805E-06 2.16009E-06
 -1       171 9.71116E+01 1.60984E+02-8.19293E+02-2.55802E+01-6.54838E-06 2.45418E-06
 -1       172-6.93872E+02-1.18232E+03-2.21169E+03 2.03992E+02-7.33661E-06 2.75242E-06
 -1       173 5.97918E+02 1.01871E+03-3.53710E+03-1.81412E+02-7.42121E-06 2.78113E-06
 -1       174-4.27884E+03-7.48401E+03-1.04878E+04 1.39018E+03-7.50116E-06 2.81505E-06
 -1       175 3.68232E+03 6.46180E+03-1.50950E+04-1.21129E+03-3.75028E-06 1.40585E-06
 -1       191-3.70796E+00 1.82095E+05 1.18702E+01 9.65050E-01-8.16911E-11-7.58519E-10
 -1       192-5.41324E-01 1.82081E+05 2.17872E+01-8.91053E+00-7.27880E-11-2.00794E-09
 -1       193 6.31283E+00 1.82093E+05 4.14267E+01 7.94513E+00-3.15879E-10 2.47837E-10
 -1       194 4.01737E+01 1.82095E+05 9.26139E+01-6.96885E+01-2.61309E-10 5.02041E-10
 -1       195 1.22940E+02 1.82081E+05 1.88283E+02 6.17754E+01-4.74756E-10 1.49976E-09
 -1       251-1.39020E+06 3.38411E+04-7.84785E+04-7.04527E+02 2.56065E-10 3.24872E-09
 -1       252-1.42139E+06-3.91954E+04-5.50902E+04-7.06748E+02-3.71150E-10 5.11136E-09
 -1       253-1.40239E+06 5.34842E+03-2.03075E+04 1.86667E+03-4.71907E-11 1.28694E-09
 -1       254-1.40730E+06-6.23043E+03-1.27089E+04 3.60077E+02 7.99426E-10 4.11205E-09
 -1       255-1.40426E+06 8.79477E+02-5.22819E+03-1.77128E+03-3.23940E-10-5.41377E-10
 -1       256-1.40437E+06-1.02417E+03-3.03424E+03 7.44890E+02-9.99227E-10-1.49606E-09
 -1       257-1.40532E+06 1.43082E+02-1.76979E+03 1.48183E+03-1.59616E-09 2.88424E-10
 -1       258-1.40267E+06-2.45901E+02-1.03036E+03-1.00314E+03-2.40575E-09 4.91376E-10
 -1       259-1.40595E+06 1.01718E+02-1.91764E+03-2.32239E+01-3.72827E-06-2.65590E-09
 -1       260-1.40279E+06-9.33862E+02-2.75672E+03 1.37924E+03-7.67707E-06 1.66313E-08
 -1       261-1.40520E+06 8.31020E+02-5.51932E+03-9.00577E+02-3.74970E-06-4.29191E-09
 -1       262-1.40659E+06-6.30407E+03-1.27959E+04-6.29936E+02-9.63136E-09-4.50382E-09
 -1       263-1.40217E+06 5.47078E+03-2.06679E+04 1.98599E+03-1.07200E-09-2.01635E-09
 -1       264-1.42298E+06-4.00950E+04-5.64436E+04 1.99774E+02 5.27026E-10 1.65437E-09
 -1       265-1.38884E+06 3.46176E+04-7.97921E+04-1.73041E+03-5.48413E-09 6.25732E-10
 -1       266-1.99372E+04-9.22116E+03 4.60087E+04-1.72107E+01 2.91038E-11-8.92683E-10
 -1       267 2.30884E+04 1.07659E+04 3.26401E+04 1.97908E+01-2.18279E-11-3.01676E-09
 -1       268-3.14612E+03-1.54149E+03 1.20809E+04-2.57715E+00-3.91083E-11-1.08409E-09
 -1       269 3.71372E+03 1.84826E+03 7.89568E+03 2.99604E+00 2.50111E-12 1.91895E-09
 -1       270-5.66913E+02-3.06611E+02 3.79089E+03-4.18064E-01-1.97815E-11 5.45470E-11
 -1       271-1.93496E+06-2.46441E+05-1.50059E+05-7.48833E+05 2.87400E-10 9.02219E-10
 -1       272-1.98309E+06-3.44568E+05-9.40778E+04-7.54012E+05 4.93515E-10 1.73441E-09
 -1       273-1.96099E+06-2.78565E+05-3.53854E+04-7.45007E+05 1.05524E-09 4.07817E-09
 -1       274-1.95285E+06-3.02175E+05-1.93065E+04-7.61263E+05-2.81943E-10-9.61336E-10
 -1       275-1.96423E+06-2.81582E+05-8.21769E+03-7.44344E+05-1.39744E-09-1.70940E-09
 -1       276-1.94903E+06-2.98358E+05-4.31681E+03-7.62479E+05-2.47383E-10-1.59616E-09
 -1       277-1.96481E+06-2.81704E+05-2.19289E+03-7.44085E+05 2.24645E-10-1.68484E-10
 -1       278-1.94841E+06-2.98235E+05-1.65997E+03-7.62868E+05-4.36103E-10-2.61779E-09
 -1       279-1.96489E+06-2.81633E+05-1.91790E+03-7.44004E+05-3.94010E-10-1.20963E-09
 -1       280-1.94869E+06-2.98544E+05-3.56825E+03-7.62837E+05-7.24413E-10-1.40699E-09
 -1       281-1.96453E+06-2.81428E+05-6.68109E+03-7.44104E+05 1.98952E-10-1.41654E-09
 -1       282-1.95164E+06-3.01793E+05-1.56542E+04-7.62052E+05-4.39400E-10-1.83718E-10
 -1       283-1.96197E+06-2.78918E+05-2.86567E+04-7.44571E+05-6.92182E-10 2.48656E-09
 -1       284-1.97603E+06-3.36226E+05-7.61951E+04-7.56299E+05-7.71024E-10 6.76664E-10
 -1       285-1.94093E+06-2.52870E+05-1.21532E+05-7.47631E+05-1.45519E-10-1.81899E-10
 -1       286-4.41092E+04-1.79008E+04 4.12696E+04-2.00983E+01 6.75531E-10-1.93540E-09
 -1       287-2.60852E+04 2.07203E+04 2.92337E+04-4.92770E+01 1.13072E-10-6.77119E-10
 -1       288-3.72056E+04-2.81516E+03 1.06803E+04 9.69761E+00 1.70861E-10 2.74849E-09
 -1       289-3.41455E+04 3.25752E+03 6.73815E+03-1.12849E+02 1.49001E-10 2.21007E-10
 -1       290-3.60520E+04-4.41900E+02 2.75131E+03 4.34762E+01 3.62967E-10-6.14818E-10
 -1       291-3.54996E+04 5.18701E+02 1.65935E+03-1.67733E+02 7.94036E-10 9.27685E-10
 -1       292-3.58520E+04-7.67230E+01 8.27641E+02 6.45826E+01 4.38123E-07 1.36285E-09
 -1       293-3.57073E+04 1.43539E+02 6.92750E+02-1.91678E+02 8.72807E-07-3.68671E-09
 -1       294-3.58443E+04-6.67329E+01 7.40144E+02 6.74207E+01 4.37709E-07-1.16117E-09
 -1       295-3.55511E+04 4.33482E+02 1.40358E+03-1.78435E+02 6.72719E-10-7.93392E-11
 -1       296-3.60081E+04-3.66656E+02 2.29446E+03 5.13399E+01 2.26161E-10-3.48678E-10
 -1       297-3.44278E+04 2.70081E+03 5.59262E+03-1.31565E+02 1.38205E-11 2.91959E-09
 -1       298-3.69673E+04-2.33376E+03 8.85641E+03 2.05504E+01 5.63575E-10 2.95358E-09
 -1       299-2.77391E+04 1.71769E+04 2.42367E+04-6.91028E+01 1.16893E-10 3.26463E-09
 -1       300-4.26945E+04-1.48397E+04 3.42092E+04-1.11249E+01 1.24476E-09 2.70120E-09
 -1       301 1.96045E+04-1.12020E+04 5.44487E+04-1.89946E+04 7.74889E-10-5.50853E-09
 -1       302 7.15206E+03-1.12786E+02 3.56134E+04-2.32322E+04 1.46872E-09-9.86906E-09
 -1       303 1.55574E+03-7.31183E+03 3.12545E+04-1.89930E+04 5.93445E-10 3.07409E-10
 -1       304 1.17382E+04 3.28203E+03 4.98451E+04-2.32073E+04 1.61799E-09 7.88441E-09
 -1       305 3.33396E+04-1.45833E+04 8.83247E+04-1.90049E+04 1.02591E-09 3.81010E-09
 -1       306-1.01585E+06-1.36251E+05-5.86679E+04-3.94514E+05 3.05135E-10-8.36735E-10
 -1       307-1.02458E+06-1.84539E+05-3.67587E+04-4.07993E+05-9.23478E-10 7.82165E-10
 -1       308-1.02607E+06-1.48727E+05-1.38426E+04-3.92986E+05 3.19005E-10 9.95897E-10
 -1       309-1.01279E+06-1.68010E+05-7.55715E+03-4.10887E+05 5.06361E-10 3.60160E-10
 -1       310-1.02733E+06-1.49907E+05-3.23325E+03-3.92746E+05 6.01176E-10-2.24600E-09
 -1       311-1.01137E+06-1.66469E+05-1.73093E+03-4.11318E+05 2.06910E-11-6.65096E-10
 -1       312-1.02752E+06-1.49988E+05-9.43711E+02-3.92687E+05 6.63249E-10 4.82646E-09
 -1       313-1.01122E+06-1.66340E+05-8.38887E+02-4.11360E+05 5.93786E-10 2.09684E-09
 -1       314-1.02748E+06-1.50015E+05-1.13584E+03-3.92716E+05-7.44762E-10 8.88576E-10
 -1       315-1.01151E+06-1.66433E+05-2.25392E+03-4.11175E+05 1.42336E-10 2.13231E-09
 -1       316-1.02718E+06-1.49943E+05-4.30343E+03-3.92833E+05-2.90493E-09-1.11913E-09
 -1       317-1.01346E+06-1.68457E+05-1.01056E+04-4.10543E+05-6.69547E-09-5.01586E-10
 -1       318-1.02549E+06-1.48372E+05-1.85319E+04-3.93162E+05-2.68324E-09 3.14685E-10
 -1       319-1.02923E+06-1.90608E+05-4.92183E+04-4.06696E+05-1.44041E-09-3.17141E-09
 -1       320-1.01183E+06-1.31632E+05-7.85483E+04-3.95176E+05-2.18643E-09-2.84126E-09
 -1       336 2.60281E+02-4.32915E+05-1.66278E+03-5.77751E+02-3.00417E-09 5.92536E-10
 -1       337-7.80680E+02-4.33570E+05-2.60102E+03-3.80896E+03-2.18756E-09-9.75547E-10
 -1       338 3.96074E+02-4.32796E+05-3.96264E+03-4.95112E+02-3.69391E-09 3.46972E-10
 -1       339-4.76000E+03-4.35899E+05-9.49395E+03-3.96195E+03-2.47132E-09-1.01409E-10
 -1       340 3.56740E+03-4.30598E+05-1.46110E+04-4.25800E+02-4.33192E-09 4.39809E-09
 -1       356-3.15904E-01 1.22471E-01-1.03296E+00-8.41261E-01-1.11212E-07 2.57045E-10
 -1       357-5.65429E-01-2.28432E-01-2.18293E+00 3.38590E+00-2.22923E-07 1.49209E-09
 -1       358-2.63021E-01 1.06600E-01-4.13480E+00-8.41121E-01-1.32349E-07-2.57308E-10
 -1       359-1.05575E+00-7.20872E-01-8.67790E+00 3.38579E+00-4.16535E-08-3.83508E-09
 -1       360 1.74355E-01 6.14979E-01-1.65789E+01-8.41157E-01 3.90153E-08 1.36621E-09
 -1       361-3.83283E+00-4.67721E+00-3.54566E+01 3.38591E+00 1.19906E-07 3.81758E-09
 -1       362 2.51412E+00 4.06276E+00-6.63721E+01-8.41234E-01 1.59377E-07 1.98094E-09
 -1       363-1.91393E+01-3.05038E+01-1.46197E+02 3.38766E+00 1.98620E-07 7.75820E-10
 -1       364 1.54812E+01 2.64386E+01-2.64744E+02-8.42913E-01 1.94965E-07 1.20609E-09
 -1       365-1.06658E+02-1.96561E+02-6.10154E+02 3.40028E+00 1.92300E-07 3.63313E-09
 -1       366 9.00365E+01 1.70097E+02-1.04975E+03-8.53848E-01 1.47723E-07 9.19044E-10
 -1       367-6.22325E+02-1.25693E+03-2.59153E+03 3.47577E+00 1.03969E-07-2.03644E-09
 -1       368 5.31182E+02 1.08663E+03-4.12252E+03-9.18367E-01 3.57072E-08 1.83491E-10
 -1       369-3.72911E+03-7.99953E+03-1.12817E+04 3.90638E+00-3.48067E-08-9.43828E-10
 -1       370 3.19726E+03 6.91147E+03-1.59331E+04-1.28423E+00-1.50969E-08 1.85537E-09
 -1       376-4.74533E-01 7.58153E-01-4.51012E-01 7.72718E-01 3.43780E-07-1.29178E-07
 -1       377 2.65806E+00-2.75260E+00-8.02778E-01-2.91028E+00 6.85675E-07-2.58685E-07
 -1       378-4.55604E-01 7.39240E-01-1.43251E+00 7.89060E-01 1.85341E-07-7.04131E-08
 -1       379 2.37433E+00-3.04554E+00-3.18567E+00-2.90612E+00-3.15619E-07 1.18007E-07
 -1       380-1.90774E-01 1.05114E+00-6.16534E+00 7.68546E-01-9.11189E-07 3.42912E-07
 -1       381 6.65516E-01-5.42849E+00-1.42787E+01-2.61149E+00-1.50594E-06 5.68191E-07
 -1       382 1.25325E+00 3.12201E+00-2.70378E+01 4.94515E-01-2.06791E-06 7.75866E-07
 -1       383-9.26189E+00-2.07489E+01-6.48597E+01-2.55879E-01-2.62952E-06 9.86422E-07
 -1       384 9.73659E+00 1.63699E+01-1.18260E+02-1.58632E+00-3.12083E-06 1.16852E-06
 -1       385-6.94545E+01-1.18703E+02-2.98070E+02 1.62364E+01-3.61099E-06 1.35751E-06
 -1       386 6.14455E+01 1.01065E+02-5.14393E+02-1.59927E+01-3.96736E-06 1.48844E-06
 -1       387-4.35638E+02-7.41983E+02-1.38864E+03 1.28543E+02-4.31977E-06 1.61888E-06
 -1       388 3.75920E+02 6.39563E+02-2.22080E+03-1.13856E+02-4.25309E-06 1.59353E-06
 -1       389-2.68670E+03-4.69837E+03-6.58487E+03 8.73485E+02-4.18359E-06 1.56867E-06
 -1       390 2.31258E+03 4.05687E+03-9.47773E+03-7.60657E+02-2.09127E-06 7.82295E-07
 -1       406 1.42768E+02 1.82072E+05 4.74928E+02-6.21241E+01-7.23048E-10 5.20686E-10
 -1       407 1.70983E+02 1.82171E+05 8.51206E+02 6.33390E+01-4.69299E-10-4.82032E-10
 -1       408 4.10074E+02 1.82025E+05 1.62700E+03-1.09753E+00-9.15520E-10-8.79481E-10
 -1       409 1.71074E+03 1.82677E+05 3.62990E+03-5.83262E+01-6.05269E-10-1.27284E-09
 -1       410 4.93775E+03 1.81565E+05 7.39015E+03 6.16875E+01-1.17234E-09 3.20233E-09
 -1       501-2.27855E+05-2.49319E+04 5.52620E+04-2.76407E+03 1.06108E-05-2.77396E-08
 -1       502-1.91327E+05 2.84477E+04 4.12211E+04 7.33372E+03 2.09765E-05-1.43636E-07
 -1       503-2.14398E+05-3.44752E+03 1.43742E+04-3.44017E+03 1.05590E-05-5.77602E-08
 -1       504-1.95773E+05 4.74966E+03 1.17928E+04 4.61797E+03 9.23482E-09 5.59578E-09
 -1       505-2.23381E+05-1.30719E+03 1.32568E+03-4.82807E+01 7.34445E-10-8.85393E-10
 -1       506-1.95489E+05 1.16295E+03 5.23935E+03-2.65590E+03 9.51368E-09-2.84626E-09
 -1       507-2.14650E+05 1.38867E+02 3.27694E+02 3.83297E+03 9.07299E-09-6.41364E-09
 -1       508-2.05023E+05-3.03488E+02 1.64181E+03-6.67788E+03 2.59720E-09-1.23260E-08
 -1       509-2.13858E+05 2.91602E+02-1.48993E+02 3.97386E+03 9.39967E-09-6.15428E-09
 -1       510-1.96451E+05 4.88622E+02 3.26959E+03-3.07795E+03 5.91225E-09-5.29167E-09
 -1       511-2.23216E+05-7.80492E+02-1.99426E+03 2.32879E+02-2.33547E-09-3.22686E-10
 -1       512-1.97021E+05 8.14653E+02 3.71484E+03 4.24832E+03-6.07778E-09 3.75735E-09
 -1       513-2.13313E+05-4.74586E+01 1.11314E+03-3.35171E+03-4.24252E-09 5.95287E-09
 -1       514-2.03403E+05 2.90146E+03 5.20337E+03 7.36869E+03-4.23381E-09 8.48513E-09
 -1       515-2.16879E+05-2.79332E+03 4.59538E+03-2.88754E+03-4.18198E-09 5.64933E-09
 -1       521-1.98593E+06-2.57955E+05-1.26054E+05-7.64597E+05-3.58341E-10-2.18279E-10
 -1       522-2.02378E+06-3.42990E+05-7.90307E+04-7.71946E+05 1.92813E-10-3.41242E-09
 -1       523-2.00772E+06-2.85012E+05-2.97172E+04-7.61458E+05 2.49486E-10 1.71531E-09
 -1       524-1.99853E+06-3.07222E+05-1.62269E+04-7.77844E+05-3.36058E-10 4.32919E-10
 -1       525-2.01035E+06-2.87641E+05-6.91029E+03-7.60997E+05 6.83372E-10 1.39744E-09
 -1       526-1.99549E+06-3.03819E+05-3.65836E+03-7.78615E+05-3.85967E-10-5.61840E-10
 -1       527-2.01071E+06-2.87866E+05-1.90288E+03-7.60906E+05-9.08962E-10-2.80140E-09
 -1       528-1.99520E+06-3.03481E+05-1.53291E+03-7.78636E+05-2.29250E-09-1.28603E-09
 -1       529-2.01064E+06-2.87945E+05-1.89259E+03-7.60987E+05-1.21031E-09-4.95902E-10
 -1       530-1.99575E+06-3.03533E+05-3.62297E+03-7.78261E+05-8.29004E-10-1.61776E-09
 -1       531-2.01012E+06-2.87876E+05-6.84593E+03-7.61237E+05-6.88033E-10 1.24055E-09
 -1       532-1.99901E+06-3.06623E+05-1.60570E+04-7.77152E+05 1.18325E-09 2.88674E-09
 -1       533-2.00738E+06-2.85424E+05-2.94163E+04-7.61849E+05 2.67880E-09 1.46429E-09
 -1       534-2.02427E+06-3.41729E+05-7.82017E+04-7.70969E+05 1.77175E-09-4.32919E-09
 -1       535-1.98566E+06-2.58806E+05-1.24748E+05-7.65120E+05 1.95723E-09 1.38243E-10
 -1       536-2.23163E+03-6.23525E+03 2.51927E+04-4.73631E+03 1.54614E-11-7.27596E-10
 -1       537 7.13563E+03 8.13880E+03 1.62634E+04-2.04443E+04-1.42336E-09-2.44131E-09
 -1       538 1.59103E+03-6.87726E+02 6.52131E+03-4.66636E+03-1.44610E-10 4.33829E-10
 -1       539 2.77264E+03 8.05783E+02 3.66919E+03-2.05191E+04 1.20781E-09-6.42331E-10
 -1       540 2.02651E+03-8.88734E+01 1.63986E+03-4.65978E+03-3.00133E-11-8.27754E-10
 -1       541 2.20909E+03 7.65557E+01 8.66752E+02-2.05249E+04 2.91038E-10 1.14881E-09
 -1       542 2.07792E+03-1.33458E+01 3.94078E+02-4.66058E+03-6.09361E-11 5.73039E-10
 -1       543 2.10210E+03 1.41786E+01 1.80608E+02-2.05237E+04-2.57728E-10 4.74756E-10
 -1       544 2.08431E+03 2.07390E+00 3.79636E+01-4.66104E+03 3.46290E-10-7.71536E-10
 -1       545 2.06395E+03 1.34523E+00-8.38459E+01-2.05232E+04-3.09882E-10 8.21132E-10
 -1       546 2.09428E+03 1.44772E+01-2.33206E+02-4.66109E+03 2.92431E-10 1.43933E-09
 -1       547 1.98693E+03-1.18910E+02-5.61882E+02-2.05208E+04-7.43285E-10 2.55255E-09
 -1       548 2.16696E+03 1.01812E+02-1.02121E+03-4.66349E+03-6.09361E-10 1.30876E-09
 -1       549 1.34032E+03-1.28242E+03-2.54706E+03-2.04822E+04-2.53635E-10-8.79709E-10
 -1       550 2.77395E+03 9.57881E+02-3.96355E+03-4.69959E+03 1.32786E-10-2.08502E-10
 -1       551 4.85187E+03-1.73522E+05 1.33469E+04-2.76380E+05 8.09450E-10-1.50249E-09
 -1       552 3.08397E+03-1.71254E+05 1.32078E+04-3.37255E+05-2.99042E-09 2.57842E-09
 -1       553 2.10406E+03-1.73590E+05 1.85375E+04-2.75852E+05 5.31145E-10 1.12605E-08
 -1       554 1.09694E+04-1.65579E+05 3.74896E+04-3.37328E+05-3.12866E-09 2.12422E-08
 -1       555 2.83894E+04-1.79472E+05 7.11463E+04-2.76258E+05 1.01863E-10 9.93714E-09
 -1       556-6.80729E+04-5.78753E+04 1.37960E+04-9.67261E+04 3.09228E-11 7.46513E-09
 -1       557-5.47565E+04-7.09359E+04 6.94124E+03-1.07156E+05-1.31513E-09 2.19563E-09
 -1       558-6.80091E+04-6.14081E+04 2.91502E+03-9.43946E+04 1.04774E-09 8.58427E-09
 -1       559-5.61469E+04-7.30145E+04 1.43843E+03-1.07667E+05 1.15870E-09 2.54090E-09
 -1       560-6.81271E+04-6.13847E+04 6.40695E+02-9.43933E+04 2.91038E-10-5.30690E-10
 -1       561-5.64039E+04-7.30335E+04 3.10288E+02-1.07841E+05 1.03228E-09 8.61974E-10
 -1       562-6.82360E+04-6.13008E+04 1.22141E+02-9.44709E+04 2.47383E-10 5.04428E-10
 -1       563-5.65299E+04-7.29806E+04 2.84859E+01-1.07928E+05-5.20231E-10 1.94927E-09
 -1       564-6.83005E+04-6.12528E+04-6.25312E+01-9.45182E+04-1.69621E-09 2.41471E-09
 -1       565-5.65985E+04-7.29548E+04-1.88311E+02-1.07970E+05-2.24645E-09-1.89630E-10
 -1       566-6.83088E+04-6.12320E+04-4.17360E+02-9.45321E+04-8.09905E-10 1.16506E-09
 -1       567-5.66758E+04-7.29839E+04-9.27463E+02-1.07962E+05-1.41881E-10 2.66937E-09
 -1       568-6.82181E+04-6.13316E+04-1.90525E+03-9.44770E+04-1.35742E-09-1.24055E-09
 -1       569-5.77924E+04-7.39648E+04-4.49196E+03-1.07634E+05-4.43060E-09-6.68206E-09
 -1       570-6.75512E+04-6.41374E+04-8.96973E+03-9.33195E+04-4.38376E-10 4.32010E-10
 -1       571 1.17158E+05 5.17930E+03 7.75701E+03-2.98873E+04 2.54659E-11 1.99350E-09
 -1       572 1.18326E+05 1.78985E+03 3.80327E+03-3.28270E+04 2.18279E-10 2.57251E-09
 -1       573 1.17633E+05 4.17881E+02 1.69033E+03-2.98099E+04-4.91127E-11 2.98769E-10
 -1       574 1.17773E+05 1.32697E+02 8.47197E+02-3.29134E+04-2.10093E-10-1.45110E-09
 -1       575 1.17688E+05 1.46278E+01 3.99531E+02-2.97998E+04-8.32188E-11-5.86851E-10
 -1       576 1.17701E+05 1.21487E+00 2.03046E+02-3.29249E+04 8.43556E-11-1.10595E-09
 -1       577 1.17697E+05-5.97939E+00 9.95073E+01-2.97984E+04-2.24873E-10 1.82649E-09
 -1       578 1.17693E+05-4.31210E+00 5.30868E+01-3.29262E+04 9.27685E-11 3.30147E-10
 -1       579 1.17702E+05-5.61051E+00 3.05159E+01-2.97984E+04 1.43700E-10 2.83308E-10
 -1       580 1.17699E+05-6.17747E+00 2.51389E+01-3.29243E+04 6.97128E-10 4.57476E-10
 -1       581 1.17711E+05-8.08727E+00 3.06504E+01-2.98003E+04-3.10592E-10 6.53245E-10
 -1       582 1.17715E+05-4.00982E+00 5.55871E+01-3.29061E+04-5.41149E-10 1.21508E-09
 -1       583 1.17721E+05 9.52306E+00 1.05211E+02-2.98166E+04-7.63976E-11 7.51584E-10
 -1       584 1.17766E+05 9.01693E+01 2.34920E+02-3.27691E+04-7.83984E-10 2.31125E-10
 -1       585 1.17708E+05 2.95918E+02 4.76423E+02-2.99375E+04 3.65162E-10 6.39375E-10
 -1       586 6.23914E+02 5.38389E+04 1.28936E+03-7.22390E+04 1.86901E-10 2.08456E-09
 -1       587 3.77019E+02 5.40708E+04 1.45078E+03-8.01896E+04-4.15184E-10 1.69803E-09
 -1       588 5.32832E+02 5.38028E+04 2.28843E+03-7.21432E+04 2.64663E-10 1.01243E-08
 -1       589 2.14327E+03 5.47044E+04 4.84487E+03-8.02154E+04-4.83851E-10 2.22399E-08
 -1       590 6.21095E+03 5.31885E+04 9.71117E+03-7.22120E+04 3.06954E-10 1.25540E-08
 -1       591-5.89674E+04-1.75233E+04-1.14841E+04-2.82590E+04 1.78079E-09-5.70981E-09
 -1       592-5.96913E+04-1.68837E+04-5.75896E+03-3.13629E+04 1.04949E-08 2.19632E-09
 -1       593-5.95180E+04-1.41757E+04-2.44500E+03-2.99123E+04 6.74959E-09 2.51384E-09
 -1       594-5.83952E+04-1.54444E+04-1.20066E+03-3.14778E+04-5.69344E-10-1.85205E-09
 -1       595-5.95801E+04-1.40849E+04-5.54063E+02-2.99754E+04-4.15736E-09-7.52405E-09
 -1       596-5.83058E+04-1.53940E+04-2.80214E+02-3.14647E+04-8.72376E-10 8.76526E-11
 -1       597-5.95906E+04-1.40947E+04-1.51001E+02-2.99754E+04-8.76527E-09 4.60108E-09
 -1       598-5.82965E+04-1.53946E+04-1.17834E+02-3.14606E+04-1.79075E-08 8.44318E-09
 -1       599-5.95901E+04-1.40952E+04-1.45920E+02-2.99751E+04-9.02526E-09 2.70995E-09
 -1       600-5.83045E+04-1.53947E+04-2.66907E+02-3.14635E+04-7.96717E-10 3.16766E-09
 -1       601-5.95788E+04-1.40865E+04-5.25266E+02-2.99745E+04-2.07024E-09-1.12777E-09
 -1       602-5.83894E+04-1.54416E+04-1.13737E+03-3.14735E+04 1.53750E-09 4.56907E-09
 -1       603-5.95183E+04-1.41746E+04-2.31540E+03-2.99155E+04-1.83445E-09 9.15406E-10
 -1       604-5.96296E+04-1.67904E+04-5.45306E+03-3.13475E+04-5.29599E-09-7.55244E-09
 -1       605-5.89819E+04-1.73566E+04-1.08736E+04-2.83640E+04-1.19007E-09-5.90262E-10
 -1       606 4.28747E+04-4.82958E+03-7.57170E+03 1.39700E+04-2.49929E-09-1.44883E-09
 -1       607 4.16791E+04-1.62947E+03-3.72543E+03 1.53171E+04-1.04637E-09-7.74946E-10
 -1       608 4.23762E+04-3.50133E+02-1.65916E+03 1.38742E+04 7.47605E-10 1.13994E-09
 -1       609 4.22217E+04-1.01826E+02-8.32833E+02 1.54239E+04-2.12003E-09 1.90710E-09
 -1       610 4.23116E+04-5.76058E-01-3.93648E+02 1.38621E+04-3.97176E-09 1.65733E-09
 -1       611 4.22818E+04 1.14439E+01-1.98020E+02 1.54372E+04-5.34055E-09 6.88942E-11
 -1       612 4.22977E+04 1.56047E+01-9.35721E+01 1.38608E+04-1.02045E-08 1.43700E-10
 -1       613 4.22867E+04 1.58438E+01-4.18806E+01 1.54389E+04-2.02335E-08-1.32729E-09
 -1       614 4.22916E+04 1.39631E+01-9.60786E+00 1.38604E+04-9.58835E-09-1.51999E-10
 -1       615 4.22859E+04 1.63861E+01 1.80100E+01 1.54391E+04 1.70076E-09 1.91869E-09
 -1       616 4.22868E+04 1.62915E+01 5.36916E+01 1.38605E+04-3.77213E-09 4.80441E-10
 -1       617 4.22935E+04 3.39056E+01 1.23347E+02 1.54386E+04-2.18768E-09-1.26511E-09
 -1       618 4.22759E+04 6.95332E+01 2.50107E+02 1.38608E+04-1.02557E-09 3.69369E-10
 -1       619 4.23754E+04 2.65769E+02 5.64334E+02 1.54363E+04 6.29086E-10-4.84420E-10
 -1       620 4.22002E+04 7.49053E+02 1.14799E+03 1.38623E+04 8.49127E-10-1.93609E-09
 -1       621 3.91743E+02 1.23079E+05 1.38772E+03-1.01527E+04 5.75255E-10 1.55751E-09
 -1       622 1.75629E+02 1.23358E+05 1.47811E+03-1.24261E+04-3.65844E-10 1.90585E-09
 -1       623 1.11591E+02 1.23109E+05 2.19644E+03-1.01549E+04 5.00904E-10-1.95882E-10
 -1       624 1.15775E+03 1.24087E+05 4.52768E+03-1.23866E+04-2.41016E-10-2.45973E-09
 -1       625 3.33234E+03 1.22354E+05 8.64354E+03-1.01916E+04 6.14364E-10 6.29143E-10
 -1       626 7.62918E+04 2.50152E+04-1.14204E+03 4.87154E+04-1.80989E-10 8.05812E-10
 -1       627 7.46334E+04 2.69255E+04-5.43220E+02 5.02316E+04 1.33332E-09 2.78533E-12
 -1       628 7.63566E+04 2.55119E+04-2.28186E+02 4.83847E+04 1.21827E-09 1.01863E-09
 -1       629 7.46583E+04 2.72100E+04-1.08286E+02 5.02759E+04 9.09267E-10-3.33415E-10
 -1       630 7.63556E+04 2.55441E+04-4.57629E+01 4.83547E+04-1.52113E-09-4.96155E-09
 -1       631 7.46531E+04 2.72331E+04-1.58208E+01 5.02806E+04-2.58478E-09 1.06486E-09
 -1       632 7.63506E+04 2.55454E+04 6.38184E+00 4.83504E+04 1.41563E-09 5.47345E-10
 -1       633 7.46514E+04 2.72348E+04 3.19269E+01 5.02806E+04 4.06544E-10 1.09890E-09
 -1       634 7.63456E+04 2.55426E+04 7.39782E+01 4.83494E+04 5.28871E-10 8.97558E-10
 -1       635 7.46589E+04 2.72363E+04 1.64391E+02 5.02823E+04-1.00044E-10 9.27912E-10
 -1       636 7.63382E+04 2.55477E+04 3.39591E+02 4.83449E+04-1.58775E-09-8.84938E-10
 -1       637 7.47371E+04 2.73194E+04 7.56014E+02 5.02708E+04-1.57172E-10-1.53477E-09
 -1       638 7.63172E+04 2.58008E+04 1.56422E+03 4.82334E+04-3.09115E-10 2.02363E-11
 -1       639 7.55353E+04 2.86626E+04 3.71795E+03 4.99493E+04-7.96831E-10 5.63887E-11
 -1       640 7.63250E+04 2.97162E+04 7.81732E+03 4.66005E+04-1.27829E-09-9.47011E-10
 -1       641-3.31774E+03 1.36029E+03-3.13570E+03-7.62687E+00 6.99818E-06-5.47539E-09
 -1       642-4.67912E+03-1.57437E+03-2.21859E+03 1.79234E+01 1.39834E-05-9.37177E-09
 -1       643-3.84221E+03 2.13788E+02-8.07805E+02-7.84873E+00 1.29062E-05-9.76945E-09
 -1       644-4.06765E+03-2.46743E+02-5.02201E+02 1.84223E+01 1.18245E-05-4.65243E-09
 -1       645-3.92924E+03 3.29219E+01-1.91624E+02-8.12602E+00 8.22199E-06-5.42173E-09
 -1       646-3.96389E+03-3.44386E+01-8.79678E+01 1.88005E+01 4.61831E-06-1.73677E-09
 -1       647-3.94597E+03 1.52087E+00 8.03167E+00-8.22700E+00-3.66703E-07 1.48106E-10
 -1       648-3.93278E+03 2.16506E+01 1.03709E+02 1.87828E+01-5.35562E-06 7.03028E-09
 -1       649-3.96035E+03-2.31603E+01 2.26820E+02-8.10833E+00-1.13257E-05 1.01033E-08
 -1       650-3.85018E+03 1.77210E+02 5.45979E+02 1.82921E+01-1.72937E-05 9.82115E-09
 -1       651-4.02857E+03-1.54017E+02 9.47932E+02-7.73628E+00-2.34883E-05 1.71503E-08
 -1       652-3.38182E+03 1.13888E+03 2.34680E+03 1.71540E+01-2.96778E-05 1.91081E-08
 -1       653-4.42869E+03-9.84654E+02 3.73483E+03-6.97026E+00-3.28460E-05 2.17549E-08
 -1       654-5.65672E+02 7.24889E+03 1.02231E+04 1.44598E+01-3.59978E-05 1.94256E-08
 -1       655-6.84442E+03-6.26283E+03 1.44394E+04-5.04241E+00-1.80153E-05 9.80708E-09
 -1       656 4.84232E+03-1.79670E+05-2.05444E+04 4.86566E+03-1.29239E-09 2.55795E-10
 -1       657-7.01764E+03-1.87283E+05-1.52099E+04 2.09886E+04 1.99066E-10-2.98769E-10
 -1       658 9.92405E+02-1.82316E+05-9.84791E+03 4.82936E+03 1.12436E-10 1.49498E-10
 -1       659-6.82115E+03-1.87178E+05-1.48748E+04 2.10094E+04-7.88305E-10-5.79337E-10
 -1       660 4.68629E+03-1.79785E+05-1.99123E+04 4.84500E+03-6.23913E-10 9.59517E-11
 -1       661 1.16720E+05 1.61270E+04 9.20420E+03 4.56803E+04 2.37662E-09-1.19098E-09
 -1       662 1.18750E+05 2.14232E+04 5.54282E+03 4.69769E+04 4.31868E-11 3.47109E-09
 -1       663 1.18134E+05 1.74985E+04 2.16025E+03 4.56873E+04-9.30754E-10 9.51445E-10
 -1       664 1.17097E+05 1.92006E+04 1.14000E+03 4.72373E+04 3.80122E-09-1.11991E-09
 -1       665 1.18270E+05 1.76233E+04 5.04537E+02 4.56925E+04 5.55005E-10-1.58856E-09
 -1       666 1.16939E+05 1.90158E+04 2.68620E+02 4.72487E+04 2.15466E-09 2.69005E-10
 -1       667 1.18285E+05 1.76357E+04 1.56606E+02 4.56937E+04 1.74573E-10-1.21251E-09
 -1       668 1.16925E+05 1.90029E+04 1.50726E+02 4.72489E+04 1.47310E-09-2.24397E-09
 -1       669 1.18283E+05 1.76340E+04 2.20351E+02 4.56931E+04 2.05330E-09 1.15550E-08
 -1       670 1.16954E+05 1.90296E+04 4.40927E+02 4.72520E+04-1.89218E-09-4.10876E-09
 -1       671 1.18257E+05 1.76111E+04 8.63165E+02 4.56901E+04-7.85570E-09-9.38269E-09
 -1       672 1.17228E+05 1.93516E+04 1.97121E+03 4.72346E+04-4.40320E-09-8.37417E-10
 -1       673 1.18022E+05 1.73937E+04 3.74293E+03 4.56803E+04-4.15483E-09 1.19189E-09
 -1       674 1.20094E+05 2.32079E+04 9.61018E+03 4.67858E+04-1.34854E-10 5.07316E-09
 -1       675 1.15570E+05 1.50141E+04 1.59592E+04 4.56666E+04-1.36424E-11 1.67347E-09
 -1       676 2.59519E+02-1.77372E+05-1.53085E+03-3.71615E+01 1.57810E-09-2.52690E-10
 -1       677-7.01594E+02-1.78002E+05-2.26141E+03-4.63450E+02 4.92037E-10-8.41309E-10
 -1       678 3.36926E+02-1.77295E+05-3.33077E+03-3.75643E+01 8.38213E-10 2.49096E-09
 -1       679-3.96708E+03-1.79905E+05-7.91416E+03-4.61970E+02 2.30432E-09-4.89990E-11
 -1       680 2.96790E+03-1.75469E+05-1.21516E+04-3.89070E+01-9.00400E-10 6.61160E-10
 -1       716-1.37451E-01-6.55307E-02 6.15043E+00-1.14720E-04 1.42457E-09-1.22087E-09
 -1       717 6.76884E-01 4.93626E-01 1.08321E+01 2.92162E-04 8.67285E-11-6.79794E-10
 -1       718-5.39438E-01-4.28270E-01 2.01014E+01-1.77357E-04 2.32012E-09-7.92802E-10
 -1       719 3.19618E+00 3.36237E+00 4.16939E+01-2.65091E-04-1.76464E-10 4.50733E-11
 -1       720-2.65679E+00-2.93445E+00 7.95217E+01 4.42704E-04-3.30376E-09-4.65704E-10
 -1       721 1.65422E+01 2.24036E+01 1.69952E+02-9.34814E-03-2.32999E-09-6.33875E-10
 -1       722-1.38856E+01-1.94688E+01 3.18093E+02 8.90429E-03-1.50063E-09-7.29656E-10
 -1       723 8.99384E+01 1.46185E+02 7.00648E+02-8.97049E-02-1.33440E-09-2.05219E-10
 -1       724-7.60521E+01-1.26702E+02 1.26875E+03 8.07784E-02-2.19903E-09-1.17228E-09
 -1       725 5.09430E+02 9.41993E+02 2.92410E+03-6.89870E-01-6.45532E-10 2.53806E-10
 -1       726-4.33351E+02-8.15146E+02 5.03089E+03 6.08903E-01-3.25327E-09-8.71523E-10
 -1       727 2.98088E+03 6.02366E+03 1.24197E+04-4.85275E+00-3.23326E-09-5.63887E-10
 -1       728-2.54699E+03-5.20738E+03 1.97584E+04 4.24290E+00-1.59041E-10-9.38599E-10
 -1       729 1.78700E+04 3.83359E+04 5.40679E+04-3.26399E+01 1.05325E-09 1.96451E-10
 -1       730-1.53138E+04-3.31190E+04 7.63884E+04 2.83966E+01 2.97385E-09-6.94854E-10
 -1       766-3.31256E+04-1.53300E+04 7.63751E+04-8.96005E+00-9.45874E-11-1.33966E-10
 -1       767 3.83902E+04 1.78904E+04 5.40611E+04-5.13616E+01 2.51748E-09-5.18202E-10
 -1       768-5.25516E+03-2.58410E+03 1.96948E+04 1.70143E+01-8.18545E-12 1.47260E-12
 -1       769 6.37440E+03 3.13238E+03 1.24226E+04-8.10471E+01 2.06364E-09 1.96450E-09
 -1       770-1.11793E+03-5.80648E+02 4.74639E+03 2.07256E+01-2.06455E-10 7.44282E-10
 -1       771-9.67654E+05-1.88429E+05-2.76822E+04-4.17307E+05-3.48882E-09 5.82077E-11
 -1       772-9.63365E+05-1.92716E+05-1.38613E+04-4.31484E+05-1.26602E-09 3.12593E-09
 -1       773-9.69398E+05-1.80023E+05-5.90872E+03-4.21049E+05-1.73532E-09 2.05546E-10
 -1       774-9.60096E+05-1.89529E+05-2.89184E+03-4.32270E+05-3.31420E-09-8.37849E-09
 -1       775-9.69713E+05-1.79682E+05-1.34698E+03-4.21237E+05-4.80213E-10-5.50244E-11
 -1       776-9.59966E+05-1.89407E+05-6.75784E+02-4.32402E+05-1.06411E-10-6.98378E-10
 -1       777-9.69857E+05-1.79632E+05-3.69614E+02-4.21284E+05 7.27596E-11 3.25826E-10
 -1       778-9.60016E+05-1.89389E+05-2.80612E+02-4.32492E+05-1.29876E-09 2.93028E-10
 -1       779-9.69933E+05-1.79584E+05-3.49654E+02-4.21316E+05-1.04592E-10-1.30058E-10
 -1       780-9.60083E+05-1.89378E+05-6.33258E+02-4.32557E+05-5.29326E-10-2.58524E-10
 -1       781-9.69944E+05-1.79539E+05-1.24960E+03-4.21331E+05-6.74390E-10-6.45741E-10
 -1       782-9.60305E+05-1.89484E+05-2.70709E+03-4.32598E+05-4.56907E-10-4.48836E-10
 -1       783-9.69797E+05-1.79751E+05-5.51613E+03-4.21194E+05-1.18462E-09-1.08048E-09
 -1       784-9.63289E+05-1.92667E+05-1.29994E+04-4.32236E+05-1.31502E-09-1.70712E-09
 -1       785-9.68451E+05-1.87391E+05-2.59290E+04-4.17525E+05 7.73070E-11 5.96629E-10
 -1       786 9.32109E+04-2.95559E+03 1.20758E+04-7.13185E+02 1.55239E-10-1.06184E-09
 -1       787 9.76181E+04 3.92277E+03 7.78456E+03-3.13131E+03-9.52127E-11-2.00362E-09
 -1       788 9.50471E+04-3.12410E+02 3.13173E+03-7.08349E+02-1.73202E-10 1.39835E-11
 -1       789 9.55674E+04 3.99987E+02 1.75856E+03-3.13486E+03 2.32873E-10 3.05846E-10
 -1       790 9.52606E+04-3.42767E+01 7.96133E+02-7.09540E+02 2.19586E-10-8.34461E-11
 -1       791 9.53255E+04 4.04006E+01 4.28528E+02-3.13310E+03-9.33653E-11-1.00528E-09
 -1       792 9.52883E+04-4.26651E+00 2.18791E+02-7.10107E+02 3.09015E-11-2.23366E-10
 -1       793 9.52951E+04 5.53108E+00 1.45286E+02-3.13287E+03 3.30544E-11-1.66226E-09
 -1       794 9.52909E+04-2.31140E+00 1.33495E+02-7.09773E+02-2.53664E-11-1.11718E-09
 -1       795 9.53041E+04 1.72834E+01 2.03075E+02-3.13458E+03-2.56918E-10 1.88933E-09
 -1       796 9.52798E+04-1.48558E+01 3.49016E+02-7.08398E+02-2.82284E-10-4.38590E-10
 -1       797 9.54070E+04 1.69898E+02 7.54060E+02-3.13744E+03-4.15838E-10 1.20619E-09
 -1       798 9.51892E+04-1.33462E+02 1.33606E+03-7.06910E+02 8.81982E-10 3.80282E-11
 -1       799 9.62811E+04 1.66989E+03 3.31660E+03-3.13339E+03-9.21887E-10 5.23414E-10
 -1       800 9.44073E+04-1.25950E+03 5.14298E+03-7.12500E+02-4.66912E-10 3.51065E-09
 -1       801-4.45798E+03 9.61686E+04 1.54272E+04-1.37455E+05 2.75577E-10-1.45519E-09
 -1       802 1.15677E+04 1.00851E+05 2.05528E+04-6.00770E+05 6.77028E-09 1.75260E-09
 -1       803-1.25118E+03 9.51989E+04 2.61447E+04-1.36990E+05 3.87081E-09 3.69255E-09
 -1       804 3.40988E+04 1.14057E+05 5.96021E+04-6.00734E+05 4.91127E-09-1.94268E-09
 -1       805-2.31917E+04 8.30537E+04 8.88077E+04-1.37495E+05 3.64525E-09-6.91216E-11
 -1       806-8.71157E+04-2.58383E+04-7.28626E+03-4.39689E+04-3.90855E-10-1.05047E-10
 -1       807-8.68346E+04-2.43990E+04-3.46500E+03-4.65716E+04 1.15506E-09 6.44604E-09
 -1       808-8.71088E+04-2.21913E+04-1.45826E+03-4.54984E+04-1.03500E-09-8.89031E-10
 -1       809-8.61006E+04-2.31397E+04-7.05075E+02-4.68679E+04 2.05659E-10-1.40061E-09
 -1       810-8.71302E+04-2.19542E+04-3.18317E+02-4.56044E+04 1.37561E-10 6.82007E-10
 -1       811-8.60304E+04-2.30611E+04-1.57155E+02-4.68792E+04 5.25233E-11 4.90218E-10
 -1       812-8.71366E+04-2.19490E+04-7.74007E+01-4.56087E+04 3.08574E-10-1.87811E-09
 -1       813-8.60225E+04-2.30599E+04-4.79356E+01-4.68770E+04 8.47464E-10-1.85673E-09
 -1       814-8.71370E+04-2.19512E+04-4.33114E+01-4.56080E+04 1.47986E-09-3.81078E-10
 -1       815-8.60242E+04-2.30617E+04-6.66665E+01-4.68758E+04 6.54836E-11 1.66165E-09
 -1       816-8.71327E+04-2.19549E+04-1.24164E+02-4.56056E+04 9.34847E-09 5.27643E-09
 -1       817-8.60528E+04-2.30887E+04-2.69850E+02-4.68656E+04 8.92112E-09-2.17581E-08
 -1       818-8.71199E+04-2.20501E+04-5.55629E+02-4.55681E+04 4.92355E-09-9.30186E-09
 -1       819-8.63624E+04-2.35357E+04-1.31857E+03-4.67137E+04 7.01448E-10 1.19496E-09
 -1       820-8.70893E+04-2.34666E+04-2.77178E+03-4.50183E+04 1.17916E-09 1.21770E-09
 -1       821-1.22076E+05 3.66203E+03-1.49683E+04 8.71386E+02-1.34548E-09 8.18545E-11
 -1       822-1.27534E+05-4.86206E+03-9.64925E+03 3.87772E+03-7.04688E-10-1.66540E-09
 -1       823-1.24353E+05 3.86536E+02-3.88371E+03 8.50774E+02 1.21042E-09 7.27368E-10
 -1       824-1.24996E+05-4.93682E+02-2.18296E+03 3.90417E+03-5.90262E-10 7.66249E-10
 -1       825-1.24617E+05 4.26562E+01-9.94199E+02 8.44803E+02-2.26646E-09-1.13164E-09
 -1       826-1.24700E+05-4.70037E+01-5.45961E+02 3.91366E+03-4.81293E-09-2.85354E-11
 -1       827-1.24652E+05 6.26003E+00-3.00704E+02 8.41252E+02-1.85298E-09-5.86212E-10
 -1       828-1.24667E+05-5.37354E+00-2.41046E+02 3.91927E+03-3.44082E-09-7.71408E-10
 -1       829-1.24652E+05 6.10446E+00-2.84030E+02 8.39191E+02-1.21315E-09-1.03524E-09
 -1       830-1.24698E+05-4.18024E+01-5.02180E+02 3.92151E+03 2.84824E-09-9.40496E-10
 -1       831-1.24622E+05 3.95521E+01-9.06988E+02 8.39007E+02-1.08134E-09-1.07974E-10
 -1       832-1.24969E+05-4.47533E+02-1.98773E+03 3.91989E+03-8.82920E-10 1.69371E-09
 -1       833-1.24381E+05 3.52851E+02-3.53406E+03 8.40850E+02 7.86969E-10 9.16316E-10
 -1       834-1.27280E+05-4.42190E+03-8.78048E+03 3.90794E+03 2.48889E-10-1.46201E-09
 -1       835-1.22310E+05 3.33373E+03-1.36194E+04 8.51239E+02 1.67915E-10-2.11094E-09
 -1       836-1.91349E+03 1.97707E+05 1.63025E+04-9.84245E+03-8.95852E-10 3.47177E-09
 -1       837 4.14004E+03 2.03086E+05 1.25768E+04-2.33856E+04-8.14595E-10 3.80891E-09
 -1       838-4.58382E+02 1.99470E+05 1.04504E+04-9.81420E+03-1.07207E-09 5.13447E-09
 -1       839 6.66719E+03 2.04826E+05 1.79754E+04-2.33854E+04-7.38282E-10 3.00145E-09
 -1       840-3.31540E+03 1.95965E+05 2.70189E+04-9.84242E+03-9.93168E-10 3.76485E-09
 -1       841 3.10094E+04 4.47933E+03-3.15062E+02 1.15677E+04-7.23686E-06 2.71414E-06
 -1       842 3.07971E+04 4.23744E+03-2.17344E+02 1.16776E+04-1.44634E-05 5.43080E-06
 -1       843 3.09392E+04 4.37312E+03-7.23653E+01 1.15976E+04-1.16977E-05 4.39038E-06
 -1       844 3.08813E+04 4.35787E+03-4.23635E+01 1.16397E+04-8.91915E-06 3.35236E-06
 -1       845 3.09252E+04 4.35893E+03-1.00887E+01 1.16056E+04-6.35796E-06 2.38644E-06
 -1       846 3.09007E+04 4.37506E+03 6.34790E+00 1.16284E+04-3.79847E-06 1.42556E-06
 -1       847 3.09198E+04 4.35594E+03 2.68968E+01 1.16090E+04-2.33388E-06 8.76105E-07
 -1       848 3.09168E+04 4.39294E+03 7.17447E+01 1.16219E+04-8.66485E-07 3.27005E-07
 -1       849 3.09091E+04 4.34105E+03 1.33841E+02 1.16121E+04-2.60499E-07 9.70397E-08
 -1       850 3.09859E+04 4.50502E+03 3.39185E+02 1.16030E+04 3.45315E-07-1.29798E-07
 -1       851 3.08507E+04 4.24387E+03 5.85924E+02 1.16278E+04 2.45829E-07-9.23469E-08
 -1       852 3.14012E+04 5.21772E+03 1.58228E+03 1.14780E+04 1.46004E-07-5.52539E-08
 -1       853 3.04938E+04 3.62844E+03 2.53035E+03 1.17371E+04-5.44857E-07 2.07581E-07
 -1       854 3.39615E+04 9.73134E+03 7.50327E+03 1.06358E+04-1.23824E-06 4.64798E-07
 -1       855 2.82906E+04-2.69003E+02 1.07999E+04 1.24697E+04-6.17585E-07 2.31062E-07
 -1       856-1.02454E+05 1.50870E+03-1.20166E+04 3.50895E+03 2.46018E-10-1.37152E-09
 -1       857-1.06381E+05-2.90627E+03-7.33988E+03 8.36763E+03 2.25123E-09-1.79341E-09
 -1       858-1.04151E+05 1.37851E+02-3.08522E+03 3.47237E+03 7.55563E-10-3.16049E-10
 -1       859-1.04534E+05-2.09389E+02-1.66043E+03 8.40841E+03 3.02424E-09 9.09495E-11
 -1       860-1.04311E+05 1.95138E+01-7.79133E+02 3.46768E+03 1.71701E-09-6.78142E-10
 -1       861-1.04361E+05-3.97065E+00-4.10235E+02 8.41438E+03-3.17254E-09-2.90348E-09
 -1       862-1.04331E+05 7.73297E+00-2.14744E+02 3.46633E+03 5.16536E-10-3.42430E-09
 -1       863-1.04341E+05 1.12345E+01-1.43315E+02 8.41594E+03 2.06796E-09-2.09553E-09
 -1       864-1.04333E+05 6.83594E+00-1.36640E+02 3.46612E+03 1.26295E-09-1.50888E-09
 -1       865-1.04347E+05 4.96624E+00-2.08139E+02 8.41491E+03 2.42218E-09-3.39185E-10
 -1       866-1.04324E+05 1.17086E+01-3.68438E+02 3.46737E+03-7.77959E-10-1.25877E-09
 -1       867-1.04425E+05-9.02800E+01-7.69858E+02 8.41009E+03 8.72205E-10-5.05802E-10
 -1       868-1.04250E+05 6.54521E+01-1.42430E+03 3.47098E+03 1.37175E-09-2.53181E-09
 -1       869-1.05273E+05-1.33416E+03-3.38349E+03 8.37307E+03-2.23270E-09-1.58607E-09
 -1       870-1.03467E+05 6.95905E+02-5.53883E+03 3.50465E+03 3.53498E-09-2.31466E-10
 -1       871-1.66550E+03-1.37974E+04-3.60837E+03 5.05193E+04 8.11724E-10-4.81123E-10
 -1       872-5.47332E+02-1.45000E+04-1.11843E+03 6.09494E+04 2.06637E-09 7.02130E-10
 -1       873 2.40678E+01-1.42186E+04 9.55086E+02 5.04142E+04 1.06616E-09 3.03316E-10
 -1       874 1.06971E+03-1.33746E+04 3.73049E+03 6.09909E+04 9.99307E-10 6.20503E-10
 -1       875 3.30535E+03-1.49485E+04 7.98623E+03 5.04804E+04 5.66160E-10 1.26806E-09
 -1       876 1.49823E+05 2.14897E+04 1.33878E+04 5.94730E+04 1.86907E-09-1.73441E-09
 -1       877 1.52290E+05 2.89099E+04 7.95655E+03 6.18777E+04 3.56198E-09 4.59465E-09
 -1       878 1.51808E+05 2.31573E+04 3.13208E+03 5.95806E+04 3.86262E-09-6.54154E-10
 -1       879 1.49949E+05 2.58738E+04 1.63557E+03 6.22101E+04 1.41983E-09-1.24447E-09
 -1       880 1.51988E+05 2.33071E+04 7.26983E+02 5.95962E+04 3.38230E-09 5.35999E-09
 -1       881 1.49738E+05 2.56359E+04 3.79823E+02 6.22163E+04 9.68981E-10 2.12599E-09
 -1       882 1.52006E+05 2.33242E+04 2.11768E+02 5.95996E+04 4.05743E-09 4.31191E-09
 -1       883 1.49719E+05 2.56177E+04 1.85572E+02 6.22123E+04-6.29825E-09-7.06578E-10
 -1       884 1.52004E+05 2.33241E+04 2.53620E+02 5.95999E+04-4.04055E-09-3.93547E-09
 -1       885 1.49749E+05 2.56409E+04 4.92243E+02 6.22146E+04 3.29744E-09 6.86072E-10
 -1       886 1.51977E+05 2.33031E+04 9.62430E+02 5.95965E+04 1.56390E-09 2.73781E-09
 -1       887 1.50032E+05 2.59563E+04 2.17640E+03 6.22031E+04-2.34965E-09-1.83610E-09
 -1       888 1.51735E+05 2.31046E+04 4.17214E+03 5.95760E+04-4.91357E-09-2.31921E-10
 -1       889 1.53144E+05 3.00102E+04 1.06017E+04 6.17677E+04 5.93549E-09 5.51790E-09
 -1       890 1.49098E+05 2.08747E+04 1.78391E+04 5.94225E+04 4.02451E-10-2.96859E-09
 -1       891 3.45953E+02-7.50149E+04-3.06601E+03 1.51306E+04-3.78350E-10-8.70386E-10
 -1       892-7.97263E+02-7.60105E+04-2.33083E+03 3.60507E+04-1.00067E-09 4.21039E-10
 -1       893 7.43028E+01-7.53589E+04-1.88771E+03 1.50855E+04-1.69621E-10-3.56920E-10
 -1       894-1.20058E+03-7.62819E+04-3.18789E+03 3.60415E+04-9.36325E-10-2.60718E-09
 -1       895 5.64907E+02-7.47349E+04-4.76824E+03 1.51397E+04 7.33507E-10 5.91854E-10
 -1       926-2.27889E+02-4.29402E+02 9.87416E+02 1.65021E+01 1.67601E-10-4.50200E-10
 -1       927 2.42065E+02 4.97275E+02 7.13595E+02-6.57473E+01-1.27576E-09-5.84294E-10
 -1       928-5.73363E+01-6.78810E+01 2.73340E+02 1.62766E+01 2.71765E-11-2.77964E-10
 -1       929 4.20293E+01 8.13251E+01 2.05563E+02-6.55195E+01 7.01238E-10-2.88267E-10
 -1       930-2.79133E+01-1.34900E+01 1.44967E+02 1.62743E+01 1.10155E-10-1.27217E-10
 -1       931 1.64238E+01 3.48944E+01 2.12459E+02-6.55161E+01-5.49953E-10-6.14637E-11
 -1       932-3.17765E+01-2.14278E+01 3.40388E+02 1.62731E+01-7.71358E-07-1.08429E-11
 -1       933 8.11367E+01 1.50855E+02 7.24171E+02-6.55087E+01-1.54147E-06-4.00746E-12
 -1       934-9.26555E+01-1.29417E+02 1.29812E+03 1.62669E+01-9.15887E-07-3.07523E-11
 -1       935 5.05825E+02 9.60984E+02 2.98480E+03-6.54739E+01-2.89554E-07 1.22782E-10
 -1       936-4.56451E+02-8.31417E+02 5.13250E+03 1.62384E+01-1.00971E-07 8.91305E-11
 -1       937 3.02675E+03 6.14411E+03 1.26686E+04-6.55608E+01 8.91158E-08 1.96451E-10
 -1       938-2.61305E+03-5.31147E+03 2.01535E+04 1.63539E+01-5.13596E-08-6.36646E-11
 -1       939 1.82166E+04 3.91029E+04 5.51497E+04-6.95903E+01-1.96893E-07 3.54703E-11
 -1       940-1.56372E+04-3.37819E+04 7.79146E+04 2.02674E+01-1.00184E-07 3.92902E-10
 -1       956-1.41793E+05-2.40769E+03-6.22483E+03 1.60191E+04 3.28646E-09 4.71800E-10
 -1       957-1.43038E+05-8.24667E+02-3.20331E+03 1.93872E+04 1.00360E-08 1.49794E-09
 -1       958-1.42354E+05-6.28108E+01-1.44342E+03 1.59183E+04 6.64113E-09 5.84350E-11
 -1       959-1.42455E+05-1.08814E+01-7.37209E+02 1.94965E+04-4.74984E-10-1.90721E-09
 -1       960-1.42405E+05 2.07395E+01-3.58947E+02 1.59093E+04-1.45883E-09 5.90035E-10
 -1       961-1.42415E+05 2.01784E+01-1.89087E+02 1.95065E+04-3.72302E-09 3.10138E-10
 -1       962-1.42416E+05 1.87500E+01-1.05774E+02 1.59083E+04-1.11254E-09 1.37459E-09
 -1       963-1.42414E+05 2.13582E+01-8.05398E+01 1.95079E+04-3.59546E-09 2.34945E-09
 -1       964-1.42419E+05 1.98330E+01-9.24174E+01 1.59079E+04-3.23649E-09 1.61890E-09
 -1       965-1.42419E+05 2.29286E+01-1.55245E+02 1.95078E+04 1.08805E-09 9.84983E-10
 -1       966-1.42414E+05 2.37353E+01-2.88931E+02 1.59084E+04 2.76987E-09 1.45144E-09
 -1       967-1.42456E+05 4.38410E-01-5.90987E+02 1.95016E+04 9.45784E-09 1.73304E-09
 -1       968-1.42377E+05-4.10485E+01-1.15550E+03 1.59141E+04 4.58840E-10 1.02176E-09
 -1       969-1.42926E+05-6.49283E+02-2.56463E+03 1.94314E+04-9.58607E-09-9.85892E-10
 -1       970-1.41929E+05-1.91726E+03-4.98307E+03 1.59795E+04-4.03861E-09 5.28416E-10
 -1       971-1.82264E+05 8.01183E+02-8.44230E+03 4.08709E+03-1.19417E-09 1.95928E-09
 -1       972-1.84934E+05-1.89261E+03-5.09033E+03 8.90884E+03-2.07103E-09-4.57931E-10
 -1       973-1.83432E+05 7.51664E+01-2.16206E+03 4.03959E+03-2.45586E-09 8.40373E-10
 -1       974-1.83674E+05-1.22293E+02-1.15815E+03 8.96328E+03 8.86985E-10 7.79778E-10
 -1       975-1.83538E+05 1.35518E+01-5.55289E+02 4.03231E+03-2.64208E-10-5.17275E-12
 -1       976-1.83563E+05 3.44269E+00-3.07529E+02 8.97339E+03-3.25167E-09-2.01339E-10
 -1       977-1.83551E+05 7.91388E+00-1.93251E+02 4.02944E+03 2.56728E-09 5.40439E-10
 -1       978-1.83556E+05 1.21432E+01-1.88445E+02 8.97732E+03 8.36738E-09 1.03739E-09
 -1       979-1.83550E+05 9.45336E+00-2.69365E+02 4.02837E+03 8.97856E-10 5.60675E-10
 -1       980-1.83579E+05-1.73801E+00-5.04323E+02 8.97746E+03 2.39557E-09 1.75277E-09
 -1       981-1.83528E+05 2.21702E+01-9.56175E+02 4.02931E+03 1.09816E-09 2.75558E-09
 -1       982-1.83781E+05-2.19167E+02-2.02313E+03 8.97255E+03-4.44084E-09 3.11354E-09
 -1       983-1.83345E+05 1.33370E+02-3.78729E+03 4.03335E+03-2.18495E-09-3.81874E-10
 -1       984-1.86001E+05-3.32143E+03-8.92849E+03 8.93423E+03-2.33649E-09 2.27374E-12
 -1       985-1.81300E+05 1.41105E+03-1.48072E+04 4.06850E+03 6.28688E-10-3.63798E-12
 -3
    1PSTEP                         5           3           1          
  100CL  103 3.28125E-01         568                     0    3           1
 -4  DISP        4    1
 -5  D1          1    2    1    0
 -5  D2          1    2    2    0
 -5  D3          1    2    3    0
 -5  ALL         1    2    0    0    1ALL
 -1         1 4.80481E-05 0.00000E+00 0.00000E+00
 -1         2 4.80408E-05 0.00000E+00 0.00000E+00
 -1         3 3.23747E-05 1.95181E-28-6.61744E-24
 -1         4 2.43130E-05-3.94430E-29 0.00000E+00
 -1         5 2.46078E-05 1.87023E-27 3.30872E-24
 -1         8 3.81823E-05-4.65505E-07 0.00000E+00
 -1         9 2.99704E-05-1.79323E-06 0.00000E+00
 -1        10 2.97359E-05-9.54151E-07 0.00000E+00
 -1        11 2.41633E-05-2.69922E-06 0.00000E+00
 -1        12 2.41678E-05 4.00847E-07 0.00000E+00
 -1        15 2.76419E-05-4.88131E-07 2.06795E-25
 -1        16 2.37234E-05-1.85419E-06 0.00000E+00
 -1        17 2.21635E-05-1.90798E-06 0.00000E+00
 -1        18 2.21663E-05-2.58882E-07 0.00000E+00
 -1        19 2.28543E-05 7.98982E-07 0.00000E+00
 -1        20 2.31027E-05 9.38787E-06 0.00000E+00
 -1        21 2.30725E-05 2.08519E-05 0.00000E+00
 -1        23 8.60870E-06-3.02409E-05 0.00000E+00
 -1        24 8.56249E-06-2.32779E-06 0.00000E+00
 -1        25 2.06291E-05-1.43992E-07 0.00000E+00
 -1        26 2.11836E-05 1.06692E-06 0.00000E+00
 -1        27 2.04582E-05 8.99540E-06 0.00000E+00
 -1        28 1.98468E-05 2.04639E-05 0.00000E+00
 -1        31 2.45479E-08-2.35634E-06 0.00000E+00
 -1        32 0.00000E+00 0.00000E+00 0.00000E+00
 -1        33 1.92877E-05 1.49492E-06 0.00000E+00
 -1        34 1.84533E-05 8.96239E-06 0.00000E+00
 -1        35 1.73785E-05 2.02994E-05 0.00000E+00
 -1        36 4.80423E-05-8.94816E-20 0.00000E+00
 -1        37 4.80420E-05-1.19515E-19-4.13590E-25
 -1        38 4.80415E-05-1.93298E-20 0.00000E+00
 -1        39 4.80419E-05 1.11340E-19 0.00000E+00
 -1        40 4.80425E-05 1.11868E-19-1.03398E-25
 -1        41 4.80432E-05 1.78669E-19 0.00000E+00
 -1        42 4.80439E-05-8.16436E-20 1.29247E-26
 -1        43 4.80447E-05-1.42259E-19 3.23117E-27
 -1        44 4.80455E-05-3.03733E-20 0.00000E+00
 -1        45 4.80463E-05 1.45624E-19 0.00000E+00
 -1        46 4.80470E-05 2.74331E-19 1.03398E-25
 -1        47 4.80475E-05 4.53321E-19 0.00000E+00
 -1        48 4.80480E-05 3.25995E-19-4.13590E-25
 -1        49 4.80473E-05 2.27229E-19 0.00000E+00
 -1        50 4.80470E-05 2.03964E-19 0.00000E+00
 -1        51 4.73027E-05-7.81934E-08 0.00000E+00
 -1        52 4.60678E-05-1.53863E-07 0.00000E+00
 -1        53 4.44384E-05-2.29256E-07 0.00000E+00
 -1        54 4.25142E-05-3.05272E-07 0.00000E+00
 -1        55 4.03953E-05-3.82830E-07-2.89513E-24
 -1        56 4.70717E-05-4.13221E-07 0.00000E+00
 -1        57 4.60859E-05-9.13599E-07 0.00000E+00
 -1        58 4.51188E-05-1.45716E-06 2.64698E-23
 -1        59 4.41503E-05-2.01656E-06 0.00000E+00
 -1        60 4.31748E-05-2.55769E-06 2.64698E-23
 -1        61 4.21795E-05-3.04973E-06-1.32349E-23
 -1        62 4.11554E-05-3.46510E-06 0.00000E+00
 -1        63 4.00929E-05-3.77882E-06-1.32349E-23
 -1        64 3.89857E-05-3.97351E-06 0.00000E+00
 -1        65 3.78288E-05-4.03511E-06 0.00000E+00
 -1        66 3.66207E-05-3.95983E-06-2.64698E-23
 -1        67 3.53623E-05-3.74736E-06 0.00000E+00
 -1        68 3.40565E-05-3.40855E-06 0.00000E+00
 -1        69 3.27147E-05-2.95518E-06-1.32349E-23
 -1        70 3.13371E-05-2.41300E-06 0.00000E+00
 -1        86 4.76986E-05-2.88203E-07 6.61744E-24
 -1        87 4.66529E-05-5.82663E-07 0.00000E+00
 -1        88 4.38143E-05-8.80414E-07-6.61744E-24
 -1        89 3.81178E-05-1.19015E-06 0.00000E+00
 -1        90 3.25187E-05-1.49972E-06 0.00000E+00
 -1       121 3.23011E-05-1.58948E-07 0.00000E+00
 -1       122 3.20803E-05-3.17912E-07-1.65436E-24
 -1       123 3.17128E-05-4.76916E-07 0.00000E+00
 -1       124 3.11990E-05-6.35957E-07 0.00000E+00
 -1       125 3.05397E-05-7.95082E-07-6.61744E-24
 -1       161 2.43143E-05-3.45642E-09 0.00000E+00
 -1       162 2.43182E-05-1.38133E-08 0.00000E+00
 -1       163 2.43238E-05-2.87809E-08 0.00000E+00
 -1       164 2.43303E-05-4.60691E-08 1.00974E-28
 -1       165 2.43368E-05-6.33874E-08-4.03897E-28
 -1       166 2.43424E-05-7.84461E-08 0.00000E+00
 -1       167 2.43463E-05-8.89550E-08 0.00000E+00
 -1       168 2.43477E-05-9.26228E-08 0.00000E+00
 -1       169 2.43457E-05-8.71600E-08 1.29247E-26
 -1       170 2.43394E-05-7.02707E-08 0.00000E+00
 -1       171 2.43280E-05-3.96692E-08-5.16988E-26
 -1       172 2.43106E-05 6.96734E-09 5.16988E-26
 -1       173 2.42864E-05 7.18960E-08 2.06795E-25
 -1       174 2.42550E-05 1.57593E-07 0.00000E+00
 -1       175 2.42148E-05 2.66114E-07 0.00000E+00
 -1       191 2.45955E-05 6.68219E-08 0.00000E+00
 -1       192 2.45588E-05 1.33642E-07 0.00000E+00
 -1       193 2.44976E-05 2.00460E-07 0.00000E+00
 -1       194 2.44120E-05 2.67273E-07 0.00000E+00
 -1       195 2.43020E-05 3.34075E-07 0.00000E+00
 -1       251 3.76814E-05 5.68601E-07 0.00000E+00
 -1       252 3.71679E-05 1.49153E-07-6.61744E-24
 -1       253 3.66549E-05-8.05368E-07 0.00000E+00
 -1       254 3.61398E-05-1.36361E-06 0.00000E+00
 -1       255 3.56247E-05-1.31838E-06 0.00000E+00
 -1       256 3.51087E-05-4.76699E-07 0.00000E+00
 -1       257 3.45929E-05-9.65032E-08 1.32349E-23
 -1       258 3.40762E-05-1.42492E-06 0.00000E+00
 -1       259 3.35597E-05-2.59655E-06 1.32349E-23
 -1       260 3.30435E-05-1.74962E-06 6.61744E-24
 -1       261 3.25273E-05-6.99424E-07 0.00000E+00
 -1       262 3.20120E-05-1.26597E-06 6.61744E-24
 -1       263 3.14965E-05-2.32384E-06 0.00000E+00
 -1       264 3.09839E-05-2.73614E-06 0.00000E+00
 -1       265 3.04706E-05-2.54159E-06-1.32349E-23
 -1       266 3.64256E-05-4.76133E-07 0.00000E+00
 -1       267 3.46688E-05-4.79064E-07 8.27181E-25
 -1       268 3.29121E-05-4.82495E-07 0.00000E+00
 -1       269 3.11554E-05-4.84470E-07 0.00000E+00
 -1       270 2.93987E-05-4.86417E-07 2.06795E-25
 -1       271 3.68142E-05 7.64294E-07 1.32349E-23
 -1       272 3.55740E-05 1.57272E-06 0.00000E+00
 -1       273 3.44722E-05 2.01470E-06 0.00000E+00
 -1       274 3.34863E-05 2.13632E-06 0.00000E+00
 -1       275 3.26009E-05 1.98886E-06 0.00000E+00
 -1       276 3.17962E-05 1.62433E-06-1.32349E-23
 -1       277 3.10525E-05 1.09655E-06 0.00000E+00
 -1       278 3.03492E-05 4.60448E-07 0.00000E+00
 -1       279 2.96657E-05-2.28270E-07 0.00000E+00
 -1       280 2.89809E-05-9.13462E-07 0.00000E+00
 -1       281 2.82739E-05-1.53907E-06-2.64698E-23
 -1       282 2.75243E-05-2.04939E-06 1.32349E-23
 -1       283 2.67115E-05-2.38970E-06 0.00000E+00
 -1       284 2.58180E-05-2.50552E-06 0.00000E+00
 -1       285 2.48207E-05-2.34629E-06 0.00000E+00
 -1       286 2.99486E-05-8.99753E-07 0.00000E+00
 -1       287 2.99340E-05-2.60767E-07 8.27181E-25
 -1       288 2.99190E-05 1.26662E-07 0.00000E+00
 -1       289 2.99054E-05 2.65604E-07 0.00000E+00
 -1       290 2.98919E-05 1.87591E-07-4.13590E-25
 -1       291 2.98786E-05-7.57157E-08 0.00000E+00
 -1       292 2.98653E-05-4.71618E-07 0.00000E+00
 -1       293 2.98520E-05-9.47347E-07 2.06795E-25
 -1       294 2.98387E-05-1.44108E-06 0.00000E+00
 -1       295 2.98254E-05-1.89097E-06-2.06795E-25
 -1       296 2.98121E-05-2.24017E-06 0.00000E+00
 -1       297 2.97986E-05-2.43188E-06 0.00000E+00
 -1       298 2.97851E-05-2.42715E-06 8.27181E-25
 -1       299 2.97705E-05-2.18720E-06-8.27181E-25
 -1       300 2.97562E-05-1.70012E-06-3.30872E-24
 -1       301 2.89250E-05-1.80713E-06 0.00000E+00
 -1       302 2.78710E-05-1.81338E-06 0.00000E+00
 -1       303 2.68162E-05-1.81869E-06 0.00000E+00
 -1       304 2.57682E-05-1.82462E-06 0.00000E+00
 -1       305 2.47347E-05-1.83273E-06 0.00000E+00
 -1       306 2.92406E-05-1.12630E-06 1.32349E-23
 -1       307 2.86278E-05-8.02443E-07-6.61744E-24
 -1       308 2.81233E-05-7.66398E-07 1.32349E-23
 -1       309 2.77054E-05-9.66071E-07 0.00000E+00
 -1       310 2.73555E-05-1.34741E-06 0.00000E+00
 -1       311 2.70530E-05-1.85612E-06 0.00000E+00
 -1       312 2.67775E-05-2.43732E-06 1.32349E-23
 -1       313 2.65086E-05-3.03593E-06 6.61744E-24
 -1       314 2.62255E-05-3.59675E-06 1.32349E-23
 -1       315 2.59077E-05-4.06474E-06 0.00000E+00
 -1       316 2.55347E-05-4.38525E-06 0.00000E+00
 -1       317 2.50865E-05-4.50414E-06-6.61744E-24
 -1       318 2.45429E-05-4.36816E-06-1.32349E-23
 -1       319 2.38862E-05-3.92440E-06 0.00000E+00
 -1       320 2.30944E-05-3.12258E-06 0.00000E+00
 -1       336 2.87890E-05-1.11332E-06 0.00000E+00
 -1       337 2.77060E-05-1.27269E-06 0.00000E+00
 -1       338 2.64942E-05-1.43215E-06-3.30872E-24
 -1       339 2.51613E-05-1.59140E-06 0.00000E+00
 -1       340 2.37151E-05-1.75084E-06 3.30872E-24
 -1       356 2.41633E-05-2.49720E-06 0.00000E+00
 -1       357 2.41633E-05-2.29172E-06 5.04871E-29
 -1       358 2.41633E-05-2.08376E-06 2.01948E-28
 -1       359 2.41633E-05-1.87430E-06 0.00000E+00
 -1       360 2.41632E-05-1.66432E-06 0.00000E+00
 -1       361 2.41632E-05-1.45478E-06 0.00000E+00
 -1       362 2.41632E-05-1.24668E-06 3.23117E-27
 -1       363 2.41632E-05-1.04098E-06 0.00000E+00
 -1       364 2.41632E-05-8.38656E-07 0.00000E+00
 -1       365 2.41632E-05-6.40693E-07 0.00000E+00
 -1       366 2.41632E-05-4.48066E-07 0.00000E+00
 -1       367 2.41634E-05-2.61748E-07 5.16988E-26
 -1       368 2.41635E-05-8.27180E-08 0.00000E+00
 -1       369 2.41642E-05 8.80451E-08 0.00000E+00
 -1       370 2.41646E-05 2.49561E-07 0.00000E+00
 -1       376 2.40888E-05-2.50065E-06 0.00000E+00
 -1       377 2.40156E-05-2.30551E-06 2.52435E-29
 -1       378 2.39432E-05-2.11248E-06 1.00974E-28
 -1       379 2.38711E-05-1.92028E-06-1.00974E-28
 -1       380 2.37989E-05-1.72758E-06 0.00000E+00
 -1       381 2.37259E-05-1.53308E-06 0.00000E+00
 -1       382 2.36518E-05-1.33548E-06 0.00000E+00
 -1       383 2.35760E-05-1.13348E-06-1.61559E-27
 -1       384 2.34981E-05-9.25761E-07 6.46235E-27
 -1       385 2.34176E-05-7.11020E-07 0.00000E+00
 -1       386 2.33339E-05-4.87954E-07 2.58494E-26
 -1       387 2.32467E-05-2.55236E-07 0.00000E+00
 -1       388 2.31554E-05-1.15812E-08 0.00000E+00
 -1       389 2.30598E-05 2.44430E-07 0.00000E+00
 -1       390 2.29590E-05 5.13954E-07 8.27181E-25
 -1       406 2.40097E-05 4.67606E-07-3.30872E-24
 -1       407 2.38274E-05 5.34357E-07 0.00000E+00
 -1       408 2.36207E-05 6.01058E-07 0.00000E+00
 -1       409 2.33896E-05 6.67605E-07 0.00000E+00
 -1       410 2.31340E-05 7.33836E-07-3.30872E-24
 -1       501 2.36332E-05 1.00331E-06 0.00000E+00
 -1       502 2.35357E-05 7.60309E-06 1.65436E-24
 -1       503 2.34321E-05 1.50740E-05 0.00000E+00
 -1       504 2.33428E-05 2.05425E-05-1.65436E-24
 -1       505 2.32653E-05 2.22253E-05-3.30872E-24
 -1       506 2.31824E-05 1.83517E-05 1.65436E-24
 -1       507 2.30754E-05 1.01508E-05 1.65436E-24
 -1       508 2.29396E-05-1.13372E-06-8.27181E-25
 -1       509 2.28022E-05-1.25709E-05 1.65436E-24
 -1       510 2.26917E-05-2.12291E-05 8.27181E-25
 -1       511 2.26065E-05-2.56991E-05-1.65436E-24
 -1       512 2.25303E-05-2.45853E-05-8.27181E-25
 -1       513 2.24434E-05-1.95061E-05-1.65436E-24
 -1       514 2.23423E-05-1.20935E-05 1.65436E-24
 -1       515 2.22449E-05-5.25785E-06 0.00000E+00
 -1       521 2.26030E-05-1.35647E-06 1.32349E-23
 -1       522 2.15737E-05-1.16995E-06 0.00000E+00
 -1       523 2.06411E-05-1.23948E-06 0.00000E+00
 -1       524 1.97830E-05-1.51770E-06 1.32349E-23
 -1       525 1.89835E-05-1.95331E-06 0.00000E+00
 -1       526 1.82230E-05-2.49487E-06 1.32349E-23
 -1       527 1.74825E-05-3.08997E-06-2.64698E-23
 -1       528 1.67422E-05-3.68590E-06 0.00000E+00
 -1       529 1.59825E-05-4.22994E-06 0.00000E+00
 -1       530 1.51838E-05-4.66978E-06 0.00000E+00
 -1       531 1.43268E-05-4.95387E-06 0.00000E+00
 -1       532 1.33931E-05-5.03180E-06-1.32349E-23
 -1       533 1.23642E-05-4.85481E-06 2.64698E-23
 -1       534 1.12252E-05-4.37512E-06 0.00000E+00
 -1       535 9.95559E-06-3.54948E-06 0.00000E+00
 -1       536 2.21581E-05-4.95536E-07 0.00000E+00
 -1       537 2.21574E-05 5.76979E-07 4.13590E-25
 -1       538 2.21569E-05 1.34481E-06 0.00000E+00
 -1       539 2.21572E-05 1.84348E-06 0.00000E+00
 -1       540 2.21577E-05 2.10844E-06 0.00000E+00
 -1       541 2.21583E-05 2.17516E-06 0.00000E+00
 -1       542 2.21590E-05 2.07910E-06 0.00000E+00
 -1       543 2.21597E-05 1.85573E-06 0.00000E+00
 -1       544 2.21603E-05 1.54051E-06 2.58494E-26
 -1       545 2.21610E-05 1.16891E-06-6.46235E-27
 -1       546 2.21617E-05 7.76383E-07 5.16988E-26
 -1       547 2.21623E-05 3.98408E-07 0.00000E+00
 -1       548 2.21631E-05 7.04366E-08 0.00000E+00
 -1       549 2.21639E-05-1.72070E-07 0.00000E+00
 -1       550 2.21648E-05-2.93626E-07 0.00000E+00
 -1       551 2.01429E-05-1.97551E-06 2.48154E-24
 -1       552 1.78754E-05-2.04210E-06-8.27181E-25
 -1       553 1.54714E-05-2.10908E-06 0.00000E+00
 -1       554 1.30433E-05-2.17718E-06 0.00000E+00
 -1       555 1.07034E-05-2.24710E-06 6.61744E-24
 -1       556 2.15988E-05-5.59424E-07 0.00000E+00
 -1       557 2.11547E-05 4.75759E-07-3.30872E-24
 -1       558 2.08179E-05 1.22702E-06 0.00000E+00
 -1       559 2.05759E-05 1.72651E-06 0.00000E+00
 -1       560 2.04165E-05 2.00638E-06 0.00000E+00
 -1       561 2.03275E-05 2.09897E-06 0.00000E+00
 -1       562 2.02966E-05 2.03668E-06 0.00000E+00
 -1       563 2.03116E-05 1.85192E-06 0.00000E+00
 -1       564 2.03604E-05 1.57711E-06-3.30872E-24
 -1       565 2.04307E-05 1.24468E-06 8.27181E-25
 -1       566 2.05106E-05 8.87080E-07-1.65436E-24
 -1       567 2.05877E-05 5.36752E-07 4.13590E-25
 -1       568 2.06500E-05 2.26134E-07-9.82277E-25
 -1       569 2.06854E-05-1.23677E-08 2.06795E-25
 -1       570 2.06820E-05-1.46366E-07 0.00000E+00
 -1       571 2.22078E-05-1.71124E-07 6.20385E-25
 -1       572 2.22504E-05-1.11945E-07 2.06795E-25
 -1       573 2.22933E-05-7.60880E-08-1.24077E-24
 -1       574 2.23364E-05-5.80313E-08 4.13590E-25
 -1       575 2.23795E-05-5.22293E-08 0.00000E+00
 -1       576 2.24227E-05-5.31007E-08-8.27181E-25
 -1       577 2.24659E-05-5.50615E-08-1.65436E-24
 -1       578 2.25091E-05-5.25227E-08 0.00000E+00
 -1       579 2.25523E-05-3.98952E-08 0.00000E+00
 -1       580 2.25954E-05-1.15897E-08 8.27181E-25
 -1       581 2.26386E-05 3.79819E-08 0.00000E+00
 -1       582 2.26818E-05 1.14402E-07 0.00000E+00
 -1       583 2.27250E-05 2.23248E-07 0.00000E+00
 -1       584 2.27681E-05 3.70040E-07 0.00000E+00
 -1       585 2.28113E-05 5.60265E-07 0.00000E+00
 -1       586 2.19477E-05-2.39331E-07 0.00000E+00
 -1       587 2.16949E-05-2.19690E-07 4.13590E-25
 -1       588 2.14221E-05-2.00083E-07 0.00000E+00
 -1       589 2.11438E-05-1.80654E-07 1.03398E-25
 -1       590 2.08747E-05-1.61613E-07 0.00000E+00
 -1       591 2.20995E-05-1.55181E-07 0.00000E+00
 -1       592 2.20379E-05-7.14815E-08 0.00000E+00
 -1       593 2.19820E-05-3.72253E-09 8.27181E-25
 -1       594 2.19305E-05 5.17125E-08 0.00000E+00
 -1       595 2.18822E-05 9.84521E-08 0.00000E+00
 -1       596 2.18358E-05 1.40094E-07 4.13590E-25
 -1       597 2.17899E-05 1.80234E-07-8.27181E-25
 -1       598 2.17432E-05 2.22461E-07-4.13590E-25
 -1       599 2.16944E-05 2.70367E-07-8.27181E-25
 -1       600 2.16421E-05 3.27540E-07-2.06795E-25
 -1       601 2.15850E-05 3.97569E-07 4.13590E-25
 -1       602 2.15218E-05 4.84050E-07 0.00000E+00
 -1       603 2.14511E-05 5.90577E-07 4.13590E-25
 -1       604 2.13717E-05 7.20767E-07-5.16988E-26
 -1       605 2.12825E-05 8.78232E-07-2.06795E-25
 -1       606 2.28715E-05 1.12456E-06 0.00000E+00
 -1       607 2.28875E-05 1.49103E-06-8.27181E-25
 -1       608 2.29032E-05 1.89595E-06 0.00000E+00
 -1       609 2.29187E-05 2.33660E-06-8.27181E-25
 -1       610 2.29342E-05 2.81020E-06 0.00000E+00
 -1       611 2.29496E-05 3.31393E-06 0.00000E+00
 -1       612 2.29650E-05 3.84497E-06 0.00000E+00
 -1       613 2.29804E-05 4.40051E-06 0.00000E+00
 -1       614 2.29957E-05 4.97773E-06 0.00000E+00
 -1       615 2.30111E-05 5.57379E-06 0.00000E+00
 -1       616 2.30264E-05 6.18587E-06 0.00000E+00
 -1       617 2.30417E-05 6.81116E-06 0.00000E+00
 -1       618 2.30571E-05 7.44682E-06 0.00000E+00
 -1       619 2.30724E-05 8.09005E-06-4.13590E-25
 -1       620 2.30876E-05 8.73800E-06 0.00000E+00
 -1       621 2.25534E-05 8.43918E-07-1.65436E-24
 -1       622 2.22560E-05 8.88981E-07 0.00000E+00
 -1       623 2.19662E-05 9.34023E-07-1.65436E-24
 -1       624 2.16881E-05 9.78933E-07 4.13590E-25
 -1       625 2.14260E-05 1.02360E-06 0.00000E+00
 -1       626 2.27672E-05 1.14577E-06 1.65436E-24
 -1       627 2.26636E-05 1.53557E-06 0.00000E+00
 -1       628 2.25455E-05 1.96428E-06 0.00000E+00
 -1       629 2.24144E-05 2.42736E-06 0.00000E+00
 -1       630 2.22721E-05 2.92027E-06 0.00000E+00
 -1       631 2.21203E-05 3.43842E-06 8.27181E-25
 -1       632 2.19607E-05 3.97720E-06-1.65436E-24
 -1       633 2.17952E-05 4.53203E-06 0.00000E+00
 -1       634 2.16253E-05 5.09829E-06 0.00000E+00
 -1       635 2.14528E-05 5.67138E-06 0.00000E+00
 -1       636 2.12796E-05 6.24671E-06 8.27181E-25
 -1       637 2.11071E-05 6.81966E-06-4.13590E-25
 -1       638 2.09373E-05 7.38563E-06 0.00000E+00
 -1       639 2.07716E-05 7.94001E-06 2.06795E-25
 -1       640 2.06117E-05 8.47818E-06 4.13590E-25
 -1       641 2.31017E-05 1.00433E-05 2.06795E-25
 -1       642 2.31001E-05 1.07349E-05 2.58494E-26
 -1       643 2.30986E-05 1.14569E-05 0.00000E+00
 -1       644 2.30969E-05 1.22036E-05 0.00000E+00
 -1       645 2.30952E-05 1.29688E-05 0.00000E+00
 -1       646 2.30935E-05 1.37465E-05-2.58494E-26
 -1       647 2.30918E-05 1.45305E-05-5.16988E-26
 -1       648 2.30901E-05 1.53144E-05 0.00000E+00
 -1       649 2.30884E-05 1.60920E-05 5.16988E-26
 -1       650 2.30866E-05 1.68571E-05 0.00000E+00
 -1       651 2.30849E-05 1.76036E-05 0.00000E+00
 -1       652 2.30831E-05 1.83254E-05-1.03398E-25
 -1       653 2.30813E-05 1.90167E-05 2.06795E-25
 -1       654 2.30791E-05 1.96717E-05 2.06795E-25
 -1       655 2.30770E-05 2.02852E-05 0.00000E+00
 -1       656 2.25336E-05 9.32452E-06 0.00000E+00
 -1       657 2.20641E-05 9.25801E-06 0.00000E+00
 -1       658 2.16580E-05 9.19167E-06 0.00000E+00
 -1       659 2.12792E-05 9.12532E-06-8.27181E-25
 -1       660 2.08913E-05 9.05882E-06 0.00000E+00
 -1       661 2.29060E-05 1.00573E-05 0.00000E+00
 -1       662 2.27025E-05 1.07502E-05-8.27181E-25
 -1       663 2.24920E-05 1.14616E-05 1.65436E-24
 -1       664 2.22764E-05 1.21873E-05-8.27181E-25
 -1       665 2.20570E-05 1.29232E-05-1.65436E-24
 -1       666 2.18355E-05 1.36648E-05 8.27181E-25
 -1       667 2.16134E-05 1.44079E-05 0.00000E+00
 -1       668 2.13923E-05 1.51484E-05 0.00000E+00
 -1       669 2.11738E-05 1.58820E-05 1.65436E-24
 -1       670 2.09595E-05 1.66043E-05 0.00000E+00
 -1       671 2.07510E-05 1.73113E-05 1.65436E-24
 -1       672 2.05498E-05 1.79985E-05 8.27181E-25
 -1       673 2.03576E-05 1.86618E-05 1.65436E-24
 -1       674 2.01755E-05 1.92967E-05-4.13590E-25
 -1       675 2.00057E-05 1.98992E-05 0.00000E+00
 -1       676 2.25293E-05 2.07868E-05 0.00000E+00
 -1       677 2.19871E-05 2.07216E-05 0.00000E+00
 -1       678 2.14467E-05 2.06565E-05-1.65436E-24
 -1       679 2.09093E-05 2.05916E-05 0.00000E+00
 -1       680 2.03756E-05 2.05267E-05 1.65436E-24
 -1       716 8.60724E-06-2.84963E-05 0.00000E+00
 -1       717 8.60577E-06-2.67517E-05 0.00000E+00
 -1       718 8.60431E-06-2.50071E-05 0.00000E+00
 -1       719 8.60285E-06-2.32626E-05 0.00000E+00
 -1       720 8.60138E-06-2.15180E-05 3.23117E-27
 -1       721 8.59991E-06-1.97734E-05 0.00000E+00
 -1       722 8.59844E-06-1.80289E-05 1.29247E-26
 -1       723 8.59694E-06-1.62843E-05 1.29247E-26
 -1       724 8.59542E-06-1.45397E-05 5.16988E-26
 -1       725 8.59379E-06-1.27952E-05 5.16988E-26
 -1       726 8.59211E-06-1.10506E-05 2.06795E-25
 -1       727 8.58993E-06-9.30602E-06 4.13590E-25
 -1       728 8.58769E-06-7.56146E-06 0.00000E+00
 -1       729 8.58301E-06-5.81690E-06 0.00000E+00
 -1       730 8.57914E-06-4.07232E-06 6.61744E-24
 -1       766 6.85758E-06-2.34439E-06 6.61744E-24
 -1       767 5.23210E-06-2.34806E-06 0.00000E+00
 -1       768 3.71107E-06-2.35239E-06 0.00000E+00
 -1       769 2.31954E-06-2.35411E-06-2.06795E-25
 -1       770 1.08241E-06-2.35554E-06 0.00000E+00
 -1       771 7.56813E-06-9.45527E-07 0.00000E+00
 -1       772 6.67757E-06 1.47043E-07-6.61744E-24
 -1       773 5.88538E-06 9.75947E-07 0.00000E+00
 -1       774 5.18178E-06 1.56781E-06 0.00000E+00
 -1       775 4.55705E-06 1.94934E-06 0.00000E+00
 -1       776 4.00113E-06 2.14743E-06 6.61744E-24
 -1       777 3.50391E-06 2.18903E-06-1.32349E-23
 -1       778 3.05526E-06 2.10120E-06 6.61744E-24
 -1       779 2.64499E-06 1.91102E-06 1.32349E-23
 -1       780 2.26293E-06 1.64566E-06 0.00000E+00
 -1       781 1.89889E-06 1.33232E-06 0.00000E+00
 -1       782 1.54272E-06 9.98217E-07 6.61744E-24
 -1       783 1.18428E-06 6.70603E-07 1.32349E-23
 -1       784 8.13690E-07 3.76762E-07 0.00000E+00
 -1       785 4.21010E-07 1.43946E-07 1.32349E-23
 -1       786 2.06616E-05-6.77765E-10 0.00000E+00
 -1       787 2.06962E-05 1.08297E-07 4.13590E-25
 -1       788 2.07307E-05 1.88357E-07 0.00000E+00
 -1       789 2.07656E-05 2.44944E-07 0.00000E+00
 -1       790 2.08005E-05 2.83485E-07 0.00000E+00
 -1       791 2.08354E-05 3.09404E-07 0.00000E+00
 -1       792 2.08704E-05 3.28121E-07-8.27181E-25
 -1       793 2.09053E-05 3.45053E-07 4.13590E-25
 -1       794 2.09403E-05 3.65617E-07 8.27181E-25
 -1       795 2.09753E-05 3.95230E-07-4.13590E-25
 -1       796 2.10103E-05 4.39314E-07 0.00000E+00
 -1       797 2.10452E-05 5.03294E-07-4.13590E-25
 -1       798 2.10801E-05 5.92601E-07 8.27181E-25
 -1       799 2.11149E-05 7.12675E-07 0.00000E+00
 -1       800 2.11497E-05 8.68971E-07 0.00000E+00
 -1       801 1.89028E-05-1.13215E-07 0.00000E+00
 -1       802 1.51079E-05-8.56706E-08 0.00000E+00
 -1       803 1.02816E-05-6.22213E-08 0.00000E+00
 -1       804 5.46261E-06-4.07601E-08 0.00000E+00
 -1       805 1.68967E-06-1.52437E-08-6.61744E-24
 -1       806 2.05375E-05-1.65079E-08 0.00000E+00
 -1       807 2.04512E-05 9.33719E-08 0.00000E+00
 -1       808 2.03700E-05 1.88809E-07 0.00000E+00
 -1       809 2.02929E-05 2.72852E-07-8.27181E-25
 -1       810 2.02189E-05 3.48538E-07 0.00000E+00
 -1       811 2.01468E-05 4.18898E-07 0.00000E+00
 -1       812 2.00757E-05 4.86960E-07 0.00000E+00
 -1       813 2.00042E-05 5.55749E-07 0.00000E+00
 -1       814 1.99313E-05 6.28292E-07-1.65436E-24
 -1       815 1.98559E-05 7.07613E-07-4.13590E-25
 -1       816 1.97768E-05 7.96737E-07 8.27181E-25
 -1       817 1.96929E-05 8.98688E-07-4.13590E-25
 -1       818 1.96031E-05 1.01649E-06-1.24077E-24
 -1       819 1.95063E-05 1.15314E-06 2.06795E-25
 -1       820 1.94013E-05 1.31166E-06-8.27181E-25
 -1       821 2.11409E-05 1.32373E-06 0.00000E+00
 -1       822 2.10956E-05 1.64425E-06 4.13590E-25
 -1       823 2.10503E-05 2.02173E-06 0.00000E+00
 -1       824 2.10047E-05 2.44936E-06 0.00000E+00
 -1       825 2.09589E-05 2.92033E-06-1.65436E-24
 -1       826 2.09131E-05 3.42777E-06 0.00000E+00
 -1       827 2.08672E-05 3.96484E-06 0.00000E+00
 -1       828 2.08213E-05 4.52465E-06 8.27181E-25
 -1       829 2.07754E-05 5.10034E-06 0.00000E+00
 -1       830 2.07295E-05 5.68498E-06 0.00000E+00
 -1       831 2.06837E-05 6.27172E-06 1.65436E-24
 -1       832 2.06379E-05 6.85364E-06-8.27181E-25
 -1       833 2.05921E-05 7.42384E-06 0.00000E+00
 -1       834 2.05467E-05 7.97546E-06 0.00000E+00
 -1       835 2.05013E-05 8.50159E-06 0.00000E+00
 -1       836 2.09140E-05 1.13719E-06 0.00000E+00
 -1       837 2.05892E-05 1.20983E-06 0.00000E+00
 -1       838 2.02368E-05 1.28237E-06 1.65436E-24
 -1       839 1.98841E-05 1.35465E-06 0.00000E+00
 -1       840 1.95586E-05 1.42695E-06 0.00000E+00
 -1       841 2.10976E-05 1.33577E-06 4.13590E-25
 -1       842 2.09797E-05 1.68931E-06 0.00000E+00
 -1       843 2.08368E-05 2.10962E-06-4.13590E-25
 -1       844 2.06755E-05 2.57879E-06 2.06795E-25
 -1       845 2.05000E-05 3.08575E-06 4.13590E-25
 -1       846 2.03145E-05 3.61943E-06 0.00000E+00
 -1       847 2.01217E-05 4.17246E-06 4.13590E-25
 -1       848 1.99244E-05 4.73749E-06 2.06795E-25
 -1       849 1.97248E-05 5.30878E-06 0.00000E+00
 -1       850 1.95249E-05 5.88057E-06-2.06795E-25
 -1       851 1.93270E-05 6.44725E-06-4.13590E-25
 -1       852 1.91330E-05 7.00317E-06 2.06795E-25
 -1       853 1.89457E-05 7.54126E-06-2.06795E-25
 -1       854 1.87674E-05 8.05427E-06-2.58494E-26
 -1       855 1.86027E-05 8.53178E-06 0.00000E+00
 -1       856 2.04222E-05 9.51341E-06 0.00000E+00
 -1       857 2.03842E-05 1.01043E-05-4.13590E-25
 -1       858 2.03461E-05 1.07583E-05 0.00000E+00
 -1       859 2.03077E-05 1.14655E-05 0.00000E+00
 -1       860 2.02693E-05 1.22158E-05 0.00000E+00
 -1       861 2.02307E-05 1.29992E-05 0.00000E+00
 -1       862 2.01921E-05 1.38059E-05 0.00000E+00
 -1       863 2.01535E-05 1.46259E-05 4.13590E-25
 -1       864 2.01149E-05 1.54490E-05 0.00000E+00
 -1       865 2.00763E-05 1.62655E-05 0.00000E+00
 -1       866 2.00377E-05 1.70652E-05 0.00000E+00
 -1       867 1.99992E-05 1.78382E-05 0.00000E+00
 -1       868 1.99607E-05 1.85745E-05 0.00000E+00
 -1       869 1.99224E-05 1.92642E-05 0.00000E+00
 -1       870 1.98841E-05 1.98973E-05-8.27181E-25
 -1       871 2.00626E-05 8.99094E-06 0.00000E+00
 -1       872 1.97170E-05 8.98586E-06 0.00000E+00
 -1       873 1.94026E-05 8.98061E-06 0.00000E+00
 -1       874 1.90999E-05 8.97515E-06 0.00000E+00
 -1       875 1.87899E-05 8.96942E-06 2.06795E-25
 -1       876 2.03292E-05 9.52593E-06 0.00000E+00
 -1       877 2.01816E-05 1.01135E-05 0.00000E+00
 -1       878 2.00155E-05 1.07501E-05 0.00000E+00
 -1       879 1.98339E-05 1.14289E-05 8.27181E-25
 -1       880 1.96393E-05 1.21428E-05-1.65436E-24
 -1       881 1.94341E-05 1.28847E-05-8.27181E-25
 -1       882 1.92211E-05 1.36475E-05 0.00000E+00
 -1       883 1.90029E-05 1.44244E-05 0.00000E+00
 -1       884 1.87820E-05 1.52082E-05-1.65436E-24
 -1       885 1.85611E-05 1.59919E-05 0.00000E+00
 -1       886 1.83429E-05 1.67687E-05 1.65436E-24
 -1       887 1.81299E-05 1.75313E-05 0.00000E+00
 -1       888 1.79247E-05 1.82729E-05 0.00000E+00
 -1       889 1.77296E-05 1.89862E-05 0.00000E+00
 -1       890 1.75477E-05 1.96644E-05-8.27181E-25
 -1       891 1.93898E-05 2.04366E-05 0.00000E+00
 -1       892 1.90075E-05 2.04090E-05 0.00000E+00
 -1       893 1.86577E-05 2.03814E-05-8.27181E-25
 -1       894 1.82978E-05 2.03538E-05-2.06795E-25
 -1       895 1.78854E-05 2.03262E-05 4.13590E-25
 -1       926 2.39767E-08-1.48087E-06-5.16988E-26
 -1       927 2.37098E-08-7.90656E-07 1.29247E-26
 -1       928 2.35293E-08-2.66820E-07 0.00000E+00
 -1       929 2.34428E-08 1.09533E-07 6.46235E-27
 -1       930 2.33943E-08 3.57294E-07 6.46235E-27
 -1       931 2.33671E-08 4.95355E-07 6.46235E-27
 -1       932 2.33424E-08 5.42620E-07-2.58494E-26
 -1       933 2.32967E-08 5.17989E-07 2.58494E-26
 -1       934 2.32266E-08 4.40368E-07 0.00000E+00
 -1       935 2.30485E-08 3.28662E-07-1.03398E-25
 -1       936 2.28073E-08 2.01776E-07-4.13590E-25
 -1       937 2.20671E-08 7.86187E-08 0.00000E+00
 -1       938 2.12589E-08-2.19306E-08-1.65436E-24
 -1       939 1.79638E-08-8.09865E-08-1.65436E-24
 -1       940 1.55086E-08-7.98976E-08 0.00000E+00
 -1       956 1.92367E-05 1.76324E-06 0.00000E+00
 -1       957 1.91847E-05 2.08805E-06 4.13590E-25
 -1       958 1.91326E-05 2.46321E-06 8.27181E-25
 -1       959 1.90803E-05 2.88225E-06 8.27181E-25
 -1       960 1.90280E-05 3.33868E-06 8.27181E-25
 -1       961 1.89756E-05 3.82598E-06 4.13590E-25
 -1       962 1.89232E-05 4.33763E-06 0.00000E+00
 -1       963 1.88708E-05 4.86712E-06 0.00000E+00
 -1       964 1.88184E-05 5.40791E-06-1.65436E-24
 -1       965 1.87660E-05 5.95348E-06 0.00000E+00
 -1       966 1.87136E-05 6.49731E-06 1.65436E-24
 -1       967 1.86612E-05 7.03287E-06-8.27181E-25
 -1       968 1.86089E-05 7.55363E-06-1.65436E-24
 -1       969 1.85567E-05 8.05310E-06 0.00000E+00
 -1       970 1.85046E-05 8.52478E-06 0.00000E+00
 -1       971 1.83875E-05 9.41366E-06 0.00000E+00
 -1       972 1.83204E-05 9.94484E-06-8.27181E-25
 -1       973 1.82531E-05 1.05463E-05 1.65436E-24
 -1       974 1.81856E-05 1.12082E-05 8.27181E-25
 -1       975 1.81181E-05 1.19209E-05-1.65436E-24
 -1       976 1.80505E-05 1.26745E-05-8.27181E-25
 -1       977 1.79828E-05 1.34592E-05 1.65436E-24
 -1       978 1.79151E-05 1.42651E-05-8.27181E-25
 -1       979 1.78474E-05 1.50825E-05 1.65436E-24
 -1       980 1.77798E-05 1.59015E-05 8.27181E-25
 -1       981 1.77121E-05 1.67124E-05 0.00000E+00
 -1       982 1.76446E-05 1.75051E-05 0.00000E+00
 -1       983 1.75771E-05 1.82700E-05-1.65436E-24
 -1       984 1.75100E-05 1.89972E-05 0.00000E+00
 -1       985 1.74430E-05 1.96769E-05 0.00000E+00
 -3
    1PSTEP                         6           3           1          
  100CL  103 3.28125E-01         568                     0    3           1
 -4  STRESS      6    1
 -5  SXX         1    4    1    1
 -5  SYY         1    4    2    2
 -5  SZZ         1    4    3    3
 -5  SXY         1    4    1    2
 -5  SYZ         1    4    2    3
 -5  SZX         1    4    3    1
 -1         1-8.94942E+05-3.52690E+05-1.71435E+05-4.61265E+05-6.54836E-11 2.38651E-09
 -1         2-4.67376E+04-3.75415E+05-1.08280E+03 5.70253E+03 1.59889E-09-5.19792E-09
 -1         3-1.37473E+01-4.54531E+05-6.68298E+01-6.99209E+01 4.04389E-10 5.39671E-09
 -1         4 4.47150E+00-4.87660E+00-5.02984E-01-5.62505E+00 2.16569E-09-7.00688E-10
 -1         5-4.08153E+00 1.91198E+05 1.03073E+01-2.01225E+00 1.88283E-10-8.08541E-10
 -1         8-8.58114E+05-2.88293E+05-1.20279E+05-3.14484E+05 1.21872E-10-8.14907E-10
 -1         9-8.87558E+05-3.70371E+05-1.46194E+05-1.98247E+05-1.07593E-09 1.75472E-09
 -1        10-9.56593E+03-2.68210E+05 3.31994E+04-1.47830E+03-1.61970E-09 3.96196E-09
 -1        11 1.10850E+00-2.05406E+00-7.25715E-01 3.32349E-01 9.91710E-10 5.06745E-10
 -1        12-4.44059E+03 7.24097E+04-2.42724E+04 3.47464E+03 4.99648E-09 8.59140E-10
 -1        15 1.19059E+03 6.43831E+02 3.69502E+03 9.22087E-01-2.45421E-11 2.38011E-09
 -1        16-1.06799E+06-2.81893E+05-9.20015E+04-3.52113E+05 9.01025E-10 1.10931E-08
 -1        17-2.28785E+05-1.62441E+05-2.09332E+04-1.42390E+05-2.53567E-09 1.34726E-09
 -1        18 1.50635E+04 4.97337E+03-5.52806E+03-4.08286E+04 1.58252E-10 6.34827E-10
 -1        19 4.30831E+04 5.03955E+04-5.08456E+03 5.13378E+03 1.51878E-09 1.03076E-11
 -1        20 2.75408E+04-4.02669E+04-9.17180E+03 1.98990E+04 2.03158E-09-2.01908E-09
 -1        21-3.84353E+02-7.11975E+04 2.08197E+04-2.44834E+02 8.65086E-09-2.63090E-09
 -1        23 2.88651E-01 1.37509E-01 5.28792E+00 2.52921E-04 5.22386E-09 2.06045E-09
 -1        24-5.51577E+05-1.65732E+05 3.77517E+04-2.96961E+05-3.66563E-09 9.93896E-10
 -1        25 1.32133E+03 1.42519E+04 1.02506E+04-1.73266E+05 4.87762E-10-5.33691E-10
 -1        26-5.54705E+02 4.63228E+04 9.52718E+02-8.00378E+03-2.82817E-10 6.06614E-10
 -1        27-1.12082E+04-2.99694E+04-1.33425E+04 3.30851E+04 1.94912E-09-6.39981E-10
 -1        28-5.41423E+03-5.58584E+04-2.79692E+03 2.03608E+04 4.37569E-09-8.35019E-10
 -1        31 1.83319E+03 2.11484E+03 3.13721E+03-7.96460E+01 1.59449E-09-8.27072E-10
 -1        32-2.41574E+05 4.05791E+04 1.43904E+05-3.54197E+05-1.97117E-09 1.69772E-10
 -1        33-5.54598E+04 5.72878E+04 1.74906E+04-1.70421E+04 1.39570E-10 6.76967E-10
 -1        34-7.09234E+04-3.64836E+03 4.75745E+03 2.39735E+04 1.74533E-09 8.34802E-10
 -1        35-1.38233E+04-1.59863E+04-5.27390E+02 3.21976E+04 1.01636E-10-1.61223E-09
 -1        36-4.66693E+03-1.52335E+04 3.51290E+04 1.22145E-07-9.01118E-13 3.04681E-09
 -1        37 1.05980E+04 1.76325E+04 2.48721E+04-1.46697E-07-5.14300E-10 1.44792E-09
 -1        38 1.20695E+03-2.39531E+03 9.09669E+03-3.18488E-08-1.65328E-10 5.77484E-09
 -1        39 3.75111E+03 2.77216E+03 5.73233E+03-3.48818E-07 4.10722E-11 2.67505E-09
 -1        40 2.17818E+03-3.76342E+02 2.35239E+03-1.92279E-08 1.90279E-12 2.94449E-10
 -1        41 2.62091E+03 4.44128E+02 1.42733E+03-3.98740E-08-5.49116E-11 1.68656E-09
 -1        42 2.33707E+03-6.77231E+01 7.37874E+02 1.59122E-07 2.04826E-11 1.29762E-09
 -1        43 2.46359E+03 1.38173E+02 6.62222E+02-4.23738E-07-6.69461E-11-5.07945E-09
 -1        44 2.33550E+03-7.04365E+01 7.61933E+02-1.90283E-07 5.24329E-12 1.36103E-09
 -1        45 2.63338E+03 4.67401E+02 1.49703E+03 6.08910E-07 6.74671E-12-2.68983E-10
 -1        46 2.16728E+03-3.96900E+02 2.47768E+03 1.15424E-07 2.44732E-11-9.55652E-10
 -1        47 3.82646E+03 2.92449E+03 6.04558E+03 5.17696E-07 1.07153E-10 9.18590E-11
 -1        48 1.14252E+03-2.52707E+03 9.59622E+03 2.73065E-07-1.47878E-11 1.62163E-09
 -1        49 1.10501E+04 1.86027E+04 2.62400E+04 4.82306E-07 3.49421E-10-2.48656E-09
 -1        50-5.05443E+03-1.60716E+04 3.70620E+04 2.05857E-07 2.27286E-09-7.69433E-10
 -1        51 1.27083E+04-2.06439E+05 2.08495E+04-5.42278E+05-9.45874E-11 2.67028E-09
 -1        52 5.80623E+03-2.04365E+05 1.33997E+04-5.98078E+05 2.18279E-11 3.59796E-09
 -1        53 4.06104E+03-2.08389E+05 1.20322E+04-5.40879E+05-2.07365E-10-6.25732E-10
 -1        54 1.05325E+04-2.05818E+05 1.98281E+04-5.99601E+05 7.27596E-11-2.37560E-09
 -1        55 2.58528E+04-2.12089E+05 3.69781E+04-5.40656E+05 4.36557E-11-1.57888E-09
 -1        56-2.54095E+06-2.79174E+05-2.16047E+05-9.85720E+05-4.00178E-11-1.67347E-09
 -1        57-2.64496E+06-4.66750E+05-1.46980E+05-9.58338E+05-2.48292E-10-1.60799E-09
 -1        58-2.58394E+06-3.51198E+05-5.07917E+04-9.72546E+05 3.36513E-10-2.93949E-09
 -1        59-2.59527E+06-3.82586E+05-3.07367E+04-9.73675E+05 5.46834E-10-2.55932E-09
 -1        60-2.59026E+06-3.61779E+05-1.18765E+04-9.70900E+05-2.08729E-10-3.23325E-09
 -1        61-2.58834E+06-3.69880E+05-6.85583E+03-9.75121E+05-6.47105E-10-4.33647E-09
 -1        62-2.59080E+06-3.63693E+05-3.27502E+03-9.71158E+05 1.09247E-09 1.75635E-09
 -1        63-2.58843E+06-3.67276E+05-2.77871E+03-9.74116E+05-5.28530E-10 1.89849E-09
 -1        64-2.59015E+06-3.64361E+05-3.16815E+03-9.71908E+05-5.67354E-10 2.09877E-09
 -1        65-2.59076E+06-3.67275E+05-6.53059E+03-9.72267E+05-4.29011E-10 1.34457E-09
 -1        66-2.58848E+06-3.63718E+05-1.12766E+04-9.73001E+05 1.55751E-10 2.38379E-09
 -1        67-2.59930E+06-3.77344E+05-2.91482E+04-9.68637E+05-2.38288E-10-2.19734E-09
 -1        68-2.58168E+06-3.54491E+05-4.81638E+04-9.75482E+05-1.07320E-10-8.20364E-10
 -1        69-2.64751E+06-4.56058E+05-1.39361E+05-9.52858E+05-1.38516E-09 8.85848E-10
 -1        70-2.54064E+06-2.86482E+05-2.04858E+05-9.88291E+05-2.94676E-10-3.78350E-10
 -1        86 1.67490E+04-8.36868E+05-3.91744E+04-2.13464E+03 9.64064E-10 2.84821E-09
 -1        87-2.10417E+04-8.50051E+05-3.01545E+04 4.18503E+03-2.27919E-09-3.88357E-09
 -1        88 4.25660E+03-8.46118E+05-1.75346E+04 5.08475E+03 5.79871E-09 2.80036E-09
 -1        89-1.63521E+04-8.43772E+05-2.37718E+04-2.61896E+03-4.79758E-11-5.36471E-10
 -1        90 1.20771E+04-8.43136E+05-3.07627E+04 4.66953E+03 3.86171E-09-1.63203E-09
 -1       121-6.85649E+00-4.54593E+05-8.60585E+01 3.49576E+01-5.84453E-10 3.91697E-09
 -1       122-4.00388E+01-4.54548E+05-1.50620E+02-1.39435E+02-4.41808E-10-9.05629E-10
 -1       123 1.56996E+01-4.54576E+05-2.65677E+02 1.04456E+02-1.41961E-09-4.15480E-09
 -1       124-3.27248E+02-4.54716E+05-6.38414E+02-3.04917E+02-1.02614E-09 8.20364E-10
 -1       125 2.31930E+02-4.54427E+05-9.96374E+02 2.00378E+02-2.40965E-09 1.14414E-09
 -1       161-1.63151E+00 1.14471E+00-6.64160E-01 1.20125E+00 9.44552E-07-3.53722E-07
 -1       162 4.36485E+00-4.96672E+00-1.22219E+00-5.63190E+00 1.88864E-06-7.08301E-07
 -1       163-1.52482E+00 1.23509E+00-2.37322E+00 1.20799E+00 9.30294E-07-3.50238E-07
 -1       164 3.83536E+00-5.59228E+00-5.29591E+00-5.58971E+00-2.89455E-08 1.21467E-08
 -1       165-1.10207E+00 1.77039E+00-1.03133E+01 1.15897E+00-1.08403E-06 4.06748E-07
 -1       166 9.68490E-01-9.59222E+00-2.38645E+01-5.09476E+00-2.13846E-06 8.02805E-07
 -1       167 1.34225E+00 5.23471E+00-4.52215E+01 7.13270E-01-3.20742E-06 1.20140E-06
 -1       168-1.58167E+01-3.52456E+01-1.08504E+02-1.22382E+00-4.27503E-06 1.60479E-06
 -1       169 1.56832E+01 2.74209E+01-1.97756E+02-2.71063E+00-5.31052E-06 1.99147E-06
 -1       170-1.16445E+02-1.99074E+02-4.98535E+02 2.63619E+01-6.34508E-06 2.37852E-06
 -1       171 1.01970E+02 1.69044E+02-8.60317E+02-2.68640E+01-7.21629E-06 2.70474E-06
 -1       172-7.28608E+02-1.24151E+03-2.32243E+03 2.14217E+02-8.08485E-06 3.03235E-06
 -1       173 6.27853E+02 1.06972E+03-3.71421E+03-1.90502E+02-8.17786E-06 3.06524E-06
 -1       174-4.49309E+03-7.85872E+03-1.10129E+04 1.45983E+03-8.26574E-06 3.09695E-06
 -1       175 3.86673E+03 6.78533E+03-1.58508E+04-1.27197E+03-4.13264E-06 1.54718E-06
 -1       191-4.09767E+00 1.91214E+05 1.24519E+01 1.00572E+00-7.15659E-11-8.11724E-10
 -1       192-7.61903E-01 1.91200E+05 2.28744E+01-9.32440E+00-7.85860E-11 4.98403E-10
 -1       193 6.42669E+00 1.91212E+05 4.34813E+01 8.31818E+00-3.00417E-10 2.10230E-09
 -1       194 4.19994E+01 1.91214E+05 9.72289E+01-7.30930E+01-2.83762E-10 2.61934E-10
 -1       195 1.28911E+02 1.91199E+05 1.97656E+02 6.48099E+01-5.63887E-10 1.53523E-09
 -1       251-1.45892E+06 3.55310E+04-8.23148E+04-1.44031E+03-2.28177E-09 9.85892E-10
 -1       252-1.49234E+06-4.11764E+04-5.79148E+04-3.52915E+02-4.68555E-10-2.40107E-09
 -1       253-1.47165E+06 5.63875E+03-2.12558E+04 2.37500E+03 4.68471E-10-1.61617E-09
 -1       254-1.47707E+06-6.55763E+03-1.33406E+04 5.14326E+01 3.26276E-09 3.58887E-09
 -1       255-1.47415E+06 9.15939E+02-5.53938E+03-1.84454E+03-3.36795E-09 4.02974E-09
 -1       256-1.47308E+06-1.04385E+03-3.00059E+03 1.04747E+03-2.90567E-09 2.62349E-09
 -1       257-1.47563E+06 1.25906E+02-1.98430E+03 1.37893E+03-1.11798E-09 2.47013E-09
 -1       258-1.47103E+06-2.21470E+02-8.44718E+02-1.08016E+03-2.61655E-09 9.51417E-12
 -1       259-1.47619E+06 9.38203E+01-2.11762E+03 2.83118E+02-2.81351E-09-8.38895E-10
 -1       260-1.47156E+06-9.70083E+02-2.74015E+03 1.43423E+03-5.33958E-09 6.75527E-10
 -1       261-1.47510E+06 8.74391E+02-5.83714E+03-1.13549E+03-3.00006E-09-6.75527E-10
 -1       262-1.47604E+06-6.62474E+03-1.33749E+04-5.75182E+02-2.04949E-09-3.42743E-09
 -1       263-1.47172E+06 5.74750E+03-2.16929E+04 2.29258E+03-1.22956E-10-1.00772E-09
 -1       264-1.49349E+06-4.20820E+04-5.92206E+04 2.67765E+02 2.52898E-09 4.14730E-10
 -1       265-1.45770E+06 3.63274E+04-8.37251E+04-1.97858E+03-4.86711E-09-1.45519E-11
 -1       266-2.09323E+04-9.68125E+03 4.83056E+04-1.89745E+01-3.63798E-12-1.72076E-09
 -1       267 2.42408E+04 1.13033E+04 3.42693E+04 2.18187E+01-1.09139E-11-3.93594E-09
 -1       268-3.30314E+03-1.61841E+03 1.26839E+04-2.84124E+00 9.54969E-12-1.05993E-10
 -1       269 3.89907E+03 1.94052E+03 8.28977E+03 3.30305E+00 3.88809E-11-1.18706E-09
 -1       270-5.95209E+02-3.21914E+02 3.98010E+03-4.60903E-01-3.24007E-11 1.84635E-09
 -1       271-2.03159E+06-2.58802E+05-1.57568E+05-7.86309E+05-4.71118E-10-1.95723E-09
 -1       272-2.08224E+06-3.61731E+05-9.87856E+04-7.91609E+05 7.09292E-10-4.72028E-09
 -1       273-2.05896E+06-2.92510E+05-3.71552E+04-7.82260E+05 3.34296E-10 2.74667E-10
 -1       274-2.05044E+06-3.17260E+05-2.02711E+04-7.99280E+05-6.39375E-10 2.43153E-09
 -1       275-2.06237E+06-2.95656E+05-8.62843E+03-7.81541E+05 1.18280E-09 4.18413E-09
 -1       276-2.04640E+06-3.13282E+05-4.53204E+03-8.00596E+05-4.15639E-10-3.48382E-09
 -1       277-2.06299E+06-2.95771E+05-2.30226E+03-7.81255E+05-7.12362E-10 9.84983E-10
 -1       278-2.04574E+06-3.13169E+05-1.74257E+03-8.01026E+05-1.19263E-09-2.59412E-10
 -1       279-2.06309E+06-2.95692E+05-2.01337E+03-7.81166E+05 1.46113E-09 5.17218E-09
 -1       280-2.04603E+06-3.13493E+05-3.74611E+03-8.00993E+05-5.63688E-10 1.88265E-09
 -1       281-2.06270E+06-2.95482E+05-7.01452E+03-7.81276E+05-3.99382E-10-3.68345E-11
 -1       282-2.04915E+06-3.16889E+05-1.64360E+04-8.00148E+05-1.25249E-09-8.58563E-10
 -1       283-2.06001E+06-2.92860E+05-3.00889E+04-7.81780E+05-3.11218E-10-2.91038E-10
 -1       284-2.07479E+06-3.53014E+05-8.00062E+04-7.94065E+05 4.17458E-10 3.46517E-10
 -1       285-2.03789E+06-2.65527E+05-1.27610E+05-7.85017E+05-1.90994E-10-6.54836E-10
 -1       286-4.63150E+04-1.87989E+04 4.33405E+04-2.44238E+01 1.60141E-09 3.96358E-09
 -1       287-2.73836E+04 2.17600E+04 3.07010E+04-4.57200E+01 6.53699E-10 2.61343E-09
 -1       288-3.90661E+04-2.95649E+03 1.12158E+04 8.30589E+00-1.75561E-10 1.33241E-09
 -1       289-3.58479E+04 3.42106E+03 7.07681E+03-1.16024E+02 1.92957E-12 7.33053E-10
 -1       290-3.78542E+04-4.64103E+02 2.88909E+03 4.58824E+01 3.77424E-10-1.32445E-10
 -1       291-3.72713E+04 5.44718E+02 1.74284E+03-1.77252E+02 8.61551E-10-3.53361E-09
 -1       292-3.76431E+04-8.05353E+01 8.69039E+02 6.95346E+01 4.95208E-07-1.53875E-10
 -1       293-3.74908E+04 1.50632E+02 7.27360E+02-2.04124E+02 9.86469E-07-3.54307E-09
 -1       294-3.76349E+04-7.00044E+01 7.76945E+02 7.27552E+01 4.94778E-07 8.53902E-10
 -1       295-3.73261E+04 4.54954E+02 1.47341E+03-1.89363E+02 5.40417E-10 2.23537E-10
 -1       296-3.78076E+04-3.84850E+02 2.40810E+03 5.47730E+01-2.19016E-11 4.52474E-10
 -1       297-3.61454E+04 2.83483E+03 5.87050E+03-1.37086E+02 6.01226E-10-2.19109E-09
 -1       298-3.88152E+04-2.44958E+03 9.29532E+03 2.04780E+01 2.62215E-10 4.70209E-10
 -1       299-2.91248E+04 1.80289E+04 2.54393E+04-6.78378E+01-1.20352E-10 1.37015E-09
 -1       300-4.48258E+04-1.55757E+04 3.59058E+04-1.44777E+01 1.94582E-09 2.11730E-09
 -1       301 2.05886E+04-1.17988E+04 5.71761E+04-1.99107E+04 8.11269E-10 3.42112E-09
 -1       302 7.51251E+03-1.54870E+02 3.73962E+04-2.43543E+04 1.69712E-09 8.45233E-09
 -1       303 1.63538E+03-7.71389E+03 3.28177E+04-1.99101E+04 6.00721E-10 2.19245E-09
 -1       304 1.23269E+04 3.40910E+03 5.23364E+04-2.43280E+04 1.50885E-09-9.28549E-09
 -1       305 3.50077E+04-1.53478E+04 9.27395E+04-1.99209E+04 7.93079E-10-2.90788E-09
 -1       306-1.06674E+06-1.43087E+05-6.16092E+04-4.14289E+05 3.82443E-10 1.64437E-09
 -1       307-1.07595E+06-1.93751E+05-3.86005E+04-4.28392E+05 4.61455E-10 1.86219E-09
 -1       308-1.07749E+06-1.56176E+05-1.45365E+04-4.12673E+05-1.31877E-11-7.02130E-10
 -1       309-1.06356E+06-1.76410E+05-7.93545E+03-4.31453E+05 5.49790E-10-1.14596E-09
 -1       310-1.07882E+06-1.57407E+05-3.39520E+03-4.12413E+05 1.15278E-10 2.33786E-09
 -1       311-1.06205E+06-1.74801E+05-1.81746E+03-4.31918E+05 9.98170E-11-1.03449E-09
 -1       312-1.07902E+06-1.57490E+05-9.90868E+02-4.12349E+05-2.89674E-10-1.48114E-09
 -1       313-1.06190E+06-1.74667E+05-8.80815E+02-4.31964E+05 9.55936E-10 3.68334E-09
 -1       314-1.07898E+06-1.57520E+05-1.19281E+03-4.12381E+05-1.49839E-10 2.69256E-09
 -1       315-1.06221E+06-1.74757E+05-2.36685E+03-4.31760E+05 1.45485E-09 9.76456E-10
 -1       316-1.07866E+06-1.57451E+05-4.51982E+03-4.12509E+05-1.99543E-09-1.44109E-09
 -1       317-1.06427E+06-1.76869E+05-1.06128E+04-4.31077E+05-5.63227E-09-1.62800E-09
 -1       318-1.07687E+06-1.55812E+05-1.94636E+04-4.12865E+05-3.10774E-09 1.75896E-09
 -1       319-1.08085E+06-2.00112E+05-5.16912E+04-4.27006E+05-1.56359E-09 3.95630E-10
 -1       320-1.06251E+06-1.38244E+05-8.24967E+04-4.14995E+05-1.11322E-09 2.76486E-10
 -1       336 2.72816E+02-4.54393E+05-1.74535E+03-5.95210E+02-3.24161E-09 1.62277E-09
 -1       337-8.18990E+02-4.55080E+05-2.72959E+03-4.02483E+03-2.30916E-09-1.53386E-09
 -1       338 4.15444E+02-4.54268E+05-4.15866E+03-5.05644E+02-3.92424E-09-8.81755E-10
 -1       339-4.99482E+03-4.57524E+05-9.96317E+03-4.19065E+03-2.63731E-09 2.72178E-09
 -1       340 3.74368E+03-4.51962E+05-1.53333E+04-4.30530E+02-4.45471E-09 5.48175E-09
 -1       356-3.32097E-01 1.28571E-01-1.08477E+00-8.82817E-01-1.22445E-07 2.38072E-10
 -1       357-5.93613E-01-2.39794E-01-2.29218E+00 3.55313E+00-2.45016E-07 8.66807E-10
 -1       358-2.76344E-01 1.11927E-01-4.34185E+00-8.82670E-01-1.45646E-07-1.26786E-09
 -1       359-1.10876E+00-7.56917E-01-9.11242E+00 3.55302E+00-4.61241E-08-2.25516E-09
 -1       360 1.82978E-01 6.45765E-01-1.74091E+01-8.82708E-01 4.28350E-08 6.31612E-10
 -1       361-4.02481E+00-4.91136E+00-3.72320E+01 3.55315E+00 1.31938E-07 1.17578E-09
 -1       362 2.63977E+00 4.26619E+00-6.96955E+01-8.82800E-01 1.75687E-07 1.87900E-09
 -1       363-2.00973E+01-3.20312E+01-1.53517E+02 3.55509E+00 2.18987E-07 2.90881E-09
 -1       364 1.62559E+01 2.77625E+01-2.78000E+02-8.84645E-01 2.14717E-07 3.57659E-10
 -1       365-1.11998E+02-2.06403E+02-6.40706E+02 3.56898E+00 2.11863E-07 1.79244E-09
 -1       366 9.45439E+01 1.78614E+02-1.10231E+03-8.96684E-01 1.62715E-07 4.86523E-10
 -1       367-6.53484E+02-1.31987E+03-2.72129E+03 3.65220E+00 1.14641E-07-1.19144E-10
 -1       368 5.57779E+02 1.14104E+03-4.32894E+03-9.67831E-01 3.91582E-08 1.38789E-09
 -1       369-3.91583E+03-8.40008E+03-1.18466E+04 4.12685E+00-3.85258E-08-7.18501E-11
 -1       370 3.35738E+03 7.25755E+03-1.67309E+04-1.37108E+00-1.67652E-08 6.17547E-10
 -1       376-4.98006E-01 7.95792E-01-4.73630E-01 8.11051E-01 3.78883E-07-1.40486E-07
 -1       377 2.79041E+00-2.88915E+00-8.42894E-01-3.05437E+00 7.55122E-07-2.82566E-07
 -1       378-4.77898E-01 7.75998E-01-1.50419E+00 8.28284E-01 2.03716E-07-7.60212E-08
 -1       379 2.49231E+00-3.19681E+00-3.34507E+00-3.05005E+00-3.48083E-07 1.32146E-07
 -1       380-1.99872E-01 1.10350E+00-6.47385E+00 8.06719E-01-1.00541E-06 3.79596E-07
 -1       381 6.98366E-01-5.69894E+00-1.49931E+01-2.74052E+00-1.66057E-06 6.22620E-07
 -1       382 1.31608E+00 3.27794E+00-2.83908E+01 5.18849E-01-2.27915E-06 8.52863E-07
 -1       383-9.72492E+00-2.17858E+01-6.81048E+01-2.66643E-01-2.89768E-06 1.08957E-06
 -1       384 1.02234E+01 1.71886E+01-1.24177E+02-1.66637E+00-3.43911E-06 1.29092E-06
 -1       385-7.29283E+01-1.24641E+02-3.12984E+02 1.70519E+01-3.98020E-06 1.49292E-06
 -1       386 6.45191E+01 1.06121E+02-5.40132E+02-1.67943E+01-4.37184E-06 1.63914E-06
 -1       387-4.57435E+02-7.79104E+02-1.45812E+03 1.34982E+02-4.76101E-06 1.78819E-06
 -1       388 3.94730E+02 6.71561E+02-2.33192E+03-1.19558E+02-4.68708E-06 1.75942E-06
 -1       389-2.82115E+03-4.93343E+03-6.91435E+03 9.17225E+02-4.61025E-06 1.73021E-06
 -1       390 2.42832E+03 4.25985E+03-9.95194E+03-7.98744E+02-2.30456E-06 8.61695E-07
 -1       406 1.49736E+02 1.91190E+05 4.98672E+02-6.52607E+01-7.26232E-10 2.22326E-09
 -1       407 1.79366E+02 1.91294E+05 8.93852E+02 6.66000E+01-4.06430E-10 1.40449E-09
 -1       408 4.30434E+02 1.91141E+05 1.70854E+03-1.20967E+00-9.62189E-10 5.48880E-10
 -1       409 1.79632E+03 1.91826E+05 3.81186E+03-6.10746E+01-6.54609E-10-1.30376E-09
 -1       410 5.18512E+03 1.90657E+05 7.76058E+03 6.47797E+01-1.24965E-09-1.50203E-09
 -1       501-2.31302E+05-2.66607E+04 5.85940E+04-3.11631E+03 1.62154E-05-5.21868E-08
 -1       502-1.89832E+05 3.03054E+04 4.41626E+04 8.28493E+03 3.20352E-05-2.51352E-07
 -1       503-2.16039E+05-3.59964E+03 1.52642E+04-3.89215E+03 1.61277E-05-1.01957E-07
 -1       504-1.93326E+05 5.10664E+03 1.30777E+04 5.22499E+03 1.24229E-08 6.80006E-09
 -1       505-2.27753E+05-1.53507E+03 9.28064E+02-5.61899E+01 1.15671E-09-8.01720E-10
 -1       506-1.92575E+05 1.31934E+03 6.19530E+03-3.00876E+03 9.41776E-09-5.50057E-09
 -1       507-2.16769E+05 1.66754E+02 2.13436E+02 4.34095E+03 9.96984E-09-6.60117E-09
 -1       508-2.04583E+05-4.58983E+02 1.96031E+03-7.55318E+03 3.54222E-09-1.03139E-08
 -1       509-2.15831E+05 3.38615E+02-2.65301E+02 4.48907E+03 9.72307E-09-7.21884E-09
 -1       510-1.93667E+05 6.02839E+02 4.10877E+03-3.45558E+03 1.07453E-08-6.93610E-09
 -1       511-2.27604E+05-9.84638E+02-2.56319E+03 2.42517E+02-1.51354E-09-2.64367E-09
 -1       512-1.94534E+05 9.85008E+02 4.61703E+03 4.83707E+03-7.36321E-09 2.42500E-09
 -1       513-2.14976E+05-3.61504E+01 1.32264E+03-3.80296E+03-3.28745E-09 6.01710E-09
 -1       514-2.02539E+05 3.47549E+03 6.33337E+03 8.31972E+03-2.69654E-09 8.49161E-09
 -1       515-2.19672E+05-3.39909E+03 5.40788E+03-3.24032E+03-4.08610E-09 4.62342E-09
 -1       521-2.08541E+06-2.70897E+05-1.32385E+05-8.02934E+05-3.67436E-10 1.31695E-09
 -1       522-2.12522E+06-3.60150E+05-8.30006E+04-8.10579E+05 5.24096E-10-2.68483E-09
 -1       523-2.10831E+06-2.99296E+05-3.12086E+04-7.99614E+05-5.41490E-10-5.62068E-10
 -1       524-2.09866E+06-3.22612E+05-1.70408E+04-8.16811E+05 8.48104E-11 9.04947E-10
 -1       525-2.11108E+06-3.02045E+05-7.25659E+03-7.99116E+05 2.59433E-10 1.15870E-09
 -1       526-2.09546E+06-3.19052E+05-3.84150E+03-8.17640E+05-7.53744E-10-2.27510E-09
 -1       527-2.11147E+06-3.02278E+05-1.99801E+03-7.99016E+05-3.52060E-10-2.82464E-09
 -1       528-2.09515E+06-3.18697E+05-1.60950E+03-8.17662E+05-1.32729E-10 3.48734E-10
 -1       529-2.11138E+06-3.02365E+05-1.98735E+03-7.99106E+05-1.08685E-09-9.91804E-10
 -1       530-2.09574E+06-3.18736E+05-3.80429E+03-8.17248E+05-9.31664E-10-3.21495E-09
 -1       531-2.11083E+06-3.02305E+05-7.18942E+03-7.99382E+05 1.30285E-10-6.45741E-11
 -1       532-2.09920E+06-3.21951E+05-1.68623E+04-8.16045E+05-1.29808E-09 1.31513E-09
 -1       533-2.10793E+06-2.99750E+05-3.08932E+04-8.00046E+05-2.38185E-09 2.98314E-10
 -1       534-2.12577E+06-3.58780E+05-8.21300E+04-8.09497E+05-4.31351E-09-1.28239E-10
 -1       535-2.08510E+06-2.71818E+05-1.31015E+05-8.03511E+05-3.45972E-09 1.81899E-09
 -1       536-2.44501E+03-6.54629E+03 2.64344E+04-4.97264E+03 1.08230E-10-1.06411E-10
 -1       537 7.39236E+03 8.53743E+03 1.70662E+04-2.14647E+04-1.56183E-09-2.76123E-09
 -1       538 1.56562E+03-7.23568E+02 6.84228E+03-4.89923E+03-1.85082E-10-8.41737E-10
 -1       539 2.80974E+03 8.43924E+02 3.85046E+03-2.15431E+04 1.41063E-09-3.08614E-09
 -1       540 2.02202E+03-9.41953E+01 1.72035E+03-4.89233E+03-3.22871E-11-1.49123E-09
 -1       541 2.21529E+03 7.99174E+01 9.09627E+02-2.15492E+04-3.36513E-11-2.31353E-10
 -1       542 2.07557E+03-1.42786E+01 4.13325E+02-4.89317E+03-1.81444E-10 2.16465E-09
 -1       543 2.10103E+03 1.52508E+01 1.89487E+02-2.15480E+04 2.29647E-10-4.81293E-10
 -1       544 2.08204E+03 2.27827E+00 3.96400E+01-4.89365E+03 1.94859E-10 3.71131E-10
 -1       545 2.06009E+03 2.10261E+00-8.83544E+01-2.15474E+04-2.07706E-10 4.01315E-10
 -1       546 2.09248E+03 1.54084E+01-2.45459E+02-4.89370E+03-1.00613E-11 1.29484E-09
 -1       547 1.97926E+03-1.24518E+02-5.91283E+02-2.15449E+04-4.42469E-10 7.81455E-10
 -1       548 2.16907E+03 1.07117E+02-1.07473E+03-4.89623E+03-6.67569E-10-2.14072E-10
 -1       549 1.30010E+03-1.34933E+03-2.68026E+03-2.15044E+04-3.30260E-10-9.29049E-10
 -1       550 2.80807E+03 1.00746E+03-4.17125E+03-4.93411E+03 5.00222E-11-7.68296E-10
 -1       551 5.14020E+03-1.82171E+05 1.40078E+04-2.90104E+05 7.54881E-10 1.71167E-09
 -1       552 3.31212E+03-1.79819E+05 1.38685E+04-3.54006E+05-3.30328E-09 3.58705E-09
 -1       553 2.27207E+03-1.82268E+05 1.94657E+04-2.89549E+05 5.27507E-10 5.95719E-10
 -1       554 1.15960E+04-1.73866E+05 3.93681E+04-3.54082E+05-2.86673E-09-3.24371E-09
 -1       555 2.98642E+04-1.88428E+05 7.47076E+04-2.89973E+05 5.56611E-10-2.14095E-09
 -1       556-7.14240E+04-6.07792E+04 1.44759E+04-1.01529E+05-7.45786E-11 5.31145E-09
 -1       557-5.74433E+04-7.44858E+04 7.28437E+03-1.12480E+05-1.06229E-09-1.68609E-09
 -1       558-7.13682E+04-6.44809E+04 3.05770E+03-9.90883E+04-4.10000E-09-7.20320E-09
 -1       559-5.89152E+04-7.66629E+04 1.50934E+03-1.13024E+05 9.24047E-10 2.95267E-09
 -1       560-7.15009E+04-6.44512E+04 6.71571E+02-9.90928E+04-1.41881E-10-8.64020E-11
 -1       561-5.91942E+04-7.66788E+04 3.25569E+02-1.13214E+05-4.80213E-10-4.22176E-10
 -1       562-7.16215E+04-6.43595E+04 1.27885E+02-9.91784E+04-8.11269E-10 3.13912E-09
 -1       563-5.93327E+04-7.66207E+04 2.99705E+01-1.13309E+05 5.49335E-10 1.62629E-09
 -1       564-7.16928E+04-6.43069E+04-6.56383E+01-9.92304E+04-2.18733E-09-9.93896E-09
 -1       565-5.94075E+04-7.65923E+04-1.97551E+02-1.13355E+05-7.48287E-10-1.93722E-10
 -1       566-7.17026E+04-6.42845E+04-4.38097E+02-9.92457E+04-1.46952E-09 8.24002E-10
 -1       567-5.94884E+04-7.66230E+04-9.73649E+02-1.13346E+05-6.65636E-10 1.59980E-09
 -1       568-7.16058E+04-6.43899E+04-2.00052E+03-9.91868E+04-3.73802E-10 9.86802E-10
 -1       569-6.06571E+04-7.76544E+04-4.71644E+03-1.12999E+05-2.19143E-09-6.46287E-09
 -1       570-7.09017E+04-6.73381E+04-9.41873E+03-9.79688E+04 9.07676E-10-9.23819E-10
 -1       571 1.23014E+05 5.43806E+03 8.14513E+03-3.13863E+04 5.18412E-11 9.64292E-10
 -1       572 1.24240E+05 1.87912E+03 3.99359E+03-3.44734E+04 3.54703E-11 8.98581E-10
 -1       573 1.23512E+05 4.38611E+02 1.77492E+03-3.13050E+04-1.14142E-10-2.43517E-10
 -1       574 1.23660E+05 1.39262E+02 8.89607E+02-3.45641E+04 3.09342E-10-2.46428E-09
 -1       575 1.23570E+05 1.53344E+01 4.19533E+02-3.12943E+04 4.93287E-10-5.02041E-10
 -1       576 1.23583E+05 1.28914E+00 2.13219E+02-3.45762E+04 2.03030E-10 6.02768E-10
 -1       577 1.23579E+05-6.28979E+00 1.04494E+02-3.12929E+04-2.36469E-11-1.80307E-09
 -1       578 1.23575E+05-4.57584E+00 5.57508E+01-3.45776E+04-7.95353E-10-3.70687E-09
 -1       579 1.23585E+05-6.03782E+00 3.20368E+01-3.12929E+04-4.60204E-10-1.63368E-09
 -1       580 1.23582E+05-6.74926E+00 2.63866E+01-3.45756E+04 3.42425E-10 6.81894E-10
 -1       581 1.23595E+05-8.92593E+00 3.21339E+01-3.12949E+04-2.16914E-10-8.75389E-10
 -1       582 1.23600E+05-4.84917E+00 5.82833E+01-3.45565E+04 3.01497E-10-3.46517E-10
 -1       583 1.23606E+05 9.09918E+00 1.10250E+02-3.13120E+04-9.09495E-12 3.31056E-10
 -1       584 1.23654E+05 9.33996E+01 2.46211E+02-3.44126E+04-1.09503E-09 2.97712E-09
 -1       585 1.23593E+05 3.08863E+02 4.99234E+02-3.14389E+04 2.51021E-10 2.38833E-09
 -1       586 6.57609E+02 5.65419E+04 1.35552E+03-7.58614E+04 1.97815E-10-1.50112E-09
 -1       587 3.98228E+02 5.67849E+04 1.52414E+03-8.42106E+04-4.10637E-10-2.17483E-09
 -1       588 5.61369E+02 5.65031E+04 2.40301E+03-7.57608E+04 2.59206E-10-7.49890E-09
 -1       589 2.25233E+03 5.74496E+04 5.08673E+03-8.42377E+04-5.47516E-10-1.42109E-08
 -1       590 6.52234E+03 5.58587E+04 1.01955E+04-7.58330E+04 2.99679E-10-6.65909E-09
 -1       591-6.19295E+04-1.84032E+04-1.20594E+04-2.96788E+04 6.79472E-09 4.17731E-09
 -1       592-6.26896E+04-1.77317E+04-6.04745E+03-3.29384E+04 4.43930E-09-6.95900E-09
 -1       593-6.25078E+04-1.48879E+04-2.56748E+03-3.14150E+04 5.55895E-09 7.97729E-09
 -1       594-6.13286E+04-1.62203E+04-1.26080E+03-3.30590E+04-1.47247E-09 2.11719E-09
 -1       595-6.25730E+04-1.47925E+04-5.81815E+02-3.14812E+04-3.06591E-09-4.26209E-09
 -1       596-6.12347E+04-1.61674E+04-2.94249E+02-3.30453E+04 4.02281E-10-1.18507E-09
 -1       597-6.25840E+04-1.48028E+04-1.58564E+02-3.14812E+04 2.22139E-09 1.81996E-09
 -1       598-6.12250E+04-1.61680E+04-1.23739E+02-3.30410E+04 2.80602E-09 6.23913E-10
 -1       599-6.25835E+04-1.48033E+04-1.53238E+02-3.14809E+04 1.04501E-09-1.68700E-09
 -1       600-6.12333E+04-1.61681E+04-2.80294E+02-3.30440E+04-1.06979E-10 2.51816E-10
 -1       601-6.25716E+04-1.47942E+04-5.51621E+02-3.14802E+04-1.13255E-09 1.04092E-09
 -1       602-6.13224E+04-1.62175E+04-1.19443E+03-3.30545E+04 1.03012E-09 8.03243E-09
 -1       603-6.25079E+04-1.48868E+04-2.43157E+03-3.14183E+04-3.18687E-09 1.83400E-09
 -1       604-6.26247E+04-1.76339E+04-5.72664E+03-3.29220E+04-2.67983E-09 9.14110E-09
 -1       605-6.19446E+04-1.82285E+04-1.14191E+04-2.97888E+04-2.64822E-09 1.95541E-10
 -1       606 4.50217E+04-5.07119E+03-7.95061E+03 1.46698E+04-2.21826E-09-2.18279E-10
 -1       607 4.37661E+04-1.71084E+03-3.91185E+03 1.60843E+04-3.87445E-10-7.42943E-11
 -1       608 4.44978E+04-3.67494E+02-1.74221E+03 1.45691E+04 1.84446E-09-7.08496E-10
 -1       609 4.43354E+04-1.06573E+02-8.74504E+02 1.61964E+04-2.23736E-10-4.52474E-10
 -1       610 4.44297E+04-2.49949E-01-4.13362E+02 1.45565E+04-1.64891E-09 1.23998E-09
 -1       611 4.43982E+04 1.25542E+01-2.07928E+02 1.62103E+04-4.17822E-09-2.29056E-09
 -1       612 4.44148E+04 1.69112E+01-9.82649E+01 1.45551E+04 6.23140E-09 7.35554E-10
 -1       613 4.44031E+04 1.73307E+01-4.39755E+01 1.62121E+04 1.36852E-08 1.29148E-09
 -1       614 4.44082E+04 1.53235E+01-1.00947E+01 1.45547E+04 7.16273E-09 2.39879E-10
 -1       615 4.44021E+04 1.80208E+01 1.89119E+01 1.62123E+04 3.67913E-09-1.38925E-10
 -1       616 4.44030E+04 1.78690E+01 5.63744E+01 1.45548E+04-7.85121E-10-1.18303E-09
 -1       617 4.44099E+04 3.65008E+01 1.29517E+02 1.62118E+04 2.18620E-10-4.85102E-10
 -1       618 4.43914E+04 7.38384E+01 2.62614E+02 1.45551E+04 7.88077E-10-3.64810E-09
 -1       619 4.44958E+04 2.80006E+02 5.92554E+02 1.62094E+04 5.98845E-10 7.91260E-11
 -1       620 4.43119E+04 7.87366E+02 1.20539E+03 1.45567E+04 6.88203E-10-5.49562E-10
 -1       621 4.11820E+02 1.29242E+05 1.45766E+03-1.06633E+04 6.59497E-10 4.78110E-10
 -1       622 1.84825E+02 1.29536E+05 1.55238E+03-1.30507E+04-2.78760E-10 2.39697E-09
 -1       623 1.17437E+02 1.29274E+05 2.30657E+03-1.06656E+04 6.45514E-10 4.01087E-10
 -1       624 1.21603E+03 1.30301E+05 4.75453E+03-1.30091E+04-2.54204E-10 1.90323E-09
 -1       625 3.49946E+03 1.28482E+05 9.07653E+03-1.07041E+04 6.50743E-10-1.80398E-09
 -1       626 8.01041E+04 2.62671E+04-1.19989E+03 5.11526E+04-1.35697E-09 2.11367E-09
 -1       627 7.83625E+04 2.82733E+04-5.70709E+02 5.27443E+04 4.56930E-09 1.07388E-08
 -1       628 8.01717E+04 2.67892E+04-2.39753E+02 5.08049E+04 6.14818E-10 4.19504E-10
 -1       629 7.83883E+04 2.85724E+04-1.13760E+02 5.27905E+04 4.33306E-09-6.54694E-10
 -1       630 8.01704E+04 2.68232E+04-4.80882E+01 5.07732E+04 1.58616E-08 2.09846E-08
 -1       631 7.83825E+04 2.85967E+04-1.66204E+01 5.27952E+04 7.06450E-10-2.42561E-09
 -1       632 8.01648E+04 2.68247E+04 6.69381E+00 5.07685E+04 2.38742E-10 4.17231E-10
 -1       633 7.83805E+04 2.85987E+04 3.35261E+01 5.27951E+04-1.05729E-09 5.04360E-09
 -1       634 8.01594E+04 2.68218E+04 7.76790E+01 5.07674E+04-1.10958E-09 1.01932E-09
 -1       635 7.83883E+04 2.86002E+04 1.72616E+02 5.27968E+04-1.33446E-09 7.66704E-10
 -1       636 8.01517E+04 2.68272E+04 3.56573E+02 5.07627E+04-2.33518E-09 7.19865E-10
 -1       637 7.84704E+04 2.86875E+04 7.93817E+02 5.27848E+04 1.86674E-10-9.39508E-10
 -1       638 8.01297E+04 2.70929E+04 1.64242E+03 5.06456E+04-1.02784E-09-1.20235E-09
 -1       639 7.93087E+04 3.00978E+04 3.90382E+03 5.24472E+04-1.52022E-09-3.19687E-10
 -1       640 8.01381E+04 3.12038E+04 8.20811E+03 4.89311E+04-1.96451E-09 2.20552E-11
 -1       641-3.41132E+03 1.42558E+03-3.28620E+03-8.09353E+00 7.71460E-06-7.74344E-09
 -1       642-4.83797E+03-1.64993E+03-2.32506E+03 1.87249E+01 1.54143E-05-1.02252E-08
 -1       643-3.96094E+03 2.24048E+02-8.46570E+02-8.32825E+00 1.42303E-05-1.18823E-08
 -1       644-4.19717E+03-2.58583E+02-5.26282E+02 1.92588E+01 1.30388E-05-9.02114E-09
 -1       645-4.05214E+03 3.45004E+01-2.00785E+02-8.62770E+00 9.06953E-06-7.31245E-09
 -1       646-4.08844E+03-3.60804E+01-9.21110E+01 1.96675E+01 5.09529E-06-5.57558E-09
 -1       647-4.06967E+03 1.58472E+00 8.56392E+00-8.73699E+00-4.04980E-07-4.51848E-10
 -1       648-4.05581E+03 2.27578E+01 1.09011E+02 1.96479E+01-5.91107E-06 4.04354E-09
 -1       649-4.08477E+03-2.43306E+01 2.38291E+02-8.60821E+00-1.24927E-05 8.36494E-09
 -1       650-3.96904E+03 1.86151E+02 5.73536E+02 1.91153E+01-1.90729E-05 1.28645E-08
 -1       651-4.15644E+03-1.61785E+02 9.95746E+02-8.20438E+00-2.58957E-05 1.90789E-08
 -1       652-3.47703E+03 1.19632E+03 2.46518E+03 1.78774E+01-3.27152E-05 1.90240E-08
 -1       653-4.57676E+03-1.03432E+03 3.92320E+03-7.37035E+00-3.61959E-05 2.61336E-08
 -1       654-5.18811E+02 7.61449E+03 1.07387E+04 1.49317E+01-3.96575E-05 2.44426E-08
 -1       655-7.11433E+03-6.57870E+03 1.51677E+04-5.25904E+00-1.98443E-05 1.06484E-08
 -1       656 5.08412E+03-1.88655E+05-2.15721E+04 5.11307E+03-1.12050E-09-1.33764E-09
 -1       657-7.36963E+03-1.96648E+05-1.59706E+04 2.20412E+04-9.62245E-10-5.02780E-10
 -1       658 1.04186E+03-1.91434E+05-1.03404E+04 5.07435E+03-4.08590E-10 1.04819E-09
 -1       659-7.16307E+03-1.96538E+05-1.56187E+04 2.20636E+04-4.85670E-10-1.09074E-09
 -1       660 4.92045E+03-1.88776E+05-2.09080E+04 5.09087E+03-1.70712E-09-7.98082E-10
 -1       661 1.22556E+05 1.69368E+04 9.66447E+03 4.79687E+04 3.55817E-09 3.01952E-10
 -1       662 1.24688E+05 2.24978E+04 5.81999E+03 4.93301E+04 3.27731E-10 3.98734E-09
 -1       663 1.24041E+05 1.83768E+04 2.26828E+03 4.79761E+04-8.25338E-10 1.01170E-09
 -1       664 1.22952E+05 2.01641E+04 1.19701E+03 4.96034E+04 3.66435E-09 1.09011E-09
 -1       665 1.24183E+05 1.85080E+04 5.29771E+02 4.79816E+04 5.10880E-11-4.63871E-10
 -1       666 1.22786E+05 1.99700E+04 2.82056E+02 4.96153E+04 2.51963E-09-7.06478E-10
 -1       667 1.24199E+05 1.85210E+04 1.64440E+02 4.79829E+04 1.07732E-09-1.69406E-09
 -1       668 1.22772E+05 1.99565E+04 1.58267E+02 4.96156E+04 2.15788E-09 1.46093E-09
 -1       669 1.24198E+05 1.85192E+04 2.31373E+02 4.79822E+04-1.03063E-09 4.45948E-09
 -1       670 1.22802E+05 1.99845E+04 4.62984E+02 4.96190E+04 5.45953E-10-2.54829E-09
 -1       671 1.24170E+05 1.84951E+04 9.06336E+02 4.79790E+04 2.72337E-09 2.27374E-12
 -1       672 1.23089E+05 2.03228E+04 2.06981E+03 4.96008E+04 6.18448E-09-5.55161E-09
 -1       673 1.23923E+05 1.82667E+04 3.93013E+03 4.79687E+04 5.25645E-09-2.94654E-09
 -1       674 1.26098E+05 2.43721E+04 1.00908E+04 4.91298E+04 8.88731E-09 2.53999E-09
 -1       675 1.21349E+05 1.57680E+04 1.67573E+04 4.79541E+04 5.04838E-09-1.40244E-09
 -1       676 2.72569E+02-1.86240E+05-1.60767E+03-3.49901E+01 1.57271E-09-2.81050E-09
 -1       677-7.36748E+02-1.86902E+05-2.37467E+03-4.84628E+02 9.20124E-10-2.11448E-09
 -1       678 3.53789E+02-1.86160E+05-3.49739E+03-3.54323E+01 5.96401E-10-1.46435E-09
 -1       679-4.16548E+03-1.88900E+05-8.30997E+03-4.83047E+02 4.74301E-10-1.63994E-09
 -1       680 3.11636E+03-1.84243E+05-1.27593E+04-3.68640E+01 4.63842E-11 9.69891E-11
 -1       716-1.44327E-01-6.88094E-02 6.45801E+00-1.26662E-04 1.85730E-09-1.00026E-09
 -1       717 7.10733E-01 5.18311E-01 1.13738E+01 3.22207E-04 4.47699E-10-3.65074E-10
 -1       718-5.66417E-01-4.49691E-01 2.11066E+01-1.95665E-04-4.93216E-10-1.25122E-09
 -1       719 3.35602E+00 3.53052E+00 4.37790E+01-2.92256E-04-3.58195E-09-3.90581E-10
 -1       720-2.78965E+00-3.08120E+00 8.34986E+01 4.88158E-04-3.90227E-09-1.20538E-09
 -1       721 1.73695E+01 2.35240E+01 1.78451E+02-1.03077E-02-2.86812E-09-2.77062E-10
 -1       722-1.45800E+01-2.04424E+01 3.34001E+02 9.81836E-03-3.30994E-09-1.65994E-09
 -1       723 9.44362E+01 1.53496E+02 7.35688E+02-9.89129E-02-1.61735E-09-4.20542E-10
 -1       724-7.98554E+01-1.33038E+02 1.33221E+03 8.90703E-02-2.62953E-09-1.40670E-09
 -1       725 5.34907E+02 9.89102E+02 3.07034E+03-7.60683E-01-2.37059E-09-4.62990E-10
 -1       726-4.55021E+02-8.55911E+02 5.28249E+03 6.71407E-01-2.17030E-09-1.35105E-09
 -1       727 3.12996E+03 6.32490E+03 1.30409E+04-5.35087E+00-2.97431E-09-4.92491E-10
 -1       728-2.67434E+03-5.46779E+03 2.07466E+04 4.67846E+00-1.28400E-10-8.46740E-10
 -1       729 1.87637E+04 4.02531E+04 5.67719E+04-3.59903E+01 1.14024E-09-3.69255E-10
 -1       730-1.60792E+04-3.47752E+04 8.02099E+04 3.13120E+01 1.77055E-09-9.02219E-10
 -1       766-3.47821E+04-1.60964E+04 8.01960E+04-1.10291E+01-3.49246E-10-1.20089E-10
 -1       767 4.03101E+04 1.87857E+04 5.67649E+04-5.20134E+01 2.29647E-09-1.18993E-09
 -1       768-5.51797E+03-2.71368E+03 2.06798E+04 1.76139E+01-2.32831E-10-3.02839E-10
 -1       769 6.69325E+03 3.29017E+03 1.30441E+04-8.47477E+01 2.24600E-09 2.21730E-09
 -1       770-1.17390E+03-6.10428E+02 4.98358E+03 2.17059E+01-1.30058E-10 9.58416E-10
 -1       771-1.01599E+06-1.97871E+05-2.90717E+04-4.38160E+05-3.61797E-09-6.76664E-10
 -1       772-1.01149E+06-2.02362E+05-1.45563E+04-4.53038E+05-1.43336E-09 3.03407E-09
 -1       773-1.01783E+06-1.89039E+05-6.20607E+03-4.42094E+05-1.88447E-09 8.28550E-10
 -1       774-1.00807E+06-1.99014E+05-3.03693E+03-4.53872E+05 2.06819E-09 6.52244E-09
 -1       775-1.01817E+06-1.88676E+05-1.41523E+03-4.42295E+05-4.29281E-10 8.23093E-11
 -1       776-1.00794E+06-1.98885E+05-7.09735E+02-4.54018E+05 1.89175E-10-8.80618E-10
 -1       777-1.01832E+06-1.88620E+05-3.88484E+02-4.42347E+05 3.52884E-10 7.30893E-10
 -1       778-1.00799E+06-1.98864E+05-2.94637E+02-4.54117E+05-8.80391E-10 3.02720E-10
 -1       779-1.01841E+06-1.88567E+05-3.67224E+02-4.42382E+05 1.10049E-10-5.84350E-11
 -1       780-1.00807E+06-1.98852E+05-6.64862E+02-4.54189E+05-4.05635E-10-3.70051E-10
 -1       781-1.01842E+06-1.88518E+05-1.31211E+03-4.42399E+05-7.31688E-10-5.39785E-10
 -1       782-1.00830E+06-1.98963E+05-2.84262E+03-4.54233E+05-3.48336E-10-5.33873E-10
 -1       783-1.01827E+06-1.88741E+05-5.79258E+03-4.42255E+05-1.28307E-09-1.13414E-09
 -1       784-1.01143E+06-2.02306E+05-1.36512E+04-4.53852E+05-1.56683E-09-1.73168E-09
 -1       785-1.01685E+06-1.96765E+05-2.72297E+04-4.38401E+05 4.72937E-11 6.43922E-10
 -1       786 9.79125E+04-3.10380E+03 1.26813E+04-7.48656E+02 1.10845E-11 2.47337E-09
 -1       787 1.02541E+05 4.11939E+03 8.17486E+03-3.28885E+03-1.43586E-10-3.97449E-09
 -1       788 9.98407E+04-3.28087E+02 3.28874E+03-7.43719E+02-9.23137E-11-9.25638E-10
 -1       789 1.00387E+05 4.20020E+02 1.84673E+03-3.29234E+03 2.06484E-10 1.79330E-09
 -1       790 1.00065E+05-3.60003E+01 8.36054E+02-7.45059E+02-5.95719E-11 1.44530E-09
 -1       791 1.00133E+05 4.24186E+01 4.50022E+02-3.29037E+03 2.79236E-10 3.76977E-09
 -1       792 1.00094E+05-4.48132E+00 2.29775E+02-7.45691E+02-1.39124E-11 9.53605E-10
 -1       793 1.00101E+05 5.80367E+00 1.52596E+02-3.29011E+03-2.08523E-10-3.36904E-10
 -1       794 1.00097E+05-2.43123E+00 1.40237E+02-7.45322E+02 5.15143E-11 2.94619E-10
 -1       795 1.00111E+05 1.81455E+01 2.13361E+02-3.29199E+03-1.34392E-10 7.08423E-10
 -1       796 1.00085E+05-1.56207E+01 3.66704E+02-7.43807E+02 3.93300E-10-9.75518E-10
 -1       797 1.00219E+05 1.78479E+02 7.92297E+02-3.29519E+03-1.34605E-10-2.18475E-09
 -1       798 9.99899E+04-1.40256E+02 1.40380E+03-7.42121E+02-1.05490E-09-4.08704E-11
 -1       799 1.01137E+05 1.75450E+03 3.48478E+03-3.29125E+03-4.94623E-10-2.95131E-10
 -1       800 9.91684E+04-1.32341E+03 5.40374E+03-7.47813E+02 5.35238E-10-3.68345E-10
 -1       801-4.74798E+03 1.01163E+05 1.61443E+04-1.44349E+05 2.44654E-10 2.37560E-09
 -1       802 1.23937E+04 1.05976E+05 2.16096E+04-6.30846E+05 7.36145E-09 2.48110E-09
 -1       803-1.24194E+03 1.00082E+05 2.74660E+04-1.43865E+05 4.05817E-09 1.74430E-09
 -1       804 3.60499E+04 1.19847E+05 6.26115E+04-6.30807E+05 5.07134E-09-1.63618E-09
 -1       805-2.44200E+04 8.73938E+04 9.31944E+04-1.44394E+05 3.80533E-09 7.63976E-11
 -1       806-9.14657E+04-2.71341E+04-7.65266E+03-4.61692E+04-1.58707E-10 6.01176E-10
 -1       807-9.11704E+04-2.56225E+04-3.63924E+03-4.89029E+04-3.91742E-09-5.47072E-09
 -1       808-9.14585E+04-2.33037E+04-1.53159E+03-4.77757E+04-7.19183E-10-3.06557E-10
 -1       809-9.03996E+04-2.42998E+04-7.40525E+02-4.92142E+04 5.86624E-11 2.47393E-09
 -1       810-9.14811E+04-2.30547E+04-3.34320E+02-4.78871E+04 5.27507E-11 1.81831E-09
 -1       811-9.03259E+04-2.42172E+04-1.65053E+02-4.92260E+04 1.48157E-09 2.13618E-10
 -1       812-9.14878E+04-2.30492E+04-8.12886E+01-4.78916E+04 1.55785E-09-1.50328E-09
 -1       813-9.03176E+04-2.42160E+04-5.03395E+01-4.92237E+04 2.15368E-09 2.18404E-09
 -1       814-9.14882E+04-2.30515E+04-4.54810E+01-4.78908E+04 2.61309E-09-4.92719E-10
 -1       815-9.03193E+04-2.42179E+04-7.00006E+01-4.92224E+04 4.22688E-10 5.72754E-10
 -1       816-9.14836E+04-2.30555E+04-1.30378E+02-4.78883E+04 1.02254E-08-1.63579E-08
 -1       817-9.03492E+04-2.42464E+04-2.83348E+02-4.92117E+04 3.22871E-08-1.58318E-08
 -1       818-9.14700E+04-2.31555E+04-5.83433E+02-4.78488E+04 1.70721E-08-7.49651E-09
 -1       819-9.06742E+04-2.47158E+04-1.38454E+03-4.90520E+04 2.10298E-09-2.38470E-09
 -1       820-9.14378E+04-2.46429E+04-2.91048E+03-4.72715E+04 2.42608E-09 4.58613E-10
 -1       821-1.28183E+05 3.84520E+03-1.57171E+04 9.12539E+02-1.69302E-09 2.57842E-09
 -1       822-1.33914E+05-5.10525E+03-1.01320E+04 4.06733E+03-7.24242E-10 1.57434E-09
 -1       823-1.30573E+05 4.05854E+02-4.07803E+03 8.90558E+02 1.83195E-09 9.15406E-10
 -1       824-1.31250E+05-5.18247E+02-2.29216E+03 4.09570E+03-6.80814E-10 1.21253E-09
 -1       825-1.30852E+05 4.48011E+01-1.04395E+03 8.84013E+02-2.51930E-09-4.77883E-10
 -1       826-1.30938E+05-4.91750E+01-5.73267E+02 4.10613E+03-4.98778E-09 1.63959E-09
 -1       827-1.30887E+05 6.60646E+00-3.15749E+02 8.80096E+02-2.18489E-09 3.70733E-10
 -1       828-1.30904E+05-5.43385E+00-2.53099E+02 4.11231E+03-2.86926E-09-7.64835E-10
 -1       829-1.30888E+05 6.45526E+00-2.98234E+02 8.77831E+02-1.21372E-09 7.41522E-11
 -1       830-1.30936E+05-4.36738E+01-5.27292E+02 4.11478E+03 1.84017E-09-1.40946E-09
 -1       831-1.30856E+05 4.15777E+01-9.52345E+02 8.77623E+02-7.29557E-10 1.68839E-09
 -1       832-1.31221E+05-4.69706E+02-2.08714E+03 4.11302E+03 1.12550E-10 3.17081E-09
 -1       833-1.30603E+05 3.70540E+02-3.71081E+03 8.79631E+02 3.25826E-10-4.28827E-10
 -1       834-1.33647E+05-4.64289E+03-9.21963E+03 4.10028E+03 1.64107E-10-7.12930E-10
 -1       835-1.28429E+05 3.50052E+03-1.43005E+04 8.90676E+02 5.10113E-10-2.20825E-09
 -1       836-2.00900E+03 2.07598E+05 1.71180E+04-1.03416E+04-9.81345E-10-3.23575E-09
 -1       837 4.34785E+03 2.13245E+05 1.32059E+04-2.45673E+04-9.11939E-10-4.31186E-09
 -1       838-4.80960E+02 2.09449E+05 1.09732E+04-1.03120E+04-1.17097E-09-2.08036E-10
 -1       839 7.00131E+03 2.15073E+05 1.88744E+04-2.45671E+04-9.27685E-10 1.34185E-09
 -1       840-3.48095E+03 2.05770E+05 2.83701E+04-1.03415E+04-1.09685E-09 1.95655E-09
 -1       841 3.25463E+04 4.70195E+03-3.32283E+02 1.21408E+04-7.98932E-06 2.99644E-06
 -1       842 3.23218E+04 4.44803E+03-2.29148E+02 1.22581E+04-1.59678E-05 5.99349E-06
 -1       843 3.24722E+04 4.59035E+03-7.63261E+01 1.21728E+04-1.28751E-05 4.83209E-06
 -1       844 3.24109E+04 4.57446E+03-4.46812E+01 1.22175E+04-9.76855E-06 3.67191E-06
 -1       845 3.24572E+04 4.57555E+03-1.06730E+01 1.21814E+04-6.94770E-06 2.60880E-06
 -1       846 3.24315E+04 4.59236E+03 6.62040E+00 1.22053E+04-4.12831E-06 1.54997E-06
 -1       847 3.24515E+04 4.57246E+03 2.82195E+01 1.21850E+04-2.53167E-06 9.50955E-07
 -1       848 3.24486E+04 4.61106E+03 7.53135E+01 1.21983E+04-9.33011E-07 3.52389E-07
 -1       849 3.24402E+04 4.55684E+03 1.40513E+02 1.21884E+04-2.77065E-07 1.04089E-07
 -1       850 3.25211E+04 4.72874E+03 3.56099E+02 1.21785E+04 3.78713E-07-1.43759E-07
 -1       851 3.23790E+04 4.45480E+03 6.15146E+02 1.22048E+04 2.70006E-07-1.02485E-07
 -1       852 3.29570E+04 5.47708E+03 1.66119E+03 1.20473E+04 1.60851E-07-6.00772E-08
 -1       853 3.20042E+04 3.80860E+03 2.65655E+03 1.23195E+04-5.96600E-07 2.26217E-07
 -1       854 3.56448E+04 1.02160E+04 7.87749E+03 1.11635E+04-1.35768E-06 5.11475E-07
 -1       855 2.96913E+04-2.83385E+02 1.13385E+04 1.30884E+04-6.77656E-07 2.56114E-07
 -1       856-1.07579E+05 1.58413E+03-1.26176E+04 3.68084E+03-5.43514E-09-2.03727E-10
 -1       857-1.11701E+05-3.05122E+03-7.70690E+03 8.78163E+03-4.96004E-09-9.92372E-10
 -1       858-1.09360E+05 1.44861E+02-3.23953E+03 3.64225E+03-7.63202E-09-9.49512E-10
 -1       859-1.09763E+05-2.19330E+02-1.74345E+03 8.82474E+03-8.46433E-09-1.20076E-09
 -1       860-1.09528E+05 2.07012E+01-8.18103E+02 3.63718E+03-2.60036E-09-2.07837E-09
 -1       861-1.09581E+05-3.54444E+00-4.30742E+02 8.83123E+03-3.26025E-09-2.19251E-09
 -1       862-1.09549E+05 8.38344E+00-2.25480E+02 3.63569E+03 5.65251E-10-2.50921E-09
 -1       863-1.09560E+05 1.24591E+01-1.50476E+02 8.83295E+03 4.17450E-09-1.31476E-09
 -1       864-1.09551E+05 7.44893E+00-1.43472E+02 3.63545E+03 1.46281E-09-1.49259E-09
 -1       865-1.09566E+05 5.85785E+00-2.18548E+02 8.83183E+03 4.29327E-09 2.20268E-11
 -1       866-1.09542E+05 1.25280E+01-3.86881E+02 3.63682E+03-1.19257E-10 1.76314E-10
 -1       867-1.09648E+05-9.42308E+01-8.08378E+02 8.82659E+03 5.79746E-10 3.34403E-10
 -1       868-1.09464E+05 6.88791E+01-1.49560E+03 3.64072E+03 8.98581E-10 1.80023E-10
 -1       869-1.10538E+05-1.40048E+03-3.55281E+03 8.78744E+03-2.20780E-09 8.78956E-10
 -1       870-1.08642E+05 7.30757E+02-5.81609E+03 3.67625E+03 1.80989E-10-1.83127E-09
 -1       871-1.75101E+03-1.44858E+04-3.78903E+03 5.30439E+04 1.00863E-09-1.23327E-09
 -1       872-5.76722E+02-1.52238E+04-1.17438E+03 6.39953E+04 1.14460E-09-1.99179E-10
 -1       873 2.37323E+01-1.49292E+04 1.00279E+03 5.29336E+04 2.44427E-10 5.95492E-10
 -1       874 1.12142E+03-1.40427E+04 3.91694E+03 6.40389E+04 1.14687E-09-1.09321E-09
 -1       875 3.46884E+03-1.56953E+04 8.38526E+03 5.30032E+04 1.05365E-09-1.20349E-09
 -1       876 1.57310E+05 2.25678E+04 1.40571E+04 6.24505E+04-2.06103E-09 1.45064E-09
 -1       877 1.59900E+05 3.03599E+04 8.35436E+03 6.49763E+04-4.46425E-09 1.56354E-09
 -1       878 1.59394E+05 2.43190E+04 3.28866E+03 6.25637E+04-1.65369E-09 2.43062E-10
 -1       879 1.57442E+05 2.71718E+04 1.71735E+03 6.53249E+04 5.19549E-10 5.57151E-09
 -1       880 1.59582E+05 2.44764E+04 7.63327E+02 6.25802E+04 3.46108E-09 3.08785E-09
 -1       881 1.57220E+05 2.69219E+04 3.98819E+02 6.53312E+04 8.43215E-10 6.38721E-10
 -1       882 1.59601E+05 2.44945E+04 2.22358E+02 6.25838E+04 4.09699E-09 1.06360E-09
 -1       883 1.57200E+05 2.69027E+04 1.94855E+02 6.53268E+04-6.63597E-09-3.94721E-10
 -1       884 1.59599E+05 2.44944E+04 2.66305E+02 6.25841E+04-4.84550E-09-2.38032E-09
 -1       885 1.57231E+05 2.69270E+04 5.16858E+02 6.53292E+04 2.59074E-09-3.10479E-10
 -1       886 1.59571E+05 2.44723E+04 1.01055E+03 6.25806E+04 1.76186E-10-3.29578E-10
 -1       887 1.57529E+05 2.72583E+04 2.28521E+03 6.53172E+04-8.19909E-10-1.32354E-09
 -1       888 1.59317E+05 2.42638E+04 4.38072E+03 6.25590E+04-6.11692E-09 1.04069E-09
 -1       889 1.60796E+05 3.15150E+04 1.11317E+04 6.48604E+04 2.22777E-09 1.46701E-09
 -1       890 1.56548E+05 2.19223E+04 1.87309E+04 6.23977E+04-2.60002E-09-4.87580E-09
 -1       891 3.62415E+02-7.87637E+04-3.21944E+03 1.58892E+04-1.00954E-10 5.26370E-10
 -1       892-8.38374E+02-7.98085E+04-2.44732E+03 3.78560E+04-3.68800E-10-1.36197E-09
 -1       893 7.75093E+01-7.91253E+04-1.98206E+03 1.58417E+04-3.97449E-10-6.72770E-10
 -1       894-1.26196E+03-8.00931E+04-3.34722E+03 3.78463E+04 5.64114E-10 7.28846E-10
 -1       895 5.92119E+02-7.84696E+04-5.00682E+03 1.58987E+04-7.59428E-10-1.15369E-09
 -1       926-2.40068E+02-4.50934E+02 1.03661E+03 1.73355E+01 1.51082E-10-4.69925E-10
 -1       927 2.55484E+02 5.22202E+02 7.49532E+02-6.90336E+01-1.25326E-09-6.20091E-10
 -1       928-6.06817E+01-7.12818E+01 2.86905E+02 1.70875E+01-1.47695E-11-2.91081E-10
 -1       929 4.49148E+01 8.53928E+01 2.15987E+02-6.87826E+01 7.33198E-10-3.00815E-10
 -1       930-2.95649E+01-1.41623E+01 1.52159E+02 1.70845E+01 4.78426E-11-1.34033E-10
 -1       931 1.76481E+01 3.66315E+01 2.23150E+02-6.87787E+01-7.86082E-10-6.55707E-11
 -1       932-3.34655E+01-2.24951E+01 3.57376E+02 1.70835E+01-8.50302E-07-1.17240E-11
 -1       933 8.53469E+01 1.58386E+02 7.60386E+02-6.87709E+01-1.69907E-06-1.44524E-11
 -1       934-9.72960E+01-1.35881E+02 1.36299E+03 1.70767E+01-1.00976E-06-3.89377E-11
 -1       935 5.31140E+02 1.00900E+03 3.13396E+03-6.87326E+01-3.19581E-07 1.25340E-10
 -1       936-4.79243E+02-8.72961E+02 5.38899E+03 1.70452E+01-1.11268E-07 9.04947E-11
 -1       937 3.17806E+03 6.45114E+03 1.33017E+04-6.88281E+01 9.86371E-08 2.05773E-10
 -1       938-2.74363E+03-5.57689E+03 2.11607E+04 1.71724E+01-5.65515E-08-5.82077E-11
 -1       939 1.91272E+04 4.10570E+04 5.79058E+04-7.32660E+01-2.17040E-07 1.18234E-11
 -1       940-1.64183E+04-3.54699E+04 8.18096E+04 2.14826E+01-1.11080E-07 3.71074E-10
 -1       956-1.48879E+05-2.52817E+03-6.53638E+03 1.68176E+04 2.91084E-09 5.62977E-10
 -1       957-1.50187E+05-8.65654E+02-3.36359E+03 2.03540E+04 7.35963E-09 7.31006E-10
 -1       958-1.49469E+05-6.56890E+01-1.51569E+03 1.67117E+04 5.95037E-09-6.00039E-10
 -1       959-1.49576E+05-1.08303E+01-7.74097E+02 2.04689E+04 4.06317E-10-9.37121E-10
 -1       960-1.49523E+05 2.23234E+01-3.76925E+02 1.67022E+04-1.23327E-09-3.73802E-10
 -1       961-1.49534E+05 2.20284E+01-1.98543E+02 2.04794E+04-3.61251E-09-2.70052E-09
 -1       962-1.49535E+05 2.04212E+01-1.11067E+02 1.67011E+04-1.71622E-09 2.14231E-09
 -1       963-1.49533E+05 2.34097E+01-8.45585E+01 2.04809E+04-3.11286E-09-1.95769E-10
 -1       964-1.49538E+05 2.16453E+01-9.70300E+01 1.67007E+04 4.74017E-10-3.53566E-11
 -1       965-1.49539E+05 2.50970E+01-1.62993E+02 2.04808E+04 3.25849E-09-3.75167E-10
 -1       966-1.49533E+05 2.57296E+01-3.03364E+02 1.67012E+04 4.53520E-09 1.21679E-09
 -1       967-1.49577E+05 1.41755E+00-6.20514E+02 2.04743E+04 1.15558E-08 1.32763E-09
 -1       968-1.49493E+05-4.24027E+01-1.21326E+03 1.67072E+04 8.42579E-09-1.52829E-09
 -1       969-1.50070E+05-6.80936E+02-2.69280E+03 2.04006E+04 8.22183E-09-1.52787E-09
 -1       970-1.49023E+05-2.01255E+03-5.23216E+03 1.67759E+04 6.09225E-09 2.43108E-09
 -1       971-1.91376E+05 8.41164E+02-8.86456E+03 4.28550E+03-2.81966E-09 1.97315E-09
 -1       972-1.94179E+05-1.98693E+03-5.34486E+03 9.34679E+03-2.31637E-09 1.43064E-09
 -1       973-1.92602E+05 7.90069E+01-2.27023E+03 4.23528E+03-3.01839E-09 2.59217E-09
 -1       974-1.92856E+05-1.27909E+02-1.21606E+03 9.40454E+03-1.22088E-09 1.22236E-09
 -1       975-1.92714E+05 1.44381E+01-5.83074E+02 4.22738E+03 8.60155E-10 6.36817E-10
 -1       976-1.92740E+05 4.24310E+00-3.22898E+02 9.41556E+03-2.33115E-10-1.43245E-10
 -1       977-1.92728E+05 8.59704E+00-2.02914E+02 4.22420E+03 2.55841E-09 3.75564E-10
 -1       978-1.92733E+05 1.34459E+01-1.97859E+02 9.41990E+03 7.25279E-09 3.81192E-10
 -1       979-1.92727E+05 1.02426E+01-2.82825E+02 4.22302E+03 1.29784E-09-8.12435E-10
 -1       980-1.92757E+05-1.12437E+00-5.29526E+02 9.42006E+03 3.93436E-09 3.35970E-09
 -1       981-1.92704E+05 2.35746E+01-1.00397E+03 4.22405E+03-7.80062E-10 1.78623E-09
 -1       982-1.92969E+05-2.29484E+02-2.12427E+03 9.41473E+03-3.76707E-09 1.18629E-09
 -1       983-1.92511E+05 1.40266E+02-3.97665E+03 4.22844E+03-1.35697E-09 9.41327E-11
 -1       984-1.95300E+05-3.48699E+03-9.37489E+03 9.37416E+03-1.63072E-09 2.80011E-10
 -1       985-1.90364E+05 1.48174E+03-1.55475E+04 4.26559E+03 1.80830E-09-1.18234E-11
 -3
    1PSTEP                         7           4           1          
  100CL  104 3.43750E-01         568                     0    4           1
 -4  DISP        4    1
 -5  D1          1    2    1    0
 -5  D2          1    2    2    0
 -5  D3          1    2    3    0
 -5  ALL         1    2    0    0    1ALL
 -1         1 5.03409E-05 0.00000E+00 0.00000E+00
 -1         2 5.03341E-05 0.00000E+00 0.00000E+00
 -1         3 3.39297E-05-1.25433E-28-6.61744E-24
 -1         4 2.54703E-05-4.34367E-29 0.00000E+00
 -1         5 2.57790E-05 9.75271E-28 0.00000E+00
 -1         8 4.00050E-05-4.88120E-07 0.00000E+00
 -1         9 3.14069E-05-1.89834E-06 0.00000E+00
 -1        10 3.11601E-05-9.99347E-07 0.00000E+00
 -1        11 2.53135E-05-2.82654E-06 0.00000E+00
 -1        12 2.53182E-05 4.19963E-07 0.00000E+00
 -1        15 2.89623E-05-5.12267E-07 0.00000E+00
 -1        16 2.48638E-05-1.96242E-06 0.00000E+00
 -1        17 2.32197E-05-1.99856E-06 0.00000E+00
 -1        18 2.32218E-05-2.69463E-07 0.00000E+00
 -1        19 2.39426E-05 8.37078E-07 0.00000E+00
 -1        20 2.42027E-05 9.83357E-06 0.00000E+00
 -1        21 2.41714E-05 2.18423E-05 0.00000E+00
 -1        23 9.02033E-06-3.16857E-05 0.00000E+00
 -1        24 8.97075E-06-2.43901E-06 0.00000E+00
 -1        25 2.16117E-05-1.49087E-07 0.00000E+00
 -1        26 2.21929E-05 1.11779E-06 0.00000E+00
 -1        27 2.14328E-05 9.42237E-06 0.00000E+00
 -1        28 2.07921E-05 2.14357E-05 0.00000E+00
 -1        31 2.57601E-08-2.46922E-06 0.00000E+00
 -1        32 0.00000E+00 0.00000E+00 0.00000E+00
 -1        33 2.02070E-05 1.56616E-06 0.00000E+00
 -1        34 1.93329E-05 9.38777E-06 0.00000E+00
 -1        35 1.82067E-05 2.12633E-05 0.00000E+00
 -1        36 5.03348E-05-2.39491E-20-1.65436E-24
 -1        37 5.03346E-05 5.05513E-20 0.00000E+00
 -1        38 5.03341E-05-2.28639E-19-4.13590E-25
 -1        39 5.03347E-05-3.78379E-19 0.00000E+00
 -1        40 5.03353E-05-2.50136E-19 0.00000E+00
 -1        41 5.03361E-05-1.65900E-19-2.58494E-26
 -1        42 5.03369E-05-6.32532E-20 1.29247E-26
 -1        43 5.03378E-05 1.09273E-19 0.00000E+00
 -1        44 5.03387E-05 2.78096E-19 0.00000E+00
 -1        45 5.03395E-05 4.07936E-19 2.58494E-26
 -1        46 5.03403E-05 5.70751E-19-1.03398E-25
 -1        47 5.03409E-05 5.54239E-19 0.00000E+00
 -1        48 5.03414E-05 4.11102E-19 0.00000E+00
 -1        49 5.03408E-05 8.77936E-20 0.00000E+00
 -1        50 5.03405E-05 7.42433E-20 0.00000E+00
 -1        51 4.95600E-05-8.19618E-08 0.00000E+00
 -1        52 4.82662E-05-1.61289E-07 0.00000E+00
 -1        53 4.65592E-05-2.40339E-07 0.00000E+00
 -1        54 4.45434E-05-3.20059E-07 0.00000E+00
 -1        55 4.23236E-05-4.01406E-07 0.00000E+00
 -1        56 4.93189E-05-4.35531E-07-2.64698E-23
 -1        57 4.82888E-05-9.67214E-07 0.00000E+00
 -1        58 4.72796E-05-1.54766E-06 0.00000E+00
 -1        59 4.62697E-05-2.14675E-06 1.32349E-23
 -1        60 4.52525E-05-2.72705E-06-2.64698E-23
 -1        61 4.42142E-05-3.25458E-06 1.32349E-23
 -1        62 4.31446E-05-3.69908E-06 0.00000E+00
 -1        63 4.20334E-05-4.03318E-06 1.32349E-23
 -1        64 4.08738E-05-4.23816E-06-2.64698E-23
 -1        65 3.96602E-05-4.29908E-06-1.32349E-23
 -1        66 3.83915E-05-4.21265E-06 2.64698E-23
 -1        67 3.70690E-05-3.97951E-06 0.00000E+00
 -1        68 3.56965E-05-3.61274E-06 0.00000E+00
 -1        69 3.42865E-05-3.12664E-06-1.32349E-23
 -1        70 3.28400E-05-2.55048E-06 0.00000E+00
 -1        86 5.04465E-05-3.02350E-07 6.61744E-24
 -1        87 5.07557E-05-6.10752E-07 0.00000E+00
 -1        88 4.87161E-05-9.21765E-07 0.00000E+00
 -1        89 4.18154E-05-1.25390E-06 3.30872E-24
 -1        90 3.45464E-05-1.58856E-06 0.00000E+00
 -1       121 3.38524E-05-1.66471E-07 0.00000E+00
 -1       122 3.36207E-05-3.32959E-07 0.00000E+00
 -1       123 3.32349E-05-4.99491E-07 0.00000E+00
 -1       124 3.26955E-05-6.66066E-07 0.00000E+00
 -1       125 3.20036E-05-8.32733E-07 6.61744E-24
 -1       161 2.54717E-05-3.61797E-09 0.00000E+00
 -1       162 2.54757E-05-1.44590E-08 2.52435E-29
 -1       163 2.54816E-05-3.01255E-08-1.00974E-28
 -1       164 2.54884E-05-4.82197E-08-1.00974E-28
 -1       165 2.54952E-05-6.63435E-08 8.07794E-28
 -1       166 2.55011E-05-8.20993E-08-8.07794E-28
 -1       167 2.55052E-05-9.30894E-08 0.00000E+00
 -1       168 2.55067E-05-9.69147E-08 3.23117E-27
 -1       169 2.55045E-05-9.11779E-08 0.00000E+00
 -1       170 2.54979E-05-7.34752E-08 0.00000E+00
 -1       171 2.54859E-05-4.14134E-08 0.00000E+00
 -1       172 2.54678E-05 7.43956E-09 0.00000E+00
 -1       173 2.54424E-05 7.54471E-08 2.06795E-25
 -1       174 2.54095E-05 1.65202E-07 0.00000E+00
 -1       175 2.53674E-05 2.78857E-07 0.00000E+00
 -1       191 2.57662E-05 7.00086E-08 0.00000E+00
 -1       192 2.57277E-05 1.40015E-07 3.30872E-24
 -1       193 2.56636E-05 2.10020E-07 3.30872E-24
 -1       194 2.55740E-05 2.80019E-07 0.00000E+00
 -1       195 2.54587E-05 3.50007E-07 0.00000E+00
 -1       251 3.94808E-05 6.95461E-07 0.00000E+00
 -1       252 3.89435E-05 5.53324E-07 0.00000E+00
 -1       253 3.84067E-05-3.29639E-07 0.00000E+00
 -1       254 3.78673E-05-1.35007E-06 0.00000E+00
 -1       255 3.73281E-05-1.65153E-06 0.00000E+00
 -1       256 3.67877E-05-3.95256E-07 0.00000E+00
 -1       257 3.62475E-05 3.69245E-07 1.32349E-23
 -1       258 3.57061E-05-1.39547E-06 0.00000E+00
 -1       259 3.51648E-05-3.03820E-06 1.32349E-23
 -1       260 3.46242E-05-1.91065E-06 0.00000E+00
 -1       261 3.40835E-05-4.99871E-07 0.00000E+00
 -1       262 3.35440E-05-1.29982E-06 6.61744E-24
 -1       263 3.30041E-05-2.70564E-06 1.32349E-23
 -1       264 3.24677E-05-3.09761E-06 0.00000E+00
 -1       265 3.19304E-05-2.73568E-06-1.32349E-23
 -1       266 3.81646E-05-4.99328E-07-3.30872E-24
 -1       267 3.63241E-05-5.02473E-07 0.00000E+00
 -1       268 3.44837E-05-5.06141E-07-8.27181E-25
 -1       269 3.26432E-05-5.08284E-07 2.06795E-25
 -1       270 3.08027E-05-5.10397E-07 2.06795E-25
 -1       271 3.85716E-05 8.00568E-07 0.00000E+00
 -1       272 3.72720E-05 1.64798E-06 0.00000E+00
 -1       273 3.61176E-05 2.11125E-06 2.64698E-23
 -1       274 3.50848E-05 2.23845E-06 1.32349E-23
 -1       275 3.41575E-05 2.08316E-06 0.00000E+00
 -1       276 3.33149E-05 1.69985E-06 0.00000E+00
 -1       277 3.25364E-05 1.14497E-06 0.00000E+00
 -1       278 3.18005E-05 4.76200E-07 0.00000E+00
 -1       279 3.10853E-05-2.47926E-07 2.64698E-23
 -1       280 3.03689E-05-9.68394E-07 0.00000E+00
 -1       281 2.96291E-05-1.62628E-06 2.64698E-23
 -1       282 2.88446E-05-2.16306E-06-1.32349E-23
 -1       283 2.79936E-05-2.52127E-06 2.64698E-23
 -1       284 2.70580E-05-2.64377E-06-1.32349E-23
 -1       285 2.60134E-05-2.47764E-06 0.00000E+00
 -1       286 3.13840E-05-9.60507E-07 3.30872E-24
 -1       287 3.13686E-05-2.85452E-07 0.00000E+00
 -1       288 3.13528E-05 1.27324E-07 0.00000E+00
 -1       289 3.13386E-05 2.78474E-07 4.13590E-25
 -1       290 3.13243E-05 2.00128E-07 4.13590E-25
 -1       291 3.13103E-05-7.54470E-08 0.00000E+00
 -1       292 3.12963E-05-4.92449E-07 0.00000E+00
 -1       293 3.12823E-05-9.95002E-07 2.06795E-25
 -1       294 3.12683E-05-1.51703E-06 0.00000E+00
 -1       295 3.12542E-05-1.99244E-06-2.06795E-25
 -1       296 3.12402E-05-2.36071E-06 4.13590E-25
 -1       297 3.12260E-05-2.56138E-06 0.00000E+00
 -1       298 3.12118E-05-2.55396E-06 0.00000E+00
 -1       299 3.11965E-05-2.29811E-06 8.27181E-25
 -1       300 3.11814E-05-1.78335E-06-3.30872E-24
 -1       301 3.03119E-05-1.91294E-06 0.00000E+00
 -1       302 2.92080E-05-1.91952E-06 0.00000E+00
 -1       303 2.81031E-05-1.92512E-06 0.00000E+00
 -1       304 2.70055E-05-1.93137E-06 1.65436E-24
 -1       305 2.59231E-05-1.93990E-06 0.00000E+00
 -1       306 3.06423E-05-1.19946E-06 1.32349E-23
 -1       307 2.99999E-05-8.59548E-07 6.61744E-24
 -1       308 2.94710E-05-8.20862E-07 0.00000E+00
 -1       309 2.90328E-05-1.02894E-06 0.00000E+00
 -1       310 2.86656E-05-1.42723E-06 0.00000E+00
 -1       311 2.83482E-05-1.95887E-06 0.00000E+00
 -1       312 2.80590E-05-2.56638E-06 1.32349E-23
 -1       313 2.77767E-05-3.19203E-06 0.00000E+00
 -1       314 2.74794E-05-3.77800E-06 0.00000E+00
 -1       315 2.71458E-05-4.26662E-06 0.00000E+00
 -1       316 2.67544E-05-4.60065E-06-1.32349E-23
 -1       317 2.62841E-05-4.72343E-06 0.00000E+00
 -1       318 2.57140E-05-4.57923E-06 0.00000E+00
 -1       319 2.50252E-05-4.11277E-06-6.61744E-24
 -1       320 2.41953E-05-3.27157E-06 6.61744E-24
 -1       336 3.01665E-05-1.16607E-06 0.00000E+00
 -1       337 2.90303E-05-1.33302E-06 0.00000E+00
 -1       338 2.77593E-05-1.50006E-06 3.30872E-24
 -1       339 2.63617E-05-1.66688E-06 0.00000E+00
 -1       340 2.48456E-05-1.83392E-06 0.00000E+00
 -1       356 2.53135E-05-2.61497E-06 0.00000E+00
 -1       357 2.53135E-05-2.39979E-06 0.00000E+00
 -1       358 2.53135E-05-2.18201E-06 2.01948E-28
 -1       359 2.53135E-05-1.96266E-06 0.00000E+00
 -1       360 2.53134E-05-1.74276E-06 0.00000E+00
 -1       361 2.53134E-05-1.52333E-06 0.00000E+00
 -1       362 2.53134E-05-1.30539E-06 3.23117E-27
 -1       363 2.53134E-05-1.08998E-06-3.23117E-27
 -1       364 2.53134E-05-8.78105E-07 0.00000E+00
 -1       365 2.53134E-05-6.70792E-07-1.29247E-26
 -1       366 2.53134E-05-4.69067E-07 0.00000E+00
 -1       367 2.53135E-05-2.73947E-07 0.00000E+00
 -1       368 2.53137E-05-8.64584E-08 2.06795E-25
 -1       369 2.53144E-05 9.23743E-08-2.06795E-25
 -1       370 2.53149E-05 2.61525E-07 0.00000E+00
 -1       376 2.52355E-05-2.61859E-06-2.52435E-29
 -1       377 2.51589E-05-2.41423E-06-2.52435E-29
 -1       378 2.50830E-05-2.21208E-06-1.00974E-28
 -1       379 2.50075E-05-2.01079E-06 1.00974E-28
 -1       380 2.49318E-05-1.80898E-06-4.03897E-28
 -1       381 2.48554E-05-1.60529E-06-4.03897E-28
 -1       382 2.47778E-05-1.39835E-06 0.00000E+00
 -1       383 2.46985E-05-1.18679E-06 0.00000E+00
 -1       384 2.46169E-05-9.69249E-07-6.46235E-27
 -1       385 2.45325E-05-7.44351E-07 0.00000E+00
 -1       386 2.44449E-05-5.10735E-07 0.00000E+00
 -1       387 2.43536E-05-2.67009E-07 0.00000E+00
 -1       388 2.42579E-05-1.18292E-08-1.03398E-25
 -1       389 2.41578E-05 2.56292E-07 0.00000E+00
 -1       390 2.40522E-05 5.38566E-07 0.00000E+00
 -1       406 2.51526E-05 4.89905E-07 3.30872E-24
 -1       407 2.49617E-05 5.59838E-07 0.00000E+00
 -1       408 2.47452E-05 6.29719E-07 0.00000E+00
 -1       409 2.45032E-05 6.99439E-07 0.00000E+00
 -1       410 2.42356E-05 7.68826E-07 3.30872E-24
 -1       501 2.47717E-05 1.15291E-06 0.00000E+00
 -1       502 2.46691E-05 8.43181E-06-1.65436E-24
 -1       503 2.45590E-05 1.66918E-05 0.00000E+00
 -1       504 2.44661E-05 2.27478E-05 0.00000E+00
 -1       505 2.43877E-05 2.46204E-05-3.30872E-24
 -1       506 2.43026E-05 2.03442E-05 0.00000E+00
 -1       507 2.41880E-05 1.12792E-05-1.65436E-24
 -1       508 2.40381E-05-1.19850E-06 8.27181E-25
 -1       509 2.38865E-05-1.38369E-05 1.65436E-24
 -1       510 2.37678E-05-2.33831E-05 0.00000E+00
 -1       511 2.36800E-05-2.82863E-05 1.65436E-24
 -1       512 2.36030E-05-2.70111E-05-8.27181E-25
 -1       513 2.35128E-05-2.13625E-05-3.30872E-24
 -1       514 2.34054E-05-1.31604E-05 0.00000E+00
 -1       515 2.33028E-05-5.63105E-06-3.30872E-24
 -1       521 2.36899E-05-1.44093E-06 2.64698E-23
 -1       522 2.26112E-05-1.24505E-06 0.00000E+00
 -1       523 2.16337E-05-1.31724E-06 0.00000E+00
 -1       524 2.07344E-05-1.60800E-06 0.00000E+00
 -1       525 1.98963E-05-2.06362E-06 0.00000E+00
 -1       526 1.90992E-05-2.63020E-06 0.00000E+00
 -1       527 1.83230E-05-3.25276E-06 0.00000E+00
 -1       528 1.75468E-05-3.87603E-06 0.00000E+00
 -1       529 1.67503E-05-4.44469E-06 0.00000E+00
 -1       530 1.59128E-05-4.90387E-06 0.00000E+00
 -1       531 1.50141E-05-5.19958E-06 0.00000E+00
 -1       532 1.40350E-05-5.27903E-06-1.32349E-23
 -1       533 1.29560E-05-5.09129E-06 2.64698E-23
 -1       534 1.17617E-05-4.58652E-06 0.00000E+00
 -1       535 1.04308E-05-3.71977E-06 2.64698E-23
 -1       536 2.32140E-05-5.18703E-07 0.00000E+00
 -1       537 2.32131E-05 6.05042E-07 0.00000E+00
 -1       538 2.32125E-05 1.40960E-06 0.00000E+00
 -1       539 2.32128E-05 1.93217E-06 0.00000E+00
 -1       540 2.32133E-05 2.20990E-06 0.00000E+00
 -1       541 2.32139E-05 2.27994E-06 0.00000E+00
 -1       542 2.32146E-05 2.17944E-06 0.00000E+00
 -1       543 2.32152E-05 1.94556E-06 0.00000E+00
 -1       544 2.32159E-05 1.61544E-06 0.00000E+00
 -1       545 2.32165E-05 1.22624E-06-3.23117E-27
 -1       546 2.32172E-05 8.15099E-07 0.00000E+00
 -1       547 2.32179E-05 4.19178E-07 0.00000E+00
 -1       548 2.32186E-05 7.56183E-08 0.00000E+00
 -1       549 2.32194E-05-1.78433E-07 0.00000E+00
 -1       550 2.32203E-05-3.05805E-07 0.00000E+00
 -1       551 2.11029E-05-2.06939E-06-1.24077E-24
 -1       552 1.87274E-05-2.13926E-06 2.06795E-25
 -1       553 1.62089E-05-2.20955E-06 3.30872E-24
 -1       554 1.36651E-05-2.28101E-06 3.30872E-24
 -1       555 1.12137E-05-2.35438E-06 0.00000E+00
 -1       556 2.26280E-05-5.85640E-07 0.00000E+00
 -1       557 2.21627E-05 4.98995E-07 0.00000E+00
 -1       558 2.18097E-05 1.28619E-06-6.61744E-24
 -1       559 2.15562E-05 1.80963E-06 0.00000E+00
 -1       560 2.13892E-05 2.10297E-06 0.00000E+00
 -1       561 2.12958E-05 2.20012E-06 0.00000E+00
 -1       562 2.12634E-05 2.13500E-06 0.00000E+00
 -1       563 2.12791E-05 1.94155E-06-1.65436E-24
 -1       564 2.13302E-05 1.65375E-06 0.00000E+00
 -1       565 2.14039E-05 1.30558E-06 0.00000E+00
 -1       566 2.14875E-05 9.31019E-07 0.00000E+00
 -1       567 2.15683E-05 5.64059E-07 4.13590E-25
 -1       568 2.16336E-05 2.38683E-07 1.44757E-24
 -1       569 2.16707E-05-1.11623E-08 4.13590E-25
 -1       570 2.16671E-05-1.51547E-07-8.27181E-25
 -1       571 2.32653E-05-1.77610E-07-6.20385E-25
 -1       572 2.33099E-05-1.15703E-07-4.13590E-25
 -1       573 2.33549E-05-7.82345E-08 8.27181E-25
 -1       574 2.34000E-05-5.94197E-08-4.13590E-25
 -1       575 2.34452E-05-5.34477E-08 0.00000E+00
 -1       576 2.34904E-05-5.44706E-08 0.00000E+00
 -1       577 2.35357E-05-5.66375E-08 0.00000E+00
 -1       578 2.35809E-05-5.40925E-08 8.27181E-25
 -1       579 2.36262E-05-4.09795E-08 1.65436E-24
 -1       580 2.36714E-05-1.14422E-08 0.00000E+00
 -1       581 2.37167E-05 4.03745E-08 3.30872E-24
 -1       582 2.37619E-05 1.20320E-07 0.00000E+00
 -1       583 2.38071E-05 2.34238E-07 0.00000E+00
 -1       584 2.38523E-05 3.87911E-07 0.00000E+00
 -1       585 2.38975E-05 5.87091E-07 0.00000E+00
 -1       586 2.29929E-05-2.48979E-07 0.00000E+00
 -1       587 2.27281E-05-2.28400E-07 0.00000E+00
 -1       588 2.24423E-05-2.07857E-07 0.00000E+00
 -1       589 2.21508E-05-1.87500E-07 0.00000E+00
 -1       590 2.18690E-05-1.67549E-07 0.00000E+00
 -1       591 2.31519E-05-1.60907E-07 4.13590E-25
 -1       592 2.30874E-05-7.33109E-08 0.00000E+00
 -1       593 2.30289E-05-2.42070E-09-8.27181E-25
 -1       594 2.29750E-05 5.55535E-08 0.00000E+00
 -1       595 2.29244E-05 1.04414E-07 8.27181E-25
 -1       596 2.28757E-05 1.47930E-07 0.00000E+00
 -1       597 2.28277E-05 1.89870E-07 0.00000E+00
 -1       598 2.27788E-05 2.33994E-07 0.00000E+00
 -1       599 2.27277E-05 2.84066E-07 0.00000E+00
 -1       600 2.26730E-05 3.43847E-07-4.13590E-25
 -1       601 2.26132E-05 4.17097E-07-4.13590E-25
 -1       602 2.25470E-05 5.07583E-07 0.00000E+00
 -1       603 2.24730E-05 6.19071E-07-8.27181E-25
 -1       604 2.23899E-05 7.55353E-07-1.55096E-25
 -1       605 2.22964E-05 9.20211E-07 0.00000E+00
 -1       606 2.39606E-05 1.17807E-06 0.00000E+00
 -1       607 2.39773E-05 1.56190E-06 0.00000E+00
 -1       608 2.39938E-05 1.98602E-06 0.00000E+00
 -1       609 2.40100E-05 2.44756E-06 0.00000E+00
 -1       610 2.40262E-05 2.94362E-06 1.65436E-24
 -1       611 2.40424E-05 3.47125E-06-8.27181E-25
 -1       612 2.40585E-05 4.02750E-06-1.65436E-24
 -1       613 2.40746E-05 4.60941E-06 0.00000E+00
 -1       614 2.40907E-05 5.21402E-06 0.00000E+00
 -1       615 2.41068E-05 5.83838E-06 0.00000E+00
 -1       616 2.41228E-05 6.47953E-06-8.27181E-25
 -1       617 2.41389E-05 7.13450E-06 0.00000E+00
 -1       618 2.41549E-05 7.80035E-06 8.27181E-25
 -1       619 2.41709E-05 8.47411E-06 0.00000E+00
 -1       620 2.41869E-05 9.15284E-06-4.13590E-25
 -1       621 2.36274E-05 8.84155E-07-1.65436E-24
 -1       622 2.33160E-05 9.31365E-07 0.00000E+00
 -1       623 2.30124E-05 9.78553E-07 0.00000E+00
 -1       624 2.27212E-05 1.02560E-06 8.27181E-25
 -1       625 2.24467E-05 1.07240E-06-8.27181E-25
 -1       626 2.38513E-05 1.20029E-06-3.30872E-24
 -1       627 2.37429E-05 1.60856E-06 0.00000E+00
 -1       628 2.36191E-05 2.05759E-06 0.00000E+00
 -1       629 2.34818E-05 2.54263E-06-3.30872E-24
 -1       630 2.33328E-05 3.05892E-06-1.65436E-24
 -1       631 2.31738E-05 3.60166E-06-8.27181E-25
 -1       632 2.30066E-05 4.16601E-06 1.65436E-24
 -1       633 2.28332E-05 4.74716E-06 0.00000E+00
 -1       634 2.26553E-05 5.34030E-06 0.00000E+00
 -1       635 2.24747E-05 5.94059E-06-8.27181E-25
 -1       636 2.22931E-05 6.54322E-06-8.27181E-25
 -1       637 2.21125E-05 7.14337E-06 4.13590E-25
 -1       638 2.19346E-05 7.73620E-06-8.27181E-25
 -1       639 2.17611E-05 8.31690E-06-4.13590E-25
 -1       640 2.15936E-05 8.88060E-06 0.00000E+00
 -1       641 2.42016E-05 1.05201E-05 2.06795E-25
 -1       642 2.42000E-05 1.12445E-05 2.58494E-26
 -1       643 2.41984E-05 1.20008E-05 0.00000E+00
 -1       644 2.41967E-05 1.27830E-05 0.00000E+00
 -1       645 2.41950E-05 1.35846E-05 2.58494E-26
 -1       646 2.41932E-05 1.43993E-05-2.58494E-26
 -1       647 2.41914E-05 1.52205E-05 0.00000E+00
 -1       648 2.41896E-05 1.60417E-05 0.00000E+00
 -1       649 2.41878E-05 1.68563E-05 0.00000E+00
 -1       650 2.41860E-05 1.76577E-05 2.58494E-26
 -1       651 2.41842E-05 1.84397E-05 0.00000E+00
 -1       652 2.41823E-05 1.91957E-05-1.03398E-25
 -1       653 2.41805E-05 1.99198E-05 2.06795E-25
 -1       654 2.41781E-05 2.06060E-05 0.00000E+00
 -1       655 2.41760E-05 2.12486E-05 0.00000E+00
 -1       656 2.36066E-05 9.76719E-06 0.00000E+00
 -1       657 2.31148E-05 9.69751E-06-8.27181E-25
 -1       658 2.26895E-05 9.62800E-06 1.65436E-24
 -1       659 2.22927E-05 9.55848E-06-8.27181E-25
 -1       660 2.18864E-05 9.48882E-06 0.00000E+00
 -1       661 2.39967E-05 1.05348E-05 8.27181E-25
 -1       662 2.37835E-05 1.12606E-05-8.27181E-25
 -1       663 2.35630E-05 1.20058E-05 1.65436E-24
 -1       664 2.33371E-05 1.27660E-05-8.27181E-25
 -1       665 2.31073E-05 1.35367E-05 1.65436E-24
 -1       666 2.28753E-05 1.43136E-05-8.27181E-25
 -1       667 2.26426E-05 1.50921E-05-1.65436E-24
 -1       668 2.24110E-05 1.58677E-05 8.27181E-25
 -1       669 2.21822E-05 1.66361E-05 0.00000E+00
 -1       670 2.19577E-05 1.73928E-05 8.27181E-25
 -1       671 2.17393E-05 1.81333E-05 1.65436E-24
 -1       672 2.15285E-05 1.88532E-05 0.00000E+00
 -1       673 2.13271E-05 1.95480E-05-1.65436E-24
 -1       674 2.11364E-05 2.02131E-05 0.00000E+00
 -1       675 2.09585E-05 2.08442E-05 0.00000E+00
 -1       676 2.36022E-05 2.17740E-05 0.00000E+00
 -1       677 2.30342E-05 2.17057E-05 0.00000E+00
 -1       678 2.24681E-05 2.16375E-05 1.65436E-24
 -1       679 2.19050E-05 2.15695E-05-8.27181E-25
 -1       680 2.13460E-05 2.15016E-05 1.65436E-24
 -1       716 9.01873E-06-2.98578E-05 4.03897E-28
 -1       717 9.01712E-06-2.80299E-05 0.00000E+00
 -1       718 9.01552E-06-2.62019E-05 0.00000E+00
 -1       719 9.01391E-06-2.43740E-05 0.00000E+00
 -1       720 9.01230E-06-2.25461E-05 0.00000E+00
 -1       721 9.01069E-06-2.07182E-05-6.46235E-27
 -1       722 9.00907E-06-1.88903E-05 2.58494E-26
 -1       723 9.00743E-06-1.70623E-05 2.58494E-26
 -1       724 9.00576E-06-1.52344E-05 1.03398E-25
 -1       725 9.00398E-06-1.34065E-05 1.03398E-25
 -1       726 9.00215E-06-1.15786E-05 0.00000E+00
 -1       727 8.99980E-06-9.75064E-06 4.13590E-25
 -1       728 8.99737E-06-7.92273E-06 1.65436E-24
 -1       729 8.99239E-06-6.09481E-06 0.00000E+00
 -1       730 8.98827E-06-4.26689E-06 0.00000E+00
 -1       766 7.18443E-06-2.45647E-06-6.61744E-24
 -1       767 5.48140E-06-2.46038E-06-1.65436E-24
 -1       768 3.88786E-06-2.46497E-06 1.65436E-24
 -1       769 2.43005E-06-2.46682E-06 0.00000E+00
 -1       770 1.13400E-06-2.46835E-06-4.13590E-25
 -1       771 7.92885E-06-9.90629E-07 0.00000E+00
 -1       772 6.99571E-06 1.54269E-07-6.61744E-24
 -1       773 6.16564E-06 1.02293E-06 0.00000E+00
 -1       774 5.42841E-06 1.64322E-06-6.61744E-24
 -1       775 4.77384E-06 2.04311E-06 0.00000E+00
 -1       776 4.19138E-06 2.25076E-06-6.61744E-24
 -1       777 3.67045E-06 2.29442E-06-1.32349E-23
 -1       778 3.20040E-06 2.20242E-06 6.61744E-24
 -1       779 2.77060E-06 2.00314E-06 1.32349E-23
 -1       780 2.37037E-06 1.72505E-06 0.00000E+00
 -1       781 1.98904E-06 1.39665E-06 1.32349E-23
 -1       782 1.61596E-06 1.04648E-06 0.00000E+00
 -1       783 1.24050E-06 7.03090E-07 1.32349E-23
 -1       784 8.52323E-07 3.95068E-07 6.61744E-24
 -1       785 4.41003E-07 1.50978E-07 0.00000E+00
 -1       786 2.16458E-05 9.98130E-10 0.00000E+00
 -1       787 2.16820E-05 1.15093E-07-4.13590E-25
 -1       788 2.17182E-05 1.98884E-07 0.00000E+00
 -1       789 2.17547E-05 2.58072E-07 4.13590E-25
 -1       790 2.17913E-05 2.98347E-07 0.00000E+00
 -1       791 2.18279E-05 3.25391E-07 0.00000E+00
 -1       792 2.18646E-05 3.44885E-07 0.00000E+00
 -1       793 2.19012E-05 3.62503E-07-4.13590E-25
 -1       794 2.19379E-05 3.83923E-07 8.27181E-25
 -1       795 2.19745E-05 4.14820E-07 0.00000E+00
 -1       796 2.20112E-05 4.60876E-07 0.00000E+00
 -1       797 2.20478E-05 5.27776E-07-4.13590E-25
 -1       798 2.20844E-05 6.21212E-07-8.27181E-25
 -1       799 2.21209E-05 7.46884E-07-4.13590E-25
 -1       800 2.21573E-05 9.10510E-07-8.27181E-25
 -1       801 1.98032E-05-1.16920E-07 0.00000E+00
 -1       802 1.58275E-05-8.83759E-08 0.00000E+00
 -1       803 1.07713E-05-6.43070E-08 4.13590E-25
 -1       804 5.72270E-06-4.23192E-08 0.00000E+00
 -1       805 1.77006E-06-1.58967E-08 6.61744E-24
 -1       806 2.15158E-05-1.55863E-08 0.00000E+00
 -1       807 2.14254E-05 9.94599E-08 8.27181E-25
 -1       808 2.13403E-05 1.99365E-07 0.00000E+00
 -1       809 2.12596E-05 2.87323E-07-1.65436E-24
 -1       810 2.11821E-05 3.66518E-07 0.00000E+00
 -1       811 2.11067E-05 4.40127E-07 0.00000E+00
 -1       812 2.10321E-05 5.11321E-07 0.00000E+00
 -1       813 2.09573E-05 5.83270E-07 0.00000E+00
 -1       814 2.08810E-05 6.59148E-07 1.65436E-24
 -1       815 2.08021E-05 7.42123E-07 0.00000E+00
 -1       816 2.07192E-05 8.35365E-07-8.27181E-25
 -1       817 2.06314E-05 9.42043E-07 4.13590E-25
 -1       818 2.05373E-05 1.06532E-06 8.27181E-25
 -1       819 2.04360E-05 1.20836E-06 2.06795E-25
 -1       820 2.03261E-05 1.37429E-06 0.00000E+00
 -1       821 2.21481E-05 1.38672E-06 0.00000E+00
 -1       822 2.21006E-05 1.72240E-06 0.00000E+00
 -1       823 2.20532E-05 2.11775E-06-1.65436E-24
 -1       824 2.20054E-05 2.56563E-06 0.00000E+00
 -1       825 2.19574E-05 3.05892E-06 0.00000E+00
 -1       826 2.19094E-05 3.59044E-06 0.00000E+00
 -1       827 2.18614E-05 4.15298E-06 0.00000E+00
 -1       828 2.18133E-05 4.73937E-06 0.00000E+00
 -1       829 2.17652E-05 5.34238E-06 0.00000E+00
 -1       830 2.17171E-05 5.95479E-06 0.00000E+00
 -1       831 2.16690E-05 6.56939E-06 0.00000E+00
 -1       832 2.16210E-05 7.17894E-06 0.00000E+00
 -1       833 2.15731E-05 7.77622E-06 0.00000E+00
 -1       834 2.15255E-05 8.35402E-06 4.13590E-25
 -1       835 2.14779E-05 8.90513E-06 0.00000E+00
 -1       836 2.19105E-05 1.19140E-06-1.65436E-24
 -1       837 2.15703E-05 1.26750E-06 8.27181E-25
 -1       838 2.12011E-05 1.34349E-06 0.00000E+00
 -1       839 2.08317E-05 1.41922E-06-8.27181E-25
 -1       840 2.04908E-05 1.49496E-06-8.27181E-25
 -1       841 2.21027E-05 1.39962E-06 4.13590E-25
 -1       842 2.19789E-05 1.77077E-06 0.00000E+00
 -1       843 2.18288E-05 2.21204E-06 0.00000E+00
 -1       844 2.16595E-05 2.70427E-06 0.00000E+00
 -1       845 2.14755E-05 3.23579E-06 4.13590E-25
 -1       846 2.12812E-05 3.79492E-06 0.00000E+00
 -1       847 2.10793E-05 4.37399E-06 0.00000E+00
 -1       848 2.08728E-05 4.96537E-06 2.06795E-25
 -1       849 2.06639E-05 5.56314E-06 0.00000E+00
 -1       850 2.04548E-05 6.16137E-06 0.00000E+00
 -1       851 2.02477E-05 6.75429E-06 0.00000E+00
 -1       852 2.00447E-05 7.33608E-06-2.06795E-25
 -1       853 1.98486E-05 7.89936E-06 2.06795E-25
 -1       854 1.96619E-05 8.43659E-06-2.58494E-26
 -1       855 1.94893E-05 8.93674E-06 0.00000E+00
 -1       856 2.13951E-05 9.96497E-06 4.13590E-25
 -1       857 2.13553E-05 1.05839E-05 0.00000E+00
 -1       858 2.13154E-05 1.12690E-05 8.27181E-25
 -1       859 2.12751E-05 1.20097E-05 0.00000E+00
 -1       860 2.12348E-05 1.27957E-05 8.27181E-25
 -1       861 2.11944E-05 1.36164E-05-4.13590E-25
 -1       862 2.11540E-05 1.44614E-05 0.00000E+00
 -1       863 2.11135E-05 1.53203E-05 0.00000E+00
 -1       864 2.10731E-05 1.61826E-05 1.65436E-24
 -1       865 2.10326E-05 1.70378E-05-8.27181E-25
 -1       866 2.09922E-05 1.78755E-05-1.65436E-24
 -1       867 2.09518E-05 1.86853E-05 8.27181E-25
 -1       868 2.09114E-05 1.94566E-05 1.65436E-24
 -1       869 2.08713E-05 2.01790E-05 0.00000E+00
 -1       870 2.08312E-05 2.08422E-05 8.27181E-25
 -1       871 2.10184E-05 9.41770E-06 0.00000E+00
 -1       872 2.06565E-05 9.41237E-06 0.00000E+00
 -1       873 2.03271E-05 9.40687E-06 0.00000E+00
 -1       874 2.00102E-05 9.40115E-06 0.00000E+00
 -1       875 1.96854E-05 9.39514E-06 4.13590E-25
 -1       876 2.12977E-05 9.97809E-06 0.00000E+00
 -1       877 2.11430E-05 1.05935E-05-8.27181E-25
 -1       878 2.09691E-05 1.12604E-05 1.65436E-24
 -1       879 2.07789E-05 1.19715E-05 0.00000E+00
 -1       880 2.05749E-05 1.27193E-05 1.65436E-24
 -1       881 2.03601E-05 1.34964E-05 8.27181E-25
 -1       882 2.01369E-05 1.42955E-05 1.65436E-24
 -1       883 1.99083E-05 1.51093E-05 8.27181E-25
 -1       884 1.96769E-05 1.59303E-05-1.65436E-24
 -1       885 1.94456E-05 1.67513E-05 0.00000E+00
 -1       886 1.92169E-05 1.75649E-05 0.00000E+00
 -1       887 1.89938E-05 1.83638E-05 8.27181E-25
 -1       888 1.87788E-05 1.91406E-05 0.00000E+00
 -1       889 1.85745E-05 1.98878E-05 0.00000E+00
 -1       890 1.83840E-05 2.05982E-05 8.27181E-25
 -1       891 2.03134E-05 2.14072E-05 0.00000E+00
 -1       892 1.99130E-05 2.13782E-05-4.13590E-25
 -1       893 1.95465E-05 2.13493E-05-8.27181E-25
 -1       894 1.91696E-05 2.13204E-05 0.00000E+00
 -1       895 1.87377E-05 2.12915E-05 0.00000E+00
 -1       926 2.51433E-08-1.55204E-06-5.16988E-26
 -1       927 2.48522E-08-8.28913E-07 0.00000E+00
 -1       928 2.46564E-08-2.80066E-07-1.29247E-26
 -1       929 2.45623E-08 1.14290E-07 0.00000E+00
 -1       930 2.45100E-08 3.73940E-07-6.46235E-27
 -1       931 2.44810E-08 5.18673E-07-6.46235E-27
 -1       932 2.44551E-08 5.68287E-07 2.58494E-26
 -1       933 2.44072E-08 5.42579E-07-2.58494E-26
 -1       934 2.43337E-08 4.61350E-07 1.03398E-25
 -1       935 2.41468E-08 3.44400E-07-1.03398E-25
 -1       936 2.38937E-08 2.11533E-07 0.00000E+00
 -1       937 2.31179E-08 8.25516E-08 4.13590E-25
 -1       938 2.22711E-08-2.27706E-08-1.65436E-24
 -1       939 1.88190E-08-8.46541E-08-1.65436E-24
 -1       940 1.62469E-08-8.35761E-08-6.61744E-24
 -1       956 2.01536E-05 1.84714E-06-4.13590E-25
 -1       957 2.00992E-05 2.18730E-06-4.13590E-25
 -1       958 2.00446E-05 2.58022E-06 8.27181E-25
 -1       959 1.99898E-05 3.01910E-06 8.27181E-25
 -1       960 1.99350E-05 3.49717E-06 0.00000E+00
 -1       961 1.98801E-05 4.00758E-06 8.27181E-25
 -1       962 1.98252E-05 4.54351E-06 0.00000E+00
 -1       963 1.97703E-05 5.09812E-06 8.27181E-25
 -1       964 1.97154E-05 5.66458E-06 1.65436E-24
 -1       965 1.96605E-05 6.23605E-06-8.27181E-25
 -1       966 1.96056E-05 6.80569E-06 1.65436E-24
 -1       967 1.95507E-05 7.36667E-06 0.00000E+00
 -1       968 1.94959E-05 7.91216E-06-1.65436E-24
 -1       969 1.94412E-05 8.43533E-06 0.00000E+00
 -1       970 1.93866E-05 8.92940E-06 1.65436E-24
 -1       971 1.92640E-05 9.86045E-06-1.65436E-24
 -1       972 1.91936E-05 1.04168E-05 8.27181E-25
 -1       973 1.91231E-05 1.10468E-05-1.65436E-24
 -1       974 1.90524E-05 1.17402E-05 0.00000E+00
 -1       975 1.89816E-05 1.24867E-05-1.65436E-24
 -1       976 1.89108E-05 1.32761E-05 0.00000E+00
 -1       977 1.88399E-05 1.40981E-05 0.00000E+00
 -1       978 1.87690E-05 1.49424E-05 0.00000E+00
 -1       979 1.86981E-05 1.57986E-05 1.65436E-24
 -1       980 1.86272E-05 1.66566E-05 8.27181E-25
 -1       981 1.85563E-05 1.75059E-05 1.65436E-24
 -1       982 1.84855E-05 1.83363E-05 0.00000E+00
 -1       983 1.84148E-05 1.91376E-05 1.65436E-24
 -1       984 1.83445E-05 1.98993E-05 8.27181E-25
 -1       985 1.82742E-05 2.06113E-05 0.00000E+00
 -3
    1PSTEP                         8           4           1          
  100CL  104 3.43750E-01         568                     0    4           1
 -4  STRESS      6    1
 -5  SXX         1    4    1    1
 -5  SYY         1    4    2    2
 -5  SZZ         1    4    3    3
 -5  SXY         1    4    1    2
 -5  SYZ         1    4    2    3
 -5  SZX         1    4    3    1
 -1         1-9.37558E+05-3.69488E+05-1.79681E+05-4.83277E+05-2.27980E-10-3.97752E-10
 -1         2-4.90893E+04-3.94264E+05-1.27141E+03 8.31917E+03 1.20053E-09-3.78579E-09
 -1         3-1.47840E+01-4.76032E+05-6.98755E+01-7.67953E+01 3.01472E-10-8.76389E-09
 -1         4 4.68372E+00-5.10563E+00-5.26542E-01-5.88890E+00 2.19745E-09 3.49995E-10
 -1         5-4.47946E+00 2.00319E+05 1.07971E+01-2.09227E+00 2.08480E-10 8.64020E-12
 -1         8-8.98647E+05-3.01942E+05-1.25943E+05-3.28943E+05 9.36780E-10 3.21961E-09
 -1         9-9.29436E+05-3.86987E+05-1.52875E+05-2.08076E+05-8.66445E-10 1.50370E-10
 -1        10-1.00882E+04-2.80915E+05 3.47542E+04-1.56727E+03-1.55556E-09-8.68764E-10
 -1        11 1.16128E+00-2.15120E+00-7.60211E-01 3.47875E-01 8.50368E-10 1.53564E-09
 -1        12-4.65247E+03 7.58639E+04-2.54300E+04 3.64054E+03 5.24830E-09 1.21077E-09
 -1        15 1.24719E+03 6.74438E+02 3.87067E+03 1.01196E+00-8.19966E-11 4.91235E-09
 -1        16-1.11590E+06-2.94574E+05-9.56557E+04-3.68726E+05 1.31820E-10 9.25866E-10
 -1        17-2.37718E+05-1.69658E+05-2.14568E+04-1.49064E+05-2.65178E-09 1.91600E-10
 -1        18 1.57481E+04 5.20470E+03-5.79799E+03-4.27788E+04 1.81558E-10 1.32786E-09
 -1        19 4.51355E+04 5.27989E+04-5.32709E+03 5.37749E+03 1.66945E-09-1.46247E-09
 -1        20 2.88720E+04-4.21784E+04-9.60405E+03 2.08482E+04 2.09764E-09-5.00677E-10
 -1        21-3.63094E+02-7.45781E+04 2.18204E+04-2.56066E+02 9.64849E-09-2.87531E-09
 -1        23 3.02398E-01 1.44058E-01 5.53978E+00 2.77814E-04 2.59141E-09 2.41625E-09
 -1        24-5.77892E+05-1.73617E+05 3.95311E+04-3.11048E+05-2.79033E-09-3.34694E-11
 -1        25 1.40475E+03 1.50575E+04 1.07342E+04-1.81528E+05 5.06316E-10 1.29548E-09
 -1        26-5.78830E+02 4.85309E+04 9.98542E+02-8.39005E+03-3.74752E-10 1.70125E-09
 -1        27-1.17450E+04-3.13952E+04-1.39782E+04 3.46604E+04 2.44874E-09-1.49400E-09
 -1        28-5.67289E+03-5.85164E+04-2.93028E+03 2.13313E+04 4.40502E-09-4.45620E-10
 -1        31 1.92151E+03 2.21652E+03 3.28696E+03-8.33812E+01 1.83030E-09-8.36337E-10
 -1        32-2.53064E+05 4.27126E+04 1.50745E+05-3.71084E+05-2.90672E-09 1.40669E-10
 -1        33-5.80968E+04 6.00166E+04 1.83234E+04-1.78597E+04 1.97304E-10 1.03743E-09
 -1        34-7.43044E+04-3.82278E+03 4.98266E+03 2.51113E+04 2.87481E-09 2.30898E-10
 -1        35-1.44834E+04-1.67448E+04-5.52744E+02 3.37308E+04-7.17082E-10-2.48110E-09
 -1        36-4.73786E+03-1.59576E+04 3.67990E+04 1.57664E-08-1.58068E-10-1.22600E-09
 -1        37 1.12525E+04 1.84706E+04 2.60544E+04-7.36314E-07-2.12244E-10-2.46519E-09
 -1        38 1.41514E+03-2.50916E+03 9.52910E+03 1.59823E-07-1.91657E-10 2.60115E-09
 -1        39 4.08021E+03 2.90393E+03 6.00483E+03-3.79888E-08 2.58907E-11-1.12766E-09
 -1        40 2.43253E+03-3.94232E+02 2.46426E+03 2.37330E-08-2.63308E-11-1.19690E-09
 -1        41 2.89629E+03 4.65254E+02 1.49530E+03-2.00971E-07-6.54001E-11 3.09433E-09
 -1        42 2.59896E+03-7.09558E+01 7.73171E+02-9.54401E-08 6.75352E-12 3.21990E-09
 -1        43 2.73155E+03 1.44843E+02 6.94192E+02-7.49421E-08-3.85861E-11-3.71905E-09
 -1        44 2.59727E+03-7.38736E+01 7.99042E+02-1.02017E-07 1.37863E-11 1.32340E-09
 -1        45 2.90971E+03 4.90280E+02 1.57025E+03-6.06305E-07 1.02616E-11 2.32259E-09
 -1        46 2.42080E+03-4.16339E+02 2.59899E+03-2.08133E-07 3.07858E-11 8.91646E-10
 -1        47 4.16123E+03 3.06774E+03 6.34168E+03-4.17085E-08 3.33814E-10 3.18778E-10
 -1        48 1.34586E+03-2.65085E+03 1.00663E+04-3.87144E-07-1.64502E-10 1.87583E-09
 -1        49 1.17387E+04 1.95139E+04 2.75253E+04-9.12630E-07 2.33220E-10-3.31374E-09
 -1        50-5.15454E+03-1.68587E+04 3.88777E+04-4.17054E-07 1.75796E-09-6.73936E-09
 -1        51 1.32803E+04-2.16079E+05 2.17980E+04-5.68085E+05-1.09139E-10-8.07631E-10
 -1        52 6.11625E+03-2.13981E+05 1.40233E+04-6.26540E+05 3.27418E-10-1.13505E-09
 -1        53 4.31394E+03-2.18270E+05 1.25980E+04-5.66617E+05-1.27329E-10-3.20870E-09
 -1        54 1.11393E+04-2.15633E+05 2.07727E+04-6.28136E+05-5.09317E-10-3.90719E-09
 -1        55 2.71913E+04-2.22224E+05 3.87395E+04-5.66381E+05-1.96451E-10 3.93811E-09
 -1        56-2.66210E+06-2.92429E+05-2.26369E+05-1.03267E+06 4.94765E-10-4.51109E-10
 -1        57-2.77089E+06-4.89180E+05-1.54007E+05-1.00420E+06-4.58385E-10-6.21549E-09
 -1        58-2.70718E+06-3.67868E+05-5.32156E+04-1.01883E+06 5.80258E-10-3.12320E-09
 -1        59-2.71879E+06-4.01014E+05-3.22037E+04-1.02030E+06-1.30808E-09-1.65801E-09
 -1        60-2.71380E+06-3.78959E+05-1.24423E+04-1.01711E+06-4.84533E-10-4.61478E-09
 -1        61-2.71157E+06-3.87660E+05-7.18226E+03-1.02177E+06-1.35060E-10-4.73847E-10
 -1        62-2.71432E+06-3.81001E+05-3.43085E+03-1.01742E+06-6.76323E-10 7.28846E-10
 -1        63-2.71176E+06-3.84837E+05-2.91045E+03-1.02061E+06-2.53948E-10-1.77989E-09
 -1        64-2.71359E+06-3.81760E+05-3.31884E+03-1.01827E+06-1.69280E-10-4.12683E-10
 -1        65-2.71432E+06-3.84716E+05-6.84084E+03-1.01854E+06 4.16815E-10-4.37240E-10
 -1        66-2.71177E+06-3.81147E+05-1.18131E+04-1.01949E+06-5.94014E-10 1.62345E-09
 -1        67-2.72337E+06-3.95165E+05-3.05368E+04-1.01462E+06-8.52879E-10 1.30603E-09
 -1        68-2.70461E+06-3.71522E+05-5.04584E+04-1.02214E+06-2.24645E-10 1.96451E-10
 -1        69-2.77394E+06-4.77590E+05-1.46012E+05-9.98026E+05-1.40244E-09-1.02773E-09
 -1        70-2.66160E+06-3.00270E+05-2.14628E+05-1.03557E+06 2.29193E-10-1.35333E-09
 -1        86 1.78118E+04-8.77761E+05-4.10395E+04-4.35550E+03-3.11047E-10 2.43471E-10
 -1        87-2.18424E+04-8.84904E+05-3.02478E+04 6.70620E+03-2.91720E-09-3.21885E-09
 -1        88 3.98347E+03-8.95132E+05-1.99091E+04 5.57569E+03 6.58952E-09 5.80883E-10
 -1        89-1.64929E+04-8.74480E+05-2.27312E+04-4.73181E+03 2.05318E-10 6.58968E-10
 -1        90 1.24916E+04-8.88164E+05-3.30620E+04 7.08275E+03 4.98039E-09-1.14423E-09
 -1       121-7.72868E+00-4.76100E+05-9.03745E+01 3.83943E+01-6.17359E-10-3.79623E-09
 -1       122-4.22885E+01-4.76051E+05-1.57598E+02-1.53142E+02-4.49063E-10 7.67386E-10
 -1       123 1.58947E+01-4.76082E+05-2.78420E+02 1.14723E+02-1.50251E-09 6.86668E-11
 -1       124-3.42878E+02-4.76227E+05-6.68282E+02-3.33510E+02-9.78332E-10-1.74498E-09
 -1       125 2.42261E+02-4.75925E+05-1.04343E+03 2.18693E+02-2.51015E-09 1.82808E-09
 -1       161-1.70920E+00 1.19838E+00-6.96048E-01 1.25740E+00 1.03588E-06-3.87120E-07
 -1       162 4.57110E+00-5.20023E+00-1.28026E+00-5.89638E+00 2.07062E-06-7.76063E-07
 -1       163-1.59654E+00 1.29327E+00-2.48642E+00 1.26476E+00 1.01900E-06-3.81978E-07
 -1       164 4.01550E+00-5.85583E+00-5.54848E+00-5.85246E+00-3.26282E-08 1.42154E-08
 -1       165-1.15365E+00 1.85411E+00-1.08052E+01 1.21338E+00-1.19049E-06 4.45943E-07
 -1       166 1.01278E+00-1.00464E+01-2.50025E+01-5.33356E+00-2.34665E-06 8.79555E-07
 -1       167 1.40639E+00 5.48354E+00-4.73785E+01 7.46106E-01-3.51875E-06 1.31768E-06
 -1       168-1.65703E+01-3.69229E+01-1.13678E+02-1.27701E+00-4.69049E-06 1.75956E-06
 -1       169 1.64296E+01 2.87276E+01-2.07188E+02-2.84176E+00-5.82592E-06 2.18384E-06
 -1       170-1.21994E+02-2.08564E+02-5.22310E+02 2.76263E+01-6.96115E-06 2.60930E-06
 -1       171 1.06830E+02 1.77104E+02-9.01350E+02-2.81483E+01-7.91602E-06 2.96784E-06
 -1       172-7.63349E+02-1.30072E+03-2.43319E+03 2.24446E+02-8.86948E-06 3.32864E-06
 -1       173 6.57793E+02 1.12073E+03-3.89135E+03-1.99594E+02-8.97120E-06 3.36483E-06
 -1       174-4.70739E+03-8.23349E+03-1.15382E+04 1.52949E+03-9.06779E-06 3.40042E-06
 -1       175 4.05117E+03 7.10893E+03-1.66067E+04-1.33266E+03-4.53382E-06 1.69943E-06
 -1       191-4.50655E+00 2.00335E+05 1.30327E+01 1.04568E+00-7.57865E-11-3.60160E-10
 -1       192-1.00063E+00 2.00320E+05 2.39614E+01-9.73527E+00-1.07917E-10 4.15866E-10
 -1       193 6.52164E+00 2.00333E+05 4.55344E+01 8.68893E+00-3.37423E-10 1.72076E-09
 -1       194 4.38080E+01 2.00335E+05 1.01843E+02-7.64899E+01-2.62162E-10 1.44564E-09
 -1       195 1.34866E+02 2.00320E+05 2.07027E+02 6.78391E+01-5.61613E-10 5.95719E-10
 -1       251-1.52649E+06 3.71873E+04-8.60434E+04-2.36464E+03-1.04733E-09 1.18234E-09
 -1       252-1.56198E+06-4.31264E+04-6.06462E+04 2.33997E-01-6.56892E-09 8.47649E-10
 -1       253-1.53995E+06 5.93104E+03-2.22100E+04 3.12499E+03-3.60169E-09-1.10958E-10
 -1       254-1.54494E+06-6.88308E+03-1.38117E+04-2.34528E+02-2.24434E-09 1.04274E-09
 -1       255-1.54348E+06 9.47805E+02-5.95794E+03-2.12969E+03-2.43921E-09 2.43267E-09
 -1       256-1.53908E+06-1.04088E+03-2.65246E+03 1.42587E+03-3.19473E-09-6.79677E-10
 -1       257-1.54579E+06 8.93991E+01-2.39204E+03 1.46453E+03-2.76748E-06-2.96433E-09
 -1       258-1.53614E+06-1.51819E+02-2.36801E+02-1.27581E+03-5.17686E-06-1.21590E-08
 -1       259-1.54641E+06 5.86150E+01-2.53723E+03 5.72002E+02-2.78212E-06-5.31185E-09
 -1       260-1.53727E+06-9.64626E+02-2.33786E+03 1.68559E+03-4.52344E-10 7.57586E-09
 -1       261-1.54466E+06 9.02146E+02-6.30541E+03-1.49688E+03-2.97322E-09 1.27307E-09
 -1       262-1.54332E+06-6.93410E+03-1.37369E+04-6.66761E+02-2.10219E-09-3.06250E-09
 -1       263-1.54038E+06 6.02754E+03-2.27372E+04 2.92440E+03-1.79226E-09-9.54969E-10
 -1       264-1.56265E+06-4.40458E+04-6.18994E+04 4.51476E+02 2.87248E-10 2.68119E-09
 -1       265-1.52539E+06 3.80098E+04-8.75478E+04-2.61530E+03-4.79829E-09 1.13869E-09
 -1       266-2.19273E+04-1.01413E+04 5.06024E+04-2.08242E+01 1.81899E-11 2.26953E-09
 -1       267 2.53931E+04 1.18406E+04 3.58984E+04 2.39454E+01 9.09495E-12 1.70120E-09
 -1       268-3.46017E+03-1.69534E+03 1.32870E+04-3.11820E+00 2.45564E-11-1.25904E-09
 -1       269 4.08443E+03 2.03277E+03 8.68386E+03 3.62500E+00 6.02540E-11 2.21775E-09
 -1       270-6.23504E+02-3.37217E+02 4.16931E+03-5.05828E-01-1.80762E-11 1.59909E-09
 -1       271-2.12825E+06-2.71174E+05-1.65080E+05-8.23804E+05 2.29193E-10-2.19006E-09
 -1       272-2.18142E+06-3.78902E+05-1.03496E+05-8.29218E+05 1.54159E-10-2.41744E-09
 -1       273-2.15695E+06-3.06462E+05-3.89259E+04-8.19529E+05 9.73216E-10 3.00315E-09
 -1       274-2.14806E+06-3.32356E+05-2.12360E+04-8.37317E+05 1.16415E-10 1.90767E-09
 -1       275-2.16055E+06-3.09736E+05-9.03936E+03-8.18752E+05-1.47293E-09-3.77804E-09
 -1       276-2.14379E+06-3.28221E+05-4.74731E+03-8.38738E+05-2.17597E-10-2.16005E-10
 -1       277-2.16121E+06-3.09842E+05-2.41166E+03-8.18437E+05 3.09228E-10 2.39538E-10
 -1       278-2.14308E+06-3.28120E+05-1.82518E+03-8.39210E+05 2.93198E-10-5.19975E-11
 -1       279-2.16132E+06-3.09755E+05-2.10886E+03-8.18339E+05-6.07088E-10-1.21395E-09
 -1       280-2.14339E+06-3.28459E+05-3.92401E+03-8.39174E+05-1.82922E-10 1.66267E-09
 -1       281-2.16091E+06-3.09540E+05-7.34808E+03-8.18459E+05 7.03494E-10-5.31145E-10
 -1       282-2.14667E+06-3.31999E+05-1.72181E+04-8.38266E+05-1.02921E-09-2.45382E-09
 -1       283-2.15807E+06-3.06807E+05-3.15218E+04-8.19003E+05 3.68857E-10 1.14414E-09
 -1       284-2.17357E+06-3.69815E+05-8.38194E+04-8.31850E+05 8.98467E-10 2.84672E-09
 -1       285-2.13487E+06-2.78192E+05-1.33692E+05-8.22420E+05 2.56478E-10 3.34694E-10
 -1       286-4.87141E+04-1.96884E+04 4.53915E+04-2.95805E+01 1.08558E-09 7.67614E-10
 -1       287-2.88841E+04 2.27897E+04 3.21541E+04-4.06933E+01 5.49918E-10 1.67711E-09
 -1       288-4.11236E+04-3.09645E+03 1.17461E+04 6.42692E+00 3.27187E-11 9.13587E-10
 -1       289-3.77480E+04 3.58304E+03 7.41228E+03-1.18557E+02-1.94296E-10-1.69712E-09
 -1       290-3.98540E+04-4.86100E+02 3.02548E+03 4.82853E+01 2.86599E-10 2.64640E-09
 -1       291-3.92404E+04 5.70488E+02 1.82559E+03-1.86974E+02 1.05405E-09-1.37186E-09
 -1       292-3.96318E+04-8.43058E+01 9.10029E+02 7.48456E+01 5.60650E-07-4.77485E-11
 -1       293-3.94716E+04 1.57644E+02 7.61654E+02-2.17202E+02 1.11668E-06-1.26957E-09
 -1       294-3.96229E+04-7.32374E+01 8.13405E+02 7.85136E+01 5.59792E-07-7.43114E-10
 -1       295-3.92986E+04 4.76228E+02 1.54264E+03-2.00726E+02 9.75294E-10-6.51909E-10
 -1       296-3.98047E+04-4.02884E+02 2.52067E+03 5.83697E+01 2.45513E-10-2.72985E-09
 -1       297-3.80608E+04 2.96765E+03 6.14595E+03-1.42327E+02 1.65431E-10-2.02544E-09
 -1       298-4.08603E+04-2.56435E+03 9.73019E+03 2.01129E+01 7.05228E-10-7.27141E-10
 -1       299-3.07113E+04 1.88733E+04 2.66310E+04-6.54329E+01 5.31879E-10-4.43833E-10
 -1       300-4.71515E+04-1.63050E+04 3.75870E+04-1.85263E+01 1.90098E-09 1.34605E-09
 -1       301 2.15719E+04-1.23895E+04 5.99011E+04-2.08189E+04 8.65839E-10-5.29411E-09
 -1       302 7.87283E+03-1.91375E+02 3.91778E+04-2.54670E+04 1.65505E-09-9.90415E-09
 -1       303 1.71516E+03-8.11007E+03 3.43807E+04-2.08196E+04 5.11136E-10-3.65890E-09
 -1       304 1.29159E+04 3.54210E+03 5.48282E+04-2.54393E+04 1.46974E-09 6.04996E-09
 -1       305 3.66766E+04-1.61066E+04 9.71557E+04-2.08290E+04 8.47649E-10 5.43650E-09
 -1       306-1.11762E+06-1.49919E+05-6.45511E+04-4.34055E+05 3.55612E-10 5.45697E-11
 -1       307-1.12730E+06-2.02950E+05-4.04428E+04-4.48769E+05-8.18545E-11-9.92713E-10
 -1       308-1.12888E+06-1.63621E+05-1.52305E+04-4.32349E+05 2.44427E-10 5.72072E-10
 -1       309-1.11431E+06-1.84797E+05-8.31378E+03-4.52000E+05 1.79853E-10-1.75976E-09
 -1       310-1.13028E+06-1.64903E+05-3.55717E+03-4.32070E+05 1.01659E-09 2.61025E-10
 -1       311-1.11273E+06-1.83120E+05-1.90399E+03-4.52500E+05 1.54387E-10-6.63647E-11
 -1       312-1.13050E+06-1.64987E+05-1.03801E+03-4.31999E+05 1.33269E-09 2.84297E-09
 -1       313-1.11256E+06-1.82981E+05-9.22721E+02-4.52550E+05-6.80416E-11 2.70143E-09
 -1       314-1.13046E+06-1.65019E+05-1.24976E+03-4.32034E+05-7.18956E-10-2.09411E-10
 -1       315-1.11289E+06-1.83069E+05-2.47972E+03-4.52327E+05 8.09450E-11 8.38213E-10
 -1       316-1.13011E+06-1.64954E+05-4.73612E+03-4.32175E+05-2.08138E-09 1.44973E-09
 -1       317-1.11507E+06-1.85267E+05-1.11198E+04-4.51590E+05-5.46652E-09-2.64322E-09
 -1       318-1.12823E+06-1.63247E+05-2.03949E+04-4.32559E+05-2.19961E-09-3.02862E-10
 -1       319-1.13246E+06-2.09600E+05-5.41631E+04-4.47294E+05-8.20080E-10-1.61799E-09
 -1       320-1.11316E+06-1.44854E+05-8.64436E+04-4.34806E+05-2.04773E-09-3.32875E-09
 -1       336 2.85249E+02-4.75890E+05-1.82771E+03-6.15676E+02-3.47285E-09-2.48133E-09
 -1       337-8.57176E+02-4.76609E+05-2.85822E+03-4.26188E+03-2.37765E-09-3.36331E-09
 -1       338 4.34857E+02-4.75759E+05-4.35513E+03-5.18917E+02-4.05817E-09-5.40467E-10
 -1       339-5.23017E+03-4.79169E+05-1.04337E+04-4.44095E+03-2.78533E-09 2.43483E-09
 -1       340 3.92049E+03-4.73344E+05-1.60576E+04-4.37849E+02-4.59295E-09 1.86742E-09
 -1       356-3.48329E-01 1.34668E-01-1.13659E+00-9.24324E-01-1.34192E-07-5.13806E-10
 -1       357-6.21792E-01-2.51151E-01-2.40145E+00 3.72016E+00-2.69098E-07-2.32754E-10
 -1       358-2.89685E-01 1.17255E-01-4.54894E+00-9.24169E-01-1.59911E-07 1.38088E-09
 -1       359-1.16179E+00-7.92965E-01-9.54702E+00 3.72005E+00-5.04352E-08-6.80581E-10
 -1       360 1.91592E-01 6.76557E-01-1.82394E+01-9.24210E-01 4.71922E-08 1.79680E-09
 -1       361-4.21684E+00-5.14555E+00-3.90077E+01 3.72020E+00 1.44840E-07 3.57240E-10
 -1       362 2.76543E+00 4.46965E+00-7.30196E+01-9.24317E-01 1.92632E-07-2.71964E-10
 -1       363-2.10554E+01-3.35588E+01-1.60839E+02 3.72233E+00 2.40163E-07-1.34989E-09
 -1       364 1.70306E+01 2.90866E+01-2.91259E+02-9.26337E-01 2.35475E-07 1.11984E-09
 -1       365-1.17338E+02-2.16247E+02-6.71263E+02 3.73755E+00 2.32218E-07 1.12698E-09
 -1       366 9.90521E+01 1.87133E+02-1.15488E+03-9.39531E-01 1.78508E-07 1.61862E-09
 -1       367-6.84649E+02-1.38282E+03-2.85108E+03 3.82888E+00 1.25730E-07-1.53483E-09
 -1       368 5.84381E+02 1.19546E+03-4.53540E+03-1.01763E+00 4.29065E-08 3.21052E-10
 -1       369-4.10258E+03-8.80071E+03-1.24116E+04 4.34971E+00-4.22080E-08 1.00886E-09
 -1       370 3.51752E+03 7.60369E+03-1.75288E+04-1.46008E+00-1.84486E-08 2.19461E-09
 -1       376-5.21452E-01 8.33405E-01-4.96255E-01 8.49356E-01 4.15450E-07-1.57090E-07
 -1       377 2.92270E+00-3.02560E+00-8.83008E-01-3.19831E+00 8.27714E-07-3.11479E-07
 -1       378-5.00143E-01 8.12737E-01-1.57587E+00 8.67486E-01 2.22647E-07-8.29850E-08
 -1       379 2.61021E+00-3.34798E+00-3.50448E+00-3.19384E+00-3.83114E-07 1.46879E-07
 -1       380-2.08926E-01 1.15584E+00-6.78238E+00 8.44868E-01-1.10319E-06 4.15179E-07
 -1       381 7.31172E-01-5.96931E+00-1.57075E+01-2.86940E+00-1.82270E-06 6.85603E-07
 -1       382 1.37894E+00 3.43386E+00-2.97439E+01 5.43144E-01-2.50099E-06 9.40330E-07
 -1       383-1.01880E+01-2.28226E+01-7.13501E+01-2.77208E-01-3.17974E-06 1.19328E-06
 -1       384 1.07102E+01 1.80073E+01-1.30095E+02-1.74650E+00-3.77389E-06 1.41520E-06
 -1       385-7.64023E+01-1.30578E+02-3.27899E+02 1.78677E+01-4.36674E-06 1.63851E-06
 -1       386 6.75929E+01 1.11177E+02-5.65873E+02-1.75962E+01-4.79686E-06 1.79810E-06
 -1       387-4.79234E+02-8.16228E+02-1.52761E+03 1.41422E+02-5.22350E-06 1.96094E-06
 -1       388 4.13543E+02 7.03561E+02-2.44305E+03-1.25260E+02-5.14250E-06 1.93110E-06
 -1       389-2.95562E+03-5.16851E+03-7.24387E+03 9.60972E+02-5.05872E-06 1.90084E-06
 -1       390 2.54407E+03 4.46283E+03-1.04262E+04-8.36837E+02-2.52879E-06 9.47104E-07
 -1       406 1.56687E+02 2.00310E+05 5.22419E+02-6.84001E+01-7.68978E-10 2.87127E-09
 -1       407 1.87735E+02 2.00418E+05 9.36511E+02 6.98699E+01-4.96641E-10 1.94632E-09
 -1       408 4.50783E+02 2.00258E+05 1.79011E+03-1.32725E+00-1.01068E-09 3.25917E-09
 -1       409 1.88192E+03 2.00976E+05 3.99387E+03-6.38070E+01-7.90806E-10-3.36513E-10
 -1       410 5.43255E+03 1.99752E+05 8.13113E+03 6.78726E+01-1.35333E-09-1.05683E-09
 -1       501-2.34609E+05-2.84062E+04 6.19276E+04-3.45774E+03 3.50697E-09 5.41695E-09
 -1       502-1.87933E+05 3.21934E+04 4.71524E+04 9.20114E+03 5.53792E-09 7.29642E-09
 -1       503-2.17438E+05-3.73616E+03 1.61611E+04-4.32611E+03 2.45603E-09 4.58203E-09
 -1       504-1.90392E+05 5.47539E+03 1.44137E+04 5.80676E+03 1.10444E-09 5.59476E-09
 -1       505-2.32081E+05-1.77524E+03 4.90261E+02-6.31222E+01 2.15715E-09-7.63521E-10
 -1       506-1.89127E+05 1.49279E+03 7.21008E+03-3.35108E+03 1.06163E-08-4.92150E-09
 -1       507-2.18678E+05 2.19407E+02 9.61091E+01 4.83083E+03 9.76739E-09-8.53191E-09
 -1       508-2.03731E+05-5.82842E+02 2.31626E+03-8.39901E+03 4.76396E-09-1.71546E-08
 -1       509-2.17589E+05 4.11100E+02-3.83295E+02 4.98594E+03 1.21745E-08-1.16361E-08
 -1       510-1.90357E+05 7.33527E+02 5.00550E+03-3.82282E+03 1.06278E-08-8.18045E-09
 -1       511-2.31948E+05-1.20113E+03-3.17256E+03 2.53518E+02-4.52076E-10 2.77683E-09
 -1       512-1.91554E+05 1.16710E+03 5.57123E+03 5.40006E+03-6.65648E-09 5.25888E-09
 -1       513-2.16403E+05-1.06202E+01 1.53728E+03-4.23609E+03-5.99086E-09 5.49232E-09
 -1       514-2.01272E+05 4.07803E+03 7.51065E+03 9.23493E+03-4.14843E-09 8.31051E-09
 -1       515-2.22320E+05-4.02086E+03 6.22192E+03-3.58158E+03-6.29328E-09 4.76393E-09
 -1       521-2.18490E+06-2.83841E+05-1.38718E+05-8.41277E+05-4.91127E-11-1.22236E-09
 -1       522-2.22668E+06-3.77302E+05-8.69718E+04-8.49206E+05 1.76533E-09-3.70710E-09
 -1       523-2.20892E+06-3.13582E+05-3.27002E+04-8.37775E+05 1.32445E-10-1.78079E-09
 -1       524-2.19882E+06-3.37996E+05-1.78548E+04-8.55774E+05 1.48793E-09 4.38649E-09
 -1       525-2.21183E+06-3.16449E+05-7.60292E+03-8.37240E+05 1.33070E-09 3.95858E-09
 -1       526-2.19545E+06-3.34281E+05-4.02464E+03-8.56663E+05-1.09395E-09 3.76872E-11
 -1       527-2.21224E+06-3.16689E+05-2.09313E+03-8.37130E+05-3.18330E-10 2.48446E-09
 -1       528-2.19513E+06-3.33909E+05-1.68608E+03-8.56685E+05-9.07676E-10-1.37811E-09
 -1       529-2.21215E+06-3.16785E+05-2.08211E+03-8.37229E+05-1.18894E-09-2.57910E-09
 -1       530-2.19576E+06-3.33933E+05-3.98561E+03-8.56231E+05-1.37584E-09-2.96586E-09
 -1       531-2.21156E+06-3.16736E+05-7.53300E+03-8.37532E+05-4.35648E-10-1.05183E-09
 -1       532-2.19941E+06-3.37271E+05-1.76677E+04-8.54930E+05 2.34195E-11 6.67569E-10
 -1       533-2.20850E+06-3.14080E+05-3.23706E+04-8.38251E+05 2.46700E-10 1.05319E-09
 -1       534-2.22730E+06-3.75819E+05-8.60599E+04-8.48014E+05-1.22543E-09-2.93585E-09
 -1       535-2.18455E+06-2.84835E+05-1.37284E+05-8.41913E+05-9.93168E-10 6.33008E-10
 -1       536-2.67566E+03-6.85717E+03 2.76741E+04-5.20904E+03-2.81943E-11-2.29011E-09
 -1       537 7.63187E+03 8.93515E+03 1.78679E+04-2.24854E+04-1.59366E-09-5.33873E-09
 -1       538 1.52258E+03-7.59542E+02 7.16266E+03-5.13218E+03 1.36879E-10-8.25821E-10
 -1       539 2.82954E+03 8.81846E+02 4.03147E+03-2.25674E+04 1.15756E-09-9.76570E-10
 -1       540 1.99981E+03-9.96013E+01 1.80067E+03-5.12496E+03-1.35969E-10 5.78211E-10
 -1       541 2.20393E+03 8.32320E+01 9.52445E+02-2.25739E+04 2.30102E-10-5.73095E-10
 -1       542 2.05545E+03-1.52373E+01 4.32520E+02-5.12584E+03-2.63526E-10 9.37007E-10
 -1       543 2.08222E+03 1.63567E+01 1.98344E+02-2.25725E+04 8.24230E-11-6.41421E-10
 -1       544 2.06200E+03 2.49225E+00 4.12832E+01-5.12634E+03-3.47882E-11 8.10303E-10
 -1       545 2.03840E+03 2.92357E+00-9.29162E+01-2.25720E+04-4.97892E-10 8.87212E-10
 -1       546 2.07290E+03 1.63614E+01-2.57811E+02-5.12639E+03 2.34763E-11 1.57848E-09
 -1       547 1.95375E+03-1.30114E+02-6.20902E+02-2.25693E+04-3.86081E-10 1.39619E-09
 -1       548 2.15344E+03 1.12459E+02-1.12865E+03-5.12904E+03-4.65207E-10 1.92131E-11
 -1       549 1.24190E+03-1.41671E+03-2.81444E+03-2.25269E+04-7.42148E-10-1.42813E-09
 -1       550 2.82471E+03 1.05736E+03-4.38051E+03-5.16872E+03 5.04770E-11-1.26192E-10
 -1       551 5.43290E+03-1.90821E+05 1.46682E+04-3.03818E+05 6.34827E-10 1.47156E-09
 -1       552 3.54731E+03-1.88388E+05 1.45292E+04-3.70745E+05-3.21234E-09 1.59707E-09
 -1       553 2.44605E+03-1.90950E+05 2.03941E+04-3.03237E+05 8.80391E-10 4.83169E-09
 -1       554 1.22301E+04-1.82157E+05 4.12469E+04-3.70825E+05-3.29965E-09 1.06211E-08
 -1       555 3.13441E+04-1.97386E+05 7.82690E+04-3.03679E+05 1.78261E-10 4.79122E-09
 -1       556-7.47688E+04-6.36851E+04 1.51553E+04-1.06331E+05-1.32422E-09 8.46558E-09
 -1       557-6.01235E+04-7.80373E+04 7.62733E+03-1.17802E+05-4.94765E-10 1.09376E-08
 -1       558-7.47220E+04-6.75551E+04 3.20017E+03-1.03781E+05-5.00586E-09-6.87032E-09
 -1       559-6.16781E+04-8.03125E+04 1.58021E+03-1.18381E+05 1.17143E-09 2.47928E-09
 -1       560-7.48701E+04-6.75185E+04 7.02353E+02-1.03792E+05-1.89175E-10 6.39830E-10
 -1       561-6.19801E+04-8.03250E+04 3.40837E+02-1.18586E+05 4.76575E-10 1.57172E-09
 -1       562-7.50030E+04-6.74186E+04 1.33598E+02-1.03886E+05-5.74801E-10-1.01261E-09
 -1       563-6.21314E+04-8.02613E+04 3.14630E+01-1.18690E+05 8.36735E-11 4.48495E-10
 -1       564-7.50816E+04-6.73613E+04-6.87426E+01-1.03943E+05 2.94676E-09 6.81985E-09
 -1       565-6.22128E+04-8.02303E+04-2.06773E+02-1.18740E+05-1.03410E-09 1.04956E-09
 -1       566-7.50929E+04-6.73372E+04-4.58821E+02-1.03959E+05-1.44860E-09-2.66482E-10
 -1       567-6.22972E+04-8.02626E+04-1.01982E+03-1.18731E+05-9.43373E-10 1.66074E-09
 -1       568-7.49899E+04-6.74486E+04-2.09578E+03-1.03897E+05-9.45874E-11-8.75843E-10
 -1       569-6.35177E+04-8.13445E+04-4.94089E+03-1.18365E+05 2.44654E-10 1.71531E-09
 -1       570-7.42482E+04-7.05392E+04-9.86777E+03-1.02618E+05 5.49335E-10 2.15118E-09
 -1       571 1.28870E+05 5.69683E+03 8.53332E+03-3.28860E+04 2.41016E-10-1.30854E-09
 -1       572 1.30154E+05 1.96839E+03 4.18394E+03-3.61205E+04-6.11635E-11-2.15880E-09
 -1       573 1.29391E+05 4.59328E+02 1.85952E+03-3.28007E+04-4.00178E-10 5.11591E-11
 -1       574 1.29546E+05 1.45822E+02 9.32027E+02-3.62155E+04-5.70708E-10-2.95586E-11
 -1       575 1.29452E+05 1.60392E+01 4.39541E+02-3.27895E+04-2.49770E-10-1.55978E-10
 -1       576 1.29466E+05 1.36545E+00 2.23396E+02-3.62282E+04-3.60529E-11 1.43314E-09
 -1       577 1.29461E+05-6.60061E+00 1.09482E+02-3.27881E+04-1.19599E-10-3.14230E-10
 -1       578 1.29457E+05-4.84337E+00 5.84158E+01-3.62296E+04-2.36469E-11-2.99451E-10
 -1       579 1.29468E+05-6.47842E+00 3.35570E+01-3.27881E+04 1.31877E-11 1.84173E-11
 -1       580 1.29464E+05-7.34539E+00 2.76327E+01-3.62276E+04 4.11319E-10-1.10504E-10
 -1       581 1.29479E+05-9.80547E+00 3.36113E+01-3.27901E+04-3.00133E-11-1.09389E-09
 -1       582 1.29484E+05-5.74939E+00 6.09683E+01-3.62076E+04 3.95175E-10-2.14027E-09
 -1       583 1.29491E+05 8.58821E+00 1.15260E+02-3.28080E+04 1.11868E-10-4.04498E-10
 -1       584 1.29542E+05 9.65013E+01 2.57444E+02-3.60569E+04-1.28966E-09 2.76611E-09
 -1       585 1.29478E+05 3.21611E+02 5.21918E+02-3.29410E+04 4.27463E-11-1.43973E-09
 -1       586 6.91607E+02 5.92463E+04 1.42195E+03-7.94858E+04 2.05091E-10-2.55113E-10
 -1       587 4.19685E+02 5.95003E+04 1.59762E+03-8.82338E+04-4.49290E-10-6.71207E-10
 -1       588 5.90094E+02 5.92048E+04 2.51763E+03-7.93805E+04 2.80579E-10-2.15236E-08
 -1       589 2.36158E+03 6.01961E+04 5.32859E+03-8.82623E+04-5.67525E-10-4.09709E-08
 -1       590 6.83383E+03 5.85303E+04 1.06797E+04-7.94561E+04 3.36058E-10-1.94987E-08
 -1       591-6.48936E+04-1.92836E+04-1.26348E+04-3.10995E+04-1.32331E-09 6.08088E-09
 -1       592-6.56898E+04-1.85803E+04-6.33600E+03-3.45148E+04-1.04837E-08-2.97337E-09
 -1       593-6.54995E+04-1.56006E+04-2.68998E+03-3.29186E+04-4.31578E-09 2.82341E-09
 -1       594-6.42639E+04-1.69968E+04-1.32095E+03-3.46413E+04-1.04046E-09 2.02886E-09
 -1       595-6.55679E+04-1.55006E+04-6.09574E+02-3.29881E+04-4.23438E-09-5.04318E-09
 -1       596-6.41655E+04-1.69413E+04-3.08286E+02-3.46270E+04 1.72088E-09 7.12919E-09
 -1       597-6.55795E+04-1.55114E+04-1.66130E+02-3.29881E+04 6.43205E-10 3.17016E-10
 -1       598-6.41554E+04-1.69420E+04-1.29645E+02-3.46225E+04 1.10731E-10 1.25692E-09
 -1       599-6.55789E+04-1.55120E+04-1.60559E+02-3.29876E+04 4.42856E-09-2.10093E-10
 -1       600-6.41640E+04-1.69420E+04-2.93688E+02-3.46255E+04 1.10352E-08 3.80760E-09
 -1       601-6.55664E+04-1.55025E+04-5.77989E+02-3.29869E+04 5.53905E-09-8.73570E-10
 -1       602-6.42573E+04-1.69938E+04-1.25152E+03-3.46364E+04 1.80250E-09-1.18621E-09
 -1       603-6.54995E+04-1.55996E+04-2.54780E+03-3.29220E+04-4.73392E-10 5.27416E-09
 -1       604-6.56217E+04-1.84780E+04-6.00035E+03-3.44975E+04 4.62705E-11 8.30096E-09
 -1       605-6.49092E+04-1.91009E+04-1.19649E+04-3.12145E+04-2.66255E-10-2.58296E-09
 -1       606 4.71690E+04-5.31282E+03-8.32956E+03 1.53698E+04-2.44336E-09-5.24778E-10
 -1       607 4.58535E+04-1.79221E+03-4.09829E+03 1.68517E+04 3.63798E-12-1.11191E-09
 -1       608 4.66198E+04-3.84842E+02-1.82526E+03 1.52643E+04 1.98179E-09-5.91172E-12
 -1       609 4.64495E+04-1.11287E+02-9.16180E+02 1.69691E+04-1.25146E-09-3.12093E-09
 -1       610 4.65481E+04 1.09799E-01-4.33079E+02 1.52510E+04-3.11502E-09 6.70070E-10
 -1       611 4.65149E+04 1.37156E+01-2.17837E+02 1.69836E+04-5.55497E-09 7.49196E-10
 -1       612 4.65322E+04 1.82677E+01-1.02959E+02 1.52495E+04-2.02635E-09 1.15028E-09
 -1       613 4.65197E+04 1.88837E+01-4.60705E+01 1.69855E+04-3.24144E-09 2.49725E-09
 -1       614 4.65251E+04 1.67468E+01-1.05822E+01 1.52491E+04-6.77119E-10-1.95882E-10
 -1       615 4.65184E+04 1.97330E+01 1.98139E+01 1.69857E+04 3.18119E-09 1.01454E-09
 -1       616 4.65194E+04 1.95191E+01 5.90570E+01 1.52493E+04-2.81261E-09-9.74296E-11
 -1       617 4.65265E+04 3.91815E+01 1.35687E+02 1.69852E+04-9.50536E-10 2.23110E-09
 -1       618 4.65071E+04 7.82223E+01 2.75121E+02 1.52496E+04-2.19188E-10 3.16390E-10
 -1       619 4.66164E+04 2.94334E+02 6.20774E+02 1.69826E+04 1.32007E-09-1.58207E-09
 -1       620 4.64238E+04 8.25760E+02 1.26279E+03 1.52512E+04 1.51505E-09 2.79169E-09
 -1       621 4.31957E+02 1.35406E+05 1.52769E+03-1.11743E+04 6.62624E-10-3.70790E-10
 -1       622 1.94065E+02 1.35714E+05 1.62670E+03-1.36757E+04-2.65800E-10-1.00334E-09
 -1       623 1.23309E+02 1.35440E+05 2.41674E+03-1.11767E+04 6.70070E-10 1.02273E-09
 -1       624 1.27436E+03 1.36516E+05 4.98145E+03-1.36322E+04-1.96451E-10 6.91671E-10
 -1       625 3.66665E+03 1.34610E+05 9.50963E+03-1.12170E+04 6.79165E-10 1.45951E-09
 -1       626 8.39161E+04 2.75191E+04-1.25783E+03 5.35898E+04 7.30165E-09-3.64435E-09
 -1       627 8.20913E+04 2.96213E+04-5.98240E+02 5.52571E+04 1.32204E-08-1.59222E-08
 -1       628 8.39865E+04 2.80666E+04-2.51340E+02 5.32252E+04 9.22410E-09-2.60923E-09
 -1       629 8.21179E+04 2.99349E+04-1.19241E+02 5.53052E+04 2.76896E-09-1.44786E-09
 -1       630 8.39847E+04 2.81024E+04-5.04180E+01 5.31917E+04-2.43108E-09-1.13508E-08
 -1       631 8.21115E+04 2.99606E+04-1.74214E+01 5.53098E+04-1.07411E-09-3.24002E-09
 -1       632 8.39786E+04 2.81041E+04 7.00486E+00 5.31867E+04 1.80808E-09-2.39766E-10
 -1       633 8.21092E+04 2.99627E+04 3.51254E+01 5.53095E+04 1.21634E-09 1.54978E-09
 -1       634 8.39728E+04 2.81011E+04 8.13800E+01 5.31854E+04 1.14824E-09 9.95556E-10
 -1       635 8.21172E+04 2.99644E+04 1.80841E+02 5.53113E+04 2.18733E-10 3.59023E-10
 -1       636 8.39646E+04 2.81068E+04 3.73556E+02 5.31804E+04-1.49248E-09 3.32193E-10
 -1       637 8.22033E+04 3.00558E+04 8.31621E+02 5.52987E+04 1.65471E-10 2.89219E-10
 -1       638 8.39417E+04 2.83852E+04 1.72062E+03 5.30579E+04-8.48672E-10-1.90903E-09
 -1       639 8.30817E+04 3.15332E+04 4.08969E+03 5.49452E+04-5.90035E-10-1.47634E-09
 -1       640 8.39508E+04 3.26916E+04 8.59888E+03 5.12618E+04-3.34535E-09-7.91283E-09
 -1       641-3.49795E+03 1.49060E+03-3.43610E+03-8.56415E+00 8.46593E-06-7.53607E-09
 -1       642-4.98960E+03-1.72519E+03-2.43110E+03 1.95239E+01 1.69156E-05-8.74076E-09
 -1       643-4.07262E+03 2.34267E+02-8.85180E+02-8.81091E+00 1.56187E-05-1.15121E-08
 -1       644-4.31961E+03-2.70375E+02-5.50265E+02 2.00921E+01 1.43154E-05-6.44049E-09
 -1       645-4.16797E+03 3.60724E+01-2.09907E+02-9.13267E+00 9.95796E-06-6.38801E-09
 -1       646-4.20593E+03-3.77147E+01-9.62299E+01 2.05315E+01 5.59305E-06-4.06703E-09
 -1       647-4.18631E+03 1.64741E+00 9.10864E+00-9.25035E+00-4.46579E-07 6.50282E-10
 -1       648-4.17177E+03 2.38674E+01 1.14323E+02 2.05101E+01-6.49070E-06 6.65048E-09
 -1       649-4.20213E+03-2.55020E+01 2.49774E+02-9.11129E+00-1.37164E-05 1.14594E-08
 -1       650-4.08082E+03 1.95099E+02 6.01117E+02 1.99348E+01-2.09394E-05 1.36138E-08
 -1       651-4.27725E+03-1.69560E+02 1.04360E+03-8.67510E+00-2.84212E-05 2.30139E-08
 -1       652-3.56514E+03 1.25381E+03 2.58365E+03 1.85947E+01-3.58992E-05 2.46588E-08
 -1       653-4.71779E+03-1.08402E+03 4.11172E+03-7.77131E+00-3.97018E-05 2.78660E-08
 -1       654-4.64735E+02 7.98040E+03 1.12547E+04 1.53890E+01-4.34882E-05 2.48662E-08
 -1       655-7.37729E+03-6.89483E+03 1.58966E+04-5.46966E+00-2.17605E-05 1.14060E-08
 -1       656 5.32590E+03-1.97640E+05-2.25999E+04 5.36088E+03-7.23048E-10 4.01315E-10
 -1       657-7.72173E+03-2.06012E+05-1.67314E+04 2.30942E+04 5.50244E-11-4.13365E-10
 -1       658 1.09131E+03-2.00551E+05-1.08329E+04 5.31968E+03-6.27921E-10 2.90987E-09
 -1       659-7.50507E+03-2.05898E+05-1.63625E+04 2.31182E+04-4.55657E-10 4.92989E-10
 -1       660 5.15459E+03-1.97767E+05-2.19037E+04 5.33709E+03-1.11322E-09-6.09703E-10
 -1       661 1.28392E+05 1.77468E+04 1.01247E+04 5.02576E+04 6.43126E-10-6.07588E-09
 -1       662 1.30625E+05 2.35729E+04 6.09717E+03 5.16838E+04-4.48068E-11-3.13446E-09
 -1       663 1.29947E+05 1.92555E+04 2.37631E+03 5.02654E+04 1.21211E-09-4.30873E-11
 -1       664 1.28807E+05 2.11279E+04 1.25403E+03 5.19700E+04 3.75906E-09 2.39936E-09
 -1       665 1.30097E+05 1.93929E+04 5.55005E+02 5.02712E+04 2.43293E-09-2.52408E-09
 -1       666 1.28633E+05 2.09245E+04 2.95492E+02 5.19824E+04 3.61566E-09-4.51715E-10
 -1       667 1.30113E+05 1.94066E+04 1.72275E+02 5.02725E+04 1.26618E-09 4.23243E-09
 -1       668 1.28618E+05 2.09104E+04 1.65808E+02 5.19827E+04-2.24304E-10-2.89837E-09
 -1       669 1.30112E+05 1.94047E+04 2.42395E+02 5.02718E+04-3.58781E-09-2.66087E-09
 -1       670 1.28649E+05 2.09399E+04 4.85042E+02 5.19863E+04-6.32525E-10-1.23703E-09
 -1       671 1.30083E+05 1.93794E+04 9.49508E+02 5.02685E+04 1.80165E-09-5.57634E-11
 -1       672 1.28951E+05 2.12944E+04 2.16841E+03 5.19674E+04 9.33827E-09 1.11589E-09
 -1       673 1.29824E+05 1.91400E+04 4.11734E+03 5.02575E+04 2.00410E-09-5.20004E-10
 -1       674 1.32103E+05 2.55366E+04 1.05715E+04 5.14742E+04-1.18860E-10-1.85628E-09
 -1       675 1.27128E+05 1.65222E+04 1.75556E+04 5.02422E+04-3.84716E-10-2.47837E-09
 -1       676 2.85626E+02-1.95108E+05-1.68453E+03-3.24336E+01 1.40833E-09-3.57341E-09
 -1       677-7.71909E+02-1.95802E+05-2.48795E+03-5.05610E+02 1.27531E-09-7.40337E-09
 -1       678 3.70653E+02-1.95025E+05-3.66402E+03-3.29172E+01-3.56636E-10-1.75061E-09
 -1       679-4.36388E+03-1.97895E+05-8.70580E+03-5.03925E+02 2.83171E-09-1.72426E-09
 -1       680 3.26482E+03-1.93016E+05-1.33670E+04-3.44402E+01 6.85759E-10-1.26944E-09
 -1       716-1.51201E-01-7.20858E-02 6.76561E+00-1.38974E-04 7.45630E-10-6.08189E-10
 -1       717 7.44585E-01 5.42997E-01 1.19155E+01 3.53711E-04 5.98449E-10-6.51057E-10
 -1       718-5.93395E-01-4.71109E-01 2.21119E+01-2.14757E-04 2.19382E-09-1.06700E-09
 -1       719 3.51587E+00 3.69868E+00 4.58641E+01-3.20953E-04 1.17241E-11-2.57277E-10
 -1       720-2.92252E+00-3.22796E+00 8.74756E+01 5.35793E-04-1.20392E-09-8.75833E-10
 -1       721 1.81968E+01 2.46444E+01 1.86951E+02-1.13145E-02-1.82945E-09-1.02958E-09
 -1       722-1.52744E+01-2.14161E+01 3.49909E+02 1.07775E-02-1.21649E-09-1.52552E-09
 -1       723 9.89342E+01 1.60807E+02 7.70728E+02-1.08575E-01 1.99166E-10-4.88512E-10
 -1       724-8.36588E+01-1.39375E+02 1.39566E+03 9.77712E-02-1.84967E-09-1.36271E-09
 -1       725 5.60385E+02 1.03621E+03 3.21657E+03-8.34988E-01-1.18538E-09-2.46018E-10
 -1       726-4.76692E+02-8.96677E+02 5.53410E+03 7.36995E-01-1.77550E-09-1.08002E-09
 -1       727 3.27904E+03 6.62615E+03 1.36620E+04-5.87355E+00-4.00759E-09-3.62661E-10
 -1       728-2.80169E+03-5.72821E+03 2.17348E+04 5.13550E+00-6.55808E-10-2.82853E-10
 -1       729 1.96574E+04 4.21703E+04 5.94760E+04-3.95059E+01 1.26617E-09-1.32059E-09
 -1       730-1.68445E+04-3.64314E+04 8.40317E+04 3.43713E+01 4.51523E-09-1.02591E-09
 -1       766-3.64386E+04-1.68627E+04 8.40170E+04-1.32591E+01-2.87400E-10-1.01172E-09
 -1       767 4.22301E+04 1.96810E+04 5.94688E+04-5.24628E+01 2.89037E-09-5.64466E-10
 -1       768-5.78079E+03-2.84330E+03 2.16647E+04 1.81851E+01-3.15595E-10-3.76732E-10
 -1       769 7.01212E+03 3.44807E+03 1.36656E+04-8.83971E+01 2.31330E-09 2.17274E-09
 -1       770-1.22987E+03-6.40279E+02 5.22076E+03 2.26766E+01-1.12550E-10 9.03418E-10
 -1       771-1.06432E+06-2.07315E+05-3.04616E+04-4.59013E+05-3.48700E-09-1.26238E-09
 -1       772-1.05961E+06-2.12009E+05-1.52513E+04-4.74590E+05-1.06229E-09 2.03727E-09
 -1       773-1.06626E+06-1.98058E+05-6.50357E+03-4.63140E+05-2.36469E-10-3.24690E-10
 -1       774-1.05603E+06-2.08500E+05-3.18206E+03-4.75473E+05-1.03682E-10-9.08449E-09
 -1       775-1.06662E+06-1.97673E+05-1.48356E+03-4.63353E+05 1.19690E-09-2.50111E-10
 -1       776-1.05590E+06-2.08364E+05-7.43699E+02-4.75635E+05 6.43013E-10-5.05565E-10
 -1       777-1.06679E+06-1.97609E+05-4.07391E+02-4.63410E+05 5.43878E-10 5.56724E-10
 -1       778-1.05596E+06-2.08341E+05-3.08661E+02-4.75744E+05-9.06766E-10-1.63823E-10
 -1       779-1.06688E+06-1.97552E+05-3.84802E+02-4.63449E+05 1.15506E-10-1.78716E-10
 -1       780-1.05604E+06-2.08328E+05-6.96458E+02-4.75823E+05-4.09273E-10-1.66892E-10
 -1       781-1.06690E+06-1.97499E+05-1.37463E+03-4.63467E+05-5.83441E-10-7.43057E-10
 -1       782-1.05629E+06-2.08444E+05-2.97816E+03-4.75869E+05-3.07864E-10-4.34738E-10
 -1       783-1.06674E+06-1.97732E+05-6.06908E+03-4.63316E+05-1.32513E-09-1.15324E-09
 -1       784-1.05957E+06-2.11947E+05-1.43032E+04-4.75469E+05-1.63436E-09-1.83172E-09
 -1       785-1.06525E+06-2.06141E+05-2.85307E+04-4.59278E+05 5.32054E-11 6.33008E-10
 -1       786 1.02620E+05-3.25208E+03 1.32870E+04-7.84115E+02 9.63496E-11-6.87578E-10
 -1       787 1.07470E+05 4.31611E+03 8.56537E+03-3.44652E+03-4.83936E-10-3.76792E-09
 -1       788 1.04640E+05-3.43775E+02 3.44585E+03-7.79091E+02 6.39488E-11-1.89402E-10
 -1       789 1.05213E+05 4.40062E+02 1.93496E+03-3.44993E+03-2.57160E-10 8.45375E-10
 -1       790 1.04875E+05-3.77253E+01 8.75998E+02-7.80589E+02 3.60558E-10 7.87850E-10
 -1       791 1.04947E+05 4.44371E+01 4.71530E+02-3.44773E+03-1.70289E-10 1.05487E-09
 -1       792 1.04906E+05-4.69632E+00 2.40766E+02-7.81288E+02-5.23670E-12 5.81394E-10
 -1       793 1.04913E+05 6.07608E+00 1.59915E+02-3.44743E+03 4.51340E-10-1.27728E-09
 -1       794 1.04909E+05-2.55151E+00 1.46989E+02-7.80883E+02-2.66027E-10-4.03503E-10
 -1       795 1.04923E+05 1.90081E+01 2.23666E+02-3.44950E+03 2.12822E-10 4.27479E-09
 -1       796 1.04896E+05-1.63882E+01 3.84427E+02-7.79222E+02-4.54577E-10 4.83794E-10
 -1       797 1.05037E+05 1.87076E+02 8.30612E+02-3.45306E+03-4.12427E-10-2.17351E-09
 -1       798 1.04797E+05-1.47067E+02 1.47167E+03-7.77325E+02 6.28461E-10 2.29420E-10
 -1       799 1.06000E+05 1.83928E+03 3.65330E+03-3.44924E+03-7.63691E-10-4.33204E-10
 -1       800 1.03935E+05-1.38746E+03 5.66503E+03-7.83103E+02-3.09797E-10-1.63391E-09
 -1       801-5.04433E+03 1.06172E+05 1.68559E+04-1.51247E+05 1.85537E-10 3.57250E-09
 -1       802 1.32433E+04 1.11106E+05 2.26689E+04-6.60936E+05 7.92170E-09 1.47702E-09
 -1       803-1.22578E+03 1.04974E+05 2.87886E+04-1.50745E+05 4.39832E-09 2.43199E-09
 -1       804 3.80246E+04 1.25641E+05 6.56233E+04-6.60893E+05 5.21686E-09-1.94541E-09
 -1       805-2.56547E+04 9.17487E+04 9.75757E+04-1.51296E+05 3.93266E-09 2.25555E-10
 -1       806-9.58149E+04-2.84304E+04-8.01927E+03-4.83698E+04-2.80232E-09-7.21229E-09
 -1       807-9.55055E+04-2.68464E+04-3.81357E+03-5.12344E+04-1.70314E-09-3.61922E-09
 -1       808-9.58075E+04-2.44165E+04-1.60496E+03-5.00533E+04 1.41404E-09 6.00767E-09
 -1       809-9.46978E+04-2.54603E+04-7.75993E+02-5.15607E+04-3.41970E-10 6.51994E-10
 -1       810-9.58312E+04-2.41555E+04-3.50332E+02-5.01701E+04-4.03361E-10 2.11651E-09
 -1       811-9.46206E+04-2.53738E+04-1.72955E+02-5.15732E+04-2.63299E-10-4.17458E-10
 -1       812-9.58383E+04-2.41497E+04-8.51782E+01-5.01748E+04-6.79563E-11 7.50447E-10
 -1       813-9.46119E+04-2.53725E+04-5.27441E+01-5.15707E+04 3.40918E-11 2.40107E-09
 -1       814-9.58386E+04-2.41522E+04-4.76509E+01-5.01739E+04 6.59384E-11 3.88582E-10
 -1       815-9.46137E+04-2.53745E+04-7.33349E+01-5.15693E+04-8.14453E-10 5.33873E-10
 -1       816-9.58338E+04-2.41564E+04-1.36592E+02-5.01712E+04-9.56788E-10 2.88765E-11
 -1       817-9.46449E+04-2.54044E+04-2.96846E+02-5.15580E+04 1.94450E-09 1.13459E-09
 -1       818-9.58194E+04-2.42613E+04-6.11239E+02-5.01298E+04 2.94676E-10 3.64480E-10
 -1       819-9.49852E+04-2.58962E+04-1.45051E+03-5.13906E+04-1.69348E-09-4.70072E-09
 -1       820-9.57855E+04-2.58195E+04-3.04919E+03-4.95248E+04 7.72161E-10 2.02795E-09
 -1       821-1.34291E+05 4.02838E+03-1.64661E+04 9.53462E+02-9.25866E-10 2.12731E-09
 -1       822-1.40295E+05-5.34845E+03-1.06148E+04 4.25652E+03-5.59908E-10 6.83031E-10
 -1       823-1.36795E+05 4.25172E+02-4.27236E+03 9.30079E+02 1.04251E-09 3.38559E-10
 -1       824-1.37503E+05-5.42801E+02-2.40137E+03 4.28689E+03 7.03722E-11-1.05643E-09
 -1       825-1.37086E+05 4.69471E+01-1.09370E+03 9.22935E+02-3.03896E-09-8.25764E-10
 -1       826-1.37177E+05-5.13295E+01-6.00574E+02 4.29829E+03-4.87574E-09 1.22239E-09
 -1       827-1.37124E+05 6.95588E+00-3.30795E+02 9.18633E+02-2.90066E-09-5.93872E-10
 -1       828-1.37141E+05-5.47453E+00-2.65153E+02 4.30507E+03-3.34194E-09-4.97565E-10
 -1       829-1.37124E+05 6.81021E+00-3.12438E+02 9.16153E+02 8.34603E-10-6.91385E-10
 -1       830-1.37175E+05-4.55246E+01-5.52404E+02 4.30778E+03 1.92478E-09 1.77882E-09
 -1       831-1.37091E+05 4.36077E+01-9.97703E+02 9.15922E+02-2.27018E-09 1.07417E-09
 -1       832-1.37473E+05-4.91859E+02-2.18655E+03 4.30587E+03-1.00340E-09-1.76246E-09
 -1       833-1.36826E+05 3.88233E+02-3.88756E+03 9.18102E+02-1.45917E-10-4.52019E-10
 -1       834-1.40015E+05-4.86387E+03-9.65880E+03 4.29232E+03-8.62940E-10 1.59298E-09
 -1       835-1.34548E+05 3.66731E+03-1.49817E+04 9.29816E+02 7.80233E-10 7.15772E-10
 -1       836-2.10451E+03 2.17489E+05 1.79334E+04-1.08415E+04-9.10404E-10-1.89470E-09
 -1       837 4.55575E+03 2.23406E+05 1.38350E+04-2.57506E+04-1.00232E-09-2.36122E-09
 -1       838-5.03506E+02 2.19429E+05 1.14959E+04-1.08107E+04-1.25146E-09 8.79908E-10
 -1       839 7.33549E+03 2.25320E+05 1.97733E+04-2.57504E+04-6.77346E-10-9.62473E-10
 -1       840-3.64647E+03 2.15574E+05 2.97214E+04-1.08415E+04-1.00954E-09 1.33696E-09
 -1       841 3.40812E+04 4.92438E+03-3.49721E+02 1.27131E+04-8.78026E-06 3.29427E-06
 -1       842 3.38443E+04 4.65835E+03-2.41095E+02 1.28379E+04-1.75488E-05 6.59088E-06
 -1       843 3.40030E+04 4.80734E+03-8.03375E+01 1.27473E+04-1.41072E-05 5.29592E-06
 -1       844 3.39384E+04 4.79082E+03-4.70297E+01 1.27945E+04-1.06508E-05 3.99913E-06
 -1       845 3.39871E+04 4.79193E+03-1.12690E+01 1.27565E+04-7.55811E-06 2.83438E-06
 -1       846 3.39603E+04 4.80941E+03 6.88588E+00 1.27814E+04-4.46691E-06 1.67654E-06
 -1       847 3.39811E+04 4.78876E+03 2.95389E+01 1.27604E+04-2.73564E-06 1.02417E-06
 -1       848 3.39783E+04 4.82894E+03 7.88793E+01 1.27740E+04-1.00150E-06 3.77641E-07
 -1       849 3.39692E+04 4.77241E+03 1.47181E+02 1.27639E+04-2.92887E-07 1.10560E-07
 -1       850 3.40542E+04 4.95221E+03 3.73007E+02 1.27533E+04 4.13870E-07-1.56939E-07
 -1       851 3.39051E+04 4.66550E+03 6.44357E+02 1.27811E+04 2.95709E-07-1.10813E-07
 -1       852 3.45107E+04 5.73619E+03 1.74008E+03 1.26160E+04 1.75361E-07-6.63729E-08
 -1       853 3.35126E+04 3.98854E+03 2.78270E+03 1.29011E+04-6.51377E-07 2.44121E-07
 -1       854 3.73259E+04 1.07004E+04 8.25157E+03 1.16905E+04-1.48257E-06 5.56462E-07
 -1       855 3.10900E+04-2.97928E+02 1.18769E+04 1.37063E+04-7.39795E-07 2.79184E-07
 -1       856-1.12703E+05 1.65956E+03-1.32186E+04 3.85239E+03-1.00931E-09-1.05774E-09
 -1       857-1.17022E+05-3.19613E+03-8.07393E+03 9.19520E+03 2.04227E-09-1.79909E-09
 -1       858-1.14569E+05 1.51881E+02-3.39385E+03 3.81176E+03-3.57227E-09 7.50333E-12
 -1       859-1.14992E+05-2.29221E+02-1.82647E+03 9.24069E+03-4.84044E-09-1.67529E-09
 -1       860-1.14746E+05 2.19086E+01-8.57075E+02 3.80631E+03 3.29578E-10-1.26477E-09
 -1       861-1.14801E+05-3.05916E+00-4.51248E+02 9.24770E+03-3.39355E-11-2.73531E-09
 -1       862-1.14768E+05 9.05869E+00-2.36215E+02 3.80467E+03 1.88027E-09-9.84130E-10
 -1       863-1.14780E+05 1.37464E+01-1.57638E+02 9.24960E+03 7.17323E-09 6.78426E-10
 -1       864-1.14770E+05 8.08741E+00-1.50303E+02 3.80441E+03 3.15526E-09-2.37966E-09
 -1       865-1.14786E+05 6.81034E+00-2.28957E+02 9.24837E+03 3.16436E-09-2.21709E-09
 -1       866-1.14760E+05 1.33694E+01-4.05327E+02 3.80590E+03-2.61161E-09-9.68370E-10
 -1       867-1.14872E+05-9.81286E+01-8.46902E+02 9.24271E+03 8.20819E-11-1.34320E-09
 -1       868-1.14678E+05 7.23207E+01-1.56692E+03 3.81011E+03 2.38788E-09-2.33126E-09
 -1       869-1.15804E+05-1.46677E+03-3.72215E+03 9.20140E+03-1.64539E-09-2.55682E-09
 -1       870-1.13817E+05 7.65617E+02-6.09339E+03 3.84752E+03 2.05432E-09-2.45973E-09
 -1       871-1.83672E+03-1.51741E+04-3.96970E+03 5.55683E+04 1.97815E-10 8.41283E-11
 -1       872-6.06303E+02-1.59475E+04-1.23034E+03 6.70409E+04 1.08685E-09 3.43562E-10
 -1       873 2.32510E+01-1.56397E+04 1.05049E+03 5.54529E+04 8.26731E-10-7.82848E-10
 -1       874 1.17297E+03-1.47107E+04 4.10337E+03 6.70866E+04 8.78572E-10-2.07848E-10
 -1       875 3.63215E+03-1.64420E+04 8.78425E+03 5.55259E+04 5.24778E-10 1.13369E-09
 -1       876 1.64796E+05 2.36462E+04 1.47264E+04 6.54284E+04-1.91892E-09-4.78394E-10
 -1       877 1.67508E+05 3.18104E+04 8.75217E+03 6.80753E+04-7.32592E-09-3.12809E-09
 -1       878 1.66979E+05 2.54810E+04 3.44524E+03 6.55471E+04-1.62788E-09 1.98361E-09
 -1       879 1.64933E+05 2.84703E+04 1.79914E+03 6.84401E+04 9.34961E-10 6.44695E-09
 -1       880 1.67176E+05 2.56461E+04 7.99671E+02 6.55645E+04 1.69700E-09 2.48156E-09
 -1       881 1.64701E+05 2.82083E+04 4.17817E+02 6.84464E+04-8.12292E-11 6.67313E-10
 -1       882 1.67196E+05 2.56651E+04 2.32948E+02 6.55684E+04-1.72690E-10-2.26495E-09
 -1       883 1.64681E+05 2.81881E+04 2.04139E+02 6.84417E+04-7.86669E-09-2.79648E-09
 -1       884 1.67194E+05 2.56651E+04 2.78990E+02 6.55687E+04-8.00298E-10 2.52243E-10
 -1       885 1.64713E+05 2.82135E+04 5.41474E+02 6.84442E+04 1.57252E-09-3.93015E-09
 -1       886 1.67164E+05 2.56419E+04 1.05867E+03 6.55650E+04 1.97335E-09 2.39095E-09
 -1       887 1.65025E+05 2.85607E+04 2.39403E+03 6.84318E+04 9.48006E-10-2.82563E-09
 -1       888 1.66899E+05 2.54233E+04 4.58929E+03 6.55423E+04-6.38892E-10-1.31240E-09
 -1       889 1.68447E+05 3.30201E+04 1.16617E+04 6.79534E+04 9.17186E-09 2.71393E-09
 -1       890 1.63998E+05 2.29703E+04 1.96227E+04 6.53732E+04 4.29554E-09-1.16052E-09
 -1       891 3.78797E+02-8.25123E+04-3.37287E+03 1.66479E+04 5.88898E-10 9.20863E-11
 -1       892-8.79604E+02-8.36061E+04-2.56380E+03 3.96616E+04-1.28171E-09 7.72388E-10
 -1       893 8.06674E+01-8.28914E+04-2.07641E+03 1.65981E+04 1.75748E-09 1.35299E-09
 -1       894-1.32347E+03-8.39041E+04-3.50655E+03 3.96514E+04-5.37739E-10-9.59972E-10
 -1       895 6.19232E+02-8.22040E+04-5.24542E+03 1.66580E+04-1.66665E-10 4.97039E-10
 -1       926-2.52317E+02-4.72473E+02 1.08578E+03 1.81690E+01 3.80615E-10-4.96186E-10
 -1       927 2.69029E+02 5.47136E+02 7.85493E+02-7.23174E+01-1.34594E-09-6.46821E-10
 -1       928-6.40691E+01-7.46833E+01 3.00461E+02 1.78975E+01 2.11751E-11-3.04965E-10
 -1       929 4.78769E+01 8.94608E+01 2.26424E+02-7.20422E+01 7.69040E-10-3.15557E-10
 -1       930-3.12377E+01-1.48344E+01 1.59346E+02 1.78938E+01 2.68985E-11-1.40185E-10
 -1       931 1.89134E+01 3.83679E+01 2.33847E+02-7.20378E+01-8.52088E-10-6.82405E-11
 -1       932-3.51611E+01-2.35620E+01 3.74362E+02 1.78930E+01-9.33357E-07-9.43601E-12
 -1       933 8.95746E+01 1.65916E+02 7.96601E+02-7.20296E+01-1.86510E-06-2.20552E-11
 -1       934-1.01934E+02-1.42344E+02 1.42785E+03 1.78857E+01-1.10864E-06-4.96811E-11
 -1       935 5.56461E+02 1.05701E+03 3.28311E+03-7.19875E+01-3.51152E-07 1.26136E-10
 -1       936-5.02030E+02-9.14503E+02 5.64546E+03 1.78510E+01-1.22260E-07 9.36780E-11
 -1       937 3.32937E+03 6.75816E+03 1.39348E+04-7.20920E+01 1.08239E-07 2.11003E-10
 -1       938-2.87419E+03-5.84230E+03 2.21678E+04 1.79903E+01-6.17553E-08-7.91260E-11
 -1       939 2.00377E+04 4.30110E+04 6.06618E+04-7.69576E+01-2.36727E-07 7.27596E-12
 -1       940-1.71993E+04-3.71579E+04 8.57045E+04 2.27159E+01-1.20780E-07 3.92902E-10
 -1       956-1.55965E+05-2.64867E+03-6.84796E+03 1.76158E+04 2.83717E-09 2.47837E-10
 -1       957-1.57335E+05-9.06618E+02-3.52389E+03 2.13206E+04 9.70431E-09 2.18324E-09
 -1       958-1.56583E+05-6.85428E+01-1.58796E+03 1.75048E+04 7.63339E-09 1.91221E-09
 -1       959-1.56695E+05-1.07231E+01-8.10988E+02 2.14410E+04-3.24690E-10-1.01227E-09
 -1       960-1.56641E+05 2.39589E+01-3.94906E+02 1.74949E+04-2.45063E-09 1.44587E-09
 -1       961-1.56652E+05 2.39580E+01-2.08000E+02 2.14521E+04-4.82214E-09-6.99856E-10
 -1       962-1.56653E+05 2.21618E+01-1.16360E+02 1.74936E+04-1.55342E-09 1.50021E-09
 -1       963-1.56651E+05 2.55545E+01-8.85763E+01 2.14537E+04-2.34400E-09 8.18545E-12
 -1       964-1.56657E+05 2.35354E+01-1.01642E+02 1.74932E+04 2.50111E-11 2.50111E-12
 -1       965-1.56658E+05 2.73624E+01-1.70740E+02 2.14536E+04 4.45853E-09 7.04858E-12
 -1       966-1.56651E+05 2.78005E+01-3.17796E+02 1.74938E+04 5.11534E-09 3.94266E-10
 -1       967-1.56697E+05 2.48759E+00-6.50038E+02 2.14468E+04 1.23952E-08 1.80296E-09
 -1       968-1.56610E+05-4.36906E+01-1.27101E+03 1.75001E+04 1.42393E-08-4.75779E-10
 -1       969-1.57214E+05-7.12512E+02-2.82097E+03 2.13695E+04 1.80710E-08-8.88292E-10
 -1       970-1.56117E+05-2.10779E+03-5.48123E+03 1.75721E+04 1.01868E-08-4.47926E-10
 -1       971-2.00487E+05 8.81138E+02-9.28684E+03 4.48333E+03-2.40516E-09 1.80489E-09
 -1       972-2.03424E+05-2.08123E+03-5.59940E+03 9.78403E+03-1.76567E-09-6.48129E-10
 -1       973-2.01772E+05 8.28547E+01-2.37839E+03 4.43036E+03-2.22576E-09 1.57900E-09
 -1       974-2.02038E+05-1.33478E+02-1.27396E+03 9.84514E+03-1.02659E-09 1.87245E-09
 -1       975-2.01889E+05 1.53438E+01-6.10862E+02 4.42182E+03 8.90623E-10 5.40808E-10
 -1       976-2.01917E+05 5.10276E+00-3.38267E+02 9.85711E+03-3.40106E-09 1.53238E-09
 -1       977-2.01904E+05 9.30704E+00-2.12578E+02 4.41833E+03 3.42334E-09 2.32319E-10
 -1       978-2.01909E+05 1.48144E+01-2.07271E+02 9.86188E+03 1.07340E-08 7.48571E-10
 -1       979-2.01903E+05 1.10614E+01-2.96283E+02 4.41703E+03 5.62365E-09 8.29601E-10
 -1       980-2.01935E+05-4.44534E-01-5.54729E+02 9.86206E+03 6.05957E-09 7.03864E-10
 -1       981-2.01878E+05 2.50065E+01-1.05177E+03 4.41815E+03-3.30340E-09 2.02986E-09
 -1       982-2.02156E+05-2.39740E+02-2.22540E+03 9.85629E+03-5.12358E-09 1.86436E-09
 -1       983-2.01677E+05 1.47183E+02-4.16601E+03 4.42291E+03-2.17892E-09-1.17211E-09
 -1       984-2.04598E+05-3.65249E+03-9.82129E+03 9.81343E+03-1.96178E-09-5.32850E-10
 -1       985-1.99427E+05 1.55245E+03-1.62879E+04 4.46207E+03-4.50200E-11-6.83940E-10
 -3
    1PSTEP                         9           5           1          
  100CL  105 3.67188E-01         568                     0    5           1
 -4  DISP        4    1
 -5  D1          1    2    1    0
 -5  D2          1    2    2    0
 -5  D3          1    2    3    0
 -5  ALL         1    2    0    0    1ALL
 -1         1 5.37825E-05 0.00000E+00 0.00000E+00
 -1         2 5.37765E-05 0.00000E+00 0.00000E+00
 -1         3 3.62892E-05 2.62301E-28 6.61744E-24
 -1         4 2.72075E-05-1.69112E-29-2.52435E-29
 -1         5 2.75369E-05-2.86633E-28 0.00000E+00
 -1         8 4.27426E-05-5.22196E-07 0.00000E+00
 -1         9 3.35896E-05-2.13161E-06 0.00000E+00
 -1        10 3.33140E-05-1.06756E-06 0.00000E+00
 -1        11 2.70400E-05-3.01731E-06 0.00000E+00
 -1        12 2.70450E-05 4.48646E-07 0.00000E+00
 -1        15 3.09475E-05-5.48698E-07 0.00000E+00
 -1        16 2.66039E-05-2.20026E-06 0.00000E+00
 -1        17 2.48056E-05-2.13532E-06 0.00000E+00
 -1        18 2.48064E-05-2.85011E-07 0.00000E+00
 -1        19 2.55763E-05 8.94240E-07 0.00000E+00
 -1        20 2.58539E-05 1.05020E-05 0.00000E+00
 -1        21 2.58208E-05 2.33275E-05 0.00000E+00
 -1        23 9.63842E-06-3.38585E-05 4.03897E-28
 -1        24 9.58357E-06-2.60686E-06 0.00000E+00
 -1        25 2.30868E-05-1.56398E-07 0.00000E+00
 -1        26 2.37081E-05 1.19411E-06 0.00000E+00
 -1        27 2.28959E-05 1.00627E-05 0.00000E+00
 -1        28 2.22112E-05 2.28932E-05 0.00000E+00
 -1        31 2.75858E-08-2.63960E-06 0.00000E+00
 -1        32 0.00000E+00 0.00000E+00 0.00000E+00
 -1        33 2.15874E-05 1.67304E-06 0.00000E+00
 -1        34 2.06535E-05 1.00257E-05 0.00000E+00
 -1        35 1.94502E-05 2.27090E-05 0.00000E+00
 -1        36 5.37761E-05-1.91263E-19 1.65436E-24
 -1        37 5.37760E-05-4.21135E-19-4.13590E-25
 -1        38 5.37755E-05-6.96468E-19 4.13590E-25
 -1        39 5.37761E-05-7.65021E-19-1.03398E-25
 -1        40 5.37768E-05-5.70129E-19-1.03398E-25
 -1        41 5.37778E-05-3.02668E-19 0.00000E+00
 -1        42 5.37787E-05-3.81480E-19-1.29247E-26
 -1        43 5.37797E-05-3.37783E-19 0.00000E+00
 -1        44 5.37807E-05-3.94916E-19-1.29247E-26
 -1        45 5.37817E-05-4.60844E-19 0.00000E+00
 -1        46 5.37826E-05-1.16983E-20 1.03398E-25
 -1        47 5.37833E-05 4.53360E-19 0.00000E+00
 -1        48 5.37840E-05 6.97883E-19 4.13590E-25
 -1        49 5.37834E-05 7.34434E-19 8.27181E-25
 -1        50 5.37832E-05 3.41101E-19-3.30872E-24
 -1        51 5.29484E-05-8.76354E-08 0.00000E+00
 -1        52 5.15666E-05-1.72470E-07 0.00000E+00
 -1        53 4.97433E-05-2.57032E-07 0.00000E+00
 -1        54 4.75901E-05-3.42334E-07 0.00000E+00
 -1        55 4.52191E-05-4.29392E-07 0.00000E+00
 -1        56 5.26924E-05-4.70359E-07 0.00000E+00
 -1        57 5.15971E-05-1.05293E-06 1.32349E-23
 -1        58 5.05269E-05-1.69486E-06 0.00000E+00
 -1        59 4.94577E-05-2.36139E-06-1.32349E-23
 -1        60 4.83813E-05-3.00948E-06 0.00000E+00
 -1        61 4.72819E-05-3.59976E-06 0.00000E+00
 -1        62 4.61474E-05-4.09725E-06 0.00000E+00
 -1        63 4.49661E-05-4.47038E-06-1.32349E-23
 -1        64 4.37302E-05-4.69799E-06 2.64698E-23
 -1        65 4.24337E-05-4.76352E-06 0.00000E+00
 -1        66 4.10755E-05-4.66430E-06-2.64698E-23
 -1        67 3.96576E-05-4.40250E-06-1.32349E-23
 -1        68 3.81851E-05-3.99483E-06-2.64698E-23
 -1        69 3.66725E-05-3.45975E-06 1.32349E-23
 -1        70 3.51225E-05-2.83237E-06 0.00000E+00
 -1        86 5.55856E-05-3.22994E-07 0.00000E+00
 -1        87 6.09557E-05-6.64123E-07 0.00000E+00
 -1        88 6.21314E-05-9.97546E-07 0.00000E+00
 -1        89 5.14203E-05-1.38559E-06 0.00000E+00
 -1        90 3.86278E-05-1.79369E-06 0.00000E+00
 -1       121 3.62061E-05-1.77823E-07 0.00000E+00
 -1       122 3.59571E-05-3.55666E-07 0.00000E+00
 -1       123 3.55426E-05-5.33560E-07 0.00000E+00
 -1       124 3.49632E-05-7.11506E-07-3.30872E-24
 -1       125 3.42199E-05-8.89558E-07 6.61744E-24
 -1       161 2.72089E-05-3.85974E-09 0.00000E+00
 -1       162 2.72133E-05-1.54252E-08 0.00000E+00
 -1       163 2.72195E-05-3.21375E-08 0.00000E+00
 -1       164 2.72268E-05-5.14376E-08-2.01948E-28
 -1       165 2.72340E-05-7.07660E-08-8.07794E-28
 -1       166 2.72403E-05-8.75639E-08 8.07794E-28
 -1       167 2.72447E-05-9.92721E-08 0.00000E+00
 -1       168 2.72462E-05-1.03330E-07 3.23117E-27
 -1       169 2.72439E-05-9.71796E-08-1.29247E-26
 -1       170 2.72369E-05-7.82548E-08 1.29247E-26
 -1       171 2.72241E-05-4.40016E-08-5.16988E-26
 -1       172 2.72047E-05 8.17577E-09 0.00000E+00
 -1       173 2.71776E-05 8.07999E-08 0.00000E+00
 -1       174 2.71424E-05 1.76639E-07 2.06795E-25
 -1       175 2.70975E-05 2.97990E-07 8.27181E-25
 -1       191 2.75232E-05 7.47905E-08 0.00000E+00
 -1       192 2.74822E-05 1.49579E-07 0.00000E+00
 -1       193 2.74138E-05 2.24365E-07-3.30872E-24
 -1       194 2.73180E-05 2.99145E-07 0.00000E+00
 -1       195 2.71950E-05 3.73913E-07 0.00000E+00
 -1       251 4.21864E-05 1.05831E-06 1.32349E-23
 -1       252 4.16167E-05 1.84494E-06-6.61744E-24
 -1       253 4.10478E-05 1.19197E-06 0.00000E+00
 -1       254 4.04730E-05-1.50876E-06 0.00000E+00
 -1       255 3.98998E-05-2.98726E-06 0.00000E+00
 -1       256 3.93229E-05-5.42349E-09-6.61744E-24
 -1       257 3.87472E-05 2.23284E-06 0.00000E+00
 -1       258 3.81672E-05-1.45697E-06-6.61744E-24
 -1       259 3.75875E-05-5.04822E-06 0.00000E+00
 -1       260 3.70110E-05-2.51664E-06-6.61744E-24
 -1       261 3.64336E-05 5.83666E-07 1.32349E-23
 -1       262 3.58595E-05-1.31609E-06 0.00000E+00
 -1       263 3.52837E-05-4.32329E-06 0.00000E+00
 -1       264 3.47149E-05-4.51650E-06-6.61744E-24
 -1       265 3.41449E-05-3.30426E-06 1.32349E-23
 -1       266 4.07767E-05-5.34285E-07 3.30872E-24
 -1       267 3.88109E-05-5.37763E-07 0.00000E+00
 -1       268 3.68451E-05-5.41799E-07 8.27181E-25
 -1       269 3.48792E-05-5.44206E-07 2.06795E-25
 -1       270 3.29134E-05-5.46582E-07 0.00000E+00
 -1       271 4.12113E-05 8.53851E-07 1.32349E-23
 -1       272 3.98234E-05 1.75743E-06 0.00000E+00
 -1       273 3.85913E-05 2.24914E-06 0.00000E+00
 -1       274 3.74896E-05 2.38011E-06 0.00000E+00
 -1       275 3.65014E-05 2.20755E-06-2.64698E-23
 -1       276 3.56042E-05 1.78983E-06 0.00000E+00
 -1       277 3.47760E-05 1.18755E-06 0.00000E+00
 -1       278 3.39936E-05 4.62741E-07 1.32349E-23
 -1       279 3.32335E-05-3.21574E-07-2.64698E-23
 -1       280 3.24720E-05-1.10184E-06 0.00000E+00
 -1       281 3.16853E-05-1.81458E-06-2.64698E-23
 -1       282 3.08504E-05-2.39681E-06 0.00000E+00
 -1       283 2.99439E-05-2.78674E-06 0.00000E+00
 -1       284 2.89463E-05-2.92305E-06 0.00000E+00
 -1       285 2.78316E-05-2.74907E-06 2.64698E-23
 -1       286 3.35645E-05-1.12449E-06 0.00000E+00
 -1       287 3.35472E-05-3.87070E-07-8.27181E-25
 -1       288 3.35296E-05 7.43530E-08 0.00000E+00
 -1       289 3.35136E-05 2.53649E-07 0.00000E+00
 -1       290 3.34977E-05 1.82554E-07 8.27181E-25
 -1       291 3.34820E-05-1.07025E-07 0.00000E+00
 -1       292 3.34662E-05-5.54073E-07-4.13590E-25
 -1       293 3.34505E-05-1.09747E-06 2.06795E-25
 -1       294 3.34348E-05-1.66329E-06 0.00000E+00
 -1       295 3.34190E-05-2.17756E-06 2.06795E-25
 -1       296 3.34033E-05-2.57319E-06 0.00000E+00
 -1       297 3.33874E-05-2.78317E-06 4.13590E-25
 -1       298 3.33715E-05-2.76522E-06 8.27181E-25
 -1       299 3.33543E-05-2.47721E-06 0.00000E+00
 -1       300 3.33374E-05-1.91324E-06 0.00000E+00
 -1       301 3.24203E-05-2.14723E-06 3.30872E-24
 -1       302 3.12416E-05-2.15430E-06 8.27181E-25
 -1       303 3.00621E-05-2.16031E-06 0.00000E+00
 -1       304 2.88903E-05-2.16702E-06 0.00000E+00
 -1       305 2.77348E-05-2.17617E-06 0.00000E+00
 -1       306 3.27725E-05-1.38396E-06-1.32349E-23
 -1       307 3.20851E-05-1.01764E-06 6.61744E-24
 -1       308 3.15183E-05-9.71406E-07 0.00000E+00
 -1       309 3.10479E-05-1.18746E-06 6.61744E-24
 -1       310 3.06530E-05-1.60568E-06-1.32349E-23
 -1       311 3.03109E-05-2.16558E-06 0.00000E+00
 -1       312 2.99989E-05-2.80597E-06 0.00000E+00
 -1       313 2.96940E-05-3.46539E-06 0.00000E+00
 -1       314 2.93731E-05-4.08224E-06-1.32349E-23
 -1       315 2.90134E-05-4.59512E-06 0.00000E+00
 -1       316 2.85919E-05-4.94312E-06 1.32349E-23
 -1       317 2.80865E-05-5.06599E-06 6.61744E-24
 -1       318 2.74747E-05-4.90453E-06 1.32349E-23
 -1       319 2.67368E-05-4.40011E-06 0.00000E+00
 -1       320 2.58485E-05-3.49715E-06 0.00000E+00
 -1       336 3.22471E-05-1.24570E-06 6.61744E-24
 -1       337 3.10277E-05-1.42408E-06-3.30872E-24
 -1       338 2.96646E-05-1.60257E-06 6.61744E-24
 -1       339 2.81669E-05-1.78085E-06 0.00000E+00
 -1       340 2.65441E-05-1.95937E-06 0.00000E+00
 -1       356 2.70400E-05-2.79144E-06-5.04871E-29
 -1       357 2.70400E-05-2.56171E-06 5.04871E-29
 -1       358 2.70399E-05-2.32921E-06 0.00000E+00
 -1       359 2.70399E-05-2.09504E-06 0.00000E+00
 -1       360 2.70399E-05-1.86027E-06 0.00000E+00
 -1       361 2.70399E-05-1.62602E-06 0.00000E+00
 -1       362 2.70398E-05-1.39336E-06 3.23117E-27
 -1       363 2.70398E-05-1.16339E-06 0.00000E+00
 -1       364 2.70398E-05-9.37191E-07 1.29247E-26
 -1       365 2.70398E-05-7.15867E-07-1.29247E-26
 -1       366 2.70399E-05-5.00506E-07 5.16988E-26
 -1       367 2.70400E-05-2.92196E-07 0.00000E+00
 -1       368 2.70402E-05-9.20303E-08 0.00000E+00
 -1       369 2.70409E-05 9.88964E-08 0.00000E+00
 -1       370 2.70414E-05 2.79489E-07 0.00000E+00
 -1       376 2.69567E-05-2.79530E-06 0.00000E+00
 -1       377 2.68749E-05-2.57712E-06 0.00000E+00
 -1       378 2.67939E-05-2.36130E-06 0.00000E+00
 -1       379 2.67133E-05-2.14639E-06 0.00000E+00
 -1       380 2.66325E-05-1.93093E-06-4.03897E-28
 -1       381 2.65509E-05-1.71346E-06 0.00000E+00
 -1       382 2.64680E-05-1.49251E-06-1.61559E-27
 -1       383 2.63833E-05-1.26664E-06-1.61559E-27
 -1       384 2.62962E-05-1.03437E-06-6.46235E-27
 -1       385 2.62061E-05-7.94251E-07-6.46235E-27
 -1       386 2.61126E-05-5.44821E-07 0.00000E+00
 -1       387 2.60151E-05-2.84595E-07 0.00000E+00
 -1       388 2.59130E-05-1.21404E-08 0.00000E+00
 -1       389 2.58061E-05 2.74132E-07-2.06795E-25
 -1       390 2.56933E-05 5.75517E-07 0.00000E+00
 -1       406 2.68682E-05 5.23365E-07 0.00000E+00
 -1       407 2.66643E-05 5.98073E-07 1.65436E-24
 -1       408 2.64332E-05 6.72726E-07 0.00000E+00
 -1       409 2.61748E-05 7.47206E-07 0.00000E+00
 -1       410 2.58891E-05 8.21330E-07 0.00000E+00
 -1       501 2.65087E-05 1.33442E-06 0.00000E+00
 -1       502 2.63967E-05 9.73021E-06 0.00000E+00
 -1       503 2.62747E-05 1.92912E-05 0.00000E+00
 -1       504 2.61751E-05 2.63183E-05 0.00000E+00
 -1       505 2.60950E-05 2.85096E-05-3.30872E-24
 -1       506 2.60059E-05 2.35797E-05 0.00000E+00
 -1       507 2.58774E-05 1.31017E-05 0.00000E+00
 -1       508 2.57016E-05-1.33195E-06 8.27181E-25
 -1       509 2.55236E-05-1.59386E-05-1.65436E-24
 -1       510 2.53900E-05-2.69349E-05 0.00000E+00
 -1       511 2.52976E-05-3.25396E-05 0.00000E+00
 -1       512 2.52192E-05-3.09897E-05 0.00000E+00
 -1       513 2.51229E-05-2.43978E-05 3.30872E-24
 -1       514 2.50037E-05-1.48939E-05-1.65436E-24
 -1       515 2.48915E-05-6.22501E-06 0.00000E+00
 -1       521 2.53494E-05-1.64254E-06 0.00000E+00
 -1       522 2.41958E-05-1.43054E-06 0.00000E+00
 -1       523 2.31498E-05-1.50332E-06 0.00000E+00
 -1       524 2.21867E-05-1.80838E-06 0.00000E+00
 -1       525 2.12888E-05-2.28863E-06 0.00000E+00
 -1       526 2.04343E-05-2.88666E-06-1.32349E-23
 -1       527 1.96019E-05-3.54386E-06-2.64698E-23
 -1       528 1.87694E-05-4.20128E-06 0.00000E+00
 -1       529 1.79149E-05-4.79994E-06 0.00000E+00
 -1       530 1.70166E-05-5.28134E-06 0.00000E+00
 -1       531 1.60529E-05-5.58802E-06 2.64698E-23
 -1       532 1.50033E-05-5.66389E-06-1.32349E-23
 -1       533 1.38472E-05-5.45495E-06 0.00000E+00
 -1       534 1.25686E-05-4.90855E-06 0.00000E+00
 -1       535 1.11444E-05-3.97739E-06-2.64698E-23
 -1       536 2.47993E-05-5.54036E-07 0.00000E+00
 -1       537 2.47983E-05 6.46812E-07-4.13590E-25
 -1       538 2.47976E-05 1.50666E-06 8.27181E-25
 -1       539 2.47978E-05 2.06526E-06 0.00000E+00
 -1       540 2.47982E-05 2.36228E-06 0.00000E+00
 -1       541 2.47988E-05 2.43740E-06 0.00000E+00
 -1       542 2.47994E-05 2.33032E-06 0.00000E+00
 -1       543 2.48000E-05 2.08071E-06 0.00000E+00
 -1       544 2.48006E-05 1.72826E-06 0.00000E+00
 -1       545 2.48013E-05 1.31266E-06-9.69352E-27
 -1       546 2.48019E-05 8.73589E-07 5.16988E-26
 -1       547 2.48025E-05 4.50732E-07 0.00000E+00
 -1       548 2.48032E-05 8.37677E-08 0.00000E+00
 -1       549 2.48040E-05-1.87624E-07 0.00000E+00
 -1       550 2.48048E-05-3.23737E-07 0.00000E+00
 -1       551 2.25441E-05-2.21113E-06-2.89513E-24
 -1       552 2.00065E-05-2.28593E-06-4.13590E-25
 -1       553 1.73161E-05-2.36120E-06-3.30872E-24
 -1       554 1.45987E-05-2.43774E-06 0.00000E+00
 -1       555 1.19799E-05-2.51630E-06 0.00000E+00
 -1       556 2.41733E-05-6.25553E-07 0.00000E+00
 -1       557 2.36761E-05 5.33514E-07-3.30872E-24
 -1       558 2.32988E-05 1.37482E-06 6.61744E-24
 -1       559 2.30279E-05 1.93435E-06 0.00000E+00
 -1       560 2.28493E-05 2.24805E-06 0.00000E+00
 -1       561 2.27496E-05 2.35212E-06 0.00000E+00
 -1       562 2.27148E-05 2.28281E-06 0.00000E+00
 -1       563 2.27315E-05 2.07639E-06 0.00000E+00
 -1       564 2.27860E-05 1.76914E-06 3.30872E-24
 -1       565 2.28647E-05 1.39736E-06 0.00000E+00
 -1       566 2.29540E-05 9.97352E-07 0.00000E+00
 -1       567 2.30403E-05 6.05429E-07 0.00000E+00
 -1       568 2.31101E-05 2.57893E-07-1.49926E-24
 -1       569 2.31498E-05-8.98915E-09 0.00000E+00
 -1       570 2.31459E-05-1.58974E-07-8.27181E-25
 -1       571 2.48528E-05-1.87023E-07 2.06795E-25
 -1       572 2.49005E-05-1.21035E-07 0.00000E+00
 -1       573 2.49485E-05-8.11648E-08-1.24077E-24
 -1       574 2.49967E-05-6.12293E-08 4.13590E-25
 -1       575 2.50450E-05-5.50208E-08 8.27181E-25
 -1       576 2.50933E-05-5.62908E-08 0.00000E+00
 -1       577 2.51416E-05-5.87882E-08 0.00000E+00
 -1       578 2.51899E-05-5.62563E-08 1.65436E-24
 -1       579 2.52383E-05-4.24379E-08 0.00000E+00
 -1       580 2.52866E-05-1.10761E-08 0.00000E+00
 -1       581 2.53349E-05 4.40852E-08 0.00000E+00
 -1       582 2.53832E-05 1.29296E-07 0.00000E+00
 -1       583 2.54316E-05 2.50799E-07 0.00000E+00
 -1       584 2.54798E-05 4.14775E-07 0.00000E+00
 -1       585 2.55281E-05 6.27368E-07 0.00000E+00
 -1       586 2.45619E-05-2.63126E-07 0.00000E+00
 -1       587 2.42791E-05-2.41139E-07 0.00000E+00
 -1       588 2.39739E-05-2.19190E-07 0.00000E+00
 -1       589 2.36626E-05-1.97440E-07 0.00000E+00
 -1       590 2.33616E-05-1.76125E-07 0.00000E+00
 -1       591 2.47317E-05-1.69180E-07 4.13590E-25
 -1       592 2.46629E-05-7.57512E-08 0.00000E+00
 -1       593 2.46004E-05-1.78294E-10 8.27181E-25
 -1       594 2.45428E-05 6.15882E-08 0.00000E+00
 -1       595 2.44889E-05 1.13611E-07 8.27181E-25
 -1       596 2.44370E-05 1.59919E-07 4.13590E-25
 -1       597 2.43857E-05 2.04537E-07 0.00000E+00
 -1       598 2.43335E-05 2.51486E-07 4.13590E-25
 -1       599 2.42790E-05 3.04785E-07-8.27181E-25
 -1       600 2.42206E-05 3.68454E-07 0.00000E+00
 -1       601 2.41568E-05 4.46512E-07 0.00000E+00
 -1       602 2.40861E-05 5.42984E-07-2.06795E-25
 -1       603 2.40071E-05 6.61894E-07 4.13590E-25
 -1       604 2.39184E-05 8.07292E-07-5.16988E-26
 -1       605 2.38186E-05 9.83222E-07 0.00000E+00
 -1       606 2.55954E-05 1.25835E-06-1.65436E-24
 -1       607 2.56134E-05 1.66820E-06 0.00000E+00
 -1       608 2.56309E-05 2.12110E-06 0.00000E+00
 -1       609 2.56483E-05 2.61397E-06-8.27181E-25
 -1       610 2.56656E-05 3.14372E-06 1.65436E-24
 -1       611 2.56828E-05 3.70719E-06 0.00000E+00
 -1       612 2.57000E-05 4.30122E-06 0.00000E+00
 -1       613 2.57172E-05 4.92267E-06 0.00000E+00
 -1       614 2.57344E-05 5.56837E-06 0.00000E+00
 -1       615 2.57516E-05 6.23516E-06 0.00000E+00
 -1       616 2.57687E-05 6.91989E-06 0.00000E+00
 -1       617 2.57858E-05 7.61939E-06 0.00000E+00
 -1       618 2.58030E-05 8.33050E-06 8.27181E-25
 -1       619 2.58200E-05 9.05007E-06-4.13590E-25
 -1       620 2.58371E-05 9.77494E-06-4.13590E-25
 -1       621 2.52398E-05 9.44530E-07-1.65436E-24
 -1       622 2.49072E-05 9.94962E-07 0.00000E+00
 -1       623 2.45831E-05 1.04537E-06 0.00000E+00
 -1       624 2.42722E-05 1.09563E-06-8.27181E-25
 -1       625 2.39790E-05 1.14562E-06 0.00000E+00
 -1       626 2.54788E-05 1.28207E-06 0.00000E+00
 -1       627 2.53630E-05 1.71804E-06-3.30872E-24
 -1       628 2.52309E-05 2.19754E-06 3.30872E-24
 -1       629 2.50842E-05 2.71551E-06 0.00000E+00
 -1       630 2.49251E-05 3.26686E-06 0.00000E+00
 -1       631 2.47553E-05 3.84645E-06 0.00000E+00
 -1       632 2.45768E-05 4.44913E-06-1.65436E-24
 -1       633 2.43916E-05 5.06977E-06-8.27181E-25
 -1       634 2.42016E-05 5.70321E-06 0.00000E+00
 -1       635 2.40087E-05 6.34429E-06 0.00000E+00
 -1       636 2.38148E-05 6.98787E-06-8.27181E-25
 -1       637 2.36219E-05 7.62880E-06 8.27181E-25
 -1       638 2.34319E-05 8.26192E-06 0.00000E+00
 -1       639 2.32466E-05 8.88207E-06 0.00000E+00
 -1       640 2.30677E-05 9.48408E-06-2.06795E-25
 -1       641 2.58528E-05 1.12351E-05-2.06795E-25
 -1       642 2.58511E-05 1.20088E-05-2.58494E-26
 -1       643 2.58494E-05 1.28165E-05 6.46235E-27
 -1       644 2.58476E-05 1.36519E-05-1.29247E-26
 -1       645 2.58458E-05 1.45080E-05 2.58494E-26
 -1       646 2.58439E-05 1.53782E-05 0.00000E+00
 -1       647 2.58420E-05 1.62553E-05 0.00000E+00
 -1       648 2.58401E-05 1.71324E-05 2.58494E-26
 -1       649 2.58382E-05 1.80024E-05 0.00000E+00
 -1       650 2.58363E-05 1.88584E-05 5.16988E-26
 -1       651 2.58344E-05 1.96935E-05-1.03398E-25
 -1       652 2.58324E-05 2.05009E-05-1.03398E-25
 -1       653 2.58305E-05 2.12743E-05-4.13590E-25
 -1       654 2.58280E-05 2.20070E-05 0.00000E+00
 -1       655 2.58258E-05 2.26934E-05 0.00000E+00
 -1       656 2.52173E-05 1.04310E-05 8.27181E-25
 -1       657 2.46921E-05 1.03566E-05 8.27181E-25
 -1       658 2.42380E-05 1.02823E-05 1.65436E-24
 -1       659 2.38142E-05 1.02081E-05 8.27181E-25
 -1       660 2.33804E-05 1.01337E-05 0.00000E+00
 -1       661 2.56339E-05 1.12509E-05 0.00000E+00
 -1       662 2.54062E-05 1.20260E-05-8.27181E-25
 -1       663 2.51707E-05 1.28218E-05 0.00000E+00
 -1       664 2.49295E-05 1.36338E-05 8.27181E-25
 -1       665 2.46840E-05 1.44569E-05 0.00000E+00
 -1       666 2.44362E-05 1.52866E-05 0.00000E+00
 -1       667 2.41877E-05 1.61180E-05 1.65436E-24
 -1       668 2.39404E-05 1.69464E-05-8.27181E-25
 -1       669 2.36959E-05 1.77671E-05 1.65436E-24
 -1       670 2.34562E-05 1.85752E-05 0.00000E+00
 -1       671 2.32229E-05 1.93661E-05-1.65436E-24
 -1       672 2.29978E-05 2.01350E-05-8.27181E-25
 -1       673 2.27827E-05 2.08771E-05 0.00000E+00
 -1       674 2.25790E-05 2.15874E-05 8.27181E-25
 -1       675 2.23890E-05 2.22614E-05-4.13590E-25
 -1       676 2.52129E-05 2.32546E-05 0.00000E+00
 -1       677 2.46060E-05 2.31817E-05-8.27181E-25
 -1       678 2.40014E-05 2.31088E-05-1.65436E-24
 -1       679 2.34000E-05 2.30362E-05 0.00000E+00
 -1       680 2.28029E-05 2.29635E-05 1.65436E-24
 -1       716 9.63659E-06-3.19052E-05 0.00000E+00
 -1       717 9.63476E-06-2.99520E-05-4.03897E-28
 -1       718 9.63293E-06-2.79988E-05 0.00000E+00
 -1       719 9.63109E-06-2.60456E-05 0.00000E+00
 -1       720 9.62926E-06-2.40923E-05-6.46235E-27
 -1       721 9.62742E-06-2.21391E-05 0.00000E+00
 -1       722 9.62557E-06-2.01859E-05 0.00000E+00
 -1       723 9.62369E-06-1.82326E-05 0.00000E+00
 -1       724 9.62179E-06-1.62794E-05 0.00000E+00
 -1       725 9.61978E-06-1.43262E-05-1.03398E-25
 -1       726 9.61770E-06-1.23729E-05 0.00000E+00
 -1       727 9.61507E-06-1.04197E-05-4.13590E-25
 -1       728 9.61236E-06-8.46650E-06 0.00000E+00
 -1       729 9.60692E-06-6.51327E-06 0.00000E+00
 -1       730 9.60240E-06-4.56004E-06-6.61744E-24
 -1       766 7.67489E-06-2.62562E-06-6.61744E-24
 -1       767 5.85541E-06-2.62990E-06 0.00000E+00
 -1       768 4.15305E-06-2.63490E-06 1.65436E-24
 -1       769 2.59579E-06-2.63695E-06 0.00000E+00
 -1       770 1.21139E-06-2.63864E-06 0.00000E+00
 -1       771 8.47024E-06-1.05904E-06 1.32349E-23
 -1       772 7.47313E-06 1.64583E-07 1.32349E-23
 -1       773 6.58617E-06 1.09307E-06-2.64698E-23
 -1       774 5.79844E-06 1.75617E-06 6.61744E-24
 -1       775 5.09904E-06 2.18373E-06 1.32349E-23
 -1       776 4.47674E-06 2.40584E-06 0.00000E+00
 -1       777 3.92020E-06 2.45264E-06-1.32349E-23
 -1       778 3.41807E-06 2.35443E-06-6.61744E-24
 -1       779 2.95896E-06 2.14152E-06 0.00000E+00
 -1       780 2.53147E-06 1.84434E-06 0.00000E+00
 -1       781 2.12419E-06 1.49334E-06 1.32349E-23
 -1       782 1.72576E-06 1.11903E-06-6.61744E-24
 -1       783 1.32480E-06 7.51931E-07 0.00000E+00
 -1       784 9.10248E-07 4.22598E-07 6.61744E-24
 -1       785 4.70980E-07 1.61559E-07 0.00000E+00
 -1       786 2.31233E-05 3.83823E-09-4.13590E-25
 -1       787 2.31620E-05 1.25603E-07 0.00000E+00
 -1       788 2.32007E-05 2.14977E-07 0.00000E+00
 -1       789 2.32397E-05 2.78052E-07 4.13590E-25
 -1       790 2.32788E-05 3.20908E-07 0.00000E+00
 -1       791 2.33179E-05 3.49621E-07 4.13590E-25
 -1       792 2.33571E-05 3.70256E-07 0.00000E+00
 -1       793 2.33963E-05 3.88881E-07-8.27181E-25
 -1       794 2.34355E-05 4.11560E-07-3.30872E-24
 -1       795 2.34747E-05 4.44360E-07 0.00000E+00
 -1       796 2.35138E-05 4.93349E-07 0.00000E+00
 -1       797 2.35530E-05 5.64604E-07 0.00000E+00
 -1       798 2.35921E-05 6.64210E-07 0.00000E+00
 -1       799 2.36311E-05 7.98257E-07 0.00000E+00
 -1       800 2.36701E-05 9.72860E-07 8.27181E-25
 -1       801 2.11548E-05-1.22162E-07 3.30872E-24
 -1       802 1.69077E-05-9.21783E-08 0.00000E+00
 -1       803 1.15063E-05-6.72705E-08 4.13590E-25
 -1       804 6.11314E-06-4.45829E-08 1.65436E-24
 -1       805 1.89073E-06-1.68591E-08 0.00000E+00
 -1       806 2.29844E-05-1.38778E-08 1.65436E-24
 -1       807 2.28879E-05 1.08910E-07 8.27181E-25
 -1       808 2.27971E-05 2.15506E-07 1.65436E-24
 -1       809 2.27109E-05 3.09324E-07-8.27181E-25
 -1       810 2.26282E-05 3.93766E-07 0.00000E+00
 -1       811 2.25476E-05 4.72228E-07 0.00000E+00
 -1       812 2.24681E-05 5.48100E-07-1.65436E-24
 -1       813 2.23882E-05 6.24769E-07 8.27181E-25
 -1       814 2.23068E-05 7.05626E-07-8.27181E-25
 -1       815 2.22225E-05 7.94059E-07 8.27181E-25
 -1       816 2.21342E-05 8.93454E-07-8.27181E-25
 -1       817 2.20404E-05 1.00720E-06-4.13590E-25
 -1       818 2.19400E-05 1.13868E-06 0.00000E+00
 -1       819 2.18318E-05 1.29126E-06-6.20385E-25
 -1       820 2.17145E-05 1.46830E-06 4.13590E-25
 -1       821 2.36602E-05 1.48122E-06 0.00000E+00
 -1       822 2.36095E-05 1.83961E-06 0.00000E+00
 -1       823 2.35589E-05 2.26175E-06 0.00000E+00
 -1       824 2.35078E-05 2.74000E-06-8.27181E-25
 -1       825 2.34565E-05 3.26676E-06 1.65436E-24
 -1       826 2.34052E-05 3.83436E-06-8.27181E-25
 -1       827 2.33539E-05 4.43511E-06 1.65436E-24
 -1       828 2.33025E-05 5.06135E-06 8.27181E-25
 -1       829 2.32511E-05 5.70534E-06 0.00000E+00
 -1       830 2.31998E-05 6.35938E-06-8.27181E-25
 -1       831 2.31484E-05 7.01576E-06 0.00000E+00
 -1       832 2.30971E-05 7.66675E-06 0.00000E+00
 -1       833 2.30459E-05 8.30464E-06 0.00000E+00
 -1       834 2.29951E-05 8.92172E-06 0.00000E+00
 -1       835 2.29442E-05 9.51028E-06 0.00000E+00
 -1       836 2.34065E-05 1.27274E-06 0.00000E+00
 -1       837 2.30433E-05 1.35403E-06 0.00000E+00
 -1       838 2.26490E-05 1.43520E-06 1.65436E-24
 -1       839 2.22544E-05 1.51608E-06-8.27181E-25
 -1       840 2.18903E-05 1.59699E-06 0.00000E+00
 -1       841 2.36116E-05 1.49546E-06-4.13590E-25
 -1       842 2.34789E-05 1.89311E-06 0.00000E+00
 -1       843 2.33180E-05 2.36594E-06 0.00000E+00
 -1       844 2.31368E-05 2.89285E-06 0.00000E+00
 -1       845 2.29399E-05 3.46125E-06 0.00000E+00
 -1       846 2.27323E-05 4.05854E-06-2.06795E-25
 -1       847 2.25168E-05 4.67663E-06 4.13590E-25
 -1       848 2.22965E-05 5.30745E-06-2.06795E-25
 -1       849 2.20737E-05 5.94485E-06 0.00000E+00
 -1       850 2.18508E-05 6.58264E-06 0.00000E+00
 -1       851 2.16300E-05 7.21483E-06 0.00000E+00
 -1       852 2.14135E-05 7.83534E-06 0.00000E+00
 -1       853 2.12043E-05 8.43636E-06 0.00000E+00
 -1       854 2.10050E-05 9.00990E-06 5.16988E-26
 -1       855 2.08206E-05 9.54402E-06 4.13590E-25
 -1       856 2.28557E-05 1.06421E-05-4.13590E-25
 -1       857 2.28131E-05 1.13032E-05 0.00000E+00
 -1       858 2.27705E-05 1.20348E-05 0.00000E+00
 -1       859 2.27275E-05 1.28259E-05 8.27181E-25
 -1       860 2.26844E-05 1.36653E-05-1.65436E-24
 -1       861 2.26412E-05 1.45418E-05 0.00000E+00
 -1       862 2.25980E-05 1.54444E-05 0.00000E+00
 -1       863 2.25548E-05 1.63617E-05-8.27181E-25
 -1       864 2.25115E-05 1.72827E-05 0.00000E+00
 -1       865 2.24683E-05 1.81961E-05 0.00000E+00
 -1       866 2.24250E-05 1.90908E-05 0.00000E+00
 -1       867 2.23819E-05 1.99557E-05-8.27181E-25
 -1       868 2.23388E-05 2.07794E-05-1.65436E-24
 -1       869 2.22959E-05 2.15511E-05 0.00000E+00
 -1       870 2.22530E-05 2.22593E-05 0.00000E+00
 -1       871 2.24535E-05 1.00577E-05 0.00000E+00
 -1       872 2.20670E-05 1.00520E-05 4.13590E-25
 -1       873 2.17152E-05 1.00461E-05 0.00000E+00
 -1       874 2.13768E-05 1.00400E-05 0.00000E+00
 -1       875 2.10300E-05 1.00336E-05 0.00000E+00
 -1       876 2.27517E-05 1.06561E-05 0.00000E+00
 -1       877 2.25865E-05 1.13134E-05-8.27181E-25
 -1       878 2.24007E-05 1.20257E-05 1.65436E-24
 -1       879 2.21976E-05 1.27851E-05 0.00000E+00
 -1       880 2.19798E-05 1.35838E-05-1.65436E-24
 -1       881 2.17502E-05 1.44138E-05 0.00000E+00
 -1       882 2.15119E-05 1.52672E-05 0.00000E+00
 -1       883 2.12677E-05 1.61364E-05-8.27181E-25
 -1       884 2.10206E-05 1.70132E-05 0.00000E+00
 -1       885 2.07735E-05 1.78901E-05-8.27181E-25
 -1       886 2.05293E-05 1.87591E-05 0.00000E+00
 -1       887 2.02909E-05 1.96123E-05 0.00000E+00
 -1       888 2.00613E-05 2.04419E-05 0.00000E+00
 -1       889 1.98431E-05 2.12400E-05 0.00000E+00
 -1       890 1.96396E-05 2.19987E-05 8.27181E-25
 -1       891 2.17000E-05 2.28627E-05 0.00000E+00
 -1       892 2.12724E-05 2.28318E-05-4.13590E-25
 -1       893 2.08811E-05 2.28009E-05-8.27181E-25
 -1       894 2.04786E-05 2.27700E-05 0.00000E+00
 -1       895 2.00174E-05 2.27391E-05-8.27181E-25
 -1       926 2.68973E-08-1.65986E-06 0.00000E+00
 -1       927 2.65680E-08-8.87331E-07 0.00000E+00
 -1       928 2.63482E-08-3.00914E-07 2.58494E-26
 -1       929 2.62421E-08 1.20517E-07 0.00000E+00
 -1       930 2.61838E-08 3.98088E-07 0.00000E+00
 -1       931 2.61520E-08 5.52925E-07-6.46235E-27
 -1       932 2.61243E-08 6.06166E-07 0.00000E+00
 -1       933 2.60731E-08 5.78947E-07 0.00000E+00
 -1       934 2.59943E-08 4.92412E-07-1.03398E-25
 -1       935 2.57943E-08 3.67700E-07 0.00000E+00
 -1       936 2.55234E-08 2.25954E-07 0.00000E+00
 -1       937 2.46942E-08 8.83190E-08 4.13590E-25
 -1       938 2.37893E-08-2.40952E-08-1.65436E-24
 -1       939 2.01018E-08-9.01720E-08 0.00000E+00
 -1       940 1.73544E-08-8.90870E-08 0.00000E+00
 -1       956 2.15304E-05 1.97300E-06 0.00000E+00
 -1       957 2.14722E-05 2.33617E-06 4.13590E-25
 -1       958 2.14139E-05 2.75570E-06 0.00000E+00
 -1       959 2.13554E-05 3.22434E-06 4.13590E-25
 -1       960 2.12968E-05 3.73484E-06 0.00000E+00
 -1       961 2.12382E-05 4.27991E-06 0.00000E+00
 -1       962 2.11795E-05 4.85223E-06 0.00000E+00
 -1       963 2.11209E-05 5.44452E-06 0.00000E+00
 -1       964 2.10622E-05 6.04947E-06-1.65436E-24
 -1       965 2.10036E-05 6.65977E-06 0.00000E+00
 -1       966 2.09449E-05 7.26813E-06 0.00000E+00
 -1       967 2.08863E-05 7.86724E-06-8.27181E-25
 -1       968 2.08277E-05 8.44980E-06 1.65436E-24
 -1       969 2.07692E-05 9.00853E-06 0.00000E+00
 -1       970 2.07109E-05 9.53616E-06 0.00000E+00
 -1       971 2.05800E-05 1.05305E-05-1.65436E-24
 -1       972 2.05048E-05 1.11246E-05 0.00000E+00
 -1       973 2.04295E-05 1.17975E-05 0.00000E+00
 -1       974 2.03539E-05 1.25380E-05 0.00000E+00
 -1       975 2.02783E-05 1.33353E-05 1.65436E-24
 -1       976 2.02026E-05 1.41784E-05-8.27181E-25
 -1       977 2.01269E-05 1.50563E-05 0.00000E+00
 -1       978 2.00511E-05 1.59580E-05-8.27181E-25
 -1       979 1.99753E-05 1.68725E-05 1.65436E-24
 -1       980 1.98995E-05 1.77889E-05 0.00000E+00
 -1       981 1.98238E-05 1.86960E-05-1.65436E-24
 -1       982 1.97482E-05 1.95829E-05 0.00000E+00
 -1       983 1.96726E-05 2.04387E-05 1.65436E-24
 -1       984 1.95975E-05 2.12523E-05 0.00000E+00
 -1       985 1.95224E-05 2.20126E-05 1.65436E-24
 -3
    1PSTEP                        10           5           1          
  100CL  105 3.67188E-01         568                     0    5           1
 -4  STRESS      6    1
 -5  SXX         1    4    1    1
 -5  SYY         1    4    2    2
 -5  SZZ         1    4    3    3
 -5  SXY         1    4    1    2
 -5  SYZ         1    4    2    3
 -5  SZX         1    4    3    1
 -1         1-1.00161E+06-3.94736E+05-1.92089E+05-5.16321E+05-1.67347E-10-1.46489E-09
 -1         2-5.10104E+04-4.13086E+05-6.92562E+02 1.70191E+04 3.26690E-09-1.02333E-09
 -1         3-1.64418E+01-5.08477E+05-7.42068E+01-8.80213E+01 3.27982E-10-1.62572E-09
 -1         4 5.00191E+00-5.44860E+00-5.61824E-01-6.28397E+00 2.56891E-09-5.19465E-09
 -1         5-5.11054E+00 2.14004E+05 1.15318E+01-2.20964E+00 1.90067E-10 1.87356E-10
 -1         8-9.56954E+05-3.21824E+05-1.33822E+05-3.49787E+05 3.61979E-10 2.58660E-09
 -1         9-9.89249E+05-4.05081E+05-1.60986E+05-2.23819E+05-1.47278E-09 1.12656E-09
 -1        10-1.15067E+04-3.00241E+05 3.69507E+04-1.75924E+03-2.32236E-09-1.18578E-09
 -1        11 1.24044E+00-2.29681E+00-8.11954E-01 3.71105E-01 1.05155E-09 2.81511E-09
 -1        12-4.97042E+03 8.10472E+04-2.71671E+04 3.88951E+03 5.51454E-09-1.21929E-09
 -1        15 1.33211E+03 7.20361E+02 4.13423E+03 1.15450E+00-2.40448E-11 1.47118E-09
 -1        16-1.18756E+06-3.13534E+05-1.01075E+05-3.93620E+05 1.04160E-09 7.78527E-10
 -1        17-2.50908E+05-1.80445E+05-2.21956E+04-1.59044E+05-2.85096E-09-7.74889E-10
 -1        18 1.67574E+04 5.54858E+03-6.20622E+03-4.57083E+04 1.80989E-10 6.89397E-10
 -1        19 4.82142E+04 5.64052E+04-5.69094E+03 5.74259E+03 1.71948E-09-8.31885E-10
 -1        20 3.08726E+04-4.50445E+04-1.02516E+04 2.22726E+04 2.38958E-09 2.28511E-09
 -1        21-3.24298E+02-7.96474E+04 2.33231E+04-2.72817E+02 8.19452E-09-2.84101E-09
 -1        23 3.23026E-01 1.53884E-01 5.91766E+00 3.17182E-04 4.41681E-09 1.79602E-09
 -1        24-6.17402E+05-1.85436E+05 4.21958E+04-3.32151E+05-2.86964E-09-1.78989E-10
 -1        25 1.53773E+03 1.62848E+04 1.14585E+04-1.93932E+05 5.74892E-10 2.93221E-10
 -1        26-6.14057E+02 5.18437E+04 1.06747E+03-8.97135E+03-2.96583E-10 1.43725E-09
 -1        27-1.25511E+04-3.35336E+04-1.49318E+04 3.70232E+04 1.99452E-09-1.00378E-09
 -1        28-6.06104E+03-6.25030E+04-3.13035E+03 2.27874E+04 6.08338E-09 4.22169E-11
 -1        31 2.05419E+03 2.36923E+03 3.51169E+03-8.89298E+01 1.87683E-09-9.07789E-10
 -1        32-2.70296E+05 4.59422E+04 1.61006E+05-3.96430E+05-1.14932E-09 7.27596E-11
 -1        33-6.20510E+04 6.41100E+04 1.95724E+04-1.90879E+04 1.55884E-10-3.08622E-10
 -1        34-7.93773E+04-4.08495E+03 5.31993E+03 2.68170E+04 2.01560E-09-3.47768E-10
 -1        35-1.54738E+04-1.78819E+04-5.90814E+02 3.60305E+04 2.57425E-09 1.10352E-09
 -1        36-4.86497E+03-1.70439E+04 3.93047E+04-1.82062E-07-2.18300E-10-2.51748E-09
 -1        37 1.22139E+04 1.97281E+04 2.78282E+04 3.08725E-07-1.64898E-10-4.48199E-09
 -1        38 1.70680E+03-2.67998E+03 1.01778E+04 4.80479E-07-9.75798E-11 1.41790E-09
 -1        39 4.55326E+03 3.10161E+03 6.41337E+03-2.40983E-07-4.59837E-11 9.99307E-11
 -1        40 2.79346E+03-4.21052E+02 2.63149E+03-6.78877E-07-2.16735E-11-6.69502E-10
 -1        41 3.28865E+03 4.96776E+02 1.59594E+03-2.25660E-08-1.57157E-11-2.03443E-10
 -1        42 2.97130E+03-7.56538E+01 8.23641E+02-1.30064E-07 1.97917E-12-2.83990E-10
 -1        43 3.11219E+03 1.53707E+02 7.36675E+02 2.60401E-07-1.58429E-11-3.14053E-09
 -1        44 2.96992E+03-7.80388E+01 8.44789E+02 2.84218E-07 4.36484E-12 2.56512E-09
 -1        45 3.29962E+03 5.17234E+02 1.65721E+03-7.17884E-08-8.81379E-14 6.27833E-09
 -1        46 2.78387E+03-4.39124E+02 2.74162E+03 3.41508E-08 1.82882E-11 3.13980E-09
 -1        47 4.61949E+03 3.23551E+03 6.68873E+03-4.26026E-07 2.40302E-10-4.12570E-10
 -1        48 1.65017E+03-2.79580E+03 1.06169E+04 2.44105E-07-5.35561E-11-4.79849E-09
 -1        49 1.26113E+04 2.05810E+04 2.90306E+04-6.34290E-08 7.13574E-10-2.93767E-09
 -1        50-5.20556E+03-1.77806E+04 4.10040E+04-8.06423E-08 1.66299E-09-1.44973E-09
 -1        51 1.41343E+04-2.30545E+05 2.32156E+04-6.06758E+05-5.09317E-11-2.81580E-09
 -1        52 6.58743E+03-2.28423E+05 1.49571E+04-6.69193E+05-4.72937E-11-3.92902E-09
 -1        53 4.70331E+03-2.33121E+05 1.34457E+04-6.05187E+05-2.07365E-10-1.03319E-09
 -1        54 1.20667E+04-2.30395E+05 2.21890E+04-6.70896E+05-4.07454E-10-3.19960E-09
 -1        55 2.92155E+04-2.37468E+05 4.13796E+04-6.04929E+05-3.49246E-10-9.07676E-10
 -1        56-2.84417E+06-3.12332E+05-2.41883E+05-1.10322E+06 1.41881E-10 2.09548E-09
 -1        57-2.96010E+06-5.22926E+05-1.64570E+05-1.07316E+06-2.61934E-10 3.98722E-09
 -1        58-2.89240E+06-3.92889E+05-5.68584E+04-1.08834E+06-5.29326E-10-2.49565E-09
 -1        59-2.90436E+06-4.28772E+05-3.44084E+04-1.09045E+06-1.11049E-09-3.97904E-10
 -1        60-2.89948E+06-4.04739E+05-1.32925E+04-1.08650E+06 3.03771E-10 1.37834E-09
 -1        61-2.89669E+06-4.14442E+05-7.67275E+03-1.09195E+06-1.62947E-09-1.46349E-09
 -1        62-2.89998E+06-4.06982E+05-3.66507E+03-1.08690E+06-5.85146E-10-1.26954E-09
 -1        63-2.89706E+06-4.11264E+05-3.10841E+03-1.09052E+06 5.06333E-10-4.78551E-10
 -1        64-2.89909E+06-4.07894E+05-3.54565E+03-1.08793E+06-5.13467E-10-2.36264E-09
 -1        65-2.90000E+06-4.10927E+05-7.30765E+03-1.08807E+06-1.65372E-10-1.50203E-09
 -1        66-2.89705E+06-4.07346E+05-1.26208E+04-1.08935E+06-6.03109E-10-1.94677E-09
 -1        67-2.90986E+06-4.21909E+05-3.26274E+04-1.08367E+06 3.52202E-10-7.78982E-10
 -1        68-2.88932E+06-3.97135E+05-5.39129E+04-1.09227E+06 1.41881E-10 1.74623E-10
 -1        69-2.96399E+06-5.09907E+05-1.56027E+05-1.06584E+06-1.26693E-09 5.48425E-09
 -1        70-2.84334E+06-3.21003E+05-2.29339E+05-1.10665E+06-3.05590E-10 1.07684E-09
 -1        86 1.98364E+04-9.36613E+05-4.47438E+04-1.24925E+04-5.18776E-09 1.17302E-09
 -1        87-2.03963E+04-8.76394E+05-1.94769E+04 1.50333E+04-5.44651E-09-4.24437E-09
 -1        88 4.88408E+02-1.00615E+06-3.25578E+04 6.51021E+03 8.86700E-09-4.45539E-09
 -1        89-1.27604E+04-8.50664E+05-7.96625E+03-1.31575E+04 1.25988E-09-4.46293E-09
 -1        90 1.22730E+04-9.62283E+05-3.87464E+04 1.56971E+04 8.24912E-09 3.44579E-09
 -1       121-9.21950E+00-5.08553E+05-9.66885E+01 4.40064E+01-6.57391E-10-5.70481E-09
 -1       122-4.56773E+01-5.08497E+05-1.67573E+02-1.75523E+02-4.68717E-10-1.40790E-09
 -1       123 1.59393E+01-5.08534E+05-2.96825E+02 1.31486E+02-1.56820E-09 5.42968E-10
 -1       124-3.65423E+02-5.08685E+05-7.11099E+02-3.80103E+02-1.19007E-09-6.14591E-10
 -1       125 2.56844E+02-5.08367E+05-1.11107E+03 2.48506E+02-2.68250E-09-8.29004E-10
 -1       161-1.82573E+00 1.27874E+00-7.43932E-01 1.34144E+00 1.17983E-06-4.40300E-07
 -1       162 4.88018E+00-5.54997E+00-1.36736E+00-6.29245E+00 2.35901E-06-8.81828E-07
 -1       163-1.70395E+00 1.38043E+00-2.65627E+00 1.34978E+00 1.16051E-06-4.33775E-07
 -1       164 4.28525E+00-6.25067E+00-5.92748E+00-6.24599E+00-3.88363E-08 1.37961E-08
 -1       165-1.23085E+00 1.97959E+00-1.15433E+01 1.29487E+00-1.35844E-06 5.09397E-07
 -1       166 1.07884E+00-1.07274E+01-2.67101E+01-5.69110E+00-2.67698E-06 1.00575E-06
 -1       167 1.50269E+00 5.85675E+00-5.06152E+01 7.95157E-01-4.01413E-06 1.50646E-06
 -1       168-1.77012E+01-3.94391E+01-1.21442E+02-1.35584E+00-5.34935E-06 2.00520E-06
 -1       169 1.75494E+01 3.06882E+01-2.21342E+02-3.03887E+00-6.64358E-06 2.48981E-06
 -1       170-1.30319E+02-2.22804E+02-5.57986E+02 2.95248E+01-7.93777E-06 2.97776E-06
 -1       171 1.14121E+02 1.89199E+02-9.62922E+02-3.00760E+01-9.02628E-06 3.38482E-06
 -1       172-8.15479E+02-1.38955E+03-2.59939E+03 2.39797E+02-1.01130E-05 3.79236E-06
 -1       173 7.02719E+02 1.19728E+03-4.15717E+03-2.13238E+02-1.02293E-05 3.83728E-06
 -1       174-5.02896E+03-8.79587E+03-1.23263E+04 1.63403E+03-1.03390E-05 3.87889E-06
 -1       175 4.32795E+03 7.59451E+03-1.77410E+04-1.42374E+03-5.17004E-06 1.93715E-06
 -1       191-5.15575E+00 2.14021E+05 1.39020E+01 1.10427E+00-8.45262E-11-1.91449E-10
 -1       192-1.39266E+00 2.14006E+05 2.55920E+01-1.03460E+01-8.99689E-11-1.32241E-09
 -1       193 6.62881E+00 2.14020E+05 4.86119E+01 9.24075E+00-3.54589E-10-1.40972E-11
 -1       194 4.64896E+01 2.14022E+05 1.08763E+02-8.15712E+01-3.34239E-10-2.23508E-09
 -1       195 1.43770E+02 2.14005E+05 2.21079E+02 7.23735E+01-5.88443E-10-1.36788E-09
 -1       251-1.61718E+06 3.93865E+04-9.06271E+04-5.33198E+03-3.90282E-09-2.30648E-09
 -1       252-1.65402E+06-4.58123E+04-6.38121E+04 7.89056E+02 9.53079E-10-3.75439E-09
 -1       253-1.63392E+06 6.41113E+03-2.37839E+04 5.87082E+03 1.76867E-09-1.09139E-09
 -1       254-1.62712E+06-7.33321E+03-1.26189E+04-9.53644E+02 2.24261E-10 2.85581E-09
 -1       255-1.64398E+06 9.12651E+02-7.90239E+03-3.58893E+03-7.25066E-09 4.49518E-10
 -1       256-1.60922E+06-7.17020E+02 1.52595E+03 2.73187E+03-7.61401E-09 1.26965E-09
 -1       257-1.65174E+06-2.06336E+02-5.20293E+03 2.18537E+03-2.30937E-06-6.20162E-09
 -1       258-1.60029E+06 4.49120E+02 5.25559E+03-2.27551E+03-3.90651E-06-3.06079E-08
 -1       259-1.65287E+06-2.53423E+02-5.45156E+03 1.41807E+03-2.31791E-06-5.70628E-09
 -1       260-1.60563E+06-5.83415E+02 2.19654E+03 2.90909E+03-7.88889E-09 3.97898E-09
 -1       261-1.64644E+06 8.25031E+02-8.51056E+03-2.99881E+03-4.34846E-09 1.09208E-09
 -1       262-1.62292E+06-7.30378E+03-1.20424E+04-1.24152E+03-3.45741E-09-6.09361E-11
 -1       263-1.63566E+06 6.46795E+03-2.46038E+04 5.56854E+03-2.06644E-09-1.32513E-09
 -1       264-1.65298E+06-4.67410E+04-6.48044E+04 1.08365E+03-2.30268E-09 5.03860E-10
 -1       265-1.61648E+06 4.02574E+04-9.23423E+04-5.32429E+03-7.36086E-09 2.96859E-09
 -1       266-2.34203E+04-1.08316E+04 5.40488E+04-2.37578E+01 6.18456E-11-2.93880E-11
 -1       267 2.71221E+04 1.26469E+04 3.83428E+04 2.73182E+01 1.81899E-11 2.70629E-09
 -1       268-3.69577E+03-1.81076E+03 1.41917E+04-3.55743E+00 2.72848E-11-3.90355E-09
 -1       269 4.36254E+03 2.17118E+03 9.27515E+03 4.13559E+00 1.13687E-13 3.62916E-09
 -1       270-6.65958E+02-3.60178E+02 4.45321E+03-5.77077E-01 9.66338E-12 2.23791E-09
 -1       271-2.27348E+06-2.89786E+05-1.76377E+05-8.80176E+05 1.80080E-10-1.49157E-09
 -1       272-2.33041E+06-4.04763E+05-1.10578E+05-8.85796E+05 1.04592E-10-5.95901E-09
 -1       273-2.30419E+06-3.27446E+05-4.15884E+04-8.75552E+05 4.36785E-10 1.32241E-09
 -1       274-2.29469E+06-3.55107E+05-2.26867E+04-8.94551E+05-6.98492E-10 1.87356E-10
 -1       275-2.30808E+06-3.30906E+05-9.65726E+03-8.74682E+05 1.71167E-09 7.38510E-10
 -1       276-2.29008E+06-3.50745E+05-5.07084E+03-8.96140E+05-6.83258E-10-1.96178E-09
 -1       277-2.30881E+06-3.30995E+05-2.57612E+03-8.74321E+05-1.99634E-10 1.32195E-09
 -1       278-2.28930E+06-3.50665E+05-1.94930E+03-8.96680E+05 5.67979E-10 2.72088E-09
 -1       279-2.30893E+06-3.30894E+05-2.25236E+03-8.74208E+05-2.23963E-11 2.63333E-09
 -1       280-2.28963E+06-3.51025E+05-4.19145E+03-8.96641E+05 5.88045E-10 1.32775E-09
 -1       281-2.30848E+06-3.30673E+05-7.84965E+03-8.74346E+05-9.89075E-11 5.48425E-10
 -1       282-2.29316E+06-3.54778E+05-1.83942E+04-8.95632E+05-3.54589E-10 3.89446E-09
 -1       283-2.30543E+06-3.27779E+05-3.36769E+04-8.74953E+05-1.67063E-10 9.62245E-10
 -1       284-2.32196E+06-3.95127E+05-8.95546E+04-8.88702E+05 1.54921E-09 6.15910E-09
 -1       285-2.28061E+06-2.97240E+05-1.42840E+05-8.78648E+05-2.36469E-11 2.03727E-09
 -1       286-5.41376E+04-2.09409E+04 4.82802E+04-4.29285E+01 2.00600E-10-2.26646E-09
 -1       287-3.30434E+04 2.42398E+04 3.42005E+04-2.35087E+01 9.05152E-11-4.67116E-09
 -1       288-4.60681E+04-3.29363E+03 1.24928E+04 4.24468E-01-1.93863E-10-1.08002E-09
 -1       289-4.24679E+04 3.81127E+03 7.88515E+03-1.18207E+02 4.85727E-11 2.42665E-09
 -1       290-4.47174E+04-5.17139E+02 3.21734E+03 5.17723E+01 2.32388E-10 1.87390E-09
 -1       291-4.40579E+04 6.06819E+02 1.94243E+03-2.02748E+02 1.18401E-09-6.83855E-10
 -1       292-4.44788E+04-8.95975E+01 9.67738E+02 8.49674E+01 7.06408E-07 1.60560E-09
 -1       293-4.43068E+04 1.67482E+02 8.10084E+02-2.40681E+02 1.40673E-06 2.61208E-09
 -1       294-4.44688E+04-7.77667E+01 8.64903E+02 8.97051E+01 7.05410E-07 8.38668E-10
 -1       295-4.41213E+04 5.06294E+02 1.64066E+03-2.20384E+02 1.21208E-09 1.92813E-10
 -1       296-4.46641E+04-4.28413E+02 2.67966E+03 6.46700E+01 2.98449E-10 1.17063E-09
 -1       297-4.28018E+04 3.15555E+03 6.53579E+03-1.48253E+02 3.06824E-10 1.86253E-09
 -1       298-4.57878E+04-2.72671E+03 1.03449E+04 1.75733E+01 2.04368E-10-4.82487E-10
 -1       299-3.49885E+04 2.00671E+04 2.83162E+04-5.42546E+01 1.07436E-09-1.86128E-09
 -1       300-5.24742E+04-1.73362E+04 3.99643E+04-2.93309E+01 1.19309E-09 4.62023E-10
 -1       301 2.30388E+04-1.32189E+04 6.39678E+04-2.21380E+04 1.03864E-09-3.05039E-09
 -1       302 8.41079E+03-1.93757E+02 4.18405E+04-2.70835E+04 1.66892E-09 2.13659E-09
 -1       303 1.83492E+03-8.64968E+03 3.67226E+04-2.21407E+04 7.70342E-10-1.79341E-09
 -1       304 1.38010E+04 3.79707E+03 5.85688E+04-2.70535E+04 1.79716E-09-5.96788E-09
 -1       305 3.91843E+04-1.71910E+04 1.03790E+05-2.21479E+04 1.06957E-09-4.34738E-09
 -1       306-1.19371E+06-1.60118E+05-6.89639E+04-4.63598E+05 2.58751E-10 3.09228E-10
 -1       307-1.20419E+06-2.16634E+05-4.32062E+04-4.79154E+05-7.73980E-10 7.43512E-10
 -1       308-1.20576E+06-1.74739E+05-1.62715E+04-4.61758E+05-1.11868E-10-9.10404E-10
 -1       309-1.19028E+06-1.97266E+05-8.88125E+03-4.82641E+05 3.64253E-10 4.99313E-10
 -1       310-1.20727E+06-1.76097E+05-3.80006E+03-4.61447E+05 8.21956E-10 6.84395E-10
 -1       311-1.18858E+06-1.95488E+05-2.03373E+03-4.83194E+05 9.50649E-10-1.62260E-10
 -1       312-1.20750E+06-1.76181E+05-1.10865E+03-4.61367E+05 1.01858E-09 2.20584E-09
 -1       313-1.18840E+06-1.95340E+05-9.85430E+02-4.83249E+05 1.05342E-09 1.06763E-09
 -1       314-1.20745E+06-1.76219E+05-1.33490E+03-4.61407E+05-6.69843E-10-1.42381E-09
 -1       315-1.18877E+06-1.95424E+05-2.64837E+03-4.82995E+05-6.37328E-10-3.24076E-09
 -1       316-1.20708E+06-1.76160E+05-5.05936E+03-4.61568E+05-2.48156E-09-1.01454E-09
 -1       317-1.19111E+06-1.97749E+05-1.18773E+04-4.82177E+05-5.87806E-09-1.93995E-09
 -1       318-1.20505E+06-1.74354E+05-2.17867E+04-4.61995E+05-3.54839E-09 2.86127E-09
 -1       319-1.20972E+06-2.23707E+05-5.78571E+04-4.77541E+05-8.06608E-10 1.65892E-09
 -1       320-1.18893E+06-1.54728E+05-9.23418E+04-4.64418E+05-2.38106E-09-5.56611E-10
 -1       336 3.03202E+02-5.08329E+05-1.94920E+03-6.83115E+02-3.60330E-09-3.98268E-09
 -1       337-9.13503E+02-5.09095E+05-3.05176E+03-4.79864E+03-2.59149E-09-3.31056E-09
 -1       338 4.64517E+02-5.08189E+05-4.65380E+03-5.75038E+02-4.52633E-09-7.56700E-10
 -1       339-5.58844E+03-5.11834E+05-1.11510E+04-4.99793E+03-3.16800E-09 9.05288E-10
 -1       340 4.19052E+03-5.05608E+05-1.71625E+04-4.85246E+02-4.97857E-09 1.73486E-09
 -1       356-3.72750E-01 1.43813E-01-1.21436E+00-9.86487E-01-1.52997E-07 2.36255E-11
 -1       357-6.64056E-01-2.68181E-01-2.56541E+00 3.97032E+00-3.06349E-07-8.08212E-10
 -1       358-3.09732E-01 1.25246E-01-4.85970E+00-9.86322E-01-1.82000E-07-3.54323E-10
 -1       359-1.24139E+00-8.47048E-01-1.01992E+01 3.97020E+00-5.74682E-08-3.42197E-10
 -1       360 2.04497E-01 7.22760E-01-1.94853E+01-9.86366E-01 5.37385E-08-8.08359E-10
 -1       361-4.50500E+00-5.49696E+00-4.16723E+01 3.97038E+00 1.64955E-07-1.56855E-09
 -1       362 2.95395E+00 4.77496E+00-7.80075E+01-9.86498E-01 2.19428E-07 7.87594E-10
 -1       363-2.24931E+01-3.58511E+01-1.71826E+02 3.97281E+00 2.73551E-07 9.82634E-10
 -1       364 1.81931E+01 3.10734E+01-3.11155E+02-9.88793E-01 2.68398E-07 1.03786E-09
 -1       365-1.25352E+02-2.31019E+02-7.17116E+02 3.99014E+00 2.64710E-07 2.41462E-09
 -1       366 1.05817E+02 1.99915E+02-1.23377E+03-1.00382E+00 2.03455E-07 2.98724E-09
 -1       367-7.31413E+02-1.47728E+03-3.04583E+03 4.09434E+00 1.43290E-07-1.47816E-09
 -1       368 6.24298E+02 1.27713E+03-4.84521E+03-1.09295E+00 4.90056E-08 6.42103E-10
 -1       369-4.38282E+03-9.40188E+03-1.32594E+04 4.68844E+00-4.79016E-08 2.18915E-09
 -1       370 3.75783E+03 8.12310E+03-1.87261E+04-1.59760E+00-2.09956E-08 2.75304E-09
 -1       376-5.56565E-01 8.89778E-01-5.30208E-01 9.06760E-01 4.72634E-07-1.77986E-07
 -1       377 3.12103E+00-3.23007E+00-9.43181E-01-3.41397E+00 9.42633E-07-3.55214E-07
 -1       378-5.33414E-01 8.67809E-01-1.68341E+00 9.26250E-01 2.52899E-07-9.36598E-08
 -1       379 2.78692E+00-3.57456E+00-3.74363E+00-3.40927E+00-4.37173E-07 1.64240E-07
 -1       380-2.22417E-01 1.23432E+00-7.24525E+00 9.02048E-01-1.25879E-06 4.73253E-07
 -1       381 7.80293E-01-6.37468E+00-1.67793E+01-3.06243E+00-2.07908E-06 7.79497E-07
 -1       382 1.47327E+00 3.66771E+00-3.17738E+01 5.79517E-01-2.85285E-06 1.06866E-06
 -1       383-1.08826E+01-2.43778E+01-7.62188E+01-2.92671E-01-3.62747E-06 1.35834E-06
 -1       384 1.14404E+01 1.92355E+01-1.38974E+02-1.86683E+00-4.30440E-06 1.61373E-06
 -1       385-8.16138E+01-1.39486E+02-3.50275E+02 1.90922E+01-4.98131E-06 1.86842E-06
 -1       386 7.22042E+01 1.18763E+02-6.04491E+02-1.87994E+01-5.47140E-06 2.05435E-06
 -1       387-5.11938E+02-8.71921E+02-1.63185E+03 1.51086E+02-5.95778E-06 2.23827E-06
 -1       388 4.41766E+02 7.51569E+02-2.60977E+03-1.33816E+02-5.86562E-06 2.19951E-06
 -1       389-3.15735E+03-5.52118E+03-7.73821E+03 1.02661E+03-5.76976E-06 2.16638E-06
 -1       390 2.71773E+03 4.76736E+03-1.11377E+04-8.93990E+02-2.88503E-06 1.08007E-06
 -1       406 1.67087E+02 2.13995E+05 5.58051E+02-7.31149E+01-8.24457E-10 2.81125E-09
 -1       407 2.00263E+02 2.14111E+05 1.00054E+03 7.47915E+01-5.20458E-10-5.08180E-10
 -1       408 4.81294E+02 2.13940E+05 1.91254E+03-1.51384E+00-1.10811E-09-1.32786E-10
 -1       409 2.01037E+03 2.14707E+05 4.26708E+03-6.78761E+01-8.37758E-10 1.05683E-09
 -1       410 5.80394E+03 2.13399E+05 8.68736E+03 7.25136E+01-1.34969E-09-5.91172E-10
 -1       501-2.40240E+05-3.10853E+04 6.67981E+04-4.02744E+03 7.13064E-09 6.44650E-09
 -1       502-1.84362E+05 3.50485E+04 5.17890E+04 1.07226E+04 7.47013E-09 9.26229E-09
 -1       503-2.19683E+05-3.89661E+03 1.74902E+04-5.04753E+03 4.42705E-09 5.76892E-09
 -1       504-1.84684E+05 6.05617E+03 1.66831E+04 6.77016E+03-9.47807E-10 5.44924E-09
 -1       505-2.39823E+05-2.20769E+03-4.12181E+02-7.46706E+01 1.04768E-09-2.56227E-09
 -1       506-1.82402E+05 1.80001E+03 9.04957E+03-3.92623E+03 1.23799E-08-7.93284E-09
 -1       507-2.21931E+05 3.22930E+02-1.46564E+02 5.64741E+03 1.26084E-08-1.05703E-08
 -1       508-2.01800E+05-8.07393E+02 2.97299E+03-9.81192E+03 5.40556E-09-1.39840E-08
 -1       509-2.20575E+05 5.48801E+02-6.18844E+02 5.81274E+03 1.13874E-08-1.08643E-08
 -1       510-1.83868E+05 9.73592E+02 6.66110E+03-4.43711E+03 9.23525E-09-1.15531E-08
 -1       511-2.39722E+05-1.59897E+03-4.33448E+03 2.70900E+02-1.87870E-09-1.62882E-09
 -1       512-1.85743E+05 1.47088E+03 7.27495E+03 6.33423E+03-7.50263E-09 4.06595E-09
 -1       513-2.18718E+05 6.92770E+01 1.83586E+03-4.95721E+03-4.38781E-09 6.95923E-09
 -1       514-1.98656E+05 5.00089E+03 9.42320E+03 1.07536E+04-4.59120E-09 8.94374E-09
 -1       515-2.26928E+05-5.00799E+03 7.31473E+03-4.14878E+03-6.71511E-09 6.23777E-09
 -1       521-2.33426E+06-3.03260E+05-1.48226E+05-8.98825E+05-3.72893E-10 3.63798E-11
 -1       522-2.37907E+06-4.02974E+05-9.29342E+04-9.07101E+05 1.39357E-09-2.01453E-09
 -1       523-2.35996E+06-3.35015E+05-3.49395E+04-8.95047E+05-5.34612E-10-8.82210E-10
 -1       524-2.34926E+06-3.61014E+05-1.90769E+04-9.14177E+05 4.42583E-10 1.37334E-09
 -1       525-2.36309E+06-3.38060E+05-8.12273E+03-8.94455E+05 9.00400E-11-3.10592E-10
 -1       526-2.34564E+06-3.57066E+05-4.29953E+03-9.15155E+05-6.13397E-10-5.42002E-10
 -1       527-2.36353E+06-3.38311E+05-2.23588E+03-8.94332E+05-2.49031E-10-8.17941E-10
 -1       528-2.34529E+06-3.56667E+05-1.80101E+03-9.15177E+05-1.95018E-09-3.21279E-09
 -1       529-2.36342E+06-3.38421E+05-2.22438E+03-8.94446E+05-1.20690E-09-4.46926E-09
 -1       530-2.34599E+06-3.56667E+05-4.25783E+03-9.14658E+05-1.51090E-09-1.85082E-09
 -1       531-2.36277E+06-3.38390E+05-8.04890E+03-8.94791E+05 1.63709E-11 1.06047E-09
 -1       532-2.34993E+06-3.60185E+05-1.88773E+04-9.13208E+05-2.91948E-10 1.91721E-09
 -1       533-2.35947E+06-3.35583E+05-3.45892E+04-8.95594E+05-9.04947E-10-4.94765E-10
 -1       534-2.37980E+06-4.01313E+05-9.19621E+04-9.05732E+05-5.28416E-10-1.36060E-09
 -1       535-2.33384E+06-3.04369E+05-1.46699E+05-8.99554E+05-7.93079E-10 3.56522E-10
 -1       536-3.08380E+03-7.32246E+03 2.95265E+04-5.56427E+03 4.42014E-10-6.56655E-10
 -1       537 7.92794E+03 9.52898E+03 1.90662E+04-2.40189E+04-1.91312E-09-3.01452E-09
 -1       538 1.39470E+03-8.13679E+02 7.64133E+03-5.48220E+03 1.13687E-10 1.86446E-10
 -1       539 2.79640E+03 9.38204E+02 4.30205E+03-2.41064E+04 1.06115E-09 1.51169E-09
 -1       540 1.90296E+03-1.07865E+02 1.92062E+03-5.47447E+03-4.54747E-12-1.80762E-10
 -1       541 2.12362E+03 8.81002E+01 1.01645E+03-2.41133E+04 1.01863E-10-3.61752E-10
 -1       542 1.96164E+03-1.67251E+01 4.61151E+02-5.47539E+03 3.43334E-10 4.29736E-11
 -1       543 1.99038E+03 1.80762E+01 2.11538E+02-2.41119E+04-4.20528E-10-8.35598E-10
 -1       544 1.96825E+03 2.83194E+00 4.36305E+01-5.47592E+03 3.67322E-10-5.78666E-10
 -1       545 1.94206E+03 4.26729E+00-9.99541E+01-2.41114E+04-4.89194E-10 1.11629E-09
 -1       546 1.97985E+03 1.78394E+01-2.76697E+02-5.47597E+03-1.63624E-10 2.29619E-09
 -1       547 1.85160E+03-1.38572E+02-6.66118E+02-2.41085E+04-4.87148E-10 1.48566E-09
 -1       548 2.06644E+03 1.20611E+02-1.21094E+03-5.47880E+03-5.84350E-10 2.27124E-09
 -1       549 1.09007E+03-1.51952E+03-3.01920E+03-2.40632E+04-2.89333E-10-5.39785E-10
 -1       550 2.78697E+03 1.13344E+03-4.69990E+03-5.52118E+03 1.73713E-10 8.66294E-10
 -1       551 5.87984E+03-2.03802E+05 1.56569E+04-3.24332E+05 3.20142E-10-1.30422E-09
 -1       552 3.91303E+03-2.01251E+05 1.55199E+04-3.95786E+05-3.55431E-09 4.26007E-09
 -1       553 2.71805E+03-2.03982E+05 2.17868E+04-3.23711E+05 7.85803E-10 6.47287E-09
 -1       554 1.31950E+04-1.94604E+05 4.40660E+04-3.95870E+05-3.45972E-09 8.17454E-09
 -1       555 3.35739E+04-2.10830E+05 8.36123E+04-3.24180E+05 6.11180E-10 2.06091E-09
 -1       556-7.97654E+04-6.80512E+04 1.61734E+04-1.13532E+05 2.80124E-10 4.80213E-09
 -1       557-6.41220E+04-8.33722E+04 8.14146E+03-1.25785E+05 2.39015E-09 6.62294E-09
 -1       558-7.97341E+04-7.21725E+04 3.41348E+03-1.10820E+05-1.20417E-09 1.14960E-09
 -1       559-6.58028E+04-8.57937E+04 1.68640E+03-1.26419E+05 1.23691E-09 1.56092E-09
 -1       560-7.99072E+04-7.21247E+04 7.48350E+02-1.10842E+05 8.00355E-11 1.49112E-09
 -1       561-6.61409E+04-8.58004E+04 3.63715E+02-1.26648E+05-5.71163E-10 1.66642E-09
 -1       562-8.00597E+04-7.20119E+04 1.42109E+02-1.10949E+05-3.47427E-10 2.15482E-09
 -1       563-6.63127E+04-8.57279E+04 3.37184E+01-1.26766E+05 2.58296E-10 2.52999E-09
 -1       564-8.01498E+04-7.19470E+04-7.33912E+01-1.11014E+05 6.23913E-10-3.06045E-10
 -1       565-6.64045E+04-8.56927E+04-2.20567E+02-1.26823E+05-3.46904E-09-3.49974E-09
 -1       566-8.01637E+04-7.19203E+04-4.89869E+02-1.11033E+05-1.72668E-09 2.85763E-09
 -1       567-6.64940E+04-8.57274E+04-1.08900E+03-1.26813E+05-6.15728E-10 1.91994E-09
 -1       568-8.00509E+04-7.20408E+04-2.23861E+03-1.10964E+05-1.17416E-09-2.54749E-09
 -1       569-6.77915E+04-8.68854E+04-5.27740E+03-1.26418E+05-1.20826E-09-6.80302E-10
 -1       570-7.92523E+04-7.53454E+04-1.05411E+04-1.09594E+05-3.14685E-10-6.82121E-13
 -1       571 1.37652E+05 6.08510E+03 9.11590E+03-3.51374E+04 3.23780E-10-7.23844E-10
 -1       572 1.39024E+05 2.10230E+03 4.46962E+03-3.85933E+04 7.18956E-10 1.19030E-09
 -1       573 1.38208E+05 4.90387E+02 1.98649E+03-3.50462E+04 2.12367E-10 6.79620E-10
 -1       574 1.38373E+05 1.55656E+02 9.95692E+02-3.86948E+04-3.22075E-10-7.13044E-10
 -1       575 1.38272E+05 1.70937E+01 4.69569E+02-3.50343E+04-2.61252E-10 8.93124E-10
 -1       576 1.38287E+05 1.48406E+00 2.38670E+02-3.87083E+04-9.40759E-11 1.44109E-09
 -1       577 1.38282E+05-7.06737E+00 1.16968E+02-3.50327E+04-1.42677E-10 1.97315E-09
 -1       578 1.38278E+05-5.25141E+00 6.24156E+01-3.87099E+04 1.08798E-10 3.09774E-09
 -1       579 1.38290E+05-7.16385E+00 3.58351E+01-3.50327E+04-2.63753E-11-1.04137E-10
 -1       580 1.38287E+05-8.28495E+00 2.94962E+01-3.87077E+04 4.37922E-10 1.57752E-09
 -1       581 1.38302E+05-1.12015E+01 3.58099E+01-3.50348E+04-7.91260E-10-1.22236E-09
 -1       582 1.38309E+05-7.21582E+00 6.49625E+01-3.86864E+04-3.32875E-10-4.52246E-10
 -1       583 1.38317E+05 7.65202E+00 1.22700E+02-3.50540E+04 2.11003E-10 1.25408E-09
 -1       584 1.38372E+05 1.00886E+02 2.74129E+02-3.85254E+04-8.51287E-10 1.23589E-09
 -1       585 1.38305E+05 3.40288E+02 5.55593E+02-3.51960E+04 4.36557E-10 1.24601E-10
 -1       586 7.43433E+02 6.33073E+04 1.52247E+03-8.49306E+04 2.50111E-10-2.79215E-10
 -1       587 4.52425E+02 6.35779E+04 1.70829E+03-9.42777E+04-4.72937E-10 3.71210E-09
 -1       588 6.33555E+02 6.32615E+04 2.68972E+03-8.48180E+04 2.92857E-10-5.77359E-09
 -1       589 2.52582E+03 6.43201E+04 5.69138E+03-9.43080E+04-5.83896E-10-1.98861E-08
 -1       590 7.30122E+03 6.25419E+04 1.14059E+04-8.48987E+04 3.47427E-10-1.16549E-08
 -1       591-6.93459E+04-2.06058E+04-1.34982E+04-3.32337E+04 3.39924E-11 6.42103E-10
 -1       592-7.01961E+04-1.98548E+04-6.76899E+03-3.68828E+04-7.75344E-11-9.09495E-13
 -1       593-6.99933E+04-1.66711E+04-2.87381E+03-3.51772E+04 9.68271E-10-2.57046E-09
 -1       594-6.86729E+04-1.81630E+04-1.41121E+03-3.70180E+04 1.43928E-09-2.53338E-09
 -1       595-7.00664E+04-1.65642E+04-6.51227E+02-3.52514E+04 4.91752E-09 2.40266E-09
 -1       596-6.85678E+04-1.81037E+04-3.29349E+02-3.70027E+04 4.91099E-09 5.44162E-09
 -1       597-7.00788E+04-1.65757E+04-1.77483E+02-3.52514E+04 4.35119E-09 7.39215E-09
 -1       598-6.85570E+04-1.81044E+04-1.38509E+02-3.69979E+04 1.75623E-09-3.27043E-09
 -1       599-7.00781E+04-1.65764E+04-1.71551E+02-3.52509E+04 5.79530E-09-2.46746E-09
 -1       600-6.85661E+04-1.81046E+04-3.13797E+02-3.70011E+04 1.26556E-08 3.80828E-09
 -1       601-7.00646E+04-1.65663E+04-6.17579E+02-3.52501E+04 7.58314E-09-4.41219E-09
 -1       602-6.86656E+04-1.81599E+04-1.33723E+03-3.70126E+04 4.88990E-09-8.01037E-09
 -1       603-6.99930E+04-1.66701E+04-2.72231E+03-3.51806E+04 3.82329E-09-2.94676E-10
 -1       604-7.01233E+04-1.97458E+04-6.41131E+03-3.68641E+04 2.45223E-10-6.64841E-10
 -1       605-6.93621E+04-2.04113E+04-1.27844E+04-3.33561E+04 5.78666E-10-7.45786E-10
 -1       606 5.03908E+04-5.67532E+03-8.89808E+03 1.64201E+04-3.12730E-09-4.35193E-10
 -1       607 4.89854E+04-1.91426E+03-4.37799E+03 1.80031E+04-6.90306E-10 8.51003E-10
 -1       608 4.98036E+04-4.10840E+02-1.94987E+03 1.63074E+04 1.83809E-09 1.67483E-09
 -1       609 4.96214E+04-1.18298E+02-9.78703E+02 1.81285E+04-9.22228E-10-1.02568E-09
 -1       610 4.97264E+04 7.12497E-01-4.62662E+02 1.62932E+04-2.91584E-09 1.14437E-09
 -1       611 4.96907E+04 1.55535E+01-2.32703E+02 1.81440E+04-5.05997E-09 1.29012E-09
 -1       612 4.97089E+04 2.03962E+01-1.10004E+02 1.62916E+04-2.65527E-09 3.41856E-10
 -1       613 4.96953E+04 2.13371E+01-4.92136E+01 1.81460E+04-3.70233E-09 2.69188E-09
 -1       614 4.97009E+04 1.90001E+01-1.13148E+01 1.62912E+04-4.71118E-10-1.23828E-09
 -1       615 4.96936E+04 2.24468E+01 2.11668E+01 1.81462E+04 3.86717E-09-2.35309E-09
 -1       616 4.96946E+04 2.21304E+01 6.30801E+01 1.62914E+04-2.75531E-09-3.29612E-09
 -1       617 4.97019E+04 4.33632E+01 1.44942E+02 1.81457E+04 8.64020E-12-2.94040E-09
 -1       618 4.96813E+04 8.49455E+01 2.93879E+02 1.62917E+04 2.62389E-10-1.42609E-09
 -1       619 4.97978E+04 3.15992E+02 6.63100E+02 1.81429E+04 7.26232E-10 6.46651E-10
 -1       620 4.95923E+04 8.83499E+02 1.34889E+03 1.62933E+04 2.28357E-09 3.94039E-10
 -1       621 4.62318E+02 1.44657E+05 1.63303E+03-1.19422E+04 7.12703E-10-3.02521E-10
 -1       622 2.08024E+02 1.44986E+05 1.73836E+03-1.46148E+04-4.94424E-10 3.79646E-09
 -1       623 1.32170E+02 1.44693E+05 2.58214E+03-1.19447E+04 6.60748E-10-5.22959E-11
 -1       624 1.36194E+03 1.45843E+05 5.32204E+03-1.45683E+04-2.58751E-10-2.83762E-10
 -1       625 3.91760E+03 1.43807E+05 1.01596E+04-1.19877E+04 6.08679E-10-9.07676E-10
 -1       626 8.96330E+04 2.93972E+04-1.34501E+03 5.72458E+04 2.02499E-09 5.99084E-09
 -1       627 8.76834E+04 3.16436E+04-6.39655E+02 5.90263E+04 5.54792E-10 1.40705E-09
 -1       628 8.97075E+04 2.99829E+04-2.68774E+02 5.68557E+04 1.67347E-10 1.78522E-09
 -1       629 8.77112E+04 3.19790E+04-1.27486E+02 5.90771E+04-1.96815E-09-1.16678E-08
 -1       630 8.97050E+04 3.00215E+04-5.39249E+01 5.68195E+04 9.91849E-09 1.54318E-08
 -1       631 8.77038E+04 3.20067E+04-1.86270E+01 5.90817E+04-6.84395E-11-1.15875E-09
 -1       632 8.96981E+04 3.00236E+04 7.46890E+00 5.68139E+04-1.46520E-09-8.32244E-09
 -1       633 8.77010E+04 3.20091E+04 3.75242E+01 5.90811E+04-6.35282E-10-2.60980E-09
 -1       634 8.96917E+04 3.00205E+04 8.69313E+01 5.68123E+04 2.70552E-09 6.96707E-09
 -1       635 8.77094E+04 3.20109E+04 1.93180E+02 5.90829E+04-4.05691E-10 2.07615E-09
 -1       636 8.96829E+04 3.00266E+04 3.99030E+02 5.68070E+04-2.89421E-09 5.13865E-11
 -1       637 8.78015E+04 3.21085E+04 8.88325E+02 5.90695E+04 3.47598E-11 1.54591E-09
 -1       638 8.96586E+04 3.03238E+04 1.83791E+03 5.66762E+04-4.78622E-10-2.22599E-09
 -1       639 8.87399E+04 3.36865E+04 4.36848E+03 5.86920E+04 1.87583E-11-1.06320E-09
 -1       640 8.96686E+04 3.49237E+04 9.18502E+03 5.47576E+04-3.25554E-09-8.60928E-09
 -1       641-3.61466E+03 1.58765E+03-3.65984E+03-9.27619E+00 9.65759E-06-5.63591E-09
 -1       642-5.20331E+03-1.83751E+03-2.58937E+03 2.07201E+01 1.92982E-05-1.39332E-08
 -1       643-4.22672E+03 2.49519E+02-9.42806E+02-9.53909E+00 1.78233E-05-1.44336E-08
 -1       644-4.48974E+03-2.87975E+02-5.86056E+02 2.13379E+01 1.63392E-05-1.09335E-08
 -1       645-4.32826E+03 3.84185E+01-2.23513E+02-9.89438E+00 1.13657E-05-8.88616E-09
 -1       646-4.36867E+03-4.01517E+01-1.02363E+02 2.18235E+01 6.38658E-06-3.54614E-09
 -1       647-4.34779E+03 1.73925E+00 9.94912E+00-1.00248E+01-5.10997E-07 9.26619E-10
 -1       648-4.33223E+03 2.55363E+01 1.22312E+02 2.17992E+01-7.41252E-06 7.98852E-09
 -1       649-4.36470E+03-2.72613E+01 2.67023E+02-9.87004E+00-1.56556E-05 1.70092E-08
 -1       650-4.23501E+03 2.08536E+02 6.42536E+02 2.11588E+01-2.39007E-05 2.01237E-08
 -1       651-4.44501E+03-1.81235E+02 1.11546E+03-9.38444E+00-3.24277E-05 2.69829E-08
 -1       652-3.68379E+03 1.34013E+03 2.76155E+03 1.96618E+01-4.09475E-05 2.74529E-08
 -1       653-4.91590E+03-1.15865E+03 4.39480E+03-8.37309E+00-4.52682E-05 3.63193E-08
 -1       654-3.69869E+02 8.52983E+03 1.20296E+04 1.60504E+01-4.95646E-05 3.14037E-08
 -1       655-7.75851E+03-7.36952E+03 1.69911E+04-5.77345E+00-2.48022E-05 1.38634E-08
 -1       656 5.68850E+03-2.11117E+05-2.41417E+04 5.73337E+03-3.33785E-10 1.63209E-09
 -1       657-8.25008E+03-2.20059E+05-1.78726E+04 2.46744E+04-1.18416E-09-1.90141E-10
 -1       658 1.16544E+03-2.14227E+05-1.15716E+04 5.68835E+03-3.05334E-10 7.81313E-10
 -1       659-8.01820E+03-2.19938E+05-1.74782E+04 2.47009E+04 1.92813E-10-8.51763E-11
 -1       660 5.50575E+03-2.11253E+05-2.33972E+04 5.70711E+03-1.43791E-09 5.03746E-10
 -1       661 1.37147E+05 1.89626E+04 1.08152E+04 5.36919E+04 5.35306E-09 6.49334E-09
 -1       662 1.39533E+05 2.51862E+04 6.51297E+03 5.52153E+04-2.25949E-09 2.91857E-09
 -1       663 1.38808E+05 2.05743E+04 2.53838E+03 5.37004E+04-1.18602E-09 5.41149E-11
 -1       664 1.37590E+05 2.25744E+04 1.33955E+03 5.55209E+04 3.16236E-09-1.87717E-09
 -1       665 1.38968E+05 2.07212E+04 5.92861E+02 5.37066E+04 1.74832E-09-2.62995E-09
 -1       666 1.37405E+05 2.23571E+04 3.15649E+02 5.55340E+04 2.39590E-09-3.73427E-09
 -1       667 1.38985E+05 2.07358E+04 1.84028E+02 5.37081E+04 1.07640E-09 4.62808E-09
 -1       668 1.37388E+05 2.23420E+04 1.77121E+02 5.55344E+04 2.13834E-09-5.28274E-10
 -1       669 1.38984E+05 2.07337E+04 2.58930E+02 5.37073E+04-2.77726E-09-2.11614E-09
 -1       670 1.37422E+05 2.23736E+04 5.18132E+02 5.55385E+04-1.76342E-09-1.06945E-09
 -1       671 1.38954E+05 2.07066E+04 1.01427E+03 5.37036E+04-1.57172E-10-5.71276E-10
 -1       672 1.37744E+05 2.27524E+04 2.31632E+03 5.55185E+04 8.13455E-09 3.53339E-09
 -1       673 1.38677E+05 2.04507E+04 4.39817E+03 5.36918E+04-2.75122E-10-8.10132E-10
 -1       674 1.41111E+05 2.72842E+04 1.12925E+04 5.49920E+04-3.59549E-10 1.94632E-10
 -1       675 1.35797E+05 1.76542E+04 1.87530E+04 5.36753E+04-1.22168E-09-2.82944E-09
 -1       676 3.05225E+02-2.08411E+05-1.79986E+03-2.78714E+01-2.17458E-10 2.28105E-09
 -1       677-8.24665E+02-2.09152E+05-2.65790E+03-5.36699E+02-7.05739E-10 4.13716E-09
 -1       678 3.95951E+02-2.08321E+05-3.91399E+03-2.84210E+01-1.79625E-10 3.38127E-09
 -1       679-4.66150E+03-2.11387E+05-9.29956E+03-5.34852E+02 2.85127E-09-3.24398E-11
 -1       680 3.48752E+03-2.06176E+05-1.42785E+04-3.00856E+01-6.14818E-10 9.82581E-10
 -1       716-1.61515E-01-7.70041E-02 7.22711E+00-1.58497E-04 5.27580E-09-1.85411E-09
 -1       717 7.95375E-01 5.80036E-01 1.27283E+01 4.03775E-04-1.59555E-10-7.46985E-10
 -1       718-6.33873E-01-5.03246E-01 2.36202E+01-2.45053E-04 1.97388E-09-7.65557E-10
 -1       719 3.75569E+00 3.95097E+00 4.89927E+01-3.66184E-04-1.11322E-09-9.04944E-10
 -1       720-3.12188E+00-3.44815E+00 9.34425E+01 6.11524E-04-2.81973E-09-2.09002E-09
 -1       721 1.94380E+01 2.63255E+01 1.99703E+02-1.29151E-02-4.90233E-09-6.63604E-10
 -1       722-1.63163E+01-2.28769E+01 3.73777E+02 1.23017E-02-3.48134E-09-1.69986E-09
 -1       723 1.05683E+02 1.71776E+02 8.23301E+02-1.23932E-01 3.11167E-10-9.38044E-10
 -1       724-8.93653E+01-1.48882E+02 1.49086E+03 1.11600E-01-2.59773E-09-1.44752E-09
 -1       725 5.98611E+02 1.10690E+03 3.43599E+03-9.53090E-01-3.70706E-09-4.58726E-11
 -1       726-5.09206E+02-9.57841E+02 5.91160E+03 8.41240E-01-3.67620E-09-1.33900E-09
 -1       727 3.50271E+03 7.07814E+03 1.45939E+04-6.70431E+00-2.88444E-09-5.85715E-10
 -1       728-2.99276E+03-6.11894E+03 2.32175E+04 5.86193E+00 2.23137E-10-1.17416E-09
 -1       729 2.09984E+04 4.50468E+04 6.35331E+04-4.50936E+01 4.43023E-11-9.82254E-11
 -1       730-1.79928E+04-3.89162E+04 8.97659E+04 3.92338E+01 3.47492E-09-1.62254E-09
 -1       766-3.89240E+04-1.80125E+04 8.97502E+04-1.69234E+01 3.27418E-11 7.74598E-10
 -1       767 4.51107E+04 2.10244E+04 6.35256E+04-5.27034E+01 2.89674E-09-8.68255E-10
 -1       768-6.17511E+03-3.03785E+03 2.31425E+04 1.89763E+01-1.99179E-10-1.97034E-11
 -1       769 7.49055E+03 3.68519E+03 1.45982E+04-9.37268E+01 2.72985E-09 3.07465E-09
 -1       770-1.31386E+03-6.85194E+02 5.57658E+03 2.41025E+01 3.09228E-11 1.13396E-09
 -1       771-1.13680E+06-2.21488E+05-3.25457E+04-4.90294E+05-3.88900E-09-9.67702E-10
 -1       772-1.13178E+06-2.26487E+05-1.62933E+04-5.06920E+05-1.43154E-09 2.49202E-09
 -1       773-1.13888E+06-2.11593E+05-6.94980E+03-4.94709E+05-2.02999E-09 8.74934E-10
 -1       774-1.12797E+06-2.22736E+05-3.39966E+03-5.07878E+05-3.26145E-09-7.34713E-09
 -1       775-1.13928E+06-2.11172E+05-1.58615E+03-4.94943E+05-2.29193E-10 1.06866E-10
 -1       776-1.12784E+06-2.22588E+05-7.94636E+02-5.08063E+05 9.36780E-11-8.53333E-10
 -1       777-1.13947E+06-2.11098E+05-4.35806E+02-4.95008E+05 2.61934E-10 7.03949E-10
 -1       778-1.12791E+06-2.22562E+05-3.29686E+02-5.08189E+05-1.01954E-09 2.16318E-10
 -1       779-1.13958E+06-2.11032E+05-4.11178E+02-4.95053E+05-2.18279E-11 6.59384E-11
 -1       780-1.12800E+06-2.22547E+05-7.43831E+02-5.08278E+05-1.43700E-10-3.99268E-10
 -1       781-1.13960E+06-2.10973E+05-1.46839E+03-4.95073E+05-6.21185E-10-7.28505E-10
 -1       782-1.12826E+06-2.22671E+05-3.18146E+03-5.08329E+05-2.06455E-10-3.51065E-10
 -1       783-1.13943E+06-2.11223E+05-6.48388E+03-4.94912E+05-1.41267E-09-1.22236E-09
 -1       784-1.13177E+06-2.26414E+05-1.52813E+04-5.07899E+05-1.64164E-09-2.14641E-09
 -1       785-1.13784E+06-2.20208E+05-3.04826E+04-4.90596E+05 1.32331E-10 6.54836E-10
 -1       786 1.09701E+05-3.47480E+03 1.41969E+04-8.37300E+02 4.66116E-12-8.91305E-10
 -1       787 1.14882E+05 4.61158E+03 9.15191E+03-3.68332E+03-1.57797E-10-2.28465E-09
 -1       788 1.11859E+05-3.67341E+02 3.68181E+03-8.32171E+02-6.31530E-11-1.95109E-09
 -1       789 1.12471E+05 4.70161E+02 2.06747E+03-3.68657E+03 9.73159E-11 3.36956E-09
 -1       790 1.12110E+05-4.03172E+01 9.35995E+02-8.33922E+02-8.68283E-11 8.59870E-10
 -1       791 1.12187E+05 4.74676E+01 5.03837E+02-3.68401E+03 5.57371E-10 8.18588E-10
 -1       792 1.12143E+05-5.01941E+00 2.57281E+02-8.34729E+02-2.04068E-10-8.64233E-10
 -1       793 1.12151E+05 6.48482E+00 1.70918E+02-3.68366E+03 9.03810E-11 5.04897E-10
 -1       794 1.12146E+05-2.73305E+00 1.57151E+02-8.34268E+02 2.33513E-10 2.67953E-10
 -1       795 1.12162E+05 2.03054E+01 2.39186E+02-3.68602E+03-4.61341E-10 1.72943E-09
 -1       796 1.12133E+05-1.75464E+01 4.11126E+02-8.32374E+02 2.76998E-10-1.28031E-09
 -1       797 1.12283E+05 2.00021E+02 8.88337E+02-3.69015E+03 1.39266E-11-6.33733E-10
 -1       798 1.12026E+05-1.57332E+02 1.57393E+03-8.30138E+02-8.79368E-10 7.91431E-10
 -1       799 1.13313E+05 1.96700E+03 3.90719E+03-3.68659E+03-7.64686E-10-3.64935E-10
 -1       800 1.11105E+05-1.48396E+03 6.05869E+03-8.36012E+02 5.62977E-10-5.57066E-10
 -1       801-5.50067E+03 1.13706E+05 1.79119E+04-1.61608E+05 3.71074E-10 2.61571E-09
 -1       802 1.45622E+04 1.18802E+05 2.42620E+04-7.06114E+05 8.38190E-09 2.85218E-09
 -1       803-1.18841E+03 1.12320E+05 3.07743E+04-1.61078E+05 4.58203E-09 4.74540E-09
 -1       804 4.10310E+04 1.34334E+05 7.01455E+04-7.06065E+05 5.59885E-09-2.20462E-09
 -1       805-2.75191E+04 9.83018E+04 1.04136E+05-1.61663E+05 4.26735E-09-6.18456E-11
 -1       806-1.02336E+05-3.03758E+04-8.56967E+03-5.16710E+04 3.73711E-09 6.25460E-09
 -1       807-1.02006E+05-2.86832E+04-4.07531E+03-5.47323E+04 1.43700E-10-3.92731E-10
 -1       808-1.02329E+05-2.60864E+04-1.71511E+03-5.34702E+04-2.80966E-09-7.77140E-09
 -1       809-1.01143E+05-2.72020E+04-8.29242E+02-5.50811E+04-2.05546E-10-1.53420E-10
 -1       810-1.02354E+05-2.58074E+04-3.74370E+02-5.35950E+04-4.44402E-10-5.01643E-10
 -1       811-1.01060E+05-2.71094E+04-1.84817E+02-5.50945E+04-4.25757E-10 2.58524E-10
 -1       812-1.02362E+05-2.58012E+04-9.10171E+01-5.36001E+04-4.74870E-10-2.09820E-09
 -1       813-1.01051E+05-2.71081E+04-5.63527E+01-5.50919E+04-1.00215E-09 2.62844E-10
 -1       814-1.02362E+05-2.58039E+04-5.09066E+01-5.35991E+04-1.38778E-09 1.08571E-09
 -1       815-1.01053E+05-2.71103E+04-7.83363E+01-5.50903E+04-1.16506E-09-1.31899E-09
 -1       816-1.02357E+05-2.58085E+04-1.45913E+02-5.35961E+04-8.83801E-09 2.83330E-09
 -1       817-1.01086E+05-2.71422E+04-3.17093E+02-5.50781E+04-9.91156E-09 2.23881E-08
 -1       818-1.02341E+05-2.59206E+04-6.52950E+02-5.35518E+04-7.57109E-09 4.43652E-09
 -1       819-1.01449E+05-2.76677E+04-1.54948E+03-5.48991E+04 6.13227E-10 2.22417E-09
 -1       820-1.02305E+05-2.75853E+04-3.25727E+03-5.29054E+04-8.73115E-11 2.51941E-09
 -1       821-1.43453E+05 4.30320E+03-1.75897E+04 1.01441E+03-9.74524E-10 6.60293E-10
 -1       822-1.49867E+05-5.71330E+03-1.13391E+04 4.53953E+03-8.87439E-10 6.30962E-10
 -1       823-1.46128E+05 4.54151E+02-4.56392E+03 9.88864E+02 8.15021E-10 7.51470E-10
 -1       824-1.46885E+05-5.79616E+02-2.56520E+03 4.57298E+03-2.79215E-10 2.01271E-09
 -1       825-1.46440E+05 5.01681E+01-1.16834E+03 9.80772E+02-2.72632E-09 3.63457E-10
 -1       826-1.46537E+05-5.45304E+01-6.41540E+02 4.58594E+03-5.98840E-09-3.71870E-10
 -1       827-1.46480E+05 7.48561E+00-3.53369E+02 9.75858E+02-2.92391E-09 1.10221E-09
 -1       828-1.46498E+05-5.49885E+00-2.83234E+02 4.59366E+03-3.66330E-09 2.06986E-09
 -1       829-1.46481E+05 7.35037E+00-3.33745E+02 9.73039E+02-8.84825E-10 8.71315E-10
 -1       830-1.46535E+05-4.82623E+01-5.90076E+02 4.59675E+03 2.10058E-09-3.21549E-09
 -1       831-1.46445E+05 4.66610E+01-1.06575E+03 9.72769E+02-1.20320E-09-1.59059E-09
 -1       832-1.46853E+05-5.25055E+02-2.33568E+03 4.59462E+03 4.98943E-11-1.19260E-09
 -1       833-1.46162E+05 4.14782E+02-4.15272E+03 9.75219E+02 5.45526E-10 4.35193E-10
 -1       834-1.49568E+05-5.19534E+03-1.03176E+04 4.57982E+03 1.97588E-10-3.04988E-09
 -1       835-1.43728E+05 3.91753E+03-1.60036E+04 9.87962E+02 9.08415E-10-8.34916E-10
 -1       836-2.24773E+03 2.32329E+05 1.91568E+04-1.15936E+04-9.37689E-10 3.11593E-09
 -1       837 4.86774E+03 2.38648E+05 1.47788E+04-2.75301E+04-9.40474E-10 1.07320E-10
 -1       838-5.37262E+02 2.34400E+05 1.22801E+04-1.15610E+04-1.42199E-09-4.30095E-09
 -1       839 7.83691E+03 2.40693E+05 2.11218E+04-2.75299E+04-9.37689E-10-1.30331E-09
 -1       840-3.89471E+03 2.30283E+05 3.17482E+04-1.15936E+04-1.18598E-09-2.50520E-09
 -1       841 3.63769E+04 5.25737E+03-3.76581E+02 1.35690E+04-1.00382E-05 3.76593E-06
 -1       842 3.61210E+04 4.97274E+03-2.59485E+02 1.37055E+04-2.00629E-05 7.53324E-06
 -1       843 3.62924E+04 5.13201E+03-8.65181E+01 1.36065E+04-1.60577E-05 6.02671E-06
 -1       844 3.62228E+04 5.11446E+03-5.06531E+01 1.36577E+04-1.20352E-05 4.52271E-06
 -1       845 3.62751E+04 5.11567E+03-1.22012E+01 1.36168E+04-8.51344E-06 3.19555E-06
 -1       846 3.62466E+04 5.13412E+03 7.26127E+00 1.36432E+04-4.99257E-06 1.87494E-06
 -1       847 3.62685E+04 5.11236E+03 3.15075E+01 1.36210E+04-3.05071E-06 1.14520E-06
 -1       848 3.62659E+04 5.15487E+03 8.42187E+01 1.36352E+04-1.10503E-06 4.17946E-07
 -1       849 3.62558E+04 5.09493E+03 1.57172E+02 1.36248E+04-3.17323E-07 1.19574E-07
 -1       850 3.63470E+04 5.28653E+03 3.98345E+02 1.36130E+04 4.69126E-07-1.77981E-07
 -1       851 3.61874E+04 4.98071E+03 6.88135E+02 1.36431E+04 3.35063E-07-1.26363E-07
 -1       852 3.68344E+04 6.12393E+03 1.85830E+03 1.34666E+04 2.02098E-07-7.63445E-08
 -1       853 3.57684E+04 4.25764E+03 2.97176E+03 1.37712E+04-7.36133E-07 2.77151E-07
 -1       854 3.98406E+04 1.14258E+04 8.81221E+03 1.24786E+04-1.67547E-06 6.27377E-07
 -1       855 3.31814E+04-3.20326E+02 1.26839E+04 1.46308E+04-8.36495E-07 3.15190E-07
 -1       856-1.20390E+05 1.77270E+03-1.41201E+04 4.10909E+03-6.11021E-09-5.01041E-09
 -1       857-1.25004E+05-3.41344E+03-8.62450E+03 9.81478E+03-6.42831E-09-7.26686E-10
 -1       858-1.22384E+05 1.62431E+02-3.62534E+03 4.06536E+03-1.72759E-09-1.85514E-09
 -1       859-1.22836E+05-2.43965E+02-1.95100E+03 9.86388E+03 3.20688E-09-1.00545E-09
 -1       860-1.22573E+05 2.37567E+01-9.15536E+02 4.05931E+03-1.93609E-09 1.61492E-10
 -1       861-1.22632E+05-2.22051E+00-4.82008E+02 9.87172E+03-7.18887E-09 1.73878E-09
 -1       862-1.22597E+05 1.01180E+01-2.52320E+02 4.05743E+03 3.03396E-09-9.85438E-10
 -1       863-1.22610E+05 1.57950E+01-1.68380E+02 9.87389E+03 1.33850E-08-1.68319E-09
 -1       864-1.22599E+05 9.09286E+00-1.60552E+02 4.05713E+03 6.86137E-09-1.36771E-09
 -1       865-1.22617E+05 8.35307E+00-2.44574E+02 9.87251E+03 4.49020E-09 6.35140E-10
 -1       866-1.22588E+05 1.46727E+01-4.33005E+02 4.05881E+03-9.98170E-11 6.19963E-10
 -1       867-1.22708E+05-1.03877E+02-9.04704E+02 9.86617E+03-1.12817E-09-5.70315E-10
 -1       868-1.22500E+05 7.75109E+01-1.67393E+03 4.06351E+03 3.51292E-09-4.29054E-10
 -1       869-1.23703E+05-1.56616E+03-3.97624E+03 9.82158E+03-2.43642E-09 1.24828E-10
 -1       870-1.21580E+05 8.17925E+02-6.50949E+03 4.10376E+03-1.89857E-10-6.45741E-11
 -1       871-1.96567E+03-1.62063E+04-4.24071E+03 5.93542E+04 1.15051E-09-1.86583E-09
 -1       872-6.51029E+02-1.70328E+04-1.31427E+03 7.16085E+04 1.60026E-09-2.33536E-09
 -1       873 2.22555E+01-1.67054E+04 1.12203E+03 5.92310E+04 6.71889E-10-1.37470E-09
 -1       874 1.24996E+03-1.57126E+04 4.38299E+03 7.16573E+04 1.58161E-09 3.29533E-09
 -1       875 3.87679E+03-1.75619E+04 9.38264E+03 5.93091E+04-2.37833E-10 1.63777E-09
 -1       876 1.76024E+05 2.52644E+04 1.57304E+04 6.98957E+04 2.25418E-09-1.29512E-09
 -1       877 1.78920E+05 3.39868E+04 9.34886E+03 7.27244E+04-4.39115E-10-3.47552E-09
 -1       878 1.78355E+05 2.72246E+04 3.68011E+03 7.00228E+04 2.19632E-09-1.14937E-09
 -1       879 1.76170E+05 3.04186E+04 1.92181E+03 7.31134E+04 2.27402E-09 6.04086E-09
 -1       880 1.78566E+05 2.74013E+04 8.54184E+02 7.00415E+04 4.19413E-09 1.44496E-09
 -1       881 1.75922E+05 3.01385E+04 4.46313E+02 7.31196E+04 2.95188E-10-4.97010E-10
 -1       882 1.78587E+05 2.74217E+04 2.48832E+02 7.00457E+04 3.78515E-09 5.33397E-10
 -1       883 1.75900E+05 3.01168E+04 2.18064E+02 7.31144E+04-7.66403E-09 1.51930E-09
 -1       884 1.78585E+05 2.74218E+04 2.98016E+02 7.00462E+04-6.49990E-10 7.52871E-09
 -1       885 1.75934E+05 3.01440E+04 5.78396E+02 7.31171E+04 3.68675E-09-1.35850E-09
 -1       886 1.78553E+05 2.73969E+04 1.13085E+03 7.00421E+04-6.51994E-11-1.13903E-09
 -1       887 1.76267E+05 3.05149E+04 2.55723E+03 7.31040E+04-3.36900E-09-1.37425E-09
 -1       888 1.78269E+05 2.71633E+04 4.90213E+03 7.00178E+04-4.73182E-09 1.61435E-10
 -1       889 1.79923E+05 3.52785E+04 1.24566E+04 7.25935E+04 4.46575E-09-2.67255E-09
 -1       890 1.75171E+05 2.45428E+04 2.09602E+04 6.98369E+04 2.94290E-09 6.05723E-10
 -1       891 4.03219E+02-8.81346E+04-3.60301E+03 1.77864E+04 7.28278E-10-2.32467E-09
 -1       892-9.41665E+02-8.93019E+04-2.73849E+03 4.23705E+04 1.41063E-09 1.09276E-09
 -1       893 8.53135E+01-8.85400E+04-2.21791E+03 1.77330E+04-6.98719E-10-4.65093E-10
 -1       894-1.41597E+03-8.96197E+04-3.74550E+03 4.23595E+04-2.25157E-09-6.08452E-10
 -1       895 6.59714E+02-8.78049E+04-5.60332E+03 1.77972E+04-1.33127E-09 1.85400E-09
 -1       926-2.70816E+02-5.04799E+02 1.15952E+03 1.94180E+01 2.94740E-10-5.27052E-10
 -1       927 2.89591E+02 5.84556E+02 8.39490E+02-7.72317E+01-1.42882E-09-6.86583E-10
 -1       928-6.92197E+01-7.97878E+01 3.20782E+02 1.91092E+01-1.06652E-11-3.25841E-10
 -1       929 5.24702E+01 9.55643E+01 2.42109E+02-7.69182E+01 8.15952E-10-3.36705E-10
 -1       930-3.37778E+01-1.58424E+01 1.70119E+02 1.91045E+01 1.72204E-11-1.50774E-10
 -1       931 2.08958E+01 4.09713E+01 2.49906E+02-7.69130E+01-9.89520E-10-7.55733E-11
 -1       932-3.77085E+01-2.51617E+01 3.99834E+02 1.91039E+01-1.06406E-06-1.02318E-11
 -1       933 9.59571E+01 1.77210E+02 8.50924E+02-7.69042E+01-2.12612E-06-3.99041E-11
 -1       934-1.08879E+02-1.52037E+02 1.52514E+03 1.90957E+01-1.26426E-06-6.85532E-11
 -1       935 5.94459E+02 1.12903E+03 3.50683E+03-7.68562E+01-4.01160E-07 1.26931E-10
 -1       936-5.36191E+02-9.76811E+02 6.03015E+03 1.90560E+01-1.39939E-07 9.91349E-11
 -1       937 3.55633E+03 7.21865E+03 1.48843E+04-7.69751E+01 1.23101E-07 2.36014E-10
 -1       938-3.07001E+03-6.24038E+03 2.36785E+04 1.92146E+01-7.05691E-08-5.91172E-11
 -1       939 2.14034E+04 4.59417E+04 6.47955E+04-8.25174E+01-2.69380E-07-2.72848E-12
 -1       940-1.83707E+04-3.96896E+04 9.15466E+04 2.45977E+01-1.36793E-07 4.03816E-10
 -1       956-1.66592E+05-2.82944E+03-7.31538E+03 1.88128E+04-7.82165E-09-9.86802E-11
 -1       957-1.68056E+05-9.68021E+02-3.76436E+03 2.27700E+04-9.81663E-09 1.40528E-09
 -1       958-1.67254E+05-7.27780E+01-1.69639E+03 1.86941E+04-1.19053E-09-5.95719E-10
 -1       959-1.67374E+05-1.04574E+01-8.66328E+02 2.28988E+04-7.98536E-10-1.91039E-09
 -1       960-1.67315E+05 2.65087E+01-4.21883E+02 1.86834E+04-4.15366E-09-8.29459E-10
 -1       961-1.67328E+05 2.70016E+01-2.22185E+02 2.29108E+04-6.37851E-09-1.72668E-09
 -1       962-1.67330E+05 2.49030E+01-1.24300E+02 1.86820E+04-2.22735E-09 3.50155E-10
 -1       963-1.67328E+05 2.89465E+01-9.46012E+01 2.29125E+04-3.00520E-09-6.41421E-10
 -1       964-1.67333E+05 2.65165E+01-1.08557E+02 1.86816E+04-5.37000E-10-6.20730E-11
 -1       965-1.67335E+05 3.09425E+01-1.82356E+02 2.29124E+04 2.74264E-09 6.34600E-10
 -1       966-1.67328E+05 3.10506E+01-3.39439E+02 1.86822E+04 2.59809E-09 1.38846E-09
 -1       967-1.67377E+05 4.26337E+00-6.94313E+02 2.29051E+04 9.74069E-09 1.50249E-09
 -1       968-1.67283E+05-4.54977E+01-1.35762E+03 1.86889E+04 3.95721E-09-6.50232E-10
 -1       969-1.67928E+05-7.59724E+02-3.01318E+03 2.28225E+04 3.39014E-10-2.34809E-09
 -1       970-1.66756E+05-2.25052E+03-5.85478E+03 1.87660E+04 2.80352E-09 7.98536E-10
 -1       971-2.14153E+05 9.41082E+02-9.92025E+03 4.77902E+03-2.82171E-09 1.03091E-09
 -1       972-2.17290E+05-2.22260E+03-5.98119E+03 1.04385E+04-4.07636E-09 5.82304E-10
 -1       973-2.15526E+05 8.86398E+01-2.54065E+03 4.72186E+03-2.55318E-09 8.39918E-10
 -1       974-2.15810E+05-1.41743E+02-1.36081E+03 1.05048E+04-4.39059E-10 4.67367E-10
 -1       975-2.15651E+05 1.67384E+01-6.52545E+02 4.71231E+03-8.62883E-10 1.87981E-09
 -1       976-2.15682E+05 6.50326E+00-3.61318E+02 1.05183E+04-3.87109E-09 1.80762E-09
 -1       977-2.15667E+05 1.04222E+01-2.27072E+02 4.70832E+03 3.03646E-09 8.41226E-10
 -1       978-2.15674E+05 1.69902E+01-2.21388E+02 1.05237E+04 7.34292E-09 2.13396E-09
 -1       979-2.15666E+05 1.23450E+01-3.16468E+02 4.70684E+03 1.78061E-09 1.79509E-09
 -1       980-2.15701E+05 6.99295E-01-5.92528E+02 1.05239E+04-1.86877E-09 2.92443E-09
 -1       981-2.15640E+05 2.72061E+01-1.12346E+03 4.70810E+03-1.32434E-09 1.34287E-09
 -1       982-2.15937E+05-2.55009E+02-2.37709E+03 1.05175E+04 5.20259E-09-1.90141E-11
 -1       983-2.15424E+05 1.57597E+02-4.45003E+03 4.71342E+03 6.31348E-09-1.03955E-09
 -1       984-2.18545E+05-3.90065E+03-1.04908E+04 1.04711E+04-1.85594E-09 1.15688E-09
 -1       985-2.13021E+05 1.65853E+03-1.73984E+04 4.75566E+03 2.52703E-09-7.23958E-10
 -3
    1PSTEP                        11           6           1          
  100CL  106 4.02344E-01         568                     0    6           1
 -4  DISP        4    1
 -5  D1          1    2    1    0
 -5  D2          1    2    2    0
 -5  D3          1    2    3    0
 -5  ALL         1    2    0    0    1ALL
 -1         1 5.89524E-05 0.00000E+00 0.00000E+00
 -1         2 5.89477E-05 0.00000E+00 0.00000E+00
 -1         3 3.98543E-05-1.32006E-28-6.61744E-24
 -1         4 2.98095E-05-2.66241E-29-2.52435E-29
 -1         5 3.01701E-05 9.43423E-28 0.00000E+00
 -1         8 4.68608E-05-5.73665E-07 0.00000E+00
 -1         9 3.68912E-05-2.57793E-06 0.00000E+00
 -1        10 3.65595E-05-1.17016E-06 0.00000E+00
 -1        11 2.96260E-05-3.30311E-06 0.00000E+00
 -1        12 2.96314E-05 4.91684E-07 0.00000E+00
 -1        15 3.39422E-05-6.03857E-07 0.00000E+00
 -1        16 2.92553E-05-2.65333E-06 0.00000E+00
 -1        17 2.71812E-05-2.34110E-06 0.00000E+00
 -1        18 2.71797E-05-3.07839E-07 0.00000E+00
 -1        19 2.80232E-05 9.80006E-07 0.00000E+00
 -1        20 2.83272E-05 1.15042E-05 0.00000E+00
 -1        21 2.82915E-05 2.55548E-05 0.00000E+00
 -1        23 1.05665E-05-3.71143E-05 4.03897E-28
 -1        24 1.05033E-05-2.85938E-06 0.00000E+00
 -1        25 2.52960E-05-1.66862E-07 0.00000E+00
 -1        26 2.59775E-05 1.30862E-06 0.00000E+00
 -1        27 2.50872E-05 1.10227E-05 0.00000E+00
 -1        28 2.43364E-05 2.50788E-05 0.00000E+00
 -1        31 3.03415E-08-2.89606E-06 0.00000E+00
 -1        32 0.00000E+00 0.00000E+00 0.00000E+00
 -1        33 2.36547E-05 1.83340E-06 0.00000E+00
 -1        34 2.26312E-05 1.09822E-05 0.00000E+00
 -1        35 2.13122E-05 2.48769E-05 0.00000E+00
 -1        36 5.89455E-05-1.51482E-19 0.00000E+00
 -1        37 5.89455E-05-1.46487E-19 8.27181E-25
 -1        38 5.89449E-05-6.21111E-20-8.27181E-25
 -1        39 5.89458E-05 3.81329E-19-1.03398E-25
 -1        40 5.89466E-05 6.46882E-19 0.00000E+00
 -1        41 5.89477E-05 8.66454E-19 0.00000E+00
 -1        42 5.89488E-05 1.05619E-18 0.00000E+00
 -1        43 5.89500E-05 1.03063E-18 8.07794E-28
 -1        44 5.89512E-05 1.04614E-18 1.29247E-26
 -1        45 5.89523E-05 1.07804E-18 0.00000E+00
 -1        46 5.89534E-05 9.61769E-19 0.00000E+00
 -1        47 5.89543E-05 1.03184E-18-1.03398E-25
 -1        48 5.89551E-05 6.91108E-19-8.27181E-25
 -1        49 5.89546E-05 3.01520E-19 8.27181E-25
 -1        50 5.89545E-05 1.56077E-19-3.30872E-24
 -1        51 5.80389E-05-9.61976E-08 0.00000E+00
 -1        52 5.65254E-05-1.89347E-07 0.00000E+00
 -1        53 5.45284E-05-2.82232E-07 0.00000E+00
 -1        54 5.21702E-05-3.75969E-07 0.00000E+00
 -1        55 4.95732E-05-4.71662E-07 3.51552E-24
 -1        56 5.77601E-05-5.25188E-07 2.64698E-23
 -1        57 5.65687E-05-1.19113E-06 0.00000E+00
 -1        58 5.54100E-05-1.93601E-06 0.00000E+00
 -1        59 5.42558E-05-2.71720E-06-1.32349E-23
 -1        60 5.30953E-05-3.48187E-06-5.29396E-23
 -1        61 5.19086E-05-4.18122E-06 0.00000E+00
 -1        62 5.06811E-05-4.77192E-06 0.00000E+00
 -1        63 4.93979E-05-5.21493E-06 2.64698E-23
 -1        64 4.80497E-05-5.48480E-06 5.29396E-23
 -1        65 4.66295E-05-5.56208E-06 2.64698E-23
 -1        66 4.51366E-05-5.44537E-06 0.00000E+00
 -1        67 4.35743E-05-5.13959E-06 0.00000E+00
 -1        68 4.19498E-05-4.66806E-06-2.64698E-23
 -1        69 4.02813E-05-4.05670E-06 0.00000E+00
 -1        70 3.85743E-05-3.35078E-06-2.64698E-23
 -1        86 6.30863E-05-3.52263E-07 0.00000E+00
 -1        87 7.54009E-05-7.73901E-07 0.00000E+00
 -1        88 8.09694E-05-1.15551E-06 1.32349E-23
 -1        89 6.49821E-05-1.64509E-06-3.30872E-24
 -1        90 4.45586E-05-2.19855E-06-6.61744E-24
 -1       121 3.97623E-05-1.94891E-07 6.61744E-24
 -1       122 3.94865E-05-3.89809E-07 3.30872E-24
 -1       123 3.90272E-05-5.84789E-07-6.61744E-24
 -1       124 3.83855E-05-7.79836E-07 0.00000E+00
 -1       125 3.75624E-05-9.75012E-07 0.00000E+00
 -1       161 2.98111E-05-4.22147E-09-5.04871E-29
 -1       162 2.98159E-05-1.68708E-08 0.00000E+00
 -1       163 2.98227E-05-3.51477E-08-2.01948E-28
 -1       164 2.98306E-05-5.62512E-08 0.00000E+00
 -1       165 2.98386E-05-7.73807E-08 0.00000E+00
 -1       166 2.98454E-05-9.57355E-08-8.07794E-28
 -1       167 2.98502E-05-1.08515E-07-3.23117E-27
 -1       168 2.98519E-05-1.12917E-07 3.23117E-27
 -1       169 2.98494E-05-1.06141E-07 1.29247E-26
 -1       170 2.98416E-05-8.53803E-08 0.00000E+00
 -1       171 2.98276E-05-4.78388E-08 5.16988E-26
 -1       172 2.98063E-05 9.32423E-09 5.16988E-26
 -1       173 2.97767E-05 8.88696E-08 2.06795E-25
 -1       174 2.97382E-05 1.93827E-07-2.06795E-25
 -1       175 2.96889E-05 3.26714E-07-8.27181E-25
 -1       191 3.01551E-05 8.19654E-08 0.00000E+00
 -1       192 3.01102E-05 1.63928E-07 0.00000E+00
 -1       193 3.00353E-05 2.45889E-07 0.00000E+00
 -1       194 2.99304E-05 3.27842E-07-1.65436E-24
 -1       195 2.97957E-05 4.09782E-07 0.00000E+00
 -1       251 4.62707E-05 1.92821E-06 1.32349E-23
 -1       252 4.56642E-05 5.07581E-06 6.61744E-24
 -1       253 4.50608E-05 4.96564E-06-1.32349E-23
 -1       254 4.44307E-05-2.21634E-06 6.61744E-24
 -1       255 4.38104E-05-6.69208E-06 0.00000E+00
 -1       256 4.31699E-05 1.24075E-06-6.61744E-24
 -1       257 4.25361E-05 7.56318E-06-1.32349E-23
 -1       258 4.18805E-05-1.69803E-06 0.00000E+00
 -1       259 4.12256E-05-1.08527E-05-1.32349E-23
 -1       260 4.05896E-05-4.21322E-06 6.61744E-24
 -1       261 3.99474E-05 3.85268E-06 0.00000E+00
 -1       262 3.93247E-05-1.06290E-06 0.00000E+00
 -1       263 3.86918E-05-8.56857E-06-1.32349E-23
 -1       264 3.80879E-05-8.20069E-06 0.00000E+00
 -1       265 3.74801E-05-4.62060E-06 0.00000E+00
 -1       266 4.47077E-05-5.87102E-07-3.30872E-24
 -1       267 4.25546E-05-5.91105E-07 0.00000E+00
 -1       268 4.04015E-05-5.95720E-07-8.27181E-25
 -1       269 3.82484E-05-5.98550E-07 0.00000E+00
 -1       270 3.60953E-05-6.01346E-07 0.00000E+00
 -1       271 4.51829E-05 9.31863E-07 0.00000E+00
 -1       272 4.36632E-05 1.91691E-06-1.32349E-23
 -1       273 4.23155E-05 2.44722E-06 2.64698E-23
 -1       274 4.11122E-05 2.57859E-06 1.32349E-23
 -1       275 4.00345E-05 2.37380E-06 0.00000E+00
 -1       276 3.90578E-05 1.89723E-06 0.00000E+00
 -1       277 3.81576E-05 1.21590E-06 0.00000E+00
 -1       278 3.73082E-05 3.98648E-07 1.32349E-23
 -1       279 3.64834E-05-4.84540E-07-2.64698E-23
 -1       280 3.56570E-05-1.36299E-06 1.32349E-23
 -1       281 3.48026E-05-2.16616E-06 2.64698E-23
 -1       282 3.38945E-05-2.82408E-06 1.32349E-23
 -1       283 3.29068E-05-3.26824E-06 0.00000E+00
 -1       284 3.18180E-05-3.43086E-06 0.00000E+00
 -1       285 3.05992E-05-3.24947E-06-2.64698E-23
 -1       286 3.68618E-05-1.46359E-06 0.00000E+00
 -1       287 3.68410E-05-6.18710E-07-8.27181E-25
 -1       288 3.68199E-05-6.58019E-08 1.65436E-24
 -1       289 3.68005E-05 1.72858E-07 0.00000E+00
 -1       290 3.67812E-05 1.25633E-07 8.27181E-25
 -1       291 3.67621E-05-1.78878E-07-4.13590E-25
 -1       292 3.67430E-05-6.70836E-07-8.27181E-25
 -1       293 3.67239E-05-1.28026E-06 4.13590E-25
 -1       294 3.67048E-05-1.91834E-06-8.27181E-25
 -1       295 3.66857E-05-2.49626E-06-4.13590E-25
 -1       296 3.66666E-05-2.93485E-06 0.00000E+00
 -1       297 3.66473E-05-3.15502E-06-4.13590E-25
 -1       298 3.66280E-05-3.11272E-06-1.65436E-24
 -1       299 3.66073E-05-2.76410E-06 8.27181E-25
 -1       300 3.65870E-05-2.11466E-06-3.30872E-24
 -1       301 3.56126E-05-2.59506E-06 0.00000E+00
 -1       302 3.43240E-05-2.60284E-06 0.00000E+00
 -1       303 3.30347E-05-2.60946E-06 0.00000E+00
 -1       304 3.17539E-05-2.61684E-06 1.65436E-24
 -1       305 3.04911E-05-2.62689E-06 0.00000E+00
 -1       306 3.59957E-05-1.75769E-06 0.00000E+00
 -1       307 3.52406E-05-1.34994E-06 6.61744E-24
 -1       308 3.46158E-05-1.28854E-06 0.00000E+00
 -1       309 3.40953E-05-1.51100E-06-6.61744E-24
 -1       310 3.36566E-05-1.95217E-06-1.32349E-23
 -1       311 3.32749E-05-2.54645E-06 6.61744E-24
 -1       312 3.29256E-05-3.22737E-06-1.32349E-23
 -1       313 3.25837E-05-3.92818E-06 0.00000E+00
 -1       314 3.22241E-05-4.58194E-06 1.32349E-23
 -1       315 3.18221E-05-5.12197E-06 6.61744E-24
 -1       316 3.13527E-05-5.48217E-06 0.00000E+00
 -1       317 3.07919E-05-5.59723E-06-6.61744E-24
 -1       318 3.01155E-05-5.40308E-06 1.32349E-23
 -1       319 2.93019E-05-4.83640E-06 6.61744E-24
 -1       320 2.83253E-05-3.83737E-06-1.32349E-23
 -1       336 3.53787E-05-1.36546E-06 6.61744E-24
 -1       337 3.40304E-05-1.56105E-06-3.30872E-24
 -1       338 3.25253E-05-1.75679E-06-6.61744E-24
 -1       339 3.08744E-05-1.95230E-06-3.30872E-24
 -1       340 2.90892E-05-2.14810E-06 0.00000E+00
 -1       356 2.96260E-05-3.05581E-06 0.00000E+00
 -1       357 2.96260E-05-2.80429E-06 0.00000E+00
 -1       358 2.96259E-05-2.54973E-06-2.01948E-28
 -1       359 2.96259E-05-2.29334E-06 2.01948E-28
 -1       360 2.96259E-05-2.03631E-06-8.07794E-28
 -1       361 2.96259E-05-1.77984E-06 0.00000E+00
 -1       362 2.96258E-05-1.52511E-06 0.00000E+00
 -1       363 2.96258E-05-1.27333E-06 0.00000E+00
 -1       364 2.96258E-05-1.02568E-06-2.58494E-26
 -1       365 2.96258E-05-7.83357E-07 0.00000E+00
 -1       366 2.96258E-05-5.47565E-07 0.00000E+00
 -1       367 2.96260E-05-3.19489E-07 0.00000E+00
 -1       368 2.96262E-05-1.00327E-07 0.00000E+00
 -1       369 2.96270E-05 1.08723E-07-4.13590E-25
 -1       370 2.96276E-05 3.06461E-07 0.00000E+00
 -1       376 2.95349E-05-3.06003E-06 0.00000E+00
 -1       377 2.94452E-05-2.82114E-06-2.52435E-29
 -1       378 2.93566E-05-2.58484E-06 1.00974E-28
 -1       379 2.92683E-05-2.34952E-06 0.00000E+00
 -1       380 2.91798E-05-2.11360E-06 4.03897E-28
 -1       381 2.90905E-05-1.87548E-06 4.03897E-28
 -1       382 2.89997E-05-1.63354E-06 0.00000E+00
 -1       383 2.89070E-05-1.38621E-06 0.00000E+00
 -1       384 2.88116E-05-1.13188E-06 0.00000E+00
 -1       385 2.87129E-05-8.68944E-07 0.00000E+00
 -1       386 2.86105E-05-5.95814E-07 5.16988E-26
 -1       387 2.85037E-05-3.10860E-07 0.00000E+00
 -1       388 2.83919E-05-1.25142E-08 0.00000E+00
 -1       389 2.82748E-05 3.00963E-07 0.00000E+00
 -1       390 2.81514E-05 6.30990E-07 0.00000E+00
 -1       406 2.94378E-05 5.73568E-07 0.00000E+00
 -1       407 2.92147E-05 6.55442E-07 0.00000E+00
 -1       408 2.89616E-05 7.37254E-07 0.00000E+00
 -1       409 2.86786E-05 8.18875E-07 0.00000E+00
 -1       410 2.83657E-05 9.00106E-07 0.00000E+00
 -1       501 2.91548E-05 1.52391E-06-6.61744E-24
 -1       502 2.90262E-05 1.16399E-05 0.00000E+00
 -1       503 2.88828E-05 2.32065E-05-3.30872E-24
 -1       504 2.87711E-05 3.17317E-05 0.00000E+00
 -1       505 2.86881E-05 3.44205E-05 3.30872E-24
 -1       506 2.85922E-05 2.84979E-05 1.65436E-24
 -1       507 2.84388E-05 1.58599E-05 3.30872E-24
 -1       508 2.82161E-05-1.57402E-06 0.00000E+00
 -1       509 2.79903E-05-1.92005E-05 0.00000E+00
 -1       510 2.78300E-05-3.24153E-05 0.00000E+00
 -1       511 2.77297E-05-3.90881E-05 0.00000E+00
 -1       512 2.76488E-05-3.71110E-05 1.65436E-24
 -1       513 2.75416E-05-2.90659E-05 0.00000E+00
 -1       514 2.74012E-05-1.75558E-05-1.65436E-24
 -1       515 2.72717E-05-7.13177E-06 0.00000E+00
 -1       521 2.78799E-05-2.04220E-06 0.00000E+00
 -1       522 2.66130E-05-1.80454E-06 1.32349E-23
 -1       523 2.54625E-05-1.87465E-06-2.64698E-23
 -1       524 2.44016E-05-2.19584E-06 0.00000E+00
 -1       525 2.34110E-05-2.70626E-06-2.64698E-23
 -1       526 2.24673E-05-3.34355E-06 0.00000E+00
 -1       527 2.15470E-05-4.04396E-06 2.64698E-23
 -1       528 2.06262E-05-4.74333E-06 1.32349E-23
 -1       529 1.96810E-05-5.37745E-06 2.64698E-23
 -1       530 1.86876E-05-5.88277E-06-1.32349E-23
 -1       531 1.76227E-05-6.19689E-06 2.64698E-23
 -1       532 1.64640E-05-6.25915E-06 0.00000E+00
 -1       533 1.51894E-05-6.01134E-06 2.64698E-23
 -1       534 1.37817E-05-5.39696E-06-1.32349E-23
 -1       535 1.22162E-05-4.36567E-06 0.00000E+00
 -1       536 2.71741E-05-6.07820E-07 1.65436E-24
 -1       537 2.71728E-05 7.08596E-07 0.00000E+00
 -1       538 2.71718E-05 1.65136E-06 0.00000E+00
 -1       539 2.71718E-05 2.26403E-06 0.00000E+00
 -1       540 2.71722E-05 2.59004E-06 4.13590E-25
 -1       541 2.71727E-05 2.67289E-06 0.00000E+00
 -1       542 2.71732E-05 2.55606E-06-2.06795E-25
 -1       543 2.71738E-05 2.28301E-06 0.00000E+00
 -1       544 2.71743E-05 1.89724E-06 0.00000E+00
 -1       545 2.71749E-05 1.44220E-06-1.00974E-26
 -1       546 2.71754E-05 9.61388E-07 5.16988E-26
 -1       547 2.71759E-05 4.98272E-07 0.00000E+00
 -1       548 2.71765E-05 9.63242E-08 0.00000E+00
 -1       549 2.71773E-05-2.00984E-07 0.00000E+00
 -1       550 2.71781E-05-3.50152E-07 4.13590E-25
 -1       551 2.47032E-05-2.42436E-06-2.06795E-24
 -1       552 2.19230E-05-2.50660E-06 0.00000E+00
 -1       553 1.89755E-05-2.58938E-06 3.30872E-24
 -1       554 1.59984E-05-2.67354E-06 0.00000E+00
 -1       555 1.31291E-05-2.75991E-06 0.00000E+00
 -1       556 2.64880E-05-6.86199E-07 0.00000E+00
 -1       557 2.59429E-05 5.84434E-07 3.30872E-24
 -1       558 2.55293E-05 1.50689E-06-6.61744E-24
 -1       559 2.52322E-05 2.12057E-06 0.00000E+00
 -1       560 2.50364E-05 2.46486E-06 0.00000E+00
 -1       561 2.49269E-05 2.57942E-06 0.00000E+00
 -1       562 2.48887E-05 2.50396E-06 0.00000E+00
 -1       563 2.49069E-05 2.27821E-06 0.00000E+00
 -1       564 2.49665E-05 1.94193E-06 0.00000E+00
 -1       565 2.50527E-05 1.53489E-06 1.65436E-24
 -1       566 2.51504E-05 1.09686E-06 1.65436E-24
 -1       567 2.52450E-05 6.67636E-07 0.00000E+00
 -1       568 2.53213E-05 2.86989E-07 1.03398E-24
 -1       569 2.53648E-05-5.34445E-09-8.27181E-25
 -1       570 2.53607E-05-1.69652E-07-8.27181E-25
 -1       571 2.72305E-05-2.00667E-07 6.20385E-25
 -1       572 2.72828E-05-1.28581E-07-2.06795E-25
 -1       573 2.73354E-05-8.51311E-08 8.27181E-25
 -1       574 2.73882E-05-6.35416E-08 0.00000E+00
 -1       575 2.74411E-05-5.70071E-08 1.65436E-24
 -1       576 2.74941E-05-5.86786E-08 0.00000E+00
 -1       577 2.75470E-05-6.17036E-08 0.00000E+00
 -1       578 2.75999E-05-5.92240E-08 0.00000E+00
 -1       579 2.76529E-05-4.43811E-08 0.00000E+00
 -1       580 2.77058E-05-1.03162E-08 0.00000E+00
 -1       581 2.77588E-05 4.98282E-08-3.30872E-24
 -1       582 2.78117E-05 1.42903E-07 0.00000E+00
 -1       583 2.78647E-05 2.75752E-07 0.00000E+00
 -1       584 2.79176E-05 4.55150E-07 0.00000E+00
 -1       585 2.79704E-05 6.87832E-07 0.00000E+00
 -1       586 2.69120E-05-2.83850E-07 0.00000E+00
 -1       587 2.66022E-05-2.59751E-07 0.00000E+00
 -1       588 2.62678E-05-2.35692E-07-8.27181E-25
 -1       589 2.59268E-05-2.11852E-07-2.06795E-25
 -1       590 2.55970E-05-1.88487E-07 0.00000E+00
 -1       591 2.70979E-05-1.81114E-07 0.00000E+00
 -1       592 2.70226E-05-7.89580E-08-4.13590E-25
 -1       593 2.69542E-05 3.61436E-09 0.00000E+00
 -1       594 2.68912E-05 7.10423E-08-4.13590E-25
 -1       595 2.68321E-05 1.27780E-07 0.00000E+00
 -1       596 2.67753E-05 1.78245E-07 4.13590E-25
 -1       597 2.67192E-05 2.26849E-07 0.00000E+00
 -1       598 2.66622E-05 2.78001E-07 0.00000E+00
 -1       599 2.66025E-05 3.36108E-07 0.00000E+00
 -1       600 2.65386E-05 4.05577E-07-4.13590E-25
 -1       601 2.64687E-05 4.90814E-07 0.00000E+00
 -1       602 2.63914E-05 5.96231E-07 4.13590E-25
 -1       603 2.63049E-05 7.26241E-07 0.00000E+00
 -1       604 2.62078E-05 8.85285E-07 2.58494E-25
 -1       605 2.60985E-05 1.07779E-06 4.13590E-25
 -1       606 2.80442E-05 1.37875E-06 3.30872E-24
 -1       607 2.80638E-05 1.82762E-06 0.00000E+00
 -1       608 2.80831E-05 2.32367E-06 0.00000E+00
 -1       609 2.81021E-05 2.86351E-06 8.27181E-25
 -1       610 2.81210E-05 3.44376E-06 0.00000E+00
 -1       611 2.81399E-05 4.06097E-06 0.00000E+00
 -1       612 2.81587E-05 4.71166E-06-1.65436E-24
 -1       613 2.81776E-05 5.39240E-06-1.65436E-24
 -1       614 2.81964E-05 6.09971E-06 0.00000E+00
 -1       615 2.82152E-05 6.83013E-06-8.27181E-25
 -1       616 2.82339E-05 7.58021E-06 0.00000E+00
 -1       617 2.82527E-05 8.34647E-06 0.00000E+00
 -1       618 2.82714E-05 9.12546E-06-8.27181E-25
 -1       619 2.82901E-05 9.91371E-06 0.00000E+00
 -1       620 2.83087E-05 1.07078E-05 0.00000E+00
 -1       621 2.76547E-05 1.03512E-06 0.00000E+00
 -1       622 2.72905E-05 1.09038E-06 0.00000E+00
 -1       623 2.69356E-05 1.14562E-06 1.65436E-24
 -1       624 2.65951E-05 1.20070E-06-8.27181E-25
 -1       625 2.62741E-05 1.25549E-06 0.00000E+00
 -1       626 2.79165E-05 1.40475E-06 0.00000E+00
 -1       627 2.77897E-05 1.88223E-06 3.30872E-24
 -1       628 2.76450E-05 2.40741E-06 0.00000E+00
 -1       629 2.74844E-05 2.97474E-06-3.30872E-24
 -1       630 2.73100E-05 3.57866E-06-3.30872E-24
 -1       631 2.71240E-05 4.21352E-06 0.00000E+00
 -1       632 2.69285E-05 4.87368E-06 1.65436E-24
 -1       633 2.67256E-05 5.55351E-06-1.65436E-24
 -1       634 2.65175E-05 6.24738E-06 1.65436E-24
 -1       635 2.63062E-05 6.94961E-06-8.27181E-25
 -1       636 2.60938E-05 7.65460E-06-1.65436E-24
 -1       637 2.58825E-05 8.35668E-06 4.13590E-25
 -1       638 2.56743E-05 9.05020E-06 8.27181E-25
 -1       639 2.54713E-05 9.72952E-06-2.06795E-25
 -1       640 2.52753E-05 1.03890E-05 4.13590E-25
 -1       641 2.83260E-05 1.23073E-05 0.00000E+00
 -1       642 2.83242E-05 1.31548E-05-2.58494E-26
 -1       643 2.83224E-05 1.40397E-05 0.00000E+00
 -1       644 2.83204E-05 1.49548E-05 0.00000E+00
 -1       645 2.83184E-05 1.58927E-05 0.00000E+00
 -1       646 2.83164E-05 1.68460E-05-2.58494E-26
 -1       647 2.83144E-05 1.78069E-05 0.00000E+00
 -1       648 2.83124E-05 1.87678E-05-2.58494E-26
 -1       649 2.83103E-05 1.97210E-05 0.00000E+00
 -1       650 2.83083E-05 2.06588E-05 0.00000E+00
 -1       651 2.83062E-05 2.15736E-05-1.03398E-25
 -1       652 2.83041E-05 2.24581E-05 0.00000E+00
 -1       653 2.83020E-05 2.33053E-05-4.13590E-25
 -1       654 2.82993E-05 2.41080E-05 0.00000E+00
 -1       655 2.82969E-05 2.48600E-05-8.27181E-25
 -1       656 2.76298E-05 1.14264E-05 0.00000E+00
 -1       657 2.70546E-05 1.13449E-05 0.00000E+00
 -1       658 2.65571E-05 1.12635E-05 0.00000E+00
 -1       659 2.60931E-05 1.11821E-05 8.27181E-25
 -1       660 2.56179E-05 1.11005E-05 8.27181E-25
 -1       661 2.80862E-05 1.23246E-05 0.00000E+00
 -1       662 2.78367E-05 1.31737E-05 0.00000E+00
 -1       663 2.75787E-05 1.40455E-05 0.00000E+00
 -1       664 2.73144E-05 1.49350E-05 0.00000E+00
 -1       665 2.70455E-05 1.58368E-05-1.65436E-24
 -1       666 2.67740E-05 1.67456E-05 0.00000E+00
 -1       667 2.65018E-05 1.76565E-05 0.00000E+00
 -1       668 2.62308E-05 1.85640E-05 8.27181E-25
 -1       669 2.59630E-05 1.94630E-05 1.65436E-24
 -1       670 2.57003E-05 2.03484E-05-8.27181E-25
 -1       671 2.54447E-05 2.12148E-05 0.00000E+00
 -1       672 2.51981E-05 2.20571E-05-8.27181E-25
 -1       673 2.49625E-05 2.28701E-05-1.65436E-24
 -1       674 2.47393E-05 2.36483E-05-8.27181E-25
 -1       675 2.45311E-05 2.43867E-05 0.00000E+00
 -1       676 2.76253E-05 2.54749E-05 1.65436E-24
 -1       677 2.69603E-05 2.53949E-05 0.00000E+00
 -1       678 2.62977E-05 2.53150E-05-1.65436E-24
 -1       679 2.56388E-05 2.52355E-05-8.27181E-25
 -1       680 2.49846E-05 2.51559E-05 1.65436E-24
 -1       716 1.05643E-05-3.49734E-05 0.00000E+00
 -1       717 1.05621E-05-3.28324E-05-4.03897E-28
 -1       718 1.05599E-05-3.06915E-05 1.61559E-27
 -1       719 1.05577E-05-2.85506E-05-1.61559E-27
 -1       720 1.05555E-05-2.64096E-05-6.46235E-27
 -1       721 1.05533E-05-2.42687E-05 0.00000E+00
 -1       722 1.05511E-05-2.21277E-05 2.58494E-26
 -1       723 1.05488E-05-1.99868E-05 0.00000E+00
 -1       724 1.05466E-05-1.78459E-05 1.03398E-25
 -1       725 1.05442E-05-1.57049E-05 0.00000E+00
 -1       726 1.05417E-05-1.35640E-05 0.00000E+00
 -1       727 1.05386E-05-1.14231E-05 4.13590E-25
 -1       728 1.05355E-05-9.28214E-06-1.65436E-24
 -1       729 1.05293E-05-7.14120E-06-1.65436E-24
 -1       730 1.05242E-05-5.00027E-06 6.61744E-24
 -1       766 8.41128E-06-2.88012E-06 0.00000E+00
 -1       767 6.41714E-06-2.88498E-06-1.65436E-24
 -1       768 4.55145E-06-2.89061E-06-1.65436E-24
 -1       769 2.84485E-06-2.89297E-06 0.00000E+00
 -1       770 1.32770E-06-2.89493E-06 4.13590E-25
 -1       771 9.28289E-06-1.16260E-06-1.32349E-23
 -1       772 8.18983E-06 1.78989E-07 0.00000E+00
 -1       773 7.21754E-06 1.19717E-06 0.00000E+00
 -1       774 6.35403E-06 1.92447E-06 0.00000E+00
 -1       775 5.58738E-06 2.39358E-06 2.64698E-23
 -1       776 4.90526E-06 2.63743E-06-1.32349E-23
 -1       777 4.29527E-06 2.68905E-06 0.00000E+00
 -1       778 3.74495E-06 2.58161E-06 6.61744E-24
 -1       779 3.24184E-06 2.34836E-06-1.32349E-23
 -1       780 2.77341E-06 2.02265E-06 0.00000E+00
 -1       781 2.32717E-06 1.63787E-06 0.00000E+00
 -1       782 1.89065E-06 1.22748E-06 0.00000E+00
 -1       783 1.45137E-06 8.24919E-07 1.32349E-23
 -1       784 9.97220E-07 4.63721E-07 0.00000E+00
 -1       785 5.15986E-07 1.77351E-07 1.32349E-23
 -1       786 2.53359E-05 8.59864E-09-4.13590E-25
 -1       787 2.53784E-05 1.41859E-07 4.13590E-25
 -1       788 2.54208E-05 2.39590E-07-8.27181E-25
 -1       789 2.54637E-05 3.08473E-07-4.13590E-25
 -1       790 2.55065E-05 3.55176E-07 0.00000E+00
 -1       791 2.55495E-05 3.86358E-07-8.27181E-25
 -1       792 2.55925E-05 4.08673E-07 1.65436E-24
 -1       793 2.56355E-05 4.28771E-07-8.27181E-25
 -1       794 2.56784E-05 4.53301E-07 1.65436E-24
 -1       795 2.57214E-05 4.88912E-07 0.00000E+00
 -1       796 2.57644E-05 5.42261E-07 1.65436E-24
 -1       797 2.58073E-05 6.20010E-07-8.27181E-25
 -1       798 2.58503E-05 7.28831E-07 1.65436E-24
 -1       799 2.58930E-05 8.75405E-07-4.13590E-25
 -1       800 2.59358E-05 1.06644E-06 0.00000E+00
 -1       801 2.31791E-05-1.29526E-07 0.00000E+00
 -1       802 1.85255E-05-9.74722E-08 0.00000E+00
 -1       803 1.26072E-05-7.14658E-08 0.00000E+00
 -1       804 6.69792E-06-4.78877E-08 0.00000E+00
 -1       805 2.07151E-06-1.83012E-08-1.32349E-23
 -1       806 2.51838E-05-1.08149E-08 1.65436E-24
 -1       807 2.50781E-05 1.23576E-07 8.27181E-25
 -1       808 2.49786E-05 2.40195E-07 0.00000E+00
 -1       809 2.48843E-05 3.42784E-07-8.27181E-25
 -1       810 2.47937E-05 4.35074E-07 0.00000E+00
 -1       811 2.47056E-05 5.20789E-07-8.27181E-25
 -1       812 2.46186E-05 6.03646E-07 1.65436E-24
 -1       813 2.45312E-05 6.87361E-07 0.00000E+00
 -1       814 2.44421E-05 7.75652E-07-8.27181E-25
 -1       815 2.43498E-05 8.72233E-07-4.13590E-25
 -1       816 2.42531E-05 9.80818E-07-8.27181E-25
 -1       817 2.41505E-05 1.10512E-06 4.13590E-25
 -1       818 2.40407E-05 1.24885E-06-1.65436E-24
 -1       819 2.39222E-05 1.41571E-06 2.06795E-25
 -1       820 2.37938E-05 1.60938E-06 8.27181E-25
 -1       821 2.59250E-05 1.62297E-06 8.27181E-25
 -1       822 2.58695E-05 2.01541E-06 0.00000E+00
 -1       823 2.58139E-05 2.47769E-06 0.00000E+00
 -1       824 2.57579E-05 3.00147E-06 0.00000E+00
 -1       825 2.57018E-05 3.57840E-06-1.65436E-24
 -1       826 2.56455E-05 4.20010E-06 8.27181E-25
 -1       827 2.55892E-05 4.85814E-06-1.65436E-24
 -1       828 2.55329E-05 5.54411E-06 0.00000E+00
 -1       829 2.54766E-05 6.24956E-06 1.65436E-24
 -1       830 2.54203E-05 6.96603E-06 8.27181E-25
 -1       831 2.53640E-05 7.68506E-06 1.65436E-24
 -1       832 2.53077E-05 8.39820E-06 8.27181E-25
 -1       833 2.52516E-05 9.09698E-06-1.65436E-24
 -1       834 2.51959E-05 9.77295E-06-8.27181E-25
 -1       835 2.51401E-05 1.04177E-05-8.27181E-25
 -1       836 2.56472E-05 1.39478E-06 1.65436E-24
 -1       837 2.52493E-05 1.48385E-06-8.27181E-25
 -1       838 2.48174E-05 1.57279E-06-1.65436E-24
 -1       839 2.43851E-05 1.66142E-06 0.00000E+00
 -1       840 2.39864E-05 1.75006E-06 0.00000E+00
 -1       841 2.58715E-05 1.63930E-06 4.13590E-25
 -1       842 2.57254E-05 2.07694E-06 0.00000E+00
 -1       843 2.55482E-05 2.59737E-06 4.13590E-25
 -1       844 2.53489E-05 3.17648E-06 0.00000E+00
 -1       845 2.51328E-05 3.80028E-06 4.13590E-25
 -1       846 2.49052E-05 4.45479E-06 2.06795E-25
 -1       847 2.46693E-05 5.13131E-06 0.00000E+00
 -1       848 2.44284E-05 5.82113E-06 0.00000E+00
 -1       849 2.41850E-05 6.51775E-06 0.00000E+00
 -1       850 2.39414E-05 7.21468E-06 0.00000E+00
 -1       851 2.37001E-05 7.90557E-06 4.13590E-25
 -1       852 2.34633E-05 8.58402E-06 0.00000E+00
 -1       853 2.32345E-05 9.24156E-06 0.00000E+00
 -1       854 2.30162E-05 9.86953E-06-5.16988E-26
 -1       855 2.28142E-05 1.04546E-05-4.13590E-25
 -1       856 2.50431E-05 1.16575E-05 0.00000E+00
 -1       857 2.49965E-05 1.23816E-05-4.13590E-25
 -1       858 2.49497E-05 1.31831E-05 0.00000E+00
 -1       859 2.49026E-05 1.40497E-05 8.27181E-25
 -1       860 2.48553E-05 1.49693E-05-1.65436E-24
 -1       861 2.48079E-05 1.59296E-05-8.27181E-25
 -1       862 2.47605E-05 1.69183E-05 0.00000E+00
 -1       863 2.47131E-05 1.79233E-05 0.00000E+00
 -1       864 2.46657E-05 1.89323E-05 1.65436E-24
 -1       865 2.46182E-05 1.99330E-05 8.27181E-25
 -1       866 2.45709E-05 2.09132E-05 1.65436E-24
 -1       867 2.45235E-05 2.18606E-05 8.27181E-25
 -1       868 2.44762E-05 2.27631E-05 0.00000E+00
 -1       869 2.44292E-05 2.36085E-05 0.00000E+00
 -1       870 2.43822E-05 2.43843E-05 0.00000E+00
 -1       871 2.46026E-05 1.10173E-05 0.00000E+00
 -1       872 2.41792E-05 1.10110E-05 0.00000E+00
 -1       873 2.37940E-05 1.10046E-05 4.13590E-25
 -1       874 2.34233E-05 1.09978E-05-2.06795E-25
 -1       875 2.30435E-05 1.09908E-05-4.13590E-25
 -1       876 2.49292E-05 1.16729E-05-1.65436E-24
 -1       877 2.47483E-05 1.23929E-05 0.00000E+00
 -1       878 2.45447E-05 1.31732E-05-1.65436E-24
 -1       879 2.43221E-05 1.40052E-05 0.00000E+00
 -1       880 2.40835E-05 1.48801E-05-3.30872E-24
 -1       881 2.38320E-05 1.57894E-05-1.65436E-24
 -1       882 2.35709E-05 1.67244E-05 0.00000E+00
 -1       883 2.33034E-05 1.76765E-05-1.65436E-24
 -1       884 2.30326E-05 1.86371E-05 0.00000E+00
 -1       885 2.27619E-05 1.95978E-05 0.00000E+00
 -1       886 2.24944E-05 2.05497E-05 0.00000E+00
 -1       887 2.22332E-05 2.14844E-05-8.27181E-25
 -1       888 2.19817E-05 2.23933E-05 0.00000E+00
 -1       889 2.17426E-05 2.32676E-05-8.27181E-25
 -1       890 2.15196E-05 2.40988E-05 0.00000E+00
 -1       891 2.37764E-05 2.50454E-05-8.27181E-25
 -1       892 2.33080E-05 2.50115E-05-4.13590E-25
 -1       893 2.28794E-05 2.49776E-05 0.00000E+00
 -1       894 2.24386E-05 2.49438E-05-4.13590E-25
 -1       895 2.19334E-05 2.49099E-05 8.27181E-25
 -1       926 2.95383E-08-1.82227E-06 1.03398E-25
 -1       927 2.91470E-08-9.75485E-07 2.58494E-26
 -1       928 2.88886E-08-3.32594E-07 0.00000E+00
 -1       929 2.87631E-08 1.29540E-07 0.00000E+00
 -1       930 2.86951E-08 4.34056E-07 0.00000E+00
 -1       931 2.86590E-08 6.04091E-07 0.00000E+00
 -1       932 2.86284E-08 6.62799E-07 2.58494E-26
 -1       933 2.85723E-08 6.33329E-07 0.00000E+00
 -1       934 2.84857E-08 5.38840E-07 0.00000E+00
 -1       935 2.82658E-08 4.02486E-07 0.00000E+00
 -1       936 2.79679E-08 2.47426E-07 0.00000E+00
 -1       937 2.70585E-08 9.68189E-08 4.13590E-25
 -1       938 2.60664E-08-2.62155E-08-1.65436E-24
 -1       939 2.20259E-08-9.85509E-08 1.65436E-24
 -1       940 1.90156E-08-9.74109E-08-6.61744E-24
 -1       956 2.35922E-05 2.16177E-06-1.65436E-24
 -1       957 2.35284E-05 2.55942E-06-8.27181E-25
 -1       958 2.34645E-05 3.01884E-06 0.00000E+00
 -1       959 2.34004E-05 3.53209E-06 4.13590E-25
 -1       960 2.33362E-05 4.09122E-06 8.27181E-25
 -1       961 2.32719E-05 4.68823E-06 0.00000E+00
 -1       962 2.32077E-05 5.31513E-06 0.00000E+00
 -1       963 2.31434E-05 5.96391E-06 8.27181E-25
 -1       964 2.30791E-05 6.62657E-06 1.65436E-24
 -1       965 2.30148E-05 7.29511E-06-8.27181E-25
 -1       966 2.29505E-05 7.96152E-06 1.65436E-24
 -1       967 2.28863E-05 8.61780E-06 8.27181E-25
 -1       968 2.28221E-05 9.25595E-06 0.00000E+00
 -1       969 2.27580E-05 9.86799E-06 0.00000E+00
 -1       970 2.26941E-05 1.04460E-05 0.00000E+00
 -1       971 2.25506E-05 1.15351E-05-1.65436E-24
 -1       972 2.24681E-05 1.21859E-05 0.00000E+00
 -1       973 2.23856E-05 1.29230E-05 3.30872E-24
 -1       974 2.23028E-05 1.37342E-05-8.27181E-25
 -1       975 2.22199E-05 1.46077E-05 3.30872E-24
 -1       976 2.21369E-05 1.55313E-05-1.65436E-24
 -1       977 2.20539E-05 1.64930E-05-3.30872E-24
 -1       978 2.19708E-05 1.74809E-05 0.00000E+00
 -1       979 2.18878E-05 1.84828E-05 0.00000E+00
 -1       980 2.18047E-05 1.94868E-05-1.65436E-24
 -1       981 2.17217E-05 2.04806E-05-3.30872E-24
 -1       982 2.16387E-05 2.14523E-05 0.00000E+00
 -1       983 2.15559E-05 2.23898E-05 0.00000E+00
 -1       984 2.14736E-05 2.32810E-05 0.00000E+00
 -1       985 2.13913E-05 2.41140E-05 0.00000E+00
 -3
    1PSTEP                        12           6           1          
  100CL  106 4.02344E-01         568                     0    6           1
 -4  STRESS      6    1
 -5  SXX         1    4    1    1
 -5  SYY         1    4    2    2
 -5  SZZ         1    4    3    3
 -5  SXY         1    4    1    2
 -5  SYZ         1    4    2    3
 -5  SZX         1    4    3    1
 -1         1-1.09845E+06-4.32890E+05-2.10891E+05-5.66027E+05 2.57084E-10 5.23869E-10
 -1         2-4.92595E+04-4.15449E+05 3.01723E+03 3.02679E+04 5.18594E-09 1.33717E-09
 -1         3-1.91422E+01-5.57257E+05-8.03752E+01-1.06687E+02 4.80703E-10-7.00447E-09
 -1         4 5.47910E+00-5.96207E+00-6.14604E-01-6.87532E+00 3.40709E-09-4.06252E-09
 -1         5-6.13408E+00 2.34540E+05 1.26334E+01-2.37974E+00 2.50591E-10-1.17507E-09
 -1         8-1.03278E+06-3.48794E+05-1.42757E+05-3.79295E+05 2.98314E-10 2.96859E-09
 -1         9-1.06916E+06-4.20563E+05-1.68991E+05-2.46394E+05-1.30179E-09-5.44484E-10
 -1        10-1.44144E+04-3.29488E+05 4.00693E+04-2.12000E+03-2.70741E-09 5.52357E-09
 -1        11 1.35924E+00-2.51502E+00-8.89548E-01 4.05862E-01 1.17506E-09 1.18365E-09
 -1        12-5.44751E+03 8.88248E+04-2.97735E+04 4.26315E+03 6.26075E-09-1.02125E-09
 -1        15 1.45935E+03 7.89168E+02 4.52912E+03 1.38525E+00 3.22444E-11-1.52461E-09
 -1        16-1.29483E+06-3.41890E+05-1.09099E+05-4.30998E+05-1.67233E-10 9.22228E-10
 -1        17-2.70217E+05-1.96484E+05-2.32073E+04-1.73924E+05-3.14321E-09-1.39335E-09
 -1        18 1.82600E+04 6.06267E+03-6.82088E+03-5.01033E+04 2.03727E-10-4.29736E-10
 -1        19 5.28324E+04 6.18163E+04-6.23686E+03 6.28988E+03 1.96360E-09-7.66098E-10
 -1        20 3.38812E+04-4.93413E+04-1.12213E+04 2.44098E+04 2.50827E-09 1.64164E-10
 -1        21-2.50853E+02-8.72476E+04 2.55807E+04-2.97749E+02 1.09500E-08-4.40626E-09
 -1        23 3.53987E-01 1.68635E-01 6.48483E+00 3.80931E-04 2.60635E-09 1.51467E-09
 -1        24-6.76813E+05-2.03162E+05 4.61725E+04-3.63748E+05-3.44371E-09 3.20142E-11
 -1        25 1.75063E+03 1.81921E+04 1.25462E+04-2.12513E+05 5.77984E-10 9.02219E-11
 -1        26-6.65953E+02 5.68141E+04 1.17101E+03-9.84559E+03-3.12426E-10 6.74371E-10
 -1        27-1.37615E+04-3.67408E+04-1.63624E+04 4.05672E+04 2.31375E-09-1.06168E-09
 -1        28-6.64359E+03-6.84822E+04-3.43052E+03 2.49718E+04 8.26003E-09-2.59666E-09
 -1        31 2.25372E+03 2.59881E+03 3.84911E+03-9.73321E+01 1.87994E-09-1.02079E-09
 -1        32-2.96141E+05 5.08904E+04 1.76396E+05-4.34411E+05-1.60391E-09 1.94026E-10
 -1        33-6.79804E+04 7.02508E+04 2.14460E+04-2.09328E+04 1.26856E-10 2.44957E-10
 -1        34-8.69882E+04-4.47861E+03 5.82521E+03 2.93738E+04 2.59186E-09-1.89357E-09
 -1        35-1.69601E+04-1.95866E+04-6.48009E+02 3.94800E+04 2.53430E-09 4.24431E-11
 -1        36-5.12656E+03-1.86777E+04 4.30732E+04 7.71294E-10 1.25405E-10 1.65710E-09
 -1        37 1.35893E+04 2.16193E+04 3.04956E+04-7.49778E-07-5.77310E-11-4.65661E-09
 -1        38 2.07499E+03-2.93688E+03 1.11529E+04-2.70336E-07-1.67184E-10 4.20823E-09
 -1        39 5.19419E+03 3.39884E+03 7.02700E+03-1.38524E-07-2.09365E-11 3.34694E-10
 -1        40 3.26587E+03-4.61331E+02 2.88149E+03 6.63938E-07 3.12330E-11-1.76908E-09
 -1        41 3.80797E+03 5.43758E+02 1.74407E+03-1.49202E-07-2.88475E-11 1.48881E-09
 -1        42 3.46108E+03-8.23492E+01 8.93499E+02-5.11965E-07-1.19546E-11 1.03219E-09
 -1        43 3.61249E+03 1.64260E+02 7.87252E+02-2.23099E-07 6.71447E-12 1.56796E-09
 -1        44 3.46135E+03-8.18952E+01 8.89478E+02 1.58938E-07 1.09423E-11 8.22268E-10
 -1        45 3.80589E+03 5.39870E+02 1.73243E+03 9.51398E-08-7.69155E-11-1.45889E-09
 -1        46 3.26769E+03-4.57900E+02 2.86052E+03-1.52458E-07 7.74233E-11 1.61072E-09
 -1        47 5.18159E+03 3.37335E+03 6.97463E+03 2.16058E-07 2.74135E-10 2.55250E-09
 -1        48 2.08578E+03-2.91484E+03 1.10694E+04 1.90812E-07-2.57866E-10 3.47882E-10
 -1        49 1.35136E+04 2.14572E+04 3.02668E+04-1.01563E-07 4.11313E-10-2.41289E-09
 -1        50-5.06171E+03-1.85375E+04 4.27501E+04 5.81807E-08 1.69830E-09-1.57706E-09
 -1        51 1.54142E+04-2.52268E+05 2.53419E+04-6.64537E+05-1.16415E-10 3.73257E-09
 -1        52 7.30986E+03-2.50136E+05 1.63592E+04-7.32916E+05 4.72937E-11 6.98856E-09
 -1        53 5.30902E+03-2.55474E+05 1.47150E+04-6.62810E+05-1.70985E-10 1.65892E-09
 -1        54 1.34927E+04-2.52636E+05 2.43078E+04-7.34782E+05-4.51109E-10 3.65799E-09
 -1        55 3.22807E+04-2.60439E+05 4.53254E+04-6.62519E+05-4.29281E-10 4.57658E-09
 -1        56-3.11939E+06-3.42384E+05-2.65347E+05-1.20983E+06-2.91038E-10-1.97906E-09
 -1        57-3.24603E+06-5.74018E+05-1.80546E+05-1.17747E+06 4.72937E-10-3.19415E-09
 -1        58-3.17244E+06-4.30642E+05-6.23668E+04-1.19334E+06-3.43789E-10-7.33417E-09
 -1        59-3.18471E+06-4.70852E+05-3.77424E+04-1.19661E+06-1.10981E-09 2.68847E-09
 -1        60-3.18021E+06-4.43632E+05-1.45778E+04-1.19131E+06 7.71934E-10 3.10138E-09
 -1        61-3.17639E+06-4.55035E+05-8.41420E+03-1.19815E+06 4.20641E-10-4.78883E-09
 -1        62-3.18065E+06-4.46200E+05-4.01942E+03-1.19187E+06 3.08091E-11 9.15747E-10
 -1        63-3.17708E+06-4.51254E+05-3.40779E+03-1.19625E+06 5.47971E-11 2.23565E-09
 -1        64-3.17949E+06-4.47388E+05-3.88972E+03-1.19321E+06 1.95939E-10 1.78829E-09
 -1        65-3.18069E+06-4.50500E+05-8.01538E+03-1.19311E+06 2.62915E-10 3.46517E-10
 -1        66-3.17705E+06-4.46984E+05-1.38463E+04-1.19500E+06 6.73026E-11-7.92170E-10
 -1        67-3.19185E+06-4.62223E+05-3.57998E+04-1.18791E+06 1.48464E-09 3.35967E-09
 -1        68-3.16844E+06-4.35911E+05-5.91555E+04-1.19835E+06 4.44743E-10-1.14960E-09
 -1        69-3.25143E+06-5.58659E+05-1.71231E+05-1.16817E+06-4.47471E-10-1.34787E-09
 -1        70-3.11796E+06-3.52363E+05-2.51670E+05-1.21416E+06-8.33097E-10-2.57569E-09
 -1        86 2.25669E+04-1.01890E+06-5.28535E+04-2.49991E+04-1.19035E-08 6.58696E-09
 -1        87-1.31671E+04-7.52582E+05 1.55301E+04 2.72655E+04-9.08040E-09-2.56431E-09
 -1        88-9.55946E+03-1.22165E+06-6.53642E+04 8.26549E+03 1.20544E-08 3.15754E-09
 -1        89-1.32802E+03-7.02270E+05 3.40978E+04-2.70186E+04 2.49634E-09 1.04823E-10
 -1        90 1.08790E+04-1.06909E+06-4.88030E+04 2.92752E+04 1.27075E-08 6.37101E-10
 -1       121-1.18064E+01-5.57345E+05-1.06007E+02 5.33374E+01-7.18156E-10-3.83216E-09
 -1       122-5.08518E+01-5.57279E+05-1.81872E+02-2.12731E+02-5.77586E-10-6.93262E-10
 -1       123 1.55731E+01-5.57325E+05-3.23558E+02 1.59352E+02-1.83621E-09-2.97086E-09
 -1       124-3.98108E+02-5.57483E+05-7.72709E+02-4.57305E+02-1.27025E-09-6.51630E-09
 -1       125 2.77416E+02-5.57143E+05-1.20875E+03 2.97809E+02-2.96720E-09 1.58116E-09
 -1       161-2.00058E+00 1.39902E+00-8.15857E-01 1.46716E+00 1.41277E-06-5.29395E-07
 -1       162 5.34338E+00-6.07366E+00-1.49798E+00-6.88541E+00 2.82597E-06-1.05890E-06
 -1       163-1.86481E+00 1.51098E+00-2.91114E+00 1.47708E+00 1.38834E-06-5.20564E-07
 -1       164 4.68912E+00-6.84212E+00-6.49614E+00-6.83525E+00-4.98901E-08 1.99826E-08
 -1       165-1.34639E+00 2.16764E+00-1.26508E+01 1.41687E+00-1.63211E-06 6.11410E-07
 -1       166 1.17742E+00-1.17480E+01-2.92722E+01-6.22622E+00-3.21227E-06 1.20590E-06
 -1       167 1.64716E+00 6.41646E+00-5.54718E+01 8.68359E-01-4.81529E-06 1.80682E-06
 -1       168-1.93976E+01-4.32134E+01-1.33091E+02-1.47241E+00-6.41669E-06 2.40573E-06
 -1       169 1.92289E+01 3.36295E+01-2.42579E+02-3.33525E+00-7.96900E-06 2.98782E-06
 -1       170-1.42809E+02-2.44168E+02-6.11515E+02 3.23759E+01-9.52097E-06 3.57119E-06
 -1       171 1.25059E+02 2.07347E+02-1.05531E+03-3.29694E+01-1.08264E-05 4.05653E-06
 -1       172-8.93694E+02-1.52285E+03-2.84877E+03 2.62835E+02-1.21288E-05 4.54775E-06
 -1       173 7.70127E+02 1.31214E+03-4.55600E+03-2.33714E+02-1.22688E-05 4.60012E-06
 -1       174-5.51145E+03-9.63966E+03-1.35089E+04 1.79091E+03-1.24009E-05 4.65279E-06
 -1       175 4.74325E+03 8.32308E+03-1.94430E+04-1.56040E+03-6.20159E-06 2.32225E-06
 -1       191-6.21034E+00 2.34558E+05 1.52013E+01 1.18914E+00-8.18261E-11 5.51154E-10
 -1       192-2.05722E+00 2.34542E+05 2.80372E+01-1.12497E+01-1.26363E-10 9.64064E-11
 -1       193 6.70981E+00 2.34556E+05 5.32218E+01 1.00591E+01-3.81760E-10 1.84627E-10
 -1       194 5.04398E+01 2.34558E+05 1.19137E+02-8.91636E+01-3.45040E-10 1.95269E-09
 -1       195 1.57057E+02 2.34540E+05 2.42142E+02 7.91554E+01-6.08452E-10 1.02909E-09
 -1       251-1.70926E+06 4.16158E+04-9.35204E+04-1.30155E+04 1.21133E-10 2.01908E-09
 -1       252-1.72716E+06-4.90817E+04-6.23809E+04 2.02871E+03 4.44891E-09 1.75442E-09
 -1       253-1.74832E+06 7.40140E+03-2.86569E+04 1.37280E+04-2.82165E-09 3.55340E-09
 -1       254-1.63516E+06-7.74198E+03 3.34381E+03-2.35261E+03-1.55846E-10 2.06683E-10
 -1       255-1.80087E+06 2.72796E+02-2.06199E+04-8.63415E+03-1.66426E-09 2.25987E-09
 -1       256-1.53898E+06 1.93680E+03 3.36712E+04 6.48744E+03-5.16667E-09 9.78753E-09
 -1       257-1.84407E+06-2.29707E+03-2.48526E+04 4.89153E+03-2.94402E-06-1.81035E-09
 -1       258-1.49238E+06 4.63923E+03 4.51103E+04-6.14641E+03-3.60166E-06-7.90907E-08
 -1       259-1.84725E+06-2.42785E+03-2.55136E+04 3.99162E+03-2.95162E-06-3.44016E-09
 -1       260-1.52876E+06 2.32528E+03 3.56754E+04 6.75622E+03-6.66997E-09 1.20821E-09
 -1       261-1.80786E+06 1.69305E+01-2.21481E+04-8.00273E+03-7.86878E-09 7.25322E-10
 -1       262-1.62242E+06-7.43239E+03 5.60492E+03-2.68059E+03-6.76730E-09-3.85876E-09
 -1       263-1.75400E+06 7.34785E+03-3.03256E+04 1.34242E+04-7.02096E-09-6.49288E-09
 -1       264-1.72097E+06-4.99965E+04-6.25035E+04 2.23400E+03-6.15985E-09 1.03591E-09
 -1       265-1.70974E+06 4.25826E+04-9.57152E+04-1.29170E+04-7.84331E-09 3.87809E-09
 -1       266-2.56572E+04-1.18657E+04 5.92127E+04-2.85069E+01 3.63798E-11 2.35457E-09
 -1       267 2.97128E+04 1.38549E+04 4.20052E+04 3.27782E+01 7.13953E-11 6.41535E-10
 -1       268-4.04877E+03-1.98370E+03 1.55473E+04-4.26849E+00 1.81899E-12 1.15396E-09
 -1       269 4.77923E+03 2.37857E+03 1.01611E+04 4.96217E+00 3.59250E-11 5.78912E-10
 -1       270-7.29568E+02-3.94580E+02 4.87856E+03-6.92419E-01 4.03588E-11 2.10826E-09
 -1       271-2.49214E+06-3.17833E+05-1.93415E+05-9.65091E+05 2.36469E-11-2.58296E-09
 -1       272-2.55474E+06-4.43735E+05-1.21261E+05-9.71007E+05 1.58894E-09-5.09317E-11
 -1       273-2.52590E+06-3.59055E+05-4.56043E+04-9.59926E+05-2.48974E-11 5.18230E-09
 -1       274-2.51544E+06-3.89411E+05-2.48742E+04-9.80782E+05-1.36424E-11-3.03407E-09
 -1       275-2.53022E+06-3.62785E+05-1.05892E+04-9.58903E+05-1.70849E-09-3.99405E-09
 -1       276-2.51030E+06-3.84720E+05-5.55846E+03-9.82646E+05 1.59162E-12-1.15028E-09
 -1       277-2.53106E+06-3.62843E+05-2.82401E+03-9.58466E+05-2.63753E-11-1.65073E-10
 -1       278-2.50939E+06-3.84680E+05-2.13626E+03-9.83299E+05-1.65983E-10 2.66063E-09
 -1       279-2.53120E+06-3.62719E+05-2.46848E+03-9.58329E+05-1.05894E-09-4.14252E-09
 -1       280-2.50976E+06-3.85073E+05-4.59429E+03-9.83253E+05-1.35458E-10-1.84946E-09
 -1       281-2.53070E+06-3.62492E+05-8.60539E+03-9.58497E+05 2.71825E-10-9.19044E-10
 -1       282-2.51368E+06-3.89137E+05-2.01664E+04-9.82079E+05 2.14982E-10 2.71439E-09
 -1       283-2.52731E+06-3.59361E+05-3.69248E+04-9.59207E+05 7.80744E-10 5.80258E-10
 -1       284-2.54535E+06-4.33289E+05-9.81989E+04-9.74352E+05 5.68434E-10 2.61934E-10
 -1       285-2.50003E+06-3.25935E+05-1.56628E+05-9.63333E+05-8.00355E-11 1.71713E-09
 -1       286-6.45032E+04-2.27070E+04 5.23548E+04-7.29467E+01 4.15085E-10-1.45155E-09
 -1       287-4.16299E+04 2.62846E+04 3.70862E+04 2.01837E+01-1.04965E-10-2.21053E-09
 -1       288-5.57627E+04-3.57182E+03 1.35455E+04-1.51806E+01-2.59988E-10-2.03090E-09
 -1       289-5.18392E+04 4.13340E+03 8.55298E+03-1.09052E+02 1.49157E-10-4.24552E-09
 -1       290-5.42991E+04-5.61069E+02 3.48734E+03 5.62919E+01 4.78839E-10 1.18143E-09
 -1       291-5.35677E+04 6.58165E+02 2.10800E+03-2.28544E+02 1.58414E-09 2.30534E-09
 -1       292-5.40350E+04-9.70240E+01 1.04907E+03 1.04313E+02 1.03970E-06 1.46488E-09
 -1       293-5.38444E+04 1.81268E+02 8.78747E+02-2.83925E+02 2.07048E-06-1.82880E-09
 -1       294-5.40227E+04-8.40971E+01 9.37941E+02 1.11674E+02 1.03818E-06 3.41313E-09
 -1       295-5.36399E+04 5.48986E+02 1.78026E+03-2.55558E+02 1.62861E-09 3.74456E-10
 -1       296-5.42393E+04-4.64763E+02 2.90513E+03 7.59457E+01 4.07113E-10-3.37184E-09
 -1       297-5.22019E+04 3.42275E+03 7.09062E+03-1.53770E+02 2.39659E-10-2.86946E-10
 -1       298-5.54601E+04-2.95756E+03 1.12177E+04 9.88459E+00 1.93131E-10-5.23414E-10
 -1       299-4.37328E+04 2.17635E+04 3.07110E+04-2.38632E+01 5.22089E-10-2.84126E-09
 -1       300-6.27046E+04-1.88014E+04 4.33427E+04-5.39645E+01 1.54321E-09 6.63931E-10
 -1       301 2.52171E+04-1.43826E+04 7.00112E+04-2.40328E+04 1.18234E-09 1.24498E-09
 -1       302 9.21054E+03-1.28564E+02 4.58084E+04-2.94068E+04 1.84423E-09 1.78545E-10
 -1       303 2.01469E+03-9.38420E+03 4.02300E+04-2.40392E+04 9.68612E-10 1.90687E-09
 -1       304 1.51335E+04 4.25720E+03 6.41908E+04-2.93733E+04 1.92449E-09 4.34807E-09
 -1       305 4.29597E+04-1.87458E+04 1.13773E+05-2.40423E+04 9.05857E-10 5.74983E-09
 -1       306-1.30713E+06-1.75293E+05-7.55664E+04-5.07607E+05 4.91127E-11 4.91127E-10
 -1       307-1.31890E+06-2.36925E+05-4.73411E+04-5.24309E+05 3.26509E-10-2.56887E-09
 -1       308-1.32036E+06-1.91287E+05-1.78288E+04-5.05563E+05-2.51930E-10 1.35697E-09
 -1       309-1.30362E+06-2.15740E+05-9.73022E+03-5.28182E+05 5.48880E-10 3.98632E-09
 -1       310-1.32203E+06-1.92757E+05-4.16337E+03-5.05206E+05 1.22145E-09-5.65933E-10
 -1       311-1.30174E+06-2.13812E+05-2.22775E+03-5.28816E+05 1.17711E-09 1.27955E-10
 -1       312-1.32229E+06-1.92843E+05-1.21417E+03-5.05111E+05-1.69018E-09-4.48210E-09
 -1       313-1.30155E+06-2.13652E+05-1.07897E+03-5.28878E+05 3.27276E-10 1.62049E-09
 -1       314-1.32223E+06-1.92889E+05-1.46177E+03-5.05160E+05-9.69067E-10-1.52863E-09
 -1       315-1.30196E+06-2.13725E+05-2.89952E+03-5.28576E+05-2.85809E-10 2.16824E-09
 -1       316-1.32181E+06-1.92841E+05-5.54081E+03-5.05352E+05-2.39743E-09 4.68845E-10
 -1       317-1.30455E+06-2.16235E+05-1.30054E+04-5.27630E+05-5.85464E-09-2.85218E-09
 -1       318-1.31955E+06-1.90890E+05-2.38596E+04-5.05846E+05-3.53157E-09-2.47201E-09
 -1       319-1.32498E+06-2.44610E+05-6.33591E+04-5.22482E+05-1.49942E-09 6.05905E-09
 -1       320-1.30188E+06-1.69431E+05-1.01127E+05-5.08536E+05-9.24047E-10 3.53612E-09
 -1       336 3.29182E+02-5.57102E+05-2.12862E+03-8.26961E+02-3.98165E-09 1.95587E-09
 -1       337-9.96404E+02-5.57938E+05-3.34241E+03-5.83109E+03-2.84925E-09-2.55432E-09
 -1       338 5.09665E+02-5.56947E+05-5.10625E+03-7.00836E+02-4.91832E-09 1.05456E-09
 -1       339-6.13142E+03-5.60950E+05-1.22402E+04-6.06173E+03-3.27441E-09 2.04705E-09
 -1       340 4.60119E+03-5.54113E+05-1.88409E+04-5.98011E+02-5.57066E-09 3.73029E-09
 -1       356-4.09538E-01 1.57520E-01-1.33109E+00-1.07958E+00-1.82997E-07-3.75021E-10
 -1       357-7.27420E-01-2.93702E-01-2.81140E+00 4.34492E+00-3.66735E-07 7.32929E-10
 -1       358-3.39869E-01 1.37233E-01-5.32599E+00-1.07939E+00-2.17810E-07 6.03501E-10
 -1       359-1.36088E+00-9.28177E-01-1.11777E+01 4.34479E+00-6.84825E-08 1.72925E-09
 -1       360 2.23821E-01 7.92082E-01-2.13547E+01-1.07945E+00 6.44886E-08 1.44778E-09
 -1       361-4.93739E+00-6.02422E+00-4.56703E+01 4.34502E+00 1.97520E-07 1.52864E-09
 -1       362 3.23672E+00 5.23305E+00-8.54917E+01-1.07962E+00 2.62867E-07 1.01463E-09
 -1       363-2.46501E+01-3.92905E+01-1.88311E+02 4.34793E+00 3.28033E-07 1.09413E-09
 -1       364 1.99371E+01 3.40546E+01-3.41007E+02-1.08236E+00 3.21841E-07 6.68862E-10
 -1       365-1.37375E+02-2.53183E+02-7.85916E+02 4.36868E+00 3.17178E-07 2.42039E-10
 -1       366 1.15966E+02 2.19095E+02-1.35214E+03-1.10036E+00 2.43898E-07 9.37007E-10
 -1       367-8.01578E+02-1.61901E+03-3.33805E+03 4.49378E+00 1.71815E-07-2.63248E-09
 -1       368 6.84193E+02 1.39965E+03-5.31005E+03-1.20739E+00 5.85359E-08 1.21804E-09
 -1       369-4.80330E+03-1.03039E+04-1.45315E+04 5.20679E+00-5.73330E-08 1.43791E-09
 -1       370 4.11840E+03 8.90245E+03-2.05225E+04-1.81298E+00-2.58251E-08 2.71393E-09
 -1       376-6.09170E-01 9.74258E-01-5.81165E-01 9.92775E-01 5.65431E-07-2.13276E-07
 -1       377 3.41841E+00-3.53647E+00-1.03343E+00-3.73702E+00 1.12872E-06-4.25384E-07
 -1       378-5.83166E-01 9.50362E-01-1.84474E+00 1.01433E+00 3.01269E-07-1.12397E-07
 -1       379 3.05181E+00-3.91414E+00-4.10240E+00-3.73201E+00-5.27024E-07 1.97412E-07
 -1       380-2.42518E-01 1.35200E+00-7.93966E+00 9.87744E-01-1.51246E-06 5.67690E-07
 -1       381 8.53908E-01-6.98248E+00-1.83872E+01-3.35150E+00-2.49566E-06 9.39742E-07
 -1       382 1.61480E+00 4.01846E+00-3.48193E+01 6.33947E-01-3.42421E-06 1.28625E-06
 -1       383-1.19244E+01-2.67105E+01-8.35229E+01-3.15186E-01-4.35225E-06 1.63250E-06
 -1       384 1.25358E+01 2.10779E+01-1.52294E+02-2.04759E+00-5.16464E-06 1.93731E-06
 -1       385-8.94315E+01-1.52849E+02-3.83844E+02 2.09303E+01-5.97595E-06 2.24339E-06
 -1       386 7.91217E+01 1.30142E+02-6.62427E+02-2.06050E+01-6.56438E-06 2.46189E-06
 -1       387-5.61001E+02-9.55472E+02-1.78825E+03 1.65586E+02-7.14917E-06 2.68669E-06
 -1       388 4.84107E+02 8.23589E+02-2.85989E+03-1.46655E+02-7.03797E-06 2.64109E-06
 -1       389-3.46001E+03-6.05025E+03-8.47983E+03 1.12509E+03-6.92331E-06 2.59735E-06
 -1       390 2.97827E+03 5.22420E+03-1.22051E+04-9.79742E+02-3.46130E-06 1.29914E-06
 -1       406 1.82620E+02 2.34529E+05 6.11502E+02-8.02012E+01-8.53106E-10 1.32104E-09
 -1       407 2.18991E+02 2.34656E+05 1.09663E+03 8.22134E+01-5.68207E-10 2.10412E-09
 -1       408 5.27007E+02 2.34469E+05 2.09628E+03-1.81669E+00-1.19826E-09 1.01636E-09
 -1       409 2.20308E+03 2.35309E+05 4.67712E+03-7.39146E+01-8.04903E-10 9.52241E-10
 -1       410 6.36126E+03 2.33875E+05 9.52214E+03 7.94803E+01-1.53432E-09 5.85260E-10
 -1       501-2.49566E+05-3.52250E+04 7.39224E+04-4.92888E+03 8.16382E-09 8.38190E-09
 -1       502-1.77517E+05 3.93889E+04 5.90267E+04 1.31024E+04 8.07012E-09 1.57233E-08
 -1       503-2.23037E+05-4.06928E+03 1.94657E+04-6.17230E+03 4.47568E-09 7.67432E-09
 -1       504-1.73729E+05 6.97219E+03 2.05259E+04 8.26358E+03 6.24141E-10 7.03744E-09
 -1       505-2.53214E+05-2.97310E+03-2.16378E+03-8.95120E+01 4.22739E-09-1.68711E-09
 -1       506-1.69497E+05 2.33667E+03 1.23324E+04-4.84291E+03 1.44945E-08-1.08861E-08
 -1       507-2.27217E+05 5.11717E+02-6.26064E+02 6.93151E+03 1.46570E-08-1.09311E-08
 -1       508-1.97537E+05-1.21361E+03 4.16557E+03-1.20408E+04 8.07523E-09-1.51583E-08
 -1       509-2.25393E+05 7.96296E+02-1.07403E+03 7.11138E+03 1.48758E-08-1.22567E-08
 -1       510-1.71372E+05 1.40362E+03 9.65498E+03-5.41620E+03 1.16318E-08-1.06568E-08
 -1       511-2.53175E+05-2.31359E+03-6.48020E+03 3.03934E+02-3.26821E-09 1.15256E-09
 -1       512-1.74568E+05 1.97477E+03 1.02777E+04 7.78047E+03-4.93951E-09 6.68072E-09
 -1       513-2.22226E+05 2.54347E+02 2.24657E+03-6.08271E+03-4.09854E-09 9.48137E-09
 -1       514-1.93255E+05 6.42449E+03 1.25504E+04 1.31267E+04-5.00933E-09 1.39138E-08
 -1       515-2.34660E+05-6.58841E+03 8.74992E+03-5.04285E+03-7.58240E-09 8.27276E-09
 -1       521-2.55890E+06-3.32447E+05-1.62527E+05-9.85353E+05-3.56522E-10 4.80213E-10
 -1       522-2.60837E+06-4.41461E+05-1.01903E+05-9.94027E+05 1.41529E-09-3.37604E-09
 -1       523-2.58712E+06-3.67230E+05-3.83070E+04-9.81158E+05 2.02363E-11-2.59570E-09
 -1       524-2.57561E+06-3.95511E+05-2.09146E+04-1.00187E+06-9.24274E-11-1.30967E-10
 -1       525-2.59058E+06-3.70542E+05-8.90425E+03-9.80478E+05 6.74845E-10 2.53749E-10
 -1       526-2.57161E+06-3.91215E+05-4.71282E+03-1.00298E+06-6.99004E-10-4.69527E-11
 -1       527-2.59107E+06-3.70808E+05-2.45048E+03-9.80335E+05-2.84544E-10 3.47256E-10
 -1       528-2.57123E+06-3.90772E+05-1.97385E+03-1.00300E+06-7.91317E-10-1.21042E-09
 -1       529-2.59094E+06-3.70943E+05-2.43849E+03-9.80474E+05-1.28284E-09-4.21778E-10
 -1       530-2.57204E+06-3.90730E+05-4.66755E+03-1.00238E+06-1.50317E-09-2.40061E-09
 -1       531-2.59019E+06-3.70941E+05-8.82560E+03-9.80888E+05 9.86802E-11 1.16052E-09
 -1       532-2.57644E+06-3.94512E+05-2.06985E+04-1.00070E+06-2.51021E-10 1.55114E-09
 -1       533-2.58652E+06-3.67913E+05-3.79298E+04-9.81823E+05-8.95625E-10 1.78261E-10
 -1       534-2.60931E+06-4.39515E+05-1.00851E+05-9.92366E+05-6.44377E-10-4.12911E-10
 -1       535-2.55836E+06-3.33736E+05-1.60878E+05-9.86238E+05-5.09317E-10 1.13505E-09
 -1       536-3.73302E+03-8.01812E+03 3.22900E+04-6.09598E+03 6.18456E-10-1.72440E-09
 -1       537 8.33275E+03 1.04138E+04 2.08543E+04-2.63143E+04-2.46291E-09-3.67027E-09
 -1       538 1.16340E+03-8.95249E+02 8.35521E+03-6.00612E+03-1.69166E-10-7.47605E-10
 -1       539 2.70821E+03 1.02162E+03 4.70587E+03-2.64099E+04 1.54387E-09-3.18778E-10
 -1       540 1.71771E+03-1.20586E+02 2.09943E+03-5.99761E+03-2.46018E-10-1.85582E-09
 -1       541 1.96376E+03 9.51835E+01 1.11200E+03-2.64176E+04 5.67752E-10-2.53237E-09
 -1       542 1.78078E+03-1.90614E+01 5.03784E+02-5.99859E+03-3.69255E-10 1.30120E-09
 -1       543 1.81250E+03 2.07883E+01 2.31203E+02-2.64161E+04 1.31195E-10-1.61822E-09
 -1       544 1.78738E+03 3.37919E+00 4.70327E+01-5.99915E+03 3.65162E-10-7.28562E-10
 -1       545 1.75709E+03 6.54870E+00-1.10648E+02-2.64155E+04-2.53550E-10 5.47573E-10
 -1       546 1.80002E+03 2.01367E+01-3.05259E+02-5.99920E+03 1.25283E-10 2.22252E-09
 -1       547 1.65794E+03-1.51124E+02-7.34438E+02-2.64123E+04-3.61979E-10 1.99896E-09
 -1       548 1.89578E+03 1.32919E+02-1.33532E+03-6.00232E+03-8.07859E-10-2.14311E-09
 -1       549 8.21787E+02-1.67477E+03-3.32855E+03-2.63628E+04-2.50111E-10-4.17685E-10
 -1       550 2.69084E+03 1.24818E+03-5.18258E+03-6.04875E+03-1.35060E-10 1.48952E-09
 -1       551 6.56617E+03-2.23205E+05 1.71345E+04-3.54898E+05 9.91349E-10-6.87578E-10
 -1       552 4.48894E+03-2.20491E+05 1.70056E+04-4.33097E+05-4.01997E-09 1.90539E-09
 -1       553 3.14971E+03-2.23473E+05 2.38783E+04-3.54217E+05 8.33097E-10 5.76165E-10
 -1       554 1.46733E+04-2.13219E+05 4.83017E+04-4.33188E+05-3.71801E-09 8.56744E-10
 -1       555 3.69441E+04-2.30934E+05 9.16402E+04-3.54725E+05 1.38243E-10-9.04038E-10
 -1       556-8.72257E+04-7.45942E+04 1.76903E+04-1.24302E+05 2.46291E-09 1.17288E-08
 -1       557-7.00890E+04-9.13624E+04 8.90795E+03-1.37727E+05-1.51158E-09 1.93268E-11
 -1       558-8.72225E+04-7.90876E+04 3.73090E+03-1.21350E+05-1.98634E-09-2.00271E-09
 -1       559-7.19632E+04-9.40004E+04 1.84464E+03-1.38444E+05 4.36557E-11 9.24047E-10
 -1       560-8.74364E+04-7.90209E+04 8.16588E+02-1.21390E+05 9.09495E-11 8.14225E-10
 -1       561-7.23589E+04-9.39966E+04 3.97794E+02-1.38713E+05 3.97995E-09 6.95184E-09
 -1       562-8.76207E+04-7.88872E+04 1.54666E+02-1.21519E+05 1.50976E-10 5.28644E-11
 -1       563-7.25640E+04-9.39100E+04 3.70990E+01-1.38854E+05 3.68345E-10 1.17416E-09
 -1       564-8.77295E+04-7.88102E+04-8.03569E+01-1.21597E+05 2.50748E-09 5.88852E-09
 -1       565-7.26724E+04-9.38679E+04-2.41162E+02-1.38921E+05-1.10649E-08-2.09011E-08
 -1       566-8.77476E+04-7.87793E+04-5.36323E+02-1.21620E+05-2.87991E-09 2.28556E-09
 -1       567-7.27696E+04-9.39064E+04-1.19255E+03-1.38909E+05-1.18143E-09 2.69029E-09
 -1       568-8.76198E+04-7.89138E+04-2.45255E+03-1.21541E+05-1.50885E-09 3.25599E-10
 -1       569-7.41809E+04-9.51789E+04-5.78137E+03-1.38470E+05-1.70576E-09-1.08594E-09
 -1       570-8.67342E+04-8.25398E+04-1.15499E+04-1.20033E+05-2.49383E-09-8.28572E-09
 -1       571 1.50824E+05 6.66737E+03 9.98979E+03-3.85165E+04-1.36424E-10 1.51044E-09
 -1       572 1.52328E+05 2.30307E+03 4.89817E+03-4.23046E+04 4.61569E-11 1.63482E-09
 -1       573 1.51433E+05 5.36906E+02 2.17696E+03-3.84164E+04-3.48336E-10 3.91537E-10
 -1       574 1.51613E+05 1.70378E+02 1.09120E+03-4.24158E+04-6.44832E-10 1.46156E-09
 -1       575 1.51502E+05 1.86677E+01 5.14617E+02-3.84033E+04-7.77618E-11-2.63981E-09
 -1       576 1.51518E+05 1.67059E+00 2.61589E+02-4.24306E+04 2.25157E-10-1.01181E-09
 -1       577 1.51513E+05-7.76895E+00 1.28201E+02-3.84016E+04 3.60387E-11 1.31013E-09
 -1       578 1.51508E+05-5.87923E+00 6.84182E+01-4.24323E+04 1.24601E-10 1.52158E-09
 -1       579 1.51522E+05-8.24783E+00 3.92492E+01-3.84016E+04-1.83263E-10-6.83031E-10
 -1       580 1.51519E+05-9.79672E+00 3.22857E+01-4.24300E+04 8.73115E-11 1.57979E-09
 -1       581 1.51537E+05-1.34678E+01 3.90844E+01-3.84039E+04-6.06633E-10-1.28784E-09
 -1       582 1.51545E+05-9.67124E+00 7.09122E+01-4.24067E+04-5.54792E-10-1.24010E-09
 -1       583 1.51555E+05 5.88314E+00 1.33753E+02-3.84249E+04 3.93811E-10-1.51385E-09
 -1       584 1.51617E+05 1.06933E+02 2.98936E+02-4.22303E+04 2.91948E-10 4.64183E-10
 -1       585 1.51544E+05 3.67508E+02 6.05624E+02-3.85805E+04 1.05774E-09-7.53971E-10
 -1       586 8.22223E+02 6.94041E+04 1.67399E+03-9.31004E+04 1.99634E-10 2.64072E-09
 -1       587 5.02488E+02 6.96993E+04 1.87456E+03-1.03346E+05-5.57520E-10 1.58775E-09
 -1       588 6.99468E+02 6.93516E+04 2.94772E+03-9.29769E+04 3.17414E-10 9.87870E-09
 -1       589 2.77273E+03 7.05109E+04 6.23492E+03-1.03380E+05-6.39830E-10 1.88574E-08
 -1       590 8.00203E+03 6.85646E+04 1.24937E+04-9.30652E+04 3.61979E-10 1.34655E-08
 -1       591-7.60304E+04-2.25908E+04-1.47939E+04-3.64380E+04 2.46882E-09 1.97451E-09
 -1       592-7.69617E+04-2.17682E+04-7.41874E+03-4.04380E+04 9.00400E-10 1.08962E-08
 -1       593-7.67401E+04-1.82784E+04-3.14965E+03-3.85682E+04-2.40402E-09 3.06477E-09
 -1       594-7.52924E+04-1.99140E+04-1.54666E+03-4.05864E+04-7.58519E-10 2.77495E-09
 -1       595-7.68204E+04-1.81612E+04-7.13731E+02-3.86496E+04-6.20048E-10 2.66522E-09
 -1       596-7.51773E+04-1.98490E+04-3.60956E+02-4.05697E+04-5.34442E-10 7.39362E-10
 -1       597-7.68339E+04-1.81738E+04-1.94520E+02-3.86496E+04 2.21000E-09 6.03120E-09
 -1       598-7.51654E+04-1.98499E+04-1.51812E+02-4.05644E+04-4.11632E-10 3.04476E-09
 -1       599-7.68331E+04-1.81746E+04-1.88049E+02-3.86491E+04-2.41391E-09 2.60275E-09
 -1       600-7.51753E+04-1.98500E+04-3.43980E+02-4.05678E+04-2.65186E-09 6.86305E-09
 -1       601-7.68181E+04-1.81636E+04-6.77008E+02-3.86481E+04 2.08252E-09-4.22210E-09
 -1       602-7.52841E+04-1.99108E+04-1.46588E+03-4.05802E+04 7.11543E-09-7.81165E-09
 -1       603-7.67394E+04-1.82776E+04-2.98426E+03-3.85718E+04 2.85286E-09-3.89718E-10
 -1       604-7.68818E+04-2.16494E+04-7.02818E+03-4.04171E+04-4.53008E-09-7.71570E-09
 -1       605-7.60476E+04-2.23787E+04-1.40145E+04-3.65714E+04 4.48154E-10-9.02219E-10
 -1       606 5.52249E+04-6.21912E+03-9.75100E+03 1.79962E+04-3.55067E-09 7.00766E-10
 -1       607 5.36846E+04-2.09728E+03-4.79760E+03 1.97309E+04-1.64982E-09 7.30779E-10
 -1       608 5.45805E+04-4.49780E+02-2.13683E+03 1.78726E+04 1.47338E-09-5.27962E-10
 -1       609 5.43804E+04-1.28677E+02-1.07250E+03 1.98682E+04-2.10412E-09 3.63116E-10
 -1       610 5.44949E+04 1.75856E+00-5.07051E+02 1.78571E+04-3.94266E-09-1.03955E-09
 -1       611 5.44553E+04 1.85261E+01-2.55005E+02 1.98852E+04-4.38195E-09 2.24600E-09
 -1       612 5.44751E+04 2.38001E+01-1.20577E+02 1.78553E+04 1.05410E-09 2.34013E-09
 -1       613 5.44596E+04 2.52959E+01-5.39286E+01 1.98873E+04-2.49315E-09-1.09117E-09
 -1       614 5.44656E+04 2.26457E+01-1.24164E+01 1.78549E+04-1.74259E-09-1.46292E-09
 -1       615 5.44571E+04 2.68447E+01 2.31965E+01 1.98876E+04 1.75896E-09 1.69234E-09
 -1       616 5.44583E+04 2.63536E+01 6.91136E+01 1.78551E+04-3.65890E-09-3.89537E-09
 -1       617 5.44659E+04 4.99968E+01 1.58824E+02 1.98869E+04-6.18456E-10-3.17868E-09
 -1       618 5.44434E+04 9.53628E+01 3.22014E+02 1.78554E+04-2.46246E-10-1.91994E-09
 -1       619 5.45707E+04 3.48859E+02 7.26587E+02 1.98839E+04 3.81647E-10-5.28644E-10
 -1       620 5.43457E+04 9.70448E+02 1.47802E+03 1.78572E+04 4.91980E-10-2.90879E-09
 -1       621 5.08093E+02 1.58538E+05 1.79134E+03-1.30956E+04 7.80119E-10-5.10738E-10
 -1       622 2.29142E+02 1.58899E+05 1.90605E+03-1.60252E+04-3.00929E-10-4.23370E-10
 -1       623 1.45570E+02 1.58578E+05 2.83039E+03-1.30984E+04 7.55790E-10 2.11003E-09
 -1       624 1.49348E+03 1.59838E+05 5.83314E+03-1.59744E+04-3.43903E-10 1.05604E-09
 -1       625 4.29426E+03 1.57606E+05 1.11351E+04-1.31454E+04 7.51697E-10-1.38698E-09
 -1       626 9.82072E+04 3.22148E+04-1.47612E+03 6.27303E+04-3.71847E-09-9.13678E-09
 -1       627 9.60702E+04 3.46775E+04-7.01935E+02 6.46805E+04 9.78616E-10-1.54438E-09
 -1       628 9.82877E+04 3.28580E+04-2.95000E+02 6.23016E+04 7.51243E-10 3.18323E-12
 -1       629 9.60996E+04 3.50459E+04-1.39883E+02 6.47352E+04 3.04317E-09 2.56463E-10
 -1       630 9.82839E+04 3.29009E+04-5.92024E+01 6.22613E+04 2.02090E-09-3.32128E-09
 -1       631 9.60906E+04 3.50766E+04-2.04401E+01 6.47396E+04-2.38833E-09-3.68829E-10
 -1       632 9.82756E+04 3.29035E+04 8.16152E+00 6.22548E+04 3.75803E-09 5.79610E-09
 -1       633 9.60870E+04 3.50795E+04 4.11232E+01 6.47386E+04-4.09273E-12 2.14925E-09
 -1       634 9.82682E+04 3.29004E+04 9.52588E+01 6.22529E+04 1.70076E-09 8.36326E-09
 -1       635 9.60960E+04 3.50816E+04 2.11689E+02 6.47404E+04 2.08490E-09 8.48422E-09
 -1       636 9.82586E+04 3.29071E+04 4.37240E+02 6.22470E+04-3.15964E-09 6.68479E-10
 -1       637 9.61969E+04 3.51885E+04 9.73380E+02 6.47258E+04-1.56888E-11-7.62611E-10
 -1       638 9.82321E+04 3.32327E+04 2.01385E+03 6.21037E+04 2.49884E-10-1.03773E-09
 -1       639 9.72256E+04 3.69173E+04 4.78664E+03 6.43124E+04-1.11459E-09-1.15051E-09
 -1       640 9.82438E+04 3.82724E+04 1.00642E+04 6.00016E+04 3.18778E-10 7.82939E-09
 -1       641-3.76048E+03 1.73213E+03-3.99292E+03-1.03545E+01 1.15935E-05-8.95193E-09
 -1       642-5.49353E+03-2.00472E+03-2.82498E+03 2.25144E+01 2.31644E-05-1.71093E-08
 -1       643-4.42821E+03 2.72224E+02-1.02859E+03-1.06364E+01 2.13997E-05-1.93053E-08
 -1       644-4.71509E+03-3.14176E+02-6.39329E+02 2.32010E+01 1.96232E-05-1.37653E-08
 -1       645-4.53896E+03 4.19104E+01-2.43755E+02-1.10416E+01 1.36529E-05-1.09933E-08
 -1       646-4.58303E+03-4.37751E+01-1.11460E+02 2.37556E+01 7.67408E-06-5.19092E-09
 -1       647-4.56027E+03 1.87211E+00 1.12624E+01-1.11911E+01-6.12932E-07-1.10762E-09
 -1       648-4.54318E+03 2.80495E+01 1.34343E+02 2.37265E+01-8.90415E-06 6.29387E-09
 -1       649-4.57881E+03-2.99052E+01 2.92948E+02-1.10125E+01-1.88036E-05 1.94726E-08
 -1       650-4.43653E+03 2.28724E+02 7.04769E+02 2.29869E+01-2.87021E-05 2.61091E-08
 -1       651-4.66692E+03-1.98774E+02 1.22341E+03-1.04514E+01-3.89219E-05 3.67497E-08
 -1       652-3.83189E+03 1.46982E+03 3.02881E+03 2.12473E+01-4.91396E-05 3.96528E-08
 -1       653-5.18341E+03-1.27077E+03 4.82007E+03-9.27311E+00-5.42909E-05 4.71887E-08
 -1       654-1.97198E+02 9.35527E+03 1.31938E+04 1.69951E+01-5.94142E-05 4.16567E-08
 -1       655-8.30110E+03-8.08265E+03 1.86354E+04-6.19959E+00-2.97303E-05 1.84673E-08
 -1       656 6.23228E+03-2.31333E+05-2.64547E+04 6.29378E+03-1.43609E-09 2.20234E-09
 -1       657-9.04304E+03-2.41129E+05-1.95845E+04 2.70462E+04-9.37462E-10-1.84838E-09
 -1       658 1.27657E+03-2.34741E+05-1.26798E+04 6.24277E+03-2.92431E-10-7.78755E-12
 -1       659-8.78822E+03-2.40997E+05-1.91518E+04 2.70766E+04-6.56655E-10 1.57579E-09
 -1       660 6.03242E+03-2.31483E+05-2.56375E+04 6.26361E+03-6.76664E-10 2.46689E-09
 -1       661 1.50279E+05 2.07878E+04 1.18510E+04 5.88454E+04 4.07215E-09-4.22915E-11
 -1       662 1.52893E+05 2.76076E+04 7.13669E+03 6.05145E+04 1.88506E-09 8.75650E-09
 -1       663 1.52100E+05 2.25539E+04 2.78148E+03 5.88548E+04 6.04587E-10-4.17231E-11
 -1       664 1.50765E+05 2.47455E+04 1.46785E+03 6.08490E+04 3.44494E-09 3.15453E-10
 -1       665 1.52275E+05 2.27149E+04 6.49647E+02 5.88617E+04 3.44798E-09 1.91994E-09
 -1       666 1.50562E+05 2.45073E+04 3.45887E+02 6.08633E+04 4.39800E-09 2.07652E-09
 -1       667 1.52294E+05 2.27310E+04 2.01659E+02 5.88633E+04-6.30870E-10-4.81748E-09
 -1       668 1.50544E+05 2.44909E+04 1.94092E+02 6.08638E+04 1.20394E-10-7.06166E-10
 -1       669 1.52292E+05 2.27286E+04 2.83735E+02 5.88624E+04-2.51134E-09 8.44864E-10
 -1       670 1.50580E+05 2.45256E+04 5.67773E+02 6.08685E+04 6.14818E-10 2.87946E-09
 -1       671 1.52259E+05 2.26987E+04 1.11143E+03 5.88583E+04 5.68258E-09 3.38082E-09
 -1       672 1.50933E+05 2.49410E+04 2.53821E+03 6.08471E+04 8.26947E-09-2.30438E-09
 -1       673 1.51957E+05 2.24181E+04 4.81945E+03 5.88452E+04 3.38503E-09-3.43061E-09
 -1       674 1.54622E+05 2.99072E+04 1.23741E+04 6.02707E+04 1.16707E-08 2.14391E-09
 -1       675 1.48801E+05 1.93535E+04 2.05493E+04 5.88267E+04 5.31213E-09-1.41881E-09
 -1       676 3.34653E+02-2.28364E+05-1.97297E+03-1.94032E+01 4.25580E-10 3.52041E-09
 -1       677-9.03829E+02-2.29176E+05-2.91291E+03-5.82518E+02 1.24345E-10 4.53045E-09
 -1       678 4.33904E+02-2.28266E+05-4.28897E+03-2.00603E+01-2.29875E-10 7.47605E-10
 -1       679-5.10794E+03-2.31626E+05-1.01903E+04-5.80414E+02-3.68345E-10 2.72638E-09
 -1       680 3.82160E+03-2.25915E+05-1.56459E+04-2.19479E+01-3.81351E-09-1.97467E-09
 -1       716-1.76993E-01-8.43819E-02 7.91978E+00-1.90396E-04 1.88416E-09-1.91968E-09
 -1       717 8.71609E-01 6.35633E-01 1.39482E+01 4.84797E-04 6.01020E-09-1.40622E-09
 -1       718-6.94623E-01-5.51477E-01 2.58841E+01-2.94520E-04 5.27081E-10-7.69533E-10
 -1       719 4.11566E+00 4.32965E+00 5.36883E+01-4.39896E-04-1.25237E-09 1.08583E-09
 -1       720-3.42109E+00-3.77863E+00 1.02398E+02 7.34759E-04-2.02356E-09-1.33048E-09
 -1       721 2.13011E+01 2.88487E+01 2.18844E+02-1.55128E-02-3.68124E-09-5.67933E-10
 -1       722-1.78801E+01-2.50696E+01 4.09602E+02 1.47765E-02-2.36730E-09-1.94879E-09
 -1       723 1.15812E+02 1.88240E+02 9.02210E+02-1.48861E-01 1.10862E-09-2.00005E-09
 -1       724-9.79302E+01-1.63151E+02 1.63375E+03 1.34050E-01-3.48710E-09-1.15836E-09
 -1       725 6.55985E+02 1.21298E+03 3.76531E+03-1.14481E+00-1.81067E-09-2.82625E-10
 -1       726-5.58006E+02-1.04964E+03 6.47821E+03 1.01047E+00-2.64443E-09-1.55796E-09
 -1       727 3.83844E+03 7.75653E+03 1.59927E+04-8.05291E+00-4.81170E-09-1.44973E-09
 -1       728-3.27952E+03-6.70538E+03 2.54430E+04 7.04121E+00-7.61595E-10-2.11367E-09
 -1       729 2.30110E+04 4.93643E+04 6.96226E+04-5.41642E+01 5.39309E-10 1.75532E-10
 -1       730-1.97160E+04-4.26458E+04 9.83731E+04 4.71278E+01 3.29770E-09-1.39698E-09
 -1       766-4.26543E+04-1.97380E+04 9.83559E+04-2.30230E+01-2.69210E-10-1.74266E-09
 -1       767 4.94344E+04 2.30410E+04 6.96146E+04-5.24732E+01 3.19869E-09-8.03119E-10
 -1       768-6.76696E+03-3.32999E+03 2.53606E+04 2.01052E+01-9.09495E-11 5.17829E-10
 -1       769 8.20867E+03 4.04152E+03 1.59979E+04-1.01754E+02 2.81966E-09 3.32176E-09
 -1       770-1.43995E+03-7.52909E+02 6.11058E+03 2.62624E+01-3.41061E-11 1.19543E-09
 -1       771-1.24552E+06-2.42747E+05-3.56700E+04-5.37206E+05-4.26735E-09-4.80213E-10
 -1       772-1.24004E+06-2.48196E+05-1.78551E+04-5.55398E+05-1.49157E-09 1.94632E-09
 -1       773-1.24782E+06-2.31893E+05-7.61906E+03-5.42055E+05-2.11003E-09 2.60115E-10
 -1       774-1.23588E+06-2.44083E+05-3.72586E+03-5.56473E+05 2.02817E-09 6.03177E-09
 -1       775-1.24829E+06-2.31418E+05-1.74019E+03-5.42321E+05-1.74623E-10-2.65572E-10
 -1       776-1.23575E+06-2.43917E+05-8.71018E+02-5.56695E+05 4.65661E-10-1.16518E-09
 -1       777-1.24851E+06-2.31326E+05-4.78546E+02-5.42399E+05 3.78350E-10 4.29168E-10
 -1       778-1.23584E+06-2.43886E+05-3.61211E+02-5.56847E+05-1.00044E-09-4.78224E-10
 -1       779-1.24864E+06-2.31246E+05-4.50787E+02-5.42452E+05 2.54659E-11-1.89630E-10
 -1       780-1.23595E+06-2.43868E+05-8.14905E+02-5.56953E+05-7.14408E-10 3.72438E-10
 -1       781-1.24867E+06-2.31179E+05-1.60914E+03-5.42477E+05-6.36646E-10-6.70752E-10
 -1       782-1.23624E+06-2.44003E+05-3.48666E+03-5.57012E+05-2.84217E-10-7.67614E-10
 -1       783-1.24848E+06-2.31453E+05-7.10671E+03-5.42300E+05-1.51294E-09-1.47247E-09
 -1       784-1.24008E+06-2.48107E+05-1.67502E+04-5.56537E+05-1.64982E-09-2.22281E-09
 -1       785-1.24673E+06-2.41305E+05-3.34140E+04-5.37567E+05 1.09139E-10 8.29459E-10
 -1       786 1.20341E+05-3.80889E+03 1.55617E+04-9.17032E+02 1.55865E-10 4.80213E-10
 -1       787 1.26021E+05 5.05475E+03 1.00317E+04-4.03907E+03-3.34154E-10 1.81944E-09
 -1       788 1.22707E+05-4.02694E+02 4.03576E+03-9.11805E+02 2.54659E-11-9.29276E-10
 -1       789 1.23378E+05 5.15299E+02 2.26624E+03-4.04196E+03 2.31239E-10 1.19189E-09
 -1       790 1.22982E+05-4.42070E+01 1.02599E+03-9.13973E+02-2.23480E-10 5.46265E-10
 -1       791 1.23066E+05 5.20105E+01 5.52301E+02-4.03881E+03 7.54902E-10 5.72811E-10
 -1       792 1.23018E+05-5.50434E+00 2.82060E+02-9.14958E+02-6.83045E-11 3.30652E-09
 -1       793 1.23027E+05 7.09651E+00 1.87436E+02-4.03838E+03-3.80549E-10 8.72248E-10
 -1       794 1.23021E+05-3.00700E+00 1.72421E+02-9.14404E+02-2.52953E-12 8.72092E-10
 -1       795 1.23039E+05 2.22516E+01 2.62525E+02-4.04121E+03-8.46967E-12 2.27966E-09
 -1       796 1.23007E+05-1.92931E+01 4.51282E+02-9.12133E+02-2.87002E-10 3.29251E-10
 -1       797 1.23172E+05 2.19482E+02 9.75167E+02-4.04627E+03-4.97607E-10 2.55270E-10
 -1       798 1.22890E+05-1.72784E+02 1.72775E+03-9.09337E+02 7.98309E-10-7.05597E-10
 -1       799 1.24303E+05 2.15909E+03 4.28910E+03-4.04321E+03-9.04151E-10-7.79039E-10
 -1       800 1.21879E+05-1.62913E+03 6.65083E+03-9.15282E+02-3.66526E-10-8.50832E-10
 -1       801-6.21302E+03 1.25155E+05 1.94810E+04-1.77129E+05 3.78350E-10 1.22236E-09
 -1       802 1.66401E+04 1.30457E+05 2.66680E+04-7.73772E+05 9.02583E-09 2.50930E-09
 -1       803-1.10437E+03 1.23464E+05 3.37617E+04-1.76560E+05 4.79304E-09 3.99768E-09
 -1       804 4.56397E+04 1.47485E+05 7.69453E+04-7.73713E+05 6.01358E-09-2.80943E-09
 -1       805-3.03441E+04 1.08280E+05 1.13963E+05-1.77195E+05 4.66389E-09 1.96451E-10
 -1       806-1.12116E+05-3.32964E+04-9.39712E+03-5.66236E+04-1.70884E-09-8.04903E-09
 -1       807-1.11753E+05-3.14403E+04-4.46879E+03-5.99806E+04-1.04399E-09-3.00849E-09
 -1       808-1.12108E+05-2.85927E+04-1.88070E+03-5.85967E+04 2.41880E-09 6.83525E-09
 -1       809-1.10807E+05-2.98160E+04-9.09291E+02-6.03633E+04 8.33325E-11-4.46792E-09
 -1       810-1.12136E+05-2.82867E+04-4.10507E+02-5.87337E+04-8.94943E-10 5.87534E-10
 -1       811-1.10717E+05-2.97146E+04-2.02648E+02-6.03781E+04-1.70849E-09 3.85057E-10
 -1       812-1.12144E+05-2.82799E+04-9.97923E+01-5.87393E+04 2.33058E-11-2.19507E-09
 -1       813-1.10707E+05-2.97131E+04-6.17734E+01-6.03752E+04 1.17421E-09 7.59655E-10
 -1       814-1.12144E+05-2.82829E+04-5.57943E+01-5.87382E+04 7.82165E-10-2.04636E-11
 -1       815-1.10709E+05-2.97155E+04-8.58403E+01-6.03734E+04-9.87939E-11-4.60545E-10
 -1       816-1.12138E+05-2.82880E+04-1.59899E+02-5.87348E+04 6.50653E-09-3.03726E-09
 -1       817-1.10745E+05-2.97507E+04-3.47468E+02-6.03598E+04 2.26424E-08 7.58996E-09
 -1       818-1.12121E+05-2.84111E+04-7.15531E+02-5.86860E+04 1.26493E-08 7.59132E-09
 -1       819-1.11142E+05-3.03266E+04-1.69796E+03-6.01633E+04 1.13687E-10 2.62878E-09
 -1       820-1.12081E+05-3.02354E+04-3.56945E+03-5.79774E+04 7.96717E-10 2.10207E-09
 -1       821-1.57199E+05 4.71546E+03-1.92754E+04 1.10486E+03-1.47543E-09 8.73115E-10
 -1       822-1.64226E+05-6.26064E+03-1.24257E+04 4.96228E+03-4.30418E-10-2.00976E-09
 -1       823-1.60130E+05 4.97616E+02-5.00133E+03 1.07593E+03 1.61663E-09 2.54431E-10
 -1       824-1.60959E+05-6.34794E+02-2.81099E+03 5.00061E+03-4.66343E-10 1.86384E-09
 -1       825-1.60471E+05 5.50036E+01-1.28032E+03 1.06631E+03-3.37161E-09-1.30223E-09
 -1       826-1.60578E+05-5.92613E+01-7.02994E+02 5.01608E+03-5.45867E-09 1.16472E-10
 -1       827-1.60515E+05 8.29256E+00-3.87234E+02 1.06040E+03-2.86263E-09 9.09864E-10
 -1       828-1.60536E+05-5.45273E+00-3.10357E+02 5.02535E+03-3.54001E-09-1.21969E-09
 -1       829-1.60516E+05 8.17784E+00-3.65708E+02 1.05703E+03-7.67415E-10-1.24474E-09
 -1       830-1.60576E+05-5.22819E+01-6.46584E+02 5.02906E+03 2.82110E-09-5.07242E-10
 -1       831-1.60477E+05 5.12591E+01-1.16781E+03 1.05670E+03-1.66411E-09-1.86674E-10
 -1       832-1.60925E+05-5.74768E+02-2.55938E+03 5.02656E+03-3.84205E-10 1.51766E-09
 -1       833-1.60167E+05 4.54623E+02-4.55046E+03 1.05958E+03 3.44812E-10 7.98536E-10
 -1       834-1.63900E+05-5.69251E+03-1.13059E+04 5.00981E+03-1.12109E-09 9.35643E-10
 -1       835-1.57500E+05 4.29289E+03-1.75365E+04 1.07392E+03 1.95143E-09-1.71258E-09
 -1       836-2.46252E+03 2.54591E+05 2.09920E+04-1.27250E+04-1.14323E-09 1.08298E-09
 -1       837 5.33608E+03 2.61514E+05 1.61946E+04-3.02053E+04-1.15276E-09-1.95541E-11
 -1       838-5.87759E+02 2.56861E+05 1.34564E+04-1.26896E+04-1.54614E-09 5.61066E-10
 -1       839 8.58936E+03 2.63755E+05 2.31447E+04-3.02049E+04-1.21145E-09-2.91107E-09
 -1       840-4.26699E+03 2.52350E+05 3.47887E+04-1.27250E+04-1.41699E-09 5.33873E-10
 -1       841 3.98134E+04 5.75617E+03-4.17667E+02 1.48501E+04-1.20833E-05 4.53265E-06
 -1       842 3.95282E+04 5.44342E+03-2.87583E+02 1.50047E+04-2.41508E-05 9.06970E-06
 -1       843 3.97191E+04 5.61823E+03-9.59728E+01 1.48929E+04-1.92080E-05 7.21239E-06
 -1       844 3.96419E+04 5.59911E+03-5.62001E+01 1.49500E+04-1.42436E-05 5.35219E-06
 -1       845 3.96997E+04 5.60051E+03-1.36419E+01 1.49047E+04-1.00266E-05 3.76465E-06
 -1       846 3.96687E+04 5.62035E+03 7.79876E+00 1.49334E+04-5.81111E-06 2.18187E-06
 -1       847 3.96923E+04 5.59701E+03 3.44486E+01 1.49095E+04-3.53840E-06 1.32560E-06
 -1       848 3.96901E+04 5.64292E+03 9.22175E+01 1.49243E+04-1.26284E-06 4.76126E-07
 -1       849 3.96783E+04 5.57794E+03 1.72149E+02 1.49137E+04-3.52286E-07 1.32438E-07
 -1       850 3.97789E+04 5.78718E+03 4.36329E+02 1.49001E+04 5.56888E-07-2.10174E-07
 -1       851 3.96034E+04 5.45277E+03 7.53762E+02 1.49338E+04 3.98107E-07-1.50373E-07
 -1       852 4.03125E+04 6.70468E+03 2.03553E+03 1.47400E+04 2.39772E-07-8.93463E-08
 -1       853 3.91447E+04 4.66056E+03 3.25518E+03 1.50738E+04-8.73156E-07 3.31380E-07
 -1       854 4.36048E+04 1.25129E+04 9.65266E+03 1.36586E+04-1.99127E-06 7.47157E-07
 -1       855 3.63113E+04-3.54459E+02 1.38936E+04 1.60148E+04-9.93879E-07 3.73874E-07
 -1       856-1.31922E+05 1.94242E+03-1.54724E+04 4.49270E+03-5.41695E-09 2.25100E-09
 -1       857-1.36978E+05-3.73926E+03-9.45037E+03 1.07424E+04-6.20309E-09-1.02659E-09
 -1       858-1.34107E+05 1.78302E+02-3.97260E+03 4.44426E+03-6.17410E-09 5.77529E-11
 -1       859-1.34603E+05-2.65871E+02-2.13781E+03 1.07970E+04-1.14869E-09 2.22099E-09
 -1       860-1.34314E+05 2.66120E+01-1.00324E+03 4.43725E+03-1.89948E-09 8.63793E-10
 -1       861-1.34381E+05-7.13698E-01-5.28145E+02 1.08062E+04-8.16755E-09 8.86644E-10
 -1       862-1.34341E+05 1.18109E+01-2.76476E+02 4.43498E+03-1.06513E-09-2.59286E-09
 -1       863-1.34357E+05 1.91323E+01-1.84491E+02 1.08088E+04 5.07887E-09-2.81460E-10
 -1       864-1.34343E+05 1.07081E+01-1.75925E+02 4.43463E+03-9.43317E-10-2.92687E-09
 -1       865-1.34364E+05 1.09236E+01-2.68001E+02 1.08072E+04 3.54737E-09 3.64508E-10
 -1       866-1.34331E+05 1.67198E+01-4.74532E+02 4.43662E+03-6.58360E-10-1.76767E-09
 -1       867-1.34463E+05-1.12276E+02-9.91423E+02 1.07998E+04-1.81262E-09 2.84388E-10
 -1       868-1.34235E+05 8.53568E+01-1.83450E+03 4.44209E+03 1.41267E-09-4.29134E-09
 -1       869-1.35553E+05-1.71510E+03-4.35744E+03 1.07501E+04 1.01261E-09-1.18595E-09
 -1       870-1.33226E+05 8.96415E+02-7.13379E+03 4.48668E+03 2.59729E-09-1.72486E-09
 -1       871-2.15999E+03-1.77540E+04-4.64730E+03 6.50324E+04 1.78898E-09 6.99401E-10
 -1       872-7.18923E+02-1.86603E+04-1.44018E+03 7.84590E+04 1.36924E-09-1.89812E-09
 -1       873 2.01470E+01-1.83038E+04 1.22931E+03 6.48975E+04 8.81528E-10-7.42830E-10
 -1       874 1.36474E+03-1.72152E+04 4.80237E+03 7.85125E+04 1.00181E-09-1.30541E-10
 -1       875 4.24304E+03-1.92416E+04 1.02801E+04 6.49833E+04 1.41790E-09-7.15545E-10
 -1       876 1.92863E+05 2.76931E+04 1.72363E+04 7.65981E+04 3.50371E-09-1.98361E-09
 -1       877 1.96034E+05 3.72532E+04 1.02439E+04 7.96998E+04 4.11450E-09-1.56160E-09
 -1       878 1.95418E+05 2.98415E+04 4.03239E+03 7.67377E+04 5.38751E-09-1.92858E-09
 -1       879 1.93021E+05 3.33428E+04 2.10583E+03 8.01249E+04 1.14971E-09-1.88129E-09
 -1       880 1.95648E+05 3.00355E+04 9.35950E+02 7.67586E+04 4.76973E-09-3.29749E-09
 -1       881 1.92750E+05 3.30354E+04 4.89059E+02 8.01310E+04 7.81307E-09 3.66165E-09
 -1       882 1.95671E+05 3.00582E+04 2.72659E+02 7.67634E+04 5.42724E-09-1.76311E-09
 -1       883 1.92727E+05 3.30114E+04 2.38953E+02 8.01249E+04-8.26753E-09-4.13834E-10
 -1       884 1.95668E+05 3.00584E+04 3.26558E+02 7.67639E+04-4.95429E-09-1.35881E-09
 -1       885 1.92764E+05 3.30412E+04 6.33780E+02 8.01278E+04 2.93687E-09 2.04386E-09
 -1       886 1.95634E+05 3.00311E+04 1.23911E+03 7.67594E+04 1.12786E-09 7.44990E-10
 -1       887 1.93129E+05 3.34479E+04 2.80204E+03 8.01139E+04-2.33695E-09 1.77198E-09
 -1       888 1.95323E+05 2.97748E+04 5.37136E+03 7.67326E+04-1.69308E-09 5.60090E-09
 -1       889 1.97134E+05 3.86677E+04 1.36489E+04 7.95552E+04 1.18519E-08 1.48702E-09
 -1       890 1.91928E+05 2.69031E+04 2.29665E+04 7.65340E+04 3.18801E-09-4.80031E-09
 -1       891 4.39514E+02-9.65671E+04-3.94827E+03 1.94949E+04 7.58746E-10 3.13594E-09
 -1       892-1.03526E+03-9.78443E+04-3.00050E+03 4.64350E+04-5.88670E-10 6.29461E-09
 -1       893 9.20784E+01-9.70122E+04-2.43016E+03 1.94362E+04-2.02965E-09 1.31161E-09
 -1       894-1.55527E+03-9.81918E+04-4.10391E+03 4.64229E+04-1.36424E-09-1.57354E-09
 -1       895 7.20020E+02-9.62054E+04-6.14023E+03 1.95068E+04 9.27457E-10 8.97217E-10
 -1       926-2.98926E+02-5.53340E+02 1.27013E+03 2.12998E+01 2.17410E-10-5.82645E-10
 -1       927 3.20960E+02 6.40744E+02 9.20637E+02-8.46236E+01-1.55967E-09-7.57112E-10
 -1       928-7.71733E+01-8.74518E+01 3.51237E+02 2.09307E+01 3.28351E-11-3.55357E-10
 -1       929 5.96549E+01 1.04725E+02 2.65706E+02-8.42481E+01 9.03007E-10-3.74976E-10
 -1       930-3.77225E+01-1.73541E+01 1.86258E+02 2.09242E+01 5.85185E-11-1.66460E-10
 -1       931 2.40057E+01 4.48741E+01 2.74024E+02-8.42417E+01-1.12369E-09-7.72289E-11
 -1       932-4.15999E+01-2.75596E+01 4.38029E+02 2.09243E+01-1.27591E-06-8.21387E-12
 -1       933 1.05564E+02 1.94144E+02 9.32409E+02-8.42321E+01-2.54949E-06-7.90266E-11
 -1       934-1.19329E+02-1.66573E+02 1.67105E+03 2.09145E+01-1.51663E-06-1.01977E-10
 -1       935 6.51436E+02 1.23703E+03 3.84236E+03-8.41745E+01-4.82396E-07 1.27557E-10
 -1       936-5.87447E+02-1.07026E+03 6.60711E+03 2.08668E+01-1.68445E-07 1.02773E-10
 -1       937 3.89673E+03 7.90929E+03 1.63084E+04-8.43167E+01 1.47313E-07 2.61707E-10
 -1       938-3.36372E+03-6.83741E+03 2.59442E+04 2.10569E+01-8.42051E-08-7.09406E-11
 -1       939 2.34518E+04 5.03373E+04 7.09952E+04-9.09586E+01-3.22326E-07-2.09184E-11
 -1       940-2.01274E+04-4.34867E+04 1.00309E+05 2.75080E+01-1.62937E-07 4.43833E-10
 -1       956-1.82531E+05-3.10064E+03-8.01664E+03 2.06073E+04-6.50562E-09-2.11230E-10
 -1       957-1.84136E+05-1.06003E+03-4.12512E+03 2.49432E+04-8.11815E-09-7.65567E-10
 -1       958-1.83258E+05-7.90286E+01-1.85907E+03 2.04770E+04-3.14321E-09 1.09935E-09
 -1       959-1.83390E+05-9.82251E+00-9.49351E+02 2.50845E+04-3.16641E-09-1.10958E-09
 -1       960-1.83327E+05 3.05508E+01-4.62360E+02 2.04652E+04-3.96540E-09 7.78300E-10
 -1       961-1.83341E+05 3.19027E+01-2.43464E+02 2.50978E+04-5.71640E-09 5.05906E-10
 -1       962-1.83343E+05 2.93076E+01-1.36212E+02 2.04636E+04-3.45153E-09 1.69803E-09
 -1       963-1.83342E+05 3.44280E+01-1.03635E+02 2.50998E+04-4.36364E-09 1.74441E-09
 -1       964-1.83347E+05 3.13163E+01-1.18927E+02 2.04631E+04-1.70201E-09-1.21076E-09
 -1       965-1.83349E+05 3.67219E+01-1.99774E+02 2.50997E+04 1.75504E-09 2.81261E-10
 -1       966-1.83341E+05 3.62488E+01-3.71896E+02 2.04638E+04-6.75925E-09-5.89353E-10
 -1       967-1.83395E+05 7.31049E+00-7.60715E+02 2.50917E+04-8.27629E-09-3.22871E-11
 -1       968-1.83291E+05-4.79286E+01-1.48752E+03 2.04712E+04-4.17094E-09-1.44951E-11
 -1       969-1.83999E+05-8.30215E+02-3.30147E+03 2.50011E+04-8.83119E-10 6.85134E-10
 -1       970-1.82714E+05-2.46438E+03-6.41505E+03 2.05558E+04 9.34051E-10 1.34787E-09
 -1       971-2.34651E+05 1.03096E+03-1.08704E+04 5.22016E+03-1.91631E-09 2.13686E-09
 -1       972-2.38088E+05-2.43455E+03-6.55388E+03 1.14173E+04-3.21484E-09-3.58682E-10
 -1       973-2.36156E+05 9.73476E+01-2.78405E+03 5.15659E+03-3.33057E-09-1.79170E-09
 -1       974-2.36468E+05-1.53944E+02-1.49109E+03 1.14915E+04 3.19687E-10-6.76096E-10
 -1       975-2.36293E+05 1.89111E+01-7.15078E+02 5.14541E+03-1.90084E-10 6.25391E-10
 -1       976-2.36328E+05 8.85325E+00-3.95891E+02 1.15074E+04-4.64922E-09 1.95399E-09
 -1       977-2.36311E+05 1.22073E+01-2.48813E+02 5.14061E+03 4.26598E-09-6.67342E-10
 -1       978-2.36319E+05 2.05306E+01-2.42558E+02 1.15139E+04 9.77784E-09-1.11316E-09
 -1       979-2.36310E+05 1.43946E+01-3.46742E+02 5.13883E+03 3.98359E-09-5.23528E-10
 -1       980-2.36350E+05 2.69369E+00-6.49221E+02 1.15142E+04 7.96553E-09 2.64003E-09
 -1       981-2.36281E+05 3.06212E+01-1.23099E+03 5.14033E+03 1.71815E-09 2.86119E-09
 -1       982-2.36608E+05-2.77658E+02-2.60462E+03 1.15066E+04-7.56927E-10 1.48367E-09
 -1       983-2.36045E+05 1.73307E+02-4.87605E+03 5.14655E+03 3.59705E-10 4.63160E-10
 -1       984-2.39465E+05-4.27267E+03-1.14952E+04 1.14549E+04-3.95539E-09 2.51930E-10
 -1       985-2.33411E+05 1.81770E+03-1.90640E+04 5.19350E+03 1.25374E-09-1.09139E-11
 -3
    1PSTEP                        13           7           1          
  100CL  107 4.55078E-01         568                     0    7           1
 -4  DISP        4    1
 -5  D1          1    2    1    0
 -5  D2          1    2    2    0
 -5  D3          1    2    3    0
 -5  ALL         1    2    0    0    1ALL
 -1         1 6.67140E-05 0.00000E+00 0.00000E+00
 -1         2 6.67112E-05 0.00000E+00 0.00000E+00
 -1         3 4.52094E-05-1.26664E-27 6.61744E-24
 -1         4 3.37107E-05-4.36832E-29 0.00000E+00
 -1         5 3.41178E-05 4.25521E-29-3.30872E-24
 -1         8 5.30464E-05-6.51330E-07 0.00000E+00
 -1         9 4.18472E-05-3.26516E-06 0.00000E+00
 -1        10 4.14312E-05-1.32393E-06 0.00000E+00
 -1        11 3.35031E-05-3.73083E-06 0.00000E+00
 -1        12 3.35092E-05 5.56264E-07 0.00000E+00
 -1        15 3.84441E-05-6.87429E-07 0.00000E+00
 -1        16 3.32430E-05-3.35078E-06 0.00000E+00
 -1        17 3.07435E-05-2.64972E-06 0.00000E+00
 -1        18 3.07380E-05-3.40677E-07 0.00000E+00
 -1        19 3.16920E-05 1.10870E-06 0.00000E+00
 -1        20 3.20353E-05 1.30065E-05 0.00000E+00
 -1        21 3.19960E-05 2.88937E-05 0.00000E+00
 -1        23 1.19603E-05-4.19990E-05 4.03897E-28
 -1        24 1.18835E-05-3.23863E-06 0.00000E+00
 -1        25 2.86082E-05-1.81139E-07 0.00000E+00
 -1        26 2.93803E-05 1.48044E-06 0.00000E+00
 -1        27 2.83729E-05 1.24618E-05 0.00000E+00
 -1        28 2.75226E-05 2.83551E-05 0.00000E+00
 -1        31 3.45129E-08-3.28145E-06 0.00000E+00
 -1        32 0.00000E+00 0.00000E+00 0.00000E+00
 -1        33 2.67546E-05 2.07399E-06 0.00000E+00
 -1        34 2.55967E-05 1.24158E-05 0.00000E+00
 -1        35 2.41039E-05 2.81266E-05 0.00000E+00
 -1        36 6.67062E-05-7.23580E-20 0.00000E+00
 -1        37 6.67063E-05-1.87765E-19 0.00000E+00
 -1        38 6.67058E-05-2.23628E-19 8.27181E-25
 -1        39 6.67068E-05-3.50233E-19 2.06795E-25
 -1        40 6.67079E-05-6.84599E-19 0.00000E+00
 -1        41 6.67092E-05-8.01883E-19 0.00000E+00
 -1        42 6.67106E-05-8.95600E-19-6.46235E-27
 -1        43 6.67120E-05-1.10111E-18-1.61559E-27
 -1        44 6.67135E-05-1.48275E-18-6.46235E-27
 -1        45 6.67149E-05-1.60060E-18-2.58494E-26
 -1        46 6.67162E-05-8.04986E-19 0.00000E+00
 -1        47 6.67173E-05-4.09262E-20 0.00000E+00
 -1        48 6.67184E-05 3.13152E-19-8.27181E-25
 -1        49 6.67181E-05 6.48686E-19 0.00000E+00
 -1        50 6.67182E-05 2.53914E-19-3.30872E-24
 -1        51 6.56814E-05-1.09094E-07 0.00000E+00
 -1        52 6.39707E-05-2.14774E-07 0.00000E+00
 -1        53 6.17134E-05-3.20216E-07 0.00000E+00
 -1        54 5.90478E-05-4.26689E-07 0.00000E+00
 -1        55 5.61123E-05-5.35428E-07-6.20385E-24
 -1        56 6.53694E-05-6.12012E-07 2.64698E-23
 -1        57 6.40381E-05-1.41606E-06 0.00000E+00
 -1        58 6.27534E-05-2.33487E-06 0.00000E+00
 -1        59 6.14800E-05-3.31145E-06 2.64698E-23
 -1        60 6.02016E-05-4.27509E-06 5.29396E-23
 -1        61 5.88916E-05-5.15947E-06 0.00000E+00
 -1        62 5.75297E-05-5.90594E-06 0.00000E+00
 -1        63 5.60961E-05-6.46186E-06 0.00000E+00
 -1        64 5.45788E-05-6.79447E-06-5.29396E-23
 -1        65 5.29688E-05-6.87975E-06-2.64698E-23
 -1        66 5.12670E-05-6.71988E-06-5.29396E-23
 -1        67 4.94790E-05-6.32617E-06 2.64698E-23
 -1        68 4.76172E-05-5.73546E-06 0.00000E+00
 -1        69 4.57064E-05-4.98871E-06 0.00000E+00
 -1        70 4.37578E-05-4.15049E-06 0.00000E+00
 -1        86 7.31705E-05-3.95807E-07 6.61744E-24
 -1        87 9.23924E-05-9.51903E-07-6.61744E-24
 -1        88 1.02213E-04-1.41441E-06-1.32349E-23
 -1        89 8.06463E-05-2.05406E-06-6.61744E-24
 -1        90 5.22845E-05-2.82613E-06 0.00000E+00
 -1       121 4.51038E-05-2.20468E-07 0.00000E+00
 -1       122 4.47873E-05-4.40972E-07 3.30872E-24
 -1       123 4.42604E-05-6.61558E-07 6.61744E-24
 -1       124 4.35244E-05-8.82239E-07 3.30872E-24
 -1       125 4.25806E-05-1.10309E-06 0.00000E+00
 -1       161 3.37124E-05-4.76158E-09 5.04871E-29
 -1       162 3.37178E-05-1.90293E-08 0.00000E+00
 -1       163 3.37255E-05-3.96416E-08-2.01948E-28
 -1       164 3.37344E-05-6.34365E-08-2.01948E-28
 -1       165 3.37434E-05-8.72517E-08 0.00000E+00
 -1       166 3.37511E-05-1.07926E-07 0.00000E+00
 -1       167 3.37565E-05-1.22296E-07 3.23117E-27
 -1       168 3.37584E-05-1.27200E-07 3.23117E-27
 -1       169 3.37555E-05-1.19475E-07-1.29247E-26
 -1       170 3.37467E-05-9.59524E-08-1.29247E-26
 -1       171 3.37308E-05-5.34758E-08 0.00000E+00
 -1       172 3.37068E-05 1.11622E-08 0.00000E+00
 -1       173 3.36733E-05 1.01079E-07 4.13590E-25
 -1       174 3.36298E-05 2.19696E-07-4.13590E-25
 -1       175 3.35741E-05 3.69859E-07 1.65436E-24
 -1       191 3.41008E-05 9.27318E-08 0.00000E+00
 -1       192 3.40501E-05 1.85461E-07 0.00000E+00
 -1       193 3.39654E-05 2.78187E-07 3.30872E-24
 -1       194 3.38470E-05 3.70904E-07-1.65436E-24
 -1       195 3.36948E-05 4.63606E-07 0.00000E+00
 -1       251 5.24131E-05 2.73089E-06 0.00000E+00
 -1       252 5.17579E-05 7.92834E-06 0.00000E+00
 -1       253 5.11098E-05 8.11651E-06 1.32349E-23
 -1       254 5.03973E-05-3.38141E-06 0.00000E+00
 -1       255 4.97104E-05-1.04978E-05 0.00000E+00
 -1       256 4.89659E-05 2.70091E-06-1.32349E-23
 -1       257 4.82405E-05 1.31525E-05-2.64698E-23
 -1       258 4.74566E-05-2.11768E-06 0.00000E+00
 -1       259 4.66740E-05-1.72467E-05-2.64698E-23
 -1       260 4.59438E-05-6.37556E-06 1.32349E-23
 -1       261 4.51956E-05 7.01701E-06 0.00000E+00
 -1       262 4.45038E-05-6.27702E-07 0.00000E+00
 -1       263 4.37857E-05-1.25405E-05 0.00000E+00
 -1       264 4.31366E-05-1.18217E-05 6.61744E-24
 -1       265 4.24787E-05-6.12843E-06 0.00000E+00
 -1       266 5.06127E-05-6.66850E-07 0.00000E+00
 -1       267 4.81790E-05-6.71703E-07 8.27181E-25
 -1       268 4.57453E-05-6.77248E-07 0.00000E+00
 -1       269 4.33116E-05-6.80775E-07 2.06795E-25
 -1       270 4.08779E-05-6.84263E-07 0.00000E+00
 -1       271 5.11482E-05 1.04847E-06-2.64698E-23
 -1       272 4.94305E-05 2.15615E-06 0.00000E+00
 -1       273 4.79090E-05 2.74477E-06 0.00000E+00
 -1       274 4.65529E-05 2.87683E-06 0.00000E+00
 -1       275 4.53409E-05 2.62333E-06-2.64698E-23
 -1       276 4.42450E-05 2.05756E-06 0.00000E+00
 -1       277 4.32370E-05 1.25625E-06-2.64698E-23
 -1       278 4.22875E-05 2.98487E-07-1.32349E-23
 -1       279 4.13664E-05-7.35113E-07 2.64698E-23
 -1       280 4.04433E-05-1.76307E-06 1.32349E-23
 -1       281 3.94878E-05-2.70404E-06-2.64698E-23
 -1       282 3.84704E-05-3.47747E-06 0.00000E+00
 -1       283 3.73613E-05-4.00468E-06-2.64698E-23
 -1       284 3.61358E-05-4.20815E-06 0.00000E+00
 -1       285 3.47613E-05-4.01682E-06-2.64698E-23
 -1       286 4.18114E-05-1.98334E-06-3.30872E-24
 -1       287 4.17853E-05-9.55231E-07 0.00000E+00
 -1       288 4.17588E-05-2.36285E-07 0.00000E+00
 -1       289 4.17343E-05 1.18361E-07-4.13590E-25
 -1       290 4.17100E-05 1.26594E-07 0.00000E+00
 -1       291 4.16859E-05-1.93330E-07 0.00000E+00
 -1       292 4.16617E-05-7.57580E-07-8.27181E-25
 -1       293 4.16375E-05-1.48208E-06 0.00000E+00
 -1       294 4.16133E-05-2.25073E-06-8.27181E-25
 -1       295 4.15891E-05-2.94742E-06-4.13590E-25
 -1       296 4.15650E-05-3.47040E-06 0.00000E+00
 -1       297 4.15407E-05-3.71809E-06-4.13590E-25
 -1       298 4.15163E-05-3.64393E-06-1.65436E-24
 -1       299 4.14904E-05-3.20172E-06 0.00000E+00
 -1       300 4.14648E-05-2.41907E-06-3.30872E-24
 -1       301 4.04058E-05-3.28457E-06-3.30872E-24
 -1       302 3.89535E-05-3.29342E-06 0.00000E+00
 -1       303 3.75007E-05-3.30097E-06 3.30872E-24
 -1       304 3.60578E-05-3.30938E-06 0.00000E+00
 -1       305 3.46351E-05-3.32081E-06 0.00000E+00
 -1       306 4.08346E-05-2.33670E-06 1.32349E-23
 -1       307 3.99778E-05-1.86687E-06-6.61744E-24
 -1       308 3.92661E-05-1.78234E-06 1.32349E-23
 -1       309 3.86704E-05-2.01366E-06 0.00000E+00
 -1       310 3.81657E-05-2.48826E-06 0.00000E+00
 -1       311 3.77243E-05-3.13286E-06-6.61744E-24
 -1       312 3.73186E-05-3.87317E-06 0.00000E+00
 -1       313 3.69207E-05-4.63446E-06 6.61744E-24
 -1       314 3.65027E-05-5.34186E-06 1.32349E-23
 -1       315 3.60366E-05-5.92078E-06 0.00000E+00
 -1       316 3.54948E-05-6.29738E-06 0.00000E+00
 -1       317 3.48504E-05-6.39883E-06 0.00000E+00
 -1       318 3.40763E-05-6.15387E-06 0.00000E+00
 -1       319 3.31490E-05-5.49230E-06-6.61744E-24
 -1       320 3.20395E-05-4.34807E-06 0.00000E+00
 -1       336 4.00785E-05-1.54499E-06 0.00000E+00
 -1       337 3.85358E-05-1.76641E-06 0.00000E+00
 -1       338 3.68167E-05-1.98801E-06-6.61744E-24
 -1       339 3.49353E-05-2.20940E-06 0.00000E+00
 -1       340 3.29060E-05-2.43114E-06 0.00000E+00
 -1       356 3.35031E-05-3.45144E-06 1.00974E-28
 -1       357 3.35030E-05-3.16729E-06 1.00974E-28
 -1       358 3.35030E-05-2.87972E-06 0.00000E+00
 -1       359 3.35030E-05-2.59007E-06 0.00000E+00
 -1       360 3.35029E-05-2.29971E-06 0.00000E+00
 -1       361 3.35029E-05-2.00998E-06 0.00000E+00
 -1       362 3.35028E-05-1.72221E-06 0.00000E+00
 -1       363 3.35028E-05-1.43778E-06 6.46235E-27
 -1       364 3.35028E-05-1.15801E-06-2.58494E-26
 -1       365 3.35028E-05-8.84259E-07 2.58494E-26
 -1       366 3.35028E-05-6.17879E-07 0.00000E+00
 -1       367 3.35030E-05-3.60212E-07 0.00000E+00
 -1       368 3.35032E-05-1.12611E-07 0.00000E+00
 -1       369 3.35041E-05 1.23574E-07-4.13590E-25
 -1       370 3.35048E-05 3.46986E-07 0.00000E+00
 -1       376 3.34001E-05-3.45621E-06 5.04871E-29
 -1       377 3.32988E-05-3.18631E-06 2.52435E-29
 -1       378 3.31987E-05-2.91933E-06 0.00000E+00
 -1       379 3.30989E-05-2.65347E-06 1.00974E-28
 -1       380 3.29989E-05-2.38691E-06 0.00000E+00
 -1       381 3.28980E-05-2.11786E-06 0.00000E+00
 -1       382 3.27955E-05-1.84450E-06-1.61559E-27
 -1       383 3.26906E-05-1.56504E-06 0.00000E+00
 -1       384 3.25828E-05-1.27766E-06 0.00000E+00
 -1       385 3.24714E-05-9.80557E-07 0.00000E+00
 -1       386 3.23556E-05-6.71933E-07 5.16988E-26
 -1       387 3.22350E-05-3.49947E-07 5.16988E-26
 -1       388 3.21086E-05-1.28271E-08 0.00000E+00
 -1       389 3.19763E-05 3.41393E-07 0.00000E+00
 -1       390 3.18368E-05 7.14315E-07 8.27181E-25
 -1       406 3.32904E-05 6.48902E-07 0.00000E+00
 -1       407 3.30382E-05 7.41526E-07 0.00000E+00
 -1       408 3.27523E-05 8.34080E-07 0.00000E+00
 -1       409 3.24325E-05 9.26417E-07 0.00000E+00
 -1       410 3.20790E-05 1.01831E-06-3.30872E-24
 -1       501 3.31349E-05 1.67128E-06 6.61744E-24
 -1       502 3.29804E-05 1.40134E-05-3.30872E-24
 -1       503 3.28036E-05 2.81658E-05 3.30872E-24
 -1       504 3.26735E-05 3.86144E-05-1.65436E-24
 -1       505 3.25862E-05 4.19413E-05 0.00000E+00
 -1       506 3.24801E-05 3.47543E-05 1.65436E-24
 -1       507 3.22883E-05 1.93523E-05 3.30872E-24
 -1       508 3.19928E-05-1.93649E-06 8.27181E-25
 -1       509 3.16929E-05-2.34478E-05 1.65436E-24
 -1       510 3.14914E-05-3.95166E-05-8.27181E-25
 -1       511 3.13790E-05-4.75702E-05 0.00000E+00
 -1       512 3.12947E-05-4.50646E-05 1.65436E-24
 -1       513 3.11705E-05-3.51676E-05-3.30872E-24
 -1       514 3.09973E-05-2.10740E-05 1.65436E-24
 -1       515 3.08410E-05-8.37302E-06 0.00000E+00
 -1       521 3.16864E-05-2.66037E-06 0.00000E+00
 -1       522 3.02496E-05-2.38453E-06 0.00000E+00
 -1       523 2.89420E-05-2.45056E-06 0.00000E+00
 -1       524 2.77340E-05-2.79563E-06-1.32349E-23
 -1       525 2.66041E-05-3.35076E-06 2.64698E-23
 -1       526 2.55259E-05-4.04618E-06 1.32349E-23
 -1       527 2.44733E-05-4.81040E-06-2.64698E-23
 -1       528 2.34193E-05-5.57141E-06 0.00000E+00
 -1       529 2.23372E-05-6.25717E-06-2.64698E-23
 -1       530 2.12003E-05-6.79647E-06 0.00000E+00
 -1       531 1.99825E-05-7.11963E-06 0.00000E+00
 -1       532 1.86592E-05-7.15916E-06-1.32349E-23
 -1       533 1.72057E-05-6.85070E-06-2.64698E-23
 -1       534 1.56032E-05-6.13224E-06 0.00000E+00
 -1       535 1.38250E-05-4.94917E-06 2.64698E-23
 -1       536 3.07351E-05-6.88513E-07 0.00000E+00
 -1       537 3.07333E-05 8.01258E-07 0.00000E+00
 -1       538 3.07319E-05 1.86845E-06 0.00000E+00
 -1       539 3.07317E-05 2.56229E-06 4.13590E-25
 -1       540 3.07319E-05 2.93192E-06 0.00000E+00
 -1       541 3.07322E-05 3.02650E-06 0.00000E+00
 -1       542 3.07327E-05 2.89519E-06 0.00000E+00
 -1       543 3.07331E-05 2.58715E-06 0.00000E+00
 -1       544 3.07335E-05 2.15154E-06 0.00000E+00
 -1       545 3.07338E-05 1.63751E-06-1.29247E-26
 -1       546 3.07342E-05 1.09423E-06-5.16988E-26
 -1       547 3.07346E-05 5.70844E-07 1.03398E-25
 -1       548 3.07351E-05 1.16515E-07 2.06795E-25
 -1       549 3.07357E-05-2.19609E-07 0.00000E+00
 -1       550 3.07364E-05-3.88340E-07 0.00000E+00
 -1       551 2.79411E-05-2.74425E-06-1.24077E-24
 -1       552 2.47972E-05-2.83770E-06 0.00000E+00
 -1       553 2.14644E-05-2.93183E-06 0.00000E+00
 -1       554 1.80980E-05-3.02754E-06 0.00000E+00
 -1       555 1.48534E-05-3.12570E-06 1.32349E-23
 -1       556 2.99590E-05-7.77184E-07 0.00000E+00
 -1       557 2.93421E-05 6.60804E-07 0.00000E+00
 -1       558 2.88740E-05 1.70502E-06 0.00000E+00
 -1       559 2.85376E-05 2.40002E-06 0.00000E+00
 -1       560 2.83159E-05 2.79030E-06 6.61744E-24
 -1       561 2.81918E-05 2.92073E-06 0.00000E+00
 -1       562 2.81483E-05 2.83618E-06-6.61744E-24
 -1       563 2.81687E-05 2.58159E-06-3.30872E-24
 -1       564 2.82360E-05 2.20191E-06 0.00000E+00
 -1       565 2.83332E-05 1.74212E-06-1.65436E-24
 -1       566 2.84437E-05 1.24719E-06-1.65436E-24
 -1       567 2.85505E-05 7.62133E-07 4.13590E-25
 -1       568 2.86368E-05 3.31918E-07 7.75482E-25
 -1       569 2.86860E-05 1.48428E-09 4.13590E-25
 -1       570 2.86814E-05-1.84262E-07 8.27181E-25
 -1       571 3.07955E-05-2.19794E-07-2.06795E-25
 -1       572 3.08546E-05-1.38630E-07-2.06795E-25
 -1       573 3.09141E-05-8.98887E-08 0.00000E+00
 -1       574 3.09739E-05-6.58992E-08 4.13590E-25
 -1       575 3.10337E-05-5.89606E-08 0.00000E+00
 -1       576 3.10935E-05-6.13221E-08 8.27181E-25
 -1       577 3.11534E-05-6.52290E-08 0.00000E+00
 -1       578 3.12133E-05-6.29203E-08 0.00000E+00
 -1       579 3.12732E-05-4.66339E-08 3.30872E-24
 -1       580 3.13331E-05-8.60809E-09 0.00000E+00
 -1       581 3.13929E-05 5.89178E-08-3.30872E-24
 -1       582 3.14528E-05 1.63697E-07 0.00000E+00
 -1       583 3.15127E-05 3.13475E-07-3.30872E-24
 -1       584 3.15725E-05 5.15918E-07 0.00000E+00
 -1       585 3.16323E-05 7.78650E-07 0.00000E+00
 -1       586 3.04354E-05-3.13531E-07 0.00000E+00
 -1       587 3.00852E-05-2.86259E-07 0.00000E+00
 -1       588 2.97072E-05-2.59034E-07 1.65436E-24
 -1       589 2.93215E-05-2.32056E-07-1.03398E-25
 -1       590 2.89486E-05-2.05614E-07 0.00000E+00
 -1       591 3.06456E-05-1.97676E-07 0.00000E+00
 -1       592 3.05605E-05-8.24990E-08 0.00000E+00
 -1       593 3.04832E-05 1.04969E-08 0.00000E+00
 -1       594 3.04121E-05 8.63368E-08 0.00000E+00
 -1       595 3.03454E-05 1.50063E-07 0.00000E+00
 -1       596 3.02813E-05 2.06675E-07 0.00000E+00
 -1       597 3.02180E-05 2.61170E-07 8.27181E-25
 -1       598 3.01536E-05 3.18535E-07-4.13590E-25
 -1       599 3.00863E-05 3.83762E-07 0.00000E+00
 -1       600 3.00141E-05 4.61838E-07-4.13590E-25
 -1       601 2.99353E-05 5.57751E-07-8.27181E-25
 -1       602 2.98480E-05 6.76495E-07-2.06795E-25
 -1       603 2.97503E-05 8.23066E-07-4.13590E-25
 -1       604 2.96406E-05 1.00249E-06-1.03398E-25
 -1       605 2.95171E-05 1.21978E-06-4.13590E-25
 -1       606 3.17157E-05 1.55933E-06 3.30872E-24
 -1       607 3.17379E-05 2.06666E-06 3.30872E-24
 -1       608 3.17596E-05 2.62735E-06 0.00000E+00
 -1       609 3.17811E-05 3.23758E-06 0.00000E+00
 -1       610 3.18025E-05 3.89352E-06 0.00000E+00
 -1       611 3.18239E-05 4.59126E-06 0.00000E+00
 -1       612 3.18452E-05 5.32688E-06 0.00000E+00
 -1       613 3.18664E-05 6.09648E-06-8.27181E-25
 -1       614 3.18876E-05 6.89614E-06-1.65436E-24
 -1       615 3.19089E-05 7.72193E-06 0.00000E+00
 -1       616 3.19301E-05 8.56996E-06 0.00000E+00
 -1       617 3.19512E-05 9.43630E-06-1.65436E-24
 -1       618 3.19724E-05 1.03170E-05 0.00000E+00
 -1       619 3.19935E-05 1.12082E-05 0.00000E+00
 -1       620 3.20145E-05 1.21060E-05 0.00000E+00
 -1       621 3.12755E-05 1.17104E-06 0.00000E+00
 -1       622 3.08639E-05 1.23355E-06 0.00000E+00
 -1       623 3.04629E-05 1.29604E-06 0.00000E+00
 -1       624 3.00782E-05 1.35835E-06 0.00000E+00
 -1       625 2.97155E-05 1.42033E-06-8.27181E-25
 -1       626 3.15714E-05 1.58872E-06 0.00000E+00
 -1       627 3.14281E-05 2.12840E-06 0.00000E+00
 -1       628 3.12645E-05 2.72204E-06 3.30872E-24
 -1       629 3.10830E-05 3.36335E-06 0.00000E+00
 -1       630 3.08859E-05 4.04603E-06 0.00000E+00
 -1       631 3.06756E-05 4.76372E-06 0.00000E+00
 -1       632 3.04546E-05 5.51003E-06 0.00000E+00
 -1       633 3.02252E-05 6.27859E-06 8.27181E-25
 -1       634 2.99899E-05 7.06302E-06-1.65436E-24
 -1       635 2.97510E-05 7.85692E-06-8.27181E-25
 -1       636 2.95109E-05 8.65394E-06 1.65436E-24
 -1       637 2.92720E-05 9.44767E-06 0.00000E+00
 -1       638 2.90366E-05 1.02317E-05-8.27181E-25
 -1       639 2.88071E-05 1.09997E-05-4.13590E-25
 -1       640 2.85855E-05 1.17453E-05-4.13590E-25
 -1       641 3.20341E-05 1.39145E-05 2.06795E-25
 -1       642 3.20321E-05 1.48727E-05-5.16988E-26
 -1       643 3.20301E-05 1.58731E-05 0.00000E+00
 -1       644 3.20280E-05 1.69078E-05-1.29247E-26
 -1       645 3.20258E-05 1.79683E-05 0.00000E+00
 -1       646 3.20236E-05 1.90462E-05 2.58494E-26
 -1       647 3.20213E-05 2.01328E-05-5.16988E-26
 -1       648 3.20191E-05 2.12193E-05-2.58494E-26
 -1       649 3.20168E-05 2.22971E-05 5.16988E-26
 -1       650 3.20145E-05 2.33574E-05 0.00000E+00
 -1       651 3.20123E-05 2.43919E-05 1.03398E-25
 -1       652 3.20099E-05 2.53920E-05-1.03398E-25
 -1       653 3.20076E-05 2.63498E-05 0.00000E+00
 -1       654 3.20047E-05 2.72575E-05 0.00000E+00
 -1       655 3.20020E-05 2.81078E-05 1.65436E-24
 -1       656 3.12469E-05 1.29185E-05 0.00000E+00
 -1       657 3.05967E-05 1.28262E-05-8.27181E-25
 -1       658 3.00344E-05 1.27341E-05 0.00000E+00
 -1       659 2.95098E-05 1.26421E-05 0.00000E+00
 -1       660 2.89727E-05 1.25498E-05 0.00000E+00
 -1       661 3.17628E-05 1.39341E-05 1.65436E-24
 -1       662 3.14808E-05 1.48941E-05 0.00000E+00
 -1       663 3.11891E-05 1.58798E-05 0.00000E+00
 -1       664 3.08902E-05 1.68855E-05 0.00000E+00
 -1       665 3.05861E-05 1.79051E-05 0.00000E+00
 -1       666 3.02791E-05 1.89327E-05 0.00000E+00
 -1       667 2.99713E-05 1.99626E-05 1.65436E-24
 -1       668 2.96648E-05 2.09887E-05 8.27181E-25
 -1       669 2.93620E-05 2.20052E-05 1.65436E-24
 -1       670 2.90650E-05 2.30063E-05 0.00000E+00
 -1       671 2.87759E-05 2.39860E-05 1.65436E-24
 -1       672 2.84971E-05 2.49384E-05 0.00000E+00
 -1       673 2.82306E-05 2.58576E-05 0.00000E+00
 -1       674 2.79783E-05 2.67376E-05 8.27181E-25
 -1       675 2.77429E-05 2.75725E-05 8.27181E-25
 -1       676 3.12424E-05 2.88033E-05-3.30872E-24
 -1       677 3.04902E-05 2.87128E-05 0.00000E+00
 -1       678 2.97407E-05 2.86224E-05 0.00000E+00
 -1       679 2.89954E-05 2.85324E-05-8.27181E-25
 -1       680 2.82556E-05 2.84423E-05 1.65436E-24
 -1       716 1.19574E-05-3.95764E-05-4.03897E-28
 -1       717 1.19546E-05-3.71539E-05 0.00000E+00
 -1       718 1.19518E-05-3.47314E-05 1.61559E-27
 -1       719 1.19490E-05-3.23089E-05 0.00000E+00
 -1       720 1.19462E-05-2.98863E-05 6.46235E-27
 -1       721 1.19433E-05-2.74638E-05-6.46235E-27
 -1       722 1.19405E-05-2.50413E-05-2.58494E-26
 -1       723 1.19376E-05-2.26188E-05-2.58494E-26
 -1       724 1.19347E-05-2.01962E-05 0.00000E+00
 -1       725 1.19317E-05-1.77737E-05 0.00000E+00
 -1       726 1.19285E-05-1.53512E-05 0.00000E+00
 -1       727 1.19247E-05-1.29286E-05 4.13590E-25
 -1       728 1.19208E-05-1.05061E-05-1.65436E-24
 -1       729 1.19136E-05-8.08361E-06-1.65436E-24
 -1       730 1.19074E-05-5.66109E-06 6.61744E-24
 -1       766 9.51638E-06-3.26240E-06 6.61744E-24
 -1       767 7.26016E-06-3.26818E-06 0.00000E+00
 -1       768 5.14940E-06-3.27479E-06 0.00000E+00
 -1       769 3.21868E-06-3.27768E-06-4.13590E-25
 -1       770 1.50230E-06-3.28005E-06 0.00000E+00
 -1       771 1.05023E-05-1.31834E-06 0.00000E+00
 -1       772 9.26524E-06 2.00335E-07 0.00000E+00
 -1       773 8.16484E-06 1.35319E-06 2.64698E-23
 -1       774 7.18758E-06 2.17695E-06 0.00000E+00
 -1       775 6.31997E-06 2.70851E-06 0.00000E+00
 -1       776 5.54808E-06 2.98508E-06-1.32349E-23
 -1       777 4.85786E-06 3.04400E-06 2.64698E-23
 -1       778 4.23524E-06 2.92278E-06 0.00000E+00
 -1       779 3.66609E-06 2.65904E-06-2.64698E-23
 -1       780 3.13625E-06 2.29053E-06 0.00000E+00
 -1       781 2.63156E-06 1.85504E-06 0.00000E+00
 -1       782 2.13791E-06 1.39045E-06 6.61744E-24
 -1       783 1.64118E-06 9.34639E-07-1.32349E-23
 -1       784 1.12764E-06 5.25565E-07 6.61744E-24
 -1       785 5.83476E-07 2.01119E-07-1.32349E-23
 -1       786 2.86535E-05 1.71237E-08 4.13590E-25
 -1       787 2.87017E-05 1.67579E-07 4.13590E-25
 -1       788 2.87497E-05 2.77784E-07 0.00000E+00
 -1       789 2.87982E-05 3.55307E-07-8.27181E-25
 -1       790 2.88468E-05 4.07699E-07 1.65436E-24
 -1       791 2.88955E-05 4.42499E-07 0.00000E+00
 -1       792 2.89442E-05 4.67240E-07 1.65436E-24
 -1       793 2.89929E-05 4.89449E-07 0.00000E+00
 -1       794 2.90416E-05 5.16653E-07 0.00000E+00
 -1       795 2.90902E-05 5.56379E-07 0.00000E+00
 -1       796 2.91389E-05 6.16162E-07-1.65436E-24
 -1       797 2.91876E-05 7.03547E-07 8.27181E-25
 -1       798 2.92362E-05 8.26087E-07 0.00000E+00
 -1       799 2.92846E-05 9.91353E-07 8.27181E-25
 -1       800 2.93331E-05 1.20694E-06-8.27181E-25
 -1       801 2.62141E-05-1.39202E-07 0.00000E+00
 -1       802 2.09511E-05-1.04297E-07 0.00000E+00
 -1       803 1.42577E-05-7.70528E-08 0.00000E+00
 -1       804 7.57469E-06-5.25481E-08-1.65436E-24
 -1       805 2.34252E-06-2.04168E-08-1.32349E-23
 -1       806 2.84814E-05-4.83658E-09-1.65436E-24
 -1       807 2.83620E-05 1.46915E-07-1.65436E-24
 -1       808 2.82496E-05 2.78511E-07 0.00000E+00
 -1       809 2.81430E-05 3.94191E-07 0.00000E+00
 -1       810 2.80408E-05 4.98180E-07-1.65436E-24
 -1       811 2.79413E-05 5.94693E-07 8.27181E-25
 -1       812 2.78430E-05 6.87942E-07 0.00000E+00
 -1       813 2.77443E-05 7.82132E-07-8.27181E-25
 -1       814 2.76437E-05 8.81475E-07-1.65436E-24
 -1       815 2.75397E-05 9.90176E-07 4.13590E-25
 -1       816 2.74305E-05 1.11244E-06 8.27181E-25
 -1       817 2.73146E-05 1.25248E-06 0.00000E+00
 -1       818 2.71906E-05 1.41449E-06 0.00000E+00
 -1       819 2.70568E-05 1.60265E-06-8.27181E-25
 -1       820 2.69118E-05 1.82115E-06-8.27181E-25
 -1       821 2.93210E-05 1.83557E-06 4.13590E-25
 -1       822 2.92581E-05 2.27899E-06 8.27181E-25
 -1       823 2.91953E-05 2.80140E-06-1.65436E-24
 -1       824 2.91319E-05 3.39337E-06 8.27181E-25
 -1       825 2.90684E-05 4.04549E-06 0.00000E+00
 -1       826 2.90047E-05 4.74826E-06 0.00000E+00
 -1       827 2.89410E-05 5.49216E-06 1.65436E-24
 -1       828 2.88773E-05 6.26767E-06 0.00000E+00
 -1       829 2.88135E-05 7.06524E-06 0.00000E+00
 -1       830 2.87498E-05 7.87528E-06 0.00000E+00
 -1       831 2.86860E-05 8.68824E-06 0.00000E+00
 -1       832 2.86224E-05 9.49453E-06 8.27181E-25
 -1       833 2.85589E-05 1.02846E-05 0.00000E+00
 -1       834 2.84958E-05 1.10488E-05 0.00000E+00
 -1       835 2.84327E-05 1.17777E-05 8.27181E-25
 -1       836 2.90071E-05 1.57789E-06 0.00000E+00
 -1       837 2.85572E-05 1.67863E-06 0.00000E+00
 -1       838 2.80688E-05 1.77923E-06 0.00000E+00
 -1       839 2.75802E-05 1.87946E-06 0.00000E+00
 -1       840 2.71294E-05 1.97973E-06 0.00000E+00
 -1       841 2.92602E-05 1.85522E-06 4.13590E-25
 -1       842 2.90937E-05 2.35329E-06-2.06795E-25
 -1       843 2.88917E-05 2.94566E-06-4.13590E-25
 -1       844 2.86653E-05 3.60343E-06 0.00000E+00
 -1       845 2.84202E-05 4.31049E-06 0.00000E+00
 -1       846 2.81627E-05 5.05077E-06 2.06795E-25
 -1       847 2.78963E-05 5.81466E-06 0.00000E+00
 -1       848 2.76247E-05 6.59258E-06 0.00000E+00
 -1       849 2.73503E-05 7.37761E-06-4.13590E-25
 -1       850 2.70759E-05 8.16278E-06 0.00000E+00
 -1       851 2.68040E-05 8.94130E-06 0.00000E+00
 -1       852 2.65371E-05 9.70631E-06 0.00000E+00
 -1       853 2.62787E-05 1.04484E-05 4.13590E-25
 -1       854 2.60321E-05 1.11579E-05 0.00000E+00
 -1       855 2.58037E-05 1.18194E-05 0.00000E+00
 -1       856 2.83229E-05 1.31794E-05 0.00000E+00
 -1       857 2.82701E-05 1.39981E-05 4.13590E-25
 -1       858 2.82172E-05 1.49042E-05 1.65436E-24
 -1       859 2.81638E-05 1.58841E-05-8.27181E-25
 -1       860 2.81103E-05 1.69239E-05 1.65436E-24
 -1       861 2.80566E-05 1.80097E-05 0.00000E+00
 -1       862 2.80030E-05 1.91277E-05 0.00000E+00
 -1       863 2.79492E-05 2.02641E-05 8.27181E-25
 -1       864 2.78955E-05 2.14050E-05 0.00000E+00
 -1       865 2.78418E-05 2.25366E-05 0.00000E+00
 -1       866 2.77881E-05 2.36449E-05 0.00000E+00
 -1       867 2.77345E-05 2.47163E-05 8.27181E-25
 -1       868 2.76810E-05 2.57368E-05 1.65436E-24
 -1       869 2.76277E-05 2.66926E-05-8.27181E-25
 -1       870 2.75745E-05 2.75699E-05 0.00000E+00
 -1       871 2.78250E-05 1.24556E-05 0.00000E+00
 -1       872 2.73465E-05 1.24485E-05 0.00000E+00
 -1       873 2.69111E-05 1.24412E-05 0.00000E+00
 -1       874 2.64921E-05 1.24336E-05-2.06795E-25
 -1       875 2.60628E-05 1.24256E-05-8.27181E-25
 -1       876 2.81942E-05 1.31968E-05 0.00000E+00
 -1       877 2.79896E-05 1.40109E-05 0.00000E+00
 -1       878 2.77594E-05 1.48932E-05 3.30872E-24
 -1       879 2.75078E-05 1.58339E-05 0.00000E+00
 -1       880 2.72379E-05 1.68232E-05 0.00000E+00
 -1       881 2.69535E-05 1.78513E-05 0.00000E+00
 -1       882 2.66582E-05 1.89086E-05 0.00000E+00
 -1       883 2.63557E-05 1.99851E-05 0.00000E+00
 -1       884 2.60495E-05 2.10714E-05 0.00000E+00
 -1       885 2.57433E-05 2.21575E-05 0.00000E+00
 -1       886 2.54408E-05 2.32339E-05 0.00000E+00
 -1       887 2.51455E-05 2.42908E-05 0.00000E+00
 -1       888 2.48610E-05 2.53185E-05-1.65436E-24
 -1       889 2.45906E-05 2.63070E-05 0.00000E+00
 -1       890 2.43385E-05 2.72468E-05-8.27181E-25
 -1       891 2.68895E-05 2.83173E-05-8.27181E-25
 -1       892 2.63601E-05 2.82789E-05 0.00000E+00
 -1       893 2.58756E-05 2.82406E-05-8.27181E-25
 -1       894 2.53773E-05 2.82023E-05 0.00000E+00
 -1       895 2.48063E-05 2.81640E-05 8.27181E-25
 -1       926 3.35216E-08-2.06649E-06 0.00000E+00
 -1       927 3.30272E-08-1.10823E-06-2.58494E-26
 -1       928 3.27049E-08-3.80539E-07-2.58494E-26
 -1       929 3.25473E-08 1.42737E-07 0.00000E+00
 -1       930 3.24636E-08 4.87751E-07 0.00000E+00
 -1       931 3.24205E-08 6.80657E-07 0.00000E+00
 -1       932 3.23856E-08 7.47630E-07 2.58494E-26
 -1       933 3.23220E-08 7.14840E-07 2.58494E-26
 -1       934 3.22235E-08 6.08468E-07 1.03398E-25
 -1       935 3.19735E-08 4.54690E-07 1.03398E-25
 -1       936 3.16351E-08 2.79688E-07 0.00000E+00
 -1       937 3.06050E-08 1.09643E-07-4.13590E-25
 -1       938 2.94819E-08-2.93117E-08 1.65436E-24
 -1       939 2.49118E-08-1.11037E-07 0.00000E+00
 -1       940 2.15071E-08-1.09839E-07 0.00000E+00
 -1       956 2.66839E-05 2.44488E-06 0.00000E+00
 -1       957 2.66119E-05 2.89416E-06 8.27181E-25
 -1       958 2.65395E-05 3.41333E-06 8.27181E-25
 -1       959 2.64670E-05 3.99341E-06 0.00000E+00
 -1       960 2.63943E-05 4.62539E-06 0.00000E+00
 -1       961 2.63216E-05 5.30025E-06 0.00000E+00
 -1       962 2.62489E-05 6.00893E-06 0.00000E+00
 -1       963 2.61762E-05 6.74238E-06 0.00000E+00
 -1       964 2.61035E-05 7.49154E-06 0.00000E+00
 -1       965 2.60307E-05 8.24736E-06-8.27181E-25
 -1       966 2.59580E-05 9.00079E-06 0.00000E+00
 -1       967 2.58853E-05 9.74277E-06-1.65436E-24
 -1       968 2.58126E-05 1.04642E-05 3.30872E-24
 -1       969 2.57401E-05 1.11562E-05 0.00000E+00
 -1       970 2.56678E-05 1.18096E-05 0.00000E+00
 -1       971 2.55055E-05 1.30408E-05 1.65436E-24
 -1       972 2.54122E-05 1.37767E-05-8.27181E-25
 -1       973 2.53188E-05 1.46100E-05 3.30872E-24
 -1       974 2.52251E-05 1.55272E-05 0.00000E+00
 -1       975 2.51313E-05 1.65148E-05 0.00000E+00
 -1       976 2.50374E-05 1.75591E-05-1.65436E-24
 -1       977 2.49434E-05 1.86466E-05 3.30872E-24
 -1       978 2.48494E-05 1.97637E-05-1.65436E-24
 -1       979 2.47554E-05 2.08967E-05 3.30872E-24
 -1       980 2.46614E-05 2.20319E-05-1.65436E-24
 -1       981 2.45674E-05 2.31557E-05 3.30872E-24
 -1       982 2.44735E-05 2.42544E-05 1.65436E-24
 -1       983 2.43798E-05 2.53145E-05-3.30872E-24
 -1       984 2.42866E-05 2.63223E-05 0.00000E+00
 -1       985 2.41935E-05 2.72641E-05-1.65436E-24
 -3
    1PSTEP                        14           7           1          
  100CL  107 4.55078E-01         568                     0    7           1
 -4  STRESS      6    1
 -5  SXX         1    4    1    1
 -5  SYY         1    4    2    2
 -5  SZZ         1    4    3    3
 -5  SXY         1    4    1    2
 -5  SYZ         1    4    2    3
 -5  SZX         1    4    3    1
 -1         1-1.24408E+06-4.90265E+05-2.39245E+05-6.40692E+05 2.91038E-11 2.75516E-09
 -1         2-4.46302E+04-4.08437E+05 9.91447E+03 4.68000E+04 1.00081E-08 1.03596E-09
 -1         3-2.36189E+01-6.30344E+05-8.95274E+01-1.38173E+02 5.18349E-10-8.40328E-09
 -1         4 6.19432E+00-6.72967E+00-6.93456E-01-7.75908E+00 4.39979E-09-4.75904E-09
 -1         5-7.84125E+00 2.65356E+05 1.42850E+01-2.62141E+00 2.52083E-10 1.87301E-08
 -1         8-1.13992E+06-3.87617E+05-1.54531E+05-4.25441E+05 2.21917E-10 1.66256E-09
 -1         9-1.18442E+06-4.40621E+05-1.79499E+05-2.80401E+05-1.08897E-09-2.91281E-09
 -1        10-1.87680E+04-3.73309E+05 4.47431E+04-2.66856E+03-2.28480E-09 8.83418E-11
 -1        11 1.53743E+00-2.84181E+00-1.00589E+00 4.57753E-01 9.06357E-10 1.80982E-09
 -1        12-6.16353E+03 1.00496E+05-3.36846E+04 4.82400E+03 6.95629E-09 1.57466E-09
 -1        15 1.65005E+03 8.92298E+02 5.12099E+03 1.77042E+00 6.84111E-11 6.02974E-09
 -1        16-1.45552E+06-3.84349E+05-1.21056E+05-4.87157E+05 1.49839E-10 1.12232E-09
 -1        17-2.98855E+05-2.20431E+05-2.46625E+04-1.96239E+05-3.89082E-09 1.95117E-09
 -1        18 2.04885E+04 6.82972E+03-7.74810E+03-5.66995E+04 2.41698E-10 6.81666E-10
 -1        19 5.97605E+04 6.99362E+04-7.05608E+03 7.11016E+03 2.34877E-09-5.94203E-10
 -1        20 3.84112E+04-5.57813E+04-1.26719E+04 2.76170E+04 2.15948E-09 1.05842E-09
 -1        21-1.06503E+02-9.86395E+04 2.89751E+04-3.34704E+02 1.31405E-08-6.76199E-09
 -1        23 4.00431E-01 1.90758E-01 7.33571E+00 4.87573E-04-3.87195E-09 1.67691E-09
 -1        24-7.66002E+05-2.29748E+05 5.21174E+04-4.11098E+05-3.79223E-09-6.98492E-11
 -1        25 2.08958E+03 2.11731E+04 1.41755E+04-2.40379E+05 6.93035E-10-3.23780E-11
 -1        26-7.41824E+02 6.42718E+04 1.32666E+03-1.11615E+04-3.70539E-10 2.50499E-10
 -1        27-1.55798E+04-4.15504E+04-1.85086E+04 4.58832E+04 2.84460E-09 1.17840E-09
 -1        28-7.51815E+03-7.74494E+04-3.88092E+03 2.82493E+04 3.85239E-09 1.22525E-09
 -1        31 2.55391E+03 2.94404E+03 4.35560E+03-1.09941E+02 2.13106E-09-1.15210E-09
 -1        32-3.34897E+05 5.85016E+04 1.99475E+05-4.91378E+05-2.18955E-09 4.24431E-10
 -1        33-7.68710E+04 7.94630E+04 2.42564E+04-2.37057E+04-1.87962E-11 1.14899E-10
 -1        34-9.84078E+04-5.06976E+03 6.58193E+03 3.32058E+04 1.84138E-09-1.09708E-09
 -1        35-1.91911E+04-2.21412E+04-7.34010E+02 4.46541E+04 4.79366E-09-2.02635E-09
 -1        36-5.49489E+03-2.11276E+04 4.87242E+04-2.17218E-07-2.42149E-10 1.44792E-09
 -1        37 1.56754E+04 2.44551E+04 3.44954E+04 4.38943E-07-3.50039E-10 4.07454E-10
 -1        38 2.65093E+03-3.32208E+03 1.26150E+04 1.12819E-07-6.44458E-11-1.21781E-09
 -1        39 6.17906E+03 3.84451E+03 7.94684E+03-8.53273E-07-7.00431E-11-5.45890E-09
 -1        40 3.99810E+03-5.21710E+02 3.25582E+03 4.10984E-07-4.96230E-11-6.21287E-09
 -1        41 4.61039E+03 6.14054E+02 1.96505E+03 6.78433E-07-7.02973E-11 3.83875E-09
 -1        42 4.21943E+03-9.22571E+01 9.96097E+02-1.47171E-06 2.31493E-11 3.67649E-09
 -1        43 4.38590E+03 1.79094E+02 8.58347E+02-1.44016E-06 2.26092E-11-6.37647E-09
 -1        44 4.22258E+03-8.68196E+01 9.47896E+02-2.02451E-07 3.57971E-13-3.02185E-09
 -1        45 4.58540E+03 5.67431E+02 1.82540E+03-8.30424E-08-9.43276E-11-1.39920E-10
 -1        46 4.01993E+03-4.80533E+02 3.00474E+03-5.07831E-07 8.56326E-11 4.46005E-09
 -1        47 6.02808E+03 3.53925E+03 7.31923E+03 9.52300E-07 3.20218E-10 1.98952E-11
 -1        48 2.78005E+03-3.05807E+03 1.16142E+04 2.84642E-07-2.31417E-10-4.23779E-09
 -1        49 1.47693E+04 2.25115E+04 3.17544E+04-1.67966E-07-1.69733E-10-4.82760E-09
 -1        50-4.71846E+03-1.94483E+04 4.48511E+04 9.96210E-07 2.34631E-09-1.55887E-09
 -1        51 1.73111E+04-2.84732E+05 2.85014E+04-7.51087E+05-8.73115E-11 5.09317E-10
 -1        52 8.42335E+03-2.82646E+05 1.84531E+04-8.28372E+05 1.74623E-10 2.14641E-10
 -1        53 6.26779E+03-2.89007E+05 1.66129E+04-7.49126E+05-1.45519E-11-9.16771E-10
 -1        54 1.57191E+04-2.86049E+05 2.74835E+04-8.30479E+05-3.92902E-10 1.84446E-09
 -1        55 3.69641E+04-2.94963E+05 5.12374E+04-7.48783E+05-2.25555E-10 4.27099E-09
 -1        56-3.53333E+06-3.87496E+05-3.00656E+05-1.37007E+06-8.65839E-10 3.28873E-09
 -1        57-3.67580E+06-6.51089E+05-2.04591E+05-1.33460E+06-7.54881E-11 2.96677E-09
 -1        58-3.59372E+06-4.87256E+05-7.06535E+04-1.35106E+06-1.10686E-09-1.50612E-09
 -1        59-3.60599E+06-5.34458E+05-4.27579E+04-1.35664E+06 3.71074E-10-3.47427E-09
 -1        60-3.60254E+06-5.01951E+05-1.65105E+04-1.34872E+06-1.25624E-09 1.62800E-10
 -1        61-3.59675E+06-5.16334E+05-9.52867E+03-1.35815E+06-8.78629E-10-2.59251E-09
 -1        62-3.60282E+06-5.05087E+05-4.55263E+03-1.34962E+06-9.68839E-10-7.07132E-10
 -1        63-3.59813E+06-5.11440E+05-3.85685E+03-1.35529E+06-9.09665E-10 2.81881E-09
 -1        64-3.60113E+06-5.06818E+05-4.40810E+03-1.35158E+06 6.12772E-10-3.55385E-10
 -1        65-3.60300E+06-5.09812E+05-9.07920E+03-1.35085E+06 1.74477E-09-6.71412E-09
 -1        66-3.59797E+06-5.06751E+05-1.56910E+04-1.35405E+06-2.47837E-10-7.14863E-10
 -1        67-3.61629E+06-5.22475E+05-4.05753E+04-1.34424E+06 1.42791E-10 8.45830E-10
 -1        68-3.58796E+06-4.94432E+05-6.70474E+04-1.35813E+06 3.77440E-10 2.71393E-09
 -1        69-3.68410E+06-6.31613E+05-1.94128E+05-1.32160E+06-8.26731E-10 5.25688E-10
 -1        70-3.53076E+06-3.99668E+05-2.85294E+05-1.37604E+06-1.36060E-09-3.52156E-09
 -1        86 2.61979E+04-1.14090E+06-6.61561E+04-4.03797E+04-1.84791E-08 8.92817E-09
 -1        87-5.25532E+02-5.33917E+05 7.34197E+04 4.18986E+04-1.26743E-08-3.23658E-09
 -1        88-2.57204E+04-1.55366E+06-1.17807E+05 1.13117E+04 1.56924E-08 1.94041E-09
 -1        89 1.72960E+04-4.51682E+05 1.01749E+05-4.51039E+04 3.74166E-09-2.13296E-09
 -1        90 8.64865E+03-1.22295E+06-6.35117E+04 4.65835E+04 1.75805E-08 5.05361E-09
 -1       121-1.62884E+01-6.30452E+05-1.20285E+02 6.90774E+01-8.18666E-10-1.13960E-09
 -1       122-5.90029E+01-6.30368E+05-2.03218E+02-2.75483E+02-6.72998E-10-2.39288E-09
 -1       123 1.44401E+01-6.30429E+05-3.63942E+02 2.06342E+02-2.07509E-09-1.97497E-09
 -1       124-4.47368E+02-6.30597E+05-8.64995E+02-5.86853E+02-1.59389E-09 6.65750E-10
 -1       125 3.07687E+02-6.30226E+05-1.35552E+03 3.80306E+02-3.49709E-09 1.37425E-09
 -1       161-2.26286E+00 1.57875E+00-9.23960E-01 1.65488E+00 1.80103E-06-6.75891E-07
 -1       162 6.03687E+00-6.85677E+00-1.69380E+00-7.77183E+00 3.60180E-06-1.35082E-06
 -1       163-2.10536E+00 1.70629E+00-3.29361E+00 1.66742E+00 1.76666E-06-6.62823E-07
 -1       164 5.29289E+00-7.72705E+00-7.34947E+00-7.71635E+00-6.93901E-08 2.68229E-08
 -1       165-1.51896E+00 2.44924E+00-1.43127E+01 1.59923E+00-2.08944E-06 7.84178E-07
 -1       166 1.32383E+00-1.32769E+01-3.31166E+01-7.02579E+00-4.10734E-06 1.54215E-06
 -1       167 1.86403E+00 7.25568E+00-6.27598E+01 9.77228E-01-6.15342E-06 2.30831E-06
 -1       168-2.19426E+01-4.88742E+01-1.50572E+02-1.64305E+00-8.19826E-06 3.07344E-06
 -1       169 2.17479E+01 3.80425E+01-2.74448E+02-3.78155E+00-1.01799E-05 3.81360E-06
 -1       170-1.61548E+02-2.76224E+02-6.91839E+02 3.66601E+01-1.21596E-05 4.56063E-06
 -1       171 1.41470E+02 2.34578E+02-1.19394E+03-3.73139E+01-1.38272E-05 5.18059E-06
 -1       172-1.01106E+03-1.72286E+03-3.22299E+03 2.97415E+02-1.54909E-05 5.80959E-06
 -1       173 8.71276E+02 1.48449E+03-5.15450E+03-2.64444E+02-1.56699E-05 5.87509E-06
 -1       174-6.23549E+03-1.09058E+04-1.52835E+04 2.02635E+03-1.58388E-05 5.93913E-06
 -1       175 5.36647E+03 9.41636E+03-2.19969E+04-1.76550E+03-7.92159E-06 2.96650E-06
 -1       191-7.97268E+00 2.65377E+05 1.71402E+01 1.30966E+00-9.66338E-11 1.09994E-08
 -1       192-3.22501E+00 2.65358E+05 3.17033E+01-1.25772E+01-1.38101E-10 1.71590E-08
 -1       193 6.65300E+00 2.65375E+05 6.01221E+01 1.12649E+01-4.82487E-10 8.57926E-09
 -1       194 5.62034E+01 2.65377E+05 1.34685E+02-1.00482E+02-3.58909E-10-8.09905E-10
 -1       195 1.76833E+02 2.65357E+05 2.73703E+02 8.92805E+01-7.03039E-10-8.13998E-11
 -1       251-1.82598E+06 4.42586E+04-9.60716E+04-2.09784E+04-6.81865E-10 5.76620E-09
 -1       252-1.80351E+06-5.36675E+04-5.70857E+04 2.07895E+03 1.96415E-09 1.81899E-09
 -1       253-1.90493E+06 9.21689E+03-3.69931E+04 2.31581E+04 2.52726E-09-4.04088E-09
 -1       254-1.58839E+06-8.79205E+03 3.43579E+04-2.63261E+03-7.69444E-09-2.85536E-09
 -1       255-2.04018E+06-7.27616E+02-4.48853E+04-1.62681E+04-4.39820E-09-1.70576E-09
 -1       256-1.33167E+06 7.09391E+03 9.74841E+04 1.11809E+04-3.13365E-09 8.30732E-09
 -1       257-2.16054E+06-6.72556E+03-6.44406E+04 9.35910E+03-8.17522E-10-1.08150E-09
 -1       258-1.20377E+06 1.34816E+04 1.25573E+05-1.31518E+04 1.86574E-10-1.42727E-08
 -1       259-2.16748E+06-7.04614E+03-6.58616E+04 8.03017E+03-5.43776E-09-6.67717E-09
 -1       260-1.31018E+06 8.09753E+03 1.01800E+05 1.17869E+04-7.94698E-09 1.26535E-08
 -1       261-2.05451E+06-1.28191E+03-4.79058E+04-1.55434E+04-5.74732E-09 1.24146E-10
 -1       262-1.56291E+06-7.97144E+03 3.91530E+04-3.16428E+03-7.28725E-09-1.03541E-08
 -1       263-1.91585E+06 9.06128E+03-3.97953E+04 2.29633E+04-6.12658E-09 2.72848E-12
 -1       264-1.79080E+06-5.46432E+04-5.61668E+04 2.18259E+03-7.44990E-09 1.36852E-08
 -1       265-1.82767E+06 4.54233E+04-9.88893E+04-2.08870E+04-6.88303E-09 1.11322E-09
 -1       266-2.90099E+04-1.34156E+04 6.69529E+04-3.64344E+01-3.27418E-11-2.74392E-09
 -1       267 3.35956E+04 1.56655E+04 4.74947E+04 4.18918E+01 5.82077E-11-5.53327E-09
 -1       268-4.57785E+03-2.24289E+03 1.75792E+04-5.45540E+00 3.91083E-11-2.24635E-09
 -1       269 5.40379E+03 2.68941E+03 1.14890E+04 6.34186E+00-1.44382E-11 1.14727E-10
 -1       270-8.24908E+02-4.46143E+02 5.51611E+03-8.84945E-01 6.79847E-11-4.82936E-10
 -1       271-2.82049E+06-3.59984E+05-2.19027E+05-1.09266E+06 1.41881E-10-3.20142E-10
 -1       272-2.89174E+06-5.02187E+05-1.37320E+05-1.09887E+06 8.00355E-11-9.94987E-10
 -1       273-2.85885E+06-4.06539E+05-5.16403E+04-1.08665E+06 3.34353E-10 3.20506E-09
 -1       274-2.84700E+06-4.40890E+05-2.81608E+04-1.11024E+06 6.16183E-10-1.43655E-09
 -1       275-2.86385E+06-4.10653E+05-1.19898E+04-1.08538E+06-7.59428E-10 2.15005E-09
 -1       276-2.84103E+06-4.35739E+05-6.29067E+03-1.11255E+06-1.55433E-09-2.98530E-09
 -1       277-2.86487E+06-4.10648E+05-3.19633E+03-1.08481E+06 5.44333E-10 5.31770E-09
 -1       278-2.83994E+06-4.35775E+05-2.41679E+03-1.11340E+06-9.45874E-11-7.75586E-10
 -1       279-2.86505E+06-4.10485E+05-2.79279E+03-1.08463E+06 9.21432E-11 1.33923E-09
 -1       280-2.84036E+06-4.36217E+05-5.19897E+03-1.11334E+06 8.00355E-11-2.62992E-09
 -1       281-2.86446E+06-4.10255E+05-9.74025E+03-1.08485E+06-6.70752E-11-5.59339E-10
 -1       282-2.84487E+06-4.40731E+05-2.28279E+04-1.11190E+06 1.10413E-09 4.70391E-09
 -1       283-2.86055E+06-4.06782E+05-4.18039E+04-1.08573E+06 3.14685E-10 4.11274E-09
 -1       284-2.88090E+06-4.90564E+05-1.11187E+05-1.10293E+06 9.15861E-10 2.67755E-09
 -1       285-2.82956E+06-3.69037E+05-1.77345E+05-1.09053E+06-3.51065E-10 1.14233E-09
 -1       286-8.00186E+04-2.53472E+04 5.84482E+04-1.29975E+02 1.96798E-09 1.21145E-09
 -1       287-5.44906E+04 2.93417E+04 4.14006E+04 1.10391E+02 4.42235E-10 1.48384E-09
 -1       288-7.02814E+04-3.98788E+03 1.51190E+04-5.00018E+01 8.18172E-11 9.98625E-10
 -1       289-6.58626E+04 4.61550E+03 9.55340E+03-7.94983E+01-1.07514E-11 1.34605E-09
 -1       290-6.86531E+04-6.27125E+02 3.88968E+03 5.99177E+01 3.89235E-10 2.44427E-09
 -1       291-6.77984E+04 7.35249E+02 2.35743E+03-2.68609E+02 2.28727E-09-7.94924E-09
 -1       292-6.83466E+04-1.08089E+02 1.17027E+03 1.39112E+02 1.82201E-06 3.73231E-09
 -1       293-6.81234E+04 2.01638E+02 9.81898E+02-3.62147E+02 3.62460E-06-1.01068E-10
 -1       294-6.83284E+04-9.33428E+01 1.04738E+03 1.53457E+02 1.81771E-06 4.72085E-10
 -1       295-6.78890E+04 6.12873E+02 1.99018E+03-3.20144E+02 2.43140E-09-4.69311E-09
 -1       296-6.85809E+04-5.19381E+02 3.24222E+03 9.71091E+01 5.50422E-11-2.66641E-09
 -1       297-6.62682E+04 3.82360E+03 7.92393E+03-1.61065E+02 1.58389E-11-5.57975E-10
 -1       298-6.99482E+04-3.30381E+03 1.25249E+04-5.62540E+00 5.08876E-10 1.49294E-09
 -1       299-5.68207E+04 2.43059E+04 3.43009E+04 3.56588E+01 3.75216E-10 2.38742E-09
 -1       300-7.80235E+04-2.09969E+04 4.84060E+04-9.96182E+01 1.17652E-09 4.09273E-09
 -1       301 2.84763E+04-1.61233E+04 7.90526E+04-2.68331E+04 1.09503E-09-6.39318E-10
 -1       302 1.04085E+04-3.11091E+01 5.17494E+04-3.28416E+04 2.62548E-09 4.20243E-09
 -1       303 2.28556E+03-1.04835E+04 4.54895E+04-2.68459E+04 8.87667E-10 3.59069E-09
 -1       304 1.71358E+04 4.95121E+03 7.26300E+04-3.28026E+04 1.90721E-09 6.55427E-09
 -1       305 4.86312E+04-2.10765E+04 1.28765E+05-2.68414E+04 8.51287E-10 6.88601E-09
 -1       306-1.47691E+06-1.98016E+05-8.54606E+04-5.73499E+05-1.61890E-10 4.20914E-09
 -1       307-1.49065E+06-2.67274E+05-5.35370E+04-5.91870E+05 4.08363E-10 2.71029E-09
 -1       308-1.49192E+06-2.16061E+05-2.01624E+04-5.71142E+05-2.20552E-10 1.15506E-10
 -1       309-1.47332E+06-2.43378E+05-1.10021E+04-5.96336E+05 9.64064E-11 2.59274E-09
 -1       310-1.49384E+06-2.17694E+05-4.70764E+03-5.70708E+05 1.72759E-09 5.35238E-10
 -1       311-1.47116E+06-2.41232E+05-2.51830E+03-5.97101E+05 1.05501E-09-2.39211E-09
 -1       312-1.49414E+06-2.17780E+05-1.37214E+03-5.70591E+05-1.43814E-11-5.31799E-10
 -1       313-1.47094E+06-2.41054E+05-1.21893E+03-5.97174E+05 9.80435E-10 1.95581E-09
 -1       314-1.49407E+06-2.17841E+05-1.65171E+03-5.70654E+05 1.14369E-10-9.31095E-10
 -1       315-1.47143E+06-2.41106E+05-3.27533E+03-5.96791E+05 4.74756E-10 2.22144E-10
 -1       316-1.49356E+06-2.17814E+05-6.26178E+03-5.70897E+05 7.20320E-10 2.70575E-10
 -1       317-1.47442E+06-2.43881E+05-1.46941E+04-5.95638E+05 3.22416E-10-2.59934E-09
 -1       318-1.49097E+06-2.15655E+05-2.69636E+04-5.71500E+05 7.11225E-10 4.58385E-10
 -1       319-1.49758E+06-2.75857E+05-7.15972E+04-5.89700E+05-2.19643E-10 1.21508E-09
 -1       320-1.47094E+06-1.91461E+05-1.14281E+05-5.74601E+05-1.28694E-09 1.18598E-09
 -1       336 3.67893E+02-6.30180E+05-2.39796E+03-1.03056E+03-4.62353E-09 5.00904E-09
 -1       337-1.11974E+03-6.31122E+05-3.77842E+03-7.40303E+03-3.15569E-09-1.42245E-09
 -1       338 5.77446E+02-6.30002E+05-5.78527E+03-8.74992E+02-5.21914E-09-1.61481E-09
 -1       339-6.94498E+03-6.34544E+05-1.38747E+04-7.68464E+03-3.65094E-09 4.32954E-09
 -1       340 5.21778E+03-6.26790E+05-2.13599E+04-7.51116E+02-6.24277E-09 3.32352E-09
 -1       356-4.65068E-01 1.78062E-01-1.50631E+00-1.21878E+00-2.33720E-07-1.40821E-09
 -1       357-8.22399E-01-3.31934E-01-3.18049E+00 4.90507E+00-4.68195E-07 1.10780E-09
 -1       358-3.85229E-01 1.55212E-01-6.02571E+00-1.21857E+00-2.77649E-07 9.20803E-10
 -1       359-1.54032E+00-1.04988E+00-1.26460E+01 4.90493E+00-8.72496E-08-4.18793E-10
 -1       360 2.52722E-01 8.96102E-01-2.41600E+01-1.21863E+00 8.21926E-08-4.94791E-10
 -1       361-5.58630E+00-6.81539E+00-5.16697E+01 4.90523E+00 2.52310E-07-2.82546E-09
 -1       362 3.66084E+00 5.92046E+00-9.67225E+01-1.21888E+00 3.35566E-07-2.19232E-09
 -1       363-2.78867E+01-4.44518E+01-2.13048E+02 4.90896E+00 4.18505E-07 2.24361E-09
 -1       364 2.25538E+01 3.85282E+01-3.85804E+02-1.22236E+00 4.10698E-07 2.68970E-09
 -1       365-1.55416E+02-2.86442E+02-8.89157E+02 4.93542E+00 4.04630E-07 8.33253E-10
 -1       366 1.31196E+02 2.47877E+02-1.52977E+03-1.24532E+00 3.11337E-07 3.03771E-09
 -1       367-9.06868E+02-1.83169E+03-3.77655E+03 5.09539E+00 2.19402E-07-3.27225E-09
 -1       368 7.74071E+02 1.58352E+03-6.00759E+03-1.38226E+00 7.45384E-08 1.29353E-09
 -1       369-5.43426E+03-1.16575E+04-1.64404E+04 6.00698E+00-7.29246E-08-2.09639E-09
 -1       370 4.65950E+03 1.00720E+04-2.32182E+04-2.15639E+00-3.31975E-08 2.73394E-09
 -1       376-6.87859E-01 1.10075E+00-6.57661E-01 1.12155E+00 7.20888E-07-2.69781E-07
 -1       377 3.86403E+00-3.99516E+00-1.16880E+00-4.22038E+00 1.43820E-06-5.38435E-07
 -1       378-6.57374E-01 1.07402E+00-2.08679E+00 1.14627E+00 3.81400E-07-1.44016E-07
 -1       379 3.44852E+00-4.42267E+00-4.64067E+00-4.21494E+00-6.77757E-07 2.53162E-07
 -1       380-2.72294E-01 1.52834E+00-8.98149E+00 1.11607E+00-1.93551E-06 7.24002E-07
 -1       381 9.63998E-01-7.89336E+00-2.07994E+01-3.78379E+00-3.19266E-06 1.19717E-06
 -1       382 1.82723E+00 4.54444E+00-3.93884E+01 7.15255E-01-4.37846E-06 1.64158E-06
 -1       383-1.34870E+01-3.02092E+01-9.44808E+01-3.47204E-01-5.56453E-06 2.09088E-06
 -1       384 1.41788E+01 2.38417E+01-1.72278E+02-2.31938E+00-6.60130E-06 2.47576E-06
 -1       385-1.01159E+02-1.72896E+02-4.34206E+02 2.36907E+01-7.63737E-06 2.86477E-06
 -1       386 8.94992E+01 1.47215E+02-7.49348E+02-2.33152E+01-8.38975E-06 3.14736E-06
 -1       387-6.34609E+02-1.08082E+03-2.02288E+03 1.87346E+02-9.13669E-06 3.43213E-06
 -1       388 5.47633E+02 9.31638E+02-3.23514E+03-1.65920E+02-8.99496E-06 3.37484E-06
 -1       389-3.91409E+03-6.84400E+03-9.59249E+03 1.27288E+03-8.84822E-06 3.32335E-06
 -1       390 3.36918E+03 5.90958E+03-1.38064E+04-1.10842E+03-4.42414E-06 1.66028E-06
 -1       406 2.05769E+02 2.65344E+05 6.91681E+02-9.08591E+01-1.09230E-09 8.48559E-10
 -1       407 2.46937E+02 2.65488E+05 1.24084E+03 9.34315E+01-5.45811E-10 1.07821E-09
 -1       408 5.95453E+02 2.65276E+05 2.37208E+03-2.32253E+00-1.35492E-09-8.64020E-11
 -1       409 2.49221E+03 2.66227E+05 5.29262E+03-8.28230E+01-1.00681E-09-8.04903E-10
 -1       410 7.19772E+03 2.64604E+05 1.07752E+04 8.99386E+01-1.72804E-09-1.22509E-09
 -1       501-2.63153E+05-4.15138E+04 8.46122E+04-6.14872E+03 1.01654E-08 7.86167E-09
 -1       502-1.65873E+05 4.59683E+04 7.00515E+04 1.62460E+04 1.03497E-08 1.52459E-08
 -1       503-2.27324E+05-4.31265E+03 2.24366E+04-7.64006E+03 4.54790E-09 9.33596E-09
 -1       504-1.55763E+05 8.36100E+03 2.64398E+04 1.01948E+04-3.79430E-10 5.65865E-09
 -1       505-2.73054E+05-4.15144E+03-4.90415E+03-9.65922E+01 2.77856E-09-3.00815E-09
 -1       506-1.48412E+05 3.16712E+03 1.74371E+04-6.08858E+03 2.06828E-08-8.45540E-09
 -1       507-2.34594E+05 7.99604E+02-1.39892E+03 8.63826E+03 1.84789E-08-1.42856E-08
 -1       508-1.89773E+05-1.82808E+03 6.05616E+03-1.50175E+04 1.00080E-08-1.94907E-08
 -1       509-2.32015E+05 1.17792E+03-1.79981E+03 8.83764E+03 1.78841E-08-1.48324E-08
 -1       510-1.50951E+05 2.06893E+03 1.43145E+04-6.75804E+03 1.75039E-08-1.39350E-08
 -1       511-2.73110E+05-3.41584E+03-9.81384E+03 3.73517E+02-3.86802E-09-1.19201E-09
 -1       512-1.56225E+05 2.74790E+03 1.49384E+04 9.63653E+03-4.17131E-08 6.48879E-09
 -1       513-2.26790E+05 5.44731E+02 2.85481E+03-7.55205E+03-4.43145E-05 5.15399E-07
 -1       514-1.83761E+05 8.61782E+03 1.73971E+04 1.62579E+04-8.90447E-05 1.39549E-06
 -1       515-2.45825E+05-9.02449E+03 1.08878E+04-6.24879E+03-4.41534E-05 4.01474E-07
 -1       521-2.89617E+06-3.76289E+05-1.84005E+05-1.11530E+06-6.36646E-11 1.83354E-09
 -1       522-2.95268E+06-4.99224E+05-1.15373E+05-1.12451E+06 1.19167E-09-4.82396E-09
 -1       523-2.92818E+06-4.15609E+05-4.33631E+04-1.11046E+06 7.53062E-10 3.60887E-09
 -1       524-2.91548E+06-4.47301E+05-2.36736E+04-1.13353E+06 7.91715E-10 7.87622E-10
 -1       525-2.93214E+06-4.19312E+05-1.00772E+04-1.10964E+06 7.84212E-10-2.11458E-10
 -1       526-2.91089E+06-4.42490E+05-5.33300E+03-1.13486E+06-5.65137E-10-3.74285E-09
 -1       527-2.93271E+06-4.19601E+05-2.77243E+03-1.10946E+06-4.33964E-10-6.51958E-10
 -1       528-2.91048E+06-4.41979E+05-2.23315E+03-1.13487E+06-1.77295E-10 1.96638E-09
 -1       529-2.93254E+06-4.19777E+05-2.75997E+03-1.10964E+06-1.11459E-09 3.02634E-10
 -1       530-2.91146E+06-4.41859E+05-5.28267E+03-1.13407E+06-1.62390E-09-7.97399E-10
 -1       531-2.93164E+06-4.19832E+05-9.99242E+03-1.11017E+06 7.96717E-10 2.70575E-09
 -1       532-2.91656E+06-4.46011E+05-2.34342E+04-1.13200E+06-5.12046E-10 3.02316E-09
 -1       533-2.92741E+06-4.16487E+05-4.29492E+04-1.11133E+06-5.41831E-10-1.51704E-09
 -1       534-2.95397E+06-4.96807E+05-1.14210E+05-1.12235E+06-5.88102E-10-1.24601E-09
 -1       535-2.89541E+06-3.77873E+05-1.82185E+05-1.11645E+06-7.82165E-10 1.25874E-09
 -1       536-4.79384E+03-9.06044E+03 3.64170E+04-6.89262E+03 3.44698E-10-2.38833E-09
 -1       537 8.85377E+03 1.17329E+04 2.35258E+04-2.97528E+04-2.30648E-09-3.27054E-09
 -1       538 7.26285E+02-1.01886E+03 9.42092E+03-6.79106E+03-9.09495E-12-4.88217E-09
 -1       539 2.48878E+03 1.14473E+03 5.30933E+03-2.98606E+04 1.09867E-09-2.48610E-09
 -1       540 1.34888E+03-1.40454E+02 2.36615E+03-6.78135E+03-6.41194E-11-2.22826E-10
 -1       541 1.63442E+03 1.05369E+02 1.25483E+03-2.98696E+04-5.58202E-10 9.71625E-10
 -1       542 1.41812E+03-2.28092E+01 5.67289E+02-6.78238E+03 1.81899E-12 2.57717E-09
 -1       543 1.45442E+03 2.51677E+01 2.60551E+02-2.98680E+04-2.03613E-10-8.80959E-10
 -1       544 1.42451E+03 4.28602E+00 5.19333E+01-6.78297E+03 5.98220E-10-1.85082E-10
 -1       545 1.38756E+03 1.05801E+01-1.26964E+02-2.98674E+04-5.29354E-10 1.38925E-10
 -1       546 1.43867E+03 2.37661E+01-3.48612E+02-6.78301E+03-3.46745E-11 1.16842E-09
 -1       547 1.27539E+03-1.69645E+02-8.38043E+02-2.98638E+04-5.06361E-10 3.68118E-10
 -1       548 1.54843E+03 1.51568E+02-1.52400E+03-6.78656E+03-8.37645E-10 1.07241E-09
 -1       549 3.27171E+02-1.91005E+03-3.79760E+03-2.98077E+04-3.34921E-10-9.08244E-10
 -1       550 2.45672E+03 1.42174E+03-5.91479E+03-6.83907E+03-1.13687E-11-9.52923E-10
 -1       551 7.63593E+03-2.52259E+05 1.93454E+04-4.00617E+05 5.71163E-10 1.18598E-09
 -1       552 5.41777E+03-2.49324E+05 1.92348E+04-4.88909E+05-4.67116E-09 4.19823E-09
 -1       553 3.85239E+03-2.52680E+05 2.70177E+04-3.99846E+05 5.96629E-10 8.00355E-10
 -1       554 1.69599E+04-2.41121E+05 5.46609E+04-4.89010E+05-4.55475E-09-1.60799E-09
 -1       555 4.20497E+04-2.61047E+05 1.03690E+05-4.00411E+05-3.63798E-12-2.61207E-09
 -1       556-9.83657E+04-8.44112E+04 1.99554E+04-1.40417E+05-7.16682E-10 6.57747E-09
 -1       557-7.89918E+04-1.03342E+05 1.00534E+04-1.55596E+05-2.35741E-09 1.05638E-09
 -1       558-9.84143E+04-8.94555E+04 4.20393E+03-1.37112E+05-2.60115E-09 2.99224E-10
 -1       559-8.11666E+04-1.06300E+05 2.08093E+03-1.56447E+05 4.14730E-10-8.78117E-10
 -1       560-9.86974E+04-8.93559E+04 9.17825E+02-1.37184E+05 5.92991E-10-2.36469E-11
 -1       561-8.16572E+04-1.06277E+05 4.48664E+02-1.56781E+05 3.74712E-10 9.07619E-10
 -1       562-9.89351E+04-8.91876E+04 1.73157E+02-1.37350E+05 6.91216E-11-2.51191E-09
 -1       563-8.19174E+04-1.06167E+05 4.22166E+01-1.56959E+05 4.19277E-10-2.03738E-09
 -1       564-9.90753E+04-8.90906E+04-9.07884E+01-1.37449E+05 2.55932E-09 4.23233E-09
 -1       565-8.20535E+04-1.06113E+05-2.71888E+02-1.57044E+05-1.01227E-09 5.53155E-09
 -1       566-9.91005E+04-8.90527E+04-6.05862E+02-1.37478E+05-6.55746E-10 6.77210E-09
 -1       567-8.21619E+04-1.06158E+05-1.34766E+03-1.57030E+05-8.77208E-10-5.03860E-10
 -1       568-9.89487E+04-8.92091E+04-2.77335E+03-1.37385E+05-2.00453E-09 9.56788E-10
 -1       569-8.37405E+04-1.07603E+05-6.53696E+03-1.56523E+05-3.41242E-09 1.01318E-09
 -1       570-9.79294E+04-9.33187E+04-1.30629E+04-1.35667E+05-3.63252E-09-9.01196E-09
 -1       571 1.70581E+05 7.54056E+03 1.13008E+04-4.35895E+04 4.70664E-10-2.63958E-09
 -1       572 1.72281E+05 2.60401E+03 5.54109E+03-4.78762E+04 5.21595E-10-4.11092E-10
 -1       573 1.71267E+05 6.06539E+02 2.46272E+03-4.34759E+04-1.19144E-10-1.24737E-09
 -1       574 1.71470E+05 1.92407E+02 1.23450E+03-4.80021E+04-8.05812E-10-1.53250E-10
 -1       575 1.71344E+05 2.10146E+01 5.82210E+02-4.34611E+04-1.26192E-10 5.46606E-10
 -1       576 1.71362E+05 1.97317E+00 2.95984E+02-4.80187E+04 1.44610E-10 1.61526E-09
 -1       577 1.71356E+05-8.82164E+00 1.45059E+02-4.34591E+04-1.76783E-10 1.95087E-09
 -1       578 1.71352E+05-6.85318E+00 7.74302E+01-4.80207E+04-5.45697E-12 1.01591E-09
 -1       579 1.71368E+05-9.99662E+00 4.43651E+01-4.34591E+04 7.84439E-10-1.67802E-09
 -1       580 1.71365E+05-1.22918E+01 3.64603E+01-4.80182E+04 1.52204E-09 5.67525E-10
 -1       581 1.71387E+05-1.72520E+01 4.39489E+01-4.34617E+04-6.54836E-11-2.01771E-09
 -1       582 1.71398E+05-1.39253E+01 7.97557E+01-4.79919E+04-5.54792E-11-1.12595E-09
 -1       583 1.71410E+05 2.41768E+00 1.50120E+02-4.34854E+04 1.05583E-08 2.29966E-09
 -1       584 1.71483E+05 1.14838E+02 3.35709E+02-4.77925E+04 2.00494E-08 4.40048E-09
 -1       585 1.71402E+05 4.06629E+02 6.79701E+02-4.36614E+04 1.09358E-08 6.23913E-10
 -1       586 9.42680E+02 7.85600E+04 1.90280E+03-1.05363E+05 3.26054E-10 2.97723E-09
 -1       587 5.79714E+02 7.88915E+04 2.12466E+03-1.16958E+05-6.30280E-10 5.45697E-10
 -1       588 8.00034E+02 7.84965E+04 3.33478E+03-1.05223E+05 3.82897E-10 1.05090E-08
 -1       589 3.14472E+03 7.98065E+04 7.04969E+03-1.16995E+05-7.06677E-10 2.43622E-08
 -1       590 9.05371E+03 7.76090E+04 1.41238E+04-1.05323E+05 4.15639E-10 1.37302E-08
 -1       591-8.60701E+04-2.55718E+04-1.67384E+04-4.12508E+04 1.23237E-10 2.84581E-09
 -1       592-8.71229E+04-2.46421E+04-8.39389E+03-4.57777E+04 7.13953E-11-3.25372E-10
 -1       593-8.68732E+04-2.06926E+04-3.56365E+03-4.36613E+04 1.27352E-09-1.64846E-10
 -1       594-8.52344E+04-2.25441E+04-1.74994E+03-4.59458E+04-1.36879E-10 9.41085E-10
 -1       595-8.69643E+04-2.05598E+04-8.07535E+02-4.37535E+04-3.52770E-10 1.82979E-10
 -1       596-8.51043E+04-2.24704E+04-4.08390E+02-4.59271E+04-2.30182E-09-1.19890E-08
 -1       597-8.69796E+04-2.05741E+04-2.20089E+02-4.37535E+04-1.10509E-09-9.61847E-09
 -1       598-8.50908E+04-2.24714E+04-1.71778E+02-4.59210E+04-1.50436E-09-3.89821E-09
 -1       599-8.69786E+04-2.05750E+04-2.12817E+02-4.37529E+04 5.31281E-09-7.10315E-10
 -1       600-8.51018E+04-2.24717E+04-3.89294E+02-4.59246E+04 7.65476E-09-3.27123E-09
 -1       601-8.69614E+04-2.05628E+04-7.66239E+02-4.37516E+04 5.27507E-11-1.57875E-08
 -1       602-8.52246E+04-2.25406E+04-1.65905E+03-4.59384E+04 5.09272E-09-9.37951E-09
 -1       603-8.68719E+04-2.06921E+04-3.37757E+03-4.36649E+04 7.10043E-09 1.85082E-09
 -1       604-8.70322E+04-2.45085E+04-7.95437E+03-4.57533E+04-2.66675E-09-6.47378E-09
 -1       605-8.60886E+04-2.53336E+04-1.58614E+04-4.14004E+04 6.69615E-10-1.54614E-11
 -1       606 6.24790E+04-7.03494E+03-1.10307E+04 2.03615E+04-3.54885E-09-2.11730E-09
 -1       607 6.07362E+04-2.37174E+03-5.42716E+03 2.23239E+04-1.71440E-09-1.91676E-09
 -1       608 6.17485E+04-5.08060E+02-2.41734E+03 2.02216E+04 2.19552E-09 5.63659E-10
 -1       609 6.15214E+04-1.43935E+02-1.21322E+03 2.24790E+04-1.32241E-09-1.27307E-09
 -1       610 6.16501E+04 3.64619E+00-5.73662E+02 2.02040E+04-3.38514E-09-3.48109E-10
 -1       611 6.16045E+04 2.34689E+01-2.88464E+02 2.24982E+04-6.85941E-09 3.36308E-09
 -1       612 6.16263E+04 2.93795E+01-1.36449E+02 2.02021E+04-3.30510E-09-3.64935E-10
 -1       613 6.16081E+04 3.18598E+01-6.10020E+01 2.25006E+04-4.13456E-09-4.64070E-10
 -1       614 6.16146E+04 2.87109E+01-1.40747E+01 2.02016E+04-1.27557E-09 9.96579E-10
 -1       615 6.16042E+04 3.41764E+01 2.62424E+01 2.25008E+04 4.42196E-09-4.54520E-10
 -1       616 6.16055E+04 3.33763E+01 7.81622E+01 2.02018E+04-2.92630E-09-4.67708E-09
 -1       617 6.16134E+04 6.07586E+01 1.79649E+02 2.25001E+04-1.52249E-09-2.47928E-09
 -1       618 6.15882E+04 1.11736E+02 3.64219E+02 2.02022E+04-1.27920E-09-1.36788E-09
 -1       619 6.17316E+04 3.99015E+02 8.21820E+02 2.24966E+04-7.85292E-10 1.13846E-09
 -1       620 6.14774E+04 1.10165E+03 1.67172E+03 2.02041E+04 7.38851E-10-1.82786E-09
 -1       621 5.77227E+02 1.79369E+05 2.02940E+03-1.48286E+04 8.95398E-10 9.64292E-10
 -1       622 2.61203E+02 1.79777E+05 2.15797E+03-1.81441E+04-4.53156E-10 3.04249E-09
 -1       623 1.65912E+02 1.79414E+05 3.20307E+03-1.48317E+04 8.37417E-10 1.57797E-09
 -1       624 1.69115E+03 1.80840E+05 6.60026E+03-1.80867E+04-2.51930E-10 1.39698E-09
 -1       625 4.85972E+03 1.78316E+05 1.25989E+04-1.48847E+04 9.09949E-10 2.78101E-09
 -1       626 1.11066E+05 3.64422E+04-1.67351E+03 7.09581E+04 1.62527E-09 5.53609E-09
 -1       627 1.08648E+05 3.92298E+04-7.95671E+02 7.31627E+04 1.40790E-09-1.35992E-09
 -1       628 1.11155E+05 3.71722E+04-3.34489E+02 7.04714E+04 1.19144E-09-1.42381E-09
 -1       629 1.08679E+05 3.96479E+04-1.58536E+02 7.32231E+04 1.85628E-09 1.14278E-09
 -1       630 1.11149E+05 3.72217E+04-6.71541E+01 7.04248E+04 2.65209E-09-4.23370E-09
 -1       631 1.08668E+05 3.96832E+04-2.31683E+01 7.32269E+04-3.62434E-09-1.03219E-08
 -1       632 1.11139E+05 3.72252E+04 9.19357E+00 7.04166E+04 5.22141E-09 7.27539E-09
 -1       633 1.08663E+05 3.96869E+04 4.65240E+01 7.32251E+04 1.39880E-09 1.01136E-09
 -1       634 1.11130E+05 3.72220E+04 1.07752E+02 7.04140E+04-1.96064E-09-9.58585E-09
 -1       635 1.08672E+05 3.96895E+04 2.39457E+02 7.32269E+04 3.29919E-10 3.65162E-10
 -1       636 1.11119E+05 3.72297E+04 4.94559E+02 7.04073E+04-2.13407E-09 6.07770E-10
 -1       637 1.08787E+05 3.98103E+04 1.10096E+03 7.32104E+04-8.75247E-10-8.10019E-09
 -1       638 1.11089E+05 3.75977E+04 2.27775E+03 7.02455E+04-5.71845E-10 1.16188E-09
 -1       639 1.09951E+05 4.17654E+04 5.41385E+03 7.27433E+04-2.91811E-09 1.16688E-09
 -1       640 1.11103E+05 4.32971E+04 1.13828E+04 6.78680E+04-5.35260E-09-8.33279E-09
 -1       641-3.91372E+03 1.94638E+03-4.48686E+03-1.19824E+01 1.48231E-05-1.31135E-08
 -1       642-5.86081E+03-2.25269E+03-3.17437E+03 2.52254E+01 2.96164E-05-2.59738E-08
 -1       643-4.66396E+03 3.05894E+02-1.15580E+03-1.22782E+01 2.73721E-05-2.96028E-08
 -1       644-4.98621E+03-3.53026E+02-7.18307E+02 2.59977E+01 2.51126E-05-2.12851E-08
 -1       645-4.78837E+03 4.70871E+01-2.73737E+02-1.27552E+01 1.74758E-05-1.90408E-08
 -1       646-4.83785E+03-4.91378E+01-1.24874E+02 2.66522E+01 9.82893E-06-7.74783E-09
 -1       647-4.81233E+03 2.06036E+00 1.33506E+01-1.29328E+01-7.76459E-07-8.98986E-10
 -1       648-4.79291E+03 3.18416E+01 1.52493E+02 2.66155E+01-1.13930E-05 1.21389E-08
 -1       649-4.83331E+03-3.38822E+01 3.31954E+02-1.27185E+01-2.40537E-05 2.55621E-08
 -1       650-4.67208E+03 2.59079E+02 7.98351E+02 2.57258E+01-3.67153E-05 4.04239E-08
 -1       651-4.93315E+03-2.25145E+02 1.38572E+03-1.20432E+01-4.97596E-05 5.35640E-08
 -1       652-3.98713E+03 1.66480E+03 3.43064E+03 2.36122E+01-6.27914E-05 5.72361E-08
 -1       653-5.51822E+03-1.43935E+03 5.45945E+03-1.06050E+01-6.93334E-05 6.29789E-08
 -1       654 1.29876E+02 1.05963E+04 1.49440E+04 1.83329E+01-7.58320E-05 5.91890E-08
 -1       655-9.04949E+03-9.15482E+03 2.11076E+04-6.76437E+00-3.79472E-05 2.59506E-08
 -1       656 7.04766E+03-2.61658E+05-2.99245E+04 7.13811E+03-3.41970E-10 9.00400E-11
 -1       657-1.02335E+04-2.72735E+05-2.21526E+04 3.06067E+04-9.34165E-10 2.39561E-09
 -1       658 1.44313E+03-2.65514E+05-1.43421E+04 7.07758E+03-5.38449E-10 3.62422E-09
 -1       659-9.94403E+03-2.72587E+05-2.16623E+04 3.06436E+04-1.56388E-09-1.12829E-09
 -1       660 6.82228E+03-2.61828E+05-2.89979E+04 7.10162E+03-1.76624E-09 1.61856E-09
 -1       661 1.69979E+05 2.35285E+04 1.34046E+04 6.65796E+04 5.63807E-09 4.55293E-09
 -1       662 1.72935E+05 3.12429E+04 8.07231E+03 6.84672E+04-1.57949E-09 3.44824E-09
 -1       663 1.72038E+05 2.55265E+04 3.14616E+03 6.65905E+04-1.87340E-09 4.63501E-10
 -1       664 1.70528E+05 2.80054E+04 1.66031E+03 6.88452E+04 5.67053E-09-1.00638E-09
 -1       665 1.72235E+05 2.57087E+04 7.34834E+02 6.65985E+04 1.92219E-09 1.11623E-09
 -1       666 1.70298E+05 2.77358E+04 3.91248E+02 6.88611E+04 2.96166E-09-2.03756E-09
 -1       667 1.72257E+05 2.57269E+04 2.28109E+02 6.66003E+04-1.22127E-09-1.37946E-09
 -1       668 1.70278E+05 2.77173E+04 2.19553E+02 6.88618E+04 9.48830E-10 2.33125E-09
 -1       669 1.72255E+05 2.57241E+04 3.20945E+02 6.65992E+04-3.20063E-09 1.87742E-09
 -1       670 1.70319E+05 2.77569E+04 6.42245E+02 6.88675E+04-5.69941E-10-1.56044E-09
 -1       671 1.72218E+05 2.56901E+04 1.25717E+03 6.65943E+04-1.01147E-09-2.97950E-09
 -1       672 1.70717E+05 2.82272E+04 2.87107E+03 6.88440E+04 4.76200E-09 3.48393E-10
 -1       673 1.71876E+05 2.53722E+04 5.45141E+03 6.65791E+04 3.70741E-09-2.41585E-09
 -1       674 1.74890E+05 3.38451E+04 1.39967E+04 6.81929E+04 1.02054E-08-3.17073E-09
 -1       675 1.68307E+05 2.19054E+04 2.32439E+04 6.65578E+04 3.55999E-09-5.82531E-09
 -1       676 3.78858E+02-2.58294E+05-2.23290E+03-3.05163E+00 1.40378E-09 1.21636E-09
 -1       677-1.02264E+03-2.59213E+05-3.29559E+03-6.49436E+02-9.36780E-10-1.20149E-09
 -1       678 4.90846E+02-2.58184E+05-4.85152E+03-3.89032E+00-8.81755E-10 2.62117E-09
 -1       679-5.77764E+03-2.61984E+05-1.15264E+04-6.46913E+02 2.50952E-09-1.80957E-09
 -1       680 4.32277E+03-2.55524E+05-1.76971E+04-6.13712E+00 8.38554E-10 1.23626E-09
 -1       716-2.00219E-01-9.54578E-02 8.95894E+00-2.43755E-04 1.04505E-09-1.09484E-09
 -1       717 9.85971E-01 7.19034E-01 1.57784E+01 6.20757E-04 9.48778E-10-1.05355E-09
 -1       718-7.85766E-01-6.23837E-01 2.92803E+01-3.76777E-04 2.41752E-09-8.99082E-10
 -1       719 4.65567E+00 4.89775E+00 6.07328E+01-5.63130E-04-1.50862E-09-1.60077E-09
 -1       720-3.86997E+00-4.27443E+00 1.15834E+02 9.40573E-04-2.11151E-09-1.60772E-09
 -1       721 2.40960E+01 3.26339E+01 2.47558E+02-1.98563E-02-3.80556E-09-6.46615E-10
 -1       722-2.02262E+01-2.83590E+01 4.63345E+02 1.89137E-02-3.95762E-09-2.43008E-09
 -1       723 1.31008E+02 2.12939E+02 1.02059E+03-1.90542E-01-2.37039E-09-1.23929E-09
 -1       724-1.10779E+02-1.84558E+02 1.84812E+03 1.71584E-01-2.41010E-09-3.03794E-09
 -1       725 7.42058E+02 1.37214E+03 4.25935E+03-1.46535E+00-3.82374E-09-5.86851E-10
 -1       726-6.31215E+02-1.18736E+03 7.32823E+03 1.29341E+00-2.38977E-09-5.10681E-10
 -1       727 4.34209E+03 8.77427E+03 1.80911E+04-1.03077E+01-4.37820E-09 3.79941E-10
 -1       728-3.70970E+03-7.58516E+03 2.87818E+04 9.01293E+00-1.92980E-10-1.12050E-09
 -1       729 2.60304E+04 5.58413E+04 7.87582E+04-6.93297E+01 1.40745E-09-1.13869E-09
 -1       730-2.23009E+04-4.82407E+04 1.11287E+05 6.03269E+01 4.15069E-09-1.75351E-09
 -1       766-4.82504E+04-2.23264E+04 1.11267E+05-3.36227E+01 1.74623E-10 5.38478E-10
 -1       767 5.59207E+04 2.60669E+04 7.87497E+04-5.04738E+01 4.07817E-09-2.32035E-09
 -1       768-7.65486E+03-3.76857E+03 2.86882E+04 2.15920E+01-1.29148E-10 8.85194E-11
 -1       769 9.28606E+03 4.57713E+03 1.80981E+04-1.13560E+02 2.82853E-09 3.24598E-09
 -1       770-1.62917E+03-8.55165E+02 6.91151E+03 2.94731E+01-4.20187E-10 1.21738E-09
 -1       771-1.40858E+06-2.74649E+05-4.03606E+04-6.07559E+05-5.07498E-09-6.91216E-10
 -1       772-1.40240E+06-2.80764E+05-2.01992E+04-6.28091E+05-2.10093E-09 5.02041E-09
 -1       773-1.41121E+06-2.62353E+05-8.62453E+03-6.13064E+05-2.60843E-09 1.65164E-09
 -1       774-1.39773E+06-2.76106E+05-4.21554E+03-6.29349E+05-2.10639E-09-8.84802E-09
 -1       775-1.41177E+06-2.61792E+05-1.97207E+03-6.13380E+05 3.65981E-09 5.19321E-09
 -1       776-1.39761E+06-2.75912E+05-9.85731E+02-6.29635E+05 8.44011E-10-1.24442E-09
 -1       777-1.41206E+06-2.61670E+05-5.43014E+02-6.13481E+05 1.29148E-10 6.66660E-10
 -1       778-1.39773E+06-2.75873E+05-4.08500E+02-6.29831E+05-1.37879E-09 3.33699E-10
 -1       779-1.41222E+06-2.61568E+05-5.10292E+02-6.13549E+05-3.45608E-11-3.55385E-10
 -1       780-1.39786E+06-2.75849E+05-9.21483E+02-6.29966E+05-8.80391E-10-4.73847E-10
 -1       781-1.41226E+06-2.61485E+05-1.82033E+03-6.13581E+05-1.04956E-09-8.01265E-10
 -1       782-1.39819E+06-2.76002E+05-3.94472E+03-6.30036E+05-4.44743E-10-2.71484E-10
 -1       783-1.41204E+06-2.61796E+05-8.04173E+03-6.13380E+05-1.73668E-09-1.54341E-09
 -1       784-1.40253E+06-2.80648E+05-1.89556E+04-6.29493E+05-2.09752E-09-2.49565E-09
 -1       785-1.41006E+06-2.72950E+05-3.78159E+04-6.08020E+05 1.61890E-10 8.93124E-10
 -1       786 1.36340E+05-4.31033E+03 1.76101E+04-1.03649E+03 7.03722E-11-2.69756E-09
 -1       787 1.42768E+05 5.71985E+03 1.13522E+04-4.57371E+03-1.46798E-10-2.63140E-09
 -1       788 1.39018E+05-4.55769E+02 4.56699E+03-1.03125E+03-2.98485E-10 5.04770E-10
 -1       789 1.39777E+05 5.83029E+02 2.56458E+03-4.57587E+03 4.97607E-10 1.90641E-09
 -1       790 1.39329E+05-5.00496E+01 1.16107E+03-1.03413E+03 7.75913E-12 6.93774E-10
 -1       791 1.39424E+05 5.88230E+01 6.25049E+02-4.57170E+03 2.07692E-10 1.71440E-10
 -1       792 1.39370E+05-6.23277E+00 3.19264E+02-1.03541E+03-1.55296E-10 5.11164E-10
 -1       793 1.39380E+05 8.01150E+00 2.12255E+02-4.57113E+03-2.71221E-10-1.97502E-09
 -1       794 1.39373E+05-3.42152E+00 1.95387E+02-1.03470E+03-2.47894E-09-7.80609E-10
 -1       795 1.39393E+05 2.51704E+01 2.97656E+02-4.57474E+03-5.64984E-09 1.70824E-09
 -1       796 1.39357E+05-2.19332E+01 5.11738E+02-1.03180E+03-2.04261E-09-7.42006E-10
 -1       797 1.39545E+05 2.48756E+02 1.10591E+03-4.58139E+03-5.32879E-10-1.23092E-09
 -1       798 1.39224E+05-1.96073E+02 1.95934E+03-1.02805E+03-1.12914E-09-2.12776E-09
 -1       799 1.40828E+05 2.44826E+03 4.86416E+03-4.57937E+03-1.15415E-09-3.54476E-09
 -1       800 1.38078E+05-1.84777E+03 7.54240E+03-1.03394E+03 7.22480E-10 1.27284E-09
 -1       801-7.34261E+03 1.42538E+05 2.17894E+04-2.00419E+05 3.79259E-10 2.05182E-09
 -1       802 1.99810E+04 1.48056E+05 3.03059E+04-8.75242E+05 1.01318E-08 1.93450E-09
 -1       803-9.13755E+02 1.40332E+05 3.82573E+04-1.99796E+05 5.66433E-09 3.57204E-09
 -1       804 5.27758E+04 1.67333E+05 8.71740E+04-8.75167E+05 6.89033E-09-2.55113E-09
 -1       805-3.46442E+04 1.23459E+05 1.28659E+05-2.00503E+05 5.23141E-09-2.18279E-11
 -1       806-1.26779E+05-3.76813E+04-1.06407E+04-6.40544E+04 4.44822E-09 6.06542E-09
 -1       807-1.26369E+05-3.55797E+04-5.06012E+03-6.78558E+04-1.00840E-10-5.04940E-10
 -1       808-1.26770E+05-3.23551E+04-2.12955E+03-6.62890E+04 2.15414E-09 8.91555E-09
 -1       809-1.25298E+05-3.37404E+04-1.02959E+03-6.82896E+04-1.69621E-10-1.08400E-10
 -1       810-1.26803E+05-3.20085E+04-4.64811E+02-6.64443E+04-3.06272E-10 7.75344E-10
 -1       811-1.25196E+05-3.36254E+04-2.29441E+02-6.83065E+04 1.93154E-10 5.98220E-10
 -1       812-1.26812E+05-3.20007E+04-1.12976E+02-6.64507E+04 4.48836E-10-1.39062E-09
 -1       813-1.25184E+05-3.36237E+04-6.99131E+01-6.83032E+04 1.14112E-09 1.52909E-09
 -1       814-1.26812E+05-3.20042E+04-6.31305E+01-6.64494E+04 6.23572E-10 5.57748E-10
 -1       815-1.25186E+05-3.36266E+04-9.70980E+01-6.83009E+04 1.04137E-10-2.06421E-09
 -1       816-1.26805E+05-3.20102E+04-1.80884E+02-6.64453E+04-1.39403E-09-7.62839E-10
 -1       817-1.25226E+05-3.36665E+04-3.93037E+02-6.82851E+04 1.12118E-09 2.47564E-09
 -1       818-1.26785E+05-3.21497E+04-8.09426E+02-6.63898E+04 2.26919E-10 8.35826E-10
 -1       819-1.25676E+05-3.43182E+04-1.92072E+03-6.80623E+04 4.23529E-09 6.88124E-09
 -1       820-1.26738E+05-3.42136E+04-4.03785E+03-6.55877E+04 1.05865E-09 2.93562E-09
 -1       821-1.77820E+05 5.33391E+03-2.18044E+04 1.23836E+03-1.37084E-09 1.04592E-09
 -1       822-1.85769E+05-7.08173E+03-1.40558E+04 5.59254E+03-1.47162E-09-1.76374E-09
 -1       823-1.81136E+05 5.62805E+02-5.65757E+03 1.20405E+03 1.94882E-09-2.62889E-09
 -1       824-1.82074E+05-7.17459E+02-3.17971E+03 5.63872E+03-1.09594E-09-1.38289E-09
 -1       825-1.81522E+05 6.22651E+01-1.44834E+03 1.19188E+03-3.30283E-09-2.09764E-09
 -1       826-1.81643E+05-6.62000E+01-7.95183E+02 5.65839E+03-6.92171E-09 1.86408E-09
 -1       827-1.81572E+05 9.53016E+00-4.38040E+02 1.18431E+03-3.68794E-09 1.48782E-09
 -1       828-1.81596E+05-5.19836E+00-3.51042E+02 5.67024E+03-5.50332E-09 1.56275E-09
 -1       829-1.81573E+05 9.45716E+00-4.13653E+02 1.18002E+03-4.86295E-10 6.41052E-11
 -1       830-1.81641E+05-5.81164E+01-7.31349E+02 5.67497E+03 2.71234E-09-1.57613E-10
 -1       831-1.81528E+05 5.81966E+01-1.32091E+03 1.17958E+03-1.07167E-09 9.11427E-10
 -1       832-1.82036E+05-6.49154E+02-2.89495E+03 5.67188E+03-1.49542E-09 1.69257E-09
 -1       833-1.81178E+05 5.14423E+02-5.14712E+03 1.18318E+03-2.00873E-09 2.04159E-09
 -1       834-1.85401E+05-6.43816E+03-1.27884E+04 5.65203E+03-4.28201E-09 2.16164E-09
 -1       835-1.78161E+05 4.85601E+03-1.98360E+04 1.20005E+03-1.41836E-09-2.48565E-09
 -1       836-2.78457E+03 2.87992E+05 2.37451E+04-1.44286E+04-1.33605E-09-1.77215E-09
 -1       837 6.03936E+03 2.95821E+05 1.83187E+04-3.42298E+04-1.31359E-09-1.81899E-10
 -1       838-6.63193E+02 2.90559E+05 1.52211E+04-1.43893E+04-1.60480E-09-1.24591E-09
 -1       839 9.71876E+03 2.98355E+05 2.61793E+04-3.42293E+04-9.46784E-10-5.71072E-09
 -1       840-4.82521E+03 2.85457E+05 3.93498E+04-1.44287E+04-1.44610E-09-3.39855E-09
 -1       841 4.49547E+04 6.50308E+03-4.80785E+02 1.67664E+04-1.55108E-05 5.82080E-06
 -1       842 4.46242E+04 6.14793E+03-3.30671E+02 1.69499E+04-3.10031E-05 1.16468E-05
 -1       843 4.48453E+04 6.34618E+03-1.10496E+02 1.68177E+04-2.44344E-05 9.17864E-06
 -1       844 4.47563E+04 6.32463E+03-6.47283E+01 1.68842E+04-1.78388E-05 6.70911E-06
 -1       845 4.48225E+04 6.32642E+03-1.58817E+01 1.68321E+04-1.24713E-05 4.68251E-06
 -1       846 4.47878E+04 6.34819E+03 8.55726E+00 1.68640E+04-7.10511E-06 2.66936E-06
 -1       847 4.48138E+04 6.32263E+03 3.88386E+01 1.68379E+04-4.30528E-06 1.61498E-06
 -1       848 4.48123E+04 6.37350E+03 1.04197E+02 1.68535E+04-1.50271E-06 5.68345E-07
 -1       849 4.47980E+04 6.30110E+03 1.94592E+02 1.68427E+04-4.00957E-07 1.50368E-07
 -1       850 4.49127E+04 6.53664E+03 4.93260E+02 1.68261E+04 7.00954E-07-2.63784E-07
 -1       851 4.47134E+04 6.15951E+03 8.52130E+02 1.68652E+04 5.01770E-07-1.89237E-07
 -1       852 4.55156E+04 7.57427E+03 2.30118E+03 1.66455E+04 3.04717E-07-1.16382E-07
 -1       853 4.41951E+04 5.26361E+03 3.68000E+03 1.70232E+04-1.09821E-06 4.16796E-07
 -1       854 4.92367E+04 1.41415E+04 1.09124E+04 1.54243E+04-2.50640E-06 9.43363E-07
 -1       855 4.09925E+04-4.06616E+02 1.57068E+04 1.80861E+04-1.25244E-06 4.70002E-07
 -1       856-1.49222E+05 2.19699E+03-1.75011E+04 5.06491E+03-2.06728E-09-2.22826E-10
 -1       857-1.54941E+05-4.22766E+03-1.06892E+04 1.21298E+04-1.10333E-09-1.71258E-09
 -1       858-1.51694E+05 2.02209E+02-4.49353E+03 5.00924E+03 4.50200E-10-1.17302E-09
 -1       859-1.52256E+05-2.98259E+02-2.41801E+03 1.21930E+04 3.16606E-09-2.66778E-09
 -1       860-1.51929E+05 3.10809E+01-1.13480E+03 5.00065E+03-1.30399E-09-2.42699E-09
 -1       861-1.52005E+05 2.10483E+00-5.97347E+02 1.22044E+04-1.22163E-08-2.48471E-09
 -1       862-1.51959E+05 1.45833E+01-3.12710E+02 4.99773E+03-2.24429E-09-1.40068E-09
 -1       863-1.51978E+05 2.47313E+01-2.08655E+02 1.22077E+04 9.82734E-09-1.02722E-09
 -1       864-1.51961E+05 1.33706E+01-1.98985E+02 4.99729E+03 3.56809E-09-2.01570E-09
 -1       865-1.51986E+05 1.53548E+01-3.03143E+02 1.22057E+04 2.07137E-09 3.26679E-10
 -1       866-1.51948E+05 1.99966E+01-5.36843E+02 4.99978E+03-2.17437E-09-2.08512E-09
 -1       867-1.52098E+05-1.24373E+02-1.12153E+03 1.21965E+04-1.58707E-09-8.53339E-10
 -1       868-1.51838E+05 9.72607E+01-2.07544E+03 5.00653E+03 7.99264E-09-1.43427E-09
 -1       869-1.53330E+05-1.93817E+03-4.92940E+03 1.21391E+04 3.31966E-09-4.43782E-09
 -1       870-1.50697E+05 1.01420E+03-8.07056E+03 5.05778E+03 4.96311E-09-2.85218E-09
 -1       871-2.45346E+03-2.00742E+04-5.25739E+03 7.35482E+04 1.48975E-09 4.03816E-10
 -1       872-8.22578E+02-2.11006E+04-1.62906E+03 8.87331E+04 1.54660E-09 2.66959E-09
 -1       873 1.56046E+01-2.07012E+04 1.39019E+03 7.33959E+04 2.41675E-09-8.16044E-10
 -1       874 1.53533E+03-1.94686E+04 5.43136E+03 8.87936E+04 1.11140E-09-1.26374E-09
 -1       875 4.79079E+03-2.17605E+04 1.16260E+04 7.34934E+04 6.30280E-10-5.69571E-10
 -1       876 2.18119E+05 3.13393E+04 1.94950E+04 8.66551E+04-6.05382E-10-1.98179E-09
 -1       877 2.21702E+05 4.21569E+04 1.15864E+04 9.01671E+04-2.69574E-09-5.48971E-09
 -1       878 2.21007E+05 3.37703E+04 4.56081E+03 8.68138E+04 1.25294E-09 5.64341E-10
 -1       879 2.18294E+05 3.77330E+04 2.38186E+03 9.06461E+04 1.03182E-09 6.43468E-10
 -1       880 2.21266E+05 3.39905E+04 1.05860E+03 8.68378E+04 5.61351E-09 3.09961E-09
 -1       881 2.17988E+05 3.73846E+04 5.53184E+02 9.06516E+04 1.61936E-09 1.27196E-09
 -1       882 2.21292E+05 3.40166E+04 3.08401E+02 8.68436E+04 3.86774E-09 1.00803E-09
 -1       883 2.17962E+05 3.73571E+04 2.70290E+02 9.06440E+04-7.65579E-09-1.04617E-09
 -1       884 2.21289E+05 3.40169E+04 3.69373E+02 8.68443E+04-2.85920E-09-2.09096E-09
 -1       885 2.18004E+05 3.73908E+04 7.16859E+02 9.06474E+04 5.64334E-09 2.02854E-09
 -1       886 2.21250E+05 3.39859E+04 1.40150E+03 8.68391E+04-5.17105E-10-1.13437E-09
 -1       887 2.18416E+05 3.78511E+04 3.16924E+03 9.06323E+04-4.66264E-09-2.35536E-09
 -1       888 2.20899E+05 3.36956E+04 6.07519E+03 8.68084E+04-8.45642E-09-3.81533E-10
 -1       889 2.22946E+05 4.37553E+04 1.54372E+04 9.00015E+04 3.94445E-09-2.24350E-09
 -1       890 2.17060E+05 3.04471E+04 2.59758E+04 8.65833E+04-5.31372E-10-3.81260E-09
 -1       891 4.93201E+02-1.09214E+05-4.46627E+03 2.20594E+04-1.11277E-09 6.10953E-09
 -1       892-1.17677E+03-1.10656E+05-3.39347E+03 5.25343E+04-8.96534E-10 5.50301E-09
 -1       893 1.01768E+02-1.09719E+05-2.74848E+03 2.19927E+04 2.47883E-09 2.49764E-09
 -1       894-1.76542E+03-1.11047E+05-4.64146E+03 5.25203E+04 1.20144E-09-2.01567E-10
 -1       895 8.09546E+02-1.08804E+05-6.94575E+03 2.20731E+04-6.02995E-10-5.26597E-10
 -1       926-3.41818E+02-6.26215E+02 1.43589E+03 2.41317E+01 3.83482E-10-6.51937E-10
 -1       927 3.69191E+02 7.25090E+02 1.04260E+03-9.57196E+01-1.71691E-09-8.56630E-10
 -1       928-8.95514E+01-9.89547E+01 3.96831E+02 2.36625E+01 8.45635E-12-4.08278E-10
 -1       929 7.11293E+01 1.18469E+02 3.01235E+02-9.52411E+01 1.05202E-09-4.21444E-10
 -1       930-4.38861E+01-1.96199E+01 2.10417E+02 2.36531E+01-1.31584E-11-1.85537E-10
 -1       931 2.90233E+01 5.07215E+01 3.10263E+02-9.52331E+01-1.42041E-09-9.42748E-11
 -1       932-4.75424E+01-3.11527E+01 4.95293E+02 2.36544E+01-1.62987E-06-2.95586E-12
 -1       933 1.20101E+02 2.19535E+02 1.05464E+03-9.52222E+01-3.25678E-06-1.42521E-10
 -1       934-1.35025E+02-1.88370E+02 1.88987E+03 2.36422E+01-1.93845E-06-1.68939E-10
 -1       935 7.36907E+02 1.39900E+03 4.34557E+03-9.51487E+01-6.18129E-07 1.18632E-10
 -1       936-6.64315E+02-1.21040E+03 7.47241E+03 2.35809E+01-2.16385E-07 1.08230E-10
 -1       937 4.40727E+03 8.94508E+03 1.84442E+04-9.53298E+01 1.87245E-07 2.90584E-10
 -1       938-3.80423E+03-7.73280E+03 2.93422E+04 2.38235E+01-1.07382E-07-9.82254E-11
 -1       939 2.65240E+04 5.69295E+04 8.02933E+04-1.03804E+02-4.09698E-07-1.18234E-11
 -1       940-2.27616E+04-4.91812E+04 1.13452E+05 3.20546E+01-2.06263E-07 5.31145E-10
 -1       956-2.06437E+05-3.50754E+03-9.06883E+03 2.32968E+04-6.97037E-09 2.18733E-09
 -1       957-2.08253E+05-1.19783E+03-4.66637E+03 2.82007E+04-8.23729E-09 1.65164E-09
 -1       958-2.07261E+05-8.81761E+01-2.10317E+03 2.31492E+04-2.44745E-09-1.72554E-09
 -1       959-2.07412E+05-8.34100E+00-1.07391E+03 2.83609E+04-2.50384E-09-1.97042E-09
 -1       960-2.07341E+05 3.71009E+01-5.23105E+02 2.31356E+04-4.59340E-09-1.18052E-09
 -1       961-2.07359E+05 4.00075E+01-2.75384E+02 2.83762E+04-7.75526E-09 3.54476E-10
 -1       962-2.07360E+05 3.65718E+01-1.54084E+02 2.31337E+04-2.82034E-09 4.16776E-10
 -1       963-2.07360E+05 4.35337E+01-1.17179E+02 2.83787E+04-3.16777E-09 6.12317E-10
 -1       964-2.07366E+05 3.92530E+01-1.34474E+02 2.31331E+04-3.63798E-11 6.83940E-10
 -1       965-2.07369E+05 4.63099E+01-2.25888E+02 2.83786E+04 2.40783E-09-6.00949E-10
 -1       966-2.07359E+05 4.47719E+01-4.20570E+02 2.31339E+04 1.51226E-09 1.73100E-09
 -1       967-2.07421E+05 1.27420E+01-8.60296E+02 2.83694E+04 1.00744E-08 6.37101E-10
 -1       968-2.07302E+05-5.09480E+01-1.68235E+03 2.31423E+04 4.27553E-09 1.60526E-10
 -1       969-2.08102E+05-9.35220E+02-3.73385E+03 2.82668E+04-1.26511E-09-1.15801E-09
 -1       970-2.06647E+05-2.78467E+03-7.25539E+03 2.32383E+04 1.44337E-09-2.52112E-09
 -1       971-2.65396E+05 1.16571E+03-1.22958E+04 5.87651E+03-3.05863E-09 2.98223E-09
 -1       972-2.69283E+05-2.75219E+03-7.41293E+03 1.28787E+04-2.98701E-09-7.84894E-10
 -1       973-2.67099E+05 1.10476E+02-3.14921E+03 5.80300E+03-3.40242E-09 1.12868E-09
 -1       974-2.67453E+05-1.71804E+02-1.68650E+03 1.29653E+04 1.33332E-09-1.49157E-10
 -1       975-2.67255E+05 2.23502E+01-8.08896E+02 5.78917E+03 3.86535E-10 9.26093E-10
 -1       976-2.67296E+05 1.29369E+01-4.47743E+02 1.29852E+04-2.27453E-09 2.57637E-09
 -1       977-2.67275E+05 1.51362E+01-2.81425E+02 5.78300E+03 4.95697E-09 2.13674E-10
 -1       978-2.67287E+05 2.64614E+01-2.74307E+02 1.29936E+04 1.28451E-08-2.18199E-09
 -1       979-2.67274E+05 1.77463E+01-3.92144E+02 5.78071E+03 2.99575E-09 1.94945E-09
 -1       980-2.67321E+05 6.31025E+00-7.34249E+02 1.29940E+04 3.46807E-09 1.16125E-09
 -1       981-2.67242E+05 3.60026E+01-1.39228E+03 5.78261E+03-1.00624E-09 1.03364E-09
 -1       982-2.67612E+05-3.11060E+02-2.94588E+03 1.29846E+04-2.13618E-10 3.25670E-09
 -1       983-2.66974E+05 1.97069E+02-5.51508E+03 5.79031E+03-1.77124E-10-1.29830E-10
 -1       984-2.70843E+05-4.83025E+03-1.30016E+04 1.29245E+04-2.30921E-09 2.10753E-09
 -1       985-2.63995E+05 2.05658E+03-2.15626E+04 5.84455E+03 3.32125E-09-6.38465E-10
 -3
    1PSTEP                        15           8           1          
  100CL  108 5.34180E-01         568                     0    8           1
 -4  DISP        4    1
 -5  D1          1    2    1    0
 -5  D2          1    2    2    0
 -5  D3          1    2    3    0
 -5  ALL         1    2    0    0    1ALL
 -1         1 7.83656E-05 0.00000E+00 0.00000E+00
 -1         2 7.83667E-05 0.00000E+00 0.00000E+00
 -1         3 5.32725E-05 3.50255E-28-6.61744E-24
 -1         4 3.95667E-05-7.45474E-29 0.00000E+00
 -1         5 4.00433E-05 2.87797E-26 6.61744E-24
 -1         8 6.23326E-05-7.68725E-07 0.00000E+00
 -1         9 4.93019E-05-4.33195E-06 0.00000E+00
 -1        10 4.87598E-05-1.55475E-06 0.00000E+00
 -1        11 3.93231E-05-4.36999E-06 0.00000E+00
 -1        12 3.93301E-05 6.53200E-07 0.00000E+00
 -1        15 4.52026E-05-8.14542E-07 2.06795E-25
 -1        16 3.92417E-05-4.43320E-06 0.00000E+00
 -1        17 3.60943E-05-3.11341E-06 0.00000E+00
 -1        18 3.60808E-05-3.86416E-07 0.00000E+00
 -1        19 3.72003E-05 1.30185E-06 0.00000E+00
 -1        20 3.76025E-05 1.52574E-05 0.00000E+00
 -1        21 3.75583E-05 3.38972E-05 0.00000E+00
 -1        23 1.40546E-05-4.93473E-05 0.00000E+00
 -1        24 1.39552E-05-3.80962E-06 0.00000E+00
 -1        25 3.35822E-05-1.98997E-07 0.00000E+00
 -1        26 3.44907E-05 1.73831E-06 0.00000E+00
 -1        27 3.33072E-05 1.46177E-05 0.00000E+00
 -1        28 3.23076E-05 3.32646E-05 0.00000E+00
 -1        31 4.08543E-08-3.86226E-06 0.00000E+00
 -1        32 0.00000E+00 0.00000E+00 0.00000E+00
 -1        33 3.14115E-05 2.43502E-06 0.00000E+00
 -1        34 3.00517E-05 1.45636E-05 0.00000E+00
 -1        35 2.82980E-05 3.29963E-05 0.00000E+00
 -1        36 7.83567E-05-1.16232E-19 0.00000E+00
 -1        37 7.83569E-05-9.75818E-20 8.27181E-25
 -1        38 7.83566E-05 1.18580E-19 0.00000E+00
 -1        39 7.83580E-05 6.81740E-20-2.06795E-25
 -1        40 7.83594E-05 1.57897E-19 0.00000E+00
 -1        41 7.83612E-05 2.14081E-20 0.00000E+00
 -1        42 7.83630E-05-1.04139E-19 3.23117E-27
 -1        43 7.83649E-05-3.30350E-19 6.46235E-27
 -1        44 7.83667E-05-2.77311E-19 0.00000E+00
 -1        45 7.83686E-05-2.30979E-19 0.00000E+00
 -1        46 7.83704E-05-1.03937E-19 0.00000E+00
 -1        47 7.83719E-05 2.31731E-19-2.06795E-25
 -1        48 7.83734E-05 2.83916E-19-8.27181E-25
 -1        49 7.83734E-05 2.93122E-19-8.27181E-25
 -1        50 7.83739E-05 1.17953E-21 0.00000E+00
 -1        51 7.71544E-05-1.28530E-07 0.00000E+00
 -1        52 7.51477E-05-2.53115E-07 0.00000E+00
 -1        53 7.24997E-05-3.77529E-07 0.00000E+00
 -1        54 6.93727E-05-5.03273E-07 0.00000E+00
 -1        55 6.59292E-05-6.31771E-07-2.68834E-24
 -1        56 7.67980E-05-7.56302E-07 2.64698E-23
 -1        57 7.52723E-05-1.80861E-06-2.64698E-23
 -1        58 7.38215E-05-3.04997E-06 0.00000E+00
 -1        59 7.23970E-05-4.39377E-06 2.64698E-23
 -1        60 7.09700E-05-5.73190E-06-5.29396E-23
 -1        61 6.95002E-05-6.96108E-06 0.00000E+00
 -1        62 6.79553E-05-7.99066E-06 0.00000E+00
 -1        63 6.63050E-05-8.73996E-06-2.64698E-23
 -1        64 6.45323E-05-9.16261E-06 5.29396E-23
 -1        65 6.26255E-05-9.22731E-06-2.64698E-23
 -1        66 6.05892E-05-8.94711E-06 5.29396E-23
 -1        67 5.84360E-05-8.35034E-06 0.00000E+00
 -1        68 5.61896E-05-7.50544E-06-5.29396E-23
 -1        69 5.38897E-05-6.48805E-06 0.00000E+00
 -1        70 5.15605E-05-5.40344E-06-2.64698E-23
 -1        86 8.73715E-05-4.62992E-07 0.00000E+00
 -1        87 1.14152E-04-1.23143E-06 0.00000E+00
 -1        88 1.28483E-04-1.82211E-06 0.00000E+00
 -1        89 1.00420E-04-2.69243E-06 0.00000E+00
 -1        90 6.29580E-05-3.80168E-06 1.32349E-23
 -1       121 5.31462E-05-2.58843E-07 0.00000E+00
 -1       122 5.27678E-05-5.17739E-07 3.30872E-24
 -1       123 5.21381E-05-7.76754E-07 0.00000E+00
 -1       124 5.12587E-05-1.03591E-06-3.30872E-24
 -1       125 5.01316E-05-1.29531E-06 0.00000E+00
 -1       161 3.95688E-05-5.56567E-09-5.04871E-29
 -1       162 3.95750E-05-2.22428E-08 5.04871E-29
 -1       163 3.95841E-05-4.63306E-08-2.01948E-28
 -1       164 3.95945E-05-7.41279E-08 0.00000E+00
 -1       165 3.96049E-05-1.01933E-07 8.07794E-28
 -1       166 3.96139E-05-1.26046E-07 0.00000E+00
 -1       167 3.96202E-05-1.42764E-07 0.00000E+00
 -1       168 3.96223E-05-1.48385E-07 0.00000E+00
 -1       169 3.96189E-05-1.39209E-07 0.00000E+00
 -1       170 3.96086E-05-1.11525E-07-2.58494E-26
 -1       171 3.95899E-05-6.16387E-08 0.00000E+00
 -1       172 3.95617E-05 1.42044E-08 0.00000E+00
 -1       173 3.95224E-05 1.19654E-07 0.00000E+00
 -1       174 3.94714E-05 2.58717E-07 4.13590E-25
 -1       175 3.94062E-05 4.34729E-07-1.65436E-24
 -1       191 4.00235E-05 1.08893E-07 0.00000E+00
 -1       192 3.99640E-05 2.17782E-07 0.00000E+00
 -1       193 3.98648E-05 3.26668E-07 6.61744E-24
 -1       194 3.97260E-05 4.35542E-07 0.00000E+00
 -1       195 3.95476E-05 5.44397E-07 6.61744E-24
 -1       251 6.16364E-05 3.42941E-06 0.00000E+00
 -1       252 6.09124E-05 1.01999E-05 0.00000E+00
 -1       253 6.01992E-05 1.03414E-05 2.64698E-23
 -1       254 5.93718E-05-5.13234E-06 1.32349E-23
 -1       255 5.85924E-05-1.43044E-05-2.64698E-23
 -1       256 5.76874E-05 4.52462E-06 0.00000E+00
 -1       257 5.68247E-05 1.90689E-05 2.64698E-23
 -1       258 5.58364E-05-2.79906E-06 1.32349E-23
 -1       259 5.48510E-05-2.44552E-05 0.00000E+00
 -1       260 5.39783E-05-9.28261E-06 1.32349E-23
 -1       261 5.30649E-05 9.87048E-06 2.64698E-23
 -1       262 5.22768E-05 8.68887E-09 1.32349E-23
 -1       263 5.14390E-05-1.60583E-05 2.64698E-23
 -1       264 5.07240E-05-1.53061E-05 0.00000E+00
 -1       265 4.99957E-05-7.92765E-06 0.00000E+00
 -1       266 5.94776E-05-7.87512E-07-3.30872E-24
 -1       267 5.66227E-05-7.93783E-07 8.27181E-25
 -1       268 5.37676E-05-8.00866E-07 0.00000E+00
 -1       269 5.09126E-05-8.05581E-07 4.13590E-25
 -1       270 4.80576E-05-8.10251E-07-4.13590E-25
 -1       271 6.01034E-05 1.22342E-06 0.00000E+00
 -1       272 5.80876E-05 2.51635E-06 1.32349E-23
 -1       273 5.63050E-05 3.19328E-06 0.00000E+00
 -1       274 5.47196E-05 3.32622E-06-2.64698E-23
 -1       275 5.33065E-05 2.99815E-06 5.29396E-23
 -1       276 5.20325E-05 2.29575E-06 0.00000E+00
 -1       277 5.08642E-05 1.31043E-06 5.29396E-23
 -1       278 4.97662E-05 1.36971E-07 0.00000E+00
 -1       279 4.87023E-05-1.12766E-06 5.29396E-23
 -1       280 4.76359E-05-2.38531E-06 2.64698E-23
 -1       281 4.65304E-05-3.53796E-06 5.29396E-23
 -1       282 4.53504E-05-4.48880E-06-2.64698E-23
 -1       283 4.40601E-05-5.14358E-06 0.00000E+00
 -1       284 4.26301E-05-5.41009E-06 1.32349E-23
 -1       285 4.10219E-05-5.20438E-06 2.64698E-23
 -1       286 4.92567E-05-2.75600E-06-6.61744E-24
 -1       287 4.92224E-05-1.32628E-06 0.00000E+00
 -1       288 4.91878E-05-1.83881E-07 0.00000E+00
 -1       289 4.91556E-05 5.30499E-07 0.00000E+00
 -1       290 4.91236E-05 7.85909E-07 0.00000E+00
 -1       291 4.90921E-05 5.52025E-07 4.13590E-25
 -1       292 4.90605E-05-7.60035E-08 0.00000E+00
 -1       293 4.90287E-05-1.00248E-06 0.00000E+00
 -1       294 4.89969E-05-2.05519E-06 0.00000E+00
 -1       295 4.89650E-05-3.06176E-06-4.13590E-25
 -1       296 4.89332E-05-3.86165E-06 0.00000E+00
 -1       297 4.89014E-05-4.29463E-06-8.27181E-25
 -1       298 4.88695E-05-4.29457E-06 0.00000E+00
 -1       299 4.88359E-05-3.79600E-06 0.00000E+00
 -1       300 4.88025E-05-2.86163E-06 0.00000E+00
 -1       301 4.76155E-05-4.35483E-06 0.00000E+00
 -1       302 4.59171E-05-4.36533E-06 1.65436E-24
 -1       303 4.42185E-05-4.37432E-06 3.30872E-24
 -1       304 4.25317E-05-4.38433E-06-1.65436E-24
 -1       305 4.08689E-05-4.39787E-06 0.00000E+00
 -1       306 4.81132E-05-3.23992E-06 0.00000E+00
 -1       307 4.71033E-05-2.67529E-06 0.00000E+00
 -1       308 4.62605E-05-2.55419E-06 0.00000E+00
 -1       309 4.55513E-05-2.79686E-06-1.32349E-23
 -1       310 4.49468E-05-3.31962E-06 0.00000E+00
 -1       311 4.44150E-05-4.03772E-06 0.00000E+00
 -1       312 4.39241E-05-4.86505E-06 0.00000E+00
 -1       313 4.34414E-05-5.71494E-06 0.00000E+00
 -1       314 4.29347E-05-6.50047E-06 0.00000E+00
 -1       315 4.23717E-05-7.13519E-06-1.32349E-23
 -1       316 4.17202E-05-7.53363E-06 0.00000E+00
 -1       317 4.09492E-05-7.61173E-06-1.32349E-23
 -1       318 4.00276E-05-7.28756E-06-2.64698E-23
 -1       319 3.89284E-05-6.48080E-06 6.61744E-24
 -1       320 3.76187E-05-5.11639E-06 0.00000E+00
 -1       336 4.71465E-05-1.81451E-06 0.00000E+00
 -1       337 4.53094E-05-2.07474E-06-3.30872E-24
 -1       338 4.32667E-05-2.33526E-06-6.61744E-24
 -1       339 4.10370E-05-2.59557E-06-3.30872E-24
 -1       340 3.86397E-05-2.85633E-06 6.61744E-24
 -1       356 3.93230E-05-4.04263E-06 0.00000E+00
 -1       357 3.93230E-05-3.70969E-06 0.00000E+00
 -1       358 3.93229E-05-3.37275E-06 4.03897E-28
 -1       359 3.93229E-05-3.03339E-06 0.00000E+00
 -1       360 3.93228E-05-2.69320E-06 0.00000E+00
 -1       361 3.93228E-05-2.35373E-06-1.61559E-27
 -1       362 3.93227E-05-2.01658E-06 0.00000E+00
 -1       363 3.93227E-05-1.68332E-06 0.00000E+00
 -1       364 3.93226E-05-1.35553E-06 0.00000E+00
 -1       365 3.93226E-05-1.03479E-06 0.00000E+00
 -1       366 3.93227E-05-7.22678E-07 1.03398E-25
 -1       367 3.93229E-05-4.20764E-07 0.00000E+00
 -1       368 3.93231E-05-1.30633E-07 4.13590E-25
 -1       369 3.93242E-05 1.46132E-07 0.00000E+00
 -1       370 3.93249E-05 4.07941E-07 1.65436E-24
 -1       376 3.92024E-05-4.04821E-06 0.00000E+00
 -1       377 3.90837E-05-3.73195E-06 0.00000E+00
 -1       378 3.89663E-05-3.41909E-06-1.00974E-28
 -1       379 3.88494E-05-3.10754E-06 0.00000E+00
 -1       380 3.87322E-05-2.79516E-06 0.00000E+00
 -1       381 3.86139E-05-2.47984E-06-8.07794E-28
 -1       382 3.84938E-05-2.15948E-06-3.23117E-27
 -1       383 3.83709E-05-1.83195E-06 0.00000E+00
 -1       384 3.82445E-05-1.49513E-06 0.00000E+00
 -1       385 3.81139E-05-1.14692E-06-1.29247E-26
 -1       386 3.79782E-05-7.85194E-07 0.00000E+00
 -1       387 3.78368E-05-4.07806E-07-5.16988E-26
 -1       388 3.76887E-05-1.26769E-08-2.06795E-25
 -1       389 3.75336E-05 4.02497E-07 0.00000E+00
 -1       390 3.73701E-05 8.39595E-07-8.27181E-25
 -1       406 3.90737E-05 7.61978E-07 0.00000E+00
 -1       407 3.87782E-05 8.70738E-07 0.00000E+00
 -1       408 3.84430E-05 9.79414E-07-6.61744E-24
 -1       409 3.80683E-05 1.08783E-06 0.00000E+00
 -1       410 3.76539E-05 1.19573E-06 3.30872E-24
 -1       501 3.91221E-05 1.68157E-06 0.00000E+00
 -1       502 3.89280E-05 1.68389E-05 0.00000E+00
 -1       503 3.87000E-05 3.42434E-05-3.30872E-24
 -1       504 3.85419E-05 4.70950E-05 1.65436E-24
 -1       505 3.84484E-05 5.12176E-05-3.30872E-24
 -1       506 3.83271E-05 4.24672E-05 0.00000E+00
 -1       507 3.80773E-05 2.36259E-05 0.00000E+00
 -1       508 3.76704E-05-2.48734E-06 0.00000E+00
 -1       509 3.72570E-05-2.88688E-05 0.00000E+00
 -1       510 3.69928E-05-4.85142E-05 0.00000E+00
 -1       511 3.68623E-05-5.83100E-05 0.00000E+00
 -1       512 3.67731E-05-5.51785E-05 0.00000E+00
 -1       513 3.66235E-05-4.29908E-05 3.30872E-24
 -1       514 3.63999E-05-2.56515E-05-1.65436E-24
 -1       515 3.62023E-05-1.00608E-05-3.30872E-24
 -1       521 3.74128E-05-3.62306E-06 2.64698E-23
 -1       522 3.57205E-05-3.28886E-06 0.00000E+00
 -1       523 3.41769E-05-3.34772E-06 0.00000E+00
 -1       524 3.27477E-05-3.72769E-06-2.64698E-23
 -1       525 3.14083E-05-4.34910E-06 0.00000E+00
 -1       526 3.01279E-05-5.13092E-06-2.64698E-23
 -1       527 2.88763E-05-5.98990E-06-5.29396E-23
 -1       528 2.76220E-05-6.84204E-06 2.64698E-23
 -1       529 2.63336E-05-7.60336E-06 5.29396E-23
 -1       530 2.49803E-05-8.19107E-06 2.64698E-23
 -1       531 2.35318E-05-8.52446E-06 5.29396E-23
 -1       532 2.19597E-05-8.52595E-06-2.64698E-23
 -1       533 2.02361E-05-8.12216E-06-5.29396E-23
 -1       534 1.83397E-05-7.24324E-06 0.00000E+00
 -1       535 1.62406E-05-5.82879E-06 0.00000E+00
 -1       536 3.60836E-05-8.09458E-07-3.30872E-24
 -1       537 3.60809E-05 9.41099E-07 1.65436E-24
 -1       538 3.60788E-05 2.19558E-06 0.00000E+00
 -1       539 3.60781E-05 3.01176E-06 0.00000E+00
 -1       540 3.60779E-05 3.44729E-06 0.00000E+00
 -1       541 3.60779E-05 3.55986E-06 0.00000E+00
 -1       542 3.60780E-05 3.40715E-06 0.00000E+00
 -1       543 3.60781E-05 3.04686E-06 0.00000E+00
 -1       544 3.60782E-05 2.53667E-06 0.00000E+00
 -1       545 3.60782E-05 1.93426E-06 0.00000E+00
 -1       546 3.60782E-05 1.29732E-06 0.00000E+00
 -1       547 3.60783E-05 6.83550E-07 0.00000E+00
 -1       548 3.60785E-05 1.50615E-07 0.00000E+00
 -1       549 3.60788E-05-2.43802E-07 0.00000E+00
 -1       550 3.60792E-05-4.41979E-07 0.00000E+00
 -1       551 3.28043E-05-3.22503E-06 0.00000E+00
 -1       552 2.91140E-05-3.33554E-06-4.13590E-25
 -1       553 2.52023E-05-3.44694E-06-3.30872E-24
 -1       554 2.12511E-05-3.56023E-06-3.30872E-24
 -1       555 1.74423E-05-3.67632E-06 0.00000E+00
 -1       556 3.51724E-05-9.13600E-07 0.00000E+00
 -1       557 3.44474E-05 7.76155E-07 0.00000E+00
 -1       558 3.38972E-05 2.00367E-06 0.00000E+00
 -1       559 3.35017E-05 2.82120E-06 0.00000E+00
 -1       560 3.32409E-05 3.28095E-06 0.00000E+00
 -1       561 3.30948E-05 3.43556E-06-3.30872E-24
 -1       562 3.30434E-05 3.33769E-06 0.00000E+00
 -1       563 3.30669E-05 3.04007E-06 0.00000E+00
 -1       564 3.31456E-05 2.59546E-06 0.00000E+00
 -1       565 3.32595E-05 2.05665E-06-1.65436E-24
 -1       566 3.33890E-05 1.47644E-06 0.00000E+00
 -1       567 3.35143E-05 9.07646E-07 4.13590E-25
 -1       568 3.36156E-05 4.03061E-07-1.13737E-24
 -1       569 3.36733E-05 1.54295E-08 4.13590E-25
 -1       570 3.36679E-05-2.02540E-07 0.00000E+00
 -1       571 3.61482E-05-2.45121E-07-8.27181E-25
 -1       572 3.62176E-05-1.50515E-07-2.06795E-25
 -1       573 3.62874E-05-9.40229E-08 8.27181E-25
 -1       574 3.63575E-05-6.66339E-08-8.27181E-25
 -1       575 3.64277E-05-5.93010E-08 1.65436E-24
 -1       576 3.64980E-05-6.29186E-08 0.00000E+00
 -1       577 3.65683E-05-6.83763E-08 3.30872E-24
 -1       578 3.66385E-05-6.65566E-08 0.00000E+00
 -1       579 3.67088E-05-4.83408E-08 0.00000E+00
 -1       580 3.67791E-05-4.61015E-09 0.00000E+00
 -1       581 3.68494E-05 7.37526E-08 0.00000E+00
 -1       582 3.69196E-05 1.95856E-07 0.00000E+00
 -1       583 3.69899E-05 3.70801E-07 0.00000E+00
 -1       584 3.70601E-05 6.07594E-07 0.00000E+00
 -1       585 3.71303E-05 9.15193E-07 0.00000E+00
 -1       586 3.57259E-05-3.54528E-07 1.65436E-24
 -1       587 3.53152E-05-3.22491E-07 0.00000E+00
 -1       588 3.48716E-05-2.90510E-07-8.27181E-25
 -1       589 3.44192E-05-2.58818E-07 0.00000E+00
 -1       590 3.39816E-05-2.27755E-07 0.00000E+00
 -1       591 3.59724E-05-2.19156E-07 8.27181E-25
 -1       592 3.58727E-05-8.46180E-08 0.00000E+00
 -1       593 3.57822E-05 2.38276E-08 0.00000E+00
 -1       594 3.56989E-05 1.12087E-07 0.00000E+00
 -1       595 3.56209E-05 1.86086E-07 0.00000E+00
 -1       596 3.55459E-05 2.51702E-07 8.27181E-25
 -1       597 3.54718E-05 3.14805E-07-1.65436E-24
 -1       598 3.53965E-05 3.81261E-07 0.00000E+00
 -1       599 3.53177E-05 4.56934E-07-8.27181E-25
 -1       600 3.52333E-05 5.47687E-07 4.13590E-25
 -1       601 3.51410E-05 6.59382E-07 1.65436E-24
 -1       602 3.50388E-05 7.97888E-07 4.13590E-25
 -1       603 3.49244E-05 9.69076E-07 8.27181E-25
 -1       604 3.47958E-05 1.17885E-06-3.10193E-25
 -1       605 3.46511E-05 1.43311E-06 2.06795E-25
 -1       606 3.72282E-05 1.83014E-06 0.00000E+00
 -1       607 3.72542E-05 2.42499E-06 0.00000E+00
 -1       608 3.72797E-05 3.08247E-06 0.00000E+00
 -1       609 3.73049E-05 3.79812E-06 0.00000E+00
 -1       610 3.73299E-05 4.56742E-06-3.30872E-24
 -1       611 3.73549E-05 5.38579E-06 0.00000E+00
 -1       612 3.73799E-05 6.24863E-06 0.00000E+00
 -1       613 3.74048E-05 7.15136E-06-8.27181E-25
 -1       614 3.74297E-05 8.08937E-06-1.65436E-24
 -1       615 3.74545E-05 9.05807E-06 0.00000E+00
 -1       616 3.74793E-05 1.00529E-05 0.00000E+00
 -1       617 3.75041E-05 1.10692E-05 0.00000E+00
 -1       618 3.75289E-05 1.21023E-05 0.00000E+00
 -1       619 3.75536E-05 1.31478E-05 0.00000E+00
 -1       620 3.75782E-05 1.42010E-05 0.00000E+00
 -1       621 3.67121E-05 1.37504E-06 0.00000E+00
 -1       622 3.62296E-05 1.44844E-06 0.00000E+00
 -1       623 3.57596E-05 1.52181E-06-1.65436E-24
 -1       624 3.53086E-05 1.59497E-06-8.27181E-25
 -1       625 3.48835E-05 1.66773E-06 1.65436E-24
 -1       626 3.70590E-05 1.86463E-06 0.00000E+00
 -1       627 3.68910E-05 2.49744E-06 0.00000E+00
 -1       628 3.66992E-05 3.19357E-06-3.30872E-24
 -1       629 3.64863E-05 3.94567E-06 0.00000E+00
 -1       630 3.62551E-05 4.74633E-06 0.00000E+00
 -1       631 3.60085E-05 5.58809E-06 0.00000E+00
 -1       632 3.57493E-05 6.46344E-06 0.00000E+00
 -1       633 3.54802E-05 7.36491E-06 0.00000E+00
 -1       634 3.52042E-05 8.28502E-06 1.65436E-24
 -1       635 3.49239E-05 9.21625E-06 0.00000E+00
 -1       636 3.46422E-05 1.01511E-05-1.65436E-24
 -1       637 3.43620E-05 1.10822E-05 0.00000E+00
 -1       638 3.40859E-05 1.20019E-05-8.27181E-25
 -1       639 3.38166E-05 1.29028E-05 4.13590E-25
 -1       640 3.35567E-05 1.37773E-05 1.24077E-24
 -1       641 3.76012E-05 1.63226E-05 2.06795E-25
 -1       642 3.75990E-05 1.74466E-05 0.00000E+00
 -1       643 3.75968E-05 1.86201E-05-2.58494E-26
 -1       644 3.75944E-05 1.98340E-05 0.00000E+00
 -1       645 3.75919E-05 2.10781E-05-2.58494E-26
 -1       646 3.75894E-05 2.23427E-05-2.58494E-26
 -1       647 3.75869E-05 2.36175E-05-5.16988E-26
 -1       648 3.75843E-05 2.48923E-05-2.58494E-26
 -1       649 3.75818E-05 2.61568E-05-1.03398E-25
 -1       650 3.75792E-05 2.74009E-05 5.16988E-26
 -1       651 3.75767E-05 2.86145E-05 0.00000E+00
 -1       652 3.75740E-05 2.97879E-05-1.03398E-25
 -1       653 3.75714E-05 3.09117E-05 0.00000E+00
 -1       654 3.75681E-05 3.19767E-05 4.13590E-25
 -1       655 3.75651E-05 3.29746E-05 1.65436E-24
 -1       656 3.66778E-05 1.51540E-05 0.00000E+00
 -1       657 3.59151E-05 1.50456E-05 0.00000E+00
 -1       658 3.52557E-05 1.49375E-05 0.00000E+00
 -1       659 3.46406E-05 1.48294E-05 0.00000E+00
 -1       660 3.40108E-05 1.47211E-05-1.65436E-24
 -1       661 3.72829E-05 1.63455E-05-1.65436E-24
 -1       662 3.69519E-05 1.74718E-05 0.00000E+00
 -1       663 3.66097E-05 1.86282E-05 1.65436E-24
 -1       664 3.62590E-05 1.98080E-05-4.96308E-24
 -1       665 3.59022E-05 2.10042E-05-3.30872E-24
 -1       666 3.55420E-05 2.22098E-05 0.00000E+00
 -1       667 3.51808E-05 2.34180E-05-3.30872E-24
 -1       668 3.48212E-05 2.46219E-05 0.00000E+00
 -1       669 3.44658E-05 2.58145E-05 0.00000E+00
 -1       670 3.41173E-05 2.69890E-05 0.00000E+00
 -1       671 3.37782E-05 2.81385E-05 1.65436E-24
 -1       672 3.34509E-05 2.92559E-05-8.27181E-25
 -1       673 3.31382E-05 3.03344E-05 1.65436E-24
 -1       674 3.28422E-05 3.13669E-05-8.27181E-25
 -1       675 3.25659E-05 3.23465E-05-8.27181E-25
 -1       676 3.66735E-05 3.37910E-05 3.30872E-24
 -1       677 3.57904E-05 3.36847E-05 1.65436E-24
 -1       678 3.49106E-05 3.35785E-05-3.30872E-24
 -1       679 3.40358E-05 3.34728E-05 0.00000E+00
 -1       680 3.31675E-05 3.33670E-05-1.65436E-24
 -1       716 1.40507E-05-4.65012E-05-4.03897E-28
 -1       717 1.40468E-05-4.36551E-05 4.03897E-28
 -1       718 1.40429E-05-4.08089E-05-1.61559E-27
 -1       719 1.40390E-05-3.79628E-05-1.61559E-27
 -1       720 1.40352E-05-3.51167E-05 6.46235E-27
 -1       721 1.40313E-05-3.22706E-05 0.00000E+00
 -1       722 1.40273E-05-2.94245E-05 0.00000E+00
 -1       723 1.40234E-05-2.65784E-05 0.00000E+00
 -1       724 1.40194E-05-2.37323E-05 0.00000E+00
 -1       725 1.40152E-05-2.08862E-05 0.00000E+00
 -1       726 1.40110E-05-1.80401E-05 4.13590E-25
 -1       727 1.40059E-05-1.51939E-05 0.00000E+00
 -1       728 1.40008E-05-1.23479E-05 1.65436E-24
 -1       729 1.39916E-05-9.50175E-06 0.00000E+00
 -1       730 1.39838E-05-6.65564E-06 6.61744E-24
 -1       766 1.11745E-05-3.83809E-06 0.00000E+00
 -1       767 8.52463E-06-3.84538E-06-1.65436E-24
 -1       768 6.04605E-06-3.85358E-06 0.00000E+00
 -1       769 3.77921E-06-3.85733E-06-4.13590E-25
 -1       770 1.76415E-06-3.86040E-06 4.13590E-25
 -1       771 1.23323E-05-1.55290E-06 0.00000E+00
 -1       772 1.08787E-05 2.32456E-07 0.00000E+00
 -1       773 9.58568E-06 1.58826E-06 2.64698E-23
 -1       774 8.43745E-06 2.55748E-06-1.32349E-23
 -1       775 7.41816E-06 3.18330E-06 0.00000E+00
 -1       776 6.51142E-06 3.50934E-06 0.00000E+00
 -1       777 5.70078E-06 3.57941E-06-2.64698E-23
 -1       778 4.96967E-06 3.43756E-06 0.00000E+00
 -1       779 4.30149E-06 3.12797E-06 0.00000E+00
 -1       780 3.67960E-06 2.69500E-06 0.00000E+00
 -1       781 3.08736E-06 2.18309E-06 2.64698E-23
 -1       782 2.50816E-06 1.63678E-06 1.32349E-23
 -1       783 1.92541E-06 1.10062E-06-2.64698E-23
 -1       784 1.32297E-06 6.19242E-07-6.61744E-24
 -1       785 6.84563E-07 2.37206E-07-1.32349E-23
 -1       786 3.36355E-05 3.33722E-08 4.13590E-25
 -1       787 3.36922E-05 2.09489E-07 0.00000E+00
 -1       788 3.37487E-05 3.38245E-07-1.65436E-24
 -1       789 3.38058E-05 4.28545E-07 8.27181E-25
 -1       790 3.38630E-05 4.89265E-07 0.00000E+00
 -1       791 3.39202E-05 5.29273E-07-8.27181E-25
 -1       792 3.39775E-05 5.57419E-07-1.65436E-24
 -1       793 3.40348E-05 5.82551E-07 8.27181E-25
 -1       794 3.40921E-05 6.13513E-07 0.00000E+00
 -1       795 3.41494E-05 6.59155E-07 8.27181E-25
 -1       796 3.42067E-05 7.28331E-07 1.65436E-24
 -1       797 3.42640E-05 8.29911E-07-8.27181E-25
 -1       798 3.43212E-05 9.72781E-07 0.00000E+00
 -1       799 3.43782E-05 1.16584E-06-8.27181E-25
 -1       800 3.44352E-05 1.41805E-06 0.00000E+00
 -1       801 3.07718E-05-1.50325E-07 0.00000E+00
 -1       802 2.45934E-05-1.11772E-07 0.00000E+00
 -1       803 1.67361E-05-8.36627E-08-8.27181E-25
 -1       804 8.89105E-06-5.87556E-08 0.00000E+00
 -1       805 2.74926E-06-2.34297E-08-1.32349E-23
 -1       806 3.34335E-05 7.59083E-09 0.00000E+00
 -1       807 3.32935E-05 1.85259E-07 0.00000E+00
 -1       808 3.31618E-05 3.39175E-07-3.30872E-24
 -1       809 3.30370E-05 4.74323E-07-1.65436E-24
 -1       810 3.29172E-05 5.95672E-07-1.65436E-24
 -1       811 3.28007E-05 7.08179E-07 0.00000E+00
 -1       812 3.26857E-05 8.16794E-07 0.00000E+00
 -1       813 3.25702E-05 9.26466E-07 8.27181E-25
 -1       814 3.24525E-05 1.04215E-06 0.00000E+00
 -1       815 3.23307E-05 1.16878E-06 0.00000E+00
 -1       816 3.22029E-05 1.31131E-06 0.00000E+00
 -1       817 3.20673E-05 1.47469E-06 0.00000E+00
 -1       818 3.19221E-05 1.66385E-06 1.65436E-24
 -1       819 3.17654E-05 1.88372E-06 0.00000E+00
 -1       820 3.15956E-05 2.13920E-06 8.27181E-25
 -1       821 3.44211E-05 2.15441E-06 0.00000E+00
 -1       822 3.43473E-05 2.67410E-06 0.00000E+00
 -1       823 3.42735E-05 3.28650E-06 0.00000E+00
 -1       824 3.41990E-05 3.98056E-06 8.27181E-25
 -1       825 3.41244E-05 4.74525E-06-1.65436E-24
 -1       826 3.40496E-05 5.56943E-06 0.00000E+00
 -1       827 3.39748E-05 6.44194E-06 0.00000E+00
 -1       828 3.38999E-05 7.35160E-06-8.27181E-25
 -1       829 3.38250E-05 8.28718E-06-1.65436E-24
 -1       830 3.37501E-05 9.23743E-06-8.27181E-25
 -1       831 3.36752E-05 1.01911E-05 1.65436E-24
 -1       832 3.36004E-05 1.11370E-05 8.27181E-25
 -1       833 3.35258E-05 1.20638E-05 0.00000E+00
 -1       834 3.34517E-05 1.29603E-05 0.00000E+00
 -1       835 3.33776E-05 1.38154E-05 0.00000E+00
 -1       836 3.40532E-05 1.85270E-06 1.65436E-24
 -1       837 3.35255E-05 1.97095E-06 0.00000E+00
 -1       838 3.29526E-05 2.08903E-06 0.00000E+00
 -1       839 3.23793E-05 2.20668E-06-8.27181E-25
 -1       840 3.18507E-05 2.32437E-06-8.27181E-25
 -1       841 3.43492E-05 2.17943E-06-8.27181E-25
 -1       842 3.41518E-05 2.76905E-06-4.13590E-25
 -1       843 3.39124E-05 3.47043E-06 0.00000E+00
 -1       844 3.36448E-05 4.24685E-06-4.13590E-25
 -1       845 3.33562E-05 5.07904E-06 0.00000E+00
 -1       846 3.30540E-05 5.94775E-06-4.13590E-25
 -1       847 3.27420E-05 6.84214E-06 0.00000E+00
 -1       848 3.24244E-05 7.75141E-06 0.00000E+00
 -1       849 3.21041E-05 8.66807E-06 0.00000E+00
 -1       850 3.17838E-05 9.58463E-06 0.00000E+00
 -1       851 3.14662E-05 1.04937E-05 0.00000E+00
 -1       852 3.11542E-05 1.13879E-05 2.06795E-25
 -1       853 3.08518E-05 1.22564E-05 0.00000E+00
 -1       854 3.05626E-05 1.30881E-05 0.00000E+00
 -1       855 3.02946E-05 1.38640E-05 0.00000E+00
 -1       856 3.32486E-05 1.54594E-05 0.00000E+00
 -1       857 3.31865E-05 1.64198E-05 0.00000E+00
 -1       858 3.31243E-05 1.74829E-05 1.65436E-24
 -1       859 3.30615E-05 1.86325E-05 0.00000E+00
 -1       860 3.29986E-05 1.98523E-05 0.00000E+00
 -1       861 3.29355E-05 2.11263E-05-8.27181E-25
 -1       862 3.28724E-05 2.24381E-05 0.00000E+00
 -1       863 3.28092E-05 2.37714E-05 8.27181E-25
 -1       864 3.27460E-05 2.51101E-05 0.00000E+00
 -1       865 3.26828E-05 2.64378E-05 0.00000E+00
 -1       866 3.26196E-05 2.77383E-05 0.00000E+00
 -1       867 3.25566E-05 2.89954E-05 0.00000E+00
 -1       868 3.24937E-05 3.01927E-05 0.00000E+00
 -1       869 3.24310E-05 3.13141E-05 8.27181E-25
 -1       870 3.23685E-05 3.23434E-05-1.65436E-24
 -1       871 3.26647E-05 1.46104E-05 0.00000E+00
 -1       872 3.21035E-05 1.46020E-05 0.00000E+00
 -1       873 3.15930E-05 1.45934E-05-8.27181E-25
 -1       874 3.11017E-05 1.45845E-05-2.06795E-25
 -1       875 3.05983E-05 1.45751E-05 4.13590E-25
 -1       876 3.30977E-05 1.54799E-05 0.00000E+00
 -1       877 3.28576E-05 1.64350E-05 1.65436E-24
 -1       878 3.25876E-05 1.74701E-05 0.00000E+00
 -1       879 3.22922E-05 1.85738E-05-1.65436E-24
 -1       880 3.19756E-05 1.97346E-05 3.30872E-24
 -1       881 3.16419E-05 2.09408E-05 1.65436E-24
 -1       882 3.12953E-05 2.21812E-05-3.30872E-24
 -1       883 3.09403E-05 2.34444E-05-1.65436E-24
 -1       884 3.05810E-05 2.47188E-05-3.30872E-24
 -1       885 3.02217E-05 2.59931E-05 0.00000E+00
 -1       886 2.98666E-05 2.72560E-05 0.00000E+00
 -1       887 2.95201E-05 2.84960E-05 1.65436E-24
 -1       888 2.91863E-05 2.97017E-05 0.00000E+00
 -1       889 2.88691E-05 3.08615E-05 0.00000E+00
 -1       890 2.85732E-05 3.19641E-05 0.00000E+00
 -1       891 3.15649E-05 3.32202E-05 0.00000E+00
 -1       892 3.09440E-05 3.31751E-05 8.27181E-25
 -1       893 3.03759E-05 3.31301E-05 8.27181E-25
 -1       894 2.97915E-05 3.30852E-05 4.13590E-25
 -1       895 2.91218E-05 3.30402E-05 8.27181E-25
 -1       926 3.95449E-08-2.43562E-06 1.03398E-25
 -1       927 3.88734E-08-1.31010E-06 0.00000E+00
 -1       928 3.84422E-08-4.55053E-07 2.58494E-26
 -1       929 3.82295E-08 1.60162E-07 0.00000E+00
 -1       930 3.81191E-08 5.66211E-07 1.29247E-26
 -1       931 3.80644E-08 7.93756E-07 0.00000E+00
 -1       932 3.80229E-08 8.73486E-07-2.58494E-26
 -1       933 3.79482E-08 8.36084E-07 0.00000E+00
 -1       934 3.78316E-08 7.12245E-07 0.00000E+00
 -1       935 3.75361E-08 5.32664E-07 0.00000E+00
 -1       936 3.71361E-08 3.28037E-07 0.00000E+00
 -1       937 3.59244E-08 1.29062E-07 0.00000E+00
 -1       938 3.46045E-08-3.36282E-08-1.65436E-24
 -1       939 2.92402E-08-1.29394E-07 1.65436E-24
 -1       940 2.52439E-08-1.28205E-07 0.00000E+00
 -1       956 3.13285E-05 2.86946E-06 8.27181E-25
 -1       957 3.12439E-05 3.39595E-06 4.13590E-25
 -1       958 3.11589E-05 4.00453E-06 2.48154E-24
 -1       959 3.10737E-05 4.68463E-06-8.27181E-25
 -1       960 3.09884E-05 5.42572E-06 3.30872E-24
 -1       961 3.09031E-05 6.21716E-06-8.27181E-25
 -1       962 3.08177E-05 7.04833E-06-1.65436E-24
 -1       963 3.07323E-05 7.90861E-06 8.27181E-25
 -1       964 3.06469E-05 8.78737E-06 0.00000E+00
 -1       965 3.05614E-05 9.67396E-06-1.65436E-24
 -1       966 3.04760E-05 1.05578E-05 3.30872E-24
 -1       967 3.03906E-05 1.14281E-05-1.65436E-24
 -1       968 3.03053E-05 1.22745E-05 3.30872E-24
 -1       969 3.02201E-05 1.30861E-05 0.00000E+00
 -1       970 3.01353E-05 1.38526E-05 0.00000E+00
 -1       971 2.99446E-05 1.52967E-05 1.65436E-24
 -1       972 2.98351E-05 1.61598E-05 0.00000E+00
 -1       973 2.97254E-05 1.71373E-05 0.00000E+00
 -1       974 2.96153E-05 1.82133E-05 0.00000E+00
 -1       975 2.95051E-05 1.93720E-05 0.00000E+00
 -1       976 2.93948E-05 2.05973E-05-1.65436E-24
 -1       977 2.92843E-05 2.18733E-05 0.00000E+00
 -1       978 2.91739E-05 2.31840E-05-1.65436E-24
 -1       979 2.90634E-05 2.45134E-05 3.30872E-24
 -1       980 2.89529E-05 2.58454E-05 0.00000E+00
 -1       981 2.88425E-05 2.71640E-05 0.00000E+00
 -1       982 2.87322E-05 2.84533E-05 0.00000E+00
 -1       983 2.86220E-05 2.96971E-05 3.30872E-24
 -1       984 2.85125E-05 3.08794E-05 1.65436E-24
 -1       985 2.84032E-05 3.19844E-05-1.65436E-24
 -3
    1PSTEP                        16           8           1          
  100CL  108 5.34180E-01         568                     0    8           1
 -4  STRESS      6    1
 -5  SXX         1    4    1    1
 -5  SYY         1    4    2    2
 -5  SZZ         1    4    3    3
 -5  SXY         1    4    1    2
 -5  SYZ         1    4    2    3
 -5  SZX         1    4    3    1
 -1         1-1.46230E+06-5.76331E+05-2.81896E+05-7.52801E+05 5.38421E-10 1.55220E-10
 -1         2-3.67843E+04-3.94236E+05 2.10064E+04 7.06916E+04 1.31186E-08 3.22174E-09
 -1         3-3.13364E+01-7.39980E+05-1.03076E+02-1.93460E+02 5.75248E-10 2.42653E-09
 -1         4 7.26536E+00-7.87480E+00-8.11056E-01-9.07690E+00 6.01704E-09-3.56645E-09
 -1         5-1.07853E+01 3.11617E+05 1.67609E+01-2.95356E+00 3.25628E-10-6.89033E-09
 -1         8-1.30007E+06-4.45711E+05-1.72076E+05-4.96518E+05 1.40062E-10 7.20320E-10
 -1         9-1.35690E+06-4.69476E+05-1.94961E+05-3.32208E+05-2.34286E-09 3.67557E-09
 -1        10-2.52061E+04-4.39021E+05 5.17774E+04-3.50796E+03-3.14537E-09-7.95059E-10
 -1        11 1.80462E+00-3.33069E+00-1.18032E+00 5.34968E-01 1.27460E-09 5.16478E-09
 -1        12-7.23849E+03 1.18018E+05-3.95555E+04 5.66622E+03 7.87801E-09-2.94470E-09
 -1        15 1.93606E+03 1.04696E+03 6.00862E+03 2.43688E+00 5.35465E-11 7.68488E-09
 -1        16-1.69629E+06-4.47943E+05-1.38927E+05-5.71442E+05 3.52543E-10 1.72804E-09
 -1        17-3.41600E+05-2.56295E+05-2.68145E+04-2.29754E+05-4.90642E-09 2.76486E-09
 -1        18 2.37453E+04 7.96565E+03-9.15600E+03-6.66115E+04 2.78078E-10 6.10726E-10
 -1        19 7.01541E+04 8.21244E+04-8.28570E+03 8.33844E+03 2.44169E-09-1.39638E-09
 -1        20 4.52452E+04-6.54295E+04-1.48389E+04 3.24316E+04 2.98871E-09-2.58387E-09
 -1        21 1.87179E+02-1.15708E+05 3.40849E+04-3.89066E+02 1.56084E-08-1.30997E-08
 -1        23 4.70093E-01 2.23947E-01 8.61188E+00 6.72416E-04 6.11005E-09 2.25046E-09
 -1        24-8.99792E+05-2.69615E+05 6.10097E+04-4.82041E+05-3.41897E-09-3.52156E-10
 -1        25 2.64249E+03 2.58798E+04 1.66090E+04-2.82242E+05 7.60156E-10-1.46028E-09
 -1        26-8.49967E+02 7.54636E+04 1.56126E+03-1.31475E+04-5.35993E-10 2.16327E-10
 -1        27-1.83140E+04-4.87623E+04-2.17285E+04 5.38564E+04 3.05924E-09-1.62163E-09
 -1        28-8.83164E+03-9.08963E+04-4.55687E+03 3.31675E+04 9.33164E-09-3.17279E-10
 -1        31 3.00609E+03 3.46367E+03 5.11586E+03-1.28598E+02 2.81173E-09-1.38090E-09
 -1        32-3.93000E+05 7.02897E+04 2.34069E+05-5.76930E+05-4.82298E-09 1.94026E-10
 -1        33-9.01977E+04 9.32834E+04 2.84717E+04-2.78784E+04 1.10579E-10-1.03319E-09
 -1        34-1.15546E+05-5.95874E+03 7.71377E+03 3.89456E+04 2.63557E-09-1.49976E-09
 -1        35-2.25411E+04-2.59676E+04-8.63472E+02 5.24152E+04 1.76911E-09 5.25082E-10
 -1        36-5.91071E+03-2.47925E+04 5.71784E+04 1.71582E-07 5.55939E-11-3.43789E-09
 -1        37 1.89314E+04 2.86974E+04 4.04790E+04 1.21910E-07-5.13569E-10-1.71804E-09
 -1        38 3.64758E+03-3.89834E+03 1.48024E+04-1.29042E-07-1.29690E-10 2.91948E-10
 -1        39 7.78743E+03 4.51123E+03 9.32289E+03-3.08226E-08 2.16354E-11-3.65844E-09
 -1        40 5.22853E+03-6.12032E+02 3.81575E+03 6.85330E-07-2.55979E-11 4.23938E-09
 -1        41 5.94581E+03 7.19201E+02 2.29550E+03-8.37575E-07-8.62104E-11 3.03544E-09
 -1        42 5.48895E+03-1.07065E+02 1.14935E+03 5.08340E-07-6.20476E-12-1.51016E-09
 -1        43 5.67787E+03 2.01179E+02 9.64197E+02 4.90380E-07-2.44237E-13 8.67161E-10
 -1        44 5.49647E+03-9.40946E+01 1.03437E+03-4.99847E-07 3.71422E-11 5.26825E-10
 -1        45 5.88620E+03 6.07980E+02 1.96238E+03-4.61388E-08-2.14199E-10-2.84820E-09
 -1        46 5.28062E+03-5.13802E+02 3.21685E+03-5.10169E-07 1.68062E-10 7.39260E-09
 -1        47 7.42728E+03 3.78306E+03 7.82576E+03 1.16971E-06 1.92759E-10 5.03132E-09
 -1        48 3.95556E+03-3.26857E+03 1.24149E+04 1.76360E-07-1.93870E-10 2.20189E-09
 -1        49 1.67700E+04 2.40609E+04 3.39406E+04 1.33713E-07 9.45372E-11-1.28057E-09
 -1        50-4.05882E+03-2.07868E+04 4.79389E+04-6.93675E-08 2.20411E-09 1.92813E-10
 -1        51 2.00889E+04-3.33077E+05 3.31502E+04-8.80944E+05-8.73115E-11 3.12139E-09
 -1        52 1.01569E+04-3.31204E+05 2.15638E+04-9.71592E+05 5.92991E-10-2.18279E-09
 -1        53 7.82042E+03-3.39241E+05 1.94460E+04-8.78629E+05-1.96451E-10-3.02680E-09
 -1        54 1.92624E+04-3.36211E+05 3.22495E+04-9.74059E+05-5.09317E-10-1.65528E-09
 -1        55 4.41990E+04-3.46833E+05 6.01106E+04-8.78199E+05-4.65661E-10 3.81988E-09
 -1        56-4.15407E+06-4.54880E+05-3.53630E+05-1.61007E+06-6.03904E-10-2.45927E-09
 -1        57-4.31935E+06-7.67379E+05-2.40670E+05-1.57095E+06-4.58385E-10-6.32645E-09
 -1        58-4.22576E+06-5.71603E+05-8.30801E+04-1.58691E+06-1.05501E-09-4.83124E-09
 -1        59-4.23647E+06-6.30864E+05-5.02790E+04-1.59774E+06 7.63976E-10-3.48518E-09
 -1        60-4.23619E+06-5.88830E+05-1.94068E+04-1.58407E+06 4.95675E-10 1.69985E-09
 -1        61-4.22606E+06-6.09046E+05-1.11968E+04-1.59895E+06-1.28568E-09 7.94898E-10
 -1        62-4.23598E+06-5.93078E+05-5.35354E+03-1.58576E+06-5.37511E-10 2.35298E-09
 -1        63-4.22914E+06-6.01808E+05-4.52491E+03-1.59387E+06 1.25323E-09-1.57200E-10
 -1        64-4.23306E+06-5.96045E+05-5.18796E+03-1.58913E+06-2.32490E-10-6.00267E-10
 -1        65-4.23669E+06-5.98067E+05-1.06686E+04-1.58656E+06-1.01367E-09-7.49651E-10
 -1        66-4.22844E+06-5.96861E+05-1.84560E+04-1.59306E+06 2.27374E-13-5.71526E-09
 -1        67-4.25374E+06-6.11617E+05-4.77319E+04-1.57724E+06-2.77760E-09-3.91992E-10
 -1        68-4.21620E+06-5.82815E+05-7.88750E+04-1.59839E+06-1.80080E-10-1.49521E-09
 -1        69-4.33385E+06-7.39862E+05-2.28470E+05-1.55033E+06-9.75888E-10-7.45786E-10
 -1        70-4.14910E+06-4.71030E+05-3.35713E+05-1.61925E+06-3.63798E-10-6.54836E-10
 -1        86 3.13794E+04-1.32874E+06-8.71270E+04-6.23438E+04-2.57496E-08 5.01586E-10
 -1        87 1.89976E+04-1.87634E+05 1.64002E+05 6.21811E+04-1.71594E-08 3.12020E-09
 -1        88-5.07541E+04-2.06756E+06-1.99616E+05 1.68320E+04 1.97970E-08-1.27648E-09
 -1        89 4.58650E+04-5.82988E+04 2.06863E+05-7.23492E+04 5.72618E-09-5.65834E-09
 -1        90 5.01326E+03-1.45782E+06-8.63801E+04 7.21062E+04 2.31757E-08 2.95358E-10
 -1       121-2.44187E+01-7.40124E+05-1.42471E+02 9.67136E+01-1.02349E-09 6.60293E-09
 -1       122-7.21583E+01-7.40008E+05-2.35118E+02-3.85630E+02-8.05528E-10-1.94177E-09
 -1       123 1.14002E+01-7.40098E+05-4.25386E+02 2.88807E+02-2.44393E-09 5.32509E-10
 -1       124-5.22028E+02-7.40276E+05-1.00364E+03-8.12860E+02-1.64437E-09-2.22713E-09
 -1       125 3.51931E+02-7.39862E+05-1.57704E+03 5.23731E+02-4.10898E-09 2.83171E-09
 -1       161-2.65610E+00 1.84671E+00-1.08661E+00 1.93444E+00 2.46824E-06-9.26662E-07
 -1       162 7.07370E+00-8.02550E+00-1.98737E+00-9.09419E+00 4.93620E-06-1.85413E-06
 -1       163-2.46438E+00 1.99799E+00-3.86773E+00 1.95145E+00 2.41467E-06-9.05799E-07
 -1       164 6.19355E+00-9.04900E+00-8.63038E+00-9.03121E+00-1.07171E-07 4.33750E-08
 -1       165-1.77602E+00 2.87049E+00-1.68075E+01 1.87125E+00-2.88250E-06 1.08069E-06
 -1       166 1.53964E+00-1.55653E+01-3.88871E+01-8.21762E+00-5.65608E-06 2.12323E-06
 -1       167 2.18994E+00 8.51374E+00-7.37001E+01 1.13831E+00-8.46589E-06 3.17465E-06
 -1       168-2.57621E+01-5.73641E+01-1.76810E+02-1.88894E+00-1.12743E-05 4.22930E-06
 -1       169 2.55262E+01 4.46645E+01-3.22288E+02-4.45506E+00-1.39968E-05 5.24796E-06
 -1       170-1.89668E+02-3.24333E+02-8.12410E+02 4.31049E+01-1.67178E-05 6.27363E-06
 -1       171 1.66098E+02 2.75450E+02-1.40205E+03-4.38412E+01-1.90087E-05 7.12810E-06
 -1       172-1.18721E+03-2.02309E+03-3.78471E+03 3.49347E+02-2.12954E-05 7.99117E-06
 -1       173 1.02310E+03 1.74320E+03-6.05290E+03-3.10586E+02-2.15427E-05 8.08180E-06
 -1       174-7.32235E+03-1.28064E+04-1.79473E+04 2.37985E+03-2.17748E-05 8.17168E-06
 -1       175 6.30204E+03 1.10574E+04-2.58304E+04-2.07343E+03-1.08922E-05 4.08231E-06
 -1       191-1.10187E+01 3.11641E+05 2.00260E+01 1.47511E+00-1.41810E-10-1.48966E-08
 -1       192-5.35797E+00 3.11619E+05 3.71992E+01-1.45048E+01-1.51061E-10-2.26792E-08
 -1       193 6.17037E+00 3.11638E+05 7.04415E+01 1.30247E+01-4.63046E-10-6.52835E-09
 -1       194 6.44898E+01 3.11642E+05 1.57981E+02-1.17298E+02-4.40878E-10 1.09821E-09
 -1       195 2.06155E+02 3.11617E+05 3.20973E+02 1.04358E+02-8.54016E-10-9.56334E-10
 -1       251-1.99777E+06 4.78577E+04-9.96030E+04-2.93429E+04-3.59017E-09 5.71163E-09
 -1       252-1.92635E+06-6.07742E+04-5.12450E+04 3.50170E+02-5.02253E-09 6.70025E-09
 -1       253-2.12587E+06 1.25527E+04-4.72215E+04 3.49681E+04-3.13025E-09-1.94632E-09
 -1       254-1.53463E+06-1.18121E+04 7.68339E+04-4.50205E+02 8.35321E-10-7.89078E-09
 -1       255-2.38774E+06-1.38450E+03-7.95451E+04-2.85470E+04-4.91809E-09 6.86646E-09
 -1       256-1.00863E+06 1.50483E+04 1.95054E+05 1.72610E+04-1.16951E-08 1.71740E-08
 -1       257-2.64964E+06-1.44031E+04-1.27366E+05 1.72950E+04-8.33597E-09 5.30258E-09
 -1       258-7.30828E+05 2.89353E+04 2.53996E+05-2.63773E+04-2.21013E-09-1.91103E-08
 -1       259-2.66440E+06-1.51509E+04-1.30369E+05 1.49987E+04 2.70120E-09-2.31705E-09
 -1       260-9.65842E+05 1.69704E+04 2.03695E+05 1.87526E+04-4.63831E-09 2.68128E-08
 -1       261-2.41555E+06-2.51747E+03-8.53008E+04-2.77390E+04-9.43578E-09 7.09974E-09
 -1       262-1.48804E+06-1.04342E+04 8.57756E+04-1.37899E+03-7.33719E-09-1.27434E-08
 -1       263-2.14442E+06 1.23071E+04-5.16784E+04 3.50865E+04-8.01094E-09-6.87760E-09
 -1       264-1.90475E+06-6.20544E+04-4.89814E+04 2.09211E+02-9.60512E-09 5.88261E-09
 -1       265-2.00071E+06 4.93687E+04-1.03244E+05-2.93204E+04-1.26555E-08 3.82715E-09
 -1       266-3.40378E+04-1.57396E+04 7.85620E+04-5.01525E+01 9.09495E-11-4.09209E-09
 -1       267 3.94188E+04 1.83809E+04 5.57273E+04 5.76615E+01 1.15506E-10-2.64851E-09
 -1       268-5.37131E+03-2.63158E+03 2.06265E+04-7.50920E+00-2.18279E-11-1.26336E-09
 -1       269 6.34043E+03 3.15558E+03 1.34804E+04 8.72919E+00-3.41061E-11-1.83974E-09
 -1       270-9.67890E+02-5.23471E+02 6.47224E+03-1.21808E+00-3.34239E-11 4.46603E-09
 -1       271-3.31308E+06-4.23319E+05-2.57480E+05-1.28419E+06-1.08412E-09 1.45519E-11
 -1       272-3.39756E+06-5.89752E+05-1.61430E+05-1.29053E+06-1.72622E-09-6.84122E-09
 -1       273-3.35842E+06-4.77823E+05-6.07016E+04-1.27684E+06 1.21759E-09 4.01633E-09
 -1       274-3.34455E+06-5.18085E+05-3.30922E+04-1.30441E+06-7.50333E-10 8.63565E-10
 -1       275-3.36449E+06-4.82462E+05-1.40921E+04-1.27513E+06 3.16868E-09 4.67753E-09
 -1       276-3.33727E+06-5.12319E+05-7.38831E+03-1.30751E+06-1.22964E-09-3.11411E-09
 -1       277-3.36581E+06-4.82329E+05-3.75470E+03-1.27433E+06-1.17871E-09-4.80338E-09
 -1       278-3.33585E+06-5.12509E+05-2.83696E+03-1.30870E+06 1.24146E-10 2.78008E-09
 -1       279-3.36606E+06-4.82097E+05-3.27866E+03-1.27408E+06-8.08541E-10-4.05839E-09
 -1       280-3.33635E+06-5.13023E+05-6.10543E+03-1.30863E+06 1.35913E-10-2.10298E-09
 -1       281-3.36532E+06-4.81875E+05-1.14427E+04-1.27439E+06 1.06797E-09 2.30739E-09
 -1       282-3.34181E+06-5.18171E+05-2.68212E+04-1.30672E+06-2.09252E-09 1.61890E-09
 -1       283-3.36060E+06-4.77924E+05-4.91272E+04-1.27556E+06 4.85670E-10 4.32919E-10
 -1       284-3.38444E+06-5.76460E+05-1.30686E+05-1.29579E+06 9.09495E-11-2.71575E-09
 -1       285-3.32398E+06-4.33742E+05-2.08447E+05-1.28143E+06-7.89441E-10-5.52973E-10
 -1       286-1.03036E+05-2.93132E+04 6.76089E+04-2.58460E+02 1.45940E-09-3.59432E-09
 -1       287-7.35510E+04 3.39338E+04 4.78804E+04 3.50369E+02 1.07866E-09-8.23093E-10
 -1       288-9.18161E+04-4.61243E+03 1.74837E+04-1.59740E+02 1.18202E-10 7.54608E-09
 -1       289-8.66207E+04 5.34123E+03 1.10635E+04 6.02632E+01 3.87765E-10 1.58252E-10
 -1       290-8.99748E+04-7.28350E+02 4.48751E+03 3.16487E+01-5.62501E-11 1.01454E-09
 -1       291-8.88452E+04 8.53594E+02 2.74365E+03-2.98607E+02 7.41422E-10 3.63201E-10
 -1       292-8.95929E+04-1.25419E+02 1.34808E+03 1.99135E+02 7.16421E-10 3.65389E-09
 -1       293-8.92804E+04 2.31661E+02 1.14042E+03-5.19820E+02 7.53599E-10-9.05075E-10
 -1       294-8.95406E+04-1.05914E+02 1.21276E+03 2.52865E+02 1.11232E-09-2.07450E-09
 -1       295-8.90149E+04 7.07582E+02 2.30645E+03-4.85686E+02 8.35449E-10 2.09030E-09
 -1       296-8.98580E+04-6.01347E+02 3.74787E+03 1.65000E+02 2.47590E-10 6.35964E-10
 -1       297-8.70912E+04 4.42780E+03 9.18411E+03-2.16128E+02-2.33968E-10 4.18243E-09
 -1       298-9.14627E+04-3.82605E+03 1.44866E+04-1.66981E+01 9.25290E-10-6.63931E-11
 -1       299-7.61673E+04 2.81330E+04 3.97095E+04 1.28397E+02 1.25881E-09 1.04546E-09
 -1       300-1.00775E+05-2.43009E+04 5.60218E+04-1.79528E+02 1.79738E-09 3.93266E-09
 -1       301 3.33666E+04-1.87369E+04 9.26103E+04-3.09641E+04 1.06957E-09 1.33002E-09
 -1       302 1.22086E+04 1.10268E+02 6.06591E+04-3.79124E+04 2.21735E-09-1.95530E-09
 -1       303 2.69498E+03-1.21359E+04 5.33796E+04-3.09890E+04 1.00590E-09-9.80663E-10
 -1       304 2.01441E+04 5.98909E+03 8.52927E+04-3.78647E+04 2.58751E-09 1.71326E-10
 -1       305 5.71461E+04-2.45754E+04 1.51264E+05-3.09695E+04 1.40426E-09-1.20781E-09
 -1       306-1.73150E+06-2.32120E+05-1.00307E+05-6.72344E+05 3.88354E-10-4.49654E-09
 -1       307-1.74825E+06-3.12754E+05-6.28329E+04-6.93137E+05 1.00181E-09-6.30735E-09
 -1       308-1.74919E+06-2.53223E+05-2.36638E+04-6.69495E+05 4.37922E-10 2.64663E-09
 -1       309-1.72782E+06-2.84818E+05-1.29095E+04-6.98532E+05 7.72388E-10-3.54544E-09
 -1       310-1.75149E+06-2.55086E+05-5.52399E+03-6.68935E+05 7.59428E-10 2.35491E-09
 -1       311-1.72523E+06-2.82359E+05-2.95383E+03-6.99512E+05-5.68207E-10-2.56227E-09
 -1       312-1.75187E+06-2.55168E+05-1.60882E+03-6.68779E+05 2.85615E-09 3.13651E-09
 -1       313-1.72497E+06-2.82153E+05-1.42858E+03-6.99602E+05 9.47125E-10 3.55590E-09
 -1       314-1.75177E+06-2.55255E+05-1.93653E+03-6.68868E+05-1.07457E-09-3.34694E-10
 -1       315-1.72559E+06-2.82161E+05-3.83854E+03-6.99080E+05 2.75804E-10-5.88352E-09
 -1       316-1.75113E+06-2.55273E+05-7.34357E+03-6.69200E+05 4.69754E-10 1.80262E-09
 -1       317-1.72918E+06-2.85306E+05-1.72263E+04-6.97581E+05 1.10776E-09 4.65343E-09
 -1       318-1.74802E+06-2.52820E+05-3.16207E+04-6.69986E+05-1.42109E-09-2.55568E-09
 -1       319-1.75649E+06-3.22647E+05-8.39552E+04-6.90404E+05-4.46653E-09-5.68980E-09
 -1       320-1.72443E+06-2.24548E+05-1.34016E+05-6.73729E+05-1.69712E-09-7.27596E-11
 -1       336 4.25553E+02-7.39808E+05-2.80334E+03-1.30408E+03-5.49596E-09 1.51158E-09
 -1       337-1.30270E+03-7.40910E+05-4.43340E+03-9.79697E+03-3.72938E-09-1.92790E-09
 -1       338 6.79320E+02-7.39597E+05-6.80546E+03-1.09893E+03-6.52562E-09 2.46837E-09
 -1       339-8.16400E+03-7.44950E+05-1.63300E+04-1.01639E+04-4.46585E-09 5.19753E-09
 -1       340 6.14454E+03-7.35816E+05-2.51436E+04-9.40054E+02-7.27596E-09 2.30125E-09
 -1       356-5.49150E-01 2.08834E-01-1.76950E+00-1.42652E+00-3.20459E-07-1.81329E-09
 -1       357-9.64750E-01-3.89178E-01-3.73443E+00 5.74097E+00-6.40736E-07 6.52922E-10
 -1       358-4.53623E-01 1.82179E-01-7.07608E+00-1.42627E+00-3.80444E-07-1.36228E-10
 -1       359-1.80997E+00-1.23246E+00-1.48502E+01 5.74080E+00-1.19938E-07-3.21467E-09
 -1       360 2.95883E-01 1.05223E+00-2.83710E+01-1.42635E+00 1.13123E-07 1.20318E-09
 -1       361-6.56050E+00-8.00290E+00-6.06753E+01 5.74125E+00 3.46202E-07-1.50492E-09
 -1       362 4.29702E+00 6.95232E+00-1.13581E+02-1.42672E+00 4.60511E-07 3.52166E-09
 -1       363-3.27443E+01-5.21991E+01-2.50180E+02 5.74638E+00 5.74391E-07-1.53273E-09
 -1       364 2.64806E+01 4.52434E+01-4.53048E+02-1.43149E+00 5.63782E-07 2.62469E-09
 -1       365-1.82496E+02-3.36367E+02-1.04413E+03 5.78269E+00 5.55256E-07 2.76202E-09
 -1       366 1.54056E+02 2.91081E+02-1.79640E+03-1.46301E+00 4.27514E-07 3.68391E-09
 -1       367-1.06491E+03-2.15095E+03-4.43478E+03 6.00295E+00 3.01242E-07 1.53631E-09
 -1       368 9.08984E+02 1.85952E+03-7.05466E+03-1.65165E+00 1.02421E-07 4.14366E-09
 -1       369-6.38139E+03-1.36893E+04-1.93059E+04 7.25773E+00-9.96654E-08 3.21211E-09
 -1       370 5.47178E+03 1.18275E+04-2.72645E+04-2.71703E+00-4.60255E-08 1.22782E-09
 -1       376-8.05303E-01 1.28994E+00-7.72541E-01 1.31409E+00 9.86451E-07-3.68195E-07
 -1       377 4.53123E+00-4.68095E+00-1.37181E+00-4.94246E+00 1.96863E-06-7.39594E-07
 -1       378-7.67653E-01 1.25909E+00-2.44998E+00 1.34369E+00 5.15037E-07-1.92343E-07
 -1       379 4.04203E+00-5.18336E+00-5.44835E+00-4.93645E+00-9.40405E-07 3.54714E-07
 -1       380-3.16025E-01 1.79246E+00-1.05448E+01 1.30804E+00-2.66958E-06 1.00129E-06
 -1       381 1.12818E+00-9.25768E+00-2.44189E+01-4.42899E+00-4.39668E-06 1.65305E-06
 -1       382 2.14630E+00 5.33308E+00-4.62447E+01 8.36407E-01-6.02779E-06 2.26625E-06
 -1       383-1.58312E+01-3.54562E+01-1.10923E+02-3.91003E-01-7.65810E-06 2.87752E-06
 -1       384 1.66434E+01 2.79881E+01-2.02264E+02-2.72859E+00-9.08375E-06 3.40766E-06
 -1       385-1.18754E+02-2.02973E+02-5.09776E+02 2.78390E+01-1.05085E-05 3.94571E-06
 -1       386 1.05069E+02 1.72830E+02-8.79775E+02-2.73847E+01-1.15430E-05 4.32941E-06
 -1       387-7.45060E+02-1.26889E+03-2.37496E+03 2.20014E+02-1.25705E-05 4.72054E-06
 -1       388 6.42957E+02 1.09376E+03-3.79822E+03-1.94838E+02-1.23772E-05 4.64208E-06
 -1       389-4.59550E+03-8.03497E+03-1.12621E+04 1.49470E+03-1.21756E-05 4.57130E-06
 -1       390 3.95580E+03 6.93798E+03-1.62093E+04-1.30156E+03-6.08888E-06 2.28321E-06
 -1       406 2.40161E+02 3.11602E+05 8.11979E+02-1.06907E+02-1.22691E-09-2.89674E-09
 -1       407 2.88539E+02 3.11772E+05 1.45739E+03 1.10446E+02-7.47718E-10-1.07866E-09
 -1       408 6.97869E+02 3.11522E+05 2.78629E+03-3.19714E+00-1.63038E-09-6.71207E-10
 -1       409 2.92612E+03 3.12640E+05 6.21706E+03-9.58474E+01-1.11243E-09-7.38601E-09
 -1       410 8.45373E+03 3.10733E+05 1.26572E+04 1.05641E+02-2.07729E-09-2.27465E-09
 -1       501-2.83124E+05-5.10156E+04 1.00653E+05-7.79528E+03 1.27415E-08 1.14014E-08
 -1       502-1.47133E+05 5.59037E+04 8.67425E+04 2.03478E+04 1.09846E-08 2.16005E-08
 -1       503-2.33126E+05-4.67895E+03 2.68855E+04-9.52101E+03 7.15653E-09 1.21163E-08
 -1       504-1.27619E+05 1.04441E+04 3.54029E+04 1.26366E+04-5.01294E-09 9.34529E-09
 -1       505-3.02323E+05-5.92227E+03-9.06468E+03-8.23663E+01 4.65468E-09-2.71530E-09
 -1       506-1.15376E+05 4.42541E+03 2.52228E+04-7.78028E+03 3.01671E-08-9.80174E-09
 -1       507-2.45244E+05 1.21281E+03-2.62939E+03 1.08864E+04 2.22152E-08-1.81890E-08
 -1       508-1.76770E+05-2.73870E+03 9.00847E+03-1.89628E+04 1.20059E-08-2.81367E-08
 -1       509-2.41419E+05 1.74403E+03-2.93594E+03 1.11099E+04 2.13208E-08-2.09058E-08
 -1       510-1.19024E+05 3.06834E+03 2.14079E+04-8.59853E+03 1.95232E-08-1.42695E-08
 -1       511-3.02526E+05-5.07296E+03-1.48659E+04 5.12404E+02-6.66591E-09-1.03910E-10
 -1       512-1.27407E+05 3.91618E+03 2.20430E+04 1.19588E+04-4.75859E-08 1.09437E-08
 -1       513-2.33110E+05 9.69887E+02 3.73530E+03-9.43817E+03-4.38509E-05 6.29559E-07
 -1       514-1.68208E+05 1.19693E+04 2.48214E+04 2.03383E+04-8.81926E-05 1.70548E-06
 -1       515-2.62101E+05-1.27334E+04 1.41002E+04-7.86879E+03-4.36575E-05 4.88807E-07
 -1       521-3.40203E+06-4.42117E+05-2.16234E+05-1.31031E+06-1.69166E-09 4.65661E-10
 -1       522-3.46920E+06-5.85873E+05-1.35588E+05-1.32022E+06 1.08002E-10-5.10772E-09
 -1       523-3.43977E+06-4.88216E+05-5.09475E+04-1.30447E+06-3.40378E-10 3.23416E-09
 -1       524-3.42527E+06-5.25032E+05-2.78115E+04-1.33107E+06-1.57684E-10-1.00272E-09
 -1       525-3.44450E+06-4.92487E+05-1.18356E+04-1.30341E+06 1.19826E-09-1.52795E-09
 -1       526-3.41979E+06-5.19472E+05-6.26244E+03-1.33276E+06-6.54381E-10-2.59666E-09
 -1       527-3.44519E+06-4.92805E+05-3.25467E+03-1.30318E+06-7.06621E-10 5.27422E-10
 -1       528-3.41931E+06-5.18853E+05-2.62149E+03-1.33275E+06-7.37487E-10-4.22460E-10
 -1       529-3.44495E+06-4.93053E+05-3.24196E+03-1.30344E+06-1.35424E-09-3.80942E-09
 -1       530-3.42059E+06-5.18579E+05-6.20469E+03-1.33165E+06-1.32968E-09-4.68572E-09
 -1       531-3.44380E+06-4.93220E+05-1.17431E+04-1.30417E+06 3.19233E-10-2.78214E-09
 -1       532-3.42682E+06-5.23228E+05-2.75384E+04-1.32892E+06-1.43609E-09 5.22050E-10
 -1       533-3.43867E+06-4.89437E+05-5.04818E+04-1.30568E+06-5.52518E-10 7.02130E-10
 -1       534-3.47111E+06-5.82645E+05-1.34264E+05-1.31719E+06-1.59923E-09-1.18234E-10
 -1       535-3.40089E+06-4.44203E+05-2.14168E+05-1.31192E+06-4.89308E-10 3.85626E-09
 -1       536-6.68754E+03-1.06228E+04 4.25723E+04-8.08866E+03 3.46517E-10-1.57161E-09
 -1       537 9.33703E+03 1.36950E+04 2.75130E+04-3.49133E+04-3.09228E-09-2.86946E-09
 -1       538-2.38112E+02-1.20732E+03 1.10094E+04-7.96942E+03 1.85537E-10 8.30369E-10
 -1       539 1.85810E+03 1.32499E+03 6.21026E+03-3.50397E+04 8.64020E-10-1.41415E-09
 -1       540 4.85179E+02-1.72085E+02 2.76323E+03-7.95775E+03 4.23825E-10-3.56158E-09
 -1       541 8.33255E+02 1.19648E+02 1.46816E+03-3.50507E+04-1.09139E-10 1.40676E-09
 -1       542 5.62795E+02-2.89947E+01 6.61595E+02-7.95874E+03-3.01952E-10 2.92721E-09
 -1       543 6.06172E+02 3.24401E+01 3.04209E+02-3.50493E+04-5.61386E-10 2.73985E-11
 -1       544 5.68398E+02 5.84242E+00 5.87024E+01-7.95930E+03 7.21002E-10-1.90414E-09
 -1       545 5.20278E+02 1.79886E+01-1.52358E+02-3.50487E+04-1.38948E-09-7.89555E-10
 -1       546 5.84785E+02 2.96545E+01-4.15375E+02-7.95932E+03 6.11180E-10 1.93222E-09
 -1       547 3.88467E+02-1.97006E+02-9.97282E+02-3.50445E+04-1.28171E-09 6.62567E-10
 -1       548 7.16260E+02 1.80195E+02-1.81411E+03-7.96355E+03-6.60066E-10 3.76417E-10
 -1       549-7.29703E+02-2.27124E+03-4.51828E+03-3.49785E+04-8.18545E-10 2.51930E-10
 -1       550 1.79897E+03 1.68751E+03-7.04056E+03-8.02525E+03 2.66482E-10 3.02634E-10
 -1       551 9.33492E+03-2.95842E+05 2.26539E+04-4.69118E+05 1.35879E-09 1.84082E-09
 -1       552 6.96042E+03-2.92634E+05 2.25808E+04-5.72541E+05-5.46061E-09 6.77392E-09
 -1       553 5.03268E+03-2.96544E+05 3.17285E+04-4.68212E+05 5.05679E-10 8.05358E-10
 -1       554 2.05461E+04-2.83045E+05 6.42036E+04-5.72656E+05-5.04951E-09 6.65750E-10
 -1       555 4.98162E+04-3.06238E+05 1.21763E+05-4.68857E+05 7.56700E-10-3.90719E-09
 -1       556-1.14961E+05-9.91720E+04 2.33423E+04-1.64545E+05 8.76753E-10 8.42556E-09
 -1       557-9.22285E+04-1.21338E+05 1.17683E+04-1.82357E+05-1.92085E-09-1.82285E-09
 -1       558-1.15109E+05-1.05030E+05 4.90922E+03-1.60723E+05-2.68483E-09 1.73713E-10
 -1       559-9.48796E+04-1.24766E+05 2.43431E+03-1.83425E+05 6.18456E-10-3.16277E-10
 -1       560-1.15514E+05-1.04870E+05 1.06774E+03-1.60856E+05 6.51198E-10-1.81808E-09
 -1       561-9.55312E+04-1.24707E+05 5.24707E+02-1.83869E+05 1.08412E-09 1.12641E-09
 -1       562-1.15845E+05-1.04643E+05 2.00236E+02-1.61085E+05-3.92902E-10 1.11152E-09
 -1       563-9.58867E+04-1.24555E+05 5.00583E+01-1.84112E+05-2.21917E-09 3.59478E-09
 -1       564-1.16039E+05-1.04511E+05-1.06388E+02-1.61221E+05-4.48381E-09-2.78078E-09
 -1       565-9.60702E+04-1.24482E+05-3.17626E+02-1.84228E+05-6.67660E-09-5.84623E-09
 -1       566-1.16078E+05-1.04461E+05-7.09934E+02-1.61261E+05-4.76462E-09-5.05133E-09
 -1       567-9.61947E+04-1.24535E+05-1.58001E+03-1.84210E+05-7.61702E-10 3.66344E-09
 -1       568-1.15887E+05-1.04653E+05-3.25470E+03-1.61143E+05-1.49703E-09-8.60382E-10
 -1       569-9.80170E+04-1.26243E+05-7.67044E+03-1.83596E+05-2.26555E-09 3.12866E-09
 -1       570-1.14659E+05-1.09492E+05-1.53343E+04-1.59106E+05 2.28101E-09 8.22638E-09
 -1       571 2.00210E+05 8.85026E+03 1.32684E+04-5.12110E+04 3.71529E-10 1.34605E-10
 -1       572 2.02204E+05 3.05512E+03 6.50606E+03-5.62468E+04 2.96041E-10-1.76669E-09
 -1       573 2.01012E+05 7.10698E+02 2.89161E+03-5.10770E+04-3.92447E-10-5.00995E-09
 -1       574 2.01249E+05 2.25344E+02 1.44962E+03-5.63946E+04-5.84350E-10-1.60298E-09
 -1       575 2.01100E+05 2.45119E+01 6.83680E+02-5.10597E+04-4.58385E-10 1.08321E-09
 -1       576 2.01121E+05 2.48781E+00 3.47634E+02-5.64141E+04-6.70298E-10 2.43017E-09
 -1       577 2.01114E+05-1.03929E+01 1.70374E+02-5.10574E+04-1.42859E-09 4.31555E-10
 -1       578 2.01109E+05-8.37664E+00 9.09691E+01-5.64165E+04-2.08843E-09-1.13687E-09
 -1       579 2.01129E+05-1.28874E+01 5.20260E+01-5.10573E+04-2.62025E-09-2.56478E-09
 -1       580 2.01129E+05-1.65372E+01 4.26942E+01-5.64136E+04-2.91402E-09 2.66846E-09
 -1       581 2.01156E+05-2.37877E+01 5.11262E+01-5.10603E+04-3.28509E-09-4.93856E-10
 -1       582 2.01172E+05-2.15898E+01 9.28090E+01-5.63829E+04-3.11502E-10-3.43744E-09
 -1       583 2.01189E+05-4.61993E+00 1.74131E+02-5.10880E+04-2.80161E-08 8.75843E-10
 -1       584 2.01279E+05 1.24013E+02 3.89747E+02-5.61489E+04-6.03604E-08 4.30668E-09
 -1       585 2.01188E+05 4.61277E+02 7.88359E+02-5.12947E+04-2.97769E-08-1.81899E-12
 -1       586 1.12928E+03 9.23216E+04 2.25078E+03-1.23790E+05 3.72438E-10 4.80759E-09
 -1       587 7.00657E+02 9.27067E+04 2.50220E+03-1.37412E+05-8.32188E-10 3.75803E-09
 -1       588 9.54857E+02 9.22400E+04 3.91611E+03-1.23626E+05 4.25644E-10 5.61158E-09
 -1       589 3.70678E+03 9.37758E+04 8.27156E+03-1.37457E+05-7.81256E-10 1.71847E-08
 -1       590 1.06334E+04 9.12028E+04 1.65672E+04-1.23743E+05 5.22505E-10 1.25374E-08
 -1       591-1.01166E+05-3.00530E+04-1.96578E+04-4.84881E+04-1.26033E-09 1.15779E-09
 -1       592-1.02401E+05-2.89628E+04-9.85789E+03-5.38065E+04-7.36691E-10-3.70881E-09
 -1       593-1.02110E+05-2.43227E+04-4.18518E+03-5.13195E+04 1.09026E-09-1.82763E-09
 -1       594-1.00184E+05-2.64987E+04-2.05512E+03-5.40044E+04 3.14344E-09 1.13166E-08
 -1       595-1.02217E+05-2.41666E+04-9.48360E+02-5.14280E+04-1.13823E-09-1.99054E-09
 -1       596-1.00031E+05-2.64122E+04-4.79598E+02-5.39826E+04 6.70866E-10 2.60945E-09
 -1       597-1.02235E+05-2.41833E+04-2.58476E+02-5.14280E+04-1.50572E-09-1.91733E-09
 -1       598-1.00015E+05-2.64134E+04-2.01761E+02-5.39754E+04 4.14332E-10 2.05438E-09
 -1       599-1.02234E+05-2.41845E+04-2.50027E+02-5.14271E+04-6.62908E-10 2.66573E-09
 -1       600-1.00027E+05-2.64138E+04-4.57378E+02-5.39793E+04 1.46429E-10 1.86014E-09
 -1       601-1.02213E+05-2.41705E+04-9.00326E+02-5.14253E+04 9.64519E-10 1.30199E-08
 -1       602-1.00171E+05-2.64950E+04-1.94931E+03-5.39949E+04-8.82642E-09-3.73689E-09
 -1       603-1.02107E+05-2.43229E+04-3.96858E+03-5.13231E+04-4.10137E-09 3.04226E-09
 -1       604-1.02294E+05-2.88076E+04-9.34610E+03-5.37767E+04-9.34961E-10-5.54564E-10
 -1       605-1.01186E+05-2.97765E+04-1.86366E+04-4.86615E+04-2.41926E-10-1.88584E-09
 -1       606 7.33673E+04-8.25904E+03-1.29510E+04 2.39126E+04-4.01724E-09-2.84672E-09
 -1       607 7.13205E+04-2.78326E+03-6.37186E+03 2.62164E+04-1.02773E-09 1.02568E-09
 -1       608 7.25068E+04-5.95200E+02-2.83832E+03 2.37481E+04 2.90856E-09 1.38141E-09
 -1       609 7.22390E+04-1.66133E+02-1.42438E+03 2.63983E+04-2.13549E-09 3.19380E-09
 -1       610 7.23887E+04 7.19218E+00-6.73649E+02 2.37274E+04-4.51746E-09 2.31148E-09
 -1       611 7.23337E+04 3.19700E+01-3.38670E+02 2.64207E+04-8.18000E-09 3.67231E-09
 -1       612 7.23584E+04 3.88127E+01-1.60287E+02 2.37252E+04-4.04543E-09 6.96673E-10
 -1       613 7.23355E+04 4.31118E+01-7.16148E+01 2.64234E+04-4.70982E-09-2.36560E-09
 -1       614 7.23428E+04 3.91499E+01-1.65759E+01 2.37246E+04-1.44428E-09-2.04045E-09
 -1       615 7.23292E+04 4.68258E+01 3.08133E+01 2.64237E+04 4.07317E-09-4.55702E-09
 -1       616 7.23307E+04 4.54567E+01 9.17303E+01 2.37249E+04-4.16367E-09-2.11685E-10
 -1       617 7.23387E+04 7.87251E+01 2.10890E+02 2.64227E+04 4.31100E-10 1.28057E-09
 -1       618 7.23095E+04 1.37974E+02 4.27523E+02 2.37253E+04 8.33097E-10-6.98037E-10
 -1       619 7.24767E+04 4.76168E+02 9.64665E+02 2.64186E+04 3.82897E-10 3.11638E-09
 -1       620 7.21790E+04 1.30018E+03 1.96226E+03 2.37273E+04 7.96149E-10-6.77801E-10
 -1       621 6.82096E+02 2.10639E+05 2.38809E+03-1.74359E+04 1.05194E-09 4.80782E-10
 -1       622 3.10200E+02 2.11120E+05 2.53685E+03-2.13312E+04-4.41560E-10 7.71252E-10
 -1       623 1.96978E+02 2.10694E+05 3.76294E+03-1.74395E+04 1.00363E-09 1.35196E-09
 -1       624 1.98853E+03 2.12369E+05 7.75220E+03-2.12638E+04-4.44288E-10 5.33191E-10
 -1       625 5.70913E+03 2.09404E+05 1.47970E+04-1.75014E+04 9.67702E-10 1.49953E-09
 -1       626 1.30348E+05 4.27853E+04-1.97143E+03 8.33023E+04 1.53341E-09 6.80120E-09
 -1       627 1.27508E+05 4.60613E+04-9.37089E+02 8.58880E+04 1.22964E-09 1.48520E-09
 -1       628 1.30450E+05 4.36467E+04-3.94106E+02 8.27277E+04 7.44876E-10-9.72705E-10
 -1       629 1.27542E+05 4.65544E+04-1.86666E+02 8.59560E+04 3.42698E-09 1.83701E-09
 -1       630 1.30440E+05 4.37065E+04-7.91707E+01 8.26710E+04 3.28237E-09-8.59245E-10
 -1       631 1.27525E+05 4.65971E+04-2.72848E+01 8.59587E+04-1.46065E-09 3.17357E-10
 -1       632 1.30425E+05 4.37117E+04 1.07240E+01 8.26602E+04-4.27917E-10-9.58335E-09
 -1       633 1.27518E+05 4.66022E+04 5.46294E+01 8.59554E+04 3.11047E-10-5.70481E-10
 -1       634 1.30414E+05 4.37085E+04 1.26494E+02 8.26564E+04-5.18412E-10 3.77213E-10
 -1       635 1.27528E+05 4.66055E+04 2.81120E+02 8.59569E+04-8.72433E-10 8.34461E-10
 -1       636 1.30400E+05 4.37176E+04 5.80541E+02 8.26484E+04-3.00702E-09-2.86173E-09
 -1       637 1.27663E+05 4.67473E+04 1.29234E+03 8.59377E+04 2.08323E-09-1.97088E-09
 -1       638 1.30367E+05 4.41491E+04 2.67356E+03 8.24588E+04 9.54969E-12 1.87947E-09
 -1       639 1.29031E+05 4.90414E+04 6.35460E+03 8.53901E+04-1.55956E-09-8.98808E-10
 -1       640 1.30385E+05 5.08378E+04 1.33606E+04 7.96684E+04-5.05452E-09-7.13908E-09
 -1       641-3.99570E+03 2.26221E+03-5.21499E+03-1.44046E+01 2.03972E-05-2.48203E-08
 -1       642-6.25817E+03-2.61821E+03-3.68937E+03 2.94048E+01 4.07588E-05-4.41312E-08
 -1       643-4.86755E+03 3.55526E+02-1.34330E+03-1.46779E+01 3.76837E-05-4.65851E-08
 -1       644-5.24187E+03-4.10290E+02-8.34680E+02 3.02483E+01 3.45885E-05-3.53849E-08
 -1       645-5.01206E+03 5.47147E+01-3.17856E+02-1.52488E+01 2.40814E-05-3.08114E-08
 -1       646-5.06951E+03-5.70187E+01-1.44476E+02 3.10353E+01 1.35658E-05-1.67065E-08
 -1       647-5.03992E+03 2.31799E+00 1.67490E+01-1.54650E+01-1.04232E-06 4.05243E-09
 -1       648-5.01699E+03 3.75803E+01 1.79955E+02 3.09862E+01-1.56597E-05 1.91889E-08
 -1       649-5.06458E+03-3.98725E+01 3.90728E+02-1.51998E+01-3.30825E-05 4.22206E-08
 -1       650-4.87481E+03 3.04774E+02 9.39250E+02 2.98793E+01-5.05066E-05 5.87061E-08
 -1       651-5.18209E+03-2.64839E+02 1.63005E+03-1.43582E+01-6.84275E-05 8.37513E-08
 -1       652-4.06891E+03 1.95829E+03 4.03550E+03 2.71997E+01-8.63339E-05 9.28349E-08
 -1       653-5.87041E+03-1.69308E+03 6.42184E+03-1.25204E+01-9.52658E-05 1.11676E-07
 -1       654 7.74133E+02 1.24642E+04 1.75785E+04 2.02578E+01-1.04137E-04 9.75024E-08
 -1       655-1.00242E+04-1.07686E+04 2.48288E+04-7.41682E+00-5.21121E-05 3.88663E-08
 -1       656 8.27009E+03-3.07148E+05-3.51303E+04 8.41303E+03-1.19326E-09-5.38193E-09
 -1       657-1.20214E+04-3.20144E+05-2.60052E+04 3.59543E+04-9.88621E-10-6.50107E-09
 -1       658 1.69262E+03-3.11676E+05-1.68356E+04 8.33698E+03-1.37314E-09 1.72224E-09
 -1       659-1.16794E+04-3.19974E+05-2.54281E+04 3.60019E+04-1.70007E-09-1.14488E-09
 -1       660 8.00671E+03-3.07349E+05-3.40386E+04 8.36603E+03-5.52973E-10 3.28259E-09
 -1       661 1.99529E+05 2.76467E+04 1.57353E+04 7.81904E+04 2.99156E-09-6.65113E-09
 -1       662 2.02999E+05 3.67032E+04 9.47585E+03 8.04058E+04 1.03462E-09-9.30754E-10
 -1       663 2.01946E+05 2.99925E+04 3.69323E+03 7.82038E+04-1.58005E-09 3.12002E-09
 -1       664 2.00173E+05 3.29025E+04 1.94904E+03 8.08486E+04 2.22749E-09-3.43911E-09
 -1       665 2.02177E+05 3.02068E+04 8.62633E+02 7.82133E+04 1.91096E-09 7.46468E-10
 -1       666 1.99904E+05 3.25858E+04 4.59303E+02 8.08670E+04 5.05766E-09 1.63211E-09
 -1       667 2.02203E+05 3.02282E+04 2.67794E+02 7.82156E+04 3.13946E-10 4.40492E-09
 -1       668 1.99880E+05 3.25641E+04 2.57756E+02 8.08679E+04-1.16401E-10-4.99838E-09
 -1       669 2.02201E+05 3.02247E+04 3.76772E+02 7.82140E+04-2.15698E-09 1.31996E-09
 -1       670 1.99928E+05 3.26111E+04 7.53977E+02 8.08753E+04 3.63855E-10-3.01702E-09
 -1       671 2.02158E+05 3.01842E+04 1.47582E+03 7.82079E+04 4.21409E-09 2.20882E-09
 -1       672 2.00395E+05 3.31641E+04 3.37046E+03 8.08491E+04 7.57518E-09 1.52227E-09
 -1       673 2.01757E+05 2.98104E+04 6.39951E+03 7.81895E+04 5.77404E-09 9.24047E-10
 -1       674 2.05292E+05 3.97599E+04 1.64309E+04 8.00864E+04 8.94936E-09-9.46557E-10
 -1       675 1.97568E+05 2.57399E+04 2.72864E+04 7.81636E+04 4.49222E-09-1.02409E-09
 -1       676 4.45310E+02-3.03189E+05-2.62338E+03 2.96973E+01 1.29128E-09-2.01057E-09
 -1       677-1.20101E+03-3.04269E+05-3.87000E+03-7.45692E+02-3.23439E-10-2.92495E-10
 -1       678 5.76283E+02-3.03059E+05-5.69553E+03 2.85395E+01 6.67569E-10 2.37463E-10
 -1       679-6.78229E+03-3.07521E+05-1.35308E+04-7.42464E+02 1.98793E-09-5.52978E-09
 -1       680 5.07464E+03-2.99938E+05-2.07741E+04 2.56946E+01 5.39330E-10-1.51680E-09
 -1       716-2.35050E-01-1.12063E-01 1.05175E+01-3.36225E-04 2.37301E-09-1.11851E-09
 -1       717 1.15750E+00 8.44122E-01 1.85233E+01 8.56051E-04 6.44928E-09 1.08635E-09
 -1       718-9.22465E-01-7.32367E-01 3.43742E+01-5.19691E-04 2.72045E-09-1.51738E-09
 -1       719 5.46561E+00 5.74981E+00 7.12983E+01-7.76533E-04-1.62192E-09 2.66451E-10
 -1       720-4.54322E+00-5.01805E+00 1.35985E+02 1.29708E-03-4.69112E-09-2.34755E-09
 -1       721 2.82880E+01 3.83112E+01 2.90625E+02-2.73864E-02-4.24789E-09-1.30278E-09
 -1       722-2.37449E+01-3.32925E+01 5.43953E+02 2.60867E-02-4.73889E-09-2.16409E-09
 -1       723 1.53799E+02 2.49983E+02 1.19814E+03-2.62803E-01-5.79930E-10-8.72362E-10
 -1       724-1.30051E+02-2.16665E+02 2.16963E+03 2.36657E-01-3.92145E-09-2.17631E-09
 -1       725 8.71155E+02 1.61085E+03 5.00035E+03-2.02106E+00-2.67251E-09-8.77264E-10
 -1       726-7.41014E+02-1.39392E+03 8.60315E+03 1.78394E+00-4.38555E-09-2.05819E-09
 -1       727 5.09750E+03 1.03007E+04 2.12384E+04-1.42167E+01-7.26173E-09-5.86397E-10
 -1       728-4.35485E+03-8.90466E+03 3.37895E+04 1.24314E+01-1.20028E-09-2.13549E-09
 -1       729 3.05590E+04 6.55558E+04 9.24603E+04-9.56216E+01 1.39813E-09-1.72986E-09
 -1       730-2.61768E+04-5.66320E+04 1.30658E+05 8.32127E+01 5.48354E-09-2.77942E-09
 -1       766-5.66434E+04-2.62080E+04 1.30635E+05-5.29574E+01 5.82077E-11 1.58857E-09
 -1       767 6.56491E+04 3.06063E+04 9.24511E+04-4.32178E+01 4.59841E-09-3.83750E-10
 -1       768-8.98656E+03-4.42714E+03 3.36789E+04 2.32362E+01-1.78261E-10-1.13452E-10
 -1       769 1.09021E+04 5.38281E+03 2.12484E+04-1.30260E+02 3.20870E-09 4.22840E-09
 -1       770-1.91307E+03-1.01003E+03 8.11243E+03 3.41055E+01-6.48015E-10 1.63578E-09
 -1       771-1.65303E+06-3.22557E+05-4.74094E+04-7.13075E+05-5.68434E-09-2.05182E-09
 -1       772-1.64581E+06-3.29653E+05-2.37200E+04-7.37104E+05-2.36832E-09 4.35739E-09
 -1       773-1.65618E+06-3.08089E+05-1.01371E+04-7.19573E+05 8.73115E-11 8.84938E-09
 -1       774-1.64039E+06-3.24174E+05-4.95134E+03-7.38654E+05-2.49202E-09-8.00537E-09
 -1       775-1.65691E+06-3.07388E+05-2.32188E+03-7.19971E+05-8.36735E-11-3.75621E-10
 -1       776-1.64029E+06-3.23936E+05-1.15821E+03-7.39050E+05-9.45874E-11-1.48475E-09
 -1       777-1.65729E+06-3.07212E+05-6.40581E+02-7.20110E+05-1.34605E-10 4.51564E-10
 -1       778-1.64047E+06-3.23882E+05-4.79437E+02-7.39324E+05-1.55978E-09 2.81375E-12
 -1       779-1.65752E+06-3.07070E+05-5.99737E+02-7.20204E+05 2.80124E-10-3.25144E-11
 -1       780-1.64064E+06-3.23849E+05-1.08119E+03-7.39508E+05-3.56522E-10-3.81988E-11
 -1       781-1.65758E+06-3.06963E+05-2.13712E+03-7.20249E+05-1.05865E-09-1.07593E-09
 -1       782-1.64104E+06-3.24027E+05-4.63198E+03-7.39598E+05-1.02659E-09-6.21185E-10
 -1       783-1.65732E+06-3.07330E+05-9.44525E+03-7.20013E+05-2.08479E-09-1.87356E-09
 -1       784-1.64613E+06-3.29487E+05-2.22668E+04-7.38950E+05-2.15414E-09-2.90311E-09
 -1       785-1.65498E+06-3.20441E+05-4.44258E+04-7.13710E+05 1.81899E-10 1.01863E-09
 -1       786 1.60450E+05-5.06400E+03 2.06887E+04-1.21540E+03 1.69507E-10-1.19326E-09
 -1       787 1.68002E+05 6.71933E+03 1.33367E+04-5.37810E+03-2.16460E-10-7.90351E-10
 -1       788 1.63596E+05-5.35567E+02 5.36540E+03-1.21043E+03-1.68257E-11-2.42039E-09
 -1       789 1.64488E+05 6.84779E+02 3.01298E+03-5.37865E+03-8.68852E-11 2.86951E-09
 -1       790 1.63961E+05-5.88407E+01 1.36409E+03-1.21456E+03 1.15449E-10-7.09861E-10
 -1       791 1.64073E+05 6.90492E+01 7.34405E+02-5.37271E+03 3.13136E-10-3.96248E-09
 -1       792 1.64009E+05-7.32869E+00 3.75214E+02-1.21638E+03 8.51159E-11 4.44913E-10
 -1       793 1.64020E+05 9.38100E+00 2.49621E+02-5.37187E+03-2.05439E-10-1.63872E-09
 -1       794 1.64013E+05-4.05196E+00 2.30023E+02-1.21541E+03-7.03722E-11-4.10966E-09
 -1       795 1.64037E+05 2.95561E+01 3.50711E+02-5.37684E+03 6.36874E-10-1.53242E-09
 -1       796 1.63994E+05-2.59444E+01 6.03068E+02-1.21141E+03-9.64064E-11-3.94694E-09
 -1       797 1.64215E+05 2.92926E+02 1.30347E+03-5.38628E+03 1.92813E-10-2.68884E-09
 -1       798 1.63838E+05-2.31316E+02 2.30927E+03-1.20597E+03-9.15975E-10 1.50692E-09
 -1       799 1.65728E+05 2.88509E+03 5.73309E+03-5.38645E+03-1.20218E-09-9.02503E-10
 -1       800 1.62486E+05-2.17822E+03 8.88955E+03-1.21140E+03 7.83075E-10 3.43334E-10
 -1       801-9.17299E+03 1.68934E+05 2.51349E+04-2.35444E+05 4.85670E-10 3.05590E-09
 -1       802 2.54990E+04 1.74562E+05 3.58181E+04-1.02771E+06 1.21981E-08 2.76486E-09
 -1       803-4.79690E+02 1.65826E+05 4.50268E+04-2.34745E+05 6.29734E-09 5.09772E-09
 -1       804 6.39831E+04 1.97220E+05 1.02572E+05-1.02761E+06 8.25821E-09-4.16003E-09
 -1       805-4.12338E+04 1.46551E+05 1.50586E+05-2.35559E+05 6.25732E-09 2.76486E-10
 -1       806-1.48760E+05-4.42673E+04-1.25099E+04-7.52049E+04 6.36646E-10-4.62933E-10
 -1       807-1.48277E+05-4.17967E+04-5.94897E+03-7.96746E+04-8.05812E-10-1.26772E-09
 -1       808-1.48750E+05-3.80053E+04-2.50361E+03-7.78327E+04 2.05864E-09 7.59314E-09
 -1       809-1.47019E+05-3.96342E+04-1.21040E+03-8.01852E+04 7.99332E-10-2.12441E-09
 -1       810-1.48788E+05-3.75975E+04-5.46431E+02-7.80156E+04-8.04903E-11 1.26647E-09
 -1       811-1.46899E+05-3.94988E+04-2.69704E+02-8.02054E+04 6.86668E-11 2.38629E-09
 -1       812-1.48800E+05-3.75883E+04-1.32784E+02-7.80233E+04 4.48438E-10 8.15362E-10
 -1       813-1.46886E+05-3.94969E+04-8.21353E+01-8.02015E+04-2.51204E-09-5.27712E-09
 -1       814-1.48800E+05-3.75925E+04-7.41419E+01-7.80216E+04 4.24393E-10-3.07318E-09
 -1       815-1.46887E+05-3.95004E+04-1.13986E+02-8.01985E+04-8.22183E-10 2.04614E-09
 -1       816-1.48791E+05-3.75999E+04-2.12371E+02-7.80164E+04-1.44655E-09 2.54886E-09
 -1       817-1.46934E+05-3.95477E+04-4.61400E+02-8.01793E+04 1.00044E-10-2.07137E-09
 -1       818-1.48766E+05-3.77642E+04-9.50315E+02-7.79506E+04-8.74934E-10-6.45286E-10
 -1       819-1.47460E+05-4.03132E+04-2.25495E+03-7.99167E+04-3.37741E-09-2.24486E-09
 -1       820-1.48710E+05-4.01876E+04-4.74067E+03-7.70080E+04 5.63887E-10 1.11163E-09
 -1       821-2.08760E+05 6.26181E+03-2.55991E+04 1.43373E+03-2.13049E-09 7.92170E-10
 -1       822-2.18091E+05-8.31365E+03-1.65019E+04 6.52917E+03-1.29626E-09 2.27192E-09
 -1       823-2.12653E+05 6.60573E+02-6.64227E+03 1.39066E+03 2.49452E-09-7.15318E-10
 -1       824-2.13754E+05-8.41238E+02-3.73295E+03 6.58839E+03-1.65619E-09-2.74554E-09
 -1       825-2.13107E+05 7.31744E+01-1.70045E+03 1.37411E+03-4.03872E-09-1.44200E-09
 -1       826-2.13250E+05-7.62566E+01-9.33494E+02 6.61530E+03-7.37276E-09 3.75883E-09
 -1       827-2.13165E+05 1.14458E+01-5.14276E+02 1.36366E+03-4.12501E-09-4.42270E-10
 -1       828-2.13195E+05-4.40250E+00-4.12075E+02 6.63161E+03-5.82054E-09-5.44475E-10
 -1       829-2.13166E+05 1.14600E+01-4.85578E+02 1.35778E+03-8.61320E-10 9.88681E-10
 -1       830-2.13248E+05-6.64319E+01-8.58507E+02 6.63813E+03 3.35612E-09 1.67650E-09
 -1       831-2.13114E+05 6.86920E+01-1.55059E+03 1.35714E+03-2.75244E-09 4.88967E-10
 -1       832-2.13711E+05-7.60331E+02-3.39837E+03 6.63403E+03-1.01966E-09 1.51783E-09
 -1       833-2.12702E+05 6.04211E+02-6.04224E+03 1.36197E+03-5.62466E-10-9.73841E-10
 -1       834-2.17661E+05-7.55647E+03-1.50126E+04 6.60912E+03 2.03542E-09 9.90440E-10
 -1       835-2.09161E+05 5.70090E+03-2.32857E+04 1.38289E+03 2.77737E-10-2.79033E-09
 -1       836-3.26734E+03 3.38107E+05 2.78757E+04-1.70004E+04-1.70985E-09-9.06994E-10
 -1       837 7.09600E+03 3.47294E+05 2.15054E+04-4.02974E+04-1.45192E-09 2.03090E-09
 -1       838-7.75636E+02 3.41119E+05 1.78687E+04-1.69555E+04-2.03227E-09 1.65655E-09
 -1       839 1.14144E+04 3.50268E+05 3.07316E+04-4.02967E+04-1.30240E-09 3.18329E-09
 -1       840-5.66210E+03 3.35132E+05 4.61920E+04-1.70007E+04-1.54614E-09 1.77283E-09
 -1       841 5.26290E+04 7.61982E+03-5.79522E+02 1.96265E+04-2.14694E-05 8.05822E-06
 -1       842 5.22276E+04 7.19979E+03-3.97902E+02 1.98566E+04-4.29159E-05 1.61264E-05
 -1       843 5.24960E+04 7.43399E+03-1.33213E+02 1.96919E+04-3.33992E-05 1.25422E-05
 -1       844 5.23889E+04 7.40849E+03-7.80935E+01 1.97727E+04-2.38429E-05 8.96700E-06
 -1       845 5.24677E+04 7.41117E+03-1.94566E+01 1.97104E+04-1.65093E-05 6.20232E-06
 -1       846 5.24277E+04 7.43552E+03 9.56374E+00 1.97469E+04-9.17781E-06 3.44890E-06
 -1       847 5.24571E+04 7.40697E+03 4.53637E+01 1.97176E+04-5.52398E-06 2.07386E-06
 -1       848 5.24570E+04 7.46494E+03 1.22112E+02 1.97340E+04-1.86665E-06 7.05984E-07
 -1       849 5.24384E+04 7.38176E+03 2.28199E+02 1.97233E+04-4.64387E-07 1.75407E-07
 -1       850 5.25746E+04 7.65640E+03 5.78531E+02 1.97020E+04 9.37472E-07-3.54043E-07
 -1       851 5.23394E+04 7.21554E+03 9.99474E+02 1.97496E+04 6.77835E-07-2.57837E-07
 -1       852 5.32811E+04 8.87407E+03 2.69908E+03 1.94909E+04 4.18482E-07-1.60375E-07
 -1       853 5.17319E+04 6.16425E+03 4.31633E+03 1.99343E+04-1.47017E-06 5.60512E-07
 -1       854 5.76443E+04 1.65786E+04 1.27994E+04 1.80606E+04-3.36548E-06 1.26568E-06
 -1       855 4.79765E+04-4.87720E+02 1.84228E+04 2.11795E+04-1.68385E-06 6.30229E-07
 -1       856-1.75176E+05 2.57883E+03-2.05444E+04 5.91602E+03-3.92265E-09 2.28556E-09
 -1       857-1.81889E+05-4.95956E+03-1.25476E+04 1.42021E+04-4.53974E-09 1.79534E-09
 -1       858-1.78078E+05 2.38292E+02-5.27505E+03 5.84909E+03 1.03319E-09-1.76851E-09
 -1       859-1.78741E+05-3.45789E+02-2.83833E+03 1.42788E+04 6.67342E-09-4.24438E-09
 -1       860-1.78355E+05 3.81989E+01-1.33217E+03 5.83787E+03 2.45223E-09-1.44905E-09
 -1       861-1.78448E+05 7.58434E+00-7.01142E+02 1.42938E+04-6.18775E-09 8.94715E-11
 -1       862-1.78390E+05 1.92622E+01-3.67059E+02 5.83383E+03 5.37364E-09-1.53142E-09
 -1       863-1.78417E+05 3.44604E+01-2.44894E+02 1.42985E+04 1.29899E-08-4.86062E-09
 -1       864-1.78394E+05 1.79000E+01-2.33577E+02 5.83322E+03 6.37766E-09 4.34341E-10
 -1       865-1.78426E+05 2.32919E+01-3.55866E+02 1.42957E+04 1.06374E-08-2.87642E-09
 -1       866-1.78378E+05 2.53724E+01-6.30365E+02 5.83659E+03 3.70846E-10 2.12452E-10
 -1       867-1.78556E+05-1.41394E+02-1.31677E+03 1.42836E+04 9.58607E-10 6.85876E-10
 -1       868-1.78248E+05 1.15418E+02-2.43707E+03 5.84547E+03 5.75346E-09-2.15141E-09
 -1       869-1.79999E+05-2.27206E+03-5.78773E+03 1.42139E+04 1.83104E-09-7.81768E-10
 -1       870-1.76907E+05 1.19100E+03-9.47653E+03 5.90708E+03 7.67295E-09-1.27102E-09
 -1       871-2.89812E+03-2.35518E+04-6.17292E+03 8.63182E+04 1.35515E-10-1.27602E-09
 -1       872-9.82119E+02-2.47587E+04-1.91243E+03 1.04140E+05 3.30147E-09-3.79532E-09
 -1       873 5.69562E+00-2.42966E+04 1.63141E+03 8.61399E+04 7.68523E-10-2.63822E-09
 -1       874 1.78762E+03-2.28476E+04 6.37464E+03 1.04211E+05 1.12595E-09-2.52385E-11
 -1       875 5.60881E+03-2.55378E+04 1.36442E+04 8.62551E+04 8.79481E-10 6.68933E-10
 -1       876 2.55992E+05 3.68158E+04 2.28830E+04 1.01748E+05 1.24123E-09-1.84627E-09
 -1       877 2.60191E+05 4.95214E+04 1.36001E+04 1.05877E+05-3.70028E-09 9.56561E-10
 -1       878 2.59380E+05 3.96709E+04 5.35337E+03 1.01935E+05 1.30012E-09 1.24032E-09
 -1       879 2.56192E+05 4.43270E+04 2.79592E+03 1.06436E+05 2.44790E-09-3.83636E-09
 -1       880 2.59683E+05 3.99307E+04 1.24255E+03 1.01965E+05 3.92583E-09 3.57568E-09
 -1       881 2.55833E+05 4.39167E+04 6.49380E+02 1.06440E+05 6.39488E-11-4.55771E-10
 -1       882 2.59712E+05 3.99622E+04 3.62015E+02 1.01972E+05 5.38353E-09 3.47046E-09
 -1       883 2.55803E+05 4.38837E+04 3.17303E+02 1.06430E+05-8.21339E-09 1.37661E-09
 -1       884 2.59708E+05 3.99629E+04 4.33601E+02 1.01973E+05-1.85328E-09 1.64619E-09
 -1       885 2.55853E+05 4.39232E+04 8.41480E+02 1.06434E+05 7.33196E-09-8.18545E-12
 -1       886 2.59663E+05 3.99261E+04 1.64507E+03 1.01967E+05 4.84744E-09 5.02416E-09
 -1       887 2.56336E+05 4.44642E+04 3.72001E+03 1.06417E+05-4.38422E-09-1.13096E-09
 -1       888 2.59252E+05 3.95846E+04 7.13083E+03 1.01930E+05-2.52265E-09 1.50476E-09
 -1       889 2.61652E+05 5.13951E+04 1.81194E+04 1.05679E+05 1.72078E-08-5.19549E-10
 -1       890 2.54747E+05 3.57707E+04 3.04892E+04 1.01665E+05 3.53202E-09-5.46970E-09
 -1       891 5.72027E+02-1.28180E+05-5.24347E+03 2.59102E+04 2.25327E-10 2.46609E-09
 -1       892-1.39154E+03-1.29866E+05-3.98276E+03 6.16888E+04-3.20119E-09 5.37977E-09
 -1       893 1.15272E+02-1.28775E+05-3.22589E+03 2.58314E+04 2.38106E-09 3.57721E-09
 -1       894-2.08338E+03-1.30324E+05-5.44762E+03 6.16720E+04-1.10504E-09-4.05703E-09
 -1       895 9.41731E+02-1.27697E+05-8.15433E+03 2.59266E+04 2.22826E-10 1.76624E-09
 -1       926-4.07654E+02-7.35631E+02 1.68412E+03 2.83846E+01 3.03903E-10-7.68750E-10
 -1       927 4.44195E+02 8.51713E+02 1.22602E+03-1.12320E+02-2.25024E-09-1.00897E-09
 -1       928-1.09022E+02-1.16220E+02 4.65008E+02 2.77440E+01 2.30882E-11-4.74500E-10
 -1       929 8.99574E+01 1.39084E+02 3.54813E+02-1.11665E+02 1.19968E-09-4.98201E-10
 -1       930-5.35953E+01-2.30139E+01 2.46540E+02 2.77297E+01 7.42810E-11-2.23631E-10
 -1       931 3.74118E+01 5.94767E+01 3.64756E+02-1.11655E+02-2.67768E-10-1.04190E-10
 -1       932-5.66102E+01-3.65341E+01 5.81122E+02 2.77334E+01-2.87499E-10-3.80567E-11
 -1       933 1.42269E+02 2.57597E+02 1.23799E+03-1.11642E+02-7.90606E-10 1.34889E-10
 -1       934-1.58536E+02-2.21050E+02 2.21801E+03 2.77171E+01-4.26804E-07 1.76215E-11
 -1       935 8.65211E+02 1.64188E+03 5.10021E+03-1.11541E+02-8.52691E-07 9.51559E-11
 -1       936-7.79504E+02-1.42056E+03 8.77004E+03 2.76324E+01-2.99945E-07 1.09139E-10
 -1       937 5.17304E+03 1.04984E+04 2.16472E+04-1.11789E+02 2.56299E-07 3.67436E-10
 -1       938-4.46475E+03-9.07554E+03 3.44381E+04 2.79647E+01-1.47651E-07-1.03682E-10
 -1       939 3.11316E+04 6.68154E+04 9.42373E+04-1.23411E+02-5.58726E-07 4.18368E-11
 -1       940-2.67113E+04-5.77206E+04 1.33164E+05 3.92532E+01-2.84629E-07 6.69388E-10
 -1       956-2.42286E+05-4.11815E+03-1.06477E+04 2.73262E+04 6.42103E-10 6.63931E-11
 -1       957-2.44419E+05-1.40407E+03-5.47850E+03 3.30821E+04 7.30688E-09 1.05638E-09
 -1       958-2.43258E+05-1.01391E+02-2.46953E+03 2.71524E+04 7.14226E-09-1.22350E-09
 -1       959-2.43437E+05-4.93476E+00-1.26081E+03 3.32708E+04-2.18279E-10-2.61275E-09
 -1       960-2.43355E+05 4.80165E+01-6.14286E+02 2.71362E+04-3.56613E-09 4.22006E-10
 -1       961-2.43379E+05 5.38540E+01-3.23270E+02 3.32892E+04-6.96309E-09 8.30369E-10
 -1       962-2.43381E+05 4.89425E+01-1.80900E+02 2.71338E+04-3.91719E-09 1.25760E-09
 -1       963-2.43383E+05 5.91754E+01-1.37476E+02 3.32924E+04-6.47140E-09 7.20092E-10
 -1       964-2.43388E+05 5.28124E+01-1.57777E+02 2.71329E+04-3.47654E-09-1.29921E-09
 -1       965-2.43394E+05 6.27560E+01-2.65027E+02 3.32923E+04 4.81583E-09 1.34401E-09
 -1       966-2.43380E+05 5.91858E+01-4.93547E+02 2.71338E+04-2.66232E-09 5.04474E-09
 -1       967-2.43453E+05 2.28231E+01-1.00961E+03 3.32815E+04-7.00493E-09 1.72713E-09
 -1       968-2.43312E+05-5.40681E+01-1.97453E+03 2.71439E+04-5.95628E-09-7.87395E-10
 -1       969-2.44250E+05-1.09108E+03-4.38223E+03 3.31608E+04-2.25373E-09-1.59577E-09
 -1       970-2.42541E+05-3.26390E+03-8.51565E+03 2.72571E+04 1.23237E-10 2.18188E-09
 -1       971-3.11509E+05 1.36765E+03-1.44342E+04 6.84896E+03-3.69255E-09 9.67248E-10
 -1       972-3.16072E+05-3.22805E+03-8.70152E+03 1.50555E+04-5.85260E-09 5.59953E-09
 -1       973-3.13509E+05 1.30311E+02-3.69706E+03 6.75986E+03-6.92489E-09 7.07132E-11
 -1       974-3.13926E+05-1.97608E+02-1.97959E+03 1.51619E+04-5.50608E-09-5.46606E-10
 -1       975-3.13693E+05 2.79080E+01-9.49663E+02 6.74152E+03-1.53818E-09 1.02489E-09
 -1       976-3.13744E+05 2.03129E+01-5.25506E+02 1.51886E+04-6.09634E-09 9.38201E-10
 -1       977-3.13718E+05 2.00887E+01-3.30342E+02 6.73299E+03 2.91755E-09 4.43379E-12
 -1       978-3.13734E+05 3.67479E+01-3.21909E+02 1.52003E+04 1.09969E-08-2.33069E-09
 -1       979-3.13717E+05 2.33926E+01-4.60226E+02 6.72983E+03 3.30812E-09 2.96666E-10
 -1       980-3.13775E+05 1.31357E+01-8.61761E+02 1.52009E+04 7.55722E-09 1.37197E-09
 -1       981-3.13679E+05 4.46510E+01-1.63419E+03 6.73240E+03-1.10344E-09 2.69927E-09
 -1       982-3.14116E+05-3.59882E+02-3.45772E+03 1.51884E+04-7.54994E-10-3.72893E-11
 -1       983-3.13364E+05 2.33148E+02-6.47359E+03 6.74261E+03 2.50566E-10-1.25397E-09
 -1       984-3.17906E+05-5.66557E+03-1.52611E+04 1.51151E+04-4.51723E-09-3.58568E-10
 -1       985-3.09866E+05 2.41515E+03-2.53102E+04 6.80828E+03 7.04858E-10 9.29504E-10
 -3
    1PSTEP                        17           9           1          
  100CL  109 6.52832E-01         568                     0    9           1
 -4  DISP        4    1
 -5  D1          1    2    1    0
 -5  D2          1    2    2    0
 -5  D3          1    2    3    0
 -5  ALL         1    2    0    0    1ALL
 -1         1 9.58652E-05 0.00000E+00 0.00000E+00
 -1         2 9.58740E-05 0.00000E+00 0.00000E+00
 -1         3 6.54388E-05-2.17257E-27 1.32349E-23
 -1         4 4.83626E-05-1.29570E-28 0.00000E+00
 -1         5 4.89427E-05-3.70303E-26 6.61744E-24
 -1         8 7.62788E-05-9.46854E-07 0.00000E+00
 -1         9 6.05323E-05-6.00770E-06 0.00000E+00
 -1        10 5.98027E-05-1.90142E-06 0.00000E+00
 -1        11 4.80649E-05-5.32325E-06 0.00000E+00
 -1        12 4.80732E-05 7.98755E-07 0.00000E+00
 -1        15 5.53502E-05-1.00919E-06 0.00000E+00
 -1        16 4.82753E-05-6.13301E-06 0.00000E+00
 -1        17 4.41389E-05-3.81084E-06 0.00000E+00
 -1        18 4.41087E-05-4.46990E-07 0.00000E+00
 -1        19 4.54765E-05 1.59186E-06 0.00000E+00
 -1        20 4.59667E-05 1.86279E-05 0.00000E+00
 -1        21 4.59159E-05 4.13914E-05 0.00000E+00
 -1        23 1.72047E-05-6.04224E-05 0.00000E+00
 -1        24 1.70660E-05-4.67116E-06 0.00000E+00
 -1        25 4.10579E-05-2.17659E-07 0.00000E+00
 -1        26 4.21725E-05 2.12546E-06 0.00000E+00
 -1        27 4.07243E-05 1.78457E-05 0.00000E+00
 -1        28 3.94995E-05 4.06177E-05 0.00000E+00
 -1        31 5.05559E-08-4.73984E-06 0.00000E+00
 -1        32 0.00000E+00 0.00000E+00 0.00000E+00
 -1        33 3.84144E-05 2.97690E-06 0.00000E+00
 -1        34 3.67516E-05 1.77792E-05 0.00000E+00
 -1        35 3.46056E-05 4.02895E-05 0.00000E+00
 -1        36 9.58547E-05-9.67771E-20 3.30872E-24
 -1        37 9.58554E-05-2.45179E-19-8.27181E-25
 -1        38 9.58553E-05-7.26978E-19 0.00000E+00
 -1        39 9.58573E-05-1.27559E-18 0.00000E+00
 -1        40 9.58594E-05-1.79212E-18-2.06795E-25
 -1        41 9.58620E-05-2.19892E-18 0.00000E+00
 -1        42 9.58645E-05-2.30464E-18 0.00000E+00
 -1        43 9.58672E-05-2.09610E-18 0.00000E+00
 -1        44 9.58698E-05-2.04873E-18 0.00000E+00
 -1        45 9.58724E-05-1.46325E-18-1.29247E-26
 -1        46 9.58750E-05-8.14570E-19-1.03398E-25
 -1        47 9.58773E-05-1.48298E-19 0.00000E+00
 -1        48 9.58795E-05-6.93820E-20 0.00000E+00
 -1        49 9.58801E-05 4.08192E-20 0.00000E+00
 -1        50 9.58812E-05 2.03977E-19-3.30872E-24
 -1        51 9.43859E-05-1.57889E-07 0.00000E+00
 -1        52 9.19344E-05-3.11078E-07 0.00000E+00
 -1        53 8.86997E-05-4.64258E-07 0.00000E+00
 -1        54 8.48795E-05-6.19287E-07 0.00000E+00
 -1        55 8.06726E-05-7.77856E-07-1.44757E-24
 -1        56 9.39849E-05-1.02993E-06 0.00000E+00
 -1        57 9.22303E-05-2.62211E-06 0.00000E+00
 -1        58 9.06243E-05-4.59799E-06-5.29396E-23
 -1        59 8.90853E-05-6.79275E-06 0.00000E+00
 -1        60 8.75499E-05-8.99806E-06 0.00000E+00
 -1        61 8.59398E-05-1.10106E-05-2.64698E-23
 -1        62 8.41918E-05-1.26550E-05 0.00000E+00
 -1        63 8.22481E-05-1.37777E-05 0.00000E+00
 -1        64 8.00804E-05-1.43031E-05-5.29396E-23
 -1        65 7.76730E-05-1.41894E-05 2.64698E-23
 -1        66 7.50458E-05-1.34907E-05 0.00000E+00
 -1        67 7.22333E-05-1.22937E-05 2.64698E-23
 -1        68 6.92944E-05-1.07608E-05 0.00000E+00
 -1        69 6.63092E-05-9.06811E-06 0.00000E+00
 -1        70 6.33383E-05-7.42611E-06 0.00000E+00
 -1        86 1.07831E-04-5.67526E-07-1.32349E-23
 -1        87 1.43345E-04-1.66746E-06 0.00000E+00
 -1        88 1.62704E-04-2.45766E-06-1.32349E-23
 -1        89 1.26647E-04-3.69233E-06 0.00000E+00
 -1        90 7.81497E-05-5.33413E-06-1.32349E-23
 -1       121 6.52809E-05-3.16439E-07 0.00000E+00
 -1       122 6.48076E-05-6.32964E-07 3.30872E-24
 -1       123 6.40204E-05-9.49675E-07 6.61744E-24
 -1       124 6.29214E-05-1.26662E-06 6.61744E-24
 -1       125 6.15141E-05-1.58394E-06 6.61744E-24
 -1       161 4.83651E-05-6.75799E-09 0.00000E+00
 -1       162 4.83727E-05-2.70077E-08-5.04871E-29
 -1       163 4.83837E-05-5.62459E-08 2.01948E-28
 -1       164 4.83963E-05-8.99685E-08-2.01948E-28
 -1       165 4.84090E-05-1.23671E-07 0.00000E+00
 -1       166 4.84199E-05-1.52850E-07 1.61559E-27
 -1       167 4.84275E-05-1.73002E-07 0.00000E+00
 -1       168 4.84300E-05-1.79621E-07-6.46235E-27
 -1       169 4.84257E-05-1.68203E-07 0.00000E+00
 -1       170 4.84130E-05-1.34233E-07 2.58494E-26
 -1       171 4.83902E-05-7.32162E-08 0.00000E+00
 -1       172 4.83558E-05 1.94173E-08-1.03398E-25
 -1       173 4.83078E-05 1.48110E-07 0.00000E+00
 -1       174 4.82456E-05 3.17741E-07 0.00000E+00
 -1       175 4.81660E-05 5.32380E-07 0.00000E+00
 -1       191 4.89185E-05 1.33160E-07 0.00000E+00
 -1       192 4.88460E-05 2.66316E-07 0.00000E+00
 -1       193 4.87251E-05 3.99465E-07 0.00000E+00
 -1       194 4.85559E-05 5.32601E-07 0.00000E+00
 -1       195 4.83384E-05 6.65710E-07 6.61744E-24
 -1       251 7.54892E-05 4.04459E-06-1.32349E-23
 -1       252 7.46678E-05 1.18909E-05 1.32349E-23
 -1       253 7.38588E-05 1.15709E-05-2.64698E-23
 -1       254 7.28758E-05-7.63520E-06 0.00000E+00
 -1       255 7.19707E-05-1.82029E-05 0.00000E+00
 -1       256 7.08212E-05 7.04667E-06-1.32349E-23
 -1       257 6.97571E-05 2.58139E-05 0.00000E+00
 -1       258 6.84425E-05-3.91258E-06 0.00000E+00
 -1       259 6.71345E-05-3.32916E-05-2.64698E-23
 -1       260 6.60490E-05-1.34969E-05 1.32349E-23
 -1       261 6.48804E-05 1.23402E-05-2.64698E-23
 -1       262 6.39604E-05 8.18598E-07-1.32349E-23
 -1       263 6.29579E-05-1.92985E-05-2.64698E-23
 -1       264 6.21462E-05-1.89013E-05-1.32349E-23
 -1       265 6.13185E-05-1.02744E-05 1.32349E-23
 -1       266 7.27907E-05-9.70865E-07-6.61744E-24
 -1       267 6.93026E-05-9.79587E-07 0.00000E+00
 -1       268 6.58145E-05-9.89299E-07 0.00000E+00
 -1       269 6.23264E-05-9.96120E-07 0.00000E+00
 -1       270 5.88383E-05-1.00288E-06 0.00000E+00
 -1       271 7.35513E-05 1.48625E-06 2.64698E-23
 -1       272 7.10866E-05 3.06051E-06 0.00000E+00
 -1       273 6.89107E-05 3.87230E-06-5.29396E-23
 -1       274 6.69808E-05 4.00663E-06 0.00000E+00
 -1       275 6.52665E-05 3.56377E-06 5.29396E-23
 -1       276 6.37273E-05 2.65033E-06 2.64698E-23
 -1       277 6.23213E-05 1.38009E-06-5.29396E-23
 -1       278 6.10040E-05-1.27878E-07 2.64698E-23
 -1       279 5.97298E-05-1.75115E-06-5.29396E-23
 -1       280 5.84525E-05-3.36543E-06 0.00000E+00
 -1       281 5.71256E-05-4.84667E-06 0.00000E+00
 -1       282 5.57045E-05-6.07270E-06-2.64698E-23
 -1       283 5.41443E-05-6.92526E-06 0.00000E+00
 -1       284 5.24084E-05-7.28977E-06 0.00000E+00
 -1       285 5.04492E-05-7.06322E-06-2.64698E-23
 -1       286 6.04731E-05-4.12846E-06-6.61744E-24
 -1       287 6.04273E-05-2.51650E-06 0.00000E+00
 -1       288 6.03812E-05-1.39895E-06 0.00000E+00
 -1       289 6.03382E-05-1.00196E-06-8.27181E-25
 -1       290 6.02953E-05-1.31007E-06 1.65436E-24
 -1       291 6.02525E-05-2.30646E-06-8.27181E-25
 -1       292 6.02092E-05-3.74340E-06 1.65436E-24
 -1       293 6.01657E-05-5.37237E-06 0.00000E+00
 -1       294 6.01224E-05-6.88037E-06 1.65436E-24
 -1       295 6.00795E-05-7.95465E-06 0.00000E+00
 -1       296 6.00371E-05-8.42790E-06-1.65436E-24
 -1       297 5.99943E-05-8.13394E-06 0.00000E+00
 -1       298 5.99510E-05-7.16382E-06 1.65436E-24
 -1       299 5.99050E-05-5.60985E-06 0.00000E+00
 -1       300 5.98592E-05-3.75965E-06 0.00000E+00
 -1       301 5.84756E-05-6.03589E-06 0.00000E+00
 -1       302 5.64054E-05-6.04899E-06 0.00000E+00
 -1       303 5.43359E-05-6.06024E-06-3.30872E-24
 -1       304 5.22816E-05-6.07274E-06 9.92617E-24
 -1       305 5.02567E-05-6.08956E-06 0.00000E+00
 -1       306 5.90778E-05-4.66657E-06 2.64698E-23
 -1       307 5.78365E-05-3.95545E-06 0.00000E+00
 -1       308 5.67952E-05-3.77504E-06-2.64698E-23
 -1       309 5.59140E-05-4.03044E-06-1.32349E-23
 -1       310 5.51583E-05-4.62138E-06 0.00000E+00
 -1       311 5.44894E-05-5.44582E-06 1.32349E-23
 -1       312 5.38689E-05-6.39985E-06 0.00000E+00
 -1       313 5.32576E-05-7.37861E-06 1.32349E-23
 -1       314 5.26162E-05-8.27702E-06 0.00000E+00
 -1       315 5.19057E-05-8.99064E-06 0.00000E+00
 -1       316 5.10876E-05-9.41647E-06 0.00000E+00
 -1       317 5.01245E-05-9.45370E-06 0.00000E+00
 -1       318 4.89792E-05-9.00461E-06 0.00000E+00
 -1       319 4.76199E-05-7.97409E-06 0.00000E+00
 -1       320 4.60075E-05-6.27424E-06 0.00000E+00
 -1       336 5.77922E-05-2.21939E-06-6.61744E-24
 -1       337 5.55073E-05-2.53804E-06 0.00000E+00
 -1       338 5.29731E-05-2.85715E-06 0.00000E+00
 -1       339 5.02157E-05-3.17611E-06-3.30872E-24
 -1       340 4.72618E-05-3.49570E-06 6.61744E-24
 -1       356 4.80648E-05-4.92427E-06 0.00000E+00
 -1       357 4.80647E-05-4.51851E-06 1.00974E-28
 -1       358 4.80646E-05-4.10788E-06-4.03897E-28
 -1       359 4.80646E-05-3.69432E-06 4.03897E-28
 -1       360 4.80645E-05-3.27974E-06 0.00000E+00
 -1       361 4.80644E-05-2.86606E-06 0.00000E+00
 -1       362 4.80643E-05-2.45519E-06 0.00000E+00
 -1       363 4.80643E-05-2.04907E-06 0.00000E+00
 -1       364 4.80642E-05-1.64961E-06 2.58494E-26
 -1       365 4.80642E-05-1.25872E-06 2.58494E-26
 -1       366 4.80642E-05-8.78341E-07 0.00000E+00
 -1       367 4.80645E-05-5.10374E-07 0.00000E+00
 -1       368 4.80647E-05-1.56750E-07 0.00000E+00
 -1       369 4.80660E-05 1.80607E-07 0.00000E+00
 -1       370 4.80670E-05 4.99757E-07-1.65436E-24
 -1       376 4.79177E-05-4.93105E-06 5.04871E-29
 -1       377 4.77731E-05-4.54557E-06-5.04871E-29
 -1       378 4.76300E-05-4.16422E-06 0.00000E+00
 -1       379 4.74875E-05-3.78442E-06-2.01948E-28
 -1       380 4.73446E-05-3.40361E-06 0.00000E+00
 -1       381 4.72004E-05-3.01920E-06 8.07794E-28
 -1       382 4.70538E-05-2.62862E-06-3.23117E-27
 -1       383 4.69040E-05-2.22929E-06 3.23117E-27
 -1       384 4.67499E-05-1.81862E-06 0.00000E+00
 -1       385 4.65907E-05-1.39405E-06 1.29247E-26
 -1       386 4.64252E-05-9.52995E-07 5.16988E-26
 -1       387 4.62527E-05-4.92835E-07 0.00000E+00
 -1       388 4.60721E-05-1.10374E-08 0.00000E+00
 -1       389 4.58830E-05 4.95205E-07 0.00000E+00
 -1       390 4.56836E-05 1.02819E-06 0.00000E+00
 -1       406 4.77607E-05 9.31766E-07-6.61744E-24
 -1       407 4.74004E-05 1.06475E-06 0.00000E+00
 -1       408 4.69918E-05 1.19763E-06-6.61744E-24
 -1       409 4.65349E-05 1.33020E-06 0.00000E+00
 -1       410 4.60296E-05 1.46212E-06 0.00000E+00
 -1       501 4.81379E-05 1.39783E-06 1.32349E-23
 -1       502 4.78825E-05 2.01060E-05 3.30872E-24
 -1       503 4.75759E-05 4.15838E-05 3.30872E-24
 -1       504 4.73751E-05 5.74179E-05-1.65436E-24
 -1       505 4.72725E-05 6.25254E-05 3.30872E-24
 -1       506 4.71289E-05 5.18639E-05 0.00000E+00
 -1       507 4.67916E-05 2.87796E-05 3.30872E-24
 -1       508 4.62146E-05-3.33428E-06 0.00000E+00
 -1       509 4.56276E-05-3.57868E-05 0.00000E+00
 -1       510 4.52680E-05-5.98860E-05-1.65436E-24
 -1       511 4.51102E-05-7.18684E-05 3.30872E-24
 -1       512 4.50139E-05-6.80161E-05 1.65436E-24
 -1       513 4.48262E-05-5.30225E-05 0.00000E+00
 -1       514 4.45251E-05-3.16236E-05 1.65436E-24
 -1       515 4.42634E-05-1.23712E-05 3.30872E-24
 -1       521 4.60366E-05-5.14100E-06 0.00000E+00
 -1       522 4.39598E-05-4.71675E-06 0.00000E+00
 -1       523 4.20610E-05-4.76267E-06 0.00000E+00
 -1       524 4.02991E-05-5.19334E-06-2.64698E-23
 -1       525 3.86447E-05-5.91296E-06-5.29396E-23
 -1       526 3.70605E-05-6.82333E-06 0.00000E+00
 -1       527 3.55095E-05-7.82308E-06 5.29396E-23
 -1       528 3.39535E-05-8.80973E-06 0.00000E+00
 -1       529 3.23541E-05-9.68091E-06 0.00000E+00
 -1       530 3.06740E-05-1.03361E-05-2.64698E-23
 -1       531 2.88766E-05-1.06780E-05-5.29396E-23
 -1       532 2.69280E-05-1.06140E-05 2.64698E-23
 -1       533 2.47952E-05-1.00577E-05-5.29396E-23
 -1       534 2.24540E-05-8.92841E-06 0.00000E+00
 -1       535 1.98699E-05-7.15852E-06 0.00000E+00
 -1       536 4.41244E-05-9.90626E-07 0.00000E+00
 -1       537 4.41199E-05 1.15298E-06-8.27181E-25
 -1       538 4.41163E-05 2.69002E-06-1.65436E-24
 -1       539 4.41147E-05 3.69107E-06-8.27181E-25
 -1       540 4.41137E-05 4.22657E-06 0.00000E+00
 -1       541 4.41129E-05 4.36703E-06 0.00000E+00
 -1       542 4.41123E-05 4.18293E-06 0.00000E+00
 -1       543 4.41117E-05 3.74478E-06 1.03398E-25
 -1       544 4.41110E-05 3.12307E-06 0.00000E+00
 -1       545 4.41102E-05 2.38829E-06 0.00000E+00
 -1       546 4.41094E-05 1.61095E-06 0.00000E+00
 -1       547 4.41087E-05 8.61541E-07 0.00000E+00
 -1       548 4.41081E-05 2.10562E-07 2.06795E-25
 -1       549 4.41078E-05-2.71500E-07 0.00000E+00
 -1       550 4.41076E-05-5.14108E-07 8.27181E-25
 -1       551 4.01152E-05-3.94851E-06-4.13590E-24
 -1       552 3.56031E-05-4.08514E-06 2.06795E-24
 -1       553 3.08206E-05-4.22304E-06 0.00000E+00
 -1       554 2.59895E-05-4.36327E-06 0.00000E+00
 -1       555 2.13318E-05-4.50682E-06 0.00000E+00
 -1       556 4.30099E-05-1.11806E-06 0.00000E+00
 -1       557 4.21219E-05 9.51172E-07-6.61744E-24
 -1       558 4.14479E-05 2.45522E-06 0.00000E+00
 -1       559 4.09633E-05 3.45789E-06 0.00000E+00
 -1       560 4.06435E-05 4.02298E-06-1.32349E-23
 -1       561 4.04640E-05 4.21476E-06 0.00000E+00
 -1       562 4.04004E-05 4.09760E-06 0.00000E+00
 -1       563 4.04286E-05 3.73595E-06 0.00000E+00
 -1       564 4.05243E-05 3.19430E-06 0.00000E+00
 -1       565 4.06632E-05 2.53716E-06 0.00000E+00
 -1       566 4.08212E-05 1.82910E-06 3.30872E-24
 -1       567 4.09742E-05 1.13468E-06-8.27181E-25
 -1       568 4.10980E-05 5.18440E-07-2.68834E-24
 -1       569 4.11687E-05 4.48594E-08-1.24077E-24
 -1       570 4.11623E-05-2.21632E-07-1.65436E-24
 -1       571 4.41912E-05-2.75433E-07 0.00000E+00
 -1       572 4.42758E-05-1.61055E-07 0.00000E+00
 -1       573 4.43612E-05-9.33639E-08-2.48154E-24
 -1       574 4.44469E-05-6.13339E-08-8.27181E-25
 -1       575 4.45326E-05-5.38933E-08 1.65436E-24
 -1       576 4.46185E-05-5.98994E-08 1.65436E-24
 -1       577 4.47043E-05-6.82040E-08 0.00000E+00
 -1       578 4.47902E-05-6.76499E-08 0.00000E+00
 -1       579 4.48761E-05-4.70787E-08 0.00000E+00
 -1       580 4.49619E-05 4.66839E-09 0.00000E+00
 -1       581 4.50478E-05 9.87486E-08 0.00000E+00
 -1       582 4.51337E-05 2.46309E-07 0.00000E+00
 -1       583 4.52195E-05 4.58487E-07 0.00000E+00
 -1       584 4.53053E-05 7.46306E-07 6.61744E-24
 -1       585 4.53910E-05 1.12073E-06 0.00000E+00
 -1       586 4.36758E-05-4.07975E-07 0.00000E+00
 -1       587 4.31743E-05-3.68777E-07 0.00000E+00
 -1       588 4.26327E-05-3.29646E-07 0.00000E+00
 -1       589 4.20801E-05-2.90869E-07 2.06795E-25
 -1       590 4.15456E-05-2.52858E-07 0.00000E+00
 -1       591 4.39766E-05-2.43692E-07 0.00000E+00
 -1       592 4.38550E-05-8.05025E-08 0.00000E+00
 -1       593 4.37448E-05 5.06943E-08-1.65436E-24
 -1       594 4.36434E-05 1.57130E-07 8.27181E-25
 -1       595 4.35485E-05 2.46060E-07-1.65436E-24
 -1       596 4.34573E-05 3.24682E-07 8.27181E-25
 -1       597 4.33673E-05 4.00185E-07 0.00000E+00
 -1       598 4.32757E-05 4.79751E-07 0.00000E+00
 -1       599 4.31799E-05 5.70562E-07 0.00000E+00
 -1       600 4.30773E-05 6.79796E-07 8.27181E-25
 -1       601 4.29650E-05 8.14632E-07 8.27181E-25
 -1       602 4.28405E-05 9.82258E-07 4.13590E-25
 -1       603 4.27012E-05 1.18986E-06-1.65436E-24
 -1       604 4.25445E-05 1.44467E-06 1.03398E-25
 -1       605 4.23681E-05 1.75390E-06 0.00000E+00
 -1       606 4.55105E-05 2.23623E-06 0.00000E+00
 -1       607 4.55423E-05 2.96196E-06 0.00000E+00
 -1       608 4.55734E-05 3.76426E-06 0.00000E+00
 -1       609 4.56041E-05 4.63763E-06 1.65436E-24
 -1       610 4.56347E-05 5.57659E-06 0.00000E+00
 -1       611 4.56652E-05 6.57553E-06 0.00000E+00
 -1       612 4.56956E-05 7.62882E-06 0.00000E+00
 -1       613 4.57260E-05 8.73087E-06 0.00000E+00
 -1       614 4.57563E-05 9.87604E-06 0.00000E+00
 -1       615 4.57865E-05 1.10587E-05 8.27181E-25
 -1       616 4.58167E-05 1.22733E-05 1.65436E-24
 -1       617 4.58469E-05 1.35141E-05 0.00000E+00
 -1       618 4.58770E-05 1.47756E-05 0.00000E+00
 -1       619 4.59071E-05 1.60522E-05 8.27181E-25
 -1       620 4.59371E-05 1.73381E-05 8.27181E-25
 -1       621 4.48811E-05 1.68134E-06 0.00000E+00
 -1       622 4.42927E-05 1.77107E-06 0.00000E+00
 -1       623 4.37194E-05 1.86077E-06-1.65436E-24
 -1       624 4.31695E-05 1.95020E-06 8.27181E-25
 -1       625 4.26512E-05 2.03917E-06-1.65436E-24
 -1       626 4.53042E-05 2.27837E-06 0.00000E+00
 -1       627 4.50994E-05 3.05045E-06 0.00000E+00
 -1       628 4.48653E-05 3.89994E-06 0.00000E+00
 -1       629 4.46055E-05 4.81781E-06 0.00000E+00
 -1       630 4.43234E-05 5.79505E-06-3.30872E-24
 -1       631 4.40224E-05 6.82250E-06 0.00000E+00
 -1       632 4.37059E-05 7.89102E-06 0.00000E+00
 -1       633 4.33774E-05 8.99147E-06-1.65436E-24
 -1       634 4.30404E-05 1.01147E-05 0.00000E+00
 -1       635 4.26982E-05 1.12515E-05 0.00000E+00
 -1       636 4.23543E-05 1.23929E-05 0.00000E+00
 -1       637 4.20121E-05 1.35295E-05 8.27181E-25
 -1       638 4.16750E-05 1.46523E-05 1.65436E-24
 -1       639 4.13462E-05 1.57521E-05-8.27181E-25
 -1       640 4.10289E-05 1.68197E-05-8.27181E-25
 -1       641 4.59653E-05 1.99285E-05 0.00000E+00
 -1       642 4.59628E-05 2.13008E-05 5.16988E-26
 -1       643 4.59603E-05 2.27336E-05-5.16988E-26
 -1       644 4.59576E-05 2.42156E-05 0.00000E+00
 -1       645 4.59548E-05 2.57347E-05 0.00000E+00
 -1       646 4.59519E-05 2.72787E-05 0.00000E+00
 -1       647 4.59489E-05 2.88352E-05 0.00000E+00
 -1       648 4.59460E-05 3.03917E-05 2.58494E-26
 -1       649 4.59431E-05 3.19359E-05 0.00000E+00
 -1       650 4.59402E-05 3.34551E-05 5.16988E-26
 -1       651 4.59373E-05 3.49373E-05 2.06795E-25
 -1       652 4.59342E-05 3.63705E-05-1.03398E-25
 -1       653 4.59313E-05 3.77433E-05-4.13590E-25
 -1       654 4.59275E-05 3.90444E-05 4.13590E-25
 -1       655 4.59241E-05 4.02638E-05-1.65436E-24
 -1       656 4.48377E-05 1.85015E-05 0.00000E+00
 -1       657 4.39067E-05 1.83689E-05-1.65436E-24
 -1       658 4.31021E-05 1.82367E-05 3.30872E-24
 -1       659 4.23515E-05 1.81046E-05 1.65436E-24
 -1       660 4.15830E-05 1.79721E-05 0.00000E+00
 -1       661 4.55763E-05 1.99566E-05 1.65436E-24
 -1       662 4.51722E-05 2.13318E-05 0.00000E+00
 -1       663 4.47541E-05 2.27439E-05 0.00000E+00
 -1       664 4.43259E-05 2.41845E-05 0.00000E+00
 -1       665 4.38901E-05 2.56452E-05 0.00000E+00
 -1       666 4.34501E-05 2.71174E-05 0.00000E+00
 -1       667 4.30089E-05 2.85928E-05-3.30872E-24
 -1       668 4.25698E-05 3.00630E-05 0.00000E+00
 -1       669 4.21357E-05 3.15194E-05 3.30872E-24
 -1       670 4.17100E-05 3.29537E-05 0.00000E+00
 -1       671 4.12957E-05 3.43575E-05 0.00000E+00
 -1       672 4.08960E-05 3.57221E-05-1.65436E-24
 -1       673 4.05141E-05 3.70393E-05 0.00000E+00
 -1       674 4.01524E-05 3.83002E-05-8.27181E-25
 -1       675 3.98151E-05 3.94965E-05 0.00000E+00
 -1       676 4.48344E-05 4.12616E-05 3.30872E-24
 -1       677 4.37549E-05 4.11316E-05 1.65436E-24
 -1       678 4.26796E-05 4.10017E-05 0.00000E+00
 -1       679 4.16105E-05 4.08724E-05 0.00000E+00
 -1       680 4.05498E-05 4.07430E-05 0.00000E+00
 -1       716 1.71989E-05-5.69380E-05-8.07794E-28
 -1       717 1.71931E-05-5.34535E-05 0.00000E+00
 -1       718 1.71872E-05-4.99690E-05 1.61559E-27
 -1       719 1.71814E-05-4.64846E-05 0.00000E+00
 -1       720 1.71756E-05-4.30001E-05-6.46235E-27
 -1       721 1.71697E-05-3.95156E-05-6.46235E-27
 -1       722 1.71639E-05-3.60312E-05 2.58494E-26
 -1       723 1.71580E-05-3.25467E-05 0.00000E+00
 -1       724 1.71520E-05-2.90622E-05 0.00000E+00
 -1       725 1.71459E-05-2.55778E-05 0.00000E+00
 -1       726 1.71396E-05-2.20933E-05 0.00000E+00
 -1       727 1.71323E-05-1.86088E-05 4.13590E-25
 -1       728 1.71250E-05-1.51244E-05 0.00000E+00
 -1       729 1.71127E-05-1.16400E-05-3.30872E-24
 -1       730 1.71021E-05-8.15550E-06 0.00000E+00
 -1       766 1.36625E-05-4.70698E-06 0.00000E+00
 -1       767 1.04209E-05-4.71682E-06 3.30872E-24
 -1       768 7.39021E-06-4.72764E-06-3.30872E-24
 -1       769 4.61934E-06-4.73290E-06 0.00000E+00
 -1       770 2.15669E-06-4.73719E-06 0.00000E+00
 -1       771 1.50790E-05-1.90693E-06 2.64698E-23
 -1       772 1.32994E-05 2.81045E-07 1.32349E-23
 -1       773 1.17165E-05 1.94352E-06 0.00000E+00
 -1       774 1.03110E-05 3.13275E-06 0.00000E+00
 -1       775 9.06361E-06 3.90135E-06 2.64698E-23
 -1       776 7.95422E-06 4.30254E-06 1.32349E-23
 -1       777 6.96270E-06 4.38983E-06 0.00000E+00
 -1       778 6.06879E-06 4.21710E-06-1.32349E-23
 -1       779 5.25216E-06 3.83843E-06-2.64698E-23
 -1       780 4.49240E-06 3.30815E-06 0.00000E+00
 -1       781 3.76912E-06 2.68075E-06 2.64698E-23
 -1       782 3.06197E-06 2.01081E-06 1.32349E-23
 -1       783 2.35059E-06 1.35297E-06-2.64698E-23
 -1       784 1.61518E-06 7.61956E-07 0.00000E+00
 -1       785 8.35828E-07 2.92387E-07 2.64698E-23
 -1       786 4.11233E-05 6.56484E-08 8.27181E-25
 -1       787 4.11927E-05 2.79955E-07 8.27181E-25
 -1       788 4.12622E-05 4.36172E-07 1.65436E-24
 -1       789 4.13322E-05 5.45216E-07 0.00000E+00
 -1       790 4.14023E-05 6.17965E-07 1.65436E-24
 -1       791 4.14726E-05 6.65280E-07 0.00000E+00
 -1       792 4.15429E-05 6.98002E-07 0.00000E+00
 -1       793 4.16132E-05 7.26961E-07-8.27181E-25
 -1       794 4.16835E-05 7.62988E-07-1.65436E-24
 -1       795 4.17538E-05 8.16917E-07 0.00000E+00
 -1       796 4.18241E-05 8.99593E-07 0.00000E+00
 -1       797 4.18943E-05 1.02188E-06 0.00000E+00
 -1       798 4.19645E-05 1.19467E-06 0.00000E+00
 -1       799 4.20344E-05 1.42889E-06 0.00000E+00
 -1       800 4.21043E-05 1.73550E-06 0.00000E+00
 -1       801 3.76217E-05-1.59270E-07 0.00000E+00
 -1       802 3.00674E-05-1.16684E-07 0.00000E+00
 -1       803 2.04605E-05-8.95340E-08-8.27181E-25
 -1       804 1.08688E-05-6.62707E-08 0.00000E+00
 -1       805 3.36002E-06-2.75744E-08 0.00000E+00
 -1       806 4.08764E-05 3.41335E-08-3.30872E-24
 -1       807 4.07056E-05 2.50393E-07 0.00000E+00
 -1       808 4.05451E-05 4.37453E-07 0.00000E+00
 -1       809 4.03930E-05 6.01419E-07 0.00000E+00
 -1       810 4.02471E-05 7.48379E-07-3.30872E-24
 -1       811 4.01053E-05 8.84409E-07-1.65436E-24
 -1       812 3.99653E-05 1.01557E-06 0.00000E+00
 -1       813 3.98249E-05 1.14794E-06 1.65436E-24
 -1       814 3.96817E-05 1.28757E-06-1.65436E-24
 -1       815 3.95335E-05 1.44053E-06 1.65436E-24
 -1       816 3.93781E-05 1.61288E-06-1.65436E-24
 -1       817 3.92131E-05 1.81068E-06-8.27181E-25
 -1       818 3.90363E-05 2.03998E-06 2.48154E-24
 -1       819 3.88456E-05 2.30681E-06 0.00000E+00
 -1       820 3.86387E-05 2.61719E-06 0.00000E+00
 -1       821 4.20873E-05 2.63258E-06 0.00000E+00
 -1       822 4.19970E-05 3.26620E-06 0.00000E+00
 -1       823 4.19068E-05 4.01309E-06 0.00000E+00
 -1       824 4.18157E-05 4.85982E-06 0.00000E+00
 -1       825 4.17244E-05 5.79291E-06-3.30872E-24
 -1       826 4.16329E-05 6.79878E-06-1.65436E-24
 -1       827 4.15413E-05 7.86379E-06 3.30872E-24
 -1       828 4.14497E-05 8.97428E-06-1.65436E-24
 -1       829 4.13580E-05 1.01165E-05-3.30872E-24
 -1       830 4.12663E-05 1.12767E-05 0.00000E+00
 -1       831 4.11746E-05 1.24412E-05 0.00000E+00
 -1       832 4.10831E-05 1.35961E-05 0.00000E+00
 -1       833 4.09917E-05 1.47277E-05 3.30872E-24
 -1       834 4.09011E-05 1.58224E-05 0.00000E+00
 -1       835 4.08104E-05 1.68662E-05 0.00000E+00
 -1       836 4.16387E-05 2.26526E-06 3.30872E-24
 -1       837 4.09945E-05 2.40978E-06 0.00000E+00
 -1       838 4.02949E-05 2.55407E-06-3.30872E-24
 -1       839 3.95949E-05 2.69784E-06-1.65436E-24
 -1       840 3.89498E-05 2.84167E-06 8.27181E-25
 -1       841 4.19987E-05 2.66639E-06 0.00000E+00
 -1       842 4.17542E-05 3.39513E-06 4.13590E-25
 -1       843 4.14578E-05 4.26207E-06 0.00000E+00
 -1       844 4.11280E-05 5.21768E-06 4.13590E-25
 -1       845 4.07739E-05 6.23789E-06 0.00000E+00
 -1       846 4.04046E-05 7.29868E-06-4.13590E-25
 -1       847 4.00246E-05 8.38756E-06 0.00000E+00
 -1       848 3.96388E-05 9.49215E-06 0.00000E+00
 -1       849 3.92501E-05 1.06043E-05 0.00000E+00
 -1       850 3.88615E-05 1.17161E-05 4.13590E-25
 -1       851 3.84762E-05 1.28193E-05 0.00000E+00
 -1       852 3.80969E-05 1.39059E-05 0.00000E+00
 -1       853 3.77287E-05 1.49630E-05 0.00000E+00
 -1       854 3.73757E-05 1.59777E-05-5.16988E-26
 -1       855 3.70482E-05 1.69252E-05 0.00000E+00
 -1       856 4.06525E-05 1.88732E-05-8.27181E-25
 -1       857 4.05765E-05 2.00458E-05 0.00000E+00
 -1       858 4.05003E-05 2.13438E-05-1.65436E-24
 -1       859 4.04234E-05 2.27476E-05 0.00000E+00
 -1       860 4.03463E-05 2.42373E-05-1.65436E-24
 -1       861 4.02690E-05 2.57931E-05 0.00000E+00
 -1       862 4.01916E-05 2.73953E-05 0.00000E+00
 -1       863 4.01141E-05 2.90238E-05 0.00000E+00
 -1       864 4.00366E-05 3.06587E-05 0.00000E+00
 -1       865 3.99592E-05 3.22804E-05 0.00000E+00
 -1       866 3.98818E-05 3.38688E-05 0.00000E+00
 -1       867 3.98045E-05 3.54040E-05 0.00000E+00
 -1       868 3.97274E-05 3.68664E-05-3.30872E-24
 -1       869 3.96507E-05 3.82359E-05 0.00000E+00
 -1       870 3.95741E-05 3.94929E-05 0.00000E+00
 -1       871 3.99401E-05 1.78367E-05 0.00000E+00
 -1       872 3.92553E-05 1.78264E-05 0.00000E+00
 -1       873 3.86323E-05 1.78159E-05 0.00000E+00
 -1       874 3.80328E-05 1.78049E-05 0.00000E+00
 -1       875 3.74186E-05 1.77934E-05-4.13590E-25
 -1       876 4.04685E-05 1.88984E-05-3.30872E-24
 -1       877 4.01753E-05 2.00647E-05-1.65436E-24
 -1       878 3.98455E-05 2.13287E-05 0.00000E+00
 -1       879 3.94848E-05 2.26766E-05-1.65436E-24
 -1       880 3.90979E-05 2.40941E-05-3.30872E-24
 -1       881 3.86903E-05 2.55673E-05-1.65436E-24
 -1       882 3.82669E-05 2.70821E-05 0.00000E+00
 -1       883 3.78332E-05 2.86247E-05 0.00000E+00
 -1       884 3.73943E-05 3.01811E-05 0.00000E+00
 -1       885 3.69553E-05 3.17373E-05 0.00000E+00
 -1       886 3.65216E-05 3.32796E-05-3.30872E-24
 -1       887 3.60983E-05 3.47939E-05-1.65436E-24
 -1       888 3.56906E-05 3.62663E-05-3.30872E-24
 -1       889 3.53031E-05 3.76826E-05-1.65436E-24
 -1       890 3.49417E-05 3.90291E-05 0.00000E+00
 -1       891 3.85928E-05 4.05634E-05 0.00000E+00
 -1       892 3.78350E-05 4.05083E-05 0.00000E+00
 -1       893 3.71417E-05 4.04532E-05 0.00000E+00
 -1       894 3.64287E-05 4.03983E-05-4.13590E-25
 -1       895 3.56114E-05 4.03432E-05 0.00000E+00
 -1       926 4.86888E-08-2.99594E-06 1.03398E-25
 -1       927 4.77010E-08-1.61945E-06 0.00000E+00
 -1       928 4.70770E-08-5.73068E-07 2.58494E-26
 -1       929 4.67659E-08 1.80577E-07-1.29247E-26
 -1       930 4.66083E-08 6.78859E-07 0.00000E+00
 -1       931 4.65339E-08 9.59158E-07 0.00000E+00
 -1       932 4.64822E-08 1.05889E-06 0.00000E+00
 -1       933 4.63908E-08 1.01546E-06 5.16988E-26
 -1       934 4.62467E-08 8.66289E-07-2.06795E-25
 -1       935 4.58820E-08 6.48809E-07 0.00000E+00
 -1       936 4.53883E-08 4.00446E-07 8.27181E-25
 -1       937 4.39031E-08 1.58628E-07 0.00000E+00
 -1       938 4.22871E-08-3.93117E-08-3.30872E-24
 -1       939 3.57316E-08-1.56030E-07 0.00000E+00
 -1       940 3.08481E-08-1.55089E-07 0.00000E+00
 -1       956 3.83129E-05 3.50612E-06-1.65436E-24
 -1       957 3.82095E-05 4.14792E-06-4.13590E-25
 -1       958 3.81056E-05 4.89011E-06 3.30872E-24
 -1       959 3.80015E-05 5.71980E-06 0.00000E+00
 -1       960 3.78972E-05 6.62408E-06-1.65436E-24
 -1       961 3.77928E-05 7.58997E-06 1.65436E-24
 -1       962 3.76884E-05 8.60448E-06 3.30872E-24
 -1       963 3.75839E-05 9.65463E-06-1.65436E-24
 -1       964 3.74794E-05 1.07274E-05 3.30872E-24
 -1       965 3.73749E-05 1.18098E-05-1.65436E-24
 -1       966 3.72705E-05 1.28888E-05 3.30872E-24
 -1       967 3.71660E-05 1.39515E-05-1.65436E-24
 -1       968 3.70617E-05 1.49847E-05-3.30872E-24
 -1       969 3.69576E-05 1.59757E-05 0.00000E+00
 -1       970 3.68537E-05 1.69113E-05 3.30872E-24
 -1       971 3.66206E-05 1.86741E-05 0.00000E+00
 -1       972 3.64867E-05 1.97278E-05 0.00000E+00
 -1       973 3.63525E-05 2.09212E-05 0.00000E+00
 -1       974 3.62179E-05 2.22351E-05 0.00000E+00
 -1       975 3.60830E-05 2.36500E-05 0.00000E+00
 -1       976 3.59480E-05 2.51464E-05 0.00000E+00
 -1       977 3.58128E-05 2.67049E-05 3.30872E-24
 -1       978 3.56776E-05 2.83058E-05 1.65436E-24
 -1       979 3.55423E-05 2.99295E-05-3.30872E-24
 -1       980 3.54071E-05 3.15564E-05 1.65436E-24
 -1       981 3.52719E-05 3.31670E-05 3.30872E-24
 -1       982 3.51369E-05 3.47416E-05 0.00000E+00
 -1       983 3.50021E-05 3.62607E-05 0.00000E+00
 -1       984 3.48681E-05 3.77046E-05 1.65436E-24
 -1       985 3.47343E-05 3.90540E-05 0.00000E+00
 -3
    1PSTEP                        18           9           1          
  100CL  109 6.52832E-01         568                     0    9           1
 -4  STRESS      6    1
 -5  SXX         1    4    1    1
 -5  SYY         1    4    2    2
 -5  SZZ         1    4    3    3
 -5  SXY         1    4    1    2
 -5  SYZ         1    4    2    3
 -5  SZX         1    4    3    1
 -1         1-1.78852E+06-7.05569E+05-3.46072E+05-9.21449E+05-7.76102E-10 4.95735E-09
 -1         2-2.43850E+04-3.71731E+05 3.82665E+04 1.08800E+05 1.60508E-08 7.79356E-09
 -1         3-4.52869E+01-9.04483E+05-1.23001E+02-2.95035E+02 7.33644E-10 1.05474E-08
 -1         4 8.86755E+00-9.57827E+00-9.85992E-01-1.10359E+01 8.27710E-09-8.16028E-10
 -1         5-1.60541E+01 3.81091E+05 2.04717E+01-3.38374E+00 3.69923E-10-3.34858E-08
 -1         8-1.54127E+06-5.33063E+05-1.98663E+05-6.04563E+05-1.81899E-10 7.25413E-09
 -1         9-1.61602E+06-5.10484E+05-2.17828E+05-4.11114E+05-2.19431E-09 1.18841E-09
 -1        10-3.46608E+04-5.37570E+05 6.23827E+04-4.69173E+03-3.40005E-09-2.61415E-09
 -1        11 2.20506E+00-4.06108E+00-1.44179E+00 6.49371E-01 1.43078E-09 8.02570E-09
 -1        12-8.85308E+03 1.44332E+05-4.83714E+04 6.93173E+03 8.72875E-09 3.30651E-10
 -1        15 2.36506E+03 1.27896E+03 7.34004E+03 3.63697E+00-1.02546E-10 3.53655E-09
 -1        16-2.05729E+06-5.43226E+05-1.65703E+05-6.97812E+05-1.03796E-10 4.18368E-10
 -1        17-4.05587E+05-3.10060E+05-3.00534E+04-2.80051E+05-5.95355E-09 6.99705E-09
 -1        18 2.84299E+04 9.63524E+03-1.13077E+04-8.15215E+04 3.36513E-10-1.85901E-09
 -1        19 8.57479E+04 1.00426E+05-1.01319E+04 1.01758E+04 2.90296E-09-2.03060E-09
 -1        20 5.55843E+04-7.98752E+04-1.80698E+04 3.96616E+04 3.45176E-09-4.70209E-10
 -1        21 8.01384E+02-1.41269E+05 4.17902E+04-4.68028E+02 1.51098E-08-1.53152E-08
 -1        23 5.74563E-01 2.73718E-01 1.05257E+01 1.00626E-03-2.61859E-09 1.56750E-09
 -1        24-1.10045E+06-3.29380E+05 7.42967E+04-5.88276E+05-4.82250E-09 1.94996E-10
 -1        25 3.57234E+03 3.34647E+04 2.02346E+04-3.45196E+05 9.65520E-10 6.49743E-10
 -1        26-9.99033E+02 9.22630E+04 1.91575E+03-1.61542E+04-7.11296E-10 1.33558E-09
 -1        27-2.24308E+04-5.95745E+04-2.65601E+04 6.58149E+04 5.12106E-09 9.33748E-11
 -1        28-1.08056E+04-1.11058E+05-5.57155E+03 4.05493E+04 1.01529E-08-7.55797E-10
 -1        31 3.68853E+03 4.24706E+03 6.25738E+03-1.55935E+02 3.16922E-09-1.67006E-09
 -1        32-4.80079E+05 8.88007E+04 2.85900E+05-7.05514E+05-3.63076E-09 4.70512E-10
 -1        33-1.10167E+05 1.14019E+05 3.47940E+04-3.41682E+04-1.72273E-10 6.45741E-10
 -1        34-1.41273E+05-7.29752E+03 9.40407E+03 4.75366E+04 3.51481E-09-2.59524E-09
 -1        35-2.75738E+04-3.16947E+04-1.05870E+03 6.40562E+04 2.31309E-09-1.15809E-09
 -1        36-6.19727E+03-3.02660E+04 6.98063E+04-7.29100E-07-4.03423E-10 4.60204E-09
 -1        37 2.41282E+04 3.50333E+04 4.94158E+04 7.11248E-07-1.89769E-10-2.27374E-09
 -1        38 5.47019E+03-4.75899E+03 1.80693E+04 1.80598E-06-1.87081E-11 6.97582E-10
 -1        39 1.05236E+04 5.50700E+03 1.13782E+04 3.83506E-08-2.21368E-10 5.53769E-09
 -1        40 7.40030E+03-7.46937E+02 4.65221E+03 3.59165E-07 1.95881E-11-5.64796E-10
 -1        41 8.27439E+03 8.76286E+02 2.78940E+03 2.14755E-07-9.27527E-11 1.18752E-09
 -1        42 7.71907E+03-1.29222E+02 1.37892E+03-3.75267E-07 2.07621E-11 7.74861E-09
 -1        43 7.94171E+03 2.34472E+02 1.12377E+03-8.79931E-07-4.62625E-12-3.95461E-09
 -1        44 7.73298E+03-1.05228E+02 1.16620E+03 1.51275E-07 5.40692E-12-1.62342E-09
 -1        45 8.16412E+03 6.70530E+02 2.17313E+03-2.15542E-07-2.50729E-11 1.02852E-08
 -1        46 7.49666E+03-5.65210E+02 3.54426E+03-3.56453E-07 6.15918E-11 8.32779E-09
 -1        47 9.85737E+03 4.15992E+03 8.60847E+03-9.21937E-07 4.14848E-10 1.01579E-09
 -1        48 6.03992E+03-3.59394E+03 1.36525E+04-1.30451E-07-1.92355E-10-2.34741E-09
 -1        49 2.01298E+04 2.64558E+04 3.73198E+04 7.14028E-07 2.14260E-10-1.05556E-08
 -1        50-2.77181E+03-2.28557E+04 5.27120E+04 8.15238E-07 2.19627E-09 9.15679E-09
 -1        51 2.40977E+04-4.04799E+05 3.99117E+04-1.07590E+06-1.45519E-11 6.30098E-09
 -1        52 1.28985E+04-4.03577E+05 2.61590E+04-1.18660E+06 5.16593E-10 7.55972E-09
 -1        53 1.04080E+04-4.14441E+05 2.36640E+04-1.07304E+06-1.74623E-10 5.80621E-09
 -1        54 2.50389E+04-4.11550E+05 3.94064E+04-1.18961E+06-7.27596E-10 9.09495E-09
 -1        55 5.55292E+04-4.24829E+05 7.34380E+04-1.07246E+06-3.78350E-10 9.30959E-09
 -1        56-5.08439E+06-5.54841E+05-4.33051E+05-1.96843E+06-2.32831E-10-3.05590E-09
 -1        57-5.27992E+06-9.44544E+05-2.94756E+05-1.92824E+06 3.65617E-10 2.24827E-09
 -1        58-5.17426E+06-6.95717E+05-1.01696E+05-1.93753E+06-2.48110E-09 3.30692E-09
 -1        59-5.17611E+06-7.79567E+05-6.15424E+04-1.96377E+06-9.77934E-10 8.15999E-09
 -1        60-5.18720E+06-7.16648E+05-2.37414E+04-1.93384E+06-5.65706E-10 3.59159E-09
 -1        61-5.16494E+06-7.51164E+05-1.36809E+04-1.96330E+06-1.30785E-09 1.17689E-08
 -1        62-5.18514E+06-7.23719E+05-6.56676E+03-1.93805E+06 4.23825E-10-1.97554E-09
 -1        63-5.17338E+06-7.37483E+05-5.49731E+03-1.95148E+06-4.30077E-10-5.00995E-09
 -1        64-5.17862E+06-7.30337E+05-6.37605E+03-1.94560E+06 2.54431E-10 5.75915E-09
 -1        65-5.18829E+06-7.27285E+05-1.30232E+04-1.93612E+06 7.92170E-10 2.48042E-09
 -1        66-5.17028E+06-7.33962E+05-2.25990E+04-1.95341E+06 9.31777E-10-3.00133E-11
 -1        67-5.21296E+06-7.40278E+05-5.84372E+04-1.92066E+06 3.14640E-09-6.48288E-09
 -1        68-5.15427E+06-7.17698E+05-9.65715E+04-1.96104E+06 2.78669E-09-3.37241E-09
 -1        69-5.31090E+06-8.97810E+05-2.79912E+05-1.88808E+06-2.69210E-09 6.81757E-09
 -1        70-5.07341E+06-5.79378E+05-4.11221E+05-1.98517E+06-2.18279E-11-5.12227E-09
 -1        86 3.92575E+04-1.61971E+06-1.19745E+05-9.70650E+04-3.40224E-08-1.03146E-08
 -1        87 4.97139E+04 3.56926E+05 3.05918E+05 9.31432E+04-2.22135E-08 8.88744E-09
 -1        88-8.95477E+04-2.87059E+06-3.27980E+05 2.73339E+04 2.55159E-08 1.10404E-08
 -1        89 9.09560E+04 5.61304E+05 3.71553E+05-1.17786E+05 7.43603E-09-6.09418E-10
 -1        90-1.01574E+03-1.82376E+06-1.22942E+05 1.13694E+05 2.98960E-08 4.38013E-09
 -1       121-3.99475E+01-9.04691E+05-1.77605E+02 1.47484E+02-1.19879E-09 6.66114E-09
 -1       122-9.40678E+01-9.04518E+05-2.82745E+02-5.87880E+02-9.39082E-10 5.76256E-09
 -1       123 3.69773E+00-9.04659E+05-5.19690E+02 4.40180E+02-3.10376E-09 6.58019E-09
 -1       124-6.35837E+02-9.04845E+05-1.21233E+03-1.22497E+03-2.26350E-09-8.18682E-09
 -1       125 4.15704E+02-9.04376E+05-1.91288E+03 7.84209E+02-5.13501E-09 1.84627E-09
 -1       161-3.24536E+00 2.24497E+00-1.33167E+00 2.34923E+00 3.65829E-06-1.37071E-06
 -1       162 8.62103E+00-9.76518E+00-2.42738E+00-1.10613E+01 7.31533E-06-2.74425E-06
 -1       163-2.99879E+00 2.43269E+00-4.72989E+00 2.37414E+00 3.56427E-06-1.33764E-06
 -1       164 7.53312E+00-1.10195E+01-1.05538E+01-1.09881E+01-1.87361E-07 7.26231E-08
 -1       165-2.15754E+00 3.49974E+00-2.05538E+01 2.27579E+00-4.31414E-06 1.61665E-06
 -1       166 1.85463E+00-1.89867E+01-4.75516E+01-9.98829E+00-8.43997E-06 3.16415E-06
 -1       167 2.68028E+00 1.03991E+01-9.01295E+01 1.37492E+00-1.26177E-05 4.72889E-06
 -1       168-3.14959E+01-7.00964E+01-2.16207E+02-2.23499E+00-1.67950E-05 6.29528E-06
 -1       169 3.11939E+01 5.46035E+01-3.94128E+02-5.47447E+00-2.08435E-05 7.81410E-06
 -1       170-2.31876E+02-3.96556E+02-9.93458E+02 5.28138E+01-2.48909E-05 9.34104E-06
 -1       171 2.03063E+02 3.36819E+02-1.71456E+03-5.36559E+01-2.82990E-05 1.06072E-05
 -1       172-1.45171E+03-2.47389E+03-4.62822E+03 4.27381E+02-3.16999E-05 1.18947E-05
 -1       173 1.25107E+03 2.13167E+03-7.40198E+03-3.79903E+02-3.20719E-05 1.20317E-05
 -1       174-8.95446E+03-1.56603E+04-2.19473E+04 2.91086E+03-3.24210E-05 1.21603E-05
 -1       175 7.70707E+03 1.35217E+04-3.15868E+04-2.53593E+03-1.62214E-05 6.07499E-06
 -1       191-1.64832E+01 3.81119E+05 2.43050E+01 1.68888E+00-1.89473E-10-4.42633E-08
 -1       192-9.40560E+00 3.81094E+05 4.54365E+01-1.72535E+01-1.69621E-10-7.85053E-08
 -1       193 4.56223E+00 3.81116E+05 8.58526E+01 1.55541E+01-5.93445E-10-3.66181E-08
 -1       194 7.61207E+01 3.81121E+05 1.92869E+02-1.42158E+02-4.88626E-10 5.96992E-09
 -1       195 2.49381E+02 3.81090E+05 3.91724E+02 1.26724E+02-1.00590E-09-1.36788E-09
 -1       251-2.25455E+06 5.27462E+04-1.04747E+05-3.89289E+04-2.38657E-09 8.01083E-09
 -1       252-2.13575E+06-7.17634E+04-4.73606E+04-3.88784E+03-4.70622E-09 5.36056E-09
 -1       253-2.43460E+06 1.84182E+04-5.79730E+04 5.10166E+04-5.16138E-10-1.04774E-09
 -1       254-1.50641E+06-1.90589E+04 1.29880E+05 6.91047E+03 2.36255E-10-1.93809E-08
 -1       255-2.88095E+06-5.92642E+02-1.25788E+05-4.97352E+04-3.11979E-09-1.26192E-10
 -1       256-5.38917E+05 2.66225E+04 3.38616E+05 2.53577E+04-7.29867E-09 2.45100E-08
 -1       257-3.39800E+06-2.73492E+04-2.24767E+05 3.26485E+04-5.50472E-09-3.66549E-09
 -1       258 1.24374E+04 5.56974E+04 4.54208E+05-5.27412E+04 1.00073E-09-3.21688E-08
 -1       259-3.43023E+06-2.91405E+04-2.31314E+05 2.81534E+04 7.69433E-10-6.33645E-09
 -1       260-4.52009E+05 3.07909E+04 3.56306E+05 2.91799E+04-6.16899E-09 2.37542E-08
 -1       261-2.93528E+06-2.90755E+03-1.36913E+05-4.90540E+04-8.20751E-09 6.50539E-09
 -1       262-1.42133E+06-1.65721E+04 1.46426E+05 5.32101E+03-8.58181E-09-1.42459E-08
 -1       263-2.46497E+06 1.81915E+04-6.49699E+04 5.19206E+04-1.18285E-08-5.89171E-09
 -1       264-2.10105E+06-7.37325E+04-4.31866E+04-4.67053E+03-1.89184E-08 1.14596E-08
 -1       265-2.25871E+06 5.48930E+04-1.09486E+05-3.90506E+04-1.87784E-08 7.29779E-09
 -1       266-4.15794E+04-1.92249E+04 9.59774E+04-7.48572E+01 6.18456E-11 6.14391E-09
 -1       267 4.81533E+04 2.24541E+04 6.80761E+04 8.60576E+01-2.18279E-11 7.36996E-09
 -1       268-6.56147E+03-3.21456E+03 2.51975E+04-1.12076E+01 4.09273E-11 2.99834E-09
 -1       269 7.74537E+03 3.85483E+03 1.64675E+04 1.30280E+01 3.25144E-11 6.91762E-09
 -1       270-1.18236E+03-6.39462E+02 7.90642E+03-1.81797E+00-2.54659E-11 4.40903E-09
 -1       271-4.05220E+06-5.18570E+05-3.15241E+05-1.57188E+06 3.38332E-10-3.17232E-09
 -1       272-4.15709E+06-7.20835E+05-1.97647E+05-1.57772E+06-8.56062E-10-2.88128E-09
 -1       273-4.10815E+06-5.84892E+05-7.43111E+04-1.56235E+06 1.43291E-09 2.98314E-10
 -1       274-4.09142E+06-6.33823E+05-4.04926E+04-1.59569E+06-1.45519E-09 6.18456E-09
 -1       275-4.11594E+06-5.90200E+05-1.72495E+04-1.55987E+06-1.69803E-09 3.38241E-09
 -1       276-4.08200E+06-6.27310E+05-9.03320E+03-1.60019E+06-1.31740E-09 4.55657E-10
 -1       277-4.11778E+06-5.89795E+05-4.59215E+03-1.55865E+06 3.26963E-10-3.51451E-09
 -1       278-4.08001E+06-6.27825E+05-3.46582E+03-1.60201E+06-8.96421E-10 5.57463E-10
 -1       279-4.11817E+06-5.89431E+05-4.00623E+03-1.55826E+06 1.43132E-10 1.72668E-09
 -1       280-4.08064E+06-6.28444E+05-7.46407E+03-1.60190E+06 4.07795E-10 1.85310E-09
 -1       281-4.11717E+06-5.89251E+05-1.39972E+04-1.55873E+06 2.74508E-09 8.20455E-09
 -1       282-4.08759E+06-6.34448E+05-3.28146E+04-1.59917E+06-2.97632E-10 2.52840E-10
 -1       283-4.11116E+06-5.84666E+05-6.01252E+04-1.56043E+06-4.99455E-10-2.79761E-09
 -1       284-4.14033E+06-7.05268E+05-1.59979E+05-1.58505E+06 2.74213E-09 1.27329E-10
 -1       285-4.06598E+06-5.30922E+05-2.55174E+05-1.56803E+06 6.00267E-10 1.39698E-09
 -1       286-1.36848E+05-3.52912E+04 8.14011E+04-4.33962E+02 2.48174E-09 4.07817E-09
 -1       287-1.01162E+05 4.08626E+04 5.76809E+04 5.74639E+02 1.58865E-09 3.58705E-09
 -1       288-1.23466E+05-5.56118E+03 2.10209E+04-1.87219E+02 7.45491E-10 4.94674E-09
 -1       289-1.16830E+05 6.44117E+03 1.33679E+04-7.01467E+01-7.04384E-10 4.45880E-10
 -1       290-1.21193E+05-8.79874E+02 5.38512E+03 2.10825E+02 9.60515E-10-5.29553E-10
 -1       291-1.19693E+05 1.02180E+03 3.31162E+03-7.20262E+02 1.79633E-09-2.63486E-09
 -1       292-1.20606E+05-1.41673E+02 1.63179E+03 4.62905E+02 1.80347E-09 3.41396E-09
 -1       293-1.20217E+05 2.71359E+02 1.38133E+03-9.03046E+02 1.53755E-09-2.83796E-09
 -1       294-1.20670E+05-1.28793E+02 1.44397E+03 3.93614E+02 1.20328E-09-3.93140E-09
 -1       295-1.19649E+05 8.65877E+02 2.84013E+03-4.89562E+02 1.72223E-10 4.61390E-09
 -1       296-1.21172E+05-7.37551E+02 4.47498E+03 4.94125E+01-2.41734E-10-3.80783E-09
 -1       297-1.17402E+05 5.34627E+03 1.11150E+04 2.37079E+02-1.66635E-10-5.39876E-09
 -1       298-1.22916E+05-4.60879E+03 1.74568E+04-3.33036E+02-6.37456E-10-1.34150E-09
 -1       299-1.04530E+05 3.38970E+04 4.78444E+04 7.67355E+02-3.28301E-10 2.92493E-09
 -1       300-1.34036E+05-2.92795E+04 6.75416E+04-4.80869E+02 1.75176E-09 4.95129E-09
 -1       301 4.07066E+04-2.26383E+04 1.12942E+05-3.69328E+04 1.23691E-09-4.26161E-09
 -1       302 1.49158E+04 3.37744E+02 7.40221E+04-4.52481E+04 3.47200E-09-1.67140E-09
 -1       303 3.31573E+03-1.45968E+04 6.52178E+04-3.69815E+04 1.34514E-09 2.83740E-09
 -1       304 2.46666E+04 7.56457E+03 1.04296E+05-4.51862E+04 2.59388E-09 8.81505E-09
 -1       305 6.99347E+04-2.98044E+04 1.85039E+05-3.69317E+04 1.63709E-09 5.60931E-09
 -1       306-2.11333E+06-2.83344E+05-1.22601E+05-8.20689E+05 1.49521E-09 4.70027E-09
 -1       307-2.13472E+06-3.80920E+05-7.67893E+04-8.44948E+05-4.52928E-10-1.00317E-09
 -1       308-2.13509E+06-3.08995E+05-2.89208E+04-8.17057E+05-4.50200E-10-1.43700E-09
 -1       309-2.10956E+06-3.46981E+05-1.57717E+04-8.51825E+05-9.61109E-10 4.10478E-09
 -1       310-2.13798E+06-3.11177E+05-6.74910E+03-8.16279E+05 2.30830E-09 1.06957E-09
 -1       311-2.10631E+06-3.44086E+05-3.60678E+03-8.53174E+05 1.86321E-09 5.21140E-10
 -1       312-2.13848E+06-3.11241E+05-1.96345E+03-8.16053E+05-1.57581E-09-3.58619E-09
 -1       313-2.10598E+06-3.43840E+05-1.74253E+03-8.53294E+05 4.00519E-10 3.71506E-09
 -1       314-2.13833E+06-3.11375E+05-2.36376E+03-8.16188E+05-1.26147E-09-3.27418E-11
 -1       315-2.10682E+06-3.43750E+05-4.68253E+03-8.52519E+05-1.38834E-09 2.52044E-09
 -1       316-2.13746E+06-3.11488E+05-8.96767E+03-8.16681E+05 7.18501E-10-1.31695E-09
 -1       317-2.11138E+06-3.47389E+05-2.10243E+04-8.50417E+05 7.48969E-10-2.53249E-09
 -1       318-2.13353E+06-3.08640E+05-3.86114E+04-8.17785E+05-1.06229E-09-7.40329E-10
 -1       319-2.14499E+06-3.92694E+05-1.02501E+05-8.41267E+05-5.36238E-09-5.79530E-09
 -1       320-2.10455E+06-2.74299E+05-1.63638E+05-8.22553E+05-2.99224E-09-3.36877E-09
 -1       336 5.11198E+02-9.04310E+05-3.41492E+03-1.63643E+03-6.81564E-09-1.60617E-09
 -1       337-1.57241E+03-9.05653E+05-5.41821E+03-1.34492E+04-4.65502E-09-3.65344E-09
 -1       338 8.32581E+02-9.04049E+05-8.33941E+03-1.34482E+03-8.21728E-09 1.85219E-09
 -1       339-9.98906E+03-9.10628E+05-2.00204E+04-1.39639E+04-5.71345E-09 1.21015E-08
 -1       340 7.53880E+03-8.99414E+05-3.08308E+04-1.12603E+03-8.84393E-09 4.40605E-09
 -1       356-6.77020E-01 2.54907E-01-2.16505E+00-1.73571E+00-4.74666E-07 5.77409E-09
 -1       357-1.17805E+00-4.74819E-01-4.56605E+00 6.98495E+00-9.49698E-07 2.26508E-09
 -1       358-5.57015E-01 2.22629E-01-8.65344E+00-1.73540E+00-5.63475E-07 3.36103E-09
 -1       359-2.21554E+00-1.50642E+00-1.81600E+01 6.98475E+00-1.76210E-07 1.62698E-09
 -1       360 3.60195E-01 1.28665E+00-3.46944E+01-1.73550E+00 1.68857E-07-5.72459E-10
 -1       361-8.02374E+00-9.78595E+00-7.41986E+01 6.98546E+00 5.13652E-07-3.89567E-10
 -1       362 5.25132E+00 8.50177E+00-1.38897E+02-1.73611E+00 6.83853E-07 1.04948E-09
 -1       363-4.00374E+01-6.38328E+01-3.05940E+02 6.99313E+00 8.52831E-07-9.85239E-11
 -1       364 3.23751E+01 5.53273E+01-5.54026E+02-1.74317E+00 8.37308E-07 2.20408E-09
 -1       365-2.23155E+02-4.11337E+02-1.27685E+03 7.04708E+00 8.24434E-07 6.01889E-09
 -1       366 1.88379E+02 3.55958E+02-2.19679E+03-1.79003E+00 6.35084E-07 2.75247E-09
 -1       367-1.30223E+03-2.63036E+03-5.42321E+03 7.37564E+00 4.47545E-07-5.49323E-09
 -1       368 1.11158E+03 2.27399E+03-8.62698E+03-2.07156E+00 1.51915E-07 7.42148E-10
 -1       369-7.80364E+03-1.67404E+04-2.36088E+04 9.24684E+00-1.48298E-07-3.34376E-09
 -1       370 6.69161E+03 1.44637E+04-3.33404E+04-3.66005E+00-7.02385E-08 5.54792E-09
 -1       376-9.80082E-01 1.57248E+00-9.45163E-01 1.60151E+00 1.45887E-06-5.48057E-07
 -1       377 5.52917E+00-5.70449E+00-1.67629E+00-6.01882E+00 2.91189E-06-1.09628E-06
 -1       378-9.30714E-01 1.53571E+00-2.99504E+00 1.63875E+00 7.46931E-07-2.80544E-07
 -1       379 4.92869E+00-6.31956E+00-6.66050E+00-6.01215E+00-1.41982E-06 5.30271E-07
 -1       380-3.79492E-01 2.18770E+00-1.28911E+01 1.59479E+00-3.99443E-06 1.49489E-06
 -1       381 1.37225E+00-1.12996E+01-2.98505E+01-5.38946E+00-6.56673E-06 2.46313E-06
 -1       382 2.62589E+00 6.51530E+00-5.65350E+01 1.01630E+00-8.99388E-06 3.37811E-06
 -1       383-1.93478E+01-4.33244E+01-1.35598E+02-4.47116E-01-1.14223E-05 4.29398E-06
 -1       384 2.03407E+01 3.42090E+01-2.47270E+02-3.34584E+00-1.35456E-05 5.08216E-06
 -1       385-1.45154E+02-2.48103E+02-6.23187E+02 3.40788E+01-1.56676E-05 5.88471E-06
 -1       386 1.28433E+02 2.11270E+02-1.07552E+03-3.34987E+01-1.72090E-05 6.45968E-06
 -1       387-9.10823E+02-1.55113E+03-2.90335E+03 2.69074E+02-1.87413E-05 7.03848E-06
 -1       388 7.86024E+02 1.33706E+03-4.64328E+03-2.38259E+02-1.84531E-05 6.92409E-06
 -1       389-5.61825E+03-9.82225E+03-1.37677E+04 1.82777E+03-1.81528E-05 6.82077E-06
 -1       390 4.83631E+03 8.48129E+03-1.98154E+04-1.59153E+03-9.08072E-06 3.40517E-06
 -1       406 2.91011E+02 3.81071E+05 9.92502E+02-1.31113E+02-1.50249E-09-2.28647E-09
 -1       407 3.50237E+02 3.81280E+05 1.78277E+03 1.36387E+02-9.07221E-10-2.98178E-09
 -1       408 8.50938E+02 3.80974E+05 3.40877E+03-4.76910E+00-1.94620E-09-1.34332E-09
 -1       409 3.57751E+03 3.82342E+05 7.60647E+03-1.14625E+02-1.34060E-09-3.43789E-10
 -1       410 1.03408E+04 3.80007E+05 1.54858E+04 1.29227E+02-2.27737E-09 1.16052E-09
 -1       501-3.12906E+05-6.53418E+04 1.24700E+05-1.00705E+04 1.36475E-08 1.17652E-08
 -1       502-1.17676E+05 7.09017E+04 1.11980E+05 2.57732E+04 1.46459E-08 2.12658E-08
 -1       503-2.41497E+05-5.24112E+03 3.35212E+04-1.19483E+04 6.88931E-09 1.31877E-08
 -1       504-8.44190E+04 1.35543E+04 4.89248E+04 1.57292E+04 3.14287E-10 1.58016E-08
 -1       505-3.45690E+05-8.55185E+03-1.53130E+04-2.33697E+01 8.96631E-09-2.88946E-09
 -1       506-6.44914E+04 6.32529E+03 3.70447E+04-1.01400E+04 3.13505E-08-1.74675E-08
 -1       507-2.61232E+05 1.79186E+03-4.60159E+03 1.39029E+04 2.84784E-08-2.37345E-08
 -1       508-1.55657E+05-4.03933E+03 1.36440E+04-2.42963E+04 1.66290E-08-2.99112E-08
 -1       509-2.55265E+05 2.58146E+03-4.71055E+03 1.41511E+04 2.41021E-08-2.37443E-08
 -1       510-7.00698E+04 4.55352E+03 3.21326E+04-1.11920E+04 2.22088E-08-2.12995E-08
 -1       511-3.46118E+05-7.53275E+03-2.24539E+04 7.80564E+02-1.11671E-08-5.00233E-09
 -1       512-8.29448E+04 5.67549E+03 3.28283E+04 1.48582E+04-7.13842E-08 1.17780E-08
 -1       513-2.42503E+05 1.57236E+03 4.96248E+03-1.18815E+04-7.00940E-05 1.23210E-06
 -1       514-1.43443E+05 1.70835E+04 3.61629E+04 2.57272E+04-1.41190E-04 3.35159E-06
 -1       515-2.86185E+05-1.83399E+04 1.89129E+04-1.00916E+04-6.97190E-05 9.64741E-07
 -1       521-4.16055E+06-5.40989E+05-2.64589E+05-1.60298E+06-1.15324E-09 4.36557E-10
 -1       522-4.24388E+06-7.15847E+05-1.65922E+05-1.61372E+06 2.00953E-09-3.20142E-09
 -1       523-4.20697E+06-5.97201E+05-6.23211E+04-1.59553E+06 2.93312E-11 5.02041E-10
 -1       524-4.18973E+06-6.41727E+05-3.40152E+04-1.62747E+06 1.98315E-09 5.51199E-09
 -1       525-4.21290E+06-6.02276E+05-1.44703E+04-1.59407E+06 8.74479E-10 4.77939E-09
 -1       526-4.18285E+06-6.35096E+05-7.65430E+03-1.62976E+06 3.81988E-10-1.57434E-09
 -1       527-4.21378E+06-6.02624E+05-3.97630E+03-1.59375E+06-5.22363E-10-2.65617E-09
 -1       528-4.18230E+06-6.34300E+05-3.20245E+03-1.62970E+06-3.42368E-09-1.52113E-09
 -1       529-4.21341E+06-6.03009E+05-3.96431E+03-1.59414E+06-2.91129E-09-9.73023E-09
 -1       530-4.18410E+06-6.33714E+05-7.58573E+03-1.62804E+06-1.79102E-09-4.43833E-10
 -1       531-4.21181E+06-6.03407E+05-1.43696E+04-1.59524E+06 3.77895E-10 8.44921E-10
 -1       532-4.19214E+06-6.38969E+05-3.36939E+04-1.62416E+06-1.19326E-09-7.74889E-10
 -1       533-4.20526E+06-5.99054E+05-6.17852E+04-1.59741E+06-2.20325E-10-6.03904E-10
 -1       534-4.24698E+06-7.11159E+05-1.64369E+05-1.60908E+06 2.31921E-10-1.17325E-09
 -1       535-4.15869E+06-5.43964E+05-2.62177E+05-1.60544E+06-2.57569E-09-1.03319E-09
 -1       536-1.02358E+04-1.29643E+04 5.17267E+04-9.88617E+03 1.05865E-09-7.11407E-09
 -1       537 9.36433E+03 1.66009E+04 3.34493E+04-4.26624E+04-4.18731E-09-1.74941E-09
 -1       538-2.40633E+03-1.49696E+03 1.33696E+04-9.73992E+03 1.42791E-10 4.75393E-09
 -1       539 2.06869E+02 1.58542E+03 7.55221E+03-4.28174E+04 2.31012E-09 1.10958E-09
 -1       540-1.53586E+03-2.23692E+02 3.35215E+03-9.72483E+03 1.89175E-10 1.67893E-09
 -1       541-1.08648E+03 1.38780E+02 1.78615E+03-4.28326E+04-5.89353E-10-2.03841E-10
 -1       542-1.44771E+03-3.95654E+01 8.00911E+02-9.72540E+03-5.01132E-10 4.31669E-09
 -1       543-1.39316E+03 4.49151E+01 3.68872E+02-4.28319E+04-6.98037E-11-3.55237E-09
 -1       544-1.44435E+03 8.61292E+00 6.75113E+01-9.72571E+03 1.09935E-09-2.42846E-09
 -1       545-1.51188E+03 3.21628E+01-1.92594E+02-4.28316E+04-1.04410E-09 8.71978E-10
 -1       546-1.42474E+03 3.94973E+01-5.19565E+02-9.72564E+03 2.69722E-10-1.83149E-09
 -1       547-1.67350E+03-2.37167E+02-1.24509E+03-4.28264E+04-1.17188E-09 2.34718E-09
 -1       548-1.25907E+03 2.24676E+02-2.26579E+03-9.73101E+03-1.38743E-09 2.05955E-09
 -1       549-3.05113E+03-2.83240E+03-5.63929E+03-4.27452E+04-8.62428E-10-4.27599E-09
 -1       550 9.59675E+01 2.09893E+03-8.79327E+03-9.80674E+03 4.57476E-10-4.12001E-10
 -1       551 1.20973E+04-3.61245E+05 2.76000E+04-5.71745E+05 1.22964E-09 4.02360E-09
 -1       552 9.61229E+03-3.57756E+05 2.76050E+04-6.97857E+05-6.60657E-09 1.59434E-08
 -1       553 7.08850E+03-3.62483E+05 3.87983E+04-5.70634E+05 1.36060E-09 7.31779E-09
 -1       554 2.62780E+04-3.46118E+05 7.85241E+04-6.97991E+05-6.35919E-09-1.01136E-09
 -1       555 6.17088E+04-3.74093E+05 1.48865E+05-5.71392E+05 6.47560E-10-2.72121E-09
 -1       556-1.39594E+05-1.21399E+05 2.84018E+04-2.00645E+05-3.22325E-09 1.99361E-09
 -1       557-1.11816E+05-1.48401E+05 1.43349E+04-2.22409E+05-1.49521E-09 1.44564E-09
 -1       558-1.39943E+05-1.28449E+05 5.95813E+03-1.96077E+05-2.91038E-09-4.49654E-09
 -1       559-1.15239E+05-1.52513E+05 2.96228E+03-2.23843E+05-1.72440E-09-8.67976E-09
 -1       560-1.40570E+05-1.28176E+05 1.28836E+03-1.96329E+05-5.82077E-11-1.85537E-09
 -1       561-1.16175E+05-1.52379E+05 6.38237E+02-2.24481E+05 8.16726E-10-3.03112E-09
 -1       562-1.41069E+05-1.27842E+05 2.39386E+02-1.96671E+05-8.00355E-11-9.20636E-10
 -1       563-1.16702E+05-1.52154E+05 6.22046E+01-2.24841E+05-1.19326E-09-5.31304E-09
 -1       564-1.41363E+05-1.27649E+05-1.29684E+02-1.96874E+05-3.57250E-09-4.17549E-09
 -1       565-1.16970E+05-1.52046E+05-3.85445E+02-2.25013E+05-3.81306E-09 2.01362E-09
 -1       566-1.41426E+05-1.27579E+05-8.65525E+02-1.96933E+05-2.82398E-10 8.89850E-09
 -1       567-1.17117E+05-1.52112E+05-1.92788E+03-2.24988E+05-7.37145E-10-1.78261E-09
 -1       568-1.41169E+05-1.27826E+05-3.97718E+03-1.96774E+05-8.49468E-10-3.08683E-09
 -1       569-1.19289E+05-1.54220E+05-9.37116E+03-2.24202E+05-1.50249E-09-9.00400E-10
 -1       570-1.39611E+05-1.33770E+05-1.87458E+04-1.94246E+05 2.26282E-09 3.45244E-09
 -1       571 2.44640E+05 1.08148E+04 1.62224E+04-6.26711E+04-1.76442E-10-6.03632E-09
 -1       572 2.47076E+05 3.73114E+03 7.95486E+03-6.88330E+04 3.00133E-10 2.51703E-10
 -1       573 2.45614E+05 8.66307E+02 3.53556E+03-6.25064E+04 1.90994E-11-2.22599E-09
 -1       574 2.45901E+05 2.74533E+02 1.77267E+03-6.90138E+04-7.99218E-10-5.93946E-09
 -1       575 2.45718E+05 2.97276E+01 8.36071E+02-6.24852E+04-2.60343E-10-3.04499E-09
 -1       576 2.45742E+05 3.42348E+00 4.25239E+02-6.90376E+04 3.10365E-10-4.84670E-09
 -1       577 2.45734E+05-1.27069E+01 2.08412E+02-6.24824E+04 4.29054E-10-9.59972E-10
 -1       578 2.45730E+05-1.07739E+01 1.11325E+02-6.90406E+04 7.10088E-10 1.59844E-09
 -1       579 2.45756E+05-1.78009E+01 6.34880E+01-6.24822E+04 3.68345E-10 7.63976E-11
 -1       580 2.45759E+05-2.40107E+01 5.19808E+01-6.90372E+04 7.94898E-10 3.67436E-09
 -1       581 2.45796E+05-3.55053E+01 6.16187E+01-6.24858E+04-3.02862E-10-1.86219E-09
 -1       582 2.45822E+05-3.59570E+01 1.11903E+02-6.90000E+04-7.11225E-10-5.78029E-09
 -1       583 2.45848E+05-1.93090E+01 2.08915E+02-6.25195E+04-1.23509E-09-2.91038E-11
 -1       584 2.45966E+05 1.31725E+02 4.68238E+02-6.87141E+04-2.57842E-09 1.13209E-09
 -1       585 2.45860E+05 5.34115E+02 9.45726E+02-6.27722E+04 2.89219E-10 4.12547E-09
 -1       586 1.42268E+03 1.13028E+05 2.78383E+03-1.51512E+05 4.54747E-10 1.52158E-09
 -1       587 8.93652E+02 1.13492E+05 3.07405E+03-1.68183E+05-8.84938E-10-3.94493E-10
 -1       588 1.19609E+03 1.12915E+05 4.78996E+03-1.51311E+05 5.44787E-10-1.56069E-08
 -1       589 4.55914E+03 1.14789E+05 1.01040E+04-1.68237E+05-1.08776E-09-3.61551E-08
 -1       590 1.30082E+04 1.11656E+05 2.02287E+04-1.51453E+05 5.56611E-10-1.78202E-08
 -1       591-1.23894E+05-3.67971E+04-2.40426E+04-5.93857E+04-2.36537E-09-4.35284E-09
 -1       592-1.25402E+05-3.54670E+04-1.20568E+04-6.58942E+04-1.42018E-09 2.95586E-10
 -1       593-1.25049E+05-2.97886E+04-5.11871E+03-6.28496E+04-3.06113E-09-5.58475E-09
 -1       594-1.22690E+05-3.24530E+04-2.51347E+03-6.61372E+04 1.57490E-09 6.75762E-09
 -1       595-1.25181E+05-2.95972E+04-1.15987E+03-6.29826E+04 1.21645E-10-2.13765E-09
 -1       596-1.22504E+05-3.23471E+04-5.86542E+02-6.61108E+04 3.44971E-09 2.59263E-09
 -1       597-1.25203E+05-2.96176E+04-3.16135E+02-6.29827E+04 8.66692E-10-1.31206E-09
 -1       598-1.22484E+05-3.23485E+04-2.46812E+02-6.61019E+04-1.04137E-10 4.27463E-11
 -1       599-1.25201E+05-2.96193E+04-3.05976E+02-6.29814E+04-3.26054E-10-1.96246E-09
 -1       600-1.22499E+05-3.23493E+04-5.59762E+02-6.61061E+04-1.03682E-10 1.64800E-09
 -1       601-1.25175E+05-2.96027E+04-1.10201E+03-6.29787E+04-8.07222E-09-2.59206E-09
 -1       602-1.22674E+05-3.24492E+04-2.38585E+03-6.61241E+04-7.66772E-09-1.05410E-09
 -1       603-1.25044E+05-2.97901E+04-4.85752E+03-6.28528E+04-5.72618E-09-3.75258E-09
 -1       604-1.25270E+05-3.52804E+04-1.14393E+04-6.58556E+04-2.05046E-09-2.09229E-09
 -1       605-1.23916E+05-3.64652E+04-2.28106E+04-5.95934E+04-1.32786E-10-4.72937E-11
 -1       606 8.97158E+04-1.00960E+04-1.58332E+04 2.92458E+04-5.18958E-09 2.11912E-10
 -1       607 8.72124E+04-3.40019E+03-7.78972E+03 3.20622E+04-7.23958E-10 7.41886E-09
 -1       608 8.86589E+04-7.25283E+02-3.47026E+03 2.90444E+04 3.34148E-09 3.14685E-10
 -1       609 8.83290E+04-1.97884E+02-1.74130E+03 3.22840E+04-2.73940E-09-4.03179E-09
 -1       610 8.85094E+04 1.41128E+01-8.23790E+02 2.90191E+04-6.12818E-09-2.39220E-09
 -1       611 8.84396E+04 4.71605E+01-4.14020E+02 3.23112E+04-1.02273E-08-8.08541E-10
 -1       612 8.84680E+04 5.53512E+01-1.96115E+02 2.90164E+04-5.21231E-09 2.02954E-09
 -1       613 8.84376E+04 6.31477E+01-8.75403E+01 3.23145E+04-5.63705E-09 4.25621E-09
 -1       614 8.84456E+04 5.78211E+01-2.03587E+01 2.90157E+04-7.57609E-10 2.78760E-10
 -1       615 8.84266E+04 6.95108E+01 3.76742E+01 3.23147E+04 5.89489E-09-2.04500E-09
 -1       616 8.84283E+04 6.70517E+01 1.12072E+02 2.90161E+04-5.71390E-09-4.36694E-09
 -1       617 8.84359E+04 1.09773E+02 2.57757E+02 3.23135E+04-2.64959E-09-2.33490E-09
 -1       618 8.84007E+04 1.81104E+02 5.22474E+02 2.90167E+04-5.31600E-10-1.30126E-09
 -1       619 8.86032E+04 5.96209E+02 1.17892E+03 3.23083E+04 1.99088E-09-2.18893E-09
 -1       620 8.82406E+04 1.60186E+03 2.39803E+03 2.90188E+04 9.63155E-10-7.70797E-10
 -1       621 8.42065E+02 2.57603E+05 2.92982E+03-2.13647E+04 1.24714E-09 3.86763E-10
 -1       622 3.85741E+02 2.58192E+05 3.10754E+03-2.61319E+04-6.53245E-10 3.48371E-09
 -1       623 2.44822E+02 2.57671E+05 4.60466E+03-2.13691E+04 1.34469E-09-3.34649E-09
 -1       624 2.43655E+03 2.59720E+05 9.48302E+03-2.60497E+04-4.72937E-10-3.63229E-09
 -1       625 6.98607E+03 2.56095E+05 1.80990E+04-2.14441E+04 1.20690E-09 8.32188E-10
 -1       626 1.59258E+05 5.23045E+04-2.42248E+03 1.01824E+05-1.81853E-09 2.42653E-09
 -1       627 1.55783E+05 5.63153E+04-1.15108E+03 1.04980E+05 1.61981E-09-3.57613E-09
 -1       628 1.59376E+05 5.33655E+04-4.84408E+02 1.01116E+05 3.80169E-09 7.29960E-09
 -1       629 1.55819E+05 5.69224E+04-2.29206E+02 1.05058E+05 1.79534E-09-5.74906E-09
 -1       630 1.59358E+05 5.34416E+04-9.73989E+01 1.01043E+05 2.09820E-09-4.48887E-09
 -1       631 1.55794E+05 5.69768E+04-3.35151E+01 1.05058E+05-3.30465E-09 1.45835E-09
 -1       632 1.59337E+05 5.34500E+04 1.29793E+01 1.01027E+05 4.12729E-09 9.76911E-09
 -1       633 1.55782E+05 5.69843E+04 6.67962E+01 1.05052E+05 7.11907E-10 2.91993E-09
 -1       634 1.59321E+05 5.34471E+04 1.54613E+02 1.01021E+05 7.78527E-10 1.03842E-09
 -1       635 1.55793E+05 5.69888E+04 3.43636E+02 1.05052E+05 4.33147E-10 6.00267E-11
 -1       636 1.59304E+05 5.34585E+04 7.09522E+02 1.01011E+05-3.43255E-09-7.68523E-10
 -1       637 1.55958E+05 5.71619E+04 1.57942E+03 1.05029E+05-2.05773E-09-7.10497E-09
 -1       638 1.59264E+05 5.39852E+04 3.26724E+03 1.00780E+05-9.82482E-10-2.90356E-09
 -1       639 1.57632E+05 5.99644E+04 7.76555E+03 1.04361E+05-8.78799E-10-4.13729E-09
 -1       640 1.59290E+05 6.21568E+04 1.63268E+04 9.73705E+04-2.02181E-09 2.96995E-09
 -1       641-3.78581E+03 2.72344E+03-6.27843E+03-1.78503E+01 3.03869E-05-4.24293E-08
 -1       642-6.50854E+03-3.15202E+03-4.44145E+03 3.61569E+01 6.07135E-05-8.15915E-08
 -1       643-4.83519E+03 4.28008E+02-1.61712E+03-1.79562E+01 5.61557E-05-8.45506E-08
 -1       644-5.28543E+03-4.93909E+02-1.00453E+03 3.69196E+01 5.15626E-05-6.53095E-08
 -1       645-5.00901E+03 6.58473E+01-3.82111E+02-1.86140E+01 3.59369E-05-5.57592E-08
 -1       646-5.07805E+03-6.84732E+01-1.72711E+02 3.78353E+01 2.02956E-05-2.76131E-08
 -1       647-5.04257E+03 2.64907E+00 2.24454E+01-1.88722E+01-1.44188E-06-1.11504E-09
 -1       648-5.01430E+03 4.63019E+01 2.21679E+02 3.77660E+01-2.31857E-05 3.48631E-08
 -1       649-5.07276E+03-4.89135E+01 4.79486E+02-1.85448E+01-4.91116E-05 7.78870E-08
 -1       650-4.83990E+03 3.73685E+02 1.15178E+03 3.63831E+01-7.50371E-05 1.03601E-07
 -1       651-5.21696E+03-3.24690E+02 1.99845E+03-1.74894E+01-1.01702E-04 1.48098E-07
 -1       652-3.85154E+03 2.40081E+03 4.94755E+03 3.29061E+01-1.28353E-04 1.68154E-07
 -1       653-6.06103E+03-2.07566E+03 7.87290E+03-1.50681E+01-1.41647E-04 1.91663E-07
 -1       654 2.08637E+03 1.52807E+04 2.15509E+04 2.32818E+01-1.54846E-04 1.79841E-07
 -1       655-1.11535E+04-1.32019E+04 3.04397E+04-7.86566E+00-7.74939E-05 7.25104E-08
 -1       656 1.01023E+04-3.75387E+05-4.29416E+04 1.03443E+04-1.51158E-09 7.15318E-09
 -1       657-1.47083E+04-3.91258E+05-3.17852E+04 4.39913E+04-2.04636E-09 1.19985E-08
 -1       658 2.06611E+03-3.80924E+05-2.05763E+04 1.02422E+04-7.64601E-10 6.07645E-09
 -1       659-1.42864E+04-3.91056E+05-3.10770E+04 4.40572E+04 4.14730E-10-3.82894E-09
 -1       660 9.78254E+03-3.75636E+05-4.15998E+04 1.02792E+04-1.47338E-10 5.71390E-10
 -1       661 2.43859E+05 3.38400E+04 1.92318E+04 9.56280E+04 3.39946E-09-7.29415E-10
 -1       662 2.48098E+05 4.49104E+04 1.15814E+04 9.83349E+04-2.96794E-10 2.39299E-09
 -1       663 2.46811E+05 3.67078E+04 4.51397E+03 9.56454E+04-4.98864E-09-6.42444E-09
 -1       664 2.44645E+05 4.02644E+04 2.38221E+03 9.88747E+04 4.33079E-09-7.74568E-09
 -1       665 2.47094E+05 3.69703E+04 1.05438E+03 9.56575E+04 5.94099E-10-6.31564E-09
 -1       666 2.44316E+05 3.98769E+04 5.61414E+02 9.88964E+04 8.27822E-09 7.04468E-09
 -1       667 2.47125E+05 3.69965E+04 3.27341E+02 9.56603E+04-4.79631E-10 4.13343E-09
 -1       668 2.44287E+05 3.98506E+04 3.15082E+02 9.88979E+04-5.15845E-09 7.35412E-11
 -1       669 2.47123E+05 3.69919E+04 4.60535E+02 9.56582E+04-6.57906E-09-1.07957E-09
 -1       670 2.44345E+05 3.99090E+04 9.21633E+02 9.89083E+04-9.28878E-10-3.07818E-09
 -1       671 2.47071E+05 3.69415E+04 1.80387E+03 9.56500E+04 2.86741E-09-7.17807E-09
 -1       672 2.44914E+05 4.05865E+04 4.11975E+03 9.88786E+04 1.26461E-08-9.81117E-11
 -1       673 2.46583E+05 3.64833E+04 7.82196E+03 9.56264E+04 4.13831E-09-6.77164E-09
 -1       674 2.50899E+05 4.86498E+04 2.00829E+04 9.79494E+04 9.88827E-09-1.94041E-09
 -1       675 2.41465E+05 3.15069E+04 3.33516E+04 9.55931E+04 5.17002E-09 3.38696E-09
 -1       676 5.45304E+02-3.70529E+05-3.21040E+03 9.73272E+01 2.67541E-10 7.15239E-09
 -1       677-1.46891E+03-3.71851E+05-4.73249E+03-8.80799E+02 5.26768E-10 8.21080E-09
 -1       678 7.04487E+02-3.70372E+05-6.96194E+03 9.55791E+01 2.94244E-09 5.04913E-09
 -1       679-8.28949E+03-3.75826E+05-1.65380E+04-8.76319E+02 1.79602E-09 2.38466E-09
 -1       680 6.20270E+03-3.66556E+05-2.53901E+04 9.16929E+01 5.27507E-10 3.67123E-10
 -1       716-2.87286E-01-1.36971E-01 1.28548E+01-5.02893E-04 1.68419E-09-3.23842E-09
 -1       717 1.41473E+00 1.03172E+00 2.26398E+01 1.28098E-03 3.53041E-09 1.27999E-10
 -1       718-1.12747E+00-8.95128E-01 4.20132E+01-7.77469E-04 8.72642E-10-8.44835E-10
 -1       719 6.68026E+00 7.02761E+00 8.71431E+01-1.16215E-03-6.03202E-09 1.83305E-09
 -1       720-5.55288E+00-6.13323E+00 1.66206E+02 1.94119E-03-4.82638E-09-2.50002E-09
 -1       721 3.45746E+01 4.68252E+01 3.55212E+02-4.09803E-02-3.71215E-09-3.02320E-09
 -1       722-2.90217E+01-4.06912E+01 6.64837E+02 3.90357E-02-4.88576E-09-2.56455E-09
 -1       723 1.87979E+02 3.05538E+02 1.46441E+03-3.93249E-01-1.47354E-09-6.39744E-10
 -1       724-1.58951E+02-2.64815E+02 2.65180E+03 3.54130E-01-4.45002E-09-1.24032E-09
 -1       725 1.06476E+03 1.96883E+03 6.11160E+03-3.02424E+00-3.38651E-09 4.69413E-10
 -1       726-9.05670E+02-1.70369E+03 1.05151E+04 2.66950E+00-5.73064E-09-1.17598E-09
 -1       727 6.23039E+03 1.25898E+04 2.59584E+04-2.12732E+01-6.09009E-09-1.59343E-09
 -1       728-5.32225E+03-1.08835E+04 4.12999E+04 1.86030E+01-1.03807E-09-3.21961E-09
 -1       729 3.73507E+04 8.01243E+04 1.13009E+05-1.43084E+02 1.04611E-09-1.03864E-09
 -1       730-3.19873E+04-6.92155E+04 1.59715E+05 1.24534E+02 9.22788E-09-2.88128E-09
 -1       766-6.92296E+04-3.20279E+04 1.59686E+05-8.97916E+01 1.45519E-11 3.66376E-09
 -1       767 8.02386E+04 3.74171E+04 1.13000E+05-2.25631E+01 5.85169E-09-5.05743E-10
 -1       768-1.09837E+04-5.41656E+03 4.11634E+04 2.43525E+01-9.64064E-11 1.39983E-09
 -1       769 1.33259E+04 6.59647E+03 2.59740E+04-1.52920E+02 4.46016E-09 4.96343E-09
 -1       770-2.33910E+03-1.24565E+03 9.91259E+03 4.06136E+01-6.91671E-10 2.16455E-09
 -1       771-2.01939E+06-3.94547E+05-5.80126E+04-8.71322E+05-6.59202E-09-1.30967E-09
 -1       772-2.01065E+06-4.03076E+05-2.90126E+04-9.00566E+05-2.73576E-09 6.75755E-09
 -1       773-2.02337E+06-3.76798E+05-1.24162E+04-8.79330E+05-3.92174E-09-6.98856E-09
 -1       774-2.00412E+06-3.96360E+05-6.05804E+03-9.02596E+05 5.72982E-09 3.37150E-09
 -1       775-2.02437E+06-3.75864E+05-2.85127E+03-8.79866E+05 1.52431E-09-7.91260E-10
 -1       776-2.00409E+06-3.96048E+05-1.41790E+03-9.03192E+05 6.96673E-10-6.12317E-10
 -1       777-2.02494E+06-3.75588E+05-7.88937E+02-8.80076E+05 5.20231E-10 3.93811E-10
 -1       778-2.00437E+06-3.95967E+05-5.85865E+02-9.03607E+05-1.95359E-09-8.15703E-11
 -1       779-2.02527E+06-3.75375E+05-7.34336E+02-8.80217E+05-1.23691E-10-4.22460E-10
 -1       780-2.00461E+06-3.95918E+05-1.32038E+03-9.03880E+05-1.30331E-09-9.30413E-10
 -1       781-2.02538E+06-3.75225E+05-2.61227E+03-8.80284E+05-1.26420E-09-1.53796E-09
 -1       782-2.00511E+06-3.96132E+05-5.66318E+03-9.04004E+05-5.14774E-10-1.03319E-09
 -1       783-2.02506E+06-3.75675E+05-1.15525E+04-8.79995E+05-2.59388E-09-2.17369E-09
 -1       784-2.01132E+06-4.02817E+05-2.72399E+04-9.03192E+05-2.87400E-09-3.60706E-09
 -1       785-2.02217E+06-3.91731E+05-5.43557E+04-8.72271E+05 2.33740E-10 1.18598E-09
 -1       786 1.96870E+05-6.19808E+03 2.53208E+04-1.48315E+03 9.85096E-10-1.02591E-09
 -1       787 2.06114E+05 8.22295E+03 1.63228E+04-6.59029E+03-4.29566E-10-3.95994E-09
 -1       788 2.00720E+05-6.55702E+02 6.56673E+03-1.47929E+03-4.76120E-10-2.29920E-09
 -1       789 2.01812E+05 8.37786E+02 3.68770E+03-6.58728E+03 5.37057E-10-1.09821E-09
 -1       790 2.01167E+05-7.20905E+01 1.66960E+03-1.48574E+03-1.96565E-10 2.03863E-09
 -1       791 2.01304E+05 8.44107E+01 8.98999E+02-6.57805E+03 7.23389E-10 4.30742E-09
 -1       792 2.01225E+05-8.97970E+00 4.59477E+02-1.48852E+03 3.19602E-10 2.19924E-09
 -1       793 2.01240E+05 1.14317E+01 3.05992E+02-6.57671E+03-8.15241E-10-1.72098E-09
 -1       794 2.01231E+05-5.01670E+00 2.82414E+02-1.48708E+03 2.55966E-10-2.85940E-09
 -1       795 2.01260E+05 3.61558E+01 4.31121E+02-6.58413E+03 1.13687E-13 1.63363E-09
 -1       796 2.01207E+05-3.20775E+01 7.41556E+02-1.48110E+03 3.59819E-10-1.37112E-09
 -1       797 2.01481E+05 3.59788E+02 1.60314E+03-6.59868E+03-7.86088E-10-1.57783E-09
 -1       798 2.01015E+05-2.84892E+02 2.84002E+03-1.47253E+03-6.79847E-10 2.02476E-10
 -1       799 2.03342E+05 3.54742E+03 7.05115E+03-6.60360E+03-2.33553E-09 6.69297E-09
 -1       800 1.99353E+05-2.67968E+03 1.09329E+04-1.47642E+03 9.18362E-10 2.09275E-09
 -1       801-1.22257E+04 2.09218E+05 2.98847E+04-2.88201E+05 4.09273E-10 1.10595E-09
 -1       802 3.49229E+04 2.14525E+05 4.42098E+04-1.25708E+06 1.48502E-08-5.82077E-11
 -1       803 5.07568E+02 2.04464E+05 5.52385E+04-2.87405E+05 8.11269E-09 5.57498E-09
 -1       804 8.19334E+04 2.42273E+05 1.25793E+05-1.25693E+06 1.00990E-08-7.19047E-09
 -1       805-5.14337E+04 1.81888E+05 1.83209E+05-2.88371E+05 7.62520E-09-2.77942E-09
 -1       806-1.81698E+05-5.41654E+04-1.53223E+04-9.19403E+04 1.32417E-09-3.52702E-09
 -1       807-1.81105E+05-5.11403E+04-7.28629E+03-9.74162E+04 3.41061E-12-5.48164E-09
 -1       808-1.81686E+05-4.64954E+04-3.06639E+03-9.51601E+04-2.35104E-10-1.93495E-09
 -1       809-1.79565E+05-4.84913E+04-1.48241E+03-9.80430E+04 4.05635E-10 1.13059E-09
 -1       810-1.81734E+05-4.59954E+04-6.69217E+02-9.53848E+04-2.82625E-10 2.46939E-09
 -1       811-1.79420E+05-4.83253E+04-3.30261E+02-9.80682E+04-6.34600E-10 4.03361E-10
 -1       812-1.81749E+05-4.59839E+04-1.62568E+02-9.53943E+04-1.09418E-09-1.13050E-09
 -1       813-1.79403E+05-4.83230E+04-1.00496E+02-9.80634E+04 1.67006E-09 1.03912E-08
 -1       814-1.81748E+05-4.59893E+04-9.06743E+01-9.53920E+04-1.25783E-09-4.08863E-09
 -1       815-1.79404E+05-4.83276E+04-1.39319E+02-9.80591E+04-4.92855E-09-5.77779E-09
 -1       816-1.81736E+05-4.59989E+04-2.59625E+02-9.53850E+04 2.87400E-09 1.36897E-08
 -1       817-1.79459E+05-4.83861E+04-5.63969E+02-9.80345E+04 1.67347E-09 8.39918E-10
 -1       818-1.81704E+05-4.62008E+04-1.16175E+03-9.53034E+04-1.04865E-09-8.59927E-10
 -1       819-1.80100E+05-4.93225E+04-2.75650E+03-9.77117E+04-7.13953E-11 1.85332E-09
 -1       820-1.81634E+05-4.91640E+04-5.79543E+03-9.41497E+04-2.63481E-09-5.40922E-09
 -1       821-2.55190E+05 7.65415E+03-3.12942E+04 1.71583E+03-2.17278E-09 2.97587E-09
 -1       822-2.66596E+05-1.01622E+04-2.01727E+04 7.91447E+03-1.92745E-09-5.82622E-09
 -1       823-2.59950E+05 8.07187E+02-8.12014E+03 1.65807E+03 2.66141E-09-1.49294E-09
 -1       824-2.61296E+05-1.02643E+03-4.56315E+03 7.99602E+03-1.09640E-09-1.94791E-09
 -1       825-2.60505E+05 8.95709E+01-2.07884E+03 1.63367E+03-5.55087E-09 2.04636E-09
 -1       826-2.60681E+05-9.05598E+01-1.14102E+03 8.03592E+03-9.24757E-09 3.68050E-09
 -1       827-2.60577E+05 1.44458E+01-6.28690E+02 1.61802E+03-5.23391E-09 1.99981E-09
 -1       828-2.60615E+05-2.28363E+00-5.03637E+02 8.06028E+03-7.02389E-09-2.07395E-09
 -1       829-2.60578E+05 1.46462E+01-5.93484E+02 1.60929E+03-9.78304E-10-2.34973E-09
 -1       830-2.60680E+05-7.79301E+01-1.04927E+03 8.07001E+03 5.25401E-09 3.71940E-09
 -1       831-2.60514E+05 8.46294E+01-1.89517E+03 1.60830E+03-2.75065E-09-3.59023E-10
 -1       832-2.61247E+05-9.26197E+02-4.15365E+03 8.06414E+03-2.27629E-10 1.59218E-10
 -1       833-2.60011E+05 7.39089E+02-7.38520E+03 1.61529E+03 2.20325E-10 1.71713E-09
 -1       834-2.66074E+05-9.23359E+03-1.83496E+04 8.03075E+03-6.64102E-10 1.40312E-09
 -1       835-2.55683E+05 6.96874E+03-2.84615E+04 1.64294E+03 1.80876E-09-3.69255E-10
 -1       836-3.99080E+03 4.13312E+05 3.40734E+04-2.08958E+04-1.69894E-09-2.17824E-09
 -1       837 8.68486E+03 4.24535E+05 2.62870E+04-4.94692E+04-1.84480E-09-6.20503E-10
 -1       838-9.42693E+02 4.16992E+05 2.18411E+04-2.08430E+04-2.46246E-09-1.23960E-09
 -1       839 1.39616E+04 4.28169E+05 3.75611E+04-4.94679E+04-1.72440E-09-3.20642E-09
 -1       840-6.91641E+03 4.09676E+05 5.64565E+04-2.08962E+04-2.25555E-09-4.01087E-09
 -1       841 6.40538E+04 9.28658E+03-7.37000E+02 2.38831E+04-1.05553E-09-3.08631E-10
 -1       842 6.35394E+04 8.76599E+03-5.04733E+02 2.41908E+04-1.20681E-08 2.00882E-09
 -1       843 6.38828E+04 9.05624E+03-1.69430E+02 2.39727E+04-1.70547E-05 6.41092E-06
 -1       844 6.37474E+04 9.02389E+03-9.94690E+01 2.40758E+04-3.40969E-05 1.28281E-05
 -1       845 6.38457E+04 9.02876E+03-2.53141E+01 2.39980E+04-2.33148E-05 8.76406E-06
 -1       846 6.37981E+04 9.05623E+03 1.07697E+01 2.40410E+04-1.25182E-05 4.70770E-06
 -1       847 6.38320E+04 9.02390E+03 5.50138E+01 2.40075E+04-7.46633E-06 2.80234E-06
 -1       848 6.38345E+04 9.09187E+03 1.48864E+02 2.40245E+04-2.41305E-06 9.09313E-07
 -1       849 6.38092E+04 8.99313E+03 2.78475E+02 2.40145E+04-5.36547E-07 2.05137E-07
 -1       850 6.39780E+04 9.32579E+03 7.06146E+02 2.39856E+04 1.33996E-06-5.00554E-07
 -1       851 6.36886E+04 8.79001E+03 1.22001E+03 2.40463E+04 9.87520E-07-3.72636E-07
 -1       852 6.48394E+04 1.08131E+04 3.29465E+03 2.37291E+04 6.34108E-07-2.39236E-07
 -1       853 6.29477E+04 7.50601E+03 5.26878E+03 2.42709E+04-2.09951E-06 7.97856E-07
 -1       854 7.01630E+04 2.02208E+04 1.56237E+04 2.19868E+04-4.84169E-06 1.81973E-06
 -1       855 5.83653E+04-6.16050E+02 2.24880E+04 2.57881E+04-2.42461E-06 9.09616E-07
 -1       856-2.14117E+05 3.15155E+03-2.51101E+04 7.17649E+03-5.78984E-09-2.72485E-09
 -1       857-2.22323E+05-6.05582E+03-1.53353E+04 1.72905E+04-6.14000E-09-5.89262E-09
 -1       858-2.17666E+05 2.92906E+02-6.44760E+03 7.09181E+03-1.25597E-08-1.07912E-09
 -1       859-2.18480E+05-4.14730E+02-3.46882E+03 1.73888E+04-1.32768E-08 5.04315E-10
 -1       860-2.18006E+05 4.97967E+01-1.62830E+03 7.07598E+03-4.75256E-09-3.84148E-09
 -1       861-2.18125E+05 1.86055E+01-8.56817E+02 1.74103E+04-7.54926E-09-1.65903E-09
 -1       862-2.18050E+05 2.74393E+01-4.48581E+02 7.06992E+03 6.43649E-09-3.42004E-09
 -1       863-2.18088E+05 5.20340E+01-2.99238E+02 1.74173E+04 1.58505E-08-1.99520E-10
 -1       864-2.18054E+05 2.58872E+01-2.85469E+02 7.06901E+03 7.88629E-09-1.77590E-09
 -1       865-2.18098E+05 3.80873E+01-4.34973E+02 1.74133E+04 9.06289E-09-4.16702E-09
 -1       866-2.18034E+05 3.44607E+01-7.70772E+02 7.07394E+03-1.58343E-09-5.45344E-09
 -1       867-2.18255E+05-1.64414E+02-1.60981E+03 1.73959E+04 1.07980E-09 1.31188E-10
 -1       868-2.17874E+05 1.43322E+02-2.98006E+03 7.08657E+03 2.58842E-09-3.14481E-09
 -1       869-2.20016E+05-2.77130E+03-7.07615E+03 1.73065E+04-5.23687E-09-1.53807E-09
 -1       870-2.16233E+05 1.45649E+03-1.15874E+04 7.16452E+03 4.97630E-09 4.23825E-10
 -1       871-3.57510E+03-2.87619E+04-7.54708E+03 1.05464E+05 2.32558E-09-2.80852E-09
 -1       872-1.23053E+03-3.02407E+04-2.33756E+03 1.27240E+05 2.00635E-09 2.89583E-09
 -1       873-1.61039E+01-2.96883E+04 1.99299E+03 1.05248E+05 7.05768E-10 1.03637E-09
 -1       874 2.15804E+03-2.79134E+04 7.78908E+03 1.27326E+05 4.64570E-09-8.26446E-10
 -1       875 6.82768E+03-3.12009E+04 1.66699E+04 1.05389E+05 2.66391E-09-5.95719E-11
 -1       876 3.12777E+05 4.50464E+04 2.79645E+04 1.24404E+05 2.77851E-10-2.17369E-09
 -1       877 3.17896E+05 6.05883E+04 1.66206E+04 1.29462E+05-6.23697E-09-1.10729E-08
 -1       878 3.16914E+05 4.85387E+04 6.54210E+03 1.24635E+05 6.93944E-10-2.95177E-09
 -1       879 3.13012E+05 5.42372E+04 3.41701E+03 1.30139E+05-1.82638E-09 1.72713E-09
 -1       880 3.17283E+05 4.88587E+04 1.51845E+03 1.24672E+05 3.05295E-09 8.08654E-10
 -1       881 3.12575E+05 5.37334E+04 7.93698E+02 1.30140E+05-2.95108E-09-7.08403E-09
 -1       882 3.17317E+05 4.88986E+04 4.42440E+02 1.24682E+05 4.94754E-09 3.82219E-09
 -1       883 3.12538E+05 5.36918E+04 3.87840E+02 1.30125E+05-1.34470E-08-3.28122E-10
 -1       884 3.17311E+05 4.88999E+04 5.29954E+02 1.24684E+05-8.48490E-09-6.91784E-11
 -1       885 3.12599E+05 5.37401E+04 1.02842E+03 1.30130E+05 6.92549E-09 2.92073E-09
 -1       886 3.17257E+05 4.88546E+04 2.01041E+03 1.24676E+05-1.14363E-09-2.08320E-09
 -1       887 3.13189E+05 5.44023E+04 4.54609E+03 1.30112E+05-4.66861E-09-6.78142E-10
 -1       888 3.16756E+05 4.84357E+04 8.71407E+03 1.24630E+05-5.56332E-09 8.38008E-09
 -1       889 3.19684E+05 6.28736E+04 2.21421E+04 1.29214E+05 9.52810E-09 1.43336E-09
 -1       890 3.11254E+05 4.37732E+04 3.72584E+04 1.24304E+05 9.20863E-10-3.49792E-09
 -1       891 6.86430E+02-1.56619E+05-6.40971E+03 3.16956E+04 1.47293E-09-1.82263E-09
 -1       892-1.71934E+03-1.58670E+05-4.86638E+03 7.54333E+04 2.01226E-10-3.62741E-09
 -1       893 1.33217E+02-1.57350E+05-3.94179E+03 3.15981E+04 6.10953E-10-1.43530E-09
 -1       894-2.56642E+03-1.59225E+05-6.65650E+03 7.54121E+04-1.93882E-09-4.67662E-09
 -1       895 1.13528E+03-1.56026E+05-9.96785E+03 3.17161E+04-1.03591E-09 4.72028E-10
 -1       926-5.09708E+02-8.99976E+02 2.05554E+03 3.47697E+01 2.47420E-10-9.38599E-10
 -1       927 5.62622E+02 1.04187E+03 1.50220E+03-1.37105E+02-2.52891E-09-1.23225E-09
 -1       928-1.40214E+02-1.42139E+02 5.66789E+02 3.38249E+01 8.96048E-11-5.84237E-10
 -1       929 1.21819E+02 1.70004E+02 4.35808E+02-1.36138E+02 1.50045E-09-6.06818E-10
 -1       930-6.91718E+01-2.80941E+01 3.00465E+02 3.38027E+01 7.99885E-11-2.73113E-10
 -1       931 5.19421E+01 7.25744E+01 4.46796E+02-1.36125E+02-3.22365E-10-1.35586E-10
 -1       932-7.05368E+01-4.45880E+01 7.09716E+02 3.38116E+01-7.53602E-11-4.85727E-11
 -1       933 1.76358E+02 3.14636E+02 1.51304E+03-1.36111E+02-4.81021E-10 1.71468E-10
 -1       934-1.93712E+02-2.70036E+02 2.71002E+03 3.37880E+01-6.40706E-07-1.43245E-11
 -1       935 1.05791E+03 2.00605E+03 6.23176E+03-1.35960E+02-1.28052E-06 2.61480E-12
 -1       936-9.52011E+02-1.73566E+03 1.07158E+04 3.36611E+01-4.52997E-07 9.23137E-11
 -1       937 6.32161E+03 1.28274E+04 2.64499E+04-1.36324E+02 3.79594E-07 4.92037E-10
 -1       938-5.45499E+03-1.10889E+04 4.20795E+04 3.41521E+01 1.96305E-07-5.82077E-11
 -1       939 3.80415E+04 8.16389E+04 1.15146E+05-1.53539E+02 2.03680E-09 5.45697E-12
 -1       940-3.26317E+04-7.05244E+04 1.62728E+05 5.08754E+01-7.74068E-09 7.56700E-10
 -1       956-2.96040E+05-5.03463E+03-1.30176E+04 3.33595E+04-5.04951E-09 4.43470E-09
 -1       957-2.98650E+05-1.71239E+03-6.69727E+03 4.03930E+04-8.57654E-10-1.69553E-09
 -1       958-2.97236E+05-1.20093E+02-3.01951E+03 3.31462E+04 4.01542E-09-3.16913E-09
 -1       959-2.97459E+05 2.81780E+00-1.54129E+03 4.06248E+04-1.57888E-09-1.98179E-09
 -1       960-2.97361E+05 6.68257E+01-7.51202E+02 3.31257E+04-4.58112E-09 5.12500E-10
 -1       961-2.97394E+05 7.84074E+01-3.95109E+02 4.06482E+04-9.29504E-09 1.48930E-10
 -1       962-2.97396E+05 7.08016E+01-2.21143E+02 3.31224E+04-3.58023E-09 8.78572E-10
 -1       963-2.97403E+05 8.70864E+01-1.67883E+02 4.06526E+04-5.42241E-09 1.78829E-09
 -1       964-2.97408E+05 7.68620E+01-1.92689E+02 3.31212E+04-1.76783E-09 1.21327E-09
 -1       965-2.97417E+05 9.20574E+01-3.23664E+02 4.06527E+04 5.28223E-09-1.57024E-09
 -1       966-2.97397E+05 8.44627E+01-6.02938E+02 3.31223E+04-2.57819E-09 1.09026E-09
 -1       967-2.97488E+05 4.22852E+01-1.23344E+03 4.06392E+04 9.78844E-10 2.10093E-09
 -1       968-2.97311E+05-5.55877E+01-2.41264E+03 3.31349E+04 6.45741E-11 2.21576E-09
 -1       969-2.98457E+05-1.32116E+03-5.35442E+03 4.04912E+04-3.89264E-10 6.79461E-09
 -1       970-2.96365E+05-3.98008E+03-1.04055E+04 3.32741E+04-8.39464E-10 2.46473E-09
 -1       971-3.80666E+05 1.67014E+03-1.76422E+04 8.28056E+03-3.01816E-09 4.77303E-09
 -1       972-3.86242E+05-3.94048E+03-1.06344E+04 1.82865E+04-6.34827E-09-9.13587E-10
 -1       973-3.83113E+05 1.60369E+02-4.51907E+03 8.16649E+03-6.04905E-09-6.68479E-11
 -1       974-3.83626E+05-2.34122E+02-2.41920E+03 1.84254E+04-3.50406E-09 2.97382E-09
 -1       975-3.83340E+05 3.71238E+01-1.16090E+03 8.14021E+03-8.38099E-10 2.23281E-10
 -1       976-3.83407E+05 3.41699E+01-6.42113E+02 1.84642E+04-6.18240E-09 3.96483E-09
 -1       977-3.83371E+05 2.87565E+01-4.03718E+02 8.12741E+03 5.89353E-09 1.31422E-09
 -1       978-3.83398E+05 5.52863E+01-3.93270E+02 1.84817E+04 1.67980E-08 1.53057E-09
 -1       979-3.83371E+05 3.32348E+01-5.62304E+02 8.12268E+03 6.00370E-09 4.81066E-10
 -1       980-3.83447E+05 2.65065E+01-1.05296E+03 1.84826E+04 8.58060E-09 2.19514E-09
 -1       981-3.83324E+05 5.89013E+01-1.99698E+03 8.12645E+03 1.89596E-09 4.92014E-09
 -1       982-3.83863E+05-4.30252E+02-4.22535E+03 1.84646E+04 9.33369E-10 1.77494E-10
 -1       983-3.82938E+05 2.88230E+02-7.91126E+03 8.14108E+03 2.35696E-09-1.45565E-09
 -1       984-3.88491E+05-6.91621E+03-1.86502E+04 1.83699E+04-7.15750E-09 1.24055E-09
 -1       985-3.78662E+05 2.95355E+03-3.09314E+04 8.22501E+03-6.02995E-10-1.10958E-10
 -3
    1PSTEP                        19          10           1          
  100CL  110 8.30811E-01         568                     0   10           1
 -4  DISP        4    1
 -5  D1          1    2    1    0
 -5  D2          1    2    2    0
 -5  D3          1    2    3    0
 -5  ALL         1    2    0    0    1ALL
 -1         1 1.22205E-04 0.00000E+00 0.00000E+00
 -1         2 1.22229E-04 0.00000E+00 0.00000E+00
 -1         3 8.38298E-05 1.57059E-27 1.32349E-23
 -1         4 6.15807E-05-2.32714E-28-5.04871E-29
 -1         5 6.23144E-05 2.87094E-27 0.00000E+00
 -1         8 9.72607E-05-1.21934E-06 0.00000E+00
 -1         9 7.74865E-05-8.70129E-06 0.00000E+00
 -1        10 7.64657E-05-2.42215E-06 0.00000E+00
 -1        11 6.12018E-05-6.74079E-06 0.00000E+00
 -1        12 6.12121E-05 1.01743E-06 0.00000E+00
 -1        15 7.06022E-05-1.31094E-06 4.13590E-25
 -1        16 6.19103E-05-8.86326E-06 0.00000E+00
 -1        17 5.62446E-05-4.86079E-06 0.00000E+00
 -1        18 5.61794E-05-5.19765E-07 0.00000E+00
 -1        19 5.79193E-05 2.02749E-06 0.00000E+00
 -1        20 5.85404E-05 2.36707E-05 0.00000E+00
 -1        21 5.84823E-05 5.26081E-05 0.00000E+00
 -1        23 2.19494E-05-7.71494E-05 0.00000E+00
 -1        24 2.17395E-05-5.97439E-06 0.00000E+00
 -1        25 5.23018E-05-2.27355E-07 0.00000E+00
 -1        26 5.37288E-05 2.70696E-06 0.00000E+00
 -1        27 5.18824E-05 2.26743E-05 0.00000E+00
 -1        28 5.03178E-05 5.16222E-05 0.00000E+00
 -1        31 6.55351E-08-6.07012E-06 0.00000E+00
 -1        32 0.00000E+00 0.00000E+00 0.00000E+00
 -1        33 4.89560E-05 3.79048E-06 0.00000E+00
 -1        34 4.68380E-05 2.25892E-05 0.00000E+00
 -1        35 4.41018E-05 5.12040E-05 0.00000E+00
 -1        36 1.22192E-04-2.89895E-19 0.00000E+00
 -1        37 1.22193E-04-5.35817E-19 1.65436E-24
 -1        38 1.22194E-04-6.47618E-19 0.00000E+00
 -1        39 1.22197E-04-8.60186E-19 2.06795E-25
 -1        40 1.22201E-04-7.18962E-19 2.06795E-25
 -1        41 1.22205E-04-6.95041E-19 0.00000E+00
 -1        42 1.22209E-04-1.18283E-18-2.58494E-26
 -1        43 1.22213E-04-1.10528E-18 2.58494E-26
 -1        44 1.22217E-04-1.24679E-18 0.00000E+00
 -1        45 1.22221E-04-9.25382E-19 3.23117E-27
 -1        46 1.22225E-04-1.63708E-19 0.00000E+00
 -1        47 1.22229E-04 6.22515E-19 2.06795E-25
 -1        48 1.22232E-04 4.24376E-19 0.00000E+00
 -1        49 1.22234E-04 2.68023E-19-8.27181E-25
 -1        50 1.22236E-04 3.18698E-19 0.00000E+00
 -1        51 1.20321E-04-2.02489E-07 0.00000E+00
 -1        52 1.17199E-04-3.99248E-07 0.00000E+00
 -1        53 1.13080E-04-5.96388E-07 0.00000E+00
 -1        54 1.08215E-04-7.96318E-07 0.00000E+00
 -1        55 1.02857E-04-1.00110E-06 0.00000E+00
 -1        56 1.20042E-04-1.92988E-06 5.29396E-23
 -1        57 1.18482E-04-5.76473E-06 0.00000E+00
 -1        58 1.17440E-04-1.09787E-05-5.29396E-23
 -1        59 1.16674E-04-1.69899E-05 5.29396E-23
 -1        60 1.15927E-04-2.30530E-05 1.05879E-22
 -1        61 1.14922E-04-2.84255E-05 0.00000E+00
 -1        62 1.13432E-04-3.24953E-05 0.00000E+00
 -1        63 1.11264E-04-3.47452E-05 0.00000E+00
 -1        64 1.08350E-04-3.50027E-05-1.05879E-22
 -1        65 1.04673E-04-3.32385E-05 5.29396E-23
 -1        66 1.00365E-04-2.98054E-05 0.00000E+00
 -1        67 9.56048E-05-2.51745E-05 0.00000E+00
 -1        68 9.06542E-05-2.00444E-05-5.29396E-23
 -1        69 8.58085E-05-1.51420E-05-2.64698E-23
 -1        70 8.13091E-05-1.11655E-05 0.00000E+00
 -1        86 1.37761E-04-7.33353E-07-1.32349E-23
 -1        87 1.83786E-04-2.35621E-06 6.61744E-24
 -1        88 2.08947E-04-3.45897E-06-1.32349E-23
 -1        89 1.62648E-04-5.28726E-06 0.00000E+00
 -1        90 1.00197E-04-7.79565E-06 0.00000E+00
 -1       121 8.36230E-05-4.02863E-07 0.00000E+00
 -1       122 8.30033E-05-8.05878E-07-6.61744E-24
 -1       123 8.19731E-05-1.20921E-06 0.00000E+00
 -1       124 8.05362E-05-1.61297E-06-6.61744E-24
 -1       125 7.86980E-05-2.01736E-06 0.00000E+00
 -1       161 6.15839E-05-8.51536E-09-1.00974E-28
 -1       162 6.15935E-05-3.40308E-08 0.00000E+00
 -1       163 6.16073E-05-7.08528E-08 0.00000E+00
 -1       164 6.16232E-05-1.13287E-07 4.03897E-28
 -1       165 6.16391E-05-1.55638E-07 1.61559E-27
 -1       166 6.16528E-05-1.92213E-07 0.00000E+00
 -1       167 6.16622E-05-2.17317E-07 6.46235E-27
 -1       168 6.16652E-05-2.25253E-07 0.00000E+00
 -1       169 6.16596E-05-2.10327E-07-2.58494E-26
 -1       170 6.16434E-05-1.66832E-07 0.00000E+00
 -1       171 6.16143E-05-8.90828E-08 0.00000E+00
 -1       172 6.15705E-05 2.86982E-08 1.03398E-25
 -1       173 6.15096E-05 1.92130E-07 0.00000E+00
 -1       174 6.14306E-05 4.07388E-07 4.13590E-25
 -1       175 6.13298E-05 6.79637E-07 0.00000E+00
 -1       191 6.22838E-05 1.69619E-07 6.61744E-24
 -1       192 6.21918E-05 3.39232E-07 0.00000E+00
 -1       193 6.20385E-05 5.08835E-07 0.00000E+00
 -1       194 6.18240E-05 6.78419E-07 3.30872E-24
 -1       195 6.15483E-05 8.47966E-07 0.00000E+00
 -1       251 9.63316E-05 4.60402E-06 2.64698E-23
 -1       252 9.53705E-05 1.29863E-05 0.00000E+00
 -1       253 9.44195E-05 1.17270E-05 0.00000E+00
 -1       254 9.32282E-05-1.09568E-05 1.32349E-23
 -1       255 9.21514E-05-2.21385E-05 0.00000E+00
 -1       256 9.06359E-05 1.05564E-05 0.00000E+00
 -1       257 8.92817E-05 3.36571E-05 0.00000E+00
 -1       258 8.74458E-05-5.77639E-06 1.32349E-23
 -1       259 8.56255E-05-4.46072E-05 0.00000E+00
 -1       260 8.42250E-05-1.97319E-05-1.32349E-23
 -1       261 8.26648E-05 1.40708E-05 2.64698E-23
 -1       262 8.15631E-05 1.52331E-06 1.32349E-23
 -1       263 8.03354E-05-2.26179E-05 0.00000E+00
 -1       264 7.93807E-05-2.30327E-05 1.32349E-23
 -1       265 7.84107E-05-1.36183E-05 0.00000E+00
 -1       266 9.28177E-05-1.25195E-06-6.61744E-24
 -1       267 8.83746E-05-1.26509E-06 0.00000E+00
 -1       268 8.39315E-05-1.27950E-06-1.65436E-24
 -1       269 7.94884E-05-1.29022E-06 0.00000E+00
 -1       270 7.50453E-05-1.30087E-06 0.00000E+00
 -1       271 9.37796E-05 1.88322E-06-5.29396E-23
 -1       272 9.06347E-05 3.88971E-06 0.00000E+00
 -1       273 8.78633E-05 4.91154E-06 0.00000E+00
 -1       274 8.54131E-05 5.04999E-06 2.64698E-23
 -1       275 8.32467E-05 4.42951E-06-5.29396E-23
 -1       276 8.13118E-05 3.18629E-06 2.64698E-23
 -1       277 7.95541E-05 1.46840E-06 0.00000E+00
 -1       278 7.79149E-05-5.66996E-07 0.00000E+00
 -1       279 7.63333E-05-2.75698E-06-5.29396E-23
 -1       280 7.47478E-05-4.93548E-06-2.64698E-23
 -1       281 7.30963E-05-6.93677E-06 0.00000E+00
 -1       282 7.13194E-05-8.59842E-06 2.64698E-23
 -1       283 6.93581E-05-9.76450E-06 0.00000E+00
 -1       284 6.71644E-05-1.02862E-05 2.64698E-23
 -1       285 6.46777E-05-1.00324E-05 5.29396E-23
 -1       286 7.74061E-05-5.91420E-06 6.61744E-24
 -1       287 7.73408E-05-2.69619E-06-3.30872E-24
 -1       288 7.72754E-05 1.50311E-07 3.30872E-24
 -1       289 7.72157E-05 1.82409E-06 1.65436E-24
 -1       290 7.71573E-05 2.03534E-06 1.65436E-24
 -1       291 7.70984E-05 4.98047E-07 8.27181E-25
 -1       292 7.70371E-05-2.30767E-06 1.65436E-24
 -1       293 7.69735E-05-5.89845E-06 0.00000E+00
 -1       294 7.69100E-05-9.44624E-06 1.65436E-24
 -1       295 7.68490E-05-1.21231E-05 0.00000E+00
 -1       296 7.67904E-05-1.34834E-05 0.00000E+00
 -1       297 7.67321E-05-1.30849E-05 0.00000E+00
 -1       298 7.66724E-05-1.12558E-05 3.30872E-24
 -1       299 7.66075E-05-8.32795E-06-1.65436E-24
 -1       300 7.65426E-05-5.11269E-06 6.61744E-24
 -1       301 7.48652E-05-8.73753E-06-6.61744E-24
 -1       302 7.22311E-05-8.75463E-06-3.30872E-24
 -1       303 6.96013E-05-8.76938E-06 0.00000E+00
 -1       304 6.69931E-05-8.78571E-06 0.00000E+00
 -1       305 6.44238E-05-8.80753E-06-1.32349E-23
 -1       306 7.56281E-05-6.97375E-06 0.00000E+00
 -1       307 7.40345E-05-6.02961E-06 0.00000E+00
 -1       308 7.26906E-05-5.74747E-06 0.00000E+00
 -1       309 7.15469E-05-6.01016E-06 0.00000E+00
 -1       310 7.05601E-05-6.69270E-06 2.64698E-23
 -1       311 6.96818E-05-7.66698E-06 0.00000E+00
 -1       312 6.88635E-05-8.80194E-06 0.00000E+00
 -1       313 6.80557E-05-9.96502E-06 1.32349E-23
 -1       314 6.72086E-05-1.10233E-05-2.64698E-23
 -1       315 6.62731E-05-1.18450E-05 0.00000E+00
 -1       316 6.52006E-05-1.23006E-05 0.00000E+00
 -1       317 6.39445E-05-1.22642E-05 0.00000E+00
 -1       318 6.24586E-05-1.16148E-05-2.64698E-23
 -1       319 6.07040E-05-1.02361E-05 0.00000E+00
 -1       320 5.86332E-05-8.02210E-06 2.64698E-23
 -1       336 7.38477E-05-2.82777E-06 1.32349E-23
 -1       337 7.08792E-05-3.23448E-06-6.61744E-24
 -1       338 6.75965E-05-3.64198E-06 0.00000E+00
 -1       339 6.40372E-05-4.04947E-06 6.61744E-24
 -1       340 6.02400E-05-4.45791E-06 0.00000E+00
 -1       356 6.12017E-05-6.23515E-06 0.00000E+00
 -1       357 6.12016E-05-5.72095E-06 1.00974E-28
 -1       358 6.12014E-05-5.20062E-06-8.07794E-28
 -1       359 6.12013E-05-4.67658E-06 0.00000E+00
 -1       360 6.12012E-05-4.15127E-06-3.23117E-27
 -1       361 6.12011E-05-3.62710E-06-3.23117E-27
 -1       362 6.12009E-05-3.10650E-06 1.29247E-26
 -1       363 6.12008E-05-2.59191E-06 0.00000E+00
 -1       364 6.12007E-05-2.08573E-06 0.00000E+00
 -1       365 6.12007E-05-1.59042E-06 0.00000E+00
 -1       366 6.12007E-05-1.10838E-06 0.00000E+00
 -1       367 6.12010E-05-6.42052E-07 2.06795E-25
 -1       368 6.12013E-05-1.93860E-07-8.27181E-25
 -1       369 6.12029E-05 2.33758E-07 0.00000E+00
 -1       370 6.12041E-05 6.38342E-07 3.30872E-24
 -1       376 6.10153E-05-6.24372E-06-1.00974E-28
 -1       377 6.08319E-05-5.75513E-06-5.04871E-29
 -1       378 6.06505E-05-5.27173E-06-2.01948E-28
 -1       379 6.04699E-05-4.79026E-06 2.01948E-28
 -1       380 6.02887E-05-4.30748E-06-8.07794E-28
 -1       381 6.01058E-05-3.82009E-06 8.07794E-28
 -1       382 5.99199E-05-3.32485E-06 0.00000E+00
 -1       383 5.97299E-05-2.81849E-06 3.23117E-27
 -1       384 5.95345E-05-2.29773E-06 0.00000E+00
 -1       385 5.93325E-05-1.75932E-06-1.29247E-26
 -1       386 5.91226E-05-1.19999E-06 0.00000E+00
 -1       387 5.89038E-05-6.16416E-07 1.03398E-25
 -1       388 5.86747E-05-5.39439E-09 4.13590E-25
 -1       389 5.84349E-05 6.36637E-07 0.00000E+00
 -1       390 5.81819E-05 1.31259E-06 0.00000E+00
 -1       406 6.08158E-05 1.18684E-06-6.61744E-24
 -1       407 6.03590E-05 1.35622E-06 0.00000E+00
 -1       408 5.98409E-05 1.52545E-06 0.00000E+00
 -1       409 5.92615E-05 1.69428E-06 3.30872E-24
 -1       410 5.86208E-05 1.86228E-06 0.00000E+00
 -1       501 6.17452E-05 5.27209E-07-1.32349E-23
 -1       502 6.13932E-05 2.37648E-05 3.30872E-24
 -1       503 6.09638E-05 5.03954E-05-6.61744E-24
 -1       504 6.06974E-05 6.99599E-05 0.00000E+00
 -1       505 6.05810E-05 7.62990E-05 0.00000E+00
 -1       506 6.04041E-05 6.33058E-05 0.00000E+00
 -1       507 5.99340E-05 3.49699E-05 3.30872E-24
 -1       508 5.90947E-05-4.65828E-06 0.00000E+00
 -1       509 5.82392E-05-4.47347E-05 3.30872E-24
 -1       510 5.77328E-05-7.44139E-05 1.65436E-24
 -1       511 5.75328E-05-8.91593E-05 3.30872E-24
 -1       512 5.74263E-05-8.44926E-05 1.65436E-24
 -1       513 5.71811E-05-6.60507E-05 3.30872E-24
 -1       514 5.67591E-05-3.95255E-05 0.00000E+00
 -1       515 5.63958E-05-1.55777E-05 0.00000E+00
 -1       521 5.90550E-05-7.59530E-06 0.00000E+00
 -1       522 5.63990E-05-7.03179E-06-2.64698E-23
 -1       523 5.39651E-05-7.05440E-06 5.29396E-23
 -1       524 5.17023E-05-7.55795E-06 0.00000E+00
 -1       525 4.95737E-05-8.42228E-06 0.00000E+00
 -1       526 4.75320E-05-9.52274E-06 2.64698E-23
 -1       527 4.55298E-05-1.07298E-05 5.29396E-23
 -1       528 4.35182E-05-1.19120E-05 2.64698E-23
 -1       529 4.14481E-05-1.29386E-05-5.29396E-23
 -1       530 3.92721E-05-1.36816E-05-2.64698E-23
 -1       531 3.69440E-05-1.40187E-05-5.29396E-23
 -1       532 3.44218E-05-1.38353E-05 2.64698E-23
 -1       533 3.16655E-05-1.30268E-05 5.29396E-23
 -1       534 2.86473E-05-1.14988E-05 2.64698E-23
 -1       535 2.53271E-05-9.17598E-06 5.29396E-23
 -1       536 5.62234E-05-1.26169E-06 0.00000E+00
 -1       537 5.62154E-05 1.47546E-06 1.65436E-24
 -1       538 5.62090E-05 3.43978E-06 0.00000E+00
 -1       539 5.62053E-05 4.72109E-06 0.00000E+00
 -1       540 5.62024E-05 5.40904E-06 0.00000E+00
 -1       541 5.62000E-05 5.59336E-06 0.00000E+00
 -1       542 5.61977E-05 5.36378E-06 0.00000E+00
 -1       543 5.61954E-05 4.81003E-06 0.00000E+00
 -1       544 5.61929E-05 4.02188E-06 0.00000E+00
 -1       545 5.61904E-05 3.08906E-06 1.03398E-25
 -1       546 5.61878E-05 2.10133E-06 0.00000E+00
 -1       547 5.61854E-05 1.14846E-06 0.00000E+00
 -1       548 5.61830E-05 3.20184E-07 0.00000E+00
 -1       549 5.61811E-05-2.93756E-07 0.00000E+00
 -1       550 5.61793E-05-6.03557E-07 0.00000E+00
 -1       551 5.11159E-05-5.03851E-06-6.61744E-24
 -1       552 4.53662E-05-5.21548E-06-8.27181E-25
 -1       553 3.92724E-05-5.39442E-06 6.61744E-24
 -1       554 3.31162E-05-5.57641E-06 0.00000E+00
 -1       555 2.71793E-05-5.76239E-06 0.00000E+00
 -1       556 5.48029E-05-1.42425E-06 0.00000E+00
 -1       557 5.36687E-05 1.21803E-06 0.00000E+00
 -1       558 5.28077E-05 3.14026E-06 0.00000E+00
 -1       559 5.21882E-05 4.42356E-06 0.00000E+00
 -1       560 5.17790E-05 5.14907E-06 0.00000E+00
 -1       561 5.15487E-05 5.39861E-06 0.00000E+00
 -1       562 5.14665E-05 5.25410E-06 0.00000E+00
 -1       563 5.15012E-05 4.79759E-06 0.00000E+00
 -1       564 5.16221E-05 4.11120E-06 0.00000E+00
 -1       565 5.17984E-05 3.27711E-06 0.00000E+00
 -1       566 5.19992E-05 2.37753E-06-3.30872E-24
 -1       567 5.21938E-05 1.49470E-06-8.27181E-25
 -1       568 5.23514E-05 7.10847E-07-6.20385E-25
 -1       569 5.24417E-05 1.08075E-07 0.00000E+00
 -1       570 5.24341E-05-2.31558E-07-1.65436E-24
 -1       571 5.62842E-05-3.03609E-07-1.65436E-24
 -1       572 5.63920E-05-1.60459E-07 0.00000E+00
 -1       573 5.65005E-05-7.69354E-08 1.65436E-24
 -1       574 5.66095E-05-3.89763E-08 8.27181E-25
 -1       575 5.67186E-05-3.24634E-08 0.00000E+00
 -1       576 5.68278E-05-4.31882E-08 0.00000E+00
 -1       577 5.69371E-05-5.69351E-08 0.00000E+00
 -1       578 5.70463E-05-5.94769E-08 0.00000E+00
 -1       579 5.71555E-05-3.65849E-08 0.00000E+00
 -1       580 5.72648E-05 2.59703E-08-6.61744E-24
 -1       581 5.73740E-05 1.42417E-07 0.00000E+00
 -1       582 5.74832E-05 3.26971E-07-6.61744E-24
 -1       583 5.75924E-05 5.93834E-07 0.00000E+00
 -1       584 5.77015E-05 9.57069E-07 0.00000E+00
 -1       585 5.78105E-05 1.43066E-06 0.00000E+00
 -1       586 5.56297E-05-4.70026E-07-3.30872E-24
 -1       587 5.49926E-05-4.20050E-07-3.30872E-24
 -1       588 5.43041E-05-3.70161E-07 1.65436E-24
 -1       589 5.36015E-05-3.20722E-07 0.00000E+00
 -1       590 5.29219E-05-2.72255E-07 0.00000E+00
 -1       591 5.60117E-05-2.63200E-07 0.00000E+00
 -1       592 5.58577E-05-5.79106E-08 2.48154E-24
 -1       593 5.57182E-05 1.06459E-07 1.65436E-24
 -1       594 5.55899E-05 2.39138E-07-8.27181E-25
 -1       595 5.54699E-05 3.49389E-07 1.65436E-24
 -1       596 5.53548E-05 4.46398E-07 8.27181E-25
 -1       597 5.52412E-05 5.39343E-07 0.00000E+00
 -1       598 5.51256E-05 6.37391E-07-8.27181E-25
 -1       599 5.50046E-05 7.49711E-07-1.65436E-24
 -1       600 5.48749E-05 8.85467E-07 8.27181E-25
 -1       601 5.47330E-05 1.05382E-06 0.00000E+00
 -1       602 5.45755E-05 1.26395E-06 4.13590E-25
 -1       603 5.43991E-05 1.52502E-06-8.27181E-25
 -1       604 5.42006E-05 1.84626E-06 3.10193E-25
 -1       605 5.39769E-05 2.23688E-06 4.13590E-25
 -1       606 5.79625E-05 2.84509E-06 0.00000E+00
 -1       607 5.80029E-05 3.76626E-06 0.00000E+00
 -1       608 5.80424E-05 4.78489E-06 0.00000E+00
 -1       609 5.80814E-05 5.89400E-06 0.00000E+00
 -1       610 5.81202E-05 7.08658E-06 3.30872E-24
 -1       611 5.81589E-05 8.35551E-06-1.65436E-24
 -1       612 5.81974E-05 9.69362E-06 0.00000E+00
 -1       613 5.82358E-05 1.10938E-05 0.00000E+00
 -1       614 5.82742E-05 1.25489E-05 0.00000E+00
 -1       615 5.83125E-05 1.40517E-05 0.00000E+00
 -1       616 5.83507E-05 1.55951E-05 0.00000E+00
 -1       617 5.83889E-05 1.71719E-05-8.27181E-25
 -1       618 5.84270E-05 1.87750E-05 0.00000E+00
 -1       619 5.84651E-05 2.03973E-05 0.00000E+00
 -1       620 5.85029E-05 2.20316E-05 0.00000E+00
 -1       621 5.71640E-05 2.14142E-06 0.00000E+00
 -1       622 5.64175E-05 2.25568E-06-1.65436E-24
 -1       623 5.56902E-05 2.36989E-06 0.00000E+00
 -1       624 5.49928E-05 2.48378E-06 0.00000E+00
 -1       625 5.43356E-05 2.59708E-06 1.65436E-24
 -1       626 5.77008E-05 2.89868E-06 6.61744E-24
 -1       627 5.74409E-05 3.87877E-06 0.00000E+00
 -1       628 5.71438E-05 4.95737E-06 6.61744E-24
 -1       629 5.68140E-05 6.12302E-06 0.00000E+00
 -1       630 5.64556E-05 7.36421E-06 6.61744E-24
 -1       631 5.60733E-05 8.66931E-06-3.30872E-24
 -1       632 5.56712E-05 1.00267E-05 0.00000E+00
 -1       633 5.52538E-05 1.14247E-05 1.65436E-24
 -1       634 5.48255E-05 1.28517E-05 3.30872E-24
 -1       635 5.43907E-05 1.42961E-05 0.00000E+00
 -1       636 5.39537E-05 1.57462E-05 0.00000E+00
 -1       637 5.35188E-05 1.71904E-05 0.00000E+00
 -1       638 5.30905E-05 1.86170E-05 0.00000E+00
 -1       639 5.26727E-05 2.00143E-05 0.00000E+00
 -1       640 5.22694E-05 2.13708E-05-8.27181E-25
 -1       641 5.85391E-05 2.53234E-05 0.00000E+00
 -1       642 5.85363E-05 2.70674E-05 0.00000E+00
 -1       643 5.85336E-05 2.88880E-05-5.16988E-26
 -1       644 5.85304E-05 3.07708E-05 0.00000E+00
 -1       645 5.85272E-05 3.27006E-05 2.58494E-26
 -1       646 5.85239E-05 3.46620E-05 0.00000E+00
 -1       647 5.85205E-05 3.66394E-05 0.00000E+00
 -1       648 5.85171E-05 3.86170E-05-2.58494E-26
 -1       649 5.85138E-05 4.05791E-05 0.00000E+00
 -1       650 5.85104E-05 4.25102E-05 0.00000E+00
 -1       651 5.85071E-05 4.43947E-05 0.00000E+00
 -1       652 5.85037E-05 4.62175E-05 0.00000E+00
 -1       653 5.85003E-05 4.79642E-05 0.00000E+00
 -1       654 5.84959E-05 4.96202E-05-8.27181E-25
 -1       655 5.84921E-05 5.11725E-05-3.30872E-24
 -1       656 5.71059E-05 2.35096E-05 0.00000E+00
 -1       657 5.59234E-05 2.33407E-05 1.65436E-24
 -1       658 5.49016E-05 2.31724E-05-3.30872E-24
 -1       659 5.39488E-05 2.30040E-05 0.00000E+00
 -1       660 5.29730E-05 2.28353E-05 0.00000E+00
 -1       661 5.80442E-05 2.53593E-05-3.30872E-24
 -1       662 5.75305E-05 2.71071E-05 0.00000E+00
 -1       663 5.69990E-05 2.89018E-05 0.00000E+00
 -1       664 5.64545E-05 3.07329E-05 1.65436E-24
 -1       665 5.59005E-05 3.25894E-05 0.00000E+00
 -1       666 5.53411E-05 3.44607E-05 1.65436E-24
 -1       667 5.47801E-05 3.63361E-05 0.00000E+00
 -1       668 5.42217E-05 3.82048E-05 0.00000E+00
 -1       669 5.36698E-05 4.00561E-05-3.30872E-24
 -1       670 5.31284E-05 4.18794E-05-1.65436E-24
 -1       671 5.26017E-05 4.36639E-05 0.00000E+00
 -1       672 5.20934E-05 4.53988E-05-1.65436E-24
 -1       673 5.16077E-05 4.70732E-05-3.30872E-24
 -1       674 5.11479E-05 4.86762E-05 0.00000E+00
 -1       675 5.07190E-05 5.01970E-05 0.00000E+00
 -1       676 5.71053E-05 5.24427E-05-6.61744E-24
 -1       677 5.57311E-05 5.22770E-05 3.30872E-24
 -1       678 5.43626E-05 5.21115E-05-3.30872E-24
 -1       679 5.30023E-05 5.19468E-05 1.65436E-24
 -1       680 5.16531E-05 5.17819E-05 3.30872E-24
 -1       716 2.19399E-05-7.27010E-05 0.00000E+00
 -1       717 2.19304E-05-6.82525E-05 0.00000E+00
 -1       718 2.19209E-05-6.38040E-05 3.23117E-27
 -1       719 2.19114E-05-5.93556E-05 0.00000E+00
 -1       720 2.19019E-05-5.49071E-05 0.00000E+00
 -1       721 2.18923E-05-5.04587E-05 0.00000E+00
 -1       722 2.18828E-05-4.60102E-05 5.16988E-26
 -1       723 2.18732E-05-4.15618E-05-5.16988E-26
 -1       724 2.18636E-05-3.71133E-05 2.06795E-25
 -1       725 2.18537E-05-3.26649E-05 2.06795E-25
 -1       726 2.18436E-05-2.82164E-05 8.27181E-25
 -1       727 2.18323E-05-2.37679E-05 0.00000E+00
 -1       728 2.18208E-05-1.93195E-05 0.00000E+00
 -1       729 2.18031E-05-1.48711E-05-3.30872E-24
 -1       730 2.17875E-05-1.04226E-05 1.32349E-23
 -1       766 1.73966E-05-6.02195E-06 0.00000E+00
 -1       767 1.32646E-05-6.03625E-06-3.30872E-24
 -1       768 9.40474E-06-6.05157E-06 0.00000E+00
 -1       769 5.87817E-06-6.05954E-06 0.00000E+00
 -1       770 2.74508E-06-6.06601E-06 8.27181E-25
 -1       771 1.92033E-05-2.44267E-06 0.00000E+00
 -1       772 1.69319E-05 3.54952E-07 0.00000E+00
 -1       773 1.49120E-05 2.48238E-06 0.00000E+00
 -1       774 1.31188E-05 4.00570E-06 0.00000E+00
 -1       775 1.15278E-05 4.99154E-06 0.00000E+00
 -1       776 1.01135E-05 5.50753E-06 2.64698E-23
 -1       777 8.85016E-06 5.62174E-06 5.29396E-23
 -1       778 7.71190E-06 5.40285E-06 0.00000E+00
 -1       779 6.67276E-06 4.91990E-06-2.64698E-23
 -1       780 5.70663E-06 4.24231E-06-1.32349E-23
 -1       781 4.78745E-06 3.43973E-06 0.00000E+00
 -1       782 3.88916E-06 2.58202E-06 1.32349E-23
 -1       783 2.98572E-06 1.73909E-06 0.00000E+00
 -1       784 2.05180E-06 9.80964E-07-1.32349E-23
 -1       785 1.06191E-06 3.77522E-07 0.00000E+00
 -1       786 5.23856E-05 1.31863E-07 0.00000E+00
 -1       787 5.24745E-05 4.02782E-07 0.00000E+00
 -1       788 5.25634E-05 5.99367E-07 1.65436E-24
 -1       789 5.26531E-05 7.35581E-07 1.65436E-24
 -1       790 5.27428E-05 8.25326E-07 0.00000E+00
 -1       791 5.28328E-05 8.82471E-07 0.00000E+00
 -1       792 5.29228E-05 9.20856E-07-3.30872E-24
 -1       793 5.30128E-05 9.54303E-07 0.00000E+00
 -1       794 5.31028E-05 9.96633E-07 3.30872E-24
 -1       795 5.31928E-05 1.06167E-06 1.65436E-24
 -1       796 5.32828E-05 1.16327E-06 0.00000E+00
 -1       797 5.33727E-05 1.31530E-06 0.00000E+00
 -1       798 5.34626E-05 1.53168E-06 0.00000E+00
 -1       799 5.35521E-05 1.82639E-06 0.00000E+00
 -1       800 5.36416E-05 2.21346E-06-1.65436E-24
 -1       801 4.79244E-05-1.55250E-07 0.00000E+00
 -1       802 3.83001E-05-1.09860E-07 0.00000E+00
 -1       803 2.60611E-05-8.92400E-08-8.27181E-25
 -1       804 1.38421E-05-7.35138E-08 0.00000E+00
 -1       805 4.27741E-06-3.29615E-08-1.32349E-23
 -1       806 5.20714E-05 9.17440E-08 0.00000E+00
 -1       807 5.18548E-05 3.65261E-07 4.96308E-24
 -1       808 5.16513E-05 6.01282E-07-3.30872E-24
 -1       809 5.14586E-05 8.07610E-07-1.65436E-24
 -1       810 5.12740E-05 9.92024E-07 0.00000E+00
 -1       811 5.10947E-05 1.16229E-06 0.00000E+00
 -1       812 5.09177E-05 1.32615E-06 3.30872E-24
 -1       813 5.07402E-05 1.49137E-06 0.00000E+00
 -1       814 5.05593E-05 1.66568E-06-3.30872E-24
 -1       815 5.03720E-05 1.85685E-06-8.27181E-25
 -1       816 5.01755E-05 2.07261E-06-1.65436E-24
 -1       817 4.99670E-05 2.32071E-06-8.27181E-25
 -1       818 4.97434E-05 2.60889E-06 0.00000E+00
 -1       819 4.95020E-05 2.94483E-06 4.13590E-25
 -1       820 4.92402E-05 3.33624E-06-8.27181E-25
 -1       821 5.36203E-05 3.34960E-06 8.27181E-25
 -1       822 5.35053E-05 4.15305E-06-8.27181E-25
 -1       823 5.33903E-05 5.10061E-06 0.00000E+00
 -1       824 5.32742E-05 6.17527E-06 1.65436E-24
 -1       825 5.31578E-05 7.35994E-06 3.30872E-24
 -1       826 5.30412E-05 8.63737E-06 1.65436E-24
 -1       827 5.29244E-05 9.99021E-06 0.00000E+00
 -1       828 5.28075E-05 1.14011E-05 0.00000E+00
 -1       829 5.26906E-05 1.28525E-05 0.00000E+00
 -1       830 5.25736E-05 1.43269E-05-1.65436E-24
 -1       831 5.24567E-05 1.58067E-05 3.30872E-24
 -1       832 5.23399E-05 1.72745E-05 0.00000E+00
 -1       833 5.22234E-05 1.87126E-05 0.00000E+00
 -1       834 5.21078E-05 2.01036E-05-1.65436E-24
 -1       835 5.19921E-05 2.14299E-05 1.65436E-24
 -1       836 5.30514E-05 2.88489E-06 0.00000E+00
 -1       837 5.22329E-05 3.06879E-06 0.00000E+00
 -1       838 5.13436E-05 3.25240E-06 3.30872E-24
 -1       839 5.04541E-05 3.43535E-06 1.65436E-24
 -1       840 4.96347E-05 3.61838E-06 1.65436E-24
 -1       841 5.35063E-05 3.39805E-06 0.00000E+00
 -1       842 5.31898E-05 4.33873E-06 0.00000E+00
 -1       843 5.28063E-05 5.45774E-06 0.00000E+00
 -1       844 5.23824E-05 6.68403E-06 0.00000E+00
 -1       845 5.19298E-05 7.98645E-06 8.27181E-25
 -1       846 5.14603E-05 9.33388E-06 0.00000E+00
 -1       847 5.09792E-05 1.07119E-05 8.27181E-25
 -1       848 5.04921E-05 1.21061E-05 0.00000E+00
 -1       849 5.00020E-05 1.35079E-05 0.00000E+00
 -1       850 4.95124E-05 1.49087E-05 0.00000E+00
 -1       851 4.90263E-05 1.62998E-05 0.00000E+00
 -1       852 4.85471E-05 1.76724E-05 4.13590E-25
 -1       853 4.80806E-05 1.90108E-05 0.00000E+00
 -1       854 4.76320E-05 2.02993E-05-1.03398E-25
 -1       855 4.72153E-05 2.15041E-05 8.27181E-25
 -1       856 5.17908E-05 2.39798E-05 0.00000E+00
 -1       857 5.16938E-05 2.54697E-05 8.27181E-25
 -1       858 5.15965E-05 2.71194E-05 1.65436E-24
 -1       859 5.14984E-05 2.89037E-05 0.00000E+00
 -1       860 5.13998E-05 3.07974E-05 0.00000E+00
 -1       861 5.13010E-05 3.27753E-05 1.65436E-24
 -1       862 5.12021E-05 3.48121E-05-3.30872E-24
 -1       863 5.11030E-05 3.68826E-05 0.00000E+00
 -1       864 5.10039E-05 3.89614E-05 0.00000E+00
 -1       865 5.09049E-05 4.10232E-05 0.00000E+00
 -1       866 5.08059E-05 4.30427E-05 0.00000E+00
 -1       867 5.07072E-05 4.49946E-05-1.65436E-24
 -1       868 5.06087E-05 4.68537E-05 3.30872E-24
 -1       869 5.05107E-05 4.85947E-05 0.00000E+00
 -1       870 5.04129E-05 5.01925E-05 0.00000E+00
 -1       871 5.08864E-05 2.26627E-05 0.00000E+00
 -1       872 5.00168E-05 2.26495E-05 0.00000E+00
 -1       873 4.92259E-05 2.26360E-05 0.00000E+00
 -1       874 4.84649E-05 2.26220E-05-4.13590E-25
 -1       875 4.76850E-05 2.26073E-05-8.27181E-25
 -1       876 5.15573E-05 2.40120E-05-3.30872E-24
 -1       877 5.11847E-05 2.54943E-05 0.00000E+00
 -1       878 5.07653E-05 2.71010E-05 6.61744E-24
 -1       879 5.03066E-05 2.88145E-05 0.00000E+00
 -1       880 4.98147E-05 3.06165E-05 6.61744E-24
 -1       881 4.92963E-05 3.24892E-05 3.30872E-24
 -1       882 4.87579E-05 3.44150E-05 0.00000E+00
 -1       883 4.82062E-05 3.63760E-05 3.30872E-24
 -1       884 4.76480E-05 3.83545E-05 0.00000E+00
 -1       885 4.70898E-05 4.03329E-05 0.00000E+00
 -1       886 4.65382E-05 4.22934E-05-6.61744E-24
 -1       887 4.59998E-05 4.42184E-05-1.65436E-24
 -1       888 4.54813E-05 4.60901E-05 0.00000E+00
 -1       889 4.49885E-05 4.78905E-05-1.65436E-24
 -1       890 4.45291E-05 4.96020E-05 0.00000E+00
 -1       891 4.91657E-05 5.15530E-05 1.65436E-24
 -1       892 4.82032E-05 5.14828E-05-8.27181E-25
 -1       893 4.73230E-05 5.14127E-05-1.65436E-24
 -1       894 4.64177E-05 5.13426E-05 0.00000E+00
 -1       895 4.53797E-05 5.12725E-05 0.00000E+00
 -1       926 6.26509E-08-3.85080E-06-2.06795E-25
 -1       927 6.10746E-08-2.09771E-06 5.16988E-26
 -1       928 6.00941E-08-7.63596E-07-5.16988E-26
 -1       929 5.95996E-08 1.98859E-07 1.29247E-26
 -1       930 5.93549E-08 8.37003E-07 0.00000E+00
 -1       931 5.92453E-08 1.19819E-06 0.00000E+00
 -1       932 5.91773E-08 1.32982E-06 0.00000E+00
 -1       933 5.90610E-08 1.27929E-06 0.00000E+00
 -1       934 5.88751E-08 1.09404E-06 0.00000E+00
 -1       935 5.84045E-08 8.21472E-07 0.00000E+00
 -1       936 5.77676E-08 5.09025E-07 8.27181E-25
 -1       937 5.58695E-08 2.04125E-07 0.00000E+00
 -1       938 5.38077E-08-4.59487E-08 0.00000E+00
 -1       939 4.54655E-08-1.93904E-07 0.00000E+00
 -1       940 3.92518E-08-1.93896E-07 1.32349E-23
 -1       956 4.88269E-05 4.46066E-06 1.65436E-24
 -1       957 4.86952E-05 5.27426E-06-8.27181E-25
 -1       958 4.85630E-05 6.21576E-06 1.65436E-24
 -1       959 4.84303E-05 7.26876E-06 0.00000E+00
 -1       960 4.82975E-05 8.41684E-06 0.00000E+00
 -1       961 4.81646E-05 9.64345E-06 0.00000E+00
 -1       962 4.80315E-05 1.09321E-05 3.30872E-24
 -1       963 4.78984E-05 1.22661E-05-1.65436E-24
 -1       964 4.77653E-05 1.36291E-05 3.30872E-24
 -1       965 4.76321E-05 1.50044E-05 0.00000E+00
 -1       966 4.74990E-05 1.63755E-05-3.30872E-24
 -1       967 4.73660E-05 1.77258E-05 0.00000E+00
 -1       968 4.72330E-05 1.90387E-05 0.00000E+00
 -1       969 4.71004E-05 2.02979E-05 0.00000E+00
 -1       970 4.69681E-05 2.14866E-05 0.00000E+00
 -1       971 4.66712E-05 2.37259E-05 3.30872E-24
 -1       972 4.65006E-05 2.50646E-05 1.65436E-24
 -1       973 4.63297E-05 2.65811E-05-3.30872E-24
 -1       974 4.61580E-05 2.82510E-05 1.65436E-24
 -1       975 4.59861E-05 3.00496E-05 6.61744E-24
 -1       976 4.58138E-05 3.19519E-05-3.30872E-24
 -1       977 4.56414E-05 3.39333E-05 6.61744E-24
 -1       978 4.54689E-05 3.59687E-05 0.00000E+00
 -1       979 4.52964E-05 3.80332E-05 0.00000E+00
 -1       980 4.51238E-05 4.01019E-05 0.00000E+00
 -1       981 4.49514E-05 4.21497E-05-6.61744E-24
 -1       982 4.47792E-05 4.41517E-05-6.61744E-24
 -1       983 4.46073E-05 4.60830E-05 0.00000E+00
 -1       984 4.44364E-05 4.79186E-05 1.65436E-24
 -1       985 4.42658E-05 4.96337E-05 0.00000E+00
 -3
    1PSTEP                        20          10           1          
  100CL  110 8.30811E-01         568                     0   10           1
 -4  STRESS      6    1
 -5  SXX         1    4    1    1
 -5  SYY         1    4    2    2
 -5  SZZ         1    4    3    3
 -5  SXY         1    4    1    2
 -5  SYZ         1    4    2    3
 -5  SZX         1    4    3    1
 -1         1-2.26804E+06-9.02373E+05-4.41978E+05-1.17914E+06 2.61934E-10 1.05162E-08
 -1         2-5.04659E+03-3.39161E+05 6.50872E+04 1.74825E+05 1.94705E-08 5.66459E-09
 -1         3-7.18724E+01-1.15121E+06-1.52125E+02-4.90573E+02 9.98734E-10 2.72757E-09
 -1         4 1.12602E+01-1.21016E+01-1.24528E+00-1.39350E+01 1.41795E-08 2.17347E-09
 -1         5-2.58433E+01 4.85486E+05 2.60311E+01-3.87684E+00 4.54143E-10-1.39062E-08
 -1         8-1.90531E+06-6.64660E+05-2.39036E+05-7.67935E+05-6.40284E-10 2.82307E-09
 -1         9-2.00521E+06-5.64240E+05-2.51024E+05-5.28641E+05-2.88977E-09-8.27034E-10
 -1        10-4.76251E+04-6.85081E+05 7.85852E+04-6.34565E+03-6.14978E-09-4.88639E-09
 -1        11 2.80477E+00-5.15012E+00-1.83363E+00 8.17749E-01 1.48826E-09 1.29711E-09
 -1        12-1.12798E+04 1.83876E+05-6.16169E+04 8.83488E+03 1.13935E-08-2.70465E-09
 -1        15 3.01022E+03 1.62786E+03 9.34235E+03 5.89649E+00 1.66835E-11 2.63669E-10
 -1        16-2.59948E+06-6.86102E+05-2.05965E+05-8.86973E+05-7.42148E-10 3.30692E-09
 -1        17-5.01400E+05-3.90650E+05-3.49735E+04-3.55384E+05-6.79999E-09-1.25632E-09
 -1        18 3.50132E+04 1.20642E+04-1.46234E+04-1.03979E+05 4.00178E-10-2.04636E-10
 -1        19 1.09146E+05 1.27922E+05-1.29052E+04 1.29208E+04 3.65496E-09-1.18416E-09
 -1        20 7.12908E+04-1.01484E+05-2.28716E+04 5.05251E+04 4.61819E-09 5.77529E-10
 -1        21 2.11345E+03-1.79515E+05 5.34401E+04-5.80118E+02 1.56018E-08-3.82695E-08
 -1        23 7.31219E-01 3.48351E-01 1.33956E+01 1.63503E-03 8.55272E-09 2.49087E-09
 -1        24-1.40143E+06-4.18950E+05 9.41057E+04-7.47221E+05-7.59901E-09-1.45519E-10
 -1        25 5.19311E+03 4.60441E+04 2.56188E+04-4.39973E+05 1.19071E-09 2.64481E-09
 -1        26-1.19308E+03 1.17489E+05 2.45325E+03-2.07266E+04-1.04876E-09 1.71639E-09
 -1        27-2.86406E+04-7.57804E+04-3.38111E+04 8.37494E+04 8.00416E-09 3.89264E-10
 -1        28-1.37750E+04-1.41281E+05-7.09528E+03 5.16322E+04 1.01672E-08 8.02544E-10
 -1        31 4.72147E+03 5.43106E+03 7.97225E+03-1.95532E+02 4.58430E-09-1.99225E-09
 -1        32-6.10530E+05 1.18467E+05 3.63513E+05-8.98942E+05-4.21654E-09 6.88791E-10
 -1        33-1.40074E+05 1.45133E+05 4.42763E+04-4.36716E+04 2.92365E-10-2.38773E-09
 -1        34-1.79908E+05-9.31766E+03 1.19228E+04 6.03812E+04 2.06197E-09-9.88666E-09
 -1        35-3.51403E+04-4.02577E+04-1.35389E+03 8.15165E+04 3.97961E-09 3.95084E-09
 -1        36-5.78814E+03-3.84113E+04 8.86015E+04 4.60830E-10 9.99799E-11 6.25369E-09
 -1        37 3.26968E+04 4.44624E+04 6.27156E+04-4.17538E-07-7.67337E-10-1.16679E-08
 -1        38 9.01737E+03-6.03979E+03 2.29315E+04-8.71109E-07-4.32780E-10 2.48565E-09
 -1        39 1.54303E+04 6.98891E+03 1.44371E+04 1.07123E-06 1.10859E-10-7.97263E-09
 -1        40 1.14670E+04-9.47720E+02 5.89763E+03 1.64497E-07-6.16171E-11-1.30756E-08
 -1        41 1.25745E+04 1.11023E+03 3.52570E+03-1.62665E-06-1.60077E-10-3.59705E-10
 -1        42 1.18725E+04-1.62343E+02 1.72296E+03 3.24146E-07 1.10222E-10-4.03088E-09
 -1        43 1.21461E+04 2.85122E+02 1.36653E+03 1.33916E-06-9.46686E-11 2.71137E-09
 -1        44 1.18955E+04-1.22752E+02 1.37197E+03-1.17273E-06 3.35759E-11 2.87139E-09
 -1        45 1.23926E+04 7.70727E+02 2.50886E+03-1.29136E-06-9.05335E-11-5.39484E-09
 -1        46 1.16260E+04-6.47868E+02 4.06950E+03-1.01221E-06 1.28923E-10 7.04904E-09
 -1        47 1.43310E+04 4.76623E+03 9.86709E+03 1.58705E-06 2.66990E-10 1.61044E-08
 -1        48 9.95735E+03-4.11747E+03 1.56435E+04 2.99920E-07 1.08965E-10-4.50291E-09
 -1        49 2.60993E+04 3.03094E+04 4.27571E+04-1.27695E-06 1.08677E-09-1.15142E-08
 -1        50-1.37247E+02-2.61846E+04 6.03925E+04-1.22401E-07 2.72016E-09-2.31012E-09
 -1        51 2.97040E+04-5.10848E+05 4.95031E+04-1.36951E+06 5.82077E-11 1.33005E-08
 -1        52 1.73204E+04-5.11366E+05 3.28616E+04-1.51042E+06 1.16415E-10 1.69821E-08
 -1        53 1.48816E+04-5.27193E+05 2.99151E+04-1.36580E+06-1.09139E-10 1.15106E-08
 -1        54 3.47738E+04-5.25072E+05 5.01778E+04-1.51423E+06-3.92902E-10 4.39468E-09
 -1        55 7.36551E+04-5.42559E+05 9.35176E+04-1.36497E+06-4.94765E-10 1.41154E-08
 -1        56-6.47724E+06-6.96133E+05-5.51756E+05-2.49291E+06 1.52795E-10-4.04543E-09
 -1        57-6.68135E+06-1.23424E+06-3.75064E+05-2.49004E+06 2.96495E-10-6.18456E-10
 -1        58-6.60451E+06-8.61448E+05-1.29440E+05-2.43717E+06-3.98904E-09 3.71074E-10
 -1        59-6.53628E+06-1.03834E+06-7.82350E+04-2.55274E+06 7.65795E-10 5.16229E-09
 -1        60-6.62145E+06-8.87543E+05-3.02014E+04-2.43179E+06 4.88762E-09-1.02864E-09
 -1        61-6.53296E+06-9.89844E+05-1.71141E+04-2.53711E+06-8.99490E-09-2.52157E-09
 -1        62-6.60682E+06-9.09826E+05-8.71748E+03-2.45242E+06 4.36557E-10 1.93990E-09
 -1        63-6.57420E+06-9.40117E+05-6.43822E+03-2.48387E+06 1.05501E-10 6.16103E-09
 -1        64-6.57930E+06-9.37798E+05-8.56211E+03-2.48439E+06 1.16142E-09 1.20781E-09
 -1        65-6.62903E+06-8.92351E+05-1.61690E+04-2.42526E+06 1.44837E-10-3.72916E-09
 -1        66-6.55250E+06-9.57346E+05-2.88468E+04-2.51135E+06 6.78767E-10-2.80852E-09
 -1        67-6.68023E+06-8.91206E+05-7.42739E+04-2.38673E+06 4.82191E-09-5.06861E-09
 -1        68-6.52940E+06-9.38817E+05-1.22844E+05-2.52356E+06 1.36424E-09-3.59432E-09
 -1        69-6.79428E+06-1.10201E+06-3.56280E+05-2.35629E+06-1.72258E-09-8.07631E-10
 -1        70-6.43974E+06-7.50494E+05-5.23870E+05-2.54062E+06-1.52795E-09 1.74623E-09
 -1        86 5.13911E+04-2.07814E+06-1.71003E+05-1.56782E+05-4.40014E-08-1.89673E-08
 -1        87 9.81764E+04 1.22386E+06 5.31553E+05 1.44237E+05-2.83399E-08-7.45490E-09
 -1        88-1.50372E+05-4.15110E+06-5.33396E+05 4.84958E+04 3.23707E-08 4.88626E-09
 -1        89 1.63309E+05 1.55438E+06 6.34251E+05-2.00254E+05 8.67385E-09-1.10210E-08
 -1        90-1.17109E+04-2.40832E+06-1.83675E+05 1.87380E+05 3.84089E-08-1.26715E-09
 -1       121-7.11748E+01-1.15154E+06-2.34933E+02 2.45209E+02-1.57457E-09-1.55705E-09
 -1       122-1.32070E+02-1.15126E+06-3.54051E+02-9.76889E+02-1.16000E-09 1.00122E-08
 -1       123-1.51897E+01-1.15150E+06-6.66839E+02 7.31193E+02-3.92390E-09 5.10681E-09
 -1       124-8.11244E+02-1.15168E+06-1.52875E+03-2.01155E+03-2.72018E-09-2.18824E-09
 -1       125 5.06063E+02-1.15115E+06-2.42738E+03 1.27917E+03-6.75266E-09 7.48423E-09
 -1       161-4.12751E+00 2.83415E+00-1.70161E+00 2.96134E+00 5.85513E-06-2.19378E-06
 -1       162 1.09238E+01-1.23445E+01-3.08672E+00-1.39749E+01 1.17085E-05-4.39172E-06
 -1       163-3.79105E+00 3.07829E+00-6.02530E+00 3.00062E+00 5.66893E-06-2.12464E-06
 -1       164 9.51679E+00-1.39474E+01-1.34437E+01-1.38888E+01-3.71134E-07 1.40587E-07
 -1       165-2.72066E+00 4.43767E+00-2.61827E+01 2.87475E+00-7.01281E-06 2.63110E-06
 -1       166 2.30739E+00-2.40933E+01-6.05678E+01-1.26059E+01-1.36511E-05 5.13053E-06
 -1       167 3.41920E+00 1.32231E+01-1.14816E+02 1.71858E+00-2.03779E-05 7.63929E-06
 -1       168-4.01080E+01-8.91892E+01-2.75393E+02-2.70304E+00-2.71013E-05 1.01631E-05
 -1       169 3.96963E+01 6.95258E+01-5.02073E+02-7.02399E+00-3.36189E-05 1.26016E-05
 -1       170-2.95253E+02-5.05025E+02-1.26546E+03 6.74702E+01-4.01336E-05 1.50521E-05
 -1       171 2.58570E+02 4.29009E+02-2.18411E+03-6.84310E+01-4.56213E-05 1.71038E-05
 -1       172-1.84903E+03-3.15113E+03-5.89554E+03 5.44742E+02-5.10997E-05 1.91797E-05
 -1       173 1.59356E+03 2.71530E+03-9.42893E+03-4.84111E+02-5.17036E-05 1.93916E-05
 -1       174-1.14067E+04-1.99479E+04-2.79573E+04 3.70906E+03-5.22723E-05 1.96088E-05
 -1       175 9.81837E+03 1.72240E+04-4.02351E+04-3.23109E+03-2.61576E-05 9.79383E-06
 -1       191-2.66608E+01 4.85522E+05 3.06142E+01 1.93238E+00-2.05205E-10-6.97219E-09
 -1       192-1.73536E+01 4.85490E+05 5.77784E+01-2.10578E+01-1.74168E-10-1.57452E-08
 -1       193 1.93372E-01 4.85517E+05 1.08819E+02 1.91011E+01-7.54198E-10-1.37006E-08
 -1       194 9.17993E+01 4.85524E+05 2.45076E+02-1.78635E+02-7.54653E-10 6.16183E-10
 -1       195 3.12544E+02 4.85483E+05 4.97515E+02 1.59713E+02-1.37697E-09 2.99224E-10
 -1       251-2.64001E+06 5.92663E+04-1.12383E+05-5.09453E+04-1.83786E-09 2.08092E-09
 -1       252-2.48528E+06-8.81103E+04-4.80848E+04-1.13789E+04 5.62122E-09-2.56205E-09
 -1       253-2.86733E+06 2.79342E+04-6.78055E+04 7.38725E+04 3.33409E-09 1.89175E-09
 -1       254-1.55011E+06-3.36177E+04 1.92295E+05 2.44981E+04-2.19087E-09-2.02158E-08
 -1       255-3.57052E+06 3.42043E+03-1.84760E+05-8.68319E+04-3.90742E-09 1.71212E-09
 -1       256 1.21465E+05 4.27373E+04 5.45607E+05 3.51935E+04-1.28973E-08 2.66423E-08
 -1       257-4.53180E+06-4.84359E+04-3.73100E+05 6.33207E+04-1.17070E-08-7.94853E-09
 -1       258 1.15824E+06 1.00783E+05 7.62219E+05-1.05741E+05 3.58182E-09-4.11146E-08
 -1       259-4.60379E+06-5.27141E+04-3.87722E+05 5.36776E+04-8.19909E-10-1.81828E-08
 -1       260 3.01594E+05 5.19586E+04 5.82507E+05 4.51785E+04-1.78092E-08 2.88746E-08
 -1       261-3.67800E+06-1.29834E+03-2.06644E+05-8.71528E+04-1.41822E-08 1.12684E-08
 -1       262-1.39302E+06-2.91949E+04 2.23066E+05 2.20288E+04-5.16397E-09-2.07051E-08
 -1       263-2.91624E+06 2.80615E+04-7.87836E+04 7.66539E+04-9.90860E-09 3.01952E-10
 -1       264-2.43116E+06-9.17111E+04-4.13202E+04-1.37896E+04-1.50682E-08 6.02449E-09
 -1       265-2.64496E+06 6.26244E+04-1.18732E+05-5.13173E+04-1.99217E-08 1.25729E-08
 -1       266-5.29204E+04-2.44648E+04 1.22173E+05-1.21378E+02-1.45519E-10-4.85437E-09
 -1       267 6.12889E+04 2.85798E+04 8.66476E+04 1.39521E+02 1.54614E-11-5.68731E-09
 -1       268-8.35130E+03-4.09122E+03 3.20720E+04-1.81714E+01-7.09406E-11-4.35926E-09
 -1       269 9.85822E+03 4.90645E+03 2.09597E+04 2.11218E+01-8.93579E-11 6.13774E-09
 -1       270-1.50489E+03-8.13896E+02 1.00633E+04-2.94744E+00 1.29603E-11 7.54943E-09
 -1       271-5.16443E+06-6.62392E+05-4.02305E+05-2.00552E+06-1.52068E-09-4.86034E-09
 -1       272-5.30145E+06-9.17304E+05-2.52245E+05-2.00888E+06-5.19094E-10 2.84126E-09
 -1       273-5.23670E+06-7.46247E+05-9.48229E+04-1.99234E+06-7.86713E-11 1.28020E-08
 -1       274-5.21611E+06-8.07701E+05-5.16318E+04-2.03371E+06 7.17591E-10 3.46245E-09
 -1       275-5.24735E+06-7.52282E+05-2.20087E+04-1.98838E+06-1.45519E-11-6.91216E-11
 -1       276-5.20308E+06-8.00487E+05-1.15038E+04-2.04088E+06-2.62571E-09-3.71529E-09
 -1       277-5.25017E+06-7.51272E+05-5.85217E+03-1.98632E+06-7.93079E-10 1.33241E-09
 -1       278-5.20004E+06-8.01719E+05-4.40882E+03-2.04396E+06 2.21689E-09 6.00383E-09
 -1       279-5.25082E+06-7.50641E+05-5.09858E+03-1.98566E+06-7.87622E-10 4.69572E-09
 -1       280-5.20085E+06-8.02493E+05-9.50719E+03-2.04380E+06 7.88532E-10-8.64702E-10
 -1       281-5.24937E+06-7.50598E+05-1.78459E+04-1.98644E+06 1.13050E-09 1.35515E-10
 -1       282-5.21027E+06-8.09559E+05-4.18467E+04-2.03952E+06-1.12414E-09 9.56788E-10
 -1       283-5.24122E+06-7.45247E+05-7.67163E+04-1.98914E+06 1.24976E-09-2.23372E-09
 -1       284-5.27867E+06-8.98886E+05-2.04189E+05-2.02003E+06 1.18416E-09-8.18545E-10
 -1       285-5.18285E+06-6.77326E+05-3.25699E+05-1.99968E+06 4.87489E-10 1.38243E-09
 -1       286-1.84510E+05-4.43254E+04 1.02255E+05-1.18043E+03 3.29170E-09-2.68483E-09
 -1       287-1.39279E+05 5.13186E+04 7.25248E+04 2.20153E+03 5.02951E-09 7.84712E-09
 -1       288-1.68001E+05-6.97559E+03 2.63416E+04-9.16875E+02 6.92950E-10 5.86988E-09
 -1       289-1.57792E+05 8.14733E+03 1.71023E+04 8.10651E+02-2.16932E-10-7.84166E-09
 -1       290-1.66009E+05-1.17521E+03 6.52324E+03 2.10461E+02 1.02616E-09 1.02773E-10
 -1       291-1.61470E+05 1.32423E+03 4.45104E+03-1.30443E+03-2.24280E-09 9.01167E-09
 -1       292-1.64326E+05-1.48913E+02 2.00497E+03 1.19821E+03-7.22742E-06-2.45868E-08
 -1       293-1.63104E+05 2.88822E+02 1.81737E+03-2.25876E+03-1.43009E-05-5.17684E-08
 -1       294-1.64384E+05-1.32817E+02 1.77611E+03 1.16484E+03-7.23636E-06-2.53224E-08
 -1       295-1.61493E+05 1.12426E+03 3.85009E+03-1.19944E+03-2.36980E-09-2.50162E-09
 -1       296-1.65930E+05-9.94437E+02 5.40541E+03 1.38840E+02-1.86378E-09-1.74532E-09
 -1       297-1.58527E+05 6.78810E+03 1.43035E+04 9.31701E+02-2.99214E-09 5.34078E-09
 -1       298-1.67343E+05-5.79433E+03 2.19176E+04-9.66308E+02-3.21130E-10-7.59428E-10
 -1       299-1.43338E+05 4.26919E+04 6.03529E+04 2.24449E+03 1.68033E-10 7.39601E-09
 -1       300-1.81113E+05-3.68794E+04 8.50490E+04-1.17396E+03 1.34215E-09 3.46336E-09
 -1       301 5.16968E+04-2.80385E+04 1.43370E+05-4.43481E+04 2.91766E-09-5.88687E-09
 -1       302 1.89770E+04 1.11280E+03 9.40401E+04-5.43977E+04 3.83216E-09-1.48140E-09
 -1       303 4.25561E+03-1.78445E+04 8.29873E+04-4.44497E+04 1.07684E-09-4.82987E-09
 -1       304 3.14764E+04 1.03840E+04 1.32860E+05-5.43072E+04 4.09636E-09-2.87469E-09
 -1       305 8.91816E+04-3.72083E+04 2.35841E+05-4.43375E+04 2.70666E-09-1.69894E-09
 -1       306-2.68574E+06-3.60315E+05-1.56168E+05-1.04335E+06 1.93268E-09-5.76256E-09
 -1       307-2.71440E+06-4.83086E+05-9.77979E+04-1.07244E+06 7.22139E-10-5.61704E-09
 -1       308-2.71371E+06-3.92718E+05-3.68351E+04-1.03843E+06 6.23913E-10-3.16322E-09
 -1       309-2.68200E+06-4.40250E+05-2.00766E+04-1.08174E+06 1.15688E-09 2.16824E-09
 -1       310-2.71758E+06-3.95309E+05-8.59210E+03-1.03726E+06-7.31688E-10 1.72804E-11
 -1       311-2.67768E+06-4.36776E+05-4.58743E+03-1.08376E+06 4.55657E-10 6.38386E-09
 -1       312-2.71828E+06-3.95321E+05-2.49533E+03-1.03691E+06 1.86958E-09 3.79902E-09
 -1       313-2.67725E+06-4.36475E+05-2.21264E+03-1.08393E+06 3.88241E-10-3.27736E-09
 -1       314-2.71804E+06-3.95547E+05-3.00467E+03-1.03713E+06-2.13004E-09-6.65523E-09
 -1       315-2.67848E+06-4.36167E+05-5.94644E+03-1.08268E+06 1.90721E-09-3.01338E-09
 -1       316-2.71676E+06-3.95868E+05-1.14066E+04-1.03793E+06-1.04501E-09 2.32194E-09
 -1       317-2.68460E+06-4.40409E+05-2.67190E+04-1.07948E+06-8.36735E-11 1.31240E-09
 -1       318-2.71149E+06-3.92526E+05-4.91061E+04-1.03961E+06 6.52108E-10-3.40515E-09
 -1       319-2.72786E+06-4.97471E+05-1.30334E+05-1.06711E+06-3.52657E-10-4.90218E-09
 -1       320-2.67431E+06-3.49192E+05-2.08100E+05-1.04604E+06-1.16961E-09-4.04543E-09
 -1       336 6.38175E+02-1.15106E+06-4.34234E+03-1.92869E+03-9.10677E-09-3.12320E-09
 -1       337-1.96649E+03-1.15277E+06-6.90126E+03-1.89444E+04-6.11908E-09-9.54969E-10
 -1       338 1.06312E+03-1.15073E+06-1.06471E+04-1.48048E+03-1.04615E-08 4.00087E-09
 -1       339-1.27158E+04-1.15916E+06-2.55682E+04-1.97244E+04-7.46559E-09 2.88196E-09
 -1       340 9.63721E+03-1.14481E+06-3.93796E+04-1.15554E+03-1.12941E-08 1.97633E-09
 -1       356-8.72659E-01 3.23839E-01-2.76011E+00-2.19403E+00-7.59278E-07-2.22979E-09
 -1       357-1.49757E+00-6.02797E-01-5.81511E+00 8.82873E+00-1.51827E-06-2.61161E-09
 -1       358-7.13877E-01 2.83305E-01-1.10235E+01-2.19361E+00-8.99389E-07 5.11133E-10
 -1       359-2.82638E+00-1.91757E+00-2.31329E+01 8.82848E+00-2.79804E-07-9.16849E-11
 -1       360 4.55700E-01 1.63879E+00-4.41953E+01-2.19377E+00 2.72626E-07-8.63777E-10
 -1       361-1.02229E+01-1.24645E+01-9.45169E+01 8.82970E+00 8.24463E-07 4.92669E-09
 -1       362 6.68286E+00 1.08297E+01-1.76933E+02-2.19483E+00 1.09712E-06 4.63226E-09
 -1       363-5.09919E+01-8.13117E+01-3.89716E+02 8.84210E+00 1.36873E-06 3.01424E-09
 -1       364 4.12265E+01 7.04781E+01-7.05745E+02-2.20616E+00 1.34353E-06 8.19000E-09
 -1       365-2.84234E+02-5.23977E+02-1.62649E+03 8.92895E+00 1.32190E-06 3.12204E-09
 -1       366 2.39940E+02 4.53435E+02-2.79836E+03-2.28165E+00 1.01951E-06 2.59377E-09
 -1       367-1.65877E+03-3.35066E+03-6.90829E+03 9.45988E+00 7.18593E-07-3.65344E-09
 -1       368 1.41596E+03 2.89671E+03-1.09893E+04-2.73681E+00 2.43724E-07 1.00008E-08
 -1       369-9.94048E+03-2.13247E+04-3.00738E+04 1.24832E+01-2.37166E-07-4.00178E-10
 -1       370 8.52458E+03 1.84247E+04-4.24688E+04-5.30285E+00-1.13092E-07 1.41954E-08
 -1       376-1.23904E+00 1.99349E+00-1.20475E+00 2.02955E+00 2.32840E-06-8.67889E-07
 -1       377 7.01952E+00-7.22825E+00-2.13294E+00-7.61818E+00 4.65032E-06-1.74160E-06
 -1       378-1.16999E+00 1.94844E+00-3.81325E+00 2.07891E+00 1.15688E-06-4.33919E-07
 -1       379 6.25056E+00-8.01298E+00-8.48013E+00-7.61090E+00-2.33967E-06 8.76856E-07
 -1       380-4.69919E-01 2.77845E+00-1.64135E+01 2.02220E+00-6.48911E-06 2.43351E-06
 -1       381 1.73335E+00-1.43521E+01-3.80037E+01-6.81366E+00-1.06349E-05 3.99915E-06
 -1       382 3.34751E+00 8.28694E+00-7.19836E+01 1.28200E+00-1.45488E-05 5.46229E-06
 -1       383-2.46240E+01-5.51216E+01-1.72638E+02-5.09753E-01-1.84640E-05 6.93633E-06
 -1       384 2.58878E+01 4.35434E+01-3.14834E+02-4.27943E+00-2.18901E-05 8.22017E-06
 -1       385-1.84773E+02-3.15832E+02-7.93435E+02 4.34778E+01-2.53131E-05 9.51273E-06
 -1       386 1.63498E+02 2.68967E+02-1.36938E+03-4.26913E+01-2.78005E-05 1.04370E-05
 -1       387-1.15966E+03-1.97477E+03-3.69656E+03 3.42797E+02-3.02753E-05 1.13742E-05
 -1       388 1.00081E+03 1.70226E+03-5.91189E+03-3.03492E+02-2.98138E-05 1.11948E-05
 -1       389-7.15380E+03-1.25050E+04-1.75292E+04 2.32811E+03-2.93327E-05 1.10249E-05
 -1       390 6.15840E+03 1.07979E+04-2.52287E+04-2.02711E+03-1.46743E-05 5.50983E-06
 -1       406 3.65654E+02 4.85460E+05 1.26346E+03-1.67723E+02-1.88629E-09-7.36691E-11
 -1       407 4.41223E+02 4.85728E+05 2.27207E+03 1.76230E+02-1.34469E-09 4.54747E-09
 -1       408 1.07931E+03 4.85336E+05 4.34510E+03-7.71017E+00-2.38310E-09-4.16003E-09
 -1       409 4.55581E+03 4.87081E+05 9.69675E+03-1.41094E+02-1.56888E-09-7.98718E-09
 -1       410 1.31784E+04 4.84103E+05 1.97412E+04 1.64679E+02-3.05045E-09-4.74574E-09
 -1       501-3.58194E+05-8.69798E+04 1.60687E+05-1.33540E+04 1.70918E-08 1.23036E-08
 -1       502-7.14152E+04 9.35874E+04 1.50262E+05 3.32010E+04 2.24680E-08 2.72557E-08
 -1       503-2.54309E+05-6.10832E+03 4.33743E+04-1.51688E+04 6.22049E-09 1.61563E-08
 -1       504-1.82656E+04 1.81889E+04 6.93997E+04 1.97320E+04 1.18257E-09 1.00890E-08
 -1       505-4.10630E+05-1.24422E+04-2.47281E+04 1.21016E+02 4.14764E-09-1.15324E-09
 -1       506 1.39742E+04 9.20680E+03 5.51245E+04-1.35940E+04 4.08523E-08-1.83509E-08
 -1       507-2.86251E+05 2.56438E+03-7.85120E+03 1.81225E+04 3.28697E-08-3.19513E-08
 -1       508-1.21353E+05-5.85511E+03 2.10589E+04-3.18182E+04 1.87715E-08-3.84758E-08
 -1       509-2.76428E+05 3.81081E+03-7.53157E+03 1.83795E+04 3.40746E-08-2.44750E-08
 -1       510 4.85088E+03 6.75009E+03 4.84236E+04-1.50225E+04 3.91072E-08-2.52298E-08
 -1       511-4.11393E+05-1.11687E+04-3.38841E+04 1.29270E+03-6.91625E-09-1.67688E-10
 -1       512-1.43150E+04 8.32889E+03 4.93098E+04 1.85386E+04-1.65249E-08 1.45766E-08
 -1       513-2.57431E+05 2.39915E+03 6.55828E+03-1.51479E+04-1.23293E-08 1.96728E-08
 -1       514-1.04029E+05 2.49029E+04 5.35812E+04 3.30938E+04-1.15093E-08 2.73599E-08
 -1       515-3.22540E+05-2.68075E+04 2.60270E+04-1.32686E+04-1.40261E-08 1.78479E-08
 -1       521-5.29793E+06-6.89627E+05-3.37128E+05-2.04239E+06-2.69938E-09 3.69619E-09
 -1       522-5.40587E+06-9.10837E+05-2.11438E+05-2.05390E+06-7.00311E-10-1.00117E-08
 -1       523-5.35751E+06-7.60872E+05-7.93701E+04-2.03234E+06-4.66116E-11-1.46247E-09
 -1       524-5.33611E+06-8.17024E+05-4.33109E+04-2.07233E+06-7.76481E-10-9.93168E-10
 -1       525-5.36535E+06-7.67046E+05-1.84144E+04-2.03015E+06 4.46789E-10 6.63022E-10
 -1       526-5.32702E+06-8.08901E+05-9.73633E+03-2.07567E+06-1.52295E-09-8.98581E-10
 -1       527-5.36654E+06-7.67419E+05-5.05460E+03-2.02966E+06-3.29692E-10-5.59623E-10
 -1       528-5.32641E+06-8.07796E+05-4.07027E+03-2.07548E+06-3.03623E-09 4.03134E-10
 -1       529-5.36590E+06-7.68079E+05-5.04683E+03-2.03035E+06-1.62481E-09-3.24781E-09
 -1       530-5.32916E+06-8.06541E+05-9.65329E+03-2.07273E+06 2.36923E-10-7.45968E-09
 -1       531-5.36348E+06-7.68973E+05-1.83115E+04-2.03215E+06 2.05364E-09 3.65435E-09
 -1       532-5.34025E+06-8.12382E+05-4.29276E+04-2.06672E+06-1.56069E-09 1.36060E-09
 -1       533-5.35462E+06-7.63961E+05-7.87545E+04-2.03551E+06-3.99723E-10 3.11047E-09
 -1       534-5.41135E+06-9.03383E+05-2.09595E+05-2.04616E+06 4.39286E-10 3.71438E-09
 -1       535-5.29465E+06-6.94244E+05-3.34284E+05-2.04649E+06-2.28465E-09 9.60426E-10
 -1       536-1.71202E+04-1.64717E+04 6.52805E+04-1.25902E+04 2.80124E-10-6.64659E-09
 -1       537 7.86590E+03 2.08757E+04 4.22527E+04-5.42980E+04-3.85808E-09-3.55340E-09
 -1       538-7.25239E+03-1.94719E+03 1.68590E+04-1.24018E+04 1.60071E-10 4.08090E-09
 -1       539-3.82643E+03 1.95344E+03 9.54369E+03-5.44989E+04 1.71030E-09 2.16141E-09
 -1       540-6.16995E+03-3.10572E+02 4.22028E+03-1.23801E+04-1.19144E-10 1.82104E-09
 -1       541-5.55144E+03 1.62191E+02 2.25856E+03-5.45233E+04 1.32331E-10-1.65960E-09
 -1       542-6.07057E+03-5.83927E+01 1.00503E+03-1.23789E+04-2.09184E-11 1.54853E-09
 -1       543-5.99789E+03 6.70862E+01 4.64027E+02-5.45255E+04 1.03046E-09 5.14854E-09
 -1       544-6.07299E+03 1.37241E+01 7.77255E+01-1.23782E+04 2.95586E-10 5.44105E-10
 -1       545-6.17558E+03 6.03075E+01-2.57687E+02-5.45265E+04-7.47207E-10-2.80795E-09
 -1       546-6.04886E+03 5.65314E+01-6.84787E+02-1.23778E+04 6.08168E-10-1.99952E-09
 -1       547-6.38273E+03-2.95318E+02-1.63660E+03-5.45195E+04-9.38144E-10 2.09820E-09
 -1       548-5.82827E+03 2.94817E+02-2.97985E+03-1.23853E+04-1.71576E-09 1.06752E-09
 -1       549-8.15939E+03-3.71687E+03-7.40914E+03-5.44144E+04-1.90767E-10-1.87993E-09
 -1       550-4.04109E+03 2.74422E+03-1.15639E+04-1.24828E+04-1.60071E-10 3.47791E-09
 -1       551 1.67225E+04-4.59380E+05 3.49810E+04-7.25352E+05 1.62254E-09-1.36060E-09
 -1       552 1.43516E+04-4.55763E+05 3.51531E+04-8.85463E+05-6.85395E-09 6.54836E-11
 -1       553 1.08157E+04-4.61680E+05 4.94117E+04-7.23925E+05 2.11730E-09 3.27600E-09
 -1       554 3.56723E+04-4.41114E+05 1.00022E+05-8.85620E+05-8.27276E-09 2.35650E-09
 -1       555 8.00990E+04-4.76002E+05 1.89509E+05-7.24834E+05 1.00408E-09-6.30462E-09
 -1       556-1.75962E+05-1.54925E+05 3.59399E+04-2.54573E+05-4.28554E-09-2.99769E-09
 -1       557-1.40601E+05-1.89135E+05 1.81699E+04-2.82269E+05-6.13727E-09-9.85847E-09
 -1       558-1.76725E+05-1.63698E+05 7.51023E+03-2.48951E+05-3.41242E-09 3.52702E-09
 -1       559-1.45310E+05-1.94225E+05 3.74907E+03-2.84342E+05-4.14730E-10-7.39919E-09
 -1       560-1.77778E+05-1.63201E+05 1.60942E+03-2.49443E+05 8.73115E-10 5.23869E-10
 -1       561-1.46770E+05-1.93940E+05 8.07216E+02-2.85338E+05 1.34969E-09 2.65345E-09
 -1       562-1.78596E+05-1.62670E+05 2.94712E+02-2.49999E+05 6.07542E-10 6.16865E-10
 -1       563-1.47618E+05-1.93576E+05 8.12591E+01-2.85917E+05-8.03993E-10 2.46746E-09
 -1       564-1.79077E+05-1.62361E+05-1.64419E+02-2.50329E+05 8.03993E-10 5.57247E-09
 -1       565-1.48044E+05-1.93401E+05-4.85396E+02-2.86194E+05-8.16181E-09-9.10404E-09
 -1       566-1.79188E+05-1.62253E+05-1.09773E+03-2.50425E+05-5.74801E-09-1.10958E-09
 -1       567-1.48223E+05-1.93489E+05-2.44819E+03-2.86156E+05-1.46883E-10 6.88306E-09
 -1       568-1.78817E+05-1.62594E+05-5.06185E+03-2.50193E+05 1.08776E-09 3.05590E-09
 -1       569-1.50881E+05-1.96212E+05-1.19232E+04-2.85090E+05-2.86855E-09 3.87809E-09
 -1       570-1.76724E+05-1.70216E+05-2.38728E+04-2.46902E+05-4.13274E-09-6.65204E-09
 -1       571 3.11257E+05 1.37613E+04 2.06588E+04-7.99240E+04 8.22183E-10-4.06226E-09
 -1       572 3.14354E+05 4.74370E+03 1.01310E+04-8.77805E+04 9.79071E-10-8.23002E-09
 -1       573 3.12483E+05 1.09834E+03 4.50282E+03-7.97123E+04 2.80124E-10-2.74031E-09
 -1       574 3.12845E+05 3.47896E+02 2.25806E+03-8.80108E+04 1.02955E-09 4.82942E-10
 -1       575 3.12607E+05 3.75544E+01 1.06507E+03-7.96853E+04 1.05911E-09-2.79942E-09
 -1       576 3.12637E+05 5.28452E+00 5.41939E+02-8.80412E+04-3.46205E-10-1.04237E-08
 -1       577 3.12628E+05-1.59974E+01 2.65615E+02-7.96818E+04-8.29004E-10-3.86899E-09
 -1       578 3.12624E+05-1.45272E+01 1.41967E+02-8.80451E+04-2.54886E-10 5.64341E-09
 -1       579 3.12662E+05-2.63872E+01 8.06155E+01-7.96815E+04 2.36469E-11 8.69477E-10
 -1       580 3.12673E+05-3.76220E+01 6.57676E+01-8.80411E+04 9.32232E-11-1.52340E-09
 -1       581 3.12726E+05-5.73214E+01 7.67446E+01-7.96857E+04-5.71163E-10-2.53749E-10
 -1       582 3.12773E+05-6.39028E+01 1.39455E+02-8.79942E+04 2.13731E-10-2.42017E-09
 -1       583 3.12814E+05-5.06029E+01 2.58325E+02-7.97283E+04-1.38061E-09 4.71118E-09
 -1       584 3.12981E+05 1.29715E+02 5.80217E+02-8.76306E+04-3.27600E-09 3.41925E-09
 -1       585 3.12857E+05 6.22845E+02 1.16916E+03-8.00500E+04 1.25874E-09 3.32875E-10
 -1       586 1.89295E+03 1.44232E+05 3.60800E+03-1.93270E+05 5.33873E-10 6.03450E-09
 -1       587 1.20916E+03 1.44809E+05 3.94414E+03-2.14533E+05-1.19871E-09-1.99634E-10
 -1       588 1.57818E+03 1.44063E+05 6.10474E+03-1.93013E+05 7.20320E-10-8.48854E-09
 -1       589 5.85852E+03 1.46442E+05 1.28514E+04-2.14602E+05-1.30149E-09-1.57136E-08
 -1       590 1.65817E+04 1.42476E+05 2.57124E+04-1.93193E+05 8.25821E-10-8.16908E-09
 -1       591-1.58176E+05-4.69631E+04-3.06329E+04-7.58252E+04 2.60366E-09 9.14042E-09
 -1       592-1.60090E+05-4.52748E+04-1.53618E+04-8.41252E+04 2.71939E-10-1.79170E-09
 -1       593-1.59649E+05-3.80333E+04-6.52179E+03-8.02403E+04-1.54614E-10 1.65051E-09
 -1       594-1.56637E+05-4.14341E+04-3.20234E+03-8.44365E+04-6.16183E-10 3.34410E-10
 -1       595-1.59818E+05-3.77888E+04-1.47774E+03-8.04104E+04-6.41876E-10-3.17891E-09
 -1       596-1.56400E+05-4.12988E+04-7.47254E+02-8.44036E+04 8.12406E-10-3.03021E-09
 -1       597-1.59846E+05-3.78145E+04-4.02802E+02-8.04107E+04 5.56383E-10 3.53930E-09
 -1       598-1.56375E+05-4.13008E+04-3.14559E+02-8.43920E+04-7.56359E-10 5.21572E-09
 -1       599-1.59843E+05-3.78172E+04-3.90200E+02-8.04086E+04 1.70849E-09 3.68777E-09
 -1       600-1.56392E+05-4.13023E+04-7.13915E+02-8.43962E+04-1.01181E-10 2.94631E-09
 -1       601-1.59807E+05-3.77971E+04-1.40577E+03-8.04041E+04-4.77576E-09 4.89490E-09
 -1       602-1.56613E+05-4.14305E+04-3.04326E+03-8.44171E+04 2.00089E-10-2.65186E-09
 -1       603-1.59638E+05-3.80378E+04-6.19636E+03-8.02420E+04-1.13687E-10-1.38334E-09
 -1       604-1.59921E+05-4.50432E+04-1.45917E+04-8.40718E+04 3.44244E-10 1.62936E-09
 -1       605-1.58196E+05-4.65525E+04-2.90969E+04-7.60812E+04-1.26374E-09-3.50155E-10
 -1       606 1.14275E+05-1.28534E+04-2.01607E+04 3.72608E+04-6.24459E-09 1.60253E-09
 -1       607 1.11085E+05-4.32482E+03-9.91838E+03 4.08466E+04-1.16688E-09-3.50269E-10
 -1       608 1.12919E+05-9.19022E+02-4.41924E+03 3.70036E+04 4.75848E-09-2.66050E-09
 -1       609 1.12495E+05-2.42054E+02-2.21705E+03 4.11280E+04-1.05138E-09 3.03771E-09
 -1       610 1.12719E+05 2.80773E+01-1.04936E+03 3.69715E+04-6.02267E-09 2.86855E-09
 -1       611 1.12626E+05 7.54125E+01-5.27136E+02 4.11623E+04-1.10012E-08 1.80989E-09
 -1       612 1.12659E+05 8.55154E+01-2.50012E+02 3.69681E+04-5.36966E-09 8.99945E-10
 -1       613 1.12615E+05 1.00286E+02-1.11443E+02 4.11662E+04-9.80572E-09 2.19188E-10
 -1       614 1.12624E+05 9.25894E+01-2.61030E+01 3.69673E+04-2.08638E-09-1.45337E-09
 -1       615 1.12595E+05 1.11868E+02 4.79759E+01 4.11663E+04 7.84075E-09-1.73713E-10
 -1       616 1.12597E+05 1.07245E+02 1.42559E+02 3.69678E+04-5.38421E-09-3.58295E-09
 -1       617 1.12602E+05 1.65545E+02 3.28073E+02 4.11646E+04-1.51067E-09-9.55515E-09
 -1       618 1.12559E+05 2.54271E+02 6.64889E+02 3.69685E+04 1.12368E-09-3.46199E-09
 -1       619 1.12813E+05 7.85955E+02 1.50029E+03 4.11578E+04 3.27827E-09 5.54519E-09
 -1       620 1.12353E+05 2.06311E+03 3.05160E+03 3.69705E+04 3.30488E-09 1.46474E-09
 -1       621 1.08801E+03 3.28176E+05 3.75072E+03-2.72975E+04 1.38357E-09-2.01476E-09
 -1       622 5.03657E+02 3.28929E+05 3.96887E+03-3.33775E+04-8.26731E-10-7.57257E-09
 -1       623 3.19389E+02 3.28266E+05 5.87158E+03-2.73029E+04 1.25419E-09 6.27233E-09
 -1       624 3.11301E+03 3.30878E+05 1.20858E+04-3.32731E+04-8.34234E-10-3.47495E-09
 -1       625 8.90777E+03 3.26261E+05 2.30633E+04-2.73973E+04 1.53159E-09 1.10958E-09
 -1       626 2.02593E+05 6.65933E+04-3.10846E+03 1.29619E+05-1.18416E-09 2.78123E-09
 -1       627 1.98163E+05 7.17113E+04-1.47626E+03 1.33627E+05 2.85945E-09-8.41510E-10
 -1       628 2.02731E+05 6.79596E+04-6.21831E+02 1.28705E+05-1.42609E-09-6.90034E-09
 -1       629 1.98197E+05 7.24926E+04-2.93794E+02 1.33717E+05 6.18456E-09 8.79120E-09
 -1       630 2.02698E+05 6.80625E+04-1.25198E+02 1.28606E+05 2.93039E-09-1.02062E-09
 -1       631 1.98157E+05 7.25659E+04-4.29855E+01 1.33710E+05-2.78078E-09 1.03711E-09
 -1       632 2.02664E+05 6.80768E+04 1.62712E+01 1.28582E+05 6.70116E-09 8.29459E-09
 -1       633 1.98135E+05 7.25779E+04 8.50664E+01 1.33698E+05 8.29914E-10-1.84843E-09
 -1       634 2.02639E+05 6.80753E+04 1.96806E+02 1.28572E+05-8.23093E-11 3.42698E-09
 -1       635 1.98147E+05 7.25848E+04 4.37458E+02 1.33697E+05 7.27141E-10 7.91715E-10
 -1       636 2.02617E+05 6.80902E+04 9.03016E+02 1.28558E+05-1.53091E-09 4.75438E-09
 -1       637 1.98358E+05 7.28047E+04 2.01003E+03 1.33668E+05-9.95954E-10-8.95329E-09
 -1       638 2.02568E+05 6.87590E+04 4.15762E+03 1.28265E+05-2.06114E-09-1.46611E-09
 -1       639 2.00493E+05 7.63689E+04 9.88162E+03 1.32821E+05-5.57498E-09-7.50788E-10
 -1       640 2.02609E+05 7.91533E+04 2.07751E+04 1.23927E+05-1.99816E-09 1.21918E-09
 -1       641-2.72215E+03 3.38718E+03-7.80888E+03-2.21138E+01 4.89332E-05-9.09695E-08
 -1       642-6.10649E+03-3.92018E+03-5.52363E+03 4.81440E+01 9.77676E-05-1.64951E-07
 -1       643-4.02681E+03 5.32312E+02-2.01110E+03-2.15506E+01 9.03982E-05-1.68448E-07
 -1       644-4.58604E+03-6.14214E+02-1.24871E+03 4.81679E+01 8.29761E-05-1.43264E-07
 -1       645-4.24272E+03 8.18533E+01-4.74167E+02-2.21394E+01 5.79534E-05-1.10105E-07
 -1       646-4.32836E+03-8.48279E+01-2.12436E+02 4.90152E+01 3.29083E-05-5.54664E-08
 -1       647-4.28451E+03 3.02296E+00 3.23372E+01-2.23982E+01-1.85803E-06 9.82905E-09
 -1       648-4.24806E+03 5.96414E+01 2.85457E+02 4.89117E+01-3.66355E-05 7.29216E-08
 -1       649-4.32302E+03-6.25980E+01 6.13971E+02-2.20360E+01-7.82016E-05 1.53966E-07
 -1       650-4.02493E+03 4.77882E+02 1.47324E+03 4.73313E+01-1.19775E-04 2.19786E-07
 -1       651-4.50762E+03-4.15162E+02 2.55540E+03-2.08179E+01-1.62807E-04 3.04012E-07
 -1       652-2.76053E+03 3.06973E+03 6.32630E+03 4.29756E+01-2.05822E-04 3.49421E-07
 -1       653-5.58726E+03-2.65396E+03 1.00663E+04-1.76808E+01-2.27678E-04 3.88479E-07
 -1       654 4.83278E+03 1.95381E+04 2.75556E+04 2.91915E+01-2.49389E-04 3.75974E-07
 -1       655-1.20986E+04-1.68800E+04 3.89214E+04-7.03427E+00-1.24802E-04 1.49539E-07
 -1       656 1.28474E+04-4.77755E+05-5.46640E+04 1.32836E+04-7.85803E-10 1.59207E-09
 -1       657-1.87501E+04-4.97932E+05-4.04579E+04 5.60814E+04 8.83574E-10 4.12638E-09
 -1       658 2.62463E+03-4.84808E+05-2.61882E+04 1.31362E+04-2.52612E-10 1.55956E-09
 -1       659-1.82053E+04-4.97684E+05-3.95508E+04 5.61802E+04-5.85260E-10-4.45310E-09
 -1       660 1.24444E+04-4.78078E+05-5.29416E+04 1.31862E+04-1.12777E-09-2.75963E-09
 -1       661 3.10362E+05 4.31658E+04 2.44777E+04 1.21833E+05 9.07539E-09 4.29463E-09
 -1       662 3.15754E+05 5.72588E+04 1.47404E+04 1.25276E+05 5.31486E-10 1.00799E-08
 -1       663 3.14118E+05 4.68174E+04 5.74537E+03 1.21857E+05-3.18420E-09-4.99949E-09
 -1       664 3.11362E+05 5.13441E+04 3.03215E+03 1.25961E+05 7.38535E-09 9.83391E-10
 -1       665 3.14477E+05 4.71524E+04 1.34209E+03 1.21873E+05 5.24022E-09-3.86734E-09
 -1       666 3.10944E+05 5.08500E+04 7.14644E+02 1.25987E+05 1.03936E-08 2.76803E-09
 -1       667 3.14516E+05 4.71860E+04 4.16707E+02 1.21877E+05 3.19272E-09-3.08168E-09
 -1       668 3.10906E+05 5.08170E+04 4.01122E+02 1.25989E+05 2.23167E-09 3.76940E-09
 -1       669 3.14515E+05 4.71794E+04 5.86235E+02 1.21873E+05-4.41293E-09-2.78010E-09
 -1       670 3.10978E+05 5.08930E+04 1.17325E+03 1.26005E+05-4.73563E-09-3.96994E-09
 -1       671 3.14450E+05 4.71137E+04 2.29611E+03 1.21862E+05 8.09450E-10 3.12343E-09
 -1       672 3.11700E+05 5.17584E+04 5.24412E+03 1.25972E+05 1.22274E-08-8.21888E-09
 -1       673 3.13831E+05 4.65280E+04 9.95637E+03 1.21830E+05 5.57736E-09-1.06593E-09
 -1       674 3.19315E+05 6.20250E+04 2.55628E+04 1.24795E+05 9.50826E-09 2.77078E-09
 -1       675 3.07319E+05 4.01912E+04 4.24525E+04 1.21784E+05 7.13862E-09 2.27192E-09
 -1       676 6.95988E+02-4.71536E+05-4.09388E+03 2.40426E+02-1.90772E-09-1.04051E-09
 -1       677-1.87152E+03-4.73223E+05-6.02820E+03-1.06261E+03 2.84308E-09 1.77351E-09
 -1       678 8.96884E+02-4.71338E+05-8.86245E+03 2.37522E+02 1.17780E-10 5.38655E-09
 -1       679-1.05508E+04-4.78281E+05-2.10499E+04-1.05576E+03 3.71028E-09 2.52787E-09
 -1       680 7.89535E+03-4.66482E+05-3.23152E+04 2.31711E+02-4.76030E-09-1.44479E-09
 -1       716-3.65616E-01-1.74319E-01 1.63598E+01-8.17253E-04-4.92120E-09-3.14868E-09
 -1       717 1.80046E+00 1.31303E+00 2.88127E+01 2.08150E-03-5.33310E-09-7.02324E-10
 -1       718-1.43488E+00-1.13919E+00 5.34684E+01-1.26312E-03-4.27661E-09-4.15053E-09
 -1       719 8.50169E+00 8.94377E+00 1.10903E+02-1.88838E-03 2.95795E-10-2.26569E-09
 -1       720-7.06691E+00-7.80552E+00 2.11523E+02 3.15433E-03-3.85611E-09-3.17374E-09
 -1       721 4.40018E+01 5.95925E+01 4.52063E+02-6.65826E-02-8.29565E-09-3.47033E-09
 -1       722-3.69347E+01-5.17859E+01 8.46110E+02 6.34240E-02-8.44098E-09-4.85261E-09
 -1       723 2.39235E+02 3.88845E+02 1.86369E+03-6.38928E-01 4.99616E-10-2.90038E-09
 -1       724-2.02289E+02-3.37018E+02 3.37484E+03 5.75380E-01-3.71232E-09-2.27897E-09
 -1       725 1.35509E+03 2.50565E+03 7.77798E+03-4.91360E+00-6.20261E-09-3.68664E-09
 -1       726-1.15257E+03-2.16820E+03 1.33823E+04 4.33740E+00-4.35997E-09-3.85535E-09
 -1       727 7.92927E+03 1.60225E+04 3.30363E+04-3.45633E+01-7.82468E-09-1.04683E-09
 -1       728-6.77267E+03-1.38507E+04 5.25630E+04 3.02275E+01-5.12657E-10-5.24597E-09
 -1       729 4.75355E+04 1.01970E+05 1.43824E+05-2.32471E+02 1.56246E-09-2.69756E-09
 -1       730-4.06961E+04-8.80838E+04 2.03301E+05 2.02376E+02 4.99728E-09-2.43017E-09
 -1       766-8.81019E+04-4.07529E+04 2.03263E+05-1.62841E+02-2.91038E-11 1.75419E-09
 -1       767 1.02116E+05 4.76374E+04 1.43816E+05 3.05129E+01 7.61247E-09-1.38618E-09
 -1       768-1.39785E+04-6.90446E+03 5.23867E+04 2.30068E+01-1.81899E-10 6.64215E-11
 -1       769 1.69613E+04 8.42872E+03 3.30626E+04-1.81624E+02 5.06407E-09 6.01064E-09
 -1       770-2.97853E+03-1.60653E+03 1.26102E+04 4.94145E+01 3.18323E-11 2.52617E-09
 -1       771-2.56827E+06-5.02818E+05-7.39846E+04-1.10862E+06-6.55928E-09 2.38651E-09
 -1       772-2.55725E+06-5.13406E+05-3.69766E+04-1.14562E+06-3.89991E-09 6.41012E-09
 -1       773-2.57354E+06-4.80096E+05-1.58578E+04-1.11894E+06-5.91535E-09-5.68252E-09
 -1       774-2.54914E+06-5.04818E+05-7.72494E+03-1.14846E+06 1.65528E-09-3.43789E-09
 -1       775-2.57505E+06-4.78759E+05-3.65607E+03-1.11972E+06 5.02041E-10 4.44743E-10
 -1       776-2.54926E+06-5.04384E+05-1.80970E+03-1.14944E+06 1.00408E-09-1.24055E-09
 -1       777-2.57594E+06-4.78292E+05-1.01615E+03-1.12006E+06 5.63887E-10 8.41055E-10
 -1       778-2.54974E+06-5.04251E+05-7.45598E+02-1.15012E+06-2.40107E-09-4.02338E-10
 -1       779-2.57649E+06-4.77942E+05-9.37279E+02-1.12030E+06-2.58296E-10-1.34605E-10
 -1       780-2.55012E+06-5.04170E+05-1.67832E+03-1.15056E+06-1.46338E-09-6.81212E-10
 -1       781-2.57669E+06-4.77713E+05-3.32493E+03-1.12041E+06-1.25965E-09-1.82354E-09
 -1       782-2.55078E+06-5.04438E+05-7.21076E+03-1.15075E+06-4.53383E-10-1.09139E-09
 -1       783-2.57628E+06-4.78290E+05-1.47182E+04-1.12004E+06-3.17686E-09-3.01588E-09
 -1       784-2.55867E+06-5.12967E+05-3.47145E+04-1.14968E+06-3.93993E-09-4.45289E-09
 -1       785-2.57254E+06-4.98784E+05-6.92858E+04-1.11017E+06 8.91305E-11 1.54978E-09
 -1       786 2.52072E+05-7.90708E+03 3.23006E+04-1.88347E+03-5.22959E-12 3.76531E-10
 -1       787 2.63866E+05 1.04880E+04 2.08222E+04-8.42145E+03 9.16316E-11-4.32010E-11
 -1       788 2.56982E+05-8.36873E+02 8.37689E+03-1.88284E+03-1.77806E-10 2.53431E-09
 -1       789 2.58376E+05 1.06813E+03 4.70443E+03-8.41046E+03-3.93527E-10 3.75485E-09
 -1       790 2.57553E+05-9.21046E+01 2.13000E+03-1.89378E+03 1.02830E-10-1.48339E-09
 -1       791 2.57727E+05 1.07508E+02 1.14712E+03-8.39485E+03 1.62728E-09 2.02769E-09
 -1       792 2.57627E+05-1.14700E+01 5.86618E+02-1.89844E+03-5.20174E-10 3.33583E-09
 -1       793 2.57646E+05 1.45086E+01 3.91264E+02-8.39252E+03-3.33259E-10-3.79642E-09
 -1       794 2.57634E+05-6.50409E+00 3.61969E+02-1.89611E+03 6.33406E-10-1.68815E-09
 -1       795 2.57672E+05 4.61111E+01 5.53586E+02-8.40455E+03-1.31877E-11 3.13259E-09
 -1       796 2.57604E+05-4.15352E+01 9.52619E+02-1.88641E+03-8.40714E-10-2.02883E-09
 -1       797 2.57957E+05 4.61439E+02 2.06009E+03-8.42888E+03-5.82077E-10-3.55499E-10
 -1       798 2.57357E+05-3.66843E+02 3.64920E+03-1.87178E+03 1.86446E-11 5.67979E-10
 -1       799 2.60351E+05 4.55671E+03 9.06095E+03-8.44425E+03-1.41290E-09 2.41926E-10
 -1       800 2.55222E+05-3.44475E+03 1.40483E+04-1.87143E+03 7.95808E-12 7.72525E-09
 -1       801-1.75012E+04 2.71262E+05 3.64056E+04-3.67822E+05 1.03137E-09 1.33878E-09
 -1       802 5.16613E+04 2.74985E+05 5.70803E+04-1.60255E+06 1.96160E-08 3.03589E-09
 -1       803 2.75147E+03 2.63369E+05 7.06886E+04-3.66913E+05 1.00299E-08 8.88622E-09
 -1       804 1.11443E+05 3.10413E+05 1.60906E+05-1.60231E+06 1.19762E-08-5.59339E-09
 -1       805-6.74504E+04 2.36529E+05 2.31538E+05-3.68096E+05 9.54606E-09-3.20142E-10
 -1       806-2.31028E+05-6.90562E+04-1.95606E+04-1.17066E+05 1.58579E-09 5.01859E-09
 -1       807-2.30271E+05-6.51966E+04-9.30160E+03-1.24059E+05 9.06084E-10 7.93534E-11
 -1       808-2.31017E+05-5.92641E+04-3.91447E+03-1.21178E+05-2.16005E-10-1.38220E-09
 -1       809-2.28307E+05-6.18143E+04-1.89226E+03-1.24862E+05 3.99723E-10 1.32565E-09
 -1       810-2.31080E+05-5.86247E+04-8.54219E+02-1.21466E+05-2.75122E-10-4.49290E-10
 -1       811-2.28122E+05-6.16019E+04-4.21469E+02-1.24895E+05 2.40334E-10-2.00930E-09
 -1       812-2.31099E+05-5.86097E+04-2.07410E+02-1.21479E+05 7.16341E-10-4.51928E-09
 -1       813-2.28101E+05-6.15990E+04-1.28099E+02-1.24889E+05 4.70658E-09 8.74479E-09
 -1       814-2.31098E+05-5.86170E+04-1.15508E+02-1.21475E+05 2.11958E-09-4.20641E-09
 -1       815-2.28101E+05-6.16056E+04-1.77325E+02-1.24883E+05 4.82396E-09 1.90289E-09
 -1       816-2.31080E+05-5.86305E+04-3.30558E+02-1.21465E+05-1.32968E-09-2.55022E-09
 -1       817-2.28168E+05-6.16811E+04-7.17876E+02-1.24849E+05 1.46929E-09-3.34967E-09
 -1       818-2.31035E+05-5.88893E+04-1.47915E+03-1.21359E+05-1.66256E-09-4.03497E-09
 -1       819-2.28979E+05-6.28746E+04-3.50927E+03-1.24434E+05-6.39830E-10 3.31261E-09
 -1       820-2.30942E+05-6.26633E+04-7.37878E+03-1.19887E+05 3.40151E-09 1.11813E-08
 -1       821-3.24882E+05 9.74375E+03-3.98433E+04 2.11445E+03-3.37150E-09 5.39512E-09
 -1       822-3.39400E+05-1.29366E+04-2.56829E+04 9.94825E+03-1.58172E-09 1.36561E-09
 -1       823-3.30942E+05 1.02701E+03-1.03388E+04 2.03115E+03 3.70028E-09-2.62798E-09
 -1       824-3.32656E+05-1.30316E+03-5.80922E+03 1.00696E+04-2.09525E-10-2.88435E-09
 -1       825-3.31648E+05 1.14218E+02-2.64694E+03 1.99214E+03-6.46105E-09-2.36946E-09
 -1       826-3.31876E+05-1.10284E+02-1.45245E+03 1.01338E+04-1.22905E-08 4.01684E-10
 -1       827-3.31740E+05 1.92086E+01-8.00444E+02 1.96671E+03-5.84043E-09 2.15823E-09
 -1       828-3.31794E+05 2.95243E+00-6.41006E+02 1.01733E+04-9.70522E-09-2.46484E-09
 -1       829-3.31743E+05 1.98129E+01-7.55381E+02 1.95261E+03-2.11315E-09-1.42158E-09
 -1       830-3.31878E+05-9.30042E+01-1.33547E+03 1.01890E+04 5.08843E-09-2.04700E-09
 -1       831-3.31661E+05 1.08951E+02-2.41216E+03 1.95093E+03-2.19964E-09-2.40266E-09
 -1       832-3.32598E+05-1.17300E+03-5.28690E+03 1.01800E+04-2.04636E-10-4.02451E-10
 -1       833-3.31021E+05 9.41820E+02-9.40030E+03 1.96193E+03-6.59611E-10-3.91356E-09
 -1       834-3.38741E+05-1.17485E+04-2.33569E+04 1.01318E+04 3.26622E-10-4.94742E-09
 -1       835-3.25511E+05 8.87156E+03-3.62280E+04 2.00109E+03-1.34264E-09 1.00954E-09
 -1       836-5.07444E+03 5.26195E+05 4.33741E+04-2.68229E+04-2.12822E-09 1.03382E-08
 -1       837 1.10770E+04 5.40467E+05 3.34628E+04-6.33847E+04-2.30381E-09 1.09321E-09
 -1       838-1.18962E+03 5.30874E+05 2.78020E+04-2.67599E+04-3.12366E-09 7.29162E-09
 -1       839 1.77904E+04 5.45091E+05 4.78076E+04-6.33825E+04-2.23008E-09 4.63604E-09
 -1       840-8.79562E+03 5.21569E+05 7.18563E+04-2.68237E+04-2.62298E-09 7.41738E-09
 -1       841 8.09965E+04 1.17681E+04-9.94290E+02 3.01931E+04-2.24736E-09 5.68264E-10
 -1       842 8.02988E+04 1.10888E+04-6.78343E+02 3.06336E+04-1.91034E-08 1.19206E-08
 -1       843 8.07633E+04 1.14686E+04-2.28540E+02 3.03261E+04-2.60310E-05 9.79102E-06
 -1       844 8.05835E+04 1.14234E+04-1.34528E+02 3.04639E+04-5.20477E-05 1.95983E-05
 -1       845 8.07117E+04 1.14337E+04-3.52083E+01 3.03628E+04-3.49818E-05 1.31633E-05
 -1       846 8.06535E+04 1.14643E+04 1.18957E+01 3.04142E+04-1.78908E-05 6.73700E-06
 -1       847 8.06933E+04 1.14277E+04 6.91804E+01 3.03757E+04-1.05489E-05 3.96771E-06
 -1       848 8.07008E+04 1.15095E+04 1.88717E+02 3.03924E+04-3.20420E-06 1.20929E-06
 -1       849 8.06643E+04 1.13885E+04 3.53589E+02 3.03847E+04-5.86782E-07 2.17438E-07
 -1       850 8.08827E+04 1.18070E+04 8.96920E+02 3.03433E+04 2.02772E-06-7.71163E-07
 -1       851 8.05114E+04 1.11302E+04 1.54974E+03 3.04247E+04 1.54859E-06-5.81963E-07
 -1       852 8.19755E+04 1.36978E+04 4.18510E+03 3.00192E+04 1.06527E-06-3.95234E-07
 -1       853 7.95714E+04 9.49801E+03 6.69285E+03 3.07086E+04-3.16877E-06 1.20730E-06
 -1       854 8.87339E+04 2.56536E+04 1.98467E+04 2.78125E+04-7.41581E-06 2.78492E-06
 -1       855 7.37534E+04-8.23486E+02 2.85661E+04 3.26307E+04-3.71704E-06 1.38783E-06
 -1       856-2.72552E+05 4.01050E+03-3.19604E+04 9.03082E+03-3.62888E-10-1.65528E-09
 -1       857-2.82997E+05-7.69671E+03-1.95175E+04 2.18780E+04 2.58046E-09-4.62114E-09
 -1       858-2.77073E+05 3.75890E+02-8.20702E+03 8.91754E+03-5.86078E-09 3.22461E-09
 -1       859-2.78116E+05-5.12899E+02-4.41460E+03 2.20119E+04-3.37081E-09 6.22435E-10
 -1       860-2.77508E+05 6.92241E+01-2.07267E+03 8.89338E+03 1.91267E-09-1.38925E-10
 -1       861-2.77670E+05 4.13930E+01-1.09029E+03 2.20454E+04-3.85353E-09-3.14367E-09
 -1       862-2.77565E+05 4.22707E+01-5.70861E+02 8.88349E+03 7.02016E-09-7.19751E-10
 -1       863-2.77626E+05 8.50541E+01-3.80721E+02 2.20566E+04 1.65332E-08-2.51191E-10
 -1       864-2.77571E+05 4.05120E+01-3.63318E+02 8.88203E+03 5.50546E-09 1.11720E-09
 -1       865-2.77637E+05 6.67362E+01-5.53683E+02 2.20503E+04 1.35215E-08-3.64230E-09
 -1       866-2.77544E+05 5.03588E+01-9.81663E+02 8.88985E+03-4.29645E-09 1.06468E-10
 -1       867-2.77832E+05-1.93340E+02-2.04978E+03 2.20234E+04 3.56704E-09-1.09944E-09
 -1       868-2.77339E+05 1.86644E+02-3.79573E+03 8.90932E+03 4.20232E-09-3.82715E-09
 -1       869-2.80066E+05-3.51664E+03-9.01085E+03 2.19016E+04-1.00395E-08-4.88450E-09
 -1       870-2.75245E+05 1.85533E+03-1.47580E+04 9.01357E+03 1.31968E-09-5.81895E-09
 -1       871-4.61296E+03-3.65632E+04-9.61027E+03 1.34164E+05 1.86810E-09 1.58070E-09
 -1       872-1.62349E+03-3.84526E+04-2.97546E+03 1.61866E+05 2.14004E-09-2.81898E-09
 -1       873-6.43150E+01-3.77731E+04 2.53481E+03 1.33890E+05 2.22872E-09 9.01309E-10
 -1       874 2.69574E+03-3.55065E+04 9.90964E+03 1.61976E+05 3.61342E-09 2.91493E-09
 -1       875 8.63777E+03-3.96899E+04 2.12049E+04 1.34073E+05 1.66619E-09-9.48603E-10
 -1       876 3.97903E+05 5.74282E+04 3.55859E+04 1.58424E+05-6.78483E-10-4.29281E-09
 -1       877 4.04394E+05 7.72342E+04 2.11509E+04 1.64885E+05-7.93216E-09 1.03978E-09
 -1       878 4.03161E+05 6.18781E+04 8.32494E+03 1.58723E+05 2.25918E-09 2.24236E-09
 -1       879 3.98182E+05 6.91460E+04 4.34870E+03 1.65734E+05 4.46516E-09 3.38139E-09
 -1       880 4.03625E+05 6.22901E+04 1.93224E+03 1.58773E+05 9.18794E-09 2.09991E-09
 -1       881 3.97628E+05 6.85002E+04 1.01023E+03 1.65727E+05 1.49112E-09 3.85808E-09
 -1       882 4.03666E+05 6.23438E+04 5.63086E+02 1.58788E+05 7.85303E-09 1.22112E-09
 -1       883 3.97584E+05 6.84449E+04 4.93683E+02 1.65705E+05-1.18060E-08 1.09826E-09
 -1       884 4.03658E+05 6.23464E+04 6.74510E+02 1.58790E+05-1.27014E-09 4.45146E-09
 -1       885 3.97661E+05 6.85064E+04 1.30884E+03 1.65711E+05 1.21503E-08 2.16590E-09
 -1       886 4.03589E+05 6.22877E+04 2.55837E+03 1.58779E+05-4.27008E-10 1.37538E-09
 -1       887 3.98410E+05 6.93513E+04 5.78504E+03 1.65692E+05-6.59043E-09-2.97950E-09
 -1       888 4.02955E+05 6.17519E+04 1.10884E+04 1.58719E+05-9.22932E-09 7.79437E-10
 -1       889 4.06672E+05 8.01336E+04 2.81745E+04 1.64556E+05 1.14891E-08 1.70257E-09
 -1       890 3.95958E+05 5.58155E+04 4.74097E+04 1.58301E+05 5.91081E-09-2.12458E-09
 -1       891 8.49410E+02-1.99253E+05-8.16009E+03 4.03939E+04-2.91038E-11 7.36509E-09
 -1       892-2.22370E+03-2.01844E+05-6.19105E+03 9.60785E+04 3.28828E-09 1.08503E-09
 -1       893 1.54949E+02-2.00193E+05-5.01519E+03 4.02679E+04-2.66300E-09-3.56977E-10
 -1       894-3.30469E+03-2.02543E+05-8.46899E+03 9.60503E+04-2.42562E-09-2.07524E-09
 -1       895 1.41496E+03-1.98494E+05-1.26897E+04 4.04212E+04-1.63891E-09 3.91810E-09
 -1       926-6.70097E+02-1.14699E+03 2.61064E+03 4.43566E+01 5.38158E-10-1.20122E-09
 -1       927 7.53374E+02 1.32759E+03 1.91880E+03-1.74021E+02-3.22114E-09-1.57661E-09
 -1       928-1.91417E+02-1.81067E+02 7.18392E+02 4.28535E+01 5.37028E-11-7.45473E-10
 -1       929 1.77645E+02 2.16379E+02 5.58699E+02-1.72485E+02 1.80990E-09-7.73412E-10
 -1       930-9.48021E+01-3.56913E+01 3.80775E+02 4.28197E+01 6.96314E-11-3.43741E-10
 -1       931 7.80758E+01 9.21433E+01 5.70524E+02-1.72472E+02-4.85691E-10-1.78886E-10
 -1       932-9.21685E+01-5.66282E+01 9.02268E+02 4.28401E+01-3.36442E-11-5.97709E-11
 -1       933 2.29363E+02 4.00075E+02 1.92563E+03-1.72456E+02-7.90201E-10 2.03585E-10
 -1       934-2.46289E+02-3.43437E+02 3.44758E+03 4.28031E+01-1.04757E-06-1.02773E-10
 -1       935 1.34748E+03 2.55192E+03 7.92817E+03-1.72212E+02-2.09375E-06-2.28738E-10
 -1       936-1.21016E+03-2.20801E+03 1.36328E+04 4.25970E+01-7.46736E-07 2.72848E-11
 -1       937 8.04424E+03 1.63190E+04 3.36499E+04-1.72786E+02 6.07009E-07 6.51198E-10
 -1       938-6.93909E+03-1.41071E+04 5.35360E+04 4.33769E+01 3.11611E-07-6.18456E-11
 -1       939 4.84026E+04 1.03861E+05 1.46493E+05-2.00283E+02 2.39585E-09 2.00089E-11
 -1       940-4.15033E+04-8.97182E+04 2.07062E+05 7.00921E+01-2.97829E-09 8.58563E-10
 -1       956-3.76625E+05-6.41073E+03-1.65756E+04 4.23853E+04-4.92219E-09 2.27919E-09
 -1       957-3.79952E+05-2.17264E+03-8.52674E+03 5.13348E+04-7.60338E-10 5.02951E-09
 -1       958-3.78162E+05-1.45696E+02-3.84547E+03 4.21121E+04 4.77849E-09-1.18007E-09
 -1       959-3.78455E+05 2.03247E+01-1.96231E+03 5.16321E+04-2.29466E-09-3.93266E-09
 -1       960-3.78334E+05 1.00463E+02-9.56903E+02 4.20848E+04-5.33237E-09 3.76531E-10
 -1       961-3.78384E+05 1.23695E+02-5.02893E+02 5.16635E+04-1.20417E-08 3.51611E-09
 -1       962-3.78387E+05 1.10976E+02-2.81552E+02 4.20799E+04-4.72210E-09-3.60296E-09
 -1       963-3.78403E+05 1.38916E+02-2.13404E+02 5.16701E+04-6.74231E-09-2.87082E-09
 -1       964-3.78406E+05 1.21247E+02-2.44966E+02 4.20781E+04-1.32081E-09-1.21236E-09
 -1       965-3.78423E+05 1.46393E+02-4.11457E+02 5.16705E+04 6.13872E-09-1.26647E-09
 -1       966-3.78391E+05 1.30570E+02-7.66855E+02 4.20796E+04-2.73394E-09 7.62611E-10
 -1       967-3.78511E+05 8.12081E+01-1.56888E+03 5.16529E+04 1.60321E-09-7.16045E-09
 -1       968-3.78278E+05-5.07889E+01-3.06945E+03 4.20961E+04-1.11049E-09-7.12021E-10
 -1       969-3.79734E+05-1.65799E+03-6.81182E+03 5.14636E+04-2.42380E-10-4.12683E-11
 -1       970-3.77066E+05-5.04838E+03-1.32389E+04 4.22750E+04 1.76260E-09 9.94987E-10
 -1       971-4.84377E+05 2.12289E+03-2.24555E+04 1.03672E+04-4.90490E-09 6.14818E-09
 -1       972-4.91472E+05-5.00617E+03-1.35337E+04 2.30564E+04-6.65386E-09-1.14119E-09
 -1       973-4.87495E+05 2.06084E+02-5.75262E+03 1.02121E+04-9.64701E-09 2.32376E-09
 -1       974-4.88154E+05-2.84034E+02-3.07855E+03 2.32498E+04-3.36240E-09 3.18460E-09
 -1       975-4.87788E+05 5.28619E+01-1.47796E+03 1.01713E+04-1.95541E-10-4.68481E-09
 -1       976-4.87883E+05 6.11701E+01-8.16940E+02 2.33109E+04-9.06766E-09-2.56136E-09
 -1       977-4.87830E+05 4.44820E+01-5.13781E+02 1.01505E+04 5.26757E-09-1.39335E-09
 -1       978-4.87875E+05 9.00257E+01-5.00210E+02 2.33393E+04 1.80116E-08 2.85524E-09
 -1       979-4.87830E+05 5.10233E+01-7.15317E+02 1.01428E+04 1.08674E-08 2.37361E-09
 -1       980-4.87938E+05 5.35489E+01-1.33961E+03 2.33410E+04 1.38639E-08 2.04733E-09
 -1       981-4.87770E+05 8.30876E+01-2.54103E+03 1.01488E+04 2.85127E-10 4.85841E-10
 -1       982-4.88464E+05-5.29436E+02-5.37651E+03 2.33129E+04 1.31058E-09 3.97137E-09
 -1       983-4.87277E+05 3.72957E+02-1.00675E+04 1.01715E+04 1.10776E-08 6.92580E-10
 -1       984-4.94346E+05-8.78699E+03-2.37331E+04 2.31826E+04 2.69392E-09-1.92222E-09
 -1       985-4.81832E+05 3.76234E+03-3.93625E+04 1.02853E+04 1.16188E-09-3.41970E-10
 -3
    1PSTEP                        21          11           1          
  100CL  111 8.73108E-01         568                     0   11           1
 -4  DISP        4    1
 -5  D1          1    2    1    0
 -5  D2          1    2    2    0
 -5  D3          1    2    3    0
 -5  ALL         1    2    0    0    1ALL
 -1         1 1.28531E-04 0.00000E+00 0.00000E+00
 -1         2 1.28560E-04 0.00000E+00 0.00000E+00
 -1         3 8.81959E-05 1.31486E-27 1.32349E-23
 -1         4 6.47136E-05-2.48787E-28 0.00000E+00
 -1         5 6.54836E-05 1.34910E-26 0.00000E+00
 -1         8 1.02291E-04-1.28583E-06 0.00000E+00
 -1         9 8.15176E-05-9.38202E-06 0.00000E+00
 -1        10 8.04182E-05-2.54537E-06 0.00000E+00
 -1        11 6.43154E-05-7.07581E-06 0.00000E+00
 -1        12 6.43261E-05 1.06944E-06 0.00000E+00
 -1        15 7.42466E-05-1.38529E-06 0.00000E+00
 -1        16 6.51763E-05-9.55201E-06 0.00000E+00
 -1        17 5.91147E-05-5.10965E-06 0.00000E+00
 -1        18 5.90402E-05-5.34430E-07 0.00000E+00
 -1        19 6.08685E-05 2.13110E-06 0.00000E+00
 -1        20 6.15206E-05 2.48671E-05 0.00000E+00
 -1        21 6.14611E-05 5.52699E-05 0.00000E+00
 -1        23 2.30800E-05-8.11172E-05-8.07794E-28
 -1        24 2.28512E-05-6.28429E-06 0.00000E+00
 -1        25 5.49667E-05-2.27004E-07 0.00000E+00
 -1        26 5.64681E-05 2.84525E-06 0.00000E+00
 -1        27 5.45269E-05 2.38197E-05 0.00000E+00
 -1        28 5.28813E-05 5.42335E-05 0.00000E+00
 -1        31 6.91726E-08-6.38699E-06 0.00000E+00
 -1        32 0.00000E+00 0.00000E+00 0.00000E+00
 -1        33 5.14549E-05 3.98393E-06 0.00000E+00
 -1        34 4.92286E-05 2.37302E-05 0.00000E+00
 -1        35 4.63518E-05 5.37938E-05 0.00000E+00
 -1        36 1.28517E-04 7.04741E-20 6.61744E-24
 -1        37 1.28519E-04 2.76272E-19 0.00000E+00
 -1        38 1.28520E-04 1.28619E-18 0.00000E+00
 -1        39 1.28524E-04 2.89148E-18 0.00000E+00
 -1        40 1.28528E-04 3.85710E-18 0.00000E+00
 -1        41 1.28532E-04 4.66545E-18 2.58494E-26
 -1        42 1.28536E-04 5.73603E-18 5.16988E-26
 -1        43 1.28541E-04 6.34600E-18 0.00000E+00
 -1        44 1.28545E-04 7.15358E-18-5.16988E-26
 -1        45 1.28550E-04 7.11766E-18 6.46235E-27
 -1        46 1.28554E-04 6.23977E-18 1.03398E-25
 -1        47 1.28558E-04 5.21999E-18-2.06795E-25
 -1        48 1.28562E-04 3.55542E-18 0.00000E+00
 -1        49 1.28564E-04 2.04953E-18 0.00000E+00
 -1        50 1.28567E-04 6.56269E-19 0.00000E+00
 -1        51 1.26549E-04-2.13298E-07 0.00000E+00
 -1        52 1.23266E-04-4.20652E-07 0.00000E+00
 -1        53 1.18932E-04-6.28512E-07 0.00000E+00
 -1        54 1.13815E-04-8.39422E-07 0.00000E+00
 -1        55 1.08178E-04-1.05552E-06-1.07533E-23
 -1        56 1.26446E-04-2.52238E-06 5.29396E-23
 -1        57 1.25347E-04-7.99894E-06-2.64698E-23
 -1        58 1.25051E-04-1.56326E-05-1.05879E-22
 -1        59 1.25191E-04-2.45071E-05-5.29396E-23
 -1        60 1.25354E-04-3.34466E-05 1.05879E-22
 -1        61 1.25107E-04-4.12779E-05 5.29396E-23
 -1        62 1.24099E-04-4.70472E-05 0.00000E+00
 -1        63 1.22029E-04-4.99587E-05 0.00000E+00
 -1        64 1.18802E-04-4.97838E-05 1.05879E-22
 -1        65 1.14411E-04-4.65265E-05 0.00000E+00
 -1        66 1.09080E-04-4.08005E-05 0.00000E+00
 -1        67 1.03111E-04-3.34026E-05 0.00000E+00
 -1        68 9.69335E-05-2.54606E-05 0.00000E+00
 -1        69 9.10124E-05-1.81357E-05 0.00000E+00
 -1        70 8.57248E-05-1.24823E-05 5.29396E-23
 -1        86 1.44862E-04-7.74828E-07 1.32349E-23
 -1        87 1.93140E-04-2.52760E-06-6.61744E-24
 -1        88 2.19505E-04-3.70754E-06 0.00000E+00
 -1        89 1.70914E-04-5.68769E-06 0.00000E+00
 -1        90 1.05368E-04-8.41739E-06 0.00000E+00
 -1       121 8.79773E-05-4.23299E-07-1.32349E-23
 -1       122 8.73225E-05-8.46768E-07 0.00000E+00
 -1       123 8.62340E-05-1.27059E-06 0.00000E+00
 -1       124 8.47162E-05-1.69490E-06 0.00000E+00
 -1       125 8.27750E-05-2.11990E-06 1.32349E-23
 -1       161 6.47169E-05-8.92830E-09 1.00974E-28
 -1       162 6.47269E-05-3.56810E-08-1.00974E-28
 -1       163 6.47414E-05-7.42840E-08 0.00000E+00
 -1       164 6.47581E-05-1.18762E-07-4.03897E-28
 -1       165 6.47747E-05-1.63139E-07 1.61559E-27
 -1       166 6.47891E-05-2.01440E-07 1.61559E-27
 -1       167 6.47990E-05-2.27691E-07 0.00000E+00
 -1       168 6.48021E-05-2.35913E-07-6.46235E-27
 -1       169 6.47962E-05-2.20133E-07 0.00000E+00
 -1       170 6.47791E-05-1.74359E-07 2.58494E-26
 -1       171 6.47485E-05-9.26291E-08-1.03398E-25
 -1       172 6.47025E-05 3.11215E-08 1.03398E-25
 -1       173 6.46385E-05 2.02789E-07 4.13590E-25
 -1       174 6.45556E-05 4.28855E-07-8.27181E-25
 -1       175 6.44497E-05 7.14744E-07 0.00000E+00
 -1       191 6.54514E-05 1.78291E-07 0.00000E+00
 -1       192 6.53548E-05 3.56575E-07-3.30872E-24
 -1       193 6.51939E-05 5.34850E-07 0.00000E+00
 -1       194 6.49686E-05 7.13102E-07 9.92617E-24
 -1       195 6.46792E-05 8.91316E-07 6.61744E-24
 -1       251 1.01328E-04 4.71163E-06-2.64698E-23
 -1       252 1.00332E-04 1.31422E-05 1.32349E-23
 -1       253 9.93458E-05 1.16438E-05 0.00000E+00
 -1       254 9.81057E-05-1.16991E-05 0.00000E+00
 -1       255 9.69878E-05-2.29093E-05 0.00000E+00
 -1       256 9.53818E-05 1.13851E-05 1.32349E-23
 -1       257 9.39573E-05 3.53468E-05 0.00000E+00
 -1       258 9.19870E-05-6.26170E-06-1.32349E-23
 -1       259 9.00352E-05-4.71959E-05 0.00000E+00
 -1       260 8.85567E-05-2.12508E-05 1.32349E-23
 -1       261 8.68979E-05 1.43003E-05 2.64698E-23
 -1       262 8.57526E-05 1.62107E-06 0.00000E+00
 -1       263 8.44712E-05-2.33247E-05-2.64698E-23
 -1       264 8.34809E-05-2.39522E-05 1.32349E-23
 -1       265 8.24761E-05-1.44288E-05 0.00000E+00
 -1       266 9.76173E-05-1.32064E-06 6.61744E-24
 -1       267 9.29432E-05-1.33498E-06 0.00000E+00
 -1       268 8.82691E-05-1.35065E-06-1.65436E-24
 -1       269 8.35949E-05-1.36245E-06-4.13590E-25
 -1       270 7.89208E-05-1.37418E-06 0.00000E+00
 -1       271 9.86275E-05 1.98005E-06-5.29396E-23
 -1       272 9.53170E-05 4.09403E-06 2.64698E-23
 -1       273 9.24005E-05 5.17004E-06 0.00000E+00
 -1       274 8.98234E-05 5.31251E-06 0.00000E+00
 -1       275 8.75470E-05 4.65114E-06-5.29396E-23
 -1       276 8.55163E-05 3.32897E-06-2.64698E-23
 -1       277 8.36739E-05 1.50224E-06-5.29396E-23
 -1       278 8.19576E-05-6.62597E-07-2.64698E-23
 -1       279 8.03029E-05-2.99266E-06-5.29396E-23
 -1       280 7.86444E-05-5.31149E-06-2.64698E-23
 -1       281 7.69162E-05-7.44304E-06 0.00000E+00
 -1       282 7.50552E-05-9.21490E-06 2.64698E-23
 -1       283 7.29989E-05-1.04619E-05 0.00000E+00
 -1       284 7.06966E-05-1.10270E-05 0.00000E+00
 -1       285 6.80847E-05-1.07723E-05 5.29396E-23
 -1       286 8.14322E-05-6.30348E-06 0.00000E+00
 -1       287 8.13614E-05-2.48105E-06 0.00000E+00
 -1       288 8.12905E-05 1.03398E-06-3.30872E-24
 -1       289 8.12266E-05 3.19148E-06-1.65436E-24
 -1       290 8.11648E-05 3.56106E-06 0.00000E+00
 -1       291 8.11021E-05 1.71725E-06 0.00000E+00
 -1       292 8.10355E-05-1.74977E-06 1.65436E-24
 -1       293 8.09651E-05-6.24543E-06 8.27181E-25
 -1       294 8.08948E-05-1.07017E-05-1.65436E-24
 -1       295 8.08287E-05-1.40507E-05 0.00000E+00
 -1       296 8.07663E-05-1.57340E-05 1.65436E-24
 -1       297 8.07046E-05-1.51977E-05 0.00000E+00
 -1       298 8.06406E-05-1.29064E-05 0.00000E+00
 -1       299 8.05702E-05-9.32929E-06 1.65436E-24
 -1       300 8.05000E-05-5.52309E-06 6.61744E-24
 -1       301 7.87624E-05-9.42004E-06 6.61744E-24
 -1       302 7.59966E-05-9.43798E-06-3.30872E-24
 -1       303 7.32376E-05-9.45344E-06 0.00000E+00
 -1       304 7.05029E-05-9.47056E-06-3.30872E-24
 -1       305 6.78101E-05-9.49345E-06-1.32349E-23
 -1       306 7.95628E-05-7.56025E-06-2.64698E-23
 -1       307 7.78848E-05-6.55787E-06 0.00000E+00
 -1       308 7.64682E-05-6.24845E-06-2.64698E-23
 -1       309 7.52613E-05-6.50970E-06 0.00000E+00
 -1       310 7.42189E-05-7.21084E-06 2.64698E-23
 -1       311 7.32901E-05-8.21762E-06 0.00000E+00
 -1       312 7.24241E-05-9.39253E-06 2.64698E-23
 -1       313 7.15689E-05-1.05964E-05 0.00000E+00
 -1       314 7.06722E-05-1.16897E-05 0.00000E+00
 -1       315 6.96826E-05-1.25342E-05 0.00000E+00
 -1       316 6.85490E-05-1.29940E-05 0.00000E+00
 -1       317 6.72226E-05-1.29373E-05 1.32349E-23
 -1       318 6.56553E-05-1.22378E-05 0.00000E+00
 -1       319 6.38064E-05-1.07743E-05 1.32349E-23
 -1       320 6.16265E-05-8.43690E-06-2.64698E-23
 -1       336 7.76554E-05-2.97177E-06 1.32349E-23
 -1       337 7.45243E-05-3.39938E-06 0.00000E+00
 -1       338 7.10636E-05-3.82786E-06 1.32349E-23
 -1       339 6.73139E-05-4.25637E-06 0.00000E+00
 -1       340 6.33168E-05-4.68592E-06 1.32349E-23
 -1       356 6.43153E-05-6.54494E-06-2.01948E-28
 -1       357 6.43151E-05-6.00509E-06-2.01948E-28
 -1       358 6.43150E-05-5.45881E-06 8.07794E-28
 -1       359 6.43149E-05-4.90865E-06-8.07794E-28
 -1       360 6.43147E-05-4.35714E-06 3.23117E-27
 -1       361 6.43146E-05-3.80684E-06 0.00000E+00
 -1       362 6.43144E-05-3.26029E-06 0.00000E+00
 -1       363 6.43143E-05-2.72004E-06-1.29247E-26
 -1       364 6.43142E-05-2.18863E-06 0.00000E+00
 -1       365 6.43142E-05-1.66861E-06 0.00000E+00
 -1       366 6.43142E-05-1.16254E-06 0.00000E+00
 -1       367 6.43145E-05-6.72937E-07 0.00000E+00
 -1       368 6.43148E-05-2.02373E-07-8.27181E-25
 -1       369 6.43165E-05 2.46601E-07-8.27181E-25
 -1       370 6.43177E-05 6.71401E-07-3.30872E-24
 -1       376 6.41196E-05-6.55393E-06 0.00000E+00
 -1       377 6.39271E-05-6.04094E-06-5.04871E-29
 -1       378 6.37366E-05-5.53340E-06-2.01948E-28
 -1       379 6.35469E-05-5.02788E-06-2.01948E-28
 -1       380 6.33566E-05-4.52096E-06 8.07794E-28
 -1       381 6.31646E-05-4.00920E-06 0.00000E+00
 -1       382 6.29694E-05-3.48919E-06-3.23117E-27
 -1       383 6.27699E-05-2.95749E-06 0.00000E+00
 -1       384 6.25647E-05-2.41068E-06 1.29247E-26
 -1       385 6.23526E-05-1.84532E-06-2.58494E-26
 -1       386 6.21322E-05-1.25799E-06-1.03398E-25
 -1       387 6.19024E-05-6.45201E-07 1.03398E-25
 -1       388 6.16619E-05-3.58734E-09 4.13590E-25
 -1       389 6.14100E-05 6.70590E-07 0.00000E+00
 -1       390 6.11444E-05 1.38039E-06 0.00000E+00
 -1       406 6.39100E-05 1.24751E-06 0.00000E+00
 -1       407 6.34303E-05 1.42554E-06 0.00000E+00
 -1       408 6.28863E-05 1.60343E-06 0.00000E+00
 -1       409 6.22779E-05 1.78087E-06 3.30872E-24
 -1       410 6.16051E-05 1.95745E-06 6.61744E-24
 -1       501 6.50042E-05 2.66798E-07-1.32349E-23
 -1       502 6.46270E-05 2.45503E-05-3.30872E-24
 -1       503 6.41655E-05 5.23695E-05-6.61744E-24
 -1       504 6.38821E-05 7.27906E-05-1.65436E-24
 -1       505 6.37621E-05 7.94150E-05 0.00000E+00
 -1       506 6.35769E-05 6.58994E-05 0.00000E+00
 -1       507 6.30728E-05 3.63708E-05 3.30872E-24
 -1       508 6.21657E-05-4.97971E-06 1.65436E-24
 -1       509 6.12405E-05-4.68065E-05-3.30872E-24
 -1       510 6.06961E-05-7.77622E-05 0.00000E+00
 -1       511 6.04853E-05-9.31403E-05-3.30872E-24
 -1       512 6.03763E-05-8.82958E-05-1.65436E-24
 -1       513 6.01163E-05-6.90705E-05 0.00000E+00
 -1       514 5.96628E-05-4.13642E-05 0.00000E+00
 -1       515 5.92729E-05-1.63291E-05 0.00000E+00
 -1       521 6.21755E-05-8.22286E-06 0.00000E+00
 -1       522 5.93823E-05-7.62897E-06 0.00000E+00
 -1       523 5.68212E-05-7.64740E-06-5.29396E-23
 -1       524 5.44388E-05-8.16849E-06-2.64698E-23
 -1       525 5.21966E-05-9.06641E-06 0.00000E+00
 -1       526 5.00449E-05-1.02102E-05 0.00000E+00
 -1       527 4.79339E-05-1.14637E-05-5.29396E-23
 -1       528 4.58120E-05-1.26887E-05 2.64698E-23
 -1       529 4.36277E-05-1.37475E-05 0.00000E+00
 -1       530 4.13311E-05-1.45059E-05 0.00000E+00
 -1       531 3.88740E-05-1.48357E-05 0.00000E+00
 -1       532 3.62125E-05-1.46174E-05-2.64698E-23
 -1       533 3.33050E-05-1.37428E-05 5.29396E-23
 -1       534 3.01233E-05-1.21147E-05-2.64698E-23
 -1       535 2.66260E-05-9.65670E-06 0.00000E+00
 -1       536 5.90918E-05-1.32612E-06 0.00000E+00
 -1       537 5.90828E-05 1.55166E-06-1.65436E-24
 -1       538 5.90757E-05 3.61731E-06 0.00000E+00
 -1       539 5.90714E-05 4.96518E-06 4.13590E-25
 -1       540 5.90680E-05 5.68947E-06 0.00000E+00
 -1       541 5.90652E-05 5.88443E-06-8.27181E-25
 -1       542 5.90625E-05 5.64436E-06-4.13590E-25
 -1       543 5.90597E-05 5.06352E-06 0.00000E+00
 -1       544 5.90568E-05 4.23624E-06 2.06795E-25
 -1       545 5.90538E-05 3.25679E-06 0.00000E+00
 -1       546 5.90507E-05 2.21948E-06-3.55429E-26
 -1       547 5.90478E-05 1.21864E-06 0.00000E+00
 -1       548 5.90450E-05 3.48549E-07 0.00000E+00
 -1       549 5.90427E-05-2.96502E-07 0.00000E+00
 -1       550 5.90405E-05-6.22156E-07 0.00000E+00
 -1       551 5.37246E-05-5.29699E-06-4.96308E-24
 -1       552 4.76822E-05-5.48369E-06 2.48154E-24
 -1       553 4.12783E-05-5.67255E-06-6.61744E-24
 -1       554 3.48086E-05-5.86462E-06-6.61744E-24
 -1       555 2.85689E-05-6.06085E-06 0.00000E+00
 -1       556 5.75988E-05-1.49701E-06 0.00000E+00
 -1       557 5.64063E-05 1.28104E-06 0.00000E+00
 -1       558 5.55008E-05 3.30242E-06-1.32349E-23
 -1       559 5.48494E-05 4.65234E-06 0.00000E+00
 -1       560 5.44189E-05 5.41606E-06 1.32349E-23
 -1       561 5.41766E-05 5.67952E-06-6.61744E-24
 -1       562 5.40898E-05 5.52878E-06 0.00000E+00
 -1       563 5.41260E-05 5.05007E-06 0.00000E+00
 -1       564 5.42528E-05 4.32967E-06-6.61744E-24
 -1       565 5.44378E-05 3.45393E-06 0.00000E+00
 -1       566 5.46486E-05 2.50924E-06-3.30872E-24
 -1       567 5.48530E-05 1.58203E-06 1.65436E-24
 -1       568 5.50186E-05 7.58679E-07 3.10193E-25
 -1       569 5.51135E-05 1.25481E-07 8.27181E-25
 -1       570 5.51055E-05-2.31343E-07 0.00000E+00
 -1       571 5.91504E-05-3.07800E-07-1.24077E-24
 -1       572 5.92636E-05-1.57949E-07 4.13590E-25
 -1       573 5.93777E-05-7.08068E-08 0.00000E+00
 -1       574 5.94922E-05-3.15914E-08-1.65436E-24
 -1       575 5.96069E-05-2.54584E-08-3.30872E-24
 -1       576 5.97217E-05-3.74694E-08 0.00000E+00
 -1       577 5.98364E-05-5.26786E-08-3.30872E-24
 -1       578 5.99512E-05-5.61280E-08 0.00000E+00
 -1       579 6.00660E-05-3.28581E-08 0.00000E+00
 -1       580 6.01808E-05 3.20916E-08 0.00000E+00
 -1       581 6.02956E-05 1.53680E-07 0.00000E+00
 -1       582 6.04103E-05 3.46854E-07 0.00000E+00
 -1       583 6.05250E-05 6.26546E-07 0.00000E+00
 -1       584 6.06397E-05 1.00754E-06 0.00000E+00
 -1       585 6.07542E-05 1.50454E-06 0.00000E+00
 -1       586 5.84630E-05-4.82138E-07-3.30872E-24
 -1       587 5.77936E-05-4.29596E-07 0.00000E+00
 -1       588 5.70703E-05-3.77147E-07 1.65436E-24
 -1       589 5.63322E-05-3.25170E-07 0.00000E+00
 -1       590 5.56181E-05-2.74214E-07 0.00000E+00
 -1       591 5.88642E-05-2.65331E-07 0.00000E+00
 -1       592 5.87025E-05-5.01703E-08-8.27181E-25
 -1       593 5.85560E-05 1.21939E-07 0.00000E+00
 -1       594 5.84215E-05 2.60704E-07 0.00000E+00
 -1       595 5.82955E-05 3.75864E-07-3.30872E-24
 -1       596 5.81748E-05 4.77079E-07 0.00000E+00
 -1       597 5.80556E-05 5.74001E-07 0.00000E+00
 -1       598 5.79343E-05 6.76272E-07 0.00000E+00
 -1       599 5.78075E-05 7.93532E-07-1.65436E-24
 -1       600 5.76714E-05 9.35418E-07-8.27181E-25
 -1       601 5.75225E-05 1.11157E-06 0.00000E+00
 -1       602 5.73572E-05 1.33162E-06-4.13590E-25
 -1       603 5.71720E-05 1.60523E-06-8.27181E-25
 -1       604 5.69636E-05 1.94210E-06-2.06795E-25
 -1       605 5.67288E-05 2.35191E-06-4.13590E-25
 -1       606 6.09140E-05 2.98973E-06 0.00000E+00
 -1       607 6.09564E-05 3.95721E-06 0.00000E+00
 -1       608 6.09979E-05 5.02712E-06 0.00000E+00
 -1       609 6.10388E-05 6.19211E-06 0.00000E+00
 -1       610 6.10796E-05 7.44484E-06 0.00000E+00
 -1       611 6.11202E-05 8.77780E-06 0.00000E+00
 -1       612 6.11606E-05 1.01835E-05 0.00000E+00
 -1       613 6.12010E-05 1.16544E-05 0.00000E+00
 -1       614 6.12413E-05 1.31829E-05 3.30872E-24
 -1       615 6.12815E-05 1.47617E-05-3.30872E-24
 -1       616 6.13216E-05 1.63831E-05 0.00000E+00
 -1       617 6.13616E-05 1.80396E-05 0.00000E+00
 -1       618 6.14016E-05 1.97238E-05 0.00000E+00
 -1       619 6.14415E-05 2.14281E-05-8.27181E-25
 -1       620 6.14813E-05 2.31450E-05 1.65436E-24
 -1       621 6.00754E-05 2.25084E-06 0.00000E+00
 -1       622 5.92914E-05 2.37093E-06 1.65436E-24
 -1       623 5.85277E-05 2.49097E-06-3.30872E-24
 -1       624 5.77953E-05 2.61067E-06-8.27181E-25
 -1       625 5.71052E-05 2.72975E-06 1.65436E-24
 -1       626 6.06392E-05 3.04603E-06 0.00000E+00
 -1       627 6.03662E-05 4.07543E-06 0.00000E+00
 -1       628 6.00542E-05 5.20834E-06 0.00000E+00
 -1       629 5.97077E-05 6.43273E-06 0.00000E+00
 -1       630 5.93313E-05 7.73651E-06 0.00000E+00
 -1       631 5.89296E-05 9.10745E-06 0.00000E+00
 -1       632 5.85073E-05 1.05333E-05 0.00000E+00
 -1       633 5.80688E-05 1.20019E-05 0.00000E+00
 -1       634 5.76189E-05 1.35010E-05 0.00000E+00
 -1       635 5.71621E-05 1.50183E-05-1.65436E-24
 -1       636 5.67029E-05 1.65417E-05-3.30872E-24
 -1       637 5.62461E-05 1.80588E-05-1.65436E-24
 -1       638 5.57961E-05 1.95575E-05-1.65436E-24
 -1       639 5.53572E-05 2.10254E-05-8.27181E-25
 -1       640 5.49335E-05 2.24504E-05 0.00000E+00
 -1       641 6.15193E-05 2.66034E-05-4.13590E-25
 -1       642 6.15166E-05 2.84355E-05 1.03398E-25
 -1       643 6.15137E-05 3.03480E-05-1.03398E-25
 -1       644 6.15106E-05 3.23259E-05 6.46235E-27
 -1       645 6.15073E-05 3.43530E-05 1.29247E-26
 -1       646 6.15039E-05 3.64132E-05-1.29247E-26
 -1       647 6.15004E-05 3.84903E-05-5.16988E-26
 -1       648 6.14969E-05 4.05677E-05-2.58494E-26
 -1       649 6.14935E-05 4.26289E-05-1.03398E-25
 -1       650 6.14900E-05 4.46576E-05 5.16988E-26
 -1       651 6.14867E-05 4.66377E-05 2.06795E-25
 -1       652 6.14831E-05 4.85532E-05 0.00000E+00
 -1       653 6.14797E-05 5.03888E-05 0.00000E+00
 -1       654 6.14752E-05 5.21294E-05 0.00000E+00
 -1       655 6.14713E-05 5.37610E-05 0.00000E+00
 -1       656 6.00136E-05 2.46977E-05 0.00000E+00
 -1       657 5.87715E-05 2.45202E-05 0.00000E+00
 -1       658 5.76983E-05 2.43432E-05 0.00000E+00
 -1       659 5.66975E-05 2.41663E-05 0.00000E+00
 -1       660 5.56725E-05 2.39890E-05 1.65436E-24
 -1       661 6.09993E-05 2.66411E-05 0.00000E+00
 -1       662 6.04595E-05 2.84773E-05 1.65436E-24
 -1       663 5.99012E-05 3.03628E-05 0.00000E+00
 -1       664 5.93291E-05 3.22865E-05 0.00000E+00
 -1       665 5.87470E-05 3.42370E-05-3.30872E-24
 -1       666 5.81592E-05 3.62030E-05-1.65436E-24
 -1       667 5.75698E-05 3.81733E-05-3.30872E-24
 -1       668 5.69831E-05 4.01366E-05 1.65436E-24
 -1       669 5.64032E-05 4.20817E-05 0.00000E+00
 -1       670 5.58344E-05 4.39973E-05-1.65436E-24
 -1       671 5.52809E-05 4.58721E-05 0.00000E+00
 -1       672 5.47469E-05 4.76948E-05 1.65436E-24
 -1       673 5.42365E-05 4.94541E-05 3.30872E-24
 -1       674 5.37534E-05 5.11383E-05 0.00000E+00
 -1       675 5.33027E-05 5.27361E-05 0.00000E+00
 -1       676 6.00139E-05 5.50960E-05 0.00000E+00
 -1       677 5.85697E-05 5.49218E-05 0.00000E+00
 -1       678 5.71314E-05 5.47478E-05-6.61744E-24
 -1       679 5.57019E-05 5.45746E-05 0.00000E+00
 -1       680 5.42843E-05 5.44013E-05 3.30872E-24
 -1       716 2.30695E-05-7.64402E-05-8.07794E-28
 -1       717 2.30590E-05-7.17631E-05-8.07794E-28
 -1       718 2.30485E-05-6.70860E-05-3.23117E-27
 -1       719 2.30380E-05-6.24090E-05 3.23117E-27
 -1       720 2.30275E-05-5.77319E-05 1.29247E-26
 -1       721 2.30169E-05-5.30548E-05-1.29247E-26
 -1       722 2.30064E-05-4.83777E-05-5.16988E-26
 -1       723 2.29958E-05-4.37006E-05-5.16988E-26
 -1       724 2.29851E-05-3.90235E-05 0.00000E+00
 -1       725 2.29742E-05-3.43465E-05 0.00000E+00
 -1       726 2.29631E-05-2.96694E-05 0.00000E+00
 -1       727 2.29507E-05-2.49923E-05 8.27181E-25
 -1       728 2.29381E-05-2.03153E-05 3.30872E-24
 -1       729 2.29190E-05-1.56382E-05 3.30872E-24
 -1       730 2.29021E-05-1.09612E-05 0.00000E+00
 -1       766 1.82853E-05-6.33478E-06 0.00000E+00
 -1       767 1.39417E-05-6.35025E-06-3.30872E-24
 -1       768 9.88463E-06-6.36673E-06 0.00000E+00
 -1       769 6.17816E-06-6.37543E-06-8.27181E-25
 -1       770 2.88536E-06-6.38248E-06 0.00000E+00
 -1       771 2.01844E-05-2.57050E-06 0.00000E+00
 -1       772 1.77960E-05 3.71876E-07 0.00000E+00
 -1       773 1.56721E-05 2.60981E-06 0.00000E+00
 -1       774 1.37867E-05 4.21261E-06 0.00000E+00
 -1       775 1.21139E-05 5.25021E-06-5.29396E-23
 -1       776 1.06271E-05 5.79363E-06 0.00000E+00
 -1       777 9.29906E-06 5.91438E-06-5.29396E-23
 -1       778 8.10266E-06 5.68465E-06 0.00000E+00
 -1       779 7.01056E-06 5.17700E-06 5.29396E-23
 -1       780 5.99534E-06 4.46447E-06-1.32349E-23
 -1       781 5.02955E-06 3.62028E-06 0.00000E+00
 -1       782 4.08580E-06 2.71795E-06 0.00000E+00
 -1       783 3.13669E-06 1.83102E-06 0.00000E+00
 -1       784 2.15558E-06 1.03314E-06 0.00000E+00
 -1       785 1.11564E-06 3.97827E-07 0.00000E+00
 -1       786 5.50548E-05 1.50201E-07 0.00000E+00
 -1       787 5.51484E-05 4.34488E-07 0.00000E+00
 -1       788 5.52419E-05 6.40556E-07 0.00000E+00
 -1       789 5.53362E-05 7.83096E-07 1.65436E-24
 -1       790 5.54307E-05 8.76732E-07 0.00000E+00
 -1       791 5.55253E-05 9.36050E-07 0.00000E+00
 -1       792 5.56200E-05 9.75605E-07-3.30872E-24
 -1       793 5.57147E-05 1.00993E-06-1.65436E-24
 -1       794 5.58095E-05 1.05357E-06 3.30872E-24
 -1       795 5.59042E-05 1.12105E-06-1.65436E-24
 -1       796 5.59989E-05 1.22694E-06 0.00000E+00
 -1       797 5.60935E-05 1.38584E-06 0.00000E+00
 -1       798 5.61880E-05 1.61239E-06 3.30872E-24
 -1       799 5.62822E-05 1.92128E-06 1.65436E-24
 -1       800 5.63764E-05 2.32730E-06 1.65436E-24
 -1       801 5.03661E-05-1.51709E-07 0.00000E+00
 -1       802 4.02512E-05-1.06128E-07 0.00000E+00
 -1       803 2.73884E-05-8.78498E-08 0.00000E+00
 -1       804 1.45467E-05-7.47018E-08 0.00000E+00
 -1       805 4.49482E-06-3.41759E-08 0.00000E+00
 -1       806 5.47246E-05 1.08036E-07-3.30872E-24
 -1       807 5.44971E-05 3.95082E-07 0.00000E+00
 -1       808 5.42835E-05 6.42640E-07 0.00000E+00
 -1       809 5.40812E-05 8.58917E-07-1.65436E-24
 -1       810 5.38874E-05 1.05210E-06 3.30872E-24
 -1       811 5.36992E-05 1.23035E-06 0.00000E+00
 -1       812 5.35135E-05 1.40182E-06 0.00000E+00
 -1       813 5.33272E-05 1.57466E-06 1.65436E-24
 -1       814 5.31374E-05 1.75704E-06 0.00000E+00
 -1       815 5.29410E-05 1.95709E-06-8.27181E-25
 -1       816 5.27348E-05 2.18297E-06 0.00000E+00
 -1       817 5.25160E-05 2.44283E-06-1.65436E-24
 -1       818 5.22814E-05 2.74479E-06 3.30872E-24
 -1       819 5.20281E-05 3.09695E-06 8.27181E-25
 -1       820 5.17532E-05 3.50741E-06-1.65436E-24
 -1       821 5.63541E-05 3.51994E-06 8.27181E-25
 -1       822 5.62332E-05 4.36359E-06-1.65436E-24
 -1       823 5.61124E-05 5.35867E-06 3.30872E-24
 -1       824 5.59903E-05 6.48733E-06-1.65436E-24
 -1       825 5.58680E-05 7.73163E-06 0.00000E+00
 -1       826 5.57454E-05 9.07344E-06 1.65436E-24
 -1       827 5.56226E-05 1.04945E-05 0.00000E+00
 -1       828 5.54997E-05 1.19767E-05 1.65436E-24
 -1       829 5.53767E-05 1.35014E-05 0.00000E+00
 -1       830 5.52537E-05 1.50503E-05 1.65436E-24
 -1       831 5.51308E-05 1.66050E-05-3.30872E-24
 -1       832 5.50080E-05 1.81470E-05 0.00000E+00
 -1       833 5.48855E-05 1.96578E-05 3.30872E-24
 -1       834 5.47639E-05 2.11191E-05-1.65436E-24
 -1       835 5.46423E-05 2.25125E-05 0.00000E+00
 -1       836 5.57568E-05 3.03224E-06 0.00000E+00
 -1       837 5.48969E-05 3.22551E-06 1.65436E-24
 -1       838 5.39627E-05 3.41845E-06-3.30872E-24
 -1       839 5.30281E-05 3.61071E-06 0.00000E+00
 -1       840 5.21675E-05 3.80306E-06-1.65436E-24
 -1       841 5.62341E-05 3.57211E-06 0.00000E+00
 -1       842 5.59003E-05 4.56365E-06 4.13590E-25
 -1       843 5.54958E-05 5.74314E-06 0.00000E+00
 -1       844 5.50494E-05 7.03403E-06-4.13590E-25
 -1       845 5.45734E-05 8.40350E-06-8.27181E-25
 -1       846 5.40801E-05 9.81881E-06 0.00000E+00
 -1       847 5.35752E-05 1.12651E-05 8.27181E-25
 -1       848 5.30641E-05 1.27276E-05 4.13590E-25
 -1       849 5.25502E-05 1.41976E-05-8.27181E-25
 -1       850 5.20367E-05 1.56666E-05 4.13590E-25
 -1       851 5.15269E-05 1.71256E-05 0.00000E+00
 -1       852 5.10240E-05 1.85658E-05 0.00000E+00
 -1       853 5.05343E-05 1.99709E-05-8.27181E-25
 -1       854 5.00630E-05 2.13243E-05-1.03398E-25
 -1       855 4.96250E-05 2.25902E-05 0.00000E+00
 -1       856 5.44306E-05 2.51911E-05 0.00000E+00
 -1       857 5.43287E-05 2.67564E-05 0.00000E+00
 -1       858 5.42264E-05 2.84895E-05-3.30872E-24
 -1       859 5.41231E-05 3.03641E-05-1.65436E-24
 -1       860 5.40194E-05 3.23536E-05 0.00000E+00
 -1       861 5.39155E-05 3.44317E-05-1.65436E-24
 -1       862 5.38114E-05 3.65717E-05 0.00000E+00
 -1       863 5.37072E-05 3.87471E-05 1.65436E-24
 -1       864 5.36029E-05 4.09313E-05 3.30872E-24
 -1       865 5.34987E-05 4.30976E-05 1.65436E-24
 -1       866 5.33947E-05 4.52194E-05 3.30872E-24
 -1       867 5.32908E-05 4.72702E-05 1.65436E-24
 -1       868 5.31871E-05 4.92235E-05 0.00000E+00
 -1       869 5.30841E-05 5.10527E-05 0.00000E+00
 -1       870 5.29813E-05 5.27314E-05-3.30872E-24
 -1       871 5.34807E-05 2.38075E-05 0.00000E+00
 -1       872 5.25674E-05 2.37936E-05 0.00000E+00
 -1       873 5.17366E-05 2.37794E-05 0.00000E+00
 -1       874 5.09373E-05 2.37647E-05 0.00000E+00
 -1       875 5.01182E-05 2.37492E-05-1.65436E-24
 -1       876 5.41854E-05 2.52251E-05-3.30872E-24
 -1       877 5.37940E-05 2.67823E-05-1.65436E-24
 -1       878 5.33534E-05 2.84704E-05-6.61744E-24
 -1       879 5.28714E-05 3.02706E-05 0.00000E+00
 -1       880 5.23545E-05 3.21639E-05 6.61744E-24
 -1       881 5.18098E-05 3.41315E-05 0.00000E+00
 -1       882 5.12440E-05 3.61548E-05-6.61744E-24
 -1       883 5.06644E-05 3.82150E-05-3.30872E-24
 -1       884 5.00778E-05 4.02937E-05-6.61744E-24
 -1       885 4.94913E-05 4.23723E-05-3.30872E-24
 -1       886 4.89117E-05 4.44321E-05-6.61744E-24
 -1       887 4.83460E-05 4.64546E-05 3.30872E-24
 -1       888 4.78012E-05 4.84211E-05-3.30872E-24
 -1       889 4.72834E-05 5.03126E-05 0.00000E+00
 -1       890 4.68008E-05 5.21108E-05 1.65436E-24
 -1       891 5.16709E-05 5.41607E-05-1.65436E-24
 -1       892 5.06599E-05 5.40869E-05 0.00000E+00
 -1       893 4.97354E-05 5.40132E-05 1.65436E-24
 -1       894 4.87845E-05 5.39396E-05-8.27181E-25
 -1       895 4.76942E-05 5.38658E-05-8.27181E-25
 -1       926 6.60138E-08-4.05435E-06 2.06795E-25
 -1       927 6.42770E-08-2.21150E-06 0.00000E+00
 -1       928 6.31997E-08-8.08788E-07 0.00000E+00
 -1       929 6.26553E-08 2.03446E-07 0.00000E+00
 -1       930 6.23870E-08 8.74935E-07 0.00000E+00
 -1       931 6.22680E-08 1.25541E-06 0.00000E+00
 -1       932 6.21960E-08 1.39464E-06 0.00000E+00
 -1       933 6.20737E-08 1.34243E-06 0.00000E+00
 -1       934 6.18776E-08 1.14857E-06-2.06795E-25
 -1       935 6.13814E-08 8.62865E-07 0.00000E+00
 -1       936 6.07099E-08 5.35133E-07-8.27181E-25
 -1       937 5.87132E-08 2.15183E-07 8.27181E-25
 -1       938 5.65451E-08-4.73384E-08 0.00000E+00
 -1       939 4.77783E-08-2.02768E-07 0.00000E+00
 -1       940 4.12485E-08-2.03041E-07 1.32349E-23
 -1       956 5.13192E-05 4.68742E-06-1.65436E-24
 -1       957 5.11808E-05 5.54166E-06 0.00000E+00
 -1       958 5.10418E-05 6.53036E-06 1.65436E-24
 -1       959 5.09024E-05 7.63627E-06 1.65436E-24
 -1       960 5.07628E-05 8.84213E-06 3.30872E-24
 -1       961 5.06230E-05 1.01306E-05 0.00000E+00
 -1       962 5.04832E-05 1.14842E-05 0.00000E+00
 -1       963 5.03433E-05 1.28856E-05 1.65436E-24
 -1       964 5.02033E-05 1.43174E-05 0.00000E+00
 -1       965 5.00633E-05 1.57622E-05 0.00000E+00
 -1       966 4.99234E-05 1.72026E-05 0.00000E+00
 -1       967 4.97835E-05 1.86211E-05 0.00000E+00
 -1       968 4.96438E-05 2.00004E-05-6.61744E-24
 -1       969 4.95043E-05 2.13231E-05-3.30872E-24
 -1       970 4.93654E-05 2.25720E-05-6.61744E-24
 -1       971 4.90533E-05 2.49242E-05 0.00000E+00
 -1       972 4.88739E-05 2.63305E-05-1.65436E-24
 -1       973 4.86942E-05 2.79237E-05-3.30872E-24
 -1       974 4.85138E-05 2.96781E-05 0.00000E+00
 -1       975 4.83330E-05 3.15676E-05 0.00000E+00
 -1       976 4.81519E-05 3.35663E-05 3.30872E-24
 -1       977 4.79706E-05 3.56481E-05-6.61744E-24
 -1       978 4.77892E-05 3.77867E-05 0.00000E+00
 -1       979 4.76078E-05 3.99559E-05 0.00000E+00
 -1       980 4.74263E-05 4.21294E-05 0.00000E+00
 -1       981 4.72450E-05 4.42810E-05 6.61744E-24
 -1       982 4.70639E-05 4.63845E-05 3.30872E-24
 -1       983 4.68832E-05 4.84136E-05 6.61744E-24
 -1       984 4.67035E-05 5.03422E-05 0.00000E+00
 -1       985 4.65242E-05 5.21441E-05 3.30872E-24
 -3
    1PSTEP                        22          11           1          
  100CL  111 8.73108E-01         568                     0   11           1
 -4  STRESS      6    1
 -5  SXX         1    4    1    1
 -5  SYY         1    4    2    2
 -5  SZZ         1    4    3    3
 -5  SXY         1    4    1    2
 -5  SYZ         1    4    2    3
 -5  SZX         1    4    3    1
 -1         1-2.37283E+06-9.51388E+05-4.63736E+05-1.24392E+06-1.74623E-10 1.48236E-08
 -1         2-3.17268E+02-3.31842E+05 7.16499E+04 1.92536E+05 2.08129E-08 1.92271E-09
 -1         3-7.91731E+01-1.20953E+06-1.58946E+02-5.44433E+02 1.08851E-09 1.21145E-09
 -1         4 1.18275E+01-1.26964E+01-1.30635E+00-1.46178E+01 1.61794E-08-3.97200E-09
 -1         5-2.84992E+01 5.10321E+05 2.73507E+01-3.96747E+00 4.39385E-10 6.16637E-09
 -1         8-1.99412E+06-6.96606E+05-2.49036E+05-8.07281E+05 1.17871E-09-6.47560E-10
 -1         9-2.09772E+06-5.73308E+05-2.58531E+05-5.53760E+05-3.57613E-09 7.94292E-09
 -1        10-5.02391E+04-7.19838E+05 8.25239E+04-6.63357E+03-4.61083E-09-7.65245E-09
 -1        11 2.94728E+00-5.40793E+00-1.92666E+00 8.57293E-01 2.90266E-09 3.32046E-09
 -1        12-1.18572E+04 1.93283E+05-6.47676E+04 9.28789E+03 1.18235E-08-4.67755E-09
 -1        15 3.16579E+03 1.71199E+03 9.82517E+03 6.52368E+00-1.36822E-10-3.96639E-08
 -1        16-2.72931E+06-7.20197E+05-2.15609E+05-9.31888E+05 1.69007E-09-4.36557E-10
 -1        17-5.23783E+05-4.09620E+05-3.60939E+04-3.73100E+05-7.34144E-09-2.33316E-09
 -1        18 3.65431E+04 1.26364E+04-1.54188E+04-1.09317E+05 4.36557E-10 1.33514E-09
 -1        19 1.14709E+05 1.34463E+05-1.35649E+04 1.35722E+04 3.62100E-09-4.44985E-09
 -1        20 7.50578E+04-1.06609E+05-2.40050E+04 5.31099E+04 4.70709E-09-3.94493E-09
 -1        21 2.49389E+03-1.88587E+05 5.62248E+04-6.05585E+02 2.64598E-08-3.38882E-09
 -1        23 7.68810E-01 3.66440E-01 1.40783E+01 1.80657E-03 1.29311E-08 3.71032E-09
 -1        24-1.47319E+06-4.40237E+05 9.87639E+04-7.84890E+05-6.13072E-09-1.00699E-09
 -1        25 5.61650E+03 4.92943E+04 2.68966E+04-4.62452E+05 1.29676E-09 4.34738E-09
 -1        26-1.23579E+03 1.23488E+05 2.58154E+03-2.18214E+04-1.14419E-09 1.83509E-10
 -1        27-3.01212E+04-7.96295E+04-3.55349E+04 8.80114E+04 5.17351E-09-3.60887E-09
 -1        28-1.44821E+04-1.48460E+05-7.45770E+03 5.42677E+04 1.58502E-08-1.87191E-09
 -1        31 4.96881E+03 5.71425E+03 8.38060E+03-2.05079E+02 4.99860E-09-2.26362E-09
 -1        32-6.41514E+05 1.25927E+05 3.81950E+05-9.44852E+05-4.87249E-09 4.94765E-10
 -1        33-1.47175E+05 1.52530E+05 4.65298E+04-4.59404E+04 5.17654E-11 4.27281E-09
 -1        34-1.89095E+05-9.79879E+03 1.25193E+04 6.34275E+04 2.14597E-09-5.44765E-09
 -1        35-3.69417E+04-4.22879E+04-1.42446E+03 8.56660E+04 1.86140E-09-2.45200E-09
 -1        36-5.50101E+03-4.03204E+04 9.30072E+04 4.90147E-07-3.22455E-10-7.96354E-09
 -1        37 3.48962E+04 4.66724E+04 6.58329E+04 1.43644E-06-8.74255E-10-3.21234E-09
 -1        38 1.00399E+04-6.33998E+03 2.40711E+04-6.10627E-07-1.92480E-10-1.89357E-09
 -1        39 1.67714E+04 7.33625E+03 1.51542E+04-1.68825E-06-1.11829E-10-1.06429E-08
 -1        40 1.26113E+04-9.94786E+02 6.18970E+03-1.15506E-06 4.07150E-11-1.00176E-08
 -1        41 1.37735E+04 1.16510E+03 3.69861E+03 9.72731E-07-1.22790E-10 6.31650E-09
 -1        42 1.30371E+04-1.70144E+02 1.80422E+03-4.22881E-07 4.73477E-11-1.46582E-09
 -1        43 1.33228E+04 2.97279E+02 1.42480E+03 2.49525E-06-8.12188E-11-1.11147E-08
 -1        44 1.30621E+04-1.27107E+02 1.42268E+03 5.62374E-07 1.76858E-11 5.98263E-09
 -1        45 1.35757E+04 7.96053E+02 2.59326E+03-6.51213E-07-1.83345E-10-1.04492E-09
 -1        46 1.27841E+04-6.68836E+02 4.20245E+03-3.69966E-07 1.40676E-10 8.50150E-09
 -1        47 1.55764E+04 4.92011E+03 1.01864E+04-1.51052E-06 1.13207E-10 1.01509E-08
 -1        48 1.10617E+04-4.25035E+03 1.61488E+04-8.57648E-07 5.63141E-11 6.47924E-09
 -1        49 2.77245E+04 3.12875E+04 4.41372E+04 6.08029E-08 2.99997E-10-6.14546E-09
 -1        50 6.41440E+02-2.70296E+04 6.23421E+04-1.95279E-07 1.93574E-09-4.04907E-09
 -1        51 3.09063E+04-5.36072E+05 5.16003E+04-1.44042E+06 1.45519E-10 1.63709E-08
 -1        52 1.84158E+04-5.37164E+05 3.43859E+04-1.58864E+06 6.54836E-11 2.95695E-08
 -1        53 1.60602E+04-5.54307E+05 3.13821E+04-1.43652E+06-1.01136E-09 2.97732E-08
 -1        54 3.73099E+04-5.52476E+05 5.27658E+04-1.59263E+06 1.45519E-11 2.31958E-08
 -1        55 7.82237E+04-5.71016E+05 9.83630E+04-1.43561E+06-4.22006E-10 1.33587E-08
 -1        56-6.80510E+06-7.23194E+05-5.79616E+05-2.60671E+06-3.85626E-10-4.56930E-09
 -1        57-6.98062E+06-1.32104E+06-3.93070E+05-2.64316E+06-1.58798E-09 5.32600E-09
 -1        58-6.94835E+06-8.84813E+05-1.35866E+05-2.53461E+06 4.78394E-10-1.76078E-09
 -1        59-6.81952E+06-1.12684E+06-8.19578E+04-2.72348E+06-2.93585E-09 3.02862E-10
 -1        60-6.96624E+06-9.11993E+05-3.17181E+04-2.52874E+06-7.99446E-10 1.18862E-08
 -1        61-6.82445E+06-1.06534E+06-1.75080E+04-2.69339E+06-2.71984E-09 1.05429E-08
 -1        62-6.94143E+06-9.46839E+05-9.74440E+03-2.56361E+06-3.91447E-09-2.71734E-09
 -1        63-6.89193E+06-9.86363E+05-5.92600E+03-2.60510E+06 1.80580E-09-8.04721E-09
 -1        64-6.89674E+06-9.92271E+05-9.65967E+03-2.61557E+06-3.07136E-09-5.06952E-09
 -1        65-6.97945E+06-9.08208E+05-1.64230E+04-2.51288E+06 3.18187E-09-4.97312E-09
 -1        66-6.85524E+06-1.02416E+06-3.03788E+04-2.65675E+06 9.09063E-09-1.00190E-08
 -1        67-7.04877E+06-8.94227E+05-7.78008E+04-2.45980E+06 2.60638E-09-1.38998E-08
 -1        68-6.82995E+06-1.00531E+06-1.28871E+05-2.67020E+06 5.09317E-10 2.51748E-09
 -1        69-7.15618E+06-1.12589E+06-3.73461E+05-2.43876E+06-3.97995E-09-8.42920E-09
 -1        70-6.74856E+06-7.97118E+05-5.50278E+05-2.67606E+06-2.02272E-09 2.67755E-09
 -1        86 5.43752E+04-2.19219E+06-1.83712E+05-1.72724E+05-4.63806E-08 1.06279E-08
 -1        87 1.10202E+05 1.44089E+06 5.88004E+05 1.57516E+05-2.97841E-08 1.92153E-08
 -1        88-1.65430E+05-4.47271E+06-5.85143E+05 5.46709E+04 3.45126E-08 1.53450E-08
 -1        89 1.81508E+05 1.80462E+06 7.00144E+05-2.22978E+05 9.24410E-09 9.03890E-09
 -1        90-1.45674E+04-2.55561E+06-1.99589E+05 2.07401E+05 4.03734E-08 1.39448E-09
 -1       121-7.99719E+01-1.20990E+06-2.49396E+02 2.72125E+02-1.77187E-09 5.95719E-10
 -1       122-1.41983E+02-1.20958E+06-3.71042E+02-1.08397E+03-1.49328E-09-1.30731E-08
 -1       123-2.09236E+01-1.20986E+06-7.02899E+02 8.11271E+02-4.24015E-09 3.54703E-11
 -1       124-8.53802E+02-1.21003E+06-1.60481E+03-2.22712E+03-2.85536E-09 1.54769E-08
 -1       125 5.26771E+02-1.20948E+06-2.55191E+03 1.41447E+03-7.00470E-09 7.78527E-10
 -1       161-4.33706E+00 2.97289E+00-1.78991E+00 3.10521E+00 6.44662E-06-2.41467E-06
 -1       162 1.14684E+01-1.29529E+01-3.24326E+00-1.46617E+01 1.28938E-05-4.83229E-06
 -1       163-3.97792E+00 3.23075E+00-6.33345E+00 3.14835E+00 6.23431E-06-2.33403E-06
 -1       164 9.98434E+00-1.46390E+01-1.41311E+01-1.45729E+01-4.24695E-07 1.60042E-07
 -1       165-2.85312E+00 4.65966E+00-2.75217E+01 3.01589E+00-7.75057E-06 2.90082E-06
 -1       166 2.41226E+00-2.53029E+01-6.36637E+01-1.32221E+01-1.50703E-05 5.65911E-06
 -1       167 3.59508E+00 1.38936E+01-1.20689E+02 1.79847E+00-2.24886E-05 8.42820E-06
 -1       168-4.21553E+01-9.37251E+01-2.89470E+02-2.80629E+00-2.99020E-05 1.12135E-05
 -1       169 4.17162E+01 7.30736E+01-5.27751E+02-7.39548E+00-3.70877E-05 1.39080E-05
 -1       170-3.10321E+02-5.30819E+02-1.33016E+03 7.09675E+01-4.42697E-05 1.66123E-05
 -1       171 2.71767E+02 4.50935E+02-2.29580E+03-7.19504E+01-5.03227E-05 1.88727E-05
 -1       172-1.94353E+03-3.31221E+03-6.19699E+03 5.72678E+02-5.63637E-05 2.11556E-05
 -1       173 1.67502E+03 2.85412E+03-9.91108E+03-5.08909E+02-5.70313E-05 2.13905E-05
 -1       174-1.19901E+04-2.09677E+04-2.93869E+04 3.89900E+03-5.76600E-05 2.16335E-05
 -1       175 1.03206E+04 1.81046E+04-4.22922E+04-3.39649E+03-2.88557E-05 1.07980E-05
 -1       191-2.94255E+01 5.10358E+05 3.20939E+01 1.97675E+00-2.15493E-10 3.64889E-09
 -1       192-1.95705E+01 5.10325E+05 6.07080E+01-2.19067E+01-1.95314E-10-3.82261E-09
 -1       193-1.18740E+00 5.10354E+05 1.14249E+02 1.99013E+01-8.32642E-10-5.00222E-10
 -1       194 9.52139E+01 5.10361E+05 2.57457E+02-1.87167E+02-8.26049E-10 3.22188E-09
 -1       195 3.27255E+02 5.10317E+05 5.22588E+02 1.67460E+02-1.38789E-09 4.76030E-09
 -1       251-2.73631E+06 6.08806E+04-1.14533E+05-5.37738E+04-4.57464E-09 3.95084E-09
 -1       252-2.57634E+06-9.22160E+04-4.91068E+04-1.32957E+04-5.38141E-09 1.00044E-09
 -1       253-2.97202E+06 3.03344E+04-6.96426E+04 7.94958E+04 1.18803E-09-6.55200E-09
 -1       254-1.57206E+06-3.77078E+04 2.05641E+05 2.98097E+04-5.12105E-09-1.13178E-08
 -1       255-3.73555E+06 4.77289E+03-1.98049E+05-9.68892E+04-9.33414E-09-2.29056E-09
 -1       256 2.78647E+05 4.64814E+04 5.95781E+05 3.71738E+04-1.63431E-08 2.94604E-08
 -1       257-4.81483E+06-5.38480E+04-4.10152E+05 7.22918E+04-7.60656E-09-2.35354E-09
 -1       258 1.44620E+06 1.12590E+05 8.39677E+05-1.21195E+05 9.64405E-09-5.29926E-08
 -1       259-4.89923E+06-5.88995E+04-4.27297E+05 6.09977E+04-4.83078E-09-1.48589E-08
 -1       260 4.86825E+05 5.72379E+04 6.38463E+05 4.92426E+04-2.45627E-08 3.84880E-08
 -1       261-3.85857E+06-6.49105E+02-2.23093E+05-9.76390E+04-1.59973E-08 1.30917E-08
 -1       262-1.39455E+06-3.27528E+04 2.40419E+05 2.71708E+04-1.69081E-08-3.02198E-08
 -1       263-3.02566E+06 3.06198E+04-8.16841E+04 8.28752E+04-1.59702E-08-1.40353E-08
 -1       264-2.51743E+06-9.64047E+04-4.18611E+04-1.62368E+04-1.34085E-08 1.62217E-08
 -1       265-2.74127E+06 6.46586E+04-1.21459E+05-5.42138E+04-1.54345E-08 1.14451E-08
 -1       266-5.56551E+04-2.57280E+04 1.28491E+05-1.34292E+02-1.74623E-10-6.12083E-08
 -1       267 6.44563E+04 3.00569E+04 9.11258E+04 1.54361E+02-4.30191E-10-1.16763E-07
 -1       268-8.78288E+03-4.30260E+03 3.37297E+04-2.01044E+01-3.31056E-10-8.02057E-08
 -1       269 1.03677E+04 5.16004E+03 2.20430E+04 2.33684E+01-3.57659E-10-6.09211E-08
 -1       270-1.58266E+03-8.55958E+02 1.05834E+04-3.26096E+00-3.19460E-10-4.04100E-08
 -1       271-5.43279E+06-6.97164E+05-4.23336E+05-2.11025E+06-2.34286E-09-7.27596E-09
 -1       272-5.57787E+06-9.64483E+05-2.65435E+05-2.11264E+06-6.20162E-10-1.07393E-08
 -1       273-5.50905E+06-7.85207E+05-9.97774E+04-2.09612E+06 1.18052E-09-4.49654E-09
 -1       274-5.48768E+06-8.49520E+05-5.43199E+04-2.13924E+06-1.20599E-09 1.03046E-09
 -1       275-5.52044E+06-7.91367E+05-2.31586E+04-2.09175E+06 4.32919E-10 4.40195E-10
 -1       276-5.47370E+06-8.42217E+05-1.20991E+04-2.14716E+06-2.10093E-09-6.55973E-09
 -1       277-5.52353E+06-7.90172E+05-6.15648E+03-2.08945E+06 1.39335E-09-1.57570E-09
 -1       278-5.47036E+06-8.43670E+05-4.63614E+03-2.15061E+06 1.44405E-09-8.15746E-09
 -1       279-5.52426E+06-7.89461E+05-5.36249E+03-2.08871E+06-4.47926E-11-1.09048E-09
 -1       280-5.47122E+06-8.44486E+05-1.00017E+04-2.15044E+06-5.84237E-10 1.86265E-09
 -1       281-5.52269E+06-7.89460E+05-1.87787E+04-2.08958E+06-3.36058E-10 1.68075E-09
 -1       282-5.48126E+06-8.51776E+05-4.40368E+04-2.14573E+06-1.78261E-10 3.52975E-09
 -1       283-5.51400E+06-7.83954E+05-8.07419E+04-2.09255E+06-3.43107E-10 3.67436E-09
 -1       284-5.55354E+06-9.45532E+05-2.14921E+05-2.12486E+06-4.76348E-10 1.60071E-09
 -1       285-5.45238E+06-7.12632E+05-3.42818E+05-2.10386E+06 4.22006E-10 5.38421E-09
 -1       286-1.94949E+05-4.64682E+04 1.07138E+05-1.48012E+03 3.10877E-09-9.24047E-10
 -1       287-1.47020E+05 5.37857E+04 7.60792E+04 2.91138E+03 1.60422E-09-2.75031E-09
 -1       288-1.77656E+05-7.29637E+03 2.75744E+04-1.24247E+03-1.75149E-10 5.21504E-09
 -1       289-1.65766E+05 8.57086E+03 1.81269E+04 1.21587E+03-2.62702E-10-9.76797E-10
 -1       290-1.76212E+05-1.28119E+03 6.67038E+03 2.15395E+02 8.73897E-10 6.36692E-09
 -1       291-1.69621E+05 1.41381E+03 4.86637E+03-1.57788E+03-4.60055E-10 9.03356E-09
 -1       292-1.73807E+05-1.38058E+02 2.06791E+03 1.55127E+03-5.86171E-06-2.68289E-08
 -1       293-1.71970E+05 2.66538E+02 1.96936E+03-2.88144E+03-1.15629E-05-5.57879E-08
 -1       294-1.73877E+05-1.21509E+02 1.82818E+03 1.51903E+03-5.86801E-06-3.11796E-08
 -1       295-1.69638E+05 1.20785E+03 4.24313E+03-1.47741E+03-6.91102E-10 5.48584E-09
 -1       296-1.76125E+05-1.09249E+03 5.50904E+03 1.47157E+02-9.24373E-10-1.83286E-09
 -1       297-1.66544E+05 7.15460E+03 1.52130E+04 1.32851E+03-2.32904E-09 6.52676E-09
 -1       298-1.76966E+05-6.06853E+03 2.29747E+04-1.28687E+03-1.46347E-09-5.37511E-10
 -1       299-1.51230E+05 4.48143E+04 6.34233E+04 2.94350E+03-1.33155E-09 8.52287E-09
 -1       300-1.91436E+05-3.87275E+04 8.92397E+04-1.46786E+03 2.28587E-09 1.58252E-09
 -1       301 5.42631E+04-2.88767E+04 1.50499E+05-4.49799E+04 1.63709E-09-9.12536E-10
 -1       302 1.99232E+04 1.72252E+03 9.87561E+04-5.52002E+04 4.60250E-09 2.30921E-09
 -1       303 4.47501E+03-1.81810E+04 8.72155E+04-4.51004E+04 1.78443E-09-1.06184E-09
 -1       304 3.31065E+04 1.15035E+04 1.39704E+05-5.50984E+04 4.51109E-09-2.90311E-09
 -1       305 9.38037E+04-3.85437E+04 2.48044E+05-4.49711E+04 3.82715E-09-2.33285E-09
 -1       306-2.82071E+06-3.78481E+05-1.64178E+05-1.09591E+06 1.30240E-09-3.85626E-10
 -1       307-2.85117E+06-5.07189E+05-1.02810E+05-1.12606E+06-1.60230E-09 4.54384E-09
 -1       308-2.85018E+06-4.12480E+05-3.87234E+04-1.09067E+06-1.78261E-10 1.16961E-09
 -1       309-2.81702E+06-4.62254E+05-2.11031E+04-1.13597E+06-1.40062E-09 5.32691E-09
 -1       310-2.85429E+06-4.15158E+05-9.03157E+03-1.08939E+06 2.30739E-09 5.16820E-09
 -1       311-2.81244E+06-4.58654E+05-4.82089E+03-1.13816E+06 6.97878E-09 7.61247E-10
 -1       312-2.85504E+06-4.15153E+05-2.62164E+03-1.08900E+06 1.40972E-11-3.65924E-09
 -1       313-2.81198E+06-4.58341E+05-2.32381E+03-1.13834E+06-1.36606E-09 3.10354E-09
 -1       314-2.85477E+06-4.15405E+05-3.15603E+03-1.08925E+06-1.46383E-09-1.78079E-09
 -1       315-2.81331E+06-4.57970E+05-6.24427E+03-1.13697E+06-1.06411E-09-2.31921E-11
 -1       316-2.85339E+06-4.15785E+05-1.19823E+04-1.09013E+06 7.10315E-10-5.29326E-10
 -1       317-2.81982E+06-4.62329E+05-2.80617E+04-1.13348E+06-4.88853E-10-4.43742E-09
 -1       318-2.84779E+06-4.12344E+05-5.15827E+04-1.09196E+06-4.46471E-09 2.79033E-09
 -1       319-2.86539E+06-5.22132E+05-1.36901E+05-1.12031E+06-9.23887E-09-3.48155E-09
 -1       320-2.80865E+06-3.66907E+05-2.18592E+05-1.09881E+06-5.15320E-09-5.52973E-10
 -1       336 6.68136E+02-1.20939E+06-4.56450E+03-1.95216E+03-9.16725E-09 3.54794E-09
 -1       337-2.05844E+03-1.21119E+06-7.25401E+03-2.02043E+04-6.33031E-09 3.31011E-09
 -1       338 1.11776E+03-1.20904E+06-1.11951E+04-1.46230E+03-1.11586E-08-5.06043E-09
 -1       339-1.33598E+04-1.21792E+06-2.68842E+04-2.10547E+04-7.54153E-09-7.13703E-09
 -1       340 1.01353E+04-1.20282E+06-4.14073E+04-1.10935E+03-1.21090E-08 6.69706E-09
 -1       356-9.19798E-01 3.40184E-01-2.90178E+00-2.30213E+00-8.35801E-07-2.79408E-10
 -1       357-1.57340E+00-6.33117E-01-6.11214E+00 9.26360E+00-1.67135E-06 1.67049E-09
 -1       358-7.51445E-01 2.97720E-01-1.15873E+01-2.30170E+00-9.90561E-07 2.79101E-09
 -1       359-2.97193E+00-2.01529E+00-2.43158E+01 9.26334E+00-3.07507E-07-2.51802E-10
 -1       360 4.78231E-01 1.72255E+00-4.64553E+01-2.30186E+00 3.00769E-07-5.54043E-09
 -1       361-1.07462E+01-1.31016E+01-9.93500E+01 9.26469E+00 9.08970E-07 2.09603E-09
 -1       362 7.02299E+00 1.13835E+01-1.85981E+02-2.30305E+00 1.20926E-06 2.85256E-09
 -1       363-5.35971E+01-8.54693E+01-4.09644E+02 9.27838E+00 1.50821E-06-5.20669E-09
 -1       364 4.33311E+01 7.40820E+01-7.41834E+02-2.31555E+00 1.48114E-06 4.21076E-09
 -1       365-2.98761E+02-5.50771E+02-1.70967E+03 9.37419E+00 1.45707E-06-3.28589E-09
 -1       366 2.52204E+02 4.76622E+02-2.94146E+03-2.39882E+00 1.12351E-06 6.41319E-09
 -1       367-1.74358E+03-3.52200E+03-7.26155E+03 9.96022E+00 7.92428E-07-8.09632E-09
 -1       368 1.48837E+03 3.04484E+03-1.15513E+04-2.90127E+00 2.68616E-07 3.89355E-09
 -1       369-1.04488E+04-2.24152E+04-3.16116E+04 1.32973E+01-2.61313E-07-5.14729E-09
 -1       370 8.96062E+03 1.93669E+04-4.46401E+04-5.73354E+00-1.24354E-07 1.76678E-08
 -1       376-1.30015E+00 2.09313E+00-1.26655E+00 2.13081E+00 2.56221E-06-9.60620E-07
 -1       377 7.37283E+00-7.58867E+00-2.24143E+00-7.99600E+00 5.11763E-06-1.92254E-06
 -1       378-1.22606E+00 2.04621E+00-4.00779E+00 2.18316E+00 1.26427E-06-4.73738E-07
 -1       379 6.56356E+00-8.41384E+00-8.91276E+00-7.98865E+00-2.59493E-06 9.75491E-07
 -1       380-4.90712E-01 2.91854E+00-1.72510E+01 2.12337E+00-7.17066E-06 2.68977E-06
 -1       381 1.81859E+00-1.50760E+01-3.99421E+01-7.14962E+00-1.17421E-05 4.40735E-06
 -1       382 3.51923E+00 8.70772E+00-7.56569E+01 1.34450E+00-1.60616E-05 6.02931E-06
 -1       383-2.58777E+01-5.79244E+01-1.81444E+02-5.21289E-01-2.03808E-05 7.66195E-06
 -1       384 2.72060E+01 4.57622E+01-3.30898E+02-4.50254E+00-2.41585E-05 9.06860E-06
 -1       385-1.94190E+02-3.31932E+02-8.33913E+02 4.57176E+01-2.79354E-05 1.04948E-05
 -1       386 1.71833E+02 2.82683E+02-1.43925E+03-4.48793E+01-3.06792E-05 1.15164E-05
 -1       387-1.21883E+03-2.07549E+03-3.88516E+03 3.60338E+02-3.34107E-05 1.25523E-05
 -1       388 1.05188E+03 1.78909E+03-6.21352E+03-3.19010E+02-3.29017E-05 1.23504E-05
 -1       389-7.51894E+03-1.31429E+04-1.84236E+04 2.44713E+03-3.23715E-05 1.21614E-05
 -1       390 6.47280E+03 1.13487E+04-2.65158E+04-2.13072E+03-1.61970E-05 6.07698E-06
 -1       406 3.83099E+02 5.10293E+05 1.32785E+03-1.76482E+02-2.02999E-09 5.81622E-09
 -1       407 4.62559E+02 5.10576E+05 2.38850E+03 1.85868E+02-1.09731E-09 6.32826E-09
 -1       408 1.13334E+03 5.10163E+05 4.56795E+03-8.51186E+00-2.75122E-09-4.98403E-10
 -1       409 4.78838E+03 5.11998E+05 1.01943E+04-1.47091E+02-1.99657E-09-1.88084E-09
 -1       410 1.38536E+04 5.08866E+05 2.07540E+04 1.73122E+02-3.35422E-09 2.81125E-09
 -1       501-3.69835E+05-9.22296E+04 1.69147E+05-1.41815E+04 1.62677E-08 1.58689E-08
 -1       502-5.94794E+04 9.90614E+04 1.59614E+05 3.50213E+04 2.33219E-08 2.49274E-08
 -1       503-2.57653E+05-6.28743E+03 4.56948E+04-1.59448E+04 6.60702E-09 2.20243E-08
 -1       504-1.35824E+03 1.93035E+04 7.45224E+04 2.06831E+04-4.70391E-09 1.32718E-08
 -1       505-4.27183E+05-1.34142E+04-2.71697E+04 1.63599E+02 3.26111E-09-4.66480E-09
 -1       506 3.42072E+04 9.93672E+03 5.97553E+04-1.44763E+04 3.10455E-08-1.63436E-08
 -1       507-2.92889E+05 2.74368E+03-8.74325E+03 1.91750E+04 3.54288E-08-3.42345E-08
 -1       508-1.12222E+05-6.29083E+03 2.30234E+04-3.37019E+04 1.75708E-08-3.81915E-08
 -1       509-2.81978E+05 4.11641E+03-8.28745E+03 1.94282E+04 4.17127E-08-2.89459E-08
 -1       510 2.40694E+04 7.29891E+03 5.25886E+04-1.60036E+04 3.76665E-08-2.43633E-08
 -1       511-4.28029E+05-1.20800E+04-3.68119E+04 1.43796E+03-6.07054E-09-2.44518E-09
 -1       512 3.33351E+03 8.98090E+03 5.35015E+04 1.94028E+04-3.27813E-08 2.00382E-08
 -1       513-2.61424E+05 2.61580E+03 6.86028E+03-1.59397E+04-1.48468E-08 2.27301E-08
 -1       514-9.37040E+04 2.67953E+04 5.79119E+04 3.48984E+04-8.65572E-09 2.85600E-08
 -1       515-3.31927E+05-2.88688E+04 2.75487E+04-1.40647E+04-1.54387E-08 1.36770E-08
 -1       521-5.56918E+06-7.25118E+05-3.54407E+05-2.14724E+06-2.98314E-10-1.25146E-09
 -1       522-5.68308E+06-9.57282E+05-2.22281E+05-2.15881E+06 1.15278E-09-2.91766E-09
 -1       523-5.63192E+06-7.99926E+05-8.34286E+04-2.13654E+06 2.51021E-10-6.83940E-10
 -1       524-5.60957E+06-8.58808E+05-4.55233E+04-2.17840E+06 5.04315E-10-2.56568E-09
 -1       525-5.64023E+06-8.06349E+05-1.93524E+04-2.13417E+06 1.31740E-09 3.98268E-09
 -1       526-5.59994E+06-8.50342E+05-1.02313E+04-2.18201E+06-1.42848E-09 7.19888E-09
 -1       527-5.64149E+06-8.06727E+05-5.31088E+03-2.13364E+06-4.03446E-09 4.72613E-09
 -1       528-5.59932E+06-8.49151E+05-4.27668E+03-2.18177E+06-4.28918E-09 2.56796E-09
 -1       529-5.64077E+06-8.07468E+05-5.30524E+03-2.13440E+06-3.90946E-09-7.92488E-09
 -1       530-5.60234E+06-8.47698E+05-1.01465E+04-2.17871E+06-1.77170E-09-4.03179E-09
 -1       531-5.63814E+06-8.08507E+05-1.92537E+04-2.13641E+06 3.71074E-10 3.68345E-09
 -1       532-5.61421E+06-8.53624E+05-4.51339E+04-2.17213E+06-1.23464E-09-1.94996E-09
 -1       533-5.62868E+06-8.03369E+05-8.28109E+04-2.14009E+06-2.39220E-09 1.60435E-09
 -1       534-5.68927E+06-9.49066E+05-2.20412E+05-2.15018E+06-1.79716E-09 3.20142E-09
 -1       535-5.56548E+06-7.30177E+05-3.51528E+05-2.15181E+06-2.60115E-09-9.31323E-10
 -1       536-1.88696E+04-1.73024E+04 6.84638E+04-1.32295E+04 8.47649E-10-2.80488E-09
 -1       537 7.39737E+03 2.18749E+04 4.43228E+04-5.70459E+04-4.05726E-09-1.57524E-09
 -1       538-8.52386E+03-2.05663E+03 1.76776E+04-1.30310E+04-4.89308E-10-1.73077E-09
 -1       539-4.89886E+03 2.03683E+03 1.00122E+04-5.72581E+04 3.28146E-09-6.90648E-09
 -1       540-7.39265E+03-3.32784E+02 4.42352E+03-1.30075E+04-2.35559E-10 1.22418E-09
 -1       541-6.73112E+03 1.66833E+02 2.36982E+03-5.72851E+04-2.18733E-10 1.06684E-09
 -1       542-7.29139E+03-6.33655E+01 1.05264E+03-1.30057E+04 4.52928E-10 6.71207E-09
 -1       543-7.21417E+03 7.29258E+01 4.86370E+02-5.72883E+04-2.36696E-10 1.75851E-09
 -1       544-7.29560E+03 1.50923E+01 7.98220E+01-1.30047E+04-1.35060E-10 2.48235E-09
 -1       545-7.40747E+03 6.81811E+01-2.73535E+02-5.72897E+04-4.30646E-10 7.18126E-09
 -1       546-7.27046E+03 6.09225E+01-7.24740E+02-1.30042E+04 2.17369E-10 5.80826E-09
 -1       547-7.62533E+03-3.08383E+02-1.73114E+03-5.72823E+04-1.17905E-09-3.95630E-09
 -1       548-7.03645E+03 3.11735E+02-3.15243E+03-1.30122E+04-1.77897E-09 1.83263E-10
 -1       549-9.49635E+03-3.93018E+03-7.83650E+03-5.71714E+04 1.37106E-10 6.17320E-10
 -1       550-5.14449E+03 2.89924E+03-1.22336E+04-1.31149E+04-3.61069E-10 2.09457E-09
 -1       551 1.78987E+04-4.82542E+05 3.67227E+04-7.61502E+05 1.96815E-09 6.81030E-09
 -1       552 1.56033E+04-4.78943E+05 3.69481E+04-9.29621E+05-7.42148E-09 1.36351E-08
 -1       553 1.18086E+04-4.85138E+05 5.19399E+04-7.60000E+05 2.23372E-09 5.61158E-09
 -1       554 3.80408E+04-4.63588E+05 1.05147E+05-9.29783E+05-9.06221E-09 1.38152E-09
 -1       555 8.45719E+04-5.00080E+05 1.99193E+05-7.60940E+05 3.12866E-10-2.02272E-09
 -1       556-1.84510E+05-1.62881E+05 3.77044E+04-2.67286E+05-1.19981E-08-9.55333E-09
 -1       557-1.47357E+05-1.98783E+05 1.90696E+04-2.96384E+05-7.08678E-09-5.61158E-10
 -1       558-1.85391E+05-1.72047E+05 7.87163E+03-2.61427E+05-5.02769E-09-1.47338E-10
 -1       559-1.52393E+05-2.04095E+05 3.93328E+03-2.98623E+05 1.84809E-09-3.57750E-09
 -1       560-1.86561E+05-1.71488E+05 1.68320E+03-2.61986E+05 7.78527E-10-1.26602E-09
 -1       561-1.53993E+05-2.03766E+05 8.46729E+02-2.99715E+05 1.34605E-10 7.25697E-09
 -1       562-1.87465E+05-1.70904E+05 3.07099E+02-2.62601E+05-2.91038E-10-7.10997E-10
 -1       563-1.54928E+05-2.03365E+05 8.58434E+01-3.00354E+05-1.43700E-10-4.78417E-09
 -1       564-1.87997E+05-1.70563E+05-1.72656E+02-2.62965E+05-1.50249E-09-2.46109E-09
 -1       565-1.55397E+05-2.03172E+05-5.08815E+02-3.00658E+05-2.79761E-09 4.27463E-09
 -1       566-1.88122E+05-1.70446E+05-1.15261E+03-2.63071E+05-4.54429E-09-1.42973E-09
 -1       567-1.55583E+05-2.03265E+05-2.57133E+03-3.00617E+05-2.35787E-10 1.66619E-09
 -1       568-1.87721E+05-1.70810E+05-5.31925E+03-2.62821E+05 2.94676E-10 4.26007E-09
 -1       569-1.58350E+05-2.06137E+05-1.25286E+04-2.99480E+05-4.40014E-09-3.63798E-09
 -1       570-1.85494E+05-1.78834E+05-2.50904E+04-2.59343E+05-3.56886E-09-6.45468E-09
 -1       571 3.27086E+05 1.44608E+04 2.17131E+04-8.40317E+04 1.90994E-11-2.33149E-09
 -1       572 3.30339E+05 4.98385E+03 1.06482E+04-9.22915E+04-5.61158E-10-5.30963E-09
 -1       573 3.28371E+05 1.15319E+03 4.73270E+03-8.38086E+04-6.48470E-10-2.37196E-09
 -1       574 3.28750E+05 3.65247E+02 2.37345E+03-9.25336E+04-7.85803E-10-6.63749E-09
 -1       575 3.28499E+05 3.94198E+01 1.11951E+03-8.37803E+04 1.80080E-10-2.57842E-09
 -1       576 3.28531E+05 5.81503E+00 5.69698E+02-9.25655E+04 9.08642E-11 3.90173E-10
 -1       577 3.28521E+05-1.67400E+01 2.79223E+02-8.37766E+04-8.75389E-11 2.50293E-09
 -1       578 3.28518E+05-1.54388E+01 1.49265E+02-9.25696E+04 6.57792E-10 5.32964E-09
 -1       579 3.28559E+05-2.86354E+01 8.46766E+01-8.37762E+04-3.20142E-10 6.79393E-10
 -1       580 3.28572E+05-4.12727E+01 6.90283E+01-9.25655E+04 3.11957E-10 4.10819E-09
 -1       581 3.28630E+05-6.32467E+01 8.02519E+01-8.37806E+04-1.04774E-09-1.68257E-10
 -1       582 3.28681E+05-7.16585E+01 1.45856E+02-9.25163E+04-1.49157E-09-7.70160E-09
 -1       583 3.28727E+05-5.96457E+01 2.69670E+02-8.38253E+04-2.09184E-10 2.00134E-09
 -1       584 3.28906E+05 1.26944E+02 6.06019E+02-9.21343E+04-2.34286E-09 6.63385E-09
 -1       585 3.28779E+05 6.40595E+02 1.22045E+03-8.41634E+04 8.36735E-10-1.81899E-09
 -1       586 2.00879E+03 1.51667E+05 3.80624E+03-2.03200E+05 6.17547E-10 1.99270E-09
 -1       587 1.28825E+03 1.52269E+05 4.15192E+03-2.25555E+05-1.24965E-09 5.67570E-09
 -1       588 1.67232E+03 1.51483E+05 6.41697E+03-2.02930E+05 5.83896E-10-6.11294E-09
 -1       589 6.17041E+03 1.53981E+05 1.35027E+04-2.25627E+05-1.46974E-09-1.46906E-08
 -1       590 1.74314E+04 1.49819E+05 2.70117E+04-2.03119E+05 7.27596E-10-4.29281E-09
 -1       591-1.66345E+05-4.93852E+04-3.22012E+04-7.97430E+04-2.26578E-09-7.26504E-09
 -1       592-1.68355E+05-4.76119E+04-1.61483E+04-8.84695E+04-8.36735E-10-6.28233E-10
 -1       593-1.67893E+05-3.99982E+04-6.85568E+03-8.43845E+04 4.19959E-09 5.64978E-09
 -1       594-1.64726E+05-4.35744E+04-3.36625E+03-8.87971E+04 1.25101E-09 2.40155E-09
 -1       595-1.68072E+05-3.97409E+04-1.55338E+03-8.45634E+04-9.26775E-10 1.50521E-09
 -1       596-1.64478E+05-4.34321E+04-7.85493E+02-8.87627E+04-6.79620E-10 2.92869E-09
 -1       597-1.68102E+05-3.97679E+04-4.23424E+02-8.45638E+04 4.43933E-10 1.35947E-09
 -1       598-1.64451E+05-4.34342E+04-3.30681E+02-8.87505E+04 9.77707E-11-4.29281E-09
 -1       599-1.68098E+05-3.97709E+04-4.10254E+02-8.45614E+04 1.28466E-10-1.77283E-09
 -1       600-1.64469E+05-4.34359E+04-7.50621E+02-8.87545E+04 3.89991E-09 7.07041E-09
 -1       601-1.68060E+05-3.97500E+04-1.47812E+03-8.45565E+04 7.29415E-10 9.76206E-09
 -1       602-1.64700E+05-4.35710E+04-3.19982E+03-8.87760E+04 7.56700E-10 2.39424E-10
 -1       603-1.67881E+05-4.00035E+04-6.51521E+03-8.43857E+04-7.18728E-09-5.40967E-09
 -1       604-1.68178E+05-4.73698E+04-1.53424E+04-8.84123E+04-1.30126E-08-5.11864E-09
 -1       605-1.66365E+05-4.89563E+04-3.05939E+04-8.00101E+04-4.17185E-09-8.64020E-10
 -1       606 1.20117E+05-1.35089E+04-2.11897E+04 3.91679E+04-6.19548E-09 1.13596E-09
 -1       607 1.16764E+05-4.54440E+03-1.04245E+04 4.29366E+04-1.46611E-09 3.99314E-09
 -1       608 1.18690E+05-9.64815E+02-4.64492E+03 3.88975E+04 4.12547E-09 5.41831E-10
 -1       609 1.18243E+05-2.51942E+02-2.33017E+03 4.32322E+04-2.47019E-09-1.08435E-09
 -1       610 1.18478E+05 3.20267E+01-1.10303E+03 3.88637E+04-6.65932E-09 2.48292E-10
 -1       611 1.18378E+05 8.30889E+01-5.54031E+02 4.32681E+04-1.39798E-08-3.44608E-09
 -1       612 1.18412E+05 9.36271E+01-2.62847E+02 3.88601E+04 4.63842E-09 6.46742E-09
 -1       613 1.18364E+05 1.10360E+02-1.17125E+02 4.32721E+04 1.06393E-08 8.34052E-09
 -1       614 1.18373E+05 1.02043E+02-2.74798E+01 3.88593E+04 4.35830E-09-3.32830E-09
 -1       615 1.18342E+05 1.23402E+02 5.04269E+01 4.32722E+04 7.20411E-09-9.31050E-09
 -1       616 1.18344E+05 1.18172E+02 1.49801E+02 3.88599E+04-5.29690E-09-7.93125E-09
 -1       617 1.18348E+05 1.80421E+02 3.44788E+02 4.32704E+04-2.77169E-10-5.44787E-10
 -1       618 1.18303E+05 2.73154E+02 6.98737E+02 3.88606E+04 4.02315E-09 3.76576E-09
 -1       619 1.18569E+05 8.32760E+02 1.57667E+03 4.32632E+04 3.99075E-09 6.68842E-09
 -1       620 1.18087E+05 2.17428E+03 3.20693E+03 3.88625E+04 2.52851E-09 1.64846E-09
 -1       621 1.14736E+03 3.44965E+05 3.94685E+03-2.87126E+04 1.69825E-09 1.79216E-09
 -1       622 5.32434E+02 3.45757E+05 4.17422E+03-3.51050E+04-7.54653E-10 1.74259E-09
 -1       623 3.37591E+02 3.45060E+05 6.17320E+03-2.87182E+04 1.39198E-09 4.10955E-09
 -1       624 3.27447E+03 3.47806E+05 1.27051E+04-3.49954E+04-6.04587E-10-1.13050E-09
 -1       625 9.36534E+03 3.42954E+05 2.42444E+04-2.88171E+04 1.88629E-09-2.40516E-09
 -1       626 2.12888E+05 6.99911E+04-3.27282E+03 1.36227E+05-2.52021E-09 6.60293E-10
 -1       627 2.08230E+05 7.53730E+04-1.55412E+03 1.40437E+05 3.19415E-09 1.51908E-09
 -1       628 2.13029E+05 7.14309E+04-6.54773E+02 1.35264E+05 5.63341E-09-1.99179E-09
 -1       629 2.08264E+05 7.61962E+04-3.09249E+02 1.40529E+05 4.85761E-09-4.26189E-09
 -1       630 2.12993E+05 7.15405E+04-1.31872E+02 1.35158E+05 3.73620E-09 4.11944E-10
 -1       631 2.08219E+05 7.62742E+04-4.52514E+01 1.40520E+05-5.63932E-09 6.70548E-09
 -1       632 2.12955E+05 7.15565E+04 1.70407E+01 1.35131E+05 5.41513E-09 8.74297E-09
 -1       633 2.08194E+05 7.62875E+04 8.94136E+01 1.40506E+05-2.46018E-09-7.39237E-09
 -1       634 2.12927E+05 7.15554E+04 2.06837E+02 1.35120E+05 3.22871E-11-4.66434E-09
 -1       635 2.08207E+05 7.62951E+04 4.59765E+02 1.40505E+05-4.99426E-10-3.09819E-09
 -1       636 2.12904E+05 7.15711E+04 9.49006E+02 1.35106E+05-2.65265E-09 1.17689E-09
 -1       637 2.08428E+05 7.65261E+04 2.11238E+03 1.40475E+05 1.00647E-09 4.84124E-09
 -1       638 2.12854E+05 7.22737E+04 4.36920E+03 1.34798E+05-7.68068E-10-4.39923E-09
 -1       639 2.10672E+05 8.02711E+04 1.03845E+04 1.39585E+05-7.03039E-10-9.54969E-10
 -1       640 2.12898E+05 8.31959E+04 2.18321E+04 1.30240E+05-2.30239E-09-3.53748E-09
 -1       641-2.33788E+03 3.53996E+03-8.16117E+03-2.28917E+01 5.39533E-05-1.00338E-07
 -1       642-5.87437E+03-4.09698E+03-5.77270E+03 5.14418E+01 1.07795E-04-1.90021E-07
 -1       643-3.70126E+03 5.56319E+02-2.10177E+03-2.20775E+01 9.96511E-05-1.94729E-07
 -1       644-4.28555E+03-6.41900E+02-1.30487E+03 5.11513E+01 9.14481E-05-1.62521E-07
 -1       645-3.92685E+03 8.55351E+01-4.95280E+02-2.26030E+01 6.39041E-05-1.25525E-07
 -1       646-4.01629E+03-8.85683E+01-2.21412E+02 5.19201E+01 3.63383E-05-6.60115E-08
 -1       647-3.97054E+03 3.09052E+00 3.49258E+01-2.28467E+01-1.89457E-06 4.58215E-09
 -1       648-3.93212E+03 6.28572E+01 3.00824E+02 5.18072E+01-4.01466E-05 8.49363E-08
 -1       649-4.01102E+03-6.58714E+01 6.46169E+02-2.24903E+01-8.59094E-05 1.78775E-07
 -1       650-3.69734E+03 5.02791E+02 1.55010E+03 5.02331E+01-1.31684E-04 2.55121E-07
 -1       651-4.20529E+03-4.36785E+02 2.68852E+03-2.12727E+01-1.79167E-04 3.51497E-07
 -1       652-2.36692E+03 3.22960E+03 6.65584E+03 4.57540E+01-2.26552E-04 3.97525E-07
 -1       653-5.34126E+03-2.79217E+03 1.05905E+04-1.80109E+01-1.13347E-04 1.96497E-07
 -1       654 5.62211E+03 2.05557E+04 2.89907E+04 3.10026E+01-1.12977E-07-5.37602E-09
 -1       655-1.21918E+04-1.77591E+04 4.09486E+04-6.52249E+00-7.89069E-09-2.71757E-09
 -1       656 1.34992E+04-5.02086E+05-5.74508E+04 1.39895E+04 6.29370E-10 6.62703E-09
 -1       657-1.97126E+04-5.23284E+05-4.25195E+04 5.89604E+04-1.27147E-09-1.81353E-09
 -1       658 2.75707E+03-5.09500E+05-2.75220E+04 1.38302E+04-1.46969E-09 1.33787E-09
 -1       659-1.91382E+04-5.23027E+05-4.15648E+04 5.90679E+04-2.69210E-09-5.51381E-10
 -1       660 1.30768E+04-5.02427E+05-5.56372E+04 1.38835E+04-1.77533E-09 3.19369E-09
 -1       661 3.26167E+05 4.53882E+04 2.57245E+04 1.28068E+05 5.82668E-09 7.11225E-10
 -1       662 3.31833E+05 6.01998E+04 1.54912E+04 1.31687E+05-1.51451E-09 6.43558E-09
 -1       663 3.30114E+05 4.92262E+04 6.03805E+03 1.28094E+05-2.11790E-09-3.55521E-09
 -1       664 3.27217E+05 5.39835E+04 3.18664E+03 1.32405E+05 8.22817E-09-2.26805E-11
 -1       665 3.30490E+05 4.95786E+04 1.41047E+03 1.28111E+05 5.25199E-09-2.02550E-09
 -1       666 3.26778E+05 5.34640E+04 7.51069E+02 1.32433E+05 8.02024E-09-6.50727E-10
 -1       667 3.30532E+05 4.96139E+04 4.37952E+02 1.28115E+05-3.42303E-09-3.31698E-09
 -1       668 3.26738E+05 5.34294E+04 4.21578E+02 1.32435E+05 3.06380E-09 4.25740E-09
 -1       669 3.30530E+05 4.96067E+04 6.16115E+02 1.28112E+05-5.98550E-09 2.43745E-09
 -1       670 3.26813E+05 5.35097E+04 1.23306E+03 1.32453E+05-6.72134E-09 6.54381E-10
 -1       671 3.30463E+05 4.95373E+04 2.41312E+03 1.28099E+05-3.05624E-09-4.78622E-10
 -1       672 3.27572E+05 5.44199E+04 5.51140E+03 1.32419E+05 7.17864E-09-3.68095E-09
 -1       673 3.29812E+05 4.89211E+04 1.04637E+04 1.28065E+05 6.08617E-09 2.23963E-09
 -1       674 3.35574E+05 6.52104E+04 2.68653E+04 1.31183E+05 1.40069E-08 3.96312E-09
 -1       675 3.22970E+05 4.22608E+04 4.46158E+04 1.28016E+05 8.89941E-09 3.94721E-10
 -1       676 7.31916E+02-4.95541E+05-4.30436E+03 2.81776E+02 1.64094E-09-4.97488E-09
 -1       677-1.96734E+03-4.97314E+05-6.33648E+03-1.10221E+03-4.56771E-09-9.74428E-09
 -1       678 9.42620E+02-4.95332E+05-9.31427E+03 2.78547E+02-6.37556E-10 4.16179E-10
 -1       679-1.10882E+04-5.02629E+05-2.21224E+04-1.09470E+03 3.17982E-09 2.55308E-09
 -1       680 8.29770E+03-4.90230E+05-3.39611E+04 2.72209E+02 1.16052E-09 3.18596E-09
 -1       716-3.83905E-01-1.82862E-01 1.71934E+01-9.02566E-04 8.60428E-09-1.15655E-09
 -1       717 1.89253E+00 1.38027E+00 3.02807E+01 2.29990E-03 2.98612E-09-1.73167E-09
 -1       718-1.50764E+00-1.19690E+00 5.61927E+01-1.39566E-03-7.60990E-10-3.74233E-09
 -1       719 8.93517E+00 9.39977E+00 1.16554E+02-2.08644E-03-9.43027E-10-1.56304E-09
 -1       720-7.42662E+00-8.20286E+00 2.22300E+02 3.48481E-03-1.05340E-08-3.40593E-09
 -1       721 4.62440E+01 6.26289E+01 4.75094E+02-7.35707E-02-6.23314E-09-3.17546E-09
 -1       722-3.88161E+01-5.44239E+01 8.89218E+02 7.00810E-02-2.79546E-09-2.38254E-09
 -1       723 2.51424E+02 4.08656E+02 1.95864E+03-7.05990E-01 7.40538E-09 1.75731E-10
 -1       724-2.12594E+02-3.54188E+02 3.54678E+03 6.35774E-01-3.25083E-09-2.39834E-09
 -1       725 1.42413E+03 2.63330E+03 8.17425E+03-5.42933E+00-4.58754E-09 5.11591E-10
 -1       726-1.21128E+03-2.27866E+03 1.40641E+04 4.79269E+00-8.04929E-09-3.15049E-09
 -1       727 8.33328E+03 1.68388E+04 3.47195E+04-3.81909E+01-1.02450E-08-2.52112E-09
 -1       728-7.11753E+03-1.45563E+04 5.52415E+04 3.34008E+01-3.41842E-10-2.20098E-09
 -1       729 4.99576E+04 1.07165E+05 1.51152E+05-2.56870E+02 2.86326E-09-9.22228E-10
 -1       730-4.27662E+04-9.25705E+04 2.13668E+05 2.23628E+02 9.87689E-09-3.36149E-09
 -1       766-9.25896E+04-4.28272E+04 2.13628E+05-1.83085E+02-4.65661E-10-5.23443E-09
 -1       767 1.07319E+05 5.00688E+04 1.51144E+05 4.62514E+01 6.83940E-09 1.70139E-10
 -1       768-1.46907E+04-7.25895E+03 5.50557E+04 2.23268E+01-5.05679E-10 4.34952E-10
 -1       769 1.78259E+04 8.86650E+03 3.47487E+04-1.88199E+02 5.65478E-09 5.74954E-09
 -1       770-3.13070E+03-1.69370E+03 1.32514E+04 5.15068E+01-2.38288E-10 2.25428E-09
 -1       771-2.69867E+06-5.28566E+05-7.77871E+04-1.16498E+06-1.20672E-08-7.14499E-09
 -1       772-2.68713E+06-5.39620E+05-3.88713E+04-1.20380E+06-3.66344E-09 6.11999E-09
 -1       773-2.70427E+06-5.04656E+05-1.66786E+04-1.17586E+06-4.51109E-09-8.03266E-09
 -1       774-2.67866E+06-5.30586E+05-8.12177E+03-1.20685E+06 2.62298E-09-4.80031E-09
 -1       775-2.70590E+06-5.03214E+05-3.84894E+03-1.17670E+06 1.86265E-09-1.09503E-09
 -1       776-2.67882E+06-5.30121E+05-1.90311E+03-1.20793E+06 5.49335E-10-1.95223E-09
 -1       777-2.70689E+06-5.02694E+05-1.07091E+03-1.17708E+06 2.83762E-10 8.01947E-10
 -1       778-2.67935E+06-5.29974E+05-7.83583E+02-1.20869E+06-2.02272E-09 4.31100E-10
 -1       779-2.70750E+06-5.02308E+05-9.85735E+02-1.17734E+06 3.63798E-10-2.70120E-10
 -1       780-2.67978E+06-5.29884E+05-1.76337E+03-1.20917E+06-8.01265E-10-1.18689E-09
 -1       781-2.70772E+06-5.02057E+05-3.49455E+03-1.17746E+06-1.50249E-09-1.92631E-09
 -1       782-2.68047E+06-5.30164E+05-7.57925E+03-1.20938E+06-8.31278E-10-1.76988E-09
 -1       783-2.70730E+06-5.02665E+05-1.54725E+04-1.17707E+06-3.35922E-09-3.33603E-09
 -1       784-2.68876E+06-5.39133E+05-3.64962E+04-1.20824E+06-3.80351E-09-4.95857E-09
 -1       785-2.70334E+06-5.24218E+05-7.28456E+04-1.16669E+06 2.52840E-10 1.62254E-09
 -1       786 2.65256E+05-8.31345E+03 3.39600E+04-1.97835E+03 4.77030E-10-1.35333E-09
 -1       787 2.77657E+05 1.10265E+04 2.18920E+04-8.85877E+03-6.40910E-10 8.84484E-10
 -1       788 2.70419E+05-8.79976E+02 8.80727E+03-1.97877E+03-1.71440E-10 2.26464E-10
 -1       789 2.71885E+05 1.12286E+03 4.94618E+03-8.84541E+03 2.29477E-10-8.11497E-09
 -1       790 2.71019E+05-9.68720E+01 2.23947E+03-1.99095E+03 1.58593E-10-5.45367E-09
 -1       791 2.71202E+05 1.12991E+02 1.20613E+03-8.82803E+03 7.18785E-11-1.48805E-09
 -1       792 2.71097E+05-1.20624E+01 6.16872E+02-1.99614E+03-2.21618E-10-3.49644E-09
 -1       793 2.71116E+05 1.52382E+01 4.11587E+02-8.82542E+03-7.96639E-10-2.55122E-09
 -1       794 2.71104E+05-6.86311E+00 3.80973E+02-1.99357E+03 3.74257E-10-2.95685E-09
 -1       795 2.71145E+05 4.84765E+01 5.82892E+02-8.83871E+03 1.29035E-11 5.65046E-10
 -1       796 2.71072E+05-4.38188E+01 1.00314E+03-1.98285E+03 4.31442E-10 2.91109E-09
 -1       797 2.71445E+05 4.85727E+02 2.16951E+03-8.86574E+03-1.66438E-10-7.68182E-09
 -1       798 2.70812E+05-3.86513E+02 3.84295E+03-1.96654E+03-1.28102E-09-7.73753E-10
 -1       799 2.73967E+05 4.79829E+03 9.54223E+03-8.88419E+03-1.39323E-09-1.15870E-09
 -1       800 2.68564E+05-3.62804E+03 1.47943E+04-1.96484E+03 2.39652E-10 3.55612E-10
 -1       801-1.88783E+04 2.86510E+05 3.78727E+04-3.86733E+05 8.13088E-10 8.00355E-10
 -1       802 5.60908E+04 2.89675E+05 6.02025E+04-1.68448E+06 1.95651E-08 6.00994E-09
 -1       803 3.41421E+03 2.77759E+05 7.43932E+04-3.85803E+05 1.08048E-08 8.51242E-09
 -1       804 1.18905E+05 3.26936E+05 1.69315E+05-1.68421E+06 1.32277E-08-6.40284E-09
 -1       805-7.13837E+04 2.50020E+05 2.42942E+05-3.87035E+05 1.02300E-08 1.89175E-10
 -1       806-2.42742E+05-7.26037E+04-2.05733E+04-1.23040E+05 1.25300E-09-7.80346E-10
 -1       807-2.41944E+05-6.85446E+04-9.78311E+03-1.30397E+05-6.62794E-10-1.20784E-08
 -1       808-2.42730E+05-6.23045E+04-4.11710E+03-1.27367E+05 2.20098E-10-2.69847E-09
 -1       809-2.39880E+05-6.49871E+04-1.99018E+03-1.31242E+05 1.62981E-09 1.93211E-10
 -1       810-2.42797E+05-6.16317E+04-8.98414E+02-1.27670E+05 2.58296E-10 1.52249E-09
 -1       811-2.39686E+05-6.47635E+04-4.43252E+02-1.31277E+05-1.82786E-09-7.02153E-09
 -1       812-2.42817E+05-6.16159E+04-2.18114E+02-1.27683E+05 1.36730E-08 5.31873E-09
 -1       813-2.39663E+05-6.47604E+04-1.34680E+02-1.31271E+05 1.16551E-08-2.88483E-08
 -1       814-2.42816E+05-6.16237E+04-1.21421E+02-1.27680E+05 7.61747E-09-6.22958E-09
 -1       815-2.39663E+05-6.47675E+04-1.86362E+02-1.31263E+05 1.00954E-10 1.98156E-09
 -1       816-2.42796E+05-6.16381E+04-3.47429E+02-1.27668E+05 5.35692E-10 6.33327E-09
 -1       817-2.39732E+05-6.48473E+04-7.54468E+02-1.31227E+05 6.58019E-10-2.53749E-10
 -1       818-2.42748E+05-6.19106E+04-1.55464E+03-1.27556E+05 1.62254E-09 8.98126E-10
 -1       819-2.40584E+05-6.61020E+04-3.68828E+03-1.30791E+05 9.71795E-10-1.65164E-09
 -1       820-2.42649E+05-6.58775E+04-7.75534E+03-1.26009E+05-3.02316E-09-4.90672E-09
 -1       821-3.41448E+05 1.02405E+04-4.18759E+04 2.20488E+03-3.15140E-09 4.53292E-09
 -1       822-3.56706E+05-1.35961E+04-2.69929E+04 1.04238E+04-2.85479E-09-1.51704E-09
 -1       823-3.47818E+05 1.07922E+03-1.08663E+04 2.11489E+03 3.77418E-09 2.79351E-09
 -1       824-3.49620E+05-1.36874E+03-6.10544E+03 1.05557E+04-2.84092E-09 1.84195E-09
 -1       825-3.48561E+05 1.20081E+02-2.78201E+03 2.07191E+03-5.75596E-09-2.78521E-09
 -1       826-3.48800E+05-1.14670E+02-1.52647E+03 1.06266E+04-1.22681E-08 1.54614E-09
 -1       827-3.48657E+05 2.03833E+01-8.41279E+02 2.04379E+03-8.06585E-09 1.98190E-09
 -1       828-3.48714E+05 4.55685E+00-6.73652E+02 1.06702E+04-9.03310E-09-4.53696E-10
 -1       829-3.48660E+05 2.11056E+01-7.93859E+02 2.02823E+03-6.19252E-10-1.68296E-09
 -1       830-3.48803E+05-9.62052E+01-1.40349E+03 1.06876E+04 4.71212E-09 3.95630E-10
 -1       831-3.48574E+05 1.14800E+02-2.53503E+03 2.02636E+03-4.16711E-09 4.19368E-09
 -1       832-3.49560E+05-1.23129E+03-5.55624E+03 1.06776E+04-2.21053E-09 5.26461E-09
 -1       833-3.47901E+05 9.90063E+02-9.87925E+03 2.03845E+03 2.36469E-10-3.94994E-09
 -1       834-3.56016E+05-1.23460E+04-2.45471E+04 1.06257E+04 3.60126E-09-2.69483E-09
 -1       835-3.42111E+05 9.32390E+03-3.80739E+04 2.08059E+03 7.61020E-10-3.87081E-09
 -1       836-5.33171E+03 5.53036E+05 4.55853E+04-2.82438E+04-2.65936E-09-2.89674E-09
 -1       837 1.16471E+04 5.68032E+05 3.51689E+04-6.67136E+04-2.33899E-09-6.58156E-09
 -1       838-1.24766E+03 5.57953E+05 2.92191E+04-2.81786E+04-3.08410E-09-3.77618E-09
 -1       839 1.87018E+04 5.72892E+05 5.02433E+04-6.67111E+04-2.33467E-09-3.98211E-09
 -1       840-9.24186E+03 5.48175E+05 7.55170E+04-2.82448E+04-2.96859E-09-5.16684E-09
 -1       841 8.49995E+04 1.23557E+04-1.05811E+03 3.16837E+04-1.81706E-09 5.41792E-09
 -1       842 8.42564E+04 1.16382E+04-7.21225E+02 3.21585E+04-2.05637E-08 1.14644E-08
 -1       843 8.47508E+04 1.20397E+04-2.43184E+02 3.18283E+04-2.83563E-05 1.06663E-05
 -1       844 8.45602E+04 1.19910E+04-1.43237E+02 3.19743E+04-5.66987E-05 2.13501E-05
 -1       845 8.46955E+04 1.20030E+04-3.76974E+01 3.18678E+04-3.79647E-05 1.42851E-05
 -1       846 8.46349E+04 1.20340E+04 1.20774E+01 3.19210E+04-1.92040E-05 7.22902E-06
 -1       847 8.46760E+04 1.19967E+04 7.25090E+01 3.18815E+04-1.12936E-05 4.24798E-06
 -1       848 8.46849E+04 1.20816E+04 1.98155E+02 3.18979E+04-3.38552E-06 1.28314E-06
 -1       849 8.46456E+04 1.19555E+04 3.71404E+02 3.18909E+04-5.91361E-07 2.23709E-07
 -1       850 8.48758E+04 1.23942E+04 9.42180E+02 3.18465E+04 2.20036E-06-8.37956E-07
 -1       851 8.44850E+04 1.16841E+04 1.62798E+03 3.19329E+04 1.69097E-06-6.35580E-07
 -1       852 8.60235E+04 1.43808E+04 4.39638E+03 3.15063E+04 1.18004E-06-4.39965E-07
 -1       853 8.34977E+04 9.96925E+03 7.03074E+03 3.22309E+04-3.45065E-06 1.31188E-06
 -1       854 9.31222E+04 2.69414E+04 2.08487E+04 2.91898E+04-8.09818E-06 3.03538E-06
 -1       855 7.73868E+04-8.74358E+02 3.00083E+04 3.42487E+04-4.06156E-06 1.51652E-06
 -1       856-2.86442E+05 4.21460E+03-3.35886E+04 9.46510E+03-7.49878E-09-1.72076E-09
 -1       857-2.97419E+05-8.08604E+03-2.05115E+04 2.29603E+04-8.26003E-09-3.66344E-09
 -1       858-2.91194E+05 3.95793E+02-8.62524E+03 9.34468E+03-5.65797E-09-5.16866E-09
 -1       859-2.92291E+05-5.35311E+02-4.63936E+03 2.31032E+04 6.52471E-09-3.28055E-09
 -1       860-2.91651E+05 7.41931E+01-2.17830E+03 9.31828E+03 4.26144E-09-4.82169E-09
 -1       861-2.91824E+05 4.79055E+01-1.14576E+03 2.31399E+04-5.27143E-09-8.89918E-09
 -1       862-2.91712E+05 4.62419E+01-5.99919E+02 9.30735E+03 8.92919E-09-1.75862E-09
 -1       863-2.91778E+05 9.40701E+01-4.00078E+02 2.31524E+04 2.07463E-08-3.60046E-10
 -1       864-2.91718E+05 4.44480E+01-3.81818E+02 9.30573E+03 1.17687E-08-2.92778E-09
 -1       865-2.91790E+05 7.46776E+01-5.81897E+02 2.31454E+04 1.15180E-08-3.01327E-10
 -1       866-2.91690E+05 5.45306E+01-1.03182E+03 9.31434E+03 8.44011E-10-8.00355E-10
 -1       867-2.91994E+05-1.99229E+02-2.15438E+03 2.31159E+04 8.75843E-10 1.23859E-09
 -1       868-2.91473E+05 1.97191E+02-3.98974E+03 9.33565E+03 3.56840E-09 1.01272E-09
 -1       869-2.94340E+05-3.69311E+03-9.47090E+03 2.29859E+04-5.45242E-09 3.78157E-09
 -1       870-2.89272E+05 1.95019E+03-1.55120E+04 9.44648E+03 2.12322E-09-8.30005E-09
 -1       871-4.86359E+03-3.84147E+04-1.01010E+04 1.40983E+05 2.16278E-09-2.45200E-09
 -1       872-1.72047E+03-4.04022E+04-3.12714E+03 1.70092E+05 2.78669E-09 1.70530E-10
 -1       873-7.84989E+01-3.96940E+04 2.66348E+03 1.40695E+05 3.69619E-09 7.60792E-10
 -1       874 2.82039E+03-3.73100E+04 1.04135E+04 1.70208E+05 3.03044E-09-3.47973E-09
 -1       875 9.06479E+03-4.17063E+04 2.22822E+04 1.40888E+05 3.62252E-09-8.41283E-11
 -1       876 4.18125E+05 6.03773E+04 3.73971E+04 1.66516E+05 8.31960E-10-2.21735E-09
 -1       877 4.24941E+05 8.11984E+04 2.22275E+04 1.73311E+05 4.32919E-10-1.58889E-09
 -1       878 4.23650E+05 6.50552E+04 8.74861E+03 1.66831E+05 3.19847E-09 3.25417E-09
 -1       879 4.18414E+05 7.26970E+04 4.57014E+03 1.74202E+05 2.47110E-09 4.16185E-09
 -1       880 4.24136E+05 6.54893E+04 2.03057E+03 1.66885E+05 6.81871E-09-4.75791E-09
 -1       881 4.17833E+05 7.20172E+04 1.06169E+03 1.74192E+05-2.43426E-09-3.09080E-09
 -1       882 4.24178E+05 6.55464E+04 5.91761E+02 1.66901E+05 5.66388E-09-5.21690E-09
 -1       883 4.17786E+05 7.19585E+04 5.18844E+02 1.74168E+05-1.33587E-08-9.14369E-10
 -1       884 4.24170E+05 6.55494E+04 7.08871E+02 1.66903E+05-3.79939E-09 1.68370E-10
 -1       885 4.17867E+05 7.20232E+04 1.37549E+03 1.74174E+05 1.94583E-08 1.70553E-09
 -1       886 4.24098E+05 6.54875E+04 2.68859E+03 1.66892E+05 1.11515E-09 3.11502E-10
 -1       887 4.18655E+05 7.29115E+04 6.07948E+03 1.74155E+05-1.05165E-08-4.44561E-09
 -1       888 4.23432E+05 6.49237E+04 1.16527E+04 1.66828E+05-9.58346E-09-6.95763E-10
 -1       889 4.27336E+05 8.42432E+04 2.96080E+04 1.72963E+05 1.58481E-08 6.60339E-09
 -1       890 4.16080E+05 5.86844E+04 4.98220E+04 1.66388E+05 5.33873E-10 3.74712E-10
 -1       891 8.86625E+02-2.09382E+05-8.57631E+03 4.24648E+04 7.89441E-10 7.67704E-09
 -1       892-2.34580E+03-2.12100E+05-6.50577E+03 1.00990E+05-6.17729E-09 5.62409E-10
 -1       893 1.59202E+02-2.10372E+05-5.27022E+03 4.23318E+04-2.89447E-09-7.13158E-10
 -1       894-3.48257E+03-2.12833E+05-8.89962E+03 1.00960E+05-1.48520E-09-2.00794E-09
 -1       895 1.47955E+03-2.08582E+05-1.33368E+04 4.24936E+04-1.90903E-09 7.04131E-09
 -1       926-7.09706E+02-1.20583E+03 2.74230E+03 4.66569E+01 9.54973E-10-1.25067E-09
 -1       927 8.01035E+02 1.39564E+03 2.01832E+03-1.82832E+02-3.33866E-09-1.65835E-09
 -1       928-2.04522E+02-1.90335E+02 7.54253E+02 4.50035E+01 4.72262E-11-7.78527E-10
 -1       929 1.92278E+02 2.27408E+02 5.88180E+02-1.81144E+02 1.89025E-09-8.08313E-10
 -1       930-1.01427E+02-3.74936E+01 3.99762E+02 4.49674E+01 1.26310E-10-3.60460E-10
 -1       931 8.49638E+01 9.67809E+01 6.00054E+02-1.81133E+02-2.90350E-10-1.78858E-10
 -1       932-9.75611E+01-5.94821E+01 9.47968E+02 4.49914E+01 1.70299E-11-6.07656E-11
 -1       933 2.42182E+02 4.20357E+02 2.02369E+03-1.81116E+02-8.44650E-10 2.17995E-10
 -1       934-2.58865E+02-3.60866E+02 3.62277E+03 4.49508E+01-1.15919E-06-1.31195E-10
 -1       935 1.41627E+03 2.68157E+03 8.33115E+03-1.80848E+02-2.31688E-06-3.13207E-10
 -1       936-1.27151E+03-2.32021E+03 1.43258E+04 4.47231E+01-8.27293E-07 1.81899E-12
 -1       937 8.45346E+03 1.71484E+04 3.53603E+04-1.81478E+02 6.69014E-07 7.13044E-10
 -1       938-7.29167E+03-1.48240E+04 5.62575E+04 4.55812E+01 3.43758E-07-6.54836E-11
 -1       939 5.08641E+04 1.09140E+05 1.53939E+05-2.11764E+02 3.30778E-09 6.00267E-11
 -1       940-4.36101E+04-9.42773E+04 2.17596E+05 7.50074E+01-4.26764E-09 9.60426E-10
 -1       956-3.95770E+05-6.73802E+03-1.74218E+04 4.45260E+04-5.06225E-09 5.80712E-10
 -1       957-3.99268E+05-2.28163E+03-8.96176E+03 5.39307E+04-1.82808E-09-1.38334E-09
 -1       958-3.97390E+05-1.51356E+02-4.04195E+03 4.42384E+04 4.71846E-09 1.71758E-09
 -1       959-3.97699E+05 2.55146E+01-2.06242E+03 5.42437E+04-1.98179E-09-2.13095E-09
 -1       960-3.97573E+05 1.09407E+02-1.00585E+03 4.42095E+04-6.63204E-09 3.02953E-09
 -1       961-3.97629E+05 1.35944E+02-5.28513E+02 5.42772E+04-1.27475E-08 2.32785E-09
 -1       962-3.97632E+05 1.21821E+02-2.95917E+02 4.42042E+04-4.35648E-09 1.06274E-09
 -1       963-3.97650E+05 1.52987E+02-2.24207E+02 5.42843E+04-7.03221E-09-5.70708E-10
 -1       964-3.97652E+05 1.33257E+02-2.57375E+02 4.42021E+04-3.92447E-10-1.27056E-09
 -1       965-3.97672E+05 1.61134E+02-4.32296E+02 5.42848E+04 6.05712E-09-2.48383E-09
 -1       966-3.97637E+05 1.42969E+02-8.05787E+02 4.42037E+04-3.23917E-09-9.84073E-10
 -1       967-3.97763E+05 9.21700E+01-1.64856E+03 5.42662E+04-3.76895E-09-2.71393E-09
 -1       968-3.97516E+05-4.84054E+01-3.22551E+03 4.42212E+04-2.16460E-09 3.08319E-10
 -1       969-3.99046E+05-1.73659E+03-7.15808E+03 5.40671E+04 6.37510E-09 2.34729E-09
 -1       970-3.96240E+05-5.30126E+03-1.39122E+04 4.44096E+04 1.00026E-08 3.40697E-09
 -1       971-5.09021E+05 2.23032E+03-2.35996E+04 1.08524E+04-3.78895E-09 9.32232E-09
 -1       972-5.16477E+05-5.25894E+03-1.42228E+04 2.41764E+04-8.72569E-09-5.23050E-09
 -1       973-5.12299E+05 2.17051E+02-6.04589E+03 1.06870E+04-7.41420E-09-1.25783E-09
 -1       974-5.12993E+05-2.95051E+02-3.23524E+03 2.43839E+04 5.28757E-09 1.03930E-08
 -1       975-5.12608E+05 5.69301E+01-1.55336E+03 1.06422E+04 4.80031E-09 6.08657E-09
 -1       976-5.12711E+05 6.86732E+01-8.58476E+02 2.44511E+04-6.10953E-09 4.97676E-09
 -1       977-5.12653E+05 4.86901E+01-5.39940E+02 1.06192E+04 7.23639E-09 7.57598E-09
 -1       978-5.12703E+05 9.94958E+01-5.25609E+02 2.44824E+04 2.25147E-08 9.11314E-10
 -1       979-5.12653E+05 5.57750E+01-7.51665E+02 1.06107E+04 1.05334E-08-2.66266E-09
 -1       980-5.12770E+05 6.11993E+01-1.40771E+03 2.44843E+04 1.29589E-08 3.72978E-09
 -1       981-5.12590E+05 8.93220E+01-2.67031E+03 1.06173E+04-2.65982E-09 6.90335E-10
 -1       982-5.13321E+05-5.51895E+02-5.65005E+03 2.44535E+04-3.76417E-09 1.56194E-09
 -1       983-5.12072E+05 3.93455E+02-1.05800E+04 1.06423E+04 9.79071E-10-1.79307E-09
 -1       984-5.19501E+05-9.23072E+03-2.49410E+04 2.43142E+04-3.38628E-09 2.80852E-09
 -1       985-5.06349E+05 3.95476E+03-4.13663E+04 1.07636E+04 7.97900E-09 1.06957E-09
 -3
    1PSTEP                        23          12           1          
  100CL  112 9.15405E-01         568                     0   12           1
 -4  DISP        4    1
 -5  D1          1    2    1    0
 -5  D2          1    2    2    0
 -5  D3          1    2    3    0
 -5  ALL         1    2    0    0    1ALL
 -1         1 1.35029E-04 0.00000E+00 0.00000E+00
 -1         2 1.35063E-04 0.00000E+00 0.00000E+00
 -1         3 9.24510E-05-7.38990E-29 0.00000E+00
 -1         4 6.77873E-05-6.47852E-29 0.00000E+00
 -1         5 6.85937E-05-4.79108E-27 0.00000E+00
 -1         8 1.07439E-04-1.35503E-06 0.00000E+00
 -1         9 8.54606E-05-1.00856E-05 0.00000E+00
 -1        10 8.42720E-05-2.66571E-06 0.00000E+00
 -1        11 6.73699E-05-7.41154E-06 0.00000E+00
 -1        12 6.73811E-05 1.12139E-06 0.00000E+00
 -1        15 7.79478E-05-1.46301E-06 4.13590E-25
 -1        16 6.84878E-05-1.02616E-05 0.00000E+00
 -1        17 6.19218E-05-5.35277E-06 0.00000E+00
 -1        18 6.18418E-05-5.50650E-07 0.00000E+00
 -1        19 6.37585E-05 2.23459E-06 0.00000E+00
 -1        20 6.44414E-05 2.60638E-05 0.00000E+00
 -1        21 6.43807E-05 5.79321E-05 0.00000E+00
 -1        23 2.42098E-05-8.49597E-05-8.07794E-28
 -1        24 2.39617E-05-6.58694E-06 0.00000E+00
 -1        25 5.75727E-05-2.28251E-07 0.00000E+00
 -1        26 5.91480E-05 2.98338E-06 0.00000E+00
 -1        27 5.71120E-05 2.49655E-05 0.00000E+00
 -1        28 5.53851E-05 5.68453E-05 0.00000E+00
 -1        31 7.28505E-08-6.69679E-06 0.00000E+00
 -1        32 0.00000E+00 0.00000E+00 0.00000E+00
 -1        33 5.38943E-05 4.17721E-06 0.00000E+00
 -1        34 5.15596E-05 2.48714E-05 0.00000E+00
 -1        35 4.85421E-05 5.63841E-05 0.00000E+00
 -1        36 1.35015E-04 1.16106E-19-6.61744E-24
 -1        37 1.35017E-04 1.19990E-19-1.65436E-24
 -1        38 1.35019E-04-7.53330E-19 0.00000E+00
 -1        39 1.35023E-04-1.53027E-18 0.00000E+00
 -1        40 1.35027E-04-9.18097E-19-2.06795E-25
 -1        41 1.35032E-04 2.77884E-19-1.29247E-26
 -1        42 1.35036E-04 7.64720E-19 5.16988E-26
 -1        43 1.35041E-04 1.46545E-18 5.16988E-26
 -1        44 1.35046E-04 1.42263E-18 5.16988E-26
 -1        45 1.35051E-04 1.08883E-18-1.29247E-26
 -1        46 1.35056E-04 1.17139E-18 0.00000E+00
 -1        47 1.35061E-04 6.91757E-19-2.06795E-25
 -1        48 1.35065E-04-3.43470E-19 0.00000E+00
 -1        49 1.35067E-04-1.20669E-18 0.00000E+00
 -1        50 1.35071E-04-7.61931E-19 0.00000E+00
 -1        51 1.32946E-04-2.24471E-07 0.00000E+00
 -1        52 1.29493E-04-4.42832E-07 0.00000E+00
 -1        53 1.24937E-04-6.61854E-07 0.00000E+00
 -1        54 1.19556E-04-8.84213E-07 0.00000E+00
 -1        55 1.13629E-04-1.11212E-06-5.79026E-24
 -1        56 1.33270E-04-3.75027E-06-5.29396E-23
 -1        57 1.33325E-04-1.27324E-05 0.00000E+00
 -1        58 1.34790E-04-2.55593E-05 0.00000E+00
 -1        59 1.37026E-04-4.05810E-05 5.29396E-23
 -1        60 1.39290E-04-5.56795E-05 0.00000E+00
 -1        61 1.40814E-04-6.87382E-05 0.00000E+00
 -1        62 1.40977E-04-7.80639E-05 1.05879E-22
 -1        63 1.39249E-04-8.22628E-05 0.00000E+00
 -1        64 1.35475E-04-8.10024E-05-1.05879E-22
 -1        65 1.29662E-04-7.43792E-05 5.29396E-23
 -1        66 1.22243E-04-6.35917E-05 0.00000E+00
 -1        67 1.13799E-04-5.01588E-05-5.29396E-23
 -1        68 1.05126E-04-3.61414E-05 0.00000E+00
 -1        69 9.70637E-05-2.36373E-05 0.00000E+00
 -1        70 9.02819E-05-1.44528E-05-5.29396E-23
 -1        86 1.52105E-04-8.17129E-07 0.00000E+00
 -1        87 2.02540E-04-2.70075E-06 6.61744E-24
 -1        88 2.30008E-04-3.95803E-06 2.64698E-23
 -1        89 1.79089E-04-6.09829E-06 0.00000E+00
 -1        90 1.10445E-04-9.05978E-06 1.32349E-23
 -1       121 9.22210E-05-4.43250E-07-1.32349E-23
 -1       122 9.15321E-05-8.86689E-07 0.00000E+00
 -1       123 9.03871E-05-1.33052E-06 0.00000E+00
 -1       124 8.87906E-05-1.77489E-06 0.00000E+00
 -1       125 8.67494E-05-2.22003E-06-1.32349E-23
 -1       161 6.77908E-05-9.34298E-09 0.00000E+00
 -1       162 6.78013E-05-3.73383E-08-1.00974E-28
 -1       163 6.78165E-05-7.77301E-08 4.03897E-28
 -1       164 6.78339E-05-1.24262E-07 4.03897E-28
 -1       165 6.78513E-05-1.70676E-07 1.61559E-27
 -1       166 6.78664E-05-2.10716E-07-1.61559E-27
 -1       167 6.78766E-05-2.38126E-07 6.46235E-27
 -1       168 6.78799E-05-2.46647E-07 0.00000E+00
 -1       169 6.78737E-05-2.30021E-07-2.58494E-26
 -1       170 6.78557E-05-1.81979E-07 2.58494E-26
 -1       171 6.78237E-05-9.62725E-08 0.00000E+00
 -1       172 6.77754E-05 3.34456E-08 0.00000E+00
 -1       173 6.77084E-05 2.13351E-07 0.00000E+00
 -1       174 6.76215E-05 4.50232E-07 8.27181E-25
 -1       175 6.75105E-05 7.49774E-07-3.30872E-24
 -1       191 6.85600E-05 1.86954E-07-6.61744E-24
 -1       192 6.84588E-05 3.73900E-07 0.00000E+00
 -1       193 6.82902E-05 5.60836E-07 0.00000E+00
 -1       194 6.80542E-05 7.47749E-07 0.00000E+00
 -1       195 6.77509E-05 9.34619E-07 0.00000E+00
 -1       251 1.06434E-04 4.82405E-06 0.00000E+00
 -1       252 1.05397E-04 1.33031E-05 0.00000E+00
 -1       253 1.04368E-04 1.15423E-05 0.00000E+00
 -1       254 1.03070E-04-1.25187E-05 0.00000E+00
 -1       255 1.01903E-04-2.37263E-05 0.00000E+00
 -1       256 1.00188E-04 1.24015E-05-1.32349E-23
 -1       257 9.86794E-05 3.73298E-05 0.00000E+00
 -1       258 9.65456E-05-6.79109E-06-1.32349E-23
 -1       259 9.44340E-05-5.01472E-05 0.00000E+00
 -1       260 9.28616E-05-2.29725E-05-1.32349E-23
 -1       261 9.10829E-05 1.46015E-05 0.00000E+00
 -1       262 8.98853E-05 1.79895E-06 0.00000E+00
 -1       263 8.85402E-05-2.40453E-05 0.00000E+00
 -1       264 8.75070E-05-2.49045E-05 0.00000E+00
 -1       265 8.64601E-05-1.52590E-05 2.64698E-23
 -1       266 1.02524E-04-1.39220E-06-6.61744E-24
 -1       267 9.76087E-05-1.40785E-06 0.00000E+00
 -1       268 9.26935E-05-1.42489E-06 1.65436E-24
 -1       269 8.77783E-05-1.43787E-06 0.00000E+00
 -1       270 8.28631E-05-1.45077E-06 0.00000E+00
 -1       271 1.03584E-04 2.08396E-06 0.00000E+00
 -1       272 1.00099E-04 4.31676E-06 0.00000E+00
 -1       273 9.70275E-05 5.45883E-06-5.29396E-23
 -1       274 9.43144E-05 5.61676E-06-2.64698E-23
 -1       275 9.19193E-05 4.92476E-06-5.29396E-23
 -1       276 8.97846E-05 3.53203E-06-2.64698E-23
 -1       277 8.78503E-05 1.60249E-06 0.00000E+00
 -1       278 8.60508E-05-6.88482E-07 2.64698E-23
 -1       279 8.43181E-05-3.15831E-06-5.29396E-23
 -1       280 8.25827E-05-5.62035E-06 0.00000E+00
 -1       281 8.07752E-05-7.88828E-06-5.29396E-23
 -1       282 7.88287E-05-9.77981E-06 0.00000E+00
 -1       283 7.66772E-05-1.11205E-05 5.29396E-23
 -1       284 7.42677E-05-1.17453E-05 2.64698E-23
 -1       285 7.15331E-05-1.15096E-05 0.00000E+00
 -1       286 8.53702E-05-6.67218E-06 0.00000E+00
 -1       287 8.52931E-05-2.09053E-06 3.30872E-24
 -1       288 8.52158E-05 2.28265E-06 0.00000E+00
 -1       289 8.51473E-05 5.07172E-06 1.65436E-24
 -1       290 8.50822E-05 5.65402E-06 0.00000E+00
 -1       291 8.50155E-05 3.41324E-06 0.00000E+00
 -1       292 8.49427E-05-9.18411E-07-1.65436E-24
 -1       293 8.48634E-05-6.60274E-06 0.00000E+00
 -1       294 8.47843E-05-1.22524E-05 0.00000E+00
 -1       295 8.47118E-05-1.64803E-05 8.27181E-25
 -1       296 8.46455E-05-1.85812E-05-1.65436E-24
 -1       297 8.45805E-05-1.78563E-05 0.00000E+00
 -1       298 8.45119E-05-1.49563E-05-3.30872E-24
 -1       299 8.44351E-05-1.05381E-05 1.65436E-24
 -1       300 8.43587E-05-5.98121E-06-6.61744E-24
 -1       301 8.25877E-05-1.01250E-05 0.00000E+00
 -1       302 7.97098E-05-1.01434E-05 0.00000E+00
 -1       303 7.68440E-05-1.01592E-05 0.00000E+00
 -1       304 7.40071E-05-1.01768E-05 0.00000E+00
 -1       305 7.12162E-05-1.02005E-05-1.32349E-23
 -1       306 8.34151E-05-8.17917E-06 0.00000E+00
 -1       307 8.16572E-05-7.12437E-06 0.00000E+00
 -1       308 8.01712E-05-6.79018E-06-2.64698E-23
 -1       309 7.89032E-05-7.04963E-06 0.00000E+00
 -1       310 7.78063E-05-7.76662E-06 0.00000E+00
 -1       311 7.68276E-05-8.80123E-06 1.32349E-23
 -1       312 7.59139E-05-1.00100E-05 2.64698E-23
 -1       313 7.50108E-05-1.12477E-05 0.00000E+00
 -1       314 7.40641E-05-1.23686E-05 0.00000E+00
 -1       315 7.30199E-05-1.32285E-05-1.32349E-23
 -1       316 7.18249E-05-1.36859E-05 0.00000E+00
 -1       317 7.04286E-05-1.36036E-05 0.00000E+00
 -1       318 6.87806E-05-1.28504E-05 0.00000E+00
 -1       319 6.68391E-05-1.13006E-05 1.32349E-23
 -1       320 6.45530E-05-8.84123E-06 0.00000E+00
 -1       336 8.13689E-05-3.11241E-06 0.00000E+00
 -1       337 7.80803E-05-3.56043E-06 0.00000E+00
 -1       338 7.44475E-05-4.00941E-06 1.32349E-23
 -1       339 7.05137E-05-4.45847E-06 6.61744E-24
 -1       340 6.63234E-05-4.90866E-06 1.32349E-23
 -1       356 6.73698E-05-6.85540E-06 0.00000E+00
 -1       357 6.73696E-05-6.28986E-06-2.01948E-28
 -1       358 6.73695E-05-5.71759E-06 0.00000E+00
 -1       359 6.73693E-05-5.14125E-06-8.07794E-28
 -1       360 6.73692E-05-4.56351E-06-3.23117E-27
 -1       361 6.73690E-05-3.98703E-06-3.23117E-27
 -1       362 6.73689E-05-3.41448E-06 0.00000E+00
 -1       363 6.73687E-05-2.84853E-06 0.00000E+00
 -1       364 6.73686E-05-2.29184E-06 0.00000E+00
 -1       365 6.73686E-05-1.74708E-06-5.16988E-26
 -1       366 6.73686E-05-1.21692E-06-2.06795E-25
 -1       367 6.73689E-05-7.04008E-07 0.00000E+00
 -1       368 6.73692E-05-2.11035E-07 0.00000E+00
 -1       369 6.73710E-05 2.59329E-07-8.27181E-25
 -1       370 6.73723E-05 7.04376E-07 0.00000E+00
 -1       376 6.71648E-05-6.86482E-06 1.00974E-28
 -1       377 6.69631E-05-6.32740E-06 0.00000E+00
 -1       378 6.67635E-05-5.79567E-06-2.01948E-28
 -1       379 6.65648E-05-5.26606E-06-2.01948E-28
 -1       380 6.63655E-05-4.73497E-06 8.07794E-28
 -1       381 6.61642E-05-4.19882E-06 0.00000E+00
 -1       382 6.59598E-05-3.65400E-06 3.23117E-27
 -1       383 6.57507E-05-3.09694E-06 3.23117E-27
 -1       384 6.55357E-05-2.52404E-06 2.58494E-26
 -1       385 6.53134E-05-1.93169E-06 2.58494E-26
 -1       386 6.50825E-05-1.31633E-06 0.00000E+00
 -1       387 6.48418E-05-6.74286E-07 0.00000E+00
 -1       388 6.45897E-05-2.03934E-09 4.13590E-25
 -1       389 6.43258E-05 7.04329E-07 0.00000E+00
 -1       390 6.40475E-05 1.44803E-06 1.65436E-24
 -1       406 6.69451E-05 1.30811E-06 0.00000E+00
 -1       407 6.64426E-05 1.49479E-06 0.00000E+00
 -1       408 6.58726E-05 1.68131E-06 0.00000E+00
 -1       409 6.52352E-05 1.86737E-06 0.00000E+00
 -1       410 6.45303E-05 2.05251E-06-6.61744E-24
 -1       501 6.83075E-05 4.10785E-08 1.32349E-23
 -1       502 6.78985E-05 2.55839E-05 3.30872E-24
 -1       503 6.73961E-05 5.48509E-05 0.00000E+00
 -1       504 6.70908E-05 7.63216E-05 0.00000E+00
 -1       505 6.69662E-05 8.33018E-05 0.00000E+00
 -1       506 6.67704E-05 6.91567E-05 1.65436E-24
 -1       507 6.62230E-05 3.81758E-05 0.00000E+00
 -1       508 6.52288E-05-5.28275E-06 0.00000E+00
 -1       509 6.42144E-05-4.92507E-05 0.00000E+00
 -1       510 6.36217E-05-8.17582E-05-1.65436E-24
 -1       511 6.33971E-05-9.78969E-05 0.00000E+00
 -1       512 6.32848E-05-9.28241E-05 1.65436E-24
 -1       513 6.30057E-05-7.26356E-05 0.00000E+00
 -1       514 6.25120E-05-4.34891E-05 1.65436E-24
 -1       515 6.20884E-05-1.71442E-05 0.00000E+00
 -1       521 6.53473E-05-8.89244E-06-5.29396E-23
 -1       522 6.24204E-05-8.28320E-06-2.64698E-23
 -1       523 5.97332E-05-8.30678E-06 5.29396E-23
 -1       524 5.72306E-05-8.84955E-06-2.64698E-23
 -1       525 5.48724E-05-9.78062E-06-5.29396E-23
 -1       526 5.26068E-05-1.09635E-05 0.00000E+00
 -1       527 5.03818E-05-1.22559E-05 5.29396E-23
 -1       528 4.81436E-05-1.35137E-05 0.00000E+00
 -1       529 4.58386E-05-1.45931E-05 0.00000E+00
 -1       530 4.34146E-05-1.53547E-05-2.64698E-23
 -1       531 4.08217E-05-1.56652E-05 5.29396E-23
 -1       532 3.80146E-05-1.54014E-05 0.00000E+00
 -1       533 3.49505E-05-1.44523E-05 0.00000E+00
 -1       534 3.16010E-05-1.27190E-05 0.00000E+00
 -1       535 2.79243E-05-1.01253E-05 0.00000E+00
 -1       536 6.18974E-05-1.39135E-06 0.00000E+00
 -1       537 6.18878E-05 1.62203E-06 0.00000E+00
 -1       538 6.18801E-05 3.78532E-06 0.00000E+00
 -1       539 6.18755E-05 5.19728E-06-1.65436E-24
 -1       540 6.18718E-05 5.95650E-06 0.00000E+00
 -1       541 6.18688E-05 6.16162E-06 0.00000E+00
 -1       542 6.18658E-05 5.91133E-06 0.00000E+00
 -1       543 6.18629E-05 5.30430E-06 0.00000E+00
 -1       544 6.18597E-05 4.43924E-06 0.00000E+00
 -1       545 6.18565E-05 3.41483E-06 1.03398E-25
 -1       546 6.18532E-05 2.32978E-06-1.93870E-26
 -1       547 6.18500E-05 1.28281E-06 0.00000E+00
 -1       548 6.18470E-05 3.72605E-07 0.00000E+00
 -1       549 6.18445E-05-3.02145E-07 0.00000E+00
 -1       550 6.18421E-05-6.42686E-07-8.27181E-25
 -1       551 5.62797E-05-5.54947E-06 1.65436E-24
 -1       552 4.99551E-05-5.74564E-06 2.48154E-24
 -1       553 4.32521E-05-5.94415E-06 0.00000E+00
 -1       554 3.64800E-05-6.14606E-06 0.00000E+00
 -1       555 2.99481E-05-6.35227E-06 0.00000E+00
 -1       556 6.03343E-05-1.57035E-06 0.00000E+00
 -1       557 5.90853E-05 1.33855E-06-6.61744E-24
 -1       558 5.81369E-05 3.45544E-06 0.00000E+00
 -1       559 5.74545E-05 4.86949E-06 0.00000E+00
 -1       560 5.70034E-05 5.66992E-06 0.00000E+00
 -1       561 5.67493E-05 5.94668E-06 0.00000E+00
 -1       562 5.66580E-05 5.78984E-06 0.00000E+00
 -1       563 5.66955E-05 5.28964E-06 0.00000E+00
 -1       564 5.68278E-05 4.53642E-06 0.00000E+00
 -1       565 5.70211E-05 3.62055E-06-3.30872E-24
 -1       566 5.72414E-05 2.63247E-06-3.30872E-24
 -1       567 5.74550E-05 1.66266E-06 1.65436E-24
 -1       568 5.76280E-05 8.01526E-07 2.99853E-24
 -1       569 5.77270E-05 1.39413E-07-8.27181E-25
 -1       570 5.77184E-05-2.33430E-07 0.00000E+00
 -1       571 6.19573E-05-3.13522E-07-2.89513E-24
 -1       572 6.20759E-05-1.56925E-07-8.27181E-25
 -1       573 6.21956E-05-6.61041E-08 3.30872E-24
 -1       574 6.23156E-05-2.55556E-08 8.27181E-25
 -1       575 6.24358E-05-1.97129E-08-3.30872E-24
 -1       576 6.25561E-05-3.29100E-08 1.65436E-24
 -1       577 6.26765E-05-4.94737E-08 3.30872E-24
 -1       578 6.27968E-05-5.37172E-08 0.00000E+00
 -1       579 6.29172E-05-2.99528E-08 6.61744E-24
 -1       580 6.30375E-05 3.75088E-08 3.30872E-24
 -1       581 6.31578E-05 1.64355E-07 0.00000E+00
 -1       582 6.32781E-05 3.66261E-07 6.61744E-24
 -1       583 6.33984E-05 6.58887E-07 6.61744E-24
 -1       584 6.35186E-05 1.05774E-06 0.00000E+00
 -1       585 6.36387E-05 1.57823E-06 0.00000E+00
 -1       586 6.12370E-05-4.95813E-07 0.00000E+00
 -1       587 6.05356E-05-4.40713E-07 0.00000E+00
 -1       588 5.97776E-05-3.85711E-07-1.65436E-24
 -1       589 5.90040E-05-3.31204E-07 2.06795E-25
 -1       590 5.82556E-05-2.77766E-07 0.00000E+00
 -1       591 6.16574E-05-2.68993E-07 0.00000E+00
 -1       592 6.14880E-05-4.39195E-08 8.27181E-25
 -1       593 6.13346E-05 1.35989E-07 0.00000E+00
 -1       594 6.11936E-05 2.80914E-07-1.65436E-24
 -1       595 6.10618E-05 4.01068E-07 0.00000E+00
 -1       596 6.09354E-05 5.06586E-07-8.27181E-25
 -1       597 6.08106E-05 6.07590E-07 1.65436E-24
 -1       598 6.06837E-05 7.14191E-07-8.27181E-25
 -1       599 6.05509E-05 8.36503E-07 0.00000E+00
 -1       600 6.04084E-05 9.84633E-07-8.27181E-25
 -1       601 6.02525E-05 1.16869E-06 0.00000E+00
 -1       602 6.00794E-05 1.39878E-06 4.13590E-25
 -1       603 5.98854E-05 1.68504E-06 0.00000E+00
 -1       604 5.96671E-05 2.03762E-06-7.23783E-25
 -1       605 5.94211E-05 2.46670E-06 0.00000E+00
 -1       606 6.38061E-05 3.13431E-06 6.61744E-24
 -1       607 6.38506E-05 4.14815E-06 0.00000E+00
 -1       608 6.38940E-05 5.26937E-06-6.61744E-24
 -1       609 6.39370E-05 6.49030E-06 0.00000E+00
 -1       610 6.39796E-05 7.80321E-06 6.61744E-24
 -1       611 6.40222E-05 9.20023E-06 0.00000E+00
 -1       612 6.40645E-05 1.06735E-05 0.00000E+00
 -1       613 6.41068E-05 1.22151E-05-1.65436E-24
 -1       614 6.41490E-05 1.38172E-05 0.00000E+00
 -1       615 6.41911E-05 1.54719E-05 0.00000E+00
 -1       616 6.42331E-05 1.71714E-05 0.00000E+00
 -1       617 6.42750E-05 1.89077E-05 0.00000E+00
 -1       618 6.43169E-05 2.06729E-05 0.00000E+00
 -1       619 6.43587E-05 2.24593E-05 0.00000E+00
 -1       620 6.44003E-05 2.42589E-05 0.00000E+00
 -1       621 6.29274E-05 2.36013E-06 0.00000E+00
 -1       622 6.21060E-05 2.48604E-06-1.65436E-24
 -1       623 6.13058E-05 2.61191E-06 0.00000E+00
 -1       624 6.05384E-05 2.73742E-06 0.00000E+00
 -1       625 5.98154E-05 2.86227E-06-1.65436E-24
 -1       626 6.35182E-05 3.19333E-06 0.00000E+00
 -1       627 6.32322E-05 4.27207E-06 0.00000E+00
 -1       628 6.29052E-05 5.45934E-06 0.00000E+00
 -1       629 6.25421E-05 6.74251E-06 6.61744E-24
 -1       630 6.21476E-05 8.10892E-06 0.00000E+00
 -1       631 6.17266E-05 9.54574E-06 0.00000E+00
 -1       632 6.12839E-05 1.10402E-05-6.61744E-24
 -1       633 6.08244E-05 1.25794E-05 0.00000E+00
 -1       634 6.03528E-05 1.41505E-05 3.30872E-24
 -1       635 5.98740E-05 1.57408E-05 1.65436E-24
 -1       636 5.93927E-05 1.73374E-05-3.30872E-24
 -1       637 5.89139E-05 1.89275E-05 0.00000E+00
 -1       638 5.84422E-05 2.04983E-05 1.65436E-24
 -1       639 5.79821E-05 2.20368E-05-1.65436E-24
 -1       640 5.75381E-05 2.35303E-05-8.27181E-25
 -1       641 6.44402E-05 2.78837E-05 0.00000E+00
 -1       642 6.44374E-05 2.98039E-05-1.03398E-25
 -1       643 6.44346E-05 3.18084E-05 0.00000E+00
 -1       644 6.44313E-05 3.38813E-05-1.29247E-26
 -1       645 6.44280E-05 3.60056E-05 0.00000E+00
 -1       646 6.44245E-05 3.81647E-05 0.00000E+00
 -1       647 6.44210E-05 4.03413E-05 0.00000E+00
 -1       648 6.44174E-05 4.25184E-05 2.58494E-26
 -1       649 6.44139E-05 4.46787E-05 0.00000E+00
 -1       650 6.44104E-05 4.68050E-05 0.00000E+00
 -1       651 6.44069E-05 4.88807E-05 2.06795E-25
 -1       652 6.44033E-05 5.08889E-05 0.00000E+00
 -1       653 6.43999E-05 5.28136E-05 8.27181E-25
 -1       654 6.43953E-05 5.46388E-05 8.27181E-25
 -1       655 6.43913E-05 5.63499E-05 0.00000E+00
 -1       656 6.28619E-05 2.58862E-05 0.00000E+00
 -1       657 6.15601E-05 2.57000E-05 0.00000E+00
 -1       658 6.04354E-05 2.55145E-05 0.00000E+00
 -1       659 5.93867E-05 2.53289E-05 1.65436E-24
 -1       660 5.83126E-05 2.51430E-05 0.00000E+00
 -1       661 6.38950E-05 2.79232E-05 3.30872E-24
 -1       662 6.33292E-05 2.98479E-05 0.00000E+00
 -1       663 6.27439E-05 3.18242E-05-3.30872E-24
 -1       664 6.21442E-05 3.38405E-05 0.00000E+00
 -1       665 6.15340E-05 3.58850E-05 0.00000E+00
 -1       666 6.09179E-05 3.79457E-05 1.65436E-24
 -1       667 6.03000E-05 4.00109E-05 3.30872E-24
 -1       668 5.96850E-05 4.20688E-05 0.00000E+00
 -1       669 5.90771E-05 4.41076E-05 0.00000E+00
 -1       670 5.84808E-05 4.61155E-05 0.00000E+00
 -1       671 5.79006E-05 4.80808E-05 0.00000E+00
 -1       672 5.73408E-05 4.99914E-05 0.00000E+00
 -1       673 5.68058E-05 5.18355E-05-3.30872E-24
 -1       674 5.62993E-05 5.36008E-05 0.00000E+00
 -1       675 5.58269E-05 5.52757E-05 0.00000E+00
 -1       676 6.28632E-05 5.77498E-05-6.61744E-24
 -1       677 6.13488E-05 5.75671E-05 3.30872E-24
 -1       678 5.98407E-05 5.73847E-05 0.00000E+00
 -1       679 5.83420E-05 5.72030E-05 0.00000E+00
 -1       680 5.68558E-05 5.70213E-05 0.00000E+00
 -1       716 2.41982E-05-8.00614E-05-8.07794E-28
 -1       717 2.41867E-05-7.51631E-05 0.00000E+00
 -1       718 2.41752E-05-7.02648E-05 3.23117E-27
 -1       719 2.41637E-05-6.53665E-05 0.00000E+00
 -1       720 2.41521E-05-6.04681E-05 1.29247E-26
 -1       721 2.41406E-05-5.55698E-05-1.29247E-26
 -1       722 2.41290E-05-5.06715E-05 0.00000E+00
 -1       723 2.41174E-05-4.57732E-05 0.00000E+00
 -1       724 2.41057E-05-4.08748E-05 2.06795E-25
 -1       725 2.40938E-05-3.59766E-05 0.00000E+00
 -1       726 2.40816E-05-3.10782E-05 0.00000E+00
 -1       727 2.40681E-05-2.61799E-05 0.00000E+00
 -1       728 2.40544E-05-2.12816E-05-3.30872E-24
 -1       729 2.40339E-05-1.63833E-05 0.00000E+00
 -1       730 2.40157E-05-1.14850E-05 0.00000E+00
 -1       766 1.91786E-05-6.64037E-06 1.32349E-23
 -1       767 1.46259E-05-6.65704E-06 0.00000E+00
 -1       768 1.03714E-05-6.67473E-06-3.30872E-24
 -1       769 6.48324E-06-6.68420E-06 0.00000E+00
 -1       770 3.02817E-06-6.69186E-06 0.00000E+00
 -1       771 2.11667E-05-2.69753E-06 0.00000E+00
 -1       772 1.86632E-05 3.84482E-07 0.00000E+00
 -1       773 1.64366E-05 2.72903E-06 0.00000E+00
 -1       774 1.44599E-05 4.40853E-06 0.00000E+00
 -1       775 1.27060E-05 5.49610E-06 0.00000E+00
 -1       776 1.11468E-05 6.06603E-06 2.64698E-23
 -1       777 9.75406E-06 6.19315E-06 0.00000E+00
 -1       778 8.49923E-06 5.95304E-06-2.64698E-23
 -1       779 7.35371E-06 5.42171E-06 0.00000E+00
 -1       780 6.28876E-06 4.67564E-06 0.00000E+00
 -1       781 5.27562E-06 3.79157E-06 0.00000E+00
 -1       782 4.28560E-06 2.84653E-06 0.00000E+00
 -1       783 3.28997E-06 1.91758E-06 0.00000E+00
 -1       784 2.26082E-06 1.08192E-06 0.00000E+00
 -1       785 1.17005E-06 4.16556E-07 2.64698E-23
 -1       786 5.76651E-05 1.67062E-07 8.27181E-25
 -1       787 5.77633E-05 4.64836E-07 0.00000E+00
 -1       788 5.78614E-05 6.80502E-07 0.00000E+00
 -1       789 5.79604E-05 8.29478E-07-1.65436E-24
 -1       790 5.80595E-05 9.27111E-07 3.30872E-24
 -1       791 5.81588E-05 9.88704E-07 1.65436E-24
 -1       792 5.82582E-05 1.02953E-06 0.00000E+00
 -1       793 5.83576E-05 1.06483E-06 0.00000E+00
 -1       794 5.84569E-05 1.10986E-06 3.30872E-24
 -1       795 5.85563E-05 1.17987E-06 0.00000E+00
 -1       796 5.86557E-05 1.29014E-06 0.00000E+00
 -1       797 5.87549E-05 1.45598E-06 0.00000E+00
 -1       798 5.88541E-05 1.69275E-06 0.00000E+00
 -1       799 5.89529E-05 2.01589E-06 1.65436E-24
 -1       800 5.90517E-05 2.44092E-06 0.00000E+00
 -1       801 5.27537E-05-1.49435E-07 0.00000E+00
 -1       802 4.21594E-05-1.03395E-07 0.00000E+00
 -1       803 2.86871E-05-8.72554E-08 0.00000E+00
 -1       804 1.52369E-05-7.64830E-08 0.00000E+00
 -1       805 4.70840E-06-3.57199E-08-1.32349E-23
 -1       806 5.73190E-05 1.22852E-07 3.30872E-24
 -1       807 5.70805E-05 4.23544E-07 0.00000E+00
 -1       808 5.68567E-05 6.82752E-07-3.30872E-24
 -1       809 5.66448E-05 9.09087E-07 0.00000E+00
 -1       810 5.64418E-05 1.11114E-06 0.00000E+00
 -1       811 5.62447E-05 1.29747E-06 0.00000E+00
 -1       812 5.60502E-05 1.47664E-06-3.30872E-24
 -1       813 5.58552E-05 1.65721E-06 0.00000E+00
 -1       814 5.56564E-05 1.84774E-06-3.30872E-24
 -1       815 5.54507E-05 2.05676E-06-8.27181E-25
 -1       816 5.52349E-05 2.29284E-06 3.30872E-24
 -1       817 5.50057E-05 2.56452E-06 0.00000E+00
 -1       818 5.47600E-05 2.88034E-06-1.65436E-24
 -1       819 5.44947E-05 3.24879E-06 0.00000E+00
 -1       820 5.42068E-05 3.67837E-06 0.00000E+00
 -1       821 5.90284E-05 3.69016E-06 0.00000E+00
 -1       822 5.89017E-05 4.57405E-06 0.00000E+00
 -1       823 5.87749E-05 5.61669E-06 0.00000E+00
 -1       824 5.86469E-05 6.79939E-06 0.00000E+00
 -1       825 5.85186E-05 8.10334E-06 0.00000E+00
 -1       826 5.83900E-05 9.50958E-06 0.00000E+00
 -1       827 5.82612E-05 1.09990E-05 0.00000E+00
 -1       828 5.81323E-05 1.25524E-05-1.65436E-24
 -1       829 5.80033E-05 1.41505E-05-3.30872E-24
 -1       830 5.78743E-05 1.57740E-05-1.65436E-24
 -1       831 5.77453E-05 1.74036E-05 0.00000E+00
 -1       832 5.76166E-05 1.90198E-05 0.00000E+00
 -1       833 5.74880E-05 2.06034E-05 3.30872E-24
 -1       834 5.73605E-05 2.21350E-05-1.65436E-24
 -1       835 5.72330E-05 2.35954E-05 0.00000E+00
 -1       836 5.84026E-05 3.17943E-06-3.30872E-24
 -1       837 5.75015E-05 3.38205E-06 1.65436E-24
 -1       838 5.65222E-05 3.58434E-06 0.00000E+00
 -1       839 5.55428E-05 3.78591E-06 1.65436E-24
 -1       840 5.46409E-05 3.98757E-06 0.00000E+00
 -1       841 5.89023E-05 3.74614E-06-8.27181E-25
 -1       842 5.85511E-05 4.78888E-06-4.13590E-25
 -1       843 5.81256E-05 6.02918E-06 0.00000E+00
 -1       844 5.76566E-05 7.38487E-06 4.13590E-25
 -1       845 5.71571E-05 8.82148E-06 0.00000E+00
 -1       846 5.66401E-05 1.03046E-05 0.00000E+00
 -1       847 5.61113E-05 1.18191E-05-8.27181E-25
 -1       848 5.55764E-05 1.33498E-05 4.13590E-25
 -1       849 5.50387E-05 1.48880E-05 8.27181E-25
 -1       850 5.45014E-05 1.64249E-05 0.00000E+00
 -1       851 5.39679E-05 1.79518E-05-8.27181E-25
 -1       852 5.34414E-05 1.94594E-05 0.00000E+00
 -1       853 5.29284E-05 2.09311E-05 0.00000E+00
 -1       854 5.24344E-05 2.23496E-05-1.03398E-25
 -1       855 5.19752E-05 2.36766E-05 8.27181E-25
 -1       856 5.70110E-05 2.64028E-05-1.65436E-24
 -1       857 5.69040E-05 2.80434E-05 0.00000E+00
 -1       858 5.67966E-05 2.98599E-05 3.30872E-24
 -1       859 5.66883E-05 3.18248E-05-1.65436E-24
 -1       860 5.65795E-05 3.39103E-05 3.30872E-24
 -1       861 5.64704E-05 3.60885E-05 0.00000E+00
 -1       862 5.63612E-05 3.83317E-05-3.30872E-24
 -1       863 5.62518E-05 4.06121E-05 0.00000E+00
 -1       864 5.61424E-05 4.29016E-05 3.30872E-24
 -1       865 5.60330E-05 4.51724E-05-1.65436E-24
 -1       866 5.59238E-05 4.73966E-05-3.30872E-24
 -1       867 5.58148E-05 4.95463E-05 0.00000E+00
 -1       868 5.57060E-05 5.15938E-05 3.30872E-24
 -1       869 5.55979E-05 5.35112E-05 0.00000E+00
 -1       870 5.54900E-05 5.52708E-05-3.30872E-24
 -1       871 5.60155E-05 2.49526E-05 0.00000E+00
 -1       872 5.50584E-05 2.49381E-05 0.00000E+00
 -1       873 5.41879E-05 2.49232E-05 0.00000E+00
 -1       874 5.33503E-05 2.49077E-05 0.00000E+00
 -1       875 5.24919E-05 2.48914E-05 8.27181E-25
 -1       876 5.67541E-05 2.64384E-05 0.00000E+00
 -1       877 5.63437E-05 2.80707E-05-3.30872E-24
 -1       878 5.58818E-05 2.98401E-05 0.00000E+00
 -1       879 5.53766E-05 3.17271E-05 0.00000E+00
 -1       880 5.48347E-05 3.37117E-05-6.61744E-24
 -1       881 5.42637E-05 3.57741E-05 0.00000E+00
 -1       882 5.36706E-05 3.78949E-05 0.00000E+00
 -1       883 5.30630E-05 4.00545E-05 0.00000E+00
 -1       884 5.24480E-05 4.22334E-05 0.00000E+00
 -1       885 5.18332E-05 4.44122E-05 3.30872E-24
 -1       886 5.12256E-05 4.65713E-05-6.61744E-24
 -1       887 5.06326E-05 4.86913E-05-3.30872E-24
 -1       888 5.00614E-05 5.07525E-05 6.61744E-24
 -1       889 4.95187E-05 5.27352E-05-1.65436E-24
 -1       890 4.90127E-05 5.46200E-05-1.65436E-24
 -1       891 5.41165E-05 5.67689E-05 0.00000E+00
 -1       892 5.30569E-05 5.66915E-05-8.27181E-25
 -1       893 5.20882E-05 5.66142E-05-1.65436E-24
 -1       894 5.10917E-05 5.65370E-05-8.27181E-25
 -1       895 4.99490E-05 5.64596E-05 8.27181E-25
 -1       926 6.93997E-08-4.24881E-06-2.06795E-25
 -1       927 6.74922E-08-2.31498E-06-5.16988E-26
 -1       928 6.63127E-08-8.43219E-07 5.16988E-26
 -1       929 6.57158E-08 2.18639E-07 0.00000E+00
 -1       930 6.54232E-08 9.22803E-07-2.58494E-26
 -1       931 6.52946E-08 1.32149E-06 0.00000E+00
 -1       932 6.52186E-08 1.46696E-06 0.00000E+00
 -1       933 6.50900E-08 1.41151E-06-5.16988E-26
 -1       934 6.48832E-08 1.20741E-06 0.00000E+00
 -1       935 6.43606E-08 9.06979E-07-2.06795E-25
 -1       936 6.36535E-08 5.62513E-07-8.27181E-25
 -1       937 6.15574E-08 2.26322E-07 8.27181E-25
 -1       938 5.92824E-08-4.94746E-08 0.00000E+00
 -1       939 5.00910E-08-2.12733E-07 0.00000E+00
 -1       940 4.32450E-08-2.13070E-07 0.00000E+00
 -1       956 5.37521E-05 4.91407E-06-3.30872E-24
 -1       957 5.36069E-05 5.80901E-06 0.00000E+00
 -1       958 5.34612E-05 6.84496E-06 3.30872E-24
 -1       959 5.33150E-05 8.00382E-06-8.27181E-25
 -1       960 5.31686E-05 9.26750E-06 0.00000E+00
 -1       961 5.30221E-05 1.06178E-05 0.00000E+00
 -1       962 5.28754E-05 1.20364E-05 0.00000E+00
 -1       963 5.27287E-05 1.35052E-05 1.65436E-24
 -1       964 5.25819E-05 1.50059E-05 3.30872E-24
 -1       965 5.24351E-05 1.65202E-05 0.00000E+00
 -1       966 5.22883E-05 1.80299E-05 0.00000E+00
 -1       967 5.21416E-05 1.95167E-05 0.00000E+00
 -1       968 5.19951E-05 2.09623E-05 0.00000E+00
 -1       969 5.18488E-05 2.23487E-05 0.00000E+00
 -1       970 5.17031E-05 2.36576E-05 6.61744E-24
 -1       971 5.13758E-05 2.61228E-05 0.00000E+00
 -1       972 5.11877E-05 2.75967E-05-1.65436E-24
 -1       973 5.09992E-05 2.92666E-05 0.00000E+00
 -1       974 5.08100E-05 3.11054E-05 3.30872E-24
 -1       975 5.06203E-05 3.30860E-05 6.61744E-24
 -1       976 5.04304E-05 3.51811E-05 0.00000E+00
 -1       977 5.02402E-05 3.73633E-05 0.00000E+00
 -1       978 5.00499E-05 3.96050E-05 0.00000E+00
 -1       979 4.98596E-05 4.18789E-05 0.00000E+00
 -1       980 4.96692E-05 4.41573E-05 0.00000E+00
 -1       981 4.94790E-05 4.64128E-05 0.00000E+00
 -1       982 4.92891E-05 4.86177E-05 0.00000E+00
 -1       983 4.90995E-05 5.07446E-05 0.00000E+00
 -1       984 4.89110E-05 5.27662E-05 0.00000E+00
 -1       985 4.87229E-05 5.46550E-05-3.30872E-24
 -3
    1PSTEP                        24          12           1          
  100CL  112 9.15405E-01         568                     0   12           1
 -4  STRESS      6    1
 -5  SXX         1    4    1    1
 -5  SYY         1    4    2    2
 -5  SZZ         1    4    3    3
 -5  SXY         1    4    1    2
 -5  SYZ         1    4    2    3
 -5  SZX         1    4    3    1
 -1         1-2.45663E+06-1.00263E+06-4.82391E+05-1.31359E+06 1.64922E-09 5.62674E-09
 -1         2 4.28748E+03-3.25689E+05 7.81142E+04 2.11248E+05 2.30175E-08 8.86393E-09
 -1         3-8.66190E+01-1.26647E+06-1.65626E+02-5.99570E+02 1.15047E-09-4.12638E-09
 -1         4 1.23974E+01-1.32924E+01-1.36704E+00-1.53019E+01 1.82164E-08 8.01049E-09
 -1         5-3.12886E+01 5.35131E+05 2.86672E+01-4.04863E+00 4.63942E-10 2.02272E-09
 -1         8-2.09076E+06-7.30778E+05-2.60505E+05-8.47858E+05 1.20053E-10 8.25821E-09
 -1         9-2.18934E+06-5.76535E+05-2.65678E+05-5.72348E+05-4.46623E-09 3.72529E-09
 -1        10-5.25065E+04-7.53697E+05 8.64374E+04-6.84176E+03-7.58193E-09-3.72192E-10
 -1        11 3.09057E+00-5.66600E+00-2.01953E+00 8.97118E-01 2.44653E-09-7.47163E-10
 -1        12-1.24340E+04 2.02681E+05-6.79150E+04 9.74054E+03 1.22734E-08-6.18911E-09
 -1        15 3.32738E+03 1.79938E+03 1.03267E+04 7.21032E+00-1.26818E-10 1.86305E-08
 -1        16-2.86176E+06-7.54757E+05-2.25343E+05-9.77193E+05 2.32603E-10 1.14960E-09
 -1        17-5.44478E+05-4.27770E+05-3.69409E+04-3.90060E+05-6.87942E-09-3.97025E-09
 -1        18 3.82493E+04 1.32428E+04-1.61817E+04-1.14595E+05 4.22460E-10 3.30783E-09
 -1        19 1.20271E+05 1.40997E+05-1.42249E+04 1.42275E+04 3.88112E-09-2.93949E-09
 -1        20 7.88346E+04-1.11731E+05-2.51355E+04 5.56942E+04 4.66002E-09-3.17641E-09
 -1        21 2.89923E+03-1.97653E+05 5.90154E+04-6.30740E+02 2.80154E-08-1.48665E-09
 -1        23 8.05873E-01 3.83923E-01 1.47633E+01 1.98384E-03-3.27255E-09 4.13316E-09
 -1        24-1.54603E+06-4.61592E+05 1.03279E+05-8.22383E+05-8.60600E-09 4.15603E-09
 -1        25 6.04788E+03 5.28454E+04 2.82080E+04-4.84443E+05 1.40753E-09-2.00816E-09
 -1        26-1.28528E+03 1.29487E+05 2.70795E+03-2.29072E+04-1.22049E-09 4.92700E-09
 -1        27-3.15980E+04-8.34771E+04-3.72586E+04 9.22745E+04 7.11619E-09-1.11080E-09
 -1        28-1.51897E+04-1.55640E+05-7.82022E+03 5.69033E+04 1.30376E-08-4.20380E-09
 -1        31 5.21792E+03 5.99920E+03 8.79086E+03-2.16401E+02 5.03034E-09-2.14061E-09
 -1        32-6.72543E+05 1.33856E+05 4.00447E+05-9.90046E+05-4.45496E-09 5.09317E-10
 -1        33-1.54280E+05 1.59929E+05 4.87840E+04-4.82048E+04 7.38207E-11 3.08501E-09
 -1        34-1.98276E+05-1.02755E+04 1.31187E+04 6.64762E+04 2.65288E-10-1.27673E-08
 -1        35-3.87446E+04-4.43170E+04-1.49521E+03 8.98162E+04 5.88804E-09 1.27329E-10
 -1        36-5.04125E+03-4.21762E+04 9.72902E+04-1.21840E-07 1.30697E-09-6.03177E-09
 -1        37 3.72149E+04 4.88207E+04 6.88633E+04 1.24150E-06-5.74194E-10-1.86437E-08
 -1        38 1.12144E+04-6.63180E+03 2.51791E+04 6.03670E-07-2.74808E-10 2.57387E-09
 -1        39 1.82557E+04 7.67391E+03 1.58513E+04 1.76053E-06 1.10852E-10 5.82077E-09
 -1        40 1.39042E+04-1.04054E+03 6.47377E+03-8.82937E-07-1.06965E-10-4.18368E-09
 -1        41 1.51197E+04 1.21849E+03 3.86701E+03 3.07817E-07-8.64533E-11 2.59263E-09
 -1        42 1.43498E+04-1.77762E+02 1.88379E+03 3.65084E-07 2.16865E-11-2.90157E-09
 -1        43 1.46474E+04 3.09361E+02 1.48271E+03 8.51121E-08 1.27529E-10-9.46318E-09
 -1        44 1.43765E+04-1.31569E+02 1.47427E+03 3.96860E-07-1.25944E-10 4.11345E-09
 -1        45 1.49074E+04 8.22372E+02 2.68059E+03 4.49150E-07 9.35705E-11-1.24800E-10
 -1        46 1.40897E+04-6.90689E+02 4.34076E+03 3.65505E-07 1.73783E-10-1.05322E-08
 -1        47 1.69731E+04 5.08057E+03 1.05192E+04-1.16559E-06 3.76662E-10 4.34591E-09
 -1        48 1.23111E+04-4.38893E+03 1.66757E+04 1.81945E-07-3.18533E-10-2.77032E-09
 -1        49 2.95172E+04 3.23076E+04 4.55763E+04 6.15794E-07 5.03586E-10-7.68341E-09
 -1        50 1.55139E+03-2.79108E+04 6.43752E+04 2.25208E-07 2.95654E-09 6.85031E-09
 -1        51 3.19023E+04-5.62049E+05 5.33988E+04-1.51428E+06 8.73115E-11-8.87667E-09
 -1        52 1.95016E+04-5.63850E+05 3.57894E+04-1.67009E+06 2.25555E-10-4.56348E-08
 -1        53 1.73130E+04-5.82385E+05 3.28276E+04-1.51015E+06 5.82077E-11-1.96451E-09
 -1        54 4.00220E+04-5.80906E+05 5.54227E+04-1.67428E+06 1.45519E-11 2.99915E-08
 -1        55 8.30575E+04-6.00555E+05 1.03391E+05-1.50917E+06-3.05590E-10 1.30894E-08
 -1        56-7.12041E+06-7.39368E+05-6.06856E+05-2.69892E+06 7.27596E-10 3.63798E-09
 -1        57-7.21036E+06-1.43510E+06-4.07987E+05-2.82558E+06 1.38971E-09 5.96629E-10
 -1        58-7.28914E+06-8.80376E+05-1.41881E+05-2.59226E+06-7.60338E-10 6.33008E-10
 -1        59-7.02665E+06-1.25774E+06-8.49790E+04-2.94361E+06-5.96174E-10 5.13865E-10
 -1        60-7.30777E+06-9.08492E+05-3.32283E+04-2.58594E+06 3.00133E-09-4.98494E-09
 -1        61-7.04755E+06-1.16952E+06-1.65628E+04-2.87882E+06-8.42920E-09 2.24985E-08
 -1        62-7.26266E+06-9.71630E+05-1.24416E+04-2.65341E+06 7.23958E-10 8.19773E-09
 -1        63-7.16911E+06-1.02666E+06-3.12178E+03-2.71110E+06 1.57434E-09 1.45851E-08
 -1        64-7.18030E+06-1.05541E+06-1.25337E+04-2.74926E+06-4.22733E-09-1.93540E-09
 -1        65-7.33159E+06-8.81811E+05-1.52230E+04-2.54792E+06-3.29510E-09-8.76753E-09
 -1        66-7.10484E+06-1.11329E+06-3.20189E+04-2.81991E+06-9.73159E-11 3.27782E-09
 -1        67-7.44158E+06-8.39304E+05-8.06601E+04-2.46750E+06 8.99126E-09-3.87809E-09
 -1        68-7.07694E+06-1.09412E+06-1.34436E+05-2.83438E+06 1.78625E-09 4.99131E-09
 -1        69-7.52046E+06-1.10612E+06-3.87831E+05-2.46990E+06-4.29645E-09 2.30284E-09
 -1        70-7.02382E+06-8.53345E+05-5.76186E+05-2.81345E+06-1.36788E-09-3.11411E-09
 -1        86 5.75339E+04-2.30821E+06-1.96528E+05-1.89446E+05-4.86762E-08 1.67802E-09
 -1        87 1.22343E+05 1.66254E+06 6.45671E+05 1.71161E+05-3.10847E-08-1.43847E-08
 -1        88-1.80788E+05-4.80347E+06-6.38488E+05 6.17013E+04 3.56285E-08-7.95080E-09
 -1        89 2.00230E+05 2.06348E+06 7.67933E+05-2.47405E+05 1.04483E-08-4.18049E-09
 -1        90-1.75993E+04-2.70886E+06-2.16900E+05 2.28711E+05 4.25889E-08 9.03242E-09
 -1       121-8.89978E+01-1.26686E+06-2.63848E+02 2.99677E+02-1.73711E-09-3.73620E-09
 -1       122-1.51958E+02-1.26652E+06-3.87763E+02-1.19356E+03-1.37310E-09-6.30098E-09
 -1       123-2.68921E+01-1.26682E+06-7.38651E+02 8.93215E+02-4.48165E-09 5.90535E-09
 -1       124-8.95842E+02-1.26699E+06-1.67984E+03-2.44739E+03-3.08410E-09 1.10185E-08
 -1       125 5.46955E+02-1.26643E+06-2.67496E+03 1.55259E+03-7.45445E-09 5.25324E-09
 -1       161-4.54773E+00 3.11185E+00-1.87826E+00 3.24922E+00 7.06371E-06-2.64953E-06
 -1       162 1.20151E+01-1.35626E+01-3.39946E+00-1.53499E+01 1.41257E-05-5.29656E-06
 -1       163-4.16535E+00 3.38354E+00-6.64128E+00 3.29641E+00 6.82334E-06-2.55383E-06
 -1       164 1.04534E+01-1.53319E+01-1.48177E+01-1.52586E+01-4.81436E-07 1.84246E-07
 -1       165-2.98618E+00 4.88193E+00-2.88593E+01 3.15737E+00-8.51625E-06 3.19386E-06
 -1       166 2.51958E+00-2.65133E+01-6.67561E+01-1.38397E+01-1.65442E-05 6.20759E-06
 -1       167 3.76948E+00 1.45638E+01-1.26555E+02 1.87856E+00-2.46807E-05 9.25415E-06
 -1       168-4.41962E+01-9.82581E+01-3.03533E+02-2.91094E+00-3.28118E-05 1.23064E-05
 -1       169 4.37315E+01 7.66180E+01-5.53402E+02-7.76673E+00-4.06948E-05 1.52539E-05
 -1       170-3.25366E+02-5.56588E+02-1.39479E+03 7.44610E+01-4.85722E-05 1.82231E-05
 -1       171 2.84946E+02 4.72839E+02-2.40738E+03-7.54669E+01-5.52118E-05 2.07032E-05
 -1       172-2.03791E+03-3.47313E+03-6.49813E+03 6.00587E+02-6.18384E-05 2.32099E-05
 -1       173 1.75639E+03 2.99279E+03-1.03927E+04-5.33685E+02-6.25728E-05 2.34697E-05
 -1       174-1.25728E+04-2.19865E+04-3.08149E+04 4.08876E+03-6.32647E-05 2.37299E-05
 -1       175 1.08224E+04 1.89843E+04-4.43471E+04-3.56173E+03-3.16620E-05 1.18531E-05
 -1       191-3.23306E+01 5.35169E+05 3.35626E+01 2.01630E+00-2.27942E-10 2.46655E-09
 -1       192-2.19212E+01 5.35135E+05 6.36306E+01-2.27379E+01-2.88651E-10-4.50018E-09
 -1       193-2.70959E+00 5.35164E+05 1.19657E+02 2.06880E+01-8.93124E-10 5.42059E-10
 -1       194 9.84914E+01 5.35173E+05 2.69805E+02-1.95673E+02-7.05086E-10 2.47746E-09
 -1       195 3.41813E+02 5.35126E+05 5.47586E+02 1.75194E+02-1.38971E-09 4.47380E-09
 -1       251-2.85261E+06 6.32586E+04-1.18228E+05-5.71089E+04 2.48548E-09 4.50382E-09
 -1       252-2.68751E+06-9.76258E+04-5.12364E+04-1.56628E+04 3.64118E-09-1.55524E-10
 -1       253-3.09770E+06 3.32750E+04-7.19749E+04 8.62171E+04-2.17779E-09-4.68572E-09
 -1       254-1.60241E+06-4.27807E+04 2.20863E+05 3.66120E+04 8.11602E-09-1.28121E-08
 -1       255-3.93216E+06 6.53323E+03-2.13611E+05-1.09393E+05-5.41627E-09 8.82505E-09
 -1       256 4.64787E+05 5.08853E+04 6.55638E+05 3.92970E+04-1.64240E-08 3.13230E-08
 -1       257-5.15604E+06-6.03698E+04-4.54795E+05 8.37117E+04-8.72114E-09-3.12298E-09
 -1       258 1.79367E+06 1.26996E+05 9.33230E+05-1.40862E+05-7.19638E-10-4.36230E-08
 -1       259-5.25677E+06-6.64455E+04-4.75266E+05 7.02137E+04 3.26372E-09-1.36183E-08
 -1       260 7.09431E+05 6.36562E+04 7.05828E+05 5.41937E+04-1.85465E-08 3.34749E-08
 -1       261-4.07521E+06 2.13218E+02-2.42753E+05-1.10762E+05-1.18089E-08 1.74086E-08
 -1       262-1.39889E+06-3.72215E+04 2.60673E+05 3.38004E+04-4.77630E-09-2.78642E-08
 -1       263-3.15720E+06 3.38074E+04-8.54593E+04 9.03862E+04-1.36611E-08-2.55077E-08
 -1       264-2.62274E+06-1.02813E+05-4.37346E+04-1.93129E+04-1.45810E-08-1.18416E-09
 -1       265-2.85752E+06 6.77643E+04-1.26352E+05-5.76299E+04-1.49765E-08 1.02082E-08
 -1       266-5.84954E+04-2.70399E+04 1.35053E+05-1.48432E+02 6.54836E-11-8.57113E-10
 -1       267 6.77462E+04 3.15912E+04 9.57773E+04 1.70608E+02 4.36557E-11-1.19546E-08
 -1       268-9.23115E+03-4.52215E+03 3.54516E+04-2.22207E+01-3.09228E-11-2.29556E-09
 -1       269 1.08969E+04 5.42343E+03 2.31681E+04 2.58280E+01 1.77351E-11 5.63801E-09
 -1       270-1.66344E+03-8.99647E+02 1.11236E+04-3.60419E+00-6.00267E-11 1.47726E-08
 -1       271-5.71155E+06-7.33261E+05-4.45185E+05-2.21903E+06-1.79716E-09-3.37604E-09
 -1       272-5.86536E+06-1.01314E+06-2.79140E+05-2.22000E+06-2.49202E-09 3.57613E-09
 -1       273-5.79196E+06-8.25650E+05-1.04924E+05-2.20390E+06 1.51476E-09 2.99042E-09
 -1       274-5.77008E+06-8.92630E+05-5.71119E+04-2.24848E+06-2.50111E-10 4.58567E-09
 -1       275-5.80414E+06-8.31923E+05-2.43537E+04-2.19908E+06-1.93722E-10 9.12405E-09
 -1       276-5.75508E+06-8.85270E+05-1.27173E+04-2.25721E+06-4.69299E-10 1.28739E-09
 -1       277-5.80754E+06-8.30518E+05-6.47337E+03-2.19651E+06 1.84900E-09 7.64430E-10
 -1       278-5.75141E+06-8.86983E+05-4.87296E+03-2.26108E+06-3.70164E-10-4.03440E-09
 -1       279-5.80837E+06-8.29707E+05-5.63830E+03-2.19566E+06-6.84736E-10-1.58752E-09
 -1       280-5.75229E+06-8.87871E+05-1.05195E+04-2.26095E+06 1.35628E-09 5.82986E-09
 -1       281-5.80669E+06-8.29737E+05-1.97553E+04-2.19661E+06 1.05183E-09 7.05586E-09
 -1       282-5.76297E+06-8.95416E+05-4.63320E+04-2.25582E+06-2.35377E-09 5.62068E-09
 -1       283-5.79743E+06-8.24058E+05-8.49594E+04-2.19986E+06 2.43006E-10-2.66300E-09
 -1       284-5.83929E+06-9.93834E+05-2.26171E+05-2.23351E+06 3.64003E-09 2.50293E-09
 -1       285-5.73242E+06-7.49157E+05-3.60759E+05-2.21196E+06 1.81899E-10 4.87489E-09
 -1       286-2.04918E+05-4.84928E+04 1.11659E+05-1.85978E+03 3.41076E-09-1.59343E-09
 -1       287-1.53912E+05 5.60981E+04 7.94682E+04 3.84436E+03 2.01300E-09 5.21504E-09
 -1       288-1.86764E+05-7.57910E+03 2.87107E+04-1.67761E+03 1.17483E-09 5.52973E-09
 -1       289-1.72444E+05 8.98763E+03 1.92367E+04 1.77011E+03-1.95087E-10 8.72546E-09
 -1       290-1.86388E+05-1.41915E+03 6.67611E+03 2.14501E+02 1.66922E-09 3.70073E-09
 -1       291-1.76401E+05 1.52202E+03 5.41950E+03-1.92959E+03 1.21938E-09-3.92782E-09
 -1       292-1.82813E+05-1.12644E+02 2.09840E+03 2.02204E+03-5.38899E-06-2.71315E-08
 -1       293-1.79918E+05 2.20343E+02 2.16917E+03-3.70735E+03-1.05851E-05-6.46163E-08
 -1       294-1.82894E+05-9.68489E+01 1.85076E+03 1.99239E+03-5.39416E-06-2.79524E-08
 -1       295-1.76415E+05 1.31154E+03 4.78196E+03-1.83771E+03-1.70548E-10 7.00743E-09
 -1       296-1.86293E+05-1.22523E+03 5.48774E+03 1.52268E+02-7.01874E-11-1.73509E-09
 -1       297-1.73253E+05 7.53556E+03 1.62494E+04 1.87098E+03-3.61489E-09 5.64364E-09
 -1       298-1.86052E+05-6.32062E+03 2.40000E+04-1.71625E+03-5.09118E-10 6.92853E-09
 -1       299-1.58209E+05 4.69094E+04 6.65071E+04 3.86609E+03 3.23903E-09-3.64616E-09
 -1       300-2.01340E+05-4.05657E+04 9.33200E+04-1.84289E+03 1.41451E-09 4.24916E-09
 -1       301 5.66832E+04-2.88351E+04 1.57298E+05-4.35886E+04 2.05910E-09-1.79753E-09
 -1       302 2.08090E+04 3.14996E+03 1.03335E+05-5.35416E+04 4.04361E-09 6.51426E-11
 -1       303 4.68142E+03-1.76694E+04 9.14476E+04-4.37353E+04 1.55705E-09 2.43472E-09
 -1       304 3.47675E+04 1.35090E+04 1.46696E+05-5.34211E+04 4.81668E-09-3.82738E-09
 -1       305 9.85542E+04-3.90655E+04 2.60596E+05-4.35901E+04 1.74623E-09-1.77170E-09
 -1       306-2.95079E+06-3.95931E+05-1.72062E+05-1.14655E+06 1.07320E-10-3.06318E-09
 -1       307-2.98315E+06-5.30372E+05-1.07745E+05-1.17762E+06-4.61114E-10-2.41562E-09
 -1       308-2.98174E+06-4.31503E+05-4.05816E+04-1.14099E+06 1.04228E-09 1.50430E-09
 -1       309-2.94728E+06-4.83367E+05-2.21133E+04-1.18813E+06 1.13369E-09-7.46604E-09
 -1       310-2.98608E+06-4.34269E+05-9.46375E+03-1.13961E+06-2.16460E-10-2.05000E-09
 -1       311-2.94243E+06-4.79640E+05-5.05037E+03-1.19049E+06-1.23237E-10-8.75241E-09
 -1       312-2.98688E+06-4.34250E+05-2.74529E+03-1.13919E+06 3.17243E-09 2.62003E-09
 -1       313-2.94196E+06-4.79311E+05-2.43181E+03-1.19068E+06 6.62453E-10-6.07088E-11
 -1       314-2.98659E+06-4.34529E+05-3.30226E+03-1.13946E+06-9.21318E-10-1.34605E-10
 -1       315-2.94339E+06-4.78873E+05-6.53105E+03-1.18917E+06 1.92904E-09-4.21096E-10
 -1       316-2.98510E+06-4.34970E+05-1.25366E+04-1.14043E+06-3.26509E-10-1.92722E-09
 -1       317-2.95028E+06-4.83338E+05-2.93541E+04-1.18539E+06-2.29920E-09-7.21047E-09
 -1       318-2.97918E+06-4.31438E+05-5.39665E+04-1.14241E+06-1.42609E-09 2.43745E-09
 -1       319-2.99809E+06-5.45770E+05-1.43222E+05-1.17144E+06-6.28711E-09-3.04863E-09
 -1       320-2.93815E+06-3.83981E+05-2.28690E+05-1.14967E+06-6.81212E-09-7.75617E-09
 -1       336 6.97584E+02-1.26634E+06-4.78395E+03-1.95837E+03-9.65883E-09-2.08274E-10
 -1       337-2.14873E+03-1.26822E+06-7.60256E+03-2.14143E+04-6.97128E-09 6.24368E-09
 -1       338 1.17175E+03-1.26597E+06-1.17366E+04-1.42648E+03-1.19935E-08 4.23915E-09
 -1       339-1.39959E+04-1.27528E+06-2.81852E+04-2.23355E+04-7.84667E-09 6.79211E-09
 -1       340 1.06277E+04-1.25945E+06-4.34119E+04-1.04541E+03-1.24674E-08 8.97398E-09
 -1       356-9.67103E-01 3.56485E-01-3.04335E+00-2.41061E+00-9.16320E-07-4.93554E-10
 -1       357-1.64901E+00-6.63348E-01-6.40883E+00 9.69994E+00-1.83347E-06 4.87139E-09
 -1       358-7.89030E-01 3.12113E-01-1.21505E+01-2.41015E+00-1.08607E-06 2.40964E-09
 -1       359-3.11737E+00-2.11287E+00-2.54975E+01 9.69967E+00-3.36478E-07-2.04350E-09
 -1       360 5.00716E-01 1.80621E+00-4.87128E+01-2.41033E+00 3.30622E-07-3.08544E-10
 -1       361-1.12688E+01-1.37380E+01-1.04178E+02 9.70117E+00 9.97468E-07 2.01187E-09
 -1       362 7.36266E+00 1.19366E+01-1.95019E+02-2.41166E+00 1.32713E-06 1.67768E-09
 -1       363-5.61993E+01-8.96226E+01-4.29551E+02 9.71621E+00 1.65548E-06 2.73013E-09
 -1       364 4.54332E+01 7.76821E+01-7.77885E+02-2.42537E+00 1.62517E-06 3.55328E-10
 -1       365-3.13272E+02-5.77537E+02-1.79275E+03 9.82141E+00 1.59887E-06-5.54681E-09
 -1       366 2.64454E+02 4.99784E+02-3.08440E+03-2.51681E+00 1.23309E-06 4.14036E-09
 -1       367-1.82830E+03-3.69316E+03-7.61444E+03 1.04653E+01 8.69584E-07-4.40468E-09
 -1       368 1.56070E+03 3.19281E+03-1.21126E+04-3.06890E+00 2.95019E-07 1.12777E-08
 -1       369-1.09565E+04-2.35045E+04-3.31478E+04 1.41316E+01-2.85507E-07 2.76941E-10
 -1       370 9.39621E+03 2.03081E+04-4.68090E+04-6.18051E+00-1.36684E-07 1.73022E-08
 -1       376-1.36177E+00 2.19293E+00-1.32836E+00 2.23222E+00 2.80685E-06-1.04966E-06
 -1       377 7.72716E+00-7.94998E+00-2.34983E+00-8.37476E+00 5.60444E-06-2.10788E-06
 -1       378-1.28247E+00 2.14420E+00-4.20225E+00 2.28761E+00 1.37633E-06-5.18199E-07
 -1       379 6.87747E+00-8.81561E+00-9.34522E+00-8.36737E+00-2.85637E-06 1.07877E-06
 -1       380-5.11888E-01 3.05883E+00-1.80882E+01 2.22473E+00-7.87898E-06 2.96264E-06
 -1       381 1.90506E+00-1.58006E+01-4.18796E+01-7.48648E+00-1.28966E-05 4.85633E-06
 -1       382 3.69028E+00 9.12855E+00-7.93288E+01 1.40712E+00-1.76369E-05 6.62061E-06
 -1       383-2.71289E+01-6.07270E+01-1.90247E+02-5.33565E-01-2.23745E-05 8.40146E-06
 -1       384 2.85226E+01 4.79802E+01-3.46957E+02-4.72562E+00-2.65214E-05 9.94963E-06
 -1       385-2.03601E+02-3.48026E+02-8.74374E+02 4.79565E+01-3.06651E-05 1.15255E-05
 -1       386 1.80164E+02 2.96394E+02-1.50910E+03-4.70671E+01-3.36772E-05 1.26495E-05
 -1       387-1.27797E+03-2.17616E+03-4.07368E+03 3.77875E+02-3.66748E-05 1.37777E-05
 -1       388 1.10293E+03 1.87587E+03-6.51503E+03-3.34525E+02-3.61151E-05 1.35603E-05
 -1       389-7.88394E+03-1.37804E+04-1.93176E+04 2.56613E+03-3.55322E-05 1.33572E-05
 -1       390 6.78708E+03 1.18992E+04-2.78023E+04-2.23431E+03-1.77781E-05 6.66734E-06
 -1       406 4.00385E+02 5.35101E+05 1.39209E+03-1.85287E+02-2.02999E-09-1.36060E-09
 -1       407 4.83717E+02 5.35398E+05 2.50468E+03 1.95595E+02-1.42052E-09 5.70162E-09
 -1       408 1.18710E+03 5.34964E+05 4.79032E+03-9.35366E+00-2.71893E-09 1.37516E-09
 -1       409 5.02031E+03 5.36889E+05 1.06908E+04-1.52999E+02-1.70439E-09-6.78119E-09
 -1       410 1.45272E+04 5.33604E+05 2.17647E+04 1.81594E+02-3.47063E-09 3.05863E-09
 -1       501-3.84662E+05-9.78324E+04 1.77247E+05-1.52204E+04 2.10659E-08 1.43045E-08
 -1       502-4.46781E+04 1.04761E+05 1.69761E+05 3.73166E+04 2.58898E-08 3.17959E-08
 -1       503-2.61925E+05-6.32453E+03 4.79884E+04-1.69264E+04 1.02301E-08 1.98670E-08
 -1       504 1.99272E+04 2.05034E+04 8.06194E+04 2.18893E+04-3.77227E-09 1.59976E-08
 -1       505-4.48416E+05-1.46189E+04-3.04557E+04 2.14887E+02 7.77698E-09-4.52292E-09
 -1       506 6.00113E+04 1.08376E+04 6.55894E+04-1.56039E+04 4.04732E-08-2.11303E-08
 -1       507-3.01641E+05 2.96581E+03-9.95981E+03 2.05206E+04 3.65477E-08-3.60517E-08
 -1       508-1.00419E+05-6.83264E+03 2.55584E+04-3.61080E+04 2.26245E-08-4.89124E-08
 -1       509-2.89338E+05 4.49864E+03-9.30910E+03 2.07645E+04 3.71809E-08-3.24626E-08
 -1       510 4.85830E+04 7.98860E+03 5.78855E+04-1.72516E+04 2.84084E-08-3.07068E-08
 -1       511-4.49372E+05-1.32245E+04-4.06124E+04 1.61909E+03-1.70323E-08-1.00431E-09
 -1       512 2.56183E+04 9.71614E+03 5.86707E+04 2.05008E+04-3.11361E-08 1.14770E-08
 -1       513-2.66575E+05 2.97207E+03 6.99738E+03-1.69431E+04-1.49929E-08 2.14686E-08
 -1       514-8.05739E+04 2.87378E+04 6.28008E+04 3.71769E+04-1.12261E-08 2.94331E-08
 -1       515-3.44212E+05-3.11071E+04 2.84153E+04-1.50652E+04-1.61997E-08 2.14277E-08
 -1       521-5.84529E+06-7.61140E+05-3.71933E+05-2.25382E+06-1.13505E-09 2.51748E-09
 -1       522-5.96542E+06-1.00426E+06-2.33283E+05-2.26526E+06 2.94176E-09-5.66070E-09
 -1       523-5.91122E+06-8.39584E+05-8.75434E+04-2.24248E+06-1.07957E-09-3.27418E-09
 -1       524-5.88812E+06-9.01023E+05-4.77674E+04-2.28599E+06 1.96201E-09-3.85171E-09
 -1       525-5.91998E+06-8.46275E+05-2.03030E+04-2.23993E+06 1.67029E-09 3.02680E-09
 -1       526-5.87796E+06-8.92183E+05-1.07335E+04-2.28984E+06 1.18780E-09-4.24723E-09
 -1       527-5.92131E+06-8.46672E+05-5.57124E+03-2.23937E+06 7.39988E-10-4.94100E-09
 -1       528-5.87736E+06-8.90881E+05-4.48708E+03-2.28952E+06-3.13412E-09-3.48678E-09
 -1       529-5.92050E+06-8.47506E+05-5.56979E+03-2.24024E+06-1.55978E-09-5.92809E-09
 -1       530-5.88067E+06-8.89210E+05-1.06520E+04-2.28613E+06-2.87764E-09-1.45665E-08
 -1       531-5.91763E+06-8.48698E+05-2.02194E+04-2.24245E+06-1.07684E-09-1.13869E-09
 -1       532-5.89335E+06-8.95218E+05-4.73967E+04-2.27895E+06-1.68211E-09-1.82627E-09
 -1       533-5.90757E+06-8.43427E+05-8.69699E+04-2.24646E+06 1.67165E-09 7.63976E-10
 -1       534-5.97247E+06-9.95228E+05-2.31510E+05-2.25561E+06-2.27578E-09-6.58474E-10
 -1       535-5.84107E+06-7.66655E+05-3.69213E+05-2.25894E+06-4.60568E-09 8.44011E-10
 -1       536-1.99575E+04-1.81230E+04 7.16028E+04-1.38468E+04 9.09495E-11-5.53700E-09
 -1       537 7.57560E+03 2.28593E+04 4.63645E+04-5.97048E+04-3.74075E-09 1.95541E-10
 -1       538-9.14063E+03-2.16525E+03 1.84848E+04-1.36390E+04 5.09317E-11 5.05224E-09
 -1       539-5.31787E+03 2.11849E+03 1.04744E+04-5.99271E+04 3.69982E-09-3.31329E-09
 -1       540-7.96154E+03-3.55024E+02 4.62388E+03-1.36141E+04 4.04725E-10-6.09816E-10
 -1       541-7.25705E+03 1.71268E+02 2.47969E+03-5.99561E+04-5.52063E-10 2.75122E-09
 -1       542-7.85857E+03-6.83613E+01 1.09974E+03-1.36120E+04-3.90173E-10 5.42832E-09
 -1       543-7.77689E+03 7.88409E+01 5.08821E+02-5.99598E+04-8.64475E-10-2.74667E-10
 -1       544-7.86464E+03 1.64675E+01 8.26511E+01-1.36107E+04 1.41426E-10 1.48862E-09
 -1       545-7.98575E+03 7.63588E+01-2.87550E+02-5.99614E+04-2.89560E-10 5.58464E-09
 -1       546-7.83864E+03 6.51841E+01-7.61100E+02-1.36102E+04 4.92605E-10 1.75805E-09
 -1       547-8.21312E+03-3.19522E+02-1.81763E+03-5.99537E+04-1.50612E-09 6.84850E-10
 -1       548-7.59214E+03 3.27194E+02-3.31067E+03-1.36186E+04-1.85446E-09 2.39288E-09
 -1       549-1.01688E+04-4.12548E+03-8.22808E+03-5.98374E+04-2.03727E-10 4.33192E-09
 -1       550-5.60380E+03 3.04053E+03-1.28479E+04-1.37263E+04-4.31100E-10 7.50924E-09
 -1       551 1.90669E+04-5.04902E+05 3.84351E+04-7.96211E+05 1.50612E-09 5.74801E-10
 -1       552 1.68597E+04-5.01332E+05 3.87399E+04-9.72021E+05-8.44011E-09 1.95068E-08
 -1       553 1.28101E+04-5.07802E+05 5.44899E+04-7.94635E+05 2.21917E-09 9.83709E-09
 -1       554 4.04365E+04-4.85256E+05 1.10335E+05-9.72187E+05-7.93079E-09 2.55841E-09
 -1       555 8.91029E+04-5.23376E+05 2.09005E+05-7.95603E+05 1.11322E-09-1.04774E-09
 -1       556-1.93051E+05-1.70638E+05 3.93801E+04-2.79679E+05-7.65431E-09-4.94038E-09
 -1       557-1.54170E+05-2.08170E+05 1.99249E+04-3.10138E+05-3.15777E-09 6.22776E-09
 -1       558-1.94055E+05-1.80173E+05 8.21397E+03-2.73601E+05-3.62343E-09 6.74481E-09
 -1       559-1.59525E+05-2.13690E+05 4.10823E+03-3.12543E+05 1.60071E-09 5.97447E-09
 -1       560-1.95343E+05-1.79551E+05 1.75264E+03-2.74229E+05 4.72937E-10-3.59796E-09
 -1       561-1.61267E+05-2.13317E+05 8.84201E+02-3.13733E+05 1.77533E-09-4.07601E-09
 -1       562-1.96335E+05-1.78912E+05 3.18533E+02-2.74903E+05 5.82077E-10 2.20234E-09
 -1       563-1.62290E+05-2.12878E+05 9.00519E+01-3.14431E+05 2.62662E-09 8.05676E-09
 -1       564-1.96919E+05-1.78541E+05-1.80951E+02-2.75302E+05-3.52520E-09-1.20144E-08
 -1       565-1.62802E+05-2.12667E+05-5.32011E+02-3.14765E+05-4.00360E-09-1.97178E-09
 -1       566-1.97057E+05-1.78413E+05-1.20692E+03-2.75418E+05-1.29558E-09 6.14091E-09
 -1       567-1.62995E+05-2.12765E+05-2.69317E+03-3.14720E+05-3.47427E-10 3.93084E-09
 -1       568-1.96626E+05-1.78801E+05-5.57405E+03-2.75148E+05-2.24099E-09 1.07320E-09
 -1       569-1.65868E+05-2.15785E+05-1.31278E+04-3.13513E+05-1.87902E-09-2.04454E-09
 -1       570-1.94265E+05-1.87223E+05-2.62958E+04-2.71485E+05 2.49202E-09 5.65433E-09
 -1       571 3.42922E+05 1.51572E+04 2.27631E+04-8.81259E+04 8.42192E-10-2.89219E-09
 -1       572 3.46331E+05 5.22282E+03 1.11633E+04-9.67877E+04 9.05402E-10-6.30553E-09
 -1       573 3.44265E+05 1.20769E+03 4.96165E+03-8.78916E+04 1.63709E-11-1.87265E-09
 -1       574 3.44662E+05 3.82474E+02 2.48838E+03-9.70416E+04-1.85992E-10-9.52241E-10
 -1       575 3.44398E+05 4.12588E+01 1.17374E+03-8.78619E+04-1.12823E-09-6.90943E-09
 -1       576 3.44431E+05 6.35042E+00 5.97357E+02-9.70750E+04-2.93312E-10-8.00355E-09
 -1       577 3.44420E+05-1.74922E+01 2.92787E+02-8.78580E+04 7.56927E-10-4.25462E-09
 -1       578 3.44418E+05-1.63886E+01 1.56551E+02-9.70793E+04 1.21508E-09 5.85987E-09
 -1       579 3.44462E+05-3.09897E+01 8.87432E+01-8.78576E+04 1.46974E-09 4.14730E-09
 -1       580 3.44478E+05-4.51082E+01 7.23236E+01-9.70751E+04 2.24827E-09 4.62842E-09
 -1       581 3.44540E+05-6.94693E+01 8.38180E+01-8.78622E+04 2.33376E-09-1.93268E-09
 -1       582 3.44598E+05-7.98218E+01 1.52402E+02-9.70237E+04 1.06229E-09-5.07589E-09
 -1       583 3.44648E+05-6.92030E+01 2.81269E+02-8.79089E+04 1.86028E-08 3.21143E-09
 -1       584 3.44840E+05 1.23733E+02 6.32424E+02-9.66233E+04 3.53421E-08 4.02406E-09
 -1       585 3.44709E+05 6.58329E+02 1.27291E+03-8.82634E+04 2.07074E-08 2.10639E-09
 -1       586 2.12078E+03 1.59082E+05 3.99673E+03-2.13023E+05 5.53882E-10 3.01861E-09
 -1       587 1.36675E+03 1.59709E+05 4.35492E+03-2.36457E+05-1.19508E-09-4.73574E-09
 -1       588 1.76666E+03 1.58882E+05 6.72504E+03-2.12739E+05 8.02174E-10 6.13591E-09
 -1       589 6.48085E+03 1.61499E+05 1.41473E+04-2.36533E+05-1.33150E-09 1.92096E-08
 -1       590 1.82744E+04 1.57142E+05 2.82984E+04-2.12937E+05 9.25866E-10 1.24637E-08
 -1       591-1.74471E+05-5.17975E+04-3.37690E+04-8.36399E+04 3.07864E-09 3.99086E-09
 -1       592-1.76580E+05-4.99385E+04-1.69345E+04-9.27921E+04 2.57569E-09 1.14017E-08
 -1       593-1.76096E+05-4.19534E+04-7.18946E+03-8.85079E+04 1.78261E-09 7.83029E-09
 -1       594-1.72774E+05-4.57042E+04-3.53012E+03-9.31360E+04-4.30191E-10 3.30138E-09
 -1       595-1.76283E+05-4.16834E+04-1.62899E+03-8.86958E+04-1.13869E-09-6.09191E-10
 -1       596-1.72514E+05-4.55550E+04-8.23712E+02-9.31002E+04-6.68479E-11-2.81716E-09
 -1       597-1.76315E+05-4.17117E+04-4.44028E+02-8.86962E+04 5.35991E-10 5.23005E-09
 -1       598-1.72486E+05-4.55572E+04-3.46773E+02-9.30872E+04-1.80250E-10 6.86214E-10
 -1       599-1.76310E+05-4.17150E+04-4.30254E+02-8.86936E+04 5.38648E-10-2.11912E-09
 -1       600-1.72504E+05-4.55591E+04-7.87211E+02-9.30912E+04 3.59023E-10 3.12866E-10
 -1       601-1.76270E+05-4.16934E+04-1.55023E+03-8.86882E+04-6.39375E-10 1.27602E-09
 -1       602-1.72746E+05-4.57010E+04-3.35586E+03-9.31132E+04 9.33596E-10-5.76847E-10
 -1       603-1.76082E+05-4.19597E+04-6.83304E+03-8.85087E+04-1.26965E-09 1.36424E-11
 -1       604-1.76392E+05-4.96854E+04-1.60907E+04-9.27310E+04-3.34876E-09 1.41699E-09
 -1       605-1.74491E+05-5.13491E+04-3.20861E+04-8.39188E+04-1.31104E-09 2.48838E-09
 -1       606 1.25959E+05-1.41641E+04-2.22182E+04 4.10744E+04-7.59246E-09-1.34787E-09
 -1       607 1.22443E+05-4.76376E+03-1.09304E+04 4.50259E+04-2.31375E-09-2.06364E-09
 -1       608 1.24460E+05-1.01047E+03-4.87053E+03 4.07907E+04 3.38514E-09 3.35035E-09
 -1       609 1.23990E+05-2.61579E+02-2.44323E+03 4.53355E+04-3.81988E-09 4.60477E-09
 -1       610 1.24235E+05 3.62246E+01-1.15668E+03 4.07552E+04-7.50515E-09 5.71163E-09
 -1       611 1.24129E+05 9.11394E+01-5.80913E+02 4.53731E+04-1.20763E-08 5.33919E-09
 -1       612 1.24163E+05 1.02104E+02-2.75682E+02 4.07515E+04-1.46429E-08-4.25598E-09
 -1       613 1.24113E+05 1.20916E+02-1.22802E+02 4.53773E+04-2.70184E-08-7.25322E-10
 -1       614 1.24121E+05 1.11956E+02-2.88576E+01 4.07507E+04-9.98716E-09-3.81215E-09
 -1       615 1.24087E+05 1.35500E+02 5.28825E+01 4.53773E+04 8.48240E-09-2.22099E-09
 -1       616 1.24089E+05 1.29627E+02 1.57048E+02 4.07513E+04-6.73481E-09-4.32146E-09
 -1       617 1.24093E+05 1.95921E+02 3.61517E+02 4.53754E+04-1.10754E-09-4.83851E-09
 -1       618 1.24046E+05 2.92614E+02 7.32608E+02 4.07520E+04-2.18506E-09 1.66847E-09
 -1       619 1.24324E+05 8.80242E+02 1.65311E+03 4.53678E+04 2.61025E-10 1.49157E-10
 -1       620 1.23819E+05 2.28611E+03 3.36236E+03 4.07538E+04 2.98860E-09-1.69985E-09
 -1       621 1.20634E+03 3.61733E+05 4.14141E+03-3.01214E+04 1.90653E-09 3.13878E-09
 -1       622 5.61232E+02 3.62564E+05 4.37858E+03-3.68245E+04-7.61247E-10 5.34840E-09
 -1       623 3.55920E+02 3.61834E+05 6.47398E+03-3.01273E+04 1.85810E-09-1.63300E-09
 -1       624 3.43581E+03 3.64713E+05 1.33232E+04-3.67097E+04-4.51109E-10-3.05681E-09
 -1       625 9.82219E+03 3.59626E+05 2.54233E+04-3.02307E+04 1.75896E-09-3.49110E-09
 -1       626 2.23185E+05 7.33911E+04-3.43625E+03 1.42837E+05 3.81988E-10-2.10821E-09
 -1       627 2.18300E+05 7.90367E+04-1.63152E+03 1.47250E+05 2.07547E-09-8.18773E-09
 -1       628 2.23331E+05 7.49039E+04-6.87534E+02 1.41825E+05 1.47847E-08 7.45877E-09
 -1       629 2.18333E+05 7.99017E+04-3.24605E+02 1.47344E+05 2.17578E-08-2.98846E-09
 -1       630 2.23290E+05 7.50203E+04-1.38507E+02 1.41712E+05 1.25929E-08-8.82773E-09
 -1       631 2.18283E+05 7.99845E+04-4.74924E+01 1.47333E+05-6.71571E-09 4.42412E-10
 -1       632 2.23248E+05 7.50381E+04 1.78197E+01 1.41683E+05 2.92312E-09 8.25821E-10
 -1       633 2.18256E+05 7.99991E+04 9.37699E+01 1.47317E+05 2.72303E-09-9.57698E-10
 -1       634 2.23218E+05 7.50374E+04 2.16873E+02 1.41670E+05 1.29330E-09-6.16819E-09
 -1       635 2.18268E+05 8.00073E+04 4.82078E+02 1.47315E+05-1.20963E-10 5.63887E-11
 -1       636 2.23194E+05 7.50541E+04 9.95001E+02 1.41655E+05-8.11565E-09-8.85211E-09
 -1       637 2.18501E+05 8.02494E+04 2.21473E+03 1.47284E+05-1.11800E-09-3.88354E-09
 -1       638 2.23142E+05 7.57903E+04 4.58079E+03 1.41333E+05 1.82126E-09 3.82533E-09
 -1       639 2.20855E+05 8.41753E+04 1.08873E+04 1.46351E+05 5.94127E-10-9.74069E-10
 -1       640 2.23190E+05 8.72404E+04 2.28892E+04 1.36554E+05-3.76758E-09-4.17458E-10
 -1       641-1.90600E+03 3.69079E+03-8.50900E+03-2.35609E+01 5.92055E-05-1.14876E-07
 -1       642-5.59267E+03-4.27155E+03-6.01860E+03 5.49391E+01 1.18286E-04-2.15978E-07
 -1       643-3.32735E+03 5.80023E+02-2.19129E+03-2.24559E+01 1.09319E-04-2.20872E-07
 -1       644-3.93635E+03-6.69232E+02-1.36030E+03 5.42737E+01 1.00286E-04-1.99832E-07
 -1       645-3.56248E+03 8.91695E+01-5.16095E+02-2.28975E+01 7.01225E-05-1.49602E-07
 -1       646-3.65567E+03-9.22516E+01-2.30209E+02 5.49366E+01 3.99396E-05-8.11581E-08
 -1       647-3.60804E+03 3.14998E+00 3.76058E+01-2.31193E+01-1.90067E-06 4.07788E-09
 -1       648-3.56765E+03 6.60901E+01 3.16270E+02 5.48135E+01-4.37556E-05 9.17239E-08
 -1       649-3.65051E+03-6.91524E+01 6.78454E+02-2.27746E+01-9.38811E-05 2.01847E-07
 -1       650-3.32119E+03 5.27752E+02 1.62713E+03 5.32691E+01-1.44035E-04 2.85007E-07
 -1       651-3.85447E+03-4.58451E+02 2.82192E+03-2.15750E+01-1.96213E-04 4.03584E-07
 -1       652-1.92462E+03 3.38981E+03 6.98606E+03 4.87067E+01-2.48275E-04 4.61559E-07
 -1       653-5.04689E+03-2.93067E+03 1.11158E+04-1.82117E+01-1.24213E-04 2.21798E-07
 -1       654 6.46098E+03 2.15753E+04 3.04289E+04 3.30054E+01-1.19826E-07-8.10223E-09
 -1       655-1.22373E+04-1.86399E+04 4.29800E+04-5.87483E+00-1.28168E-08-1.40062E-10
 -1       656 1.41507E+04-5.26420E+05-6.02379E+04 1.46979E+04-2.82671E-09 8.94352E-09
 -1       657-2.06760E+04-5.48640E+05-4.45812E+04 6.18397E+04 3.02862E-10 6.56178E-09
 -1       658 2.88940E+03-5.34194E+05-2.88561E+04 1.45263E+04-7.72047E-10 5.89239E-09
 -1       659-2.00719E+04-5.48373E+05-4.35793E+04 6.19563E+04 3.45608E-10-1.55262E-09
 -1       660 1.37091E+04-5.26779E+05-5.83335E+04 1.45829E+04-1.90266E-09 3.12230E-09
 -1       661 3.41964E+05 4.76120E+04 2.69709E+04 1.34304E+05 1.25870E-08 1.45519E-11
 -1       662 3.47904E+05 6.31419E+04 1.62418E+04 1.38098E+05 8.70213E-09 6.57678E-09
 -1       663 3.46102E+05 5.16362E+04 6.33064E+03 1.34331E+05 1.60188E-09-2.86968E-09
 -1       664 3.43065E+05 5.66240E+04 3.34107E+03 1.38850E+05 1.22304E-08-2.95177E-09
 -1       665 3.46496E+05 5.20060E+04 1.47884E+03 1.34350E+05 9.37217E-09 4.97153E-10
 -1       666 3.42605E+05 5.60792E+04 7.87484E+02 1.38878E+05 6.77282E-09 4.69327E-09
 -1       667 3.46540E+05 5.20431E+04 4.59192E+02 1.34354E+05-1.16580E-09 6.24209E-09
 -1       668 3.42563E+05 5.60430E+04 4.42030E+02 1.38881E+05-3.34683E-09-1.31064E-09
 -1       669 3.46539E+05 5.20354E+04 6.45989E+02 1.34350E+05-3.77770E-09 3.33932E-09
 -1       670 3.42642E+05 5.61276E+04 1.29286E+03 1.38900E+05-3.35467E-09-1.44382E-10
 -1       671 3.46468E+05 5.19622E+04 2.53010E+03 1.34336E+05-2.20518E-09-4.59409E-09
 -1       672 3.43436E+05 5.70827E+04 5.77861E+03 1.38866E+05 1.25708E-08-5.31145E-10
 -1       673 3.45787E+05 5.13155E+04 1.09709E+04 1.34300E+05 8.44335E-09 2.28056E-09
 -1       674 3.51825E+05 6.83971E+04 2.81675E+04 1.37572E+05 1.83913E-08 6.97764E-09
 -1       675 3.38614E+05 4.43317E+04 4.67785E+04 1.34248E+05 1.18466E-08-3.09228E-10
 -1       676 7.67886E+02-5.19545E+05-4.51502E+03 3.25905E+02 8.09017E-10-4.07640E-09
 -1       677-2.06320E+03-5.21405E+05-6.64486E+03-1.14073E+03 2.56483E-09-4.28770E-09
 -1       678 9.88357E+02-5.19326E+05-9.76612E+03 3.22329E+02 3.18323E-09-3.00165E-09
 -1       679-1.16257E+04-5.26978E+05-2.31949E+04-1.13252E+03 8.83938E-09-7.07800E-10
 -1       680 8.70007E+03-5.13977E+05-3.56071E+04 3.15432E+02 5.07862E-09 4.07283E-10
 -1       716-4.02942E-01-1.92113E-01 1.80301E+01-9.91778E-04-1.10370E-09-3.31378E-09
 -1       717 1.98428E+00 1.44709E+00 3.17543E+01 2.52579E-03-9.13216E-09-3.11974E-09
 -1       718-1.58137E+00-1.25551E+00 5.89274E+01-1.53283E-03-4.38488E-09-5.63613E-09
 -1       719 9.36969E+00 9.85690E+00 1.22226E+02-2.29097E-03 5.36951E-09 4.41887E-10
 -1       720-7.78842E+00-8.60244E+00 2.33119E+02 3.82771E-03 1.29234E-09-3.07908E-09
 -1       721 4.84943E+01 6.56767E+01 4.98217E+02-8.08013E-02-8.91210E-09-1.13297E-09
 -1       722-4.07056E+01-5.70730E+01 9.32495E+02 7.69685E-02-4.59032E-09-3.32841E-09
 -1       723 2.63661E+02 4.28544E+02 2.05396E+03-7.75370E-01-2.43997E-09-1.65485E-09
 -1       724-2.22941E+02-3.71426E+02 3.71940E+03 6.98257E-01-7.59439E-09-3.57022E-09
 -1       725 1.49345E+03 2.76146E+03 8.57209E+03-5.96289E+00-6.01522E-09-1.98270E-09
 -1       726-1.27022E+03-2.38956E+03 1.47487E+04 5.26373E+00-8.11911E-09-3.31147E-09
 -1       727 8.73888E+03 1.76583E+04 3.64093E+04-4.19441E+01-1.20479E-08-4.00632E-10
 -1       728-7.46375E+03-1.52646E+04 5.79307E+04 3.66840E+01-2.58606E-09-2.29920E-09
 -1       729 5.23892E+04 1.12381E+05 1.58510E+05-2.82113E+02 2.97990E-09-2.43745E-10
 -1       730-4.48442E+04-9.70748E+04 2.24078E+05 2.45616E+02 4.81202E-09-2.31375E-09
 -1       766-9.70948E+04-4.49088E+04 2.24035E+05-2.03114E+02-3.92902E-10 7.33775E-09
 -1       767 1.12542E+05 5.25088E+04 1.58501E+05 5.95532E+01 7.10861E-09-2.14175E-09
 -1       768-1.54056E+04-7.61455E+03 5.77353E+04 2.22846E+01-5.05679E-10-1.05587E-10
 -1       769 1.86941E+04 9.30613E+03 3.64416E+04-1.97748E+02 6.01494E-09 6.69520E-09
 -1       770-3.28354E+03-1.78179E+03 1.38950E+04 5.43543E+01-2.77396E-10 2.75062E-09
 -1       771-2.82943E+06-5.54173E+05-8.15689E+04-1.22123E+06-1.35406E-08-6.18456E-09
 -1       772-2.81740E+06-5.65653E+05-4.07555E+04-1.26181E+06-5.24597E-09 9.46602E-09
 -1       773-2.83535E+06-5.29082E+05-1.74950E+04-1.23266E+06-9.24047E-10 8.96762E-09
 -1       774-2.80857E+06-5.56174E+05-8.51641E+03-1.26507E+06 1.86265E-09-6.34191E-09
 -1       775-2.83712E+06-5.27534E+05-4.04092E+03-1.23357E+06 2.02272E-09-1.41517E-09
 -1       776-2.80878E+06-5.55678E+05-1.99605E+03-1.26626E+06 1.72440E-09-2.60434E-09
 -1       777-2.83820E+06-5.26961E+05-1.12555E+03-1.23398E+06 1.26602E-09 8.33552E-10
 -1       778-2.80937E+06-5.55516E+05-8.21578E+02-1.26709E+06-2.41562E-09 4.68845E-10
 -1       779-2.83887E+06-5.26536E+05-1.03441E+03-1.23426E+06 1.38243E-10-3.47427E-10
 -1       780-2.80983E+06-5.55418E+05-1.84896E+03-1.26762E+06-1.37425E-09-1.15506E-09
 -1       781-2.83911E+06-5.26264E+05-3.66538E+03-1.23440E+06-2.04091E-09-1.78261E-09
 -1       782-2.81056E+06-5.55711E+05-7.95050E+03-1.26784E+06-1.35924E-09-8.69477E-10
 -1       783-2.83866E+06-5.26902E+05-1.62326E+04-1.23399E+06-3.71847E-09-3.22325E-09
 -1       784-2.81925E+06-5.65125E+05-3.82917E+04-1.26664E+06-3.98086E-09-5.03496E-09
 -1       785-2.83450E+06-5.49523E+05-7.64331E+04-1.22309E+06 3.01952E-10 1.71713E-09
 -1       786 2.78310E+05-8.71473E+03 3.55987E+04-2.07294E+03 2.10548E-10-1.70985E-09
 -1       787 2.91310E+05 1.15581E+04 2.29483E+04-9.29609E+03 3.25713E-11-2.31739E-09
 -1       788 2.83722E+05-9.22552E+02 9.23225E+03-2.07451E+03-1.13005E-09-2.56523E-09
 -1       789 2.85259E+05 1.17689E+03 5.18490E+03-9.28020E+03 1.87970E-09-1.19849E-09
 -1       790 2.84351E+05-1.01584E+02 2.34757E+03-2.08801E+03-3.45210E-10 1.31126E-09
 -1       791 2.84543E+05 1.18398E+02 1.26439E+03-9.26097E+03 9.93396E-10 9.79043E-10
 -1       792 2.84432E+05-1.26479E+01 6.46737E+02-2.09374E+03-1.15108E-11-8.62997E-10
 -1       793 2.84453E+05 1.59530E+01 4.31631E+02-9.25806E+03-1.07622E-09-4.49779E-09
 -1       794 2.84440E+05-7.21893E+00 3.99690E+02-2.09092E+03 6.75698E-10 4.30305E-11
 -1       795 2.84483E+05 5.07904E+01 6.11729E+02-9.27266E+03 4.66514E-10 2.51256E-09
 -1       796 2.84407E+05-4.60752E+01 1.05284E+03-2.07914E+03-8.66294E-10 3.40174E-09
 -1       797 2.84798E+05 5.09583E+02 2.27713E+03-9.30251E+03-2.66027E-10 1.25226E-10
 -1       798 2.84134E+05-4.05883E+02 4.03348E+03-2.06107E+03 8.41283E-10 4.49836E-09
 -1       799 2.87446E+05 5.03580E+03 1.00155E+04-9.32423E+03-2.48110E-09-1.09594E-10
 -1       800 2.81774E+05-3.80834E+03 1.55279E+04-2.05789E+03 4.87034E-10-6.71207E-10
 -1       801-2.02998E+04 3.02882E+05 3.94168E+04-4.05208E+05 8.73115E-10 5.10772E-09
 -1       802 6.06380E+04 3.05489E+05 6.34059E+04-1.76442E+06 2.08674E-08 7.65795E-09
 -1       803 4.09729E+03 2.93263E+05 7.81500E+04-4.04264E+05 1.10085E-08 9.48762E-09
 -1       804 1.26486E+05 3.44581E+05 1.77807E+05-1.76413E+06 1.33878E-08-5.88625E-09
 -1       805-7.53606E+04 2.64635E+05 2.54430E+05-4.05540E+05 1.06666E-08-1.01863E-10
 -1       806-2.54463E+05-7.61584E+04-2.15965E+04-1.29017E+05 2.11446E-09-1.58252E-10
 -1       807-2.53628E+05-7.18963E+04-1.02696E+04-1.36738E+05 1.53022E-09-7.69421E-09
 -1       808-2.54451E+05-6.53469E+04-4.32183E+03-1.33559E+05 1.81217E-09-3.90901E-09
 -1       809-2.51461E+05-6.81616E+04-2.08911E+03-1.37625E+05 2.15550E-09 1.76630E-09
 -1       810-2.54522E+05-6.46404E+04-9.43065E+02-1.33877E+05 1.53523E-09 8.73570E-10
 -1       811-2.51258E+05-6.79268E+04-4.65255E+02-1.37663E+05 2.84535E-09 7.20047E-09
 -1       812-2.54544E+05-6.46237E+04-2.28921E+02-1.33891E+05 1.20807E-08-1.86219E-08
 -1       813-2.51234E+05-6.79235E+04-1.41309E+02-1.37656E+05 3.27371E-08-1.73302E-08
 -1       814-2.54542E+05-6.46320E+04-1.27359E+02-1.33887E+05 2.34586E-08-1.28466E-09
 -1       815-2.51233E+05-6.79312E+04-1.95415E+02-1.37648E+05 3.10615E-09-4.26826E-09
 -1       816-2.54521E+05-6.46475E+04-3.64319E+02-1.33875E+05-3.54294E-09-7.63976E-09
 -1       817-2.51305E+05-6.80151E+04-7.91093E+02-1.37609E+05 2.78669E-09-5.48062E-09
 -1       818-2.54470E+05-6.49337E+04-1.63020E+03-1.33757E+05-2.52840E-10-3.50065E-09
 -1       819-2.52197E+05-6.93311E+04-3.86746E+03-1.37151E+05 1.85764E-09-1.67893E-09
 -1       820-2.54364E+05-6.90937E+04-8.13226E+03-1.32134E+05 5.53882E-10 1.63891E-09
 -1       821-3.58001E+05 1.07368E+04-4.39072E+04 2.29366E+03-3.29374E-09 1.15688E-09
 -1       822-3.73998E+05-1.42552E+04-2.83021E+04 1.08965E+04-2.82819E-09-1.58798E-09
 -1       823-3.64679E+05 1.13138E+03-1.13934E+04 2.19675E+03 4.94174E-09 2.42017E-09
 -1       824-3.66568E+05-1.43419E+03-6.40147E+03 1.10394E+04-7.78186E-10-3.85535E-09
 -1       825-3.65458E+05 1.25941E+02-2.91701E+03 2.14960E+03-7.22457E-09-1.57684E-09
 -1       826-3.65710E+05-1.18933E+02-1.60045E+03 1.11172E+04-1.29212E-08-5.49562E-10
 -1       827-3.65560E+05 2.15736E+01-8.82092E+02 2.11867E+03-3.57113E-09 1.21850E-09
 -1       828-3.65621E+05 6.30154E+00-7.06276E+02 1.11651E+04-3.66276E-09 1.92441E-09
 -1       829-3.65562E+05 2.24223E+01-8.32313E+02 2.10157E+03 4.57317E-09-7.09484E-10
 -1       830-3.65714E+05-9.92549E+01-1.47147E+03 1.11843E+04 1.09863E-08-5.51847E-09
 -1       831-3.65473E+05 1.20672E+02-2.65783E+03 2.09951E+03-6.43354E-10 3.43175E-09
 -1       832-3.66507E+05-1.28941E+03-5.82544E+03 1.11734E+04-1.18575E-10-9.14952E-10
 -1       833-3.64767E+05 1.03830E+03-1.03579E+04 2.11273E+03 8.51969E-10 1.74305E-09
 -1       834-3.73275E+05-1.29430E+04-2.57366E+04 1.11174E+04 8.12292E-11 3.45653E-09
 -1       835-3.58696E+05 9.77603E+03-3.99189E+04 2.15795E+03 7.51015E-10-2.56659E-09
 -1       836-5.58891E+03 5.79885E+05 4.77971E+04-2.96581E+04-2.43745E-09-1.29603E-09
 -1       837 1.22179E+04 5.95605E+05 3.68755E+04-7.00240E+04-2.61662E-09 1.77818E-09
 -1       838-1.30549E+03 5.85039E+05 3.06368E+04-2.95910E+04-3.25781E-09 4.16506E-10
 -1       839 1.96141E+04 6.00700E+05 5.26799E+04-7.00213E+04-2.38651E-09-1.54023E-09
 -1       840-9.68809E+03 5.74788E+05 7.91790E+04-2.96592E+04-2.92857E-09-1.43700E-09
 -1       841 8.90408E+04 1.29473E+04-1.11831E+03 3.31896E+04-1.54387E-09 5.28132E-10
 -1       842 8.82542E+04 1.21958E+04-7.61488E+02 3.36988E+04-2.18907E-08 1.17021E-08
 -1       843 8.87774E+04 1.26165E+04-2.56962E+02 3.33458E+04-3.06971E-05 1.15544E-05
 -1       844 8.85763E+04 1.25650E+04-1.51407E+02 3.35001E+04-6.13795E-05 2.31214E-05
 -1       845 8.87186E+04 1.25783E+04-3.99829E+01 3.33882E+04-4.09439E-05 1.54142E-05
 -1       846 8.86557E+04 1.26098E+04 1.23802E+01 3.34431E+04-2.04752E-05 7.71383E-06
 -1       847 8.86980E+04 1.25717E+04 7.58956E+01 3.34027E+04-1.20101E-05 4.50984E-06
 -1       848 8.87082E+04 1.26597E+04 2.07646E+02 3.34188E+04-3.54559E-06 1.33819E-06
 -1       849 8.86661E+04 1.25285E+04 3.89281E+02 3.34125E+04-5.90053E-07 2.25038E-07
 -1       850 8.89083E+04 1.29875E+04 9.87577E+02 3.33649E+04 2.36264E-06-8.93779E-07
 -1       851 8.84978E+04 1.22439E+04 1.70644E+03 3.34565E+04 1.81003E-06-6.80788E-07
 -1       852 9.01110E+04 1.50700E+04 4.60826E+03 3.30087E+04 1.25523E-06-4.75478E-07
 -1       853 8.74632E+04 1.04462E+04 7.36961E+03 3.37685E+04-3.80578E-06 1.44673E-06
 -1       854 9.75508E+04 2.82374E+04 2.18535E+04 3.05821E+04-8.88226E-06 3.34347E-06
 -1       855 8.10585E+04-9.21112E+02 3.14546E+04 3.58823E+04-4.45587E-06 1.65954E-06
 -1       856-3.00324E+05 4.41865E+03-3.52166E+04 9.89695E+03-3.79987E-09-3.02498E-09
 -1       857-3.11834E+05-8.47506E+03-2.15053E+04 2.40397E+04-6.83917E-09-6.84986E-09
 -1       858-3.05307E+05 4.15761E+02-9.04342E+03 9.76925E+03-5.54110E-09-2.59024E-09
 -1       859-3.06460E+05-5.57364E+02-4.86409E+03 2.41918E+04 3.45244E-09-9.08130E-10
 -1       860-3.05788E+05 7.92961E+01-2.28392E+03 9.74051E+03-2.94676E-10-1.42268E-09
 -1       861-3.05972E+05 5.48403E+01-1.20122E+03 2.42318E+04-1.11523E-08-1.14704E-09
 -1       862-3.05852E+05 5.03838E+01-6.28968E+02 9.72849E+03 8.67033E-09-4.27087E-09
 -1       863-3.05924E+05 1.03536E+02-4.19422E+02 2.42455E+04 2.50534E-08-1.11392E-08
 -1       864-3.05859E+05 4.85599E+01-4.00302E+02 9.72671E+03 9.96806E-09-8.13685E-09
 -1       865-3.05937E+05 8.30560E+01-6.10083E+02 2.42379E+04 1.00050E-08 2.18279E-10
 -1       866-3.05828E+05 5.88518E+01-1.08194E+03 9.73613E+03 1.26261E-09-1.05044E-09
 -1       867-3.06149E+05-2.04724E+02-2.25889E+03 2.42057E+04 3.26690E-09-2.23932E-09
 -1       868-3.05601E+05 2.07824E+02-4.18359E+03 9.75937E+03 8.58881E-09-5.24551E-09
 -1       869-3.08606E+05-3.86912E+03-9.93052E+03 2.40673E+04-6.72912E-09-2.23372E-09
 -1       870-3.03291E+05 2.04498E+03-1.62655E+04 9.87689E+03-3.26509E-10-4.60841E-09
 -1       871-5.11597E+03-4.02649E+04-1.05924E+04 1.47805E+05 5.46788E-09-1.77715E-09
 -1       872-1.81891E+03-4.23507E+04-3.27902E+03 1.78324E+05 5.76620E-09 2.91993E-09
 -1       873-9.37447E+01-4.16142E+04 2.79213E+03 1.47504E+05 2.86582E-09-5.58521E-09
 -1       874 2.94388E+03-3.91128E+04 1.09174E+04 1.78445E+05 2.92857E-09-8.16544E-09
 -1       875 9.49079E+03-4.37220E+04 2.33598E+04 1.47707E+05 2.37014E-09-2.60297E-09
 -1       876 4.38352E+05 6.33298E+04 3.92085E+04 1.74613E+05-4.17231E-10-4.67116E-09
 -1       877 4.45491E+05 8.51668E+04 2.33043E+04 1.81744E+05-9.32835E-09-9.91395E-09
 -1       878 4.44142E+05 6.82359E+04 9.17233E+03 1.74945E+05 4.87671E-09 5.65024E-09
 -1       879 4.38649E+05 7.62520E+04 4.79161E+03 1.82674E+05 4.58022E-09 5.38159E-09
 -1       880 4.44651E+05 6.86922E+04 2.12891E+03 1.75002E+05 7.85576E-09 6.09884E-09
 -1       881 4.38041E+05 7.55380E+04 1.11318E+03 1.82662E+05-8.94033E-10 2.93082E-09
 -1       882 4.44694E+05 6.87529E+04 6.20442E+02 1.75019E+05 7.33507E-09 2.97925E-09
 -1       883 4.37992E+05 7.54759E+04 5.44016E+02 1.82636E+05-1.75398E-08 4.28591E-09
 -1       884 4.44685E+05 6.87562E+04 7.43245E+02 1.75022E+05-1.06613E-08-2.00191E-09
 -1       885 4.38077E+05 7.55437E+04 1.44216E+03 1.82642E+05 1.00279E-08-1.50110E-08
 -1       886 4.44610E+05 6.86911E+04 2.81885E+03 1.75010E+05 2.99588E-09-6.25414E-09
 -1       887 4.38902E+05 7.64757E+04 6.37400E+03 1.82624E+05-6.00789E-09 3.32329E-09
 -1       888 4.43912E+05 6.80992E+04 1.22171E+04 1.74943E+05-1.39338E-08 1.86992E-09
 -1       889 4.48004E+05 8.83569E+04 3.10419E+04 1.81376E+05 1.35313E-08-2.35514E-09
 -1       890 4.36206E+05 6.15569E+04 5.22349E+04 1.74480E+05 3.66572E-09-1.56433E-10
 -1       891 9.23279E+02-2.19513E+05-8.99282E+03 4.45370E+04 2.59206E-11-9.45874E-11
 -1       892-2.46882E+03-2.22357E+05-6.82059E+03 1.05904E+05 4.47881E-09 3.58830E-09
 -1       893 1.63105E+02-2.20553E+05-5.52534E+03 4.43971E+04 3.85671E-09-1.13687E-13
 -1       894-3.66145E+03-2.23124E+05-9.33036E+03 1.05872E+05-4.49654E-09-3.97631E-09
 -1       895 1.54346E+03-2.18673E+05-1.39843E+04 4.45676E+04-4.66207E-09 6.50289E-10
 -1       926-7.50910E+02-1.26497E+03 2.87424E+03 4.90613E+01 6.26326E-10-1.32411E-09
 -1       927 8.49846E+02 1.46402E+03 2.11850E+03-1.92046E+02-3.81287E-09-1.73600E-09
 -1       928-2.18751E+02-1.99645E+02 7.90123E+02 4.72505E+01 1.45974E-10-8.21217E-10
 -1       929 2.07295E+02 2.38479E+02 6.17911E+02-1.90200E+02 2.05316E-09-8.59735E-10
 -1       930-1.08886E+02-3.92982E+01 4.18718E+02 4.72134E+01 8.61107E-11-3.79437E-10
 -1       931 9.17485E+01 1.01414E+02 6.29674E+02-1.90192E+02-3.53798E-10-1.91619E-10
 -1       932-1.03595E+02-6.23312E+01 9.93637E+02 4.72421E+01-4.31806E-11-7.07701E-11
 -1       933 2.54598E+02 4.40623E+02 2.12174E+03-1.90177E+02-9.55317E-10 2.29193E-10
 -1       934-2.71978E+02-3.78284E+02 3.79789E+03 4.71980E+01-1.27696E-06-1.75987E-10
 -1       935 1.48453E+03 2.81117E+03 8.73398E+03-1.89882E+02-2.55207E-06-3.97677E-10
 -1       936-1.33337E+03-2.43236E+03 1.50185E+04 4.69472E+01-9.09195E-07-2.27374E-11
 -1       937 8.86207E+03 1.79775E+04 3.70700E+04-1.90576E+02 7.39825E-07 7.74889E-10
 -1       938-7.64471E+03-1.55407E+04 5.89780E+04 4.78926E+01 3.79405E-07-2.91038E-11
 -1       939 5.33244E+04 1.14417E+05 1.61383E+05-2.23899E+02 2.26761E-09 3.63798E-12
 -1       940-4.57165E+04-9.88346E+04 2.28127E+05 8.02690E+01-3.53064E-09 1.04774E-09
 -1       956-4.14923E+05-7.06541E+03-1.82682E+04 4.66645E+04-6.63022E-09 2.15368E-09
 -1       957-4.18592E+05-2.39047E+03-9.39690E+03 5.65242E+04-1.92631E-09 3.37604E-09
 -1       958-4.16625E+05-1.56842E+02-4.23850E+03 4.63625E+04 4.83124E-09 2.73894E-09
 -1       959-4.16952E+05 3.11112E+01-2.16255E+03 5.68530E+04-3.02862E-10 8.02174E-10
 -1       960-4.16821E+05 1.18726E+02-1.05482E+03 4.63319E+04-6.07724E-09-2.36469E-10
 -1       961-4.16881E+05 1.48772E+02-5.54137E+02 5.68885E+04-1.38680E-08 1.64573E-09
 -1       962-4.16884E+05 1.33171E+02-3.10287E+02 4.63261E+04-6.41194E-09-2.20598E-09
 -1       963-4.16905E+05 1.67737E+02-2.35009E+02 5.68963E+04-6.63363E-09-2.21326E-09
 -1       964-4.16907E+05 1.45832E+02-2.69786E+02 4.63238E+04-1.61299E-09-2.77532E-09
 -1       965-4.16929E+05 1.76581E+02-4.53140E+02 5.68968E+04 6.96750E-09-2.22735E-09
 -1       966-4.16890E+05 1.55924E+02-8.44739E+02 4.63255E+04-2.92357E-09-1.41426E-10
 -1       967-4.17023E+05 1.03790E+02-1.72828E+03 5.68772E+04 2.27533E-09-1.25829E-09
 -1       968-4.16763E+05-4.55498E+01-3.38167E+03 4.63440E+04 2.09457E-09-1.47998E-09
 -1       969-4.18367E+05-1.81471E+03-7.50456E+03 5.66682E+04 5.10954E-09 3.52372E-09
 -1       970-4.15423E+05-5.55395E+03-1.45859E+04 4.65420E+04 4.20187E-09 1.24965E-09
 -1       971-5.33672E+05 2.33770E+03-2.47442E+04 1.13335E+04-4.96311E-09 6.32372E-09
 -1       972-5.41489E+05-5.51157E+03-1.49121E+04 2.52915E+04-5.93172E-09 4.28554E-09
 -1       973-5.37109E+05 2.28057E+02-6.33927E+03 1.11575E+04-6.94672E-09 3.85444E-09
 -1       974-5.37839E+05-3.05748E+02-3.39196E+03 2.55134E+04 4.07817E-09 4.72141E-09
 -1       975-5.37434E+05 6.11229E+01-1.62878E+03 1.11087E+04 8.03402E-09 2.04636E-09
 -1       976-5.37545E+05 7.65935E+01-9.00017E+02 2.55869E+04-6.46287E-09-1.77806E-10
 -1       977-5.37483E+05 5.30776E+01-5.66105E+02 1.10834E+04 4.79440E-09 5.21925E-09
 -1       978-5.37538E+05 1.09433E+02-5.51009E+02 2.56214E+04 2.27017E-08 9.38485E-10
 -1       979-5.37483E+05 6.07268E+01-7.88018E+02 1.10740E+04 1.10165E-08 2.09917E-09
 -1       980-5.37608E+05 6.93201E+01-1.47583E+03 2.56236E+04 1.69567E-08 3.17084E-09
 -1       981-5.37416E+05 9.57427E+01-2.79962E+03 1.10813E+04 1.61913E-09 3.30982E-09
 -1       982-5.38185E+05-5.73935E+02-5.92367E+03 2.55899E+04-6.70707E-09 5.29224E-09
 -1       983-5.36872E+05 4.14097E+02-1.10926E+04 1.11085E+04 5.32964E-10 1.36015E-09
 -1       984-5.44662E+05-9.67425E+03-2.61493E+04 2.54412E+04-7.65795E-09 1.39312E-09
 -1       985-5.30872E+05 4.14733E+03-4.33706E+04 1.12376E+04 3.03908E-09 4.13456E-09
 -3
    1PSTEP                        25          13           1          
  100CL  113 9.78851E-01         568                     0   13           1
 -4  DISP        4    1
 -5  D1          1    2    1    0
 -5  D2          1    2    2    0
 -5  D3          1    2    3    0
 -5  ALL         1    2    0    0    1ALL
 -1         1 1.45986E-04 0.00000E+00 0.00000E+00
 -1         2 1.46034E-04 0.00000E+00 0.00000E+00
 -1         3 9.77666E-05-5.95339E-28 1.32349E-23
 -1         4 7.18375E-05-1.05116E-28 5.04871E-29
 -1         5 7.27000E-05 3.30677E-27 6.61744E-24
 -1         8 1.16008E-04-1.47499E-06 0.00000E+00
 -1         9 9.04604E-05-1.11546E-05 0.00000E+00
 -1        10 8.91084E-05-2.81958E-06 0.00000E+00
 -1        11 7.13915E-05-7.92819E-06 0.00000E+00
 -1        12 7.14032E-05 1.19862E-06 0.00000E+00
 -1        15 8.39483E-05-1.59887E-06 0.00000E+00
 -1        16 7.37982E-05-1.13289E-05 0.00000E+00
 -1        17 6.55286E-05-5.66344E-06 0.00000E+00
 -1        18 6.54789E-05-5.98879E-07 0.00000E+00
 -1        19 6.75287E-05 2.38842E-06 0.00000E+00
 -1        20 6.82577E-05 2.78691E-05 0.00000E+00
 -1        21 6.81953E-05 6.19436E-05 0.00000E+00
 -1        23 2.58867E-05-8.94968E-05-8.07794E-28
 -1        24 2.56140E-05-6.96871E-06 0.00000E+00
 -1        25 6.09206E-05-2.54524E-07 0.00000E+00
 -1        26 6.25982E-05 3.18861E-06 0.00000E+00
 -1        27 6.04207E-05 2.66942E-05 0.00000E+00
 -1        28 5.85722E-05 6.07808E-05 0.00000E+00
 -1        31 7.85372E-08-7.08963E-06 0.00000E+00
 -1        32 0.00000E+00 0.00000E+00 0.00000E+00
 -1        33 5.69834E-05 4.46522E-06 0.00000E+00
 -1        34 5.44854E-05 2.65934E-05 0.00000E+00
 -1        35 5.12560E-05 6.02873E-05 0.00000E+00
 -1        36 1.45972E-04 9.43022E-19 6.61744E-24
 -1        37 1.45975E-04 4.63304E-18 0.00000E+00
 -1        38 1.45977E-04 1.15655E-17 1.65436E-24
 -1        39 1.45982E-04 2.17333E-17 0.00000E+00
 -1        40 1.45987E-04 3.27981E-17 0.00000E+00
 -1        41 1.45993E-04 4.37167E-17 0.00000E+00
 -1        42 1.45999E-04 5.14671E-17 0.00000E+00
 -1        43 1.46005E-04 5.56964E-17 0.00000E+00
 -1        44 1.46011E-04 5.71570E-17 0.00000E+00
 -1        45 1.46017E-04 5.45886E-17 2.58494E-26
 -1        46 1.46022E-04 4.78273E-17 5.16988E-26
 -1        47 1.46028E-04 3.81012E-17 2.06795E-25
 -1        48 1.46033E-04 2.55950E-17 8.27181E-25
 -1        49 1.46036E-04 1.36910E-17 8.27181E-25
 -1        50 1.46040E-04 4.12997E-18-3.30872E-24
 -1        51 1.43723E-04-2.43422E-07 0.00000E+00
 -1        52 1.39973E-04-4.80771E-07 0.00000E+00
 -1        53 1.35022E-04-7.19170E-07 0.00000E+00
 -1        54 1.29175E-04-9.61488E-07-6.61744E-24
 -1        55 1.22735E-04-1.21004E-06 6.20385E-24
 -1        56 1.45528E-04-7.60951E-06 0.00000E+00
 -1        57 1.49494E-04-2.78019E-05 2.64698E-23
 -1        58 1.56722E-04-5.72868E-05 0.00000E+00
 -1        59 1.65724E-04-9.20238E-05 0.00000E+00
 -1        60 1.74745E-04-1.26821E-04-1.05879E-22
 -1        61 1.82011E-04-1.56488E-04 0.00000E+00
 -1        62 1.86055E-04-1.76955E-04 0.00000E+00
 -1        63 1.85591E-04-1.84927E-04 0.00000E+00
 -1        64 1.80219E-04-1.79804E-04 1.05879E-22
 -1        65 1.69937E-04-1.62052E-04 0.00000E+00
 -1        66 1.55856E-04-1.34805E-04-1.05879E-22
 -1        67 1.39475E-04-1.01937E-04-5.29396E-23
 -1        68 1.22859E-04-6.84964E-05 1.05879E-22
 -1        69 1.08117E-04-3.95641E-05-2.64698E-23
 -1        70 9.68587E-05-1.93071E-05 0.00000E+00
 -1        86 1.63962E-04-8.76819E-07 1.32349E-23
 -1        87 2.16962E-04-2.92990E-06 6.61744E-24
 -1        88 2.45345E-04-4.28486E-06 0.00000E+00
 -1        89 1.90514E-04-6.69669E-06 0.00000E+00
 -1        90 1.17078E-04-1.00353E-05 0.00000E+00
 -1       121 9.75230E-05-4.68764E-07-1.32349E-23
 -1       122 9.67933E-05-9.37740E-07 0.00000E+00
 -1       123 9.55806E-05-1.40716E-06-1.32349E-23
 -1       124 9.38903E-05-1.87718E-06-6.61744E-24
 -1       125 9.17296E-05-2.34807E-06 0.00000E+00
 -1       161 7.18412E-05-9.99731E-09-1.00974E-28
 -1       162 7.18525E-05-3.99532E-08-1.00974E-28
 -1       163 7.18687E-05-8.31764E-08 0.00000E+00
 -1       164 7.18873E-05-1.32974E-07 0.00000E+00
 -1       165 7.19060E-05-1.82653E-07 1.61559E-27
 -1       166 7.19220E-05-2.25523E-07 0.00000E+00
 -1       167 7.19331E-05-2.54889E-07 0.00000E+00
 -1       168 7.19365E-05-2.64057E-07 0.00000E+00
 -1       169 7.19299E-05-2.46336E-07 0.00000E+00
 -1       170 7.19107E-05-1.95016E-07 2.58494E-26
 -1       171 7.18765E-05-1.03417E-07 0.00000E+00
 -1       172 7.18249E-05 3.52521E-08 2.06795E-25
 -1       173 7.17532E-05 2.27598E-07 0.00000E+00
 -1       174 7.16603E-05 4.80883E-07-8.27181E-25
 -1       175 7.15416E-05 8.01198E-07-3.30872E-24
 -1       191 7.26640E-05 1.99831E-07 6.61744E-24
 -1       192 7.25558E-05 3.99654E-07-3.30872E-24
 -1       193 7.23754E-05 5.99465E-07 0.00000E+00
 -1       194 7.21231E-05 7.99250E-07 3.30872E-24
 -1       195 7.17988E-05 9.98989E-07-6.61744E-24
 -1       251 1.14880E-04 5.04955E-06 0.00000E+00
 -1       252 1.13720E-04 1.36706E-05 1.32349E-23
 -1       253 1.12565E-04 1.13373E-05 0.00000E+00
 -1       254 1.11103E-04-1.44256E-05 0.00000E+00
 -1       255 1.09794E-04-2.54359E-05 0.00000E+00
 -1       256 1.07757E-04 1.56174E-05 1.32349E-23
 -1       257 1.06004E-04 4.30353E-05 0.00000E+00
 -1       258 1.03380E-04-7.92021E-06 1.32349E-23
 -1       259 1.00793E-04-5.77808E-05 2.64698E-23
 -1       260 9.89371E-05-2.71594E-05 1.32349E-23
 -1       261 9.67955E-05 1.60314E-05 0.00000E+00
 -1       262 9.54437E-05 2.97733E-06 0.00000E+00
 -1       263 9.39129E-05-2.52178E-05 2.64698E-23
 -1       264 9.27521E-05-2.65373E-05 0.00000E+00
 -1       265 9.15794E-05-1.64816E-05 0.00000E+00
 -1       266 1.10664E-04-1.51643E-06 0.00000E+00
 -1       267 1.05321E-04-1.53453E-06 0.00000E+00
 -1       268 9.99780E-05-1.55414E-06 1.65436E-24
 -1       269 9.46347E-05-1.56934E-06-4.13590E-25
 -1       270 8.92915E-05-1.58446E-06 0.00000E+00
 -1       271 1.11809E-04 2.29198E-06 0.00000E+00
 -1       272 1.07998E-04 4.78828E-06 0.00000E+00
 -1       273 1.04628E-04 6.12496E-06-5.29396E-23
 -1       274 1.01642E-04 6.40501E-06-2.64698E-23
 -1       275 9.90017E-05 5.76294E-06 1.05879E-22
 -1       276 9.66473E-05 4.35129E-06-5.29396E-23
 -1       277 9.45167E-05 2.34002E-06 0.00000E+00
 -1       278 9.25412E-05-8.69654E-08 0.00000E+00
 -1       279 9.06488E-05-2.73673E-06 0.00000E+00
 -1       280 8.87658E-05-5.41089E-06-5.29396E-23
 -1       281 8.68181E-05-7.91073E-06 1.05879E-22
 -1       282 8.47344E-05-1.00414E-05 0.00000E+00
 -1       283 8.24441E-05-1.16165E-05-5.29396E-23
 -1       284 7.98908E-05-1.24597E-05-2.64698E-23
 -1       285 7.70030E-05-1.24175E-05 5.29396E-23
 -1       286 9.03633E-05-7.28067E-06 6.61744E-24
 -1       287 9.02750E-05-1.33304E-06 0.00000E+00
 -1       288 9.01851E-05 4.67968E-06 3.30872E-24
 -1       289 9.01082E-05 8.74946E-06-1.65436E-24
 -1       290 9.00382E-05 9.84131E-06-3.30872E-24
 -1       291 8.99654E-05 6.92941E-06-8.27181E-25
 -1       292 8.98804E-05 9.98750E-07 1.65436E-24
 -1       293 8.97820E-05-6.95644E-06 0.00000E+00
 -1       294 8.96836E-05-1.49166E-05 1.65436E-24
 -1       295 8.95986E-05-2.08621E-05-8.27181E-25
 -1       296 8.95258E-05-2.37937E-05 3.30872E-24
 -1       297 8.94560E-05-2.27214E-05-1.65436E-24
 -1       298 8.93793E-05-1.86658E-05 0.00000E+00
 -1       299 8.92901E-05-1.26570E-05 0.00000E+00
 -1       300 8.92023E-05-6.70485E-06-6.61744E-24
 -1       301 8.76015E-05-1.11939E-05 0.00000E+00
 -1       302 8.47579E-05-1.12111E-05 3.30872E-24
 -1       303 8.19427E-05-1.12256E-05 0.00000E+00
 -1       304 7.91690E-05-1.12421E-05-3.30872E-24
 -1       305 7.64499E-05-1.12652E-05 1.32349E-23
 -1       306 8.83546E-05-9.26685E-06 0.00000E+00
 -1       307 8.65360E-05-8.23505E-06 0.00000E+00
 -1       308 8.49900E-05-7.92539E-06 0.00000E+00
 -1       309 8.36614E-05-8.20838E-06 1.32349E-23
 -1       310 8.25024E-05-8.94491E-06-5.29396E-23
 -1       311 8.14587E-05-9.99194E-06 0.00000E+00
 -1       312 8.04762E-05-1.12028E-05 0.00000E+00
 -1       313 7.94993E-05-1.24289E-05 2.64698E-23
 -1       314 7.84725E-05-1.35217E-05 0.00000E+00
 -1       315 7.73408E-05-1.43339E-05-2.64698E-23
 -1       316 7.60502E-05-1.47217E-05 0.00000E+00
 -1       317 7.45492E-05-1.45459E-05 0.00000E+00
 -1       318 7.27871E-05-1.36739E-05 2.64698E-23
 -1       319 7.07217E-05-1.19793E-05-1.32349E-23
 -1       320 6.83015E-05-9.34888E-06 0.00000E+00
 -1       336 8.60383E-05-3.29223E-06 0.00000E+00
 -1       337 8.25628E-05-3.76634E-06 0.00000E+00
 -1       338 7.87267E-05-4.24153E-06 1.32349E-23
 -1       339 7.45767E-05-4.71683E-06 0.00000E+00
 -1       340 7.01609E-05-5.19336E-06 0.00000E+00
 -1       356 7.13913E-05-7.33336E-06-2.01948E-28
 -1       357 7.13911E-05-6.72848E-06 0.00000E+00
 -1       358 7.13909E-05-6.11638E-06 8.07794E-28
 -1       359 7.13908E-05-5.49993E-06-8.07794E-28
 -1       360 7.13906E-05-4.88197E-06 0.00000E+00
 -1       361 7.13904E-05-4.26536E-06 0.00000E+00
 -1       362 7.13902E-05-3.65294E-06 1.29247E-26
 -1       363 7.13901E-05-3.04759E-06 0.00000E+00
 -1       364 7.13899E-05-2.45214E-06 0.00000E+00
 -1       365 7.13899E-05-1.86945E-06 0.00000E+00
 -1       366 7.13899E-05-1.30238E-06 2.06795E-25
 -1       367 7.13902E-05-7.53763E-07-2.06795E-25
 -1       368 7.13905E-05-2.26478E-07 8.27181E-25
 -1       369 7.13924E-05 2.76616E-07 0.00000E+00
 -1       370 7.13938E-05 7.52618E-07 3.30872E-24
 -1       376 7.11720E-05-7.34345E-06-1.00974E-28
 -1       377 7.09563E-05-6.76867E-06 5.04871E-29
 -1       378 7.07429E-05-6.19999E-06-2.01948E-28
 -1       379 7.05303E-05-5.63358E-06-2.01948E-28
 -1       380 7.03171E-05-5.06559E-06 8.07794E-28
 -1       381 7.01019E-05-4.49219E-06 0.00000E+00
 -1       382 6.98832E-05-3.90952E-06 6.46235E-27
 -1       383 6.96596E-05-3.31377E-06 0.00000E+00
 -1       384 6.94297E-05-2.70106E-06 0.00000E+00
 -1       385 6.91919E-05-2.06755E-06 0.00000E+00
 -1       386 6.89450E-05-1.40943E-06 0.00000E+00
 -1       387 6.86875E-05-7.22763E-07 0.00000E+00
 -1       388 6.84179E-05-3.78371E-09 0.00000E+00
 -1       389 6.81356E-05 7.51700E-07 4.13590E-25
 -1       390 6.78379E-05 1.54713E-06 0.00000E+00
 -1       406 7.09370E-05 1.39820E-06 6.61744E-24
 -1       407 7.03995E-05 1.59772E-06 0.00000E+00
 -1       408 6.97899E-05 1.79708E-06 6.61744E-24
 -1       409 6.91081E-05 1.99594E-06 0.00000E+00
 -1       410 6.83542E-05 2.19382E-06 0.00000E+00
 -1       501 7.35960E-05 1.86681E-07-1.32349E-23
 -1       502 7.30820E-05 2.94929E-05 0.00000E+00
 -1       503 7.24418E-05 6.32057E-05 0.00000E+00
 -1       504 7.20615E-05 8.79364E-05 1.65436E-24
 -1       505 7.19206E-05 9.60550E-05 3.30872E-24
 -1       506 7.16894E-05 8.00029E-05 1.65436E-24
 -1       507 7.09949E-05 4.45394E-05 0.00000E+00
 -1       508 6.97011E-05-5.49230E-06 0.00000E+00
 -1       509 6.83797E-05-5.61270E-05 0.00000E+00
 -1       510 6.76238E-05-9.33975E-05-1.65436E-24
 -1       511 6.73536E-05-1.11813E-04-3.30872E-24
 -1       512 6.72293E-05-1.05964E-04 0.00000E+00
 -1       513 6.68846E-05-8.27573E-05 0.00000E+00
 -1       514 6.62541E-05-4.91776E-05-1.65436E-24
 -1       515 6.57189E-05-1.89181E-05 0.00000E+00
 -1       521 7.04992E-05-1.00882E-05 0.00000E+00
 -1       522 6.74023E-05-9.59237E-06-2.64698E-23
 -1       523 6.45384E-05-9.71101E-06 5.29396E-23
 -1       524 6.18507E-05-1.03289E-05-5.29396E-23
 -1       525 5.92989E-05-1.13127E-05 0.00000E+00
 -1       526 5.68303E-05-1.25234E-05 5.29396E-23
 -1       527 5.43921E-05-1.38165E-05 0.00000E+00
 -1       528 5.19298E-05-1.50458E-05 0.00000E+00
 -1       529 4.93892E-05-1.60667E-05 1.05879E-22
 -1       530 4.67184E-05-1.67394E-05 0.00000E+00
 -1       531 4.38676E-05-1.69319E-05 0.00000E+00
 -1       532 4.07926E-05-1.65234E-05 0.00000E+00
 -1       533 3.74521E-05-1.54070E-05 0.00000E+00
 -1       534 3.38204E-05-1.34896E-05 0.00000E+00
 -1       535 2.98576E-05-1.07025E-05 5.29396E-23
 -1       536 6.55046E-05-1.49768E-06 0.00000E+00
 -1       537 6.54965E-05 1.67064E-06 0.00000E+00
 -1       538 6.54905E-05 3.94472E-06 1.65436E-24
 -1       539 6.54878E-05 5.42855E-06 0.00000E+00
 -1       540 6.54862E-05 6.22594E-06 0.00000E+00
 -1       541 6.54852E-05 6.44077E-06 0.00000E+00
 -1       542 6.54844E-05 6.17690E-06 0.00000E+00
 -1       543 6.54834E-05 5.53822E-06 0.00000E+00
 -1       544 6.54824E-05 4.62861E-06 0.00000E+00
 -1       545 6.54812E-05 3.55195E-06 0.00000E+00
 -1       546 6.54799E-05 2.41212E-06 0.00000E+00
 -1       547 6.54788E-05 1.31301E-06 0.00000E+00
 -1       548 6.54778E-05 3.58500E-07 0.00000E+00
 -1       549 6.54774E-05-3.47548E-07 0.00000E+00
 -1       550 6.54771E-05-7.01189E-07 1.65436E-24
 -1       551 5.95975E-05-5.87110E-06-8.27181E-25
 -1       552 5.29493E-05-6.07838E-06 2.48154E-24
 -1       553 4.59027E-05-6.28826E-06 6.61744E-24
 -1       554 3.87823E-05-6.50181E-06 0.00000E+00
 -1       555 3.19127E-05-6.71998E-06 0.00000E+00
 -1       556 6.38574E-05-1.68665E-06-2.64698E-23
 -1       557 6.25424E-05 1.37130E-06 0.00000E+00
 -1       558 6.15438E-05 3.59623E-06 0.00000E+00
 -1       559 6.08249E-05 5.08200E-06 0.00000E+00
 -1       560 6.03493E-05 5.92252E-06 0.00000E+00
 -1       561 6.00808E-05 6.21251E-06 0.00000E+00
 -1       562 5.99835E-05 6.04681E-06-1.32349E-23
 -1       563 6.00215E-05 5.52044E-06 0.00000E+00
 -1       564 6.01590E-05 4.72852E-06 0.00000E+00
 -1       565 6.03602E-05 3.76622E-06 0.00000E+00
 -1       566 6.05897E-05 2.72880E-06 0.00000E+00
 -1       567 6.08117E-05 1.71152E-06-8.27181E-25
 -1       568 6.09907E-05 8.09609E-07 1.86116E-24
 -1       569 6.10913E-05 1.18202E-07-1.65436E-24
 -1       570 6.10783E-05-2.67664E-07 0.00000E+00
 -1       571 6.56025E-05-3.45356E-07 1.65436E-24
 -1       572 6.57294E-05-1.77764E-07-1.24077E-24
 -1       573 6.58573E-05-8.03447E-08-1.65436E-24
 -1       574 6.59857E-05-3.65425E-08 1.65436E-24
 -1       575 6.61143E-05-2.97334E-08-3.30872E-24
 -1       576 6.62429E-05-4.31880E-08 0.00000E+00
 -1       577 6.63716E-05-6.01691E-08 3.30872E-24
 -1       578 6.65003E-05-6.39253E-08 3.30872E-24
 -1       579 6.66290E-05-3.77040E-08 0.00000E+00
 -1       580 6.67577E-05 3.52492E-08 6.61744E-24
 -1       581 6.68864E-05 1.71687E-07 0.00000E+00
 -1       582 6.70151E-05 3.88349E-07 0.00000E+00
 -1       583 6.71437E-05 7.01959E-07-6.61744E-24
 -1       584 6.72722E-05 1.12908E-06 0.00000E+00
 -1       585 6.74006E-05 1.68617E-06 0.00000E+00
 -1       586 6.48336E-05-5.40300E-07 0.00000E+00
 -1       587 6.40852E-05-4.81451E-07 0.00000E+00
 -1       588 6.32762E-05-4.22711E-07 0.00000E+00
 -1       589 6.24502E-05-3.64499E-07 0.00000E+00
 -1       590 6.16507E-05-3.07424E-07 0.00000E+00
 -1       591 6.52819E-05-2.97746E-07 0.00000E+00
 -1       592 6.51010E-05-5.69444E-08 0.00000E+00
 -1       593 6.49370E-05 1.35716E-07 0.00000E+00
 -1       594 6.47863E-05 2.91099E-07 0.00000E+00
 -1       595 6.46454E-05 4.20107E-07 0.00000E+00
 -1       596 6.45101E-05 5.33555E-07-1.65436E-24
 -1       597 6.43766E-05 6.42246E-07-3.30872E-24
 -1       598 6.42408E-05 7.56974E-07-8.27181E-25
 -1       599 6.40987E-05 8.88529E-07-3.30872E-24
 -1       600 6.39463E-05 1.04770E-06 0.00000E+00
 -1       601 6.37795E-05 1.24527E-06 1.65436E-24
 -1       602 6.35943E-05 1.49205E-06 4.13590E-25
 -1       603 6.33868E-05 1.79881E-06 8.27181E-25
 -1       604 6.31533E-05 2.17644E-06-3.10193E-25
 -1       605 6.28902E-05 2.63575E-06 0.00000E+00
 -1       606 6.75796E-05 3.35071E-06 6.61744E-24
 -1       607 6.76271E-05 4.43499E-06 0.00000E+00
 -1       608 6.76736E-05 5.63406E-06 0.00000E+00
 -1       609 6.77194E-05 6.93970E-06 0.00000E+00
 -1       610 6.77650E-05 8.34367E-06 0.00000E+00
 -1       611 6.78104E-05 9.83755E-06 0.00000E+00
 -1       612 6.78556E-05 1.14129E-05-3.30872E-24
 -1       613 6.79007E-05 1.30614E-05 0.00000E+00
 -1       614 6.79457E-05 1.47745E-05 0.00000E+00
 -1       615 6.79906E-05 1.65438E-05 0.00000E+00
 -1       616 6.80355E-05 1.83610E-05 3.30872E-24
 -1       617 6.80802E-05 2.02175E-05 0.00000E+00
 -1       618 6.81249E-05 2.21050E-05 0.00000E+00
 -1       619 6.81694E-05 2.40150E-05-8.27181E-25
 -1       620 6.82138E-05 2.59392E-05 0.00000E+00
 -1       621 6.66399E-05 2.52258E-06-3.30872E-24
 -1       622 6.57615E-05 2.65713E-06-1.65436E-24
 -1       623 6.49058E-05 2.79163E-06 3.30872E-24
 -1       624 6.40852E-05 2.92576E-06 0.00000E+00
 -1       625 6.33120E-05 3.05919E-06-1.65436E-24
 -1       626 6.72716E-05 3.41383E-06 0.00000E+00
 -1       627 6.69657E-05 4.56752E-06 0.00000E+00
 -1       628 6.66160E-05 5.83722E-06 6.61744E-24
 -1       629 6.62276E-05 7.20943E-06 0.00000E+00
 -1       630 6.58057E-05 8.67060E-06 0.00000E+00
 -1       631 6.53555E-05 1.02070E-05 0.00000E+00
 -1       632 6.48820E-05 1.18050E-05 0.00000E+00
 -1       633 6.43906E-05 1.34509E-05 0.00000E+00
 -1       634 6.38862E-05 1.51309E-05 0.00000E+00
 -1       635 6.33742E-05 1.68313E-05 0.00000E+00
 -1       636 6.28596E-05 1.85384E-05 0.00000E+00
 -1       637 6.23475E-05 2.02386E-05 0.00000E+00
 -1       638 6.18431E-05 2.19180E-05 0.00000E+00
 -1       639 6.13512E-05 2.35630E-05 0.00000E+00
 -1       640 6.08763E-05 2.51598E-05-1.65436E-24
 -1       641 6.82565E-05 2.98149E-05-4.13590E-25
 -1       642 6.82537E-05 3.18680E-05 0.00000E+00
 -1       643 6.82508E-05 3.40109E-05 1.03398E-25
 -1       644 6.82475E-05 3.62266E-05 0.00000E+00
 -1       645 6.82441E-05 3.84971E-05 0.00000E+00
 -1       646 6.82405E-05 4.08047E-05 0.00000E+00
 -1       647 6.82369E-05 4.31310E-05-2.58494E-26
 -1       648 6.82332E-05 4.54578E-05-2.58494E-26
 -1       649 6.82296E-05 4.77669E-05 0.00000E+00
 -1       650 6.82259E-05 5.00402E-05 0.00000E+00
 -1       651 6.82224E-05 5.22597E-05 0.00000E+00
 -1       652 6.82187E-05 5.44076E-05 2.06795E-25
 -1       653 6.82152E-05 5.64666E-05 0.00000E+00
 -1       654 6.82105E-05 5.84196E-05-8.27181E-25
 -1       655 6.82064E-05 6.02505E-05 3.30872E-24
 -1       656 6.65688E-05 2.76791E-05 3.30872E-24
 -1       657 6.51768E-05 2.74799E-05 1.65436E-24
 -1       658 6.39742E-05 2.72814E-05 0.00000E+00
 -1       659 6.28528E-05 2.70830E-05 1.65436E-24
 -1       660 6.17044E-05 2.68841E-05-3.30872E-24
 -1       661 6.76733E-05 2.98572E-05 0.00000E+00
 -1       662 6.70682E-05 3.19150E-05 1.65436E-24
 -1       663 6.64422E-05 3.40281E-05-3.30872E-24
 -1       664 6.58009E-05 3.61840E-05 1.65436E-24
 -1       665 6.51484E-05 3.83698E-05 3.30872E-24
 -1       666 6.44894E-05 4.05731E-05-1.65436E-24
 -1       667 6.38287E-05 4.27811E-05 3.30872E-24
 -1       668 6.31709E-05 4.49814E-05 0.00000E+00
 -1       669 6.25208E-05 4.71612E-05 0.00000E+00
 -1       670 6.18831E-05 4.93081E-05 1.65436E-24
 -1       671 6.12626E-05 5.14093E-05 0.00000E+00
 -1       672 6.06639E-05 5.34522E-05 0.00000E+00
 -1       673 6.00917E-05 5.54240E-05 3.30872E-24
 -1       674 5.95500E-05 5.73116E-05-1.65436E-24
 -1       675 5.90448E-05 5.91026E-05-1.65436E-24
 -1       676 6.65716E-05 6.17484E-05 0.00000E+00
 -1       677 6.49513E-05 6.15531E-05 0.00000E+00
 -1       678 6.33379E-05 6.13579E-05 6.61744E-24
 -1       679 6.17346E-05 6.11636E-05 0.00000E+00
 -1       680 6.01450E-05 6.09691E-05 3.30872E-24
 -1       716 2.58739E-05-8.43388E-05 0.00000E+00
 -1       717 2.58612E-05-7.91808E-05 8.07794E-28
 -1       718 2.58484E-05-7.40227E-05 3.23117E-27
 -1       719 2.58356E-05-6.88647E-05 3.23117E-27
 -1       720 2.58228E-05-6.37067E-05 0.00000E+00
 -1       721 2.58100E-05-5.85486E-05 1.29247E-26
 -1       722 2.57972E-05-5.33906E-05 0.00000E+00
 -1       723 2.57843E-05-4.82326E-05 5.16988E-26
 -1       724 2.57714E-05-4.30745E-05 0.00000E+00
 -1       725 2.57581E-05-3.79166E-05 0.00000E+00
 -1       726 2.57447E-05-3.27585E-05 0.00000E+00
 -1       727 2.57298E-05-2.76005E-05 0.00000E+00
 -1       728 2.57147E-05-2.24425E-05-3.30872E-24
 -1       729 2.56922E-05-1.72845E-05 0.00000E+00
 -1       730 2.56723E-05-1.21265E-05 1.32349E-23
 -1       766 2.05610E-05-7.02645E-06 1.32349E-23
 -1       767 1.57180E-05-7.04491E-06 0.00000E+00
 -1       768 1.11667E-05-7.06450E-06 3.30872E-24
 -1       769 6.98924E-06-7.07524E-06 8.27181E-25
 -1       770 3.26628E-06-7.08396E-06 8.27181E-25
 -1       771 2.26497E-05-2.87937E-06 0.00000E+00
 -1       772 1.99918E-05 3.61447E-07-2.64698E-23
 -1       773 1.76251E-05 2.82711E-06-5.29396E-23
 -1       774 1.55211E-05 4.59366E-06 0.00000E+00
 -1       775 1.36514E-05 5.73789E-06 5.29396E-23
 -1       776 1.19865E-05 6.33794E-06-2.64698E-23
 -1       777 1.04965E-05 6.47251E-06 0.00000E+00
 -1       778 9.15153E-06 6.22121E-06-2.64698E-23
 -1       779 7.92134E-06 5.66405E-06-5.29396E-23
 -1       780 6.77566E-06 4.88165E-06 2.64698E-23
 -1       781 5.68421E-06 3.95487E-06 5.29396E-23
 -1       782 4.61670E-06 2.96490E-06-2.64698E-23
 -1       783 3.54290E-06 1.99297E-06 2.64698E-23
 -1       784 2.43339E-06 1.12046E-06 0.00000E+00
 -1       785 1.25855E-06 4.28541E-07 2.64698E-23
 -1       786 6.10191E-05 1.69338E-07 8.27181E-25
 -1       787 6.11237E-05 4.88783E-07 0.00000E+00
 -1       788 6.12281E-05 7.20327E-07-3.30872E-24
 -1       789 6.13336E-05 8.80471E-07-1.65436E-24
 -1       790 6.14391E-05 9.85634E-07-3.30872E-24
 -1       791 6.15449E-05 1.05219E-06 1.65436E-24
 -1       792 6.16507E-05 1.09646E-06-3.30872E-24
 -1       793 6.17565E-05 1.13476E-06-1.65436E-24
 -1       794 6.18623E-05 1.18339E-06-3.30872E-24
 -1       795 6.19681E-05 1.25866E-06-1.65436E-24
 -1       796 6.20739E-05 1.37691E-06 0.00000E+00
 -1       797 6.21796E-05 1.55453E-06 1.65436E-24
 -1       798 6.22853E-05 1.80796E-06 0.00000E+00
 -1       799 6.23905E-05 2.15370E-06 0.00000E+00
 -1       800 6.24957E-05 2.60837E-06-3.30872E-24
 -1       801 5.58195E-05-1.66903E-07 0.00000E+00
 -1       802 4.46128E-05-1.16004E-07 1.65436E-24
 -1       803 3.03631E-05-9.85029E-08 0.00000E+00
 -1       804 1.61349E-05-8.67509E-08 0.00000E+00
 -1       805 4.99273E-06-4.15154E-08 0.00000E+00
 -1       806 6.06489E-05 1.22058E-07 3.30872E-24
 -1       807 6.03935E-05 4.44631E-07 0.00000E+00
 -1       808 6.01538E-05 7.22748E-07 0.00000E+00
 -1       809 5.99268E-05 9.65622E-07-1.65436E-24
 -1       810 5.97094E-05 1.18244E-06 3.30872E-24
 -1       811 5.94983E-05 1.38238E-06 0.00000E+00
 -1       812 5.92901E-05 1.57458E-06-3.30872E-24
 -1       813 5.90814E-05 1.76820E-06-1.65436E-24
 -1       814 5.88686E-05 1.97240E-06-3.30872E-24
 -1       815 5.86485E-05 2.19633E-06 0.00000E+00
 -1       816 5.84175E-05 2.44913E-06-1.65436E-24
 -1       817 5.81723E-05 2.73994E-06 1.65436E-24
 -1       818 5.79094E-05 3.07791E-06 3.30872E-24
 -1       819 5.76256E-05 3.47212E-06 8.27181E-25
 -1       820 5.73176E-05 3.93165E-06 0.00000E+00
 -1       821 6.24704E-05 3.94450E-06 1.65436E-24
 -1       822 6.23349E-05 4.88967E-06 1.65436E-24
 -1       823 6.21993E-05 6.00456E-06-3.30872E-24
 -1       824 6.20625E-05 7.26919E-06 0.00000E+00
 -1       825 6.19253E-05 8.66349E-06 0.00000E+00
 -1       826 6.17877E-05 1.01672E-05 0.00000E+00
 -1       827 6.16500E-05 1.17598E-05 0.00000E+00
 -1       828 6.15121E-05 1.34210E-05 1.65436E-24
 -1       829 6.13741E-05 1.51299E-05 3.30872E-24
 -1       830 6.12361E-05 1.68660E-05-1.65436E-24
 -1       831 6.10982E-05 1.86086E-05 0.00000E+00
 -1       832 6.09604E-05 2.03369E-05-1.65436E-24
 -1       833 6.08229E-05 2.20302E-05 3.30872E-24
 -1       834 6.06865E-05 2.36679E-05 1.65436E-24
 -1       835 6.05501E-05 2.52294E-05 0.00000E+00
 -1       836 6.18013E-05 3.39826E-06 0.00000E+00
 -1       837 6.08382E-05 3.61493E-06 0.00000E+00
 -1       838 5.97919E-05 3.83125E-06 6.61744E-24
 -1       839 5.87453E-05 4.04678E-06 1.65436E-24
 -1       840 5.77815E-05 4.26243E-06 0.00000E+00
 -1       841 6.23347E-05 4.00652E-06-1.65436E-24
 -1       842 6.19570E-05 5.12782E-06 0.00000E+00
 -1       843 6.14994E-05 6.46115E-06 8.27181E-25
 -1       844 6.09963E-05 7.91540E-06 4.13590E-25
 -1       845 6.04615E-05 9.45372E-06 8.27181E-25
 -1       846 5.99089E-05 1.10393E-05 0.00000E+00
 -1       847 5.93443E-05 1.26565E-05-8.27181E-25
 -1       848 5.87738E-05 1.42897E-05 0.00000E+00
 -1       849 5.82004E-05 1.59303E-05-8.27181E-25
 -1       850 5.76276E-05 1.75694E-05 0.00000E+00
 -1       851 5.70586E-05 1.91983E-05-8.27181E-25
 -1       852 5.64968E-05 2.08075E-05 0.00000E+00
 -1       853 5.59489E-05 2.23796E-05-8.27181E-25
 -1       854 5.54208E-05 2.38963E-05 0.00000E+00
 -1       855 5.49296E-05 2.53158E-05 0.00000E+00
 -1       856 6.03127E-05 2.82309E-05-8.27181E-25
 -1       857 6.01982E-05 2.99849E-05 0.00000E+00
 -1       858 6.00833E-05 3.19271E-05 0.00000E+00
 -1       859 5.99673E-05 3.40279E-05-1.65436E-24
 -1       860 5.98509E-05 3.62577E-05 0.00000E+00
 -1       861 5.97341E-05 3.85867E-05-1.65436E-24
 -1       862 5.96171E-05 4.09852E-05 3.30872E-24
 -1       863 5.95000E-05 4.34235E-05-1.65436E-24
 -1       864 5.93828E-05 4.58715E-05 3.30872E-24
 -1       865 5.92657E-05 4.82996E-05 0.00000E+00
 -1       866 5.91488E-05 5.06778E-05-3.30872E-24
 -1       867 5.90321E-05 5.29764E-05 0.00000E+00
 -1       868 5.89156E-05 5.51657E-05-3.30872E-24
 -1       869 5.87999E-05 5.72158E-05 0.00000E+00
 -1       870 5.86845E-05 5.90973E-05 0.00000E+00
 -1       871 5.92486E-05 2.66804E-05 0.00000E+00
 -1       872 5.82254E-05 2.66648E-05 0.00000E+00
 -1       873 5.72948E-05 2.66488E-05 1.65436E-24
 -1       874 5.63995E-05 2.66322E-05-4.13590E-25
 -1       875 5.54820E-05 2.66148E-05-8.27181E-25
 -1       876 6.00380E-05 2.82691E-05 3.30872E-24
 -1       877 5.95992E-05 3.00144E-05 0.00000E+00
 -1       878 5.91053E-05 3.19063E-05 0.00000E+00
 -1       879 5.85649E-05 3.39239E-05 0.00000E+00
 -1       880 5.79855E-05 3.60459E-05 0.00000E+00
 -1       881 5.73747E-05 3.82511E-05 3.30872E-24
 -1       882 5.67405E-05 4.05187E-05-6.61744E-24
 -1       883 5.60907E-05 4.28277E-05-3.30872E-24
 -1       884 5.54331E-05 4.51574E-05 6.61744E-24
 -1       885 5.47755E-05 4.74869E-05 0.00000E+00
 -1       886 5.41258E-05 4.97955E-05 6.61744E-24
 -1       887 5.34916E-05 5.20621E-05-3.30872E-24
 -1       888 5.28808E-05 5.42660E-05 6.61744E-24
 -1       889 5.23004E-05 5.63859E-05 1.65436E-24
 -1       890 5.17593E-05 5.84012E-05 3.30872E-24
 -1       891 5.72158E-05 6.06991E-05-3.30872E-24
 -1       892 5.60829E-05 6.06163E-05-8.27181E-25
 -1       893 5.50472E-05 6.05336E-05 1.65436E-24
 -1       894 5.39819E-05 6.04510E-05 0.00000E+00
 -1       895 5.27603E-05 6.03682E-05-8.27181E-25
 -1       926 7.45726E-08-4.44939E-06 0.00000E+00
 -1       927 7.23696E-08-2.36802E-06 5.16988E-26
 -1       928 7.10200E-08-7.88673E-07-5.16988E-26
 -1       929 7.03401E-08 3.45590E-07 0.00000E+00
 -1       930 7.00120E-08 1.09177E-06-2.58494E-26
 -1       931 6.98709E-08 1.50689E-06 1.29247E-26
 -1       932 6.97888E-08 1.64803E-06 0.00000E+00
 -1       933 6.96480E-08 1.57226E-06 0.00000E+00
 -1       934 6.94196E-08 1.33671E-06 0.00000E+00
 -1       935 6.88503E-08 9.98487E-07 2.06795E-25
 -1       936 6.80826E-08 6.14728E-07 8.27181E-25
 -1       937 6.58311E-08 2.42557E-07 0.00000E+00
 -1       938 6.33917E-08-6.11176E-08-3.30872E-24
 -1       939 5.35615E-08-2.39363E-07 0.00000E+00
 -1       940 4.62399E-08-2.37317E-07-1.32349E-23
 -1       956 5.68312E-05 5.25328E-06-1.65436E-24
 -1       957 5.66759E-05 6.21037E-06 0.00000E+00
 -1       958 5.65200E-05 7.31822E-06-1.65436E-24
 -1       959 5.63636E-05 8.55748E-06 1.65436E-24
 -1       960 5.62070E-05 9.90883E-06 0.00000E+00
 -1       961 5.60502E-05 1.13528E-05 0.00000E+00
 -1       962 5.58933E-05 1.28698E-05 0.00000E+00
 -1       963 5.57363E-05 1.44404E-05-1.65436E-24
 -1       964 5.55792E-05 1.60451E-05 0.00000E+00
 -1       965 5.54221E-05 1.76643E-05 0.00000E+00
 -1       966 5.52651E-05 1.92786E-05 0.00000E+00
 -1       967 5.51081E-05 2.08683E-05 3.30872E-24
 -1       968 5.49513E-05 2.24140E-05-6.61744E-24
 -1       969 5.47948E-05 2.38963E-05 0.00000E+00
 -1       970 5.46389E-05 2.52957E-05 0.00000E+00
 -1       971 5.42887E-05 2.79312E-05-3.30872E-24
 -1       972 5.40875E-05 2.95069E-05-3.30872E-24
 -1       973 5.38859E-05 3.12922E-05-6.61744E-24
 -1       974 5.36833E-05 3.32582E-05 0.00000E+00
 -1       975 5.34804E-05 3.53758E-05-6.61744E-24
 -1       976 5.32771E-05 3.76159E-05-3.30872E-24
 -1       977 5.30736E-05 3.99492E-05-6.61744E-24
 -1       978 5.28699E-05 4.23462E-05 0.00000E+00
 -1       979 5.26661E-05 4.47776E-05 6.61744E-24
 -1       980 5.24624E-05 4.72139E-05-3.30872E-24
 -1       981 5.22587E-05 4.96257E-05 0.00000E+00
 -1       982 5.20554E-05 5.19833E-05-3.30872E-24
 -1       983 5.18525E-05 5.42576E-05 0.00000E+00
 -1       984 5.16508E-05 5.64191E-05-3.30872E-24
 -1       985 5.14495E-05 5.84386E-05 0.00000E+00
 -3
    1PSTEP                        26          13           1          
  100CL  113 9.78851E-01         568                     0   13           1
 -4  STRESS      6    1
 -5  SXX         1    4    1    1
 -5  SYY         1    4    2    2
 -5  SZZ         1    4    3    3
 -5  SXY         1    4    1    2
 -5  SYZ         1    4    2    3
 -5  SZX         1    4    3    1
 -1         1-2.46253E+06-1.07022E+06-4.88927E+05-1.42299E+06 6.01479E-10 1.16221E-08
 -1         2 8.78959E+03-3.28403E+05 8.53028E+04 2.40193E+05 2.41271E-08 3.43150E-09
 -1         3-9.60435E+01-1.33927E+06-1.74343E+02-6.71349E+02 1.09397E-09-1.30494E-08
 -1         4 1.32833E+01-1.42141E+01-1.45603E+00-1.63596E+01 1.86000E-08 2.73488E-10
 -1         5-3.57976E+01 5.72013E+05 3.06156E+01-4.15818E+00 5.07583E-10-1.72804E-10
 -1         8-2.29739E+06-7.99024E+05-2.89899E+05-9.16217E+05-1.78261E-10 5.99539E-09
 -1         9-2.31166E+06-5.56280E+05-2.75327E+05-5.68134E+05-5.07498E-09 4.14730E-09
 -1        10-5.51247E+04-7.96924E+05 9.15072E+04-6.94758E+03-9.09483E-09 5.33346E-09
 -1        11 3.31362E+00-6.05893E+00-2.15744E+00 9.61181E-01 1.77094E-09-2.73551E-09
 -1        12-1.32919E+04 2.16653E+05-7.25939E+04 1.04137E+04 1.25857E-08-6.13660E-09
 -1        15 3.60902E+03 1.95169E+03 1.12008E+04 8.50164E+00-2.60343E-10 2.08995E-09
 -1        16-3.07753E+06-8.09832E+05-2.39790E+05-1.05000E+06-2.39243E-09 1.08776E-09
 -1        17-5.60021E+05-4.47375E+05-3.56535E+04-4.08580E+05-7.85682E-09 2.63390E-09
 -1        18 4.26628E+04 1.45050E+04-1.69809E+04-1.21898E+05 4.71573E-10 3.00133E-10
 -1        19 1.28618E+05 1.50718E+05-1.52141E+04 1.52529E+04 4.16912E-09-2.23129E-09
 -1        20 8.44930E+04-1.19418E+05-2.68268E+04 5.95580E+04 6.02859E-09-4.31282E-09
 -1        21 3.54229E+03-2.11244E+05 6.32096E+04-6.69176E+02 2.67042E-08-4.19896E-09
 -1        23 8.71697E-01 4.19644E-01 1.58198E+01 2.26412E-03 1.01444E-08 5.98765E-09
 -1        24-1.66537E+06-4.94331E+05 1.08781E+05-8.77239E+05-7.46368E-09-2.08966E-09
 -1        25 6.65570E+03 6.03178E+04 3.05145E+04-5.12731E+05 1.47520E-09 4.63479E-10
 -1        26-1.43769E+03 1.38461E+05 2.87734E+03-2.44198E+04-1.28575E-09-2.29589E-09
 -1        27-3.37604E+04-8.92404E+04-3.98417E+04 9.86826E+04 6.33372E-09-1.43276E-09
 -1        28-1.62514E+04-1.66415E+05-8.36403E+03 6.08519E+04 1.54955E-08 3.76508E-09
 -1        31 5.60391E+03 6.43873E+03 9.42274E+03-2.50708E+02 4.98375E-09-2.55295E-09
 -1        32-7.19589E+05 1.49072E+05 4.28827E+05-1.05089E+06-4.70669E-09 8.34310E-10
 -1        33-1.64997E+05 1.71036E+05 5.21725E+04-5.15247E+04 7.51091E-11-2.41986E-09
 -1        34-2.11960E+05-1.09430E+04 1.40535E+04 7.10928E+04 3.54306E-09-1.25078E-08
 -1        35-4.14540E+04-4.73633E+04-1.60188E+03 9.60491E+04 3.68149E-09-6.81757E-09
 -1        36-3.40825E+03-4.46121E+04 1.02912E+05 1.18170E-06-2.24859E-09 8.29459E-10
 -1        37 4.12876E+04 5.16406E+04 7.28410E+04 1.41138E-06-1.09619E-09-1.62581E-08
 -1        38 1.37856E+04-7.01483E+03 2.66335E+04 3.50694E-07-6.22369E-10-1.73895E-09
 -1        39 2.12334E+04 8.11713E+03 1.67667E+04 9.72380E-08-7.51293E-12-1.21236E-09
 -1        40 1.66307E+04-1.10063E+03 6.84726E+03 3.22144E-07-2.88004E-11-4.42287E-09
 -1        41 1.79161E+04 1.28874E+03 4.08940E+03-1.00942E-06-2.76589E-10-3.22257E-09
 -1        42 1.71021E+04-1.87917E+02 1.99077E+03 4.42586E-07 1.39269E-10-4.26382E-10
 -1        43 1.74161E+04 3.26383E+02 1.56430E+03 2.51287E-06 2.35969E-11-1.38600E-08
 -1        44 1.71308E+04-1.38435E+02 1.55208E+03-3.57772E-07 1.01832E-11-6.14051E-09
 -1        45 1.76887E+04 8.64416E+02 2.81850E+03-4.98032E-07-1.51489E-10-1.62064E-08
 -1        46 1.68294E+04-7.25861E+02 4.56236E+03 4.22392E-07 1.68263E-10-3.75053E-09
 -1        47 1.98594E+04 5.33913E+03 1.10548E+04 7.66033E-07 2.23815E-10 6.60657E-09
 -1        48 1.49604E+04-4.61226E+03 1.75245E+04 7.52999E-07 3.62470E-11-5.95264E-09
 -1        49 3.30418E+04 3.39516E+04 4.78957E+04-7.81385E-07 9.93528E-11 1.43982E-08
 -1        50 3.65338E+03-2.93310E+04 6.76521E+04 4.29100E-07 2.83668E-09-1.19326E-09
 -1        51 3.21285E+04-6.06281E+05 5.42509E+04-1.64435E+06 8.73115E-11-9.19681E-09
 -1        52 2.09710E+04-6.09815E+05 3.71387E+04-1.81355E+06-4.14730E-10-2.10566E-08
 -1        53 1.95113E+04-6.30742E+05 3.48729E+04-1.63984E+06-6.83940E-10-1.12923E-08
 -1        54 4.49513E+04-6.30037E+05 5.98579E+04-1.81809E+06-9.02219E-10 7.42148E-09
 -1        55 9.17484E+04-6.51654E+05 1.12131E+05-1.63872E+06-1.14960E-09 1.66256E-08
 -1        56-7.48062E+06-7.29002E+05-6.45540E+05-2.73570E+06 1.88447E-09-7.18865E-09
 -1        57-7.21064E+06-1.66362E+06-4.08650E+05-3.15533E+06-1.97315E-09 6.69388E-09
 -1        58-7.69487E+06-7.76425E+05-1.48286E+05-2.51336E+06 7.04779E-09-1.72440E-09
 -1        59-7.00774E+06-1.55964E+06-8.44358E+04-3.40705E+06 1.94955E-08 3.16140E-09
 -1        60-7.71332E+06-8.05437E+05-3.56658E+04-2.50725E+06 1.15397E-08 7.25322E-09
 -1        61-7.04569E+06-1.39164E+06-4.83827E+03-3.20925E+06 1.37807E-08-3.09228E-11
 -1        62-7.62537E+06-9.66480E+05-2.94087E+04-2.68947E+06-9.00764E-09 9.36052E-09
 -1        63-7.30737E+06-1.04454E+06 1.83456E+04-2.76376E+06 1.93832E-08 1.35424E-08
 -1        64-7.42002E+06-1.17507E+06-3.00156E+04-2.92811E+06-3.88536E-09 2.43745E-10
 -1        65-7.74984E+06-6.79675E+05-2.89325E+03-2.39044E+06 1.52813E-08-2.91620E-08
 -1        66-7.21254E+06-1.30987E+06-3.49607E+04-3.08390E+06 4.07636E-09-7.05768E-10
 -1        67-8.02128E+06-5.42656E+05-8.01211E+04-2.24663E+06 2.31757E-08-3.07409E-10
 -1        68-7.18126E+06-1.28970E+06-1.40300E+05-3.09783E+06 8.90577E-09-5.82077E-11
 -1        69-7.95105E+06-9.08510E+05-3.89064E+05-2.31543E+06-1.48066E-09 4.91491E-09
 -1        70-7.25785E+06-9.67373E+05-6.14288E+05-2.99230E+06-5.34055E-09-2.61934E-10
 -1        86 6.34482E+04-2.47083E+06-2.13298E+05-2.14234E+05-5.09099E-08 1.05047E-08
 -1        87 1.38553E+05 1.97762E+06 7.28191E+05 1.89373E+05-3.32147E-08 9.28628E-09
 -1        88-2.03132E+05-5.29520E+06-7.18179E+05 7.65429E+04 3.93011E-08-1.32422E-08
 -1        89 2.28860E+05 2.46267E+06 8.70537E+05-2.87988E+05 1.04683E-08-8.16499E-10
 -1        90-2.32564E+04-2.95564E+06-2.49103E+05 2.62665E+05 4.57467E-08 5.99630E-09
 -1       121-1.00384E+02-1.33971E+06-2.82428E+02 3.35546E+02-1.89328E-09 4.81396E-09
 -1       122-1.64630E+02-1.33932E+06-4.09503E+02-1.33618E+03-1.36325E-09 6.13363E-09
 -1       123-3.42832E+01-1.33966E+06-7.84833E+02 9.99840E+02-4.65678E-09 3.60978E-09
 -1       124-9.50043E+02-1.33982E+06-1.77721E+03-2.73337E+03-3.39560E-09-2.96495E-10
 -1       125 5.73562E+02-1.33925E+06-2.83430E+03 1.73168E+03-7.77231E-09 1.19562E-08
 -1       161-4.87568E+00 3.32653E+00-2.01022E+00 3.47153E+00 8.01272E-06-2.99861E-06
 -1       162 1.28643E+01-1.45052E+01-3.63094E+00-1.64144E+01 1.60225E-05-6.01109E-06
 -1       163-4.45661E+00 3.61927E+00-7.09902E+00 3.52545E+00 7.74413E-06-2.91000E-06
 -1       164 1.11845E+01-1.63988E+01-1.58384E+01-1.63203E+01-5.35702E-07 2.01047E-07
 -1       165-3.19603E+00 5.22105E+00-3.08477E+01 3.37684E+00-9.64480E-06 3.61365E-06
 -1       166 2.71375E+00-2.83494E+01-7.13531E+01-1.48000E+01-1.87473E-05 7.03023E-06
 -1       167 4.01527E+00 1.55686E+01-1.35277E+02 2.00622E+00-2.79690E-05 1.04898E-05
 -1       168-4.71912E+01-1.05033E+02-3.24436E+02-3.10689E+00-3.71875E-05 1.39505E-05
 -1       169 4.67111E+01 8.18950E+01-5.91535E+02-8.31114E+00-4.61243E-05 1.72905E-05
 -1       170-3.47685E+02-5.94930E+02-1.49087E+03 7.96170E+01-5.50544E-05 2.06518E-05
 -1       171 3.04518E+02 5.05407E+02-2.57324E+03-8.06891E+01-6.25795E-05 2.34679E-05
 -1       172-2.17818E+03-3.71236E+03-6.94578E+03 6.42047E+02-7.00912E-05 2.62960E-05
 -1       173 1.87733E+03 3.19894E+03-1.11087E+04-5.70517E+02-7.09235E-05 2.66020E-05
 -1       174-1.34390E+04-2.35009E+04-3.29378E+04 4.37086E+03-7.17056E-05 2.69189E-05
 -1       175 1.15683E+04 2.02920E+04-4.74018E+04-3.80742E+03-3.58884E-05 1.34353E-05
 -1       191-3.70299E+01 5.72054E+05 3.57159E+01 2.06931E+00-2.72081E-10-1.89902E-09
 -1       192-2.57786E+01 5.72018E+05 6.79566E+01-2.39784E+01-2.73900E-10 3.43061E-09
 -1       193-5.35590E+00 5.72049E+05 1.27637E+02 2.18670E+01-9.36325E-10-1.71349E-09
 -1       194 1.02992E+02 5.72058E+05 2.88068E+02-2.08601E+02-7.75117E-10-1.83354E-09
 -1       195 3.63040E+02 5.72008E+05 5.84544E+02 1.86966E+02-1.47884E-09 3.33421E-09
 -1       251-3.19833E+06 7.36367E+04-1.37494E+05-6.64045E+04-5.46333E-09 7.30506E-09
 -1       252-3.02405E+06-1.17222E+05-6.38123E+04-2.31868E+04-1.10219E-09-4.51837E-09
 -1       253-3.46834E+06 4.22361E+04-8.03379E+04 1.05546E+05-2.48281E-09-6.56109E-09
 -1       254-1.71513E+06-5.88567E+04 2.60629E+05 5.89920E+04 6.93348E-09-5.81804E-09
 -1       255-4.50024E+06 1.24684E+04-2.56996E+05-1.48591E+05-6.96400E-09 1.53648E-08
 -1       256 9.90678E+05 6.27521E+04 8.27966E+05 4.35054E+04-7.07371E-09 4.54102E-08
 -1       257-6.16239E+06-7.93507E+04-5.85991E+05 1.21271E+05-1.46501E-08 1.61640E-09
 -1       258 2.82153E+06 1.70295E+05 1.21065E+06-2.04882E+05-9.27230E-10-5.25324E-08
 -1       259-6.32573E+06-8.93038E+04-6.19240E+05 9.90389E+04 1.42836E-09-1.47966E-08
 -1       260 1.37316E+06 8.31237E+04 9.06497E+05 6.98423E+04-7.48150E-09 4.37039E-08
 -1       261-4.71807E+06 2.82864E+03-3.01555E+05-1.52645E+05-1.85605E-08 9.41145E-09
 -1       262-1.41509E+06-5.12471E+04 3.18854E+05 5.57818E+04-1.52058E-08-3.14103E-08
 -1       263-3.54906E+06 4.38405E+04-9.94769E+04 1.12793E+05-1.06311E-08-1.45192E-08
 -1       264-2.93791E+06-1.26881E+05-5.64546E+04-2.95772E+04-9.96955E-09 1.23437E-08
 -1       265-3.20326E+06 8.14488E+04-1.51738E+05-6.72655E+04-1.33101E-08 1.39771E-08
 -1       266-6.34459E+04-2.93264E+04 1.46492E+05-1.75024E+02 1.45519E-11 1.26019E-09
 -1       267 7.34804E+04 3.42655E+04 1.03885E+05 2.01161E+02 7.27596E-12-1.13298E-08
 -1       268-1.00124E+04-4.90479E+03 3.84528E+04-2.62008E+01 1.72804E-10-6.70880E-09
 -1       269 1.18192E+04 5.88254E+03 2.51292E+04 3.04535E+01-1.09139E-11-1.32678E-09
 -1       270-1.80423E+03-9.75788E+02 1.20651E+04-4.24970E+00-2.86491E-11 2.81402E-09
 -1       271-6.19677E+06-7.95715E+05-4.83158E+05-2.40792E+06-6.54836E-10-1.09430E-08
 -1       272-6.36803E+06-1.09526E+06-3.02979E+05-2.40393E+06-1.45860E-09-1.28784E-08
 -1       273-6.28435E+06-8.95749E+05-1.13866E+05-2.39109E+06 1.15961E-10-2.91038E-11
 -1       274-6.26388E+06-9.65082E+05-6.19668E+04-2.43558E+06-3.32966E-09-1.21872E-08
 -1       275-6.29790E+06-9.02224E+05-2.64331E+04-2.38548E+06-1.71894E-09 1.39335E-09
 -1       276-6.24699E+06-9.57704E+05-1.37925E+04-2.44579E+06-1.16233E-09 4.61296E-09
 -1       277-6.30189E+06-9.00394E+05-7.02979E+03-2.38236E+06-3.59250E-10 8.28368E-09
 -1       278-6.24257E+06-9.60041E+05-5.28864E+03-2.45060E+06 3.45381E-10-5.02013E-10
 -1       279-6.30300E+06-8.99294E+05-6.12600E+03-2.38122E+06-1.73213E-09 7.93034E-09
 -1       280-6.24328E+06-9.61292E+05-1.14384E+04-2.45082E+06 9.23137E-11 2.91220E-09
 -1       281-6.30127E+06-8.99221E+05-2.14811E+04-2.38215E+06 5.26597E-10-1.18234E-09
 -1       282-6.25486E+06-9.69588E+05-5.04076E+04-2.44534E+06 1.43655E-09 8.69477E-09
 -1       283-6.29119E+06-8.93046E+05-9.24280E+04-2.38570E+06 2.92965E-09 7.91988E-09
 -1       284-6.33805E+06-1.07664E+06-2.46148E+05-2.42094E+06 2.66482E-09 9.82254E-11
 -1       285-6.22036E+06-8.11574E+05-3.92580E+05-2.39901E+06-1.64073E-09-9.60426E-10
 -1       286-2.19029E+05-5.05310E+04 1.15773E+05-2.55589E+03 2.10413E-09-1.14233E-09
 -1       287-1.62707E+05 5.83386E+04 8.29737E+04 5.67351E+03 3.64989E-09-3.07500E-09
 -1       288-1.99246E+05-7.76989E+03 2.97599E+04-2.56643E+03 2.87456E-09 1.50430E-09
 -1       289-1.79592E+05 9.45178E+03 2.08480E+04 2.95761E+03-1.08443E-09-1.12875E-08
 -1       290-2.02129E+05-1.70127E+03 6.18016E+03 1.60100E+02 1.59341E-09-1.86810E-09
 -1       291-1.83204E+05 1.72155E+03 6.59190E+03-2.55266E+03 7.86343E-09-2.22457E-09
 -1       292-1.95636E+05-4.24211E+01 2.00300E+03 2.94363E+03 6.34721E-07 2.44995E-09
 -1       293-1.89778E+05 7.94842E+01 2.59092E+03-5.34034E+03 1.22573E-06 5.72013E-09
 -1       294-1.95601E+05-1.57800E+01 1.78991E+03 2.94809E+03 6.35017E-07-5.98720E-09
 -1       295-1.83336E+05 1.50941E+03 5.95833E+03-2.56539E+03 6.09305E-09-1.26374E-09
 -1       296-2.02032E+05-1.51569E+03 5.04842E+03 1.68365E+02-3.09655E-10-5.40604E-09
 -1       297-1.80252E+05 8.07748E+03 1.80235E+04 2.95112E+03-6.78613E-09 1.77715E-09
 -1       298-1.98684E+05-6.58168E+03 2.52440E+04-2.56821E+03-2.70948E-09 8.83301E-09
 -1       299-1.66787E+05 4.95758E+04 7.06185E+04 5.67699E+03-3.72538E-10 1.11113E-08
 -1       300-2.15520E+05-4.29596E+04 9.83066E+04-2.55761E+03-1.51819E-09 7.47241E-09
 -1       301 5.92241E+04-2.49551E+04 1.64959E+05-3.34501E+04 2.09548E-09-2.94813E-09
 -1       302 2.17176E+04 8.61710E+03 1.09128E+05-4.12340E+04 3.88536E-09-6.33759E-09
 -1       303 4.92688E+03-1.33345E+04 9.77719E+04-3.36492E+04 2.09729E-09-4.64297E-09
 -1       304 3.75119E+04 2.03383E+04 1.58193E+05-4.10648E+04 2.82125E-09-5.57793E-09
 -1       305 1.06609E+05-3.65272E+04 2.81857E+05-3.34968E+04 2.43017E-09-2.85809E-09
 -1       306-3.10086E+06-4.15370E+05-1.81833E+05-1.20437E+06-3.78350E-10 1.76806E-09
 -1       307-3.13655E+06-5.56042E+05-1.13875E+05-1.23556E+06 7.18728E-10-9.29140E-09
 -1       308-3.13355E+06-4.52995E+05-4.28800E+04-1.19850E+06 2.13277E-10-7.15590E-09
 -1       309-3.09864E+06-5.06331E+05-2.33694E+04-1.24662E+06-2.25691E-09 5.87670E-09
 -1       310-3.13812E+06-4.55940E+05-9.99669E+03-1.19706E+06 5.67525E-10 7.98536E-10
 -1       311-3.09354E+06-5.02355E+05-5.33492E+03-1.24905E+06 4.47153E-09-1.79716E-09
 -1       312-3.13893E+06-4.55951E+05-2.89617E+03-1.19664E+06 3.78230E-09 8.44091E-09
 -1       313-3.09308E+06-5.01947E+05-2.55990E+03-1.24917E+06 2.74326E-10-1.80489E-09
 -1       314-3.13859E+06-4.56287E+05-3.47194E+03-1.19697E+06-4.88853E-10-3.46654E-09
 -1       315-3.09466E+06-5.01399E+05-6.85819E+03-1.24748E+06 1.66074E-09 4.57021E-09
 -1       316-3.13697E+06-4.56805E+05-1.31666E+04-1.19804E+06-3.58887E-09-2.98314E-10
 -1       317-3.10201E+06-5.05978E+05-3.08228E+04-1.24338E+06-4.30600E-09-3.43243E-09
 -1       318-3.13070E+06-4.53154E+05-5.66700E+04-1.20019E+06-3.56067E-09-1.47702E-09
 -1       319-3.15235E+06-5.71424E+05-1.50404E+05-1.22860E+06-3.27043E-09 3.52884E-10
 -1       320-3.08755E+06-4.03363E+05-2.40149E+05-1.20789E+06-5.20959E-09-2.70666E-09
 -1       336 7.36917E+02-1.33915E+06-5.07842E+03-1.97794E+03-1.03291E-08-1.55524E-09
 -1       337-2.27158E+03-1.34115E+06-8.08332E+03-2.30365E+04-7.39067E-09-6.13363E-09
 -1       338 1.24790E+03-1.33875E+06-1.24922E+04-1.39333E+03-1.23241E-08-2.14368E-09
 -1       339-1.48880E+04-1.34868E+06-3.00075E+04-2.40449E+04-8.22183E-09 2.41243E-10
 -1       340 1.13186E+04-1.33181E+06-4.62212E+04-9.78671E+02-1.30512E-08 5.97947E-09
 -1       356-1.03777E+00 3.80603E-01-3.25392E+00-2.57962E+00-1.05098E-06 1.10679E-09
 -1       357-1.76038E+00-7.08075E-01-6.84967E+00 1.03798E+01-2.10066E-06-4.48719E-10
 -1       358-8.44687E-01 3.33482E-01-1.29878E+01-2.57912E+00-1.24497E-06 7.44506E-10
 -1       359-3.33328E+00-2.25782E+00-2.72541E+01 1.03795E+01-3.87461E-07-9.98188E-09
 -1       360 5.34501E-01 1.93056E+00-5.20689E+01-2.57932E+00 3.77352E-07-1.15862E-09
 -1       361-1.20454E+01-1.46839E+01-1.11355E+02 1.03812E+01 1.14173E-06 2.97561E-09
 -1       362 7.86771E+00 1.27589E+01-2.08455E+02-2.58086E+00 1.51930E-06 1.72265E-09
 -1       363-6.00663E+01-9.57966E+01-4.59144E+02 1.03984E+01 1.89584E-06 5.02604E-09
 -1       364 4.85576E+01 8.30340E+01-8.31479E+02-2.59652E+00 1.86195E-06 4.65599E-09
 -1       365-3.34841E+02-6.17326E+02-1.91626E+03 1.05186E+01 1.83266E-06 3.22416E-10
 -1       366 2.82663E+02 5.34217E+02-3.29690E+03-2.70101E+00 1.41443E-06 6.47196E-09
 -1       367-1.95423E+03-3.94760E+03-8.13903E+03 1.12548E+01 9.98992E-07-8.56699E-09
 -1       368 1.66822E+03 3.41278E+03-1.29470E+04-3.33229E+00 3.40710E-07 5.24051E-09
 -1       369-1.17113E+04-2.51238E+04-3.54315E+04 1.54457E+01-3.24159E-07 2.53976E-09
 -1       370 1.00438E+04 2.17073E+04-5.00333E+04-6.88888E+00-1.55804E-07 2.33522E-08
 -1       376-1.46069E+00 2.34562E+00-1.42087E+00 2.38729E+00 3.19176E-06-1.20185E-06
 -1       377 8.27179E+00-8.50619E+00-2.51160E+00-8.95954E+00 6.37220E-06-2.39905E-06
 -1       378-1.37301E+00 2.29436E+00-4.49292E+00 2.44741E+00 1.57130E-06-5.90527E-07
 -1       379 7.36100E+00-9.43251E+00-9.99150E+00-8.95229E+00-3.23703E-06 1.21922E-06
 -1       380-5.49680E-01 3.27224E+00-1.93394E+01 2.37994E+00-8.93870E-06 3.35436E-06
 -1       381 2.04901E+00-1.69000E+01-4.47753E+01-8.00868E+00-1.46344E-05 5.50427E-06
 -1       382 3.93937E+00 9.76119E+00-8.48168E+01 1.50425E+00-2.00101E-05 7.50953E-06
 -1       383-2.89827E+01-6.49317E+01-2.03402E+02-5.69919E-01-2.53843E-05 9.53874E-06
 -1       384 3.04826E+01 5.12985E+01-3.70958E+02-5.05604E+00-3.00841E-05 1.12991E-05
 -1       385-2.17649E+02-3.72096E+02-9.34846E+02 5.12863E+01-3.47789E-05 1.30668E-05
 -1       386 1.92608E+02 3.16889E+02-1.61348E+03-5.03349E+01-3.81866E-05 1.43455E-05
 -1       387-1.36634E+03-2.32664E+03-4.35544E+03 4.04076E+02-4.15781E-05 1.56352E-05
 -1       388 1.17922E+03 2.00559E+03-6.96566E+03-3.57717E+02-4.09349E-05 1.53806E-05
 -1       389-8.42947E+03-1.47333E+04-2.06537E+04 2.74401E+03-4.02636E-05 1.51322E-05
 -1       390 7.25683E+03 1.27220E+04-2.97251E+04-2.38916E+03-2.01465E-05 7.55702E-06
 -1       406 4.25633E+02 5.71980E+05 1.48686E+03-1.98780E+02-2.19370E-09 4.08272E-09
 -1       407 5.14558E+02 5.72298E+05 2.67593E+03 2.10556E+02-1.09947E-09-1.16415E-09
 -1       408 1.26592E+03 5.71835E+05 5.11796E+03-1.06980E+01-2.95768E-09-3.45972E-09
 -1       409 5.36168E+03 5.73892E+05 1.14223E+04-1.61870E+02-2.09388E-09 7.14499E-09
 -1       410 1.55194E+04 5.70381E+05 2.32538E+04 1.94544E+02-3.85990E-09 1.57343E-09
 -1       501-4.35120E+05-1.09299E+05 1.85929E+05-1.86447E+04 2.19633E-08 1.72149E-08
 -1       502 3.21318E+03 1.15232E+05 1.91915E+05 4.49661E+04 2.89274E-08 3.11557E-08
 -1       503-2.76210E+05-5.10943E+03 5.11575E+04-2.02193E+04 1.39487E-08 2.07183E-08
 -1       504 9.02822E+04 2.30006E+04 9.82422E+04 2.59610E+04 2.94176E-09 2.31307E-08
 -1       505-5.21082E+05-1.84614E+04-4.27955E+04 3.73074E+02 3.04101E-09-3.45517E-09
 -1       506 1.47842E+05 1.36920E+04 8.49040E+04-1.94868E+04 4.61368E-08-2.21171E-08
 -1       507-3.33247E+05 3.68260E+03-1.46541E+04 2.51570E+04 3.91082E-08-3.78743E-08
 -1       508-5.87049E+04-8.51000E+03 3.44499E+04-4.43797E+04 2.12286E-08-5.58960E-08
 -1       509-3.16289E+05 5.73714E+03-1.32134E+04 2.53363E+04 5.18913E-08-3.83083E-08
 -1       510 1.32117E+05 1.02673E+04 7.57869E+04-2.14980E+04 3.83936E-08-2.69329E-08
 -1       511-5.22427E+05-1.69799E+04-5.39573E+04 2.20564E+03-6.50994E-09-5.11363E-09
 -1       512 9.96394E+04 1.15120E+04 7.49374E+04 2.42256E+04-1.51430E-08 9.93577E-09
 -1       513-2.84103E+05 4.76336E+03 5.78690E+03-2.03178E+04-1.49374E-08 2.30748E-08
 -1       514-3.56981E+04 3.21282E+04 7.50980E+04 4.47985E+04-2.13226E-08 3.31638E-08
 -1       515-3.88429E+05-3.60614E+04 2.38229E+04-1.83802E+04-2.03641E-08 1.53814E-08
 -1       521-6.30472E+06-8.19900E+05-4.00816E+05-2.42959E+06-2.40834E-09-5.35510E-09
 -1       522-6.43641E+06-1.07993E+06-2.51437E+05-2.43948E+06 1.36242E-09-1.07248E-08
 -1       523-6.37565E+06-9.04605E+05-9.43164E+04-2.41745E+06-8.68567E-11 9.27685E-09
 -1       524-6.35322E+06-9.68424E+05-5.14704E+04-2.46156E+06-6.45741E-10 1.14960E-09
 -1       525-6.38498E+06-9.11939E+05-2.18671E+04-2.41480E+06 3.72893E-10 8.39373E-09
 -1       526-6.34246E+06-9.58667E+05-1.15645E+04-2.46541E+06-2.09513E-09 5.28053E-09
 -1       527-6.38627E+06-9.12506E+05-6.00556E+03-2.41434E+06 4.36103E-10-3.73933E-09
 -1       528-6.34205E+06-9.57000E+05-4.84341E+03-2.46475E+06-2.45495E-09-4.34034E-09
 -1       529-6.38526E+06-9.13553E+05-6.02487E+03-2.41543E+06-5.32054E-10-2.63026E-09
 -1       530-6.34590E+06-9.54923E+05-1.15263E+04-2.46076E+06-2.88765E-09-1.58784E-08
 -1       531-6.38202E+06-9.14969E+05-2.18856E+04-2.41798E+06-1.20508E-09 1.54796E-09
 -1       532-6.35990E+06-9.61202E+05-5.13159E+04-2.45276E+06-1.31422E-09-2.06455E-09
 -1       533-6.37106E+06-9.09336E+05-9.41552E+04-2.42244E+06 4.46335E-10 1.60799E-09
 -1       534-6.44581E+06-1.06943E+06-2.50730E+05-2.42739E+06-1.49566E-09 3.23416E-09
 -1       535-6.29904E+06-8.26140E+05-3.99804E+05-2.43601E+06-1.91358E-09 2.08092E-09
 -1       536-1.46865E+04-1.92598E+04 7.59871E+04-1.45645E+04 1.04410E-09 3.96176E-09
 -1       537 1.45933E+04 2.42401E+04 4.92129E+04-6.28689E+04-6.72298E-09 5.74073E-09
 -1       538-3.21082E+03-2.31197E+03 1.96134E+04-1.43518E+04 1.07320E-10-1.45337E-09
 -1       539 8.76301E+02 2.23671E+03 1.11191E+04-6.30920E+04 2.30284E-09-3.40037E-09
 -1       540-1.96358E+03-3.83497E+02 4.90518E+03-1.43299E+04 5.00222E-10-4.14320E-09
 -1       541-1.20463E+03 1.78890E+02 2.63376E+03-6.31155E+04-7.13499E-10-2.16801E-09
 -1       542-1.85726E+03-7.44344E+01 1.16807E+03-1.43307E+04 1.16415E-10-4.02065E-09
 -1       543-1.77048E+03 8.66429E+01 5.44355E+02-6.31148E+04-1.44769E-09-4.20869E-09
 -1       544-1.86549E+03 1.81164E+01 9.51675E+01-1.43310E+04 1.33150E-09-3.37968E-09
 -1       545-1.99695E+03 8.77975E+01-2.89248E+02-6.31145E+04-1.23367E-09 5.63534E-09
 -1       546-1.83925E+03 6.91849E+01-7.77941E+02-1.43309E+04 9.57243E-10 6.52244E-09
 -1       547-2.22696E+03-3.19680E+02-1.86298E+03-6.31068E+04-2.26976E-09-2.31444E-09
 -1       548-1.58466E+03 3.35143E+02-3.39694E+03-1.43388E+04-1.81353E-09-9.78844E-10
 -1       549-4.21491E+03-4.23048E+03-8.44025E+03-6.29873E+04-1.69166E-09-8.77662E-11
 -1       550 4.58809E+02 3.11149E+03-1.31858E+04-1.44501E+04 4.32010E-10 1.86537E-09
 -1       551 2.04889E+04-5.30929E+05 4.07564E+04-8.35048E+05 1.77897E-09-7.35599E-09
 -1       552 1.83809E+04-5.27330E+05 4.13940E+04-1.01947E+06-8.61473E-09-3.31784E-09
 -1       553 1.40494E+04-5.34217E+05 5.85139E+04-8.33386E+05 2.27737E-09 1.65528E-10
 -1       554 4.38554E+04-5.10014E+05 1.18691E+05-1.01964E+06-8.65839E-09-2.45564E-10
 -1       555 9.61444E+04-5.50929E+05 2.24927E+05-8.34373E+05 1.31695E-09-5.11500E-09
 -1       556-2.06085E+05-1.80348E+05 4.10953E+04-2.95439E+05-7.97445E-09-3.04135E-09
 -1       557-1.65196E+05-2.19769E+05 2.08034E+04-3.27555E+05-4.10364E-09-1.08548E-09
 -1       558-2.07251E+05-1.90239E+05 8.56176E+03-2.89145E+05-6.27915E-09-4.69299E-09
 -1       559-1.70909E+05-2.25497E+05 4.28741E+03-3.30165E+05 2.79397E-09 8.57926E-09
 -1       560-2.08686E+05-1.89536E+05 1.82180E+03-2.89860E+05 8.51287E-10-1.01682E-09
 -1       561-1.72822E+05-2.25069E+05 9.22166E+02-3.31473E+05-2.61934E-10 3.45949E-10
 -1       562-2.09786E+05-1.88832E+05 3.28675E+02-2.90606E+05 5.09317E-11 3.12025E-09
 -1       563-1.73951E+05-2.24584E+05 9.24501E+01-3.32245E+05-1.92085E-09-3.77395E-09
 -1       564-2.10432E+05-1.88422E+05-1.94017E+02-2.91047E+05-8.33097E-10 1.10595E-09
 -1       565-1.74514E+05-2.24351E+05-5.65655E+02-3.32612E+05-3.42334E-09 1.49157E-10
 -1       566-2.10585E+05-1.88283E+05-1.28369E+03-2.91173E+05-3.64116E-09-8.87667E-10
 -1       567-1.74714E+05-2.24459E+05-2.86453E+03-3.32561E+05-1.40017E-09 2.86673E-09
 -1       568-2.10113E+05-1.88704E+05-5.93141E+03-2.90877E+05-2.40470E-09 4.25644E-09
 -1       569-1.77736E+05-2.27687E+05-1.39679E+04-3.31264E+05-2.79488E-09 3.76531E-09
 -1       570-2.07576E+05-1.97676E+05-2.79844E+04-2.86954E+05 1.70985E-10-1.51158E-09
 -1       571 3.66761E+05 1.61725E+04 2.42949E+04-9.41105E+04 6.36646E-11-2.99315E-09
 -1       572 3.70398E+05 5.57093E+03 1.19148E+04-1.03361E+05 7.27141E-10-1.07138E-09
 -1       573 3.68189E+05 1.28681E+03 5.29568E+03-9.38599E+04-2.00089E-11-2.85581E-10
 -1       574 3.68611E+05 4.07306E+02 2.65609E+03-1.03631E+05-1.30967E-09-1.43336E-09
 -1       575 3.68328E+05 4.36951E+01 1.25289E+03-9.38282E+04 2.45564E-10-2.04545E-09
 -1       576 3.68362E+05 6.87375E+00 6.37760E+02-1.03667E+05-2.48178E-10-6.25732E-10
 -1       577 3.68351E+05-1.88918E+01 3.12651E+02-9.38241E+04 1.84173E-10 1.17961E-09
 -1       578 3.68350E+05-1.81895E+01 1.67326E+02-1.03672E+05 1.46429E-10 3.88991E-09
 -1       579 3.68398E+05-3.49840E+01 9.49292E+01-9.38236E+04-2.86491E-10-6.08452E-10
 -1       580 3.68419E+05-5.14628E+01 7.76626E+01-1.03667E+05 1.62800E-10 9.13951E-09
 -1       581 3.68488E+05-7.95011E+01 9.00250E+01-9.38284E+04-1.48611E-09 3.61433E-09
 -1       582 3.68555E+05-9.26990E+01 1.64123E+02-1.03613E+05 4.62023E-10-3.45881E-09
 -1       583 3.68611E+05-8.36897E+01 3.02439E+02-9.38782E+04 1.07866E-09-1.28694E-10
 -1       584 3.68826E+05 1.21649E+02 6.80578E+02-1.03185E+05-1.86901E-09 3.07546E-09
 -1       585 3.68686E+05 6.95194E+02 1.36898E+03-9.42568E+04 2.91038E-10 1.36788E-09
 -1       586 2.23773E+03 1.69945E+05 4.19831E+03-2.26680E+05 6.80302E-10 3.84625E-09
 -1       587 1.46585E+03 1.70593E+05 4.60893E+03-2.51614E+05-1.29694E-09 2.90675E-09
 -1       588 1.89966E+03 1.69716E+05 7.14640E+03-2.26377E+05 7.83984E-10 2.98392E-08
 -1       589 6.92251E+03 1.72497E+05 1.50527E+04-2.51697E+05-1.42973E-09 5.75869E-08
 -1       590 1.94703E+04 1.67868E+05 3.01169E+04-2.26587E+05 9.73159E-10 3.30301E-08
 -1       591-1.86174E+05-5.53002E+04-3.61093E+04-8.92456E+04 2.63981E-09 2.26100E-09
 -1       592-1.88436E+05-5.33052E+04-1.81082E+04-9.90238E+04 8.66294E-10 3.98813E-10
 -1       593-1.87912E+05-4.47742E+04-7.68769E+03-9.44520E+04-1.75532E-10-2.59206E-09
 -1       594-1.84368E+05-4.87770E+04-3.77471E+03-9.93919E+04 2.48292E-10 1.84393E-09
 -1       595-1.88112E+05-4.44852E+04-1.74182E+03-9.46531E+04-3.83488E-09-8.55465E-09
 -1       596-1.84090E+05-4.86172E+04-8.80705E+02-9.93538E+04-1.69575E-09-1.10037E-08
 -1       597-1.88146E+05-4.45154E+04-4.74666E+02-9.46536E+04-4.90274E-12 3.34921E-09
 -1       598-1.84059E+05-4.86196E+04-3.70545E+02-9.93398E+04-8.24855E-10 5.68753E-09
 -1       599-1.88141E+05-4.45191E+04-4.59602E+02-9.46506E+04-2.12117E-09-1.67165E-09
 -1       600-1.84078E+05-4.86219E+04-8.40735E+02-9.93436E+04-2.65391E-09 2.99451E-10
 -1       601-1.88098E+05-4.44965E+04-1.65564E+03-9.46445E+04-8.70386E-09 6.84531E-09
 -1       602-1.84336E+05-4.87738E+04-3.58389E+03-9.93662E+04-1.28327E-08 1.44971E-08
 -1       603-1.87895E+05-4.47815E+04-7.29745E+03-9.44521E+04-9.39599E-09 2.50202E-09
 -1       604-1.88229E+05-5.30295E+04-1.71841E+04-9.89569E+04-4.96630E-09 3.12775E-09
 -1       605-1.86196E+05-5.48090E+04-3.42664E+04-8.95490E+04-2.15232E-09-1.04956E-09
 -1       606 1.34698E+05-1.51428E+04-2.37549E+04 4.39210E+04-9.26411E-09-6.05178E-09
 -1       607 1.30938E+05-5.09115E+03-1.16863E+04 4.81453E+04-1.67438E-09-6.51198E-10
 -1       608 1.33092E+05-1.07838E+03-5.20759E+03 4.36174E+04 6.13727E-09 1.50726E-09
 -1       609 1.32587E+05-2.75418E+02-2.61214E+03 4.84760E+04-1.87447E-09-1.80080E-09
 -1       610 1.32847E+05 4.30510E+01-1.23685E+03 4.35795E+04-7.60338E-09 3.84944E-09
 -1       611 1.32731E+05 1.03965E+02-6.21069E+02 4.85160E+04-1.19180E-08-1.12777E-10
 -1       612 1.32767E+05 1.15540E+02-2.94865E+02 4.35755E+04 6.52835E-09-2.76668E-09
 -1       613 1.32711E+05 1.37682E+02-1.31270E+02 4.85203E+04 9.79890E-09-6.19866E-09
 -1       614 1.32719E+05 1.27709E+02-3.08982E+01 4.35747E+04 7.16955E-09-1.78352E-09
 -1       615 1.32681E+05 1.54725E+02 5.66041E+01 4.85202E+04 7.77800E-09 5.12500E-10
 -1       616 1.32683E+05 1.47815E+02 1.67973E+02 4.35754E+04-8.96307E-09-6.53108E-09
 -1       617 1.32685E+05 2.20363E+02 3.86724E+02 4.85182E+04-7.36691E-10 6.87123E-09
 -1       618 1.32635E+05 3.22932E+02 7.83632E+02 4.35762E+04 2.86491E-09-1.76396E-09
 -1       619 1.32931E+05 9.52912E+02 1.76824E+03 4.85100E+04 4.72892E-09-7.75208E-09
 -1       620 1.32392E+05 2.45561E+03 3.59649E+03 4.35778E+04 4.51541E-09-2.85672E-09
 -1       621 1.28822E+03 3.86630E+05 4.41433E+03-3.21566E+04 1.62959E-09-5.94798E-09
 -1       622 6.02289E+02 3.87516E+05 4.67308E+03-3.93083E+04-7.26686E-10-9.88780E-09
 -1       623 3.83172E+02 3.86738E+05 6.91509E+03-3.21631E+04 1.66256E-09-3.44835E-09
 -1       624 3.67453E+03 3.89814E+05 1.42348E+04-3.91857E+04-6.83940E-10-8.82301E-09
 -1       625 1.04975E+04 3.84379E+05 2.71645E+04-3.22730E+04 1.96997E-09-3.82897E-09
 -1       626 2.38679E+05 7.85058E+04-3.66785E+03 1.52767E+05-2.34741E-09-1.04956E-09
 -1       627 2.33453E+05 8.45425E+04-1.74115E+03 1.57486E+05-4.47471E-10-1.18782E-08
 -1       628 2.38829E+05 8.01217E+04-7.33975E+02 1.51684E+05-2.06091E-09 2.21826E-09
 -1       629 2.33482E+05 8.54680E+04-3.46313E+02 1.57583E+05-3.72893E-10 2.58360E-08
 -1       630 2.38781E+05 8.02481E+04-1.47876E+02 1.51560E+05-2.68847E-09-2.73508E-09
 -1       631 2.33425E+05 8.55581E+04-5.05565E+01 1.57568E+05-4.66025E-09-1.58968E-09
 -1       632 2.38733E+05 8.02686E+04 1.91233E+01 1.51527E+05 1.72622E-09-5.97538E-10
 -1       633 2.33394E+05 8.55747E+04 1.00381E+02 1.57550E+05-1.40471E-09 1.41699E-09
 -1       634 2.38700E+05 8.02688E+04 2.31969E+02 1.51513E+05-3.01952E-10-3.87718E-09
 -1       635 2.33406E+05 8.55839E+04 5.15586E+02 1.57547E+05 6.51426E-10-4.84170E-09
 -1       636 2.38673E+05 8.02868E+04 1.06404E+03 1.51497E+05-5.55519E-09 4.01451E-09
 -1       637 2.33655E+05 8.58426E+04 2.36833E+03 1.57514E+05-3.78634E-09-1.31768E-08
 -1       638 2.38618E+05 8.10735E+04 4.89831E+03 1.51153E+05 1.52795E-10 2.48474E-09
 -1       639 2.36174E+05 9.00397E+04 1.16419E+04 1.56518E+05-1.92176E-09 1.13687E-09
 -1       640 2.38673E+05 9.33155E+04 2.44753E+04 1.46043E+05-2.13549E-09-3.68618E-09
 -1       641-1.19177E+03 3.91317E+03-9.02182E+03-2.43739E+01 6.75119E-05-1.45733E-07
 -1       642-5.09974E+03-4.52890E+03-6.38113E+03 6.05193E+01 1.34884E-04-2.73508E-07
 -1       643-2.69855E+03 6.14970E+02-2.32326E+03-2.27618E+01 1.24599E-04-2.71653E-07
 -1       644-3.34395E+03-7.09524E+02-1.44199E+03 5.91840E+01 1.14235E-04-2.27809E-07
 -1       645-2.94774E+03 9.45263E+01-5.46724E+02-2.30410E+01 7.99421E-05-1.78829E-07
 -1       646-3.04645E+03-9.76630E+01-2.43048E+02 5.96395E+01 4.56223E-05-9.96715E-08
 -1       647-2.99607E+03 3.22352E+00 4.17986E+01-2.32178E+01-1.86456E-06 9.29974E-09
 -1       648-2.95269E+03 7.09696E+01 3.39575E+02 5.94989E+01-4.93842E-05 1.06093E-07
 -1       649-3.04151E+03-7.40851E+01 7.27017E+02-2.29006E+01-1.06380E-04 2.41371E-07
 -1       650-2.68870E+03 5.65272E+02 1.74293E+03 5.80380E+01-1.63293E-04 3.50175E-07
 -1       651-3.26003E+03-4.91012E+02 3.02241E+03-2.17562E+01-8.17036E-05 1.74539E-07
 -1       652-1.19267E+03 3.63058E+03 7.48236E+03 5.34169E+01-6.18496E-08-4.30896E-09
 -1       653-4.53732E+03-3.13882E+03 1.19053E+04-1.82799E+01 1.87090E-09-5.64341E-10
 -1       654 7.78899E+03 2.31077E+04 3.25902E+04 3.63098E+01-2.50171E-08 9.16316E-10
 -1       655-1.22385E+04-1.99638E+04 4.60330E+04-4.65096E+00-5.70722E-09 2.20098E-10
 -1       656 1.51274E+04-5.62948E+05-6.44186E+04 1.57620E+04-2.47746E-09 3.43607E-09
 -1       657-2.21223E+04-5.86697E+05-4.76744E+04 6.61449E+04-4.65297E-09-9.76706E-09
 -1       658 3.08782E+03-5.71263E+05-3.08587E+04 1.55712E+04-4.55657E-10 2.43244E-09
 -1       659-2.14758E+04-5.86418E+05-4.66052E+04 6.62760E+04 9.90894E-10 3.70919E-09
 -1       660 1.46591E+04-5.63332E+05-6.23847E+04 1.56329E+04-2.12822E-09 1.61140E-09
 -1       661 3.65588E+05 5.09419E+04 2.88363E+04 1.43635E+05 8.11133E-09-3.06318E-09
 -1       662 3.71938E+05 6.75469E+04 1.73652E+04 1.47690E+05-2.48571E-09-7.08587E-09
 -1       663 3.70012E+05 5.52451E+04 6.76856E+03 1.43665E+05 9.84102E-10-7.42739E-09
 -1       664 3.66765E+05 6.05776E+04 3.57223E+03 1.48494E+05 1.12175E-08-4.47608E-09
 -1       665 3.70433E+05 5.56409E+04 1.58117E+03 1.43685E+05 6.91722E-09-8.88957E-09
 -1       666 3.66273E+05 5.99947E+04 8.41993E+02 1.48523E+05 9.33531E-09 1.20340E-09
 -1       667 3.70479E+05 5.56806E+04 4.90988E+02 1.43690E+05-2.57910E-09-5.58913E-09
 -1       668 3.66228E+05 5.99562E+04 4.72649E+02 1.48527E+05 3.41879E-09-7.80415E-09
 -1       669 3.70478E+05 5.56721E+04 6.90714E+02 1.43685E+05-7.84212E-10-2.91493E-09
 -1       670 3.66312E+05 6.00475E+04 1.38240E+03 1.48548E+05-1.01210E-09 2.75429E-09
 -1       671 3.70403E+05 5.55932E+04 2.70523E+03 1.43670E+05 5.60249E-09 6.58724E-09
 -1       672 3.67160E+05 6.10699E+04 6.17867E+03 1.48513E+05 5.24324E-09 2.66675E-09
 -1       673 3.69676E+05 5.49006E+04 1.17303E+04 1.43630E+05 2.91135E-09-2.75304E-09
 -1       674 3.76129E+05 7.31686E+04 3.01170E+04 1.47132E+05 2.14259E-08 1.43154E-09
 -1       675 3.62008E+05 4.74325E+04 5.00164E+04 1.43574E+05 7.00993E-09-2.49202E-09
 -1       676 8.21892E+02-5.55551E+05-4.83122E+03 3.96981E+02-2.89910E-09 1.01041E-08
 -1       677-2.20700E+03-5.57542E+05-7.10749E+03-1.19893E+03-3.86530E-09 8.29618E-09
 -1       678 1.05695E+03-5.55318E+05-1.04438E+04 3.92838E+02 6.17774E-09 5.49753E-09
 -1       679-1.24317E+04-5.63500E+05-2.48032E+04-1.18956E+03 6.13409E-09-2.19580E-09
 -1       680 9.30348E+03-5.49598E+05-3.80753E+04 3.85030E+02 2.78487E-09-2.20311E-09
 -1       716-4.23352E-01-1.97486E-01 1.93196E+01-1.12774E-03 8.91682E-09-4.35300E-09
 -1       717 2.13417E+00 1.55866E+00 3.40230E+01 2.87444E-03 1.16787E-08-2.44246E-09
 -1       718-1.68586E+00-1.33674E+00 6.31345E+01-1.73808E-03 6.92212E-09-1.90720E-09
 -1       719 1.00464E+01 1.05684E+01 1.30949E+02-2.56054E-03 7.40036E-09 1.80158E-10
 -1       720-8.33572E+00-9.20782E+00 2.49752E+02 4.30940E-03 2.45009E-09-2.81265E-09
 -1       721 5.19622E+01 7.03703E+01 5.33762E+02-9.11316E-02-1.53249E-09-9.54820E-10
 -1       722-4.36012E+01-6.11362E+01 9.99021E+02 8.68231E-02 4.23457E-09-3.30107E-09
 -1       723 2.82479E+02 4.59124E+02 2.20049E+03-8.74704E-01 9.02420E-09-2.94412E-09
 -1       724-2.38836E+02-3.97914E+02 3.98474E+03 7.87729E-01 8.31116E-10-5.12409E-09
 -1       725 1.60000E+03 2.95847E+03 9.18361E+03-6.72695E+00-1.37306E-09-6.02790E-09
 -1       726-1.36081E+03-2.56001E+03 1.58009E+04 5.93830E+00 3.26362E-09-4.51291E-09
 -1       727 9.36236E+03 1.89180E+04 3.90068E+04-4.73186E+01-4.00092E-09-1.24146E-09
 -1       728-7.99586E+03-1.63535E+04 6.20644E+04 4.13859E+01 3.74952E-09-4.03816E-09
 -1       729 5.61269E+04 1.20398E+05 1.69818E+05-3.18261E+02 8.96432E-09-3.32693E-09
 -1       730-4.80378E+04-1.03998E+05 2.40079E+05 2.77110E+02 1.05415E-08-2.69210E-09
 -1       766-1.04019E+05-4.81010E+04 2.40035E+05-2.21536E+02-1.45519E-10-2.52265E-09
 -1       767 1.20570E+05 5.62456E+04 1.69808E+05 4.49053E+01 7.93989E-09-1.14051E-09
 -1       768-1.65044E+04-8.15592E+03 6.18554E+04 2.97387E+01-6.87578E-10 2.14442E-11
 -1       769 2.00287E+04 9.97642E+03 3.90428E+04-2.42593E+02 6.00858E-09 5.96208E-09
 -1       770-3.51884E+03-1.91879E+03 1.48841E+04 6.61744E+01-7.13044E-10 2.54273E-09
 -1       771-3.02922E+06-5.91114E+05-8.70150E+04-1.30455E+06-1.10740E-08-3.46336E-09
 -1       772-3.01681E+06-6.02909E+05-4.34717E+04-1.34733E+06-5.18048E-09 8.63838E-09
 -1       773-3.03555E+06-5.64344E+05-1.86672E+04-1.31679E+06-5.70435E-09-6.93763E-09
 -1       774-3.00743E+06-5.92785E+05-9.08437E+03-1.35086E+06 5.86442E-09 1.95723E-09
 -1       775-3.03749E+06-5.62659E+05-4.31474E+03-1.31777E+06 1.23691E-09-6.00267E-10
 -1       776-3.00769E+06-5.92253E+05-2.12989E+03-1.35217E+06 1.60071E-10-1.70257E-09
 -1       777-3.03869E+06-5.62019E+05-1.20371E+03-1.31823E+06-3.23780E-09 2.87673E-09
 -1       778-3.00833E+06-5.92079E+05-8.78562E+02-1.35310E+06-1.73313E-08-7.46098E-09
 -1       779-3.03943E+06-5.61548E+05-1.10879E+03-1.31854E+06-5.11500E-09 1.64619E-09
 -1       780-3.00884E+06-5.91973E+05-1.98287E+03-1.35369E+06-1.46247E-09-1.23418E-09
 -1       781-3.03970E+06-5.61249E+05-3.93292E+03-1.31868E+06-2.57023E-09-1.60253E-09
 -1       782-3.00962E+06-5.92288E+05-8.53239E+03-1.35393E+06-1.68893E-09-7.98536E-10
 -1       783-3.03922E+06-5.61936E+05-1.74233E+04-1.31824E+06-4.18368E-09-3.15049E-09
 -1       784-3.01894E+06-6.02401E+05-4.11044E+04-1.35264E+06-6.79574E-09-1.27256E-08
 -1       785-3.03475E+06-5.86220E+05-8.20515E+04-1.30654E+06 4.23825E-10 1.97542E-09
 -1       786 2.96391E+05-9.26551E+03 3.78474E+04-2.21274E+03-3.57431E-10-1.10049E-09
 -1       787 3.10212E+05 1.22875E+04 2.43979E+04-9.94501E+03 8.09678E-10-6.05860E-09
 -1       788 3.02144E+05-9.81035E+02 9.81543E+03-2.21610E+03-7.26345E-10-4.77439E-09
 -1       789 3.03779E+05 1.25094E+03 5.51248E+03-9.92522E+03 5.55872E-10 2.83944E-09
 -1       790 3.02813E+05-1.08074E+02 2.49587E+03-2.23158E+03-2.26692E-10 7.38635E-09
 -1       791 3.03017E+05 1.25769E+02 1.34426E+03-9.90316E+03 1.13153E-09 3.84063E-10
 -1       792 3.02899E+05-1.34573E+01 6.87534E+02-2.23816E+03 1.50195E-10-9.57925E-10
 -1       793 3.02921E+05 1.68778E+01 4.58747E+02-9.89978E+03 2.49401E-10-2.03912E-09
 -1       794 3.02907E+05-7.70517E+00 4.24611E+02-2.23497E+03-1.14028E-10 2.92715E-09
 -1       795 3.02953E+05 5.37446E+01 6.49691E+02-9.91636E+03-2.83080E-10 4.21132E-10
 -1       796 3.02873E+05-4.90787E+01 1.11796E+03-2.22157E+03-8.47422E-10-4.00902E-09
 -1       797 3.03289E+05 5.40650E+02 2.41803E+03-9.95049E+03-1.05456E-09-1.47793E-09
 -1       798 3.02583E+05-4.31343E+02 4.28281E+03-2.20084E+03 1.10731E-09-1.61890E-10
 -1       799 3.06101E+05 5.34636E+03 1.06349E+04-9.97721E+03-1.42029E-09 1.76965E-09
 -1       800 3.00077E+05-4.04449E+03 1.64878E+04-2.19539E+03-4.26780E-10 1.48520E-09
 -1       801-2.24745E+04 3.36975E+05 4.27629E+04-4.28624E+05 8.56744E-10 6.44650E-09
 -1       802 6.71709E+04 3.39326E+05 6.88103E+04-1.86524E+06 2.22644E-08 1.45810E-08
 -1       803 4.90578E+03 3.26322E+05 8.41986E+04-4.27704E+05 1.18234E-08 1.28480E-08
 -1       804 1.37604E+05 3.81116E+05 1.91167E+05-1.86492E+06 1.48138E-08-4.13274E-09
 -1       805-8.13478E+04 2.96068E+05 2.72755E+05-4.28998E+05 1.13068E-08 3.12866E-09
 -1       806-2.72161E+05-8.15342E+04-2.32184E+04-1.37978E+05 1.57928E-09-9.90622E-09
 -1       807-2.71279E+05-7.69357E+04-1.10408E+04-1.46261E+05-4.58385E-10-1.23214E-09
 -1       808-2.72149E+05-6.99110E+04-4.64636E+03-1.42863E+05-1.87038E-09-2.15596E-09
 -1       809-2.68951E+05-7.29199E+04-2.24592E+03-1.47216E+05 2.15550E-10 1.03131E-09
 -1       810-2.72226E+05-6.91511E+04-1.01383E+03-1.43206E+05-4.73847E-10 6.03450E-10
 -1       811-2.68733E+05-7.26671E+04-5.00101E+02-1.47256E+05-1.07525E-09-1.46520E-09
 -1       812-2.72249E+05-6.91330E+04-2.45985E+02-1.43222E+05 3.32943E-09-8.26594E-09
 -1       813-2.68708E+05-7.26636E+04-1.51678E+02-1.47249E+05 1.07808E-08-1.07400E-08
 -1       814-2.72247E+05-6.91421E+04-1.36483E+02-1.43217E+05 9.16998E-09-3.20915E-09
 -1       815-2.68706E+05-7.26721E+04-2.09139E+02-1.47240E+05 3.50155E-11 6.23368E-09
 -1       816-2.72223E+05-6.91592E+04-3.89811E+02-1.43204E+05-1.85564E-08 1.47447E-08
 -1       817-2.68782E+05-7.27624E+04-8.46295E+02-1.47198E+05-3.69582E-08 9.55424E-09
 -1       818-2.72167E+05-6.94661E+04-1.74406E+03-1.43076E+05-2.71557E-08 1.14360E-08
 -1       819-2.69734E+05-7.41710E+04-4.13744E+03-1.46706E+05-2.09907E-08 5.57884E-09
 -1       820-2.72053E+05-7.39170E+04-8.70023E+03-1.41338E+05-6.17547E-09 1.80130E-08
 -1       821-3.82671E+05 1.14778E+04-4.69396E+04 2.42373E+03-3.32011E-09 4.58385E-10
 -1       822-3.99771E+05-1.52389E+04-3.02565E+04 1.16008E+04-3.11752E-09-3.13776E-11
 -1       823-3.89811E+05 1.20921E+03-1.21804E+04 2.31605E+03 5.06634E-09-2.05500E-09
 -1       824-3.91831E+05-1.53170E+03-6.84337E+03 1.17609E+04-3.14867E-09-1.01500E-08
 -1       825-3.90644E+05 1.34696E+02-3.11855E+03 2.26231E+03-8.49491E-09-4.88581E-09
 -1       826-3.90915E+05-1.25035E+02-1.71087E+03 1.18497E+04-1.34969E-08 2.25953E-11
 -1       827-3.90753E+05 2.33882E+01-9.43030E+02 2.22695E+03-3.97699E-09 7.60224E-10
 -1       828-3.90820E+05 9.20730E+00-7.54995E+02 1.19045E+04-9.33807E-09 6.50124E-09
 -1       829-3.90756E+05 2.44422E+01-8.89760E+02 2.20742E+03 3.38935E-09 1.59454E-09
 -1       830-3.90920E+05-1.03500E+02-1.57304E+03 1.19264E+04 1.35381E-08-1.93414E-09
 -1       831-3.90660E+05 1.29500E+02-2.84132E+03 2.20506E+03-2.95543E-09 1.75339E-09
 -1       832-3.91768E+05-1.37597E+03-6.22771E+03 1.19140E+04-1.29558E-09 8.90657E-09
 -1       833-3.89905E+05 1.11043E+03-1.10733E+04 2.22008E+03-6.12545E-10 5.51154E-09
 -1       834-3.99003E+05-1.38350E+04-2.75142E+04 1.18518E+04 1.85389E-09 3.97995E-09
 -1       835-3.83414E+05 1.04517E+04-4.26760E+04 2.27013E+03 3.06159E-09-4.99494E-09
 -1       836-5.97478E+03 6.20185E+05 5.11179E+04-3.16762E+04-2.49020E-09 1.79898E-09
 -1       837 1.30753E+04 6.36992E+05 3.94383E+04-7.47372E+04-3.15754E-09-5.36534E-09
 -1       838-1.39215E+03 6.25695E+05 3.27667E+04-3.16064E+04-3.93175E-09 8.28535E-10
 -1       839 2.09855E+04 6.42440E+05 5.63418E+04-7.47341E+04-2.48110E-09 2.81659E-09
 -1       840-1.03584E+04 6.14734E+05 8.46831E+04-3.16775E+04-3.13230E-09 4.89672E-09
 -1       841 9.55588E+04 1.38816E+04-1.16400E+03 3.56275E+04-1.83022E-09-3.16402E-09
 -1       842 9.47295E+04 1.31226E+04-7.90694E+02 3.61833E+04-2.51095E-08 5.37378E-09
 -1       843 9.52821E+04 1.35457E+04-2.67138E+02 3.57993E+04-3.37755E-05 1.27093E-05
 -1       844 9.50689E+04 1.34964E+04-1.57106E+02 3.59649E+04-6.75358E-05 2.54417E-05
 -1       845 9.52192E+04 1.35079E+04-4.09497E+01 3.58458E+04-4.47349E-05 1.68358E-05
 -1       846 9.51538E+04 1.35409E+04 1.43107E+01 3.59028E+04-2.18976E-05 8.24868E-06
 -1       847 9.51972E+04 1.35012E+04 8.16722E+01 3.58614E+04-1.27751E-05 4.80119E-06
 -1       848 9.52099E+04 1.35939E+04 2.22522E+02 3.58767E+04-3.65323E-06 1.38313E-06
 -1       849 9.51631E+04 1.34550E+04 4.16832E+02 3.58718E+04-5.88365E-07 2.17442E-07
 -1       850 9.54239E+04 1.39449E+04 1.05727E+03 3.58192E+04 2.47536E-06-9.37147E-07
 -1       851 9.49831E+04 1.31503E+04 1.82681E+03 3.59188E+04 1.70852E-06-6.39761E-07
 -1       852 9.67109E+04 1.61747E+04 4.93321E+03 3.54384E+04 9.33460E-07-3.55866E-07
 -1       853 9.38759E+04 1.12254E+04 7.88929E+03 3.62524E+04-4.99200E-06 1.89337E-06
 -1       854 1.04674E+05 3.02729E+04 2.33946E+04 3.28435E+04-1.09343E-05 4.10922E-06
 -1       855 8.70209E+04-9.45305E+02 3.36726E+04 3.85130E+04-5.48556E-06 2.04649E-06
 -1       856-3.21070E+05 4.72433E+03-3.76558E+04 1.05402E+04-6.94217E-09-7.45786E-10
 -1       857-3.33377E+05-9.05739E+03-2.29942E+04 2.56533E+04-8.17818E-09 3.54476E-09
 -1       858-3.26400E+05 4.45816E+02-9.66997E+03 1.04014E+04-7.65795E-09-2.23281E-10
 -1       859-3.27635E+05-5.89704E+02-5.20075E+03 2.58196E+04 2.58001E-09-2.82057E-10
 -1       860-3.26914E+05 8.72072E+01-2.44216E+03 1.03690E+04 2.92130E-09-2.62366E-09
 -1       861-3.27116E+05 6.60609E+01-1.28429E+03 2.58650E+04-7.12282E-09 7.79892E-10
 -1       862-3.26984E+05 5.69242E+01-6.72458E+02 1.03552E+04 8.81607E-09-1.40813E-09
 -1       863-3.27066E+05 1.18602E+02-4.48340E+02 2.58807E+04 2.38880E-08-3.60740E-09
 -1       864-3.26991E+05 5.50647E+01-4.27882E+02 1.03532E+04 9.62382E-09-3.60757E-09
 -1       865-3.27079E+05 9.64752E+01-6.52082E+02 2.58720E+04 1.25411E-08 8.11440E-10
 -1       866-3.26958E+05 6.56135E+01-1.15660E+03 1.03639E+04-3.81374E-09-4.82504E-09
 -1       867-3.27303E+05-2.12080E+02-2.41454E+03 2.58355E+04-3.92083E-09-1.53524E-09
 -1       868-3.26714E+05 2.23867E+02-4.47235E+03 1.03901E+04 6.32645E-09-5.20276E-09
 -1       869-3.29927E+05-4.13061E+03-1.06151E+04 2.56842E+04-8.50514E-09-4.82032E-10
 -1       870-3.24244E+05 2.18618E+03-1.73877E+04 1.05179E+04 1.51340E-09 1.43064E-09
 -1       871-5.49955E+03-4.30340E+04-1.13342E+04 1.58086E+05 7.60338E-10 6.48470E-09
 -1       872-1.97003E+03-4.52685E+04-3.50865E+03 1.90727E+05 1.72986E-09 1.13832E-08
 -1       873-1.18773E+02-4.44905E+04 2.98518E+03 1.57764E+05 3.57795E-09 2.41016E-09
 -1       874 3.12733E+03-4.18118E+04 1.16754E+04 1.90857E+05 2.98951E-09-1.68109E-09
 -1       875 1.01294E+04-4.67415E+04 2.49807E+04 1.57982E+05 3.51793E-09 2.89401E-09
 -1       876 4.68753E+05 6.77727E+04 4.19281E+04 1.86790E+05-2.21712E-09-4.43833E-09
 -1       877 4.76379E+05 9.11355E+04 2.49210E+04 1.94424E+05-1.59598E-08-4.80077E-09
 -1       878 4.74943E+05 7.30215E+04 9.80850E+03 1.87147E+05 9.58607E-10 8.11269E-10
 -1       879 4.69064E+05 8.15997E+04 5.12415E+03 1.95415E+05 3.14139E-09-3.76087E-09
 -1       880 4.75485E+05 7.35116E+04 2.27656E+03 1.87209E+05 9.50376E-09 6.29598E-09
 -1       881 4.68414E+05 8.08343E+04 1.19049E+03 1.95398E+05 1.08423E-09 3.66151E-09
 -1       882 4.75530E+05 7.35776E+04 6.63518E+02 1.87228E+05 8.55471E-09-2.59718E-10
 -1       883 4.68363E+05 8.07669E+04 5.81839E+02 1.95368E+05-1.43763E-08-2.22437E-09
 -1       884 4.75520E+05 7.35816E+04 7.94910E+02 1.87231E+05-1.10221E-08-5.72061E-09
 -1       885 4.68454E+05 8.08394E+04 1.54238E+03 1.95375E+05 1.05126E-08-1.19826E-10
 -1       886 4.75439E+05 7.35115E+04 3.01466E+03 1.87218E+05 1.76431E-09 5.36011E-09
 -1       887 4.69336E+05 8.18370E+04 6.81670E+03 1.95357E+05-1.18943E-08-7.18501E-09
 -1       888 4.74695E+05 7.28774E+04 1.30654E+04 1.87145E+05-1.13286E-08-3.73893E-09
 -1       889 4.79068E+05 9.45445E+04 3.31971E+04 1.94025E+05 1.02758E-08 8.79299E-09
 -1       890 4.66455E+05 6.58793E+04 5.58618E+04 1.86649E+05-2.60616E-09-7.27596E-12
 -1       891 9.77361E+02-2.34736E+05-9.61982E+03 4.76491E+04 6.18456E-10 1.95450E-09
 -1       892-2.65560E+03-2.37771E+05-7.29423E+03 1.13280E+05 1.71349E-09 1.41802E-09
 -1       893 1.68296E+02-2.35852E+05-5.90901E+03 4.74986E+04-3.57522E-09-1.06775E-09
 -1       894-3.93217E+03-2.38587E+05-9.97792E+03 1.13246E+05-6.98492E-09 3.34353E-09
 -1       895 1.63817E+03-2.33836E+05-1.49580E+04 4.76822E+04 5.24597E-09 4.62205E-09
 -1       926-8.24368E+02-1.35619E+03 3.07569E+03 5.36389E+01 5.24434E-10-1.42336E-09
 -1       927 9.27847E+02 1.56944E+03 2.27391E+03-2.09763E+02-3.88323E-09-1.85838E-09
 -1       928-2.48631E+02-2.13981E+02 8.44501E+02 5.15745E+01-1.98526E-11-8.83460E-10
 -1       929 2.29684E+02 2.55469E+02 6.64196E+02-2.07675E+02 2.23161E-09-9.09814E-10
 -1       930-1.26831E+02-4.20356E+01 4.47132E+02 5.15489E+01 2.93152E-11-4.05404E-10
 -1       931 9.88930E+01 1.08363E+02 6.74625E+02-2.07694E+02-7.71101E-10-1.93928E-10
 -1       932-1.18301E+02-6.65766E+01 1.06203E+03 5.15926E+01-2.94424E-10-6.80984E-11
 -1       933 2.68532E+02 4.70930E+02 2.26874E+03-2.07691E+02-1.31192E-09 2.59064E-10
 -1       934-2.96757E+02-4.04344E+02 4.06024E+03 5.15450E+01-1.45816E-06-2.51248E-10
 -1       935 1.58160E+03 3.00525E+03 9.33737E+03-2.07352E+02-2.91402E-06-6.02540E-10
 -1       936-1.43119E+03-2.60032E+03 1.60560E+04 5.12539E+01-1.01066E-06-7.91260E-11
 -1       937 9.46960E+03 1.92193E+04 3.96311E+04-2.08206E+02 9.01073E-07 9.11314E-10
 -1       938-8.17924E+03-1.66142E+04 6.30532E+04 5.23993E+01 4.58209E-07-3.63798E-12
 -1       939 5.70070E+04 1.22322E+05 1.72533E+05-2.47601E+02 2.04255E-09-5.45697E-12
 -1       940-4.88779E+04-1.05661E+05 2.43902E+05 9.06473E+01-2.16280E-09 1.00408E-09
 -1       956-4.43744E+05-7.55663E+03-1.95386E+04 4.98631E+04-4.40923E-09 1.28694E-09
 -1       957-4.47671E+05-2.55332E+03-1.00499E+04 6.04045E+04-4.36557E-10 8.22183E-10
 -1       958-4.45571E+05-1.64618E+02-4.53352E+03 4.95395E+04 3.41061E-09-1.12459E-09
 -1       959-4.45924E+05 4.03945E+01-2.31283E+03 6.07568E+04-5.16411E-09-1.18234E-09
 -1       960-4.45786E+05 1.33505E+02-1.12833E+03 4.95063E+04-7.45786E-09-3.17414E-10
 -1       961-4.45853E+05 1.69199E+02-5.92594E+02 6.07955E+04-1.36893E-08 6.91853E-09
 -1       962-4.45857E+05 1.51218E+02-3.31867E+02 4.94999E+04-6.79665E-09 2.82807E-09
 -1       963-4.45882E+05 1.91210E+02-2.51239E+02 6.08042E+04-8.74502E-09-3.82897E-10
 -1       964-4.45882E+05 1.65810E+02-2.88463E+02 4.94973E+04-1.95769E-09-2.06091E-09
 -1       965-4.45908E+05 2.01130E+02-4.84535E+02 6.08049E+04 5.07748E-09 7.05722E-09
 -1       966-4.45865E+05 1.76438E+02-9.03439E+02 4.94991E+04-6.16137E-09 4.38467E-09
 -1       967-4.46008E+05 1.22469E+02-1.84843E+03 6.07837E+04 1.33446E-09 3.03407E-09
 -1       968-4.45726E+05-4.04111E+01-3.61705E+03 4.95191E+04-5.65524E-09-1.26283E-09
 -1       969-4.47441E+05-1.93150E+03-8.02681E+03 6.05598E+04-8.02538E-09-8.14077E-09
 -1       970-4.44290E+05-5.93421E+03-1.56014E+04 4.97317E+04-4.95129E-09-3.92720E-09
 -1       971-5.70719E+05 2.49889E+03-2.64637E+04 1.20482E+04-5.47607E-09 4.63388E-09
 -1       972-5.79079E+05-5.89072E+03-1.59475E+04 2.69561E+04-6.45423E-09 3.00133E-09
 -1       973-5.74397E+05 2.44664E+02-6.78006E+03 1.18558E+04-2.57205E-09 1.36970E-09
 -1       974-5.75180E+05-3.21202E+02-3.62739E+03 2.72004E+04 2.09002E-09 4.70959E-09
 -1       975-5.74746E+05 6.76561E+01-1.74211E+03 1.18004E+04-1.68257E-09-3.02134E-09
 -1       976-5.74869E+05 8.92828E+01-9.62415E+02 2.72840E+04-6.42285E-09 6.24595E-10
 -1       977-5.74799E+05 6.00065E+01-6.05420E+02 1.17715E+04 8.29982E-09 4.60773E-10
 -1       978-5.74863E+05 1.25245E+02-5.89168E+02 2.73235E+04 2.32667E-08 4.77280E-09
 -1       979-5.74800E+05 6.85427E+01-8.42644E+02 1.17607E+04 8.21433E-09 2.56847E-09
 -1       980-5.74938E+05 8.24102E+01-1.57819E+03 2.73260E+04 9.80128E-09 5.98391E-09
 -1       981-5.74728E+05 1.05740E+02-2.99398E+03 1.17690E+04-1.79148E-09 5.35886E-09
 -1       982-5.75554E+05-6.06260E+02-6.33491E+03 2.72878E+04-8.65839E-10 5.58020E-09
 -1       983-5.74146E+05 4.45383E+02-1.18631E+04 1.17999E+04 5.80030E-09-8.18545E-10
 -1       984-5.82478E+05-1.03403E+04-2.79655E+04 2.71247E+04-3.18119E-09 4.12865E-09
 -1       985-5.67727E+05 4.43693E+03-4.63834E+04 1.19408E+04 6.34100E-09 1.49339E-09
 -3
    1PSTEP                        27          14           1          
  100CL  114 1.000000000         568                     0   14           1
 -4  DISP        4    1
 -5  D1          1    2    1    0
 -5  D2          1    2    2    0
 -5  D3          1    2    3    0
 -5  ALL         1    2    0    0    1ALL
 -1         1 1.49987E-04 0.00000E+00 0.00000E+00
 -1         2 1.50040E-04 0.00000E+00 0.00000E+00
 -1         3 9.91804E-05 2.35821E-28 1.32349E-23
 -1         4 7.30014E-05 2.06795E-22-5.04871E-29
 -1         5 7.38833E-05 1.23028E-27 0.00000E+00
 -1         8 1.19112E-04-1.51936E-06 0.00000E+00
 -1         9 9.18181E-05-1.15019E-05 0.00000E+00
 -1        10 9.04048E-05-2.86207E-06 0.00000E+00
 -1        11 7.25459E-05-8.10493E-06 0.00000E+00
 -1        12 7.25579E-05 1.22413E-06 0.00000E+00
 -1        15 8.60875E-05-1.64947E-06 0.00000E+00
 -1        16 7.56774E-05-1.16733E-05 0.00000E+00
 -1        17 6.65301E-05-5.74909E-06 0.00000E+00
 -1        18 6.65036E-05-6.23184E-07 0.00000E+00
 -1        19 6.85979E-05 2.43922E-06 0.00000E+00
 -1        20 6.93421E-05 2.84744E-05 0.00000E+00
 -1        21 6.92792E-05 6.32871E-05 0.00000E+00
 -1        23 2.64394E-05-9.06003E-05 8.07794E-28
 -1        24 2.61602E-05-7.07187E-06 0.00000E+00
 -1        25 6.18502E-05-2.71682E-07 0.00000E+00
 -1        26 6.35590E-05 3.25636E-06 0.00000E+00
 -1        27 6.13346E-05 2.72740E-05 0.00000E+00
 -1        28 5.94457E-05 6.20991E-05 0.00000E+00
 -1        31 8.04900E-08-7.19656E-06 0.00000E+00
 -1        32 0.00000E+00 0.00000E+00 0.00000E+00
 -1        33 5.78235E-05 4.56056E-06 0.00000E+00
 -1        34 5.52709E-05 2.71710E-05 0.00000E+00
 -1        35 5.19707E-05 6.15948E-05 0.00000E+00
 -1        36 1.49973E-04 4.74717E-19 0.00000E+00
 -1        37 1.49976E-04 9.46078E-19 0.00000E+00
 -1        38 1.49979E-04 1.29769E-18 0.00000E+00
 -1        39 1.49984E-04 1.48139E-18 0.00000E+00
 -1        40 1.49990E-04 1.78718E-18 2.06795E-25
 -1        41 1.49996E-04 1.75290E-18 0.00000E+00
 -1        42 1.50002E-04 8.79207E-19 0.00000E+00
 -1        43 1.50008E-04 1.33241E-19-5.16988E-26
 -1        44 1.50015E-04-2.28360E-19 1.03398E-25
 -1        45 1.50021E-04-2.59006E-19 0.00000E+00
 -1        46 1.50027E-04 3.05060E-19-5.16988E-26
 -1        47 1.50033E-04 8.60852E-19 2.06795E-25
 -1        48 1.50039E-04 4.56868E-19 0.00000E+00
 -1        49 1.50042E-04 1.18999E-19 0.00000E+00
 -1        50 1.50047E-04-1.38519E-19 0.00000E+00
 -1        51 1.47657E-04-2.50327E-07 0.00000E+00
 -1        52 1.43794E-04-4.94673E-07 0.00000E+00
 -1        53 1.38696E-04-7.40244E-07 0.00000E+00
 -1        54 1.32674E-04-9.89971E-07 0.00000E+00
 -1        55 1.26042E-04-1.24620E-06-7.03104E-24
 -1        56 1.50019E-04-9.00741E-06-5.29396E-23
 -1        57 1.55399E-04-3.32797E-05 0.00000E+00
 -1        58 1.64679E-04-6.88335E-05 0.00000E+00
 -1        59 1.76068E-04-1.10752E-04-5.29396E-23
 -1        60 1.87471E-04-1.52712E-04 1.05879E-22
 -1        61 1.96769E-04-1.88396E-04 5.29396E-23
 -1        62 2.02199E-04-2.12864E-04 1.05879E-22
 -1        63 2.02190E-04-2.22142E-04 0.00000E+00
 -1        64 1.96231E-04-2.15546E-04-1.05879E-22
 -1        65 1.84295E-04-1.93696E-04 0.00000E+00
 -1        66 1.67731E-04-1.60442E-04 0.00000E+00
 -1        67 1.48390E-04-1.20519E-04 0.00000E+00
 -1        68 1.28820E-04-8.00518E-05-1.05879E-22
 -1        69 1.11620E-04-4.51982E-05 0.00000E+00
 -1        70 9.87483E-05-2.09730E-05 0.00000E+00
 -1        86 1.68182E-04-8.94540E-07-1.32349E-23
 -1        87 2.21792E-04-2.99202E-06 6.61744E-24
 -1        88 2.50226E-04-4.37170E-06-2.64698E-23
 -1        89 1.93981E-04-6.88216E-06-6.61744E-24
 -1        90 1.18938E-04-1.03520E-05 1.32349E-23
 -1       121 9.89334E-05-4.75813E-07 0.00000E+00
 -1       122 9.81937E-05-9.51845E-07 6.61744E-24
 -1       123 9.69644E-05-1.42833E-06 0.00000E+00
 -1       124 9.52510E-05-1.90544E-06 0.00000E+00
 -1       125 9.30611E-05-2.38343E-06-1.32349E-23
 -1       161 7.30052E-05-1.02266E-08 1.00974E-28
 -1       162 7.30167E-05-4.08696E-08 1.00974E-28
 -1       163 7.30333E-05-8.50878E-08 0.00000E+00
 -1       164 7.30524E-05-1.36038E-07 0.00000E+00
 -1       165 7.30715E-05-1.86879E-07-1.61559E-27
 -1       166 7.30879E-05-2.30767E-07 1.61559E-27
 -1       167 7.30992E-05-2.60861E-07 0.00000E+00
 -1       168 7.31028E-05-2.70314E-07 0.00000E+00
 -1       169 7.30960E-05-2.52286E-07 0.00000E+00
 -1       170 7.30765E-05-1.99918E-07 0.00000E+00
 -1       171 7.30415E-05-1.06379E-07 0.00000E+00
 -1       172 7.29888E-05 3.52741E-08 0.00000E+00
 -1       173 7.29156E-05 2.31797E-07 0.00000E+00
 -1       174 7.28206E-05 4.90612E-07 0.00000E+00
 -1       175 7.26993E-05 8.17954E-07 3.30872E-24
 -1       191 7.38464E-05 2.04084E-07 1.32349E-23
 -1       192 7.37358E-05 4.08159E-07 0.00000E+00
 -1       193 7.35515E-05 6.12222E-07-6.61744E-24
 -1       194 7.32936E-05 8.16258E-07 3.30872E-24
 -1       195 7.29621E-05 1.02025E-06 0.00000E+00
 -1       251 1.17926E-04 5.13459E-06 2.64698E-23
 -1       252 1.16705E-04 1.38038E-05 0.00000E+00
 -1       253 1.15488E-04 1.12341E-05 0.00000E+00
 -1       254 1.13949E-04-1.52071E-05-1.32349E-23
 -1       255 1.12571E-04-2.60590E-05 0.00000E+00
 -1       256 1.10379E-04 1.71674E-05 0.00000E+00
 -1       257 1.08509E-04 4.56236E-05 2.64698E-23
 -1       258 1.05641E-04-8.43123E-06 1.32349E-23
 -1       259 1.02819E-04-6.12012E-05-5.29396E-23
 -1       260 1.00824E-04-2.89927E-05 1.32349E-23
 -1       261 9.85010E-05 1.67708E-05 0.00000E+00
 -1       262 9.70739E-05 3.62862E-06 0.00000E+00
 -1       263 9.54530E-05-2.56100E-05 0.00000E+00
 -1       264 9.42297E-05-2.71085E-05 1.32349E-23
 -1       265 9.29953E-05-1.68569E-05 2.64698E-23
 -1       266 1.13608E-04-1.56244E-06 0.00000E+00
 -1       267 1.08104E-04-1.58150E-06-1.65436E-24
 -1       268 1.02600E-04-1.60212E-06-1.65436E-24
 -1       269 9.70959E-05-1.61821E-06-8.27181E-25
 -1       270 9.15917E-05-1.63420E-06 0.00000E+00
 -1       271 1.14784E-04 2.37682E-06 0.00000E+00
 -1       272 1.10846E-04 4.98722E-06-2.64698E-23
 -1       273 1.07356E-04 6.41920E-06 0.00000E+00
 -1       274 1.04259E-04 6.77224E-06 1.58819E-22
 -1       275 1.01516E-04 6.17876E-06 0.00000E+00
 -1       276 9.90693E-05 4.79031E-06 0.00000E+00
 -1       277 9.68555E-05 2.77695E-06 0.00000E+00
 -1       278 9.48058E-05 3.23717E-07-5.29396E-23
 -1       279 9.28475E-05-2.37453E-06 1.05879E-22
 -1       280 9.09059E-05-5.11678E-06 0.00000E+00
 -1       281 8.89059E-05-7.70124E-06-1.05879E-22
 -1       282 8.67748E-05-9.92967E-06 0.00000E+00
 -1       283 8.44408E-05-1.16122E-05 5.29396E-23
 -1       284 8.18466E-05-1.25692E-05-2.64698E-23
 -1       285 7.89192E-05-1.26444E-05-5.29396E-23
 -1       286 9.17192E-05-7.51284E-06-6.61744E-24
 -1       287 9.16267E-05-1.09129E-06 0.00000E+00
 -1       288 9.15320E-05 5.52115E-06 0.00000E+00
 -1       289 9.14518E-05 1.00831E-05 1.65436E-24
 -1       290 9.13802E-05 1.13954E-05 3.30872E-24
 -1       291 9.13055E-05 8.26886E-06 0.00000E+00
 -1       292 9.12159E-05 1.77403E-06-1.65436E-24
 -1       293 9.11096E-05-7.00815E-06 8.27181E-25
 -1       294 9.10031E-05-1.58207E-05 0.00000E+00
 -1       295 9.09130E-05-2.24066E-05 8.27181E-25
 -1       296 9.08379E-05-2.56537E-05 0.00000E+00
 -1       297 9.07666E-05-2.44603E-05-1.65436E-24
 -1       298 9.06870E-05-1.99852E-05 0.00000E+00
 -1       299 9.05930E-05-1.33971E-05 3.30872E-24
 -1       300 9.05009E-05-6.94101E-06-6.61744E-24
 -1       301 8.90325E-05-1.15405E-05 0.00000E+00
 -1       302 8.62699E-05-1.15570E-05 0.00000E+00
 -1       303 8.35418E-05-1.15707E-05 0.00000E+00
 -1       304 8.08595E-05-1.15865E-05 0.00000E+00
 -1       305 7.82344E-05-1.16090E-05 1.32349E-23
 -1       306 8.97201E-05-9.67629E-06-2.64698E-23
 -1       307 8.79034E-05-8.69205E-06 0.00000E+00
 -1       308 8.63538E-05-8.41580E-06 2.64698E-23
 -1       309 8.50165E-05-8.71876E-06 0.00000E+00
 -1       310 8.38440E-05-9.46259E-06 0.00000E+00
 -1       311 8.27825E-05-1.05051E-05 0.00000E+00
 -1       312 8.17780E-05-1.17006E-05-5.29396E-23
 -1       313 8.07755E-05-1.29016E-05 0.00000E+00
 -1       314 7.97198E-05-1.39606E-05 0.00000E+00
 -1       315 7.85566E-05-1.47318E-05 0.00000E+00
 -1       316 7.72322E-05-1.50727E-05 2.64698E-23
 -1       317 7.56957E-05-1.48456E-05 0.00000E+00
 -1       318 7.38971E-05-1.39196E-05 0.00000E+00
 -1       319 7.17948E-05-1.21700E-05-1.32349E-23
 -1       320 6.93381E-05-9.48569E-06-2.64698E-23
 -1       336 8.72939E-05-3.34189E-06 1.32349E-23
 -1       337 8.37729E-05-3.82319E-06 0.00000E+00
 -1       338 7.98877E-05-4.30559E-06 1.32349E-23
 -1       339 7.56859E-05-4.78812E-06 0.00000E+00
 -1       340 7.12166E-05-5.27189E-06 0.00000E+00
 -1       356 7.25458E-05-7.49694E-06 0.00000E+00
 -1       357 7.25456E-05-6.87866E-06-2.01948E-28
 -1       358 7.25454E-05-6.25299E-06 8.07794E-28
 -1       359 7.25452E-05-5.62287E-06 8.07794E-28
 -1       360 7.25450E-05-4.99121E-06 3.23117E-27
 -1       361 7.25448E-05-4.36092E-06 0.00000E+00
 -1       362 7.25447E-05-3.73492E-06 0.00000E+00
 -1       363 7.25445E-05-3.11613E-06 0.00000E+00
 -1       364 7.25444E-05-2.50747E-06 0.00000E+00
 -1       365 7.25443E-05-1.91185E-06 0.00000E+00
 -1       366 7.25443E-05-1.33221E-06 0.00000E+00
 -1       367 7.25446E-05-7.71436E-07 2.06795E-25
 -1       368 7.25449E-05-2.32472E-07 8.27181E-25
 -1       369 7.25469E-05 2.81755E-07 0.00000E+00
 -1       370 7.25483E-05 7.68280E-07-3.30872E-24
 -1       376 7.23216E-05-7.50726E-06 1.00974E-28
 -1       377 7.21011E-05-6.91978E-06 5.04871E-29
 -1       378 7.18830E-05-6.33854E-06 2.01948E-28
 -1       379 7.16657E-05-5.75963E-06 0.00000E+00
 -1       380 7.14478E-05-5.17912E-06-8.07794E-28
 -1       381 7.12279E-05-4.59307E-06-8.07794E-28
 -1       382 7.10044E-05-3.99757E-06 6.46235E-27
 -1       383 7.07759E-05-3.38869E-06 0.00000E+00
 -1       384 7.05408E-05-2.76248E-06 0.00000E+00
 -1       385 7.02979E-05-2.11502E-06-2.58494E-26
 -1       386 7.00454E-05-1.44239E-06 1.03398E-25
 -1       387 6.97823E-05-7.40595E-07 0.00000E+00
 -1       388 6.95067E-05-5.76658E-09 0.00000E+00
 -1       389 6.92182E-05 7.66378E-07 4.13590E-25
 -1       390 6.89139E-05 1.57935E-06 1.65436E-24
 -1       406 7.20814E-05 1.42795E-06 1.32349E-23
 -1       407 7.15320E-05 1.63172E-06 9.92617E-24
 -1       408 7.09090E-05 1.83531E-06 0.00000E+00
 -1       409 7.02122E-05 2.03840E-06-3.30872E-24
 -1       410 6.94416E-05 2.24048E-06 0.00000E+00
 -1       501 7.54651E-05 3.67726E-07 0.00000E+00
 -1       502 7.48972E-05 3.14253E-05 0.00000E+00
 -1       503 7.41857E-05 6.72236E-05-6.61744E-24
 -1       504 7.37667E-05 9.34821E-05 1.65436E-24
 -1       505 7.36174E-05 1.02139E-04 0.00000E+00
 -1       506 7.33685E-05 8.52098E-05-1.65436E-24
 -1       507 7.25984E-05 4.76559E-05 3.30872E-24
 -1       508 7.11490E-05-5.47029E-06-1.65436E-24
 -1       509 6.96679E-05-5.92451E-05 0.00000E+00
 -1       510 6.88279E-05-9.87428E-05 1.65436E-24
 -1       511 6.85346E-05-1.18217E-04 3.30872E-24
 -1       512 6.84042E-05-1.12007E-04 0.00000E+00
 -1       513 6.80257E-05-8.73930E-05 3.30872E-24
 -1       514 6.73244E-05-5.17344E-05 1.65436E-24
 -1       515 6.67319E-05-1.96500E-05 6.61744E-24
 -1       521 7.23420E-05-1.05367E-05 5.29396E-23
 -1       522 6.91985E-05-1.01234E-05 2.64698E-23
 -1       523 6.62798E-05-1.03029E-05-5.29396E-23
 -1       524 6.35291E-05-1.09606E-05 0.00000E+00
 -1       525 6.09067E-05-1.19639E-05 0.00000E+00
 -1       526 5.83602E-05-1.31748E-05-5.29396E-23
 -1       527 5.58373E-05-1.44501E-05 0.00000E+00
 -1       528 5.32842E-05-1.56456E-05 0.00000E+00
 -1       529 5.06477E-05-1.66185E-05 1.05879E-22
 -1       530 4.78766E-05-1.72319E-05 0.00000E+00
 -1       531 4.49223E-05-1.73568E-05 0.00000E+00
 -1       532 4.17421E-05-1.68760E-05 0.00000E+00
 -1       533 3.82961E-05-1.56867E-05 5.29396E-23
 -1       534 3.45606E-05-1.37000E-05 2.64698E-23
 -1       535 3.04972E-05-1.08527E-05-5.29396E-23
 -1       536 6.65072E-05-1.53597E-06 6.61744E-24
 -1       537 6.65004E-05 1.66791E-06 0.00000E+00
 -1       538 6.64958E-05 3.96706E-06 1.65436E-24
 -1       539 6.64946E-05 5.46677E-06 0.00000E+00
 -1       540 6.64944E-05 6.27214E-06 0.00000E+00
 -1       541 6.64950E-05 6.48834E-06 0.00000E+00
 -1       542 6.64956E-05 6.22050E-06 0.00000E+00
 -1       543 6.64962E-05 5.57377E-06 0.00000E+00
 -1       544 6.64966E-05 4.65331E-06 0.00000E+00
 -1       545 6.64969E-05 3.56425E-06 0.00000E+00
 -1       546 6.64972E-05 2.41172E-06-1.03398E-25
 -1       547 6.64975E-05 1.30088E-06 0.00000E+00
 -1       548 6.64980E-05 3.36847E-07 0.00000E+00
 -1       549 6.64991E-05-3.75244E-07 0.00000E+00
 -1       550 6.65003E-05-7.30190E-07 0.00000E+00
 -1       551 6.05323E-05-5.95937E-06-4.96308E-24
 -1       552 5.38092E-05-6.16929E-06 0.00000E+00
 -1       553 4.66830E-05-6.38190E-06 0.00000E+00
 -1       554 3.94816E-05-6.59828E-06 6.61744E-24
 -1       555 3.25328E-05-6.81940E-06 0.00000E+00
 -1       556 6.48390E-05-1.72752E-06 0.00000E+00
 -1       557 6.35082E-05 1.36443E-06 0.00000E+00
 -1       558 6.24975E-05 3.61366E-06 0.00000E+00
 -1       559 6.17698E-05 5.11520E-06 0.00000E+00
 -1       560 6.12882E-05 5.96410E-06 0.00000E+00
 -1       561 6.10161E-05 6.25625E-06 0.00000E+00
 -1       562 6.09170E-05 6.08767E-06 0.00000E+00
 -1       563 6.09546E-05 5.55455E-06-3.30872E-24
 -1       564 6.10927E-05 4.75319E-06 0.00000E+00
 -1       565 6.12952E-05 3.77997E-06-3.30872E-24
 -1       566 6.15261E-05 2.73129E-06-3.30872E-24
 -1       567 6.17491E-05 1.70362E-06 8.27181E-25
 -1       568 6.19283E-05 7.93380E-07-1.34417E-24
 -1       569 6.20280E-05 9.68665E-08 8.27181E-25
 -1       570 6.20124E-05-2.89697E-07 0.00000E+00
 -1       571 6.66298E-05-3.63967E-07-8.27181E-25
 -1       572 6.67595E-05-1.92404E-07 0.00000E+00
 -1       573 6.68902E-05-9.24118E-08 3.30872E-24
 -1       574 6.70214E-05-4.70917E-08-8.27181E-25
 -1       575 6.71528E-05-3.94772E-08 0.00000E+00
 -1       576 6.72842E-05-5.24939E-08 1.65436E-24
 -1       577 6.74157E-05-6.90592E-08 0.00000E+00
 -1       578 6.75472E-05-7.20763E-08 0.00000E+00
 -1       579 6.76787E-05-4.44470E-08 0.00000E+00
 -1       580 6.78102E-05 3.09287E-08 0.00000E+00
 -1       581 6.79417E-05 1.71149E-07 0.00000E+00
 -1       582 6.80731E-05 3.93299E-07 0.00000E+00
 -1       583 6.82045E-05 7.14449E-07 0.00000E+00
 -1       584 6.83359E-05 1.15150E-06 3.30872E-24
 -1       585 6.84670E-05 1.72125E-06 0.00000E+00
 -1       586 6.58450E-05-5.63383E-07 0.00000E+00
 -1       587 6.50812E-05-5.03315E-07 0.00000E+00
 -1       588 6.42555E-05-4.43359E-07 0.00000E+00
 -1       589 6.34124E-05-3.83943E-07-2.06795E-25
 -1       590 6.25961E-05-3.25686E-07 0.00000E+00
 -1       591 6.63024E-05-3.15333E-07 0.00000E+00
 -1       592 6.61175E-05-6.89899E-08 0.00000E+00
 -1       593 6.59500E-05 1.28285E-07 0.00000E+00
 -1       594 6.57960E-05 2.87576E-07 0.00000E+00
 -1       595 6.56519E-05 4.20005E-07 0.00000E+00
 -1       596 6.55136E-05 5.36604E-07-1.65436E-24
 -1       597 6.53771E-05 6.48397E-07 0.00000E+00
 -1       598 6.52382E-05 7.66392E-07-1.65436E-24
 -1       599 6.50929E-05 9.01602E-07 3.30872E-24
 -1       600 6.49370E-05 1.06503E-06 0.00000E+00
 -1       601 6.47664E-05 1.26768E-06 1.65436E-24
 -1       602 6.45770E-05 1.52057E-06 0.00000E+00
 -1       603 6.43649E-05 1.83470E-06 1.65436E-24
 -1       604 6.41263E-05 2.22117E-06-6.20385E-25
 -1       605 6.38574E-05 2.69102E-06 8.27181E-25
 -1       606 6.86499E-05 3.42269E-06 0.00000E+00
 -1       607 6.86984E-05 4.53076E-06 0.00000E+00
 -1       608 6.87458E-05 5.75608E-06 0.00000E+00
 -1       609 6.87926E-05 7.09025E-06 0.00000E+00
 -1       610 6.88392E-05 8.52485E-06 0.00000E+00
 -1       611 6.88855E-05 1.00513E-05 0.00000E+00
 -1       612 6.89317E-05 1.16609E-05 3.30872E-24
 -1       613 6.89778E-05 1.33453E-05 0.00000E+00
 -1       614 6.90237E-05 1.50956E-05 3.30872E-24
 -1       615 6.90696E-05 1.69034E-05 0.00000E+00
 -1       616 6.91153E-05 1.87600E-05 0.00000E+00
 -1       617 6.91610E-05 2.06568E-05-3.30872E-24
 -1       618 6.92066E-05 2.25853E-05 0.00000E+00
 -1       619 6.92520E-05 2.45368E-05 0.00000E+00
 -1       620 6.92973E-05 2.65027E-05 1.65436E-24
 -1       621 6.76895E-05 2.57622E-06 3.30872E-24
 -1       622 6.67918E-05 2.71362E-06 0.00000E+00
 -1       623 6.59174E-05 2.85097E-06 3.30872E-24
 -1       624 6.50788E-05 2.98793E-06-1.65436E-24
 -1       625 6.42886E-05 3.12419E-06-3.30872E-24
 -1       626 6.83351E-05 3.48718E-06 0.00000E+00
 -1       627 6.80224E-05 4.66618E-06 0.00000E+00
 -1       628 6.76650E-05 5.96367E-06 0.00000E+00
 -1       629 6.72681E-05 7.36585E-06-6.61744E-24
 -1       630 6.68370E-05 8.85891E-06 6.61744E-24
 -1       631 6.63769E-05 1.04288E-05 0.00000E+00
 -1       632 6.58931E-05 1.20616E-05-6.61744E-24
 -1       633 6.53909E-05 1.37432E-05 0.00000E+00
 -1       634 6.48756E-05 1.54597E-05-3.30872E-24
 -1       635 6.43524E-05 1.71971E-05 0.00000E+00
 -1       636 6.38265E-05 1.89413E-05 0.00000E+00
 -1       637 6.33034E-05 2.06784E-05 1.65436E-24
 -1       638 6.27880E-05 2.23942E-05-3.30872E-24
 -1       639 6.22853E-05 2.40749E-05 0.00000E+00
 -1       640 6.18002E-05 2.57063E-05-8.27181E-25
 -1       641 6.93410E-05 3.04625E-05 0.00000E+00
 -1       642 6.93382E-05 3.25600E-05-1.03398E-25
 -1       643 6.93353E-05 3.47492E-05-1.03398E-25
 -1       644 6.93319E-05 3.70127E-05 2.58494E-26
 -1       645 6.93285E-05 3.93321E-05 0.00000E+00
 -1       646 6.93249E-05 4.16892E-05 0.00000E+00
 -1       647 6.93212E-05 4.40655E-05 0.00000E+00
 -1       648 6.93175E-05 4.64424E-05 0.00000E+00
 -1       649 6.93138E-05 4.88013E-05-5.16988E-26
 -1       650 6.93102E-05 5.11237E-05 0.00000E+00
 -1       651 6.93066E-05 5.33913E-05-2.06795E-25
 -1       652 6.93029E-05 5.55859E-05-2.06795E-25
 -1       653 6.92993E-05 5.76899E-05 0.00000E+00
 -1       654 6.92946E-05 5.96857E-05 0.00000E+00
 -1       655 6.92905E-05 6.15569E-05 0.00000E+00
 -1       656 6.76165E-05 2.82803E-05 3.30872E-24
 -1       657 6.61942E-05 2.80768E-05 0.00000E+00
 -1       658 6.49654E-05 2.78740E-05 0.00000E+00
 -1       659 6.38196E-05 2.76712E-05 1.65436E-24
 -1       660 6.26461E-05 2.74680E-05-3.30872E-24
 -1       661 6.87449E-05 3.05057E-05 0.00000E+00
 -1       662 6.81267E-05 3.26081E-05 0.00000E+00
 -1       663 6.74871E-05 3.47669E-05 0.00000E+00
 -1       664 6.68318E-05 3.69695E-05-1.65436E-24
 -1       665 6.61651E-05 3.92027E-05 0.00000E+00
 -1       666 6.54918E-05 4.14536E-05 0.00000E+00
 -1       667 6.48166E-05 4.37094E-05 0.00000E+00
 -1       668 6.41446E-05 4.59573E-05 1.65436E-24
 -1       669 6.34803E-05 4.81843E-05 3.30872E-24
 -1       670 6.28288E-05 5.03777E-05-1.65436E-24
 -1       671 6.21947E-05 5.25244E-05 0.00000E+00
 -1       672 6.15829E-05 5.46115E-05 1.65436E-24
 -1       673 6.09983E-05 5.66260E-05-3.30872E-24
 -1       674 6.04448E-05 5.85546E-05 1.65436E-24
 -1       675 5.99285E-05 6.03843E-05 1.65436E-24
 -1       676 6.76198E-05 6.30877E-05 0.00000E+00
 -1       677 6.59640E-05 6.28881E-05 3.30872E-24
 -1       678 6.43152E-05 6.26886E-05 0.00000E+00
 -1       679 6.26769E-05 6.24901E-05 3.30872E-24
 -1       680 6.10526E-05 6.22915E-05 3.30872E-24
 -1       716 2.64263E-05-8.53798E-05 8.07794E-28
 -1       717 2.64133E-05-8.01592E-05 0.00000E+00
 -1       718 2.64002E-05-7.49387E-05 0.00000E+00
 -1       719 2.63871E-05-6.97181E-05 3.23117E-27
 -1       720 2.63740E-05-6.44976E-05 1.29247E-26
 -1       721 2.63609E-05-5.92770E-05-1.29247E-26
 -1       722 2.63478E-05-5.40565E-05-5.16988E-26
 -1       723 2.63346E-05-4.88359E-05 0.00000E+00
 -1       724 2.63213E-05-4.36153E-05-2.06795E-25
 -1       725 2.63077E-05-3.83948E-05 2.06795E-25
 -1       726 2.62939E-05-3.31743E-05-8.27181E-25
 -1       727 2.62787E-05-2.79537E-05 0.00000E+00
 -1       728 2.62632E-05-2.27332E-05 0.00000E+00
 -1       729 2.62403E-05-1.75127E-05 3.30872E-24
 -1       730 2.62198E-05-1.22922E-05 0.00000E+00
 -1       766 2.10359E-05-7.13099E-06 1.32349E-23
 -1       767 1.61039E-05-7.15003E-06 0.00000E+00
 -1       768 1.14535E-05-7.17027E-06 3.30872E-24
 -1       769 7.17401E-06-7.18148E-06-8.27181E-25
 -1       770 3.35360E-06-7.19061E-06 8.27181E-25
 -1       771 2.31472E-05-2.93705E-06 0.00000E+00
 -1       772 2.04439E-05 3.39797E-07 2.64698E-23
 -1       773 1.80351E-05 2.83287E-06 0.00000E+00
 -1       774 1.58919E-05 4.61907E-06-2.64698E-23
 -1       775 1.39856E-05 5.77607E-06 0.00000E+00
 -1       776 1.22864E-05 6.38291E-06 2.64698E-23
 -1       777 1.07640E-05 6.51926E-06 0.00000E+00
 -1       778 9.38815E-06 6.26566E-06 0.00000E+00
 -1       779 8.12822E-06 5.70314E-06 5.29396E-23
 -1       780 6.95360E-06 4.91328E-06-2.64698E-23
 -1       781 5.83359E-06 3.97798E-06 0.00000E+00
 -1       782 4.73758E-06 2.97942E-06 2.64698E-23
 -1       783 3.63491E-06 1.99987E-06 0.00000E+00
 -1       784 2.49583E-06 1.12171E-06 0.00000E+00
 -1       785 1.29036E-06 4.27138E-07-2.64698E-23
 -1       786 6.19505E-05 1.62163E-07-8.27181E-25
 -1       787 6.20570E-05 4.89317E-07 0.00000E+00
 -1       788 6.21635E-05 7.26658E-07-3.30872E-24
 -1       789 6.22708E-05 8.91043E-07 0.00000E+00
 -1       790 6.23784E-05 9.99242E-07 3.30872E-24
 -1       791 6.24861E-05 1.06798E-06 1.65436E-24
 -1       792 6.25938E-05 1.11393E-06 3.30872E-24
 -1       793 6.27016E-05 1.15376E-06-1.65436E-24
 -1       794 6.28094E-05 1.20411E-06 0.00000E+00
 -1       795 6.29172E-05 1.28165E-06 0.00000E+00
 -1       796 6.30250E-05 1.40306E-06 0.00000E+00
 -1       797 6.31327E-05 1.58509E-06 1.65436E-24
 -1       798 6.32403E-05 1.84452E-06 0.00000E+00
 -1       799 6.33474E-05 2.19821E-06 1.65436E-24
 -1       800 6.34546E-05 2.66316E-06 0.00000E+00
 -1       801 5.66701E-05-1.79946E-07 0.00000E+00
 -1       802 4.52948E-05-1.25988E-07 0.00000E+00
 -1       803 3.08313E-05-1.06429E-07 0.00000E+00
 -1       804 1.63887E-05-9.27564E-08 3.30872E-24
 -1       805 5.07557E-06-4.46117E-08 0.00000E+00
 -1       806 6.15723E-05 1.13859E-07 3.30872E-24
 -1       807 6.13111E-05 4.44202E-07-1.65436E-24
 -1       808 6.10659E-05 7.29109E-07 6.61744E-24
 -1       809 6.08336E-05 9.77991E-07 1.65436E-24
 -1       810 6.06113E-05 1.20024E-06 3.30872E-24
 -1       811 6.03953E-05 1.40521E-06 1.65436E-24
 -1       812 6.01823E-05 1.60226E-06 3.30872E-24
 -1       813 5.99687E-05 1.80074E-06 0.00000E+00
 -1       814 5.97511E-05 2.01001E-06 0.00000E+00
 -1       815 5.95260E-05 2.23940E-06 1.65436E-24
 -1       816 5.92897E-05 2.49827E-06 1.65436E-24
 -1       817 5.90390E-05 2.79595E-06-1.65436E-24
 -1       818 5.87702E-05 3.14178E-06-3.30872E-24
 -1       819 5.84800E-05 3.54503E-06 1.65436E-24
 -1       820 5.81652E-05 4.01500E-06 1.65436E-24
 -1       821 6.34285E-05 4.02895E-06 0.00000E+00
 -1       822 6.32900E-05 4.99488E-06 0.00000E+00
 -1       823 6.31516E-05 6.13415E-06 3.30872E-24
 -1       824 6.30118E-05 7.42640E-06 0.00000E+00
 -1       825 6.28716E-05 8.85113E-06 0.00000E+00
 -1       826 6.27311E-05 1.03876E-05 1.65436E-24
 -1       827 6.25904E-05 1.20150E-05 0.00000E+00
 -1       828 6.24495E-05 1.37123E-05 1.65436E-24
 -1       829 6.23086E-05 1.54584E-05 3.30872E-24
 -1       830 6.21676E-05 1.72323E-05 1.65436E-24
 -1       831 6.20267E-05 1.90128E-05 0.00000E+00
 -1       832 6.18860E-05 2.07786E-05-1.65436E-24
 -1       833 6.17455E-05 2.25087E-05 3.30872E-24
 -1       834 6.16062E-05 2.41820E-05 1.65436E-24
 -1       835 6.14668E-05 2.57774E-05 1.65436E-24
 -1       836 6.27447E-05 3.47054E-06 0.00000E+00
 -1       837 6.17611E-05 3.69190E-06 3.30872E-24
 -1       838 6.06925E-05 3.91289E-06-6.61744E-24
 -1       839 5.96236E-05 4.13308E-06-1.65436E-24
 -1       840 5.86391E-05 4.35339E-06-1.65436E-24
 -1       841 6.32895E-05 4.09308E-06 1.65436E-24
 -1       842 6.29027E-05 5.24115E-06 0.00000E+00
 -1       843 6.24343E-05 6.60606E-06 0.00000E+00
 -1       844 6.19197E-05 8.09362E-06-8.27181E-25
 -1       845 6.13731E-05 9.66618E-06 1.65436E-24
 -1       846 6.08086E-05 1.12862E-05-8.27181E-25
 -1       847 6.02322E-05 1.29378E-05 0.00000E+00
 -1       848 5.96497E-05 1.46053E-05-4.13590E-25
 -1       849 5.90646E-05 1.62800E-05 0.00000E+00
 -1       850 5.84799E-05 1.79534E-05 0.00000E+00
 -1       851 5.78991E-05 1.96163E-05 0.00000E+00
 -1       852 5.73255E-05 2.12596E-05-4.13590E-25
 -1       853 5.67661E-05 2.28653E-05-8.27181E-25
 -1       854 5.62265E-05 2.44150E-05 1.03398E-25
 -1       855 5.57247E-05 2.58656E-05 8.27181E-25
 -1       856 6.12242E-05 2.88440E-05 8.27181E-25
 -1       857 6.11073E-05 3.06360E-05 8.27181E-25
 -1       858 6.09899E-05 3.26202E-05-3.30872E-24
 -1       859 6.08714E-05 3.47665E-05 0.00000E+00
 -1       860 6.07524E-05 3.70446E-05 3.30872E-24
 -1       861 6.06330E-05 3.94240E-05-1.65436E-24
 -1       862 6.05135E-05 4.18745E-05 0.00000E+00
 -1       863 6.03938E-05 4.43655E-05 0.00000E+00
 -1       864 6.02740E-05 4.68666E-05 0.00000E+00
 -1       865 6.01543E-05 4.93473E-05 0.00000E+00
 -1       866 6.00348E-05 5.17770E-05 0.00000E+00
 -1       867 5.99155E-05 5.41254E-05 0.00000E+00
 -1       868 5.97966E-05 5.63621E-05 0.00000E+00
 -1       869 5.96783E-05 5.84567E-05 1.65436E-24
 -1       870 5.95604E-05 6.03790E-05 0.00000E+00
 -1       871 6.01371E-05 2.72599E-05 0.00000E+00
 -1       872 5.90918E-05 2.72439E-05 0.00000E+00
 -1       873 5.81411E-05 2.72276E-05 0.00000E+00
 -1       874 5.72264E-05 2.72106E-05 0.00000E+00
 -1       875 5.62890E-05 2.71928E-05 0.00000E+00
 -1       876 6.09436E-05 2.88830E-05-3.30872E-24
 -1       877 6.04953E-05 3.06662E-05 0.00000E+00
 -1       878 5.99905E-05 3.25991E-05 6.61744E-24
 -1       879 5.94385E-05 3.46605E-05 3.30872E-24
 -1       880 5.88464E-05 3.68284E-05 0.00000E+00
 -1       881 5.82224E-05 3.90814E-05 0.00000E+00
 -1       882 5.75744E-05 4.13980E-05-6.61744E-24
 -1       883 5.69105E-05 4.37571E-05 0.00000E+00
 -1       884 5.62386E-05 4.61372E-05 6.61744E-24
 -1       885 5.55667E-05 4.85171E-05-3.30872E-24
 -1       886 5.49028E-05 5.08756E-05-6.61744E-24
 -1       887 5.42549E-05 5.31913E-05-3.30872E-24
 -1       888 5.36308E-05 5.54430E-05 6.61744E-24
 -1       889 5.30378E-05 5.76088E-05-1.65436E-24
 -1       890 5.24849E-05 5.96677E-05 0.00000E+00
 -1       891 5.80598E-05 6.20155E-05 0.00000E+00
 -1       892 5.69023E-05 6.19309E-05 0.00000E+00
 -1       893 5.58441E-05 6.18464E-05 1.65436E-24
 -1       894 5.47557E-05 6.17620E-05 8.27181E-25
 -1       895 5.35076E-05 6.16774E-05 0.00000E+00
 -1       926 7.63286E-08-4.48582E-06 2.06795E-25
 -1       927 7.40141E-08-2.35159E-06-5.16988E-26
 -1       928 7.26024E-08-7.35056E-07 5.16988E-26
 -1       929 7.18938E-08 4.22651E-07-1.29247E-26
 -1       930 7.15546E-08 1.18050E-06 2.58494E-26
 -1       931 7.14101E-08 1.59745E-06-1.29247E-26
 -1       932 7.13259E-08 1.73255E-06 0.00000E+00
 -1       933 7.11799E-08 1.64485E-06-5.16988E-26
 -1       934 7.09423E-08 1.39343E-06-2.06795E-25
 -1       935 7.03547E-08 1.03737E-06 0.00000E+00
 -1       936 6.95640E-08 6.35781E-07-8.27181E-25
 -1       937 6.72586E-08 2.47745E-07 0.00000E+00
 -1       938 6.47628E-08-6.78709E-08 3.30872E-24
 -1       939 5.47191E-08-2.52180E-07 0.00000E+00
 -1       940 4.72385E-08-2.48494E-07 0.00000E+00
 -1       956 5.76680E-05 5.36610E-06 0.00000E+00
 -1       957 5.75094E-05 6.34429E-06 8.27181E-25
 -1       958 5.73500E-05 7.47646E-06-1.65436E-24
 -1       959 5.71902E-05 8.74287E-06 0.00000E+00
 -1       960 5.70302E-05 1.01238E-05 3.30872E-24
 -1       961 5.68700E-05 1.15992E-05-3.30872E-24
 -1       962 5.67096E-05 1.31493E-05 3.30872E-24
 -1       963 5.65491E-05 1.47541E-05 3.30872E-24
 -1       964 5.63886E-05 1.63937E-05-6.61744E-24
 -1       965 5.62281E-05 1.80481E-05-3.30872E-24
 -1       966 5.60676E-05 1.96975E-05 0.00000E+00
 -1       967 5.59072E-05 2.13218E-05-3.30872E-24
 -1       968 5.57470E-05 2.29010E-05 0.00000E+00
 -1       969 5.55871E-05 2.44154E-05 3.30872E-24
 -1       970 5.54277E-05 2.58451E-05 0.00000E+00
 -1       971 5.50700E-05 2.85377E-05 3.30872E-24
 -1       972 5.48643E-05 3.01475E-05 3.30872E-24
 -1       973 5.46583E-05 3.19714E-05-6.61744E-24
 -1       974 5.44513E-05 3.39799E-05 0.00000E+00
 -1       975 5.42439E-05 3.61434E-05 6.61744E-24
 -1       976 5.40362E-05 3.84320E-05 0.00000E+00
 -1       977 5.38282E-05 4.08158E-05 0.00000E+00
 -1       978 5.36200E-05 4.32648E-05 0.00000E+00
 -1       979 5.34117E-05 4.57489E-05-6.61744E-24
 -1       980 5.32035E-05 4.82380E-05 0.00000E+00
 -1       981 5.29954E-05 5.07020E-05 0.00000E+00
 -1       982 5.27876E-05 5.31108E-05 3.30872E-24
 -1       983 5.25803E-05 5.54343E-05 0.00000E+00
 -1       984 5.23741E-05 5.76427E-05-3.30872E-24
 -1       985 5.21685E-05 5.97060E-05-3.30872E-24
 -3
    1PSTEP                        28          14           1          
  100CL  114 1.000000000         568                     0   14           1
 -4  STRESS      6    1
 -5  SXX         1    4    1    1
 -5  SYY         1    4    2    2
 -5  SZZ         1    4    3    3
 -5  SXY         1    4    1    2
 -5  SYZ         1    4    2    3
 -5  SZX         1    4    3    1
 -1         1-2.43554E+06-1.08536E+06-4.85111E+05-1.45528E+06-1.60071E-09 9.48785E-09
 -1         2 9.35501E+03-3.33623E+05 8.66985E+04 2.49656E+05 2.55532E-08-5.78315E-09
 -1         3-9.84691E+01-1.35938E+06-1.76867E+02-6.90726E+02 1.10051E-09-7.69705E-09
 -1         4 1.35893E+01-1.45310E+01-1.48500E+00-1.67231E+01 2.00620E-08 1.77751E-09
 -1         5-3.73968E+01 5.84194E+05 3.12563E+01-4.19189E+00 5.57399E-10 1.34405E-08
 -1         8-2.38505E+06-8.26847E+05-3.03519E+05-9.40890E+05-9.74978E-10 5.23869E-09
 -1         9-2.34613E+06-5.44861E+05-2.78350E+05-5.60353E+05-4.95008E-09 6.82000E-09
 -1        10-5.56995E+04-8.08830E+05 9.29425E+04-6.92695E+03-7.24174E-09-3.29807E-09
 -1        11 3.39075E+00-6.19192E+00-2.20294E+00 9.84030E-01 2.18923E-09-9.72838E-10
 -1        12-1.35752E+04 2.21267E+05-7.41392E+04 1.06361E+04 1.31237E-08-5.40005E-09
 -1        15 3.71346E+03 2.00817E+03 1.15249E+04 9.01113E+00-1.80762E-10 2.05775E-08
 -1        16-3.15382E+06-8.29065E+05-2.44362E+05-1.07605E+06 2.74167E-09 3.05954E-09
 -1        17-5.59973E+05-4.51350E+05-3.43499E+04-4.12451E+05-8.19273E-09 1.70742E-09
 -1        18 4.47548E+04 1.50436E+04-1.71316E+04-1.24127E+05 4.92037E-10 3.90446E-09
 -1        19 1.31401E+05 1.53930E+05-1.55435E+04 1.56089E+04 3.87869E-09-5.06285E-09
 -1        20 8.63752E+04-1.21981E+05-2.73894E+04 6.08414E+04 4.10341E-09-2.70757E-09
 -1        21 3.76512E+03-2.15772E+05 6.46097E+04-6.82282E+02 2.37033E-08-4.18062E-09
 -1        23 8.82984E-01 4.20660E-01 1.61760E+01 2.31696E-03 1.19846E-08 3.68030E-09
 -1        24-1.70848E+06-5.05487E+05 1.10194E+05-8.95081E+05-8.12870E-09-1.02445E-09
 -1        25 6.84154E+03 6.34956E+04 3.13967E+04-5.20598E+05 1.49230E-09-1.04046E-10
 -1        26-1.51491E+03 1.41444E+05 2.92701E+03-2.48845E+04-1.13065E-09 1.66483E-09
 -1        27-3.44632E+04-9.11589E+04-4.07018E+04 1.00823E+05 7.56518E-09-6.71450E-09
 -1        28-1.66052E+04-1.70009E+05-8.54529E+03 6.21664E+04 1.30453E-08-1.17645E-09
 -1        31 5.73677E+03 6.58922E+03 9.63886E+03-2.67920E+02 4.97307E-09-2.54147E-09
 -1        32-7.35440E+05 1.55206E+05 4.38500E+05-1.06886E+06-5.29612E-09 6.30583E-10
 -1        33-1.68590E+05 1.74741E+05 5.33043E+04-5.26050E+04 6.33236E-10-2.24888E-09
 -1        34-2.16492E+05-1.11495E+04 1.43771E+04 7.26466E+04 9.86397E-10-1.58409E-08
 -1        35-4.23587E+04-4.83799E+04-1.63760E+03 9.81293E+04 7.10347E-09-3.37726E-09
 -1        36-2.57421E+03-4.53266E+04 1.04562E+05-4.45132E-07-6.71237E-10 1.37225E-08
 -1        37 4.28373E+04 5.24678E+04 7.40079E+04 1.03212E-06-6.43299E-10-1.43855E-08
 -1        38 1.48949E+04-7.12720E+03 2.70603E+04 7.74741E-07-5.52075E-10 4.28008E-09
 -1        39 2.24619E+04 8.24716E+03 1.70353E+04 1.96767E-06 1.25408E-10 1.34423E-09
 -1        40 1.77856E+04-1.11826E+03 6.95702E+03 1.70699E-06-2.92382E-11-1.04587E-08
 -1        41 1.90915E+04 1.30940E+03 4.15503E+03 8.80853E-07-8.55217E-11 2.29352E-09
 -1        42 1.82645E+04-1.90940E+02 2.02288E+03 6.50628E-07-2.37010E-11 1.08304E-08
 -1        43 1.85835E+04 3.31709E+02 1.58983E+03-1.21335E-06 1.99349E-11-1.64257E-08
 -1        44 1.82936E+04-1.40737E+02 1.57780E+03-1.74830E-06 2.38243E-11-8.44383E-09
 -1        45 1.88608E+04 8.78893E+02 2.86561E+03-3.12085E-07-5.16018E-11 5.52862E-09
 -1        46 1.79872E+04-7.38034E+02 4.63882E+03-9.40845E-07 1.40298E-10 9.02401E-09
 -1        47 2.10678E+04 5.42869E+03 1.12402E+04-1.55488E-07 2.77487E-10 1.36015E-09
 -1        48 1.60868E+04-4.68962E+03 1.78185E+04 4.34744E-07-3.85919E-10-1.00581E-08
 -1        49 3.44714E+04 3.45211E+04 4.86992E+04-1.37357E-06 3.49974E-10-1.16379E-08
 -1        50 4.59018E+03-2.98230E+04 6.87873E+04-3.31305E-07 3.92016E-09-2.21189E-09
 -1        51 3.18506E+04-6.22374E+05 5.40222E+04-1.69295E+06 6.40284E-10 1.78261E-08
 -1        52 2.14222E+04-6.26682E+05 3.73788E+04-1.86716E+06-1.81899E-10 2.05910E-08
 -1        53 2.03410E+04-6.48501E+05 3.55194E+04-1.68830E+06-7.42148E-10 9.73523E-09
 -1        54 4.68474E+04-6.48133E+05 6.14586E+04-1.87183E+06-4.07454E-10-3.43425E-09
 -1        55 9.50568E+04-6.70494E+05 1.15369E+05-1.68712E+06-2.18279E-10 9.81527E-09
 -1        56-7.56390E+06-7.23604E+05-6.58254E+05-2.72846E+06-1.22600E-09 3.37604E-09
 -1        57-7.14001E+06-1.73094E+06-4.02748E+05-3.25292E+06-2.77578E-09 3.49246E-10
 -1        58-7.78424E+06-7.32837E+05-1.49801E+05-2.46153E+06-8.87212E-09 1.53814E-08
 -1        59-6.94664E+06-1.65410E+06-8.28899E+04-3.55886E+06-2.29920E-09-4.32919E-10
 -1        60-7.80239E+06-7.62079E+05-3.66666E+04-2.45583E+06 1.55123E-08-6.12840E-09
 -1        61-6.97621E+06-1.45900E+06 2.14747E+03-3.30552E+06-1.18307E-08-1.28312E-08
 -1        62-7.70770E+06-9.60880E+05-3.90092E+04-2.68305E+06-5.05679E-09 4.52746E-09
 -1        63-7.27553E+06-1.03829E+06 3.06505E+04-2.75117E+06 1.51813E-08-1.45656E-08
 -1        64-7.45696E+06-1.21527E+06-3.97354E+04-2.97404E+06-2.41562E-09 3.07409E-09
 -1        65-7.83510E+06-5.91433E+05 4.20486E+03-2.30826E+06 2.86054E-08-1.29512E-08
 -1        66-7.19275E+06-1.37575E+06-3.60952E+04-3.15731E+06 1.82135E-08-1.29367E-08
 -1        67-8.17797E+06-4.19436E+05-7.86477E+04-2.14969E+06 3.00896E-08-1.89020E-08
 -1        68-7.16118E+06-1.35509E+06-1.41799E+05-3.17052E+06 1.87574E-08 7.42148E-10
 -1        69-8.03663E+06-8.20847E+05-3.83596E+05-2.23630E+06-4.69299E-10 6.48652E-09
 -1        70-7.29556E+06-1.00689E+06-6.27337E+05-3.03658E+06-3.33239E-09-6.75209E-09
 -1        86 6.57813E+04-2.51876E+06-2.17755E+05-2.21946E+05-5.15538E-08 1.25087E-08
 -1        87 1.43013E+05 2.07191E+06 7.53149E+05 1.94236E+05-3.45954E-08 6.86342E-08
 -1        88-2.10057E+05-5.45081E+06-7.43450E+05 8.28773E+04 3.99905E-08-5.93400E-09
 -1        89 2.38376E+05 2.59454E+06 9.03928E+05-3.02344E+05 1.09503E-08-6.85350E-09
 -1        90-2.56056E+04-3.04117E+06-2.61462E+05 2.74157E+05 4.61487E-08-3.63025E-09
 -1       121-1.03267E+02-1.35983E+06-2.87516E+02 3.45230E+02-1.90436E-09-2.49020E-09
 -1       122-1.67986E+02-1.35944E+06-4.15715E+02-1.37467E+03-1.52269E-09 5.29280E-09
 -1       123-3.60378E+01-1.35978E+06-7.97738E+02 1.02861E+03-4.87680E-09 4.23734E-09
 -1       124-9.65217E+02-1.35995E+06-1.80484E+03-2.81037E+03-3.45369E-09 1.25374E-08
 -1       125 5.81449E+02-1.35936E+06-2.87924E+03 1.77983E+03-8.03527E-09 2.02635E-09
 -1       161-4.98909E+00 3.40025E+00-2.05401E+00 3.54783E+00 8.33293E-06-3.11982E-06
 -1       162 1.31574E+01-1.48291E+01-3.70715E+00-1.67804E+01 1.66632E-05-6.24538E-06
 -1       163-4.55720E+00 3.70011E+00-7.25024E+00 3.60421E+00 8.06255E-06-3.02181E-06
 -1       164 1.14377E+01-1.67640E+01-1.61755E+01-1.66857E+01-5.41367E-07 2.08361E-07
 -1       165-3.26952E+00 5.33607E+00-3.15044E+01 3.45251E+00-1.00048E-05 3.74767E-06
 -1       166 2.78985E+00-2.89686E+01-7.28712E+01-1.51318E+01-1.94630E-05 7.29769E-06
 -1       167 4.09183E+00 1.59034E+01-1.38157E+02 2.05141E+00-2.90466E-05 1.08918E-05
 -1       168-4.81670E+01-1.07283E+02-3.31339E+02-3.18580E+00-3.86280E-05 1.44878E-05
 -1       169 4.76897E+01 8.36406E+01-6.04130E+02-8.48824E+00-4.79107E-05 1.79568E-05
 -1       170-3.55041E+02-6.07604E+02-1.52260E+03 8.13066E+01-5.71923E-05 2.14509E-05
 -1       171 3.10974E+02 5.16165E+02-2.62802E+03-8.24117E+01-6.50104E-05 2.43798E-05
 -1       172-2.22448E+03-3.79139E+03-7.09362E+03 6.55729E+02-7.28145E-05 2.73222E-05
 -1       173 1.91727E+03 3.26703E+03-1.13452E+04-5.82680E+02-7.36775E-05 2.76355E-05
 -1       174-1.37251E+04-2.40011E+04-3.36390E+04 4.46403E+03-7.44931E-05 2.79565E-05
 -1       175 1.18147E+04 2.07239E+04-4.84106E+04-3.88856E+03-3.72833E-05 1.39591E-05
 -1       191-3.86975E+01 5.84236E+05 3.64177E+01 2.08551E+00-2.61423E-10 2.21007E-09
 -1       192-2.71627E+01 5.84199E+05 6.93792E+01-2.43926E+01-2.37975E-10-5.19140E-09
 -1       193-6.34647E+00 5.84230E+05 1.30253E+02 2.22618E+01-9.40190E-10-1.10595E-09
 -1       194 1.04365E+02 5.84240E+05 2.94070E+02-2.12975E+02-8.24002E-10 1.94359E-09
 -1       195 3.69922E+02 5.84188E+05 5.96685E+02 1.90952E+02-1.58980E-09 4.67389E-09
 -1       251-3.36791E+06 7.92272E+04-1.48359E+05-7.08274E+04 1.78659E-09 3.60887E-09
 -1       252-3.19161E+06-1.27271E+05-7.12812E+04-2.69797E+04 3.08852E-09 1.47338E-10
 -1       253-3.64825E+06 4.65718E+04-8.44209E+04 1.14910E+05-9.81095E-09-1.10595E-09
 -1       254-1.78094E+06-6.69978E+04 2.77892E+05 7.10113E+04-1.38458E-08-1.21136E-08
 -1       255-4.77086E+06 1.56467E+04-2.76761E+05-1.68825E+05-1.46465E-08-3.71301E-10
 -1       256 1.23580E+06 6.79798E+04 9.09907E+05 4.44510E+04-9.59176E-09 4.33402E-08
 -1       257-6.65179E+06-8.84506E+04-6.49551E+05 1.41738E+05-1.26984E-08-1.09594E-10
 -1       258 3.32415E+06 1.91711E+05 1.34655E+06-2.39221E+05 1.75860E-08-5.52172E-08
 -1       259-6.85341E+06-1.00739E+05-6.90605E+05 1.13992E+05-2.79215E-09-1.64273E-08
 -1       260 1.70122E+06 9.29302E+04 1.00551E+06 7.81684E+04-3.01643E-08 3.68154E-08
 -1       261-5.03311E+06 4.03719E+03-3.30454E+05-1.74732E+05-2.62303E-08 9.88530E-09
 -1       262-1.42418E+06-5.81980E+04 3.46987E+05 6.77273E+04-1.59171E-08-2.95850E-08
 -1       263-3.74095E+06 4.88201E+04-1.06694E+05 1.24083E+05-1.53000E-08-4.38922E-09
 -1       264-3.09329E+06-1.39406E+05-6.38532E+04-3.50741E+04-1.61584E-08 1.79425E-08
 -1       265-3.37296E+06 8.88134E+04-1.65852E+05-7.19102E+04-2.14659E-08 1.28712E-08
 -1       266-6.52817E+04-3.01742E+04 1.50734E+05-1.85516E+02-1.01863E-10-1.44098E-10
 -1       267 7.56068E+04 3.52572E+04 1.06891E+05 2.13216E+02 1.21872E-10-8.34292E-09
 -1       268-1.03022E+04-5.04670E+03 3.95658E+04-2.77712E+01 5.27507E-11-6.83457E-10
 -1       269 1.21613E+04 6.05278E+03 2.58564E+04 3.22786E+01 7.27596E-12-1.04642E-08
 -1       270-1.85645E+03-1.00403E+03 1.24143E+04-4.50438E+00-1.22782E-11 1.42602E-08
 -1       271-6.37645E+06-8.18749E+05-4.97202E+05-2.47776E+06-9.74978E-10 2.70666E-09
 -1       272-6.55482E+06-1.12495E+06-3.11802E+05-2.47120E+06 1.45519E-10 3.66344E-09
 -1       273-6.46666E+06-9.21641E+05-1.17172E+05-2.46032E+06 3.52020E-09 6.54836E-09
 -1       274-6.44739E+06-9.91171E+05-6.37630E+04-2.50399E+06 4.03452E-09 6.25823E-09
 -1       275-6.48071E+06-9.28193E+05-2.72028E+04-2.45441E+06 3.38150E-09 5.24778E-09
 -1       276-6.42977E+06-9.83813E+05-1.41902E+04-2.51477E+06-2.22281E-09 3.49792E-09
 -1       277-6.48494E+06-9.26185E+05-7.23720E+03-2.45106E+06 8.73115E-11 2.21780E-09
 -1       278-6.42501E+06-9.86440E+05-5.44286E+03-2.51999E+06-1.45337E-09 6.24140E-09
 -1       279-6.48619E+06-9.24939E+05-6.30769E+03-2.44977E+06 2.72166E-10 1.20681E-08
 -1       280-6.42558E+06-9.87905E+05-1.17806E+04-2.52045E+06 2.83080E-11 3.56476E-09
 -1       281-6.48449E+06-9.24777E+05-2.21217E+04-2.45064E+06 4.03361E-10-1.01663E-08
 -1       282-6.43740E+06-9.96579E+05-5.19260E+04-2.51497E+06-2.53067E-09-5.98720E-09
 -1       283-6.47417E+06-9.18356E+05-9.52046E+04-2.45425E+06-1.16802E-09 3.55794E-09
 -1       284-6.52307E+06-1.10697E+06-2.53591E+05-2.48993E+06-4.27281E-09 7.11952E-09
 -1       285-6.40124E+06-8.34368E+05-4.04424E+05-2.46794E+06-3.39423E-09 3.08501E-09
 -1       286-2.23393E+05-5.09427E+04 1.16388E+05-2.80068E+03 6.05324E-09 2.21189E-09
 -1       287-1.64977E+05 5.87489E+04 8.37148E+04 6.35364E+03 4.30991E-09-4.93947E-09
 -1       288-2.02858E+05-7.76376E+03 2.99352E+04-2.90841E+03 2.41909E-09 8.02902E-09
 -1       289-1.81012E+05 9.55774E+03 2.13653E+04 3.43076E+03 5.38556E-10 8.09086E-09
 -1       290-2.07336E+05-1.81685E+03 5.87215E+03 1.22316E+02 1.85625E-09 7.36736E-09
 -1       291-1.84303E+05 1.80112E+03 7.08747E+03-2.76378E+03 1.23147E-08 1.09526E-09
 -1       292-1.99566E+05-1.24839E+01 1.92506E+03 3.28582E+03 4.78471E-06 3.75423E-08
 -1       293-1.92280E+05 1.28460E+01 2.77005E+03-5.95461E+03 9.24848E-06 7.23797E-08
 -1       294-1.99416E+05 2.56464E+01 1.74439E+03 3.31356E+03 4.78110E-06 3.29231E-08
 -1       295-1.84542E+05 1.58607E+03 6.45361E+03-2.84771E+03 1.17789E-08-2.22144E-09
 -1       296-2.07248E+05-1.63902E+03 4.78184E+03 1.78507E+02-1.63180E-09-1.31786E-09
 -1       297-1.81529E+05 8.24671E+03 1.86730E+04 3.35478E+03-4.47966E-09-2.58638E-09
 -1       298-2.02428E+05-6.63187E+03 2.55672E+04-2.88862E+03-3.35628E-09 7.75435E-09
 -1       299-1.68912E+05 5.03138E+04 7.18238E+04 6.35446E+03-2.27303E-09 1.24473E-08
 -1       300-2.19896E+05-4.36424E+04 9.96065E+04-2.82132E+03-1.53500E-09-3.05590E-10
 -1       301 5.97509E+04-2.30364E+04 1.66746E+05-2.89407E+04 3.10683E-09-8.18454E-09
 -1       302 2.19045E+04 1.09134E+04 1.10730E+05-3.57461E+04 4.59340E-09-1.26211E-08
 -1       303 4.99804E+03-1.13410E+04 9.98636E+04-2.91544E+04 1.28603E-09-1.22718E-08
 -1       304 3.85089E+04 2.32327E+04 1.62309E+05-3.55604E+04 3.97995E-09-4.66753E-09
 -1       305 1.09568E+05-3.52033E+04 2.89636E+05-2.90055E+04 3.09956E-09 2.42835E-09
 -1       306-3.13600E+06-4.19617E+05-1.84285E+05-1.21759E+06-1.54068E-09-1.10595E-09
 -1       307-3.17293E+06-5.61495E+05-1.15420E+05-1.24841E+06 2.44654E-10-6.31189E-10
 -1       308-3.16909E+06-4.57803E+05-4.34549E+04-1.21169E+06-8.91305E-11 6.18456E-11
 -1       309-3.13455E+06-5.11038E+05-2.36865E+04-1.25951E+06 1.35333E-09-1.99952E-09
 -1       310-3.17368E+06-4.60828E+05-1.01294E+04-1.21026E+06 5.24824E-09 3.37423E-09
 -1       311-3.12942E+06-5.06955E+05-5.40667E+03-1.26190E+06 6.27506E-09 1.24885E-09
 -1       312-3.17448E+06-4.60869E+05-2.93359E+03-1.20986E+06 4.11063E-09 5.51381E-09
 -1       313-3.12899E+06-5.06498E+05-2.59066E+03-1.26196E+06 5.41661E-09 3.29942E-09
 -1       314-3.17411E+06-4.61231E+05-3.51181E+03-1.21022E+06 3.67663E-09-1.90539E-09
 -1       315-3.13062E+06-5.05910E+05-6.93297E+03-1.26020E+06 4.92037E-09-1.97997E-09
 -1       316-3.17246E+06-4.61768E+05-1.33097E+04-1.21131E+06 4.39468E-09 1.11413E-09
 -1       317-3.13808E+06-5.10515E+05-3.11566E+04-1.25605E+06 4.20550E-09-1.05001E-08
 -1       318-3.16611E+06-4.58082E+05-5.72817E+04-1.21350E+06 1.42791E-10 1.02955E-09
 -1       319-3.18899E+06-5.76664E+05-1.52035E+05-1.24111E+06-5.82293E-09-6.13545E-09
 -1       320-3.12251E+06-4.07738E+05-2.42745E+05-1.22129E+06-3.39787E-09-2.47383E-10
 -1       336 7.48553E+02-1.35926E+06-5.16540E+03-1.98819E+03-1.01834E-08-4.08545E-09
 -1       337-2.30893E+03-1.36131E+06-8.23010E+03-2.34954E+04-6.99168E-09-1.07934E-08
 -1       338 1.27170E+03-1.35886E+06-1.27258E+04-1.38994E+03-1.23455E-08-1.52113E-08
 -1       339-1.51661E+04-1.36898E+06-3.05735E+04-2.45258E+04-8.36144E-09-7.59178E-09
 -1       340 1.15334E+04-1.35179E+06-4.70941E+04-9.67125E+02-1.36606E-08 7.94898E-10
 -1       356-1.06121E+00 3.88528E-01-3.32350E+00-2.63813E+00-1.09945E-06-1.30882E-09
 -1       357-1.79681E+00-7.22779E-01-6.99520E+00 1.06151E+01-2.19746E-06 7.31248E-09
 -1       358-8.62986E-01 3.40529E-01-1.32643E+01-2.63761E+00-1.30293E-06-2.24034E-10
 -1       359-3.40447E+00-2.30566E+00-2.78343E+01 1.06148E+01-4.06300E-07-1.94342E-09
 -1       360 5.45790E-01 1.97162E+00-5.31773E+01-2.63782E+00 3.93107E-07 7.22201E-09
 -1       361-1.23018E+01-1.49962E+01-1.13725E+02 1.06166E+01 1.19236E-06 7.36334E-10
 -1       362 8.03456E+00 1.30305E+01-2.12893E+02-2.63944E+00 1.58824E-06 2.31755E-09
 -1       363-6.13430E+01-9.78356E+01-4.68917E+02 1.06346E+01 1.98277E-06 5.43281E-09
 -1       364 4.95893E+01 8.48015E+01-8.49179E+02-2.65578E+00 1.94749E-06 1.45366E-09
 -1       365-3.41963E+02-6.30466E+02-1.95705E+03 1.07600E+01 1.91658E-06-2.47996E-09
 -1       366 2.88676E+02 5.45589E+02-3.36708E+03-2.76484E+00 1.48020E-06 4.72892E-09
 -1       367-1.99582E+03-4.03163E+03-8.31228E+03 1.15285E+01 1.04633E-06-9.54560E-09
 -1       368 1.70373E+03 3.48543E+03-1.32226E+04-3.42383E+00 3.58448E-07 5.68616E-09
 -1       369-1.19606E+04-2.56586E+04-3.61857E+04 1.59028E+01-3.36277E-07 3.58932E-09
 -1       370 1.02576E+04 2.21694E+04-5.10981E+04-7.13583E+00-1.61606E-07 1.76042E-08
 -1       376-1.49589E+00 2.39755E+00-1.45164E+00 2.44001E+00 3.32605E-06-1.25284E-06
 -1       377 8.45786E+00-8.69652E+00-2.56523E+00-9.16022E+00 6.64134E-06-2.50058E-06
 -1       378-1.40525E+00 2.34551E+00-4.58945E+00 2.50176E+00 1.64676E-06-6.21576E-07
 -1       379 7.52654E+00-9.64306E+00-1.02061E+01-9.15309E+00-3.35462E-06 1.26055E-06
 -1       380-5.64357E-01 3.34440E+00-1.97550E+01 2.43277E+00-9.28243E-06 3.48221E-06
 -1       381 2.10186E+00-1.72708E+01-4.57369E+01-8.18861E+00-1.52049E-05 5.71847E-06
 -1       382 4.01985E+00 9.97256E+00-8.66393E+01 1.53774E+00-2.07927E-05 7.81011E-06
 -1       383-2.95928E+01-6.63336E+01-2.07771E+02-5.88287E-01-2.63792E-05 9.91424E-06
 -1       384 3.11309E+01 5.24016E+01-3.78928E+02-5.16470E+00-3.12604E-05 1.17460E-05
 -1       385-2.22308E+02-3.80094E+02-9.54927E+02 5.23863E+01-3.61387E-05 1.35863E-05
 -1       386 1.96737E+02 3.23696E+02-1.64815E+03-5.14193E+01-3.96721E-05 1.48996E-05
 -1       387-1.39568E+03-2.37662E+03-4.44900E+03 4.12773E+02-4.31922E-05 1.62350E-05
 -1       388 1.20455E+03 2.04866E+03-7.11531E+03-3.65419E+02-4.25169E-05 1.59705E-05
 -1       389-8.61064E+03-1.50497E+04-2.10974E+04 2.80309E+03-4.18126E-05 1.57169E-05
 -1       390 7.41284E+03 1.29952E+04-3.03636E+04-2.44060E+03-2.09224E-05 7.84637E-06
 -1       406 4.33832E+02 5.84160E+05 1.51792E+03-2.03371E+02-2.07365E-09 9.41327E-10
 -1       407 5.24548E+02 5.84485E+05 2.73199E+03 2.15660E+02-1.20372E-09 6.92671E-09
 -1       408 1.29159E+03 5.84012E+05 5.22517E+03-1.11688E+01-2.73872E-09 2.33922E-09
 -1       409 5.47326E+03 5.86112E+05 1.16616E+04-1.64846E+02-1.78625E-09-5.36329E-09
 -1       410 1.58439E+04 5.82527E+05 2.37410E+04 1.98941E+02-3.69619E-09-8.10360E-10
 -1       501-4.61418E+05-1.14158E+05 1.87580E+05-2.04045E+04 3.06433E-08 1.90776E-08
 -1       502 2.81592E+04 1.19378E+05 2.01645E+05 4.88423E+04 2.82082E-08 3.29092E-08
 -1       503-2.83493E+05-4.30495E+03 5.20989E+04-2.18721E+04 1.56363E-08 1.93904E-08
 -1       504 1.26141E+05 2.40172E+04 1.06818E+05 2.79927E+04-2.72314E-09 1.72113E-08
 -1       505-5.58151E+05-2.03625E+04-4.92579E+04 4.60302E+02 2.32080E-09-7.41056E-09
 -1       506 1.93314E+05 1.51243E+04 9.47923E+04-2.15355E+04 5.02644E-08-2.70302E-08
 -1       507-3.50070E+05 3.98292E+03-1.72425E+04 2.75699E+04 4.71887E-08-3.59325E-08
 -1       508-3.62611E+04-9.32092E+03 3.91917E+04-4.86916E+04 2.15102E-08-5.62653E-08
 -1       509-3.30594E+05 6.31519E+03-1.53492E+04 2.77007E+04 5.22143E-08-3.51802E-08
 -1       510 1.75228E+05 1.14080E+04 8.49725E+04-2.37315E+04 4.62004E-08-3.09769E-08
 -1       511-5.59673E+05-1.88521E+04-6.08236E+04 2.52618E+03-7.81870E-09-2.63049E-09
 -1       512 1.37519E+05 1.23063E+04 8.30978E+04 2.60720E+04-3.03691E-08 2.15853E-08
 -1       513-2.93210E+05 5.74201E+03 4.87966E+03-2.20188E+04-1.36919E-08 2.63844E-08
 -1       514-1.18702E+04 3.34605E+04 8.09317E+04 4.86694E+04-1.49971E-08 3.61620E-08
 -1       515-4.11793E+05-3.82764E+04 2.03046E+04-2.00867E+04-2.11600E-08 2.01690E-08
 -1       521-6.47287E+06-8.41037E+05-4.11351E+05-2.49345E+06-2.64117E-09 1.57161E-09
 -1       522-6.60910E+06-1.10696E+06-2.58065E+05-2.50243E+06 5.85715E-10-2.24099E-09
 -1       523-6.54555E+06-9.28114E+05-9.67843E+04-2.48109E+06-1.37152E-09 1.62254E-09
 -1       524-6.52389E+06-9.92289E+05-5.28223E+04-2.52484E+06 1.14994E-09 5.92718E-09
 -1       525-6.55502E+06-9.35751E+05-2.24370E+04-2.47849E+06 2.37424E-09 5.28144E-09
 -1       526-6.51300E+06-9.82095E+05-1.18684E+04-2.52856E+06-1.47622E-09-6.12113E-09
 -1       527-6.55625E+06-9.36425E+05-6.16556E+03-2.47811E+06 1.00272E-10 4.77615E-09
 -1       528-6.51272E+06-9.80232E+05-4.97595E+03-2.52769E+06-1.31331E-09 3.63798E-09
 -1       529-6.55514E+06-9.37570E+05-6.19599E+03-2.47931E+06-9.03128E-10-2.81079E-09
 -1       530-6.51679E+06-9.77993E+05-1.18562E+04-2.52348E+06-1.05501E-10-5.85123E-09
 -1       531-6.55178E+06-9.39057E+05-2.25131E+04-2.48197E+06 1.38243E-09 1.07684E-09
 -1       532-6.53126E+06-9.84418E+05-5.27963E+04-2.51523E+06-3.03771E-09 9.21318E-10
 -1       533-6.54051E+06-9.33245E+05-9.68641E+04-2.48656E+06-1.18513E-09 2.18279E-11
 -1       534-6.61965E+06-1.09584E+06-2.57991E+05-2.48923E+06-1.16870E-09-2.67028E-09
 -1       535-6.46648E+06-8.47551E+05-4.11348E+05-2.50048E+06-2.26282E-09 1.94996E-09
 -1       536-1.06198E+04-1.96073E+04 7.73436E+04-1.47344E+04-2.32467E-09 4.97676E-09
 -1       537 1.91909E+04 2.46700E+04 5.00926E+04-6.36513E+04-7.57427E-09-6.66478E-09
 -1       538 1.06009E+03-2.35514E+03 1.99631E+04-1.45234E+04-3.35967E-09-3.13867E-09
 -1       539 5.22379E+03 2.27515E+03 1.13182E+04-6.38698E+04 2.99042E-09-4.66957E-09
 -1       540 2.32900E+03-3.91162E+02 4.99280E+03-1.45042E+04-8.18545E-11-1.17143E-09
 -1       541 3.10241E+03 1.81867E+02 2.68162E+03-6.38884E+04 3.96540E-10-7.40306E-09
 -1       542 2.43680E+03-7.59203E+01 1.19016E+03-1.45072E+04-4.26553E-10-2.54886E-10
 -1       543 2.52470E+03 8.88220E+01 5.56834E+02-6.38844E+04 1.12323E-09 3.36752E-09
 -1       544 2.42810E+03 1.85117E+01 1.02125E+02-1.45087E+04 5.11136E-10 1.78864E-09
 -1       545 2.29447E+03 9.11903E+01-2.83346E+02-6.38826E+04-8.60041E-10 8.90850E-10
 -1       546 2.45407E+03 6.96798E+01-7.70937E+02-1.45088E+04 5.86624E-10-1.64437E-09
 -1       547 2.06744E+03-3.14327E+02-1.84984E+03-6.38751E+04-1.45883E-09 3.43744E-09
 -1       548 2.70778E+03 3.32689E+02-3.37510E+03-1.45163E+04-1.62981E-09 2.90902E-09
 -1       549 1.00159E+02-4.20261E+03-8.38537E+03-6.37563E+04-1.21736E-09 5.80872E-09
 -1       550 4.73964E+03 3.08804E+03-1.31030E+04-1.46275E+04 8.64020E-11 4.71573E-09
 -1       551 2.08433E+04-5.37103E+05 4.14501E+04-8.43614E+05 1.64437E-09-2.19006E-09
 -1       552 1.87511E+04-5.33464E+05 4.22679E+04-1.02993E+06-9.53878E-09 6.47560E-10
 -1       553 1.43612E+04-5.40492E+05 5.99215E+04-8.41933E+05 1.19326E-09 5.93263E-09
 -1       554 4.49198E+04-5.15679E+05 1.21668E+05-1.03010E+06-9.53150E-09 9.58789E-09
 -1       555 9.85611E+04-5.57649E+05 2.30635E+05-8.42918E+05 1.86265E-09-4.79849E-09
 -1       556-2.10513E+05-1.82943E+05 4.14033E+04-2.99761E+05-7.44330E-09-3.71801E-09
 -1       557-1.69149E+05-2.22811E+05 2.09625E+04-3.32302E+05-4.10364E-09 1.75169E-09
 -1       558-2.11724E+05-1.92890E+05 8.62317E+03-2.93431E+05-4.87489E-10 1.26784E-08
 -1       559-1.74939E+05-2.28576E+05 4.31964E+03-3.34963E+05 2.19370E-09-6.12999E-10
 -1       560-2.13197E+05-1.92166E+05 1.83345E+03-2.94168E+05 4.80213E-10 2.69392E-09
 -1       561-1.76892E+05-2.28134E+05 9.28801E+02-3.36301E+05 5.96629E-10-3.37639E-09
 -1       562-2.14323E+05-1.91446E+05 3.29807E+02-2.94932E+05-5.31145E-10 2.10548E-10
 -1       563-1.78047E+05-2.27638E+05 9.19363E+01-3.37090E+05 4.01997E-10 1.10449E-08
 -1       564-2.14984E+05-1.91027E+05-1.98581E+02-2.95382E+05-2.63026E-09-9.00400E-10
 -1       565-1.78622E+05-2.27400E+05-5.76523E+02-3.37465E+05-5.40422E-09 5.45697E-10
 -1       566-2.15139E+05-1.90886E+05-1.30775E+03-2.95511E+05-4.07817E-09 4.67480E-10
 -1       567-1.78823E+05-2.27511E+05-2.91790E+03-3.37412E+05-8.94033E-10 2.90675E-09
 -1       568-2.14655E+05-1.91316E+05-6.04228E+03-2.95207E+05-1.44064E-09-3.17959E-09
 -1       569-1.81892E+05-2.30805E+05-1.42284E+04-3.36090E+05-1.78807E-09-1.79352E-09
 -1       570-2.12067E+05-2.00456E+05-2.85075E+04-2.91203E+05-1.56433E-10-5.87534E-10
 -1       571 3.74736E+05 1.65012E+04 2.47911E+04-9.60523E+04-4.13820E-10 3.98086E-09
 -1       572 3.78446E+05 5.68354E+03 1.21582E+04-1.05493E+05 5.54792E-11 3.59250E-09
 -1       573 3.76192E+05 1.31232E+03 5.40390E+03-9.57965E+04-5.82077E-11-7.79437E-10
 -1       574 3.76621E+05 4.15242E+02 2.71043E+03-1.05770E+05-1.48248E-10-1.32241E-09
 -1       575 3.76332E+05 4.43898E+01 1.27854E+03-9.57642E+04-3.71529E-10-1.20781E-09
 -1       576 3.76367E+05 6.93753E+00 6.50865E+02-1.05806E+05 6.14136E-10 1.36424E-11
 -1       577 3.76356E+05-1.94634E+01 3.19111E+02-9.57600E+04 8.71978E-10 1.10176E-08
 -1       578 3.76355E+05-1.89288E+01 1.70866E+02-1.05811E+05 7.02130E-10 8.29459E-09
 -1       579 3.76405E+05-3.64720E+01 9.70209E+01-9.57594E+04-7.48514E-10 4.94765E-10
 -1       580 3.76427E+05-5.37736E+01 7.95764E+01-1.05806E+05-1.81899E-12 2.33013E-09
 -1       581 3.76498E+05-8.30501E+01 9.23875E+01-9.57643E+04-1.64073E-09-4.11092E-10
 -1       582 3.76568E+05-9.71537E+01 1.68677E+02-1.05750E+05-1.62618E-09-3.46245E-09
 -1       583 3.76627E+05-8.84889E+01 3.10787E+02-9.58150E+04-4.72937E-10-2.91038E-11
 -1       584 3.76849E+05 1.21993E+02 6.99551E+02-1.05314E+05-3.71983E-10 1.33189E-08
 -1       585 3.76706E+05 7.11115E+02 1.40695E+03-9.62015E+04 2.14823E-09 6.23186E-09
 -1       586 2.25937E+03 1.73477E+05 4.23721E+03-2.30874E+05 6.30280E-10 1.48611E-09
 -1       587 1.49237E+03 1.74128E+05 4.67668E+03-2.56268E+05-1.42791E-09 1.06866E-10
 -1       588 1.94093E+03 1.73237E+05 7.27331E+03-2.30565E+05 8.02174E-10 2.22849E-08
 -1       589 7.06155E+03 1.76069E+05 1.53342E+04-2.56353E+05-1.57161E-09 4.54138E-08
 -1       590 1.98461E+04 1.71354E+05 3.06863E+04-2.30777E+05 9.18590E-10 2.93849E-08
 -1       591-1.89911E+05-5.64285E+04-3.68854E+04-9.10331E+04-2.26487E-09-9.94623E-09
 -1       592-1.92226E+05-5.43857E+04-1.84974E+04-1.01016E+05-1.78261E-10 1.34605E-09
 -1       593-1.91685E+05-4.56765E+04-7.85291E+03-9.63518E+04 4.98267E-09 9.06766E-09
 -1       594-1.88070E+05-4.97600E+04-3.85582E+03-1.01392E+05 7.57427E-09 8.93864E-09
 -1       595-1.91890E+05-4.53812E+04-1.77923E+03-9.65573E+04 3.42948E-09 5.15234E-09
 -1       596-1.87786E+05-4.95967E+04-8.99585E+02-1.01353E+05-2.03971E-09-3.58182E-09
 -1       597-1.91925E+05-4.54121E+04-4.84787E+02-9.65578E+04 1.01690E-09 3.26895E-09
 -1       598-1.87755E+05-4.95992E+04-3.78344E+02-1.01339E+05 1.44632E-09 7.06382E-09
 -1       599-1.91920E+05-4.54159E+04-4.69162E+02-9.65548E+04 4.22938E-09 1.86938E-08
 -1       600-1.87775E+05-4.96016E+04-8.58114E+02-1.01342E+05-2.12231E-09 1.48793E-09
 -1       601-1.91875E+05-4.53930E+04-1.68984E+03-9.65483E+04-9.79526E-10 3.66026E-09
 -1       602-1.88037E+05-4.97567E+04-3.65785E+03-1.01365E+05-2.55022E-09-2.92403E-09
 -1       603-1.91668E+05-4.56841E+04-7.44807E+03-9.63518E+04-1.46247E-09 1.15597E-09
 -1       604-1.92010E+05-5.41004E+04-1.75387E+04-1.00947E+05 8.53106E-10 6.76346E-09
 -1       605-1.89933E+05-5.59186E+04-3.49736E+04-9.13471E+04-6.20275E-10-5.60431E-09
 -1       606 1.37603E+05-1.54676E+04-2.42649E+04 4.48654E+04-9.06948E-09 1.14414E-09
 -1       607 1.33762E+05-5.19973E+03-1.19371E+04 4.91802E+04-1.27875E-09 4.70664E-11
 -1       608 1.35961E+05-1.10083E+03-5.31948E+03 4.45552E+04 7.77072E-09-2.42335E-09
 -1       609 1.35445E+05-2.79851E+02-2.66820E+03 4.95178E+04-3.78350E-10-2.40198E-09
 -1       610 1.35709E+05 4.54757E+01-1.26346E+03 4.45165E+04-5.05861E-09 3.21643E-09
 -1       611 1.35591E+05 1.08446E+02-6.34396E+02 4.95586E+04-1.36497E-08 1.35342E-08
 -1       612 1.35627E+05 1.20216E+02-3.01234E+02 4.45124E+04 3.10501E-09 1.49612E-09
 -1       613 1.35569E+05 1.43523E+02-1.34076E+02 4.95630E+04 8.89213E-09-3.58796E-09
 -1       614 1.35577E+05 1.33199E+02-3.15689E+01 4.45116E+04 3.69801E-09-3.78986E-09
 -1       615 1.35537E+05 1.61423E+02 5.78574E+01 4.95629E+04 6.15228E-09-5.03860E-10
 -1       616 1.35540E+05 1.54148E+02 1.71633E+02 4.45123E+04-7.97445E-09-7.52516E-09
 -1       617 1.35541E+05 2.28830E+02 3.95164E+02 4.95607E+04 8.22183E-10 2.03181E-09
 -1       618 1.35490E+05 3.33344E+02 8.00712E+02 4.45131E+04-1.03855E-08 1.22736E-09
 -1       619 1.35792E+05 9.77536E+02 1.80678E+03 4.95523E+04-1.44678E-08-1.27193E-09
 -1       620 1.35241E+05 2.51261E+03 3.67486E+03 4.45147E+04-5.23630E-09-1.24965E-09
 -1       621 1.31324E+03 3.94842E+05 4.49884E+03-3.28087E+04 2.02317E-09-6.42854E-09
 -1       622 6.15207E+02 3.95744E+05 4.76713E+03-4.01040E+04-7.66249E-10-6.33736E-09
 -1       623 3.92148E+02 3.94951E+05 7.05871E+03-3.28154E+04 1.79261E-09 1.54614E-10
 -1       624 3.75296E+03 3.98092E+05 1.45334E+04-3.99788E+04-7.73980E-10-8.99058E-09
 -1       625 1.07192E+04 3.92543E+05 2.77358E+04-3.29274E+04 1.78079E-09-4.43606E-09
 -1       626 2.43859E+05 8.02156E+04-3.74042E+03 1.56082E+05-4.10728E-09-1.07029E-08
 -1       627 2.38521E+05 8.63812E+04-1.77548E+03 1.60904E+05 2.96495E-09 7.22252E-09
 -1       628 2.44011E+05 8.18636E+04-7.48529E+02 1.54976E+05-2.48292E-09-1.35528E-08
 -1       629 2.38548E+05 8.73260E+04-3.53096E+02 1.61002E+05 4.36830E-09-1.09212E-08
 -1       630 2.43960E+05 8.19933E+04-1.50798E+02 1.54849E+05 6.14273E-09-5.56628E-09
 -1       631 2.38488E+05 8.74185E+04-5.14767E+01 1.60986E+05-6.93399E-09-1.37165E-08
 -1       632 2.43910E+05 8.20148E+04 1.96041E+01 1.54815E+05 3.84898E-09-3.04453E-10
 -1       633 2.38455E+05 8.74358E+04 1.02610E+02 1.60966E+05 5.07953E-10-4.91264E-09
 -1       634 2.43876E+05 8.20153E+04 2.37015E+02 1.54800E+05 2.42517E-09 2.34604E-09
 -1       635 2.38467E+05 8.74454E+04 5.26767E+02 1.60963E+05 1.36288E-09 2.79078E-09
 -1       636 2.43848E+05 8.20336E+04 1.08706E+03 1.54783E+05-9.91554E-09-4.10546E-09
 -1       637 2.38721E+05 8.77096E+04 2.41956E+03 1.60929E+05-7.14067E-10 1.56251E-09
 -1       638 2.43793E+05 8.28372E+04 5.00420E+03 1.54432E+05-2.30511E-09-1.74987E-09
 -1       639 2.41296E+05 9.19971E+04 1.18935E+04 1.59912E+05-4.22642E-09-8.57290E-09
 -1       640 2.43849E+05 9.53432E+04 2.50042E+04 1.49212E+05-4.04998E-09-3.87035E-09
 -1       641-9.37723E+02 3.98624E+03-9.19032E+03-2.45927E+01 7.03963E-05-1.58864E-07
 -1       642-4.91838E+03-4.61346E+03-6.50024E+03 6.24686E+01 1.40645E-04-2.93464E-07
 -1       643-2.47256E+03 6.26453E+02-2.36661E+03-2.27924E+01 1.29890E-04-2.87799E-07
 -1       644-3.12992E+03-7.22761E+02-1.46882E+03 6.08811E+01 1.19060E-04-2.50262E-07
 -1       645-2.72637E+03 9.62859E+01-5.56771E+02-2.30077E+01 8.33394E-05-1.92337E-07
 -1       646-2.82690E+03-9.94358E+01-2.47231E+02 6.12544E+01 4.75955E-05-1.09284E-07
 -1       647-2.77562E+03 3.24382E+00 4.32427E+01-2.31662E+01-1.83896E-06 3.31846E-09
 -1       648-2.73123E+03 7.26038E+01 3.47379E+02 6.11074E+01-5.13101E-05 1.20683E-07
 -1       649-2.82204E+03-7.57321E+01 7.43238E+02-2.28609E+01-1.10684E-04 2.55126E-07
 -1       650-2.46139E+03 5.77796E+02 1.78158E+03 5.96849E+01-1.69975E-04 3.77283E-07
 -1       651-3.04543E+03-5.01881E+02 3.08934E+03-2.17430E+01-8.50481E-05 1.86584E-07
 -1       652-9.32153E+02 3.71095E+03 7.64803E+03 5.50615E+01-6.70701E-08-3.94175E-09
 -1       653-4.35105E+03-3.20829E+03 1.21688E+04-1.82379E+01 3.40089E-09-4.40514E-09
 -1       654 8.24849E+03 2.36192E+04 3.33117E+04 3.74902E+01-2.47559E-08-1.23873E-09
 -1       655-1.22227E+04-2.04056E+04 4.70521E+04-4.17354E+00-8.19246E-09 1.51340E-09
 -1       656 1.54527E+04-5.75132E+05-6.58120E+04 1.61169E+04-2.09184E-09 4.87671E-09
 -1       657-2.26047E+04-5.99392E+05-4.87057E+04 6.75752E+04-1.07798E-09-1.92995E-09
 -1       658 3.15394E+03-5.83627E+05-3.15268E+04 1.59195E+04-2.74719E-09 1.07320E-10
 -1       659-2.19447E+04-5.99109E+05-4.76153E+04 6.77112E+04-1.25692E-09-1.05182E-08
 -1       660 1.49762E+04-5.75524E+05-6.37373E+04 1.59829E+04-1.99725E-09-3.85603E-09
 -1       661 3.73439E+05 5.20497E+04 2.94568E+04 1.46738E+05 7.76618E-09-1.11868E-09
 -1       662 3.79924E+05 6.90122E+04 1.77388E+04 1.50880E+05-1.08301E-09 3.18801E-09
 -1       663 3.77957E+05 5.64457E+04 6.91421E+03 1.46768E+05 4.17799E-10-8.75389E-10
 -1       664 3.74640E+05 6.18927E+04 3.64911E+03 1.51700E+05 1.68163E-08-3.14270E-09
 -1       665 3.78387E+05 5.68501E+04 1.61521E+03 1.46789E+05 3.33239E-09 3.56977E-10
 -1       666 3.74138E+05 6.12972E+04 8.60123E+02 1.51730E+05-2.51968E-09 4.74189E-09
 -1       667 3.78435E+05 5.68907E+04 5.01564E+02 1.46794E+05-5.27683E-09-2.86428E-09
 -1       668 3.74093E+05 6.12579E+04 4.82835E+02 1.51734E+05 6.11863E-10-7.49992E-10
 -1       669 3.78434E+05 5.68819E+04 7.05592E+02 1.46789E+05-4.57396E-09 3.96255E-09
 -1       670 3.74178E+05 6.13514E+04 1.41219E+03 1.51755E+05-5.41240E-09-6.16086E-09
 -1       671 3.78357E+05 5.68010E+04 2.76349E+03 1.46774E+05 7.58143E-09-6.08452E-10
 -1       672 3.75044E+05 6.23962E+04 6.31177E+03 1.51720E+05 1.37442E-08-2.39913E-09
 -1       673 3.77615E+05 5.60933E+04 1.19829E+04 1.46733E+05 9.91150E-09 2.66209E-09
 -1       674 3.84205E+05 7.47559E+04 3.07656E+04 1.50311E+05 1.62325E-08 7.75799E-10
 -1       675 3.69782E+05 4.84639E+04 5.10936E+04 1.46675E+05 1.21536E-08 2.80852E-09
 -1       676 8.39905E+02-5.67553E+05-4.93666E+03 4.21960E+02-4.98753E-09-5.36318E-11
 -1       677-2.25493E+03-5.69587E+05-7.26171E+03-1.21864E+03 1.84110E-09 9.70140E-10
 -1       678 1.07980E+03-5.67315E+05-1.06696E+04 4.17615E+02 6.63567E-09 5.51876E-09
 -1       679-1.27003E+04-5.75674E+05-2.53392E+04-1.20886E+03 3.83307E-09-1.78932E-09
 -1       680 9.50456E+03-5.61471E+05-3.88978E+04 4.09482E+02-9.11314E-10-5.78268E-10
 -1       716-4.41499E-01-2.10500E-01 1.97553E+01-1.15818E-03 2.79821E-09-1.79986E-09
 -1       717 2.17416E+00 1.58556E+00 3.47929E+01 2.94944E-03 7.31377E-10 1.81897E-09
 -1       718-1.73269E+00-1.37565E+00 6.45660E+01-1.78956E-03-2.14342E-09-2.92896E-09
 -1       719 1.02663E+01 1.08001E+01 1.33922E+02-2.67544E-03 2.48054E-09 8.09438E-10
 -1       720-8.53368E+00-9.42560E+00 2.55426E+02 4.47026E-03-8.50056E-09-2.62499E-09
 -1       721 5.31348E+01 7.19612E+01 5.45891E+02-9.43572E-02-4.01794E-09-2.82628E-09
 -1       722-4.46006E+01-6.25343E+01 1.02172E+03 8.98814E-02-7.00843E-09-3.58540E-09
 -1       723 2.88891E+02 4.69551E+02 2.25050E+03-9.05452E-01-1.11020E-09 1.69084E-09
 -1       724-2.44273E+02-4.06967E+02 4.07531E+03 8.15409E-01-9.36723E-09-4.52019E-10
 -1       725 1.63636E+03 3.02570E+03 9.39235E+03-6.96326E+00-4.58818E-09 4.52019E-10
 -1       726-1.39174E+03-2.61820E+03 1.61600E+04 6.14692E+00-9.86524E-09-1.31695E-09
 -1       727 9.57516E+03 1.93480E+04 3.98934E+04-4.89807E+01-9.11375E-09-1.80080E-09
 -1       728-8.17750E+03-1.67251E+04 6.34754E+04 4.28401E+01-2.69443E-09-2.57933E-09
 -1       729 5.74028E+04 1.23134E+05 1.73678E+05-3.29440E+02 2.32779E-09 1.59343E-09
 -1       730-4.91277E+04-1.06361E+05 2.45542E+05 2.86851E+02 9.24564E-09-3.17232E-09
 -1       766-1.06383E+05-4.91887E+04 2.45498E+05-2.23435E+02-1.12050E-09-3.17556E-09
 -1       767 1.23310E+05 5.75168E+04 1.73666E+05 2.80911E+01 8.27276E-09 4.02451E-11
 -1       768-1.68793E+04-8.33891E+03 6.32622E+04 3.47574E+01-6.22094E-10-5.49534E-11
 -1       769 2.04844E+04 1.02033E+04 3.99304E+04-2.67749E+02 7.34053E-09 6.11549E-09
 -1       770-3.59929E+03-1.96602E+03 1.52218E+04 7.26331E+01-5.37511E-10 2.45094E-09
 -1       771-3.09703E+06-6.02935E+05-8.87541E+04-1.33199E+06-7.48696E-09 4.54020E-09
 -1       772-3.08461E+06-6.14730E+05-4.43402E+04-1.37535E+06-4.10364E-09 6.97037E-09
 -1       773-3.10349E+06-5.75638E+05-1.90401E+04-1.34447E+06-6.21367E-09-3.87445E-09
 -1       774-3.07505E+06-6.04399E+05-9.26560E+03-1.37894E+06 1.64073E-09-3.49246E-09
 -1       775-3.10547E+06-5.73915E+05-4.40108E+03-1.34548E+06 5.74801E-10-1.23691E-10
 -1       776-3.07531E+06-6.03858E+05-2.17259E+03-1.38029E+06 5.52973E-10-7.42148E-10
 -1       777-3.10670E+06-5.73259E+05-1.22840E+03-1.34594E+06 8.73115E-11 2.22190E-09
 -1       778-3.07597E+06-6.03684E+05-8.97545E+02-1.38124E+06-1.02773E-09 8.29084E-09
 -1       779-3.10745E+06-5.72775E+05-1.13401E+03-1.34626E+06-7.53062E-10-6.85759E-10
 -1       780-3.07648E+06-6.03576E+05-2.02934E+03-1.38185E+06-1.55342E-09-8.84029E-10
 -1       781-3.10773E+06-5.72470E+05-4.02582E+03-1.34641E+06-1.26056E-09-2.46837E-09
 -1       782-3.07729E+06-6.03900E+05-8.73462E+03-1.38209E+06 5.64796E-10-1.73804E-09
 -1       783-3.10724E+06-5.73175E+05-1.78368E+04-1.34595E+06-1.59616E-09-4.68572E-09
 -1       784-3.08682E+06-6.14258E+05-4.20813E+04-1.38078E+06-5.63932E-09-1.37043E-08
 -1       785-3.10266E+06-5.98033E+05-8.40021E+04-1.33397E+06-1.75532E-09-1.44064E-09
 -1       786 3.01911E+05-9.43204E+03 3.85271E+04-2.25862E+03-2.09411E-10 4.92946E-10
 -1       787 3.15981E+05 1.25079E+04 2.48361E+04-1.01587E+04 8.68113E-10-1.14233E-09
 -1       788 3.07768E+05-9.98734E+02 9.99171E+03-2.26258E+03-7.67727E-10 2.14095E-09
 -1       789 3.09431E+05 1.27329E+03 5.61150E+03-1.01376E+04 8.14680E-10-5.86988E-09
 -1       790 3.08448E+05-1.10043E+02 2.54068E+03-2.27873E+03 9.44738E-11-1.56319E-10
 -1       791 3.08656E+05 1.27978E+02 1.36837E+03-1.01146E+04 8.06267E-10-3.61553E-10
 -1       792 3.08536E+05-1.37044E+01 6.99796E+02-2.28558E+03-2.39922E-10 4.04515E-09
 -1       793 3.08558E+05 1.71357E+01 4.66798E+02-1.01111E+04 6.69615E-11 1.95200E-09
 -1       794 3.08544E+05-7.85133E+00 4.31857E+02-2.28227E+03-3.22018E-10-2.82405E-09
 -1       795 3.08591E+05 5.45551E+01 6.60561E+02-1.01283E+04-5.60703E-10 7.95594E-09
 -1       796 3.08509E+05-4.99505E+01 1.13650E+03-2.26834E+03 1.14142E-10-2.85240E-10
 -1       797 3.08932E+05 5.49417E+02 2.45807E+03-1.01639E+04-1.47475E-09-2.47837E-11
 -1       798 3.08215E+05-4.38615E+02 4.35362E+03-2.24673E+03 9.97716E-10 3.67845E-09
 -1       799 3.11792E+05 5.43447E+03 1.08109E+04-1.01922E+04-2.85581E-09-5.58293E-09
 -1       800 3.05667E+05-4.11163E+03 1.67604E+04-2.24052E+03 6.57110E-11 1.62254E-09
 -1       801-2.32004E+04 3.51463E+05 4.42301E+04-4.34999E+05 7.34872E-10 2.47383E-10
 -1       802 6.92048E+04 3.53940E+05 7.08047E+04-1.89250E+06 2.24536E-08 2.60479E-09
 -1       803 5.08960E+03 3.40565E+05 8.63491E+04-4.34104E+05 1.21508E-08 1.11745E-08
 -1       804 1.41177E+05 3.96611E+05 1.95821E+05-1.89216E+06 1.50176E-08-7.74162E-09
 -1       805-8.33366E+04 3.09661E+05 2.79238E+05-4.35387E+05 1.15397E-08-6.54836E-10
 -1       806-2.78100E+05-8.33397E+04-2.37876E+04-1.40965E+05-2.96075E-09-1.33059E-08
 -1       807-2.77206E+05-7.86188E+04-1.13114E+04-1.49439E+05 9.44056E-10-1.01295E-10
 -1       808-2.78087E+05-7.14319E+04-4.76023E+03-1.45970E+05 3.81897E-09 3.88695E-09
 -1       809-2.74822E+05-7.45041E+04-2.30094E+03-1.50417E+05 9.83164E-10-7.08917E-09
 -1       810-2.78166E+05-7.06533E+04-1.03865E+03-1.46321E+05-9.71795E-10-6.86691E-09
 -1       811-2.74599E+05-7.42450E+04-5.12319E+02-1.50459E+05-1.22782E-11-3.28873E-09
 -1       812-2.78190E+05-7.06347E+04-2.51953E+02-1.46337E+05 1.04810E-08-4.30737E-09
 -1       813-2.74573E+05-7.42415E+04-1.55274E+02-1.50451E+05 2.08966E-08 1.62163E-09
 -1       814-2.78188E+05-7.06441E+04-1.39596E+02-1.46332E+05 1.10774E-08-5.69798E-10
 -1       815-2.74571E+05-7.42502E+04-2.13761E+02-1.50442E+05 1.88811E-09-3.92151E-09
 -1       816-2.78164E+05-7.06617E+04-3.98359E+02-1.46318E+05-5.94127E-09-8.61746E-09
 -1       817-2.74648E+05-7.43427E+04-8.64781E+02-1.50399E+05 2.72667E-09 4.12911E-09
 -1       818-2.78106E+05-7.09756E+04-1.78218E+03-1.46188E+05 1.22691E-09 6.40102E-09
 -1       819-2.75620E+05-7.57824E+04-4.22782E+03-1.49896E+05 1.99816E-09 1.04865E-08
 -1       820-2.77988E+05-7.55238E+04-8.89038E+03-1.44412E+05-2.79761E-09-3.03862E-09
 -1       821-3.90841E+05 1.17235E+04-4.79453E+04 2.46626E+03-3.99041E-09 1.12414E-09
 -1       822-4.08308E+05-1.55652E+04-3.09047E+04 1.18344E+04-2.71461E-09 4.76803E-09
 -1       823-3.98135E+05 1.23502E+03-1.24415E+04 2.35489E+03 5.44514E-09 4.43652E-09
 -1       824-4.00198E+05-1.56398E+03-6.98993E+03 1.20004E+04-2.37719E-09 1.27852E-09
 -1       825-3.98985E+05 1.37603E+02-3.18540E+03 2.29887E+03-7.64453E-09-1.23941E-09
 -1       826-3.99262E+05-1.26986E+02-1.74749E+03 1.20930E+04-1.57113E-08 5.65299E-09
 -1       827-3.99096E+05 2.40010E+01-9.63247E+02 2.26196E+03-8.70750E-09 5.12978E-09
 -1       828-3.99165E+05 1.02558E+01-7.71162E+02 1.21501E+04-1.03495E-08 1.76601E-09
 -1       829-3.99099E+05 2.51275E+01-9.08830E+02 2.24160E+03 2.27311E-09-3.83724E-09
 -1       830-3.99268E+05-1.04823E+02-1.60677E+03 1.21730E+04 1.10801E-08 1.54728E-10
 -1       831-3.99001E+05 1.32447E+02-2.90225E+03 2.23913E+03-1.92532E-09 1.15563E-09
 -1       832-4.00134E+05-1.40463E+03-6.36128E+03 1.21601E+04-8.25509E-10-5.81770E-09
 -1       833-3.98231E+05 1.13440E+03-1.13108E+04 2.25479E+03-5.06475E-10-4.46562E-10
 -1       834-4.07524E+05-1.41311E+04-2.81045E+04 1.20957E+04-1.32462E-09 2.25327E-09
 -1       835-3.91601E+05 1.06761E+04-4.35915E+04 2.30649E+03 3.29601E-09-5.59885E-09
 -1       836-6.10343E+03 6.33624E+05 5.22257E+04-3.23134E+04-2.84854E-09 6.75300E-10
 -1       837 1.33613E+04 6.50794E+05 4.02935E+04-7.62222E+04-2.76998E-09-4.15821E-09
 -1       838-1.42105E+03 6.39254E+05 3.34777E+04-3.22429E+04-3.71256E-09 7.00341E-09
 -1       839 2.14436E+04 6.56361E+05 5.75646E+04-7.62189E+04-2.54659E-09 3.83989E-09
 -1       840-1.05822E+04 6.28055E+05 8.65213E+04-3.23147E+04-3.19051E-09 1.13992E-08
 -1       841 9.78858E+04 1.42089E+04-1.16408E+03 3.65008E+04-1.30629E-09-7.05143E-10
 -1       842 9.70499E+04 1.34620E+04-7.89847E+02 3.70702E+04-1.71363E-09-3.00830E-09
 -1       843 9.76076E+04 1.38771E+04-2.66968E+02 3.66772E+04 3.52647E-09-1.46312E-09
 -1       844 9.73916E+04 1.38307E+04-1.56780E+02 3.68460E+04 1.34199E-09-4.61597E-10
 -1       845 9.75439E+04 1.38403E+04-4.04358E+01 3.67248E+04-1.10835E-05 4.17360E-06
 -1       846 9.74778E+04 1.38740E+04 1.54557E+01 3.67823E+04-2.21752E-05 8.34459E-06
 -1       847 9.75214E+04 1.38337E+04 8.38341E+01 3.67408E+04-1.29209E-05 4.86184E-06
 -1       848 9.75350E+04 1.39279E+04 2.27697E+02 3.67557E+04-3.64612E-06 1.37978E-06
 -1       849 9.74866E+04 1.37865E+04 4.26263E+02 3.67514E+04-5.86222E-07 2.19411E-07
 -1       850 9.77538E+04 1.42868E+04 1.08104E+03 3.66970E+04 2.46517E-06-9.35621E-07
 -1       851 9.73026E+04 1.34749E+04 1.86783E+03 3.67995E+04 1.57132E-06-5.95649E-07
 -1       852 9.90695E+04 1.65668E+04 5.04393E+03 3.63079E+04 6.71694E-07-2.61161E-07
 -1       853 9.61707E+04 1.15067E+04 8.06636E+03 3.71404E+04-5.61680E-06 2.13257E-06
 -1       854 1.07210E+05 3.09822E+04 2.39196E+04 3.36557E+04-1.19283E-05 4.49413E-06
 -1       855 8.91623E+04-9.37844E+02 3.44284E+04 3.94508E+04-5.98639E-06 2.23210E-06
 -1       856-3.27959E+05 4.82609E+03-3.84679E+04 1.07535E+04-9.88439E-09-4.21278E-09
 -1       857-3.40532E+05-9.25112E+03-2.34899E+04 2.61898E+04-8.71114E-09-3.14094E-09
 -1       858-3.33404E+05 4.55861E+02-9.87858E+03 1.06108E+04-4.20596E-09-1.84173E-09
 -1       859-3.34667E+05-6.00280E+02-5.31283E+03 2.63609E+04-1.09162E-09-7.50333E-11
 -1       860-3.33930E+05 8.99132E+01-2.49484E+03 1.05771E+04 1.80034E-09-2.56000E-09
 -1       861-3.34138E+05 7.00225E+01-1.31194E+03 2.64081E+04-3.52782E-09 2.44086E-09
 -1       862-3.34002E+05 5.91927E+01-6.86927E+02 1.05628E+04 8.23786E-09-8.34018E-09
 -1       863-3.34087E+05 1.23858E+02-4.57947E+02 2.64245E+04 2.41232E-08-5.83168E-09
 -1       864-3.34009E+05 5.73237E+01-4.37027E+02 1.05606E+04 1.64922E-08-2.63395E-09
 -1       865-3.34100E+05 1.01179E+02-6.65987E+02 2.64155E+04 1.70442E-08 4.66230E-10
 -1       866-3.33975E+05 6.79422E+01-1.18131E+03 1.05718E+04-4.97039E-10-3.63696E-09
 -1       867-3.34328E+05-2.14282E+02-2.46604E+03 2.63775E+04 3.81101E-09 3.89083E-09
 -1       868-3.33725E+05 2.29234E+02-4.56792E+03 1.05991E+04 7.75162E-09-4.65070E-09
 -1       869-3.37007E+05-4.21696E+03-1.08416E+04 2.62218E+04-6.95923E-09-3.34671E-09
 -1       870-3.31202E+05 2.23291E+03-1.77591E+04 1.07304E+04 2.33740E-09-3.21324E-09
 -1       871-5.62891E+03-4.39550E+04-1.15830E+04 1.61529E+05 1.46974E-09 2.76486E-09
 -1       872-2.02139E+03-4.62394E+04-3.58580E+03 1.94881E+05 2.02544E-09 1.55419E-08
 -1       873-1.27715E+02-4.54477E+04 3.04956E+03 1.61200E+05 2.33467E-09 4.49154E-09
 -1       874 3.18802E+03-4.27097E+04 1.19288E+04 1.95014E+05 4.82578E-09 6.13034E-09
 -1       875 1.03423E+04-4.77466E+04 2.55226E+04 1.61424E+05 1.82263E-09 9.07858E-09
 -1       876 4.78908E+05 6.92580E+04 4.28355E+04 1.90859E+05 5.15615E-09-5.79166E-09
 -1       877 4.86696E+05 9.31301E+04 2.54604E+04 1.98661E+05-7.15477E-09-4.75484E-09
 -1       878 4.85231E+05 7.46213E+04 1.00208E+04 1.91224E+05 2.67073E-09 5.03451E-09
 -1       879 4.79223E+05 8.33871E+04 5.23511E+03 1.99671E+05 2.87332E-09 3.01316E-09
 -1       880 4.85784E+05 7.51227E+04 2.32583E+03 1.91288E+05 1.43402E-08 7.00243E-09
 -1       881 4.78560E+05 8.26044E+04 1.21629E+03 1.99654E+05 1.66756E-09-1.28966E-09
 -1       882 4.85829E+05 7.51905E+04 6.77895E+02 1.91308E+05 7.53334E-09-2.10561E-09
 -1       883 4.78508E+05 8.25352E+04 5.94468E+02 1.99622E+05-2.29520E-08-4.66974E-09
 -1       884 4.85819E+05 7.51948E+04 8.12166E+02 1.91311E+05-1.17927E-08-8.48854E-09
 -1       885 4.78601E+05 8.26093E+04 1.57586E+03 1.99629E+05 6.08904E-09-2.59070E-09
 -1       886 4.85737E+05 7.51230E+04 3.08006E+03 1.91298E+05 2.08718E-09-5.78689E-09
 -1       887 4.79501E+05 8.36289E+04 6.96458E+03 1.99611E+05-1.68484E-09-1.08002E-09
 -1       888 4.84976E+05 7.44747E+04 1.33487E+04 1.91223E+05-1.23616E-08-8.63110E-10
 -1       889 4.89444E+05 9.66123E+04 3.39170E+04 1.98252E+05 1.12862E-08-1.63755E-09
 -1       890 4.76559E+05 6.73244E+04 5.70732E+04 1.90715E+05-1.21463E-09-1.20017E-08
 -1       891 9.95161E+02-2.39820E+05-9.82956E+03 4.86875E+04-2.67073E-09 1.00044E-09
 -1       892-2.71851E+03-2.42918E+05-7.45258E+03 1.15741E+05-8.65157E-09 2.82728E-09
 -1       893 1.69847E+02-2.40961E+05-6.03723E+03 4.85334E+04-7.22912E-09 4.04384E-10
 -1       894-4.02311E+03-2.43751E+05-1.01943E+04 1.15705E+05-2.72848E-10-1.54887E-09
 -1       895 1.66945E+03-2.38899E+05-1.52833E+04 4.87215E+04 6.02085E-10-4.37103E-09
 -1       926-8.52866E+02-1.38745E+03 3.14398E+03 5.54873E+01 1.08232E-09-1.46747E-09
 -1       927 9.55637E+02 1.60555E+03 2.32746E+03-2.16968E+02-3.97354E-09-1.89959E-09
 -1       928-2.61505E+02-2.18884E+02 8.62802E+02 5.33338E+01 7.04325E-11-8.98979E-10
 -1       929 2.37198E+02 2.61260E+02 6.80205E+02-2.14800E+02 2.22859E-09-9.27976E-10
 -1       930-1.35094E+02-4.29578E+01 4.56591E+02 5.33168E+01-7.34630E-11-4.09271E-10
 -1       931 1.00294E+02 1.10677E+02 6.89789E+02-2.14836E+02-7.15853E-10-1.89374E-10
 -1       932-1.25093E+02-6.79821E+01 1.08480E+03 5.33687E+01-1.19465E-10-6.28688E-11
 -1       933 2.71611E+02 4.81001E+02 2.31771E+03-2.14840E+02-1.25261E-09 2.77680E-10
 -1       934-3.06717E+02-4.13009E+02 4.14759E+03 5.33205E+01-1.51541E-06-2.70802E-10
 -1       935 1.61219E+03 3.06984E+03 9.53824E+03-2.14486E+02-3.02872E-06-6.69729E-10
 -1       936-1.46548E+03-2.65623E+03 1.64014E+04 5.30142E+01-1.03003E-06-8.82210E-11
 -1       937 9.67037E+03 1.96328E+04 4.04838E+04-2.15416E+02 9.76550E-07 9.57698E-10
 -1       938-8.35914E+03-1.69715E+04 6.44098E+04 5.42509E+01 4.98312E-07 3.63798E-11
 -1       939 5.82322E+04 1.24953E+05 1.76246E+05-2.57368E+02 1.17945E-10 6.73026E-11
 -1       940-4.99326E+04-1.07934E+05 2.49154E+05 9.49650E+01-7.79085E-09 1.16415E-09
 -1       956-4.53383E+05-7.72039E+03-1.99623E+04 5.09264E+04-4.47108E-09-5.52154E-09
 -1       957-4.57395E+05-2.60747E+03-1.02677E+04 6.16947E+04-1.56888E-09-1.32786E-09
 -1       958-4.55251E+05-1.67073E+02-4.63192E+03 5.05957E+04 5.03314E-09-3.47700E-09
 -1       959-4.55612E+05 4.37421E+01-2.36295E+03 6.20548E+04-3.86353E-09-6.16456E-09
 -1       960-4.55472E+05 1.38658E+02-1.15285E+03 5.05616E+04-4.76939E-09 7.21684E-10
 -1       961-4.55542E+05 1.76337E+02-6.05419E+02 6.20946E+04-5.67388E-09-3.97131E-09
 -1       962-4.55546E+05 1.57515E+02-3.39068E+02 5.05549E+04 9.09495E-10-2.49202E-10
 -1       963-4.55573E+05 1.99403E+02-2.56659E+02 6.21036E+04-9.74069E-09 4.56566E-10
 -1       964-4.55572E+05 1.72773E+02-2.94710E+02 5.05522E+04-2.69756E-09-1.57479E-09
 -1       965-4.55600E+05 2.09686E+02-4.95044E+02 6.21043E+04 7.44336E-09 2.36741E-09
 -1       966-4.55554E+05 1.83568E+02-9.23099E+02 5.05541E+04-4.18459E-09 1.79398E-09
 -1       967-4.55701E+05 1.29031E+02-1.88868E+03 6.20826E+04-2.14800E-09 1.13778E-09
 -1       968-4.55412E+05-3.84722E+01-3.69590E+03 5.05745E+04-8.54106E-09 2.83171E-09
 -1       969-4.57164E+05-1.97038E+03-8.20175E+03 6.18537E+04-1.36570E-08-8.09905E-10
 -1       970-4.53943E+05-6.06142E+03-1.59416E+04 5.07920E+04-3.51520E-09 1.08594E-09
 -1       971-5.83092E+05 2.55266E+03-2.70378E+04 1.22845E+04-6.02722E-09 2.68847E-09
 -1       972-5.91633E+05-6.01719E+03-1.62932E+04 2.75089E+04-8.09587E-09 4.79349E-09
 -1       973-5.86851E+05 2.50228E+02-6.92724E+03 1.20866E+04-9.12132E-09 6.85213E-09
 -1       974-5.87652E+05-3.26196E+02-3.70598E+03 2.77609E+04-2.84172E-09-7.48059E-11
 -1       975-5.87208E+05 6.98998E+01-1.77996E+03 1.20289E+04-4.12456E-09 1.68257E-09
 -1       976-5.87334E+05 9.37314E+01-9.83245E+02 2.78480E+04-1.32886E-08 1.54728E-09
 -1       977-5.87262E+05 6.24100E+01-6.18547E+02 1.19987E+04 7.56199E-09 5.45913E-09
 -1       978-5.87329E+05 1.30762E+02-6.01908E+02 2.78893E+04 2.29504E-08 2.33581E-09
 -1       979-5.87263E+05 7.12529E+01-8.60887E+02 1.19875E+04 1.29605E-08 6.02256E-10
 -1       980-5.87406E+05 8.70194E+01-1.61238E+03 2.78919E+04 1.40443E-08 7.53116E-09
 -1       981-5.87190E+05 1.09172E+02-3.05889E+03 1.19961E+04-3.68914E-09 9.60080E-09
 -1       982-5.88034E+05-6.16841E+02-6.47227E+03 2.78521E+04-3.90946E-09 4.44385E-09
 -1       983-5.86595E+05 4.55903E+02-1.21205E+04 1.20282E+04 3.39605E-09-1.02636E-09
 -1       984-5.95108E+05-1.05626E+04-2.85721E+04 2.76841E+04-1.03373E-08 2.63526E-09
 -1       985-5.80036E+05 4.53370E+03-4.73897E+04 1.21732E+04 2.74667E-09 6.86850E-09
 -3
 9999
