    1C
    1UUSER                                                              
    1UDATE              11.october.2022                                 
    1UTIME              18:37:13                                        
    1UHOST                                                              
    1UPGM               CalculiX                                        
    1UVERSION           Version 2.20                             
    1UCOMPILETIME       Sun Jul 31 18:08:37 CEST 2022                    
    1UDIR                                                               
    1UDBN                                                               
    1UMAT    1MESH_MATERIAL                                             
    2C                           593                                     1
 -1         1 0.00000E+00 0.00000E+00 0.00000E+00
 -1         2 1.66667E-02 0.00000E+00 0.00000E+00
 -1         3 3.33333E-02 0.00000E+00 0.00000E+00
 -1         4 5.00000E-02 0.00000E+00 0.00000E+00
 -1         5 6.66667E-02 0.00000E+00 0.00000E+00
 -1         8 0.00000E+00 6.25000E-03 0.00000E+00
 -1         9 1.66667E-02 6.25000E-03 0.00000E+00
 -1        10 3.33333E-02 6.25000E-03 0.00000E+00
 -1        11 5.00000E-02 6.25000E-03 0.00000E+00
 -1        12 6.66667E-02 6.25000E-03 0.00000E+00
 -1        15 0.00000E+00 1.25000E-02 0.00000E+00
 -1        16 1.66667E-02 1.25000E-02 0.00000E+00
 -1        17 3.33333E-02 1.25000E-02 0.00000E+00
 -1        18 5.00000E-02 1.25000E-02 0.00000E+00
 -1        19 6.66667E-02 1.25000E-02 0.00000E+00
 -1        20 8.33333E-02 1.25000E-02 0.00000E+00
 -1        21 1.00000E-01 1.25000E-02 0.00000E+00
 -1        23 1.66667E-02 1.87500E-02 0.00000E+00
 -1        24 3.33333E-02 1.87500E-02 0.00000E+00
 -1        25 5.00000E-02 1.87500E-02 0.00000E+00
 -1        26 6.66667E-02 1.87500E-02 0.00000E+00
 -1        27 8.33333E-02 1.87500E-02 0.00000E+00
 -1        28 1.00000E-01 1.87500E-02 0.00000E+00
 -1        31 3.33333E-02 2.50000E-02 0.00000E+00
 -1        32 5.00000E-02 2.50000E-02 0.00000E+00
 -1        33 6.66667E-02 2.50000E-02 0.00000E+00
 -1        34 8.33333E-02 2.50000E-02 0.00000E+00
 -1        35 1.00000E-01 2.50000E-02 0.00000E+00
 -1        36 1.04167E-03 0.00000E+00 0.00000E+00
 -1        37 2.08333E-03 0.00000E+00 0.00000E+00
 -1        38 3.12500E-03 0.00000E+00 0.00000E+00
 -1        39 4.16667E-03 0.00000E+00 0.00000E+00
 -1        40 5.20833E-03 0.00000E+00 0.00000E+00
 -1        41 6.25000E-03 0.00000E+00 0.00000E+00
 -1        42 7.29167E-03 0.00000E+00 0.00000E+00
 -1        43 8.33333E-03 0.00000E+00 0.00000E+00
 -1        44 9.37500E-03 0.00000E+00 0.00000E+00
 -1        45 1.04167E-02 0.00000E+00 0.00000E+00
 -1        46 1.14583E-02 0.00000E+00 0.00000E+00
 -1        47 1.25000E-02 0.00000E+00 0.00000E+00
 -1        48 1.35417E-02 0.00000E+00 0.00000E+00
 -1        49 1.45833E-02 0.00000E+00 0.00000E+00
 -1        50 1.56250E-02 0.00000E+00 0.00000E+00
 -1        51 0.00000E+00 1.04167E-03 0.00000E+00
 -1        52 0.00000E+00 2.08333E-03 0.00000E+00
 -1        53 0.00000E+00 3.12500E-03 0.00000E+00
 -1        54 0.00000E+00 4.16667E-03 0.00000E+00
 -1        55 0.00000E+00 5.20833E-03 0.00000E+00
 -1        56 1.04167E-03 3.90630E-04 0.00000E+00
 -1        57 2.08333E-03 7.81250E-04 0.00000E+00
 -1        58 3.12500E-03 1.17188E-03 0.00000E+00
 -1        59 4.16667E-03 1.56250E-03 0.00000E+00
 -1        60 5.20833E-03 1.95312E-03 0.00000E+00
 -1        61 6.25000E-03 2.34375E-03 0.00000E+00
 -1        62 7.29167E-03 2.73438E-03 0.00000E+00
 -1        63 8.33333E-03 3.12500E-03 0.00000E+00
 -1        64 9.37500E-03 3.51563E-03 0.00000E+00
 -1        65 1.04167E-02 3.90625E-03 0.00000E+00
 -1        66 1.14583E-02 4.29688E-03 0.00000E+00
 -1        67 1.25000E-02 4.68750E-03 0.00000E+00
 -1        68 1.35417E-02 5.07813E-03 0.00000E+00
 -1        69 1.45833E-02 5.46875E-03 0.00000E+00
 -1        70 1.56250E-02 5.85938E-03 0.00000E+00
 -1        71 1.77083E-02 0.00000E+00 0.00000E+00
 -1        72 1.87500E-02 0.00000E+00 0.00000E+00
 -1        73 1.97917E-02 0.00000E+00 0.00000E+00
 -1        74 2.08333E-02 0.00000E+00 0.00000E+00
 -1        75 2.18750E-02 0.00000E+00 0.00000E+00
 -1        76 2.29167E-02 0.00000E+00 0.00000E+00
 -1        77 2.39583E-02 0.00000E+00 0.00000E+00
 -1        78 2.50000E-02 0.00000E+00 0.00000E+00
 -1        79 2.60417E-02 0.00000E+00 0.00000E+00
 -1        80 2.70833E-02 0.00000E+00 0.00000E+00
 -1        81 2.81250E-02 0.00000E+00 0.00000E+00
 -1        82 2.91667E-02 0.00000E+00 0.00000E+00
 -1        83 3.02083E-02 0.00000E+00 0.00000E+00
 -1        84 3.12500E-02 0.00000E+00 0.00000E+00
 -1        85 3.22917E-02 0.00000E+00 0.00000E+00
 -1        86 1.66667E-02 1.04167E-03 0.00000E+00
 -1        87 1.66667E-02 2.08333E-03 0.00000E+00
 -1        88 1.66667E-02 3.12500E-03 0.00000E+00
 -1        89 1.66667E-02 4.16667E-03 0.00000E+00
 -1        90 1.66667E-02 5.20833E-03 0.00000E+00
 -1        91 1.77083E-02 3.90630E-04 0.00000E+00
 -1        92 1.87500E-02 7.81250E-04 0.00000E+00
 -1        93 1.97917E-02 1.17188E-03 0.00000E+00
 -1        94 2.08333E-02 1.56250E-03 0.00000E+00
 -1        95 2.18750E-02 1.95312E-03 0.00000E+00
 -1        96 2.29167E-02 2.34375E-03 0.00000E+00
 -1        97 2.39583E-02 2.73438E-03 0.00000E+00
 -1        98 2.50000E-02 3.12500E-03 0.00000E+00
 -1        99 2.60417E-02 3.51563E-03 0.00000E+00
 -1       100 2.70833E-02 3.90625E-03 0.00000E+00
 -1       101 2.81250E-02 4.29688E-03 0.00000E+00
 -1       102 2.91667E-02 4.68750E-03 0.00000E+00
 -1       103 3.02083E-02 5.07813E-03 0.00000E+00
 -1       104 3.12500E-02 5.46875E-03 0.00000E+00
 -1       105 3.22917E-02 5.85938E-03 0.00000E+00
 -1       106 3.43750E-02 0.00000E+00 0.00000E+00
 -1       107 3.54167E-02 0.00000E+00 0.00000E+00
 -1       108 3.64583E-02 0.00000E+00 0.00000E+00
 -1       109 3.75000E-02 0.00000E+00 0.00000E+00
 -1       110 3.85417E-02 0.00000E+00 0.00000E+00
 -1       111 3.95833E-02 0.00000E+00 0.00000E+00
 -1       112 4.06250E-02 0.00000E+00 0.00000E+00
 -1       113 4.16667E-02 0.00000E+00 0.00000E+00
 -1       114 4.27083E-02 0.00000E+00 0.00000E+00
 -1       115 4.37500E-02 0.00000E+00 0.00000E+00
 -1       116 4.47917E-02 0.00000E+00 0.00000E+00
 -1       117 4.58333E-02 0.00000E+00 0.00000E+00
 -1       118 4.68750E-02 0.00000E+00 0.00000E+00
 -1       119 4.79167E-02 0.00000E+00 0.00000E+00
 -1       120 4.89583E-02 0.00000E+00 0.00000E+00
 -1       121 3.33333E-02 1.04167E-03 0.00000E+00
 -1       122 3.33333E-02 2.08333E-03 0.00000E+00
 -1       123 3.33333E-02 3.12500E-03 0.00000E+00
 -1       124 3.33333E-02 4.16667E-03 0.00000E+00
 -1       125 3.33333E-02 5.20833E-03 0.00000E+00
 -1       141 5.10417E-02 0.00000E+00 0.00000E+00
 -1       142 5.20833E-02 0.00000E+00 0.00000E+00
 -1       143 5.31250E-02 0.00000E+00 0.00000E+00
 -1       144 5.41667E-02 0.00000E+00 0.00000E+00
 -1       145 5.52083E-02 0.00000E+00 0.00000E+00
 -1       146 5.62500E-02 0.00000E+00 0.00000E+00
 -1       147 5.72917E-02 0.00000E+00 0.00000E+00
 -1       148 5.83333E-02 0.00000E+00 0.00000E+00
 -1       149 5.93750E-02 0.00000E+00 0.00000E+00
 -1       150 6.04167E-02 0.00000E+00 0.00000E+00
 -1       151 6.14583E-02 0.00000E+00 0.00000E+00
 -1       152 6.25000E-02 0.00000E+00 0.00000E+00
 -1       153 6.35417E-02 0.00000E+00 0.00000E+00
 -1       154 6.45833E-02 0.00000E+00 0.00000E+00
 -1       155 6.56250E-02 0.00000E+00 0.00000E+00
 -1       156 5.00000E-02 1.04167E-03 0.00000E+00
 -1       157 5.00000E-02 2.08333E-03 0.00000E+00
 -1       158 5.00000E-02 3.12500E-03 0.00000E+00
 -1       159 5.00000E-02 4.16667E-03 0.00000E+00
 -1       160 5.00000E-02 5.20833E-03 0.00000E+00
 -1       161 5.10417E-02 3.90630E-04 0.00000E+00
 -1       162 5.20833E-02 7.81250E-04 0.00000E+00
 -1       163 5.31250E-02 1.17188E-03 0.00000E+00
 -1       164 5.41667E-02 1.56250E-03 0.00000E+00
 -1       165 5.52083E-02 1.95312E-03 0.00000E+00
 -1       166 5.62500E-02 2.34375E-03 0.00000E+00
 -1       167 5.72917E-02 2.73438E-03 0.00000E+00
 -1       168 5.83333E-02 3.12500E-03 0.00000E+00
 -1       169 5.93750E-02 3.51563E-03 0.00000E+00
 -1       170 6.04167E-02 3.90625E-03 0.00000E+00
 -1       171 6.14583E-02 4.29688E-03 0.00000E+00
 -1       172 6.25000E-02 4.68750E-03 0.00000E+00
 -1       173 6.35417E-02 5.07813E-03 0.00000E+00
 -1       174 6.45833E-02 5.46875E-03 0.00000E+00
 -1       175 6.56250E-02 5.85938E-03 0.00000E+00
 -1       191 6.66667E-02 1.04167E-03 0.00000E+00
 -1       192 6.66667E-02 2.08333E-03 0.00000E+00
 -1       193 6.66667E-02 3.12500E-03 0.00000E+00
 -1       194 6.66667E-02 4.16667E-03 0.00000E+00
 -1       195 6.66667E-02 5.20833E-03 0.00000E+00
 -1       266 0.00000E+00 7.29167E-03 0.00000E+00
 -1       267 0.00000E+00 8.33333E-03 0.00000E+00
 -1       268 0.00000E+00 9.37500E-03 0.00000E+00
 -1       269 0.00000E+00 1.04167E-02 0.00000E+00
 -1       270 0.00000E+00 1.14583E-02 0.00000E+00
 -1       271 1.04167E-03 6.64063E-03 0.00000E+00
 -1       272 2.08333E-03 7.03125E-03 0.00000E+00
 -1       273 3.12500E-03 7.42188E-03 0.00000E+00
 -1       274 4.16667E-03 7.81250E-03 0.00000E+00
 -1       275 5.20833E-03 8.20313E-03 0.00000E+00
 -1       276 6.25000E-03 8.59375E-03 0.00000E+00
 -1       277 7.29167E-03 8.98438E-03 0.00000E+00
 -1       278 8.33333E-03 9.37500E-03 0.00000E+00
 -1       279 9.37500E-03 9.76562E-03 0.00000E+00
 -1       280 1.04167E-02 1.01562E-02 0.00000E+00
 -1       281 1.14583E-02 1.05469E-02 0.00000E+00
 -1       282 1.25000E-02 1.09375E-02 0.00000E+00
 -1       283 1.35417E-02 1.13281E-02 0.00000E+00
 -1       284 1.45833E-02 1.17188E-02 0.00000E+00
 -1       285 1.56250E-02 1.21094E-02 0.00000E+00
 -1       286 1.77083E-02 6.25000E-03 0.00000E+00
 -1       287 1.87500E-02 6.25000E-03 0.00000E+00
 -1       288 1.97917E-02 6.25000E-03 0.00000E+00
 -1       289 2.08333E-02 6.25000E-03 0.00000E+00
 -1       290 2.18750E-02 6.25000E-03 0.00000E+00
 -1       291 2.29167E-02 6.25000E-03 0.00000E+00
 -1       292 2.39583E-02 6.25000E-03 0.00000E+00
 -1       293 2.50000E-02 6.25000E-03 0.00000E+00
 -1       294 2.60417E-02 6.25000E-03 0.00000E+00
 -1       295 2.70833E-02 6.25000E-03 0.00000E+00
 -1       296 2.81250E-02 6.25000E-03 0.00000E+00
 -1       297 2.91667E-02 6.25000E-03 0.00000E+00
 -1       298 3.02083E-02 6.25000E-03 0.00000E+00
 -1       299 3.12500E-02 6.25000E-03 0.00000E+00
 -1       300 3.22917E-02 6.25000E-03 0.00000E+00
 -1       301 1.66667E-02 7.29167E-03 0.00000E+00
 -1       302 1.66667E-02 8.33333E-03 0.00000E+00
 -1       303 1.66667E-02 9.37500E-03 0.00000E+00
 -1       304 1.66667E-02 1.04167E-02 0.00000E+00
 -1       305 1.66667E-02 1.14583E-02 0.00000E+00
 -1       306 1.77083E-02 6.64063E-03 0.00000E+00
 -1       307 1.87500E-02 7.03125E-03 0.00000E+00
 -1       308 1.97917E-02 7.42188E-03 0.00000E+00
 -1       309 2.08333E-02 7.81250E-03 0.00000E+00
 -1       310 2.18750E-02 8.20313E-03 0.00000E+00
 -1       311 2.29167E-02 8.59375E-03 0.00000E+00
 -1       312 2.39583E-02 8.98438E-03 0.00000E+00
 -1       313 2.50000E-02 9.37500E-03 0.00000E+00
 -1       314 2.60417E-02 9.76562E-03 0.00000E+00
 -1       315 2.70833E-02 1.01562E-02 0.00000E+00
 -1       316 2.81250E-02 1.05469E-02 0.00000E+00
 -1       317 2.91667E-02 1.09375E-02 0.00000E+00
 -1       318 3.02083E-02 1.13281E-02 0.00000E+00
 -1       319 3.12500E-02 1.17188E-02 0.00000E+00
 -1       320 3.22917E-02 1.21094E-02 0.00000E+00
 -1       336 3.33333E-02 7.29167E-03 0.00000E+00
 -1       337 3.33333E-02 8.33333E-03 0.00000E+00
 -1       338 3.33333E-02 9.37500E-03 0.00000E+00
 -1       339 3.33333E-02 1.04167E-02 0.00000E+00
 -1       340 3.33333E-02 1.14583E-02 0.00000E+00
 -1       356 5.10417E-02 6.25000E-03 0.00000E+00
 -1       357 5.20833E-02 6.25000E-03 0.00000E+00
 -1       358 5.31250E-02 6.25000E-03 0.00000E+00
 -1       359 5.41667E-02 6.25000E-03 0.00000E+00
 -1       360 5.52083E-02 6.25000E-03 0.00000E+00
 -1       361 5.62500E-02 6.25000E-03 0.00000E+00
 -1       362 5.72917E-02 6.25000E-03 0.00000E+00
 -1       363 5.83333E-02 6.25000E-03 0.00000E+00
 -1       364 5.93750E-02 6.25000E-03 0.00000E+00
 -1       365 6.04167E-02 6.25000E-03 0.00000E+00
 -1       366 6.14583E-02 6.25000E-03 0.00000E+00
 -1       367 6.25000E-02 6.25000E-03 0.00000E+00
 -1       368 6.35417E-02 6.25000E-03 0.00000E+00
 -1       369 6.45833E-02 6.25000E-03 0.00000E+00
 -1       370 6.56250E-02 6.25000E-03 0.00000E+00
 -1       406 6.66667E-02 7.29167E-03 0.00000E+00
 -1       407 6.66667E-02 8.33333E-03 0.00000E+00
 -1       408 6.66667E-02 9.37500E-03 0.00000E+00
 -1       409 6.66667E-02 1.04167E-02 0.00000E+00
 -1       410 6.66667E-02 1.14583E-02 0.00000E+00
 -1       466 1.04167E-03 1.25000E-02 0.00000E+00
 -1       467 2.08333E-03 1.25000E-02 0.00000E+00
 -1       468 3.12500E-03 1.25000E-02 0.00000E+00
 -1       469 4.16667E-03 1.25000E-02 0.00000E+00
 -1       470 5.20833E-03 1.25000E-02 0.00000E+00
 -1       471 6.25000E-03 1.25000E-02 0.00000E+00
 -1       472 7.29167E-03 1.25000E-02 0.00000E+00
 -1       473 8.33333E-03 1.25000E-02 0.00000E+00
 -1       474 9.37500E-03 1.25000E-02 0.00000E+00
 -1       475 1.04167E-02 1.25000E-02 0.00000E+00
 -1       476 1.14583E-02 1.25000E-02 0.00000E+00
 -1       477 1.25000E-02 1.25000E-02 0.00000E+00
 -1       478 1.35417E-02 1.25000E-02 0.00000E+00
 -1       479 1.45833E-02 1.25000E-02 0.00000E+00
 -1       480 1.56250E-02 1.25000E-02 0.00000E+00
 -1       516 1.66667E-02 1.35417E-02 0.00000E+00
 -1       517 1.66667E-02 1.45833E-02 0.00000E+00
 -1       518 1.66667E-02 1.56250E-02 0.00000E+00
 -1       519 1.66667E-02 1.66667E-02 0.00000E+00
 -1       520 1.66667E-02 1.77083E-02 0.00000E+00
 -1       521 1.77083E-02 1.28906E-02 0.00000E+00
 -1       522 1.87500E-02 1.32813E-02 0.00000E+00
 -1       523 1.97917E-02 1.36719E-02 0.00000E+00
 -1       524 2.08333E-02 1.40625E-02 0.00000E+00
 -1       525 2.18750E-02 1.44531E-02 0.00000E+00
 -1       526 2.29167E-02 1.48437E-02 0.00000E+00
 -1       527 2.39583E-02 1.52344E-02 0.00000E+00
 -1       528 2.50000E-02 1.56250E-02 0.00000E+00
 -1       529 2.60417E-02 1.60156E-02 0.00000E+00
 -1       530 2.70833E-02 1.64062E-02 0.00000E+00
 -1       531 2.81250E-02 1.67969E-02 0.00000E+00
 -1       532 2.91667E-02 1.71875E-02 0.00000E+00
 -1       533 3.02083E-02 1.75781E-02 0.00000E+00
 -1       534 3.12500E-02 1.79687E-02 0.00000E+00
 -1       535 3.22917E-02 1.83594E-02 0.00000E+00
 -1       536 3.43750E-02 1.25000E-02 0.00000E+00
 -1       537 3.54167E-02 1.25000E-02 0.00000E+00
 -1       538 3.64583E-02 1.25000E-02 0.00000E+00
 -1       539 3.75000E-02 1.25000E-02 0.00000E+00
 -1       540 3.85417E-02 1.25000E-02 0.00000E+00
 -1       541 3.95833E-02 1.25000E-02 0.00000E+00
 -1       542 4.06250E-02 1.25000E-02 0.00000E+00
 -1       543 4.16667E-02 1.25000E-02 0.00000E+00
 -1       544 4.27083E-02 1.25000E-02 0.00000E+00
 -1       545 4.37500E-02 1.25000E-02 0.00000E+00
 -1       546 4.47917E-02 1.25000E-02 0.00000E+00
 -1       547 4.58333E-02 1.25000E-02 0.00000E+00
 -1       548 4.68750E-02 1.25000E-02 0.00000E+00
 -1       549 4.79167E-02 1.25000E-02 0.00000E+00
 -1       550 4.89583E-02 1.25000E-02 0.00000E+00
 -1       551 3.33333E-02 1.35417E-02 0.00000E+00
 -1       552 3.33333E-02 1.45833E-02 0.00000E+00
 -1       553 3.33333E-02 1.56250E-02 0.00000E+00
 -1       554 3.33333E-02 1.66667E-02 0.00000E+00
 -1       555 3.33333E-02 1.77083E-02 0.00000E+00
 -1       556 3.43750E-02 1.28906E-02 0.00000E+00
 -1       557 3.54167E-02 1.32813E-02 0.00000E+00
 -1       558 3.64583E-02 1.36719E-02 0.00000E+00
 -1       559 3.75000E-02 1.40625E-02 0.00000E+00
 -1       560 3.85417E-02 1.44531E-02 0.00000E+00
 -1       561 3.95833E-02 1.48437E-02 0.00000E+00
 -1       562 4.06250E-02 1.52344E-02 0.00000E+00
 -1       563 4.16667E-02 1.56250E-02 0.00000E+00
 -1       564 4.27083E-02 1.60156E-02 0.00000E+00
 -1       565 4.37500E-02 1.64062E-02 0.00000E+00
 -1       566 4.47917E-02 1.67969E-02 0.00000E+00
 -1       567 4.58333E-02 1.71875E-02 0.00000E+00
 -1       568 4.68750E-02 1.75781E-02 0.00000E+00
 -1       569 4.79167E-02 1.79687E-02 0.00000E+00
 -1       570 4.89583E-02 1.83594E-02 0.00000E+00
 -1       571 5.10417E-02 1.25000E-02 0.00000E+00
 -1       572 5.20833E-02 1.25000E-02 0.00000E+00
 -1       573 5.31250E-02 1.25000E-02 0.00000E+00
 -1       574 5.41667E-02 1.25000E-02 0.00000E+00
 -1       575 5.52083E-02 1.25000E-02 0.00000E+00
 -1       576 5.62500E-02 1.25000E-02 0.00000E+00
 -1       577 5.72917E-02 1.25000E-02 0.00000E+00
 -1       578 5.83333E-02 1.25000E-02 0.00000E+00
 -1       579 5.93750E-02 1.25000E-02 0.00000E+00
 -1       580 6.04167E-02 1.25000E-02 0.00000E+00
 -1       581 6.14583E-02 1.25000E-02 0.00000E+00
 -1       582 6.25000E-02 1.25000E-02 0.00000E+00
 -1       583 6.35417E-02 1.25000E-02 0.00000E+00
 -1       584 6.45833E-02 1.25000E-02 0.00000E+00
 -1       585 6.56250E-02 1.25000E-02 0.00000E+00
 -1       586 5.00000E-02 1.35417E-02 0.00000E+00
 -1       587 5.00000E-02 1.45833E-02 0.00000E+00
 -1       588 5.00000E-02 1.56250E-02 0.00000E+00
 -1       589 5.00000E-02 1.66667E-02 0.00000E+00
 -1       590 5.00000E-02 1.77083E-02 0.00000E+00
 -1       591 5.10417E-02 1.28906E-02 0.00000E+00
 -1       592 5.20833E-02 1.32813E-02 0.00000E+00
 -1       593 5.31250E-02 1.36719E-02 0.00000E+00
 -1       594 5.41667E-02 1.40625E-02 0.00000E+00
 -1       595 5.52083E-02 1.44531E-02 0.00000E+00
 -1       596 5.62500E-02 1.48437E-02 0.00000E+00
 -1       597 5.72917E-02 1.52344E-02 0.00000E+00
 -1       598 5.83333E-02 1.56250E-02 0.00000E+00
 -1       599 5.93750E-02 1.60156E-02 0.00000E+00
 -1       600 6.04167E-02 1.64062E-02 0.00000E+00
 -1       601 6.14583E-02 1.67969E-02 0.00000E+00
 -1       602 6.25000E-02 1.71875E-02 0.00000E+00
 -1       603 6.35417E-02 1.75781E-02 0.00000E+00
 -1       604 6.45833E-02 1.79687E-02 0.00000E+00
 -1       605 6.56250E-02 1.83594E-02 0.00000E+00
 -1       606 6.77083E-02 1.25000E-02 0.00000E+00
 -1       607 6.87500E-02 1.25000E-02 0.00000E+00
 -1       608 6.97917E-02 1.25000E-02 0.00000E+00
 -1       609 7.08333E-02 1.25000E-02 0.00000E+00
 -1       610 7.18750E-02 1.25000E-02 0.00000E+00
 -1       611 7.29167E-02 1.25000E-02 0.00000E+00
 -1       612 7.39583E-02 1.25000E-02 0.00000E+00
 -1       613 7.50000E-02 1.25000E-02 0.00000E+00
 -1       614 7.60417E-02 1.25000E-02 0.00000E+00
 -1       615 7.70833E-02 1.25000E-02 0.00000E+00
 -1       616 7.81250E-02 1.25000E-02 0.00000E+00
 -1       617 7.91667E-02 1.25000E-02 0.00000E+00
 -1       618 8.02083E-02 1.25000E-02 0.00000E+00
 -1       619 8.12500E-02 1.25000E-02 0.00000E+00
 -1       620 8.22917E-02 1.25000E-02 0.00000E+00
 -1       621 6.66667E-02 1.35417E-02 0.00000E+00
 -1       622 6.66667E-02 1.45833E-02 0.00000E+00
 -1       623 6.66667E-02 1.56250E-02 0.00000E+00
 -1       624 6.66667E-02 1.66667E-02 0.00000E+00
 -1       625 6.66667E-02 1.77083E-02 0.00000E+00
 -1       626 6.77083E-02 1.28906E-02 0.00000E+00
 -1       627 6.87500E-02 1.32813E-02 0.00000E+00
 -1       628 6.97917E-02 1.36719E-02 0.00000E+00
 -1       629 7.08333E-02 1.40625E-02 0.00000E+00
 -1       630 7.18750E-02 1.44531E-02 0.00000E+00
 -1       631 7.29167E-02 1.48437E-02 0.00000E+00
 -1       632 7.39583E-02 1.52344E-02 0.00000E+00
 -1       633 7.50000E-02 1.56250E-02 0.00000E+00
 -1       634 7.60417E-02 1.60156E-02 0.00000E+00
 -1       635 7.70833E-02 1.64062E-02 0.00000E+00
 -1       636 7.81250E-02 1.67969E-02 0.00000E+00
 -1       637 7.91667E-02 1.71875E-02 0.00000E+00
 -1       638 8.02083E-02 1.75781E-02 0.00000E+00
 -1       639 8.12500E-02 1.79687E-02 0.00000E+00
 -1       640 8.22917E-02 1.83594E-02 0.00000E+00
 -1       641 8.43750E-02 1.25000E-02 0.00000E+00
 -1       642 8.54167E-02 1.25000E-02 0.00000E+00
 -1       643 8.64583E-02 1.25000E-02 0.00000E+00
 -1       644 8.75000E-02 1.25000E-02 0.00000E+00
 -1       645 8.85417E-02 1.25000E-02 0.00000E+00
 -1       646 8.95833E-02 1.25000E-02 0.00000E+00
 -1       647 9.06250E-02 1.25000E-02 0.00000E+00
 -1       648 9.16667E-02 1.25000E-02 0.00000E+00
 -1       649 9.27083E-02 1.25000E-02 0.00000E+00
 -1       650 9.37500E-02 1.25000E-02 0.00000E+00
 -1       651 9.47917E-02 1.25000E-02 0.00000E+00
 -1       652 9.58333E-02 1.25000E-02 0.00000E+00
 -1       653 9.68750E-02 1.25000E-02 0.00000E+00
 -1       654 9.79167E-02 1.25000E-02 0.00000E+00
 -1       655 9.89583E-02 1.25000E-02 0.00000E+00
 -1       656 8.33333E-02 1.35417E-02 0.00000E+00
 -1       657 8.33333E-02 1.45833E-02 0.00000E+00
 -1       658 8.33333E-02 1.56250E-02 0.00000E+00
 -1       659 8.33333E-02 1.66667E-02 0.00000E+00
 -1       660 8.33333E-02 1.77083E-02 0.00000E+00
 -1       661 8.43750E-02 1.28906E-02 0.00000E+00
 -1       662 8.54167E-02 1.32813E-02 0.00000E+00
 -1       663 8.64583E-02 1.36719E-02 0.00000E+00
 -1       664 8.75000E-02 1.40625E-02 0.00000E+00
 -1       665 8.85417E-02 1.44531E-02 0.00000E+00
 -1       666 8.95833E-02 1.48437E-02 0.00000E+00
 -1       667 9.06250E-02 1.52344E-02 0.00000E+00
 -1       668 9.16667E-02 1.56250E-02 0.00000E+00
 -1       669 9.27083E-02 1.60156E-02 0.00000E+00
 -1       670 9.37500E-02 1.64062E-02 0.00000E+00
 -1       671 9.47917E-02 1.67969E-02 0.00000E+00
 -1       672 9.58333E-02 1.71875E-02 0.00000E+00
 -1       673 9.68750E-02 1.75781E-02 0.00000E+00
 -1       674 9.79167E-02 1.79687E-02 0.00000E+00
 -1       675 9.89583E-02 1.83594E-02 0.00000E+00
 -1       676 1.00000E-01 1.35417E-02 0.00000E+00
 -1       677 1.00000E-01 1.45833E-02 0.00000E+00
 -1       678 1.00000E-01 1.56250E-02 0.00000E+00
 -1       679 1.00000E-01 1.66667E-02 0.00000E+00
 -1       680 1.00000E-01 1.77083E-02 0.00000E+00
 -1       716 1.77083E-02 1.87500E-02 0.00000E+00
 -1       717 1.87500E-02 1.87500E-02 0.00000E+00
 -1       718 1.97917E-02 1.87500E-02 0.00000E+00
 -1       719 2.08333E-02 1.87500E-02 0.00000E+00
 -1       720 2.18750E-02 1.87500E-02 0.00000E+00
 -1       721 2.29167E-02 1.87500E-02 0.00000E+00
 -1       722 2.39583E-02 1.87500E-02 0.00000E+00
 -1       723 2.50000E-02 1.87500E-02 0.00000E+00
 -1       724 2.60417E-02 1.87500E-02 0.00000E+00
 -1       725 2.70833E-02 1.87500E-02 0.00000E+00
 -1       726 2.81250E-02 1.87500E-02 0.00000E+00
 -1       727 2.91667E-02 1.87500E-02 0.00000E+00
 -1       728 3.02083E-02 1.87500E-02 0.00000E+00
 -1       729 3.12500E-02 1.87500E-02 0.00000E+00
 -1       730 3.22917E-02 1.87500E-02 0.00000E+00
 -1       766 3.33333E-02 1.97917E-02 0.00000E+00
 -1       767 3.33333E-02 2.08333E-02 0.00000E+00
 -1       768 3.33333E-02 2.18750E-02 0.00000E+00
 -1       769 3.33333E-02 2.29167E-02 0.00000E+00
 -1       770 3.33333E-02 2.39583E-02 0.00000E+00
 -1       771 3.43750E-02 1.91406E-02 0.00000E+00
 -1       772 3.54167E-02 1.95312E-02 0.00000E+00
 -1       773 3.64583E-02 1.99219E-02 0.00000E+00
 -1       774 3.75000E-02 2.03125E-02 0.00000E+00
 -1       775 3.85417E-02 2.07031E-02 0.00000E+00
 -1       776 3.95833E-02 2.10938E-02 0.00000E+00
 -1       777 4.06250E-02 2.14844E-02 0.00000E+00
 -1       778 4.16667E-02 2.18750E-02 0.00000E+00
 -1       779 4.27083E-02 2.22656E-02 0.00000E+00
 -1       780 4.37500E-02 2.26563E-02 0.00000E+00
 -1       781 4.47917E-02 2.30469E-02 0.00000E+00
 -1       782 4.58333E-02 2.34375E-02 0.00000E+00
 -1       783 4.68750E-02 2.38281E-02 0.00000E+00
 -1       784 4.79167E-02 2.42187E-02 0.00000E+00
 -1       785 4.89583E-02 2.46094E-02 0.00000E+00
 -1       786 5.10417E-02 1.87500E-02 0.00000E+00
 -1       787 5.20833E-02 1.87500E-02 0.00000E+00
 -1       788 5.31250E-02 1.87500E-02 0.00000E+00
 -1       789 5.41667E-02 1.87500E-02 0.00000E+00
 -1       790 5.52083E-02 1.87500E-02 0.00000E+00
 -1       791 5.62500E-02 1.87500E-02 0.00000E+00
 -1       792 5.72917E-02 1.87500E-02 0.00000E+00
 -1       793 5.83333E-02 1.87500E-02 0.00000E+00
 -1       794 5.93750E-02 1.87500E-02 0.00000E+00
 -1       795 6.04167E-02 1.87500E-02 0.00000E+00
 -1       796 6.14583E-02 1.87500E-02 0.00000E+00
 -1       797 6.25000E-02 1.87500E-02 0.00000E+00
 -1       798 6.35417E-02 1.87500E-02 0.00000E+00
 -1       799 6.45833E-02 1.87500E-02 0.00000E+00
 -1       800 6.56250E-02 1.87500E-02 0.00000E+00
 -1       801 5.00000E-02 1.97917E-02 0.00000E+00
 -1       802 5.00000E-02 2.08333E-02 0.00000E+00
 -1       803 5.00000E-02 2.18750E-02 0.00000E+00
 -1       804 5.00000E-02 2.29167E-02 0.00000E+00
 -1       805 5.00000E-02 2.39583E-02 0.00000E+00
 -1       806 5.10417E-02 1.91406E-02 0.00000E+00
 -1       807 5.20833E-02 1.95312E-02 0.00000E+00
 -1       808 5.31250E-02 1.99219E-02 0.00000E+00
 -1       809 5.41667E-02 2.03125E-02 0.00000E+00
 -1       810 5.52083E-02 2.07031E-02 0.00000E+00
 -1       811 5.62500E-02 2.10938E-02 0.00000E+00
 -1       812 5.72917E-02 2.14844E-02 0.00000E+00
 -1       813 5.83333E-02 2.18750E-02 0.00000E+00
 -1       814 5.93750E-02 2.22656E-02 0.00000E+00
 -1       815 6.04167E-02 2.26563E-02 0.00000E+00
 -1       816 6.14583E-02 2.30469E-02 0.00000E+00
 -1       817 6.25000E-02 2.34375E-02 0.00000E+00
 -1       818 6.35417E-02 2.38281E-02 0.00000E+00
 -1       819 6.45833E-02 2.42187E-02 0.00000E+00
 -1       820 6.56250E-02 2.46094E-02 0.00000E+00
 -1       821 6.77083E-02 1.87500E-02 0.00000E+00
 -1       822 6.87500E-02 1.87500E-02 0.00000E+00
 -1       823 6.97917E-02 1.87500E-02 0.00000E+00
 -1       824 7.08333E-02 1.87500E-02 0.00000E+00
 -1       825 7.18750E-02 1.87500E-02 0.00000E+00
 -1       826 7.29167E-02 1.87500E-02 0.00000E+00
 -1       827 7.39583E-02 1.87500E-02 0.00000E+00
 -1       828 7.50000E-02 1.87500E-02 0.00000E+00
 -1       829 7.60417E-02 1.87500E-02 0.00000E+00
 -1       830 7.70833E-02 1.87500E-02 0.00000E+00
 -1       831 7.81250E-02 1.87500E-02 0.00000E+00
 -1       832 7.91667E-02 1.87500E-02 0.00000E+00
 -1       833 8.02083E-02 1.87500E-02 0.00000E+00
 -1       834 8.12500E-02 1.87500E-02 0.00000E+00
 -1       835 8.22917E-02 1.87500E-02 0.00000E+00
 -1       836 6.66667E-02 1.97917E-02 0.00000E+00
 -1       837 6.66667E-02 2.08333E-02 0.00000E+00
 -1       838 6.66667E-02 2.18750E-02 0.00000E+00
 -1       839 6.66667E-02 2.29167E-02 0.00000E+00
 -1       840 6.66667E-02 2.39583E-02 0.00000E+00
 -1       841 6.77083E-02 1.91406E-02 0.00000E+00
 -1       842 6.87500E-02 1.95312E-02 0.00000E+00
 -1       843 6.97917E-02 1.99219E-02 0.00000E+00
 -1       844 7.08333E-02 2.03125E-02 0.00000E+00
 -1       845 7.18750E-02 2.07031E-02 0.00000E+00
 -1       846 7.29167E-02 2.10938E-02 0.00000E+00
 -1       847 7.39583E-02 2.14844E-02 0.00000E+00
 -1       848 7.50000E-02 2.18750E-02 0.00000E+00
 -1       849 7.60417E-02 2.22656E-02 0.00000E+00
 -1       850 7.70833E-02 2.26563E-02 0.00000E+00
 -1       851 7.81250E-02 2.30469E-02 0.00000E+00
 -1       852 7.91667E-02 2.34375E-02 0.00000E+00
 -1       853 8.02083E-02 2.38281E-02 0.00000E+00
 -1       854 8.12500E-02 2.42187E-02 0.00000E+00
 -1       855 8.22917E-02 2.46094E-02 0.00000E+00
 -1       856 8.43750E-02 1.87500E-02 0.00000E+00
 -1       857 8.54167E-02 1.87500E-02 0.00000E+00
 -1       858 8.64583E-02 1.87500E-02 0.00000E+00
 -1       859 8.75000E-02 1.87500E-02 0.00000E+00
 -1       860 8.85417E-02 1.87500E-02 0.00000E+00
 -1       861 8.95833E-02 1.87500E-02 0.00000E+00
 -1       862 9.06250E-02 1.87500E-02 0.00000E+00
 -1       863 9.16667E-02 1.87500E-02 0.00000E+00
 -1       864 9.27083E-02 1.87500E-02 0.00000E+00
 -1       865 9.37500E-02 1.87500E-02 0.00000E+00
 -1       866 9.47917E-02 1.87500E-02 0.00000E+00
 -1       867 9.58333E-02 1.87500E-02 0.00000E+00
 -1       868 9.68750E-02 1.87500E-02 0.00000E+00
 -1       869 9.79167E-02 1.87500E-02 0.00000E+00
 -1       870 9.89583E-02 1.87500E-02 0.00000E+00
 -1       871 8.33333E-02 1.97917E-02 0.00000E+00
 -1       872 8.33333E-02 2.08333E-02 0.00000E+00
 -1       873 8.33333E-02 2.18750E-02 0.00000E+00
 -1       874 8.33333E-02 2.29167E-02 0.00000E+00
 -1       875 8.33333E-02 2.39583E-02 0.00000E+00
 -1       876 8.43750E-02 1.91406E-02 0.00000E+00
 -1       877 8.54167E-02 1.95312E-02 0.00000E+00
 -1       878 8.64583E-02 1.99219E-02 0.00000E+00
 -1       879 8.75000E-02 2.03125E-02 0.00000E+00
 -1       880 8.85417E-02 2.07031E-02 0.00000E+00
 -1       881 8.95833E-02 2.10938E-02 0.00000E+00
 -1       882 9.06250E-02 2.14844E-02 0.00000E+00
 -1       883 9.16667E-02 2.18750E-02 0.00000E+00
 -1       884 9.27083E-02 2.22656E-02 0.00000E+00
 -1       885 9.37500E-02 2.26563E-02 0.00000E+00
 -1       886 9.47917E-02 2.30469E-02 0.00000E+00
 -1       887 9.58333E-02 2.34375E-02 0.00000E+00
 -1       888 9.68750E-02 2.38281E-02 0.00000E+00
 -1       889 9.79167E-02 2.42187E-02 0.00000E+00
 -1       890 9.89583E-02 2.46094E-02 0.00000E+00
 -1       891 1.00000E-01 1.97917E-02 0.00000E+00
 -1       892 1.00000E-01 2.08333E-02 0.00000E+00
 -1       893 1.00000E-01 2.18750E-02 0.00000E+00
 -1       894 1.00000E-01 2.29167E-02 0.00000E+00
 -1       895 1.00000E-01 2.39583E-02 0.00000E+00
 -1       956 6.77083E-02 2.50000E-02 0.00000E+00
 -1       957 6.87500E-02 2.50000E-02 0.00000E+00
 -1       958 6.97917E-02 2.50000E-02 0.00000E+00
 -1       959 7.08333E-02 2.50000E-02 0.00000E+00
 -1       960 7.18750E-02 2.50000E-02 0.00000E+00
 -1       961 7.29167E-02 2.50000E-02 0.00000E+00
 -1       962 7.39583E-02 2.50000E-02 0.00000E+00
 -1       963 7.50000E-02 2.50000E-02 0.00000E+00
 -1       964 7.60417E-02 2.50000E-02 0.00000E+00
 -1       965 7.70833E-02 2.50000E-02 0.00000E+00
 -1       966 7.81250E-02 2.50000E-02 0.00000E+00
 -1       967 7.91667E-02 2.50000E-02 0.00000E+00
 -1       968 8.02083E-02 2.50000E-02 0.00000E+00
 -1       969 8.12500E-02 2.50000E-02 0.00000E+00
 -1       970 8.22917E-02 2.50000E-02 0.00000E+00
 -1       971 8.43750E-02 2.50000E-02 0.00000E+00
 -1       972 8.54167E-02 2.50000E-02 0.00000E+00
 -1       973 8.64583E-02 2.50000E-02 0.00000E+00
 -1       974 8.75000E-02 2.50000E-02 0.00000E+00
 -1       975 8.85417E-02 2.50000E-02 0.00000E+00
 -1       976 8.95833E-02 2.50000E-02 0.00000E+00
 -1       977 9.06250E-02 2.50000E-02 0.00000E+00
 -1       978 9.16667E-02 2.50000E-02 0.00000E+00
 -1       979 9.27083E-02 2.50000E-02 0.00000E+00
 -1       980 9.37500E-02 2.50000E-02 0.00000E+00
 -1       981 9.47917E-02 2.50000E-02 0.00000E+00
 -1       982 9.58333E-02 2.50000E-02 0.00000E+00
 -1       983 9.68750E-02 2.50000E-02 0.00000E+00
 -1       984 9.79167E-02 2.50000E-02 0.00000E+00
 -1       985 9.89583E-02 2.50000E-02 0.00000E+00
 -3
    3C                           308                                     1
 -1         1   12    0    1
 -2         1        37        36
 -1         2   12    0    1
 -2        37        39        38
 -1         3   12    0    1
 -2        39        41        40
 -1         4   12    0    1
 -2        41        43        42
 -1         5   12    0    1
 -2        43        45        44
 -1         6   12    0    1
 -2        45        47        46
 -1         7   12    0    1
 -2        47        49        48
 -1         8   12    0    1
 -2        49         2        50
 -1         9   12    0    1
 -2         1        52        51
 -1        10   12    0    1
 -2        52        54        53
 -1        11   12    0    1
 -2        54         8        55
 -1        12   12    0    1
 -2         1        57        56
 -1        13   12    0    1
 -2        57        59        58
 -1        14   12    0    1
 -2        59        61        60
 -1        15   12    0    1
 -2        61        63        62
 -1        16   12    0    1
 -2        63        65        64
 -1        17   12    0    1
 -2        65        67        66
 -1        18   12    0    1
 -2        67        69        68
 -1        19   12    0    1
 -2        69         9        70
 -1        20   12    0    1
 -2         2        72        71
 -1        21   12    0    1
 -2        72        74        73
 -1        22   12    0    1
 -2        74        76        75
 -1        23   12    0    1
 -2        76        78        77
 -1        24   12    0    1
 -2        78        80        79
 -1        25   12    0    1
 -2        80        82        81
 -1        26   12    0    1
 -2        82        84        83
 -1        27   12    0    1
 -2        84         3        85
 -1        28   12    0    1
 -2         2        87        86
 -1        29   12    0    1
 -2        87        89        88
 -1        30   12    0    1
 -2        89         9        90
 -1        31   12    0    1
 -2         2        92        91
 -1        32   12    0    1
 -2        92        94        93
 -1        33   12    0    1
 -2        94        96        95
 -1        34   12    0    1
 -2        96        98        97
 -1        35   12    0    1
 -2        98       100        99
 -1        36   12    0    1
 -2       100       102       101
 -1        37   12    0    1
 -2       102       104       103
 -1        38   12    0    1
 -2       104        10       105
 -1        39   12    0    1
 -2         3       107       106
 -1        40   12    0    1
 -2       107       109       108
 -1        41   12    0    1
 -2       109       111       110
 -1        42   12    0    1
 -2       111       113       112
 -1        43   12    0    1
 -2       113       115       114
 -1        44   12    0    1
 -2       115       117       116
 -1        45   12    0    1
 -2       117       119       118
 -1        46   12    0    1
 -2       119         4       120
 -1        47   12    0    1
 -2         3       122       121
 -1        48   12    0    1
 -2       122       124       123
 -1        49   12    0    1
 -2       124        10       125
 -1        50   12    0    1
 -2         4       142       141
 -1        51   12    0    1
 -2       142       144       143
 -1        52   12    0    1
 -2       144       146       145
 -1        53   12    0    1
 -2       146       148       147
 -1        54   12    0    1
 -2       148       150       149
 -1        55   12    0    1
 -2       150       152       151
 -1        56   12    0    1
 -2       152       154       153
 -1        57   12    0    1
 -2       154         5       155
 -1        58   12    0    1
 -2         4       157       156
 -1        59   12    0    1
 -2       157       159       158
 -1        60   12    0    1
 -2       159        11       160
 -1        61   12    0    1
 -2         4       162       161
 -1        62   12    0    1
 -2       162       164       163
 -1        63   12    0    1
 -2       164       166       165
 -1        64   12    0    1
 -2       166       168       167
 -1        65   12    0    1
 -2       168       170       169
 -1        66   12    0    1
 -2       170       172       171
 -1        67   12    0    1
 -2       172       174       173
 -1        68   12    0    1
 -2       174        12       175
 -1        69   12    0    1
 -2         5       192       191
 -1        70   12    0    1
 -2       192       194       193
 -1        71   12    0    1
 -2       194        12       195
 -1        72   12    0    1
 -2         8       267       266
 -1        73   12    0    1
 -2       267       269       268
 -1        74   12    0    1
 -2       269        15       270
 -1        75   12    0    1
 -2         8       272       271
 -1        76   12    0    1
 -2       272       274       273
 -1        77   12    0    1
 -2       274       276       275
 -1        78   12    0    1
 -2       276       278       277
 -1        79   12    0    1
 -2       278       280       279
 -1        80   12    0    1
 -2       280       282       281
 -1        81   12    0    1
 -2       282       284       283
 -1        82   12    0    1
 -2       284        16       285
 -1        83   12    0    1
 -2         9       287       286
 -1        84   12    0    1
 -2       287       289       288
 -1        85   12    0    1
 -2       289       291       290
 -1        86   12    0    1
 -2       291       293       292
 -1        87   12    0    1
 -2       293       295       294
 -1        88   12    0    1
 -2       295       297       296
 -1        89   12    0    1
 -2       297       299       298
 -1        90   12    0    1
 -2       299        10       300
 -1        91   12    0    1
 -2         9       302       301
 -1        92   12    0    1
 -2       302       304       303
 -1        93   12    0    1
 -2       304        16       305
 -1        94   12    0    1
 -2         9       307       306
 -1        95   12    0    1
 -2       307       309       308
 -1        96   12    0    1
 -2       309       311       310
 -1        97   12    0    1
 -2       311       313       312
 -1        98   12    0    1
 -2       313       315       314
 -1        99   12    0    1
 -2       315       317       316
 -1       100   12    0    1
 -2       317       319       318
 -1       101   12    0    1
 -2       319        17       320
 -1       102   12    0    1
 -2        10       337       336
 -1       103   12    0    1
 -2       337       339       338
 -1       104   12    0    1
 -2       339        17       340
 -1       105   12    0    1
 -2        11       357       356
 -1       106   12    0    1
 -2       357       359       358
 -1       107   12    0    1
 -2       359       361       360
 -1       108   12    0    1
 -2       361       363       362
 -1       109   12    0    1
 -2       363       365       364
 -1       110   12    0    1
 -2       365       367       366
 -1       111   12    0    1
 -2       367       369       368
 -1       112   12    0    1
 -2       369        12       370
 -1       113   12    0    1
 -2        12       407       406
 -1       114   12    0    1
 -2       407       409       408
 -1       115   12    0    1
 -2       409        19       410
 -1       116   12    0    1
 -2        15       467       466
 -1       117   12    0    1
 -2       467       469       468
 -1       118   12    0    1
 -2       469       471       470
 -1       119   12    0    1
 -2       471       473       472
 -1       120   12    0    1
 -2       473       475       474
 -1       121   12    0    1
 -2       475       477       476
 -1       122   12    0    1
 -2       477       479       478
 -1       123   12    0    1
 -2       479        16       480
 -1       124   12    0    1
 -2        16       517       516
 -1       125   12    0    1
 -2       517       519       518
 -1       126   12    0    1
 -2       519        23       520
 -1       127   12    0    1
 -2        16       522       521
 -1       128   12    0    1
 -2       522       524       523
 -1       129   12    0    1
 -2       524       526       525
 -1       130   12    0    1
 -2       526       528       527
 -1       131   12    0    1
 -2       528       530       529
 -1       132   12    0    1
 -2       530       532       531
 -1       133   12    0    1
 -2       532       534       533
 -1       134   12    0    1
 -2       534        24       535
 -1       135   12    0    1
 -2        17       537       536
 -1       136   12    0    1
 -2       537       539       538
 -1       137   12    0    1
 -2       539       541       540
 -1       138   12    0    1
 -2       541       543       542
 -1       139   12    0    1
 -2       543       545       544
 -1       140   12    0    1
 -2       545       547       546
 -1       141   12    0    1
 -2       547       549       548
 -1       142   12    0    1
 -2       549        18       550
 -1       143   12    0    1
 -2        17       552       551
 -1       144   12    0    1
 -2       552       554       553
 -1       145   12    0    1
 -2       554        24       555
 -1       146   12    0    1
 -2        17       557       556
 -1       147   12    0    1
 -2       557       559       558
 -1       148   12    0    1
 -2       559       561       560
 -1       149   12    0    1
 -2       561       563       562
 -1       150   12    0    1
 -2       563       565       564
 -1       151   12    0    1
 -2       565       567       566
 -1       152   12    0    1
 -2       567       569       568
 -1       153   12    0    1
 -2       569        25       570
 -1       154   12    0    1
 -2        18       572       571
 -1       155   12    0    1
 -2       572       574       573
 -1       156   12    0    1
 -2       574       576       575
 -1       157   12    0    1
 -2       576       578       577
 -1       158   12    0    1
 -2       578       580       579
 -1       159   12    0    1
 -2       580       582       581
 -1       160   12    0    1
 -2       582       584       583
 -1       161   12    0    1
 -2       584        19       585
 -1       162   12    0    1
 -2        18       587       586
 -1       163   12    0    1
 -2       587       589       588
 -1       164   12    0    1
 -2       589        25       590
 -1       165   12    0    1
 -2        18       592       591
 -1       166   12    0    1
 -2       592       594       593
 -1       167   12    0    1
 -2       594       596       595
 -1       168   12    0    1
 -2       596       598       597
 -1       169   12    0    1
 -2       598       600       599
 -1       170   12    0    1
 -2       600       602       601
 -1       171   12    0    1
 -2       602       604       603
 -1       172   12    0    1
 -2       604        26       605
 -1       173   12    0    1
 -2        19       607       606
 -1       174   12    0    1
 -2       607       609       608
 -1       175   12    0    1
 -2       609       611       610
 -1       176   12    0    1
 -2       611       613       612
 -1       177   12    0    1
 -2       613       615       614
 -1       178   12    0    1
 -2       615       617       616
 -1       179   12    0    1
 -2       617       619       618
 -1       180   12    0    1
 -2       619        20       620
 -1       181   12    0    1
 -2        19       622       621
 -1       182   12    0    1
 -2       622       624       623
 -1       183   12    0    1
 -2       624        26       625
 -1       184   12    0    1
 -2        19       627       626
 -1       185   12    0    1
 -2       627       629       628
 -1       186   12    0    1
 -2       629       631       630
 -1       187   12    0    1
 -2       631       633       632
 -1       188   12    0    1
 -2       633       635       634
 -1       189   12    0    1
 -2       635       637       636
 -1       190   12    0    1
 -2       637       639       638
 -1       191   12    0    1
 -2       639        27       640
 -1       192   12    0    1
 -2        20       642       641
 -1       193   12    0    1
 -2       642       644       643
 -1       194   12    0    1
 -2       644       646       645
 -1       195   12    0    1
 -2       646       648       647
 -1       196   12    0    1
 -2       648       650       649
 -1       197   12    0    1
 -2       650       652       651
 -1       198   12    0    1
 -2       652       654       653
 -1       199   12    0    1
 -2       654        21       655
 -1       200   12    0    1
 -2        20       657       656
 -1       201   12    0    1
 -2       657       659       658
 -1       202   12    0    1
 -2       659        27       660
 -1       203   12    0    1
 -2        20       662       661
 -1       204   12    0    1
 -2       662       664       663
 -1       205   12    0    1
 -2       664       666       665
 -1       206   12    0    1
 -2       666       668       667
 -1       207   12    0    1
 -2       668       670       669
 -1       208   12    0    1
 -2       670       672       671
 -1       209   12    0    1
 -2       672       674       673
 -1       210   12    0    1
 -2       674        28       675
 -1       211   12    0    1
 -2        21       677       676
 -1       212   12    0    1
 -2       677       679       678
 -1       213   12    0    1
 -2       679        28       680
 -1       214   12    0    1
 -2        23       717       716
 -1       215   12    0    1
 -2       717       719       718
 -1       216   12    0    1
 -2       719       721       720
 -1       217   12    0    1
 -2       721       723       722
 -1       218   12    0    1
 -2       723       725       724
 -1       219   12    0    1
 -2       725       727       726
 -1       220   12    0    1
 -2       727       729       728
 -1       221   12    0    1
 -2       729        24       730
 -1       222   12    0    1
 -2        24       767       766
 -1       223   12    0    1
 -2       767       769       768
 -1       224   12    0    1
 -2       769        31       770
 -1       225   12    0    1
 -2        24       772       771
 -1       226   12    0    1
 -2       772       774       773
 -1       227   12    0    1
 -2       774       776       775
 -1       228   12    0    1
 -2       776       778       777
 -1       229   12    0    1
 -2       778       780       779
 -1       230   12    0    1
 -2       780       782       781
 -1       231   12    0    1
 -2       782       784       783
 -1       232   12    0    1
 -2       784        32       785
 -1       233   12    0    1
 -2        25       787       786
 -1       234   12    0    1
 -2       787       789       788
 -1       235   12    0    1
 -2       789       791       790
 -1       236   12    0    1
 -2       791       793       792
 -1       237   12    0    1
 -2       793       795       794
 -1       238   12    0    1
 -2       795       797       796
 -1       239   12    0    1
 -2       797       799       798
 -1       240   12    0    1
 -2       799        26       800
 -1       241   12    0    1
 -2        25       802       801
 -1       242   12    0    1
 -2       802       804       803
 -1       243   12    0    1
 -2       804        32       805
 -1       244   12    0    1
 -2        25       807       806
 -1       245   12    0    1
 -2       807       809       808
 -1       246   12    0    1
 -2       809       811       810
 -1       247   12    0    1
 -2       811       813       812
 -1       248   12    0    1
 -2       813       815       814
 -1       249   12    0    1
 -2       815       817       816
 -1       250   12    0    1
 -2       817       819       818
 -1       251   12    0    1
 -2       819        33       820
 -1       252   12    0    1
 -2        26       822       821
 -1       253   12    0    1
 -2       822       824       823
 -1       254   12    0    1
 -2       824       826       825
 -1       255   12    0    1
 -2       826       828       827
 -1       256   12    0    1
 -2       828       830       829
 -1       257   12    0    1
 -2       830       832       831
 -1       258   12    0    1
 -2       832       834       833
 -1       259   12    0    1
 -2       834        27       835
 -1       260   12    0    1
 -2        26       837       836
 -1       261   12    0    1
 -2       837       839       838
 -1       262   12    0    1
 -2       839        33       840
 -1       263   12    0    1
 -2        26       842       841
 -1       264   12    0    1
 -2       842       844       843
 -1       265   12    0    1
 -2       844       846       845
 -1       266   12    0    1
 -2       846       848       847
 -1       267   12    0    1
 -2       848       850       849
 -1       268   12    0    1
 -2       850       852       851
 -1       269   12    0    1
 -2       852       854       853
 -1       270   12    0    1
 -2       854        34       855
 -1       271   12    0    1
 -2        27       857       856
 -1       272   12    0    1
 -2       857       859       858
 -1       273   12    0    1
 -2       859       861       860
 -1       274   12    0    1
 -2       861       863       862
 -1       275   12    0    1
 -2       863       865       864
 -1       276   12    0    1
 -2       865       867       866
 -1       277   12    0    1
 -2       867       869       868
 -1       278   12    0    1
 -2       869        28       870
 -1       279   12    0    1
 -2        27       872       871
 -1       280   12    0    1
 -2       872       874       873
 -1       281   12    0    1
 -2       874        34       875
 -1       282   12    0    1
 -2        27       877       876
 -1       283   12    0    1
 -2       877       879       878
 -1       284   12    0    1
 -2       879       881       880
 -1       285   12    0    1
 -2       881       883       882
 -1       286   12    0    1
 -2       883       885       884
 -1       287   12    0    1
 -2       885       887       886
 -1       288   12    0    1
 -2       887       889       888
 -1       289   12    0    1
 -2       889        35       890
 -1       290   12    0    1
 -2        28       892       891
 -1       291   12    0    1
 -2       892       894       893
 -1       292   12    0    1
 -2       894        35       895
 -1       293   12    0    1
 -2        33       957       956
 -1       294   12    0    1
 -2       957       959       958
 -1       295   12    0    1
 -2       959       961       960
 -1       296   12    0    1
 -2       961       963       962
 -1       297   12    0    1
 -2       963       965       964
 -1       298   12    0    1
 -2       965       967       966
 -1       299   12    0    1
 -2       967       969       968
 -1       300   12    0    1
 -2       969        34       970
 -1       301   12    0    1
 -2        34       972       971
 -1       302   12    0    1
 -2       972       974       973
 -1       303   12    0    1
 -2       974       976       975
 -1       304   12    0    1
 -2       976       978       977
 -1       305   12    0    1
 -2       978       980       979
 -1       306   12    0    1
 -2       980       982       981
 -1       307   12    0    1
 -2       982       984       983
 -1       308   12    0    1
 -2       984        35       985
 -3
    1PSTEP                         1           1           1          
  100CL  101 1.000000000         593                     0    1           1
 -4  DISP        4    1
 -5  D1          1    2    1    0
 -5  D2          1    2    2    0
 -5  D3          1    2    3    0
 -5  ALL         1    2    0    0    1ALL
 -1         1 1.91919E-04 0.00000E+00 0.00000E+00
 -1         2 1.59251E-04 0.00000E+00 0.00000E+00
 -1         3 1.44191E-04 0.00000E+00 0.00000E+00
 -1         4 1.22011E-04 0.00000E+00 0.00000E+00
 -1         5 1.10459E-04 0.00000E+00 0.00000E+00
 -1         8 1.54685E-04-1.66684E-06 0.00000E+00
 -1         9 1.32190E-04-1.39120E-06 0.00000E+00
 -1        10 1.38893E-04-3.19401E-06 0.00000E+00
 -1        11 1.08652E-04-6.68267E-08 0.00000E+00
 -1        12 1.08658E-04 1.20784E-06 0.00000E+00
 -1        15 9.24426E-05-2.03001E-06 0.00000E+00
 -1        16 9.22669E-05-1.71354E-06 0.00000E+00
 -1        17 1.01113E-04-6.91955E-06 0.00000E+00
 -1        18 1.01626E-04-5.22041E-07 0.00000E+00
 -1        19 1.03975E-04 2.39355E-06 0.00000E+00
 -1        20 1.04595E-04 3.02423E-05 0.00000E+00
 -1        21 1.03991E-04 6.46294E-05 0.00000E+00
 -1        23 3.14648E-05-2.09943E-06 0.00000E+00
 -1        24 3.12444E-05-8.79511E-06 0.00000E+00
 -1        25 9.68684E-05-1.61211E-07 0.00000E+00
 -1        26 9.88402E-05 3.24754E-06 0.00000E+00
 -1        27 9.64328E-05 2.86640E-05 0.00000E+00
 -1        28 9.47321E-05 6.35398E-05 0.00000E+00
 -1        31-2.53346E-05-9.13474E-06-8.27181E-25
 -1        32 0.00000E+00 0.00000E+00 0.00000E+00
 -1        33 9.27696E-05 4.28808E-06 0.00000E+00
 -1        34 9.02264E-05 2.85442E-05 0.00000E+00
 -1        35 8.70052E-05 6.30247E-05 0.00000E+00
 -1        36 1.89942E-04 4.22654E-19 0.00000E+00
 -1        37 1.87900E-04 6.66768E-19 0.00000E+00
 -1        38 1.85862E-04 6.56928E-19 0.00000E+00
 -1        39 1.83812E-04 4.35884E-19-2.64698E-23
 -1        40 1.81761E-04 4.66950E-19-5.29396E-23
 -1        41 1.79708E-04 5.91135E-19 0.00000E+00
 -1        42 1.77655E-04 5.33063E-19 0.00000E+00
 -1        43 1.75602E-04 8.00860E-19 2.64698E-23
 -1        44 1.73548E-04 8.19446E-19-5.29396E-23
 -1        45 1.71495E-04 6.12311E-19 0.00000E+00
 -1        46 1.69441E-04 9.88392E-19 0.00000E+00
 -1        47 1.67390E-04 8.80380E-19 0.00000E+00
 -1        48 1.65339E-04 7.47582E-19 0.00000E+00
 -1        49 1.63296E-04 1.52041E-18 2.64698E-23
 -1        50 1.61251E-04 1.37062E-18 0.00000E+00
 -1        51 1.89278E-04-2.72160E-07 0.00000E+00
 -1        52 1.84700E-04-5.37805E-07 0.00000E+00
 -1        53 1.78559E-04-8.06311E-07 0.00000E+00
 -1        54 1.71248E-04-1.08098E-06 0.00000E+00
 -1        55 1.63158E-04-1.36388E-06-7.65142E-24
 -1        56 1.88109E-04 4.96732E-07 0.00000E+00
 -1        57 1.82946E-04 4.21216E-06 0.00000E+00
 -1        58 1.76914E-04 1.02261E-05 1.05879E-22
 -1        59 1.70439E-04 1.73361E-05 0.00000E+00
 -1        60 1.64120E-04 2.40367E-05-1.05879E-22
 -1        61 1.58518E-04 2.88521E-05 0.00000E+00
 -1        62 1.53981E-04 3.08632E-05 1.05879E-22
 -1        63 1.50744E-04 2.94194E-05 0.00000E+00
 -1        64 1.48659E-04 2.48925E-05 0.00000E+00
 -1        65 1.47466E-04 1.79547E-05 5.29396E-23
 -1        66 1.46651E-04 9.99428E-06 0.00000E+00
 -1        67 1.45668E-04 2.50061E-06-5.29396E-23
 -1        68 1.44014E-04-3.17680E-06 0.00000E+00
 -1        69 1.41269E-04-5.85880E-06 0.00000E+00
 -1        70 1.37288E-04-5.26742E-06 5.29396E-23
 -1        71 1.58309E-04-7.45429E-19 2.64698E-23
 -1        72 1.57366E-04-1.12097E-18-1.32349E-23
 -1        73 1.56423E-04-5.38012E-19 0.00000E+00
 -1        74 1.55480E-04 5.10499E-20 1.32349E-23
 -1        75 1.54537E-04-2.15492E-19 0.00000E+00
 -1        76 1.53594E-04-2.84654E-19 0.00000E+00
 -1        77 1.52651E-04-1.60692E-19 0.00000E+00
 -1        78 1.51709E-04 5.39516E-19 1.32349E-23
 -1        79 1.50766E-04 2.94131E-19 2.64698E-23
 -1        80 1.49823E-04 4.78149E-19 0.00000E+00
 -1        81 1.48880E-04 3.65803E-19 0.00000E+00
 -1        82 1.47938E-04 5.46826E-19 1.32349E-23
 -1        83 1.46996E-04 1.05779E-18 0.00000E+00
 -1        84 1.46056E-04 9.13489E-19 1.32349E-23
 -1        85 1.45116E-04 2.77201E-19-2.64698E-23
 -1        86 1.58354E-04-2.41684E-07 0.00000E+00
 -1        87 1.55657E-04-4.58281E-07 0.00000E+00
 -1        88 1.51299E-04-6.82420E-07 0.00000E+00
 -1        89 1.45431E-04-9.11559E-07-6.61744E-24
 -1        90 1.38808E-04-1.14387E-06-1.32349E-23
 -1        91 1.58056E-04-3.80813E-07 0.00000E+00
 -1        92 1.56806E-04-6.45574E-07 0.00000E+00
 -1        93 1.55541E-04-8.66899E-07 0.00000E+00
 -1        94 1.54287E-04-1.12503E-06 0.00000E+00
 -1        95 1.53042E-04-1.40881E-06-2.64698E-23
 -1        96 1.51803E-04-1.70653E-06 0.00000E+00
 -1        97 1.50554E-04-1.98004E-06 2.64698E-23
 -1        98 1.49282E-04-2.19267E-06 0.00000E+00
 -1        99 1.48027E-04-2.45004E-06 2.64698E-23
 -1       100 1.46828E-04-2.85535E-06-1.32349E-23
 -1       101 1.45590E-04-3.15589E-06-2.64698E-23
 -1       102 1.44220E-04-3.10419E-06-1.32349E-23
 -1       103 1.42945E-04-3.30251E-06 0.00000E+00
 -1       104 1.41988E-04-4.33775E-06-1.32349E-23
 -1       105 1.40805E-04-4.77341E-06-2.64698E-23
 -1       106 1.42836E-04 3.49741E-19 0.00000E+00
 -1       107 1.41450E-04 3.61990E-19 1.32349E-23
 -1       108 1.40065E-04 4.51108E-19-5.29396E-23
 -1       109 1.38674E-04 4.81827E-19 2.64698E-23
 -1       110 1.37283E-04 5.92881E-19 5.29396E-23
 -1       111 1.35890E-04 4.83393E-19 0.00000E+00
 -1       112 1.34498E-04 2.93918E-19-5.29396E-23
 -1       113 1.33105E-04 2.20106E-19 0.00000E+00
 -1       114 1.31712E-04 5.47738E-19 5.29396E-23
 -1       115 1.30320E-04 8.08625E-19-2.64698E-23
 -1       116 1.28927E-04 3.03832E-19 0.00000E+00
 -1       117 1.27536E-04 4.02146E-19 0.00000E+00
 -1       118 1.26145E-04 7.89934E-19 0.00000E+00
 -1       119 1.24759E-04 7.72365E-19 0.00000E+00
 -1       120 1.23371E-04 2.37517E-19-2.64698E-23
 -1       121 1.44237E-04-5.33194E-07-1.32349E-23
 -1       122 1.44173E-04-1.06426E-06-6.61744E-24
 -1       123 1.43802E-04-1.59549E-06 0.00000E+00
 -1       124 1.42926E-04-2.12687E-06 0.00000E+00
 -1       125 1.41353E-04-2.65907E-06 0.00000E+00
 -1       141 1.21285E-04-5.97338E-19 0.00000E+00
 -1       142 1.20559E-04-9.83436E-19 0.00000E+00
 -1       143 1.19833E-04-3.68725E-19 0.00000E+00
 -1       144 1.19107E-04 4.71405E-19-1.32349E-23
 -1       145 1.18381E-04 4.74534E-19 2.64698E-23
 -1       146 1.17655E-04-4.50130E-20 0.00000E+00
 -1       147 1.16929E-04-4.47637E-19 0.00000E+00
 -1       148 1.16203E-04 5.61855E-19-1.32349E-23
 -1       149 1.15477E-04 1.45928E-18-2.64698E-23
 -1       150 1.14751E-04 5.90021E-19 0.00000E+00
 -1       151 1.14025E-04-5.24823E-20 0.00000E+00
 -1       152 1.13301E-04 1.45897E-18 0.00000E+00
 -1       153 1.12577E-04 2.59771E-18 0.00000E+00
 -1       154 1.11860E-04 1.80156E-18-6.61744E-24
 -1       155 1.11141E-04 6.89953E-19-6.61744E-24
 -1       156 1.21439E-04-3.41059E-08 1.32349E-23
 -1       157 1.19724E-04-4.09400E-08-3.30872E-24
 -1       158 1.17227E-04-5.11259E-08-3.30872E-24
 -1       159 1.14305E-04-5.69982E-08 0.00000E+00
 -1       160 1.11325E-04-6.28049E-08-8.27181E-25
 -1       161 1.21250E-04-1.32270E-07 0.00000E+00
 -1       162 1.20387E-04 6.02884E-09 1.32349E-23
 -1       163 1.19502E-04 2.05337E-07-2.64698E-23
 -1       164 1.18673E-04 2.54080E-07 1.32349E-23
 -1       165 1.17859E-04 2.64198E-07 2.64698E-23
 -1       166 1.17016E-04 3.48851E-07 0.00000E+00
 -1       167 1.16165E-04 4.57229E-07 2.64698E-23
 -1       168 1.15324E-04 5.37772E-07 0.00000E+00
 -1       169 1.14490E-04 6.00413E-07 0.00000E+00
 -1       170 1.13659E-04 6.55768E-07 0.00000E+00
 -1       171 1.12821E-04 7.30024E-07 2.64698E-23
 -1       172 1.11968E-04 8.49229E-07-1.32349E-23
 -1       173 1.11123E-04 9.44720E-07 0.00000E+00
 -1       174 1.10320E-04 9.51612E-07 0.00000E+00
 -1       175 1.09500E-04 9.92678E-07 6.61744E-24
 -1       191 1.10392E-04 2.01142E-07 6.61744E-24
 -1       192 1.10228E-04 4.02540E-07 6.61744E-24
 -1       193 1.09969E-04 6.03991E-07 0.00000E+00
 -1       194 1.09619E-04 8.05423E-07-6.61744E-24
 -1       195 1.09180E-04 1.00677E-06-6.61744E-24
 -1       266 1.46564E-04-1.73042E-06 1.32349E-23
 -1       267 1.36169E-04-1.78757E-06 0.00000E+00
 -1       268 1.24528E-04-1.85938E-06 0.00000E+00
 -1       269 1.12664E-04-1.92864E-06 8.27181E-25
 -1       270 1.01622E-04-1.98881E-06 0.00000E+00
 -1       271 1.49037E-04 3.29148E-06-5.29396E-23
 -1       272 1.43867E-04 6.64589E-06 5.29396E-23
 -1       273 1.39291E-04 8.44892E-06 0.00000E+00
 -1       274 1.35251E-04 8.77663E-06 0.00000E+00
 -1       275 1.31698E-04 7.80703E-06 0.00000E+00
 -1       276 1.28539E-04 5.77565E-06 0.00000E+00
 -1       277 1.25663E-04 2.98294E-06 1.05879E-22
 -1       278 1.22946E-04-2.33617E-07 0.00000E+00
 -1       279 1.20251E-04-3.51106E-06 0.00000E+00
 -1       280 1.17442E-04-6.48330E-06 0.00000E+00
 -1       281 1.14391E-04-8.80290E-06-1.05879E-22
 -1       282 1.10980E-04-1.01543E-05 5.29396E-23
 -1       283 1.07109E-04-1.02808E-05 1.05879E-22
 -1       284 1.02719E-04-8.98077E-06 0.00000E+00
 -1       285 9.77430E-05-6.14921E-06 0.00000E+00
 -1       286 1.32558E-04 3.28853E-06 0.00000E+00
 -1       287 1.32978E-04 4.15898E-06 0.00000E+00
 -1       288 1.33396E-04 3.21110E-06 0.00000E+00
 -1       289 1.33822E-04 2.39780E-06 0.00000E+00
 -1       290 1.34249E-04 1.64856E-06 0.00000E+00
 -1       291 1.34677E-04 8.94156E-07 0.00000E+00
 -1       292 1.35105E-04 1.37299E-07-1.32349E-23
 -1       293 1.35534E-04-6.19359E-07 0.00000E+00
 -1       294 1.35963E-04-1.37597E-06-1.32349E-23
 -1       295 1.36391E-04-2.13269E-06 6.61744E-24
 -1       296 1.36819E-04-2.88814E-06 0.00000E+00
 -1       297 1.37246E-04-3.64092E-06-6.61744E-24
 -1       298 1.37672E-04-4.42684E-06 0.00000E+00
 -1       299 1.38091E-04-5.28239E-06 3.30872E-24
 -1       300 1.38513E-04-5.21032E-06 1.65436E-24
 -1       301 1.25521E-04-1.45562E-06-1.32349E-23
 -1       302 1.18827E-04-1.49487E-06-3.30872E-24
 -1       303 1.12131E-04-1.53205E-06 0.00000E+00
 -1       304 1.05457E-04-1.57174E-06-6.61744E-24
 -1       305 9.88282E-05-1.61781E-06 1.32349E-23
 -1       306 1.28352E-04 3.43333E-06-5.29396E-23
 -1       307 1.25278E-04 6.09884E-06 0.00000E+00
 -1       308 1.22948E-04 6.79889E-06 0.00000E+00
 -1       309 1.21260E-04 5.76514E-06 0.00000E+00
 -1       310 1.20103E-04 3.30913E-06-5.29396E-23
 -1       311 1.19343E-04-2.16552E-07 0.00000E+00
 -1       312 1.18833E-04-4.41291E-06 0.00000E+00
 -1       313 1.18415E-04-8.86070E-06-2.64698E-23
 -1       314 1.17931E-04-1.31296E-05 0.00000E+00
 -1       315 1.17223E-04-1.67948E-05 2.64698E-23
 -1       316 1.16142E-04-1.94578E-05 0.00000E+00
 -1       317 1.14551E-04-2.07505E-05-2.64698E-23
 -1       318 1.12331E-04-2.03640E-05 0.00000E+00
 -1       319 1.09390E-04-1.80376E-05 2.64698E-23
 -1       320 1.05645E-04-1.36007E-05-2.64698E-23
 -1       336 1.35187E-04-3.80276E-06 0.00000E+00
 -1       337 1.30214E-04-4.41838E-06 0.00000E+00
 -1       338 1.24140E-04-5.03945E-06 1.32349E-23
 -1       339 1.17143E-04-5.66481E-06 6.61744E-24
 -1       340 1.09405E-04-6.29566E-06-1.32349E-23
 -1       356 1.08649E-04 2.14821E-06-1.03398E-25
 -1       357 1.08647E-04 3.75725E-06 2.58494E-26
 -1       358 1.08647E-04 4.82878E-06 0.00000E+00
 -1       359 1.08646E-04 5.43124E-06 0.00000E+00
 -1       360 1.08646E-04 5.63349E-06 6.46235E-27
 -1       361 1.08646E-04 5.50436E-06-4.03897E-28
 -1       362 1.08646E-04 5.11295E-06 0.00000E+00
 -1       363 1.08646E-04 4.52835E-06 0.00000E+00
 -1       364 1.08645E-04 3.81977E-06 5.16988E-26
 -1       365 1.08645E-04 3.05643E-06 5.16988E-26
 -1       366 1.08645E-04 2.30763E-06 0.00000E+00
 -1       367 1.08645E-04 1.64262E-06 0.00000E+00
 -1       368 1.08645E-04 1.13067E-06-8.27181E-25
 -1       369 1.08647E-04 8.41074E-07-8.27181E-25
 -1       370 1.08649E-04 8.43563E-07 3.30872E-24
 -1       406 1.08041E-04 1.40652E-06 6.61744E-24
 -1       407 1.07350E-04 1.60520E-06 0.00000E+00
 -1       408 1.06591E-04 1.80374E-06-6.61744E-24
 -1       409 1.05772E-04 2.00185E-06 0.00000E+00
 -1       410 1.04897E-04 2.19912E-06-6.61744E-24
 -1       466 9.24184E-05 4.93406E-06-1.03398E-25
 -1       467 9.24086E-05 9.33844E-06 2.58494E-26
 -1       468 9.24058E-05 1.15295E-05 0.00000E+00
 -1       469 9.24054E-05 1.18536E-05 0.00000E+00
 -1       470 9.24044E-05 1.06615E-05 0.00000E+00
 -1       471 9.24014E-05 8.30401E-06 2.58494E-26
 -1       472 9.23963E-05 5.13479E-06-1.03398E-25
 -1       473 9.23896E-05 1.50735E-06-5.16988E-26
 -1       474 9.23825E-05-2.22383E-06-2.06795E-25
 -1       475 9.23758E-05-5.70413E-06 2.06795E-25
 -1       476 9.23708E-05-8.57986E-06 0.00000E+00
 -1       477 9.23662E-05-1.04974E-05 0.00000E+00
 -1       478 9.23628E-05-1.11079E-05-3.30872E-24
 -1       479 9.23502E-05-1.00627E-05 0.00000E+00
 -1       480 9.23366E-05-7.03915E-06 0.00000E+00
 -1       516 8.45393E-05-1.79813E-06 1.32349E-23
 -1       517 7.43215E-05-1.85738E-06 0.00000E+00
 -1       518 6.27542E-05-1.93345E-06 3.30872E-24
 -1       519 5.09762E-05-2.00299E-06-8.27181E-25
 -1       520 4.01568E-05-2.06195E-06 8.27181E-25
 -1       521 8.68299E-05 2.43705E-06 5.29396E-23
 -1       522 8.20766E-05 4.49176E-06 0.00000E+00
 -1       523 7.80651E-05 4.59501E-06 0.00000E+00
 -1       524 7.46940E-05 2.94583E-06 0.00000E+00
 -1       525 7.18585E-05-1.38778E-07 0.00000E+00
 -1       526 6.94115E-05-4.27461E-06-5.29396E-23
 -1       527 6.71878E-05-9.01214E-06 0.00000E+00
 -1       528 6.50090E-05-1.38722E-05 5.29396E-23
 -1       529 6.26948E-05-1.83677E-05-1.05879E-22
 -1       530 6.00713E-05-2.20304E-05 5.29396E-23
 -1       531 5.69815E-05-2.44429E-05 1.05879E-22
 -1       532 5.32934E-05-2.52503E-05 0.00000E+00
 -1       533 4.89057E-05-2.41969E-05-1.05879E-22
 -1       534 4.37676E-05-2.11153E-05 5.29396E-23
 -1       535 3.78395E-05-1.59725E-05 0.00000E+00
 -1       536 1.01106E-04 5.86468E-07 6.61744E-24
 -1       537 1.01125E-04 6.25051E-06-8.27181E-25
 -1       538 1.01151E-04 1.02671E-05 0.00000E+00
 -1       539 1.01185E-04 1.28302E-05 1.55096E-25
 -1       540 1.01221E-04 1.41320E-05 4.13590E-25
 -1       541 1.01258E-04 1.43639E-05 0.00000E+00
 -1       542 1.01296E-04 1.37163E-05 8.27181E-25
 -1       543 1.01333E-04 1.23789E-05-4.13590E-25
 -1       544 1.01369E-04 1.05406E-05 0.00000E+00
 -1       545 1.01405E-04 8.39004E-06 0.00000E+00
 -1       546 1.01440E-04 6.11561E-06-1.65436E-24
 -1       547 1.01476E-04 3.90551E-06 0.00000E+00
 -1       548 1.01512E-04 1.94801E-06-1.65436E-24
 -1       549 1.01549E-04 4.31573E-07 0.00000E+00
 -1       550 1.01587E-04-4.54835E-07 0.00000E+00
 -1       551 9.07957E-05-7.21135E-06-3.30872E-24
 -1       552 7.92026E-05-7.51121E-06-2.06795E-24
 -1       553 6.68884E-05-7.81913E-06-1.32349E-23
 -1       554 5.44163E-05-8.13270E-06 0.00000E+00
 -1       555 4.23494E-05-8.44814E-06 0.00000E+00
 -1       556 9.82410E-05 3.41178E-07-2.64698E-23
 -1       557 9.60309E-05 5.90338E-06-1.32349E-23
 -1       558 9.44092E-05 9.92416E-06 0.00000E+00
 -1       559 9.33088E-05 1.25737E-05 0.00000E+00
 -1       560 9.26624E-05 1.40221E-05 0.00000E+00
 -1       561 9.24040E-05 1.44407E-05 0.00000E+00
 -1       562 9.24679E-05 1.40010E-05 0.00000E+00
 -1       563 9.27890E-05 1.28750E-05 0.00000E+00
 -1       564 9.33023E-05 1.12350E-05 6.61744E-24
 -1       565 9.39433E-05 9.25325E-06 0.00000E+00
 -1       566 9.46476E-05 7.10218E-06-3.30872E-24
 -1       567 9.53507E-05 4.95433E-06-7.23783E-25
 -1       568 9.59883E-05 2.98217E-06 0.00000E+00
 -1       569 9.64962E-05 1.35798E-06 0.00000E+00
 -1       570 9.68099E-05 2.53969E-07 0.00000E+00
 -1       571 1.01768E-04-2.63481E-07 2.48154E-24
 -1       572 1.01914E-04-9.86807E-08-1.24077E-24
 -1       573 1.02061E-04-1.05426E-08-1.65436E-24
 -1       574 1.02208E-04 1.88997E-08 0.00000E+00
 -1       575 1.02355E-04 7.68640E-09-3.30872E-24
 -1       576 1.02503E-04-2.60285E-08 1.65436E-24
 -1       577 1.02650E-04-6.40817E-08 0.00000E+00
 -1       578 1.02798E-04-8.82949E-08 0.00000E+00
 -1       579 1.02945E-04-8.04887E-08 0.00000E+00
 -1       580 1.03093E-04-2.24811E-08 0.00000E+00
 -1       581 1.03240E-04 1.03908E-07 0.00000E+00
 -1       582 1.03388E-04 3.16846E-07 3.30872E-24
 -1       583 1.03535E-04 6.34484E-07 0.00000E+00
 -1       584 1.03682E-04 1.07479E-06 0.00000E+00
 -1       585 1.03829E-04 1.65565E-06 0.00000E+00
 -1       586 1.00891E-04-4.60171E-07 0.00000E+00
 -1       587 1.00049E-04-3.98633E-07-1.65436E-24
 -1       588 9.91627E-05-3.37345E-07 8.27181E-25
 -1       589 9.82953E-05-2.76608E-07-8.27181E-25
 -1       590 9.75099E-05-2.16915E-07 0.00000E+00
 -1       591 1.01430E-04-2.08083E-07-8.27181E-25
 -1       592 1.01255E-04 3.31555E-08 8.27181E-25
 -1       593 1.01100E-04 2.16320E-07 0.00000E+00
 -1       594 1.00961E-04 3.54443E-07 0.00000E+00
 -1       595 1.00834E-04 4.60660E-07 3.30872E-24
 -1       596 1.00714E-04 5.48003E-07 8.27181E-25
 -1       597 1.00596E-04 6.29494E-07-1.65436E-24
 -1       598 1.00476E-04 7.18144E-07-8.27181E-25
 -1       599 1.00347E-04 8.26961E-07 0.00000E+00
 -1       600 1.00207E-04 9.68951E-07-8.27181E-25
 -1       601 1.00049E-04 1.15711E-06 0.00000E+00
 -1       602 9.98692E-05 1.40446E-06 4.13590E-25
 -1       603 9.96623E-05 1.72400E-06 0.00000E+00
 -1       604 9.94242E-05 2.12882E-06 3.10193E-25
 -1       605 9.91499E-05 2.63191E-06 0.00000E+00
 -1       606 1.04020E-04 3.41339E-06 0.00000E+00
 -1       607 1.04061E-04 4.57231E-06 0.00000E+00
 -1       608 1.04101E-04 5.86209E-06 0.00000E+00
 -1       609 1.04140E-04 7.27341E-06 0.00000E+00
 -1       610 1.04179E-04 8.79694E-06 6.61744E-24
 -1       611 1.04217E-04 1.04232E-05 1.65436E-24
 -1       612 1.04256E-04 1.21426E-05 0.00000E+00
 -1       613 1.04294E-04 1.39457E-05-1.65436E-24
 -1       614 1.04332E-04 1.58230E-05 0.00000E+00
 -1       615 1.04370E-04 1.77650E-05 0.00000E+00
 -1       616 1.04408E-04 1.97621E-05-3.30872E-24
 -1       617 1.04445E-04 2.18049E-05-3.30872E-24
 -1       618 1.04483E-04 2.38838E-05 0.00000E+00
 -1       619 1.04521E-04 2.59893E-05 0.00000E+00
 -1       620 1.04558E-04 2.81120E-05 0.00000E+00
 -1       621 1.03054E-04 2.53661E-06 3.30872E-24
 -1       622 1.02148E-04 2.68005E-06-1.65436E-24
 -1       623 1.01266E-04 2.82343E-06 0.00000E+00
 -1       624 1.00415E-04 2.96647E-06 0.00000E+00
 -1       625 9.96036E-05 3.10893E-06-3.30872E-24
 -1       626 1.03714E-04 3.48076E-06 0.00000E+00
 -1       627 1.03398E-04 4.71056E-06 0.00000E+00
 -1       628 1.03034E-04 6.06934E-06 0.00000E+00
 -1       629 1.02627E-04 7.54225E-06-6.61744E-24
 -1       630 1.02182E-04 9.11443E-06 0.00000E+00
 -1       631 1.01706E-04 1.07708E-05 3.30872E-24
 -1       632 1.01203E-04 1.24965E-05 0.00000E+00
 -1       633 1.00680E-04 1.42763E-05-3.30872E-24
 -1       634 1.00143E-04 1.60953E-05 6.61744E-24
 -1       635 9.95962E-05 1.79385E-05 0.00000E+00
 -1       636 9.90459E-05 1.97909E-05 3.30872E-24
 -1       637 9.84979E-05 2.16375E-05 1.65436E-24
 -1       638 9.79575E-05 2.34631E-05 3.30872E-24
 -1       639 9.74302E-05 2.52528E-05 1.65436E-24
 -1       640 9.69211E-05 2.69916E-05 0.00000E+00
 -1       641 1.04561E-04 3.27635E-05-1.03398E-25
 -1       642 1.04522E-04 3.61395E-05 0.00000E+00
 -1       643 1.04481E-04 4.01410E-05 0.00000E+00
 -1       644 1.04438E-04 4.45376E-05-4.13590E-25
 -1       645 1.04395E-04 4.89907E-05 8.27181E-25
 -1       646 1.04353E-04 5.31619E-05 0.00000E+00
 -1       647 1.04313E-04 5.67901E-05 8.27181E-25
 -1       648 1.04275E-04 5.96149E-05-4.13590E-25
 -1       649 1.04239E-04 6.15968E-05-8.27181E-25
 -1       650 1.04205E-04 6.26976E-05 4.13590E-25
 -1       651 1.04171E-04 6.31212E-05 0.00000E+00
 -1       652 1.04137E-04 6.30726E-05 0.00000E+00
 -1       653 1.04103E-04 6.28864E-05-1.65436E-24
 -1       654 1.04067E-04 6.28974E-05-8.27181E-25
 -1       655 1.04032E-04 6.33853E-05 3.30872E-24
 -1       656 1.02751E-04 2.99859E-05-3.30872E-24
 -1       657 1.01300E-04 2.97185E-05-3.30872E-24
 -1       658 1.00094E-04 2.94520E-05-6.61744E-24
 -1       659 9.89819E-05 2.91858E-05 0.00000E+00
 -1       660 9.78117E-05 2.89187E-05 3.30872E-24
 -1       661 1.03936E-04 3.24204E-05-3.30872E-24
 -1       662 1.03265E-04 3.46499E-05 0.00000E+00
 -1       663 1.02579E-04 3.69155E-05 0.00000E+00
 -1       664 1.01886E-04 3.92041E-05 0.00000E+00
 -1       665 1.01189E-04 4.15020E-05 0.00000E+00
 -1       666 1.00494E-04 4.37959E-05-1.65436E-24
 -1       667 9.98055E-05 4.60724E-05 3.30872E-24
 -1       668 9.91287E-05 4.83180E-05 0.00000E+00
 -1       669 9.84685E-05 5.05194E-05-3.30872E-24
 -1       670 9.78301E-05 5.26630E-05-1.65436E-24
 -1       671 9.72186E-05 5.47352E-05 3.30872E-24
 -1       672 9.66389E-05 5.67224E-05 0.00000E+00
 -1       673 9.60963E-05 5.86108E-05 3.30872E-24
 -1       674 9.55949E-05 6.03862E-05 1.65436E-24
 -1       675 9.51414E-05 6.20350E-05-1.65436E-24
 -1       676 1.02368E-04 6.44465E-05 0.00000E+00
 -1       677 1.00758E-04 6.42635E-05 0.00000E+00
 -1       678 9.91759E-05 6.40806E-05 0.00000E+00
 -1       679 9.76351E-05 6.38985E-05 0.00000E+00
 -1       680 9.61493E-05 6.37165E-05-3.30872E-24
 -1       716 3.14451E-05 4.08604E-06-2.06795E-25
 -1       717 3.14392E-05 7.39615E-06 0.00000E+00
 -1       718 3.14383E-05 8.25381E-06 0.00000E+00
 -1       719 3.14372E-05 7.08198E-06 2.58494E-26
 -1       720 3.14331E-05 4.30942E-06 5.16988E-26
 -1       721 3.14253E-05 3.64977E-07 0.00000E+00
 -1       722 3.14145E-05-4.31931E-06 1.03398E-25
 -1       723 3.14021E-05-9.31152E-06-5.16988E-26
 -1       724 3.13902E-05-1.41788E-05 2.06795E-25
 -1       725 3.13805E-05-1.84884E-05 2.06795E-25
 -1       726 3.13740E-05-2.18094E-05 0.00000E+00
 -1       727 3.13694E-05-2.37109E-05-8.27181E-25
 -1       728 3.13660E-05-2.37697E-05-3.30872E-24
 -1       729 3.13515E-05-2.15621E-05 0.00000E+00
 -1       730 3.13307E-05-1.67004E-05 0.00000E+00
 -1       766 2.18149E-05-8.89340E-06 0.00000E+00
 -1       767 1.23851E-05-8.94491E-06 3.30872E-24
 -1       768 2.95523E-06-8.99944E-06 0.00000E+00
 -1       769-6.47473E-06-9.04513E-06 8.27181E-25
 -1       770-1.59046E-05-9.09064E-06 0.00000E+00
 -1       771 2.65166E-05-8.83036E-07 5.29396E-23
 -1       772 2.23421E-05 5.53910E-06 2.64698E-23
 -1       773 1.86972E-05 1.05691E-05 5.29396E-23
 -1       774 1.55407E-05 1.43114E-05-2.64698E-23
 -1       775 1.28316E-05 1.68726E-05-5.29396E-23
 -1       776 1.05272E-05 1.83630E-05 0.00000E+00
 -1       777 8.58409E-06 1.88949E-05-5.29396E-23
 -1       778 6.95818E-06 1.85830E-05-2.64698E-23
 -1       779 5.60516E-06 1.75438E-05-5.29396E-23
 -1       780 4.48012E-06 1.58959E-05 2.64698E-23
 -1       781 3.53805E-06 1.37589E-05 0.00000E+00
 -1       782 2.73366E-06 1.12538E-05 0.00000E+00
 -1       783 2.02159E-06 8.50237E-06 0.00000E+00
 -1       784 1.35704E-06 5.62734E-06 0.00000E+00
 -1       785 6.94659E-07 2.75141E-06 0.00000E+00
 -1       786 9.69850E-05 8.76820E-08-1.65436E-24
 -1       787 9.71081E-05 2.68611E-07 0.00000E+00
 -1       788 9.72309E-05 3.95294E-07 0.00000E+00
 -1       789 9.73547E-05 4.81337E-07 1.65436E-24
 -1       790 9.74787E-05 5.40203E-07 0.00000E+00
 -1       791 9.76029E-05 5.85299E-07-1.65436E-24
 -1       792 9.77271E-05 6.29981E-07-3.30872E-24
 -1       793 9.78513E-05 6.87605E-07 0.00000E+00
 -1       794 9.79756E-05 7.71572E-07 0.00000E+00
 -1       795 9.80999E-05 8.95343E-07 1.65436E-24
 -1       796 9.82241E-05 1.07251E-06-3.30872E-24
 -1       797 9.83482E-05 1.31681E-06 0.00000E+00
 -1       798 9.84723E-05 1.64217E-06 0.00000E+00
 -1       799 9.85958E-05 2.06273E-06 0.00000E+00
 -1       800 9.87194E-05 2.59296E-06 0.00000E+00
 -1       801 8.93255E-05-1.17631E-08 0.00000E+00
 -1       802 7.07322E-05 1.40586E-08 0.00000E+00
 -1       803 4.68032E-05-6.02576E-08-1.03398E-25
 -1       804 2.32360E-05-1.35210E-07 3.30872E-24
 -1       805 5.72756E-06-9.95219E-08 2.64698E-23
 -1       806 9.66530E-05 2.51005E-08 0.00000E+00
 -1       807 9.64451E-05 1.77835E-07-1.65436E-24
 -1       808 9.62446E-05 3.07520E-07 0.00000E+00
 -1       809 9.60485E-05 4.23902E-07-1.65436E-24
 -1       810 9.58536E-05 5.36687E-07 0.00000E+00
 -1       811 9.56563E-05 6.55508E-07 0.00000E+00
 -1       812 9.54531E-05 7.89986E-07 3.30872E-24
 -1       813 9.52405E-05 9.49733E-07 0.00000E+00
 -1       814 9.50147E-05 1.14436E-06 3.30872E-24
 -1       815 9.47722E-05 1.38346E-06-8.27181E-25
 -1       816 9.45094E-05 1.67664E-06-3.30872E-24
 -1       817 9.42228E-05 2.03348E-06 8.27181E-25
 -1       818 9.39087E-05 2.46357E-06-3.30872E-24
 -1       819 9.35638E-05 2.97643E-06-1.65436E-24
 -1       820 9.31847E-05 3.58157E-06 1.65436E-24
 -1       821 9.86989E-05 4.07352E-06 0.00000E+00
 -1       822 9.85490E-05 5.09809E-06-1.65436E-24
 -1       823 9.83993E-05 6.30191E-06 0.00000E+00
 -1       824 9.82479E-05 7.66510E-06 1.65436E-24
 -1       825 9.80962E-05 9.16715E-06 0.00000E+00
 -1       826 9.79441E-05 1.07871E-05 0.00000E+00
 -1       827 9.77917E-05 1.25036E-05-3.30872E-24
 -1       828 9.76392E-05 1.42949E-05 1.65436E-24
 -1       829 9.74866E-05 1.61391E-05-3.30872E-24
 -1       830 9.73340E-05 1.80140E-05 0.00000E+00
 -1       831 9.71814E-05 1.98973E-05 3.30872E-24
 -1       832 9.70291E-05 2.17668E-05 1.65436E-24
 -1       833 9.68770E-05 2.36002E-05-3.30872E-24
 -1       834 9.67263E-05 2.53755E-05 1.65436E-24
 -1       835 9.65755E-05 2.70706E-05-1.65436E-24
 -1       836 9.79823E-05 3.41947E-06 0.00000E+00
 -1       837 9.69804E-05 3.59631E-06 0.00000E+00
 -1       838 9.58961E-05 3.77294E-06 0.00000E+00
 -1       839 9.47915E-05 3.94877E-06 1.65436E-24
 -1       840 9.37287E-05 4.12421E-06 0.00000E+00
 -1       841 9.85565E-05 4.15468E-06-1.65436E-24
 -1       842 9.81472E-05 5.39524E-06 8.27181E-25
 -1       843 9.76535E-05 6.85998E-06 0.00000E+00
 -1       844 9.71164E-05 8.44007E-06 0.00000E+00
 -1       845 9.65500E-05 1.00975E-05 1.65436E-24
 -1       846 9.59688E-05 1.17946E-05 8.27181E-25
 -1       847 9.53778E-05 1.35174E-05 0.00000E+00
 -1       848 9.47821E-05 1.52526E-05 0.00000E+00
 -1       849 9.41843E-05 1.69937E-05 0.00000E+00
 -1       850 9.35865E-05 1.87342E-05 0.00000E+00
 -1       851 9.29913E-05 2.04681E-05 0.00000E+00
 -1       852 9.24008E-05 2.21886E-05 8.27181E-25
 -1       853 9.18207E-05 2.38816E-05 0.00000E+00
 -1       854 9.12552E-05 2.55322E-05 0.00000E+00
 -1       855 9.07211E-05 2.71007E-05 0.00000E+00
 -1       856 9.63342E-05 3.03319E-05 8.27181E-25
 -1       857 9.62289E-05 3.22242E-05 8.27181E-25
 -1       858 9.61233E-05 3.43079E-05-3.30872E-24
 -1       859 9.60165E-05 3.65495E-05 0.00000E+00
 -1       860 9.59092E-05 3.89157E-05-3.30872E-24
 -1       861 9.58015E-05 4.13728E-05 1.65436E-24
 -1       862 9.56936E-05 4.38871E-05 0.00000E+00
 -1       863 9.55857E-05 4.64250E-05-1.65436E-24
 -1       864 9.54778E-05 4.89528E-05-3.30872E-24
 -1       865 9.53699E-05 5.14367E-05 0.00000E+00
 -1       866 9.52623E-05 5.38432E-05 0.00000E+00
 -1       867 9.51550E-05 5.61384E-05 0.00000E+00
 -1       868 9.50480E-05 5.82891E-05 0.00000E+00
 -1       869 9.49417E-05 6.02617E-05 0.00000E+00
 -1       870 9.48357E-05 6.20229E-05 3.30872E-24
 -1       871 9.51848E-05 2.86479E-05 0.00000E+00
 -1       872 9.41362E-05 2.86293E-05 0.00000E+00
 -1       873 9.32021E-05 2.86101E-05 0.00000E+00
 -1       874 9.22963E-05 2.85902E-05 0.00000E+00
 -1       875 9.13328E-05 2.85695E-05 1.65436E-24
 -1       876 9.60082E-05 3.03564E-05 3.30872E-24
 -1       877 9.55369E-05 3.21925E-05 0.00000E+00
 -1       878 9.50189E-05 3.41528E-05 6.61744E-24
 -1       879 9.44616E-05 3.62199E-05-3.30872E-24
 -1       880 9.38709E-05 3.83761E-05 0.00000E+00
 -1       881 9.32532E-05 4.06041E-05-3.30872E-24
 -1       882 9.26150E-05 4.28866E-05-6.61744E-24
 -1       883 9.19629E-05 4.52062E-05 0.00000E+00
 -1       884 9.13031E-05 4.75456E-05-6.61744E-24
 -1       885 9.06424E-05 4.98878E-05 3.30872E-24
 -1       886 8.99871E-05 5.22153E-05 6.61744E-24
 -1       887 8.93436E-05 5.45110E-05 0.00000E+00
 -1       888 8.87184E-05 5.67576E-05 0.00000E+00
 -1       889 8.81170E-05 5.89374E-05 0.00000E+00
 -1       890 8.75469E-05 6.10333E-05 3.30872E-24
 -1       891 9.34911E-05 6.34545E-05 3.30872E-24
 -1       892 9.23547E-05 6.33681E-05 0.00000E+00
 -1       893 9.12305E-05 6.32818E-05 1.65436E-24
 -1       894 9.00259E-05 6.31956E-05 0.00000E+00
 -1       895 8.86482E-05 6.31091E-05-8.27181E-25
 -1       956 9.26147E-05 5.25751E-06 1.65436E-24
 -1       957 9.24567E-05 6.37902E-06-8.27181E-25
 -1       958 9.22980E-05 7.63657E-06 0.00000E+00
 -1       959 9.21389E-05 9.01307E-06 8.27181E-25
 -1       960 9.19795E-05 1.04915E-05 6.61744E-24
 -1       961 9.18199E-05 1.20545E-05 3.30872E-24
 -1       962 9.16602E-05 1.36849E-05-6.61744E-24
 -1       963 9.15004E-05 1.53654E-05 0.00000E+00
 -1       964 9.13406E-05 1.70788E-05-6.61744E-24
 -1       965 9.11808E-05 1.88079E-05 0.00000E+00
 -1       966 9.10209E-05 2.05352E-05-6.61744E-24
 -1       967 9.08611E-05 2.22437E-05-3.30872E-24
 -1       968 9.07015E-05 2.39159E-05 0.00000E+00
 -1       969 9.05422E-05 2.55348E-05 0.00000E+00
 -1       970 9.03833E-05 2.70831E-05 0.00000E+00
 -1       971 9.00296E-05 3.00361E-05 0.00000E+00
 -1       972 8.98287E-05 3.17308E-05-3.30872E-24
 -1       973 8.96274E-05 3.36047E-05 6.61744E-24
 -1       974 8.94254E-05 3.56330E-05-3.30872E-24
 -1       975 8.92230E-05 3.77913E-05-6.61744E-24
 -1       976 8.90203E-05 4.00549E-05-3.30872E-24
 -1       977 8.88173E-05 4.23990E-05 0.00000E+00
 -1       978 8.86143E-05 4.47989E-05 0.00000E+00
 -1       979 8.84112E-05 4.72297E-05 0.00000E+00
 -1       980 8.82080E-05 4.96665E-05-3.30872E-24
 -1       981 8.80051E-05 5.20846E-05-6.61744E-24
 -1       982 8.78023E-05 5.44589E-05-3.30872E-24
 -1       983 8.76000E-05 5.67648E-05-6.61744E-24
 -1       984 8.73988E-05 5.89775E-05 0.00000E+00
 -1       985 8.71981E-05 6.10722E-05 3.30872E-24
 -3
    1PSTEP                         2           1           1          
  100CL  101 1.000000000         593                     0    1           1
 -4  STRESS      6    1
 -5  SXX         1    4    1    1
 -5  SYY         1    4    2    2
 -5  SZZ         1    4    3    3
 -5  SXY         1    4    1    2
 -5  SYZ         1    4    2    3
 -5  SZX         1    4    3    1
 -1         1-4.89326E+06-1.60015E+06-1.04876E+06-1.47981E+06-3.18202E-09-2.25070E-09
 -1         2-2.78648E+06-4.89529E+05-1.28542E+05-2.63444E+05-1.02305E-08-1.65492E-08
 -1         3-2.24989E+06-7.93182E+05-2.76468E+05 4.00857E+04 3.70164E-08 2.74842E-09
 -1         4-1.84442E+06-1.75670E+05-1.11971E+02-1.67316E+05 1.83487E-09-8.15845E-11
 -1         5-1.08200E+06-5.26187E+04-3.38729E+05-1.07928E+04 5.30272E-08 5.00734E-09
 -1         8-2.73926E+06-1.22666E+06-4.18717E+05-1.54875E+06 9.60426E-10-7.95505E-10
 -1         9-2.28333E+06-8.26522E+05-2.74135E+05-8.11377E+05 4.60277E-09-1.82772E-09
 -1        10-4.42910E+05-8.33789E+05 6.17030E+04-2.36681E+05 4.63660E-09-1.03284E-09
 -1        11 4.14041E+03 4.72803E+03 7.01350E+03-7.92643E+02 1.23729E-09-5.19651E-09
 -1        12-4.89595E+05 3.78054E+04-2.02576E+05-1.35479E+05 3.62095E-08-4.47002E-08
 -1        15 7.06753E+03 6.59436E+03 7.50460E+03-2.52916E+03-2.51909E-10 1.32923E-08
 -1        16-3.24556E+06-9.01094E+05-1.69591E+05-1.12663E+06 4.00614E-09 2.24489E-08
 -1        17-9.27771E+05-7.84353E+05-1.54864E+05-6.85205E+05-7.84348E-09-8.54488E-09
 -1        18 8.40716E+04 1.91100E+04-1.73052E+04-1.44917E+05 8.91305E-10-5.29326E-10
 -1        19 1.72841E+05 2.02944E+05-1.30223E+03 9.04019E+03-1.62581E-09-4.19095E-09
 -1        20 4.40285E+04-1.74137E+05-4.14466E+04 5.79908E+04 5.11068E-09 3.78805E-09
 -1        21-4.40912E+04-2.09001E+05 4.87162E+04-4.72798E+03 2.63830E-08-9.48781E-09
 -1        23 1.08405E+04 1.05722E+04 1.27051E+04-2.90434E+03 4.21100E-09-9.29811E-09
 -1        24-2.22815E+06-6.71215E+05 7.97154E+04-1.14625E+06-1.02649E-08 3.55067E-10
 -1        25 6.70754E+04 1.19722E+05 4.92159E+04-5.80846E+05 1.77552E-09 4.60932E-09
 -1        26-5.26403E+02 1.19973E+05-7.97244E+03-1.90654E+04 1.46215E-09-3.50347E-09
 -1        27-4.33731E+04-1.31460E+05-6.05549E+04 1.06241E+05 7.49878E-09 6.09361E-10
 -1        28-5.06539E+03-1.55701E+05 4.51239E+02 5.36701E+04 2.77578E-09 9.14353E-09
 -1        31 7.23569E+03 3.91318E+03 2.24568E+04 3.00820E+01 1.48552E-08 2.37013E-08
 -1        32-1.30443E+06 9.18441E+03 4.37880E+05-1.82073E+06-1.33878E-09 5.48425E-10
 -1        33-1.89735E+05 1.27682E+05 4.06128E+04-5.55134E+04 2.72848E-10-3.16504E-10
 -1        34-2.02621E+05-3.38660E+03 2.48726E+04 8.14317E+04-3.21840E-09-1.90458E-08
 -1        35-4.04269E+04-5.01044E+04-1.90168E+03 9.15869E+04 2.77235E-09-3.03286E-09
 -1        36-5.77403E+06 1.75118E+05-4.02139E+05 1.53422E-06 5.77283E-09 9.60426E-10
 -1        37-5.94866E+06-2.02610E+05-2.85034E+05 1.24531E-06-2.87577E-09-7.02130E-10
 -1        38-5.84120E+06 2.75219E+04-1.03902E+05 4.74342E-07-1.22008E-08-8.95670E-09
 -1        39-5.86978E+06-3.18410E+04-6.54284E+04 2.50541E-07-8.03813E-09-8.78208E-09
 -1        40-5.85223E+06 4.31760E+03-2.66541E+04 1.09113E-06-2.34488E-08-1.63545E-08
 -1        41-5.85672E+06-5.06021E+03-1.59463E+04 1.22169E-06-1.31352E-08 8.76366E-09
 -1        42-5.85404E+06 7.42150E+02-7.80186E+03 8.61727E-07-1.40741E-08 4.35693E-09
 -1        43-5.85477E+06-1.31949E+03-6.25179E+03-1.64085E-07-8.33482E-10-9.52525E-09
 -1        44-5.85414E+06 5.77224E+02-6.35441E+03-2.09292E-07-8.56578E-09 5.60010E-09
 -1        45-5.85596E+06-3.64580E+03-1.17434E+04 6.28464E-07 1.02720E-09 3.69937E-10
 -1        46-5.85288E+06 3.06821E+03-1.90990E+04 9.68911E-07-5.67772E-09 6.23641E-09
 -1        47-5.86518E+06-2.25790E+04-4.64859E+04 9.63218E-07-2.63087E-09 1.09867E-08
 -1        48-5.84507E+06 1.95091E+04-7.37091E+04-2.46910E-07-1.46490E-09 1.45519E-10
 -1        49-5.92109E+06-1.43620E+05-2.02077E+05-1.19194E-06-1.45551E-08 1.10595E-09
 -1        50-5.79751E+06 1.24117E+05-2.85209E+05 8.59382E-07-2.90633E-08 2.77942E-09
 -1        51 3.08180E+04-6.58803E+05 6.25581E+04-1.77955E+06-2.91038E-10-1.29221E-08
 -1        52 2.24834E+04-6.64963E+05 4.36911E+04-1.99836E+06 3.34694E-10-1.44792E-08
 -1        53 2.13731E+04-6.93358E+05 4.07019E+04-1.77401E+06-1.16415E-10-1.46683E-08
 -1        54 5.19679E+04-6.94877E+05 6.98696E+04-2.00385E+06-9.60426E-10 6.91944E-09
 -1        55 1.01605E+05-7.21918E+05 1.29429E+05-1.77252E+06 8.73115E-11-7.31961E-09
 -1        56-8.07061E+06-9.18018E+05-6.85423E+05-3.17940E+06-1.10595E-09 4.07454E-10
 -1        57-8.52613E+06-1.39067E+06-4.66822E+05-2.93892E+06-3.51065E-10-4.80213E-10
 -1        58-8.15900E+06-1.19401E+06-1.60375E+05-3.18553E+06 3.78350E-10 2.04454E-09
 -1        59-8.40761E+06-1.08288E+06-9.72730E+04-2.94924E+06 3.04317E-09 1.98088E-09
 -1        60-8.18842E+06-1.22075E+06-3.77088E+04-3.17100E+06-8.63679E-10 4.43288E-09
 -1        61-8.31570E+06-1.10447E+06-2.03740E+04-3.02233E+06-1.47475E-09-2.05464E-08
 -1        62-8.24822E+06-1.17345E+06-1.17742E+04-3.11079E+06 5.68070E-09-2.13904E-08
 -1        63-8.19973E+06-1.21084E+06-7.23082E+03-3.14958E+06 7.75890E-09 1.03935E-08
 -1        64-8.30383E+06-1.11466E+06-1.05700E+04-3.04340E+06-1.33332E-09 4.29611E-09
 -1        65-8.13267E+06-1.29238E+06-2.01495E+04-3.24086E+06-9.03810E-10 1.44450E-08
 -1        66-8.31775E+06-1.09017E+06-3.52839E+04-3.02134E+06 7.55335E-10 4.05635E-09
 -1        67-8.16868E+06-1.31524E+06-9.16700E+04-3.21637E+06-1.91449E-09-1.57961E-08
 -1        68-8.26769E+06-1.09285E+06-1.52844E+05-3.06739E+06 2.77760E-09 1.20053E-09
 -1        69-8.40940E+06-1.47587E+06-4.41042E+05-3.05610E+06 7.34872E-10 1.87429E-08
 -1        70-8.07700E+06-9.34905E+05-6.48772E+05-3.17924E+06-1.64437E-09 4.71482E-09
 -1        71-2.69218E+06 2.18769E+03-5.04364E+03 1.26699E-06-1.62651E-09-1.51431E-10
 -1        72-2.69413E+06-2.53258E+03-3.57829E+03 3.86624E-08 3.52088E-10 1.20178E-08
 -1        73-2.69302E+06 3.44428E+02-1.32485E+03-2.40104E-07-3.62934E-09 8.92601E-09
 -1        74-2.69315E+06-4.01828E+02-8.67265E+02-3.11981E-07-4.55397E-09 3.64042E-09
 -1        75-2.69316E+06 5.73356E+01-4.25059E+02-1.37778E-06-8.03342E-09 1.11165E-08
 -1        76-2.69300E+06-8.89684E+01-3.93921E+02 2.03613E-06-3.74896E-09 2.03356E-08
 -1        77-2.69317E+06 3.16235E+01-4.60846E+02 1.38141E-06-2.19551E-09 2.01420E-08
 -1        78-2.69306E+06-1.84289E+02-8.78615E+02 4.35848E-07 8.07483E-12 8.21575E-09
 -1        79-2.69310E+06 1.52649E+02-1.52888E+03-1.84579E-06-8.68957E-09 1.08662E-09
 -1        80-2.69356E+06-1.12689E+03-3.49131E+03-3.61290E-06-1.21551E-08 1.12285E-08
 -1        81-2.69268E+06 9.74090E+02-5.99336E+03 6.50946E-07-1.53619E-09-2.70416E-09
 -1        82-2.69652E+06-7.19742E+03-1.48060E+04-4.14539E-07-3.87842E-09-1.71804E-08
 -1        83-2.69017E+06 6.22236E+03-2.35510E+04-1.97952E-06-5.62768E-09-8.04357E-09
 -1        84-2.71433E+06-4.58092E+04-6.45317E+04 7.71693E-07-9.76841E-09-1.26392E-08
 -1        85-2.67495E+06 3.95817E+04-9.11362E+04 3.84423E-07-9.47744E-09 2.99769E-09
 -1        86-7.93355E+04-6.29497E+05 1.85755E+05 2.61721E+02-6.54836E-11 8.69514E-09
 -1        87 9.86053E+04-5.42322E+05 1.43971E+05-7.18612E+01-1.46792E-09 1.16140E-08
 -1        88-1.92259E+04-6.01642E+05 7.19424E+04 4.68903E+03-1.85355E-09 9.32576E-09
 -1        89 6.51906E+04-5.59432E+05 1.00194E+05-6.45209E+03-1.12050E-09-1.25334E-09
 -1        90-4.59150E+04-6.12486E+05 1.11285E+05 6.64224E+03-3.23053E-09 5.22334E-09
 -1        91-2.94998E+06-3.90247E+05-6.26171E+04-1.11714E+06-4.21849E-05 1.57779E-05
 -1        92-2.98233E+06-4.48530E+05-4.35059E+04-1.10667E+06-8.42448E-05 3.16193E-05
 -1        93-2.96229E+06-4.13304E+05-1.46649E+04-1.11336E+06-2.45529E-05 9.21982E-06
 -1        94-2.96761E+06-4.22183E+05-9.20591E+03-1.11139E+06 3.51296E-05-1.31797E-05
 -1        95-2.96463E+06-4.16582E+05-3.48206E+03-1.11239E+06 1.73640E-07-6.86770E-08
 -1        96-2.96520E+06-4.18114E+05-2.18676E+03-1.11215E+06-3.47609E-05 1.30461E-05
 -1        97-2.96469E+06-4.17371E+05-1.20304E+03-1.11260E+06 1.32698E-05-4.96693E-06
 -1        98-2.96475E+06-4.17918E+05-1.45013E+03-1.11245E+06 6.12719E-05-2.29813E-05
 -1        99-2.96508E+06-4.16777E+05-2.04696E+03-1.11209E+06-4.77163E-05 1.78969E-05
 -1       100-2.96622E+06-4.18759E+05-4.80476E+03-1.11147E+06-1.56623E-04 5.87325E-05
 -1       101-2.96322E+06-4.16531E+05-8.19154E+03-1.11358E+06-7.84404E-05 2.94290E-05
 -1       102-2.97023E+06-4.30167E+05-2.19793E+04-1.11133E+06-5.57791E-08 6.43013E-09
 -1       103-2.96111E+06-4.05377E+05-3.52922E+04-1.11224E+06 4.10637E-09 1.68075E-09
 -1       104-3.00818E+06-4.88882E+05-1.04141E+05-1.09457E+06-1.48943E-08 3.71074E-09
 -1       105-2.92541E+06-3.57843E+05-1.50961E+05-1.13040E+06-8.90577E-09-2.52476E-09
 -1       106-3.93416E+06 8.89666E+04-2.04641E+05-1.42738E-06 3.61114E-08-4.38013E-09
 -1       107-4.02283E+06-1.02954E+05-1.44964E+05-1.27660E-06-7.68815E-10 6.43922E-09
 -1       108-3.96832E+06 1.39849E+04-5.29029E+04 2.79589E-07 3.97933E-09 6.12636E-09
 -1       109-3.98278E+06-1.61819E+04-3.33213E+04-3.55625E-06 4.52034E-09-9.98079E-09
 -1       110-3.97395E+06 2.19526E+03-1.36106E+04-1.34105E-06-3.17479E-09 2.29647E-09
 -1       111-3.97615E+06-2.57988E+03-8.18825E+03 1.36562E-06-6.53287E-09-6.81439E-09
 -1       112-3.97487E+06 3.84338E+02-4.09573E+03-4.85239E-07-2.71391E-10-4.47358E-10
 -1       113-3.97519E+06-7.24359E+02-3.44474E+03-1.53957E-06-2.07756E-09 1.72619E-08
 -1       114-3.97490E+06 3.39955E+02-3.70491E+03-2.02934E-06-1.80244E-09 9.94419E-10
 -1       115-3.97595E+06-2.19923E+03-7.05426E+03-1.33007E-06-5.89047E-10-1.80477E-08
 -1       116-3.97412E+06 1.85901E+03-1.15722E+04 2.55523E-07-1.26681E-08-1.86037E-09
 -1       117-3.98154E+06-1.36896E+04-2.82152E+04 2.19627E-06-1.94988E-10-4.61660E-09
 -1       118-3.96937E+06 1.18290E+04-4.47623E+04-1.33738E-07-9.80385E-09-2.88492E-09
 -1       119-4.01541E+06-8.70803E+04-1.22623E+05-1.20311E-06 6.30184E-09-6.48288E-09
 -1       120-3.94048E+06 7.52479E+04-1.73116E+05-1.41678E-06-2.13237E-09-6.72298E-09
 -1       121-3.31903E+03-1.51879E+06 1.37860E+04 2.73309E+04-1.77351E-10 4.90445E-09
 -1       122 4.51199E+03-1.51333E+06 9.56224E+03 1.19786E+05 1.77124E-10-1.52450E-08
 -1       123-6.59858E+02-1.51677E+06 5.02053E+03 2.78034E+04-2.21303E-09 5.72436E-09
 -1       124 2.14608E+03-1.51362E+06 6.02448E+03 1.18021E+05-1.09321E-09 1.77897E-09
 -1       125-2.11443E+03-1.51734E+06 6.85339E+03 2.90942E+04-6.66932E-09-6.64113E-09
 -1       141-2.07390E+06 2.09509E+03-4.83775E+03-5.36377E-07-2.64252E-09-1.05724E-08
 -1       142-2.07581E+06-2.42616E+03-3.44568E+03-8.34151E-07 6.83509E-09-8.64588E-11
 -1       143-2.07471E+06 3.30650E+02-1.30634E+03-2.22104E-06 3.29304E-09-2.35769E-09
 -1       144-2.07488E+06-3.91218E+02-9.09470E+02-2.15730E-06-2.87258E-09 4.92537E-09
 -1       145-2.07483E+06 6.05044E+01-5.57944E+02-2.44703E-06-8.65375E-10-1.38392E-09
 -1       146-2.07476E+06-1.27928E+02-6.99994E+02-1.12143E-06-2.16715E-09-6.70518E-10
 -1       147-2.07482E+06 6.74142E+01-1.04553E+03-4.58645E-07-2.29153E-09-4.30708E-09
 -1       148-2.07496E+06-4.55291E+02-2.17325E+03-6.00289E-07 7.34815E-10-6.87328E-09
 -1       149-2.07464E+06 3.87837E+02-3.87612E+03-3.31403E-07 5.45265E-10 7.88486E-09
 -1       150-2.07624E+06-2.87581E+03-8.90712E+03 1.33971E-07-7.50232E-09-6.17183E-09
 -1       151-2.07355E+06 2.48766E+03-1.53117E+04 1.09566E-07-2.48097E-09 6.61021E-09
 -1       152-2.08379E+06-1.83821E+04-3.78311E+04 6.10748E-07 2.01864E-09 8.07313E-09
 -1       153-2.06713E+06 1.58927E+04-6.01713E+04 3.73133E-07 1.03495E-08 5.46061E-09
 -1       154-2.12927E+06-1.16998E+05-1.64846E+05-5.31599E-07 1.99374E-09-2.60115E-09
 -1       155-2.02818E+06 1.01105E+05-2.32660E+05 2.27117E-07 2.91843E-08-5.60249E-09
 -1       156-7.75837E+04-3.65042E+04 1.78689E+05 4.02058E+02 7.71252E-10 6.92452E-09
 -1       157 8.99024E+04 4.25560E+04 1.26674E+05-1.39536E+03 1.65164E-09 8.83153E-09
 -1       158-1.22883E+04-6.12405E+03 4.60865E+04 3.22124E+02 3.20688E-09-1.50077E-09
 -1       159 1.49114E+04 7.38414E+03 2.90857E+04-1.32092E+03 1.22782E-09-1.54336E-08
 -1       160-2.61593E+03-1.38460E+03 1.11083E+04 3.27672E+02 3.80396E-09 2.61384E-09
 -1       161-1.77983E+06-2.50192E+05-8.68726E+02-6.67899E+05-4.48459E-05 1.68198E-05
 -1       162-1.77974E+06-2.51261E+05-5.99952E+02-6.68028E+05-8.96245E-05 3.36709E-05
 -1       163-1.77960E+06-2.50874E+05-2.34154E+02-6.68270E+05-2.43982E-05 9.15732E-06
 -1       164-1.77971E+06-2.50778E+05-1.94210E+02-6.67941E+05 4.08114E-05-1.53086E-05
 -1       165-1.77986E+06-2.50675E+05-1.87110E+02-6.67985E+05 7.31765E-06-2.74505E-06
 -1       166-1.77964E+06-2.50867E+05-3.51469E+02-6.68050E+05-2.61997E-05 9.84400E-06
 -1       167-1.77968E+06-2.50785E+05-6.27128E+02-6.68161E+05-3.40269E-06 1.28019E-06
 -1       168-1.77990E+06-2.51178E+05-1.48637E+03-6.67963E+05 1.94073E-05-7.28228E-06
 -1       169-1.77960E+06-2.50364E+05-2.70118E+03-6.68072E+05-1.63211E-07 6.41483E-08
 -1       170-1.78128E+06-2.53416E+05-6.81252E+03-6.67579E+05-1.97303E-05 7.39630E-06
 -1       171-1.77830E+06-2.48549E+05-1.17545E+04-6.68548E+05 2.68276E-06-1.01111E-06
 -1       172-1.78965E+06-2.67728E+05-3.17673E+04-6.65036E+05 2.50998E-05-9.43341E-06
 -1       173-1.77127E+06-2.36057E+05-5.07979E+04-6.70627E+05-9.83939E-06 3.73041E-06
 -1       174-1.84136E+06-3.58339E+05-1.50798E+05-6.47873E+05-4.47862E-05 1.68243E-05
 -1       175-1.72668E+06-1.57949E+05-2.16900E+05-6.85745E+05-2.24226E-05 8.31722E-06
 -1       191 1.27861E+03 5.76973E+05 2.01672E+03-2.03416E+04 3.49246E-10-2.07910E-09
 -1       192 4.44814E+02 5.77245E+05 1.13077E+03-2.18447E+04 6.79620E-10 3.18414E-09
 -1       193 1.59873E+02 5.77060E+05 7.83581E+02-2.00805E+04 7.69774E-10 8.68386E-09
 -1       194 4.06128E+02 5.77198E+05 1.03607E+03-2.23236E+04 3.49701E-10 3.35422E-09
 -1       195 1.13916E+03 5.76939E+05 1.78255E+03-1.98610E+04 1.03864E-09 8.26549E-09
 -1       266-7.26289E+04-3.61842E+04 1.66352E+05 8.34131E+02 1.52795E-10-6.25920E-09
 -1       267 8.40734E+04 4.13432E+04 1.18599E+05-3.62105E+03 6.73026E-11 2.43303E-09
 -1       268-1.13826E+04-5.76413E+03 4.30278E+04 8.83315E+02 1.09139E-11-1.34736E-09
 -1       269 1.40266E+04 8.21842E+03 2.74220E+04-3.73191E+03-1.01409E-10 1.13543E-08
 -1       270-2.60160E+03-3.10688E+03 9.95477E+03 9.45267E+02-1.04592E-10 1.85792E-08
 -1       271-8.39533E+06-1.02400E+06-6.77551E+05-3.28339E+06-1.29512E-09-7.97445E-09
 -1       272-8.69708E+06-1.50295E+06-4.41913E+05-3.21354E+06-4.18640E-09 1.18234E-08
 -1       273-8.53534E+06-1.19726E+06-1.59757E+05-3.23774E+06-1.65983E-09-3.15777E-09
 -1       274-8.52545E+06-1.30186E+06-9.07525E+04-3.28300E+06 5.65706E-10 6.36646E-09
 -1       275-8.56378E+06-1.20750E+06-3.71880E+04-3.22038E+06 7.23048E-10 1.19544E-08
 -1       276-8.48836E+06-1.29364E+06-2.00333E+04-3.31054E+06-8.54925E-10 5.81349E-09
 -1       277-8.57312E+06-1.20269E+06-9.88904E+03-3.21173E+06-4.80622E-09 7.25004E-09
 -1       278-8.47900E+06-1.29835E+06-7.65065E+03-3.32043E+06 6.54097E-10 3.02384E-09
 -1       279-8.57376E+06-1.20214E+06-8.71048E+03-3.21105E+06 1.21554E-09 7.25277E-09
 -1       280-8.48584E+06-1.29514E+06-1.67352E+04-3.31329E+06-8.87667E-10-5.14774E-10
 -1       281-8.56583E+06-1.20638E+06-3.06247E+04-3.21846E+06-2.67391E-10 1.81135E-08
 -1       282-8.51784E+06-1.30009E+06-7.44744E+04-3.28846E+06-6.35282E-10 6.09725E-09
 -1       283-8.54098E+06-1.19963E+06-1.31087E+05-3.23447E+06-4.31100E-10 5.45697E-10
 -1       284-8.66225E+06-1.46097E+06-3.62342E+05-3.22667E+06 5.19321E-10-1.45556E-08
 -1       285-8.42380E+06-1.06018E+06-5.55973E+05-3.27474E+06-1.50612E-09 1.02445E-08
 -1       286 1.16876E+06-1.14774E+05 2.61989E+05 1.01553E+04 5.61585E-09 6.86850E-09
 -1       287 1.29742E+06 1.32564E+05 1.87909E+05-1.15669E+04 1.55355E-09-7.06132E-09
 -1       288 1.22007E+06-1.77381E+04 6.82584E+04-1.26565E+03 1.95261E-09 9.63337E-09
 -1       289 1.23887E+06 2.05301E+04 4.29001E+04-5.31488E+02 1.71276E-09-4.70754E-09
 -1       290 1.22730E+06-2.78501E+03 1.76278E+04-8.79125E+02-8.97090E-07 3.09592E-09
 -1       291 1.23048E+06 3.28153E+03 1.06348E+04-9.04373E+02-1.79922E-06 5.88989E-09
 -1       292 1.22849E+06-4.94010E+02 5.42146E+03-8.92791E+02-8.58594E-07 2.84444E-10
 -1       293 1.22928E+06 9.73177E+02 4.70546E+03-8.90987E+02 8.00790E-08 1.60828E-09
 -1       294 1.22850E+06-4.77125E+02 5.24276E+03-8.92516E+02-8.63281E-07 2.04761E-09
 -1       295 1.23040E+06 3.13639E+03 1.01274E+04-8.97967E+02-1.80779E-06 5.82486E-09
 -1       296 1.22737E+06-2.65679E+03 1.66956E+04-8.85807E+02-9.03711E-07-9.61518E-09
 -1       297 1.23838E+06 1.95765E+04 4.06341E+04-7.02320E+02 1.06412E-09-3.90764E-09
 -1       298 1.22049E+06-1.69130E+04 6.45302E+04-1.08814E+03 5.49161E-09-1.20090E-08
 -1       299 1.28875E+06 1.25030E+05 1.76675E+05-6.29555E+03 7.22554E-09-1.36260E-08
 -1       300 1.17698E+06-1.08067E+05 2.48772E+05 4.70696E+03 1.19139E-08 8.11997E-09
 -1       301 5.16192E+04-3.96032E+04 1.88619E+05-4.52230E+04-2.89583E-09-4.99085E-09
 -1       302 2.36170E+04 1.86117E+03 1.29107E+05-5.88581E+04 4.20505E-09 9.40258E-09
 -1       303 3.68500E+03-2.49441E+04 1.17974E+05-4.55577E+04-3.09046E-09 1.86765E-09
 -1       304 4.27535E+04 1.84646E+04 1.93924E+05-5.87677E+04 4.27463E-09-2.79397E-09
 -1       305 9.83393E+04-5.60289E+04 3.39493E+05-4.49211E+04-2.05182E-09 4.16867E-09
 -1       306-4.47574E+06-5.57967E+05-2.95297E+05-1.74137E+06 3.37241E-09-3.49246E-09
 -1       307-4.56423E+06-8.18723E+05-1.93820E+05-1.75453E+06 1.20235E-09-4.35830E-09
 -1       308-4.54285E+06-6.32040E+05-6.98772E+04-1.71394E+06 3.42470E-09-2.58296E-09
 -1       309-4.48213E+06-7.35537E+05-3.99477E+04-1.79673E+06-1.00772E-09 1.40608E-08
 -1       310-4.55852E+06-6.34195E+05-1.63945E+04-1.70259E+06-3.82170E-09-1.62163E-09
 -1       311-4.46309E+06-7.34501E+05-8.98368E+03-1.81423E+06 2.77851E-09-1.08566E-08
 -1       312-4.56333E+06-6.31354E+05-4.64446E+03-1.69782E+06-1.40221E-09-1.36049E-09
 -1       313-4.45973E+06-7.35903E+05-4.12536E+03-1.81808E+06 6.67961E-09 4.95629E-09
 -1       314-4.56229E+06-6.32450E+05-5.34621E+03-1.69905E+06-1.12277E-09 4.06089E-10
 -1       315-4.46679E+06-7.30952E+05-1.07912E+04-1.80905E+06-2.48656E-09-1.28839E-08
 -1       316-4.55529E+06-6.37037E+05-2.01427E+04-1.70612E+06-1.76988E-09 4.40014E-09
 -1       317-4.49110E+06-7.31523E+05-4.90378E+04-1.78689E+06 6.48924E-10-2.84217E-09
 -1       318-4.53633E+06-6.33912E+05-8.58771E+04-1.71960E+06 5.89807E-10-9.11677E-09
 -1       319-4.59078E+06-8.35796E+05-2.38294E+05-1.73801E+06-2.89401E-09-1.16415E-10
 -1       320-4.45540E+06-5.40871E+05-3.62718E+05-1.75124E+06 2.75031E-09-3.69619E-09
 -1       336 3.12794E+03-1.72473E+06-1.66754E+04-8.41566E+03-8.17374E-09 2.31012E-10
 -1       337-6.38981E+03-1.73029E+06-1.79711E+04-8.41056E+04-1.29921E-08 7.53062E-09
 -1       338 2.34380E+03-1.72543E+06-2.13748E+04-5.94813E+03-1.19944E-08 9.45874E-11
 -1       339-2.37011E+04-1.74174E+06-4.74193E+04-8.82134E+04-1.90994E-08-4.77621E-09
 -1       340 1.92617E+04-1.71493E+06-7.08017E+04-4.31779E+03-1.39080E-08 4.00451E-09
 -1       356-8.65513E+02-1.01181E+03 2.25628E+03 6.28471E+01 2.88701E-10 3.86956E-09
 -1       357 6.01218E+02 1.16892E+03 1.67889E+03-2.51176E+02-1.87899E-09 1.11201E-08
 -1       358-4.05154E+02-1.57989E+02 5.60735E+02 6.19954E+01-8.38591E-10 3.27441E-09
 -1       359 2.17548E+01 1.79502E+02 3.77222E+02-2.50672E+02 8.41645E-10-5.50961E-09
 -1       360-2.86840E+02-2.20048E+01 8.97126E+01 6.23407E+01-1.99588E-10 1.64620E-09
 -1       361-1.49781E+02 1.20789E+01-9.38085E+00-2.51325E+02-4.24598E-10 3.37064E-10
 -1       362-2.34178E+02 9.80677E+00-1.71610E+02 6.26478E+01-1.25697E-09-1.54283E-09
 -1       363-2.61348E+02-9.24020E+01-4.30807E+02-2.51773E+02 9.86110E-10 6.29740E-09
 -1       364-1.75599E+02 8.26988E+01-8.14251E+02 6.27888E+01 1.21634E-06 2.99076E-09
 -1       365-5.50381E+02-6.12648E+02-1.89314E+03-2.51985E+02 2.43045E-06 1.02007E-08
 -1       366 5.47809E+01 5.30049E+02-3.26433E+03 6.28595E+01 1.21476E-06-5.19094E-10
 -1       367-2.13265E+03-3.91157E+03-8.05740E+03-2.51458E+02 2.98209E-09-1.52681E-08
 -1       368 1.40707E+03 3.38101E+03-1.28307E+04 6.22615E+01 3.73149E-09 3.46154E-09
 -1       369-1.17373E+04-2.48845E+04-3.50838E+04-2.38653E+02 2.02232E-09 5.83714E-09
 -1       370 9.66372E+03 2.14995E+04-4.95819E+04 5.00566E+01 7.51656E-09 1.06957E-09
 -1       406 7.17061E+02 5.69788E+05 1.72348E+03-3.86846E+04 1.54068E-09-1.39053E-08
 -1       407 6.26519E+02 5.70101E+05 2.53171E+03-4.21532E+04 1.57456E-10-4.15139E-08
 -1       408 1.22779E+03 5.69651E+05 4.53020E+03-3.84830E+04 1.86174E-09-1.89902E-08
 -1       409 4.82044E+03 5.71403E+05 9.94984E+03-4.24713E+04-2.58751E-10 3.68345E-11
 -1       410 1.36971E+04 5.68377E+05 2.01993E+04-3.83480E+04 1.65892E-09-8.36553E-09
 -1       466-4.28169E+03-1.18519E+03 1.40410E+03 2.98843E+02-1.14625E-10 1.43062E-08
 -1       467 4.77559E+03 1.33502E+03 2.51465E+03-1.25491E+03-5.59226E-10 5.27848E-09
 -1       468-2.36922E+03-1.66653E+02 2.80686E+02 3.13613E+02 1.15382E-09 1.76647E-09
 -1       469 1.76830E+03 1.75390E+02 9.40047E+02-1.27709E+03 2.43858E-10 5.31117E-09
 -1       470-1.29035E+03-1.43504E+01 3.18596E+02 3.20869E+02 3.20526E-10 2.35642E-09
 -1       471 1.63830E+02 6.78617E+01 8.59232E+02-1.28609E+03 7.56017E-11 1.60265E-09
 -1       472-7.74806E+02-5.19429E+01 1.24034E+03 3.22615E+02-6.37792E-10-1.18575E-10
 -1       473-1.88803E+02 5.16801E+02 2.71403E+03-1.28751E+03 6.75180E-11-1.22866E-08
 -1       474-9.41661E+02-4.60383E+02 4.87605E+03 3.22302E+02-7.02048E-10-9.11677E-09
 -1       475 1.76061E+03 3.57209E+03 1.12985E+04-1.28728E+03 7.47242E-10-5.13865E-09
 -1       476-2.72157E+03-3.10823E+03 1.92252E+04 3.22380E+02 1.56055E-09 2.16824E-09
 -1       477 1.25446E+04 2.31098E+04 4.79911E+04-1.32674E+03 7.79968E-10 1.03064E-08
 -1       478-1.17094E+04-1.99986E+04 7.55712E+04 3.61754E+02-1.94826E-09 2.15732E-09
 -1       479 7.18855E+04 1.47333E+05 2.08288E+05-1.96243E+03 1.31618E-09-1.74914E-08
 -1       480-6.19178E+04-1.27284E+05 2.92828E+05 9.58363E+02 9.26030E-09 2.38651E-09
 -1       516-1.27425E+05-6.19843E+04 2.92716E+05 9.08726E+02 1.15251E-08 2.01348E-08
 -1       517 1.47567E+05 7.13652E+04 2.08077E+05-3.99858E+03-3.39423E-09 1.60037E-08
 -1       518-2.00415E+04-1.00310E+04 7.56019E+04 9.52568E+02 1.35697E-08 2.19709E-08
 -1       519 2.45835E+04 1.38327E+04 4.80409E+04-4.14323E+03-2.83399E-09-5.21595E-10
 -1       520-4.49276E+03-4.58816E+03 1.76762E+04 1.05419E+03 1.07830E-08-8.01606E-09
 -1       521-8.57960E+06-1.07663E+06-5.71835E+05-3.33299E+06 1.80444E-09-1.10595E-09
 -1       522-8.80360E+06-1.50723E+06-3.72276E+05-3.30488E+06-3.46745E-09-4.80213E-09
 -1       523-8.70395E+06-1.21572E+06-1.34898E+05-3.28706E+06 5.45697E-10 3.64525E-09
 -1       524-8.65055E+06-1.34755E+06-7.64267E+04-3.37594E+06-4.91809E-09 5.45970E-09
 -1       525-8.73132E+06-1.22051E+06-3.14057E+04-3.26841E+06 3.81078E-09 8.02356E-09
 -1       526-8.61721E+06-1.34358E+06-1.70006E+04-3.40351E+06 7.61702E-09 6.11772E-09
 -1       527-8.73885E+06-1.21668E+06-8.56045E+03-3.26146E+06-2.55886E-09-6.26557E-09
 -1       528-8.61339E+06-1.34332E+06-7.04138E+03-3.40664E+06-4.36648E-09-5.39603E-09
 -1       529-8.73534E+06-1.22044E+06-8.69501E+03-3.26552E+06-1.93722E-09-3.74530E-09
 -1       530-8.62899E+06-1.33046E+06-1.68927E+04-3.38708E+06 7.66249E-09 2.64117E-09
 -1       531-8.72150E+06-1.23087E+06-3.16872E+04-3.27969E+06 2.29920E-09 3.38150E-09
 -1       532-8.67273E+06-1.32380E+06-7.62801E+04-3.34729E+06-3.09228E-11 5.44242E-09
 -1       533-8.68979E+06-1.23025E+06-1.35044E+05-3.30311E+06-1.44473E-09-5.61704E-09
 -1       534-8.83282E+06-1.47745E+06-3.72093E+05-3.27091E+06 3.76531E-10-8.49832E-09
 -1       535-8.56401E+06-1.09220E+06-5.71516E+05-3.35045E+06-9.64792E-09-2.21189E-09
 -1       536 8.98824E+04-3.41038E+04 9.50128E+04 6.41957E+02 2.29193E-09-1.34169E-08
 -1       537 1.33187E+05 3.88524E+04 6.52126E+04-6.91107E+04-1.12213E-08-4.09273E-09
 -1       538 1.05564E+05-4.78652E+03 2.44984E+04 3.09698E+02-4.00178E-11 7.44876E-10
 -1       539 1.13766E+05 4.71581E+03 1.49342E+04-6.85327E+04 2.61980E-09 1.02523E-09
 -1       540 1.07934E+05-7.84659E+02 6.13266E+03 6.15486E+01-4.54747E-10-3.78532E-09
 -1       541 1.09952E+05 5.77876E+02 3.56981E+03-6.81042E+04-2.19734E-09-7.15750E-09
 -1       542 1.08388E+05-1.54552E+02 1.49170E+03-1.24125E+02 1.19962E-09-7.08042E-10
 -1       543 1.08736E+05 2.31729E+02 8.16638E+02-6.78137E+04-1.79512E-09-6.27574E-09
 -1       544 1.08517E+05-1.09070E+01 2.70563E+02-2.29569E+02-1.83491E-10 3.67743E-09
 -1       545 1.08270E+05 2.23628E+02-4.88536E+01-6.76820E+04-1.54478E-09 7.72383E-09
 -1       546 1.08568E+05 5.29102E+01-3.71762E+02-2.55215E+02 1.22833E-09-7.79539E-09
 -1       547 1.08150E+05-1.44187E+02-1.04881E+03-6.77031E+04-3.83227E-09-9.88598E-09
 -1       548 1.08696E+05 3.00415E+02-1.88470E+03-2.08724E+02-3.12912E-09 3.88150E-09
 -1       549 1.07368E+05-2.87455E+03-4.83377E+03-6.78242E+04-1.73986E-09 2.89219E-09
 -1       550 1.09754E+05 2.36646E+03-7.36748E+03-1.34555E+02-2.93767E-10-1.10826E-08
 -1       551 2.71865E+04-6.77104E+05 3.91636E+04-1.10430E+06-2.05109E-08-6.13363E-09
 -1       552 3.68254E+04-6.81237E+05 4.62119E+04-1.42224E+06-2.08238E-08 7.63612E-09
 -1       553 2.78103E+04-6.86926E+05 6.94517E+04-1.10159E+06-2.56259E-08 7.85076E-09
 -1       554 6.74555E+04-6.59491E+05 1.44199E+05-1.42255E+06-2.05910E-08-1.20053E-09
 -1       555 1.00855E+05-7.06761E+05 2.67465E+05-1.10298E+06-2.20971E-08-1.14451E-08
 -1       556-1.68854E+04-2.19129E+05 6.39327E+04-3.04884E+05-4.23461E-09-3.76895E-09
 -1       557 5.87927E+04-2.82720E+05 3.35352E+04-3.65976E+05-2.10275E-09 1.71531E-09
 -1       558-1.91859E+04-2.28202E+05 1.33017E+04-2.97978E+05 4.00178E-09 6.37374E-09
 -1       559 4.65394E+04-2.90762E+05 6.84029E+03-3.71994E+05-4.84579E-09-3.90173E-09
 -1       560-2.28574E+04-2.25907E+05 2.68280E+03-3.00325E+05-1.07684E-09-6.67751E-09
 -1       561 4.15273E+04-2.89225E+05 1.48449E+03-3.75277E+05-1.25510E-09 5.18230E-09
 -1       562-2.56744E+04-2.24086E+05 4.86697E+02-3.02305E+05 3.71074E-09 6.67205E-09
 -1       563 3.84043E+04-2.87880E+05 3.09181E+02-3.77324E+05 7.71252E-10-1.23837E-08
 -1       564-2.73824E+04-2.23002E+05-1.16174E+01-3.03492E+05-4.94765E-10 3.52611E-09
 -1       565 3.68290E+04-2.87208E+05-2.03768E+02-3.78336E+05-5.26779E-09 7.14863E-09
 -1       566-2.79253E+04-2.22632E+05-6.58857E+02-3.03883E+05-1.23255E-08-7.11043E-09
 -1       567 3.66635E+04-2.87228E+05-1.55483E+03-3.78290E+05-5.95537E-09-5.82077E-09
 -1       568-2.71943E+04-2.23107E+05-3.37234E+03-3.03475E+05 6.91216E-10-1.27693E-09
 -1       569 3.55600E+04-2.88949E+05-7.92543E+03-3.76249E+05-7.20320E-10 2.73394E-09
 -1       570-2.37100E+04-2.28092E+05-1.57682E+04-3.01435E+05-2.91766E-09 7.53880E-09
 -1       571 4.20539E+05 1.66081E+04 2.49615E+04-1.02143E+05-1.09503E-09 8.21728E-10
 -1       572 4.24266E+05 5.71931E+03 1.22428E+04-1.12179E+05-1.25146E-09 6.88487E-10
 -1       573 4.21992E+05 1.32019E+03 5.44192E+03-1.01870E+05-2.55477E-09-6.88487E-10
 -1       574 4.22417E+05 4.20090E+02 2.73074E+03-1.12474E+05-1.81126E-09 3.21597E-09
 -1       575 4.22126E+05 4.75634E+01 1.28989E+03-1.01836E+05-9.67293E-09 2.97132E-09
 -1       576 4.22156E+05 1.13219E+01 6.60284E+02-1.12513E+05-1.94341E-08-5.42968E-09
 -1       577 4.22149E+05-1.64738E+01 3.30513E+02-1.01831E+05-1.01040E-08-1.89630E-09
 -1       578 4.22146E+05-1.63926E+01 1.90631E+02-1.12518E+05 9.67702E-10 2.35923E-09
 -1       579 4.22202E+05-3.75097E+01 1.33729E+02-1.01830E+05-9.50604E-09 7.62520E-09
 -1       580 4.22231E+05-5.45735E+01 1.54550E+02-1.12514E+05-1.70940E-08-7.39328E-09
 -1       581 4.22303E+05-8.31615E+01 2.39303E+02-1.01835E+05-1.11959E-08-2.99224E-10
 -1       582 4.22414E+05-5.76409E+01 4.80681E+02-1.12455E+05-1.62981E-09-7.30233E-09
 -1       583 4.22427E+05 5.06886E+01 9.32094E+02-1.01889E+05-2.15732E-09 3.54248E-09
 -1       584 4.22918E+05 7.61637E+02 2.09836E+03-1.11993E+05-5.02041E-09 8.79072E-09
 -1       585 4.22349E+05 2.59361E+03 4.25806E+03-1.02301E+05 1.19690E-09-2.89583E-09
 -1       586-3.52976E+02 1.77180E+05-1.73364E+02-3.00982E+05 3.51065E-10 3.05590E-10
 -1       587 6.58203E+02 1.77067E+05 2.35332E+03-3.37369E+05-1.03319E-09 3.15936E-09
 -1       588 1.57176E+03 1.76691E+05 5.90065E+03-3.00662E+05 3.78350E-10 1.83809E-09
 -1       589 6.19881E+03 1.79405E+05 1.38654E+04-3.37274E+05-8.94943E-10-8.73115E-09
 -1       590 1.75067E+04 1.75093E+05 2.82825E+04-3.01074E+05 5.92991E-10 7.61793E-09
 -1       591-1.74557E+05-4.98642E+04-3.87468E+04-8.39831E+04-3.53339E-10 3.09774E-09
 -1       592-1.77606E+05-5.14698E+04-1.99413E+04-9.41376E+04-3.46131E-09 3.86535E-09
 -1       593-1.77186E+05-4.17051E+04-8.43857E+03-8.85395E+04 5.49744E-09 8.08541E-09
 -1       594-1.72919E+05-4.66388E+04-4.15982E+03-9.43717E+04 1.55592E-08 1.02755E-08
 -1       595-1.77426E+05-4.15312E+04-1.91983E+03-8.87088E+04-1.89243E-09 6.52562E-11
 -1       596-1.72615E+05-4.64651E+04-9.69811E+02-9.43269E+04 2.79920E-09 1.82259E-08
 -1       597-1.77463E+05-4.15619E+04-5.20876E+02-8.87104E+04-5.77684E-09-6.86509E-09
 -1       598-1.72581E+05-4.64647E+04-4.03487E+02-9.43124E+04-1.08652E-08-1.05856E-08
 -1       599-1.77458E+05-4.15663E+04-4.96959E+02-8.87072E+04-6.45832E-09 1.72804E-09
 -1       600-1.72601E+05-4.64699E+04-9.06218E+02-9.43145E+04 1.76442E-10 1.11454E-08
 -1       601-1.77411E+05-4.15450E+04-1.78332E+03-8.86997E+04 3.45790E-09 6.08497E-09
 -1       602-1.72875E+05-4.66315E+04-3.85734E+03-9.43406E+04 1.97906E-09-1.70439E-09
 -1       603-1.77175E+05-4.17182E+04-7.82276E+03-8.85406E+04 7.91260E-11 1.10322E-08
 -1       604-1.77251E+05-5.10645E+04-1.84791E+04-9.40586E+04 3.67027E-09 1.63091E-08
 -1       605-1.74685E+05-4.93221E+04-3.59062E+04-8.43584E+04-2.42562E-09-1.80808E-09
 -1       606 1.16052E+05-1.67453E+04-2.84280E+04 4.34088E+04-4.82396E-09-4.15730E-09
 -1       607 1.11333E+05-5.46003E+03-1.40796E+04 4.82138E+04-9.73159E-11 3.73416E-09
 -1       608 1.14010E+05-1.00422E+03-6.29422E+03 4.30802E+04 5.59703E-09-3.09910E-09
 -1       609 1.13429E+05-2.33727E+02-3.17021E+03 4.85678E+04-4.37649E-09 6.33008E-09
 -1       610 1.13727E+05 7.14895E+01-1.51038E+03 4.30420E+04-9.58607E-09 1.73259E-10
 -1       611 1.13599E+05 1.20577E+02-7.60355E+02 4.86075E+04-1.83663E-08-1.31586E-08
 -1       612 1.13637E+05 1.25016E+02-3.63544E+02 4.30384E+04-9.29867E-09-2.01908E-10
 -1       613 1.13575E+05 1.49923E+02-1.64268E+02 4.86113E+04-1.16161E-08 9.18999E-09
 -1       614 1.13583E+05 1.36408E+02-4.40167E+01 4.30376E+04 6.36646E-11 8.97990E-09
 -1       615 1.13541E+05 1.67825E+02 5.72909E+01 4.86111E+04 1.19571E-08 5.61158E-09
 -1       616 1.13542E+05 1.54914E+02 1.82102E+02 4.30383E+04 1.15051E-09 3.10956E-09
 -1       617 1.13543E+05 2.26559E+02 4.21767E+02 4.86092E+04 1.62868E-08 7.93352E-09
 -1       618 1.13490E+05 3.08810E+02 8.53311E+02 4.30389E+04-2.34149E-09-3.99223E-09
 -1       619 1.13822E+05 9.45011E+02 1.92102E+03 4.86034E+04-2.01842E-08 4.86216E-09
 -1       620 1.13209E+05 2.46251E+03 3.88166E+03 4.30379E+04-6.68319E-09 1.81399E-09
 -1       621 9.87577E+02 4.12091E+05 4.19981E+03-1.76350E+04 2.04614E-09 2.75554E-09
 -1       622 5.11872E+02 4.12968E+05 4.50210E+03-2.23688E+04 4.23142E-09 1.35145E-08
 -1       623 2.31473E+02 4.12210E+05 6.65024E+03-1.76508E+04 1.96951E-09 7.94898E-10
 -1       624 3.26494E+03 4.15289E+05 1.36958E+04-2.22724E+04 4.13274E-09 5.91399E-10
 -1       625 8.17529E+03 4.09792E+05 2.57058E+04-1.77255E+04 2.02272E-09 1.33696E-10
 -1       626 2.81493E+05 8.48893E+04-1.52708E+03 1.67213E+05-3.19142E-09 3.75439E-09
 -1       627 2.76001E+05 9.06404E+04-7.27371E+02 1.72896E+05 3.69619E-09-8.92373E-09
 -1       628 2.81626E+05 8.53855E+04-3.09459E+02 1.66587E+05-2.04818E-09 1.10654E-08
 -1       629 2.75805E+05 9.11832E+04-1.41392E+02 1.73086E+05-3.19988E-08 2.32853E-09
 -1       630 2.81575E+05 8.54389E+04-5.66793E+01 1.66496E+05 1.08648E-08 5.54684E-09
 -1       631 2.75722E+05 9.12480E+04-6.08123E+00 1.73068E+05 3.29528E-08-2.68320E-08
 -1       632 2.81524E+05 8.54610E+04 3.93807E+01 1.66462E+05 2.37287E-08-1.38530E-08
 -1       633 2.75684E+05 9.12656E+04 1.10228E+02 1.73044E+05 1.89775E-08 4.69436E-09
 -1       634 2.81488E+05 8.54638E+04 2.36205E+02 1.66446E+05 3.78986E-09-6.08088E-09
 -1       635 2.75691E+05 9.12723E+04 5.15832E+02 1.73040E+05-1.32113E-08 3.22643E-09
 -1       636 2.81460E+05 8.54685E+04 1.05966E+03 1.66434E+05-5.54235E-09 3.88127E-09
 -1       637 2.75922E+05 9.14768E+04 2.34564E+03 1.73024E+05 8.14822E-09 4.42014E-10
 -1       638 2.81389E+05 8.60944E+04 4.83490E+03 1.66153E+05 1.48352E-08 1.33459E-08
 -1       639 2.78428E+05 9.52806E+04 1.14615E+04 1.72190E+05 5.49016E-09-1.64437E-09
 -1       640 2.81254E+05 9.73239E+04 2.39336E+04 1.61406E+05 2.08092E-09-1.28966E-09
 -1       641-9.39579E+04 6.64135E+03-1.54148E+04-3.88334E+02-6.27723E-09 7.07587E-09
 -1       642-9.97842E+04-7.59692E+03-1.07442E+04 4.66142E+02 2.18268E-08 9.10632E-09
 -1       643-9.61427E+04 1.16389E+03-3.92961E+03-6.74272E+02 4.13135E-05-1.75788E-07
 -1       644-9.70389E+04-1.06244E+03-2.39884E+03 7.76553E+02 8.25238E-05-3.61868E-07
 -1       645-9.65286E+04 2.86462E+02-9.33002E+02-6.98978E+02 4.13200E-05-1.72735E-07
 -1       646-9.63764E+04-9.81485E+01-4.12952E+02 5.52195E+02 1.69504E-08 5.83799E-09
 -1       647-9.69768E+04 2.50426E+01-1.60300E+02-4.49689E+02 1.14390E-08 1.81103E-09
 -1       648-9.59927E+04 6.17986E+01 3.19925E+02-8.54190E+01 2.79719E-08 1.09517E-08
 -1       649-9.70854E+04-5.08961E+01 4.57224E+02-6.12314E+01 1.06439E-08-4.44572E-10
 -1       650-9.59093E+04 5.14971E+02 1.44357E+03-7.85628E+02-2.11702E-09-2.57600E-09
 -1       651-9.68895E+04-2.54899E+02 2.33984E+03 2.50638E+02 2.87825E-09-3.81658E-09
 -1       652-9.50388E+04 2.92989E+03 5.82321E+03-1.16142E+03-4.46279E-09 9.91804E-10
 -1       653-9.77777E+04-2.28312E+03 9.18800E+03 3.14758E+02-5.34619E-09-2.42972E-09
 -1       654-8.80479E+04 1.78438E+04 2.51208E+04-1.02775E+03-1.51361E-08-1.37820E-08
 -1       655-1.04052E+05-1.53421E+04 3.53079E+04 1.16759E+02 1.14724E-10-4.25098E-09
 -1       656 2.51448E+04-7.56193E+05-8.03506E+04 4.89811E+03 4.19823E-09-3.04453E-09
 -1       657-3.40860E+04-7.88445E+05-6.26030E+04 6.38050E+04 1.72213E-09-3.68163E-09
 -1       658 6.36700E+03-7.66546E+05-4.02237E+04 4.53609E+03 3.27975E-09 5.80849E-09
 -1       659-3.56360E+04-7.89371E+05-6.50044E+04 6.40588E+04 2.24463E-09-2.11303E-09
 -1       660 2.66449E+04-7.55355E+05-8.46554E+04 4.64535E+03 6.26824E-09 1.74464E-09
 -1       661 3.61665E+05 4.71737E+04 2.99733E+04 1.41509E+05 5.79712E-09 4.98403E-09
 -1       662 3.69509E+05 6.76425E+04 1.86648E+04 1.44544E+05 3.30982E-09-2.54886E-10
 -1       663 3.66675E+05 5.33677E+04 7.07151E+03 1.40985E+05-8.36553E-09-8.29141E-09
 -1       664 3.63730E+05 5.92481E+04 3.84289E+03 1.45695E+05-1.30098E-08-6.57724E-09
 -1       665 3.67221E+05 5.39992E+04 1.65844E+03 1.40950E+05-1.30933E-08-1.85895E-09
 -1       666 3.63098E+05 5.84273E+04 8.97240E+02 1.45784E+05-1.02003E-08 2.48062E-09
 -1       667 3.67290E+05 5.40592E+04 5.13208E+02 1.40945E+05 1.24430E-10-1.87342E-09
 -1       668 3.63028E+05 5.83749E+04 4.95193E+02 1.45809E+05 5.12517E-09-1.25871E-09
 -1       669 3.67295E+05 5.40410E+04 7.12368E+02 1.40932E+05 5.01723E-09-1.31365E-09
 -1       670 3.63125E+05 5.85326E+04 1.44618E+03 1.45841E+05 3.13730E-09 3.97887E-09
 -1       671 3.67203E+05 5.39085E+04 2.77770E+03 1.40914E+05 2.21996E-09-3.33102E-10
 -1       672 3.64165E+05 5.99721E+04 6.50726E+03 1.45750E+05 3.60853E-09-7.17864E-09
 -1       673 3.66297E+05 5.28119E+04 1.19936E+04 1.40949E+05-5.41797E-09 3.45608E-09
 -1       674 3.73957E+05 7.42535E+04 3.16843E+04 1.43837E+05 4.54492E-09 1.25601E-09
 -1       675 3.57802E+05 4.22856E+04 5.08814E+04 1.41832E+05 2.20416E-09-5.99721E-09
 -1       676 5.53152E+02-5.20387E+05-3.83208E+03-1.79116E+03-1.96050E-09 6.77289E-11
 -1       677-1.58502E+03-5.21912E+05-5.84985E+03-8.49083E+03-3.84421E-09-3.50411E-09
 -1       678 7.61997E+02-5.20167E+05-8.94213E+03-1.80513E+03 3.09547E-09-1.49601E-09
 -1       679-9.99846E+03-5.27008E+05-2.11463E+04-8.43595E+03-7.17318E-09-1.09985E-08
 -1       680 7.10589E+03-5.15289E+05-3.29620E+04-1.84841E+03-1.90994E-09 7.79869E-09
 -1       716-5.52979E+03-1.96410E+03 2.83592E+03 3.71841E+02 5.83658E-09-2.30148E-09
 -1       717 6.22715E+03 2.22398E+03 3.89429E+03-1.54161E+03 1.95259E-09 2.84786E-10
 -1       718-2.80014E+03-2.78610E+02 6.37974E+02 3.87360E+02 1.24089E-10 1.43575E-09
 -1       719 2.05364E+03 2.95495E+02 1.25780E+03-1.56393E+03-5.28132E-10 1.89655E-09
 -1       720-1.37746E+03-2.07922E+01 4.25631E+02 3.94008E+02 3.19006E-09 3.56343E-09
 -1       721 3.26313E+01 6.75734E+01 9.03714E+02-1.57119E+03 7.22667E-09 3.90799E-10
 -1       722-7.91484E+02-4.18814E+01 1.28131E+03 3.94647E+02 4.69652E-09 1.21236E-09
 -1       723-2.17773E+02 4.98262E+02 2.73436E+03-1.57142E+03 1.74153E-10 1.05598E-09
 -1       724-1.13029E+03-4.49090E+02 4.86631E+03 3.94259E+02 4.43637E-09 4.84010E-09
 -1       725 2.31389E+03 3.55666E+03 1.14281E+04-1.57190E+03 1.58269E-09 5.99880E-09
 -1       726-3.31677E+03-3.10392E+03 1.91430E+04 3.95099E+02-8.79179E-10 2.72485E-09
 -1       727 1.41467E+04 2.31379E+04 4.83563E+04-1.62916E+03 2.74481E-09 2.22281E-09
 -1       728-1.29402E+04-2.00357E+04 7.54086E+04 4.51527E+02 1.29643E-09 5.92991E-10
 -1       729 7.49863E+04 1.47629E+05 2.09103E+05-2.50985E+03 6.10596E-09 1.90630E-09
 -1       730-6.40026E+04-1.27555E+05 2.92667E+05 1.27636E+03 9.60199E-09-6.51926E-09
 -1       766-1.27184E+05-5.87371E+04 2.93894E+05-6.19711E+02-1.14960E-09-1.84268E-08
 -1       767 1.47319E+05 6.87069E+04 2.08294E+05 7.11741E+02 1.58616E-08-3.27775E-08
 -1       768-2.00728E+04-9.83062E+03 7.71066E+04-9.27318E+01-5.92991E-10-6.08890E-09
 -1       769 2.36962E+04 1.17950E+04 5.03831E+04 1.07752E+02 1.59826E-08 2.50338E-08
 -1       770-3.61727E+03-1.95635E+03 2.41904E+04-1.50379E+01-1.31877E-09 2.39582E-08
 -1       771-3.66902E+06-6.98169E+05-1.01661E+05-1.56727E+06-1.49885E-09-1.57161E-09
 -1       772-3.65096E+06-7.24423E+05-5.18968E+04-1.61950E+06-5.58066E-09-4.47835E-09
 -1       773-3.67985E+06-6.74042E+05-2.27155E+04-1.57868E+06-5.47152E-09 1.22964E-09
 -1       774-3.63971E+06-7.13412E+05-1.09880E+04-1.62548E+06-4.45289E-09 6.67569E-10
 -1       775-3.68357E+06-6.71363E+05-5.56068E+03-1.58001E+06-5.82077E-09 1.08048E-09
 -1       776-3.64075E+06-7.12895E+05-2.64393E+03-1.62881E+06-3.11411E-09 3.17868E-09
 -1       777-3.68628E+06-6.69643E+05-1.67718E+03-1.58089E+06-4.29281E-10 3.57250E-09
 -1       778-3.64226E+06-7.12684E+05-1.01782E+03-1.63147E+06 2.61934E-10-1.20144E-09
 -1       779-3.68833E+06-6.68248E+05-1.27360E+03-1.58159E+06 7.34872E-10-3.47882E-09
 -1       780-3.64355E+06-7.12522E+05-1.93279E+03-1.63347E+06 4.16185E-09 3.09092E-09
 -1       781-3.68965E+06-6.67214E+05-3.80267E+03-1.58206E+06-1.67347E-09-1.33241E-10
 -1       782-3.64494E+06-7.12745E+05-8.09136E+03-1.63477E+06-5.73345E-09-4.65297E-09
 -1       783-3.68992E+06-6.67061E+05-1.64537E+04-1.58200E+06-7.65795E-10-4.03452E-09
 -1       784-3.65450E+06-7.22079E+05-3.89477E+04-1.63466E+06-9.40872E-09-4.32192E-09
 -1       785-3.68477E+06-6.83042E+05-7.57683E+04-1.57330E+06-1.77351E-11 8.33097E-10
 -1       786 3.48181E+05-1.39432E+04 4.00209E+04 6.81317E+01-1.87953E-09 5.12955E-10
 -1       787 3.64245E+05 1.66053E+04 2.71292E+04-4.84344E+03-1.05049E-09-1.07275E-09
 -1       788 3.54619E+05-1.83016E+03 1.04005E+04 3.42730E+01-1.40747E-09-5.41331E-09
 -1       789 3.56897E+05 2.16393E+03 6.16703E+03-4.79120E+03-9.39465E-10 4.27144E-09
 -1       790 3.55530E+05-2.40252E+02 2.65984E+03 1.61060E+01 1.97531E-10 3.91526E-09
 -1       791 3.55853E+05 2.81661E+02 1.49081E+03-4.77280E+03-2.88334E-10 5.05028E-09
 -1       792 3.55664E+05-3.32446E+01 7.36877E+02 1.58788E+01 1.02692E-09 1.81583E-09
 -1       793 3.55708E+05 5.07169E+01 5.05450E+02-4.79060E+03-1.08408E-09-3.58293E-09
 -1       794 3.55676E+05-1.82157E+01 4.58063E+02 3.39096E+01 5.89182E-11 2.97308E-09
 -1       795 3.55755E+05 1.26017E+02 7.26275E+02-4.84521E+03 7.31916E-10 1.68916E-08
 -1       796 3.55619E+05-1.07079E+02 1.20430E+03 7.04913E+01-7.74776E-10 4.03048E-09
 -1       797 3.56217E+05 9.50459E+02 2.73455E+03-4.93580E+03 1.56859E-10-6.38778E-09
 -1       798 3.55218E+05-8.07882E+02 4.58835E+03 1.24492E+02-2.86832E-10 9.78434E-09
 -1       799 3.59460E+05 7.31023E+03 1.19563E+04-5.05863E+03-3.21012E-09 1.30387E-08
 -1       800 3.52380E+05-6.14550E+03 1.76274E+04 1.93092E+02 2.22258E-10-6.44832E-10
 -1       801-5.02669E+04 5.53078E+05 5.53348E+04-9.20524E+03-1.46902E-08-7.72707E-09
 -1       802 1.24156E+05 6.03936E+05 1.05810E+05-2.05754E+06-3.71874E-08-1.57615E-08
 -1       803-1.25870E+04 5.82567E+05 1.14139E+05-1.45077E+04-1.79789E-08 2.16833E-08
 -1       804 2.34012E+05 6.75023E+05 2.72651E+05-2.05830E+06-4.03961E-08 3.49100E-08
 -1       805-1.61343E+05 4.92166E+05 3.48920E+05-8.65666E+03-4.40923E-09 1.60071E-08
 -1       806-3.10187E+05-8.70854E+04-2.93046E+04-1.48751E+05-6.73913E-09-1.78989E-09
 -1       807-3.09966E+05-8.13515E+04-1.40303E+04-1.58329E+05-8.13816E-09 2.86470E-08
 -1       808-3.10327E+05-7.33896E+04-5.91881E+03-1.54672E+05-6.77846E-09-8.23547E-10
 -1       809-3.07035E+05-7.65831E+04-2.87114E+03-1.59268E+05 2.75168E-09 1.39685E-08
 -1       810-3.10423E+05-7.26199E+04-1.30190E+03-1.55037E+05-9.40437E-09-6.06497E-09
 -1       811-3.06766E+05-7.63217E+04-6.44004E+02-1.59279E+05-2.51782E-09 1.01613E-09
 -1       812-3.10441E+05-7.26226E+04-3.19227E+02-1.55043E+05-7.02721E-09 6.78028E-10
 -1       813-3.06725E+05-7.63252E+04-1.99547E+02-1.59258E+05-1.55414E-08-8.82915E-09
 -1       814-3.10427E+05-7.26393E+04-1.84659E+02-1.55032E+05-7.54335E-09 7.09224E-09
 -1       815-3.06715E+05-7.63379E+04-2.86827E+02-1.59241E+05-2.36832E-09 7.58791E-09
 -1       816-3.10389E+05-7.26581E+04-5.37299E+02-1.55013E+05-2.93949E-09-6.09089E-09
 -1       817-3.06806E+05-7.64393E+04-1.16108E+03-1.59191E+05 4.73392E-10-5.18685E-09
 -1       818-3.10304E+05-7.30032E+04-2.38621E+03-1.54864E+05-1.09321E-09-7.64612E-09
 -1       819-3.08100E+05-7.82144E+04-5.64411E+03-1.58608E+05 9.20409E-10-2.41562E-09
 -1       820-3.10072E+05-7.86548E+04-1.17894E+04-1.52618E+05 1.36606E-09-6.35737E-10
 -1       821-4.22059E+05 1.84881E+04-5.30598E+04-3.73558E+02-3.71074E-09 1.66983E-09
 -1       822-4.43325E+05-2.20172E+04-3.59693E+04 6.55162E+03-3.73831E-09-1.09458E-09
 -1       823-4.30590E+05 2.42219E+03-1.37956E+04-5.30456E+02 4.85670E-09 2.75486E-09
 -1       824-4.33602E+05-2.85505E+03-8.18501E+03 6.82278E+03 1.56206E-10 8.31687E-09
 -1       825-4.31793E+05 3.15607E+02-3.55367E+03-6.45383E+02-8.82596E-09-3.31806E-09
 -1       826-4.32237E+05-3.55195E+02-2.03104E+03 7.01723E+03-1.31968E-08-1.08668E-08
 -1       827-4.31965E+05 4.47544E+01-1.08768E+03-7.25087E+02-8.79902E-09-4.63740E-09
 -1       828-4.32071E+05-6.68634E+01-9.03751E+02 7.14103E+03-1.16675E-08-3.65071E-09
 -1       829-4.31966E+05 4.35761E+01-1.05174E+03-7.69235E+02-4.46119E-09-7.71038E-09
 -1       830-4.32240E+05-3.30789E+02-1.93560E+03 7.19217E+03 5.43860E-10-4.03816E-09
 -1       831-4.31801E+05 3.00906E+02-3.36757E+03-7.76218E+02-9.72896E-09-2.02306E-09
 -1       832-4.33545E+05-2.69249E+03-7.75323E+03 7.17028E+03-1.31935E-09 2.05068E-09
 -1       833-4.30661E+05 2.29637E+03-1.30571E+04-7.47151E+02-3.87729E-10-1.80080E-09
 -1       834-4.42760E+05-2.08290E+04-3.40530E+04 7.07917E+03 1.35373E-10-1.45919E-08
 -1       835-4.22584E+05 1.75065E+04-5.02228E+04-6.83759E+02 7.62009E-09-1.54541E-08
 -1       836-1.41132E+02 5.07656E+05 3.71892E+04-4.36583E+04-1.35697E-09 4.99313E-10
 -1       837 6.99338E+03 5.18423E+05 2.87604E+04-7.73451E+04 3.29419E-09-2.04182E-09
 -1       838-2.42229E+02 5.11197E+05 2.68220E+04-4.35401E+04-1.50976E-09-2.49258E-09
 -1       839 1.39547E+04 5.24043E+05 4.72128E+04-7.73634E+04 3.02589E-09-5.32509E-10
 -1       840-2.62168E+02 5.01989E+05 7.58055E+04-4.36340E+04-1.61890E-09 5.51472E-09
 -1       841 1.24941E+05 1.81304E+04-1.43635E+03 4.66148E+04-3.71790E-09 1.89380E-09
 -1       842 1.23913E+05 1.71943E+04-9.76491E+02 4.73007E+04-4.11165E-08 1.58591E-08
 -1       843 1.24590E+05 1.77271E+04-3.29523E+02 4.68396E+04-6.02519E-05 2.26833E-05
 -1       844 1.24342E+05 1.76456E+04-1.95048E+02 4.70199E+04-1.20468E-04 4.53882E-05
 -1       845 1.24512E+05 1.76792E+04-5.17355E+01 4.68954E+04-8.04841E-05 3.03128E-05
 -1       846 1.24446E+05 1.77031E+04 1.46561E+01 4.69470E+04-4.04374E-05 1.52445E-05
 -1       847 1.24487E+05 1.76696E+04 9.52021E+01 4.69125E+04-2.43976E-05 9.17979E-06
 -1       848 1.24511E+05 1.77675E+04 2.61227E+02 4.69179E+04-8.36844E-06 3.15561E-06
 -1       849 1.24447E+05 1.76148E+04 4.89982E+02 4.69244E+04-8.10380E-07 3.04970E-07
 -1       850 1.24763E+05 1.81795E+04 1.24315E+03 4.68494E+04 6.74666E-06-2.54124E-06
 -1       851 1.24234E+05 1.72576E+04 2.14819E+03 4.69810E+04 1.28128E-05-4.81775E-06
 -1       852 1.26280E+05 2.07976E+04 5.80076E+03 4.63968E+04 1.88782E-05-7.11285E-06
 -1       853 1.22930E+05 1.49971E+04 9.27734E+03 4.73767E+04 2.28567E-05-8.59168E-06
 -1       854 1.35645E+05 3.73681E+04 2.75084E+04 4.33371E+04 2.67898E-05-1.00977E-05
 -1       855 1.14869E+05 6.90175E+02 3.95971E+04 5.00396E+04 1.33869E-05-5.07924E-06
 -1       856-2.93477E+05 7.91734E+03-3.94263E+04 6.70072E+03-4.65843E-09-7.52516E-09
 -1       857-3.07302E+05-1.14382E+04-2.48956E+04 2.29454E+04-1.42791E-09 2.01362E-09
 -1       858-2.99328E+05 7.86296E+02-1.01969E+04 6.58670E+03-5.70799E-09 2.14459E-09
 -1       859-3.00895E+05-9.57044E+02-5.61812E+03 2.30920E+04 2.57728E-09-1.34621E-08
 -1       860-2.99964E+05 1.08730E+02-2.58082E+03 6.55030E+03 5.95173E-09-9.52150E-09
 -1       861-3.00222E+05 1.53627E+01-1.36616E+03 2.31420E+04-4.54111E-09-5.15411E-09
 -1       862-3.00047E+05 4.38620E+01-6.91151E+02 6.53609E+03 1.51231E-08-3.66992E-09
 -1       863-3.00143E+05 1.03314E+02-4.32342E+02 2.31537E+04 2.98364E-08-3.18420E-09
 -1       864-3.00055E+05 3.70394E+01-3.64290E+02 6.53845E+03 1.00470E-08-6.29524E-09
 -1       865-3.00142E+05 7.64462E+01-5.09262E+02 2.31311E+04 1.75251E-08-1.41009E-08
 -1       866-3.00026E+05 5.04255E+01-8.63905E+02 6.55883E+03-1.11140E-09 1.15003E-09
 -1       867-3.00325E+05-2.46507E+02-1.81526E+03 2.30709E+04-9.72523E-09 7.28448E-09
 -1       868-2.99814E+05 2.55936E+02-3.27943E+03 6.59895E+03-1.93540E-09 6.05701E-09
 -1       869-3.02330E+05-3.61831E+03-7.97194E+03 2.29050E+04-4.51087E-09 1.22470E-08
 -1       870-2.97930E+05 2.52112E+03-1.26382E+04 6.72607E+03 5.26234E-09 4.95311E-09
 -1       871-6.15870E+03-5.15900E+04-1.71579E+04 1.76554E+05-1.14724E-08-2.69210E-10
 -1       872-2.64843E+03-5.53622E+04-6.42623E+03 2.25312E+05-6.52653E-09-8.07086E-09
 -1       873-2.56508E+02-5.38399E+04 2.22677E+03 1.76179E+05-8.00537E-09-1.33787E-09
 -1       874 3.03938E+03-5.06491E+04 1.25268E+04 2.25398E+05-7.33689E-09-9.25570E-09
 -1       875 8.16701E+03-5.65320E+04 2.70450E+04 1.76498E+05-1.13923E-08-4.84852E-09
 -1       876 4.72439E+05 7.25175E+04 3.82065E+04 1.88685E+05-1.57945E-09 2.11003E-09
 -1       877 4.78556E+05 8.93547E+04 2.19990E+04 1.96280E+05 7.09952E-09 1.80125E-09
 -1       878 4.77523E+05 7.49307E+04 8.85641E+03 1.89763E+05 8.16726E-10 1.87811E-10
 -1       879 4.72351E+05 8.19104E+04 4.53614E+03 1.96894E+05-1.27020E-08 5.88898E-11
 -1       880 4.77923E+05 7.51809E+04 2.05096E+03 1.89853E+05-7.08496E-10 8.76764E-09
 -1       881 4.71857E+05 8.14092E+04 1.06918E+03 1.96854E+05 2.10309E-09 2.42864E-10
 -1       882 4.77956E+05 7.52248E+04 6.12295E+02 1.89867E+05 8.39327E-09-3.53876E-09
 -1       883 4.71819E+05 8.13701E+04 5.56237E+02 1.96829E+05 8.55380E-10-7.24162E-09
 -1       884 4.77946E+05 7.52271E+04 7.86674E+02 1.89869E+05 4.03270E-09 3.73586E-09
 -1       885 4.71896E+05 8.14151E+04 1.53291E+03 1.96840E+05 2.42876E-08 5.84043E-09
 -1       886 4.77877E+05 7.51775E+04 3.03218E+03 1.89856E+05 1.26931E-10 5.03519E-09
 -1       887 4.72643E+05 8.21468E+04 6.75163E+03 1.96864E+05-8.04891E-09-1.11049E-09
 -1       888 4.77257E+05 7.48210E+04 1.32050E+04 1.89727E+05 2.35167E-09 5.08771E-09
 -1       889 4.81858E+05 9.32775E+04 3.28059E+04 1.95961E+05 3.53528E-09 9.40054E-09
 -1       890 4.69701E+05 7.11971E+04 5.69863E+04 1.88074E+05-5.28007E-09-6.39920E-09
 -1       891 3.98080E+02-2.45064E+05-8.60544E+03 4.87771E+04-1.79443E-09-6.79029E-09
 -1       892-2.05821E+03-2.47621E+05-6.63565E+03 9.81646E+04-1.25492E-08-2.26112E-09
 -1       893 3.67266E+01-2.45950E+05-5.87863E+03 4.86780E+04 4.47517E-09-9.45874E-10
 -1       894-3.62152E+03-2.48642E+05-1.02478E+04 9.80544E+04 2.93676E-09-1.04287E-08
 -1       895 7.98761E+02-2.43829E+05-1.59948E+04 4.88843E+04 2.66482E-09 5.74073E-09
 -1       956-4.51302E+05-8.51222E+03-1.94168E+04 5.11537E+04-1.82627E-09 5.29326E-10
 -1       957-4.55009E+05-2.71307E+03-9.87235E+03 6.04439E+04 8.10360E-09 6.83849E-09
 -1       958-4.53009E+05-2.25720E+02-4.44734E+03 5.08386E+04 1.12104E-08 2.93812E-09
 -1       959-4.53363E+05 4.24706E+01-2.26335E+03 6.07861E+04-3.25963E-09 6.88942E-09
 -1       960-4.53219E+05 1.49441E+02-1.09965E+03 5.08046E+04-1.31549E-08 2.04727E-09
 -1       961-4.53284E+05 1.84630E+02-5.74082E+02 6.08251E+04-2.40452E-08-7.88032E-09
 -1       962-4.53288E+05 1.67288E+02-3.14283E+02 5.07984E+04-1.15715E-08 9.22228E-09
 -1       963-4.53310E+05 2.04520E+02-2.25552E+02 6.08331E+04-9.59244E-09-4.80577E-09
 -1       964-4.53314E+05 1.79923E+02-2.42420E+02 5.07962E+04-2.80852E-09-7.72661E-09
 -1       965-4.53334E+05 2.13710E+02-3.92781E+02 6.08335E+04 4.83259E-09 4.11956E-09
 -1       966-4.53302E+05 1.87298E+02-7.23846E+02 5.07980E+04-1.55319E-09 1.25356E-08
 -1       967-4.53417E+05 1.38524E+02-1.47932E+03 6.08126E+04 1.47156E-09 9.61791E-09
 -1       968-4.53187E+05-4.33308E+01-2.89896E+03 5.08178E+04-1.72804E-10-1.95359E-09
 -1       969-4.54512E+05-1.64862E+03-6.43850E+03 6.06037E+04-5.30690E-10 8.67385E-09
 -1       970-4.52084E+05-5.44430E+03-1.26606E+04 5.10159E+04 2.00453E-09 5.12409E-09
 -1       971-5.69626E+05 4.46396E+02-2.30985E+04 1.50060E+04-8.19637E-09 7.89714E-09
 -1       972-5.76431E+05-4.26416E+03-1.34984E+04 2.79525E+04-7.17455E-09-4.91582E-09
 -1       973-5.72669E+05 1.18073E+02-5.85350E+03 1.48155E+04-5.12682E-09-7.60065E-09
 -1       974-5.73248E+05-1.45551E+02-3.08674E+03 2.81778E+04 2.54113E-09-9.13133E-10
 -1       975-5.72934E+05 7.33570E+01-1.50439E+03 1.47759E+04-2.18688E-09-6.53245E-10
 -1       976-5.73027E+05 1.10378E+02-8.36119E+02 2.82360E+04-1.40831E-08-1.23396E-09
 -1       977-5.72978E+05 7.40780E+01-5.44910E+02 1.47566E+04 2.66618E-09 4.54861E-10
 -1       978-5.73029E+05 1.33646E+02-5.55872E+02 2.82625E+04 2.49729E-08-1.38016E-09
 -1       979-5.72979E+05 8.36660E+01-8.23364E+02 1.47492E+04 1.26783E-08-1.09032E-08
 -1       980-5.73095E+05 1.11534E+02-1.55394E+03 2.82648E+04 1.51555E-08-1.53721E-08
 -1       981-5.72917E+05 1.11385E+02-2.97427E+03 1.47542E+04-3.21847E-09-7.19061E-09
 -1       982-5.73620E+05-3.71325E+02-6.22480E+03 2.82389E+04-4.38263E-09 8.56895E-09
 -1       983-5.72420E+05 2.38000E+02-1.18404E+04 1.47761E+04 3.14822E-09 4.35648E-09
 -1       984-5.80173E+05-8.68407E+03-2.73712E+04 2.80879E+04-1.03014E-08-3.15822E-09
 -1       985-5.66293E+05 9.49091E+02-4.68191E+04 1.49181E+04 5.92445E-09 6.94126E-09
 -3
 9999
