
 stresses (elem, integ.pnt.,sxx,syy,szz,sxy,sxz,syz) for set ELALL and time  0.1000000E+01

         1   1 -5.921077E+06 -7.232865E+05 -9.463415E+05 -1.207517E+04 -6.433299E+05  1.262673E+01
         1   2 -5.773907E+06  1.750785E+05 -4.024024E+05 -3.026773E+03 -4.231646E+05  2.081595E+00
         1   3 -5.918993E+06  2.234736E+04 -2.653916E+05  6.023509E+03 -2.030111E+05 -1.987806E+00
         1   4 -5.921077E+06 -7.232868E+05 -9.463416E+05  1.384572E-06 -6.433299E+05  2.867182E-09
         1   5 -5.773907E+06  1.750785E+05 -4.024024E+05  5.332035E-07 -4.231646E+05  1.158010E-08
         1   6 -5.918993E+06  2.234729E+04 -2.653916E+05  7.472433E-07 -2.030111E+05 -6.407297E-09
         1   7 -5.921077E+06 -7.232865E+05 -9.463415E+05  1.207517E+04 -6.433299E+05 -1.262673E+01
         1   8 -5.773907E+06  1.750785E+05 -4.024024E+05  3.026773E+03 -4.231646E+05 -2.081595E+00
         1   9 -5.918993E+06  2.234736E+04 -2.653916E+05 -6.023509E+03 -2.030111E+05  1.987806E+00
         1  10 -5.921524E+06 -7.233989E+05 -9.471267E+05 -1.207517E+04 -2.086517E-10  3.737075E-09
         1  11 -5.774100E+06  1.750298E+05 -4.027422E+05 -3.026772E+03 -2.030375E-09  9.272092E-09
         1  12 -5.919037E+06  2.233616E+04 -2.654698E+05  6.023509E+03  2.939698E-10  1.688414E-10
         1  13 -5.921525E+06 -7.233992E+05 -9.471268E+05  5.596016E-07  4.345800E-09  2.642107E-09
         1  14 -5.774100E+06  1.750298E+05 -4.027422E+05 -4.298030E-07  4.263773E-09  6.000460E-09
         1  15 -5.919037E+06  2.233609E+04 -2.654698E+05 -7.313197E-07  1.029467E-08 -8.987282E-10
         1  16 -5.921524E+06 -7.233989E+05 -9.471267E+05  1.207517E+04  1.193904E-10  1.547518E-09
         1  17 -5.774100E+06  1.750298E+05 -4.027422E+05  3.026772E+03  3.149495E-09  1.136479E-08
         1  18 -5.919037E+06  2.233616E+04 -2.654698E+05 -6.023509E+03  4.323415E-09 -1.155919E-09
         1  19 -5.921077E+06 -7.232865E+05 -9.463415E+05 -1.207517E+04  6.433299E+05 -1.262673E+01
         1  20 -5.773907E+06  1.750785E+05 -4.024024E+05 -3.026773E+03  4.231646E+05 -2.081595E+00
         1  21 -5.918993E+06  2.234736E+04 -2.653916E+05  6.023509E+03  2.030111E+05  1.987806E+00
         1  22 -5.921077E+06 -7.232868E+05 -9.463416E+05  8.345948E-07  6.433299E+05  2.437679E-09
         1  23 -5.773907E+06  1.750785E+05 -4.024024E+05 -4.298019E-07  4.231646E+05  3.253121E-09
         1  24 -5.918993E+06  2.234729E+04 -2.653916E+05  5.409263E-07  2.030111E+05  1.873594E-09
         1  25 -5.921077E+06 -7.232865E+05 -9.463415E+05  1.207517E+04  6.433299E+05  1.262673E+01
         1  26 -5.773907E+06  1.750785E+05 -4.024024E+05  3.026773E+03  4.231646E+05  2.081595E+00
         1  27 -5.918993E+06  2.234736E+04 -2.653916E+05 -6.023509E+03  2.030111E+05 -1.987806E+00
         2   1 -5.865411E+06 -1.135959E+05 -2.198766E+05 -1.818403E+03 -1.590692E+05  4.701561E-01
         2   2 -5.840915E+06  2.751970E+04 -1.039133E+05 -4.272557E+02 -1.044515E+05  7.253699E-02
         2   3 -5.864995E+06  3.412001E+03 -6.505280E+04  9.639023E+02 -4.983253E+04 -7.807635E-02
         2   4 -5.865411E+06 -1.135959E+05 -2.198766E+05 -2.179194E-07 -1.590692E+05 -4.865785E-09
         2   5 -5.840915E+06  2.751970E+04 -1.039133E+05  2.756427E-07 -1.044515E+05  1.512701E-08
         2   6 -5.864995E+06  3.411999E+03 -6.505280E+04  9.754878E-07 -4.983253E+04 -1.097489E-09
         2   7 -5.865411E+06 -1.135959E+05 -2.198766E+05  1.818403E+03 -1.590692E+05 -4.701561E-01
         2   8 -5.840915E+06  2.751970E+04 -1.039133E+05  4.272557E+02 -1.044515E+05 -7.253700E-02
         2   9 -5.864995E+06  3.412001E+03 -6.505280E+04 -9.639023E+02 -4.983253E+04  7.807635E-02
         2  10 -5.865439E+06 -1.136027E+05 -2.199246E+05 -1.818403E+03 -6.963252E-09 -4.663118E-09
         2  11 -5.840927E+06  2.751674E+04 -1.039340E+05 -4.272557E+02  3.387894E-09 -1.119566E-08
         2  12 -5.864998E+06  3.411327E+03 -6.505751E+04  9.639023E+02  5.448301E-09  1.017108E-08
         2  13 -5.865439E+06 -1.136027E+05 -2.199246E+05 -1.593175E-06  8.592017E-09 -8.682083E-10
         2  14 -5.840927E+06  2.751674E+04 -1.039340E+05 -1.369647E-07  6.775371E-09  8.669167E-09
         2  15 -5.864998E+06  3.411325E+03 -6.505751E+04  8.154220E-08  6.816213E-10  1.771350E-09
         2  16 -5.865439E+06 -1.136027E+05 -2.199246E+05  1.818403E+03  4.278787E-09  3.945686E-09
         2  17 -5.840927E+06  2.751674E+04 -1.039340E+05  4.272557E+02  1.287117E-09  1.024309E-08
         2  18 -5.864998E+06  3.411327E+03 -6.505751E+04 -9.639023E+02  3.921123E-09  3.754310E-09
         2  19 -5.865411E+06 -1.135959E+05 -2.198766E+05 -1.818403E+03  1.590692E+05 -4.701560E-01
         2  20 -5.840915E+06  2.751970E+04 -1.039133E+05 -4.272557E+02  1.044515E+05 -7.253697E-02
         2  21 -5.864995E+06  3.412001E+03 -6.505280E+04  9.639023E+02  4.983253E+04  7.807642E-02
         2  22 -5.865411E+06 -1.135959E+05 -2.198766E+05  3.321842E-07  1.590692E+05 -1.813979E-09
         2  23 -5.840915E+06  2.751970E+04 -1.039133E+05  4.131803E-07  1.044515E+05 -5.348465E-09
         2  24 -5.864995E+06  3.411999E+03 -6.505280E+04  7.004272E-07  4.983253E+04  7.291840E-09
         2  25 -5.865411E+06 -1.135959E+05 -2.198766E+05  1.818403E+03  1.590692E+05  4.701560E-01
         2  26 -5.840915E+06  2.751970E+04 -1.039133E+05  4.272557E+02  1.044515E+05  7.253693E-02
         2  27 -5.864995E+06  3.412001E+03 -6.505280E+04 -9.639023E+02  4.983253E+04 -7.807639E-02
         3   1 -5.856126E+06 -1.775357E+04 -5.227727E+04 -2.652140E+02 -3.922183E+04  1.690797E-02
         3   2 -5.851939E+06  4.317495E+03 -2.665371E+04 -5.492485E+01 -2.555313E+04  2.281249E-03
         3   3 -5.856042E+06  4.670206E+02 -1.647165E+04  1.553603E+02 -1.188447E+04 -3.001143E-03
         3   4 -5.856126E+06 -1.775357E+04 -5.227727E+04  5.566312E-07 -3.922183E+04 -5.260040E-09
         3   5 -5.851939E+06  4.317495E+03 -2.665371E+04 -3.204929E-07 -2.555313E+04  7.122747E-09
         3   6 -5.856042E+06  4.670205E+02 -1.647165E+04  1.174738E-06 -1.188447E+04  3.246546E-09
         3   7 -5.856126E+06 -1.775357E+04 -5.227727E+04  2.652140E+02 -3.922183E+04 -1.690800E-02
         3   8 -5.851939E+06  4.317495E+03 -2.665371E+04  5.492485E+01 -2.555313E+04 -2.281318E-03
         3   9 -5.856042E+06  4.670206E+02 -1.647165E+04 -1.553603E+02 -1.188447E+04  3.001124E-03
         3  10 -5.856128E+06 -1.775399E+04 -5.228018E+04 -2.652140E+02 -3.998681E-09 -7.663892E-11
         3  11 -5.851939E+06  4.317317E+03 -2.665495E+04 -5.492485E+01 -9.768823E-09 -8.652435E-09
         3  12 -5.856043E+06  4.669822E+02 -1.647192E+04  1.553603E+02 -1.946350E-09  6.532124E-09
         3  13 -5.856128E+06 -1.775399E+04 -5.228018E+04  1.106740E-06  1.322579E-10 -4.298636E-10
         3  14 -5.851939E+06  4.317317E+03 -2.665495E+04  3.671506E-07  4.297613E-09  2.588465E-09
         3  15 -5.856043E+06  4.669822E+02 -1.647192E+04  1.277884E-06  2.282809E-09 -2.148156E-10
         3  16 -5.856128E+06 -1.775399E+04 -5.228018E+04  2.652140E+02  8.627744E-09  7.699755E-11
         3  17 -5.851939E+06  4.317317E+03 -2.665495E+04  5.492485E+01  4.231484E-09  1.296981E-08
         3  18 -5.856043E+06  4.669822E+02 -1.647192E+04 -1.553603E+02 -4.984941E-09  1.289918E-08
         3  19 -5.856126E+06 -1.775357E+04 -5.227727E+04 -2.652140E+02  3.922183E+04 -1.690796E-02
         3  20 -5.851939E+06  4.317495E+03 -2.665371E+04 -5.492485E+01  2.555313E+04 -2.281273E-03
         3  21 -5.856042E+06  4.670206E+02 -1.647165E+04  1.553603E+02  1.188447E+04  3.001160E-03
         3  22 -5.856126E+06 -1.775357E+04 -5.227727E+04  1.381793E-06  3.922183E+04  1.727933E-09
         3  23 -5.851939E+06  4.317495E+03 -2.665371E+04  1.054795E-06  2.555313E+04 -3.426636E-09
         3  24 -5.856042E+06  4.670205E+02 -1.647165E+04  6.590144E-07  1.188447E+04 -9.795947E-10
         3  25 -5.856126E+06 -1.775357E+04 -5.227727E+04  2.652140E+02  3.922183E+04  1.690794E-02
         3  26 -5.851939E+06  4.317495E+03 -2.665371E+04  5.492485E+01  2.555313E+04  2.281265E-03
         3  27 -5.856042E+06  4.670206E+02 -1.647165E+04 -1.553603E+02  1.188447E+04 -3.001147E-03
         4   1 -5.854574E+06 -2.746197E+03 -1.321549E+04 -3.910283E+01 -9.202700E+03  5.849221E-04
         4   2 -5.853750E+06  7.421495E+02 -7.801484E+03 -5.437378E+00 -5.266424E+03  4.655463E-05
         4   3 -5.854559E+06 -2.250614E+02 -6.082282E+03  2.822853E+01 -1.330076E+03 -6.101285E-05
         4   4 -5.854574E+06 -2.746197E+03 -1.321549E+04  1.200219E-06 -9.202700E+03 -1.167690E-09
         4   5 -5.853750E+06  7.421495E+02 -7.801484E+03 -5.632299E-07 -5.266424E+03  9.066818E-09
         4   6 -5.854559E+06 -2.250614E+02 -6.082282E+03  6.645407E-07 -1.330076E+03 -1.997892E-10
         4   7 -5.854574E+06 -2.746197E+03 -1.321549E+04  3.910283E+01 -9.202700E+03 -5.849433E-04
         4   8 -5.853750E+06  7.421495E+02 -7.801484E+03  5.437378E+00 -5.266424E+03 -4.657303E-05
         4   9 -5.854559E+06 -2.250614E+02 -6.082282E+03 -2.822853E+01 -1.330076E+03  6.101497E-05
         4  10 -5.854574E+06 -2.746220E+03 -1.321565E+04 -3.910283E+01  2.168793E-09 -1.665250E-08
         4  11 -5.853750E+06  7.421420E+02 -7.801536E+03 -5.437377E+00 -1.226439E-08  1.554076E-08
         4  12 -5.854559E+06 -2.250618E+02 -6.082285E+03  2.822853E+01 -5.316985E-09  5.795820E-09
         4  13 -5.854574E+06 -2.746220E+03 -1.321565E+04  1.475272E-06 -8.927068E-09 -4.854160E-10
         4  14 -5.853750E+06  7.421420E+02 -7.801536E+03  9.495692E-07  2.647429E-10  2.635402E-09
         4  15 -5.854559E+06 -2.250618E+02 -6.082285E+03 -1.295217E-06  5.803934E-09  2.081496E-09
         4  16 -5.854574E+06 -2.746220E+03 -1.321565E+04  3.910283E+01 -2.846994E-10 -8.067483E-09
         4  17 -5.853750E+06  7.421420E+02 -7.801536E+03  5.437376E+00  6.230429E-09 -1.634054E-09
         4  18 -5.854559E+06 -2.250618E+02 -6.082285E+03 -2.822853E+01  1.424307E-09  1.399780E-09
         4  19 -5.854574E+06 -2.746197E+03 -1.321549E+04 -3.910283E+01  9.202700E+03 -5.848957E-04
         4  20 -5.853750E+06  7.421495E+02 -7.801484E+03 -5.437372E+00  5.266424E+03 -4.652668E-05
         4  21 -5.854559E+06 -2.250614E+02 -6.082282E+03  2.822853E+01  1.330076E+03  6.103260E-05
         4  22 -5.854574E+06 -2.746197E+03 -1.321549E+04  1.475270E-06  9.202700E+03 -2.165158E-09
         4  23 -5.853750E+06  7.421495E+02 -7.801484E+03  1.499678E-06  5.266424E+03 -8.314987E-09
         4  24 -5.854559E+06 -2.250614E+02 -6.082282E+03  9.395989E-07  1.330076E+03  5.640722E-09
         4  25 -5.854574E+06 -2.746197E+03 -1.321549E+04  3.910283E+01  9.202700E+03  5.848789E-04
         4  26 -5.853750E+06  7.421495E+02 -7.801484E+03  5.437375E+00  5.266424E+03  4.649426E-05
         4  27 -5.854559E+06 -2.250614E+02 -6.082282E+03 -2.822853E+01  1.330076E+03 -6.103102E-05
         5   1 -5.854483E+06 -3.692476E+02 -5.824989E+03 -2.215097E+01 -2.552973E+02  9.232734E-06
         5   2 -5.853843E+06  5.772262E+02 -6.354089E+03  3.812933E+00  2.947361E+03  1.826667E-05
         5   3 -5.854492E+06 -1.941732E+03 -9.849428E+03  2.977686E+01  6.150013E+03  2.976861E-04
         5   4 -5.854483E+06 -3.692476E+02 -5.824989E+03 -1.794649E-07 -2.552973E+02 -2.916580E-09
         5   5 -5.853843E+06  5.772262E+02 -6.354089E+03 -1.762169E-06  2.947361E+03 -4.266703E-09
         5   6 -5.854492E+06 -1.941732E+03 -9.849428E+03  4.371226E-07  6.150013E+03 -9.939145E-09
         5   7 -5.854483E+06 -3.692476E+02 -5.824989E+03  2.215097E+01 -2.552973E+02 -9.228993E-06
         5   8 -5.853843E+06  5.772262E+02 -6.354089E+03 -3.812935E+00  2.947361E+03 -1.831855E-05
         5   9 -5.854492E+06 -1.941732E+03 -9.849428E+03 -2.977687E+01  6.150013E+03 -2.976613E-04
         5  10 -5.854483E+06 -3.692476E+02 -5.824989E+03 -2.215098E+01  1.391042E-09 -3.902399E-09
         5  11 -5.853843E+06  5.772238E+02 -6.354105E+03  3.812931E+00 -1.025773E-09  2.629851E-09
         5  12 -5.854492E+06 -1.941742E+03 -9.849500E+03  2.977686E+01 -1.164807E-09 -5.843277E-09
         5  13 -5.854483E+06 -3.692476E+02 -5.824989E+03 -1.004631E-06  4.693222E-09  3.587623E-10
         5  14 -5.853843E+06  5.772238E+02 -6.354105E+03 -1.487115E-06  4.562446E-09 -1.683116E-09
         5  15 -5.854492E+06 -1.941742E+03 -9.849500E+03 -5.255623E-07 -3.770191E-10 -2.836739E-09
         5  16 -5.854483E+06 -3.692476E+02 -5.824989E+03  2.215098E+01 -4.813681E-09  4.620085E-09
         5  17 -5.853843E+06  5.772238E+02 -6.354105E+03 -3.812933E+00  5.389649E-09  2.639492E-09
         5  18 -5.854492E+06 -1.941742E+03 -9.849500E+03 -2.977686E+01  3.246653E-09  7.031166E-09
         5  19 -5.854483E+06 -3.692476E+02 -5.824989E+03 -2.215098E+01  2.552973E+02 -9.172744E-06
         5  20 -5.853843E+06  5.772262E+02 -6.354089E+03  3.812934E+00 -2.947361E+03 -1.824839E-05
         5  21 -5.854492E+06 -1.941732E+03 -9.849428E+03  2.977687E+01 -6.150013E+03 -2.976680E-04
         5  22 -5.854483E+06 -3.692476E+02 -5.824989E+03 -1.794742E-07  2.552973E+02  4.554071E-09
         5  23 -5.853843E+06  5.772262E+02 -6.354089E+03  3.007373E-07 -2.947361E+03 -6.869197E-09
         5  24 -5.854492E+06 -1.941732E+03 -9.849428E+03  1.021621E-06 -6.150013E+03  4.075726E-09
         5  25 -5.854483E+06 -3.692476E+02 -5.824989E+03  2.215097E+01  2.552973E+02  9.176484E-06
         5  26 -5.853843E+06  5.772262E+02 -6.354089E+03 -3.812932E+00 -2.947361E+03  1.825049E-05
         5  27 -5.854492E+06 -1.941732E+03 -9.849428E+03 -2.977686E+01 -6.150013E+03  2.976533E-04
         6   1 -5.855509E+06  2.996064E+02 -1.204568E+04 -1.102917E+02  8.127664E+03 -1.457021E-03
         6   2 -5.852587E+06  3.068168E+03 -1.909847E+04  3.902346E+01  1.791867E+04  1.136594E-03
         6   3 -5.855568E+06 -1.258395E+04 -3.717570E+04  1.883369E+02  2.770945E+04  8.482664E-03
         6   4 -5.855509E+06  2.996064E+02 -1.204568E+04  8.789380E-07  8.127664E+03  3.475686E-09
         6   5 -5.852587E+06  3.068168E+03 -1.909847E+04  2.965440E-07  1.791867E+04  1.009453E-08
         6   6 -5.855568E+06 -1.258395E+04 -3.717570E+04 -2.858466E-07  2.770945E+04 -8.014492E-09
         6   7 -5.855509E+06  2.996064E+02 -1.204568E+04  1.102917E+02  8.127664E+03  1.457047E-03
         6   8 -5.852587E+06  3.068168E+03 -1.909847E+04 -3.902346E+01  1.791867E+04 -1.136622E-03
         6   9 -5.855568E+06 -1.258395E+04 -3.717570E+04 -1.883369E+02  2.770945E+04 -8.482639E-03
         6  10 -5.855509E+06  2.995885E+02 -1.204581E+04 -1.102917E+02  1.715061E-09  1.129529E-11
         6  11 -5.852588E+06  3.068081E+03 -1.909908E+04  3.902346E+01 -1.206713E-09  8.576245E-09
         6  12 -5.855569E+06 -1.258415E+04 -3.717716E+04  1.883369E+02 -4.737848E-10  4.403257E-09
         6  13 -5.855509E+06  2.995884E+02 -1.204581E+04  6.038821E-07 -4.622263E-10  3.238605E-09
         6  14 -5.852588E+06  3.068081E+03 -1.909908E+04  1.590156E-07  5.917249E-09  4.318192E-09
         6  15 -5.855569E+06 -1.258415E+04 -3.717716E+04 -3.546123E-07 -5.835894E-09  3.238484E-09
         6  16 -5.855509E+06  2.995885E+02 -1.204581E+04  1.102917E+02 -4.162000E-09 -8.647214E-09
         6  17 -5.852588E+06  3.068081E+03 -1.909908E+04 -3.902346E+01 -3.620139E-09  4.378421E-09
         6  18 -5.855569E+06 -1.258415E+04 -3.717716E+04 -1.883369E+02  1.440226E-09 -8.501068E-11
         6  19 -5.855509E+06  2.996064E+02 -1.204568E+04 -1.102917E+02 -8.127664E+03  1.457077E-03
         6  20 -5.852587E+06  3.068168E+03 -1.909847E+04  3.902346E+01 -1.791867E+04 -1.136558E-03
         6  21 -5.855568E+06 -1.258395E+04 -3.717570E+04  1.883369E+02 -2.770945E+04 -8.482651E-03
         6  22 -5.855509E+06  2.996064E+02 -1.204568E+04  8.789379E-07 -8.127664E+03  1.915841E-09
         6  23 -5.852587E+06  3.068168E+03 -1.909847E+04  2.965439E-07 -1.791867E+04 -1.463722E-09
         6  24 -5.855568E+06 -1.258395E+04 -3.717570E+04  1.364479E-06 -2.770945E+04  1.241995E-08
         6  25 -5.855509E+06  2.996064E+02 -1.204568E+04  1.102917E+02 -8.127664E+03 -1.457095E-03
         6  26 -5.852587E+06  3.068168E+03 -1.909847E+04 -3.902346E+01 -1.791867E+04  1.136549E-03
         6  27 -5.855568E+06 -1.258395E+04 -3.717570E+04 -1.883369E+02 -2.770945E+04  8.482649E-03
         7   1 -5.861851E+06  2.414106E+03 -4.620402E+04 -6.832380E+02  3.525049E+04 -3.914797E-02
         7   2 -5.844780E+06  1.950799E+04 -7.371371E+04  3.028969E+02  7.399062E+04  3.642769E-02
         7   3 -5.862147E+06 -8.052250E+04 -1.558975E+05  1.289041E+03  1.127307E+05  2.361976E-01
         7   4 -5.861851E+06  2.414105E+03 -4.620402E+04 -4.525804E-07  3.525049E+04 -8.401680E-09
         7   5 -5.844780E+06  1.950799E+04 -7.371371E+04 -1.133193E-06  7.399062E+04  2.304498E-09
         7   6 -5.862147E+06 -8.052250E+04 -1.558975E+05 -4.039983E-07  1.127307E+05 -6.571847E-09
         7   7 -5.861851E+06  2.414106E+03 -4.620402E+04  6.832380E+02  3.525049E+04  3.914793E-02
         7   8 -5.844780E+06  1.950799E+04 -7.371371E+04 -3.028969E+02  7.399062E+04 -3.642770E-02
         7   9 -5.862147E+06 -8.052250E+04 -1.558975E+05 -1.289041E+03  1.127307E+05 -2.361976E-01
         7  10 -5.861852E+06  2.413768E+03 -4.620638E+04 -6.832380E+02 -4.431514E-09  8.345860E-11
         7  11 -5.844786E+06  1.950650E+04 -7.372409E+04  3.028969E+02  1.507430E-10  1.720812E-08
         7  12 -5.862161E+06 -8.052595E+04 -1.559216E+05  1.289041E+03 -2.619642E-09 -4.305934E-09
         7  13 -5.861852E+06  2.413767E+03 -4.620638E+04 -4.525771E-07  3.938085E-10  1.079711E-09
         7  14 -5.844786E+06  1.950650E+04 -7.372409E+04 -4.455249E-07 -2.412610E-09  1.411776E-09
         7  15 -5.862161E+06 -8.052595E+04 -1.559216E+05 -1.126011E-06  6.641817E-09  1.869765E-10
         7  16 -5.861852E+06  2.413768E+03 -4.620638E+04  6.832380E+02  1.004867E-10 -8.315215E-11
         7  17 -5.844786E+06  1.950650E+04 -7.372409E+04 -3.028969E+02  4.806428E-09 -4.253025E-09
         7  18 -5.862161E+06 -8.052595E+04 -1.559216E+05 -1.289041E+03  5.972098E-09 -4.328627E-09
         7  19 -5.861851E+06  2.414106E+03 -4.620402E+04 -6.832380E+02 -3.525049E+04  3.914802E-02
         7  20 -5.844780E+06  1.950799E+04 -7.371371E+04  3.028969E+02 -7.399062E+04 -3.642766E-02
         7  21 -5.862147E+06 -8.052250E+04 -1.558975E+05  1.289041E+03 -1.127307E+05 -2.361976E-01
         7  22 -5.861851E+06  2.414105E+03 -4.620402E+04  9.227126E-07 -3.525049E+04  8.756501E-09
         7  23 -5.844780E+06  1.950799E+04 -7.371371E+04 -5.830591E-07 -7.399062E+04 -2.669034E-09
         7  24 -5.862147E+06 -8.052250E+04 -1.558975E+05  4.211552E-07 -1.127307E+05  3.756467E-09
         7  25 -5.861851E+06  2.414106E+03 -4.620402E+04  6.832380E+02 -3.525049E+04 -3.914799E-02
         7  26 -5.844780E+06  1.950799E+04 -7.371371E+04 -3.028969E+02 -7.399062E+04  3.642767E-02
         7  27 -5.862147E+06 -8.052250E+04 -1.558975E+05 -1.289041E+03 -1.127307E+05  2.361976E-01
         8   1 -5.900130E+06  1.583729E+04 -1.881637E+05 -4.269614E+03  1.438917E+05 -9.986621E-01
         8   2 -5.797298E+06  1.240978E+05 -2.853369E+05  2.145216E+03  2.999404E+05  1.045757E+00
         8   3 -5.901639E+06 -5.126950E+05 -6.709928E+05  8.559167E+03  4.559967E+05  6.343930E+00
         8   4 -5.900130E+06  1.583726E+04 -1.881637E+05 -6.051996E-07  1.438917E+05 -4.117003E-09
         8   5 -5.797298E+06  1.240978E+05 -2.853369E+05 -3.518306E-07  2.999404E+05  1.671045E-08
         8   6 -5.901639E+06 -5.126952E+05 -6.709929E+05 -7.175318E-07  4.559967E+05  1.499185E-09
         8   7 -5.900130E+06  1.583729E+04 -1.881637E+05  4.269614E+03  1.438917E+05  9.986620E-01
         8   8 -5.797298E+06  1.240978E+05 -2.853369E+05 -2.145216E+03  2.999404E+05 -1.045757E+00
         8   9 -5.901639E+06 -5.126950E+05 -6.709928E+05 -8.559167E+03  4.559967E+05 -6.343930E+00
         8  10 -5.900152E+06  1.583167E+04 -1.882030E+05 -4.269614E+03  3.062455E-09  5.017800E-11
         8  11 -5.797395E+06  1.240733E+05 -2.855076E+05  2.145215E+03 -2.831377E-09  4.314520E-09
         8  12 -5.901864E+06 -5.127515E+05 -6.713873E+05  8.559166E+03  2.218304E-10  3.227434E-09
         8  13 -5.900152E+06  1.583163E+04 -1.882030E+05 -1.430416E-06  1.852946E-25 -7.475841E-11
         8  14 -5.797395E+06  1.240733E+05 -2.855076E+05 -7.671562E-08  4.557318E-09  5.769158E-10
         8  15 -5.901864E+06 -5.127517E+05 -6.713873E+05 -3.737717E-07 -6.576440E-09 -8.973916E-10
         8  16 -5.900152E+06  1.583167E+04 -1.882030E+05  4.269614E+03  1.820726E-09 -8.685908E-09
         8  17 -5.797395E+06  1.240733E+05 -2.855076E+05 -2.145215E+03 -8.692282E-09  8.637623E-09
         8  18 -5.901864E+06 -5.127515E+05 -6.713873E+05 -8.559166E+03  2.588535E-09  2.165011E-09
         8  19 -5.900130E+06  1.583729E+04 -1.881637E+05 -4.269614E+03 -1.438917E+05  9.986621E-01
         8  20 -5.797298E+06  1.240978E+05 -2.853369E+05  2.145216E+03 -2.999404E+05 -1.045757E+00
         8  21 -5.901639E+06 -5.126950E+05 -6.709928E+05  8.559167E+03 -4.559967E+05 -6.343930E+00
         8  22 -5.900130E+06  1.583726E+04 -1.881637E+05  1.045236E-06 -1.438917E+05  2.919383E-09
         8  23 -5.797298E+06  1.240978E+05 -2.853369E+05  1.984077E-07 -2.999404E+05 -1.904045E-08
         8  24 -5.901639E+06 -5.126952E+05 -6.709929E+05 -6.487788E-07 -4.559967E+05 -1.487523E-09
         8  25 -5.900130E+06  1.583729E+04 -1.881637E+05  4.269614E+03 -1.438917E+05 -9.986621E-01
         8  26 -5.797298E+06  1.240978E+05 -2.853369E+05 -2.145216E+03 -2.999404E+05  1.045757E+00
         8  27 -5.901639E+06 -5.126950E+05 -6.709928E+05 -8.559167E+03 -4.559967E+05  6.343930E+00
         9   1  2.972092E+06  1.091450E+07  2.820906E+06 -2.019080E+06  1.380853E+05  1.053509E+06
         9   2  2.405576E+06  9.309099E+06  1.915278E+06 -1.852438E+06  4.648012E+05  4.785237E+05
         9   3  1.996075E+06  7.824475E+06  1.420556E+06 -1.942902E+06  5.412452E+05 -9.456368E+04
         9   4  1.171465E+05 -7.326111E+05  1.228363E+05 -1.906905E+06  1.418602E+05  7.978306E+04
         9   5  3.559946E+04 -7.406202E+05  6.520323E+04 -1.778627E+06  4.675711E+05  4.884514E+04
         9   6  1.874767E+04 -7.226283E+05  4.482897E+04 -1.907437E+06  5.412113E+05  1.818902E+04
         9   7 -2.746771E+06 -1.225375E+07 -2.580822E+06 -1.796541E+06  1.453449E+05 -8.760558E+05
         9   8 -2.340002E+06 -1.069287E+07 -1.788379E+06 -1.705792E+06  4.702730E+05 -3.741415E+05
         9   9 -1.962248E+06 -9.197733E+06 -1.332834E+06 -1.872265E+06  5.411894E+05  1.294578E+05
         9  10  2.971779E+06  1.091332E+07  2.818818E+06 -2.019197E+06 -2.730481E-10 -1.566278E-08
         9  11  2.405283E+06  9.308796E+06  1.914445E+06 -1.852616E+06  6.129214E-09  1.849731E-09
         9  12  1.995759E+06  7.824387E+06  1.419990E+06 -1.942862E+06 -8.287970E-09  1.999733E-08
         9  13  1.171231E+05 -7.326234E+05  1.227863E+05 -1.906914E+06 -2.460268E-09  3.620310E-11
         9  14  3.536405E+04 -7.406814E+05  6.478776E+04 -1.778645E+06  1.146760E-08 -1.164789E-10
         9  15  1.843313E+04 -7.227073E+05  4.427797E+04 -1.907445E+06  2.263702E-09  5.093938E-11
         9  16 -2.747004E+06 -1.225459E+07 -2.582330E+06 -1.796438E+06 -3.861991E-10  1.540484E-08
         9  17 -2.340277E+06 -1.069308E+07 -1.789060E+06 -1.705650E+06 -4.691040E-09 -1.908502E-09
         9  18 -1.962567E+06 -9.197829E+06 -1.333417E+06 -1.872322E+06 -1.171567E-08 -1.991832E-08
         9  19  2.972092E+06  1.091450E+07  2.820906E+06 -2.019080E+06 -1.380853E+05 -1.053509E+06
         9  20  2.405576E+06  9.309099E+06  1.915278E+06 -1.852438E+06 -4.648012E+05 -4.785237E+05
         9  21  1.996075E+06  7.824475E+06  1.420556E+06 -1.942902E+06 -5.412452E+05  9.456368E+04
         9  22  1.171465E+05 -7.326111E+05  1.228363E+05 -1.906905E+06 -1.418602E+05 -7.978306E+04
         9  23  3.559946E+04 -7.406202E+05  6.520323E+04 -1.778627E+06 -4.675711E+05 -4.884514E+04
         9  24  1.874767E+04 -7.226283E+05  4.482897E+04 -1.907437E+06 -5.412113E+05 -1.818902E+04
         9  25 -2.746771E+06 -1.225375E+07 -2.580822E+06 -1.796541E+06 -1.453449E+05  8.760558E+05
         9  26 -2.340002E+06 -1.069287E+07 -1.788379E+06 -1.705792E+06 -4.702730E+05  3.741415E+05
         9  27 -1.962248E+06 -9.197733E+06 -1.332834E+06 -1.872265E+06 -5.411894E+05 -1.294578E+05
        10   1  1.765418E+06  6.838063E+06  1.227816E+06 -1.951720E+06  5.011912E+05 -1.040047E+05
        10   2  1.400880E+06  5.285233E+06  9.385790E+05 -1.802248E+06  4.334163E+05 -1.890552E+05
        10   3  1.064493E+06  3.752393E+06  7.112641E+05 -1.927995E+06  3.357639E+05 -2.743466E+05
        10   4  2.086033E+04 -7.240701E+05  4.023984E+04 -1.911490E+06  5.009462E+05  1.112197E+04
        10   5  2.269881E+04 -7.242451E+05  4.099935E+04 -1.773765E+06  4.324089E+05 -9.486017E+03
        10   6  4.174918E+04 -7.178465E+05  5.925059E+04 -1.911412E+06  3.338441E+05 -3.053290E+04
        10   7 -1.726504E+06 -8.229556E+06 -1.148692E+06 -1.871592E+06  5.007137E+05  1.249092E+05
        10   8 -1.357166E+06 -6.697567E+06 -8.571607E+05 -1.745455E+06  4.314111E+05  1.684261E+05
        10   9 -9.818854E+05 -5.167888E+06 -5.928796E+05 -1.894884E+06  3.319275E+05  2.116065E+05
        10  10  1.765145E+06  6.837984E+06  1.227325E+06 -1.951678E+06 -1.091854E-08  3.164787E-08
        10  11  1.400669E+06  5.285145E+06  9.381605E+05 -1.802182E+06  7.045441E-10 -3.466018E-09
        10  12  1.064353E+06  3.752283E+06  7.109130E+05 -1.927921E+06 -6.132382E-09 -4.023551E-08
        10  13  2.059091E+04 -7.241375E+05  3.976812E+04 -1.911495E+06  6.941239E-09  3.316481E-11
        10  14  2.249810E+04 -7.242953E+05  4.064800E+04 -1.773762E+06 -1.288730E-09  1.011202E-10
        10  15  4.162935E+04 -7.178773E+05  5.903963E+04 -1.911404E+06  2.851244E-09 -8.612496E-11
        10  16 -1.726777E+06 -8.229640E+06 -1.149194E+06 -1.871643E+06 -1.271064E-08 -3.129225E-08
        10  17 -1.357373E+06 -6.697648E+06 -8.575651E+05 -1.745514E+06 -1.357381E-08  4.134839E-09
        10  18 -9.820161E+05 -5.167966E+06 -5.931724E+05 -1.894941E+06 -5.012824E-09  3.966777E-08
        10  19  1.765418E+06  6.838063E+06  1.227816E+06 -1.951720E+06 -5.011912E+05  1.040047E+05
        10  20  1.400880E+06  5.285233E+06  9.385790E+05 -1.802248E+06 -4.334163E+05  1.890552E+05
        10  21  1.064493E+06  3.752393E+06  7.112641E+05 -1.927995E+06 -3.357639E+05  2.743466E+05
        10  22  2.086033E+04 -7.240701E+05  4.023984E+04 -1.911490E+06 -5.009462E+05 -1.112197E+04
        10  23  2.269881E+04 -7.242451E+05  4.099935E+04 -1.773765E+06 -4.324089E+05  9.486017E+03
        10  24  4.174918E+04 -7.178465E+05  5.925059E+04 -1.911412E+06 -3.338441E+05  3.053290E+04
        10  25 -1.726504E+06 -8.229556E+06 -1.148692E+06 -1.871592E+06 -5.007137E+05 -1.249092E+05
        10  26 -1.357166E+06 -6.697567E+06 -8.571607E+05 -1.745455E+06 -4.314111E+05 -1.684261E+05
        10  27 -9.818854E+05 -5.167888E+06 -5.928796E+05 -1.894884E+06 -3.319275E+05 -2.116065E+05
        11   1  8.491394E+05  2.791842E+06  5.790481E+05 -1.931844E+06  2.685825E+05 -2.850660E+05
        11   2  5.481433E+05  1.235189E+06  4.090598E+05 -1.704915E+06  1.544525E+05 -3.557864E+05
        11   3  3.608717E+05 -2.848445E+05  3.125094E+05 -1.755246E+06  3.843031E+04 -4.265006E+05
        11   4  4.854174E+04 -7.104509E+05  7.434226E+04 -1.911919E+06  2.664873E+05 -4.112265E+04
        11   5  1.016971E+05 -7.260647E+05  1.292084E+05 -1.772548E+06  1.522218E+05 -1.079832E+05
        11   6  2.680585E+05 -7.083160E+05  2.546597E+05 -1.910272E+06  3.608099E+04 -1.749861E+05
        11   7 -7.525841E+05 -4.200263E+06 -4.303337E+05 -1.892068E+06  2.643995E+05  2.015077E+05
        11   8 -3.448695E+05 -2.683287E+06 -1.504658E+05 -1.839945E+06  1.499323E+05  1.390722E+05
        11   9  1.753637E+05 -1.131416E+06  1.970595E+05 -2.065188E+06  3.360484E+04  7.636457E+04
        11  10  8.490406E+05  2.791736E+06  5.787617E+05 -1.931783E+06 -3.322157E-09 -6.709919E-08
        11  11  5.480841E+05  1.235047E+06  4.087782E+05 -1.704871E+06 -9.440439E-11 -6.162747E-10
        11  12  3.608213E+05 -2.850402E+05  3.121648E+05 -1.755233E+06 -2.158330E-09  6.643929E-08
        11  13  4.846512E+04 -7.104717E+05  7.420584E+04 -1.911911E+06  1.155894E-09 -3.273398E-10
        11  14  1.016692E+05 -7.260834E+05  1.291431E+05 -1.772534E+06 -5.057127E-09 -6.035449E-10
        11  15  2.680489E+05 -7.083492E+05  2.545998E+05 -1.910267E+06  8.934635E-10 -2.140901E-10
        11  16 -7.526703E+05 -4.200326E+06 -4.305426E+05 -1.892112E+06  1.360229E-09  6.643125E-08
        11  17 -3.448990E+05 -2.683314E+06 -1.505448E+05 -1.839962E+06  1.173045E-09 -2.294609E-10
        11  18  1.753609E+05 -1.131422E+06  1.970463E+05 -2.065190E+06  1.904913E-09 -6.677232E-08
        11  19  8.491394E+05  2.791842E+06  5.790481E+05 -1.931844E+06 -2.685825E+05  2.850660E+05
        11  20  5.481433E+05  1.235189E+06  4.090598E+05 -1.704915E+06 -1.544525E+05  3.557864E+05
        11  21  3.608717E+05 -2.848445E+05  3.125094E+05 -1.755246E+06 -3.843031E+04  4.265006E+05
        11  22  4.854174E+04 -7.104509E+05  7.434226E+04 -1.911919E+06 -2.664873E+05  4.112265E+04
        11  23  1.016971E+05 -7.260647E+05  1.292084E+05 -1.772548E+06 -1.522218E+05  1.079832E+05
        11  24  2.680585E+05 -7.083160E+05  2.546597E+05 -1.910272E+06 -3.608099E+04  1.749861E+05
        11  25 -7.525841E+05 -4.200263E+06 -4.303337E+05 -1.892068E+06 -2.643995E+05 -2.015077E+05
        11  26 -3.448695E+05 -2.683287E+06 -1.504658E+05 -1.839945E+06 -1.499323E+05 -1.390722E+05
        11  27  1.753637E+05 -1.131416E+06  1.970595E+05 -2.065188E+06 -3.360484E+04 -7.636457E+04
        12   1 -6.896359E+06 -1.843361E+06 -1.258761E+06 -2.411462E+06 -1.052226E+06 -4.052384E+05
        12   2 -6.588426E+06 -3.941439E+05 -2.848700E+05 -2.817021E+06 -6.709444E+05 -2.819631E+05
        12   3 -7.029278E+06 -5.283392E+05 -4.592119E+04 -2.685690E+06 -2.990492E+05 -1.340695E+05
        12   4 -8.534407E+06 -2.303756E+06 -1.680633E+06 -2.689664E+06 -1.056073E+06 -4.070367E+05
        12   5 -8.072452E+06 -9.181951E+05 -6.861032E+05 -3.179996E+06 -6.708949E+05 -2.820073E+05
        12   6 -8.361649E+06 -1.119362E+06 -4.311511E+05 -3.133029E+06 -2.950047E+05 -1.324801E+05
        12   7 -1.016982E+07 -2.764225E+06 -2.102702E+06 -2.967329E+06 -1.059904E+06 -4.088328E+05
        12   8 -9.554343E+06 -1.442193E+06 -1.087531E+06 -3.542211E+06 -6.708436E+05 -2.820510E+05
        12   9 -9.692273E+06 -1.710096E+06 -8.165577E+05 -3.579426E+06 -2.909691E+05 -1.308953E+05
        12  10 -6.897605E+06 -1.843841E+06 -1.261181E+06 -2.411808E+06  5.974782E-09  6.048662E-10
        12  11 -6.588936E+06 -3.943529E+05 -2.858782E+05 -2.817174E+06  6.876927E-09 -4.420320E-11
        12  12 -7.029380E+06 -5.283831E+05 -4.612567E+04 -2.685723E+06 -2.468747E-09 -4.664460E-10
        12  13 -8.535665E+06 -2.304241E+06 -1.683077E+06 -2.690014E+06  9.421375E-10  6.218338E-11
        12  14 -8.072963E+06 -9.184046E+05 -6.871138E+05 -3.180150E+06  1.024947E-08  9.663641E-10
        12  15 -8.361749E+06 -1.119405E+06 -4.313507E+05 -3.133061E+06  5.659391E-09  5.100826E-11
        12  16 -1.017109E+07 -2.764716E+06 -2.105171E+06 -2.967682E+06  2.039925E-09 -3.912000E-10
        12  17 -9.554855E+06 -1.442403E+06 -1.088544E+06 -3.542365E+06  1.323564E-09  8.702038E-10
        12  18 -9.692370E+06 -1.710138E+06 -8.167524E+05 -3.579457E+06  2.739218E-09  4.164586E-10
        12  19 -6.896359E+06 -1.843361E+06 -1.258761E+06 -2.411462E+06  1.052226E+06  4.052384E+05
        12  20 -6.588426E+06 -3.941439E+05 -2.848700E+05 -2.817021E+06  6.709444E+05  2.819631E+05
        12  21 -7.029278E+06 -5.283392E+05 -4.592119E+04 -2.685690E+06  2.990492E+05  1.340695E+05
        12  22 -8.534407E+06 -2.303756E+06 -1.680633E+06 -2.689664E+06  1.056073E+06  4.070367E+05
        12  23 -8.072452E+06 -9.181951E+05 -6.861032E+05 -3.179996E+06  6.708949E+05  2.820073E+05
        12  24 -8.361649E+06 -1.119362E+06 -4.311511E+05 -3.133029E+06  2.950047E+05  1.324801E+05
        12  25 -1.016982E+07 -2.764225E+06 -2.102702E+06 -2.967329E+06  1.059904E+06  4.088328E+05
        12  26 -9.554343E+06 -1.442193E+06 -1.087531E+06 -3.542211E+06  6.708436E+05  2.820510E+05
        12  27 -9.692273E+06 -1.710096E+06 -8.165577E+05 -3.579426E+06  2.909691E+05  1.308953E+05
        13   1 -7.659909E+06 -1.039680E+06 -1.703310E+05 -2.816783E+06 -2.333259E+05 -1.018985E+05
        13   2 -7.663495E+06 -1.008944E+06 -2.432753E+04 -3.054125E+06 -1.503749E+05 -6.662074E+04
        13   3 -8.017082E+06 -9.778321E+05 -8.909637E+03 -2.952741E+06 -6.920246E+04 -2.681237E+04
        13   4 -8.347108E+06 -1.280577E+06 -3.558921E+05 -2.983110E+06 -2.329848E+05 -1.017802E+05
        13   5 -8.158822E+06 -1.193965E+06 -1.603904E+05 -3.185459E+06 -1.492243E+05 -6.618166E+04
        13   6 -8.320863E+06 -1.107268E+06 -9.624965E+04 -3.049062E+06 -6.721401E+04 -2.604575E+04
        13   7 -9.033847E+06 -1.521465E+06 -5.414947E+05 -3.149277E+06 -2.326440E+05 -1.016619E+05
        13   8 -8.653910E+06 -1.378974E+06 -2.964757E+05 -3.316698E+06 -1.480746E+05 -6.574293E+04
        13   9 -8.624554E+06 -1.236692E+06 -1.835986E+05 -3.145338E+06 -6.522664E+04 -2.527964E+04
        13  10 -7.659971E+06 -1.039706E+06 -1.704545E+05 -2.816802E+06 -1.092542E-08 -1.787719E-09
        13  11 -7.663520E+06 -1.008955E+06 -2.437909E+04 -3.054133E+06 -9.523332E-09 -2.077894E-10
        13  12 -8.017088E+06 -9.778342E+05 -8.920141E+03 -2.952742E+06  1.124021E-09  2.363667E-09
        13  13 -8.347170E+06 -1.280603E+06 -3.560154E+05 -2.983129E+06  8.394147E-09  7.113744E-10
        13  14 -8.158847E+06 -1.193975E+06 -1.604413E+05 -3.185467E+06 -1.716060E-09  1.166999E-09
        13  15 -8.320868E+06 -1.107270E+06 -9.625957E+04 -3.049064E+06 -2.781250E-09  3.369897E-09
        13  16 -9.033909E+06 -1.521491E+06 -5.416178E+05 -3.149296E+06  2.506030E-09 -8.511938E-10
        13  17 -8.653935E+06 -1.378984E+06 -2.965258E+05 -3.316706E+06  7.419585E-09 -1.016210E-10
        13  18 -8.624558E+06 -1.236694E+06 -1.836080E+05 -3.145340E+06 -5.326103E-09  2.218833E-09
        13  19 -7.659909E+06 -1.039680E+06 -1.703310E+05 -2.816783E+06  2.333259E+05  1.018985E+05
        13  20 -7.663495E+06 -1.008944E+06 -2.432753E+04 -3.054125E+06  1.503749E+05  6.662074E+04
        13  21 -8.017082E+06 -9.778321E+05 -8.909637E+03 -2.952741E+06  6.920246E+04  2.681237E+04
        13  22 -8.347108E+06 -1.280577E+06 -3.558921E+05 -2.983110E+06  2.329848E+05  1.017802E+05
        13  23 -8.158822E+06 -1.193965E+06 -1.603904E+05 -3.185459E+06  1.492243E+05  6.618166E+04
        13  24 -8.320863E+06 -1.107268E+06 -9.624965E+04 -3.049062E+06  6.721401E+04  2.604575E+04
        13  25 -9.033847E+06 -1.521465E+06 -5.414947E+05 -3.149277E+06  2.326440E+05  1.016619E+05
        13  26 -8.653910E+06 -1.378974E+06 -2.964757E+05 -3.316698E+06  1.480746E+05  6.574293E+04
        13  27 -8.624554E+06 -1.236692E+06 -1.835986E+05 -3.145338E+06  6.522664E+04  2.527964E+04
        14   1 -8.981990E+06 -1.405755E+06 -2.656393E+05 -3.230119E+06 -5.702692E+04 -1.553861E+04
        14   2 -9.025873E+06 -1.543378E+06 -2.698798E+05 -3.402721E+06 -3.978481E+04 -6.975610E+02
        14   3 -9.299528E+06 -1.498685E+06 -2.980598E+05 -3.320641E+06 -2.126363E+04  1.084758E+04
        14   4 -8.305302E+06 -1.141255E+06 -7.654187E+04 -3.039322E+06 -5.531749E+04 -1.488227E+04
        14   5 -8.188583E+06 -1.220730E+06 -3.765406E+04 -3.171084E+06 -3.871386E+04 -2.891815E+02
        14   6 -8.301494E+06 -1.117749E+06 -2.217297E+04 -3.048202E+06 -2.082628E+04  1.101218E+04
        14   7 -7.628168E+06 -8.767218E+05  1.125127E+05 -2.848332E+06 -5.360594E+04 -1.422509E+04
        14   8 -7.350608E+06 -8.980368E+05  1.945065E+05 -2.939160E+06 -3.764127E+04  1.198345E+02
        14   9 -7.302490E+06 -7.367552E+05  2.536216E+05 -2.775362E+06 -2.038812E+04  1.117708E+04
        14  10 -8.981993E+06 -1.405756E+06 -2.656460E+05 -3.230119E+06  9.986240E-09 -2.052687E-09
        14  11 -9.025875E+06 -1.543379E+06 -2.698828E+05 -3.402721E+06  2.559190E-09 -1.969181E-09
        14  12 -9.299529E+06 -1.498685E+06 -2.980609E+05 -3.320641E+06  1.711553E-10 -3.013008E-09
        14  13 -8.305306E+06 -1.141256E+06 -7.654813E+04 -3.039323E+06 -1.099927E-09  1.292440E-09
        14  14 -8.188584E+06 -1.220731E+06 -3.765691E+04 -3.171084E+06  5.494897E-10 -4.801964E-10
        14  15 -8.301495E+06 -1.117750E+06 -2.217402E+04 -3.048202E+06  7.564387E-09  6.553101E-10
        14  16 -7.628171E+06 -8.767228E+05  1.125068E+05 -2.848333E+06 -5.678161E-09 -5.149666E-10
        14  17 -7.350610E+06 -8.980372E+05  1.945038E+05 -2.939160E+06  5.669335E-10 -2.236773E-10
        14  18 -7.302490E+06 -7.367555E+05  2.536206E+05 -2.775362E+06 -6.652979E-10  5.879435E-10
        14  19 -8.981990E+06 -1.405755E+06 -2.656393E+05 -3.230119E+06  5.702692E+04  1.553861E+04
        14  20 -9.025873E+06 -1.543378E+06 -2.698798E+05 -3.402721E+06  3.978481E+04  6.975610E+02
        14  21 -9.299528E+06 -1.498685E+06 -2.980598E+05 -3.320641E+06  2.126363E+04 -1.084758E+04
        14  22 -8.305302E+06 -1.141255E+06 -7.654187E+04 -3.039322E+06  5.531749E+04  1.488227E+04
        14  23 -8.188583E+06 -1.220730E+06 -3.765406E+04 -3.171084E+06  3.871386E+04  2.891815E+02
        14  24 -8.301494E+06 -1.117749E+06 -2.217297E+04 -3.048202E+06  2.082628E+04 -1.101218E+04
        14  25 -7.628168E+06 -8.767218E+05  1.125127E+05 -2.848332E+06  5.360594E+04  1.422509E+04
        14  26 -7.350608E+06 -8.980368E+05  1.945065E+05 -2.939160E+06  3.764127E+04 -1.198345E+02
        14  27 -7.302490E+06 -7.367552E+05  2.536216E+05 -2.775362E+06  2.038812E+04 -1.117708E+04
        15   1 -9.770944E+06 -1.744258E+06 -4.373907E+05 -3.509195E+06 -2.028803E+04  1.452192E+04
        15   2 -9.786779E+06 -1.758780E+06 -4.366394E+05 -3.529293E+06 -1.496680E+04  2.099144E+04
        15   3 -9.811639E+06 -1.749999E+06 -4.378517E+05 -3.514194E+06 -7.176597E+03  2.091928E+04
        15   4 -8.254315E+06 -1.163131E+06 -1.675101E+04 -3.093305E+06 -1.888045E+04  1.505242E+04
        15   5 -8.249720E+06 -1.173507E+06 -1.159073E+04 -3.111425E+06 -1.484937E+04  2.103093E+04
        15   6 -8.253848E+06 -1.160296E+06 -7.344677E+03 -3.094351E+06 -8.352089E+03  2.047572E+04
        15   7 -6.735451E+06 -5.818662E+05  4.036727E+05 -2.676483E+06 -1.746900E+04  1.558439E+04
        15   8 -6.710365E+06 -5.880987E+05  4.132379E+05 -2.692608E+06 -1.473161E+04  2.107057E+04
        15   9 -6.693699E+06 -5.704585E+05  4.229373E+05 -2.673544E+06 -9.530884E+03  2.003095E+04
        15  10 -9.770944E+06 -1.744259E+06 -4.373919E+05 -3.509195E+06  2.463358E-09  1.498977E-09
        15  11 -9.786779E+06 -1.758780E+06 -4.366407E+05 -3.529293E+06  5.079072E-09  2.050021E-09
        15  12 -9.811639E+06 -1.750000E+06 -4.378526E+05 -3.514194E+06 -8.715631E-10  1.206960E-09
        15  13 -8.254315E+06 -1.163132E+06 -1.675211E+04 -3.093305E+06 -4.919315E-09  2.791748E-10
        15  14 -8.249721E+06 -1.173508E+06 -1.159197E+04 -3.111425E+06 -7.179023E-09 -3.684091E-10
        15  15 -8.253848E+06 -1.160296E+06 -7.345592E+03 -3.094351E+06 -6.430249E-09 -1.530249E-09
        15  16 -6.735452E+06 -5.818665E+05  4.036716E+05 -2.676483E+06  3.890970E-09 -8.584856E-10
        15  17 -6.710365E+06 -5.880992E+05  4.132367E+05 -2.692608E+06 -4.406317E-10  6.391329E-10
        15  18 -6.693699E+06 -5.704589E+05  4.229364E+05 -2.673544E+06 -3.884213E-09  1.289880E-10
        15  19 -9.770944E+06 -1.744258E+06 -4.373907E+05 -3.509195E+06  2.028803E+04 -1.452192E+04
        15  20 -9.786779E+06 -1.758780E+06 -4.366394E+05 -3.529293E+06  1.496680E+04 -2.099144E+04
        15  21 -9.811639E+06 -1.749999E+06 -4.378517E+05 -3.514194E+06  7.176597E+03 -2.091928E+04
        15  22 -8.254315E+06 -1.163131E+06 -1.675101E+04 -3.093305E+06  1.888045E+04 -1.505242E+04
        15  23 -8.249720E+06 -1.173507E+06 -1.159073E+04 -3.111425E+06  1.484937E+04 -2.103093E+04
        15  24 -8.253848E+06 -1.160296E+06 -7.344677E+03 -3.094351E+06  8.352089E+03 -2.047572E+04
        15  25 -6.735451E+06 -5.818662E+05  4.036727E+05 -2.676483E+06  1.746900E+04 -1.558439E+04
        15  26 -6.710365E+06 -5.880987E+05  4.132379E+05 -2.692608E+06  1.473161E+04 -2.107057E+04
        15  27 -6.693699E+06 -5.704585E+05  4.229373E+05 -2.673544E+06  9.530884E+03 -2.003095E+04
        16   1 -9.419058E+06 -1.664826E+06 -3.415981E+05 -3.473728E+06 -6.504232E+03  1.901975E+04
        16   2 -9.378378E+06 -1.518902E+06 -3.064657E+05 -3.330868E+06  5.373751E+02  1.870216E+04
        16   3 -9.148921E+06 -1.560529E+06 -2.754360E+05 -3.396930E+06  9.244900E+03  1.381478E+04
        16   4 -8.209696E+06 -1.207673E+06 -7.971358E+03 -3.148268E+06 -6.562899E+03  1.899493E+04
        16   5 -8.304352E+06 -1.114651E+06 -1.048035E+04 -3.043624E+06 -4.230492E+02  1.834441E+04
        16   6 -8.210073E+06 -1.208967E+06 -1.636100E+04 -3.147884E+06  7.379805E+03  1.312744E+04
        16   7 -6.998915E+06 -7.504395E+05  3.255195E+05 -2.822229E+06 -6.621699E+03  1.897007E+04
        16   8 -7.229206E+06 -7.103401E+05  2.853984E+05 -2.755925E+06 -1.385337E+03  1.798598E+04
        16   9 -7.270370E+06 -8.573595E+05  2.426328E+05 -2.898494E+06  5.511554E+03  1.243894E+04
        16  10 -9.419058E+06 -1.664826E+06 -3.415988E+05 -3.473728E+06  4.266905E-09 -6.536707E-10
        16  11 -9.378378E+06 -1.518902E+06 -3.064663E+05 -3.330868E+06 -7.220628E-10 -1.896453E-09
        16  12 -9.148921E+06 -1.560529E+06 -2.754366E+05 -3.396930E+06 -6.411774E-09  2.090607E-09
        16  13 -8.209696E+06 -1.207673E+06 -7.972113E+03 -3.148268E+06  9.355270E-10 -2.266387E-09
        16  14 -8.304352E+06 -1.114652E+06 -1.048098E+04 -3.043624E+06  3.153304E-09 -1.436933E-10
        16  15 -8.210073E+06 -1.208967E+06 -1.636143E+04 -3.147884E+06  8.812575E-10  3.348149E-09
        16  16 -6.998915E+06 -7.504399E+05  3.255188E+05 -2.822229E+06 -4.715381E-09  7.541897E-10
        16  17 -7.229206E+06 -7.103404E+05  2.853978E+05 -2.755925E+06  4.536526E-09 -3.873411E-10
        16  18 -7.270371E+06 -8.573596E+05  2.426325E+05 -2.898494E+06  7.745470E-09  2.970328E-09
        16  19 -9.419058E+06 -1.664826E+06 -3.415981E+05 -3.473728E+06  6.504232E+03 -1.901975E+04
        16  20 -9.378378E+06 -1.518902E+06 -3.064657E+05 -3.330868E+06 -5.373751E+02 -1.870216E+04
        16  21 -9.148921E+06 -1.560529E+06 -2.754360E+05 -3.396930E+06 -9.244900E+03 -1.381478E+04
        16  22 -8.209696E+06 -1.207673E+06 -7.971358E+03 -3.148268E+06  6.562899E+03 -1.899493E+04
        16  23 -8.304352E+06 -1.114651E+06 -1.048035E+04 -3.043624E+06  4.230492E+02 -1.834441E+04
        16  24 -8.210073E+06 -1.208967E+06 -1.636100E+04 -3.147884E+06 -7.379805E+03 -1.312744E+04
        16  25 -6.998915E+06 -7.504395E+05  3.255195E+05 -2.822229E+06  6.621699E+03 -1.897007E+04
        16  26 -7.229206E+06 -7.103401E+05  2.853984E+05 -2.755925E+06  1.385337E+03 -1.798598E+04
        16  27 -7.270370E+06 -8.573595E+05  2.426328E+05 -2.898494E+06 -5.511554E+03 -1.243894E+04
        17   1 -8.177603E+06 -1.215234E+06 -1.525177E+04 -3.164768E+06  1.385845E+04  9.587989E+03
        17   2 -8.110258E+06 -1.011853E+06  2.181744E+04 -2.965425E+06  3.461476E+04  9.129215E+03
        17   3 -7.807987E+06 -1.095045E+06  3.550561E+04 -3.051425E+06  5.497159E+04  9.792472E+03
        17   4 -8.198250E+06 -1.221285E+06 -2.120544E+04 -3.168334E+06  1.231914E+04  9.022568E+03
        17   5 -8.317381E+06 -1.090117E+06 -3.527962E+04 -3.021203E+06  3.329276E+04  8.642670E+03
        17   6 -8.201668E+06 -1.245583E+06 -7.291546E+04 -3.159438E+06  5.386075E+04  9.382706E+03
        17   7 -8.218896E+06 -1.227336E+06 -2.715914E+04 -3.171899E+06  1.077989E+04  8.457156E+03
        17   8 -8.524463E+06 -1.168378E+06 -9.238060E+04 -3.076964E+06  3.197125E+04  8.156308E+03
        17   9 -8.595198E+06 -1.396112E+06 -1.813507E+05 -3.267388E+06  5.275068E+04  8.973240E+03
        17  10 -8.177603E+06 -1.215234E+06 -1.525231E+04 -3.164768E+06 -5.526811E-09  3.287494E-10
        17  11 -8.110260E+06 -1.011853E+06  2.181499E+04 -2.965425E+06  4.245090E-09 -4.673964E-09
        17  12 -7.807991E+06 -1.095046E+06  3.549967E+04 -3.051426E+06 -1.071750E-09 -3.235693E-09
        17  13 -8.198250E+06 -1.221285E+06 -2.120589E+04 -3.168334E+06 -4.391363E-09  2.309261E-09
        17  14 -8.317383E+06 -1.090117E+06 -3.528188E+04 -3.021203E+06 -2.275047E-09 -1.417027E-09
        17  15 -8.201671E+06 -1.245584E+06 -7.292116E+04 -3.159439E+06 -3.794271E-10 -2.109052E-09
        17  16 -8.218896E+06 -1.227336E+06 -2.715950E+04 -3.171899E+06  1.983552E-09  1.795287E-09
        17  17 -8.524464E+06 -1.168379E+06 -9.238268E+04 -3.076965E+06  1.060469E-09 -2.408396E-09
        17  18 -8.595201E+06 -1.396113E+06 -1.813562E+05 -3.267388E+06 -1.683465E-09  4.001454E-09
        17  19 -8.177603E+06 -1.215234E+06 -1.525177E+04 -3.164768E+06 -1.385845E+04 -9.587989E+03
        17  20 -8.110258E+06 -1.011853E+06  2.181744E+04 -2.965425E+06 -3.461476E+04 -9.129215E+03
        17  21 -7.807987E+06 -1.095045E+06  3.550561E+04 -3.051425E+06 -5.497159E+04 -9.792472E+03
        17  22 -8.198250E+06 -1.221285E+06 -2.120544E+04 -3.168334E+06 -1.231914E+04 -9.022568E+03
        17  23 -8.317381E+06 -1.090117E+06 -3.527962E+04 -3.021203E+06 -3.329276E+04 -8.642670E+03
        17  24 -8.201668E+06 -1.245583E+06 -7.291546E+04 -3.159438E+06 -5.386075E+04 -9.382706E+03
        17  25 -8.218896E+06 -1.227336E+06 -2.715914E+04 -3.171899E+06 -1.077989E+04 -8.457156E+03
        17  26 -8.524463E+06 -1.168378E+06 -9.238060E+04 -3.076964E+06 -3.197125E+04 -8.156308E+03
        17  27 -8.595198E+06 -1.396112E+06 -1.813507E+05 -3.267388E+06 -5.275068E+04 -8.973240E+03
        18   1 -6.988760E+06 -7.335425E+05  2.506739E+05 -2.821394E+06  7.106065E+04  1.033689E+04
        18   2 -6.940170E+06 -5.866787E+05  2.141277E+05 -2.705373E+06  1.529027E+05  3.361008E+04
        18   3 -6.845716E+06 -7.990302E+05  5.788628E+04 -2.676576E+06  2.319333E+05  6.454065E+04
        18   4 -8.234086E+06 -1.190080E+06 -9.034960E+04 -3.142205E+06  6.896760E+04  9.563506E+03
        18   5 -8.268723E+06 -1.092884E+06 -1.527379E+05 -3.067831E+06  1.521730E+05  3.333366E+04
        18   6 -8.257983E+06 -1.355532E+06 -3.361261E+05 -3.080665E+06  2.325521E+05  6.475862E+04
        18   7 -9.477914E+06 -1.646557E+06 -4.315148E+05 -3.462439E+06  6.687908E+04  8.791697E+03
        18   8 -9.595565E+06 -1.598985E+06 -5.197676E+05 -3.429578E+06  1.514447E+05  3.305777E+04
        18   9 -9.668314E+06 -1.911878E+06 -7.303271E+05 -3.483898E+06  2.331687E+05  6.497569E+04
        18  10 -6.988765E+06 -7.335440E+05  2.506641E+05 -2.821394E+06  4.809932E-09  1.816013E-09
        18  11 -6.940196E+06 -5.866864E+05  2.140811E+05 -2.705377E+06  9.132872E-10 -1.981123E-09
        18  12 -6.845775E+06 -7.990494E+05  5.777599E+04 -2.676588E+06 -1.888583E-09  1.525632E-09
        18  13 -8.234091E+06 -1.190082E+06 -9.035885E+04 -3.142206E+06 -1.251972E-10 -3.166008E-10
        18  14 -8.268748E+06 -1.092892E+06 -1.527842E+05 -3.067835E+06 -5.064786E-09 -7.001483E-10
        18  15 -8.258043E+06 -1.355551E+06 -3.362373E+05 -3.080677E+06  1.583878E-09  8.549847E-10
        18  16 -9.477919E+06 -1.646558E+06 -4.315235E+05 -3.462440E+06 -6.412401E-09 -2.158829E-10
        18  17 -9.595591E+06 -1.598992E+06 -5.198135E+05 -3.429582E+06  2.541866E-09  3.579830E-09
        18  18 -9.668375E+06 -1.911897E+06 -7.304392E+05 -3.483910E+06  1.574020E-09  2.550992E-09
        18  19 -6.988760E+06 -7.335425E+05  2.506739E+05 -2.821394E+06 -7.106065E+04 -1.033689E+04
        18  20 -6.940170E+06 -5.866787E+05  2.141277E+05 -2.705373E+06 -1.529027E+05 -3.361008E+04
        18  21 -6.845716E+06 -7.990302E+05  5.788628E+04 -2.676576E+06 -2.319333E+05 -6.454065E+04
        18  22 -8.234086E+06 -1.190080E+06 -9.034960E+04 -3.142205E+06 -6.896760E+04 -9.563506E+03
        18  23 -8.268723E+06 -1.092884E+06 -1.527379E+05 -3.067831E+06 -1.521730E+05 -3.333366E+04
        18  24 -8.257983E+06 -1.355532E+06 -3.361261E+05 -3.080665E+06 -2.325521E+05 -6.475862E+04
        18  25 -9.477914E+06 -1.646557E+06 -4.315148E+05 -3.462439E+06 -6.687908E+04 -8.791697E+03
        18  26 -9.595565E+06 -1.598985E+06 -5.197676E+05 -3.429578E+06 -1.514447E+05 -3.305777E+04
        18  27 -9.668314E+06 -1.911878E+06 -7.303271E+05 -3.483898E+06 -2.331687E+05 -6.497569E+04
        19   1 -6.788478E+06 -5.979260E+05  1.042761E+04 -2.777396E+06  2.967095E+05  8.670788E+04
        19   2 -6.662961E+06 -3.552752E+05 -2.505242E+05 -2.752424E+06  6.520042E+05  2.200436E+05
        19   3 -7.262654E+06 -1.594123E+06 -1.207512E+06 -2.200036E+06  9.998572E+05  3.728931E+05
        19   4 -8.358715E+06 -1.119811E+06 -4.081640E+05 -3.127416E+06  2.941723E+05  8.579348E+04
        19   5 -8.078641E+06 -9.351837E+05 -6.493638E+05 -3.179960E+06  6.525738E+05  2.202028E+05
        19   6 -8.525794E+06 -2.234917E+06 -1.590302E+06 -2.704616E+06  1.003621E+06  3.740136E+05
        19   7 -9.926560E+06 -1.641688E+06 -8.269652E+05 -3.476689E+06  2.916412E+05  8.488076E+04
        19   8 -9.492365E+06 -1.514886E+06 -1.048396E+06 -3.606572E+06  6.531403E+05  2.203606E+05
        19   9 -9.787309E+06 -2.875212E+06 -1.973253E+06 -3.208130E+06  1.007375E+06  3.751271E+05
        19  10 -6.788576E+06 -5.979582E+05  1.024574E+04 -2.777417E+06  1.204040E-09  1.879054E-09
        19  11 -6.663435E+06 -3.554438E+05 -2.514255E+05 -2.752540E+06 -2.933516E-09  2.021263E-09
        19  12 -7.263777E+06 -1.594547E+06 -1.209680E+06 -2.200339E+06  7.776509E-10 -8.790073E-10
        19  13 -8.358811E+06 -1.119843E+06 -4.083432E+05 -3.127436E+06  4.591582E-09  1.585244E-09
        19  14 -8.079117E+06 -9.353529E+05 -6.502690E+05 -3.180077E+06 -9.175882E-09  3.419395E-09
        19  15 -8.526928E+06 -2.235344E+06 -1.592491E+06 -2.704921E+06  4.414877E-09  4.135842E-10
        19  16 -9.926655E+06 -1.641719E+06 -8.271417E+05 -3.476709E+06 -1.517307E-09  1.973732E-09
        19  17 -9.492842E+06 -1.515056E+06 -1.049305E+06 -3.606690E+06  8.136062E-10  2.904557E-09
        19  18 -9.788453E+06 -2.875643E+06 -1.975463E+06 -3.208438E+06  2.268348E-09  3.482982E-11
        19  19 -6.788478E+06 -5.979260E+05  1.042761E+04 -2.777396E+06 -2.967095E+05 -8.670788E+04
        19  20 -6.662961E+06 -3.552752E+05 -2.505242E+05 -2.752424E+06 -6.520042E+05 -2.200436E+05
        19  21 -7.262654E+06 -1.594123E+06 -1.207512E+06 -2.200036E+06 -9.998572E+05 -3.728931E+05
        19  22 -8.358715E+06 -1.119811E+06 -4.081640E+05 -3.127416E+06 -2.941723E+05 -8.579348E+04
        19  23 -8.078641E+06 -9.351837E+05 -6.493638E+05 -3.179960E+06 -6.525738E+05 -2.202028E+05
        19  24 -8.525794E+06 -2.234917E+06 -1.590302E+06 -2.704616E+06 -1.003621E+06 -3.740136E+05
        19  25 -9.926560E+06 -1.641688E+06 -8.269652E+05 -3.476689E+06 -2.916412E+05 -8.488076E+04
        19  26 -9.492365E+06 -1.514886E+06 -1.048396E+06 -3.606572E+06 -6.531403E+05 -2.203606E+05
        19  27 -9.787309E+06 -2.875212E+06 -1.973253E+06 -3.208130E+06 -1.007375E+06 -3.751271E+05
        20   1 -2.693879E+06 -9.039037E+03 -1.184006E+04 -1.514873E+02 -8.057163E+03  1.974211E-03
        20   2 -2.692048E+06  2.187710E+03 -5.043377E+03 -3.796200E+01 -5.298721E+03  3.253586E-04
        20   3 -2.693866E+06  2.790495E+02 -3.332193E+03  7.556186E+01 -2.540323E+03 -3.104591E-04
        20   4 -2.693879E+06 -9.039037E+03 -1.184006E+04 -1.812253E-07 -8.057163E+03 -1.320600E-09
        20   5 -2.692048E+06  2.187710E+03 -5.043377E+03  1.398903E-06 -5.298721E+03  1.883493E-09
        20   6 -2.693866E+06  2.790495E+02 -3.332193E+03  2.152795E-06 -2.540323E+03 -1.230628E-09
        20   7 -2.693879E+06 -9.039037E+03 -1.184006E+04  1.514873E+02 -8.057163E+03 -1.974226E-03
        20   8 -2.692048E+06  2.187710E+03 -5.043377E+03  3.796200E+01 -5.298721E+03 -3.253635E-04
        20   9 -2.693866E+06  2.790495E+02 -3.332193E+03 -7.556186E+01 -2.540323E+03  3.104736E-04
        20  10 -2.693879E+06 -9.039055E+03 -1.184018E+04 -1.514873E+02 -1.130298E-09 -6.703659E-12
        20  11 -2.692048E+06  2.187703E+03 -5.043430E+03 -3.796200E+01 -3.999038E-09 -4.315427E-09
        20  12 -2.693866E+06  2.790478E+02 -3.332205E+03  7.556186E+01  1.178277E-09 -2.652890E-09
        20  13 -2.693879E+06 -9.039055E+03 -1.184018E+04 -4.566303E-07  1.425826E-10 -1.645098E-14
        20  14 -2.692048E+06  2.187703E+03 -5.043430E+03  9.857919E-07 -6.454798E-09  8.644054E-10
        20  15 -2.693866E+06  2.790478E+02 -3.332205E+03  9.134672E-07 -7.913263E-09  4.321589E-10
        20  16 -2.693879E+06 -9.039055E+03 -1.184018E+04  1.514873E+02 -3.575597E-09 -4.305825E-09
        20  17 -2.692048E+06  2.187703E+03 -5.043430E+03  3.796200E+01  1.319128E-09  2.755572E-12
        20  18 -2.693866E+06  2.790478E+02 -3.332205E+03 -7.556185E+01 -8.980557E-10 -1.659701E-09
        20  19 -2.693879E+06 -9.039037E+03 -1.184006E+04 -1.514873E+02  8.057163E+03 -1.974215E-03
        20  20 -2.692048E+06  2.187710E+03 -5.043377E+03 -3.796200E+01  5.298721E+03 -3.253306E-04
        20  21 -2.693866E+06  2.790495E+02 -3.332193E+03  7.556185E+01  2.540323E+03  3.104748E-04
        20  22 -2.693879E+06 -9.039037E+03 -1.184006E+04  9.417945E-08  8.057163E+03  6.485594E-10
        20  23 -2.692048E+06  2.187710E+03 -5.043377E+03  5.726814E-07  5.298721E+03 -2.156500E-09
        20  24 -2.693866E+06  2.790495E+02 -3.332193E+03  1.085597E-06  2.540323E+03  2.885191E-10
        20  25 -2.693879E+06 -9.039037E+03 -1.184006E+04  1.514873E+02  8.057163E+03  1.974198E-03
        20  26 -2.692048E+06  2.187710E+03 -5.043377E+03  3.796200E+01  5.298721E+03  3.253435E-04
        20  27 -2.693866E+06  2.790495E+02 -3.332193E+03 -7.556186E+01  2.540323E+03 -3.104888E-04
        21   1 -2.693194E+06 -1.419800E+03 -2.765640E+03 -2.283879E+01 -1.986379E+03  7.338282E-05
        21   2 -2.692888E+06  3.444315E+02 -1.324778E+03 -5.375479E+00 -1.290235E+03  1.122193E-05
        21   3 -2.693191E+06  4.068752E+01 -8.556164E+02  1.208809E+01 -5.940800E+02 -1.159342E-05
        21   4 -2.693194E+06 -1.419800E+03 -2.765640E+03  1.793001E-06 -1.986379E+03 -2.729396E-09
        21   5 -2.692888E+06  3.444315E+02 -1.324778E+03  5.593055E-07 -1.290235E+03  3.484078E-09
        21   6 -2.693191E+06  4.068752E+01 -8.556164E+02  1.287878E-06 -5.940800E+02 -3.695125E-09
        21   7 -2.693194E+06 -1.419800E+03 -2.765640E+03  2.283879E+01 -1.986379E+03 -7.338522E-05
        21   8 -2.692888E+06  3.444315E+02 -1.324778E+03  5.375482E+00 -1.290235E+03 -1.123646E-05
        21   9 -2.693191E+06  4.068752E+01 -8.556164E+02 -1.208810E+01 -5.940800E+02  1.161420E-05
        21  10 -2.693194E+06 -1.419801E+03 -2.765648E+03 -2.283879E+01  4.142895E-09  4.060371E-09
        21  11 -2.692888E+06  3.444311E+02 -1.324781E+03 -5.375479E+00 -1.233996E-09  3.021426E-09
        21  12 -2.693191E+06  4.068743E+01 -8.556170E+02  1.208809E+01 -2.628853E-10 -5.493594E-09
        21  13 -2.693194E+06 -1.419801E+03 -2.765648E+03  1.242191E-06 -8.018800E-09 -2.965248E-10
        21  14 -2.692888E+06  3.444311E+02 -1.324781E+03  6.970084E-07 -9.737563E-10 -1.315782E-09
        21  15 -2.693191E+06  4.068743E+01 -8.556170E+02  1.184598E-06  2.727788E-11 -1.994925E-09
        21  16 -2.693194E+06 -1.419801E+03 -2.765648E+03  2.283879E+01 -7.437467E-09 -3.407215E-10
        21  17 -2.692888E+06  3.444311E+02 -1.324781E+03  5.375481E+00 -2.297713E-09 -3.496501E-09
        21  18 -2.693191E+06  4.068743E+01 -8.556170E+02 -1.208809E+01  2.377758E-09 -2.411578E-09
        21  19 -2.693194E+06 -1.419800E+03 -2.765640E+03 -2.283879E+01  1.986379E+03 -7.335279E-05
        21  20 -2.692888E+06  3.444315E+02 -1.324778E+03 -5.375480E+00  1.290235E+03 -1.121000E-05
        21  21 -2.693191E+06  4.068752E+01 -8.556164E+02  1.208809E+01  5.940800E+02  1.161678E-05
        21  22 -2.693194E+06 -1.419800E+03 -2.765640E+03  6.913804E-07  1.986379E+03 -2.595001E-10
        21  23 -2.692888E+06  3.444315E+02 -1.324778E+03  9.724146E-07  1.290235E+03 -7.136607E-09
        21  24 -2.693191E+06  4.068752E+01 -8.556164E+02  1.563280E-06  5.940800E+02  1.624598E-10
        21  25 -2.693194E+06 -1.419800E+03 -2.765640E+03  2.283879E+01  1.986379E+03  7.335255E-05
        21  26 -2.692888E+06  3.444315E+02 -1.324778E+03  5.375482E+00  1.290235E+03  1.120464E-05
        21  27 -2.693191E+06  4.068752E+01 -8.556164E+02 -1.208809E+01  5.940800E+02 -1.163697E-05
        22   1 -2.693082E+06 -2.216817E+02 -7.079254E+02 -3.477894E+00 -4.523225E+02  2.539270E-06
        22   2 -2.693025E+06  5.733615E+01 -4.250359E+02 -7.285905E-01 -2.355361E+02  2.769763E-07
        22   3 -2.693082E+06 -7.883014E+00 -3.698038E+02  2.020726E+00 -1.874961E+01 -3.804319E-08
        22   4 -2.693082E+06 -2.216817E+02 -7.079254E+02  4.447255E-07 -4.523225E+02 -2.254183E-09
        22   5 -2.693025E+06  5.733615E+01 -4.250359E+02  3.511677E-07 -2.355361E+02  3.481769E-09
        22   6 -2.693082E+06 -7.883014E+00 -3.698038E+02  1.887571E-07 -1.874961E+01  4.216585E-10
        22   7 -2.693082E+06 -2.216817E+02 -7.079254E+02  3.477901E+00 -4.523225E+02 -2.558390E-06
        22   8 -2.693025E+06  5.733615E+01 -4.250359E+02  7.285890E-01 -2.355361E+02 -2.952807E-07
        22   9 -2.693082E+06 -7.883014E+00 -3.698038E+02 -2.020725E+00 -1.874961E+01  4.184905E-08
        22  10 -2.693082E+06 -2.216818E+02 -7.079258E+02 -3.477899E+00  1.955116E-09 -2.300941E-09
        22  11 -2.693025E+06  5.733614E+01 -4.250360E+02 -7.285927E-01  2.127221E-09  5.084513E-09
        22  12 -2.693082E+06 -7.883014E+00 -3.698038E+02  2.020726E+00  1.979782E-09 -6.183793E-09
        22  13 -2.693082E+06 -2.216818E+02 -7.079258E+02 -3.814920E-07  8.539267E-09 -1.796531E-09
        22  14 -2.693025E+06  5.733614E+01 -4.250360E+02 -1.996441E-07  2.881997E-09 -3.037450E-10
        22  15 -2.693082E+06 -7.883014E+00 -3.698038E+02  5.330154E-07 -2.980360E-09  2.423771E-10
        22  16 -2.693082E+06 -2.216818E+02 -7.079258E+02  3.477902E+00 -2.598664E-11  1.942199E-09
        22  17 -2.693025E+06  5.733614E+01 -4.250360E+02  7.285901E-01  2.438692E-11  9.079486E-10
        22  18 -2.693082E+06 -7.883014E+00 -3.698038E+02 -2.020723E+00  6.840139E-09  5.590368E-09
        22  19 -2.693082E+06 -2.216817E+02 -7.079254E+02 -3.477902E+00  4.523225E+02 -2.545385E-06
        22  20 -2.693025E+06  5.733615E+01 -4.250359E+02 -7.285899E-01  2.355361E+02 -2.652282E-07
        22  21 -2.693082E+06 -7.883014E+00 -3.698038E+02  2.020722E+00  1.874961E+01  5.904925E-08
        22  22 -2.693082E+06 -2.216817E+02 -7.079254E+02  1.693188E-07  4.523225E+02 -3.522753E-09
        22  23 -2.693025E+06  5.733615E+01 -4.250359E+02  3.511679E-07  2.355361E+02 -2.852354E-09
        22  24 -2.693082E+06 -7.883014E+00 -3.698038E+02  5.330160E-07  1.874961E+01  3.286403E-10
        22  25 -2.693082E+06 -2.216817E+02 -7.079254E+02  3.477899E+00  4.523225E+02  2.543514E-06
        22  26 -2.693025E+06  5.733615E+01 -4.250359E+02  7.285868E-01  2.355361E+02  2.555504E-07
        22  27 -2.693082E+06 -7.883014E+00 -3.698038E+02 -2.020725E+00  1.874961E+01 -6.791207E-08
        23   1 -2.693073E+06 -3.218962E+01 -3.781574E+02 -1.394214E+00  4.895159E+01 -1.006299E-07
        23   2 -2.693035E+06  3.162380E+01 -4.608215E+02 -5.248719E-02  2.802213E+02 -2.544097E-08
        23   3 -2.693074E+06 -9.441252E+01 -7.420057E+02  1.289234E+00  5.114876E+02  1.086585E-06
        23   4 -2.693073E+06 -3.218962E+01 -3.781574E+02  5.100451E-07  4.895159E+01 -4.404475E-10
        23   5 -2.693035E+06  3.162380E+01 -4.608215E+02  2.147340E-07  2.802213E+02  4.008058E-09
        23   6 -2.693074E+06 -9.441252E+01 -7.420057E+02  8.833358E-07  5.114876E+02  1.356610E-09
        23   7 -2.693073E+06 -3.218962E+01 -3.781574E+02  1.394222E+00  4.895159E+01  9.416217E-08
        23   8 -2.693035E+06  3.162380E+01 -4.608215E+02  5.248831E-02  2.802213E+02  1.735455E-08
        23   9 -2.693074E+06 -9.441252E+01 -7.420057E+02 -1.289235E+00  5.114876E+02 -1.079441E-06
        23  10 -2.693073E+06 -3.218962E+01 -3.781574E+02 -1.394222E+00  2.395073E-09 -8.567663E-09
        23  11 -2.693035E+06  3.162378E+01 -4.608216E+02 -5.248581E-02  3.887046E-09 -6.502843E-09
        23  12 -2.693074E+06 -9.441259E+01 -7.420062E+02  1.289233E+00 -4.818331E-10 -3.194275E-09
        23  13 -2.693073E+06 -3.218962E+01 -3.781574E+02 -4.076718E-08  8.119505E-09  3.675636E-15
        23  14 -2.693035E+06  3.162378E+01 -4.608216E+02 -3.360781E-07 -5.967900E-09  2.827547E-14
        23  15 -2.693074E+06 -9.441259E+01 -7.420062E+02  1.259689E-07  5.297171E-09  2.241620E-10
        23  16 -2.693073E+06 -3.218962E+01 -3.781574E+02  1.394224E+00  3.106291E-10 -5.743792E-11
        23  17 -2.693035E+06  3.162378E+01 -4.608216E+02  5.248486E-02  9.030959E-10  3.396653E-11
        23  18 -2.693074E+06 -9.441259E+01 -7.420062E+02 -1.289230E+00  4.728448E-10 -5.970040E-09
        23  19 -2.693073E+06 -3.218962E+01 -3.781574E+02 -1.394220E+00 -4.895159E+01  1.190732E-07
        23  20 -2.693035E+06  3.162380E+01 -4.608215E+02 -5.248443E-02 -2.802213E+02  3.237983E-08
        23  21 -2.693074E+06 -9.441252E+01 -7.420057E+02  1.289236E+00 -5.114876E+02 -1.064404E-06
        23  22 -2.693073E+06 -3.218962E+01 -3.781574E+02  1.060856E-06 -4.895159E+01  2.071978E-09
        23  23 -2.693035E+06  3.162380E+01 -4.608215E+02 -3.360781E-07 -2.802213E+02 -4.486799E-09
        23  24 -2.693074E+06 -9.441252E+01 -7.420057E+02  6.079305E-07 -5.114876E+02 -1.777132E-09
        23  25 -2.693073E+06 -3.218962E+01 -3.781574E+02  1.394223E+00 -4.895159E+01 -1.190740E-07
        23  26 -2.693035E+06  3.162380E+01 -4.608215E+02  5.248583E-02 -2.802213E+02 -3.669268E-08
        23  27 -2.693074E+06 -9.441252E+01 -7.420057E+02 -1.289234E+00 -5.114876E+02  1.064402E-06
        24   1 -2.693130E+06  1.140788E+01 -9.319872E+02 -5.774706E+00  6.630021E+02 -6.190730E-06
        24   2 -2.692965E+06  1.526499E+02 -1.528800E+03  1.238595E+00  1.436132E+03  2.874936E-06
        24   3 -2.693132E+06 -6.225724E+02 -2.859704E+03  8.252009E+00  2.209273E+03  2.949340E-05
        24   4 -2.693130E+06  1.140788E+01 -9.319872E+02  1.187019E-07  6.630021E+02 -1.623272E-09
        24   5 -2.692965E+06  1.526499E+02 -1.528800E+03  5.143168E-07  1.436132E+03  2.755488E-09
        24   6 -2.693132E+06 -6.225724E+02 -2.859704E+03 -7.425000E-07  2.209273E+03 -5.132024E-09
        24   7 -2.693130E+06  1.140788E+01 -9.319872E+02  5.774707E+00  6.630021E+02  6.184865E-06
        24   8 -2.692965E+06  1.526499E+02 -1.528800E+03 -1.238603E+00  1.436132E+03 -2.891607E-06
        24   9 -2.693132E+06 -6.225724E+02 -2.859704E+03 -8.252013E+00  2.209273E+03 -2.949378E-05
        24  10 -2.693130E+06  1.140776E+01 -9.319880E+02 -5.774708E+00  1.317641E-09  3.758068E-09
        24  11 -2.692965E+06  1.526493E+02 -1.528804E+03  1.238598E+00  1.022530E-09 -7.001078E-09
        24  12 -2.693132E+06 -6.225737E+02 -2.859713E+03  8.252010E+00 -5.788865E-10 -7.377996E-09
        24  13 -2.693130E+06  1.140776E+01 -9.319880E+02  1.187020E-07  4.437544E-09  1.023919E-09
        24  14 -2.692965E+06  1.526493E+02 -1.528804E+03 -3.649594E-08 -5.033529E-09 -1.487559E-09
        24  15 -2.693132E+06 -6.225737E+02 -2.859713E+03  6.345306E-07 -1.914469E-09 -3.845973E-09
        24  16 -2.693130E+06  1.140776E+01 -9.319880E+02  5.774709E+00  2.450370E-10 -6.321246E-10
        24  17 -2.692965E+06  1.526493E+02 -1.528804E+03 -1.238599E+00 -2.687258E-09 -4.732314E-09
        24  18 -2.693132E+06 -6.225737E+02 -2.859713E+03 -8.252014E+00  2.335930E-09 -4.120800E-09
        24  19 -2.693130E+06  1.140788E+01 -9.319872E+02 -5.774706E+00 -6.630021E+02  6.183863E-06
        24  20 -2.692965E+06  1.526499E+02 -1.528800E+03  1.238599E+00 -1.436132E+03 -2.882549E-06
        24  21 -2.693132E+06 -6.225724E+02 -2.859704E+03  8.252011E+00 -2.209273E+03 -2.949730E-05
        24  22 -2.693130E+06  1.140788E+01 -9.319872E+02 -1.567041E-07 -6.630021E+02  1.823742E-09
        24  23 -2.692965E+06  1.526499E+02 -1.528800E+03  1.012070E-07 -1.436132E+03 -8.848128E-10
        24  24 -2.693132E+06 -6.225724E+02 -2.859704E+03  8.371786E-08 -2.209273E+03 -3.827963E-09
        24  25 -2.693130E+06  1.140788E+01 -9.319872E+02  5.774706E+00 -6.630021E+02 -6.184339E-06
        24  26 -2.692965E+06  1.526499E+02 -1.528800E+03 -1.238598E+00 -1.436132E+03  2.867506E-06
        24  27 -2.693132E+06 -6.225724E+02 -2.859704E+03 -8.252012E+00 -2.209273E+03  2.947847E-05
        25   1 -2.693472E+06  1.149946E+02 -3.632778E+03 -3.523582E+01  2.797324E+03 -1.594236E-04
        25   2 -2.692543E+06  9.740920E+02 -5.993086E+03  1.241968E+01  5.874542E+03  1.180050E-04
        25   3 -2.693481E+06 -4.015157E+03 -1.182537E+04  6.007522E+01  8.951752E+03  8.698492E-04
        25   4 -2.693472E+06  1.149946E+02 -3.632778E+03 -5.048520E-07  2.797324E+03 -3.097888E-09
        25   5 -2.692543E+06  9.740920E+02 -5.993086E+03  5.916563E-07  5.874542E+03  4.905776E-09
        25   6 -2.693481E+06 -4.015157E+03 -1.182537E+04  3.799816E-07  8.951752E+03 -3.661287E-09
        25   7 -2.693472E+06  1.149946E+02 -3.632778E+03  3.523582E+01  2.797324E+03  1.594140E-04
        25   8 -2.692543E+06  9.740920E+02 -5.993086E+03 -1.241968E+01  5.874542E+03 -1.180146E-04
        25   9 -2.693481E+06 -4.015157E+03 -1.182537E+04 -6.007522E+01  8.951752E+03 -8.698522E-04
        25  10 -2.693472E+06  1.149925E+02 -3.632792E+03 -3.523582E+01 -5.983212E-09 -9.201426E-10
        25  11 -2.692543E+06  9.740827E+02 -5.993151E+03  1.241968E+01  4.719429E-09  7.675800E-09
        25  12 -2.693481E+06 -4.015178E+03 -1.182552E+04  6.007522E+01 -2.604149E-10  5.721620E-10
        25  13 -2.693472E+06  1.149925E+02 -3.632792E+03 -1.331068E-06  3.859213E-10 -9.517261E-10
        25  14 -2.692543E+06  9.740827E+02 -5.993151E+03  8.670630E-07 -2.638266E-09  5.616330E-09
        25  15 -2.693481E+06 -4.015178E+03 -1.182552E+04 -1.203607E-06 -4.656864E-09 -7.069274E-10
        25  16 -2.693472E+06  1.149925E+02 -3.632792E+03  3.523582E+01  3.982730E-09  3.329180E-09
        25  17 -2.692543E+06  9.740827E+02 -5.993151E+03 -1.241968E+01  5.571018E-10  5.515573E-09
        25  18 -2.693481E+06 -4.015178E+03 -1.182552E+04 -6.007523E+01 -3.271811E-09 -1.397329E-09
        25  19 -2.693472E+06  1.149946E+02 -3.632778E+03 -3.523582E+01 -2.797324E+03  1.594248E-04
        25  20 -2.692543E+06  9.740920E+02 -5.993086E+03  1.241968E+01 -5.874542E+03 -1.179818E-04
        25  21 -2.693481E+06 -4.015157E+03 -1.182537E+04  6.007522E+01 -8.951752E+03 -8.698386E-04
        25  22 -2.693472E+06  1.149946E+02 -3.632778E+03 -2.294394E-07 -2.797324E+03  9.789474E-10
        25  23 -2.692543E+06  9.740920E+02 -5.993086E+03  1.142470E-06 -5.874542E+03  8.670264E-09
        25  24 -2.693481E+06 -4.015157E+03 -1.182537E+04 -1.364110E-07 -8.951752E+03 -2.298905E-10
        25  25 -2.693472E+06  1.149946E+02 -3.632778E+03  3.523582E+01 -2.797324E+03 -1.594463E-04
        25  26 -2.692543E+06  9.740920E+02 -5.993086E+03 -1.241968E+01 -5.874542E+03  1.180034E-04
        25  27 -2.693481E+06 -4.015157E+03 -1.182537E+04 -6.007522E+01 -8.951752E+03  8.698214E-04
        26   1 -2.695495E+06  7.732754E+02 -1.473111E+04 -2.188514E+02  1.135984E+04 -4.021202E-03
        26   2 -2.690032E+06  6.222291E+03 -2.355055E+04  9.692664E+01  2.374833E+04  3.723123E-03
        26   3 -2.695539E+06 -2.568720E+04 -4.980061E+04  4.126995E+02  3.613658E+04  2.412209E-02
        26   4 -2.695495E+06  7.732753E+02 -1.473111E+04  5.463705E-07  1.135984E+04 -2.479642E-09
        26   5 -2.690032E+06  6.222291E+03 -2.355055E+04  1.319701E-06  2.374833E+04  3.288934E-09
        26   6 -2.695539E+06 -2.568720E+04 -4.980061E+04  1.335629E-06  3.613658E+04 -1.320010E-10
        26   7 -2.695495E+06  7.732754E+02 -1.473111E+04  2.188514E+02  1.135984E+04  4.021205E-03
        26   8 -2.690032E+06  6.222291E+03 -2.355055E+04 -9.692664E+01  2.374833E+04 -3.723148E-03
        26   9 -2.695539E+06 -2.568720E+04 -4.980061E+04 -4.126995E+02  3.613658E+04 -2.412208E-02
        26  10 -2.695495E+06  7.732406E+02 -1.473136E+04 -2.188514E+02  2.194570E-09 -4.158885E-10
        26  11 -2.690033E+06  6.222138E+03 -2.355161E+04  9.692664E+01 -7.774113E-10  6.061954E-09
        26  12 -2.695540E+06 -2.568755E+04 -4.980308E+04  4.126995E+02  6.573910E-09  4.781352E-09
        26  13 -2.695495E+06  7.732405E+02 -1.473136E+04 -8.306670E-07 -8.740651E-09 -2.514952E-09
        26  14 -2.690033E+06  6.222138E+03 -2.355161E+04 -5.735018E-08  9.577779E-09  1.680390E-09
        26  15 -2.695540E+06 -2.568755E+04 -4.980308E+04 -2.479514E-07  6.786589E-10  2.005718E-09
        26  16 -2.695495E+06  7.732406E+02 -1.473136E+04  2.188514E+02  2.175755E-09 -4.613771E-09
        26  17 -2.690033E+06  6.222138E+03 -2.355161E+04 -9.692664E+01 -9.216820E-09  3.768006E-09
        26  18 -2.695540E+06 -2.568755E+04 -4.980308E+04 -4.126995E+02 -6.231070E-09  1.579015E-09
        26  19 -2.695495E+06  7.732754E+02 -1.473111E+04 -2.188514E+02 -1.135984E+04  4.021211E-03
        26  20 -2.690032E+06  6.222291E+03 -2.355055E+04  9.692664E+01 -2.374833E+04 -3.723121E-03
        26  21 -2.695539E+06 -2.568720E+04 -4.980061E+04  4.126995E+02 -3.613658E+04 -2.412207E-02
        26  22 -2.695495E+06  7.732753E+02 -1.473111E+04 -8.306668E-07 -1.135984E+04 -1.167567E-09
        26  23 -2.690032E+06  6.222291E+03 -2.355055E+04 -7.458754E-07 -2.374833E+04  1.113591E-09
        26  24 -2.695539E+06 -2.568720E+04 -4.980061E+04 -6.266334E-07 -3.613658E+04  8.056489E-10
        26  25 -2.695495E+06  7.732754E+02 -1.473111E+04  2.188514E+02 -1.135984E+04 -4.021206E-03
        26  26 -2.690032E+06  6.222291E+03 -2.355055E+04 -9.692664E+01 -2.374833E+04  3.723119E-03
        26  27 -2.695539E+06 -2.568720E+04 -4.980061E+04 -4.126995E+02 -3.613658E+04  2.412205E-02
        27   1 -2.707707E+06  5.054038E+03 -6.011015E+04 -1.367203E+03  4.612009E+04 -1.019919E-01
        27   2 -2.674824E+06  3.958003E+04 -9.114542E+04  6.867487E+02  9.598817E+04  1.066193E-01
        27   3 -2.707932E+06 -1.635351E+05 -2.141527E+05  2.740642E+03  1.458578E+05  6.465696E-01
        27   4 -2.707707E+06  5.054035E+03 -6.011015E+04  2.275513E-07  4.612009E+04  1.357065E-09
        27   5 -2.674824E+06  3.958003E+04 -9.114542E+04 -5.432943E-07  9.598817E+04  6.114450E-09
        27   6 -2.707932E+06 -1.635351E+05 -2.141527E+05  2.695063E-07  1.458578E+05 -3.478954E-09
        27   7 -2.707707E+06  5.054038E+03 -6.011015E+04  1.367203E+03  4.612009E+04  1.019919E-01
        27   8 -2.674824E+06  3.958003E+04 -9.114542E+04 -6.867487E+02  9.598817E+04 -1.066194E-01
        27   9 -2.707932E+06 -1.635351E+05 -2.141527E+05 -2.740642E+03  1.458578E+05 -6.465695E-01
        27  10 -2.707709E+06  5.053464E+03 -6.011417E+04 -1.367203E+03 -3.416145E-10 -4.307971E-11
        27  11 -2.674833E+06  3.957755E+04 -9.116281E+04  6.867487E+02 -1.910563E-09  4.343167E-09
        27  12 -2.707955E+06 -1.635408E+05 -2.141929E+05  2.740642E+03  1.699526E-09  1.859106E-11
        27  13 -2.707709E+06  5.053461E+03 -6.011417E+04 -8.740972E-07 -9.970660E-10  5.390071E-10
        27  14 -2.674833E+06  3.957754E+04 -9.116281E+04 -8.187215E-07 -1.445201E-09  2.606983E-09
        27  15 -2.707955E+06 -1.635408E+05 -2.141929E+05 -5.566674E-07  1.875932E-10  5.388542E-10
        27  16 -2.707709E+06  5.053464E+03 -6.011417E+04  1.367203E+03 -3.557854E-09  4.356041E-09
        27  17 -2.674833E+06  3.957755E+04 -9.116281E+04 -6.867487E+02  1.765579E-10 -3.134729E-11
        27  18 -2.707955E+06 -1.635408E+05 -2.141929E+05 -2.740642E+03  1.161822E-09 -1.096655E-09
        27  19 -2.707707E+06  5.054038E+03 -6.011015E+04 -1.367203E+03 -4.612009E+04  1.019919E-01
        27  20 -2.674824E+06  3.958003E+04 -9.114542E+04  6.867487E+02 -9.598817E+04 -1.066193E-01
        27  21 -2.707932E+06 -1.635351E+05 -2.141527E+05  2.740642E+03 -1.458578E+05 -6.465695E-01
        27  22 -2.707707E+06  5.054035E+03 -6.011015E+04 -3.232742E-07 -4.612009E+04  3.063863E-09
        27  23 -2.674824E+06  3.958003E+04 -9.114542E+04 -4.055813E-07 -9.598817E+04 -2.082529E-09
        27  24 -2.707932E+06 -1.635351E+05 -2.141527E+05  2.853963E-08 -1.458578E+05  5.964421E-09
        27  25 -2.707707E+06  5.054038E+03 -6.011015E+04  1.367203E+03 -4.612009E+04 -1.019919E-01
        27  26 -2.674824E+06  3.958003E+04 -9.114542E+04 -6.867487E+02 -9.598817E+04  1.066193E-01
        27  27 -2.707932E+06 -1.635351E+05 -2.141527E+05 -2.740642E+03 -1.458578E+05  6.465695E-01
        28   1  3.772166E+05 -3.484425E+05  4.793952E+05 -8.276231E+03  1.544601E+02  2.844375E+05
        28   2 -2.615746E+04 -4.169541E+05  2.388411E+05 -2.719163E+03  4.553091E+02  1.828418E+05
        28   3  4.771065E+04 -3.473123E+05  1.849251E+05  7.637288E+03  3.752713E+02  8.124153E+04
        28   4  3.242049E+05 -5.603761E+05  4.264010E+05  2.734561E+03  1.595195E+02  2.843492E+05
        28   5 -7.934138E+04 -6.295321E+05  1.856920E+05  2.624734E+02  4.561920E+02  1.828020E+05
        28   6 -5.568560E+03 -5.605013E+05  1.316320E+05  2.590563E+03  3.745329E+02  8.125030E+04
        28   7  2.711903E+05 -7.722688E+05  3.734034E+05  1.374160E+04  1.645773E+02  2.842609E+05
        28   8 -1.325287E+05 -8.420692E+05  1.325394E+05  3.243105E+03  4.570748E+02  1.827622E+05
        28   9 -5.885110E+04 -7.736489E+05  7.833557E+04 -2.454397E+03  3.737942E+02  8.125906E+04
        28  10  3.771949E+05 -3.485294E+05  4.792430E+05 -8.276266E+03 -3.090262E-09 -3.548298E-11
        28  11 -2.616644E+04 -4.169900E+05  2.387782E+05 -2.719230E+03 -4.690372E-09 -4.608660E-10
        28  12  4.770888E+04 -3.473194E+05  1.849127E+05  7.637263E+03 -3.992403E-09 -5.227477E-10
        28  13  3.241832E+05 -5.604630E+05  4.262489E+05  2.734525E+03 -4.115913E-09 -1.759796E-10
        28  14 -7.935036E+04 -6.295680E+05  1.856291E+05  2.624063E+02  6.015223E-09  1.191033E-11
        28  15 -5.570334E+03 -5.605084E+05  1.316196E+05  2.590538E+03  4.947390E-09 -1.912907E-09
        28  16  2.711686E+05 -7.723556E+05  3.732514E+05  1.374156E+04  7.677951E-09  7.723456E-11
        28  17 -1.325377E+05 -8.421050E+05  1.324766E+05  3.243038E+03  1.035622E-08  7.315155E-10
        28  18 -5.885288E+04 -7.736560E+05  7.832315E+04 -2.454421E+03  4.414599E-09 -1.675673E-10
        28  19  3.772166E+05 -3.484425E+05  4.793952E+05 -8.276231E+03 -1.544601E+02 -2.844375E+05
        28  20 -2.615746E+04 -4.169541E+05  2.388411E+05 -2.719163E+03 -4.553091E+02 -1.828418E+05
        28  21  4.771065E+04 -3.473123E+05  1.849251E+05  7.637288E+03 -3.752713E+02 -8.124153E+04
        28  22  3.242049E+05 -5.603761E+05  4.264010E+05  2.734561E+03 -1.595195E+02 -2.843492E+05
        28  23 -7.934138E+04 -6.295321E+05  1.856920E+05  2.624734E+02 -4.561920E+02 -1.828020E+05
        28  24 -5.568560E+03 -5.605013E+05  1.316320E+05  2.590563E+03 -3.745329E+02 -8.125030E+04
        28  25  2.711903E+05 -7.722688E+05  3.734034E+05  1.374160E+04 -1.645773E+02 -2.842609E+05
        28  26 -1.325287E+05 -8.420692E+05  1.325394E+05  3.243105E+03 -4.570748E+02 -1.827622E+05
        28  27 -5.885110E+04 -7.736489E+05  7.833557E+04 -2.454397E+03 -3.737942E+02 -8.125906E+04
        29   1  9.479113E+04 -4.032696E+05  1.593325E+05 -3.325376E+03  3.106209E+02  5.883017E+04
        29   2  2.533955E+04 -4.234922E+05  1.164802E+05  3.868405E+03  5.027549E+02  2.085384E+04
        29   3  7.141122E+04 -4.061115E+05  1.280048E+05  2.384811E+02  4.868997E+02 -1.712338E+04
        29   4  4.986007E+04 -5.828248E+05  1.144339E+05 -7.104023E+02  3.109019E+02  5.881121E+04
        29   5 -1.922442E+04 -6.016380E+05  7.193785E+04  4.689073E+03  5.027684E+02  2.085445E+04
        29   6  2.722823E+04 -5.828426E+05  8.381583E+04 -7.353075E+02  4.868343E+02 -1.710329E+04
        29   7  4.926603E+03 -7.623508E+05  6.953281E+04  1.903842E+03  3.111829E+02  5.879226E+04
        29   8 -6.379078E+04 -7.797551E+05  2.739310E+04  5.509541E+03  5.027818E+02  2.085506E+04
        29   9 -1.695710E+04 -7.595453E+05  3.962451E+04 -1.708776E+03  4.867688E+02 -1.708321E+04
        29  10  9.479020E+04 -4.032733E+05  1.593260E+05 -3.325390E+03 -4.071934E-09 -1.168987E-10
        29  11  2.533943E+04 -4.234927E+05  1.164794E+05  3.868397E+03  4.083316E-09 -1.786041E-09
        29  12  7.141114E+04 -4.061118E+05  1.280042E+05  2.384878E+02  2.364046E-09 -1.558036E-09
        29  13  4.985914E+04 -5.828285E+05  1.144274E+05 -7.104170E+02  6.398532E-09 -1.981266E-09
        29  14 -1.922454E+04 -6.016385E+05  7.193703E+04  4.689065E+03  1.535097E-09  6.749254E-11
        29  15  2.722816E+04 -5.828429E+05  8.381528E+04 -7.353008E+02 -4.023282E-09 -3.683484E-09
        29  16  4.925673E+03 -7.623545E+05  6.952631E+04  1.903827E+03  4.547344E-09  1.773071E-10
        29  17 -6.379090E+04 -7.797555E+05  2.739228E+04  5.509532E+03  7.208822E-09  2.472097E-09
        29  18 -1.695718E+04 -7.595456E+05  3.962396E+04 -1.708769E+03 -6.670909E-09  4.675577E-10
        29  19  9.479113E+04 -4.032696E+05  1.593325E+05 -3.325376E+03 -3.106209E+02 -5.883017E+04
        29  20  2.533955E+04 -4.234922E+05  1.164802E+05  3.868405E+03 -5.027549E+02 -2.085384E+04
        29  21  7.141122E+04 -4.061115E+05  1.280048E+05  2.384811E+02 -4.868997E+02  1.712338E+04
        29  22  4.986007E+04 -5.828248E+05  1.144339E+05 -7.104023E+02 -3.109019E+02 -5.881121E+04
        29  23 -1.922442E+04 -6.016380E+05  7.193785E+04  4.689073E+03 -5.027684E+02 -2.085445E+04
        29  24  2.722823E+04 -5.828426E+05  8.381583E+04 -7.353075E+02 -4.868343E+02  1.710329E+04
        29  25  4.926603E+03 -7.623508E+05  6.953281E+04  1.903842E+03 -3.111829E+02 -5.879226E+04
        29  26 -6.379078E+04 -7.797551E+05  2.739310E+04  5.509541E+03 -5.027818E+02 -2.085506E+04
        29  27 -1.695710E+04 -7.595453E+05  3.962451E+04 -1.708776E+03 -4.867688E+02  1.708321E+04
        30   1  2.610723E+03 -5.723265E+05  8.948616E+04 -5.894501E+03  3.770063E+02 -3.285725E+04
        30   2 -4.606141E+04 -6.129457E+05  1.111387E+05  8.138418E+03  5.589973E+02 -9.344784E+04
        30   3  1.813978E+05 -5.768983E+05  2.412561E+05  4.817691E+03  9.410922E+02 -1.540348E+05
        30   4  2.099286E+03 -5.741662E+05  8.902076E+04 -2.606606E+03  3.767400E+02 -3.284270E+04
        30   5 -4.591772E+04 -6.124654E+05  1.112625E+05  6.642127E+03  5.591915E+02 -9.344297E+04
        30   6  1.821980E+05 -5.740968E+05  2.419756E+05 -1.462940E+03  9.426808E+02 -1.540399E+05
        30   7  1.587889E+03 -5.760059E+05  8.855535E+04  6.812797E+02  3.764738E+02 -3.282815E+04
        30   8 -4.577402E+04 -6.119851E+05  1.113863E+05  5.145835E+03  5.593856E+02 -9.343810E+04
        30   9  1.829984E+05 -5.712952E+05  2.426952E+05 -7.743601E+03  9.442694E+02 -1.540449E+05
        30  10  2.610433E+03 -5.723277E+05  8.948413E+04 -5.894491E+03  2.347720E-09 -2.327324E-10
        30  11 -4.606376E+04 -6.129551E+05  1.111223E+05  8.138460E+03 -3.981337E-09 -2.052287E-09
        30  12  1.813914E+05 -5.769238E+05  2.412115E+05  4.817808E+03 -4.597583E-09 -1.872337E-09
        30  13  2.098996E+03 -5.741674E+05  8.901873E+04 -2.606596E+03 -6.852203E-09 -3.311048E-09
        30  14 -4.592007E+04 -6.124748E+05  1.112461E+05  6.642169E+03  2.888329E-09 -2.055391E-11
        30  15  1.821916E+05 -5.741223E+05  2.419310E+05 -1.462823E+03  2.749517E-09 -3.859422E-09
        30  16  1.587599E+03 -5.760071E+05  8.855332E+04  6.812896E+02 -2.389600E-09  2.296605E-10
        30  17 -4.577637E+04 -6.119945E+05  1.113699E+05  5.145877E+03  3.154045E-09  2.965651E-09
        30  18  1.829920E+05 -5.713207E+05  2.426505E+05 -7.743484E+03 -3.648099E-09  7.079275E-10
        30  19  2.610723E+03 -5.723265E+05  8.948616E+04 -5.894501E+03 -3.770063E+02  3.285725E+04
        30  20 -4.606141E+04 -6.129457E+05  1.111387E+05  8.138418E+03 -5.589973E+02  9.344784E+04
        30  21  1.813978E+05 -5.768983E+05  2.412561E+05  4.817691E+03 -9.410922E+02  1.540348E+05
        30  22  2.099286E+03 -5.741662E+05  8.902076E+04 -2.606606E+03 -3.767400E+02  3.284270E+04
        30  23 -4.591772E+04 -6.124654E+05  1.112625E+05  6.642127E+03 -5.591915E+02  9.344297E+04
        30  24  1.821980E+05 -5.740968E+05  2.419756E+05 -1.462940E+03 -9.426808E+02  1.540399E+05
        30  25  1.587889E+03 -5.760059E+05  8.855535E+04  6.812797E+02 -3.764738E+02  3.282815E+04
        30  26 -4.577402E+04 -6.119851E+05  1.113863E+05  5.145835E+03 -5.593856E+02  9.343810E+04
        30  27  1.829984E+05 -5.712952E+05  2.426952E+05 -7.743601E+03 -9.442694E+02  1.540449E+05
        31   1 -2.981629E+06 -5.219262E+05 -1.526315E+05 -1.077006E+06 -9.748683E+04 -3.656607E+04
        31   2 -2.943535E+06 -3.882632E+05 -6.096222E+04 -1.115804E+06 -6.278099E+04 -2.356455E+04
        31   3 -2.968019E+06 -4.127979E+05 -3.826871E+04 -1.115003E+06 -2.808269E+04 -1.054465E+04
        31   4 -2.988760E+06 -5.229441E+05 -1.542662E+05 -1.077214E+06 -9.748649E+04 -3.656627E+04
        31   5 -2.949839E+06 -3.902276E+05 -6.262065E+04 -1.117083E+06 -6.278065E+04 -2.356448E+04
        31   6 -2.973496E+06 -4.157096E+05 -3.995144E+04 -1.117353E+06 -2.808229E+04 -1.054445E+04
        31   7 -2.995891E+06 -5.239620E+05 -1.559009E+05 -1.077422E+06 -9.748615E+04 -3.656648E+04
        31   8 -2.956142E+06 -3.921920E+05 -6.427909E+04 -1.118362E+06 -6.278031E+04 -2.356440E+04
        31   9 -2.978973E+06 -4.186214E+05 -4.163417E+04 -1.119702E+06 -2.808188E+04 -1.054425E+04
        31  10 -2.981639E+06 -5.219302E+05 -1.526520E+05 -1.077009E+06 -1.193375E-05 -9.548402E-06
        31  11 -2.943539E+06 -3.882649E+05 -6.097071E+04 -1.115805E+06 -5.721717E-05 -4.245642E-05
        31  12 -2.968019E+06 -4.127982E+05 -3.827040E+04 -1.115004E+06 -1.052516E-04 -7.411937E-05
        31  13 -2.988771E+06 -5.229481E+05 -1.542867E+05 -1.077217E+06 -3.920116E-05 -9.297745E-06
        31  14 -2.949843E+06 -3.902293E+05 -6.262915E+04 -1.117084E+06 -1.739191E-04 -4.121530E-05
        31  15 -2.973497E+06 -4.157099E+05 -3.995314E+04 -1.117353E+06 -3.086557E-04 -7.308153E-05
        31  16 -2.995902E+06 -5.239660E+05 -1.559214E+05 -1.077425E+06 -1.515598E-05 -9.307809E-06
        31  17 -2.956147E+06 -3.921936E+05 -6.428760E+04 -1.118363E+06 -6.293585E-05 -4.110597E-05
        31  18 -2.978974E+06 -4.186217E+05 -4.163589E+04 -1.119702E+06 -1.079994E-04 -7.407925E-05
        31  19 -2.981629E+06 -5.219262E+05 -1.526315E+05 -1.077006E+06  9.748683E+04  3.656607E+04
        31  20 -2.943535E+06 -3.882632E+05 -6.096220E+04 -1.115804E+06  6.278099E+04  2.356455E+04
        31  21 -2.968019E+06 -4.127978E+05 -3.826868E+04 -1.115003E+06  2.808269E+04  1.054465E+04
        31  22 -2.988760E+06 -5.229441E+05 -1.542662E+05 -1.077214E+06  9.748649E+04  3.656627E+04
        31  23 -2.949839E+06 -3.902276E+05 -6.262065E+04 -1.117083E+06  6.278065E+04  2.356448E+04
        31  24 -2.973496E+06 -4.157096E+05 -3.995144E+04 -1.117353E+06  2.808229E+04  1.054445E+04
        31  25 -2.995891E+06 -5.239620E+05 -1.559009E+05 -1.077422E+06  9.748615E+04  3.656648E+04
        31  26 -2.956142E+06 -3.921920E+05 -6.427911E+04 -1.118362E+06  6.278031E+04  2.356440E+04
        31  27 -2.978973E+06 -4.186214E+05 -4.163421E+04 -1.119702E+06  2.808188E+04  1.054425E+04
        32   1 -2.970358E+06 -4.346096E+05 -3.348270E+04 -1.107368E+06 -2.196517E+04 -8.242632E+03
        32   2 -2.963900E+06 -4.140091E+05 -1.516276E+04 -1.113847E+06 -1.411760E+04 -5.292949E+03
        32   3 -2.968335E+06 -4.175519E+05 -9.466866E+03 -1.113366E+06 -6.267724E+03 -2.348885E+03
        32   4 -2.968789E+06 -4.337607E+05 -3.299759E+04 -1.106680E+06 -2.196506E+04 -8.242601E+03
        32   5 -2.962142E+06 -4.132831E+05 -1.466446E+04 -1.113307E+06 -1.411759E+04 -5.292949E+03
        32   6 -2.966388E+06 -4.169486E+05 -8.955265E+03 -1.112974E+06 -6.267825E+03 -2.348922E+03
        32   7 -2.967220E+06 -4.329119E+05 -3.251249E+04 -1.105992E+06 -2.196494E+04 -8.242569E+03
        32   8 -2.960384E+06 -4.125571E+05 -1.416617E+04 -1.112767E+06 -1.411758E+04 -5.292948E+03
        32   9 -2.964441E+06 -4.163454E+05 -8.443665E+03 -1.112583E+06 -6.267926E+03 -2.348958E+03
        32  10 -2.970359E+06 -4.346098E+05 -3.348373E+04 -1.107368E+06 -1.033880E-04 -6.998188E-05
        32  11 -2.963900E+06 -4.140092E+05 -1.516319E+04 -1.113847E+06 -3.917327E-05 -2.355073E-05
        32  12 -2.968336E+06 -4.175519E+05 -9.466955E+03 -1.113366E+06  2.808271E-05  2.153331E-05
        32  13 -2.968790E+06 -4.337609E+05 -3.299863E+04 -1.106680E+06 -2.924408E-04 -6.925425E-05
        32  14 -2.962142E+06 -4.132832E+05 -1.466489E+04 -1.113307E+06 -1.019884E-04 -2.425235E-05
        32  15 -2.966388E+06 -4.169487E+05 -8.955350E+03 -1.112974E+06  8.847921E-05  2.074747E-05
        32  16 -2.967220E+06 -4.329121E+05 -3.251354E+04 -1.105992E+06 -9.868236E-05 -7.038389E-05
        32  17 -2.960384E+06 -4.125572E+05 -1.416660E+04 -1.112767E+06 -3.135934E-05 -2.533373E-05
        32  18 -2.964441E+06 -4.163454E+05 -8.443745E+03 -1.112583E+06  3.294337E-05  2.107191E-05
        32  19 -2.970358E+06 -4.346095E+05 -3.348267E+04 -1.107368E+06  2.196517E+04  8.242632E+03
        32  20 -2.963900E+06 -4.140091E+05 -1.516275E+04 -1.113847E+06  1.411760E+04  5.292949E+03
        32  21 -2.968335E+06 -4.175519E+05 -9.466875E+03 -1.113365E+06  6.267724E+03  2.348886E+03
        32  22 -2.968789E+06 -4.337607E+05 -3.299759E+04 -1.106680E+06  2.196506E+04  8.242601E+03
        32  23 -2.962142E+06 -4.132831E+05 -1.466446E+04 -1.113307E+06  1.411759E+04  5.292949E+03
        32  24 -2.966388E+06 -4.169486E+05 -8.955265E+03 -1.112974E+06  6.267825E+03  2.348922E+03
        32  25 -2.967220E+06 -4.329119E+05 -3.251251E+04 -1.105992E+06  2.196494E+04  8.242569E+03
        32  26 -2.960384E+06 -4.125571E+05 -1.416618E+04 -1.112767E+06  1.411758E+04  5.292948E+03
        32  27 -2.964441E+06 -4.163454E+05 -8.443656E+03 -1.112583E+06  6.267926E+03  2.348958E+03
        33   1 -2.966010E+06 -4.203290E+05 -7.407985E+03 -1.111837E+06 -4.916283E+03 -1.842981E+03
        33   2 -2.965168E+06 -4.168280E+05 -3.672517E+03 -1.112533E+06 -3.097261E+03 -1.160399E+03
        33   3 -2.965612E+06 -4.176577E+05 -2.362240E+03 -1.112742E+06 -1.277610E+03 -4.795111E+02
        33   4 -2.965314E+06 -4.200275E+05 -7.207818E+03 -1.111609E+06 -4.916265E+03 -1.842975E+03
        33   5 -2.964484E+06 -4.165611E+05 -3.481881E+03 -1.112339E+06 -3.097279E+03 -1.160406E+03
        33   6 -2.964941E+06 -4.174254E+05 -2.181104E+03 -1.112582E+06 -1.277665E+03 -4.795316E+02
        33   7 -2.964617E+06 -4.197260E+05 -7.007651E+03 -1.111380E+06 -4.916247E+03 -1.842969E+03
        33   8 -2.963801E+06 -4.162942E+05 -3.291244E+03 -1.112144E+06 -3.097298E+03 -1.160413E+03
        33   9 -2.964270E+06 -4.171932E+05 -1.999968E+03 -1.112422E+06 -1.277720E+03 -4.795521E+02
        33  10 -2.966010E+06 -4.203290E+05 -7.408043E+03 -1.111837E+06  3.964724E-05  2.691865E-05
        33  11 -2.965168E+06 -4.168280E+05 -3.672537E+03 -1.112533E+06  2.966237E-06 -2.681772E-07
        33  12 -2.965612E+06 -4.176577E+05 -2.362238E+03 -1.112742E+06 -3.615122E-05 -2.635095E-05
        33  13 -2.965314E+06 -4.200275E+05 -7.207870E+03 -1.111609E+06  1.118055E-04  2.632167E-05
        33  14 -2.964484E+06 -4.165611E+05 -3.481901E+03 -1.112339E+06  1.522325E-06  4.707957E-07
        33  15 -2.964941E+06 -4.174254E+05 -2.181108E+03 -1.112582E+06 -1.087556E-04 -2.538152E-05
        33  16 -2.964617E+06 -4.197260E+05 -7.007697E+03 -1.111380E+06  3.753958E-05  2.684570E-05
        33  17 -2.963801E+06 -4.162942E+05 -3.291265E+03 -1.112144E+06 -1.820659E-06  8.433634E-07
        33  18 -2.964271E+06 -4.171932E+05 -1.999977E+03 -1.112422E+06 -3.874253E-05 -2.622075E-05
        33  19 -2.966010E+06 -4.203290E+05 -7.407997E+03 -1.111837E+06  4.916283E+03  1.842981E+03
        33  20 -2.965168E+06 -4.168280E+05 -3.672517E+03 -1.112533E+06  3.097261E+03  1.160399E+03
        33  21 -2.965612E+06 -4.176577E+05 -2.362229E+03 -1.112742E+06  1.277610E+03  4.795110E+02
        33  22 -2.965314E+06 -4.200275E+05 -7.207818E+03 -1.111609E+06  4.916265E+03  1.842975E+03
        33  23 -2.964484E+06 -4.165611E+05 -3.481881E+03 -1.112339E+06  3.097279E+03  1.160406E+03
        33  24 -2.964941E+06 -4.174254E+05 -2.181105E+03 -1.112582E+06  1.277665E+03  4.795316E+02
        33  25 -2.964617E+06 -4.197259E+05 -7.007639E+03 -1.111380E+06  4.916248E+03  1.842969E+03
        33  26 -2.963801E+06 -4.162942E+05 -3.291244E+03 -1.112144E+06  3.097298E+03  1.160413E+03
        33  27 -2.964271E+06 -4.171932E+05 -1.999980E+03 -1.112422E+06  1.277720E+03  4.795521E+02
        34   1 -2.961924E+06 -4.164682E+05 -9.568739E+02 -1.111269E+06 -9.436296E+02 -3.577830E+02
        34   2 -2.961496E+06 -4.161992E+05 -3.618803E+02 -1.111722E+06 -3.260488E+02 -1.294609E+02
        34   3 -2.961983E+06 -4.162395E+05 -4.531626E+02 -1.111377E+06  2.885337E+02  1.068361E+02
        34   4 -2.965015E+06 -4.176308E+05 -1.810048E+03 -1.112101E+06 -9.437816E+02 -3.578400E+02
        34   5 -2.964538E+06 -4.173497E+05 -1.202975E+03 -1.112547E+06 -3.260252E+02 -1.294520E+02
        34   6 -2.964978E+06 -4.173780E+05 -1.282320E+03 -1.112195E+06  2.887332E+02  1.069109E+02
        34   7 -2.968105E+06 -4.187933E+05 -2.663223E+03 -1.112933E+06 -9.439335E+02 -3.578970E+02
        34   8 -2.967581E+06 -4.185002E+05 -2.044070E+03 -1.113373E+06 -3.260016E+02 -1.294432E+02
        34   9 -2.967973E+06 -4.185165E+05 -2.111478E+03 -1.113014E+06  2.889324E+02  1.069857E+02
        34  10 -2.961924E+06 -4.164682E+05 -9.568709E+02 -1.111269E+06 -3.547440E-05 -2.329704E-05
        34  11 -2.961496E+06 -4.161992E+05 -3.618833E+02 -1.111722E+06  1.468934E-05  1.353725E-05
        34  12 -2.961983E+06 -4.162395E+05 -4.531730E+02 -1.111377E+06  6.826011E-05  4.890754E-05
        34  13 -2.965015E+06 -4.176308E+05 -1.810050E+03 -1.112101E+06 -9.728055E-05 -2.275717E-05
        34  14 -2.964538E+06 -4.173497E+05 -1.202975E+03 -1.112547E+06  5.240109E-05  1.210663E-05
        34  15 -2.964978E+06 -4.173780E+05 -1.282320E+03 -1.112195E+06  2.021166E-04  4.693542E-05
        34  16 -2.968105E+06 -4.187933E+05 -2.663230E+03 -1.112933E+06 -3.156664E-05 -2.364071E-05
        34  17 -2.967581E+06 -4.185002E+05 -2.044068E+03 -1.113373E+06  2.127441E-05  1.203963E-05
        34  18 -2.967973E+06 -4.185165E+05 -2.111468E+03 -1.113014E+06  7.071881E-05  4.916946E-05
        34  19 -2.961924E+06 -4.164682E+05 -9.568640E+02 -1.111269E+06  9.436295E+02  3.577829E+02
        34  20 -2.961496E+06 -4.161992E+05 -3.618858E+02 -1.111722E+06  3.260489E+02  1.294609E+02
        34  21 -2.961984E+06 -4.162396E+05 -4.531830E+02 -1.111377E+06 -2.885336E+02 -1.068360E+02
        34  22 -2.965015E+06 -4.176308E+05 -1.810048E+03 -1.112101E+06  9.437814E+02  3.578400E+02
        34  23 -2.964538E+06 -4.173497E+05 -1.202975E+03 -1.112547E+06  3.260253E+02  1.294521E+02
        34  24 -2.964978E+06 -4.173780E+05 -1.282319E+03 -1.112195E+06 -2.887328E+02 -1.069108E+02
        34  25 -2.968105E+06 -4.187933E+05 -2.663233E+03 -1.112933E+06  9.439334E+02  3.578970E+02
        34  26 -2.967581E+06 -4.185002E+05 -2.044065E+03 -1.113373E+06  3.260016E+02  1.294432E+02
        34  27 -2.967973E+06 -4.185165E+05 -2.111457E+03 -1.113014E+06 -2.889322E+02 -1.069856E+02
        35   1 -2.972115E+06 -4.204930E+05 -3.492607E+03 -1.114722E+06  5.098309E+02  2.000224E+02
        35   2 -2.972332E+06 -4.195518E+05 -4.091026E+03 -1.114038E+06  1.559425E+03  6.024006E+02
        35   3 -2.972076E+06 -4.213371E+05 -5.893383E+03 -1.114302E+06  2.616591E+03  9.846478E+02
        35   4 -2.964633E+06 -4.176526E+05 -1.421856E+03 -1.112682E+06  5.102280E+02  2.001714E+02
        35   5 -2.964936E+06 -4.167564E+05 -2.046846E+03 -1.112034E+06  1.559383E+03  6.023851E+02
        35   6 -2.964767E+06 -4.185865E+05 -3.875414E+03 -1.112333E+06  2.616110E+03  9.844677E+02
        35   7 -2.957150E+06 -4.148122E+05  6.488893E+02 -1.110641E+06  5.106250E+02  2.003204E+02
        35   8 -2.957540E+06 -4.139609E+05 -2.670556E+00 -1.110029E+06  1.559342E+03  6.023695E+02
        35   9 -2.957458E+06 -4.158360E+05 -1.857451E+03 -1.110364E+06  2.615630E+03  9.842875E+02
        35  10 -2.972115E+06 -4.204930E+05 -3.492615E+03 -1.114722E+06  5.552050E-05  3.541530E-05
        35  11 -2.972332E+06 -4.195518E+05 -4.091021E+03 -1.114038E+06 -5.696662E-05 -4.729363E-05
        35  12 -2.972076E+06 -4.213371E+05 -5.893371E+03 -1.114302E+06 -1.749950E-04 -1.276248E-04
        35  13 -2.964633E+06 -4.176526E+05 -1.421858E+03 -1.112682E+06  1.481709E-04  3.452438E-05
        35  14 -2.964936E+06 -4.167564E+05 -2.046851E+03 -1.112034E+06 -1.869781E-04 -4.290864E-05
        35  15 -2.964767E+06 -4.185865E+05 -3.875430E+03 -1.112333E+06 -5.221561E-04 -1.203051E-04
        35  16 -2.957150E+06 -4.148122E+05  6.488962E+02 -1.110641E+06  4.649399E-05  3.622275E-05
        35  17 -2.957540E+06 -4.139609E+05 -2.685535E+00 -1.110029E+06 -7.113487E-05 -4.431786E-05
        35  18 -2.957458E+06 -4.158360E+05 -1.857493E+03 -1.110364E+06 -1.832954E-04 -1.271247E-04
        35  19 -2.972115E+06 -4.204931E+05 -3.492622E+03 -1.114722E+06 -5.098307E+02 -2.000223E+02
        35  20 -2.972332E+06 -4.195518E+05 -4.091006E+03 -1.114039E+06 -1.559425E+03 -6.024007E+02
        35  21 -2.972076E+06 -4.213370E+05 -5.893329E+03 -1.114302E+06 -2.616591E+03 -9.846481E+02
        35  22 -2.964633E+06 -4.176526E+05 -1.421858E+03 -1.112682E+06 -5.102277E+02 -2.001713E+02
        35  23 -2.964936E+06 -4.167564E+05 -2.046847E+03 -1.112034E+06 -1.559384E+03 -6.023852E+02
        35  24 -2.964767E+06 -4.185865E+05 -3.875416E+03 -1.112333E+06 -2.616111E+03 -9.844679E+02
        35  25 -2.957150E+06 -4.148122E+05  6.489042E+02 -1.110641E+06 -5.106249E+02 -2.003204E+02
        35  26 -2.957540E+06 -4.139610E+05 -2.689955E+00 -1.110029E+06 -1.559342E+03 -6.023696E+02
        35  27 -2.957458E+06 -4.158360E+05 -1.857505E+03 -1.110364E+06 -2.615631E+03 -9.842877E+02
        36   1 -2.948107E+06 -4.099396E+05  5.589651E+01 -1.107153E+06  3.352566E+03  1.236762E+03
        36   2 -2.945509E+06 -4.098418E+05 -3.330230E+03 -1.108737E+06  7.638515E+03  2.825993E+03
        36   3 -2.949586E+06 -4.163692E+05 -1.243874E+04 -1.104766E+06  1.190651E+04  4.463062E+03
        36   4 -2.965956E+06 -4.166391E+05 -4.868297E+03 -1.111943E+06  3.351601E+03  1.236401E+03
        36   5 -2.963076E+06 -4.165100E+05 -8.191158E+03 -1.113528E+06  7.638503E+03  2.825988E+03
        36   6 -2.966870E+06 -4.230064E+05 -1.723729E+04 -1.109558E+06  1.190746E+04  4.463414E+03
        36   7 -2.983805E+06 -4.233385E+05 -9.792519E+03 -1.116733E+06  3.350636E+03  1.236039E+03
        36   8 -2.980642E+06 -4.231781E+05 -1.305211E+04 -1.118319E+06  7.638492E+03  2.825984E+03
        36   9 -2.984154E+06 -4.296435E+05 -2.203586E+04 -1.114350E+06  1.190840E+04  4.463767E+03
        36  10 -2.948106E+06 -4.099395E+05  5.590104E+01 -1.107153E+06 -1.911618E-04 -1.341405E-04
        36  11 -2.945509E+06 -4.098418E+05 -3.330340E+03 -1.108737E+06 -1.113711E-04 -7.460207E-05
        36  12 -2.949586E+06 -4.163693E+05 -1.243904E+04 -1.104766E+06 -2.750464E-05 -1.669442E-05
        36  13 -2.965956E+06 -4.166391E+05 -4.868321E+03 -1.111943E+06 -5.498232E-04 -1.267666E-04
        36  14 -2.963076E+06 -4.165100E+05 -8.191283E+03 -1.113528E+06 -3.097803E-04 -7.153128E-05
        36  15 -2.966870E+06 -4.230064E+05 -1.723759E+04 -1.109558E+06 -6.979641E-05 -1.618004E-05
        36  16 -2.983805E+06 -4.233386E+05 -9.792572E+03 -1.116733E+06 -1.861295E-04 -1.340880E-04
        36  17 -2.980642E+06 -4.231782E+05 -1.305226E+04 -1.118319E+06 -1.011249E-04 -7.673752E-05
        36  18 -2.984154E+06 -4.296436E+05 -2.203617E+04 -1.114350E+06 -2.034008E-05 -1.752979E-05
        36  19 -2.948106E+06 -4.099395E+05  5.595382E+01 -1.107153E+06 -3.352567E+03 -1.236763E+03
        36  20 -2.945509E+06 -4.098418E+05 -3.330198E+03 -1.108737E+06 -7.638516E+03 -2.825993E+03
        36  21 -2.949586E+06 -4.163692E+05 -1.243874E+04 -1.104766E+06 -1.190651E+04 -4.463062E+03
        36  22 -2.965956E+06 -4.166391E+05 -4.868296E+03 -1.111943E+06 -3.351602E+03 -1.236401E+03
        36  23 -2.963076E+06 -4.165100E+05 -8.191158E+03 -1.113528E+06 -7.638504E+03 -2.825989E+03
        36  24 -2.966870E+06 -4.230064E+05 -1.723728E+04 -1.109558E+06 -1.190746E+04 -4.463414E+03
        36  25 -2.983805E+06 -4.233386E+05 -9.792576E+03 -1.116733E+06 -3.350637E+03 -1.236039E+03
        36  26 -2.980642E+06 -4.231781E+05 -1.305215E+04 -1.118319E+06 -7.638492E+03 -2.825984E+03
        36  27 -2.984154E+06 -4.296435E+05 -2.203586E+04 -1.114350E+06 -1.190840E+04 -4.463767E+03
        37   1 -3.008822E+06 -4.344009E+05 -3.313408E+04 -1.127621E+06  1.510588E+04  5.722232E+03
        37   2 -3.002977E+06 -4.210936E+05 -4.687523E+04 -1.123430E+06  3.396994E+04  1.283239E+04
        37   3 -3.014203E+06 -4.739030E+05 -9.075832E+04 -1.111343E+06  5.288768E+04  1.979851E+04
        37   4 -2.966617E+06 -4.180994E+05 -2.139773E+04 -1.115822E+06  1.510878E+04  5.723331E+03
        37   5 -2.960967E+06 -4.053566E+05 -3.529219E+04 -1.112188E+06  3.397086E+04  1.283273E+04
        37   6 -2.972387E+06 -4.587277E+05 -7.932543E+04 -1.100658E+06  5.288661E+04  1.979804E+04
        37   7 -2.924409E+06 -4.017977E+05 -9.661552E+03 -1.104023E+06  1.511168E+04  5.724430E+03
        37   8 -2.918956E+06 -3.896196E+05 -2.370931E+04 -1.100945E+06  3.397178E+04  1.283306E+04
        37   9 -2.930570E+06 -4.435524E+05 -6.789271E+04 -1.089972E+06  5.288554E+04  1.979758E+04
        37  10 -3.008822E+06 -4.344010E+05 -3.313457E+04 -1.127621E+06 -6.023197E-07  2.164693E-07
        37  11 -3.002978E+06 -4.210940E+05 -4.687772E+04 -1.123430E+06  1.435410E-07 -6.056261E-08
        37  12 -3.014206E+06 -4.739042E+05 -9.076434E+04 -1.111343E+06  3.231812E-08 -4.737671E-09
        37  13 -2.966617E+06 -4.180995E+05 -2.139822E+04 -1.115822E+06  5.263506E-09 -3.694894E-08
        37  14 -2.960969E+06 -4.053571E+05 -3.529468E+04 -1.112188E+06 -2.702680E-09 -1.849944E-10
        37  15 -2.972391E+06 -4.587289E+05 -7.933146E+04 -1.100659E+06 -5.862440E-09  5.364216E-09
        37  16 -2.924409E+06 -4.017978E+05 -9.662045E+03 -1.104023E+06  6.276300E-07 -2.820572E-07
        37  17 -2.918957E+06 -3.896201E+05 -2.371180E+04 -1.100946E+06 -1.432050E-07  5.665611E-08
        37  18 -2.930573E+06 -4.435536E+05 -6.789873E+04 -1.089973E+06 -3.577131E-08  2.423543E-08
        37  19 -3.008822E+06 -4.344009E+05 -3.313408E+04 -1.127621E+06 -1.510588E+04 -5.722232E+03
        37  20 -3.002977E+06 -4.210936E+05 -4.687523E+04 -1.123430E+06 -3.396994E+04 -1.283239E+04
        37  21 -3.014203E+06 -4.739030E+05 -9.075832E+04 -1.111343E+06 -5.288768E+04 -1.979851E+04
        37  22 -2.966617E+06 -4.180994E+05 -2.139773E+04 -1.115822E+06 -1.510878E+04 -5.723331E+03
        37  23 -2.960967E+06 -4.053566E+05 -3.529219E+04 -1.112188E+06 -3.397086E+04 -1.283273E+04
        37  24 -2.972387E+06 -4.587277E+05 -7.932543E+04 -1.100658E+06 -5.288661E+04 -1.979804E+04
        37  25 -2.924409E+06 -4.017977E+05 -9.661552E+03 -1.104023E+06 -1.511168E+04 -5.724430E+03
        37  26 -2.918956E+06 -3.896196E+05 -2.370931E+04 -1.100945E+06 -3.397178E+04 -1.283306E+04
        37  27 -2.930570E+06 -4.435524E+05 -6.789271E+04 -1.089972E+06 -5.288554E+04 -1.979758E+04
        38   1 -2.885445E+06 -3.718932E+05 -6.762373E+04 -1.093259E+06  6.756765E+04  2.518123E+04
        38   2 -2.825841E+06 -3.191353E+05 -1.232851E+05 -1.102255E+06  1.510728E+05  5.659268E+04
        38   3 -2.929844E+06 -6.254680E+05 -3.432052E+05 -9.918502E+05  2.344037E+05  8.847748E+04
        38   4 -2.988545E+06 -4.088256E+05 -9.571307E+04 -1.119110E+06  6.755683E+04  2.517745E+04
        38   5 -2.925293E+06 -3.578304E+05 -1.509941E+05 -1.130351E+06  1.510596E+05  5.658744E+04
        38   6 -3.025670E+06 -6.659623E+05 -3.705526E+05 -1.022185E+06  2.343888E+05  8.846992E+04
        38   7 -3.091635E+06 -4.457578E+05 -1.238034E+05 -1.144958E+06  6.754601E+04  2.517368E+04
        38   8 -3.024736E+06 -3.965248E+05 -1.787040E+05 -1.158443E+06  1.510465E+05  5.658219E+04
        38   9 -3.121487E+06 -7.064554E+05 -3.979009E+05 -1.052515E+06  2.343739E+05  8.846236E+04
        38  10 -2.885450E+06 -3.718951E+05 -6.763355E+04 -1.093260E+06 -1.094217E-07  5.121899E-08
        38  11 -2.825867E+06 -3.191449E+05 -1.233343E+05 -1.102262E+06  1.452762E-08  1.609068E-09
        38  12 -2.929905E+06 -6.254912E+05 -3.433238E+05 -9.918669E+05  1.950094E-08 -4.551552E-09
        38  13 -2.988550E+06 -4.088275E+05 -9.572289E+04 -1.119112E+06 -1.159401E-08  3.401410E-09
        38  14 -2.925319E+06 -3.578400E+05 -1.510432E+05 -1.130358E+06 -4.803727E-09  3.236510E-09
        38  15 -3.025731E+06 -6.659855E+05 -3.706712E+05 -1.022201E+06 -4.984719E-09  1.586592E-09
        38  16 -3.091640E+06 -4.457597E+05 -1.238132E+05 -1.144959E+06  1.017911E-07 -4.099244E-08
        38  17 -3.024761E+06 -3.965344E+05 -1.787531E+05 -1.158450E+06 -2.819841E-08  1.704209E-08
        38  18 -3.121548E+06 -7.064787E+05 -3.980195E+05 -1.052531E+06 -2.056518E-08  1.320484E-08
        38  19 -2.885445E+06 -3.718932E+05 -6.762373E+04 -1.093259E+06 -6.756765E+04 -2.518123E+04
        38  20 -2.825841E+06 -3.191353E+05 -1.232851E+05 -1.102255E+06 -1.510728E+05 -5.659268E+04
        38  21 -2.929844E+06 -6.254680E+05 -3.432052E+05 -9.918502E+05 -2.344037E+05 -8.847748E+04
        38  22 -2.988545E+06 -4.088256E+05 -9.571307E+04 -1.119110E+06 -6.755683E+04 -2.517745E+04
        38  23 -2.925293E+06 -3.578304E+05 -1.509941E+05 -1.130351E+06 -1.510596E+05 -5.658744E+04
        38  24 -3.025670E+06 -6.659623E+05 -3.705526E+05 -1.022185E+06 -2.343888E+05 -8.846992E+04
        38  25 -3.091635E+06 -4.457578E+05 -1.238034E+05 -1.144958E+06 -6.754601E+04 -2.517368E+04
        38  26 -3.024736E+06 -3.965248E+05 -1.787040E+05 -1.158443E+06 -1.510465E+05 -5.658219E+04
        38  27 -3.121487E+06 -7.064554E+05 -3.979009E+05 -1.052515E+06 -2.343739E+05 -8.846236E+04
        39   1 -4.008564E+06 -3.675283E+05 -4.811331E+05 -6.149752E+03 -3.274284E+05  3.263397E+00
        39   2 -3.934002E+06  8.895682E+04 -2.047033E+05 -1.541191E+03 -2.154320E+05  5.380641E-01
        39   3 -4.007831E+06  1.135623E+04 -1.350080E+05  3.067821E+03 -1.034396E+05 -5.143201E-01
        39   4 -4.008564E+06 -3.675284E+05 -4.811331E+05  8.009052E-07 -3.274284E+05  8.774909E-09
        39   5 -3.934002E+06  8.895681E+04 -2.047033E+05 -1.161462E-06 -2.154320E+05 -1.168296E-08
        39   6 -4.007831E+06  1.135621E+04 -1.350080E+05  1.039953E-06 -1.034396E+05 -2.830518E-09
        39   7 -4.008564E+06 -3.675283E+05 -4.811331E+05  6.149752E+03 -3.274284E+05 -3.263397E+00
        39   8 -3.934002E+06  8.895682E+04 -2.047033E+05  1.541191E+03 -2.154320E+05 -5.380640E-01
        39   9 -4.007831E+06  1.135623E+04 -1.350080E+05 -3.067821E+03 -1.034396E+05  5.143201E-01
        39  10 -4.008679E+06 -3.675573E+05 -4.813359E+05 -6.149751E+03 -6.640570E-10  2.127322E-09
        39  11 -3.934052E+06  8.894426E+04 -2.047911E+05 -1.541191E+03 -1.994678E-09 -8.684970E-09
        39  12 -4.007842E+06  1.135334E+04 -1.350282E+05  3.067821E+03 -1.395277E-09  4.878814E-09
        39  13 -4.008679E+06 -3.675574E+05 -4.813359E+05  1.076138E-06  3.354511E-11 -2.608400E-09
        39  14 -3.934052E+06  8.894425E+04 -2.047911E+05 -6.022378E-08  1.072196E-08 -9.256018E-09
        39  15 -4.007842E+06  1.135332E+04 -1.350282E+05 -6.461154E-07 -1.684297E-09 -3.540479E-09
        39  16 -4.008679E+06 -3.675573E+05 -4.813359E+05  6.149751E+03  7.562743E-10 -4.283775E-09
        39  17 -3.934052E+06  8.894426E+04 -2.047911E+05  1.541191E+03  4.123376E-09 -1.612294E-08
        39  18 -4.007842E+06  1.135334E+04 -1.350282E+05 -3.067821E+03  1.268490E-09 -3.530602E-09
        39  19 -4.008564E+06 -3.675283E+05 -4.811331E+05 -6.149752E+03  3.274284E+05 -3.263397E+00
        39  20 -3.934002E+06  8.895682E+04 -2.047033E+05 -1.541191E+03  2.154320E+05 -5.380639E-01
        39  21 -4.007831E+06  1.135623E+04 -1.350080E+05  3.067821E+03  1.034396E+05  5.143201E-01
        39  22 -4.008564E+06 -3.675284E+05 -4.811331E+05  1.076134E-06  3.274284E+05 -1.535356E-08
        39  23 -3.934002E+06  8.895681E+04 -2.047033E+05 -6.022449E-08  2.154320E+05 -4.079457E-09
        39  24 -4.007831E+06  1.135621E+04 -1.350080E+05  5.238117E-07  1.034396E+05 -5.354745E-09
        39  25 -4.008564E+06 -3.675283E+05 -4.811331E+05  6.149752E+03  3.274284E+05  3.263397E+00
        39  26 -3.934002E+06  8.895682E+04 -2.047033E+05  1.541191E+03  2.154320E+05  5.380640E-01
        39  27 -4.007831E+06  1.135623E+04 -1.350080E+05 -3.067821E+03  1.034396E+05 -5.143201E-01
        40   1 -3.980533E+06 -5.772708E+04 -1.118588E+05 -9.261347E+02 -8.104436E+04  1.216450E-01
        40   2 -3.968127E+06  1.398443E+04 -5.290438E+04 -2.175626E+02 -5.322504E+04  1.876695E-02
        40   3 -3.980388E+06  1.733840E+03 -3.313507E+04  4.910017E+02 -2.540582E+04 -2.021697E-02
        40   4 -3.980533E+06 -5.772708E+04 -1.118588E+05  6.754725E-07 -8.104436E+04 -5.065231E-09
        40   5 -3.968127E+06  1.398443E+04 -5.290438E+04 -6.169865E-07 -5.322504E+04  4.851792E-09
        40   6 -3.980388E+06  1.733840E+03 -3.313507E+04 -7.739499E-07 -2.540582E+04  6.223304E-09
        40   7 -3.980533E+06 -5.772708E+04 -1.118588E+05  9.261347E+02 -8.104436E+04 -1.216449E-01
        40   8 -3.968127E+06  1.398443E+04 -5.290438E+04  2.175626E+02 -5.322504E+04 -1.876696E-02
        40   9 -3.980388E+06  1.733840E+03 -3.313507E+04 -4.910017E+02 -2.540582E+04  2.021700E-02
        40  10 -3.980540E+06 -5.772886E+04 -1.118713E+05 -9.261347E+02  2.409428E-09  6.236514E-10
        40  11 -3.968130E+06  1.398366E+04 -5.290974E+04 -2.175626E+02 -5.423910E-09  4.544834E-10
        40  12 -3.980389E+06  1.733665E+03 -3.313629E+04  4.910017E+02 -2.647634E-09 -9.288769E-09
        40  13 -3.980540E+06 -5.772886E+04 -1.118713E+05  1.249440E-07  6.709335E-11 -4.852976E-10
        40  14 -3.968130E+06  1.398366E+04 -5.290974E+04  6.217414E-07 -2.150395E-09  1.174846E-11
        40  15 -3.980389E+06  1.733665E+03 -3.313629E+04  1.550795E-07  1.500039E-09  3.786013E-09
        40  16 -3.980540E+06 -5.772886E+04 -1.118713E+05  9.261347E+02 -9.694498E-10  5.635866E-10
        40  17 -3.968130E+06  1.398366E+04 -5.290974E+04  2.175626E+02  4.169246E-09  4.811185E-09
        40  18 -3.980389E+06  1.733665E+03 -3.313629E+04 -4.910017E+02  3.498176E-09  4.072757E-09
        40  19 -3.980533E+06 -5.772708E+04 -1.118588E+05 -9.261347E+02  8.104436E+04 -1.216449E-01
        40  20 -3.968127E+06  1.398443E+04 -5.290438E+04 -2.175626E+02  5.322504E+04 -1.876692E-02
        40  21 -3.980388E+06  1.733840E+03 -3.313507E+04  4.910017E+02  2.540582E+04  2.021701E-02
        40  22 -3.980533E+06 -5.772708E+04 -1.118588E+05  1.249424E-07  8.104436E+04  5.099237E-09
        40  23 -3.968127E+06  1.398443E+04 -5.290438E+04  7.593781E-07  5.322504E+04 -3.226237E-09
        40  24 -3.980388E+06  1.733840E+03 -3.313507E+04  2.238989E-07  2.540582E+04 -1.293146E-09
        40  25 -3.980533E+06 -5.772708E+04 -1.118588E+05  9.261347E+02  8.104436E+04  1.216449E-01
        40  26 -3.968127E+06  1.398443E+04 -5.290438E+04  2.175626E+02  5.322504E+04  1.876692E-02
        40  27 -3.980388E+06  1.733840E+03 -3.313507E+04 -4.910017E+02  2.540582E+04 -2.021702E-02
        41   1 -3.975872E+06 -9.022393E+03 -2.663555E+04 -1.350981E+02 -1.999148E+04  4.377189E-03
        41   2 -3.973750E+06  2.195245E+03 -1.361013E+04 -2.796090E+01 -1.300851E+04  5.895070E-04
        41   3 -3.975843E+06  2.330055E+02 -8.447675E+03  7.917766E+01 -6.025402E+03 -7.731718E-04
        41   4 -3.975872E+06 -9.022393E+03 -2.663555E+04 -2.089887E-07 -1.999148E+04  1.667066E-09
        41   5 -3.973750E+06  2.195245E+03 -1.361013E+04 -8.248653E-07 -1.300851E+04  3.783726E-09
        41   6 -3.975843E+06  2.330055E+02 -8.447675E+03  1.105455E-06 -6.025402E+03 -8.892083E-09
        41   7 -3.975872E+06 -9.022393E+03 -2.663555E+04  1.350981E+02 -1.999148E+04 -4.377183E-03
        41   8 -3.973750E+06  2.195245E+03 -1.361013E+04  2.796090E+01 -1.300851E+04 -5.895151E-04
        41   9 -3.975843E+06  2.330055E+02 -8.447675E+03 -7.917766E+01 -6.025402E+03  7.731712E-04
        41  10 -3.975873E+06 -9.022501E+03 -2.663631E+04 -1.350981E+02 -6.131176E-09  4.148453E-09
        41  11 -3.973750E+06  2.195200E+03 -1.361045E+04 -2.796090E+01  3.339924E-09 -8.653458E-09
        41  12 -3.975843E+06  2.329957E+02 -8.447744E+03  7.917766E+01 -2.146227E-09 -6.814772E-09
        41  13 -3.975873E+06 -9.022501E+03 -2.663631E+04 -8.971484E-07 -6.709459E-11  4.079883E-09
        41  14 -3.973750E+06  2.195200E+03 -1.361045E+04 -1.375396E-06 -5.019245E-09  2.383158E-09
        41  15 -3.975843E+06  2.329956E+02 -8.447744E+03 -1.578370E-06 -2.509635E-09 -3.910725E-09
        41  16 -3.975873E+06 -9.022501E+03 -2.663631E+04  1.350981E+02 -1.980874E-10 -3.032480E-10
        41  17 -3.973750E+06  2.195200E+03 -1.361045E+04  2.796090E+01  6.186343E-10  2.412449E-11
        41  18 -3.975843E+06  2.329957E+02 -8.447744E+03 -7.917766E+01 -4.622411E-11 -8.054331E-10
        41  19 -3.975872E+06 -9.022393E+03 -2.663555E+04 -1.350981E+02  1.999148E+04 -4.377154E-03
        41  20 -3.973750E+06  2.195245E+03 -1.361013E+04 -2.796090E+01  1.300851E+04 -5.894893E-04
        41  21 -3.975843E+06  2.330055E+02 -8.447675E+03  7.917766E+01  6.025402E+03  7.731914E-04
        41  22 -3.975872E+06 -9.022393E+03 -2.663555E+04 -7.135511E-08  1.999148E+04  1.147951E-09
        41  23 -3.973750E+06  2.195245E+03 -1.361013E+04 -1.100131E-06  1.300851E+04 -4.325973E-09
        41  24 -3.975843E+06  2.330055E+02 -8.447675E+03  8.301904E-07  6.025402E+03  1.422425E-09
        41  25 -3.975872E+06 -9.022393E+03 -2.663555E+04  1.350981E+02  1.999148E+04  4.377157E-03
        41  26 -3.973750E+06  2.195245E+03 -1.361013E+04  2.796089E+01  1.300851E+04  5.894849E-04
        41  27 -3.975843E+06  2.330055E+02 -8.447675E+03 -7.917766E+01  6.025402E+03 -7.732011E-04
        42   1 -3.975099E+06 -1.395027E+03 -6.804338E+03 -2.019305E+01 -4.645545E+03  1.520391E-04
        42   2 -3.974672E+06  3.843403E+02 -4.095519E+03 -2.755947E+00 -2.578360E+03  1.150555E-05
        42   3 -3.975094E+06 -1.437261E+02 -3.315863E+03  1.468115E+01 -5.111720E+02 -1.213257E-05
        42   4 -3.975099E+06 -1.395027E+03 -6.804338E+03 -2.628675E-07 -4.645545E+03 -5.651985E-09
        42   5 -3.974672E+06  3.843403E+02 -4.095519E+03 -9.822072E-07 -2.578360E+03 -8.016377E-10
        42   6 -3.975094E+06 -1.437261E+02 -3.315863E+03 -1.359845E-07 -5.111720E+02 -9.578168E-09
        42   7 -3.975099E+06 -1.395027E+03 -6.804338E+03  2.019305E+01 -4.645545E+03 -1.520423E-04
        42   8 -3.974672E+06  3.843403E+02 -4.095519E+03  2.755944E+00 -2.578360E+03 -1.154374E-05
        42   9 -3.975094E+06 -1.437261E+02 -3.315863E+03 -1.468115E+01 -5.111720E+02  1.216072E-05
        42  10 -3.975099E+06 -1.395033E+03 -6.804379E+03 -2.019305E+01  2.291804E-09 -1.391460E-08
        42  11 -3.974672E+06  3.843385E+02 -4.095531E+03 -2.755944E+00 -1.448500E-09 -5.260448E-09
        42  12 -3.975094E+06 -1.437262E+02 -3.315863E+03  1.468115E+01  6.239967E-09 -3.955048E-10
        42  13 -3.975099E+06 -1.395033E+03 -6.804379E+03  2.876592E-07  3.520905E-09 -2.031017E-09
        42  14 -3.974672E+06  3.843385E+02 -4.095531E+03 -9.822074E-07 -9.320704E-09  3.362417E-09
        42  15 -3.975094E+06 -1.437262E+02 -3.315863E+03 -1.495097E-06 -2.398721E-09 -3.289805E-09
        42  16 -3.975099E+06 -1.395033E+03 -6.804379E+03  2.019305E+01  1.888848E-09 -1.387868E-08
        42  17 -3.974672E+06  3.843385E+02 -4.095531E+03  2.755944E+00 -1.431726E-09 -9.591553E-10
        42  18 -3.975094E+06 -1.437262E+02 -3.315863E+03 -1.468115E+01 -2.085858E-09 -9.060200E-09
        42  19 -3.975099E+06 -1.395027E+03 -6.804338E+03 -2.019305E+01  4.645545E+03 -1.520347E-04
        42  20 -3.974672E+06  3.843403E+02 -4.095519E+03 -2.755945E+00  2.578360E+03 -1.148386E-05
        42  21 -3.975094E+06 -1.437261E+02 -3.315863E+03  1.468115E+01  5.111720E+02  1.215940E-05
        42  22 -3.975099E+06 -1.395027E+03 -6.804338E+03  8.381859E-07  4.645545E+03 -2.602725E-09
        42  23 -3.974672E+06  3.843403E+02 -4.095519E+03 -9.822073E-07  2.578360E+03 -4.311387E-09
        42  24 -3.975094E+06 -1.437261E+02 -3.315863E+03 -6.865102E-07  5.111720E+02  2.262970E-09
        42  25 -3.975099E+06 -1.395027E+03 -6.804338E+03  2.019305E+01  4.645545E+03  1.520219E-04
        42  26 -3.974672E+06  3.843403E+02 -4.095519E+03  2.755942E+00  2.578360E+03  1.150553E-05
        42  27 -3.975094E+06 -1.437261E+02 -3.315863E+03 -1.468115E+01  5.111720E+02 -1.216901E-05
        43   1 -3.975073E+06 -1.825326E+02 -3.246364E+03 -1.304017E+01  8.209655E+01 -1.741197E-06
        43   2 -3.974697E+06  3.399572E+02 -3.704717E+03  2.320083E+00  1.951083E+03  7.329837E-06
        43   3 -3.975077E+06 -1.178517E+03 -5.895954E+03  1.768011E+01  3.820038E+03  1.094800E-04
        43   4 -3.975073E+06 -1.825326E+02 -3.246364E+03 -1.394576E-07  8.209655E+01  8.281778E-10
        43   5 -3.974697E+06  3.399572E+02 -3.704717E+03 -8.890526E-07  1.951083E+03  1.512509E-08
        43   6 -3.975077E+06 -1.178517E+03 -5.895954E+03  1.293688E-08  3.820038E+03  6.269808E-09
        43   7 -3.975073E+06 -1.825326E+02 -3.246364E+03  1.304016E+01  8.209655E+01  1.724513E-06
        43   8 -3.974697E+06  3.399572E+02 -3.704717E+03 -2.320084E+00  1.951083E+03 -7.347049E-06
        43   9 -3.975077E+06 -1.178517E+03 -5.895954E+03 -1.768012E+01  3.820038E+03 -1.094625E-04
        43  10 -3.975073E+06 -1.825326E+02 -3.246364E+03 -1.304017E+01  3.351888E-09  3.970807E-09
        43  11 -3.974697E+06  3.399562E+02 -3.704724E+03  2.320083E+00 -2.931839E-09  1.460887E-08
        43  12 -3.975077E+06 -1.178521E+03 -5.895982E+03  1.768011E+01 -3.291244E-10  6.338905E-09
        43  13 -3.975073E+06 -1.825326E+02 -3.246364E+03 -6.899862E-07  1.303376E-09 -1.437677E-09
        43  14 -3.974697E+06  3.399562E+02 -3.704724E+03 -4.761569E-07  1.437555E-09  3.838074E-09
        43  15 -3.975077E+06 -1.178521E+03 -5.895982E+03  1.293883E-08 -3.096935E-09  2.642358E-09
        43  16 -3.975073E+06 -1.825326E+02 -3.246364E+03  1.304016E+01  9.658611E-10 -9.003350E-09
        43  17 -3.974697E+06  3.399562E+02 -3.704724E+03 -2.320085E+00  1.500129E-09  1.697299E-09
        43  18 -3.975077E+06 -1.178521E+03 -5.895982E+03 -1.768011E+01 -6.505071E-11  9.732974E-09
        43  19 -3.975073E+06 -1.825326E+02 -3.246364E+03 -1.304017E+01 -8.209655E+01  1.750433E-06
        43  20 -3.974697E+06  3.399572E+02 -3.704717E+03  2.320081E+00 -1.951083E+03 -7.307164E-06
        43  21 -3.975077E+06 -1.178517E+03 -5.895954E+03  1.768012E+01 -3.820038E+03 -1.094506E-04
        43  22 -3.975073E+06 -1.825326E+02 -3.246364E+03 -6.899906E-07 -8.209655E+01 -2.060903E-09
        43  23 -3.974697E+06  3.399572E+02 -3.704717E+03 -6.326101E-08 -1.951083E+03 -1.053743E-09
        43  24 -3.975077E+06 -1.178517E+03 -5.895954E+03  2.710005E-07 -3.820038E+03 -2.411361E-09
        43  25 -3.975073E+06 -1.825326E+02 -3.246364E+03  1.304016E+01 -8.209655E+01 -1.754171E-06
        43  26 -3.974697E+06  3.399572E+02 -3.704717E+03 -2.320085E+00 -1.951083E+03  7.322323E-06
        43  27 -3.975077E+06 -1.178517E+03 -5.895954E+03 -1.768012E+01 -3.820038E+03  1.094393E-04
        44   1 -3.975700E+06  1.879533E+02 -7.253284E+03 -6.701647E+01  5.009716E+03 -5.441202E-04
        44   2 -3.973926E+06  1.859005E+03 -1.157177E+04  2.367693E+01  1.094591E+04  4.200214E-04
        44   3 -3.975724E+06 -7.631219E+03 -2.256369E+04  1.143719E+02  1.688217E+04  3.129291E-03
        44   4 -3.975700E+06  1.879533E+02 -7.253284E+03  7.173964E-07  5.009716E+03 -4.840590E-09
        44   5 -3.973926E+06  1.859005E+03 -1.157177E+04  5.843093E-07  1.094591E+04 -1.862946E-09
        44   6 -3.975724E+06 -7.631219E+03 -2.256369E+04  2.791853E-07  1.688217E+04 -3.695322E-09
        44   7 -3.975700E+06  1.879533E+02 -7.253284E+03  6.701647E+01  5.009716E+03  5.441196E-04
        44   8 -3.973926E+06  1.859005E+03 -1.157177E+04 -2.367693E+01  1.094591E+04 -4.200408E-04
        44   9 -3.975724E+06 -7.631219E+03 -2.256369E+04 -1.143719E+02  1.688217E+04 -3.129290E-03
        44  10 -3.975700E+06  1.879465E+02 -7.253332E+03 -6.701647E+01  5.413704E-09 -3.776773E-09
        44  11 -3.973926E+06  1.858972E+03 -1.157199E+04  2.367693E+01 -1.859136E-09 -1.892178E-08
        44  12 -3.975725E+06 -7.631296E+03 -2.256423E+04  1.143719E+02 -7.134084E-10 -7.646228E-10
        44  13 -3.975700E+06  1.879465E+02 -7.253332E+03 -2.460284E-07 -1.436799E-09 -2.642589E-09
        44  14 -3.973926E+06  1.858972E+03 -1.157199E+04  5.843101E-07 -6.456151E-09 -6.384631E-09
        44  15 -3.975725E+06 -7.631296E+03 -2.256423E+04 -3.057452E-07  5.388025E-10  1.534419E-09
        44  16 -3.975700E+06  1.879465E+02 -7.253332E+03  6.701647E+01 -1.718832E-09 -3.665599E-09
        44  17 -3.973926E+06  1.858972E+03 -1.157199E+04 -2.367693E+01  9.408085E-10 -1.700894E-09
        44  18 -3.975725E+06 -7.631296E+03 -2.256423E+04 -1.143718E+02  3.893092E-09  9.032739E-09
        44  19 -3.975700E+06  1.879533E+02 -7.253284E+03 -6.701647E+01 -5.009716E+03  5.441357E-04
        44  20 -3.973926E+06  1.859005E+03 -1.157177E+04  2.367693E+01 -1.094591E+04 -4.200192E-04
        44  21 -3.975724E+06 -7.631219E+03 -2.256369E+04  1.143719E+02 -1.688217E+04 -3.129276E-03
        44  22 -3.975700E+06  1.879533E+02 -7.253284E+03  2.923408E-08 -5.009716E+03  1.693208E-09
        44  23 -3.973926E+06  1.859005E+03 -1.157177E+04  5.843099E-07 -1.094591E+04 -5.351775E-09
        44  24 -3.975724E+06 -7.631219E+03 -2.256369E+04  7.264950E-07 -1.688217E+04  3.064609E-09
        44  25 -3.975700E+06  1.879533E+02 -7.253284E+03  6.701647E+01 -5.009716E+03 -5.441438E-04
        44  26 -3.973926E+06  1.859005E+03 -1.157177E+04 -2.367693E+01 -1.094591E+04  4.199868E-04
        44  27 -3.975724E+06 -7.631219E+03 -2.256369E+04 -1.143719E+02 -1.688217E+04  3.129277E-03
        45   1 -3.979543E+06  1.465090E+03 -2.805288E+04 -4.152945E+02  2.146702E+04 -1.444865E-02
        45   2 -3.969171E+06  1.182863E+04 -4.476301E+04  1.840261E+02  4.500458E+04  1.342237E-02
        45   3 -3.979666E+06 -4.882642E+04 -9.462282E+04  7.833448E+02  6.854192E+04  8.701748E-02
        45   4 -3.979543E+06  1.465090E+03 -2.805288E+04  1.801211E-07  2.146702E+04  2.219870E-09
        45   5 -3.969171E+06  1.182863E+04 -4.476301E+04  8.231295E-08  4.500458E+04  1.671839E-08
        45   6 -3.979666E+06 -4.882642E+04 -9.462282E+04 -8.431980E-08  6.854192E+04 -8.124058E-09
        45   7 -3.979543E+06  1.465090E+03 -2.805288E+04  4.152945E+02  2.146702E+04  1.444867E-02
        45   8 -3.969171E+06  1.182863E+04 -4.476301E+04 -1.840261E+02  4.500458E+04 -1.342238E-02
        45   9 -3.979666E+06 -4.882642E+04 -9.462282E+04 -7.833448E+02  6.854192E+04 -8.701744E-02
        45  10 -3.979544E+06  1.464965E+03 -2.805375E+04 -4.152945E+02 -6.120346E-09  1.294162E-08
        45  11 -3.969173E+06  1.182808E+04 -4.476684E+04  1.840261E+02 -2.956683E-09  1.426567E-08
        45  12 -3.979671E+06 -4.882769E+04 -9.463171E+04  7.833448E+02  3.807876E-10 -7.596151E-11
        45  13 -3.979544E+06  1.464965E+03 -2.805375E+04 -5.080450E-07 -6.451318E-09  5.455592E-09
        45  14 -3.969173E+06  1.182808E+04 -4.476684E+04 -6.058666E-07 -2.867086E-09  5.631565E-09
        45  15 -3.979671E+06 -4.882769E+04 -9.463171E+04 -8.431844E-08 -1.612871E-09  3.358553E-10
        45  16 -3.979544E+06  1.464965E+03 -2.805375E+04  4.152945E+02 -2.789241E-09  1.738590E-08
        45  17 -3.969173E+06  1.182808E+04 -4.476684E+04 -1.840261E+02 -1.848192E-09  1.312272E-09
        45  18 -3.979671E+06 -4.882769E+04 -9.463171E+04 -7.833448E+02 -1.041087E-09 -1.253368E-09
        45  19 -3.979543E+06  1.465090E+03 -2.805288E+04 -4.152945E+02 -2.146702E+04  1.444872E-02
        45  20 -3.969171E+06  1.182863E+04 -4.476301E+04  1.840261E+02 -4.500458E+04 -1.342240E-02
        45  21 -3.979666E+06 -4.882642E+04 -9.462282E+04  7.833448E+02 -6.854192E+04 -8.701746E-02
        45  22 -3.979543E+06  1.465090E+03 -2.805288E+04  7.306514E-07 -2.146702E+04  8.269478E-09
        45  23 -3.969171E+06  1.182863E+04 -4.476301E+04 -4.682306E-07 -4.500458E+04 -8.093690E-09
        45  24 -3.979666E+06 -4.882642E+04 -9.462282E+04 -8.431915E-08 -6.854192E+04  5.789486E-09
        45  25 -3.979543E+06  1.465090E+03 -2.805288E+04  4.152945E+02 -2.146702E+04 -1.444872E-02
        45  26 -3.969171E+06  1.182863E+04 -4.476301E+04 -1.840261E+02 -4.500458E+04  1.342237E-02
        45  27 -3.979666E+06 -4.882642E+04 -9.462282E+04 -7.833448E+02 -6.854192E+04  8.701745E-02
        46   1 -4.002755E+06  9.605105E+03 -1.142024E+05 -2.594839E+03  8.748676E+04 -3.679314E-01
        46   2 -3.940310E+06  7.524105E+04 -1.731586E+05  1.303532E+03  1.822122E+05  3.849205E-01
        46   3 -4.003380E+06 -3.108617E+05 -4.069815E+05  5.201522E+03  2.769391E+05  2.334592E+00
        46   4 -4.002755E+06  9.605092E+03 -1.142024E+05 -5.948954E-07  8.748676E+04 -1.084946E-08
        46   5 -3.940310E+06  7.524104E+04 -1.731586E+05 -1.009518E-06  1.822122E+05  9.234668E-09
        46   6 -4.003380E+06 -3.108618E+05 -4.069816E+05  2.276488E-07  2.769391E+05 -4.586688E-09
        46   7 -4.002755E+06  9.605105E+03 -1.142024E+05  2.594839E+03  8.748676E+04  3.679314E-01
        46   8 -3.940310E+06  7.524105E+04 -1.731586E+05 -1.303532E+03  1.822122E+05 -3.849205E-01
        46   9 -4.003380E+06 -3.108617E+05 -4.069815E+05 -5.201522E+03  2.769391E+05 -2.334592E+00
        46  10 -4.002763E+06  9.603034E+03 -1.142169E+05 -2.594839E+03  3.809437E-09  2.016204E-09
        46  11 -3.940346E+06  7.523206E+04 -1.732214E+05  1.303532E+03  4.092916E-09 -1.323654E-09
        46  12 -4.003463E+06 -3.108825E+05 -4.071266E+05  5.201522E+03  2.517648E-09  5.088663E-09
        46  13 -4.002763E+06  9.603021E+03 -1.142169E+05 -1.283081E-06  2.802623E-09 -7.185301E-10
        46  14 -3.940346E+06  7.523206E+04 -1.732214E+05 -1.009519E-06  2.150158E-09  3.025460E-09
        46  15 -4.003463E+06 -3.108826E+05 -4.071266E+05 -9.421034E-07  1.774850E-09  1.300380E-09
        46  16 -4.002763E+06  9.603034E+03 -1.142169E+05  2.594839E+03 -8.662690E-10  1.941213E-09
        46  17 -3.940346E+06  7.523206E+04 -1.732214E+05 -1.303532E+03  2.345978E-09  3.005597E-09
        46  18 -4.003463E+06 -3.108825E+05 -4.071266E+05 -5.201522E+03  8.926945E-10  5.638304E-09
        46  19 -4.002755E+06  9.605105E+03 -1.142024E+05 -2.594839E+03 -8.748676E+04  3.679314E-01
        46  20 -3.940310E+06  7.524105E+04 -1.731586E+05  1.303532E+03 -1.822122E+05 -3.849206E-01
        46  21 -4.003380E+06 -3.108617E+05 -4.069815E+05  5.201522E+03 -2.769391E+05 -2.334592E+00
        46  22 -4.002755E+06  9.605092E+03 -1.142024E+05 -5.948948E-07 -8.748676E+04  6.148850E-09
        46  23 -3.940310E+06  7.524104E+04 -1.731586E+05 -1.009518E-06 -1.822122E+05 -6.781831E-09
        46  24 -4.003380E+06 -3.108618E+05 -4.069816E+05  2.276468E-07 -2.769391E+05  7.341744E-09
        46  25 -4.002755E+06  9.605105E+03 -1.142024E+05  2.594839E+03 -8.748676E+04 -3.679314E-01
        46  26 -3.940310E+06  7.524105E+04 -1.731586E+05 -1.303532E+03 -1.822122E+05  3.849206E-01
        46  27 -4.003380E+06 -3.108617E+05 -4.069815E+05 -5.201522E+03 -2.769391E+05  2.334592E+00
        47   1  2.072053E+04 -1.528977E+06  2.691641E+04  7.512166E+04  7.071529E+02  2.210944E+04
        47   2  3.192576E+04 -1.376723E+06  4.775817E+04  2.499161E+04  4.623759E+03  1.591674E+04
        47   3  7.271461E+04 -1.216190E+06  8.004100E+04  8.637924E+04  1.086472E+04  9.724402E+03
        47   4  2.439842E+04 -1.514492E+06  3.078574E+04  8.308696E+04  7.072322E+02  2.065603E+04
        47   5 -3.317496E+03 -1.518739E+06  1.378650E+04  2.732839E+04  4.623853E+03  1.323735E+04
        47   6 -1.233092E+03 -1.514520E+06  9.081255E+03  8.308760E+04  1.086511E+04  5.820537E+03
        47   7  2.807652E+04 -1.500006E+06  3.465510E+04  9.105243E+04  7.072741E+02  1.920259E+04
        47   8 -3.856219E+04 -1.660737E+06 -2.018657E+04  2.966462E+04  4.623927E+03  1.055857E+04
        47   9 -7.518717E+04 -1.812768E+06 -6.188466E+04  7.979754E+04  1.086554E+04  1.918540E+03
        47  10  2.072040E+04 -1.528977E+06  2.691549E+04  7.512165E+04 -8.755467E-10  1.458608E-10
        47  11  3.192567E+04 -1.376723E+06  4.775765E+04  2.499155E+04  2.831819E-09 -5.095398E-10
        47  12  7.271446E+04 -1.216190E+06  8.004060E+04  8.637916E+04  3.487218E-10 -2.172901E-10
        47  13  2.439830E+04 -1.514492E+06  3.078494E+04  8.308694E+04 -4.038624E-09 -3.579596E-11
        47  14 -3.317566E+03 -1.518739E+06  1.378612E+04  2.732834E+04 -8.458732E-09  1.862966E-11
        47  15 -1.233228E+03 -1.514520E+06  9.080970E+03  8.308755E+04 -2.768486E-09 -5.242569E-11
        47  16  2.807642E+04 -1.500007E+06  3.465440E+04  9.105242E+04  3.405028E-09 -2.285787E-10
        47  17 -3.856224E+04 -1.660737E+06 -2.018682E+04  2.966459E+04  6.256897E-09  4.888462E-10
        47  18 -7.518730E+04 -1.812768E+06 -6.188489E+04  7.979753E+04  3.137031E-09  1.263055E-10
        47  19  2.072053E+04 -1.528977E+06  2.691641E+04  7.512166E+04 -7.071529E+02 -2.210944E+04
        47  20  3.192576E+04 -1.376723E+06  4.775817E+04  2.499161E+04 -4.623759E+03 -1.591674E+04
        47  21  7.271461E+04 -1.216190E+06  8.004100E+04  8.637924E+04 -1.086472E+04 -9.724402E+03
        47  22  2.439842E+04 -1.514492E+06  3.078574E+04  8.308696E+04 -7.072322E+02 -2.065603E+04
        47  23 -3.317496E+03 -1.518739E+06  1.378650E+04  2.732839E+04 -4.623853E+03 -1.323735E+04
        47  24 -1.233092E+03 -1.514520E+06  9.081255E+03  8.308760E+04 -1.086511E+04 -5.820537E+03
        47  25  2.807652E+04 -1.500006E+06  3.465510E+04  9.105243E+04 -7.072741E+02 -1.920259E+04
        47  26 -3.856219E+04 -1.660737E+06 -2.018657E+04  2.966462E+04 -4.623927E+03 -1.055857E+04
        47  27 -7.518717E+04 -1.812768E+06 -6.188466E+04  7.979754E+04 -1.086554E+04 -1.918540E+03
        48   1  1.259523E+05 -1.018168E+06  1.271510E+05  8.177108E+04  1.528900E+04  8.164654E+03
        48   2  1.610501E+05 -8.652389E+05  1.608267E+05  2.739148E+04  2.145853E+04  4.518765E+03
        48   3  2.006873E+05 -7.100571E+05  1.981384E+05  8.282362E+04  2.562166E+04  8.781803E+02
        48   4  2.376177E+03 -1.515986E+06  7.780195E+03  8.271061E+04  1.529043E+04  4.379235E+03
        48   5 -6.339087E+02 -1.517031E+06  5.045236E+03  2.780116E+04  2.146161E+04  1.793356E+03
        48   6  7.151784E+02 -1.516028E+06  5.212065E+03  8.271048E+04  2.562538E+04 -7.863252E+02
        48   7 -1.212180E+05 -2.013576E+06 -1.116082E+05  8.364939E+04  1.529184E+04  5.968419E+02
        48   8 -1.623487E+05 -2.168432E+06 -1.507662E+05  2.821044E+04  2.146468E+04 -9.292003E+02
        48   9 -1.993042E+05 -2.321402E+06 -1.877602E+05  8.259758E+04  2.562911E+04 -2.448676E+03
        48  10  1.259521E+05 -1.018168E+06  1.271505E+05  8.177098E+04 -3.442653E-09  4.275377E-09
        48  11  1.610496E+05 -8.652391E+05  1.608258E+05  2.739141E+04  1.063818E-09  8.860425E-09
        48  12  2.006866E+05 -7.100573E+05  1.981371E+05  8.282360E+04  3.884953E-09  8.513979E-09
        48  13  2.375921E+03 -1.515986E+06  7.779720E+03  8.271056E+04 -1.301845E-09 -8.382510E-11
        48  14 -6.344038E+02 -1.517031E+06  5.044365E+03  2.780113E+04  3.223459E-09 -2.857315E-10
        48  15  7.144736E+02 -1.516028E+06  5.210831E+03  8.271049E+04  3.118001E-09 -4.206146E-10
        48  16 -1.212183E+05 -2.013576E+06 -1.116086E+05  8.364938E+04  2.995507E-09 -4.494115E-09
        48  17 -1.623492E+05 -2.168432E+06 -1.507671E+05  2.821046E+04  1.032237E-08 -8.961267E-09
        48  18 -1.993049E+05 -2.321403E+06 -1.877614E+05  8.259763E+04  3.753049E-09 -8.248651E-09
        48  19  1.259523E+05 -1.018168E+06  1.271510E+05  8.177108E+04 -1.528900E+04 -8.164654E+03
        48  20  1.610501E+05 -8.652389E+05  1.608267E+05  2.739148E+04 -2.145853E+04 -4.518765E+03
        48  21  2.006873E+05 -7.100571E+05  1.981384E+05  8.282362E+04 -2.562166E+04 -8.781803E+02
        48  22  2.376177E+03 -1.515986E+06  7.780195E+03  8.271061E+04 -1.529043E+04 -4.379235E+03
        48  23 -6.339087E+02 -1.517031E+06  5.045236E+03  2.780116E+04 -2.146161E+04 -1.793356E+03
        48  24  7.151784E+02 -1.516028E+06  5.212065E+03  8.271048E+04 -2.562538E+04  7.863252E+02
        48  25 -1.212180E+05 -2.013576E+06 -1.116082E+05  8.364939E+04 -1.529184E+04 -5.968419E+02
        48  26 -1.623487E+05 -2.168432E+06 -1.507662E+05  2.821044E+04 -2.146468E+04  9.292003E+02
        48  27 -1.993042E+05 -2.321402E+06 -1.877602E+05  8.259758E+04 -2.562911E+04  2.448676E+03
        49   1  2.474868E+05 -5.145567E+05  2.444585E+05  7.913572E+04  3.349854E+04  8.761946E+03
        49   2  2.826919E+05 -3.699737E+05  2.811200E+05  2.852294E+04  3.833623E+04 -1.084739E+04
        49   3  3.351270E+05 -2.166305E+05  3.352505E+05  8.309138E+04  1.309396E+04 -3.053040E+04
        49   4 -6.600693E+02 -1.515250E+06  5.532257E+03  8.167438E+04  3.351487E+04 -1.712986E+03
        49   5 -2.034136E+03 -1.518275E+06  6.930666E+03  2.909205E+04  3.833061E+04 -5.436712E+03
        49   6  1.107903E+04 -1.515310E+06  1.476794E+04  8.170227E+04  1.304189E+04 -9.229529E+03
        49   7 -2.488794E+05 -2.515023E+06 -2.334641E+05  8.420915E+04  3.353113E+04 -1.217109E+04
        49   8 -2.868557E+05 -2.665365E+06 -2.673515E+05  2.966066E+04  3.832500E+04 -3.600077E+01
        49   9 -3.130947E+05 -2.812452E+06 -3.058380E+05  8.031695E+04  1.298968E+04  1.202683E+04
        49  10  2.474855E+05 -5.145571E+05  2.444562E+05  7.913548E+04  6.584598E-09 -7.771369E-09
        49  11  2.826903E+05 -3.699742E+05  2.811170E+05  2.852327E+04 -3.457541E-09 -7.290869E-09
        49  12  3.351266E+05 -2.166315E+05  3.352484E+05  8.309170E+04 -1.121846E-09 -5.295849E-10
        49  13 -6.612754E+02 -1.515250E+06  5.530142E+03  8.167443E+04 -9.678032E-10 -1.970729E-13
        49  14 -2.035721E+03 -1.518275E+06  6.927852E+03  2.909222E+04 -6.276240E-09 -9.360976E-10
        49  15  1.107882E+04 -1.515310E+06  1.476746E+04  8.170237E+04  3.877640E-09 -1.027073E-09
        49  16 -2.488806E+05 -2.515023E+06 -2.334665E+05  8.420948E+04 -4.365515E-09  7.451615E-09
        49  17 -2.868573E+05 -2.665365E+06 -2.673542E+05  2.966066E+04  3.420317E-09  6.639959E-09
        49  18 -3.130949E+05 -2.812452E+06 -3.058386E+05  8.031683E+04 -1.952989E-09  1.344484E-09
        49  19  2.474868E+05 -5.145567E+05  2.444585E+05  7.913572E+04 -3.349854E+04 -8.761946E+03
        49  20  2.826919E+05 -3.699737E+05  2.811200E+05  2.852294E+04 -3.833623E+04  1.084739E+04
        49  21  3.351270E+05 -2.166305E+05  3.352505E+05  8.309138E+04 -1.309396E+04  3.053040E+04
        49  22 -6.600693E+02 -1.515250E+06  5.532257E+03  8.167438E+04 -3.351487E+04  1.712986E+03
        49  23 -2.034136E+03 -1.518275E+06  6.930666E+03  2.909205E+04 -3.833061E+04  5.436712E+03
        49  24  1.107903E+04 -1.515310E+06  1.476794E+04  8.170227E+04 -1.304189E+04  9.229529E+03
        49  25 -2.488794E+05 -2.515023E+06 -2.334641E+05  8.420915E+04 -3.353113E+04  1.217109E+04
        49  26 -2.868557E+05 -2.665365E+06 -2.673515E+05  2.966066E+04 -3.832500E+04  3.600077E+01
        49  27 -3.130947E+05 -2.812452E+06 -3.058380E+05  8.031695E+04 -1.298968E+04 -1.202683E+04
        50   1 -2.075549E+06 -8.655843E+03 -1.133976E+04 -1.451854E+02 -7.712301E+03  1.809370E-03
        50   2 -2.073797E+06  2.095100E+03 -4.837497E+03 -3.639158E+01 -5.066310E+03  2.979310E-04
        50   3 -2.075539E+06  2.668100E+02 -3.207029E+03  7.240408E+01 -2.420282E+03 -2.831561E-04
        50   4 -2.075549E+06 -8.655843E+03 -1.133976E+04 -2.289125E-07 -7.712301E+03  5.725614E-10
        50   5 -2.073797E+06  2.095100E+03 -4.837497E+03  3.466987E-08 -5.066310E+03  3.775213E-09
        50   6 -2.075539E+06  2.668100E+02 -3.207029E+03  6.770326E-07 -2.420282E+03  4.579199E-10
        50   7 -2.075549E+06 -8.655843E+03 -1.133976E+04  1.451854E+02 -7.712301E+03 -1.809365E-03
        50   8 -2.073797E+06  2.095100E+03 -4.837497E+03  3.639158E+01 -5.066310E+03 -2.979415E-04
        50   9 -2.075539E+06  2.668100E+02 -3.207029E+03 -7.240408E+01 -2.420282E+03  2.831640E-04
        50  10 -2.075549E+06 -8.655859E+03 -1.133988E+04 -1.451854E+02 -1.642923E-09 -1.797277E-11
        50  11 -2.073797E+06  2.095094E+03 -4.837546E+03 -3.639158E+01 -4.838408E-11 -2.164611E-09
        50  12 -2.075539E+06  2.668085E+02 -3.207040E+03  7.240408E+01 -2.423509E-09 -2.314373E-09
        50  13 -2.075549E+06 -8.655859E+03 -1.133988E+04 -2.289115E-07 -6.152320E-10  9.868125E-14
        50  14 -2.073797E+06  2.095094E+03 -4.837546E+03 -3.419870E-08 -1.825704E-09  1.078171E-09
        50  15 -2.075539E+06  2.668085E+02 -3.207040E+03 -3.904355E-07  6.079286E-10 -1.136462E-10
        50  16 -2.075549E+06 -8.655859E+03 -1.133988E+04  1.451854E+02 -7.412287E-10  1.842208E-11
        50  17 -2.073797E+06  2.095094E+03 -4.837546E+03  3.639158E+01  1.940536E-09 -2.146376E-09
        50  18 -2.075539E+06  2.668085E+02 -3.207040E+03 -7.240408E+01 -2.810468E-09  6.356596E-09
        50  19 -2.075549E+06 -8.655843E+03 -1.133976E+04 -1.451854E+02  7.712301E+03 -1.809356E-03
        50  20 -2.073797E+06  2.095100E+03 -4.837497E+03 -3.639158E+01  5.066310E+03 -2.979229E-04
        50  21 -2.075539E+06  2.668100E+02 -3.207029E+03  7.240408E+01  2.420282E+03  2.831811E-04
        50  22 -2.075549E+06 -8.655843E+03 -1.133976E+04  1.843009E-07  7.712301E+03 -1.410981E-09
        50  23 -2.073797E+06  2.095100E+03 -4.837497E+03 -1.030678E-07  5.066310E+03 -6.469740E-09
        50  24 -2.075539E+06  2.668100E+02 -3.207029E+03  5.565089E-07  2.420282E+03  3.598047E-10
        50  25 -2.075549E+06 -8.655843E+03 -1.133976E+04  1.451854E+02  7.712301E+03  1.809356E-03
        50  26 -2.073797E+06  2.095100E+03 -4.837497E+03  3.639158E+01  5.066310E+03  2.979143E-04
        50  27 -2.075539E+06  2.668100E+02 -3.207029E+03 -7.240408E+01  2.420282E+03 -2.831731E-04
        51   1 -2.074896E+06 -1.359632E+03 -2.669937E+03 -2.193173E+01 -1.886187E+03  6.685144E-05
        51   2 -2.074602E+06  3.306527E+02 -1.306264E+03 -5.180322E+00 -1.200719E+03  1.006216E-05
        51   3 -2.074894E+06  3.568049E+01 -8.862946E+02  1.157109E+01 -5.152504E+02 -9.637825E-06
        51   4 -2.074896E+06 -1.359632E+03 -2.669937E+03  9.333246E-07 -1.886187E+03  1.224934E-10
        51   5 -2.074602E+06  3.306527E+02 -1.306264E+03 -9.938233E-07 -1.200719E+03  3.785318E-09
        51   6 -2.074894E+06  3.568049E+01 -8.862946E+02  2.814265E-07 -5.152504E+02 -4.695298E-09
        51   7 -2.074896E+06 -1.359632E+03 -2.669937E+03  2.193173E+01 -1.886187E+03 -6.683928E-05
        51   8 -2.074602E+06  3.306527E+02 -1.306264E+03  5.180318E+00 -1.200719E+03 -1.005944E-05
        51   9 -2.074894E+06  3.568049E+01 -8.862946E+02 -1.157110E+01 -5.152504E+02  9.635620E-06
        51  10 -2.074896E+06 -1.359633E+03 -2.669944E+03 -2.193173E+01 -7.942414E-10  6.252894E-09
        51  11 -2.074602E+06  3.306523E+02 -1.306267E+03 -5.180325E+00 -3.953874E-09  7.824444E-10
        51  12 -2.074894E+06  3.568042E+01 -8.862951E+02  1.157109E+01 -5.664820E-09 -3.647418E-09
        51  13 -2.074896E+06 -1.359633E+03 -2.669944E+03  6.578486E-07  1.469285E-09  1.320238E-09
        51  14 -2.074602E+06  3.306523E+02 -1.306267E+03  3.920750E-08  1.027059E-09  1.917670E-09
        51  15 -2.074894E+06  3.568042E+01 -8.862951E+02  5.913349E-07 -6.622318E-10 -1.257332E-09
        51  16 -2.074896E+06 -1.359633E+03 -2.669944E+03  2.193174E+01 -1.966548E-09 -3.787872E-10
        51  17 -2.074602E+06  3.306523E+02 -1.306267E+03  5.180324E+00  1.386086E-10  3.053148E-09
        51  18 -2.074894E+06  3.568042E+01 -8.862951E+02 -1.157109E+01  2.321499E-09 -1.207094E-08
        51  19 -2.074896E+06 -1.359632E+03 -2.669937E+03 -2.193173E+01  1.886187E+03 -6.683319E-05
        51  20 -2.074602E+06  3.306527E+02 -1.306264E+03 -5.180321E+00  1.200719E+03 -1.003665E-05
        51  21 -2.074894E+06  3.568049E+01 -8.862946E+02  1.157109E+01  5.152504E+02  9.641281E-06
        51  22 -2.074896E+06 -1.359632E+03 -2.669937E+03  1.071059E-06  1.886187E+03  1.428092E-09
        51  23 -2.074602E+06  3.306527E+02 -1.306264E+03  1.080759E-07  1.200719E+03  1.630324E-09
        51  24 -2.074894E+06  3.568049E+01 -8.862946E+02  1.676017E-06  5.152504E+02  3.887479E-09
        51  25 -2.074896E+06 -1.359632E+03 -2.669937E+03  2.193173E+01  1.886187E+03  6.684157E-05
        51  26 -2.074602E+06  3.306527E+02 -1.306264E+03  5.180321E+00  1.200719E+03  1.003560E-05
        51  27 -2.074894E+06  3.568049E+01 -8.862946E+02 -1.157109E+01  5.152504E+02 -9.640454E-06
        52   1 -2.074792E+06 -2.118973E+02 -7.655408E+02 -3.585270E+00 -3.654459E+02  2.118479E-06
        52   2 -2.074728E+06  6.050501E+01 -5.579131E+02 -7.659937E-01 -8.264428E+01  1.071055E-07
        52   3 -2.074792E+06 -3.034977E+01 -6.256756E+02  2.053244E+00  2.001531E+02  6.640034E-07
        52   4 -2.074792E+06 -2.118973E+02 -7.655408E+02 -3.764288E-07 -3.654459E+02 -4.742413E-09
        52   5 -2.074728E+06  6.050501E+01 -5.579131E+02 -3.761393E-07 -8.264428E+01  1.409760E-09
        52   6 -2.074792E+06 -3.034977E+01 -6.256756E+02  2.015306E-08  2.001531E+02 -1.803249E-09
        52   7 -2.074792E+06 -2.118973E+02 -7.655408E+02  3.585268E+00 -3.654459E+02 -2.125736E-06
        52   8 -2.074728E+06  6.050501E+01 -5.579131E+02  7.659924E-01 -8.264428E+01 -1.081594E-07
        52   9 -2.074792E+06 -3.034977E+01 -6.256756E+02 -2.053247E+00  2.001531E+02 -6.597951E-07
        52  10 -2.074792E+06 -2.118974E+02 -7.655410E+02 -3.585270E+00 -2.961544E-09 -4.439656E-09
        52  11 -2.074728E+06  6.050501E+01 -5.579132E+02 -7.659943E-01  1.288342E-09 -3.523521E-09
        52  12 -2.074792E+06 -3.034978E+01 -6.256757E+02  2.053240E+00 -4.254349E-09 -3.286673E-09
        52  13 -2.074792E+06 -2.118974E+02 -7.655410E+02 -3.764277E-07 -1.402002E-09 -1.257177E-09
        52  14 -2.074728E+06  6.050501E+01 -5.579132E+02 -3.072704E-07  3.228219E-09  3.732528E-09
        52  15 -2.074792E+06 -3.034978E+01 -6.256757E+02 -3.149992E-08 -3.828629E-10  1.149593E-09
        52  16 -2.074792E+06 -2.118974E+02 -7.655410E+02  3.585270E+00  4.254755E-09 -2.385870E-09
        52  17 -2.074728E+06  6.050501E+01 -5.579132E+02  7.659929E-01 -4.768795E-09  3.048166E-09
        52  18 -2.074792E+06 -3.034978E+01 -6.256757E+02 -2.053242E+00  1.953520E-09  3.232499E-09
        52  19 -2.074792E+06 -2.118973E+02 -7.655408E+02 -3.585272E+00  3.654459E+02 -2.109466E-06
        52  20 -2.074728E+06  6.050501E+01 -5.579131E+02 -7.659977E-01  8.264428E+01 -8.778365E-08
        52  21 -2.074792E+06 -3.034977E+01 -6.256756E+02  2.053242E+00 -2.001531E+02 -6.669206E-07
        52  22 -2.074792E+06 -2.118973E+02 -7.655408E+02 -1.009506E-07  3.654459E+02  1.922751E-09
        52  23 -2.074728E+06  6.050501E+01 -5.579131E+02 -1.340301E-06  8.264428E+01  4.346321E-09
        52  24 -2.074792E+06 -3.034977E+01 -6.256756E+02  2.095395E-07 -2.001531E+02  3.353400E-09
        52  25 -2.074792E+06 -2.118973E+02 -7.655408E+02  3.585268E+00  3.654459E+02  2.111909E-06
        52  26 -2.074728E+06  6.050501E+01 -5.579131E+02  7.659912E-01  8.264428E+01  8.673127E-08
        52  27 -2.074792E+06 -3.034977E+01 -6.256756E+02 -2.053242E+00 -2.001531E+02  6.607537E-07
        53   1 -2.074801E+06 -2.726895E+01 -7.156451E+02 -2.840163E+00  3.215994E+02 -1.471656E-06
        53   2 -2.074717E+06  6.741470E+01 -1.045476E+03 -2.602416E-02  8.458594E+02 -3.719325E-08
        53   3 -2.074802E+06 -2.426162E+02 -1.818654E+03  2.788154E+00  1.370127E+03  6.179680E-06
        53   4 -2.074801E+06 -2.726895E+01 -7.156451E+02 -3.896114E-07  3.215994E+02 -2.999526E-09
        53   5 -2.074717E+06  6.741470E+01 -1.045476E+03 -4.653359E-07  8.458594E+02  3.772295E-09
        53   6 -2.074802E+06 -2.426162E+02 -1.818654E+03  2.165142E-07  1.370127E+03 -6.480259E-10
        53   7 -2.074801E+06 -2.726895E+01 -7.156451E+02  2.840160E+00  3.215994E+02  1.476504E-06
        53   8 -2.074717E+06  6.741470E+01 -1.045476E+03  2.602516E-02  8.458594E+02  3.261294E-08
        53   9 -2.074802E+06 -2.426162E+02 -1.818654E+03 -2.788157E+00  1.370127E+03 -6.169843E-06
        53  10 -2.074801E+06 -2.726898E+01 -7.156453E+02 -2.840163E+00 -4.279092E-09 -2.155848E-09
        53  11 -2.074717E+06  6.741450E+01 -1.045477E+03 -2.602788E-02 -8.046006E-09 -3.800271E-12
        53  12 -2.074802E+06 -2.426167E+02 -1.818657E+03  2.788152E+00 -1.092276E-09  3.521398E-09
        53  13 -2.074801E+06 -2.726898E+01 -7.156453E+02 -3.896108E-07 -2.118546E-09 -6.308335E-14
        53  14 -2.074717E+06  6.741450E+01 -1.045477E+03 -7.408108E-07 -1.777096E-09  3.375416E-10
        53  15 -2.074802E+06 -2.426167E+02 -1.818657E+03  2.853827E-07 -6.325024E-09  1.645354E-11
        53  16 -2.074801E+06 -2.726898E+01 -7.156453E+02  2.840163E+00  2.853172E-09  2.155756E-09
        53  17 -2.074717E+06  6.741450E+01 -1.045477E+03  2.602888E-02  3.953778E-09 -2.151667E-09
        53  18 -2.074802E+06 -2.426167E+02 -1.818657E+03 -2.788155E+00  3.092100E-09 -6.215732E-09
        53  19 -2.074801E+06 -2.726895E+01 -7.156451E+02 -2.840164E+00 -3.215994E+02  1.480278E-06
        53  20 -2.074717E+06  6.741470E+01 -1.045476E+03 -2.602726E-02 -8.458594E+02  3.772608E-08
        53  21 -2.074802E+06 -2.426162E+02 -1.818654E+03  2.788153E+00 -1.370127E+03 -6.171356E-06
        53  22 -2.074801E+06 -2.726895E+01 -7.156451E+02  8.500259E-07 -3.215994E+02  7.068954E-10
        53  23 -2.074717E+06  6.741470E+01 -1.045476E+03  8.561452E-08 -8.458594E+02 -6.467491E-09
        53  24 -2.074802E+06 -2.426162E+02 -1.818654E+03  6.469451E-07 -1.370127E+03  5.960903E-10
        53  25 -2.074801E+06 -2.726895E+01 -7.156451E+02  2.840162E+00 -3.215994E+02 -1.484589E-06
        53  26 -2.074717E+06  6.741470E+01 -1.045476E+03  2.602654E-02 -8.458594E+02 -4.634837E-08
        53  27 -2.074802E+06 -2.426162E+02 -1.818654E+03 -2.788152E+00 -1.370127E+03  6.167040E-06
        54   1 -2.074951E+06  3.754796E+01 -2.322227E+03 -1.467681E+01  1.745093E+03 -4.138419E-05
        54   2 -2.074533E+06  3.878379E+02 -3.875931E+03  3.163043E+00  3.705771E+03  1.894255E-05
        54   3 -2.074954E+06 -1.590318E+03 -7.291419E+03  2.100292E+01  5.666445E+03  1.923200E-04
        54   4 -2.074951E+06  3.754796E+01 -2.322227E+03 -7.613352E-09  1.745093E+03  1.202864E-10
        54   5 -2.074533E+06  3.878379E+02 -3.875931E+03  1.675934E-08  3.705771E+03  6.683537E-09
        54   6 -2.074954E+06 -1.590318E+03 -7.291419E+03  4.715615E-07  5.666445E+03 -2.710376E-09
        54   7 -2.074951E+06  3.754796E+01 -2.322227E+03  1.467681E+01  1.745093E+03  4.138311E-05
        54   8 -2.074533E+06  3.878379E+02 -3.875931E+03 -3.163044E+00  3.705771E+03 -1.894093E-05
        54   9 -2.074954E+06 -1.590318E+03 -7.291419E+03 -2.100292E+01  5.666445E+03 -1.923232E-04
        54  10 -2.074951E+06  3.754714E+01 -2.322233E+03 -1.467681E+01 -3.588035E-09  2.169469E-09
        54  11 -2.074533E+06  3.878342E+02 -3.875957E+03  3.163041E+00 -2.877637E-09  4.301804E-09
        54  12 -2.074954E+06 -1.590327E+03 -7.291480E+03  2.100292E+01 -5.185567E-09  1.511789E-11
        54  13 -2.074951E+06  3.754714E+01 -2.322233E+03 -7.612368E-09 -5.770385E-09  1.078002E-09
        54  14 -2.074533E+06  3.878342E+02 -3.875957E+03  5.677104E-07 -9.032186E-09  3.936162E-09
        54  15 -2.074954E+06 -1.590327E+03 -7.291480E+03 -2.773833E-08 -5.964147E-09  1.629137E-09
        54  16 -2.074951E+06  3.754714E+01 -2.322233E+03  1.467681E+01  1.849554E-11  2.142445E-09
        54  17 -2.074533E+06  3.878342E+02 -3.875957E+03 -3.163039E+00 -1.263532E-09  2.165985E-09
        54  18 -2.074954E+06 -1.590327E+03 -7.291480E+03 -2.100292E+01  1.392062E-09 -7.829503E-09
        54  19 -2.074951E+06  3.754796E+01 -2.322227E+03 -1.467681E+01 -1.745093E+03  4.140038E-05
        54  20 -2.074533E+06  3.878379E+02 -3.875931E+03  3.163042E+00 -3.705771E+03 -1.892370E-05
        54  21 -2.074954E+06 -1.590318E+03 -7.291419E+03  2.100292E+01 -5.666445E+03 -1.923129E-04
        54  22 -2.074951E+06  3.754796E+01 -2.322227E+03  5.433376E-07 -1.745093E+03  2.688431E-09
        54  23 -2.074533E+06  3.878379E+02 -3.875931E+03  1.675932E-08 -3.705771E+03 -5.915292E-10
        54  24 -2.074954E+06 -1.590318E+03 -7.291419E+03  1.573461E-06 -5.666445E+03  3.582661E-09
        54  25 -2.074951E+06  3.754796E+01 -2.322227E+03  1.467681E+01 -1.745093E+03 -4.139608E-05
        54  26 -2.074533E+06  3.878379E+02 -3.875931E+03 -3.163041E+00 -3.705771E+03  1.892801E-05
        54  27 -2.074954E+06 -1.590318E+03 -7.291419E+03 -2.100292E+01 -5.666445E+03  1.923091E-04
        55   1 -2.075824E+06  2.950104E+02 -9.272126E+03 -9.006470E+01  7.167430E+03 -1.043124E-03
        55   2 -2.073451E+06  2.487637E+03 -1.531116E+04  3.173040E+01  1.503097E+04  7.706966E-04
        55   3 -2.075841E+06 -1.025508E+04 -3.021607E+04  1.535240E+02  2.289433E+04  5.679646E-03
        55   4 -2.075824E+06  2.950104E+02 -9.272126E+03  4.598761E-07  7.167430E+03 -1.978425E-09
        55   5 -2.073451E+06  2.487637E+03 -1.531116E+04 -3.782671E-07  1.503097E+04  5.463730E-09
        55   6 -2.075841E+06 -1.025508E+04 -3.021607E+04  3.159086E-07  2.289433E+04 -4.074204E-09
        55   7 -2.075824E+06  2.950104E+02 -9.272126E+03  9.006470E+01  7.167430E+03  1.043113E-03
        55   8 -2.073451E+06  2.487637E+03 -1.531116E+04 -3.173039E+01  1.503097E+04 -7.706971E-04
        55   9 -2.075841E+06 -1.025508E+04 -3.021607E+04 -1.535240E+02  2.289433E+04 -5.679653E-03
        55  10 -2.075824E+06  2.949966E+02 -9.272223E+03 -9.006470E+01 -5.759851E-10  2.317043E-11
        55  11 -2.073451E+06  2.487576E+03 -1.531159E+04  3.173039E+01 -2.801871E-10 -2.164424E-09
        55  12 -2.075842E+06 -1.025523E+04 -3.021706E+04  1.535240E+02 -2.223012E-09  7.618326E-10
        55  13 -2.075824E+06  2.949966E+02 -9.272223E+03  1.844004E-07 -6.719802E-11  1.078019E-09
        55  14 -2.073451E+06  2.487576E+03 -1.531159E+04 -3.392061E-08 -1.403346E-09  2.691962E-09
        55  15 -2.075842E+06 -1.025523E+04 -3.021706E+04  1.609526E-07  3.743807E-10  1.342906E-09
        55  16 -2.075824E+06  2.949966E+02 -9.272223E+03  9.006470E+01  1.816447E-09  2.132684E-09
        55  17 -2.073451E+06  2.487576E+03 -1.531159E+04 -3.173039E+01 -2.315763E-09  4.320561E-09
        55  18 -2.075842E+06 -1.025523E+04 -3.021706E+04 -1.535240E+02  6.717835E-10 -2.108846E-09
        55  19 -2.075824E+06  2.950104E+02 -9.272126E+03 -9.006470E+01 -7.167430E+03  1.043135E-03
        55  20 -2.073451E+06  2.487637E+03 -1.531116E+04  3.173039E+01 -1.503097E+04 -7.706721E-04
        55  21 -2.075841E+06 -1.025508E+04 -3.021607E+04  1.535240E+02 -2.289433E+04 -5.679629E-03
        55  22 -2.075824E+06  2.950104E+02 -9.272126E+03  1.286305E-06 -7.167430E+03  4.663199E-09
        55  23 -2.073451E+06  2.487637E+03 -1.531116E+04 -6.537442E-07 -1.503097E+04 -1.414871E-09
        55  24 -2.075841E+06 -1.025508E+04 -3.021607E+04  2.126039E-07 -2.289433E+04  6.297591E-09
        55  25 -2.075824E+06  2.950104E+02 -9.272126E+03  9.006471E+01 -7.167430E+03 -1.043135E-03
        55  26 -2.073451E+06  2.487637E+03 -1.531116E+04 -3.173040E+01 -1.503097E+04  7.706613E-04
        55  27 -2.075841E+06 -1.025508E+04 -3.021607E+04 -1.535240E+02 -2.289433E+04  5.679653E-03
        56   1 -2.080990E+06  1.975536E+03 -3.764205E+04 -5.593902E+02  2.905095E+04 -2.626013E-02
        56   2 -2.067028E+06  1.589206E+04 -6.017371E+04  2.477271E+02  6.071327E+04  2.430353E-02
        56   3 -2.081074E+06 -6.560674E+04 -1.272190E+05  1.054853E+03  9.237566E+04  1.574586E-01
        56   4 -2.080990E+06  1.975536E+03 -3.764205E+04 -3.541757E-07  2.905095E+04 -1.516305E-09
        56   5 -2.067028E+06  1.589206E+04 -6.017371E+04  3.415911E-07  6.071327E+04  1.079259E-08
        56   6 -2.081074E+06 -6.560674E+04 -1.272190E+05  7.309226E-08  9.237566E+04 -1.476393E-08
        56   7 -2.080990E+06  1.975536E+03 -3.764205E+04  5.593902E+02  2.905095E+04  2.626013E-02
        56   8 -2.067028E+06  1.589206E+04 -6.017371E+04 -2.477271E+02  6.071327E+04 -2.430353E-02
        56   9 -2.081074E+06 -6.560674E+04 -1.272190E+05 -1.054853E+03  9.237566E+04 -1.574586E-01
        56  10 -2.080991E+06  1.975309E+03 -3.764364E+04 -5.593902E+02 -1.405311E-09 -4.058904E-09
        56  11 -2.067032E+06  1.589107E+04 -6.018066E+04  2.477271E+02 -3.810557E-09 -5.164070E-09
        56  12 -2.081083E+06 -6.560904E+04 -1.272351E+05  1.054853E+03  1.348132E-09  1.243346E-09
        56  13 -2.080991E+06  1.975308E+03 -3.764364E+04 -7.673959E-07  4.304149E-09 -2.389410E-09
        56  14 -2.067032E+06  1.589107E+04 -6.018066E+04  4.793335E-07 -2.152035E-09 -4.073705E-09
        56  15 -2.081083E+06 -6.560904E+04 -1.272351E+05 -7.533271E-07  9.873563E-11 -3.513488E-10
        56  16 -2.080991E+06  1.975309E+03 -3.764364E+04  5.593902E+02 -3.354909E-09 -6.126853E-09
        56  17 -2.067032E+06  1.589107E+04 -6.018066E+04 -2.477271E+02 -5.043906E-09 -5.139337E-09
        56  18 -2.081083E+06 -6.560904E+04 -1.272351E+05 -1.054853E+03  2.008639E-10 -3.465178E-10
        56  19 -2.080990E+06  1.975536E+03 -3.764205E+04 -5.593902E+02 -2.905095E+04  2.626010E-02
        56  20 -2.067028E+06  1.589206E+04 -6.017371E+04  2.477271E+02 -6.071327E+04 -2.430347E-02
        56  21 -2.081074E+06 -6.560674E+04 -1.272190E+05  1.054853E+03 -9.237566E+04 -1.574585E-01
        56  22 -2.080990E+06  1.975536E+03 -3.764205E+04  3.345185E-07 -2.905095E+04 -3.997381E-09
        56  23 -2.067028E+06  1.589206E+04 -6.017371E+04 -3.471230E-07 -6.071327E+04 -1.886831E-08
        56  24 -2.081074E+06 -6.560674E+04 -1.272190E+05  2.280493E-07 -9.237566E+04  1.469095E-08
        56  25 -2.080990E+06  1.975536E+03 -3.764205E+04  5.593902E+02 -2.905095E+04 -2.626012E-02
        56  26 -2.067028E+06  1.589206E+04 -6.017371E+04 -2.477271E+02 -6.071327E+04  2.430349E-02
        56  27 -2.081074E+06 -6.560674E+04 -1.272190E+05 -1.054853E+03 -9.237566E+04  1.574586E-01
        57   1 -2.112174E+06  1.291104E+04 -1.535421E+05 -3.494562E+03  1.178839E+05 -6.657122E-01
        57   2 -2.028134E+06  1.010923E+05 -2.327416E+05  1.755548E+03  2.453074E+05  6.958349E-01
        57   3 -2.112581E+06 -4.176691E+05 -5.467778E+05  7.005076E+03  3.727363E+05  4.219197E+00
        57   4 -2.112174E+06  1.291102E+04 -1.535421E+05  1.922940E-07  1.178839E+05  1.275972E-09
        57   5 -2.028134E+06  1.010923E+05 -2.327416E+05 -1.766371E-07  2.453074E+05  5.268848E-08
        57   6 -2.112581E+06 -4.176692E+05 -5.467779E+05  3.323904E-07  3.727363E+05 -3.550395E-08
        57   7 -2.112174E+06  1.291104E+04 -1.535421E+05  3.494562E+03  1.178839E+05  6.657122E-01
        57   8 -2.028134E+06  1.010923E+05 -2.327416E+05 -1.755548E+03  2.453074E+05 -6.958349E-01
        57   9 -2.112581E+06 -4.176691E+05 -5.467778E+05 -7.005076E+03  3.727363E+05 -4.219197E+00
        57  10 -2.112189E+06  1.290730E+04 -1.535683E+05 -3.494562E+03  1.377487E-09 -1.976988E-09
        57  11 -2.028199E+06  1.010761E+05 -2.328551E+05  1.755548E+03 -1.553302E-10 -7.275012E-09
        57  12 -2.112730E+06 -4.177066E+05 -5.470398E+05  7.005075E+03 -3.830744E-11 -3.998947E-09
        57  13 -2.112189E+06  1.290727E+04 -1.535683E+05 -3.586884E-07  6.441092E-09 -1.168065E-09
        57  14 -2.028199E+06  1.010761E+05 -2.328551E+05 -2.455297E-07 -1.095025E-09 -5.888166E-09
        57  15 -2.112730E+06 -4.177067E+05 -5.470398E+05 -4.078386E-07 -3.549023E-09 -3.247505E-09
        57  16 -2.112189E+06  1.290730E+04 -1.535683E+05  3.494562E+03 -6.130104E-10 -1.974348E-09
        57  17 -2.028199E+06  1.010761E+05 -2.328551E+05 -1.755548E+03  5.075526E-10 -6.266800E-09
        57  18 -2.112730E+06 -4.177066E+05 -5.470398E+05 -7.005075E+03 -1.530496E-09 -3.485794E-09
        57  19 -2.112174E+06  1.291104E+04 -1.535421E+05 -3.494562E+03 -1.178839E+05  6.657122E-01
        57  20 -2.028134E+06  1.010923E+05 -2.327416E+05  1.755548E+03 -2.453074E+05 -6.958350E-01
        57  21 -2.112581E+06 -4.176691E+05 -5.467778E+05  7.005076E+03 -3.727363E+05 -4.219197E+00
        57  22 -2.112174E+06  1.291102E+04 -1.535421E+05  7.432721E-07 -1.178839E+05 -3.775955E-09
        57  23 -2.028134E+06  1.010923E+05 -2.327416E+05 -1.766348E-07 -2.453074E+05 -6.659142E-08
        57  24 -2.112581E+06 -4.176692E+05 -5.467779E+05  1.258228E-07 -3.727363E+05  4.066490E-09
        57  25 -2.112174E+06  1.291104E+04 -1.535421E+05  3.494562E+03 -1.178839E+05 -6.657122E-01
        57  26 -2.028134E+06  1.010923E+05 -2.327416E+05 -1.755548E+03 -2.453074E+05  6.958351E-01
        57  27 -2.112581E+06 -4.176691E+05 -5.467778E+05 -7.005076E+03 -3.727363E+05  4.219198E+00
        58   1  3.373474E+05  9.681252E+04  4.367643E+05 -6.109627E+03 -2.799583E+01  2.863433E+05
        58   2 -6.072026E+04  3.093316E+04  1.954875E+05 -1.002362E+03 -8.191281E+01  1.885489E+05
        58   3  7.074196E+03  9.649288E+04  1.348255E+05  1.775759E+03 -9.166484E+01  9.075030E+04
        58   4  3.204449E+05  2.920178E+04  4.198657E+05 -7.128818E+02 -2.550777E+01  2.863243E+05
        58   5 -7.759233E+04 -3.653946E+04  1.786218E+05  4.021924E+02 -8.149051E+01  1.885382E+05
        58   6 -9.742221E+03  2.917022E+04  1.180008E+05 -8.115909E+02 -9.205192E+01  9.074780E+04
        58   7  3.035421E+05 -3.840476E+04  4.029668E+05  4.683276E+03 -2.301979E+01  2.863054E+05
        58   8 -9.446473E+04 -1.040080E+05  1.617557E+05  1.806595E+03 -8.106822E+01  1.885275E+05
        58   9 -2.655895E+04 -3.814832E+04  1.011757E+05 -3.398658E+03 -9.243903E+01  9.074530E+04
        58  10  3.373254E+05  9.672452E+04  4.366102E+05 -6.109621E+03 -3.244009E-09  1.314983E-10
        58  11 -6.072980E+04  3.089499E+04  1.954207E+05 -1.002350E+03  7.828805E-10 -9.065220E-11
        58  12  7.071986E+03  9.648403E+04  1.348100E+05  1.775766E+03  6.332248E-10  1.355191E-09
        58  13  3.204229E+05  2.911378E+04  4.197117E+05 -7.128759E+02 -1.036634E-09  3.393511E-11
        58  14 -7.760187E+04 -3.657763E+04  1.785550E+05  4.022048E+02  3.837443E-12  1.188115E-09
        58  15 -9.744431E+03  2.916138E+04  1.179853E+05 -8.115841E+02  2.206323E-09  2.964331E-10
        58  16  3.035201E+05 -3.849276E+04  4.028128E+05  4.683282E+03  5.238158E-09 -1.330803E-10
        58  17 -9.447427E+04 -1.040461E+05  1.616889E+05  1.806608E+03  8.105287E-09 -2.255636E-09
        58  18 -2.656116E+04 -3.815716E+04  1.011602E+05 -3.398651E+03 -2.708427E-09  1.444165E-09
        58  19  3.373474E+05  9.681252E+04  4.367643E+05 -6.109627E+03  2.799583E+01 -2.863433E+05
        58  20 -6.072026E+04  3.093316E+04  1.954875E+05 -1.002362E+03  8.191281E+01 -1.885489E+05
        58  21  7.074196E+03  9.649288E+04  1.348255E+05  1.775759E+03  9.166484E+01 -9.075030E+04
        58  22  3.204449E+05  2.920178E+04  4.198657E+05 -7.128818E+02  2.550777E+01 -2.863243E+05
        58  23 -7.759233E+04 -3.653946E+04  1.786218E+05  4.021924E+02  8.149051E+01 -1.885382E+05
        58  24 -9.742221E+03  2.917022E+04  1.180008E+05 -8.115909E+02  9.205193E+01 -9.074780E+04
        58  25  3.035421E+05 -3.840476E+04  4.029668E+05  4.683276E+03  2.301979E+01 -2.863054E+05
        58  26 -9.446473E+04 -1.040080E+05  1.617557E+05  1.806595E+03  8.106822E+01 -1.885275E+05
        58  27 -2.655895E+04 -3.814832E+04  1.011757E+05 -3.398658E+03  9.243903E+01 -9.074530E+04
        59   1  5.655309E+04  3.005229E+04  1.039381E+05 -1.427311E+03 -1.126555E+02  7.109756E+04
        59   2 -6.012919E+03  1.897262E+04  5.235464E+04  8.556201E+01 -8.055055E+01  4.681846E+04
        59   3  5.203617E+03  2.979745E+04  3.508537E+04 -3.059769E+02 -4.541705E+01  2.253961E+04
        59   4  5.024255E+04  4.827524E+03  9.763207E+04 -5.711442E+02 -1.125591E+02  7.109618E+04
        59   5 -1.228891E+04 -6.126430E+03  4.608041E+04  3.221373E+02 -8.053476E+01  4.681787E+04
        59   6 -1.036359E+03  4.824817E+03  2.884333E+04 -6.889943E+02 -4.543345E+01  2.253981E+04
        59   7  4.393195E+04 -2.039667E+04  9.132604E+04  2.849883E+02 -1.124627E+02  7.109480E+04
        59   8 -1.856495E+04 -3.122491E+04  3.980614E+04  5.587034E+02 -8.051897E+01  4.681728E+04
        59   9 -7.276382E+03 -2.014725E+04  2.260124E+04 -1.071996E+03 -4.544986E+01  2.254000E+04
        59  10  5.655174E+04  3.004687E+04  1.039286E+05 -1.427305E+03  2.303511E-09  1.324136E-09
        59  11 -6.013508E+03  1.897027E+04  5.235052E+04  8.556505E+01 -1.561541E-09 -6.147985E-11
        59  12  5.203481E+03  2.979690E+04  3.508442E+04 -3.059761E+02 -3.057010E-09  1.943809E-09
        59  13  5.024119E+04  4.822097E+03  9.762258E+04 -5.711378E+02 -1.405160E-09  2.882480E-12
        59  14 -1.228950E+04 -6.128783E+03  4.607630E+04  3.221403E+02  5.326051E-09  2.810184E-09
        59  15 -1.036495E+03  4.824272E+03  2.884238E+04 -6.889935E+02  2.893042E-09  3.963200E-10
        59  16  4.393060E+04 -2.040209E+04  9.131654E+04  2.849947E+02 -3.635491E-09 -1.320291E-09
        59  17 -1.856554E+04 -3.122726E+04  3.980202E+04  5.587064E+02 -5.659182E-10 -5.537176E-09
        59  18 -7.276518E+03 -2.014779E+04  2.260029E+04 -1.071995E+03 -5.857903E-10  2.188056E-09
        59  19  5.655309E+04  3.005229E+04  1.039381E+05 -1.427311E+03  1.126555E+02 -7.109756E+04
        59  20 -6.012919E+03  1.897262E+04  5.235464E+04  8.556201E+01  8.055055E+01 -4.681846E+04
        59  21  5.203617E+03  2.979745E+04  3.508537E+04 -3.059769E+02  4.541705E+01 -2.253961E+04
        59  22  5.024255E+04  4.827524E+03  9.763207E+04 -5.711442E+02  1.125591E+02 -7.109618E+04
        59  23 -1.228891E+04 -6.126430E+03  4.608041E+04  3.221373E+02  8.053476E+01 -4.681787E+04
        59  24 -1.036359E+03  4.824817E+03  2.884333E+04 -6.889943E+02  4.543345E+01 -2.253981E+04
        59  25  4.393195E+04 -2.039667E+04  9.132604E+04  2.849883E+02  1.124627E+02 -7.109480E+04
        59  26 -1.856495E+04 -3.122491E+04  3.980614E+04  5.587034E+02  8.051897E+01 -4.681728E+04
        59  27 -7.276382E+03 -2.014725E+04  2.260124E+04 -1.071996E+03  4.544986E+01 -2.254000E+04
        60   1  3.247459E+03 -1.701227E+04  1.847979E+04 -7.488105E+02 -5.902343E+01  1.782333E+04
        60   2 -7.158476E+03 -1.955493E+04  6.565502E+03  3.554773E+02 -6.955674E+01  1.201344E+04
        60   3 -1.858238E+03 -1.726564E+04  2.390148E+03 -5.070234E+02 -3.124626E+01  6.203800E+03
        60   4  7.757399E+03  1.031018E+03  2.299033E+04 -6.476799E+02 -5.902410E+01  1.782494E+04
        60   5 -2.615971E+03 -1.384951E+03  1.110747E+04  3.276762E+02 -6.955727E+01  1.201373E+04
        60   6  2.716816E+03  1.031143E+03  6.964302E+03 -6.637516E+02 -3.124489E+01  6.202766E+03
        60   7  1.226731E+04  1.907460E+04  2.750085E+04 -5.465461E+02 -5.902477E+01  1.782655E+04
        60   8  1.926509E+03  1.678533E+04  1.564941E+04  2.998745E+02 -6.955780E+01  1.201401E+04
        60   9  7.291846E+03  1.932823E+04  1.153843E+04 -8.204842E+02 -3.124352E+01  6.201732E+03
        60  10  3.247374E+03 -1.701261E+04  1.847920E+04 -7.488097E+02 -1.420792E-09  1.590030E-09
        60  11 -7.158515E+03 -1.955509E+04  6.565230E+03  3.554780E+02  4.494397E-09 -1.674306E-11
        60  12 -1.858249E+03 -1.726568E+04  2.390075E+03 -5.070233E+02 -1.588354E-09  1.791187E-09
        60  13  7.757313E+03  1.030676E+03  2.298974E+04 -6.476790E+02 -3.767086E-09 -1.808152E-12
        60  14 -2.616010E+03 -1.385106E+03  1.110720E+04  3.276769E+02 -2.321671E-10  2.920675E-09
        60  15  2.716806E+03  1.031101E+03  6.964230E+03 -6.637514E+02  7.640161E-11  3.302829E-10
        60  16  1.226723E+04  1.907425E+04  2.750026E+04 -5.465452E+02 -7.931008E-10 -1.592974E-09
        60  17  1.926471E+03  1.678518E+04  1.564914E+04  2.998751E+02 -8.413271E-10 -5.827969E-09
        60  18  7.291836E+03  1.932819E+04  1.153836E+04 -8.204840E+02  6.666050E-11  1.725772E-09
        60  19  3.247459E+03 -1.701227E+04  1.847979E+04 -7.488105E+02  5.902343E+01 -1.782333E+04
        60  20 -7.158476E+03 -1.955493E+04  6.565502E+03  3.554773E+02  6.955674E+01 -1.201344E+04
        60  21 -1.858238E+03 -1.726564E+04  2.390148E+03 -5.070234E+02  3.124626E+01 -6.203800E+03
        60  22  7.757399E+03  1.031018E+03  2.299033E+04 -6.476799E+02  5.902410E+01 -1.782494E+04
        60  23 -2.615971E+03 -1.384951E+03  1.110747E+04  3.276762E+02  6.955727E+01 -1.201373E+04
        60  24  2.716816E+03  1.031143E+03  6.964302E+03 -6.637516E+02  3.124489E+01 -6.202766E+03
        60  25  1.226731E+04  1.907460E+04  2.750085E+04 -5.465461E+02  5.902477E+01 -1.782655E+04
        60  26  1.926509E+03  1.678533E+04  1.564941E+04  2.998745E+02  6.955780E+01 -1.201401E+04
        60  27  7.291846E+03  1.932823E+04  1.153843E+04 -8.204842E+02  3.124352E+01 -6.201732E+03
        61   1 -1.766311E+06 -2.473048E+05  1.620411E+03 -6.641340E+05 -1.324682E+03 -5.088325E+02
        61   2 -1.766191E+06 -2.450612E+05  2.871572E+03 -6.641897E+05 -8.407733E+02 -3.462885E+02
        61   3 -1.765993E+06 -2.457675E+05  3.207191E+03 -6.646099E+05 -3.683551E+02 -1.531004E+02
        61   4 -1.779807E+06 -2.523824E+05 -2.100976E+03 -6.677750E+05 -1.325376E+03 -5.090929E+02
        61   5 -1.779743E+06 -2.501790E+05 -8.686610E+02 -6.678656E+05 -8.407904E+02 -3.462950E+02
        61   6 -1.779601E+06 -2.509256E+05 -5.524428E+02 -6.683207E+05 -3.676956E+02 -1.528527E+02
        61   7 -1.793304E+06 -2.574600E+05 -5.822379E+03 -6.714159E+05 -1.326070E+03 -5.093532E+02
        61   8 -1.793295E+06 -2.552968E+05 -4.608911E+03 -6.715414E+05 -8.408074E+02 -3.463015E+02
        61   9 -1.793208E+06 -2.560837E+05 -4.312094E+03 -6.720314E+05 -3.670356E+02 -1.526050E+02
        61  10 -1.766311E+06 -2.473048E+05  1.620409E+03 -6.641340E+05 -1.289530E-05 -1.023136E-05
        61  11 -1.766191E+06 -2.450612E+05  2.871580E+03 -6.641898E+05 -6.177439E-05 -4.554913E-05
        61  12 -1.765993E+06 -2.457675E+05  3.207207E+03 -6.646100E+05 -1.136070E-04 -7.947477E-05
        61  13 -1.779807E+06 -2.523824E+05 -2.100980E+03 -6.677750E+05 -4.222912E-05 -1.009001E-05
        61  14 -1.779743E+06 -2.501790E+05 -8.686627E+02 -6.678656E+05 -1.873269E-04 -4.473841E-05
        61  15 -1.779601E+06 -2.509256E+05 -5.524434E+02 -6.683207E+05 -3.324191E-04 -7.935509E-05
        61  16 -1.793304E+06 -2.574600E+05 -5.822385E+03 -6.714159E+05 -1.633228E-05 -9.968473E-06
        61  17 -1.793295E+06 -2.552968E+05 -4.608921E+03 -6.715414E+05 -6.788587E-05 -4.406681E-05
        61  18 -1.793208E+06 -2.560837E+05 -4.312110E+03 -6.720313E+05 -1.164873E-04 -7.944887E-05
        61  19 -1.766311E+06 -2.473048E+05  1.620415E+03 -6.641340E+05  1.324682E+03  5.088325E+02
        61  20 -1.766191E+06 -2.450612E+05  2.871591E+03 -6.641898E+05  8.407731E+02  3.462885E+02
        61  21 -1.765993E+06 -2.457675E+05  3.207223E+03 -6.646100E+05  3.683548E+02  1.531003E+02
        61  22 -1.779807E+06 -2.523824E+05 -2.100977E+03 -6.677750E+05  1.325376E+03  5.090929E+02
        61  23 -1.779743E+06 -2.501790E+05 -8.686613E+02 -6.678656E+05  8.407901E+02  3.462949E+02
        61  24 -1.779601E+06 -2.509256E+05 -5.524434E+02 -6.683207E+05  3.676949E+02  1.528526E+02
        61  25 -1.793304E+06 -2.574600E+05 -5.822383E+03 -6.714158E+05  1.326070E+03  5.093532E+02
        61  26 -1.793295E+06 -2.552968E+05 -4.608929E+03 -6.715413E+05  8.408073E+02  3.463014E+02
        61  27 -1.793208E+06 -2.560837E+05 -4.312126E+03 -6.720312E+05  3.670354E+02  1.526048E+02
        62   1 -1.787343E+06 -2.537139E+05 -2.535345E+03 -6.698770E+05 -2.899991E+02 -1.044910E+02
        62   2 -1.787052E+06 -2.537122E+05 -2.315005E+03 -6.702852E+05 -1.704001E+02 -4.637520E+01
        62   3 -1.787404E+06 -2.535154E+05 -2.272651E+03 -6.699804E+05 -4.346111E+01 -7.807514E+00
        62   4 -1.779853E+06 -2.508774E+05 -4.664702E+02 -6.678372E+05 -2.895235E+02 -1.043123E+02
        62   5 -1.779516E+06 -2.508616E+05 -2.341360E+02 -6.682363E+05 -1.703612E+02 -4.636056E+01
        62   6 -1.779821E+06 -2.506505E+05 -1.794397E+02 -6.679223E+05 -4.385878E+01 -7.956794E+00
        62   7 -1.772363E+06 -2.480409E+05  1.602399E+03 -6.657974E+05 -2.890475E+02 -1.041337E+02
        62   8 -1.771980E+06 -2.480109E+05  1.846727E+03 -6.661873E+05 -1.703221E+02 -4.634593E+01
        62   9 -1.772238E+06 -2.477855E+05  1.913765E+03 -6.658642E+05 -4.425660E+01 -8.106076E+00
        62  10 -1.787342E+06 -2.537139E+05 -2.535330E+03 -6.698771E+05 -1.109273E-04 -7.459187E-05
        62  11 -1.787052E+06 -2.537122E+05 -2.315000E+03 -6.702852E+05 -3.934295E-05 -2.329008E-05
        62  12 -1.787404E+06 -2.535154E+05 -2.272656E+03 -6.699804E+05  3.556284E-05  2.651335E-05
        62  13 -1.779853E+06 -2.508774E+05 -4.664699E+02 -6.678372E+05 -3.130442E-04 -7.470646E-05
        62  14 -1.779516E+06 -2.508616E+05 -2.341358E+02 -6.682363E+05 -1.013726E-04 -2.414678E-05
        62  15 -1.779821E+06 -2.506505E+05 -1.794393E+02 -6.679223E+05  1.103150E-04  2.640911E-05
        62  16 -1.772363E+06 -2.480409E+05  1.602384E+03 -6.657973E+05 -1.057473E-04 -7.507351E-05
        62  17 -1.771980E+06 -2.480109E+05  1.846722E+03 -6.661873E+05 -3.077047E-05 -2.530351E-05
        62  18 -1.772238E+06 -2.477855E+05  1.913771E+03 -6.658642E+05  4.092752E-05  2.595305E-05
        62  19 -1.787342E+06 -2.537139E+05 -2.535314E+03 -6.698771E+05  2.899988E+02  1.044909E+02
        62  20 -1.787052E+06 -2.537122E+05 -2.314995E+03 -6.702853E+05  1.704000E+02  4.637515E+01
        62  21 -1.787404E+06 -2.535154E+05 -2.272661E+03 -6.699803E+05  4.346118E+01  7.807567E+00
        62  22 -1.779853E+06 -2.508774E+05 -4.664694E+02 -6.678372E+05  2.895229E+02  1.043122E+02
        62  23 -1.779516E+06 -2.508616E+05 -2.341355E+02 -6.682363E+05  1.703610E+02  4.636051E+01
        62  24 -1.779821E+06 -2.506505E+05 -1.794389E+02 -6.679223E+05  4.385900E+01  7.956847E+00
        62  25 -1.772364E+06 -2.480409E+05  1.602369E+03 -6.657973E+05  2.890473E+02  1.041335E+02
        62  26 -1.771980E+06 -2.480109E+05  1.846717E+03 -6.661873E+05  1.703220E+02  4.634588E+01
        62  27 -1.772238E+06 -2.477855E+05  1.913776E+03 -6.658643E+05  4.425669E+01  8.106128E+00
        63   1 -1.775922E+06 -2.494794E+05  8.463435E+02 -6.671183E+05 -1.073620E+01 -6.249259E+00
        63   2 -1.776038E+06 -2.492518E+05  8.429870E+02 -6.669380E+05  8.636024E+01  2.374985E+01
        63   3 -1.775870E+06 -2.494530E+05  7.428723E+02 -6.671041E+05  1.799150E+02  6.317989E+01
        63   4 -1.779628E+06 -2.508792E+05 -1.764397E+02 -6.681239E+05 -1.096830E+01 -6.336393E+00
        63   5 -1.779769E+06 -2.506624E+05 -1.870986E+02 -6.679517E+05  8.633895E+01  2.374185E+01
        63   6 -1.779627E+06 -2.508745E+05 -2.946835E+02 -6.681258E+05  1.801045E+02  6.325104E+01
        63   7 -1.783333E+06 -2.522791E+05 -1.199224E+03 -6.691296E+05 -1.120058E+01 -6.423527E+00
        63   8 -1.783501E+06 -2.520730E+05 -1.217186E+03 -6.689653E+05  8.631761E+01  2.373385E+01
        63   9 -1.783384E+06 -2.522959E+05 -1.332241E+03 -6.691474E+05  1.802941E+02  6.332219E+01
        63  10 -1.775923E+06 -2.494794E+05  8.463366E+02 -6.671183E+05  4.948460E-05  3.340658E-05
        63  11 -1.776038E+06 -2.492518E+05  8.429855E+02 -6.669380E+05  1.292260E-05  6.750989E-06
        63  12 -1.775870E+06 -2.494530E+05  7.428760E+02 -6.671041E+05 -2.594670E-05 -1.886898E-05
        63  13 -1.779628E+06 -2.508792E+05 -1.764399E+02 -6.681239E+05  1.400738E-04  3.350352E-05
        63  14 -1.779769E+06 -2.506624E+05 -1.870987E+02 -6.679517E+05  3.066617E-05  7.326412E-06
        63  15 -1.779627E+06 -2.508745E+05 -2.946837E+02 -6.681258E+05 -7.874206E-05 -1.886801E-05
        63  16 -1.783333E+06 -2.522791E+05 -1.199218E+03 -6.691296E+05  4.759619E-05  3.331492E-05
        63  17 -1.783501E+06 -2.520730E+05 -1.217184E+03 -6.689654E+05  8.309169E-06  7.901219E-06
        63  18 -1.783384E+06 -2.522959E+05 -1.332245E+03 -6.691474E+05 -2.865052E-05 -1.860016E-05
        63  19 -1.775923E+06 -2.494794E+05  8.463297E+02 -6.671183E+05  1.073630E+01  6.249326E+00
        63  20 -1.776038E+06 -2.492518E+05  8.429841E+02 -6.669380E+05 -8.636021E+01 -2.374984E+01
        63  21 -1.775870E+06 -2.494530E+05  7.428798E+02 -6.671041E+05 -1.799151E+02 -6.317992E+01
        63  22 -1.779628E+06 -2.508792E+05 -1.764402E+02 -6.681239E+05  1.096858E+01  6.336460E+00
        63  23 -1.779769E+06 -2.506624E+05 -1.870988E+02 -6.679517E+05 -8.633889E+01 -2.374184E+01
        63  24 -1.779627E+06 -2.508745E+05 -2.946839E+02 -6.681258E+05 -1.801047E+02 -6.325108E+01
        63  25 -1.783333E+06 -2.522791E+05 -1.199211E+03 -6.691296E+05  1.120067E+01  6.423594E+00
        63  26 -1.783501E+06 -2.520730E+05 -1.217182E+03 -6.689654E+05 -8.631760E+01 -2.373383E+01
        63  27 -1.783384E+06 -2.522959E+05 -1.332248E+03 -6.691474E+05 -1.802942E+02 -6.332223E+01
        64   1 -1.781138E+06 -2.512493E+05 -7.516532E+02 -6.683831E+05  2.338061E+02  8.825162E+01
        64   2 -1.780984E+06 -2.512994E+05 -1.012035E+03 -6.685062E+05  5.522343E+02  2.105502E+02
        64   3 -1.781207E+06 -2.514698E+05 -1.600340E+03 -6.683101E+05  8.720062E+02  3.292864E+02
        64   4 -1.779763E+06 -2.507273E+05 -3.715570E+02 -6.680073E+05  2.339005E+02  8.828709E+01
        64   5 -1.779589E+06 -2.507725E+05 -6.270938E+02 -6.681275E+05  5.522496E+02  2.105559E+02
        64   6 -1.779793E+06 -2.509378E+05 -1.210490E+03 -6.679285E+05  8.719423E+02  3.292624E+02
        64   7 -1.778388E+06 -2.502053E+05  8.538873E+00 -6.676316E+05  2.339951E+02  8.832255E+01
        64   8 -1.778195E+06 -2.502455E+05 -2.421530E+02 -6.677489E+05  5.522648E+02  2.105616E+02
        64   9 -1.778379E+06 -2.504058E+05 -8.206411E+02 -6.675470E+05  8.718783E+02  3.292384E+02
        64  10 -1.781138E+06 -2.512493E+05 -7.516490E+02 -6.683831E+05 -3.159766E-05 -2.110710E-05
        64  11 -1.780983E+06 -2.512994E+05 -1.012035E+03 -6.685062E+05 -6.436513E-06 -3.013709E-06
        64  12 -1.781207E+06 -2.514698E+05 -1.600345E+03 -6.683100E+05  2.012618E-05  1.445400E-05
        64  13 -1.779763E+06 -2.507273E+05 -3.715570E+02 -6.680073E+05 -8.883608E-05 -2.128222E-05
        64  14 -1.779589E+06 -2.507725E+05 -6.270944E+02 -6.681275E+05 -1.414014E-05 -3.368051E-06
        64  15 -1.779793E+06 -2.509378E+05 -1.210492E+03 -6.679285E+05  6.055352E-05  1.455555E-05
        64  16 -1.778388E+06 -2.502054E+05  8.534470E+00 -6.676316E+05 -2.997805E-05 -2.119437E-05
        64  17 -1.778195E+06 -2.502455E+05 -2.421544E+02 -6.677489E+05 -3.348332E-06 -3.761753E-06
        64  18 -1.778379E+06 -2.504058E+05 -8.206398E+02 -6.675470E+05  2.188986E-05  1.430519E-05
        64  19 -1.781138E+06 -2.512493E+05 -7.516445E+02 -6.683831E+05 -2.338062E+02 -8.825167E+01
        64  20 -1.780983E+06 -2.512994E+05 -1.012034E+03 -6.685062E+05 -5.522344E+02 -2.105502E+02
        64  21 -1.781207E+06 -2.514698E+05 -1.600346E+03 -6.683100E+05 -8.720061E+02 -3.292864E+02
        64  22 -1.779763E+06 -2.507273E+05 -3.715567E+02 -6.680073E+05 -2.339007E+02 -8.828713E+01
        64  23 -1.779589E+06 -2.507725E+05 -6.270937E+02 -6.681275E+05 -5.522496E+02 -2.105559E+02
        64  24 -1.779793E+06 -2.509378E+05 -1.210490E+03 -6.679285E+05 -8.719422E+02 -3.292624E+02
        64  25 -1.778388E+06 -2.502054E+05  8.530303E+00 -6.676316E+05 -2.339951E+02 -8.832260E+01
        64  26 -1.778195E+06 -2.502455E+05 -2.421544E+02 -6.677489E+05 -5.522648E+02 -2.105616E+02
        64  27 -1.778379E+06 -2.504058E+05 -8.206352E+02 -6.675470E+05 -8.718783E+02 -3.292384E+02
        65   1 -1.780167E+06 -2.509571E+05 -1.667866E+03 -6.682919E+05  1.103238E+03  4.150949E+02
        65   2 -1.779885E+06 -2.504884E+05 -2.803010E+03 -6.681365E+05  2.493625E+03  9.368439E+02
        65   3 -1.780355E+06 -2.523317E+05 -5.544586E+03 -6.677287E+05  3.884360E+03  1.457678E+03
        65   4 -1.779788E+06 -2.508023E+05 -1.561052E+03 -6.681769E+05  1.103245E+03  4.150979E+02
        65   5 -1.779513E+06 -2.503513E+05 -2.701039E+03 -6.680391E+05  2.493613E+03  9.368394E+02
        65   6 -1.779990E+06 -2.522123E+05 -5.447441E+03 -6.676488E+05  3.884328E+03  1.457666E+03
        65   7 -1.779410E+06 -2.506474E+05 -1.454239E+03 -6.680620E+05  1.103253E+03  4.151009E+02
        65   8 -1.779141E+06 -2.502142E+05 -2.599068E+03 -6.679417E+05  2.493601E+03  9.368349E+02
        65   9 -1.779624E+06 -2.520930E+05 -5.350296E+03 -6.675688E+05  3.884297E+03  1.457654E+03
        65  10 -1.780167E+06 -2.509571E+05 -1.667871E+03 -6.682918E+05  2.275556E-05  1.505839E-05
        65  11 -1.779885E+06 -2.504884E+05 -2.803023E+03 -6.681365E+05  1.026155E-06 -5.120143E-07
        65  12 -1.780355E+06 -2.523317E+05 -5.544616E+03 -6.677288E+05 -2.190733E-05 -1.553178E-05
        65  13 -1.779788E+06 -2.508023E+05 -1.561055E+03 -6.681769E+05  6.355154E-05  1.526604E-05
        65  14 -1.779513E+06 -2.503513E+05 -2.701052E+03 -6.680391E+05 -8.321196E-07 -2.232666E-07
        65  15 -1.779990E+06 -2.522123E+05 -5.447474E+03 -6.676488E+05 -6.522257E-05 -1.570557E-05
        65  16 -1.779410E+06 -2.506474E+05 -1.454238E+03 -6.680620E+05  2.133356E-05  1.514436E-05
        65  17 -1.779141E+06 -2.502142E+05 -2.599081E+03 -6.679417E+05 -1.619425E-06  1.406950E-07
        65  18 -1.779624E+06 -2.520930E+05 -5.350332E+03 -6.675688E+05 -2.337415E-05 -1.542277E-05
        65  19 -1.780167E+06 -2.509571E+05 -1.667872E+03 -6.682918E+05 -1.103237E+03 -4.150949E+02
        65  20 -1.779885E+06 -2.504884E+05 -2.803010E+03 -6.681365E+05 -2.493625E+03 -9.368439E+02
        65  21 -1.780355E+06 -2.523317E+05 -5.544580E+03 -6.677288E+05 -3.884360E+03 -1.457678E+03
        65  22 -1.779788E+06 -2.508023E+05 -1.561053E+03 -6.681769E+05 -1.103245E+03 -4.150979E+02
        65  23 -1.779513E+06 -2.503513E+05 -2.701039E+03 -6.680391E+05 -2.493613E+03 -9.368394E+02
        65  24 -1.779990E+06 -2.522123E+05 -5.447442E+03 -6.676488E+05 -3.884328E+03 -1.457666E+03
        65  25 -1.779410E+06 -2.506474E+05 -1.454233E+03 -6.680620E+05 -1.103253E+03 -4.151009E+02
        65  26 -1.779141E+06 -2.502142E+05 -2.599068E+03 -6.679417E+05 -2.493601E+03 -9.368349E+02
        65  27 -1.779624E+06 -2.520930E+05 -5.350303E+03 -6.675688E+05 -3.884297E+03 -1.457654E+03
        66   1 -1.778300E+06 -2.497918E+05 -6.311483E+03 -6.678752E+05  4.918800E+03  1.843574E+03
        66   2 -1.776006E+06 -2.476735E+05 -1.113946E+04 -6.678862E+05  1.106786E+04  4.149677E+03
        66   3 -1.779783E+06 -2.587538E+05 -2.421474E+04 -6.643060E+05  1.721460E+04  6.461707E+03
        66   4 -1.780599E+06 -2.505874E+05 -6.931538E+03 -6.684241E+05  4.918679E+03  1.843529E+03
        66   5 -1.778212E+06 -2.485362E+05 -1.175409E+04 -6.685151E+05  1.106785E+04  4.149674E+03
        66   6 -1.781895E+06 -2.596837E+05 -2.482406E+04 -6.650148E+05  1.721470E+04  6.461743E+03
        66   7 -1.782899E+06 -2.513829E+05 -7.551594E+03 -6.689730E+05  4.918559E+03  1.843485E+03
        66   8 -1.780417E+06 -2.493989E+05 -1.236872E+04 -6.691439E+05  1.106784E+04  4.149670E+03
        66   9 -1.784006E+06 -2.606135E+05 -2.543338E+04 -6.657236E+05  1.721481E+04  6.461778E+03
        66  10 -1.778300E+06 -2.497918E+05 -6.311532E+03 -6.678752E+05 -2.252760E-05 -1.473239E-05
        66  11 -1.776006E+06 -2.476736E+05 -1.113972E+04 -6.678862E+05  2.536693E-06  3.140411E-06
        66  12 -1.779784E+06 -2.587539E+05 -2.421538E+04 -6.643061E+05  2.909574E-05  2.032169E-05
        66  13 -1.780599E+06 -2.505874E+05 -6.931590E+03 -6.684241E+05 -6.239937E-05 -1.500994E-05
        66  14 -1.778212E+06 -2.485363E+05 -1.175435E+04 -6.685151E+05  1.169622E-05  2.860848E-06
        66  15 -1.781895E+06 -2.596838E+05 -2.482470E+04 -6.650149E+05  8.579401E-05  2.072351E-05
        66  16 -1.782899E+06 -2.513829E+05 -7.551649E+03 -6.689730E+05 -2.078561E-05 -1.489068E-05
        66  17 -1.780417E+06 -2.493990E+05 -1.236898E+04 -6.691440E+05  5.612368E-06  2.368484E-06
        66  18 -1.784006E+06 -2.606136E+05 -2.543401E+04 -6.657237E+05  3.050810E-05  2.031452E-05
        66  19 -1.778300E+06 -2.497918E+05 -6.311477E+03 -6.678752E+05 -4.918800E+03 -1.843574E+03
        66  20 -1.776006E+06 -2.476735E+05 -1.113946E+04 -6.678862E+05 -1.106786E+04 -4.149677E+03
        66  21 -1.779783E+06 -2.587538E+05 -2.421475E+04 -6.643060E+05 -1.721460E+04 -6.461707E+03
        66  22 -1.780599E+06 -2.505874E+05 -6.931538E+03 -6.684241E+05 -4.918679E+03 -1.843529E+03
        66  23 -1.778212E+06 -2.485362E+05 -1.175409E+04 -6.685151E+05 -1.106785E+04 -4.149674E+03
        66  24 -1.781895E+06 -2.596837E+05 -2.482406E+04 -6.650148E+05 -1.721470E+04 -6.461743E+03
        66  25 -1.782899E+06 -2.513829E+05 -7.551600E+03 -6.689730E+05 -4.918559E+03 -1.843485E+03
        66  26 -1.780417E+06 -2.493989E+05 -1.236872E+04 -6.691439E+05 -1.106784E+04 -4.149670E+03
        66  27 -1.784006E+06 -2.606135E+05 -2.543337E+04 -6.657236E+05 -1.721481E+04 -6.461778E+03
        67   1 -1.788991E+06 -2.519652E+05 -3.219898E+04 -6.724116E+05  2.187927E+04  8.219092E+03
        67   2 -1.775894E+06 -2.376172E+05 -5.205907E+04 -6.716590E+05  4.908309E+04  1.843377E+04
        67   3 -1.798192E+06 -3.092303E+05 -1.156257E+05 -6.494428E+05  7.629283E+04  2.863329E+04
        67   4 -1.784739E+06 -2.498940E+05 -3.093220E+04 -6.707800E+05  2.187959E+04  8.219232E+03
        67   5 -1.771179E+06 -2.360451E+05 -5.079942E+04 -6.705944E+05  4.908328E+04  1.843381E+04
        67   6 -1.793012E+06 -3.081569E+05 -1.143728E+05 -6.489451E+05  7.629290E+04  2.863318E+04
        67   7 -1.780488E+06 -2.478229E+05 -2.966543E+04 -6.691485E+05  2.187991E+04  8.219373E+03
        67   8 -1.766463E+06 -2.344730E+05 -4.953978E+04 -6.695297E+05  4.908346E+04  1.843386E+04
        67   9 -1.787833E+06 -3.070835E+05 -1.131199E+05 -6.484474E+05  7.629297E+04  2.863307E+04
        67  10 -1.788991E+06 -2.519654E+05 -3.220001E+04 -6.724117E+05  2.697257E-05  1.728217E-05
        67  11 -1.775897E+06 -2.376182E+05 -5.206425E+04 -6.716598E+05 -1.242426E-05 -1.060533E-05
        67  12 -1.798198E+06 -3.092328E+05 -1.156382E+05 -6.494446E+05 -5.363765E-05 -3.762855E-05
        67  13 -1.784740E+06 -2.498942E+05 -3.093323E+04 -6.707802E+05  7.360452E-05  1.775558E-05
        67  14 -1.771181E+06 -2.360462E+05 -5.080461E+04 -6.705951E+05 -4.239915E-05 -1.029396E-05
        67  15 -1.793019E+06 -3.081594E+05 -1.143853E+05 -6.489469E+05 -1.584017E-04 -3.832367E-05
        67  16 -1.780488E+06 -2.478231E+05 -2.966646E+04 -6.691486E+05  2.414793E-05  1.758250E-05
        67  17 -1.766466E+06 -2.344741E+05 -4.954496E+04 -6.695305E+05 -1.705064E-05 -9.462192E-06
        67  18 -1.787839E+06 -3.070859E+05 -1.131325E+05 -6.484492E+05 -5.645681E-05 -3.732875E-05
        67  19 -1.788991E+06 -2.519652E+05 -3.219899E+04 -6.724115E+05 -2.187927E+04 -8.219092E+03
        67  20 -1.775894E+06 -2.376172E+05 -5.205907E+04 -6.716590E+05 -4.908309E+04 -1.843377E+04
        67  21 -1.798192E+06 -3.092303E+05 -1.156257E+05 -6.494428E+05 -7.629283E+04 -2.863329E+04
        67  22 -1.784739E+06 -2.498940E+05 -3.093221E+04 -6.707800E+05 -2.187959E+04 -8.219232E+03
        67  23 -1.771179E+06 -2.360451E+05 -5.079942E+04 -6.705944E+05 -4.908328E+04 -1.843381E+04
        67  24 -1.793012E+06 -3.081569E+05 -1.143728E+05 -6.489451E+05 -7.629290E+04 -2.863318E+04
        67  25 -1.780488E+06 -2.478228E+05 -2.966542E+04 -6.691485E+05 -2.187991E+04 -8.219373E+03
        67  26 -1.766463E+06 -2.344730E+05 -4.953978E+04 -6.695297E+05 -4.908346E+04 -1.843386E+04
        67  27 -1.787833E+06 -3.070835E+05 -1.131200E+05 -6.484474E+05 -7.629297E+04 -2.863307E+04
        68   1 -1.800634E+06 -2.432334E+05 -1.362529E+05 -6.845313E+05  9.752727E+04  3.659157E+04
        68   2 -1.719679E+06 -1.538616E+05 -2.147616E+05 -6.823333E+05  2.178602E+05  8.177176E+04
        68   3 -1.859792E+06 -6.083373E+05 -5.321681E+05 -5.379569E+05  3.381793E+05  1.270005E+05
        68   4 -1.810813E+06 -2.441686E+05 -1.384798E+05 -6.843024E+05  9.752598E+04  3.659167E+04
        68   5 -1.726640E+06 -1.579533E+05 -2.169760E+05 -6.857247E+05  2.178588E+05  8.177060E+04
        68   6 -1.863537E+06 -6.155894E+05 -5.343719E+05 -5.449675E+05  3.381786E+05  1.269962E+05
        68   7 -1.820993E+06 -2.451037E+05 -1.407068E+05 -6.840735E+05  9.752470E+04  3.659176E+04
        68   8 -1.733601E+06 -1.620450E+05 -2.191903E+05 -6.891161E+05  2.178575E+05  8.176945E+04
        68   9 -1.867282E+06 -6.228413E+05 -5.365757E+05 -5.519781E+05  3.381779E+05  1.269919E+05
        68  10 -1.800645E+06 -2.432374E+05 -1.362733E+05 -6.845342E+05 -5.994692E-05 -4.034969E-05
        68  11 -1.719732E+06 -1.538816E+05 -2.148637E+05 -6.823477E+05 -3.490117E-05 -2.238699E-05
        68  12 -1.859919E+06 -6.083855E+05 -5.324142E+05 -5.379915E+05 -8.382891E-06 -5.064416E-06
        68  13 -1.810824E+06 -2.441726E+05 -1.385003E+05 -6.843053E+05 -1.704784E-04 -4.125679E-05
        68  14 -1.726693E+06 -1.579733E+05 -2.170780E+05 -6.857391E+05 -9.604775E-05 -2.328720E-05
        68  15 -1.863665E+06 -6.156376E+05 -5.346180E+05 -5.450022E+05 -2.163852E-05 -5.258059E-06
        68  16 -1.821003E+06 -2.451077E+05 -1.407273E+05 -6.840764E+05 -5.853012E-05 -4.036081E-05
        68  17 -1.733654E+06 -1.620650E+05 -2.192924E+05 -6.891304E+05 -3.182476E-05 -2.317537E-05
        68  18 -1.867410E+06 -6.228895E+05 -5.368217E+05 -5.520127E+05 -6.649995E-06 -5.220372E-06
        68  19 -1.800634E+06 -2.432334E+05 -1.362529E+05 -6.845314E+05 -9.752727E+04 -3.659157E+04
        68  20 -1.719679E+06 -1.538616E+05 -2.147616E+05 -6.823333E+05 -2.178602E+05 -8.177176E+04
        68  21 -1.859792E+06 -6.083373E+05 -5.321681E+05 -5.379569E+05 -3.381793E+05 -1.270005E+05
        68  22 -1.810813E+06 -2.441686E+05 -1.384798E+05 -6.843024E+05 -9.752599E+04 -3.659167E+04
        68  23 -1.726640E+06 -1.579533E+05 -2.169760E+05 -6.857247E+05 -2.178588E+05 -8.177060E+04
        68  24 -1.863537E+06 -6.155894E+05 -5.343719E+05 -5.449675E+05 -3.381786E+05 -1.269962E+05
        68  25 -1.820993E+06 -2.451037E+05 -1.407068E+05 -6.840735E+05 -9.752470E+04 -3.659176E+04
        68  26 -1.733601E+06 -1.620450E+05 -2.191903E+05 -6.891160E+05 -2.178575E+05 -8.176945E+04
        68  27 -1.867282E+06 -6.228413E+05 -5.365757E+05 -5.519781E+05 -3.381779E+05 -1.269919E+05
        69   1  1.466213E+05  1.159317E+06  1.369216E+05 -2.365164E+04  7.946266E+03  6.425359E+04
        69   2  1.336120E+05  1.141240E+06  9.962479E+04 -2.173280E+04  2.776955E+04  3.532583E+04
        69   3  1.269561E+05  1.128529E+06  8.273210E+04 -2.130897E+04  3.598441E+04  6.400225E+03
        69   4  3.656872E+03  5.769427E+05  3.888500E+03 -2.108626E+04  7.950460E+03  2.663543E+03
        69   5  1.292160E+03  5.766815E+05  2.020790E+03 -2.033949E+04  2.777616E+04  1.640948E+03
        69   6  4.440145E+02  5.769486E+05  1.201794E+03 -2.108691E+04  3.598870E+04  6.194089E+02
        69   7 -1.393290E+05 -5.109087E+03 -1.291526E+05 -1.852330E+04  7.954150E+03 -5.886931E+04
        69   8 -1.310442E+05  1.243727E+04 -9.558996E+04 -1.894747E+04  2.778263E+04 -3.201429E+04
        69   9 -1.260823E+05  2.567380E+04 -8.033394E+04 -2.086504E+04  3.599299E+04 -5.156489E+03
        69  10  1.466201E+05  1.159312E+06  1.369137E+05 -2.365205E+04 -4.129577E-09  8.423077E-10
        69  11  1.336108E+05  1.141239E+06  9.962100E+04 -2.173359E+04 -6.459549E-09 -1.276234E-09
        69  12  1.269547E+05  1.128529E+06  8.272959E+04 -2.130916E+04 -5.106396E-09 -2.921021E-09
        69  13  3.656803E+03  5.769427E+05  3.888367E+03 -2.108628E+04 -2.063508E-09  1.051018E-11
        69  14  1.291331E+03  5.766813E+05  2.019334E+03 -2.033952E+04 -1.076603E-09 -2.097747E-10
        69  15  4.426233E+02  5.769482E+05  1.199359E+03 -2.108693E+04 -5.117465E-09  2.557733E-10
        69  16 -1.393300E+05 -5.112826E+03 -1.291592E+05 -1.852292E+04  1.563271E-10 -9.056756E-10
        69  17 -1.310453E+05  1.243596E+04 -9.559333E+04 -1.894675E+04  5.270546E-09  1.188441E-09
        69  18 -1.260837E+05  2.567342E+04 -8.033642E+04 -2.086489E+04 -8.766264E-10  3.037143E-09
        69  19  1.466213E+05  1.159317E+06  1.369216E+05 -2.365164E+04 -7.946266E+03 -6.425359E+04
        69  20  1.336120E+05  1.141240E+06  9.962479E+04 -2.173280E+04 -2.776955E+04 -3.532583E+04
        69  21  1.269561E+05  1.128529E+06  8.273210E+04 -2.130897E+04 -3.598441E+04 -6.400225E+03
        69  22  3.656872E+03  5.769427E+05  3.888500E+03 -2.108626E+04 -7.950460E+03 -2.663543E+03
        69  23  1.292160E+03  5.766815E+05  2.020790E+03 -2.033949E+04 -2.777616E+04 -1.640948E+03
        69  24  4.440145E+02  5.769486E+05  1.201794E+03 -2.108691E+04 -3.598870E+04 -6.194089E+02
        69  25 -1.393290E+05 -5.109087E+03 -1.291526E+05 -1.852330E+04 -7.954150E+03  5.886931E+04
        69  26 -1.310442E+05  1.243727E+04 -9.558996E+04 -1.894747E+04 -2.778263E+04  3.201429E+04
        69  27 -1.260823E+05  2.567380E+04 -8.033394E+04 -2.086504E+04 -3.599299E+04  5.156489E+03
        70   1  1.240204E+05  1.118284E+06  7.856671E+04 -2.159686E+04  3.688825E+04  5.225876E+03
        70   2  1.197235E+05  1.102391E+06  7.348067E+04 -2.021113E+04  3.748764E+04 -1.837974E+03
        70   3  1.168723E+05  1.087792E+06  7.335316E+04 -2.125710E+04  3.531131E+04 -8.902633E+03
        70   4  3.275115E+02  5.768632E+05  9.854003E+02 -2.129531E+04  3.689261E+04  4.538369E+02
        70   5  1.691734E+02  5.767978E+05  7.847889E+02 -2.007941E+04  3.749027E+04  6.232024E+01
        70   6  2.998272E+02  5.768687E+05  9.151164E+02 -2.129537E+04  3.531099E+04 -3.301688E+02
        70   7 -1.233787E+05  3.573857E+04 -7.660027E+04 -2.099400E+04  3.689697E+04 -4.314224E+03
        70   8 -1.193974E+05  5.148442E+04 -7.191431E+04 -1.994779E+04  3.749290E+04  1.961080E+03
        70   9 -1.162843E+05  6.620957E+04 -7.152634E+04 -2.133357E+04  3.531066E+04  8.235556E+03
        70  10  1.240190E+05  1.118283E+06  7.856410E+04 -2.159702E+04  8.101448E-10  1.234075E-08
        70  11  1.197220E+05  1.102391E+06  7.347802E+04 -2.021107E+04  6.373004E-09  3.376845E-09
        70  12  1.168709E+05  1.087791E+06  7.335067E+04 -2.125685E+04  5.639845E-09 -3.730241E-09
        70  13  3.260495E+02  5.768629E+05  9.828415E+02 -2.129532E+04 -4.637110E-09  2.266260E-10
        70  14  1.676638E+02  5.767974E+05  7.821469E+02 -2.007942E+04  6.908117E-09 -6.662435E-10
        70  15  2.984879E+02  5.768683E+05  9.127725E+02 -2.129536E+04  6.418112E-09  4.302420E-10
        70  16 -1.233802E+05  3.573818E+04 -7.660287E+04 -2.099387E+04 -2.452318E-09 -1.272397E-08
        70  17 -1.193989E+05  5.148404E+04 -7.191696E+04 -1.994785E+04 -5.620889E-09 -3.660157E-09
        70  18 -1.162857E+05  6.620916E+04 -7.152881E+04 -2.133381E+04  2.838387E-09  3.930283E-09
        70  19  1.240204E+05  1.118284E+06  7.856671E+04 -2.159686E+04 -3.688825E+04 -5.225876E+03
        70  20  1.197235E+05  1.102391E+06  7.348067E+04 -2.021113E+04 -3.748764E+04  1.837974E+03
        70  21  1.168723E+05  1.087792E+06  7.335316E+04 -2.125710E+04 -3.531131E+04  8.902633E+03
        70  22  3.275115E+02  5.768632E+05  9.854003E+02 -2.129531E+04 -3.689261E+04 -4.538369E+02
        70  23  1.691734E+02  5.767978E+05  7.847889E+02 -2.007941E+04 -3.749027E+04 -6.232024E+01
        70  24  2.998272E+02  5.768687E+05  9.151164E+02 -2.129537E+04 -3.531099E+04  3.301688E+02
        70  25 -1.233787E+05  3.573857E+04 -7.660027E+04 -2.099400E+04 -3.689697E+04  4.314224E+03
        70  26 -1.193974E+05  5.148442E+04 -7.191431E+04 -1.994779E+04 -3.749290E+04 -1.961080E+03
        70  27 -1.162843E+05  6.620957E+04 -7.152634E+04 -2.133357E+04 -3.531066E+04 -8.235556E+03
        71   1  1.153655E+05  1.079028E+06  7.429328E+04 -2.150176E+04  3.340979E+04 -9.902445E+03
        71   2  1.145301E+05  1.061747E+06  8.412822E+04 -1.886056E+04  2.484813E+04 -3.317352E+04
        71   3  1.188984E+05  1.048802E+06  1.103995E+05 -1.943626E+04  6.981915E+03 -5.645003E+04
        71   4  4.047173E+02  5.769420E+05  1.089156E+03 -2.147011E+04  3.340855E+04 -4.832665E+02
        71   5  1.148782E+03  5.767154E+05  1.784453E+03 -1.986070E+04  2.483479E+04 -1.391201E+03
        71   6  3.219508E+03  5.769469E+05  3.402684E+03 -2.146904E+04  6.953231E+03 -2.304873E+03
        71   7 -1.145676E+05  7.510963E+04 -7.211889E+04 -2.143845E+04  3.340730E+04  8.928622E+03
        71   8 -1.122444E+05  9.191680E+04 -8.056319E+04 -2.086000E+04  2.482134E+04  3.036712E+04
        71   9 -1.124732E+05  1.053044E+05 -1.035975E+05 -2.350023E+04  6.924181E+03  5.179957E+04
        71  10  1.153642E+05  1.079028E+06  7.429100E+04 -2.150149E+04  1.490581E-09  8.075285E-08
        71  11  1.145291E+05  1.061746E+06  8.412500E+04 -1.885989E+04  7.555184E-09 -1.918579E-10
        71  12  1.188975E+05  1.048799E+06  1.103935E+05 -1.943595E+04  3.384308E-09 -7.833840E-08
        71  13  4.035184E+02  5.769417E+05  1.087058E+03 -2.147009E+04  2.564229E-09  3.509754E-10
        71  14  1.148119E+03  5.767153E+05  1.783290E+03 -1.986067E+04  2.737750E-09 -1.001419E-09
        71  15  3.219455E+03  5.769469E+05  3.402583E+03 -2.146902E+04  6.674200E-10  5.506861E-10
        71  16 -1.145688E+05  7.510925E+04 -7.212114E+04 -2.143869E+04  2.642770E-09 -8.134470E-08
        71  17 -1.122453E+05  9.191564E+04 -8.056608E+04 -2.086061E+04  6.369324E-09 -1.695515E-10
        71  18 -1.124739E+05  1.053015E+05 -1.036027E+05 -2.350051E+04  1.084609E-09  7.837980E-08
        71  19  1.153655E+05  1.079028E+06  7.429328E+04 -2.150176E+04 -3.340979E+04  9.902445E+03
        71  20  1.145301E+05  1.061747E+06  8.412822E+04 -1.886056E+04 -2.484813E+04  3.317352E+04
        71  21  1.188984E+05  1.048802E+06  1.103995E+05 -1.943626E+04 -6.981915E+03  5.645003E+04
        71  22  4.047173E+02  5.769420E+05  1.089156E+03 -2.147011E+04 -3.340855E+04  4.832665E+02
        71  23  1.148782E+03  5.767154E+05  1.784453E+03 -1.986070E+04 -2.483479E+04  1.391201E+03
        71  24  3.219508E+03  5.769469E+05  3.402684E+03 -2.146904E+04 -6.953231E+03  2.304873E+03
        71  25 -1.145676E+05  7.510963E+04 -7.211889E+04 -2.143845E+04 -3.340730E+04 -8.928622E+03
        71  26 -1.122444E+05  9.191680E+04 -8.056319E+04 -2.086000E+04 -2.482134E+04 -3.036712E+04
        71  27 -1.124732E+05  1.053044E+05 -1.035975E+05 -2.350023E+04 -6.924181E+03 -5.179957E+04
        72   1  3.333831E+05  1.633273E+05  4.259635E+05 -5.918545E+03 -1.830317E+03  2.672018E+05
        72   2 -3.900891E+04  9.813408E+04  1.998839E+05 -1.321236E+03 -1.310964E+03  1.759875E+05
        72   3  2.465312E+04  1.625857E+05  1.439762E+05 -9.833282E+02 -7.469064E+02  8.477032E+04
        72   4  2.996206E+05  2.863238E+04  3.922810E+05 -1.701609E+02 -1.827897E+03  2.671659E+05
        72   5 -7.263555E+04 -3.622539E+04  1.662941E+05  8.346389E+02 -1.310428E+03  1.759678E+05
        72   6 -8.791426E+03  2.858284E+04  1.104935E+05 -2.419562E+03 -7.472085E+02  8.476681E+04
        72   7  2.658568E+05 -1.060461E+05  3.585972E+05  5.577005E+03 -1.825476E+03  2.671300E+05
        72   8 -1.062635E+05 -1.705685E+05  1.327028E+05  2.990083E+03 -1.309893E+03  1.759481E+05
        72   9 -4.223731E+04 -1.054037E+05  7.700948E+04 -3.855444E+03 -7.475106E+02  8.476329E+04
        72  10  3.333639E+05  1.632507E+05  4.258294E+05 -5.918152E+03  1.556272E-09  1.432596E-11
        72  11 -3.901722E+04  9.810083E+04  1.998257E+05 -1.321050E+03  8.976071E-10 -1.367751E-11
        72  12  2.465119E+04  1.625780E+05  1.439627E+05 -9.832772E+02 -7.471197E-10 -1.787268E-10
        72  13  2.996014E+05  2.855575E+04  3.921469E+05 -1.697679E+02  3.651483E-09 -3.928283E-12
        72  14 -7.264386E+04 -3.625864E+04  1.662359E+05  8.348246E+02  3.350482E-09 -6.709701E-12
        72  15 -8.793355E+03  2.857512E+04  1.104800E+05 -2.419511E+03 -2.977572E-09 -5.720839E-11
        72  16  2.658377E+05 -1.061227E+05  3.584630E+05  5.577398E+03 -2.753188E-09 -2.669123E-11
        72  17 -1.062718E+05 -1.706017E+05  1.326446E+05  2.990269E+03 -1.196692E-09  3.112074E-11
        72  18 -4.223924E+04 -1.054114E+05  7.699598E+04 -3.855393E+03  4.023795E-09  1.041174E-10
        72  19  3.333831E+05  1.633273E+05  4.259635E+05 -5.918545E+03  1.830317E+03 -2.672018E+05
        72  20 -3.900891E+04  9.813408E+04  1.998839E+05 -1.321236E+03  1.310964E+03 -1.759875E+05
        72  21  2.465312E+04  1.625857E+05  1.439762E+05 -9.833282E+02  7.469064E+02 -8.477032E+04
        72  22  2.996206E+05  2.863238E+04  3.922810E+05 -1.701609E+02  1.827897E+03 -2.671659E+05
        72  23 -7.263555E+04 -3.622539E+04  1.662941E+05  8.346389E+02  1.310428E+03 -1.759678E+05
        72  24 -8.791426E+03  2.858284E+04  1.104935E+05 -2.419562E+03  7.472085E+02 -8.476681E+04
        72  25  2.658568E+05 -1.060461E+05  3.585972E+05  5.577005E+03  1.825476E+03 -2.671300E+05
        72  26 -1.062635E+05 -1.705685E+05  1.327028E+05  2.990083E+03  1.309893E+03 -1.759481E+05
        72  27 -4.223731E+04 -1.054037E+05  7.700948E+04 -3.855444E+03  7.475106E+02 -8.476329E+04
        73   1  5.008482E+04  1.763780E+04  9.439953E+04 -2.297627E+03 -6.776416E+02  6.635894E+04
        73   2 -8.110577E+03  7.298731E+03  4.628940E+04  5.977940E+02 -4.715644E+02  4.370899E+04
        73   3  2.038355E+03  1.692644E+04  3.000046E+04 -1.670403E+03 -2.653375E+02  2.105925E+04
        73   4  4.670862E+04  4.221813E+03  9.104214E+04 -1.432343E+03 -6.775624E+02  6.635907E+04
        73   5 -1.138317E+04 -5.765902E+03  4.302234E+04  8.833403E+02 -4.715583E+02  4.370954E+04
        73   6 -1.129934E+03  4.213508E+03  2.682392E+04 -1.964597E+03 -2.653623E+02  2.106022E+04
        73   7  4.333240E+04 -9.194008E+03  8.768474E+04 -5.670764E+02 -6.774832E+02  6.635920E+04
        73   8 -1.465578E+04 -1.883038E+04  3.975527E+04  1.168881E+03 -4.715522E+02  4.371010E+04
        73   9 -4.298234E+03 -8.499279E+03  2.364736E+04 -2.258784E+03 -2.653871E+02  2.106119E+04
        73  10  5.008364E+04  1.763307E+04  9.439125E+04 -2.297591E+03  2.235063E-10 -2.448491E-12
        73  11 -8.111090E+03  7.296680E+03  4.628581E+04  5.978106E+02  4.882416E-10 -9.595164E-12
        73  12  2.038236E+03  1.692596E+04  2.999962E+04 -1.670399E+03 -1.937738E-09 -6.384641E-11
        73  13  4.670743E+04  4.217085E+03  9.103386E+04 -1.432306E+03  5.483089E-09 -4.585348E-11
        73  14 -1.138369E+04 -5.767953E+03  4.301875E+04  8.833569E+02  8.064966E-09  6.055501E-11
        73  15 -1.130053E+03  4.213031E+03  2.682308E+04 -1.964592E+03 -1.220520E-09  6.670195E-11
        73  16  4.333122E+04 -9.198736E+03  8.767647E+04 -5.670401E+02 -1.074237E-09  1.828249E-11
        73  17 -1.465630E+04 -1.883243E+04  3.975168E+04  1.168898E+03  1.675011E-09 -1.356246E-11
        73  18 -4.298353E+03 -8.499755E+03  2.364653E+04 -2.258780E+03 -7.983807E-10  2.947973E-11
        73  19  5.008482E+04  1.763780E+04  9.439953E+04 -2.297627E+03  6.776416E+02 -6.635894E+04
        73  20 -8.110577E+03  7.298731E+03  4.628940E+04  5.977940E+02  4.715644E+02 -4.370899E+04
        73  21  2.038355E+03  1.692644E+04  3.000046E+04 -1.670403E+03  2.653375E+02 -2.105925E+04
        73  22  4.670862E+04  4.221813E+03  9.104214E+04 -1.432343E+03  6.775624E+02 -6.635907E+04
        73  23 -1.138317E+04 -5.765902E+03  4.302234E+04  8.833403E+02  4.715583E+02 -4.370954E+04
        73  24 -1.129934E+03  4.213508E+03  2.682392E+04 -1.964597E+03  2.653623E+02 -2.106022E+04
        73  25  4.333240E+04 -9.194008E+03  8.768474E+04 -5.670764E+02  6.774832E+02 -6.635920E+04
        73  26 -1.465578E+04 -1.883038E+04  3.975527E+04  1.168881E+03  4.715522E+02 -4.371010E+04
        73  27 -4.298234E+03 -8.499279E+03  2.364736E+04 -2.258784E+03  2.653871E+02 -2.106119E+04
        74   1 -1.994277E+04 -1.076200E+05 -5.698584E+03 -1.047317E+03 -2.949367E+02  1.660186E+04
        74   2 -3.012912E+04 -1.131857E+05 -1.756309E+04  1.738669E+03 -3.194661E+02  1.127426E+04
        74   3 -2.471465E+04 -1.083377E+05 -2.089449E+04 -1.096146E+03 -1.301291E+02  5.948842E+03
        74   4  7.495015E+03  2.089003E+03  2.173029E+04 -1.835543E+03 -2.950053E+02  1.660845E+04
        74   5 -2.600892E+03 -3.116091E+03  9.954756E+03  9.453725E+02 -3.194698E+02  1.127490E+04
        74   6  2.904050E+03  2.093398E+03  6.715606E+03 -1.894460E+03 -1.300849E+02  5.943522E+03
        74   7  3.493189E+04  1.118089E+05  4.915826E+04 -2.623878E+03 -2.950739E+02  1.661505E+04
        74   8  2.492642E+04  1.069645E+05  3.747168E+04  1.519619E+02 -3.194735E+02  1.127553E+04
        74   9  3.052183E+04  1.125355E+05  3.432478E+04 -2.692894E+03 -1.300408E+02  5.938200E+03
        74  10 -1.994284E+04 -1.076203E+05 -5.699102E+03 -1.047313E+03 -7.170452E-09 -1.406086E-10
        74  11 -3.012916E+04 -1.131858E+05 -1.756333E+04  1.738672E+03 -5.012008E-09 -9.745639E-11
        74  12 -2.471466E+04 -1.083377E+05 -2.089456E+04 -1.096145E+03  7.437073E-10  4.448240E-11
        74  13  7.494941E+03  2.088707E+03  2.172977E+04 -1.835539E+03 -1.016576E-08 -5.011919E-11
        74  14 -2.600926E+03 -3.116227E+03  9.954517E+03  9.453754E+02 -7.039105E-09  4.869841E-12
        74  15  2.904041E+03  2.093360E+03  6.715539E+03 -1.894460E+03 -3.040525E-09 -2.301699E-11
        74  16  3.493181E+04  1.118086E+05  4.915774E+04 -2.623874E+03 -5.151669E-09  5.730825E-11
        74  17  2.492639E+04  1.069644E+05  3.747144E+04  1.519648E+02 -5.375827E-09  3.872799E-11
        74  18  3.052182E+04  1.125355E+05  3.432471E+04 -2.692894E+03  3.117806E-09 -8.819372E-11
        74  19 -1.994277E+04 -1.076200E+05 -5.698584E+03 -1.047317E+03  2.949367E+02 -1.660186E+04
        74  20 -3.012912E+04 -1.131857E+05 -1.756309E+04  1.738669E+03  3.194661E+02 -1.127426E+04
        74  21 -2.471465E+04 -1.083377E+05 -2.089449E+04 -1.096146E+03  1.301291E+02 -5.948842E+03
        74  22  7.495015E+03  2.089003E+03  2.173029E+04 -1.835543E+03  2.950053E+02 -1.660845E+04
        74  23 -2.600892E+03 -3.116091E+03  9.954756E+03  9.453725E+02  3.194698E+02 -1.127490E+04
        74  24  2.904050E+03  2.093398E+03  6.715606E+03 -1.894460E+03  1.300849E+02 -5.943522E+03
        74  25  3.493189E+04  1.118089E+05  4.915826E+04 -2.623878E+03  2.950739E+02 -1.661505E+04
        74  26  2.492642E+04  1.069645E+05  3.747168E+04  1.519619E+02  3.194735E+02 -1.127553E+04
        74  27  3.052183E+04  1.125355E+05  3.432478E+04 -2.692894E+03  1.300408E+02 -5.938200E+03
        75   1 -9.951718E+06 -3.125013E+06 -2.019299E+06 -3.475271E+06 -1.053711E+06 -3.866359E+05
        75   2 -9.719196E+06 -1.615195E+06 -1.052496E+06 -3.733961E+06 -6.825648E+05 -2.120487E+05
        75   3 -1.013340E+07 -1.629587E+06 -7.956678E+05 -3.572805E+06 -3.001994E+05 -6.687240E+04
        75   4 -8.807550E+06 -2.376481E+06 -1.640864E+06 -2.849532E+06 -1.037769E+06 -3.812015E+05
        75   5 -8.396837E+06 -1.024419E+06 -6.782206E+05 -3.284117E+06 -6.778375E+05 -2.103713E+05
        75   6 -8.629468E+06 -1.192518E+06 -4.155343E+05 -3.299266E+06 -3.065809E+05 -6.922320E+04
        75   7 -7.661852E+06 -1.626880E+06 -1.262543E+06 -2.222479E+06 -1.021794E+06 -3.757329E+05
        75   8 -7.072737E+06 -4.333353E+05 -3.041134E+05 -2.833323E+06 -6.730974E+05 -2.086872E+05
        75   9 -7.123290E+06 -7.554971E+05 -3.556574E+04 -3.025220E+06 -3.129788E+05 -7.157686E+04
        75  10 -9.952968E+06 -3.125481E+06 -2.021710E+06 -3.475603E+06  1.203966E-09 -2.940361E-10
        75  11 -9.719715E+06 -1.615372E+06 -1.053474E+06 -3.734079E+06 -4.711196E-09 -2.243221E-09
        75  12 -1.013350E+07 -1.629617E+06 -7.958488E+05 -3.572821E+06  6.131205E-09 -3.791731E-09
        75  13 -8.808761E+06 -2.376934E+06 -1.643198E+06 -2.849854E+06 -2.316286E-09  1.486145E-10
        75  14 -8.397349E+06 -1.024593E+06 -6.791823E+05 -3.284233E+06 -9.893174E-10 -1.097389E-09
        75  15 -8.629572E+06 -1.192549E+06 -4.157229E+05 -3.299283E+06  7.856224E-09 -3.397606E-09
        75  16 -7.663024E+06 -1.627318E+06 -1.264801E+06 -2.222791E+06  5.597347E-10  5.825930E-10
        75  17 -7.073240E+06 -4.335063E+05 -3.050592E+05 -2.833437E+06 -1.649124E-09  2.127984E-11
        75  18 -7.123398E+06 -7.555294E+05 -3.576202E+04 -3.025238E+06  5.391188E-10 -3.192066E-09
        75  19 -9.951718E+06 -3.125013E+06 -2.019299E+06 -3.475271E+06  1.053711E+06  3.866359E+05
        75  20 -9.719196E+06 -1.615195E+06 -1.052496E+06 -3.733961E+06  6.825648E+05  2.120487E+05
        75  21 -1.013340E+07 -1.629587E+06 -7.956678E+05 -3.572805E+06  3.001994E+05  6.687240E+04
        75  22 -8.807550E+06 -2.376481E+06 -1.640864E+06 -2.849532E+06  1.037769E+06  3.812015E+05
        75  23 -8.396837E+06 -1.024419E+06 -6.782206E+05 -3.284117E+06  6.778375E+05  2.103713E+05
        75  24 -8.629468E+06 -1.192518E+06 -4.155343E+05 -3.299266E+06  3.065809E+05  6.922320E+04
        75  25 -7.661852E+06 -1.626880E+06 -1.262543E+06 -2.222479E+06  1.021794E+06  3.757329E+05
        75  26 -7.072737E+06 -4.333353E+05 -3.041134E+05 -2.833323E+06  6.730974E+05  2.086872E+05
        75  27 -7.123290E+06 -7.554971E+05 -3.556574E+04 -3.025220E+06  3.129788E+05  7.157686E+04
        76   1 -9.904743E+06 -1.927595E+06 -7.094172E+05 -3.612821E+06 -2.462834E+05 -5.136266E+04
        76   2 -9.833801E+06 -1.699442E+06 -5.122223E+05 -3.601049E+06 -1.618290E+05 -1.829682E+04
        76   3 -9.799468E+06 -1.699110E+06 -4.291623E+05 -3.589161E+06 -7.573419E+04  1.044963E+04
        76   4 -8.565078E+06 -1.382432E+06 -3.393830E+05 -3.211275E+06 -2.454192E+05 -5.105845E+04
        76   5 -8.536316E+06 -1.197309E+06 -1.596646E+05 -3.238172E+06 -1.625134E+05 -1.856453E+04
        76   6 -8.543686E+06 -1.239441E+06 -9.264410E+04 -3.264986E+06 -7.797521E+04  9.602777E+03
        76   7 -7.223652E+06 -8.370872E+05  3.048289E+04 -2.808905E+06 -2.445524E+05 -5.075309E+04
        76   8 -7.237181E+06 -6.950570E+05  1.927401E+05 -2.874590E+06 -1.631991E+05 -1.883274E+04
        76   9 -7.286359E+06 -7.797048E+05  2.437359E+05 -2.940219E+06 -8.022118E+04  8.754230E+03
        76  10 -9.904810E+06 -1.927615E+06 -7.095383E+05 -3.612832E+06  1.778528E-09 -3.874133E-09
        76  11 -9.833830E+06 -1.699450E+06 -5.122730E+05 -3.601052E+06  5.270450E-09 -5.957062E-10
        76  12 -9.799474E+06 -1.699111E+06 -4.291734E+05 -3.589160E+06  2.079737E-09  4.639676E-10
        76  13 -8.565144E+06 -1.382451E+06 -3.395029E+05 -3.211285E+06  1.164788E-09 -3.752066E-09
        76  14 -8.536345E+06 -1.197317E+06 -1.597156E+05 -3.238174E+06 -2.662145E-09 -1.530071E-09
        76  15 -8.543692E+06 -1.239443E+06 -9.265583E+04 -3.264985E+06 -5.536102E-09  2.034751E-11
        76  16 -7.223717E+06 -8.371063E+05  3.036413E+04 -2.808916E+06  3.882469E-09 -3.117564E-09
        76  17 -7.237210E+06 -6.950646E+05  1.926888E+05 -2.874592E+06 -7.830464E-09 -3.981265E-09
        76  18 -7.286366E+06 -7.797066E+05  2.437235E+05 -2.940218E+06 -7.178029E-09 -1.137989E-09
        76  19 -9.904743E+06 -1.927595E+06 -7.094172E+05 -3.612821E+06  2.462834E+05  5.136266E+04
        76  20 -9.833801E+06 -1.699442E+06 -5.122223E+05 -3.601049E+06  1.618290E+05  1.829682E+04
        76  21 -9.799468E+06 -1.699110E+06 -4.291623E+05 -3.589161E+06  7.573419E+04 -1.044963E+04
        76  22 -8.565078E+06 -1.382432E+06 -3.393830E+05 -3.211275E+06  2.454192E+05  5.105845E+04
        76  23 -8.536316E+06 -1.197309E+06 -1.596646E+05 -3.238172E+06  1.625134E+05  1.856453E+04
        76  24 -8.543686E+06 -1.239441E+06 -9.264410E+04 -3.264986E+06  7.797521E+04 -9.602777E+03
        76  25 -7.223652E+06 -8.370872E+05  3.048289E+04 -2.808905E+06  2.445524E+05  5.075309E+04
        76  26 -7.237181E+06 -6.950570E+05  1.927401E+05 -2.874590E+06  1.631991E+05  1.883274E+04
        76  27 -7.286359E+06 -7.797048E+05  2.437359E+05 -2.940219E+06  8.022118E+04 -8.754230E+03
        77   1 -9.593675E+06 -1.678649E+06 -3.615955E+05 -3.557534E+06 -6.209529E+04  1.243787E+04
        77   2 -9.505803E+06 -1.564593E+06 -2.915509E+05 -3.476472E+06 -4.101788E+04  1.532717E+04
        77   3 -9.340538E+06 -1.559573E+06 -2.418469E+05 -3.489061E+06 -1.941970E+04  1.679974E+04
        77   4 -8.526663E+06 -1.270694E+06 -7.286242E+04 -3.264097E+06 -6.363537E+04  1.185447E+04
        77   5 -8.564083E+06 -1.207480E+06 -3.712190E+04 -3.220522E+06 -4.309037E+04  1.454699E+04
        77   6 -8.524006E+06 -1.253160E+06 -2.126418E+04 -3.270597E+06 -2.202938E+04  1.582200E+04
        77   7 -7.458535E+06 -8.626668E+05  2.157681E+05 -2.970193E+06 -6.517833E+04  1.126997E+04
        77   8 -7.621496E+06 -8.503140E+05  2.172272E+05 -2.964215E+06 -4.516632E+04  1.376551E+04
        77   9 -7.706824E+06 -9.467108E+05  1.992582E+05 -3.051869E+06 -2.464286E+04  1.484287E+04
        77  10 -9.593680E+06 -1.678650E+06 -3.616031E+05 -3.557534E+06 -2.387329E-09 -1.668582E-09
        77  11 -9.505804E+06 -1.564593E+06 -2.915546E+05 -3.476471E+06 -5.709142E-10 -1.130968E-09
        77  12 -9.340539E+06 -1.559574E+06 -2.418481E+05 -3.489061E+06  5.787145E-10 -4.356910E-10
        77  13 -8.526667E+06 -1.270696E+06 -7.287037E+04 -3.264096E+06 -7.196643E-09 -6.787052E-11
        77  14 -8.564085E+06 -1.207480E+06 -3.712581E+04 -3.220521E+06 -7.040346E-09 -4.013696E-10
        77  15 -8.524007E+06 -1.253160E+06 -2.126556E+04 -3.270596E+06 -3.415259E-09 -5.637723E-10
        77  16 -7.458540E+06 -8.626681E+05  2.157598E+05 -2.970193E+06  1.339058E-09  1.218894E-09
        77  17 -7.621499E+06 -8.503147E+05  2.172230E+05 -2.964214E+06  8.127967E-09  6.255810E-10
        77  18 -7.706825E+06 -9.467112E+05  1.992567E+05 -3.051869E+06 -1.949083E-09 -2.479573E-09
        77  19 -9.593675E+06 -1.678649E+06 -3.615955E+05 -3.557534E+06  6.209529E+04 -1.243787E+04
        77  20 -9.505803E+06 -1.564593E+06 -2.915509E+05 -3.476472E+06  4.101788E+04 -1.532717E+04
        77  21 -9.340538E+06 -1.559573E+06 -2.418469E+05 -3.489061E+06  1.941970E+04 -1.679974E+04
        77  22 -8.526663E+06 -1.270694E+06 -7.286242E+04 -3.264097E+06  6.363537E+04 -1.185447E+04
        77  23 -8.564083E+06 -1.207480E+06 -3.712190E+04 -3.220522E+06  4.309037E+04 -1.454699E+04
        77  24 -8.524006E+06 -1.253160E+06 -2.126418E+04 -3.270597E+06  2.202938E+04 -1.582200E+04
        77  25 -7.458535E+06 -8.626668E+05  2.157681E+05 -2.970193E+06  6.517833E+04 -1.126997E+04
        77  26 -7.621496E+06 -8.503140E+05  2.172272E+05 -2.964215E+06  4.516632E+04 -1.376551E+04
        77  27 -7.706824E+06 -9.467108E+05  1.992582E+05 -3.051869E+06  2.464286E+04 -1.484287E+04
        78   1 -9.060526E+06 -1.466892E+06 -1.628203E+05 -3.423009E+06 -1.499212E+04  1.414971E+04
        78   2 -8.949396E+06 -1.344746E+06 -1.114529E+05 -3.313305E+06 -7.375751E+03  9.489609E+03
        78   3 -8.727073E+06 -1.338471E+06 -6.474976E+04 -3.332911E+06  4.145471E+02  4.346482E+03
        78   4 -8.517388E+06 -1.261595E+06 -1.676466E+04 -3.275897E+06 -1.753275E+04  1.319978E+04
        78   5 -8.572820E+06 -1.202635E+06 -9.877401E+03 -3.211619E+06 -1.010506E+04  8.470738E+03
        78   6 -8.517056E+06 -1.259504E+06 -7.498780E+03 -3.276660E+06 -2.505100E+03  3.258349E+03
        78   7 -7.973959E+06 -1.056280E+06  1.292653E+05 -3.128665E+06 -2.007586E+04  1.224892E+04
        78   8 -8.196106E+06 -1.060516E+06  9.168527E+04 -3.109878E+06 -1.283621E+04  7.451181E+03
        78   9 -8.306997E+06 -1.180534E+06  4.974784E+04 -3.220391E+06 -5.425829E+03  2.169816E+03
        78  10 -9.060526E+06 -1.466892E+06 -1.628211E+05 -3.423009E+06 -1.556881E-10  6.738348E-10
        78  11 -8.949397E+06 -1.344746E+06 -1.114532E+05 -3.313304E+06 -8.774399E-10 -3.270052E-09
        78  12 -8.727073E+06 -1.338471E+06 -6.474980E+04 -3.332911E+06  7.648546E-10  3.844619E-10
        78  13 -8.517388E+06 -1.261595E+06 -1.676557E+04 -3.275896E+06 -2.318979E-09 -8.773167E-10
        78  14 -8.572821E+06 -1.202635E+06 -9.877728E+03 -3.211619E+06 -7.570034E-09 -9.747059E-10
        78  15 -8.517056E+06 -1.259504E+06 -7.498811E+03 -3.276660E+06 -3.501074E-09  1.724494E-09
        78  16 -7.973959E+06 -1.056280E+06  1.292642E+05 -3.128665E+06 -1.186200E-09 -1.569063E-09
        78  17 -8.196107E+06 -1.060516E+06  9.168485E+04 -3.109878E+06 -2.727661E-09  6.115100E-12
        78  18 -8.306997E+06 -1.180534E+06  4.974778E+04 -3.220391E+06 -4.917625E-09  1.189892E-09
        78  19 -9.060526E+06 -1.466892E+06 -1.628203E+05 -3.423009E+06  1.499212E+04 -1.414971E+04
        78  20 -8.949396E+06 -1.344746E+06 -1.114529E+05 -3.313305E+06  7.375751E+03 -9.489609E+03
        78  21 -8.727073E+06 -1.338471E+06 -6.474976E+04 -3.332911E+06 -4.145471E+02 -4.346482E+03
        78  22 -8.517388E+06 -1.261595E+06 -1.676466E+04 -3.275897E+06  1.753275E+04 -1.319978E+04
        78  23 -8.572820E+06 -1.202635E+06 -9.877401E+03 -3.211619E+06  1.010506E+04 -8.470738E+03
        78  24 -8.517056E+06 -1.259504E+06 -7.498780E+03 -3.276660E+06  2.505100E+03 -3.258349E+03
        78  25 -7.973959E+06 -1.056280E+06  1.292653E+05 -3.128665E+06  2.007586E+04 -1.224892E+04
        78  26 -8.196106E+06 -1.060516E+06  9.168527E+04 -3.109878E+06  1.283621E+04 -7.451181E+03
        78  27 -8.306997E+06 -1.180534E+06  4.974784E+04 -3.220391E+06  5.425829E+03 -2.169816E+03
        79   1 -8.415226E+06 -1.221992E+06  2.064179E+04 -3.250174E+06  3.221306E+03  5.087027E+02
        79   2 -8.302173E+06 -1.099764E+06  6.442260E+04 -3.137683E+06  1.011508E+04 -5.041244E+03
        79   3 -8.075670E+06 -1.095041E+06  1.043279E+05 -3.157101E+06  1.688220E+04 -1.023159E+04
        79   4 -8.516579E+06 -1.260038E+06 -7.306055E+03 -3.277178E+06  2.994418E+02 -5.800600E+02
        79   5 -8.573404E+06 -1.202078E+06 -8.703538E+03 -3.210919E+06  7.334401E+03 -6.078643E+03
        79   6 -8.516832E+06 -1.261658E+06 -1.408832E+04 -3.276585E+06  1.424138E+04 -1.121793E+04
        79   7 -8.617922E+06 -1.298083E+06 -3.525490E+04 -3.304177E+06 -2.621899E+03 -1.668631E+03
        79   8 -8.844565E+06 -1.304389E+06 -8.183663E+04 -3.284125E+06  4.555064E+03 -7.115543E+03
        79   9 -8.957808E+06 -1.428264E+06 -1.325228E+05 -3.395992E+06  1.160262E+04 -1.220349E+04
        79  10 -8.415226E+06 -1.221992E+06  2.064177E+04 -3.250174E+06  4.792767E-09  3.093121E-09
        79  11 -8.302173E+06 -1.099764E+06  6.442236E+04 -3.137683E+06  6.318553E-09  8.670384E-11
        79  12 -8.075670E+06 -1.095041E+06  1.043272E+05 -3.157101E+06 -2.082624E-09 -7.309561E-10
        79  13 -8.516579E+06 -1.260038E+06 -7.306056E+03 -3.277178E+06 -7.076829E-09  1.417043E-09
        79  14 -8.573404E+06 -1.202078E+06 -8.703708E+03 -3.210918E+06 -4.583501E-09 -4.178526E-10
        79  15 -8.516832E+06 -1.261658E+06 -1.408894E+04 -3.276585E+06  1.444399E-09 -2.681859E-10
        79  16 -8.617922E+06 -1.298083E+06 -3.525492E+04 -3.304177E+06 -5.456288E-09  7.832603E-10
        79  17 -8.844565E+06 -1.304389E+06 -8.183676E+04 -3.284125E+06  2.648452E-09  1.447555E-09
        79  18 -8.957808E+06 -1.428265E+06 -1.325233E+05 -3.395992E+06 -5.571148E-10  1.046748E-09
        79  19 -8.415226E+06 -1.221992E+06  2.064179E+04 -3.250174E+06 -3.221306E+03 -5.087027E+02
        79  20 -8.302173E+06 -1.099764E+06  6.442260E+04 -3.137683E+06 -1.011508E+04  5.041244E+03
        79  21 -8.075670E+06 -1.095041E+06  1.043279E+05 -3.157101E+06 -1.688220E+04  1.023159E+04
        79  22 -8.516579E+06 -1.260038E+06 -7.306055E+03 -3.277178E+06 -2.994418E+02  5.800600E+02
        79  23 -8.573404E+06 -1.202078E+06 -8.703538E+03 -3.210919E+06 -7.334401E+03  6.078643E+03
        79  24 -8.516832E+06 -1.261658E+06 -1.408832E+04 -3.276585E+06 -1.424138E+04  1.121793E+04
        79  25 -8.617922E+06 -1.298083E+06 -3.525490E+04 -3.304177E+06  2.621899E+03  1.668631E+03
        79  26 -8.844565E+06 -1.304389E+06 -8.183663E+04 -3.284125E+06 -4.555064E+03  7.115543E+03
        79  27 -8.957808E+06 -1.428264E+06 -1.325228E+05 -3.395992E+06 -1.160262E+04  1.220349E+04
        80   1 -7.797353E+06 -9.825622E+05  1.780887E+05 -3.077893E+06  2.099704E+04 -1.316394E+04
        80   2 -7.706353E+06 -8.808680E+05  2.013612E+05 -2.985065E+06  3.833598E+04 -1.363240E+04
        80   3 -7.530321E+06 -8.898306E+05  2.086725E+05 -2.993731E+06  5.520238E+04 -1.278908E+04
        80   4 -8.522464E+06 -1.254520E+06 -1.768944E+04 -3.271976E+06  1.828569E+04 -1.417839E+04
        80   5 -8.566011E+06 -1.206357E+06 -3.057022E+04 -3.218545E+06  3.612671E+04 -1.446243E+04
        80   6 -8.524653E+06 -1.268978E+06 -5.983146E+04 -3.266624E+06  5.349127E+04 -1.343525E+04
        80   7 -9.247057E+06 -1.526448E+06 -2.135133E+05 -3.465850E+06  1.557789E+04 -1.519153E+04
        80   8 -9.424945E+06 -1.531800E+06 -2.625669E+05 -3.451728E+06  3.392083E+04 -1.529119E+04
        80   9 -9.518018E+06 -1.648062E+06 -3.284239E+05 -3.539114E+06  5.178316E+04 -1.408028E+04
        80  10 -7.797354E+06 -9.825625E+05  1.780876E+05 -3.077893E+06  3.814816E-09  1.200934E-09
        80  11 -7.706354E+06 -8.808686E+05  2.013581E+05 -2.985065E+06  6.215996E-09 -1.714643E-09
        80  12 -7.530324E+06 -8.898316E+05  2.086664E+05 -2.993731E+06 -5.849926E-09 -3.073780E-09
        80  13 -8.522465E+06 -1.254521E+06 -1.769044E+04 -3.271975E+06 -2.323933E-09 -3.951943E-10
        80  14 -8.566013E+06 -1.206357E+06 -3.057308E+04 -3.218545E+06 -1.492412E-09 -2.536696E-09
        80  15 -8.524656E+06 -1.268979E+06 -5.983722E+04 -3.266623E+06 -4.005998E-09 -1.640802E-09
        80  16 -9.247058E+06 -1.526449E+06 -2.135142E+05 -3.465850E+06 -7.582201E-09 -1.289862E-09
        80  17 -9.424946E+06 -1.531800E+06 -2.625695E+05 -3.451727E+06 -1.806986E-09 -1.359432E-10
        80  18 -9.518021E+06 -1.648063E+06 -3.284293E+05 -3.539113E+06  4.993777E-09  2.931894E-11
        80  19 -7.797353E+06 -9.825622E+05  1.780887E+05 -3.077893E+06 -2.099704E+04  1.316394E+04
        80  20 -7.706353E+06 -8.808680E+05  2.013612E+05 -2.985065E+06 -3.833598E+04  1.363240E+04
        80  21 -7.530321E+06 -8.898306E+05  2.086725E+05 -2.993731E+06 -5.520238E+04  1.278908E+04
        80  22 -8.522464E+06 -1.254520E+06 -1.768944E+04 -3.271976E+06 -1.828569E+04  1.417839E+04
        80  23 -8.566011E+06 -1.206357E+06 -3.057022E+04 -3.218545E+06 -3.612671E+04  1.446243E+04
        80  24 -8.524653E+06 -1.268978E+06 -5.983146E+04 -3.266624E+06 -5.349127E+04  1.343525E+04
        80  25 -9.247057E+06 -1.526448E+06 -2.135133E+05 -3.465850E+06 -1.557789E+04  1.519153E+04
        80  26 -9.424945E+06 -1.531800E+06 -2.625669E+05 -3.451728E+06 -3.392083E+04  1.529119E+04
        80  27 -9.518018E+06 -1.648062E+06 -3.284239E+05 -3.539114E+06 -5.178316E+04  1.408028E+04
        81   1 -7.339350E+06 -8.011801E+05  2.455954E+05 -2.953871E+06  6.797927E+04 -1.145559E+04
        81   2 -7.283805E+06 -7.150090E+05  2.099390E+05 -2.884527E+06  1.361543E+05  9.939040E+03
        81   3 -7.241180E+06 -8.304769E+05  8.335900E+04 -2.833203E+06  2.027214E+05  3.564297E+04
        81   4 -8.539786E+06 -1.242051E+06 -7.600419E+04 -3.265879E+06  6.555349E+04 -1.237082E+04
        81   5 -8.541861E+06 -1.199667E+06 -1.309893E+05 -3.234860E+06  1.353146E+05  9.614427E+03
        81   6 -8.557312E+06 -1.359455E+06 -2.783180E+05 -3.221848E+06  2.034592E+05  3.590462E+04
        81   7 -9.738819E+06 -1.682859E+06 -3.977317E+05 -3.577344E+06  6.313284E+04 -1.328428E+04
        81   8 -9.798372E+06 -1.684217E+06 -4.720612E+05 -3.584538E+06  1.344766E+05  9.290448E+03
        81   9 -9.871746E+06 -1.888272E+06 -6.401555E+05 -3.609716E+06  2.041948E+05  3.616534E+04
        81  10 -7.339355E+06 -8.011814E+05  2.455864E+05 -2.953870E+06 -4.838958E-10 -2.913221E-09
        81  11 -7.283825E+06 -7.150142E+05  2.099036E+05 -2.884528E+06  1.000026E-09  3.923971E-10
        81  12 -7.241225E+06 -8.304895E+05  8.327835E+04 -2.833209E+06 -2.936393E-09  5.365176E-10
        81  13 -8.539790E+06 -1.242052E+06 -7.601264E+04 -3.265878E+06 -2.161312E-09 -1.519115E-09
        81  14 -8.541881E+06 -1.199672E+06 -1.310244E+05 -3.234861E+06 -1.824873E-09 -1.754491E-09
        81  15 -8.557357E+06 -1.359468E+06 -2.783995E+05 -3.221854E+06 -8.296617E-10 -1.252408E-09
        81  16 -9.738823E+06 -1.682860E+06 -3.977396E+05 -3.577343E+06 -4.342413E-09 -2.213777E-09
        81  17 -9.798391E+06 -1.684222E+06 -4.720959E+05 -3.584539E+06 -6.996825E-09 -1.177184E-09
        81  18 -9.871791E+06 -1.888284E+06 -6.402377E+05 -3.609722E+06  4.955012E-10 -1.748748E-10
        81  19 -7.339350E+06 -8.011801E+05  2.455954E+05 -2.953871E+06 -6.797927E+04  1.145559E+04
        81  20 -7.283805E+06 -7.150090E+05  2.099390E+05 -2.884527E+06 -1.361543E+05 -9.939040E+03
        81  21 -7.241180E+06 -8.304769E+05  8.335900E+04 -2.833203E+06 -2.027214E+05 -3.564297E+04
        81  22 -8.539786E+06 -1.242051E+06 -7.600419E+04 -3.265879E+06 -6.555349E+04  1.237082E+04
        81  23 -8.541861E+06 -1.199667E+06 -1.309893E+05 -3.234860E+06 -1.353146E+05 -9.614427E+03
        81  24 -8.557312E+06 -1.359455E+06 -2.783180E+05 -3.221848E+06 -2.034592E+05 -3.590462E+04
        81  25 -9.738819E+06 -1.682859E+06 -3.977317E+05 -3.577344E+06 -6.313284E+04  1.328428E+04
        81  26 -9.798372E+06 -1.684217E+06 -4.720612E+05 -3.584538E+06 -1.344766E+05 -9.290448E+03
        81  27 -9.871746E+06 -1.888272E+06 -6.401555E+05 -3.609716E+06 -2.041948E+05 -3.616534E+04
        82   1 -7.130169E+06 -7.495323E+05  3.744891E+04 -2.999707E+06  2.607779E+05  5.201614E+04
        82   2 -7.082477E+06 -4.782508E+05 -1.803734E+05 -2.835531E+06  5.540560E+05  1.627193E+05
        82   3 -7.550949E+06 -1.456283E+06 -9.619001E+05 -2.335725E+06  8.357879E+05  3.037546E+05
        82   4 -8.612141E+06 -1.201619E+06 -3.407527E+05 -3.291585E+06  2.541012E+05  4.953372E+04
        82   5 -8.425183E+06 -1.060490E+06 -5.563686E+05 -3.275423E+06  5.588340E+05  1.644525E+05
        82   6 -8.757850E+06 -2.172792E+06 -1.345824E+06 -2.923255E+06  8.520746E+05  3.095431E+05
        82   7 -1.009195E+07 -1.653734E+06 -7.191212E+05 -3.582907E+06  2.474416E+05  4.705485E+04
        82   8 -9.766105E+06 -1.642458E+06 -9.325348E+05 -3.714385E+06  5.635993E+05  1.661793E+05
        82   9 -9.963157E+06 -2.888453E+06 -1.729887E+06 -3.509528E+06  8.683248E+05  3.153000E+05
        82  10 -7.130244E+06 -7.495538E+05  3.731429E+04 -2.999718E+06 -7.719188E-09  6.826693E-11
        82  11 -7.082817E+06 -4.783634E+05 -1.810085E+05 -2.835604E+06 -2.324879E-09  2.954193E-09
        82  12 -7.551732E+06 -1.456574E+06 -9.634063E+05 -2.335931E+06  3.094610E-09  1.068316E-09
        82  13 -8.612211E+06 -1.201639E+06 -3.408806E+05 -3.291595E+06 -1.107112E-09  1.787613E-09
        82  14 -8.425530E+06 -1.060605E+06 -5.570164E+05 -3.275498E+06  1.267022E-09  6.510396E-09
        82  15 -8.758665E+06 -2.173095E+06 -1.347394E+06 -2.923469E+06 -2.033940E-09  6.533553E-10
        82  16 -1.009202E+07 -1.653753E+06 -7.192426E+05 -3.582917E+06  4.333608E-09  2.210973E-09
        82  17 -9.766458E+06 -1.642575E+06 -9.331956E+05 -3.714462E+06 -4.776519E-09  1.022942E-09
        82  18 -9.964005E+06 -2.888768E+06 -1.731520E+06 -3.509751E+06 -1.701954E-09  1.572466E-09
        82  19 -7.130169E+06 -7.495323E+05  3.744891E+04 -2.999707E+06 -2.607779E+05 -5.201614E+04
        82  20 -7.082477E+06 -4.782508E+05 -1.803734E+05 -2.835531E+06 -5.540560E+05 -1.627193E+05
        82  21 -7.550949E+06 -1.456283E+06 -9.619001E+05 -2.335725E+06 -8.357879E+05 -3.037546E+05
        82  22 -8.612141E+06 -1.201619E+06 -3.407527E+05 -3.291585E+06 -2.541012E+05 -4.953372E+04
        82  23 -8.425183E+06 -1.060490E+06 -5.563686E+05 -3.275423E+06 -5.588340E+05 -1.644525E+05
        82  24 -8.757850E+06 -2.172792E+06 -1.345824E+06 -2.923255E+06 -8.520746E+05 -3.095431E+05
        82  25 -1.009195E+07 -1.653734E+06 -7.191212E+05 -3.582907E+06 -2.474416E+05 -4.705485E+04
        82  26 -9.766105E+06 -1.642458E+06 -9.325348E+05 -3.714385E+06 -5.635993E+05 -1.661793E+05
        82  27 -9.963157E+06 -2.888453E+06 -1.729887E+06 -3.509528E+06 -8.683248E+05 -3.153000E+05
        83   1  1.048577E+06  4.163580E+05  5.626697E+05 -5.104192E+03  4.215923E+05  2.476842E+03
        83   2  9.430788E+05 -1.710912E+05  2.055573E+05  1.169530E+04  2.777630E+05  1.167454E+03
        83   3  1.053825E+06 -6.917161E+04  1.194494E+05 -1.339322E+04  1.339312E+05  2.226803E+02
        83   4  1.276603E+06  4.731781E+05  6.195663E+05 -1.208866E+04  4.216813E+05  2.471955E+03
        83   5  1.168587E+06 -1.147900E+05  2.618541E+05  1.015541E+04  2.778144E+05  1.166692E+03
        83   6  1.276759E+06 -1.351141E+04  1.751037E+05 -9.488322E+03  1.339456E+05  2.235197E+02
        83   7  1.504675E+06  5.299945E+05  6.764589E+05 -1.907575E+04  4.217703E+05  2.467068E+03
        83   8  1.394140E+06 -5.849256E+04  3.181471E+05  8.614929E+03  2.778658E+05  1.165930E+03
        83   9  1.499738E+06  4.214510E+04  2.307542E+05 -5.582019E+03  1.339600E+05  2.243591E+02
        83  10  1.048387E+06  4.163104E+05  5.623362E+05 -5.105032E+03 -2.721177E-10 -1.239652E-08
        83  11  9.429961E+05 -1.711119E+05  2.054125E+05  1.169504E+04  2.041604E-09 -1.351682E-08
        83  12  1.053805E+06 -6.917642E+04  1.194157E+05 -1.339325E+04  1.250174E-09  5.232083E-08
        83  13  1.276412E+06  4.731305E+05  6.192328E+05 -1.208950E+04 -9.981247E-11 -1.848330E-09
        83  14  1.168504E+06 -1.148106E+05  2.617093E+05  1.015515E+04  1.664988E-10 -8.315310E-10
        83  15  1.276740E+06 -1.351622E+04  1.750700E+05 -9.488346E+03 -8.448514E-10  6.238292E-10
        83  16  1.504485E+06  5.299468E+05  6.761254E+05 -1.907659E+04  4.064390E-09  1.359900E-08
        83  17  1.394057E+06 -5.851322E+04  3.180023E+05  8.614669E+03  1.877334E-09  7.028644E-09
        83  18  1.499719E+06  4.214030E+04  2.307206E+05 -5.582044E+03 -3.253646E-09 -5.143963E-08
        83  19  1.048577E+06  4.163580E+05  5.626697E+05 -5.104192E+03 -4.215923E+05 -2.476842E+03
        83  20  9.430788E+05 -1.710912E+05  2.055573E+05  1.169530E+04 -2.777630E+05 -1.167454E+03
        83  21  1.053825E+06 -6.917161E+04  1.194494E+05 -1.339322E+04 -1.339312E+05 -2.226803E+02
        83  22  1.276603E+06  4.731781E+05  6.195663E+05 -1.208866E+04 -4.216813E+05 -2.471955E+03
        83  23  1.168587E+06 -1.147900E+05  2.618541E+05  1.015541E+04 -2.778144E+05 -1.166692E+03
        83  24  1.276759E+06 -1.351141E+04  1.751037E+05 -9.488322E+03 -1.339456E+05 -2.235197E+02
        83  25  1.504675E+06  5.299945E+05  6.764589E+05 -1.907575E+04 -4.217703E+05 -2.467068E+03
        83  26  1.394140E+06 -5.849256E+04  3.181471E+05  8.614929E+03 -2.778658E+05 -1.165930E+03
        83  27  1.499738E+06  4.214510E+04  2.307542E+05 -5.582019E+03 -1.339600E+05 -2.243591E+02
        84   1  1.243693E+06  7.524212E+04  1.457510E+05  6.387856E+02  1.047254E+05 -3.565594E+01
        84   2  1.227975E+06 -1.575083E+04  7.023550E+04 -9.940954E+02  6.881498E+04 -8.951709E+01
        84   3  1.243575E+06 -2.283597E+02  4.470688E+04 -1.238616E+03  3.290469E+04 -3.642107E+01
        84   4  1.235640E+06  7.323419E+04  1.437401E+05 -5.359696E+02  1.047211E+05 -3.585056E+01
        84   5  1.220007E+06 -1.773933E+04  6.824700E+04 -1.265606E+03  6.881364E+04 -8.954658E+01
        84   6  1.235693E+06 -2.197212E+03  4.273915E+04 -6.068706E+02  3.290632E+04 -3.638911E+01
        84   7  1.227586E+06  7.122627E+04  1.417292E+05 -1.710709E+03  1.047167E+05 -3.604516E+01
        84   8  1.212040E+06 -1.972783E+04  6.625850E+04 -1.537113E+03  6.881229E+04 -8.957606E+01
        84   9  1.227812E+06 -4.166067E+03  4.077141E+04  2.486643E+01  3.290795E+04 -3.635714E+01
        84  10  1.243681E+06  7.523918E+04  1.457304E+05  6.387886E+02 -6.355942E-09 -1.508773E-08
        84  11  1.227970E+06 -1.575210E+04  7.022662E+04 -9.940905E+02 -6.740414E-09 -7.331756E-08
        84  12  1.243574E+06 -2.286497E+02  4.470485E+04 -1.238615E+03  6.758877E-09  3.023261E-07
        84  13  1.235628E+06  7.323126E+04  1.437195E+05 -5.359665E+02  1.962543E-09  1.082809E-09
        84  14  1.220002E+06 -1.774060E+04  6.823812E+04 -1.265601E+03  8.999578E-09 -1.661330E-09
        84  15  1.235692E+06 -2.197502E+03  4.273712E+04 -6.068696E+02 -1.053795E-08 -3.393985E-10
        84  16  1.227575E+06  7.122333E+04  1.417086E+05 -1.710706E+03  4.307178E-09  1.549441E-08
        84  17  1.212035E+06 -1.972910E+04  6.624962E+04 -1.537108E+03  2.083276E-09  7.146665E-08
        84  18  1.227811E+06 -4.166357E+03  4.076938E+04  2.486739E+01 -1.456960E-08 -3.016948E-07
        84  19  1.243693E+06  7.524212E+04  1.457510E+05  6.387856E+02 -1.047254E+05  3.565594E+01
        84  20  1.227975E+06 -1.575083E+04  7.023550E+04 -9.940954E+02 -6.881498E+04  8.951709E+01
        84  21  1.243575E+06 -2.283599E+02  4.470688E+04 -1.238616E+03 -3.290469E+04  3.642107E+01
        84  22  1.235640E+06  7.323419E+04  1.437401E+05 -5.359696E+02 -1.047211E+05  3.585056E+01
        84  23  1.220007E+06 -1.773933E+04  6.824700E+04 -1.265606E+03 -6.881364E+04  8.954658E+01
        84  24  1.235693E+06 -2.197212E+03  4.273915E+04 -6.068706E+02 -3.290632E+04  3.638911E+01
        84  25  1.227586E+06  7.122627E+04  1.417292E+05 -1.710709E+03 -1.047167E+05  3.604516E+01
        84  26  1.212040E+06 -1.972783E+04  6.625850E+04 -1.537113E+03 -6.881229E+04  8.957606E+01
        84  27  1.227812E+06 -4.166067E+03  4.077141E+04  2.486642E+01 -3.290795E+04  3.635714E+01
        85   1  1.229604E+06  1.136829E+04  3.426726E+04 -7.237272E+02  2.589398E+04 -9.022124E+00
        85   2  1.226935E+06 -2.861514E+03  1.755002E+04 -8.435430E+02  1.684063E+04 -1.378586E+01
        85   3  1.229621E+06 -3.657023E+02  1.089999E+04 -1.005358E+03  7.787357E+03 -5.766270E+00
        85   4  1.229913E+06  1.144565E+04  3.434425E+04 -8.958637E+02  2.589356E+04 -9.028986E+00
        85   5  1.227240E+06 -2.785102E+03  1.762640E+04 -8.790804E+02  1.684052E+04 -1.378674E+01
        85   6  1.229924E+06 -2.902978E+02  1.097555E+04 -9.042961E+02  7.787549E+03 -5.765141E+00
        85   7  1.230221E+06  1.152301E+04  3.442125E+04 -1.068000E+03  2.589315E+04 -9.035848E+00
        85   8  1.227546E+06 -2.708691E+03  1.770278E+04 -9.146177E+02  1.684040E+04 -1.378762E+01
        85   9  1.230227E+06 -2.148934E+02  1.105110E+04 -8.032338E+02  7.787740E+03 -5.764014E+00
        85  10  1.229603E+06  1.136811E+04  3.426600E+04 -7.237190E+02  1.666038E-05  9.308915E-07
        85  11  1.226934E+06 -2.861590E+03  1.754949E+04 -8.435074E+02  7.377699E-05  1.309090E-06
        85  12  1.229621E+06 -3.657175E+02  1.089988E+04 -1.005295E+03  1.308757E-04 -9.020848E-08
        85  13  1.229912E+06  1.144547E+04  3.434299E+04 -8.958636E+02  4.154526E-05  7.108312E-08
        85  14  1.227240E+06 -2.785179E+03  1.762587E+04 -8.790802E+02  1.843221E-04  3.167086E-07
        85  15  1.229924E+06 -2.903139E+02  1.097543E+04 -9.042960E+02  3.271050E-04  5.643718E-07
        85  16  1.230221E+06  1.152283E+04  3.441999E+04 -1.068008E+03  1.657919E-05 -1.118586E-06
        85  17  1.227546E+06 -2.708768E+03  1.770225E+04 -9.146530E+02  7.368125E-05 -2.137501E-06
        85  18  1.230227E+06 -2.149109E+02  1.105099E+04 -8.032966E+02  1.308130E-04 -1.378270E-06
        85  19  1.229604E+06  1.136829E+04  3.426726E+04 -7.237112E+02 -2.589398E+04  9.022125E+00
        85  20  1.226935E+06 -2.861514E+03  1.755002E+04 -8.434722E+02 -1.684063E+04  1.378587E+01
        85  21  1.229621E+06 -3.657003E+02  1.090000E+04 -1.005233E+03 -7.787357E+03  5.766269E+00
        85  22  1.229913E+06  1.144565E+04  3.434425E+04 -8.958637E+02 -2.589356E+04  9.028986E+00
        85  23  1.227240E+06 -2.785103E+03  1.762640E+04 -8.790804E+02 -1.684052E+04  1.378674E+01
        85  24  1.229924E+06 -2.902976E+02  1.097555E+04 -9.042961E+02 -7.787548E+03  5.765142E+00
        85  25  1.230221E+06  1.152301E+04  3.442125E+04 -1.068016E+03 -2.589315E+04  9.035846E+00
        85  26  1.227546E+06 -2.708694E+03  1.770278E+04 -9.146885E+02 -1.684040E+04  1.378762E+01
        85  27  1.230227E+06 -2.148959E+02  1.105110E+04 -8.033594E+02 -7.787740E+03  5.764012E+00
        86   1  1.228988E+06  1.772424E+03  8.866982E+03 -8.646214E+02  5.984938E+03 -2.658284E+00
        86   2  1.228440E+06 -4.910012E+02  5.424158E+03 -8.893146E+02  3.245227E+03 -2.747072E+00
        86   3  1.228990E+06  2.153996E+02  4.504816E+03 -9.107431E+02  5.055643E+02 -6.029797E-01
        86   4  1.228976E+06  1.769400E+03  8.863900E+03 -8.905485E+02  5.984861E+03 -2.658476E+00
        86   5  1.228428E+06 -4.940185E+02  5.421141E+03 -8.927469E+02  3.245204E+03 -2.747071E+00
        86   6  1.228978E+06  2.123797E+02  4.501826E+03 -8.916809E+02  5.055949E+02 -6.029852E-01
        86   7  1.228964E+06  1.766376E+03  8.860818E+03 -9.164756E+02  5.984784E+03 -2.658670E+00
        86   8  1.228416E+06 -4.970357E+02  5.418124E+03 -8.961791E+02  3.245181E+03 -2.747071E+00
        86   9  1.228966E+06  2.093598E+02  4.498837E+03 -8.726186E+02  5.056254E+02 -6.029908E-01
        86  10  1.228988E+06  1.772416E+03  8.866915E+03 -8.645579E+02  1.322106E-04 -1.284712E-06
        86  11  1.228440E+06 -4.910029E+02  5.424139E+03 -8.892762E+02  7.988158E-05 -1.943208E-06
        86  12  1.228990E+06  2.154000E+02  4.504815E+03 -9.107299E+02  2.759930E-05 -1.193209E-06
        86  13  1.228976E+06  1.769390E+03  8.863832E+03 -8.905485E+02  3.306018E-04  5.567093E-07
        86  14  1.228428E+06 -4.940210E+02  5.421121E+03 -8.927469E+02  1.998366E-04  2.868004E-07
        86  15  1.228978E+06  2.123798E+02  4.501826E+03 -8.916809E+02  6.907401E-05  1.573628E-08
        86  16  1.228964E+06  1.766366E+03  8.860750E+03 -9.165390E+02  1.322639E-04 -1.802796E-07
        86  17  1.228416E+06 -4.970386E+02  5.418104E+03 -8.962175E+02  7.998791E-05  1.138431E-06
        86  18  1.228966E+06  2.093600E+02  4.498837E+03 -8.726319E+02  2.766181E-05  1.045505E-06
        86  19  1.228988E+06  1.772427E+03  8.866983E+03 -8.644944E+02 -5.984937E+03  2.658281E+00
        86  20  1.228440E+06 -4.909989E+02  5.424159E+03 -8.892379E+02 -3.245227E+03  2.747068E+00
        86  21  1.228990E+06  2.154005E+02  4.504816E+03 -9.107166E+02 -5.055643E+02  6.029773E-01
        86  22  1.228976E+06  1.769400E+03  8.863899E+03 -8.905485E+02 -5.984860E+03  2.658477E+00
        86  23  1.228428E+06 -4.940179E+02  5.421141E+03 -8.927469E+02 -3.245204E+03  2.747071E+00
        86  24  1.228978E+06  2.123800E+02  4.501826E+03 -8.916809E+02 -5.055948E+02  6.029852E-01
        86  25  1.228964E+06  1.766374E+03  8.860817E+03 -9.166025E+02 -5.984784E+03  2.658670E+00
        86  26  1.228416E+06 -4.970359E+02  5.418124E+03 -8.962559E+02 -3.245181E+03  2.747074E+00
        86  27  1.228966E+06  2.093604E+02  4.498837E+03 -8.726451E+02 -5.056254E+02  6.029929E-01
        87   1  1.228963E+06  2.252867E+02  4.468167E+03 -8.734833E+02 -3.091151E+02  5.565482E-01
        87   2  1.228432E+06 -4.787777E+02  5.240809E+03 -8.957935E+02 -2.958335E+03  2.297216E+00
        87   3  1.228961E+06  1.685596E+03  8.452789E+03 -9.158605E+02 -5.607600E+03  3.203875E+00
        87   4  1.228970E+06  2.269469E+02  4.469797E+03 -8.918807E+02 -3.091094E+02  5.565542E-01
        87   5  1.228439E+06 -4.771334E+02  5.242457E+03 -8.924716E+02 -2.958349E+03  2.297213E+00
        87   6  1.228968E+06  1.687228E+03  8.454468E+03 -8.908190E+02 -5.607634E+03  3.203676E+00
        87   7  1.228976E+06  2.286073E+02  4.471426E+03 -9.102782E+02 -3.091038E+02  5.565600E-01
        87   8  1.228445E+06 -4.754891E+02  5.244104E+03 -8.891497E+02 -2.958364E+03  2.297208E+00
        87   9  1.228975E+06  1.688860E+03  8.456147E+03 -8.657774E+02 -5.607669E+03  3.203474E+00
        87  10  1.228963E+06  2.252870E+02  4.468167E+03 -8.734819E+02  2.847935E-06 -9.164619E-07
        87  11  1.228432E+06 -4.787790E+02  5.240793E+03 -8.958079E+02 -3.009551E-05 -1.246318E-06
        87  12  1.228961E+06  1.685589E+03  8.452730E+03 -9.158908E+02 -6.308573E-05 -9.820186E-07
        87  13  1.228970E+06  2.269471E+02  4.469796E+03 -8.918807E+02  7.044684E-06  6.046776E-08
        87  14  1.228438E+06 -4.771356E+02  5.242440E+03 -8.924716E+02 -7.537226E-05  4.863792E-07
        87  15  1.228968E+06  1.687219E+03  8.454409E+03 -8.908189E+02 -1.577916E-04  9.125534E-07
        87  16  1.228976E+06  2.286075E+02  4.471426E+03 -9.102795E+02  2.783800E-06  8.026726E-07
        87  17  1.228445E+06 -4.754918E+02  5.244088E+03 -8.891352E+02 -3.019968E-05  5.954887E-07
        87  18  1.228975E+06  1.688850E+03  8.456088E+03 -8.657471E+02 -6.314823E-05 -1.985324E-07
        87  19  1.228963E+06  2.252874E+02  4.468167E+03 -8.734806E+02  3.091151E+02 -5.565500E-01
        87  20  1.228432E+06 -4.787757E+02  5.240810E+03 -8.958224E+02  2.958335E+03 -2.297219E+00
        87  21  1.228961E+06  1.685599E+03  8.452789E+03 -9.159211E+02  5.607599E+03 -3.203877E+00
        87  22  1.228970E+06  2.269473E+02  4.469796E+03 -8.918807E+02  3.091094E+02 -5.565541E-01
        87  23  1.228439E+06 -4.771330E+02  5.242457E+03 -8.924716E+02  2.958349E+03 -2.297212E+00
        87  24  1.228968E+06  1.687228E+03  8.454468E+03 -8.908189E+02  5.607634E+03 -3.203674E+00
        87  25  1.228976E+06  2.286077E+02  4.471426E+03 -9.102809E+02  3.091038E+02 -5.565584E-01
        87  26  1.228445E+06 -4.754898E+02  5.244104E+03 -8.891208E+02  2.958364E+03 -2.297206E+00
        87  27  1.228975E+06  1.688857E+03  8.456147E+03 -8.657168E+02  5.607669E+03 -3.203474E+00
        88   1  1.230024E+06 -2.345219E+02  1.047286E+04 -8.024585E+02 -7.323997E+03  5.406072E+00
        88   2  1.227470E+06 -2.617291E+03  1.673381E+04 -9.197605E+02 -1.590044E+04  1.232540E+01
        88   3  1.230017E+06  1.095563E+04  3.255945E+04 -1.055193E+03 -2.447695E+04  1.281092E+01
        88   4  1.229868E+06 -2.735010E+02  1.043374E+04 -8.988695E+02 -7.323902E+03  5.407140E+00
        88   5  1.227311E+06 -2.656877E+03  1.669426E+04 -8.857621E+02 -1.590050E+04  1.232458E+01
        88   6  1.229857E+06  1.091546E+04  3.251959E+04 -8.907859E+02 -2.447716E+04  1.280461E+01
        88   7  1.229711E+06 -3.124801E+02  1.039462E+04 -9.952805E+02 -7.323806E+03  5.408206E+00
        88   8  1.227153E+06 -2.696464E+03  1.665471E+04 -8.517637E+02 -1.590056E+04  1.232375E+01
        88   9  1.229697E+06  1.087530E+04  3.247972E+04 -7.263786E+02 -2.447737E+04  1.279829E+01
        88  10  1.230024E+06 -2.345351E+02  1.047276E+04 -8.024895E+02 -6.454577E-05 -3.540174E-07
        88  11  1.227469E+06 -2.617358E+03  1.673333E+04 -9.197778E+02 -3.640195E-05  5.306537E-07
        88  12  1.230016E+06  1.095547E+04  3.255833E+04 -1.055197E+03 -8.235970E-06  4.327776E-07
        88  13  1.229867E+06 -2.735153E+02  1.043364E+04 -8.988695E+02 -1.612905E-04  9.192114E-07
        88  14  1.227311E+06 -2.656945E+03  1.669378E+04 -8.857620E+02 -9.089375E-05  5.175672E-07
        88  15  1.229856E+06  1.091530E+04  3.251846E+04 -8.907857E+02 -2.048606E-05  1.166657E-07
        88  16  1.229711E+06 -3.124958E+02  1.039452E+04 -9.952495E+02 -6.448582E-05 -8.367636E-07
        88  17  1.227153E+06 -2.696533E+03  1.665424E+04 -8.517461E+02 -3.630337E-05 -1.200372E-06
        88  18  1.229696E+06  1.087514E+04  3.247860E+04 -7.263744E+02 -8.153432E-06 -5.855241E-07
        88  19  1.230024E+06 -2.345195E+02  1.047286E+04 -8.025205E+02  7.323997E+03 -5.406073E+00
        88  20  1.227470E+06 -2.617290E+03  1.673381E+04 -9.197954E+02  1.590044E+04 -1.232540E+01
        88  21  1.230017E+06  1.095563E+04  3.255945E+04 -1.055201E+03  2.447695E+04 -1.281092E+01
        88  22  1.229868E+06 -2.735009E+02  1.043374E+04 -8.988695E+02  7.323901E+03 -5.407139E+00
        88  23  1.227311E+06 -2.656878E+03  1.669426E+04 -8.857621E+02  1.590050E+04 -1.232458E+01
        88  24  1.229857E+06  1.091546E+04  3.251959E+04 -8.907859E+02  2.447716E+04 -1.280461E+01
        88  25  1.229711E+06 -3.124827E+02  1.039462E+04 -9.952186E+02  7.323806E+03 -5.408207E+00
        88  26  1.227153E+06 -2.696466E+03  1.665471E+04 -8.517288E+02  1.590056E+04 -1.232375E+01
        88  27  1.229697E+06  1.087530E+04  3.247972E+04 -7.263707E+02  2.447737E+04 -1.279829E+01
        89   1  1.231279E+06 -3.115553E+03  3.942264E+04 -1.472615E+02 -3.111566E+04  2.899346E+01
        89   2  1.216307E+06 -1.794284E+04  6.349089E+04 -1.350035E+03 -6.507812E+04  6.740794E+01
        89   3  1.231138E+06  6.879049E+04  1.350358E+05 -1.811316E+03 -9.904058E+04  5.114669E+01
        89   4  1.235357E+06 -2.096483E+03  4.044073E+04 -7.474525E+02 -3.111483E+04  2.902275E+01
        89   5  1.220429E+06 -1.691418E+04  6.451973E+04 -1.088095E+03 -6.507880E+04  6.738080E+01
        89   6  1.235306E+06  6.982863E+04  1.360762E+05 -6.872552E+02 -9.904277E+04  5.096915E+01
        89   7  1.239434E+06 -1.077413E+03  4.145883E+04 -1.347648E+03 -3.111399E+04  2.905204E+01
        89   8  1.224552E+06 -1.588552E+04  6.554856E+04 -8.261541E+02 -6.507947E+04  6.735366E+01
        89   9  1.239473E+06  7.086678E+04  1.371166E+05  4.368129E+02 -9.904497E+04  5.079159E+01
        89  10  1.231278E+06 -3.115812E+03  3.942082E+04 -1.472607E+02 -4.199106E-09  1.352323E-07
        89  11  1.216302E+06 -1.794397E+04  6.348295E+04 -1.350031E+03  8.574712E-09 -3.710619E-08
        89  12  1.231128E+06  6.878787E+04  1.350174E+05 -1.811312E+03 -4.260838E-09 -6.701988E-09
        89  13  1.235356E+06 -2.096742E+03  4.043892E+04 -7.474518E+02  2.171957E-09 -1.728791E-10
        89  14  1.220425E+06 -1.691531E+04  6.451179E+04 -1.088092E+03 -4.916005E-10 -5.500967E-10
        89  15  1.235295E+06  6.982601E+04  1.360578E+05 -6.872512E+02  2.942294E-09 -6.010196E-10
        89  16  1.239433E+06 -1.077672E+03  4.145701E+04 -1.347647E+03  3.254660E-09 -1.361600E-07
        89  17  1.224547E+06 -1.588666E+04  6.554062E+04 -8.261506E+02 -2.214353E-09  3.044192E-08
        89  18  1.239462E+06  7.086415E+04  1.370982E+05  4.368170E+02  9.017370E-11  5.231791E-09
        89  19  1.231279E+06 -3.115553E+03  3.942264E+04 -1.472615E+02  3.111566E+04 -2.899346E+01
        89  20  1.216307E+06 -1.794284E+04  6.349089E+04 -1.350035E+03  6.507812E+04 -6.740794E+01
        89  21  1.231138E+06  6.879049E+04  1.350358E+05 -1.811316E+03  9.904058E+04 -5.114669E+01
        89  22  1.235357E+06 -2.096483E+03  4.044073E+04 -7.474525E+02  3.111483E+04 -2.902275E+01
        89  23  1.220429E+06 -1.691418E+04  6.451973E+04 -1.088095E+03  6.507880E+04 -6.738080E+01
        89  24  1.235306E+06  6.982863E+04  1.360762E+05 -6.872552E+02  9.904277E+04 -5.096915E+01
        89  25  1.239434E+06 -1.077413E+03  4.145883E+04 -1.347648E+03  3.111399E+04 -2.905204E+01
        89  26  1.224552E+06 -1.588552E+04  6.554856E+04 -8.261541E+02  6.507947E+04 -6.735366E+01
        89  27  1.239473E+06  7.086678E+04  1.371166E+05  4.368129E+02  9.904497E+04 -5.079159E+01
        90   1  1.383988E+06  1.490343E+04  1.930469E+05 -1.589968E+03 -1.265053E+05 -7.031649E+01
        90   2  1.291965E+06 -7.934834E+04  2.773804E+05  2.912286E+03 -2.627466E+05 -4.803102E+02
        90   3  1.386360E+06  4.753201E+05  6.138771E+05 -1.366954E+04 -3.989847E+05 -1.050845E+03
        90   4  1.270179E+06 -1.350252E+04  1.646413E+05 -5.291002E+03 -1.264986E+05 -6.956057E+01
        90   5  1.176851E+06 -1.080834E+05  2.486485E+05  4.707101E+03 -2.627217E+05 -4.810826E+02
        90   6  1.269969E+06  4.463159E+05  5.848395E+05 -6.378374E+03 -3.989414E+05 -1.055553E+03
        90   7  1.156382E+06 -4.190939E+04  1.362347E+05 -8.991358E+03 -1.264920E+05 -6.880460E+01
        90   8  1.061749E+06 -1.368194E+05  2.199157E+05  6.501581E+03 -2.626969E+05 -4.818549E+02
        90   9  1.153591E+06  4.173108E+05  5.558008E+05  9.114250E+02 -3.988981E+05 -1.060260E+03
        90  10  1.383971E+06  1.489914E+04  1.930169E+05 -1.589975E+03  3.580894E-09  2.177523E-08
        90  11  1.291891E+06 -7.936682E+04  2.772510E+05  2.912185E+03  1.101890E-08 -1.154247E-08
        90  12  1.386189E+06  4.752775E+05  6.135786E+05 -1.366988E+04  3.118767E-09 -5.920985E-09
        90  13  1.270162E+06 -1.350681E+04  1.646113E+05 -5.291010E+03 -1.775500E-09 -2.913003E-09
        90  14  1.176777E+06 -1.081018E+05  2.485191E+05  4.707000E+03  6.802314E-10 -5.342602E-09
        90  15  1.269799E+06  4.462733E+05  5.845410E+05 -6.378713E+03 -8.285218E-10 -3.360858E-09
        90  16  1.156365E+06 -4.191368E+04  1.362047E+05 -8.991365E+03 -2.150413E-09 -2.495223E-08
        90  17  1.061675E+06 -1.368379E+05  2.197862E+05  6.501479E+03 -4.029703E-09 -6.815843E-10
        90  18  1.153420E+06  4.172682E+05  5.555023E+05  9.110849E+02 -4.560241E-09  3.668127E-10
        90  19  1.383988E+06  1.490343E+04  1.930469E+05 -1.589968E+03  1.265053E+05  7.031649E+01
        90  20  1.291965E+06 -7.934834E+04  2.773804E+05  2.912286E+03  2.627466E+05  4.803102E+02
        90  21  1.386360E+06  4.753201E+05  6.138771E+05 -1.366954E+04  3.989847E+05  1.050845E+03
        90  22  1.270179E+06 -1.350252E+04  1.646413E+05 -5.291002E+03  1.264986E+05  6.956057E+01
        90  23  1.176851E+06 -1.080834E+05  2.486485E+05  4.707101E+03  2.627217E+05  4.810826E+02
        90  24  1.269969E+06  4.463159E+05  5.848395E+05 -6.378374E+03  3.989414E+05  1.055553E+03
        90  25  1.156382E+06 -4.190939E+04  1.362347E+05 -8.991358E+03  1.264920E+05  6.880460E+01
        90  26  1.061749E+06 -1.368194E+05  2.199157E+05  6.501581E+03  2.626969E+05  4.818549E+02
        90  27  1.153591E+06  4.173108E+05  5.558008E+05  9.114250E+02  3.988981E+05  1.060260E+03
        91   1  3.615446E+05  1.391940E+05  4.031990E+05 -2.439429E+05 -3.241614E+02  2.433103E+05
        91   2  7.366478E+04  4.579291E+04  2.071653E+05 -1.277449E+05  2.303643E+03  1.398457E+05
        91   3  6.829076E+03  2.090012E+04  1.337336E+05 -2.637307E+04  8.383030E+02  3.636274E+04
        91   4  3.223835E+05 -5.901100E+03  3.675546E+05 -5.157820E+04 -2.123602E+02  2.376145E+05
        91   5  5.157340E+04 -3.965019E+04  1.885669E+05 -4.520740E+04  2.321094E+03  1.400129E+05
        91   6  7.662007E+02 -5.916413E+03  1.281232E+05 -5.364256E+04  7.977156E+02  4.238280E+04
        91   7  2.833595E+05 -1.508980E+05  3.319286E+05  1.407411E+05 -1.040691E+02  2.319200E+05
        91   8  2.950702E+04 -1.250719E+05  1.699717E+05  3.731853E+04  2.338591E+03  1.401800E+05
        91   9 -5.293893E+03 -3.273058E+04  1.225133E+05 -8.091085E+04  7.565984E+02  4.840260E+04
        91  10  3.615287E+05  1.391305E+05  4.030878E+05 -2.439429E+05  1.768547E-09  5.025595E-09
        91  11  7.365952E+04  4.577192E+04  2.071285E+05 -1.277452E+05  4.313695E-09 -3.608185E-09
        91  12  6.828720E+03  2.089870E+04  1.337311E+05 -2.637310E+04  3.267470E-09 -1.316980E-09
        91  13  3.223684E+05 -5.961713E+03  3.674485E+05 -5.157816E+04 -6.096141E-09  1.744675E-09
        91  14  5.156813E+04 -3.967124E+04  1.885300E+05 -4.520767E+04  4.390415E-09  1.468387E-10
        91  15  7.657178E+02 -5.918342E+03  1.281198E+05 -5.364258E+04  7.704318E-09  1.429272E-09
        91  16  2.833451E+05 -1.509557E+05  3.318275E+05  1.407411E+05 -3.195698E-10 -5.964085E-09
        91  17  2.950174E+04 -1.250930E+05  1.699347E+05  3.731827E+04  5.385085E-09  2.536182E-09
        91  18 -5.294523E+03 -3.273310E+04  1.225089E+05 -8.091088E+04  5.924952E-09  1.601102E-09
        91  19  3.615446E+05  1.391940E+05  4.031990E+05 -2.439429E+05  3.241614E+02 -2.433103E+05
        91  20  7.366478E+04  4.579291E+04  2.071653E+05 -1.277449E+05 -2.303643E+03 -1.398457E+05
        91  21  6.829076E+03  2.090012E+04  1.337336E+05 -2.637307E+04 -8.383030E+02 -3.636274E+04
        91  22  3.223835E+05 -5.901100E+03  3.675546E+05 -5.157820E+04  2.123602E+02 -2.376145E+05
        91  23  5.157340E+04 -3.965019E+04  1.885669E+05 -4.520740E+04 -2.321094E+03 -1.400129E+05
        91  24  7.662007E+02 -5.916413E+03  1.281232E+05 -5.364256E+04 -7.977156E+02 -4.238280E+04
        91  25  2.833595E+05 -1.508980E+05  3.319286E+05  1.407411E+05  1.040691E+02 -2.319200E+05
        91  26  2.950702E+04 -1.250719E+05  1.699717E+05  3.731853E+04 -2.338591E+03 -1.401800E+05
        91  27 -5.293893E+03 -3.273058E+04  1.225133E+05 -8.091085E+04 -7.565984E+02 -4.840260E+04
        92   1  8.845244E+03 -3.248120E+04  1.148152E+05 -6.256997E+04 -1.532404E+03  1.770082E+04
        92   2 -1.417194E+04 -1.000886E+05  1.038928E+05 -4.451908E+04 -4.768430E+03 -4.077516E+04
        92   3 -8.735036E+03 -1.532106E+05  1.381100E+05 -4.236330E+04 -7.744831E+03 -9.924532E+04
        92   4  1.213316E+04 -1.768063E+04  1.171577E+05 -5.353962E+04 -1.567074E+03  2.309428E+04
        92   5  3.683863E+03 -2.495220E+04  1.179620E+05 -4.555503E+04 -4.800683E+03 -3.576324E+04
        92   6  2.375232E+04 -1.767882E+04  1.641674E+05 -5.346429E+04 -7.772819E+03 -9.462037E+04
        92   7  1.542139E+04 -2.879597E+03  1.195003E+05 -4.450906E+04 -1.601586E+03  2.848787E+04
        92   8  2.153936E+04  5.018969E+04  1.320311E+05 -4.659111E+04 -4.832952E+03 -3.075073E+04
        92   9  5.623905E+04  1.178709E+05  1.902241E+05 -6.456773E+04 -7.800968E+03 -8.999444E+04
        92  10  8.845158E+03 -3.248154E+04  1.148146E+05 -6.256995E+04  3.140236E-09 -8.176277E-10
        92  11 -1.417241E+04 -1.000904E+05  1.038896E+05 -4.451924E+04  5.525726E-09 -8.526260E-09
        92  12 -8.737745E+03 -1.532212E+05  1.380914E+05 -4.236392E+04  2.023316E-09 -3.346571E-09
        92  13  1.213301E+04 -1.768120E+04  1.171567E+05 -5.353960E+04  8.100700E-09  1.809626E-09
        92  14  3.683495E+03 -2.495358E+04  1.179596E+05 -4.555517E+04  9.070843E-09  8.891652E-12
        92  15  2.374986E+04 -1.768844E+04  1.641505E+05 -5.346488E+04 -2.138022E-09  1.423766E-09
        92  16  1.542117E+04 -2.880469E+03  1.194988E+05 -4.450902E+04  1.635305E-09  2.019043E-10
        92  17  2.153908E+04  5.018867E+04  1.320293E+05 -4.659123E+04 -2.109558E-10  7.509804E-09
        92  18  5.623681E+04  1.178622E+05  1.902088E+05 -6.456830E+04 -5.092024E-10  3.162422E-09
        92  19  8.845244E+03 -3.248120E+04  1.148152E+05 -6.256997E+04  1.532404E+03 -1.770082E+04
        92  20 -1.417194E+04 -1.000886E+05  1.038928E+05 -4.451908E+04  4.768430E+03  4.077516E+04
        92  21 -8.735036E+03 -1.532106E+05  1.381100E+05 -4.236330E+04  7.744831E+03  9.924532E+04
        92  22  1.213316E+04 -1.768063E+04  1.171577E+05 -5.353962E+04  1.567074E+03 -2.309428E+04
        92  23  3.683863E+03 -2.495220E+04  1.179620E+05 -4.555503E+04  4.800683E+03  3.576324E+04
        92  24  2.375232E+04 -1.767882E+04  1.641674E+05 -5.346429E+04  7.772819E+03  9.462037E+04
        92  25  1.542139E+04 -2.879597E+03  1.195003E+05 -4.450906E+04  1.601586E+03 -2.848787E+04
        92  26  2.153936E+04  5.018969E+04  1.320311E+05 -4.659111E+04  4.832952E+03  3.075073E+04
        92  27  5.623905E+04  1.178709E+05  1.902241E+05 -6.456773E+04  7.800968E+03  8.999444E+04
        93   1 -4.097779E+04 -1.702707E+05  1.668178E+05 -1.076004E+05 -1.000389E+04 -1.283107E+05
        93   2  3.919858E+04 -2.907739E+05  2.905898E+05  1.104441E+05 -9.312571E+03 -2.931656E+05
        93   3  5.356470E+05 -2.858299E+05  6.258523E+05  3.147689E+05 -1.003542E+03 -4.579496E+05
        93   4  5.274718E+02  7.364419E+03  2.008890E+05 -5.367777E+04 -1.005310E+04 -1.223738E+05
        93   5  9.818188E+04 -5.623172E+04  3.393073E+05 -4.486277E+04 -9.206021E+03 -2.984095E+05
        93   6  6.137939E+05  7.400961E+03  6.969071E+05 -4.978313E+04 -6.314111E+02 -4.743928E+05
        93   7  4.204198E+04  1.850364E+05  2.349606E+05  2.606974E+02 -1.010128E+04 -1.164352E+05
        93   8  1.572518E+05  1.784140E+05  3.880348E+05 -2.002296E+05 -9.096877E+03 -3.036554E+05
        93   9  6.924328E+05  3.009949E+05  7.680275E+05 -4.145095E+05 -2.400958E+02 -4.908439E+05
        93  10 -4.098232E+04 -1.702884E+05  1.667866E+05 -1.076015E+05 -6.405424E-10  3.148753E-09
        93  11  3.917541E+04 -2.908662E+05  2.904280E+05  1.104419E+05  6.610327E-10 -3.715788E-09
        93  12  5.355906E+05 -2.860551E+05  6.254580E+05  3.147685E+05 -3.222398E-10  1.035411E-09
        93  13  5.233439E+02  7.348315E+03  2.008607E+05 -5.367877E+04 -6.234701E-09  1.849453E-09
        93  14  9.815789E+04 -5.632734E+04  3.391398E+05 -4.486498E+04  3.670461E-09 -1.767942E-10
        93  15  6.137335E+05  7.159422E+03  6.964842E+05 -4.978338E+04  2.598670E-09  1.126602E-09
        93  16  4.203823E+04  1.850218E+05  2.349349E+05  2.597505E+02  1.505719E-09 -3.856538E-09
        93  17  1.572270E+05  1.783150E+05  3.878614E+05 -2.002318E+05  6.722702E-09  2.627629E-09
        93  18  6.923682E+05  3.007365E+05  7.675750E+05 -4.145096E+05  1.203146E-09 -1.522797E-09
        93  19 -4.097779E+04 -1.702707E+05  1.668178E+05 -1.076004E+05  1.000389E+04  1.283107E+05
        93  20  3.919858E+04 -2.907739E+05  2.905898E+05  1.104441E+05  9.312571E+03  2.931656E+05
        93  21  5.356470E+05 -2.858299E+05  6.258523E+05  3.147689E+05  1.003542E+03  4.579496E+05
        93  22  5.274718E+02  7.364419E+03  2.008890E+05 -5.367777E+04  1.005310E+04  1.223738E+05
        93  23  9.818188E+04 -5.623172E+04  3.393073E+05 -4.486277E+04  9.206021E+03  2.984095E+05
        93  24  6.137939E+05  7.400961E+03  6.969071E+05 -4.978313E+04  6.314111E+02  4.743928E+05
        93  25  4.204198E+04  1.850364E+05  2.349606E+05  2.606974E+02  1.010128E+04  1.164352E+05
        93  26  1.572518E+05  1.784140E+05  3.880348E+05 -2.002296E+05  9.096877E+03  3.036554E+05
        93  27  6.924328E+05  3.009949E+05  7.680275E+05 -4.145095E+05  2.400958E+02  4.908439E+05
        94   1 -6.296886E+06 -1.929869E+06 -1.197846E+06 -2.157409E+06 -4.736162E+05 -1.628163E+05
        94   2 -6.154454E+06 -1.229478E+06 -7.554960E+05 -2.236229E+06 -3.116061E+05 -6.507204E+04
        94   3 -6.248323E+06 -1.247451E+06 -6.292065E+05 -2.177885E+06 -1.360539E+05 -2.818961E+03
        94   4 -4.632259E+06 -1.171369E+06 -7.143966E+05 -1.576633E+06 -4.570049E+05 -1.565942E+05
        94   5 -4.477879E+06 -5.581852E+05 -2.952227E+05 -1.742341E+06 -3.072323E+05 -6.344076E+04
        94   6 -4.556649E+06 -6.598053E+05 -1.816735E+05 -1.771086E+06 -1.439348E+05 -5.793867E+03
        94   7 -2.964913E+06 -4.123494E+05 -2.312241E+05 -9.943211E+05 -4.403426E+05 -1.503443E+05
        94   8 -2.798572E+06  1.133617E+05  1.647898E+05 -1.247208E+06 -3.028444E+05 -6.180346E+04
        94   9 -2.862200E+06 -7.210006E+04  2.656162E+05 -1.363328E+06 -1.518392E+05 -8.775883E+03
        94  10 -6.297137E+06 -1.929959E+06 -1.198323E+06 -2.157472E+06  8.147827E-10  1.178615E-09
        94  11 -6.154560E+06 -1.229509E+06 -7.556885E+05 -2.236245E+06  2.804335E-09 -1.146379E-10
        94  12 -6.248343E+06 -1.247456E+06 -6.292416E+05 -2.177886E+06 -7.423929E-09  7.407938E-10
        94  13 -4.632492E+06 -1.171453E+06 -7.148388E+05 -1.576691E+06 -4.821195E-10 -2.800093E-09
        94  14 -4.477982E+06 -5.582152E+05 -2.954091E+05 -1.742357E+06 -5.385455E-09 -2.300599E-09
        94  15 -4.556671E+06 -6.598109E+05 -1.817128E+05 -1.771087E+06  8.472954E-10  7.598540E-12
        94  16 -2.965128E+06 -4.124261E+05 -2.316332E+05 -9.943746E+05 -7.417060E-10  1.157879E-09
        94  17 -2.798672E+06  1.133328E+05  1.646093E+05 -1.247223E+06  4.014049E-09  2.022832E-10
        94  18 -2.862225E+06 -7.210637E+04  2.655725E+05 -1.363329E+06  3.557276E-09  1.456819E-09
        94  19 -6.296886E+06 -1.929869E+06 -1.197846E+06 -2.157409E+06  4.736162E+05  1.628163E+05
        94  20 -6.154454E+06 -1.229478E+06 -7.554960E+05 -2.236229E+06  3.116061E+05  6.507204E+04
        94  21 -6.248323E+06 -1.247451E+06 -6.292065E+05 -2.177885E+06  1.360539E+05  2.818961E+03
        94  22 -4.632259E+06 -1.171369E+06 -7.143966E+05 -1.576633E+06  4.570049E+05  1.565942E+05
        94  23 -4.477879E+06 -5.581852E+05 -2.952227E+05 -1.742341E+06  3.072323E+05  6.344076E+04
        94  24 -4.556649E+06 -6.598053E+05 -1.816735E+05 -1.771086E+06  1.439348E+05  5.793867E+03
        94  25 -2.964913E+06 -4.123494E+05 -2.312241E+05 -9.943211E+05  4.403426E+05  1.503443E+05
        94  26 -2.798572E+06  1.133617E+05  1.647898E+05 -1.247208E+06  3.028444E+05  6.180346E+04
        94  27 -2.862200E+06 -7.210006E+04  2.656162E+05 -1.363328E+06  1.518392E+05  8.775883E+03
        95   1 -5.996816E+06 -1.321261E+06 -5.509569E+05 -2.153569E+06 -1.155374E+05 -2.903542E+03
        95   2 -5.917885E+06 -1.155153E+06 -4.420936E+05 -2.091713E+06 -7.733013E+04  1.127040E+04
        95   3 -5.790457E+06 -1.156835E+06 -3.844629E+05 -2.099944E+06 -3.733631E+04  2.067365E+04
        95   4 -4.524492E+06 -7.486514E+05 -1.488453E+05 -1.737210E+06 -1.149349E+05 -2.686447E+03
        95   5 -4.544158E+06 -6.321081E+05 -6.974122E+04 -1.714495E+06 -7.834213E+04  1.088339E+04
        95   6 -4.514935E+06 -6.828926E+05 -4.048324E+04 -1.761876E+06 -3.997150E+04  1.968327E+04
        95   7 -3.050060E+06 -1.758804E+05  2.530694E+05 -1.319940E+06 -1.143306E+05 -2.468595E+03
        95   8 -3.168598E+06 -1.089444E+05  3.024417E+05 -1.336515E+06 -7.935646E+04  1.049549E+04
        95   9 -3.237838E+06 -2.088697E+05  3.033516E+05 -1.423182E+06 -4.261264E+04  1.869075E+04
        95  10 -5.996830E+06 -1.321265E+06 -5.509822E+05 -2.153570E+06 -5.858123E-09  3.071107E-10
        95  11 -5.917892E+06 -1.155155E+06 -4.421051E+05 -2.091712E+06 -4.718255E-09  4.239292E-10
        95  12 -5.790458E+06 -1.156835E+06 -3.844663E+05 -2.099943E+06 -1.838844E-09 -2.303452E-09
        95  13 -4.524506E+06 -7.486549E+05 -1.488703E+05 -1.737211E+06 -4.725703E-09  1.172288E-09
        95  14 -4.544164E+06 -6.321099E+05 -6.975305E+04 -1.714494E+06 -8.111900E-10  1.029412E-09
        95  15 -4.514937E+06 -6.828935E+05 -4.048698E+04 -1.761875E+06 -7.192158E-09 -2.249726E-09
        95  16 -3.050074E+06 -1.758839E+05  2.530447E+05 -1.319940E+06 -1.099430E-09  2.029728E-09
        95  17 -3.168604E+06 -1.089463E+05  3.024296E+05 -1.336514E+06 -2.888087E-09  2.049973E-09
        95  18 -3.237840E+06 -2.088705E+05  3.033476E+05 -1.423182E+06 -8.303573E-10 -1.799101E-09
        95  19 -5.996816E+06 -1.321261E+06 -5.509569E+05 -2.153569E+06  1.155374E+05  2.903542E+03
        95  20 -5.917885E+06 -1.155153E+06 -4.420936E+05 -2.091713E+06  7.733013E+04 -1.127040E+04
        95  21 -5.790457E+06 -1.156835E+06 -3.844629E+05 -2.099944E+06  3.733631E+04 -2.067365E+04
        95  22 -4.524492E+06 -7.486514E+05 -1.488453E+05 -1.737210E+06  1.149349E+05  2.686447E+03
        95  23 -4.544158E+06 -6.321081E+05 -6.974122E+04 -1.714495E+06  7.834213E+04 -1.088339E+04
        95  24 -4.514935E+06 -6.828926E+05 -4.048324E+04 -1.761876E+06  3.997150E+04 -1.968327E+04
        95  25 -3.050060E+06 -1.758804E+05  2.530694E+05 -1.319940E+06  1.143306E+05  2.468595E+03
        95  26 -3.168598E+06 -1.089444E+05  3.024417E+05 -1.336515E+06  7.935646E+04 -1.049549E+04
        95  27 -3.237838E+06 -2.088697E+05  3.033516E+05 -1.423182E+06  4.261264E+04 -1.869075E+04
        96   1 -5.502418E+06 -1.077048E+06 -3.015125E+05 -2.035427E+06 -3.109710E+04  1.890072E+04
        96   2 -5.409431E+06 -9.544046E+05 -2.461460E+05 -1.932641E+06 -2.045582E+04  1.702597E+04
        96   3 -5.208225E+06 -9.545127E+05 -1.999423E+05 -1.955843E+06 -9.421698E+03  1.405840E+04
        96   4 -4.505387E+06 -6.999628E+05 -3.211983E+04 -1.764088E+06 -3.275914E+04  1.827666E+04
        96   5 -4.558881E+06 -6.341968E+05 -1.634011E+04 -1.702740E+06 -2.249371E+04  1.626447E+04
        96   6 -4.504102E+06 -6.910869E+05 -9.409732E+03 -1.767378E+06 -1.183797E+04  1.315938E+04
        96   7 -3.507394E+06 -3.228191E+05  2.371834E+05 -1.492353E+06 -3.442410E+04  1.765149E+04
        96   8 -3.707630E+06 -3.139477E+05  2.134011E+05 -1.472553E+06 -2.453467E+04  1.550183E+04
        96   9 -3.799497E+06 -4.276342E+05  1.810789E+05 -1.578719E+06 -1.425729E+04  1.225924E+04
        96  10 -5.502419E+06 -1.077049E+06 -3.015150E+05 -2.035426E+06 -3.047618E-09 -3.643132E-09
        96  11 -5.409431E+06 -9.544050E+05 -2.461474E+05 -1.932641E+06 -1.857604E-09 -1.921622E-09
        96  12 -5.208226E+06 -9.545129E+05 -1.999428E+05 -1.955843E+06 -2.880252E-09 -7.358686E-10
        96  13 -4.505388E+06 -6.999635E+05 -3.212248E+04 -1.764088E+06 -6.026489E-09 -4.078671E-09
        96  14 -4.558881E+06 -6.341972E+05 -1.634156E+04 -1.702740E+06  8.593626E-10 -1.965123E-09
        96  15 -4.504102E+06 -6.910872E+05 -9.410320E+03 -1.767378E+06 -2.604509E-09  8.976070E-10
        96  16 -3.507395E+06 -3.228197E+05  2.371806E+05 -1.492353E+06 -1.644630E-09 -4.114968E-09
        96  17 -3.707631E+06 -3.139482E+05  2.133995E+05 -1.472553E+06  2.428090E-09 -1.844765E-09
        96  18 -3.799498E+06 -4.276344E+05  1.810782E+05 -1.578718E+06  4.699896E-09  2.849397E-09
        96  19 -5.502418E+06 -1.077048E+06 -3.015125E+05 -2.035427E+06  3.109710E+04 -1.890072E+04
        96  20 -5.409431E+06 -9.544046E+05 -2.461460E+05 -1.932641E+06  2.045582E+04 -1.702597E+04
        96  21 -5.208225E+06 -9.545127E+05 -1.999423E+05 -1.955843E+06  9.421698E+03 -1.405840E+04
        96  22 -4.505387E+06 -6.999628E+05 -3.211983E+04 -1.764088E+06  3.275914E+04 -1.827666E+04
        96  23 -4.558881E+06 -6.341968E+05 -1.634011E+04 -1.702740E+06  2.249371E+04 -1.626447E+04
        96  24 -4.504102E+06 -6.910869E+05 -9.409732E+03 -1.767378E+06  1.183797E+04 -1.315938E+04
        96  25 -3.507394E+06 -3.228191E+05  2.371834E+05 -1.492353E+06  3.442410E+04 -1.765149E+04
        96  26 -3.707630E+06 -3.139477E+05  2.134011E+05 -1.472553E+06  2.453467E+04 -1.550183E+04
        96  27 -3.799497E+06 -4.276342E+05  1.810789E+05 -1.578719E+06  1.425729E+04 -1.225924E+04
        97   1 -4.867706E+06 -8.334438E+05 -1.060534E+05 -1.869383E+06 -6.742536E+03  1.065957E+04
        97   2 -4.763227E+06 -7.063823E+05 -5.862915E+04 -1.751588E+06 -1.912468E+03  5.071895E+03
        97   3 -4.533858E+06 -7.070144E+05 -1.351379E+04 -1.779496E+06  2.989633E+03 -7.203399E+02
        97   4 -4.500786E+06 -6.956893E+05 -7.590208E+03 -1.770414E+06 -9.024519E+03  9.812067E+03
        97   5 -4.563146E+06 -6.313235E+05 -4.640465E+03 -1.697754E+06 -4.266275E+03  4.198469E+03
        97   6 -4.500632E+06 -6.946342E+05 -3.938957E+03 -1.770802E+06  5.632206E+02 -1.619808E+03
        97   7 -4.133734E+06 -5.579270E+05  9.086117E+04 -1.671392E+06 -1.130800E+04  8.964010E+03
        97   8 -4.363028E+06 -5.562628E+05  4.934449E+04 -1.643904E+06 -6.620912E+03  3.324734E+03
        97   9 -4.467405E+06 -6.822541E+05  5.635719E+03 -1.762108E+06 -1.863317E+03 -2.519320E+03
        97  10 -4.867706E+06 -8.334439E+05 -1.060537E+05 -1.869383E+06  4.068742E-09  1.336326E-09
        97  11 -4.763227E+06 -7.063823E+05 -5.862921E+04 -1.751588E+06  3.648124E-09 -4.543743E-10
        97  12 -4.533858E+06 -7.070144E+05 -1.351381E+04 -1.779496E+06 -3.730705E-10 -3.380375E-10
        97  13 -4.500786E+06 -6.956894E+05 -7.590542E+03 -1.770414E+06  1.135031E-09  8.419355E-10
        97  14 -4.563146E+06 -6.313236E+05 -4.640532E+03 -1.697754E+06 -8.213459E-10 -7.217879E-09
        97  15 -4.500632E+06 -6.946342E+05 -3.938963E+03 -1.770802E+06 -2.521637E-09 -1.592739E-09
        97  16 -4.133735E+06 -5.579271E+05  9.086078E+04 -1.671392E+06 -4.361890E-09  2.778567E-09
        97  17 -4.363028E+06 -5.562628E+05  4.934438E+04 -1.643904E+06 -2.139609E-09 -2.501740E-09
        97  18 -4.467405E+06 -6.822541E+05  5.635700E+03 -1.762108E+06  3.929182E-09  2.707728E-10
        97  19 -4.867706E+06 -8.334438E+05 -1.060534E+05 -1.869383E+06  6.742536E+03 -1.065957E+04
        97  20 -4.763227E+06 -7.063823E+05 -5.862915E+04 -1.751588E+06  1.912468E+03 -5.071895E+03
        97  21 -4.533858E+06 -7.070144E+05 -1.351379E+04 -1.779496E+06 -2.989633E+03  7.203399E+02
        97  22 -4.500786E+06 -6.956893E+05 -7.590208E+03 -1.770414E+06  9.024519E+03 -9.812067E+03
        97  23 -4.563146E+06 -6.313235E+05 -4.640465E+03 -1.697754E+06  4.266275E+03 -4.198469E+03
        97  24 -4.500632E+06 -6.946342E+05 -3.938957E+03 -1.770802E+06 -5.632206E+02  1.619808E+03
        97  25 -4.133734E+06 -5.579270E+05  9.086117E+04 -1.671392E+06  1.130800E+04 -8.964010E+03
        97  26 -4.363028E+06 -5.562628E+05  4.934449E+04 -1.643904E+06  6.620912E+03 -3.324734E+03
        97  27 -4.467405E+06 -6.822541E+05  5.635719E+03 -1.762108E+06  1.863317E+03  2.519320E+03
        98   1 -4.182446E+06 -5.742536E+05  8.262378E+04 -1.684353E+06  5.127362E+03 -4.464530E+03
        98   2 -4.081610E+06 -4.520695E+05  1.243298E+05 -1.569599E+06  1.010931E+04 -1.012658E+04
        98   3 -3.859242E+06 -4.539345E+05  1.637095E+05 -1.595790E+06  1.493851E+04 -1.534630E+04
        98   4 -4.501397E+06 -6.936868E+05 -4.012742E+03 -1.769817E+06  2.688566E+03 -5.369047E+03
        98   5 -4.562252E+06 -6.324272E+05 -5.327661E+03 -1.699046E+06  7.825725E+03 -1.097548E+04
        98   6 -4.501628E+06 -6.952585E+05 -9.091993E+03 -1.769239E+06  1.280932E+04 -1.613958E+04
        98   7 -4.820252E+06 -8.131154E+05 -9.065900E+04 -1.855243E+06  2.511388E+02 -6.273058E+03
        98   8 -5.042674E+06 -8.127730E+05 -1.350064E+05 -1.828403E+06  5.544084E+03 -1.182366E+04
        98   9 -5.143618E+06 -9.365602E+05 -1.819309E+05 -1.942526E+06  1.068255E+04 -1.693196E+04
        98  10 -4.182446E+06 -5.742536E+05  8.262369E+04 -1.684353E+06 -1.701965E-09  2.068494E-09
        98  11 -4.081610E+06 -4.520697E+05  1.243294E+05 -1.569599E+06 -4.437841E-09  1.686044E-09
        98  12 -3.859242E+06 -4.539348E+05  1.637086E+05 -1.595790E+06  2.319801E-09  1.457170E-09
        98  13 -4.501397E+06 -6.936869E+05 -4.012809E+03 -1.769817E+06 -6.541150E-09 -1.417988E-09
        98  14 -4.562252E+06 -6.324273E+05 -5.328001E+03 -1.699046E+06 -2.284804E-11  5.849914E-09
        98  15 -4.501628E+06 -6.952588E+05 -9.092790E+03 -1.769239E+06  3.985837E-09  2.256774E-09
        98  16 -4.820252E+06 -8.131155E+05 -9.065907E+04 -1.855243E+06  6.487106E-10  1.449015E-09
        98  17 -5.042674E+06 -8.127732E+05 -1.350067E+05 -1.828403E+06 -1.570334E-09  2.223031E-09
        98  18 -5.143618E+06 -9.365606E+05 -1.819317E+05 -1.942526E+06 -8.385127E-10  3.075040E-09
        98  19 -4.182446E+06 -5.742536E+05  8.262378E+04 -1.684353E+06 -5.127362E+03  4.464530E+03
        98  20 -4.081610E+06 -4.520695E+05  1.243298E+05 -1.569599E+06 -1.010931E+04  1.012658E+04
        98  21 -3.859242E+06 -4.539345E+05  1.637095E+05 -1.595790E+06 -1.493851E+04  1.534630E+04
        98  22 -4.501397E+06 -6.936868E+05 -4.012742E+03 -1.769817E+06 -2.688566E+03  5.369047E+03
        98  23 -4.562252E+06 -6.324272E+05 -5.327661E+03 -1.699046E+06 -7.825725E+03  1.097548E+04
        98  24 -4.501628E+06 -6.952585E+05 -9.091993E+03 -1.769239E+06 -1.280932E+04  1.613958E+04
        98  25 -4.820252E+06 -8.131154E+05 -9.065900E+04 -1.855243E+06 -2.511388E+02  6.273058E+03
        98  26 -5.042674E+06 -8.127730E+05 -1.350064E+05 -1.828403E+06 -5.544084E+03  1.182366E+04
        98  27 -5.143618E+06 -9.365602E+05 -1.819309E+05 -1.942526E+06 -1.068255E+04  1.693196E+04
        99   1 -3.547653E+06 -3.295936E+05  2.476891E+05 -1.507062E+06  1.809917E+04 -1.828868E+04
        99   2 -3.465528E+06 -2.260780E+05  2.743641E+05 -1.410734E+06  3.001705E+04 -2.036375E+04
        99   3 -3.285871E+06 -2.365796E+05  2.907512E+05 -1.426560E+06  4.147129E+04 -2.113925E+04
        99   4 -4.506526E+06 -6.887026E+05 -1.136817E+04 -1.764532E+06  1.581225E+04 -1.914296E+04
        99   5 -4.556026E+06 -6.370628E+05 -2.005476E+04 -1.706427E+06  2.817612E+04 -2.105550E+04
        99   6 -4.508106E+06 -6.995591E+05 -3.939852E+04 -1.760494E+06  4.007371E+04 -2.166824E+04
        99   7 -5.464504E+06 -1.047759E+06 -2.705055E+05 -2.021640E+06  1.352924E+04 -1.999580E+04
        99   8 -5.645372E+06 -1.047978E+06 -3.145792E+05 -2.001648E+06  2.633875E+04 -2.174593E+04
        99   9 -5.728900E+06 -1.162450E+06 -3.696830E+05 -2.093831E+06  3.867912E+04 -2.219611E+04
        99  10 -3.547654E+06 -3.295941E+05  2.476879E+05 -1.507062E+06  3.903758E-09  1.897801E-09
        99  11 -3.465529E+06 -2.260786E+05  2.743617E+05 -1.410733E+06 -8.039755E-10  3.087942E-09
        99  12 -3.285873E+06 -2.365805E+05  2.907471E+05 -1.426559E+06  9.800189E-10  6.045950E-10
        99  13 -4.506527E+06 -6.887031E+05 -1.136933E+04 -1.764532E+06 -2.939763E-09  1.551196E-09
        99  14 -4.556027E+06 -6.370635E+05 -2.005709E+04 -1.706426E+06 -3.834902E-09  9.739947E-10
        99  15 -4.508108E+06 -6.995601E+05 -3.940243E+04 -1.760493E+06 -3.974466E-09 -2.071814E-10
        99  16 -5.464504E+06 -1.047759E+06 -2.705065E+05 -2.021640E+06 -1.839748E-09  2.612091E-09
        99  17 -5.645373E+06 -1.047979E+06 -3.145814E+05 -2.001648E+06  2.218432E-09  6.970124E-10
        99  18 -5.728902E+06 -1.162451E+06 -3.696868E+05 -2.093830E+06 -2.529559E-10  3.014972E-10
        99  19 -3.547653E+06 -3.295936E+05  2.476891E+05 -1.507062E+06 -1.809917E+04  1.828868E+04
        99  20 -3.465528E+06 -2.260780E+05  2.743641E+05 -1.410734E+06 -3.001705E+04  2.036375E+04
        99  21 -3.285871E+06 -2.365796E+05  2.907512E+05 -1.426560E+06 -4.147129E+04  2.113925E+04
        99  22 -4.506526E+06 -6.887026E+05 -1.136817E+04 -1.764532E+06 -1.581225E+04  1.914296E+04
        99  23 -4.556026E+06 -6.370628E+05 -2.005476E+04 -1.706427E+06 -2.817612E+04  2.105550E+04
        99  24 -4.508106E+06 -6.995591E+05 -3.939852E+04 -1.760494E+06 -4.007371E+04  2.166824E+04
        99  25 -5.464504E+06 -1.047759E+06 -2.705055E+05 -2.021640E+06 -1.352924E+04  1.999580E+04
        99  26 -5.645372E+06 -1.047978E+06 -3.145792E+05 -2.001648E+06 -2.633875E+04  2.174593E+04
        99  27 -5.728900E+06 -1.162450E+06 -3.696830E+05 -2.093831E+06 -3.867912E+04  2.219611E+04
       100   1 -3.055939E+06 -1.349301E+05  3.443160E+05 -1.369121E+06  5.085440E+04 -2.121677E+04
       100   2 -2.999800E+06 -4.692576E+04  3.308623E+05 -1.295496E+06  9.560347E+04 -9.022160E+03
       100   3 -2.918305E+06 -1.288069E+05  2.576138E+05 -1.267361E+06  1.385000E+05  8.132122E+03
       100   4 -4.519666E+06 -6.789799E+05 -4.974312E+04 -1.758220E+06  4.845649E+04 -2.212342E+04
       100   5 -4.538020E+06 -6.340084E+05 -8.570909E+04 -1.720314E+06  9.487172E+04 -9.307022E+03
       100   6 -4.531464E+06 -7.594428E+05 -1.829181E+05 -1.727892E+06  1.394263E+05  8.470209E+03
       100   7 -5.981323E+06 -1.222922E+06 -4.439924E+05 -2.146495E+06  4.606475E+04 -2.302786E+04
       100   8 -6.073948E+06 -1.220939E+06 -5.024928E+05 -2.144173E+06  9.414175E+04 -9.591220E+03
       100   9 -6.142100E+06 -1.389878E+06 -6.236865E+05 -2.187320E+06  1.403495E+05  8.807038E+03
       100  10 -3.055942E+06 -1.349312E+05  3.443103E+05 -1.369120E+06 -2.169767E-09  3.136648E-10
       100  11 -2.999810E+06 -4.692831E+04  3.308449E+05 -1.295495E+06  4.016053E-09  1.149324E-09
       100  12 -2.918325E+06 -1.288121E+05  2.575775E+05 -1.267362E+06  5.526681E-09 -1.961409E-09
       100  13 -4.519669E+06 -6.789811E+05 -4.974847E+04 -1.758219E+06  5.745707E-10  3.774897E-10
       100  14 -4.538030E+06 -6.340109E+05 -8.572627E+04 -1.720313E+06  4.664087E-09 -2.863094E-10
       100  15 -4.531485E+06 -7.594482E+05 -1.829550E+05 -1.727893E+06 -3.128021E-09  1.895921E-09
       100  16 -5.981325E+06 -1.222923E+06 -4.439974E+05 -2.146494E+06  4.772102E-09  2.604667E-11
       100  17 -6.073958E+06 -1.220942E+06 -5.025097E+05 -2.144172E+06  3.394077E-09  1.713722E-10
       100  18 -6.142121E+06 -1.389883E+06 -6.237241E+05 -2.187321E+06 -3.306813E-09 -1.281830E-09
       100  19 -3.055939E+06 -1.349301E+05  3.443160E+05 -1.369121E+06 -5.085440E+04  2.121677E+04
       100  20 -2.999800E+06 -4.692576E+04  3.308623E+05 -1.295496E+06 -9.560347E+04  9.022160E+03
       100  21 -2.918305E+06 -1.288069E+05  2.576138E+05 -1.267361E+06 -1.385000E+05 -8.132122E+03
       100  22 -4.519666E+06 -6.789799E+05 -4.974312E+04 -1.758220E+06 -4.845649E+04  2.212342E+04
       100  23 -4.538020E+06 -6.340084E+05 -8.570909E+04 -1.720314E+06 -9.487172E+04  9.307022E+03
       100  24 -4.531464E+06 -7.594428E+05 -1.829181E+05 -1.727892E+06 -1.394263E+05 -8.470209E+03
       100  25 -5.981323E+06 -1.222922E+06 -4.439924E+05 -2.146495E+06 -4.606475E+04  2.302786E+04
       100  26 -6.073948E+06 -1.220939E+06 -5.024928E+05 -2.144173E+06 -9.414175E+04  9.591220E+03
       100  27 -6.142100E+06 -1.389878E+06 -6.236865E+05 -2.187320E+06 -1.403495E+05 -8.807038E+03
       101   1 -2.775813E+06 -3.726028E+04  2.486106E+05 -1.346994E+06  1.819166E+05  1.739092E+04
       101   2 -2.720229E+06  1.625240E+05  1.149992E+05 -1.231253E+06  3.694303E+05  8.586772E+04
       101   3 -2.978741E+06 -4.832241E+05 -3.839471E+05 -9.142634E+05  5.431975E+05  1.902875E+05
       101   4 -4.569628E+06 -6.520139E+05 -2.233619E+05 -1.771518E+06  1.742597E+05  1.449390E+04
       101   5 -4.457759E+06 -5.411462E+05 -3.627069E+05 -1.752324E+06  3.741008E+05  8.761116E+04
       101   6 -4.663371E+06 -1.279767E+06 -8.780265E+05 -1.531619E+06  5.601890E+05  1.966427E+05
       101   7 -6.360336E+06 -1.266715E+06 -6.956058E+05 -2.194995E+06  1.666267E+05  1.160388E+04
       101   8 -6.192353E+06 -1.244518E+06 -8.406915E+05 -2.272028E+06  3.787554E+05  8.934769E+04
       101   9 -6.345183E+06 -2.075664E+06 -1.372385E+06 -2.147296E+06  5.771274E+05  2.029669E+05
       101  10 -2.775849E+06 -3.726955E+04  2.485475E+05 -1.346997E+06  2.839218E-09 -5.135898E-09
       101  11 -2.720378E+06  1.624791E+05  1.147274E+05 -1.231279E+06  7.309142E-09 -4.355195E-09
       101  12 -2.979069E+06 -4.833428E+05 -3.845730E+05 -9.143469E+05  1.485319E-09 -3.725285E-09
       101  13 -4.569661E+06 -6.520224E+05 -2.234198E+05 -1.771520E+06  5.082299E-09  3.322740E-10
       101  14 -4.457912E+06 -5.411925E+05 -3.629866E+05 -1.752350E+06  2.823343E-09  6.612248E-09
       101  15 -4.663721E+06 -1.279894E+06 -8.786945E+05 -1.531708E+06  2.916674E-09  3.695435E-10
       101  16 -6.360366E+06 -1.266723E+06 -6.956588E+05 -2.194996E+06  8.519746E-10 -1.602738E-09
       101  17 -6.192511E+06 -1.244566E+06 -8.409793E+05 -2.272056E+06 -6.779267E-09  2.254259E-09
       101  18 -6.345555E+06 -2.075799E+06 -1.373097E+06 -2.147391E+06  6.796071E-09 -4.828210E-09
       101  19 -2.775813E+06 -3.726028E+04  2.486106E+05 -1.346994E+06 -1.819166E+05 -1.739092E+04
       101  20 -2.720229E+06  1.625240E+05  1.149992E+05 -1.231253E+06 -3.694303E+05 -8.586772E+04
       101  21 -2.978741E+06 -4.832241E+05 -3.839471E+05 -9.142634E+05 -5.431975E+05 -1.902875E+05
       101  22 -4.569628E+06 -6.520139E+05 -2.233619E+05 -1.771518E+06 -1.742597E+05 -1.449390E+04
       101  23 -4.457759E+06 -5.411462E+05 -3.627069E+05 -1.752324E+06 -3.741008E+05 -8.761116E+04
       101  24 -4.663371E+06 -1.279767E+06 -8.780265E+05 -1.531619E+06 -5.601890E+05 -1.966427E+05
       101  25 -6.360336E+06 -1.266715E+06 -6.956058E+05 -2.194995E+06 -1.666267E+05 -1.160388E+04
       101  26 -6.192353E+06 -1.244518E+06 -8.406915E+05 -2.272028E+06 -3.787554E+05 -8.934769E+04
       101  27 -6.345183E+06 -2.075664E+06 -1.372385E+06 -2.147296E+06 -5.771274E+05 -2.029669E+05
       102   1  3.784499E+05 -1.226589E+05  3.673468E+05 -4.916030E+04  1.551500E+04  6.822083E+03
       102   2  3.737333E+05 -2.343838E+05  3.423130E+05 -1.111071E+04  4.646113E+04 -1.000019E+03
       102   3  3.428040E+05 -3.497603E+05  3.162825E+05 -6.095875E+04  4.260290E+04 -8.943803E+03
       102   4 -2.267477E+04 -1.729673E+06 -2.992850E+04 -5.240671E+04  1.559326E+04 -1.633959E+04
       102   5  3.263809E+03 -1.726343E+06 -1.654253E+04 -8.411023E+03  4.649557E+04 -7.470394E+03
       102   6  5.182443E+01 -1.729598E+06 -1.577161E+04 -5.232662E+04  4.255636E+04  1.275855E+03
       102   7 -4.239924E+05 -3.334335E+06 -4.273938E+05 -5.564271E+04  1.567187E+04 -3.944131E+04
       102   8 -3.673681E+05 -3.216261E+06 -3.755566E+05 -5.715722E+03  4.653000E+04 -1.392525E+04
       102   9 -3.428392E+05 -3.107689E+06 -3.479612E+05 -4.371145E+04  4.251005E+04  1.147287E+04
       102  10  3.784497E+05 -1.226591E+05  3.673462E+05 -4.916038E+04 -1.312371E-09 -6.041549E-10
       102  11  3.737310E+05 -2.343844E+05  3.423090E+05 -1.111068E+04 -1.349833E-09 -1.001175E-08
       102  12  3.428021E+05 -3.497609E+05  3.162790E+05 -6.095844E+04  4.142988E-10 -3.870852E-09
       102  13 -2.267510E+04 -1.729673E+06 -2.992946E+04 -5.240651E+04 -5.492971E-10 -1.630204E-10
       102  14  3.261474E+03 -1.726344E+06 -1.654669E+04 -8.410743E+03  2.787328E-09 -4.405861E-09
       102  15  4.988079E+01 -1.729598E+06 -1.577501E+04 -5.232666E+04  1.010638E-08  2.563824E-10
       102  16 -4.239931E+05 -3.334336E+06 -4.273972E+05 -5.564221E+04 -2.339925E-09 -2.059026E-10
       102  17 -3.673705E+05 -3.216262E+06 -3.755611E+05 -5.715199E+03 -6.256706E-09  3.118874E-09
       102  18 -3.428412E+05 -3.107689E+06 -3.479649E+05 -4.371185E+04  1.337063E-09  3.541928E-09
       102  19  3.784499E+05 -1.226589E+05  3.673468E+05 -4.916030E+04 -1.551500E+04 -6.822083E+03
       102  20  3.737333E+05 -2.343838E+05  3.423130E+05 -1.111071E+04 -4.646113E+04  1.000019E+03
       102  21  3.428040E+05 -3.497603E+05  3.162825E+05 -6.095875E+04 -4.260290E+04  8.943803E+03
       102  22 -2.267477E+04 -1.729673E+06 -2.992850E+04 -5.240671E+04 -1.559326E+04  1.633959E+04
       102  23  3.263809E+03 -1.726343E+06 -1.654253E+04 -8.411023E+03 -4.649557E+04  7.470394E+03
       102  24  5.182443E+01 -1.729598E+06 -1.577161E+04 -5.232662E+04 -4.255636E+04 -1.275855E+03
       102  25 -4.239924E+05 -3.334335E+06 -4.273938E+05 -5.564271E+04 -1.567187E+04  3.944131E+04
       102  26 -3.673681E+05 -3.216261E+06 -3.755566E+05 -5.715722E+03 -4.653000E+04  1.392525E+04
       102  27 -3.428392E+05 -3.107689E+06 -3.479612E+05 -4.371145E+04 -4.251005E+04 -1.147287E+04
       103   1  2.992178E+05 -5.193131E+05  2.750831E+05 -5.679261E+04  3.492742E+04  3.925530E+03
       103   2  2.723617E+05 -6.398287E+05  2.403836E+05 -1.180081E+04  3.279611E+04  1.313657E+04
       103   3  2.266198E+05 -7.662964E+05  1.949577E+05 -6.362300E+04  2.707998E+04  2.231323E+04
       103   4 -1.480927E+03 -1.729406E+06 -1.688128E+04 -5.431339E+04  3.493115E+04  4.058895E+03
       103   5  2.415382E+03 -1.726254E+06 -2.130456E+04 -5.940153E+03  3.278837E+04  1.497282E+04
       103   6 -1.288906E+04 -1.729375E+06 -3.765043E+04 -5.439221E+04  2.705806E+04  2.585413E+04
       103   7 -3.022868E+05 -2.938158E+06 -3.089506E+05 -5.183709E+04  3.493487E+04  4.191994E+03
       103   8 -2.676172E+05 -2.811598E+06 -2.830770E+05 -8.810568E+01  3.278067E+04  1.680584E+04
       103   9 -2.524657E+05 -2.691604E+06 -2.703251E+05 -4.517429E+04  2.703623E+04  2.938952E+04
       103  10  2.992165E+05 -5.193134E+05  2.750808E+05 -5.679272E+04  1.744603E-09  5.699382E-09
       103  11  2.723605E+05 -6.398292E+05  2.403812E+05 -1.180116E+04 -1.687197E-09 -1.025866E-08
       103  12  2.266189E+05 -7.662971E+05  1.949554E+05 -6.362349E+04  1.699041E-09 -4.369704E-09
       103  13 -1.482240E+03 -1.729407E+06 -1.688360E+04 -5.431350E+04  8.775313E-09 -1.912244E-10
       103  14  2.414168E+03 -1.726255E+06 -2.130700E+04 -5.940548E+03  4.254085E-09 -7.067556E-09
       103  15 -1.289002E+04 -1.729376E+06 -3.765307E+04 -5.439278E+04  1.025626E-08  3.974489E-10
       103  16 -3.022881E+05 -2.938158E+06 -3.089529E+05 -5.183721E+04  2.511879E-09 -7.095555E-09
       103  17 -2.676184E+05 -2.811598E+06 -2.830796E+05 -8.854996E+01 -3.936312E-10  2.405159E-10
       103  18 -2.524667E+05 -2.691605E+06 -2.703281E+05 -4.517493E+04 -1.531418E-09  3.791988E-09
       103  19  2.992178E+05 -5.193131E+05  2.750831E+05 -5.679261E+04 -3.492742E+04 -3.925530E+03
       103  20  2.723617E+05 -6.398287E+05  2.403836E+05 -1.180081E+04 -3.279611E+04 -1.313657E+04
       103  21  2.266198E+05 -7.662964E+05  1.949577E+05 -6.362300E+04 -2.707998E+04 -2.231323E+04
       103  22 -1.480927E+03 -1.729406E+06 -1.688128E+04 -5.431339E+04 -3.493115E+04 -4.058895E+03
       103  23  2.415382E+03 -1.726254E+06 -2.130456E+04 -5.940153E+03 -3.278837E+04 -1.497282E+04
       103  24 -1.288906E+04 -1.729375E+06 -3.765043E+04 -5.439221E+04 -2.705806E+04 -2.585413E+04
       103  25 -3.022868E+05 -2.938158E+06 -3.089506E+05 -5.183709E+04 -3.493487E+04 -4.191994E+03
       103  26 -2.676172E+05 -2.811598E+06 -2.830770E+05 -8.810568E+01 -3.278067E+04 -1.680584E+04
       103  27 -2.524657E+05 -2.691604E+06 -2.703251E+05 -4.517429E+04 -2.703623E+04 -2.938952E+04
       104   1  2.006795E+05 -9.564841E+05  1.424025E+05 -4.330341E+04  2.489351E+04  3.268999E+04
       104   2  1.811508E+05 -1.064689E+06  8.589092E+04 -1.900966E+04  1.948985E+04  6.654150E+04
       104   3  4.996121E+03 -1.217912E+06 -3.215112E+04 -9.806148E+04  4.999657E+03  1.003063E+05
       104   4  6.836155E+03 -1.738046E+06 -4.537205E+04 -5.546044E+04  2.489277E+04  3.295842E+04
       104   5  1.928571E+04 -1.715180E+06 -7.078068E+04 -4.306536E+03  1.945701E+04  7.113103E+04
       104   6 -1.257286E+05 -1.738136E+06 -1.607634E+05 -5.651254E+04  4.933353E+03  1.092233E+05
       104   7 -1.870510E+05 -2.519047E+06 -2.331899E+05 -6.760103E+04  2.489202E+04  3.322649E+04
       104   8 -1.426096E+05 -2.365282E+06 -2.274824E+05  1.038184E+04  1.942437E+04  7.571573E+04
       104   9 -2.564674E+05 -2.258110E+06 -2.893948E+05 -1.499805E+04  4.868219E+03  1.181328E+05
       104  10  2.006786E+05 -9.564854E+05  1.423993E+05 -4.330407E+04 -1.530742E-09  7.481007E-09
       104  11  1.811492E+05 -1.064694E+06  8.588187E+04 -1.901070E+04 -3.405095E-09 -6.492719E-09
       104  12  4.993387E+03 -1.217923E+06 -3.217011E+04 -9.806188E+04 -8.225972E-10  1.314085E-09
       104  13  6.835197E+03 -1.738047E+06 -4.537526E+04 -5.546110E+04  2.222694E-09 -4.767546E-10
       104  14  1.928394E+04 -1.715185E+06 -7.079093E+04 -4.307651E+03 -1.871397E-09 -8.650132E-09
       104  15 -1.257318E+05 -1.738149E+06 -1.607860E+05 -5.651298E+04  3.067403E-09  1.305481E-10
       104  16 -1.870520E+05 -2.519048E+06 -2.331931E+05 -6.760170E+04 -4.912035E-09 -9.288691E-09
       104  17 -1.426116E+05 -2.365288E+06 -2.274939E+05  1.038065E+04 -2.946339E-09 -6.050916E-09
       104  18 -2.564712E+05 -2.258125E+06 -2.894212E+05 -1.499851E+04  3.874879E-09 -2.051520E-09
       104  19  2.006795E+05 -9.564841E+05  1.424025E+05 -4.330341E+04 -2.489351E+04 -3.268999E+04
       104  20  1.811508E+05 -1.064689E+06  8.589092E+04 -1.900966E+04 -1.948985E+04 -6.654150E+04
       104  21  4.996121E+03 -1.217912E+06 -3.215112E+04 -9.806148E+04 -4.999657E+03 -1.003063E+05
       104  22  6.836155E+03 -1.738046E+06 -4.537205E+04 -5.546044E+04 -2.489277E+04 -3.295842E+04
       104  23  1.928571E+04 -1.715180E+06 -7.078068E+04 -4.306536E+03 -1.945701E+04 -7.113103E+04
       104  24 -1.257286E+05 -1.738136E+06 -1.607634E+05 -5.651254E+04 -4.933353E+03 -1.092233E+05
       104  25 -1.870510E+05 -2.519047E+06 -2.331899E+05 -6.760103E+04 -2.489202E+04 -3.322649E+04
       104  26 -1.426096E+05 -2.365282E+06 -2.274824E+05  1.038184E+04 -1.942437E+04 -7.571573E+04
       104  27 -2.564674E+05 -2.258110E+06 -2.893948E+05 -1.499805E+04 -4.868219E+03 -1.181328E+05
       105   1 -3.554164E+04 -4.791316E+03 -3.527672E+03 -1.268218E+02  3.673930E+03  3.101407E+01
       105   2 -3.667472E+04 -9.963839E+03 -6.695039E+03  3.107681E+01  2.425570E+03  6.949254E+01
       105   3 -3.549491E+04 -9.063393E+03 -7.404979E+03 -1.952729E+02  1.177304E+03  5.442546E+01
       105   4  2.901325E+02  4.166514E+03  5.430044E+03 -1.341197E+02  3.675710E+03  3.101765E+01
       105   5 -8.664668E+02 -1.011739E+03  2.256210E+03  6.284669E+01  2.426002E+03  6.949303E+01
       105   6  2.899935E+02 -1.169595E+02  1.540644E+03 -1.244333E+02  1.176388E+03  5.442406E+01
       105   7  3.612306E+04  1.312425E+04  1.438766E+04 -1.414188E+02  3.677491E+03  3.102123E+01
       105   8  3.494295E+04  7.940264E+03  1.120736E+04  9.461788E+01  2.426434E+03  6.949352E+01
       105   9  3.607606E+04  8.829377E+03  1.048617E+04 -5.359015E+01  1.175472E+03  5.442267E+01
       105  10 -3.554165E+04 -4.791320E+03 -3.527698E+03 -1.268219E+02 -4.720999E-11 -2.636878E-09
       105  11 -3.667473E+04 -9.963840E+03 -6.695050E+03  3.107667E+01  2.828919E-09 -5.979923E-10
       105  12 -3.549491E+04 -9.063393E+03 -7.404982E+03 -1.952729E+02  2.478596E-09 -2.070742E-09
       105  13  2.901180E+02  4.166510E+03  5.430019E+03 -1.341198E+02  2.155379E-09  1.103913E-09
       105  14 -8.664731E+02 -1.011741E+03  2.256199E+03  6.284656E+01  3.357588E-09 -1.009799E-09
       105  15  2.899920E+02 -1.169599E+02  1.540641E+03 -1.244334E+02 -2.431452E-10 -1.764027E-09
       105  16  3.612305E+04  1.312424E+04  1.438764E+04 -1.414189E+02  8.391592E-10  1.139379E-09
       105  17  3.494295E+04  7.940262E+03  1.120735E+04  9.461774E+01 -7.988510E-10 -3.873402E-10
       105  18  3.607606E+04  8.829377E+03  1.048617E+04 -5.359020E+01 -1.997396E-09  3.307069E-09
       105  19 -3.554164E+04 -4.791316E+03 -3.527672E+03 -1.268218E+02 -3.673930E+03 -3.101407E+01
       105  20 -3.667472E+04 -9.963839E+03 -6.695039E+03  3.107680E+01 -2.425570E+03 -6.949254E+01
       105  21 -3.549491E+04 -9.063393E+03 -7.404979E+03 -1.952729E+02 -1.177304E+03 -5.442546E+01
       105  22  2.901325E+02  4.166514E+03  5.430044E+03 -1.341197E+02 -3.675710E+03 -3.101765E+01
       105  23 -8.664668E+02 -1.011739E+03  2.256210E+03  6.284669E+01 -2.426002E+03 -6.949303E+01
       105  24  2.899935E+02 -1.169595E+02  1.540644E+03 -1.244333E+02 -1.176388E+03 -5.442406E+01
       105  25  3.612306E+04  1.312425E+04  1.438766E+04 -1.414188E+02 -3.677491E+03 -3.102123E+01
       105  26  3.494295E+04  7.940264E+03  1.120736E+04  9.461788E+01 -2.426434E+03 -6.949352E+01
       105  27  3.607606E+04  8.829377E+03  1.048617E+04 -5.359015E+01 -1.175472E+03 -5.442267E+01
       106   1 -2.781963E+04 -6.292420E+03 -5.671144E+03 -1.404812E+02  9.146712E+02  4.271453E+01
       106   2 -2.812301E+04 -7.087255E+03 -6.367991E+03  4.766651E+01  6.122460E+02  4.535935E+01
       106   3 -2.777176E+04 -6.934762E+03 -6.555413E+03 -1.395088E+02  3.098273E+02  3.882074E+01
       106   4 -7.834756E+01  6.428935E+02  1.263641E+03 -1.260385E+02  9.148814E+02  4.271465E+01
       106   5 -4.057209E+02 -1.579426E+02  5.607496E+02  6.199558E+01  6.122239E+02  4.535920E+01
       106   6 -7.843550E+01 -1.142497E+01  3.674303E+02 -1.252924E+02  3.095730E+02  3.882052E+01
       106   7  2.766364E+04  7.578149E+03  8.198368E+03 -1.115953E+02  9.150915E+02  4.271476E+01
       106   8  2.731226E+04  6.771312E+03  7.489432E+03  7.632515E+01  6.122018E+02  4.535906E+01
       106   9  2.761558E+04  6.911854E+03  7.290216E+03 -1.110754E+02  3.093186E+02  3.882030E+01
       106  10 -2.781963E+04 -6.292420E+03 -5.671146E+03 -1.404813E+02  4.298783E-09 -5.583893E-10
       106  11 -2.812301E+04 -7.087255E+03 -6.367991E+03  4.766648E+01  1.452618E-09  9.240187E-10
       106  12 -2.777176E+04 -6.934762E+03 -6.555414E+03 -1.395089E+02  1.850399E-09 -2.917032E-09
       106  13 -7.834846E+01  6.428932E+02  1.263640E+03 -1.260385E+02 -1.633673E-12  1.983817E-09
       106  14 -4.057213E+02 -1.579427E+02  5.607489E+02  6.199555E+01 -1.023115E-09  8.540455E-10
       106  15 -7.843560E+01 -1.142499E+01  3.674301E+02 -1.252924E+02  2.431306E-09 -5.885428E-10
       106  16  2.766363E+04  7.578149E+03  8.198367E+03 -1.115953E+02 -1.220412E-09  1.691535E-09
       106  17  2.731226E+04  6.771312E+03  7.489431E+03  7.632512E+01 -4.339953E-10 -8.926533E-10
       106  18  2.761558E+04  6.911854E+03  7.290216E+03 -1.110755E+02 -2.956007E-09  2.997684E-09
       106  19 -2.781963E+04 -6.292420E+03 -5.671144E+03 -1.404812E+02 -9.146712E+02 -4.271453E+01
       106  20 -2.812301E+04 -7.087255E+03 -6.367991E+03  4.766651E+01 -6.122460E+02 -4.535935E+01
       106  21 -2.777176E+04 -6.934762E+03 -6.555413E+03 -1.395089E+02 -3.098273E+02 -3.882074E+01
       106  22 -7.834756E+01  6.428935E+02  1.263641E+03 -1.260385E+02 -9.148814E+02 -4.271465E+01
       106  23 -4.057209E+02 -1.579426E+02  5.607496E+02  6.199558E+01 -6.122239E+02 -4.535920E+01
       106  24 -7.843549E+01 -1.142497E+01  3.674303E+02 -1.252924E+02 -3.095730E+02 -3.882052E+01
       106  25  2.766364E+04  7.578149E+03  8.198368E+03 -1.115953E+02 -9.150915E+02 -4.271476E+01
       106  26  2.731226E+04  6.771312E+03  7.489432E+03  7.632515E+01 -6.122018E+02 -4.535906E+01
       106  27  2.761558E+04  6.911854E+03  7.290216E+03 -1.110755E+02 -3.093186E+02 -3.882030E+01
       107   1 -1.977889E+04 -4.809347E+03 -4.626455E+03 -1.289674E+02  2.477921E+02  3.446328E+01
       107   2 -1.986839E+04 -4.917262E+03 -4.805164E+03  6.204167E+01  1.977117E+02  3.087092E+01
       107   3 -1.972998E+04 -4.893679E+03 -4.880685E+03 -1.230096E+02  1.476299E+02  2.567480E+01
       107   4 -1.731281E+02  9.204470E+01  2.745059E+02 -1.257009E+02  2.477308E+02  3.446319E+01
       107   5 -2.871174E+02 -2.198091E+01  8.973111E+01  6.234137E+01  1.976105E+02  3.087085E+01
       107   6 -1.731896E+02 -4.502466E+00  8.169898E+00 -1.256759E+02  1.474889E+02  2.567478E+01
       107   7  1.943298E+04  4.993408E+03  5.175438E+03 -1.224343E+02  2.476696E+02  3.446311E+01
       107   8  1.929450E+04  4.873271E+03  4.984597E+03  6.264108E+01  1.975094E+02  3.087079E+01
       107   9  1.938395E+04  4.884646E+03  4.896996E+03 -1.283422E+02  1.473479E+02  2.567476E+01
       107  10 -1.977889E+04 -4.809347E+03 -4.626455E+03 -1.289674E+02  4.311683E-09  1.183855E-09
       107  11 -1.986839E+04 -4.917262E+03 -4.805164E+03  6.204166E+01 -3.218556E-09  4.122610E-09
       107  12 -1.972998E+04 -4.893679E+03 -4.880685E+03 -1.230097E+02 -3.646125E-09 -1.745870E-08
       107  13 -1.731282E+02  9.204469E+01  2.745058E+02 -1.257009E+02 -4.307979E-09  5.248403E-10
       107  14 -2.871174E+02 -2.198093E+01  8.973103E+01  6.234137E+01 -6.459468E-09 -2.196935E-10
       107  15 -1.731896E+02 -4.502465E+00  8.169857E+00 -1.256759E+02  4.035262E-09  7.187711E-10
       107  16  1.943298E+04  4.993408E+03  5.175438E+03 -1.224343E+02 -4.505038E-11 -3.832068E-10
       107  17  1.929450E+04  4.873271E+03  4.984597E+03  6.264108E+01  5.910654E-09 -4.078810E-09
       107  18  1.938395E+04  4.884646E+03  4.896996E+03 -1.283422E+02  9.611546E-10  1.778488E-08
       107  19 -1.977889E+04 -4.809347E+03 -4.626455E+03 -1.289674E+02 -2.477921E+02 -3.446328E+01
       107  20 -1.986839E+04 -4.917262E+03 -4.805164E+03  6.204167E+01 -1.977117E+02 -3.087092E+01
       107  21 -1.972998E+04 -4.893679E+03 -4.880685E+03 -1.230096E+02 -1.476299E+02 -2.567480E+01
       107  22 -1.731281E+02  9.204470E+01  2.745059E+02 -1.257009E+02 -2.477308E+02 -3.446319E+01
       107  23 -2.871174E+02 -2.198092E+01  8.973111E+01  6.234137E+01 -1.976105E+02 -3.087085E+01
       107  24 -1.731896E+02 -4.502451E+00  8.169901E+00 -1.256759E+02 -1.474889E+02 -2.567478E+01
       107  25  1.943298E+04  4.993408E+03  5.175438E+03 -1.224343E+02 -2.476696E+02 -3.446311E+01
       107  26  1.929450E+04  4.873271E+03  4.984597E+03  6.264108E+01 -1.975094E+02 -3.087079E+01
       107  27  1.938395E+04  4.884646E+03  4.896996E+03 -1.283422E+02 -1.473479E+02 -2.567476E+01
       108   1 -1.165561E+04 -2.850055E+03 -2.907542E+03 -1.236893E+02  1.496148E+02  2.253233E+01
       108   2 -1.165067E+04 -2.844252E+03 -3.025435E+03  6.665144E+01  2.345319E+02  1.777056E+01
       108   3 -1.160792E+04 -2.897532E+03 -3.200657E+03 -1.201674E+02  3.194487E+02  1.272031E+01
       108   4 -2.153465E+02  9.960982E+00 -4.780851E+01 -1.259143E+02  1.495065E+02  2.253234E+01
       108   5 -2.342649E+02  9.815071E+00 -1.715930E+02  6.264852E+01  2.344181E+02  1.777059E+01
       108   6 -2.153824E+02 -4.941227E+01 -3.527019E+02 -1.259478E+02  3.193293E+02  1.272037E+01
       108   7  1.122503E+04  2.869967E+03  2.811915E+03 -1.281394E+02  1.493982E+02  2.253235E+01
       108   8  1.118225E+04  2.863872E+03  2.682239E+03  5.864554E+01  2.343042E+02  1.777062E+01
       108   9  1.117728E+04  2.798698E+03  2.495243E+03 -1.317284E+02  3.192099E+02  1.272043E+01
       108  10 -1.165561E+04 -2.850055E+03 -2.907542E+03 -1.236893E+02 -3.205756E-09  4.772809E-09
       108  11 -1.165067E+04 -2.844252E+03 -3.025435E+03  6.665144E+01  4.381650E-09  2.516648E-08
       108  12 -1.160792E+04 -2.897532E+03 -3.200657E+03 -1.201674E+02 -5.451974E-09 -1.009224E-07
       108  13 -2.153465E+02  9.960973E+00 -4.780855E+01 -1.259143E+02 -2.153955E-09  1.282245E-10
       108  14 -2.342649E+02  9.815046E+00 -1.715931E+02  6.264851E+01  4.276611E-09  8.075205E-10
       108  15 -2.153825E+02 -4.941226E+01 -3.527021E+02 -1.259478E+02 -3.778775E-09  1.144351E-09
       108  16  1.122503E+04  2.869967E+03  2.811915E+03 -1.281394E+02  1.097210E-09 -4.768759E-09
       108  17  1.118225E+04  2.863872E+03  2.682239E+03  5.864553E+01 -1.655401E-09 -2.378849E-08
       108  18  1.117728E+04  2.798698E+03  2.495243E+03 -1.317284E+02  7.779165E-09  1.046835E-07
       108  19 -1.165561E+04 -2.850055E+03 -2.907542E+03 -1.236893E+02 -1.496148E+02 -2.253233E+01
       108  20 -1.165067E+04 -2.844252E+03 -3.025435E+03  6.665144E+01 -2.345319E+02 -1.777056E+01
       108  21 -1.160792E+04 -2.897532E+03 -3.200657E+03 -1.201674E+02 -3.194487E+02 -1.272031E+01
       108  22 -2.153465E+02  9.960978E+00 -4.780851E+01 -1.259143E+02 -1.495065E+02 -2.253234E+01
       108  23 -2.342649E+02  9.815050E+00 -1.715930E+02  6.264852E+01 -2.344181E+02 -1.777059E+01
       108  24 -2.153824E+02 -4.941218E+01 -3.527019E+02 -1.259478E+02 -3.193293E+02 -1.272037E+01
       108  25  1.122503E+04  2.869967E+03  2.811915E+03 -1.281394E+02 -1.493982E+02 -2.253235E+01
       108  26  1.118225E+04  2.863872E+03  2.682239E+03  5.864554E+01 -2.343042E+02 -1.777062E+01
       108  27  1.117728E+04  2.798698E+03  2.495243E+03 -1.317284E+02 -3.192099E+02 -1.272043E+01
       109   1 -3.521555E+03 -8.068335E+02 -1.286283E+03 -1.275379E+02  3.937948E+02  9.702393E+00
       109   2 -3.410747E+03 -7.260765E+02 -1.622918E+03  6.515842E+01  8.060452E+02  4.465166E+00
       109   3 -3.473268E+03 -1.141836E+03 -2.351182E+03 -1.199469E+02  1.218295E+03 -6.865492E-01
       109   4 -2.622570E+02  7.957892E+00 -4.716129E+02 -1.259820E+02  3.936761E+02  9.702471E+00
       109   5 -1.755967E+02  8.269989E+01 -8.142067E+02  6.278945E+01  8.059304E+02  4.465245E+00
       109   6 -2.622668E+02 -3.390739E+02 -1.548431E+03 -1.262407E+02  1.218184E+03 -6.864769E-01
       109   7  2.997051E+03  8.227485E+02  3.430564E+02 -1.244260E+02  3.935574E+02  9.702549E+00
       109   8  3.059563E+03  8.914755E+02 -5.496044E+00  6.042047E+01  8.058156E+02  4.465325E+00
       109   9  2.948744E+03  4.636875E+02 -7.456800E+02 -1.325345E+02  1.218073E+03 -6.864008E-01
       109  10 -3.521556E+03 -8.068336E+02 -1.286283E+03 -1.275407E+02 -5.750653E-06 -2.369933E-07
       109  11 -3.410748E+03 -7.260774E+02 -1.622919E+03  6.514628E+01 -2.535304E-05 -8.887387E-08
       109  12 -3.473271E+03 -1.141838E+03 -2.351185E+03 -1.199684E+02 -4.491076E-05  6.739427E-07
       109  13 -2.622576E+02  7.957875E+00 -4.716133E+02 -1.259820E+02 -1.425249E-05 -1.274204E-07
       109  14 -1.755979E+02  8.269984E+01 -8.142080E+02  6.278945E+01 -6.321860E-05 -5.655834E-07
       109  15 -2.622689E+02 -3.390743E+02 -1.548433E+03 -1.262407E+02 -1.121813E-04 -9.974215E-07
       109  16  2.997051E+03  8.227488E+02  3.430562E+02 -1.244233E+02 -5.651885E-06  4.654133E-07
       109  17  3.059562E+03  8.914764E+02 -5.497018E+00  6.043261E+01 -2.521340E-05  1.093612E-06
       109  18  2.948743E+03  4.636888E+02 -7.456824E+02 -1.325129E+02 -4.482878E-05  1.118174E-06
       109  19 -3.521556E+03 -8.068337E+02 -1.286283E+03 -1.275434E+02 -3.937948E+02 -9.702394E+00
       109  20 -3.410747E+03 -7.260779E+02 -1.622918E+03  6.513415E+01 -8.060452E+02 -4.465167E+00
       109  21 -3.473270E+03 -1.141839E+03 -2.351183E+03 -1.199900E+02 -1.218295E+03  6.865506E-01
       109  22 -2.622579E+02  7.957942E+00 -4.716131E+02 -1.259820E+02 -3.936761E+02 -9.702471E+00
       109  23 -1.755976E+02  8.270014E+01 -8.142068E+02  6.278945E+01 -8.059305E+02 -4.465246E+00
       109  24 -2.622678E+02 -3.390740E+02 -1.548431E+03 -1.262407E+02 -1.218184E+03  6.864749E-01
       109  25  2.997051E+03  8.227491E+02  3.430565E+02 -1.244206E+02 -3.935574E+02 -9.702549E+00
       109  26  3.059563E+03  8.914777E+02 -5.495552E+00  6.044476E+01 -8.058157E+02 -4.465323E+00
       109  27  2.948745E+03  4.636908E+02 -7.456792E+02 -1.324914E+02 -1.218073E+03  6.864030E-01
       110   1  4.480870E+03  1.295215E+03 -7.407251E+02 -1.477795E+02  1.537843E+03 -3.960995E+00
       110   2  5.006237E+03  1.767884E+03 -2.026425E+03  6.711277E+01  3.215220E+03 -1.008506E+01
       110   3  4.529005E+03 -9.418367E+02 -5.197470E+03 -9.662122E+01  4.892572E+03 -1.499496E+01
       110   4 -4.465559E+02  6.333231E+01 -1.972543E+03 -1.257559E+02  1.537703E+03 -3.960847E+00
       110   5  5.476047E+01  5.300534E+02 -3.264167E+03  6.286012E+01  3.215098E+03 -1.008502E+01
       110   6 -4.465317E+02 -2.185633E+03 -6.441158E+03 -1.271500E+02  4.892467E+03 -1.499516E+01
       110   7 -5.373960E+03 -1.168552E+03 -3.204363E+03 -1.037324E+02  1.537563E+03 -3.960695E+00
       110   8 -4.896694E+03 -7.077792E+02 -4.501910E+03  5.860750E+01  3.214975E+03 -1.008498E+01
       110   9 -5.422046E+03 -3.429430E+03 -7.684847E+03 -1.576785E+02  4.892361E+03 -1.499536E+01
       110  10  4.480868E+03  1.295212E+03 -7.407300E+02 -1.478010E+02 -4.483483E-05  1.116118E-06
       110  11  5.006225E+03  1.767880E+03 -2.026445E+03  6.710065E+01 -2.521425E-05  1.093994E-06
       110  12  4.528979E+03 -9.418434E+02 -5.197515E+03 -9.662390E+01 -5.647941E-06  4.654235E-07
       110  13 -4.465580E+02  6.333171E+01 -1.972547E+03 -1.257558E+02 -1.121780E-04 -9.975817E-07
       110  14  5.474981E+01  5.300505E+02 -3.264186E+03  6.286014E+01 -6.321635E-05 -5.646774E-07
       110  15 -4.465569E+02 -2.185639E+03 -6.441202E+03 -1.271499E+02 -1.424734E-05 -1.264097E-07
       110  16 -5.373962E+03 -1.168551E+03 -3.204367E+03 -1.037108E+02 -4.490489E-05  6.748475E-07
       110  17 -4.896704E+03 -7.077812E+02 -4.501929E+03  5.861966E+01 -2.535216E-05 -8.924409E-08
       110  18 -5.422072E+03 -3.429437E+03 -7.684892E+03 -1.576757E+02 -5.750198E-06 -2.385241E-07
       110  19  4.480870E+03  1.295211E+03 -7.407259E+02 -1.478226E+02 -1.537843E+03  3.960997E+00
       110  20  5.006236E+03  1.767882E+03 -2.026426E+03  6.708849E+01 -3.215220E+03  1.008506E+01
       110  21  4.529005E+03 -9.418373E+02 -5.197470E+03 -9.662669E+01 -4.892572E+03  1.499496E+01
       110  22 -4.465550E+02  6.333238E+01 -1.972543E+03 -1.257558E+02 -1.537703E+03  3.960845E+00
       110  23  5.476134E+01  5.300532E+02 -3.264166E+03  6.286011E+01 -3.215098E+03  1.008502E+01
       110  24 -4.465307E+02 -2.185633E+03 -6.441157E+03 -1.271500E+02 -4.892467E+03  1.499516E+01
       110  25 -5.373959E+03 -1.168549E+03 -3.204362E+03 -1.036893E+02 -1.537563E+03  3.960696E+00
       110  26 -4.896693E+03 -7.077777E+02 -4.501909E+03  5.863177E+01 -3.214975E+03  1.008497E+01
       110  27 -5.422046E+03 -3.429430E+03 -7.684847E+03 -1.576730E+02 -4.892361E+03  1.499536E+01
       111   1  1.158664E+04  3.702711E+03 -4.741296E+03 -2.492530E+02  6.206445E+03 -1.918094E+01
       111   2  1.454583E+04  6.665622E+03 -9.545867E+03  1.113249E+02  1.295934E+04 -2.650029E+01
       111   3  1.163549E+04 -1.067128E+04 -2.380454E+04  9.540964E+01  1.971232E+04 -2.564977E+01
       111   4 -1.528150E+03  4.239150E+02 -8.019771E+03 -1.243375E+02  6.206170E+03 -1.917961E+01
       111   5  1.406779E+03  3.381012E+03 -1.283027E+04  6.226148E+01  1.295913E+04 -2.650134E+01
       111   6 -1.527956E+03 -1.396195E+04 -2.709506E+04 -1.276358E+02  1.971218E+04 -2.565691E+01
       111   7 -1.464278E+04 -2.854893E+03 -1.129826E+04  5.754413E-01  6.205895E+03 -1.917829E+01
       111   8 -1.173211E+04  9.638832E+01 -1.611468E+04  1.319910E+01  1.295893E+04 -2.650239E+01
       111   9 -1.469124E+04 -1.725264E+04 -3.038559E+04 -3.506764E+02  1.971205E+04 -2.566406E+01
       111  10  1.158660E+04  3.702700E+03 -4.741369E+03 -2.492529E+02  9.803203E-09  1.039525E-07
       111  11  1.454565E+04  6.665577E+03 -9.546182E+03  1.113252E+02  3.323616E-09 -2.481310E-08
       111  12  1.163507E+04 -1.067139E+04 -2.380527E+04  9.541004E+01 -1.530816E-09 -5.242597E-09
       111  13 -1.528191E+03  4.239046E+02 -8.019844E+03 -1.243374E+02  1.638462E-12  1.067026E-09
       111  14  1.406599E+03  3.380967E+03 -1.283058E+04  6.226175E+01 -2.180083E-09 -7.494828E-10
       111  15 -1.528373E+03 -1.396206E+04 -2.709579E+04 -1.276354E+02 -8.124027E-10  6.212091E-12
       111  16 -1.464283E+04 -2.854904E+03 -1.129833E+04  5.755356E-01 -7.579145E-09 -1.022479E-07
       111  17 -1.173229E+04  9.634324E+01 -1.611500E+04  1.319938E+01 -6.928094E-11  2.267311E-08
       111  18 -1.469166E+04 -1.725274E+04 -3.038632E+04 -3.506760E+02 -1.545278E-09  4.795294E-09
       111  19  1.158664E+04  3.702710E+03 -4.741296E+03 -2.492530E+02 -6.206445E+03  1.918094E+01
       111  20  1.454583E+04  6.665622E+03 -9.545867E+03  1.113249E+02 -1.295934E+04  2.650029E+01
       111  21  1.163549E+04 -1.067128E+04 -2.380454E+04  9.540964E+01 -1.971232E+04  2.564977E+01
       111  22 -1.528150E+03  4.239149E+02 -8.019771E+03 -1.243375E+02 -6.206170E+03  1.917961E+01
       111  23  1.406779E+03  3.381012E+03 -1.283027E+04  6.226148E+01 -1.295913E+04  2.650134E+01
       111  24 -1.527956E+03 -1.396195E+04 -2.709506E+04 -1.276358E+02 -1.971218E+04  2.565691E+01
       111  25 -1.464278E+04 -2.854894E+03 -1.129826E+04  5.754409E-01 -6.205895E+03  1.917829E+01
       111  26 -1.173211E+04  9.638834E+01 -1.611468E+04  1.319910E+01 -1.295893E+04  2.650239E+01
       111  27 -1.469124E+04 -1.725264E+04 -3.038559E+04 -3.506764E+02 -1.971205E+04  2.566406E+01
       112   1  1.322789E+04  8.092797E+03 -2.735278E+04 -8.657187E+02  2.515380E+04 -3.191806E+01
       112   2  3.103956E+04  2.684372E+04 -4.423918E+04  4.271640E+02  5.229759E+04 -2.998397E+01
       112   3  1.327302E+04 -8.348653E+04 -1.110191E+05  1.421980E+03  7.944163E+04  2.161300E+01
       112   4 -8.130155E+03  2.753230E+03 -3.269191E+04 -1.186076E+02  2.515271E+04 -3.188782E+01
       112   5  9.660758E+03  2.149915E+04 -4.958328E+04  5.004603E+01  5.229688E+04 -3.001570E+01
       112   6 -8.127783E+03 -8.883852E+04 -1.163697E+05 -7.934119E+01  7.944129E+04  2.142163E+01
       112   7 -2.948779E+04 -2.586369E+03 -3.803108E+04  6.284778E+02  2.515163E+04 -3.185757E+01
       112   8 -1.171763E+04  1.615455E+04 -5.492741E+04 -3.270590E+02  5.229617E+04 -3.004744E+01
       112   9 -2.952816E+04 -9.419055E+04 -1.217202E+05 -1.580611E+03  7.944095E+04  2.123025E+01
       112  10  1.322721E+04  8.092627E+03 -2.735397E+04 -8.657181E+02  6.592468E-11  1.787547E-08
       112  11  3.103662E+04  2.684299E+04 -4.424432E+04  4.271653E+02  2.110302E-09 -6.174810E-09
       112  12  1.326624E+04 -8.348822E+04 -1.110310E+05  1.421979E+03 -1.677535E-09 -4.736446E-09
       112  13 -8.130834E+03  2.753061E+03 -3.269310E+04 -1.186070E+02 -2.074473E-11  1.602573E-10
       112  14  9.657821E+03  2.149842E+04 -4.958842E+04  5.004729E+01 -2.127263E-09 -9.527811E-10
       112  15 -8.134561E+03 -8.884022E+04 -1.163815E+05 -7.934256E+01 -8.061648E-10 -5.604775E-10
       112  16 -2.948847E+04 -2.586539E+03 -3.803227E+04  6.284785E+02 -2.239100E-09 -1.810772E-08
       112  17 -1.172056E+04  1.615382E+04 -5.493255E+04 -3.270578E+02  3.242916E-09  2.000572E-09
       112  18 -2.953494E+04 -9.419224E+04 -1.217321E+05 -1.580612E+03 -2.540042E-09  3.084204E-09
       112  19  1.322789E+04  8.092797E+03 -2.735278E+04 -8.657187E+02 -2.515380E+04  3.191806E+01
       112  20  3.103956E+04  2.684372E+04 -4.423918E+04  4.271640E+02 -5.229759E+04  2.998397E+01
       112  21  1.327302E+04 -8.348653E+04 -1.110191E+05  1.421980E+03 -7.944163E+04 -2.161300E+01
       112  22 -8.130155E+03  2.753230E+03 -3.269191E+04 -1.186076E+02 -2.515271E+04  3.188782E+01
       112  23  9.660758E+03  2.149915E+04 -4.958328E+04  5.004603E+01 -5.229688E+04  3.001570E+01
       112  24 -8.127783E+03 -8.883852E+04 -1.163697E+05 -7.934119E+01 -7.944129E+04 -2.142163E+01
       112  25 -2.948779E+04 -2.586369E+03 -3.803108E+04  6.284778E+02 -2.515163E+04  3.185757E+01
       112  26 -1.171763E+04  1.615455E+04 -5.492741E+04 -3.270590E+02 -5.229617E+04  3.004744E+01
       112  27 -2.952816E+04 -9.419055E+04 -1.217202E+05 -1.580611E+03 -7.944095E+04 -2.123025E+01
       113   1  1.143980E+05  1.027938E+06  1.071792E+05 -4.217061E+04  5.910223E+03  4.631737E+04
       113   2  1.010028E+05  9.966117E+05  7.649565E+04 -3.957145E+04  2.039132E+04  2.335348E+04
       113   3  9.231086E+04  9.694518E+05  6.192841E+04 -4.089840E+04  2.567494E+04  3.865258E+02
       113   4  1.814916E+03  5.697733E+05  2.017367E+03 -4.064450E+04  5.938364E+03  5.024255E+02
       113   5  7.250281E+02  5.696102E+05  1.726354E+03 -3.868208E+04  2.040820E+04 -3.563883E+02
       113   6  5.060896E+02  5.697813E+05  2.217782E+03 -4.064545E+04  2.567770E+04 -1.219442E+03
       113   7 -1.107816E+05  1.118072E+05 -1.031504E+05 -3.911949E+04  5.966291E+03 -4.527903E+04
       113   8 -9.956238E+04  1.427882E+05 -7.304738E+04 -3.779330E+04  2.042502E+04 -2.405046E+04
       113   9 -9.130621E+04  1.702711E+05 -5.749592E+04 -4.039263E+04  2.568046E+04 -2.824418E+03
       113  10  1.143974E+05  1.027936E+06  1.071751E+05 -4.217083E+04 -3.367091E-09  1.528692E-08
       113  11  1.010022E+05  9.966110E+05  7.649385E+04 -3.957183E+04 -8.107703E-09  1.163563E-08
       113  12  9.231015E+04  9.694516E+05  6.192717E+04 -4.089841E+04 -1.687772E-08  1.243587E-08
       113  13  1.814878E+03  5.697733E+05  2.017300E+03 -4.064451E+04 -2.425528E-10  5.742481E-10
       113  14  7.245807E+02  5.696101E+05  1.725571E+03 -3.868207E+04  1.525836E-08 -1.149731E-09
       113  15  5.053810E+02  5.697812E+05  2.216539E+03 -4.064542E+04  2.432506E-08  8.883080E-10
       113  16 -1.107822E+05  1.118050E+05 -1.031544E+05 -3.911928E+04 -4.427665E-09 -1.613133E-08
       113  17 -9.956298E+04  1.427875E+05 -7.304925E+04 -3.779290E+04 -6.026678E-09 -1.209041E-08
       113  18 -9.130692E+04  1.702709E+05 -5.749717E+04 -4.039257E+04 -1.257916E-08 -1.217560E-08
       113  19  1.143980E+05  1.027938E+06  1.071792E+05 -4.217061E+04 -5.910223E+03 -4.631737E+04
       113  20  1.010028E+05  9.966117E+05  7.649565E+04 -3.957145E+04 -2.039132E+04 -2.335348E+04
       113  21  9.231086E+04  9.694518E+05  6.192841E+04 -4.089840E+04 -2.567494E+04 -3.865258E+02
       113  22  1.814916E+03  5.697733E+05  2.017367E+03 -4.064450E+04 -5.938364E+03 -5.024255E+02
       113  23  7.250281E+02  5.696102E+05  1.726354E+03 -3.868208E+04 -2.040820E+04  3.563883E+02
       113  24  5.060896E+02  5.697813E+05  2.217782E+03 -4.064545E+04 -2.567770E+04  1.219442E+03
       113  25 -1.107816E+05  1.118072E+05 -1.031504E+05 -3.911949E+04 -5.966291E+03  4.527903E+04
       113  26 -9.956238E+04  1.427882E+05 -7.304738E+04 -3.779330E+04 -2.042502E+04  2.405046E+04
       113  27 -9.130621E+04  1.702711E+05 -5.749592E+04 -4.039263E+04 -2.568046E+04  2.824418E+03
       114   1  8.771753E+04  9.509436E+05  5.782118E+04 -4.117900E+04  2.566022E+04 -7.938693E+02
       114   2  8.120628E+04  9.210742E+05  5.316009E+04 -3.774876E+04  2.508283E+04 -7.527814E+03
       114   3  7.709356E+04  8.926790E+05  5.347820E+04 -3.896514E+04  2.264856E+04 -1.426309E+04
       114   4  5.505502E+02  5.698652E+05  2.729078E+03 -4.080579E+04  2.566240E+04 -1.624479E+03
       114   5  1.231875E+03  5.695180E+05  4.530460E+03 -3.848138E+04  2.508142E+04 -3.895215E+03
       114   6  3.538295E+03  5.698708E+05  8.215423E+03 -4.080371E+04  2.264303E+04 -6.167568E+03
       114   7 -8.662308E+04  1.889331E+05 -5.236535E+04 -4.043279E+04  2.566458E+04 -2.454600E+03
       114   8 -7.874797E+04  2.180872E+05 -4.410057E+04 -3.921355E+04  2.508000E+04 -2.645778E+02
       114   9 -7.002157E+04  2.471682E+05 -3.704846E+04 -4.264127E+04  2.263745E+04  1.923938E+03
       114  10  8.771683E+04  9.509434E+05  5.781994E+04 -4.117899E+04 -1.693100E-08 -8.016725E-08
       114  11  8.120559E+04  9.210739E+05  5.315881E+04 -3.774861E+04 -4.554942E-09 -1.435883E-08
       114  12  7.709296E+04  8.926787E+05  5.347685E+04 -3.896488E+04 -6.982947E-10  5.282817E-08
       114  13  5.498421E+02  5.698650E+05  2.727835E+03 -4.080576E+04  2.287251E-08  7.832079E-10
       114  14  1.231195E+03  5.695178E+05  4.529249E+03 -3.848131E+04  1.600289E-08 -1.604088E-09
       114  15  3.537735E+03  5.698706E+05  8.214388E+03 -4.080360E+04  1.535529E-09  8.401950E-10
       114  16 -8.662379E+04  1.889329E+05 -5.236660E+04 -4.043274E+04 -1.399479E-08  7.903205E-08
       114  17 -7.874864E+04  2.180870E+05 -4.410175E+04 -3.921354E+04 -5.768952E-09  1.382488E-08
       114  18 -7.002212E+04  2.471681E+05 -3.704943E+04 -4.264130E+04 -3.534215E-09 -5.263730E-08
       114  19  8.771753E+04  9.509436E+05  5.782118E+04 -4.117900E+04 -2.566022E+04  7.938693E+02
       114  20  8.120628E+04  9.210742E+05  5.316009E+04 -3.774876E+04 -2.508283E+04  7.527814E+03
       114  21  7.709356E+04  8.926790E+05  5.347820E+04 -3.896514E+04 -2.264856E+04  1.426309E+04
       114  22  5.505502E+02  5.698652E+05  2.729078E+03 -4.080579E+04 -2.566240E+04  1.624479E+03
       114  23  1.231875E+03  5.695180E+05  4.530460E+03 -3.848138E+04 -2.508142E+04  3.895215E+03
       114  24  3.538295E+03  5.698708E+05  8.215423E+03 -4.080371E+04 -2.264303E+04  6.167568E+03
       114  25 -8.662308E+04  1.889331E+05 -5.236535E+04 -4.043279E+04 -2.566458E+04  2.454600E+03
       114  26 -7.874797E+04  2.180872E+05 -4.410057E+04 -3.921355E+04 -2.508000E+04  2.645778E+02
       114  27 -7.002157E+04  2.471682E+05 -3.704846E+04 -4.264127E+04 -2.263745E+04 -1.923938E+03
       115   1  7.456626E+04  8.759636E+05  5.476851E+04 -3.963667E+04  2.075769E+04 -1.616174E+04
       115   2  7.775896E+04  8.433494E+05  6.580354E+04 -2.492403E+04  1.481709E+04 -3.797430E+04
       115   3  9.823007E+04  8.178858E+05  9.534409E+04 -1.528210E+04  4.083150E+03 -5.979066E+04
       115   4  4.840599E+03  5.708626E+05  1.097020E+04 -4.089952E+04  2.075138E+04 -7.599974E+03
       115   5  1.369845E+04  5.682843E+05  2.019767E+04 -3.835088E+04  1.480061E+04 -1.789481E+04
       115   6  3.783988E+04  5.708587E+05  3.994035E+04 -4.087259E+04  4.056362E+03 -2.819405E+04
       115   7 -6.488925E+04  2.658556E+05 -3.282926E+04 -4.216169E+04  2.074504E+04  9.577661E+02
       115   8 -5.036508E+04  2.932953E+05 -2.540887E+04 -5.177157E+04  1.478325E+04  2.176100E+03
       115   9 -2.255146E+04  3.238919E+05 -1.546316E+04 -6.645279E+04  4.026966E+03  3.390139E+03
       115  10  7.456573E+04  8.759633E+05  5.476721E+04 -3.963640E+04  1.296710E-09  3.855180E-09
       115  11  7.775834E+04  8.433477E+05  6.580042E+04 -2.492358E+04  1.610333E-09  1.029291E-09
       115  12  9.822909E+04  8.178819E+05  9.533735E+04 -1.528190E+04 -2.076735E-09  2.375230E-09
       115  13  4.840121E+03  5.708624E+05  1.096928E+04 -4.089939E+04 -7.569032E-09  8.115859E-10
       115  14  1.369813E+04  5.682839E+05  2.019665E+04 -3.835067E+04 -2.869497E-09 -1.700166E-09
       115  15  3.783965E+04  5.708578E+05  3.993882E+04 -4.087250E+04  2.341779E-09  1.084191E-09
       115  16 -6.488971E+04  2.658555E+05 -3.283007E+04 -4.216171E+04 -3.038648E-09 -5.114989E-09
       115  17 -5.036532E+04  2.932952E+05 -2.540929E+04 -5.177160E+04 -3.476702E-09 -1.600555E-09
       115  18 -2.255148E+04  3.238919E+05 -1.546321E+04 -6.645280E+04 -8.355096E-10 -2.000771E-09
       115  19  7.456626E+04  8.759636E+05  5.476851E+04 -3.963667E+04 -2.075769E+04  1.616174E+04
       115  20  7.775896E+04  8.433494E+05  6.580354E+04 -2.492403E+04 -1.481709E+04  3.797430E+04
       115  21  9.823007E+04  8.178858E+05  9.534409E+04 -1.528210E+04 -4.083150E+03  5.979066E+04
       115  22  4.840599E+03  5.708626E+05  1.097020E+04 -4.089952E+04 -2.075138E+04  7.599974E+03
       115  23  1.369845E+04  5.682843E+05  2.019767E+04 -3.835088E+04 -1.480061E+04  1.789481E+04
       115  24  3.783988E+04  5.708587E+05  3.994035E+04 -4.087259E+04 -4.056362E+03  2.819405E+04
       115  25 -6.488925E+04  2.658556E+05 -3.282926E+04 -4.216169E+04 -2.074504E+04 -9.577661E+02
       115  26 -5.036508E+04  2.932953E+05 -2.540887E+04 -5.177157E+04 -1.478325E+04 -2.176100E+03
       115  27 -2.255146E+04  3.238919E+05 -1.546316E+04 -6.645279E+04 -4.026966E+03 -3.390139E+03
       116   1 -1.490698E+05 -3.324757E+04 -3.229443E+04 -1.434574E+03  3.173672E+03  1.197422E+02
       116   2 -1.555415E+05 -3.900118E+04 -3.640534E+04 -3.013827E+02  2.153150E+03  2.872649E+02
       116   3 -1.488400E+05 -3.767711E+04 -3.582813E+04 -1.038894E+03  1.134123E+03  2.230647E+02
       116   4  2.290105E+03  4.602087E+03  5.548653E+03 -6.533479E+02  3.181185E+03  1.197958E+02
       116   5 -4.298888E+03 -1.183767E+03  1.405417E+03  2.987486E+02  2.154885E+03  2.872701E+02
       116   6  2.287470E+03  1.093682E+02  1.954035E+03 -6.198322E+02  1.130079E+03  2.230470E+02
       116   7  1.536707E+05  4.245001E+04  4.339001E+04  1.280303E+02  3.188700E+03  1.198493E+02
       116   8  1.469645E+05  3.663192E+04  3.921445E+04  8.989979E+02  2.156619E+03  2.872753E+02
       116   9  1.534357E+05  3.789412E+04  3.973447E+04 -2.006863E+02  1.126033E+03  2.230293E+02
       116  10 -1.490698E+05 -3.324757E+04 -3.229445E+04 -1.434574E+03 -2.071449E-09 -6.014048E-11
       116  11 -1.555415E+05 -3.900119E+04 -3.640535E+04 -3.013832E+02  7.656614E-10 -2.079483E-10
       116  12 -1.488400E+05 -3.767711E+04 -3.582813E+04 -1.038895E+03 -1.947307E-09 -5.882583E-10
       116  13  2.290095E+03  4.602084E+03  5.548634E+03 -6.533482E+02 -4.308357E-09  6.052932E-11
       116  14 -4.298893E+03 -1.183769E+03  1.405408E+03  2.987481E+02 -1.077532E-09  2.445763E-10
       116  15  2.287469E+03  1.093678E+02  1.954033E+03 -6.198324E+02 -2.033120E-09 -4.382029E-10
       116  16  1.536707E+05  4.245001E+04  4.338999E+04  1.280300E+02 -3.141486E-09  1.277473E-10
       116  17  1.469645E+05  3.663192E+04  3.921444E+04  8.989974E+02 -1.080898E-09  1.259659E-10
       116  18  1.534357E+05  3.789412E+04  3.973447E+04 -2.006865E+02 -5.954962E-10 -4.241086E-10
       116  19 -1.490698E+05 -3.324757E+04 -3.229443E+04 -1.434574E+03 -3.173672E+03 -1.197422E+02
       116  20 -1.555415E+05 -3.900118E+04 -3.640534E+04 -3.013827E+02 -2.153150E+03 -2.872649E+02
       116  21 -1.488400E+05 -3.767711E+04 -3.582813E+04 -1.038894E+03 -1.134123E+03 -2.230647E+02
       116  22  2.290105E+03  4.602087E+03  5.548653E+03 -6.533479E+02 -3.181185E+03 -1.197958E+02
       116  23 -4.298888E+03 -1.183767E+03  1.405417E+03  2.987486E+02 -2.154885E+03 -2.872701E+02
       116  24  2.287470E+03  1.093682E+02  1.954035E+03 -6.198322E+02 -1.130079E+03 -2.230470E+02
       116  25  1.536707E+05  4.245001E+04  4.339001E+04  1.280303E+02 -3.188700E+03 -1.198493E+02
       116  26  1.469645E+05  3.663192E+04  3.921445E+04  8.989979E+02 -2.156619E+03 -2.872753E+02
       116  27  1.534357E+05  3.789412E+04  3.973447E+04 -2.006863E+02 -1.126033E+03 -2.230293E+02
       117   1 -1.096840E+05 -2.712845E+04 -2.620274E+04 -8.573908E+02  7.171278E+02  1.708283E+02
       117   2 -1.126967E+05 -2.774697E+04 -2.729730E+04  2.146507E+02  4.604628E+02  1.797062E+02
       117   3 -1.094424E+05 -2.738500E+04 -2.678163E+04 -6.143587E+02  2.038188E+02  1.485172E+02
       117   4  7.563646E+02  4.836583E+02  1.406665E+03 -6.375584E+02  7.179253E+02  1.708285E+02
       117   5 -2.378353E+03 -1.658890E+02  2.814214E+02  3.136046E+02  4.602588E+02  1.797039E+02
       117   6  7.546056E+02  1.656053E+02  7.671041E+02 -6.362618E+02  2.026133E+02  1.485158E+02
       117   7  1.112078E+05  2.809485E+04  2.901515E+04 -4.176940E+02  7.187231E+02  1.708287E+02
       117   8  1.079510E+05  2.741428E+04  2.785922E+04  4.125729E+02  4.600547E+02  1.797017E+02
       117   9  1.109626E+05  2.771529E+04  2.831492E+04 -6.581683E+02  2.014075E+02  1.485143E+02
       117  10 -1.096840E+05 -2.712845E+04 -2.620274E+04 -8.573909E+02  6.888447E-10 -2.448204E-10
       117  11 -1.126967E+05 -2.774697E+04 -2.729730E+04  2.146506E+02  4.093654E-10  4.621205E-10
       117  12 -1.094424E+05 -2.738500E+04 -2.678163E+04 -6.143587E+02  2.753566E-09  3.353379E-10
       117  13  7.563641E+02  4.836582E+02  1.406664E+03 -6.375585E+02 -4.308236E-09 -5.272189E-10
       117  14 -2.378353E+03 -1.658891E+02  2.814209E+02  3.136046E+02  3.230098E-09  8.268518E-10
       117  15  7.546055E+02  1.656053E+02  7.671040E+02 -6.362618E+02  1.878642E-09 -5.554795E-10
       117  16  1.112078E+05  2.809485E+04  2.901515E+04 -4.176941E+02  7.654598E-10  3.695896E-10
       117  17  1.079510E+05  2.741428E+04  2.785922E+04  4.125728E+02 -3.234798E-09  4.412785E-10
       117  18  1.109626E+05  2.771529E+04  2.831492E+04 -6.581684E+02  3.985630E-09  3.326960E-11
       117  19 -1.096840E+05 -2.712845E+04 -2.620274E+04 -8.573908E+02 -7.171278E+02 -1.708283E+02
       117  20 -1.126967E+05 -2.774697E+04 -2.729730E+04  2.146507E+02 -4.604628E+02 -1.797062E+02
       117  21 -1.094424E+05 -2.738500E+04 -2.678163E+04 -6.143587E+02 -2.038188E+02 -1.485172E+02
       117  22  7.563646E+02  4.836583E+02  1.406665E+03 -6.375584E+02 -7.179253E+02 -1.708285E+02
       117  23 -2.378353E+03 -1.658890E+02  2.814214E+02  3.136046E+02 -4.602588E+02 -1.797039E+02
       117  24  7.546056E+02  1.656053E+02  7.671041E+02 -6.362618E+02 -2.026133E+02 -1.485158E+02
       117  25  1.112078E+05  2.809485E+04  2.901515E+04 -4.176940E+02 -7.187231E+02 -1.708287E+02
       117  26  1.079510E+05  2.741428E+04  2.785922E+04  4.125729E+02 -4.600547E+02 -1.797017E+02
       117  27  1.109626E+05  2.771529E+04  2.831492E+04 -6.581683E+02 -2.014075E+02 -1.485143E+02
       118   1 -6.909295E+04 -1.733406E+04 -1.674279E+04 -6.051195E+02  3.646722E+01  1.277792E+02
       118   2 -7.015282E+04 -1.722937E+04 -1.689494E+04  4.079735E+02 -1.606553E+02  1.090597E+02
       118   3 -6.884479E+04 -1.704629E+04 -1.643453E+04 -5.049962E+02 -3.578265E+02  8.346908E+01
       118   4 -1.092960E+02 -8.778750E+01  5.018556E+02 -6.423595E+02  3.609922E+01  1.277787E+02
       118   5 -1.293886E+03 -1.405220E+01  3.188724E+02  3.208789E+02 -1.612074E+02  1.090599E+02
       118   6 -1.103997E+02  1.382221E+02  7.485782E+02 -6.419303E+02 -3.585626E+02  8.347040E+01
       118   7  6.887867E+04  1.715812E+04  1.774614E+04 -6.796028E+02  3.573119E+01  1.277781E+02
       118   8  6.756935E+04  1.720091E+04  1.753232E+04  2.337765E+02 -1.617595E+02  1.090601E+02
       118   9  6.862827E+04  1.732237E+04  1.793133E+04 -7.788769E+02 -3.592987E+02  8.347173E+01
       118  10 -6.909295E+04 -1.733406E+04 -1.674279E+04 -6.051195E+02  1.178430E-09  2.450246E-10
       118  11 -7.015282E+04 -1.722937E+04 -1.689494E+04  4.079735E+02 -3.855575E-11  1.266117E-10
       118  12 -6.884479E+04 -1.704629E+04 -1.643453E+04 -5.049962E+02  2.371708E-09 -1.835888E-10
       118  13 -1.092960E+02 -8.778752E+01  5.018555E+02 -6.423595E+02 -2.154247E-09  1.886383E-10
       118  14 -1.293886E+03 -1.405222E+01  3.188724E+02  3.208790E+02 -4.307652E-09  1.426583E-10
       118  15 -1.103999E+02  1.382220E+02  7.485780E+02 -6.419303E+02  2.336945E-09 -6.342796E-12
       118  16  6.887867E+04  1.715812E+04  1.774614E+04 -6.796028E+02  1.248159E-10  1.345277E-10
       118  17  6.756935E+04  1.720091E+04  1.753232E+04  2.337766E+02  1.619478E-09  6.930239E-10
       118  18  6.862827E+04  1.732237E+04  1.793133E+04 -7.788768E+02 -3.227509E-09 -2.651226E-10
       118  19 -6.909295E+04 -1.733406E+04 -1.674279E+04 -6.051195E+02 -3.646722E+01 -1.277792E+02
       118  20 -7.015282E+04 -1.722937E+04 -1.689494E+04  4.079735E+02  1.606553E+02 -1.090597E+02
       118  21 -6.884479E+04 -1.704629E+04 -1.643453E+04 -5.049962E+02  3.578265E+02 -8.346908E+01
       118  22 -1.092960E+02 -8.778750E+01  5.018556E+02 -6.423595E+02 -3.609922E+01 -1.277787E+02
       118  23 -1.293886E+03 -1.405220E+01  3.188724E+02  3.208789E+02  1.612074E+02 -1.090599E+02
       118  24 -1.103997E+02  1.382221E+02  7.485782E+02 -6.419303E+02  3.585626E+02 -8.347040E+01
       118  25  6.887867E+04  1.715812E+04  1.774614E+04 -6.796028E+02 -3.573119E+01 -1.277781E+02
       118  26  6.756935E+04  1.720091E+04  1.753232E+04  2.337765E+02  1.617595E+02 -1.090601E+02
       118  27  6.862827E+04  1.732237E+04  1.793133E+04 -7.788769E+02  3.592987E+02 -8.347173E+01
       119   1 -2.772488E+04 -6.904845E+03 -6.034847E+03 -5.842046E+02 -5.118254E+02  6.821436E+01
       119   2 -2.785399E+04 -6.821813E+03 -5.528852E+03  3.882986E+02 -1.136457E+03  4.619988E+01
       119   3 -2.747941E+04 -6.428139E+03 -4.469617E+03 -5.712235E+02 -1.761119E+03  2.349914E+01
       119   4 -5.232667E+02 -1.043134E+02  7.646725E+02 -6.441027E+02 -5.124047E+02  6.821587E+01
       119   5 -7.753275E+02 -5.189763E+01  1.240316E+03  3.226198E+02 -1.137077E+03  4.620178E+01
       119   6 -5.236967E+02  3.111648E+02  2.269214E+03 -6.426779E+02 -1.761778E+03  2.350146E+01
       119   7  2.667902E+04  6.696162E+03  7.564136E+03 -7.040029E+02 -5.129840E+02  6.821738E+01
       119   8  2.630400E+04  6.717962E+03  8.009429E+03  2.569387E+02 -1.137696E+03  4.620369E+01
       119   9  2.643268E+04  7.050414E+03  9.007991E+03 -7.141349E+02 -1.762438E+03  2.350379E+01
       119  10 -2.772488E+04 -6.904845E+03 -6.034847E+03 -5.842045E+02  1.436793E-09  4.073153E-10
       119  11 -2.785399E+04 -6.821813E+03 -5.528854E+03  3.882986E+02 -3.250391E-09  2.363903E-10
       119  12 -2.747942E+04 -6.428140E+03 -4.469623E+03 -5.712235E+02 -1.230461E-09 -2.031654E-10
       119  13 -5.232670E+02 -1.043135E+02  7.646720E+02 -6.441026E+02  2.154427E-09 -1.494015E-10
       119  14 -7.753289E+02 -5.189798E+01  1.240314E+03  3.226198E+02  2.158327E-09  1.412467E-09
       119  15 -5.237001E+02  3.111639E+02  2.269209E+03 -6.426779E+02 -1.464855E-09  4.482864E-10
       119  16  2.667902E+04  6.696162E+03  7.564135E+03 -7.040029E+02  4.276149E-10 -5.163191E-12
       119  17  2.630400E+04  6.717962E+03  8.009427E+03  2.569387E+02  5.388536E-09  1.638713E-10
       119  18  2.643268E+04  7.050413E+03  9.007986E+03 -7.141349E+02 -2.622759E-10 -3.016228E-11
       119  19 -2.772488E+04 -6.904845E+03 -6.034847E+03 -5.842046E+02  5.118254E+02 -6.821436E+01
       119  20 -2.785399E+04 -6.821813E+03 -5.528852E+03  3.882986E+02  1.136457E+03 -4.619988E+01
       119  21 -2.747941E+04 -6.428139E+03 -4.469617E+03 -5.712235E+02  1.761119E+03 -2.349914E+01
       119  22 -5.232667E+02 -1.043134E+02  7.646725E+02 -6.441027E+02  5.124047E+02 -6.821587E+01
       119  23 -7.753275E+02 -5.189763E+01  1.240316E+03  3.226198E+02  1.137077E+03 -4.620178E+01
       119  24 -5.236967E+02  3.111648E+02  2.269214E+03 -6.426779E+02  1.761778E+03 -2.350146E+01
       119  25  2.667902E+04  6.696162E+03  7.564136E+03 -7.040029E+02  5.129840E+02 -6.821738E+01
       119  26  2.630400E+04  6.717962E+03  8.009429E+03  2.569387E+02  1.137696E+03 -4.620369E+01
       119  27  2.643268E+04  7.050414E+03  9.007991E+03 -7.141349E+02  1.762438E+03 -2.350379E+01
       120   1  1.431036E+04  3.601906E+03  6.572051E+03 -6.682250E+02 -2.232702E+03  1.013945E+01
       120   2  1.388230E+04  3.245746E+03  8.581426E+03  2.801478E+02 -4.699178E+03 -7.075844E+00
       120   3  1.455762E+04  5.653265E+03  1.290573E+04 -6.994546E+02 -7.165652E+03 -2.411760E+01
       120   4 -3.902552E+02 -7.325290E+01  2.896895E+03 -6.449554E+02 -2.233297E+03  1.014169E+01
       120   5 -9.418115E+02 -4.603790E+02  4.875759E+03  3.223058E+02 -4.699717E+03 -7.074042E+00
       120   6 -3.899715E+02  1.916200E+03  9.169551E+03 -6.384112E+02 -7.166135E+03 -2.411637E+01
       120   7 -1.509068E+04 -3.748428E+03 -7.782781E+02 -6.216863E+02 -2.233892E+03  1.014392E+01
       120   8 -1.576573E+04 -4.166521E+03  1.170076E+03  3.644629E+02 -4.700256E+03 -7.072239E+00
       120   9 -1.533736E+04 -1.820881E+03  5.433355E+03 -5.773690E+02 -7.166618E+03 -2.411514E+01
       120  10  1.431036E+04  3.601905E+03  6.572042E+03 -6.682250E+02  2.646400E-09 -3.922883E-10
       120  11  1.388228E+04  3.245740E+03  8.581384E+03  2.801478E+02 -8.599070E-11 -7.353001E-11
       120  12  1.455757E+04  5.653251E+03  1.290563E+04 -6.994548E+02  2.596944E-09  7.269025E-10
       120  13 -3.902605E+02 -7.325424E+01  2.896885E+03 -6.449554E+02 -6.636957E-13  5.700563E-10
       120  14 -9.418353E+02 -4.603849E+02  4.875718E+03  3.223057E+02  5.554568E-13  5.335371E-10
       120  15 -3.900266E+02  1.916187E+03  9.169454E+03 -6.384113E+02 -1.092034E-10  6.500309E-10
       120  16 -1.509068E+04 -3.748430E+03 -7.782875E+02 -6.216862E+02 -1.664500E-09 -5.243087E-10
       120  17 -1.576575E+04 -4.166527E+03  1.170034E+03  3.644628E+02  1.075122E-09  2.934281E-10
       120  18 -1.533742E+04 -1.820894E+03  5.433259E+03 -5.773692E+02 -4.240602E-09 -6.879916E-10
       120  19  1.431036E+04  3.601906E+03  6.572051E+03 -6.682250E+02  2.232702E+03 -1.013945E+01
       120  20  1.388230E+04  3.245746E+03  8.581426E+03  2.801478E+02  4.699178E+03  7.075844E+00
       120  21  1.455762E+04  5.653265E+03  1.290573E+04 -6.994546E+02  7.165652E+03  2.411760E+01
       120  22 -3.902552E+02 -7.325290E+01  2.896895E+03 -6.449554E+02  2.233297E+03 -1.014169E+01
       120  23 -9.418115E+02 -4.603790E+02  4.875759E+03  3.223058E+02  4.699717E+03  7.074042E+00
       120  24 -3.899715E+02  1.916200E+03  9.169551E+03 -6.384112E+02  7.166135E+03  2.411637E+01
       120  25 -1.509068E+04 -3.748428E+03 -7.782781E+02 -6.216863E+02  2.233892E+03 -1.014392E+01
       120  26 -1.576573E+04 -4.166521E+03  1.170076E+03  3.644629E+02  4.700256E+03  7.072239E+00
       120  27 -1.533736E+04 -1.820881E+03  5.433355E+03 -5.773690E+02  7.166618E+03  2.411514E+01
       121   1  5.753771E+04  1.382165E+04  2.589218E+04 -6.681801E+02 -9.076912E+03 -3.606299E+01
       121   2  5.390111E+04  1.104800E+04  3.337824E+04  1.857875E+02 -1.898089E+04 -4.598413E+01
       121   3  5.778322E+04  2.693082E+04  5.228947E+04 -8.840828E+02 -2.888480E+04 -6.283338E+01
       121   4  1.034623E+03 -3.030816E+02  1.176804E+04 -6.501139E+02 -9.077214E+03 -3.606084E+01
       121   5 -2.724257E+03 -3.108140E+03  1.922375E+04  3.223919E+02 -1.898057E+04 -4.598657E+01
       121   6  1.035921E+03  1.274403E+04  3.810489E+04 -6.289516E+02 -2.888386E+04 -6.284424E+01
       121   7 -5.546557E+04 -1.442806E+04 -2.356353E+03 -6.320471E+02 -9.077517E+03 -3.605868E+01
       121   8 -5.934672E+04 -1.726452E+04  5.069019E+03  4.589855E+02 -1.898024E+04 -4.598901E+01
       121   9 -5.570846E+04 -1.443004E+03  2.392007E+04 -3.738426E+02 -2.888291E+04 -6.285509E+01
       121  10  5.753762E+04  1.382163E+04  2.589203E+04 -6.681804E+02  4.713019E-09 -2.154208E-10
       121  11  5.390072E+04  1.104790E+04  3.337757E+04  1.857868E+02 -1.848607E-09 -9.635348E-10
       121  12  5.778232E+04  2.693059E+04  5.228790E+04 -8.840842E+02  1.427945E-09  3.455546E-10
       121  13  1.034535E+03 -3.031038E+02  1.176788E+04 -6.501142E+02 -2.167052E-09 -1.016004E-09
       121  14 -2.724644E+03 -3.108237E+03  1.922307E+04  3.223912E+02  2.154429E-09 -3.515065E-10
       121  15  1.035025E+03  1.274380E+04  3.810332E+04 -6.289530E+02  5.328207E-09 -4.913590E-10
       121  16 -5.546566E+04 -1.442808E+04 -2.356508E+03 -6.320474E+02 -2.832882E-09 -2.827076E-10
       121  17 -5.934710E+04 -1.726462E+04  5.068342E+03  4.589848E+02  4.836881E-09 -1.629521E-10
       121  18 -5.570935E+04 -1.443228E+03  2.391850E+04 -3.738440E+02  7.760049E-10  1.768372E-10
       121  19  5.753771E+04  1.382165E+04  2.589218E+04 -6.681801E+02  9.076912E+03  3.606299E+01
       121  20  5.390111E+04  1.104800E+04  3.337824E+04  1.857875E+02  1.898089E+04  4.598413E+01
       121  21  5.778322E+04  2.693082E+04  5.228947E+04 -8.840828E+02  2.888480E+04  6.283338E+01
       121  22  1.034623E+03 -3.030816E+02  1.176804E+04 -6.501139E+02  9.077214E+03  3.606084E+01
       121  23 -2.724257E+03 -3.108140E+03  1.922375E+04  3.223919E+02  1.898057E+04  4.598657E+01
       121  24  1.035921E+03  1.274403E+04  3.810489E+04 -6.289516E+02  2.888386E+04  6.284424E+01
       121  25 -5.546557E+04 -1.442806E+04 -2.356353E+03 -6.320471E+02  9.077517E+03  3.605868E+01
       121  26 -5.934672E+04 -1.726452E+04  5.069019E+03  4.589855E+02  1.898024E+04  4.598901E+01
       121  27 -5.570846E+04 -1.443004E+03  2.392007E+04 -3.738426E+02  2.888291E+04  6.285509E+01
       122   1  1.059441E+05  2.209005E+04  7.209194E+04 -5.299345E+01 -3.672062E+04 -9.155008E+01
       122   2  8.612531E+04  4.460656E+03  1.000155E+05  6.607586E+01 -7.658033E+04 -1.752834E+02
       122   3  1.062193E+05  1.068930E+05  1.848509E+05 -2.002727E+03 -1.164414E+05 -3.178520E+02
       122   4  8.233145E+03 -2.333968E+03  4.766869E+04 -6.740576E+02 -3.671893E+04 -9.151192E+01
       122   5 -1.172178E+04 -1.999953E+04  7.555816E+04  3.617862E+02 -7.657456E+04 -1.753221E+02
       122   6  8.240352E+03  8.240575E+04  1.603627E+05 -7.902434E+02 -1.164316E+05 -3.180865E+02
       122   7 -8.946918E+04 -2.675870E+04  2.324471E+04 -1.295022E+03 -3.671724E+04 -9.147376E+01
       122   8 -1.095602E+05 -4.446044E+04  5.110006E+04  6.574494E+02 -7.656878E+04 -1.753609E+02
       122   9 -8.972993E+04  5.791780E+04  1.358738E+05  4.220459E+02 -1.164217E+05 -3.183210E+02
       122  10  1.059427E+05  2.208969E+04  7.208941E+04 -5.299616E+01  1.188463E-09 -1.045061E-10
       122  11  8.611901E+04  4.459082E+03  1.000045E+05  6.606505E+01  6.059653E-10  1.102512E-09
       122  12  1.062048E+05  1.068894E+05  1.848255E+05 -2.002757E+03 -3.824556E-09  2.444659E-09
       122  13  8.231698E+03 -2.334330E+03  4.766615E+04 -6.740603E+02  2.157899E-09 -9.416335E-11
       122  14 -1.172808E+04 -2.000110E+04  7.554714E+04  3.617754E+02  1.065320E-09  1.119385E-09
       122  15  8.225797E+03  8.240212E+04  1.603372E+05 -7.902732E+02  3.138416E-10  7.726016E-10
       122  16 -8.947063E+04 -2.675907E+04  2.324217E+04 -1.295024E+03 -1.962376E-09  3.003960E-11
       122  17 -1.095665E+05 -4.446201E+04  5.108904E+04  6.574386E+02 -4.262509E-09 -3.409272E-11
       122  18 -8.974449E+04  5.791416E+04  1.358483E+05  4.220161E+02  9.357088E-10 -1.239610E-09
       122  19  1.059441E+05  2.209005E+04  7.209194E+04 -5.299345E+01  3.672062E+04  9.155008E+01
       122  20  8.612531E+04  4.460656E+03  1.000155E+05  6.607586E+01  7.658033E+04  1.752834E+02
       122  21  1.062193E+05  1.068930E+05  1.848509E+05 -2.002727E+03  1.164414E+05  3.178520E+02
       122  22  8.233145E+03 -2.333968E+03  4.766869E+04 -6.740576E+02  3.671893E+04  9.151192E+01
       122  23 -1.172178E+04 -1.999953E+04  7.555816E+04  3.617862E+02  7.657456E+04  1.753221E+02
       122  24  8.240352E+03  8.240575E+04  1.603627E+05 -7.902434E+02  1.164316E+05  3.180865E+02
       122  25 -8.946918E+04 -2.675870E+04  2.324471E+04 -1.295022E+03  3.671724E+04  9.147376E+01
       122  26 -1.095602E+05 -4.446044E+04  5.110006E+04  6.574494E+02  7.656878E+04  1.753609E+02
       122  27 -8.972993E+04  5.791780E+04  1.358738E+05  4.220459E+02  1.164217E+05  3.183210E+02
       123   1  1.842962E+05  1.792797E+04  2.277360E+05  3.919742E+03 -1.487846E+05 -5.382143E+02
       123   2  7.404857E+04 -9.330882E+04  3.266634E+05 -8.467772E+02 -3.090857E+05 -1.485502E+03
       123   3  1.849173E+05  5.597585E+05  7.229420E+05 -1.198858E+04 -4.693787E+05 -2.764596E+03
       123   4  4.850947E+04 -1.603962E+04  1.937945E+05 -7.072730E+02 -1.487721E+05 -5.371357E+02
       123   5 -6.201761E+04 -1.273058E+05  2.926592E+05  9.583526E+02 -3.090506E+05 -1.486467E+03
       123   6  4.861091E+04  5.258159E+05  6.889052E+05 -3.750577E+03 -4.693207E+05 -2.770935E+03
       123   7 -8.726050E+04 -5.000853E+04  1.598515E+05 -5.333286E+03 -1.487597E+05 -5.360572E+02
       123   8 -1.980670E+05 -1.613041E+05  2.586537E+05  2.763070E+03 -3.090154E+05 -1.487431E+03
       123   9 -8.767852E+04  4.918721E+05  6.548671E+05  4.485592E+03 -4.692628E+05 -2.777274E+03
       123  10  1.842724E+05  1.792203E+04  2.276944E+05  3.919678E+03 -1.992693E-10  1.331383E-09
       123  11  7.394604E+04 -9.333446E+04  3.264839E+05 -8.471468E+02  5.133825E-09 -5.192748E-10
       123  12  1.846809E+05  5.596994E+05  7.225281E+05 -1.198962E+04 -4.521938E-10 -2.428852E-09
       123  13  4.848571E+04 -1.604556E+04  1.937529E+05 -7.073373E+02  2.173217E-09 -6.216574E-10
       123  14 -6.212014E+04 -1.273314E+05  2.924798E+05  9.579828E+02 -2.100678E-11 -4.455163E-09
       123  15  4.837452E+04  5.257567E+05  6.884913E+05 -3.751623E+03 -9.489640E-11 -1.232677E-09
       123  16 -8.728427E+04 -5.001447E+04  1.598100E+05 -5.333350E+03  1.721300E-09  4.561702E-10
       123  17 -1.981695E+05 -1.613297E+05  2.584742E+05  2.762700E+03 -3.275249E-09 -6.752604E-10
       123  18 -8.791489E+04  4.918130E+05  6.544532E+05  4.484543E+03 -8.761937E-10 -3.917006E-09
       123  19  1.842962E+05  1.792797E+04  2.277360E+05  3.919742E+03  1.487846E+05  5.382143E+02
       123  20  7.404857E+04 -9.330882E+04  3.266634E+05 -8.467772E+02  3.090857E+05  1.485502E+03
       123  21  1.849173E+05  5.597585E+05  7.229420E+05 -1.198858E+04  4.693787E+05  2.764596E+03
       123  22  4.850947E+04 -1.603962E+04  1.937945E+05 -7.072730E+02  1.487721E+05  5.371357E+02
       123  23 -6.201761E+04 -1.273058E+05  2.926592E+05  9.583526E+02  3.090506E+05  1.486467E+03
       123  24  4.861091E+04  5.258159E+05  6.889052E+05 -3.750577E+03  4.693207E+05  2.770935E+03
       123  25 -8.726050E+04 -5.000853E+04  1.598515E+05 -5.333286E+03  1.487597E+05  5.360572E+02
       123  26 -1.980670E+05 -1.613041E+05  2.586537E+05  2.763070E+03  3.090154E+05  1.487431E+03
       123  27 -8.767852E+04  4.918721E+05  6.548671E+05  4.485592E+03  4.692628E+05  2.777274E+03
       124   1  5.629909E+05  1.967979E+05  7.259489E+05 -8.904173E+03 -3.077930E+03  4.694623E+05
       124   2 -9.061333E+04  8.501513E+04  3.293253E+05 -2.253506E+03 -2.386658E+03  3.091794E+05
       124   3  2.091148E+04  1.959042E+05  2.305201E+05  1.921595E+02 -1.394808E+03  1.488902E+05
       124   4  5.259813E+05  4.932833E+04  6.890675E+05  6.682816E+02 -3.070829E+03  4.693989E+05
       124   5 -1.274469E+05 -6.208651E+04  2.925477E+05  9.097559E+02 -2.385230E+03  3.091421E+05
       124   6 -1.565593E+04  4.921271E+04  1.938779E+05 -3.052611E+03 -1.395740E+03  1.488788E+05
       124   7  4.889704E+05 -9.812141E+04  6.521846E+05  1.023849E+04 -3.063727E+03  4.693356E+05
       124   8 -1.642821E+05 -2.091685E+05  2.557685E+05  4.072310E+03 -2.383803E+03  3.091048E+05
       124   9 -5.222491E+04 -9.745927E+04  1.572341E+05 -6.296563E+03 -1.396673E+03  1.488674E+05
       124  10  5.629318E+05  1.965615E+05  7.255348E+05 -8.903011E+03  8.956842E-09  5.937388E-11
       124  11 -9.063898E+04  8.491253E+04  3.291457E+05 -2.252912E+03  4.570744E-09  6.164770E-09
       124  12  2.090553E+04  1.958804E+05  2.304785E+05  1.923267E+02 -6.222291E-09 -2.198405E-09
       124  13  5.259222E+05  4.909186E+04  6.886535E+05  6.694414E+02  2.878856E-09 -1.783385E-09
       124  14 -1.274726E+05 -6.218910E+04  2.923681E+05  9.103496E+02  3.852392E-09 -2.241954E-09
       124  15 -1.566188E+04  4.918892E+04  1.938363E+05 -3.052443E+03 -2.153762E-09 -3.634619E-09
       124  16  4.889112E+05 -9.835786E+04  6.517706E+05  1.023965E+04 -1.842236E-09 -8.541259E-10
       124  17 -1.643078E+05 -2.092711E+05  2.555889E+05  4.072903E+03  1.071718E-08  5.509596E-09
       124  18 -5.223086E+04 -9.748306E+04  1.571924E+05 -6.296396E+03 -2.139755E-09  7.488834E-10
       124  19  5.629909E+05  1.967979E+05  7.259489E+05 -8.904173E+03  3.077930E+03 -4.694623E+05
       124  20 -9.061333E+04  8.501513E+04  3.293253E+05 -2.253506E+03  2.386658E+03 -3.091794E+05
       124  21  2.091148E+04  1.959042E+05  2.305201E+05  1.921595E+02  1.394808E+03 -1.488902E+05
       124  22  5.259813E+05  4.932833E+04  6.890675E+05  6.682816E+02  3.070829E+03 -4.693989E+05
       124  23 -1.274469E+05 -6.208651E+04  2.925477E+05  9.097559E+02  2.385230E+03 -3.091421E+05
       124  24 -1.565593E+04  4.921271E+04  1.938779E+05 -3.052611E+03  1.395740E+03 -1.488788E+05
       124  25  4.889704E+05 -9.812141E+04  6.521846E+05  1.023849E+04  3.063727E+03 -4.693356E+05
       124  26 -1.642821E+05 -2.091685E+05  2.557685E+05  4.072310E+03  2.383803E+03 -3.091048E+05
       124  27 -5.222491E+04 -9.745927E+04  1.572341E+05 -6.296563E+03  1.396673E+03 -1.488674E+05
       125   1  8.542739E+04  2.038577E+04  1.632133E+05 -2.749404E+03 -1.224573E+03  1.165823E+05
       125   2 -1.692360E+04  2.401128E+03  7.869918E+04  5.403304E+02 -8.397588E+02  7.678497E+04
       125   3  1.064719E+03  1.959565E+04  5.017018E+04 -1.636919E+03 -4.506186E+02  3.698839E+04
       125   4  8.218362E+04  7.561780E+03  1.600010E+05 -1.315880E+03 -1.224321E+03  1.165820E+05
       125   5 -2.004301E+04 -1.003630E+04  7.558821E+04  9.526244E+02 -8.397248E+02  7.678534E+04
       125   6 -1.929135E+03  7.545401E+03  4.716100E+04 -2.245851E+03 -4.506719E+02  3.698935E+04
       125   7  7.893983E+04 -5.262058E+03  1.567886E+05  1.176145E+02 -1.224069E+03  1.165818E+05
       125   8 -2.316244E+04 -2.247358E+04  7.247723E+04  1.364911E+03 -8.396907E+02  7.678570E+04
       125   9 -4.922998E+03 -4.504719E+03  4.415181E+04 -2.854770E+03 -4.507252E+02  3.699030E+04
       125  10  8.542375E+04  2.037118E+04  1.631878E+05 -2.749289E+03 -8.215292E-09 -1.356840E-09
       125  11 -1.692518E+04  2.394797E+03  7.868810E+04  5.403823E+02 -3.858052E-10  8.321202E-09
       125  12  1.064352E+03  1.959418E+04  5.016761E+04 -1.636906E+03  1.376323E-09 -1.982926E-09
       125  13  8.217997E+04  7.547187E+03  1.599754E+05 -1.315765E+03 -4.685362E-09 -3.043061E-09
       125  14 -2.004460E+04 -1.004263E+04  7.557713E+04  9.526764E+02 -2.230816E-09 -3.008081E-09
       125  15 -1.929502E+03  7.543932E+03  4.715843E+04 -2.245837E+03 -5.080886E-09 -3.882169E-09
       125  16  7.893618E+04 -5.276651E+03  1.567631E+05  1.177294E+02 -4.976248E-09 -3.120904E-10
       125  17 -2.316402E+04 -2.247991E+04  7.246615E+04  1.364963E+03 -5.116307E-09  6.593128E-09
       125  18 -4.923366E+03 -4.506188E+03  4.414924E+04 -2.854757E+03 -7.481875E-10  4.413933E-10
       125  19  8.542739E+04  2.038577E+04  1.632133E+05 -2.749404E+03  1.224573E+03 -1.165823E+05
       125  20 -1.692360E+04  2.401128E+03  7.869918E+04  5.403304E+02  8.397588E+02 -7.678497E+04
       125  21  1.064719E+03  1.959565E+04  5.017018E+04 -1.636919E+03  4.506186E+02 -3.698839E+04
       125  22  8.218362E+04  7.561780E+03  1.600010E+05 -1.315880E+03  1.224321E+03 -1.165820E+05
       125  23 -2.004301E+04 -1.003630E+04  7.558821E+04  9.526244E+02  8.397248E+02 -7.678534E+04
       125  24 -1.929135E+03  7.545401E+03  4.716100E+04 -2.245851E+03  4.506719E+02 -3.698935E+04
       125  25  7.893983E+04 -5.262058E+03  1.567886E+05  1.176145E+02  1.224069E+03 -1.165818E+05
       125  26 -2.316244E+04 -2.247358E+04  7.247723E+04  1.364911E+03  8.396907E+02 -7.678570E+04
       125  27 -4.922998E+03 -4.504719E+03  4.415181E+04 -2.854770E+03  4.507252E+02 -3.699030E+04
       126   1 -1.828226E+04 -1.221199E+05  6.722871E+03 -1.209454E+03 -4.474401E+02  2.918522E+04
       126   2 -3.593214E+04 -1.303139E+05 -1.375339E+04  1.922921E+03 -4.248854E+02  1.978307E+04
       126   3 -2.663106E+04 -1.229226E+05 -1.984467E+04 -1.190547E+03 -1.726148E+02  1.038334E+04
       126   4  1.305493E+04  3.190021E+03  3.805174E+04 -2.016250E+03 -4.475237E+02  2.919396E+04
       126   5 -4.491898E+03 -4.600368E+03  1.767557E+04  1.054327E+03 -4.248966E+02  1.978465E+04
       126   6  4.911239E+03  3.195116E+03  1.168764E+04 -2.120877E+03 -1.725733E+02  1.037773E+04
       126   7  4.439093E+04  1.285142E+05  6.937943E+04 -2.823169E+03 -4.476074E+02  2.920271E+04
       126   8  2.694715E+04  1.211275E+05  4.910334E+04  1.855902E+02 -4.249078E+02  1.978622E+04
       126   9  3.645234E+04  1.293272E+05  4.321876E+04 -3.051367E+03 -1.725317E+02  1.037212E+04
       126  10 -1.828248E+04 -1.221208E+05  6.721270E+03 -1.209444E+03 -9.260942E-10 -1.598325E-09
       126  11 -3.593224E+04 -1.303143E+05 -1.375413E+04  1.922928E+03  6.753866E-09  7.226702E-09
       126  12 -2.663109E+04 -1.229227E+05 -1.984487E+04 -1.190546E+03  2.573429E-09 -2.739307E-10
       126  13  1.305470E+04  3.189106E+03  3.805014E+04 -2.016239E+03  5.718066E-09 -3.004243E-09
       126  14 -4.492004E+03 -4.600789E+03  1.767484E+04  1.054333E+03  5.982152E-09 -2.441218E-09
       126  15  4.911210E+03  3.195000E+03  1.168744E+04 -2.120876E+03  4.863741E-09 -2.640971E-09
       126  16  4.439070E+04  1.285133E+05  6.937783E+04 -2.823159E+03 -4.243292E-09  1.572748E-10
       126  17  2.694704E+04  1.211271E+05  4.910260E+04  1.855969E+02  8.693255E-09  5.459916E-09
       126  18  3.645231E+04  1.293271E+05  4.321856E+04 -3.051366E+03  3.681850E-09 -7.386853E-10
       126  19 -1.828226E+04 -1.221199E+05  6.722871E+03 -1.209454E+03  4.474401E+02 -2.918522E+04
       126  20 -3.593214E+04 -1.303139E+05 -1.375339E+04  1.922921E+03  4.248854E+02 -1.978307E+04
       126  21 -2.663106E+04 -1.229226E+05 -1.984467E+04 -1.190547E+03  1.726148E+02 -1.038334E+04
       126  22  1.305493E+04  3.190021E+03  3.805174E+04 -2.016250E+03  4.475237E+02 -2.919396E+04
       126  23 -4.491898E+03 -4.600368E+03  1.767557E+04  1.054327E+03  4.248966E+02 -1.978465E+04
       126  24  4.911239E+03  3.195116E+03  1.168764E+04 -2.120877E+03  1.725733E+02 -1.037773E+04
       126  25  4.439093E+04  1.285142E+05  6.937943E+04 -2.823169E+03  4.476074E+02 -2.920271E+04
       126  26  2.694715E+04  1.211275E+05  4.910334E+04  1.855902E+02  4.249078E+02 -1.978622E+04
       126  27  3.645234E+04  1.293272E+05  4.321876E+04 -3.051367E+03  1.725317E+02 -1.037212E+04
       127   1 -1.057551E+07 -3.127074E+06 -1.895387E+06 -3.700809E+06 -8.988675E+05 -3.216674E+05
       127   2 -1.035660E+07 -1.826042E+06 -1.065986E+06 -3.893482E+06 -5.850197E+05 -1.588467E+05
       127   3 -1.065521E+07 -1.835881E+06 -8.393794E+05 -3.760028E+06 -2.557040E+05 -3.657948E+04
       127   4 -8.913484E+06 -2.229099E+06 -1.383319E+06 -2.982162E+06 -8.774634E+05 -3.139759E+05
       127   5 -8.582107E+06 -1.077065E+06 -5.721567E+05 -3.334193E+06 -5.790533E+05 -1.566768E+05
       127   6 -8.763790E+06 -1.230652E+06 -3.501370E+05 -3.360529E+06 -2.651394E+05 -4.010390E+04
       127   7 -7.248561E+06 -1.329996E+06 -8.715244E+05 -2.261459E+06 -8.559923E+05 -3.062350E+05
       127   8 -6.804501E+06 -3.276842E+05 -7.862484E+04 -2.773356E+06 -5.730657E+05 -1.544967E+05
       127   9 -6.868857E+06 -6.254389E+05  1.388187E+05 -2.960023E+06 -2.746060E+05 -4.363574E+04
       127  10 -1.057642E+07 -3.127409E+06 -1.897133E+06 -3.701045E+06 -1.905343E-09  8.170360E-10
       127  11 -1.035698E+07 -1.826164E+06 -1.066690E+06 -3.893558E+06  4.194372E-09  1.168130E-09
       127  12 -1.065528E+07 -1.835901E+06 -8.395071E+05 -3.760035E+06 -9.085053E-10 -7.101360E-10
       127  13 -8.914348E+06 -2.229417E+06 -1.384977E+06 -2.982386E+06  2.072350E-09 -3.991163E-10
       127  14 -8.582478E+06 -1.077183E+06 -5.728439E+05 -3.334267E+06 -3.803130E-09 -8.920726E-10
       127  15 -8.763867E+06 -1.230673E+06 -3.502742E+05 -3.360537E+06  5.147645E-09 -1.016429E-09
       127  16 -7.249382E+06 -1.330298E+06 -8.730978E+05 -2.261672E+06 -6.387029E-10 -3.472308E-10
       127  17 -6.804864E+06 -3.277997E+05 -7.929538E+04 -2.773428E+06 -5.532987E-11 -1.938092E-09
       127  18 -6.868939E+06 -6.254616E+05  1.386716E+05 -2.960033E+06  5.793177E-09 -1.191409E-09
       127  19 -1.057551E+07 -3.127074E+06 -1.895387E+06 -3.700809E+06  8.988675E+05  3.216674E+05
       127  20 -1.035660E+07 -1.826042E+06 -1.065986E+06 -3.893482E+06  5.850197E+05  1.588467E+05
       127  21 -1.065521E+07 -1.835881E+06 -8.393794E+05 -3.760028E+06  2.557040E+05  3.657948E+04
       127  22 -8.913484E+06 -2.229099E+06 -1.383319E+06 -2.982162E+06  8.774634E+05  3.139759E+05
       127  23 -8.582107E+06 -1.077065E+06 -5.721567E+05 -3.334193E+06  5.790533E+05  1.566768E+05
       127  24 -8.763790E+06 -1.230652E+06 -3.501370E+05 -3.360529E+06  2.651394E+05  4.010390E+04
       127  25 -7.248561E+06 -1.329996E+06 -8.715244E+05 -2.261459E+06  8.559923E+05  3.062350E+05
       127  26 -6.804501E+06 -3.276842E+05 -7.862484E+04 -2.773356E+06  5.730657E+05  1.544967E+05
       127  27 -6.868857E+06 -6.254389E+05  1.388187E+05 -2.960023E+06  2.746060E+05  4.363574E+04
       128   1 -1.035689E+07 -2.053561E+06 -7.395645E+05 -3.772518E+06 -2.128186E+05 -2.859138E+04
       128   2 -1.025086E+07 -1.808952E+06 -5.538048E+05 -3.714760E+06 -1.403031E+05 -1.803002E+03
       128   3 -1.012506E+07 -1.805026E+06 -4.644586E+05 -3.712485E+06 -6.566457E+04  1.934417E+04
       128   4 -8.704320E+06 -1.396393E+06 -2.860424E+05 -3.292830E+06 -2.122688E+05 -2.840604E+04
       128   5 -8.705491E+06 -1.215792E+06 -1.347425E+05 -3.287716E+06 -1.418177E+05 -2.383137E+03
       128   6 -8.686311E+06 -1.275191E+06 -7.799224E+04 -3.338114E+06 -6.926020E+04  1.799336E+04
       128   7 -7.049067E+06 -7.389865E+05  1.672286E+05 -2.811937E+06 -2.117167E+05 -2.821971E+04
       128   8 -7.157778E+06 -6.224740E+05  2.841044E+05 -2.859688E+06 -1.433361E+05 -2.964737E+03
       128   9 -7.245542E+06 -7.452626E+05  3.082907E+05 -2.962958E+06 -7.286500E+04  1.663934E+04
       128  10 -1.035694E+07 -2.053574E+06 -7.396527E+05 -3.772523E+06 -4.651238E-09 -5.701202E-10
       128  11 -1.025088E+07 -1.808957E+06 -5.538424E+05 -3.714760E+06  1.914628E-09  2.538149E-09
       128  12 -1.012506E+07 -1.805028E+06 -4.644675E+05 -3.712484E+06 -1.964935E-09 -2.977882E-09
       128  13 -8.704369E+06 -1.396406E+06 -2.861299E+05 -3.292835E+06 -9.095731E-10  2.858664E-10
       128  14 -8.705513E+06 -1.215798E+06 -1.347808E+05 -3.287717E+06 -4.702883E-09  2.499511E-10
       128  15 -8.686316E+06 -1.275193E+06 -7.800195E+04 -3.338113E+06 -6.285181E-09 -1.644230E-09
       128  16 -7.049116E+06 -7.389996E+05  1.671419E+05 -2.811942E+06  2.766396E-09  2.281628E-10
       128  17 -7.157800E+06 -6.224796E+05  2.840653E+05 -2.859689E+06 -7.875263E-10  1.418340E-09
       128  18 -7.245548E+06 -7.452643E+05  3.082801E+05 -2.962957E+06  9.478060E-10 -1.010504E-09
       128  19 -1.035689E+07 -2.053561E+06 -7.395645E+05 -3.772518E+06  2.128186E+05  2.859138E+04
       128  20 -1.025086E+07 -1.808952E+06 -5.538048E+05 -3.714760E+06  1.403031E+05  1.803002E+03
       128  21 -1.012506E+07 -1.805026E+06 -4.644586E+05 -3.712485E+06  6.566457E+04 -1.934417E+04
       128  22 -8.704320E+06 -1.396393E+06 -2.860424E+05 -3.292830E+06  2.122688E+05  2.840604E+04
       128  23 -8.705491E+06 -1.215792E+06 -1.347425E+05 -3.287716E+06  1.418177E+05  2.383137E+03
       128  24 -8.686311E+06 -1.275191E+06 -7.799224E+04 -3.338114E+06  6.926020E+04 -1.799336E+04
       128  25 -7.049067E+06 -7.389865E+05  1.672286E+05 -2.811937E+06  2.117167E+05  2.821971E+04
       128  26 -7.157778E+06 -6.224740E+05  2.841044E+05 -2.859688E+06  1.433361E+05  2.964737E+03
       128  27 -7.245542E+06 -7.452626E+05  3.082907E+05 -2.962958E+06  7.286500E+04 -1.663934E+04
       129   1 -9.798724E+06 -1.733877E+06 -3.663980E+05 -3.648812E+06 -5.370242E+04  1.857119E+04
       129   2 -9.664260E+06 -1.572726E+06 -2.830743E+05 -3.520488E+06 -3.447113E+04  1.752201E+04
       129   3 -9.403313E+06 -1.564711E+06 -2.170139E+05 -3.542246E+06 -1.469248E+04  1.495826E+04
       129   4 -8.669472E+06 -1.304571E+06 -6.145811E+04 -3.340789E+06 -5.633759E+04  1.758208E+04
       129   5 -8.731611E+06 -1.220487E+06 -3.134036E+04 -3.268540E+06 -3.768075E+04  1.632314E+04
       129   6 -8.667181E+06 -1.289389E+06 -1.799541E+04 -3.346375E+06 -1.848277E+04  1.354853E+04
       129   7 -7.538974E+06 -8.751873E+05  2.433666E+05 -3.032251E+06 -5.897804E+04  1.659098E+04
       129   8 -7.798110E+06 -8.681972E+05  2.203157E+05 -3.016244E+06 -4.089572E+04  1.512227E+04
       129   9 -7.930519E+06 -1.014039E+06  1.809750E+05 -3.150291E+06 -2.227806E+04  1.213697E+04
       129  10 -9.798727E+06 -1.733878E+06 -3.664041E+05 -3.648811E+06 -7.973203E-10 -2.005251E-09
       129  11 -9.664261E+06 -1.572727E+06 -2.830772E+05 -3.520488E+06 -1.479207E-09 -2.129994E-09
       129  12 -9.403313E+06 -1.564711E+06 -2.170148E+05 -3.542246E+06 -5.334493E-09 -2.214391E-09
       129  13 -8.669476E+06 -1.304572E+06 -6.146471E+04 -3.340789E+06 -1.703641E-09 -2.075346E-09
       129  14 -8.731612E+06 -1.220488E+06 -3.134355E+04 -3.268540E+06 -8.443685E-09 -2.498697E-09
       129  15 -8.667181E+06 -1.289390E+06 -1.799640E+04 -3.346375E+06 -5.238788E-09  1.370882E-09
       129  16 -7.538978E+06 -8.751885E+05  2.433595E+05 -3.032250E+06  4.212420E-09 -2.032749E-09
       129  17 -7.798112E+06 -8.681979E+05  2.203121E+05 -3.016244E+06 -1.999834E-09 -1.483588E-09
       129  18 -7.930519E+06 -1.014039E+06  1.809738E+05 -3.150291E+06 -4.385792E-09  1.982705E-10
       129  19 -9.798724E+06 -1.733877E+06 -3.663980E+05 -3.648812E+06  5.370242E+04 -1.857119E+04
       129  20 -9.664260E+06 -1.572726E+06 -2.830743E+05 -3.520488E+06  3.447113E+04 -1.752201E+04
       129  21 -9.403313E+06 -1.564711E+06 -2.170139E+05 -3.542246E+06  1.469248E+04 -1.495826E+04
       129  22 -8.669472E+06 -1.304571E+06 -6.145811E+04 -3.340789E+06  5.633759E+04 -1.758208E+04
       129  23 -8.731611E+06 -1.220487E+06 -3.134036E+04 -3.268540E+06  3.768075E+04 -1.632314E+04
       129  24 -8.667181E+06 -1.289389E+06 -1.799541E+04 -3.346375E+06  1.848277E+04 -1.354853E+04
       129  25 -7.538974E+06 -8.751873E+05  2.433666E+05 -3.032251E+06  5.897804E+04 -1.659098E+04
       129  26 -7.798110E+06 -8.681972E+05  2.203157E+05 -3.016244E+06  4.089572E+04 -1.512227E+04
       129  27 -7.930519E+06 -1.014039E+06  1.809750E+05 -3.150291E+06  2.227806E+04 -1.213697E+04
       130   1 -9.000761E+06 -1.423909E+06 -1.048351E+05 -3.442026E+06 -1.012602E+04  1.039157E+04
       130   2 -8.847155E+06 -1.257522E+06 -3.785822E+04 -3.290535E+06 -2.281838E+03  2.684505E+03
       130   3 -8.540291E+06 -1.248906E+06  2.503506E+04 -3.318227E+06  5.622087E+03 -5.187272E+03
       130   4 -8.661952E+06 -1.296299E+06 -1.427795E+04 -3.350615E+06 -1.382415E+04  9.018396E+03
       130   5 -8.738438E+06 -1.216618E+06 -8.557802E+03 -3.261307E+06 -6.044164E+03  1.288027E+03
       130   6 -8.661705E+06 -1.294694E+06 -6.862990E+03 -3.351200E+06  1.793685E+03 -6.607508E+03
       130   7 -8.323031E+06 -1.168683E+06  7.626912E+04 -3.259158E+06 -1.752452E+04  7.644389E+03
       130   8 -8.629710E+06 -1.175714E+06  2.074159E+04 -3.232074E+06 -9.807219E+03 -1.087211E+02
       130   9 -8.783104E+06 -1.340481E+06 -3.876216E+04 -3.384166E+06 -2.033878E+03 -8.027429E+03
       130  10 -9.000761E+06 -1.423909E+06 -1.048355E+05 -3.442026E+06 -6.406535E-09 -2.126575E-09
       130  11 -8.847155E+06 -1.257522E+06 -3.785825E+04 -3.290535E+06 -5.929555E-09 -5.669338E-09
       130  12 -8.540291E+06 -1.248906E+06  2.503495E+04 -3.318227E+06 -2.041320E-09 -4.528637E-09
       130  13 -8.661953E+06 -1.296299E+06 -1.427846E+04 -3.350615E+06 -7.344672E-09 -3.842488E-09
       130  14 -8.738438E+06 -1.216618E+06 -8.557874E+03 -3.261307E+06  1.145923E-09  2.209657E-09
       130  15 -8.661705E+06 -1.294694E+06 -6.863078E+03 -3.351200E+06  1.176251E-09  1.263706E-09
       130  16 -8.323032E+06 -1.168683E+06  7.626842E+04 -3.259158E+06 -1.813673E-09  2.675607E-09
       130  17 -8.629710E+06 -1.175714E+06  2.074140E+04 -3.232074E+06 -1.022090E-09  3.691319E-09
       130  18 -8.783104E+06 -1.340482E+06 -3.876229E+04 -3.384166E+06 -1.445478E-09 -8.811483E-10
       130  19 -9.000761E+06 -1.423909E+06 -1.048351E+05 -3.442026E+06  1.012602E+04 -1.039157E+04
       130  20 -8.847155E+06 -1.257522E+06 -3.785822E+04 -3.290535E+06  2.281838E+03 -2.684505E+03
       130  21 -8.540291E+06 -1.248906E+06  2.503506E+04 -3.318227E+06 -5.622087E+03  5.187272E+03
       130  22 -8.661952E+06 -1.296299E+06 -1.427795E+04 -3.350615E+06  1.382415E+04 -9.018396E+03
       130  23 -8.738438E+06 -1.216618E+06 -8.557802E+03 -3.261307E+06  6.044164E+03 -1.288027E+03
       130  24 -8.661705E+06 -1.294694E+06 -6.862990E+03 -3.351200E+06 -1.793685E+03  6.607508E+03
       130  25 -8.323031E+06 -1.168683E+06  7.626912E+04 -3.259158E+06  1.752452E+04 -7.644389E+03
       130  26 -8.629710E+06 -1.175714E+06  2.074159E+04 -3.232074E+06  9.807219E+03  1.087211E+02
       130  27 -8.783104E+06 -1.340481E+06 -3.876216E+04 -3.384166E+06  2.033878E+03  8.027429E+03
       131   1 -8.134777E+06 -1.092817E+06  1.367153E+05 -3.205979E+06  8.814692E+03 -1.039677E+04
       131   2 -7.994923E+06 -9.416290E+05  1.908538E+05 -3.066138E+06  1.616230E+04 -1.802462E+04
       131   3 -7.713244E+06 -9.352085E+05  2.415355E+05 -3.090107E+06  2.317786E+04 -2.470092E+04
       131   4 -8.664329E+06 -1.291731E+06 -6.781540E+03 -3.347858E+06  4.985104E+03 -1.181892E+04
       131   5 -8.735366E+06 -1.220402E+06 -8.653013E+03 -3.265539E+06  1.270649E+04 -1.931213E+04
       131   6 -8.664692E+06 -1.293936E+06 -1.428117E+04 -3.347062E+06  2.009407E+04 -2.585362E+04
       131   7 -9.193609E+06 -1.490630E+06 -1.503040E+05 -3.489628E+06  1.159141E+03 -1.323973E+04
       131   8 -9.475275E+06 -1.499145E+06 -2.082091E+05 -3.464723E+06  9.255258E+03 -2.059794E+04
       131   9 -9.615257E+06 -1.652611E+06 -2.701785E+05 -3.603657E+06  1.701553E+04 -2.700436E+04
       131  10 -8.134777E+06 -1.092817E+06  1.367150E+05 -3.205979E+06 -6.259812E-10 -2.561795E-09
       131  11 -7.994923E+06 -9.416294E+05  1.908527E+05 -3.066138E+06 -4.739371E-09 -7.306666E-09
       131  12 -7.713245E+06 -9.352093E+05  2.415334E+05 -3.090106E+06 -4.915282E-09 -1.181880E-09
       131  13 -8.664329E+06 -1.291731E+06 -6.781848E+03 -3.347858E+06 -3.420250E-09 -4.864488E-09
       131  14 -8.735366E+06 -1.220403E+06 -8.654014E+03 -3.265539E+06  2.564213E-09  3.824627E-09
       131  15 -8.664693E+06 -1.293937E+06 -1.428317E+04 -3.347062E+06  1.922929E-10  5.151622E-10
       131  16 -9.193609E+06 -1.490631E+06 -1.503043E+05 -3.489628E+06  2.257093E-10 -8.526925E-10
       131  17 -9.475275E+06 -1.499145E+06 -2.082100E+05 -3.464722E+06  1.419600E-09  2.120473E-09
       131  18 -9.615257E+06 -1.652612E+06 -2.701804E+05 -3.603656E+06  2.567527E-09  2.981005E-10
       131  19 -8.134777E+06 -1.092817E+06  1.367153E+05 -3.205979E+06 -8.814692E+03  1.039677E+04
       131  20 -7.994923E+06 -9.416290E+05  1.908538E+05 -3.066138E+06 -1.616230E+04  1.802462E+04
       131  21 -7.713244E+06 -9.352085E+05  2.415355E+05 -3.090107E+06 -2.317786E+04  2.470092E+04
       131  22 -8.664329E+06 -1.291731E+06 -6.781540E+03 -3.347858E+06 -4.985104E+03  1.181892E+04
       131  23 -8.735366E+06 -1.220402E+06 -8.653013E+03 -3.265539E+06 -1.270649E+04  1.931213E+04
       131  24 -8.664692E+06 -1.293936E+06 -1.428117E+04 -3.347062E+06 -2.009407E+04  2.585362E+04
       131  25 -9.193609E+06 -1.490630E+06 -1.503040E+05 -3.489628E+06 -1.159141E+03  1.323973E+04
       131  26 -9.475275E+06 -1.499145E+06 -2.082091E+05 -3.464723E+06 -9.255258E+03  2.059794E+04
       131  27 -9.615257E+06 -1.652611E+06 -2.701785E+05 -3.603657E+06 -1.701553E+04  2.700436E+04
       132   1 -7.392224E+06 -7.998442E+05  3.281597E+05 -2.992530E+06  2.756629E+04 -2.827442E+04
       132   2 -7.296906E+06 -6.912120E+05  3.530584E+05 -2.893032E+06  4.532757E+04 -2.942158E+04
       132   3 -7.107798E+06 -6.993989E+05  3.624372E+05 -2.901320E+06  6.233225E+04 -2.846722E+04
       132   4 -8.674763E+06 -1.281798E+06 -1.790381E+04 -3.336933E+06  2.439613E+04 -2.946338E+04
       132   5 -8.722726E+06 -1.230909E+06 -3.153677E+04 -3.280205E+06  4.296058E+04 -3.031632E+04
       132   6 -8.677097E+06 -1.297052E+06 -6.136200E+04 -3.331285E+06  6.076366E+04 -2.906696E+04
       132   7 -9.955694E+06 -1.763659E+06 -3.641138E+05 -3.680686E+06  2.123325E+04 -3.064966E+04
       132   8 -1.014656E+07 -1.770486E+06 -4.163141E+05 -3.666562E+06  4.059956E+04 -3.120882E+04
       132   9 -1.024399E+07 -1.894553E+06 -4.853834E+05 -3.760253E+06  5.919935E+04 -2.966510E+04
       132  10 -7.392225E+06 -7.998452E+05  3.281568E+05 -2.992529E+06 -1.157527E-09  2.507687E-09
       132  11 -7.296908E+06 -6.912134E+05  3.530529E+05 -2.893031E+06 -2.962642E-09  1.639336E-09
       132  12 -7.107803E+06 -6.994008E+05  3.624283E+05 -2.901318E+06  4.298658E-10 -1.165772E-09
       132  13 -8.674764E+06 -1.281799E+06 -1.790655E+04 -3.336933E+06  1.064578E-09 -1.041469E-09
       132  14 -8.722728E+06 -1.230911E+06 -3.154198E+04 -3.280204E+06  4.259602E-10 -1.144800E-09
       132  15 -8.677101E+06 -1.297054E+06 -6.137057E+04 -3.331284E+06 -2.712598E-09 -7.130030E-10
       132  16 -9.955695E+06 -1.763660E+06 -3.641164E+05 -3.680686E+06  2.824173E-09  1.670057E-09
       132  17 -1.014656E+07 -1.770487E+06 -4.163190E+05 -3.666561E+06  1.431551E-09 -1.424207E-09
       132  18 -1.024400E+07 -1.894555E+06 -4.853917E+05 -3.760252E+06  2.183233E-09  1.259233E-09
       132  19 -7.392224E+06 -7.998442E+05  3.281597E+05 -2.992530E+06 -2.756629E+04  2.827442E+04
       132  20 -7.296906E+06 -6.912120E+05  3.530584E+05 -2.893032E+06 -4.532757E+04  2.942158E+04
       132  21 -7.107798E+06 -6.993989E+05  3.624372E+05 -2.901320E+06 -6.233225E+04  2.846722E+04
       132  22 -8.674763E+06 -1.281798E+06 -1.790381E+04 -3.336933E+06 -2.439613E+04  2.946338E+04
       132  23 -8.722726E+06 -1.230909E+06 -3.153677E+04 -3.280205E+06 -4.296058E+04  3.031632E+04
       132  24 -8.677097E+06 -1.297052E+06 -6.136200E+04 -3.331285E+06 -6.076366E+04  2.906696E+04
       132  25 -9.955694E+06 -1.763659E+06 -3.641138E+05 -3.680686E+06 -2.123325E+04  3.064966E+04
       132  26 -1.014656E+07 -1.770486E+06 -4.163141E+05 -3.666562E+06 -4.059956E+04  3.120882E+04
       132  27 -1.024399E+07 -1.894553E+06 -4.853834E+05 -3.760253E+06 -5.919935E+04  2.966510E+04
       133   1 -6.936418E+06 -6.103730E+05  3.949911E+05 -2.859556E+06  7.545418E+04 -2.683948E+04
       133   2 -6.899720E+06 -5.408117E+05  3.506473E+05 -2.805821E+06  1.448284E+05 -4.085913E+03
       133   3 -6.891516E+06 -6.589569E+05  2.140341E+05 -2.748432E+06  2.120954E+05  2.425530E+04
       133   4 -8.697459E+06 -1.264380E+06 -7.794216E+04 -3.324910E+06  7.302529E+04 -2.776487E+04
       133   5 -8.691996E+06 -1.230378E+06 -1.348281E+05 -3.304056E+06  1.444373E+05 -4.248530E+03
       133   6 -8.715630E+06 -1.384798E+06 -2.858295E+05 -3.279516E+06  2.137350E+05  2.485519E+04
       133   7 -1.045547E+07 -1.918233E+06 -5.511505E+05 -3.789068E+06  7.060387E+04 -2.868762E+04
       133   8 -1.048113E+07 -1.919726E+06 -6.205932E+05 -3.800963E+06  1.440469E+05 -4.410882E+03
       133   9 -1.053648E+07 -2.110350E+06 -7.859988E+05 -3.809136E+06  2.153684E+05  2.545247E+04
       133  10 -6.936425E+06 -6.103753E+05  3.949790E+05 -2.859554E+06  2.219343E-09 -2.155880E-09
       133  11 -6.899743E+06 -5.408174E+05  3.506075E+05 -2.805821E+06 -8.685612E-11 -1.528873E-09
       133  12 -6.891565E+06 -6.589698E+05  2.139475E+05 -2.748436E+06 -9.689872E-10 -1.511321E-09
       133  13 -8.697465E+06 -1.264382E+06 -7.795371E+04 -3.324908E+06  2.398968E-09  1.078104E-10
       133  14 -8.692018E+06 -1.230383E+06 -1.348679E+05 -3.304056E+06 -1.229649E-09  2.067954E-09
       133  15 -8.715679E+06 -1.384811E+06 -2.859178E+05 -3.279520E+06 -3.369820E-09  6.337860E-09
       133  16 -1.045548E+07 -1.918236E+06 -5.511615E+05 -3.789066E+06  7.970609E-10  1.280180E-09
       133  17 -1.048115E+07 -1.919731E+06 -6.206329E+05 -3.800963E+06 -3.997645E-09  3.367930E-09
       133  18 -1.053653E+07 -2.110363E+06 -7.860888E+05 -3.809140E+06 -8.082018E-10  2.174576E-09
       133  19 -6.936418E+06 -6.103730E+05  3.949911E+05 -2.859556E+06 -7.545418E+04  2.683948E+04
       133  20 -6.899720E+06 -5.408117E+05  3.506473E+05 -2.805821E+06 -1.448284E+05  4.085913E+03
       133  21 -6.891516E+06 -6.589569E+05  2.140341E+05 -2.748432E+06 -2.120954E+05 -2.425530E+04
       133  22 -8.697459E+06 -1.264380E+06 -7.794216E+04 -3.324910E+06 -7.302529E+04  2.776487E+04
       133  23 -8.691996E+06 -1.230378E+06 -1.348281E+05 -3.304056E+06 -1.444373E+05  4.248530E+03
       133  24 -8.715630E+06 -1.384798E+06 -2.858295E+05 -3.279516E+06 -2.137350E+05 -2.485519E+04
       133  25 -1.045547E+07 -1.918233E+06 -5.511505E+05 -3.789068E+06 -7.060387E+04  2.868762E+04
       133  26 -1.048113E+07 -1.919726E+06 -6.205932E+05 -3.800963E+06 -1.440469E+05  4.410882E+03
       133  27 -1.053648E+07 -2.110350E+06 -7.859988E+05 -3.809136E+06 -2.153684E+05 -2.545247E+04
       134   1 -6.855589E+06 -6.005593E+05  1.462186E+05 -2.934796E+06  2.728044E+05  4.202826E+04
       134   2 -6.844662E+06 -3.601349E+05 -9.245825E+04 -2.802369E+06  5.711453E+05  1.577330E+05
       134   3 -7.400457E+06 -1.362384E+06 -9.078982E+05 -2.280712E+06  8.553974E+05  3.100473E+05
       134   4 -8.775981E+06 -1.218873E+06 -3.500514E+05 -3.346947E+06  2.655526E+05  3.930742E+04
       134   5 -8.566362E+06 -1.092616E+06 -5.718533E+05 -3.351580E+06  5.776726E+05  1.601411E+05
       134   6 -8.927704E+06 -2.214125E+06 -1.382697E+06 -2.966482E+06  8.757796E+05  3.174413E+05
       134   7 -1.069276E+07 -1.837195E+06 -8.466178E+05 -3.758044E+06  2.583247E+05  3.659239E+04
       134   8 -1.028513E+07 -1.824702E+06 -1.051528E+06 -3.899317E+06  5.841777E+05  1.625385E+05
       134   9 -1.045248E+07 -3.064800E+06 -1.857723E+06 -3.650434E+06  8.961034E+05  3.247903E+05
       134  10 -6.855670E+06 -6.005815E+05  1.460737E+05 -2.934806E+06  1.167105E-09 -1.415881E-09
       134  11 -6.845022E+06 -3.602509E+05 -9.312660E+04 -2.802442E+06  2.117013E-09 -1.228924E-08
       134  12 -7.401277E+06 -1.362688E+06 -9.094745E+05 -2.280928E+06 -5.287815E-09 -3.684873E-09
       134  13 -8.776058E+06 -1.218894E+06 -3.501890E+05 -3.346956E+06 -3.431251E-10  3.057271E-09
       134  14 -8.566731E+06 -1.092736E+06 -5.725395E+05 -3.351655E+06 -4.314909E-09 -1.908538E-09
       134  15 -8.928566E+06 -2.214445E+06 -1.384354E+06 -2.966708E+06  1.607021E-10 -1.333826E-09
       134  16 -1.069284E+07 -1.837215E+06 -8.467482E+05 -3.758052E+06 -2.889798E-09  1.385325E-09
       134  17 -1.028551E+07 -1.824825E+06 -1.052232E+06 -3.899395E+06 -4.784827E-09  3.714360E-09
       134  18 -1.045338E+07 -3.065136E+06 -1.859464E+06 -3.650672E+06 -4.281264E-10  3.233360E-10
       134  19 -6.855589E+06 -6.005593E+05  1.462186E+05 -2.934796E+06 -2.728044E+05 -4.202826E+04
       134  20 -6.844662E+06 -3.601349E+05 -9.245825E+04 -2.802369E+06 -5.711453E+05 -1.577330E+05
       134  21 -7.400457E+06 -1.362384E+06 -9.078982E+05 -2.280712E+06 -8.553974E+05 -3.100473E+05
       134  22 -8.775981E+06 -1.218873E+06 -3.500514E+05 -3.346947E+06 -2.655526E+05 -3.930742E+04
       134  23 -8.566362E+06 -1.092616E+06 -5.718533E+05 -3.351580E+06 -5.776726E+05 -1.601411E+05
       134  24 -8.927704E+06 -2.214125E+06 -1.382697E+06 -2.966482E+06 -8.757796E+05 -3.174413E+05
       134  25 -1.069276E+07 -1.837195E+06 -8.466178E+05 -3.758044E+06 -2.583247E+05 -3.659239E+04
       134  26 -1.028513E+07 -1.824702E+06 -1.051528E+06 -3.899317E+06 -5.841777E+05 -1.625385E+05
       134  27 -1.045248E+07 -3.064800E+06 -1.857723E+06 -3.650434E+06 -8.961034E+05 -3.247903E+05
       135   1 -1.473746E+06 -2.270275E+05 -1.752760E+05 -1.344160E+04  1.383597E+05  1.309541E+04
       135   2 -1.433025E+06 -4.129036E+05 -2.776484E+05  3.749347E+03  9.568094E+04  3.616982E+04
       135   3 -1.321985E+06 -3.686562E+05 -2.932713E+05 -6.414349E+04  5.319276E+04  3.180995E+04
       135   4  1.240023E+05  1.715384E+05  2.217013E+05 -4.254502E+04  1.510745E+05  1.318226E+04
       135   5  8.810764E+04 -3.396457E+04  9.513252E+04  6.520030E+02  9.907827E+04  3.618409E+04
       135   6  1.239951E+05 -8.024601E+03  6.162898E+04 -4.121952E+04  4.727862E+04  3.177765E+04
       135   7  1.724074E+06  5.699169E+05  6.184890E+05 -7.172789E+04  1.638216E+05  1.326782E+04
       135   8  1.611352E+06  3.448031E+05  4.677440E+05 -2.456291E+03  1.024837E+05  3.619832E+04
       135   9  1.571882E+06  3.524534E+05  4.163760E+05 -1.824424E+04  4.135062E+04  3.174496E+04
       135  10 -1.473767E+06 -2.270328E+05 -1.753124E+05 -1.344306E+04 -2.975385E-09  2.601121E-09
       135  11 -1.433036E+06 -4.129075E+05 -2.776681E+05  3.746557E+03  1.972956E-09 -2.676661E-09
       135  12 -1.321989E+06 -3.686581E+05 -2.932785E+05 -6.414486E+04 -2.251836E-10 -1.629232E-09
       135  13  1.239778E+05  1.715321E+05  2.216581E+05 -4.254662E+04  6.405552E-09  8.072141E-10
       135  14  8.809675E+04 -3.396861E+04  9.511161E+04  6.491161E+02  3.213890E-09 -8.855065E-09
       135  15  1.239924E+05 -8.026286E+03  6.162288E+04 -4.122073E+04  2.757271E-09 -1.357050E-09
       135  16  1.724046E+06  5.699095E+05  6.184384E+05 -7.172964E+04  1.831231E-09 -1.022658E-09
       135  17  1.611340E+06  3.447989E+05  4.677218E+05 -2.459276E+03  4.497732E-09 -2.160438E-09
       135  18  1.571880E+06  3.524519E+05  4.163709E+05 -1.824529E+04  9.977704E-10 -3.452420E-09
       135  19 -1.473746E+06 -2.270275E+05 -1.752760E+05 -1.344160E+04 -1.383597E+05 -1.309541E+04
       135  20 -1.433025E+06 -4.129036E+05 -2.776484E+05  3.749347E+03 -9.568094E+04 -3.616982E+04
       135  21 -1.321985E+06 -3.686562E+05 -2.932713E+05 -6.414349E+04 -5.319276E+04 -3.180995E+04
       135  22  1.240023E+05  1.715384E+05  2.217013E+05 -4.254502E+04 -1.510745E+05 -1.318226E+04
       135  23  8.810764E+04 -3.396457E+04  9.513252E+04  6.520030E+02 -9.907827E+04 -3.618409E+04
       135  24  1.239951E+05 -8.024601E+03  6.162898E+04 -4.121952E+04 -4.727862E+04 -3.177765E+04
       135  25  1.724074E+06  5.699169E+05  6.184890E+05 -7.172789E+04 -1.638216E+05 -1.326782E+04
       135  26  1.611352E+06  3.448031E+05  4.677440E+05 -2.456291E+03 -1.024837E+05 -3.619832E+04
       135  27  1.571882E+06  3.524534E+05  4.163760E+05 -1.824424E+04 -4.135062E+04 -3.174496E+04
       136   1 -1.163623E+06 -2.960891E+05 -2.626450E+05 -4.069931E+04  3.671220E+04  2.600613E+04
       136   2 -1.096091E+06 -3.038801E+05 -2.700252E+05 -1.435590E+03  2.493644E+04  2.618019E+04
       136   3 -1.015292E+06 -2.819483E+05 -2.614191E+05 -4.515879E+04  1.316309E+04  2.333805E+04
       136   4  1.111745E+05  2.165601E+04  5.059377E+04 -4.122587E+04  3.734510E+04  2.600512E+04
       136   5  1.044611E+05 -4.697842E+03  2.458364E+04  3.083080E+02  2.453407E+04  2.617563E+04
       136   6  1.111755E+05 -1.177782E+03  1.525708E+04 -4.113416E+04  1.172687E+04  2.333245E+04
       136   7  1.387453E+06  3.392804E+05  3.637130E+05 -4.175503E+04  3.797924E+04  2.600411E+04
       136   8  1.306327E+06  2.943774E+05  3.190866E+05  2.054553E+03  2.413088E+04  2.617108E+04
       136   9  1.238800E+06  2.794985E+05  2.918400E+05 -3.710275E+04  1.028803E+04  2.332684E+04
       136  10 -1.163624E+06 -2.960902E+05 -2.626488E+05 -4.070008E+04  2.391466E-09 -3.790606E-09
       136  11 -1.096092E+06 -3.038810E+05 -2.700276E+05 -1.436116E+03  5.886637E-10  2.914478E-09
       136  12 -1.015293E+06 -2.819489E+05 -2.614204E+05 -4.515904E+04 -4.014169E-09 -2.383364E-09
       136  13  1.111729E+05  2.165491E+04  5.058988E+04 -4.122666E+04  1.168204E-09 -1.928958E-09
       136  14  1.044603E+05 -4.698740E+03  2.458122E+04  3.077908E+02 -3.224555E-09 -1.362670E-10
       136  15  1.111752E+05 -1.178404E+03  1.525580E+04 -4.113438E+04  2.834699E-09 -5.648013E-10
       136  16  1.387451E+06  3.392793E+05  3.637090E+05 -4.175583E+04  2.325214E-09  2.624204E-10
       136  17  1.306326E+06  2.943765E+05  3.190842E+05  2.054045E+03 -2.128272E-09 -4.460619E-09
       136  18  1.238799E+06  2.794979E+05  2.918387E+05 -3.710294E+04  1.796989E-09 -8.539567E-10
       136  19 -1.163623E+06 -2.960891E+05 -2.626450E+05 -4.069931E+04 -3.671220E+04 -2.600613E+04
       136  20 -1.096091E+06 -3.038801E+05 -2.700252E+05 -1.435590E+03 -2.493644E+04 -2.618019E+04
       136  21 -1.015292E+06 -2.819483E+05 -2.614191E+05 -4.515879E+04 -1.316309E+04 -2.333805E+04
       136  22  1.111745E+05  2.165601E+04  5.059377E+04 -4.122587E+04 -3.734510E+04 -2.600512E+04
       136  23  1.044611E+05 -4.697842E+03  2.458364E+04  3.083080E+02 -2.453407E+04 -2.617563E+04
       136  24  1.111755E+05 -1.177782E+03  1.525708E+04 -4.113416E+04 -1.172687E+04 -2.333245E+04
       136  25  1.387453E+06  3.392804E+05  3.637130E+05 -4.175503E+04 -3.797924E+04 -2.600411E+04
       136  26  1.306327E+06  2.943774E+05  3.190866E+05  2.054553E+03 -2.413088E+04 -2.617108E+04
       136  27  1.238800E+06  2.794985E+05  2.918400E+05 -3.710275E+04 -1.028803E+04 -2.332684E+04
       137   1 -8.479721E+05 -2.359792E+05 -2.227197E+05 -4.158587E+04  9.978933E+03  2.133233E+04
       137   2 -7.764357E+05 -2.209392E+05 -2.106952E+05 -3.607268E+02  6.937241E+03  1.901530E+04
       137   3 -7.014229E+05 -2.020990E+05 -1.953017E+05 -4.116863E+04  3.888980E+03  1.637898E+04
       137   4  1.090776E+05  2.460219E+03  1.198787E+04 -4.095291E+04  9.265894E+03  2.132915E+04
       137   5  1.073334E+05 -7.364868E+02  6.179735E+03  6.189470E+01  6.112633E+03  1.901296E+04
       137   6  1.090780E+05 -1.156840E+02  3.814929E+03 -4.094912E+04  2.953159E+03  1.637770E+04
       137   7  1.066962E+06  2.408317E+05  2.466283E+05 -4.031926E+04  8.551748E+03  2.132596E+04
       137   8  9.918141E+05  2.194082E+05  2.229973E+05  4.849888E+02  5.286847E+03  1.901062E+04
       137   9  9.201772E+05  2.018188E+05  2.028833E+05 -4.072929E+04  2.016116E+03  1.637642E+04
       137  10 -8.479724E+05 -2.359797E+05 -2.227208E+05 -4.158605E+04  7.191760E-10 -5.872535E-10
       137  11 -7.764358E+05 -2.209396E+05 -2.106960E+05 -3.608331E+02  9.905722E-10 -6.455135E-10
       137  12 -7.014230E+05 -2.020993E+05 -1.953022E+05 -4.116868E+04  2.772801E-09  1.297525E-10
       137  13  1.090774E+05  2.459707E+03  1.198685E+04 -4.095307E+04 -1.726866E-09  1.031771E-09
       137  14  1.073332E+05 -7.368850E+02  6.178986E+03  6.180111E+01 -1.055856E-09  1.236942E-09
       137  15  1.090779E+05 -1.159744E+02  3.814409E+03 -4.094916E+04  6.468530E-09  3.836467E-10
       137  16  1.066962E+06  2.408312E+05  2.466273E+05 -4.031941E+04  6.648127E-10 -1.393371E-09
       137  17  9.918139E+05  2.194078E+05  2.229966E+05  4.849079E+02  2.644894E-09 -1.750702E-10
       137  18  9.201772E+05  2.018185E+05  2.028827E+05 -4.072932E+04  7.885440E-10 -1.083819E-09
       137  19 -8.479721E+05 -2.359792E+05 -2.227197E+05 -4.158587E+04 -9.978933E+03 -2.133233E+04
       137  20 -7.764357E+05 -2.209392E+05 -2.106952E+05 -3.607268E+02 -6.937241E+03 -1.901530E+04
       137  21 -7.014229E+05 -2.020990E+05 -1.953017E+05 -4.116863E+04 -3.888980E+03 -1.637898E+04
       137  22  1.090776E+05  2.460219E+03  1.198787E+04 -4.095291E+04 -9.265894E+03 -2.132915E+04
       137  23  1.073334E+05 -7.364868E+02  6.179735E+03  6.189470E+01 -6.112633E+03 -1.901296E+04
       137  24  1.090780E+05 -1.156840E+02  3.814929E+03 -4.094912E+04 -2.953159E+03 -1.637770E+04
       137  25  1.066962E+06  2.408317E+05  2.466283E+05 -4.031926E+04 -8.551748E+03 -2.132596E+04
       137  26  9.918141E+05  2.194082E+05  2.229973E+05  4.849888E+02 -5.286847E+03 -1.901062E+04
       137  27  9.201772E+05  2.018188E+05  2.028833E+05 -4.072929E+04 -2.016116E+03 -1.637642E+04
       138   1 -5.340645E+05 -1.598342E+05 -1.545788E+05 -4.056981E+04  3.193048E+03  1.480778E+04
       138   2 -4.617949E+05 -1.421138E+05 -1.383258E+05  2.642643E+02  2.435501E+03  1.223577E+04
       138   3 -3.886407E+05 -1.237861E+05 -1.212991E+05 -4.026272E+04  1.673591E+03  9.639282E+03
       138   4  1.085752E+05  2.209408E+02  2.884493E+03 -4.080133E+04  2.334974E+03  1.480720E+04
       138   5  1.081345E+05 -1.344504E+02  1.511414E+03 -1.230861E+02  1.568444E+03  1.223587E+04
       138   6  1.085753E+05  1.193747E+02  9.182415E+02 -4.080128E+04  7.976387E+02  9.640101E+03
       138   7  7.515912E+05  1.602455E+05  1.603175E+05 -4.103303E+04  1.476013E+03  1.480662E+04
       138   8  6.783598E+05  1.418208E+05  1.413248E+05 -5.107227E+02  7.005913E+02  1.223598E+04
       138   9  6.060163E+05  1.240065E+05  1.231174E+05 -4.134018E+04 -7.901404E+01  9.640920E+03
       138  10 -5.340646E+05 -1.598345E+05 -1.545792E+05 -4.056985E+04  6.216772E-10  2.347892E-10
       138  11 -4.617949E+05 -1.421140E+05 -1.383261E+05  2.642403E+02 -3.619015E-09  8.902416E-10
       138  12 -3.886407E+05 -1.237862E+05 -1.212993E+05 -4.026274E+04 -4.027136E-10  4.994954E-10
       138  13  1.085751E+05  2.207039E+02  2.884071E+03 -4.080136E+04  4.160496E-09  4.624547E-10
       138  14  1.081345E+05 -1.346119E+02  1.511128E+03 -1.231016E+02  6.481864E-09  2.646537E-10
       138  15  1.085753E+05  1.192748E+02  9.180657E+02 -4.080129E+04 -4.381452E-10 -6.730929E-10
       138  16  7.515912E+05  1.602453E+05  1.603171E+05 -4.103305E+04  6.172583E-10 -1.460572E-09
       138  17  6.783598E+05  1.418206E+05  1.413245E+05 -5.107296E+02 -3.781409E-09  5.377358E-10
       138  18  6.060163E+05  1.240064E+05  1.231172E+05 -4.134018E+04 -7.676052E-10 -5.101570E-10
       138  19 -5.340645E+05 -1.598342E+05 -1.545788E+05 -4.056981E+04 -3.193048E+03 -1.480778E+04
       138  20 -4.617949E+05 -1.421138E+05 -1.383258E+05  2.642643E+02 -2.435501E+03 -1.223577E+04
       138  21 -3.886407E+05 -1.237861E+05 -1.212991E+05 -4.026272E+04 -1.673591E+03 -9.639282E+03
       138  22  1.085752E+05  2.209408E+02  2.884493E+03 -4.080133E+04 -2.334974E+03 -1.480720E+04
       138  23  1.081345E+05 -1.344504E+02  1.511414E+03 -1.230861E+02 -1.568444E+03 -1.223587E+04
       138  24  1.085753E+05  1.193747E+02  9.182415E+02 -4.080128E+04 -7.976387E+02 -9.640101E+03
       138  25  7.515912E+05  1.602455E+05  1.603175E+05 -4.103303E+04 -1.476013E+03 -1.480662E+04
       138  26  6.783598E+05  1.418208E+05  1.413248E+05 -5.107227E+02 -7.005913E+02 -1.223598E+04
       138  27  6.060163E+05  1.240065E+05  1.231174E+05 -4.134018E+04  7.901404E+01 -9.640920E+03
       139   1 -2.219848E+05 -8.214897E+04 -8.018799E+04 -4.031379E+04  1.521757E+03  8.121860E+03
       139   2 -1.495225E+05 -6.426312E+04 -6.301234E+04  1.299895E+02  1.374654E+03  5.532872E+03
       139   3 -7.718706E+04 -4.611537E+04 -4.572155E+04 -4.040463E+04  1.225652E+03  2.963094E+03
       139   4  1.083936E+05  9.752737E+01  6.360526E+02 -4.071685E+04  6.489648E+02  8.123078E+03
       139   5  1.084594E+05 -6.694485E+00  2.746954E+02 -2.286488E+02  5.081992E+02  5.534383E+03
       139   6  1.083936E+05  1.505328E+02  2.464560E+01 -4.071676E+04  3.655515E+02  2.964912E+03
       139   7  4.388714E+05  8.233595E+04  8.145212E+04 -4.112007E+04 -2.242911E+02  8.124298E+03
       139   8  3.665019E+05  6.424479E+04  6.355685E+04 -5.874074E+02 -3.586151E+02  5.535895E+03
       139   9  2.940056E+05  4.641387E+04  4.576830E+04 -4.102896E+04 -4.948059E+02  2.966730E+03
       139  10 -2.219848E+05 -8.214905E+04 -8.018812E+04 -4.031380E+04  8.430972E-10 -2.012142E-10
       139  11 -1.495225E+05 -6.426315E+04 -6.301240E+04  1.299833E+02 -4.044024E-09 -1.945846E-10
       139  12 -7.718706E+04 -4.611538E+04 -4.572157E+04 -4.040464E+04 -1.251716E-09 -8.933765E-10
       139  13  1.083935E+05  9.745639E+01  6.359278E+02 -4.071685E+04  1.681685E-09  2.406482E-09
       139  14  1.084594E+05 -6.727446E+00  2.746374E+02 -2.286510E+02 -5.421889E-09  2.281986E-09
       139  15  1.083936E+05  1.505234E+02  2.462883E+01 -4.071676E+04 -1.960378E-09 -3.444658E-09
       139  16  4.388714E+05  8.233588E+04  8.145200E+04 -4.112007E+04 -1.654847E-10  7.701552E-10
       139  17  3.665019E+05  6.424476E+04  6.355679E+04 -5.874058E+02 -6.956545E-09  1.282278E-09
       139  18  2.940056E+05  4.641386E+04  4.576828E+04 -4.102896E+04 -1.609995E-09  4.313418E-10
       139  19 -2.219848E+05 -8.214897E+04 -8.018799E+04 -4.031379E+04 -1.521757E+03 -8.121860E+03
       139  20 -1.495225E+05 -6.426312E+04 -6.301234E+04  1.299895E+02 -1.374654E+03 -5.532872E+03
       139  21 -7.718706E+04 -4.611537E+04 -4.572155E+04 -4.040463E+04 -1.225652E+03 -2.963094E+03
       139  22  1.083936E+05  9.752737E+01  6.360526E+02 -4.071685E+04 -6.489648E+02 -8.123078E+03
       139  23  1.084594E+05 -6.694485E+00  2.746954E+02 -2.286488E+02 -5.081992E+02 -5.534383E+03
       139  24  1.083936E+05  1.505328E+02  2.464560E+01 -4.071676E+04 -3.655515E+02 -2.964912E+03
       139  25  4.388714E+05  8.233595E+04  8.145212E+04 -4.112007E+04  2.242911E+02 -8.124298E+03
       139  26  3.665019E+05  6.424479E+04  6.355685E+04 -5.874074E+02  3.586151E+02 -5.535895E+03
       139  27  2.940056E+05  4.641387E+04  4.576830E+04 -4.102896E+04  4.948059E+02 -2.966730E+03
       140   1  8.915772E+04 -4.558394E+03 -4.585375E+03 -4.070035E+04  1.267086E+03  1.432670E+03
       140   2  1.617120E+05  1.328890E+04  1.266140E+04 -3.328714E+02  1.396342E+03 -1.161276E+03
       140   3  2.338297E+05  3.112821E+04  2.973280E+04 -4.084885E+04  1.526355E+03 -3.588683E+03
       140   4  1.083331E+05  1.720061E+02 -1.060975E+02 -4.069606E+04  3.675041E+02  1.434675E+03
       140   5  1.085591E+05  5.320450E+01 -3.714551E+02 -2.543866E+02  5.526523E+02 -1.159466E+03
       140   6  1.083331E+05 -8.320935E+01 -8.509665E+02 -4.069660E+04  7.385419E+02 -3.587046E+03
       140   7  1.275088E+05  4.902380E+03  4.373158E+03 -4.069177E+04 -5.321052E+02  1.436681E+03
       140   8  5.540887E+04 -1.318270E+04 -1.340451E+04 -1.759071E+02 -2.909656E+02 -1.157657E+03
       140   9 -1.714919E+04 -3.129579E+04 -3.143588E+04 -4.054437E+04 -4.911210E+01 -3.585410E+03
       140  10  8.915771E+04 -4.558397E+03 -4.585382E+03 -4.070035E+04 -1.344208E-09  1.786846E-09
       140  11  1.617120E+05  1.328890E+04  1.266139E+04 -3.328701E+02 -6.648718E-09 -2.376491E-10
       140  12  2.338297E+05  3.112820E+04  2.973277E+04 -4.084885E+04  4.487807E-11 -7.750114E-11
       140  13  1.083331E+05  1.720038E+02 -1.061017E+02 -4.069606E+04 -4.849922E-09 -2.274707E-09
       140  14  1.085591E+05  5.320298E+01 -3.714582E+02 -2.543861E+02 -4.252214E-09 -3.138939E-09
       140  15  1.083331E+05 -8.322331E+01 -8.509917E+02 -4.069660E+04 -2.534730E-09  9.901237E-10
       140  16  1.275088E+05  4.902378E+03  4.373153E+03 -4.069177E+04 -3.653369E-10  2.217132E-09
       140  17  5.540887E+04 -1.318271E+04 -1.340452E+04 -1.759074E+02  5.315347E-09 -3.073436E-09
       140  18 -1.714919E+04 -3.129581E+04 -3.143590E+04 -4.054437E+04 -1.509294E-09 -6.285965E-10
       140  19  8.915772E+04 -4.558394E+03 -4.585375E+03 -4.070035E+04 -1.267086E+03 -1.432670E+03
       140  20  1.617120E+05  1.328890E+04  1.266140E+04 -3.328714E+02 -1.396342E+03  1.161276E+03
       140  21  2.338297E+05  3.112821E+04  2.973280E+04 -4.084885E+04 -1.526355E+03  3.588683E+03
       140  22  1.083331E+05  1.720061E+02 -1.060975E+02 -4.069606E+04 -3.675041E+02 -1.434675E+03
       140  23  1.085591E+05  5.320450E+01 -3.714551E+02 -2.543866E+02 -5.526523E+02  1.159466E+03
       140  24  1.083331E+05 -8.320935E+01 -8.509665E+02 -4.069660E+04 -7.385419E+02  3.587046E+03
       140  25  1.275088E+05  4.902380E+03  4.373158E+03 -4.069177E+04  5.321052E+02 -1.436681E+03
       140  26  5.540887E+04 -1.318270E+04 -1.340451E+04 -1.759071E+02  2.909656E+02  1.157657E+03
       140  27 -1.714919E+04 -3.129579E+04 -3.143588E+04 -4.054437E+04  4.911210E+01  3.585410E+03
       141   1  4.003179E+05  7.300545E+04  7.074815E+04 -4.137159E+04  2.053283E+03 -5.322587E+03
       141   2  4.731299E+05  9.106443E+04  8.748227E+04 -5.681875E+02  2.511271E+03 -7.985143E+03
       141   3  5.453993E+05  1.071662E+05  1.034262E+05 -4.081464E+04  2.974024E+03 -9.139464E+03
       141   4  1.082704E+05  2.458163E+02 -1.079121E+03 -4.073282E+04  9.046313E+02 -5.320416E+03
       141   5  1.085884E+05  3.087217E+02 -1.876420E+03 -2.077727E+02  1.869155E+03 -7.984373E+03
       141   6  1.082705E+05 -1.673953E+03 -3.815767E+03 -4.073558E+04  2.838389E+03 -9.139691E+03
       141   7 -1.836995E+05 -7.252016E+04 -7.291267E+04 -4.009431E+04 -2.434812E+02 -5.318248E+03
       141   8 -2.558321E+05 -9.045684E+04 -9.124485E+04  1.524805E+02  1.227414E+03 -7.983604E+03
       141   9 -3.286844E+05 -1.105283E+05 -1.110717E+05 -4.065651E+04  2.702850E+03 -9.139919E+03
       141  10  4.003179E+05  7.300542E+04  7.074809E+04 -4.137158E+04 -4.082733E-09 -2.692096E-09
       141  11  4.731299E+05  9.106436E+04  8.748214E+04 -5.681713E+02 -3.838985E-09  3.354166E-10
       141  12  5.453993E+05  1.071661E+05  1.034260E+05 -4.081461E+04  4.942054E-10  2.598321E-10
       141  13  1.082704E+05  2.457857E+02 -1.079176E+03 -4.073282E+04 -2.678696E-09  6.518583E-10
       141  14  1.085884E+05  3.086523E+02 -1.876546E+03 -2.077607E+02 -6.440855E-09  4.670678E-10
       141  15  1.082705E+05 -1.674045E+03 -3.815939E+03 -4.073556E+04 -5.769200E-09  3.772553E-10
       141  16 -1.836995E+05 -7.252019E+04 -7.291272E+04 -4.009431E+04  3.679751E-10  1.747493E-09
       141  17 -2.558321E+05 -9.045691E+04 -9.124498E+04  1.524884E+02 -1.235541E-09  2.322586E-09
       141  18 -3.286845E+05 -1.105284E+05 -1.110719E+05 -4.065649E+04  7.328744E-10 -7.022462E-10
       141  19  4.003179E+05  7.300545E+04  7.074815E+04 -4.137159E+04 -2.053283E+03  5.322587E+03
       141  20  4.731299E+05  9.106443E+04  8.748227E+04 -5.681875E+02 -2.511271E+03  7.985143E+03
       141  21  5.453993E+05  1.071662E+05  1.034262E+05 -4.081464E+04 -2.974024E+03  9.139464E+03
       141  22  1.082704E+05  2.458163E+02 -1.079121E+03 -4.073282E+04 -9.046313E+02  5.320416E+03
       141  23  1.085884E+05  3.087217E+02 -1.876420E+03 -2.077727E+02 -1.869155E+03  7.984373E+03
       141  24  1.082705E+05 -1.673953E+03 -3.815767E+03 -4.073558E+04 -2.838389E+03  9.139691E+03
       141  25 -1.836995E+05 -7.252016E+04 -7.291267E+04 -4.009431E+04  2.434812E+02  5.318248E+03
       141  26 -2.558321E+05 -9.045684E+04 -9.124485E+04  1.524805E+02 -1.227414E+03  7.983604E+03
       141  27 -3.286844E+05 -1.105283E+05 -1.110717E+05 -4.065651E+04 -2.702850E+03  9.139919E+03
       142   1  7.119401E+05  1.511352E+05  1.436648E+05 -4.264372E+04  6.959550E+03 -1.270817E+04
       142   2  7.865165E+05  1.708852E+05  1.583588E+05  4.233582E+02  6.337960E+03 -1.596689E+04
       142   3  8.581479E+05  1.742431E+05  1.695748E+05 -3.781653E+04  5.719446E+03 -5.582690E+03
       142   4  1.075237E+05  6.555567E+02 -4.589100E+03 -4.079070E+04  3.566668E+03 -1.270522E+04
       142   5  1.093991E+05  2.394935E+03 -7.339055E+03 -1.343491E+02  7.530395E+03 -1.596857E+04
       142   6  1.075244E+05 -1.306311E+04 -1.675373E+04 -4.079070E+04  1.149718E+04 -5.582457E+03
       142   7 -4.965604E+05 -1.498512E+05 -1.528698E+05 -3.893938E+04  1.770778E+02 -1.270228E+04
       142   8 -5.673010E+05 -1.661293E+05 -1.730704E+05 -6.913999E+02  8.721531E+03 -1.597024E+04
       142   9 -6.425882E+05 -2.004115E+05 -2.031242E+05 -4.376127E+04  1.726793E+04 -5.582280E+03
       142  10  7.119400E+05  1.511350E+05  1.436644E+05 -4.264365E+04 -5.260025E-10  1.469409E-11
       142  11  7.865164E+05  1.708849E+05  1.583583E+05  4.234397E+02 -4.670515E-09  2.499767E-10
       142  12  8.581479E+05  1.742431E+05  1.695747E+05 -3.781650E+04 -1.286857E-09  1.898918E-10
       142  13  1.075236E+05  6.553799E+02 -4.589427E+03 -4.079066E+04 -4.654734E-09  1.521111E-09
       142  14  1.093989E+05  2.394646E+03 -7.339640E+03 -1.342522E+02 -1.077098E-09 -1.786751E-10
       142  15  1.075242E+05 -1.306318E+04 -1.675404E+04 -4.079065E+04  3.359695E-09 -4.753388E-11
       142  16 -4.965604E+05 -1.498513E+05 -1.528701E+05 -3.893938E+04 -9.525966E-10 -1.001925E-09
       142  17 -5.673012E+05 -1.661296E+05 -1.730711E+05 -6.912876E+02  1.838031E-09 -2.365527E-10
       142  18 -6.425885E+05 -2.004116E+05 -2.031249E+05 -4.376119E+04 -9.845762E-10  5.803298E-11
       142  19  7.119401E+05  1.511352E+05  1.436648E+05 -4.264372E+04 -6.959550E+03  1.270817E+04
       142  20  7.865165E+05  1.708852E+05  1.583588E+05  4.233582E+02 -6.337960E+03  1.596689E+04
       142  21  8.581479E+05  1.742431E+05  1.695748E+05 -3.781653E+04 -5.719446E+03  5.582690E+03
       142  22  1.075237E+05  6.555567E+02 -4.589100E+03 -4.079070E+04 -3.566668E+03  1.270522E+04
       142  23  1.093991E+05  2.394935E+03 -7.339055E+03 -1.343491E+02 -7.530395E+03  1.596857E+04
       142  24  1.075244E+05 -1.306311E+04 -1.675373E+04 -4.079070E+04 -1.149718E+04  5.582457E+03
       142  25 -4.965604E+05 -1.498512E+05 -1.528698E+05 -3.893938E+04 -1.770778E+02  1.270228E+04
       142  26 -5.673010E+05 -1.661293E+05 -1.730704E+05 -6.913999E+02 -8.721531E+03  1.597024E+04
       142  27 -6.425882E+05 -2.004115E+05 -2.031242E+05 -4.376127E+04 -1.726793E+04  5.582280E+03
       143   1  1.552886E+06  5.278148E+06  1.486199E+06 -1.372767E+06  6.493980E+04  3.377555E+05
       143   2  1.107884E+06  3.782078E+06  9.667501E+05 -1.155683E+06  2.018348E+05  9.176695E+04
       143   3  7.497648E+05  2.335931E+06  6.276628E+05 -1.317024E+06  1.823842E+05 -1.549615E+05
       143   4  7.626800E+04 -6.910783E+05  6.199600E+04 -1.292949E+06  6.826834E+04  2.992503E+04
       143   5  2.830562E+04 -6.934760E+05  4.006482E+04 -1.103967E+06  2.028722E+05  1.093650E+04
       143   6  2.841637E+04 -6.869111E+05  4.184087E+04 -1.293508E+06  1.806356E+05 -9.391739E+03
       143   7 -1.402860E+06 -6.627582E+06 -1.364360E+06 -1.213782E+06  7.153683E+04 -2.749785E+05
       143   8 -1.052534E+06 -5.150095E+06 -8.876862E+05 -1.052561E+06  2.039007E+05 -6.932393E+04
       143   9 -6.934653E+05 -3.700946E+06 -5.443313E+05 -1.270074E+06  1.788929E+05  1.354872E+05
       143  10  1.552852E+06  5.278025E+06  1.485978E+06 -1.372785E+06  1.167204E-09  4.085062E-09
       143  11  1.107838E+06  3.782058E+06  9.666577E+05 -1.155698E+06 -1.119084E-09 -4.645178E-09
       143  12  7.497228E+05  2.335897E+06  6.275556E+05 -1.317001E+06 -2.560900E-09 -1.207797E-08
       143  13  7.626275E+04 -6.910805E+05  6.198554E+04 -1.292951E+06  6.285615E-09  4.632011E-09
       143  14  2.826140E+04 -6.934871E+05  3.998726E+04 -1.103969E+06 -2.739945E-10 -1.042568E-08
       143  15  2.838133E+04 -6.869200E+05  4.177943E+04 -1.293507E+06 -1.221704E-09  3.161839E-09
       143  16 -1.402886E+06 -6.627665E+06 -1.364513E+06 -1.213766E+06  1.342774E-09 -4.320863E-09
       143  17 -1.052580E+06 -5.150111E+06 -8.877732E+05 -1.052550E+06  1.337829E-08  6.152140E-09
       143  18 -6.935047E+05 -3.700975E+06 -5.444263E+05 -1.270094E+06 -8.635806E-09  6.503137E-09
       143  19  1.552886E+06  5.278148E+06  1.486199E+06 -1.372767E+06 -6.493980E+04 -3.377555E+05
       143  20  1.107884E+06  3.782078E+06  9.667501E+05 -1.155683E+06 -2.018348E+05 -9.176695E+04
       143  21  7.497648E+05  2.335931E+06  6.276628E+05 -1.317024E+06 -1.823842E+05  1.549615E+05
       143  22  7.626800E+04 -6.910783E+05  6.199600E+04 -1.292949E+06 -6.826834E+04 -2.992503E+04
       143  23  2.830562E+04 -6.934760E+05  4.006482E+04 -1.103967E+06 -2.028722E+05 -1.093650E+04
       143  24  2.841637E+04 -6.869111E+05  4.184087E+04 -1.293508E+06 -1.806356E+05  9.391739E+03
       143  25 -1.402860E+06 -6.627582E+06 -1.364360E+06 -1.213782E+06 -7.153683E+04  2.749785E+05
       143  26 -1.052534E+06 -5.150095E+06 -8.876862E+05 -1.052561E+06 -2.039007E+05  6.932393E+04
       143  27 -6.934653E+05 -3.700946E+06 -5.443313E+05 -1.270074E+06 -1.788929E+05 -1.354872E+05
       144   1  5.134971E+05  1.332073E+06  4.390824E+05 -1.318404E+06  1.222540E+05 -1.369122E+05
       144   2  1.586491E+05 -1.373993E+05  1.725632E+05 -1.105481E+06  3.913436E+04 -1.750854E+05
       144   3 -1.708000E+05 -1.603469E+06 -6.547313E+04 -1.280264E+06 -4.586083E+04 -2.132368E+05
       144   4  3.096703E+04 -6.877238E+05  4.723324E+04 -1.295481E+06  1.207563E+05 -1.774700E+04
       144   5  2.785261E+04 -6.878573E+05  6.942841E+04 -1.101520E+06  3.757961E+04 -5.332606E+04
       144   6  4.978269E+04 -6.871782E+05  1.182823E+05 -1.295248E+06 -4.747729E+04 -8.896782E+04
       144   7 -4.517984E+05 -2.703575E+06 -3.447548E+05 -1.272619E+06  1.192644E+05  1.010399E+05
       144   8 -1.029535E+05 -1.237990E+06 -3.366372E+04 -1.097562E+06  3.602558E+04  6.832798E+04
       144   9  2.703224E+05  2.299494E+05  3.020533E+05 -1.310251E+06 -4.909833E+04  3.548135E+04
       144  10  5.134761E+05  1.332049E+06  4.390193E+05 -1.318390E+06 -3.838606E-09  3.229254E-08
       144  11  1.586393E+05 -1.374326E+05  1.725027E+05 -1.105476E+06  5.234583E-09 -1.060161E-09
       144  12 -1.708145E+05 -1.603519E+06 -6.556284E+04 -1.280272E+06  1.826103E-09 -3.047586E-08
       144  13  3.095130E+04 -6.877280E+05  4.720528E+04 -1.295479E+06 -6.167581E-09  6.183914E-09
       144  14  2.785034E+04 -6.878607E+05  6.942043E+04 -1.101519E+06 -1.375075E-08 -1.187509E-08
       144  15  4.977813E+04 -6.871873E+05  1.182631E+05 -1.295251E+06 -4.210370E-09  3.327080E-09
       144  16 -4.518165E+05 -2.703590E+06 -3.448009E+05 -1.272629E+06 -7.378959E-09 -3.284306E-08
       144  17 -1.029561E+05 -1.237995E+06 -3.367497E+04 -1.097564E+06 -1.021309E-08  1.408386E-10
       144  18  2.703195E+05  2.299474E+05  3.020465E+05 -1.310250E+06 -9.364409E-10  2.481982E-08
       144  19  5.134971E+05  1.332073E+06  4.390824E+05 -1.318404E+06 -1.222540E+05  1.369122E+05
       144  20  1.586491E+05 -1.373993E+05  1.725632E+05 -1.105481E+06 -3.913436E+04  1.750854E+05
       144  21 -1.708000E+05 -1.603469E+06 -6.547313E+04 -1.280264E+06  4.586083E+04  2.132368E+05
       144  22  3.096703E+04 -6.877238E+05  4.723324E+04 -1.295481E+06 -1.207563E+05  1.774700E+04
       144  23  2.785261E+04 -6.878573E+05  6.942841E+04 -1.101520E+06 -3.757961E+04  5.332606E+04
       144  24  4.978269E+04 -6.871782E+05  1.182823E+05 -1.295248E+06  4.747729E+04  8.896782E+04
       144  25 -4.517984E+05 -2.703575E+06 -3.447548E+05 -1.272619E+06 -1.192644E+05 -1.010399E+05
       144  26 -1.029535E+05 -1.237990E+06 -3.366372E+04 -1.097562E+06 -3.602558E+04 -6.832798E+04
       144  27  2.703224E+05  2.299494E+05  3.020533E+05 -1.310251E+06  4.909833E+04 -3.548135E+04
       145   1 -4.283582E+05 -2.581833E+06 -2.257338E+05 -1.321170E+06 -1.055304E+05 -2.552140E+05
       145   2 -7.176745E+05 -4.076234E+06 -4.390074E+05 -9.498139E+05 -1.426957E+05 -2.075926E+05
       145   3 -6.922446E+05 -5.503088E+06 -6.064944E+05 -9.574610E+05 -4.988773E+04 -1.588353E+05
       145   4  2.988331E+04 -6.663352E+05  1.516981E+05 -1.294168E+06 -1.073928E+05 -1.100982E+05
       145   5  1.014058E+05 -7.164061E+05  2.678882E+05 -1.102127E+06 -1.420934E+05 -2.492980E+05
       145   6  5.191736E+05 -6.692623E+05  5.593921E+05 -1.288571E+06 -4.716928E+04 -3.872767E+05
       145   7  4.879184E+05  1.252738E+06  5.290317E+05 -1.267067E+06 -1.092391E+05  3.545777E+04
       145   8  9.198311E+05  2.654179E+06  9.741652E+05 -1.255243E+06 -1.414727E+05 -2.912239E+05
       145   9  1.729277E+06  4.186388E+06  1.723848E+06 -1.622209E+06 -4.421829E+04 -6.174933E+05
       145  10 -4.283879E+05 -2.581906E+06 -2.258779E+05 -1.321192E+06  2.894055E-09  3.030789E-08
       145  11 -7.177081E+05 -4.076286E+06 -4.391274E+05 -9.498378E+05  6.152366E-09 -2.326530E-09
       145  12 -6.922541E+05 -5.503116E+06 -6.065470E+05 -9.574674E+05  1.423618E-09 -3.336035E-08
       145  13  2.986763E+04 -6.663514E+05  1.516535E+05 -1.294178E+06  1.268432E-09  6.138145E-09
       145  14  1.013674E+05 -7.164783E+05  2.677330E+05 -1.102156E+06 -1.021882E-08 -1.090874E-08
       145  15  5.191309E+05 -6.694241E+05  5.591055E+05 -1.288586E+06  2.941018E-09  3.337033E-09
       145  16  4.879053E+05  1.252733E+06  5.290070E+05 -1.267064E+06 -4.746437E-09 -2.921286E-08
       145  17  9.197869E+05  2.654083E+06  9.739685E+05 -1.255277E+06  6.225917E-09  3.156226E-09
       145  18  1.729173E+06  4.185980E+06  1.723133E+06 -1.622231E+06  3.095841E-09  2.829599E-08
       145  19 -4.283582E+05 -2.581833E+06 -2.257338E+05 -1.321170E+06  1.055304E+05  2.552140E+05
       145  20 -7.176745E+05 -4.076234E+06 -4.390074E+05 -9.498139E+05  1.426957E+05  2.075926E+05
       145  21 -6.922446E+05 -5.503088E+06 -6.064944E+05 -9.574610E+05  4.988773E+04  1.588353E+05
       145  22  2.988331E+04 -6.663352E+05  1.516981E+05 -1.294168E+06  1.073928E+05  1.100982E+05
       145  23  1.014058E+05 -7.164061E+05  2.678882E+05 -1.102127E+06  1.420934E+05  2.492980E+05
       145  24  5.191736E+05 -6.692623E+05  5.593921E+05 -1.288571E+06  4.716928E+04  3.872767E+05
       145  25  4.879184E+05  1.252738E+06  5.290317E+05 -1.267067E+06  1.092391E+05 -3.545777E+04
       145  26  9.198311E+05  2.654179E+06  9.741652E+05 -1.255243E+06  1.414727E+05  2.912239E+05
       145  27  1.729277E+06  4.186388E+06  1.723848E+06 -1.622209E+06  4.421829E+04  6.174933E+05
       146   1 -5.455517E+06 -2.174872E+06 -1.278607E+06 -1.839974E+06 -2.974095E+05 -1.769435E+04
       146   2 -5.095743E+06 -2.082570E+06 -1.056935E+06 -1.701095E+06 -2.037478E+05  2.383612E+05
       146   3 -4.661733E+06 -2.012660E+06 -9.450866E+05 -1.663183E+06 -5.215657E+04  3.441667E+05
       146   4  2.620740E+04 -1.550204E+05  1.452941E+05 -3.860110E+05  6.063316E+04  1.194907E+05
       146   5 -3.858078E+04 -2.207461E+05  6.508871E+04 -3.135287E+05 -4.663354E+04  2.981271E+05
       146   6  1.075435E+04 -2.690400E+05  3.544597E+04 -3.419778E+05 -9.633670E+04  3.271099E+05
       146   7  5.537397E+06  1.866437E+06  1.567209E+06  1.079488E+06  4.221712E+05  2.579163E+05
       146   8  5.044581E+06  1.643023E+06  1.185623E+06  1.084422E+06  1.118760E+05  3.584098E+05
       146   9  4.705782E+06  1.476609E+06  1.014815E+06  9.885199E+05 -1.408805E+05  3.099139E+05
       146  10 -5.455613E+06 -2.174896E+06 -1.278775E+06 -1.839978E+06 -3.747727E-09  6.733240E-10
       146  11 -5.095803E+06 -2.082642E+06 -1.057119E+06 -1.701056E+06 -3.874587E-09  2.574687E-09
       146  12 -4.661767E+06 -2.012788E+06 -9.453144E+05 -1.663168E+06  3.545958E-09 -1.867545E-10
       146  13  2.619961E+04 -1.550367E+05  1.452603E+05 -3.860169E+05 -2.348328E-09  5.559883E-10
       146  14 -3.860697E+04 -2.208422E+05  6.491759E+04 -3.135175E+05 -6.294160E-09 -1.287934E-08
       146  15  1.071568E+04 -2.691574E+05  3.522746E+04 -3.419525E+05  7.594469E-09 -2.611658E-09
       146  16  5.537189E+06  1.866319E+06  1.566753E+06  1.079400E+06  3.291096E-09 -1.893969E-09
       146  17  5.044533E+06  1.642882E+06  1.185359E+06  1.084390E+06  4.579721E-09  2.653886E-09
       146  18  4.705735E+06  1.476500E+06  1.014597E+06  9.885550E+05 -7.505608E-09 -5.585059E-09
       146  19 -5.455517E+06 -2.174872E+06 -1.278607E+06 -1.839974E+06  2.974095E+05  1.769435E+04
       146  20 -5.095743E+06 -2.082570E+06 -1.056935E+06 -1.701095E+06  2.037478E+05 -2.383612E+05
       146  21 -4.661733E+06 -2.012660E+06 -9.450866E+05 -1.663183E+06  5.215657E+04 -3.441667E+05
       146  22  2.620740E+04 -1.550204E+05  1.452941E+05 -3.860110E+05 -6.063316E+04 -1.194907E+05
       146  23 -3.858078E+04 -2.207461E+05  6.508871E+04 -3.135287E+05  4.663354E+04 -2.981271E+05
       146  24  1.075435E+04 -2.690400E+05  3.544597E+04 -3.419778E+05  9.633670E+04 -3.271099E+05
       146  25  5.537397E+06  1.866437E+06  1.567209E+06  1.079488E+06 -4.221712E+05 -2.579163E+05
       146  26  5.044581E+06  1.643023E+06  1.185623E+06  1.084422E+06 -1.118760E+05 -3.584098E+05
       146  27  4.705782E+06  1.476609E+06  1.014815E+06  9.885199E+05  1.408805E+05 -3.099139E+05
       147   1 -4.411894E+06 -1.899034E+06 -8.983303E+05 -1.582211E+06 -8.084604E+04  3.122134E+05
       147   2 -4.078164E+06 -1.720866E+06 -8.212609E+05 -1.432168E+06 -6.950886E+04  3.001197E+05
       147   3 -3.663580E+06 -1.618076E+06 -7.471480E+05 -1.369638E+06 -5.466158E+04  2.785034E+05
       147   4  7.921315E+03 -2.649988E+05  2.707758E+04 -3.479702E+05 -9.349302E+04  3.071855E+05
       147   5 -3.329487E+04 -2.294394E+05  1.390831E+04 -3.036554E+05 -9.492869E+04  2.902998E+05
       147   6  8.707724E+03 -2.667001E+05  7.921120E+03 -3.468704E+05 -9.287059E+04  2.639240E+05
       147   7  4.447832E+06  1.370733E+06  9.514284E+05  8.944289E+05 -1.062392E+05  3.021212E+05
       147   8  4.028427E+06  1.263412E+06  8.482206E+05  8.316819E+05 -1.205290E+05  2.804125E+05
       147   9  3.694873E+06  1.085841E+06  7.622908E+05  6.815074E+05 -1.313246E+05  2.492525E+05
       147  10 -4.411927E+06 -1.899140E+06 -8.985257E+05 -1.582191E+06  3.458949E-09 -9.045352E-10
       147  11 -4.078194E+06 -1.720964E+06 -8.214392E+05 -1.432151E+06  1.705025E-10 -1.550375E-09
       147  12 -3.663604E+06 -1.618160E+06 -7.472994E+05 -1.369626E+06 -4.580880E-09 -1.445728E-09
       147  13  7.886611E+03 -2.651025E+05  2.688383E+04 -3.479470E+05  2.520909E-09 -2.154078E-09
       147  14 -3.332715E+04 -2.295323E+05  1.373302E+04 -3.036332E+05 -7.199824E-09 -5.231283E-09
       147  15  8.679776E+03 -2.667773E+05  7.774027E+03 -3.468507E+05 -8.665098E-09  1.687387E-10
       147  16  4.447795E+06  1.370632E+06  9.512357E+05  8.944547E+05  1.254953E-09 -2.391006E-09
       147  17  4.028391E+06  1.263324E+06  8.480455E+05  8.317091E+05  1.912627E-09 -3.173697E-10
       147  18  3.694838E+06  1.085770E+06  7.621417E+05  6.815338E+05 -3.551396E-09  1.076798E-09
       147  19 -4.411894E+06 -1.899034E+06 -8.983303E+05 -1.582211E+06  8.084604E+04 -3.122134E+05
       147  20 -4.078164E+06 -1.720866E+06 -8.212609E+05 -1.432168E+06  6.950886E+04 -3.001197E+05
       147  21 -3.663580E+06 -1.618076E+06 -7.471480E+05 -1.369638E+06  5.466158E+04 -2.785034E+05
       147  22  7.921315E+03 -2.649988E+05  2.707758E+04 -3.479702E+05  9.349302E+04 -3.071855E+05
       147  23 -3.329487E+04 -2.294394E+05  1.390831E+04 -3.036554E+05  9.492869E+04 -2.902998E+05
       147  24  8.707724E+03 -2.667001E+05  7.921120E+03 -3.468704E+05  9.287059E+04 -2.639240E+05
       147  25  4.447832E+06  1.370733E+06  9.514284E+05  8.944289E+05  1.062392E+05 -3.021212E+05
       147  26  4.028427E+06  1.263412E+06  8.482206E+05  8.316819E+05  1.205290E+05 -2.804125E+05
       147  27  3.694873E+06  1.085841E+06  7.622908E+05  6.815074E+05  1.313246E+05 -2.492525E+05
       148   1 -3.405115E+06 -1.520218E+06 -6.936342E+05 -1.296553E+06 -5.143362E+04  2.607922E+05
       148   2 -3.069444E+06 -1.341021E+06 -6.195000E+05 -1.146691E+06 -4.169267E+04  2.331835E+05
       148   3 -2.653844E+06 -1.239136E+06 -5.443281E+05 -1.085025E+06 -3.180594E+04  2.049316E+05
       148   4  8.557924E+03 -2.662154E+05  5.869055E+03 -3.474056E+05 -8.769722E+04  2.469894E+05
       148   5 -3.086129E+04 -2.266019E+05  3.002583E+03 -3.035121E+05 -7.881660E+04  2.191177E+05
       148   6  9.636438E+03 -2.641237E+05  1.831429E+03 -3.478481E+05 -6.979050E+04  1.906050E+05
       148   7  3.434279E+06  9.888097E+05  7.047880E+05  6.065934E+05 -1.241773E+05  2.331056E+05
       148   8  3.017252E+06  8.886173E+05  6.250412E+05  5.434968E+05 -1.161374E+05  2.049782E+05
       148   9  2.680424E+06  7.114930E+05  5.476325E+05  3.922591E+05 -1.079512E+05  1.762125E+05
       148  10 -3.405136E+06 -1.520292E+06 -6.937670E+05 -1.296542E+06 -7.551808E-09 -3.281859E-09
       148  11 -3.069461E+06 -1.341080E+06 -6.196054E+05 -1.146683E+06 -5.143105E-09 -1.373177E-09
       148  12 -2.653857E+06 -1.239182E+06 -5.444089E+05 -1.085020E+06 -3.870217E-09 -1.511048E-09
       148  13  8.533301E+03 -2.662830E+05  5.739976E+03 -3.473882E+05 -5.667426E-09 -3.547706E-09
       148  14 -3.088084E+04 -2.266551E+05  2.900695E+03 -3.034981E+05 -5.364120E-09 -2.610269E-09
       148  15  9.621462E+03 -2.641640E+05  1.754012E+03 -3.478374E+05  1.039248E-09 -5.282509E-10
       148  16  3.434247E+06  9.887472E+05  7.046570E+05  6.066167E+05 -3.103506E-09 -2.548278E-10
       148  17  3.017227E+06  8.885685E+05  6.249369E+05  5.435160E+05 -1.745456E-09 -3.708042E-10
       148  18  2.680404E+06  7.114565E+05  5.475523E+05  3.922744E+05  2.133457E-09  1.009353E-09
       148  19 -3.405115E+06 -1.520218E+06 -6.936342E+05 -1.296553E+06  5.143362E+04 -2.607922E+05
       148  20 -3.069444E+06 -1.341021E+06 -6.195000E+05 -1.146691E+06  4.169267E+04 -2.331835E+05
       148  21 -2.653844E+06 -1.239136E+06 -5.443281E+05 -1.085025E+06  3.180594E+04 -2.049316E+05
       148  22  8.557924E+03 -2.662154E+05  5.869055E+03 -3.474056E+05  8.769722E+04 -2.469894E+05
       148  23 -3.086129E+04 -2.266019E+05  3.002583E+03 -3.035121E+05  7.881660E+04 -2.191177E+05
       148  24  9.636438E+03 -2.641237E+05  1.831429E+03 -3.478481E+05  6.979050E+04 -1.906050E+05
       148  25  3.434279E+06  9.888097E+05  7.047880E+05  6.065934E+05  1.241773E+05 -2.331056E+05
       148  26  3.017252E+06  8.886173E+05  6.250412E+05  5.434968E+05  1.161374E+05 -2.049782E+05
       148  27  2.680424E+06  7.114930E+05  5.476325E+05  3.922591E+05  1.079512E+05 -1.762125E+05
       149   1 -2.393748E+06 -1.142628E+06 -4.892010E+05 -1.012798E+06 -2.596837E+04  1.883234E+05
       149   2 -2.055660E+06 -9.646538E+05 -4.136475E+05 -8.634735E+05 -1.557989E+04  1.600004E+05
       149   3 -1.638867E+06 -8.641400E+05 -3.376795E+05 -8.030239E+05 -5.230969E+03  1.316094E+05
       149   4  9.668213E+03 -2.638458E+05  1.314877E+03 -3.480062E+05 -6.386236E+04  1.740620E+05
       149   5 -2.925206E+04 -2.243838E+05  6.271663E+02 -3.037137E+05 -5.356368E+04  1.457469E+05
       149   6  1.038512E+04 -2.623653E+05  4.110818E+02 -3.483380E+05 -4.330452E+04  1.173642E+05
       149   7  2.419019E+06  6.154211E+05  4.915382E+05  3.191646E+05 -1.019145E+05  1.597415E+05
       149   8  2.001384E+06  5.162338E+05  4.146984E+05  2.577372E+05 -9.168122E+04  1.314434E+05
       149   9  1.662449E+06  3.396424E+05  3.383715E+05  1.074684E+05 -8.148737E+04  1.030782E+05
       149  10 -2.393758E+06 -1.142666E+06 -4.892689E+05 -1.012794E+06 -9.494484E-09 -3.574146E-09
       149  11 -2.055667E+06 -9.646814E+05 -4.136961E+05 -8.634715E+05  1.984015E-09 -3.719669E-09
       149  12 -1.638872E+06 -8.641586E+05 -3.377121E+05 -8.030233E+05  6.400197E-09 -3.058697E-09
       149  13  9.655706E+03 -2.638795E+05  1.250285E+03 -3.479972E+05  3.628242E-09  1.300044E-11
       149  14 -2.926084E+04 -2.244074E+05  5.818615E+02 -3.037074E+05  5.277263E-09 -4.495685E-09
       149  15  1.037941E+04 -2.623806E+05  3.816764E+02 -3.483339E+05 -3.946134E-09 -1.133215E-08
       149  16  2.419001E+06  6.153909E+05  4.914708E+05  3.191777E+05  1.203582E-08  4.745408E-09
       149  17  2.001371E+06  5.162130E+05  4.146502E+05  2.577469E+05  1.024249E-08  3.840943E-09
       149  18  1.662439E+06  3.396292E+05  3.383391E+05  1.074751E+05 -1.091659E-08 -4.249236E-09
       149  19 -2.393748E+06 -1.142628E+06 -4.892010E+05 -1.012798E+06  2.596837E+04 -1.883234E+05
       149  20 -2.055660E+06 -9.646538E+05 -4.136475E+05 -8.634735E+05  1.557989E+04 -1.600004E+05
       149  21 -1.638867E+06 -8.641400E+05 -3.376795E+05 -8.030239E+05  5.230969E+03 -1.316094E+05
       149  22  9.668213E+03 -2.638458E+05  1.314877E+03 -3.480062E+05  6.386236E+04 -1.740620E+05
       149  23 -2.925206E+04 -2.243838E+05  6.271663E+02 -3.037137E+05  5.356368E+04 -1.457469E+05
       149  24  1.038512E+04 -2.623653E+05  4.110818E+02 -3.483380E+05  4.330452E+04 -1.173642E+05
       149  25  2.419019E+06  6.154211E+05  4.915382E+05  3.191646E+05  1.019145E+05 -1.597415E+05
       149  26  2.001384E+06  5.162338E+05  4.146984E+05  2.577372E+05  9.168122E+04 -1.314434E+05
       149  27  1.662449E+06  3.396424E+05  3.383715E+05  1.074684E+05  8.148737E+04 -1.030782E+05
       150   1 -1.377738E+06 -7.681511E+05 -2.821568E+05 -7.311397E+05  8.862055E+02  1.151079E+05
       150   2 -1.038116E+06 -5.910581E+05 -2.061552E+05 -5.820647E+05  1.145938E+04  8.679747E+04
       150   3 -6.205294E+05 -4.914827E+05 -1.300880E+05 -5.222589E+05  2.200039E+04  5.848564E+04
       150   4  1.041717E+04 -2.621998E+05  2.473088E+02 -3.484202E+05 -3.720713E+04  1.008740E+05
       150   5 -2.830576E+04 -2.230695E+05  2.068095E+01 -3.038430E+05 -2.664022E+04  7.258185E+04
       150   6  1.077856E+04 -2.614620E+05 -1.432089E+02 -3.485833E+05 -1.610562E+04  4.428867E+04
       150   7  1.400558E+06  2.439143E+05  2.825604E+05  3.509110E+04 -7.539214E+04  8.660588E+04
       150   8  9.825515E+05  1.450036E+05  2.061497E+05 -2.520374E+04 -6.480636E+04  5.834139E+04
       150   9  6.424933E+05 -3.140921E+04  1.297857E+05 -1.747455E+05 -5.425301E+04  3.007626E+04
       150  10 -1.377742E+06 -7.681654E+05 -2.821818E+05 -7.311398E+05 -3.882360E-09 -2.170493E-09
       150  11 -1.038118E+06 -5.910662E+05 -2.061696E+05 -5.820655E+05  2.434110E-08  1.127306E-08
       150  12 -6.205308E+05 -4.914865E+05 -1.300954E+05 -5.222599E+05  3.904749E-08  1.333723E-08
       150  13  1.041295E+04 -2.622111E+05  2.255879E+02 -3.484172E+05 -3.005621E-09 -1.027643E-08
       150  14 -2.830793E+04 -2.230754E+05  9.448691E+00 -3.038414E+05  7.177512E-09  2.306684E-09
       150  15  1.077776E+04 -2.614642E+05 -1.473819E+02 -3.485828E+05  1.241266E-08  1.138187E-08
       150  16  1.400550E+06  2.439047E+05  2.825356E+05  3.509636E+04 -4.183278E-09 -3.154150E-09
       150  17  9.825461E+05  1.449988E+05  2.061354E+05 -2.520069E+04 -9.281796E-09 -7.143614E-09
       150  18  6.424899E+05 -3.141097E+04  1.297785E+05 -1.747442E+05 -2.125106E-08 -7.758735E-09
       150  19 -1.377738E+06 -7.681511E+05 -2.821568E+05 -7.311397E+05 -8.862055E+02 -1.151079E+05
       150  20 -1.038116E+06 -5.910581E+05 -2.061552E+05 -5.820647E+05 -1.145938E+04 -8.679747E+04
       150  21 -6.205294E+05 -4.914827E+05 -1.300880E+05 -5.222589E+05 -2.200039E+04 -5.848564E+04
       150  22  1.041717E+04 -2.621998E+05  2.473088E+02 -3.484202E+05  3.720713E+04 -1.008740E+05
       150  23 -2.830576E+04 -2.230695E+05  2.068095E+01 -3.038430E+05  2.664022E+04 -7.258185E+04
       150  24  1.077856E+04 -2.614620E+05 -1.432089E+02 -3.485833E+05  1.610562E+04 -4.428867E+04
       150  25  1.400558E+06  2.439143E+05  2.825604E+05  3.509110E+04  7.539214E+04 -8.660588E+04
       150  26  9.825515E+05  1.450036E+05  2.061497E+05 -2.520374E+04  6.480636E+04 -5.834139E+04
       150  27  6.424933E+05 -3.140921E+04  1.297857E+05 -1.747455E+05  5.425301E+04 -3.007626E+04
       151   1 -3.587574E+05 -3.957736E+05 -7.452567E+04 -4.504594E+05  2.824360E+04  4.203068E+04
       151   2 -1.847345E+04 -2.191863E+05  1.428252E+03 -3.013308E+05  3.872841E+04  1.382954E+04
       151   3  3.995358E+05 -1.200941E+05  7.740406E+04 -2.415873E+05  4.911153E+04 -1.409933E+04
       151   4  1.077263E+04 -2.614060E+05 -2.853369E+02 -3.486148E+05 -9.932937E+03  2.781362E+04
       151   5 -2.797755E+04 -2.226257E+05 -6.631464E+02 -3.038873E+05  9.067189E+02 -2.558625E+02
       151   6  1.076877E+04 -2.614290E+05 -1.305545E+03 -3.486066E+05  1.164458E+04 -2.805265E+04
       151   7  3.804495E+05 -1.270244E+05  7.395540E+04 -2.467125E+05 -4.813417E+04  1.358734E+04
       151   8 -3.747843E+04 -2.260640E+05 -2.748436E+03 -3.064430E+05 -3.691450E+04 -1.434110E+04
       151   9 -3.778400E+05 -4.027502E+05 -8.001671E+04 -4.555633E+05 -2.579721E+04 -4.199659E+04
       151  10 -3.587587E+05 -3.957757E+05 -7.453050E+04 -4.504603E+05 -3.071742E-08 -1.733828E-08
       151  11 -1.847511E+04 -2.191869E+05  1.425072E+03 -3.013312E+05 -2.440856E-08 -1.277776E-08
       151  12  3.995332E+05 -1.200949E+05  7.739916E+04 -2.415868E+05  8.894816E-09  1.345372E-09
       151  13  1.077231E+04 -2.614068E+05 -2.869759E+02 -3.486146E+05 -3.398674E-09  8.024251E-09
       151  14 -2.797755E+04 -2.226257E+05 -6.631481E+02 -3.038873E+05 -1.509296E-08  1.744077E-09
       151  15  1.076841E+04 -2.614299E+05 -1.307279E+03 -3.486064E+05 -1.655676E-08 -4.333499E-09
       151  16  3.804470E+05 -1.270253E+05  7.395070E+04 -2.467120E+05  3.054635E-08  1.623492E-08
       151  17 -3.747995E+04 -2.260645E+05 -2.751385E+03 -3.064434E+05 -5.279195E-09  3.486889E-10
       151  18 -3.778412E+05 -4.027523E+05 -8.002128E+04 -4.555642E+05 -2.132760E-08 -7.331546E-09
       151  19 -3.587574E+05 -3.957736E+05 -7.452567E+04 -4.504594E+05 -2.824360E+04 -4.203068E+04
       151  20 -1.847345E+04 -2.191863E+05  1.428252E+03 -3.013308E+05 -3.872841E+04 -1.382954E+04
       151  21  3.995358E+05 -1.200941E+05  7.740406E+04 -2.415873E+05 -4.911153E+04  1.409933E+04
       151  22  1.077263E+04 -2.614060E+05 -2.853369E+02 -3.486148E+05  9.932937E+03 -2.781362E+04
       151  23 -2.797755E+04 -2.226257E+05 -6.631464E+02 -3.038873E+05 -9.067189E+02  2.558625E+02
       151  24  1.076877E+04 -2.614290E+05 -1.305545E+03 -3.486066E+05 -1.164458E+04  2.805265E+04
       151  25  3.804495E+05 -1.270244E+05  7.395540E+04 -2.467125E+05  4.813417E+04 -1.358734E+04
       151  26 -3.747843E+04 -2.260640E+05 -2.748436E+03 -3.064430E+05  3.691450E+04  1.434110E+04
       151  27 -3.778400E+05 -4.027502E+05 -8.001671E+04 -4.555633E+05  2.579721E+04  4.199659E+04
       152   1  6.617008E+05 -2.443841E+04  1.326310E+05 -1.696878E+05  5.643591E+04 -3.020064E+04
       152   2  1.001429E+06  1.521692E+05  2.091149E+05 -2.017768E+04  6.207432E+04 -5.802416E+04
       152   3  1.419522E+06  2.517696E+05  2.887937E+05  4.044168E+04  6.611605E+04 -8.150505E+04
       152   4  1.063610E+04 -2.614028E+05 -1.757289E+03 -3.485838E+05  1.804658E+04 -4.450378E+04
       152   5 -2.814837E+04 -2.231754E+05 -3.334136E+03 -3.038382E+05  2.953092E+04 -7.016884E+04
       152   6  1.013714E+04 -2.631327E+05 -6.338125E+03 -3.480510E+05  3.941972E+04 -9.148608E+04
       152   7 -6.399866E+05 -4.983296E+05 -1.361601E+05 -5.273051E+05 -2.029922E+04 -5.879072E+04
       152   8 -1.056639E+06 -5.984320E+05 -2.158343E+05 -5.870651E+05 -2.954523E+03 -8.229189E+04
       152   9 -1.397232E+06 -7.778768E+05 -3.015779E+05 -7.357357E+05  1.278832E+04 -1.014429E+05
       152  10  6.616972E+05 -2.444025E+04  1.326233E+05 -1.696864E+05 -5.167113E-09 -1.559581E-09
       152  11  1.001424E+06  1.521646E+05  2.091014E+05 -2.017479E+04 -5.106608E-09  5.403926E-10
       152  12  1.419516E+06  2.517613E+05  2.887730E+05  4.044602E+04 -2.018841E-10 -3.742237E-09
       152  13  1.063522E+04 -2.614050E+05 -1.761622E+03 -3.485832E+05 -7.974768E-09 -2.914709E-09
       152  14 -2.815063E+04 -2.231810E+05 -3.345025E+03 -3.038365E+05 -7.684733E-09 -5.801640E-10
       152  15  1.013323E+04 -2.631421E+05 -6.356770E+03 -3.480481E+05  5.621691E-10  2.130921E-10
       152  16 -6.399880E+05 -4.983334E+05 -1.361674E+05 -5.273060E+05 -1.701675E-09 -8.732193E-10
       152  17 -1.056641E+06 -5.984393E+05 -2.158470E+05 -5.870653E+05  1.366420E-09 -2.044860E-09
       152  18 -1.397235E+06 -7.778879E+05 -3.015976E+05 -7.357346E+05 -7.792595E-10  4.096708E-09
       152  19  6.617008E+05 -2.443841E+04  1.326310E+05 -1.696878E+05 -5.643591E+04  3.020064E+04
       152  20  1.001429E+06  1.521692E+05  2.091149E+05 -2.017768E+04 -6.207432E+04  5.802416E+04
       152  21  1.419522E+06  2.517696E+05  2.887937E+05  4.044168E+04 -6.611605E+04  8.150505E+04
       152  22  1.063610E+04 -2.614028E+05 -1.757289E+03 -3.485838E+05 -1.804658E+04  4.450378E+04
       152  23 -2.814837E+04 -2.231754E+05 -3.334136E+03 -3.038382E+05 -2.953092E+04  7.016884E+04
       152  24  1.013714E+04 -2.631327E+05 -6.338125E+03 -3.480510E+05 -3.941972E+04  9.148608E+04
       152  25 -6.399866E+05 -4.983296E+05 -1.361601E+05 -5.273051E+05  2.029922E+04  5.879072E+04
       152  26 -1.056639E+06 -5.984320E+05 -2.158343E+05 -5.870651E+05  2.954523E+03  8.229189E+04
       152  27 -1.397232E+06 -7.778768E+05 -3.015779E+05 -7.357357E+05 -1.278832E+04  1.014429E+05
       153   1  1.684707E+06  3.479437E+05  3.423914E+05  1.109776E+05  8.814527E+04 -9.307775E+04
       153   2  2.014246E+06  5.288649E+05  4.411643E+05  2.650210E+05  2.068183E+03 -1.208625E+05
       153   3  2.429388E+06  6.347095E+05  6.022210E+05  3.385270E+05 -1.098429E+05 -7.997038E+04
       153   4  8.449918E+03 -2.615708E+05 -8.239088E+03 -3.481268E+05  4.685216E+04 -1.085235E+05
       153   5 -2.726858E+04 -2.283715E+05 -1.556957E+04 -3.028724E+05  5.370625E+04 -1.015877E+05
       153   6  4.122735E+03 -2.886644E+05 -3.409511E+04 -3.382275E+05  3.474330E+04 -2.583655E+04
       153   7 -1.664948E+06 -8.708651E+05 -3.590170E+05 -8.060965E+05  5.678653E+03 -1.239251E+05
       153   8 -2.064561E+06 -9.852607E+05 -4.725487E+05 -8.690446E+05  1.051604E+05 -8.238312E+04
       153   9 -2.415341E+06 -1.211583E+06 -6.708028E+05 -1.012552E+06  1.787077E+05  2.805524E+04
       153  10  1.684697E+06  3.479323E+05  3.423605E+05  1.109842E+05 -1.795907E-08 -1.198461E-08
       153  11  2.014242E+06  5.288492E+05  4.411369E+05  2.650212E+05 -4.643906E-09 -5.433238E-09
       153  12  2.429373E+06  6.346995E+05  6.021864E+05  3.385199E+05  1.510471E-08  4.637563E-09
       153  13  8.444402E+03 -2.615840E+05 -8.265341E+03 -3.481227E+05 -4.258564E-09  2.147365E-10
       153  14 -2.727444E+04 -2.283834E+05 -1.559437E+04 -3.028680E+05 -7.175609E-09 -3.436564E-09
       153  15  4.121260E+03 -2.886655E+05 -3.409863E+04 -3.382268E+05 -1.900874E-09 -1.703408E-09
       153  16 -1.664953E+06 -8.708816E+05 -3.590459E+05 -8.060959E+05  1.362092E-08  9.737766E-09
       153  17 -2.064575E+06 -9.852709E+05 -4.725822E+05 -8.690376E+05 -2.441185E-09 -2.430182E-09
       153  18 -2.415375E+06 -1.211593E+06 -6.708646E+05 -1.012556E+06 -1.656565E-08 -8.496602E-09
       153  19  1.684707E+06  3.479437E+05  3.423914E+05  1.109776E+05 -8.814527E+04  9.307775E+04
       153  20  2.014246E+06  5.288649E+05  4.411643E+05  2.650210E+05 -2.068183E+03  1.208625E+05
       153  21  2.429388E+06  6.347095E+05  6.022210E+05  3.385270E+05  1.098429E+05  7.997038E+04
       153  22  8.449918E+03 -2.615708E+05 -8.239088E+03 -3.481268E+05 -4.685216E+04  1.085235E+05
       153  23 -2.726858E+04 -2.283715E+05 -1.556957E+04 -3.028724E+05 -5.370625E+04  1.015877E+05
       153  24  4.122735E+03 -2.886644E+05 -3.409511E+04 -3.382275E+05 -3.474330E+04  2.583655E+04
       153  25 -1.664948E+06 -8.708651E+05 -3.590170E+05 -8.060965E+05 -5.678653E+03  1.239251E+05
       153  26 -2.064561E+06 -9.852607E+05 -4.725487E+05 -8.690446E+05 -1.051604E+05  8.238312E+04
       153  27 -2.415341E+06 -1.211583E+06 -6.708028E+05 -1.012552E+06 -1.787077E+05 -2.805524E+04
       154   1 -1.966225E+05 -1.060553E+05 -9.415844E+04 -7.631053E+04 -2.069242E+04  7.344726E+03
       154   2 -1.183340E+05 -1.104499E+05 -7.188344E+04 -8.546140E+04 -3.296167E+03  2.442332E+04
       154   3 -3.880156E+04 -1.009397E+05 -5.745815E+04 -1.063769E+05  1.410819E+04  2.882296E+04
       154   4  4.234903E+05  4.666214E+04  4.947836E+04 -1.080086E+05  3.494679E+04  7.355621E+03
       154   5  4.202783E+05  1.661931E+04  2.496563E+04 -1.021248E+05  2.222302E+04  2.442465E+04
       154   6  4.235269E+05  5.701458E+03  1.351454E+04 -1.080038E+05  9.504918E+03  2.882064E+04
       154   7  1.043967E+06  1.993580E+05  1.931016E+05 -1.397386E+05  9.064116E+04  7.360832E+03
       154   8  9.591751E+05  1.436737E+05  1.218061E+05 -1.188031E+05  4.776373E+04  2.442461E+04
       154   9  8.860691E+05  1.123323E+05  8.448260E+04 -1.096319E+05  4.898352E+03  2.881835E+04
       154  10 -1.966230E+05 -1.060555E+05 -9.415935E+04 -7.631041E+04  2.846437E-09 -7.013455E-10
       154  11 -1.183341E+05 -1.104505E+05 -7.188458E+04 -8.546134E+04 -6.545769E-09 -1.666929E-09
       154  12 -3.880199E+04 -1.009407E+05 -5.746009E+04 -1.063772E+05 -1.112178E-09 -4.541097E-10
       154  13  4.234890E+05  4.666175E+04  4.947596E+04 -1.080089E+05  1.447810E-10 -2.375431E-10
       154  14  4.202776E+05  1.661853E+04  2.496358E+04 -1.021253E+05  1.097554E-10 -1.344289E-09
       154  15  4.235266E+05  5.700542E+03  1.351280E+04 -1.080040E+05 -3.117598E-09 -1.341761E-09
       154  16  1.043958E+06  1.993558E+05  1.930861E+05 -1.397392E+05 -4.777638E-09  2.282294E-11
       154  17  9.591725E+05  1.436725E+05  1.218007E+05 -1.188040E+05  1.703556E-10 -8.851873E-10
       154  18  8.860689E+05  1.123314E+05  8.448099E+04 -1.096320E+05  3.355130E-09 -1.748599E-09
       154  19 -1.966225E+05 -1.060553E+05 -9.415844E+04 -7.631053E+04  2.069242E+04 -7.344726E+03
       154  20 -1.183340E+05 -1.104499E+05 -7.188344E+04 -8.546140E+04  3.296167E+03 -2.442332E+04
       154  21 -3.880156E+04 -1.009397E+05 -5.745815E+04 -1.063769E+05 -1.410819E+04 -2.882296E+04
       154  22  4.234903E+05  4.666214E+04  4.947836E+04 -1.080086E+05 -3.494679E+04 -7.355621E+03
       154  23  4.202783E+05  1.661931E+04  2.496563E+04 -1.021248E+05 -2.222302E+04 -2.442465E+04
       154  24  4.235269E+05  5.701458E+03  1.351454E+04 -1.080038E+05 -9.504918E+03 -2.882064E+04
       154  25  1.043967E+06  1.993580E+05  1.931016E+05 -1.397386E+05 -9.064116E+04 -7.360832E+03
       154  26  9.591751E+05  1.436737E+05  1.218061E+05 -1.188031E+05 -4.776373E+04 -2.442461E+04
       154  27  8.860691E+05  1.123323E+05  8.448260E+04 -1.096319E+05 -4.898352E+03 -2.881835E+04
       155   1  9.493935E+03 -9.062863E+04 -5.114659E+04 -1.057830E+05  1.328001E+04  2.711540E+04
       155   2  8.820872E+04 -7.466361E+04 -4.092320E+04 -1.006890E+05  1.458847E+04  2.393634E+04
       155   3  1.670710E+05 -5.750297E+04 -3.124918E+04 -1.082919E+05  1.589664E+04  1.906014E+04
       155   4  4.222856E+05  4.156082E+03  1.008228E+04 -1.082122E+05  7.746572E+03  2.711351E+04
       155   5  4.218748E+05  1.323910E+03  5.441864E+03 -1.018641E+05  5.020705E+03  2.393525E+04
       155   6  4.223047E+05  3.872236E+02  3.051987E+03 -1.082123E+05  2.294397E+03  1.906035E+04
       155   7  8.352487E+05  9.893284E+04  7.130811E+04 -1.106432E+05  2.209604E+03  2.711166E+04
       155   8  7.556539E+05  7.730656E+04  5.180593E+04 -1.030399E+05 -4.551976E+03  2.393420E+04
       155   9  6.776052E+05  5.827472E+04  3.735327E+04 -1.081327E+05 -1.131318E+04  1.906055E+04
       155  10  9.493548E+03 -9.062947E+04 -5.114831E+04 -1.057833E+05  8.587984E-10 -3.498059E-10
       155  11  8.820833E+04 -7.466428E+04 -4.092468E+04 -1.006892E+05  6.685331E-10 -1.766695E-09
       155  12  1.670706E+05 -5.750343E+04 -3.125034E+04 -1.082922E+05 -3.769371E-10 -1.298622E-09
       155  13  4.222854E+05  4.155277E+03  1.008078E+04 -1.082124E+05  4.477739E-09 -1.274021E-09
       155  14  4.218746E+05  1.323288E+03  5.440740E+03 -1.018642E+05 -1.945747E-09 -2.378496E-09
       155  15  4.223046E+05  3.868320E+02  3.051295E+03 -1.082124E+05 -6.572505E-10 -2.150865E-09
       155  16  8.352485E+05  9.893205E+04  7.130672E+04 -1.106432E+05  1.247055E-09 -2.471919E-09
       155  17  7.556538E+05  7.730594E+04  5.180481E+04 -1.030398E+05 -5.948686E-10 -3.061951E-09
       155  18  6.776049E+05  5.827429E+04  3.735235E+04 -1.081325E+05 -1.349942E-09 -2.954822E-09
       155  19  9.493935E+03 -9.062863E+04 -5.114659E+04 -1.057830E+05 -1.328001E+04 -2.711540E+04
       155  20  8.820872E+04 -7.466361E+04 -4.092320E+04 -1.006890E+05 -1.458847E+04 -2.393634E+04
       155  21  1.670710E+05 -5.750297E+04 -3.124918E+04 -1.082919E+05 -1.589664E+04 -1.906014E+04
       155  22  4.222856E+05  4.156082E+03  1.008228E+04 -1.082122E+05 -7.746572E+03 -2.711351E+04
       155  23  4.218748E+05  1.323910E+03  5.441864E+03 -1.018641E+05 -5.020705E+03 -2.393525E+04
       155  24  4.223047E+05  3.872236E+02  3.051987E+03 -1.082123E+05 -2.294397E+03 -1.906035E+04
       155  25  8.352487E+05  9.893284E+04  7.130811E+04 -1.106432E+05 -2.209604E+03 -2.711166E+04
       155  26  7.556539E+05  7.730656E+04  5.180593E+04 -1.030399E+05  4.551976E+03 -2.393420E+04
       155  27  6.776052E+05  5.827472E+04  3.735327E+04 -1.081327E+05  1.131318E+04 -1.906055E+04
       156   1  2.156625E+05 -4.648741E+04 -2.509001E+04 -1.081892E+05  1.557094E+04  1.565138E+04
       156   2  2.944040E+05 -2.883931E+04 -1.551459E+04 -1.018392E+05  1.546935E+04  9.762612E+03
       156   3  3.731896E+05 -1.110823E+04 -5.850987E+03 -1.083079E+05  1.536738E+04  3.647591E+03
       156   4  4.221514E+05  2.735882E+02  2.300083E+03 -1.082395E+05  1.844560E+03  1.565211E+04
       156   5  4.220889E+05  4.803208E+01  1.289090E+03 -1.018303E+05  1.204275E+03  9.763881E+03
       156   6  4.221585E+05 -6.882556E-01  7.399046E+02 -1.082396E+05  5.636318E+02  3.649420E+03
       156   7  6.286842E+05  4.703288E+04  2.969055E+04 -1.082898E+05 -1.188617E+04  1.565283E+04
       156   8  5.497908E+05  2.893479E+04  1.809342E+04 -1.018213E+05 -1.306359E+04  9.765149E+03
       156   9  4.711303E+05  1.110687E+04  7.331598E+03 -1.081712E+05 -1.424123E+04  3.651245E+03
       156  10  2.156622E+05 -4.648774E+04 -2.509092E+04 -1.081894E+05 -2.120159E-10 -1.125077E-09
       156  11  2.944038E+05 -2.883947E+04 -1.551522E+04 -1.018393E+05  3.980519E-08 -3.042585E-09
       156  12  3.731894E+05 -1.110831E+04 -5.851456E+03 -1.083080E+05  7.290486E-08 -6.247370E-09
       156  13  4.221514E+05  2.733241E+02  2.299616E+03 -1.082396E+05  2.001891E-09  3.255619E-10
       156  14  4.220889E+05  4.792930E+01  1.288908E+03 -1.018303E+05 -2.163749E-09  6.806634E-09
       156  15  4.221585E+05 -7.026457E-01  7.398790E+02 -1.082396E+05  2.402755E-09  1.227886E-08
       156  16  6.286840E+05  4.703258E+04  2.968983E+04 -1.082897E+05 -4.367304E-09 -2.680995E-09
       156  17  5.497906E+05  2.893465E+04  1.809293E+04 -1.018212E+05 -4.465114E-08 -2.997678E-09
       156  18  4.711301E+05  1.110680E+04  7.331192E+03 -1.081712E+05 -7.442821E-08 -4.328515E-09
       156  19  2.156625E+05 -4.648741E+04 -2.509001E+04 -1.081892E+05 -1.557094E+04 -1.565138E+04
       156  20  2.944040E+05 -2.883931E+04 -1.551459E+04 -1.018392E+05 -1.546935E+04 -9.762612E+03
       156  21  3.731896E+05 -1.110823E+04 -5.850987E+03 -1.083079E+05 -1.536738E+04 -3.647591E+03
       156  22  4.221514E+05  2.735882E+02  2.300083E+03 -1.082395E+05 -1.844560E+03 -1.565211E+04
       156  23  4.220889E+05  4.803208E+01  1.289090E+03 -1.018303E+05 -1.204275E+03 -9.763881E+03
       156  24  4.221585E+05 -6.882555E-01  7.399046E+02 -1.082396E+05 -5.636318E+02 -3.649420E+03
       156  25  6.286842E+05  4.703288E+04  2.969055E+04 -1.082898E+05  1.188617E+04 -1.565283E+04
       156  26  5.497908E+05  2.893479E+04  1.809342E+04 -1.018213E+05  1.306359E+04 -9.765149E+03
       156  27  4.711303E+05  1.110687E+04  7.331598E+03 -1.081712E+05  1.424123E+04 -3.651245E+03
       157   1  4.218112E+05 -7.914653E+01  5.054043E+02 -1.082893E+05  1.526827E+04  1.260605E+01
       157   2  5.005688E+05  1.765745E+04  1.029183E+04 -1.018605E+05  1.516360E+04 -6.233624E+03
       157   3  5.793523E+05  3.539713E+04  2.014863E+04 -1.082665E+05  1.505917E+04 -1.250413E+04
       157   4  4.221359E+05 -2.524509E+00  5.636566E+02 -1.082432E+05  4.478328E+02  1.449373E+01
       157   5  4.221196E+05 -1.634063E+01  3.296836E+02 -1.018258E+05  2.843946E+02 -6.232042E+03
       157   6  4.221317E+05 -1.710899E+01  2.058715E+02 -1.082432E+05  1.212153E+02 -1.250287E+04
       157   7  4.224611E+05  7.421535E+01  6.227338E+02 -1.081971E+05 -1.437261E+04  1.637921E+01
       157   8  3.436772E+05 -1.769026E+04 -9.631657E+03 -1.017911E+05 -1.459302E+04 -6.230462E+03
       157   9  2.649369E+05 -3.543223E+04 -1.973614E+04 -1.082199E+05 -1.481314E+04 -1.250161E+04
       157  10  4.218110E+05 -7.920906E+01  5.049665E+02 -1.082893E+05 -6.743981E-08 -6.650806E-09
       157  11  5.005686E+05  1.765735E+04  1.029133E+04 -1.018604E+05 -3.561229E-08 -3.807837E-09
       157  12  5.793521E+05  3.539690E+04  2.014792E+04 -1.082664E+05 -6.464275E-09 -5.648684E-10
       157  13  4.221359E+05 -2.524564E+00  5.636562E+02 -1.082432E+05 -2.179234E-09  1.177705E-08
       157  14  4.221196E+05 -1.638236E+01  3.296105E+02 -1.018258E+05  9.883708E-10  6.409334E-09
       157  15  4.221317E+05 -1.727689E+01  2.055777E+02 -1.082432E+05  4.494975E-09  2.113955E-09
       157  16  4.224608E+05  7.415994E+01  6.223459E+02 -1.081971E+05  6.851341E-08 -4.812904E-09
       157  17  3.436770E+05 -1.769036E+04 -9.632130E+03 -1.017911E+05  4.078630E-08 -3.096989E-09
       157  18  2.649366E+05 -3.543246E+04 -1.973685E+04 -1.082201E+05  4.439926E-09  3.936543E-10
       157  19  4.218112E+05 -7.914653E+01  5.054043E+02 -1.082893E+05 -1.526827E+04 -1.260605E+01
       157  20  5.005688E+05  1.765745E+04  1.029183E+04 -1.018605E+05 -1.516360E+04  6.233624E+03
       157  21  5.793523E+05  3.539713E+04  2.014863E+04 -1.082665E+05 -1.505917E+04  1.250413E+04
       157  22  4.221359E+05 -2.524509E+00  5.636566E+02 -1.082432E+05 -4.478328E+02 -1.449373E+01
       157  23  4.221196E+05 -1.634063E+01  3.296836E+02 -1.018258E+05 -2.843946E+02  6.232042E+03
       157  24  4.221317E+05 -1.710899E+01  2.058715E+02 -1.082432E+05 -1.212153E+02  1.250287E+04
       157  25  4.224611E+05  7.421535E+01  6.227338E+02 -1.081971E+05  1.437261E+04 -1.637921E+01
       157  26  3.436772E+05 -1.769026E+04 -9.631657E+03 -1.017911E+05  1.459302E+04  6.230462E+03
       157  27  2.649369E+05 -3.543223E+04 -1.973614E+04 -1.082199E+05  1.481314E+04  1.250161E+04
       158   1  6.279938E+05  4.641453E+04  2.660531E+04 -1.082607E+05  1.502532E+04 -1.616315E+04
       158   2  7.067739E+05  6.414689E+04  3.656688E+04 -1.018244E+05  1.485904E+04 -2.242358E+04
       158   3  7.855967E+05  8.189778E+04  4.664416E+04 -1.082250E+05  1.469367E+04 -2.864129E+04
       158   4  4.221263E+05 -2.073691E+01  1.697761E+02 -1.082437E+05  8.708585E+01 -1.616232E+04
       158   5  4.221092E+05 -3.513551E+01  1.326123E+02 -1.018252E+05  2.149454E+01 -2.242391E+04
       158   6  4.221108E+05 -4.836394E+01  1.406937E+02 -1.082437E+05 -4.317573E+01 -2.864278E+04
       158   7  2.163026E+05 -4.645763E+04 -2.626511E+04 -1.082267E+05 -1.484643E+04 -1.616150E+04
       158   8  1.375280E+05 -6.422037E+04 -3.630118E+04 -1.018259E+05 -1.480959E+04 -2.242424E+04
       158   9  5.876080E+04 -8.199982E+04 -4.636252E+04 -1.082624E+05 -1.477182E+04 -2.864428E+04
       158  10  6.279935E+05  4.641419E+04  2.660439E+04 -1.082605E+05  3.004950E-08 -9.584406E-10
       158  11  7.067735E+05  6.414629E+04  3.656553E+04 -1.018242E+05 -8.902072E-09 -4.431713E-09
       158  12  7.855962E+05  8.189684E+04  4.664221E+04 -1.082246E+05 -4.726540E-08 -5.941056E-09
       158  13  4.221262E+05 -2.101747E+01  1.692851E+02 -1.082437E+05  6.755424E-09  2.190699E-09
       158  14  4.221091E+05 -3.567557E+01  1.316672E+02 -1.018252E+05  4.601625E-09  7.023090E-09
       158  15  4.221106E+05 -4.924509E+01  1.391517E+02 -1.082437E+05 -5.325131E-09  1.327027E-08
       158  16  2.163023E+05 -4.645797E+04 -2.626602E+04 -1.082269E+05 -2.589190E-08  9.110579E-10
       158  17  1.375276E+05 -6.422097E+04 -3.630254E+04 -1.018261E+05  1.051385E-08 -1.364874E-09
       158  18  5.876034E+04 -8.200076E+04 -4.636448E+04 -1.082628E+05  4.383303E-08 -2.609109E-09
       158  19  6.279938E+05  4.641453E+04  2.660531E+04 -1.082607E+05 -1.502532E+04  1.616315E+04
       158  20  7.067739E+05  6.414689E+04  3.656688E+04 -1.018244E+05 -1.485904E+04  2.242358E+04
       158  21  7.855967E+05  8.189778E+04  4.664416E+04 -1.082250E+05 -1.469367E+04  2.864129E+04
       158  22  4.221263E+05 -2.073691E+01  1.697761E+02 -1.082437E+05 -8.708585E+01  1.616232E+04
       158  23  4.221092E+05 -3.513551E+01  1.326123E+02 -1.018252E+05 -2.149454E+01  2.242391E+04
       158  24  4.221108E+05 -4.836394E+01  1.406937E+02 -1.082437E+05  4.317573E+01  2.864278E+04
       158  25  2.163026E+05 -4.645763E+04 -2.626511E+04 -1.082267E+05  1.484643E+04  1.616150E+04
       158  26  1.375280E+05 -6.422037E+04 -3.630118E+04 -1.018259E+05  1.480959E+04  2.242424E+04
       158  27  5.876080E+04 -8.199982E+04 -4.636252E+04 -1.082624E+05  1.477182E+04  2.864428E+04
       159   1  8.342917E+05  9.293081E+04  5.323203E+04 -1.082052E+05  1.464415E+04 -3.225752E+04
       159   2  9.130489E+05  1.107323E+05  6.369105E+04 -1.017704E+05  1.368613E+04 -3.826618E+04
       159   3  9.920023E+05  1.287072E+05  7.482284E+04 -1.081541E+05  1.272943E+04 -4.392110E+04
       159   4  4.221097E+05 -5.878527E+01  1.606712E+02 -1.082397E+05 -6.955534E+01 -3.225993E+04
       159   5  4.220738E+05 -7.587407E+01  2.378920E+02 -1.018301E+05 -1.866683E+02 -3.827047E+04
       159   6  4.220831E+05 -6.502181E+01  4.044007E+02 -1.082397E+05 -3.023574E+02 -4.392712E+04
       159   7  1.010201E+04 -9.305529E+04 -5.291071E+04 -1.082742E+05 -1.477398E+04 -3.226234E+04
       159   8 -6.865433E+04 -1.108940E+05 -6.321581E+04 -1.018898E+05 -1.404903E+04 -3.827476E+04
       159   9 -1.475040E+05 -1.288507E+05 -7.401542E+04 -1.083252E+05 -1.332276E+04 -4.393314E+04
       159  10  8.342912E+05  9.292963E+04  5.322967E+04 -1.082048E+05  4.517609E-08 -5.176556E-09
       159  11  9.130483E+05  1.107307E+05  6.368795E+04 -1.017700E+05  2.708454E-09 -3.653928E-09
       159  12  9.920017E+05  1.287051E+05  7.481891E+04 -1.081537E+05 -3.035314E-08 -1.903822E-09
       159  13  4.221094E+05 -5.990302E+01  1.587152E+02 -1.082397E+05 -4.327468E-09  1.303717E-08
       159  14  4.220734E+05 -7.744715E+01  2.351390E+02 -1.018302E+05  1.969095E-09  5.748637E-09
       159  15  4.220826E+05 -6.709429E+01  4.007737E+02 -1.082397E+05 -5.984495E-10  1.769897E-11
       159  16  1.010150E+04 -9.305647E+04 -5.291307E+04 -1.082746E+05 -4.511218E-08 -3.806009E-09
       159  17 -6.865493E+04 -1.108956E+05 -6.321894E+04 -1.018903E+05 -7.427894E-09 -4.753185E-09
       159  18 -1.475047E+05 -1.288529E+05 -7.401938E+04 -1.083257E+05  2.679271E-08 -2.114242E-09
       159  19  8.342917E+05  9.293081E+04  5.323203E+04 -1.082052E+05 -1.464415E+04  3.225752E+04
       159  20  9.130489E+05  1.107323E+05  6.369105E+04 -1.017704E+05 -1.368613E+04  3.826618E+04
       159  21  9.920023E+05  1.287072E+05  7.482284E+04 -1.081541E+05 -1.272943E+04  4.392110E+04
       159  22  4.221097E+05 -5.878527E+01  1.606712E+02 -1.082397E+05  6.955534E+01  3.225993E+04
       159  23  4.220738E+05 -7.587407E+01  2.378920E+02 -1.018301E+05  1.866683E+02  3.827047E+04
       159  24  4.220831E+05 -6.502181E+01  4.044007E+02 -1.082397E+05  3.023574E+02  4.392712E+04
       159  25  1.010201E+04 -9.305529E+04 -5.291071E+04 -1.082742E+05  1.477398E+04  3.226234E+04
       159  26 -6.865433E+04 -1.108940E+05 -6.321581E+04 -1.018898E+05  1.404903E+04  3.827476E+04
       159  27 -1.475040E+05 -1.288507E+05 -7.401542E+04 -1.083252E+05  1.332276E+04  4.393314E+04
       160   1  1.040926E+06  1.399125E+05  8.211451E+04 -1.080609E+05  1.246049E+04 -4.718297E+04
       160   2  1.119228E+06  1.583595E+05  9.579842E+04 -1.018991E+05  5.679855E+03 -5.125367E+04
       160   3  1.198815E+06  1.782273E+05  1.142580E+05 -1.083628E+05 -1.101594E+03 -5.267016E+04
       160   4  4.221032E+05 -6.154008E+01  5.313978E+02 -1.081969E+05 -3.797356E+02 -4.719022E+04
       160   5  4.219924E+05  6.671929E+01  9.332452E+02 -1.018837E+05 -8.439632E+02 -5.126139E+04
       160   6  4.220659E+05  5.209607E+02  1.729609E+03 -1.081970E+05 -1.308084E+03 -5.267676E+04
       160   7 -1.963287E+05 -1.400517E+05 -8.105382E+04 -1.083327E+05 -1.320778E+04 -4.719748E+04
       160   8 -2.747488E+05 -1.582471E+05 -9.393669E+04 -1.018684E+05 -7.360798E+03 -5.126912E+04
       160   9 -3.540757E+05 -1.772131E+05 -1.108086E+05 -1.080314E+05 -1.514326E+03 -5.268337E+04
       160  10  1.040925E+06  1.399101E+05  8.211004E+04 -1.080604E+05 -4.183722E-09 -1.502288E-09
       160  11  1.119227E+06  1.583567E+05  9.579342E+04 -1.018988E+05 -3.756140E-09 -1.771952E-09
       160  12  1.198814E+06  1.782243E+05  1.142528E+05 -1.083629E+05  1.936056E-09 -2.674743E-09
       160  13  4.221026E+05 -6.393192E+01  5.272118E+02 -1.081969E+05  3.837452E-11 -1.441966E-09
       160  14  4.219917E+05  6.389681E+01  9.283049E+02 -1.018837E+05  5.325467E-09 -2.123440E-09
       160  15  4.220651E+05  5.179800E+02  1.724390E+03 -1.081971E+05  3.778819E-10 -2.782053E-09
       160  16 -1.963294E+05 -1.400541E+05 -8.105834E+04 -1.083332E+05  3.260103E-09 -1.199093E-09
       160  17 -2.747495E+05 -1.582500E+05 -9.394173E+04 -1.018687E+05  5.217138E-09 -1.507196E-09
       160  18 -3.540764E+05 -1.772160E+05 -1.108138E+05 -1.080315E+05 -1.693163E-09 -2.815539E-09
       160  19  1.040926E+06  1.399125E+05  8.211451E+04 -1.080609E+05 -1.246049E+04  4.718297E+04
       160  20  1.119228E+06  1.583595E+05  9.579842E+04 -1.018991E+05 -5.679855E+03  5.125367E+04
       160  21  1.198815E+06  1.782273E+05  1.142580E+05 -1.083628E+05  1.101594E+03  5.267016E+04
       160  22  4.221032E+05 -6.154008E+01  5.313978E+02 -1.081969E+05  3.797356E+02  4.719022E+04
       160  23  4.219924E+05  6.671929E+01  9.332452E+02 -1.018837E+05  8.439632E+02  5.126139E+04
       160  24  4.220659E+05  5.209607E+02  1.729609E+03 -1.081970E+05  1.308084E+03  5.267676E+04
       160  25 -1.963287E+05 -1.400517E+05 -8.105382E+04 -1.083327E+05  1.320778E+04  4.719748E+04
       160  26 -2.747488E+05 -1.582471E+05 -9.393669E+04 -1.018684E+05  7.360798E+03  5.126912E+04
       160  27 -3.540757E+05 -1.772131E+05 -1.108086E+05 -1.080314E+05  1.514326E+03  5.268337E+04
       161   1  1.249200E+06  1.908172E+05  1.264458E+05 -1.078471E+05 -2.857720E+03 -5.327119E+04
       161   2  1.323671E+06  2.146477E+05  1.633013E+05 -1.047884E+05 -5.223105E+04 -4.285410E+04
       161   3  1.407501E+06  2.499805E+05  2.351475E+05 -1.128905E+05 -1.016327E+05 -1.260661E+04
       161   4  4.222720E+05  7.696558E+02  2.319087E+03 -1.078707E+05 -1.610034E+03 -5.327755E+04
       161   5  4.216604E+05  2.629635E+03  4.272240E+03 -1.022926E+05 -3.776225E+03 -4.283316E+04
       161   6  4.222249E+05  7.813136E+03  8.475090E+03 -1.078741E+05 -5.962421E+03 -1.254549E+04
       161   7 -4.039713E+05 -1.893102E+05 -1.218212E+05 -1.078942E+05 -3.639401E+02 -5.328393E+04
       161   8 -4.795505E+05 -2.094317E+05 -1.547778E+05 -9.980053E+04  4.461039E+04 -4.281181E+04
       161   9 -5.621351E+05 -2.344170E+05 -2.182272E+05 -1.028658E+05  8.955746E+04 -1.248279E+04
       161  10  1.249200E+06  1.908141E+05  1.264404E+05 -1.078473E+05 -4.484147E-09 -2.853613E-09
       161  11  1.323667E+06  2.146450E+05  1.632928E+05 -1.047902E+05 -5.604277E-09 -2.448819E-09
       161  12  1.407490E+06  2.499776E+05  2.351278E+05 -1.128916E+05  1.576662E-09 -5.238521E-10
       161  13  4.222713E+05  7.666064E+02  2.313747E+03 -1.078707E+05  1.722054E-09 -4.203952E-09
       161  14  4.216599E+05  2.627661E+03  4.268765E+03 -1.022927E+05  1.434803E-09  1.495746E-09
       161  15  4.222249E+05  7.812957E+03  8.474728E+03 -1.078742E+05 -2.338558E-09  3.656031E-10
       161  16 -4.039720E+05 -1.893133E+05 -1.218265E+05 -1.078942E+05  4.311624E-09 -2.062650E-09
       161  17 -4.795532E+05 -2.094342E+05 -1.547850E+05 -9.979899E+04  1.528629E-09  1.797897E-09
       161  18 -5.621438E+05 -2.344193E+05 -2.182426E+05 -1.028649E+05 -2.714416E-09 -7.278353E-11
       161  19  1.249200E+06  1.908172E+05  1.264458E+05 -1.078471E+05  2.857720E+03  5.327119E+04
       161  20  1.323671E+06  2.146477E+05  1.633013E+05 -1.047884E+05  5.223105E+04  4.285410E+04
       161  21  1.407501E+06  2.499805E+05  2.351475E+05 -1.128905E+05  1.016327E+05  1.260661E+04
       161  22  4.222720E+05  7.696558E+02  2.319087E+03 -1.078707E+05  1.610034E+03  5.327755E+04
       161  23  4.216604E+05  2.629635E+03  4.272240E+03 -1.022926E+05  3.776225E+03  4.283316E+04
       161  24  4.222249E+05  7.813136E+03  8.475090E+03 -1.078741E+05  5.962421E+03  1.254549E+04
       161  25 -4.039713E+05 -1.893102E+05 -1.218212E+05 -1.078942E+05  3.639401E+02  5.328393E+04
       161  26 -4.795505E+05 -2.094317E+05 -1.547778E+05 -9.980053E+04 -4.461039E+04  4.281181E+04
       161  27 -5.621351E+05 -2.344170E+05 -2.182272E+05 -1.028658E+05 -8.955746E+04  1.248279E+04
       162   1  2.014848E+05  9.995922E+05  1.927620E+05 -3.216886E+05  7.295243E+03  4.629832E+04
       162   2  1.350195E+05  7.422249E+05  1.115960E+05 -3.006301E+05  2.074032E+04  6.408465E+03
       162   3  7.465283E+04  4.916083E+05  5.788829E+04 -3.228845E+05  1.589415E+04 -3.347060E+04
       162   4 -1.998996E+03  1.767295E+05 -2.380045E+03 -3.226260E+05  7.342000E+03 -3.010428E+03
       162   5 -3.347587E+02  1.768973E+05 -1.601733E+02 -3.009669E+05  2.075113E+04 -2.899109E+03
       162   6  4.967430E+02  1.768240E+05  1.768572E+03 -3.226239E+05  1.586124E+04 -2.792909E+03
       162   7 -2.055301E+05 -6.455070E+05 -1.975601E+05 -3.235618E+05  7.388951E+03 -5.225424E+04
       162   8 -1.357084E+05 -3.881247E+05 -1.119317E+05 -3.013033E+05  2.076197E+04 -1.219839E+04
       162   9 -7.366432E+04 -1.378617E+05 -5.435136E+04 -3.223633E+05  1.582834E+04  2.786969E+04
       162  10  2.014842E+05  9.995899E+05  1.927579E+05 -3.216889E+05  7.878752E-10  6.171587E-08
       162  11  1.350191E+05  7.422248E+05  1.115951E+05 -3.006302E+05  1.848780E-09 -2.096954E-09
       162  12  7.465226E+04  4.916070E+05  5.788571E+04 -3.228841E+05  2.653427E-09 -6.490098E-08
       162  13 -1.999056E+03  1.767294E+05 -2.380163E+03 -3.226260E+05  1.065646E-09 -4.857931E-10
       162  14 -3.352234E+02  1.768971E+05 -1.609983E+02 -3.009669E+05 -2.210560E-09 -5.002661E-10
       162  15  4.964707E+02  1.768239E+05  1.768085E+03 -3.226238E+05  1.508817E-09 -1.455042E-09
       162  16 -2.055309E+05 -6.455099E+05 -1.975653E+05 -3.235615E+05 -1.659820E-10 -6.189907E-08
       162  17 -1.357089E+05 -3.881250E+05 -1.119328E+05 -3.013031E+05  1.705774E-09  2.049878E-09
       162  18 -7.366480E+04 -1.378626E+05 -5.435329E+04 -3.223637E+05  6.072192E-10  6.484475E-08
       162  19  2.014848E+05  9.995922E+05  1.927620E+05 -3.216886E+05 -7.295243E+03 -4.629832E+04
       162  20  1.350195E+05  7.422249E+05  1.115960E+05 -3.006301E+05 -2.074032E+04 -6.408465E+03
       162  21  7.465283E+04  4.916083E+05  5.788829E+04 -3.228845E+05 -1.589415E+04  3.347060E+04
       162  22 -1.998996E+03  1.767295E+05 -2.380045E+03 -3.226260E+05 -7.342000E+03  3.010428E+03
       162  23 -3.347587E+02  1.768973E+05 -1.601733E+02 -3.009669E+05 -2.075113E+04  2.899109E+03
       162  24  4.967430E+02  1.768240E+05  1.768572E+03 -3.226239E+05 -1.586124E+04  2.792909E+03
       162  25 -2.055301E+05 -6.455070E+05 -1.975601E+05 -3.235618E+05 -7.388951E+03  5.225424E+04
       162  26 -1.357084E+05 -3.881247E+05 -1.119317E+05 -3.013033E+05 -2.076197E+04  1.219839E+04
       162  27 -7.366432E+04 -1.378617E+05 -5.435136E+04 -3.223633E+05 -1.582834E+04 -2.786969E+04
       163   1  3.744112E+04  3.321334E+05  3.188100E+04 -3.231367E+05  6.882511E+03 -3.423566E+04
       163   2 -2.106675E+04  7.800703E+04 -8.654285E+03 -2.995801E+05 -7.066716E+03 -3.609911E+04
       163   3 -7.778400E+04 -1.754119E+05 -4.754631E+04 -3.204870E+05 -2.051490E+04 -3.796082E+04
       163   4  6.341713E+02  1.770764E+05  2.858058E+03 -3.228790E+05  6.848039E+03 -3.210947E+03
       163   5  1.572593E+03  1.766512E+05  5.897882E+03 -3.006459E+05 -7.098976E+03 -6.175508E+03
       163   6  4.494562E+03  1.770589E+05  1.134215E+04 -3.228753E+05 -2.054505E+04 -9.139026E+03
       163   7 -3.617365E+04  2.204471E+04 -2.616231E+04 -3.226212E+05  6.813586E+03  2.780622E+04
       163   8  2.421197E+04  2.753072E+05  2.045324E+04 -3.017118E+05 -7.131334E+03  2.375266E+04
       163   9  8.676711E+04  5.296542E+05  7.022990E+04 -3.252650E+05 -2.057541E+04  1.969859E+04
       163  10  3.744076E+04  3.321321E+05  3.187871E+04 -3.231366E+05  2.599469E-09 -6.425820E-09
       163  11 -2.106715E+04  7.800562E+04 -8.656828E+03 -2.995803E+05  8.462620E-09  1.958073E-08
       163  12 -7.778484E+04 -1.754136E+05 -4.754981E+04 -3.204876E+05  1.608041E-09  4.420123E-08
       163  13  6.341182E+02  1.770764E+05  2.857951E+03 -3.228790E+05 -7.349841E-10 -6.164998E-10
       163  14  1.572529E+03  1.766512E+05  5.897715E+03 -3.006459E+05  9.504201E-09 -6.222141E-10
       163  15  4.494087E+03  1.770587E+05  1.134120E+04 -3.228754E+05 -4.500667E-09 -1.444370E-09
       163  16 -3.617391E+04  2.204387E+04 -2.616385E+04 -3.226214E+05  2.597825E-09  6.098357E-09
       163  17  2.421176E+04  2.753065E+05  2.045208E+04 -3.017117E+05  5.106280E-09 -1.984418E-08
       163  18  8.676655E+04  5.296537E+05  7.022838E+04 -3.252647E+05  2.753883E-09 -4.419814E-08
       163  19  3.744112E+04  3.321334E+05  3.188100E+04 -3.231367E+05 -6.882511E+03  3.423566E+04
       163  20 -2.106675E+04  7.800703E+04 -8.654285E+03 -2.995801E+05  7.066716E+03  3.609911E+04
       163  21 -7.778400E+04 -1.754119E+05 -4.754631E+04 -3.204870E+05  2.051490E+04  3.796082E+04
       163  22  6.341713E+02  1.770764E+05  2.858058E+03 -3.228790E+05 -6.848039E+03  3.210947E+03
       163  23  1.572593E+03  1.766512E+05  5.897882E+03 -3.006459E+05  7.098976E+03  6.175508E+03
       163  24  4.494562E+03  1.770589E+05  1.134215E+04 -3.228753E+05  2.054505E+04  9.139026E+03
       163  25 -3.617365E+04  2.204471E+04 -2.616231E+04 -3.226212E+05 -6.813586E+03 -2.780622E+04
       163  26  2.421197E+04  2.753072E+05  2.045324E+04 -3.017118E+05  7.131334E+03 -2.375266E+04
       163  27  8.676711E+04  5.296542E+05  7.022990E+04 -3.252650E+05  2.057541E+04 -1.969859E+04
       164   1 -1.141651E+05 -3.337336E+05 -7.144709E+04 -3.216638E+05 -2.906521E+04 -3.948170E+04
       164   2 -1.642322E+05 -5.872542E+05 -1.183032E+05 -2.825974E+05 -3.087892E+04 -4.945239E+03
       164   3 -1.988761E+05 -8.413418E+05 -1.838008E+05 -2.865254E+05 -1.024881E+04  2.958069E+04
       164   4  5.655460E+03  1.785966E+05  1.525976E+04 -3.225483E+05 -2.909283E+04 -1.111969E+04
       164   5  1.753482E+04  1.745977E+05  2.830035E+04 -3.010372E+05 -3.085652E+04 -2.556954E+04
       164   6  5.333232E+04  1.784646E+05  5.671890E+04 -3.225104E+05 -1.019107E+04 -4.001538E+04
       164   7  1.254626E+05  6.911871E+05  1.019612E+05 -3.234335E+05 -2.912050E+04  1.726497E+04
       164   8  1.992689E+05  9.370099E+05  1.748789E+05 -3.194999E+05 -3.083291E+04 -4.621857E+04
       164   9  3.054737E+05  1.199241E+06  2.971857E+05 -3.585545E+05 -1.012533E+04 -1.097252E+05
       164  10 -1.141664E+05 -3.337355E+05 -7.145162E+04 -3.216648E+05  8.910644E-10 -4.664727E-08
       164  11 -1.642332E+05 -5.872544E+05 -1.183050E+05 -2.825975E+05 -1.324030E-09 -2.310948E-08
       164  12 -1.988764E+05 -8.413428E+05 -1.838026E+05 -2.865252E+05  1.782878E-09  3.194912E-09
       164  13  5.654518E+03  1.785963E+05  1.525794E+04 -3.225486E+05 -1.388247E-09 -5.563782E-10
       164  14  1.753363E+04  1.745968E+05  2.829733E+04 -3.010378E+05  4.897763E-09 -4.686484E-10
       164  15  5.333177E+04  1.784629E+05  5.671570E+04 -3.225108E+05 -3.906579E-09 -8.238468E-10
       164  16  1.254616E+05  6.911865E+05  1.019590E+05 -3.234331E+05  2.432387E-10  4.651742E-08
       164  17  1.992673E+05  9.370073E+05  1.748731E+05 -3.195011E+05 -5.463462E-10  2.314379E-08
       164  18  3.054704E+05  1.199229E+06  2.971629E+05 -3.585554E+05 -3.508165E-09 -3.102478E-09
       164  19 -1.141651E+05 -3.337336E+05 -7.144709E+04 -3.216638E+05  2.906521E+04  3.948170E+04
       164  20 -1.642322E+05 -5.872542E+05 -1.183032E+05 -2.825974E+05  3.087892E+04  4.945239E+03
       164  21 -1.988761E+05 -8.413418E+05 -1.838008E+05 -2.865254E+05  1.024881E+04 -2.958069E+04
       164  22  5.655460E+03  1.785966E+05  1.525976E+04 -3.225483E+05  2.909283E+04  1.111969E+04
       164  23  1.753482E+04  1.745977E+05  2.830035E+04 -3.010372E+05  3.085652E+04  2.556954E+04
       164  24  5.333232E+04  1.784646E+05  5.671890E+04 -3.225104E+05  1.019107E+04  4.001538E+04
       164  25  1.254626E+05  6.911871E+05  1.019612E+05 -3.234335E+05  2.912050E+04 -1.726497E+04
       164  26  1.992689E+05  9.370099E+05  1.748789E+05 -3.194999E+05  3.083291E+04  4.621857E+04
       164  27  3.054737E+05  1.199241E+06  2.971857E+05 -3.585545E+05  1.012533E+04  1.097252E+05
       165   1 -3.972094E+05 -2.287201E+05 -1.476734E+05 -1.660508E+05 -7.110854E+04 -2.271985E+04
       165   2 -3.717649E+05 -1.385627E+05 -8.524510E+04 -1.549423E+05 -4.459362E+04 -4.045030E+03
       165   3 -3.638106E+05 -1.054318E+05 -5.867999E+04 -1.377826E+05 -1.557334E+04  7.963368E+03
       165   4 -1.871370E+05 -1.108328E+05 -8.540279E+04 -6.846167E+04 -5.632134E+04 -1.717478E+04
       165   5 -1.745831E+05 -4.986957E+04 -3.874486E+04 -8.399804E+04 -3.878688E+04 -1.867373E+03
       165   6 -1.777336E+05 -4.414602E+04 -2.082635E+04 -9.348650E+04 -1.874843E+04  6.771699E+03
       165   7  2.298024E+04  7.075210E+03 -2.313599E+04  2.916161E+04 -4.152890E+04 -1.162539E+04
       165   8  2.263810E+04  3.883202E+04  7.752694E+03 -1.303147E+04 -3.297817E+04  3.114010E+02
       165   9  8.379836E+03  1.714133E+04  1.702585E+04 -4.917869E+04 -2.192456E+04  5.579729E+03
       165  10 -3.972149E+05 -2.287220E+05 -1.476839E+05 -1.660521E+05 -4.617530E-09 -1.830243E-09
       165  11 -3.717670E+05 -1.385632E+05 -8.524887E+04 -1.549424E+05  1.180359E-08  1.372123E-09
       165  12 -3.638109E+05 -1.054319E+05 -5.868056E+04 -1.377825E+05  1.164829E-08  3.291405E-09
       165  13 -1.871404E+05 -1.108340E+05 -8.540931E+04 -6.846245E+04  1.763109E-09  8.272500E-11
       165  14 -1.745847E+05 -4.986998E+04 -3.874769E+04 -8.399809E+04  1.128094E-09 -5.625589E-10
       165  15 -1.777339E+05 -4.414616E+04 -2.082709E+04 -9.348640E+04 -5.524901E-09 -2.982505E-09
       165  16  2.297835E+04  7.074602E+03 -2.313948E+04  2.916122E+04  7.990732E-09  1.982208E-09
       165  17  2.263693E+04  3.883173E+04  7.750651E+03 -1.303147E+04 -1.086971E-08 -2.507785E-09
       165  18  8.379311E+03  1.714117E+04  1.702489E+04 -4.917859E+04 -3.124268E-08 -8.360743E-09
       165  19 -3.972094E+05 -2.287201E+05 -1.476734E+05 -1.660508E+05  7.110854E+04  2.271985E+04
       165  20 -3.717649E+05 -1.385627E+05 -8.524510E+04 -1.549423E+05  4.459362E+04  4.045030E+03
       165  21 -3.638106E+05 -1.054318E+05 -5.867999E+04 -1.377826E+05  1.557334E+04 -7.963368E+03
       165  22 -1.871370E+05 -1.108328E+05 -8.540279E+04 -6.846167E+04  5.632134E+04  1.717478E+04
       165  23 -1.745831E+05 -4.986957E+04 -3.874486E+04 -8.399804E+04  3.878688E+04  1.867373E+03
       165  24 -1.777336E+05 -4.414602E+04 -2.082635E+04 -9.348650E+04  1.874843E+04 -6.771699E+03
       165  25  2.298024E+04  7.075210E+03 -2.313599E+04  2.916161E+04  4.152890E+04  1.162539E+04
       165  26  2.263810E+04  3.883202E+04  7.752694E+03 -1.303147E+04  3.297817E+04 -3.114010E+02
       165  27  8.379836E+03  1.714133E+04  1.702585E+04 -4.917869E+04  2.192456E+04 -5.579729E+03
       166   1 -3.355527E+05 -1.066743E+05 -4.964810E+04 -1.364937E+05 -1.406101E+04  7.014014E+03
       166   2 -3.095123E+05 -9.030107E+04 -3.573353E+04 -1.253582E+05 -8.679537E+03  7.302500E+03
       166   3 -2.790815E+05 -8.208913E+04 -2.600547E+04 -1.205508E+05 -3.140355E+03  7.170647E+03
       166   4 -1.751255E+05 -4.702750E+04 -1.597615E+04 -9.121868E+04 -1.582440E+04  6.352041E+03
       166   5 -1.771924E+05 -4.170427E+04 -8.437554E+03 -8.854109E+04 -1.100840E+04  6.428532E+03
       166   6 -1.747572E+05 -4.442990E+04 -4.636485E+03 -9.219207E+04 -6.034904E+03  6.084640E+03
       166   7 -1.467309E+04  1.262112E+04  1.769407E+04 -4.593315E+04 -1.758826E+04  5.689883E+03
       166   8 -4.485452E+04  6.894041E+03  1.885753E+04 -5.171676E+04 -1.333779E+04  5.554362E+03
       166   9 -7.042086E+04 -6.769529E+03  1.673220E+04 -6.382870E+04 -8.929998E+03  4.998435E+03
       166  10 -3.355530E+05 -1.066744E+05 -4.964857E+04 -1.364936E+05 -4.032275E-08 -1.541294E-08
       166  11 -3.095124E+05 -9.030115E+04 -3.573378E+04 -1.253581E+05 -1.529753E-08 -1.019267E-10
       166  12 -2.790815E+05 -8.208919E+04 -2.600559E+04 -1.205508E+05  2.140559E-08  1.067987E-08
       166  13 -1.751257E+05 -4.702762E+04 -1.597670E+04 -9.121860E+04 -7.119940E-09 -2.700470E-09
       166  14 -1.771925E+05 -4.170435E+04 -8.437859E+03 -8.854103E+04 -6.942254E-10 -3.073126E-09
       166  15 -1.747572E+05 -4.442995E+04 -4.636623E+03 -9.219204E+04  1.398355E-08 -1.557439E-09
       166  16 -1.467343E+04  1.262101E+04  1.769343E+04 -4.593307E+04  2.521188E-08  1.080629E-08
       166  17 -4.485472E+04  6.893961E+03  1.885714E+04 -5.171670E+04  8.914872E-09  4.689220E-09
       166  18 -7.042095E+04 -6.769577E+03  1.673200E+04 -6.382866E+04  2.045625E-09  3.569074E-09
       166  19 -3.355527E+05 -1.066743E+05 -4.964810E+04 -1.364937E+05  1.406101E+04 -7.014014E+03
       166  20 -3.095123E+05 -9.030107E+04 -3.573353E+04 -1.253582E+05  8.679537E+03 -7.302500E+03
       166  21 -2.790815E+05 -8.208913E+04 -2.600547E+04 -1.205508E+05  3.140355E+03 -7.170647E+03
       166  22 -1.751255E+05 -4.702750E+04 -1.597615E+04 -9.121868E+04  1.582440E+04 -6.352041E+03
       166  23 -1.771924E+05 -4.170427E+04 -8.437554E+03 -8.854109E+04  1.100840E+04 -6.428532E+03
       166  24 -1.747572E+05 -4.442990E+04 -4.636485E+03 -9.219207E+04  6.034904E+03 -6.084640E+03
       166  25 -1.467309E+04  1.262112E+04  1.769407E+04 -4.593315E+04  1.758826E+04 -5.689883E+03
       166  26 -4.485452E+04  6.894041E+03  1.885753E+04 -5.171676E+04  1.333779E+04 -5.554362E+03
       166  27 -7.042086E+04 -6.769529E+03  1.673220E+04 -6.382870E+04  8.929998E+03 -4.998435E+03
       167   1 -2.588956E+05 -7.522522E+04 -2.066256E+04 -1.152740E+05 -2.108649E+03  6.134794E+03
       167   2 -2.331600E+05 -6.180312E+04 -1.330368E+04 -1.040311E+05 -3.295343E+02  4.412214E+03
       167   3 -2.017178E+05 -5.436879E+04 -6.709449E+03 -9.953266E+04  1.459470E+03  2.662947E+03
       167   4 -1.745681E+05 -4.454638E+04 -3.491670E+03 -9.206789E+04 -4.914775E+03  5.082042E+03
       167   5 -1.774203E+05 -4.152923E+04 -1.919603E+03 -8.870539E+04 -3.171521E+03  3.346096E+03
       167   6 -1.745594E+05 -4.449267E+04 -1.083635E+03 -9.208751E+04 -1.418432E+03  1.583451E+03
       167   7 -9.023330E+04 -1.386697E+04  1.367888E+04 -6.885883E+04 -7.721310E+03  4.029138E+03
       167   8 -1.216775E+05 -2.125517E+04  9.464289E+03 -7.337843E+04 -6.013770E+03  2.279881E+03
       167   9 -1.474005E+05 -3.461656E+04  4.542115E+03 -8.464211E+04 -4.296447E+03  5.039143E+02
       167  10 -2.588956E+05 -7.522526E+04 -2.066264E+04 -1.152740E+05 -1.678593E-08 -7.236096E-09
       167  11 -2.331600E+05 -6.180314E+04 -1.330372E+04 -1.040311E+05 -5.043517E-09 -6.148972E-09
       167  12 -2.017178E+05 -5.436880E+04 -6.709467E+03 -9.953266E+04  2.388948E-08  8.634311E-09
       167  13 -1.745681E+05 -4.454642E+04 -3.491764E+03 -9.206787E+04  1.152372E-08 -5.295252E-09
       167  14 -1.774203E+05 -4.152925E+04 -1.919643E+03 -8.870539E+04 -5.948545E-09 -9.819814E-09
       167  15 -1.745594E+05 -4.449267E+04 -1.083644E+03 -9.208751E+04 -1.255023E-09 -2.029515E-09
       167  16 -9.023337E+04 -1.386700E+04  1.367874E+04 -6.885881E+04  3.508330E-08  1.461113E-08
       167  17 -1.216776E+05 -2.125519E+04  9.464211E+03 -7.337842E+04 -1.445939E-09 -3.924265E-09
       167  18 -1.474005E+05 -3.461657E+04  4.542080E+03 -8.464211E+04 -2.480798E-08 -1.027350E-08
       167  19 -2.588956E+05 -7.522522E+04 -2.066256E+04 -1.152740E+05  2.108649E+03 -6.134794E+03
       167  20 -2.331600E+05 -6.180312E+04 -1.330368E+04 -1.040311E+05  3.295343E+02 -4.412214E+03
       167  21 -2.017178E+05 -5.436879E+04 -6.709449E+03 -9.953266E+04 -1.459470E+03 -2.662947E+03
       167  22 -1.745681E+05 -4.454638E+04 -3.491670E+03 -9.206789E+04  4.914775E+03 -5.082042E+03
       167  23 -1.774203E+05 -4.152923E+04 -1.919603E+03 -8.870539E+04  3.171521E+03 -3.346096E+03
       167  24 -1.745594E+05 -4.449267E+04 -1.083635E+03 -9.208751E+04  1.418432E+03 -1.583451E+03
       167  25 -9.023330E+04 -1.386697E+04  1.367888E+04 -6.885883E+04  7.721310E+03 -4.029138E+03
       167  26 -1.216775E+05 -2.125517E+04  9.464289E+03 -7.337843E+04  6.013770E+03 -2.279881E+03
       167  27 -1.474005E+05 -3.461656E+04  4.542115E+03 -8.464211E+04  4.296447E+03 -5.039143E+02
       168   1 -1.819491E+05 -4.714743E+04 -2.258747E+03 -9.408855E+04  2.079334E+03  1.478167E+03
       168   2 -1.562934E+05 -3.379969E+04  3.803886E+03 -8.281990E+04  3.140184E+03 -5.554880E+02
       168   3 -1.247994E+05 -2.633393E+04  9.671294E+03 -7.828756E+04  4.201600E+03 -2.590516E+03
       168   4 -1.745353E+05 -4.449605E+04 -8.336750E+02 -9.207627E+04 -7.931126E+02  4.007340E+02
       168   5 -1.774547E+05 -4.155982E+04 -5.208473E+02 -8.870611E+04  2.657849E+02 -1.633695E+03
       168   6 -1.745369E+05 -4.450555E+04 -4.018930E+02 -9.207283E+04  1.325234E+03 -3.669495E+03
       168   7 -1.671213E+05 -4.184464E+04  5.914469E+02 -9.006393E+04 -3.665619E+03 -6.767212E+02
       168   8 -1.986157E+05 -4.931994E+04 -4.845593E+03 -9.459215E+04 -2.608520E+03 -2.711866E+03
       168   9 -2.242719E+05 -6.267696E+04 -1.047517E+04 -1.058571E+05 -1.550886E+03 -4.748381E+03
       168  10 -1.819491E+05 -4.714744E+04 -2.258760E+03 -9.408856E+04  1.638413E-08  9.083153E-09
       168  11 -1.562934E+05 -3.379969E+04  3.803867E+03 -8.281990E+04 -1.329889E-08 -1.947664E-09
       168  12 -1.247994E+05 -2.633394E+04  9.671248E+03 -7.828755E+04 -2.318590E-08 -1.042103E-08
       168  13 -1.745353E+05 -4.449605E+04 -8.336765E+02 -9.207627E+04 -4.005384E-09  2.371727E-09
       168  14 -1.774547E+05 -4.155982E+04 -5.208524E+02 -8.870611E+04 -1.731446E-08  2.167206E-09
       168  15 -1.745369E+05 -4.450557E+04 -4.019216E+02 -9.207282E+04 -8.448637E-09  4.314389E-09
       168  16 -1.671213E+05 -4.184464E+04  5.914208E+02 -9.006394E+04 -2.005892E-08 -6.675902E-09
       168  17 -1.986157E+05 -4.931994E+04 -4.845619E+03 -9.459216E+04  3.685420E-10 -3.220790E-09
       168  18 -2.242719E+05 -6.267699E+04 -1.047522E+04 -1.058571E+05  1.668283E-08  1.591570E-09
       168  19 -1.819491E+05 -4.714743E+04 -2.258747E+03 -9.408855E+04 -2.079334E+03 -1.478167E+03
       168  20 -1.562934E+05 -3.379969E+04  3.803886E+03 -8.281990E+04 -3.140184E+03  5.554880E+02
       168  21 -1.247994E+05 -2.633393E+04  9.671294E+03 -7.828756E+04 -4.201600E+03  2.590516E+03
       168  22 -1.745353E+05 -4.449605E+04 -8.336750E+02 -9.207627E+04  7.931126E+02 -4.007340E+02
       168  23 -1.774547E+05 -4.155982E+04 -5.208473E+02 -8.870611E+04 -2.657849E+02  1.633695E+03
       168  24 -1.745369E+05 -4.450555E+04 -4.018930E+02 -9.207283E+04 -1.325234E+03  3.669495E+03
       168  25 -1.671213E+05 -4.184464E+04  5.914469E+02 -9.006393E+04  3.665619E+03  6.767212E+02
       168  26 -1.986157E+05 -4.931994E+04 -4.845593E+03 -9.459215E+04  2.608520E+03  2.711866E+03
       168  27 -2.242719E+05 -6.267696E+04 -1.047517E+04 -1.058571E+05  1.550886E+03  4.748381E+03
       169   1 -1.050716E+05 -1.909789E+04  1.387553E+04 -7.283975E+04  4.734202E+03 -3.807421E+03
       169   2 -7.942648E+04 -5.746479E+03  1.952277E+04 -6.157393E+04  5.777665E+03 -5.848200E+03
       169   3 -4.794151E+04  1.725826E+03  2.498830E+04 -5.704119E+04  6.820272E+03 -7.886124E+03
       169   4 -1.745375E+05 -4.450572E+04 -3.974925E+02 -9.207213E+04  1.857919E+03 -4.886421E+03
       169   5 -1.774573E+05 -4.156484E+04 -4.965993E+02 -8.870613E+04  2.905072E+03 -6.925965E+03
       169   6 -1.745387E+05 -4.450382E+04 -7.803114E+02 -9.207350E+04  3.951362E+03 -8.962662E+03
       169   7 -2.439979E+05 -6.991293E+04 -1.467058E+04 -1.113024E+05 -1.017997E+03 -5.965283E+03
       169   8 -2.754782E+05 -7.738238E+04 -2.051642E+04 -1.158344E+05  3.296653E+01 -8.003546E+03
       169   9 -3.011204E+05 -9.073248E+04 -2.654997E+04 -1.270995E+05  1.083059E+03 -1.003897E+04
       169  10 -1.050716E+05 -1.909791E+04  1.387546E+04 -7.283974E+04 -1.431463E-08 -7.549083E-09
       169  11 -7.942653E+04 -5.746525E+03  1.952264E+04 -6.157390E+04  1.962395E-09 -3.998695E-10
       169  12 -4.794157E+04  1.725746E+03  2.498810E+04 -5.704115E+04  1.621960E-08  6.058122E-09
       169  13 -1.745375E+05 -4.450575E+04 -3.975438E+02 -9.207212E+04 -6.856529E-09  4.474343E-09
       169  14 -1.774573E+05 -4.156489E+04 -4.967052E+02 -8.870611E+04 -1.349306E-09  1.997346E-09
       169  15 -1.745387E+05 -4.450391E+04 -7.804916E+02 -9.207347E+04 -7.622958E-10  1.021599E-09
       169  16 -2.439979E+05 -6.991297E+04 -1.467065E+04 -1.113024E+05  1.257840E-08 -1.110254E-09
       169  17 -2.754782E+05 -7.738245E+04 -2.051654E+04 -1.158344E+05 -1.511438E-09 -4.723540E-09
       169  18 -3.011204E+05 -9.073259E+04 -2.655016E+04 -1.270995E+05 -1.361353E-08 -6.989602E-09
       169  19 -1.050716E+05 -1.909789E+04  1.387553E+04 -7.283975E+04 -4.734202E+03  3.807421E+03
       169  20 -7.942648E+04 -5.746479E+03  1.952277E+04 -6.157393E+04 -5.777665E+03  5.848200E+03
       169  21 -4.794151E+04  1.725826E+03  2.498830E+04 -5.704119E+04 -6.820272E+03  7.886124E+03
       169  22 -1.745375E+05 -4.450572E+04 -3.974925E+02 -9.207213E+04 -1.857919E+03  4.886421E+03
       169  23 -1.774573E+05 -4.156484E+04 -4.965993E+02 -8.870613E+04 -2.905072E+03  6.925965E+03
       169  24 -1.745387E+05 -4.450382E+04 -7.803114E+02 -9.207350E+04 -3.951362E+03  8.962662E+03
       169  25 -2.439979E+05 -6.991293E+04 -1.467058E+04 -1.113024E+05  1.017997E+03  5.965283E+03
       169  26 -2.754782E+05 -7.738238E+04 -2.051642E+04 -1.158344E+05 -3.296653E+01  8.003546E+03
       169  27 -3.011204E+05 -9.073248E+04 -2.654997E+04 -1.270995E+05 -1.083059E+03  1.003897E+04
       170   1 -2.823540E+04  8.951795E+03  2.895605E+04 -5.161622E+04  7.442575E+03 -9.069022E+03
       170   2 -2.553010E+03  2.230316E+04  3.394108E+04 -4.035656E+04  9.071123E+03 -1.086902E+04
       170   3  2.886252E+04  2.969758E+04  3.828569E+04 -3.583045E+04  1.068509E+04 -1.262907E+04
       170   4 -1.745628E+05 -4.450101E+04 -1.009949E+03 -9.208262E+04  4.566069E+03 -1.014854E+04
       170   5 -1.774297E+05 -4.154538E+04 -1.782355E+03 -8.870587E+04  6.248093E+03 -1.192874E+04
       170   6 -1.745747E+05 -4.455749E+04 -3.237625E+03 -9.206317E+04  7.915486E+03 -1.366899E+04
       170   7 -3.208681E+05 -9.795199E+04 -3.097700E+04 -1.325402E+05  1.690292E+03 -1.122779E+04
       170   8 -3.522742E+05 -1.053911E+05 -3.750711E+04 -1.370424E+05  3.425930E+03 -1.298814E+04
       170   9 -3.779677E+05 -1.188085E+05 -4.476256E+04 -1.482785E+05  5.146882E+03 -1.470855E+04
       170  10 -2.823548E+04  8.951692E+03  2.895579E+04 -5.161617E+04  2.493969E-08  9.742570E-09
       170  11 -2.553130E+03  2.230301E+04  3.394070E+04 -4.035648E+04  5.500089E-09  3.931686E-09
       170  12  2.886236E+04  2.969738E+04  3.828517E+04 -3.583035E+04 -2.155384E-08 -5.852029E-09
       170  13 -1.745628E+05 -4.450112E+04 -1.010182E+03 -9.208258E+04  1.609192E-09  1.817803E-09
       170  14 -1.774298E+05 -4.154554E+04 -1.782695E+03 -8.870581E+04  8.508955E-09  4.098187E-09
       170  15 -1.745748E+05 -4.455771E+04 -3.238094E+03 -9.206309E+04  8.926663E-10  1.142228E-09
       170  16 -3.208682E+05 -9.795212E+04 -3.097725E+04 -1.325402E+05 -2.306172E-08 -5.953794E-09
       170  17 -3.522743E+05 -1.053912E+05 -3.750745E+04 -1.370424E+05  4.272031E-09  4.094835E-09
       170  18 -3.779678E+05 -1.188087E+05 -4.476301E+04 -1.482784E+05  2.295198E-08  1.007726E-08
       170  19 -2.823540E+04  8.951795E+03  2.895605E+04 -5.161622E+04 -7.442575E+03  9.069022E+03
       170  20 -2.553010E+03  2.230316E+04  3.394108E+04 -4.035656E+04 -9.071123E+03  1.086902E+04
       170  21  2.886252E+04  2.969758E+04  3.828569E+04 -3.583045E+04 -1.068509E+04  1.262907E+04
       170  22 -1.745628E+05 -4.450101E+04 -1.009949E+03 -9.208262E+04 -4.566069E+03  1.014854E+04
       170  23 -1.774297E+05 -4.154538E+04 -1.782355E+03 -8.870587E+04 -6.248093E+03  1.192874E+04
       170  24 -1.745747E+05 -4.455749E+04 -3.237625E+03 -9.206317E+04 -7.915486E+03  1.366899E+04
       170  25 -3.208681E+05 -9.795199E+04 -3.097700E+04 -1.325402E+05 -1.690292E+03  1.122779E+04
       170  26 -3.522742E+05 -1.053911E+05 -3.750711E+04 -1.370424E+05 -3.425930E+03  1.298814E+04
       170  27 -3.779677E+05 -1.188085E+05 -4.476256E+04 -1.482785E+05 -5.146882E+03  1.470855E+04
       171   1  4.864507E+04  3.680542E+04  4.141742E+04 -3.076295E+04  1.188907E+04 -1.360101E+04
       171   2  7.414056E+04  5.043325E+04  4.389888E+04 -1.874229E+04  1.567801E+04 -1.427719E+04
       171   3  1.043928E+05  5.636207E+04  4.358336E+04 -1.304863E+04  1.923400E+04 -1.433101E+04
       171   4 -1.747523E+05 -4.444701E+04 -4.297424E+03 -9.217315E+04  8.988851E+03 -1.469015E+04
       171   5 -1.772197E+05 -4.172037E+04 -7.819877E+03 -8.855761E+04  1.361520E+04 -1.505235E+04
       171   6 -1.750981E+05 -4.685988E+04 -1.480395E+04 -9.126995E+04  1.800839E+04 -1.479212E+04
       171   7 -3.981002E+05 -1.256960E+05 -5.001529E+04 -1.535635E+05  6.089735E+03 -1.577888E+04
       171   8 -4.285162E+05 -1.338690E+05 -5.954219E+04 -1.583471E+05  1.155328E+04 -1.582718E+04
       171   9 -4.545091E+05 -1.500750E+05 -7.319550E+04 -1.694587E+05  1.678337E+04 -1.525300E+04
       171  10  4.864487E+04  3.680519E+04  4.141680E+04 -3.076282E+04 -1.861084E-09  5.643466E-10
       171  11  7.414024E+04  5.043297E+04  4.389804E+04 -1.874211E+04 -3.697551E-09 -2.070270E-09
       171  12  1.043923E+05  5.636175E+04  4.358228E+04 -1.304840E+04 -1.399239E-08 -1.345578E-09
       171  13 -1.747524E+05 -4.444726E+04 -4.297981E+03 -9.217304E+04 -4.087045E-09 -9.828707E-10
       171  14 -1.772200E+05 -4.172067E+04 -7.820651E+03 -8.855745E+04 -2.380404E-09 -2.055391E-09
       171  15 -1.750985E+05 -4.686020E+04 -1.480497E+04 -9.126973E+04 -4.668945E-09  2.764867E-09
       171  16 -3.981003E+05 -1.256963E+05 -5.001582E+04 -1.535634E+05 -2.950406E-09 -1.658906E-09
       171  17 -4.285164E+05 -1.338693E+05 -5.954291E+04 -1.583470E+05  4.378505E-09 -6.115220E-10
       171  18 -4.545095E+05 -1.500754E+05 -7.319647E+04 -1.694585E+05  1.580933E-08  6.515176E-09
       171  19  4.864507E+04  3.680542E+04  4.141742E+04 -3.076295E+04 -1.188907E+04  1.360101E+04
       171  20  7.414056E+04  5.043325E+04  4.389888E+04 -1.874229E+04 -1.567801E+04  1.427719E+04
       171  21  1.043928E+05  5.636207E+04  4.358336E+04 -1.304863E+04 -1.923400E+04  1.433101E+04
       171  22 -1.747523E+05 -4.444701E+04 -4.297424E+03 -9.217315E+04 -8.988851E+03  1.469015E+04
       171  23 -1.772197E+05 -4.172037E+04 -7.819877E+03 -8.855761E+04 -1.361520E+04  1.505235E+04
       171  24 -1.750981E+05 -4.685988E+04 -1.480395E+04 -9.126995E+04 -1.800839E+04  1.479212E+04
       171  25 -3.981002E+05 -1.256960E+05 -5.001529E+04 -1.535635E+05 -6.089735E+03  1.577888E+04
       171  26 -4.285162E+05 -1.338690E+05 -5.954219E+04 -1.583471E+05 -1.155328E+04  1.582718E+04
       171  27 -4.545091E+05 -1.500750E+05 -7.319550E+04 -1.694587E+05 -1.678337E+04  1.525300E+04
       172   1  1.272697E+05  6.115195E+04  4.325550E+04 -1.557086E+04  2.408498E+04 -1.407225E+04
       172   2  1.419868E+05  8.228246E+04  3.667786E+04  1.840588E+04  2.876755E+04 -9.485477E+03
       172   3  1.450518E+05  5.464531E+04  1.401517E+04  5.771308E+04  2.974416E+04  4.965754E+03
       172   4 -1.775496E+05 -4.415666E+04 -1.929768E+04 -9.333048E+04  2.076978E+04 -1.531801E+04
       172   5 -1.747661E+05 -4.933481E+04 -3.590228E+04 -8.439812E+04  3.874754E+04 -5.738396E+03
       172   6 -1.862788E+05 -1.059311E+05 -7.913328E+04 -7.013432E+04  5.301776E+04  1.370743E+04
       172   7 -4.822736E+05 -1.494600E+05 -8.185550E+04 -1.710559E+05  1.745634E+04 -1.656320E+04
       172   8 -4.914128E+05 -1.809347E+05 -1.084875E+05 -1.871500E+05  4.872192E+04 -1.994028E+03
       172   9 -5.174904E+05 -2.664732E+05 -1.722872E+05 -1.979096E+05  7.627729E+04  2.244040E+04
       172  10  1.272691E+05  6.115159E+04  4.325404E+04 -1.557059E+04 -1.753740E-08 -3.766512E-09
       172  11  1.419859E+05  8.228215E+04  3.667614E+04  1.840610E+04 -8.556063E-09 -4.736323E-09
       172  12  1.450508E+05  5.464504E+04  1.401346E+04  5.771296E+04  1.157833E-08  4.847511E-09
       172  13 -1.775501E+05 -4.415703E+04 -1.929893E+04 -9.333022E+04 -7.124881E-09  1.817069E-09
       172  14 -1.747678E+05 -4.933525E+04 -3.590517E+04 -8.439794E+04 -9.963127E-09 -1.621889E-09
       172  15 -1.862819E+05 -1.059321E+05 -7.913892E+04 -7.013490E+04 -2.493478E-09 -3.102444E-10
       172  16 -4.822740E+05 -1.494604E+05 -8.185659E+04 -1.710557E+05  1.793737E-08  8.507209E-09
       172  17 -4.914153E+05 -1.809354E+05 -1.084919E+05 -1.871499E+05 -6.641725E-09 -1.439168E-09
       172  18 -5.174967E+05 -2.664753E+05 -1.722991E+05 -1.979109E+05 -2.208296E-08 -7.638552E-09
       172  19  1.272697E+05  6.115195E+04  4.325550E+04 -1.557086E+04 -2.408498E+04  1.407225E+04
       172  20  1.419868E+05  8.228246E+04  3.667786E+04  1.840588E+04 -2.876755E+04  9.485477E+03
       172  21  1.450518E+05  5.464531E+04  1.401517E+04  5.771308E+04 -2.974416E+04 -4.965754E+03
       172  22 -1.775496E+05 -4.415666E+04 -1.929768E+04 -9.333048E+04 -2.076978E+04  1.531801E+04
       172  23 -1.747661E+05 -4.933481E+04 -3.590228E+04 -8.439812E+04 -3.874754E+04  5.738396E+03
       172  24 -1.862788E+05 -1.059311E+05 -7.913328E+04 -7.013432E+04 -5.301776E+04 -1.370743E+04
       172  25 -4.822736E+05 -1.494600E+05 -8.185550E+04 -1.710559E+05 -1.745634E+04  1.656320E+04
       172  26 -4.914128E+05 -1.809347E+05 -1.084875E+05 -1.871500E+05 -4.872192E+04  1.994028E+03
       172  27 -5.174904E+05 -2.664732E+05 -1.722872E+05 -1.979096E+05 -7.627729E+04 -2.244040E+04
       173   1  8.703866E+05  1.336051E+05  1.180380E+05  1.144492E+04  3.185369E+04 -1.044299E+04
       173   2  8.340981E+05  1.527128E+05  1.009100E+05  2.626851E+04  1.207032E+04 -3.607362E+04
       173   3  7.958145E+05  1.534357E+05  9.207541E+04  4.649312E+04 -7.724101E+03 -4.563630E+04
       173   4  1.116346E+05 -5.298118E+04 -5.696371E+04  4.615190E+04 -4.006252E+04 -1.051250E+04
       173   5  1.156229E+05 -1.672251E+04 -2.841740E+04  4.342371E+04 -2.549117E+04 -3.611750E+04
       173   6  1.116484E+05 -4.823208E+03 -1.542486E+04  4.609634E+04 -1.093230E+04 -4.564488E+04
       173   7 -6.465719E+05 -2.396004E+05 -2.319836E+05  8.081605E+04 -1.118916E+05 -1.059009E+04
       173   8 -6.023462E+05 -1.861847E+05 -1.577594E+05  6.055838E+04 -6.301044E+04 -3.616348E+04
       173   9 -5.720515E+05 -1.631052E+05 -1.229365E+05  4.569986E+04 -1.413710E+04 -4.565346E+04
       173  10  8.703855E+05  1.336047E+05  1.180359E+05  1.144518E+04 -2.088869E-09  1.430319E-10
       173  11  8.340976E+05  1.527114E+05  1.009073E+05  2.626886E+04 -1.305952E-09 -5.676940E-10
       173  12  7.958139E+05  1.534334E+05  9.207138E+04  4.649283E+04 -2.868866E-09  1.079520E-09
       173  13  1.116328E+05 -5.298173E+04 -5.696693E+04  4.615156E+04  6.541187E-11  1.313076E-09
       173  14  1.156219E+05 -1.672409E+04 -2.842107E+04  4.342296E+04 -3.362772E-09  3.951853E-10
       173  15  1.116477E+05 -4.825477E+03 -1.542900E+04  4.609593E+04 -7.894007E-10  1.821592E-09
       173  16 -6.465854E+05 -2.396039E+05 -2.320074E+05  8.081509E+04  2.245707E-09  9.264206E-10
       173  17 -6.023508E+05 -1.861872E+05 -1.577693E+05  6.055654E+04  1.833905E-09 -1.411635E-09
       173  18 -5.720523E+05 -1.631075E+05 -1.229408E+05  4.569934E+04  1.229186E-09 -2.483543E-09
       173  19  8.703866E+05  1.336051E+05  1.180380E+05  1.144492E+04 -3.185369E+04  1.044299E+04
       173  20  8.340981E+05  1.527128E+05  1.009100E+05  2.626851E+04 -1.207032E+04  3.607362E+04
       173  21  7.958145E+05  1.534357E+05  9.207541E+04  4.649312E+04  7.724101E+03  4.563630E+04
       173  22  1.116346E+05 -5.298118E+04 -5.696371E+04  4.615190E+04  4.006252E+04  1.051250E+04
       173  23  1.156229E+05 -1.672251E+04 -2.841740E+04  4.342371E+04  2.549117E+04  3.611750E+04
       173  24  1.116484E+05 -4.823208E+03 -1.542486E+04  4.609634E+04  1.093230E+04  4.564488E+04
       173  25 -6.465719E+05 -2.396004E+05 -2.319836E+05  8.081605E+04  1.118916E+05  1.059009E+04
       173  26 -6.023462E+05 -1.861847E+05 -1.577594E+05  6.055838E+04  6.301044E+04  3.616348E+04
       173  27 -5.720515E+05 -1.631052E+05 -1.229365E+05  4.569986E+04  1.413710E+04  4.565346E+04
       174   1  7.731411E+05  1.483490E+05  8.951448E+04  4.494447E+04 -5.871139E+03 -4.589067E+04
       174   2  7.361127E+05  1.416443E+05  8.477743E+04  4.281756E+04 -6.839359E+03 -4.636367E+04
       174   3  6.989089E+05  1.337071E+05  8.036590E+04  4.723824E+04 -7.810476E+03 -4.490923E+04
       174   4  1.132256E+05 -3.775716E+03 -1.157073E+04  4.635480E+04 -8.933302E+03 -4.589919E+04
       174   5  1.136788E+05 -9.905684E+02 -6.290775E+03  4.307824E+04 -5.782833E+03 -4.636686E+04
       174   6  1.132406E+05 -1.533618E+02 -3.544824E+03  4.634971E+04 -2.635240E+03 -4.490608E+04
       174   7 -5.462545E+05 -1.559215E+05 -1.126654E+05  4.776343E+04 -1.199234E+04 -4.590773E+04
       174   8 -5.083652E+05 -1.436434E+05 -9.736564E+04  4.333850E+04 -4.727318E+03 -4.637006E+04
       174   9 -4.720814E+05 -1.340294E+05 -8.746063E+04  4.546192E+04  2.535327E+03 -4.490295E+04
       174  10  7.731405E+05  1.483468E+05  8.951045E+04  4.494426E+04 -1.030222E-08 -6.049694E-12
       174  11  7.361121E+05  1.416420E+05  8.477331E+04  4.281731E+04 -2.469062E-09  1.483076E-09
       174  12  6.989083E+05  1.337049E+05  8.036200E+04  4.723795E+04 -9.352849E-10  1.293945E-09
       174  13  1.132250E+05 -3.778000E+03 -1.157484E+04  4.635447E+04  2.544661E-11 -4.573032E-10
       174  14  1.136782E+05 -9.928861E+02 -6.294878E+03  4.307802E+04 -1.246457E-09  3.242261E-10
       174  15  1.132401E+05 -1.555292E+02 -3.548627E+03  4.634961E+04  4.305620E-10 -3.132942E-09
       174  16 -5.462553E+05 -1.559238E+05 -1.126696E+05  4.776299E+04  9.272463E-09  3.750861E-10
       174  17 -5.083658E+05 -1.436457E+05 -9.736972E+04  4.333833E+04  1.861926E-09  5.835800E-10
       174  18 -4.720819E+05 -1.340316E+05 -8.746443E+04  4.546201E+04  9.857280E-10 -2.870487E-09
       174  19  7.731411E+05  1.483490E+05  8.951448E+04  4.494447E+04  5.871139E+03  4.589067E+04
       174  20  7.361127E+05  1.416443E+05  8.477743E+04  4.281756E+04  6.839359E+03  4.636367E+04
       174  21  6.989089E+05  1.337071E+05  8.036590E+04  4.723824E+04  7.810476E+03  4.490923E+04
       174  22  1.132256E+05 -3.775716E+03 -1.157073E+04  4.635480E+04  8.933302E+03  4.589919E+04
       174  23  1.136788E+05 -9.905684E+02 -6.290775E+03  4.307824E+04  5.782833E+03  4.636686E+04
       174  24  1.132406E+05 -1.533618E+02 -3.544824E+03  4.634971E+04  2.635240E+03  4.490608E+04
       174  25 -5.462545E+05 -1.559215E+05 -1.126654E+05  4.776343E+04  1.199234E+04  4.590773E+04
       174  26 -5.083652E+05 -1.436434E+05 -9.736564E+04  4.333850E+04  4.727318E+03  4.637006E+04
       174  27 -4.720814E+05 -1.340294E+05 -8.746063E+04  4.546192E+04 -2.535327E+03  4.490295E+04
       175   1  6.757505E+05  1.283489E+05  7.746563E+04  4.706208E+04 -7.297377E+03 -4.342612E+04
       175   2  6.386966E+05  1.199577E+05  7.289745E+04  4.372699E+04 -7.043885E+03 -4.088266E+04
       175   3  6.015949E+05  1.115257E+05  6.815280E+04  4.707132E+04 -6.791586E+03 -3.810843E+04
       175   4  1.134137E+05 -9.519531E+01 -2.678664E+03  4.637939E+04 -2.105783E+03 -4.342240E+04
       175   5  1.134878E+05  8.065232E+01 -1.509252E+03  4.303934E+04 -1.359616E+03 -4.087734E+04
       175   6  1.134269E+05  1.302422E+02 -8.586352E+02  4.637903E+04 -6.146271E+02 -3.810140E+04
       175   7 -4.486035E+05 -1.285536E+05 -8.282747E+04  4.569723E+04  3.081315E+03 -4.341870E+04
       175   8 -4.114421E+05 -1.198087E+05 -7.591969E+04  4.235219E+04  4.320056E+03 -4.087203E+04
       175   9 -3.744999E+05 -1.112759E+05 -6.987321E+04  4.568721E+04  5.557689E+03 -3.809437E+04
       175  10  6.757499E+05  1.283469E+05  7.746199E+04  4.706182E+04 -7.079039E-08  2.045883E-09
       175  11  6.386961E+05  1.199558E+05  7.289421E+04  4.372676E+04  3.735884E-09  9.955036E-10
       175  12  6.015944E+05  1.115241E+05  6.814998E+04  4.707111E+04  6.982819E-08 -8.197230E-10
       175  13  1.134132E+05 -9.722130E+01 -2.682216E+03  4.637932E+04 -8.925019E-11 -3.744678E-09
       175  14  1.134873E+05  7.885742E+01 -1.512395E+03  4.303930E+04 -3.469340E-09  9.649385E-10
       175  15  1.134265E+05  1.286832E+02 -8.613641E+02  4.637902E+04  1.038345E-09  2.244923E-09
       175  16 -4.486040E+05 -1.285556E+05 -8.283103E+04  4.569734E+04  6.690314E-08 -2.348678E-09
       175  17 -4.114426E+05 -1.198105E+05 -7.592286E+04  4.235233E+04  1.431430E-09  7.515465E-10
       175  18 -3.745004E+05 -1.112775E+05 -6.987600E+04  4.568738E+04 -6.586143E-08 -1.111646E-10
       175  19  6.757505E+05  1.283489E+05  7.746563E+04  4.706208E+04  7.297377E+03  4.342612E+04
       175  20  6.386966E+05  1.199577E+05  7.289745E+04  4.372699E+04  7.043885E+03  4.088266E+04
       175  21  6.015949E+05  1.115257E+05  6.815280E+04  4.707132E+04  6.791586E+03  3.810843E+04
       175  22  1.134137E+05 -9.519531E+01 -2.678664E+03  4.637939E+04  2.105783E+03  4.342240E+04
       175  23  1.134878E+05  8.065232E+01 -1.509252E+03  4.303934E+04  1.359616E+03  4.087734E+04
       175  24  1.134269E+05  1.302422E+02 -8.586352E+02  4.637903E+04  6.146271E+02  3.810140E+04
       175  25 -4.486035E+05 -1.285536E+05 -8.282747E+04  4.569723E+04 -3.081315E+03  4.341870E+04
       175  26 -4.114421E+05 -1.198087E+05 -7.591969E+04  4.235219E+04 -4.320056E+03  4.087203E+04
       175  27 -3.744999E+05 -1.112759E+05 -6.987321E+04  4.568721E+04 -5.557689E+03  3.809437E+04
       176   1  5.784123E+05  1.061993E+05  6.491615E+04  4.702990E+04 -6.660038E+03 -3.641788E+04
       176   2  5.413667E+05  9.774527E+04  5.997877E+04  4.363927E+04 -6.542427E+03 -3.351403E+04
       176   3  5.042988E+05  8.931732E+04  5.496696E+04  4.693993E+04 -6.425593E+03 -3.058288E+04
       176   4  1.134534E+05  1.318743E+02 -6.480746E+02  4.638171E+04 -4.819251E+02 -3.641033E+04
       176   5  1.134760E+05  1.310424E+02 -3.629955E+02  4.303593E+04 -3.063157E+02 -3.350559E+04
       176   6  1.134641E+05  1.460831E+02 -1.929496E+02  4.638169E+04 -1.314776E+02 -3.057355E+04
       176   7 -3.512867E+05 -1.059452E+05 -6.621508E+04  4.573392E+04  5.691766E+03 -3.640279E+04
       176   8 -3.142294E+05 -9.749137E+04 -6.070710E+04  4.243293E+04  5.925688E+03 -3.349716E+04
       176   9 -2.772159E+05 -8.903198E+04 -5.535479E+04  4.582376E+04  6.158851E+03 -3.056422E+04
       176  10  5.784119E+05  1.061979E+05  6.491357E+04  4.702971E+04 -1.257520E-07 -2.244515E-09
       176  11  5.413664E+05  9.774405E+04  5.997658E+04  4.363910E+04 -1.974862E-09  1.693939E-09
       176  12  5.042985E+05  8.931630E+04  5.496513E+04  4.693977E+04  1.281106E-07  2.770502E-09
       176  13  1.134530E+05  1.304506E+02 -6.505664E+02  4.638169E+04 -3.754157E-11 -5.822888E-10
       176  14  1.134757E+05  1.298368E+02 -3.651054E+02  4.303592E+04 -2.236581E-10  2.922935E-09
       176  15  1.134639E+05  1.450793E+02 -1.947063E+02  4.638169E+04 -3.600615E-09 -2.078385E-11
       176  16 -3.512871E+05 -1.059466E+05 -6.621763E+04  4.573409E+04  1.259497E-07 -1.731807E-10
       176  17 -3.142297E+05 -9.749258E+04 -6.070927E+04  4.243309E+04  3.866507E-09  8.842992E-11
       176  18 -2.772161E+05 -8.903300E+04 -5.535662E+04  4.582391E+04 -1.284711E-07 -1.084345E-09
       176  19  5.784123E+05  1.061993E+05  6.491615E+04  4.702990E+04  6.660038E+03  3.641788E+04
       176  20  5.413667E+05  9.774527E+04  5.997877E+04  4.363927E+04  6.542427E+03  3.351403E+04
       176  21  5.042988E+05  8.931732E+04  5.496696E+04  4.693993E+04  6.425593E+03  3.058288E+04
       176  22  1.134534E+05  1.318743E+02 -6.480746E+02  4.638171E+04  4.819251E+02  3.641033E+04
       176  23  1.134760E+05  1.310424E+02 -3.629955E+02  4.303593E+04  3.063157E+02  3.350559E+04
       176  24  1.134641E+05  1.460831E+02 -1.929496E+02  4.638169E+04  1.314776E+02  3.057355E+04
       176  25 -3.512867E+05 -1.059452E+05 -6.621508E+04  4.573392E+04 -5.691766E+03  3.640279E+04
       176  26 -3.142294E+05 -9.749137E+04 -6.070710E+04  4.243293E+04 -5.925688E+03  3.349716E+04
       176  27 -2.772159E+05 -8.903198E+04 -5.535479E+04  4.582376E+04 -6.158851E+03  3.056422E+04
       177   1  4.811204E+05  8.400358E+04  5.161760E+04  4.691264E+04 -6.397938E+03 -2.886808E+04
       177   2  4.440883E+05  7.555838E+04  4.654884E+04  4.352173E+04 -6.386522E+03 -2.592217E+04
       177   3  4.070395E+05  6.714107E+04  4.147255E+04  4.682473E+04 -6.375675E+03 -2.297364E+04
       177   4  1.134710E+05  1.482989E+02 -1.342628E+02  4.638227E+04 -1.043487E+02 -2.885833E+04
       177   5  1.134844E+05  1.399956E+02 -4.376514E+01  4.303521E+04 -8.747178E+01 -2.591179E+04
       177   6  1.134794E+05  1.588120E+02  3.547429E+01  4.638226E+04 -7.116210E+01 -2.296263E+04
       177   7 -2.540415E+05 -8.371301E+04 -5.188778E+04  4.585216E+04  6.185679E+03 -2.884859E+04
       177   8 -2.170088E+05 -7.528327E+04 -4.663769E+04  4.254891E+04  6.208372E+03 -2.590142E+04
       177   9 -1.799935E+05 -6.682729E+04 -4.140263E+04  4.593997E+04  6.230501E+03 -2.295163E+04
       177  10  4.811202E+05  8.400268E+04  5.161595E+04  4.691249E+04  5.698285E-09 -6.735667E-10
       177  11  4.440881E+05  7.555765E+04  4.654750E+04  4.352160E+04  4.159471E-09 -1.257065E-09
       177  12  4.070394E+05  6.714050E+04  4.147148E+04  4.682461E+04 -6.011137E-10  1.337564E-09
       177  13  1.134708E+05  1.474046E+02 -1.358279E+02  4.638227E+04  7.314740E-11  4.654191E-09
       177  14  1.134842E+05  1.392746E+02 -4.502695E+01  4.303521E+04  4.105170E-09  1.456343E-09
       177  15  1.134792E+05  1.582458E+02  3.448336E+01  4.638226E+04 -5.988006E-09  4.452499E-10
       177  16 -2.540418E+05 -8.371392E+04 -5.188942E+04  4.585230E+04 -7.529532E-09  1.728691E-09
       177  17 -2.170090E+05 -7.528400E+04 -4.663902E+04  4.254904E+04 -1.740080E-09  5.372332E-10
       177  18 -1.799937E+05 -6.682787E+04 -4.140369E+04  4.594009E+04  4.246407E-09 -1.155066E-10
       177  19  4.811204E+05  8.400358E+04  5.161760E+04  4.691264E+04  6.397938E+03  2.886808E+04
       177  20  4.440883E+05  7.555838E+04  4.654884E+04  4.352173E+04  6.386522E+03  2.592217E+04
       177  21  4.070395E+05  6.714107E+04  4.147255E+04  4.682473E+04  6.375675E+03  2.297364E+04
       177  22  1.134710E+05  1.482989E+02 -1.342628E+02  4.638227E+04  1.043487E+02  2.885833E+04
       177  23  1.134844E+05  1.399956E+02 -4.376514E+01  4.303521E+04  8.747178E+01  2.591179E+04
       177  24  1.134794E+05  1.588120E+02  3.547429E+01  4.638226E+04  7.116210E+01  2.296263E+04
       177  25 -2.540415E+05 -8.371301E+04 -5.188778E+04  4.585216E+04 -6.185679E+03  2.884859E+04
       177  26 -2.170088E+05 -7.528327E+04 -4.663769E+04  4.254891E+04 -6.208372E+03  2.590142E+04
       177  27 -1.799935E+05 -6.682729E+04 -4.140263E+04  4.593997E+04 -6.230501E+03  2.295163E+04
       178   1  3.838716E+05  6.183040E+04  3.811115E+04  4.679756E+04 -6.387986E+03 -2.125667E+04
       178   2  3.468452E+05  5.339201E+04  3.306304E+04  4.339879E+04 -6.477657E+03 -1.830840E+04
       178   3  3.098150E+05  4.499966E+04  2.807614E+04  4.669094E+04 -6.567714E+03 -1.536287E+04
       178   4  1.134850E+05  1.612578E+02  7.685613E+01  4.638160E+04 -8.406070E+01 -2.124536E+04
       178   5  1.134900E+05  1.566938E+02  1.821455E+02  4.303603E+04 -1.797638E+02 -1.829666E+04
       178   6  1.134908E+05  1.992620E+02  3.527268E+02  4.638153E+04 -2.758590E+02 -1.535071E+04
       178   7 -1.568275E+05 -6.151114E+04 -3.795826E+04  4.596578E+04  6.217241E+03 -2.123405E+04
       178   8 -1.198099E+05 -5.308104E+04 -3.269934E+04  4.267339E+04  6.115866E+03 -1.828493E+04
       178   9 -8.279418E+04 -4.460285E+04 -2.737106E+04  4.607221E+04  6.014094E+03 -1.533856E+04
       178  10  3.838714E+05  6.182991E+04  3.811022E+04  4.679745E+04  2.956090E-09  4.930762E-09
       178  11  3.468451E+05  5.339164E+04  3.306233E+04  4.339869E+04 -3.590510E-08  1.148761E-09
       178  12  3.098148E+05  4.499940E+04  2.807561E+04  4.669086E+04 -7.115835E-08  4.783390E-09
       178  13  1.134848E+05  1.607731E+02  7.600787E+01  4.638159E+04 -2.159288E-09 -1.108806E-09
       178  14  1.134899E+05  1.563343E+02  1.815163E+02  4.303603E+04 -3.497013E-09 -8.537700E-09
       178  15  1.134908E+05  1.990089E+02  3.522838E+02  4.638153E+04 -2.817710E-09 -1.257805E-08
       178  16 -1.568277E+05 -6.151163E+04 -3.795918E+04  4.596589E+04 -1.365324E-09  1.916011E-09
       178  17 -1.198101E+05 -5.308141E+04 -3.270003E+04  4.267348E+04  3.992502E-08 -3.279185E-09
       178  18 -8.279429E+04 -4.460311E+04 -2.737157E+04  4.607228E+04  7.047232E-08  2.394268E-09
       178  19  3.838716E+05  6.183040E+04  3.811115E+04  4.679756E+04  6.387986E+03  2.125667E+04
       178  20  3.468452E+05  5.339201E+04  3.306304E+04  4.339879E+04  6.477657E+03  1.830840E+04
       178  21  3.098150E+05  4.499966E+04  2.807614E+04  4.669094E+04  6.567714E+03  1.536287E+04
       178  22  1.134850E+05  1.612578E+02  7.685613E+01  4.638160E+04  8.406070E+01  2.124536E+04
       178  23  1.134900E+05  1.566938E+02  1.821455E+02  4.303603E+04  1.797638E+02  1.829666E+04
       178  24  1.134908E+05  1.992620E+02  3.527268E+02  4.638153E+04  2.758590E+02  1.535071E+04
       178  25 -1.568275E+05 -6.151114E+04 -3.795826E+04  4.596578E+04 -6.217241E+03  2.123405E+04
       178  26 -1.198099E+05 -5.308104E+04 -3.269934E+04  4.267339E+04 -6.115866E+03  1.828493E+04
       178  27 -8.279418E+04 -4.460285E+04 -2.737106E+04  4.607221E+04 -6.014094E+03  1.533856E+04
       179   1  2.866721E+05  3.969605E+04  2.479221E+04  4.668372E+04 -6.640786E+03 -1.364857E+04
       179   2  2.496077E+05  3.136028E+04  1.999725E+04  4.312759E+04 -7.021327E+03 -1.071726E+04
       179   3  2.126346E+05  2.331202E+04  1.551221E+04  4.625866E+04 -7.402026E+03 -7.810261E+03
       179   4  1.135153E+05  2.084848E+02  4.742526E+02  4.638078E+04 -3.495524E+02 -1.363621E+04
       179   5  1.134678E+05  3.093958E+02  8.531897E+02  4.303665E+04 -7.821918E+02 -1.070475E+04
       179   6  1.135186E+05  7.067777E+02  1.577953E+03  4.637979E+04 -1.215009E+03 -7.797611E+03
       179   7 -5.961117E+04 -3.928040E+04 -2.384395E+04  4.607792E+04  5.940004E+03 -1.362385E+04
       179   8 -2.265330E+04 -3.074229E+04 -1.829097E+04  4.294573E+04  5.455635E+03 -1.069224E+04
       179   9  1.441274E+04 -2.189888E+04 -1.235629E+04  4.650090E+04  4.971064E+03 -7.784957E+03
       179  10  2.866720E+05  3.969584E+04  2.479177E+04  4.668364E+04  8.452321E-08  7.318037E-09
       179  11  2.496076E+05  3.136014E+04  1.999695E+04  4.312753E+04  2.828932E-08 -7.232082E-10
       179  12  2.126345E+05  2.331194E+04  1.551199E+04  4.625862E+04 -3.121339E-08 -1.471350E-09
       179  13  1.135152E+05  2.082851E+02  4.739029E+02  4.638078E+04  2.099795E-09 -1.008791E-08
       179  14  1.134677E+05  3.092726E+02  8.529732E+02  4.303665E+04 -2.421074E-09  2.057585E-09
       179  15  1.135186E+05  7.067120E+02  1.577836E+03  4.637979E+04  2.056302E-09  9.154275E-09
       179  16 -5.961126E+04 -3.928061E+04 -2.384436E+04  4.607799E+04 -8.511785E-08  3.873789E-09
       179  17 -2.265336E+04 -3.074242E+04 -1.829125E+04  4.294577E+04 -3.132602E-08 -1.231940E-09
       179  18  1.441270E+04 -2.189896E+04 -1.235645E+04  4.650093E+04  2.959089E-08 -1.010257E-08
       179  19  2.866721E+05  3.969605E+04  2.479221E+04  4.668372E+04  6.640786E+03  1.364857E+04
       179  20  2.496077E+05  3.136028E+04  1.999725E+04  4.312759E+04  7.021327E+03  1.071726E+04
       179  21  2.126346E+05  2.331202E+04  1.551221E+04  4.625866E+04  7.402026E+03  7.810261E+03
       179  22  1.135153E+05  2.084848E+02  4.742526E+02  4.638078E+04  3.495524E+02  1.363621E+04
       179  23  1.134678E+05  3.093958E+02  8.531897E+02  4.303665E+04  7.821918E+02  1.070475E+04
       179  24  1.135186E+05  7.067777E+02  1.577953E+03  4.637979E+04  1.215009E+03  7.797611E+03
       179  25 -5.961117E+04 -3.928040E+04 -2.384395E+04  4.607792E+04 -5.940004E+03  1.362385E+04
       179  26 -2.265330E+04 -3.074229E+04 -1.829097E+04  4.294573E+04 -5.455635E+03  1.069224E+04
       179  27  1.441274E+04 -2.189888E+04 -1.235629E+04  4.650090E+04 -4.971064E+03  7.784957E+03
       180   1  1.896754E+05  1.813480E+04  1.260139E+04  4.646732E+04 -7.675934E+03 -6.118306E+03
       180   2  1.521737E+05  1.127136E+04  9.019700E+03  4.067164E+04 -9.235675E+03 -3.327584E+03
       180   3  1.156643E+05  7.695863E+03  7.265027E+03  4.154470E+04 -1.079503E+04 -7.387817E+02
       180   4  1.137345E+05  8.500098E+02  2.105541E+03  4.637675E+04 -1.491064E+03 -6.105562E+03
       180   5  1.132017E+05  2.462372E+03  3.881305E+03  4.303572E+04 -3.482271E+03 -3.315699E+03
       180   6  1.137351E+05  7.437788E+03  7.783714E+03  4.636336E+04 -5.473178E+03 -7.277743E+02
       180   7  3.779950E+04 -1.643502E+04 -8.390229E+03  4.628619E+04  4.693085E+03 -6.092819E+03
       180   8  7.423133E+04 -6.346647E+03 -1.256974E+03  4.539966E+04  2.270789E+03 -3.303769E+03
       180   9  1.118061E+05  7.179816E+03  8.302521E+03  5.118200E+04 -1.513376E+02 -7.166842E+02
       180  10  1.896754E+05  1.813475E+04  1.260121E+04  4.646729E+04  4.010511E-08 -2.133358E-09
       180  11  1.521736E+05  1.127133E+04  9.019519E+03  4.067161E+04  9.320651E-09 -5.934011E-09
       180  12  1.156642E+05  7.695831E+03  7.264807E+03  4.154469E+04 -2.180102E-08 -1.674497E-09
       180  13  1.137345E+05  8.499691E+02  2.105467E+03  4.637675E+04  2.232802E-09  1.587381E-08
       180  14  1.132017E+05  2.462356E+03  3.881262E+03  4.303572E+04  1.821561E-09  3.670518E-09
       180  15  1.137351E+05  7.437780E+03  7.783656E+03  4.636335E+04  3.759254E-09  4.729150E-09
       180  16  3.779947E+04 -1.643506E+04 -8.390340E+03  4.628621E+04 -3.949658E-08 -4.168018E-09
       180  17  7.423132E+04 -6.346660E+03 -1.257004E+03  4.539966E+04 -1.226839E-08  1.342086E-09
       180  18  1.118061E+05  7.179816E+03  8.302520E+03  5.118200E+04  2.414969E-08  2.567381E-10
       180  19  1.896754E+05  1.813480E+04  1.260139E+04  4.646732E+04  7.675934E+03  6.118306E+03
       180  20  1.521737E+05  1.127136E+04  9.019700E+03  4.067164E+04  9.235675E+03  3.327584E+03
       180  21  1.156643E+05  7.695863E+03  7.265027E+03  4.154470E+04  1.079503E+04  7.387817E+02
       180  22  1.137345E+05  8.500098E+02  2.105541E+03  4.637675E+04  1.491064E+03  6.105562E+03
       180  23  1.132017E+05  2.462372E+03  3.881305E+03  4.303572E+04  3.482271E+03  3.315699E+03
       180  24  1.137351E+05  7.437788E+03  7.783714E+03  4.636336E+04  5.473178E+03  7.277743E+02
       180  25  3.779950E+04 -1.643502E+04 -8.390229E+03  4.628619E+04 -4.693085E+03  6.092819E+03
       180  26  7.423133E+04 -6.346647E+03 -1.256974E+03  4.539966E+04 -2.270789E+03  3.303769E+03
       180  27  1.118061E+05  7.179816E+03  8.302521E+03  5.118200E+04  1.513376E+02  7.166842E+02
       181   1 -2.318353E+03  3.797483E+05 -7.492747E+02 -2.398564E+04 -8.587036E+02 -9.835313E+02
       181   2 -1.206810E+04  3.571726E+05 -6.224527E+03 -1.919363E+04 -3.397195E+03 -2.183108E+03
       181   3 -1.813990E+04  3.356605E+05 -1.000354E+04 -2.009842E+04 -5.293654E+03 -3.382048E+03
       181   4  5.736998E+03  4.126821E+05  6.646281E+03 -2.048007E+04 -8.625574E+02  3.275039E+03
       181   5  9.876160E+02  4.120675E+05  4.199629E+03 -1.763417E+04 -3.400117E+03  1.119558E+03
       181   6  8.197799E+01  4.126822E+05  4.112747E+03 -2.048498E+04 -5.295665E+03 -1.035334E+03
       181   7  1.379233E+04  4.456170E+05  1.404184E+04 -1.697432E+04 -8.663630E+02  7.533832E+03
       181   8  1.404317E+04  4.669654E+05  1.462369E+04 -1.607458E+04 -3.403023E+03  4.422509E+03
       181   9  1.830353E+04  4.897097E+05  1.822881E+04 -2.087160E+04 -5.297679E+03  1.311664E+03
       181  10 -2.318354E+03  3.797483E+05 -7.492779E+02 -2.398564E+04  6.006351E-10  7.069201E-09
       181  11 -1.206811E+04  3.571726E+05 -6.224558E+03 -1.919364E+04 -2.152991E-09 -2.377542E-09
       181  12 -1.813994E+04  3.356605E+05 -1.000361E+04 -2.009843E+04  1.592502E-09 -7.509510E-09
       181  13  5.736994E+03  4.126821E+05  6.646259E+03 -2.048007E+04  4.065278E-09 -6.088811E-11
       181  14  9.876033E+02  4.120675E+05  4.199605E+03 -1.763417E+04 -2.380952E-09 -1.727740E-09
       181  15  8.194758E+01  4.126822E+05  4.112692E+03 -2.048499E+04  7.438707E-10  2.222770E-09
       181  16  1.379232E+04  4.456170E+05  1.404173E+04 -1.697431E+04  4.929703E-09 -7.968602E-09
       181  17  1.404315E+04  4.669654E+05  1.462363E+04 -1.607456E+04  6.988635E-09  3.019664E-10
       181  18  1.830350E+04  4.897097E+05  1.822876E+04 -2.087160E+04 -1.589717E-09  9.835833E-09
       181  19 -2.318353E+03  3.797483E+05 -7.492747E+02 -2.398564E+04  8.587036E+02  9.835313E+02
       181  20 -1.206810E+04  3.571726E+05 -6.224527E+03 -1.919363E+04  3.397195E+03  2.183108E+03
       181  21 -1.813990E+04  3.356605E+05 -1.000354E+04 -2.009842E+04  5.293654E+03  3.382048E+03
       181  22  5.736998E+03  4.126821E+05  6.646281E+03 -2.048007E+04  8.625574E+02 -3.275039E+03
       181  23  9.876160E+02  4.120675E+05  4.199629E+03 -1.763417E+04  3.400117E+03 -1.119558E+03
       181  24  8.197799E+01  4.126822E+05  4.112747E+03 -2.048498E+04  5.295665E+03  1.035334E+03
       181  25  1.379233E+04  4.456170E+05  1.404184E+04 -1.697432E+04  8.663630E+02 -7.533832E+03
       181  26  1.404317E+04  4.669654E+05  1.462369E+04 -1.607458E+04  3.403023E+03 -4.422509E+03
       181  27  1.830353E+04  4.897097E+05  1.822881E+04 -2.087160E+04  5.297679E+03 -1.311664E+03
       182   1 -2.154171E+04  3.207771E+05 -1.231009E+04 -2.087361E+04 -6.232464E+03 -4.268992E+03
       182   2 -2.672105E+04  2.983422E+05 -1.432276E+04 -1.746761E+04 -7.709834E+03 -6.973680E+03
       182   3 -3.039860E+04  2.766255E+05 -1.420235E+04 -1.970638E+04 -8.774956E+03 -9.677827E+03
       182   4  1.932540E+02  4.125916E+05  4.592482E+03 -2.047288E+04 -6.234576E+03 -1.759774E+03
       182   5  2.320220E+02  4.121783E+05  6.650215E+03 -1.764981E+04 -7.711315E+03 -5.078679E+03
       182   6  1.878985E+03  4.125890E+05  1.126703E+04 -2.047142E+04 -8.775839E+03 -8.397136E+03
       182   7  2.192774E+04  5.044142E+05  2.149473E+04 -2.007209E+04 -6.236684E+03  7.498042E+02
       182   8  2.718436E+04  5.260269E+05  2.762267E+04 -1.783204E+04 -7.712797E+03 -3.183339E+03
       182   9  3.415550E+04  5.485705E+05  3.673562E+04 -2.123664E+04 -8.776726E+03 -7.116171E+03
       182  10 -2.154176E+04  3.207771E+05 -1.231020E+04 -2.087363E+04  2.401043E-10 -7.627278E-09
       182  11 -2.672112E+04  2.983422E+05 -1.432296E+04 -1.746765E+04 -1.718544E-09  2.686469E-09
       182  12 -3.039871E+04  2.766254E+05 -1.420267E+04 -1.970645E+04 -5.897209E-09  1.726249E-08
       182  13  1.932114E+02  4.125916E+05  4.592403E+03 -2.047289E+04 -6.115169E-09 -8.978099E-11
       182  14  2.319512E+02  4.121782E+05  6.650054E+03 -1.764984E+04 -5.006752E-09 -1.740396E-09
       182  15  1.878883E+03  4.125890E+05  1.126675E+04 -2.047148E+04 -7.605210E-09  2.002809E-09
       182  16  2.192770E+04  5.044142E+05  2.149466E+04 -2.007209E+04 -2.992738E-09  6.688417E-09
       182  17  2.718429E+04  5.260269E+05  2.762253E+04 -1.783206E+04  5.983232E-11 -4.649990E-09
       182  18  3.415541E+04  5.485704E+05  3.673538E+04 -2.123669E+04 -6.508613E-09 -1.499787E-08
       182  19 -2.154171E+04  3.207771E+05 -1.231009E+04 -2.087361E+04  6.232464E+03  4.268992E+03
       182  20 -2.672105E+04  2.983422E+05 -1.432276E+04 -1.746761E+04  7.709834E+03  6.973680E+03
       182  21 -3.039860E+04  2.766255E+05 -1.420235E+04 -1.970638E+04  8.774956E+03  9.677827E+03
       182  22  1.932540E+02  4.125916E+05  4.592482E+03 -2.047288E+04  6.234576E+03  1.759774E+03
       182  23  2.320220E+02  4.121783E+05  6.650215E+03 -1.764981E+04  7.711315E+03  5.078679E+03
       182  24  1.878985E+03  4.125890E+05  1.126703E+04 -2.047142E+04  8.775839E+03  8.397136E+03
       182  25  2.192774E+04  5.044142E+05  2.149473E+04 -2.007209E+04  6.236684E+03 -7.498042E+02
       182  26  2.718436E+04  5.260269E+05  2.762267E+04 -1.783204E+04  7.712797E+03  3.183339E+03
       182  27  3.415550E+04  5.485705E+05  3.673562E+04 -2.123664E+04  8.776726E+03  7.116171E+03
       183   1 -3.557349E+04  2.635257E+05 -1.393003E+04 -2.430959E+04 -9.623555E+03 -1.241840E+04
       183   2 -3.329180E+04  2.372498E+05 -9.084625E+03 -5.440847E+03 -8.578700E+03 -1.845919E+04
       183   3 -9.732252E+02  2.192649E+05  7.201659E+03  8.086657E+03 -2.633108E+03 -2.449611E+04
       183   4  2.886360E+02  4.145290E+05  1.447199E+04 -2.041001E+04 -9.625130E+03 -1.032167E+04
       183   5  8.175172E+03  4.097464E+05  2.570445E+04 -1.772152E+04 -8.574146E+03 -2.366003E+04
       183   6  4.735931E+04  4.145172E+05  5.344098E+04 -2.037367E+04 -2.622729E+03 -3.699481E+04
       183   7  3.614950E+04  5.655544E+05  4.287304E+04 -1.650946E+04 -9.626679E+03 -8.224443E+03
       183   8  4.964088E+04  5.822718E+05  6.049217E+04 -3.000567E+04 -8.569386E+03 -2.886229E+04
       183   9  9.569223E+04  6.098065E+05  9.967867E+04 -4.884299E+04 -2.611206E+03 -4.949743E+04
       183  10 -3.557363E+04  2.635255E+05 -1.393050E+04 -2.430968E+04 -3.038931E-09 -1.831179E-08
       183  11 -3.329197E+04  2.372494E+05 -9.085403E+03 -5.440975E+03 -1.275335E-10 -9.041141E-09
       183  12 -9.733937E+02  2.192643E+05  7.200519E+03  8.086605E+03  1.294195E-09  5.308391E-09
       183  13  2.885080E+02  4.145289E+05  1.447161E+04 -2.041009E+04 -4.240253E-09  2.754696E-11
       183  14  8.174943E+03  4.097458E+05  2.570326E+04 -1.772168E+04  2.572248E-09 -1.512843E-09
       183  15  4.735894E+04  4.145157E+05  5.343839E+04 -2.037375E+04  5.291287E-09  1.803691E-09
       183  16  3.614939E+04  5.655543E+05  4.287274E+04 -1.650953E+04 -3.683580E-09  1.748254E-08
       183  17  4.964058E+04  5.822709E+05  6.049047E+04 -3.000587E+04 -1.849787E-09  7.075737E-09
       183  18  9.569156E+04  6.098039E+05  9.967405E+04 -4.884309E+04  3.114539E-09 -3.383483E-09
       183  19 -3.557349E+04  2.635257E+05 -1.393003E+04 -2.430959E+04  9.623555E+03  1.241840E+04
       183  20 -3.329180E+04  2.372498E+05 -9.084625E+03 -5.440847E+03  8.578700E+03  1.845919E+04
       183  21 -9.732252E+02  2.192649E+05  7.201659E+03  8.086657E+03  2.633108E+03  2.449611E+04
       183  22  2.886360E+02  4.145290E+05  1.447199E+04 -2.041001E+04  9.625130E+03  1.032167E+04
       183  23  8.175172E+03  4.097464E+05  2.570445E+04 -1.772152E+04  8.574146E+03  2.366003E+04
       183  24  4.735931E+04  4.145172E+05  5.344098E+04 -2.037367E+04  2.622729E+03  3.699481E+04
       183  25  3.614950E+04  5.655544E+05  4.287304E+04 -1.650946E+04  9.626679E+03  8.224443E+03
       183  26  4.964088E+04  5.822718E+05  6.049217E+04 -3.000567E+04  8.569386E+03  2.886229E+04
       183  27  9.569223E+04  6.098065E+05  9.967867E+04 -4.884299E+04  2.611206E+03  4.949743E+04
       184   1  9.649809E+05  3.415898E+05  1.709847E+05  3.577627E+05  6.575869E+04  1.343332E+04
       184   2  9.135016E+05  3.146925E+05  1.225236E+05  3.422507E+05  4.263568E+04 -2.217280E+04
       184   3  8.619132E+05  2.990214E+05  9.907241E+04  3.339464E+05  1.343304E+04 -4.159222E+04
       184   4  2.776368E+05  8.602571E+04 -3.191849E+03  1.711110E+05  1.632188E+03 -1.068959E+04
       184   5  2.811191E+05  8.485065E+04 -1.520513E+03  1.670637E+05  1.129504E+04 -3.396915E+04
       184   6  2.780041E+05  8.841632E+04 -7.876075E+02  1.702238E+05  1.487064E+04 -4.105576E+04
       184   7 -4.092079E+05 -1.694947E+05 -1.773804E+05 -1.534437E+04 -6.241393E+04 -3.478272E+04
       184   8 -3.508328E+05 -1.449501E+05 -1.255745E+05 -7.954067E+03 -2.001067E+04 -4.575247E+04
       184   9 -3.055418E+05 -1.221543E+05 -1.006567E+05  6.645467E+03  1.630681E+04 -4.051984E+04
       184  10  9.649762E+05  3.415885E+05  1.709762E+05  3.577620E+05  6.158580E-08  2.297900E-08
       184  11  9.134995E+05  3.146914E+05  1.225192E+05  3.422514E+05 -2.449619E-09 -2.116717E-09
       184  12  8.619125E+05  2.990195E+05  9.906882E+04  3.339468E+05 -5.920295E-08 -2.431303E-08
       184  13  2.776368E+05  8.602558E+04 -3.192069E+03  1.711110E+05  1.828448E-09  1.257497E-09
       184  14  2.811187E+05  8.484938E+04 -1.522922E+03  1.670640E+05  2.105418E-09 -1.419640E-09
       184  15  2.780034E+05  8.841445E+04 -7.911912E+02  1.702243E+05  2.009186E-09  1.032838E-09
       184  16 -4.092124E+05 -1.694970E+05 -1.773900E+05 -1.534612E+04 -5.854795E-08 -2.105718E-08
       184  17 -3.508338E+05 -1.449524E+05 -1.255792E+05 -7.954805E+03  6.224328E-09  1.719468E-09
       184  18 -3.055425E+05 -1.221562E+05 -1.006603E+05  6.645999E+03  6.264137E-08  2.833594E-08
       184  19  9.649809E+05  3.415898E+05  1.709847E+05  3.577627E+05 -6.575869E+04 -1.343332E+04
       184  20  9.135016E+05  3.146925E+05  1.225236E+05  3.422507E+05 -4.263568E+04  2.217280E+04
       184  21  8.619132E+05  2.990214E+05  9.907241E+04  3.339464E+05 -1.343304E+04  4.159222E+04
       184  22  2.776368E+05  8.602571E+04 -3.191849E+03  1.711110E+05 -1.632188E+03  1.068959E+04
       184  23  2.811191E+05  8.485065E+04 -1.520513E+03  1.670637E+05 -1.129504E+04  3.396915E+04
       184  24  2.780041E+05  8.841632E+04 -7.876075E+02  1.702238E+05 -1.487064E+04  4.105576E+04
       184  25 -4.092079E+05 -1.694947E+05 -1.773804E+05 -1.534437E+04  6.241393E+04  3.478272E+04
       184  26 -3.508328E+05 -1.449501E+05 -1.255745E+05 -7.954067E+03  2.001067E+04  4.575247E+04
       184  27 -3.055418E+05 -1.221543E+05 -1.006567E+05  6.645467E+03 -1.630681E+04  4.051984E+04
       185   1  8.291673E+05  2.870509E+05  9.162682E+04  3.250749E+05  1.395344E+04 -4.035360E+04
       185   2  7.820427E+05  2.650023E+05  7.976237E+04  3.072607E+05  1.017035E+04 -4.042145E+04
       185   3  7.287010E+05  2.504322E+05  7.052838E+04  2.973079E+05  5.737343E+03 -3.876491E+04
       185   4  2.779131E+05  8.865505E+04 -5.863371E+02  1.704543E+05  1.461500E+04 -4.010888E+04
       185   5  2.813897E+05  8.535945E+04 -3.065124E+02  1.664903E+05  1.432417E+04 -3.886122E+04
       185   6  2.779567E+05  8.885172E+04 -1.607775E+02  1.703871E+05  1.338292E+04 -3.588844E+04
       185   7 -2.730243E+05 -1.097128E+05 -9.280900E+04  1.596022E+04  1.527595E+04 -3.986440E+04
       185   8 -2.189976E+05 -9.425855E+04 -8.038112E+04  2.582536E+04  1.847447E+04 -3.730232E+04
       185   9 -1.725692E+05 -7.270741E+04 -7.085325E+04  4.355290E+04  2.102263E+04 -3.301418E+04
       185  10  8.291667E+05  2.870491E+05  9.162339E+04  3.250754E+05  1.109775E-08 -6.991283E-10
       185  11  7.820421E+05  2.650005E+05  7.975911E+04  3.072611E+05  1.823667E-08 -6.779468E-10
       185  12  7.287006E+05  2.504306E+05  7.052550E+04  2.973081E+05  1.353637E-08 -6.502694E-09
       185  13  2.779124E+05  8.865326E+04 -5.897622E+02  1.704548E+05  2.277726E-09  7.499073E-09
       185  14  2.813891E+05  8.535777E+04 -3.097365E+02  1.664907E+05 -1.025902E-08  1.694879E-08
       185  15  2.779561E+05  8.885029E+04 -1.635349E+02  1.703875E+05 -2.399720E-08  8.702615E-09
       185  16 -2.730250E+05 -1.097146E+05 -9.281243E+04  1.596071E+04 -5.045860E-09  4.983719E-09
       185  17 -2.189984E+05 -9.426014E+04 -8.038438E+04  2.582591E+04 -5.153222E-09  2.160412E-09
       185  18 -1.725699E+05 -7.270870E+04 -7.085613E+04  4.355346E+04 -2.699786E-08 -1.067399E-08
       185  19  8.291673E+05  2.870509E+05  9.162682E+04  3.250749E+05 -1.395344E+04  4.035360E+04
       185  20  7.820427E+05  2.650023E+05  7.976237E+04  3.072607E+05 -1.017035E+04  4.042145E+04
       185  21  7.287010E+05  2.504322E+05  7.052838E+04  2.973079E+05 -5.737343E+03  3.876491E+04
       185  22  2.779131E+05  8.865505E+04 -5.863371E+02  1.704543E+05 -1.461500E+04  4.010888E+04
       185  23  2.813897E+05  8.535945E+04 -3.065124E+02  1.664903E+05 -1.432417E+04  3.886122E+04
       185  24  2.779567E+05  8.885172E+04 -1.607775E+02  1.703871E+05 -1.338292E+04  3.588844E+04
       185  25 -2.730243E+05 -1.097128E+05 -9.280900E+04  1.596022E+04 -1.527595E+04  3.986440E+04
       185  26 -2.189976E+05 -9.425855E+04 -8.038112E+04  2.582536E+04 -1.847447E+04  3.730232E+04
       185  27 -1.725692E+05 -7.270741E+04 -7.085325E+04  4.355290E+04 -2.102263E+04  3.301418E+04
       186   1  6.969930E+05  2.390348E+05  6.519935E+04  2.884343E+05  4.997053E+03 -3.647413E+04
       186   2  6.503777E+05  2.175961E+05  5.717351E+04  2.703910E+05  3.215946E+03 -3.277735E+04
       186   3  5.968841E+05  2.031862E+05  4.942127E+04  2.602790E+05  1.365133E+03 -2.889825E+04
       186   4  2.779496E+05  8.888016E+04 -1.182191E+02  1.704079E+05  1.255717E+04 -3.362907E+04
       186   5  2.814376E+05  8.542163E+04 -5.641617E+01  1.664386E+05  1.114519E+04 -2.979210E+04
       186   6  2.779706E+05  8.891892E+04 -1.393039E+01  1.704000E+05  9.663437E+03 -2.577273E+04
       186   7 -1.408995E+05 -6.125396E+04 -6.543708E+04  5.245767E+04  2.011181E+04 -3.078608E+04
       186   8 -8.735559E+04 -4.673831E+04 -5.728824E+04  6.254427E+04  1.906945E+04 -2.680872E+04
       186   9 -4.083697E+04 -2.533896E+04 -4.945149E+04  8.056351E+04  1.795733E+04 -2.264888E+04
       186  10  6.969926E+05  2.390333E+05  6.519681E+04  2.884345E+05 -6.153012E-08 -3.600962E-08
       186  11  6.503774E+05  2.175949E+05  5.717147E+04  2.703911E+05 -7.829202E-08 -3.438508E-08
       186  12  5.968839E+05  2.031853E+05  4.941970E+04  2.602790E+05 -1.053239E-07 -3.535421E-08
       186  13  2.779492E+05  8.887890E+04 -1.206411E+02  1.704082E+05 -2.821825E-08  1.205961E-09
       186  14  2.814372E+05  8.542065E+04 -5.831784E+01  1.664389E+05 -1.621600E-08 -1.987205E-08
       186  15  2.779703E+05  8.891818E+04 -1.535435E+01  1.704002E+05 -2.316534E-08 -4.978776E-08
       186  16 -1.409002E+05 -6.125508E+04 -6.543962E+04  5.245817E+04  4.908835E-08  1.763152E-08
       186  17 -8.735618E+04 -4.673918E+04 -5.729028E+04  6.254468E+04  7.147320E-08  3.479826E-08
       186  18 -4.083746E+04 -2.533960E+04 -4.945306E+04  8.056383E+04  5.955615E-08  3.621907E-08
       186  19  6.969930E+05  2.390348E+05  6.519935E+04  2.884343E+05 -4.997053E+03  3.647413E+04
       186  20  6.503777E+05  2.175961E+05  5.717351E+04  2.703910E+05 -3.215946E+03  3.277735E+04
       186  21  5.968841E+05  2.031862E+05  4.942127E+04  2.602790E+05 -1.365133E+03  2.889825E+04
       186  22  2.779496E+05  8.888016E+04 -1.182191E+02  1.704079E+05 -1.255717E+04  3.362907E+04
       186  23  2.814376E+05  8.542163E+04 -5.641617E+01  1.664386E+05 -1.114519E+04  2.979210E+04
       186  24  2.779706E+05  8.891892E+04 -1.393040E+01  1.704000E+05 -9.663437E+03  2.577273E+04
       186  25 -1.408995E+05 -6.125396E+04 -6.543708E+04  5.245767E+04 -2.011181E+04  3.078608E+04
       186  26 -8.735559E+04 -4.673831E+04 -5.728824E+04  6.254427E+04 -1.906945E+04  2.680872E+04
       186  27 -4.083697E+04 -2.533896E+04 -4.945149E+04  8.056351E+04 -1.795733E+04  2.264888E+04
       187   1  5.653230E+05  1.918513E+05  4.431208E+04  2.514060E+05  4.761602E+02 -2.650269E+04
       187   2  5.188053E+05  1.704880E+05  3.669857E+04  2.333485E+05 -1.124352E+03 -2.242040E+04
       187   3  4.653386E+05  1.560972E+05  2.912868E+04  2.232237E+05 -2.732125E+03 -1.832060E+04
       187   4  2.779729E+05  8.892515E+04  2.200848E+00  1.703998E+05  8.763508E+03 -2.338070E+04
       187   5  2.814575E+05  8.545075E+04  3.897505E+01  1.664327E+05  7.198236E+03 -1.928435E+04
       187   6  2.779832E+05  8.894141E+04  9.097186E+01  1.703972E+05  5.625704E+03 -1.517051E+04
       187   7 -9.287901E+03 -1.399209E+04 -4.430860E+04  8.942889E+04  1.704680E+04 -2.026025E+04
       187   8  4.417217E+04  4.201171E+02 -3.662077E+04  9.954138E+04  1.551741E+04 -1.614959E+04
       187   9  9.066817E+04  2.179031E+04 -2.894636E+04  1.175864E+05  1.398077E+04 -1.202146E+04
       187  10  5.653228E+05  1.918506E+05  4.431076E+04  2.514060E+05  2.171736E-08  2.008757E-08
       187  11  5.188052E+05  1.704875E+05  3.669762E+04  2.333485E+05  3.848754E-08  3.261378E-08
       187  12  4.653385E+05  1.560968E+05  2.912804E+04  2.232237E+05  5.583444E-08  3.626094E-08
       187  13  2.779726E+05  8.892455E+04  1.029051E+00  1.704000E+05 -3.238127E-08 -5.342320E-08
       187  14  2.814574E+05  8.545034E+04  3.817870E+01  1.664328E+05 -2.479577E-08 -3.344551E-08
       187  15  2.779831E+05  8.894115E+04  9.047981E+01  1.703973E+05 -8.995222E-09 -1.740358E-08
       187  16 -9.288324E+03 -1.399261E+04 -4.430992E+04  8.942917E+04 -8.296162E-08 -1.579675E-08
       187  17  4.417185E+04  4.197723E+02 -3.662172E+04  9.954158E+04 -8.362863E-08 -2.766374E-08
       187  18  9.066792E+04  2.179011E+04 -2.894700E+04  1.175865E+05 -6.805620E-08 -2.319299E-08
       187  19  5.653230E+05  1.918513E+05  4.431208E+04  2.514060E+05 -4.761602E+02  2.650269E+04
       187  20  5.188053E+05  1.704880E+05  3.669857E+04  2.333485E+05  1.124352E+03  2.242040E+04
       187  21  4.653386E+05  1.560972E+05  2.912868E+04  2.232237E+05  2.732125E+03  1.832060E+04
       187  22  2.779729E+05  8.892515E+04  2.200848E+00  1.703998E+05 -8.763508E+03  2.338070E+04
       187  23  2.814575E+05  8.545075E+04  3.897505E+01  1.664327E+05 -7.198236E+03  1.928435E+04
       187  24  2.779832E+05  8.894141E+04  9.097186E+01  1.703972E+05 -5.625704E+03  1.517051E+04
       187  25 -9.287901E+03 -1.399209E+04 -4.430860E+04  8.942889E+04 -1.704680E+04  2.026025E+04
       187  26  4.417217E+04  4.201171E+02 -3.662077E+04  9.954138E+04 -1.551741E+04  1.614959E+04
       187  27  9.066817E+04  2.179031E+04 -2.894636E+04  1.175864E+05 -1.398077E+04  1.202146E+04
       188   1  4.338121E+05  1.447680E+05  2.406449E+04  2.143556E+05 -3.654662E+03 -1.592258E+04
       188   2  3.873193E+05  1.234109E+05  1.656405E+04  1.963084E+05 -5.309725E+03 -1.183568E+04
       188   3  3.338791E+05  1.090218E+05  9.138909E+03  1.861930E+05 -6.961914E+03 -7.757190E+03
       188   4  2.779896E+05  8.894368E+04  1.263462E+02  1.703982E+05  4.701220E+03 -1.277289E+04
       188   5  2.814640E+05  8.545847E+04  2.361322E+02  1.664331E+05  3.028955E+03 -8.692103E+03
       188   6  2.779929E+05  8.894490E+04  4.349256E+02  1.703991E+05  1.359563E+03 -4.619740E+03
       188   7  1.221915E+05  3.312125E+04 -2.381239E+04  1.264507E+05  1.305499E+04 -9.623996E+03
       188   8  1.756203E+05  4.750704E+04 -1.609184E+04  1.365625E+05  1.136618E+04 -5.549071E+03
       188   9  2.221101E+05  6.886837E+04 -8.268819E+03  1.546066E+05  9.680251E+03 -1.482589E+03
       188  10  4.338121E+05  1.447678E+05  2.406399E+04  2.143555E+05 -3.180252E-09  1.179659E-08
       188  11  3.873192E+05  1.234108E+05  1.656373E+04  1.963084E+05 -8.416588E-09  1.946125E-09
       188  12  3.338790E+05  1.090217E+05  9.138705E+03  1.861930E+05 -1.080103E-08 -1.062248E-08
       188  13  2.779895E+05  8.894350E+04  1.259980E+02  1.703983E+05  2.893199E-10 -1.282735E-08
       188  14  2.814639E+05  8.545839E+04  2.359730E+02  1.664331E+05 -7.001444E-09 -1.688597E-09
       188  15  2.779928E+05  8.894488E+04  4.348820E+02  1.703991E+05 -6.304792E-11  1.011719E-08
       188  16  1.221913E+05  3.312110E+04 -2.381288E+04  1.264508E+05  4.977360E-09  5.055394E-10
       188  17  1.756201E+05  4.750697E+04 -1.609214E+04  1.365625E+05  1.342896E-08 -3.119647E-09
       188  18  2.221100E+05  6.886834E+04 -8.268999E+03  1.546066E+05  1.094042E-09 -8.857155E-09
       188  19  4.338121E+05  1.447680E+05  2.406449E+04  2.143556E+05  3.654662E+03  1.592258E+04
       188  20  3.873193E+05  1.234109E+05  1.656405E+04  1.963084E+05  5.309725E+03  1.183568E+04
       188  21  3.338791E+05  1.090218E+05  9.138909E+03  1.861930E+05  6.961914E+03  7.757190E+03
       188  22  2.779896E+05  8.894368E+04  1.263462E+02  1.703982E+05 -4.701220E+03  1.277289E+04
       188  23  2.814640E+05  8.545847E+04  2.361322E+02  1.664331E+05 -3.028955E+03  8.692103E+03
       188  24  2.779929E+05  8.894490E+04  4.349256E+02  1.703991E+05 -1.359563E+03  4.619740E+03
       188  25  1.221915E+05  3.312125E+04 -2.381239E+04  1.264507E+05 -1.305499E+04  9.623996E+03
       188  26  1.756203E+05  4.750704E+04 -1.609184E+04  1.365625E+05 -1.136618E+04  5.549071E+03
       188  27  2.221101E+05  6.886837E+04 -8.268819E+03  1.546066E+05 -9.680251E+03  1.482589E+03
       189   1  3.023670E+05  9.770012E+04  4.178073E+03  1.773470E+05 -7.953112E+03 -5.392553E+03
       189   2  2.558691E+05  7.632866E+04 -3.035149E+03  1.592823E+05 -9.826980E+03 -1.452741E+03
       189   3  2.024863E+05  6.198953E+04 -9.976640E+03  1.491371E+05 -1.166557E+04  2.393924E+03
       189   4  2.780111E+05  8.894234E+04  5.815687E+02  1.704057E+05  3.722720E+02 -2.253561E+03
       189   5  2.814438E+05  8.546388E+04  1.059286E+03  1.664251E+05 -1.690495E+03  1.614937E+03
       189   6  2.780259E+05  8.905462E+04  1.958016E+03  1.703628E+05 -3.718028E+03  5.390297E+03
       189   7  2.536564E+05  8.018479E+04 -3.014564E+03  1.634647E+05  8.697216E+03  8.852638E+02
       189   8  3.070194E+05  9.459921E+04  5.153992E+03  1.735682E+05  6.446345E+03  4.682746E+03
       189   9  3.535727E+05  1.161207E+05  1.389309E+04  1.915912E+05  4.230631E+03  8.387088E+03
       189  10  3.023669E+05  9.770007E+04  4.177900E+03  1.773470E+05  3.994056E-08  4.976898E-09
       189  11  2.558689E+05  7.632864E+04 -3.035334E+03  1.592823E+05  1.082397E-08 -1.665650E-09
       189  12  2.024861E+05  6.198949E+04 -9.976906E+03  1.491371E+05 -1.980600E-08 -9.749959E-09
       189  13  2.780111E+05  8.894233E+04  5.815589E+02  1.704057E+05 -2.732834E-09  1.291721E-08
       189  14  2.814438E+05  8.546387E+04  1.059276E+03  1.664251E+05 -3.143082E-09  7.702782E-09
       189  15  2.780259E+05  8.905459E+04  1.957935E+03  1.703628E+05 -1.787389E-08 -2.020865E-09
       189  16  2.536563E+05  8.018477E+04 -3.014708E+03  1.634647E+05 -4.643611E-08 -2.041733E-08
       189  17  3.070194E+05  9.459918E+04  5.153873E+03  1.735682E+05 -1.671526E-08 -3.877458E-09
       189  18  3.535727E+05  1.161206E+05  1.389292E+04  1.915912E+05  6.546001E-09  3.628287E-09
       189  19  3.023670E+05  9.770012E+04  4.178073E+03  1.773470E+05  7.953112E+03  5.392553E+03
       189  20  2.558691E+05  7.632866E+04 -3.035149E+03  1.592823E+05  9.826980E+03  1.452741E+03
       189  21  2.024863E+05  6.198953E+04 -9.976640E+03  1.491371E+05  1.166557E+04 -2.393924E+03
       189  22  2.780111E+05  8.894234E+04  5.815687E+02  1.704057E+05 -3.722720E+02  2.253561E+03
       189  23  2.814438E+05  8.546388E+04  1.059286E+03  1.664251E+05  1.690495E+03 -1.614937E+03
       189  24  2.780259E+05  8.905462E+04  1.958016E+03  1.703628E+05  3.718028E+03 -5.390297E+03
       189  25  2.536564E+05  8.018479E+04 -3.014564E+03  1.634647E+05 -8.697216E+03 -8.852638E+02
       189  26  3.070194E+05  9.459921E+04  5.153992E+03  1.735682E+05 -6.446345E+03 -4.682746E+03
       189  27  3.535727E+05  1.161207E+05  1.389309E+04  1.915912E+05 -4.230631E+03 -8.387088E+03
       190   1  1.709361E+05  5.076147E+04 -1.454627E+04  1.404393E+05 -1.293838E+04  4.570122E+03
       190   2  1.248833E+05  2.920355E+04 -2.082338E+04  1.215250E+05 -1.492915E+04  7.830591E+03
       190   3  7.245846E+04  1.575760E+04 -2.627707E+04  1.101929E+05 -1.658954E+04  1.021569E+04
       190   4  2.781672E+05  8.907333E+04  2.618838E+03  1.703970E+05 -4.948778E+03  7.582196E+03
       190   5  2.813535E+05  8.608794E+04  4.835024E+03  1.661357E+05 -8.711372E+03  1.017422E+04
       190   6  2.785157E+05  9.156470E+04  9.277991E+03  1.694554E+05 -1.214367E+04  1.189098E+04
       190   7  3.854107E+05  1.273864E+05  1.978398E+04  2.003595E+05  3.042288E+03  1.059481E+04
       190   8  4.378490E+05  1.429746E+05  3.049277E+04  2.107567E+05 -2.491968E+03  1.251847E+04
       190   9  4.846157E+05  1.673755E+05  4.483122E+04  2.287356E+05 -7.696286E+03  1.356686E+04
       190  10  1.709359E+05  5.076140E+04 -1.454663E+04  1.404393E+05  4.820823E-08  1.900881E-08
       190  11  1.248830E+05  2.920342E+04 -2.082391E+04  1.215251E+05 -4.303506E-09 -1.238945E-10
       190  12  7.245814E+04  1.575741E+04 -2.627778E+04  1.101931E+05 -5.507093E-08 -1.999736E-08
       190  13  2.781671E+05  8.907327E+04  2.618684E+03  1.703970E+05 -1.787436E-08 -6.836635E-10
       190  14  2.813534E+05  8.608781E+04  4.834687E+03  1.661357E+05  1.957516E-10  4.197086E-09
       190  15  2.785155E+05  9.156450E+04  9.277448E+03  1.694555E+05  4.804466E-09 -1.877807E-09
       190  16  3.854106E+05  1.273863E+05  1.978375E+04  2.003595E+05 -5.279282E-08 -1.874486E-08
       190  17  4.378489E+05  1.429745E+05  3.049246E+04  2.107567E+05  1.375555E-08 -1.051539E-09
       190  18  4.846155E+05  1.673753E+05  4.483076E+04  2.287357E+05  6.430375E-08  1.865805E-08
       190  19  1.709361E+05  5.076147E+04 -1.454627E+04  1.404393E+05  1.293838E+04 -4.570122E+03
       190  20  1.248833E+05  2.920355E+04 -2.082338E+04  1.215250E+05  1.492915E+04 -7.830591E+03
       190  21  7.245846E+04  1.575760E+04 -2.627707E+04  1.101929E+05  1.658954E+04 -1.021569E+04
       190  22  2.781672E+05  8.907333E+04  2.618838E+03  1.703970E+05  4.948778E+03 -7.582196E+03
       190  23  2.813535E+05  8.608794E+04  4.835024E+03  1.661357E+05  8.711372E+03 -1.017422E+04
       190  24  2.785157E+05  9.156470E+04  9.277991E+03  1.694554E+05  1.214367E+04 -1.189098E+04
       190  25  3.854107E+05  1.273864E+05  1.978398E+04  2.003595E+05 -3.042288E+03 -1.059481E+04
       190  26  4.378490E+05  1.429746E+05  3.049277E+04  2.107567E+05  2.491968E+03 -1.251847E+04
       190  27  4.846157E+05  1.673755E+05  4.483122E+04  2.287356E+05  7.696286E+03 -1.356686E+04
       191   1  4.051870E+04  5.961331E+03 -2.947197E+04  1.030220E+05 -1.900452E+04  1.118596E+04
       191   2  3.211073E+03 -1.804539E+04 -3.400544E+04  6.988030E+04 -1.412603E+04  1.106934E+04
       191   3 -3.434888E+04 -1.773775E+04 -3.674653E+04  3.903747E+04 -6.154438E+03  2.740543E+03
       191   4  2.800014E+05  9.213448E+04  1.246504E+04  1.696672E+05 -1.416718E+04  1.300858E+04
       191   5  2.811727E+05  9.730749E+04  2.393420E+04  1.613646E+05 -2.590010E+04  6.631040E+03
       191   6  2.853771E+05  1.300792E+05  5.035625E+04  1.553614E+05 -3.454104E+04 -7.956544E+03
       191   7  5.195491E+05  1.783147E+05  5.440153E+04  2.363374E+05 -9.327778E+03  1.483197E+04
       191   8  5.592144E+05  2.126733E+05  8.187024E+04  2.528889E+05 -3.767978E+04  2.189967E+03
       191   9  6.051996E+05  2.779164E+05  1.374513E+05  2.717428E+05 -6.294293E+04 -1.866260E+04
       191  10  4.051828E+04  5.961099E+03 -2.947289E+04  1.030222E+05 -7.355914E-10 -1.732465E-09
       191  11  3.210826E+03 -1.804557E+04 -3.400604E+04  6.988042E+04 -1.664499E-09 -3.363020E-09
       191  12 -3.434893E+04 -1.773777E+04 -3.674662E+04  3.903749E+04 -4.554599E-09 -1.410693E-09
       191  13  2.800012E+05  9.213425E+04  1.246434E+04  1.696673E+05  1.189592E-09 -5.598962E-09
       191  14  2.811719E+05  9.730726E+04  2.393286E+04  1.613648E+05 -3.905671E-09 -6.780336E-10
       191  15  2.853758E+05  1.300788E+05  5.035389E+04  1.553612E+05  1.844754E-09 -2.786851E-09
       191  16  5.195489E+05  1.783144E+05  5.440096E+04  2.363375E+05  5.179644E-09  2.374887E-09
       191  17  5.592128E+05  2.126730E+05  8.186756E+04  2.528890E+05 -1.298281E-09 -3.076118E-09
       191  18  6.051952E+05  2.779150E+05  1.374432E+05  2.717418E+05  6.104020E-09 -1.234310E-09
       191  19  4.051870E+04  5.961331E+03 -2.947197E+04  1.030220E+05  1.900452E+04 -1.118596E+04
       191  20  3.211073E+03 -1.804539E+04 -3.400544E+04  6.988030E+04  1.412603E+04 -1.106934E+04
       191  21 -3.434888E+04 -1.773775E+04 -3.674653E+04  3.903747E+04  6.154438E+03 -2.740543E+03
       191  22  2.800014E+05  9.213448E+04  1.246504E+04  1.696672E+05  1.416718E+04 -1.300858E+04
       191  23  2.811727E+05  9.730749E+04  2.393420E+04  1.613646E+05  2.590010E+04 -6.631040E+03
       191  24  2.853771E+05  1.300792E+05  5.035625E+04  1.553614E+05  3.454104E+04  7.956544E+03
       191  25  5.195491E+05  1.783147E+05  5.440153E+04  2.363374E+05  9.327778E+03 -1.483197E+04
       191  26  5.592144E+05  2.126733E+05  8.187024E+04  2.528889E+05  3.767978E+04 -2.189967E+03
       191  27  6.051996E+05  2.779164E+05  1.374513E+05  2.717428E+05  6.294293E+04  1.866260E+04
       192   1 -4.832224E+04 -1.477568E+04 -2.332163E+04 -3.821172E+02 -2.460646E+04 -8.808482E+01
       192   2 -4.344426E+04  1.926942E+04 -2.786920E+03 -3.969155E+02 -1.619350E+04 -1.395785E+02
       192   3 -4.834775E+04  1.357210E+04  2.585166E+03  2.977115E+02 -7.780835E+03 -9.130232E+01
       192   4 -9.887716E+04 -2.741312E+04 -3.596055E+04 -1.960093E+00 -2.460796E+04 -8.810665E+01
       192   5 -9.395525E+04  6.641511E+03 -1.541412E+04 -3.883207E+02 -1.619320E+04 -1.395812E+02
       192   6 -9.881604E+04  9.516552E+02 -1.003246E+04 -6.525278E+01 -7.778744E+03 -9.129249E+01
       192   7 -1.494298E+05 -4.005077E+04 -4.859966E+04  3.781648E+02 -2.460946E+04 -8.812848E+01
       192   8 -1.444639E+05 -5.986592E+03 -2.804152E+04 -3.797282E+02 -1.619291E+04 -1.395838E+02
       192   9 -1.492820E+05 -1.166898E+04 -2.265029E+04 -4.281895E+02 -7.776653E+03 -9.128267E+01
       192  10 -4.832289E+04 -1.477584E+04 -2.332277E+04 -3.821190E+02  5.778884E-08  5.204170E-08
       192  11 -4.344454E+04  1.926935E+04 -2.787413E+03 -3.969173E+02  5.445822E-08  5.808852E-08
       192  12 -4.834781E+04  1.357208E+04  2.585053E+03  2.977109E+02 -2.747955E-07 -2.147178E-07
       192  13 -9.887781E+04 -2.741329E+04 -3.596168E+04 -1.961849E+00 -2.081074E-09 -5.426364E-09
       192  14 -9.395554E+04  6.641441E+03 -1.541462E+04 -3.883225E+02 -1.993794E-09 -8.094412E-09
       192  15 -9.881610E+04  9.516391E+02 -1.003258E+04 -6.525331E+01 -5.599945E-09  2.258227E-08
       192  16 -1.494304E+05 -4.005093E+04 -4.860079E+04  3.781631E+02 -5.943212E-08 -5.274144E-08
       192  17 -1.444642E+05 -5.986662E+03 -2.804201E+04 -3.797301E+02 -5.472098E-08 -3.831147E-08
       192  18 -1.492821E+05 -1.166899E+04 -2.265040E+04 -4.281900E+02  2.712886E-07  2.635152E-07
       192  19 -4.832224E+04 -1.477568E+04 -2.332163E+04 -3.821173E+02  2.460646E+04  8.808482E+01
       192  20 -4.344426E+04  1.926942E+04 -2.786920E+03 -3.969155E+02  1.619350E+04  1.395785E+02
       192  21 -4.834775E+04  1.357210E+04  2.585167E+03  2.977115E+02  7.780835E+03  9.130232E+01
       192  22 -9.887716E+04 -2.741312E+04 -3.596055E+04 -1.960112E+00  2.460796E+04  8.810665E+01
       192  23 -9.395525E+04  6.641511E+03 -1.541412E+04 -3.883207E+02  1.619320E+04  1.395812E+02
       192  24 -9.881604E+04  9.516554E+02 -1.003246E+04 -6.525269E+01  7.778744E+03  9.129249E+01
       192  25 -1.494298E+05 -4.005077E+04 -4.859966E+04  3.781648E+02  2.460946E+04  8.812848E+01
       192  26 -1.444639E+05 -5.986592E+03 -2.804152E+04 -3.797283E+02  1.619291E+04  1.395838E+02
       192  27 -1.492820E+05 -1.166898E+04 -2.265029E+04 -4.281894E+02  7.776653E+03  9.128267E+01
       193   1 -7.351687E+04  1.601868E+03 -2.483873E+03  1.891272E+02 -6.109642E+03 -6.559031E+01
       193   2 -7.279650E+04  6.999962E+03  1.906025E+03 -6.204025E+02 -4.021222E+03 -5.658819E+01
       193   3 -7.367420E+04  6.091201E+03  3.409629E+03  2.903454E+02 -1.932941E+03 -2.288164E+01
       193   4 -9.696864E+04 -4.261140E+03 -8.346643E+03  1.943405E+02 -6.109751E+03 -6.559153E+01
       193   5 -9.613828E+04  1.163928E+03 -3.929373E+03 -6.742573E+02 -4.020808E+03 -5.658676E+01
       193   6 -9.690615E+04  2.819190E+02 -2.398839E+03  1.774277E+02 -1.932003E+03 -2.287756E+01
       193   7 -1.204199E+05 -1.012419E+04 -1.420945E+04  1.995533E+02 -6.109861E+03 -6.559273E+01
       193   8 -1.194796E+05 -4.672147E+03 -9.764812E+03 -7.281105E+02 -4.020394E+03 -5.658526E+01
       193   9 -1.201376E+05 -5.527404E+03 -8.207348E+03  6.451383E+01 -1.931064E+03 -2.287335E+01
       193  10 -7.351691E+04  1.601851E+03 -2.483945E+03  1.891206E+02 -1.493292E-05  2.888399E-06
       193  11 -7.279653E+04  6.999926E+03  1.905987E+03 -6.204306E+02 -6.111669E-05  1.491141E-05
       193  12 -7.367422E+04  6.091144E+03  3.409608E+03  2.902955E+02 -1.057292E-04  2.830773E-05
       193  13 -9.696868E+04 -4.261150E+03 -8.346713E+03  1.943402E+02 -3.307946E-05 -4.748594E-06
       193  14 -9.613830E+04  1.163924E+03 -3.929404E+03 -6.742574E+02 -1.467708E-04 -2.128376E-05
       193  15 -9.690616E+04  2.819179E+02 -2.398846E+03  1.774276E+02 -2.604817E-04 -3.780982E-05
       193  16 -1.204200E+05 -1.012419E+04 -1.420952E+04  1.995594E+02 -1.157099E-05  4.512278E-06
       193  17 -1.194796E+05 -4.672119E+03 -9.764835E+03 -7.280824E+02 -5.649540E-05  1.767354E-05
       193  18 -1.201376E+05 -5.527348E+03 -8.207341E+03  6.456366E+01 -1.030371E-04  2.934005E-05
       193  19 -7.351687E+04  1.601854E+03 -2.483876E+03  1.891147E+02  6.109642E+03  6.559032E+01
       193  20 -7.279652E+04  6.999899E+03  1.906009E+03 -6.204584E+02  4.021222E+03  5.658822E+01
       193  21 -7.367423E+04  6.091088E+03  3.409601E+03  2.902457E+02  1.932941E+03  2.288169E+01
       193  22 -9.696864E+04 -4.261140E+03 -8.346643E+03  1.943404E+02  6.109751E+03  6.559152E+01
       193  23 -9.613829E+04  1.163928E+03 -3.929374E+03 -6.742572E+02  4.020808E+03  5.658672E+01
       193  24 -9.690616E+04  2.819188E+02 -2.398840E+03  1.774275E+02  1.932002E+03  2.287748E+01
       193  25 -1.204199E+05 -1.012418E+04 -1.420945E+04  1.995661E+02  6.109861E+03  6.559273E+01
       193  26 -1.194796E+05 -4.672082E+03 -9.764797E+03 -7.280540E+02  4.020394E+03  5.658529E+01
       193  27 -1.201376E+05 -5.527290E+03 -8.207320E+03  6.461356E+01  1.931064E+03  2.287341E+01
       194   1 -1.131388E+05 -4.669346E+03 -6.047794E+03  1.388947E+02 -1.532632E+03 -1.410621E+00
       194   2 -1.131817E+05 -3.878655E+03 -5.097490E+03 -7.523777E+02 -1.029576E+03  2.303208E+01
       194   3 -1.134307E+05 -4.121524E+03 -4.709640E+03  1.585636E+02 -5.264725E+02  3.965701E+01
       194   4 -9.659651E+04 -5.328831E+02 -1.911735E+03  2.035522E+02 -1.532032E+03 -1.408115E+00
       194   5 -9.652395E+04  2.864757E+02 -9.329340E+02 -6.989615E+02 -1.029152E+03  2.303375E+01
       194   6 -9.665750E+04  7.232271E+01 -5.164526E+02  2.007352E+02 -5.262245E+02  3.965791E+01
       194   7 -8.005398E+04  3.603559E+03  2.224303E+03  2.682111E+02 -1.531433E+03 -1.405475E+00
       194   8 -7.986596E+04  4.451585E+03  3.231601E+03 -6.455442E+02 -1.028728E+03  2.303549E+01
       194   9 -7.988399E+04  4.266148E+03  3.676713E+03  2.429077E+02 -5.259765E+02  3.965883E+01
       194  10 -1.131388E+05 -4.669403E+03 -6.047813E+03  1.388448E+02 -1.030435E-04  2.933044E-05
       194  11 -1.131817E+05 -3.878688E+03 -5.097500E+03 -7.524059E+02 -5.650747E-05  1.765901E-05
       194  12 -1.134307E+05 -4.121531E+03 -4.709642E+03  1.585572E+02 -1.157171E-05  4.524104E-06
       194  13 -9.659651E+04 -5.328837E+02 -1.911739E+03  2.035523E+02 -2.604834E-04 -3.782671E-05
       194  14 -9.652395E+04  2.864751E+02 -9.329359E+02 -6.989615E+02 -1.467715E-04 -2.127742E-05
       194  15 -9.665749E+04  7.232258E+01 -5.164529E+02  2.007353E+02 -3.308515E-05 -4.763817E-06
       194  16 -8.005397E+04  3.603615E+03  2.224313E+03  2.682609E+02 -1.057319E-04  2.828071E-05
       194  17 -7.986595E+04  4.451616E+03  3.231607E+03 -6.455162E+02 -6.112188E-05  1.490190E-05
       194  18 -7.988399E+04  4.266155E+03  3.676714E+03  2.429139E+02 -1.493836E-05  2.889861E-06
       194  19 -1.131388E+05 -4.669459E+03 -6.047822E+03  1.387949E+02  1.532632E+03  1.410680E+00
       194  20 -1.131817E+05 -3.878720E+03 -5.097506E+03 -7.524342E+02  1.029576E+03 -2.303204E+01
       194  21 -1.134307E+05 -4.121539E+03 -4.709643E+03  1.585508E+02  5.264724E+02 -3.965700E+01
       194  22 -9.659651E+04 -5.328830E+02 -1.911735E+03  2.035524E+02  1.532032E+03  1.408039E+00
       194  23 -9.652395E+04  2.864751E+02 -9.329337E+02 -6.989616E+02  1.029152E+03 -2.303379E+01
       194  24 -9.665749E+04  7.232260E+01 -5.164522E+02  2.007353E+02  5.262245E+02 -3.965792E+01
       194  25 -8.005395E+04  3.603672E+03  2.224332E+03  2.683107E+02  1.531432E+03  1.405532E+00
       194  26 -7.986594E+04  4.451648E+03  3.231617E+03 -6.454883E+02  1.028728E+03 -2.303546E+01
       194  27 -7.988399E+04  4.266162E+03  3.676717E+03  2.429202E+02  5.259765E+02 -3.965882E+01
       195   1 -1.438061E+05 -1.185526E+04 -1.216563E+04 -1.317562E+02 -4.539467E+02  5.433764E+01
       195   2 -1.444383E+05 -1.184278E+04 -1.202679E+04 -5.597127E+02 -3.873435E+02  7.735787E+01
       195   3 -1.439824E+05 -1.184547E+04 -1.171498E+04 -8.431437E+01 -3.206472E+02  7.390495E+01
       195   4 -9.639904E+04 -1.442692E+00 -3.130082E+02  2.148045E+00 -4.531064E+02  5.434048E+01
       195   5 -9.697365E+04  2.518322E+01 -1.601526E+02 -4.496809E+02 -3.871340E+02  7.735814E+01
       195   6 -9.645994E+04  3.677216E+01  1.661248E+02  1.840913E+00 -3.210686E+02  7.390354E+01
       195   7 -4.898996E+04  1.185221E+04  1.153944E+04  1.360606E+02 -4.522660E+02  5.434332E+01
       195   8 -4.950695E+04  1.189297E+04  1.170631E+04 -3.396421E+02 -3.869245E+02  7.735841E+01
       195   9 -4.893547E+04  1.191884E+04  1.204706E+04  8.800151E+01 -3.214900E+02  7.390213E+01
       195  10 -1.438061E+05 -1.185526E+04 -1.216563E+04 -1.317562E+02  2.663340E-07  2.557166E-07
       195  11 -1.444383E+05 -1.184278E+04 -1.202679E+04 -5.597127E+02 -6.490006E-08 -5.526336E-08
       195  12 -1.439824E+05 -1.184547E+04 -1.171498E+04 -8.431435E+01 -1.083661E-08 -1.470517E-08
       195  13 -9.639905E+04 -1.442849E+00 -3.130087E+02  2.148022E+00 -9.732974E-11  2.634542E-08
       195  14 -9.697365E+04  2.518320E+01 -1.601529E+02 -4.496808E+02  6.540066E-09 -5.309137E-09
       195  15 -9.645994E+04  3.677213E+01  1.661246E+02  1.840934E+00  6.065995E-09 -6.000049E-09
       195  16 -4.898996E+04  1.185221E+04  1.153944E+04  1.360606E+02 -2.739085E-07 -2.110418E-07
       195  17 -4.950695E+04  1.189297E+04  1.170631E+04 -3.396421E+02  6.689944E-08  6.764929E-08
       195  18 -4.893547E+04  1.191884E+04  1.204705E+04  8.800153E+01  1.572673E-08  8.416964E-09
       195  19 -1.438061E+05 -1.185526E+04 -1.216563E+04 -1.317563E+02  4.539467E+02 -5.433764E+01
       195  20 -1.444383E+05 -1.184278E+04 -1.202679E+04 -5.597127E+02  3.873435E+02 -7.735787E+01
       195  21 -1.439824E+05 -1.184547E+04 -1.171498E+04 -8.431436E+01  3.206472E+02 -7.390495E+01
       195  22 -9.639904E+04 -1.442891E+00 -3.130083E+02  2.147959E+00  4.531064E+02 -5.434048E+01
       195  23 -9.697365E+04  2.518328E+01 -1.601526E+02 -4.496808E+02  3.871340E+02 -7.735814E+01
       195  24 -9.645994E+04  3.677217E+01  1.661248E+02  1.840916E+00  3.210686E+02 -7.390354E+01
       195  25 -4.898996E+04  1.185221E+04  1.153944E+04  1.360605E+02  4.522660E+02 -5.434332E+01
       195  26 -4.950695E+04  1.189297E+04  1.170631E+04 -3.396421E+02  3.869245E+02 -7.735841E+01
       195  27 -4.893547E+04  1.191885E+04  1.204706E+04  8.800151E+01  3.214900E+02 -7.390213E+01
       196   1 -1.484638E+05 -1.303216E+04 -1.273015E+04 -3.925958E+02 -3.780491E+02  7.599090E+01
       196   2 -1.491393E+05 -1.306653E+04 -1.255727E+04 -1.198290E+02 -6.296524E+02  8.523143E+01
       196   3 -1.483385E+05 -1.266377E+04 -1.184437E+04 -3.423033E+02 -8.812170E+02  6.581766E+01
       196   4 -9.637428E+04 -7.979937E+00  2.928813E+02 -3.087298E+02 -3.774924E+02  7.599168E+01
       196   5 -9.708265E+04 -5.072750E+01  4.573653E+02 -6.122675E+01 -6.298019E+02  8.523075E+01
       196   6 -9.631466E+04  3.438022E+02  1.162341E+03 -3.089612E+02 -8.820725E+02  6.581661E+01
       196   7 -4.428226E+04  1.301599E+04  1.331571E+04 -2.248582E+02 -3.769357E+02  7.599247E+01
       196   8 -4.502359E+04  1.296487E+04  1.347179E+04 -2.620518E+00 -6.299513E+02  8.523008E+01
       196   9 -4.428839E+04  1.335117E+04  1.416885E+04 -2.756168E+02 -8.829281E+02  6.581555E+01
       196  10 -1.484638E+05 -1.303216E+04 -1.273015E+04 -3.925957E+02  4.598803E-08  4.114173E-08
       196  11 -1.491393E+05 -1.306653E+04 -1.255727E+04 -1.198289E+02 -1.129718E-08 -1.036053E-08
       196  12 -1.483385E+05 -1.266377E+04 -1.184437E+04 -3.423033E+02 -4.273147E-09 -1.967076E-09
       196  13 -9.637428E+04 -7.980002E+00  2.928810E+02 -3.087298E+02 -6.652765E-11  6.716960E-09
       196  14 -9.708265E+04 -5.072761E+01  4.573645E+02 -6.122671E+01 -6.460860E-09 -4.965021E-10
       196  15 -9.631467E+04  3.438020E+02  1.162339E+03 -3.089611E+02 -2.643773E-09 -3.821935E-09
       196  16 -4.428226E+04  1.301599E+04  1.331571E+04 -2.248581E+02 -4.549552E-08 -4.221405E-08
       196  17 -4.502359E+04  1.296487E+04  1.347179E+04 -2.620474E+00  1.675285E-08  4.113619E-09
       196  18 -4.428839E+04  1.335117E+04  1.416885E+04 -2.756167E+02 -1.497349E-09 -1.197100E-09
       196  19 -1.484638E+05 -1.303216E+04 -1.273015E+04 -3.925958E+02  3.780491E+02 -7.599090E+01
       196  20 -1.491393E+05 -1.306653E+04 -1.255727E+04 -1.198290E+02  6.296524E+02 -8.523143E+01
       196  21 -1.483385E+05 -1.266377E+04 -1.184437E+04 -3.423033E+02  8.812170E+02 -6.581766E+01
       196  22 -9.637428E+04 -7.979974E+00  2.928813E+02 -3.087298E+02  3.774924E+02 -7.599168E+01
       196  23 -9.708265E+04 -5.072749E+01  4.573653E+02 -6.122675E+01  6.298019E+02 -8.523075E+01
       196  24 -9.631466E+04  3.438022E+02  1.162341E+03 -3.089612E+02  8.820725E+02 -6.581661E+01
       196  25 -4.428226E+04  1.301599E+04  1.331571E+04 -2.248582E+02  3.769357E+02 -7.599247E+01
       196  26 -4.502359E+04  1.296487E+04  1.347179E+04 -2.620516E+00  6.299513E+02 -8.523008E+01
       196  27 -4.428839E+04  1.335117E+04  1.416885E+04 -2.756168E+02  8.829281E+02 -6.581555E+01
       197   1 -1.243731E+05 -7.003280E+03 -5.578811E+03 -5.572722E+02 -1.121741E+03  5.469099E+01
       197   2 -1.247851E+05 -7.230555E+03 -4.635357E+03  2.415847E+02 -2.306054E+03  4.550101E+01
       197   3 -1.241035E+05 -5.233826E+03 -2.288039E+03 -5.767453E+02 -3.490397E+03  2.318505E+01
       197   4 -9.637035E+04 -1.912632E+00  1.421867E+03 -5.581001E+02 -1.121823E+03  5.469081E+01
       197   5 -9.688525E+04 -2.548605E+02  2.339754E+03  2.506417E+02 -2.306498E+03  4.550078E+01
       197   6 -9.630643E+04  1.716212E+03  4.661715E+03 -5.577989E+02 -3.491202E+03  2.318500E+01
       197   7 -6.836691E+04  6.999395E+03  8.422487E+03 -5.589282E+02 -1.121906E+03  5.469063E+01
       197   8 -6.898468E+04  6.720776E+03  9.314806E+03  2.596990E+02 -2.306943E+03  4.550055E+01
       197   9 -6.850867E+04  8.666191E+03  1.161141E+04 -5.388515E+02 -3.492008E+03  2.318495E+01
       197  10 -1.243731E+05 -7.003280E+03 -5.578813E+03 -5.572721E+02  7.436384E-09  5.794016E-09
       197  11 -1.247851E+05 -7.230557E+03 -4.635367E+03  2.415848E+02 -4.106523E-09 -3.137477E-09
       197  12 -1.241035E+05 -5.233829E+03 -2.288062E+03 -5.767453E+02 -8.084892E-10 -2.361975E-11
       197  13 -9.637035E+04 -1.912977E+00  1.421865E+03 -5.581001E+02  3.610306E-13 -8.540549E-10
       197  14 -9.688526E+04 -2.548619E+02  2.339744E+03  2.506418E+02 -6.461831E-09 -1.977406E-09
       197  15 -9.630644E+04  1.716209E+03  4.661692E+03 -5.577988E+02  3.766501E-09 -2.793137E-09
       197  16 -6.836691E+04  6.999395E+03  8.422485E+03 -5.589282E+02 -1.087110E-08 -6.607740E-09
       197  17 -6.898468E+04  6.720774E+03  9.314796E+03  2.596991E+02  5.406954E-09  2.481378E-09
       197  18 -6.850869E+04  8.666188E+03  1.161139E+04 -5.388515E+02 -1.188057E-09 -1.800244E-09
       197  19 -1.243731E+05 -7.003280E+03 -5.578811E+03 -5.572722E+02  1.121741E+03 -5.469099E+01
       197  20 -1.247851E+05 -7.230555E+03 -4.635357E+03  2.415847E+02  2.306054E+03 -4.550101E+01
       197  21 -1.241035E+05 -5.233826E+03 -2.288039E+03 -5.767453E+02  3.490397E+03 -2.318505E+01
       197  22 -9.637035E+04 -1.912638E+00  1.421867E+03 -5.581001E+02  1.121823E+03 -5.469081E+01
       197  23 -9.688525E+04 -2.548605E+02  2.339754E+03  2.506417E+02  2.306498E+03 -4.550078E+01
       197  24 -9.630643E+04  1.716212E+03  4.661715E+03 -5.577989E+02  3.491202E+03 -2.318500E+01
       197  25 -6.836691E+04  6.999395E+03  8.422487E+03 -5.589282E+02  1.121906E+03 -5.469063E+01
       197  26 -6.898468E+04  6.720776E+03  9.314806E+03  2.596990E+02  2.306943E+03 -4.550055E+01
       197  27 -6.850867E+04  8.666191E+03  1.161141E+04 -5.388515E+02  3.492008E+03 -2.318495E+01
       198   1 -8.406245E+04  2.713754E+03  8.655373E+03 -5.270571E+02 -4.430508E+03  4.061826E+00
       198   2 -8.612293E+04  6.296145E+02  1.209983E+04  2.766325E+02 -9.242562E+03 -2.021235E+01
       198   3 -8.388762E+04  1.295604E+04  2.229349E+04 -7.691442E+02 -1.405462E+04 -2.913819E+01
       198   4 -9.559437E+04 -1.694699E+02  5.772079E+03 -6.096560E+02 -4.431244E+03  4.062604E+00
       198   5 -9.777306E+04 -2.283158E+03  9.187343E+03  3.147610E+02 -9.242851E+03 -2.021291E+01
       198   6 -9.565597E+04  1.001378E+04  1.935159E+04 -6.102904E+02 -1.405446E+04 -2.914182E+01
       198   7 -1.071262E+05 -3.052704E+03  2.888775E+03 -6.922533E+02 -4.431981E+03  4.063381E+00
       198   8 -1.094231E+05 -5.195941E+03  6.274842E+03  3.528887E+02 -9.243140E+03 -2.021347E+01
       198   9 -1.074242E+05  7.071521E+03  1.640967E+04 -4.514397E+02 -1.405430E+04 -2.914545E+01
       198  10 -8.406248E+04  2.713749E+03  8.655337E+03 -5.270571E+02  4.394936E-09 -9.278130E-10
       198  11 -8.612303E+04  6.295916E+02  1.209967E+04  2.766324E+02  4.669147E-09 -3.275265E-09
       198  12 -8.388783E+04  1.295598E+04  2.229312E+04 -7.691445E+02 -2.767828E-09  1.580859E-09
       198  13 -9.559439E+04 -1.694751E+02  5.772042E+03 -6.096560E+02 -2.087135E-09 -3.002593E-09
       198  14 -9.777316E+04 -2.283181E+03  9.187182E+03  3.147608E+02  7.430820E-09 -5.336772E-09
       198  15 -9.565618E+04  1.001373E+04  1.935121E+04 -6.102908E+02  1.348157E-09  2.275021E-09
       198  16 -1.071262E+05 -3.052709E+03  2.888738E+03 -6.922533E+02 -2.145686E-09 -4.068283E-09
       198  17 -1.094232E+05 -5.195964E+03  6.274682E+03  3.528886E+02 -1.447844E-09 -1.069239E-09
       198  18 -1.074244E+05  7.071468E+03  1.640930E+04 -4.514400E+02 -4.172384E-11  3.206073E-09
       198  19 -8.406245E+04  2.713754E+03  8.655373E+03 -5.270571E+02  4.430508E+03 -4.061826E+00
       198  20 -8.612293E+04  6.296145E+02  1.209983E+04  2.766325E+02  9.242562E+03  2.021235E+01
       198  21 -8.388762E+04  1.295604E+04  2.229349E+04 -7.691442E+02  1.405462E+04  2.913819E+01
       198  22 -9.559437E+04 -1.694699E+02  5.772079E+03 -6.096560E+02  4.431244E+03 -4.062604E+00
       198  23 -9.777306E+04 -2.283158E+03  9.187343E+03  3.147610E+02  9.242851E+03  2.021291E+01
       198  24 -9.565597E+04  1.001378E+04  1.935159E+04 -6.102904E+02  1.405446E+04  2.914182E+01
       198  25 -1.071262E+05 -3.052704E+03  2.888775E+03 -6.922533E+02  4.431981E+03 -4.063381E+00
       198  26 -1.094231E+05 -5.195941E+03  6.274842E+03  3.528887E+02  9.243140E+03  2.021347E+01
       198  27 -1.074242E+05  7.071521E+03  1.640967E+04 -4.514397E+02  1.405430E+04  2.914545E+01
       199   1 -4.613202E+04  9.289458E+03  3.454798E+04  9.932996E+01 -1.794580E+04 -5.708586E+01
       199   2 -5.937289E+04 -4.173061E+03  4.647223E+04 -1.222272E+02 -3.729137E+04 -1.148008E+02
       199   3 -4.604563E+04  7.462155E+04  9.425449E+04 -1.547227E+03 -5.663662E+04 -1.099708E+02
       199   4 -9.073659E+04 -1.862710E+03  2.339686E+04 -4.404873E+02 -1.794692E+04 -5.707105E+01
       199   5 -1.040495E+05 -1.534249E+04  3.530366E+04  1.167784E+02 -3.728978E+04 -1.148159E+02
       199   6 -9.079312E+04  6.343786E+04  8.306838E+04 -5.294027E+02 -5.663230E+04 -1.100621E+02
       199   7 -1.353394E+05 -1.301503E+04  1.224560E+04 -9.802658E+02 -1.794804E+04 -5.705624E+01
       199   8 -1.487244E+05 -2.651207E+04  2.413493E+04  3.557665E+02 -3.728818E+04 -1.148310E+02
       199   9 -1.355388E+05  5.225403E+04  7.188212E+04  4.883479E+02 -5.662799E+04 -1.101533E+02
       199  10 -4.613236E+04  9.289372E+03  3.454737E+04  9.932913E+01  1.116317E-09  3.175816E-09
       199  11 -5.937438E+04 -4.173434E+03  4.646962E+04 -1.222306E+02 -2.141014E-10  1.328541E-09
       199  12 -4.604907E+04  7.462069E+04  9.424846E+04 -1.547232E+03  1.659988E-09  4.399281E-09
       199  13 -9.073693E+04 -1.862796E+03  2.339626E+04 -4.404881E+02 -2.426470E-11  2.029749E-09
       199  14 -1.040510E+05 -1.534287E+04  3.530104E+04  1.167750E+02  2.154462E-09  8.171628E-10
       199  15 -9.079657E+04  6.343700E+04  8.306235E+04 -5.294077E+02 -1.085885E-09  3.178628E-09
       199  16 -1.353397E+05 -1.301511E+04  1.224500E+04 -9.802666E+02 -2.221531E-09  4.434205E-09
       199  17 -1.487259E+05 -2.651245E+04  2.413232E+04  3.557630E+02 -2.764411E-09  2.052700E-09
       199  18 -1.355422E+05  5.225317E+04  7.187609E+04  4.883428E+02  3.096174E-09 -2.233201E-11
       199  19 -4.613202E+04  9.289458E+03  3.454798E+04  9.932996E+01  1.794580E+04  5.708586E+01
       199  20 -5.937289E+04 -4.173061E+03  4.647223E+04 -1.222272E+02  3.729137E+04  1.148008E+02
       199  21 -4.604563E+04  7.462155E+04  9.425449E+04 -1.547227E+03  5.663662E+04  1.099708E+02
       199  22 -9.073659E+04 -1.862710E+03  2.339686E+04 -4.404873E+02  1.794692E+04  5.707105E+01
       199  23 -1.040495E+05 -1.534249E+04  3.530366E+04  1.167784E+02  3.728978E+04  1.148159E+02
       199  24 -9.079312E+04  6.343786E+04  8.306838E+04 -5.294027E+02  5.663230E+04  1.100621E+02
       199  25 -1.353394E+05 -1.301503E+04  1.224560E+04 -9.802658E+02  1.794804E+04  5.705624E+01
       199  26 -1.487244E+05 -2.651207E+04  2.413493E+04  3.557665E+02  3.728818E+04  1.148310E+02
       199  27 -1.355388E+05  5.225403E+04  7.188212E+04  4.883479E+02  5.662799E+04  1.101533E+02
       200   1 -2.485010E+05 -1.225295E+06 -2.871791E+05  7.514286E+04 -3.340189E+03 -1.202830E+05
       200   2 -6.728525E+04 -1.127443E+06 -1.707845E+05  1.474753E+04 -9.748762E+03 -7.334997E+04
       200   3 -7.054051E+04 -1.081308E+06 -1.310052E+05  2.441137E+04 -6.979187E+03 -2.639621E+04
       200   4 -1.375207E+05 -7.818333E+05 -1.770368E+05  3.980567E+04 -3.340908E+03 -1.161495E+05
       200   5  2.515157E+04 -7.562665E+05 -8.034655E+04  4.902872E+03 -9.748278E+03 -7.270863E+04
       200   6  4.018974E+03 -7.817794E+05 -5.780596E+04  4.006104E+04 -6.976055E+03 -2.925275E+04
       200   7 -2.655046E+04 -3.381900E+05 -6.690849E+04  4.443251E+03 -3.342099E+03 -1.120130E+05
       200   8  1.175786E+05 -3.849635E+05  1.008141E+04 -4.947648E+03 -9.747815E+03 -7.206690E+04
       200   9  7.857276E+04 -4.821681E+05  1.538687E+04  5.571830E+04 -6.973068E+03 -3.211067E+04
       200  10 -2.485049E+05 -1.225311E+06 -2.872064E+05  7.514254E+04 -2.299923E-09 -1.234791E-10
       200  11 -6.728680E+04 -1.127449E+06 -1.707948E+05  1.474695E+04 -5.149122E-09 -1.487219E-09
       200  12 -7.054075E+04 -1.081309E+06 -1.310066E+05  2.441122E+04  1.572551E-09 -8.144606E-10
       200  13 -1.375243E+05 -7.818478E+05 -1.770622E+05  3.980536E+04 -1.364079E-10  4.206104E-09
       200  14  2.515005E+04 -7.562722E+05 -8.035667E+04  4.902301E+03  7.710290E-10  2.264974E-09
       200  15  4.018691E+03 -7.817803E+05 -5.780766E+04  4.006087E+04  4.559637E-09  1.277537E-09
       200  16 -2.655385E+04 -3.382035E+05 -6.693210E+04  4.442950E+03  1.591257E-09  1.251337E-09
       200  17  1.175771E+05 -3.849691E+05  1.007146E+04 -4.948213E+03  4.960448E-09  2.806381E-10
       200  18  7.857243E+04 -4.821692E+05  1.538484E+04  5.571812E+04  3.580242E-10 -6.498314E-10
       200  19 -2.485010E+05 -1.225295E+06 -2.871791E+05  7.514286E+04  3.340189E+03  1.202830E+05
       200  20 -6.728525E+04 -1.127443E+06 -1.707845E+05  1.474753E+04  9.748762E+03  7.334997E+04
       200  21 -7.054051E+04 -1.081308E+06 -1.310052E+05  2.441137E+04  6.979187E+03  2.639621E+04
       200  22 -1.375207E+05 -7.818333E+05 -1.770368E+05  3.980567E+04  3.340908E+03  1.161495E+05
       200  23  2.515157E+04 -7.562665E+05 -8.034655E+04  4.902872E+03  9.748278E+03  7.270863E+04
       200  24  4.018974E+03 -7.817794E+05 -5.780596E+04  4.006104E+04  6.976055E+03  2.925275E+04
       200  25 -2.655046E+04 -3.381900E+05 -6.690849E+04  4.443251E+03  3.342099E+03  1.120130E+05
       200  26  1.175786E+05 -3.849635E+05  1.008141E+04 -4.947648E+03  9.747815E+03  7.206690E+04
       200  27  7.857276E+04 -4.821681E+05  1.538687E+04  5.571830E+04  6.973068E+03  3.211067E+04
       201   1 -5.641458E+04 -9.347993E+05 -9.127327E+04  4.649926E+04 -3.972820E+03 -1.898736E+04
       201   2 -1.557876E+04 -8.546572E+05 -6.173230E+04  4.553550E+03 -2.181713E+03  1.940800E+03
       201   3 -2.102146E+04 -7.885927E+05 -5.735505E+04  3.414762E+04 -7.192882E+01  2.287124E+04
       201   4 -1.624419E+04 -7.735453E+05 -5.191517E+04  4.030498E+04 -3.971833E+03 -1.962548E+04
       201   5  6.367619E+03 -7.665151E+05 -4.022136E+04  4.535372E+03 -2.180853E+03  1.184029E+03
       201   6 -1.727448E+04 -7.735448E+05 -5.360526E+04  4.030564E+04 -7.081303E+01  2.199337E+04
       201   7  2.392442E+04 -6.122674E+05 -1.255894E+04  3.410909E+04 -3.970833E+03 -2.026376E+04
       201   8  2.831343E+04 -6.783659E+05 -1.871098E+04  4.517193E+03 -2.179992E+03  4.271500E+02
       201   9 -1.352737E+04 -7.584966E+05 -4.985546E+04  4.646381E+04 -6.971469E+01  2.111549E+04
       201  10 -5.641469E+04 -9.347997E+05 -9.127398E+04  4.649920E+04 -1.320550E-09  2.577654E-09
       201  11 -1.557877E+04 -8.546572E+05 -6.173232E+04  4.553554E+03 -4.227944E-09  2.084570E-09
       201  12 -2.102160E+04 -7.885932E+05 -5.735604E+04  3.414762E+04 -6.903495E-09 -2.211231E-09
       201  13 -1.624431E+04 -7.735457E+05 -5.191592E+04  4.030492E+04  3.632689E-11  2.678918E-09
       201  14  6.367614E+03 -7.665151E+05 -4.022137E+04  4.535374E+03 -3.339248E-09  1.282636E-09
       201  15 -1.727461E+04 -7.735453E+05 -5.360617E+04  4.030564E+04 -5.487318E-09  1.119462E-09
       201  16  2.392429E+04 -6.122679E+05 -1.255974E+04  3.410903E+04 -4.437292E-09 -2.003173E-09
       201  17  2.831342E+04 -6.783659E+05 -1.871099E+04  4.517194E+03 -1.379748E-09 -2.345229E-09
       201  18 -1.352749E+04 -7.584971E+05 -4.985630E+04  4.646381E+04 -2.487691E-09  5.141340E-10
       201  19 -5.641458E+04 -9.347993E+05 -9.127327E+04  4.649926E+04  3.972820E+03  1.898736E+04
       201  20 -1.557876E+04 -8.546572E+05 -6.173230E+04  4.553550E+03  2.181713E+03 -1.940800E+03
       201  21 -2.102146E+04 -7.885927E+05 -5.735505E+04  3.414762E+04  7.192882E+01 -2.287124E+04
       201  22 -1.624419E+04 -7.735453E+05 -5.191517E+04  4.030498E+04  3.971833E+03  1.962548E+04
       201  23  6.367619E+03 -7.665151E+05 -4.022136E+04  4.535372E+03  2.180853E+03 -1.184029E+03
       201  24 -1.727448E+04 -7.735448E+05 -5.360526E+04  4.030564E+04  7.081303E+01 -2.199337E+04
       201  25  2.392442E+04 -6.122674E+05 -1.255894E+04  3.410909E+04  3.970833E+03  2.026376E+04
       201  26  2.831343E+04 -6.783659E+05 -1.871098E+04  4.517193E+03  2.179992E+03 -4.271500E+02
       201  27 -1.352737E+04 -7.584966E+05 -4.985546E+04  4.646381E+04  6.971469E+01 -2.111549E+04
       202   1  3.539835E+04 -6.584274E+05 -2.980557E+04  5.700697E+04  2.529683E+03  3.419221E+04
       202   2  7.561678E+04 -5.586668E+05 -3.677459E+04 -5.508038E+03  5.230329E+03  7.770158E+04
       202   3 -7.820463E+04 -5.127841E+05 -1.205267E+05  2.994373E+03  1.904622E+03  1.212089E+05
       202   4  4.532404E+03 -7.824803E+05 -6.019413E+04  4.025931E+04  2.531086E+03  3.197556E+04
       202   5  2.664532E+04 -7.553546E+05 -8.465833E+04  4.648061E+03  5.231589E+03  7.778308E+04
       202   6 -1.457178E+05 -7.825350E+05 -1.875234E+05  4.005723E+04  1.908668E+03  1.235833E+05
       202   7 -2.633362E+04 -9.065185E+05 -9.058365E+04  2.351500E+04  2.532609E+03  2.975935E+04
       202   8 -2.232860E+04 -9.520069E+05 -1.325448E+05  1.480094E+04  5.232852E+03  7.786455E+04
       202   9 -2.132313E+05 -1.052217E+06 -2.545247E+05  7.710398E+04  1.913001E+03  1.259567E+05
       202  10  3.539803E+04 -6.584287E+05 -2.980779E+04  5.700690E+04 -3.564066E-09 -7.698146E-10
       202  11  7.561512E+04 -5.586733E+05 -3.678599E+04 -5.508365E+03  1.380027E-09  1.265975E-09
       202  12 -7.820858E+04 -5.127999E+05 -1.205543E+05  2.994187E+03  1.084605E-09  1.654302E-09
       202  13  4.532122E+03 -7.824814E+05 -6.019607E+04  4.025924E+04 -8.352126E-10  3.014967E-09
       202  14  2.664367E+04 -7.553611E+05 -8.466976E+04  4.647733E+03  1.460522E-09  2.185904E-09
       202  15 -1.457219E+05 -7.825514E+05 -1.875521E+05  4.005704E+04 -1.030636E-09  2.185886E-09
       202  16 -2.633386E+04 -9.065194E+05 -9.058533E+04  2.351494E+04  3.641928E-10  1.466606E-09
       202  17 -2.233026E+04 -9.520134E+05 -1.325563E+05  1.480061E+04 -1.443234E-09 -1.693151E-10
       202  18 -2.132356E+05 -1.052234E+06 -2.545546E+05  7.710379E+04 -2.357760E-09 -1.561271E-09
       202  19  3.539835E+04 -6.584274E+05 -2.980557E+04  5.700697E+04 -2.529683E+03 -3.419221E+04
       202  20  7.561678E+04 -5.586668E+05 -3.677459E+04 -5.508038E+03 -5.230329E+03 -7.770158E+04
       202  21 -7.820463E+04 -5.127841E+05 -1.205267E+05  2.994373E+03 -1.904622E+03 -1.212089E+05
       202  22  4.532404E+03 -7.824803E+05 -6.019413E+04  4.025931E+04 -2.531086E+03 -3.197556E+04
       202  23  2.664532E+04 -7.553546E+05 -8.465833E+04  4.648061E+03 -5.231589E+03 -7.778308E+04
       202  24 -1.457178E+05 -7.825350E+05 -1.875234E+05  4.005723E+04 -1.908668E+03 -1.235833E+05
       202  25 -2.633362E+04 -9.065185E+05 -9.058365E+04  2.351500E+04 -2.532609E+03 -2.975935E+04
       202  26 -2.232860E+04 -9.520069E+05 -1.325448E+05  1.480094E+04 -5.232852E+03 -7.786455E+04
       202  27 -2.132313E+05 -1.052217E+06 -2.545247E+05  7.710398E+04 -1.913001E+03 -1.259567E+05
       203   1  4.353388E+05  1.475940E+05  9.094294E+04  1.609194E+05  4.700737E+04  1.681344E+04
       203   2  4.197310E+05  7.429822E+04  4.606197E+04  1.628566E+05  3.019204E+04  8.701790E+03
       203   3  4.248333E+05  6.861838E+04  3.125332E+04  1.544633E+05  1.265398E+04  2.506578E+03
       203   4  3.756419E+05  1.072422E+05  7.126662E+04  1.263819E+05  4.559696E+04  1.627957E+04
       203   5  3.616432E+05  4.716932E+04  2.997015E+04  1.415004E+05  2.985998E+04  8.576148E+03
       203   6  3.681434E+05  5.450166E+04  1.789395E+04  1.462878E+05  1.340003E+04  2.788298E+03
       203   7  3.159499E+05  6.689418E+04  5.159024E+04  9.184846E+04  4.418671E+04  1.574587E+04
       203   8  3.035590E+05  2.004129E+04  1.387806E+04  1.201463E+05  2.952794E+04  8.450527E+03
       203   9  3.114565E+05  4.038478E+04  4.534323E+03  1.381128E+05  1.414600E+04  3.070014E+03
       203  10  4.353364E+05  1.475931E+05  9.093826E+04  1.609187E+05 -1.483320E-09 -8.147371E-11
       203  11  4.197300E+05  7.429790E+04  4.606012E+04  1.628564E+05 -2.627608E-09  6.067263E-09
       203  12  4.248331E+05  6.861833E+04  3.125300E+04  1.544633E+05 -7.526591E-09  1.783939E-09
       203  13  3.756396E+05  1.072414E+05  7.126222E+04  1.263813E+05 -1.654183E-09 -5.011534E-09
       203  14  3.616423E+05  4.716901E+04  2.996833E+04  1.415002E+05 -1.372320E-09 -6.484214E-09
       203  15  3.681432E+05  5.450160E+04  1.789359E+04  1.462878E+05 -3.445156E-09  9.981279E-10
       203  16  3.159477E+05  6.689339E+04  5.158611E+04  9.184790E+04  6.598693E-11 -1.506303E-09
       203  17  3.035580E+05  2.004098E+04  1.387629E+04  1.201461E+05 -1.146446E-09 -3.178357E-09
       203  18  3.114563E+05  4.038471E+04  4.533930E+03  1.381127E+05 -1.362775E-09  4.701073E-10
       203  19  4.353388E+05  1.475940E+05  9.094294E+04  1.609194E+05 -4.700737E+04 -1.681344E+04
       203  20  4.197310E+05  7.429822E+04  4.606197E+04  1.628566E+05 -3.019204E+04 -8.701790E+03
       203  21  4.248333E+05  6.861838E+04  3.125332E+04  1.544633E+05 -1.265398E+04 -2.506578E+03
       203  22  3.756419E+05  1.072422E+05  7.126662E+04  1.263819E+05 -4.559696E+04 -1.627957E+04
       203  23  3.616432E+05  4.716932E+04  2.997015E+04  1.415004E+05 -2.985998E+04 -8.576148E+03
       203  24  3.681434E+05  5.450166E+04  1.789395E+04  1.462878E+05 -1.340003E+04 -2.788298E+03
       203  25  3.159499E+05  6.689418E+04  5.159024E+04  9.184846E+04 -4.418671E+04 -1.574587E+04
       203  26  3.035590E+05  2.004129E+04  1.387806E+04  1.201463E+05 -2.952794E+04 -8.450527E+03
       203  27  3.114565E+05  4.038478E+04  4.534323E+03  1.381128E+05 -1.414600E+04 -3.070014E+03
       204   1  4.035838E+05  7.725064E+04  2.459970E+04  1.541221E+05  1.054163E+04  2.336487E+03
       204   2  3.947456E+05  6.432838E+04  1.444642E+04  1.490947E+05  6.681137E+03  1.289709E+03
       204   3  3.835659E+05  6.263999E+04  8.727778E+03  1.484104E+05  2.773445E+03  3.682499E+02
       204   4  3.658392E+05  6.151500E+04  1.448413E+04  1.421897E+05  1.070788E+04  2.399195E+03
       204   5  3.666559E+05  5.336479E+04  7.071084E+03  1.409773E+05  6.918021E+03  1.379109E+03
       204   6  3.651172E+05  5.643459E+04  4.036946E+03  1.441079E+05  3.080905E+03  4.843059E+02
       204   7  3.280960E+05  4.577954E+04  4.368434E+03  1.302579E+05  1.087412E+04  2.461898E+03
       204   8  3.385670E+05  4.240127E+04 -3.043026E+02  1.328602E+05  7.154894E+03  1.468504E+03
       204   9  3.466688E+05  5.022922E+04 -6.538964E+02  1.398055E+05  3.388354E+03  6.003586E+02
       204  10  4.035837E+05  7.725061E+04  2.459948E+04  1.541221E+05 -5.531244E-09  8.835270E-09
       204  11  3.947455E+05  6.432837E+04  1.444633E+04  1.490947E+05 -4.489583E-09  5.912155E-09
       204  12  3.835659E+05  6.263999E+04  8.727763E+03  1.484104E+05 -4.535173E-09  1.021453E-08
       204  13  3.658391E+05  6.151496E+04  1.448390E+04  1.421896E+05 -5.400148E-09  6.607279E-09
       204  14  3.666559E+05  5.336477E+04  7.070990E+03  1.409773E+05  3.157884E-09 -9.380795E-09
       204  15  3.651172E+05  5.643459E+04  4.036927E+03  1.441079E+05 -1.408746E-09  6.120982E-09
       204  16  3.280959E+05  4.577950E+04  4.368200E+03  1.302578E+05 -2.567197E-09  5.823851E-10
       204  17  3.385670E+05  4.240126E+04 -3.044028E+02  1.328602E+05 -1.978912E-10 -6.601076E-09
       204  18  3.466688E+05  5.022922E+04 -6.539186E+02  1.398055E+05  1.874682E-09 -1.442530E-09
       204  19  4.035838E+05  7.725064E+04  2.459970E+04  1.541221E+05 -1.054163E+04 -2.336487E+03
       204  20  3.947456E+05  6.432838E+04  1.444642E+04  1.490947E+05 -6.681137E+03 -1.289709E+03
       204  21  3.835659E+05  6.263999E+04  8.727778E+03  1.484104E+05 -2.773445E+03 -3.682499E+02
       204  22  3.658392E+05  6.151500E+04  1.448413E+04  1.421897E+05 -1.070788E+04 -2.399195E+03
       204  23  3.666559E+05  5.336479E+04  7.071084E+03  1.409773E+05 -6.918021E+03 -1.379109E+03
       204  24  3.651172E+05  5.643459E+04  4.036946E+03  1.441079E+05 -3.080905E+03 -4.843059E+02
       204  25  3.280960E+05  4.577954E+04  4.368434E+03  1.302579E+05 -1.087412E+04 -2.461898E+03
       204  26  3.385670E+05  4.240127E+04 -3.043026E+02  1.328602E+05 -7.154894E+03 -1.468504E+03
       204  27  3.466688E+05  5.022922E+04 -6.538964E+02  1.398055E+05 -3.388354E+03 -6.003586E+02
       205   1  3.701478E+05  5.918447E+04  4.495200E+03  1.452613E+05  2.120386E+03  4.685838E+02
       205   2  3.621165E+05  5.209504E+04  3.386795E+02  1.395592E+05  1.095213E+03  6.337783E+02
       205   3  3.493049E+05  5.071779E+04 -3.030523E+03  1.395450E+05  6.688578E+01  8.073565E+02
       205   4  3.648461E+05  5.709181E+04  3.133288E+03  1.436966E+05  2.389683E+03  5.702329E+02
       205   5  3.672026E+05  5.399647E+04  1.658344E+03  1.409432E+05  1.369230E+03  7.372084E+02
       205   6  3.647780E+05  5.661245E+04  9.670611E+02  1.438776E+05  3.456093E+02  9.125621E+02
       205   7  3.595443E+05  5.499914E+04  1.771368E+03  1.421319E+05  2.658979E+03  6.718814E+02
       205   8  3.722887E+05  5.589789E+04  2.978010E+03  1.423271E+05  1.643250E+03  8.406396E+02
       205   9  3.802513E+05  6.250713E+04  4.964626E+03  1.482104E+05  6.243406E+02  1.017771E+03
       205  10  3.701478E+05  5.918447E+04  4.495191E+03  1.452613E+05  3.724475E-10  8.278643E-09
       205  11  3.621165E+05  5.209504E+04  3.386765E+02  1.395592E+05 -3.421466E-10  2.396734E-09
       205  12  3.493049E+05  5.071779E+04 -3.030524E+03  1.395450E+05 -6.313953E-09  1.109748E-09
       205  13  3.648461E+05  5.709181E+04  3.133276E+03  1.436966E+05 -3.409053E-10 -1.297921E-09
       205  14  3.672026E+05  5.399647E+04  1.658340E+03  1.409432E+05 -1.134950E-09 -5.386968E-11
       205  15  3.647780E+05  5.661245E+04  9.670593E+02  1.438776E+05 -5.178230E-09 -1.351947E-09
       205  16  3.595443E+05  5.499914E+04  1.771354E+03  1.421319E+05  3.670334E-10 -1.585979E-09
       205  17  3.722887E+05  5.589789E+04  2.978003E+03  1.423271E+05  1.310944E-09 -3.920046E-09
       205  18  3.802513E+05  6.250713E+04  4.964623E+03  1.482104E+05  3.344345E-09  3.478899E-09
       205  19  3.701478E+05  5.918447E+04  4.495200E+03  1.452613E+05 -2.120386E+03 -4.685838E+02
       205  20  3.621165E+05  5.209504E+04  3.386795E+02  1.395592E+05 -1.095213E+03 -6.337783E+02
       205  21  3.493049E+05  5.071779E+04 -3.030523E+03  1.395450E+05 -6.688578E+01 -8.073565E+02
       205  22  3.648461E+05  5.709181E+04  3.133288E+03  1.436966E+05 -2.389683E+03 -5.702329E+02
       205  23  3.672026E+05  5.399647E+04  1.658344E+03  1.409432E+05 -1.369230E+03 -7.372084E+02
       205  24  3.647780E+05  5.661245E+04  9.670611E+02  1.438776E+05 -3.456093E+02 -9.125621E+02
       205  25  3.595443E+05  5.499914E+04  1.771368E+03  1.421319E+05 -2.658979E+03 -6.718814E+02
       205  26  3.722887E+05  5.589789E+04  2.978010E+03  1.423271E+05 -1.643250E+03 -8.406396E+02
       205  27  3.802513E+05  6.250713E+04  4.964626E+03  1.482104E+05 -6.243406E+02 -1.017771E+03
       206   1  3.366705E+05  4.610931E+04 -6.566091E+03  1.361394E+05 -1.820096E+02  1.042126E+03
       206   2  3.287154E+05  3.954943E+04 -9.508141E+03  1.303508E+05 -6.255567E+02  1.437555E+03
       206   3  3.156923E+05  3.818730E+04 -1.224058E+04  1.303844E+05 -1.069625E+03  1.834522E+03
       206   4  3.647391E+05  5.667447E+04  7.681544E+02  1.438409E+05  9.448284E+01  1.146484E+03
       206   5  3.672704E+05  5.405638E+04  5.132799E+02  1.409371E+05 -3.482194E+02  1.542219E+03
       206   6  3.647334E+05  5.663580E+04  4.673605E+02  1.438554E+05 -7.914492E+02  1.939492E+03
       206   7  3.928084E+05  6.723964E+04  8.102309E+03  1.515427E+05  3.709882E+02  1.250847E+03
       206   8  4.058268E+05  6.856341E+04  1.053458E+04  1.515240E+05 -7.086326E+01  1.646891E+03
       206   9  4.137770E+05  7.508452E+04  1.317514E+04  1.573274E+05 -5.132481E+02  2.044471E+03
       206  10  3.366705E+05  4.610931E+04 -6.566093E+03  1.361394E+05 -4.146688E-09 -3.578651E-09
       206  11  3.287154E+05  3.954943E+04 -9.508146E+03  1.303508E+05 -2.918173E-09  2.644012E-09
       206  12  3.156923E+05  3.818729E+04 -1.224059E+04  1.303844E+05  2.913050E-09  4.945624E-09
       206  13  3.647391E+05  5.667447E+04  7.681519E+02  1.438409E+05  1.103514E-09  3.320733E-09
       206  14  3.672704E+05  5.405637E+04  5.132752E+02  1.409371E+05  2.480918E-09  7.302408E-09
       206  15  3.647334E+05  5.663580E+04  4.673523E+02  1.438554E+05 -4.393194E-09 -5.677853E-09
       206  16  3.928084E+05  6.723964E+04  8.102305E+03  1.515427E+05  5.113137E-10  3.686792E-09
       206  17  4.058268E+05  6.856341E+04  1.053457E+04  1.515240E+05 -1.025909E-08  4.223596E-09
       206  18  4.137770E+05  7.508452E+04  1.317513E+04  1.573274E+05 -7.390534E-09 -7.269859E-09
       206  19  3.366705E+05  4.610931E+04 -6.566091E+03  1.361394E+05  1.820096E+02 -1.042126E+03
       206  20  3.287154E+05  3.954943E+04 -9.508141E+03  1.303508E+05  6.255567E+02 -1.437555E+03
       206  21  3.156923E+05  3.818730E+04 -1.224058E+04  1.303844E+05  1.069625E+03 -1.834522E+03
       206  22  3.647391E+05  5.667447E+04  7.681544E+02  1.438409E+05 -9.448284E+01 -1.146484E+03
       206  23  3.672704E+05  5.405638E+04  5.132799E+02  1.409371E+05  3.482194E+02 -1.542219E+03
       206  24  3.647334E+05  5.663580E+04  4.673605E+02  1.438554E+05  7.914492E+02 -1.939492E+03
       206  25  3.928084E+05  6.723964E+04  8.102309E+03  1.515427E+05 -3.709882E+02 -1.250847E+03
       206  26  4.058268E+05  6.856341E+04  1.053458E+04  1.515240E+05  7.086326E+01 -1.646891E+03
       206  27  4.137770E+05  7.508452E+04  1.317514E+04  1.573274E+05  5.132481E+02 -2.044471E+03
       207   1  3.030673E+05  3.345266E+04 -1.556049E+04  1.269600E+05 -1.259606E+03  2.092372E+03
       207   2  2.950426E+05  2.687483E+04 -1.805929E+04  1.211060E+05 -1.804192E+03  2.454194E+03
       207   3  2.819415E+05  2.557277E+04 -2.026343E+04  1.211184E+05 -2.348959E+03  2.816780E+03
       207   4  3.647297E+05  5.664242E+04  5.032279E+02  1.438691E+05 -9.807028E+02  2.197605E+03
       207   5  3.672725E+05  5.403803E+04  7.127146E+02  1.409233E+05 -1.524917E+03  2.559544E+03
       207   6  3.647389E+05  5.670927E+04  1.216526E+03  1.438437E+05 -2.069317E+03  2.922245E+03
       207   7  4.263957E+05  7.983241E+04  1.656662E+04  1.607798E+05 -7.017696E+02  2.302849E+03
       207   8  4.395074E+05  8.120151E+04  1.948424E+04  1.607426E+05 -1.245607E+03  2.664907E+03
       207   9  4.475425E+05  8.784609E+04  2.269584E+04  1.665717E+05 -1.789636E+03  3.027725E+03
       207  10  3.030673E+05  3.345265E+04 -1.556050E+04  1.269600E+05 -4.458913E-09  7.356418E-10
       207  11  2.950426E+05  2.687483E+04 -1.805930E+04  1.211060E+05  6.089289E-10 -4.035263E-09
       207  12  2.819415E+05  2.557276E+04 -2.026346E+04  1.211184E+05 -1.108425E-08  2.439654E-09
       207  13  3.647297E+05  5.664241E+04  5.032170E+02  1.438691E+05 -1.732398E-09  4.923507E-09
       207  14  3.672725E+05  5.403802E+04  7.126979E+02  1.409233E+05  1.486585E-09 -2.640660E-09
       207  15  3.647389E+05  5.670926E+04  1.216502E+03  1.438437E+05 -4.712690E-10  1.295572E-09
       207  16  4.263957E+05  7.983241E+04  1.656661E+04  1.607798E+05  1.730949E-09 -5.824203E-09
       207  17  4.395074E+05  8.120150E+04  1.948423E+04  1.607426E+05  3.799154E-09 -1.339661E-09
       207  18  4.475425E+05  8.784608E+04  2.269581E+04  1.665717E+05  5.399295E-09 -2.737799E-09
       207  19  3.030673E+05  3.345266E+04 -1.556049E+04  1.269600E+05  1.259606E+03 -2.092372E+03
       207  20  2.950426E+05  2.687483E+04 -1.805929E+04  1.211060E+05  1.804192E+03 -2.454194E+03
       207  21  2.819415E+05  2.557277E+04 -2.026343E+04  1.211184E+05  2.348959E+03 -2.816780E+03
       207  22  3.647297E+05  5.664242E+04  5.032279E+02  1.438691E+05  9.807028E+02 -2.197605E+03
       207  23  3.672725E+05  5.403803E+04  7.127146E+02  1.409233E+05  1.524917E+03 -2.559544E+03
       207  24  3.647389E+05  5.670927E+04  1.216526E+03  1.438437E+05  2.069317E+03 -2.922245E+03
       207  25  4.263957E+05  7.983241E+04  1.656662E+04  1.607798E+05  7.017696E+02 -2.302849E+03
       207  26  4.395074E+05  8.120151E+04  1.948424E+04  1.607426E+05  1.245607E+03 -2.664907E+03
       207  27  4.475425E+05  8.784609E+04  2.269584E+04  1.665717E+05  1.789636E+03 -3.027725E+03
       208   1  2.691482E+05  2.078392E+04 -2.329379E+04  1.178293E+05 -2.696278E+03  3.021679E+03
       208   2  2.609380E+05  1.393386E+04 -2.483600E+04  1.117364E+05 -4.279953E+03  2.997162E+03
       208   3  2.480660E+05  1.333277E+04 -2.506616E+04  1.113938E+05 -5.856945E+03  2.955272E+03
       208   4  3.647880E+05  5.662556E+04  1.576850E+03  1.439309E+05 -2.409644E+03  3.129763E+03
       208   5  3.671750E+05  5.390510E+04  2.778264E+03  1.409029E+05 -4.003330E+03  3.101436E+03
       208   6  3.649023E+05  5.743555E+04  5.299556E+03  1.436251E+05 -5.590359E+03  3.055728E+03
       208   7  4.604369E+05  9.246788E+04  2.644681E+04  1.700363E+05 -2.122961E+03  3.237865E+03
       208   8  4.734232E+05  9.387714E+04  3.039163E+04  1.700739E+05 -3.726656E+03  3.205729E+03
       208   9  4.817518E+05  1.015392E+05  3.566413E+04  1.758618E+05 -5.323717E+03  3.156204E+03
       208  10  2.691482E+05  2.078391E+04 -2.329382E+04  1.178293E+05  8.996823E-10  2.318868E-09
       208  11  2.609380E+05  1.393384E+04 -2.483605E+04  1.117364E+05  1.714468E-09 -3.931357E-09
       208  12  2.480660E+05  1.333276E+04 -2.506624E+04  1.113938E+05 -2.815845E-09 -8.112005E-09
       208  13  3.647879E+05  5.662555E+04  1.576820E+03  1.439309E+05  1.253613E-09  2.117700E-09
       208  14  3.671750E+05  5.390509E+04  2.778216E+03  1.409029E+05  4.543357E-09  1.411660E-08
       208  15  3.649022E+05  5.743553E+04  5.299480E+03  1.436251E+05  5.405154E-09 -5.006206E-10
       208  16  4.604369E+05  9.246786E+04  2.644678E+04  1.700363E+05 -3.582184E-09  1.710787E-10
       208  17  4.734231E+05  9.387712E+04  3.039159E+04  1.700739E+05 -4.722778E-09 -8.141035E-09
       208  18  4.817517E+05  1.015392E+05  3.566406E+04  1.758618E+05  5.179882E-09  2.387352E-09
       208  19  2.691482E+05  2.078392E+04 -2.329379E+04  1.178293E+05  2.696278E+03 -3.021679E+03
       208  20  2.609380E+05  1.393386E+04 -2.483600E+04  1.117364E+05  4.279953E+03 -2.997162E+03
       208  21  2.480660E+05  1.333277E+04 -2.506616E+04  1.113938E+05  5.856945E+03 -2.955272E+03
       208  22  3.647880E+05  5.662556E+04  1.576850E+03  1.439309E+05  2.409644E+03 -3.129763E+03
       208  23  3.671750E+05  5.390510E+04  2.778264E+03  1.409029E+05  4.003330E+03 -3.101436E+03
       208  24  3.649023E+05  5.743555E+04  5.299556E+03  1.436251E+05  5.590359E+03 -3.055728E+03
       208  25  4.604369E+05  9.246788E+04  2.644681E+04  1.700363E+05  2.122961E+03 -3.237865E+03
       208  26  4.734232E+05  9.387714E+04  3.039163E+04  1.700739E+05  3.726656E+03 -3.205729E+03
       208  27  4.817518E+05  1.015392E+05  3.566413E+04  1.758618E+05  5.323717E+03 -3.156204E+03
       209   1  2.345348E+05  8.405132E+03 -2.695140E+04  1.097567E+05 -7.055509E+03  2.889405E+03
       209   2  2.259585E+05 -6.062560E+02 -2.459378E+04  1.017755E+05 -1.326759E+04  1.108831E+03
       209   3  2.167425E+05  6.033375E+03 -1.493538E+04  9.735701E+04 -1.936437E+04 -9.770271E+02
       209   4  3.653487E+05  5.633750E+04  6.839450E+03  1.443428E+05 -6.694155E+03  3.025580E+03
       209   5  3.662627E+05  5.280790E+04  1.199406E+04  1.409355E+05 -1.307921E+04  1.179723E+03
       209   6  3.665704E+05  6.496181E+04  2.458520E+04  1.410908E+05 -1.934909E+04 -9.714748E+02
       209   7  4.961788E+05  1.042706E+05  4.062877E+04  1.789353E+05 -6.332719E+03  3.161784E+03
       209   8  5.065860E+05  1.062234E+05  4.858025E+04  1.801035E+05 -1.289078E+04  1.250634E+03
       209   9  5.164204E+05  1.238924E+05  6.410398E+04  1.848344E+05 -1.933381E+04 -9.659205E+02
       209  10  2.345348E+05  8.405110E+03 -2.695151E+04  1.097567E+05 -3.431576E-09 -9.002218E-09
       209  11  2.259583E+05 -6.063046E+02 -2.459411E+04  1.017755E+05 -4.237530E-09  5.209385E-09
       209  12  2.167421E+05  6.033273E+03 -1.493609E+04  9.735699E+04 -7.953469E-09  3.944575E-09
       209  13  3.653487E+05  5.633748E+04  6.839349E+03  1.443428E+05 -4.751218E-09 -4.681386E-09
       209  14  3.662625E+05  5.280785E+04  1.199374E+04  1.409355E+05 -2.076521E-09  2.043497E-09
       209  15  3.665700E+05  6.496171E+04  2.458449E+04  1.410908E+05 -6.749135E-09  2.233876E-09
       209  16  4.961787E+05  1.042706E+05  4.062867E+04  1.789353E+05 -8.631988E-10  4.713399E-10
       209  17  5.065858E+05  1.062234E+05  4.857993E+04  1.801035E+05 -5.706174E-10 -5.777629E-09
       209  18  5.164200E+05  1.238923E+05  6.410327E+04  1.848344E+05  1.343737E-09 -1.592514E-09
       209  19  2.345348E+05  8.405132E+03 -2.695140E+04  1.097567E+05  7.055509E+03 -2.889405E+03
       209  20  2.259585E+05 -6.062560E+02 -2.459378E+04  1.017755E+05  1.326759E+04 -1.108831E+03
       209  21  2.167425E+05  6.033375E+03 -1.493538E+04  9.735701E+04  1.936437E+04  9.770271E+02
       209  22  3.653487E+05  5.633750E+04  6.839450E+03  1.443428E+05  6.694155E+03 -3.025580E+03
       209  23  3.662627E+05  5.280790E+04  1.199406E+04  1.409355E+05  1.307921E+04 -1.179723E+03
       209  24  3.665704E+05  6.496181E+04  2.458520E+04  1.410908E+05  1.934909E+04  9.714748E+02
       209  25  4.961788E+05  1.042706E+05  4.062877E+04  1.789353E+05  6.332719E+03 -3.161784E+03
       209  26  5.065860E+05  1.062234E+05  4.858025E+04  1.801035E+05  1.289078E+04 -1.250634E+03
       209  27  5.164204E+05  1.238924E+05  6.410398E+04  1.848344E+05  1.933381E+04  9.659205E+02
       210   1  1.966666E+05 -3.969499E+01 -1.239688E+04  1.129396E+05 -2.536527E+04 -2.160576E+03
       210   2  1.883478E+05 -3.032145E+04  5.169957E+03  8.620525E+04 -5.050425E+04 -1.138124E+04
       210   3  2.176577E+05  5.002789E+04  7.026107E+04  3.819481E+04 -7.387089E+04 -2.530606E+04
       210   4  3.704848E+05  5.305619E+04  3.037600E+04  1.480477E+05 -2.392453E+04 -1.617288E+03
       210   5  3.577582E+05  4.227757E+04  5.087601E+04  1.418126E+05 -5.171521E+04 -1.183841E+04
       210   6  3.831723E+05  1.426348E+05  1.209908E+05  1.143052E+05 -7.773357E+04 -2.676505E+04
       210   7  5.443328E+05  1.061519E+05  7.314680E+04  1.831637E+05 -2.248334E+04 -1.073903E+03
       210   8  5.271959E+05  1.148805E+05  9.657928E+04  1.974342E+05 -5.292653E+04 -1.229575E+04
       210   9  5.487137E+05  2.352538E+05  1.717174E+05  1.904361E+05 -8.159733E+04 -2.822491E+04
       210  10  1.966659E+05 -3.987265E+01 -1.239810E+04  1.129396E+05 -3.860849E-09  5.805573E-09
       210  11  1.883450E+05 -3.032227E+04  5.164923E+03  8.620479E+04 -3.465847E-09  6.073607E-09
       210  12  2.176517E+05  5.002574E+04  7.024961E+04  3.819330E+04  1.987258E-09  2.775051E-09
       210  13  3.704842E+05  5.305603E+04  3.037492E+04  1.480477E+05 -2.886641E-09  8.708089E-10
       210  14  3.577553E+05  4.227671E+04  5.087073E+04  1.418121E+05 -2.807390E-09  1.670435E-09
       210  15  3.831656E+05  1.426324E+05  1.209781E+05  1.143035E+05 -5.190445E-09  5.830924E-09
       210  16  5.443323E+05  1.061518E+05  7.314585E+04  1.831636E+05  2.397628E-09 -1.366224E-09
       210  17  5.271928E+05  1.148796E+05  9.657373E+04  1.974337E+05 -2.931368E-09 -4.125859E-09
       210  18  5.487063E+05  2.352511E+05  1.717034E+05  1.904343E+05 -3.360033E-09  5.631888E-10
       210  19  1.966666E+05 -3.969499E+01 -1.239688E+04  1.129396E+05  2.536527E+04  2.160576E+03
       210  20  1.883478E+05 -3.032145E+04  5.169957E+03  8.620525E+04  5.050425E+04  1.138124E+04
       210  21  2.176577E+05  5.002789E+04  7.026107E+04  3.819481E+04  7.387089E+04  2.530606E+04
       210  22  3.704848E+05  5.305619E+04  3.037600E+04  1.480477E+05  2.392453E+04  1.617288E+03
       210  23  3.577582E+05  4.227757E+04  5.087601E+04  1.418126E+05  5.171521E+04  1.183841E+04
       210  24  3.831723E+05  1.426348E+05  1.209908E+05  1.143052E+05  7.773357E+04  2.676505E+04
       210  25  5.443328E+05  1.061519E+05  7.314680E+04  1.831637E+05  2.248334E+04  1.073903E+03
       210  26  5.271959E+05  1.148805E+05  9.657928E+04  1.974342E+05  5.292653E+04  1.229575E+04
       210  27  5.487137E+05  2.352538E+05  1.717174E+05  1.904361E+05  8.159733E+04  2.822491E+04
       211   1 -5.709015E+03 -5.282796E+05 -7.058091E+03 -4.306359E+03 -1.535765E+02 -2.023756E+03
       211   2 -4.255790E+03 -5.397864E+05 -8.432461E+03 -1.339145E+03 -6.900133E+02 -1.761576E+01
       211   3 -8.132556E+03 -5.529184E+05 -1.245301E+04 -6.433458E+03 -1.218115E+03  1.988546E+03
       211   4 -3.937452E+03 -5.211741E+05 -5.338296E+03 -5.824581E+03 -1.540565E+02 -1.714397E+03
       211   5  5.532006E+02 -5.203618E+05 -3.831842E+03 -1.790981E+03 -6.904853E+02  2.869792E+02
       211   6 -2.851736E+02 -5.211737E+05 -4.968163E+03 -5.818896E+03 -1.218573E+03  2.288415E+03
       211   7 -2.165884E+03 -5.140687E+05 -3.618503E+03 -7.342819E+03 -1.545379E+02 -1.405034E+03
       211   8  5.362165E+03 -5.009368E+05  7.687523E+02 -2.242831E+03 -6.909577E+02  5.915837E+02
       211   9  7.562138E+03 -4.894280E+05  2.516619E+03 -5.204302E+03 -1.219030E+03  2.588299E+03
       211  10 -5.709016E+03 -5.282796E+05 -7.058099E+03 -4.306360E+03  1.748980E-09  2.669058E-09
       211  11 -4.255791E+03 -5.397864E+05 -8.432462E+03 -1.339145E+03  1.854185E-09  6.072774E-09
       211  12 -8.132559E+03 -5.529185E+05 -1.245302E+04 -6.433456E+03 -7.236066E-09  1.259633E-09
       211  13 -3.937453E+03 -5.211741E+05 -5.338302E+03 -5.824581E+03  1.114881E-09  2.176623E-09
       211  14  5.532001E+02 -5.203618E+05 -3.831843E+03 -1.790981E+03  2.365941E-09 -4.908042E-09
       211  15 -2.851766E+02 -5.211737E+05 -4.968175E+03 -5.818894E+03 -4.322410E-09 -6.423065E-09
       211  16 -2.165884E+03 -5.140687E+05 -3.618507E+03 -7.342819E+03 -4.368852E-10 -5.409624E-09
       211  17  5.362165E+03 -5.009368E+05  7.687507E+02 -2.242831E+03 -9.765833E-10 -7.683156E-09
       211  18  7.562135E+03 -4.894280E+05  2.516603E+03 -5.204300E+03  8.555068E-10  3.159929E-10
       211  19 -5.709015E+03 -5.282796E+05 -7.058091E+03 -4.306359E+03  1.535765E+02  2.023756E+03
       211  20 -4.255790E+03 -5.397864E+05 -8.432461E+03 -1.339145E+03  6.900133E+02  1.761576E+01
       211  21 -8.132556E+03 -5.529184E+05 -1.245301E+04 -6.433458E+03  1.218115E+03 -1.988546E+03
       211  22 -3.937452E+03 -5.211741E+05 -5.338296E+03 -5.824581E+03  1.540565E+02  1.714397E+03
       211  23  5.532006E+02 -5.203618E+05 -3.831842E+03 -1.790981E+03  6.904853E+02 -2.869792E+02
       211  24 -2.851736E+02 -5.211737E+05 -4.968163E+03 -5.818896E+03  1.218573E+03 -2.288415E+03
       211  25 -2.165884E+03 -5.140687E+05 -3.618503E+03 -7.342819E+03  1.545379E+02  1.405034E+03
       211  26  5.362165E+03 -5.009368E+05  7.687523E+02 -2.242831E+03  6.909577E+02 -5.915837E+02
       211  27  7.562138E+03 -4.894280E+05  2.516619E+03 -5.204302E+03  1.219030E+03 -2.588299E+03
       212   1 -1.147736E+04 -5.674568E+05 -1.684906E+04 -4.775310E+03 -1.553979E+03  2.885721E+03
       212   2 -1.367763E+04 -5.784945E+05 -2.276106E+04 -2.141688E+03 -2.083046E+03  7.543893E+03
       212   3 -2.306077E+04 -5.919624E+05 -3.350941E+04 -7.520527E+03 -2.444946E+03  1.220226E+04
       212   4 -5.583871E+01 -5.213493E+05 -5.895449E+03 -5.807104E+03 -1.554511E+03  3.234448E+03
       212   5  7.622175E+02 -5.201439E+05 -8.941543E+03 -1.804983E+03 -2.083408E+03  7.796771E+03
       212   6 -5.585543E+03 -5.213519E+05 -1.675702E+04 -5.815301E+03 -2.445124E+03  1.235938E+04
       212   7  1.136554E+04 -4.752398E+05  5.058011E+03 -6.838974E+03 -1.555044E+03  3.583201E+03
       212   8  1.520182E+04 -4.617901E+05  4.877735E+03 -1.468244E+03 -2.083769E+03  8.049673E+03
       212   9  1.188934E+04 -4.507367E+05 -4.974808E+00 -4.109878E+03 -2.445301E+03  1.251652E+04
       212  10 -1.147737E+04 -5.674568E+05 -1.684908E+04 -4.775306E+03 -8.505817E-09  7.473778E-09
       212  11 -1.367765E+04 -5.784946E+05 -2.276117E+04 -2.141675E+03 -7.638017E-10  2.391536E-09
       212  12 -2.306082E+04 -5.919626E+05 -3.350971E+04 -7.520503E+03  1.755883E-09  1.855786E-09
       212  13 -5.584412E+01 -5.213493E+05 -5.895474E+03 -5.807100E+03 -1.144066E-09 -2.175328E-09
       212  14  7.621965E+02 -5.201439E+05 -8.941666E+03 -1.804970E+03  2.408099E-09 -6.921055E-10
       212  15 -5.585590E+03 -5.213520E+05 -1.675732E+04 -5.815277E+03 -1.889453E-09 -7.011454E-09
       212  16  1.136553E+04 -4.752398E+05  5.057983E+03 -6.838969E+03 -1.323306E-09 -9.087381E-09
       212  17  1.520180E+04 -4.617902E+05  4.877605E+03 -1.468231E+03 -1.380688E-09 -2.972769E-09
       212  18  1.188929E+04 -4.507369E+05 -5.280656E+00 -4.109854E+03 -5.520915E-10  8.729222E-11
       212  19 -1.147736E+04 -5.674568E+05 -1.684906E+04 -4.775310E+03  1.553979E+03 -2.885721E+03
       212  20 -1.367763E+04 -5.784945E+05 -2.276106E+04 -2.141688E+03  2.083046E+03 -7.543893E+03
       212  21 -2.306077E+04 -5.919624E+05 -3.350941E+04 -7.520527E+03  2.444946E+03 -1.220226E+04
       212  22 -5.583871E+01 -5.213493E+05 -5.895449E+03 -5.807104E+03  1.554511E+03 -3.234448E+03
       212  23  7.622175E+02 -5.201439E+05 -8.941543E+03 -1.804983E+03  2.083408E+03 -7.796771E+03
       212  24 -5.585543E+03 -5.213519E+05 -1.675702E+04 -5.815301E+03  2.445124E+03 -1.235938E+04
       212  25  1.136554E+04 -4.752398E+05  5.058011E+03 -6.838974E+03  1.555044E+03 -3.583201E+03
       212  26  1.520182E+04 -4.617901E+05  4.877735E+03 -1.468244E+03  2.083769E+03 -8.049673E+03
       212  27  1.188934E+04 -4.507367E+05 -4.974808E+00 -4.109878E+03  2.445301E+03 -1.251652E+04
       213   1 -1.784391E+04 -6.101032E+05 -4.058172E+04  2.683123E+03 -3.107732E+03  1.455281E+04
       213   2 -1.685382E+04 -6.121636E+05 -5.591205E+04 -7.972099E+03 -3.470714E+03  3.378210E+04
       213   3 -8.670896E+04 -6.344653E+05 -1.014855E+05 -2.653439E+04 -1.224293E+03  5.301432E+04
       213   4  3.181077E+03 -5.252522E+05 -2.050675E+04 -5.760114E+03 -3.109270E+03  1.549825E+04
       213   5  7.106171E+03 -5.152713E+05 -3.296135E+04 -1.849108E+03 -3.469565E+03  3.322760E+04
       213   6 -5.954821E+04 -5.252684E+05 -7.461360E+04 -5.845851E+03 -1.219733E+03  5.096032E+04
       213   7  2.420582E+04 -4.403944E+05 -4.322253E+02 -1.420451E+04 -3.110834E+03  1.644381E+04
       213   8  3.106563E+04 -4.183702E+05 -1.001129E+04  4.274848E+03 -3.468428E+03  3.267300E+04
       213   9 -3.238672E+04 -4.160597E+05 -4.774236E+04  1.484634E+04 -1.215312E+03  4.890596E+04
       213  10 -1.784398E+04 -6.101034E+05 -4.058214E+04  2.683159E+03  3.414144E-09  2.058886E-08
       213  11 -1.685414E+04 -6.121648E+05 -5.591422E+04 -7.972004E+03  1.158639E-09  1.093114E-09
       213  12 -8.670972E+04 -6.344683E+05 -1.014908E+05 -2.653434E+04  2.785665E-10 -1.419536E-08
       213  13  3.181002E+03 -5.252525E+05 -2.050722E+04 -5.760075E+03 -1.034869E-09 -2.092521E-09
       213  14  7.105861E+03 -5.152724E+05 -3.296345E+04 -1.849015E+03  4.001066E-09  1.580706E-09
       213  15 -5.954891E+04 -5.252712E+05 -7.461849E+04 -5.845801E+03 -3.626589E-10 -3.830779E-09
       213  16  2.420573E+04 -4.403947E+05 -4.327520E+02 -1.420447E+04  1.793550E-10 -1.938799E-08
       213  17  3.106533E+04 -4.183714E+05 -1.001332E+04  4.274939E+03  7.531744E-09 -2.153124E-09
       213  18 -3.238736E+04 -4.160623E+05 -4.774686E+04  1.484639E+04  4.017370E-10  1.364108E-08
       213  19 -1.784391E+04 -6.101032E+05 -4.058172E+04  2.683123E+03  3.107732E+03 -1.455281E+04
       213  20 -1.685382E+04 -6.121636E+05 -5.591205E+04 -7.972099E+03  3.470714E+03 -3.378210E+04
       213  21 -8.670896E+04 -6.344653E+05 -1.014855E+05 -2.653439E+04  1.224293E+03 -5.301432E+04
       213  22  3.181077E+03 -5.252522E+05 -2.050675E+04 -5.760114E+03  3.109270E+03 -1.549825E+04
       213  23  7.106171E+03 -5.152713E+05 -3.296135E+04 -1.849108E+03  3.469565E+03 -3.322760E+04
       213  24 -5.954821E+04 -5.252684E+05 -7.461360E+04 -5.845851E+03  1.219733E+03 -5.096032E+04
       213  25  2.420582E+04 -4.403944E+05 -4.322253E+02 -1.420451E+04  3.110834E+03 -1.644381E+04
       213  26  3.106563E+04 -4.183702E+05 -1.001129E+04  4.274848E+03  3.468428E+03 -3.267300E+04
       213  27 -3.238672E+04 -4.160597E+05 -4.774236E+04  1.484634E+04  1.215312E+03 -4.890596E+04
       214   1 -1.669022E+05 -3.480284E+04 -3.300703E+04 -1.564711E+03  5.721527E+03  1.470904E+02
       214   2 -1.754516E+05 -4.444397E+04 -3.963785E+04 -1.773280E+02  3.850159E+03  3.275112E+02
       214   3 -1.666039E+05 -4.234005E+04 -3.927012E+04 -1.105087E+03  1.980316E+03  2.484902E+02
       214   4  3.150200E+03  7.719453E+03  9.509514E+03 -8.115403E+02  5.730348E+03  1.471467E+02
       214   5 -5.551496E+03 -1.962302E+03  2.837506E+03  3.717443E+02  3.852305E+03  3.275154E+02
       214   6  3.146568E+03  1.021576E+02  3.168062E+03 -7.600588E+02  1.975788E+03  2.484752E+02
       214   7  1.732288E+05  5.023957E+04  5.202387E+04 -5.820703E+01  5.739171E+03  1.472030E+02
       214   8  1.643748E+05  4.051719E+04  4.531068E+04  9.209372E+02  3.854452E+03  3.275197E+02
       214   9  1.729231E+05  4.254219E+04  4.560407E+04 -4.149519E+02  1.971258E+03  2.484602E+02
       214  10 -1.669022E+05 -3.480285E+04 -3.300709E+04 -1.564712E+03  1.080361E-10  5.575812E-10
       214  11 -1.754517E+05 -4.444398E+04 -3.963788E+04 -1.773290E+02  6.278632E-10 -2.815634E-09
       214  12 -1.666039E+05 -4.234005E+04 -3.927013E+04 -1.105087E+03  2.705555E-10 -7.543309E-10
       214  13  3.150165E+03  7.719444E+03  9.509452E+03 -8.115410E+02  5.729633E-12 -2.316935E-09
       214  14 -5.551512E+03 -1.962306E+03  2.837478E+03  3.717433E+02 -1.223273E-09 -1.427284E-09
       214  15  3.146563E+03  1.021564E+02  3.168055E+03 -7.600592E+02  1.390625E-09 -1.095880E-09
       214  16  1.732287E+05  5.023956E+04  5.202381E+04 -5.820771E+01  3.146512E-09  2.342770E-09
       214  17  1.643748E+05  4.051718E+04  4.531065E+04  9.209362E+02 -1.702610E-09 -2.306988E-09
       214  18  1.729231E+05  4.254219E+04  4.560407E+04 -4.149523E+02 -6.210945E-10 -1.056560E-09
       214  19 -1.669022E+05 -3.480284E+04 -3.300703E+04 -1.564711E+03 -5.721527E+03 -1.470904E+02
       214  20 -1.754516E+05 -4.444397E+04 -3.963785E+04 -1.773280E+02 -3.850159E+03 -3.275112E+02
       214  21 -1.666039E+05 -4.234005E+04 -3.927012E+04 -1.105087E+03 -1.980316E+03 -2.484902E+02
       214  22  3.150200E+03  7.719453E+03  9.509514E+03 -8.115403E+02 -5.730348E+03 -1.471467E+02
       214  23 -5.551496E+03 -1.962302E+03  2.837506E+03  3.717443E+02 -3.852305E+03 -3.275154E+02
       214  24  3.146568E+03  1.021576E+02  3.168062E+03 -7.600588E+02 -1.975788E+03 -2.484752E+02
       214  25  1.732288E+05  5.023957E+04  5.202387E+04 -5.820703E+01 -5.739171E+03 -1.472030E+02
       214  26  1.643748E+05  4.051719E+04  4.531068E+04  9.209372E+02 -3.854452E+03 -3.275197E+02
       214  27  1.729231E+05  4.254219E+04  4.560407E+04 -4.149519E+02 -1.971258E+03 -2.484602E+02
       215   1 -1.191061E+05 -2.912718E+04 -2.769397E+04 -9.035076E+02  1.343865E+03  1.874651E+02
       215   2 -1.227313E+05 -3.025946E+04 -2.934048E+04  4.031090E+02  8.793418E+02  1.949507E+02
       215   3 -1.188153E+05 -2.974264E+04 -2.885816E+04 -6.248091E+02  4.147661E+02  1.574692E+02
       215   4  9.613125E+02  8.914226E+02  2.322136E+03 -7.806694E+02  1.344778E+03  1.874641E+02
       215   5 -2.810934E+03 -2.777081E+02  6.388246E+02  3.873657E+02  8.790969E+02  1.949483E+02
       215   6  9.589766E+02  2.028886E+02  1.085123E+03 -7.791109E+02  4.133634E+02  1.574696E+02
       215   7  1.210417E+05  3.090894E+04  3.233715E+04 -6.578119E+02  1.345691E+03  1.874631E+02
       215   8  1.171225E+05  2.970296E+04  3.061704E+04  3.716199E+02  8.788520E+02  1.949460E+02
       215   9  1.207462E+05  3.014734E+04  3.102732E+04 -9.334371E+02  4.119605E+02  1.574700E+02
       215  10 -1.191061E+05 -2.912719E+04 -2.769397E+04 -9.035078E+02  1.779463E-09 -1.612828E-10
       215  11 -1.227313E+05 -3.025946E+04 -2.934048E+04  4.031088E+02 -5.361683E-10  5.715421E-10
       215  12 -1.188153E+05 -2.974264E+04 -2.885816E+04 -6.248092E+02 -9.463895E-10  8.747877E-10
       215  13  9.613105E+02  8.914221E+02  2.322133E+03 -7.806696E+02  1.078009E-09 -8.669664E-10
       215  14 -2.810935E+03 -2.777083E+02  6.388231E+02  3.873656E+02  3.926795E-11  4.806760E-11
       215  15  9.589764E+02  2.028886E+02  1.085123E+03 -7.791110E+02  8.533890E-10  5.221042E-10
       215  16  1.210417E+05  3.090894E+04  3.233715E+04 -6.578121E+02  3.857050E-10 -6.004003E-11
       215  17  1.171225E+05  2.970296E+04  3.061704E+04  3.716197E+02  5.738369E-10  9.367485E-11
       215  18  1.207462E+05  3.014734E+04  3.102732E+04 -9.334371E+02  7.872266E-10  4.186683E-10
       215  19 -1.191061E+05 -2.912718E+04 -2.769397E+04 -9.035076E+02 -1.343865E+03 -1.874651E+02
       215  20 -1.227313E+05 -3.025946E+04 -2.934048E+04  4.031090E+02 -8.793418E+02 -1.949507E+02
       215  21 -1.188153E+05 -2.974264E+04 -2.885816E+04 -6.248091E+02 -4.147661E+02 -1.574692E+02
       215  22  9.613125E+02  8.914226E+02  2.322136E+03 -7.806694E+02 -1.344778E+03 -1.874641E+02
       215  23 -2.810934E+03 -2.777081E+02  6.388246E+02  3.873657E+02 -8.790969E+02 -1.949483E+02
       215  24  9.589766E+02  2.028886E+02  1.085123E+03 -7.791109E+02 -4.133634E+02 -1.574696E+02
       215  25  1.210417E+05  3.090894E+04  3.233715E+04 -6.578119E+02 -1.345691E+03 -1.874631E+02
       215  26  1.171225E+05  2.970296E+04  3.061704E+04  3.716199E+02 -8.788520E+02 -1.949460E+02
       215  27  1.207462E+05  3.014734E+04  3.102732E+04 -9.334371E+02 -4.119605E+02 -1.574700E+02
       216   1 -6.957688E+04 -1.741826E+04 -1.664939E+04 -6.685089E+02  1.936432E+02  1.328692E+02
       216   2 -7.062702E+04 -1.733306E+04 -1.688476E+04  5.605032E+02 -5.740095E+01  1.097399E+02
       216   3 -6.927705E+04 -1.713089E+04 -1.645974E+04 -5.677081E+02 -3.085192E+02  7.885480E+01
       216   4 -1.802079E+02 -6.845214E+01  6.984907E+02 -7.849551E+02  1.931819E+02  1.328693E+02
       216   5 -1.381033E+03 -2.049067E+01  4.259046E+02  3.940240E+02 -5.807297E+01  1.097413E+02
       216   6 -1.815634E+02  1.445895E+02  8.138616E+02 -7.842039E+02 -3.094018E+02  7.885788E+01
       216   7  6.922083E+04  1.728099E+04  1.804600E+04 -9.014117E+02  1.927204E+02  1.328695E+02
       216   8  6.786930E+04  1.729172E+04  1.773621E+04  2.275298E+02 -5.874507E+01  1.097427E+02
       216   9  6.891825E+04  1.741971E+04  1.808710E+04 -1.000719E+03 -3.102846E+02  7.886095E+01
       216  10 -6.957688E+04 -1.741826E+04 -1.664939E+04 -6.685089E+02 -1.073436E-09 -3.979407E-11
       216  11 -7.062702E+04 -1.733306E+04 -1.688476E+04  5.605032E+02  1.637269E-10  7.347943E-11
       216  12 -6.927705E+04 -1.713089E+04 -1.645974E+04 -5.677081E+02  8.920023E-10 -1.924323E-09
       216  13 -1.802080E+02 -6.845217E+01  6.984906E+02 -7.849551E+02 -2.197206E-13  1.199680E-10
       216  14 -1.381033E+03 -2.049068E+01  4.259045E+02  3.940240E+02  1.406433E-09  1.375342E-09
       216  15 -1.815635E+02  1.445895E+02  8.138614E+02 -7.842039E+02 -3.940492E-10  3.382870E-09
       216  16  6.922083E+04  1.728099E+04  1.804600E+04 -9.014117E+02  6.583936E-10 -2.908120E-10
       216  17  6.786930E+04  1.729172E+04  1.773621E+04  2.275298E+02  9.644587E-10 -2.677814E-09
       216  18  6.891825E+04  1.741971E+04  1.808710E+04 -1.000719E+03  9.409966E-10 -1.820583E-10
       216  19 -6.957688E+04 -1.741826E+04 -1.664939E+04 -6.685089E+02 -1.936432E+02 -1.328692E+02
       216  20 -7.062702E+04 -1.733306E+04 -1.688476E+04  5.605032E+02  5.740095E+01 -1.097399E+02
       216  21 -6.927705E+04 -1.713089E+04 -1.645974E+04 -5.677081E+02  3.085192E+02 -7.885480E+01
       216  22 -1.802079E+02 -6.845214E+01  6.984907E+02 -7.849551E+02 -1.931819E+02 -1.328693E+02
       216  23 -1.381033E+03 -2.049067E+01  4.259046E+02  3.940240E+02  5.807297E+01 -1.097413E+02
       216  24 -1.815634E+02  1.445895E+02  8.138616E+02 -7.842039E+02  3.094018E+02 -7.885788E+01
       216  25  6.922083E+04  1.728099E+04  1.804600E+04 -9.014117E+02 -1.927204E+02 -1.328695E+02
       216  26  6.786930E+04  1.729172E+04  1.773621E+04  2.275298E+02  5.874507E+01 -1.097427E+02
       216  27  6.891825E+04  1.741971E+04  1.808710E+04 -1.000719E+03  3.102846E+02 -7.886095E+01
       217   1 -1.899514E+04 -4.693537E+03 -3.783814E+03 -7.248796E+02 -4.707565E+02  6.040560E+01
       217   2 -1.898472E+04 -4.590445E+03 -3.266675E+03  4.575826E+02 -1.111007E+03  3.378025E+01
       217   3 -1.869292E+04 -4.236497E+03 -2.242992E+03 -7.192168E+02 -1.751267E+03  6.275792E+00
       217   4 -6.508288E+02 -1.072485E+02  8.014731E+02 -7.858814E+02 -4.714623E+02  6.040861E+01
       217   5 -7.916983E+02 -4.186134E+01  1.281259E+03  3.946519E+02 -1.111750E+03  3.378365E+01
       217   6 -6.511767E+02  2.743866E+02  2.267605E+03 -7.840720E+02 -1.752047E+03  6.279598E+00
       217   7  1.769379E+04  4.479014E+03  5.386735E+03 -8.468846E+02 -4.721681E+02  6.041162E+01
       217   8  1.740163E+04  4.506697E+03  5.829167E+03  3.317197E+02 -1.112494E+03  3.378704E+01
       217   9  1.739086E+04  4.785246E+03  6.778178E+03 -8.489288E+02 -1.752828E+03  6.283404E+00
       217  10 -1.899514E+04 -4.693537E+03 -3.783814E+03 -7.248796E+02 -2.227690E-11  2.468205E-10
       217  11 -1.898472E+04 -4.590445E+03 -3.266677E+03  4.575826E+02  5.200934E-10  6.745342E-10
       217  12 -1.869292E+04 -4.236498E+03 -2.242998E+03 -7.192168E+02 -1.787057E-09 -2.256924E-09
       217  13 -6.508290E+02 -1.072486E+02  8.014727E+02 -7.858813E+02  1.609212E-09 -2.490108E-09
       217  14 -7.916996E+02 -4.186167E+01  1.281256E+03  3.946519E+02  1.787869E-09  1.186033E-09
       217  15 -6.511800E+02  2.743858E+02  2.267599E+03 -7.840720E+02  4.458321E-10 -3.907764E-09
       217  16  1.769379E+04  4.479014E+03  5.386734E+03 -8.468846E+02 -1.756290E-09  1.998499E-09
       217  17  1.740162E+04  4.506697E+03  5.829164E+03  3.317197E+02 -1.029112E-09 -9.058388E-10
       217  18  1.739086E+04  4.785245E+03  6.778172E+03 -8.489287E+02  1.199117E-09 -5.635334E-09
       217  19 -1.899514E+04 -4.693537E+03 -3.783814E+03 -7.248796E+02  4.707565E+02 -6.040560E+01
       217  20 -1.898472E+04 -4.590445E+03 -3.266675E+03  4.575826E+02  1.111007E+03 -3.378025E+01
       217  21 -1.869292E+04 -4.236497E+03 -2.242992E+03 -7.192168E+02  1.751267E+03 -6.275792E+00
       217  22 -6.508288E+02 -1.072485E+02  8.014731E+02 -7.858814E+02  4.714623E+02 -6.040861E+01
       217  23 -7.916983E+02 -4.186134E+01  1.281259E+03  3.946519E+02  1.111750E+03 -3.378365E+01
       217  24 -6.511767E+02  2.743866E+02  2.267605E+03 -7.840720E+02  1.752047E+03 -6.279598E+00
       217  25  1.769379E+04  4.479014E+03  5.386735E+03 -8.468846E+02  4.721681E+02 -6.041162E+01
       217  26  1.740163E+04  4.506697E+03  5.829167E+03  3.317197E+02  1.112494E+03 -3.378704E+01
       217  27  1.739086E+04  4.785245E+03  6.778178E+03 -8.489288E+02  1.752828E+03 -6.283404E+00
       218   1  3.242458E+04  8.159871E+03  1.113497E+04 -8.895695E+02 -2.227550E+03 -1.003657E+01
       218   2  3.182502E+04  7.790316E+03  1.310426E+04  2.822425E+02 -4.694732E+03 -3.106982E+01
       218   3  3.272823E+04  1.011521E+04  1.745487E+04 -9.003873E+02 -7.161936E+03 -5.257846E+01
       218   4 -3.800452E+02 -4.158684E+01  2.934198E+03 -7.867273E+02 -2.228253E+03 -1.003320E+01
       218   5 -1.131085E+03 -4.490310E+02  4.866080E+03  3.942667E+02 -4.695332E+03 -3.106737E+01
       218   6 -3.793433E+02  1.838029E+03  9.179299E+03 -7.791888E+02 -7.162432E+03 -5.257700E+01
       218   7 -3.318370E+04 -8.243126E+03 -5.266652E+03 -6.838893E+02 -2.228956E+03 -1.002982E+01
       218   8 -3.408621E+04 -8.688460E+03 -3.372177E+03  5.062861E+02 -4.695932E+03 -3.106492E+01
       218   9 -3.348592E+04 -6.439240E+03  9.036415E+02 -6.579958E+02 -7.162929E+03 -5.257555E+01
       218  10  3.242458E+04  8.159870E+03  1.113496E+04 -8.895695E+02 -1.928075E-09  1.802172E-09
       218  11  3.182500E+04  7.790310E+03  1.310421E+04  2.822424E+02  1.968140E-09  7.671223E-09
       218  12  3.272817E+04  1.011520E+04  1.745478E+04 -9.003876E+02  9.578996E-10 -3.871419E-09
       218  13 -3.800505E+02 -4.158818E+01  2.934188E+03 -7.867273E+02 -1.111233E-13 -6.778935E-10
       218  14 -1.131108E+03 -4.490370E+02  4.866038E+03  3.942666E+02  1.729661E-09 -1.054495E-10
       218  15 -3.793984E+02  1.838015E+03  9.179202E+03 -7.791891E+02 -5.705701E-12 -4.733540E-10
       218  16 -3.318370E+04 -8.243127E+03 -5.266661E+03 -6.838893E+02 -1.637044E-09 -9.242885E-10
       218  17 -3.408623E+04 -8.688466E+03 -3.372219E+03  5.062860E+02  1.254046E-09  8.498724E-10
       218  18 -3.348597E+04 -6.439253E+03  9.035451E+02 -6.579961E+02 -7.023918E-10 -8.258444E-10
       218  19  3.242458E+04  8.159871E+03  1.113497E+04 -8.895695E+02  2.227550E+03  1.003657E+01
       218  20  3.182502E+04  7.790316E+03  1.310426E+04  2.822425E+02  4.694732E+03  3.106982E+01
       218  21  3.272823E+04  1.011521E+04  1.745487E+04 -9.003873E+02  7.161936E+03  5.257846E+01
       218  22 -3.800452E+02 -4.158684E+01  2.934198E+03 -7.867273E+02  2.228253E+03  1.003320E+01
       218  23 -1.131085E+03 -4.490310E+02  4.866080E+03  3.942667E+02  4.695332E+03  3.106737E+01
       218  24 -3.793433E+02  1.838029E+03  9.179299E+03 -7.791888E+02  7.162432E+03  5.257700E+01
       218  25 -3.318370E+04 -8.243126E+03 -5.266652E+03 -6.838893E+02  2.228956E+03  1.002982E+01
       218  26 -3.408621E+04 -8.688460E+03 -3.372177E+03  5.062861E+02  4.695932E+03  3.106492E+01
       218  27 -3.348592E+04 -6.439240E+03  9.036415E+02 -6.579958E+02  7.162929E+03  5.257555E+01
       219   1  8.510076E+04  2.070086E+04  3.280626E+04 -9.107775E+02 -9.098246E+03 -6.812595E+01
       219   2  8.055846E+04  1.786597E+04  4.010896E+04  1.993495E+02 -1.899225E+04 -8.501084E+01
       219   3  8.540413E+04  3.365534E+04  5.919779E+04 -1.046886E+03 -2.888635E+04 -1.132561E+02
       219   4  1.370824E+03 -2.302751E+02  1.187653E+04 -7.926643E+02 -9.098516E+03 -6.812429E+01
       219   5 -3.322338E+03 -3.103589E+03  1.914184E+04  3.951204E+02 -1.899162E+04 -8.501469E+01
       219   6  1.372850E+03  1.264838E+04  3.819365E+04 -7.734753E+02 -2.888483E+04 -1.132681E+02
       219   7 -8.235276E+04 -2.116194E+04 -9.053734E+03 -6.745614E+02 -9.098786E+03 -6.812263E+01
       219   8 -8.719676E+04 -2.407368E+04 -1.825822E+03  5.908688E+02 -1.899100E+04 -8.501855E+01
       219   9 -8.265204E+04 -8.359112E+03  1.718897E+04 -5.000996E+02 -2.888330E+04 -1.132800E+02
       219  10  8.510067E+04  2.070084E+04  3.280611E+04 -9.107780E+02  4.699398E-10 -5.195099E-09
       219  11  8.055807E+04  1.786587E+04  4.010828E+04  1.993482E+02  9.562561E-10 -7.540584E-10
       219  12  8.540324E+04  3.365511E+04  5.919622E+04 -1.046888E+03 -1.227145E-09  1.006377E-10
       219  13  1.370735E+03 -2.302973E+02  1.187637E+04 -7.926648E+02 -5.505704E-10 -1.032524E-09
       219  14 -3.322725E+03 -3.103686E+03  1.914116E+04  3.951191E+02 -9.442575E-10 -1.404398E-09
       219  15  1.371954E+03  1.264815E+04  3.819208E+04 -7.734779E+02 -1.110472E-09  1.545722E-09
       219  16 -8.235285E+04 -2.116196E+04 -9.053890E+03 -6.745619E+02 -1.107315E-09 -2.226162E-09
       219  17 -8.719715E+04 -2.407377E+04 -1.826500E+03  5.908675E+02  4.321462E-10  3.697343E-09
       219  18 -8.265293E+04 -8.359336E+03  1.718740E+04 -5.001022E+02  9.542432E-10  2.574980E-09
       219  19  8.510076E+04  2.070086E+04  3.280626E+04 -9.107775E+02  9.098246E+03  6.812595E+01
       219  20  8.055846E+04  1.786597E+04  4.010896E+04  1.993495E+02  1.899225E+04  8.501084E+01
       219  21  8.540413E+04  3.365534E+04  5.919779E+04 -1.046886E+03  2.888635E+04  1.132561E+02
       219  22  1.370824E+03 -2.302751E+02  1.187653E+04 -7.926643E+02  9.098516E+03  6.812429E+01
       219  23 -3.322338E+03 -3.103589E+03  1.914184E+04  3.951204E+02  1.899162E+04  8.501469E+01
       219  24  1.372850E+03  1.264838E+04  3.819365E+04 -7.734753E+02  2.888483E+04  1.132681E+02
       219  25 -8.235276E+04 -2.116194E+04 -9.053734E+03 -6.745614E+02  9.098786E+03  6.812263E+01
       219  26 -8.719676E+04 -2.407368E+04 -1.825822E+03  5.908688E+02  1.899100E+04  8.501855E+01
       219  27 -8.265204E+04 -8.359112E+03  1.718897E+04 -5.000996E+02  2.888330E+04  1.132800E+02
       220   1  1.428415E+05  3.120895E+04  8.134590E+04 -1.928186E+02 -3.678897E+04 -1.564153E+02
       220   2  1.209661E+05  1.344184E+04  1.088705E+05  2.445933E+02 -7.664259E+04 -2.967272E+02
       220   3  1.431700E+05  1.159414E+05  1.941765E+05 -2.074869E+03 -1.164965E+05 -5.198665E+02
       220   4  9.079019E+03 -2.227027E+03  4.791200E+04 -8.157134E+02 -3.678652E+04 -1.563785E+02
       220   5 -1.295888E+04 -2.003611E+04  7.539600E+04  4.515545E+02 -7.663460E+04 -2.967602E+02
       220   6  9.087730E+03  8.243360E+04  1.606660E+05 -1.038090E+03 -1.164830E+05 -5.200783E+02
       220   7 -1.246673E+05 -3.566436E+04  1.447674E+04 -1.438471E+03 -3.678407E+04 -1.563418E+02
       220   8 -1.468676E+05 -5.351541E+04  4.192018E+04  6.584668E+02 -7.662662E+04 -2.967932E+02
       220   9 -1.249782E+05  4.892445E+04  1.271541E+05 -1.545905E+00 -1.164695E+05 -5.202900E+02
       220  10  1.428401E+05  3.120859E+04  8.134336E+04 -1.928233E+02 -2.456997E-10 -5.769177E-10
       220  11  1.209598E+05  1.344027E+04  1.088594E+05  2.445750E+02  1.892488E-09 -3.715866E-10
       220  12  1.431554E+05  1.159377E+05  1.941510E+05 -2.074918E+03 -5.198687E-11  1.016322E-09
       220  13  9.077566E+03 -2.227391E+03  4.790945E+04 -8.157181E+02 -1.070993E-09  1.054312E-10
       220  14 -1.296518E+04 -2.003768E+04  7.538497E+04  4.515362E+02 -8.111745E-10 -2.448145E-09
       220  15  9.073162E+03  8.242995E+04  1.606405E+05 -1.038139E+03 -6.508935E-10  2.512133E-09
       220  16 -1.246687E+05 -3.566472E+04  1.447419E+04 -1.438476E+03 -8.079167E-10 -1.368356E-09
       220  17 -1.468739E+05 -5.351698E+04  4.190914E+04  6.584485E+02 -8.046116E-10 -3.085129E-09
       220  18 -1.249928E+05  4.892081E+04  1.271286E+05 -1.594701E+00 -1.410382E-09  1.123654E-09
       220  19  1.428415E+05  3.120895E+04  8.134590E+04 -1.928186E+02  3.678897E+04  1.564153E+02
       220  20  1.209661E+05  1.344184E+04  1.088705E+05  2.445933E+02  7.664259E+04  2.967272E+02
       220  21  1.431700E+05  1.159414E+05  1.941765E+05 -2.074869E+03  1.164965E+05  5.198665E+02
       220  22  9.079019E+03 -2.227027E+03  4.791200E+04 -8.157134E+02  3.678652E+04  1.563785E+02
       220  23 -1.295888E+04 -2.003611E+04  7.539600E+04  4.515545E+02  7.663460E+04  2.967602E+02
       220  24  9.087730E+03  8.243360E+04  1.606660E+05 -1.038090E+03  1.164830E+05  5.200783E+02
       220  25 -1.246673E+05 -3.566436E+04  1.447674E+04 -1.438471E+03  3.678407E+04  1.563418E+02
       220  26 -1.468676E+05 -5.351541E+04  4.192018E+04  6.584668E+02  7.662662E+04  2.967932E+02
       220  27 -1.249782E+05  4.892445E+04  1.271541E+05 -1.545904E+00  1.164695E+05  5.202900E+02
       221   1  2.295803E+05  2.898245E+04  2.391713E+05  4.104687E+03 -1.489822E+05 -8.381040E+02
       221   2  1.157985E+05 -8.262575E+04  3.374597E+05 -1.149046E+02 -3.093511E+05 -2.221963E+03
       221   3  2.303905E+05  5.716463E+05  7.349027E+05 -1.297542E+04 -4.697140E+05 -4.049132E+03
       221   4  5.003775E+04 -1.594024E+04  1.942917E+05 -8.034326E+02 -1.489656E+05 -8.369919E+02
       221   5 -6.411300E+04 -1.275756E+05  2.924995E+05  1.276217E+03 -3.093045E+05 -2.222788E+03
       221   6  5.016098E+04  5.267794E+05  6.899017E+05 -5.284431E+03 -4.696374E+05 -4.055167E+03
       221   7 -1.294756E+05 -6.086529E+04  1.494096E+05 -5.710161E+03 -1.489490E+05 -8.358797E+02
       221   8 -2.439951E+05 -1.725278E+05  2.475368E+05  2.666891E+03 -3.092579E+05 -2.223614E+03
       221   9 -1.300389E+05  4.819102E+05  6.448983E+05  2.404260E+03 -4.695608E+05 -4.061202E+03
       221  10  2.295565E+05  2.897650E+04  2.391296E+05  4.104587E+03  4.612183E-10  3.170127E-09
       221  11  1.156958E+05 -8.265143E+04  3.372800E+05 -1.154580E+02  3.341149E-10 -8.128752E-09
       221  12  2.301538E+05  5.715871E+05  7.344882E+05 -1.297695E+04 -1.390253E-09 -5.730365E-09
       221  13  5.001393E+04 -1.594620E+04  1.942500E+05 -8.035330E+02  7.035047E-12  3.548756E-09
       221  14 -6.421570E+04 -1.276013E+05  2.923197E+05  1.275664E+03 -1.696424E-09  1.830084E-09
       221  15  4.992427E+04  5.267202E+05  6.894872E+05 -5.285964E+03 -1.310395E-09 -3.750785E-09
       221  16 -1.294994E+05 -6.087125E+04  1.493679E+05 -5.710262E+03  4.543599E-10 -3.283170E-11
       221  17 -2.440978E+05 -1.725535E+05  2.473570E+05  2.666338E+03 -1.939602E-09 -7.773800E-09
       221  18 -1.302756E+05  4.818510E+05  6.444838E+05  2.402726E+03 -1.617113E-09 -6.814703E-09
       221  19  2.295803E+05  2.898245E+04  2.391713E+05  4.104687E+03  1.489822E+05  8.381040E+02
       221  20  1.157985E+05 -8.262575E+04  3.374597E+05 -1.149046E+02  3.093511E+05  2.221963E+03
       221  21  2.303905E+05  5.716463E+05  7.349027E+05 -1.297542E+04  4.697140E+05  4.049132E+03
       221  22  5.003775E+04 -1.594024E+04  1.942917E+05 -8.034326E+02  1.489656E+05  8.369919E+02
       221  23 -6.411300E+04 -1.275756E+05  2.924995E+05  1.276217E+03  3.093045E+05  2.222788E+03
       221  24  5.016098E+04  5.267794E+05  6.899017E+05 -5.284431E+03  4.696374E+05  4.055167E+03
       221  25 -1.294756E+05 -6.086529E+04  1.494096E+05 -5.710161E+03  1.489490E+05  8.358797E+02
       221  26 -2.439951E+05 -1.725278E+05  2.475368E+05  2.666891E+03  3.092579E+05  2.223614E+03
       221  27 -1.300389E+05  4.819102E+05  6.448983E+05  2.404260E+03  4.695608E+05  4.061202E+03
       222   1  5.257464E+05  4.706224E+04  6.890692E+05 -4.505127E+03 -4.258205E+03  4.696185E+05
       222   2 -1.271671E+05 -5.886315E+04  2.937249E+05 -2.832578E+03 -2.798418E+03  3.089887E+05
       222   3 -1.627359E+04  4.717605E+04  1.940366E+05  3.835460E+03 -1.341959E+03  1.483478E+05
       222   4  5.255863E+05  4.722219E+04  6.890692E+05  4.331049E+03 -4.251520E+03  4.696186E+05
       222   5 -1.272071E+05 -5.882305E+04  2.937249E+05 -6.191411E+02 -2.797316E+03  3.089887E+05
       222   6 -1.619379E+04  4.709622E+04  1.940366E+05 -5.730199E+02 -1.343013E+03  1.483478E+05
       222   7  5.254264E+05  4.738230E+04  6.890692E+05  1.316723E+04 -4.244835E+03  4.696186E+05
       222   8 -1.272472E+05 -5.878294E+04  2.937249E+05  1.594296E+03 -2.796214E+03  3.089887E+05
       222   9 -1.611392E+04  4.701644E+04  1.940366E+05 -4.981500E+03 -1.344066E+03  1.483478E+05
       222  10  5.256872E+05  4.682556E+04  6.886548E+05 -4.503519E+03  3.156240E-09 -4.733067E-10
       222  11 -1.271927E+05 -5.896564E+04  2.935454E+05 -2.831882E+03 -1.363340E-08 -2.356086E-08
       222  12 -1.627950E+04  4.715242E+04  1.939952E+05  3.835620E+03 -5.787418E-09 -1.573844E-08
       222  13  5.255271E+05  4.698550E+04  6.886548E+05  4.332656E+03  6.545056E-09  6.127366E-09
       222  14 -1.272328E+05 -5.892554E+04  2.935454E+05 -6.184452E+02 -2.404400E-09 -2.612231E-08
       222  15 -1.619970E+04  4.707260E+04  1.939952E+05 -5.728594E+02  1.498492E-08 -2.127521E-08
       222  16  5.253672E+05  4.714561E+04  6.886548E+05  1.316883E+04 -1.655695E-09  4.966363E-09
       222  17 -1.272728E+05 -5.888543E+04  2.935455E+05  1.594992E+03 -4.811640E-09 -1.936825E-09
       222  18 -1.611983E+04  4.699282E+04  1.939952E+05 -4.981339E+03 -7.508307E-09 -1.134240E-08
       222  19  5.257464E+05  4.706224E+04  6.890692E+05 -4.505127E+03  4.258205E+03 -4.696185E+05
       222  20 -1.271671E+05 -5.886315E+04  2.937249E+05 -2.832578E+03  2.798418E+03 -3.089887E+05
       222  21 -1.627359E+04  4.717605E+04  1.940366E+05  3.835460E+03  1.341959E+03 -1.483478E+05
       222  22  5.255863E+05  4.722219E+04  6.890692E+05  4.331049E+03  4.251520E+03 -4.696186E+05
       222  23 -1.272071E+05 -5.882305E+04  2.937249E+05 -6.191411E+02  2.797316E+03 -3.089887E+05
       222  24 -1.619379E+04  4.709622E+04  1.940366E+05 -5.730199E+02  1.343013E+03 -1.483478E+05
       222  25  5.254264E+05  4.738230E+04  6.890692E+05  1.316723E+04  4.244835E+03 -4.696186E+05
       222  26 -1.272472E+05 -5.878294E+04  2.937249E+05  1.594296E+03  2.796214E+03 -3.089887E+05
       222  27 -1.611392E+04  4.701644E+04  1.940366E+05 -4.981500E+03  1.344066E+03 -1.483478E+05
       223   1  8.258426E+04  7.858094E+03  1.610206E+05 -6.575489E+02 -1.050528E+03  1.160127E+05
       223   2 -2.006870E+04 -9.841416E+03  7.709302E+04 -4.050763E+02 -6.832512E+02  7.546704E+04
       223   3 -2.192433E+03  7.882708E+03  4.970573E+04  6.179260E+02 -3.161140E+02  3.492204E+04
       223   4  8.256011E+04  7.882262E+03  1.610206E+05  6.761241E+02 -1.050278E+03  1.160127E+05
       223   5 -2.007435E+04 -9.835739E+03  7.709303E+04 -9.269921E+01 -6.832132E+02  7.546704E+04
       223   6 -2.179592E+03  7.869891E+03  4.970574E+04 -9.098662E+01 -3.161539E+02  3.492204E+04
       223   7  8.253597E+04  7.906434E+03  1.610206E+05  2.009797E+03 -1.050029E+03  1.160127E+05
       223   8 -2.008000E+04 -9.830062E+03  7.709303E+04  2.196779E+02 -6.831752E+02  7.546705E+04
       223   9 -2.166749E+03  7.857075E+03  4.970574E+04 -7.998993E+02 -3.161938E+02  3.492204E+04
       223  10  8.258065E+04  7.843643E+03  1.609953E+05 -6.574507E+02 -7.690465E-09 -9.817060E-09
       223  11 -2.007023E+04 -9.847531E+03  7.708232E+04 -4.050348E+02  1.113124E-09 -2.505562E-08
       223  12 -2.192760E+03  7.881399E+03  4.970344E+04  6.179349E+02 -2.246780E-09 -1.080081E-08
       223  13  8.255650E+04  7.867811E+03  1.609953E+05  6.762222E+02  1.438999E-08 -2.007357E-08
       223  14 -2.007588E+04 -9.841855E+03  7.708232E+04 -9.265769E+01  1.144598E-08 -3.430756E-08
       223  15 -2.179920E+03  7.868582E+03  4.970345E+04 -9.097773E+01  6.126677E-09 -1.204112E-08
       223  16  8.253236E+04  7.891983E+03  1.609953E+05  2.009895E+03 -8.220588E-09 -6.903945E-09
       223  17 -2.008153E+04 -9.836178E+03  7.708233E+04  2.197194E+02 -8.410882E-09 -7.079154E-09
       223  18 -2.167077E+03  7.855766E+03  4.970345E+04 -7.998904E+02  1.847985E-09 -9.134204E-09
       223  19  8.258426E+04  7.858094E+03  1.610206E+05 -6.575489E+02  1.050528E+03 -1.160127E+05
       223  20 -2.006870E+04 -9.841416E+03  7.709302E+04 -4.050763E+02  6.832512E+02 -7.546704E+04
       223  21 -2.192433E+03  7.882708E+03  4.970573E+04  6.179260E+02  3.161140E+02 -3.492204E+04
       223  22  8.256011E+04  7.882262E+03  1.610206E+05  6.761241E+02  1.050278E+03 -1.160127E+05
       223  23 -2.007435E+04 -9.835739E+03  7.709303E+04 -9.269921E+01  6.832132E+02 -7.546704E+04
       223  24 -2.179592E+03  7.869891E+03  4.970574E+04 -9.098662E+01  3.161539E+02 -3.492204E+04
       223  25  8.253597E+04  7.906434E+03  1.610206E+05  2.009797E+03  1.050029E+03 -1.160127E+05
       223  26 -2.008000E+04 -9.830062E+03  7.709303E+04  2.196779E+02  6.831752E+02 -7.546705E+04
       223  27 -2.166749E+03  7.857075E+03  4.970574E+04 -7.998993E+02  3.161938E+02 -3.492204E+04
       224   1  1.285766E+04  1.562637E+03  4.099143E+04 -1.099032E+02 -2.415468E+02  2.668001E+04
       224   2 -3.616723E+03 -1.957240E+03  2.418858E+04 -5.105057E+01 -1.293504E+02  1.428783E+04
       224   3  1.627069E+03  1.567769E+03  2.088428E+04  1.406506E+02 -1.716350E+01  1.895909E+03
       224   4  1.285382E+04  1.566485E+03  4.099143E+04  1.021943E+02 -2.415377E+02  2.668001E+04
       224   5 -3.617374E+03 -1.956580E+03  2.418858E+04 -1.503677E+01 -1.293496E+02  1.428783E+04
       224   6  1.629607E+03  1.565240E+03  2.088428E+04  5.829652E-01 -1.716393E+01  1.895909E+03
       224   7  1.284998E+04  1.570333E+03  4.099143E+04  3.142918E+02 -2.415285E+02  2.668001E+04
       224   8 -3.618024E+03 -1.955920E+03  2.418858E+04  2.097703E+01 -1.293488E+02  1.428783E+04
       224   9  1.632146E+03  1.562711E+03  2.088428E+04 -1.394846E+02 -1.716436E+01  1.895909E+03
       224  10  1.285746E+04  1.561872E+03  4.099009E+04 -1.098980E+02  3.608907E-09 -4.734372E-09
       224  11 -3.616778E+03 -1.957459E+03  2.418819E+04 -5.104909E+01  8.451643E-09 -2.177280E-08
       224  12  1.627068E+03  1.567765E+03  2.088427E+04  1.406506E+02  3.075208E-09 -7.480448E-09
       224  13  1.285363E+04  1.565721E+03  4.099009E+04  1.021995E+02 -1.076755E-08 -7.690516E-09
       224  14 -3.617429E+03 -1.956799E+03  2.418819E+04 -1.503528E+01 -4.768922E-09 -2.389074E-08
       224  15  1.629606E+03  1.565236E+03  2.088427E+04  5.829913E-01 -1.682003E-08 -5.061303E-09
       224  16  1.284979E+04  1.569569E+03  4.099010E+04  3.142970E+02  7.235116E-09 -1.509533E-09
       224  17 -3.618079E+03 -1.956140E+03  2.418820E+04  2.097852E+01  2.884855E-09 -1.854119E-09
       224  18  1.632145E+03  1.562708E+03  2.088428E+04 -1.394846E+02 -2.913648E-09 -6.563052E-09
       224  19  1.285766E+04  1.562637E+03  4.099143E+04 -1.099032E+02  2.415468E+02 -2.668001E+04
       224  20 -3.616723E+03 -1.957240E+03  2.418858E+04 -5.105057E+01  1.293504E+02 -1.428783E+04
       224  21  1.627069E+03  1.567769E+03  2.088428E+04  1.406506E+02  1.716350E+01 -1.895909E+03
       224  22  1.285382E+04  1.566485E+03  4.099143E+04  1.021943E+02  2.415377E+02 -2.668001E+04
       224  23 -3.617374E+03 -1.956580E+03  2.418858E+04 -1.503677E+01  1.293496E+02 -1.428783E+04
       224  24  1.629607E+03  1.565240E+03  2.088428E+04  5.829652E-01  1.716393E+01 -1.895909E+03
       224  25  1.284998E+04  1.570333E+03  4.099143E+04  3.142918E+02  2.415285E+02 -2.668001E+04
       224  26 -3.618024E+03 -1.955920E+03  2.418858E+04  2.097704E+01  1.293488E+02 -1.428783E+04
       224  27  1.632146E+03  1.562711E+03  2.088428E+04 -1.394846E+02  1.716436E+01 -1.895909E+03
       225   1 -8.229167E+06 -2.701469E+06 -1.430506E+06 -2.909160E+06 -4.802421E+05 -1.007175E+05
       225   2 -8.017078E+06 -2.367979E+06 -1.074803E+06 -2.831904E+06 -3.230840E+05  1.542683E+05
       225   3 -7.850718E+06 -2.233796E+06 -9.285562E+05 -2.765815E+06 -1.166628E+05  2.819509E+05
       225   4 -3.703507E+06 -8.672660E+05 -2.210696E+05 -1.547334E+06 -1.700722E+05  1.843772E+04
       225   5 -3.684898E+06 -6.997116E+05 -1.008025E+05 -1.574109E+06 -1.820404E+05  2.081430E+05
       225   6 -3.677583E+06 -6.969074E+05 -5.383613E+04 -1.612181E+06 -1.450340E+05  2.709051E+05
       225   7  8.424637E+05  9.691034E+05  9.869495E+05 -1.760885E+05  1.426125E+05  1.386880E+05
       225   8  6.665420E+05  9.704333E+05  8.720820E+05 -3.080122E+05 -3.991540E+04  2.624574E+05
       225   9  5.136449E+05  8.414527E+05  8.199558E+05 -4.513058E+05 -1.736141E+05  2.597825E+05
       225  10 -8.229420E+06 -2.701543E+06 -1.430965E+06 -2.909199E+06 -2.847443E-09  1.526310E-10
       225  11 -8.017197E+06 -2.368033E+06 -1.075046E+06 -2.831863E+06 -1.918125E-09  3.564473E-09
       225  12 -7.850754E+06 -2.233885E+06 -9.287308E+05 -2.765789E+06  1.317863E-08  2.045612E-09
       225  13 -3.703539E+06 -8.672742E+05 -2.211249E+05 -1.547331E+06  4.599191E-09  1.373941E-09
       225  14 -3.684946E+06 -6.997669E+05 -1.009460E+05 -1.574079E+06  7.400617E-11 -1.224212E-08
       225  15 -3.677625E+06 -6.969917E+05 -5.401322E+04 -1.612150E+06 -8.894387E-10 -2.170138E-09
       225  16  8.424367E+05  9.690773E+05  9.868752E+05 -1.761044E+05  3.465003E-09  3.422379E-10
       225  17  6.665218E+05  9.703590E+05  8.719498E+05 -3.080038E+05 -1.909530E-10  5.681209E-09
       225  18  5.135945E+05  8.413723E+05  8.197727E+05 -4.512695E+05 -1.437495E-08 -6.703697E-09
       225  19 -8.229167E+06 -2.701469E+06 -1.430506E+06 -2.909160E+06  4.802421E+05  1.007175E+05
       225  20 -8.017078E+06 -2.367979E+06 -1.074803E+06 -2.831904E+06  3.230840E+05 -1.542683E+05
       225  21 -7.850718E+06 -2.233796E+06 -9.285562E+05 -2.765815E+06  1.166628E+05 -2.819509E+05
       225  22 -3.703507E+06 -8.672660E+05 -2.210696E+05 -1.547334E+06  1.700722E+05 -1.843772E+04
       225  23 -3.684898E+06 -6.997116E+05 -1.008025E+05 -1.574109E+06  1.820404E+05 -2.081430E+05
       225  24 -3.677583E+06 -6.969074E+05 -5.383613E+04 -1.612181E+06  1.450340E+05 -2.709051E+05
       225  25  8.424637E+05  9.691034E+05  9.869495E+05 -1.760885E+05 -1.426125E+05 -1.386880E+05
       225  26  6.665420E+05  9.704333E+05  8.720820E+05 -3.080122E+05  3.991540E+04 -2.624574E+05
       225  27  5.136449E+05  8.414527E+05  8.199558E+05 -4.513058E+05  1.736141E+05 -2.597825E+05
       226   1 -7.668874E+06 -2.196162E+06 -8.829308E+05 -2.731876E+06 -1.323667E+05  2.626386E+05
       226   2 -7.462748E+06 -2.074242E+06 -8.045555E+05 -2.639290E+06 -1.079938E+05  2.655130E+05
       226   3 -7.211476E+06 -2.007312E+06 -7.440163E+05 -2.598945E+06 -8.049500E+04  2.600574E+05
       226   4 -3.669245E+06 -7.055908E+05 -4.136234E+04 -1.608298E+06 -1.343742E+05  2.616824E+05
       226   5 -3.691995E+06 -6.751126E+05 -2.218115E+04 -1.583599E+06 -1.210153E+05  2.603836E+05
       226   6 -3.667423E+06 -6.973653E+05 -1.196105E+04 -1.611137E+06 -1.045500E+05  2.507787E+05
       226   7  3.469599E+05  7.864181E+05  7.993307E+05 -4.779317E+05 -1.363961E+05  2.607216E+05
       226   8  9.350869E+04  7.252826E+05  7.594386E+05 -5.219008E+05 -1.341234E+05  2.552221E+05
       226   9 -1.103527E+05  6.136765E+05  7.194327E+05 -6.180568E+05 -1.287549E+05  2.414439E+05
       226  10 -7.668912E+06 -2.196241E+06 -8.830930E+05 -2.731848E+06  1.403830E-08  7.368194E-09
       226  11 -7.462779E+06 -2.074320E+06 -8.047095E+05 -2.639267E+06 -7.354298E-09  1.458406E-09
       226  12 -7.211501E+06 -2.007386E+06 -7.441553E+05 -2.598928E+06 -2.338942E-08 -5.220789E-09
       226  13 -3.669283E+06 -7.056690E+05 -4.152462E+04 -1.608270E+06 -4.560212E-10 -2.983473E-10
       226  14 -3.692029E+06 -6.751892E+05 -2.233576E+04 -1.583574E+06 -2.249059E-10 -4.070671E-10
       226  15 -3.667452E+06 -6.974356E+05 -1.209949E+04 -1.611116E+06 -4.856382E-09  5.459420E-09
       226  16  3.469218E+05  7.863403E+05  7.991683E+05 -4.779031E+05 -2.068871E-08 -4.493461E-09
       226  17  9.347198E+04  7.252080E+05  7.592827E+05 -5.218733E+05 -3.827991E-09  6.172485E-09
       226  18 -1.103860E+05  6.136096E+05  7.192922E+05 -6.180318E+05  1.613339E-08  1.346572E-08
       226  19 -7.668874E+06 -2.196162E+06 -8.829308E+05 -2.731876E+06  1.323667E+05 -2.626386E+05
       226  20 -7.462748E+06 -2.074242E+06 -8.045555E+05 -2.639290E+06  1.079938E+05 -2.655130E+05
       226  21 -7.211476E+06 -2.007312E+06 -7.440163E+05 -2.598945E+06  8.049500E+04 -2.600574E+05
       226  22 -3.669245E+06 -7.055908E+05 -4.136234E+04 -1.608298E+06  1.343742E+05 -2.616824E+05
       226  23 -3.691995E+06 -6.751126E+05 -2.218115E+04 -1.583599E+06  1.210153E+05 -2.603836E+05
       226  24 -3.667423E+06 -6.973653E+05 -1.196105E+04 -1.611137E+06  1.045500E+05 -2.507787E+05
       226  25  3.469599E+05  7.864181E+05  7.993307E+05 -4.779317E+05  1.363961E+05 -2.607216E+05
       226  26  9.350869E+04  7.252826E+05  7.594386E+05 -5.219008E+05  1.341234E+05 -2.552221E+05
       226  27 -1.103527E+05  6.136765E+05  7.194327E+05 -6.180568E+05  1.287549E+05 -2.414439E+05
       227   1 -7.046178E+06 -1.946644E+06 -7.057980E+05 -2.553441E+06 -7.610873E+04  2.496758E+05
       227   2 -6.830411E+06 -1.829660E+06 -6.517037E+05 -2.456191E+06 -6.582083E+04  2.336355E+05
       227   3 -6.562734E+06 -1.763129E+06 -5.998466E+05 -2.415751E+06 -5.529510E+04  2.168014E+05
       227   4 -3.666319E+06 -6.980048E+05 -9.068816E+03 -1.611599E+06 -9.884084E+04  2.409256E+05
       227   5 -3.691957E+06 -6.720910E+05 -5.211777E+03 -1.583373E+06 -8.958888E+04  2.245340E+05
       227   6 -3.665557E+06 -6.964103E+05 -2.767258E+03 -1.611963E+06 -8.010147E+04  2.073503E+05
       227   7 -2.745646E+05  5.516525E+05  6.870765E+05 -6.649465E+05 -1.217083E+05  2.321247E+05
       227   8 -5.432617E+05  4.863444E+05  6.407752E+05 -7.064219E+05 -1.134881E+05  2.153834E+05
       227   9 -7.596689E+05  3.710353E+05  5.938787E+05 -8.046668E+05 -1.050340E+05  1.978521E+05
       227  10 -7.046201E+06 -1.946712E+06 -7.059258E+05 -2.553426E+06 -1.570720E-09  1.186855E-09
       227  11 -6.830430E+06 -1.829719E+06 -6.518142E+05 -2.456178E+06 -5.450550E-09  2.395241E-09
       227  12 -6.562750E+06 -1.763180E+06 -5.999405E+05 -2.415741E+06 -1.028426E-09 -3.773845E-10
       227  13 -3.666345E+06 -6.980696E+05 -9.195990E+03 -1.611579E+06  4.560903E-10 -2.076760E-09
       227  14 -3.691979E+06 -6.721472E+05 -5.321374E+03 -1.583357E+06  1.849684E-09  1.191749E-09
       227  15 -3.665575E+06 -6.964581E+05 -2.859919E+03 -1.611949E+06 -1.166706E-09  8.304393E-10
       227  16 -2.745949E+05  5.515908E+05  6.869477E+05 -6.649238E+05 -2.174686E-10  4.254681E-10
       227  17 -5.432879E+05  4.862913E+05  6.406640E+05 -7.064023E+05  6.637190E-10  2.847850E-10
       227  18 -7.596912E+05  3.709904E+05  5.937846E+05 -8.046501E+05  2.662379E-09 -4.334826E-10
       227  19 -7.046178E+06 -1.946644E+06 -7.057980E+05 -2.553441E+06  7.610873E+04 -2.496758E+05
       227  20 -6.830411E+06 -1.829660E+06 -6.517037E+05 -2.456191E+06  6.582083E+04 -2.336355E+05
       227  21 -6.562734E+06 -1.763129E+06 -5.998466E+05 -2.415751E+06  5.529510E+04 -2.168014E+05
       227  22 -3.666319E+06 -6.980048E+05 -9.068816E+03 -1.611599E+06  9.884084E+04 -2.409256E+05
       227  23 -3.691957E+06 -6.720910E+05 -5.211777E+03 -1.583373E+06  8.958888E+04 -2.245340E+05
       227  24 -3.665557E+06 -6.964103E+05 -2.767258E+03 -1.611963E+06  8.010147E+04 -2.073503E+05
       227  25 -2.745646E+05  5.516525E+05  6.870765E+05 -6.649465E+05  1.217083E+05 -2.321247E+05
       227  26 -5.432617E+05  4.863444E+05  6.407752E+05 -7.064219E+05  1.134881E+05 -2.153834E+05
       227  27 -7.596689E+05  3.710353E+05  5.938787E+05 -8.046668E+05  1.050340E+05 -1.978521E+05
       228   1 -6.391215E+06 -1.699366E+06 -5.623776E+05 -2.368250E+06 -5.056919E+04  2.061504E+05
       228   2 -6.166067E+06 -1.579220E+06 -5.102893E+05 -2.267847E+06 -4.237018E+04  1.877105E+05
       228   3 -5.887523E+06 -1.511076E+06 -4.586414E+05 -2.226816E+06 -3.412535E+04  1.690085E+05
       228   4 -3.665022E+06 -6.966270E+05 -2.163424E+03 -1.612501E+06 -7.556769E+04  1.966503E+05
       228   5 -3.691423E+06 -6.700728E+05 -1.460284E+03 -1.582938E+06 -6.770941E+04  1.781166E+05
       228   6 -3.664437E+06 -6.954471E+05 -9.334113E+02 -1.612760E+06 -5.980597E+04  1.593211E+05
       228   7 -9.311358E+05  3.067468E+05  5.576641E+05 -8.536538E+05 -1.006855E+05  1.871055E+05
       228   8 -1.210426E+06  2.396004E+05  5.070549E+05 -8.954775E+05 -9.315850E+04  1.684816E+05
       228   9 -1.436211E+06  1.206089E+05  4.565257E+05 -9.966465E+05 -8.558672E+04  1.495964E+05
       228  10 -6.391229E+06 -1.699412E+06 -5.624621E+05 -2.368242E+06 -5.166786E-10 -9.897981E-10
       228  11 -6.166078E+06 -1.579258E+06 -5.103588E+05 -2.267840E+06  5.064784E-10 -1.915343E-09
       228  12 -5.887532E+06 -1.511107E+06 -4.586971E+05 -2.226811E+06 -3.161690E-09 -1.467816E-09
       228  13 -3.665038E+06 -6.966700E+05 -2.246655E+03 -1.612489E+06 -7.612402E-10  3.838425E-10
       228  14 -3.691436E+06 -6.701080E+05 -1.528378E+03 -1.582928E+06  7.188386E-10 -1.048782E-09
       228  15 -3.664448E+06 -6.954753E+05 -9.877211E+02 -1.612752E+06  8.147976E-10  8.601079E-10
       228  16 -9.311560E+05  3.067066E+05  5.575794E+05 -8.536387E+05  1.557587E-09  1.098203E-09
       228  17 -1.210443E+06  2.395676E+05  5.069854E+05 -8.954648E+05  1.605078E-09  1.017153E-09
       228  18 -1.436225E+06  1.205829E+05  4.564700E+05 -9.966362E+05  2.861878E-09  2.678693E-09
       228  19 -6.391215E+06 -1.699366E+06 -5.623776E+05 -2.368250E+06  5.056919E+04 -2.061504E+05
       228  20 -6.166067E+06 -1.579220E+06 -5.102893E+05 -2.267847E+06  4.237018E+04 -1.877105E+05
       228  21 -5.887523E+06 -1.511076E+06 -4.586414E+05 -2.226816E+06  3.412535E+04 -1.690085E+05
       228  22 -3.665022E+06 -6.966270E+05 -2.163424E+03 -1.612501E+06  7.556769E+04 -1.966503E+05
       228  23 -3.691423E+06 -6.700728E+05 -1.460284E+03 -1.582938E+06  6.770941E+04 -1.781166E+05
       228  24 -3.664437E+06 -6.954471E+05 -9.334113E+02 -1.612760E+06  5.980597E+04 -1.593211E+05
       228  25 -9.311358E+05  3.067468E+05  5.576641E+05 -8.536538E+05  1.006855E+05 -1.871055E+05
       228  26 -1.210426E+06  2.396004E+05  5.070549E+05 -8.954775E+05  9.315850E+04 -1.684816E+05
       228  27 -1.436211E+06  1.206089E+05  4.565257E+05 -9.966465E+05  8.558672E+04 -1.495964E+05
       229   1 -5.710050E+06 -1.445534E+06 -4.205665E+05 -2.178033E+06 -2.952447E+04  1.579139E+05
       229   2 -5.477538E+06 -1.322846E+06 -3.680708E+05 -2.075309E+06 -2.142386E+04  1.387604E+05
       229   3 -5.190858E+06 -1.253586E+06 -3.159789E+05 -2.033916E+06 -1.330085E+04  1.194422E+05
       229   4 -3.664079E+06 -6.955951E+05 -9.315228E+02 -1.613188E+06 -5.542696E+04  1.481616E+05
       229   5 -3.690921E+06 -6.684516E+05 -1.160305E+03 -1.582614E+06 -4.754176E+04  1.289529E+05
       229   6 -3.663634E+06 -6.946907E+05 -1.627889E+03 -1.613387E+06 -3.963466E+04  1.095798E+05
       229   7 -1.613768E+06  5.470025E+04  4.184911E+05 -1.046605E+06 -8.142213E+04  1.383746E+05
       229   8 -1.901004E+06 -1.379012E+04  3.655864E+05 -1.088599E+06 -7.374109E+04  1.191150E+05
       229   9 -2.134007E+06 -1.356037E+05  3.126017E+05 -1.191898E+06 -6.603848E+04  9.969134E+04
       229  10 -5.710058E+06 -1.445561E+06 -4.206149E+05 -2.178029E+06  4.479001E-09  1.602852E-09
       229  11 -5.477544E+06 -1.322866E+06 -3.681078E+05 -2.075306E+06 -6.998688E-09 -4.799911E-09
       229  12 -5.190862E+06 -1.253602E+06 -3.160060E+05 -2.033914E+06 -1.334754E-08 -5.580776E-09
       229  13 -3.664088E+06 -6.956195E+05 -9.784514E+02 -1.613181E+06 -3.422312E-09 -1.013269E-09
       229  14 -3.690928E+06 -6.684700E+05 -1.195729E+03 -1.582609E+06 -6.619790E-09 -2.681736E-09
       229  15 -3.663639E+06 -6.947040E+05 -1.653354E+03 -1.613384E+06 -2.550622E-09 -1.676443E-10
       229  16 -1.613780E+06  5.467796E+04  4.184428E+05 -1.046596E+06 -9.591985E-09 -3.085182E-09
       229  17 -1.901013E+06 -1.380678E+04  3.655496E+05 -1.088592E+06 -7.901088E-09 -4.865028E-09
       229  18 -2.134014E+06 -1.356155E+05  3.125748E+05 -1.191893E+06  4.628578E-09  1.064683E-10
       229  19 -5.710050E+06 -1.445534E+06 -4.205665E+05 -2.178033E+06  2.952447E+04 -1.579139E+05
       229  20 -5.477538E+06 -1.322846E+06 -3.680708E+05 -2.075309E+06  2.142386E+04 -1.387604E+05
       229  21 -5.190858E+06 -1.253586E+06 -3.159789E+05 -2.033916E+06  1.330085E+04 -1.194422E+05
       229  22 -3.664079E+06 -6.955951E+05 -9.315228E+02 -1.613188E+06  5.542696E+04 -1.481616E+05
       229  23 -3.690921E+06 -6.684516E+05 -1.160305E+03 -1.582614E+06  4.754176E+04 -1.289529E+05
       229  24 -3.663634E+06 -6.946907E+05 -1.627889E+03 -1.613387E+06  3.963466E+04 -1.095798E+05
       229  25 -1.613768E+06  5.470025E+04  4.184911E+05 -1.046605E+06  8.142213E+04 -1.383746E+05
       229  26 -1.901004E+06 -1.379012E+04  3.655864E+05 -1.088599E+06  7.374109E+04 -1.191150E+05
       229  27 -2.134007E+06 -1.356037E+05  3.126017E+05 -1.191898E+06  6.603848E+04 -9.969134E+04
       230   1 -5.008981E+06 -1.186786E+06 -2.775299E+05 -1.984210E+06 -8.523307E+03  1.081236E+05
       230   2 -4.771314E+06 -1.062441E+06 -2.254933E+05 -1.879892E+06  7.893735E+02  8.902541E+04
       230   3 -4.479208E+06 -9.926817E+05 -1.748585E+05 -1.838262E+06  1.008828E+04  6.990169E+04
       230   4 -3.663453E+06 -6.947858E+05 -2.132121E+03 -1.613709E+06 -3.502714E+04  9.821021E+04
       230   5 -3.690504E+06 -6.672707E+05 -3.764256E+03 -1.582395E+06 -2.574659E+04  7.911560E+04
       230   6 -3.663197E+06 -6.943382E+05 -6.778712E+03 -1.613792E+06 -1.648074E+04  5.999532E+04
       230   7 -2.316037E+06 -2.026288E+05  2.731791E+05 -1.242455E+06 -6.159340E+04  8.827355E+04
       230   8 -2.608479E+06 -2.720001E+05  2.179090E+05 -1.284413E+06 -5.233267E+04  6.918707E+04
       230   9 -2.846495E+06 -3.959385E+05  1.612696E+05 -1.389047E+06 -4.308757E+04  5.007482E+04
       230  10 -5.008985E+06 -1.186798E+06 -2.775520E+05 -1.984209E+06  4.795121E-10  3.185791E-10
       230  11 -4.771316E+06 -1.062450E+06 -2.255082E+05 -1.879892E+06 -1.012895E-09 -2.668769E-09
       230  12 -4.479209E+06 -9.926869E+05 -1.748679E+05 -1.838262E+06 -3.663586E-09 -2.949413E-09
       230  13 -3.663457E+06 -6.947965E+05 -2.152511E+03 -1.613706E+06 -2.225113E-11  1.335181E-10
       230  14 -3.690506E+06 -6.672776E+05 -3.777238E+03 -1.582393E+06  2.112470E-09  2.696617E-09
       230  15 -3.663198E+06 -6.943421E+05 -6.785972E+03 -1.613791E+06 -1.395942E-09 -2.749805E-09
       230  16 -2.316043E+06 -2.026382E+05  2.731574E+05 -1.242451E+06 -1.611829E-09  5.847058E-10
       230  17 -2.608483E+06 -2.720060E+05  2.178949E+05 -1.284410E+06  8.479528E-10  1.649716E-09
       230  18 -2.846498E+06 -3.959416E+05  1.612614E+05 -1.389045E+06  5.063365E-09  4.056872E-09
       230  19 -5.008981E+06 -1.186786E+06 -2.775299E+05 -1.984210E+06  8.523307E+03 -1.081236E+05
       230  20 -4.771314E+06 -1.062441E+06 -2.254933E+05 -1.879892E+06 -7.893735E+02 -8.902541E+04
       230  21 -4.479208E+06 -9.926817E+05 -1.748585E+05 -1.838262E+06 -1.008828E+04 -6.990169E+04
       230  22 -3.663453E+06 -6.947858E+05 -2.132121E+03 -1.613709E+06  3.502714E+04 -9.821021E+04
       230  23 -3.690504E+06 -6.672707E+05 -3.764256E+03 -1.582395E+06  2.574659E+04 -7.911560E+04
       230  24 -3.663197E+06 -6.943382E+05 -6.778712E+03 -1.613792E+06  1.648074E+04 -5.999532E+04
       230  25 -2.316037E+06 -2.026288E+05  2.731791E+05 -1.242455E+06  6.159340E+04 -8.827355E+04
       230  26 -2.608479E+06 -2.720001E+05  2.179090E+05 -1.284413E+06  5.233267E+04 -6.918707E+04
       230  27 -2.846495E+06 -3.959385E+05  1.612696E+05 -1.389047E+06  4.308757E+04 -5.007482E+04
       231   1 -4.294489E+06 -9.253475E+05 -1.376419E+05 -1.788656E+06  1.603484E+04  5.882840E+04
       231   2 -4.054511E+06 -7.996727E+05 -9.045843E+04 -1.681852E+06  2.999448E+04  4.183371E+04
       231   3 -3.761941E+06 -7.327987E+05 -4.932820E+04 -1.637582E+06  4.350908E+04  2.601860E+04
       231   4 -3.663452E+06 -6.941523E+05 -9.024003E+03 -1.614179E+06 -1.087211E+04  4.880260E+04
       231   5 -3.689873E+06 -6.670395E+05 -1.645028E+04 -1.581978E+06  4.667642E+03  3.240145E+04
       231   6 -3.664094E+06 -6.990476E+05 -3.118968E+04 -1.612340E+06  1.975951E+04  1.717845E+04
       231   7 -3.032006E+06 -4.629240E+05  1.195756E+05 -1.439537E+06 -3.780842E+04  3.876576E+04
       231   8 -3.325095E+06 -5.343947E+05  5.755398E+04 -1.482049E+06 -2.067526E+04  2.296322E+04
       231   9 -3.566235E+06 -6.652950E+05 -1.304888E+04 -1.587093E+06 -3.994269E+03  8.336887E+03
       231  10 -4.294490E+06 -9.253513E+05 -1.376489E+05 -1.788656E+06 -2.155923E-09 -1.975280E-09
       231  11 -4.054513E+06 -7.996748E+05 -9.046344E+04 -1.681853E+06  2.210895E-09  2.432821E-09
       231  12 -3.761943E+06 -7.327999E+05 -4.933306E+04 -1.637583E+06  4.415869E-09  1.132852E-10
       231  13 -3.663453E+06 -6.941549E+05 -9.028693E+03 -1.614178E+06 -1.318573E-09  2.732185E-10
       231  14 -3.689873E+06 -6.670406E+05 -1.645229E+04 -1.581978E+06  9.033005E-11 -3.545031E-09
       231  15 -3.664094E+06 -6.990480E+05 -3.119097E+04 -1.612340E+06  7.636038E-10 -1.805771E-09
       231  16 -3.032008E+06 -4.629260E+05  1.195701E+05 -1.439536E+06  4.021897E-10  1.358079E-09
       231  17 -3.325096E+06 -5.343954E+05  5.755219E+04 -1.482049E+06 -1.129920E-09 -1.259123E-10
       231  18 -3.566235E+06 -6.652951E+05 -1.304904E+04 -1.587093E+06 -2.010011E-09 -3.663186E-09
       231  19 -4.294489E+06 -9.253475E+05 -1.376419E+05 -1.788656E+06 -1.603484E+04 -5.882840E+04
       231  20 -4.054511E+06 -7.996727E+05 -9.045843E+04 -1.681852E+06 -2.999448E+04 -4.183371E+04
       231  21 -3.761941E+06 -7.327987E+05 -4.932820E+04 -1.637582E+06 -4.350908E+04 -2.601860E+04
       231  22 -3.663452E+06 -6.941523E+05 -9.024003E+03 -1.614179E+06  1.087211E+04 -4.880260E+04
       231  23 -3.689873E+06 -6.670395E+05 -1.645028E+04 -1.581978E+06 -4.667642E+03 -3.240145E+04
       231  24 -3.664094E+06 -6.990476E+05 -3.118968E+04 -1.612340E+06 -1.975951E+04 -1.717845E+04
       231  25 -3.032006E+06 -4.629240E+05  1.195756E+05 -1.439537E+06  3.780842E+04 -3.876576E+04
       231  26 -3.325095E+06 -5.343947E+05  5.755398E+04 -1.482049E+06  2.067526E+04 -2.296322E+04
       231  27 -3.566235E+06 -6.652950E+05 -1.304888E+04 -1.587093E+06  3.994269E+03 -8.336887E+03
       232   1 -3.569825E+06 -6.699437E+05 -1.922821E+04 -1.603705E+06  5.679398E+04  1.733276E+04
       232   2 -3.351968E+06 -5.289308E+05  8.138807E+03 -1.450324E+06  7.479865E+04  1.144791E+04
       232   3 -3.116458E+06 -5.341634E+05 -1.578247E+02 -1.335045E+06  8.557587E+04  2.496938E+04
       232   4 -3.669262E+06 -6.932940E+05 -4.067451E+04 -1.616694E+06  2.892660E+04  6.961672E+03
       232   5 -3.684707E+06 -6.830425E+05 -7.576635E+04 -1.573295E+06  7.294774E+04  1.075350E+04
       232   6 -3.687786E+06 -8.242846E+05 -1.672445E+05 -1.568049E+06  1.097322E+05  3.395186E+04
       232   7 -3.768688E+06 -7.166440E+05 -6.211803E+04 -1.629681E+06  1.063994E+03 -3.409185E+03
       232   8 -4.017327E+06 -8.371244E+05 -1.596785E+05 -1.696197E+06  7.109792E+04  1.005972E+04
       232   9 -4.258759E+06 -1.114287E+06 -3.343539E+05 -1.800823E+06  1.338634E+05  4.291744E+04
       232  10 -3.569828E+06 -6.699449E+05 -1.923489E+04 -1.603706E+06  3.108841E-10 -5.101397E-09
       232  11 -3.351974E+06 -5.289325E+05  8.127983E+03 -1.450325E+06  1.852572E-10 -3.103546E-09
       232  12 -3.116466E+06 -5.341660E+05 -1.728454E+02 -1.335047E+06 -2.453015E-09 -5.558301E-09
       232  13 -3.669263E+06 -6.932943E+05 -4.067618E+04 -1.616694E+06  3.105352E-09 -2.649239E-10
       232  14 -3.684713E+06 -6.830440E+05 -7.577664E+04 -1.573296E+06  1.393490E-09  5.515576E-10
       232  15 -3.687799E+06 -8.242891E+05 -1.672695E+05 -1.568052E+06  2.164287E-09 -2.420616E-10
       232  16 -3.768688E+06 -7.166440E+05 -6.211805E+04 -1.629681E+06  2.364545E-09 -1.549547E-09
       232  17 -4.017333E+06 -8.371258E+05 -1.596883E+05 -1.696198E+06  1.621269E-10 -1.978237E-11
       232  18 -4.258779E+06 -1.114293E+06 -3.343913E+05 -1.800828E+06  4.862514E-10 -2.180115E-09
       232  19 -3.569825E+06 -6.699437E+05 -1.922821E+04 -1.603705E+06 -5.679398E+04 -1.733276E+04
       232  20 -3.351968E+06 -5.289308E+05  8.138807E+03 -1.450324E+06 -7.479865E+04 -1.144791E+04
       232  21 -3.116458E+06 -5.341634E+05 -1.578247E+02 -1.335045E+06 -8.557587E+04 -2.496938E+04
       232  22 -3.669262E+06 -6.932940E+05 -4.067451E+04 -1.616694E+06 -2.892660E+04 -6.961672E+03
       232  23 -3.684707E+06 -6.830425E+05 -7.576635E+04 -1.573295E+06 -7.294774E+04 -1.075350E+04
       232  24 -3.687786E+06 -8.242846E+05 -1.672445E+05 -1.568049E+06 -1.097322E+05 -3.395186E+04
       232  25 -3.768688E+06 -7.166440E+05 -6.211803E+04 -1.629681E+06 -1.063994E+03  3.409185E+03
       232  26 -4.017327E+06 -8.371244E+05 -1.596785E+05 -1.696197E+06 -7.109792E+04 -1.005972E+04
       232  27 -4.258759E+06 -1.114287E+06 -3.343539E+05 -1.800823E+06 -1.338634E+05 -4.291744E+04
       233   1  3.001251E+05  5.666605E+04  7.741176E+04  1.312023E+04  6.285724E+04  4.763471E+02
       233   2  2.919799E+05 -2.792382E+04  2.626581E+04  4.382753E+03  4.147523E+04  1.330431E+03
       233   3  3.108095E+05 -1.578538E+04  1.322238E+04 -1.030339E+04  2.009282E+04  1.082132E+03
       233   4  3.616713E+05  7.201584E+04  9.268982E+04 -2.914980E+03  6.333615E+04  4.748422E+02
       233   5  3.481592E+05 -1.394395E+04  4.001592E+04  6.853321E+01  4.158141E+04  1.330157E+03
       233   6  3.616835E+05 -3.116014E+03  2.570052E+04 -2.896542E+03  1.982645E+04  1.082325E+03
       233   7  4.232215E+05  8.736631E+04  1.079677E+05 -1.895178E+04  6.381511E+04  4.733126E+02
       233   8  4.043414E+05  3.577035E+01  5.376581E+04 -4.246078E+03  4.168759E+04  1.329881E+03
       233   9  4.125601E+05  9.553369E+03  3.817850E+04  4.510911E+03  1.956005E+04  1.082511E+03
       233  10  3.001209E+05  5.666499E+04  7.740434E+04  1.312021E+04 -4.689163E-10 -9.772359E-10
       233  11  2.919781E+05 -2.792429E+04  2.626257E+04  4.382709E+03  1.336781E-09 -1.494806E-09
       233  12  3.108091E+05 -1.578549E+04  1.322162E+04 -1.030340E+04  7.624729E-09  2.587084E-11
       233  13  3.616670E+05  7.201476E+04  9.268228E+04 -2.915004E+03 -4.054694E-09 -2.299159E-10
       233  14  3.481574E+05 -1.394441E+04  4.001267E+04  6.848867E+01 -4.125483E-09 -3.693192E-10
       233  15  3.616831E+05 -3.116121E+03  2.569978E+04 -2.896559E+03  1.489895E-09  1.742039E-09
       233  16  4.232172E+05  8.736522E+04  1.079601E+05 -1.895181E+04  1.608613E-09 -4.762286E-10
       233  17  4.043396E+05  3.530230E+01  5.376254E+04 -4.246123E+03 -4.309744E-09 -1.593905E-09
       233  18  4.125596E+05  9.553265E+03  3.817778E+04  4.510894E+03 -5.384155E-09 -3.725711E-10
       233  19  3.001251E+05  5.666605E+04  7.741176E+04  1.312023E+04 -6.285724E+04 -4.763471E+02
       233  20  2.919799E+05 -2.792382E+04  2.626581E+04  4.382753E+03 -4.147523E+04 -1.330431E+03
       233  21  3.108095E+05 -1.578538E+04  1.322238E+04 -1.030339E+04 -2.009282E+04 -1.082132E+03
       233  22  3.616713E+05  7.201584E+04  9.268982E+04 -2.914980E+03 -6.333615E+04 -4.748422E+02
       233  23  3.481592E+05 -1.394395E+04  4.001592E+04  6.853321E+01 -4.158141E+04 -1.330157E+03
       233  24  3.616835E+05 -3.116014E+03  2.570052E+04 -2.896542E+03 -1.982645E+04 -1.082325E+03
       233  25  4.232215E+05  8.736631E+04  1.079677E+05 -1.895178E+04 -6.381511E+04 -4.733126E+02
       233  26  4.043414E+05  3.577035E+01  5.376581E+04 -4.246078E+03 -4.168759E+04 -1.329881E+03
       233  27  4.125601E+05  9.553369E+03  3.817850E+04  4.510911E+03 -1.956005E+04 -1.082511E+03
       234   1  3.177298E+05 -2.945890E+02  1.162195E+04 -9.265989E+02  1.569337E+04  8.056465E+02
       234   2  3.210041E+05 -1.019390E+04  2.164361E+03  5.080090E+02  1.033759E+04  7.346246E+02
       234   3  3.281351E+05 -7.470799E+03 -6.510290E+02 -3.870873E+03  4.981792E+03  5.429246E+02
       234   4  3.565311E+05  9.366297E+03  2.114267E+04 -2.872989E+03  1.569067E+04  8.055936E+02
       234   5  3.546004E+05 -1.830151E+03  1.039979E+04  3.435082E+01  1.029401E+04  7.346097E+02
       234   6  3.565333E+05 -3.974924E+02  6.327166E+03 -2.871767E+03  4.897377E+03  5.429251E+02
       234   7  3.953338E+05  1.902708E+04  3.066329E+04 -4.819501E+03  1.568796E+04  8.055408E+02
       234   8  3.881978E+05  6.533516E+03  1.863514E+04 -4.393330E+02  1.025043E+04  7.345948E+02
       234   9  3.849323E+05  6.675758E+03  1.330530E+04 -1.872615E+03  4.812958E+03  5.429254E+02
       234  10  3.177295E+05 -2.946558E+02  1.162148E+04 -9.266091E+02 -2.309620E-09  4.865537E-10
       234  11  3.210040E+05 -1.019393E+04  2.164159E+03  5.080029E+02 -2.041801E-09 -7.182540E-10
       234  12  3.281351E+05 -7.470806E+03 -6.510762E+02 -3.870875E+03  4.142224E-09 -9.129864E-10
       234  13  3.565308E+05  9.366230E+03  2.114221E+04 -2.872999E+03  4.509983E-09  2.634589E-09
       234  14  3.546003E+05 -1.830180E+03  1.039959E+04  3.434473E+01 -4.084374E-09  7.550638E-10
       234  15  3.565333E+05 -3.974991E+02  6.327121E+03 -2.871769E+03  2.574685E-09 -7.440410E-10
       234  16  3.953335E+05  1.902702E+04  3.066283E+04 -4.819511E+03  6.195478E-11  3.799403E-11
       234  17  3.881977E+05  6.533487E+03  1.863494E+04 -4.393391E+02  5.437985E-11 -4.870903E-10
       234  18  3.849323E+05  6.675752E+03  1.330526E+04 -1.872617E+03  1.524550E-10 -8.852644E-10
       234  19  3.177298E+05 -2.945890E+02  1.162195E+04 -9.265989E+02 -1.569337E+04 -8.056465E+02
       234  20  3.210041E+05 -1.019390E+04  2.164361E+03  5.080090E+02 -1.033759E+04 -7.346246E+02
       234  21  3.281351E+05 -7.470799E+03 -6.510290E+02 -3.870873E+03 -4.981792E+03 -5.429246E+02
       234  22  3.565311E+05  9.366297E+03  2.114267E+04 -2.872989E+03 -1.569067E+04 -8.055936E+02
       234  23  3.546004E+05 -1.830151E+03  1.039979E+04  3.435082E+01 -1.029401E+04 -7.346097E+02
       234  24  3.565333E+05 -3.974924E+02  6.327166E+03 -2.871767E+03 -4.897377E+03 -5.429251E+02
       234  25  3.953338E+05  1.902708E+04  3.066329E+04 -4.819501E+03 -1.568796E+04 -8.055408E+02
       234  26  3.881978E+05  6.533516E+03  1.863514E+04 -4.393330E+02 -1.025043E+04 -7.345948E+02
       234  27  3.849323E+05  6.675758E+03  1.330530E+04 -1.872615E+03 -4.812958E+03 -5.429254E+02
       235   1  3.392795E+05 -2.904155E+03  9.746992E+02 -2.640895E+03  3.939045E+03  4.171108E+02
       235   2  3.441276E+05 -3.074491E+03 -1.315696E+02  5.578038E+01  2.595975E+03  2.457514E+02
       235   3  3.495610E+05 -1.606327E+03  4.602157E+01 -2.994715E+03  1.252910E+03  6.147569E+01
       235   4  3.558048E+05  1.207313E+03  5.013230E+03 -2.857455E+03  3.883703E+03  4.171055E+02
       235   5  3.555120E+05 -2.402495E+02  2.659688E+03  1.616336E+01  2.536257E+03  2.457480E+02
       235   6  3.558053E+05 -4.855425E+01  1.593032E+03 -2.857384E+03  1.188828E+03  6.147354E+01
       235   7  3.723304E+05  5.318760E+03  9.051742E+03 -3.074021E+03  3.828359E+03  4.171003E+02
       235   8  3.668965E+05  2.593982E+03  5.450936E+03 -2.345440E+01  2.476538E+03  2.457445E+02
       235   9  3.620495E+05  1.509215E+03  3.140040E+03 -2.720051E+03  1.124745E+03  6.147135E+01
       235  10  3.392795E+05 -2.904159E+03  9.746697E+02 -2.640897E+03 -1.544412E-09 -3.943129E-10
       235  11  3.441276E+05 -3.074493E+03 -1.315824E+02  5.577987E+01  7.851864E-10  2.560355E-10
       235  12  3.495610E+05 -1.606327E+03  4.601862E+01 -2.994715E+03  3.491921E-09 -9.263409E-11
       235  13  3.558048E+05  1.207308E+03  5.013202E+03 -2.857456E+03  4.218940E-09 -5.903026E-10
       235  14  3.555119E+05 -2.402513E+02  2.659676E+03  1.616285E+01 -1.066871E-09  1.502080E-10
       235  15  3.558053E+05 -4.855463E+01  1.593030E+03 -2.857384E+03  1.096966E-09 -1.926690E-10
       235  16  3.723304E+05  5.318756E+03  9.051714E+03 -3.074022E+03 -8.652933E-10 -6.997236E-10
       235  17  3.668964E+05  2.593980E+03  5.450924E+03 -2.345489E+01 -4.443509E-09 -1.968108E-10
       235  18  3.620495E+05  1.509215E+03  3.140038E+03 -2.720051E+03 -1.866416E-09 -2.031669E-10
       235  19  3.392795E+05 -2.904155E+03  9.746992E+02 -2.640895E+03 -3.939045E+03 -4.171108E+02
       235  20  3.441276E+05 -3.074491E+03 -1.315696E+02  5.578038E+01 -2.595975E+03 -2.457514E+02
       235  21  3.495610E+05 -1.606327E+03  4.602157E+01 -2.994715E+03 -1.252910E+03 -6.147569E+01
       235  22  3.558048E+05  1.207313E+03  5.013230E+03 -2.857455E+03 -3.883703E+03 -4.171055E+02
       235  23  3.555120E+05 -2.402495E+02  2.659688E+03  1.616336E+01 -2.536257E+03 -2.457480E+02
       235  24  3.558053E+05 -4.855425E+01  1.593032E+03 -2.857384E+03 -1.188828E+03 -6.147354E+01
       235  25  3.723304E+05  5.318760E+03  9.051742E+03 -3.074021E+03 -3.828359E+03 -4.171003E+02
       235  26  3.668965E+05  2.593982E+03  5.450936E+03 -2.345440E+01 -2.476538E+03 -2.457445E+02
       235  27  3.620495E+05  1.509215E+03  3.140040E+03 -2.720051E+03 -1.124745E+03 -6.147135E+01
       236   1  3.612579E+05  1.539951E+03  2.631114E+03 -2.836969E+03  9.936575E+02 -4.720607E+01
       236   2  3.663455E+05  2.630511E+03  3.360454E+03  1.658914E+01  6.257845E+02 -2.293338E+02
       236   3  3.715372E+05  3.941948E+03  4.384635E+03 -2.876149E+03  2.579090E+02 -4.133482E+02
       236   4  3.556981E+05  1.526128E+02  1.252045E+03 -2.857218E+03  9.327496E+02 -4.720839E+01
       236   5  3.556461E+05 -3.323760E+01  7.368445E+02  1.593556E+01  5.642444E+02 -2.293371E+02
       236   6  3.556982E+05  1.882141E+00  5.169055E+02 -2.857213E+03  1.957396E+02 -4.133523E+02
       236   7  3.501383E+05 -1.234728E+03 -1.270258E+02 -2.877467E+03  8.718423E+02 -4.721071E+01
       236   8  3.449467E+05 -2.696995E+03 -1.886773E+03  1.528199E+01  5.027053E+02 -2.293404E+02
       236   9  3.398594E+05 -3.938202E+03 -3.350842E+03 -2.838277E+03  1.335718E+02 -4.133565E+02
       236  10  3.612579E+05  1.539951E+03  2.631112E+03 -2.836969E+03  5.462699E-10  3.550131E-10
       236  11  3.663455E+05  2.630511E+03  3.360453E+03  1.658926E+01  2.147384E-09  1.159681E-09
       236  12  3.715372E+05  3.941948E+03  4.384634E+03 -2.876149E+03 -1.721628E-10 -8.616234E-10
       236  13  3.556981E+05  1.526126E+02  1.252043E+03 -2.857218E+03 -2.156179E-09  1.986556E-10
       236  14  3.556461E+05 -3.323775E+01  7.368438E+02  1.593567E+01  3.181374E-09  7.786405E-10
       236  15  3.556982E+05  1.881947E+00  5.169051E+02 -2.857213E+03  4.730771E-09 -3.271421E-10
       236  16  3.501383E+05 -1.234728E+03 -1.270273E+02 -2.877467E+03  1.683560E-09  7.764511E-11
       236  17  3.449467E+05 -2.696995E+03 -1.886774E+03  1.528208E+01 -2.290447E-09  3.558581E-10
       236  18  3.398594E+05 -3.938203E+03 -3.350842E+03 -2.838277E+03  4.230473E-09  1.180670E-10
       236  19  3.612579E+05  1.539951E+03  2.631114E+03 -2.836969E+03 -9.936575E+02  4.720607E+01
       236  20  3.663455E+05  2.630511E+03  3.360454E+03  1.658914E+01 -6.257845E+02  2.293338E+02
       236  21  3.715372E+05  3.941948E+03  4.384635E+03 -2.876149E+03 -2.579090E+02  4.133482E+02
       236  22  3.556981E+05  1.526128E+02  1.252045E+03 -2.857218E+03 -9.327496E+02  4.720839E+01
       236  23  3.556461E+05 -3.323760E+01  7.368445E+02  1.593556E+01 -5.642444E+02  2.293371E+02
       236  24  3.556982E+05  1.882141E+00  5.169055E+02 -2.857213E+03 -1.957396E+02  4.133523E+02
       236  25  3.501383E+05 -1.234728E+03 -1.270258E+02 -2.877467E+03 -8.718423E+02  4.721071E+01
       236  26  3.449467E+05 -2.696995E+03 -1.886773E+03  1.528199E+01 -5.027053E+02  2.293404E+02
       236  27  3.398594E+05 -3.938202E+03 -3.350842E+03 -2.838277E+03 -1.335718E+02  4.133565E+02
       237   1  3.833976E+05  6.917415E+03  7.276867E+03 -2.861602E+03  1.691375E+02 -5.211319E+02
       237   2  3.885634E+05  8.174093E+03  8.526785E+03  3.523564E+01 -5.974958E+01 -7.060603E+02
       237   3  3.937926E+05  9.548375E+03  9.955904E+03 -2.879123E+03 -2.886211E+02 -8.905864E+02
       237   4  3.556890E+05  1.589441E+01  4.665489E+02 -2.871638E+03  1.069070E+02 -5.211376E+02
       237   5  3.556573E+05 -1.814887E+01  4.581043E+02  3.396597E+01 -1.218351E+02 -7.060689E+02
       237   6  3.556889E+05  6.539305E+01  6.287676E+02 -2.871645E+03 -3.505597E+02 -8.905978E+02
       237   7  3.279810E+05 -6.885683E+03 -6.343825E+03 -2.881674E+03  4.467932E+01 -5.211433E+02
       237   8  3.227521E+05 -8.210471E+03 -7.610656E+03  3.269634E+01 -1.839173E+02 -7.060775E+02
       237   9  3.175866E+05 -9.417697E+03 -8.698475E+03 -2.864168E+03 -4.124944E+02 -8.906092E+02
       237  10  3.833976E+05  6.917415E+03  7.276866E+03 -2.861602E+03  4.699903E-09 -1.137829E-09
       237  11  3.885634E+05  8.174092E+03  8.526784E+03  3.523561E+01  1.489751E-09  8.161014E-10
       237  12  3.937926E+05  9.548374E+03  9.955902E+03 -2.879123E+03 -2.397440E-09  1.585652E-10
       237  13  3.556890E+05  1.589412E+01  4.665484E+02 -2.871638E+03  6.768059E-09 -4.462677E-10
       237  14  3.556573E+05 -1.814941E+01  4.581033E+02  3.396590E+01  2.439090E-09  6.196611E-10
       237  15  3.556889E+05  6.539216E+01  6.287659E+02 -2.871645E+03  8.607443E-10  3.687571E-10
       237  16  3.279810E+05 -6.885683E+03 -6.343826E+03 -2.881674E+03 -3.342851E-10 -5.006518E-11
       237  17  3.227521E+05 -8.210471E+03 -7.610657E+03  3.269624E+01 -3.598589E-09  4.897533E-11
       237  18  3.175866E+05 -9.417697E+03 -8.698476E+03 -2.864168E+03  9.855711E-11  4.303344E-10
       237  19  3.833976E+05  6.917415E+03  7.276867E+03 -2.861602E+03 -1.691375E+02  5.211319E+02
       237  20  3.885634E+05  8.174093E+03  8.526785E+03  3.523564E+01  5.974958E+01  7.060603E+02
       237  21  3.937926E+05  9.548375E+03  9.955904E+03 -2.879123E+03  2.886211E+02  8.905864E+02
       237  22  3.556890E+05  1.589441E+01  4.665489E+02 -2.871638E+03 -1.069070E+02  5.211376E+02
       237  23  3.556573E+05 -1.814887E+01  4.581043E+02  3.396597E+01  1.218351E+02  7.060689E+02
       237  24  3.556889E+05  6.539305E+01  6.287676E+02 -2.871645E+03  3.505597E+02  8.905978E+02
       237  25  3.279810E+05 -6.885683E+03 -6.343825E+03 -2.881674E+03 -4.467932E+01  5.211433E+02
       237  26  3.227521E+05 -8.210471E+03 -7.610656E+03  3.269634E+01  1.839173E+02  7.060775E+02
       237  27  3.175866E+05 -9.417697E+03 -8.698475E+03 -2.864168E+03  4.124944E+02  8.906092E+02
       238   1  4.059101E+05  1.247424E+04  1.308004E+04 -2.835474E+03 -4.086961E+02 -1.003114E+03
       238   2  4.110888E+05  1.370738E+04  1.480998E+04  6.102433E+01 -1.025308E+03 -1.192825E+03
       238   3  4.165394E+05  1.566428E+04  1.712430E+04 -2.985437E+03 -1.641892E+03 -1.362723E+03
       238   4  3.557347E+05 -2.041409E+01  7.609420E+02 -2.900883E+03 -4.757417E+02 -1.003129E+03
       238   5  3.555992E+05 -1.068918E+02  1.204420E+03  7.054748E+01 -1.085645E+03 -1.192844E+03
       238   6  3.557345E+05  5.292910E+02  2.227673E+03 -2.901015E+03 -1.695514E+03 -1.362745E+03
       238   7  3.055616E+05 -1.251526E+04 -1.155834E+04 -2.966287E+03 -5.427819E+02 -1.003145E+03
       238   8  3.001125E+05 -1.392139E+04 -1.240137E+04  8.006964E+01 -1.145976E+03 -1.192863E+03
       238   9  2.949331E+05 -1.460598E+04 -1.266922E+04 -2.816602E+03 -1.749131E+03 -1.362767E+03
       238  10  4.059101E+05  1.247424E+04  1.308004E+04 -2.835475E+03  1.088960E-10 -1.428840E-10
       238  11  4.110888E+05  1.370738E+04  1.480998E+04  6.102334E+01 -3.134080E-09 -4.320963E-10
       238  12  4.165394E+05  1.566428E+04  1.712429E+04 -2.985439E+03 -1.100123E-09  2.614233E-10
       238  13  3.557347E+05 -2.041523E+01  7.609397E+02 -2.900884E+03  6.315829E-11  4.187629E-11
       238  14  3.555992E+05 -1.068936E+02  1.204416E+03  7.054644E+01 -7.286008E-11 -2.664040E-10
       238  15  3.557345E+05  5.292882E+02  2.227664E+03 -2.901017E+03 -3.121253E-10  2.672862E-10
       238  16  3.055616E+05 -1.251526E+04 -1.155834E+04 -2.966288E+03 -1.242036E-09  3.830268E-11
       238  17  3.001125E+05 -1.392139E+04 -1.240137E+04  8.006854E+01 -5.603768E-10 -1.915207E-10
       238  18  2.949331E+05 -1.460598E+04 -1.266923E+04 -2.816604E+03  2.496052E-09  6.631266E-10
       238  19  4.059101E+05  1.247424E+04  1.308004E+04 -2.835474E+03  4.086961E+02  1.003114E+03
       238  20  4.110888E+05  1.370738E+04  1.480998E+04  6.102433E+01  1.025308E+03  1.192825E+03
       238  21  4.165394E+05  1.566428E+04  1.712430E+04 -2.985437E+03  1.641892E+03  1.362723E+03
       238  22  3.557347E+05 -2.041409E+01  7.609420E+02 -2.900883E+03  4.757417E+02  1.003129E+03
       238  23  3.555992E+05 -1.068918E+02  1.204420E+03  7.054748E+01  1.085645E+03  1.192844E+03
       238  24  3.557345E+05  5.292910E+02  2.227673E+03 -2.901015E+03  1.695514E+03  1.362745E+03
       238  25  3.055616E+05 -1.251526E+04 -1.155834E+04 -2.966287E+03  5.427819E+02  1.003145E+03
       238  26  3.001125E+05 -1.392139E+04 -1.240137E+04  8.006964E+01  1.145976E+03  1.192863E+03
       238  27  2.949331E+05 -1.460598E+04 -1.266922E+04 -2.816602E+03  1.749131E+03  1.362767E+03
       239   1  4.292715E+05  1.805348E+04  2.076873E+04 -2.489188E+03 -2.042324E+03 -1.506436E+03
       239   2  4.339013E+05  1.878526E+04  2.388204E+04 -6.408055E+01 -4.492289E+03 -1.711748E+03
       239   3  4.402638E+05  2.508932E+04  2.998693E+04 -3.777521E+03 -6.942359E+03 -1.712703E+03
       239   4  3.560564E+05 -1.766964E+02  2.802356E+03 -2.943840E+03 -2.145276E+03 -1.506475E+03
       239   5  3.551955E+05 -8.075214E+02  4.588434E+03  1.245650E+02 -4.526274E+03 -1.711776E+03
       239   6  3.560554E+05  4.122342E+03  9.318484E+03 -2.945611E+03 -6.907354E+03 -1.712713E+03
       239   7  2.828462E+05 -1.840727E+04 -1.516441E+04 -3.398438E+03 -2.248216E+03 -1.506514E+03
       239   8  2.764953E+05 -2.040076E+04 -1.470562E+04  3.131862E+02 -4.560255E+03 -1.711804E+03
       239   9  2.718535E+05 -1.684516E+04 -1.135049E+04 -2.113815E+03 -6.872354E+03 -1.712722E+03
       239  10  4.292715E+05  1.805347E+04  2.076872E+04 -2.489190E+03 -3.049116E-09  4.037477E-10
       239  11  4.339012E+05  1.878525E+04  2.388199E+04 -6.408674E+01 -3.382730E-09 -1.781412E-10
       239  12  4.402638E+05  2.508931E+04  2.998684E+04 -3.777530E+03  2.880687E-09 -1.155626E-09
       239  13  3.560564E+05 -1.767000E+02  2.802344E+03 -2.943842E+03 -2.010125E-09  4.151369E-10
       239  14  3.551954E+05 -8.075300E+02  4.588390E+03  1.245588E+02 -4.210928E-09 -2.155107E-10
       239  15  3.560554E+05  4.122326E+03  9.318389E+03 -2.945620E+03  1.149820E-09 -1.082841E-09
       239  16  2.828462E+05 -1.840727E+04 -1.516442E+04 -3.398441E+03  9.067968E-10  7.020910E-10
       239  17  2.764953E+05 -2.040077E+04 -1.470567E+04  3.131799E+02  4.142466E-09  6.771824E-10
       239  18  2.718534E+05 -1.684518E+04 -1.135058E+04 -2.113824E+03 -1.673979E-09 -8.070742E-10
       239  19  4.292715E+05  1.805348E+04  2.076873E+04 -2.489188E+03  2.042324E+03  1.506436E+03
       239  20  4.339013E+05  1.878526E+04  2.388204E+04 -6.408055E+01  4.492289E+03  1.711748E+03
       239  21  4.402638E+05  2.508932E+04  2.998693E+04 -3.777521E+03  6.942359E+03  1.712703E+03
       239  22  3.560564E+05 -1.766964E+02  2.802356E+03 -2.943840E+03  2.145276E+03  1.506475E+03
       239  23  3.551955E+05 -8.075214E+02  4.588434E+03  1.245650E+02  4.526274E+03  1.711776E+03
       239  24  3.560554E+05  4.122342E+03  9.318484E+03 -2.945611E+03  6.907354E+03  1.712713E+03
       239  25  2.828462E+05 -1.840727E+04 -1.516441E+04 -3.398438E+03  2.248216E+03  1.506514E+03
       239  26  2.764953E+05 -2.040076E+04 -1.470562E+04  3.131862E+02  4.560255E+03  1.711804E+03
       239  27  2.718535E+05 -1.684516E+04 -1.135049E+04 -2.113815E+03  6.872354E+03  1.712722E+03
       240   1  4.554204E+05  2.279801E+04  3.512689E+04  2.990518E+02 -8.315803E+03 -2.113979E+03
       240   2  4.551545E+05  1.943563E+04  4.278849E+04 -1.667356E+03 -1.853277E+04 -2.413975E+03
       240   3  4.669369E+05  5.881523E+04  6.779102E+04 -1.003336E+04 -2.875098E+04 -8.341418E+02
       240   4  3.583271E+05 -1.375862E+03  1.132553E+04 -2.995788E+03 -8.730035E+03 -2.114152E+03
       240   5  3.523540E+05 -6.145088E+03  1.762649E+04  1.934094E+02 -1.831367E+04 -2.413933E+03
       240   6  3.583214E+05  3.172147E+04  4.083080E+04 -3.016964E+03 -2.789845E+04 -8.339166E+02
       240   7  2.612424E+05 -2.555039E+04 -1.247652E+04 -6.290112E+03 -9.144203E+03 -2.114322E+03
       240   8  2.495632E+05 -3.172657E+04 -7.536272E+03  2.053865E+03 -1.809461E+04 -2.413889E+03
       240   9  2.497167E+05  4.626998E+03  1.386972E+04  3.998204E+03 -2.704606E+04 -8.336721E+02
       240  10  4.554204E+05  2.279799E+04  3.512676E+04  2.990377E+02  7.332853E-10 -1.540208E-09
       240  11  4.551541E+05  1.943553E+04  4.278783E+04 -1.667392E+03 -3.154022E-09 -1.629874E-09
       240  12  4.669360E+05  5.881501E+04  6.778947E+04 -1.003338E+04 -3.304056E-09 -2.952548E-10
       240  13  3.583270E+05 -1.375887E+03  1.132538E+04 -2.995803E+03  4.184824E-09 -2.988637E-09
       240  14  3.523537E+05 -6.145184E+03  1.762585E+04  1.933738E+02 -1.624815E-09  1.245158E-09
       240  15  3.583206E+05  3.172126E+04  4.082933E+04 -3.016983E+03 -1.523464E-09  7.003845E-11
       240  16  2.612423E+05 -2.555042E+04 -1.247668E+04 -6.290128E+03  3.164760E-10 -1.179620E-09
       240  17  2.495629E+05 -3.172666E+04 -7.536898E+03  2.053830E+03  1.432331E-09  7.498529E-10
       240  18  2.497159E+05  4.626801E+03  1.386835E+04  3.998186E+03 -6.038528E-10 -5.958217E-10
       240  19  4.554204E+05  2.279801E+04  3.512689E+04  2.990518E+02  8.315803E+03  2.113979E+03
       240  20  4.551545E+05  1.943563E+04  4.278849E+04 -1.667356E+03  1.853277E+04  2.413975E+03
       240  21  4.669369E+05  5.881523E+04  6.779102E+04 -1.003336E+04  2.875098E+04  8.341418E+02
       240  22  3.583271E+05 -1.375862E+03  1.132553E+04 -2.995788E+03  8.730035E+03  2.114152E+03
       240  23  3.523540E+05 -6.145088E+03  1.762649E+04  1.934094E+02  1.831367E+04  2.413933E+03
       240  24  3.583214E+05  3.172147E+04  4.083080E+04 -3.016964E+03  2.789845E+04  8.339166E+02
       240  25  2.612424E+05 -2.555039E+04 -1.247652E+04 -6.290112E+03  9.144203E+03  2.114322E+03
       240  26  2.495632E+05 -3.172657E+04 -7.536272E+03  2.053865E+03  1.809461E+04  2.413889E+03
       240  27  2.497167E+05  4.626998E+03  1.386972E+04  3.998204E+03  2.704606E+04  8.336721E+02
       241   1  2.932314E+06  1.200507E+07  2.956723E+06 -1.311437E+06  8.120652E+04  1.562494E+05
       241   2  2.226586E+06  9.662477E+06  2.292499E+06 -9.705298E+04  2.188386E+05  4.442500E+04
       241   3  1.790350E+06  7.544859E+06  1.794974E+06 -1.346554E+06  1.342096E+05 -6.979222E+04
       241   4  1.033746E+05  5.915405E+05  1.426588E+05 -1.241748E+06  8.175976E+04  7.091328E+04
       241   5 -4.499740E+04  4.882778E+05  6.054550E+04 -8.335096E+03  2.191558E+05  3.561365E+04
       241   6  6.369330E+04  5.916132E+05  9.368923E+04 -1.241161E+06  1.328414E+05 -2.499891E+03
       241   7 -2.735215E+06 -1.070506E+07 -2.681007E+06 -1.173060E+06  8.230084E+04 -1.288792E+04
       241   8 -2.322740E+06 -8.609929E+06 -2.177506E+06  7.932123E+04  2.194736E+05  2.692791E+04
       241   9 -1.666511E+06 -6.317935E+06 -1.611112E+06 -1.136663E+06  1.314879E+05  6.404728E+04
       241  10  2.932300E+06  1.200505E+07  2.956665E+06 -1.311447E+06  9.875122E-10 -6.004078E-09
       241  11  2.226534E+06  9.662462E+06  2.292405E+06 -9.706076E+04 -1.171277E-09 -2.251644E-08
       241  12  1.790329E+06  7.544849E+06  1.794931E+06 -1.346547E+06  5.670990E-10  3.218698E-08
       241  13  1.033661E+05  5.915333E+05  1.426367E+05 -1.241753E+06  8.836788E-09 -7.457272E-11
       241  14 -4.504932E+04  4.882635E+05  6.045284E+04 -8.341381E+03  4.532771E-09 -6.832656E-09
       241  15  6.367435E+04  5.916084E+05  9.365606E+04 -1.241161E+06  3.591364E-09 -2.824344E-09
       241  16 -2.735222E+06 -1.070507E+07 -2.681020E+06 -1.173059E+06  4.219219E-09  5.920319E-09
       241  17 -2.322792E+06 -8.609943E+06 -2.177598E+06  7.931645E+04  9.734273E-09  3.733939E-08
       241  18 -1.666531E+06 -6.317944E+06 -1.611152E+06 -1.136670E+06  8.480184E-10 -2.309749E-08
       241  19  2.932314E+06  1.200507E+07  2.956723E+06 -1.311437E+06 -8.120652E+04 -1.562494E+05
       241  20  2.226586E+06  9.662477E+06  2.292499E+06 -9.705298E+04 -2.188386E+05 -4.442500E+04
       241  21  1.790350E+06  7.544859E+06  1.794974E+06 -1.346554E+06 -1.342096E+05  6.979222E+04
       241  22  1.033746E+05  5.915405E+05  1.426588E+05 -1.241748E+06 -8.175976E+04 -7.091328E+04
       241  23 -4.499740E+04  4.882778E+05  6.054550E+04 -8.335096E+03 -2.191558E+05 -3.561365E+04
       241  24  6.369330E+04  5.916132E+05  9.368923E+04 -1.241161E+06 -1.328414E+05  2.499891E+03
       241  25 -2.735215E+06 -1.070506E+07 -2.681007E+06 -1.173060E+06 -8.230084E+04  1.288792E+04
       241  26 -2.322740E+06 -8.609929E+06 -2.177506E+06  7.932123E+04 -2.194736E+05 -2.692791E+04
       241  27 -1.666511E+06 -6.317935E+06 -1.611112E+06 -1.136663E+06 -1.314879E+05 -6.404728E+04
       242   1  5.223303E+05  2.433926E+06  5.474913E+05 -1.276392E+06  4.998497E+04 -4.124509E+04
       242   2 -8.717671E+04  2.822695E+05  4.095687E+04 -5.884244E+03 -4.248892E+03 -1.002680E+05
       242   3 -4.974794E+05 -1.941748E+06 -4.060778E+05 -1.178432E+06 -5.720597E+04 -1.590086E+05
       242   4  5.113771E+04  5.425924E+05  8.597336E+04 -1.236672E+06  4.953911E+04 -2.232422E+04
       242   5 -1.247040E+04  5.810087E+05  1.142373E+05 -1.443468E+04 -4.668721E+03 -8.182169E+04
       242   6  1.234737E+05  5.426071E+05  2.025406E+05 -1.235036E+06 -5.760509E+04 -1.412394E+05
       242   7 -4.203157E+05 -1.345488E+06 -3.758036E+05 -1.197051E+06  4.909494E+04 -3.460605E+03
       242   8  6.222963E+04  8.798299E+05  1.875124E+05 -2.298879E+04 -5.088958E+03 -6.336647E+04
       242   9  7.439755E+05  3.032597E+06  8.107083E+05 -1.291830E+06 -5.800665E+04 -1.233981E+05
       242  10  5.223272E+05  2.433924E+06  5.474834E+05 -1.276390E+06 -5.664287E-09 -5.197077E-09
       242  11 -8.717942E+04  2.822587E+05  4.093796E+04 -5.884587E+03  7.295397E-09 -4.686591E-08
       242  12 -4.974898E+05 -1.941777E+06 -4.061316E+05 -1.178439E+06 -5.890264E-09  3.650847E-08
       242  13  5.113494E+04  5.425912E+05  8.596783E+04 -1.236671E+06  1.541346E-09 -3.537770E-10
       242  14 -1.247222E+04  5.810015E+05  1.142247E+05 -1.443499E+04  1.241879E-08 -1.213831E-08
       242  15  1.234648E+05  5.425848E+05  2.024968E+05 -1.235043E+06  2.397626E-08 -2.745381E-09
       242  16 -4.203183E+05 -1.345488E+06 -3.758081E+05 -1.197051E+06 -3.484289E-09  4.563988E-09
       242  17  6.222853E+04  8.798256E+05  1.875048E+05 -2.298905E+04 -2.064048E-08  7.107609E-08
       242  18  7.439678E+05  3.032580E+06  8.106734E+05 -1.291836E+06  3.080743E-09 -2.506961E-08
       242  19  5.223303E+05  2.433926E+06  5.474913E+05 -1.276392E+06 -4.998497E+04  4.124509E+04
       242  20 -8.717671E+04  2.822695E+05  4.095687E+04 -5.884244E+03  4.248892E+03  1.002680E+05
       242  21 -4.974794E+05 -1.941748E+06 -4.060778E+05 -1.178432E+06  5.720597E+04  1.590086E+05
       242  22  5.113771E+04  5.425924E+05  8.597336E+04 -1.236672E+06 -4.953911E+04  2.232422E+04
       242  23 -1.247040E+04  5.810087E+05  1.142373E+05 -1.443468E+04  4.668721E+03  8.182169E+04
       242  24  1.234737E+05  5.426071E+05  2.025406E+05 -1.235036E+06  5.760509E+04  1.412394E+05
       242  25 -4.203157E+05 -1.345488E+06 -3.758036E+05 -1.197051E+06 -4.909494E+04  3.460605E+03
       242  26  6.222963E+04  8.798299E+05  1.875124E+05 -2.298879E+04  5.088958E+03  6.336647E+04
       242  27  7.439755E+05  3.032597E+06  8.107083E+05 -1.291830E+06  5.800665E+04  1.233981E+05
       243   1 -1.847550E+06 -6.860143E+06 -1.591921E+06 -1.189877E+06 -1.407348E+05 -2.532434E+05
       243   2 -2.584460E+06 -9.276592E+06 -2.031383E+06  1.093102E+05 -2.294452E+05 -3.720229E+05
       243   3 -2.328333E+06 -1.124939E+07 -2.109354E+06 -1.064874E+06 -8.528119E+04 -4.878509E+05
       243   4  2.898879E+04  6.439343E+05  2.590202E+05 -1.243616E+06 -1.420533E+05 -1.860366E+05
       243   5 -1.554262E+05  4.185955E+05  3.545708E+05 -7.259562E+03 -2.290436E+05 -3.848842E+05
       243   6  6.609925E+05  6.437941E+05  8.636204E+05 -1.241765E+06 -8.474459E+04 -5.812407E+05
       243   7  1.901330E+06  8.199586E+06  2.105816E+06 -1.297693E+06 -1.433753E+05 -1.180008E+05
       243   8  2.266619E+06  1.020014E+07  2.733597E+06 -1.254331E+05 -2.286418E+05 -3.979104E+05
       243   9  3.639710E+06  1.266677E+07  3.825966E+06 -1.421862E+06 -8.416237E+04 -6.763562E+05
       243  10 -1.847589E+06 -6.860218E+06 -1.592080E+06 -1.189906E+06 -7.027646E-10  1.079514E-09
       243  11 -2.584554E+06 -9.276756E+06 -2.031745E+06  1.092410E+05 -4.587430E-09 -2.877651E-08
       243  12 -2.328406E+06 -1.124965E+07 -2.109823E+06 -1.064908E+06 -2.535565E-09 -3.707362E-09
       243  13  2.895776E+04  6.438917E+05  2.589170E+05 -1.243638E+06 -1.023502E-08  3.407972E-11
       243  14 -1.555222E+05  4.184225E+05  3.541941E+05 -7.330525E+03 -5.596442E-09 -6.324457E-09
       243  15  6.608941E+05  6.434297E+05  8.629722E+05 -1.241805E+06 -5.767163E-09 -2.022854E-10
       243  16  1.901304E+06  8.199566E+06  2.105752E+06 -1.297706E+06  1.177240E-08 -1.197253E-09
       243  17  2.266521E+06  1.019996E+07  2.733206E+06 -1.255059E+05 -1.292811E-08  3.979611E-08
       243  18  3.639582E+06  1.266628E+07  3.825109E+06 -1.421907E+06 -9.123151E-09  4.484959E-09
       243  19 -1.847550E+06 -6.860143E+06 -1.591921E+06 -1.189877E+06  1.407348E+05  2.532434E+05
       243  20 -2.584460E+06 -9.276592E+06 -2.031383E+06  1.093102E+05  2.294452E+05  3.720229E+05
       243  21 -2.328333E+06 -1.124939E+07 -2.109354E+06 -1.064874E+06  8.528119E+04  4.878509E+05
       243  22  2.898879E+04  6.439343E+05  2.590202E+05 -1.243616E+06  1.420533E+05  1.860366E+05
       243  23 -1.554262E+05  4.185955E+05  3.545708E+05 -7.259562E+03  2.290436E+05  3.848842E+05
       243  24  6.609925E+05  6.437941E+05  8.636204E+05 -1.241765E+06  8.474459E+04  5.812407E+05
       243  25  1.901330E+06  8.199586E+06  2.105816E+06 -1.297693E+06  1.433753E+05  1.180008E+05
       243  26  2.266619E+06  1.020014E+07  2.733597E+06 -1.254331E+05  2.286418E+05  3.979104E+05
       243  27  3.639710E+06  1.266677E+07  3.825966E+06 -1.421862E+06  8.416237E+04  6.763562E+05
       244   1 -4.668204E+05 -2.153691E+05 -1.065038E+05 -2.152044E+05 -5.475992E+04 -1.808783E+04
       244   2 -4.393678E+05 -1.508882E+05 -5.810924E+04 -2.017958E+05 -3.273053E+04 -4.520041E+03
       244   3 -4.210680E+05 -1.181644E+05 -3.485580E+04 -1.869653E+05 -9.100361E+03  4.788202E+03
       244   4 -3.171898E+05 -1.253789E+05 -6.166308E+04 -1.393147E+05 -4.106209E+04 -1.295173E+04
       244   5 -3.101863E+05 -8.708611E+04 -2.930339E+04 -1.487533E+05 -2.764232E+04 -2.612111E+03
       244   6 -3.106271E+05 -7.884219E+04 -1.525799E+04 -1.567718E+05 -1.262287E+04  3.466504E+03
       244   7 -1.675368E+05 -3.537590E+04 -1.682436E+04 -6.340639E+04 -2.736096E+04 -7.812513E+03
       244   8 -1.809875E+05 -2.327846E+04 -4.985461E+02 -9.569956E+04 -2.255300E+04 -7.034244E+02
       244   9 -2.001725E+05 -3.951858E+04  4.339720E+03 -1.265730E+05 -1.614608E+04  2.144554E+03
       244  10 -4.668237E+05 -2.153702E+05 -1.065101E+05 -2.152052E+05 -1.483523E-09  1.100558E-09
       244  11 -4.393690E+05 -1.508885E+05 -5.811129E+04 -2.017960E+05  3.006146E-08  1.392498E-08
       244  12 -4.210681E+05 -1.181644E+05 -3.485600E+04 -1.869652E+05  6.858494E-08  2.368570E-08
       244  13 -3.171916E+05 -1.253795E+05 -6.166657E+04 -1.393151E+05  1.960310E-09  1.975427E-09
       244  14 -3.101872E+05 -8.708632E+04 -2.930484E+04 -1.487534E+05  1.265390E-08  9.798600E-09
       244  15 -3.106273E+05 -7.884225E+04 -1.525831E+04 -1.567717E+05  2.151128E-08  2.073469E-08
       244  16 -1.675376E+05 -3.537617E+04 -1.682588E+04 -6.340656E+04 -3.302929E-09 -2.156083E-09
       244  17 -1.809881E+05 -2.327859E+04 -4.995032E+02 -9.569957E+04 -2.249258E-08 -1.432673E-08
       244  18 -2.001727E+05 -3.951866E+04  4.339222E+03 -1.265730E+05 -2.691357E-08 -1.694235E-08
       244  19 -4.668204E+05 -2.153691E+05 -1.065038E+05 -2.152044E+05  5.475992E+04  1.808783E+04
       244  20 -4.393678E+05 -1.508882E+05 -5.810924E+04 -2.017958E+05  3.273053E+04  4.520041E+03
       244  21 -4.210680E+05 -1.181644E+05 -3.485580E+04 -1.869653E+05  9.100361E+03 -4.788202E+03
       244  22 -3.171898E+05 -1.253789E+05 -6.166308E+04 -1.393147E+05  4.106209E+04  1.295173E+04
       244  23 -3.101863E+05 -8.708611E+04 -2.930339E+04 -1.487533E+05  2.764232E+04  2.612111E+03
       244  24 -3.106271E+05 -7.884219E+04 -1.525799E+04 -1.567718E+05  1.262287E+04 -3.466504E+03
       244  25 -1.675368E+05 -3.537590E+04 -1.682436E+04 -6.340639E+04  2.736096E+04  7.812513E+03
       244  26 -1.809875E+05 -2.327846E+04 -4.985461E+02 -9.569956E+04  2.255300E+04  7.034244E+02
       244  27 -2.001725E+05 -3.951858E+04  4.339720E+03 -1.265730E+05  1.614608E+04 -2.144554E+03
       245   1 -3.972120E+05 -1.116255E+05 -2.703035E+04 -1.828546E+05 -7.158939E+03  4.209586E+03
       245   2 -3.673137E+05 -9.458102E+04 -1.554218E+04 -1.713458E+05 -2.553100E+03  3.805964E+03
       245   3 -3.342677E+05 -8.402340E+04 -7.507418E+03 -1.645332E+05  2.223311E+03  2.948051E+03
       245   4 -3.088672E+05 -7.807438E+04 -1.135658E+04 -1.564386E+05 -1.047737E+04  2.964515E+03
       245   5 -3.103147E+05 -7.338621E+04 -5.918513E+03 -1.546661E+05 -6.789611E+03  2.216576E+03
       245   6 -3.084330E+05 -7.500283E+04 -3.205826E+03 -1.575901E+05 -2.931451E+03  1.014281E+03
       245   7 -2.205153E+05 -4.452270E+04  4.316704E+03 -1.300193E+05 -1.379626E+04  1.719248E+03
       245   8 -2.533121E+05 -5.219099E+04  3.705146E+03 -1.379848E+05 -1.102653E+04  6.270212E+02
       245   9 -2.825972E+05 -6.598206E+04  1.095947E+03 -1.506467E+05 -8.086500E+03 -9.195910E+02
       245  10 -3.972120E+05 -1.116255E+05 -2.703047E+04 -1.828546E+05 -4.466806E-08 -2.056996E-08
       245  11 -3.673137E+05 -9.458104E+04 -1.554222E+04 -1.713458E+05 -9.441261E-09 -6.697814E-09
       245  12 -3.342677E+05 -8.402341E+04 -7.507443E+03 -1.645332E+05  5.005595E-08  1.288776E-08
       245  13 -3.088674E+05 -7.807442E+04 -1.135680E+04 -1.564386E+05  2.314417E-08  2.052476E-08
       245  14 -3.103147E+05 -7.338623E+04 -5.918609E+03 -1.546660E+05  1.109327E-08  9.149274E-09
       245  15 -3.084330E+05 -7.500283E+04 -3.205844E+03 -1.575901E+05  1.645599E-08  3.430694E-09
       245  16 -2.205155E+05 -4.452276E+04  4.316341E+03 -1.300193E+05  8.441142E-08  2.645120E-08
       245  17 -2.533123E+05 -5.219103E+04  3.704916E+03 -1.379848E+05  1.294866E-08  5.765312E-09
       245  18 -2.825972E+05 -6.598208E+04  1.095823E+03 -1.506467E+05 -3.002634E-08 -1.032759E-08
       245  19 -3.972120E+05 -1.116255E+05 -2.703035E+04 -1.828546E+05  7.158939E+03 -4.209586E+03
       245  20 -3.673137E+05 -9.458102E+04 -1.554218E+04 -1.713458E+05  2.553100E+03 -3.805964E+03
       245  21 -3.342677E+05 -8.402340E+04 -7.507418E+03 -1.645332E+05 -2.223311E+03 -2.948051E+03
       245  22 -3.088672E+05 -7.807438E+04 -1.135658E+04 -1.564386E+05  1.047737E+04 -2.964515E+03
       245  23 -3.103147E+05 -7.338621E+04 -5.918513E+03 -1.546661E+05  6.789611E+03 -2.216576E+03
       245  24 -3.084330E+05 -7.500283E+04 -3.205826E+03 -1.575901E+05  2.931451E+03 -1.014281E+03
       245  25 -2.205153E+05 -4.452270E+04  4.316704E+03 -1.300193E+05  1.379626E+04 -1.719248E+03
       245  26 -2.533121E+05 -5.219099E+04  3.705146E+03 -1.379848E+05  1.102653E+04 -6.270212E+02
       245  27 -2.825972E+05 -6.598206E+04  1.095947E+03 -1.506467E+05  8.086500E+03  9.195910E+02
       246   1 -3.137594E+05 -7.689502E+04 -3.370396E+03 -1.590096E+05  3.197150E+03  1.604412E+03
       246   2 -2.839430E+05 -6.310774E+04  2.711379E+03 -1.475281E+05  4.906857E+03 -6.782048E+02
       246   3 -2.498408E+05 -5.390988E+04  8.198684E+03 -1.411225E+05  6.634671E+03 -3.008954E+03
       246   4 -3.082658E+05 -7.497116E+04 -2.398347E+03 -1.575416E+05 -1.935999E+03 -3.212361E+02
       246   5 -3.104084E+05 -7.261640E+04 -1.301992E+03 -1.550297E+05 -3.237211E+02 -2.640453E+03
       246   6 -3.082470E+05 -7.483186E+04 -7.229093E+02 -1.575942E+05  1.306619E+03 -5.007813E+03
       246   7 -3.027721E+05 -7.304727E+04 -1.426187E+03 -1.560735E+05 -7.069194E+03 -2.246901E+03
       246   8 -3.368729E+05 -8.212491E+04 -5.315208E+03 -1.625310E+05 -5.554031E+03 -4.602599E+03
       246   9 -3.666486E+05 -9.575317E+04 -9.644230E+03 -1.740642E+05 -4.020840E+03 -7.006448E+03
       246  10 -3.137594E+05 -7.689503E+04 -3.370420E+03 -1.590096E+05 -8.897387E-08 -4.169228E-08
       246  11 -2.839430E+05 -6.310774E+04  2.711333E+03 -1.475281E+05 -3.071943E-08 -1.977016E-08
       246  12 -2.498409E+05 -5.390991E+04  8.198584E+03 -1.411225E+05  5.718246E-08  1.796770E-08
       246  13 -3.082658E+05 -7.497116E+04 -2.398355E+03 -1.575416E+05  1.830725E-08 -1.714285E-09
       246  14 -3.104084E+05 -7.261641E+04 -1.302006E+03 -1.550297E+05 -1.035430E-08 -8.921662E-09
       246  15 -3.082470E+05 -7.483189E+04 -7.229596E+02 -1.575942E+05 -5.414527E-09 -5.486406E-09
       246  16 -3.027722E+05 -7.304729E+04 -1.426290E+03 -1.560735E+05  1.026881E-07  3.849050E-08
       246  17 -3.368729E+05 -8.212494E+04 -5.315306E+03 -1.625310E+05  5.961111E-09  1.106377E-09
       246  18 -3.666487E+05 -9.575323E+04 -9.644352E+03 -1.740642E+05 -6.655022E-08 -2.885698E-08
       246  19 -3.137594E+05 -7.689502E+04 -3.370396E+03 -1.590096E+05 -3.197150E+03 -1.604412E+03
       246  20 -2.839430E+05 -6.310774E+04  2.711379E+03 -1.475281E+05 -4.906857E+03  6.782048E+02
       246  21 -2.498408E+05 -5.390988E+04  8.198684E+03 -1.411225E+05 -6.634671E+03  3.008954E+03
       246  22 -3.082658E+05 -7.497116E+04 -2.398347E+03 -1.575416E+05  1.935999E+03  3.212361E+02
       246  23 -3.104084E+05 -7.261640E+04 -1.301992E+03 -1.550297E+05  3.237211E+02  2.640453E+03
       246  24 -3.082470E+05 -7.483186E+04 -7.229093E+02 -1.575942E+05 -1.306619E+03  5.007813E+03
       246  25 -3.027721E+05 -7.304727E+04 -1.426187E+03 -1.560735E+05  7.069194E+03  2.246901E+03
       246  26 -3.368729E+05 -8.212491E+04 -5.315208E+03 -1.625310E+05  5.554031E+03  4.602599E+03
       246  27 -3.666486E+05 -9.575317E+04 -9.644230E+03 -1.740642E+05  4.020840E+03  7.006448E+03
       247   1 -2.296408E+05 -4.670191E+04  1.164002E+04 -1.354863E+05  7.312319E+03 -4.506104E+03
       247   2 -1.998948E+05 -3.309364E+04  1.674005E+04 -1.239852E+05  8.466877E+03 -7.079519E+03
       247   3 -1.657341E+05 -2.393083E+04  2.171567E+04 -1.175678E+05  9.622837E+03 -9.656096E+03
       247   4 -3.082270E+05 -7.483541E+04 -5.476981E+02 -1.575842E+05  1.986950E+03 -6.504041E+03
       247   5 -3.104364E+05 -7.261992E+04 -3.191388E+02 -1.550400E+05  3.134841E+03 -9.080205E+03
       247   6 -3.082316E+05 -7.484912E+04 -2.100008E+02 -1.575802E+05  4.284120E+03 -1.165953E+04
       247   7 -3.868075E+05 -1.029686E+05 -1.273566E+04 -1.796798E+05 -3.337769E+03 -8.501734E+03
       247   8 -4.209654E+05 -1.121452E+05 -1.737858E+04 -1.860898E+05 -2.196226E+03 -1.108053E+04
       247   9 -4.507071E+05 -1.257653E+05 -2.213587E+04 -1.975841E+05 -1.053305E+03 -1.366247E+04
       247  10 -2.296409E+05 -4.670195E+04  1.163988E+04 -1.354863E+05  1.063307E-08  4.970877E-09
       247  11 -1.998949E+05 -3.309372E+04  1.673982E+04 -1.239851E+05  1.364183E-08  6.514931E-09
       247  12 -1.657343E+05 -2.393096E+04  2.171532E+04 -1.175677E+05  1.310443E-08  4.623885E-09
       247  13 -3.082270E+05 -7.483546E+04 -5.477850E+02 -1.575842E+05  8.640079E-10  7.434243E-10
       247  14 -3.104364E+05 -7.262001E+04 -3.193121E+02 -1.550400E+05  1.274928E-08  9.492428E-09
       247  15 -3.082316E+05 -7.484927E+04 -2.102907E+02 -1.575802E+05  2.396600E-09  1.603390E-08
       247  16 -3.868075E+05 -1.029687E+05 -1.273582E+04 -1.796798E+05 -5.631293E-09 -7.986953E-09
       247  17 -4.209655E+05 -1.121453E+05 -1.737882E+04 -1.860898E+05 -6.393817E-09 -7.346109E-09
       247  18 -4.507071E+05 -1.257655E+05 -2.213622E+04 -1.975841E+05 -1.024490E-08 -7.827990E-09
       247  19 -2.296408E+05 -4.670191E+04  1.164002E+04 -1.354863E+05 -7.312319E+03  4.506104E+03
       247  20 -1.998948E+05 -3.309364E+04  1.674005E+04 -1.239852E+05 -8.466877E+03  7.079519E+03
       247  21 -1.657341E+05 -2.393083E+04  2.171567E+04 -1.175678E+05 -9.622837E+03  9.656096E+03
       247  22 -3.082270E+05 -7.483541E+04 -5.476981E+02 -1.575842E+05 -1.986950E+03  6.504041E+03
       247  23 -3.104364E+05 -7.261992E+04 -3.191388E+02 -1.550400E+05 -3.134841E+03  9.080205E+03
       247  24 -3.082316E+05 -7.484912E+04 -2.100008E+02 -1.575802E+05 -4.284120E+03  1.165953E+04
       247  25 -3.868075E+05 -1.029686E+05 -1.273566E+04 -1.796798E+05  3.337769E+03  8.501734E+03
       247  26 -4.209654E+05 -1.121452E+05 -1.737858E+04 -1.860898E+05  2.196226E+03  1.108053E+04
       247  27 -4.507071E+05 -1.257653E+05 -2.213587E+04 -1.975841E+05  1.053305E+03  1.366247E+04
       248   1 -1.455795E+05 -1.671078E+04  2.499956E+04 -1.119235E+05  1.023240E+04 -1.118112E+04
       248   2 -1.158674E+05 -3.105262E+03  2.986929E+04 -1.004221E+05  1.128448E+04 -1.379015E+04
       248   3 -8.172532E+04  6.068627E+03  3.469309E+04 -9.399817E+04  1.233163E+04 -1.638510E+04
       248   4 -3.082320E+05 -7.485157E+04 -1.859122E+02 -1.575780E+05  4.894164E+03 -1.318456E+04
       248   5 -3.104462E+05 -7.263914E+04 -1.845968E+02 -1.550375E+05  5.974398E+03 -1.578342E+04
       248   6 -3.082370E+05 -7.486389E+04 -2.514583E+02 -1.575748E+05  7.049712E+03 -1.836822E+04
       248   7 -4.708539E+05 -1.329888E+05 -2.537114E+04 -2.032207E+05 -4.425366E+02 -1.518742E+04
       248   8 -5.049840E+05 -1.421690E+05 -3.023894E+04 -2.096368E+05  6.660757E+02 -1.777603E+04
       248   9 -5.346958E+05 -1.557920E+05 -3.519741E+04 -2.211303E+05  1.769768E+03 -2.035060E+04
       248  10 -1.455797E+05 -1.671094E+04  2.499912E+04 -1.119234E+05 -1.123769E-08 -6.119227E-09
       248  11 -1.158676E+05 -3.105500E+03  2.986869E+04 -1.004219E+05 -6.241459E-09 -7.600845E-09
       248  12 -8.172556E+04  6.068298E+03  3.469230E+04 -9.399801E+04 -5.437423E-09 -8.508701E-09
       248  13 -3.082321E+05 -7.485176E+04 -1.862838E+02 -1.575780E+05  3.676566E-09  1.599342E-08
       248  14 -3.104463E+05 -7.263942E+04 -1.851319E+02 -1.550374E+05  7.373802E-09  8.688519E-09
       248  15 -3.082371E+05 -7.486426E+04 -2.521856E+02 -1.575747E+05  4.452850E-09  6.995663E-11
       248  16 -4.708540E+05 -1.329891E+05 -2.537158E+04 -2.032208E+05  1.560915E-08  2.761721E-09
       248  17 -5.049841E+05 -1.421694E+05 -3.023954E+04 -2.096368E+05  1.638473E-08  6.489553E-09
       248  18 -5.346959E+05 -1.557924E+05 -3.519819E+04 -2.211303E+05  6.934006E-09  4.716073E-09
       248  19 -1.455795E+05 -1.671078E+04  2.499956E+04 -1.119235E+05 -1.023240E+04  1.118112E+04
       248  20 -1.158674E+05 -3.105262E+03  2.986929E+04 -1.004221E+05 -1.128448E+04  1.379015E+04
       248  21 -8.172532E+04  6.068627E+03  3.469309E+04 -9.399817E+04 -1.233163E+04  1.638510E+04
       248  22 -3.082320E+05 -7.485157E+04 -1.859122E+02 -1.575780E+05 -4.894164E+03  1.318456E+04
       248  23 -3.104462E+05 -7.263914E+04 -1.845968E+02 -1.550375E+05 -5.974398E+03  1.578342E+04
       248  24 -3.082370E+05 -7.486389E+04 -2.514583E+02 -1.575748E+05 -7.049712E+03  1.836822E+04
       248  25 -4.708539E+05 -1.329888E+05 -2.537114E+04 -2.032207E+05  4.425366E+02  1.518742E+04
       248  26 -5.049840E+05 -1.421690E+05 -3.023894E+04 -2.096368E+05 -6.660757E+02  1.777603E+04
       248  27 -5.346958E+05 -1.557920E+05 -3.519741E+04 -2.211303E+05 -1.769768E+03  2.035060E+04
       249   1 -6.158785E+04  1.328968E+04  3.790493E+04 -8.836050E+04  1.295581E+04 -1.789146E+04
       249   2 -3.191639E+04  2.690196E+04  4.266145E+04 -7.686223E+04  1.391954E+04 -2.043825E+04
       249   3  2.183126E+03  3.608884E+04  4.741399E+04 -7.042335E+04  1.483502E+04 -2.285524E+04
       249   4 -3.082489E+05 -7.486418E+04 -3.141450E+02 -1.575752E+05  7.669218E+03 -1.987664E+04
       249   5 -3.104455E+05 -7.266218E+04 -5.374785E+02 -1.550330E+05  8.895092E+03 -2.232559E+04
       249   6 -3.082668E+05 -7.493778E+04 -9.724818E+02 -1.575509E+05  1.007271E+04 -2.464471E+04
       249   7 -5.548442E+05 -1.630116E+05 -3.853403E+04 -2.267640E+05  2.384852E+03 -2.186097E+04
       249   8 -5.888891E+05 -1.722175E+05 -4.373704E+04 -2.331703E+05  3.873062E+03 -2.421203E+04
       249   9 -6.186089E+05 -1.859528E+05 -4.935940E+04 -2.446364E+05  5.312966E+03 -2.643322E+04
       249  10 -6.158812E+04  1.328929E+04  3.790401E+04 -8.836031E+04 -2.336282E-09 -5.802297E-09
       249  11 -3.191671E+04  2.690146E+04  4.266030E+04 -7.686200E+04 -2.867265E-09 -4.776050E-09
       249  12  2.182750E+03  3.608822E+04  4.741260E+04 -7.042308E+04 -1.666938E-09 -3.135050E-09
       249  13 -3.082491E+05 -7.486462E+04 -3.149979E+02 -1.575751E+05  7.481848E-10 -2.639105E-09
       249  14 -3.104457E+05 -7.266273E+04 -5.385636E+02 -1.550329E+05  4.745718E-09 -1.558493E-09
       249  15 -3.082670E+05 -7.493846E+04 -9.738136E+02 -1.575507E+05 -2.727473E-09 -6.742630E-10
       249  16 -5.548443E+05 -1.630121E+05 -3.853494E+04 -2.267640E+05 -1.712390E-09  8.482908E-10
       249  17 -5.888892E+05 -1.722181E+05 -4.373817E+04 -2.331702E+05  5.762922E-09  2.665885E-10
       249  18 -6.186091E+05 -1.859536E+05 -4.936076E+04 -2.446362E+05  4.049680E-09  2.615473E-09
       249  19 -6.158785E+04  1.328968E+04  3.790493E+04 -8.836050E+04 -1.295581E+04  1.789146E+04
       249  20 -3.191639E+04  2.690196E+04  4.266145E+04 -7.686223E+04 -1.391954E+04  2.043825E+04
       249  21  2.183126E+03  3.608884E+04  4.741399E+04 -7.042335E+04 -1.483502E+04  2.285524E+04
       249  22 -3.082489E+05 -7.486418E+04 -3.141450E+02 -1.575752E+05 -7.669218E+03  1.987664E+04
       249  23 -3.104455E+05 -7.266218E+04 -5.374785E+02 -1.550330E+05 -8.895092E+03  2.232559E+04
       249  24 -3.082668E+05 -7.493778E+04 -9.724818E+02 -1.575509E+05 -1.007271E+04  2.464471E+04
       249  25 -5.548442E+05 -1.630116E+05 -3.853403E+04 -2.267640E+05 -2.384852E+03  2.186097E+04
       249  26 -5.888891E+05 -1.722175E+05 -4.373704E+04 -2.331703E+05 -3.873062E+03  2.421203E+04
       249  27 -6.186089E+05 -1.859528E+05 -4.935940E+04 -2.446364E+05 -5.312966E+03  2.643322E+04
       250   1  2.234895E+04  4.330020E+04  5.053022E+04 -6.484219E+04  1.560152E+04 -2.419232E+04
       250   2  5.166605E+04  5.705052E+04  5.551446E+04 -5.303703E+04  1.503074E+04 -2.643563E+04
       250   3  8.539906E+04  6.617441E+04  6.134044E+04 -4.606613E+04  1.400660E+04 -2.747103E+04
       250   4 -3.083467E+05 -7.494063E+04 -1.294472E+03 -1.575530E+05  1.078337E+04 -2.600313E+04
       250   5 -3.104048E+05 -7.301080E+04 -2.384448E+03 -1.549024E+05  1.265517E+04 -2.732981E+04
       250   6 -3.085326E+05 -7.619222E+04 -4.568489E+03 -1.570871E+05  1.407356E+04 -2.744812E+04
       250   7 -6.389285E+05 -1.931716E+05 -5.312207E+04 -2.502184E+05  5.967873E+03 -2.781294E+04
       250   8 -6.723372E+05 -2.030593E+05 -6.028653E+04 -2.567125E+05  1.028105E+04 -2.822344E+04
       250   9 -7.022988E+05 -2.185429E+05 -7.048135E+04 -2.680421E+05  1.414048E+04 -2.742522E+04
       250  10  2.234853E+04  4.329951E+04  5.052867E+04 -6.484189E+04  2.273174E-09 -1.670821E-10
       250  11  5.166562E+04  5.704970E+04  5.551272E+04 -5.303671E+04 -1.137462E-08 -2.787862E-09
       250  12  8.539865E+04  6.617354E+04  6.133865E+04 -4.606582E+04 -5.114909E-09 -1.060653E-09
       250  13 -3.083470E+05 -7.494138E+04 -1.295961E+03 -1.575527E+05 -6.642534E-09 -3.985863E-10
       250  14 -3.104052E+05 -7.301165E+04 -2.386152E+03 -1.549021E+05 -1.105507E-08 -2.379807E-09
       250  15 -3.085330E+05 -7.619308E+04 -4.570277E+03 -1.570868E+05  1.150252E-10 -4.072838E-10
       250  16 -6.389288E+05 -1.931724E+05 -5.312359E+04 -2.502183E+05 -4.943565E-09 -1.107185E-09
       250  17 -6.723375E+05 -2.030602E+05 -6.028822E+04 -2.567123E+05 -6.900738E-09 -1.950706E-09
       250  18 -7.022993E+05 -2.185438E+05 -7.048314E+04 -2.680417E+05  1.935247E-09 -2.506508E-10
       250  19  2.234895E+04  4.330020E+04  5.053022E+04 -6.484219E+04 -1.560152E+04  2.419232E+04
       250  20  5.166605E+04  5.705052E+04  5.551446E+04 -5.303703E+04 -1.503074E+04  2.643563E+04
       250  21  8.539906E+04  6.617441E+04  6.134044E+04 -4.606613E+04 -1.400660E+04  2.747103E+04
       250  22 -3.083467E+05 -7.494063E+04 -1.294472E+03 -1.575530E+05 -1.078337E+04  2.600313E+04
       250  23 -3.104048E+05 -7.301080E+04 -2.384448E+03 -1.549024E+05 -1.265517E+04  2.732981E+04
       250  24 -3.085326E+05 -7.619222E+04 -4.568489E+03 -1.570871E+05 -1.407356E+04  2.744812E+04
       250  25 -6.389285E+05 -1.931716E+05 -5.312207E+04 -2.502184E+05 -5.967873E+03  2.781294E+04
       250  26 -6.723372E+05 -2.030593E+05 -6.028653E+04 -2.567125E+05 -1.028105E+04  2.822344E+04
       250  27 -7.022988E+05 -2.185429E+05 -7.048135E+04 -2.680421E+05 -1.414048E+04  2.742522E+04
       251   1  1.060748E+05  7.306541E+04  6.478870E+04 -4.110051E+04  1.542027E+04 -2.749495E+04
       251   2  1.302644E+05  8.859104E+04  7.553731E+04 -2.329128E+04 -3.407187E+03 -2.837695E+04
       251   3  1.580916E+05  9.451781E+04  9.706574E+04 -7.278055E+03 -2.649055E+04 -1.794356E+04
       251   4 -3.093543E+05 -7.639261E+04 -6.136138E+03 -1.570919E+05  1.494626E+04 -2.767537E+04
       251   5 -3.102319E+05 -7.867194E+04 -1.178594E+04 -1.526854E+05  1.900992E+04 -1.995575E+04
       251   6 -3.120099E+05 -9.508900E+04 -2.479625E+04 -1.500755E+05  1.881745E+04 -9.159346E+02
       251   7 -7.245992E+05 -2.258333E+05 -7.706550E+04 -2.730104E+05  1.447259E+04 -2.785567E+04
       251   8 -7.505179E+05 -2.459098E+05 -9.911392E+04 -2.819903E+05  4.140960E+04 -1.154171E+04
       251   9 -7.818750E+05 -2.846637E+05 -1.466637E+05 -2.927656E+05  6.408652E+04  1.609455E+04
       251  10  1.060743E+05  7.306453E+04  6.478684E+04 -4.110017E+04 -1.163362E-10  1.118094E-09
       251  11  1.302641E+05  8.859017E+04  7.553578E+04 -2.329135E+04 -5.198741E-09 -1.101122E-09
       251  12  1.580907E+05  9.451728E+04  9.706381E+04 -7.278437E+03 -3.118526E-09 -1.566314E-09
       251  13 -3.093548E+05 -7.639349E+04 -6.137997E+03 -1.570915E+05  2.788714E-09 -1.376273E-09
       251  14 -3.102324E+05 -7.867247E+04 -1.178737E+04 -1.526851E+05  2.117877E-09 -1.169003E-09
       251  15 -3.120103E+05 -9.508909E+04 -2.479692E+04 -1.500754E+05  3.423382E-09  4.155276E-10
       251  16 -7.245996E+05 -2.258342E+05 -7.706735E+04 -2.730101E+05 -8.413932E-10 -1.793207E-09
       251  17 -7.505198E+05 -2.459104E+05 -9.911740E+04 -2.819899E+05  5.526531E-09 -4.743475E-10
       251  18 -7.818795E+05 -2.846651E+05 -1.466719E+05 -2.927664E+05  2.892233E-09  1.354444E-10
       251  19  1.060748E+05  7.306541E+04  6.478870E+04 -4.110051E+04 -1.542027E+04  2.749495E+04
       251  20  1.302644E+05  8.859104E+04  7.553731E+04 -2.329128E+04  3.407187E+03  2.837695E+04
       251  21  1.580916E+05  9.451781E+04  9.706574E+04 -7.278055E+03  2.649055E+04  1.794356E+04
       251  22 -3.093543E+05 -7.639261E+04 -6.136138E+03 -1.570919E+05 -1.494626E+04  2.767537E+04
       251  23 -3.102319E+05 -7.867194E+04 -1.178594E+04 -1.526854E+05 -1.900992E+04  1.995575E+04
       251  24 -3.120099E+05 -9.508900E+04 -2.479625E+04 -1.500755E+05 -1.881745E+04  9.159346E+02
       251  25 -7.245992E+05 -2.258333E+05 -7.706550E+04 -2.730104E+05 -1.447259E+04  2.785567E+04
       251  26 -7.505179E+05 -2.459098E+05 -9.911392E+04 -2.819903E+05 -4.140960E+04  1.154171E+04
       251  27 -7.818750E+05 -2.846637E+05 -1.466637E+05 -2.927656E+05 -6.408652E+04 -1.609455E+04
       252   1 -2.685552E+05 -5.273871E+04 -8.032950E+04 -1.742842E+04 -8.261663E+04 -1.351268E+03
       252   2 -2.580777E+05  5.931955E+04 -1.288883E+04 -5.992924E+03 -5.475506E+04 -3.880358E+03
       252   3 -2.832208E+05  4.321138E+04  4.382261E+03  1.360094E+04 -2.689689E+04 -3.451603E+03
       252   4 -4.399720E+05 -9.551577E+04 -1.229113E+05  3.745494E+03 -8.395316E+04 -1.355116E+03
       252   5 -4.220612E+05  1.848904E+04 -5.305990E+04 -3.723713E+02 -5.510558E+04 -3.881240E+03
       252   6 -4.399525E+05  4.137083E+03 -3.407298E+04  3.668267E+03 -2.626103E+04 -3.450572E+03
       252   7 -6.113611E+05 -1.382934E+05 -1.654951E+05  2.491355E+04 -8.528931E+04 -1.359057E+03
       252   8 -5.860201E+05 -2.234334E+04 -9.323293E+04  5.246688E+03 -5.545601E+04 -3.882129E+03
       252   9 -5.966616E+05 -3.493867E+04 -7.252996E+04 -6.261894E+03 -2.562534E+04 -3.449562E+03
       252  10 -2.685626E+05 -5.274055E+04 -8.034233E+04 -1.742851E+04  4.680410E-10  6.638897E-10
       252  11 -2.580809E+05  5.931873E+04 -1.289450E+04 -5.993095E+03 -1.107614E-09 -1.239600E-10
       252  12 -2.832215E+05  4.321117E+04  4.380878E+03  1.360086E+04  4.616550E-09 -3.084501E-09
       252  13 -4.399796E+05 -9.551767E+04 -1.229246E+05  3.745402E+03 -1.900051E-09  1.392153E-09
       252  14 -4.220645E+05  1.848821E+04 -5.306564E+04 -3.725436E+02  2.371531E-10  4.862238E-10
       252  15 -4.399532E+05  4.136885E+03 -3.407429E+04  3.668194E+03 -4.397807E-10 -3.648128E-10
       252  16 -6.113689E+05 -1.382953E+05 -1.655088E+05  2.491346E+04 -6.686840E-10  9.612951E-10
       252  17 -5.860235E+05 -2.234418E+04 -9.323874E+04  5.246515E+03 -2.949930E-09 -1.169245E-09
       252  18 -5.966623E+05 -3.493886E+04 -7.253122E+04 -6.261966E+03 -2.815815E-09 -2.707503E-09
       252  19 -2.685552E+05 -5.273871E+04 -8.032950E+04 -1.742842E+04  8.261663E+04  1.351268E+03
       252  20 -2.580777E+05  5.931955E+04 -1.288883E+04 -5.992924E+03  5.475506E+04  3.880358E+03
       252  21 -2.832208E+05  4.321138E+04  4.382261E+03  1.360094E+04  2.689689E+04  3.451603E+03
       252  22 -4.399720E+05 -9.551577E+04 -1.229113E+05  3.745494E+03  8.395316E+04  1.355116E+03
       252  23 -4.220612E+05  1.848904E+04 -5.305990E+04 -3.723713E+02  5.510558E+04  3.881240E+03
       252  24 -4.399525E+05  4.137083E+03 -3.407298E+04  3.668267E+03  2.626103E+04  3.450572E+03
       252  25 -6.113611E+05 -1.382934E+05 -1.654951E+05  2.491355E+04  8.528931E+04  1.359057E+03
       252  26 -5.860201E+05 -2.234334E+04 -9.323293E+04  5.246688E+03  5.545601E+04  3.882129E+03
       252  27 -5.966616E+05 -3.493867E+04 -7.252996E+04 -6.261894E+03  2.562534E+04  3.449562E+03
       253   1 -2.937436E+05  2.230934E+04  6.209482E+03  1.354485E+03 -2.071637E+04 -2.847204E+03
       253   2 -2.989742E+05  3.521133E+04  1.849494E+04 -1.040560E+03 -1.367234E+04 -2.878257E+03
       253   3 -3.092831E+05  3.140366E+04  2.201930E+04  5.258422E+03 -6.628742E+03 -2.572399E+03
       253   4 -4.331332E+05 -1.242145E+04 -2.803295E+04  3.824034E+03 -2.078285E+04 -2.847405E+03
       253   5 -4.305820E+05  2.423253E+03 -1.379402E+04 -5.304347E+02 -1.362710E+04 -2.878254E+03
       253   6 -4.331296E+05  5.369430E+02 -8.395186E+03  3.809236E+03 -6.471700E+03 -2.572205E+03
       253   7 -5.725052E+05 -4.715367E+04 -6.227681E+04  6.293022E+03 -2.084931E+04 -2.847607E+03
       253   8 -5.621740E+05 -3.036611E+04 -4.608426E+04 -2.042230E+01 -1.358187E+04 -2.878251E+03
       253   9 -5.569621E+05 -3.033091E+04 -3.881080E+04  2.360335E+03 -6.314689E+03 -2.572012E+03
       253  10 -2.937441E+05  2.230922E+04  6.208660E+03  1.354437E+03  4.508305E-11 -4.466238E-09
       253  11 -2.989744E+05  3.521127E+04  1.849457E+04 -1.040592E+03  5.587679E-10  1.276391E-09
       253  12 -3.092832E+05  3.140364E+04  2.201920E+04  5.258408E+03 -1.180339E-09  2.707345E-09
       253  13 -4.331337E+05 -1.242158E+04 -2.803378E+04  3.823986E+03 -3.707197E-09 -3.007091E-09
       253  14 -4.305822E+05  2.423195E+03 -1.379439E+04 -5.304663E+02 -7.504412E-10 -2.985285E-10
       253  15 -4.331297E+05  5.369246E+02 -8.395277E+03  3.809222E+03 -2.133509E-10  3.938086E-10
       253  16 -5.725056E+05 -4.715380E+04 -6.227765E+04  6.292974E+03 -3.139413E-10 -8.607690E-10
       253  17 -5.621742E+05 -3.036617E+04 -4.608462E+04 -2.045379E+01 -3.679203E-09  3.096127E-10
       253  18 -5.569622E+05 -3.033093E+04 -3.881089E+04  2.360322E+03 -4.175265E-10  2.060598E-09
       253  19 -2.937436E+05  2.230934E+04  6.209482E+03  1.354485E+03  2.071637E+04  2.847204E+03
       253  20 -2.989742E+05  3.521133E+04  1.849494E+04 -1.040560E+03  1.367234E+04  2.878257E+03
       253  21 -3.092831E+05  3.140366E+04  2.201930E+04  5.258422E+03  6.628742E+03  2.572399E+03
       253  22 -4.331332E+05 -1.242145E+04 -2.803295E+04  3.824034E+03  2.078285E+04  2.847405E+03
       253  23 -4.305820E+05  2.423253E+03 -1.379402E+04 -5.304347E+02  1.362710E+04  2.878254E+03
       253  24 -4.331296E+05  5.369430E+02 -8.395186E+03  3.809236E+03  6.471700E+03  2.572205E+03
       253  25 -5.725052E+05 -4.715367E+04 -6.227681E+04  6.293022E+03  2.084931E+04  2.847607E+03
       253  26 -5.621740E+05 -3.036611E+04 -4.608426E+04 -2.042230E+01  1.358187E+04  2.878251E+03
       253  27 -5.569621E+05 -3.033091E+04 -3.881080E+04  2.360335E+03  6.314689E+03  2.572012E+03
       254   1 -3.266539E+05  2.469222E+04  1.921689E+04  3.728977E+03 -5.205657E+03 -2.355657E+03
       254   2 -3.343995E+05  2.457941E+04  2.034360E+04 -5.897409E+02 -3.421404E+03 -2.100744E+03
       254   3 -3.429247E+05  2.231884E+04  1.976916E+04  4.192508E+03 -1.637315E+03 -1.802345E+03
       254   4 -4.321697E+05 -1.594156E+03 -6.659253E+03  3.906277E+03 -5.127608E+03 -2.355575E+03
       254   5 -4.317782E+05  3.161951E+02 -3.552919E+03 -6.454488E+02 -3.329025E+03 -2.100627E+03
       254   6 -4.321689E+05  7.609340E+01 -2.157898E+03  3.903884E+03 -1.530581E+03 -1.802191E+03
       254   7 -5.376753E+05 -2.788136E+04 -3.253621E+04  4.083544E+03 -5.049573E+03 -2.355493E+03
       254   8 -5.291482E+05 -2.394772E+04 -2.745013E+04 -7.011513E+02 -3.236660E+03 -2.100510E+03
       254   9 -5.214059E+05 -2.216724E+04 -2.408555E+04  3.615299E+03 -1.423863E+03 -1.802038E+03
       254  10 -3.266539E+05  2.469220E+04  1.921682E+04  3.728967E+03 -6.632039E-10  3.100109E-09
       254  11 -3.343995E+05  2.457940E+04  2.034357E+04 -5.897467E+02 -1.339192E-09  2.133007E-09
       254  12 -3.429247E+05  2.231883E+04  1.976915E+04  4.192505E+03  3.257448E-10  7.362721E-10
       254  13 -4.321697E+05 -1.594169E+03 -6.659313E+03  3.906268E+03 -3.244117E-09 -6.183493E-10
       254  14 -4.317782E+05  3.161874E+02 -3.552948E+03 -6.454545E+02 -4.988593E-09  1.125287E-09
       254  15 -4.321690E+05  7.608929E+01 -2.157909E+03  3.903882E+03  3.725757E-09  5.023765E-09
       254  16 -5.376753E+05 -2.788137E+04 -3.253627E+04  4.083534E+03 -3.918914E-09  2.152770E-09
       254  17 -5.291482E+05 -2.394773E+04 -2.745016E+04 -7.011568E+02 -3.843523E-09  1.075351E-09
       254  18 -5.214059E+05 -2.216725E+04 -2.408556E+04  3.615297E+03  1.484186E-09  3.832464E-09
       254  19 -3.266539E+05  2.469222E+04  1.921689E+04  3.728977E+03  5.205657E+03  2.355657E+03
       254  20 -3.343995E+05  2.457941E+04  2.034360E+04 -5.897409E+02  3.421404E+03  2.100744E+03
       254  21 -3.429247E+05  2.231884E+04  1.976916E+04  4.192508E+03  1.637315E+03  1.802345E+03
       254  22 -4.321697E+05 -1.594156E+03 -6.659253E+03  3.906277E+03  5.127608E+03  2.355575E+03
       254  23 -4.317782E+05  3.161951E+02 -3.552919E+03 -6.454488E+02  3.329025E+03  2.100627E+03
       254  24 -4.321689E+05  7.609340E+01 -2.157898E+03  3.903884E+03  1.530581E+03  1.802191E+03
       254  25 -5.376753E+05 -2.788136E+04 -3.253621E+04  4.083544E+03  5.049573E+03  2.355493E+03
       254  26 -5.291482E+05 -2.394772E+04 -2.745013E+04 -7.011513E+02  3.236660E+03  2.100510E+03
       254  27 -5.214059E+05 -2.216724E+04 -2.408555E+04  3.615299E+03  1.423863E+03  1.802038E+03
       255   1 -3.618423E+05  1.729370E+04  1.547793E+04  4.025195E+03 -1.279311E+03 -1.623705E+03
       255   2 -3.701495E+05  1.544319E+04  1.407831E+04 -6.485498E+02 -7.392653E+02 -1.329143E+03
       255   3 -3.786269E+05  1.331206E+04  1.225058E+04  4.064440E+03 -1.993015E+02 -1.026245E+03
       255   4 -4.320322E+05 -1.905665E+02 -1.722525E+03  3.968401E+03 -1.181990E+03 -1.623558E+03
       255   5 -4.319467E+05  4.499155E+01 -1.087388E+03 -7.251505E+02 -6.391986E+02 -1.328983E+03
       255   6 -4.320321E+05 -5.888147E-01 -8.823288E+02  3.968091E+03 -9.648268E+01 -1.026071E+03
       255   7 -5.022177E+05 -1.767520E+04 -1.892334E+04  3.911613E+03 -1.084679E+03 -1.623411E+03
       255   8 -4.937404E+05 -1.535349E+04 -1.625337E+04 -8.017450E+02 -5.391420E+02 -1.328823E+03
       255   9 -4.854347E+05 -1.331345E+04 -1.401545E+04  3.871749E+03  6.327305E+00 -1.025897E+03
       255  10 -3.618423E+05  1.729370E+04  1.547792E+04  4.025193E+03 -7.891055E-10  2.417035E-10
       255  11 -3.701495E+05  1.544319E+04  1.407830E+04 -6.485506E+02 -5.853615E-09  4.655090E-09
       255  12 -3.786269E+05  1.331206E+04  1.225058E+04  4.064440E+03  3.882462E-10  4.276573E-09
       255  13 -4.320322E+05 -1.905697E+02 -1.722532E+03  3.968400E+03  8.481009E-10  2.574840E-09
       255  14 -4.319467E+05  4.498954E+01 -1.087392E+03 -7.251512E+02 -4.166155E-09  4.255060E-09
       255  15 -4.320321E+05 -5.899475E-01 -8.823308E+02  3.968091E+03 -2.784936E-09 -1.000899E-10
       255  16 -5.022177E+05 -1.767521E+04 -1.892335E+04  3.911611E+03 -1.516076E-09  3.698175E-09
       255  17 -4.937404E+05 -1.535349E+04 -1.625337E+04 -8.017456E+02  2.475851E-09 -1.250836E-09
       255  18 -4.854347E+05 -1.331345E+04 -1.401545E+04  3.871749E+03  2.632180E-09 -1.616927E-09
       255  19 -3.618423E+05  1.729370E+04  1.547793E+04  4.025195E+03  1.279311E+03  1.623705E+03
       255  20 -3.701495E+05  1.544319E+04  1.407831E+04 -6.485498E+02  7.392653E+02  1.329143E+03
       255  21 -3.786269E+05  1.331206E+04  1.225058E+04  4.064440E+03  1.993015E+02  1.026245E+03
       255  22 -4.320322E+05 -1.905665E+02 -1.722525E+03  3.968401E+03  1.181990E+03  1.623558E+03
       255  23 -4.319467E+05  4.499155E+01 -1.087388E+03 -7.251505E+02  6.391986E+02  1.328983E+03
       255  24 -4.320321E+05 -5.888149E-01 -8.823288E+02  3.968091E+03  9.648268E+01  1.026071E+03
       255  25 -5.022177E+05 -1.767520E+04 -1.892334E+04  3.911613E+03  1.084679E+03  1.623411E+03
       255  26 -4.937404E+05 -1.535349E+04 -1.625337E+04 -8.017450E+02  5.391420E+02  1.328823E+03
       255  27 -4.854347E+05 -1.331345E+04 -1.401545E+04  3.871749E+03 -6.327305E+00  1.025897E+03
       256   1 -3.981411E+05  8.436449E+03  7.414706E+03  4.023384E+03 -4.004436E+01 -8.482071E+02
       256   2 -4.065853E+05  6.362680E+03  5.172058E+03 -7.339690E+02  4.848641E+02 -5.437143E+02
       256   3 -4.152055E+05  4.022780E+03  2.512410E+03  4.054374E+03  1.009751E+03 -2.391535E+02
       256   4 -4.320327E+05 -3.221536E+00 -8.765531E+02  4.003411E+03  6.189142E+01 -8.480300E+02
       256   5 -4.319448E+05  4.361773E+01 -1.051640E+03 -7.692932E+02  5.868030E+02 -5.435337E+02
       256   6 -4.320328E+05 -1.756432E+02 -1.643701E+03  4.003723E+03  1.111700E+03 -2.389692E+02
       256   7 -4.659232E+05 -8.442977E+03 -9.167896E+03  3.983438E+03  1.638217E+02 -8.478530E+02
       256   8 -4.573036E+05 -6.275492E+03 -7.275385E+03 -8.046163E+02  6.887377E+02 -5.433532E+02
       256   9 -4.488598E+05 -4.374087E+03 -5.799833E+03  3.953074E+03  1.213646E+03 -2.387850E+02
       256  10 -3.981411E+05  8.436448E+03  7.414705E+03  4.023384E+03  2.407865E-09  8.352798E-10
       256  11 -4.065853E+05  6.362679E+03  5.172057E+03 -7.339688E+02  9.191405E-10 -1.010348E-09
       256  12 -4.152055E+05  4.022780E+03  2.512408E+03  4.054374E+03 -6.095669E-10 -3.778309E-09
       256  13 -4.320327E+05 -3.222309E+00 -8.765544E+02  4.003411E+03  4.920335E-09  5.183726E-09
       256  14 -4.319448E+05  4.361732E+01 -1.051641E+03 -7.692930E+02 -3.979345E-09  2.767026E-09
       256  15 -4.320328E+05 -1.756436E+02 -1.643703E+03  4.003723E+03 -3.601165E-09  5.778417E-10
       256  16 -4.659232E+05 -8.442978E+03 -9.167897E+03  3.983438E+03 -8.113069E-09  1.152349E-09
       256  17 -4.573036E+05 -6.275492E+03 -7.275386E+03 -8.046160E+02 -4.039990E-09 -2.474368E-09
       256  18 -4.488598E+05 -4.374088E+03 -5.799836E+03  3.953074E+03 -7.562485E-10 -4.183295E-09
       256  19 -3.981411E+05  8.436449E+03  7.414706E+03  4.023384E+03  4.004436E+01  8.482071E+02
       256  20 -4.065853E+05  6.362680E+03  5.172058E+03 -7.339690E+02 -4.848641E+02  5.437143E+02
       256  21 -4.152055E+05  4.022780E+03  2.512410E+03  4.054374E+03 -1.009751E+03  2.391535E+02
       256  22 -4.320327E+05 -3.221536E+00 -8.765531E+02  4.003411E+03 -6.189142E+01  8.480300E+02
       256  23 -4.319448E+05  4.361773E+01 -1.051640E+03 -7.692932E+02 -5.868030E+02  5.435337E+02
       256  24 -4.320328E+05 -1.756432E+02 -1.643701E+03  4.003723E+03 -1.111700E+03  2.389692E+02
       256  25 -4.659232E+05 -8.442977E+03 -9.167896E+03  3.983438E+03 -1.638217E+02  8.478530E+02
       256  26 -4.573036E+05 -6.275492E+03 -7.275385E+03 -8.046163E+02 -6.887377E+02  5.433532E+02
       256  27 -4.488598E+05 -4.374087E+03 -5.799833E+03  3.953074E+03 -1.213646E+03  2.387850E+02
       257   1 -4.350389E+05 -6.474242E+02 -2.785731E+03  3.832767E+03  1.337306E+03 -5.688618E+01
       257   2 -4.432081E+05 -2.546612E+03 -6.171739E+03 -7.409568E+02  3.049111E+03  2.531568E+02
       257   3 -4.521506E+05 -6.475898E+03 -1.118925E+04  4.257675E+03  4.760938E+03  5.419547E+02
       257   4 -4.321651E+05  7.474310E+01 -2.053813E+03  4.008485E+03  1.443964E+03 -5.669212E+01
       257   5 -4.317794E+05  3.009191E+02 -3.367389E+03 -7.762742E+02  3.148663E+03  2.533357E+02
       257   6 -4.321658E+05 -1.501736E+03 -6.307487E+03  4.011314E+03  4.853408E+03  5.421175E+02
       257   7 -4.292914E+05  7.969098E+02 -1.321897E+03  4.184204E+03  1.550623E+03 -5.649801E+01
       257   8 -4.203506E+05  3.148440E+03 -5.630488E+02 -8.115923E+02  3.248218E+03  2.535145E+02
       257   9 -4.121806E+05  3.472397E+03 -1.425755E+03  3.764945E+03  4.945880E+03  5.422802E+02
       257  10 -4.350389E+05 -6.474246E+02 -2.785734E+03  3.832767E+03 -5.150950E-09 -4.813915E-10
       257  11 -4.432081E+05 -2.546614E+03 -6.171757E+03 -7.409574E+02 -6.388300E-09  6.565094E-10
       257  12 -4.521506E+05 -6.475905E+03 -1.118929E+04  4.257673E+03 -2.115435E-09  4.784321E-10
       257  13 -4.321651E+05  7.474254E+01 -2.053817E+03  4.008485E+03  9.939963E-10  2.387164E-09
       257  14 -4.317794E+05  3.009163E+02 -3.367408E+03 -7.762748E+02  4.897945E-10  4.090451E-09
       257  15 -4.321658E+05 -1.501743E+03 -6.307532E+03  4.011312E+03 -3.931895E-09  2.441981E-09
       257  16 -4.292914E+05  7.969092E+02 -1.321901E+03  4.184204E+03  2.525746E-09 -7.882605E-10
       257  17 -4.203506E+05  3.148437E+03 -5.630687E+02 -8.115929E+02 -1.044112E-09 -4.335434E-09
       257  18 -4.121807E+05  3.472390E+03 -1.425802E+03  3.764943E+03  3.479927E-09  6.392593E-11
       257  19 -4.350389E+05 -6.474242E+02 -2.785731E+03  3.832767E+03 -1.337306E+03  5.688618E+01
       257  20 -4.432081E+05 -2.546612E+03 -6.171739E+03 -7.409568E+02 -3.049111E+03 -2.531568E+02
       257  21 -4.521506E+05 -6.475898E+03 -1.118925E+04  4.257675E+03 -4.760938E+03 -5.419547E+02
       257  22 -4.321651E+05  7.474310E+01 -2.053813E+03  4.008485E+03 -1.443964E+03  5.669212E+01
       257  23 -4.317794E+05  3.009191E+02 -3.367389E+03 -7.762742E+02 -3.148663E+03 -2.533357E+02
       257  24 -4.321658E+05 -1.501736E+03 -6.307487E+03  4.011314E+03 -4.853408E+03 -5.421175E+02
       257  25 -4.292914E+05  7.969098E+02 -1.321897E+03  4.184204E+03 -1.550623E+03  5.649801E+01
       257  26 -4.203506E+05  3.148440E+03 -5.630488E+02 -8.115923E+02 -3.248218E+03 -2.535145E+02
       257  27 -4.121806E+05  3.472397E+03 -1.425755E+03  3.764945E+03 -4.945880E+03 -5.422802E+02
       258   1 -4.726736E+05 -9.363266E+03 -1.769451E+04  2.677136E+03  5.989814E+03  7.495686E+02
       258   2 -4.786980E+05 -9.675231E+03 -2.484617E+04 -2.117881E+02  1.282577E+04  1.074052E+03
       258   3 -4.896089E+05 -2.582697E+04 -4.041807E+04  6.377812E+03  1.966187E+04  1.210132E+03
       258   4 -4.330774E+05  5.141343E+02 -7.950929E+03  3.981675E+03  6.126642E+03  7.498212E+02
       258   5 -4.306414E+05  2.296515E+03 -1.305645E+04 -7.471728E+02  1.289979E+04  1.074163E+03
       258   6 -4.330809E+05 -1.174931E+04 -2.653808E+04  4.002510E+03  1.967317E+04  1.210066E+03
       258   7 -3.934798E+05  1.039142E+04  1.792537E+03  5.286296E+03  6.263478E+03  7.500743E+02
       258   8 -3.825828E+05  1.426809E+04 -1.266895E+03 -1.282600E+03  1.297381E+04  1.074273E+03
       258   9 -3.765499E+05  2.328141E+03 -1.265832E+04  1.626990E+03  1.968447E+04  1.210001E+03
       258  10 -4.726737E+05 -9.363277E+03 -1.769458E+04  2.677133E+03 -4.616173E-09  3.954370E-09
       258  11 -4.786981E+05 -9.675276E+03 -2.484648E+04 -2.117992E+02  6.248810E-10  3.973707E-09
       258  12 -4.896093E+05 -2.582707E+04 -4.041880E+04  6.377793E+03  6.296953E-09  1.733244E-09
       258  13 -4.330775E+05  5.141236E+02 -7.951001E+03  3.981671E+03 -1.192327E-09  2.243535E-09
       258  14 -4.306416E+05  2.296469E+03 -1.305676E+04 -7.471839E+02  4.595055E-10  2.426227E-09
       258  15 -4.330813E+05 -1.174941E+04 -2.653881E+04  4.002491E+03  2.633004E-09 -2.034909E-09
       258  16 -3.934798E+05  1.039141E+04  1.792462E+03  5.286292E+03  3.207290E-09  1.001717E-09
       258  17 -3.825830E+05  1.426804E+04 -1.267214E+03 -1.282611E+03 -2.286072E-09 -1.411355E-09
       258  18 -3.765503E+05  2.328035E+03 -1.265905E+04  1.626971E+03 -1.795116E-09 -5.417671E-09
       258  19 -4.726736E+05 -9.363266E+03 -1.769451E+04  2.677136E+03 -5.989814E+03 -7.495686E+02
       258  20 -4.786980E+05 -9.675231E+03 -2.484617E+04 -2.117881E+02 -1.282577E+04 -1.074052E+03
       258  21 -4.896089E+05 -2.582697E+04 -4.041807E+04  6.377812E+03 -1.966187E+04 -1.210132E+03
       258  22 -4.330774E+05  5.141343E+02 -7.950929E+03  3.981675E+03 -6.126642E+03 -7.498212E+02
       258  23 -4.306414E+05  2.296515E+03 -1.305645E+04 -7.471728E+02 -1.289979E+04 -1.074163E+03
       258  24 -4.330809E+05 -1.174931E+04 -2.653808E+04  4.002510E+03 -1.967317E+04 -1.210066E+03
       258  25 -3.934798E+05  1.039142E+04  1.792537E+03  5.286296E+03 -6.263478E+03 -7.500743E+02
       258  26 -3.825828E+05  1.426809E+04 -1.266895E+03 -1.282600E+03 -1.297381E+04 -1.074273E+03
       258  27 -3.765499E+05  2.328141E+03 -1.265832E+04  1.626990E+03 -1.968447E+04 -1.210001E+03
       259   1 -5.152921E+05 -1.499216E+04 -5.086224E+04 -5.472598E+03  2.445073E+04  1.641698E+03
       259   2 -5.065800E+05 -3.398947E+03 -7.080006E+04  4.640333E+03  5.231243E+04  2.063010E+03
       259   3 -5.319241E+05 -1.134087E+05 -1.392908E+05  2.407452E+04  8.017696E+04  8.124969E+02
       259   4 -4.395387E+05  3.924715E+03 -3.225611E+04  3.905895E+03  2.485960E+04  1.642730E+03
       259   5 -4.225707E+05  1.750627E+04 -5.022375E+04 -6.831770E+02  5.216276E+04  2.062299E+03
       259   6 -4.395574E+05 -9.040997E+04 -1.163515E+05  4.049274E+03  7.946915E+04  8.088222E+02
       259   7 -3.637798E+05  2.284149E+04 -1.365036E+04  1.328553E+04  2.526852E+04  1.643773E+03
       259   8 -3.385549E+05  3.841107E+04 -2.964795E+04 -6.007412E+03  5.201307E+04  2.061591E+03
       259   9 -3.471821E+05 -6.741042E+04 -9.341264E+04 -1.597896E+04  7.876123E+04  8.051935E+02
       259  10 -5.152927E+05 -1.499233E+04 -5.086336E+04 -5.472630E+03 -2.086138E-09 -5.050377E-10
       259  11 -5.065829E+05 -3.399687E+03 -7.080522E+04  4.640246E+03  6.305691E-10 -3.251015E-10
       259  12 -5.319310E+05 -1.134104E+05 -1.393029E+05  2.407447E+04  4.915801E-09  3.810131E-10
       259  13 -4.395393E+05  3.924546E+03 -3.225728E+04  3.905862E+03  5.867052E-10  2.264971E-09
       259  14 -4.225736E+05  1.750553E+04 -5.022888E+04 -6.832637E+02  2.873634E-09 -2.449841E-09
       259  15 -4.395642E+05 -9.041167E+04 -1.163634E+05  4.049222E+03 -8.767237E-10  2.336425E-09
       259  16 -3.637805E+05  2.284132E+04 -1.365156E+04  1.328550E+04  3.725438E-09  1.945800E-09
       259  17 -3.385578E+05  3.841034E+04 -2.965304E+04 -6.007499E+03 -3.869890E-10  3.935083E-09
       259  18 -3.471888E+05 -6.741208E+04 -9.342431E+04 -1.597901E+04  2.500721E-10  1.194847E-09
       259  19 -5.152921E+05 -1.499216E+04 -5.086224E+04 -5.472598E+03 -2.445073E+04 -1.641698E+03
       259  20 -5.065800E+05 -3.398947E+03 -7.080006E+04  4.640333E+03 -5.231243E+04 -2.063010E+03
       259  21 -5.319241E+05 -1.134087E+05 -1.392908E+05  2.407452E+04 -8.017696E+04 -8.124969E+02
       259  22 -4.395387E+05  3.924715E+03 -3.225611E+04  3.905895E+03 -2.485960E+04 -1.642730E+03
       259  23 -4.225707E+05  1.750627E+04 -5.022375E+04 -6.831770E+02 -5.216276E+04 -2.062299E+03
       259  24 -4.395574E+05 -9.040997E+04 -1.163515E+05  4.049274E+03 -7.946915E+04 -8.088222E+02
       259  25 -3.637798E+05  2.284149E+04 -1.365036E+04  1.328553E+04 -2.526852E+04 -1.643773E+03
       259  26 -3.385549E+05  3.841107E+04 -2.964795E+04 -6.007412E+03 -5.201307E+04 -2.061591E+03
       259  27 -3.471821E+05 -6.741042E+04 -9.341264E+04 -1.597896E+04 -7.876123E+04 -8.051935E+02
       260   1  1.663394E+05  9.373223E+05  1.769450E+05 -9.356745E+04  4.788625E+03  6.080964E+04
       260   2  7.858692E+04  8.292207E+05  1.092610E+05 -5.428872E+04  1.393477E+04  3.058621E+04
       260   3  5.204183E+04  7.403039E+05  7.652792E+04 -5.527163E+04  1.143744E+04  3.578926E+02
       260   4  6.166191E+04  5.162016E+05  7.461684E+04 -6.375202E+04  4.803151E+03  4.715044E+04
       260   5 -1.365604E+02  5.075462E+05  3.719116E+04 -4.365022E+04  1.393860E+04  2.756890E+04
       260   6 -2.555251E+03  5.162348E+05  2.734675E+04 -6.380816E+04  1.142973E+04  7.977570E+03
       260   7 -4.302525E+04  9.524476E+04 -2.772295E+04 -3.395681E+04  4.816374E+03  3.350045E+04
       260   8 -7.886667E+04  1.859682E+05 -3.488515E+04 -3.301725E+04  1.394232E+04  2.455314E+04
       260   9 -5.715538E+04  2.922129E+05 -2.183723E+04 -7.234156E+04  1.142181E+04  1.559453E+04
       260  10  1.663384E+05  9.373183E+05  1.769380E+05 -9.356769E+04  1.915025E-09 -8.378556E-10
       260  11  7.858646E+04  8.292197E+05  1.092589E+05 -5.428906E+04  1.338135E-09  1.367049E-09
       260  12  5.204169E+04  7.403039E+05  7.652768E+04 -5.527163E+04  2.326400E-09  4.673328E-09
       260  13  6.166129E+04  5.161992E+05  7.461263E+04 -6.375221E+04 -4.050179E-09 -8.590110E-10
       260  14 -1.369729E+02  5.075454E+05  3.718937E+04 -4.365053E+04  2.641022E-09 -1.957726E-09
       260  15 -2.555409E+03  5.162347E+05  2.734638E+04 -6.380823E+04  4.854484E-09 -1.219162E-10
       260  16 -4.302557E+04  9.524355E+04 -2.772510E+04 -3.395694E+04  8.323216E-10  1.293803E-09
       260  17 -7.886704E+04  1.859675E+05 -3.488665E+04 -3.301753E+04  8.366525E-10 -3.593811E-09
       260  18 -5.715559E+04  2.922126E+05 -2.183793E+04 -7.234170E+04 -4.623529E-10 -6.570006E-09
       260  19  1.663394E+05  9.373223E+05  1.769450E+05 -9.356745E+04 -4.788625E+03 -6.080964E+04
       260  20  7.858692E+04  8.292207E+05  1.092610E+05 -5.428872E+04 -1.393477E+04 -3.058621E+04
       260  21  5.204183E+04  7.403039E+05  7.652792E+04 -5.527163E+04 -1.143744E+04 -3.578926E+02
       260  22  6.166191E+04  5.162016E+05  7.461684E+04 -6.375202E+04 -4.803151E+03 -4.715044E+04
       260  23 -1.365604E+02  5.075462E+05  3.719116E+04 -4.365022E+04 -1.393860E+04 -2.756890E+04
       260  24 -2.555251E+03  5.162348E+05  2.734675E+04 -6.380816E+04 -1.142973E+04 -7.977570E+03
       260  25 -4.302525E+04  9.524476E+04 -2.772295E+04 -3.395681E+04 -4.816374E+03 -3.350045E+04
       260  26 -7.886667E+04  1.859682E+05 -3.488515E+04 -3.301725E+04 -1.394232E+04 -2.455314E+04
       260  27 -5.715538E+04  2.922129E+05 -2.183723E+04 -7.234156E+04 -1.142181E+04 -1.559453E+04
       261   1  3.808013E+04  6.568306E+05  5.756749E+04 -6.660766E+04  7.135495E+03 -7.427402E+02
       261   2  1.076868E+04  5.563439E+05  3.672736E+04 -4.325883E+04  2.340686E+03 -1.431217E+04
       261   3 -5.590658E+03  4.602703E+05  2.743044E+04 -6.061769E+04 -2.555216E+03 -2.788001E+04
       261   4  3.076299E+03  5.133597E+05  2.595885E+04 -6.389342E+04  7.130893E+03  3.600015E+03
       261   5 -2.420878E+02  5.111662E+05  2.682038E+04 -4.353739E+04  2.335892E+03 -9.876186E+03
       261   6  7.376342E+03  5.133601E+05  3.916117E+04 -6.388875E+04 -2.560110E+03 -2.335287E+04
       261   7 -3.192888E+04  3.699080E+05 -5.650987E+03 -6.117981E+04  7.126329E+03  7.941780E+03
       261   8 -1.125298E+04  4.659904E+05  1.691336E+04 -4.381593E+04  2.331094E+03 -5.440516E+03
       261   9  2.034320E+04  5.664526E+05  5.089181E+04 -6.716009E+04 -2.565051E+03 -1.882534E+04
       261  10  3.808008E+04  6.568305E+05  5.756739E+04 -6.660766E+04 -1.687101E-09 -2.304081E-09
       261  11  1.076862E+04  5.563437E+05  3.672696E+04 -4.325881E+04  8.162327E-10 -5.645445E-09
       261  12 -5.590874E+03  4.602695E+05  2.742897E+04 -6.061775E+04 -4.171314E-10 -4.907980E-09
       261  13  3.076241E+03  5.133596E+05  2.595873E+04 -6.389344E+04  1.704232E-09 -1.049150E-09
       261  14 -2.421198E+02  5.111660E+05  2.682019E+04 -4.353738E+04  5.998370E-09 -2.266916E-09
       261  15  7.376189E+03  5.133595E+05  3.916013E+04 -6.388880E+04  1.851185E-09 -2.796165E-10
       261  16 -3.192895E+04  3.699080E+05 -5.651201E+03 -6.117985E+04 -5.151757E-10  2.958901E-09
       261  17 -1.125299E+04  4.659903E+05  1.691329E+04 -4.381592E+04  4.057388E-09  2.864390E-09
       261  18  2.034310E+04  5.664522E+05  5.089113E+04 -6.716013E+04 -2.716620E-09  2.676462E-09
       261  19  3.808013E+04  6.568306E+05  5.756749E+04 -6.660766E+04 -7.135495E+03  7.427402E+02
       261  20  1.076868E+04  5.563439E+05  3.672736E+04 -4.325883E+04 -2.340686E+03  1.431217E+04
       261  21 -5.590658E+03  4.602703E+05  2.743044E+04 -6.061769E+04  2.555216E+03  2.788001E+04
       261  22  3.076299E+03  5.133597E+05  2.595885E+04 -6.389342E+04 -7.130893E+03 -3.600015E+03
       261  23 -2.420878E+02  5.111662E+05  2.682038E+04 -4.353739E+04 -2.335892E+03  9.876186E+03
       261  24  7.376342E+03  5.133601E+05  3.916117E+04 -6.388875E+04  2.560110E+03  2.335287E+04
       261  25 -3.192888E+04  3.699080E+05 -5.650987E+03 -6.117981E+04 -7.126329E+03 -7.941780E+03
       261  26 -1.125298E+04  4.659904E+05  1.691336E+04 -4.381593E+04 -2.331094E+03  5.440516E+03
       261  27  2.034320E+04  5.664526E+05  5.089181E+04 -6.716009E+04  2.565051E+03  1.882534E+04
       262   1 -3.890622E+04  3.871417E+05  1.752562E+04 -8.317199E+04 -6.654127E+03 -3.733587E+04
       262   2 -5.693472E+04  2.706991E+05  2.383160E+04 -2.084800E+04 -9.742098E+03 -6.890356E+04
       262   3  5.354190E+04  1.904389E+05  8.280034E+04  1.183031E+03 -3.487434E+03 -1.004566E+05
       262   4 -6.368894E+03  5.207499E+05  4.692374E+04 -6.383348E+04 -6.662991E+03 -3.023378E+04
       262   5 -2.651302E+02  5.019123E+05  7.579537E+04 -4.362222E+04 -9.737886E+03 -7.034200E+04
       262   6  1.357912E+05  5.207038E+05  1.632398E+05 -6.369752E+04 -3.467427E+03 -1.104408E+05
       262   7  2.616868E+04  6.543757E+05  7.632116E+04 -4.449075E+04 -6.671412E+03 -2.313017E+04
       262   8  5.640274E+04  7.331763E+05  1.277560E+05 -6.640499E+04 -9.733569E+03 -7.178097E+04
       262   9  2.180483E+05  8.510773E+05  2.436740E+05 -1.286126E+05 -3.445342E+03 -1.204304E+05
       262  10 -3.890665E+04  3.871402E+05  1.752292E+04 -8.317219E+04  2.542650E-09  9.187575E-09
       262  11 -5.693610E+04  2.706940E+05  2.382250E+04 -2.084854E+04  8.763488E-10  3.308502E-09
       262  12  5.353918E+04  1.904281E+05  8.278136E+04  1.182749E+03 -1.491278E-09 -2.230016E-09
       262  13 -6.369187E+03  5.207489E+05  4.692194E+04 -6.383364E+04  5.025181E-09 -9.163401E-10
       262  14 -2.665591E+02  5.019070E+05  7.578590E+04 -4.362277E+04  3.984053E-09 -2.045087E-09
       262  15  1.357879E+05  5.206907E+05  1.632169E+05 -6.369783E+04 -2.425712E-10  1.416502E-11
       262  16  2.616849E+04  6.543752E+05  7.632007E+04 -4.449088E+04 -7.077196E-10 -8.763158E-09
       262  17  5.640126E+04  7.331707E+05  1.277462E+05 -6.640555E+04 -9.830772E-10 -5.930255E-09
       262  18  2.180444E+05  8.510617E+05  2.436468E+05 -1.286130E+05  2.569806E-09  6.149536E-10
       262  19 -3.890622E+04  3.871417E+05  1.752562E+04 -8.317199E+04  6.654127E+03  3.733587E+04
       262  20 -5.693472E+04  2.706991E+05  2.383160E+04 -2.084800E+04  9.742098E+03  6.890356E+04
       262  21  5.354190E+04  1.904389E+05  8.280034E+04  1.183031E+03  3.487434E+03  1.004566E+05
       262  22 -6.368894E+03  5.207499E+05  4.692374E+04 -6.383348E+04  6.662991E+03  3.023378E+04
       262  23 -2.651302E+02  5.019123E+05  7.579537E+04 -4.362222E+04  9.737886E+03  7.034200E+04
       262  24  1.357912E+05  5.207038E+05  1.632398E+05 -6.369752E+04  3.467427E+03  1.104408E+05
       262  25  2.616868E+04  6.543757E+05  7.632116E+04 -4.449075E+04  6.671412E+03  2.313017E+04
       262  26  5.640274E+04  7.331763E+05  1.277560E+05 -6.640499E+04  9.733569E+03  7.178097E+04
       262  27  2.180483E+05  8.510773E+05  2.436740E+05 -1.286126E+05  3.445342E+03  1.204304E+05
       263   1  1.406698E+05  2.174770E+04  1.128047E+03  5.241650E+04 -2.222033E+03 -8.485550E+02
       263   2  1.416894E+05  2.445438E+04  3.178483E+03  5.116814E+04 -1.422632E+03 -5.717536E+02
       263   3  1.408750E+05  2.419015E+04  3.703576E+03  5.153076E+04 -6.348752E+02 -2.640089E+02
       263   4  1.238463E+05  1.542865E+04 -3.499668E+03  4.787481E+04 -2.222802E+03 -8.488441E+02
       263   5  1.249349E+05  1.812951E+04 -1.436247E+03  4.661240E+04 -1.422725E+03 -5.717889E+02
       263   6  1.241894E+05  1.785931E+04 -8.987382E+02  4.696100E+04 -6.342937E+02 -2.637900E+02
       263   7  1.070230E+05  9.109620E+03 -8.127407E+03  4.333324E+04 -2.223570E+03 -8.491331E+02
       263   8  1.081807E+05  1.180467E+04 -6.051002E+03  4.205677E+04 -1.422819E+03 -5.718241E+02
       263   9  1.075041E+05  1.152848E+04 -5.501078E+03  4.239135E+04 -6.337122E+02 -2.635711E+02
       263  10  1.406698E+05  2.174770E+04  1.128036E+03  5.241650E+04 -1.298559E-07  8.337902E-08
       263  11  1.416893E+05  2.445438E+04  3.178479E+03  5.116814E+04 -1.161740E-07  7.188873E-08
       263  12  1.408750E+05  2.419015E+04  3.703575E+03  5.153076E+04  6.070288E-07 -4.080306E-07
       263  13  1.238462E+05  1.542865E+04 -3.499679E+03  4.787481E+04 -5.163167E-10  3.961396E-09
       263  14  1.249349E+05  1.812951E+04 -1.436252E+03  4.661240E+04  1.149601E-09 -2.728582E-09
       263  15  1.241894E+05  1.785931E+04 -8.987390E+02  4.696100E+04  1.573629E-08 -2.685463E-08
       263  16  1.070230E+05  9.109618E+03 -8.127417E+03  4.333324E+04  1.296677E-07 -7.782960E-08
       263  17  1.081807E+05  1.180467E+04 -6.051007E+03  4.205677E+04  1.169841E-07 -7.902389E-08
       263  18  1.075041E+05  1.152848E+04 -5.501079E+03  4.239135E+04 -5.869908E-07  3.526881E-07
       263  19  1.406698E+05  2.174770E+04  1.128047E+03  5.241650E+04  2.222033E+03  8.485550E+02
       263  20  1.416894E+05  2.445438E+04  3.178483E+03  5.116814E+04  1.422632E+03  5.717536E+02
       263  21  1.408750E+05  2.419015E+04  3.703576E+03  5.153076E+04  6.348752E+02  2.640089E+02
       263  22  1.238463E+05  1.542865E+04 -3.499668E+03  4.787481E+04  2.222802E+03  8.488441E+02
       263  23  1.249349E+05  1.812951E+04 -1.436247E+03  4.661240E+04  1.422725E+03  5.717889E+02
       263  24  1.241894E+05  1.785931E+04 -8.987381E+02  4.696100E+04  6.342937E+02  2.637900E+02
       263  25  1.070230E+05  9.109620E+03 -8.127407E+03  4.333324E+04  2.223570E+03  8.491331E+02
       263  26  1.081807E+05  1.180467E+04 -6.051002E+03  4.205677E+04  1.422819E+03  5.718241E+02
       263  27  1.075041E+05  1.152848E+04 -5.501078E+03  4.239135E+04  6.337122E+02  2.635711E+02
       264   1  1.301655E+05  1.954070E+04  8.519260E+02  4.867496E+04 -5.006663E+02 -2.024051E+02
       264   2  1.303785E+05  1.991734E+04  1.267254E+03  4.841667E+04 -3.253710E+02 -1.330244E+02
       264   3  1.301820E+05  1.992359E+04  1.400822E+03  4.852851E+04 -1.497065E+02 -6.461559E+01
       264   4  1.243520E+05  1.734717E+04 -7.490917E+02  4.709532E+04 -5.005855E+02 -2.023746E+02
       264   5  1.245841E+05  1.772617E+04 -3.295020E+02  4.683727E+04 -3.253138E+02 -1.330028E+02
       264   6  1.244069E+05  1.773477E+04 -1.916548E+02  4.694935E+04 -1.496729E+02 -6.460282E+01
       264   7  1.185384E+05  1.515363E+04 -2.350112E+03  4.551570E+04 -5.005045E+02 -2.023442E+02
       264   8  1.187898E+05  1.553499E+04 -1.926260E+03  4.525788E+04 -3.252561E+02 -1.329811E+02
       264   9  1.186317E+05  1.554595E+04 -1.784134E+03  4.537019E+04 -1.496385E+02 -6.458999E+01
       264  10  1.301655E+05  1.954070E+04  8.519281E+02  4.867494E+04 -2.406901E-05 -1.718902E-05
       264  11  1.303785E+05  1.991734E+04  1.267266E+03  4.841661E+04 -1.155607E-04 -7.421448E-05
       264  12  1.301822E+05  1.992359E+04  1.400844E+03  4.852840E+04 -2.100435E-04 -1.293608E-04
       264  13  1.243520E+05  1.734717E+04 -7.490927E+02  4.709532E+04 -7.513285E-05 -2.057953E-05
       264  14  1.245841E+05  1.772617E+04 -3.295025E+02  4.683727E+04 -3.333883E-04 -9.116744E-05
       264  15  1.244069E+05  1.773477E+04 -1.916553E+02  4.694935E+04 -5.916237E-04 -1.617653E-04
       264  16  1.185384E+05  1.515363E+04 -2.350116E+03  4.551571E+04 -2.989102E-05 -1.560541E-05
       264  17  1.187897E+05  1.553499E+04 -1.926273E+03  4.525794E+04 -1.239093E-04 -7.102067E-05
       264  18  1.186316E+05  1.554595E+04 -1.784157E+03  4.537030E+04 -2.149247E-04 -1.283302E-04
       264  19  1.301655E+05  1.954070E+04  8.519314E+02  4.867493E+04  5.006663E+02  2.024051E+02
       264  20  1.303786E+05  1.991735E+04  1.267278E+03  4.841655E+04  3.253708E+02  1.330243E+02
       264  21  1.301823E+05  1.992359E+04  1.400866E+03  4.852829E+04  1.497061E+02  6.461533E+01
       264  22  1.243520E+05  1.734717E+04 -7.490926E+02  4.709532E+04  5.005853E+02  2.023746E+02
       264  23  1.245841E+05  1.772617E+04 -3.295026E+02  4.683727E+04  3.253131E+02  1.330026E+02
       264  24  1.244069E+05  1.773477E+04 -1.916557E+02  4.694935E+04  1.496717E+02  6.460250E+01
       264  25  1.185384E+05  1.515363E+04 -2.350118E+03  4.551572E+04  5.005044E+02  2.023442E+02
       264  26  1.187896E+05  1.553499E+04 -1.926285E+03  4.525800E+04  3.252559E+02  1.329810E+02
       264  27  1.186315E+05  1.554595E+04 -1.784179E+03  4.537041E+04  1.496381E+02  6.458973E+01
       265   1  1.264421E+05  1.839172E+04  3.994585E+02  4.749798E+04 -1.219106E+02 -5.230187E+01
       265   2  1.264914E+05  1.842968E+04  4.955217E+02  4.743473E+04 -9.535254E+01 -3.915278E+01
       265   3  1.264393E+05  1.845551E+04  5.491910E+02  4.747078E+04 -6.793650E+01 -2.828035E+01
       265   4  1.244504E+05  1.763876E+04 -1.493032E+02  4.695532E+04 -1.218233E+02 -5.226885E+01
       265   5  1.245059E+05  1.767834E+04 -5.173186E+01  4.689303E+04 -9.531636E+01 -3.913907E+01
       265   6  1.244599E+05  1.770581E+04  3.486201E+00  4.693005E+04 -6.795147E+01 -2.828595E+01
       265   7  1.224588E+05  1.688580E+04 -6.980654E+02  4.641266E+04 -1.217352E+02 -5.223576E+01
       265   8  1.225204E+05  1.692701E+04 -5.989859E+02  4.635133E+04 -9.527958E+01 -3.912530E+01
       265   9  1.224806E+05  1.695612E+04 -5.422192E+02  4.638932E+04 -6.796605E+01 -2.829149E+01
       265  10  1.264422E+05  1.839172E+04  3.994815E+02  4.749787E+04 -2.242620E-04 -1.349142E-04
       265  11  1.264915E+05  1.842968E+04  4.955381E+02  4.743464E+04 -1.693405E-04 -9.859818E-05
       265  12  1.264393E+05  1.845551E+04  5.492012E+02  4.747073E+04 -1.122942E-04 -6.350745E-05
       265  13  1.244504E+05  1.763876E+04 -1.493029E+02  4.695532E+04 -6.206053E-04 -1.701038E-04
       265  14  1.245059E+05  1.767834E+04 -5.173168E+01  4.689303E+04 -4.619748E-04 -1.281235E-04
       265  15  1.244599E+05  1.770581E+04  3.486441E+00  4.693005E+04 -3.033530E-04 -8.610828E-05
       265  16  1.224587E+05  1.688580E+04 -6.980882E+02  4.641278E+04 -2.218221E-04 -1.349275E-04
       265  17  1.225203E+05  1.692701E+04 -5.990025E+02  4.635142E+04 -1.638397E-04 -1.004756E-04
       265  18  1.224805E+05  1.695612E+04 -5.422293E+02  4.638938E+04 -1.080274E-04 -6.472246E-05
       265  19  1.264423E+05  1.839173E+04  3.995045E+02  4.749775E+04  1.219102E+02  5.230160E+01
       265  20  1.264916E+05  1.842968E+04  4.955546E+02  4.743456E+04  9.535220E+01  3.915259E+01
       265  21  1.264394E+05  1.845550E+04  5.492113E+02  4.747067E+04  6.793628E+01  2.828023E+01
       265  22  1.244504E+05  1.763876E+04 -1.493025E+02  4.695532E+04  1.218221E+02  5.226851E+01
       265  23  1.245059E+05  1.767834E+04 -5.173147E+01  4.689303E+04  9.531543E+01  3.913881E+01
       265  24  1.244599E+05  1.770581E+04  3.486701E+00  4.693005E+04  6.795086E+01  2.828577E+01
       265  25  1.224585E+05  1.688580E+04 -6.981109E+02  4.641289E+04  1.217347E+02  5.223549E+01
       265  26  1.225202E+05  1.692701E+04 -5.990190E+02  4.635151E+04  9.527925E+01  3.912509E+01
       265  27  1.224805E+05  1.695612E+04 -5.422394E+02  4.638943E+04  6.796583E+01  2.829136E+01
       266   1  1.250936E+05  1.791380E+04  1.985893E+02  4.709804E+04 -7.071433E+01 -2.903270E+01
       266   2  1.250966E+05  1.790190E+04  2.650363E+02  4.707829E+04 -1.195170E+02 -4.599243E+01
       266   3  1.250967E+05  1.796072E+04  3.795305E+02  4.707795E+04 -1.679524E+02 -6.392541E+01
       266   4  1.244755E+05  1.767962E+04  2.818719E+01  4.692911E+04 -7.067530E+01 -2.901796E+01
       266   5  1.244804E+05  1.766872E+04  9.519701E+01  4.691017E+04 -1.194998E+02 -4.598590E+01
       266   6  1.244824E+05  1.772857E+04  2.102714E+02  4.691066E+04 -1.679570E+02 -6.392711E+01
       266   7  1.238574E+05  1.744543E+04 -1.422150E+02  4.676018E+04 -7.063596E+01 -2.900317E+01
       266   8  1.238642E+05  1.743555E+04 -7.464236E+01  4.674206E+04 -1.194823E+02 -4.597935E+01
       266   9  1.238682E+05  1.749641E+04  4.101215E+01  4.674336E+04 -1.679614E+02 -6.392879E+01
       266  10  1.250936E+05  1.791380E+04  1.985968E+02  4.709800E+04 -8.691846E-05 -4.873030E-05
       266  11  1.250966E+05  1.790189E+04  2.650413E+02  4.707826E+04 -5.957037E-05 -3.279868E-05
       266  12  1.250967E+05  1.796072E+04  3.795329E+02  4.707794E+04 -3.220776E-05 -1.690716E-05
       266  13  1.244755E+05  1.767962E+04  2.818728E+01  4.692911E+04 -2.353364E-04 -6.769498E-05
       266  14  1.244804E+05  1.766872E+04  9.519708E+01  4.691017E+04 -1.602040E-04 -4.644302E-05
       266  15  1.244824E+05  1.772857E+04  2.102714E+02  4.691066E+04 -8.505882E-05 -2.521997E-05
       266  16  1.238574E+05  1.744543E+04 -1.422226E+02  4.676022E+04 -8.471080E-05 -4.958417E-05
       266  17  1.238642E+05  1.743555E+04 -7.464740E+01  4.674209E+04 -5.756048E-05 -3.361487E-05
       266  18  1.238681E+05  1.749641E+04  4.100963E+01  4.674338E+04 -3.042648E-05 -1.763801E-05
       266  19  1.250937E+05  1.791380E+04  1.986044E+02  4.709796E+04  7.071416E+01  2.903261E+01
       266  20  1.250966E+05  1.790189E+04  2.650463E+02  4.707823E+04  1.195169E+02  4.599236E+01
       266  21  1.250968E+05  1.796072E+04  3.795354E+02  4.707792E+04  1.679524E+02  6.392538E+01
       266  22  1.244755E+05  1.767962E+04  2.818739E+01  4.692911E+04  7.067483E+01  2.901782E+01
       266  23  1.244804E+05  1.766872E+04  9.519722E+01  4.691017E+04  1.194994E+02  4.598581E+01
       266  24  1.244824E+05  1.772857E+04  2.102716E+02  4.691066E+04  1.679568E+02  6.392706E+01
       266  25  1.238573E+05  1.744544E+04 -1.422301E+02  4.676026E+04  7.063579E+01  2.900307E+01
       266  26  1.238641E+05  1.743555E+04 -7.465238E+01  4.674212E+04  1.194822E+02  4.597928E+01
       266  27  1.238681E+05  1.749641E+04  4.100724E+01  4.674340E+04  1.679613E+02  6.392876E+01
       267   1  1.244796E+05  1.767661E+04  2.713971E+02  4.693111E+04 -2.086715E+02 -7.919959E+01
       267   2  1.244193E+05  1.760523E+04  4.839660E+02  4.691562E+04 -4.611114E+02 -1.737367E+02
       267   3  1.245177E+05  1.792979E+04  9.873673E+02  4.682844E+04 -7.135355E+02 -2.683296E+02
       267   4  1.245016E+05  1.768278E+04  2.770286E+02  4.693491E+04 -2.086591E+02 -7.919488E+01
       267   5  1.244405E+05  1.761393E+04  4.899545E+02  4.692208E+04 -4.611001E+02 -1.737325E+02
       267   6  1.245382E+05  1.794101E+04  9.937138E+02  4.683757E+04 -7.135254E+02 -2.683258E+02
       267   7  1.245235E+05  1.768895E+04  2.826600E+02  4.693871E+04 -2.086465E+02 -7.919017E+01
       267   8  1.244618E+05  1.762262E+04  4.959430E+02  4.692854E+04 -4.610889E+02 -1.737282E+02
       267   9  1.245588E+05  1.795223E+04  1.000060E+03  4.684670E+04 -7.135154E+02 -2.683220E+02
       267  10  1.244796E+05  1.767661E+04  2.713984E+02  4.693110E+04 -1.872592E-05 -9.506304E-06
       267  11  1.244193E+05  1.760523E+04  4.839657E+02  4.691562E+04 -3.842982E-07 -3.997570E-08
       267  12  1.245177E+05  1.792979E+04  9.873652E+02  4.682845E+04  1.779710E-05  9.559876E-06
       267  13  1.245016E+05  1.768278E+04  2.770285E+02  4.693491E+04 -4.899134E-05 -1.466169E-05
       267  14  1.244405E+05  1.761393E+04  4.899542E+02  4.692208E+04 -1.806708E-07  3.932551E-07
       267  15  1.245382E+05  1.794101E+04  9.937128E+02  4.683757E+04  4.862154E-05  1.544637E-05
       267  16  1.245235E+05  1.768895E+04  2.826585E+02  4.693872E+04 -1.744808E-05 -1.022312E-05
       267  17  1.244618E+05  1.762262E+04  4.959424E+02  4.692854E+04  6.002461E-07 -6.195650E-07
       267  18  1.245588E+05  1.795222E+04  1.000060E+03  4.684669E+04  1.881911E-05  8.843625E-06
       267  19  1.244796E+05  1.767661E+04  2.713999E+02  4.693109E+04  2.086715E+02  7.919957E+01
       267  20  1.244193E+05  1.760524E+04  4.839664E+02  4.691562E+04  4.611114E+02  1.737367E+02
       267  21  1.245176E+05  1.792980E+04  9.873652E+02  4.682846E+04  7.135355E+02  2.683296E+02
       267  22  1.245016E+05  1.768278E+04  2.770287E+02  4.693491E+04  2.086590E+02  7.919485E+01
       267  23  1.244405E+05  1.761393E+04  4.899547E+02  4.692208E+04  4.611001E+02  1.737325E+02
       267  24  1.245382E+05  1.794101E+04  9.937140E+02  4.683757E+04  7.135255E+02  2.683258E+02
       267  25  1.245235E+05  1.768895E+04  2.826572E+02  4.693873E+04  2.086465E+02  7.919015E+01
       267  26  1.244618E+05  1.762262E+04  4.959427E+02  4.692854E+04  4.610889E+02  1.737282E+02
       267  27  1.245588E+05  1.795222E+04  1.000062E+03  4.684668E+04  7.135154E+02  2.683221E+02
       268   1  1.239605E+05  1.742666E+04  1.084309E+03  4.683502E+04 -9.025229E+02 -3.394369E+02
       268   2  1.235710E+05  1.700279E+04  1.965934E+03  4.679399E+04 -2.026410E+03 -7.626019E+02
       268   3  1.242180E+05  1.905332E+04  4.351226E+03  4.617866E+04 -3.150561E+03 -1.185089E+03
       268   4  1.246287E+05  1.766608E+04  1.265798E+03  4.700357E+04 -9.025233E+02 -3.394370E+02
       268   5  1.242279E+05  1.725673E+04  2.148063E+03  4.697870E+04 -2.026396E+03 -7.625967E+02
       268   6  1.248636E+05  1.932178E+04  4.533984E+03  4.637953E+04 -3.150532E+03 -1.185079E+03
       268   7  1.252969E+05  1.790549E+04  1.447288E+03  4.717212E+04 -9.025237E+02 -3.394372E+02
       268   8  1.248848E+05  1.751066E+04  2.330193E+03  4.716341E+04 -2.026383E+03 -7.625915E+02
       268   9  1.255093E+05  1.959023E+04  4.716742E+03  4.658039E+04 -3.150505E+03 -1.185068E+03
       268  10  1.239605E+05  1.742667E+04  1.084306E+03  4.683503E+04  3.027410E-05  1.576356E-05
       268  11  1.235710E+05  1.700280E+04  1.965922E+03  4.679402E+04  5.501473E-05  2.728229E-05
       268  12  1.242180E+05  1.905333E+04  4.351202E+03  4.617870E+04  7.980023E-05  3.871942E-05
       268  13  1.246287E+05  1.766608E+04  1.265797E+03  4.700357E+04  8.158659E-05  2.611465E-05
       268  14  1.242279E+05  1.725673E+04  2.148055E+03  4.697870E+04  1.460640E-04  4.773050E-05
       268  15  1.248636E+05  1.932177E+04  4.533963E+03  4.637953E+04  2.105389E-04  6.934497E-05
       268  16  1.252969E+05  1.790549E+04  1.447287E+03  4.717211E+04  3.132693E-05  1.486365E-05
       268  17  1.248848E+05  1.751065E+04  2.330187E+03  4.716338E+04  5.604403E-05  2.627106E-05
       268  18  1.255093E+05  1.959021E+04  4.716724E+03  4.658036E+04  8.071101E-05  3.776818E-05
       268  19  1.239604E+05  1.742667E+04  1.084306E+03  4.683505E+04  9.025230E+02  3.394370E+02
       268  20  1.235710E+05  1.700281E+04  1.965928E+03  4.679404E+04  2.026410E+03  7.626019E+02
       268  21  1.242180E+05  1.905335E+04  4.351219E+03  4.617873E+04  3.150561E+03  1.185089E+03
       268  22  1.246287E+05  1.766608E+04  1.265799E+03  4.700357E+04  9.025234E+02  3.394371E+02
       268  23  1.242279E+05  1.725673E+04  2.148064E+03  4.697870E+04  2.026397E+03  7.625968E+02
       268  24  1.248636E+05  1.932178E+04  4.533984E+03  4.637953E+04  3.150533E+03  1.185079E+03
       268  25  1.252969E+05  1.790548E+04  1.447291E+03  4.717209E+04  9.025237E+02  3.394372E+02
       268  26  1.248849E+05  1.751064E+04  2.330198E+03  4.716336E+04  2.026383E+03  7.625915E+02
       268  27  1.255093E+05  1.959020E+04  4.716749E+03  4.658032E+04  3.150505E+03  1.185068E+03
       269   1  1.232302E+05  1.679423E+04  5.070399E+03  4.691599E+04 -4.004608E+03 -1.506213E+03
       269   2  1.208423E+05  1.416972E+04  8.695170E+03  4.676673E+04 -8.973000E+03 -3.377296E+03
       269   3  1.249021E+05  2.721473E+04  2.028676E+04  4.271304E+04 -1.394159E+04 -5.247754E+03
       269   4  1.253954E+05  1.752890E+04  5.650262E+03  4.742004E+04 -4.004600E+03 -1.506210E+03
       269   5  1.229239E+05  1.499621E+04  9.276648E+03  4.737438E+04 -8.972995E+03 -3.377295E+03
       269   6  1.269000E+05  2.813301E+04  2.086984E+04  4.342430E+04 -1.394159E+04 -5.247757E+03
       269   7  1.275607E+05  1.826356E+04  6.230126E+03  4.792409E+04 -4.004593E+03 -1.506206E+03
       269   8  1.250054E+05  1.582270E+04  9.858125E+03  4.798204E+04 -8.972990E+03 -3.377294E+03
       269   9  1.288978E+05  2.905129E+04  2.145291E+04  4.413556E+04 -1.394158E+04 -5.247760E+03
       269  10  1.232301E+05  1.679425E+04  5.070360E+03  4.691603E+04  9.728122E-05  4.659310E-05
       269  11  1.208422E+05  1.416971E+04  8.694992E+03  4.676677E+04  1.327322E-04  6.160691E-05
       269  12  1.249019E+05  2.721469E+04  2.028634E+04  4.271305E+04  1.687041E-04  7.565197E-05
       269  13  1.253954E+05  1.752889E+04  5.650228E+03  4.742004E+04  2.556529E-04  8.505448E-05
       269  14  1.229238E+05  1.499617E+04  9.276475E+03  4.737436E+04  3.462107E-04  1.174111E-04
       269  15  1.268998E+05  2.813293E+04  2.086942E+04  4.342424E+04  4.367793E-04  1.497636E-04
       269  16  1.275607E+05  1.826353E+04  6.230095E+03  4.792405E+04  9.830063E-05  4.517972E-05
       269  17  1.250054E+05  1.582263E+04  9.857957E+03  4.798196E+04  1.339075E-04  5.974098E-05
       269  18  1.288977E+05  2.905117E+04  2.145250E+04  4.413543E+04  1.690091E-04  7.524176E-05
       269  19  1.232301E+05  1.679427E+04  5.070390E+03  4.691608E+04  4.004608E+03  1.506213E+03
       269  20  1.208422E+05  1.416978E+04  8.695160E+03  4.676685E+04  8.973000E+03  3.377296E+03
       269  21  1.249020E+05  2.721481E+04  2.028675E+04  4.271318E+04  1.394159E+04  5.247754E+03
       269  22  1.253954E+05  1.752890E+04  5.650263E+03  4.742004E+04  4.004601E+03  1.506210E+03
       269  23  1.229239E+05  1.499621E+04  9.276648E+03  4.737438E+04  8.972995E+03  3.377295E+03
       269  24  1.269000E+05  2.813301E+04  2.086984E+04  4.342430E+04  1.394159E+04  5.247757E+03
       269  25  1.275607E+05  1.826352E+04  6.230134E+03  4.792401E+04  4.004593E+03  1.506207E+03
       269  26  1.250055E+05  1.582264E+04  9.858134E+03  4.798192E+04  8.972990E+03  3.377294E+03
       269  27  1.288979E+05  2.905121E+04  2.145292E+04  4.413542E+04  1.394159E+04  5.247760E+03
       270   1  1.235640E+05  1.462377E+04  2.358027E+04  4.873413E+04 -1.782542E+04 -6.706315E+03
       270   2  1.089044E+05 -1.832756E+03  3.789653E+04  4.813804E+04 -3.977328E+04 -1.496644E+04
       270   3  1.342752E+05  8.107693E+04  9.574534E+04  2.193533E+04 -6.171880E+04 -2.323362E+04
       270   4  1.300840E+05  1.655738E+04  2.527063E+04  4.996652E+04 -1.782531E+04 -6.706256E+03
       270   5  1.148612E+05  6.885629E+02  3.959174E+04  5.003697E+04 -3.977353E+04 -1.496655E+04
       270   6  1.396685E+05  8.418546E+04  9.744536E+04  2.450094E+04 -6.171938E+04 -2.323397E+04
       270   7  1.366041E+05  1.849099E+04  2.696099E+04  5.119892E+04 -1.782521E+04 -6.706197E+03
       270   8  1.208180E+05  3.209887E+03  4.128695E+04  5.193591E+04 -3.977378E+04 -1.496667E+04
       270   9  1.450619E+05  8.729401E+04  9.914538E+04  2.706656E+04 -6.171996E+04 -2.323432E+04
       270  10  1.235636E+05  1.462367E+04  2.357958E+04  4.873410E+04  1.598365E-04  6.998041E-05
       270  11  1.089026E+05 -1.833399E+03  3.789313E+04  4.813760E+04  9.109218E-05  3.807383E-05
       270  12  1.342710E+05  8.107533E+04  9.573717E+04  2.193419E+04  2.091945E-05  8.332087E-06
       270  13  1.300836E+05  1.655724E+04  2.526995E+04  4.996642E+04  4.109427E-04  1.412248E-04
       270  14  1.148594E+05  6.878981E+02  3.958835E+04  5.003649E+04  2.315777E-04  7.957680E-05
       270  15  1.396643E+05  8.418386E+04  9.743719E+04  2.449978E+04  5.220077E-05  1.793450E-05
       270  16  1.366038E+05  1.849082E+04  2.696032E+04  5.119875E+04  1.581794E-04  7.152092E-05
       270  17  1.208163E+05  3.209201E+03  4.128356E+04  5.193539E+04  8.812131E-05  4.164511E-05
       270  18  1.450576E+05  8.729240E+04  9.913721E+04  2.706540E+04  1.947623E-05  9.631304E-06
       270  19  1.235639E+05  1.462384E+04  2.358026E+04  4.873426E+04  1.782542E+04  6.706315E+03
       270  20  1.089043E+05 -1.832713E+03  3.789652E+04  4.813812E+04  3.977328E+04  1.496644E+04
       270  21  1.342752E+05  8.107694E+04  9.574534E+04  2.193535E+04  6.171880E+04  2.323362E+04
       270  22  1.300840E+05  1.655738E+04  2.527063E+04  4.996652E+04  1.782531E+04  6.706256E+03
       270  23  1.148612E+05  6.885633E+02  3.959174E+04  5.003697E+04  3.977353E+04  1.496655E+04
       270  24  1.396685E+05  8.418546E+04  9.744536E+04  2.450094E+04  6.171938E+04  2.323397E+04
       270  25  1.366042E+05  1.849091E+04  2.696100E+04  5.119878E+04  1.782521E+04  6.706197E+03
       270  26  1.208181E+05  3.209846E+03  4.128696E+04  5.193583E+04  3.977378E+04  1.496667E+04
       270  27  1.450619E+05  8.729400E+04  9.914538E+04  2.706655E+04  6.171996E+04  2.323432E+04
       271   1  5.667135E+04  1.870570E+04 -2.574089E+02 -8.829425E+03 -5.368836E+04 -4.039592E+03
       271   2  3.662666E+04  8.950921E+04  3.845070E+04 -6.621902E+02 -3.767702E+04 -1.203912E+04
       271   3 -6.091822E+03  7.791089E+04  4.614845E+04  2.693042E+04 -2.168054E+04 -1.137689E+04
       271   4 -3.053494E+05 -7.140584E+04 -8.920962E+04  1.647824E+04 -6.107695E+04 -4.053460E+03
       271   5 -2.935474E+05  7.923356E+03 -3.942036E+04  6.703686E+03 -3.987944E+04 -1.204380E+04
       271   6 -3.053343E+05  3.925105E+03 -2.425681E+04  1.635564E+04 -1.869575E+04 -1.137127E+04
       271   7 -6.672494E+05 -1.615246E+05 -1.781709E+05  4.177107E+04 -6.846123E+04 -4.067935E+03
       271   8 -6.236209E+05 -7.367007E+04 -1.172989E+05  1.406558E+04 -4.208068E+04 -1.204853E+04
       271   9 -6.044941E+05 -7.006666E+04 -9.466813E+04  5.785940E+03 -1.571240E+04 -1.136574E+04
       271  10  5.666825E+04  1.870491E+04 -2.628558E+02 -8.829600E+03 -6.729736E-09  2.594990E-10
       271  11  3.662509E+04  8.950867E+04  3.844776E+04 -6.625555E+02 -6.770270E-09  5.544968E-09
       271  12 -6.092362E+03  7.791063E+04  4.614732E+04  2.693022E+04 -3.402487E-09  3.856177E-09
       271  13 -3.053535E+05 -7.140686E+04 -8.921667E+04  1.647804E+04  1.028132E-09 -2.927020E-09
       271  14 -2.935491E+05  7.922773E+03 -3.942363E+04  6.703299E+03 -2.542912E-09 -7.739816E-09
       271  15 -3.053347E+05  3.924872E+03 -2.425771E+04  1.635546E+04 -3.840130E-09 -4.277917E-09
       271  16 -6.672544E+05 -1.615259E+05 -1.781798E+05  4.177084E+04  4.347714E-09  2.018053E-10
       271  17 -6.236229E+05 -7.367071E+04 -1.173025E+05  1.406517E+04  3.968146E-09  4.353750E-09
       271  18 -6.044944E+05 -7.006687E+04 -9.466884E+04  5.785796E+03 -1.745376E-09  3.579680E-10
       271  19  5.667135E+04  1.870570E+04 -2.574089E+02 -8.829425E+03  5.368836E+04  4.039592E+03
       271  20  3.662666E+04  8.950921E+04  3.845070E+04 -6.621902E+02  3.767702E+04  1.203912E+04
       271  21 -6.091822E+03  7.791089E+04  4.614845E+04  2.693042E+04  2.168054E+04  1.137689E+04
       271  22 -3.053494E+05 -7.140584E+04 -8.920962E+04  1.647824E+04  6.107695E+04  4.053460E+03
       271  23 -2.935474E+05  7.923356E+03 -3.942036E+04  6.703686E+03  3.987944E+04  1.204380E+04
       271  24 -3.053343E+05  3.925105E+03 -2.425681E+04  1.635564E+04  1.869575E+04  1.137127E+04
       271  25 -6.672494E+05 -1.615246E+05 -1.781709E+05  4.177107E+04  6.846123E+04  4.067935E+03
       271  26 -6.236209E+05 -7.367007E+04 -1.172989E+05  1.406558E+04  4.208068E+04  1.204853E+04
       271  27 -6.044941E+05 -7.006666E+04 -9.466813E+04  5.785940E+03  1.571240E+04  1.136574E+04
       272   1 -3.672103E+04  5.881309E+04  4.265326E+04  1.482789E+04 -1.536209E+04 -9.410182E+03
       272   2 -6.694835E+04  5.823288E+04  4.458071E+04  6.433921E+03 -1.048616E+04 -8.568838E+03
       272   3 -9.975378E+04  5.010912E+04  4.143590E+04  1.781216E+04 -5.612134E+03 -7.200330E+03
       272   4 -3.006752E+05 -6.445279E+03 -1.968159E+04  1.647956E+04 -1.501697E+04 -9.409820E+03
       272   5 -2.993550E+05  7.895007E+02 -1.019344E+04  6.586220E+03 -9.826786E+03 -8.567690E+03
       272   6 -3.006702E+05  4.243658E+02 -5.997577E+03  1.646565E+04 -4.638261E+03 -7.198327E+03
       272   7 -5.645652E+05 -7.170863E+04 -8.202125E+04  1.813049E+04 -1.467200E+04 -9.409457E+03
       272   8 -5.317120E+05 -5.665774E+04 -6.497131E+04  6.738436E+03 -9.167656E+03 -8.566541E+03
       272   9 -5.015495E+05 -4.926327E+04 -5.343384E+04  1.511956E+04 -3.664701E+03 -7.196329E+03
       272  10 -3.672131E+04  5.881294E+04  4.265265E+04  1.482777E+04  4.414951E-10  7.376658E-10
       272  11 -6.694848E+04  5.823277E+04  4.458037E+04  6.433849E+03  7.655063E-10  3.136578E-09
       272  12 -9.975382E+04  5.010905E+04  4.143575E+04  1.781213E+04  3.319782E-09  8.172514E-09
       272  13 -3.006754E+05 -6.445435E+03 -1.968218E+04  1.647944E+04  8.236538E-10  2.946750E-09
       272  14 -2.993551E+05  7.893960E+02 -1.019376E+04  6.586152E+03  6.200940E-10 -1.498124E-08
       272  15 -3.006702E+05  4.243044E+02 -5.997714E+03  1.646563E+04 -2.241574E-09  7.625070E-09
       272  16 -5.645655E+05 -7.170878E+04 -8.202182E+04  1.813037E+04  8.925436E-10 -4.415975E-09
       272  17 -5.317121E+05 -5.665784E+04 -6.497161E+04  6.738373E+03 -2.873768E-09 -1.934251E-09
       272  18 -5.015495E+05 -4.926333E+04 -5.343396E+04  1.511954E+04 -4.655283E-09  1.525096E-09
       272  19 -3.672103E+04  5.881309E+04  4.265326E+04  1.482789E+04  1.536209E+04  9.410182E+03
       272  20 -6.694835E+04  5.823288E+04  4.458071E+04  6.433921E+03  1.048616E+04  8.568838E+03
       272  21 -9.975378E+04  5.010912E+04  4.143590E+04  1.781216E+04  5.612134E+03  7.200330E+03
       272  22 -3.006752E+05 -6.445279E+03 -1.968159E+04  1.647956E+04  1.501697E+04  9.409820E+03
       272  23 -2.993550E+05  7.895007E+02 -1.019344E+04  6.586220E+03  9.826786E+03  8.567690E+03
       272  24 -3.006702E+05  4.243658E+02 -5.997577E+03  1.646565E+04  4.638261E+03  7.198327E+03
       272  25 -5.645652E+05 -7.170863E+04 -8.202125E+04  1.813049E+04  1.467200E+04  9.409457E+03
       272  26 -5.317120E+05 -5.665774E+04 -6.497131E+04  6.738436E+03  9.167656E+03  8.566541E+03
       272  27 -5.015495E+05 -4.926327E+04 -5.343384E+04  1.511956E+04  3.664701E+03  7.196329E+03
       273   1 -1.347465E+05  4.036856E+04  3.424074E+04  1.667253E+04 -4.516407E+03 -6.309976E+03
       273   2 -1.662177E+05  3.317057E+04  2.894168E+04  6.785101E+03 -3.251011E+03 -4.932070E+03
       273   3 -1.981064E+05  2.536196E+04  2.264400E+04  1.679263E+04 -1.986080E+03 -3.520386E+03
       273   4 -3.001750E+05 -5.062755E+02 -4.665361E+03  1.649805E+04 -3.701032E+03 -6.308246E+03
       273   5 -2.999631E+05  1.097997E+02 -2.579675E+03  6.549732E+03 -2.415700E+03 -4.930203E+03
       273   6 -3.001727E+05  1.118578E+02 -1.506520E+03  1.649663E+04 -1.130770E+03 -3.518375E+03
       273   7 -4.655783E+05 -4.138306E+04 -4.357334E+04  1.632361E+04 -2.885873E+03 -6.306517E+03
       273   8 -4.336920E+05 -3.295225E+04 -3.410226E+04  6.314404E+03 -1.580569E+03 -4.928336E+03
       273   9 -4.022295E+05 -2.513899E+04 -2.565776E+04  1.620068E+04 -2.756002E+02 -3.516364E+03
       273  10 -1.347466E+05  4.036851E+04  3.424063E+04  1.667250E+04  2.206025E-09 -1.768870E-09
       273  11 -1.662178E+05  3.317054E+04  2.894162E+04  6.785088E+03 -5.380795E-09 -3.261444E-09
       273  12 -1.981064E+05  2.536195E+04  2.264397E+04  1.679262E+04 -3.150554E-09 -1.372805E-09
       273  13 -3.001750E+05 -5.063219E+02 -4.665462E+03  1.649803E+04  1.193585E-09  9.611027E-10
       273  14 -2.999631E+05  1.097721E+02 -2.579731E+03  6.549722E+03 -5.495496E-11 -2.007321E-09
       273  15 -3.001727E+05  1.118441E+02 -1.506546E+03  1.649663E+04  3.231760E-10 -5.846939E-09
       273  16 -4.655783E+05 -4.138311E+04 -4.357343E+04  1.632359E+04  9.646413E-10 -2.360147E-09
       273  17 -4.336920E+05 -3.295227E+04 -3.410231E+04  6.314398E+03  6.266249E-09  7.495689E-09
       273  18 -4.022295E+05 -2.513901E+04 -2.565778E+04  1.620068E+04  1.277147E-09  7.614557E-09
       273  19 -1.347465E+05  4.036856E+04  3.424074E+04  1.667253E+04  4.516407E+03  6.309976E+03
       273  20 -1.662177E+05  3.317057E+04  2.894168E+04  6.785101E+03  3.251011E+03  4.932070E+03
       273  21 -1.981064E+05  2.536196E+04  2.264400E+04  1.679263E+04  1.986080E+03  3.520386E+03
       273  22 -3.001750E+05 -5.062755E+02 -4.665361E+03  1.649805E+04  3.701032E+03  6.308246E+03
       273  23 -2.999631E+05  1.097997E+02 -2.579675E+03  6.549732E+03  2.415700E+03  4.930203E+03
       273  24 -3.001727E+05  1.118578E+02 -1.506520E+03  1.649663E+04  1.130770E+03  3.518375E+03
       273  25 -4.655783E+05 -4.138306E+04 -4.357334E+04  1.632361E+04  2.885873E+03  6.306517E+03
       273  26 -4.336920E+05 -3.295225E+04 -3.410226E+04  6.314404E+03  1.580569E+03  4.928336E+03
       273  27 -4.022295E+05 -2.513899E+04 -2.565776E+04  1.620068E+04  2.756002E+02  3.516364E+03
       274   1 -2.336753E+05  1.643688E+04  1.439941E+04  1.663862E+04 -1.739396E+03 -2.693122E+03
       274   2 -2.653570E+05  8.616342E+03  7.482094E+03  6.610237E+03 -1.401469E+03 -1.280413E+03
       274   3 -2.971941E+05  8.244402E+02  3.256916E+02  1.652710E+04 -1.063655E+03  1.346173E+02
       274   4 -3.001123E+05  3.239223E+01 -1.164467E+03  1.650828E+04 -8.931630E+02 -2.691092E+03
       274   5 -3.000337E+05  4.395190E+01 -6.910295E+02  6.535563E+03 -5.538969E+02 -1.278357E+03
       274   6 -3.001117E+05  8.396977E+01 -4.575852E+02  1.650816E+04 -2.147269E+02  1.367030E+02
       274   7 -3.665452E+05 -1.637241E+04 -1.672864E+04  1.637795E+04 -4.702014E+01 -2.689062E+03
       274   8 -3.347093E+05 -8.528524E+03 -8.864233E+03  6.460893E+03  2.936280E+02 -1.276302E+03
       274   9 -3.030294E+05 -6.565009E+02 -1.240860E+03  1.648922E+04  6.341975E+02  1.387886E+02
       274  10 -2.336753E+05  1.643687E+04  1.439939E+04  1.663862E+04  3.191746E-09 -3.772924E-09
       274  11 -2.653570E+05  8.616340E+03  7.482088E+03  6.610235E+03  9.263679E-10  1.712860E-09
       274  12 -2.971941E+05  8.244398E+02  3.256894E+02  1.652710E+04 -1.052608E-09  1.479716E-09
       274  13 -3.001123E+05  3.238424E+01 -1.164482E+03  1.650828E+04  1.278875E-09 -1.714133E-09
       274  14 -3.000337E+05  4.395006E+01 -6.910331E+02  6.535563E+03 -1.079800E-09 -7.691280E-09
       274  15 -3.001117E+05  8.396974E+01 -4.575853E+02  1.650816E+04  3.605205E-10 -3.559620E-09
       274  16 -3.665452E+05 -1.637241E+04 -1.672866E+04  1.637795E+04 -3.330518E-09  3.501683E-09
       274  17 -3.347093E+05 -8.528526E+03 -8.864237E+03  6.460893E+03  2.447047E-09  7.352122E-09
       274  18 -3.030294E+05 -6.565010E+02 -1.240861E+03  1.648922E+04 -1.056881E-09  2.935715E-09
       274  19 -2.336753E+05  1.643688E+04  1.439941E+04  1.663862E+04  1.739396E+03  2.693122E+03
       274  20 -2.653570E+05  8.616342E+03  7.482094E+03  6.610237E+03  1.401469E+03  1.280413E+03
       274  21 -2.971941E+05  8.244402E+02  3.256916E+02  1.652710E+04  1.063655E+03 -1.346173E+02
       274  22 -3.001123E+05  3.239223E+01 -1.164467E+03  1.650828E+04  8.931630E+02  2.691092E+03
       274  23 -3.000337E+05  4.395190E+01 -6.910295E+02  6.535563E+03  5.538969E+02  1.278357E+03
       274  24 -3.001117E+05  8.396977E+01 -4.575852E+02  1.650816E+04  2.147269E+02 -1.367030E+02
       274  25 -3.665452E+05 -1.637241E+04 -1.672864E+04  1.637795E+04  4.702014E+01  2.689062E+03
       274  26 -3.347093E+05 -8.528524E+03 -8.864233E+03  6.460893E+03 -2.936280E+02  1.276302E+03
       274  27 -3.030294E+05 -6.565009E+02 -1.240860E+03  1.648922E+04 -6.341975E+02 -1.387886E+02
       275   1 -3.328505E+05 -8.034102E+03 -8.211140E+03  1.644676E+04 -9.884681E+02  9.587527E+02
       275   2 -3.645323E+05 -1.590566E+04 -1.556452E+04  6.421758E+03 -8.098234E+02  2.373056E+03
       275   3 -3.963353E+05 -2.370995E+04 -2.304289E+04  1.633367E+04 -6.310153E+02  3.784382E+03
       275   4 -3.001044E+05  8.041003E+01 -3.971392E+02  1.650629E+04 -1.396185E+02  9.608311E+02
       275   5 -3.000437E+05  3.730256E+01 -3.640206E+02  6.537919E+03  3.722699E+01  2.375083E+03
       275   6 -3.001054E+05  6.173000E+01 -4.547040E+02  1.650633E+04  2.142452E+02  3.786360E+03
       275   7 -2.673573E+05  8.194845E+03  7.416789E+03  1.656583E+04  7.092757E+02  9.629095E+02
       275   8 -2.355512E+05  1.597997E+04  1.483619E+04  6.654090E+03  8.843649E+02  2.377109E+03
       275   9 -2.038668E+05  2.383275E+04  2.213285E+04  1.667902E+04  1.059636E+03  3.788338E+03
       275  10 -3.328505E+05 -8.034103E+03 -8.211144E+03  1.644676E+04  9.575213E-10  8.857369E-10
       275  11 -3.645323E+05 -1.590567E+04 -1.556453E+04  6.421759E+03  3.361216E-09 -4.432798E-09
       275  12 -3.963353E+05 -2.370996E+04 -2.304292E+04  1.633368E+04  2.930142E-09 -2.254151E-09
       275  13 -3.001044E+05  8.040903E+01 -3.971410E+02  1.650629E+04  3.232454E-09  5.525205E-09
       275  14 -3.000437E+05  3.729651E+01 -3.640312E+02  6.537919E+03  8.770018E-10 -3.480730E-09
       275  15 -3.001054E+05  6.171459E+01 -4.547310E+02  1.650633E+04  2.973133E-09 -6.838955E-09
       275  16 -2.673573E+05  8.194844E+03  7.416787E+03  1.656583E+04 -4.641716E-09  1.865051E-09
       275  17 -2.355513E+05  1.597996E+04  1.483618E+04  6.654088E+03 -6.837918E-09 -1.168731E-08
       275  18 -2.038669E+05  2.383273E+04  2.213282E+04  1.667901E+04 -2.491550E-09 -1.040599E-08
       275  19 -3.328505E+05 -8.034102E+03 -8.211140E+03  1.644676E+04  9.884681E+02 -9.587527E+02
       275  20 -3.645323E+05 -1.590566E+04 -1.556452E+04  6.421758E+03  8.098234E+02 -2.373056E+03
       275  21 -3.963353E+05 -2.370995E+04 -2.304289E+04  1.633367E+04  6.310153E+02 -3.784382E+03
       275  22 -3.001044E+05  8.041003E+01 -3.971392E+02  1.650629E+04  1.396185E+02 -9.608311E+02
       275  23 -3.000437E+05  3.730256E+01 -3.640206E+02  6.537919E+03 -3.722699E+01 -2.375083E+03
       275  24 -3.001054E+05  6.173000E+01 -4.547040E+02  1.650633E+04 -2.142452E+02 -3.786360E+03
       275  25 -2.673573E+05  8.194845E+03  7.416789E+03  1.656583E+04 -7.092757E+02 -9.629095E+02
       275  26 -2.355512E+05  1.597997E+04  1.483619E+04  6.654090E+03 -8.843649E+02 -2.377109E+03
       275  27 -2.038668E+05  2.383275E+04  2.213285E+04  1.667902E+04 -1.059636E+03 -3.788338E+03
       276   1 -4.319410E+05 -3.252133E+04 -3.171060E+04  1.622198E+04 -5.529796E+02  4.610918E+03
       276   2 -4.634801E+05 -4.035837E+04 -3.939110E+04  6.281703E+03 -1.040818E+02  6.019060E+03
       276   3 -4.952030E+05 -4.833608E+04 -4.741934E+04  1.620566E+04  3.453035E+02  7.390555E+03
       276   4 -3.001203E+05  8.802297E+01 -5.432743E+02  1.648997E+04  3.018393E+02  4.612864E+03
       276   5 -3.000315E+05  5.201249E+01 -8.623516E+02  6.558249E+03  7.288500E+02  6.020838E+03
       276   6 -3.001228E+05 -1.206315E+02 -1.513718E+03  1.649043E+04  1.156371E+03  7.392172E+03
       276   7 -1.682838E+05  3.269613E+04  3.062285E+04  1.675801E+04  1.156839E+03  4.614810E+03
       276   8 -1.365582E+05  4.046048E+04  3.766456E+04  6.834855E+03  1.562000E+03  6.022616E+03
       276   9 -1.050076E+05  4.809210E+04  4.438929E+04  1.677528E+04  1.967691E+03  7.393790E+03
       276  10 -4.319410E+05 -3.252135E+04 -3.171064E+04  1.622198E+04  5.661496E-09 -1.116316E-10
       276  11 -4.634801E+05 -4.035841E+04 -3.939117E+04  6.281704E+03 -2.359688E-09 -5.910299E-09
       276  12 -4.952030E+05 -4.833613E+04 -4.741945E+04  1.620565E+04 -9.384262E-09 -1.867577E-09
       276  13 -3.001204E+05  8.800010E+01 -5.433144E+02  1.648997E+04  1.274362E-09 -1.734804E-09
       276  14 -3.000315E+05  5.197343E+01 -8.624207E+02  6.558246E+03  9.689802E-10  1.789277E-09
       276  15 -3.001229E+05 -1.206905E+02 -1.513823E+03  1.649043E+04 -1.177274E-09  7.282326E-09
       276  16 -1.682838E+05  3.269610E+04  3.062281E+04  1.675801E+04 -6.080482E-09  4.393963E-10
       276  17 -1.365582E+05  4.046044E+04  3.766449E+04  6.834847E+03  3.915732E-09 -3.635083E-09
       276  18 -1.050077E+05  4.809204E+04  4.438918E+04  1.677527E+04  8.279603E-09  2.652132E-09
       276  19 -4.319410E+05 -3.252133E+04 -3.171060E+04  1.622198E+04  5.529796E+02 -4.610918E+03
       276  20 -4.634801E+05 -4.035837E+04 -3.939110E+04  6.281703E+03  1.040818E+02 -6.019060E+03
       276  21 -4.952030E+05 -4.833608E+04 -4.741934E+04  1.620566E+04 -3.453035E+02 -7.390555E+03
       276  22 -3.001203E+05  8.802297E+01 -5.432743E+02  1.648997E+04 -3.018393E+02 -4.612864E+03
       276  23 -3.000315E+05  5.201249E+01 -8.623516E+02  6.558249E+03 -7.288500E+02 -6.020838E+03
       276  24 -3.001228E+05 -1.206315E+02 -1.513718E+03  1.649043E+04 -1.156371E+03 -7.392172E+03
       276  25 -1.682838E+05  3.269613E+04  3.062285E+04  1.675801E+04 -1.156839E+03 -4.614810E+03
       276  26 -1.365582E+05  4.046048E+04  3.766456E+04  6.834855E+03 -1.562000E+03 -6.022616E+03
       276  27 -1.050076E+05  4.809210E+04  4.438929E+04  1.677528E+04 -1.967691E+03 -7.393790E+03
       277   1 -5.307691E+05 -5.682738E+04 -5.634945E+04  1.576442E+04  4.766611E+02  8.282833E+03
       277   2 -5.617425E+05 -6.449237E+04 -6.501702E+04  6.374472E+03  2.480922E+03  9.639355E+03
       277   3 -5.936281E+05 -7.459354E+04 -7.560919E+04  1.670723E+04  4.486777E+03  1.042858E+04
       277   4 -3.002764E+05  1.787698E+02 -1.933468E+03  1.645735E+04  1.457954E+03  8.284711E+03
       277   5 -2.998517E+05  2.599957E+02 -3.275406E+03  6.598365E+03  3.122707E+03  9.640354E+03
       277   6 -3.002807E+05 -2.035286E+03 -6.305429E+03  1.646160E+04  4.789153E+03  1.042881E+04
       277   7 -6.973480E+04  5.718112E+04  5.247884E+04  1.715051E+04  2.439610E+03  8.286592E+03
       277   8 -3.789779E+04  6.500746E+04  5.846148E+04  6.822322E+03  3.764760E+03  9.641353E+03
       277   9 -6.854182E+03  7.051680E+04  6.299238E+04  1.621581E+04  5.091670E+03  1.042903E+04
       277  10 -5.307691E+05 -5.682745E+04 -5.634958E+04  1.576442E+04  8.730541E-09 -6.568275E-10
       277  11 -5.617425E+05 -6.449248E+04 -6.501721E+04  6.374452E+03 -4.251418E-10  1.639646E-10
       277  12 -5.936282E+05 -7.459366E+04 -7.560943E+04  1.670719E+04 -4.209445E-09 -5.700806E-09
       277  13 -3.002764E+05  1.786955E+02 -1.933601E+03  1.645734E+04  1.349529E-09 -1.191230E-09
       277  14 -2.998517E+05  2.598933E+02 -3.275599E+03  6.598341E+03 -5.678594E-09  3.106106E-09
       277  15 -3.002808E+05 -2.035409E+03 -6.305677E+03  1.646156E+04  1.074484E-10 -1.863235E-09
       277  16 -6.973482E+04  5.718104E+04  5.247870E+04  1.715050E+04 -7.904110E-09 -3.917086E-09
       277  17 -3.789783E+04  6.500736E+04  5.846128E+04  6.822293E+03  4.230445E-10 -1.375097E-08
       277  18 -6.854239E+03  7.051668E+04  6.299212E+04  1.621577E+04  1.675607E-09 -1.745454E-09
       277  19 -5.307691E+05 -5.682738E+04 -5.634945E+04  1.576442E+04 -4.766611E+02 -8.282833E+03
       277  20 -5.617425E+05 -6.449237E+04 -6.501702E+04  6.374472E+03 -2.480922E+03 -9.639355E+03
       277  21 -5.936281E+05 -7.459354E+04 -7.560919E+04  1.670723E+04 -4.486777E+03 -1.042858E+04
       277  22 -3.002764E+05  1.787698E+02 -1.933468E+03  1.645735E+04 -1.457954E+03 -8.284711E+03
       277  23 -2.998517E+05  2.599957E+02 -3.275406E+03  6.598365E+03 -3.122707E+03 -9.640354E+03
       277  24 -3.002807E+05 -2.035286E+03 -6.305429E+03  1.646160E+04 -4.789153E+03 -1.042881E+04
       277  25 -6.973480E+04  5.718112E+04  5.247884E+04  1.715051E+04 -2.439610E+03 -8.286592E+03
       277  26 -3.789779E+04  6.500746E+04  5.846148E+04  6.822322E+03 -3.764760E+03 -9.641353E+03
       277  27 -6.854182E+03  7.051680E+04  6.299238E+04  1.621581E+04 -5.091670E+03 -1.042903E+04
       278   1 -6.303204E+05 -7.994059E+04 -8.508536E+04  1.266621E+04  2.822509E+03  1.246608E+04
       278   2 -6.573135E+05 -8.631750E+04 -9.741007E+04  8.792951E+03  1.519427E+04  1.306221E+04
       278   3 -6.927899E+05 -1.202809E+05 -1.246864E+05  2.420250E+04  2.757849E+04  4.333942E+03
       278   4 -3.017647E+05  1.283949E+03 -7.766773E+03  1.635001E+04  5.964360E+03  1.247120E+04
       278   5 -2.980144E+05  2.528889E+03 -1.263038E+04  6.726637E+03  1.274976E+04  1.305778E+04
       278   6 -3.017734E+05 -2.283383E+04 -2.855913E+04  1.638583E+04  1.954841E+04  4.322117E+03
       278   7  2.689045E+04  8.250083E+04  6.954444E+04  2.003573E+04  9.107865E+03  1.247637E+04
       278   8  6.140347E+04  9.136606E+04  7.214042E+04  4.659072E+03  1.030384E+04  1.305337E+04
       278   9  8.938261E+04  7.460219E+04  6.755716E+04  8.564178E+03  1.151327E+04  4.310497E+03
       278  10 -6.303204E+05 -7.994076E+04 -8.508567E+04  1.266619E+04  4.179398E-09 -3.459762E-09
       278  11 -6.573138E+05 -8.631775E+04 -9.741083E+04  8.792791E+03  2.710999E-09 -2.280859E-09
       278  12 -6.927907E+05 -1.202812E+05 -1.246879E+05  2.420240E+04  3.155905E-09  3.322277E-09
       278  13 -3.017648E+05  1.283772E+03 -7.767132E+03  1.634995E+04  3.089101E-09  1.918764E-09
       278  14 -2.980147E+05  2.528663E+03 -1.263101E+04  6.726503E+03 -5.146022E-09  2.033046E-09
       278  15 -3.017738E+05 -2.283395E+04 -2.855988E+04  1.638576E+04 -2.559180E-09  1.899211E-09
       278  16  2.689032E+04  8.250064E+04  6.954399E+04  2.003564E+04 -1.199902E-09  2.915277E-09
       278  17  6.140331E+04  9.136585E+04  7.213990E+04  4.658964E+03 -4.010809E-09  4.195497E-09
       278  18  8.938247E+04  7.460214E+04  6.755687E+04  8.564138E+03 -1.292937E-09 -8.020797E-10
       278  19 -6.303204E+05 -7.994059E+04 -8.508536E+04  1.266621E+04 -2.822509E+03 -1.246608E+04
       278  20 -6.573135E+05 -8.631750E+04 -9.741007E+04  8.792951E+03 -1.519427E+04 -1.306221E+04
       278  21 -6.927899E+05 -1.202809E+05 -1.246864E+05  2.420250E+04 -2.757849E+04 -4.333942E+03
       278  22 -3.017647E+05  1.283949E+03 -7.766773E+03  1.635001E+04 -5.964360E+03 -1.247120E+04
       278  23 -2.980144E+05  2.528889E+03 -1.263038E+04  6.726637E+03 -1.274976E+04 -1.305778E+04
       278  24 -3.017734E+05 -2.283383E+04 -2.855913E+04  1.638583E+04 -1.954841E+04 -4.322117E+03
       278  25  2.689045E+04  8.250083E+04  6.954444E+04  2.003573E+04 -9.107865E+03 -1.247637E+04
       278  26  6.140347E+04  9.136606E+04  7.214042E+04  4.659072E+03 -1.030384E+04 -1.305337E+04
       278  27  8.938261E+04  7.460219E+04  6.755716E+04  8.564178E+03 -1.151327E+04 -4.310497E+03
       279   1 -2.681361E+05 -9.972878E+05 -2.634648E+05  2.263954E+05 -1.079061E+04 -7.738119E+04
       279   2 -1.776041E+05 -7.620979E+05 -1.639541E+05  1.855785E+05 -3.228127E+04 -3.240427E+04
       279   3 -1.161099E+05 -5.397272E+05 -1.009905E+05  2.027811E+05 -2.909380E+04  1.262596E+04
       279   4 -3.451371E+04 -5.534819E+04 -3.818403E+04  2.055467E+05 -1.084058E+04 -2.800279E+04
       279   5 -6.130387E+03 -5.200209E+04 -1.713498E+04  1.765542E+05 -3.229073E+04 -1.909302E+04
       279   6 -4.962415E+02 -5.524341E+04 -7.548205E+03  2.055820E+05 -2.907390E+04 -1.014807E+04
       279   7  1.990473E+05  8.874116E+05  1.870435E+05  1.846662E+05 -1.089385E+04  2.145032E+04
       279   8  1.653118E+05  6.585727E+05  1.296575E+05  1.675194E+05 -3.230058E+04 -5.766787E+03
       279   9  1.151038E+05  4.294674E+05  8.588519E+04  2.083851E+05 -2.905422E+04 -3.293948E+04
       279  10 -2.681379E+05 -9.972942E+05 -2.634763E+05  2.263948E+05  6.810180E-10 -1.088487E-09
       279  11 -1.776055E+05 -7.620993E+05 -1.639580E+05  1.855777E+05 -2.483639E-09  2.903938E-09
       279  12 -1.161109E+05 -5.397276E+05 -1.009924E+05  2.027814E+05 -3.400788E-09  5.209685E-10
       279  13 -3.451405E+04 -5.534907E+04 -3.818572E+04  2.055464E+05 -1.975320E-09  4.170900E-09
       279  14 -6.131605E+03 -5.200276E+04 -1.713763E+04  1.765537E+05  2.478805E-09 -2.513687E-09
       279  15 -4.971766E+02 -5.524375E+04 -7.549986E+03  2.055817E+05 -3.942535E-09  1.966517E-09
       279  16  1.990471E+05  8.874111E+05  1.870424E+05  1.846663E+05 -1.468018E-09 -1.535031E-09
       279  17  1.653107E+05  6.585724E+05  1.296555E+05  1.675192E+05  1.951605E-09 -2.056897E-09
       279  18  1.151026E+05  4.294660E+05  8.588157E+04  2.083843E+05  3.422490E-09  1.556940E-10
       279  19 -2.681361E+05 -9.972878E+05 -2.634648E+05  2.263954E+05  1.079061E+04  7.738119E+04
       279  20 -1.776041E+05 -7.620979E+05 -1.639541E+05  1.855785E+05  3.228127E+04  3.240427E+04
       279  21 -1.161099E+05 -5.397272E+05 -1.009905E+05  2.027811E+05  2.909380E+04 -1.262596E+04
       279  22 -3.451371E+04 -5.534819E+04 -3.818403E+04  2.055467E+05  1.084058E+04  2.800279E+04
       279  23 -6.130387E+03 -5.200209E+04 -1.713498E+04  1.765542E+05  3.229073E+04  1.909302E+04
       279  24 -4.962415E+02 -5.524341E+04 -7.548205E+03  2.055820E+05  2.907390E+04  1.014807E+04
       279  25  1.990473E+05  8.874116E+05  1.870435E+05  1.846662E+05  1.089385E+04 -2.145032E+04
       279  26  1.653118E+05  6.585727E+05  1.296575E+05  1.675194E+05  3.230058E+04  5.766787E+03
       279  27  1.151038E+05  4.294674E+05  8.588519E+04  2.083851E+05  2.905422E+04  3.293948E+04
       280   1 -8.035577E+04 -3.829380E+05 -6.769855E+04  2.061388E+05 -1.979835E+04  9.431545E+03
       280   2 -2.410564E+04 -1.544192E+05 -1.645456E+04  1.764476E+05 -6.785873E+03  8.858188E+03
       280   3  3.245934E+04  7.447413E+04  3.527802E+04  2.062043E+05  6.583463E+03  8.283849E+03
       280   4 -1.787784E+03 -5.366223E+04 -4.221625E+03  2.058916E+05 -1.978361E+04 -9.351892E+03
       280   5 -2.553201E+02 -5.386296E+04  2.226181E+03  1.761692E+05 -6.771470E+03 -1.044986E+04
       280   6  1.686329E+03 -5.364704E+04  9.529055E+03  2.058941E+05  6.597375E+03 -1.154861E+04
       280   7  7.677395E+04  2.757186E+05  5.925160E+04  2.056443E+05 -1.976886E+04 -2.814507E+04
       280   8  2.359462E+04  4.670387E+04  2.090790E+04  1.758907E+05 -6.757051E+03 -2.976096E+04
       280   9 -2.908748E+04 -1.817517E+05 -1.621927E+04  2.055840E+05  6.611307E+03 -3.137705E+04
       280  10 -8.035622E+04 -3.829382E+05 -6.769946E+04  2.061389E+05  1.139694E-10 -3.245319E-08
       280  11 -2.410571E+04 -1.544193E+05 -1.645479E+04  1.764476E+05  3.628755E-10  3.602485E-09
       280  12  3.245927E+04  7.447405E+04  3.527781E+04  2.062043E+05 -4.113381E-09  3.461851E-08
       280  13 -1.788228E+03 -5.366243E+04 -4.222524E+03  2.058914E+05  1.295152E-09  2.867267E-09
       280  14 -2.553986E+02 -5.386309E+04  2.225890E+03  1.761691E+05  2.140572E-09 -2.834685E-09
       280  15  1.686246E+03 -5.364719E+04  9.528722E+03  2.058942E+05  1.121333E-08 -7.216741E-11
       280  16  7.677332E+04  2.757177E+05  5.924938E+04  2.056438E+05  5.571589E-09  3.127836E-08
       280  17  2.359434E+04  4.670291E+04  2.090615E+04  1.758906E+05  2.511706E-09 -2.217204E-09
       280  18 -2.908779E+04 -1.817528E+05 -1.622120E+04  2.055842E+05 -2.869460E-09 -3.493794E-08
       280  19 -8.035577E+04 -3.829380E+05 -6.769855E+04  2.061388E+05  1.979835E+04 -9.431545E+03
       280  20 -2.410564E+04 -1.544192E+05 -1.645456E+04  1.764476E+05  6.785873E+03 -8.858188E+03
       280  21  3.245934E+04  7.447413E+04  3.527802E+04  2.062043E+05 -6.583463E+03 -8.283849E+03
       280  22 -1.787784E+03 -5.366223E+04 -4.221625E+03  2.058916E+05  1.978361E+04  9.351892E+03
       280  23 -2.553201E+02 -5.386296E+04  2.226181E+03  1.761692E+05  6.771470E+03  1.044986E+04
       280  24  1.686329E+03 -5.364704E+04  9.529055E+03  2.058941E+05 -6.597375E+03  1.154861E+04
       280  25  7.677395E+04  2.757186E+05  5.925160E+04  2.056443E+05  1.976886E+04  2.814507E+04
       280  26  2.359462E+04  4.670387E+04  2.090790E+04  1.758907E+05  6.757051E+03  2.976096E+04
       280  27 -2.908748E+04 -1.817517E+05 -1.621927E+04  2.055840E+05 -6.611307E+03  3.137705E+04
       281   1  6.750147E+04  2.318259E+05  6.936496E+04  2.008322E+05  1.593149E+04  9.700823E+03
       281   2  1.313993E+05  4.529304E+05  1.337289E+05  1.891015E+05  2.175283E+04 -3.327575E+04
       281   3  2.347530E+05  6.897464E+05  2.359644E+05  2.357676E+05  7.837174E+03 -7.629320E+04
       281   4 -2.637570E+02 -5.138267E+04  1.376043E+04  2.056498E+05  1.594870E+04 -1.322460E+04
       281   5  8.180636E+03 -5.675072E+04  2.705476E+04  1.764775E+05  2.174978E+04 -2.728295E+04
       281   6  5.108390E+04 -5.145574E+04  5.815835E+04  2.056989E+05  7.808905E+03 -4.136607E+04
       281   7 -6.803346E+04 -3.345133E+05 -4.184600E+04  2.104652E+05  1.596555E+04 -3.613979E+04
       281   8 -1.150541E+05 -5.661859E+05 -7.963356E+04  1.638641E+05  2.174650E+04 -2.129497E+04
       281   9 -1.326210E+05 -7.921504E+05 -1.196816E+05  1.756661E+05  7.777245E+03 -6.480415E+03
       281  10  6.750118E+04  2.318258E+05  6.936431E+04  2.008321E+05 -3.414097E-09 -8.193007E-09
       281  11  1.313985E+05  4.529291E+05  1.337259E+05  1.891020E+05 -8.223713E-10  1.914435E-09
       281  12  2.347514E+05  6.897401E+05  2.359533E+05  2.357681E+05 -6.637895E-10  6.731802E-09
       281  13 -2.640772E+02 -5.138292E+04  1.375962E+04  2.056500E+05  5.480047E-09  1.743434E-09
       281  14  8.179928E+03 -5.675165E+04  2.705248E+04  1.764780E+05  4.932496E-09 -1.987202E-09
       281  15  5.108337E+04 -5.145760E+04  5.815502E+04  2.056991E+05  6.817289E-09  3.604712E-10
       281  16 -6.803409E+04 -3.345147E+05 -4.184894E+04  2.104656E+05 -5.588846E-09  7.322789E-09
       281  17 -1.150547E+05 -5.661865E+05 -7.963530E+04  1.638645E+05  2.137598E-09 -6.004084E-10
       281  18 -1.326211E+05 -7.921505E+05 -1.196818E+05  1.756662E+05 -8.581666E-10 -7.043206E-09
       281  19  6.750147E+04  2.318259E+05  6.936496E+04  2.008322E+05 -1.593149E+04 -9.700823E+03
       281  20  1.313993E+05  4.529304E+05  1.337289E+05  1.891015E+05 -2.175283E+04  3.327575E+04
       281  21  2.347530E+05  6.897464E+05  2.359644E+05  2.357676E+05 -7.837174E+03  7.629320E+04
       281  22 -2.637570E+02 -5.138267E+04  1.376043E+04  2.056498E+05 -1.594870E+04  1.322460E+04
       281  23  8.180636E+03 -5.675072E+04  2.705476E+04  1.764775E+05 -2.174978E+04  2.728295E+04
       281  24  5.108390E+04 -5.145574E+04  5.815835E+04  2.056989E+05 -7.808905E+03  4.136607E+04
       281  25 -6.803346E+04 -3.345133E+05 -4.184600E+04  2.104652E+05 -1.596555E+04  3.613979E+04
       281  26 -1.150541E+05 -5.661859E+05 -7.963356E+04  1.638641E+05 -2.174650E+04  2.129497E+04
       281  27 -1.326210E+05 -7.921504E+05 -1.196816E+05  1.756661E+05 -7.777245E+03  6.480415E+03
       282   1  7.501492E+05  2.726215E+05  1.642829E+05  2.739082E+05  6.822898E+04  2.119791E+04
       282   2  7.257992E+05  1.772270E+05  1.024672E+05  2.687275E+05  4.417517E+04  2.545244E+03
       282   3  7.236063E+05  1.579634E+05  7.970707E+04  2.545146E+05  1.710275E+04 -8.090101E+03
       282   4  4.875741E+05  1.437377E+05  8.838567E+04  1.713818E+05  5.788815E+04  1.729776E+04
       282   5  4.723600E+05  7.250447E+04  3.820564E+04  1.886493E+05  4.051450E+04  1.164398E+03
       282   6  4.779912E+05  7.609524E+04  2.180210E+04  1.968818E+05  2.012064E+04 -6.952594E+03
       282   7  2.250724E+05  1.487558E+04  1.248356E+04  6.890083E+04  4.755226E+04  1.340073E+04
       282   8  2.189855E+05 -3.220913E+04 -2.606075E+04  1.086026E+05  3.685547E+04 -2.156808E+02
       282   9  2.324338E+05 -5.772130E+03 -3.610746E+04  1.392680E+05  2.313724E+04 -5.815452E+03
       282  10  7.501441E+05  2.726198E+05  1.642733E+05  2.739070E+05  1.547872E-09  6.356229E-10
       282  11  7.257971E+05  1.772265E+05  1.024635E+05  2.687274E+05  1.403497E-09 -3.593649E-10
       282  12  7.236059E+05  1.579632E+05  7.970639E+04  2.545148E+05 -2.651582E-09 -1.071765E-09
       282  13  4.875704E+05  1.437365E+05  8.837881E+04  1.713810E+05 -1.454012E-09 -4.600742E-09
       282  14  4.723583E+05  7.250403E+04  3.820255E+04  1.886493E+05  2.121264E-09  2.127894E-09
       282  15  4.779907E+05  7.609508E+04  2.180125E+04  1.968819E+05 -3.278520E-09 -4.251700E-09
       282  16  2.250699E+05  1.487478E+04  1.247898E+04  6.890032E+04 -2.948089E-10 -1.446924E-09
       282  17  2.189841E+05 -3.220949E+04 -2.606330E+04  1.086026E+05  1.077615E-09  1.390483E-10
       282  18  2.324332E+05 -5.772310E+03 -3.610853E+04  1.392681E+05 -9.917346E-10 -3.096252E-09
       282  19  7.501492E+05  2.726215E+05  1.642829E+05  2.739082E+05 -6.822898E+04 -2.119791E+04
       282  20  7.257992E+05  1.772270E+05  1.024672E+05  2.687275E+05 -4.417517E+04 -2.545244E+03
       282  21  7.236063E+05  1.579634E+05  7.970707E+04  2.545146E+05 -1.710275E+04  8.090101E+03
       282  22  4.875741E+05  1.437377E+05  8.838567E+04  1.713818E+05 -5.788815E+04 -1.729776E+04
       282  23  4.723600E+05  7.250447E+04  3.820564E+04  1.886493E+05 -4.051450E+04 -1.164398E+03
       282  24  4.779912E+05  7.609524E+04  2.180210E+04  1.968818E+05 -2.012064E+04  6.952594E+03
       282  25  2.250724E+05  1.487558E+04  1.248356E+04  6.890083E+04 -4.755226E+04 -1.340073E+04
       282  26  2.189855E+05 -3.220913E+04 -2.606075E+04  1.086026E+05 -3.685547E+04  2.156808E+02
       282  27  2.324338E+05 -5.772130E+03 -3.610746E+04  1.392680E+05 -2.313724E+04  5.815452E+03
       283   1  6.929307E+05  1.657186E+05  7.077637E+04  2.541879E+05  1.613931E+04 -6.644674E+03
       283   2  6.735119E+05  1.484632E+05  5.664978E+04  2.441425E+05  1.100514E+04 -7.581438E+03
       283   3  6.489529E+05  1.431177E+05  4.730166E+04  2.415999E+05  5.735648E+03 -8.159675E+03
       283   4  4.751641E+05  8.295681E+04  1.731900E+04  1.926960E+05  1.671505E+04 -6.427984E+03
       283   5  4.774665E+05  7.492430E+04  8.857959E+03  1.897403E+05  1.188081E+04 -7.251492E+03
       283   6  4.745694E+05  7.874325E+04  4.939116E+03  1.942870E+05  6.911060E+03 -7.716502E+03
       283   7  2.574443E+05  1.987674E+02 -3.614196E+04  1.312239E+05  1.729057E+04 -6.211382E+03
       283   8  2.814594E+05  1.388362E+03 -3.893661E+04  1.353538E+05  1.275617E+04 -6.921663E+03
       283   9  3.002167E+05  1.437107E+04 -3.742546E+04  1.469864E+05  8.086106E+03 -7.273464E+03
       283  10  6.929304E+05  1.657185E+05  7.077580E+04  2.541880E+05  4.303367E-09 -5.040895E-10
       283  11  6.735118E+05  1.484631E+05  5.664945E+04  2.441426E+05  6.385003E-09  1.032428E-09
       283  12  6.489528E+05  1.431176E+05  4.730148E+04  2.416000E+05  1.051275E-09  1.203442E-09
       283  13  4.751638E+05  8.295669E+04  1.731840E+04  1.926961E+05  4.730139E-10 -1.277825E-10
       283  14  4.774663E+05  7.492420E+04  8.857595E+03  1.897404E+05  8.504832E-09  1.185673E-08
       283  15  4.745693E+05  7.874317E+04  4.938914E+03  1.942871E+05  2.010876E-09  4.008343E-09
       283  16  2.574439E+05  1.986457E+02 -3.614259E+04  1.312240E+05 -3.892587E-09 -1.909221E-09
       283  17  2.814592E+05  1.388267E+03 -3.893700E+04  1.353539E+05 -9.502489E-10 -2.233479E-09
       283  18  3.002166E+05  1.437100E+04 -3.742568E+04  1.469864E+05  3.666106E-09  4.697821E-09
       283  19  6.929307E+05  1.657186E+05  7.077637E+04  2.541879E+05 -1.613931E+04  6.644674E+03
       283  20  6.735119E+05  1.484632E+05  5.664978E+04  2.441425E+05 -1.100514E+04  7.581438E+03
       283  21  6.489529E+05  1.431177E+05  4.730166E+04  2.415999E+05 -5.735648E+03  8.159675E+03
       283  22  4.751641E+05  8.295681E+04  1.731900E+04  1.926960E+05 -1.671505E+04  6.427984E+03
       283  23  4.774665E+05  7.492430E+04  8.857959E+03  1.897403E+05 -1.188081E+04  7.251492E+03
       283  24  4.745694E+05  7.874325E+04  4.939116E+03  1.942870E+05 -6.911060E+03  7.716502E+03
       283  25  2.574443E+05  1.987674E+02 -3.614196E+04  1.312239E+05 -1.729057E+04  6.211382E+03
       283  26  2.814594E+05  1.388362E+03 -3.893661E+04  1.353538E+05 -1.275617E+04  6.921663E+03
       283  27  3.002167E+05  1.437107E+04 -3.742546E+04  1.469864E+05 -8.086106E+03  7.273464E+03
       284   1  6.288249E+05  1.367977E+05  4.128525E+04  2.365717E+05  4.850536E+03 -7.582529E+03
       284   2  6.100971E+05  1.244978E+05  3.421201E+04  2.262501E+05  3.327697E+03 -6.690131E+03
       284   3  5.842204E+05  1.198979E+05  2.798929E+04  2.243123E+05  1.799478E+03 -5.784177E+03
       284   4  4.743257E+05  7.914307E+04  3.766853E+03  1.939848E+05  5.913070E+03 -7.181850E+03
       284   5  4.778854E+05  7.517609E+04  2.051951E+03  1.898379E+05  4.401793E+03 -6.284975E+03
       284   6  4.742939E+05  7.890714E+04  1.178715E+03  1.940747E+05  2.885099E+03 -5.374556E+03
       284   7  3.198492E+05  2.148987E+04 -3.375353E+04  1.514073E+05  6.975322E+03 -6.781278E+03
       284   8  3.456906E+05  2.585550E+04 -3.010950E+04  1.534325E+05  5.475644E+03 -5.879912E+03
       284   9  3.643794E+05  3.791716E+04 -2.563277E+04  1.638418E+05  3.970510E+03 -4.965013E+03
       284  10  6.288249E+05  1.367976E+05  4.128510E+04  2.365717E+05 -3.877572E-10  1.422630E-09
       284  11  6.100971E+05  1.244977E+05  3.421191E+04  2.262502E+05 -1.266034E-09  1.631817E-09
       284  12  5.842204E+05  1.198979E+05  2.798922E+04  2.243123E+05 -9.335389E-10 -5.605211E-09
       284  13  4.743256E+05  7.914300E+04  3.766690E+03  1.939848E+05 -6.294433E-10  2.423823E-09
       284  14  4.778854E+05  7.517604E+04  2.051840E+03  1.898379E+05 -6.067045E-09 -1.059841E-09
       284  15  4.742939E+05  7.890710E+04  1.178645E+03  1.940747E+05 -2.403280E-09 -5.003546E-09
       284  16  3.198491E+05  2.148981E+04 -3.375371E+04  1.514074E+05  1.110346E-10 -5.579638E-09
       284  17  3.456905E+05  2.585545E+04 -3.010963E+04  1.534325E+05 -2.655122E-09 -5.689585E-09
       284  18  3.643793E+05  3.791713E+04 -2.563284E+04  1.638418E+05  9.775561E-10  1.357915E-09
       284  19  6.288249E+05  1.367977E+05  4.128525E+04  2.365717E+05 -4.850536E+03  7.582529E+03
       284  20  6.100971E+05  1.244978E+05  3.421201E+04  2.262501E+05 -3.327697E+03  6.690131E+03
       284  21  5.842204E+05  1.198979E+05  2.798929E+04  2.243123E+05 -1.799478E+03  5.784177E+03
       284  22  4.743257E+05  7.914307E+04  3.766853E+03  1.939848E+05 -5.913070E+03  7.181850E+03
       284  23  4.778854E+05  7.517609E+04  2.051951E+03  1.898379E+05 -4.401793E+03  6.284975E+03
       284  24  4.742939E+05  7.890714E+04  1.178715E+03  1.940747E+05 -2.885099E+03  5.374556E+03
       284  25  3.198492E+05  2.148987E+04 -3.375353E+04  1.514073E+05 -6.975322E+03  6.781278E+03
       284  26  3.456906E+05  2.585550E+04 -3.010950E+04  1.534325E+05 -5.475644E+03  5.879912E+03
       284  27  3.643794E+05  3.791716E+04 -2.563277E+04  1.638418E+05 -3.970510E+03  4.965013E+03
       285   1  5.649355E+05  1.127404E+05  2.289996E+04  2.190297E+05  1.346612E+03 -5.089551E+03
       285   2  5.463840E+05  1.007733E+05  1.726669E+04  2.087242E+05  5.528194E+02 -3.907965E+03
       285   3  5.205158E+05  9.619735E+04  1.186524E+04  2.067963E+05 -2.408248E+02 -2.727100E+03
       285   4  4.742694E+05  7.891969E+04  9.228497E+02  1.940432E+05  2.425687E+03 -4.682347E+03
       285   5  4.779281E+05  7.522063E+04  6.125304E+02  1.898560E+05  1.631335E+03 -3.500916E+03
       285   6  4.742696E+05  7.891283E+04  5.345170E+02  1.940463E+05  8.371178E+02 -2.320205E+03
       285   7  3.836118E+05  4.509975E+04 -2.105475E+04  1.690602E+05  3.504584E+03 -4.275210E+03
       285   8  4.094767E+05  4.966827E+04 -1.604197E+04  1.709896E+05  2.709722E+03 -3.093915E+03
       285   9  4.280252E+05  6.162837E+04 -1.079642E+04  1.812971E+05  1.914978E+03 -1.913340E+03
       285  10  5.649355E+05  1.127403E+05  2.289991E+04  2.190297E+05  8.280062E-09 -2.820148E-09
       285  11  5.463840E+05  1.007733E+05  1.726666E+04  2.087242E+05 -3.370713E-10  2.575379E-09
       285  12  5.205158E+05  9.619734E+04  1.186523E+04  2.067963E+05 -1.191554E-08  3.514584E-09
       285  13  4.742694E+05  7.891966E+04  9.227974E+02  1.940432E+05 -9.056877E-10 -5.208157E-09
       285  14  4.779281E+05  7.522062E+04  6.125024E+02  1.898560E+05 -2.369065E-09  1.731276E-09
       285  15  4.742696E+05  7.891282E+04  5.345056E+02  1.940463E+05  6.854888E-10 -4.595742E-09
       285  16  3.836118E+05  4.509973E+04 -2.105481E+04  1.690602E+05 -8.270714E-09 -2.232658E-09
       285  17  4.094767E+05  4.966825E+04 -1.604200E+04  1.709897E+05 -3.233445E-09 -1.003499E-08
       285  18  4.280252E+05  6.162837E+04 -1.079644E+04  1.812971E+05  8.448751E-09 -1.163098E-09
       285  19  5.649355E+05  1.127404E+05  2.289996E+04  2.190297E+05 -1.346612E+03  5.089551E+03
       285  20  5.463840E+05  1.007733E+05  1.726669E+04  2.087242E+05 -5.528194E+02  3.907965E+03
       285  21  5.205158E+05  9.619735E+04  1.186524E+04  2.067963E+05  2.408248E+02  2.727100E+03
       285  22  4.742694E+05  7.891969E+04  9.228497E+02  1.940432E+05 -2.425687E+03  4.682347E+03
       285  23  4.779281E+05  7.522063E+04  6.125304E+02  1.898560E+05 -1.631335E+03  3.500916E+03
       285  24  4.742696E+05  7.891283E+04  5.345170E+02  1.940463E+05 -8.371178E+02  2.320205E+03
       285  25  3.836118E+05  4.509975E+04 -2.105475E+04  1.690602E+05 -3.504584E+03  4.275210E+03
       285  26  4.094767E+05  4.966827E+04 -1.604197E+04  1.709896E+05 -2.709722E+03  3.093915E+03
       285  27  4.280252E+05  6.162837E+04 -1.079642E+04  1.812971E+05 -1.914978E+03  1.913340E+03
       286   1  5.013533E+05  8.901726E+04  7.077056E+03  2.015260E+05 -6.161367E+02 -2.007662E+03
       286   2  4.828303E+05  7.707705E+04  1.984563E+03  1.912346E+05 -1.496087E+03 -8.609955E+02
       286   3  4.570162E+05  7.252513E+04 -2.809644E+03  1.893071E+05 -2.375786E+03  2.850989E+02
       286   4  4.742752E+05  7.891019E+04  5.655219E+02  1.940441E+05  4.610928E+02 -1.601014E+03
       286   5  4.779220E+05  7.522324E+04  7.866400E+02  1.898595E+05 -4.193633E+02 -4.545372E+02
       286   6  4.742773E+05  7.892458E+04  1.306422E+03  1.940386E+05 -1.299583E+03  6.913635E+02
       286   7  4.471979E+05  6.880318E+04 -5.946060E+03  1.865624E+05  1.538271E+03 -1.194386E+03
       286   8  4.730138E+05  7.336945E+04 -4.112759E+02  1.884844E+05  6.573480E+02 -4.808349E+01
       286   9  4.915386E+05  8.532403E+04  5.422449E+03  1.987703E+05 -2.233531E+02  1.097638E+03
       286  10  5.013533E+05  8.901725E+04  7.077048E+03  2.015260E+05 -8.753954E-09  1.064424E-09
       286  11  4.828303E+05  7.707704E+04  1.984557E+03  1.912346E+05  6.581362E-09 -6.603022E-10
       286  12  4.570162E+05  7.252513E+04 -2.809655E+03  1.893071E+05  1.027096E-08 -5.807935E-09
       286  13  4.742752E+05  7.891019E+04  5.655167E+02  1.940441E+05  1.575128E-09 -2.584097E-10
       286  14  4.779220E+05  7.522324E+04  7.866392E+02  1.898595E+05  5.831938E-09  5.976811E-09
       286  15  4.742773E+05  7.892458E+04  1.306418E+03  1.940386E+05  2.422050E-10  2.652325E-09
       286  16  4.471979E+05  6.880317E+04 -5.946067E+03  1.865624E+05  9.455469E-09 -3.742300E-09
       286  17  4.730138E+05  7.336945E+04 -4.112768E+02  1.884844E+05  1.477271E-09 -6.150406E-09
       286  18  4.915386E+05  8.532403E+04  5.422447E+03  1.987703E+05 -8.410703E-09 -1.295823E-08
       286  19  5.013533E+05  8.901726E+04  7.077056E+03  2.015260E+05  6.161367E+02  2.007662E+03
       286  20  4.828303E+05  7.707705E+04  1.984563E+03  1.912346E+05  1.496087E+03  8.609955E+02
       286  21  4.570162E+05  7.252513E+04 -2.809644E+03  1.893071E+05  2.375786E+03 -2.850989E+02
       286  22  4.742752E+05  7.891019E+04  5.655219E+02  1.940441E+05 -4.610928E+02  1.601014E+03
       286  23  4.779220E+05  7.522324E+04  7.866400E+02  1.898595E+05  4.193633E+02  4.545372E+02
       286  24  4.742773E+05  7.892458E+04  1.306422E+03  1.940386E+05  1.299583E+03 -6.913635E+02
       286  25  4.471979E+05  6.880318E+04 -5.946060E+03  1.865624E+05 -1.538271E+03  1.194386E+03
       286  26  4.730138E+05  7.336945E+04 -4.112759E+02  1.884844E+05 -6.573480E+02  4.808349E+01
       286  27  4.915386E+05  8.532403E+04  5.422449E+03  1.987703E+05  2.233531E+02 -1.097638E+03
       287   1  4.378512E+05  6.536512E+04 -7.229636E+03  1.841265E+05 -2.913291E+03  9.444804E+02
       287   2  4.192241E+05  5.333677E+04 -1.122443E+04  1.737366E+05 -4.909472E+03  1.668258E+03
       287   3  3.935917E+05  4.911247E+04 -1.398426E+04  1.716700E+05 -6.901316E+03  2.380998E+03
       287   4  4.743238E+05  7.889711E+04  1.705063E+03  1.940749E+05 -1.832986E+03  1.352279E+03
       287   5  4.778505E+05  7.517341E+04  3.032182E+03  1.898453E+05 -3.838533E+03  2.072472E+03
       287   6  4.743736E+05  7.925569E+04  5.601726E+03  1.939390E+05 -5.839798E+03  2.781608E+03
       287   7  5.107979E+05  9.242925E+04  1.063971E+04  2.040238E+05 -7.526062E+02  1.760106E+03
       287   8  5.364804E+05  9.701034E+04  1.728858E+04  2.059555E+05 -2.767481E+03  2.476729E+03
       287   9  5.551619E+05  1.093994E+05  2.518723E+04  2.162106E+05 -4.778129E+03  3.182276E+03
       287  10  4.378512E+05  6.536512E+04 -7.229653E+03  1.841265E+05 -2.093476E-09 -1.705053E-09
       287  11  4.192241E+05  5.333676E+04 -1.122448E+04  1.737366E+05 -5.937643E-09  2.897728E-09
       287  12  3.935917E+05  4.911245E+04 -1.398436E+04  1.716700E+05 -5.179949E-09  1.993139E-09
       287  13  4.743238E+05  7.889711E+04  1.705053E+03  1.940749E+05 -3.501720E-11 -6.803069E-09
       287  14  4.778505E+05  7.517340E+04  3.032146E+03  1.898453E+05 -4.916254E-10  2.437412E-09
       287  15  4.743736E+05  7.925567E+04  5.601647E+03  1.939390E+05  4.823527E-09  9.836162E-09
       287  16  5.107979E+05  9.242925E+04  1.063971E+04  2.040238E+05 -1.796842E-09 -6.532637E-09
       287  17  5.364804E+05  9.701033E+04  1.728856E+04  2.059555E+05  8.083652E-09 -8.152270E-10
       287  18  5.551619E+05  1.093994E+05  2.518717E+04  2.162106E+05  8.138558E-09  1.744880E-09
       287  19  4.378512E+05  6.536512E+04 -7.229636E+03  1.841265E+05  2.913291E+03 -9.444804E+02
       287  20  4.192241E+05  5.333677E+04 -1.122443E+04  1.737366E+05  4.909472E+03 -1.668258E+03
       287  21  3.935917E+05  4.911247E+04 -1.398426E+04  1.716700E+05  6.901316E+03 -2.380998E+03
       287  22  4.743238E+05  7.889711E+04  1.705063E+03  1.940749E+05  1.832986E+03 -1.352279E+03
       287  23  4.778505E+05  7.517341E+04  3.032182E+03  1.898453E+05  3.838533E+03 -2.072472E+03
       287  24  4.743736E+05  7.925569E+04  5.601726E+03  1.939390E+05  5.839798E+03 -2.781608E+03
       287  25  5.107979E+05  9.242925E+04  1.063971E+04  2.040238E+05  7.526062E+02 -1.760106E+03
       287  26  5.364804E+05  9.701034E+04  1.728858E+04  2.059555E+05  2.767481E+03 -2.476729E+03
       287  27  5.551619E+05  1.093994E+05  2.518723E+04  2.162106E+05  4.778129E+03 -3.182276E+03
       288   1  3.739681E+05  4.209285E+04 -1.704819E+04  1.677132E+05 -8.317533E+03  2.741055E+03
       288   2  3.553676E+05  2.876246E+04 -1.657114E+04  1.555533E+05 -1.527752E+04  1.535005E+03
       288   3  3.326671E+05  2.934961E+04 -9.501633E+03  1.503529E+05 -2.213620E+04  6.176380E+01
       288   4  4.747472E+05  7.865113E+04  7.353655E+03  1.943798E+05 -7.172545E+03  3.173131E+03
       288   5  4.772209E+05  7.481612E+04  1.320490E+04  1.897124E+05 -1.435624E+04  1.882524E+03
       288   6  4.756378E+05  8.494171E+04  2.582471E+04  1.920039E+05 -2.143891E+04  3.246128E+02
       288   7  5.755358E+05  1.152098E+05  3.175462E+04  2.210502E+05 -6.027360E+03  3.605277E+03
       288   8  5.990888E+05  1.208709E+05  4.297982E+04  2.238775E+05 -1.343476E+04  2.230120E+03
       288   9  6.186294E+05  1.405360E+05  6.114968E+04  2.336640E+05 -2.074144E+04  5.875356E+02
       288  10  3.739680E+05  4.209282E+04 -1.704833E+04  1.677132E+05  1.464004E-10  6.016717E-10
       288  11  3.553673E+05  2.876239E+04 -1.657158E+04  1.555533E+05  6.947240E-09  3.746297E-09
       288  12  3.326666E+05  2.934948E+04 -9.502553E+03  1.503529E+05  4.045207E-09 -1.259606E-09
       288  13  4.747471E+05  7.865111E+04  7.353540E+03  1.943799E+05 -1.798705E-09 -1.474349E-09
       288  14  4.772207E+05  7.481607E+04  1.320451E+04  1.897124E+05  1.836823E-09  5.586449E-09
       288  15  4.756373E+05  8.494159E+04  2.582385E+04  1.920039E+05  4.279112E-09  2.662026E-09
       288  16  5.755357E+05  1.152098E+05  3.175453E+04  2.210502E+05 -2.122158E-09  1.226023E-09
       288  17  5.990886E+05  1.208709E+05  4.297947E+04  2.238776E+05  1.875470E-09 -4.692514E-09
       288  18  6.186289E+05  1.405359E+05  6.114887E+04  2.336640E+05 -1.620754E-09 -5.629271E-09
       288  19  3.739681E+05  4.209285E+04 -1.704819E+04  1.677132E+05  8.317533E+03 -2.741055E+03
       288  20  3.553676E+05  2.876246E+04 -1.657114E+04  1.555533E+05  1.527752E+04 -1.535005E+03
       288  21  3.326671E+05  2.934961E+04 -9.501633E+03  1.503529E+05  2.213620E+04 -6.176380E+01
       288  22  4.747472E+05  7.865113E+04  7.353655E+03  1.943798E+05  7.172545E+03 -3.173131E+03
       288  23  4.772209E+05  7.481612E+04  1.320490E+04  1.897124E+05  1.435624E+04 -1.882524E+03
       288  24  4.756378E+05  8.494171E+04  2.582471E+04  1.920039E+05  2.143891E+04 -3.246128E+02
       288  25  5.755358E+05  1.152098E+05  3.175462E+04  2.210502E+05  6.027360E+03 -3.605277E+03
       288  26  5.990888E+05  1.208709E+05  4.297982E+04  2.238775E+05  1.343476E+04 -2.230120E+03
       288  27  6.186294E+05  1.405360E+05  6.114968E+04  2.336640E+05  2.074144E+04 -5.875356E+02
       289   1  3.052382E+05  2.411724E+04 -7.331702E+03  1.651081E+05 -2.865582E+04 -8.369937E+02
       289   2  2.944824E+05 -9.291084E+03  1.107628E+04  1.244087E+05 -5.432608E+04 -1.046708E+04
       289   3  3.174238E+05  6.429918E+04  7.592106E+04  6.611476E+04 -7.774675E+04 -2.605885E+04
       289   4  4.798236E+05  7.473978E+04  3.251081E+04  1.982764E+05 -2.614247E+04  1.117402E+02
       289   5  4.696490E+05  7.118474E+04  5.697970E+04  1.880490E+05 -5.678215E+04 -1.139523E+04
       289   6  4.941405E+05  1.755893E+05  1.318118E+05  1.602308E+05 -8.517264E+04 -2.886603E+04
       289   7  6.544398E+05  1.253622E+05  7.235161E+04  2.314518E+05 -2.362835E+04  1.060620E+03
       289   8  6.448452E+05  1.516669E+05  1.028802E+05  2.517068E+05 -5.923896E+04 -1.232381E+04
       289   9  6.708897E+05  2.869006E+05  1.876991E+05  2.543749E+05 -9.260069E+04 -3.167536E+04
       289  10  3.052373E+05  2.411702E+04 -7.333245E+03  1.651081E+05  4.030242E-10  2.737176E-09
       289  11  2.944792E+05 -9.291994E+03  1.107053E+04  1.244082E+05 -6.351195E-09 -2.640526E-09
       289  12  3.174171E+05  6.429683E+04  7.590843E+04  6.611313E+04 -7.123911E-10  1.119759E-09
       289  13  4.798229E+05  7.473960E+04  3.250953E+04  1.982764E+05 -6.868655E-10 -1.010243E-09
       289  14  4.696455E+05  7.118373E+04  5.697340E+04  1.880485E+05 -6.680023E-09 -5.003702E-09
       289  15  4.941325E+05  1.755864E+05  1.317966E+05  1.602288E+05  3.088609E-09  1.438153E-09
       289  16  6.544392E+05  1.253620E+05  7.235056E+04  2.314519E+05  3.723458E-09  4.257309E-09
       289  17  6.448414E+05  1.516658E+05  1.028734E+05  2.517062E+05  4.972151E-10 -5.058534E-10
       289  18  6.708802E+05  2.868972E+05  1.876811E+05  2.543726E+05  1.560975E-09  1.030653E-09
       289  19  3.052382E+05  2.411724E+04 -7.331702E+03  1.651081E+05  2.865582E+04  8.369937E+02
       289  20  2.944824E+05 -9.291084E+03  1.107628E+04  1.244087E+05  5.432608E+04  1.046708E+04
       289  21  3.174238E+05  6.429918E+04  7.592106E+04  6.611476E+04  7.774675E+04  2.605885E+04
       289  22  4.798236E+05  7.473978E+04  3.251081E+04  1.982764E+05  2.614247E+04 -1.117402E+02
       289  23  4.696490E+05  7.118474E+04  5.697970E+04  1.880490E+05  5.678215E+04  1.139523E+04
       289  24  4.941405E+05  1.755893E+05  1.318118E+05  1.602308E+05  8.517264E+04  2.886603E+04
       289  25  6.544398E+05  1.253622E+05  7.235161E+04  2.314518E+05  2.362835E+04 -1.060620E+03
       289  26  6.448452E+05  1.516669E+05  1.028802E+05  2.517068E+05  5.923896E+04  1.232381E+04
       289  27  6.708897E+05  2.869006E+05  1.876991E+05  2.543749E+05  9.260069E+04  3.167536E+04
       290   1 -9.879838E+04 -5.854182E+05 -1.004092E+05  8.505327E+04 -3.289927E+03 -1.928352E+04
       290   2 -5.096427E+04 -4.539980E+05 -5.640854E+04  5.111631E+04 -8.355825E+03 -6.742588E+03
       290   3 -1.936318E+04 -3.280563E+05 -2.460343E+04  7.631683E+04 -3.612939E+03  5.812803E+03
       290   4 -1.452313E+04 -2.471509E+05 -1.755699E+04  7.833485E+04 -3.298994E+03 -1.116825E+04
       290   5  4.011398E+02 -2.450907E+05 -8.602248E+03  4.877500E+04 -8.355736E+03 -6.623329E+03
       290   6  4.853803E+02 -2.471341E+05 -6.283728E+03  7.835235E+04 -3.605002E+03 -2.066695E+03
       290   7  6.974384E+04  9.122101E+04  6.528713E+04  7.161278E+04 -3.308235E+03 -3.048562E+03
       290   8  5.176353E+04 -3.614290E+04  3.920119E+04  4.643291E+04 -8.355648E+03 -6.504029E+03
       290   9  2.033354E+04 -1.662057E+05  1.203579E+04  8.038815E+04 -3.597118E+03 -9.947212E+03
       290  10 -9.879849E+04 -5.854186E+05 -1.004099E+05  8.505322E+04  3.129834E-09 -4.745809E-09
       290  11 -5.096435E+04 -4.539981E+05 -5.640876E+04  5.111627E+04  2.804595E-09  1.964632E-09
       290  12 -1.936320E+04 -3.280563E+05 -2.460352E+04  7.631684E+04  7.045503E-11  7.347625E-09
       290  13 -1.452317E+04 -2.471510E+05 -1.755724E+04  7.833482E+04 -1.636936E-09 -1.043890E-09
       290  14  4.010531E+02 -2.450908E+05 -8.602461E+03  4.877496E+04  7.369604E-09  4.538126E-09
       290  15  4.853652E+02 -2.471341E+05 -6.283760E+03  7.835235E+04 -1.165310E-09  4.948861E-10
       290  16  6.974383E+04  9.122100E+04  6.528709E+04  7.161277E+04 -1.258967E-10  3.229482E-09
       290  17  5.176344E+04 -3.614296E+04  3.920098E+04  4.643286E+04 -1.312849E-09 -2.301430E-09
       290  18  2.033350E+04 -1.662058E+05  1.203558E+04  8.038812E+04 -2.462868E-10 -4.292168E-09
       290  19 -9.879838E+04 -5.854182E+05 -1.004092E+05  8.505327E+04  3.289927E+03  1.928352E+04
       290  20 -5.096427E+04 -4.539980E+05 -5.640854E+04  5.111631E+04  8.355825E+03  6.742588E+03
       290  21 -1.936318E+04 -3.280563E+05 -2.460343E+04  7.631683E+04  3.612939E+03 -5.812803E+03
       290  22 -1.452313E+04 -2.471509E+05 -1.755699E+04  7.833485E+04  3.298994E+03  1.116825E+04
       290  23  4.011398E+02 -2.450907E+05 -8.602248E+03  4.877500E+04  8.355736E+03  6.623329E+03
       290  24  4.853803E+02 -2.471341E+05 -6.283728E+03  7.835235E+04  3.605002E+03  2.066695E+03
       290  25  6.974384E+04  9.122101E+04  6.528713E+04  7.161278E+04  3.308235E+03  3.048562E+03
       290  26  5.176353E+04 -3.614290E+04  3.920119E+04  4.643291E+04  8.355648E+03  6.504029E+03
       290  27  2.033354E+04 -1.662057E+05  1.203579E+04  8.038815E+04  3.597118E+03  9.947212E+03
       291   1  6.834652E+03 -2.145634E+05  1.276783E+03  7.905870E+04  1.467543E+03  4.095183E+03
       291   2  3.935938E+04 -8.547832E+04  3.021291E+04  4.846286E+04  7.595102E+03  6.766128E+03
       291   3  6.891095E+04  4.272210E+04  5.670663E+04  7.737498E+04  1.335757E+04  9.438592E+03
       291   4 -9.767365E+02 -2.464328E+05 -5.910489E+03  7.843019E+04  1.472669E+03 -1.055076E+03
       291   5  3.852512E+01 -2.459626E+05 -5.876799E+03  4.867509E+04  7.600480E+03  1.912771E+03
       291   6 -1.970350E+03 -2.464446E+05 -8.491501E+03  7.842909E+04  1.336310E+04  4.881600E+03
       291   7 -8.788179E+03 -2.783011E+05 -1.309773E+04  7.780171E+04  1.477806E+03 -6.205072E+03
       291   8 -3.928408E+04 -4.064229E+05 -4.196806E+04  4.888727E+04  7.605855E+03 -2.939344E+03
       291   9 -7.285737E+04 -5.355335E+05 -7.369490E+04  7.948271E+04  1.336862E+04  3.267083E+02
       291  10  6.834645E+03 -2.145635E+05  1.276747E+03  7.905870E+04  3.844292E-09 -9.012672E-10
       291  11  3.935931E+04 -8.547838E+04  3.021272E+04  4.846281E+04  1.177674E-08 -3.834489E-09
       291  12  6.891074E+04  4.272196E+04  5.670613E+04  7.737488E+04  1.349357E-09 -2.855619E-09
       291  13 -9.767392E+02 -2.464328E+05 -5.910495E+03  7.843019E+04  5.084117E-09  1.075950E-09
       291  14  3.846211E+01 -2.459626E+05 -5.876915E+03  4.867508E+04  1.002952E-08  2.432314E-09
       291  15 -1.970548E+03 -2.464447E+05 -8.491881E+03  7.842903E+04  1.803876E-09 -3.236243E-09
       291  16 -8.788192E+03 -2.783012E+05 -1.309780E+04  7.780171E+04  2.894247E-09  4.592941E-10
       291  17 -3.928415E+04 -4.064229E+05 -4.196819E+04  4.888729E+04  2.678513E-09  5.390717E-09
       291  18 -7.285757E+04 -5.355336E+05 -7.369524E+04  7.948270E+04 -1.569123E-09  5.389378E-09
       291  19  6.834652E+03 -2.145634E+05  1.276783E+03  7.905870E+04 -1.467543E+03 -4.095183E+03
       291  20  3.935938E+04 -8.547832E+04  3.021291E+04  4.846286E+04 -7.595102E+03 -6.766128E+03
       291  21  6.891095E+04  4.272210E+04  5.670663E+04  7.737498E+04 -1.335757E+04 -9.438592E+03
       291  22 -9.767365E+02 -2.464328E+05 -5.910489E+03  7.843019E+04 -1.472669E+03  1.055076E+03
       291  23  3.852512E+01 -2.459626E+05 -5.876799E+03  4.867509E+04 -7.600480E+03 -1.912771E+03
       291  24 -1.970350E+03 -2.464446E+05 -8.491501E+03  7.842909E+04 -1.336310E+04 -4.881600E+03
       291  25 -8.788179E+03 -2.783011E+05 -1.309773E+04  7.780171E+04 -1.477806E+03  6.205072E+03
       291  26 -3.928408E+04 -4.064229E+05 -4.196806E+04  4.888727E+04 -7.605855E+03  2.939344E+03
       291  27 -7.285737E+04 -5.355335E+05 -7.369490E+04  7.948271E+04 -1.336862E+04 -3.267083E+02
       292   1  9.970784E+04  1.540519E+05  8.024254E+04  8.207373E+04  1.921239E+04  1.620711E+04
       292   2  1.308243E+05  2.854537E+05  1.045218E+05  4.406144E+04  2.232955E+04  1.015707E+04
       292   3  1.353599E+05  4.113616E+05  1.261661E+05  6.476189E+04  7.623284E+03  4.077788E+03
       292   4  1.237602E+03 -2.480373E+05 -1.006469E+04  7.826626E+04  1.922485E+04  6.390888E+03
       292   5  8.154781E+02 -2.440381E+05 -1.597885E+04  4.888518E+04  2.232429E+04  1.488501E+04
       292   6 -2.872392E+04 -2.480788E+05 -3.463300E+04  7.822134E+04  7.593353E+03  2.335075E+04
       292   7 -9.724358E+04 -6.499757E+05 -1.003818E+05  7.446133E+04  1.923744E+04 -3.419041E+03
       292   8 -1.292126E+05 -7.732696E+05 -1.364977E+05  5.370486E+04  2.231910E+04  1.960894E+04
       292   9 -1.928390E+05 -9.071216E+05 -1.954623E+05  9.166661E+04  7.564243E+03  4.260330E+04
       292  10  9.970738E+04  1.540515E+05  8.024135E+04  8.207348E+04  9.413904E-10  2.261268E-08
       292  11  1.308237E+05  2.854534E+05  1.045207E+05  4.406125E+04  1.508795E-10  5.670515E-09
       292  12  1.353599E+05  4.113615E+05  1.261660E+05  6.476187E+04  3.571096E-09 -7.175520E-09
       292  13  1.237195E+03 -2.480374E+05 -1.006547E+04  7.826616E+04 -2.066826E-10 -1.120995E-09
       292  14  8.148835E+02 -2.440384E+05 -1.598021E+04  4.888491E+04  5.620474E-09  2.785689E-09
       292  15 -2.872413E+04 -2.480794E+05 -3.463414E+04  7.822120E+04  3.653297E-10  7.275932E-10
       292  16 -9.724398E+04 -6.499758E+05 -1.003825E+05  7.446138E+04  2.031235E-09 -2.254415E-08
       292  17 -1.292133E+05 -7.732702E+05 -1.364993E+05  5.370450E+04  2.202928E-09 -4.165790E-09
       292  18 -1.928396E+05 -9.071235E+05 -1.954658E+05  9.166635E+04  1.425129E-09  1.209841E-08
       292  19  9.970784E+04  1.540519E+05  8.024254E+04  8.207373E+04 -1.921239E+04 -1.620711E+04
       292  20  1.308243E+05  2.854537E+05  1.045218E+05  4.406144E+04 -2.232955E+04 -1.015707E+04
       292  21  1.353599E+05  4.113616E+05  1.261661E+05  6.476189E+04 -7.623284E+03 -4.077788E+03
       292  22  1.237602E+03 -2.480373E+05 -1.006469E+04  7.826626E+04 -1.922485E+04 -6.390888E+03
       292  23  8.154781E+02 -2.440381E+05 -1.597885E+04  4.888518E+04 -2.232429E+04 -1.488501E+04
       292  24 -2.872392E+04 -2.480788E+05 -3.463300E+04  7.822134E+04 -7.593353E+03 -2.335075E+04
       292  25 -9.724358E+04 -6.499757E+05 -1.003818E+05  7.446133E+04 -1.923744E+04  3.419041E+03
       292  26 -1.292126E+05 -7.732696E+05 -1.364977E+05  5.370486E+04 -2.231910E+04 -1.960894E+04
       292  27 -1.928390E+05 -9.071216E+05 -1.954623E+05  9.166661E+04 -7.564243E+03 -4.260330E+04
       293   1  2.484011E+05  1.375809E+05  1.248830E+05  3.432925E+04  2.695696E+04 -9.762148E+03
       293   2  1.941762E+05  1.454746E+05  1.046847E+05  4.117049E+04  8.079085E+03 -3.275912E+04
       293   3  1.386054E+05  1.380641E+05  9.296628E+04  5.880325E+04 -1.080923E+04 -3.926124E+04
       293   4 -4.548178E+05 -3.595725E+04 -3.976666E+04  5.657505E+04 -2.775076E+04 -9.813154E+03
       293   5 -4.516161E+05 -8.491889E+03 -1.940364E+04  5.116017E+04 -1.772204E+04 -3.278878E+04
       293   6 -4.547877E+05 -1.359719E+03 -1.063976E+04  5.653758E+04 -7.705753E+03 -3.926094E+04
       293   7 -1.157574E+06 -2.095271E+05 -2.044385E+05  7.879538E+04 -8.239690E+04 -9.868113E+03
       293   8 -1.097005E+06 -1.624824E+05 -1.435086E+05  6.113912E+04 -4.349694E+04 -3.281929E+04
       293   9 -1.047836E+06 -1.408026E+05 -1.142583E+05  5.427403E+04 -4.605146E+03 -3.926066E+04
       293  10  2.484003E+05  1.375806E+05  1.248814E+05  3.432946E+04 -9.027000E-09 -2.608410E-10
       293  11  1.941759E+05  1.454735E+05  1.046826E+05  4.117070E+04  6.420424E-09 -7.197797E-10
       293  12  1.386049E+05  1.380624E+05  9.296316E+04  5.880291E+04  1.458934E-08  1.551994E-09
       293  13 -4.548187E+05 -3.595756E+04 -3.976829E+04  5.657483E+04 -4.491158E-09 -2.520685E-10
       293  14 -4.516167E+05 -8.493127E+03 -1.940625E+04  5.115971E+04  2.150904E-09 -5.095643E-09
       293  15 -4.547882E+05 -1.361390E+03 -1.064276E+04  5.653734E+04  1.826988E-09 -5.972635E-09
       293  16 -1.157581E+06 -2.095290E+05 -2.044515E+05  7.879473E+04  1.228181E-08  5.340823E-10
       293  17 -1.097008E+06 -1.624840E+05 -1.435142E+05  6.113797E+04 -2.597003E-09 -2.227000E-09
       293  18 -1.047836E+06 -1.408043E+05 -1.142612E+05  5.427389E+04 -1.564330E-08 -1.200229E-09
       293  19  2.484011E+05  1.375809E+05  1.248830E+05  3.432925E+04 -2.695696E+04  9.762148E+03
       293  20  1.941762E+05  1.454746E+05  1.046847E+05  4.117049E+04 -8.079085E+03  3.275912E+04
       293  21  1.386054E+05  1.380641E+05  9.296628E+04  5.880325E+04  1.080923E+04  3.926124E+04
       293  22 -4.548178E+05 -3.595725E+04 -3.976666E+04  5.657505E+04  2.775076E+04  9.813154E+03
       293  23 -4.516161E+05 -8.491889E+03 -1.940364E+04  5.116017E+04  1.772204E+04  3.278878E+04
       293  24 -4.547877E+05 -1.359719E+03 -1.063976E+04  5.653758E+04  7.705753E+03  3.926094E+04
       293  25 -1.157574E+06 -2.095271E+05 -2.044385E+05  7.879538E+04  8.239690E+04  9.868113E+03
       293  26 -1.097005E+06 -1.624824E+05 -1.435086E+05  6.113912E+04  4.349694E+04  3.281929E+04
       293  27 -1.047836E+06 -1.408026E+05 -1.142583E+05  5.427403E+04  4.605146E+03  3.926066E+04
       294   1  1.036041E+05  1.289980E+05  8.805204E+04  5.656099E+04 -7.869148E+03 -3.785489E+04
       294   2  4.879153E+04  1.170521E+05  7.980442E+04  5.108854E+04 -8.376289E+03 -3.619922E+04
       294   3 -6.122780E+03  1.044699E+05  7.172625E+04  5.751981E+04 -8.886343E+03 -3.298801E+04
       294   4 -4.534924E+05 -1.666043E+03 -8.080303E+03  5.678911E+04 -6.325528E+03 -3.785606E+04
       294   5 -4.531942E+05 -2.155019E+02 -4.442062E+03  5.083573E+04 -4.108593E+03 -3.619632E+04
       294   6 -4.534734E+05  1.256694E+02 -2.526964E+03  5.678669E+04 -1.894568E+03 -3.298041E+04
       294   7 -1.010284E+06 -1.323468E+05 -1.042233E+05  5.701692E+04 -4.783249E+03 -3.785723E+04
       294   8 -9.549314E+05 -1.174963E+05 -8.869636E+04  5.058304E+04  1.557662E+02 -3.619342E+04
       294   9 -9.006261E+05 -1.042290E+05 -7.678602E+04  5.605405E+04  5.092339E+03 -3.297282E+04
       294  10  1.036037E+05  1.289965E+05  8.804923E+04  5.656075E+04  6.661560E-09  1.836756E-09
       294  11  4.879110E+04  1.170507E+05  7.980182E+04  5.108830E+04 -3.492355E-09  4.256286E-09
       294  12 -6.123157E+03  1.044688E+05  7.172406E+04  5.751957E+04 -1.575993E-08  2.031548E-09
       294  13 -4.534929E+05 -1.667593E+03 -8.083070E+03  5.678892E+04  4.882359E-12 -6.982309E-09
       294  14 -4.531946E+05 -2.169130E+02 -4.444555E+03  5.083561E+04 -1.070722E-09 -1.992452E-09
       294  15 -4.534737E+05  1.245007E+02 -2.529014E+03  5.678664E+04 -3.320867E-09 -1.827471E-09
       294  16 -1.010285E+06 -1.323483E+05 -1.042260E+05  5.701678E+04 -7.742784E-09  2.646691E-09
       294  17 -9.549317E+05 -1.174977E+05 -8.869882E+04  5.058305E+04  4.538816E-09  3.425919E-09
       294  18 -9.006264E+05 -1.042301E+05 -7.678812E+04  5.605418E+04  1.493083E-08  1.043846E-09
       294  19  1.036041E+05  1.289980E+05  8.805204E+04  5.656099E+04  7.869148E+03  3.785489E+04
       294  20  4.879153E+04  1.170521E+05  7.980442E+04  5.108854E+04  8.376289E+03  3.619922E+04
       294  21 -6.122780E+03  1.044699E+05  7.172625E+04  5.751981E+04  8.886343E+03  3.298801E+04
       294  22 -4.534924E+05 -1.666043E+03 -8.080303E+03  5.678911E+04  6.325528E+03  3.785606E+04
       294  23 -4.531942E+05 -2.155019E+02 -4.442062E+03  5.083573E+04  4.108593E+03  3.619632E+04
       294  24 -4.534734E+05  1.256694E+02 -2.526964E+03  5.678669E+04  1.894568E+03  3.298041E+04
       294  25 -1.010284E+06 -1.323468E+05 -1.042233E+05  5.701692E+04  4.783249E+03  3.785723E+04
       294  26 -9.549314E+05 -1.174963E+05 -8.869636E+04  5.058304E+04 -1.557662E+02  3.619342E+04
       294  27 -9.006261E+05 -1.042290E+05 -7.678602E+04  5.605405E+04 -5.092339E+03  3.297282E+04
       295   1 -4.159517E+04  9.608841E+04  6.612747E+04  5.735306E+04 -8.357835E+03 -3.062945E+04
       295   2 -9.650054E+04  8.330682E+04  5.775022E+04  5.127656E+04 -8.078166E+03 -2.664685E+04
       295   3 -1.514643E+05  7.054464E+04  4.918751E+04  5.722319E+04 -7.799749E+03 -2.251614E+04
       295   4 -4.533628E+05  1.024457E+02 -1.919658E+03  5.681351E+04 -1.510209E+03 -3.062143E+04
       295   5 -4.533030E+05  1.544213E+02 -1.097505E+03  5.080169E+04 -9.716529E+02 -2.663759E+04
       295   6 -4.533496E+05  1.809071E+02 -6.409430E+02  5.681339E+04 -4.343253E+02 -2.250559E+04
       295   7 -8.649627E+05 -9.589225E+04 -6.997164E+04  5.627426E+04  5.333029E+03 -3.061343E+04
       295   8 -8.099794E+05 -8.300452E+04 -5.994879E+04  5.032705E+04  6.130914E+03 -2.662834E+04
       295   9 -7.551446E+05 -7.018751E+04 -5.047189E+04  5.640377E+04  6.927637E+03 -2.249505E+04
       295  10 -4.159550E+04  9.608738E+04  6.612558E+04  5.735285E+04 -1.167931E-09  2.017496E-09
       295  11 -9.650080E+04  8.330604E+04  5.774877E+04  5.127639E+04  1.852833E-08  1.053387E-09
       295  12 -1.514645E+05  7.054408E+04  4.918645E+04  5.722304E+04  3.198885E-08 -2.297614E-09
       295  13 -4.533631E+05  1.014384E+02 -1.921424E+03  5.681347E+04  3.446712E-10 -4.321950E-10
       295  14 -4.533032E+05  1.536592E+02 -1.098840E+03  5.080167E+04 -1.655533E-12  6.605977E-09
       295  15 -4.533498E+05  1.803633E+02 -6.418950E+02  5.681338E+04 -5.074884E-10  1.006038E-08
       295  16 -8.649630E+05 -9.589327E+04 -6.997346E+04  5.627439E+04  4.008515E-10  4.246609E-10
       295  17 -8.099796E+05 -8.300529E+04 -5.995019E+04  5.032718E+04 -1.453693E-08  1.326874E-09
       295  18 -7.551448E+05 -7.018806E+04 -5.047293E+04  5.640389E+04 -3.229638E-08 -5.084884E-10
       295  19 -4.159517E+04  9.608841E+04  6.612747E+04  5.735306E+04  8.357835E+03  3.062945E+04
       295  20 -9.650054E+04  8.330682E+04  5.775022E+04  5.127656E+04  8.078166E+03  2.664685E+04
       295  21 -1.514643E+05  7.054464E+04  4.918751E+04  5.722319E+04  7.799749E+03  2.251614E+04
       295  22 -4.533628E+05  1.024457E+02 -1.919658E+03  5.681351E+04  1.510209E+03  3.062143E+04
       295  23 -4.533030E+05  1.544213E+02 -1.097505E+03  5.080169E+04  9.716529E+02  2.663759E+04
       295  24 -4.533496E+05  1.809071E+02 -6.409430E+02  5.681339E+04  4.343253E+02  2.250559E+04
       295  25 -8.649627E+05 -9.589225E+04 -6.997164E+04  5.627426E+04 -5.333029E+03  3.061343E+04
       295  26 -8.099794E+05 -8.300452E+04 -5.994879E+04  5.032705E+04 -6.130914E+03  2.662834E+04
       295  27 -7.551446E+05 -7.018751E+04 -5.047189E+04  5.640377E+04 -6.927637E+03  2.249505E+04
       296   1 -1.870006E+05  6.221453E+04  4.323755E+04  5.717415E+04 -7.688873E+03 -2.006523E+04
       296   2 -2.419652E+05  4.940958E+04  3.446575E+04  5.107525E+04 -7.564489E+03 -1.585981E+04
       296   3 -2.969743E+05  3.664421E+04  2.561103E+04  5.702099E+04 -7.440760E+03 -1.164022E+04
       296   4 -4.533338E+05  1.813534E+02 -4.969079E+02  5.681816E+04 -3.351737E+02 -2.005427E+04
       296   5 -4.533035E+05  1.690295E+02 -3.136683E+02  5.079572E+04 -1.863753E+02 -1.584828E+04
       296   6 -4.533260E+05  1.919155E+02 -2.307186E+02  5.681815E+04 -3.822181E+01 -1.162810E+04
       296   7 -7.195966E+05 -6.185544E+04 -4.423322E+04  5.646230E+04  7.015479E+03 -2.004332E+04
       296   8 -6.645975E+05 -4.907379E+04 -3.509418E+04  5.051626E+04  7.189312E+03 -1.583675E+04
       296   9 -6.096534E+05 -3.626161E+04 -2.607298E+04  5.661536E+04  7.362514E+03 -1.161599E+04
       296  10 -1.870008E+05  6.221408E+04  4.323669E+04  5.717403E+04 -2.681756E-08 -3.045539E-09
       296  11 -2.419653E+05  4.940929E+04  3.446516E+04  5.107515E+04 -1.741783E-08  1.192914E-09
       296  12 -2.969744E+05  3.664405E+04  2.561067E+04  5.702092E+04 -5.134497E-09  1.736178E-09
       296  13 -4.533339E+05  1.809216E+02 -4.976637E+02  5.681815E+04 -4.288107E-09  6.874964E-09
       296  14 -4.533036E+05  1.687598E+02 -3.141403E+02  5.079571E+04 -3.240535E-10  6.875838E-09
       296  15 -4.533260E+05  1.917703E+02 -2.309726E+02  5.681815E+04 -3.283918E-09  7.788430E-10
       296  16 -7.195967E+05 -6.185588E+04 -4.423407E+04  5.646241E+04  2.300379E-08 -7.600603E-10
       296  17 -6.645977E+05 -4.907407E+04 -3.509475E+04  5.051636E+04  1.574826E-08 -6.018792E-10
       296  18 -6.096535E+05 -3.626177E+04 -2.607334E+04  5.661542E+04  3.478168E-09 -6.874487E-10
       296  19 -1.870006E+05  6.221453E+04  4.323755E+04  5.717415E+04  7.688873E+03  2.006523E+04
       296  20 -2.419652E+05  4.940958E+04  3.446575E+04  5.107525E+04  7.564489E+03  1.585981E+04
       296  21 -2.969743E+05  3.664421E+04  2.561103E+04  5.702099E+04  7.440760E+03  1.164022E+04
       296  22 -4.533338E+05  1.813534E+02 -4.969079E+02  5.681816E+04  3.351737E+02  2.005427E+04
       296  23 -4.533035E+05  1.690295E+02 -3.136683E+02  5.079572E+04  1.863753E+02  1.584828E+04
       296  24 -4.533260E+05  1.919155E+02 -2.307186E+02  5.681815E+04  3.822181E+01  1.162810E+04
       296  25 -7.195966E+05 -6.185544E+04 -4.423322E+04  5.646230E+04 -7.015479E+03  2.004332E+04
       296  26 -6.645975E+05 -4.907379E+04 -3.509418E+04  5.051626E+04 -7.189312E+03  1.583675E+04
       296  27 -6.096534E+05 -3.626161E+04 -2.607298E+04  5.661536E+04 -7.362514E+03  1.161599E+04
       297   1 -3.325426E+05  2.831215E+04  1.953525E+04  5.697423E+04 -7.404395E+03 -9.179294E+03
       297   2 -3.875259E+05  1.550306E+04  1.056999E+04  5.086634E+04 -7.279214E+03 -4.955299E+03
       297   3 -4.425627E+05  2.728395E+03  1.517755E+03  5.681120E+04 -7.154225E+03 -7.381429E+02
       297   4 -4.533243E+05  1.941693E+02 -2.178801E+02  5.681992E+04 -1.464495E+00 -9.166968E+03
       297   5 -4.532963E+05  1.800946E+02 -2.425096E+02  5.079350E+04  1.114699E+02 -4.942827E+03
       297   6 -4.533219E+05  2.028934E+02 -3.454958E+02  5.681991E+04  2.242228E+02 -7.255225E+02
       297   7 -5.740913E+05 -2.792453E+04 -1.997122E+04  5.666563E+04  7.400075E+03 -9.154645E+03
       297   8 -5.190622E+05 -1.514306E+04 -1.105493E+04  5.072067E+04  7.501397E+03 -4.930356E+03
       297   9 -4.640808E+05 -2.322585E+03 -2.208546E+03  5.682861E+04  7.602547E+03 -7.129018E+02
       297  10 -3.325427E+05  2.831204E+04  1.953499E+04  5.697418E+04  8.448627E-09 -1.096147E-09
       297  11 -3.875260E+05  1.550302E+04  1.056985E+04  5.086631E+04  1.285898E-09 -1.304357E-09
       297  12 -4.425628E+05  2.728380E+03  1.517658E+03  5.681120E+04  1.313737E-09 -2.381217E-09
       297  13 -4.533243E+05  1.940791E+02 -2.180380E+02  5.681992E+04  1.815411E-09  3.470624E-09
       297  14 -4.532963E+05  1.800683E+02 -2.425555E+02  5.079350E+04  9.164688E-10 -2.416317E-09
       297  15 -4.533219E+05  2.028928E+02 -3.454969E+02  5.681991E+04  1.825947E-09 -4.336843E-09
       297  16 -5.740914E+05 -2.792463E+04 -1.997149E+04  5.666568E+04 -6.006909E-09  1.111949E-09
       297  17 -5.190623E+05 -1.514310E+04 -1.105508E+04  5.072070E+04  3.195249E-11 -4.599445E-09
       297  18 -4.640809E+05 -2.322601E+03 -2.208656E+03  5.682862E+04  3.085205E-09 -5.971861E-09
       297  19 -3.325426E+05  2.831215E+04  1.953525E+04  5.697423E+04  7.404395E+03  9.179294E+03
       297  20 -3.875259E+05  1.550306E+04  1.056999E+04  5.086634E+04  7.279214E+03  4.955299E+03
       297  21 -4.425627E+05  2.728395E+03  1.517755E+03  5.681120E+04  7.154225E+03  7.381429E+02
       297  22 -4.533243E+05  1.941693E+02 -2.178801E+02  5.681992E+04  1.464495E+00  9.166968E+03
       297  23 -4.532963E+05  1.800946E+02 -2.425096E+02  5.079350E+04 -1.114699E+02  4.942827E+03
       297  24 -4.533219E+05  2.028934E+02 -3.454958E+02  5.681991E+04 -2.242228E+02  7.255225E+02
       297  25 -5.740913E+05 -2.792453E+04 -1.997122E+04  5.666563E+04 -7.400075E+03  9.154645E+03
       297  26 -5.190622E+05 -1.514306E+04 -1.105493E+04  5.072067E+04 -7.501397E+03  4.930356E+03
       297  27 -4.640808E+05 -2.322585E+03 -2.208546E+03  5.682861E+04 -7.602547E+03  7.129018E+02
       298   1 -4.781481E+05 -5.606970E+03 -4.667049E+03  5.675207E+04 -7.096133E+03  1.719228E+03
       298   2 -5.330931E+05 -1.842905E+04 -1.395203E+04  5.064602E+04 -6.586174E+03  5.893573E+03
       298   3 -5.881568E+05 -3.128070E+04 -2.359050E+04  5.658650E+04 -6.075887E+03  9.977460E+03
       298   4 -4.533310E+05  2.058475E+02 -4.343480E+02  5.681847E+04  2.904601E+02  1.731852E+03
       298   5 -4.532855E+05  1.875543E+02 -7.238577E+02  5.079529E+04  6.417799E+02  5.905724E+03
       298   6 -4.533340E+05  1.673685E+02 -1.256702E+03  5.681854E+04  9.934710E+02  9.989149E+03
       298   7 -4.285132E+05  6.018662E+03  3.798538E+03  5.688487E+04  7.677340E+03  1.744477E+03
       298   8 -3.734714E+05  1.880386E+04  1.250432E+04  5.094457E+04  7.870633E+03  5.917879E+03
       298   9 -3.184931E+05  3.161453E+04  2.107674E+04  5.705063E+04  8.064314E+03  1.000084E+04
       298  10 -4.781481E+05 -5.606987E+03 -4.667149E+03  5.675208E+04  5.392699E-08  2.847612E-09
       298  11 -5.330932E+05 -1.842910E+04 -1.395218E+04  5.064605E+04 -1.254922E-08  3.938955E-09
       298  12 -5.881568E+05 -3.128082E+04 -2.359076E+04  5.658655E+04 -7.805768E-08  3.243515E-09
       298  13 -4.533310E+05  2.058443E+02 -4.343537E+02  5.681847E+04  2.182409E-09 -8.210998E-10
       298  14 -4.532855E+05  1.875168E+02 -7.239240E+02  5.079529E+04 -1.033878E-09  3.206804E-09
       298  15 -4.533340E+05  1.672611E+02 -1.256891E+03  5.681853E+04 -3.347335E-09  2.671969E-09
       298  16 -4.285132E+05  6.018643E+03  3.798422E+03  5.688486E+04 -5.152393E-08 -6.149132E-10
       298  17 -3.734715E+05  1.880381E+04  1.250414E+04  5.094454E+04  1.286836E-08 -8.675237E-10
       298  18 -3.184932E+05  3.161440E+04  2.107643E+04  5.705056E+04  7.717597E-08  2.685735E-09
       298  19 -4.781481E+05 -5.606970E+03 -4.667049E+03  5.675207E+04  7.096133E+03 -1.719228E+03
       298  20 -5.330931E+05 -1.842905E+04 -1.395203E+04  5.064602E+04  6.586174E+03 -5.893573E+03
       298  21 -5.881568E+05 -3.128070E+04 -2.359050E+04  5.658650E+04  6.075887E+03 -9.977460E+03
       298  22 -4.533310E+05  2.058475E+02 -4.343480E+02  5.681847E+04 -2.904601E+02 -1.731852E+03
       298  23 -4.532855E+05  1.875543E+02 -7.238577E+02  5.079529E+04 -6.417799E+02 -5.905724E+03
       298  24 -4.533340E+05  1.673685E+02 -1.256702E+03  5.681854E+04 -9.934710E+02 -9.989149E+03
       298  25 -4.285132E+05  6.018662E+03  3.798538E+03  5.688487E+04 -7.677340E+03 -1.744477E+03
       298  26 -3.734714E+05  1.880386E+04  1.250432E+04  5.094457E+04 -7.870633E+03 -5.917879E+03
       298  27 -3.184931E+05  3.161453E+04  2.107674E+04  5.705063E+04 -8.064314E+03 -1.000084E+04
       299   1 -6.238336E+05 -3.962345E+04 -3.015399E+04  5.641715E+04 -5.915945E+03  1.237939E+04
       299   2 -6.784628E+05 -5.274222E+04 -4.100003E+04  5.069524E+04 -2.796966E+03  1.599429E+04
       299   3 -7.337860E+05 -6.686170E+04 -5.413998E+04  5.695137E+04  3.236821E+02  1.865032E+04
       299   4 -4.534054E+05  1.849075E+02 -1.651753E+03  5.680301E+04  1.242736E+03  1.239101E+04
       299   5 -4.532068E+05 -4.121483E+01 -2.897807E+03  5.081506E+04  2.683438E+03  1.600265E+04
       299   6 -4.534142E+05 -9.763226E+02 -5.271351E+03  5.680491E+04  4.126100E+03  1.865560E+04
       299   7 -2.829484E+05  3.999178E+04  2.684978E+04  5.718897E+04  8.403318E+03  1.240263E+04
       299   8 -2.279008E+05  5.265713E+04  3.520290E+04  5.093490E+04  8.165768E+03  1.601101E+04
       299   9 -1.729652E+05  6.490480E+04  4.359455E+04  5.665834E+04  7.930184E+03  1.866088E+04
       299  10 -6.238337E+05 -3.962363E+04 -3.015434E+04  5.641721E+04  1.723635E-08  3.649754E-09
       299  11 -6.784629E+05 -5.274250E+04 -4.100053E+04  5.069528E+04  7.382203E-09  2.100171E-09
       299  12 -7.337861E+05 -6.686208E+04 -5.414063E+04  5.695137E+04 -2.170699E-09  1.281067E-09
       299  13 -4.534055E+05  1.847423E+02 -1.652044E+03  5.680300E+04 -3.075703E-11  3.559240E-09
       299  14 -4.532069E+05 -4.149169E+01 -2.898302E+03  5.081503E+04  2.150466E-09  9.534309E-10
       299  15 -4.534143E+05 -9.767008E+02 -5.272036E+03  5.680484E+04  4.010366E-09 -2.235895E-09
       299  16 -2.829485E+05  3.999159E+04  2.684935E+04  5.718889E+04 -2.128029E-08  2.163536E-09
       299  17 -2.279009E+05  5.265684E+04  3.520230E+04  5.093480E+04 -6.778415E-09 -1.324396E-09
       299  18 -1.729654E+05  6.490441E+04  4.359378E+04  5.665822E+04  3.653514E-09 -5.508312E-09
       299  19 -6.238336E+05 -3.962345E+04 -3.015399E+04  5.641715E+04  5.915945E+03 -1.237939E+04
       299  20 -6.784628E+05 -5.274222E+04 -4.100003E+04  5.069524E+04  2.796966E+03 -1.599429E+04
       299  21 -7.337860E+05 -6.686170E+04 -5.413998E+04  5.695137E+04 -3.236821E+02 -1.865032E+04
       299  22 -4.534054E+05  1.849075E+02 -1.651753E+03  5.680301E+04 -1.242736E+03 -1.239101E+04
       299  23 -4.532068E+05 -4.121483E+01 -2.897807E+03  5.081506E+04 -2.683438E+03 -1.600265E+04
       299  24 -4.534142E+05 -9.763226E+02 -5.271351E+03  5.680491E+04 -4.126100E+03 -1.865560E+04
       299  25 -2.829484E+05  3.999178E+04  2.684978E+04  5.718897E+04 -8.403318E+03 -1.240263E+04
       299  26 -2.279008E+05  5.265713E+04  3.520290E+04  5.093490E+04 -8.165768E+03 -1.601101E+04
       299  27 -1.729652E+05  6.490480E+04  4.359455E+04  5.665834E+04 -7.930184E+03 -1.866088E+04
       300   1 -7.706781E+05 -7.527276E+04 -6.276182E+04  5.513883E+04  2.613542E+02  2.046391E+04
       300   2 -8.220507E+05 -9.382200E+04 -8.454573E+04  5.744978E+04  2.459532E+04  1.813439E+04
       300   3 -8.807103E+05 -1.287298E+05 -1.262781E+05  7.106071E+04  4.894018E+04  5.630151E+03
       300   4 -4.542591E+05 -7.750615E+02 -6.940872E+03  5.665015E+04  5.024566E+03  2.047040E+04
       300   5 -4.521725E+05 -5.437282E+03 -1.265561E+04  5.101676E+04  1.155406E+04  1.811385E+04
       300   6 -4.542773E+05 -2.335908E+04 -2.594136E+04  5.668377E+04  1.809677E+04  5.584733E+03
       300   7 -1.377421E+05  7.371717E+04  4.887649E+04  5.816223E+04  9.790135E+03  2.047691E+04
       300   8 -8.216233E+04  8.293950E+04  5.922871E+04  4.457976E+04 -1.494807E+03  1.809358E+04
       300   9 -2.767424E+04  8.199995E+04  7.438657E+04  4.229682E+04 -1.276773E+04  5.540761E+03
       300  10 -7.706782E+05 -7.527321E+04 -6.276260E+04  5.513883E+04 -3.033780E-09  3.739112E-10
       300  11 -8.220514E+05 -9.382252E+04 -8.454748E+04  5.744942E+04  2.621681E-10 -1.957934E-09
       300  12 -8.807129E+05 -1.287305E+05 -1.262827E+05  7.106048E+04 -2.161295E-09 -6.416200E-10
       300  13 -4.542593E+05 -7.755181E+02 -6.941706E+03  5.665007E+04  1.829778E-09  1.933052E-09
       300  14 -4.521727E+05 -5.437670E+03 -1.265648E+04  5.101659E+04 -2.903369E-09 -3.070922E-09
       300  15 -4.542777E+05 -2.335920E+04 -2.594204E+04  5.668369E+04  2.920012E-09  1.601865E-09
       300  16 -1.377423E+05  7.371669E+04  4.887553E+04  5.816207E+04  8.525262E-09 -1.252090E-09
       300  17 -8.216242E+04  8.293915E+04  5.922809E+04  4.457978E+04  2.228657E-09  2.807655E-09
       300  18 -2.767442E+04  8.199987E+04  7.438621E+04  4.229687E+04 -1.794848E-09 -6.196548E-10
       300  19 -7.706781E+05 -7.527276E+04 -6.276182E+04  5.513883E+04 -2.613542E+02 -2.046391E+04
       300  20 -8.220507E+05 -9.382200E+04 -8.454573E+04  5.744978E+04 -2.459532E+04 -1.813439E+04
       300  21 -8.807103E+05 -1.287298E+05 -1.262781E+05  7.106071E+04 -4.894018E+04 -5.630151E+03
       300  22 -4.542591E+05 -7.750615E+02 -6.940872E+03  5.665015E+04 -5.024566E+03 -2.047040E+04
       300  23 -4.521725E+05 -5.437282E+03 -1.265561E+04  5.101676E+04 -1.155406E+04 -1.811385E+04
       300  24 -4.542773E+05 -2.335908E+04 -2.594136E+04  5.668377E+04 -1.809677E+04 -5.584733E+03
       300  25 -1.377421E+05  7.371717E+04  4.887649E+04  5.816223E+04 -9.790135E+03 -2.047691E+04
       300  26 -8.216233E+04  8.293950E+04  5.922871E+04  4.457976E+04  1.494807E+03 -1.809358E+04
       300  27 -2.767424E+04  8.199995E+04  7.438657E+04  4.229682E+04  1.276773E+04 -5.540761E+03
       301   1 -9.685620E+04  7.684049E+04  6.533312E+04  3.490446E+03 -1.738771E+04 -6.290498E+03
       301   2 -1.293233E+05  1.082967E+05  7.564088E+04  8.707400E+03 -1.620428E+04 -1.976825E+04
       301   3 -1.716551E+05  1.008352E+05  7.546626E+04  2.927103E+04 -1.503815E+04 -2.075909E+04
       301   4 -5.756596E+05 -4.211259E+04 -5.077439E+04  2.271622E+04 -3.488102E+04 -6.315818E+03
       301   5 -5.697492E+05  4.573589E+02 -2.308815E+04  1.500900E+04 -2.261752E+04 -1.977932E+04
       301   6 -5.756379E+05  2.169447E+03 -1.358960E+04  2.264954E+04 -1.037099E+04 -2.075199E+04
       301   7 -1.054252E+06 -1.610809E+05 -1.668971E+05  4.192704E+04 -5.236087E+04 -6.342233E+03
       301   8 -1.009994E+06 -1.073950E+05 -1.218293E+05  2.130601E+04 -2.902625E+04 -1.979053E+04
       301   9 -9.794678E+05 -9.650707E+04 -1.026554E+05  1.603233E+04 -5.706822E+03 -2.074499E+04
       301  10 -9.685654E+04  7.684036E+04  6.533247E+04  3.490358E+03 -3.294189E-09  5.597836E-10
       301  11 -1.293236E+05  1.082962E+05  7.563965E+04  8.707142E+03 -1.677858E-09  6.262546E-09
       301  12 -1.716555E+05  1.008346E+05  7.546503E+04  2.927078E+04  3.506560E-09  1.470119E-09
       301  13 -5.756609E+05 -4.211296E+04 -5.077675E+04  2.271604E+04 -1.781737E-09 -2.177044E-09
       301  14 -5.697498E+05  4.568014E+02 -2.308985E+04  1.500864E+04 -4.765946E-09 -6.404796E-09
       301  15 -5.756381E+05  2.168956E+03 -1.359061E+04  2.264936E+04 -4.529498E-09 -4.044129E-10
       301  16 -1.054255E+06 -1.610817E+05 -1.669023E+05  4.192678E+04  8.097484E-10  3.205508E-10
       301  17 -1.009995E+06 -1.073957E+05 -1.218316E+05  2.130555E+04  1.365591E-09  2.731390E-09
       301  18 -9.794680E+05 -9.650754E+04 -1.026562E+05  1.603224E+04 -1.676188E-09 -3.871172E-10
       301  19 -9.685620E+04  7.684049E+04  6.533312E+04  3.490446E+03  1.738771E+04  6.290498E+03
       301  20 -1.293233E+05  1.082967E+05  7.564088E+04  8.707400E+03  1.620428E+04  1.976825E+04
       301  21 -1.716551E+05  1.008352E+05  7.546626E+04  2.927103E+04  1.503815E+04  2.075909E+04
       301  22 -5.756596E+05 -4.211259E+04 -5.077439E+04  2.271622E+04  3.488102E+04  6.315818E+03
       301  23 -5.697492E+05  4.573589E+02 -2.308815E+04  1.500900E+04  2.261752E+04  1.977932E+04
       301  24 -5.756379E+05  2.169447E+03 -1.358960E+04  2.264954E+04  1.037099E+04  2.075199E+04
       301  25 -1.054252E+06 -1.610809E+05 -1.668971E+05  4.192704E+04  5.236087E+04  6.342233E+03
       301  26 -1.009994E+06 -1.073950E+05 -1.218293E+05  2.130601E+04  2.902625E+04  1.979053E+04
       301  27 -9.794678E+05 -9.650707E+04 -1.026554E+05  1.603233E+04  5.706822E+03  2.074499E+04
       302   1 -2.005847E+05  8.873227E+04  7.175738E+04  2.247254E+04 -9.439248E+03 -1.838961E+04
       302   2 -2.377327E+05  8.194800E+04  6.812838E+04  1.509314E+04 -7.002157E+03 -1.698136E+04
       302   3 -2.758002E+05  7.287903E+04  6.233445E+04  2.370596E+04 -4.567095E+03 -1.500970E+04
       302   4 -5.732367E+05 -2.342617E+03 -1.082261E+04  2.281327E+04 -8.439517E+03 -1.838865E+04
       302   5 -5.727279E+05  1.242160E+02 -5.847792E+03  1.481448E+04 -5.503844E+03 -1.697921E+04
       302   6 -5.732278E+05  2.188452E+02 -3.385470E+03  2.280849E+04 -2.570063E+03 -1.500621E+04
       302   7 -9.457589E+05 -9.342688E+04 -9.341121E+04  2.315372E+04 -7.440378E+03 -1.838768E+04
       302   8 -9.076182E+05 -8.170712E+04 -7.983087E+04  1.453592E+04 -4.006330E+03 -1.697705E+04
       302   9 -8.705728E+05 -7.244729E+04 -6.911083E+04  2.191141E+04 -5.739772E+02 -1.500272E+04
       302  10 -2.005849E+05  8.873188E+04  7.175658E+04  2.247240E+04 -5.244416E-09 -1.365374E-09
       302  11 -2.377328E+05  8.194768E+04  6.812774E+04  1.509305E+04  2.501564E-09  5.387392E-09
       302  12 -2.758003E+05  7.287878E+04  6.233399E+04  2.370590E+04  5.040791E-09  8.855046E-09
       302  13 -5.732368E+05 -2.342999E+03 -1.082338E+04  2.281314E+04 -2.564606E-09  5.623251E-09
       302  14 -5.727280E+05  1.238984E+02 -5.848390E+03  1.481440E+04  2.891437E-09 -8.712794E-09
       302  15 -5.732279E+05  2.186016E+02 -3.385906E+03  2.280845E+04  1.775108E-09  7.980274E-09
       302  16 -9.457591E+05 -9.342726E+04 -9.341195E+04  2.315361E+04  4.461902E-11 -5.037654E-09
       302  17 -9.076183E+05 -8.170744E+04 -7.983144E+04  1.453586E+04 -1.369631E-09 -2.249558E-09
       302  18 -8.705728E+05 -7.244754E+04 -6.911126E+04  2.191140E+04 -5.068968E-09  2.125454E-09
       302  19 -2.005847E+05  8.873227E+04  7.175738E+04  2.247254E+04  9.439248E+03  1.838961E+04
       302  20 -2.377327E+05  8.194800E+04  6.812838E+04  1.509314E+04  7.002157E+03  1.698136E+04
       302  21 -2.758002E+05  7.287903E+04  6.233445E+04  2.370596E+04  4.567095E+03  1.500970E+04
       302  22 -5.732367E+05 -2.342617E+03 -1.082261E+04  2.281327E+04  8.439517E+03  1.838865E+04
       302  23 -5.727279E+05  1.242160E+02 -5.847792E+03  1.481448E+04  5.503844E+03  1.697921E+04
       302  24 -5.732278E+05  2.188452E+02 -3.385470E+03  2.280849E+04  2.570063E+03  1.500621E+04
       302  25 -9.457589E+05 -9.342688E+04 -9.341121E+04  2.315372E+04  7.440378E+03  1.838768E+04
       302  26 -9.076182E+05 -8.170712E+04 -7.983087E+04  1.453592E+04  4.006330E+03  1.697705E+04
       302  27 -8.705728E+05 -7.244729E+04 -6.911083E+04  2.191141E+04  5.739772E+02  1.500272E+04
       303   1 -3.069559E+05  6.493160E+04  5.601404E+04  2.328439E+04 -3.882283E+03 -1.372934E+04
       303   2 -3.447285E+05  5.581502E+04  4.885372E+04  1.517850E+04 -3.167073E+03 -1.164445E+04
       303   3 -3.826777E+05  4.662501E+04  4.119377E+04  2.320370E+04 -2.452587E+03 -9.530600E+03
       303   4 -5.730402E+05 -3.614151E+01 -2.606734E+03  2.284075E+04 -2.045181E+03 -1.372598E+04
       303   5 -5.729465E+05  7.620440E+01 -1.501796E+03  1.477487E+04 -1.304585E+03 -1.164079E+04
       303   6 -5.730348E+05  1.108884E+02 -9.141121E+02  2.284044E+04 -5.646675E+02 -9.526619E+03
       303   7 -8.390581E+05 -6.500864E+04 -6.123184E+04  2.239728E+04 -2.088574E+02 -1.372262E+04
       303   8 -8.011159E+05 -5.566611E+04 -5.186051E+04  1.437137E+04  5.572273E+02 -1.163712E+04
       303   9 -7.633581E+05 -4.640568E+04 -4.302422E+04  2.247728E+04  1.322679E+03 -9.522641E+03
       303  10 -3.069560E+05  6.493139E+04  5.601366E+04  2.328434E+04  9.363642E-09 -1.776062E-09
       303  11 -3.447285E+05  5.581487E+04  4.885345E+04  1.517847E+04  6.672955E-09 -4.178375E-09
       303  12 -3.826777E+05  4.662491E+04  4.119359E+04  2.320368E+04  3.050391E-10 -2.302984E-09
       303  13 -5.730402E+05 -3.634489E+01 -2.607096E+03  2.284073E+04 -7.779199E-12 -3.144590E-10
       303  14 -5.729466E+05  7.605848E+01 -1.502054E+03  1.477486E+04 -1.424041E-09 -1.955085E-09
       303  15 -5.730349E+05  1.107909E+02 -9.142832E+02  2.284044E+04  4.300770E-09  7.844346E-10
       303  16 -8.390582E+05 -6.500884E+04 -6.123220E+04  2.239727E+04 -9.011383E-09 -2.856165E-09
       303  17 -8.011159E+05 -5.566625E+04 -5.186076E+04  1.437138E+04 -6.606065E-09  7.995377E-10
       303  18 -7.633581E+05 -4.640578E+04 -4.302440E+04  2.247729E+04  2.143927E-09  4.965602E-09
       303  19 -3.069559E+05  6.493160E+04  5.601404E+04  2.328439E+04  3.882283E+03  1.372934E+04
       303  20 -3.447285E+05  5.581502E+04  4.885372E+04  1.517850E+04  3.167073E+03  1.164445E+04
       303  21 -3.826777E+05  4.662501E+04  4.119377E+04  2.320370E+04  2.452587E+03  9.530600E+03
       303  22 -5.730402E+05 -3.614151E+01 -2.606734E+03  2.284075E+04  2.045181E+03  1.372598E+04
       303  23 -5.729465E+05  7.620440E+01 -1.501796E+03  1.477487E+04  1.304585E+03  1.164079E+04
       303  24 -5.730348E+05  1.108884E+02 -9.141121E+02  2.284044E+04  5.646675E+02  9.526619E+03
       303  25 -8.390581E+05 -6.500864E+04 -6.123184E+04  2.239728E+04  2.088574E+02  1.372262E+04
       303  26 -8.011159E+05 -5.566611E+04 -5.186051E+04  1.437137E+04 -5.572273E+02  1.163712E+04
       303  27 -7.633581E+05 -4.640568E+04 -4.302422E+04  2.247728E+04 -1.322679E+03  9.522641E+03
       304   1 -4.141655E+05  3.887565E+04  3.420376E+04  2.314323E+04 -2.301517E+03 -8.292905E+03
       304   2 -4.521361E+05  2.958624E+04  2.611569E+04  1.497003E+04 -2.039953E+03 -6.169012E+03
       304   3 -4.902103E+05  2.035930E+04  1.785265E+04  2.299698E+04 -1.778749E+03 -4.041898E+03
       304   4 -5.730153E+05  9.893046E+01 -7.392480E+02  2.285585E+04 -4.183485E+02 -8.288813E+03
       304   5 -5.729613E+05  7.489213E+01 -5.441692E+02  1.475566E+04 -1.540355E+02 -6.164779E+03
       304   6 -5.730126E+05  1.129375E+02 -5.259570E+02  2.285582E+04  1.099335E+02 -4.037520E+03
       304   7 -7.318415E+05 -3.867948E+04 -3.568378E+04  2.256853E+04  1.464343E+03 -8.284721E+03
       304   8 -6.937728E+05 -2.943743E+04 -2.720491E+04  1.454133E+04  1.731519E+03 -6.160548E+03
       304   9 -6.558085E+05 -2.013389E+04 -1.890498E+04  2.271468E+04  1.998367E+03 -4.033143E+03
       304  10 -4.141655E+05  3.887558E+04  3.420362E+04  2.314322E+04 -5.675043E-09 -4.614235E-09
       304  11 -4.521361E+05  2.958619E+04  2.611561E+04  1.497002E+04 -1.661690E-08  2.309128E-09
       304  12 -4.902103E+05  2.035928E+04  1.785262E+04  2.299697E+04 -2.158126E-08 -2.135380E-09
       304  13 -5.730153E+05  9.885666E+01 -7.393774E+02  2.285585E+04 -4.711769E-12  5.920608E-09
       304  14 -5.729613E+05  7.485132E+01 -5.442407E+02  1.475566E+04  1.963934E-09 -3.823022E-09
       304  15 -5.730126E+05  1.129200E+02 -5.259877E+02  2.285582E+04  5.830503E-10 -4.066547E-09
       304  16 -7.318415E+05 -3.867956E+04 -3.568392E+04  2.256854E+04  4.765342E-10  2.389953E-09
       304  17 -6.937728E+05 -2.943747E+04 -2.720499E+04  1.454134E+04  1.406008E-08  7.970445E-09
       304  18 -6.558086E+05 -2.013391E+04 -1.890502E+04  2.271468E+04  2.087683E-08  5.998107E-09
       304  19 -4.141655E+05  3.887565E+04  3.420376E+04  2.314323E+04  2.301517E+03  8.292905E+03
       304  20 -4.521361E+05  2.958624E+04  2.611569E+04  1.497003E+04  2.039953E+03  6.169012E+03
       304  21 -4.902103E+05  2.035930E+04  1.785265E+04  2.299698E+04  1.778749E+03  4.041898E+03
       304  22 -5.730153E+05  9.893046E+01 -7.392480E+02  2.285585E+04  4.183485E+02  8.288813E+03
       304  23 -5.729613E+05  7.489213E+01 -5.441692E+02  1.475566E+04  1.540355E+02  6.164779E+03
       304  24 -5.730126E+05  1.129375E+02 -5.259570E+02  2.285582E+04 -1.099335E+02  4.037520E+03
       304  25 -7.318415E+05 -3.867948E+04 -3.568378E+04  2.256853E+04 -1.464343E+03  8.284721E+03
       304  26 -6.937728E+05 -2.943743E+04 -2.720491E+04  1.454133E+04 -1.731519E+03  6.160548E+03
       304  27 -6.558085E+05 -2.013389E+04 -1.890498E+04  2.271468E+04 -1.998367E+03  4.033143E+03
       305   1 -5.218128E+05  1.259892E+04  1.061301E+04  2.294160E+04 -1.682548E+03 -2.802641E+03
       305   2 -5.598297E+05  3.288627E+03  2.071980E+03  1.474434E+04 -1.280012E+03 -6.726850E+02
       305   3 -5.979778E+05 -5.967413E+03 -6.739758E+03  2.277392E+04 -8.775421E+02  1.456762E+03
       305   4 -5.730178E+05  1.132372E+02 -5.781325E+02  2.286171E+04  2.070194E+02 -2.798214E+03
       305   5 -5.729512E+05  8.369772E+01 -8.233015E+02  1.474829E+04  6.090291E+02 -6.682470E+02
       305   6 -5.730176E+05  1.084460E+02 -1.338912E+03  2.286172E+04  1.010997E+03  1.461216E+03
       305   7 -6.242204E+05 -1.237262E+04 -1.176942E+04  2.278183E+04  2.096433E+03 -2.793787E+03
       305   8 -5.860725E+05 -3.121241E+03 -3.718580E+03  1.475224E+04  2.498031E+03 -6.638090E+02
       305   9 -5.480569E+05  6.184266E+03  4.061910E+03  2.294953E+04  2.899611E+03  1.465671E+03
       305  10 -5.218128E+05  1.259891E+04  1.061299E+04  2.294159E+04  3.996242E-09 -7.586882E-10
       305  11 -5.598297E+05  3.288626E+03  2.071976E+03  1.474434E+04 -4.461100E-09 -2.425416E-09
       305  12 -5.979778E+05 -5.967416E+03 -6.739763E+03  2.277392E+04 -8.778563E-09 -8.255864E-10
       305  13 -5.730178E+05  1.132288E+02 -5.781473E+02  2.286171E+04  1.697404E-09 -6.147414E-10
       305  14 -5.729512E+05  8.369714E+01 -8.233030E+02  1.474829E+04  3.681654E-09 -5.907320E-09
       305  15 -5.730177E+05  1.084434E+02 -1.338918E+03  2.286172E+04  1.570196E-09 -8.110736E-09
       305  16 -6.242204E+05 -1.237263E+04 -1.176944E+04  2.278183E+04 -5.661608E-09  3.285877E-09
       305  17 -5.860725E+05 -3.121243E+03 -3.718592E+03  1.475224E+04  1.546201E-09 -1.044066E-08
       305  18 -5.480569E+05  6.184261E+03  4.061890E+03  2.294953E+04  9.672544E-09 -4.995669E-09
       305  19 -5.218128E+05  1.259892E+04  1.061301E+04  2.294160E+04  1.682548E+03  2.802641E+03
       305  20 -5.598297E+05  3.288627E+03  2.071980E+03  1.474434E+04  1.280012E+03  6.726850E+02
       305  21 -5.979778E+05 -5.967413E+03 -6.739758E+03  2.277392E+04  8.775421E+02 -1.456762E+03
       305  22 -5.730178E+05  1.132372E+02 -5.781325E+02  2.286171E+04 -2.070194E+02  2.798214E+03
       305  23 -5.729512E+05  8.369772E+01 -8.233015E+02  1.474829E+04 -6.090291E+02  6.682470E+02
       305  24 -5.730176E+05  1.084460E+02 -1.338912E+03  2.286172E+04 -1.010997E+03 -1.461216E+03
       305  25 -6.242204E+05 -1.237262E+04 -1.176942E+04  2.278183E+04 -2.096433E+03  2.793787E+03
       305  26 -5.860725E+05 -3.121241E+03 -3.718580E+03  1.475224E+04 -2.498031E+03  6.638090E+02
       305  27 -5.480569E+05  6.184266E+03  4.061910E+03  2.294953E+04 -2.899611E+03 -1.465671E+03
       306   1 -6.296291E+05 -1.370614E+04 -1.432470E+04  2.266124E+04 -6.082302E+02  2.698408E+03
       306   2 -6.675016E+05 -2.299919E+04 -2.385318E+04  1.450779E+04  8.787958E+02  4.825552E+03
       306   3 -7.057139E+05 -3.252142E+04 -3.442911E+04  2.256373E+04  2.366059E+03  6.932737E+03
       306   4 -5.730637E+05  1.334639E+02 -1.734447E+03  2.285761E+04  1.285038E+03  2.702844E+03
       306   5 -5.728962E+05  1.118925E+02 -2.973677E+03  1.475331E+04  2.754525E+03  4.829838E+03
       306   6 -5.730663E+05 -1.355144E+02 -5.247799E+03  2.285824E+04  4.224339E+03  6.936881E+03
       306   7 -5.164952E+05  1.397285E+04  1.085562E+04  2.305400E+04  3.178476E+03  2.707282E+03
       306   8 -4.782825E+05  2.322238E+04  1.790529E+04  1.499886E+04  4.630537E+03  4.834126E+03
       306   9 -4.404023E+05  3.224921E+04  2.393244E+04  2.315281E+04  6.083011E+03  6.941025E+03
       306  10 -6.296291E+05 -1.370615E+04 -1.432472E+04  2.266124E+04  7.413750E-09  8.684829E-10
       306  11 -6.675016E+05 -2.299922E+04 -2.385323E+04  1.450778E+04  4.684574E-09 -3.027786E-09
       306  12 -7.057139E+05 -3.252147E+04 -3.442921E+04  2.256372E+04 -2.399604E-09  4.047021E-10
       306  13 -5.730637E+05  1.334556E+02 -1.734464E+03  2.285761E+04 -6.740854E-11 -4.557279E-09
       306  14 -5.728963E+05  1.118654E+02 -2.973735E+03  1.475329E+04 -1.693220E-09  1.572921E-09
       306  15 -5.730664E+05 -1.355709E+02 -5.247923E+03  2.285822E+04  5.191132E-09  7.393955E-09
       306  16 -5.164953E+05  1.397284E+04  1.085559E+04  2.305399E+04 -1.246466E-08  5.262383E-09
       306  17 -4.782826E+05  2.322235E+04  1.790521E+04  1.499884E+04 -5.114300E-09 -6.085812E-09
       306  18 -4.404023E+05  3.224915E+04  2.393228E+04  2.315278E+04  3.061933E-09  5.792481E-09
       306  19 -6.296291E+05 -1.370614E+04 -1.432470E+04  2.266124E+04  6.082302E+02 -2.698408E+03
       306  20 -6.675016E+05 -2.299919E+04 -2.385318E+04  1.450779E+04 -8.787958E+02 -4.825552E+03
       306  21 -7.057139E+05 -3.252142E+04 -3.442911E+04  2.256373E+04 -2.366059E+03 -6.932737E+03
       306  22 -5.730637E+05  1.334639E+02 -1.734447E+03  2.285761E+04 -1.285038E+03 -2.702844E+03
       306  23 -5.728962E+05  1.118925E+02 -2.973677E+03  1.475331E+04 -2.754525E+03 -4.829838E+03
       306  24 -5.730663E+05 -1.355144E+02 -5.247799E+03  2.285824E+04 -4.224339E+03 -6.936881E+03
       306  25 -5.164952E+05  1.397285E+04  1.085562E+04  2.305400E+04 -3.178476E+03 -2.707282E+03
       306  26 -4.782825E+05  2.322238E+04  1.790529E+04  1.499886E+04 -4.630537E+03 -4.834126E+03
       306  27 -4.404023E+05  3.224921E+04  2.393244E+04  2.315281E+04 -6.083011E+03 -6.941025E+03
       307   1 -7.376329E+05 -3.974953E+04 -4.317503E+04  2.165095E+04  3.308540E+03  8.208757E+03
       307   2 -7.744803E+05 -4.912940E+04 -5.648130E+04  1.483807E+04  9.616002E+03  1.024304E+04
       307   3 -8.134565E+05 -6.344975E+04 -7.514997E+04  2.416498E+04  1.592444E+04  1.186418E+04
       307   4 -5.734524E+05  3.836571E+02 -6.839491E+03  2.283937E+04  5.285072E+03  8.213067E+03
       307   5 -5.724232E+05  2.402573E+02 -1.183798E+04  1.477520E+04  1.122772E+04  1.024631E+04
       307   6 -5.734599E+05 -4.779088E+03 -2.194388E+04  2.285058E+04  1.717171E+04  1.186645E+04
       307   7 -4.092467E+05  4.051503E+04  2.949440E+04  2.402810E+04  7.262120E+03  8.217384E+03
       307   8 -3.703280E+05  4.960716E+04  3.280284E+04  1.471230E+04  1.283995E+04  1.024958E+04
       307   9 -3.334093E+05  5.388769E+04  3.125864E+04  2.153563E+04  1.841946E+04  1.186871E+04
       307  10 -7.376329E+05 -3.974961E+04 -4.317518E+04  2.165092E+04  1.331102E-08  4.073261E-10
       307  11 -7.744805E+05 -4.912954E+04 -5.648167E+04  1.483799E+04  1.065952E-09  3.038366E-09
       307  12 -8.134568E+05 -6.344997E+04 -7.515072E+04  2.416483E+04 -3.586668E-09 -3.990138E-09
       307  13 -5.734524E+05  3.835772E+02 -6.839670E+03  2.283934E+04  4.259858E-10 -4.308026E-12
       307  14 -5.724234E+05  2.401107E+02 -1.183841E+04  1.477511E+04  5.265384E-09  4.239755E-09
       307  15 -5.734602E+05 -4.779318E+03 -2.194470E+04  2.285041E+04  3.988438E-09  8.969038E-10
       307  16 -4.092467E+05  4.051495E+04  2.949417E+04  2.402805E+04 -1.450047E-08 -8.997838E-10
       307  17 -3.703282E+05  4.960701E+04  3.280234E+04  1.471219E+04 -1.133693E-09 -8.331956E-09
       307  18 -3.334097E+05  5.388745E+04  3.125774E+04  2.153545E+04  5.113730E-09  3.002658E-09
       307  19 -7.376329E+05 -3.974953E+04 -4.317503E+04  2.165095E+04 -3.308540E+03 -8.208757E+03
       307  20 -7.744803E+05 -4.912940E+04 -5.648130E+04  1.483807E+04 -9.616002E+03 -1.024304E+04
       307  21 -8.134565E+05 -6.344975E+04 -7.514997E+04  2.416498E+04 -1.592444E+04 -1.186418E+04
       307  22 -5.734524E+05  3.836571E+02 -6.839491E+03  2.283937E+04 -5.285072E+03 -8.213067E+03
       307  23 -5.724232E+05  2.402573E+02 -1.183798E+04  1.477520E+04 -1.122772E+04 -1.024631E+04
       307  24 -5.734599E+05 -4.779088E+03 -2.194388E+04  2.285058E+04 -1.717171E+04 -1.186645E+04
       307  25 -4.092467E+05  4.051503E+04  2.949440E+04  2.402810E+04 -7.262120E+03 -8.217384E+03
       307  26 -3.703280E+05  4.960716E+04  3.280284E+04  1.471230E+04 -1.283995E+04 -1.024958E+04
       307  27 -3.334093E+05  5.388769E+04  3.125864E+04  2.153563E+04 -1.841946E+04 -1.186871E+04
       308   1 -8.498534E+05 -6.200893E+04 -8.747322E+04  9.906830E+03  1.715278E+04  1.393522E+04
       308   2 -8.749968E+05 -7.461702E+04 -1.160802E+05  2.828423E+04  5.010954E+04  1.385037E+04
       308   3 -9.255886E+05 -1.716388E+05 -1.872750E+05  6.241070E+04  8.308027E+04  4.592838E+03
       308   4 -5.783390E+05  4.382117E+03 -2.756146E+04  2.271233E+04  2.109278E+04  1.394327E+04
       308   5 -5.663418E+05  9.534063E+02 -4.681511E+04  1.492319E+04  4.592174E+04  1.384058E+04
       308   6 -5.783704E+05 -8.545630E+04 -1.029951E+05  2.288531E+04  7.076726E+04  4.564456E+03
       308   7 -3.067553E+05  7.076881E+04  3.234591E+04  3.552347E+04  2.503448E+04  1.395148E+04
       308   8 -2.575975E+05  7.651803E+04  2.244414E+04  1.555387E+03  4.173188E+04  1.383096E+04
       308   9 -2.310382E+05  7.233282E+02 -1.872249E+04 -1.666233E+04  5.844737E+04  4.537653E+03
       308  10 -8.498538E+05 -6.200922E+04 -8.747414E+04  9.906638E+03  4.801044E-09 -3.302881E-09
       308  11 -8.749996E+05 -7.461790E+04 -1.160853E+05  2.828367E+04  5.240747E-09  6.068853E-10
       308  12 -9.255960E+05 -1.716406E+05 -1.872881E+05  6.241039E+04  5.520039E-09  4.639482E-09
       308  13 -5.783395E+05  4.381789E+03 -2.756266E+04  2.271209E+04 -8.372791E-12  3.160240E-09
       308  14 -5.663441E+05  9.526339E+02 -4.681943E+04  1.492268E+04  1.633377E-09  1.175221E-09
       308  15 -5.783758E+05 -8.545767E+04 -1.030046E+05  2.288505E+04 -1.078223E-09  2.710225E-09
       308  16 -3.067560E+05  7.076843E+04  3.234436E+04  3.552319E+04 -7.983163E-09  2.729286E-09
       308  17 -2.575994E+05  7.651735E+04  2.244051E+04  1.554922E+03 -9.325355E-09  2.201572E-09
       308  18 -2.310419E+05  7.223885E+02 -1.872895E+04 -1.666254E+04 -3.331107E-09  2.815312E-10
       308  19 -8.498534E+05 -6.200893E+04 -8.747322E+04  9.906830E+03 -1.715278E+04 -1.393522E+04
       308  20 -8.749968E+05 -7.461702E+04 -1.160802E+05  2.828423E+04 -5.010954E+04 -1.385037E+04
       308  21 -9.255886E+05 -1.716388E+05 -1.872750E+05  6.241070E+04 -8.308027E+04 -4.592838E+03
       308  22 -5.783390E+05  4.382117E+03 -2.756146E+04  2.271233E+04 -2.109278E+04 -1.394327E+04
       308  23 -5.663418E+05  9.534063E+02 -4.681511E+04  1.492319E+04 -4.592174E+04 -1.384058E+04
       308  24 -5.783704E+05 -8.545630E+04 -1.029951E+05  2.288531E+04 -7.076726E+04 -4.564456E+03
       308  25 -3.067553E+05  7.076881E+04  3.234591E+04  3.552347E+04 -2.503448E+04 -1.395148E+04
       308  26 -2.575975E+05  7.651803E+04  2.244414E+04  1.555387E+03 -4.173188E+04 -1.383096E+04
       308  27 -2.310382E+05  7.233282E+02 -1.872249E+04 -1.666233E+04 -5.844737E+04 -4.537653E+03
